    1C
    1UUSER                                                              
    1UDATE              26.october.2022                                 
    1UTIME              23:59:48                                        
    1UHOST                                                              
    1UPGM               CalculiX                                        
    1UVERSION           Version 2.17                             
    1UCOMPILETIME       Thu Jul 23 21:43:50 CEST 2020                    
    1UDIR                                                               
    1UDBN                                                               
    1UMAT    1SOLIDMATERIAL                                             
    2C                          4389                                     1
 -1         1 8.45446E+01 3.00816E+01 0.00000E+00
 -1         2 8.93715E+01 2.34275E+01 0.00000E+00
 -1         3 1.50000E+02 0.00000E+00 0.00000E+00
 -1         4 1.50000E+02 5.00000E+01 0.00000E+00
 -1         5 0.00000E+00 0.00000E+00 0.00000E+00
 -1         6 0.00000E+00 5.00000E+01 0.00000E+00
 -1         7 0.00000E+00 4.70500E+01 0.00000E+00
 -1         8 0.00000E+00 4.41000E+01 0.00000E+00
 -1         9 0.00000E+00 4.11500E+01 0.00000E+00
 -1        10 0.00000E+00 3.82000E+01 0.00000E+00
 -1        11 0.00000E+00 3.52500E+01 0.00000E+00
 -1        12 0.00000E+00 3.23500E+01 0.00000E+00
 -1        13 0.00000E+00 2.94000E+01 0.00000E+00
 -1        14 0.00000E+00 2.64500E+01 0.00000E+00
 -1        15 0.00000E+00 2.35000E+01 0.00000E+00
 -1        16 0.00000E+00 2.05500E+01 0.00000E+00
 -1        17 0.00000E+00 1.76000E+01 0.00000E+00
 -1        18 0.00000E+00 1.47000E+01 0.00000E+00
 -1        19 0.00000E+00 1.17500E+01 0.00000E+00
 -1        20 0.00000E+00 8.80000E+00 0.00000E+00
 -1        21 0.00000E+00 5.85000E+00 0.00000E+00
 -1        22 0.00000E+00 2.90000E+00 0.00000E+00
 -1        23 3.15000E+00 5.00000E+01 0.00000E+00
 -1        24 6.15000E+00 5.00000E+01 0.00000E+00
 -1        25 9.15000E+00 5.00000E+01 0.00000E+00
 -1        26 1.21500E+01 5.00000E+01 0.00000E+00
 -1        27 1.51500E+01 5.00000E+01 0.00000E+00
 -1        28 1.81500E+01 5.00000E+01 0.00000E+00
 -1        29 2.11500E+01 5.00000E+01 0.00000E+00
 -1        30 2.41500E+01 5.00000E+01 0.00000E+00
 -1        31 2.71500E+01 5.00000E+01 0.00000E+00
 -1        32 3.01500E+01 5.00000E+01 0.00000E+00
 -1        33 3.31500E+01 5.00000E+01 0.00000E+00
 -1        34 3.61500E+01 5.00000E+01 0.00000E+00
 -1        35 3.91500E+01 5.00000E+01 0.00000E+00
 -1        36 4.21500E+01 5.00000E+01 0.00000E+00
 -1        37 4.51500E+01 5.00000E+01 0.00000E+00
 -1        38 4.81500E+01 5.00000E+01 0.00000E+00
 -1        39 5.11500E+01 5.00000E+01 0.00000E+00
 -1        40 5.41500E+01 5.00000E+01 0.00000E+00
 -1        41 5.71500E+01 5.00000E+01 0.00000E+00
 -1        42 6.01500E+01 5.00000E+01 0.00000E+00
 -1        43 6.31500E+01 5.00000E+01 0.00000E+00
 -1        44 6.61500E+01 5.00000E+01 0.00000E+00
 -1        45 6.91500E+01 5.00000E+01 0.00000E+00
 -1        46 7.21500E+01 5.00000E+01 0.00000E+00
 -1        47 7.51500E+01 5.00000E+01 0.00000E+00
 -1        48 7.81500E+01 5.00000E+01 0.00000E+00
 -1        49 8.11500E+01 5.00000E+01 0.00000E+00
 -1        50 8.41500E+01 5.00000E+01 0.00000E+00
 -1        51 8.71500E+01 5.00000E+01 0.00000E+00
 -1        52 9.01500E+01 5.00000E+01 0.00000E+00
 -1        53 9.31500E+01 5.00000E+01 0.00000E+00
 -1        54 9.61500E+01 5.00000E+01 0.00000E+00
 -1        55 9.91500E+01 5.00000E+01 0.00000E+00
 -1        56 1.02150E+02 5.00000E+01 0.00000E+00
 -1        57 1.05150E+02 5.00000E+01 0.00000E+00
 -1        58 1.08150E+02 5.00000E+01 0.00000E+00
 -1        59 1.11150E+02 5.00000E+01 0.00000E+00
 -1        60 1.14150E+02 5.00000E+01 0.00000E+00
 -1        61 1.17150E+02 5.00000E+01 0.00000E+00
 -1        62 1.20150E+02 5.00000E+01 0.00000E+00
 -1        63 1.23150E+02 5.00000E+01 0.00000E+00
 -1        64 1.26150E+02 5.00000E+01 0.00000E+00
 -1        65 1.29150E+02 5.00000E+01 0.00000E+00
 -1        66 1.32150E+02 5.00000E+01 0.00000E+00
 -1        67 1.35150E+02 5.00000E+01 0.00000E+00
 -1        68 1.38150E+02 5.00000E+01 0.00000E+00
 -1        69 1.41150E+02 5.00000E+01 0.00000E+00
 -1        70 1.44150E+02 5.00000E+01 0.00000E+00
 -1        71 1.47150E+02 5.00000E+01 0.00000E+00
 -1        72 3.15000E+00 0.00000E+00 0.00000E+00
 -1        73 6.15000E+00 0.00000E+00 0.00000E+00
 -1        74 9.15000E+00 0.00000E+00 0.00000E+00
 -1        75 1.21500E+01 0.00000E+00 0.00000E+00
 -1        76 1.51500E+01 0.00000E+00 0.00000E+00
 -1        77 1.81500E+01 0.00000E+00 0.00000E+00
 -1        78 2.11500E+01 0.00000E+00 0.00000E+00
 -1        79 2.41500E+01 0.00000E+00 0.00000E+00
 -1        80 2.71500E+01 0.00000E+00 0.00000E+00
 -1        81 3.01500E+01 0.00000E+00 0.00000E+00
 -1        82 3.31500E+01 0.00000E+00 0.00000E+00
 -1        83 3.61500E+01 0.00000E+00 0.00000E+00
 -1        84 3.91500E+01 0.00000E+00 0.00000E+00
 -1        85 4.21500E+01 0.00000E+00 0.00000E+00
 -1        86 4.51500E+01 0.00000E+00 0.00000E+00
 -1        87 4.81500E+01 0.00000E+00 0.00000E+00
 -1        88 5.11500E+01 0.00000E+00 0.00000E+00
 -1        89 5.41500E+01 0.00000E+00 0.00000E+00
 -1        90 5.71500E+01 0.00000E+00 0.00000E+00
 -1        91 6.01500E+01 0.00000E+00 0.00000E+00
 -1        92 6.31500E+01 0.00000E+00 0.00000E+00
 -1        93 6.61500E+01 0.00000E+00 0.00000E+00
 -1        94 6.91500E+01 0.00000E+00 0.00000E+00
 -1        95 7.21500E+01 0.00000E+00 0.00000E+00
 -1        96 7.51500E+01 0.00000E+00 0.00000E+00
 -1        97 7.81500E+01 0.00000E+00 0.00000E+00
 -1        98 8.11500E+01 0.00000E+00 0.00000E+00
 -1        99 8.41500E+01 0.00000E+00 0.00000E+00
 -1       100 8.71500E+01 0.00000E+00 0.00000E+00
 -1       101 9.01500E+01 0.00000E+00 0.00000E+00
 -1       102 9.31500E+01 0.00000E+00 0.00000E+00
 -1       103 9.61500E+01 0.00000E+00 0.00000E+00
 -1       104 9.91500E+01 0.00000E+00 0.00000E+00
 -1       105 1.02150E+02 0.00000E+00 0.00000E+00
 -1       106 1.05150E+02 0.00000E+00 0.00000E+00
 -1       107 1.08150E+02 0.00000E+00 0.00000E+00
 -1       108 1.11150E+02 0.00000E+00 0.00000E+00
 -1       109 1.14150E+02 0.00000E+00 0.00000E+00
 -1       110 1.17150E+02 0.00000E+00 0.00000E+00
 -1       111 1.20150E+02 0.00000E+00 0.00000E+00
 -1       112 1.23150E+02 0.00000E+00 0.00000E+00
 -1       113 1.26150E+02 0.00000E+00 0.00000E+00
 -1       114 1.29150E+02 0.00000E+00 0.00000E+00
 -1       115 1.32150E+02 0.00000E+00 0.00000E+00
 -1       116 1.35150E+02 0.00000E+00 0.00000E+00
 -1       117 1.38150E+02 0.00000E+00 0.00000E+00
 -1       118 1.41150E+02 0.00000E+00 0.00000E+00
 -1       119 1.44150E+02 0.00000E+00 0.00000E+00
 -1       120 1.47150E+02 0.00000E+00 0.00000E+00
 -1       121 1.50000E+02 2.95000E+00 0.00000E+00
 -1       122 1.50000E+02 5.90000E+00 0.00000E+00
 -1       123 1.50000E+02 8.85000E+00 0.00000E+00
 -1       124 1.50000E+02 1.18000E+01 0.00000E+00
 -1       125 1.50000E+02 1.47500E+01 0.00000E+00
 -1       126 1.50000E+02 1.76500E+01 0.00000E+00
 -1       127 1.50000E+02 2.06000E+01 0.00000E+00
 -1       128 1.50000E+02 2.35500E+01 0.00000E+00
 -1       129 1.50000E+02 2.65000E+01 0.00000E+00
 -1       130 1.50000E+02 2.94500E+01 0.00000E+00
 -1       131 1.50000E+02 3.24000E+01 0.00000E+00
 -1       132 1.50000E+02 3.53000E+01 0.00000E+00
 -1       133 1.50000E+02 3.82500E+01 0.00000E+00
 -1       134 1.50000E+02 4.12000E+01 0.00000E+00
 -1       135 1.50000E+02 4.41500E+01 0.00000E+00
 -1       136 1.50000E+02 4.71000E+01 0.00000E+00
 -1       137 8.91764E+01 2.17866E+01 0.00000E+00
 -1       138 8.86933E+01 2.04218E+01 0.00000E+00
 -1       139 8.78994E+01 1.91330E+01 0.00000E+00
 -1       140 8.69047E+01 1.80936E+01 0.00000E+00
 -1       141 8.56902E+01 1.72642E+01 0.00000E+00
 -1       142 8.43008E+01 1.66986E+01 0.00000E+00
 -1       143 8.27029E+01 1.64353E+01 0.00000E+00
 -1       144 8.11925E+01 1.65275E+01 0.00000E+00
 -1       145 7.95994E+01 1.69997E+01 0.00000E+00
 -1       146 7.83417E+01 1.77037E+01 0.00000E+00
 -1       147 7.71804E+01 1.87314E+01 0.00000E+00
 -1       148 7.62608E+01 2.00128E+01 0.00000E+00
 -1       149 7.56926E+01 2.13316E+01 0.00000E+00
 -1       150 7.54009E+01 2.27861E+01 0.00000E+00
 -1       151 7.54137E+01 2.41955E+01 0.00000E+00
 -1       152 7.57832E+01 2.57929E+01 0.00000E+00
 -1       153 7.63941E+01 2.70704E+01 0.00000E+00
 -1       154 7.73498E+01 2.83042E+01 0.00000E+00
 -1       155 7.85320E+01 2.92805E+01 0.00000E+00
 -1       156 7.97910E+01 2.99345E+01 0.00000E+00
 -1       157 8.14083E+01 3.03609E+01 0.00000E+00
 -1       158 8.30492E+01 3.03946E+01 0.00000E+00
 -1       159 8.58915E+01 2.94781E+01 0.00000E+00
 -1       160 8.70917E+01 2.85966E+01 0.00000E+00
 -1       161 8.80809E+01 2.74775E+01 0.00000E+00
 -1       162 8.87863E+01 2.62293E+01 0.00000E+00
 -1       163 8.92306E+01 2.48245E+01 0.00000E+00
 -1       164 2.59800E+00 4.55750E+01 0.00000E+00
 -1       165 2.59800E+00 4.26250E+01 0.00000E+00
 -1       166 2.59800E+00 3.96750E+01 0.00000E+00
 -1       167 2.59800E+00 3.67250E+01 0.00000E+00
 -1       168 2.59800E+00 3.38250E+01 0.00000E+00
 -1       169 2.59800E+00 3.08750E+01 0.00000E+00
 -1       170 2.59800E+00 2.79250E+01 0.00000E+00
 -1       171 2.59800E+00 2.49750E+01 0.00000E+00
 -1       172 2.59800E+00 2.20250E+01 0.00000E+00
 -1       173 2.59800E+00 1.90750E+01 0.00000E+00
 -1       174 2.59800E+00 1.61750E+01 0.00000E+00
 -1       175 2.59800E+00 1.32250E+01 0.00000E+00
 -1       176 2.59800E+00 1.02750E+01 0.00000E+00
 -1       177 2.59800E+00 7.32500E+00 0.00000E+00
 -1       178 2.59800E+00 4.37500E+00 0.00000E+00
 -1       179 2.87400E+00 2.18750E+00 0.00000E+00
 -1       180 4.65000E+00 4.74020E+01 0.00000E+00
 -1       181 7.65000E+00 4.74020E+01 0.00000E+00
 -1       182 1.06500E+01 4.74020E+01 0.00000E+00
 -1       183 1.36500E+01 4.74020E+01 0.00000E+00
 -1       184 1.66500E+01 4.74020E+01 0.00000E+00
 -1       185 1.96500E+01 4.74020E+01 0.00000E+00
 -1       186 2.26500E+01 4.74020E+01 0.00000E+00
 -1       187 2.56500E+01 4.74020E+01 0.00000E+00
 -1       188 2.86500E+01 4.74020E+01 0.00000E+00
 -1       189 3.16500E+01 4.74020E+01 0.00000E+00
 -1       190 3.46500E+01 4.74020E+01 0.00000E+00
 -1       191 3.76500E+01 4.74020E+01 0.00000E+00
 -1       192 4.06500E+01 4.74020E+01 0.00000E+00
 -1       193 4.36500E+01 4.74020E+01 0.00000E+00
 -1       194 4.66500E+01 4.74020E+01 0.00000E+00
 -1       195 4.96500E+01 4.74020E+01 0.00000E+00
 -1       196 5.26500E+01 4.74020E+01 0.00000E+00
 -1       197 5.56500E+01 4.74020E+01 0.00000E+00
 -1       198 5.86500E+01 4.74020E+01 0.00000E+00
 -1       199 6.16500E+01 4.74020E+01 0.00000E+00
 -1       200 6.46500E+01 4.74020E+01 0.00000E+00
 -1       201 6.76500E+01 4.74020E+01 0.00000E+00
 -1       202 7.06500E+01 4.74020E+01 0.00000E+00
 -1       203 7.36500E+01 4.74020E+01 0.00000E+00
 -1       204 7.66500E+01 4.74020E+01 0.00000E+00
 -1       205 7.96500E+01 4.74020E+01 0.00000E+00
 -1       206 8.26500E+01 4.74020E+01 0.00000E+00
 -1       207 8.56500E+01 4.74020E+01 0.00000E+00
 -1       208 8.86500E+01 4.74020E+01 0.00000E+00
 -1       209 9.16500E+01 4.74020E+01 0.00000E+00
 -1       210 9.46500E+01 4.74020E+01 0.00000E+00
 -1       211 9.76500E+01 4.74020E+01 0.00000E+00
 -1       212 1.00650E+02 4.74020E+01 0.00000E+00
 -1       213 1.03650E+02 4.74020E+01 0.00000E+00
 -1       214 1.06650E+02 4.74020E+01 0.00000E+00
 -1       215 1.09650E+02 4.74020E+01 0.00000E+00
 -1       216 1.12650E+02 4.74020E+01 0.00000E+00
 -1       217 1.15650E+02 4.74020E+01 0.00000E+00
 -1       218 1.18650E+02 4.74020E+01 0.00000E+00
 -1       219 1.21650E+02 4.74020E+01 0.00000E+00
 -1       220 1.24650E+02 4.74020E+01 0.00000E+00
 -1       221 1.27650E+02 4.74020E+01 0.00000E+00
 -1       222 1.30650E+02 4.74020E+01 0.00000E+00
 -1       223 1.33650E+02 4.74020E+01 0.00000E+00
 -1       224 1.36650E+02 4.74020E+01 0.00000E+00
 -1       225 1.39650E+02 4.74020E+01 0.00000E+00
 -1       226 1.42650E+02 4.74020E+01 0.00000E+00
 -1       227 1.45650E+02 4.74020E+01 0.00000E+00
 -1       228 5.87400E+00 2.18750E+00 0.00000E+00
 -1       229 8.87400E+00 2.18750E+00 0.00000E+00
 -1       230 1.18740E+01 2.18750E+00 0.00000E+00
 -1       231 1.48740E+01 2.18750E+00 0.00000E+00
 -1       232 1.78740E+01 2.18750E+00 0.00000E+00
 -1       233 2.08740E+01 2.18750E+00 0.00000E+00
 -1       234 2.38740E+01 2.18750E+00 0.00000E+00
 -1       235 2.68740E+01 2.18750E+00 0.00000E+00
 -1       236 2.98740E+01 2.18750E+00 0.00000E+00
 -1       237 3.28740E+01 2.18750E+00 0.00000E+00
 -1       238 3.58740E+01 2.18750E+00 0.00000E+00
 -1       239 3.88740E+01 2.18750E+00 0.00000E+00
 -1       240 4.18740E+01 2.18750E+00 0.00000E+00
 -1       241 4.48740E+01 2.18750E+00 0.00000E+00
 -1       242 4.78740E+01 2.18750E+00 0.00000E+00
 -1       243 5.08740E+01 2.18750E+00 0.00000E+00
 -1       244 5.38740E+01 2.18750E+00 0.00000E+00
 -1       245 5.68740E+01 2.18750E+00 0.00000E+00
 -1       246 5.98740E+01 2.18750E+00 0.00000E+00
 -1       247 6.28740E+01 2.18750E+00 0.00000E+00
 -1       248 6.58740E+01 2.18750E+00 0.00000E+00
 -1       249 6.88740E+01 2.18750E+00 0.00000E+00
 -1       250 7.18740E+01 2.18750E+00 0.00000E+00
 -1       251 7.48740E+01 2.18750E+00 0.00000E+00
 -1       252 7.78740E+01 2.18750E+00 0.00000E+00
 -1       253 8.08740E+01 2.18750E+00 0.00000E+00
 -1       254 8.38740E+01 2.18750E+00 0.00000E+00
 -1       255 8.68740E+01 2.18750E+00 0.00000E+00
 -1       256 8.98740E+01 2.18750E+00 0.00000E+00
 -1       257 9.28740E+01 2.18750E+00 0.00000E+00
 -1       258 9.58740E+01 2.18750E+00 0.00000E+00
 -1       259 9.88740E+01 2.18750E+00 0.00000E+00
 -1       260 1.01874E+02 2.18750E+00 0.00000E+00
 -1       261 1.04874E+02 2.18750E+00 0.00000E+00
 -1       262 1.07874E+02 2.18750E+00 0.00000E+00
 -1       263 1.10874E+02 2.18750E+00 0.00000E+00
 -1       264 1.13874E+02 2.18750E+00 0.00000E+00
 -1       265 1.16874E+02 2.18750E+00 0.00000E+00
 -1       266 1.19874E+02 2.18750E+00 0.00000E+00
 -1       267 1.22874E+02 2.18750E+00 0.00000E+00
 -1       268 1.25874E+02 2.18750E+00 0.00000E+00
 -1       269 1.28874E+02 2.18750E+00 0.00000E+00
 -1       270 1.31874E+02 2.18750E+00 0.00000E+00
 -1       271 1.34874E+02 2.18750E+00 0.00000E+00
 -1       272 1.37874E+02 2.18750E+00 0.00000E+00
 -1       273 1.40874E+02 2.18750E+00 0.00000E+00
 -1       274 1.43874E+02 2.18750E+00 0.00000E+00
 -1       275 1.46874E+02 2.18750E+00 0.00000E+00
 -1       276 1.47402E+02 4.42500E+00 0.00000E+00
 -1       277 1.47402E+02 7.37500E+00 0.00000E+00
 -1       278 1.47402E+02 1.03250E+01 0.00000E+00
 -1       279 1.47402E+02 1.32750E+01 0.00000E+00
 -1       280 1.47402E+02 1.61750E+01 0.00000E+00
 -1       281 1.47402E+02 1.91250E+01 0.00000E+00
 -1       282 1.47402E+02 2.20750E+01 0.00000E+00
 -1       283 1.47402E+02 2.50250E+01 0.00000E+00
 -1       284 1.47402E+02 2.79750E+01 0.00000E+00
 -1       285 1.47402E+02 3.09250E+01 0.00000E+00
 -1       286 1.47402E+02 3.38250E+01 0.00000E+00
 -1       287 1.47402E+02 3.67750E+01 0.00000E+00
 -1       288 1.47402E+02 3.97250E+01 0.00000E+00
 -1       289 1.47402E+02 4.26750E+01 0.00000E+00
 -1       290 1.46526E+02 4.50385E+01 0.00000E+00
 -1       291 9.08107E+01 2.24244E+01 0.00000E+00
 -1       292 9.00778E+01 2.06997E+01 0.00000E+00
 -1       293 8.93999E+01 1.90976E+01 0.00000E+00
 -1       294 8.82780E+01 1.77751E+01 0.00000E+00
 -1       295 8.69812E+01 1.66777E+01 0.00000E+00
 -1       296 8.54526E+01 1.58585E+01 0.00000E+00
 -1       297 8.37535E+01 1.50400E+01 0.00000E+00
 -1       298 8.18688E+01 1.51876E+01 0.00000E+00
 -1       299 7.99799E+01 1.53602E+01 0.00000E+00
 -1       300 7.83784E+01 1.62938E+01 0.00000E+00
 -1       301 7.69576E+01 1.73096E+01 0.00000E+00
 -1       302 7.56676E+01 1.86164E+01 0.00000E+00
 -1       303 7.48633E+01 2.01925E+01 0.00000E+00
 -1       304 7.42759E+01 2.18040E+01 0.00000E+00
 -1       305 7.41950E+01 2.35019E+01 0.00000E+00
 -1       306 7.40908E+01 2.53430E+01 0.00000E+00
 -1       307 7.49949E+01 2.69546E+01 0.00000E+00
 -1       308 7.58472E+01 2.84810E+01 0.00000E+00
 -1       309 7.71155E+01 2.97918E+01 0.00000E+00
 -1       310 7.86026E+01 3.06834E+01 0.00000E+00
 -1       311 8.02265E+01 3.15631E+01 0.00000E+00
 -1       312 8.21970E+01 3.19250E+01 0.00000E+00
 -1       313 8.40796E+01 3.15888E+01 0.00000E+00
 -1       314 8.57138E+01 3.08862E+01 0.00000E+00
 -1       315 8.73084E+01 3.01495E+01 0.00000E+00
 -1       316 8.84947E+01 2.88400E+01 0.00000E+00
 -1       317 8.94891E+01 2.74499E+01 0.00000E+00
 -1       318 9.02443E+01 2.59178E+01 0.00000E+00
 -1       319 9.05073E+01 2.42476E+01 0.00000E+00
 -1       320 5.19600E+00 4.11500E+01 0.00000E+00
 -1       321 5.19600E+00 4.41000E+01 0.00000E+00
 -1       322 5.19600E+00 3.52750E+01 0.00000E+00
 -1       323 5.19600E+00 3.23250E+01 0.00000E+00
 -1       324 5.19600E+00 2.93750E+01 0.00000E+00
 -1       325 5.19600E+00 2.64250E+01 0.00000E+00
 -1       326 5.19600E+00 2.34750E+01 0.00000E+00
 -1       327 5.19600E+00 2.05250E+01 0.00000E+00
 -1       328 5.19600E+00 1.76250E+01 0.00000E+00
 -1       329 5.19600E+00 1.46750E+01 0.00000E+00
 -1       330 5.19600E+00 1.17250E+01 0.00000E+00
 -1       331 5.19600E+00 8.77500E+00 0.00000E+00
 -1       332 5.19600E+00 5.82500E+00 0.00000E+00
 -1       333 5.53500E+00 4.00625E+00 0.00000E+00
 -1       334 8.53500E+00 4.00625E+00 0.00000E+00
 -1       335 9.15000E+00 4.48040E+01 0.00000E+00
 -1       336 1.21500E+01 4.48040E+01 0.00000E+00
 -1       337 1.51500E+01 4.48040E+01 0.00000E+00
 -1       338 1.81500E+01 4.48040E+01 0.00000E+00
 -1       339 2.11500E+01 4.48040E+01 0.00000E+00
 -1       340 2.41500E+01 4.48040E+01 0.00000E+00
 -1       341 2.71500E+01 4.48040E+01 0.00000E+00
 -1       342 3.01500E+01 4.48040E+01 0.00000E+00
 -1       343 3.31500E+01 4.48040E+01 0.00000E+00
 -1       344 3.61500E+01 4.48040E+01 0.00000E+00
 -1       345 3.91500E+01 4.48040E+01 0.00000E+00
 -1       346 4.21500E+01 4.48040E+01 0.00000E+00
 -1       347 4.51500E+01 4.48040E+01 0.00000E+00
 -1       348 4.81500E+01 4.48040E+01 0.00000E+00
 -1       349 5.11500E+01 4.48040E+01 0.00000E+00
 -1       350 5.41500E+01 4.48040E+01 0.00000E+00
 -1       351 5.71500E+01 4.48040E+01 0.00000E+00
 -1       352 6.01500E+01 4.48040E+01 0.00000E+00
 -1       353 6.31500E+01 4.48040E+01 0.00000E+00
 -1       354 6.61500E+01 4.48040E+01 0.00000E+00
 -1       355 6.91500E+01 4.48040E+01 0.00000E+00
 -1       356 7.21500E+01 4.48040E+01 0.00000E+00
 -1       357 7.51500E+01 4.48040E+01 0.00000E+00
 -1       358 7.81500E+01 4.48040E+01 0.00000E+00
 -1       359 8.11500E+01 4.48040E+01 0.00000E+00
 -1       360 8.41500E+01 4.48040E+01 0.00000E+00
 -1       361 8.71500E+01 4.48040E+01 0.00000E+00
 -1       362 9.01500E+01 4.48040E+01 0.00000E+00
 -1       363 9.31500E+01 4.48040E+01 0.00000E+00
 -1       364 9.61500E+01 4.48040E+01 0.00000E+00
 -1       365 9.91500E+01 4.48040E+01 0.00000E+00
 -1       366 1.02150E+02 4.48040E+01 0.00000E+00
 -1       367 1.05150E+02 4.48040E+01 0.00000E+00
 -1       368 1.08150E+02 4.48040E+01 0.00000E+00
 -1       369 1.11150E+02 4.48040E+01 0.00000E+00
 -1       370 1.14150E+02 4.48040E+01 0.00000E+00
 -1       371 1.17150E+02 4.48040E+01 0.00000E+00
 -1       372 1.20150E+02 4.48040E+01 0.00000E+00
 -1       373 1.23150E+02 4.48040E+01 0.00000E+00
 -1       374 1.26150E+02 4.48040E+01 0.00000E+00
 -1       375 1.29150E+02 4.48040E+01 0.00000E+00
 -1       376 1.32150E+02 4.48040E+01 0.00000E+00
 -1       377 1.35150E+02 4.48040E+01 0.00000E+00
 -1       378 1.38150E+02 4.48040E+01 0.00000E+00
 -1       379 1.41150E+02 4.48040E+01 0.00000E+00
 -1       380 1.43838E+02 4.49212E+01 0.00000E+00
 -1       381 1.15350E+01 4.00625E+00 0.00000E+00
 -1       382 1.45350E+01 4.00625E+00 0.00000E+00
 -1       383 1.75350E+01 4.00625E+00 0.00000E+00
 -1       384 2.05350E+01 4.00625E+00 0.00000E+00
 -1       385 2.35350E+01 4.00625E+00 0.00000E+00
 -1       386 2.65350E+01 4.00625E+00 0.00000E+00
 -1       387 2.95350E+01 4.00625E+00 0.00000E+00
 -1       388 3.25350E+01 4.00625E+00 0.00000E+00
 -1       389 3.55350E+01 4.00625E+00 0.00000E+00
 -1       390 3.85350E+01 4.00625E+00 0.00000E+00
 -1       391 4.15350E+01 4.00625E+00 0.00000E+00
 -1       392 4.45350E+01 4.00625E+00 0.00000E+00
 -1       393 4.75350E+01 4.00625E+00 0.00000E+00
 -1       394 5.05350E+01 4.00625E+00 0.00000E+00
 -1       395 5.35350E+01 4.00625E+00 0.00000E+00
 -1       396 5.65350E+01 4.00625E+00 0.00000E+00
 -1       397 5.95350E+01 4.00625E+00 0.00000E+00
 -1       398 6.25350E+01 4.00625E+00 0.00000E+00
 -1       399 6.55350E+01 4.00625E+00 0.00000E+00
 -1       400 6.85350E+01 4.00625E+00 0.00000E+00
 -1       401 7.15350E+01 4.00625E+00 0.00000E+00
 -1       402 7.45350E+01 4.00625E+00 0.00000E+00
 -1       403 7.75350E+01 4.00625E+00 0.00000E+00
 -1       404 8.05350E+01 4.00625E+00 0.00000E+00
 -1       405 8.35350E+01 4.00625E+00 0.00000E+00
 -1       406 8.65350E+01 4.00625E+00 0.00000E+00
 -1       407 8.95350E+01 4.00625E+00 0.00000E+00
 -1       408 9.25350E+01 4.00625E+00 0.00000E+00
 -1       409 9.55350E+01 4.00625E+00 0.00000E+00
 -1       410 9.85350E+01 4.00625E+00 0.00000E+00
 -1       411 1.01535E+02 4.00625E+00 0.00000E+00
 -1       412 1.04535E+02 4.00625E+00 0.00000E+00
 -1       413 1.07535E+02 4.00625E+00 0.00000E+00
 -1       414 1.10535E+02 4.00625E+00 0.00000E+00
 -1       415 1.13535E+02 4.00625E+00 0.00000E+00
 -1       416 1.16535E+02 4.00625E+00 0.00000E+00
 -1       417 1.19535E+02 4.00625E+00 0.00000E+00
 -1       418 1.22535E+02 4.00625E+00 0.00000E+00
 -1       419 1.25535E+02 4.00625E+00 0.00000E+00
 -1       420 1.28535E+02 4.00625E+00 0.00000E+00
 -1       421 1.31535E+02 4.00625E+00 0.00000E+00
 -1       422 1.34535E+02 4.00625E+00 0.00000E+00
 -1       423 1.37535E+02 4.00625E+00 0.00000E+00
 -1       424 1.40535E+02 4.00625E+00 0.00000E+00
 -1       425 1.43535E+02 4.00625E+00 0.00000E+00
 -1       426 1.45469E+02 4.21562E+00 0.00000E+00
 -1       427 1.44804E+02 1.18000E+01 0.00000E+00
 -1       428 1.44804E+02 8.85000E+00 0.00000E+00
 -1       429 1.45136E+02 6.53281E+00 0.00000E+00
 -1       430 1.44804E+02 1.47000E+01 0.00000E+00
 -1       431 1.44804E+02 1.76500E+01 0.00000E+00
 -1       432 1.44804E+02 2.06000E+01 0.00000E+00
 -1       433 1.44804E+02 2.35500E+01 0.00000E+00
 -1       434 1.44804E+02 2.65000E+01 0.00000E+00
 -1       435 1.44804E+02 2.94500E+01 0.00000E+00
 -1       436 1.44804E+02 3.23500E+01 0.00000E+00
 -1       437 1.44804E+02 3.53000E+01 0.00000E+00
 -1       438 1.44804E+02 3.82500E+01 0.00000E+00
 -1       439 1.44804E+02 4.12000E+01 0.00000E+00
 -1       440 9.10098E+01 1.93609E+01 0.00000E+00
 -1       441 9.19376E+01 2.35487E+01 0.00000E+00
 -1       442 9.17426E+01 2.10856E+01 0.00000E+00
 -1       443 8.98912E+01 1.75436E+01 0.00000E+00
 -1       444 8.86834E+01 1.59811E+01 0.00000E+00
 -1       445 5.19600E+00 3.82125E+01 0.00000E+00
 -1       446 8.52746E+01 1.40550E+01 0.00000E+00
 -1       447 8.27034E+01 1.37381E+01 0.00000E+00
 -1       448 8.07835E+01 1.37328E+01 0.00000E+00
 -1       449 7.84420E+01 1.45624E+01 0.00000E+00
 -1       450 7.69141E+01 1.57473E+01 0.00000E+00
 -1       451 7.53306E+01 1.69935E+01 0.00000E+00
 -1       452 7.41109E+01 1.88152E+01 0.00000E+00
 -1       453 7.30369E+01 2.04396E+01 0.00000E+00
 -1       454 7.29407E+01 2.25913E+01 0.00000E+00
 -1       455 7.28365E+01 2.44324E+01 0.00000E+00
 -1       456 7.31201E+01 2.69469E+01 0.00000E+00
 -1       457 7.39724E+01 2.84734E+01 0.00000E+00
 -1       458 7.53692E+01 3.02125E+01 0.00000E+00
 -1       459 7.70202E+01 3.16367E+01 0.00000E+00
 -1       460 7.86440E+01 3.25164E+01 0.00000E+00
 -1       461 8.09322E+01 3.32661E+01 0.00000E+00
 -1       462 8.33661E+01 3.30329E+01 0.00000E+00
 -1       463 8.54417E+01 3.25053E+01 0.00000E+00
 -1       464 8.70364E+01 3.17686E+01 0.00000E+00
 -1       465 8.89864E+01 3.04775E+01 0.00000E+00
 -1       466 9.00461E+01 2.88991E+01 0.00000E+00
 -1       467 9.10293E+01 2.72569E+01 0.00000E+00
 -1       468 9.16746E+01 2.52190E+01 0.00000E+00
 -1       469 8.68032E+01 1.48743E+01 0.00000E+00
 -1       470 9.28696E+01 2.22099E+01 0.00000E+00
 -1       471 7.18658E+01 2.60363E+01 0.00000E+00
 -1       472 8.42245E+01 1.27531E+01 0.00000E+00
 -1       473 1.00350E+01 6.60425E+00 0.00000E+00
 -1       474 7.79400E+00 3.08500E+01 0.00000E+00
 -1       475 7.79400E+00 3.38000E+01 0.00000E+00
 -1       476 7.79400E+00 2.49500E+01 0.00000E+00
 -1       477 7.79400E+00 2.20000E+01 0.00000E+00
 -1       478 7.79400E+00 1.91000E+01 0.00000E+00
 -1       479 7.79400E+00 1.61500E+01 0.00000E+00
 -1       480 7.79400E+00 1.32000E+01 0.00000E+00
 -1       481 7.79400E+00 1.02500E+01 0.00000E+00
 -1       482 1.30350E+01 6.60425E+00 0.00000E+00
 -1       483 1.06500E+01 4.22060E+01 0.00000E+00
 -1       484 7.92300E+00 4.16780E+01 0.00000E+00
 -1       485 8.86134E+01 1.39497E+01 0.00000E+00
 -1       486 1.36500E+01 4.22060E+01 0.00000E+00
 -1       487 1.66500E+01 4.22060E+01 0.00000E+00
 -1       488 1.96500E+01 4.22060E+01 0.00000E+00
 -1       489 2.26500E+01 4.22060E+01 0.00000E+00
 -1       490 2.56500E+01 4.22060E+01 0.00000E+00
 -1       491 2.86500E+01 4.22060E+01 0.00000E+00
 -1       492 3.16500E+01 4.22060E+01 0.00000E+00
 -1       493 3.46500E+01 4.22060E+01 0.00000E+00
 -1       494 3.76500E+01 4.22060E+01 0.00000E+00
 -1       495 4.06500E+01 4.22060E+01 0.00000E+00
 -1       496 4.36500E+01 4.22060E+01 0.00000E+00
 -1       497 4.66500E+01 4.22060E+01 0.00000E+00
 -1       498 4.96500E+01 4.22060E+01 0.00000E+00
 -1       499 5.26500E+01 4.22060E+01 0.00000E+00
 -1       500 5.56500E+01 4.22060E+01 0.00000E+00
 -1       501 5.86500E+01 4.22060E+01 0.00000E+00
 -1       502 6.16500E+01 4.22060E+01 0.00000E+00
 -1       503 6.46500E+01 4.22060E+01 0.00000E+00
 -1       504 6.76500E+01 4.22060E+01 0.00000E+00
 -1       505 7.06500E+01 4.22060E+01 0.00000E+00
 -1       506 7.36500E+01 4.22060E+01 0.00000E+00
 -1       507 7.66500E+01 4.22060E+01 0.00000E+00
 -1       508 7.96500E+01 4.22060E+01 0.00000E+00
 -1       509 8.26500E+01 4.22060E+01 0.00000E+00
 -1       510 8.56500E+01 4.22060E+01 0.00000E+00
 -1       511 8.86500E+01 4.22060E+01 0.00000E+00
 -1       512 9.16500E+01 4.22060E+01 0.00000E+00
 -1       513 9.46500E+01 4.22060E+01 0.00000E+00
 -1       514 9.76500E+01 4.22060E+01 0.00000E+00
 -1       515 1.00650E+02 4.22060E+01 0.00000E+00
 -1       516 1.03650E+02 4.22060E+01 0.00000E+00
 -1       517 1.06650E+02 4.22060E+01 0.00000E+00
 -1       518 1.09650E+02 4.22060E+01 0.00000E+00
 -1       519 1.12650E+02 4.22060E+01 0.00000E+00
 -1       520 1.15650E+02 4.22060E+01 0.00000E+00
 -1       521 1.18650E+02 4.22060E+01 0.00000E+00
 -1       522 1.21650E+02 4.22060E+01 0.00000E+00
 -1       523 1.24650E+02 4.22060E+01 0.00000E+00
 -1       524 1.27650E+02 4.22060E+01 0.00000E+00
 -1       525 1.30650E+02 4.22060E+01 0.00000E+00
 -1       526 1.33650E+02 4.22060E+01 0.00000E+00
 -1       527 1.36650E+02 4.22060E+01 0.00000E+00
 -1       528 1.39650E+02 4.22060E+01 0.00000E+00
 -1       529 9.28005E+01 1.96180E+01 0.00000E+00
 -1       530 1.90350E+01 6.60425E+00 0.00000E+00
 -1       531 2.20350E+01 6.60425E+00 0.00000E+00
 -1       532 2.50350E+01 6.60425E+00 0.00000E+00
 -1       533 2.80350E+01 6.60425E+00 0.00000E+00
 -1       534 3.10350E+01 6.60425E+00 0.00000E+00
 -1       535 3.40350E+01 6.60425E+00 0.00000E+00
 -1       536 3.70350E+01 6.60425E+00 0.00000E+00
 -1       537 4.00350E+01 6.60425E+00 0.00000E+00
 -1       538 4.30350E+01 6.60425E+00 0.00000E+00
 -1       539 4.60350E+01 6.60425E+00 0.00000E+00
 -1       540 4.90350E+01 6.60425E+00 0.00000E+00
 -1       541 5.20350E+01 6.60425E+00 0.00000E+00
 -1       542 5.50350E+01 6.60425E+00 0.00000E+00
 -1       543 5.80350E+01 6.60425E+00 0.00000E+00
 -1       544 6.10350E+01 6.60425E+00 0.00000E+00
 -1       545 6.40350E+01 6.60425E+00 0.00000E+00
 -1       546 6.70350E+01 6.60425E+00 0.00000E+00
 -1       547 7.00350E+01 6.60425E+00 0.00000E+00
 -1       548 7.30350E+01 6.60425E+00 0.00000E+00
 -1       549 7.60350E+01 6.60425E+00 0.00000E+00
 -1       550 7.90350E+01 6.60425E+00 0.00000E+00
 -1       551 8.20350E+01 6.60425E+00 0.00000E+00
 -1       552 8.50350E+01 6.60425E+00 0.00000E+00
 -1       553 8.80350E+01 6.60425E+00 0.00000E+00
 -1       554 9.10350E+01 6.60425E+00 0.00000E+00
 -1       555 9.40350E+01 6.60425E+00 0.00000E+00
 -1       556 9.70350E+01 6.60425E+00 0.00000E+00
 -1       557 1.00035E+02 6.60425E+00 0.00000E+00
 -1       558 1.03035E+02 6.60425E+00 0.00000E+00
 -1       559 1.06035E+02 6.60425E+00 0.00000E+00
 -1       560 1.09035E+02 6.60425E+00 0.00000E+00
 -1       561 1.12035E+02 6.60425E+00 0.00000E+00
 -1       562 1.15035E+02 6.60425E+00 0.00000E+00
 -1       563 1.18035E+02 6.60425E+00 0.00000E+00
 -1       564 1.21035E+02 6.60425E+00 0.00000E+00
 -1       565 1.24035E+02 6.60425E+00 0.00000E+00
 -1       566 1.27035E+02 6.60425E+00 0.00000E+00
 -1       567 1.30035E+02 6.60425E+00 0.00000E+00
 -1       568 1.33035E+02 6.60425E+00 0.00000E+00
 -1       569 1.36035E+02 6.60425E+00 0.00000E+00
 -1       570 1.39035E+02 6.60425E+00 0.00000E+00
 -1       571 1.42035E+02 6.60425E+00 0.00000E+00
 -1       572 1.42206E+02 1.61750E+01 0.00000E+00
 -1       573 1.42206E+02 1.91250E+01 0.00000E+00
 -1       574 1.42206E+02 1.03250E+01 0.00000E+00
 -1       575 1.42206E+02 1.32500E+01 0.00000E+00
 -1       576 1.42206E+02 2.20750E+01 0.00000E+00
 -1       577 1.42206E+02 2.50250E+01 0.00000E+00
 -1       578 1.42206E+02 2.79750E+01 0.00000E+00
 -1       579 1.42206E+02 3.08750E+01 0.00000E+00
 -1       580 1.42206E+02 3.38250E+01 0.00000E+00
 -1       581 1.42206E+02 3.67750E+01 0.00000E+00
 -1       582 1.42206E+02 3.97250E+01 0.00000E+00
 -1       583 9.07768E+01 1.56109E+01 0.00000E+00
 -1       584 1.60350E+01 6.60425E+00 0.00000E+00
 -1       585 9.18953E+01 1.74282E+01 0.00000E+00
 -1       586 9.27474E+01 2.66798E+01 0.00000E+00
 -1       587 9.33348E+01 2.46246E+01 0.00000E+00
 -1       588 8.48264E+01 3.44313E+01 0.00000E+00
 -1       589 7.33989E+01 3.03645E+01 0.00000E+00
 -1       590 7.15265E+01 2.14501E+01 0.00000E+00
 -1       591 7.79400E+00 2.79000E+01 0.00000E+00
 -1       592 8.17477E+01 1.21879E+01 0.00000E+00
 -1       593 7.50744E+01 3.22233E+01 0.00000E+00
 -1       594 7.90400E+01 1.25310E+01 0.00000E+00
 -1       595 7.66270E+01 1.37996E+01 0.00000E+00
 -1       596 7.50434E+01 1.50457E+01 0.00000E+00
 -1       597 7.33652E+01 1.69968E+01 0.00000E+00
 -1       598 7.22912E+01 1.86212E+01 0.00000E+00
 -1       599 7.14223E+01 2.32912E+01 0.00000E+00
 -1       600 7.20488E+01 2.85463E+01 0.00000E+00
 -1       601 8.23447E+01 3.51904E+01 0.00000E+00
 -1       602 7.68556E+01 3.38793E+01 0.00000E+00
 -1       603 9.08707E+01 3.05976E+01 0.00000E+00
 -1       604 7.91437E+01 3.46290E+01 0.00000E+00
 -1       605 8.69584E+01 3.36939E+01 0.00000E+00
 -1       606 8.90508E+01 3.26928E+01 0.00000E+00
 -1       607 9.18538E+01 2.89555E+01 0.00000E+00
 -1       608 8.70848E+01 1.31304E+01 0.00000E+00
 -1       609 7.61550E+00 6.21462E+00 0.00000E+00
 -1       610 7.79400E+00 3.67375E+01 0.00000E+00
 -1       611 9.39274E+01 2.07424E+01 0.00000E+00
 -1       612 9.42668E+01 2.32858E+01 0.00000E+00
 -1       613 1.41678E+02 4.22645E+01 0.00000E+00
 -1       614 7.07808E+01 1.96316E+01 0.00000E+00
 -1       615 7.07945E+01 2.76357E+01 0.00000E+00
 -1       616 7.85850E+00 3.92077E+01 0.00000E+00
 -1       617 8.60347E+01 1.18285E+01 0.00000E+00
 -1       618 7.04516E+01 2.48951E+01 0.00000E+00
 -1       619 1.03920E+01 2.05500E+01 0.00000E+00
 -1       620 1.03920E+01 2.35000E+01 0.00000E+00
 -1       621 1.03920E+01 1.46750E+01 0.00000E+00
 -1       622 1.03920E+01 1.17250E+01 0.00000E+00
 -1       623 1.15350E+01 9.20225E+00 0.00000E+00
 -1       624 1.39206E+02 1.03250E+01 0.00000E+00
 -1       625 1.45350E+01 9.20225E+00 0.00000E+00
 -1       626 9.40530E+01 2.85057E+01 0.00000E+00
 -1       627 1.05855E+01 3.97357E+01 0.00000E+00
 -1       628 1.35855E+01 3.97357E+01 0.00000E+00
 -1       629 9.12556E+01 3.27699E+01 0.00000E+00
 -1       630 1.65855E+01 3.97357E+01 0.00000E+00
 -1       631 1.95855E+01 3.97357E+01 0.00000E+00
 -1       632 2.25855E+01 3.97357E+01 0.00000E+00
 -1       633 2.55855E+01 3.97357E+01 0.00000E+00
 -1       634 2.85855E+01 3.97357E+01 0.00000E+00
 -1       635 3.15855E+01 3.97357E+01 0.00000E+00
 -1       636 3.45855E+01 3.97357E+01 0.00000E+00
 -1       637 3.75855E+01 3.97357E+01 0.00000E+00
 -1       638 4.05855E+01 3.97357E+01 0.00000E+00
 -1       639 4.35855E+01 3.97357E+01 0.00000E+00
 -1       640 4.65855E+01 3.97357E+01 0.00000E+00
 -1       641 4.95855E+01 3.97357E+01 0.00000E+00
 -1       642 5.25855E+01 3.97357E+01 0.00000E+00
 -1       643 5.55855E+01 3.97357E+01 0.00000E+00
 -1       644 5.85855E+01 3.97357E+01 0.00000E+00
 -1       645 6.15855E+01 3.97357E+01 0.00000E+00
 -1       646 6.45855E+01 3.97357E+01 0.00000E+00
 -1       647 6.75855E+01 3.97357E+01 0.00000E+00
 -1       648 7.05855E+01 3.97357E+01 0.00000E+00
 -1       649 7.35855E+01 3.97357E+01 0.00000E+00
 -1       650 7.65855E+01 3.97357E+01 0.00000E+00
 -1       651 7.95855E+01 3.97357E+01 0.00000E+00
 -1       652 8.25855E+01 3.97357E+01 0.00000E+00
 -1       653 8.55855E+01 3.97357E+01 0.00000E+00
 -1       654 8.85855E+01 3.97357E+01 0.00000E+00
 -1       655 9.15855E+01 3.97357E+01 0.00000E+00
 -1       656 9.45855E+01 3.97357E+01 0.00000E+00
 -1       657 9.75855E+01 3.97357E+01 0.00000E+00
 -1       658 1.00586E+02 3.97357E+01 0.00000E+00
 -1       659 1.03586E+02 3.97357E+01 0.00000E+00
 -1       660 1.06586E+02 3.97357E+01 0.00000E+00
 -1       661 1.09586E+02 3.97357E+01 0.00000E+00
 -1       662 1.12586E+02 3.97357E+01 0.00000E+00
 -1       663 1.15586E+02 3.97357E+01 0.00000E+00
 -1       664 1.18586E+02 3.97357E+01 0.00000E+00
 -1       665 1.21586E+02 3.97357E+01 0.00000E+00
 -1       666 1.24586E+02 3.97357E+01 0.00000E+00
 -1       667 1.27586E+02 3.97357E+01 0.00000E+00
 -1       668 1.30585E+02 3.97357E+01 0.00000E+00
 -1       669 1.33585E+02 3.97357E+01 0.00000E+00
 -1       670 1.36585E+02 3.97357E+01 0.00000E+00
 -1       671 8.65078E+01 3.58419E+01 0.00000E+00
 -1       672 8.03900E+01 3.69291E+01 0.00000E+00
 -1       673 2.05350E+01 9.20225E+00 0.00000E+00
 -1       674 2.95350E+01 9.20225E+00 0.00000E+00
 -1       675 3.25350E+01 9.20225E+00 0.00000E+00
 -1       676 3.55350E+01 9.20225E+00 0.00000E+00
 -1       677 3.85350E+01 9.20225E+00 0.00000E+00
 -1       678 4.15350E+01 9.20225E+00 0.00000E+00
 -1       679 4.45350E+01 9.20225E+00 0.00000E+00
 -1       680 4.75350E+01 9.20225E+00 0.00000E+00
 -1       681 5.05350E+01 9.20225E+00 0.00000E+00
 -1       682 5.35350E+01 9.20225E+00 0.00000E+00
 -1       683 5.65350E+01 9.20225E+00 0.00000E+00
 -1       684 5.95350E+01 9.20225E+00 0.00000E+00
 -1       685 6.25350E+01 9.20225E+00 0.00000E+00
 -1       686 6.55350E+01 9.20225E+00 0.00000E+00
 -1       687 6.85350E+01 9.20225E+00 0.00000E+00
 -1       688 7.15350E+01 9.20225E+00 0.00000E+00
 -1       689 7.45350E+01 9.20225E+00 0.00000E+00
 -1       690 7.75350E+01 9.20225E+00 0.00000E+00
 -1       691 8.05350E+01 9.20225E+00 0.00000E+00
 -1       692 8.35350E+01 9.20225E+00 0.00000E+00
 -1       693 8.65350E+01 9.20225E+00 0.00000E+00
 -1       694 8.95350E+01 9.20225E+00 0.00000E+00
 -1       695 9.25350E+01 9.20225E+00 0.00000E+00
 -1       696 9.55350E+01 9.20225E+00 0.00000E+00
 -1       697 9.85350E+01 9.20225E+00 0.00000E+00
 -1       698 1.01535E+02 9.20225E+00 0.00000E+00
 -1       699 1.04535E+02 9.20225E+00 0.00000E+00
 -1       700 1.07535E+02 9.20225E+00 0.00000E+00
 -1       701 1.10535E+02 9.20225E+00 0.00000E+00
 -1       702 1.13535E+02 9.20225E+00 0.00000E+00
 -1       703 1.16535E+02 9.20225E+00 0.00000E+00
 -1       704 1.19535E+02 9.20225E+00 0.00000E+00
 -1       705 1.22535E+02 9.20225E+00 0.00000E+00
 -1       706 1.25535E+02 9.20225E+00 0.00000E+00
 -1       707 1.28535E+02 9.20225E+00 0.00000E+00
 -1       708 1.31535E+02 9.20225E+00 0.00000E+00
 -1       709 1.34535E+02 9.20225E+00 0.00000E+00
 -1       710 1.36870E+02 9.76363E+00 0.00000E+00
 -1       711 1.39608E+02 2.35500E+01 0.00000E+00
 -1       712 9.50124E+01 2.62156E+01 0.00000E+00
 -1       713 1.39608E+02 1.76500E+01 0.00000E+00
 -1       714 1.39608E+02 2.65000E+01 0.00000E+00
 -1       715 1.39608E+02 2.06000E+01 0.00000E+00
 -1       716 1.39608E+02 2.94000E+01 0.00000E+00
 -1       717 1.39608E+02 3.23500E+01 0.00000E+00
 -1       718 1.39608E+02 3.53000E+01 0.00000E+00
 -1       719 1.39608E+02 3.82500E+01 0.00000E+00
 -1       720 1.75350E+01 9.20225E+00 0.00000E+00
 -1       721 8.87385E+01 1.18807E+01 0.00000E+00
 -1       722 9.27967E+01 1.56206E+01 0.00000E+00
 -1       723 8.41852E+01 3.67715E+01 0.00000E+00
 -1       724 7.13469E+01 3.04779E+01 0.00000E+00
 -1       725 7.26500E+01 1.46843E+01 0.00000E+00
 -1       726 7.28382E+01 3.25544E+01 0.00000E+00
 -1       727 9.08417E+01 1.32870E+01 0.00000E+00
 -1       728 2.65350E+01 9.20225E+00 0.00000E+00
 -1       729 2.35350E+01 9.20225E+00 0.00000E+00
 -1       730 1.03920E+01 1.76125E+01 0.00000E+00
 -1       731 7.46831E+01 3.44301E+01 0.00000E+00
 -1       732 7.43600E+01 1.25481E+01 0.00000E+00
 -1       733 6.99293E+01 2.22832E+01 0.00000E+00
 -1       734 7.13975E+01 1.68631E+01 0.00000E+00
 -1       735 7.69574E+01 1.14988E+01 0.00000E+00
 -1       736 8.88894E+01 3.50428E+01 0.00000E+00
 -1       737 1.39629E+02 4.02280E+01 0.00000E+00
 -1       738 1.03920E+01 3.23250E+01 0.00000E+00
 -1       739 7.73613E+01 3.62025E+01 0.00000E+00
 -1       740 9.42427E+01 1.77399E+01 0.00000E+00
 -1       741 8.33490E+01 1.08800E+01 0.00000E+00
 -1       742 9.28338E+01 3.06576E+01 0.00000E+00
 -1       743 1.03920E+01 3.52625E+01 0.00000E+00
 -1       744 1.03920E+01 2.64500E+01 0.00000E+00
 -1       745 9.53696E+01 1.88643E+01 0.00000E+00
 -1       746 9.10942E+01 3.51199E+01 0.00000E+00
 -1       747 9.59444E+01 2.48768E+01 0.00000E+00
 -1       748 9.53246E+01 2.18182E+01 0.00000E+00
 -1       749 1.39608E+02 1.47250E+01 0.00000E+00
 -1       750 6.98871E+01 1.78735E+01 0.00000E+00
 -1       751 6.89586E+01 2.38871E+01 0.00000E+00
 -1       752 6.91836E+01 2.04647E+01 0.00000E+00
 -1       753 7.00926E+01 2.95673E+01 0.00000E+00
 -1       754 1.03920E+01 2.93875E+01 0.00000E+00
 -1       755 6.93803E+01 2.64945E+01 0.00000E+00
 -1       756 1.29900E+01 1.32000E+01 0.00000E+00
 -1       757 1.37010E+02 2.79500E+01 0.00000E+00
 -1       758 1.20855E+01 3.71377E+01 0.00000E+00
 -1       759 1.80855E+01 3.71377E+01 0.00000E+00
 -1       760 2.10855E+01 3.71377E+01 0.00000E+00
 -1       761 2.40855E+01 3.71377E+01 0.00000E+00
 -1       762 2.70855E+01 3.71377E+01 0.00000E+00
 -1       763 3.00855E+01 3.71377E+01 0.00000E+00
 -1       764 3.30855E+01 3.71377E+01 0.00000E+00
 -1       765 3.60855E+01 3.71377E+01 0.00000E+00
 -1       766 3.90855E+01 3.71377E+01 0.00000E+00
 -1       767 4.20855E+01 3.71377E+01 0.00000E+00
 -1       768 4.50855E+01 3.71377E+01 0.00000E+00
 -1       769 4.80855E+01 3.71377E+01 0.00000E+00
 -1       770 5.10855E+01 3.71377E+01 0.00000E+00
 -1       771 5.40855E+01 3.71377E+01 0.00000E+00
 -1       772 5.70855E+01 3.71377E+01 0.00000E+00
 -1       773 6.00855E+01 3.71377E+01 0.00000E+00
 -1       774 6.30855E+01 3.71377E+01 0.00000E+00
 -1       775 6.60855E+01 3.71377E+01 0.00000E+00
 -1       776 6.90855E+01 3.71377E+01 0.00000E+00
 -1       777 7.20855E+01 3.71377E+01 0.00000E+00
 -1       778 9.00855E+01 3.71377E+01 0.00000E+00
 -1       779 9.30855E+01 3.71377E+01 0.00000E+00
 -1       780 9.60855E+01 3.71377E+01 0.00000E+00
 -1       781 9.90855E+01 3.71377E+01 0.00000E+00
 -1       782 1.02086E+02 3.71377E+01 0.00000E+00
 -1       783 1.05086E+02 3.71377E+01 0.00000E+00
 -1       784 1.08086E+02 3.71377E+01 0.00000E+00
 -1       785 1.11086E+02 3.71377E+01 0.00000E+00
 -1       786 1.14086E+02 3.71377E+01 0.00000E+00
 -1       787 1.17086E+02 3.71377E+01 0.00000E+00
 -1       788 1.20086E+02 3.71377E+01 0.00000E+00
 -1       789 1.23086E+02 3.71377E+01 0.00000E+00
 -1       790 1.26086E+02 3.71377E+01 0.00000E+00
 -1       791 1.29085E+02 3.71377E+01 0.00000E+00
 -1       792 1.32085E+02 3.71377E+01 0.00000E+00
 -1       793 1.35085E+02 3.71377E+01 0.00000E+00
 -1       794 9.38214E+01 3.30412E+01 0.00000E+00
 -1       795 3.10350E+01 1.18003E+01 0.00000E+00
 -1       796 4.00350E+01 1.18003E+01 0.00000E+00
 -1       797 4.30350E+01 1.18003E+01 0.00000E+00
 -1       798 4.60350E+01 1.18003E+01 0.00000E+00
 -1       799 4.90350E+01 1.18003E+01 0.00000E+00
 -1       800 5.20350E+01 1.18003E+01 0.00000E+00
 -1       801 5.50350E+01 1.18003E+01 0.00000E+00
 -1       802 5.80350E+01 1.18003E+01 0.00000E+00
 -1       803 6.10350E+01 1.18003E+01 0.00000E+00
 -1       804 6.40350E+01 1.18003E+01 0.00000E+00
 -1       805 6.70350E+01 1.18003E+01 0.00000E+00
 -1       806 7.00350E+01 1.18003E+01 0.00000E+00
 -1       807 9.40350E+01 1.18003E+01 0.00000E+00
 -1       808 9.70350E+01 1.18003E+01 0.00000E+00
 -1       809 1.00035E+02 1.18003E+01 0.00000E+00
 -1       810 1.03035E+02 1.18003E+01 0.00000E+00
 -1       811 1.06035E+02 1.18003E+01 0.00000E+00
 -1       812 1.09035E+02 1.18003E+01 0.00000E+00
 -1       813 1.12035E+02 1.18003E+01 0.00000E+00
 -1       814 1.15035E+02 1.18003E+01 0.00000E+00
 -1       815 1.18035E+02 1.18003E+01 0.00000E+00
 -1       816 1.21035E+02 1.18003E+01 0.00000E+00
 -1       817 1.24035E+02 1.18003E+01 0.00000E+00
 -1       818 1.27035E+02 1.18003E+01 0.00000E+00
 -1       819 1.30035E+02 1.18003E+01 0.00000E+00
 -1       820 1.33035E+02 1.18003E+01 0.00000E+00
 -1       821 1.37010E+02 2.50000E+01 0.00000E+00
 -1       822 1.37010E+02 3.67750E+01 0.00000E+00
 -1       823 2.80350E+01 1.18003E+01 0.00000E+00
 -1       824 2.20350E+01 1.18003E+01 0.00000E+00
 -1       825 1.37010E+02 3.09000E+01 0.00000E+00
 -1       826 1.37010E+02 3.38375E+01 0.00000E+00
 -1       827 3.70350E+01 1.18003E+01 0.00000E+00
 -1       828 3.40350E+01 1.18003E+01 0.00000E+00
 -1       829 7.17736E+01 1.22302E+01 0.00000E+00
 -1       830 9.50814E+01 3.05098E+01 0.00000E+00
 -1       831 7.01010E+01 1.46684E+01 0.00000E+00
 -1       832 1.50855E+01 3.71377E+01 0.00000E+00
 -1       833 2.50350E+01 1.18003E+01 0.00000E+00
 -1       834 1.37625E+01 1.12011E+01 0.00000E+00
 -1       835 7.04273E+01 3.27122E+01 0.00000E+00
 -1       836 9.52133E+01 1.55247E+01 0.00000E+00
 -1       837 9.65783E+01 2.82176E+01 0.00000E+00
 -1       838 1.29900E+01 2.20250E+01 0.00000E+00
 -1       839 7.22989E+01 3.49299E+01 0.00000E+00
 -1       840 9.33908E+01 1.31371E+01 0.00000E+00
 -1       841 9.16884E+01 1.12446E+01 0.00000E+00
 -1       842 7.41343E+01 3.70829E+01 0.00000E+00
 -1       843 1.29900E+01 2.49750E+01 0.00000E+00
 -1       844 1.29900E+01 3.37938E+01 0.00000E+00
 -1       845 9.63403E+01 1.66491E+01 0.00000E+00
 -1       846 1.90350E+01 1.18003E+01 0.00000E+00
 -1       847 9.70022E+01 2.34092E+01 0.00000E+00
 -1       848 1.37010E+02 2.20500E+01 0.00000E+00
 -1       849 1.35370E+02 1.23616E+01 0.00000E+00
 -1       850 1.37010E+02 1.91000E+01 0.00000E+00
 -1       851 1.37273E+02 1.41636E+01 0.00000E+00
 -1       852 6.91730E+01 3.18016E+01 0.00000E+00
 -1       853 1.37141E+02 1.66318E+01 0.00000E+00
 -1       854 1.29900E+01 3.08563E+01 0.00000E+00
 -1       855 6.82899E+01 1.87066E+01 0.00000E+00
 -1       856 6.78873E+01 2.54865E+01 0.00000E+00
 -1       857 1.63988E+01 1.15007E+01 0.00000E+00
 -1       858 6.79696E+01 2.20247E+01 0.00000E+00
 -1       859 6.85906E+01 1.56788E+01 0.00000E+00
 -1       860 9.75103E+01 2.68788E+01 0.00000E+00
 -1       861 1.29900E+01 1.90875E+01 0.00000E+00
 -1       862 1.04234E+01 3.79048E+01 0.00000E+00
 -1       863 1.29900E+01 1.61437E+01 0.00000E+00
 -1       864 6.86784E+01 2.84261E+01 0.00000E+00
 -1       865 1.35085E+02 3.42002E+01 0.00000E+00
 -1       866 2.95350E+01 1.43982E+01 0.00000E+00
 -1       867 2.25855E+01 3.45397E+01 0.00000E+00
 -1       868 2.55855E+01 3.45397E+01 0.00000E+00
 -1       869 2.85855E+01 3.45397E+01 0.00000E+00
 -1       870 3.15855E+01 3.45397E+01 0.00000E+00
 -1       871 3.45855E+01 3.45397E+01 0.00000E+00
 -1       872 3.75855E+01 3.45397E+01 0.00000E+00
 -1       873 4.05855E+01 3.45397E+01 0.00000E+00
 -1       874 4.35855E+01 3.45397E+01 0.00000E+00
 -1       875 4.65855E+01 3.45397E+01 0.00000E+00
 -1       876 4.95855E+01 3.45397E+01 0.00000E+00
 -1       877 5.25855E+01 3.45397E+01 0.00000E+00
 -1       878 5.55855E+01 3.45397E+01 0.00000E+00
 -1       879 5.85855E+01 3.45397E+01 0.00000E+00
 -1       880 6.15855E+01 3.45397E+01 0.00000E+00
 -1       881 6.45855E+01 3.45397E+01 0.00000E+00
 -1       882 6.75855E+01 3.45397E+01 0.00000E+00
 -1       883 1.34412E+02 2.94250E+01 0.00000E+00
 -1       884 1.65855E+01 3.45397E+01 0.00000E+00
 -1       885 9.67368E+01 3.29131E+01 0.00000E+00
 -1       886 9.75855E+01 3.45397E+01 0.00000E+00
 -1       887 1.00586E+02 3.45397E+01 0.00000E+00
 -1       888 1.03586E+02 3.45397E+01 0.00000E+00
 -1       889 1.06586E+02 3.45397E+01 0.00000E+00
 -1       890 1.09586E+02 3.45397E+01 0.00000E+00
 -1       891 1.12586E+02 3.45397E+01 0.00000E+00
 -1       892 1.15586E+02 3.45397E+01 0.00000E+00
 -1       893 1.18586E+02 3.45397E+01 0.00000E+00
 -1       894 1.21586E+02 3.45397E+01 0.00000E+00
 -1       895 1.24586E+02 3.45397E+01 0.00000E+00
 -1       896 1.27586E+02 3.45397E+01 0.00000E+00
 -1       897 1.30585E+02 3.45397E+01 0.00000E+00
 -1       898 1.32835E+02 3.43700E+01 0.00000E+00
 -1       899 4.15350E+01 1.43982E+01 0.00000E+00
 -1       900 5.05350E+01 1.43982E+01 0.00000E+00
 -1       901 5.35350E+01 1.43982E+01 0.00000E+00
 -1       902 5.65350E+01 1.43982E+01 0.00000E+00
 -1       903 5.95350E+01 1.43982E+01 0.00000E+00
 -1       904 6.25350E+01 1.43982E+01 0.00000E+00
 -1       905 6.55350E+01 1.43982E+01 0.00000E+00
 -1       906 1.01535E+02 1.43982E+01 0.00000E+00
 -1       907 9.85350E+01 1.43982E+01 0.00000E+00
 -1       908 9.59629E+01 1.37677E+01 0.00000E+00
 -1       909 1.04535E+02 1.43982E+01 0.00000E+00
 -1       910 1.07535E+02 1.43982E+01 0.00000E+00
 -1       911 1.10535E+02 1.43982E+01 0.00000E+00
 -1       912 1.13535E+02 1.43982E+01 0.00000E+00
 -1       913 1.16535E+02 1.43982E+01 0.00000E+00
 -1       914 1.19535E+02 1.43982E+01 0.00000E+00
 -1       915 1.22535E+02 1.43982E+01 0.00000E+00
 -1       916 1.25535E+02 1.43982E+01 0.00000E+00
 -1       917 1.28535E+02 1.43982E+01 0.00000E+00
 -1       918 1.31535E+02 1.43982E+01 0.00000E+00
 -1       919 1.34412E+02 2.64750E+01 0.00000E+00
 -1       920 4.75350E+01 1.43982E+01 0.00000E+00
 -1       921 4.45350E+01 1.43982E+01 0.00000E+00
 -1       922 3.85350E+01 1.43982E+01 0.00000E+00
 -1       923 1.29900E+01 2.79188E+01 0.00000E+00
 -1       924 2.35350E+01 1.43982E+01 0.00000E+00
 -1       925 6.70759E+01 2.02666E+01 0.00000E+00
 -1       926 9.70620E+01 2.03674E+01 0.00000E+00
 -1       927 2.65350E+01 1.43982E+01 0.00000E+00
 -1       928 1.95855E+01 3.45397E+01 0.00000E+00
 -1       929 9.82338E+01 3.06209E+01 0.00000E+00
 -1       930 7.02139E+01 3.49200E+01 0.00000E+00
 -1       931 1.56263E+01 1.34996E+01 0.00000E+00
 -1       932 6.68983E+01 2.36241E+01 0.00000E+00
 -1       933 9.80327E+01 1.81522E+01 0.00000E+00
 -1       934 3.25350E+01 1.43982E+01 0.00000E+00
 -1       935 2.05350E+01 1.43982E+01 0.00000E+00
 -1       936 1.34412E+02 2.35250E+01 0.00000E+00
 -1       937 1.33870E+02 1.49596E+01 0.00000E+00
 -1       938 1.34412E+02 2.05750E+01 0.00000E+00
 -1       939 1.34543E+02 1.81068E+01 0.00000E+00
 -1       940 9.91657E+01 2.92822E+01 0.00000E+00
 -1       941 6.71855E+01 2.74181E+01 0.00000E+00
 -1       942 9.85681E+01 2.54112E+01 0.00000E+00
 -1       943 6.77588E+01 3.06604E+01 0.00000E+00
 -1       944 1.55880E+01 2.35000E+01 0.00000E+00
 -1       945 6.60047E+01 2.18660E+01 0.00000E+00
 -1       946 3.55350E+01 1.43982E+01 0.00000E+00
 -1       947 9.74376E+01 1.55237E+01 0.00000E+00
 -1       948 1.55880E+01 2.05625E+01 0.00000E+00
 -1       949 1.65855E+01 3.16022E+01 0.00000E+00
 -1       950 1.34749E+02 3.18126E+01 0.00000E+00
 -1       951 2.70855E+01 3.19417E+01 0.00000E+00
 -1       952 3.00855E+01 3.19417E+01 0.00000E+00
 -1       953 3.30855E+01 3.19417E+01 0.00000E+00
 -1       954 3.60855E+01 3.19417E+01 0.00000E+00
 -1       955 3.90855E+01 3.19417E+01 0.00000E+00
 -1       956 4.20855E+01 3.19417E+01 0.00000E+00
 -1       957 4.50855E+01 3.19417E+01 0.00000E+00
 -1       958 4.80855E+01 3.19417E+01 0.00000E+00
 -1       959 5.10855E+01 3.19417E+01 0.00000E+00
 -1       960 5.40855E+01 3.19417E+01 0.00000E+00
 -1       961 5.70855E+01 3.19417E+01 0.00000E+00
 -1       962 6.00855E+01 3.19417E+01 0.00000E+00
 -1       963 6.30855E+01 3.19417E+01 0.00000E+00
 -1       964 1.02086E+02 3.19417E+01 0.00000E+00
 -1       965 1.05086E+02 3.19417E+01 0.00000E+00
 -1       966 1.08086E+02 3.19417E+01 0.00000E+00
 -1       967 1.11086E+02 3.19417E+01 0.00000E+00
 -1       968 1.14086E+02 3.19417E+01 0.00000E+00
 -1       969 1.17086E+02 3.19417E+01 0.00000E+00
 -1       970 1.20086E+02 3.19417E+01 0.00000E+00
 -1       971 1.23086E+02 3.19417E+01 0.00000E+00
 -1       972 1.26086E+02 3.19417E+01 0.00000E+00
 -1       973 1.29085E+02 3.19417E+01 0.00000E+00
 -1       974 5.50350E+01 1.69963E+01 0.00000E+00
 -1       975 1.61479E+01 1.66560E+01 0.00000E+00
 -1       976 5.20350E+01 1.69963E+01 0.00000E+00
 -1       977 6.10350E+01 1.69963E+01 0.00000E+00
 -1       978 6.40350E+01 1.69963E+01 0.00000E+00
 -1       979 1.06035E+02 1.69963E+01 0.00000E+00
 -1       980 9.92495E+01 2.19319E+01 0.00000E+00
 -1       981 1.00035E+02 1.69963E+01 0.00000E+00
 -1       982 1.12035E+02 1.69963E+01 0.00000E+00
 -1       983 1.15035E+02 1.69963E+01 0.00000E+00
 -1       984 1.18035E+02 1.69963E+01 0.00000E+00
 -1       985 1.21035E+02 1.69963E+01 0.00000E+00
 -1       986 1.24035E+02 1.69963E+01 0.00000E+00
 -1       987 1.27035E+02 1.69963E+01 0.00000E+00
 -1       988 1.30035E+02 1.69963E+01 0.00000E+00
 -1       989 1.31814E+02 2.79500E+01 0.00000E+00
 -1       990 1.80806E+01 1.39489E+01 0.00000E+00
 -1       991 2.80350E+01 1.69963E+01 0.00000E+00
 -1       992 6.59327E+01 1.81245E+01 0.00000E+00
 -1       993 2.10855E+01 3.19417E+01 0.00000E+00
 -1       994 2.50350E+01 1.69963E+01 0.00000E+00
 -1       995 1.88355E+01 3.17720E+01 0.00000E+00
 -1       996 5.80350E+01 1.69963E+01 0.00000E+00
 -1       997 1.55880E+01 2.64438E+01 0.00000E+00
 -1       998 6.52861E+01 2.56741E+01 0.00000E+00
 -1       999 2.40855E+01 3.19417E+01 0.00000E+00
 -1      1000 4.00350E+01 1.69963E+01 0.00000E+00
 -1      1001 1.03035E+02 1.69963E+01 0.00000E+00
 -1      1002 1.60868E+01 2.90230E+01 0.00000E+00
 -1      1003 6.61722E+01 3.26001E+01 0.00000E+00
 -1      1004 1.09035E+02 1.69963E+01 0.00000E+00
 -1      1005 4.90350E+01 1.69963E+01 0.00000E+00
 -1      1006 1.00224E+02 2.78146E+01 0.00000E+00
 -1      1007 1.32151E+02 3.03376E+01 0.00000E+00
 -1      1008 1.00220E+02 1.97167E+01 0.00000E+00
 -1      1009 2.20350E+01 1.69963E+01 0.00000E+00
 -1      1010 1.31814E+02 2.50000E+01 0.00000E+00
 -1      1011 4.30350E+01 1.69963E+01 0.00000E+00
 -1      1012 4.60350E+01 1.69963E+01 0.00000E+00
 -1      1013 1.81860E+01 2.20313E+01 0.00000E+00
 -1      1014 1.31814E+02 2.20500E+01 0.00000E+00
 -1      1015 1.30924E+02 1.95231E+01 0.00000E+00
 -1      1016 6.62659E+01 2.96524E+01 0.00000E+00
 -1      1017 1.81860E+01 2.49750E+01 0.00000E+00
 -1      1018 3.70350E+01 1.69963E+01 0.00000E+00
 -1      1019 6.25350E+01 1.95942E+01 0.00000E+00
 -1      1020 6.43924E+01 2.39160E+01 0.00000E+00
 -1      1021 6.42698E+01 2.07301E+01 0.00000E+00
 -1      1022 3.10350E+01 1.69963E+01 0.00000E+00
 -1      1023 2.85855E+01 2.93438E+01 0.00000E+00
 -1      1024 5.35350E+01 1.95942E+01 0.00000E+00
 -1      1025 3.15855E+01 2.93438E+01 0.00000E+00
 -1      1026 3.45855E+01 2.93438E+01 0.00000E+00
 -1      1027 3.75855E+01 2.93438E+01 0.00000E+00
 -1      1028 4.05855E+01 2.93438E+01 0.00000E+00
 -1      1029 4.35855E+01 2.93438E+01 0.00000E+00
 -1      1030 4.65855E+01 2.93438E+01 0.00000E+00
 -1      1031 4.95855E+01 2.93438E+01 0.00000E+00
 -1      1032 5.25855E+01 2.93438E+01 0.00000E+00
 -1      1033 5.55855E+01 2.93438E+01 0.00000E+00
 -1      1034 5.85855E+01 2.93438E+01 0.00000E+00
 -1      1035 6.15855E+01 2.93438E+01 0.00000E+00
 -1      1036 1.07535E+02 1.95942E+01 0.00000E+00
 -1      1037 1.28749E+02 2.95541E+01 0.00000E+00
 -1      1038 5.65350E+01 1.95942E+01 0.00000E+00
 -1      1039 1.06586E+02 2.93438E+01 0.00000E+00
 -1      1040 1.09586E+02 2.93438E+01 0.00000E+00
 -1      1041 1.12586E+02 2.93438E+01 0.00000E+00
 -1      1042 1.15586E+02 2.93438E+01 0.00000E+00
 -1      1043 1.18586E+02 2.93438E+01 0.00000E+00
 -1      1044 1.21586E+02 2.93438E+01 0.00000E+00
 -1      1045 1.24586E+02 2.93438E+01 0.00000E+00
 -1      1046 1.81333E+01 1.79901E+01 0.00000E+00
 -1      1047 1.13535E+02 1.95942E+01 0.00000E+00
 -1      1048 1.22535E+02 1.95942E+01 0.00000E+00
 -1      1049 1.25535E+02 1.95942E+01 0.00000E+00
 -1      1050 1.28230E+02 1.95587E+01 0.00000E+00
 -1      1051 2.65350E+01 1.95942E+01 0.00000E+00
 -1      1052 1.10535E+02 1.95942E+01 0.00000E+00
 -1      1053 3.40350E+01 1.69963E+01 0.00000E+00
 -1      1054 1.19535E+02 1.95942E+01 0.00000E+00
 -1      1055 2.25855E+01 2.93438E+01 0.00000E+00
 -1      1056 1.16535E+02 1.95942E+01 0.00000E+00
 -1      1057 1.01085E+02 2.40978E+01 0.00000E+00
 -1      1058 5.95350E+01 1.95942E+01 0.00000E+00
 -1      1059 6.43665E+01 2.79083E+01 0.00000E+00
 -1      1060 1.04535E+02 1.95942E+01 0.00000E+00
 -1      1061 2.55855E+01 2.93438E+01 0.00000E+00
 -1      1062 5.05350E+01 1.95942E+01 0.00000E+00
 -1      1063 1.03586E+02 2.93438E+01 0.00000E+00
 -1      1064 2.07574E+01 1.99768E+01 0.00000E+00
 -1      1065 1.28749E+02 2.66041E+01 0.00000E+00
 -1      1066 6.24655E+01 2.58195E+01 0.00000E+00
 -1      1067 2.10934E+01 2.30338E+01 0.00000E+00
 -1      1068 1.02056E+02 2.18826E+01 0.00000E+00
 -1      1069 1.28749E+02 2.36541E+01 0.00000E+00
 -1      1070 4.75350E+01 1.95942E+01 0.00000E+00
 -1      1071 4.15350E+01 1.95942E+01 0.00000E+00
 -1      1072 3.85350E+01 1.95942E+01 0.00000E+00
 -1      1073 1.01002E+02 2.88238E+01 0.00000E+00
 -1      1074 1.28489E+02 2.16064E+01 0.00000E+00
 -1      1075 2.95350E+01 1.95942E+01 0.00000E+00
 -1      1076 2.03355E+01 2.91740E+01 0.00000E+00
 -1      1077 6.10350E+01 2.21922E+01 0.00000E+00
 -1      1078 1.82111E+01 2.90985E+01 0.00000E+00
 -1      1079 1.81986E+01 2.70368E+01 0.00000E+00
 -1      1080 2.35079E+01 2.12215E+01 0.00000E+00
 -1      1081 1.08086E+02 2.67458E+01 0.00000E+00
 -1      1082 3.00855E+01 2.67458E+01 0.00000E+00
 -1      1083 3.30855E+01 2.67458E+01 0.00000E+00
 -1      1084 3.60855E+01 2.67458E+01 0.00000E+00
 -1      1085 3.90855E+01 2.67458E+01 0.00000E+00
 -1      1086 4.20855E+01 2.67458E+01 0.00000E+00
 -1      1087 4.50855E+01 2.67458E+01 0.00000E+00
 -1      1088 4.80855E+01 2.67458E+01 0.00000E+00
 -1      1089 5.10855E+01 2.67458E+01 0.00000E+00
 -1      1090 5.40855E+01 2.67458E+01 0.00000E+00
 -1      1091 5.70855E+01 2.67458E+01 0.00000E+00
 -1      1092 3.25350E+01 1.95942E+01 0.00000E+00
 -1      1093 2.35350E+01 1.95942E+01 0.00000E+00
 -1      1094 1.02807E+02 2.65369E+01 0.00000E+00
 -1      1095 3.55350E+01 1.95942E+01 0.00000E+00
 -1      1096 1.11086E+02 2.67458E+01 0.00000E+00
 -1      1097 1.14086E+02 2.67458E+01 0.00000E+00
 -1      1098 1.17086E+02 2.67458E+01 0.00000E+00
 -1      1099 1.20086E+02 2.67458E+01 0.00000E+00
 -1      1100 1.23086E+02 2.67458E+01 0.00000E+00
 -1      1101 1.24035E+02 2.21922E+01 0.00000E+00
 -1      1102 4.45350E+01 1.95942E+01 0.00000E+00
 -1      1103 5.50350E+01 2.21922E+01 0.00000E+00
 -1      1104 5.95312E+01 2.48810E+01 0.00000E+00
 -1      1105 1.21035E+02 2.21922E+01 0.00000E+00
 -1      1106 5.80331E+01 2.22376E+01 0.00000E+00
 -1      1107 1.25917E+02 2.66749E+01 0.00000E+00
 -1      1108 1.05446E+02 2.66413E+01 0.00000E+00
 -1      1109 2.10823E+01 2.61650E+01 0.00000E+00
 -1      1110 1.06035E+02 2.21922E+01 0.00000E+00
 -1      1111 5.20350E+01 2.21922E+01 0.00000E+00
 -1      1112 1.04229E+02 2.39931E+01 0.00000E+00
 -1      1113 2.50350E+01 2.21922E+01 0.00000E+00
 -1      1114 1.09035E+02 2.21922E+01 0.00000E+00
 -1      1115 1.18035E+02 2.21922E+01 0.00000E+00
 -1      1116 1.26262E+02 2.18993E+01 0.00000E+00
 -1      1117 4.90350E+01 2.21922E+01 0.00000E+00
 -1      1118 2.80350E+01 2.21922E+01 0.00000E+00
 -1      1119 1.24674E+02 2.43225E+01 0.00000E+00
 -1      1120 4.00350E+01 2.21922E+01 0.00000E+00
 -1      1121 1.12035E+02 2.21922E+01 0.00000E+00
 -1      1122 4.30350E+01 2.21922E+01 0.00000E+00
 -1      1123 1.15035E+02 2.21922E+01 0.00000E+00
 -1      1124 2.70855E+01 2.67458E+01 0.00000E+00
 -1      1125 2.40823E+01 2.61650E+01 0.00000E+00
 -1      1126 2.37951E+01 2.36932E+01 0.00000E+00
 -1      1127 5.60593E+01 2.44917E+01 0.00000E+00
 -1      1128 3.10350E+01 2.21922E+01 0.00000E+00
 -1      1129 3.40350E+01 2.21922E+01 0.00000E+00
 -1      1130 3.45855E+01 2.41478E+01 0.00000E+00
 -1      1131 3.75855E+01 2.41478E+01 0.00000E+00
 -1      1132 4.95855E+01 2.41478E+01 0.00000E+00
 -1      1133 5.28224E+01 2.43197E+01 0.00000E+00
 -1      1134 1.09586E+02 2.41478E+01 0.00000E+00
 -1      1135 1.06907E+02 2.40704E+01 0.00000E+00
 -1      1136 4.60350E+01 2.21922E+01 0.00000E+00
 -1      1137 3.70350E+01 2.21922E+01 0.00000E+00
 -1      1138 4.65855E+01 2.41478E+01 0.00000E+00
 -1      1139 0.00000E+00 4.85250E+01 0.00000E+00
 -1      1140 0.00000E+00 4.55750E+01 0.00000E+00
 -1      1141 0.00000E+00 4.26250E+01 0.00000E+00
 -1      1142 0.00000E+00 3.96750E+01 0.00000E+00
 -1      1143 0.00000E+00 3.67250E+01 0.00000E+00
 -1      1144 0.00000E+00 3.38000E+01 0.00000E+00
 -1      1145 0.00000E+00 3.08750E+01 0.00000E+00
 -1      1146 0.00000E+00 2.79250E+01 0.00000E+00
 -1      1147 0.00000E+00 2.49750E+01 0.00000E+00
 -1      1148 0.00000E+00 2.20250E+01 0.00000E+00
 -1      1149 0.00000E+00 1.90750E+01 0.00000E+00
 -1      1150 0.00000E+00 1.61500E+01 0.00000E+00
 -1      1151 0.00000E+00 1.32250E+01 0.00000E+00
 -1      1152 0.00000E+00 1.02750E+01 0.00000E+00
 -1      1153 0.00000E+00 7.32500E+00 0.00000E+00
 -1      1154 0.00000E+00 4.37500E+00 0.00000E+00
 -1      1155 0.00000E+00 1.45000E+00 0.00000E+00
 -1      1156 1.57500E+00 5.00000E+01 0.00000E+00
 -1      1157 4.65000E+00 5.00000E+01 0.00000E+00
 -1      1158 7.65000E+00 5.00000E+01 0.00000E+00
 -1      1159 1.06500E+01 5.00000E+01 0.00000E+00
 -1      1160 1.36500E+01 5.00000E+01 0.00000E+00
 -1      1161 1.66500E+01 5.00000E+01 0.00000E+00
 -1      1162 1.96500E+01 5.00000E+01 0.00000E+00
 -1      1163 2.26500E+01 5.00000E+01 0.00000E+00
 -1      1164 2.56500E+01 5.00000E+01 0.00000E+00
 -1      1165 2.86500E+01 5.00000E+01 0.00000E+00
 -1      1166 3.16500E+01 5.00000E+01 0.00000E+00
 -1      1167 3.46500E+01 5.00000E+01 0.00000E+00
 -1      1168 3.76500E+01 5.00000E+01 0.00000E+00
 -1      1169 4.06500E+01 5.00000E+01 0.00000E+00
 -1      1170 4.36500E+01 5.00000E+01 0.00000E+00
 -1      1171 4.66500E+01 5.00000E+01 0.00000E+00
 -1      1172 4.96500E+01 5.00000E+01 0.00000E+00
 -1      1173 5.26500E+01 5.00000E+01 0.00000E+00
 -1      1174 5.56500E+01 5.00000E+01 0.00000E+00
 -1      1175 5.86500E+01 5.00000E+01 0.00000E+00
 -1      1176 6.16500E+01 5.00000E+01 0.00000E+00
 -1      1177 6.46500E+01 5.00000E+01 0.00000E+00
 -1      1178 6.76500E+01 5.00000E+01 0.00000E+00
 -1      1179 7.06500E+01 5.00000E+01 0.00000E+00
 -1      1180 7.36500E+01 5.00000E+01 0.00000E+00
 -1      1181 7.66500E+01 5.00000E+01 0.00000E+00
 -1      1182 7.96500E+01 5.00000E+01 0.00000E+00
 -1      1183 8.26500E+01 5.00000E+01 0.00000E+00
 -1      1184 8.56500E+01 5.00000E+01 0.00000E+00
 -1      1185 8.86500E+01 5.00000E+01 0.00000E+00
 -1      1186 9.16500E+01 5.00000E+01 0.00000E+00
 -1      1187 9.46500E+01 5.00000E+01 0.00000E+00
 -1      1188 9.76500E+01 5.00000E+01 0.00000E+00
 -1      1189 1.00650E+02 5.00000E+01 0.00000E+00
 -1      1190 1.03650E+02 5.00000E+01 0.00000E+00
 -1      1191 1.06650E+02 5.00000E+01 0.00000E+00
 -1      1192 1.09650E+02 5.00000E+01 0.00000E+00
 -1      1193 1.12650E+02 5.00000E+01 0.00000E+00
 -1      1194 1.15650E+02 5.00000E+01 0.00000E+00
 -1      1195 1.18650E+02 5.00000E+01 0.00000E+00
 -1      1196 1.21650E+02 5.00000E+01 0.00000E+00
 -1      1197 1.24650E+02 5.00000E+01 0.00000E+00
 -1      1198 1.27650E+02 5.00000E+01 0.00000E+00
 -1      1199 1.30650E+02 5.00000E+01 0.00000E+00
 -1      1200 1.33650E+02 5.00000E+01 0.00000E+00
 -1      1201 1.36650E+02 5.00000E+01 0.00000E+00
 -1      1202 1.39650E+02 5.00000E+01 0.00000E+00
 -1      1203 1.42650E+02 5.00000E+01 0.00000E+00
 -1      1204 1.45650E+02 5.00000E+01 0.00000E+00
 -1      1205 1.48575E+02 5.00000E+01 0.00000E+00
 -1      1206 1.57500E+00 0.00000E+00 0.00000E+00
 -1      1207 4.65000E+00 0.00000E+00 0.00000E+00
 -1      1208 7.65000E+00 0.00000E+00 0.00000E+00
 -1      1209 1.06500E+01 0.00000E+00 0.00000E+00
 -1      1210 1.36500E+01 0.00000E+00 0.00000E+00
 -1      1211 1.66500E+01 0.00000E+00 0.00000E+00
 -1      1212 1.96500E+01 0.00000E+00 0.00000E+00
 -1      1213 2.26500E+01 0.00000E+00 0.00000E+00
 -1      1214 2.56500E+01 0.00000E+00 0.00000E+00
 -1      1215 2.86500E+01 0.00000E+00 0.00000E+00
 -1      1216 3.16500E+01 0.00000E+00 0.00000E+00
 -1      1217 3.46500E+01 0.00000E+00 0.00000E+00
 -1      1218 3.76500E+01 0.00000E+00 0.00000E+00
 -1      1219 4.06500E+01 0.00000E+00 0.00000E+00
 -1      1220 4.36500E+01 0.00000E+00 0.00000E+00
 -1      1221 4.66500E+01 0.00000E+00 0.00000E+00
 -1      1222 4.96500E+01 0.00000E+00 0.00000E+00
 -1      1223 5.26500E+01 0.00000E+00 0.00000E+00
 -1      1224 5.56500E+01 0.00000E+00 0.00000E+00
 -1      1225 5.86500E+01 0.00000E+00 0.00000E+00
 -1      1226 6.16500E+01 0.00000E+00 0.00000E+00
 -1      1227 6.46500E+01 0.00000E+00 0.00000E+00
 -1      1228 6.76500E+01 0.00000E+00 0.00000E+00
 -1      1229 7.06500E+01 0.00000E+00 0.00000E+00
 -1      1230 7.36500E+01 0.00000E+00 0.00000E+00
 -1      1231 7.66500E+01 0.00000E+00 0.00000E+00
 -1      1232 7.96500E+01 0.00000E+00 0.00000E+00
 -1      1233 8.26500E+01 0.00000E+00 0.00000E+00
 -1      1234 8.56500E+01 0.00000E+00 0.00000E+00
 -1      1235 8.86500E+01 0.00000E+00 0.00000E+00
 -1      1236 9.16500E+01 0.00000E+00 0.00000E+00
 -1      1237 9.46500E+01 0.00000E+00 0.00000E+00
 -1      1238 9.76500E+01 0.00000E+00 0.00000E+00
 -1      1239 1.00650E+02 0.00000E+00 0.00000E+00
 -1      1240 1.03650E+02 0.00000E+00 0.00000E+00
 -1      1241 1.06650E+02 0.00000E+00 0.00000E+00
 -1      1242 1.09650E+02 0.00000E+00 0.00000E+00
 -1      1243 1.12650E+02 0.00000E+00 0.00000E+00
 -1      1244 1.15650E+02 0.00000E+00 0.00000E+00
 -1      1245 1.18650E+02 0.00000E+00 0.00000E+00
 -1      1246 1.21650E+02 0.00000E+00 0.00000E+00
 -1      1247 1.24650E+02 0.00000E+00 0.00000E+00
 -1      1248 1.27650E+02 0.00000E+00 0.00000E+00
 -1      1249 1.30650E+02 0.00000E+00 0.00000E+00
 -1      1250 1.33650E+02 0.00000E+00 0.00000E+00
 -1      1251 1.36650E+02 0.00000E+00 0.00000E+00
 -1      1252 1.39650E+02 0.00000E+00 0.00000E+00
 -1      1253 1.42650E+02 0.00000E+00 0.00000E+00
 -1      1254 1.45650E+02 0.00000E+00 0.00000E+00
 -1      1255 1.48575E+02 0.00000E+00 0.00000E+00
 -1      1256 1.50000E+02 1.47500E+00 0.00000E+00
 -1      1257 1.50000E+02 4.42500E+00 0.00000E+00
 -1      1258 1.50000E+02 7.37500E+00 0.00000E+00
 -1      1259 1.50000E+02 1.03250E+01 0.00000E+00
 -1      1260 1.50000E+02 1.32750E+01 0.00000E+00
 -1      1261 1.50000E+02 1.62000E+01 0.00000E+00
 -1      1262 1.50000E+02 1.91250E+01 0.00000E+00
 -1      1263 1.50000E+02 2.20750E+01 0.00000E+00
 -1      1264 1.50000E+02 2.50250E+01 0.00000E+00
 -1      1265 1.50000E+02 2.79750E+01 0.00000E+00
 -1      1266 1.50000E+02 3.09250E+01 0.00000E+00
 -1      1267 1.50000E+02 3.38500E+01 0.00000E+00
 -1      1268 1.50000E+02 3.67750E+01 0.00000E+00
 -1      1269 1.50000E+02 3.97250E+01 0.00000E+00
 -1      1270 1.50000E+02 4.26750E+01 0.00000E+00
 -1      1271 1.50000E+02 4.56250E+01 0.00000E+00
 -1      1272 1.50000E+02 4.85500E+01 0.00000E+00
 -1      1273 8.93225E+01 2.26013E+01 0.00000E+00
 -1      1274 8.89703E+01 2.10917E+01 0.00000E+00
 -1      1275 8.83313E+01 1.97559E+01 0.00000E+00
 -1      1276 8.74288E+01 1.85877E+01 0.00000E+00
 -1      1277 8.63193E+01 1.76469E+01 0.00000E+00
 -1      1278 8.50107E+01 1.69441E+01 0.00000E+00
 -1      1279 8.35095E+01 1.65206E+01 0.00000E+00
 -1      1280 8.19452E+01 1.64405E+01 0.00000E+00
 -1      1281 8.03819E+01 1.67162E+01 0.00000E+00
 -1      1282 7.89524E+01 1.73193E+01 0.00000E+00
 -1      1283 7.77325E+01 1.81853E+01 0.00000E+00
 -1      1284 7.66844E+01 1.93461E+01 0.00000E+00
 -1      1285 7.59428E+01 2.06576E+01 0.00000E+00
 -1      1286 7.55081E+01 2.20511E+01 0.00000E+00
 -1      1287 7.53718E+01 2.34912E+01 0.00000E+00
 -1      1288 7.55516E+01 2.50051E+01 0.00000E+00
 -1      1289 7.60563E+01 2.64471E+01 0.00000E+00
 -1      1290 7.68374E+01 2.77140E+01 0.00000E+00
 -1      1291 7.79141E+01 2.88248E+01 0.00000E+00
 -1      1292 7.91449E+01 2.96395E+01 0.00000E+00
 -1      1293 8.05869E+01 3.01962E+01 0.00000E+00
 -1      1294 8.22277E+01 3.04260E+01 0.00000E+00
 -1      1295 8.38055E+01 3.02790E+01 0.00000E+00
 -1      1296 8.52340E+01 2.98154E+01 0.00000E+00
 -1      1297 8.65151E+01 2.90693E+01 0.00000E+00
 -1      1298 8.76162E+01 2.80635E+01 0.00000E+00
 -1      1299 8.84656E+01 2.68715E+01 0.00000E+00
 -1      1300 8.90455E+01 2.55386E+01 0.00000E+00
 -1      1301 8.93362E+01 2.41295E+01 0.00000E+00
 -1      1302 1.57500E+00 4.85250E+01 0.00000E+00
 -1      1303 1.29900E+00 4.48375E+01 0.00000E+00
 -1      1304 1.29900E+00 4.63125E+01 0.00000E+00
 -1      1305 1.29900E+00 4.18875E+01 0.00000E+00
 -1      1306 1.29900E+00 4.33625E+01 0.00000E+00
 -1      1307 2.59800E+00 4.41000E+01 0.00000E+00
 -1      1308 1.29900E+00 3.89375E+01 0.00000E+00
 -1      1309 1.29900E+00 4.04125E+01 0.00000E+00
 -1      1310 2.59800E+00 4.11500E+01 0.00000E+00
 -1      1311 1.29900E+00 3.59875E+01 0.00000E+00
 -1      1312 1.29900E+00 3.74625E+01 0.00000E+00
 -1      1313 2.59800E+00 3.82000E+01 0.00000E+00
 -1      1314 1.29900E+00 3.30875E+01 0.00000E+00
 -1      1315 1.29900E+00 3.45375E+01 0.00000E+00
 -1      1316 2.59800E+00 3.52750E+01 0.00000E+00
 -1      1317 1.29900E+00 3.01375E+01 0.00000E+00
 -1      1318 1.29900E+00 3.16125E+01 0.00000E+00
 -1      1319 2.59800E+00 3.23500E+01 0.00000E+00
 -1      1320 1.29900E+00 2.71875E+01 0.00000E+00
 -1      1321 1.29900E+00 2.86625E+01 0.00000E+00
 -1      1322 2.59800E+00 2.94000E+01 0.00000E+00
 -1      1323 1.29900E+00 2.42375E+01 0.00000E+00
 -1      1324 1.29900E+00 2.57125E+01 0.00000E+00
 -1      1325 2.59800E+00 2.64500E+01 0.00000E+00
 -1      1326 1.29900E+00 2.12875E+01 0.00000E+00
 -1      1327 1.29900E+00 2.27625E+01 0.00000E+00
 -1      1328 2.59800E+00 2.35000E+01 0.00000E+00
 -1      1329 1.29900E+00 1.83375E+01 0.00000E+00
 -1      1330 1.29900E+00 1.98125E+01 0.00000E+00
 -1      1331 2.59800E+00 2.05500E+01 0.00000E+00
 -1      1332 1.29900E+00 1.54375E+01 0.00000E+00
 -1      1333 1.29900E+00 1.68875E+01 0.00000E+00
 -1      1334 2.59800E+00 1.76250E+01 0.00000E+00
 -1      1335 1.29900E+00 1.24875E+01 0.00000E+00
 -1      1336 1.29900E+00 1.39625E+01 0.00000E+00
 -1      1337 2.59800E+00 1.47000E+01 0.00000E+00
 -1      1338 1.29900E+00 9.53750E+00 0.00000E+00
 -1      1339 1.29900E+00 1.10125E+01 0.00000E+00
 -1      1340 2.59800E+00 1.17500E+01 0.00000E+00
 -1      1341 1.29900E+00 6.58750E+00 0.00000E+00
 -1      1342 1.29900E+00 8.06250E+00 0.00000E+00
 -1      1343 2.59800E+00 8.80000E+00 0.00000E+00
 -1      1344 1.29900E+00 3.63750E+00 0.00000E+00
 -1      1345 1.29900E+00 5.11250E+00 0.00000E+00
 -1      1346 2.59800E+00 5.85000E+00 0.00000E+00
 -1      1347 1.43700E+00 1.09375E+00 0.00000E+00
 -1      1348 1.43700E+00 2.54375E+00 0.00000E+00
 -1      1349 2.73600E+00 3.28125E+00 0.00000E+00
 -1      1350 3.01200E+00 1.09375E+00 0.00000E+00
 -1      1351 3.90000E+00 4.87010E+01 0.00000E+00
 -1      1352 5.40000E+00 4.87010E+01 0.00000E+00
 -1      1353 6.90000E+00 4.87010E+01 0.00000E+00
 -1      1354 8.40000E+00 4.87010E+01 0.00000E+00
 -1      1355 6.15000E+00 4.74020E+01 0.00000E+00
 -1      1356 9.90000E+00 4.87010E+01 0.00000E+00
 -1      1357 1.14000E+01 4.87010E+01 0.00000E+00
 -1      1358 9.15000E+00 4.74020E+01 0.00000E+00
 -1      1359 1.29000E+01 4.87010E+01 0.00000E+00
 -1      1360 1.44000E+01 4.87010E+01 0.00000E+00
 -1      1361 1.21500E+01 4.74020E+01 0.00000E+00
 -1      1362 1.59000E+01 4.87010E+01 0.00000E+00
 -1      1363 1.74000E+01 4.87010E+01 0.00000E+00
 -1      1364 1.51500E+01 4.74020E+01 0.00000E+00
 -1      1365 1.89000E+01 4.87010E+01 0.00000E+00
 -1      1366 2.04000E+01 4.87010E+01 0.00000E+00
 -1      1367 1.81500E+01 4.74020E+01 0.00000E+00
 -1      1368 2.19000E+01 4.87010E+01 0.00000E+00
 -1      1369 2.34000E+01 4.87010E+01 0.00000E+00
 -1      1370 2.11500E+01 4.74020E+01 0.00000E+00
 -1      1371 2.49000E+01 4.87010E+01 0.00000E+00
 -1      1372 2.64000E+01 4.87010E+01 0.00000E+00
 -1      1373 2.41500E+01 4.74020E+01 0.00000E+00
 -1      1374 2.79000E+01 4.87010E+01 0.00000E+00
 -1      1375 2.94000E+01 4.87010E+01 0.00000E+00
 -1      1376 2.71500E+01 4.74020E+01 0.00000E+00
 -1      1377 3.09000E+01 4.87010E+01 0.00000E+00
 -1      1378 3.24000E+01 4.87010E+01 0.00000E+00
 -1      1379 3.01500E+01 4.74020E+01 0.00000E+00
 -1      1380 3.39000E+01 4.87010E+01 0.00000E+00
 -1      1381 3.54000E+01 4.87010E+01 0.00000E+00
 -1      1382 3.31500E+01 4.74020E+01 0.00000E+00
 -1      1383 3.69000E+01 4.87010E+01 0.00000E+00
 -1      1384 3.84000E+01 4.87010E+01 0.00000E+00
 -1      1385 3.61500E+01 4.74020E+01 0.00000E+00
 -1      1386 3.99000E+01 4.87010E+01 0.00000E+00
 -1      1387 4.14000E+01 4.87010E+01 0.00000E+00
 -1      1388 3.91500E+01 4.74020E+01 0.00000E+00
 -1      1389 4.29000E+01 4.87010E+01 0.00000E+00
 -1      1390 4.44000E+01 4.87010E+01 0.00000E+00
 -1      1391 4.21500E+01 4.74020E+01 0.00000E+00
 -1      1392 4.59000E+01 4.87010E+01 0.00000E+00
 -1      1393 4.74000E+01 4.87010E+01 0.00000E+00
 -1      1394 4.51500E+01 4.74020E+01 0.00000E+00
 -1      1395 4.89000E+01 4.87010E+01 0.00000E+00
 -1      1396 5.04000E+01 4.87010E+01 0.00000E+00
 -1      1397 4.81500E+01 4.74020E+01 0.00000E+00
 -1      1398 5.19000E+01 4.87010E+01 0.00000E+00
 -1      1399 5.34000E+01 4.87010E+01 0.00000E+00
 -1      1400 5.11500E+01 4.74020E+01 0.00000E+00
 -1      1401 5.49000E+01 4.87010E+01 0.00000E+00
 -1      1402 5.64000E+01 4.87010E+01 0.00000E+00
 -1      1403 5.41500E+01 4.74020E+01 0.00000E+00
 -1      1404 5.79000E+01 4.87010E+01 0.00000E+00
 -1      1405 5.94000E+01 4.87010E+01 0.00000E+00
 -1      1406 5.71500E+01 4.74020E+01 0.00000E+00
 -1      1407 6.09000E+01 4.87010E+01 0.00000E+00
 -1      1408 6.24000E+01 4.87010E+01 0.00000E+00
 -1      1409 6.01500E+01 4.74020E+01 0.00000E+00
 -1      1410 6.39000E+01 4.87010E+01 0.00000E+00
 -1      1411 6.54000E+01 4.87010E+01 0.00000E+00
 -1      1412 6.31500E+01 4.74020E+01 0.00000E+00
 -1      1413 6.69000E+01 4.87010E+01 0.00000E+00
 -1      1414 6.84000E+01 4.87010E+01 0.00000E+00
 -1      1415 6.61500E+01 4.74020E+01 0.00000E+00
 -1      1416 6.99000E+01 4.87010E+01 0.00000E+00
 -1      1417 7.14000E+01 4.87010E+01 0.00000E+00
 -1      1418 6.91500E+01 4.74020E+01 0.00000E+00
 -1      1419 7.29000E+01 4.87010E+01 0.00000E+00
 -1      1420 7.44000E+01 4.87010E+01 0.00000E+00
 -1      1421 7.21500E+01 4.74020E+01 0.00000E+00
 -1      1422 7.59000E+01 4.87010E+01 0.00000E+00
 -1      1423 7.74000E+01 4.87010E+01 0.00000E+00
 -1      1424 7.51500E+01 4.74020E+01 0.00000E+00
 -1      1425 7.89000E+01 4.87010E+01 0.00000E+00
 -1      1426 8.04000E+01 4.87010E+01 0.00000E+00
 -1      1427 7.81500E+01 4.74020E+01 0.00000E+00
 -1      1428 8.19000E+01 4.87010E+01 0.00000E+00
 -1      1429 8.34000E+01 4.87010E+01 0.00000E+00
 -1      1430 8.11500E+01 4.74020E+01 0.00000E+00
 -1      1431 8.49000E+01 4.87010E+01 0.00000E+00
 -1      1432 8.64000E+01 4.87010E+01 0.00000E+00
 -1      1433 8.41500E+01 4.74020E+01 0.00000E+00
 -1      1434 8.79000E+01 4.87010E+01 0.00000E+00
 -1      1435 8.94000E+01 4.87010E+01 0.00000E+00
 -1      1436 8.71500E+01 4.74020E+01 0.00000E+00
 -1      1437 9.09000E+01 4.87010E+01 0.00000E+00
 -1      1438 9.24000E+01 4.87010E+01 0.00000E+00
 -1      1439 9.01500E+01 4.74020E+01 0.00000E+00
 -1      1440 9.39000E+01 4.87010E+01 0.00000E+00
 -1      1441 9.54000E+01 4.87010E+01 0.00000E+00
 -1      1442 9.31500E+01 4.74020E+01 0.00000E+00
 -1      1443 9.69000E+01 4.87010E+01 0.00000E+00
 -1      1444 9.84000E+01 4.87010E+01 0.00000E+00
 -1      1445 9.61500E+01 4.74020E+01 0.00000E+00
 -1      1446 9.99000E+01 4.87010E+01 0.00000E+00
 -1      1447 1.01400E+02 4.87010E+01 0.00000E+00
 -1      1448 9.91500E+01 4.74020E+01 0.00000E+00
 -1      1449 1.02900E+02 4.87010E+01 0.00000E+00
 -1      1450 1.04400E+02 4.87010E+01 0.00000E+00
 -1      1451 1.02150E+02 4.74020E+01 0.00000E+00
 -1      1452 1.05900E+02 4.87010E+01 0.00000E+00
 -1      1453 1.07400E+02 4.87010E+01 0.00000E+00
 -1      1454 1.05150E+02 4.74020E+01 0.00000E+00
 -1      1455 1.08900E+02 4.87010E+01 0.00000E+00
 -1      1456 1.10400E+02 4.87010E+01 0.00000E+00
 -1      1457 1.08150E+02 4.74020E+01 0.00000E+00
 -1      1458 1.11900E+02 4.87010E+01 0.00000E+00
 -1      1459 1.13400E+02 4.87010E+01 0.00000E+00
 -1      1460 1.11150E+02 4.74020E+01 0.00000E+00
 -1      1461 1.14900E+02 4.87010E+01 0.00000E+00
 -1      1462 1.16400E+02 4.87010E+01 0.00000E+00
 -1      1463 1.14150E+02 4.74020E+01 0.00000E+00
 -1      1464 1.17900E+02 4.87010E+01 0.00000E+00
 -1      1465 1.19400E+02 4.87010E+01 0.00000E+00
 -1      1466 1.17150E+02 4.74020E+01 0.00000E+00
 -1      1467 1.20900E+02 4.87010E+01 0.00000E+00
 -1      1468 1.22400E+02 4.87010E+01 0.00000E+00
 -1      1469 1.20150E+02 4.74020E+01 0.00000E+00
 -1      1470 1.23900E+02 4.87010E+01 0.00000E+00
 -1      1471 1.25400E+02 4.87010E+01 0.00000E+00
 -1      1472 1.23150E+02 4.74020E+01 0.00000E+00
 -1      1473 1.26900E+02 4.87010E+01 0.00000E+00
 -1      1474 1.28400E+02 4.87010E+01 0.00000E+00
 -1      1475 1.26150E+02 4.74020E+01 0.00000E+00
 -1      1476 1.29900E+02 4.87010E+01 0.00000E+00
 -1      1477 1.31400E+02 4.87010E+01 0.00000E+00
 -1      1478 1.29150E+02 4.74020E+01 0.00000E+00
 -1      1479 1.32900E+02 4.87010E+01 0.00000E+00
 -1      1480 1.34400E+02 4.87010E+01 0.00000E+00
 -1      1481 1.32150E+02 4.74020E+01 0.00000E+00
 -1      1482 1.35900E+02 4.87010E+01 0.00000E+00
 -1      1483 1.37400E+02 4.87010E+01 0.00000E+00
 -1      1484 1.35150E+02 4.74020E+01 0.00000E+00
 -1      1485 1.38900E+02 4.87010E+01 0.00000E+00
 -1      1486 1.40400E+02 4.87010E+01 0.00000E+00
 -1      1487 1.38150E+02 4.74020E+01 0.00000E+00
 -1      1488 1.41900E+02 4.87010E+01 0.00000E+00
 -1      1489 1.43400E+02 4.87010E+01 0.00000E+00
 -1      1490 1.41150E+02 4.74020E+01 0.00000E+00
 -1      1491 1.44900E+02 4.87010E+01 0.00000E+00
 -1      1492 1.46400E+02 4.87010E+01 0.00000E+00
 -1      1493 1.44150E+02 4.74020E+01 0.00000E+00
 -1      1494 1.48575E+02 4.85500E+01 0.00000E+00
 -1      1495 1.47825E+02 4.72510E+01 0.00000E+00
 -1      1496 6.01200E+00 1.09375E+00 0.00000E+00
 -1      1497 4.51200E+00 1.09375E+00 0.00000E+00
 -1      1498 4.37400E+00 2.18750E+00 0.00000E+00
 -1      1499 9.01200E+00 1.09375E+00 0.00000E+00
 -1      1500 7.51200E+00 1.09375E+00 0.00000E+00
 -1      1501 7.37400E+00 2.18750E+00 0.00000E+00
 -1      1502 1.20120E+01 1.09375E+00 0.00000E+00
 -1      1503 1.05120E+01 1.09375E+00 0.00000E+00
 -1      1504 1.03740E+01 2.18750E+00 0.00000E+00
 -1      1505 1.50120E+01 1.09375E+00 0.00000E+00
 -1      1506 1.35120E+01 1.09375E+00 0.00000E+00
 -1      1507 1.33740E+01 2.18750E+00 0.00000E+00
 -1      1508 1.80120E+01 1.09375E+00 0.00000E+00
 -1      1509 1.65120E+01 1.09375E+00 0.00000E+00
 -1      1510 1.63740E+01 2.18750E+00 0.00000E+00
 -1      1511 2.10120E+01 1.09375E+00 0.00000E+00
 -1      1512 1.95120E+01 1.09375E+00 0.00000E+00
 -1      1513 1.93740E+01 2.18750E+00 0.00000E+00
 -1      1514 2.40120E+01 1.09375E+00 0.00000E+00
 -1      1515 2.25120E+01 1.09375E+00 0.00000E+00
 -1      1516 2.23740E+01 2.18750E+00 0.00000E+00
 -1      1517 2.70120E+01 1.09375E+00 0.00000E+00
 -1      1518 2.55120E+01 1.09375E+00 0.00000E+00
 -1      1519 2.53740E+01 2.18750E+00 0.00000E+00
 -1      1520 3.00120E+01 1.09375E+00 0.00000E+00
 -1      1521 2.85120E+01 1.09375E+00 0.00000E+00
 -1      1522 2.83740E+01 2.18750E+00 0.00000E+00
 -1      1523 3.30120E+01 1.09375E+00 0.00000E+00
 -1      1524 3.15120E+01 1.09375E+00 0.00000E+00
 -1      1525 3.13740E+01 2.18750E+00 0.00000E+00
 -1      1526 3.60120E+01 1.09375E+00 0.00000E+00
 -1      1527 3.45120E+01 1.09375E+00 0.00000E+00
 -1      1528 3.43740E+01 2.18750E+00 0.00000E+00
 -1      1529 3.90120E+01 1.09375E+00 0.00000E+00
 -1      1530 3.75120E+01 1.09375E+00 0.00000E+00
 -1      1531 3.73740E+01 2.18750E+00 0.00000E+00
 -1      1532 4.20120E+01 1.09375E+00 0.00000E+00
 -1      1533 4.05120E+01 1.09375E+00 0.00000E+00
 -1      1534 4.03740E+01 2.18750E+00 0.00000E+00
 -1      1535 4.50120E+01 1.09375E+00 0.00000E+00
 -1      1536 4.35120E+01 1.09375E+00 0.00000E+00
 -1      1537 4.33740E+01 2.18750E+00 0.00000E+00
 -1      1538 4.80120E+01 1.09375E+00 0.00000E+00
 -1      1539 4.65120E+01 1.09375E+00 0.00000E+00
 -1      1540 4.63740E+01 2.18750E+00 0.00000E+00
 -1      1541 5.10120E+01 1.09375E+00 0.00000E+00
 -1      1542 4.95120E+01 1.09375E+00 0.00000E+00
 -1      1543 4.93740E+01 2.18750E+00 0.00000E+00
 -1      1544 5.40120E+01 1.09375E+00 0.00000E+00
 -1      1545 5.25120E+01 1.09375E+00 0.00000E+00
 -1      1546 5.23740E+01 2.18750E+00 0.00000E+00
 -1      1547 5.70120E+01 1.09375E+00 0.00000E+00
 -1      1548 5.55120E+01 1.09375E+00 0.00000E+00
 -1      1549 5.53740E+01 2.18750E+00 0.00000E+00
 -1      1550 6.00120E+01 1.09375E+00 0.00000E+00
 -1      1551 5.85120E+01 1.09375E+00 0.00000E+00
 -1      1552 5.83740E+01 2.18750E+00 0.00000E+00
 -1      1553 6.30120E+01 1.09375E+00 0.00000E+00
 -1      1554 6.15120E+01 1.09375E+00 0.00000E+00
 -1      1555 6.13740E+01 2.18750E+00 0.00000E+00
 -1      1556 6.60120E+01 1.09375E+00 0.00000E+00
 -1      1557 6.45120E+01 1.09375E+00 0.00000E+00
 -1      1558 6.43740E+01 2.18750E+00 0.00000E+00
 -1      1559 6.90120E+01 1.09375E+00 0.00000E+00
 -1      1560 6.75120E+01 1.09375E+00 0.00000E+00
 -1      1561 6.73740E+01 2.18750E+00 0.00000E+00
 -1      1562 7.20120E+01 1.09375E+00 0.00000E+00
 -1      1563 7.05120E+01 1.09375E+00 0.00000E+00
 -1      1564 7.03740E+01 2.18750E+00 0.00000E+00
 -1      1565 7.50120E+01 1.09375E+00 0.00000E+00
 -1      1566 7.35120E+01 1.09375E+00 0.00000E+00
 -1      1567 7.33740E+01 2.18750E+00 0.00000E+00
 -1      1568 7.80120E+01 1.09375E+00 0.00000E+00
 -1      1569 7.65120E+01 1.09375E+00 0.00000E+00
 -1      1570 7.63740E+01 2.18750E+00 0.00000E+00
 -1      1571 8.10120E+01 1.09375E+00 0.00000E+00
 -1      1572 7.95120E+01 1.09375E+00 0.00000E+00
 -1      1573 7.93740E+01 2.18750E+00 0.00000E+00
 -1      1574 8.40120E+01 1.09375E+00 0.00000E+00
 -1      1575 8.25120E+01 1.09375E+00 0.00000E+00
 -1      1576 8.23740E+01 2.18750E+00 0.00000E+00
 -1      1577 8.70120E+01 1.09375E+00 0.00000E+00
 -1      1578 8.55120E+01 1.09375E+00 0.00000E+00
 -1      1579 8.53740E+01 2.18750E+00 0.00000E+00
 -1      1580 9.00120E+01 1.09375E+00 0.00000E+00
 -1      1581 8.85120E+01 1.09375E+00 0.00000E+00
 -1      1582 8.83740E+01 2.18750E+00 0.00000E+00
 -1      1583 9.30120E+01 1.09375E+00 0.00000E+00
 -1      1584 9.15120E+01 1.09375E+00 0.00000E+00
 -1      1585 9.13740E+01 2.18750E+00 0.00000E+00
 -1      1586 9.60120E+01 1.09375E+00 0.00000E+00
 -1      1587 9.45120E+01 1.09375E+00 0.00000E+00
 -1      1588 9.43740E+01 2.18750E+00 0.00000E+00
 -1      1589 9.90120E+01 1.09375E+00 0.00000E+00
 -1      1590 9.75120E+01 1.09375E+00 0.00000E+00
 -1      1591 9.73740E+01 2.18750E+00 0.00000E+00
 -1      1592 1.02012E+02 1.09375E+00 0.00000E+00
 -1      1593 1.00512E+02 1.09375E+00 0.00000E+00
 -1      1594 1.00374E+02 2.18750E+00 0.00000E+00
 -1      1595 1.05012E+02 1.09375E+00 0.00000E+00
 -1      1596 1.03512E+02 1.09375E+00 0.00000E+00
 -1      1597 1.03374E+02 2.18750E+00 0.00000E+00
 -1      1598 1.08012E+02 1.09375E+00 0.00000E+00
 -1      1599 1.06512E+02 1.09375E+00 0.00000E+00
 -1      1600 1.06374E+02 2.18750E+00 0.00000E+00
 -1      1601 1.11012E+02 1.09375E+00 0.00000E+00
 -1      1602 1.09512E+02 1.09375E+00 0.00000E+00
 -1      1603 1.09374E+02 2.18750E+00 0.00000E+00
 -1      1604 1.14012E+02 1.09375E+00 0.00000E+00
 -1      1605 1.12512E+02 1.09375E+00 0.00000E+00
 -1      1606 1.12374E+02 2.18750E+00 0.00000E+00
 -1      1607 1.17012E+02 1.09375E+00 0.00000E+00
 -1      1608 1.15512E+02 1.09375E+00 0.00000E+00
 -1      1609 1.15374E+02 2.18750E+00 0.00000E+00
 -1      1610 1.20012E+02 1.09375E+00 0.00000E+00
 -1      1611 1.18512E+02 1.09375E+00 0.00000E+00
 -1      1612 1.18374E+02 2.18750E+00 0.00000E+00
 -1      1613 1.23012E+02 1.09375E+00 0.00000E+00
 -1      1614 1.21512E+02 1.09375E+00 0.00000E+00
 -1      1615 1.21374E+02 2.18750E+00 0.00000E+00
 -1      1616 1.26012E+02 1.09375E+00 0.00000E+00
 -1      1617 1.24512E+02 1.09375E+00 0.00000E+00
 -1      1618 1.24374E+02 2.18750E+00 0.00000E+00
 -1      1619 1.29012E+02 1.09375E+00 0.00000E+00
 -1      1620 1.27512E+02 1.09375E+00 0.00000E+00
 -1      1621 1.27374E+02 2.18750E+00 0.00000E+00
 -1      1622 1.32012E+02 1.09375E+00 0.00000E+00
 -1      1623 1.30512E+02 1.09375E+00 0.00000E+00
 -1      1624 1.30374E+02 2.18750E+00 0.00000E+00
 -1      1625 1.35012E+02 1.09375E+00 0.00000E+00
 -1      1626 1.33512E+02 1.09375E+00 0.00000E+00
 -1      1627 1.33374E+02 2.18750E+00 0.00000E+00
 -1      1628 1.38012E+02 1.09375E+00 0.00000E+00
 -1      1629 1.36512E+02 1.09375E+00 0.00000E+00
 -1      1630 1.36374E+02 2.18750E+00 0.00000E+00
 -1      1631 1.41012E+02 1.09375E+00 0.00000E+00
 -1      1632 1.39512E+02 1.09375E+00 0.00000E+00
 -1      1633 1.39374E+02 2.18750E+00 0.00000E+00
 -1      1634 1.44012E+02 1.09375E+00 0.00000E+00
 -1      1635 1.42512E+02 1.09375E+00 0.00000E+00
 -1      1636 1.42374E+02 2.18750E+00 0.00000E+00
 -1      1637 1.47012E+02 1.09375E+00 0.00000E+00
 -1      1638 1.45512E+02 1.09375E+00 0.00000E+00
 -1      1639 1.45374E+02 2.18750E+00 0.00000E+00
 -1      1640 1.48575E+02 1.47500E+00 0.00000E+00
 -1      1641 1.48701E+02 5.16250E+00 0.00000E+00
 -1      1642 1.48701E+02 3.68750E+00 0.00000E+00
 -1      1643 1.48701E+02 8.11250E+00 0.00000E+00
 -1      1644 1.48701E+02 6.63750E+00 0.00000E+00
 -1      1645 1.47402E+02 5.90000E+00 0.00000E+00
 -1      1646 1.48701E+02 1.10625E+01 0.00000E+00
 -1      1647 1.48701E+02 9.58750E+00 0.00000E+00
 -1      1648 1.47402E+02 8.85000E+00 0.00000E+00
 -1      1649 1.48701E+02 1.40125E+01 0.00000E+00
 -1      1650 1.48701E+02 1.25375E+01 0.00000E+00
 -1      1651 1.47402E+02 1.18000E+01 0.00000E+00
 -1      1652 1.48701E+02 1.69125E+01 0.00000E+00
 -1      1653 1.48701E+02 1.54625E+01 0.00000E+00
 -1      1654 1.47402E+02 1.47250E+01 0.00000E+00
 -1      1655 1.48701E+02 1.98625E+01 0.00000E+00
 -1      1656 1.48701E+02 1.83875E+01 0.00000E+00
 -1      1657 1.47402E+02 1.76500E+01 0.00000E+00
 -1      1658 1.48701E+02 2.28125E+01 0.00000E+00
 -1      1659 1.48701E+02 2.13375E+01 0.00000E+00
 -1      1660 1.47402E+02 2.06000E+01 0.00000E+00
 -1      1661 1.48701E+02 2.57625E+01 0.00000E+00
 -1      1662 1.48701E+02 2.42875E+01 0.00000E+00
 -1      1663 1.47402E+02 2.35500E+01 0.00000E+00
 -1      1664 1.48701E+02 2.87125E+01 0.00000E+00
 -1      1665 1.48701E+02 2.72375E+01 0.00000E+00
 -1      1666 1.47402E+02 2.65000E+01 0.00000E+00
 -1      1667 1.48701E+02 3.16625E+01 0.00000E+00
 -1      1668 1.48701E+02 3.01875E+01 0.00000E+00
 -1      1669 1.47402E+02 2.94500E+01 0.00000E+00
 -1      1670 1.48701E+02 3.45625E+01 0.00000E+00
 -1      1671 1.48701E+02 3.31125E+01 0.00000E+00
 -1      1672 1.47402E+02 3.23750E+01 0.00000E+00
 -1      1673 1.48701E+02 3.75125E+01 0.00000E+00
 -1      1674 1.48701E+02 3.60375E+01 0.00000E+00
 -1      1675 1.47402E+02 3.53000E+01 0.00000E+00
 -1      1676 1.48701E+02 4.04625E+01 0.00000E+00
 -1      1677 1.48701E+02 3.89875E+01 0.00000E+00
 -1      1678 1.47402E+02 3.82500E+01 0.00000E+00
 -1      1679 1.48701E+02 4.34125E+01 0.00000E+00
 -1      1680 1.48701E+02 4.19375E+01 0.00000E+00
 -1      1681 1.47402E+02 4.12000E+01 0.00000E+00
 -1      1682 1.48263E+02 4.60692E+01 0.00000E+00
 -1      1683 1.48263E+02 4.45942E+01 0.00000E+00
 -1      1684 1.46964E+02 4.38568E+01 0.00000E+00
 -1      1685 1.46088E+02 4.62202E+01 0.00000E+00
 -1      1686 8.99936E+01 2.21055E+01 0.00000E+00
 -1      1687 9.00911E+01 2.29259E+01 0.00000E+00
 -1      1688 8.93856E+01 2.05607E+01 0.00000E+00
 -1      1689 8.96271E+01 2.12432E+01 0.00000E+00
 -1      1690 8.86497E+01 1.91153E+01 0.00000E+00
 -1      1691 8.90466E+01 1.97597E+01 0.00000E+00
 -1      1692 8.75913E+01 1.79343E+01 0.00000E+00
 -1      1693 8.80887E+01 1.84541E+01 0.00000E+00
 -1      1694 8.63357E+01 1.69710E+01 0.00000E+00
 -1      1695 8.69429E+01 1.73857E+01 0.00000E+00
 -1      1696 8.48767E+01 1.62785E+01 0.00000E+00
 -1      1697 8.55714E+01 1.65613E+01 0.00000E+00
 -1      1698 8.32282E+01 1.57377E+01 0.00000E+00
 -1      1699 8.40272E+01 1.58693E+01 0.00000E+00
 -1      1700 8.15306E+01 1.58575E+01 0.00000E+00
 -1      1701 8.22859E+01 1.58115E+01 0.00000E+00
 -1      1702 7.97897E+01 1.61800E+01 0.00000E+00
 -1      1703 8.05862E+01 1.59438E+01 0.00000E+00
 -1      1704 7.83601E+01 1.69988E+01 0.00000E+00
 -1      1705 7.89889E+01 1.66468E+01 0.00000E+00
 -1      1706 7.70690E+01 1.80205E+01 0.00000E+00
 -1      1707 7.76497E+01 1.75067E+01 0.00000E+00
 -1      1708 7.59642E+01 1.93146E+01 0.00000E+00
 -1      1709 7.64240E+01 1.86739E+01 0.00000E+00
 -1      1710 7.52779E+01 2.07620E+01 0.00000E+00
 -1      1711 7.55620E+01 2.01026E+01 0.00000E+00
 -1      1712 7.48384E+01 2.22951E+01 0.00000E+00
 -1      1713 7.49842E+01 2.15678E+01 0.00000E+00
 -1      1714 7.48044E+01 2.38487E+01 0.00000E+00
 -1      1715 7.47979E+01 2.31440E+01 0.00000E+00
 -1      1716 7.49370E+01 2.55679E+01 0.00000E+00
 -1      1717 7.47523E+01 2.47693E+01 0.00000E+00
 -1      1718 7.56945E+01 2.70125E+01 0.00000E+00
 -1      1719 7.53890E+01 2.63737E+01 0.00000E+00
 -1      1720 7.65985E+01 2.83926E+01 0.00000E+00
 -1      1721 7.61206E+01 2.77757E+01 0.00000E+00
 -1      1722 7.78237E+01 2.95362E+01 0.00000E+00
 -1      1723 7.72327E+01 2.90480E+01 0.00000E+00
 -1      1724 7.91968E+01 3.03089E+01 0.00000E+00
 -1      1725 7.85673E+01 2.99820E+01 0.00000E+00
 -1      1726 8.08174E+01 3.09620E+01 0.00000E+00
 -1      1727 8.00087E+01 3.07488E+01 0.00000E+00
 -1      1728 8.26231E+01 3.11598E+01 0.00000E+00
 -1      1729 8.18026E+01 3.11429E+01 0.00000E+00
 -1      1730 8.43121E+01 3.08352E+01 0.00000E+00
 -1      1731 8.35644E+01 3.09917E+01 0.00000E+00
 -1      1732 8.58027E+01 3.01821E+01 0.00000E+00
 -1      1733 8.51292E+01 3.04839E+01 0.00000E+00
 -1      1734 8.72001E+01 2.93730E+01 0.00000E+00
 -1      1735 8.66000E+01 2.98138E+01 0.00000E+00
 -1      1736 8.82878E+01 2.81587E+01 0.00000E+00
 -1      1737 8.77932E+01 2.87183E+01 0.00000E+00
 -1      1738 8.91377E+01 2.68396E+01 0.00000E+00
 -1      1739 8.87850E+01 2.74637E+01 0.00000E+00
 -1      1740 8.97375E+01 2.53712E+01 0.00000E+00
 -1      1741 8.95153E+01 2.60736E+01 0.00000E+00
 -1      1742 8.99394E+01 2.38375E+01 0.00000E+00
 -1      1743 8.98690E+01 2.45360E+01 0.00000E+00
 -1      1744 8.76296E+01 1.72264E+01 0.00000E+00
 -1      1745 8.88389E+01 1.84363E+01 0.00000E+00
 -1      1746 1.48437E+02 2.56875E+00 0.00000E+00
 -1      1747 1.47138E+02 3.30625E+00 0.00000E+00
 -1      1748 9.04442E+01 2.15620E+01 0.00000E+00
 -1      1749 8.97389E+01 1.98986E+01 0.00000E+00
 -1      1750 9.06590E+01 2.33360E+01 0.00000E+00
 -1      1751 8.62169E+01 1.62681E+01 0.00000E+00
 -1      1752 8.46031E+01 1.54492E+01 0.00000E+00
 -1      1753 8.28111E+01 1.51138E+01 0.00000E+00
 -1      1754 8.09244E+01 1.52739E+01 0.00000E+00
 -1      1755 7.91792E+01 1.58270E+01 0.00000E+00
 -1      1756 7.76680E+01 1.68017E+01 0.00000E+00
 -1      1757 7.63126E+01 1.79630E+01 0.00000E+00
 -1      1758 7.52654E+01 1.94044E+01 0.00000E+00
 -1      1759 7.45696E+01 2.09982E+01 0.00000E+00
 -1      1760 7.42354E+01 2.26529E+01 0.00000E+00
 -1      1761 7.41429E+01 2.44224E+01 0.00000E+00
 -1      1762 7.45428E+01 2.61488E+01 0.00000E+00
 -1      1763 7.54210E+01 2.77178E+01 0.00000E+00
 -1      1764 7.64814E+01 2.91364E+01 0.00000E+00
 -1      1765 7.78591E+01 3.02376E+01 0.00000E+00
 -1      1766 7.94145E+01 3.11232E+01 0.00000E+00
 -1      1767 8.12117E+01 3.17440E+01 0.00000E+00
 -1      1768 8.31383E+01 3.17569E+01 0.00000E+00
 -1      1769 8.48967E+01 3.12375E+01 0.00000E+00
 -1      1770 8.65111E+01 3.05179E+01 0.00000E+00
 -1      1771 8.79016E+01 2.94948E+01 0.00000E+00
 -1      1772 8.89919E+01 2.81449E+01 0.00000E+00
 -1      1773 8.98667E+01 2.66839E+01 0.00000E+00
 -1      1774 9.03758E+01 2.50827E+01 0.00000E+00
 -1      1775 2.87400E+00 4.77875E+01 0.00000E+00
 -1      1776 3.89700E+00 4.04125E+01 0.00000E+00
 -1      1777 3.89700E+00 4.18875E+01 0.00000E+00
 -1      1778 3.89700E+00 4.33625E+01 0.00000E+00
 -1      1779 3.89700E+00 4.48375E+01 0.00000E+00
 -1      1780 5.19600E+00 4.26250E+01 0.00000E+00
 -1      1781 3.89700E+00 3.45500E+01 0.00000E+00
 -1      1782 3.89700E+00 3.60000E+01 0.00000E+00
 -1      1783 3.89700E+00 3.16000E+01 0.00000E+00
 -1      1784 3.89700E+00 3.30750E+01 0.00000E+00
 -1      1785 5.19600E+00 3.38000E+01 0.00000E+00
 -1      1786 3.89700E+00 2.86500E+01 0.00000E+00
 -1      1787 3.89700E+00 3.01250E+01 0.00000E+00
 -1      1788 5.19600E+00 3.08500E+01 0.00000E+00
 -1      1789 3.89700E+00 2.57000E+01 0.00000E+00
 -1      1790 3.89700E+00 2.71750E+01 0.00000E+00
 -1      1791 5.19600E+00 2.79000E+01 0.00000E+00
 -1      1792 3.89700E+00 2.27500E+01 0.00000E+00
 -1      1793 3.89700E+00 2.42250E+01 0.00000E+00
 -1      1794 5.19600E+00 2.49500E+01 0.00000E+00
 -1      1795 3.89700E+00 1.98000E+01 0.00000E+00
 -1      1796 3.89700E+00 2.12750E+01 0.00000E+00
 -1      1797 5.19600E+00 2.20000E+01 0.00000E+00
 -1      1798 3.89700E+00 1.69000E+01 0.00000E+00
 -1      1799 3.89700E+00 1.83500E+01 0.00000E+00
 -1      1800 5.19600E+00 1.90750E+01 0.00000E+00
 -1      1801 3.89700E+00 1.39500E+01 0.00000E+00
 -1      1802 3.89700E+00 1.54250E+01 0.00000E+00
 -1      1803 5.19600E+00 1.61500E+01 0.00000E+00
 -1      1804 3.89700E+00 1.10000E+01 0.00000E+00
 -1      1805 3.89700E+00 1.24750E+01 0.00000E+00
 -1      1806 5.19600E+00 1.32000E+01 0.00000E+00
 -1      1807 3.89700E+00 8.05000E+00 0.00000E+00
 -1      1808 3.89700E+00 9.52500E+00 0.00000E+00
 -1      1809 5.19600E+00 1.02500E+01 0.00000E+00
 -1      1810 3.89700E+00 5.10000E+00 0.00000E+00
 -1      1811 3.89700E+00 6.57500E+00 0.00000E+00
 -1      1812 5.19600E+00 7.30000E+00 0.00000E+00
 -1      1813 4.20450E+00 3.09687E+00 0.00000E+00
 -1      1814 4.06650E+00 4.19063E+00 0.00000E+00
 -1      1815 5.36550E+00 4.91563E+00 0.00000E+00
 -1      1816 5.70450E+00 3.09687E+00 0.00000E+00
 -1      1817 3.62400E+00 4.64885E+01 0.00000E+00
 -1      1818 8.70450E+00 3.09687E+00 0.00000E+00
 -1      1819 7.20450E+00 3.09687E+00 0.00000E+00
 -1      1820 7.03500E+00 4.00625E+00 0.00000E+00
 -1      1821 4.92300E+00 4.57510E+01 0.00000E+00
 -1      1822 8.40000E+00 4.61030E+01 0.00000E+00
 -1      1823 9.90000E+00 4.61030E+01 0.00000E+00
 -1      1824 1.14000E+01 4.61030E+01 0.00000E+00
 -1      1825 1.29000E+01 4.61030E+01 0.00000E+00
 -1      1826 1.06500E+01 4.48040E+01 0.00000E+00
 -1      1827 1.44000E+01 4.61030E+01 0.00000E+00
 -1      1828 1.59000E+01 4.61030E+01 0.00000E+00
 -1      1829 1.36500E+01 4.48040E+01 0.00000E+00
 -1      1830 1.74000E+01 4.61030E+01 0.00000E+00
 -1      1831 1.89000E+01 4.61030E+01 0.00000E+00
 -1      1832 1.66500E+01 4.48040E+01 0.00000E+00
 -1      1833 2.04000E+01 4.61030E+01 0.00000E+00
 -1      1834 2.19000E+01 4.61030E+01 0.00000E+00
 -1      1835 1.96500E+01 4.48040E+01 0.00000E+00
 -1      1836 2.34000E+01 4.61030E+01 0.00000E+00
 -1      1837 2.49000E+01 4.61030E+01 0.00000E+00
 -1      1838 2.26500E+01 4.48040E+01 0.00000E+00
 -1      1839 2.64000E+01 4.61030E+01 0.00000E+00
 -1      1840 2.79000E+01 4.61030E+01 0.00000E+00
 -1      1841 2.56500E+01 4.48040E+01 0.00000E+00
 -1      1842 2.94000E+01 4.61030E+01 0.00000E+00
 -1      1843 3.09000E+01 4.61030E+01 0.00000E+00
 -1      1844 2.86500E+01 4.48040E+01 0.00000E+00
 -1      1845 3.24000E+01 4.61030E+01 0.00000E+00
 -1      1846 3.39000E+01 4.61030E+01 0.00000E+00
 -1      1847 3.16500E+01 4.48040E+01 0.00000E+00
 -1      1848 3.54000E+01 4.61030E+01 0.00000E+00
 -1      1849 3.69000E+01 4.61030E+01 0.00000E+00
 -1      1850 3.46500E+01 4.48040E+01 0.00000E+00
 -1      1851 3.84000E+01 4.61030E+01 0.00000E+00
 -1      1852 3.99000E+01 4.61030E+01 0.00000E+00
 -1      1853 3.76500E+01 4.48040E+01 0.00000E+00
 -1      1854 4.14000E+01 4.61030E+01 0.00000E+00
 -1      1855 4.29000E+01 4.61030E+01 0.00000E+00
 -1      1856 4.06500E+01 4.48040E+01 0.00000E+00
 -1      1857 4.44000E+01 4.61030E+01 0.00000E+00
 -1      1858 4.59000E+01 4.61030E+01 0.00000E+00
 -1      1859 4.36500E+01 4.48040E+01 0.00000E+00
 -1      1860 4.74000E+01 4.61030E+01 0.00000E+00
 -1      1861 4.89000E+01 4.61030E+01 0.00000E+00
 -1      1862 4.66500E+01 4.48040E+01 0.00000E+00
 -1      1863 5.04000E+01 4.61030E+01 0.00000E+00
 -1      1864 5.19000E+01 4.61030E+01 0.00000E+00
 -1      1865 4.96500E+01 4.48040E+01 0.00000E+00
 -1      1866 5.34000E+01 4.61030E+01 0.00000E+00
 -1      1867 5.49000E+01 4.61030E+01 0.00000E+00
 -1      1868 5.26500E+01 4.48040E+01 0.00000E+00
 -1      1869 5.64000E+01 4.61030E+01 0.00000E+00
 -1      1870 5.79000E+01 4.61030E+01 0.00000E+00
 -1      1871 5.56500E+01 4.48040E+01 0.00000E+00
 -1      1872 5.94000E+01 4.61030E+01 0.00000E+00
 -1      1873 6.09000E+01 4.61030E+01 0.00000E+00
 -1      1874 5.86500E+01 4.48040E+01 0.00000E+00
 -1      1875 6.24000E+01 4.61030E+01 0.00000E+00
 -1      1876 6.39000E+01 4.61030E+01 0.00000E+00
 -1      1877 6.16500E+01 4.48040E+01 0.00000E+00
 -1      1878 6.54000E+01 4.61030E+01 0.00000E+00
 -1      1879 6.69000E+01 4.61030E+01 0.00000E+00
 -1      1880 6.46500E+01 4.48040E+01 0.00000E+00
 -1      1881 6.84000E+01 4.61030E+01 0.00000E+00
 -1      1882 6.99000E+01 4.61030E+01 0.00000E+00
 -1      1883 6.76500E+01 4.48040E+01 0.00000E+00
 -1      1884 7.14000E+01 4.61030E+01 0.00000E+00
 -1      1885 7.29000E+01 4.61030E+01 0.00000E+00
 -1      1886 7.06500E+01 4.48040E+01 0.00000E+00
 -1      1887 7.44000E+01 4.61030E+01 0.00000E+00
 -1      1888 7.59000E+01 4.61030E+01 0.00000E+00
 -1      1889 7.36500E+01 4.48040E+01 0.00000E+00
 -1      1890 7.74000E+01 4.61030E+01 0.00000E+00
 -1      1891 7.89000E+01 4.61030E+01 0.00000E+00
 -1      1892 7.66500E+01 4.48040E+01 0.00000E+00
 -1      1893 8.04000E+01 4.61030E+01 0.00000E+00
 -1      1894 8.19000E+01 4.61030E+01 0.00000E+00
 -1      1895 7.96500E+01 4.48040E+01 0.00000E+00
 -1      1896 8.34000E+01 4.61030E+01 0.00000E+00
 -1      1897 8.49000E+01 4.61030E+01 0.00000E+00
 -1      1898 8.26500E+01 4.48040E+01 0.00000E+00
 -1      1899 8.64000E+01 4.61030E+01 0.00000E+00
 -1      1900 8.79000E+01 4.61030E+01 0.00000E+00
 -1      1901 8.56500E+01 4.48040E+01 0.00000E+00
 -1      1902 8.94000E+01 4.61030E+01 0.00000E+00
 -1      1903 9.09000E+01 4.61030E+01 0.00000E+00
 -1      1904 8.86500E+01 4.48040E+01 0.00000E+00
 -1      1905 9.24000E+01 4.61030E+01 0.00000E+00
 -1      1906 9.39000E+01 4.61030E+01 0.00000E+00
 -1      1907 9.16500E+01 4.48040E+01 0.00000E+00
 -1      1908 9.54000E+01 4.61030E+01 0.00000E+00
 -1      1909 9.69000E+01 4.61030E+01 0.00000E+00
 -1      1910 9.46500E+01 4.48040E+01 0.00000E+00
 -1      1911 9.84000E+01 4.61030E+01 0.00000E+00
 -1      1912 9.99000E+01 4.61030E+01 0.00000E+00
 -1      1913 9.76500E+01 4.48040E+01 0.00000E+00
 -1      1914 1.01400E+02 4.61030E+01 0.00000E+00
 -1      1915 1.02900E+02 4.61030E+01 0.00000E+00
 -1      1916 1.00650E+02 4.48040E+01 0.00000E+00
 -1      1917 1.04400E+02 4.61030E+01 0.00000E+00
 -1      1918 1.05900E+02 4.61030E+01 0.00000E+00
 -1      1919 1.03650E+02 4.48040E+01 0.00000E+00
 -1      1920 1.07400E+02 4.61030E+01 0.00000E+00
 -1      1921 1.08900E+02 4.61030E+01 0.00000E+00
 -1      1922 1.06650E+02 4.48040E+01 0.00000E+00
 -1      1923 1.10400E+02 4.61030E+01 0.00000E+00
 -1      1924 1.11900E+02 4.61030E+01 0.00000E+00
 -1      1925 1.09650E+02 4.48040E+01 0.00000E+00
 -1      1926 1.13400E+02 4.61030E+01 0.00000E+00
 -1      1927 1.14900E+02 4.61030E+01 0.00000E+00
 -1      1928 1.12650E+02 4.48040E+01 0.00000E+00
 -1      1929 1.16400E+02 4.61030E+01 0.00000E+00
 -1      1930 1.17900E+02 4.61030E+01 0.00000E+00
 -1      1931 1.15650E+02 4.48040E+01 0.00000E+00
 -1      1932 1.19400E+02 4.61030E+01 0.00000E+00
 -1      1933 1.20900E+02 4.61030E+01 0.00000E+00
 -1      1934 1.18650E+02 4.48040E+01 0.00000E+00
 -1      1935 1.22400E+02 4.61030E+01 0.00000E+00
 -1      1936 1.23900E+02 4.61030E+01 0.00000E+00
 -1      1937 1.21650E+02 4.48040E+01 0.00000E+00
 -1      1938 1.25400E+02 4.61030E+01 0.00000E+00
 -1      1939 1.26900E+02 4.61030E+01 0.00000E+00
 -1      1940 1.24650E+02 4.48040E+01 0.00000E+00
 -1      1941 1.28400E+02 4.61030E+01 0.00000E+00
 -1      1942 1.29900E+02 4.61030E+01 0.00000E+00
 -1      1943 1.27650E+02 4.48040E+01 0.00000E+00
 -1      1944 1.31400E+02 4.61030E+01 0.00000E+00
 -1      1945 1.32900E+02 4.61030E+01 0.00000E+00
 -1      1946 1.30650E+02 4.48040E+01 0.00000E+00
 -1      1947 1.34400E+02 4.61030E+01 0.00000E+00
 -1      1948 1.35900E+02 4.61030E+01 0.00000E+00
 -1      1949 1.33650E+02 4.48040E+01 0.00000E+00
 -1      1950 1.37400E+02 4.61030E+01 0.00000E+00
 -1      1951 1.38900E+02 4.61030E+01 0.00000E+00
 -1      1952 1.36650E+02 4.48040E+01 0.00000E+00
 -1      1953 1.40400E+02 4.61030E+01 0.00000E+00
 -1      1954 1.41900E+02 4.61030E+01 0.00000E+00
 -1      1955 1.39650E+02 4.48040E+01 0.00000E+00
 -1      1956 1.43244E+02 4.61616E+01 0.00000E+00
 -1      1957 1.44744E+02 4.61616E+01 0.00000E+00
 -1      1958 1.45182E+02 4.49799E+01 0.00000E+00
 -1      1959 1.42494E+02 4.48626E+01 0.00000E+00
 -1      1960 1.17045E+01 3.09687E+00 0.00000E+00
 -1      1961 1.02045E+01 3.09687E+00 0.00000E+00
 -1      1962 1.00350E+01 4.00625E+00 0.00000E+00
 -1      1963 1.47045E+01 3.09687E+00 0.00000E+00
 -1      1964 1.32045E+01 3.09687E+00 0.00000E+00
 -1      1965 1.30350E+01 4.00625E+00 0.00000E+00
 -1      1966 1.77045E+01 3.09687E+00 0.00000E+00
 -1      1967 1.62045E+01 3.09687E+00 0.00000E+00
 -1      1968 1.60350E+01 4.00625E+00 0.00000E+00
 -1      1969 2.07045E+01 3.09687E+00 0.00000E+00
 -1      1970 1.92045E+01 3.09687E+00 0.00000E+00
 -1      1971 1.90350E+01 4.00625E+00 0.00000E+00
 -1      1972 2.37045E+01 3.09687E+00 0.00000E+00
 -1      1973 2.22045E+01 3.09687E+00 0.00000E+00
 -1      1974 2.20350E+01 4.00625E+00 0.00000E+00
 -1      1975 2.67045E+01 3.09687E+00 0.00000E+00
 -1      1976 2.52045E+01 3.09687E+00 0.00000E+00
 -1      1977 2.50350E+01 4.00625E+00 0.00000E+00
 -1      1978 2.97045E+01 3.09687E+00 0.00000E+00
 -1      1979 2.82045E+01 3.09687E+00 0.00000E+00
 -1      1980 2.80350E+01 4.00625E+00 0.00000E+00
 -1      1981 3.27045E+01 3.09687E+00 0.00000E+00
 -1      1982 3.12045E+01 3.09687E+00 0.00000E+00
 -1      1983 3.10350E+01 4.00625E+00 0.00000E+00
 -1      1984 3.57045E+01 3.09687E+00 0.00000E+00
 -1      1985 3.42045E+01 3.09687E+00 0.00000E+00
 -1      1986 3.40350E+01 4.00625E+00 0.00000E+00
 -1      1987 3.87045E+01 3.09687E+00 0.00000E+00
 -1      1988 3.72045E+01 3.09687E+00 0.00000E+00
 -1      1989 3.70350E+01 4.00625E+00 0.00000E+00
 -1      1990 4.17045E+01 3.09687E+00 0.00000E+00
 -1      1991 4.02045E+01 3.09687E+00 0.00000E+00
 -1      1992 4.00350E+01 4.00625E+00 0.00000E+00
 -1      1993 4.47045E+01 3.09687E+00 0.00000E+00
 -1      1994 4.32045E+01 3.09687E+00 0.00000E+00
 -1      1995 4.30350E+01 4.00625E+00 0.00000E+00
 -1      1996 4.77045E+01 3.09687E+00 0.00000E+00
 -1      1997 4.62045E+01 3.09687E+00 0.00000E+00
 -1      1998 4.60350E+01 4.00625E+00 0.00000E+00
 -1      1999 5.07045E+01 3.09687E+00 0.00000E+00
 -1      2000 4.92045E+01 3.09687E+00 0.00000E+00
 -1      2001 4.90350E+01 4.00625E+00 0.00000E+00
 -1      2002 5.37045E+01 3.09687E+00 0.00000E+00
 -1      2003 5.22045E+01 3.09687E+00 0.00000E+00
 -1      2004 5.20350E+01 4.00625E+00 0.00000E+00
 -1      2005 5.67045E+01 3.09687E+00 0.00000E+00
 -1      2006 5.52045E+01 3.09687E+00 0.00000E+00
 -1      2007 5.50350E+01 4.00625E+00 0.00000E+00
 -1      2008 5.97045E+01 3.09687E+00 0.00000E+00
 -1      2009 5.82045E+01 3.09687E+00 0.00000E+00
 -1      2010 5.80350E+01 4.00625E+00 0.00000E+00
 -1      2011 6.27045E+01 3.09687E+00 0.00000E+00
 -1      2012 6.12045E+01 3.09687E+00 0.00000E+00
 -1      2013 6.10350E+01 4.00625E+00 0.00000E+00
 -1      2014 6.57045E+01 3.09687E+00 0.00000E+00
 -1      2015 6.42045E+01 3.09687E+00 0.00000E+00
 -1      2016 6.40350E+01 4.00625E+00 0.00000E+00
 -1      2017 6.87045E+01 3.09687E+00 0.00000E+00
 -1      2018 6.72045E+01 3.09687E+00 0.00000E+00
 -1      2019 6.70350E+01 4.00625E+00 0.00000E+00
 -1      2020 7.17045E+01 3.09687E+00 0.00000E+00
 -1      2021 7.02045E+01 3.09687E+00 0.00000E+00
 -1      2022 7.00350E+01 4.00625E+00 0.00000E+00
 -1      2023 7.47045E+01 3.09687E+00 0.00000E+00
 -1      2024 7.32045E+01 3.09687E+00 0.00000E+00
 -1      2025 7.30350E+01 4.00625E+00 0.00000E+00
 -1      2026 7.77045E+01 3.09687E+00 0.00000E+00
 -1      2027 7.62045E+01 3.09687E+00 0.00000E+00
 -1      2028 7.60350E+01 4.00625E+00 0.00000E+00
 -1      2029 8.07045E+01 3.09687E+00 0.00000E+00
 -1      2030 7.92045E+01 3.09687E+00 0.00000E+00
 -1      2031 7.90350E+01 4.00625E+00 0.00000E+00
 -1      2032 8.37045E+01 3.09687E+00 0.00000E+00
 -1      2033 8.22045E+01 3.09687E+00 0.00000E+00
 -1      2034 8.20350E+01 4.00625E+00 0.00000E+00
 -1      2035 8.67045E+01 3.09687E+00 0.00000E+00
 -1      2036 8.52045E+01 3.09687E+00 0.00000E+00
 -1      2037 8.50350E+01 4.00625E+00 0.00000E+00
 -1      2038 8.97045E+01 3.09687E+00 0.00000E+00
 -1      2039 8.82045E+01 3.09687E+00 0.00000E+00
 -1      2040 8.80350E+01 4.00625E+00 0.00000E+00
 -1      2041 9.27045E+01 3.09687E+00 0.00000E+00
 -1      2042 9.12045E+01 3.09687E+00 0.00000E+00
 -1      2043 9.10350E+01 4.00625E+00 0.00000E+00
 -1      2044 9.57045E+01 3.09687E+00 0.00000E+00
 -1      2045 9.42045E+01 3.09687E+00 0.00000E+00
 -1      2046 9.40350E+01 4.00625E+00 0.00000E+00
 -1      2047 9.87045E+01 3.09687E+00 0.00000E+00
 -1      2048 9.72045E+01 3.09687E+00 0.00000E+00
 -1      2049 9.70350E+01 4.00625E+00 0.00000E+00
 -1      2050 1.01704E+02 3.09687E+00 0.00000E+00
 -1      2051 1.00204E+02 3.09687E+00 0.00000E+00
 -1      2052 1.00035E+02 4.00625E+00 0.00000E+00
 -1      2053 1.04704E+02 3.09687E+00 0.00000E+00
 -1      2054 1.03204E+02 3.09687E+00 0.00000E+00
 -1      2055 1.03035E+02 4.00625E+00 0.00000E+00
 -1      2056 1.07704E+02 3.09687E+00 0.00000E+00
 -1      2057 1.06204E+02 3.09687E+00 0.00000E+00
 -1      2058 1.06035E+02 4.00625E+00 0.00000E+00
 -1      2059 1.10704E+02 3.09687E+00 0.00000E+00
 -1      2060 1.09204E+02 3.09687E+00 0.00000E+00
 -1      2061 1.09035E+02 4.00625E+00 0.00000E+00
 -1      2062 1.13704E+02 3.09687E+00 0.00000E+00
 -1      2063 1.12204E+02 3.09687E+00 0.00000E+00
 -1      2064 1.12035E+02 4.00625E+00 0.00000E+00
 -1      2065 1.16704E+02 3.09687E+00 0.00000E+00
 -1      2066 1.15204E+02 3.09687E+00 0.00000E+00
 -1      2067 1.15035E+02 4.00625E+00 0.00000E+00
 -1      2068 1.19704E+02 3.09687E+00 0.00000E+00
 -1      2069 1.18204E+02 3.09687E+00 0.00000E+00
 -1      2070 1.18035E+02 4.00625E+00 0.00000E+00
 -1      2071 1.22704E+02 3.09687E+00 0.00000E+00
 -1      2072 1.21204E+02 3.09687E+00 0.00000E+00
 -1      2073 1.21035E+02 4.00625E+00 0.00000E+00
 -1      2074 1.25704E+02 3.09687E+00 0.00000E+00
 -1      2075 1.24204E+02 3.09687E+00 0.00000E+00
 -1      2076 1.24035E+02 4.00625E+00 0.00000E+00
 -1      2077 1.28704E+02 3.09687E+00 0.00000E+00
 -1      2078 1.27204E+02 3.09687E+00 0.00000E+00
 -1      2079 1.27035E+02 4.00625E+00 0.00000E+00
 -1      2080 1.31704E+02 3.09687E+00 0.00000E+00
 -1      2081 1.30204E+02 3.09687E+00 0.00000E+00
 -1      2082 1.30035E+02 4.00625E+00 0.00000E+00
 -1      2083 1.34704E+02 3.09687E+00 0.00000E+00
 -1      2084 1.33204E+02 3.09687E+00 0.00000E+00
 -1      2085 1.33035E+02 4.00625E+00 0.00000E+00
 -1      2086 1.37704E+02 3.09687E+00 0.00000E+00
 -1      2087 1.36204E+02 3.09687E+00 0.00000E+00
 -1      2088 1.36035E+02 4.00625E+00 0.00000E+00
 -1      2089 1.40704E+02 3.09687E+00 0.00000E+00
 -1      2090 1.39204E+02 3.09687E+00 0.00000E+00
 -1      2091 1.39035E+02 4.00625E+00 0.00000E+00
 -1      2092 1.43704E+02 3.09687E+00 0.00000E+00
 -1      2093 1.42204E+02 3.09687E+00 0.00000E+00
 -1      2094 1.42035E+02 4.00625E+00 0.00000E+00
 -1      2095 1.46171E+02 3.20156E+00 0.00000E+00
 -1      2096 1.44671E+02 3.20156E+00 0.00000E+00
 -1      2097 1.44502E+02 4.11094E+00 0.00000E+00
 -1      2098 1.46435E+02 4.32031E+00 0.00000E+00
 -1      2099 1.46103E+02 1.25375E+01 0.00000E+00
 -1      2100 1.46103E+02 1.10625E+01 0.00000E+00
 -1      2101 1.46103E+02 9.58750E+00 0.00000E+00
 -1      2102 1.46103E+02 8.11250E+00 0.00000E+00
 -1      2103 1.44804E+02 1.03250E+01 0.00000E+00
 -1      2104 1.46269E+02 6.95391E+00 0.00000E+00
 -1      2105 1.46269E+02 5.47891E+00 0.00000E+00
 -1      2106 1.45302E+02 5.37422E+00 0.00000E+00
 -1      2107 1.44970E+02 7.69141E+00 0.00000E+00
 -1      2108 1.46103E+02 1.54375E+01 0.00000E+00
 -1      2109 1.46103E+02 1.39875E+01 0.00000E+00
 -1      2110 1.44804E+02 1.32500E+01 0.00000E+00
 -1      2111 1.46103E+02 1.83875E+01 0.00000E+00
 -1      2112 1.46103E+02 1.69125E+01 0.00000E+00
 -1      2113 1.44804E+02 1.61750E+01 0.00000E+00
 -1      2114 1.46103E+02 2.13375E+01 0.00000E+00
 -1      2115 1.46103E+02 1.98625E+01 0.00000E+00
 -1      2116 1.44804E+02 1.91250E+01 0.00000E+00
 -1      2117 1.46103E+02 2.42875E+01 0.00000E+00
 -1      2118 1.46103E+02 2.28125E+01 0.00000E+00
 -1      2119 1.44804E+02 2.20750E+01 0.00000E+00
 -1      2120 1.46103E+02 2.72375E+01 0.00000E+00
 -1      2121 1.46103E+02 2.57625E+01 0.00000E+00
 -1      2122 1.44804E+02 2.50250E+01 0.00000E+00
 -1      2123 1.46103E+02 3.01875E+01 0.00000E+00
 -1      2124 1.46103E+02 2.87125E+01 0.00000E+00
 -1      2125 1.44804E+02 2.79750E+01 0.00000E+00
 -1      2126 1.46103E+02 3.30875E+01 0.00000E+00
 -1      2127 1.46103E+02 3.16375E+01 0.00000E+00
 -1      2128 1.44804E+02 3.09000E+01 0.00000E+00
 -1      2129 1.46103E+02 3.60375E+01 0.00000E+00
 -1      2130 1.46103E+02 3.45625E+01 0.00000E+00
 -1      2131 1.44804E+02 3.38250E+01 0.00000E+00
 -1      2132 1.46103E+02 3.89875E+01 0.00000E+00
 -1      2133 1.46103E+02 3.75125E+01 0.00000E+00
 -1      2134 1.44804E+02 3.67750E+01 0.00000E+00
 -1      2135 1.46103E+02 4.19375E+01 0.00000E+00
 -1      2136 1.46103E+02 4.04625E+01 0.00000E+00
 -1      2137 1.44804E+02 3.97250E+01 0.00000E+00
 -1      2138 9.02048E+01 1.92292E+01 0.00000E+00
 -1      2139 9.05438E+01 2.00303E+01 0.00000E+00
 -1      2140 9.13742E+01 2.29866E+01 0.00000E+00
 -1      2141 9.12225E+01 2.38982E+01 0.00000E+00
 -1      2142 9.09102E+01 2.08926E+01 0.00000E+00
 -1      2143 9.12767E+01 2.17550E+01 0.00000E+00
 -1      2144 9.13762E+01 2.02233E+01 0.00000E+00
 -1      2145 8.90846E+01 1.76593E+01 0.00000E+00
 -1      2146 8.96456E+01 1.83206E+01 0.00000E+00
 -1      2147 8.78323E+01 1.63294E+01 0.00000E+00
 -1      2148 8.84807E+01 1.68781E+01 0.00000E+00
 -1      2149 3.89700E+00 3.74688E+01 0.00000E+00
 -1      2150 3.89700E+00 3.89437E+01 0.00000E+00
 -1      2151 5.19600E+00 3.96813E+01 0.00000E+00
 -1      2152 5.19600E+00 3.67438E+01 0.00000E+00
 -1      2153 8.45141E+01 1.45475E+01 0.00000E+00
 -1      2154 8.53636E+01 1.49568E+01 0.00000E+00
 -1      2155 8.22861E+01 1.44628E+01 0.00000E+00
 -1      2156 8.32284E+01 1.43890E+01 0.00000E+00
 -1      2157 8.03817E+01 1.45465E+01 0.00000E+00
 -1      2158 8.13262E+01 1.44602E+01 0.00000E+00
 -1      2159 7.84102E+01 1.54281E+01 0.00000E+00
 -1      2160 7.92110E+01 1.49613E+01 0.00000E+00
 -1      2161 7.69359E+01 1.65285E+01 0.00000E+00
 -1      2162 7.76463E+01 1.60206E+01 0.00000E+00
 -1      2163 7.54991E+01 1.78049E+01 0.00000E+00
 -1      2164 7.61441E+01 1.71516E+01 0.00000E+00
 -1      2165 7.44871E+01 1.95039E+01 0.00000E+00
 -1      2166 7.48892E+01 1.87158E+01 0.00000E+00
 -1      2167 7.36564E+01 2.11218E+01 0.00000E+00
 -1      2168 7.39501E+01 2.03160E+01 0.00000E+00
 -1      2169 7.35678E+01 2.30466E+01 0.00000E+00
 -1      2170 7.36083E+01 2.21976E+01 0.00000E+00
 -1      2171 7.34636E+01 2.48877E+01 0.00000E+00
 -1      2172 7.35157E+01 2.39671E+01 0.00000E+00
 -1      2173 7.28886E+01 2.35118E+01 0.00000E+00
 -1      2174 7.40575E+01 2.69508E+01 0.00000E+00
 -1      2175 7.36054E+01 2.61450E+01 0.00000E+00
 -1      2176 7.49098E+01 2.84772E+01 0.00000E+00
 -1      2177 7.44836E+01 2.77140E+01 0.00000E+00
 -1      2178 7.35462E+01 2.77101E+01 0.00000E+00
 -1      2179 7.62424E+01 3.00022E+01 0.00000E+00
 -1      2180 7.56082E+01 2.93468E+01 0.00000E+00
 -1      2181 7.78114E+01 3.11601E+01 0.00000E+00
 -1      2182 7.70679E+01 3.07143E+01 0.00000E+00
 -1      2183 7.94352E+01 3.20397E+01 0.00000E+00
 -1      2184 7.86233E+01 3.15999E+01 0.00000E+00
 -1      2185 7.78321E+01 3.20766E+01 0.00000E+00
 -1      2186 8.15646E+01 3.25955E+01 0.00000E+00
 -1      2187 8.05793E+01 3.24146E+01 0.00000E+00
 -1      2188 8.37229E+01 3.23108E+01 0.00000E+00
 -1      2189 8.27815E+01 3.24789E+01 0.00000E+00
 -1      2190 8.55778E+01 3.16958E+01 0.00000E+00
 -1      2191 8.47607E+01 3.20470E+01 0.00000E+00
 -1      2192 8.71724E+01 3.09591E+01 0.00000E+00
 -1      2193 8.63751E+01 3.13274E+01 0.00000E+00
 -1      2194 8.62391E+01 3.21369E+01 0.00000E+00
 -1      2195 8.87405E+01 2.96587E+01 0.00000E+00
 -1      2196 8.81474E+01 3.03135E+01 0.00000E+00
 -1      2197 8.97676E+01 2.81745E+01 0.00000E+00
 -1      2198 8.92704E+01 2.88695E+01 0.00000E+00
 -1      2199 9.06368E+01 2.65874E+01 0.00000E+00
 -1      2200 9.02592E+01 2.73534E+01 0.00000E+00
 -1      2201 9.10910E+01 2.47333E+01 0.00000E+00
 -1      2202 9.09594E+01 2.55684E+01 0.00000E+00
 -1      2203 9.18061E+01 2.43838E+01 0.00000E+00
 -1      2204 8.61279E+01 1.53664E+01 0.00000E+00
 -1      2205 8.68922E+01 1.57760E+01 0.00000E+00
 -1      2206 8.60389E+01 1.44646E+01 0.00000E+00
 -1      2207 8.77433E+01 1.54277E+01 0.00000E+00
 -1      2208 6.42300E+00 4.57510E+01 0.00000E+00
 -1      2209 7.17300E+00 4.44520E+01 0.00000E+00
 -1      2210 9.18401E+01 2.23172E+01 0.00000E+00
 -1      2211 9.24036E+01 2.28793E+01 0.00000E+00
 -1      2212 9.23061E+01 2.16478E+01 0.00000E+00
 -1      2213 9.04505E+01 1.84522E+01 0.00000E+00
 -1      2214 1.45665E+02 4.31193E+01 0.00000E+00
 -1      2215 8.92873E+01 1.67623E+01 0.00000E+00
 -1      2216 9.13519E+01 2.62380E+01 0.00000E+00
 -1      2217 9.05377E+01 2.80780E+01 0.00000E+00
 -1      2218 8.80114E+01 3.11230E+01 0.00000E+00
 -1      2219 8.44039E+01 3.27691E+01 0.00000E+00
 -1      2220 7.97881E+01 3.28912E+01 0.00000E+00
 -1      2221 7.46708E+01 2.93429E+01 0.00000E+00
 -1      2222 7.29783E+01 2.56896E+01 0.00000E+00
 -1      2223 7.23512E+01 2.52343E+01 0.00000E+00
 -1      2224 7.24929E+01 2.64916E+01 0.00000E+00
 -1      2225 7.29888E+01 2.15154E+01 0.00000E+00
 -1      2226 7.35739E+01 1.96274E+01 0.00000E+00
 -1      2227 7.47207E+01 1.79044E+01 0.00000E+00
 -1      2228 7.61223E+01 1.63704E+01 0.00000E+00
 -1      2229 7.76781E+01 1.51549E+01 0.00000E+00
 -1      2230 7.96128E+01 1.41476E+01 0.00000E+00
 -1      2231 8.39890E+01 1.38965E+01 0.00000E+00
 -1      2232 8.47496E+01 1.34040E+01 0.00000E+00
 -1      2233 8.34640E+01 1.32456E+01 0.00000E+00
 -1      2234 8.17435E+01 1.37354E+01 0.00000E+00
 -1      2235 7.61947E+01 3.09246E+01 0.00000E+00
 -1      2236 8.21491E+01 3.31495E+01 0.00000E+00
 -1      2237 8.95163E+01 2.96883E+01 0.00000E+00
 -1      2238 1.07850E+01 5.30525E+00 0.00000E+00
 -1      2239 9.28500E+00 5.30525E+00 0.00000E+00
 -1      2240 6.49500E+00 3.01125E+01 0.00000E+00
 -1      2241 6.49500E+00 3.15875E+01 0.00000E+00
 -1      2242 6.49500E+00 3.30625E+01 0.00000E+00
 -1      2243 6.49500E+00 3.45375E+01 0.00000E+00
 -1      2244 7.79400E+00 3.23250E+01 0.00000E+00
 -1      2245 6.49500E+00 2.42125E+01 0.00000E+00
 -1      2246 6.49500E+00 2.56875E+01 0.00000E+00
 -1      2247 6.49500E+00 2.12625E+01 0.00000E+00
 -1      2248 6.49500E+00 2.27375E+01 0.00000E+00
 -1      2249 7.79400E+00 2.34750E+01 0.00000E+00
 -1      2250 6.49500E+00 1.83625E+01 0.00000E+00
 -1      2251 6.49500E+00 1.98125E+01 0.00000E+00
 -1      2252 7.79400E+00 2.05500E+01 0.00000E+00
 -1      2253 6.49500E+00 1.54125E+01 0.00000E+00
 -1      2254 6.49500E+00 1.68875E+01 0.00000E+00
 -1      2255 7.79400E+00 1.76250E+01 0.00000E+00
 -1      2256 6.49500E+00 1.24625E+01 0.00000E+00
 -1      2257 6.49500E+00 1.39375E+01 0.00000E+00
 -1      2258 7.79400E+00 1.46750E+01 0.00000E+00
 -1      2259 6.49500E+00 9.51250E+00 0.00000E+00
 -1      2260 6.49500E+00 1.09875E+01 0.00000E+00
 -1      2261 7.79400E+00 1.17250E+01 0.00000E+00
 -1      2262 1.37850E+01 5.30525E+00 0.00000E+00
 -1      2263 1.22850E+01 5.30525E+00 0.00000E+00
 -1      2264 1.15350E+01 6.60425E+00 0.00000E+00
 -1      2265 9.90000E+00 4.35050E+01 0.00000E+00
 -1      2266 1.14000E+01 4.35050E+01 0.00000E+00
 -1      2267 6.55950E+00 4.28890E+01 0.00000E+00
 -1      2268 8.53650E+00 4.32410E+01 0.00000E+00
 -1      2269 9.28650E+00 4.19420E+01 0.00000E+00
 -1      2270 6.55950E+00 4.14140E+01 0.00000E+00
 -1      2271 8.77083E+01 1.44120E+01 0.00000E+00
 -1      2272 8.86484E+01 1.49654E+01 0.00000E+00
 -1      2273 1.29000E+01 4.35050E+01 0.00000E+00
 -1      2274 1.44000E+01 4.35050E+01 0.00000E+00
 -1      2275 1.21500E+01 4.22060E+01 0.00000E+00
 -1      2276 1.59000E+01 4.35050E+01 0.00000E+00
 -1      2277 1.74000E+01 4.35050E+01 0.00000E+00
 -1      2278 1.51500E+01 4.22060E+01 0.00000E+00
 -1      2279 1.89000E+01 4.35050E+01 0.00000E+00
 -1      2280 2.04000E+01 4.35050E+01 0.00000E+00
 -1      2281 1.81500E+01 4.22060E+01 0.00000E+00
 -1      2282 2.19000E+01 4.35050E+01 0.00000E+00
 -1      2283 2.34000E+01 4.35050E+01 0.00000E+00
 -1      2284 2.11500E+01 4.22060E+01 0.00000E+00
 -1      2285 2.49000E+01 4.35050E+01 0.00000E+00
 -1      2286 2.64000E+01 4.35050E+01 0.00000E+00
 -1      2287 2.41500E+01 4.22060E+01 0.00000E+00
 -1      2288 2.79000E+01 4.35050E+01 0.00000E+00
 -1      2289 2.94000E+01 4.35050E+01 0.00000E+00
 -1      2290 2.71500E+01 4.22060E+01 0.00000E+00
 -1      2291 3.09000E+01 4.35050E+01 0.00000E+00
 -1      2292 3.24000E+01 4.35050E+01 0.00000E+00
 -1      2293 3.01500E+01 4.22060E+01 0.00000E+00
 -1      2294 3.39000E+01 4.35050E+01 0.00000E+00
 -1      2295 3.54000E+01 4.35050E+01 0.00000E+00
 -1      2296 3.31500E+01 4.22060E+01 0.00000E+00
 -1      2297 3.69000E+01 4.35050E+01 0.00000E+00
 -1      2298 3.84000E+01 4.35050E+01 0.00000E+00
 -1      2299 3.61500E+01 4.22060E+01 0.00000E+00
 -1      2300 3.99000E+01 4.35050E+01 0.00000E+00
 -1      2301 4.14000E+01 4.35050E+01 0.00000E+00
 -1      2302 3.91500E+01 4.22060E+01 0.00000E+00
 -1      2303 4.29000E+01 4.35050E+01 0.00000E+00
 -1      2304 4.44000E+01 4.35050E+01 0.00000E+00
 -1      2305 4.21500E+01 4.22060E+01 0.00000E+00
 -1      2306 4.59000E+01 4.35050E+01 0.00000E+00
 -1      2307 4.74000E+01 4.35050E+01 0.00000E+00
 -1      2308 4.51500E+01 4.22060E+01 0.00000E+00
 -1      2309 4.89000E+01 4.35050E+01 0.00000E+00
 -1      2310 5.04000E+01 4.35050E+01 0.00000E+00
 -1      2311 4.81500E+01 4.22060E+01 0.00000E+00
 -1      2312 5.19000E+01 4.35050E+01 0.00000E+00
 -1      2313 5.34000E+01 4.35050E+01 0.00000E+00
 -1      2314 5.11500E+01 4.22060E+01 0.00000E+00
 -1      2315 5.49000E+01 4.35050E+01 0.00000E+00
 -1      2316 5.64000E+01 4.35050E+01 0.00000E+00
 -1      2317 5.41500E+01 4.22060E+01 0.00000E+00
 -1      2318 5.79000E+01 4.35050E+01 0.00000E+00
 -1      2319 5.94000E+01 4.35050E+01 0.00000E+00
 -1      2320 5.71500E+01 4.22060E+01 0.00000E+00
 -1      2321 6.09000E+01 4.35050E+01 0.00000E+00
 -1      2322 6.24000E+01 4.35050E+01 0.00000E+00
 -1      2323 6.01500E+01 4.22060E+01 0.00000E+00
 -1      2324 6.39000E+01 4.35050E+01 0.00000E+00
 -1      2325 6.54000E+01 4.35050E+01 0.00000E+00
 -1      2326 6.31500E+01 4.22060E+01 0.00000E+00
 -1      2327 6.69000E+01 4.35050E+01 0.00000E+00
 -1      2328 6.84000E+01 4.35050E+01 0.00000E+00
 -1      2329 6.61500E+01 4.22060E+01 0.00000E+00
 -1      2330 6.99000E+01 4.35050E+01 0.00000E+00
 -1      2331 7.14000E+01 4.35050E+01 0.00000E+00
 -1      2332 6.91500E+01 4.22060E+01 0.00000E+00
 -1      2333 7.29000E+01 4.35050E+01 0.00000E+00
 -1      2334 7.44000E+01 4.35050E+01 0.00000E+00
 -1      2335 7.21500E+01 4.22060E+01 0.00000E+00
 -1      2336 7.59000E+01 4.35050E+01 0.00000E+00
 -1      2337 7.74000E+01 4.35050E+01 0.00000E+00
 -1      2338 7.51500E+01 4.22060E+01 0.00000E+00
 -1      2339 7.89000E+01 4.35050E+01 0.00000E+00
 -1      2340 8.04000E+01 4.35050E+01 0.00000E+00
 -1      2341 7.81500E+01 4.22060E+01 0.00000E+00
 -1      2342 8.19000E+01 4.35050E+01 0.00000E+00
 -1      2343 8.34000E+01 4.35050E+01 0.00000E+00
 -1      2344 8.11500E+01 4.22060E+01 0.00000E+00
 -1      2345 8.49000E+01 4.35050E+01 0.00000E+00
 -1      2346 8.64000E+01 4.35050E+01 0.00000E+00
 -1      2347 8.41500E+01 4.22060E+01 0.00000E+00
 -1      2348 8.79000E+01 4.35050E+01 0.00000E+00
 -1      2349 8.94000E+01 4.35050E+01 0.00000E+00
 -1      2350 8.71500E+01 4.22060E+01 0.00000E+00
 -1      2351 9.09000E+01 4.35050E+01 0.00000E+00
 -1      2352 9.24000E+01 4.35050E+01 0.00000E+00
 -1      2353 9.01500E+01 4.22060E+01 0.00000E+00
 -1      2354 9.39000E+01 4.35050E+01 0.00000E+00
 -1      2355 9.54000E+01 4.35050E+01 0.00000E+00
 -1      2356 9.31500E+01 4.22060E+01 0.00000E+00
 -1      2357 9.69000E+01 4.35050E+01 0.00000E+00
 -1      2358 9.84000E+01 4.35050E+01 0.00000E+00
 -1      2359 9.61500E+01 4.22060E+01 0.00000E+00
 -1      2360 9.99000E+01 4.35050E+01 0.00000E+00
 -1      2361 1.01400E+02 4.35050E+01 0.00000E+00
 -1      2362 9.91500E+01 4.22060E+01 0.00000E+00
 -1      2363 1.02900E+02 4.35050E+01 0.00000E+00
 -1      2364 1.04400E+02 4.35050E+01 0.00000E+00
 -1      2365 1.02150E+02 4.22060E+01 0.00000E+00
 -1      2366 1.05900E+02 4.35050E+01 0.00000E+00
 -1      2367 1.07400E+02 4.35050E+01 0.00000E+00
 -1      2368 1.05150E+02 4.22060E+01 0.00000E+00
 -1      2369 1.08900E+02 4.35050E+01 0.00000E+00
 -1      2370 1.10400E+02 4.35050E+01 0.00000E+00
 -1      2371 1.08150E+02 4.22060E+01 0.00000E+00
 -1      2372 1.11900E+02 4.35050E+01 0.00000E+00
 -1      2373 1.13400E+02 4.35050E+01 0.00000E+00
 -1      2374 1.11150E+02 4.22060E+01 0.00000E+00
 -1      2375 1.14900E+02 4.35050E+01 0.00000E+00
 -1      2376 1.16400E+02 4.35050E+01 0.00000E+00
 -1      2377 1.14150E+02 4.22060E+01 0.00000E+00
 -1      2378 1.17900E+02 4.35050E+01 0.00000E+00
 -1      2379 1.19400E+02 4.35050E+01 0.00000E+00
 -1      2380 1.17150E+02 4.22060E+01 0.00000E+00
 -1      2381 1.20900E+02 4.35050E+01 0.00000E+00
 -1      2382 1.22400E+02 4.35050E+01 0.00000E+00
 -1      2383 1.20150E+02 4.22060E+01 0.00000E+00
 -1      2384 1.23900E+02 4.35050E+01 0.00000E+00
 -1      2385 1.25400E+02 4.35050E+01 0.00000E+00
 -1      2386 1.23150E+02 4.22060E+01 0.00000E+00
 -1      2387 1.26900E+02 4.35050E+01 0.00000E+00
 -1      2388 1.28400E+02 4.35050E+01 0.00000E+00
 -1      2389 1.26150E+02 4.22060E+01 0.00000E+00
 -1      2390 1.29900E+02 4.35050E+01 0.00000E+00
 -1      2391 1.31400E+02 4.35050E+01 0.00000E+00
 -1      2392 1.29150E+02 4.22060E+01 0.00000E+00
 -1      2393 1.32900E+02 4.35050E+01 0.00000E+00
 -1      2394 1.34400E+02 4.35050E+01 0.00000E+00
 -1      2395 1.32150E+02 4.22060E+01 0.00000E+00
 -1      2396 1.35900E+02 4.35050E+01 0.00000E+00
 -1      2397 1.37400E+02 4.35050E+01 0.00000E+00
 -1      2398 1.35150E+02 4.22060E+01 0.00000E+00
 -1      2399 1.38900E+02 4.35050E+01 0.00000E+00
 -1      2400 1.40400E+02 4.35050E+01 0.00000E+00
 -1      2401 1.38150E+02 4.22060E+01 0.00000E+00
 -1      2402 9.19051E+01 1.94895E+01 0.00000E+00
 -1      2403 9.22716E+01 2.03518E+01 0.00000E+00
 -1      2404 1.97850E+01 5.30525E+00 0.00000E+00
 -1      2405 1.82850E+01 5.30525E+00 0.00000E+00
 -1      2406 2.27850E+01 5.30525E+00 0.00000E+00
 -1      2407 2.12850E+01 5.30525E+00 0.00000E+00
 -1      2408 2.05350E+01 6.60425E+00 0.00000E+00
 -1      2409 2.57850E+01 5.30525E+00 0.00000E+00
 -1      2410 2.42850E+01 5.30525E+00 0.00000E+00
 -1      2411 2.35350E+01 6.60425E+00 0.00000E+00
 -1      2412 2.87850E+01 5.30525E+00 0.00000E+00
 -1      2413 2.72850E+01 5.30525E+00 0.00000E+00
 -1      2414 2.65350E+01 6.60425E+00 0.00000E+00
 -1      2415 3.17850E+01 5.30525E+00 0.00000E+00
 -1      2416 3.02850E+01 5.30525E+00 0.00000E+00
 -1      2417 2.95350E+01 6.60425E+00 0.00000E+00
 -1      2418 3.47850E+01 5.30525E+00 0.00000E+00
 -1      2419 3.32850E+01 5.30525E+00 0.00000E+00
 -1      2420 3.25350E+01 6.60425E+00 0.00000E+00
 -1      2421 3.77850E+01 5.30525E+00 0.00000E+00
 -1      2422 3.62850E+01 5.30525E+00 0.00000E+00
 -1      2423 3.55350E+01 6.60425E+00 0.00000E+00
 -1      2424 4.07850E+01 5.30525E+00 0.00000E+00
 -1      2425 3.92850E+01 5.30525E+00 0.00000E+00
 -1      2426 3.85350E+01 6.60425E+00 0.00000E+00
 -1      2427 4.37850E+01 5.30525E+00 0.00000E+00
 -1      2428 4.22850E+01 5.30525E+00 0.00000E+00
 -1      2429 4.15350E+01 6.60425E+00 0.00000E+00
 -1      2430 4.67850E+01 5.30525E+00 0.00000E+00
 -1      2431 4.52850E+01 5.30525E+00 0.00000E+00
 -1      2432 4.45350E+01 6.60425E+00 0.00000E+00
 -1      2433 4.97850E+01 5.30525E+00 0.00000E+00
 -1      2434 4.82850E+01 5.30525E+00 0.00000E+00
 -1      2435 4.75350E+01 6.60425E+00 0.00000E+00
 -1      2436 5.27850E+01 5.30525E+00 0.00000E+00
 -1      2437 5.12850E+01 5.30525E+00 0.00000E+00
 -1      2438 5.05350E+01 6.60425E+00 0.00000E+00
 -1      2439 5.57850E+01 5.30525E+00 0.00000E+00
 -1      2440 5.42850E+01 5.30525E+00 0.00000E+00
 -1      2441 5.35350E+01 6.60425E+00 0.00000E+00
 -1      2442 5.87850E+01 5.30525E+00 0.00000E+00
 -1      2443 5.72850E+01 5.30525E+00 0.00000E+00
 -1      2444 5.65350E+01 6.60425E+00 0.00000E+00
 -1      2445 6.17850E+01 5.30525E+00 0.00000E+00
 -1      2446 6.02850E+01 5.30525E+00 0.00000E+00
 -1      2447 5.95350E+01 6.60425E+00 0.00000E+00
 -1      2448 6.47850E+01 5.30525E+00 0.00000E+00
 -1      2449 6.32850E+01 5.30525E+00 0.00000E+00
 -1      2450 6.25350E+01 6.60425E+00 0.00000E+00
 -1      2451 6.77850E+01 5.30525E+00 0.00000E+00
 -1      2452 6.62850E+01 5.30525E+00 0.00000E+00
 -1      2453 6.55350E+01 6.60425E+00 0.00000E+00
 -1      2454 7.07850E+01 5.30525E+00 0.00000E+00
 -1      2455 6.92850E+01 5.30525E+00 0.00000E+00
 -1      2456 6.85350E+01 6.60425E+00 0.00000E+00
 -1      2457 7.37850E+01 5.30525E+00 0.00000E+00
 -1      2458 7.22850E+01 5.30525E+00 0.00000E+00
 -1      2459 7.15350E+01 6.60425E+00 0.00000E+00
 -1      2460 7.67850E+01 5.30525E+00 0.00000E+00
 -1      2461 7.52850E+01 5.30525E+00 0.00000E+00
 -1      2462 7.45350E+01 6.60425E+00 0.00000E+00
 -1      2463 7.97850E+01 5.30525E+00 0.00000E+00
 -1      2464 7.82850E+01 5.30525E+00 0.00000E+00
 -1      2465 7.75350E+01 6.60425E+00 0.00000E+00
 -1      2466 8.27850E+01 5.30525E+00 0.00000E+00
 -1      2467 8.12850E+01 5.30525E+00 0.00000E+00
 -1      2468 8.05350E+01 6.60425E+00 0.00000E+00
 -1      2469 8.57850E+01 5.30525E+00 0.00000E+00
 -1      2470 8.42850E+01 5.30525E+00 0.00000E+00
 -1      2471 8.35350E+01 6.60425E+00 0.00000E+00
 -1      2472 8.87850E+01 5.30525E+00 0.00000E+00
 -1      2473 8.72850E+01 5.30525E+00 0.00000E+00
 -1      2474 8.65350E+01 6.60425E+00 0.00000E+00
 -1      2475 9.17850E+01 5.30525E+00 0.00000E+00
 -1      2476 9.02850E+01 5.30525E+00 0.00000E+00
 -1      2477 8.95350E+01 6.60425E+00 0.00000E+00
 -1      2478 9.47850E+01 5.30525E+00 0.00000E+00
 -1      2479 9.32850E+01 5.30525E+00 0.00000E+00
 -1      2480 9.25350E+01 6.60425E+00 0.00000E+00
 -1      2481 9.77850E+01 5.30525E+00 0.00000E+00
 -1      2482 9.62850E+01 5.30525E+00 0.00000E+00
 -1      2483 9.55350E+01 6.60425E+00 0.00000E+00
 -1      2484 1.00785E+02 5.30525E+00 0.00000E+00
 -1      2485 9.92850E+01 5.30525E+00 0.00000E+00
 -1      2486 9.85350E+01 6.60425E+00 0.00000E+00
 -1      2487 1.03785E+02 5.30525E+00 0.00000E+00
 -1      2488 1.02285E+02 5.30525E+00 0.00000E+00
 -1      2489 1.01535E+02 6.60425E+00 0.00000E+00
 -1      2490 1.06785E+02 5.30525E+00 0.00000E+00
 -1      2491 1.05285E+02 5.30525E+00 0.00000E+00
 -1      2492 1.04535E+02 6.60425E+00 0.00000E+00
 -1      2493 1.09785E+02 5.30525E+00 0.00000E+00
 -1      2494 1.08285E+02 5.30525E+00 0.00000E+00
 -1      2495 1.07535E+02 6.60425E+00 0.00000E+00
 -1      2496 1.12785E+02 5.30525E+00 0.00000E+00
 -1      2497 1.11285E+02 5.30525E+00 0.00000E+00
 -1      2498 1.10535E+02 6.60425E+00 0.00000E+00
 -1      2499 1.15785E+02 5.30525E+00 0.00000E+00
 -1      2500 1.14285E+02 5.30525E+00 0.00000E+00
 -1      2501 1.13535E+02 6.60425E+00 0.00000E+00
 -1      2502 1.18785E+02 5.30525E+00 0.00000E+00
 -1      2503 1.17285E+02 5.30525E+00 0.00000E+00
 -1      2504 1.16535E+02 6.60425E+00 0.00000E+00
 -1      2505 1.21785E+02 5.30525E+00 0.00000E+00
 -1      2506 1.20285E+02 5.30525E+00 0.00000E+00
 -1      2507 1.19535E+02 6.60425E+00 0.00000E+00
 -1      2508 1.24785E+02 5.30525E+00 0.00000E+00
 -1      2509 1.23285E+02 5.30525E+00 0.00000E+00
 -1      2510 1.22535E+02 6.60425E+00 0.00000E+00
 -1      2511 1.27785E+02 5.30525E+00 0.00000E+00
 -1      2512 1.26285E+02 5.30525E+00 0.00000E+00
 -1      2513 1.25535E+02 6.60425E+00 0.00000E+00
 -1      2514 1.30785E+02 5.30525E+00 0.00000E+00
 -1      2515 1.29285E+02 5.30525E+00 0.00000E+00
 -1      2516 1.28535E+02 6.60425E+00 0.00000E+00
 -1      2517 1.33785E+02 5.30525E+00 0.00000E+00
 -1      2518 1.32285E+02 5.30525E+00 0.00000E+00
 -1      2519 1.31535E+02 6.60425E+00 0.00000E+00
 -1      2520 1.36785E+02 5.30525E+00 0.00000E+00
 -1      2521 1.35285E+02 5.30525E+00 0.00000E+00
 -1      2522 1.34535E+02 6.60425E+00 0.00000E+00
 -1      2523 1.39785E+02 5.30525E+00 0.00000E+00
 -1      2524 1.38285E+02 5.30525E+00 0.00000E+00
 -1      2525 1.37535E+02 6.60425E+00 0.00000E+00
 -1      2526 1.42785E+02 5.30525E+00 0.00000E+00
 -1      2527 1.41285E+02 5.30525E+00 0.00000E+00
 -1      2528 1.40535E+02 6.60425E+00 0.00000E+00
 -1      2529 1.44336E+02 5.26953E+00 0.00000E+00
 -1      2530 1.43505E+02 1.69125E+01 0.00000E+00
 -1      2531 1.43505E+02 1.54375E+01 0.00000E+00
 -1      2532 1.43505E+02 1.98625E+01 0.00000E+00
 -1      2533 1.43505E+02 1.83875E+01 0.00000E+00
 -1      2534 1.42206E+02 1.76500E+01 0.00000E+00
 -1      2535 1.43505E+02 1.10625E+01 0.00000E+00
 -1      2536 1.43505E+02 9.58750E+00 0.00000E+00
 -1      2537 1.43505E+02 1.39750E+01 0.00000E+00
 -1      2538 1.43505E+02 1.25250E+01 0.00000E+00
 -1      2539 1.42206E+02 1.17875E+01 0.00000E+00
 -1      2540 1.42206E+02 1.47125E+01 0.00000E+00
 -1      2541 1.43505E+02 2.28125E+01 0.00000E+00
 -1      2542 1.43505E+02 2.13375E+01 0.00000E+00
 -1      2543 1.42206E+02 2.06000E+01 0.00000E+00
 -1      2544 1.43505E+02 2.57625E+01 0.00000E+00
 -1      2545 1.43505E+02 2.42875E+01 0.00000E+00
 -1      2546 1.42206E+02 2.35500E+01 0.00000E+00
 -1      2547 1.43505E+02 2.87125E+01 0.00000E+00
 -1      2548 1.43505E+02 2.72375E+01 0.00000E+00
 -1      2549 1.42206E+02 2.65000E+01 0.00000E+00
 -1      2550 1.43505E+02 3.16125E+01 0.00000E+00
 -1      2551 1.43505E+02 3.01625E+01 0.00000E+00
 -1      2552 1.42206E+02 2.94250E+01 0.00000E+00
 -1      2553 1.43505E+02 3.45625E+01 0.00000E+00
 -1      2554 1.43505E+02 3.30875E+01 0.00000E+00
 -1      2555 1.42206E+02 3.23500E+01 0.00000E+00
 -1      2556 1.43505E+02 3.75125E+01 0.00000E+00
 -1      2557 1.43505E+02 3.60375E+01 0.00000E+00
 -1      2558 1.42206E+02 3.53000E+01 0.00000E+00
 -1      2559 1.43505E+02 4.04625E+01 0.00000E+00
 -1      2560 1.43505E+02 3.89875E+01 0.00000E+00
 -1      2561 1.42206E+02 3.82500E+01 0.00000E+00
 -1      2562 1.44321E+02 4.30606E+01 0.00000E+00
 -1      2563 8.97301E+01 1.57960E+01 0.00000E+00
 -1      2564 9.03340E+01 1.65772E+01 0.00000E+00
 -1      2565 1.67850E+01 5.30525E+00 0.00000E+00
 -1      2566 1.52850E+01 5.30525E+00 0.00000E+00
 -1      2567 1.75350E+01 6.60425E+00 0.00000E+00
 -1      2568 9.08933E+01 1.74859E+01 0.00000E+00
 -1      2569 9.14526E+01 1.83945E+01 0.00000E+00
 -1      2570 9.13361E+01 1.65195E+01 0.00000E+00
 -1      2571 9.22110E+01 2.59494E+01 0.00000E+00
 -1      2572 9.18884E+01 2.69684E+01 0.00000E+00
 -1      2573 9.26362E+01 2.40867E+01 0.00000E+00
 -1      2574 9.25047E+01 2.49218E+01 0.00000E+00
 -1      2575 8.51341E+01 3.34683E+01 0.00000E+00
 -1      2576 8.40963E+01 3.37321E+01 0.00000E+00
 -1      2577 7.43841E+01 3.02885E+01 0.00000E+00
 -1      2578 7.36857E+01 2.94189E+01 0.00000E+00
 -1      2579 7.22336E+01 2.20207E+01 0.00000E+00
 -1      2580 7.22817E+01 2.09448E+01 0.00000E+00
 -1      2581 6.49500E+00 2.71625E+01 0.00000E+00
 -1      2582 6.49500E+00 2.86375E+01 0.00000E+00
 -1      2583 7.79400E+00 2.93750E+01 0.00000E+00
 -1      2584 7.79400E+00 2.64250E+01 0.00000E+00
 -1      2585 8.12656E+01 1.29603E+01 0.00000E+00
 -1      2586 8.22255E+01 1.29630E+01 0.00000E+00
 -1      2587 7.60473E+01 3.19300E+01 0.00000E+00
 -1      2588 7.52218E+01 3.12179E+01 0.00000E+00
 -1      2589 7.87410E+01 1.35467E+01 0.00000E+00
 -1      2590 7.99118E+01 1.31319E+01 0.00000E+00
 -1      2591 7.67706E+01 1.47734E+01 0.00000E+00
 -1      2592 7.75345E+01 1.41810E+01 0.00000E+00
 -1      2593 7.51870E+01 1.60196E+01 0.00000E+00
 -1      2594 7.59788E+01 1.53965E+01 0.00000E+00
 -1      2595 7.58352E+01 1.44227E+01 0.00000E+00
 -1      2596 7.37380E+01 1.79060E+01 0.00000E+00
 -1      2597 7.43479E+01 1.69952E+01 0.00000E+00
 -1      2598 7.26640E+01 1.95304E+01 0.00000E+00
 -1      2599 7.32010E+01 1.87182E+01 0.00000E+00
 -1      2600 7.28282E+01 1.78090E+01 0.00000E+00
 -1      2601 7.21294E+01 2.38618E+01 0.00000E+00
 -1      2602 7.21815E+01 2.29412E+01 0.00000E+00
 -1      2603 7.14744E+01 2.23706E+01 0.00000E+00
 -1      2604 7.30106E+01 2.85098E+01 0.00000E+00
 -1      2605 7.25844E+01 2.77466E+01 0.00000E+00
 -1      2606 8.28554E+01 3.41116E+01 0.00000E+00
 -1      2607 8.16384E+01 3.42282E+01 0.00000E+00
 -1      2608 7.77498E+01 3.31978E+01 0.00000E+00
 -1      2609 7.69379E+01 3.27580E+01 0.00000E+00
 -1      2610 9.04584E+01 2.97483E+01 0.00000E+00
 -1      2611 8.99285E+01 3.05375E+01 0.00000E+00
 -1      2612 8.00379E+01 3.39476E+01 0.00000E+00
 -1      2613 7.88939E+01 3.35727E+01 0.00000E+00
 -1      2614 7.79996E+01 3.42542E+01 0.00000E+00
 -1      2615 8.69974E+01 3.27313E+01 0.00000E+00
 -1      2616 8.62001E+01 3.30996E+01 0.00000E+00
 -1      2617 8.90186E+01 3.15851E+01 0.00000E+00
 -1      2618 8.80436E+01 3.22307E+01 0.00000E+00
 -1      2619 9.14416E+01 2.81062E+01 0.00000E+00
 -1      2620 9.09500E+01 2.89273E+01 0.00000E+00
 -1      2621 9.13622E+01 2.97765E+01 0.00000E+00
 -1      2622 8.61797E+01 1.35927E+01 0.00000E+00
 -1      2623 8.69440E+01 1.40023E+01 0.00000E+00
 -1      2624 8.78491E+01 1.35401E+01 0.00000E+00
 -1      2625 8.07525E+00 5.11044E+00 0.00000E+00
 -1      2626 6.57525E+00 5.11044E+00 0.00000E+00
 -1      2627 6.40575E+00 6.01981E+00 0.00000E+00
 -1      2628 8.82525E+00 6.40944E+00 0.00000E+00
 -1      2629 8.29861E+01 1.24705E+01 0.00000E+00
 -1      2630 7.79400E+00 3.52687E+01 0.00000E+00
 -1      2631 6.49500E+00 3.60062E+01 0.00000E+00
 -1      2632 6.49500E+00 3.74750E+01 0.00000E+00
 -1      2633 1.45350E+01 6.60425E+00 0.00000E+00
 -1      2634 6.40575E+00 7.49481E+00 0.00000E+00
 -1      2635 9.23006E+01 2.78176E+01 0.00000E+00
 -1      2636 8.99607E+01 3.16452E+01 0.00000E+00
 -1      2637 9.28350E+01 2.09140E+01 0.00000E+00
 -1      2638 9.33985E+01 2.14762E+01 0.00000E+00
 -1      2639 9.33640E+01 2.01802E+01 0.00000E+00
 -1      2640 9.23479E+01 1.85231E+01 0.00000E+00
 -1      2641 1.43586E+02 6.56853E+00 0.00000E+00
 -1      2642 9.31022E+01 2.34173E+01 0.00000E+00
 -1      2643 9.38008E+01 2.39552E+01 0.00000E+00
 -1      2644 9.35682E+01 2.27479E+01 0.00000E+00
 -1      2645 1.43419E+02 7.72713E+00 0.00000E+00
 -1      2646 8.07442E+01 3.49097E+01 0.00000E+00
 -1      2647 1.42758E+02 4.35929E+01 0.00000E+00
 -1      2648 1.43241E+02 4.17323E+01 0.00000E+00
 -1      2649 1.41942E+02 4.09948E+01 0.00000E+00
 -1      2650 1.41414E+02 4.35342E+01 0.00000E+00
 -1      2651 8.58924E+01 3.40626E+01 0.00000E+00
 -1      2652 8.96951E+01 1.47803E+01 0.00000E+00
 -1      2653 7.70475E+00 8.23231E+00 0.00000E+00
 -1      2654 1.42120E+02 8.46463E+00 0.00000E+00
 -1      2655 9.30411E+01 2.56522E+01 0.00000E+00
 -1      2656 8.35856E+01 3.48109E+01 0.00000E+00
 -1      2657 7.19088E+01 2.00356E+01 0.00000E+00
 -1      2658 7.15360E+01 1.91264E+01 0.00000E+00
 -1      2659 7.11536E+01 2.05408E+01 0.00000E+00
 -1      2660 7.42043E+01 1.60213E+01 0.00000E+00
 -1      2661 7.27238E+01 2.94554E+01 0.00000E+00
 -1      2662 7.78335E+01 1.31653E+01 0.00000E+00
 -1      2663 7.19573E+01 2.72913E+01 0.00000E+00
 -1      2664 7.13302E+01 2.68360E+01 0.00000E+00
 -1      2665 7.14216E+01 2.80910E+01 0.00000E+00
 -1      2666 7.42367E+01 3.12939E+01 0.00000E+00
 -1      2667 7.59650E+01 3.30513E+01 0.00000E+00
 -1      2668 6.52725E+00 3.87101E+01 0.00000E+00
 -1      2669 6.52725E+00 4.01789E+01 0.00000E+00
 -1      2670 7.89075E+00 4.04429E+01 0.00000E+00
 -1      2671 7.82625E+00 3.79726E+01 0.00000E+00
 -1      2672 8.03938E+01 1.23594E+01 0.00000E+00
 -1      2673 8.51296E+01 1.22908E+01 0.00000E+00
 -1      2674 8.56547E+01 1.29418E+01 0.00000E+00
 -1      2675 8.65598E+01 1.24795E+01 0.00000E+00
 -1      2676 7.16440E+01 2.46637E+01 0.00000E+00
 -1      2677 7.09369E+01 2.40931E+01 0.00000E+00
 -1      2678 7.11587E+01 2.54657E+01 0.00000E+00
 -1      2679 8.80046E+01 3.31934E+01 0.00000E+00
 -1      2680 1.40664E+02 4.22352E+01 0.00000E+00
 -1      2681 9.09300E+00 1.98250E+01 0.00000E+00
 -1      2682 9.09300E+00 2.12750E+01 0.00000E+00
 -1      2683 9.09300E+00 2.27500E+01 0.00000E+00
 -1      2684 9.09300E+00 2.42250E+01 0.00000E+00
 -1      2685 1.03920E+01 2.20250E+01 0.00000E+00
 -1      2686 9.09300E+00 1.39375E+01 0.00000E+00
 -1      2687 9.09300E+00 1.54125E+01 0.00000E+00
 -1      2688 9.09300E+00 1.09875E+01 0.00000E+00
 -1      2689 9.09300E+00 1.24625E+01 0.00000E+00
 -1      2690 1.03920E+01 1.32000E+01 0.00000E+00
 -1      2691 1.22850E+01 7.90325E+00 0.00000E+00
 -1      2692 1.07850E+01 7.90325E+00 0.00000E+00
 -1      2693 1.40706E+02 1.03250E+01 0.00000E+00
 -1      2694 1.40620E+02 8.46463E+00 0.00000E+00
 -1      2695 1.39120E+02 8.46463E+00 0.00000E+00
 -1      2696 1.52850E+01 7.90325E+00 0.00000E+00
 -1      2697 1.37850E+01 7.90325E+00 0.00000E+00
 -1      2698 1.30350E+01 9.20225E+00 0.00000E+00
 -1      2699 9.34002E+01 2.75928E+01 0.00000E+00
 -1      2700 9.29534E+01 2.87306E+01 0.00000E+00
 -1      2701 9.25425E+00 4.07069E+01 0.00000E+00
 -1      2702 1.06178E+01 4.09709E+01 0.00000E+00
 -1      2703 9.22200E+00 3.94717E+01 0.00000E+00
 -1      2704 1.21178E+01 4.09709E+01 0.00000E+00
 -1      2705 1.36178E+01 4.09709E+01 0.00000E+00
 -1      2706 1.20855E+01 3.97357E+01 0.00000E+00
 -1      2707 9.10631E+01 3.16837E+01 0.00000E+00
 -1      2708 9.01532E+01 3.27314E+01 0.00000E+00
 -1      2709 1.51178E+01 4.09709E+01 0.00000E+00
 -1      2710 1.66178E+01 4.09709E+01 0.00000E+00
 -1      2711 1.50855E+01 3.97357E+01 0.00000E+00
 -1      2712 1.81178E+01 4.09709E+01 0.00000E+00
 -1      2713 1.96178E+01 4.09709E+01 0.00000E+00
 -1      2714 1.80855E+01 3.97357E+01 0.00000E+00
 -1      2715 2.11178E+01 4.09709E+01 0.00000E+00
 -1      2716 2.26178E+01 4.09709E+01 0.00000E+00
 -1      2717 2.10855E+01 3.97357E+01 0.00000E+00
 -1      2718 2.41178E+01 4.09709E+01 0.00000E+00
 -1      2719 2.56178E+01 4.09709E+01 0.00000E+00
 -1      2720 2.40855E+01 3.97357E+01 0.00000E+00
 -1      2721 2.71178E+01 4.09709E+01 0.00000E+00
 -1      2722 2.86178E+01 4.09709E+01 0.00000E+00
 -1      2723 2.70855E+01 3.97357E+01 0.00000E+00
 -1      2724 3.01178E+01 4.09709E+01 0.00000E+00
 -1      2725 3.16178E+01 4.09709E+01 0.00000E+00
 -1      2726 3.00855E+01 3.97357E+01 0.00000E+00
 -1      2727 3.31177E+01 4.09709E+01 0.00000E+00
 -1      2728 3.46177E+01 4.09709E+01 0.00000E+00
 -1      2729 3.30855E+01 3.97357E+01 0.00000E+00
 -1      2730 3.61177E+01 4.09709E+01 0.00000E+00
 -1      2731 3.76177E+01 4.09709E+01 0.00000E+00
 -1      2732 3.60855E+01 3.97357E+01 0.00000E+00
 -1      2733 3.91177E+01 4.09709E+01 0.00000E+00
 -1      2734 4.06177E+01 4.09709E+01 0.00000E+00
 -1      2735 3.90855E+01 3.97357E+01 0.00000E+00
 -1      2736 4.21177E+01 4.09709E+01 0.00000E+00
 -1      2737 4.36177E+01 4.09709E+01 0.00000E+00
 -1      2738 4.20855E+01 3.97357E+01 0.00000E+00
 -1      2739 4.51177E+01 4.09709E+01 0.00000E+00
 -1      2740 4.66177E+01 4.09709E+01 0.00000E+00
 -1      2741 4.50855E+01 3.97357E+01 0.00000E+00
 -1      2742 4.81177E+01 4.09709E+01 0.00000E+00
 -1      2743 4.96177E+01 4.09709E+01 0.00000E+00
 -1      2744 4.80855E+01 3.97357E+01 0.00000E+00
 -1      2745 5.11177E+01 4.09709E+01 0.00000E+00
 -1      2746 5.26177E+01 4.09709E+01 0.00000E+00
 -1      2747 5.10855E+01 3.97357E+01 0.00000E+00
 -1      2748 5.41177E+01 4.09709E+01 0.00000E+00
 -1      2749 5.56177E+01 4.09709E+01 0.00000E+00
 -1      2750 5.40855E+01 3.97357E+01 0.00000E+00
 -1      2751 5.71177E+01 4.09709E+01 0.00000E+00
 -1      2752 5.86177E+01 4.09709E+01 0.00000E+00
 -1      2753 5.70855E+01 3.97357E+01 0.00000E+00
 -1      2754 6.01177E+01 4.09709E+01 0.00000E+00
 -1      2755 6.16177E+01 4.09709E+01 0.00000E+00
 -1      2756 6.00855E+01 3.97357E+01 0.00000E+00
 -1      2757 6.31177E+01 4.09709E+01 0.00000E+00
 -1      2758 6.46178E+01 4.09709E+01 0.00000E+00
 -1      2759 6.30855E+01 3.97357E+01 0.00000E+00
 -1      2760 6.61178E+01 4.09709E+01 0.00000E+00
 -1      2761 6.76178E+01 4.09709E+01 0.00000E+00
 -1      2762 6.60855E+01 3.97357E+01 0.00000E+00
 -1      2763 6.91178E+01 4.09709E+01 0.00000E+00
 -1      2764 7.06178E+01 4.09709E+01 0.00000E+00
 -1      2765 6.90855E+01 3.97357E+01 0.00000E+00
 -1      2766 7.21178E+01 4.09709E+01 0.00000E+00
 -1      2767 7.36178E+01 4.09709E+01 0.00000E+00
 -1      2768 7.20855E+01 3.97357E+01 0.00000E+00
 -1      2769 7.51178E+01 4.09709E+01 0.00000E+00
 -1      2770 7.66178E+01 4.09709E+01 0.00000E+00
 -1      2771 7.50855E+01 3.97357E+01 0.00000E+00
 -1      2772 7.81178E+01 4.09709E+01 0.00000E+00
 -1      2773 7.96178E+01 4.09709E+01 0.00000E+00
 -1      2774 7.80855E+01 3.97357E+01 0.00000E+00
 -1      2775 8.11178E+01 4.09709E+01 0.00000E+00
 -1      2776 8.26178E+01 4.09709E+01 0.00000E+00
 -1      2777 8.10855E+01 3.97357E+01 0.00000E+00
 -1      2778 8.41178E+01 4.09709E+01 0.00000E+00
 -1      2779 8.56178E+01 4.09709E+01 0.00000E+00
 -1      2780 8.40855E+01 3.97357E+01 0.00000E+00
 -1      2781 8.71178E+01 4.09709E+01 0.00000E+00
 -1      2782 8.86178E+01 4.09709E+01 0.00000E+00
 -1      2783 8.70855E+01 3.97357E+01 0.00000E+00
 -1      2784 9.01178E+01 4.09709E+01 0.00000E+00
 -1      2785 9.16178E+01 4.09709E+01 0.00000E+00
 -1      2786 9.00855E+01 3.97357E+01 0.00000E+00
 -1      2787 9.31178E+01 4.09709E+01 0.00000E+00
 -1      2788 9.46178E+01 4.09709E+01 0.00000E+00
 -1      2789 9.30855E+01 3.97357E+01 0.00000E+00
 -1      2790 9.61178E+01 4.09709E+01 0.00000E+00
 -1      2791 9.76178E+01 4.09709E+01 0.00000E+00
 -1      2792 9.60855E+01 3.97357E+01 0.00000E+00
 -1      2793 9.91178E+01 4.09709E+01 0.00000E+00
 -1      2794 1.00618E+02 4.09709E+01 0.00000E+00
 -1      2795 9.90855E+01 3.97357E+01 0.00000E+00
 -1      2796 1.02118E+02 4.09709E+01 0.00000E+00
 -1      2797 1.03618E+02 4.09709E+01 0.00000E+00
 -1      2798 1.02086E+02 3.97357E+01 0.00000E+00
 -1      2799 1.05118E+02 4.09709E+01 0.00000E+00
 -1      2800 1.06618E+02 4.09709E+01 0.00000E+00
 -1      2801 1.05086E+02 3.97357E+01 0.00000E+00
 -1      2802 1.08118E+02 4.09709E+01 0.00000E+00
 -1      2803 1.09618E+02 4.09709E+01 0.00000E+00
 -1      2804 1.08086E+02 3.97357E+01 0.00000E+00
 -1      2805 1.11118E+02 4.09709E+01 0.00000E+00
 -1      2806 1.12618E+02 4.09709E+01 0.00000E+00
 -1      2807 1.11086E+02 3.97357E+01 0.00000E+00
 -1      2808 1.14118E+02 4.09709E+01 0.00000E+00
 -1      2809 1.15618E+02 4.09709E+01 0.00000E+00
 -1      2810 1.14086E+02 3.97357E+01 0.00000E+00
 -1      2811 1.17118E+02 4.09709E+01 0.00000E+00
 -1      2812 1.18618E+02 4.09709E+01 0.00000E+00
 -1      2813 1.17086E+02 3.97357E+01 0.00000E+00
 -1      2814 1.20118E+02 4.09709E+01 0.00000E+00
 -1      2815 1.21618E+02 4.09709E+01 0.00000E+00
 -1      2816 1.20086E+02 3.97357E+01 0.00000E+00
 -1      2817 1.23118E+02 4.09709E+01 0.00000E+00
 -1      2818 1.24618E+02 4.09709E+01 0.00000E+00
 -1      2819 1.23086E+02 3.97357E+01 0.00000E+00
 -1      2820 1.26118E+02 4.09709E+01 0.00000E+00
 -1      2821 1.27618E+02 4.09709E+01 0.00000E+00
 -1      2822 1.26086E+02 3.97357E+01 0.00000E+00
 -1      2823 1.29118E+02 4.09709E+01 0.00000E+00
 -1      2824 1.30618E+02 4.09709E+01 0.00000E+00
 -1      2825 1.29085E+02 3.97357E+01 0.00000E+00
 -1      2826 1.32118E+02 4.09709E+01 0.00000E+00
 -1      2827 1.33618E+02 4.09709E+01 0.00000E+00
 -1      2828 1.32085E+02 3.97357E+01 0.00000E+00
 -1      2829 1.35118E+02 4.09709E+01 0.00000E+00
 -1      2830 1.36618E+02 4.09709E+01 0.00000E+00
 -1      2831 1.35085E+02 3.97357E+01 0.00000E+00
 -1      2832 1.38118E+02 4.09709E+01 0.00000E+00
 -1      2833 8.67331E+01 3.47679E+01 0.00000E+00
 -1      2834 8.56671E+01 3.51366E+01 0.00000E+00
 -1      2835 8.13674E+01 3.60598E+01 0.00000E+00
 -1      2836 7.97669E+01 3.57791E+01 0.00000E+00
 -1      2837 2.12850E+01 7.90325E+00 0.00000E+00
 -1      2838 1.97850E+01 7.90325E+00 0.00000E+00
 -1      2839 3.02850E+01 7.90325E+00 0.00000E+00
 -1      2840 2.87850E+01 7.90325E+00 0.00000E+00
 -1      2841 3.32850E+01 7.90325E+00 0.00000E+00
 -1      2842 3.17850E+01 7.90325E+00 0.00000E+00
 -1      2843 3.10350E+01 9.20225E+00 0.00000E+00
 -1      2844 3.62850E+01 7.90325E+00 0.00000E+00
 -1      2845 3.47850E+01 7.90325E+00 0.00000E+00
 -1      2846 3.40350E+01 9.20225E+00 0.00000E+00
 -1      2847 3.92850E+01 7.90325E+00 0.00000E+00
 -1      2848 3.77850E+01 7.90325E+00 0.00000E+00
 -1      2849 3.70350E+01 9.20225E+00 0.00000E+00
 -1      2850 4.22850E+01 7.90325E+00 0.00000E+00
 -1      2851 4.07850E+01 7.90325E+00 0.00000E+00
 -1      2852 4.00350E+01 9.20225E+00 0.00000E+00
 -1      2853 4.52850E+01 7.90325E+00 0.00000E+00
 -1      2854 4.37850E+01 7.90325E+00 0.00000E+00
 -1      2855 4.30350E+01 9.20225E+00 0.00000E+00
 -1      2856 4.82850E+01 7.90325E+00 0.00000E+00
 -1      2857 4.67850E+01 7.90325E+00 0.00000E+00
 -1      2858 4.60350E+01 9.20225E+00 0.00000E+00
 -1      2859 5.12850E+01 7.90325E+00 0.00000E+00
 -1      2860 4.97850E+01 7.90325E+00 0.00000E+00
 -1      2861 4.90350E+01 9.20225E+00 0.00000E+00
 -1      2862 5.42850E+01 7.90325E+00 0.00000E+00
 -1      2863 5.27850E+01 7.90325E+00 0.00000E+00
 -1      2864 5.20350E+01 9.20225E+00 0.00000E+00
 -1      2865 5.72850E+01 7.90325E+00 0.00000E+00
 -1      2866 5.57850E+01 7.90325E+00 0.00000E+00
 -1      2867 5.50350E+01 9.20225E+00 0.00000E+00
 -1      2868 6.02850E+01 7.90325E+00 0.00000E+00
 -1      2869 5.87850E+01 7.90325E+00 0.00000E+00
 -1      2870 5.80350E+01 9.20225E+00 0.00000E+00
 -1      2871 6.32850E+01 7.90325E+00 0.00000E+00
 -1      2872 6.17850E+01 7.90325E+00 0.00000E+00
 -1      2873 6.10350E+01 9.20225E+00 0.00000E+00
 -1      2874 6.62850E+01 7.90325E+00 0.00000E+00
 -1      2875 6.47850E+01 7.90325E+00 0.00000E+00
 -1      2876 6.40350E+01 9.20225E+00 0.00000E+00
 -1      2877 6.92850E+01 7.90325E+00 0.00000E+00
 -1      2878 6.77850E+01 7.90325E+00 0.00000E+00
 -1      2879 6.70350E+01 9.20225E+00 0.00000E+00
 -1      2880 7.22850E+01 7.90325E+00 0.00000E+00
 -1      2881 7.07850E+01 7.90325E+00 0.00000E+00
 -1      2882 7.00350E+01 9.20225E+00 0.00000E+00
 -1      2883 7.52850E+01 7.90325E+00 0.00000E+00
 -1      2884 7.37850E+01 7.90325E+00 0.00000E+00
 -1      2885 7.30350E+01 9.20225E+00 0.00000E+00
 -1      2886 7.82850E+01 7.90325E+00 0.00000E+00
 -1      2887 7.67850E+01 7.90325E+00 0.00000E+00
 -1      2888 7.60350E+01 9.20225E+00 0.00000E+00
 -1      2889 8.12850E+01 7.90325E+00 0.00000E+00
 -1      2890 7.97850E+01 7.90325E+00 0.00000E+00
 -1      2891 7.90350E+01 9.20225E+00 0.00000E+00
 -1      2892 8.42850E+01 7.90325E+00 0.00000E+00
 -1      2893 8.27850E+01 7.90325E+00 0.00000E+00
 -1      2894 8.20350E+01 9.20225E+00 0.00000E+00
 -1      2895 8.72850E+01 7.90325E+00 0.00000E+00
 -1      2896 8.57850E+01 7.90325E+00 0.00000E+00
 -1      2897 8.50350E+01 9.20225E+00 0.00000E+00
 -1      2898 9.02850E+01 7.90325E+00 0.00000E+00
 -1      2899 8.87850E+01 7.90325E+00 0.00000E+00
 -1      2900 8.80350E+01 9.20225E+00 0.00000E+00
 -1      2901 9.32850E+01 7.90325E+00 0.00000E+00
 -1      2902 9.17850E+01 7.90325E+00 0.00000E+00
 -1      2903 9.10350E+01 9.20225E+00 0.00000E+00
 -1      2904 9.62850E+01 7.90325E+00 0.00000E+00
 -1      2905 9.47850E+01 7.90325E+00 0.00000E+00
 -1      2906 9.40350E+01 9.20225E+00 0.00000E+00
 -1      2907 9.92850E+01 7.90325E+00 0.00000E+00
 -1      2908 9.77850E+01 7.90325E+00 0.00000E+00
 -1      2909 9.70350E+01 9.20225E+00 0.00000E+00
 -1      2910 1.02285E+02 7.90325E+00 0.00000E+00
 -1      2911 1.00785E+02 7.90325E+00 0.00000E+00
 -1      2912 1.00035E+02 9.20225E+00 0.00000E+00
 -1      2913 1.05285E+02 7.90325E+00 0.00000E+00
 -1      2914 1.03785E+02 7.90325E+00 0.00000E+00
 -1      2915 1.03035E+02 9.20225E+00 0.00000E+00
 -1      2916 1.08285E+02 7.90325E+00 0.00000E+00
 -1      2917 1.06785E+02 7.90325E+00 0.00000E+00
 -1      2918 1.06035E+02 9.20225E+00 0.00000E+00
 -1      2919 1.11285E+02 7.90325E+00 0.00000E+00
 -1      2920 1.09785E+02 7.90325E+00 0.00000E+00
 -1      2921 1.09035E+02 9.20225E+00 0.00000E+00
 -1      2922 1.14285E+02 7.90325E+00 0.00000E+00
 -1      2923 1.12785E+02 7.90325E+00 0.00000E+00
 -1      2924 1.12035E+02 9.20225E+00 0.00000E+00
 -1      2925 1.17285E+02 7.90325E+00 0.00000E+00
 -1      2926 1.15785E+02 7.90325E+00 0.00000E+00
 -1      2927 1.15035E+02 9.20225E+00 0.00000E+00
 -1      2928 1.20285E+02 7.90325E+00 0.00000E+00
 -1      2929 1.18785E+02 7.90325E+00 0.00000E+00
 -1      2930 1.18035E+02 9.20225E+00 0.00000E+00
 -1      2931 1.23285E+02 7.90325E+00 0.00000E+00
 -1      2932 1.21785E+02 7.90325E+00 0.00000E+00
 -1      2933 1.21035E+02 9.20225E+00 0.00000E+00
 -1      2934 1.26285E+02 7.90325E+00 0.00000E+00
 -1      2935 1.24785E+02 7.90325E+00 0.00000E+00
 -1      2936 1.24035E+02 9.20225E+00 0.00000E+00
 -1      2937 1.29285E+02 7.90325E+00 0.00000E+00
 -1      2938 1.27785E+02 7.90325E+00 0.00000E+00
 -1      2939 1.27035E+02 9.20225E+00 0.00000E+00
 -1      2940 1.32285E+02 7.90325E+00 0.00000E+00
 -1      2941 1.30785E+02 7.90325E+00 0.00000E+00
 -1      2942 1.30035E+02 9.20225E+00 0.00000E+00
 -1      2943 1.35285E+02 7.90325E+00 0.00000E+00
 -1      2944 1.33785E+02 7.90325E+00 0.00000E+00
 -1      2945 1.33035E+02 9.20225E+00 0.00000E+00
 -1      2946 1.37953E+02 8.18394E+00 0.00000E+00
 -1      2947 1.36453E+02 8.18394E+00 0.00000E+00
 -1      2948 1.35703E+02 9.48294E+00 0.00000E+00
 -1      2949 1.38038E+02 1.00443E+01 0.00000E+00
 -1      2950 1.40907E+02 2.42875E+01 0.00000E+00
 -1      2951 1.40907E+02 2.28125E+01 0.00000E+00
 -1      2952 9.41736E+01 2.54201E+01 0.00000E+00
 -1      2953 9.38799E+01 2.64477E+01 0.00000E+00
 -1      2954 1.40907E+02 1.83875E+01 0.00000E+00
 -1      2955 1.40907E+02 1.69125E+01 0.00000E+00
 -1      2956 1.40907E+02 2.72375E+01 0.00000E+00
 -1      2957 1.40907E+02 2.57625E+01 0.00000E+00
 -1      2958 1.39608E+02 2.50250E+01 0.00000E+00
 -1      2959 1.40907E+02 2.13375E+01 0.00000E+00
 -1      2960 1.40907E+02 1.98625E+01 0.00000E+00
 -1      2961 1.39608E+02 1.91250E+01 0.00000E+00
 -1      2962 1.39608E+02 2.20750E+01 0.00000E+00
 -1      2963 1.40907E+02 3.01375E+01 0.00000E+00
 -1      2964 1.40907E+02 2.86875E+01 0.00000E+00
 -1      2965 1.39608E+02 2.79500E+01 0.00000E+00
 -1      2966 1.40907E+02 3.30875E+01 0.00000E+00
 -1      2967 1.40907E+02 3.16125E+01 0.00000E+00
 -1      2968 1.39608E+02 3.08750E+01 0.00000E+00
 -1      2969 1.40907E+02 3.60375E+01 0.00000E+00
 -1      2970 1.40907E+02 3.45625E+01 0.00000E+00
 -1      2971 1.39608E+02 3.38250E+01 0.00000E+00
 -1      2972 1.40907E+02 3.89875E+01 0.00000E+00
 -1      2973 1.40907E+02 3.75125E+01 0.00000E+00
 -1      2974 1.39608E+02 3.67750E+01 0.00000E+00
 -1      2975 1.82850E+01 7.90325E+00 0.00000E+00
 -1      2976 1.67850E+01 7.90325E+00 0.00000E+00
 -1      2977 1.60350E+01 9.20225E+00 0.00000E+00
 -1      2978 1.90350E+01 9.20225E+00 0.00000E+00
 -1      2979 8.79116E+01 1.25056E+01 0.00000E+00
 -1      2980 8.86759E+01 1.29152E+01 0.00000E+00
 -1      2981 9.17868E+01 1.56157E+01 0.00000E+00
 -1      2982 9.23460E+01 1.65244E+01 0.00000E+00
 -1      2983 8.45058E+01 3.56014E+01 0.00000E+00
 -1      2984 8.32650E+01 3.59809E+01 0.00000E+00
 -1      2985 7.23729E+01 3.04212E+01 0.00000E+00
 -1      2986 7.16978E+01 2.95121E+01 0.00000E+00
 -1      2987 7.30076E+01 1.58405E+01 0.00000E+00
 -1      2988 7.38467E+01 1.48650E+01 0.00000E+00
 -1      2989 7.39563E+01 3.23889E+01 0.00000E+00
 -1      2990 7.31186E+01 3.14594E+01 0.00000E+00
 -1      2991 8.97276E+01 1.36183E+01 0.00000E+00
 -1      2992 9.08093E+01 1.44490E+01 0.00000E+00
 -1      2993 2.72850E+01 7.90325E+00 0.00000E+00
 -1      2994 2.57850E+01 7.90325E+00 0.00000E+00
 -1      2995 2.80350E+01 9.20225E+00 0.00000E+00
 -1      2996 2.42850E+01 7.90325E+00 0.00000E+00
 -1      2997 2.27850E+01 7.90325E+00 0.00000E+00
 -1      2998 2.50350E+01 9.20225E+00 0.00000E+00
 -1      2999 7.97875E+01 1.08666E+01 0.00000E+00
 -1      3000 8.11413E+01 1.06951E+01 0.00000E+00
 -1      3001 8.91450E+00 8.42712E+00 0.00000E+00
 -1      3002 9.09300E+00 1.68813E+01 0.00000E+00
 -1      3003 9.09300E+00 1.83563E+01 0.00000E+00
 -1      3004 1.03920E+01 1.90812E+01 0.00000E+00
 -1      3005 1.03920E+01 1.61437E+01 0.00000E+00
 -1      3006 7.57693E+01 3.41547E+01 0.00000E+00
 -1      3007 7.48788E+01 3.33267E+01 0.00000E+00
 -1      3008 7.47017E+01 1.37969E+01 0.00000E+00
 -1      3009 7.54935E+01 1.31738E+01 0.00000E+00
 -1      3010 7.06758E+01 2.27872E+01 0.00000E+00
 -1      3011 7.07279E+01 2.18666E+01 0.00000E+00
 -1      3012 7.18443E+01 1.77421E+01 0.00000E+00
 -1      3013 7.23813E+01 1.69299E+01 0.00000E+00
 -1      3014 7.67922E+01 1.26492E+01 0.00000E+00
 -1      3015 7.79987E+01 1.20149E+01 0.00000E+00
 -1      3016 8.89701E+01 3.38678E+01 0.00000E+00
 -1      3017 8.79239E+01 3.43684E+01 0.00000E+00
 -1      3018 1.40654E+02 4.12463E+01 0.00000E+00
 -1      3019 1.40917E+02 3.99765E+01 0.00000E+00
 -1      3020 1.39618E+02 3.92390E+01 0.00000E+00
 -1      3021 1.39639E+02 4.12170E+01 0.00000E+00
 -1      3022 9.09300E+00 3.15875E+01 0.00000E+00
 -1      3023 9.09300E+00 3.30625E+01 0.00000E+00
 -1      3024 7.82525E+01 3.54157E+01 0.00000E+00
 -1      3025 7.71084E+01 3.50409E+01 0.00000E+00
 -1      3026 9.30690E+01 1.75841E+01 0.00000E+00
 -1      3027 9.35216E+01 1.86790E+01 0.00000E+00
 -1      3028 8.25484E+01 1.15340E+01 0.00000E+00
 -1      3029 8.37868E+01 1.18166E+01 0.00000E+00
 -1      3030 9.23438E+01 2.98065E+01 0.00000E+00
 -1      3031 9.18522E+01 3.06276E+01 0.00000E+00
 -1      3032 9.09300E+00 3.45313E+01 0.00000E+00
 -1      3033 9.09300E+00 3.60000E+01 0.00000E+00
 -1      3034 1.03920E+01 3.37938E+01 0.00000E+00
 -1      3035 1.03920E+01 2.49750E+01 0.00000E+00
 -1      3036 9.09300E+00 2.57000E+01 0.00000E+00
 -1      3037 9.09300E+00 2.71750E+01 0.00000E+00
 -1      3038 9.34434E+01 2.95817E+01 0.00000E+00
 -1      3039 8.73866E+01 1.18546E+01 0.00000E+00
 -1      3040 9.35197E+01 1.66802E+01 0.00000E+00
 -1      3041 9.40851E+01 1.92411E+01 0.00000E+00
 -1      3042 9.46485E+01 1.98033E+01 0.00000E+00
 -1      3043 9.48062E+01 1.83021E+01 0.00000E+00
 -1      3044 9.45327E+01 2.73607E+01 0.00000E+00
 -1      3045 9.11749E+01 3.39449E+01 0.00000E+00
 -1      3046 9.00725E+01 3.39064E+01 0.00000E+00
 -1      3047 8.99918E+01 3.50814E+01 0.00000E+00
 -1      3048 9.20447E+01 3.17137E+01 0.00000E+00
 -1      3049 7.37607E+01 3.34923E+01 0.00000E+00
 -1      3050 8.53465E+01 3.63067E+01 0.00000E+00
 -1      3051 8.22876E+01 3.68503E+01 0.00000E+00
 -1      3052 8.76986E+01 3.54424E+01 0.00000E+00
 -1      3053 7.88756E+01 3.65658E+01 0.00000E+00
 -1      3054 8.97901E+01 1.25838E+01 0.00000E+00
 -1      3055 2.20350E+01 9.20225E+00 0.00000E+00
 -1      3056 9.46396E+01 2.47507E+01 0.00000E+00
 -1      3057 9.54784E+01 2.55462E+01 0.00000E+00
 -1      3058 9.51056E+01 2.40813E+01 0.00000E+00
 -1      3059 9.40971E+01 2.20141E+01 0.00000E+00
 -1      3060 9.47957E+01 2.25520E+01 0.00000E+00
 -1      3061 9.46260E+01 2.12803E+01 0.00000E+00
 -1      3062 1.39608E+02 1.61875E+01 0.00000E+00
 -1      3063 1.40907E+02 1.54500E+01 0.00000E+00
 -1      3064 1.40907E+02 1.39875E+01 0.00000E+00
 -1      3065 1.40706E+02 1.17875E+01 0.00000E+00
 -1      3066 7.56587E+01 1.20235E+01 0.00000E+00
 -1      3067 7.10891E+01 1.82473E+01 0.00000E+00
 -1      3068 7.06423E+01 1.73683E+01 0.00000E+00
 -1      3069 7.03339E+01 1.87526E+01 0.00000E+00
 -1      3070 7.60222E+01 3.53163E+01 0.00000E+00
 -1      3071 7.01905E+01 2.35891E+01 0.00000E+00
 -1      3072 6.94440E+01 2.30851E+01 0.00000E+00
 -1      3073 6.97051E+01 2.43911E+01 0.00000E+00
 -1      3074 9.18192E+01 1.44538E+01 0.00000E+00
 -1      3075 7.20237E+01 1.57737E+01 0.00000E+00
 -1      3076 7.20926E+01 3.15162E+01 0.00000E+00
 -1      3077 7.03551E+01 2.09574E+01 0.00000E+00
 -1      3078 6.99822E+01 2.00482E+01 0.00000E+00
 -1      3079 6.95565E+01 2.13739E+01 0.00000E+00
 -1      3080 7.07197E+01 3.00226E+01 0.00000E+00
 -1      3081 7.10707E+01 2.90568E+01 0.00000E+00
 -1      3082 7.04436E+01 2.86015E+01 0.00000E+00
 -1      3083 7.35050E+01 1.36162E+01 0.00000E+00
 -1      3084 9.09300E+00 2.86437E+01 0.00000E+00
 -1      3085 9.09300E+00 3.01187E+01 0.00000E+00
 -1      3086 1.03920E+01 3.08563E+01 0.00000E+00
 -1      3087 1.03920E+01 2.79188E+01 0.00000E+00
 -1      3088 9.66450E+00 9.72612E+00 0.00000E+00
 -1      3089 8.46919E+01 1.13543E+01 0.00000E+00
 -1      3090 7.06231E+01 2.62654E+01 0.00000E+00
 -1      3091 6.99159E+01 2.56948E+01 0.00000E+00
 -1      3092 7.00874E+01 2.70651E+01 0.00000E+00
 -1      3093 7.87462E+01 1.03505E+01 0.00000E+00
 -1      3094 1.09635E+01 1.04636E+01 0.00000E+00
 -1      3095 1.16910E+01 1.24625E+01 0.00000E+00
 -1      3096 1.16910E+01 1.39375E+01 0.00000E+00
 -1      3097 1.38309E+02 2.86750E+01 0.00000E+00
 -1      3098 1.38309E+02 2.72250E+01 0.00000E+00
 -1      3099 8.62849E+01 1.05154E+01 0.00000E+00
 -1      3100 8.76367E+01 1.05415E+01 0.00000E+00
 -1      3101 8.19420E+01 1.00411E+01 0.00000E+00
 -1      3102 1.13355E+01 3.84367E+01 0.00000E+00
 -1      3103 1.28355E+01 3.84367E+01 0.00000E+00
 -1      3104 1.38107E+02 3.99819E+01 0.00000E+00
 -1      3105 1.73355E+01 3.84367E+01 0.00000E+00
 -1      3106 1.88355E+01 3.84367E+01 0.00000E+00
 -1      3107 2.03355E+01 3.84367E+01 0.00000E+00
 -1      3108 2.18355E+01 3.84367E+01 0.00000E+00
 -1      3109 1.95855E+01 3.71377E+01 0.00000E+00
 -1      3110 2.33355E+01 3.84367E+01 0.00000E+00
 -1      3111 2.48355E+01 3.84367E+01 0.00000E+00
 -1      3112 2.25855E+01 3.71377E+01 0.00000E+00
 -1      3113 2.63355E+01 3.84367E+01 0.00000E+00
 -1      3114 2.78355E+01 3.84367E+01 0.00000E+00
 -1      3115 2.55855E+01 3.71377E+01 0.00000E+00
 -1      3116 2.93355E+01 3.84367E+01 0.00000E+00
 -1      3117 3.08355E+01 3.84367E+01 0.00000E+00
 -1      3118 2.85855E+01 3.71377E+01 0.00000E+00
 -1      3119 3.23355E+01 3.84367E+01 0.00000E+00
 -1      3120 3.38355E+01 3.84367E+01 0.00000E+00
 -1      3121 3.15855E+01 3.71377E+01 0.00000E+00
 -1      3122 3.53355E+01 3.84367E+01 0.00000E+00
 -1      3123 3.68355E+01 3.84367E+01 0.00000E+00
 -1      3124 3.45855E+01 3.71377E+01 0.00000E+00
 -1      3125 3.83355E+01 3.84367E+01 0.00000E+00
 -1      3126 3.98355E+01 3.84367E+01 0.00000E+00
 -1      3127 3.75855E+01 3.71377E+01 0.00000E+00
 -1      3128 4.13355E+01 3.84367E+01 0.00000E+00
 -1      3129 4.28355E+01 3.84367E+01 0.00000E+00
 -1      3130 4.05855E+01 3.71377E+01 0.00000E+00
 -1      3131 4.43355E+01 3.84367E+01 0.00000E+00
 -1      3132 4.58355E+01 3.84367E+01 0.00000E+00
 -1      3133 4.35855E+01 3.71377E+01 0.00000E+00
 -1      3134 4.73355E+01 3.84367E+01 0.00000E+00
 -1      3135 4.88355E+01 3.84367E+01 0.00000E+00
 -1      3136 4.65855E+01 3.71377E+01 0.00000E+00
 -1      3137 5.03355E+01 3.84367E+01 0.00000E+00
 -1      3138 5.18355E+01 3.84367E+01 0.00000E+00
 -1      3139 4.95855E+01 3.71377E+01 0.00000E+00
 -1      3140 5.33355E+01 3.84367E+01 0.00000E+00
 -1      3141 5.48355E+01 3.84367E+01 0.00000E+00
 -1      3142 5.25855E+01 3.71377E+01 0.00000E+00
 -1      3143 5.63355E+01 3.84367E+01 0.00000E+00
 -1      3144 5.78355E+01 3.84367E+01 0.00000E+00
 -1      3145 5.55855E+01 3.71377E+01 0.00000E+00
 -1      3146 5.93355E+01 3.84367E+01 0.00000E+00
 -1      3147 6.08355E+01 3.84367E+01 0.00000E+00
 -1      3148 5.85855E+01 3.71377E+01 0.00000E+00
 -1      3149 6.23355E+01 3.84367E+01 0.00000E+00
 -1      3150 6.38355E+01 3.84367E+01 0.00000E+00
 -1      3151 6.15855E+01 3.71377E+01 0.00000E+00
 -1      3152 6.53355E+01 3.84367E+01 0.00000E+00
 -1      3153 6.68355E+01 3.84367E+01 0.00000E+00
 -1      3154 6.45855E+01 3.71377E+01 0.00000E+00
 -1      3155 6.83355E+01 3.84367E+01 0.00000E+00
 -1      3156 6.98355E+01 3.84367E+01 0.00000E+00
 -1      3157 6.75855E+01 3.71377E+01 0.00000E+00
 -1      3158 7.13355E+01 3.84367E+01 0.00000E+00
 -1      3159 7.28355E+01 3.84367E+01 0.00000E+00
 -1      3160 7.05855E+01 3.71377E+01 0.00000E+00
 -1      3161 7.69734E+01 3.79691E+01 0.00000E+00
 -1      3162 7.84734E+01 3.79691E+01 0.00000E+00
 -1      3163 7.99878E+01 3.83324E+01 0.00000E+00
 -1      3164 8.14878E+01 3.83324E+01 0.00000E+00
 -1      3165 8.33854E+01 3.82536E+01 0.00000E+00
 -1      3166 8.48854E+01 3.82536E+01 0.00000E+00
 -1      3167 8.93355E+01 3.84367E+01 0.00000E+00
 -1      3168 9.08355E+01 3.84367E+01 0.00000E+00
 -1      3169 9.23355E+01 3.84367E+01 0.00000E+00
 -1      3170 9.38355E+01 3.84367E+01 0.00000E+00
 -1      3171 9.15855E+01 3.71377E+01 0.00000E+00
 -1      3172 9.53355E+01 3.84367E+01 0.00000E+00
 -1      3173 9.68355E+01 3.84367E+01 0.00000E+00
 -1      3174 9.45855E+01 3.71377E+01 0.00000E+00
 -1      3175 9.83355E+01 3.84367E+01 0.00000E+00
 -1      3176 9.98355E+01 3.84367E+01 0.00000E+00
 -1      3177 9.75855E+01 3.71377E+01 0.00000E+00
 -1      3178 1.01336E+02 3.84367E+01 0.00000E+00
 -1      3179 1.02836E+02 3.84367E+01 0.00000E+00
 -1      3180 1.00586E+02 3.71377E+01 0.00000E+00
 -1      3181 1.04336E+02 3.84367E+01 0.00000E+00
 -1      3182 1.05836E+02 3.84367E+01 0.00000E+00
 -1      3183 1.03586E+02 3.71377E+01 0.00000E+00
 -1      3184 1.07336E+02 3.84367E+01 0.00000E+00
 -1      3185 1.08836E+02 3.84367E+01 0.00000E+00
 -1      3186 1.06586E+02 3.71377E+01 0.00000E+00
 -1      3187 1.10336E+02 3.84367E+01 0.00000E+00
 -1      3188 1.11836E+02 3.84367E+01 0.00000E+00
 -1      3189 1.09586E+02 3.71377E+01 0.00000E+00
 -1      3190 1.13336E+02 3.84367E+01 0.00000E+00
 -1      3191 1.14836E+02 3.84367E+01 0.00000E+00
 -1      3192 1.12586E+02 3.71377E+01 0.00000E+00
 -1      3193 1.16336E+02 3.84367E+01 0.00000E+00
 -1      3194 1.17836E+02 3.84367E+01 0.00000E+00
 -1      3195 1.15586E+02 3.71377E+01 0.00000E+00
 -1      3196 1.19336E+02 3.84367E+01 0.00000E+00
 -1      3197 1.20836E+02 3.84367E+01 0.00000E+00
 -1      3198 1.18586E+02 3.71377E+01 0.00000E+00
 -1      3199 1.22336E+02 3.84367E+01 0.00000E+00
 -1      3200 1.23836E+02 3.84367E+01 0.00000E+00
 -1      3201 1.21586E+02 3.71377E+01 0.00000E+00
 -1      3202 1.25336E+02 3.84367E+01 0.00000E+00
 -1      3203 1.26836E+02 3.84367E+01 0.00000E+00
 -1      3204 1.24586E+02 3.71377E+01 0.00000E+00
 -1      3205 1.28335E+02 3.84367E+01 0.00000E+00
 -1      3206 1.29835E+02 3.84367E+01 0.00000E+00
 -1      3207 1.27586E+02 3.71377E+01 0.00000E+00
 -1      3208 1.31335E+02 3.84367E+01 0.00000E+00
 -1      3209 1.32835E+02 3.84367E+01 0.00000E+00
 -1      3210 1.30585E+02 3.71377E+01 0.00000E+00
 -1      3211 1.34335E+02 3.84367E+01 0.00000E+00
 -1      3212 1.35835E+02 3.84367E+01 0.00000E+00
 -1      3213 1.33585E+02 3.71377E+01 0.00000E+00
 -1      3214 9.33276E+01 3.18494E+01 0.00000E+00
 -1      3215 9.25385E+01 3.29055E+01 0.00000E+00
 -1      3216 3.17850E+01 1.05013E+01 0.00000E+00
 -1      3217 3.02850E+01 1.05013E+01 0.00000E+00
 -1      3218 4.07850E+01 1.05013E+01 0.00000E+00
 -1      3219 3.92850E+01 1.05013E+01 0.00000E+00
 -1      3220 4.37850E+01 1.05013E+01 0.00000E+00
 -1      3221 4.22850E+01 1.05013E+01 0.00000E+00
 -1      3222 4.15350E+01 1.18003E+01 0.00000E+00
 -1      3223 4.67850E+01 1.05013E+01 0.00000E+00
 -1      3224 4.52850E+01 1.05013E+01 0.00000E+00
 -1      3225 4.45350E+01 1.18003E+01 0.00000E+00
 -1      3226 4.97850E+01 1.05013E+01 0.00000E+00
 -1      3227 4.82850E+01 1.05013E+01 0.00000E+00
 -1      3228 4.75350E+01 1.18003E+01 0.00000E+00
 -1      3229 5.27850E+01 1.05013E+01 0.00000E+00
 -1      3230 5.12850E+01 1.05013E+01 0.00000E+00
 -1      3231 5.05350E+01 1.18003E+01 0.00000E+00
 -1      3232 5.57850E+01 1.05013E+01 0.00000E+00
 -1      3233 5.42850E+01 1.05013E+01 0.00000E+00
 -1      3234 5.35350E+01 1.18003E+01 0.00000E+00
 -1      3235 5.87850E+01 1.05013E+01 0.00000E+00
 -1      3236 5.72850E+01 1.05013E+01 0.00000E+00
 -1      3237 5.65350E+01 1.18003E+01 0.00000E+00
 -1      3238 6.17850E+01 1.05013E+01 0.00000E+00
 -1      3239 6.02850E+01 1.05013E+01 0.00000E+00
 -1      3240 5.95350E+01 1.18003E+01 0.00000E+00
 -1      3241 6.47850E+01 1.05013E+01 0.00000E+00
 -1      3242 6.32850E+01 1.05013E+01 0.00000E+00
 -1      3243 6.25350E+01 1.18003E+01 0.00000E+00
 -1      3244 6.77850E+01 1.05013E+01 0.00000E+00
 -1      3245 6.62850E+01 1.05013E+01 0.00000E+00
 -1      3246 6.55350E+01 1.18003E+01 0.00000E+00
 -1      3247 7.07850E+01 1.05013E+01 0.00000E+00
 -1      3248 6.92850E+01 1.05013E+01 0.00000E+00
 -1      3249 6.85350E+01 1.18003E+01 0.00000E+00
 -1      3250 8.34420E+01 1.00411E+01 0.00000E+00
 -1      3251 8.91367E+01 1.05415E+01 0.00000E+00
 -1      3252 9.47850E+01 1.05013E+01 0.00000E+00
 -1      3253 9.32850E+01 1.05013E+01 0.00000E+00
 -1      3254 9.77850E+01 1.05013E+01 0.00000E+00
 -1      3255 9.62850E+01 1.05013E+01 0.00000E+00
 -1      3256 9.55350E+01 1.18003E+01 0.00000E+00
 -1      3257 1.00785E+02 1.05013E+01 0.00000E+00
 -1      3258 9.92850E+01 1.05013E+01 0.00000E+00
 -1      3259 9.85350E+01 1.18003E+01 0.00000E+00
 -1      3260 1.03785E+02 1.05013E+01 0.00000E+00
 -1      3261 1.02285E+02 1.05013E+01 0.00000E+00
 -1      3262 1.01535E+02 1.18003E+01 0.00000E+00
 -1      3263 1.06785E+02 1.05013E+01 0.00000E+00
 -1      3264 1.05285E+02 1.05013E+01 0.00000E+00
 -1      3265 1.04535E+02 1.18003E+01 0.00000E+00
 -1      3266 1.09785E+02 1.05013E+01 0.00000E+00
 -1      3267 1.08285E+02 1.05013E+01 0.00000E+00
 -1      3268 1.07535E+02 1.18003E+01 0.00000E+00
 -1      3269 1.12785E+02 1.05013E+01 0.00000E+00
 -1      3270 1.11285E+02 1.05013E+01 0.00000E+00
 -1      3271 1.10535E+02 1.18003E+01 0.00000E+00
 -1      3272 1.15785E+02 1.05013E+01 0.00000E+00
 -1      3273 1.14285E+02 1.05013E+01 0.00000E+00
 -1      3274 1.13535E+02 1.18003E+01 0.00000E+00
 -1      3275 1.18785E+02 1.05013E+01 0.00000E+00
 -1      3276 1.17285E+02 1.05013E+01 0.00000E+00
 -1      3277 1.16535E+02 1.18003E+01 0.00000E+00
 -1      3278 1.21785E+02 1.05013E+01 0.00000E+00
 -1      3279 1.20285E+02 1.05013E+01 0.00000E+00
 -1      3280 1.19535E+02 1.18003E+01 0.00000E+00
 -1      3281 1.24785E+02 1.05013E+01 0.00000E+00
 -1      3282 1.23285E+02 1.05013E+01 0.00000E+00
 -1      3283 1.22535E+02 1.18003E+01 0.00000E+00
 -1      3284 1.27785E+02 1.05013E+01 0.00000E+00
 -1      3285 1.26285E+02 1.05013E+01 0.00000E+00
 -1      3286 1.25535E+02 1.18003E+01 0.00000E+00
 -1      3287 1.30785E+02 1.05013E+01 0.00000E+00
 -1      3288 1.29285E+02 1.05013E+01 0.00000E+00
 -1      3289 1.28535E+02 1.18003E+01 0.00000E+00
 -1      3290 1.33785E+02 1.05013E+01 0.00000E+00
 -1      3291 1.32285E+02 1.05013E+01 0.00000E+00
 -1      3292 1.31535E+02 1.18003E+01 0.00000E+00
 -1      3293 1.38309E+02 2.57500E+01 0.00000E+00
 -1      3294 1.38309E+02 2.42750E+01 0.00000E+00
 -1      3295 1.37010E+02 2.64750E+01 0.00000E+00
 -1      3296 1.38309E+02 3.75125E+01 0.00000E+00
 -1      3297 1.38309E+02 3.60375E+01 0.00000E+00
 -1      3298 2.87850E+01 1.05013E+01 0.00000E+00
 -1      3299 2.72850E+01 1.05013E+01 0.00000E+00
 -1      3300 2.95350E+01 1.18003E+01 0.00000E+00
 -1      3301 2.27850E+01 1.05013E+01 0.00000E+00
 -1      3302 2.12850E+01 1.05013E+01 0.00000E+00
 -1      3303 8.60467E+01 3.77888E+01 0.00000E+00
 -1      3304 1.38309E+02 3.16250E+01 0.00000E+00
 -1      3305 1.38309E+02 3.01500E+01 0.00000E+00
 -1      3306 1.37010E+02 2.94250E+01 0.00000E+00
 -1      3307 1.38309E+02 3.45687E+01 0.00000E+00
 -1      3308 1.38309E+02 3.30938E+01 0.00000E+00
 -1      3309 1.37010E+02 3.23688E+01 0.00000E+00
 -1      3310 1.37010E+02 3.53063E+01 0.00000E+00
 -1      3311 3.77850E+01 1.05013E+01 0.00000E+00
 -1      3312 3.62850E+01 1.05013E+01 0.00000E+00
 -1      3313 3.85350E+01 1.18003E+01 0.00000E+00
 -1      3314 3.47850E+01 1.05013E+01 0.00000E+00
 -1      3315 3.32850E+01 1.05013E+01 0.00000E+00
 -1      3316 3.25350E+01 1.18003E+01 0.00000E+00
 -1      3317 3.55350E+01 1.18003E+01 0.00000E+00
 -1      3318 7.22118E+01 1.34572E+01 0.00000E+00
 -1      3319 7.30668E+01 1.23891E+01 0.00000E+00
 -1      3320 9.45672E+01 2.95078E+01 0.00000E+00
 -1      3321 9.39576E+01 3.05837E+01 0.00000E+00
 -1      3322 7.07492E+01 1.57657E+01 0.00000E+00
 -1      3323 7.13755E+01 1.46763E+01 0.00000E+00
 -1      3324 1.43355E+01 3.84367E+01 0.00000E+00
 -1      3325 1.58355E+01 3.84367E+01 0.00000E+00
 -1      3326 1.35855E+01 3.71377E+01 0.00000E+00
 -1      3327 1.39407E+02 1.25250E+01 0.00000E+00
 -1      3328 2.57850E+01 1.05013E+01 0.00000E+00
 -1      3329 2.42850E+01 1.05013E+01 0.00000E+00
 -1      3330 2.65350E+01 1.18003E+01 0.00000E+00
 -1      3331 1.26488E+01 1.02017E+01 0.00000E+00
 -1      3332 1.20772E+01 1.14631E+01 0.00000E+00
 -1      3333 1.33763E+01 1.22006E+01 0.00000E+00
 -1      3334 1.41488E+01 1.02017E+01 0.00000E+00
 -1      3335 7.16328E+01 3.26333E+01 0.00000E+00
 -1      3336 7.08871E+01 3.15951E+01 0.00000E+00
 -1      3337 1.38097E+02 3.89929E+01 0.00000E+00
 -1      3338 9.40050E+01 1.55726E+01 0.00000E+00
 -1      3339 9.47280E+01 1.66323E+01 0.00000E+00
 -1      3340 9.57954E+01 2.72166E+01 0.00000E+00
 -1      3341 9.53157E+01 2.83617E+01 0.00000E+00
 -1      3342 1.16910E+01 2.12875E+01 0.00000E+00
 -1      3343 1.16910E+01 2.27625E+01 0.00000E+00
 -1      3344 7.34910E+01 3.46800E+01 0.00000E+00
 -1      3345 7.25686E+01 3.37422E+01 0.00000E+00
 -1      3346 9.21163E+01 1.32121E+01 0.00000E+00
 -1      3347 9.30938E+01 1.43788E+01 0.00000E+00
 -1      3348 9.06117E+01 1.02234E+01 0.00000E+00
 -1      3349 9.02134E+01 1.15627E+01 0.00000E+00
 -1      3350 9.12650E+01 1.22658E+01 0.00000E+00
 -1      3351 9.21117E+01 1.02234E+01 0.00000E+00
 -1      3352 7.53599E+01 3.84093E+01 0.00000E+00
 -1      3353 7.57478E+01 3.66427E+01 0.00000E+00
 -1      3354 7.44087E+01 3.57565E+01 0.00000E+00
 -1      3355 7.38599E+01 3.84093E+01 0.00000E+00
 -1      3356 8.75467E+01 3.77888E+01 0.00000E+00
 -1      3357 1.16910E+01 2.42375E+01 0.00000E+00
 -1      3358 1.16910E+01 2.57125E+01 0.00000E+00
 -1      3359 1.29900E+01 2.35000E+01 0.00000E+00
 -1      3360 1.16910E+01 3.30594E+01 0.00000E+00
 -1      3361 1.16910E+01 3.45281E+01 0.00000E+00
 -1      3362 9.28617E+01 1.15224E+01 0.00000E+00
 -1      3363 9.52915E+01 1.71945E+01 0.00000E+00
 -1      3364 9.58550E+01 1.77567E+01 0.00000E+00
 -1      3365 9.57768E+01 1.60869E+01 0.00000E+00
 -1      3366 9.24578E+01 3.40805E+01 0.00000E+00
 -1      3367 1.65855E+01 3.71377E+01 0.00000E+00
 -1      3368 8.82967E+01 3.64898E+01 0.00000E+00
 -1      3369 7.31543E+01 1.07162E+01 0.00000E+00
 -1      3370 7.44475E+01 1.08752E+01 0.00000E+00
 -1      3371 1.36048E+02 3.69564E+01 0.00000E+00
 -1      3372 1.36798E+02 3.82554E+01 0.00000E+00
 -1      3373 9.44514E+01 3.17755E+01 0.00000E+00
 -1      3374 2.05350E+01 1.18003E+01 0.00000E+00
 -1      3375 1.97850E+01 1.05013E+01 0.00000E+00
 -1      3376 1.82850E+01 1.05013E+01 0.00000E+00
 -1      3377 9.56345E+01 2.33475E+01 0.00000E+00
 -1      3378 9.64733E+01 2.41430E+01 0.00000E+00
 -1      3379 9.61634E+01 2.26137E+01 0.00000E+00
 -1      3380 8.49420E+01 1.00411E+01 0.00000E+00
 -1      3381 7.16543E+01 1.07162E+01 0.00000E+00
 -1      3382 7.09043E+01 1.20152E+01 0.00000E+00
 -1      3383 7.72462E+01 1.03505E+01 0.00000E+00
 -1      3384 7.57462E+01 1.03505E+01 0.00000E+00
 -1      3385 7.32166E+01 3.60064E+01 0.00000E+00
 -1      3386 1.37010E+02 2.35250E+01 0.00000E+00
 -1      3387 1.38309E+02 2.28000E+01 0.00000E+00
 -1      3388 1.38309E+02 2.13250E+01 0.00000E+00
 -1      3389 1.34953E+02 1.07819E+01 0.00000E+00
 -1      3390 1.34203E+02 1.20809E+01 0.00000E+00
 -1      3391 1.36120E+02 1.10626E+01 0.00000E+00
 -1      3392 1.38309E+02 1.98500E+01 0.00000E+00
 -1      3393 1.38309E+02 1.83750E+01 0.00000E+00
 -1      3394 1.37010E+02 2.05750E+01 0.00000E+00
 -1      3395 1.38239E+02 1.22443E+01 0.00000E+00
 -1      3396 1.37072E+02 1.19636E+01 0.00000E+00
 -1      3397 1.38440E+02 1.44443E+01 0.00000E+00
 -1      3398 9.53471E+01 2.03412E+01 0.00000E+00
 -1      3399 6.98002E+01 3.22569E+01 0.00000E+00
 -1      3400 7.02600E+01 3.11397E+01 0.00000E+00
 -1      3401 6.96328E+01 3.06844E+01 0.00000E+00
 -1      3402 1.38375E+02 1.71409E+01 0.00000E+00
 -1      3403 1.38375E+02 1.56784E+01 0.00000E+00
 -1      3404 1.37207E+02 1.53977E+01 0.00000E+00
 -1      3405 1.37076E+02 1.78659E+01 0.00000E+00
 -1      3406 1.16910E+01 3.15906E+01 0.00000E+00
 -1      3407 1.29900E+01 3.23250E+01 0.00000E+00
 -1      3408 1.16910E+01 3.01219E+01 0.00000E+00
 -1      3409 6.95354E+01 1.91691E+01 0.00000E+00
 -1      3410 6.90885E+01 1.82901E+01 0.00000E+00
 -1      3411 6.87368E+01 1.95857E+01 0.00000E+00
 -1      3412 6.91695E+01 2.51908E+01 0.00000E+00
 -1      3413 6.84230E+01 2.46868E+01 0.00000E+00
 -1      3414 6.86338E+01 2.59905E+01 0.00000E+00
 -1      3415 1.69669E+01 1.03515E+01 0.00000E+00
 -1      3416 1.54669E+01 1.03515E+01 0.00000E+00
 -1      3417 1.50806E+01 1.13509E+01 0.00000E+00
 -1      3418 1.77169E+01 1.16505E+01 0.00000E+00
 -1      3419 2.35350E+01 1.18003E+01 0.00000E+00
 -1      3420 7.09373E+01 1.34493E+01 0.00000E+00
 -1      3421 8.94875E+01 3.60903E+01 0.00000E+00
 -1      3422 6.89495E+01 2.21539E+01 0.00000E+00
 -1      3423 6.85766E+01 2.12447E+01 0.00000E+00
 -1      3424 6.99940E+01 1.62709E+01 0.00000E+00
 -1      3425 6.93458E+01 1.51736E+01 0.00000E+00
 -1      3426 6.92388E+01 1.67762E+01 0.00000E+00
 -1      3427 9.58299E+01 2.93637E+01 0.00000E+00
 -1      3428 9.05899E+01 3.61288E+01 0.00000E+00
 -1      3429 9.67273E+01 2.58778E+01 0.00000E+00
 -1      3430 9.62614E+01 2.65472E+01 0.00000E+00
 -1      3431 9.70443E+01 2.75482E+01 0.00000E+00
 -1      3432 1.16910E+01 1.98188E+01 0.00000E+00
 -1      3433 1.29900E+01 2.05562E+01 0.00000E+00
 -1      3434 1.16910E+01 1.83500E+01 0.00000E+00
 -1      3435 9.10868E+00 3.73212E+01 0.00000E+00
 -1      3436 9.14093E+00 3.85563E+01 0.00000E+00
 -1      3437 1.16910E+01 1.54094E+01 0.00000E+00
 -1      3438 1.16910E+01 1.68781E+01 0.00000E+00
 -1      3439 1.29900E+01 1.76156E+01 0.00000E+00
 -1      3440 1.29900E+01 1.46719E+01 0.00000E+00
 -1      3441 1.05044E+01 3.88203E+01 0.00000E+00
 -1      3442 6.97365E+01 2.80309E+01 0.00000E+00
 -1      3443 6.90294E+01 2.74603E+01 0.00000E+00
 -1      3444 6.93855E+01 2.89967E+01 0.00000E+00
 -1      3445 7.13631E+01 3.38210E+01 0.00000E+00
 -1      3446 9.43021E+01 1.43309E+01 0.00000E+00
 -1      3447 7.31099E+01 3.71103E+01 0.00000E+00
 -1      3448 6.84641E+01 2.29559E+01 0.00000E+00
 -1      3449 1.04077E+01 3.65837E+01 0.00000E+00
 -1      3450 9.37129E+01 1.24687E+01 0.00000E+00
 -1      3451 9.25396E+01 1.21909E+01 0.00000E+00
 -1      3452 1.35085E+02 3.56690E+01 0.00000E+00
 -1      3453 1.36048E+02 3.54876E+01 0.00000E+00
 -1      3454 1.36048E+02 3.40189E+01 0.00000E+00
 -1      3455 3.02850E+01 1.30992E+01 0.00000E+00
 -1      3456 2.87850E+01 1.30992E+01 0.00000E+00
 -1      3457 2.18355E+01 3.58387E+01 0.00000E+00
 -1      3458 2.33355E+01 3.58387E+01 0.00000E+00
 -1      3459 2.48355E+01 3.58387E+01 0.00000E+00
 -1      3460 2.63355E+01 3.58387E+01 0.00000E+00
 -1      3461 2.40855E+01 3.45397E+01 0.00000E+00
 -1      3462 2.78355E+01 3.58387E+01 0.00000E+00
 -1      3463 2.93355E+01 3.58387E+01 0.00000E+00
 -1      3464 2.70855E+01 3.45397E+01 0.00000E+00
 -1      3465 3.08355E+01 3.58387E+01 0.00000E+00
 -1      3466 3.23355E+01 3.58387E+01 0.00000E+00
 -1      3467 3.00855E+01 3.45397E+01 0.00000E+00
 -1      3468 3.38355E+01 3.58387E+01 0.00000E+00
 -1      3469 3.53355E+01 3.58387E+01 0.00000E+00
 -1      3470 3.30855E+01 3.45397E+01 0.00000E+00
 -1      3471 3.68355E+01 3.58387E+01 0.00000E+00
 -1      3472 3.83355E+01 3.58387E+01 0.00000E+00
 -1      3473 3.60855E+01 3.45397E+01 0.00000E+00
 -1      3474 3.98355E+01 3.58387E+01 0.00000E+00
 -1      3475 4.13355E+01 3.58387E+01 0.00000E+00
 -1      3476 3.90855E+01 3.45397E+01 0.00000E+00
 -1      3477 4.28355E+01 3.58387E+01 0.00000E+00
 -1      3478 4.43355E+01 3.58387E+01 0.00000E+00
 -1      3479 4.20855E+01 3.45397E+01 0.00000E+00
 -1      3480 4.58355E+01 3.58387E+01 0.00000E+00
 -1      3481 4.73355E+01 3.58387E+01 0.00000E+00
 -1      3482 4.50855E+01 3.45397E+01 0.00000E+00
 -1      3483 4.88355E+01 3.58387E+01 0.00000E+00
 -1      3484 5.03355E+01 3.58387E+01 0.00000E+00
 -1      3485 4.80855E+01 3.45397E+01 0.00000E+00
 -1      3486 5.18355E+01 3.58387E+01 0.00000E+00
 -1      3487 5.33355E+01 3.58387E+01 0.00000E+00
 -1      3488 5.10855E+01 3.45397E+01 0.00000E+00
 -1      3489 5.48355E+01 3.58387E+01 0.00000E+00
 -1      3490 5.63355E+01 3.58387E+01 0.00000E+00
 -1      3491 5.40855E+01 3.45397E+01 0.00000E+00
 -1      3492 5.78355E+01 3.58387E+01 0.00000E+00
 -1      3493 5.93355E+01 3.58387E+01 0.00000E+00
 -1      3494 5.70855E+01 3.45397E+01 0.00000E+00
 -1      3495 6.08355E+01 3.58387E+01 0.00000E+00
 -1      3496 6.23355E+01 3.58387E+01 0.00000E+00
 -1      3497 6.00855E+01 3.45397E+01 0.00000E+00
 -1      3498 6.38355E+01 3.58387E+01 0.00000E+00
 -1      3499 6.53355E+01 3.58387E+01 0.00000E+00
 -1      3500 6.30855E+01 3.45397E+01 0.00000E+00
 -1      3501 6.68355E+01 3.58387E+01 0.00000E+00
 -1      3502 6.83355E+01 3.58387E+01 0.00000E+00
 -1      3503 6.60855E+01 3.45397E+01 0.00000E+00
 -1      3504 7.21922E+01 3.60338E+01 0.00000E+00
 -1      3505 1.35711E+02 3.01625E+01 0.00000E+00
 -1      3506 1.35711E+02 2.86875E+01 0.00000E+00
 -1      3507 1.58355E+01 3.58387E+01 0.00000E+00
 -1      3508 1.73355E+01 3.58387E+01 0.00000E+00
 -1      3509 9.59091E+01 3.17115E+01 0.00000E+00
 -1      3510 9.52791E+01 3.29771E+01 0.00000E+00
 -1      3511 9.68355E+01 3.58387E+01 0.00000E+00
 -1      3512 9.83355E+01 3.58387E+01 0.00000E+00
 -1      3513 9.98355E+01 3.58387E+01 0.00000E+00
 -1      3514 1.01336E+02 3.58387E+01 0.00000E+00
 -1      3515 9.90855E+01 3.45397E+01 0.00000E+00
 -1      3516 1.02836E+02 3.58387E+01 0.00000E+00
 -1      3517 1.04336E+02 3.58387E+01 0.00000E+00
 -1      3518 1.02086E+02 3.45397E+01 0.00000E+00
 -1      3519 1.05836E+02 3.58387E+01 0.00000E+00
 -1      3520 1.07336E+02 3.58387E+01 0.00000E+00
 -1      3521 1.05086E+02 3.45397E+01 0.00000E+00
 -1      3522 1.08836E+02 3.58387E+01 0.00000E+00
 -1      3523 1.10336E+02 3.58387E+01 0.00000E+00
 -1      3524 1.08086E+02 3.45397E+01 0.00000E+00
 -1      3525 1.11836E+02 3.58387E+01 0.00000E+00
 -1      3526 1.13336E+02 3.58387E+01 0.00000E+00
 -1      3527 1.11086E+02 3.45397E+01 0.00000E+00
 -1      3528 1.14836E+02 3.58387E+01 0.00000E+00
 -1      3529 1.16336E+02 3.58387E+01 0.00000E+00
 -1      3530 1.14086E+02 3.45397E+01 0.00000E+00
 -1      3531 1.17836E+02 3.58387E+01 0.00000E+00
 -1      3532 1.19336E+02 3.58387E+01 0.00000E+00
 -1      3533 1.17086E+02 3.45397E+01 0.00000E+00
 -1      3534 1.20836E+02 3.58387E+01 0.00000E+00
 -1      3535 1.22336E+02 3.58387E+01 0.00000E+00
 -1      3536 1.20086E+02 3.45397E+01 0.00000E+00
 -1      3537 1.23836E+02 3.58387E+01 0.00000E+00
 -1      3538 1.25336E+02 3.58387E+01 0.00000E+00
 -1      3539 1.23086E+02 3.45397E+01 0.00000E+00
 -1      3540 1.26836E+02 3.58387E+01 0.00000E+00
 -1      3541 1.28335E+02 3.58387E+01 0.00000E+00
 -1      3542 1.26086E+02 3.45397E+01 0.00000E+00
 -1      3543 1.29835E+02 3.58387E+01 0.00000E+00
 -1      3544 1.31335E+02 3.58387E+01 0.00000E+00
 -1      3545 1.29085E+02 3.45397E+01 0.00000E+00
 -1      3546 1.32460E+02 3.57539E+01 0.00000E+00
 -1      3547 1.33960E+02 3.57539E+01 0.00000E+00
 -1      3548 1.33960E+02 3.42851E+01 0.00000E+00
 -1      3549 1.31710E+02 3.44549E+01 0.00000E+00
 -1      3550 4.22850E+01 1.30992E+01 0.00000E+00
 -1      3551 4.07850E+01 1.30992E+01 0.00000E+00
 -1      3552 5.12850E+01 1.30992E+01 0.00000E+00
 -1      3553 4.97850E+01 1.30992E+01 0.00000E+00
 -1      3554 5.42850E+01 1.30992E+01 0.00000E+00
 -1      3555 5.27850E+01 1.30992E+01 0.00000E+00
 -1      3556 5.20350E+01 1.43982E+01 0.00000E+00
 -1      3557 5.72850E+01 1.30992E+01 0.00000E+00
 -1      3558 5.57850E+01 1.30992E+01 0.00000E+00
 -1      3559 5.50350E+01 1.43982E+01 0.00000E+00
 -1      3560 6.02850E+01 1.30992E+01 0.00000E+00
 -1      3561 5.87850E+01 1.30992E+01 0.00000E+00
 -1      3562 5.80350E+01 1.43982E+01 0.00000E+00
 -1      3563 6.32850E+01 1.30992E+01 0.00000E+00
 -1      3564 6.17850E+01 1.30992E+01 0.00000E+00
 -1      3565 6.10350E+01 1.43982E+01 0.00000E+00
 -1      3566 6.62850E+01 1.30992E+01 0.00000E+00
 -1      3567 6.47850E+01 1.30992E+01 0.00000E+00
 -1      3568 6.40350E+01 1.43982E+01 0.00000E+00
 -1      3569 1.02285E+02 1.30992E+01 0.00000E+00
 -1      3570 1.00785E+02 1.30992E+01 0.00000E+00
 -1      3571 7.00680E+01 1.32343E+01 0.00000E+00
 -1      3572 9.92850E+01 1.30992E+01 0.00000E+00
 -1      3573 9.77850E+01 1.30992E+01 0.00000E+00
 -1      3574 1.00035E+02 1.43982E+01 0.00000E+00
 -1      3575 9.64990E+01 1.27840E+01 0.00000E+00
 -1      3576 9.49990E+01 1.27840E+01 0.00000E+00
 -1      3577 9.46769E+01 1.34524E+01 0.00000E+00
 -1      3578 9.72490E+01 1.40830E+01 0.00000E+00
 -1      3579 1.05285E+02 1.30992E+01 0.00000E+00
 -1      3580 1.03785E+02 1.30992E+01 0.00000E+00
 -1      3581 1.03035E+02 1.43982E+01 0.00000E+00
 -1      3582 1.08285E+02 1.30992E+01 0.00000E+00
 -1      3583 1.06785E+02 1.30992E+01 0.00000E+00
 -1      3584 1.06035E+02 1.43982E+01 0.00000E+00
 -1      3585 1.11285E+02 1.30992E+01 0.00000E+00
 -1      3586 1.09785E+02 1.30992E+01 0.00000E+00
 -1      3587 1.09035E+02 1.43982E+01 0.00000E+00
 -1      3588 1.14285E+02 1.30992E+01 0.00000E+00
 -1      3589 1.12785E+02 1.30992E+01 0.00000E+00
 -1      3590 1.12035E+02 1.43982E+01 0.00000E+00
 -1      3591 1.17285E+02 1.30992E+01 0.00000E+00
 -1      3592 1.15785E+02 1.30992E+01 0.00000E+00
 -1      3593 1.15035E+02 1.43982E+01 0.00000E+00
 -1      3594 1.20285E+02 1.30992E+01 0.00000E+00
 -1      3595 1.18785E+02 1.30992E+01 0.00000E+00
 -1      3596 1.18035E+02 1.43982E+01 0.00000E+00
 -1      3597 1.23285E+02 1.30992E+01 0.00000E+00
 -1      3598 1.21785E+02 1.30992E+01 0.00000E+00
 -1      3599 1.21035E+02 1.43982E+01 0.00000E+00
 -1      3600 1.26285E+02 1.30992E+01 0.00000E+00
 -1      3601 1.24785E+02 1.30992E+01 0.00000E+00
 -1      3602 1.24035E+02 1.43982E+01 0.00000E+00
 -1      3603 1.29285E+02 1.30992E+01 0.00000E+00
 -1      3604 1.27785E+02 1.30992E+01 0.00000E+00
 -1      3605 1.27035E+02 1.43982E+01 0.00000E+00
 -1      3606 1.32285E+02 1.30992E+01 0.00000E+00
 -1      3607 1.30785E+02 1.30992E+01 0.00000E+00
 -1      3608 1.30035E+02 1.43982E+01 0.00000E+00
 -1      3609 1.35711E+02 2.72125E+01 0.00000E+00
 -1      3610 1.35711E+02 2.57375E+01 0.00000E+00
 -1      3611 1.34412E+02 2.79500E+01 0.00000E+00
 -1      3612 4.82850E+01 1.30992E+01 0.00000E+00
 -1      3613 4.67850E+01 1.30992E+01 0.00000E+00
 -1      3614 4.90350E+01 1.43982E+01 0.00000E+00
 -1      3615 4.52850E+01 1.30992E+01 0.00000E+00
 -1      3616 4.37850E+01 1.30992E+01 0.00000E+00
 -1      3617 4.30350E+01 1.43982E+01 0.00000E+00
 -1      3618 4.60350E+01 1.43982E+01 0.00000E+00
 -1      3619 3.92850E+01 1.30992E+01 0.00000E+00
 -1      3620 3.77850E+01 1.30992E+01 0.00000E+00
 -1      3621 4.00350E+01 1.43982E+01 0.00000E+00
 -1      3622 9.20899E+01 3.61288E+01 0.00000E+00
 -1      3623 1.16910E+01 2.71844E+01 0.00000E+00
 -1      3624 1.16910E+01 2.86531E+01 0.00000E+00
 -1      3625 1.29900E+01 2.93875E+01 0.00000E+00
 -1      3626 2.42850E+01 1.30992E+01 0.00000E+00
 -1      3627 2.27850E+01 1.30992E+01 0.00000E+00
 -1      3628 6.75228E+01 2.11456E+01 0.00000E+00
 -1      3629 6.81298E+01 2.03657E+01 0.00000E+00
 -1      3630 6.76829E+01 1.94866E+01 0.00000E+00
 -1      3631 9.62158E+01 1.96158E+01 0.00000E+00
 -1      3632 9.61933E+01 2.10928E+01 0.00000E+00
 -1      3633 2.72850E+01 1.30992E+01 0.00000E+00
 -1      3634 2.57850E+01 1.30992E+01 0.00000E+00
 -1      3635 2.80350E+01 1.43982E+01 0.00000E+00
 -1      3636 1.88355E+01 3.58387E+01 0.00000E+00
 -1      3637 2.03355E+01 3.58387E+01 0.00000E+00
 -1      3638 1.80855E+01 3.45397E+01 0.00000E+00
 -1      3639 9.74060E+01 2.94193E+01 0.00000E+00
 -1      3640 9.66576E+01 3.05654E+01 0.00000E+00
 -1      3641 9.74853E+01 3.17670E+01 0.00000E+00
 -1      3642 7.12564E+01 3.49250E+01 0.00000E+00
 -1      3643 7.03206E+01 3.38161E+01 0.00000E+00
 -1      3644 7.11497E+01 3.60289E+01 0.00000E+00
 -1      3645 1.46944E+01 1.23503E+01 0.00000E+00
 -1      3646 1.43081E+01 1.33498E+01 0.00000E+00
 -1      3647 1.60125E+01 1.25001E+01 0.00000E+00
 -1      3648 6.79285E+01 2.37556E+01 0.00000E+00
 -1      3649 6.74340E+01 2.28244E+01 0.00000E+00
 -1      3650 6.73928E+01 2.45553E+01 0.00000E+00
 -1      3651 9.55881E+01 1.46462E+01 0.00000E+00
 -1      3652 9.34534E+01 3.50895E+01 0.00000E+00
 -1      3653 9.49534E+01 3.50895E+01 0.00000E+00
 -1      3654 6.85680E+01 1.32343E+01 0.00000E+00
 -1      3655 6.78180E+01 1.45333E+01 0.00000E+00
 -1      3656 9.71865E+01 1.74006E+01 0.00000E+00
 -1      3657 9.67012E+01 1.85082E+01 0.00000E+00
 -1      3658 9.75474E+01 1.92598E+01 0.00000E+00
 -1      3659 1.12544E+01 3.75213E+01 0.00000E+00
 -1      3660 3.17850E+01 1.30992E+01 0.00000E+00
 -1      3661 3.10350E+01 1.43982E+01 0.00000E+00
 -1      3662 3.32850E+01 1.30992E+01 0.00000E+00
 -1      3663 1.43081E+01 1.48217E+01 0.00000E+00
 -1      3664 6.88997E+01 3.47299E+01 0.00000E+00
 -1      3665 6.96497E+01 3.60289E+01 0.00000E+00
 -1      3666 1.40378E+01 3.54658E+01 0.00000E+00
 -1      3667 1.47878E+01 3.41668E+01 0.00000E+00
 -1      3668 1.29900E+01 2.64469E+01 0.00000E+00
 -1      3669 2.12850E+01 1.30992E+01 0.00000E+00
 -1      3670 1.97850E+01 1.30992E+01 0.00000E+00
 -1      3671 2.20350E+01 1.43982E+01 0.00000E+00
 -1      3672 9.70321E+01 2.18883E+01 0.00000E+00
 -1      3673 1.35711E+02 2.42625E+01 0.00000E+00
 -1      3674 1.35711E+02 2.27875E+01 0.00000E+00
 -1      3675 1.34412E+02 2.50000E+01 0.00000E+00
 -1      3676 1.33453E+02 1.33799E+01 0.00000E+00
 -1      3677 1.32703E+02 1.46789E+01 0.00000E+00
 -1      3678 1.34620E+02 1.36606E+01 0.00000E+00
 -1      3679 1.35711E+02 2.13125E+01 0.00000E+00
 -1      3680 1.35711E+02 1.98375E+01 0.00000E+00
 -1      3681 1.34412E+02 2.20500E+01 0.00000E+00
 -1      3682 1.35777E+02 1.86034E+01 0.00000E+00
 -1      3683 1.35842E+02 1.73693E+01 0.00000E+00
 -1      3684 1.34478E+02 1.93409E+01 0.00000E+00
 -1      3685 9.83380E+01 2.80805E+01 0.00000E+00
 -1      3686 9.78720E+01 2.87499E+01 0.00000E+00
 -1      3687 9.86997E+01 2.99516E+01 0.00000E+00
 -1      3688 6.82829E+01 2.69563E+01 0.00000E+00
 -1      3689 6.75364E+01 2.64523E+01 0.00000E+00
 -1      3690 6.79319E+01 2.79221E+01 0.00000E+00
 -1      3691 1.25378E+01 3.54658E+01 0.00000E+00
 -1      3692 9.77852E+01 2.44102E+01 0.00000E+00
 -1      3693 9.72563E+01 2.51440E+01 0.00000E+00
 -1      3694 9.80392E+01 2.61450E+01 0.00000E+00
 -1      3695 6.84403E+01 1.71927E+01 0.00000E+00
 -1      3696 6.84660E+01 3.12310E+01 0.00000E+00
 -1      3697 6.89257E+01 3.01138E+01 0.00000E+00
 -1      3698 6.82186E+01 2.95432E+01 0.00000E+00
 -1      3699 1.42890E+01 2.27625E+01 0.00000E+00
 -1      3700 1.42890E+01 2.42375E+01 0.00000E+00
 -1      3701 6.69871E+01 2.19453E+01 0.00000E+00
 -1      3702 6.65403E+01 2.10663E+01 0.00000E+00
 -1      3703 6.64515E+01 2.27450E+01 0.00000E+00
 -1      3704 1.12388E+01 3.62001E+01 0.00000E+00
 -1      3705 2.10855E+01 3.45397E+01 0.00000E+00
 -1      3706 3.62850E+01 1.30992E+01 0.00000E+00
 -1      3707 3.47850E+01 1.30992E+01 0.00000E+00
 -1      3708 3.70350E+01 1.43982E+01 0.00000E+00
 -1      3709 2.50350E+01 1.43982E+01 0.00000E+00
 -1      3710 9.67003E+01 1.46457E+01 0.00000E+00
 -1      3711 9.63255E+01 1.55242E+01 0.00000E+00
 -1      3712 9.68890E+01 1.60864E+01 0.00000E+00
 -1      3713 9.79863E+01 1.49610E+01 0.00000E+00
 -1      3714 1.42890E+01 1.98250E+01 0.00000E+00
 -1      3715 1.42890E+01 2.12938E+01 0.00000E+00
 -1      3716 1.55880E+01 2.20313E+01 0.00000E+00
 -1      3717 1.47878E+01 3.12292E+01 0.00000E+00
 -1      3718 1.47878E+01 3.26980E+01 0.00000E+00
 -1      3719 1.65855E+01 3.30710E+01 0.00000E+00
 -1      3720 1.35879E+02 3.28251E+01 0.00000E+00
 -1      3721 1.35879E+02 3.13563E+01 0.00000E+00
 -1      3722 1.34580E+02 3.06188E+01 0.00000E+00
 -1      3723 1.34917E+02 3.30064E+01 0.00000E+00
 -1      3724 6.90064E+01 3.36260E+01 0.00000E+00
 -1      3725 6.83793E+01 3.31707E+01 0.00000E+00
 -1      3726 9.57034E+01 3.37905E+01 0.00000E+00
 -1      3727 2.63355E+01 3.32407E+01 0.00000E+00
 -1      3728 2.78355E+01 3.32407E+01 0.00000E+00
 -1      3729 2.93355E+01 3.32407E+01 0.00000E+00
 -1      3730 3.08355E+01 3.32407E+01 0.00000E+00
 -1      3731 2.85855E+01 3.19417E+01 0.00000E+00
 -1      3732 3.23355E+01 3.32407E+01 0.00000E+00
 -1      3733 3.38355E+01 3.32407E+01 0.00000E+00
 -1      3734 3.15855E+01 3.19417E+01 0.00000E+00
 -1      3735 3.53355E+01 3.32407E+01 0.00000E+00
 -1      3736 3.68355E+01 3.32407E+01 0.00000E+00
 -1      3737 3.45855E+01 3.19417E+01 0.00000E+00
 -1      3738 3.83355E+01 3.32407E+01 0.00000E+00
 -1      3739 3.98355E+01 3.32407E+01 0.00000E+00
 -1      3740 3.75855E+01 3.19417E+01 0.00000E+00
 -1      3741 4.13355E+01 3.32407E+01 0.00000E+00
 -1      3742 4.28355E+01 3.32407E+01 0.00000E+00
 -1      3743 4.05855E+01 3.19417E+01 0.00000E+00
 -1      3744 4.43355E+01 3.32407E+01 0.00000E+00
 -1      3745 4.58355E+01 3.32407E+01 0.00000E+00
 -1      3746 4.35855E+01 3.19417E+01 0.00000E+00
 -1      3747 4.73355E+01 3.32407E+01 0.00000E+00
 -1      3748 4.88355E+01 3.32407E+01 0.00000E+00
 -1      3749 4.65855E+01 3.19417E+01 0.00000E+00
 -1      3750 5.03355E+01 3.32407E+01 0.00000E+00
 -1      3751 5.18355E+01 3.32407E+01 0.00000E+00
 -1      3752 4.95855E+01 3.19417E+01 0.00000E+00
 -1      3753 5.33355E+01 3.32407E+01 0.00000E+00
 -1      3754 5.48355E+01 3.32407E+01 0.00000E+00
 -1      3755 5.25855E+01 3.19417E+01 0.00000E+00
 -1      3756 5.63355E+01 3.32407E+01 0.00000E+00
 -1      3757 5.78355E+01 3.32407E+01 0.00000E+00
 -1      3758 5.55855E+01 3.19417E+01 0.00000E+00
 -1      3759 5.93355E+01 3.32407E+01 0.00000E+00
 -1      3760 6.08355E+01 3.32407E+01 0.00000E+00
 -1      3761 5.85855E+01 3.19417E+01 0.00000E+00
 -1      3762 6.23355E+01 3.32407E+01 0.00000E+00
 -1      3763 6.38355E+01 3.32407E+01 0.00000E+00
 -1      3764 6.15855E+01 3.19417E+01 0.00000E+00
 -1      3765 1.01336E+02 3.32407E+01 0.00000E+00
 -1      3766 1.02836E+02 3.32407E+01 0.00000E+00
 -1      3767 1.04336E+02 3.32407E+01 0.00000E+00
 -1      3768 1.05836E+02 3.32407E+01 0.00000E+00
 -1      3769 1.03586E+02 3.19417E+01 0.00000E+00
 -1      3770 1.07336E+02 3.32407E+01 0.00000E+00
 -1      3771 1.08836E+02 3.32407E+01 0.00000E+00
 -1      3772 1.06586E+02 3.19417E+01 0.00000E+00
 -1      3773 1.10336E+02 3.32407E+01 0.00000E+00
 -1      3774 1.11836E+02 3.32407E+01 0.00000E+00
 -1      3775 1.09586E+02 3.19417E+01 0.00000E+00
 -1      3776 1.13336E+02 3.32407E+01 0.00000E+00
 -1      3777 1.14836E+02 3.32407E+01 0.00000E+00
 -1      3778 1.12586E+02 3.19417E+01 0.00000E+00
 -1      3779 1.16336E+02 3.32407E+01 0.00000E+00
 -1      3780 1.17836E+02 3.32407E+01 0.00000E+00
 -1      3781 1.15586E+02 3.19417E+01 0.00000E+00
 -1      3782 1.19336E+02 3.32407E+01 0.00000E+00
 -1      3783 1.20836E+02 3.32407E+01 0.00000E+00
 -1      3784 1.18586E+02 3.19417E+01 0.00000E+00
 -1      3785 1.22336E+02 3.32407E+01 0.00000E+00
 -1      3786 1.23836E+02 3.32407E+01 0.00000E+00
 -1      3787 1.21586E+02 3.19417E+01 0.00000E+00
 -1      3788 1.25336E+02 3.32407E+01 0.00000E+00
 -1      3789 1.26836E+02 3.32407E+01 0.00000E+00
 -1      3790 1.24586E+02 3.19417E+01 0.00000E+00
 -1      3791 1.28335E+02 3.32407E+01 0.00000E+00
 -1      3792 1.29835E+02 3.32407E+01 0.00000E+00
 -1      3793 1.27586E+02 3.19417E+01 0.00000E+00
 -1      3794 5.57850E+01 1.56973E+01 0.00000E+00
 -1      3795 5.42850E+01 1.56973E+01 0.00000E+00
 -1      3796 1.58871E+01 1.50778E+01 0.00000E+00
 -1      3797 1.45690E+01 1.63999E+01 0.00000E+00
 -1      3798 5.27850E+01 1.56973E+01 0.00000E+00
 -1      3799 5.12850E+01 1.56973E+01 0.00000E+00
 -1      3800 5.35350E+01 1.69963E+01 0.00000E+00
 -1      3801 6.17850E+01 1.56973E+01 0.00000E+00
 -1      3802 6.02850E+01 1.56973E+01 0.00000E+00
 -1      3803 6.47850E+01 1.56973E+01 0.00000E+00
 -1      3804 6.32850E+01 1.56973E+01 0.00000E+00
 -1      3805 6.25350E+01 1.69963E+01 0.00000E+00
 -1      3806 1.06785E+02 1.56973E+01 0.00000E+00
 -1      3807 1.05285E+02 1.56973E+01 0.00000E+00
 -1      3808 9.81558E+01 2.11496E+01 0.00000E+00
 -1      3809 9.81259E+01 2.26706E+01 0.00000E+00
 -1      3810 1.00785E+02 1.56973E+01 0.00000E+00
 -1      3811 9.92850E+01 1.56973E+01 0.00000E+00
 -1      3812 1.12785E+02 1.56973E+01 0.00000E+00
 -1      3813 1.11285E+02 1.56973E+01 0.00000E+00
 -1      3814 1.15785E+02 1.56973E+01 0.00000E+00
 -1      3815 1.14285E+02 1.56973E+01 0.00000E+00
 -1      3816 1.13535E+02 1.69963E+01 0.00000E+00
 -1      3817 1.18785E+02 1.56973E+01 0.00000E+00
 -1      3818 1.17285E+02 1.56973E+01 0.00000E+00
 -1      3819 1.16535E+02 1.69963E+01 0.00000E+00
 -1      3820 1.21785E+02 1.56973E+01 0.00000E+00
 -1      3821 1.20285E+02 1.56973E+01 0.00000E+00
 -1      3822 1.19535E+02 1.69963E+01 0.00000E+00
 -1      3823 1.24785E+02 1.56973E+01 0.00000E+00
 -1      3824 1.23285E+02 1.56973E+01 0.00000E+00
 -1      3825 1.22535E+02 1.69963E+01 0.00000E+00
 -1      3826 1.27785E+02 1.56973E+01 0.00000E+00
 -1      3827 1.26285E+02 1.56973E+01 0.00000E+00
 -1      3828 1.25535E+02 1.69963E+01 0.00000E+00
 -1      3829 1.30785E+02 1.56973E+01 0.00000E+00
 -1      3830 1.29285E+02 1.56973E+01 0.00000E+00
 -1      3831 1.28535E+02 1.69963E+01 0.00000E+00
 -1      3832 1.33113E+02 2.86875E+01 0.00000E+00
 -1      3833 1.33113E+02 2.72125E+01 0.00000E+00
 -1      3834 1.36322E+02 1.32626E+01 0.00000E+00
 -1      3835 1.35572E+02 1.45616E+01 0.00000E+00
 -1      3836 1.85578E+01 1.28746E+01 0.00000E+00
 -1      3837 1.72397E+01 1.27248E+01 0.00000E+00
 -1      3838 1.68534E+01 1.37242E+01 0.00000E+00
 -1      3839 1.93078E+01 1.41736E+01 0.00000E+00
 -1      3840 2.87850E+01 1.56973E+01 0.00000E+00
 -1      3841 2.72850E+01 1.56973E+01 0.00000E+00
 -1      3842 1.35506E+02 1.57957E+01 0.00000E+00
 -1      3843 6.65043E+01 1.91956E+01 0.00000E+00
 -1      3844 6.71113E+01 1.84156E+01 0.00000E+00
 -1      3845 6.72616E+01 1.69017E+01 0.00000E+00
 -1      3846 2.03355E+01 3.32407E+01 0.00000E+00
 -1      3847 2.18355E+01 3.32407E+01 0.00000E+00
 -1      3848 2.57850E+01 1.56973E+01 0.00000E+00
 -1      3849 2.42850E+01 1.56973E+01 0.00000E+00
 -1      3850 2.65350E+01 1.69963E+01 0.00000E+00
 -1      3851 1.77105E+01 3.31559E+01 0.00000E+00
 -1      3852 1.92105E+01 3.31559E+01 0.00000E+00
 -1      3853 1.99605E+01 3.18569E+01 0.00000E+00
 -1      3854 1.77105E+01 3.16871E+01 0.00000E+00
 -1      3855 1.45690E+01 1.78717E+01 0.00000E+00
 -1      3856 5.87850E+01 1.56973E+01 0.00000E+00
 -1      3857 5.72850E+01 1.56973E+01 0.00000E+00
 -1      3858 5.95350E+01 1.69963E+01 0.00000E+00
 -1      3859 1.55880E+01 2.49719E+01 0.00000E+00
 -1      3860 1.42890E+01 2.57094E+01 0.00000E+00
 -1      3861 1.42890E+01 2.71812E+01 0.00000E+00
 -1      3862 6.65867E+01 2.55803E+01 0.00000E+00
 -1      3863 6.60922E+01 2.46491E+01 0.00000E+00
 -1      3864 2.33355E+01 3.32407E+01 0.00000E+00
 -1      3865 2.48355E+01 3.32407E+01 0.00000E+00
 -1      3866 2.25855E+01 3.19417E+01 0.00000E+00
 -1      3867 4.07850E+01 1.56973E+01 0.00000E+00
 -1      3868 3.92850E+01 1.56973E+01 0.00000E+00
 -1      3869 1.03785E+02 1.56973E+01 0.00000E+00
 -1      3870 1.02285E+02 1.56973E+01 0.00000E+00
 -1      3871 1.01535E+02 1.69963E+01 0.00000E+00
 -1      3872 1.45384E+01 2.84709E+01 0.00000E+00
 -1      3873 1.45384E+01 2.99396E+01 0.00000E+00
 -1      3874 1.63361E+01 3.03126E+01 0.00000E+00
 -1      3875 1.58374E+01 2.77334E+01 0.00000E+00
 -1      3876 6.68788E+01 3.35699E+01 0.00000E+00
 -1      3877 6.76726E+01 3.22008E+01 0.00000E+00
 -1      3878 6.69655E+01 3.16302E+01 0.00000E+00
 -1      3879 6.53788E+01 3.35699E+01 0.00000E+00
 -1      3880 1.09785E+02 1.56973E+01 0.00000E+00
 -1      3881 1.08285E+02 1.56973E+01 0.00000E+00
 -1      3882 1.10535E+02 1.69963E+01 0.00000E+00
 -1      3883 4.97850E+01 1.56973E+01 0.00000E+00
 -1      3884 4.82850E+01 1.56973E+01 0.00000E+00
 -1      3885 5.05350E+01 1.69963E+01 0.00000E+00
 -1      3886 1.58680E+01 1.86092E+01 0.00000E+00
 -1      3887 3.40350E+01 1.43982E+01 0.00000E+00
 -1      3888 2.55855E+01 3.19417E+01 0.00000E+00
 -1      3889 9.93959E+01 2.66129E+01 0.00000E+00
 -1      3890 9.88669E+01 2.73467E+01 0.00000E+00
 -1      3891 9.96946E+01 2.85484E+01 0.00000E+00
 -1      3892 1.33450E+02 3.10751E+01 0.00000E+00
 -1      3893 1.33281E+02 2.98813E+01 0.00000E+00
 -1      3894 1.31982E+02 2.91438E+01 0.00000E+00
 -1      3895 9.94096E+01 3.25803E+01 0.00000E+00
 -1      3896 1.00160E+02 3.12813E+01 0.00000E+00
 -1      3897 1.07535E+02 1.69963E+01 0.00000E+00
 -1      3898 9.86411E+01 2.00421E+01 0.00000E+00
 -1      3899 9.97349E+01 2.08243E+01 0.00000E+00
 -1      3900 9.91264E+01 1.89345E+01 0.00000E+00
 -1      3901 9.86612E+01 3.37264E+01 0.00000E+00
 -1      3902 9.71612E+01 3.37264E+01 0.00000E+00
 -1      3903 2.27850E+01 1.56973E+01 0.00000E+00
 -1      3904 2.12850E+01 1.56973E+01 0.00000E+00
 -1      3905 2.35350E+01 1.69963E+01 0.00000E+00
 -1      3906 1.33792E+02 3.30913E+01 0.00000E+00
 -1      3907 9.77352E+01 1.68379E+01 0.00000E+00
 -1      3908 1.30618E+02 3.11397E+01 0.00000E+00
 -1      3909 1.31368E+02 3.24387E+01 0.00000E+00
 -1      3910 5.65350E+01 1.69963E+01 0.00000E+00
 -1      3911 1.33113E+02 2.57375E+01 0.00000E+00
 -1      3912 1.33113E+02 2.42625E+01 0.00000E+00
 -1      3913 1.31814E+02 2.64750E+01 0.00000E+00
 -1      3914 4.37850E+01 1.56973E+01 0.00000E+00
 -1      3915 4.22850E+01 1.56973E+01 0.00000E+00
 -1      3916 4.15350E+01 1.69963E+01 0.00000E+00
 -1      3917 1.04535E+02 1.69963E+01 0.00000E+00
 -1      3918 9.89088E+01 2.36716E+01 0.00000E+00
 -1      3919 6.70680E+01 1.58323E+01 0.00000E+00
 -1      3920 4.75350E+01 1.69963E+01 0.00000E+00
 -1      3921 4.67850E+01 1.56973E+01 0.00000E+00
 -1      3922 4.52850E+01 1.56973E+01 0.00000E+00
 -1      3923 1.68870E+01 2.12969E+01 0.00000E+00
 -1      3924 1.68870E+01 2.27656E+01 0.00000E+00
 -1      3925 1.71143E+01 1.53024E+01 0.00000E+00
 -1      3926 1.33039E+02 1.62525E+01 0.00000E+00
 -1      3927 1.32289E+02 1.75515E+01 0.00000E+00
 -1      3928 1.33113E+02 2.27875E+01 0.00000E+00
 -1      3929 1.33113E+02 2.13125E+01 0.00000E+00
 -1      3930 1.31814E+02 2.35250E+01 0.00000E+00
 -1      3931 1.32668E+02 2.00491E+01 0.00000E+00
 -1      3932 1.32734E+02 1.88150E+01 0.00000E+00
 -1      3933 1.30480E+02 1.82597E+01 0.00000E+00
 -1      3934 1.31369E+02 2.07866E+01 0.00000E+00
 -1      3935 6.74722E+01 2.90392E+01 0.00000E+00
 -1      3936 6.67257E+01 2.85352E+01 0.00000E+00
 -1      3937 6.70124E+01 3.01564E+01 0.00000E+00
 -1      3938 1.81860E+01 2.35031E+01 0.00000E+00
 -1      3939 1.68870E+01 2.42375E+01 0.00000E+00
 -1      3940 1.68870E+01 2.57094E+01 0.00000E+00
 -1      3941 3.85350E+01 1.69963E+01 0.00000E+00
 -1      3942 3.77850E+01 1.56973E+01 0.00000E+00
 -1      3943 3.62850E+01 1.56973E+01 0.00000E+00
 -1      3944 6.32850E+01 1.82952E+01 0.00000E+00
 -1      3945 6.17850E+01 1.82952E+01 0.00000E+00
 -1      3946 6.49838E+01 1.75604E+01 0.00000E+00
 -1      3947 6.42338E+01 1.88594E+01 0.00000E+00
 -1      3948 6.56454E+01 2.37700E+01 0.00000E+00
 -1      3949 6.51985E+01 2.28910E+01 0.00000E+00
 -1      3950 6.48392E+01 2.47950E+01 0.00000E+00
 -1      3951 6.56729E+01 2.04984E+01 0.00000E+00
 -1      3952 6.51013E+01 1.94273E+01 0.00000E+00
 -1      3953 6.34024E+01 2.01622E+01 0.00000E+00
 -1      3954 6.51372E+01 2.12981E+01 0.00000E+00
 -1      3955 6.46288E+01 3.22709E+01 0.00000E+00
 -1      3956 6.62358E+01 2.65461E+01 0.00000E+00
 -1      3957 3.02850E+01 1.56973E+01 0.00000E+00
 -1      3958 2.95350E+01 1.69963E+01 0.00000E+00
 -1      3959 3.17850E+01 1.56973E+01 0.00000E+00
 -1      3960 2.78355E+01 3.06427E+01 0.00000E+00
 -1      3961 2.93355E+01 3.06427E+01 0.00000E+00
 -1      3962 1.32493E+02 3.23538E+01 0.00000E+00
 -1      3963 5.42850E+01 1.82952E+01 0.00000E+00
 -1      3964 5.27850E+01 1.82952E+01 0.00000E+00
 -1      3965 6.62190E+01 3.11262E+01 0.00000E+00
 -1      3966 3.08355E+01 3.06427E+01 0.00000E+00
 -1      3967 3.23355E+01 3.06427E+01 0.00000E+00
 -1      3968 3.00855E+01 2.93438E+01 0.00000E+00
 -1      3969 3.38355E+01 3.06427E+01 0.00000E+00
 -1      3970 3.53355E+01 3.06427E+01 0.00000E+00
 -1      3971 3.30855E+01 2.93438E+01 0.00000E+00
 -1      3972 3.68355E+01 3.06427E+01 0.00000E+00
 -1      3973 3.83355E+01 3.06427E+01 0.00000E+00
 -1      3974 3.60855E+01 2.93438E+01 0.00000E+00
 -1      3975 3.98355E+01 3.06427E+01 0.00000E+00
 -1      3976 4.13355E+01 3.06427E+01 0.00000E+00
 -1      3977 3.90855E+01 2.93438E+01 0.00000E+00
 -1      3978 4.28355E+01 3.06427E+01 0.00000E+00
 -1      3979 4.43355E+01 3.06427E+01 0.00000E+00
 -1      3980 4.20855E+01 2.93438E+01 0.00000E+00
 -1      3981 4.58355E+01 3.06427E+01 0.00000E+00
 -1      3982 4.73355E+01 3.06427E+01 0.00000E+00
 -1      3983 4.50855E+01 2.93438E+01 0.00000E+00
 -1      3984 4.88355E+01 3.06427E+01 0.00000E+00
 -1      3985 5.03355E+01 3.06427E+01 0.00000E+00
 -1      3986 4.80855E+01 2.93438E+01 0.00000E+00
 -1      3987 5.18355E+01 3.06427E+01 0.00000E+00
 -1      3988 5.33355E+01 3.06427E+01 0.00000E+00
 -1      3989 5.10855E+01 2.93438E+01 0.00000E+00
 -1      3990 5.48355E+01 3.06427E+01 0.00000E+00
 -1      3991 5.63355E+01 3.06427E+01 0.00000E+00
 -1      3992 5.40855E+01 2.93438E+01 0.00000E+00
 -1      3993 5.78355E+01 3.06427E+01 0.00000E+00
 -1      3994 5.93355E+01 3.06427E+01 0.00000E+00
 -1      3995 5.70855E+01 2.93438E+01 0.00000E+00
 -1      3996 6.08355E+01 3.06427E+01 0.00000E+00
 -1      3997 6.23355E+01 3.06427E+01 0.00000E+00
 -1      3998 6.00855E+01 2.93438E+01 0.00000E+00
 -1      3999 1.08285E+02 1.82952E+01 0.00000E+00
 -1      4000 1.06785E+02 1.82952E+01 0.00000E+00
 -1      4001 1.28917E+02 3.07479E+01 0.00000E+00
 -1      4002 1.30450E+02 2.99459E+01 0.00000E+00
 -1      4003 1.30281E+02 2.87521E+01 0.00000E+00
 -1      4004 5.72850E+01 1.82952E+01 0.00000E+00
 -1      4005 5.57850E+01 1.82952E+01 0.00000E+00
 -1      4006 5.50350E+01 1.95942E+01 0.00000E+00
 -1      4007 1.05836E+02 3.06427E+01 0.00000E+00
 -1      4008 1.07336E+02 3.06427E+01 0.00000E+00
 -1      4009 1.08836E+02 3.06427E+01 0.00000E+00
 -1      4010 1.10336E+02 3.06427E+01 0.00000E+00
 -1      4011 1.08086E+02 2.93438E+01 0.00000E+00
 -1      4012 1.11836E+02 3.06427E+01 0.00000E+00
 -1      4013 1.13336E+02 3.06427E+01 0.00000E+00
 -1      4014 1.11086E+02 2.93438E+01 0.00000E+00
 -1      4015 1.14836E+02 3.06427E+01 0.00000E+00
 -1      4016 1.16336E+02 3.06427E+01 0.00000E+00
 -1      4017 1.14086E+02 2.93438E+01 0.00000E+00
 -1      4018 1.17836E+02 3.06427E+01 0.00000E+00
 -1      4019 1.19336E+02 3.06427E+01 0.00000E+00
 -1      4020 1.17086E+02 2.93438E+01 0.00000E+00
 -1      4021 1.20836E+02 3.06427E+01 0.00000E+00
 -1      4022 1.22336E+02 3.06427E+01 0.00000E+00
 -1      4023 1.20086E+02 2.93438E+01 0.00000E+00
 -1      4024 1.23836E+02 3.06427E+01 0.00000E+00
 -1      4025 1.25336E+02 3.06427E+01 0.00000E+00
 -1      4026 1.23086E+02 2.93438E+01 0.00000E+00
 -1      4027 1.27417E+02 3.07479E+01 0.00000E+00
 -1      4028 1.71406E+01 1.73230E+01 0.00000E+00
 -1      4029 1.68607E+01 1.92763E+01 0.00000E+00
 -1      4030 1.81597E+01 2.00107E+01 0.00000E+00
 -1      4031 1.81070E+01 1.59695E+01 0.00000E+00
 -1      4032 9.90338E+01 1.75742E+01 0.00000E+00
 -1      4033 9.82838E+01 1.62752E+01 0.00000E+00
 -1      4034 1.00128E+02 1.83565E+01 0.00000E+00
 -1      4035 1.14285E+02 1.82952E+01 0.00000E+00
 -1      4036 1.12785E+02 1.82952E+01 0.00000E+00
 -1      4037 1.23285E+02 1.82952E+01 0.00000E+00
 -1      4038 1.21785E+02 1.82952E+01 0.00000E+00
 -1      4039 1.26285E+02 1.82952E+01 0.00000E+00
 -1      4040 1.24785E+02 1.82952E+01 0.00000E+00
 -1      4041 1.24035E+02 1.95942E+01 0.00000E+00
 -1      4042 1.29132E+02 1.82775E+01 0.00000E+00
 -1      4043 1.27632E+02 1.82775E+01 0.00000E+00
 -1      4044 1.26882E+02 1.95765E+01 0.00000E+00
 -1      4045 1.29577E+02 1.95409E+01 0.00000E+00
 -1      4046 1.93342E+01 1.61942E+01 0.00000E+00
 -1      4047 2.72850E+01 1.82952E+01 0.00000E+00
 -1      4048 2.57850E+01 1.82952E+01 0.00000E+00
 -1      4049 1.34207E+02 1.65332E+01 0.00000E+00
 -1      4050 1.11285E+02 1.82952E+01 0.00000E+00
 -1      4051 1.09785E+02 1.82952E+01 0.00000E+00
 -1      4052 1.09035E+02 1.95942E+01 0.00000E+00
 -1      4053 1.12035E+02 1.95942E+01 0.00000E+00
 -1      4054 3.47850E+01 1.56973E+01 0.00000E+00
 -1      4055 3.32850E+01 1.56973E+01 0.00000E+00
 -1      4056 3.25350E+01 1.69963E+01 0.00000E+00
 -1      4057 6.46757E+01 3.07971E+01 0.00000E+00
 -1      4058 1.20285E+02 1.82952E+01 0.00000E+00
 -1      4059 1.18785E+02 1.82952E+01 0.00000E+00
 -1      4060 1.21035E+02 1.95942E+01 0.00000E+00
 -1      4061 2.18355E+01 3.06427E+01 0.00000E+00
 -1      4062 2.33355E+01 3.06427E+01 0.00000E+00
 -1      4063 1.17285E+02 1.82952E+01 0.00000E+00
 -1      4064 1.15785E+02 1.82952E+01 0.00000E+00
 -1      4065 1.15035E+02 1.95942E+01 0.00000E+00
 -1      4066 1.18035E+02 1.95942E+01 0.00000E+00
 -1      4067 1.00167E+02 2.30149E+01 0.00000E+00
 -1      4068 9.98267E+01 2.47545E+01 0.00000E+00
 -1      4069 6.02850E+01 1.82952E+01 0.00000E+00
 -1      4070 5.87850E+01 1.82952E+01 0.00000E+00
 -1      4071 5.80350E+01 1.95942E+01 0.00000E+00
 -1      4072 6.57760E+01 2.76632E+01 0.00000E+00
 -1      4073 6.48263E+01 2.67912E+01 0.00000E+00
 -1      4074 6.53162E+01 2.87803E+01 0.00000E+00
 -1      4075 1.05285E+02 1.82952E+01 0.00000E+00
 -1      4076 1.03785E+02 1.82952E+01 0.00000E+00
 -1      4077 1.06035E+02 1.95942E+01 0.00000E+00
 -1      4078 2.48355E+01 3.06427E+01 0.00000E+00
 -1      4079 2.63355E+01 3.06427E+01 0.00000E+00
 -1      4080 2.70855E+01 2.93438E+01 0.00000E+00
 -1      4081 2.40855E+01 2.93438E+01 0.00000E+00
 -1      4082 1.01628E+02 1.83565E+01 0.00000E+00
 -1      4083 5.12850E+01 1.82952E+01 0.00000E+00
 -1      4084 4.97850E+01 1.82952E+01 0.00000E+00
 -1      4085 5.20350E+01 1.95942E+01 0.00000E+00
 -1      4086 1.02836E+02 3.06427E+01 0.00000E+00
 -1      4087 1.04336E+02 3.06427E+01 0.00000E+00
 -1      4088 1.05086E+02 2.93438E+01 0.00000E+00
 -1      4089 1.94454E+01 1.89834E+01 0.00000E+00
 -1      4090 1.94717E+01 2.10040E+01 0.00000E+00
 -1      4091 1.00654E+02 2.59562E+01 0.00000E+00
 -1      4092 1.26667E+02 2.94489E+01 0.00000E+00
 -1      4093 3.55350E+01 1.69963E+01 0.00000E+00
 -1      4094 1.28749E+02 2.80791E+01 0.00000E+00
 -1      4095 1.30281E+02 2.72771E+01 0.00000E+00
 -1      4096 1.30281E+02 2.58021E+01 0.00000E+00
 -1      4097 6.34160E+01 2.68639E+01 0.00000E+00
 -1      4098 6.38758E+01 2.57468E+01 0.00000E+00
 -1      4099 2.09254E+01 2.15053E+01 0.00000E+00
 -1      4100 1.96397E+01 2.25325E+01 0.00000E+00
 -1      4101 6.34289E+01 2.48678E+01 0.00000E+00
 -1      4102 2.00842E+01 1.74932E+01 0.00000E+00
 -1      4103 4.45350E+01 1.69963E+01 0.00000E+00
 -1      4104 1.01138E+02 2.07997E+01 0.00000E+00
 -1      4105 1.00653E+02 2.19073E+01 0.00000E+00
 -1      4106 1.01571E+02 2.29902E+01 0.00000E+00
 -1      4107 1.30281E+02 2.43271E+01 0.00000E+00
 -1      4108 1.30281E+02 2.28521E+01 0.00000E+00
 -1      4109 1.28749E+02 2.51291E+01 0.00000E+00
 -1      4110 4.82850E+01 1.82952E+01 0.00000E+00
 -1      4111 4.67850E+01 1.82952E+01 0.00000E+00
 -1      4112 4.90350E+01 1.95942E+01 0.00000E+00
 -1      4113 1.02378E+02 1.96555E+01 0.00000E+00
 -1      4114 4.22850E+01 1.82952E+01 0.00000E+00
 -1      4115 4.07850E+01 1.82952E+01 0.00000E+00
 -1      4116 4.00350E+01 1.95942E+01 0.00000E+00
 -1      4117 3.92850E+01 1.82952E+01 0.00000E+00
 -1      4118 3.77850E+01 1.82952E+01 0.00000E+00
 -1      4119 9.96180E+01 2.97224E+01 0.00000E+00
 -1      4120 1.01544E+02 3.03828E+01 0.00000E+00
 -1      4121 1.30152E+02 2.18282E+01 0.00000E+00
 -1      4122 1.29707E+02 2.05648E+01 0.00000E+00
 -1      4123 1.28359E+02 2.05825E+01 0.00000E+00
 -1      4124 1.28619E+02 2.26303E+01 0.00000E+00
 -1      4125 2.87850E+01 1.82952E+01 0.00000E+00
 -1      4126 2.80350E+01 1.95942E+01 0.00000E+00
 -1      4127 3.02850E+01 1.82952E+01 0.00000E+00
 -1      4128 1.96397E+01 2.40044E+01 0.00000E+00
 -1      4129 1.02294E+02 2.90838E+01 0.00000E+00
 -1      4130 6.43311E+01 2.23230E+01 0.00000E+00
 -1      4131 1.95855E+01 3.04730E+01 0.00000E+00
 -1      4132 2.07105E+01 3.05579E+01 0.00000E+00
 -1      4133 2.14605E+01 2.92589E+01 0.00000E+00
 -1      4134 6.10350E+01 1.95942E+01 0.00000E+00
 -1      4135 6.17850E+01 2.08932E+01 0.00000E+00
 -1      4136 6.02850E+01 2.08932E+01 0.00000E+00
 -1      4137 1.73983E+01 3.03504E+01 0.00000E+00
 -1      4138 1.85233E+01 3.04352E+01 0.00000E+00
 -1      4139 1.92733E+01 2.91362E+01 0.00000E+00
 -1      4140 1.71489E+01 2.90607E+01 0.00000E+00
 -1      4141 6.39257E+01 2.94981E+01 0.00000E+00
 -1      4142 6.26524E+01 2.14612E+01 0.00000E+00
 -1      4143 1.68933E+01 2.67402E+01 0.00000E+00
 -1      4144 1.71427E+01 2.80299E+01 0.00000E+00
 -1      4145 1.82048E+01 2.80676E+01 0.00000E+00
 -1      4146 1.81923E+01 2.60059E+01 0.00000E+00
 -1      4147 2.21326E+01 2.05991E+01 0.00000E+00
 -1      4148 2.23006E+01 2.21276E+01 0.00000E+00
 -1      4149 1.07336E+02 2.80448E+01 0.00000E+00
 -1      4150 1.08836E+02 2.80448E+01 0.00000E+00
 -1      4151 2.93355E+01 2.80448E+01 0.00000E+00
 -1      4152 3.08355E+01 2.80448E+01 0.00000E+00
 -1      4153 3.23355E+01 2.80448E+01 0.00000E+00
 -1      4154 3.38355E+01 2.80448E+01 0.00000E+00
 -1      4155 3.15855E+01 2.67458E+01 0.00000E+00
 -1      4156 3.53355E+01 2.80448E+01 0.00000E+00
 -1      4157 3.68355E+01 2.80448E+01 0.00000E+00
 -1      4158 3.45855E+01 2.67458E+01 0.00000E+00
 -1      4159 3.83355E+01 2.80448E+01 0.00000E+00
 -1      4160 3.98355E+01 2.80448E+01 0.00000E+00
 -1      4161 3.75855E+01 2.67458E+01 0.00000E+00
 -1      4162 4.13355E+01 2.80448E+01 0.00000E+00
 -1      4163 4.28355E+01 2.80448E+01 0.00000E+00
 -1      4164 4.05855E+01 2.67458E+01 0.00000E+00
 -1      4165 4.43355E+01 2.80448E+01 0.00000E+00
 -1      4166 4.58355E+01 2.80448E+01 0.00000E+00
 -1      4167 4.35855E+01 2.67458E+01 0.00000E+00
 -1      4168 4.73355E+01 2.80448E+01 0.00000E+00
 -1      4169 4.88355E+01 2.80448E+01 0.00000E+00
 -1      4170 4.65855E+01 2.67458E+01 0.00000E+00
 -1      4171 5.03355E+01 2.80448E+01 0.00000E+00
 -1      4172 5.18355E+01 2.80448E+01 0.00000E+00
 -1      4173 4.95855E+01 2.67458E+01 0.00000E+00
 -1      4174 5.33355E+01 2.80448E+01 0.00000E+00
 -1      4175 5.48355E+01 2.80448E+01 0.00000E+00
 -1      4176 5.25855E+01 2.67458E+01 0.00000E+00
 -1      4177 5.63355E+01 2.80448E+01 0.00000E+00
 -1      4178 5.78355E+01 2.80448E+01 0.00000E+00
 -1      4179 5.55855E+01 2.67458E+01 0.00000E+00
 -1      4180 3.32850E+01 1.82952E+01 0.00000E+00
 -1      4181 3.17850E+01 1.82952E+01 0.00000E+00
 -1      4182 3.10350E+01 1.95942E+01 0.00000E+00
 -1      4183 2.42850E+01 1.82952E+01 0.00000E+00
 -1      4184 2.27850E+01 1.82952E+01 0.00000E+00
 -1      4185 1.01904E+02 2.76803E+01 0.00000E+00
 -1      4186 1.03196E+02 2.79403E+01 0.00000E+00
 -1      4187 6.17502E+01 2.40059E+01 0.00000E+00
 -1      4188 6.27137E+01 2.30541E+01 0.00000E+00
 -1      4189 3.62850E+01 1.82952E+01 0.00000E+00
 -1      4190 3.47850E+01 1.82952E+01 0.00000E+00
 -1      4191 3.70350E+01 1.95942E+01 0.00000E+00
 -1      4192 1.10336E+02 2.80448E+01 0.00000E+00
 -1      4193 1.11836E+02 2.80448E+01 0.00000E+00
 -1      4194 1.09586E+02 2.67458E+01 0.00000E+00
 -1      4195 1.13336E+02 2.80448E+01 0.00000E+00
 -1      4196 1.14836E+02 2.80448E+01 0.00000E+00
 -1      4197 1.12586E+02 2.67458E+01 0.00000E+00
 -1      4198 1.16336E+02 2.80448E+01 0.00000E+00
 -1      4199 1.17836E+02 2.80448E+01 0.00000E+00
 -1      4200 1.15586E+02 2.67458E+01 0.00000E+00
 -1      4201 1.19336E+02 2.80448E+01 0.00000E+00
 -1      4202 1.20836E+02 2.80448E+01 0.00000E+00
 -1      4203 1.18586E+02 2.67458E+01 0.00000E+00
 -1      4204 1.22336E+02 2.80448E+01 0.00000E+00
 -1      4205 1.23836E+02 2.80448E+01 0.00000E+00
 -1      4206 1.21586E+02 2.67458E+01 0.00000E+00
 -1      4207 2.13962E+01 1.84865E+01 0.00000E+00
 -1      4208 1.24785E+02 2.08932E+01 0.00000E+00
 -1      4209 1.23285E+02 2.08932E+01 0.00000E+00
 -1      4210 6.63128E+01 1.63375E+01 0.00000E+00
 -1      4211 4.52850E+01 1.82952E+01 0.00000E+00
 -1      4212 4.37850E+01 1.82952E+01 0.00000E+00
 -1      4213 4.30350E+01 1.95942E+01 0.00000E+00
 -1      4214 4.60350E+01 1.95942E+01 0.00000E+00
 -1      4215 5.57850E+01 2.08932E+01 0.00000E+00
 -1      4216 5.42850E+01 2.08932E+01 0.00000E+00
 -1      4217 6.09983E+01 2.53503E+01 0.00000E+00
 -1      4218 6.02831E+01 2.35366E+01 0.00000E+00
 -1      4219 1.03295E+02 2.07384E+01 0.00000E+00
 -1      4220 1.21785E+02 2.08932E+01 0.00000E+00
 -1      4221 1.20285E+02 2.08932E+01 0.00000E+00
 -1      4222 1.22535E+02 2.21922E+01 0.00000E+00
 -1      4223 5.95340E+01 2.22149E+01 0.00000E+00
 -1      4224 5.87840E+01 2.09159E+01 0.00000E+00
 -1      4225 5.72840E+01 2.09159E+01 0.00000E+00
 -1      4226 5.87821E+01 2.35593E+01 0.00000E+00
 -1      4227 1.25251E+02 2.80093E+01 0.00000E+00
 -1      4228 1.27333E+02 2.81145E+01 0.00000E+00
 -1      4229 1.27333E+02 2.66395E+01 0.00000E+00
 -1      4230 1.24501E+02 2.67103E+01 0.00000E+00
 -1      4231 1.04516E+02 2.79925E+01 0.00000E+00
 -1      4232 1.06016E+02 2.79925E+01 0.00000E+00
 -1      4233 1.06766E+02 2.66935E+01 0.00000E+00
 -1      4234 1.04126E+02 2.65891E+01 0.00000E+00
 -1      4235 2.50350E+01 1.95942E+01 0.00000E+00
 -1      4236 2.10879E+01 2.45994E+01 0.00000E+00
 -1      4237 1.96342E+01 2.55700E+01 0.00000E+00
 -1      4238 1.06785E+02 2.08932E+01 0.00000E+00
 -1      4239 1.05285E+02 2.08932E+01 0.00000E+00
 -1      4240 1.00613E+02 2.83192E+01 0.00000E+00
 -1      4241 1.00084E+02 2.90530E+01 0.00000E+00
 -1      4242 5.27850E+01 2.08932E+01 0.00000E+00
 -1      4243 5.12850E+01 2.08932E+01 0.00000E+00
 -1      4244 5.35350E+01 2.21922E+01 0.00000E+00
 -1      4245 2.21462E+01 1.97855E+01 0.00000E+00
 -1      4246 5.83083E+01 2.58134E+01 0.00000E+00
 -1      4247 5.90583E+01 2.71124E+01 0.00000E+00
 -1      4248 3.40350E+01 1.95942E+01 0.00000E+00
 -1      4249 6.05583E+01 2.71124E+01 0.00000E+00
 -1      4250 1.03518E+02 2.52650E+01 0.00000E+00
 -1      4251 1.04838E+02 2.53172E+01 0.00000E+00
 -1      4252 2.57850E+01 2.08932E+01 0.00000E+00
 -1      4253 2.42850E+01 2.08932E+01 0.00000E+00
 -1      4254 1.08285E+02 2.08932E+01 0.00000E+00
 -1      4255 1.07535E+02 2.21922E+01 0.00000E+00
 -1      4256 1.09785E+02 2.08932E+01 0.00000E+00
 -1      4257 6.20255E+01 2.75816E+01 0.00000E+00
 -1      4258 1.19535E+02 2.21922E+01 0.00000E+00
 -1      4259 1.18785E+02 2.08932E+01 0.00000E+00
 -1      4260 1.17285E+02 2.08932E+01 0.00000E+00
 -1      4261 1.27246E+02 2.07290E+01 0.00000E+00
 -1      4262 1.25899E+02 2.07468E+01 0.00000E+00
 -1      4263 1.25149E+02 2.20458E+01 0.00000E+00
 -1      4264 1.27376E+02 2.17529E+01 0.00000E+00
 -1      4265 1.27333E+02 2.51645E+01 0.00000E+00
 -1      4266 4.97850E+01 2.08932E+01 0.00000E+00
 -1      4267 4.82850E+01 2.08932E+01 0.00000E+00
 -1      4268 5.05350E+01 2.21922E+01 0.00000E+00
 -1      4269 2.87850E+01 2.08932E+01 0.00000E+00
 -1      4270 2.72850E+01 2.08932E+01 0.00000E+00
 -1      4271 2.65350E+01 2.21922E+01 0.00000E+00
 -1      4272 1.27505E+02 2.27767E+01 0.00000E+00
 -1      4273 5.65340E+01 2.22149E+01 0.00000E+00
 -1      4274 1.25295E+02 2.54987E+01 0.00000E+00
 -1      4275 1.26711E+02 2.39883E+01 0.00000E+00
 -1      4276 1.25468E+02 2.31109E+01 0.00000E+00
 -1      4277 1.23880E+02 2.55341E+01 0.00000E+00
 -1      4278 4.07850E+01 2.08932E+01 0.00000E+00
 -1      4279 3.92850E+01 2.08932E+01 0.00000E+00
 -1      4280 1.04045E+02 2.20374E+01 0.00000E+00
 -1      4281 2.07089E+01 2.76695E+01 0.00000E+00
 -1      4282 2.18339E+01 2.77544E+01 0.00000E+00
 -1      4283 1.12785E+02 2.08932E+01 0.00000E+00
 -1      4284 1.11285E+02 2.08932E+01 0.00000E+00
 -1      4285 1.10535E+02 2.21922E+01 0.00000E+00
 -1      4286 4.37850E+01 2.08932E+01 0.00000E+00
 -1      4287 4.22850E+01 2.08932E+01 0.00000E+00
 -1      4288 4.15350E+01 2.21922E+01 0.00000E+00
 -1      4289 1.15785E+02 2.08932E+01 0.00000E+00
 -1      4290 1.14285E+02 2.08932E+01 0.00000E+00
 -1      4291 1.13535E+02 2.21922E+01 0.00000E+00
 -1      4292 1.16535E+02 2.21922E+01 0.00000E+00
 -1      4293 6.29760E+01 2.86260E+01 0.00000E+00
 -1      4294 1.01044E+02 2.64608E+01 0.00000E+00
 -1      4295 1.01946E+02 2.53173E+01 0.00000E+00
 -1      4296 2.78355E+01 2.80448E+01 0.00000E+00
 -1      4297 2.85855E+01 2.67458E+01 0.00000E+00
 -1      4298 2.63355E+01 2.80448E+01 0.00000E+00
 -1      4299 2.25823E+01 2.61650E+01 0.00000E+00
 -1      4300 2.33339E+01 2.77544E+01 0.00000E+00
 -1      4301 2.48339E+01 2.77544E+01 0.00000E+00
 -1      4302 1.96405E+01 2.66009E+01 0.00000E+00
 -1      4303 1.03142E+02 2.29379E+01 0.00000E+00
 -1      4304 1.02657E+02 2.40455E+01 0.00000E+00
 -1      4305 2.24442E+01 2.33635E+01 0.00000E+00
 -1      4306 2.24387E+01 2.49291E+01 0.00000E+00
 -1      4307 2.39387E+01 2.49291E+01 0.00000E+00
 -1      4308 2.36515E+01 2.24574E+01 0.00000E+00
 -1      4309 5.65724E+01 2.56187E+01 0.00000E+00
 -1      4310 5.77952E+01 2.46864E+01 0.00000E+00
 -1      4311 5.70462E+01 2.33647E+01 0.00000E+00
 -1      4312 5.50724E+01 2.56187E+01 0.00000E+00
 -1      4313 3.17850E+01 2.08932E+01 0.00000E+00
 -1      4314 3.02850E+01 2.08932E+01 0.00000E+00
 -1      4315 2.95350E+01 2.21922E+01 0.00000E+00
 -1      4316 3.47850E+01 2.08932E+01 0.00000E+00
 -1      4317 3.32850E+01 2.08932E+01 0.00000E+00
 -1      4318 3.25350E+01 2.21922E+01 0.00000E+00
 -1      4319 3.38355E+01 2.54468E+01 0.00000E+00
 -1      4320 3.53355E+01 2.54468E+01 0.00000E+00
 -1      4321 3.68355E+01 2.54468E+01 0.00000E+00
 -1      4322 3.83355E+01 2.54468E+01 0.00000E+00
 -1      4323 3.60855E+01 2.41478E+01 0.00000E+00
 -1      4324 3.95602E+01 2.44690E+01 0.00000E+00
 -1      4325 4.10602E+01 2.44690E+01 0.00000E+00
 -1      4326 4.25602E+01 2.44690E+01 0.00000E+00
 -1      4327 4.40602E+01 2.44690E+01 0.00000E+00
 -1      4328 4.88355E+01 2.54468E+01 0.00000E+00
 -1      4329 5.03355E+01 2.54468E+01 0.00000E+00
 -1      4330 5.19539E+01 2.55327E+01 0.00000E+00
 -1      4331 5.34539E+01 2.55327E+01 0.00000E+00
 -1      4332 5.44408E+01 2.44057E+01 0.00000E+00
 -1      4333 5.12039E+01 2.42337E+01 0.00000E+00
 -1      4334 5.39287E+01 2.32560E+01 0.00000E+00
 -1      4335 5.24287E+01 2.32560E+01 0.00000E+00
 -1      4336 1.08836E+02 2.54468E+01 0.00000E+00
 -1      4337 1.10336E+02 2.54468E+01 0.00000E+00
 -1      4338 1.11560E+02 2.44690E+01 0.00000E+00
 -1      4339 1.13060E+02 2.44690E+01 0.00000E+00
 -1      4340 1.14560E+02 2.44690E+01 0.00000E+00
 -1      4341 1.16060E+02 2.44690E+01 0.00000E+00
 -1      4342 1.17560E+02 2.44690E+01 0.00000E+00
 -1      4343 1.19060E+02 2.44690E+01 0.00000E+00
 -1      4344 1.20560E+02 2.44690E+01 0.00000E+00
 -1      4345 1.22060E+02 2.44690E+01 0.00000E+00
 -1      4346 5.55471E+01 2.33420E+01 0.00000E+00
 -1      4347 1.06177E+02 2.53559E+01 0.00000E+00
 -1      4348 1.07496E+02 2.54081E+01 0.00000E+00
 -1      4349 1.08246E+02 2.41091E+01 0.00000E+00
 -1      4350 1.05568E+02 2.40318E+01 0.00000E+00
 -1      4351 1.05132E+02 2.30927E+01 0.00000E+00
 -1      4352 4.67850E+01 2.08932E+01 0.00000E+00
 -1      4353 4.52850E+01 2.08932E+01 0.00000E+00
 -1      4354 4.75350E+01 2.21922E+01 0.00000E+00
 -1      4355 3.77850E+01 2.08932E+01 0.00000E+00
 -1      4356 3.62850E+01 2.08932E+01 0.00000E+00
 -1      4357 3.55350E+01 2.21922E+01 0.00000E+00
 -1      4358 3.85350E+01 2.21922E+01 0.00000E+00
 -1      4359 1.92670E+01 2.81054E+01 0.00000E+00
 -1      4360 3.05602E+01 2.44690E+01 0.00000E+00
 -1      4361 3.20602E+01 2.44690E+01 0.00000E+00
 -1      4362 1.24354E+02 2.32574E+01 0.00000E+00
 -1      4363 2.35214E+01 2.04079E+01 0.00000E+00
 -1      4364 1.06471E+02 2.31313E+01 0.00000E+00
 -1      4365 3.88102E+01 2.31700E+01 0.00000E+00
 -1      4366 5.08102E+01 2.31700E+01 0.00000E+00
 -1      4367 4.58355E+01 2.54468E+01 0.00000E+00
 -1      4368 4.73355E+01 2.54468E+01 0.00000E+00
 -1      4369 1.07971E+02 2.31313E+01 0.00000E+00
 -1      4370 1.23560E+02 2.44690E+01 0.00000E+00
 -1      4371 3.73102E+01 2.31700E+01 0.00000E+00
 -1      4372 4.93102E+01 2.31700E+01 0.00000E+00
 -1      4373 4.48102E+01 2.31700E+01 0.00000E+00
 -1      4374 2.55839E+01 2.64554E+01 0.00000E+00
 -1      4375 2.90602E+01 2.44690E+01 0.00000E+00
 -1      4376 2.75602E+01 2.44690E+01 0.00000E+00
 -1      4377 4.80855E+01 2.41478E+01 0.00000E+00
 -1      4378 2.60602E+01 2.44690E+01 0.00000E+00
 -1      4379 1.10810E+02 2.31700E+01 0.00000E+00
 -1      4380 1.09310E+02 2.31700E+01 0.00000E+00
 -1      4381 3.58102E+01 2.31700E+01 0.00000E+00
 -1      4382 3.28102E+01 2.31700E+01 0.00000E+00
 -1      4383 2.42714E+01 2.17069E+01 0.00000E+00
 -1      4384 2.44151E+01 2.29427E+01 0.00000E+00
 -1      4385 4.45350E+01 2.21922E+01 0.00000E+00
 -1      4386 4.78102E+01 2.31700E+01 0.00000E+00
 -1      4387 2.45587E+01 2.41786E+01 0.00000E+00
 -1      4388 4.63102E+01 2.31700E+01 0.00000E+00
 -1      4389 3.43102E+01 2.31700E+01 0.00000E+00
 -3
    3C                          2113                                     1
 -1       164    8    0    1
 -2         6         7        23      1139      1302      1156
 -1       165    8    0    1
 -2         7         8       164      1140      1303      1304
 -1       166    8    0    1
 -2         8         9       165      1141      1305      1306
 -1       167    8    0    1
 -2         8       165       164      1306      1307      1303
 -1       168    8    0    1
 -2         9        10       166      1142      1308      1309
 -1       169    8    0    1
 -2         9       166       165      1309      1310      1305
 -1       170    8    0    1
 -2        10        11       167      1143      1311      1312
 -1       171    8    0    1
 -2        10       167       166      1312      1313      1308
 -1       172    8    0    1
 -2        11        12       168      1144      1314      1315
 -1       173    8    0    1
 -2        11       168       167      1315      1316      1311
 -1       174    8    0    1
 -2        12        13       169      1145      1317      1318
 -1       175    8    0    1
 -2        12       169       168      1318      1319      1314
 -1       176    8    0    1
 -2        13        14       170      1146      1320      1321
 -1       177    8    0    1
 -2        13       170       169      1321      1322      1317
 -1       178    8    0    1
 -2        14        15       171      1147      1323      1324
 -1       179    8    0    1
 -2        14       171       170      1324      1325      1320
 -1       180    8    0    1
 -2        15        16       172      1148      1326      1327
 -1       181    8    0    1
 -2        15       172       171      1327      1328      1323
 -1       182    8    0    1
 -2        16        17       173      1149      1329      1330
 -1       183    8    0    1
 -2        16       173       172      1330      1331      1326
 -1       184    8    0    1
 -2        17        18       174      1150      1332      1333
 -1       185    8    0    1
 -2        17       174       173      1333      1334      1329
 -1       186    8    0    1
 -2        18        19       175      1151      1335      1336
 -1       187    8    0    1
 -2        18       175       174      1336      1337      1332
 -1       188    8    0    1
 -2        19        20       176      1152      1338      1339
 -1       189    8    0    1
 -2        19       176       175      1339      1340      1335
 -1       190    8    0    1
 -2        20        21       177      1153      1341      1342
 -1       191    8    0    1
 -2        20       177       176      1342      1343      1338
 -1       192    8    0    1
 -2        21        22       178      1154      1344      1345
 -1       193    8    0    1
 -2        21       178       177      1345      1346      1341
 -1       194    8    0    1
 -2        22         5       179      1155      1347      1348
 -1       195    8    0    1
 -2       178        22       179      1344      1348      1349
 -1       196    8    0    1
 -2         5        72       179      1206      1350      1347
 -1       197    8    0    1
 -2        24        23       180      1157      1351      1352
 -1       198    8    0    1
 -2        25        24       181      1158      1353      1354
 -1       199    8    0    1
 -2        24       180       181      1352      1355      1353
 -1       200    8    0    1
 -2        26        25       182      1159      1356      1357
 -1       201    8    0    1
 -2        25       181       182      1354      1358      1356
 -1       202    8    0    1
 -2        27        26       183      1160      1359      1360
 -1       203    8    0    1
 -2        26       182       183      1357      1361      1359
 -1       204    8    0    1
 -2        28        27       184      1161      1362      1363
 -1       205    8    0    1
 -2        27       183       184      1360      1364      1362
 -1       206    8    0    1
 -2        29        28       185      1162      1365      1366
 -1       207    8    0    1
 -2        28       184       185      1363      1367      1365
 -1       208    8    0    1
 -2        30        29       186      1163      1368      1369
 -1       209    8    0    1
 -2        29       185       186      1366      1370      1368
 -1       210    8    0    1
 -2        31        30       187      1164      1371      1372
 -1       211    8    0    1
 -2        30       186       187      1369      1373      1371
 -1       212    8    0    1
 -2        32        31       188      1165      1374      1375
 -1       213    8    0    1
 -2        31       187       188      1372      1376      1374
 -1       214    8    0    1
 -2        33        32       189      1166      1377      1378
 -1       215    8    0    1
 -2        32       188       189      1375      1379      1377
 -1       216    8    0    1
 -2        34        33       190      1167      1380      1381
 -1       217    8    0    1
 -2        33       189       190      1378      1382      1380
 -1       218    8    0    1
 -2        35        34       191      1168      1383      1384
 -1       219    8    0    1
 -2        34       190       191      1381      1385      1383
 -1       220    8    0    1
 -2        36        35       192      1169      1386      1387
 -1       221    8    0    1
 -2        35       191       192      1384      1388      1386
 -1       222    8    0    1
 -2        37        36       193      1170      1389      1390
 -1       223    8    0    1
 -2        36       192       193      1387      1391      1389
 -1       224    8    0    1
 -2        38        37       194      1171      1392      1393
 -1       225    8    0    1
 -2        37       193       194      1390      1394      1392
 -1       226    8    0    1
 -2        39        38       195      1172      1395      1396
 -1       227    8    0    1
 -2        38       194       195      1393      1397      1395
 -1       228    8    0    1
 -2        40        39       196      1173      1398      1399
 -1       229    8    0    1
 -2        39       195       196      1396      1400      1398
 -1       230    8    0    1
 -2        41        40       197      1174      1401      1402
 -1       231    8    0    1
 -2        40       196       197      1399      1403      1401
 -1       232    8    0    1
 -2        42        41       198      1175      1404      1405
 -1       233    8    0    1
 -2        41       197       198      1402      1406      1404
 -1       234    8    0    1
 -2        43        42       199      1176      1407      1408
 -1       235    8    0    1
 -2        42       198       199      1405      1409      1407
 -1       236    8    0    1
 -2        44        43       200      1177      1410      1411
 -1       237    8    0    1
 -2        43       199       200      1408      1412      1410
 -1       238    8    0    1
 -2        45        44       201      1178      1413      1414
 -1       239    8    0    1
 -2        44       200       201      1411      1415      1413
 -1       240    8    0    1
 -2        46        45       202      1179      1416      1417
 -1       241    8    0    1
 -2        45       201       202      1414      1418      1416
 -1       242    8    0    1
 -2        47        46       203      1180      1419      1420
 -1       243    8    0    1
 -2        46       202       203      1417      1421      1419
 -1       244    8    0    1
 -2        48        47       204      1181      1422      1423
 -1       245    8    0    1
 -2        47       203       204      1420      1424      1422
 -1       246    8    0    1
 -2        49        48       205      1182      1425      1426
 -1       247    8    0    1
 -2        48       204       205      1423      1427      1425
 -1       248    8    0    1
 -2        50        49       206      1183      1428      1429
 -1       249    8    0    1
 -2        49       205       206      1426      1430      1428
 -1       250    8    0    1
 -2        51        50       207      1184      1431      1432
 -1       251    8    0    1
 -2        50       206       207      1429      1433      1431
 -1       252    8    0    1
 -2        52        51       208      1185      1434      1435
 -1       253    8    0    1
 -2        51       207       208      1432      1436      1434
 -1       254    8    0    1
 -2        53        52       209      1186      1437      1438
 -1       255    8    0    1
 -2        52       208       209      1435      1439      1437
 -1       256    8    0    1
 -2        54        53       210      1187      1440      1441
 -1       257    8    0    1
 -2        53       209       210      1438      1442      1440
 -1       258    8    0    1
 -2        55        54       211      1188      1443      1444
 -1       259    8    0    1
 -2        54       210       211      1441      1445      1443
 -1       260    8    0    1
 -2        56        55       212      1189      1446      1447
 -1       261    8    0    1
 -2        55       211       212      1444      1448      1446
 -1       262    8    0    1
 -2        57        56       213      1190      1449      1450
 -1       263    8    0    1
 -2        56       212       213      1447      1451      1449
 -1       264    8    0    1
 -2        58        57       214      1191      1452      1453
 -1       265    8    0    1
 -2        57       213       214      1450      1454      1452
 -1       266    8    0    1
 -2        59        58       215      1192      1455      1456
 -1       267    8    0    1
 -2        58       214       215      1453      1457      1455
 -1       268    8    0    1
 -2        60        59       216      1193      1458      1459
 -1       269    8    0    1
 -2        59       215       216      1456      1460      1458
 -1       270    8    0    1
 -2        61        60       217      1194      1461      1462
 -1       271    8    0    1
 -2        60       216       217      1459      1463      1461
 -1       272    8    0    1
 -2        62        61       218      1195      1464      1465
 -1       273    8    0    1
 -2        61       217       218      1462      1466      1464
 -1       274    8    0    1
 -2        63        62       219      1196      1467      1468
 -1       275    8    0    1
 -2        62       218       219      1465      1469      1467
 -1       276    8    0    1
 -2        64        63       220      1197      1470      1471
 -1       277    8    0    1
 -2        63       219       220      1468      1472      1470
 -1       278    8    0    1
 -2        65        64       221      1198      1473      1474
 -1       279    8    0    1
 -2        64       220       221      1471      1475      1473
 -1       280    8    0    1
 -2        66        65       222      1199      1476      1477
 -1       281    8    0    1
 -2        65       221       222      1474      1478      1476
 -1       282    8    0    1
 -2        67        66       223      1200      1479      1480
 -1       283    8    0    1
 -2        66       222       223      1477      1481      1479
 -1       284    8    0    1
 -2        68        67       224      1201      1482      1483
 -1       285    8    0    1
 -2        67       223       224      1480      1484      1482
 -1       286    8    0    1
 -2        69        68       225      1202      1485      1486
 -1       287    8    0    1
 -2        68       224       225      1483      1487      1485
 -1       288    8    0    1
 -2        70        69       226      1203      1488      1489
 -1       289    8    0    1
 -2        69       225       226      1486      1490      1488
 -1       290    8    0    1
 -2        71        70       227      1204      1491      1492
 -1       291    8    0    1
 -2        70       226       227      1489      1493      1491
 -1       292    8    0    1
 -2         4        71       136      1205      1494      1272
 -1       293    8    0    1
 -2       136        71       227      1494      1492      1495
 -1       294    8    0    1
 -2        72        73       228      1207      1496      1497
 -1       295    8    0    1
 -2        72       228       179      1497      1498      1350
 -1       296    8    0    1
 -2        73        74       229      1208      1499      1500
 -1       297    8    0    1
 -2        73       229       228      1500      1501      1496
 -1       298    8    0    1
 -2        74        75       230      1209      1502      1503
 -1       299    8    0    1
 -2        74       230       229      1503      1504      1499
 -1       300    8    0    1
 -2        75        76       231      1210      1505      1506
 -1       301    8    0    1
 -2        75       231       230      1506      1507      1502
 -1       302    8    0    1
 -2        76        77       232      1211      1508      1509
 -1       303    8    0    1
 -2        76       232       231      1509      1510      1505
 -1       304    8    0    1
 -2        77        78       233      1212      1511      1512
 -1       305    8    0    1
 -2        77       233       232      1512      1513      1508
 -1       306    8    0    1
 -2        78        79       234      1213      1514      1515
 -1       307    8    0    1
 -2        78       234       233      1515      1516      1511
 -1       308    8    0    1
 -2        79        80       235      1214      1517      1518
 -1       309    8    0    1
 -2        79       235       234      1518      1519      1514
 -1       310    8    0    1
 -2        80        81       236      1215      1520      1521
 -1       311    8    0    1
 -2        80       236       235      1521      1522      1517
 -1       312    8    0    1
 -2        81        82       237      1216      1523      1524
 -1       313    8    0    1
 -2        81       237       236      1524      1525      1520
 -1       314    8    0    1
 -2        82        83       238      1217      1526      1527
 -1       315    8    0    1
 -2        82       238       237      1527      1528      1523
 -1       316    8    0    1
 -2        83        84       239      1218      1529      1530
 -1       317    8    0    1
 -2        83       239       238      1530      1531      1526
 -1       318    8    0    1
 -2        84        85       240      1219      1532      1533
 -1       319    8    0    1
 -2        84       240       239      1533      1534      1529
 -1       320    8    0    1
 -2        85        86       241      1220      1535      1536
 -1       321    8    0    1
 -2        85       241       240      1536      1537      1532
 -1       322    8    0    1
 -2        86        87       242      1221      1538      1539
 -1       323    8    0    1
 -2        86       242       241      1539      1540      1535
 -1       324    8    0    1
 -2        87        88       243      1222      1541      1542
 -1       325    8    0    1
 -2        87       243       242      1542      1543      1538
 -1       326    8    0    1
 -2        88        89       244      1223      1544      1545
 -1       327    8    0    1
 -2        88       244       243      1545      1546      1541
 -1       328    8    0    1
 -2        89        90       245      1224      1547      1548
 -1       329    8    0    1
 -2        89       245       244      1548      1549      1544
 -1       330    8    0    1
 -2        90        91       246      1225      1550      1551
 -1       331    8    0    1
 -2        90       246       245      1551      1552      1547
 -1       332    8    0    1
 -2        91        92       247      1226      1553      1554
 -1       333    8    0    1
 -2        91       247       246      1554      1555      1550
 -1       334    8    0    1
 -2        92        93       248      1227      1556      1557
 -1       335    8    0    1
 -2        92       248       247      1557      1558      1553
 -1       336    8    0    1
 -2        93        94       249      1228      1559      1560
 -1       337    8    0    1
 -2        93       249       248      1560      1561      1556
 -1       338    8    0    1
 -2        94        95       250      1229      1562      1563
 -1       339    8    0    1
 -2        94       250       249      1563      1564      1559
 -1       340    8    0    1
 -2        95        96       251      1230      1565      1566
 -1       341    8    0    1
 -2        95       251       250      1566      1567      1562
 -1       342    8    0    1
 -2        96        97       252      1231      1568      1569
 -1       343    8    0    1
 -2        96       252       251      1569      1570      1565
 -1       344    8    0    1
 -2        97        98       253      1232      1571      1572
 -1       345    8    0    1
 -2        97       253       252      1572      1573      1568
 -1       346    8    0    1
 -2        98        99       254      1233      1574      1575
 -1       347    8    0    1
 -2        98       254       253      1575      1576      1571
 -1       348    8    0    1
 -2        99       100       255      1234      1577      1578
 -1       349    8    0    1
 -2        99       255       254      1578      1579      1574
 -1       350    8    0    1
 -2       100       101       256      1235      1580      1581
 -1       351    8    0    1
 -2       100       256       255      1581      1582      1577
 -1       352    8    0    1
 -2       101       102       257      1236      1583      1584
 -1       353    8    0    1
 -2       101       257       256      1584      1585      1580
 -1       354    8    0    1
 -2       102       103       258      1237      1586      1587
 -1       355    8    0    1
 -2       102       258       257      1587      1588      1583
 -1       356    8    0    1
 -2       103       104       259      1238      1589      1590
 -1       357    8    0    1
 -2       103       259       258      1590      1591      1586
 -1       358    8    0    1
 -2       104       105       260      1239      1592      1593
 -1       359    8    0    1
 -2       104       260       259      1593      1594      1589
 -1       360    8    0    1
 -2       105       106       261      1240      1595      1596
 -1       361    8    0    1
 -2       105       261       260      1596      1597      1592
 -1       362    8    0    1
 -2       106       107       262      1241      1598      1599
 -1       363    8    0    1
 -2       106       262       261      1599      1600      1595
 -1       364    8    0    1
 -2       107       108       263      1242      1601      1602
 -1       365    8    0    1
 -2       107       263       262      1602      1603      1598
 -1       366    8    0    1
 -2       108       109       264      1243      1604      1605
 -1       367    8    0    1
 -2       108       264       263      1605      1606      1601
 -1       368    8    0    1
 -2       109       110       265      1244      1607      1608
 -1       369    8    0    1
 -2       109       265       264      1608      1609      1604
 -1       370    8    0    1
 -2       110       111       266      1245      1610      1611
 -1       371    8    0    1
 -2       110       266       265      1611      1612      1607
 -1       372    8    0    1
 -2       111       112       267      1246      1613      1614
 -1       373    8    0    1
 -2       111       267       266      1614      1615      1610
 -1       374    8    0    1
 -2       112       113       268      1247      1616      1617
 -1       375    8    0    1
 -2       112       268       267      1617      1618      1613
 -1       376    8    0    1
 -2       113       114       269      1248      1619      1620
 -1       377    8    0    1
 -2       113       269       268      1620      1621      1616
 -1       378    8    0    1
 -2       114       115       270      1249      1622      1623
 -1       379    8    0    1
 -2       114       270       269      1623      1624      1619
 -1       380    8    0    1
 -2       115       116       271      1250      1625      1626
 -1       381    8    0    1
 -2       115       271       270      1626      1627      1622
 -1       382    8    0    1
 -2       116       117       272      1251      1628      1629
 -1       383    8    0    1
 -2       116       272       271      1629      1630      1625
 -1       384    8    0    1
 -2       117       118       273      1252      1631      1632
 -1       385    8    0    1
 -2       117       273       272      1632      1633      1628
 -1       386    8    0    1
 -2       118       119       274      1253      1634      1635
 -1       387    8    0    1
 -2       118       274       273      1635      1636      1631
 -1       388    8    0    1
 -2       119       120       275      1254      1637      1638
 -1       389    8    0    1
 -2       119       275       274      1638      1639      1634
 -1       390    8    0    1
 -2       120         3       121      1255      1256      1640
 -1       391    8    0    1
 -2       121       122       276      1257      1641      1642
 -1       392    8    0    1
 -2       122       123       277      1258      1643      1644
 -1       393    8    0    1
 -2       122       277       276      1644      1645      1641
 -1       394    8    0    1
 -2       123       124       278      1259      1646      1647
 -1       395    8    0    1
 -2       123       278       277      1647      1648      1643
 -1       396    8    0    1
 -2       124       125       279      1260      1649      1650
 -1       397    8    0    1
 -2       124       279       278      1650      1651      1646
 -1       398    8    0    1
 -2       125       126       280      1261      1652      1653
 -1       399    8    0    1
 -2       125       280       279      1653      1654      1649
 -1       400    8    0    1
 -2       126       127       281      1262      1655      1656
 -1       401    8    0    1
 -2       126       281       280      1656      1657      1652
 -1       402    8    0    1
 -2       127       128       282      1263      1658      1659
 -1       403    8    0    1
 -2       127       282       281      1659      1660      1655
 -1       404    8    0    1
 -2       128       129       283      1264      1661      1662
 -1       405    8    0    1
 -2       128       283       282      1662      1663      1658
 -1       406    8    0    1
 -2       129       130       284      1265      1664      1665
 -1       407    8    0    1
 -2       129       284       283      1665      1666      1661
 -1       408    8    0    1
 -2       130       131       285      1266      1667      1668
 -1       409    8    0    1
 -2       130       285       284      1668      1669      1664
 -1       410    8    0    1
 -2       131       132       286      1267      1670      1671
 -1       411    8    0    1
 -2       131       286       285      1671      1672      1667
 -1       412    8    0    1
 -2       132       133       287      1268      1673      1674
 -1       413    8    0    1
 -2       132       287       286      1674      1675      1670
 -1       414    8    0    1
 -2       133       134       288      1269      1676      1677
 -1       415    8    0    1
 -2       133       288       287      1677      1678      1673
 -1       416    8    0    1
 -2       134       135       289      1270      1679      1680
 -1       417    8    0    1
 -2       134       289       288      1680      1681      1676
 -1       418    8    0    1
 -2       135       136       290      1271      1682      1683
 -1       419    8    0    1
 -2       289       135       290      1679      1683      1684
 -1       420    8    0    1
 -2       136       227       290      1495      1685      1682
 -1       421    8    0    1
 -2         2       137       291      1273      1686      1687
 -1       422    8    0    1
 -2       137       138       292      1274      1688      1689
 -1       423    8    0    1
 -2       138       139       293      1275      1690      1691
 -1       424    8    0    1
 -2       139       140       294      1276      1692      1693
 -1       425    8    0    1
 -2       140       141       295      1277      1694      1695
 -1       426    8    0    1
 -2       141       142       296      1278      1696      1697
 -1       427    8    0    1
 -2       142       143       297      1279      1698      1699
 -1       428    8    0    1
 -2       143       144       298      1280      1700      1701
 -1       429    8    0    1
 -2       144       145       299      1281      1702      1703
 -1       430    8    0    1
 -2       145       146       300      1282      1704      1705
 -1       431    8    0    1
 -2       146       147       301      1283      1706      1707
 -1       432    8    0    1
 -2       147       148       302      1284      1708      1709
 -1       433    8    0    1
 -2       148       149       303      1285      1710      1711
 -1       434    8    0    1
 -2       149       150       304      1286      1712      1713
 -1       435    8    0    1
 -2       150       151       305      1287      1714      1715
 -1       436    8    0    1
 -2       151       152       306      1288      1716      1717
 -1       437    8    0    1
 -2       152       153       307      1289      1718      1719
 -1       438    8    0    1
 -2       153       154       308      1290      1720      1721
 -1       439    8    0    1
 -2       154       155       309      1291      1722      1723
 -1       440    8    0    1
 -2       155       156       310      1292      1724      1725
 -1       441    8    0    1
 -2       156       157       311      1293      1726      1727
 -1       442    8    0    1
 -2       157       158       312      1294      1728      1729
 -1       443    8    0    1
 -2       158         1       313      1295      1730      1731
 -1       444    8    0    1
 -2         1       159       314      1296      1732      1733
 -1       445    8    0    1
 -2       159       160       315      1297      1734      1735
 -1       446    8    0    1
 -2       160       161       316      1298      1736      1737
 -1       447    8    0    1
 -2       161       162       317      1299      1738      1739
 -1       448    8    0    1
 -2       162       163       318      1300      1740      1741
 -1       449    8    0    1
 -2       163         2       319      1301      1742      1743
 -1       450    8    0    1
 -2       294       140       295      1692      1695      1744
 -1       451    8    0    1
 -2       293       139       294      1690      1693      1745
 -1       452    8    0    1
 -2       120       121       275      1640      1746      1637
 -1       453    8    0    1
 -2       121       276       275      1642      1747      1746
 -1       454    8    0    1
 -2       291       137       292      1686      1689      1748
 -1       455    8    0    1
 -2       292       138       293      1688      1691      1749
 -1       456    8    0    1
 -2         2       291       319      1687      1750      1742
 -1       457    8    0    1
 -2       141       296       295      1697      1751      1694
 -1       458    8    0    1
 -2       142       297       296      1699      1752      1696
 -1       459    8    0    1
 -2       143       298       297      1701      1753      1698
 -1       460    8    0    1
 -2       144       299       298      1703      1754      1700
 -1       461    8    0    1
 -2       145       300       299      1705      1755      1702
 -1       462    8    0    1
 -2       146       301       300      1707      1756      1704
 -1       463    8    0    1
 -2       147       302       301      1709      1757      1706
 -1       464    8    0    1
 -2       148       303       302      1711      1758      1708
 -1       465    8    0    1
 -2       149       304       303      1713      1759      1710
 -1       466    8    0    1
 -2       150       305       304      1715      1760      1712
 -1       467    8    0    1
 -2       151       306       305      1717      1761      1714
 -1       468    8    0    1
 -2       152       307       306      1719      1762      1716
 -1       469    8    0    1
 -2       153       308       307      1721      1763      1718
 -1       470    8    0    1
 -2       154       309       308      1723      1764      1720
 -1       471    8    0    1
 -2       155       310       309      1725      1765      1722
 -1       472    8    0    1
 -2       156       311       310      1727      1766      1724
 -1       473    8    0    1
 -2       157       312       311      1729      1767      1726
 -1       474    8    0    1
 -2       158       313       312      1731      1768      1728
 -1       475    8    0    1
 -2         1       314       313      1733      1769      1730
 -1       476    8    0    1
 -2       159       315       314      1735      1770      1732
 -1       477    8    0    1
 -2       160       316       315      1737      1771      1734
 -1       478    8    0    1
 -2       161       317       316      1739      1772      1736
 -1       479    8    0    1
 -2       162       318       317      1741      1773      1738
 -1       480    8    0    1
 -2       163       319       318      1743      1774      1740
 -1       481    8    0    1
 -2        23         7       164      1302      1304      1775
 -1       482    8    0    1
 -2       165       166       320      1310      1776      1777
 -1       483    8    0    1
 -2       164       165       321      1307      1778      1779
 -1       484    8    0    1
 -2       165       320       321      1777      1780      1778
 -1       485    8    0    1
 -2       167       168       322      1316      1781      1782
 -1       486    8    0    1
 -2       168       169       323      1319      1783      1784
 -1       487    8    0    1
 -2       168       323       322      1784      1785      1781
 -1       488    8    0    1
 -2       169       170       324      1322      1786      1787
 -1       489    8    0    1
 -2       169       324       323      1787      1788      1783
 -1       490    8    0    1
 -2       170       171       325      1325      1789      1790
 -1       491    8    0    1
 -2       170       325       324      1790      1791      1786
 -1       492    8    0    1
 -2       171       172       326      1328      1792      1793
 -1       493    8    0    1
 -2       171       326       325      1793      1794      1789
 -1       494    8    0    1
 -2       172       173       327      1331      1795      1796
 -1       495    8    0    1
 -2       172       327       326      1796      1797      1792
 -1       496    8    0    1
 -2       173       174       328      1334      1798      1799
 -1       497    8    0    1
 -2       173       328       327      1799      1800      1795
 -1       498    8    0    1
 -2       174       175       329      1337      1801      1802
 -1       499    8    0    1
 -2       174       329       328      1802      1803      1798
 -1       500    8    0    1
 -2       175       176       330      1340      1804      1805
 -1       501    8    0    1
 -2       175       330       329      1805      1806      1801
 -1       502    8    0    1
 -2       176       177       331      1343      1807      1808
 -1       503    8    0    1
 -2       176       331       330      1808      1809      1804
 -1       504    8    0    1
 -2       177       178       332      1346      1810      1811
 -1       505    8    0    1
 -2       177       332       331      1811      1812      1807
 -1       506    8    0    1
 -2       178       179       333      1349      1813      1814
 -1       507    8    0    1
 -2       332       178       333      1810      1814      1815
 -1       508    8    0    1
 -2       179       228       333      1498      1816      1813
 -1       509    8    0    1
 -2       180        23       164      1351      1775      1817
 -1       510    8    0    1
 -2       228       229       334      1501      1818      1819
 -1       511    8    0    1
 -2       228       334       333      1819      1820      1816
 -1       512    8    0    1
 -2       180       164       321      1817      1779      1821
 -1       513    8    0    1
 -2       182       181       335      1358      1822      1823
 -1       514    8    0    1
 -2       183       182       336      1361      1824      1825
 -1       515    8    0    1
 -2       182       335       336      1823      1826      1824
 -1       516    8    0    1
 -2       184       183       337      1364      1827      1828
 -1       517    8    0    1
 -2       183       336       337      1825      1829      1827
 -1       518    8    0    1
 -2       185       184       338      1367      1830      1831
 -1       519    8    0    1
 -2       184       337       338      1828      1832      1830
 -1       520    8    0    1
 -2       186       185       339      1370      1833      1834
 -1       521    8    0    1
 -2       185       338       339      1831      1835      1833
 -1       522    8    0    1
 -2       187       186       340      1373      1836      1837
 -1       523    8    0    1
 -2       186       339       340      1834      1838      1836
 -1       524    8    0    1
 -2       188       187       341      1376      1839      1840
 -1       525    8    0    1
 -2       187       340       341      1837      1841      1839
 -1       526    8    0    1
 -2       189       188       342      1379      1842      1843
 -1       527    8    0    1
 -2       188       341       342      1840      1844      1842
 -1       528    8    0    1
 -2       190       189       343      1382      1845      1846
 -1       529    8    0    1
 -2       189       342       343      1843      1847      1845
 -1       530    8    0    1
 -2       191       190       344      1385      1848      1849
 -1       531    8    0    1
 -2       190       343       344      1846      1850      1848
 -1       532    8    0    1
 -2       192       191       345      1388      1851      1852
 -1       533    8    0    1
 -2       191       344       345      1849      1853      1851
 -1       534    8    0    1
 -2       193       192       346      1391      1854      1855
 -1       535    8    0    1
 -2       192       345       346      1852      1856      1854
 -1       536    8    0    1
 -2       194       193       347      1394      1857      1858
 -1       537    8    0    1
 -2       193       346       347      1855      1859      1857
 -1       538    8    0    1
 -2       195       194       348      1397      1860      1861
 -1       539    8    0    1
 -2       194       347       348      1858      1862      1860
 -1       540    8    0    1
 -2       196       195       349      1400      1863      1864
 -1       541    8    0    1
 -2       195       348       349      1861      1865      1863
 -1       542    8    0    1
 -2       197       196       350      1403      1866      1867
 -1       543    8    0    1
 -2       196       349       350      1864      1868      1866
 -1       544    8    0    1
 -2       198       197       351      1406      1869      1870
 -1       545    8    0    1
 -2       197       350       351      1867      1871      1869
 -1       546    8    0    1
 -2       199       198       352      1409      1872      1873
 -1       547    8    0    1
 -2       198       351       352      1870      1874      1872
 -1       548    8    0    1
 -2       200       199       353      1412      1875      1876
 -1       549    8    0    1
 -2       199       352       353      1873      1877      1875
 -1       550    8    0    1
 -2       201       200       354      1415      1878      1879
 -1       551    8    0    1
 -2       200       353       354      1876      1880      1878
 -1       552    8    0    1
 -2       202       201       355      1418      1881      1882
 -1       553    8    0    1
 -2       201       354       355      1879      1883      1881
 -1       554    8    0    1
 -2       203       202       356      1421      1884      1885
 -1       555    8    0    1
 -2       202       355       356      1882      1886      1884
 -1       556    8    0    1
 -2       204       203       357      1424      1887      1888
 -1       557    8    0    1
 -2       203       356       357      1885      1889      1887
 -1       558    8    0    1
 -2       205       204       358      1427      1890      1891
 -1       559    8    0    1
 -2       204       357       358      1888      1892      1890
 -1       560    8    0    1
 -2       206       205       359      1430      1893      1894
 -1       561    8    0    1
 -2       205       358       359      1891      1895      1893
 -1       562    8    0    1
 -2       207       206       360      1433      1896      1897
 -1       563    8    0    1
 -2       206       359       360      1894      1898      1896
 -1       564    8    0    1
 -2       208       207       361      1436      1899      1900
 -1       565    8    0    1
 -2       207       360       361      1897      1901      1899
 -1       566    8    0    1
 -2       209       208       362      1439      1902      1903
 -1       567    8    0    1
 -2       208       361       362      1900      1904      1902
 -1       568    8    0    1
 -2       210       209       363      1442      1905      1906
 -1       569    8    0    1
 -2       209       362       363      1903      1907      1905
 -1       570    8    0    1
 -2       211       210       364      1445      1908      1909
 -1       571    8    0    1
 -2       210       363       364      1906      1910      1908
 -1       572    8    0    1
 -2       212       211       365      1448      1911      1912
 -1       573    8    0    1
 -2       211       364       365      1909      1913      1911
 -1       574    8    0    1
 -2       213       212       366      1451      1914      1915
 -1       575    8    0    1
 -2       212       365       366      1912      1916      1914
 -1       576    8    0    1
 -2       214       213       367      1454      1917      1918
 -1       577    8    0    1
 -2       213       366       367      1915      1919      1917
 -1       578    8    0    1
 -2       215       214       368      1457      1920      1921
 -1       579    8    0    1
 -2       214       367       368      1918      1922      1920
 -1       580    8    0    1
 -2       216       215       369      1460      1923      1924
 -1       581    8    0    1
 -2       215       368       369      1921      1925      1923
 -1       582    8    0    1
 -2       217       216       370      1463      1926      1927
 -1       583    8    0    1
 -2       216       369       370      1924      1928      1926
 -1       584    8    0    1
 -2       218       217       371      1466      1929      1930
 -1       585    8    0    1
 -2       217       370       371      1927      1931      1929
 -1       586    8    0    1
 -2       219       218       372      1469      1932      1933
 -1       587    8    0    1
 -2       218       371       372      1930      1934      1932
 -1       588    8    0    1
 -2       220       219       373      1472      1935      1936
 -1       589    8    0    1
 -2       219       372       373      1933      1937      1935
 -1       590    8    0    1
 -2       221       220       374      1475      1938      1939
 -1       591    8    0    1
 -2       220       373       374      1936      1940      1938
 -1       592    8    0    1
 -2       222       221       375      1478      1941      1942
 -1       593    8    0    1
 -2       221       374       375      1939      1943      1941
 -1       594    8    0    1
 -2       223       222       376      1481      1944      1945
 -1       595    8    0    1
 -2       222       375       376      1942      1946      1944
 -1       596    8    0    1
 -2       224       223       377      1484      1947      1948
 -1       597    8    0    1
 -2       223       376       377      1945      1949      1947
 -1       598    8    0    1
 -2       225       224       378      1487      1950      1951
 -1       599    8    0    1
 -2       224       377       378      1948      1952      1950
 -1       600    8    0    1
 -2       226       225       379      1490      1953      1954
 -1       601    8    0    1
 -2       225       378       379      1951      1955      1953
 -1       602    8    0    1
 -2       227       226       380      1493      1956      1957
 -1       603    8    0    1
 -2       290       227       380      1685      1957      1958
 -1       604    8    0    1
 -2       226       379       380      1954      1959      1956
 -1       605    8    0    1
 -2       229       230       381      1504      1960      1961
 -1       606    8    0    1
 -2       229       381       334      1961      1962      1818
 -1       607    8    0    1
 -2       230       231       382      1507      1963      1964
 -1       608    8    0    1
 -2       230       382       381      1964      1965      1960
 -1       609    8    0    1
 -2       231       232       383      1510      1966      1967
 -1       610    8    0    1
 -2       231       383       382      1967      1968      1963
 -1       611    8    0    1
 -2       232       233       384      1513      1969      1970
 -1       612    8    0    1
 -2       232       384       383      1970      1971      1966
 -1       613    8    0    1
 -2       233       234       385      1516      1972      1973
 -1       614    8    0    1
 -2       233       385       384      1973      1974      1969
 -1       615    8    0    1
 -2       234       235       386      1519      1975      1976
 -1       616    8    0    1
 -2       234       386       385      1976      1977      1972
 -1       617    8    0    1
 -2       235       236       387      1522      1978      1979
 -1       618    8    0    1
 -2       235       387       386      1979      1980      1975
 -1       619    8    0    1
 -2       236       237       388      1525      1981      1982
 -1       620    8    0    1
 -2       236       388       387      1982      1983      1978
 -1       621    8    0    1
 -2       237       238       389      1528      1984      1985
 -1       622    8    0    1
 -2       237       389       388      1985      1986      1981
 -1       623    8    0    1
 -2       238       239       390      1531      1987      1988
 -1       624    8    0    1
 -2       238       390       389      1988      1989      1984
 -1       625    8    0    1
 -2       239       240       391      1534      1990      1991
 -1       626    8    0    1
 -2       239       391       390      1991      1992      1987
 -1       627    8    0    1
 -2       240       241       392      1537      1993      1994
 -1       628    8    0    1
 -2       240       392       391      1994      1995      1990
 -1       629    8    0    1
 -2       241       242       393      1540      1996      1997
 -1       630    8    0    1
 -2       241       393       392      1997      1998      1993
 -1       631    8    0    1
 -2       242       243       394      1543      1999      2000
 -1       632    8    0    1
 -2       242       394       393      2000      2001      1996
 -1       633    8    0    1
 -2       243       244       395      1546      2002      2003
 -1       634    8    0    1
 -2       243       395       394      2003      2004      1999
 -1       635    8    0    1
 -2       244       245       396      1549      2005      2006
 -1       636    8    0    1
 -2       244       396       395      2006      2007      2002
 -1       637    8    0    1
 -2       245       246       397      1552      2008      2009
 -1       638    8    0    1
 -2       245       397       396      2009      2010      2005
 -1       639    8    0    1
 -2       246       247       398      1555      2011      2012
 -1       640    8    0    1
 -2       246       398       397      2012      2013      2008
 -1       641    8    0    1
 -2       247       248       399      1558      2014      2015
 -1       642    8    0    1
 -2       247       399       398      2015      2016      2011
 -1       643    8    0    1
 -2       248       249       400      1561      2017      2018
 -1       644    8    0    1
 -2       248       400       399      2018      2019      2014
 -1       645    8    0    1
 -2       249       250       401      1564      2020      2021
 -1       646    8    0    1
 -2       249       401       400      2021      2022      2017
 -1       647    8    0    1
 -2       250       251       402      1567      2023      2024
 -1       648    8    0    1
 -2       250       402       401      2024      2025      2020
 -1       649    8    0    1
 -2       251       252       403      1570      2026      2027
 -1       650    8    0    1
 -2       251       403       402      2027      2028      2023
 -1       651    8    0    1
 -2       252       253       404      1573      2029      2030
 -1       652    8    0    1
 -2       252       404       403      2030      2031      2026
 -1       653    8    0    1
 -2       253       254       405      1576      2032      2033
 -1       654    8    0    1
 -2       253       405       404      2033      2034      2029
 -1       655    8    0    1
 -2       254       255       406      1579      2035      2036
 -1       656    8    0    1
 -2       254       406       405      2036      2037      2032
 -1       657    8    0    1
 -2       255       256       407      1582      2038      2039
 -1       658    8    0    1
 -2       255       407       406      2039      2040      2035
 -1       659    8    0    1
 -2       256       257       408      1585      2041      2042
 -1       660    8    0    1
 -2       256       408       407      2042      2043      2038
 -1       661    8    0    1
 -2       257       258       409      1588      2044      2045
 -1       662    8    0    1
 -2       257       409       408      2045      2046      2041
 -1       663    8    0    1
 -2       258       259       410      1591      2047      2048
 -1       664    8    0    1
 -2       258       410       409      2048      2049      2044
 -1       665    8    0    1
 -2       259       260       411      1594      2050      2051
 -1       666    8    0    1
 -2       259       411       410      2051      2052      2047
 -1       667    8    0    1
 -2       260       261       412      1597      2053      2054
 -1       668    8    0    1
 -2       260       412       411      2054      2055      2050
 -1       669    8    0    1
 -2       261       262       413      1600      2056      2057
 -1       670    8    0    1
 -2       261       413       412      2057      2058      2053
 -1       671    8    0    1
 -2       262       263       414      1603      2059      2060
 -1       672    8    0    1
 -2       262       414       413      2060      2061      2056
 -1       673    8    0    1
 -2       263       264       415      1606      2062      2063
 -1       674    8    0    1
 -2       263       415       414      2063      2064      2059
 -1       675    8    0    1
 -2       264       265       416      1609      2065      2066
 -1       676    8    0    1
 -2       264       416       415      2066      2067      2062
 -1       677    8    0    1
 -2       265       266       417      1612      2068      2069
 -1       678    8    0    1
 -2       265       417       416      2069      2070      2065
 -1       679    8    0    1
 -2       266       267       418      1615      2071      2072
 -1       680    8    0    1
 -2       266       418       417      2072      2073      2068
 -1       681    8    0    1
 -2       267       268       419      1618      2074      2075
 -1       682    8    0    1
 -2       267       419       418      2075      2076      2071
 -1       683    8    0    1
 -2       268       269       420      1621      2077      2078
 -1       684    8    0    1
 -2       268       420       419      2078      2079      2074
 -1       685    8    0    1
 -2       269       270       421      1624      2080      2081
 -1       686    8    0    1
 -2       269       421       420      2081      2082      2077
 -1       687    8    0    1
 -2       270       271       422      1627      2083      2084
 -1       688    8    0    1
 -2       270       422       421      2084      2085      2080
 -1       689    8    0    1
 -2       271       272       423      1630      2086      2087
 -1       690    8    0    1
 -2       271       423       422      2087      2088      2083
 -1       691    8    0    1
 -2       272       273       424      1633      2089      2090
 -1       692    8    0    1
 -2       272       424       423      2090      2091      2086
 -1       693    8    0    1
 -2       273       274       425      1636      2092      2093
 -1       694    8    0    1
 -2       273       425       424      2093      2094      2089
 -1       695    8    0    1
 -2       274       275       426      1639      2095      2096
 -1       696    8    0    1
 -2       425       274       426      2092      2096      2097
 -1       697    8    0    1
 -2       275       276       426      1747      2098      2095
 -1       698    8    0    1
 -2       278       279       427      1651      2099      2100
 -1       699    8    0    1
 -2       277       278       428      1648      2101      2102
 -1       700    8    0    1
 -2       278       427       428      2100      2103      2101
 -1       701    8    0    1
 -2       276       277       429      1645      2104      2105
 -1       702    8    0    1
 -2       426       276       429      2098      2105      2106
 -1       703    8    0    1
 -2       277       428       429      2102      2107      2104
 -1       704    8    0    1
 -2       279       280       430      1654      2108      2109
 -1       705    8    0    1
 -2       279       430       427      2109      2110      2099
 -1       706    8    0    1
 -2       280       281       431      1657      2111      2112
 -1       707    8    0    1
 -2       280       431       430      2112      2113      2108
 -1       708    8    0    1
 -2       281       282       432      1660      2114      2115
 -1       709    8    0    1
 -2       281       432       431      2115      2116      2111
 -1       710    8    0    1
 -2       282       283       433      1663      2117      2118
 -1       711    8    0    1
 -2       282       433       432      2118      2119      2114
 -1       712    8    0    1
 -2       283       284       434      1666      2120      2121
 -1       713    8    0    1
 -2       283       434       433      2121      2122      2117
 -1       714    8    0    1
 -2       284       285       435      1669      2123      2124
 -1       715    8    0    1
 -2       284       435       434      2124      2125      2120
 -1       716    8    0    1
 -2       285       286       436      1672      2126      2127
 -1       717    8    0    1
 -2       285       436       435      2127      2128      2123
 -1       718    8    0    1
 -2       286       287       437      1675      2129      2130
 -1       719    8    0    1
 -2       286       437       436      2130      2131      2126
 -1       720    8    0    1
 -2       287       288       438      1678      2132      2133
 -1       721    8    0    1
 -2       287       438       437      2133      2134      2129
 -1       722    8    0    1
 -2       288       289       439      1681      2135      2136
 -1       723    8    0    1
 -2       288       439       438      2136      2137      2132
 -1       724    8    0    1
 -2       292       293       440      1749      2138      2139
 -1       725    8    0    1
 -2       319       291       441      1750      2140      2141
 -1       726    8    0    1
 -2       291       292       442      1748      2142      2143
 -1       727    8    0    1
 -2       292       440       442      2139      2144      2142
 -1       728    8    0    1
 -2       293       294       443      1745      2145      2146
 -1       729    8    0    1
 -2       294       295       444      1744      2147      2148
 -1       730    8    0    1
 -2       166       167       445      1313      2149      2150
 -1       731    8    0    1
 -2       320       166       445      1776      2150      2151
 -1       732    8    0    1
 -2       167       322       445      1782      2152      2149
 -1       733    8    0    1
 -2       296       297       446      1752      2153      2154
 -1       734    8    0    1
 -2       297       298       447      1753      2155      2156
 -1       735    8    0    1
 -2       298       299       448      1754      2157      2158
 -1       736    8    0    1
 -2       299       300       449      1755      2159      2160
 -1       737    8    0    1
 -2       300       301       450      1756      2161      2162
 -1       738    8    0    1
 -2       301       302       451      1757      2163      2164
 -1       739    8    0    1
 -2       302       303       452      1758      2165      2166
 -1       740    8    0    1
 -2       303       304       453      1759      2167      2168
 -1       741    8    0    1
 -2       304       305       454      1760      2169      2170
 -1       742    8    0    1
 -2       305       306       455      1761      2171      2172
 -1       743    8    0    1
 -2       305       455       454      2172      2173      2169
 -1       744    8    0    1
 -2       306       307       456      1762      2174      2175
 -1       745    8    0    1
 -2       307       308       457      1763      2176      2177
 -1       746    8    0    1
 -2       307       457       456      2177      2178      2174
 -1       747    8    0    1
 -2       308       309       458      1764      2179      2180
 -1       748    8    0    1
 -2       309       310       459      1765      2181      2182
 -1       749    8    0    1
 -2       310       311       460      1766      2183      2184
 -1       750    8    0    1
 -2       310       460       459      2184      2185      2181
 -1       751    8    0    1
 -2       311       312       461      1767      2186      2187
 -1       752    8    0    1
 -2       312       313       462      1768      2188      2189
 -1       753    8    0    1
 -2       313       314       463      1769      2190      2191
 -1       754    8    0    1
 -2       314       315       464      1770      2192      2193
 -1       755    8    0    1
 -2       314       464       463      2193      2194      2190
 -1       756    8    0    1
 -2       315       316       465      1771      2195      2196
 -1       757    8    0    1
 -2       316       317       466      1772      2197      2198
 -1       758    8    0    1
 -2       317       318       467      1773      2199      2200
 -1       759    8    0    1
 -2       318       319       468      1774      2201      2202
 -1       760    8    0    1
 -2       319       441       468      2141      2203      2201
 -1       761    8    0    1
 -2       295       296       469      1751      2204      2205
 -1       762    8    0    1
 -2       296       446       469      2154      2206      2204
 -1       763    8    0    1
 -2       444       295       469      2147      2205      2207
 -1       764    8    0    1
 -2       180       321       181      1821      2208      1355
 -1       765    8    0    1
 -2       335       181       321      1822      2208      2209
 -1       766    8    0    1
 -2       441       291       470      2140      2210      2211
 -1       767    8    0    1
 -2       291       442       470      2143      2212      2210
 -1       768    8    0    1
 -2       293       443       440      2146      2213      2138
 -1       769    8    0    1
 -2       439       289       290      2135      1684      2214
 -1       770    8    0    1
 -2       443       294       444      2145      2148      2215
 -1       771    8    0    1
 -2       467       318       468      2199      2202      2216
 -1       772    8    0    1
 -2       466       317       467      2197      2200      2217
 -1       773    8    0    1
 -2       464       315       465      2192      2196      2218
 -1       774    8    0    1
 -2       462       313       463      2188      2191      2219
 -1       775    8    0    1
 -2       460       311       461      2183      2187      2220
 -1       776    8    0    1
 -2       457       308       458      2176      2180      2221
 -1       777    8    0    1
 -2       455       306       471      2171      2222      2223
 -1       778    8    0    1
 -2       306       456       471      2175      2224      2222
 -1       779    8    0    1
 -2       453       304       454      2167      2170      2225
 -1       780    8    0    1
 -2       452       303       453      2165      2168      2226
 -1       781    8    0    1
 -2       451       302       452      2163      2166      2227
 -1       782    8    0    1
 -2       450       301       451      2161      2164      2228
 -1       783    8    0    1
 -2       449       300       450      2159      2162      2229
 -1       784    8    0    1
 -2       448       299       449      2157      2160      2230
 -1       785    8    0    1
 -2       446       297       472      2153      2231      2232
 -1       786    8    0    1
 -2       297       447       472      2156      2233      2231
 -1       787    8    0    1
 -2       447       298       448      2155      2158      2234
 -1       788    8    0    1
 -2       458       309       459      2179      2182      2235
 -1       789    8    0    1
 -2       461       312       462      2186      2189      2236
 -1       790    8    0    1
 -2       465       316       466      2195      2198      2237
 -1       791    8    0    1
 -2       334       381       473      1962      2238      2239
 -1       792    8    0    1
 -2       323       324       474      1788      2240      2241
 -1       793    8    0    1
 -2       322       323       475      1785      2242      2243
 -1       794    8    0    1
 -2       323       474       475      2241      2244      2242
 -1       795    8    0    1
 -2       325       326       476      1794      2245      2246
 -1       796    8    0    1
 -2       326       327       477      1797      2247      2248
 -1       797    8    0    1
 -2       326       477       476      2248      2249      2245
 -1       798    8    0    1
 -2       327       328       478      1800      2250      2251
 -1       799    8    0    1
 -2       327       478       477      2251      2252      2247
 -1       800    8    0    1
 -2       328       329       479      1803      2253      2254
 -1       801    8    0    1
 -2       328       479       478      2254      2255      2250
 -1       802    8    0    1
 -2       329       330       480      1806      2256      2257
 -1       803    8    0    1
 -2       329       480       479      2257      2258      2253
 -1       804    8    0    1
 -2       330       331       481      1809      2259      2260
 -1       805    8    0    1
 -2       330       481       480      2260      2261      2256
 -1       806    8    0    1
 -2       381       382       482      1965      2262      2263
 -1       807    8    0    1
 -2       381       482       473      2263      2264      2238
 -1       808    8    0    1
 -2       336       335       483      1826      2265      2266
 -1       809    8    0    1
 -2       335       321       484      2209      2267      2268
 -1       810    8    0    1
 -2       483       335       484      2265      2268      2269
 -1       811    8    0    1
 -2       321       320       484      1780      2270      2267
 -1       812    8    0    1
 -2       444       469       485      2207      2271      2272
 -1       813    8    0    1
 -2       337       336       486      1829      2273      2274
 -1       814    8    0    1
 -2       336       483       486      2266      2275      2273
 -1       815    8    0    1
 -2       338       337       487      1832      2276      2277
 -1       816    8    0    1
 -2       337       486       487      2274      2278      2276
 -1       817    8    0    1
 -2       339       338       488      1835      2279      2280
 -1       818    8    0    1
 -2       338       487       488      2277      2281      2279
 -1       819    8    0    1
 -2       340       339       489      1838      2282      2283
 -1       820    8    0    1
 -2       339       488       489      2280      2284      2282
 -1       821    8    0    1
 -2       341       340       490      1841      2285      2286
 -1       822    8    0    1
 -2       340       489       490      2283      2287      2285
 -1       823    8    0    1
 -2       342       341       491      1844      2288      2289
 -1       824    8    0    1
 -2       341       490       491      2286      2290      2288
 -1       825    8    0    1
 -2       343       342       492      1847      2291      2292
 -1       826    8    0    1
 -2       342       491       492      2289      2293      2291
 -1       827    8    0    1
 -2       344       343       493      1850      2294      2295
 -1       828    8    0    1
 -2       343       492       493      2292      2296      2294
 -1       829    8    0    1
 -2       345       344       494      1853      2297      2298
 -1       830    8    0    1
 -2       344       493       494      2295      2299      2297
 -1       831    8    0    1
 -2       346       345       495      1856      2300      2301
 -1       832    8    0    1
 -2       345       494       495      2298      2302      2300
 -1       833    8    0    1
 -2       347       346       496      1859      2303      2304
 -1       834    8    0    1
 -2       346       495       496      2301      2305      2303
 -1       835    8    0    1
 -2       348       347       497      1862      2306      2307
 -1       836    8    0    1
 -2       347       496       497      2304      2308      2306
 -1       837    8    0    1
 -2       349       348       498      1865      2309      2310
 -1       838    8    0    1
 -2       348       497       498      2307      2311      2309
 -1       839    8    0    1
 -2       350       349       499      1868      2312      2313
 -1       840    8    0    1
 -2       349       498       499      2310      2314      2312
 -1       841    8    0    1
 -2       351       350       500      1871      2315      2316
 -1       842    8    0    1
 -2       350       499       500      2313      2317      2315
 -1       843    8    0    1
 -2       352       351       501      1874      2318      2319
 -1       844    8    0    1
 -2       351       500       501      2316      2320      2318
 -1       845    8    0    1
 -2       353       352       502      1877      2321      2322
 -1       846    8    0    1
 -2       352       501       502      2319      2323      2321
 -1       847    8    0    1
 -2       354       353       503      1880      2324      2325
 -1       848    8    0    1
 -2       353       502       503      2322      2326      2324
 -1       849    8    0    1
 -2       355       354       504      1883      2327      2328
 -1       850    8    0    1
 -2       354       503       504      2325      2329      2327
 -1       851    8    0    1
 -2       356       355       505      1886      2330      2331
 -1       852    8    0    1
 -2       355       504       505      2328      2332      2330
 -1       853    8    0    1
 -2       357       356       506      1889      2333      2334
 -1       854    8    0    1
 -2       356       505       506      2331      2335      2333
 -1       855    8    0    1
 -2       358       357       507      1892      2336      2337
 -1       856    8    0    1
 -2       357       506       507      2334      2338      2336
 -1       857    8    0    1
 -2       359       358       508      1895      2339      2340
 -1       858    8    0    1
 -2       358       507       508      2337      2341      2339
 -1       859    8    0    1
 -2       360       359       509      1898      2342      2343
 -1       860    8    0    1
 -2       359       508       509      2340      2344      2342
 -1       861    8    0    1
 -2       361       360       510      1901      2345      2346
 -1       862    8    0    1
 -2       360       509       510      2343      2347      2345
 -1       863    8    0    1
 -2       362       361       511      1904      2348      2349
 -1       864    8    0    1
 -2       361       510       511      2346      2350      2348
 -1       865    8    0    1
 -2       363       362       512      1907      2351      2352
 -1       866    8    0    1
 -2       362       511       512      2349      2353      2351
 -1       867    8    0    1
 -2       364       363       513      1910      2354      2355
 -1       868    8    0    1
 -2       363       512       513      2352      2356      2354
 -1       869    8    0    1
 -2       365       364       514      1913      2357      2358
 -1       870    8    0    1
 -2       364       513       514      2355      2359      2357
 -1       871    8    0    1
 -2       366       365       515      1916      2360      2361
 -1       872    8    0    1
 -2       365       514       515      2358      2362      2360
 -1       873    8    0    1
 -2       367       366       516      1919      2363      2364
 -1       874    8    0    1
 -2       366       515       516      2361      2365      2363
 -1       875    8    0    1
 -2       368       367       517      1922      2366      2367
 -1       876    8    0    1
 -2       367       516       517      2364      2368      2366
 -1       877    8    0    1
 -2       369       368       518      1925      2369      2370
 -1       878    8    0    1
 -2       368       517       518      2367      2371      2369
 -1       879    8    0    1
 -2       370       369       519      1928      2372      2373
 -1       880    8    0    1
 -2       369       518       519      2370      2374      2372
 -1       881    8    0    1
 -2       371       370       520      1931      2375      2376
 -1       882    8    0    1
 -2       370       519       520      2373      2377      2375
 -1       883    8    0    1
 -2       372       371       521      1934      2378      2379
 -1       884    8    0    1
 -2       371       520       521      2376      2380      2378
 -1       885    8    0    1
 -2       373       372       522      1937      2381      2382
 -1       886    8    0    1
 -2       372       521       522      2379      2383      2381
 -1       887    8    0    1
 -2       374       373       523      1940      2384      2385
 -1       888    8    0    1
 -2       373       522       523      2382      2386      2384
 -1       889    8    0    1
 -2       375       374       524      1943      2387      2388
 -1       890    8    0    1
 -2       374       523       524      2385      2389      2387
 -1       891    8    0    1
 -2       376       375       525      1946      2390      2391
 -1       892    8    0    1
 -2       375       524       525      2388      2392      2390
 -1       893    8    0    1
 -2       377       376       526      1949      2393      2394
 -1       894    8    0    1
 -2       376       525       526      2391      2395      2393
 -1       895    8    0    1
 -2       378       377       527      1952      2396      2397
 -1       896    8    0    1
 -2       377       526       527      2394      2398      2396
 -1       897    8    0    1
 -2       379       378       528      1955      2399      2400
 -1       898    8    0    1
 -2       378       527       528      2397      2401      2399
 -1       899    8    0    1
 -2       442       440       529      2144      2402      2403
 -1       900    8    0    1
 -2       383       384       530      1971      2404      2405
 -1       901    8    0    1
 -2       384       385       531      1974      2406      2407
 -1       902    8    0    1
 -2       384       531       530      2407      2408      2404
 -1       903    8    0    1
 -2       385       386       532      1977      2409      2410
 -1       904    8    0    1
 -2       385       532       531      2410      2411      2406
 -1       905    8    0    1
 -2       386       387       533      1980      2412      2413
 -1       906    8    0    1
 -2       386       533       532      2413      2414      2409
 -1       907    8    0    1
 -2       387       388       534      1983      2415      2416
 -1       908    8    0    1
 -2       387       534       533      2416      2417      2412
 -1       909    8    0    1
 -2       388       389       535      1986      2418      2419
 -1       910    8    0    1
 -2       388       535       534      2419      2420      2415
 -1       911    8    0    1
 -2       389       390       536      1989      2421      2422
 -1       912    8    0    1
 -2       389       536       535      2422      2423      2418
 -1       913    8    0    1
 -2       390       391       537      1992      2424      2425
 -1       914    8    0    1
 -2       390       537       536      2425      2426      2421
 -1       915    8    0    1
 -2       391       392       538      1995      2427      2428
 -1       916    8    0    1
 -2       391       538       537      2428      2429      2424
 -1       917    8    0    1
 -2       392       393       539      1998      2430      2431
 -1       918    8    0    1
 -2       392       539       538      2431      2432      2427
 -1       919    8    0    1
 -2       393       394       540      2001      2433      2434
 -1       920    8    0    1
 -2       393       540       539      2434      2435      2430
 -1       921    8    0    1
 -2       394       395       541      2004      2436      2437
 -1       922    8    0    1
 -2       394       541       540      2437      2438      2433
 -1       923    8    0    1
 -2       395       396       542      2007      2439      2440
 -1       924    8    0    1
 -2       395       542       541      2440      2441      2436
 -1       925    8    0    1
 -2       396       397       543      2010      2442      2443
 -1       926    8    0    1
 -2       396       543       542      2443      2444      2439
 -1       927    8    0    1
 -2       397       398       544      2013      2445      2446
 -1       928    8    0    1
 -2       397       544       543      2446      2447      2442
 -1       929    8    0    1
 -2       398       399       545      2016      2448      2449
 -1       930    8    0    1
 -2       398       545       544      2449      2450      2445
 -1       931    8    0    1
 -2       399       400       546      2019      2451      2452
 -1       932    8    0    1
 -2       399       546       545      2452      2453      2448
 -1       933    8    0    1
 -2       400       401       547      2022      2454      2455
 -1       934    8    0    1
 -2       400       547       546      2455      2456      2451
 -1       935    8    0    1
 -2       401       402       548      2025      2457      2458
 -1       936    8    0    1
 -2       401       548       547      2458      2459      2454
 -1       937    8    0    1
 -2       402       403       549      2028      2460      2461
 -1       938    8    0    1
 -2       402       549       548      2461      2462      2457
 -1       939    8    0    1
 -2       403       404       550      2031      2463      2464
 -1       940    8    0    1
 -2       403       550       549      2464      2465      2460
 -1       941    8    0    1
 -2       404       405       551      2034      2466      2467
 -1       942    8    0    1
 -2       404       551       550      2467      2468      2463
 -1       943    8    0    1
 -2       405       406       552      2037      2469      2470
 -1       944    8    0    1
 -2       405       552       551      2470      2471      2466
 -1       945    8    0    1
 -2       406       407       553      2040      2472      2473
 -1       946    8    0    1
 -2       406       553       552      2473      2474      2469
 -1       947    8    0    1
 -2       407       408       554      2043      2475      2476
 -1       948    8    0    1
 -2       407       554       553      2476      2477      2472
 -1       949    8    0    1
 -2       408       409       555      2046      2478      2479
 -1       950    8    0    1
 -2       408       555       554      2479      2480      2475
 -1       951    8    0    1
 -2       409       410       556      2049      2481      2482
 -1       952    8    0    1
 -2       409       556       555      2482      2483      2478
 -1       953    8    0    1
 -2       410       411       557      2052      2484      2485
 -1       954    8    0    1
 -2       410       557       556      2485      2486      2481
 -1       955    8    0    1
 -2       411       412       558      2055      2487      2488
 -1       956    8    0    1
 -2       411       558       557      2488      2489      2484
 -1       957    8    0    1
 -2       412       413       559      2058      2490      2491
 -1       958    8    0    1
 -2       412       559       558      2491      2492      2487
 -1       959    8    0    1
 -2       413       414       560      2061      2493      2494
 -1       960    8    0    1
 -2       413       560       559      2494      2495      2490
 -1       961    8    0    1
 -2       414       415       561      2064      2496      2497
 -1       962    8    0    1
 -2       414       561       560      2497      2498      2493
 -1       963    8    0    1
 -2       415       416       562      2067      2499      2500
 -1       964    8    0    1
 -2       415       562       561      2500      2501      2496
 -1       965    8    0    1
 -2       416       417       563      2070      2502      2503
 -1       966    8    0    1
 -2       416       563       562      2503      2504      2499
 -1       967    8    0    1
 -2       417       418       564      2073      2505      2506
 -1       968    8    0    1
 -2       417       564       563      2506      2507      2502
 -1       969    8    0    1
 -2       418       419       565      2076      2508      2509
 -1       970    8    0    1
 -2       418       565       564      2509      2510      2505
 -1       971    8    0    1
 -2       419       420       566      2079      2511      2512
 -1       972    8    0    1
 -2       419       566       565      2512      2513      2508
 -1       973    8    0    1
 -2       420       421       567      2082      2514      2515
 -1       974    8    0    1
 -2       420       567       566      2515      2516      2511
 -1       975    8    0    1
 -2       421       422       568      2085      2517      2518
 -1       976    8    0    1
 -2       421       568       567      2518      2519      2514
 -1       977    8    0    1
 -2       422       423       569      2088      2520      2521
 -1       978    8    0    1
 -2       422       569       568      2521      2522      2517
 -1       979    8    0    1
 -2       423       424       570      2091      2523      2524
 -1       980    8    0    1
 -2       423       570       569      2524      2525      2520
 -1       981    8    0    1
 -2       424       425       571      2094      2526      2527
 -1       982    8    0    1
 -2       424       571       570      2527      2528      2523
 -1       983    8    0    1
 -2       425       426       429      2097      2106      2529
 -1       984    8    0    1
 -2       430       431       572      2113      2530      2531
 -1       985    8    0    1
 -2       431       432       573      2116      2532      2533
 -1       986    8    0    1
 -2       431       573       572      2533      2534      2530
 -1       987    8    0    1
 -2       428       427       574      2103      2535      2536
 -1       988    8    0    1
 -2       427       430       575      2110      2537      2538
 -1       989    8    0    1
 -2       574       427       575      2535      2538      2539
 -1       990    8    0    1
 -2       430       572       575      2531      2540      2537
 -1       991    8    0    1
 -2       432       433       576      2119      2541      2542
 -1       992    8    0    1
 -2       432       576       573      2542      2543      2532
 -1       993    8    0    1
 -2       433       434       577      2122      2544      2545
 -1       994    8    0    1
 -2       433       577       576      2545      2546      2541
 -1       995    8    0    1
 -2       434       435       578      2125      2547      2548
 -1       996    8    0    1
 -2       434       578       577      2548      2549      2544
 -1       997    8    0    1
 -2       435       436       579      2128      2550      2551
 -1       998    8    0    1
 -2       435       579       578      2551      2552      2547
 -1       999    8    0    1
 -2       436       437       580      2131      2553      2554
 -1      1000    8    0    1
 -2       436       580       579      2554      2555      2550
 -1      1001    8    0    1
 -2       437       438       581      2134      2556      2557
 -1      1002    8    0    1
 -2       437       581       580      2557      2558      2553
 -1      1003    8    0    1
 -2       438       439       582      2137      2559      2560
 -1      1004    8    0    1
 -2       438       582       581      2560      2561      2556
 -1      1005    8    0    1
 -2       439       290       380      2214      1958      2562
 -1      1006    8    0    1
 -2       443       444       583      2215      2563      2564
 -1      1007    8    0    1
 -2       382       383       584      1968      2565      2566
 -1      1008    8    0    1
 -2       383       530       584      2405      2567      2565
 -1      1009    8    0    1
 -2       440       443       585      2213      2568      2569
 -1      1010    8    0    1
 -2       443       583       585      2564      2570      2568
 -1      1011    8    0    1
 -2       467       468       586      2216      2571      2572
 -1      1012    8    0    1
 -2       468       441       587      2203      2573      2574
 -1      1013    8    0    1
 -2       462       463       588      2219      2575      2576
 -1      1014    8    0    1
 -2       457       458       589      2221      2577      2578
 -1      1015    8    0    1
 -2       453       454       590      2225      2579      2580
 -1      1016    8    0    1
 -2       324       325       591      1791      2581      2582
 -1      1017    8    0    1
 -2       474       324       591      2240      2582      2583
 -1      1018    8    0    1
 -2       325       476       591      2246      2584      2581
 -1      1019    8    0    1
 -2       447       448       592      2234      2585      2586
 -1      1020    8    0    1
 -2       458       459       593      2235      2587      2588
 -1      1021    8    0    1
 -2       448       449       594      2230      2589      2590
 -1      1022    8    0    1
 -2       449       450       595      2229      2591      2592
 -1      1023    8    0    1
 -2       450       451       596      2228      2593      2594
 -1      1024    8    0    1
 -2       450       596       595      2594      2595      2591
 -1      1025    8    0    1
 -2       451       452       597      2227      2596      2597
 -1      1026    8    0    1
 -2       452       453       598      2226      2598      2599
 -1      1027    8    0    1
 -2       452       598       597      2599      2600      2596
 -1      1028    8    0    1
 -2       454       455       599      2173      2601      2602
 -1      1029    8    0    1
 -2       454       599       590      2602      2603      2579
 -1      1030    8    0    1
 -2       456       457       600      2178      2604      2605
 -1      1031    8    0    1
 -2       461       462       601      2236      2606      2607
 -1      1032    8    0    1
 -2       459       460       602      2185      2608      2609
 -1      1033    8    0    1
 -2       465       466       603      2237      2610      2611
 -1      1034    8    0    1
 -2       460       461       604      2220      2612      2613
 -1      1035    8    0    1
 -2       460       604       602      2613      2614      2608
 -1      1036    8    0    1
 -2       463       464       605      2194      2615      2616
 -1      1037    8    0    1
 -2       464       465       606      2218      2617      2618
 -1      1038    8    0    1
 -2       466       467       607      2217      2619      2620
 -1      1039    8    0    1
 -2       466       607       603      2620      2621      2610
 -1      1040    8    0    1
 -2       469       446       608      2206      2622      2623
 -1      1041    8    0    1
 -2       469       608       485      2623      2624      2271
 -1      1042    8    0    1
 -2       333       334       609      1820      2625      2626
 -1      1043    8    0    1
 -2       332       333       609      1815      2626      2627
 -1      1044    8    0    1
 -2       334       473       609      2239      2628      2625
 -1      1045    8    0    1
 -2       447       592       472      2586      2629      2233
 -1      1046    8    0    1
 -2       322       475       610      2243      2630      2631
 -1      1047    8    0    1
 -2       322       610       445      2631      2632      2152
 -1      1048    8    0    1
 -2       482       382       584      2262      2566      2633
 -1      1049    8    0    1
 -2       331       332       609      1812      2627      2634
 -1      1050    8    0    1
 -2       607       467       586      2619      2572      2635
 -1      1051    8    0    1
 -2       606       465       603      2617      2611      2636
 -1      1052    8    0    1
 -2       470       442       611      2212      2637      2638
 -1      1053    8    0    1
 -2       442       529       611      2403      2639      2637
 -1      1054    8    0    1
 -2       529       440       585      2402      2569      2640
 -1      1055    8    0    1
 -2       425       429       571      2529      2641      2526
 -1      1056    8    0    1
 -2       587       441       612      2573      2642      2643
 -1      1057    8    0    1
 -2       441       470       612      2211      2644      2642
 -1      1058    8    0    1
 -2       429       428       571      2107      2645      2641
 -1      1059    8    0    1
 -2       604       461       601      2612      2607      2646
 -1      1060    8    0    1
 -2       439       380       613      2562      2647      2648
 -1      1061    8    0    1
 -2       582       439       613      2559      2648      2649
 -1      1062    8    0    1
 -2       380       379       613      1959      2650      2647
 -1      1063    8    0    1
 -2       463       605       588      2616      2651      2575
 -1      1064    8    0    1
 -2       583       444       485      2563      2272      2652
 -1      1065    8    0    1
 -2       331       609       481      2634      2653      2259
 -1      1066    8    0    1
 -2       571       428       574      2645      2536      2654
 -1      1067    8    0    1
 -2       586       468       587      2571      2574      2655
 -1      1068    8    0    1
 -2       601       462       588      2606      2576      2656
 -1      1069    8    0    1
 -2       598       453       614      2598      2657      2658
 -1      1070    8    0    1
 -2       453       590       614      2580      2659      2657
 -1      1071    8    0    1
 -2       596       451       597      2593      2597      2660
 -1      1072    8    0    1
 -2       457       589       600      2578      2661      2604
 -1      1073    8    0    1
 -2       594       449       595      2589      2592      2662
 -1      1074    8    0    1
 -2       471       456       615      2224      2663      2664
 -1      1075    8    0    1
 -2       456       600       615      2605      2665      2663
 -1      1076    8    0    1
 -2       589       458       593      2577      2588      2666
 -1      1077    8    0    1
 -2       593       459       602      2587      2609      2667
 -1      1078    8    0    1
 -2       320       445       616      2151      2668      2669
 -1      1079    8    0    1
 -2       484       320       616      2270      2669      2670
 -1      1080    8    0    1
 -2       445       610       616      2632      2671      2668
 -1      1081    8    0    1
 -2       448       594       592      2590      2672      2585
 -1      1082    8    0    1
 -2       446       472       617      2232      2673      2674
 -1      1083    8    0    1
 -2       446       617       608      2674      2675      2622
 -1      1084    8    0    1
 -2       599       455       618      2601      2676      2677
 -1      1085    8    0    1
 -2       455       471       618      2223      2678      2676
 -1      1086    8    0    1
 -2       605       464       606      2615      2618      2679
 -1      1087    8    0    1
 -2       613       379       528      2650      2400      2680
 -1      1088    8    0    1
 -2       477       478       619      2252      2681      2682
 -1      1089    8    0    1
 -2       476       477       620      2249      2683      2684
 -1      1090    8    0    1
 -2       477       619       620      2682      2685      2683
 -1      1091    8    0    1
 -2       479       480       621      2258      2686      2687
 -1      1092    8    0    1
 -2       480       481       622      2261      2688      2689
 -1      1093    8    0    1
 -2       480       622       621      2689      2690      2686
 -1      1094    8    0    1
 -2       473       482       623      2264      2691      2692
 -1      1095    8    0    1
 -2       571       574       624      2654      2693      2694
 -1      1096    8    0    1
 -2       571       624       570      2694      2695      2528
 -1      1097    8    0    1
 -2       482       584       625      2633      2696      2697
 -1      1098    8    0    1
 -2       482       625       623      2697      2698      2691
 -1      1099    8    0    1
 -2       607       586       626      2635      2699      2700
 -1      1100    8    0    1
 -2       483       484       627      2269      2701      2702
 -1      1101    8    0    1
 -2       484       616       627      2670      2703      2701
 -1      1102    8    0    1
 -2       486       483       628      2275      2704      2705
 -1      1103    8    0    1
 -2       483       627       628      2702      2706      2704
 -1      1104    8    0    1
 -2       606       603       629      2636      2707      2708
 -1      1105    8    0    1
 -2       487       486       630      2278      2709      2710
 -1      1106    8    0    1
 -2       486       628       630      2705      2711      2709
 -1      1107    8    0    1
 -2       488       487       631      2281      2712      2713
 -1      1108    8    0    1
 -2       487       630       631      2710      2714      2712
 -1      1109    8    0    1
 -2       489       488       632      2284      2715      2716
 -1      1110    8    0    1
 -2       488       631       632      2713      2717      2715
 -1      1111    8    0    1
 -2       490       489       633      2287      2718      2719
 -1      1112    8    0    1
 -2       489       632       633      2716      2720      2718
 -1      1113    8    0    1
 -2       491       490       634      2290      2721      2722
 -1      1114    8    0    1
 -2       490       633       634      2719      2723      2721
 -1      1115    8    0    1
 -2       492       491       635      2293      2724      2725
 -1      1116    8    0    1
 -2       491       634       635      2722      2726      2724
 -1      1117    8    0    1
 -2       493       492       636      2296      2727      2728
 -1      1118    8    0    1
 -2       492       635       636      2725      2729      2727
 -1      1119    8    0    1
 -2       494       493       637      2299      2730      2731
 -1      1120    8    0    1
 -2       493       636       637      2728      2732      2730
 -1      1121    8    0    1
 -2       495       494       638      2302      2733      2734
 -1      1122    8    0    1
 -2       494       637       638      2731      2735      2733
 -1      1123    8    0    1
 -2       496       495       639      2305      2736      2737
 -1      1124    8    0    1
 -2       495       638       639      2734      2738      2736
 -1      1125    8    0    1
 -2       497       496       640      2308      2739      2740
 -1      1126    8    0    1
 -2       496       639       640      2737      2741      2739
 -1      1127    8    0    1
 -2       498       497       641      2311      2742      2743
 -1      1128    8    0    1
 -2       497       640       641      2740      2744      2742
 -1      1129    8    0    1
 -2       499       498       642      2314      2745      2746
 -1      1130    8    0    1
 -2       498       641       642      2743      2747      2745
 -1      1131    8    0    1
 -2       500       499       643      2317      2748      2749
 -1      1132    8    0    1
 -2       499       642       643      2746      2750      2748
 -1      1133    8    0    1
 -2       501       500       644      2320      2751      2752
 -1      1134    8    0    1
 -2       500       643       644      2749      2753      2751
 -1      1135    8    0    1
 -2       502       501       645      2323      2754      2755
 -1      1136    8    0    1
 -2       501       644       645      2752      2756      2754
 -1      1137    8    0    1
 -2       503       502       646      2326      2757      2758
 -1      1138    8    0    1
 -2       502       645       646      2755      2759      2757
 -1      1139    8    0    1
 -2       504       503       647      2329      2760      2761
 -1      1140    8    0    1
 -2       503       646       647      2758      2762      2760
 -1      1141    8    0    1
 -2       505       504       648      2332      2763      2764
 -1      1142    8    0    1
 -2       504       647       648      2761      2765      2763
 -1      1143    8    0    1
 -2       506       505       649      2335      2766      2767
 -1      1144    8    0    1
 -2       505       648       649      2764      2768      2766
 -1      1145    8    0    1
 -2       507       506       650      2338      2769      2770
 -1      1146    8    0    1
 -2       506       649       650      2767      2771      2769
 -1      1147    8    0    1
 -2       508       507       651      2341      2772      2773
 -1      1148    8    0    1
 -2       507       650       651      2770      2774      2772
 -1      1149    8    0    1
 -2       509       508       652      2344      2775      2776
 -1      1150    8    0    1
 -2       508       651       652      2773      2777      2775
 -1      1151    8    0    1
 -2       510       509       653      2347      2778      2779
 -1      1152    8    0    1
 -2       509       652       653      2776      2780      2778
 -1      1153    8    0    1
 -2       511       510       654      2350      2781      2782
 -1      1154    8    0    1
 -2       510       653       654      2779      2783      2781
 -1      1155    8    0    1
 -2       512       511       655      2353      2784      2785
 -1      1156    8    0    1
 -2       511       654       655      2782      2786      2784
 -1      1157    8    0    1
 -2       513       512       656      2356      2787      2788
 -1      1158    8    0    1
 -2       512       655       656      2785      2789      2787
 -1      1159    8    0    1
 -2       514       513       657      2359      2790      2791
 -1      1160    8    0    1
 -2       513       656       657      2788      2792      2790
 -1      1161    8    0    1
 -2       515       514       658      2362      2793      2794
 -1      1162    8    0    1
 -2       514       657       658      2791      2795      2793
 -1      1163    8    0    1
 -2       516       515       659      2365      2796      2797
 -1      1164    8    0    1
 -2       515       658       659      2794      2798      2796
 -1      1165    8    0    1
 -2       517       516       660      2368      2799      2800
 -1      1166    8    0    1
 -2       516       659       660      2797      2801      2799
 -1      1167    8    0    1
 -2       518       517       661      2371      2802      2803
 -1      1168    8    0    1
 -2       517       660       661      2800      2804      2802
 -1      1169    8    0    1
 -2       519       518       662      2374      2805      2806
 -1      1170    8    0    1
 -2       518       661       662      2803      2807      2805
 -1      1171    8    0    1
 -2       520       519       663      2377      2808      2809
 -1      1172    8    0    1
 -2       519       662       663      2806      2810      2808
 -1      1173    8    0    1
 -2       521       520       664      2380      2811      2812
 -1      1174    8    0    1
 -2       520       663       664      2809      2813      2811
 -1      1175    8    0    1
 -2       522       521       665      2383      2814      2815
 -1      1176    8    0    1
 -2       521       664       665      2812      2816      2814
 -1      1177    8    0    1
 -2       523       522       666      2386      2817      2818
 -1      1178    8    0    1
 -2       522       665       666      2815      2819      2817
 -1      1179    8    0    1
 -2       524       523       667      2389      2820      2821
 -1      1180    8    0    1
 -2       523       666       667      2818      2822      2820
 -1      1181    8    0    1
 -2       525       524       668      2392      2823      2824
 -1      1182    8    0    1
 -2       524       667       668      2821      2825      2823
 -1      1183    8    0    1
 -2       526       525       669      2395      2826      2827
 -1      1184    8    0    1
 -2       525       668       669      2824      2828      2826
 -1      1185    8    0    1
 -2       527       526       670      2398      2829      2830
 -1      1186    8    0    1
 -2       526       669       670      2827      2831      2829
 -1      1187    8    0    1
 -2       528       527       670      2401      2830      2832
 -1      1188    8    0    1
 -2       588       605       671      2651      2833      2834
 -1      1189    8    0    1
 -2       604       601       672      2646      2835      2836
 -1      1190    8    0    1
 -2       530       531       673      2408      2837      2838
 -1      1191    8    0    1
 -2       533       534       674      2417      2839      2840
 -1      1192    8    0    1
 -2       534       535       675      2420      2841      2842
 -1      1193    8    0    1
 -2       534       675       674      2842      2843      2839
 -1      1194    8    0    1
 -2       535       536       676      2423      2844      2845
 -1      1195    8    0    1
 -2       535       676       675      2845      2846      2841
 -1      1196    8    0    1
 -2       536       537       677      2426      2847      2848
 -1      1197    8    0    1
 -2       536       677       676      2848      2849      2844
 -1      1198    8    0    1
 -2       537       538       678      2429      2850      2851
 -1      1199    8    0    1
 -2       537       678       677      2851      2852      2847
 -1      1200    8    0    1
 -2       538       539       679      2432      2853      2854
 -1      1201    8    0    1
 -2       538       679       678      2854      2855      2850
 -1      1202    8    0    1
 -2       539       540       680      2435      2856      2857
 -1      1203    8    0    1
 -2       539       680       679      2857      2858      2853
 -1      1204    8    0    1
 -2       540       541       681      2438      2859      2860
 -1      1205    8    0    1
 -2       540       681       680      2860      2861      2856
 -1      1206    8    0    1
 -2       541       542       682      2441      2862      2863
 -1      1207    8    0    1
 -2       541       682       681      2863      2864      2859
 -1      1208    8    0    1
 -2       542       543       683      2444      2865      2866
 -1      1209    8    0    1
 -2       542       683       682      2866      2867      2862
 -1      1210    8    0    1
 -2       543       544       684      2447      2868      2869
 -1      1211    8    0    1
 -2       543       684       683      2869      2870      2865
 -1      1212    8    0    1
 -2       544       545       685      2450      2871      2872
 -1      1213    8    0    1
 -2       544       685       684      2872      2873      2868
 -1      1214    8    0    1
 -2       545       546       686      2453      2874      2875
 -1      1215    8    0    1
 -2       545       686       685      2875      2876      2871
 -1      1216    8    0    1
 -2       546       547       687      2456      2877      2878
 -1      1217    8    0    1
 -2       546       687       686      2878      2879      2874
 -1      1218    8    0    1
 -2       547       548       688      2459      2880      2881
 -1      1219    8    0    1
 -2       547       688       687      2881      2882      2877
 -1      1220    8    0    1
 -2       548       549       689      2462      2883      2884
 -1      1221    8    0    1
 -2       548       689       688      2884      2885      2880
 -1      1222    8    0    1
 -2       549       550       690      2465      2886      2887
 -1      1223    8    0    1
 -2       549       690       689      2887      2888      2883
 -1      1224    8    0    1
 -2       550       551       691      2468      2889      2890
 -1      1225    8    0    1
 -2       550       691       690      2890      2891      2886
 -1      1226    8    0    1
 -2       551       552       692      2471      2892      2893
 -1      1227    8    0    1
 -2       551       692       691      2893      2894      2889
 -1      1228    8    0    1
 -2       552       553       693      2474      2895      2896
 -1      1229    8    0    1
 -2       552       693       692      2896      2897      2892
 -1      1230    8    0    1
 -2       553       554       694      2477      2898      2899
 -1      1231    8    0    1
 -2       553       694       693      2899      2900      2895
 -1      1232    8    0    1
 -2       554       555       695      2480      2901      2902
 -1      1233    8    0    1
 -2       554       695       694      2902      2903      2898
 -1      1234    8    0    1
 -2       555       556       696      2483      2904      2905
 -1      1235    8    0    1
 -2       555       696       695      2905      2906      2901
 -1      1236    8    0    1
 -2       556       557       697      2486      2907      2908
 -1      1237    8    0    1
 -2       556       697       696      2908      2909      2904
 -1      1238    8    0    1
 -2       557       558       698      2489      2910      2911
 -1      1239    8    0    1
 -2       557       698       697      2911      2912      2907
 -1      1240    8    0    1
 -2       558       559       699      2492      2913      2914
 -1      1241    8    0    1
 -2       558       699       698      2914      2915      2910
 -1      1242    8    0    1
 -2       559       560       700      2495      2916      2917
 -1      1243    8    0    1
 -2       559       700       699      2917      2918      2913
 -1      1244    8    0    1
 -2       560       561       701      2498      2919      2920
 -1      1245    8    0    1
 -2       560       701       700      2920      2921      2916
 -1      1246    8    0    1
 -2       561       562       702      2501      2922      2923
 -1      1247    8    0    1
 -2       561       702       701      2923      2924      2919
 -1      1248    8    0    1
 -2       562       563       703      2504      2925      2926
 -1      1249    8    0    1
 -2       562       703       702      2926      2927      2922
 -1      1250    8    0    1
 -2       563       564       704      2507      2928      2929
 -1      1251    8    0    1
 -2       563       704       703      2929      2930      2925
 -1      1252    8    0    1
 -2       564       565       705      2510      2931      2932
 -1      1253    8    0    1
 -2       564       705       704      2932      2933      2928
 -1      1254    8    0    1
 -2       565       566       706      2513      2934      2935
 -1      1255    8    0    1
 -2       565       706       705      2935      2936      2931
 -1      1256    8    0    1
 -2       566       567       707      2516      2937      2938
 -1      1257    8    0    1
 -2       566       707       706      2938      2939      2934
 -1      1258    8    0    1
 -2       567       568       708      2519      2940      2941
 -1      1259    8    0    1
 -2       567       708       707      2941      2942      2937
 -1      1260    8    0    1
 -2       568       569       709      2522      2943      2944
 -1      1261    8    0    1
 -2       568       709       708      2944      2945      2940
 -1      1262    8    0    1
 -2       569       570       710      2525      2946      2947
 -1      1263    8    0    1
 -2       709       569       710      2943      2947      2948
 -1      1264    8    0    1
 -2       570       624       710      2695      2949      2946
 -1      1265    8    0    1
 -2       576       577       711      2546      2950      2951
 -1      1266    8    0    1
 -2       586       587       712      2655      2952      2953
 -1      1267    8    0    1
 -2       572       573       713      2534      2954      2955
 -1      1268    8    0    1
 -2       577       578       714      2549      2956      2957
 -1      1269    8    0    1
 -2       577       714       711      2957      2958      2950
 -1      1270    8    0    1
 -2       573       576       715      2543      2959      2960
 -1      1271    8    0    1
 -2       713       573       715      2954      2960      2961
 -1      1272    8    0    1
 -2       576       711       715      2951      2962      2959
 -1      1273    8    0    1
 -2       578       579       716      2552      2963      2964
 -1      1274    8    0    1
 -2       578       716       714      2964      2965      2956
 -1      1275    8    0    1
 -2       579       580       717      2555      2966      2967
 -1      1276    8    0    1
 -2       579       717       716      2967      2968      2963
 -1      1277    8    0    1
 -2       580       581       718      2558      2969      2970
 -1      1278    8    0    1
 -2       580       718       717      2970      2971      2966
 -1      1279    8    0    1
 -2       581       582       719      2561      2972      2973
 -1      1280    8    0    1
 -2       581       719       718      2973      2974      2969
 -1      1281    8    0    1
 -2       584       530       720      2567      2975      2976
 -1      1282    8    0    1
 -2       625       584       720      2696      2976      2977
 -1      1283    8    0    1
 -2       530       673       720      2838      2978      2975
 -1      1284    8    0    1
 -2       485       608       721      2624      2979      2980
 -1      1285    8    0    1
 -2       585       583       722      2570      2981      2982
 -1      1286    8    0    1
 -2       601       588       723      2656      2983      2984
 -1      1287    8    0    1
 -2       600       589       724      2661      2985      2986
 -1      1288    8    0    1
 -2       596       597       725      2660      2987      2988
 -1      1289    8    0    1
 -2       589       593       726      2666      2989      2990
 -1      1290    8    0    1
 -2       583       485       727      2652      2991      2992
 -1      1291    8    0    1
 -2       532       533       728      2414      2993      2994
 -1      1292    8    0    1
 -2       533       674       728      2840      2995      2993
 -1      1293    8    0    1
 -2       531       532       729      2411      2996      2997
 -1      1294    8    0    1
 -2       532       728       729      2994      2998      2996
 -1      1295    8    0    1
 -2       592       594       691      2672      2999      3000
 -1      1296    8    0    1
 -2       481       609       473      2653      2628      3001
 -1      1297    8    0    1
 -2       478       479       730      2255      3002      3003
 -1      1298    8    0    1
 -2       619       478       730      2681      3003      3004
 -1      1299    8    0    1
 -2       479       621       730      2687      3005      3002
 -1      1300    8    0    1
 -2       593       602       731      2667      3006      3007
 -1      1301    8    0    1
 -2       595       596       732      2595      3008      3009
 -1      1302    8    0    1
 -2       590       599       733      2603      3010      3011
 -1      1303    8    0    1
 -2       597       598       734      2600      3012      3013
 -1      1304    8    0    1
 -2       594       595       735      2662      3014      3015
 -1      1305    8    0    1
 -2       605       606       736      2679      3016      3017
 -1      1306    8    0    1
 -2       582       613       737      2649      3018      3019
 -1      1307    8    0    1
 -2       719       582       737      2972      3019      3020
 -1      1308    8    0    1
 -2       613       528       737      2680      3021      3018
 -1      1309    8    0    1
 -2       475       474       738      2244      3022      3023
 -1      1310    8    0    1
 -2       602       604       739      2614      3024      3025
 -1      1311    8    0    1
 -2       529       585       740      2640      3026      3027
 -1      1312    8    0    1
 -2       472       592       741      2629      3028      3029
 -1      1313    8    0    1
 -2       603       607       742      2621      3030      3031
 -1      1314    8    0    1
 -2       610       475       743      2630      3032      3033
 -1      1315    8    0    1
 -2       475       738       743      3023      3034      3032
 -1      1316    8    0    1
 -2       476       620       744      2684      3035      3036
 -1      1317    8    0    1
 -2       476       744       591      3036      3037      2584
 -1      1318    8    0    1
 -2       607       626       742      2700      3038      3030
 -1      1319    8    0    1
 -2       721       608       617      2979      2675      3039
 -1      1320    8    0    1
 -2       740       585       722      3026      2982      3040
 -1      1321    8    0    1
 -2       611       529       745      2639      3041      3042
 -1      1322    8    0    1
 -2       529       740       745      3027      3043      3041
 -1      1323    8    0    1
 -2       626       586       712      2699      2953      3044
 -1      1324    8    0    1
 -2       606       629       746      2708      3045      3046
 -1      1325    8    0    1
 -2       606       746       736      3046      3047      3016
 -1      1326    8    0    1
 -2       629       603       742      2707      3031      3048
 -1      1327    8    0    1
 -2       593       731       726      3007      3049      2989
 -1      1328    8    0    1
 -2       588       671       723      2834      3050      2983
 -1      1329    8    0    1
 -2       672       601       723      2835      2984      3051
 -1      1330    8    0    1
 -2       671       605       736      2833      3017      3052
 -1      1331    8    0    1
 -2       604       672       739      2836      3053      3024
 -1      1332    8    0    1
 -2       485       721       727      2980      3054      2991
 -1      1333    8    0    1
 -2       531       729       673      2997      3055      2837
 -1      1334    8    0    1
 -2       712       587       747      2952      3056      3057
 -1      1335    8    0    1
 -2       587       612       747      2643      3058      3056
 -1      1336    8    0    1
 -2       612       470       748      2644      3059      3060
 -1      1337    8    0    1
 -2       470       611       748      2638      3061      3059
 -1      1338    8    0    1
 -2       572       713       749      2955      3062      3063
 -1      1339    8    0    1
 -2       572       749       575      3063      3064      2540
 -1      1340    8    0    1
 -2       574       575       624      2539      3065      2693
 -1      1341    8    0    1
 -2       735       595       732      3014      3009      3066
 -1      1342    8    0    1
 -2       734       598       750      3012      3067      3068
 -1      1343    8    0    1
 -2       598       614       750      2658      3069      3067
 -1      1344    8    0    1
 -2       731       602       739      3006      3025      3070
 -1      1345    8    0    1
 -2       733       599       751      3010      3071      3072
 -1      1346    8    0    1
 -2       599       618       751      2677      3073      3071
 -1      1347    8    0    1
 -2       722       583       727      2981      2992      3074
 -1      1348    8    0    1
 -2       725       597       734      2987      3013      3075
 -1      1349    8    0    1
 -2       724       589       726      2985      2990      3076
 -1      1350    8    0    1
 -2       614       590       752      2659      3077      3078
 -1      1351    8    0    1
 -2       590       733       752      3011      3079      3077
 -1      1352    8    0    1
 -2       600       724       753      2986      3080      3081
 -1      1353    8    0    1
 -2       600       753       615      3081      3082      2665
 -1      1354    8    0    1
 -2       596       725       732      2988      3083      3008
 -1      1355    8    0    1
 -2       474       591       754      2583      3084      3085
 -1      1356    8    0    1
 -2       738       474       754      3022      3085      3086
 -1      1357    8    0    1
 -2       591       744       754      3037      3087      3084
 -1      1358    8    0    1
 -2       481       473       623      3001      2692      3088
 -1      1359    8    0    1
 -2       617       472       741      2673      3029      3089
 -1      1360    8    0    1
 -2       618       471       755      2678      3090      3091
 -1      1361    8    0    1
 -2       471       615       755      2664      3092      3090
 -1      1362    8    0    1
 -2       594       735       691      3015      3093      2999
 -1      1363    8    0    1
 -2       622       481       623      2688      3088      3094
 -1      1364    8    0    1
 -2       621       622       756      2690      3095      3096
 -1      1365    8    0    1
 -2       714       716       757      2965      3097      3098
 -1      1366    8    0    1
 -2       721       617       693      3039      3099      3100
 -1      1367    8    0    1
 -2       741       592       691      3028      3000      3101
 -1      1368    8    0    1
 -2       628       627       758      2706      3102      3103
 -1      1369    8    0    1
 -2       737       528       670      3021      2832      3104
 -1      1370    8    0    1
 -2       631       630       759      2714      3105      3106
 -1      1371    8    0    1
 -2       632       631       760      2717      3107      3108
 -1      1372    8    0    1
 -2       631       759       760      3106      3109      3107
 -1      1373    8    0    1
 -2       633       632       761      2720      3110      3111
 -1      1374    8    0    1
 -2       632       760       761      3108      3112      3110
 -1      1375    8    0    1
 -2       634       633       762      2723      3113      3114
 -1      1376    8    0    1
 -2       633       761       762      3111      3115      3113
 -1      1377    8    0    1
 -2       635       634       763      2726      3116      3117
 -1      1378    8    0    1
 -2       634       762       763      3114      3118      3116
 -1      1379    8    0    1
 -2       636       635       764      2729      3119      3120
 -1      1380    8    0    1
 -2       635       763       764      3117      3121      3119
 -1      1381    8    0    1
 -2       637       636       765      2732      3122      3123
 -1      1382    8    0    1
 -2       636       764       765      3120      3124      3122
 -1      1383    8    0    1
 -2       638       637       766      2735      3125      3126
 -1      1384    8    0    1
 -2       637       765       766      3123      3127      3125
 -1      1385    8    0    1
 -2       639       638       767      2738      3128      3129
 -1      1386    8    0    1
 -2       638       766       767      3126      3130      3128
 -1      1387    8    0    1
 -2       640       639       768      2741      3131      3132
 -1      1388    8    0    1
 -2       639       767       768      3129      3133      3131
 -1      1389    8    0    1
 -2       641       640       769      2744      3134      3135
 -1      1390    8    0    1
 -2       640       768       769      3132      3136      3134
 -1      1391    8    0    1
 -2       642       641       770      2747      3137      3138
 -1      1392    8    0    1
 -2       641       769       770      3135      3139      3137
 -1      1393    8    0    1
 -2       643       642       771      2750      3140      3141
 -1      1394    8    0    1
 -2       642       770       771      3138      3142      3140
 -1      1395    8    0    1
 -2       644       643       772      2753      3143      3144
 -1      1396    8    0    1
 -2       643       771       772      3141      3145      3143
 -1      1397    8    0    1
 -2       645       644       773      2756      3146      3147
 -1      1398    8    0    1
 -2       644       772       773      3144      3148      3146
 -1      1399    8    0    1
 -2       646       645       774      2759      3149      3150
 -1      1400    8    0    1
 -2       645       773       774      3147      3151      3149
 -1      1401    8    0    1
 -2       647       646       775      2762      3152      3153
 -1      1402    8    0    1
 -2       646       774       775      3150      3154      3152
 -1      1403    8    0    1
 -2       648       647       776      2765      3155      3156
 -1      1404    8    0    1
 -2       647       775       776      3153      3157      3155
 -1      1405    8    0    1
 -2       649       648       777      2768      3158      3159
 -1      1406    8    0    1
 -2       648       776       777      3156      3160      3158
 -1      1407    8    0    1
 -2       651       650       739      2774      3161      3162
 -1      1408    8    0    1
 -2       652       651       672      2777      3163      3164
 -1      1409    8    0    1
 -2       653       652       723      2780      3165      3166
 -1      1410    8    0    1
 -2       655       654       778      2786      3167      3168
 -1      1411    8    0    1
 -2       656       655       779      2789      3169      3170
 -1      1412    8    0    1
 -2       655       778       779      3168      3171      3169
 -1      1413    8    0    1
 -2       657       656       780      2792      3172      3173
 -1      1414    8    0    1
 -2       656       779       780      3170      3174      3172
 -1      1415    8    0    1
 -2       658       657       781      2795      3175      3176
 -1      1416    8    0    1
 -2       657       780       781      3173      3177      3175
 -1      1417    8    0    1
 -2       659       658       782      2798      3178      3179
 -1      1418    8    0    1
 -2       658       781       782      3176      3180      3178
 -1      1419    8    0    1
 -2       660       659       783      2801      3181      3182
 -1      1420    8    0    1
 -2       659       782       783      3179      3183      3181
 -1      1421    8    0    1
 -2       661       660       784      2804      3184      3185
 -1      1422    8    0    1
 -2       660       783       784      3182      3186      3184
 -1      1423    8    0    1
 -2       662       661       785      2807      3187      3188
 -1      1424    8    0    1
 -2       661       784       785      3185      3189      3187
 -1      1425    8    0    1
 -2       663       662       786      2810      3190      3191
 -1      1426    8    0    1
 -2       662       785       786      3188      3192      3190
 -1      1427    8    0    1
 -2       664       663       787      2813      3193      3194
 -1      1428    8    0    1
 -2       663       786       787      3191      3195      3193
 -1      1429    8    0    1
 -2       665       664       788      2816      3196      3197
 -1      1430    8    0    1
 -2       664       787       788      3194      3198      3196
 -1      1431    8    0    1
 -2       666       665       789      2819      3199      3200
 -1      1432    8    0    1
 -2       665       788       789      3197      3201      3199
 -1      1433    8    0    1
 -2       667       666       790      2822      3202      3203
 -1      1434    8    0    1
 -2       666       789       790      3200      3204      3202
 -1      1435    8    0    1
 -2       668       667       791      2825      3205      3206
 -1      1436    8    0    1
 -2       667       790       791      3203      3207      3205
 -1      1437    8    0    1
 -2       669       668       792      2828      3208      3209
 -1      1438    8    0    1
 -2       668       791       792      3206      3210      3208
 -1      1439    8    0    1
 -2       670       669       793      2831      3211      3212
 -1      1440    8    0    1
 -2       669       792       793      3209      3213      3211
 -1      1441    8    0    1
 -2       629       742       794      3048      3214      3215
 -1      1442    8    0    1
 -2       674       675       795      2843      3216      3217
 -1      1443    8    0    1
 -2       677       678       796      2852      3218      3219
 -1      1444    8    0    1
 -2       678       679       797      2855      3220      3221
 -1      1445    8    0    1
 -2       678       797       796      3221      3222      3218
 -1      1446    8    0    1
 -2       679       680       798      2858      3223      3224
 -1      1447    8    0    1
 -2       679       798       797      3224      3225      3220
 -1      1448    8    0    1
 -2       680       681       799      2861      3226      3227
 -1      1449    8    0    1
 -2       680       799       798      3227      3228      3223
 -1      1450    8    0    1
 -2       681       682       800      2864      3229      3230
 -1      1451    8    0    1
 -2       681       800       799      3230      3231      3226
 -1      1452    8    0    1
 -2       682       683       801      2867      3232      3233
 -1      1453    8    0    1
 -2       682       801       800      3233      3234      3229
 -1      1454    8    0    1
 -2       683       684       802      2870      3235      3236
 -1      1455    8    0    1
 -2       683       802       801      3236      3237      3232
 -1      1456    8    0    1
 -2       684       685       803      2873      3238      3239
 -1      1457    8    0    1
 -2       684       803       802      3239      3240      3235
 -1      1458    8    0    1
 -2       685       686       804      2876      3241      3242
 -1      1459    8    0    1
 -2       685       804       803      3242      3243      3238
 -1      1460    8    0    1
 -2       686       687       805      2879      3244      3245
 -1      1461    8    0    1
 -2       686       805       804      3245      3246      3241
 -1      1462    8    0    1
 -2       687       688       806      2882      3247      3248
 -1      1463    8    0    1
 -2       687       806       805      3248      3249      3244
 -1      1464    8    0    1
 -2       691       692       741      2894      3250      3101
 -1      1465    8    0    1
 -2       693       694       721      2900      3251      3100
 -1      1466    8    0    1
 -2       695       696       807      2906      3252      3253
 -1      1467    8    0    1
 -2       696       697       808      2909      3254      3255
 -1      1468    8    0    1
 -2       696       808       807      3255      3256      3252
 -1      1469    8    0    1
 -2       697       698       809      2912      3257      3258
 -1      1470    8    0    1
 -2       697       809       808      3258      3259      3254
 -1      1471    8    0    1
 -2       698       699       810      2915      3260      3261
 -1      1472    8    0    1
 -2       698       810       809      3261      3262      3257
 -1      1473    8    0    1
 -2       699       700       811      2918      3263      3264
 -1      1474    8    0    1
 -2       699       811       810      3264      3265      3260
 -1      1475    8    0    1
 -2       700       701       812      2921      3266      3267
 -1      1476    8    0    1
 -2       700       812       811      3267      3268      3263
 -1      1477    8    0    1
 -2       701       702       813      2924      3269      3270
 -1      1478    8    0    1
 -2       701       813       812      3270      3271      3266
 -1      1479    8    0    1
 -2       702       703       814      2927      3272      3273
 -1      1480    8    0    1
 -2       702       814       813      3273      3274      3269
 -1      1481    8    0    1
 -2       703       704       815      2930      3275      3276
 -1      1482    8    0    1
 -2       703       815       814      3276      3277      3272
 -1      1483    8    0    1
 -2       704       705       816      2933      3278      3279
 -1      1484    8    0    1
 -2       704       816       815      3279      3280      3275
 -1      1485    8    0    1
 -2       705       706       817      2936      3281      3282
 -1      1486    8    0    1
 -2       705       817       816      3282      3283      3278
 -1      1487    8    0    1
 -2       706       707       818      2939      3284      3285
 -1      1488    8    0    1
 -2       706       818       817      3285      3286      3281
 -1      1489    8    0    1
 -2       707       708       819      2942      3287      3288
 -1      1490    8    0    1
 -2       707       819       818      3288      3289      3284
 -1      1491    8    0    1
 -2       708       709       820      2945      3290      3291
 -1      1492    8    0    1
 -2       708       820       819      3291      3292      3287
 -1      1493    8    0    1
 -2       711       714       821      2958      3293      3294
 -1      1494    8    0    1
 -2       714       757       821      3098      3295      3293
 -1      1495    8    0    1
 -2       672       723       652      3051      3165      3164
 -1      1496    8    0    1
 -2       718       719       822      2974      3296      3297
 -1      1497    8    0    1
 -2       672       651       739      3163      3162      3053
 -1      1498    8    0    1
 -2       728       674       823      2995      3298      3299
 -1      1499    8    0    1
 -2       674       795       823      3217      3300      3298
 -1      1500    8    0    1
 -2       673       729       824      3055      3301      3302
 -1      1501    8    0    1
 -2       723       671       653      3050      3303      3166
 -1      1502    8    0    1
 -2       716       717       825      2968      3304      3305
 -1      1503    8    0    1
 -2       716       825       757      3305      3306      3097
 -1      1504    8    0    1
 -2       717       718       826      2971      3307      3308
 -1      1505    8    0    1
 -2       825       717       826      3304      3308      3309
 -1      1506    8    0    1
 -2       718       822       826      3297      3310      3307
 -1      1507    8    0    1
 -2       676       677       827      2849      3311      3312
 -1      1508    8    0    1
 -2       677       796       827      3219      3313      3311
 -1      1509    8    0    1
 -2       675       676       828      2846      3314      3315
 -1      1510    8    0    1
 -2       795       675       828      3216      3315      3316
 -1      1511    8    0    1
 -2       676       827       828      3312      3317      3314
 -1      1512    8    0    1
 -2       732       725       829      3083      3318      3319
 -1      1513    8    0    1
 -2       742       626       830      3038      3320      3321
 -1      1514    8    0    1
 -2       725       734       831      3075      3322      3323
 -1      1515    8    0    1
 -2       630       628       832      2711      3324      3325
 -1      1516    8    0    1
 -2       628       758       832      3103      3326      3324
 -1      1517    8    0    1
 -2       624       575       749      3065      3064      3327
 -1      1518    8    0    1
 -2       729       728       833      2998      3328      3329
 -1      1519    8    0    1
 -2       728       823       833      3299      3330      3328
 -1      1520    8    0    1
 -2       622       623       834      3094      3331      3332
 -1      1521    8    0    1
 -2       756       622       834      3095      3332      3333
 -1      1522    8    0    1
 -2       623       625       834      2698      3334      3331
 -1      1523    8    0    1
 -2       724       726       835      3076      3335      3336
 -1      1524    8    0    1
 -2       719       737       670      3020      3104      3337
 -1      1525    8    0    1
 -2       740       722       836      3040      3338      3339
 -1      1526    8    0    1
 -2       626       712       837      3044      3340      3341
 -1      1527    8    0    1
 -2       620       619       838      2685      3342      3343
 -1      1528    8    0    1
 -2       726       731       839      3049      3344      3345
 -1      1529    8    0    1
 -2       722       727       840      3074      3346      3347
 -1      1530    8    0    1
 -2       721       694       841      3251      3348      3349
 -1      1531    8    0    1
 -2       727       721       841      3054      3349      3350
 -1      1532    8    0    1
 -2       694       695       841      2903      3351      3348
 -1      1533    8    0    1
 -2       739       650       842      3161      3352      3353
 -1      1534    8    0    1
 -2       731       739       842      3070      3353      3354
 -1      1535    8    0    1
 -2       650       649       842      2771      3355      3352
 -1      1536    8    0    1
 -2       653       671       654      3303      3356      2783
 -1      1537    8    0    1
 -2       744       620       843      3035      3357      3358
 -1      1538    8    0    1
 -2       620       838       843      3343      3359      3357
 -1      1539    8    0    1
 -2       743       738       844      3034      3360      3361
 -1      1540    8    0    1
 -2       841       695       807      3351      3253      3362
 -1      1541    8    0    1
 -2       745       740       845      3043      3363      3364
 -1      1542    8    0    1
 -2       740       836       845      3339      3365      3363
 -1      1543    8    0    1
 -2       746       629       794      3045      3215      3366
 -1      1544    8    0    1
 -2       759       630       832      3105      3325      3367
 -1      1545    8    0    1
 -2       654       671       778      3356      3368      3167
 -1      1546    8    0    1
 -2       732       829       689      3319      3369      3370
 -1      1547    8    0    1
 -2       670       793       822      3212      3371      3372
 -1      1548    8    0    1
 -2       794       742       830      3214      3321      3373
 -1      1549    8    0    1
 -2       673       824       846      3302      3374      3375
 -1      1550    8    0    1
 -2       673       846       720      3375      3376      2978
 -1      1551    8    0    1
 -2       747       612       847      3058      3377      3378
 -1      1552    8    0    1
 -2       612       748       847      3060      3379      3377
 -1      1553    8    0    1
 -2       741       692       693      3250      2897      3380
 -1      1554    8    0    1
 -2       806       688       829      3247      3381      3382
 -1      1555    8    0    1
 -2       688       689       829      2885      3369      3381
 -1      1556    8    0    1
 -2       689       690       735      2888      3383      3384
 -1      1557    8    0    1
 -2       690       691       735      2891      3093      3383
 -1      1558    8    0    1
 -2       731       842       839      3354      3385      3344
 -1      1559    8    0    1
 -2       711       821       848      3294      3386      3387
 -1      1560    8    0    1
 -2       711       848       715      3387      3388      2962
 -1      1561    8    0    1
 -2       820       709       849      3290      3389      3390
 -1      1562    8    0    1
 -2       709       710       849      2948      3391      3389
 -1      1563    8    0    1
 -2       713       715       850      2961      3392      3393
 -1      1564    8    0    1
 -2       715       848       850      3388      3394      3392
 -1      1565    8    0    1
 -2       710       624       851      2949      3395      3396
 -1      1566    8    0    1
 -2       624       749       851      3327      3397      3395
 -1      1567    8    0    1
 -2       748       611       745      3061      3042      3398
 -1      1568    8    0    1
 -2       724       835       852      3336      3399      3400
 -1      1569    8    0    1
 -2       724       852       753      3400      3401      3080
 -1      1570    8    0    1
 -2       749       713       853      3062      3402      3403
 -1      1571    8    0    1
 -2       851       749       853      3397      3403      3404
 -1      1572    8    0    1
 -2       713       850       853      3393      3405      3402
 -1      1573    8    0    1
 -2       741       693       617      3380      3099      3089
 -1      1574    8    0    1
 -2       732       689       735      3370      3384      3066
 -1      1575    8    0    1
 -2       844       738       854      3360      3406      3407
 -1      1576    8    0    1
 -2       738       754       854      3086      3408      3406
 -1      1577    8    0    1
 -2       670       822       719      3372      3296      3337
 -1      1578    8    0    1
 -2       750       614       855      3069      3409      3410
 -1      1579    8    0    1
 -2       614       752       855      3078      3411      3409
 -1      1580    8    0    1
 -2       751       618       856      3073      3412      3413
 -1      1581    8    0    1
 -2       618       755       856      3091      3414      3412
 -1      1582    8    0    1
 -2       625       720       857      2977      3415      3416
 -1      1583    8    0    1
 -2       834       625       857      3334      3416      3417
 -1      1584    8    0    1
 -2       720       846       857      3376      3418      3415
 -1      1585    8    0    1
 -2       824       729       833      3301      3329      3419
 -1      1586    8    0    1
 -2       829       725       831      3318      3323      3420
 -1      1587    8    0    1
 -2       671       736       778      3052      3421      3368
 -1      1588    8    0    1
 -2       752       733       858      3079      3422      3423
 -1      1589    8    0    1
 -2       831       734       859      3322      3424      3425
 -1      1590    8    0    1
 -2       734       750       859      3068      3426      3424
 -1      1591    8    0    1
 -2       830       626       837      3320      3341      3427
 -1      1592    8    0    1
 -2       778       736       746      3421      3047      3428
 -1      1593    8    0    1
 -2       712       747       860      3057      3429      3430
 -1      1594    8    0    1
 -2       712       860       837      3430      3431      3340
 -1      1595    8    0    1
 -2       838       619       861      3342      3432      3433
 -1      1596    8    0    1
 -2       619       730       861      3004      3434      3432
 -1      1597    8    0    1
 -2       616       610       862      2671      3435      3436
 -1      1598    8    0    1
 -2       730       621       863      3005      3437      3438
 -1      1599    8    0    1
 -2       861       730       863      3434      3438      3439
 -1      1600    8    0    1
 -2       621       756       863      3096      3440      3437
 -1      1601    8    0    1
 -2       627       616       862      2703      3436      3441
 -1      1602    8    0    1
 -2       755       615       864      3092      3442      3443
 -1      1603    8    0    1
 -2       615       753       864      3082      3444      3442
 -1      1604    8    0    1
 -2       835       726       839      3335      3345      3445
 -1      1605    8    0    1
 -2       836       722       840      3338      3347      3446
 -1      1606    8    0    1
 -2       842       649       777      3355      3159      3447
 -1      1607    8    0    1
 -2       733       751       858      3072      3448      3422
 -1      1608    8    0    1
 -2       610       743       862      3033      3449      3435
 -1      1609    8    0    1
 -2       841       807       840      3362      3450      3451
 -1      1610    8    0    1
 -2       822       793       865      3371      3452      3453
 -1      1611    8    0    1
 -2       822       865       826      3453      3454      3310
 -1      1612    8    0    1
 -2       823       795       866      3300      3455      3456
 -1      1613    8    0    1
 -2       761       760       867      3112      3457      3458
 -1      1614    8    0    1
 -2       762       761       868      3115      3459      3460
 -1      1615    8    0    1
 -2       761       867       868      3458      3461      3459
 -1      1616    8    0    1
 -2       763       762       869      3118      3462      3463
 -1      1617    8    0    1
 -2       762       868       869      3460      3464      3462
 -1      1618    8    0    1
 -2       764       763       870      3121      3465      3466
 -1      1619    8    0    1
 -2       763       869       870      3463      3467      3465
 -1      1620    8    0    1
 -2       765       764       871      3124      3468      3469
 -1      1621    8    0    1
 -2       764       870       871      3466      3470      3468
 -1      1622    8    0    1
 -2       766       765       872      3127      3471      3472
 -1      1623    8    0    1
 -2       765       871       872      3469      3473      3471
 -1      1624    8    0    1
 -2       767       766       873      3130      3474      3475
 -1      1625    8    0    1
 -2       766       872       873      3472      3476      3474
 -1      1626    8    0    1
 -2       768       767       874      3133      3477      3478
 -1      1627    8    0    1
 -2       767       873       874      3475      3479      3477
 -1      1628    8    0    1
 -2       769       768       875      3136      3480      3481
 -1      1629    8    0    1
 -2       768       874       875      3478      3482      3480
 -1      1630    8    0    1
 -2       770       769       876      3139      3483      3484
 -1      1631    8    0    1
 -2       769       875       876      3481      3485      3483
 -1      1632    8    0    1
 -2       771       770       877      3142      3486      3487
 -1      1633    8    0    1
 -2       770       876       877      3484      3488      3486
 -1      1634    8    0    1
 -2       772       771       878      3145      3489      3490
 -1      1635    8    0    1
 -2       771       877       878      3487      3491      3489
 -1      1636    8    0    1
 -2       773       772       879      3148      3492      3493
 -1      1637    8    0    1
 -2       772       878       879      3490      3494      3492
 -1      1638    8    0    1
 -2       774       773       880      3151      3495      3496
 -1      1639    8    0    1
 -2       773       879       880      3493      3497      3495
 -1      1640    8    0    1
 -2       775       774       881      3154      3498      3499
 -1      1641    8    0    1
 -2       774       880       881      3496      3500      3498
 -1      1642    8    0    1
 -2       776       775       882      3157      3501      3502
 -1      1643    8    0    1
 -2       775       881       882      3499      3503      3501
 -1      1644    8    0    1
 -2       839       842       777      3385      3447      3504
 -1      1645    8    0    1
 -2       757       825       883      3306      3505      3506
 -1      1646    8    0    1
 -2       759       832       884      3367      3507      3508
 -1      1647    8    0    1
 -2       794       830       885      3373      3509      3510
 -1      1648    8    0    1
 -2       781       780       886      3177      3511      3512
 -1      1649    8    0    1
 -2       782       781       887      3180      3513      3514
 -1      1650    8    0    1
 -2       781       886       887      3512      3515      3513
 -1      1651    8    0    1
 -2       783       782       888      3183      3516      3517
 -1      1652    8    0    1
 -2       782       887       888      3514      3518      3516
 -1      1653    8    0    1
 -2       784       783       889      3186      3519      3520
 -1      1654    8    0    1
 -2       783       888       889      3517      3521      3519
 -1      1655    8    0    1
 -2       785       784       890      3189      3522      3523
 -1      1656    8    0    1
 -2       784       889       890      3520      3524      3522
 -1      1657    8    0    1
 -2       786       785       891      3192      3525      3526
 -1      1658    8    0    1
 -2       785       890       891      3523      3527      3525
 -1      1659    8    0    1
 -2       787       786       892      3195      3528      3529
 -1      1660    8    0    1
 -2       786       891       892      3526      3530      3528
 -1      1661    8    0    1
 -2       788       787       893      3198      3531      3532
 -1      1662    8    0    1
 -2       787       892       893      3529      3533      3531
 -1      1663    8    0    1
 -2       789       788       894      3201      3534      3535
 -1      1664    8    0    1
 -2       788       893       894      3532      3536      3534
 -1      1665    8    0    1
 -2       790       789       895      3204      3537      3538
 -1      1666    8    0    1
 -2       789       894       895      3535      3539      3537
 -1      1667    8    0    1
 -2       791       790       896      3207      3540      3541
 -1      1668    8    0    1
 -2       790       895       896      3538      3542      3540
 -1      1669    8    0    1
 -2       792       791       897      3210      3543      3544
 -1      1670    8    0    1
 -2       791       896       897      3541      3545      3543
 -1      1671    8    0    1
 -2       793       792       898      3213      3546      3547
 -1      1672    8    0    1
 -2       865       793       898      3452      3547      3548
 -1      1673    8    0    1
 -2       792       897       898      3544      3549      3546
 -1      1674    8    0    1
 -2       796       797       899      3222      3550      3551
 -1      1675    8    0    1
 -2       799       800       900      3231      3552      3553
 -1      1676    8    0    1
 -2       800       801       901      3234      3554      3555
 -1      1677    8    0    1
 -2       800       901       900      3555      3556      3552
 -1      1678    8    0    1
 -2       801       802       902      3237      3557      3558
 -1      1679    8    0    1
 -2       801       902       901      3558      3559      3554
 -1      1680    8    0    1
 -2       802       803       903      3240      3560      3561
 -1      1681    8    0    1
 -2       802       903       902      3561      3562      3557
 -1      1682    8    0    1
 -2       803       804       904      3243      3563      3564
 -1      1683    8    0    1
 -2       803       904       903      3564      3565      3560
 -1      1684    8    0    1
 -2       804       805       905      3246      3566      3567
 -1      1685    8    0    1
 -2       804       905       904      3567      3568      3563
 -1      1686    8    0    1
 -2       809       810       906      3262      3569      3570
 -1      1687    8    0    1
 -2       806       829       831      3382      3420      3571
 -1      1688    8    0    1
 -2       808       809       907      3259      3572      3573
 -1      1689    8    0    1
 -2       809       906       907      3570      3574      3572
 -1      1690    8    0    1
 -2       807       808       908      3256      3575      3576
 -1      1691    8    0    1
 -2       840       807       908      3450      3576      3577
 -1      1692    8    0    1
 -2       808       907       908      3573      3578      3575
 -1      1693    8    0    1
 -2       810       811       909      3265      3579      3580
 -1      1694    8    0    1
 -2       810       909       906      3580      3581      3569
 -1      1695    8    0    1
 -2       811       812       910      3268      3582      3583
 -1      1696    8    0    1
 -2       811       910       909      3583      3584      3579
 -1      1697    8    0    1
 -2       812       813       911      3271      3585      3586
 -1      1698    8    0    1
 -2       812       911       910      3586      3587      3582
 -1      1699    8    0    1
 -2       813       814       912      3274      3588      3589
 -1      1700    8    0    1
 -2       813       912       911      3589      3590      3585
 -1      1701    8    0    1
 -2       814       815       913      3277      3591      3592
 -1      1702    8    0    1
 -2       814       913       912      3592      3593      3588
 -1      1703    8    0    1
 -2       815       816       914      3280      3594      3595
 -1      1704    8    0    1
 -2       815       914       913      3595      3596      3591
 -1      1705    8    0    1
 -2       816       817       915      3283      3597      3598
 -1      1706    8    0    1
 -2       816       915       914      3598      3599      3594
 -1      1707    8    0    1
 -2       817       818       916      3286      3600      3601
 -1      1708    8    0    1
 -2       817       916       915      3601      3602      3597
 -1      1709    8    0    1
 -2       818       819       917      3289      3603      3604
 -1      1710    8    0    1
 -2       818       917       916      3604      3605      3600
 -1      1711    8    0    1
 -2       819       820       918      3292      3606      3607
 -1      1712    8    0    1
 -2       819       918       917      3607      3608      3603
 -1      1713    8    0    1
 -2       821       757       919      3295      3609      3610
 -1      1714    8    0    1
 -2       757       883       919      3506      3611      3609
 -1      1715    8    0    1
 -2       840       727       841      3346      3350      3451
 -1      1716    8    0    1
 -2       798       799       920      3228      3612      3613
 -1      1717    8    0    1
 -2       799       900       920      3553      3614      3612
 -1      1718    8    0    1
 -2       797       798       921      3225      3615      3616
 -1      1719    8    0    1
 -2       899       797       921      3550      3616      3617
 -1      1720    8    0    1
 -2       798       920       921      3613      3618      3615
 -1      1721    8    0    1
 -2       827       796       922      3313      3619      3620
 -1      1722    8    0    1
 -2       796       899       922      3551      3621      3619
 -1      1723    8    0    1
 -2       779       778       746      3171      3428      3622
 -1      1724    8    0    1
 -2       754       744       923      3087      3623      3624
 -1      1725    8    0    1
 -2       754       923       854      3624      3625      3408
 -1      1726    8    0    1
 -2       824       833       924      3419      3626      3627
 -1      1727    8    0    1
 -2       752       858       925      3423      3628      3629
 -1      1728    8    0    1
 -2       752       925       855      3629      3630      3411
 -1      1729    8    0    1
 -2       748       745       926      3398      3631      3632
 -1      1730    8    0    1
 -2       833       823       927      3330      3633      3634
 -1      1731    8    0    1
 -2       823       866       927      3456      3635      3633
 -1      1732    8    0    1
 -2       760       759       928      3109      3636      3637
 -1      1733    8    0    1
 -2       759       884       928      3508      3638      3636
 -1      1734    8    0    1
 -2       830       837       929      3427      3639      3640
 -1      1735    8    0    1
 -2       830       929       885      3640      3641      3509
 -1      1736    8    0    1
 -2       835       839       930      3445      3642      3643
 -1      1737    8    0    1
 -2       839       777       930      3504      3644      3642
 -1      1738    8    0    1
 -2       756       834       931      3333      3645      3646
 -1      1739    8    0    1
 -2       834       857       931      3417      3647      3645
 -1      1740    8    0    1
 -2       858       751       932      3448      3648      3649
 -1      1741    8    0    1
 -2       751       856       932      3413      3650      3648
 -1      1742    8    0    1
 -2       836       840       908      3446      3577      3651
 -1      1743    8    0    1
 -2       779       746       794      3622      3366      3652
 -1      1744    8    0    1
 -2       779       794       780      3652      3653      3174
 -1      1745    8    0    1
 -2       806       831       805      3571      3654      3249
 -1      1746    8    0    1
 -2       805       831       905      3654      3655      3566
 -1      1747    8    0    1
 -2       745       845       933      3364      3656      3657
 -1      1748    8    0    1
 -2       745       933       926      3657      3658      3631
 -1      1749    8    0    1
 -2       758       627       862      3102      3441      3659
 -1      1750    8    0    1
 -2       866       795       934      3455      3660      3661
 -1      1751    8    0    1
 -2       795       828       934      3316      3662      3660
 -1      1752    8    0    1
 -2       756       931       863      3646      3663      3440
 -1      1753    8    0    1
 -2       776       882       930      3502      3664      3665
 -1      1754    8    0    1
 -2       884       832       844      3507      3666      3667
 -1      1755    8    0    1
 -2       777       776       930      3160      3665      3644
 -1      1756    8    0    1
 -2       744       843       923      3358      3668      3623
 -1      1757    8    0    1
 -2       846       824       935      3374      3669      3670
 -1      1758    8    0    1
 -2       824       924       935      3627      3671      3669
 -1      1759    8    0    1
 -2       847       748       926      3379      3632      3672
 -1      1760    8    0    1
 -2       848       821       936      3386      3673      3674
 -1      1761    8    0    1
 -2       821       919       936      3610      3675      3673
 -1      1762    8    0    1
 -2       918       820       937      3606      3676      3677
 -1      1763    8    0    1
 -2       820       849       937      3390      3678      3676
 -1      1764    8    0    1
 -2       850       848       938      3394      3679      3680
 -1      1765    8    0    1
 -2       848       936       938      3674      3681      3679
 -1      1766    8    0    1
 -2       853       850       939      3405      3682      3683
 -1      1767    8    0    1
 -2       850       938       939      3680      3684      3682
 -1      1768    8    0    1
 -2       837       860       940      3431      3685      3686
 -1      1769    8    0    1
 -2       837       940       929      3686      3687      3639
 -1      1770    8    0    1
 -2       856       755       941      3414      3688      3689
 -1      1771    8    0    1
 -2       755       864       941      3443      3690      3688
 -1      1772    8    0    1
 -2       832       758       844      3326      3691      3666
 -1      1773    8    0    1
 -2       747       847       942      3378      3692      3693
 -1      1774    8    0    1
 -2       747       942       860      3693      3694      3429
 -1      1775    8    0    1
 -2       859       750       855      3426      3410      3695
 -1      1776    8    0    1
 -2       753       852       943      3401      3696      3697
 -1      1777    8    0    1
 -2       753       943       864      3697      3698      3444
 -1      1778    8    0    1
 -2       843       838       944      3359      3699      3700
 -1      1779    8    0    1
 -2       925       858       945      3628      3701      3702
 -1      1780    8    0    1
 -2       858       932       945      3649      3703      3701
 -1      1781    8    0    1
 -2       862       743       758      3449      3704      3659
 -1      1782    8    0    1
 -2       760       928       867      3637      3705      3457
 -1      1783    8    0    1
 -2       828       827       946      3317      3706      3707
 -1      1784    8    0    1
 -2       827       922       946      3620      3708      3706
 -1      1785    8    0    1
 -2       924       833       927      3626      3634      3709
 -1      1786    8    0    1
 -2       836       908       947      3651      3710      3711
 -1      1787    8    0    1
 -2       845       836       947      3365      3711      3712
 -1      1788    8    0    1
 -2       908       907       947      3578      3713      3710
 -1      1789    8    0    1
 -2       838       861       948      3433      3714      3715
 -1      1790    8    0    1
 -2       838       948       944      3715      3716      3699
 -1      1791    8    0    1
 -2       844       854       949      3407      3717      3718
 -1      1792    8    0    1
 -2       844       949       884      3718      3719      3667
 -1      1793    8    0    1
 -2       825       826       950      3309      3720      3721
 -1      1794    8    0    1
 -2       883       825       950      3505      3721      3722
 -1      1795    8    0    1
 -2       826       865       950      3454      3723      3720
 -1      1796    8    0    1
 -2       835       930       882      3643      3664      3724
 -1      1797    8    0    1
 -2       743       844       758      3361      3691      3704
 -1      1798    8    0    1
 -2       835       882       852      3724      3725      3399
 -1      1799    8    0    1
 -2       780       794       886      3653      3726      3511
 -1      1800    8    0    1
 -2       869       868       951      3464      3727      3728
 -1      1801    8    0    1
 -2       870       869       952      3467      3729      3730
 -1      1802    8    0    1
 -2       869       951       952      3728      3731      3729
 -1      1803    8    0    1
 -2       871       870       953      3470      3732      3733
 -1      1804    8    0    1
 -2       870       952       953      3730      3734      3732
 -1      1805    8    0    1
 -2       872       871       954      3473      3735      3736
 -1      1806    8    0    1
 -2       871       953       954      3733      3737      3735
 -1      1807    8    0    1
 -2       873       872       955      3476      3738      3739
 -1      1808    8    0    1
 -2       872       954       955      3736      3740      3738
 -1      1809    8    0    1
 -2       874       873       956      3479      3741      3742
 -1      1810    8    0    1
 -2       873       955       956      3739      3743      3741
 -1      1811    8    0    1
 -2       875       874       957      3482      3744      3745
 -1      1812    8    0    1
 -2       874       956       957      3742      3746      3744
 -1      1813    8    0    1
 -2       876       875       958      3485      3747      3748
 -1      1814    8    0    1
 -2       875       957       958      3745      3749      3747
 -1      1815    8    0    1
 -2       877       876       959      3488      3750      3751
 -1      1816    8    0    1
 -2       876       958       959      3748      3752      3750
 -1      1817    8    0    1
 -2       878       877       960      3491      3753      3754
 -1      1818    8    0    1
 -2       877       959       960      3751      3755      3753
 -1      1819    8    0    1
 -2       879       878       961      3494      3756      3757
 -1      1820    8    0    1
 -2       878       960       961      3754      3758      3756
 -1      1821    8    0    1
 -2       880       879       962      3497      3759      3760
 -1      1822    8    0    1
 -2       879       961       962      3757      3761      3759
 -1      1823    8    0    1
 -2       881       880       963      3500      3762      3763
 -1      1824    8    0    1
 -2       880       962       963      3760      3764      3762
 -1      1825    8    0    1
 -2       888       887       964      3518      3765      3766
 -1      1826    8    0    1
 -2       889       888       965      3521      3767      3768
 -1      1827    8    0    1
 -2       888       964       965      3766      3769      3767
 -1      1828    8    0    1
 -2       890       889       966      3524      3770      3771
 -1      1829    8    0    1
 -2       889       965       966      3768      3772      3770
 -1      1830    8    0    1
 -2       891       890       967      3527      3773      3774
 -1      1831    8    0    1
 -2       890       966       967      3771      3775      3773
 -1      1832    8    0    1
 -2       892       891       968      3530      3776      3777
 -1      1833    8    0    1
 -2       891       967       968      3774      3778      3776
 -1      1834    8    0    1
 -2       893       892       969      3533      3779      3780
 -1      1835    8    0    1
 -2       892       968       969      3777      3781      3779
 -1      1836    8    0    1
 -2       894       893       970      3536      3782      3783
 -1      1837    8    0    1
 -2       893       969       970      3780      3784      3782
 -1      1838    8    0    1
 -2       895       894       971      3539      3785      3786
 -1      1839    8    0    1
 -2       894       970       971      3783      3787      3785
 -1      1840    8    0    1
 -2       896       895       972      3542      3788      3789
 -1      1841    8    0    1
 -2       895       971       972      3786      3790      3788
 -1      1842    8    0    1
 -2       897       896       973      3545      3791      3792
 -1      1843    8    0    1
 -2       896       972       973      3789      3793      3791
 -1      1844    8    0    1
 -2       901       902       974      3559      3794      3795
 -1      1845    8    0    1
 -2       863       931       975      3663      3796      3797
 -1      1846    8    0    1
 -2       900       901       976      3556      3798      3799
 -1      1847    8    0    1
 -2       901       974       976      3795      3800      3798
 -1      1848    8    0    1
 -2       903       904       977      3565      3801      3802
 -1      1849    8    0    1
 -2       904       905       978      3568      3803      3804
 -1      1850    8    0    1
 -2       904       978       977      3804      3805      3801
 -1      1851    8    0    1
 -2       909       910       979      3584      3806      3807
 -1      1852    8    0    1
 -2       847       926       980      3672      3808      3809
 -1      1853    8    0    1
 -2       907       906       981      3574      3810      3811
 -1      1854    8    0    1
 -2       911       912       982      3590      3812      3813
 -1      1855    8    0    1
 -2       912       913       983      3593      3814      3815
 -1      1856    8    0    1
 -2       912       983       982      3815      3816      3812
 -1      1857    8    0    1
 -2       913       914       984      3596      3817      3818
 -1      1858    8    0    1
 -2       913       984       983      3818      3819      3814
 -1      1859    8    0    1
 -2       914       915       985      3599      3820      3821
 -1      1860    8    0    1
 -2       914       985       984      3821      3822      3817
 -1      1861    8    0    1
 -2       915       916       986      3602      3823      3824
 -1      1862    8    0    1
 -2       915       986       985      3824      3825      3820
 -1      1863    8    0    1
 -2       916       917       987      3605      3826      3827
 -1      1864    8    0    1
 -2       916       987       986      3827      3828      3823
 -1      1865    8    0    1
 -2       917       918       988      3608      3829      3830
 -1      1866    8    0    1
 -2       917       988       987      3830      3831      3826
 -1      1867    8    0    1
 -2       919       883       989      3611      3832      3833
 -1      1868    8    0    1
 -2       849       710       851      3391      3396      3834
 -1      1869    8    0    1
 -2       849       851       937      3834      3835      3678
 -1      1870    8    0    1
 -2       857       846       990      3418      3836      3837
 -1      1871    8    0    1
 -2       931       857       990      3647      3837      3838
 -1      1872    8    0    1
 -2       846       935       990      3670      3839      3836
 -1      1873    8    0    1
 -2       927       866       991      3635      3840      3841
 -1      1874    8    0    1
 -2       851       853       937      3404      3842      3835
 -1      1875    8    0    1
 -2       855       925       992      3630      3843      3844
 -1      1876    8    0    1
 -2       859       855       992      3695      3844      3845
 -1      1877    8    0    1
 -2       867       928       993      3705      3846      3847
 -1      1878    8    0    1
 -2       924       927       994      3709      3848      3849
 -1      1879    8    0    1
 -2       927       991       994      3841      3850      3848
 -1      1880    8    0    1
 -2       928       884       995      3638      3851      3852
 -1      1881    8    0    1
 -2       993       928       995      3846      3852      3853
 -1      1882    8    0    1
 -2       884       949       995      3719      3854      3851
 -1      1883    8    0    1
 -2       861       863       975      3439      3797      3855
 -1      1884    8    0    1
 -2       902       903       996      3562      3856      3857
 -1      1885    8    0    1
 -2       903       977       996      3802      3858      3856
 -1      1886    8    0    1
 -2       843       944       997      3700      3859      3860
 -1      1887    8    0    1
 -2       843       997       923      3860      3861      3668
 -1      1888    8    0    1
 -2       932       856       998      3650      3862      3863
 -1      1889    8    0    1
 -2       868       867       999      3461      3864      3865
 -1      1890    8    0    1
 -2       867       993       999      3847      3866      3864
 -1      1891    8    0    1
 -2       922       899      1000      3621      3867      3868
 -1      1892    8    0    1
 -2       906       909      1001      3581      3869      3870
 -1      1893    8    0    1
 -2       906      1001       981      3870      3871      3810
 -1      1894    8    0    1
 -2       854       923      1002      3625      3872      3873
 -1      1895    8    0    1
 -2       949       854      1002      3717      3873      3874
 -1      1896    8    0    1
 -2       923       997      1002      3861      3875      3872
 -1      1897    8    0    1
 -2       852       882      1003      3725      3876      3877
 -1      1898    8    0    1
 -2       943       852      1003      3696      3877      3878
 -1      1899    8    0    1
 -2       882       881      1003      3503      3879      3876
 -1      1900    8    0    1
 -2       910       911      1004      3587      3880      3881
 -1      1901    8    0    1
 -2       911       982      1004      3813      3882      3880
 -1      1902    8    0    1
 -2       920       900      1005      3614      3883      3884
 -1      1903    8    0    1
 -2       900       976      1005      3799      3885      3883
 -1      1904    8    0    1
 -2       948       861       975      3714      3855      3886
 -1      1905    8    0    1
 -2       934       828       946      3662      3707      3887
 -1      1906    8    0    1
 -2       951       868       999      3727      3865      3888
 -1      1907    8    0    1
 -2       860       942      1006      3694      3889      3890
 -1      1908    8    0    1
 -2       860      1006       940      3890      3891      3685
 -1      1909    8    0    1
 -2       883       950      1007      3722      3892      3893
 -1      1910    8    0    1
 -2       883      1007       989      3893      3894      3832
 -1      1911    8    0    1
 -2       964       887       929      3765      3895      3896
 -1      1912    8    0    1
 -2       910      1004       979      3881      3897      3806
 -1      1913    8    0    1
 -2       980       926      1008      3808      3898      3899
 -1      1914    8    0    1
 -2       926       933      1008      3658      3900      3898
 -1      1915    8    0    1
 -2       885       929       887      3641      3895      3901
 -1      1916    8    0    1
 -2       794       885       886      3510      3902      3726
 -1      1917    8    0    1
 -2       935       924      1009      3671      3903      3904
 -1      1918    8    0    1
 -2       924       994      1009      3849      3905      3903
 -1      1919    8    0    1
 -2       865       898       950      3548      3906      3723
 -1      1920    8    0    1
 -2       933       845       947      3656      3712      3907
 -1      1921    8    0    1
 -2       897       973      1007      3792      3908      3909
 -1      1922    8    0    1
 -2       974       902       996      3794      3857      3910
 -1      1923    8    0    1
 -2       936       919      1010      3675      3911      3912
 -1      1924    8    0    1
 -2       919       989      1010      3833      3913      3911
 -1      1925    8    0    1
 -2       899       921      1011      3617      3914      3915
 -1      1926    8    0    1
 -2       899      1011      1000      3915      3916      3867
 -1      1927    8    0    1
 -2       909       979      1001      3807      3917      3869
 -1      1928    8    0    1
 -2       847       980       942      3809      3918      3692
 -1      1929    8    0    1
 -2       905       831       978      3655      3919      3803
 -1      1930    8    0    1
 -2       920      1005      1012      3884      3920      3921
 -1      1931    8    0    1
 -2       920      1012       921      3921      3922      3618
 -1      1932    8    0    1
 -2       944       948      1013      3716      3923      3924
 -1      1933    8    0    1
 -2       931       990       975      3838      3925      3796
 -1      1934    8    0    1
 -2       988       918       939      3829      3926      3927
 -1      1935    8    0    1
 -2       938       936      1014      3681      3928      3929
 -1      1936    8    0    1
 -2       936      1010      1014      3912      3930      3928
 -1      1937    8    0    1
 -2       939       938      1015      3684      3931      3932
 -1      1938    8    0    1
 -2       988       939      1015      3927      3932      3933
 -1      1939    8    0    1
 -2       938      1014      1015      3929      3934      3931
 -1      1940    8    0    1
 -2       941       864      1016      3690      3935      3936
 -1      1941    8    0    1
 -2       864       943      1016      3698      3937      3935
 -1      1942    8    0    1
 -2       944      1013      1017      3924      3938      3939
 -1      1943    8    0    1
 -2       944      1017       997      3939      3940      3859
 -1      1944    8    0    1
 -2       922      1000      1018      3868      3941      3942
 -1      1945    8    0    1
 -2       922      1018       946      3942      3943      3708
 -1      1946    8    0    1
 -2       977       978      1019      3805      3944      3945
 -1      1947    8    0    1
 -2      1019       978       992      3944      3946      3947
 -1      1948    8    0    1
 -2       945       932      1020      3703      3948      3949
 -1      1949    8    0    1
 -2       932       998      1020      3863      3950      3948
 -1      1950    8    0    1
 -2       992       925      1021      3843      3951      3952
 -1      1951    8    0    1
 -2      1019       992      1021      3947      3952      3953
 -1      1952    8    0    1
 -2       925       945      1021      3702      3954      3951
 -1      1953    8    0    1
 -2      1003       881       963      3879      3763      3955
 -1      1954    8    0    1
 -2       856       941       998      3689      3956      3862
 -1      1955    8    0    1
 -2       991       866      1022      3840      3957      3958
 -1      1956    8    0    1
 -2       866       934      1022      3661      3959      3957
 -1      1957    8    0    1
 -2       952       951      1023      3731      3960      3961
 -1      1958    8    0    1
 -2      1007       950       898      3892      3906      3962
 -1      1959    8    0    1
 -2       976       974      1024      3800      3963      3964
 -1      1960    8    0    1
 -2       886       885       887      3902      3901      3515
 -1      1961    8    0    1
 -2       943      1003      1016      3878      3965      3937
 -1      1962    8    0    1
 -2       953       952      1025      3734      3966      3967
 -1      1963    8    0    1
 -2       952      1023      1025      3961      3968      3966
 -1      1964    8    0    1
 -2       954       953      1026      3737      3969      3970
 -1      1965    8    0    1
 -2       953      1025      1026      3967      3971      3969
 -1      1966    8    0    1
 -2       955       954      1027      3740      3972      3973
 -1      1967    8    0    1
 -2       954      1026      1027      3970      3974      3972
 -1      1968    8    0    1
 -2       956       955      1028      3743      3975      3976
 -1      1969    8    0    1
 -2       955      1027      1028      3973      3977      3975
 -1      1970    8    0    1
 -2       957       956      1029      3746      3978      3979
 -1      1971    8    0    1
 -2       956      1028      1029      3976      3980      3978
 -1      1972    8    0    1
 -2       958       957      1030      3749      3981      3982
 -1      1973    8    0    1
 -2       957      1029      1030      3979      3983      3981
 -1      1974    8    0    1
 -2       959       958      1031      3752      3984      3985
 -1      1975    8    0    1
 -2       958      1030      1031      3982      3986      3984
 -1      1976    8    0    1
 -2       960       959      1032      3755      3987      3988
 -1      1977    8    0    1
 -2       959      1031      1032      3985      3989      3987
 -1      1978    8    0    1
 -2       961       960      1033      3758      3990      3991
 -1      1979    8    0    1
 -2       960      1032      1033      3988      3992      3990
 -1      1980    8    0    1
 -2       962       961      1034      3761      3993      3994
 -1      1981    8    0    1
 -2       961      1033      1034      3991      3995      3993
 -1      1982    8    0    1
 -2       963       962      1035      3764      3996      3997
 -1      1983    8    0    1
 -2       962      1034      1035      3994      3998      3996
 -1      1984    8    0    1
 -2       979      1004      1036      3897      3999      4000
 -1      1985    8    0    1
 -2      1007       973      1037      3908      4001      4002
 -1      1986    8    0    1
 -2      1007      1037       989      4002      4003      3894
 -1      1987    8    0    1
 -2       974       996      1038      3910      4004      4005
 -1      1988    8    0    1
 -2       974      1038      1024      4005      4006      3963
 -1      1989    8    0    1
 -2       966       965      1039      3772      4007      4008
 -1      1990    8    0    1
 -2       967       966      1040      3775      4009      4010
 -1      1991    8    0    1
 -2       966      1039      1040      4008      4011      4009
 -1      1992    8    0    1
 -2       968       967      1041      3778      4012      4013
 -1      1993    8    0    1
 -2       967      1040      1041      4010      4014      4012
 -1      1994    8    0    1
 -2       969       968      1042      3781      4015      4016
 -1      1995    8    0    1
 -2       968      1041      1042      4013      4017      4015
 -1      1996    8    0    1
 -2       970       969      1043      3784      4018      4019
 -1      1997    8    0    1
 -2       969      1042      1043      4016      4020      4018
 -1      1998    8    0    1
 -2       971       970      1044      3787      4021      4022
 -1      1999    8    0    1
 -2       970      1043      1044      4019      4023      4021
 -1      2000    8    0    1
 -2       972       971      1045      3790      4024      4025
 -1      2001    8    0    1
 -2       971      1044      1045      4022      4026      4024
 -1      2002    8    0    1
 -2       973       972      1037      3793      4027      4001
 -1      2003    8    0    1
 -2       898       897      1007      3549      3909      3962
 -1      2004    8    0    1
 -2       948       975      1046      3886      4028      4029
 -1      2005    8    0    1
 -2      1013       948      1046      3923      4029      4030
 -1      2006    8    0    1
 -2       975       990      1046      3925      4031      4028
 -1      2007    8    0    1
 -2       907       981       933      3811      4032      4033
 -1      2008    8    0    1
 -2       933       981      1008      4032      4034      3900
 -1      2009    8    0    1
 -2       982       983      1047      3816      4035      4036
 -1      2010    8    0    1
 -2       985       986      1048      3825      4037      4038
 -1      2011    8    0    1
 -2       986       987      1049      3828      4039      4040
 -1      2012    8    0    1
 -2       986      1049      1048      4040      4041      4037
 -1      2013    8    0    1
 -2       987       988      1050      3831      4042      4043
 -1      2014    8    0    1
 -2      1049       987      1050      4039      4043      4044
 -1      2015    8    0    1
 -2       988      1015      1050      3933      4045      4042
 -1      2016    8    0    1
 -2       990       935      1046      3839      4046      4031
 -1      2017    8    0    1
 -2       994       991      1051      3850      4047      4048
 -1      2018    8    0    1
 -2       937       853       939      3842      3683      4049
 -1      2019    8    0    1
 -2      1004       982      1052      3882      4050      4051
 -1      2020    8    0    1
 -2      1036      1004      1052      3999      4051      4052
 -1      2021    8    0    1
 -2       982      1047      1052      4036      4053      4050
 -1      2022    8    0    1
 -2       934       946      1053      3887      4054      4055
 -1      2023    8    0    1
 -2       934      1053      1022      4055      4056      3959
 -1      2024    8    0    1
 -2      1003       963      1016      3955      4057      3965
 -1      2025    8    0    1
 -2       984       985      1054      3822      4058      4059
 -1      2026    8    0    1
 -2       985      1048      1054      4038      4060      4058
 -1      2027    8    0    1
 -2       999       993      1055      3866      4061      4062
 -1      2028    8    0    1
 -2       983       984      1056      3819      4063      4064
 -1      2029    8    0    1
 -2      1047       983      1056      4035      4064      4065
 -1      2030    8    0    1
 -2       984      1054      1056      4059      4066      4063
 -1      2031    8    0    1
 -2       942       980      1057      3918      4067      4068
 -1      2032    8    0    1
 -2       996       977      1058      3858      4069      4070
 -1      2033    8    0    1
 -2       996      1058      1038      4070      4071      4004
 -1      2034    8    0    1
 -2       998       941      1059      3956      4072      4073
 -1      2035    8    0    1
 -2       941      1016      1059      3936      4074      4072
 -1      2036    8    0    1
 -2      1001       979      1060      3917      4075      4076
 -1      2037    8    0    1
 -2       979      1036      1060      4000      4077      4075
 -1      2038    8    0    1
 -2       951       999      1061      3888      4078      4079
 -1      2039    8    0    1
 -2      1023       951      1061      3960      4079      4080
 -1      2040    8    0    1
 -2       999      1055      1061      4062      4081      4078
 -1      2041    8    0    1
 -2       981      1001      1008      3871      4082      4034
 -1      2042    8    0    1
 -2      1005       976      1062      3885      4083      4084
 -1      2043    8    0    1
 -2       976      1024      1062      3964      4085      4083
 -1      2044    8    0    1
 -2       965       964      1063      3769      4086      4087
 -1      2045    8    0    1
 -2       965      1063      1039      4087      4088      4007
 -1      2046    8    0    1
 -2      1013      1046      1064      4030      4089      4090
 -1      2047    8    0    1
 -2      1006       942      1057      3889      4068      4091
 -1      2048    8    0    1
 -2       972      1045      1037      4025      4092      4027
 -1      2049    8    0    1
 -2      1053       946      1018      4054      3943      4093
 -1      2050    8    0    1
 -2       989      1037      1065      4003      4094      4095
 -1      2051    8    0    1
 -2       989      1065      1010      4095      4096      3913
 -1      2052    8    0    1
 -2       998      1059      1066      4073      4097      4098
 -1      2053    8    0    1
 -2      1013      1064      1067      4090      4099      4100
 -1      2054    8    0    1
 -2       998      1066      1020      4098      4101      3950
 -1      2055    8    0    1
 -2      1046       935      1009      4046      3904      4102
 -1      2056    8    0    1
 -2      1011       921      1012      3914      3922      4103
 -1      2057    8    0    1
 -2       980      1008      1068      3899      4104      4105
 -1      2058    8    0    1
 -2       980      1068      1057      4105      4106      4067
 -1      2059    8    0    1
 -2      1014      1010      1069      3930      4107      4108
 -1      2060    8    0    1
 -2      1010      1065      1069      4096      4109      4107
 -1      2061    8    0    1
 -2      1012      1005      1070      3920      4110      4111
 -1      2062    8    0    1
 -2      1005      1062      1070      4084      4112      4110
 -1      2063    8    0    1
 -2       939       918       937      3926      3677      4049
 -1      2064    8    0    1
 -2      1008      1001      1060      4082      4076      4113
 -1      2065    8    0    1
 -2      1000      1011      1071      3916      4114      4115
 -1      2066    8    0    1
 -2      1000      1071      1072      4115      4116      4117
 -1      2067    8    0    1
 -2      1000      1072      1018      4117      4118      3941
 -1      2068    8    0    1
 -2       964       929      1073      3896      4119      4120
 -1      2069    8    0    1
 -2      1015      1014      1074      3934      4121      4122
 -1      2070    8    0    1
 -2      1050      1015      1074      4045      4122      4123
 -1      2071    8    0    1
 -2      1014      1069      1074      4108      4124      4121
 -1      2072    8    0    1
 -2      1051       991      1075      4047      4125      4126
 -1      2073    8    0    1
 -2       991      1022      1075      3958      4127      4125
 -1      2074    8    0    1
 -2      1017      1013      1067      3938      4100      4128
 -1      2075    8    0    1
 -2       964      1073      1063      4120      4129      4086
 -1      2076    8    0    1
 -2       945      1020      1021      3949      4130      3954
 -1      2077    8    0    1
 -2       993       995      1076      3853      4131      4132
 -1      2078    8    0    1
 -2       993      1076      1055      4132      4133      4061
 -1      2079    8    0    1
 -2       977      1019      1058      3945      4134      4069
 -1      2080    8    0    1
 -2      1058      1019      1077      4134      4135      4136
 -1      2081    8    0    1
 -2       995       949      1078      3854      4137      4138
 -1      2082    8    0    1
 -2      1076       995      1078      4131      4138      4139
 -1      2083    8    0    1
 -2       949      1002      1078      3874      4140      4137
 -1      2084    8    0    1
 -2      1016       963      1035      4057      3997      4141
 -1      2085    8    0    1
 -2      1019      1021      1077      3953      4142      4135
 -1      2086    8    0    1
 -2      1002       997      1079      3875      4143      4144
 -1      2087    8    0    1
 -2      1078      1002      1079      4140      4144      4145
 -1      2088    8    0    1
 -2       997      1017      1079      3940      4146      4143
 -1      2089    8    0    1
 -2      1067      1064      1080      4099      4147      4148
 -1      2090    8    0    1
 -2      1040      1039      1081      4011      4149      4150
 -1      2091    8    0    1
 -2      1025      1023      1082      3968      4151      4152
 -1      2092    8    0    1
 -2      1026      1025      1083      3971      4153      4154
 -1      2093    8    0    1
 -2      1025      1082      1083      4152      4155      4153
 -1      2094    8    0    1
 -2      1027      1026      1084      3974      4156      4157
 -1      2095    8    0    1
 -2      1026      1083      1084      4154      4158      4156
 -1      2096    8    0    1
 -2      1028      1027      1085      3977      4159      4160
 -1      2097    8    0    1
 -2      1027      1084      1085      4157      4161      4159
 -1      2098    8    0    1
 -2      1029      1028      1086      3980      4162      4163
 -1      2099    8    0    1
 -2      1028      1085      1086      4160      4164      4162
 -1      2100    8    0    1
 -2      1030      1029      1087      3983      4165      4166
 -1      2101    8    0    1
 -2      1029      1086      1087      4163      4167      4165
 -1      2102    8    0    1
 -2      1031      1030      1088      3986      4168      4169
 -1      2103    8    0    1
 -2      1030      1087      1088      4166      4170      4168
 -1      2104    8    0    1
 -2      1032      1031      1089      3989      4171      4172
 -1      2105    8    0    1
 -2      1031      1088      1089      4169      4173      4171
 -1      2106    8    0    1
 -2      1033      1032      1090      3992      4174      4175
 -1      2107    8    0    1
 -2      1032      1089      1090      4172      4176      4174
 -1      2108    8    0    1
 -2      1034      1033      1091      3995      4177      4178
 -1      2109    8    0    1
 -2      1033      1090      1091      4175      4179      4177
 -1      2110    8    0    1
 -2      1022      1053      1092      4056      4180      4181
 -1      2111    8    0    1
 -2      1022      1092      1075      4181      4182      4127
 -1      2112    8    0    1
 -2      1009       994      1093      3905      4183      4184
 -1      2113    8    0    1
 -2      1063      1073      1094      4129      4185      4186
 -1      2114    8    0    1
 -2      1020      1066      1077      4101      4187      4188
 -1      2115    8    0    1
 -2      1053      1018      1095      4093      4189      4190
 -1      2116    8    0    1
 -2      1018      1072      1095      4118      4191      4189
 -1      2117    8    0    1
 -2      1041      1040      1096      4014      4192      4193
 -1      2118    8    0    1
 -2      1040      1081      1096      4150      4194      4192
 -1      2119    8    0    1
 -2      1042      1041      1097      4017      4195      4196
 -1      2120    8    0    1
 -2      1041      1096      1097      4193      4197      4195
 -1      2121    8    0    1
 -2      1043      1042      1098      4020      4198      4199
 -1      2122    8    0    1
 -2      1042      1097      1098      4196      4200      4198
 -1      2123    8    0    1
 -2      1044      1043      1099      4023      4201      4202
 -1      2124    8    0    1
 -2      1043      1098      1099      4199      4203      4201
 -1      2125    8    0    1
 -2      1045      1044      1100      4026      4204      4205
 -1      2126    8    0    1
 -2      1044      1099      1100      4202      4206      4204
 -1      2127    8    0    1
 -2      1046      1009      1064      4102      4207      4089
 -1      2128    8    0    1
 -2       907       933       947      4033      3907      3713
 -1      2129    8    0    1
 -2      1048      1049      1101      4041      4208      4209
 -1      2130    8    0    1
 -2       992       978       859      3946      4210      3845
 -1      2131    8    0    1
 -2      1011      1012      1102      4103      4211      4212
 -1      2132    8    0    1
 -2      1071      1011      1102      4114      4212      4213
 -1      2133    8    0    1
 -2      1012      1070      1102      4111      4214      4211
 -1      2134    8    0    1
 -2      1024      1038      1103      4006      4215      4216
 -1      2135    8    0    1
 -2      1077      1066      1104      4187      4217      4218
 -1      2136    8    0    1
 -2      1008      1060      1068      4113      4219      4104
 -1      2137    8    0    1
 -2      1054      1048      1105      4060      4220      4221
 -1      2138    8    0    1
 -2      1048      1101      1105      4209      4222      4220
 -1      2139    8    0    1
 -2      1058      1077      1106      4136      4223      4224
 -1      2140    8    0    1
 -2      1038      1058      1106      4071      4224      4225
 -1      2141    8    0    1
 -2      1077      1104      1106      4218      4226      4223
 -1      2142    8    0    1
 -2      1037      1045      1107      4092      4227      4228
 -1      2143    8    0    1
 -2      1065      1037      1107      4094      4228      4229
 -1      2144    8    0    1
 -2      1045      1100      1107      4205      4230      4227
 -1      2145    8    0    1
 -2      1039      1063      1108      4088      4231      4232
 -1      2146    8    0    1
 -2      1081      1039      1108      4149      4232      4233
 -1      2147    8    0    1
 -2      1063      1094      1108      4186      4234      4231
 -1      2148    8    0    1
 -2      1093       994      1051      4183      4048      4235
 -1      2149    8    0    1
 -2      1020      1077      1021      4188      4142      4130
 -1      2150    8    0    1
 -2      1017      1067      1109      4128      4236      4237
 -1      2151    8    0    1
 -2      1060      1036      1110      4077      4238      4239
 -1      2152    8    0    1
 -2       940      1006      1073      3891      4240      4241
 -1      2153    8    0    1
 -2      1062      1024      1111      4085      4242      4243
 -1      2154    8    0    1
 -2      1024      1103      1111      4216      4244      4242
 -1      2155    8    0    1
 -2      1064      1009      1093      4207      4184      4245
 -1      2156    8    0    1
 -2      1034      1091      1104      4178      4246      4247
 -1      2157    8    0    1
 -2      1092      1053      1095      4180      4190      4248
 -1      2158    8    0    1
 -2      1035      1034      1104      3998      4247      4249
 -1      2159    8    0    1
 -2      1108      1094      1112      4234      4250      4251
 -1      2160    8    0    1
 -2      1093      1051      1113      4235      4252      4253
 -1      2161    8    0    1
 -2      1110      1036      1114      4238      4254      4255
 -1      2162    8    0    1
 -2      1036      1052      1114      4052      4256      4254
 -1      2163    8    0    1
 -2      1035      1104      1066      4249      4217      4257
 -1      2164    8    0    1
 -2      1054      1105      1115      4221      4258      4259
 -1      2165    8    0    1
 -2      1054      1115      1056      4259      4260      4066
 -1      2166    8    0    1
 -2      1049      1050      1116      4044      4261      4262
 -1      2167    8    0    1
 -2      1101      1049      1116      4208      4262      4263
 -1      2168    8    0    1
 -2      1050      1074      1116      4123      4264      4261
 -1      2169    8    0    1
 -2      1069      1065      1107      4109      4229      4265
 -1      2170    8    0    1
 -2      1070      1062      1117      4112      4266      4267
 -1      2171    8    0    1
 -2      1062      1111      1117      4243      4268      4266
 -1      2172    8    0    1
 -2      1051      1075      1118      4126      4269      4270
 -1      2173    8    0    1
 -2      1051      1118      1113      4270      4271      4252
 -1      2174    8    0    1
 -2      1074      1069      1116      4124      4272      4264
 -1      2175    8    0    1
 -2      1103      1038      1106      4215      4225      4273
 -1      2176    8    0    1
 -2      1073       929       940      4119      3687      4241
 -1      2177    8    0    1
 -2      1069      1107      1119      4265      4274      4275
 -1      2178    8    0    1
 -2      1116      1069      1119      4272      4275      4276
 -1      2179    8    0    1
 -2      1107      1100      1119      4230      4277      4274
 -1      2180    8    0    1
 -2      1072      1071      1120      4116      4278      4279
 -1      2181    8    0    1
 -2      1068      1060      1110      4219      4239      4280
 -1      2182    8    0    1
 -2      1055      1076      1109      4133      4281      4282
 -1      2183    8    0    1
 -2      1052      1047      1121      4053      4283      4284
 -1      2184    8    0    1
 -2      1052      1121      1114      4284      4285      4256
 -1      2185    8    0    1
 -2      1071      1102      1122      4213      4286      4287
 -1      2186    8    0    1
 -2      1071      1122      1120      4287      4288      4278
 -1      2187    8    0    1
 -2      1047      1056      1123      4065      4289      4290
 -1      2188    8    0    1
 -2      1121      1047      1123      4283      4290      4291
 -1      2189    8    0    1
 -2      1056      1115      1123      4260      4292      4289
 -1      2190    8    0    1
 -2      1035      1066      1059      4257      4097      4293
 -1      2191    8    0    1
 -2      1094      1073      1057      4185      4294      4295
 -1      2192    8    0    1
 -2      1082      1023      1124      4151      4296      4297
 -1      2193    8    0    1
 -2      1023      1061      1124      4080      4298      4296
 -1      2194    8    0    1
 -2      1055      1109      1125      4282      4299      4300
 -1      2195    8    0    1
 -2      1055      1125      1061      4300      4301      4081
 -1      2196    8    0    1
 -2      1079      1017      1109      4146      4237      4302
 -1      2197    8    0    1
 -2      1057      1068      1112      4106      4303      4304
 -1      2198    8    0    1
 -2      1109      1067      1126      4236      4305      4306
 -1      2199    8    0    1
 -2      1125      1109      1126      4299      4306      4307
 -1      2200    8    0    1
 -2      1067      1080      1126      4148      4308      4305
 -1      2201    8    0    1
 -2      1057      1112      1094      4304      4250      4295
 -1      2202    8    0    1
 -2      1104      1091      1127      4246      4309      4310
 -1      2203    8    0    1
 -2      1106      1104      1127      4226      4310      4311
 -1      2204    8    0    1
 -2      1091      1090      1127      4179      4312      4309
 -1      2205    8    0    1
 -2      1075      1092      1128      4182      4313      4314
 -1      2206    8    0    1
 -2      1075      1128      1118      4314      4315      4269
 -1      2207    8    0    1
 -2      1092      1095      1129      4248      4316      4317
 -1      2208    8    0    1
 -2      1092      1129      1128      4317      4318      4313
 -1      2209    8    0    1
 -2      1084      1083      1130      4158      4319      4320
 -1      2210    8    0    1
 -2      1085      1084      1131      4161      4321      4322
 -1      2211    8    0    1
 -2      1084      1130      1131      4320      4323      4321
 -1      2212    8    0    1
 -2      1086      1085      1120      4164      4324      4325
 -1      2213    8    0    1
 -2      1087      1086      1122      4167      4326      4327
 -1      2214    8    0    1
 -2      1089      1088      1132      4173      4328      4329
 -1      2215    8    0    1
 -2      1090      1089      1133      4176      4330      4331
 -1      2216    8    0    1
 -2      1127      1090      1133      4312      4331      4332
 -1      2217    8    0    1
 -2      1089      1132      1133      4329      4333      4330
 -1      2218    8    0    1
 -2      1111      1103      1133      4244      4334      4335
 -1      2219    8    0    1
 -2      1096      1081      1134      4194      4336      4337
 -1      2220    8    0    1
 -2      1097      1096      1121      4197      4338      4339
 -1      2221    8    0    1
 -2      1098      1097      1123      4200      4340      4341
 -1      2222    8    0    1
 -2      1099      1098      1115      4203      4342      4343
 -1      2223    8    0    1
 -2      1100      1099      1105      4206      4344      4345
 -1      2224    8    0    1
 -2      1103      1106      1127      4273      4311      4346
 -1      2225    8    0    1
 -2      1081      1108      1135      4233      4347      4348
 -1      2226    8    0    1
 -2      1134      1081      1135      4336      4348      4349
 -1      2227    8    0    1
 -2      1108      1112      1135      4251      4350      4347
 -1      2228    8    0    1
 -2      1068      1110      1112      4280      4351      4303
 -1      2229    8    0    1
 -2      1102      1070      1136      4214      4352      4353
 -1      2230    8    0    1
 -2      1070      1117      1136      4267      4354      4352
 -1      2231    8    0    1
 -2      1035      1059      1016      4293      4074      4141
 -1      2232    8    0    1
 -2      1095      1072      1137      4191      4355      4356
 -1      2233    8    0    1
 -2      1129      1095      1137      4316      4356      4357
 -1      2234    8    0    1
 -2      1072      1120      1137      4279      4358      4355
 -1      2235    8    0    1
 -2      1109      1076      1079      4281      4359      4302
 -1      2236    8    0    1
 -2      1083      1082      1128      4155      4360      4361
 -1      2237    8    0    1
 -2      1101      1116      1119      4263      4276      4362
 -1      2238    8    0    1
 -2      1086      1120      1122      4325      4288      4326
 -1      2239    8    0    1
 -2      1078      1079      1076      4145      4359      4139
 -1      2240    8    0    1
 -2      1105      1099      1115      4344      4343      4258
 -1      2241    8    0    1
 -2      1064      1093      1080      4245      4363      4147
 -1      2242    8    0    1
 -2      1097      1121      1123      4339      4291      4340
 -1      2243    8    0    1
 -2      1112      1110      1135      4351      4364      4350
 -1      2244    8    0    1
 -2      1120      1085      1131      4324      4322      4365
 -1      2245    8    0    1
 -2      1111      1133      1132      4335      4333      4366
 -1      2246    8    0    1
 -2      1088      1087      1138      4170      4367      4368
 -1      2247    8    0    1
 -2      1133      1103      1127      4334      4346      4332
 -1      2248    8    0    1
 -2      1110      1114      1135      4255      4369      4364
 -1      2249    8    0    1
 -2      1098      1123      1115      4341      4292      4342
 -1      2250    8    0    1
 -2      1100      1105      1101      4345      4222      4370
 -1      2251    8    0    1
 -2      1120      1131      1137      4365      4371      4358
 -1      2252    8    0    1
 -2      1117      1111      1132      4268      4366      4372
 -1      2253    8    0    1
 -2      1138      1087      1122      4367      4327      4373
 -1      2254    8    0    1
 -2      1124      1061      1125      4298      4301      4374
 -1      2255    8    0    1
 -2      1128      1082      1118      4360      4375      4315
 -1      2256    8    0    1
 -2      1082      1124      1118      4297      4376      4375
 -1      2257    8    0    1
 -2      1088      1138      1132      4368      4377      4328
 -1      2258    8    0    1
 -2      1113      1118      1124      4271      4376      4378
 -1      2259    8    0    1
 -2      1121      1096      1134      4338      4337      4379
 -1      2260    8    0    1
 -2      1121      1134      1114      4379      4380      4285
 -1      2261    8    0    1
 -2      1131      1130      1137      4323      4381      4371
 -1      2262    8    0    1
 -2      1130      1083      1128      4319      4361      4382
 -1      2263    8    0    1
 -2      1135      1114      1134      4369      4380      4349
 -1      2264    8    0    1
 -2      1093      1113      1080      4253      4383      4363
 -1      2265    8    0    1
 -2      1080      1113      1126      4383      4384      4308
 -1      2266    8    0    1
 -2      1122      1102      1136      4286      4353      4385
 -1      2267    8    0    1
 -2      1057      1073      1006      4294      4240      4091
 -1      2268    8    0    1
 -2      1117      1132      1138      4372      4377      4386
 -1      2269    8    0    1
 -2      1113      1124      1125      4378      4374      4387
 -1      2270    8    0    1
 -2      1117      1138      1136      4386      4388      4354
 -1      2271    8    0    1
 -2      1138      1122      1136      4373      4385      4388
 -1      2272    8    0    1
 -2      1128      1129      1130      4318      4389      4382
 -1      2273    8    0    1
 -2      1100      1101      1119      4370      4362      4277
 -1      2274    8    0    1
 -2       978       831       859      3919      3425      4210
 -1      2275    8    0    1
 -2      1137      1130      1129      4381      4389      4357
 -1      2276    8    0    1
 -2      1126      1113      1125      4384      4387      4307
 -3
    1PSTEP                         1           1           1          
  100CL  101 1.000000000        4389                     0    1           1
 -4  DISP        4    1
 -5  D1          1    2    1    0
 -5  D2          1    2    2    0
 -5  D3          1    2    3    0
 -5  ALL         1    2    0    0    1ALL
 -1         1 8.92775E-03-6.55334E-04-4.70132E-14
 -1         2 1.04615E-02 1.50918E-04-5.15184E-14
 -1         3 1.53747E-02 1.20298E-03-1.29555E-13
 -1         4 1.50068E-02-2.03707E-04-1.36487E-13
 -1         5 0.00000E+00 0.00000E+00 0.00000E+00
 -1         6 0.00000E+00 0.00000E+00 0.00000E+00
 -1         7 0.00000E+00 0.00000E+00 0.00000E+00
 -1         8 0.00000E+00 0.00000E+00 0.00000E+00
 -1         9 0.00000E+00 0.00000E+00 0.00000E+00
 -1        10 0.00000E+00 0.00000E+00 0.00000E+00
 -1        11 0.00000E+00 0.00000E+00 0.00000E+00
 -1        12 0.00000E+00 0.00000E+00 0.00000E+00
 -1        13 0.00000E+00 0.00000E+00 0.00000E+00
 -1        14 0.00000E+00 0.00000E+00 0.00000E+00
 -1        15 0.00000E+00 0.00000E+00 0.00000E+00
 -1        16 0.00000E+00 0.00000E+00 0.00000E+00
 -1        17 0.00000E+00 0.00000E+00 0.00000E+00
 -1        18 0.00000E+00 0.00000E+00 0.00000E+00
 -1        19 0.00000E+00 0.00000E+00 0.00000E+00
 -1        20 0.00000E+00 0.00000E+00 0.00000E+00
 -1        21 0.00000E+00 0.00000E+00 0.00000E+00
 -1        22 0.00000E+00 0.00000E+00 0.00000E+00
 -1        23 4.10409E-04-2.60070E-04 3.83841E-17
 -1        24 7.01664E-04-3.99554E-04-7.28686E-17
 -1        25 9.71092E-04-4.95897E-04-3.30102E-16
 -1        26 1.23503E-03-5.63277E-04-7.30525E-16
 -1        27 1.49814E-03-6.10772E-04-1.27112E-15
 -1        28 1.76259E-03-6.43692E-04-1.94874E-15
 -1        29 2.02945E-03-6.65667E-04-2.76290E-15
 -1        30 2.29925E-03-6.79320E-04-3.70991E-15
 -1        31 2.57231E-03-6.86615E-04-4.78888E-15
 -1        32 2.84879E-03-6.89058E-04-5.99609E-15
 -1        33 3.12892E-03-6.87851E-04-7.32966E-15
 -1        34 3.41296E-03-6.84003E-04-8.78420E-15
 -1        35 3.70132E-03-6.78456E-04-1.03622E-14
 -1        36 3.99457E-03-6.72196E-04-1.20637E-14
 -1        37 4.29342E-03-6.66382E-04-1.38845E-14
 -1        38 4.59870E-03-6.62479E-04-1.58227E-14
 -1        39 4.91124E-03-6.62379E-04-1.78797E-14
 -1        40 5.23168E-03-6.68502E-04-2.00589E-14
 -1        41 5.56015E-03-6.83782E-04-2.23524E-14
 -1        42 5.89580E-03-7.11462E-04-2.47480E-14
 -1        43 6.23620E-03-7.54529E-04-2.72564E-14
 -1        44 6.57693E-03-8.14617E-04-2.98756E-14
 -1        45 6.91145E-03-8.90371E-04-3.26139E-14
 -1        46 7.23210E-03-9.75635E-04-3.54750E-14
 -1        47 7.53244E-03-1.05849E-03-3.84486E-14
 -1        48 7.81053E-03-1.12261E-03-4.15311E-14
 -1        49 8.07140E-03-1.15183E-03-4.47158E-14
 -1        50 8.32659E-03-1.13636E-03-4.80047E-14
 -1        51 8.58995E-03-1.07725E-03-5.14080E-14
 -1        52 8.87202E-03-9.85911E-04-5.49205E-14
 -1        53 9.17649E-03-8.78994E-04-5.85332E-14
 -1        54 9.50035E-03-7.72237E-04-6.22341E-14
 -1        55 9.83672E-03-6.76493E-04-6.60096E-14
 -1        56 1.01780E-02-5.96897E-04-6.98429E-14
 -1        57 1.05182E-02-5.34097E-04-7.37384E-14
 -1        58 1.08532E-02-4.86103E-04-7.76893E-14
 -1        59 1.11811E-02-4.49833E-04-8.16756E-14
 -1        60 1.15013E-02-4.22110E-04-8.57037E-14
 -1        61 1.18142E-02-4.00157E-04-8.97647E-14
 -1        62 1.21206E-02-3.81767E-04-9.38575E-14
 -1        63 1.24217E-02-3.65300E-04-9.79942E-14
 -1        64 1.27183E-02-3.49603E-04-1.02166E-13
 -1        65 1.30116E-02-3.33903E-04-1.06387E-13
 -1        66 1.33021E-02-3.17711E-04-1.10653E-13
 -1        67 1.35907E-02-3.00738E-04-1.14952E-13
 -1        68 1.38779E-02-2.82834E-04-1.19267E-13
 -1        69 1.41642E-02-2.63952E-04-1.23601E-13
 -1        70 1.44499E-02-2.44135E-04-1.27946E-13
 -1        71 1.47355E-02-2.23566E-04-1.32315E-13
 -1        72 4.12844E-04 2.60771E-04 6.96837E-17
 -1        73 7.01475E-04 4.02252E-04 1.57446E-17
 -1        74 9.71607E-04 4.97660E-04-1.61001E-16
 -1        75 1.23583E-03 5.64974E-04-4.64282E-16
 -1        76 1.49905E-03 6.12504E-04-8.95148E-16
 -1        77 1.76354E-03 6.45489E-04-1.45357E-15
 -1        78 2.03041E-03 6.67530E-04-2.13930E-15
 -1        79 2.30021E-03 6.81229E-04-2.94823E-15
 -1        80 2.57324E-03 6.88528E-04-3.88163E-15
 -1        81 2.84972E-03 6.90909E-04-4.93868E-15
 -1        82 3.12987E-03 6.89534E-04-6.11403E-15
 -1        83 3.41402E-03 6.85374E-04-7.40554E-15
 -1        84 3.70265E-03 6.79314E-04-8.81263E-15
 -1        85 3.99649E-03 6.72291E-04-1.03316E-14
 -1        86 4.29649E-03 6.65429E-04-1.19650E-14
 -1        87 4.60385E-03 6.60211E-04-1.37053E-14
 -1        88 4.91999E-03 6.58681E-04-1.55524E-14
 -1        89 5.24635E-03 6.63653E-04-1.75058E-14
 -1        90 5.58410E-03 6.78885E-04-1.95606E-14
 -1        91 5.93354E-03 7.09093E-04-2.17157E-14
 -1        92 6.29322E-03 7.59546E-04-2.39688E-14
 -1        93 6.65882E-03 8.34861E-04-2.63144E-14
 -1        94 7.02227E-03 9.36618E-04-2.87643E-14
 -1        95 7.37213E-03 1.05984E-03-3.13147E-14
 -1        96 7.69656E-03 1.18970E-03-3.39731E-14
 -1        97 7.98921E-03 1.30175E-03-3.67413E-14
 -1        98 8.25528E-03 1.36895E-03-3.96220E-14
 -1        99 8.51217E-03 1.37391E-03-4.26095E-14
 -1       100 8.78201E-03 1.31853E-03-4.57160E-14
 -1       101 9.08044E-03 1.22290E-03-4.89394E-14
 -1       102 9.41031E-03 1.11441E-03-5.22716E-14
 -1       103 9.76375E-03 1.01601E-03-5.57262E-14
 -1       104 1.01286E-02 9.40591E-04-5.92760E-14
 -1       105 1.04939E-02 8.91649E-04-6.29130E-14
 -1       106 1.08523E-02 8.66797E-04-6.66389E-14
 -1       107 1.12002E-02 8.61145E-04-7.04492E-14
 -1       108 1.15366E-02 8.69475E-04-7.43263E-14
 -1       109 1.18622E-02 8.87270E-04-7.82781E-14
 -1       110 1.21784E-02 9.11018E-04-8.22923E-14
 -1       111 1.24867E-02 9.38171E-04-8.63637E-14
 -1       112 1.27888E-02 9.66970E-04-9.05051E-14
 -1       113 1.30859E-02 9.96255E-04-9.46935E-14
 -1       114 1.33794E-02 1.02529E-03-9.89316E-14
 -1       115 1.36700E-02 1.05365E-03-1.03218E-13
 -1       116 1.39587E-02 1.08108E-03-1.07537E-13
 -1       117 1.42459E-02 1.10749E-03-1.11896E-13
 -1       118 1.45321E-02 1.13285E-03-1.16300E-13
 -1       119 1.48178E-02 1.15724E-03-1.20766E-13
 -1       120 1.51033E-02 1.18086E-03-1.25269E-13
 -1       121 1.53518E-02 1.11862E-03-1.30020E-13
 -1       122 1.53293E-02 1.03419E-03-1.30476E-13
 -1       123 1.53074E-02 9.49939E-04-1.30880E-13
 -1       124 1.52863E-02 8.66197E-04-1.31242E-13
 -1       125 1.52655E-02 7.83161E-04-1.31587E-13
 -1       126 1.52453E-02 7.02269E-04-1.31955E-13
 -1       127 1.52246E-02 6.20635E-04-1.32348E-13
 -1       128 1.52034E-02 5.39446E-04-1.32741E-13
 -1       129 1.51817E-02 4.58411E-04-1.33152E-13
 -1       130 1.51595E-02 3.77215E-04-1.33569E-13
 -1       131 1.51369E-02 2.95568E-04-1.33989E-13
 -1       132 1.51144E-02 2.14665E-04-1.34420E-13
 -1       133 1.50918E-02 1.31624E-04-1.34874E-13
 -1       134 1.50695E-02 4.78848E-05-1.35298E-13
 -1       135 1.50480E-02-3.63621E-05-1.35702E-13
 -1       136 1.50271E-02-1.20773E-04-1.36098E-13
 -1       137 1.04108E-02 3.38409E-04-5.11026E-14
 -1       138 1.02695E-02 4.99328E-04-5.03945E-14
 -1       139 1.00300E-02 6.52588E-04-4.93566E-14
 -1       140 9.72484E-03 7.79458E-04-4.81421E-14
 -1       141 9.34726E-03 8.82969E-04-4.67384E-14
 -1       142 8.90891E-03 9.53557E-04-4.52026E-14
 -1       143 8.40613E-03 9.84149E-04-4.35090E-14
 -1       144 7.92412E-03 9.66045E-04-4.19734E-14
 -1       145 7.42005E-03 8.95959E-04-4.04273E-14
 -1       146 7.02081E-03 7.98815E-04-3.92666E-14
 -1       147 6.65477E-03 6.63670E-04-3.82557E-14
 -1       148 6.36619E-03 5.03220E-04-3.75115E-14
 -1       149 6.18809E-03 3.43600E-04-3.71072E-14
 -1       150 6.09561E-03 1.73009E-04-3.69739E-14
 -1       151 6.09723E-03 8.56732E-06-3.71258E-14
 -1       152 6.20871E-03-1.72769E-04-3.76483E-14
 -1       153 6.39466E-03-3.20984E-04-3.83682E-14
 -1       154 6.68798E-03-4.63969E-04-3.94261E-14
 -1       155 7.05248E-03-5.78261E-04-4.06994E-14
 -1       156 7.44412E-03-6.54598E-04-4.20378E-14
 -1       157 7.94748E-03-7.02448E-04-4.37425E-14
 -1       158 8.45880E-03-7.00556E-04-4.54609E-14
 -1       159 9.35155E-03-5.75132E-04-4.83917E-14
 -1       160 9.72800E-03-4.62886E-04-4.95942E-14
 -1       161 1.00404E-02-3.25621E-04-5.05482E-14
 -1       162 1.02649E-02-1.76318E-04-5.11870E-14
 -1       163 1.04100E-02-1.23003E-05-5.15237E-14
 -1       164 2.40133E-04-1.25167E-04-2.72643E-17
 -1       165 2.25190E-04-9.42821E-05-4.72238E-17
 -1       166 2.19577E-04-7.24470E-05-5.80556E-17
 -1       167 2.16846E-04-5.47830E-05-6.38358E-17
 -1       168 2.15399E-04-3.96849E-05-6.64819E-17
 -1       169 2.14588E-04-2.57061E-05-6.73425E-17
 -1       170 2.14180E-04-1.25339E-05-6.70986E-17
 -1       171 2.14062E-04 2.69530E-07-6.61804E-17
 -1       172 2.14201E-04 1.30857E-05-6.43372E-17
 -1       173 2.14632E-04 2.62987E-05-6.17284E-17
 -1       174 2.15452E-04 4.01088E-05-5.76491E-17
 -1       175 2.16952E-04 5.55897E-05-5.17876E-17
 -1       176 2.19724E-04 7.34811E-05-4.27582E-17
 -1       177 2.25364E-04 9.56843E-05-2.83892E-17
 -1       178 2.39059E-04 1.27246E-04-4.67901E-18
 -1       179 2.97165E-04 1.85027E-04 2.12436E-17
 -1       180 4.67848E-04-2.62687E-04-7.50674E-17
 -1       181 7.65548E-04-3.80369E-04-2.86507E-16
 -1       182 1.04906E-03-4.62032E-04-6.33747E-16
 -1       183 1.32624E-03-5.19215E-04-1.11740E-15
 -1       184 1.60083E-03-5.58859E-04-1.73617E-15
 -1       185 1.87499E-03-5.85563E-04-2.48881E-15
 -1       186 2.14999E-03-6.02542E-04-3.37321E-15
 -1       187 2.42659E-03-6.12135E-04-4.38676E-15
 -1       188 2.70531E-03-6.16094E-04-5.52873E-15
 -1       189 2.98650E-03-6.15764E-04-6.79613E-15
 -1       190 3.27052E-03-6.12227E-04-8.18661E-15
 -1       191 3.55774E-03-6.06418E-04-9.69697E-15
 -1       192 3.84857E-03-5.99256E-04-1.13307E-14
 -1       193 4.14354E-03-5.91765E-04-1.30832E-14
 -1       194 4.44321E-03-5.85218E-04-1.49543E-14
 -1       195 4.74818E-03-5.81275E-04-1.69419E-14
 -1       196 5.05894E-03-5.82124E-04-1.90474E-14
 -1       197 5.37577E-03-5.90553E-04-2.12707E-14
 -1       198 5.69846E-03-6.09893E-04-2.36017E-14
 -1       199 6.02605E-03-6.43680E-04-2.60380E-14
 -1       200 6.35652E-03-6.94833E-04-2.85855E-14
 -1       201 6.68663E-03-7.64207E-04-3.12455E-14
 -1       202 7.01209E-03-8.48586E-04-3.40260E-14
 -1       203 7.32846E-03-9.38789E-04-3.69219E-14
 -1       204 7.63278E-03-1.01940E-03-3.99268E-14
 -1       205 7.92550E-03-1.07180E-03-4.30405E-14
 -1       206 8.21133E-03-1.08060E-03-4.62582E-14
 -1       207 8.49792E-03-1.04055E-03-4.95856E-14
 -1       208 8.79258E-03-9.59134E-04-5.30224E-14
 -1       209 9.09928E-03-8.52902E-04-5.65654E-14
 -1       210 9.41771E-03-7.40275E-04-6.02028E-14
 -1       211 9.74452E-03-6.35610E-04-6.39198E-14
 -1       212 1.00752E-02-5.46864E-04-6.77042E-14
 -1       213 1.04057E-02-4.76326E-04-7.15499E-14
 -1       214 1.07329E-02-4.22608E-04-7.54573E-14
 -1       215 1.10553E-02-3.82594E-04-7.94134E-14
 -1       216 1.13720E-02-3.52765E-04-8.34122E-14
 -1       217 1.16830E-02-3.29923E-04-8.74503E-14
 -1       218 1.19887E-02-3.11475E-04-9.15212E-14
 -1       219 1.22899E-02-2.95469E-04-9.56333E-14
 -1       220 1.25872E-02-2.80522E-04-9.97849E-14
 -1       221 1.28814E-02-2.65706E-04-1.03974E-13
 -1       222 1.31730E-02-2.50429E-04-1.08207E-13
 -1       223 1.34627E-02-2.34341E-04-1.12483E-13
 -1       224 1.37510E-02-2.17255E-04-1.16779E-13
 -1       225 1.40382E-02-1.99098E-04-1.21099E-13
 -1       226 1.43246E-02-1.79881E-04-1.25437E-13
 -1       227 1.46106E-02-1.59718E-04-1.29790E-13
 -1       228 6.03489E-04 3.29811E-04-5.51181E-17
 -1       229 8.92135E-04 4.30399E-04-2.47266E-16
 -1       230 1.17069E-03 5.00782E-04-5.61329E-16
 -1       231 1.44485E-03 5.50095E-04-1.00003E-15
 -1       232 1.71770E-03 5.84074E-04-1.56334E-15
 -1       233 1.99098E-03 6.06601E-04-2.25284E-15
 -1       234 2.26567E-03 6.20450E-04-3.06601E-15
 -1       235 2.54240E-03 6.27662E-04-4.00171E-15
 -1       236 2.82159E-03 6.29773E-04-5.05781E-15
 -1       237 3.10361E-03 6.27966E-04-6.23192E-15
 -1       238 3.38885E-03 6.23201E-04-7.52346E-15
 -1       239 3.67776E-03 6.16336E-04-8.92894E-15
 -1       240 3.97095E-03 6.08254E-04-1.04470E-14
 -1       241 4.26917E-03 6.00008E-04-1.20778E-14
 -1       242 4.57331E-03 5.92998E-04-1.38169E-14
 -1       243 4.88437E-03 5.89179E-04-1.56629E-14
 -1       244 5.20335E-03 5.91294E-04-1.76137E-14
 -1       245 5.53104E-03 6.03091E-04-1.96675E-14
 -1       246 5.86766E-03 6.29412E-04-2.18203E-14
 -1       247 6.21236E-03 6.75895E-04-2.40747E-14
 -1       248 6.56262E-03 7.47904E-04-2.64246E-14
 -1       249 6.91377E-03 8.48177E-04-2.88726E-14
 -1       250 7.25913E-03 9.73095E-04-3.14192E-14
 -1       251 7.59148E-03 1.10865E-03-3.40725E-14
 -1       252 7.90629E-03 1.22954E-03-3.68390E-14
 -1       253 8.20544E-03 1.30584E-03-3.97207E-14
 -1       254 8.49825E-03 1.31659E-03-4.27140E-14
 -1       255 8.79744E-03 1.26187E-03-4.58202E-14
 -1       256 9.11233E-03 1.16273E-03-4.90429E-14
 -1       257 9.44480E-03 1.04904E-03-5.23768E-14
 -1       258 9.79029E-03 9.45955E-04-5.58237E-14
 -1       259 1.01416E-02 8.67420E-04-5.93706E-14
 -1       260 1.04921E-02 8.17040E-04-6.30103E-14
 -1       261 1.08372E-02 7.92058E-04-6.67346E-14
 -1       262 1.11744E-02 7.87114E-04-7.05342E-14
 -1       263 1.15028E-02 7.96591E-04-7.44022E-14
 -1       264 1.18230E-02 8.15689E-04-7.83419E-14
 -1       265 1.21356E-02 8.40723E-04-8.23426E-14
 -1       266 1.24418E-02 8.69052E-04-8.64053E-14
 -1       267 1.27428E-02 8.98875E-04-9.05354E-14
 -1       268 1.30397E-02 9.29023E-04-9.47182E-14
 -1       269 1.33332E-02 9.58770E-04-9.89496E-14
 -1       270 1.36242E-02 9.87698E-04-1.03224E-13
 -1       271 1.39134E-02 1.01559E-03-1.07530E-13
 -1       272 1.42011E-02 1.04235E-03-1.11877E-13
 -1       273 1.44880E-02 1.06797E-03-1.16272E-13
 -1       274 1.47741E-02 1.09253E-03-1.20718E-13
 -1       275 1.50600E-02 1.11623E-03-1.25205E-13
 -1       276 1.50930E-02 1.05645E-03-1.26347E-13
 -1       277 1.50709E-02 9.72439E-04-1.26789E-13
 -1       278 1.50495E-02 8.88822E-04-1.27202E-13
 -1       279 1.50288E-02 8.05737E-04-1.27607E-13
 -1       280 1.50087E-02 7.24635E-04-1.27997E-13
 -1       281 1.49883E-02 6.42678E-04-1.28399E-13
 -1       282 1.49674E-02 5.61142E-04-1.28806E-13
 -1       283 1.49461E-02 4.79831E-04-1.29219E-13
 -1       284 1.49241E-02 3.98514E-04-1.29634E-13
 -1       285 1.49015E-02 3.16964E-04-1.30049E-13
 -1       286 1.48790E-02 2.36382E-04-1.30464E-13
 -1       287 1.48560E-02 1.53868E-04-1.30885E-13
 -1       288 1.48333E-02 7.07696E-05-1.31305E-13
 -1       289 1.48113E-02-1.28512E-05-1.31708E-13
 -1       290 1.47107E-02-8.62468E-05-1.30751E-13
 -1       291 1.04753E-02 2.01498E-04-5.30971E-14
 -1       292 1.03313E-02 3.15782E-04-5.20296E-14
 -1       293 1.00772E-02 4.41584E-04-5.10579E-14
 -1       294 9.75106E-03 6.06538E-04-4.96310E-14
 -1       295 9.38480E-03 7.76245E-04-4.80673E-14
 -1       296 8.99771E-03 9.31571E-04-4.63196E-14
 -1       297 8.58485E-03 1.04715E-03-4.44293E-14
 -1       298 8.19652E-03 1.05617E-03-4.25061E-14
 -1       299 7.80079E-03 9.74956E-04-4.06350E-14
 -1       300 7.37741E-03 8.16378E-04-3.91748E-14
 -1       301 6.98386E-03 6.34885E-04-3.79304E-14
 -1       302 6.60906E-03 4.43373E-04-3.68640E-14
 -1       303 6.30770E-03 2.98662E-04-3.62792E-14
 -1       304 6.12069E-03 1.81737E-04-3.59012E-14
 -1       305 6.05912E-03 9.18059E-05-3.59875E-14
 -1       306 6.13373E-03 5.74137E-06-3.60762E-14
 -1       307 6.34193E-03-1.24824E-04-3.70599E-14
 -1       308 6.64573E-03-2.64430E-04-3.80117E-14
 -1       309 7.01991E-03-4.37967E-04-3.93586E-14
 -1       310 7.39228E-03-6.01021E-04-4.09103E-14
 -1       311 7.80055E-03-7.33130E-04-4.26345E-14
 -1       312 8.20739E-03-7.92440E-04-4.47093E-14
 -1       313 8.60020E-03-7.39635E-04-4.66730E-14
 -1       314 8.99603E-03-6.14580E-04-4.83651E-14
 -1       315 9.37020E-03-4.43621E-04-5.00409E-14
 -1       316 9.76168E-03-2.73129E-04-5.12165E-14
 -1       317 1.00882E-02-1.15581E-04-5.21823E-14
 -1       318 1.03326E-02 1.63663E-05-5.28692E-14
 -1       319 1.04675E-02 1.11730E-04-5.29665E-14
 -1       320 4.55284E-04-1.63856E-04-1.98179E-16
 -1       321 4.73935E-04-2.12058E-04-1.65961E-16
 -1       322 4.40738E-04-9.32704E-05-2.27666E-16
 -1       323 4.37823E-04-6.43227E-05-2.32460E-16
 -1       324 4.36218E-04-3.75297E-05-2.33781E-16
 -1       325 4.35512E-04-1.18930E-05-2.32199E-16
 -1       326 4.35545E-04 1.33951E-05-2.27950E-16
 -1       327 4.36320E-04 3.90907E-05-2.21316E-16
 -1       328 4.37972E-04 6.55414E-05-2.11816E-16
 -1       329 4.40979E-04 9.46648E-05-1.98155E-16
 -1       330 4.46256E-04 1.27486E-04-1.78981E-16
 -1       331 4.55887E-04 1.66419E-04-1.50965E-16
 -1       332 4.75553E-04 2.16123E-04-1.09352E-16
 -1       333 5.31365E-04 2.68914E-04-8.93112E-17
 -1       334 8.23552E-04 3.71447E-04-2.90244E-16
 -1       335 8.62605E-04-3.55138E-04-5.23900E-16
 -1       336 1.14887E-03-4.22482E-04-9.55375E-16
 -1       337 1.43172E-03-4.69818E-04-1.51849E-15
 -1       338 1.71270E-03-5.02204E-04-2.21204E-15
 -1       339 1.99304E-03-5.23340E-04-3.03607E-15
 -1       340 2.27360E-03-5.35952E-04-3.98801E-15
 -1       341 2.55502E-03-5.42069E-04-5.06601E-15
 -1       342 2.83774E-03-5.43223E-04-6.26929E-15
 -1       343 3.12214E-03-5.40605E-04-7.59516E-15
 -1       344 3.40854E-03-5.35191E-04-9.04093E-15
 -1       345 3.69730E-03-5.27866E-04-1.06074E-14
 -1       346 3.98879E-03-5.19550E-04-1.22939E-14
 -1       347 4.28343E-03-5.11329E-04-1.40973E-14
 -1       348 4.58172E-03-5.04602E-04-1.60169E-14
 -1       349 4.88416E-03-5.01231E-04-1.80536E-14
 -1       350 5.19127E-03-5.03663E-04-2.02069E-14
 -1       351 5.50352E-03-5.14992E-04-2.24713E-14
 -1       352 5.82116E-03-5.38834E-04-2.48404E-14
 -1       353 6.14405E-03-5.78881E-04-2.73166E-14
 -1       354 6.47130E-03-6.37879E-04-2.99012E-14
 -1       355 6.80081E-03-7.15861E-04-3.26030E-14
 -1       356 7.12908E-03-8.07724E-04-3.54206E-14
 -1       357 7.45177E-03-9.01068E-04-3.83487E-14
 -1       358 7.76566E-03-9.76517E-04-4.13859E-14
 -1       359 8.07136E-03-1.01292E-03-4.45318E-14
 -1       360 8.37411E-03-9.96654E-04-4.77840E-14
 -1       361 8.68106E-03-9.29210E-04-5.11494E-14
 -1       362 8.99673E-03-8.26333E-04-5.46195E-14
 -1       363 9.32083E-03-7.09482E-04-5.81924E-14
 -1       364 9.64976E-03-5.96950E-04-6.18520E-14
 -1       365 9.97924E-03-4.99669E-04-6.55856E-14
 -1       366 1.03060E-02-4.21579E-04-6.93839E-14
 -1       367 1.06283E-02-3.61957E-04-7.32436E-14
 -1       368 1.09454E-02-3.17768E-04-7.71616E-14
 -1       369 1.12573E-02-2.85290E-04-8.11300E-14
 -1       370 1.15644E-02-2.61014E-04-8.51440E-14
 -1       371 1.18673E-02-2.42024E-04-8.91928E-14
 -1       372 1.21664E-02-2.26089E-04-9.32767E-14
 -1       373 1.24624E-02-2.11599E-04-9.74065E-14
 -1       374 1.27558E-02-1.97458E-04-1.01573E-13
 -1       375 1.30472E-02-1.82960E-04-1.05778E-13
 -1       376 1.33370E-02-1.67678E-04-1.10026E-13
 -1       377 1.36254E-02-1.51380E-04-1.14304E-13
 -1       378 1.39129E-02-1.33962E-04-1.18602E-13
 -1       379 1.41997E-02-1.15412E-04-1.22925E-13
 -1       380 1.44554E-02-1.01215E-04-1.26830E-13
 -1       381 1.10884E-03 4.44430E-04-6.09413E-16
 -1       382 1.38954E-03 4.95747E-04-1.05029E-15
 -1       383 1.66802E-03 5.31113E-04-1.61459E-15
 -1       384 1.94589E-03 5.54550E-04-2.30320E-15
 -1       385 2.22421E-03 5.68959E-04-3.11494E-15
 -1       386 2.50371E-03 5.76474E-04-4.04770E-15
 -1       387 2.78488E-03 5.78689E-04-5.09998E-15
 -1       388 3.06813E-03 5.76822E-04-6.26999E-15
 -1       389 3.35385E-03 5.71840E-04-7.55662E-15
 -1       390 3.64244E-03 5.64588E-04-8.95711E-15
 -1       391 3.93440E-03 5.55911E-04-1.04704E-14
 -1       392 4.23031E-03 5.46804E-04-1.20958E-14
 -1       393 4.53085E-03 5.38578E-04-1.38309E-14
 -1       394 4.83682E-03 5.33074E-04-1.56726E-14
 -1       395 5.14902E-03 5.32896E-04-1.76185E-14
 -1       396 5.46826E-03 5.41646E-04-1.96673E-14
 -1       397 5.79511E-03 5.64068E-04-2.18173E-14
 -1       398 6.12970E-03 6.05883E-04-2.40685E-14
 -1       399 6.47129E-03 6.72941E-04-2.64158E-14
 -1       400 6.81767E-03 7.69148E-04-2.88580E-14
 -1       401 7.16466E-03 8.92845E-04-3.13990E-14
 -1       402 7.50618E-03 1.03216E-03-3.40446E-14
 -1       403 7.83646E-03 1.16216E-03-3.68045E-14
 -1       404 8.15424E-03 1.24988E-03-3.96790E-14
 -1       405 8.46564E-03 1.26922E-03-4.26704E-14
 -1       406 8.78123E-03 1.21697E-03-4.57752E-14
 -1       407 9.10864E-03 1.11525E-03-4.89953E-14
 -1       408 9.44814E-03 9.97117E-04-5.23251E-14
 -1       409 9.79458E-03 8.90093E-04-5.57662E-14
 -1       410 1.01417E-02 8.08946E-04-5.93096E-14
 -1       411 1.04849E-02 7.57182E-04-6.29449E-14
 -1       412 1.08215E-02 7.31699E-04-6.66622E-14
 -1       413 1.11505E-02 7.26826E-04-7.04561E-14
 -1       414 1.14721E-02 7.36716E-04-7.43162E-14
 -1       415 1.17868E-02 7.56410E-04-7.82441E-14
 -1       416 1.20954E-02 7.82117E-04-8.22323E-14
 -1       417 1.23988E-02 8.11124E-04-8.62860E-14
 -1       418 1.26980E-02 8.41586E-04-9.04050E-14
 -1       419 1.29936E-02 8.72310E-04-9.45821E-14
 -1       420 1.32865E-02 9.02563E-04-9.88046E-14
 -1       421 1.35773E-02 9.31924E-04-1.03066E-13
 -1       422 1.38664E-02 9.60178E-04-1.07361E-13
 -1       423 1.41543E-02 9.87241E-04-1.11699E-13
 -1       424 1.44413E-02 1.01312E-03-1.16083E-13
 -1       425 1.47277E-02 1.03787E-03-1.20509E-13
 -1       426 1.49104E-02 1.04733E-03-1.23421E-13
 -1       427 1.47919E-02 8.27229E-04-1.23580E-13
 -1       428 1.48127E-02 9.10387E-04-1.23142E-13
 -1       429 1.48613E-02 9.78723E-04-1.23287E-13
 -1       430 1.47720E-02 7.46062E-04-1.24007E-13
 -1       431 1.47518E-02 6.64062E-04-1.24429E-13
 -1       432 1.47314E-02 5.82530E-04-1.24848E-13
 -1       433 1.47104E-02 5.01303E-04-1.25272E-13
 -1       434 1.46887E-02 4.20176E-04-1.25693E-13
 -1       435 1.46663E-02 3.38933E-04-1.26106E-13
 -1       436 1.46438E-02 2.58757E-04-1.26515E-13
 -1       437 1.46205E-02 1.76730E-04-1.26926E-13
 -1       438 1.45975E-02 9.41359E-05-1.27329E-13
 -1       439 1.45748E-02 1.09551E-05-1.27730E-13
 -1       440 1.02084E-02 3.14820E-04-5.29447E-14
 -1       441 1.05049E-02 1.58234E-04-5.45703E-14
 -1       442 1.04161E-02 2.27452E-04-5.40233E-14
 -1       443 9.86585E-03 4.67343E-04-5.14256E-14
 -1       444 9.49987E-03 6.45205E-04-4.98628E-14
 -1       445 4.45865E-04-1.25648E-04-2.17040E-16
 -1       446 8.78880E-03 9.99996E-04-4.59079E-14
 -1       447 8.36243E-03 1.09701E-03-4.31872E-14
 -1       448 8.05452E-03 1.06034E-03-4.12475E-14
 -1       449 7.62476E-03 8.83473E-04-3.90548E-14
 -1       450 7.25234E-03 6.91972E-04-3.77380E-14
 -1       451 6.86160E-03 4.80842E-04-3.64075E-14
 -1       452 6.46851E-03 2.97629E-04-3.54859E-14
 -1       453 6.20901E-03 1.80540E-04-3.46882E-14
 -1       454 6.05754E-03 1.14084E-04-3.48006E-14
 -1       455 6.05834E-03 6.55980E-05-3.48770E-14
 -1       456 6.25586E-03-1.75412E-05-3.53573E-14
 -1       457 6.49890E-03-1.17140E-04-3.62686E-14
 -1       458 6.88525E-03-2.96877E-04-3.77257E-14
 -1       459 7.28972E-03-5.02564E-04-3.94384E-14
 -1       460 7.61797E-03-6.64450E-04-4.11201E-14
 -1       461 8.01357E-03-8.01298E-04-4.35155E-14
 -1       462 8.39830E-03-8.01194E-04-4.60527E-14
 -1       463 8.76048E-03-6.85440E-04-4.82412E-14
 -1       464 9.08086E-03-5.30519E-04-4.99246E-14
 -1       465 9.52590E-03-2.91893E-04-5.19824E-14
 -1       466 9.88577E-03-1.24774E-04-5.30167E-14
 -1       467 1.01968E-02 1.21489E-05-5.39656E-14
 -1       468 1.04317E-02 1.08836E-04-5.44715E-14
 -1       469 9.09541E-03 8.59543E-04-4.76512E-14
 -1       470 1.05055E-02 1.87501E-04-5.54982E-14
 -1       471 6.12027E-03 3.42096E-05-3.41590E-14
 -1       472 8.57897E-03 1.07975E-03-4.46377E-14
 -1       473 9.30875E-04 3.43424E-04-5.27549E-16
 -1       474 6.66262E-04-7.42724E-05-4.96541E-16
 -1       475 6.70207E-04-1.14689E-04-4.90971E-16
 -1       476 6.63581E-04 1.09209E-06-4.90480E-16
 -1       477 6.64310E-04 3.82967E-05-4.80034E-16
 -1       478 6.66460E-04 7.59430E-05-4.64848E-16
 -1       479 6.70539E-04 1.16518E-04-4.43595E-16
 -1       480 6.77465E-04 1.60894E-04-4.14677E-16
 -1       481 6.89175E-04 2.11106E-04-3.74609E-16
 -1       482 1.21678E-03 4.02384E-04-9.31889E-16
 -1       483 9.76148E-04-3.25797E-04-7.87680E-16
 -1       484 7.12607E-04-2.50159E-04-4.43645E-16
 -1       485 9.27919E-03 7.59105E-04-4.95157E-14
 -1       486 1.26211E-03-3.79081E-04-1.29738E-15
 -1       487 1.54731E-03-4.16771E-04-1.93452E-15
 -1       488 1.83178E-03-4.42211E-04-2.69966E-15
 -1       489 2.11587E-03-4.58192E-04-3.59173E-15
 -1       490 2.39998E-03-4.66907E-04-4.60799E-15
 -1       491 2.68447E-03-4.70041E-04-5.74827E-15
 -1       492 2.96962E-03-4.68892E-04-7.01072E-15
 -1       493 3.25568E-03-4.64491E-04-8.39328E-15
 -1       494 3.54291E-03-4.57712E-04-9.89465E-15
 -1       495 3.83155E-03-4.49385E-04-1.15147E-14
 -1       496 4.12191E-03-4.40423E-04-1.32530E-14
 -1       497 4.41438E-03-4.31949E-04-1.51051E-14
 -1       498 4.70944E-03-4.25439E-04-1.70726E-14
 -1       499 5.00777E-03-4.22863E-04-1.91580E-14
 -1       500 5.31023E-03-4.26806E-04-2.13560E-14
 -1       501 5.61794E-03-4.40537E-04-2.36609E-14
 -1       502 5.93221E-03-4.67908E-04-2.60695E-14
 -1       503 6.25422E-03-5.12942E-04-2.85830E-14
 -1       504 6.58432E-03-5.78759E-04-3.12056E-14
 -1       505 6.92092E-03-6.65398E-04-3.39462E-14
 -1       506 7.25946E-03-7.66277E-04-3.67972E-14
 -1       507 7.59322E-03-8.64563E-04-3.97561E-14
 -1       508 7.91728E-03-9.33911E-04-4.28255E-14
 -1       509 8.23358E-03-9.48851E-04-4.60049E-14
 -1       510 8.55070E-03-8.99884E-04-4.92930E-14
 -1       511 8.87654E-03-8.00640E-04-5.26938E-14
 -1       512 9.21165E-03-6.77826E-04-5.62016E-14
 -1       513 9.55040E-03-5.56261E-04-5.98042E-14
 -1       514 9.88618E-03-4.50669E-04-6.34845E-14
 -1       515 1.02150E-02-3.66127E-04-6.72339E-14
 -1       516 1.05357E-02-3.01817E-04-7.10471E-14
 -1       517 1.08489E-02-2.54337E-04-7.49234E-14
 -1       518 1.11559E-02-2.19649E-04-7.88555E-14
 -1       519 1.14579E-02-1.94006E-04-8.28387E-14
 -1       520 1.17562E-02-1.74304E-04-8.68639E-14
 -1       521 1.20515E-02-1.58149E-04-9.09274E-14
 -1       522 1.23445E-02-1.43793E-04-9.50306E-14
 -1       523 1.26357E-02-1.30023E-04-9.91745E-14
 -1       524 1.29255E-02-1.16039E-04-1.03356E-13
 -1       525 1.32142E-02-1.01350E-04-1.07576E-13
 -1       526 1.35020E-02-8.56800E-05-1.11835E-13
 -1       527 1.37892E-02-6.88989E-05-1.16117E-13
 -1       528 1.40758E-02-5.09641E-05-1.20419E-13
 -1       529 1.03381E-02 2.53717E-04-5.50676E-14
 -1       530 1.78412E-03 4.72410E-04-2.10278E-15
 -1       531 2.06672E-03 4.90546E-04-2.87166E-15
 -1       532 2.34944E-03 5.00864E-04-3.76015E-15
 -1       533 2.63275E-03 5.05170E-04-4.76690E-15
 -1       534 2.91703E-03 5.04834E-04-5.89228E-15
 -1       535 3.20260E-03 5.00911E-04-7.13368E-15
 -1       536 3.48974E-03 4.94269E-04-8.48965E-15
 -1       537 3.77877E-03 4.85702E-04-9.95861E-15
 -1       538 4.07004E-03 4.76060E-04-1.15392E-14
 -1       539 4.36397E-03 4.66400E-04-1.32306E-14
 -1       540 4.66106E-03 4.58166E-04-1.50324E-14
 -1       541 4.96195E-03 4.53390E-04-1.69382E-14
 -1       542 5.26748E-03 4.54930E-04-1.89468E-14
 -1       543 5.57877E-03 4.66694E-04-2.10582E-14
 -1       544 5.89729E-03 4.93770E-04-2.32706E-14
 -1       545 6.22477E-03 5.42273E-04-2.55811E-14
 -1       546 6.56270E-03 6.18449E-04-2.79856E-14
 -1       547 6.91108E-03 7.26348E-04-3.04854E-14
 -1       548 7.26655E-03 8.63318E-04-3.30842E-14
 -1       549 7.62095E-03 1.01313E-03-3.57907E-14
 -1       550 7.96535E-03 1.14107E-03-3.86127E-14
 -1       551 8.29849E-03 1.20508E-03-4.15574E-14
 -1       552 8.63014E-03 1.18175E-03-4.46219E-14
 -1       553 8.97176E-03 1.08635E-03-4.78013E-14
 -1       554 9.32460E-03 9.59710E-04-5.10914E-14
 -1       555 9.68071E-03 8.39512E-04-5.44917E-14
 -1       556 1.00313E-02 7.46128E-04-5.79970E-14
 -1       557 1.03718E-02 6.84676E-04-6.15952E-14
 -1       558 1.07017E-02 6.52011E-04-6.52782E-14
 -1       559 1.10224E-02 6.42072E-04-6.90373E-14
 -1       560 1.13356E-02 6.48617E-04-7.28690E-14
 -1       561 1.16429E-02 6.66322E-04-7.67630E-14
 -1       562 1.19455E-02 6.91059E-04-8.07152E-14
 -1       563 1.22444E-02 7.19819E-04-8.47347E-14
 -1       564 1.25402E-02 7.50517E-04-8.88207E-14
 -1       565 1.28337E-02 7.81771E-04-9.29685E-14
 -1       566 1.31251E-02 8.12713E-04-9.71598E-14
 -1       567 1.34151E-02 8.42830E-04-1.01393E-13
 -1       568 1.37038E-02 8.71852E-04-1.05662E-13
 -1       569 1.39916E-02 8.99662E-04-1.09969E-13
 -1       570 1.42786E-02 9.26235E-04-1.14321E-13
 -1       571 1.45651E-02 9.51618E-04-1.18712E-13
 -1       572 1.45153E-02 6.84607E-04-1.20442E-13
 -1       573 1.44954E-02 6.03257E-04-1.20881E-13
 -1       574 1.45549E-02 8.47807E-04-1.19547E-13
 -1       575 1.45350E-02 7.65870E-04-1.19997E-13
 -1       576 1.44749E-02 5.22348E-04-1.21314E-13
 -1       577 1.44536E-02 4.41664E-04-1.21744E-13
 -1       578 1.44315E-02 3.60965E-04-1.22166E-13
 -1       579 1.44090E-02 2.81389E-04-1.22570E-13
 -1       580 1.43855E-02 1.99990E-04-1.22975E-13
 -1       581 1.43620E-02 1.17983E-04-1.23376E-13
 -1       582 1.43387E-02 3.52914E-05-1.23772E-13
 -1       583 9.72394E-03 5.20955E-04-5.21749E-14
 -1       584 1.50104E-03 4.44068E-04-1.45649E-15
 -1       585 1.00450E-02 3.68963E-04-5.37127E-14
 -1       586 1.03473E-02 9.17606E-05-5.59265E-14
 -1       587 1.05048E-02 1.47322E-04-5.63651E-14
 -1       588 8.56974E-03-7.65582E-04-4.77599E-14
 -1       589 6.68014E-03-1.87748E-04-3.59005E-14
 -1       590 6.07689E-03 1.21822E-04-3.34596E-14
 -1       591 6.64193E-04-3.60759E-05-4.96175E-16
 -1       592 8.22967E-03 1.11089E-03-4.20268E-14
 -1       593 7.07937E-03-3.87604E-04-3.76152E-14
 -1       594 7.84588E-03 9.91361E-04-3.93983E-14
 -1       595 7.42113E-03 7.61340E-04-3.72594E-14
 -1       596 7.08164E-03 5.67429E-04-3.59441E-14
 -1       597 6.64931E-03 3.46357E-04-3.46444E-14
 -1       598 6.36302E-03 2.23990E-04-3.38608E-14
 -1       599 6.01595E-03 8.84322E-05-3.35340E-14
 -1       600 6.35629E-03-5.30853E-05-3.45278E-14
 -1       601 8.22691E-03-8.40135E-04-4.51655E-14
 -1       602 7.44862E-03-5.90465E-04-3.94616E-14
 -1       603 9.73502E-03-1.60380E-04-5.41781E-14
 -1       604 7.79626E-03-7.52518E-04-4.18031E-14
 -1       605 8.90276E-03-6.11141E-04-5.00396E-14
 -1       606 9.27435E-03-4.04735E-04-5.23044E-14
 -1       607 1.00369E-02-2.42855E-05-5.51439E-14
 -1       608 9.00559E-03 9.07720E-04-4.77301E-14
 -1       609 7.03416E-04 2.89233E-04-2.78084E-16
 -1       610 6.76915E-04-1.58616E-04-4.77791E-16
 -1       611 1.04743E-02 2.14069E-04-5.65515E-14
 -1       612 1.05574E-02 1.72085E-04-5.72995E-14
 -1       613 1.42689E-02-3.98507E-05-1.23350E-13
 -1       614 6.17001E-03 1.57355E-04-3.26445E-14
 -1       615 6.18656E-03-2.62388E-06-3.33401E-14
 -1       616 6.92002E-04-2.01289E-04-4.65868E-16
 -1       617 8.80690E-03 1.01662E-03-4.64257E-14
 -1       618 6.01167E-03 6.16774E-05-3.28235E-14
 -1       619 9.00160E-04 7.30480E-05-8.16350E-16
 -1       620 8.98030E-04 2.48058E-05-8.36533E-16
 -1       621 9.12284E-04 1.76094E-04-7.50705E-16
 -1       622 9.24530E-04 2.34325E-04-7.00628E-16
 -1       623 1.04898E-03 3.10738E-04-7.98244E-16
 -1       624 1.42692E-02 8.22608E-04-1.15177E-13
 -1       625 1.33482E-03 3.56683E-04-1.28410E-15
 -1       626 1.02601E-02 5.49074E-05-5.77029E-14
 -1       627 9.50600E-04-2.67374E-04-8.21364E-16
 -1       628 1.23543E-03-3.15505E-04-1.33782E-15
 -1       629 9.56035E-03-2.63799E-04-5.48679E-14
 -1       630 1.52150E-03-3.50386E-04-1.97967E-15
 -1       631 1.80780E-03-3.74266E-04-2.74681E-15
 -1       632 2.09403E-03-3.89387E-04-3.63861E-15
 -1       633 2.38013E-03-3.97656E-04-4.65371E-15
 -1       634 2.66617E-03-4.00604E-04-5.79054E-15
 -1       635 2.95224E-03-3.99436E-04-7.04807E-15
 -1       636 3.23843E-03-3.95111E-04-8.42454E-15
 -1       637 3.52487E-03-3.88433E-04-9.91862E-15
 -1       638 3.81170E-03-3.80152E-04-1.15306E-14
 -1       639 4.09910E-03-3.71070E-04-1.32590E-14
 -1       640 4.38738E-03-3.62154E-04-1.50998E-14
 -1       641 4.67702E-03-3.54657E-04-1.70566E-14
 -1       642 4.96875E-03-3.50256E-04-1.91299E-14
 -1       643 5.26375E-03-3.51181E-04-2.13155E-14
 -1       644 5.56376E-03-3.60367E-04-2.36052E-14
 -1       645 5.87116E-03-3.81570E-04-2.59979E-14
 -1       646 6.18878E-03-4.19373E-04-2.84957E-14
 -1       647 6.51911E-03-4.78741E-04-3.10989E-14
 -1       648 6.86250E-03-5.63289E-04-3.38166E-14
 -1       649 7.21475E-03-6.71072E-04-3.66422E-14
 -1       650 7.56617E-03-7.86207E-04-3.95738E-14
 -1       651 7.90634E-03-8.75353E-04-4.26210E-14
 -1       652 8.23664E-03-8.99828E-04-4.57766E-14
 -1       653 8.56808E-03-8.42050E-04-4.90452E-14
 -1       654 8.91051E-03-7.24090E-04-5.24280E-14
 -1       655 9.26266E-03-5.85686E-04-5.59220E-14
 -1       656 9.61410E-03-4.58214E-04-5.95107E-14
 -1       657 9.95577E-03-3.54764E-04-6.31763E-14
 -1       658 1.02842E-02-2.76162E-04-6.69077E-14
 -1       659 1.06002E-02-2.18323E-04-7.07072E-14
 -1       660 1.09064E-02-1.76265E-04-7.45703E-14
 -1       661 1.12057E-02-1.45510E-04-7.84921E-14
 -1       662 1.15002E-02-1.22440E-04-8.24654E-14
 -1       663 1.17917E-02-1.04273E-04-8.64831E-14
 -1       664 1.20813E-02-8.89355E-05-9.05422E-14
 -1       665 1.23696E-02-7.49386E-05-9.46405E-14
 -1       666 1.26571E-02-6.12551E-05-9.87817E-14
 -1       667 1.29441E-02-4.72125E-05-1.02959E-13
 -1       668 1.32307E-02-3.24000E-05-1.07175E-13
 -1       669 1.35170E-02-1.65923E-05-1.11428E-13
 -1       670 1.38031E-02 3.17006E-07-1.15706E-13
 -1       671 8.74769E-03-7.08151E-04-4.97420E-14
 -1       672 7.98909E-03-8.40141E-04-4.32618E-14
 -1       673 1.90631E-03 4.10847E-04-2.61552E-15
 -1       674 2.76259E-03 4.32414E-04-5.50351E-15
 -1       675 3.04840E-03 4.30075E-04-6.70030E-15
 -1       676 3.33467E-03 4.24686E-04-8.01212E-15
 -1       677 3.62152E-03 4.17017E-04-9.43792E-15
 -1       678 3.90911E-03 4.07813E-04-1.09755E-14
 -1       679 4.19759E-03 3.97923E-04-1.26222E-14
 -1       680 4.48721E-03 3.88434E-04-1.43813E-14
 -1       681 4.77836E-03 3.80828E-04-1.62474E-14
 -1       682 5.07168E-03 3.77172E-04-1.82183E-14
 -1       683 5.36829E-03 3.80320E-04-2.02933E-14
 -1       684 5.67009E-03 3.94146E-04-2.24655E-14
 -1       685 5.98003E-03 4.23816E-04-2.47379E-14
 -1       686 6.30224E-03 4.76024E-04-2.71065E-14
 -1       687 6.64117E-03 5.58497E-04-2.95676E-14
 -1       688 6.99918E-03 6.78144E-04-3.21220E-14
 -1       689 7.37236E-03 8.33856E-04-3.47769E-14
 -1       690 7.74750E-03 1.00221E-03-3.75435E-14
 -1       691 8.10962E-03 1.12749E-03-4.04340E-14
 -1       692 8.46264E-03 1.15140E-03-4.34510E-14
 -1       693 8.82221E-03 1.06623E-03-4.65910E-14
 -1       694 9.19507E-03 9.23795E-04-4.98468E-14
 -1       695 9.57006E-03 7.83944E-04-5.32108E-14
 -1       696 9.93233E-03 6.77344E-04-5.66775E-14
 -1       697 1.02756E-02 6.08765E-04-6.02440E-14
 -1       698 1.06012E-02 5.72117E-04-6.38911E-14
 -1       699 1.09136E-02 5.59483E-04-6.76153E-14
 -1       700 1.12171E-02 5.63923E-04-7.14158E-14
 -1       701 1.15148E-02 5.79974E-04-7.52785E-14
 -1       702 1.18091E-02 6.03517E-04-7.92018E-14
 -1       703 1.21010E-02 6.31534E-04-8.31894E-14
 -1       704 1.23914E-02 6.61887E-04-8.72439E-14
 -1       705 1.26806E-02 6.93110E-04-9.13555E-14
 -1       706 1.29690E-02 7.24250E-04-9.55200E-14
 -1       707 1.32568E-02 7.54719E-04-9.97276E-14
 -1       708 1.35441E-02 7.84188E-04-1.03970E-13
 -1       709 1.38309E-02 8.12500E-04-1.08249E-13
 -1       710 1.40502E-02 8.17932E-04-1.11704E-13
 -1       711 1.42189E-02 4.62570E-04-1.17800E-13
 -1       712 1.04903E-02 1.30441E-04-5.85701E-14
 -1       713 1.42593E-02 6.23095E-04-1.16915E-13
 -1       714 1.41972E-02 3.82636E-04-1.18227E-13
 -1       715 1.42395E-02 5.42628E-04-1.17364E-13
 -1       716 1.41748E-02 3.03890E-04-1.18635E-13
 -1       717 1.41512E-02 2.23346E-04-1.19043E-13
 -1       718 1.41271E-02 1.42137E-04-1.19444E-13
 -1       719 1.41031E-02 6.01139E-05-1.19838E-13
 -1       720 1.62069E-03 3.89154E-04-1.88968E-15
 -1       721 9.17589E-03 8.51549E-04-4.93660E-14
 -1       722 9.96057E-03 4.34803E-04-5.45019E-14
 -1       723 8.44052E-03-8.27722E-04-4.72730E-14
 -1       724 6.47689E-03-1.27360E-04-3.40416E-14
 -1       725 6.81115E-03 4.41832E-04-3.37652E-14
 -1       726 6.81990E-03-2.88121E-04-3.55447E-14
 -1       727 9.53739E-03 6.53403E-04-5.19178E-14
 -1       728 2.47708E-03 4.30801E-04-4.42363E-15
 -1       729 2.19171E-03 4.24101E-04-3.46113E-15
 -1       730 9.04660E-04 1.22953E-04-7.88174E-16
 -1       731 7.18337E-03-4.83265E-04-3.74024E-14
 -1       732 7.19645E-03 6.61160E-04-3.50406E-14
 -1       733 5.98831E-03 9.60849E-05-3.21515E-14
 -1       734 6.46923E-03 2.76682E-04-3.29045E-14
 -1       735 7.60225E-03 8.86673E-04-3.72954E-14
 -1       736 9.09275E-03-5.30852E-04-5.23581E-14
 -1       737 1.40892E-02 4.76786E-06-1.20129E-13
 -1       738 9.04270E-04-1.20563E-04-8.50431E-16
 -1       739 7.60453E-03-7.06562E-04-4.01327E-14
 -1       740 1.02797E-02 3.04272E-04-5.64980E-14
 -1       741 8.44280E-03 1.12841E-03-4.34883E-14
 -1       742 9.94302E-03-7.30312E-05-5.64995E-14
 -1       743 9.11667E-04-1.73518E-04-8.37116E-16
 -1       744 8.97964E-04-2.28060E-05-8.49198E-16
 -1       745 1.04429E-02 2.59257E-04-5.79948E-14
 -1       746 9.37802E-03-4.01149E-04-5.49199E-14
 -1       747 1.05917E-02 1.57727E-04-5.95167E-14
 -1       748 1.05769E-02 1.95513E-04-5.83626E-14
 -1       749 1.42785E-02 7.03520E-04-1.16459E-13
 -1       750 6.24937E-03 2.02961E-04-3.17036E-14
 -1       751 5.93659E-03 7.15681E-05-3.14532E-14
 -1       752 6.02812E-03 1.23366E-04-3.13503E-14
 -1       753 6.28583E-03-6.67560E-05-3.28597E-14
 -1       754 8.99944E-04-7.07849E-05-8.53860E-16
 -1       755 6.03179E-03 3.06991E-05-3.20184E-14
 -1       756 1.16197E-03 2.40206E-04-1.12793E-15
 -1       757 1.39413E-02 3.25218E-04-1.14708E-13
 -1       758 1.07763E-03-2.34437E-04-1.09870E-15
 -1       759 1.64842E-03-2.95190E-04-2.39436E-15
 -1       760 1.93561E-03-3.12235E-04-3.22663E-15
 -1       761 2.22295E-03-3.22481E-04-4.18133E-15
 -1       762 2.51010E-03-3.27333E-04-5.25682E-15
 -1       763 2.79684E-03-3.27951E-04-6.45242E-15
 -1       764 3.08306E-03-3.25264E-04-7.76633E-15
 -1       765 3.36868E-03-3.20028E-04-9.19695E-15
 -1       766 3.65367E-03-3.12897E-04-1.07446E-14
 -1       767 3.93803E-03-3.04499E-04-1.24085E-14
 -1       768 4.22189E-03-2.95527E-04-1.41854E-14
 -1       769 4.50549E-03-2.86825E-04-1.60750E-14
 -1       770 4.78936E-03-2.79492E-04-1.80801E-14
 -1       771 5.07445E-03-2.74999E-04-2.01991E-14
 -1       772 5.36239E-03-2.75350E-04-2.24251E-14
 -1       773 5.65576E-03-2.83344E-04-2.47525E-14
 -1       774 5.95833E-03-3.03012E-04-2.71829E-14
 -1       775 6.27501E-03-3.40176E-04-2.97184E-14
 -1       776 6.61084E-03-4.02802E-04-3.23593E-14
 -1       777 6.96779E-03-4.99180E-04-3.51064E-14
 -1       778 9.15944E-03-5.51426E-04-5.39336E-14
 -1       779 9.53022E-03-4.02920E-04-5.74684E-14
 -1       780 9.88452E-03-2.89710E-04-6.10866E-14
 -1       781 1.02171E-02-2.08586E-04-6.47698E-14
 -1       782 1.05314E-02-1.51681E-04-6.85199E-14
 -1       783 1.08322E-02-1.11224E-04-7.23398E-14
 -1       784 1.11245E-02-8.16685E-05-7.62250E-14
 -1       785 1.14116E-02-5.91990E-05-8.01626E-14
 -1       786 1.16962E-02-4.11744E-05-8.41502E-14
 -1       787 1.19795E-02-2.57256E-05-8.81861E-14
 -1       788 1.22626E-02-1.15257E-05-9.22642E-14
 -1       789 1.25458E-02 2.34998E-06-9.63802E-14
 -1       790 1.28294E-02 1.65203E-05-1.00536E-13
 -1       791 1.31134E-02 3.13741E-05-1.04729E-13
 -1       792 1.33977E-02 4.71302E-05-1.08960E-13
 -1       793 1.36825E-02 6.38990E-05-1.13224E-13
 -1       794 9.84957E-03-1.63889E-04-5.79340E-14
 -1       795 2.89295E-03 3.59074E-04-6.25899E-15
 -1       796 3.74942E-03 3.41235E-04-1.04019E-14
 -1       797 4.03387E-03 3.32157E-04-1.20074E-14
 -1       798 4.31773E-03 3.22775E-04-1.37218E-14
 -1       799 4.60106E-03 3.14122E-04-1.55458E-14
 -1       800 4.88413E-03 3.07576E-04-1.74796E-14
 -1       801 5.16762E-03 3.04995E-04-1.95165E-14
 -1       802 5.45292E-03 3.08890E-04-2.16532E-14
 -1       803 5.74268E-03 3.22704E-04-2.38866E-14
 -1       804 6.04159E-03 3.51466E-04-2.62183E-14
 -1       805 6.35652E-03 4.03409E-04-2.86441E-14
 -1       806 6.69558E-03 4.88415E-04-3.11594E-14
 -1       807 9.85670E-03 5.99074E-04-5.53540E-14
 -1       808 1.02028E-02 5.25310E-04-5.88828E-14
 -1       809 1.05224E-02 4.89000E-04-6.25013E-14
 -1       810 1.08241E-02 4.77436E-04-6.61930E-14
 -1       811 1.11154E-02 4.82172E-04-6.99579E-14
 -1       812 1.14013E-02 4.97714E-04-7.37969E-14
 -1       813 1.16849E-02 5.20323E-04-7.76923E-14
 -1       814 1.19679E-02 5.47334E-04-8.16488E-14
 -1       815 1.22509E-02 5.76819E-04-8.56690E-14
 -1       816 1.25343E-02 6.07403E-04-8.97479E-14
 -1       817 1.28183E-02 6.38143E-04-9.38828E-14
 -1       818 1.31027E-02 6.68426E-04-9.80666E-14
 -1       819 1.33874E-02 6.97881E-04-1.02286E-13
 -1       820 1.36725E-02 7.26315E-04-1.06543E-13
 -1       821 1.39637E-02 4.04248E-04-1.14286E-13
 -1       822 1.38683E-02 8.52490E-05-1.15923E-13
 -1       823 2.60662E-03 3.59554E-04-5.10715E-15
 -1       824 2.03304E-03 3.46966E-04-3.15245E-15
 -1       825 1.39176E-02 2.45787E-04-1.15121E-13
 -1       826 1.38931E-02 1.65988E-04-1.15528E-13
 -1       827 3.46442E-03 3.49204E-04-8.90740E-15
 -1       828 3.17891E-03 3.55374E-04-7.52591E-15
 -1       829 6.88167E-03 5.37152E-04-3.27118E-14
 -1       830 1.01779E-02-7.11663E-06-5.91692E-14
 -1       831 6.52007E-03 3.46593E-04-3.15484E-14
 -1       832 1.36204E-03-2.69752E-04-1.68501E-15
 -1       833 2.31995E-03 3.55901E-04-4.07181E-15
 -1       834 1.24658E-03 2.96676E-04-1.21074E-15
 -1       835 6.54854E-03-2.19514E-04-3.33566E-14
 -1       836 1.02073E-02 3.86467E-04-5.73147E-14
 -1       837 1.04646E-02 9.21389E-05-6.07038E-14
 -1       838 1.13840E-03 5.79925E-05-1.26456E-15
 -1       839 6.90259E-03-3.96831E-04-3.51926E-14
 -1       840 9.85059E-03 5.50529E-04-5.48178E-14
 -1       841 9.53856E-03 7.21265E-04-5.25721E-14
 -1       842 7.21951E-03-5.82768E-04-3.70395E-14
 -1       843 1.13697E-03 1.18115E-06-1.28745E-15
 -1       844 1.14956E-03-1.73323E-04-1.29111E-15
 -1       845 1.03836E-02 3.29688E-04-5.88226E-14
 -1       846 1.74606E-03 3.31315E-04-2.35020E-15
 -1       847 1.06652E-02 1.80821E-04-6.05923E-14
 -1       848 1.39847E-02 4.83240E-04-1.13854E-13
 -1       849 1.38911E-02 7.32156E-04-1.09977E-13
 -1       850 1.40045E-02 5.62566E-04-1.13406E-13
 -1       851 1.40606E-02 6.99221E-04-1.13003E-13
 -1       852 6.35642E-03-1.52484E-04-3.21873E-14
 -1       853 1.40326E-02 6.30547E-04-1.13207E-13
 -1       854 1.14227E-03-1.13184E-04-1.30121E-15
 -1       855 6.07169E-03 1.60295E-04-3.04276E-14
 -1       856 5.91474E-03 4.49799E-05-3.06631E-14
 -1       857 1.49599E-03 3.18331E-04-1.73289E-15
 -1       858 5.90980E-03 9.24194E-05-3.04572E-14
 -1       859 6.29663E-03 2.70155E-04-3.03745E-14
 -1       860 1.05981E-02 1.29081E-04-6.16642E-14
 -1       861 1.14260E-03 1.15769E-04-1.23129E-15
 -1       862 9.25035E-04-2.25636E-04-8.19572E-16
 -1       863 1.15017E-03 1.76166E-04-1.18678E-15
 -1       864 6.09590E-03-1.93345E-05-3.15464E-14
 -1       865 1.37081E-02 1.44328E-04-1.12831E-13
 -1       866 2.73771E-03 2.87827E-04-5.81130E-15
 -1       867 2.06700E-03-2.47974E-04-3.71969E-15
 -1       868 2.35477E-03-2.54162E-04-4.73415E-15
 -1       869 2.64210E-03-2.56326E-04-5.86739E-15
 -1       870 2.92860E-03-2.55298E-04-7.11945E-15
 -1       871 3.21396E-03-2.51754E-04-8.48700E-15
 -1       872 3.49795E-03-2.46246E-04-9.97062E-15
 -1       873 3.78039E-03-2.39260E-04-1.15709E-14
 -1       874 4.06115E-03-2.31270E-04-1.32841E-14
 -1       875 4.34023E-03-2.22797E-04-1.51091E-14
 -1       876 4.61778E-03-2.14470E-04-1.70466E-14
 -1       877 4.89429E-03-2.07100E-04-1.90992E-14
 -1       878 5.17075E-03-2.01782E-04-2.12601E-14
 -1       879 5.44901E-03-2.00086E-04-2.35245E-14
 -1       880 5.73226E-03-2.04499E-04-2.58900E-14
 -1       881 6.02567E-03-2.19409E-04-2.83583E-14
 -1       882 6.33656E-03-2.52548E-04-3.09274E-14
 -1       883 1.36854E-02 2.68319E-04-1.11214E-13
 -1       884 1.49266E-03-2.19452E-04-2.05304E-15
 -1       885 1.01760E-02-7.99370E-05-6.14400E-14
 -1       886 1.01740E-02-1.32686E-04-6.26505E-14
 -1       887 1.04820E-02-8.04522E-05-6.63532E-14
 -1       888 1.07732E-02-4.47585E-05-7.01247E-14
 -1       889 1.10551E-02-1.87168E-05-7.39667E-14
 -1       890 1.13325E-02 1.74090E-06-7.78681E-14
 -1       891 1.16082E-02 1.89137E-05-8.18222E-14
 -1       892 1.18840E-02 3.42604E-05-8.58330E-14
 -1       893 1.21607E-02 4.87697E-05-8.98845E-14
 -1       894 1.24387E-02 6.31307E-05-9.39816E-14
 -1       895 1.27181E-02 7.78146E-05-9.81186E-14
 -1       896 1.29988E-02 9.31237E-05-1.02291E-13
 -1       897 1.32806E-02 1.09240E-04-1.06499E-13
 -1       898 1.34942E-02 1.26494E-04-1.09656E-13
 -1       899 3.87413E-03 2.67954E-04-1.13823E-14
 -1       900 4.70729E-03 2.44426E-04-1.67289E-14
 -1       901 4.98040E-03 2.39217E-04-1.87287E-14
 -1       902 5.25166E-03 2.37437E-04-2.08284E-14
 -1       903 5.52235E-03 2.40936E-04-2.30252E-14
 -1       904 5.79510E-03 2.52299E-04-2.53196E-14
 -1       905 6.07577E-03 2.75658E-04-2.77105E-14
 -1       906 1.07562E-02 3.95660E-04-6.47667E-14
 -1       907 1.04727E-02 4.01904E-04-6.11070E-14
 -1       908 1.01797E-02 4.55094E-04-5.79283E-14
 -1       909 1.10300E-02 4.03517E-04-6.85006E-14
 -1       910 1.13006E-02 4.19993E-04-7.23099E-14
 -1       911 1.15711E-02 4.42158E-04-7.61816E-14
 -1       912 1.18432E-02 4.68049E-04-8.01123E-14
 -1       913 1.21174E-02 4.96215E-04-8.41017E-14
 -1       914 1.23938E-02 5.25553E-04-8.81505E-14
 -1       915 1.26722E-02 5.55247E-04-9.22526E-14
 -1       916 1.29522E-02 5.84722E-04-9.64061E-14
 -1       917 1.32337E-02 6.13605E-04-1.00605E-13
 -1       918 1.35163E-02 6.41664E-04-1.04843E-13
 -1       919 1.37089E-02 3.46369E-04-1.10788E-13
 -1       920 4.43186E-03 2.51655E-04-1.48365E-14
 -1       921 4.15409E-03 2.59791E-04-1.30542E-14
 -1       922 3.59225E-03 2.75436E-04-9.82002E-15
 -1       923 1.13822E-03-5.54729E-05-1.29978E-15
 -1       924 2.16328E-03 2.81176E-04-3.71241E-15
 -1       925 5.91587E-03 1.18916E-04-2.95536E-14
 -1       926 1.06209E-02 2.26767E-04-6.02386E-14
 -1       927 2.45077E-03 2.86521E-04-4.70369E-15
 -1       928 1.77936E-03-2.36773E-04-2.82566E-15
 -1       929 1.04540E-02 3.10811E-05-6.30055E-14
 -1       930 6.64970E-03-3.26195E-04-3.32820E-14
 -1       931 1.41080E-03 2.61154E-04-1.63330E-15
 -1       932 5.83904E-03 6.78128E-05-2.96862E-14
 -1       933 1.05989E-02 2.80478E-04-6.10830E-14
 -1       934 3.02378E-03 2.85960E-04-7.03371E-15
 -1       935 1.87566E-03 2.70736E-04-2.83754E-15
 -1       936 1.37307E-02 4.24126E-04-1.10356E-13
 -1       937 1.37338E-02 6.47669E-04-1.08256E-13
 -1       938 1.37507E-02 5.02053E-04-1.09912E-13
 -1       939 1.37785E-02 5.68837E-04-1.09719E-13
 -1       940 1.06015E-02 7.87144E-05-6.39856E-14
 -1       941 5.94134E-03 5.19188E-06-3.01999E-14
 -1       942 1.07142E-02 1.58820E-04-6.27600E-14
 -1       943 6.15244E-03-9.25007E-05-3.08890E-14
 -1       944 1.38063E-03 3.33518E-05-1.80700E-15
 -1       945 5.80682E-03 8.94759E-05-2.88015E-14
 -1       946 3.30871E-03 2.81628E-04-8.36995E-15
 -1       947 1.04218E-02 3.65884E-04-5.99635E-14
 -1       948 1.38395E-03 9.76692E-05-1.77134E-15
 -1       949 1.48287E-03-1.49583E-04-2.06827E-15
 -1       950 1.36970E-02 2.06736E-04-1.12026E-13
 -1       951 2.48911E-03-1.84878E-04-5.29553E-15
 -1       952 2.77599E-03-1.85188E-04-6.48387E-15
 -1       953 3.06151E-03-1.83278E-04-7.78871E-15
 -1       954 3.34525E-03-1.79587E-04-9.20848E-15
 -1       955 3.62682E-03-1.74467E-04-1.07447E-14
 -1       956 3.90589E-03-1.68224E-04-1.23952E-14
 -1       957 4.18217E-03-1.61149E-04-1.41569E-14
 -1       958 4.45546E-03-1.53542E-04-1.60296E-14
 -1       959 4.72570E-03-1.45740E-04-1.80155E-14
 -1       960 4.99310E-03-1.38168E-04-2.01122E-14
 -1       961 5.25833E-03-1.31414E-04-2.23135E-14
 -1       962 5.52277E-03-1.26399E-04-2.46161E-14
 -1       963 5.78957E-03-1.25283E-04-2.70187E-14
 -1       964 1.07322E-02 2.20195E-05-6.79257E-14
 -1       965 1.09980E-02 4.24353E-05-7.17201E-14
 -1       966 1.12619E-02 5.96987E-05-7.55820E-14
 -1       967 1.15266E-02 7.54407E-05-7.95039E-14
 -1       968 1.17933E-02 9.05260E-05-8.34815E-14
 -1       969 1.20626E-02 1.05463E-04-8.75110E-14
 -1       970 1.23346E-02 1.20604E-04-9.15828E-14
 -1       971 1.26092E-02 1.36192E-04-9.56975E-14
 -1       972 1.28862E-02 1.52401E-04-9.98502E-14
 -1       973 1.31650E-02 1.69300E-04-1.04042E-13
 -1       974 5.07011E-03 1.76591E-04-1.99900E-14
 -1       975 1.44696E-03 1.89607E-04-1.82305E-15
 -1       976 4.80854E-03 1.80118E-04-1.79273E-14
 -1       977 5.57829E-03 1.78098E-04-2.44117E-14
 -1       978 5.82680E-03 1.86638E-04-2.67653E-14
 -1       979 1.12099E-02 3.47926E-04-7.08140E-14
 -1       980 1.07821E-02 2.11594E-04-6.31126E-14
 -1       981 1.07120E-02 3.17237E-04-6.33396E-14
 -1       982 1.17244E-02 3.94352E-04-7.85722E-14
 -1       983 1.19887E-02 4.20722E-04-8.25372E-14
 -1       984 1.22572E-02 4.48207E-04-8.65587E-14
 -1       985 1.25294E-02 4.76198E-04-9.06299E-14
 -1       986 1.28046E-02 5.04219E-04-9.47519E-14
 -1       987 1.30823E-02 5.31923E-04-9.89264E-14
 -1       988 1.33620E-02 5.59092E-04-1.03141E-13
 -1       989 1.34546E-02 2.89891E-04-1.07321E-13
 -1       990 1.64283E-03 2.69002E-04-2.19419E-15
 -1       991 2.58385E-03 2.16489E-04-5.35813E-15
 -1       992 5.92918E-03 1.62644E-04-2.84105E-14
 -1       993 1.91362E-03-1.75308E-04-3.27173E-15
 -1       994 2.29643E-03 2.13864E-04-4.29594E-15
 -1       995 1.69774E-03-1.63532E-04-2.63629E-15
 -1       996 5.32661E-03 1.75581E-04-2.21519E-14
 -1       997 1.38055E-03-3.05317E-05-1.82957E-15
 -1       998 5.76824E-03 3.14363E-05-2.84927E-14
 -1       999 2.20143E-03-1.81800E-04-4.22443E-15
 -1      1000 3.71897E-03 2.04192E-04-1.07497E-14
 -1      1001 1.09597E-02 3.29829E-04-6.70399E-14
 -1      1002 1.43023E-03-8.85350E-05-1.95205E-15
 -1      1003 6.10274E-03-1.56854E-04-2.96244E-14
 -1      1004 1.14647E-02 3.69817E-04-7.46632E-14
 -1      1005 4.54215E-03 1.85343E-04-1.59687E-14
 -1      1006 1.07450E-02 1.19552E-04-6.51004E-14
 -1      1007 1.34659E-02 2.29679E-04-1.08137E-13
 -1      1008 1.08077E-02 2.54636E-04-6.39772E-14
 -1      1009 2.00860E-03 2.07638E-04-3.35001E-15
 -1      1010 1.34777E-02 3.66326E-04-1.06887E-13
 -1      1011 3.99685E-03 1.97994E-04-1.23783E-14
 -1      1012 4.27142E-03 1.91523E-04-1.41181E-14
 -1      1013 1.62817E-03 7.11836E-05-2.40517E-15
 -1      1014 1.34983E-02 4.42663E-04-1.06442E-13
 -1      1015 1.34312E-02 5.00944E-04-1.04795E-13
 -1      1016 5.97298E-03-5.56931E-05-2.95563E-14
 -1      1017 1.62627E-03 1.48377E-06-2.44089E-15
 -1      1018 3.43828E-03 2.09613E-04-9.23226E-15
 -1      1019 5.62620E-03 1.23754E-04-2.58097E-14
 -1      1020 5.69489E-03 5.54504E-05-2.76380E-14
 -1      1021 5.72177E-03 1.04889E-04-2.72906E-14
 -1      1022 2.87029E-03 2.16258E-04-6.53520E-15
 -1      1023 2.62589E-03-1.15085E-04-5.86446E-15
 -1      1024 4.90864E-03 1.21744E-04-1.91393E-14
 -1      1025 2.91184E-03-1.14432E-04-7.10568E-15
 -1      1026 3.19591E-03-1.12435E-04-8.46168E-15
 -1      1027 3.47753E-03-1.09316E-04-9.93236E-15
 -1      1028 3.75619E-03-1.05238E-04-1.15184E-14
 -1      1029 4.03139E-03-1.00326E-04-1.32169E-14
 -1      1030 4.30266E-03-9.46764E-05-1.50269E-14
 -1      1031 4.56951E-03-8.83469E-05-1.69479E-14
 -1      1032 4.83146E-03-8.13708E-05-1.89779E-14
 -1      1033 5.08808E-03-7.37487E-05-2.11163E-14
 -1      1034 5.33936E-03-6.55571E-05-2.33570E-14
 -1      1035 5.58444E-03-5.70385E-05-2.56967E-14
 -1      1036 1.13608E-02 3.04230E-04-7.31384E-14
 -1      1037 1.31560E-02 2.28819E-04-1.03237E-13
 -1      1038 5.15790E-03 1.20579E-04-2.12641E-14
 -1      1039 1.11979E-02 1.13170E-04-7.33108E-14
 -1      1040 1.14489E-02 1.27487E-04-7.71950E-14
 -1      1041 1.17051E-02 1.42473E-04-8.11375E-14
 -1      1042 1.19663E-02 1.58115E-04-8.51375E-14
 -1      1043 1.22320E-02 1.74393E-04-8.91860E-14
 -1      1044 1.25016E-02 1.91306E-04-9.32784E-14
 -1      1045 1.27745E-02 2.08837E-04-9.74083E-14
 -1      1046 1.63175E-03 1.68304E-04-2.31680E-15
 -1      1047 1.18615E-02 3.50683E-04-8.09694E-14
 -1      1048 1.26582E-02 4.27277E-04-9.31071E-14
 -1      1049 1.29320E-02 4.53208E-04-9.72549E-14
 -1      1050 1.31806E-02 4.77208E-04-1.01012E-13
 -1      1051 2.43225E-03 1.45445E-04-4.90219E-15
 -1      1052 1.16072E-02 3.26742E-04-7.70240E-14
 -1      1053 3.15524E-03 2.13791E-04-7.82627E-15
 -1      1054 1.23879E-02 4.01338E-04-8.90112E-14
 -1      1055 2.05093E-03-1.11112E-04-3.73140E-15
 -1      1056 1.21221E-02 3.75686E-04-8.49643E-14
 -1      1057 1.08930E-02 1.88485E-04-6.56664E-14
 -1      1058 5.39782E-03 1.21125E-04-2.34900E-14
 -1      1059 5.76097E-03-1.50576E-05-2.78738E-14
 -1      1060 1.11239E-02 2.83397E-04-6.93198E-14
 -1      1061 2.33866E-03-1.14100E-04-4.73918E-15
 -1      1062 4.65166E-03 1.24294E-04-1.71167E-14
 -1      1063 1.09523E-02 9.92796E-05-6.94886E-14
 -1      1064 1.87740E-03 1.27303E-04-3.05887E-15
 -1      1065 1.31813E-02 3.03691E-04-1.02809E-13
 -1      1066 5.58178E-03 1.82237E-05-2.62086E-14
 -1      1067 1.90472E-03 5.05176E-05-3.21414E-15
 -1      1068 1.09625E-02 2.27503E-04-6.65565E-14
 -1      1069 1.32034E-02 3.77996E-04-1.02367E-13
 -1      1070 4.38822E-03 1.27823E-04-1.51996E-14
 -1      1071 3.84583E-03 1.36041E-04-1.16969E-14
 -1      1072 3.56845E-03 1.39922E-04-1.01110E-14
 -1      1073 1.07648E-02 9.96013E-05-6.61937E-14
 -1      1074 1.31928E-02 4.27558E-04-1.01691E-13
 -1      1075 2.71913E-03 1.46307E-04-6.03310E-15
 -1      1076 1.83505E-03-1.03036E-04-3.05212E-15
 -1      1077 5.47555E-03 7.53287E-05-2.48396E-14
 -1      1078 1.63205E-03-9.64086E-05-2.47195E-15
 -1      1079 1.62827E-03-4.73038E-05-2.46008E-15
 -1      1080 2.13853E-03 9.95798E-05-3.91854E-15
 -1      1081 1.13706E-02 1.73988E-04-7.48939E-14
 -1      1082 2.76519E-03-4.52494E-05-6.43900E-15
 -1      1083 3.04994E-03-4.45085E-05-7.73056E-15
 -1      1084 3.33230E-03-4.31935E-05-9.13588E-15
 -1      1085 3.61164E-03-4.13352E-05-1.06567E-14
 -1      1086 3.88726E-03-3.89103E-05-1.22906E-14
 -1      1087 4.15852E-03-3.58702E-05-1.40366E-14
 -1      1088 4.42485E-03-3.21683E-05-1.58936E-14
 -1      1089 4.68522E-03-2.76296E-05-1.78593E-14
 -1      1090 4.93865E-03-2.20726E-05-1.99321E-14
 -1      1091 5.18371E-03-1.52843E-05-2.21099E-14
 -1      1092 3.00451E-03 1.45408E-04-7.27886E-15
 -1      1093 2.14458E-03 1.42358E-04-3.88666E-15
 -1      1094 1.09692E-02 1.54348E-04-6.81399E-14
 -1      1095 3.28781E-03 1.43160E-04-8.63772E-15
 -1      1096 1.16161E-02 1.89571E-04-7.88021E-14
 -1      1097 1.18690E-02 2.06471E-04-8.27681E-14
 -1      1098 1.21285E-02 2.24351E-04-8.67891E-14
 -1      1099 1.23932E-02 2.43018E-04-9.08557E-14
 -1      1100 1.26624E-02 2.62341E-04-9.49616E-14
 -1      1101 1.27814E-02 3.77564E-04-9.55840E-14
 -1      1102 4.11933E-03 1.31880E-04-1.33920E-14
 -1      1103 5.01315E-03 6.93109E-05-2.03645E-14
 -1      1104 5.36115E-03 2.61577E-05-2.38530E-14
 -1      1105 1.25111E-02 3.53913E-04-9.14636E-14
 -1      1106 5.25083E-03 7.06782E-05-2.25542E-14
 -1      1107 1.29205E-02 2.82771E-04-9.88664E-14
 -1      1108 1.11646E-02 1.63532E-04-7.14908E-14
 -1      1109 1.90303E-03-2.83411E-05-3.25067E-15
 -1      1110 1.12514E-02 2.45810E-04-7.16101E-14
 -1      1111 4.76453E-03 6.84493E-05-1.82782E-14
 -1      1112 1.11099E-02 2.04922E-04-6.95799E-14
 -1      1113 2.28347E-03 7.52524E-05-4.44694E-15
 -1      1114 1.14859E-02 2.65187E-04-7.54691E-14
 -1      1115 1.22453E-02 3.30580E-04-8.73913E-14
 -1      1116 1.29862E-02 4.02380E-04-9.86247E-14
 -1      1117 4.50760E-03 6.86952E-05-1.62967E-14
 -1      1118 2.57072E-03 7.63632E-05-5.53027E-15
 -1      1119 1.28256E-02 3.31236E-04-9.67909E-14
 -1      1120 3.70036E-03 7.28846E-05-1.10072E-14
 -1      1121 1.17312E-02 2.85877E-04-7.93901E-14
 -1      1122 3.97446E-03 7.12256E-05-1.26601E-14
 -1      1123 1.19848E-02 3.07816E-04-8.33654E-14
 -1      1124 2.47869E-03-4.53157E-05-5.26140E-15
 -1      1125 2.19052E-03-2.94014E-05-4.19300E-15
 -1      1126 2.16311E-03 3.51941E-05-4.06217E-15
 -1      1127 5.09105E-03 2.63358E-05-2.12379E-14
 -1      1128 2.85674E-03 7.64364E-05-6.72856E-15
 -1      1129 3.14080E-03 7.57361E-05-8.04096E-15
 -1      1130 3.19073E-03 2.42170E-05-8.35541E-15
 -1      1131 3.47137E-03 2.41591E-05-9.81023E-15
 -1      1132 4.55166E-03 2.64331E-05-1.67522E-14
 -1      1133 4.82641E-03 2.54177E-05-1.89333E-14
 -1      1134 1.15202E-02 2.31822E-04-7.64718E-14
 -1      1135 1.13097E-02 2.17708E-04-7.29989E-14
 -1      1136 4.24385E-03 6.97457E-05-1.44226E-14
 -1      1137 3.42222E-03 7.44754E-05-9.46842E-15
 -1      1138 4.28963E-03 2.50929E-05-1.48500E-14
 -1      1139 0.00000E+00 0.00000E+00 0.00000E+00
 -1      1140 0.00000E+00 0.00000E+00 0.00000E+00
 -1      1141 0.00000E+00 0.00000E+00 0.00000E+00
 -1      1142 0.00000E+00 0.00000E+00 0.00000E+00
 -1      1143 0.00000E+00 0.00000E+00 0.00000E+00
 -1      1144 0.00000E+00 0.00000E+00 0.00000E+00
 -1      1145 0.00000E+00 0.00000E+00 0.00000E+00
 -1      1146 0.00000E+00 0.00000E+00 0.00000E+00
 -1      1147 0.00000E+00 0.00000E+00 0.00000E+00
 -1      1148 0.00000E+00 0.00000E+00 0.00000E+00
 -1      1149 0.00000E+00 0.00000E+00 0.00000E+00
 -1      1150 0.00000E+00 0.00000E+00 0.00000E+00
 -1      1151 0.00000E+00 0.00000E+00 0.00000E+00
 -1      1152 0.00000E+00 0.00000E+00 0.00000E+00
 -1      1153 0.00000E+00 0.00000E+00 0.00000E+00
 -1      1154 0.00000E+00 0.00000E+00 0.00000E+00
 -1      1155 0.00000E+00 0.00000E+00 0.00000E+00
 -1      1156 2.11175E-04-1.48039E-04 1.65612E-17
 -1      1157 5.50309E-04-3.36573E-04-3.69035E-17
 -1      1158 8.31444E-04-4.57168E-04-2.18169E-16
 -1      1159 1.10043E-03-5.37657E-04-5.48281E-16
 -1      1160 1.36536E-03-5.93355E-04-1.02004E-15
 -1      1161 1.62987E-03-6.32081E-04-1.62919E-15
 -1      1162 1.89590E-03-6.58402E-04-2.37439E-15
 -1      1163 2.16444E-03-6.75358E-04-3.25484E-15
 -1      1164 2.43600E-03-6.85162E-04-4.26758E-15
 -1      1165 2.71086E-03-6.89490E-04-5.41089E-15
 -1      1166 2.98924E-03-6.89650E-04-6.68095E-15
 -1      1167 3.27139E-03-6.86706E-04-8.07527E-15
 -1      1168 3.55766E-03-6.81590E-04-9.59100E-15
 -1      1169 3.84853E-03-6.75226E-04-1.12314E-14
 -1      1170 4.14463E-03-6.68642E-04-1.29926E-14
 -1      1171 4.44673E-03-6.63112E-04-1.48702E-14
 -1      1172 4.75565E-03-6.60292E-04-1.68679E-14
 -1      1173 5.07209E-03-6.62343E-04-1.89867E-14
 -1      1174 5.39643E-03-6.72011E-04-2.12223E-14
 -1      1175 5.72829E-03-6.92556E-04-2.35654E-14
 -1      1176 6.06606E-03-7.27400E-04-2.60192E-14
 -1      1177 6.40638E-03-7.79303E-04-2.85851E-14
 -1      1178 6.74387E-03-8.48903E-04-3.12629E-14
 -1      1179 7.07150E-03-9.32762E-04-3.40615E-14
 -1      1180 7.38218E-03-1.02162E-03-3.69796E-14
 -1      1181 7.67158E-03-1.10035E-03-4.00082E-14
 -1      1182 7.94109E-03-1.15109E-03-4.31417E-14
 -1      1183 8.19899E-03-1.15932E-03-4.63740E-14
 -1      1184 8.45814E-03-1.12011E-03-4.97216E-14
 -1      1185 8.73092E-03-1.04047E-03-5.31794E-14
 -1      1186 9.02439E-03-9.36070E-04-5.67382E-14
 -1      1187 9.33873E-03-8.24646E-04-6.03943E-14
 -1      1188 9.66885E-03-7.20360E-04-6.41313E-14
 -1      1189 1.00075E-02-6.31297E-04-6.79354E-14
 -1      1190 1.03480E-02-5.59969E-04-7.17978E-14
 -1      1191 1.06854E-02-5.05201E-04-7.57215E-14
 -1      1192 1.10167E-02-4.64025E-04-7.96886E-14
 -1      1193 1.13406E-02-4.33031E-04-8.36962E-14
 -1      1194 1.16571E-02-4.09089E-04-8.77417E-14
 -1      1195 1.19668E-02-3.89647E-04-9.18165E-14
 -1      1196 1.22706E-02-3.72775E-04-9.59309E-14
 -1      1197 1.25696E-02-3.57097E-04-1.00086E-13
 -1      1198 1.28646E-02-3.41677E-04-1.04284E-13
 -1      1199 1.31565E-02-3.25915E-04-1.08528E-13
 -1      1200 1.34462E-02-3.09446E-04-1.12812E-13
 -1      1201 1.37342E-02-2.92067E-04-1.17112E-13
 -1      1202 1.40210E-02-2.73690E-04-1.21436E-13
 -1      1203 1.43070E-02-2.54310E-04-1.25777E-13
 -1      1204 1.45926E-02-2.34037E-04-1.30132E-13
 -1      1205 1.48711E-02-2.13726E-04-1.34405E-13
 -1      1206 2.27895E-04 1.60393E-04 3.54128E-17
 -1      1207 5.52468E-04 3.41195E-04 2.87178E-17
 -1      1208 8.32355E-04 4.59329E-04-8.75629E-17
 -1      1209 1.10130E-03 5.39336E-04-3.28825E-16
 -1      1210 1.36622E-03 5.95021E-04-6.97034E-16
 -1      1211 1.63076E-03 6.33819E-04-1.19216E-15
 -1      1212 1.89682E-03 6.60215E-04-1.81514E-15
 -1      1213 2.16537E-03 6.77235E-04-2.56155E-15
 -1      1214 2.43693E-03 6.87074E-04-3.43238E-15
 -1      1215 2.71179E-03 6.91386E-04-4.42691E-15
 -1      1216 2.99018E-03 6.91446E-04-5.54334E-15
 -1      1217 3.27241E-03 6.88275E-04-6.77559E-15
 -1      1218 3.55888E-03 6.82758E-04-8.12524E-15
 -1      1219 3.85021E-03 6.75754E-04-9.58881E-15
 -1      1220 4.14722E-03 6.68236E-04-1.11652E-14
 -1      1221 4.45099E-03 6.61448E-04-1.28519E-14
 -1      1222 4.76281E-03 6.57090E-04-1.46448E-14
 -1      1223 5.08406E-03 6.57549E-04-1.65437E-14
 -1      1224 5.41604E-03 6.66123E-04-1.85497E-14
 -1      1225 5.75944E-03 6.87186E-04-2.06550E-14
 -1      1226 6.11370E-03 7.26083E-04-2.28598E-14
 -1      1227 6.47603E-03 7.88411E-04-2.51570E-14
 -1      1228 6.84040E-03 8.78197E-04-2.75510E-14
 -1      1229 7.19722E-03 9.94656E-04-3.00523E-14
 -1      1230 7.53479E-03 1.12809E-03-3.26617E-14
 -1      1231 7.84366E-03 1.25753E-03-3.53761E-14
 -1      1232 8.12284E-03 1.35424E-03-3.81984E-14
 -1      1233 8.38368E-03 1.39273E-03-4.11303E-14
 -1      1234 8.64647E-03 1.36396E-03-4.41779E-14
 -1      1235 8.93053E-03 1.28068E-03-4.73440E-14
 -1      1236 9.24504E-03 1.17014E-03-5.06199E-14
 -1      1237 9.58705E-03 1.06031E-03-5.40162E-14
 -1      1238 9.94627E-03 9.70109E-04-5.75179E-14
 -1      1239 1.03111E-02 9.07245E-04-6.11068E-14
 -1      1240 1.06727E-02 8.71249E-04-6.47850E-14
 -1      1241 1.10256E-02 8.57569E-04-6.85505E-14
 -1      1242 1.13676E-02 8.60565E-04-7.23941E-14
 -1      1243 1.16986E-02 8.75081E-04-7.63114E-14
 -1      1244 1.20195E-02 8.97006E-04-8.02933E-14
 -1      1245 1.23318E-02 9.23314E-04-8.43403E-14
 -1      1246 1.26371E-02 9.51899E-04-8.84458E-14
 -1      1247 1.29368E-02 9.81355E-04-9.26090E-14
 -1      1248 1.32323E-02 1.01079E-03-9.68177E-14
 -1      1249 1.35244E-02 1.03965E-03-1.01082E-13
 -1      1250 1.38141E-02 1.06764E-03-1.05383E-13
 -1      1251 1.41021E-02 1.09461E-03-1.09724E-13
 -1      1252 1.43888E-02 1.12050E-03-1.14106E-13
 -1      1253 1.46748E-02 1.14533E-03-1.18538E-13
 -1      1254 1.49605E-02 1.16925E-03-1.23019E-13
 -1      1255 1.52389E-02 1.19201E-03-1.27414E-13
 -1      1256 1.53632E-02 1.16088E-03-1.29786E-13
 -1      1257 1.53404E-02 1.07648E-03-1.30255E-13
 -1      1258 1.53181E-02 9.92122E-04-1.30686E-13
 -1      1259 1.52967E-02 9.08124E-04-1.31064E-13
 -1      1260 1.52758E-02 8.24733E-04-1.31410E-13
 -1      1261 1.52554E-02 7.42767E-04-1.31763E-13
 -1      1262 1.52350E-02 6.61489E-04-1.32149E-13
 -1      1263 1.52141E-02 5.80061E-04-1.32546E-13
 -1      1264 1.51927E-02 4.98928E-04-1.32945E-13
 -1      1265 1.51708E-02 4.17792E-04-1.33363E-13
 -1      1266 1.51483E-02 3.36353E-04-1.33780E-13
 -1      1267 1.51256E-02 2.55064E-04-1.34202E-13
 -1      1268 1.51030E-02 1.73090E-04-1.34645E-13
 -1      1269 1.50805E-02 8.96988E-05-1.35089E-13
 -1      1270 1.50585E-02 5.70419E-06-1.35499E-13
 -1      1271 1.50374E-02-7.86356E-05-1.35901E-13
 -1      1272 1.50169E-02-1.62322E-04-1.36302E-13
 -1      1273 1.04893E-02 2.30784E-04-5.13681E-14
 -1      1274 1.03736E-02 3.84606E-04-5.07997E-14
 -1      1275 1.01575E-02 5.35642E-04-4.99322E-14
 -1      1276 9.85884E-03 6.85932E-04-4.88035E-14
 -1      1277 9.50243E-03 8.24411E-04-4.74963E-14
 -1      1278 9.09500E-03 9.39524E-04-4.60257E-14
 -1      1279 8.64027E-03 1.01077E-03-4.44044E-14
 -1      1280 8.17175E-03 1.02099E-03-4.27829E-14
 -1      1281 7.69959E-03 9.61728E-04-4.12260E-14
 -1      1282 7.25647E-03 8.51527E-04-3.98612E-14
 -1      1283 6.86294E-03 7.09611E-04-3.87537E-14
 -1      1284 6.51106E-03 5.44915E-04-3.78610E-14
 -1      1285 6.25191E-03 3.84901E-04-3.72829E-14
 -1      1286 6.09560E-03 2.35470E-04-3.70070E-14
 -1      1287 6.04388E-03 9.23382E-05-3.70169E-14
 -1      1288 6.10747E-03-5.67492E-05-3.73507E-14
 -1      1289 6.28204E-03-2.07893E-04-3.79961E-14
 -1      1290 6.54742E-03-3.56624E-04-3.88900E-14
 -1      1291 6.89853E-03-5.03905E-04-4.00715E-14
 -1      1292 7.28430E-03-6.24987E-04-4.13951E-14
 -1      1293 7.72029E-03-7.11615E-04-4.29246E-14
 -1      1294 8.20533E-03-7.45851E-04-4.46478E-14
 -1      1295 8.67208E-03-7.15387E-04-4.62890E-14
 -1      1296 9.10480E-03-6.31371E-04-4.77597E-14
 -1      1297 9.50734E-03-5.07911E-04-4.90540E-14
 -1      1298 9.86974E-03-3.61987E-04-5.01249E-14
 -1      1299 1.01632E-02-2.10727E-04-5.09115E-14
 -1      1300 1.03732E-02-6.22066E-05-5.13978E-14
 -1      1301 1.04862E-02 8.10042E-05-5.15587E-14
 -1      1302 1.66365E-04-1.10142E-04-4.18773E-18
 -1      1303 1.12439E-04-5.68714E-05-2.84196E-17
 -1      1304 1.17464E-04-6.74696E-05-2.17654E-17
 -1      1305 1.08399E-04-4.33835E-05-3.93836E-17
 -1      1306 1.10222E-04-4.94983E-05-3.60633E-17
 -1      1307 2.26169E-04-1.07347E-04-8.50828E-17
 -1      1308 1.06890E-04-3.34996E-05-4.53874E-17
 -1      1309 1.07706E-04-3.82274E-05-4.36391E-17
 -1      1310 2.19101E-04-8.21903E-05-1.04531E-16
 -1      1311 1.06149E-04-2.52262E-05-4.87755E-17
 -1      1312 1.06565E-04-2.92550E-05-4.79624E-17
 -1      1313 2.15990E-04-6.29942E-05-1.15820E-16
 -1      1314 1.05764E-04-1.79821E-05-5.03341E-17
 -1      1315 1.05984E-04-2.15384E-05-5.00359E-17
 -1      1316 2.14385E-04-4.69126E-05-1.22013E-16
 -1      1317 1.05557E-04-1.11608E-05-5.10795E-17
 -1      1318 1.05675E-04-1.45264E-05-5.10253E-17
 -1      1319 2.13502E-04-3.25256E-05-1.24927E-16
 -1      1320 1.05464E-04-4.65453E-06-5.08897E-17
 -1      1321 1.05514E-04-7.88272E-06-5.10253E-17
 -1      1322 2.13024E-04-1.90404E-05-1.25849E-16
 -1      1323 1.05454E-04 1.72764E-06-5.03341E-17
 -1      1324 1.05452E-04-1.45873E-06-5.05645E-17
 -1      1325 2.12817E-04-6.11019E-06-1.25171E-16
 -1      1326 1.05523E-04 8.16172E-06-4.89246E-17
 -1      1327 1.05469E-04 4.92683E-06-4.93176E-17
 -1      1328 2.12825E-04 6.65156E-06-1.22989E-16
 -1      1329 1.05692E-04 1.48316E-05-4.70408E-17
 -1      1330 1.05570E-04 1.14508E-05-4.76507E-17
 -1      1331 2.13051E-04 1.96086E-05-1.19371E-16
 -1      1332 1.06008E-04 2.18294E-05-4.39508E-17
 -1      1333 1.05783E-04 1.82491E-05-4.48724E-17
 -1      1334 2.13545E-04 3.30357E-05-1.13909E-16
 -1      1335 1.06601E-04 2.96924E-05-3.97902E-17
 -1      1336 1.06179E-04 2.56183E-05-4.12268E-17
 -1      1337 2.14451E-04 4.75200E-05-1.06157E-16
 -1      1338 1.07742E-04 3.88015E-05-3.36780E-17
 -1      1339 1.06918E-04 3.40049E-05-3.60497E-17
 -1      1340 2.16089E-04 6.39216E-05-9.56402E-17
 -1      1341 1.10208E-04 5.02421E-05-2.39338E-17
 -1      1342 1.08410E-04 4.40553E-05-2.80673E-17
 -1      1343 2.19209E-04 8.34305E-05-7.98786E-17
 -1      1344 1.16779E-04 6.75094E-05-8.61941E-18
 -1      1345 1.12085E-04 5.76742E-05-1.60055E-17
 -1      1346 2.26161E-04 1.09174E-04-5.65682E-17
 -1      1347 1.57245E-04 1.09662E-04 1.50433E-17
 -1      1348 1.35430E-04 8.59451E-05 5.96311E-19
 -1      1349 2.55663E-04 1.51762E-04-2.85958E-17
 -1      1350 3.34372E-04 2.20248E-04 1.10182E-17
 -1      1351 4.20677E-04-2.61068E-04-5.30717E-17
 -1      1352 5.73468E-04-3.35737E-04-1.13475E-16
 -1      1353 7.20375E-04-3.95885E-04-2.12585E-16
 -1      1354 8.63286E-04-4.44658E-04-3.47405E-16
 -1      1355 6.11088E-04-3.29677E-04-2.01187E-16
 -1      1356 1.00308E-03-4.85128E-04-5.16392E-16
 -1      1357 1.14072E-03-5.18429E-04-7.20466E-16
 -1      1358 9.03931E-04-4.29314E-04-4.80274E-16
 -1      1359 1.27706E-03-5.46417E-04-9.58923E-16
 -1      1360 1.41259E-03-5.69565E-04-1.23240E-15
 -1      1361 1.18609E-03-4.97339E-04-8.95958E-16
 -1      1362 1.54777E-03-5.88923E-04-1.53931E-15
 -1      1363 1.68286E-03-6.04819E-04-1.87963E-15
 -1      1364 1.46293E-03-5.44306E-04-1.44707E-15
 -1      1365 1.81813E-03-6.17864E-04-2.25406E-15
 -1      1366 1.95369E-03-6.28346E-04-2.66174E-15
 -1      1367 1.73777E-03-5.76307E-04-2.13233E-15
 -1      1368 2.08971E-03-6.36650E-04-3.10253E-15
 -1      1369 2.22623E-03-6.43021E-04-3.57677E-15
 -1      1370 2.01259E-03-5.97227E-04-2.95043E-15
 -1      1371 2.36336E-03-6.47718E-04-4.08351E-15
 -1      1372 2.50112E-03-6.50949E-04-4.62220E-15
 -1      1373 2.28853E-03-6.09788E-04-3.89920E-15
 -1      1374 2.63957E-03-6.52890E-04-5.19329E-15
 -1      1375 2.77875E-03-6.53718E-04-5.79650E-15
 -1      1376 2.56628E-03-6.15983E-04-4.97698E-15
 -1      1377 2.91870E-03-6.53559E-04-6.43012E-15
 -1      1378 3.05945E-03-6.52568E-04-7.09494E-15
 -1      1379 2.84631E-03-6.17314E-04-6.18086E-15
 -1      1380 3.20106E-03-6.50837E-04-7.79112E-15
 -1      1381 3.34355E-03-6.48510E-04-8.51775E-15
 -1      1382 3.12898E-03-6.14955E-04-7.50901E-15
 -1      1383 3.48700E-03-6.45667E-04-9.27467E-15
 -1      1384 3.63144E-03-6.42452E-04-1.00620E-14
 -1      1385 3.41466E-03-6.09875E-04-8.95968E-15
 -1      1386 3.77696E-03-6.38946E-04-1.08805E-14
 -1      1387 3.92360E-03-6.35312E-04-1.17293E-14
 -1      1388 3.70375E-03-6.02961E-04-1.05321E-14
 -1      1389 4.07147E-03-6.31650E-04-1.26077E-14
 -1      1390 4.22063E-03-6.28152E-04-1.35154E-14
 -1      1391 3.99673E-03-5.95142E-04-1.22253E-14
 -1      1392 4.37117E-03-6.24965E-04-1.44526E-14
 -1      1393 4.52318E-03-6.22319E-04-1.54183E-14
 -1      1394 4.29411E-03-5.87527E-04-1.40361E-14
 -1      1395 4.67673E-03-6.20432E-04-1.64149E-14
 -1      1396 4.83189E-03-6.19587E-04-1.74425E-14
 -1      1397 4.59647E-03-5.81551E-04-1.59658E-14
 -1      1398 4.98872E-03-6.20094E-04-1.84981E-14
 -1      1399 5.14724E-03-6.22290E-04-1.95835E-14
 -1      1400 4.90433E-03-5.79124E-04-1.80128E-14
 -1      1401 5.30747E-03-6.26595E-04-2.06971E-14
 -1      1402 5.46935E-03-6.33383E-04-2.18385E-14
 -1      1403 5.21805E-03-5.82765E-04-2.01764E-14
 -1      1404 5.63278E-03-6.43176E-04-2.30069E-14
 -1      1405 5.79758E-03-6.56338E-04-2.42018E-14
 -1      1406 5.53763E-03-5.95637E-04-2.24524E-14
 -1      1407 5.96353E-03-6.73429E-04-2.54247E-14
 -1      1408 6.13027E-03-6.94705E-04-2.66770E-14
 -1      1409 5.86249E-03-6.21397E-04-2.48366E-14
 -1      1410 6.29738E-03-7.20607E-04-2.79554E-14
 -1      1411 6.46432E-03-7.51125E-04-2.92611E-14
 -1      1412 6.19116E-03-6.63643E-04-2.73296E-14
 -1      1413 6.63050E-03-7.86312E-04-3.05971E-14
 -1      1414 6.79523E-03-8.25670E-04-3.19613E-14
 -1      1415 6.52109E-03-7.24763E-04-2.99346E-14
 -1      1416 6.95782E-03-8.68530E-04-3.33549E-14
 -1      1417 7.11761E-03-9.13704E-04-3.47796E-14
 -1      1418 6.84865E-03-8.04062E-04-3.26548E-14
 -1      1419 7.27400E-03-9.59568E-04-3.62314E-14
 -1      1420 7.42659E-03-1.00422E-03-3.77124E-14
 -1      1421 7.16958E-03-8.95516E-04-3.54912E-14
 -1      1422 7.57520E-03-1.04522E-03-3.92219E-14
 -1      1423 7.71996E-03-1.08032E-03-4.07572E-14
 -1      1424 7.48014E-03-9.86283E-04-3.84413E-14
 -1      1425 7.86128E-03-1.10700E-03-4.23172E-14
 -1      1426 8.00000E-03-1.12340E-03-4.39033E-14
 -1      1427 7.77892E-03-1.05792E-03-4.14992E-14
 -1      1428 8.13708E-03-1.12795E-03-4.55177E-14
 -1      1429 8.27381E-03-1.12002E-03-4.71583E-14
 -1      1430 8.06837E-03-1.09158E-03-4.46644E-14
 -1      1431 8.41136E-03-1.09979E-03-4.88271E-14
 -1      1432 8.55095E-03-1.06815E-03-5.05240E-14
 -1      1433 8.35470E-03-1.07563E-03-4.79373E-14
 -1      1434 8.69347E-03-1.02692E-03-5.22479E-14
 -1      1435 8.83964E-03-9.78091E-04-5.39963E-14
 -1      1436 8.64552E-03-1.01134E-03-5.13201E-14
 -1      1437 8.98974E-03-9.24250E-04-5.57719E-14
 -1      1438 9.14381E-03-8.67637E-04-5.75711E-14
 -1      1439 8.94646E-03-9.12203E-04-5.48090E-14
 -1      1440 9.30156E-03-8.10566E-04-5.93936E-14
 -1      1441 9.46251E-03-7.54825E-04-6.12364E-14
 -1      1442 9.25921E-03-7.97545E-04-5.83978E-14
 -1      1443 9.62605E-03-7.01852E-04-6.30985E-14
 -1      1444 9.79148E-03-6.52695E-04-6.49791E-14
 -1      1445 9.58181E-03-6.85041E-04-6.20729E-14
 -1      1446 9.95812E-03-6.07862E-04-6.68754E-14
 -1      1447 1.01253E-02-5.67742E-04-6.87886E-14
 -1      1448 9.91030E-03-5.86232E-04-6.58229E-14
 -1      1449 1.02925E-02-5.32182E-04-7.07169E-14
 -1      1450 1.04592E-02-5.01129E-04-7.26578E-14
 -1      1451 1.02405E-02-5.05975E-04-6.96377E-14
 -1      1452 1.06250E-02-4.74099E-04-7.46140E-14
 -1      1453 1.07896E-02-4.50809E-04-7.65839E-14
 -1      1454 1.05690E-02-4.44210E-04-7.35136E-14
 -1      1455 1.09529E-02-4.30697E-04-7.85637E-14
 -1      1456 1.11146E-02-4.13397E-04-8.05536E-14
 -1      1457 1.08936E-02-3.98199E-04-7.74425E-14
 -1      1458 1.12747E-02-3.98405E-04-8.25543E-14
 -1      1459 1.14332E-02-3.85361E-04-8.45685E-14
 -1      1460 1.12130E-02-3.64279E-04-8.14176E-14
 -1      1461 1.15902E-02-3.73868E-04-8.65879E-14
 -1      1462 1.17456E-02-3.63614E-04-8.86150E-14
 -1      1463 1.15268E-02-3.38893E-04-8.54361E-14
 -1      1464 1.18996E-02-3.54315E-04-9.06544E-14
 -1      1465 1.20522E-02-3.45720E-04-9.27017E-14
 -1      1466 1.18352E-02-3.19050E-04-8.94920E-14
 -1      1467 1.22036E-02-3.37640E-04-9.47575E-14
 -1      1468 1.23538E-02-3.29883E-04-9.68224E-14
 -1      1469 1.21387E-02-3.02453E-04-9.35831E-14
 -1      1470 1.25030E-02-3.22332E-04-9.88980E-14
 -1      1471 1.26512E-02-3.14849E-04-1.00986E-13
 -1      1472 1.24380E-02-2.87446E-04-9.77148E-14
 -1      1473 1.27986E-02-3.07367E-04-1.03084E-13
 -1      1474 1.29453E-02-2.99789E-04-1.05193E-13
 -1      1475 1.27338E-02-2.72899E-04-1.01885E-13
 -1      1476 1.30913E-02-2.92083E-04-1.07313E-13
 -1      1477 1.32367E-02-2.84183E-04-1.09441E-13
 -1      1478 1.30268E-02-2.58078E-04-1.06099E-13
 -1      1479 1.33816E-02-2.76079E-04-1.11577E-13
 -1      1480 1.35261E-02-2.67729E-04-1.13723E-13
 -1      1481 1.33176E-02-2.42542E-04-1.10351E-13
 -1      1482 1.36702E-02-2.59135E-04-1.15875E-13
 -1      1483 1.38140E-02-2.50271E-04-1.18026E-13
 -1      1484 1.36066E-02-2.26041E-04-1.14636E-13
 -1      1485 1.39576E-02-2.41147E-04-1.20188E-13
 -1      1486 1.41009E-02-2.31751E-04-1.22354E-13
 -1      1487 1.38944E-02-2.08460E-04-1.18943E-13
 -1      1488 1.42441E-02-2.22101E-04-1.24524E-13
 -1      1489 1.43871E-02-2.12197E-04-1.26697E-13
 -1      1490 1.41813E-02-1.89772E-04-1.23270E-13
 -1      1491 1.45301E-02-2.02073E-04-1.28875E-13
 -1      1492 1.46730E-02-1.91754E-04-1.31058E-13
 -1      1493 1.44675E-02-1.70036E-04-1.27616E-13
 -1      1494 1.48812E-02-1.72295E-04-1.34213E-13
 -1      1495 1.48188E-02-1.40427E-04-1.32946E-13
 -1      1496 6.41722E-04 3.70756E-04-5.30581E-17
 -1      1497 4.91906E-04 3.02847E-04-5.66496E-18
 -1      1498 4.44083E-04 2.65146E-04-3.50333E-17
 -1      1499 9.26763E-04 4.69686E-04-2.39595E-16
 -1      1500 7.86160E-04 4.24749E-04-1.31080E-16
 -1      1501 7.43455E-04 3.89080E-04-1.67862E-16
 -1      1502 1.20122E-03 5.37743E-04-5.49176E-16
 -1      1503 1.06476E-03 5.06790E-04-3.78576E-16
 -1      1504 1.02911E-03 4.73333E-04-4.21931E-16
 -1      1505 1.47148E-03 5.85171E-04-9.84428E-16
 -1      1506 1.33655E-03 5.63651E-04-7.51149E-16
 -1      1507 1.30678E-03 5.31604E-04-7.98962E-16
 -1      1508 1.74096E-03 6.17805E-04-1.54579E-15
 -1      1509 1.60615E-03 6.03100E-04-1.24914E-15
 -1      1510 1.58094E-03 5.71887E-04-1.30038E-15
 -1      1511 2.01146E-03 6.39419E-04-2.23291E-15
 -1      1512 1.87599E-03 6.29821E-04-1.87357E-15
 -1      1513 1.85434E-03 5.99062E-04-1.92672E-15
 -1      1514 2.28396E-03 6.52663E-04-3.04296E-15
 -1      1515 2.14741E-03 6.46958E-04-2.62273E-15
 -1      1516 2.12850E-03 6.16412E-04-2.67769E-15
 -1      1517 2.55901E-03 6.59489E-04-3.97692E-15
 -1      1518 2.42114E-03 6.56776E-04-3.49437E-15
 -1      1519 2.40432E-03 6.26283E-04-3.55136E-15
 -1      1520 2.83699E-03 6.61373E-04-5.03255E-15
 -1      1521 2.69761E-03 6.60966E-04-4.48980E-15
 -1      1522 2.68237E-03 6.30413E-04-4.54678E-15
 -1      1523 3.11823E-03 6.59461E-04-6.20759E-15
 -1      1524 2.97718E-03 6.60820E-04-5.60535E-15
 -1      1525 2.96305E-03 6.30117E-04-5.66227E-15
 -1      1526 3.40312E-03 6.54685E-04-7.49692E-15
 -1      1527 3.26020E-03 6.57363E-04-6.83753E-15
 -1      1528 3.24675E-03 6.26426E-04-6.89389E-15
 -1      1529 3.69214E-03 6.47886E-04-8.90367E-15
 -1      1530 3.54708E-03 6.51467E-04-8.18608E-15
 -1      1531 3.53391E-03 6.20205E-04-8.24240E-15
 -1      1532 3.98597E-03 6.39936E-04-1.04234E-14
 -1      1533 3.83841E-03 6.43970E-04-9.64928E-15
 -1      1534 3.82506E-03 6.12278E-04-9.70445E-15
 -1      1535 4.28545E-03 6.31885E-04-1.20531E-14
 -1      1536 4.13495E-03 6.35816E-04-1.12243E-14
 -1      1537 4.12088E-03 6.03559E-04-1.12788E-14
 -1      1538 4.59159E-03 6.25136E-04-1.37936E-14
 -1      1539 4.43762E-03 6.28206E-04-1.29100E-14
 -1      1540 4.42217E-03 5.95215E-04-1.29639E-14
 -1      1541 4.90555E-03 6.21657E-04-1.56387E-14
 -1      1542 4.74752E-03 6.22800E-04-1.47035E-14
 -1      1543 4.72987E-03 5.88866E-04-1.47566E-14
 -1      1544 5.22842E-03 6.24226E-04-1.75899E-14
 -1      1545 5.06580E-03 6.21946E-04-1.66011E-14
 -1      1546 5.04495E-03 5.86815E-04-1.66548E-14
 -1      1547 5.56103E-03 6.36659E-04-1.96463E-14
 -1      1548 5.39346E-03 6.28919E-04-1.86052E-14
 -1      1549 5.36824E-03 5.92311E-04-1.86575E-14
 -1      1550 5.90342E-03 6.63912E-04-2.17995E-14
 -1      1551 5.73102E-03 6.48119E-04-2.07102E-14
 -1      1552 5.70021E-03 6.09755E-04-2.07615E-14
 -1      1553 6.25424E-03 7.11790E-04-2.40520E-14
 -1      1554 6.07790E-03 6.85003E-04-2.29135E-14
 -1      1555 6.04050E-03 6.44682E-04-2.29646E-14
 -1      1556 6.61003E-03 7.85812E-04-2.63984E-14
 -1      1557 6.43181E-03 7.45441E-04-2.52133E-14
 -1      1558 6.38749E-03 7.03175E-04-2.52651E-14
 -1      1559 6.96474E-03 8.88729E-04-2.88457E-14
 -1      1560 6.78802E-03 8.33947E-04-2.76099E-14
 -1      1561 6.73771E-03 7.90166E-04-2.76628E-14
 -1      1562 7.31009E-03 1.01658E-03-3.13985E-14
 -1      1563 7.13920E-03 9.50421E-04-3.01091E-14
 -1      1564 7.08572E-03 9.06203E-04-3.01615E-14
 -1      1565 7.63769E-03 1.15449E-03-3.40596E-14
 -1      1566 7.47662E-03 1.08581E-03-3.27147E-14
 -1      1567 7.42469E-03 1.04294E-03-3.27641E-14
 -1      1568 7.94295E-03 1.27622E-03-3.68241E-14
 -1      1569 7.79317E-03 1.21924E-03-3.54275E-14
 -1      1570 7.74862E-03 1.17974E-03-3.54749E-14
 -1      1571 8.22923E-03 1.35123E-03-3.97044E-14
 -1      1572 8.08786E-03 1.32095E-03-3.82511E-14
 -1      1573 8.05584E-03 1.28609E-03-3.82975E-14
 -1      1574 8.50843E-03 1.35893E-03-4.26928E-14
 -1      1575 8.36866E-03 1.36364E-03-4.11839E-14
 -1      1576 8.35183E-03 1.33292E-03-4.12330E-14
 -1      1577 8.79602E-03 1.30033E-03-4.58021E-14
 -1      1578 8.65021E-03 1.33665E-03-4.42331E-14
 -1      1579 8.64785E-03 1.30798E-03-4.42820E-14
 -1      1580 9.10330E-03 1.19755E-03-4.90222E-14
 -1      1581 8.94677E-03 1.25248E-03-4.73985E-14
 -1      1582 8.95517E-03 1.22337E-03-4.74480E-14
 -1      1583 9.43284E-03 1.08128E-03-5.23585E-14
 -1      1584 9.26546E-03 1.13934E-03-5.06755E-14
 -1      1585 9.27921E-03 1.10821E-03-5.07256E-14
 -1      1586 9.77953E-03 9.76956E-04-5.58055E-14
 -1      1587 9.60456E-03 1.02661E-03-5.40686E-14
 -1      1588 9.61830E-03 9.93115E-04-5.41169E-14
 -1      1589 1.01349E-02 8.98306E-04-5.93517E-14
 -1      1590 9.95670E-03 9.34138E-04-5.75672E-14
 -1      1591 9.96645E-03 8.98737E-04-5.76134E-14
 -1      1592 1.04907E-02 8.48469E-04-6.29853E-14
 -1      1593 1.03132E-02 8.69959E-04-6.11573E-14
 -1      1594 1.03169E-02 8.33399E-04-6.12038E-14
 -1      1595 1.08413E-02 8.24246E-04-6.67078E-14
 -1      1596 1.06670E-02 8.33516E-04-6.48364E-14
 -1      1597 1.06642E-02 7.96495E-04-6.48823E-14
 -1      1598 1.11834E-02 8.19990E-04-7.05075E-14
 -1      1599 1.10135E-02 8.20001E-04-6.85991E-14
 -1      1600 1.10049E-02 7.83037E-04-6.86431E-14
 -1      1601 1.15160E-02 8.29958E-04-7.43850E-14
 -1      1602 1.13509E-02 8.23519E-04-7.24365E-14
 -1      1603 1.13376E-02 7.86935E-04-7.24770E-14
 -1      1604 1.18392E-02 8.49330E-04-7.83276E-14
 -1      1605 1.16787E-02 8.38717E-04-7.63481E-14
 -1      1606 1.16619E-02 8.02678E-04-7.63821E-14
 -1      1607 1.21541E-02 8.74458E-04-8.23340E-14
 -1      1608 1.19976E-02 8.61353E-04-8.03235E-14
 -1      1609 1.19783E-02 8.25915E-04-8.03499E-14
 -1      1610 1.24619E-02 9.02751E-04-8.64094E-14
 -1      1611 1.23088E-02 8.88332E-04-8.43637E-14
 -1      1612 1.22879E-02 8.53478E-04-8.43863E-14
 -1      1613 1.27639E-02 9.32458E-04-9.05381E-14
 -1      1614 1.26136E-02 9.17509E-04-8.84654E-14
 -1      1615 1.25916E-02 8.83187E-04-8.84830E-14
 -1      1616 1.30613E-02 9.62447E-04-9.47209E-14
 -1      1617 1.29131E-02 9.47469E-04-9.26242E-14
 -1      1618 1.28907E-02 9.13608E-04-9.26379E-14
 -1      1619 1.33552E-02 9.92020E-04-9.89512E-14
 -1      1620 1.32086E-02 9.77316E-04-9.68288E-14
 -1      1621 1.31860E-02 9.43845E-04-9.68396E-14
 -1      1622 1.36463E-02 1.02078E-03-1.03230E-13
 -1      1623 1.35010E-02 1.00652E-03-1.01086E-13
 -1      1624 1.34784E-02 9.73366E-04-1.01090E-13
 -1      1625 1.39354E-02 1.04850E-03-1.07546E-13
 -1      1626 1.37911E-02 1.03478E-03-1.05383E-13
 -1      1627 1.37685E-02 1.00188E-03-1.05381E-13
 -1      1628 1.42231E-02 1.07511E-03-1.11902E-13
 -1      1629 1.40794E-02 1.06195E-03-1.09718E-13
 -1      1630 1.40571E-02 1.02926E-03-1.09710E-13
 -1      1631 1.45098E-02 1.10060E-03-1.16301E-13
 -1      1632 1.43665E-02 1.08800E-03-1.14096E-13
 -1      1633 1.43444E-02 1.05547E-03-1.14083E-13
 -1      1634 1.47958E-02 1.12505E-03-1.20752E-13
 -1      1635 1.46528E-02 1.11295E-03-1.18519E-13
 -1      1636 1.46310E-02 1.08054E-03-1.18500E-13
 -1      1637 1.50816E-02 1.14864E-03-1.25238E-13
 -1      1638 1.49387E-02 1.13693E-03-1.22991E-13
 -1      1639 1.49170E-02 1.10459E-03-1.22962E-13
 -1      1640 1.52275E-02 1.14986E-03-1.27647E-13
 -1      1641 1.52110E-02 1.04549E-03-1.28411E-13
 -1      1642 1.52223E-02 1.08761E-03-1.28184E-13
 -1      1643 1.51890E-02 9.61435E-04-1.28837E-13
 -1      1644 1.51999E-02 1.00342E-03-1.28630E-13
 -1      1645 1.50817E-02 1.01451E-03-1.26573E-13
 -1      1646 1.51678E-02 8.77802E-04-1.29227E-13
 -1      1647 1.51783E-02 9.19554E-04-1.29035E-13
 -1      1648 1.50600E-02 9.30689E-04-1.27000E-13
 -1      1649 1.51471E-02 7.94741E-04-1.29600E-13
 -1      1650 1.51574E-02 8.36194E-04-1.29415E-13
 -1      1651 1.50390E-02 8.47342E-04-1.27404E-13
 -1      1652 1.51270E-02 7.13696E-04-1.29975E-13
 -1      1653 1.51371E-02 7.54144E-04-1.29785E-13
 -1      1654 1.50187E-02 7.65251E-04-1.27797E-13
 -1      1655 1.51065E-02 6.31815E-04-1.30375E-13
 -1      1656 1.51168E-02 6.72692E-04-1.30174E-13
 -1      1657 1.49985E-02 6.83710E-04-1.28194E-13
 -1      1658 1.50855E-02 5.50345E-04-1.30774E-13
 -1      1659 1.50961E-02 5.91041E-04-1.30574E-13
 -1      1660 1.49780E-02 6.01946E-04-1.28598E-13
 -1      1661 1.50640E-02 4.69061E-04-1.31185E-13
 -1      1662 1.50749E-02 5.09695E-04-1.30979E-13
 -1      1663 1.49569E-02 5.20499E-04-1.29008E-13
 -1      1664 1.50419E-02 3.87709E-04-1.31601E-13
 -1      1665 1.50530E-02 4.28409E-04-1.31391E-13
 -1      1666 1.49352E-02 4.39159E-04-1.29423E-13
 -1      1667 1.50192E-02 3.06045E-04-1.32018E-13
 -1      1668 1.50306E-02 3.46929E-04-1.31809E-13
 -1      1669 1.49129E-02 3.57703E-04-1.29836E-13
 -1      1670 1.49966E-02 2.25279E-04-1.32436E-13
 -1      1671 1.50079E-02 2.65731E-04-1.32229E-13
 -1      1672 1.48902E-02 2.76617E-04-1.30252E-13
 -1      1673 1.49737E-02 1.42520E-04-1.32875E-13
 -1      1674 1.49852E-02 1.83977E-04-1.32654E-13
 -1      1675 1.48674E-02 1.95063E-04-1.30675E-13
 -1      1676 1.49513E-02 5.91540E-05-1.33299E-13
 -1      1677 1.49624E-02 1.00908E-04-1.33090E-13
 -1      1678 1.48445E-02 1.12257E-04-1.31096E-13
 -1      1679 1.49295E-02-2.47134E-05-1.33705E-13
 -1      1680 1.49403E-02 1.72716E-05-1.33504E-13
 -1      1681 1.48221E-02 2.88985E-05-1.31510E-13
 -1      1682 1.48688E-02-1.03607E-04-1.33426E-13
 -1      1683 1.48792E-02-6.15149E-05-1.33225E-13
 -1      1684 1.47608E-02-4.96473E-05-1.31233E-13
 -1      1685 1.46605E-02-1.23079E-04-1.30277E-13
 -1      1686 1.04829E-02 2.26098E-04-5.21047E-14
 -1      1687 1.05182E-02 1.80288E-04-5.23116E-14
 -1      1688 1.03134E-02 3.48838E-04-5.12248E-14
 -1      1689 1.04044E-02 2.94775E-04-5.15791E-14
 -1      1690 1.00331E-02 4.87935E-04-5.02270E-14
 -1      1691 1.01749E-02 4.17511E-04-5.07476E-14
 -1      1692 9.69454E-03 6.56550E-04-4.89155E-14
 -1      1693 9.85700E-03 5.79169E-04-4.95243E-14
 -1      1694 9.31599E-03 8.27244E-04-4.74413E-14
 -1      1695 9.49469E-03 7.48506E-04-4.81453E-14
 -1      1696 8.92014E-03 9.75294E-04-4.58036E-14
 -1      1697 9.10393E-03 9.11532E-04-4.65730E-14
 -1      1698 8.49839E-03 1.07068E-03-4.40164E-14
 -1      1699 8.68564E-03 1.03823E-03-4.48618E-14
 -1      1700 8.10141E-03 1.05789E-03-4.22918E-14
 -1      1701 8.28119E-03 1.07366E-03-4.30564E-14
 -1      1702 7.68261E-03 9.52511E-04-4.05810E-14
 -1      1703 7.88106E-03 1.01505E-03-4.13503E-14
 -1      1704 7.26521E-03 7.91814E-04-3.92581E-14
 -1      1705 7.44445E-03 8.68628E-04-3.98386E-14
 -1      1706 6.86416E-03 6.05265E-04-3.81189E-14
 -1      1707 7.05026E-03 6.94431E-04-3.86233E-14
 -1      1708 6.49722E-03 4.18558E-04-3.72043E-14
 -1      1709 6.66193E-03 5.00199E-04-3.75750E-14
 -1      1710 6.22363E-03 2.80296E-04-3.67026E-14
 -1      1711 6.33393E-03 3.40359E-04-3.69035E-14
 -1      1712 6.06313E-03 1.65271E-04-3.64432E-14
 -1      1713 6.12334E-03 2.13479E-04-3.65095E-14
 -1      1714 6.03165E-03 7.23802E-05-3.65594E-14
 -1      1715 6.03009E-03 1.14221E-04-3.64848E-14
 -1      1716 6.14518E-03-2.59643E-05-3.68705E-14
 -1      1717 6.07131E-03 2.40178E-05-3.66126E-14
 -1      1718 6.37192E-03-1.62700E-04-3.77308E-14
 -1      1719 6.25740E-03-1.04165E-04-3.73740E-14
 -1      1720 6.70156E-03-3.15823E-04-3.87427E-14
 -1      1721 6.53759E-03-2.38341E-04-3.82173E-14
 -1      1722 7.08636E-03-4.91146E-04-4.00608E-14
 -1      1723 6.90583E-03-4.09861E-04-3.94270E-14
 -1      1724 7.46126E-03-6.45466E-04-4.15142E-14
 -1      1725 7.28924E-03-5.79861E-04-4.08476E-14
 -1      1726 7.88576E-03-7.64663E-04-4.32320E-14
 -1      1727 7.69120E-03-7.16108E-04-4.23813E-14
 -1      1728 8.30217E-03-7.98545E-04-4.51291E-14
 -1      1729 8.11659E-03-7.96805E-04-4.42701E-14
 -1      1730 8.70364E-03-7.28618E-04-4.68834E-14
 -1      1731 8.52412E-03-7.69758E-04-4.61053E-14
 -1      1732 9.10602E-03-5.93933E-04-4.84188E-14
 -1      1733 8.92487E-03-6.61975E-04-4.77232E-14
 -1      1734 9.48828E-03-4.17762E-04-4.98523E-14
 -1      1735 9.30821E-03-5.00886E-04-4.92466E-14
 -1      1736 9.87375E-03-2.47914E-04-5.09024E-14
 -1      1737 9.70527E-03-3.28381E-04-5.04261E-14
 -1      1738 1.01832E-02-9.60888E-05-5.16951E-14
 -1      1739 1.00500E-02-1.62108E-04-5.13740E-14
 -1      1740 1.04065E-02 3.13872E-05-5.21959E-14
 -1      1741 1.03144E-02-2.18872E-05-5.20296E-14
 -1      1742 1.05129E-02 1.27898E-04-5.22402E-14
 -1      1743 1.04796E-02 8.49225E-05-5.22440E-14
 -1      1744 9.53500E-03 6.66665E-04-4.88796E-14
 -1      1745 9.90425E-03 4.81206E-04-5.03656E-14
 -1      1746 1.52058E-02 1.11754E-03-1.27612E-13
 -1      1747 1.50764E-02 1.08643E-03-1.25778E-13
 -1      1748 1.04478E-02 2.25660E-04-5.25704E-14
 -1      1749 1.02231E-02 3.34890E-04-5.15583E-14
 -1      1750 1.05260E-02 1.60103E-04-5.30342E-14
 -1      1751 9.15008E-03 8.57981E-04-4.72298E-14
 -1      1752 8.75254E-03 1.02129E-03-4.54135E-14
 -1      1753 8.39012E-03 1.09988E-03-4.35094E-14
 -1      1754 8.01667E-03 1.05691E-03-4.16135E-14
 -1      1755 7.63232E-03 9.11075E-04-3.99434E-14
 -1      1756 7.21836E-03 7.12525E-04-3.85805E-14
 -1      1757 6.81437E-03 5.01866E-04-3.74156E-14
 -1      1758 6.44830E-03 3.26050E-04-3.65842E-14
 -1      1759 6.17870E-03 2.03640E-04-3.60978E-14
 -1      1760 6.03908E-03 1.25064E-04-3.59491E-14
 -1      1761 6.04512E-03 6.04169E-05-3.60395E-14
 -1      1762 6.20585E-03-1.75542E-05-3.65799E-14
 -1      1763 6.49057E-03-1.49937E-04-3.75563E-14
 -1      1764 6.85622E-03-3.17684E-04-3.87109E-14
 -1      1765 7.24482E-03-5.11313E-04-4.01674E-14
 -1      1766 7.63818E-03-6.86628E-04-4.18108E-14
 -1      1767 8.02321E-03-8.04958E-04-4.37100E-14
 -1      1768 8.38866E-03-8.10267E-04-4.57284E-14
 -1      1769 8.76097E-03-7.03697E-04-4.75544E-14
 -1      1770 9.14452E-03-5.29129E-04-4.92341E-14
 -1      1771 9.53474E-03-3.30262E-04-5.06539E-14
 -1      1772 9.91913E-03-1.51258E-04-5.17135E-14
 -1      1773 1.02319E-02-6.60180E-06-5.25293E-14
 -1      1774 1.04439E-02 8.90086E-05-5.29165E-14
 -1      1775 2.84732E-04-1.75841E-04-4.88975E-17
 -1      1776 3.32201E-04-1.16259E-04-1.66439E-16
 -1      1777 3.36207E-04-1.32462E-04-1.55908E-16
 -1      1778 3.42041E-04-1.51462E-04-1.42966E-16
 -1      1779 3.51460E-04-1.73461E-04-1.24819E-16
 -1      1780 4.58171E-04-1.87217E-04-2.26517E-16
 -1      1781 3.24823E-04-6.49196E-05-1.88028E-16
 -1      1782 3.25938E-04-7.61800E-05-1.84884E-16
 -1      1783 3.23375E-04-4.35294E-05-1.91565E-16
 -1      1784 3.24011E-04-5.39603E-05-1.90088E-16
 -1      1785 4.36853E-04-7.86348E-05-2.79169E-16
 -1      1786 3.22610E-04-2.35583E-05-1.92053E-16
 -1      1787 3.22934E-04-3.33933E-05-1.92134E-16
 -1      1788 4.34893E-04-5.08394E-05-2.82828E-16
 -1      1789 3.22322E-04-4.29779E-06-1.90508E-16
 -1      1790 3.22417E-04-1.38608E-05-1.91579E-16
 -1      1791 4.33886E-04-2.46748E-05-2.82868E-16
 -1      1792 3.22444E-04 1.48410E-05-1.86388E-16
 -1      1793 3.22331E-04 5.26768E-06-1.88732E-16
 -1      1794 4.33592E-04 7.48822E-07-2.79562E-16
 -1      1795 3.23001E-04 3.44285E-05-1.80547E-16
 -1      1796 3.22655E-04 2.45601E-05-1.83854E-16
 -1      1797 4.33947E-04 2.62020E-05-2.73192E-16
 -1      1798 3.24103E-04 5.47430E-05-1.71765E-16
 -1      1799 3.23456E-04 4.44367E-05-1.76806E-16
 -1      1800 4.35014E-04 5.22321E-05-2.63935E-16
 -1      1801 3.26102E-04 7.73166E-05-1.59567E-16
 -1      1802 3.24938E-04 6.57685E-05-1.66208E-16
 -1      1803 4.37035E-04 7.99381E-05-2.50708E-16
 -1      1804 3.29680E-04 1.03122E-04-1.42274E-16
 -1      1805 3.27595E-04 8.97834E-05-1.51883E-16
 -1      1806 4.40602E-04 1.10796E-04-2.32168E-16
 -1      1807 3.36534E-04 1.34576E-04-1.16796E-16
 -1      1808 3.32453E-04 1.18078E-04-1.31121E-16
 -1      1809 4.46912E-04 1.46510E-04-2.06161E-16
 -1      1810 3.51987E-04 1.77054E-04-7.92823E-17
 -1      1811 3.42642E-04 1.54221E-04-1.00140E-16
 -1      1812 4.59181E-04 1.90606E-04-1.68539E-16
 -1      1813 4.07083E-04 2.33014E-04-5.20146E-17
 -1      1814 3.77648E-04 2.02056E-04-6.96464E-17
 -1      1815 4.95397E-04 2.43067E-04-1.34170E-16
 -1      1816 5.57719E-04 3.01428E-04-1.05628E-16
 -1      1817 3.39559E-04-1.90395E-04-8.91214E-17
 -1      1818 8.52380E-04 4.05017E-04-3.03943E-16
 -1      1819 7.06145E-04 3.57825E-04-1.89912E-16
 -1      1820 6.72619E-04 3.27345E-04-2.08221E-16
 -1      1821 4.58446E-04-2.35903E-04-1.61980E-16
 -1      1822 8.06314E-04-3.72164E-04-4.40322E-16
 -1      1823 9.51469E-04-4.12733E-04-6.18646E-16
 -1      1824 1.09423E-03-4.46710E-04-8.30065E-16
 -1      1825 1.23586E-03-4.74801E-04-1.07537E-15
 -1      1826 1.00325E-03-3.95037E-04-7.62221E-16
 -1      1827 1.37627E-03-4.98368E-04-1.35341E-15
 -1      1828 1.51601E-03-5.17706E-04-1.66505E-15
 -1      1829 1.28893E-03-4.51377E-04-1.25869E-15
 -1      1830 1.65530E-03-5.33712E-04-2.00993E-15
 -1      1831 1.79434E-03-5.46623E-04-2.38759E-15
 -1      1832 1.57152E-03-4.90233E-04-1.88632E-15
 -1      1833 1.93335E-03-5.57024E-04-2.79763E-15
 -1      1834 2.07241E-03-5.65115E-04-3.24030E-15
 -1      1835 1.85257E-03-5.16119E-04-2.64464E-15
 -1      1836 2.21168E-03-5.71293E-04-3.71547E-15
 -1      1837 2.35121E-03-5.75728E-04-4.22230E-15
 -1      1838 2.13326E-03-5.32270E-04-3.53206E-15
 -1      1839 2.49111E-03-5.78695E-04-4.76142E-15
 -1      1840 2.63140E-03-5.80338E-04-5.33196E-15
 -1      1841 2.41441E-03-5.41038E-04-4.54662E-15
 -1      1842 2.77217E-03-5.80854E-04-5.93349E-15
 -1      1843 2.91343E-03-5.80365E-04-6.56589E-15
 -1      1844 2.69660E-03-5.44175E-04-5.68713E-15
 -1      1845 3.05527E-03-5.79017E-04-7.22908E-15
 -1      1846 3.19771E-03-5.76921E-04-7.92275E-15
 -1      1847 2.98025E-03-5.43010E-04-6.95102E-15
 -1      1848 3.34079E-03-5.74191E-04-8.64719E-15
 -1      1849 3.48458E-03-5.70935E-04-9.40178E-15
 -1      1850 3.26572E-03-5.38590E-04-8.33648E-15
 -1      1851 3.62910E-03-5.67261E-04-1.01865E-14
 -1      1852 3.77443E-03-5.63283E-04-1.10017E-14
 -1      1853 3.55337E-03-5.31813E-04-9.84334E-15
 -1      1854 3.92060E-03-5.59123E-04-1.18457E-14
 -1      1855 4.06771E-03-5.54912E-04-1.27200E-14
 -1      1856 3.84354E-03-5.23544E-04-1.14693E-14
 -1      1857 4.21577E-03-5.50811E-04-1.36240E-14
 -1      1858 4.36490E-03-5.46982E-04-1.45567E-14
 -1      1859 4.13664E-03-5.14748E-04-1.32138E-14
 -1      1860 4.51510E-03-5.43648E-04-1.55184E-14
 -1      1861 4.66649E-03-5.41017E-04-1.65100E-14
 -1      1862 4.43312E-03-5.06637E-04-1.50753E-14
 -1      1863 4.81909E-03-5.39399E-04-1.75320E-14
 -1      1864 4.97297E-03-5.39060E-04-1.85825E-14
 -1      1865 4.73345E-03-5.00819E-04-1.70534E-14
 -1      1866 5.12817E-03-5.40414E-04-1.96606E-14
 -1      1867 5.28469E-03-5.43794E-04-2.07667E-14
 -1      1868 5.03815E-03-4.99454E-04-1.91484E-14
 -1      1869 5.44259E-03-5.49715E-04-2.19018E-14
 -1      1870 5.60175E-03-5.58564E-04-2.30633E-14
 -1      1871 5.34768E-03-5.05367E-04-2.13552E-14
 -1      1872 5.76228E-03-5.70915E-04-2.42513E-14
 -1      1873 5.92382E-03-5.87167E-04-2.54670E-14
 -1      1874 5.66242E-03-5.22050E-04-2.36721E-14
 -1      1875 6.08660E-03-6.07831E-04-2.67103E-14
 -1      1876 6.24992E-03-6.33213E-04-2.79805E-14
 -1      1877 5.98249E-03-5.53415E-04-2.60954E-14
 -1      1878 6.41411E-03-6.63541E-04-2.92790E-14
 -1      1879 6.57813E-03-6.98822E-04-3.06056E-14
 -1      1880 6.30748E-03-6.03087E-04-2.86291E-14
 -1      1881 6.74234E-03-7.38696E-04-3.19608E-14
 -1      1882 6.90546E-03-7.82572E-04-3.33447E-14
 -1      1883 6.63606E-03-6.72978E-04-3.12720E-14
 -1      1884 7.06776E-03-8.29194E-04-3.47574E-14
 -1      1885 7.22808E-03-8.77094E-04-3.61980E-14
 -1      1886 6.96551E-03-7.61022E-04-3.40300E-14
 -1      1887 7.38643E-03-9.24050E-04-3.76676E-14
 -1      1888 7.54234E-03-9.67702E-04-3.91649E-14
 -1      1889 7.29172E-03-8.58513E-04-3.69012E-14
 -1      1890 7.69548E-03-1.00533E-03-4.06886E-14
 -1      1891 7.84668E-03-1.03428E-03-4.22377E-14
 -1      1892 7.61037E-03-9.48700E-04-3.98828E-14
 -1      1893 7.99535E-03-1.05228E-03-4.38164E-14
 -1      1894 8.14358E-03-1.05763E-03-4.54213E-14
 -1      1895 7.91964E-03-1.00939E-03-4.29743E-14
 -1      1896 8.29071E-03-1.04953E-03-4.70537E-14
 -1      1897 8.43927E-03-1.02816E-03-4.87127E-14
 -1      1898 8.22261E-03-1.02109E-03-4.61743E-14
 -1      1899 8.58861E-03-9.94678E-04-5.03984E-14
 -1      1900 8.74062E-03-9.51008E-04-5.21114E-14
 -1      1901 8.52629E-03-9.76943E-04-4.94823E-14
 -1      1902 8.89477E-03-8.99610E-04-5.38521E-14
 -1      1903 9.05160E-03-8.43171E-04-5.56171E-14
 -1      1904 8.83726E-03-8.86676E-04-5.28995E-14
 -1      1905 9.21085E-03-7.84356E-04-5.74055E-14
 -1      1906 9.37188E-03-7.25426E-04-5.92178E-14
 -1      1907 9.15763E-03-7.71054E-04-5.64199E-14
 -1      1908 9.53475E-03-6.68404E-04-6.10518E-14
 -1      1909 9.69826E-03-6.14600E-04-6.29036E-14
 -1      1910 9.48487E-03-6.51746E-04-6.00351E-14
 -1      1911 9.86268E-03-5.65068E-04-6.47732E-14
 -1      1912 1.00268E-02-5.20270E-04-6.66608E-14
 -1      1913 9.81457E-03-5.44050E-04-6.37293E-14
 -1      1914 1.01909E-02-4.80428E-04-6.85632E-14
 -1      1915 1.03542E-02-4.45454E-04-7.04819E-14
 -1      1916 1.01428E-02-4.55234E-04-6.74941E-14
 -1      1917 1.05167E-02-4.15046E-04-7.24171E-14
 -1      1918 1.06781E-02-3.88866E-04-7.43642E-14
 -1      1919 1.04673E-02-3.86401E-04-7.13222E-14
 -1      1920 1.08385E-02-3.66381E-04-7.63254E-14
 -1      1921 1.09975E-02-3.47188E-04-7.82990E-14
 -1      1922 1.07868E-02-3.35153E-04-7.52125E-14
 -1      1923 1.11552E-02-3.30720E-04-8.02841E-14
 -1      1924 1.13117E-02-3.16604E-04-8.22809E-14
 -1      1925 1.11011E-02-2.97733E-04-7.91536E-14
 -1      1926 1.14669E-02-3.04344E-04-8.42877E-14
 -1      1927 1.16210E-02-2.93629E-04-8.63039E-14
 -1      1928 1.14105E-02-2.70290E-04-8.31410E-14
 -1      1929 1.17738E-02-2.84074E-04-8.83306E-14
 -1      1930 1.19256E-02-2.75435E-04-9.03670E-14
 -1      1931 1.17154E-02-2.49489E-04-8.71714E-14
 -1      1932 1.20763E-02-2.67438E-04-9.24136E-14
 -1      1933 1.22261E-02-2.59901E-04-9.44666E-14
 -1      1934 1.20163E-02-2.32708E-04-9.12406E-14
 -1      1935 1.23750E-02-2.52640E-04-9.65308E-14
 -1      1936 1.25231E-02-2.45525E-04-9.86048E-14
 -1      1937 1.23139E-02-2.18023E-04-9.53492E-14
 -1      1938 1.26705E-02-2.38442E-04-1.00689E-13
 -1      1939 1.28173E-02-2.31302E-04-1.02785E-13
 -1      1940 1.26087E-02-2.04097E-04-9.94952E-14
 -1      1941 1.29634E-02-2.24040E-04-1.04890E-13
 -1      1942 1.31091E-02-2.16597E-04-1.07005E-13
 -1      1943 1.29012E-02-1.90053E-04-1.03682E-13
 -1      1944 1.32543E-02-2.08942E-04-1.09131E-13
 -1      1945 1.33991E-02-2.01036E-04-1.11262E-13
 -1      1946 1.31918E-02-1.75350E-04-1.07909E-13
 -1      1947 1.35435E-02-1.92871E-04-1.13399E-13
 -1      1948 1.36877E-02-1.84422E-04-1.15546E-13
 -1      1949 1.34810E-02-1.59680E-04-1.12170E-13
 -1      1950 1.38315E-02-1.75695E-04-1.17700E-13
 -1      1951 1.39752E-02-1.66675E-04-1.19857E-13
 -1      1952 1.37690E-02-1.42892E-04-1.16455E-13
 -1      1953 1.41186E-02-1.57377E-04-1.22019E-13
 -1      1954 1.42619E-02-1.47796E-04-1.24186E-13
 -1      1955 1.40562E-02-1.24939E-04-1.20769E-13
 -1      1956 1.43898E-02-1.40668E-04-1.26138E-13
 -1      1957 1.45328E-02-1.30601E-04-1.28315E-13
 -1      1958 1.45830E-02-9.39254E-05-1.28792E-13
 -1      1959 1.43274E-02-1.08536E-04-1.24881E-13
 -1      1960 1.13718E-03 4.76625E-04-6.21207E-16
 -1      1961 9.95522E-04 4.44097E-04-4.47166E-16
 -1      1962 9.63451E-04 4.14744E-04-4.68497E-16
 -1      1963 1.41621E-03 5.26342E-04-1.06149E-15
 -1      1964 1.27708E-03 5.03831E-04-8.25755E-16
 -1      1965 1.24782E-03 4.75810E-04-8.48686E-16
 -1      1966 1.69273E-03 5.60371E-04-1.62573E-15
 -1      1967 1.55460E-03 5.45077E-04-1.32803E-15
 -1      1968 1.52816E-03 5.18036E-04-1.35157E-15
 -1      1969 1.96878E-03 5.82788E-04-2.31427E-15
 -1      1970 1.83072E-03 5.72865E-04-1.95438E-15
 -1      1971 1.80674E-03 5.46475E-04-1.97817E-15
 -1      1972 2.24558E-03 5.96441E-04-3.12566E-15
 -1      1973 2.10703E-03 5.90588E-04-2.70438E-15
 -1      1974 2.08507E-03 5.64612E-04-2.72773E-15
 -1      1975 2.52389E-03 6.03403E-04-4.05889E-15
 -1      1976 2.38451E-03 6.00666E-04-3.57714E-15
 -1      1977 2.36414E-03 5.74938E-04-3.59902E-15
 -1      1978 2.80422E-03 6.05216E-04-5.11266E-15
 -1      1979 2.66378E-03 6.04880E-04-4.57073E-15
 -1      1980 2.64458E-03 5.79281E-04-4.59108E-15
 -1      1981 3.08701E-03 6.03059E-04-6.28446E-15
 -1      1982 2.94529E-03 6.04574E-04-5.68390E-15
 -1      1983 2.92688E-03 5.79009E-04-5.70202E-15
 -1      1984 3.37265E-03 5.97870E-04-7.57182E-15
 -1      1985 3.22944E-03 6.00790E-04-6.91366E-15
 -1      1986 3.21145E-03 5.75180E-04-6.92958E-15
 -1      1987 3.66159E-03 5.90472E-04-8.97485E-15
 -1      1988 3.51667E-03 5.94392E-04-8.25955E-15
 -1      1989 3.49869E-03 5.68659E-04-8.27342E-15
 -1      1990 3.95439E-03 5.81697E-04-1.04912E-14
 -1      1991 3.80746E-03 5.86193E-04-9.71841E-15
 -1      1992 3.78905E-03 5.60248E-04-9.73009E-15
 -1      1993 4.25170E-03 5.72535E-04-1.21180E-14
 -1      1994 4.10242E-03 5.77083E-04-1.12911E-14
 -1      1995 4.08307E-03 5.50815E-04-1.12992E-14
 -1      1996 4.55430E-03 5.64311E-04-1.38553E-14
 -1      1997 4.40227E-03 5.68196E-04-1.29732E-14
 -1      1998 4.38138E-03 5.41460E-04-1.29798E-14
 -1      1999 4.86304E-03 5.58900E-04-1.56991E-14
 -1      2000 4.70783E-03 5.61104E-04-1.47639E-14
 -1      2001 4.68469E-03 5.33703E-04-1.47682E-14
 -1      2002 5.17875E-03 5.58980E-04-1.76467E-14
 -1      2003 5.01994E-03 5.58053E-04-1.66606E-14
 -1      2004 4.99378E-03 5.29719E-04-1.66627E-14
 -1      2005 5.50211E-03 5.68290E-04-1.96989E-14
 -1      2006 5.33942E-03 5.62222E-04-1.86595E-14
 -1      2007 5.30941E-03 5.32606E-04-1.86600E-14
 -1      2008 5.83344E-03 5.91782E-04-2.18500E-14
 -1      2009 5.66678E-03 5.77954E-04-2.07616E-14
 -1      2010 5.63223E-03 5.46615E-04-2.07594E-14
 -1      2011 6.17229E-03 6.35443E-04-2.41014E-14
 -1      2012 6.00203E-03 6.10774E-04-2.29636E-14
 -1      2013 5.96262E-03 5.77228E-04-2.29599E-14
 -1      2014 6.51707E-03 7.05335E-04-2.64481E-14
 -1      2015 6.34421E-03 6.66891E-04-2.52627E-14
 -1      2016 6.30034E-03 6.30743E-04-2.52579E-14
 -1      2017 6.86458E-03 8.05298E-04-2.88930E-14
 -1      2018 6.69095E-03 7.51631E-04-2.76586E-14
 -1      2019 6.64414E-03 7.12879E-04-2.76517E-14
 -1      2020 7.20982E-03 9.33032E-04-3.14407E-14
 -1      2021 7.03812E-03 8.66345E-04-3.01545E-14
 -1      2022 6.99113E-03 8.25827E-04-3.01449E-14
 -1      2023 7.54653E-03 1.07519E-03-3.40940E-14
 -1      2024 7.37983E-03 1.00370E-03-3.27526E-14
 -1      2025 7.33626E-03 9.63527E-04-3.27399E-14
 -1      2026 7.86976E-03 1.20550E-03-3.68549E-14
 -1      2027 7.71001E-03 1.14379E-03-3.54604E-14
 -1      2028 7.67306E-03 1.10692E-03-3.54429E-14
 -1      2029 8.17953E-03 1.29060E-03-3.97342E-14
 -1      2030 8.02575E-03 1.25534E-03-3.82804E-14
 -1      2031 7.99701E-03 1.22417E-03-3.82595E-14
 -1      2032 8.48315E-03 1.30571E-03-4.27234E-14
 -1      2033 8.33096E-03 1.30726E-03-4.12146E-14
 -1      2034 8.31018E-03 1.28167E-03-4.11918E-14
 -1      2035 8.79182E-03 1.24926E-03-4.58317E-14
 -1      2036 8.63582E-03 1.28521E-03-4.42626E-14
 -1      2037 8.62205E-03 1.26257E-03-4.42403E-14
 -1      2038 9.11346E-03 1.14410E-03-4.90495E-14
 -1      2039 8.95061E-03 1.20073E-03-4.74262E-14
 -1      2040 8.94311E-03 1.17787E-03-4.74015E-14
 -1      2041 9.44894E-03 1.02346E-03-5.23832E-14
 -1      2042 9.27971E-03 1.08394E-03-5.07016E-14
 -1      2043 9.27729E-03 1.05908E-03-5.06751E-14
 -1      2044 9.79362E-03 9.14946E-04-5.58255E-14
 -1      2045 9.62067E-03 9.66721E-04-5.40917E-14
 -1      2046 9.62122E-03 9.39710E-04-5.40624E-14
 -1      2047 1.01413E-02 8.33289E-04-5.93687E-14
 -1      2048 9.96765E-03 8.70541E-04-5.75852E-14
 -1      2049 9.96845E-03 8.41971E-04-5.75547E-14
 -1      2050 1.04869E-02 7.81772E-04-6.30009E-14
 -1      2051 1.03148E-02 8.03978E-04-6.11740E-14
 -1      2052 1.03135E-02 7.74506E-04-6.11412E-14
 -1      2053 1.08269E-02 7.56961E-04-6.67199E-14
 -1      2054 1.06578E-02 7.66401E-04-6.48503E-14
 -1      2055 1.06530E-02 7.36505E-04-6.48160E-14
 -1      2056 1.11596E-02 7.52884E-04-7.05125E-14
 -1      2057 1.09943E-02 7.52703E-04-6.86072E-14
 -1      2058 1.09855E-02 7.22695E-04-6.85690E-14
 -1      2059 1.14847E-02 7.63497E-04-7.43773E-14
 -1      2060 1.13231E-02 7.56660E-04-7.24350E-14
 -1      2061 1.13107E-02 7.26739E-04-7.23941E-14
 -1      2062 1.18023E-02 7.83749E-04-7.83091E-14
 -1      2063 1.16444E-02 7.72645E-04-7.63363E-14
 -1      2064 1.16287E-02 7.42937E-04-7.62882E-14
 -1      2065 1.21132E-02 8.09831E-04-8.23042E-14
 -1      2066 1.19585E-02 7.96219E-04-8.02986E-14
 -1      2067 1.19403E-02 7.66793E-04-8.02457E-14
 -1      2068 1.24184E-02 8.39052E-04-8.63684E-14
 -1      2069 1.22665E-02 8.24154E-04-8.43279E-14
 -1      2070 1.22464E-02 7.95039E-04-8.42705E-14
 -1      2071 1.27189E-02 8.69606E-04-9.04895E-14
 -1      2072 1.25692E-02 8.54228E-04-8.84216E-14
 -1      2073 1.25478E-02 8.25426E-04-8.83580E-14
 -1      2074 1.30154E-02 9.00336E-04-9.46647E-14
 -1      2075 1.28676E-02 8.84988E-04-9.25710E-14
 -1      2076 1.28453E-02 8.56479E-04-9.25055E-14
 -1      2077 1.33089E-02 9.30539E-04-9.88867E-14
 -1      2078 1.31625E-02 9.15525E-04-9.67699E-14
 -1      2079 1.31397E-02 8.87280E-04-9.66984E-14
 -1      2080 1.36000E-02 9.59819E-04-1.03152E-13
 -1      2081 1.34547E-02 9.45305E-04-1.01016E-13
 -1      2082 1.34316E-02 9.17292E-04-1.00940E-13
 -1      2083 1.38894E-02 9.87974E-04-1.07458E-13
 -1      2084 1.37449E-02 9.74040E-04-1.05301E-13
 -1      2085 1.37216E-02 9.46227E-04-1.05219E-13
 -1      2086 1.41774E-02 1.01493E-03-1.11801E-13
 -1      2087 1.40335E-02 1.00160E-03-1.09622E-13
 -1      2088 1.40102E-02 9.73956E-04-1.09536E-13
 -1      2089 1.44644E-02 1.04069E-03-1.16191E-13
 -1      2090 1.43210E-02 1.02796E-03-1.13991E-13
 -1      2091 1.42977E-02 1.00045E-03-1.13896E-13
 -1      2092 1.47508E-02 1.06533E-03-1.20624E-13
 -1      2093 1.46076E-02 1.05314E-03-1.18402E-13
 -1      2094 1.45844E-02 1.02576E-03-1.18301E-13
 -1      2095 1.49851E-02 1.08189E-03-1.24314E-13
 -1      2096 1.48421E-02 1.07007E-03-1.22076E-13
 -1      2097 1.48189E-02 1.04276E-03-1.21971E-13
 -1      2098 1.50016E-02 1.05203E-03-1.24885E-13
 -1      2099 1.49103E-02 8.16727E-04-1.25600E-13
 -1      2100 1.49206E-02 8.58206E-04-1.25390E-13
 -1      2101 1.49310E-02 8.99833E-04-1.25178E-13
 -1      2102 1.49416E-02 9.41580E-04-1.24966E-13
 -1      2103 1.48021E-02 8.68840E-04-1.23370E-13
 -1      2104 1.49660E-02 9.75762E-04-1.25041E-13
 -1      2105 1.49770E-02 1.01771E-03-1.24817E-13
 -1      2106 1.48857E-02 1.01311E-03-1.23359E-13
 -1      2107 1.48368E-02 9.44625E-04-1.23222E-13
 -1      2108 1.48903E-02 7.35579E-04-1.26003E-13
 -1      2109 1.49003E-02 7.76084E-04-1.25801E-13
 -1      2110 1.47818E-02 7.86674E-04-1.23799E-13
 -1      2111 1.48701E-02 6.53555E-04-1.26417E-13
 -1      2112 1.48802E-02 6.94507E-04-1.26209E-13
 -1      2113 1.47619E-02 7.05083E-04-1.24218E-13
 -1      2114 1.48495E-02 5.71953E-04-1.26829E-13
 -1      2115 1.48598E-02 6.12715E-04-1.26624E-13
 -1      2116 1.47417E-02 6.23312E-04-1.24640E-13
 -1      2117 1.48283E-02 4.90603E-04-1.27246E-13
 -1      2118 1.48390E-02 5.31263E-04-1.27035E-13
 -1      2119 1.47210E-02 5.41925E-04-1.25060E-13
 -1      2120 1.48064E-02 4.09299E-04-1.27661E-13
 -1      2121 1.48174E-02 4.49963E-04-1.27455E-13
 -1      2122 1.46997E-02 4.60740E-04-1.25482E-13
 -1      2123 1.47839E-02 3.27833E-04-1.28077E-13
 -1      2124 1.47952E-02 3.68603E-04-1.27869E-13
 -1      2125 1.46776E-02 3.79545E-04-1.25900E-13
 -1      2126 1.47613E-02 2.47408E-04-1.28488E-13
 -1      2127 1.47726E-02 2.87674E-04-1.28279E-13
 -1      2128 1.46551E-02 2.98826E-04-1.26311E-13
 -1      2129 1.47382E-02 1.65116E-04-1.28905E-13
 -1      2130 1.47497E-02 2.06328E-04-1.28697E-13
 -1      2131 1.46321E-02 2.17721E-04-1.26720E-13
 -1      2132 1.47152E-02 8.22717E-05-1.29316E-13
 -1      2133 1.47266E-02 1.23761E-04-1.29111E-13
 -1      2134 1.46089E-02 1.35406E-04-1.27130E-13
 -1      2135 1.46929E-02-1.11867E-06-1.29723E-13
 -1      2136 1.47040E-02 4.06367E-05-1.29522E-13
 -1      2137 1.45860E-02 5.25127E-05-1.27536E-13
 -1      2138 1.01417E-02 3.24197E-04-5.20172E-14
 -1      2139 1.02800E-02 2.72974E-04-5.25049E-14
 -1      2140 1.05300E-02 1.67030E-04-5.38390E-14
 -1      2141 1.05233E-02 1.49757E-04-5.37719E-14
 -1      2142 1.03955E-02 2.26987E-04-5.30367E-14
 -1      2143 1.04790E-02 1.95880E-04-5.35709E-14
 -1      2144 1.03390E-02 2.34058E-04-5.34979E-14
 -1      2145 9.77963E-03 4.90149E-04-5.05521E-14
 -1      2146 9.95174E-03 4.06837E-04-5.12665E-14
 -1      2147 9.39669E-03 6.85829E-04-4.89976E-14
 -1      2148 9.57493E-03 5.88253E-04-4.97805E-14
 -1      2149 3.27393E-04-8.84608E-05-1.80479E-16
 -1      2150 3.29441E-04-1.01626E-04-1.74218E-16
 -1      2151 4.46462E-04-1.44306E-04-2.53785E-16
 -1      2152 4.40309E-04-1.09187E-04-2.70251E-16
 -1      2153 8.66758E-03 1.05553E-03-4.52077E-14
 -1      2154 8.83529E-03 9.83124E-04-4.61553E-14
 -1      2155 8.29436E-03 1.11809E-03-4.28932E-14
 -1      2156 8.44851E-03 1.11100E-03-4.38497E-14
 -1      2157 7.97209E-03 1.04685E-03-4.09893E-14
 -1      2158 8.13081E-03 1.09830E-03-4.19222E-14
 -1      2159 7.56334E-03 8.50633E-04-3.91565E-14
 -1      2160 7.74515E-03 9.47239E-04-3.98847E-14
 -1      2161 7.17153E-03 6.36794E-04-3.78655E-14
 -1      2162 7.35929E-03 7.43984E-04-3.84870E-14
 -1      2163 6.76523E-03 4.16771E-04-3.66575E-14
 -1      2164 6.95906E-03 5.18538E-04-3.71887E-14
 -1      2165 6.38635E-03 2.52479E-04-3.58976E-14
 -1      2166 6.54832E-03 3.17623E-04-3.61890E-14
 -1      2167 6.13941E-03 1.52272E-04-3.53055E-14
 -1      2168 6.24412E-03 1.88725E-04-3.54932E-14
 -1      2169 6.01965E-03 1.03274E-04-3.54005E-14
 -1      2170 6.05390E-03 1.21699E-04-3.53588E-14
 -1      2171 6.06210E-03 6.31265E-05-3.54853E-14
 -1      2172 6.02141E-03 8.07723E-05-3.54415E-14
 -1      2173 6.01200E-03 9.01987E-05-3.48489E-14
 -1      2174 6.29250E-03-1.76489E-05-3.62245E-14
 -1      2175 6.17289E-03 2.56032E-05-3.57357E-14
 -1      2176 6.58817E-03-1.37014E-04-3.71596E-14
 -1      2177 6.42794E-03-7.23583E-05-3.66888E-14
 -1      2178 6.36591E-03-2.71645E-05-3.58330E-14
 -1      2179 6.99094E-03-3.32303E-04-3.85681E-14
 -1      2180 6.80283E-03-2.37146E-04-3.78992E-14
 -1      2181 7.38717E-03-5.45903E-04-4.02089E-14
 -1      2182 7.21371E-03-4.48097E-04-3.94352E-14
 -1      2183 7.73819E-03-7.20697E-04-4.19157E-14
 -1      2184 7.56749E-03-6.38249E-04-4.10577E-14
 -1      2185 7.49229E-03-5.87560E-04-4.03109E-14
 -1      2186 8.10967E-03-8.35280E-04-4.41534E-14
 -1      2187 7.94805E-03-7.97913E-04-4.31171E-14
 -1      2188 8.46650E-03-8.05242E-04-4.64018E-14
 -1      2189 8.30872E-03-8.36187E-04-4.54185E-14
 -1      2190 8.82180E-03-6.63632E-04-4.83429E-14
 -1      2191 8.65616E-03-7.40593E-04-4.74918E-14
 -1      2192 9.16873E-03-4.74003E-04-5.00193E-14
 -1      2193 8.99446E-03-5.76003E-04-4.91779E-14
 -1      2194 8.88272E-03-6.19399E-04-4.91156E-14
 -1      2195 9.59944E-03-2.42304E-04-5.16272E-14
 -1      2196 9.40844E-03-3.39974E-04-5.10375E-14
 -1      2197 9.97250E-03-7.24643E-05-5.26173E-14
 -1      2198 9.80003E-03-1.51115E-04-5.21334E-14
 -1      2199 1.02787E-02 5.31548E-05-5.34225E-14
 -1      2200 1.01437E-02 1.20167E-06-5.30816E-14
 -1      2201 1.04834E-02 1.26283E-04-5.37209E-14
 -1      2202 1.04093E-02 1.01497E-04-5.36719E-14
 -1      2203 1.05100E-02 1.46865E-04-5.45269E-14
 -1      2204 9.00323E-03 9.03672E-04-4.70243E-14
 -1      2205 9.17668E-03 8.08129E-04-4.79010E-14
 -1      2206 8.90350E-03 9.44528E-04-4.68141E-14
 -1      2207 9.26157E-03 7.42756E-04-4.87853E-14
 -1      2208 6.07222E-04-2.96878E-04-2.65182E-16
 -1      2209 6.63143E-04-2.90953E-04-3.59183E-16
 -1      2210 1.05178E-02 1.77278E-04-5.43043E-14
 -1      2211 1.05395E-02 1.69807E-04-5.50434E-14
 -1      2212 1.04918E-02 1.84814E-04-5.47706E-14
 -1      2213 1.00413E-02 3.46759E-04-5.22042E-14
 -1      2214 1.46425E-02-3.76790E-05-1.29246E-13
 -1      2215 9.65834E-03 5.23408E-04-5.06696E-14
 -1      2216 1.03483E-02 9.50799E-05-5.42246E-14
 -1      2217 1.00471E-02-1.30107E-05-5.35037E-14
 -1      2218 9.26913E-03-3.97099E-04-5.09798E-14
 -1      2219 8.55453E-03-7.78418E-04-4.71780E-14
 -1      2220 7.84576E-03-7.64927E-04-4.23488E-14
 -1      2221 6.70143E-03-1.67337E-04-3.70188E-14
 -1      2222 6.10992E-03 5.29104E-05-3.51318E-14
 -1      2223 6.06116E-03 6.65625E-05-3.45344E-14
 -1      2224 6.16700E-03 4.02052E-05-3.47747E-14
 -1      2225 6.09048E-03 1.25162E-04-3.47559E-14
 -1      2226 6.31828E-03 1.96798E-04-3.51007E-14
 -1      2227 6.67043E-03 3.46592E-04-3.59641E-14
 -1      2228 7.08635E-03 5.60133E-04-3.70953E-14
 -1      2229 7.48124E-03 7.87530E-04-3.84288E-14
 -1      2230 7.87260E-03 1.00321E-03-4.01845E-14
 -1      2231 8.55604E-03 1.09591E-03-4.45772E-14
 -1      2232 8.65249E-03 1.06585E-03-4.53088E-14
 -1      2233 8.46711E-03 1.12168E-03-4.39500E-14
 -1      2234 8.21516E-03 1.11963E-03-4.22543E-14
 -1      2235 7.11970E-03-3.79257E-04-3.86083E-14
 -1      2236 8.20461E-03-8.46833E-04-4.48134E-14
 -1      2237 9.68495E-03-1.72985E-04-5.25219E-14
 -1      2238 1.01592E-03 3.96869E-04-6.05540E-16
 -1      2239 8.71500E-04 3.61155E-04-4.39197E-16
 -1      2240 5.48219E-04-5.47254E-05-4.01805E-16
 -1      2241 5.49249E-04-7.13000E-05-4.00748E-16
 -1      2242 5.50654E-04-8.84984E-05-3.98363E-16
 -1      2243 5.52495E-04-1.06371E-04-3.94338E-16
 -1      2244 6.65744E-04-9.44667E-05-5.41478E-16
 -1      2245 5.46839E-04 8.75783E-06-3.95002E-16
 -1      2246 5.46818E-04-6.90361E-06-3.98471E-16
 -1      2247 5.47599E-04 4.04294E-05-3.85407E-16
 -1      2248 5.47096E-04 2.45211E-05-3.90733E-16
 -1      2249 6.61792E-04 1.96890E-05-5.32723E-16
 -1      2250 5.49422E-04 7.27607E-05-3.71841E-16
 -1      2251 5.48363E-04 5.64064E-05-3.79335E-16
 -1      2252 6.63131E-04 5.71140E-05-5.19048E-16
 -1      2253 5.52780E-04 1.08007E-04-3.52501E-16
 -1      2254 5.50879E-04 9.00357E-05-3.63018E-16
 -1      2255 6.65999E-04 9.62137E-05-4.99668E-16
 -1      2256 5.58557E-04 1.47195E-04-3.25884E-16
 -1      2257 5.55301E-04 1.27034E-04-3.40358E-16
 -1      2258 6.71052E-04 1.38703E-04-4.73186E-16
 -1      2259 5.68673E-04 1.92714E-04-2.88899E-16
 -1      2260 5.62957E-04 1.69029E-04-3.09052E-16
 -1      2261 6.79570E-04 1.86063E-04-4.36893E-16
 -1      2262 1.30139E-03 4.52161E-04-1.02820E-15
 -1      2263 1.15904E-03 4.27097E-04-8.01713E-16
 -1      2264 1.07143E-03 3.78054E-04-7.50241E-16
 -1      2265 9.14835E-04-3.43867E-04-6.92602E-16
 -1      2266 1.05893E-03-3.76490E-04-9.11597E-16
 -1      2267 5.88335E-04-2.36756E-04-3.31400E-16
 -1      2268 7.81023E-04-3.02918E-04-5.27559E-16
 -1      2269 8.40715E-04-2.91405E-04-6.44789E-16
 -1      2270 5.78953E-04-2.08953E-04-3.51756E-16
 -1      2271 9.15281E-03 8.01868E-04-4.86164E-14
 -1      2272 9.34424E-03 6.86572E-04-4.97240E-14
 -1      2273 1.20220E-03-4.04059E-04-1.16285E-15
 -1      2274 1.34507E-03-4.27026E-04-1.44658E-15
 -1      2275 1.11693E-03-3.56969E-04-1.06668E-15
 -1      2276 1.48733E-03-4.46186E-04-1.76257E-15
 -1      2277 1.62926E-03-4.61851E-04-2.11121E-15
 -1      2278 1.40337E-03-4.01907E-04-1.63897E-15
 -1      2279 1.77089E-03-4.74642E-04-2.49188E-15
 -1      2280 1.91234E-03-4.84791E-04-2.90446E-15
 -1      2281 1.68876E-03-4.32790E-04-2.33914E-15
 -1      2282 2.05372E-03-4.92754E-04-3.34898E-15
 -1      2283 2.19509E-03-4.98715E-04-3.82539E-15
 -1      2284 1.97340E-03-4.52856E-04-3.16698E-15
 -1      2285 2.33654E-03-5.03003E-04-4.33286E-15
 -1      2286 2.47811E-03-5.05767E-04-4.87216E-15
 -1      2287 2.25776E-03-4.64640E-04-4.12023E-15
 -1      2288 2.61988E-03-5.07247E-04-5.44225E-15
 -1      2289 2.76187E-03-5.07563E-04-6.04287E-15
 -1      2290 2.54223E-03-4.70077E-04-5.19849E-15
 -1      2291 2.90415E-03-5.06892E-04-6.67412E-15
 -1      2292 3.04673E-03-5.05337E-04-7.33578E-15
 -1      2293 2.82718E-03-4.70643E-04-6.39912E-15
 -1      2294 3.18968E-03-5.03036E-04-8.02776E-15
 -1      2295 3.33302E-03-5.00079E-04-8.74996E-15
 -1      2296 3.11288E-03-4.67477E-04-7.72140E-15
 -1      2297 3.47679E-03-4.96585E-04-9.50202E-15
 -1      2298 3.62103E-03-4.92647E-04-1.02840E-14
 -1      2299 3.39959E-03-4.61504E-04-9.16301E-15
 -1      2300 3.76578E-03-4.88383E-04-1.10947E-14
 -1      2301 3.91109E-03-4.83897E-04-1.19359E-14
 -1      2302 3.68757E-03-4.53546E-04-1.07232E-14
 -1      2303 4.05699E-03-4.79330E-04-1.28058E-14
 -1      2304 4.20356E-03-4.74810E-04-1.37055E-14
 -1      2305 3.97709E-03-4.44444E-04-1.24013E-14
 -1      2306 4.35082E-03-4.70522E-04-1.46353E-14
 -1      2307 4.49887E-03-4.66637E-04-1.55917E-14
 -1      2308 4.26849E-03-4.35186E-04-1.41965E-14
 -1      2309 4.64773E-03-4.63403E-04-1.65785E-14
 -1      2310 4.79751E-03-4.61051E-04-1.75957E-14
 -1      2311 4.56219E-03-4.27047E-04-1.61074E-14
 -1      2312 4.94826E-03-4.59911E-04-1.86395E-14
 -1      2313 5.10009E-03-4.60297E-04-1.97120E-14
 -1      2314 4.85876E-03-4.21738E-04-1.81339E-14
 -1      2315 5.25308E-03-4.62620E-04-2.08125E-14
 -1      2316 5.40731E-03-4.67298E-04-2.19408E-14
 -1      2317 5.15897E-03-4.21551E-04-2.02741E-14
 -1      2318 5.56293E-03-4.74802E-04-2.30965E-14
 -1      2319 5.71993E-03-4.85657E-04-2.42776E-14
 -1      2320 5.46384E-03-4.29472E-04-2.25244E-14
 -1      2321 5.87858E-03-5.00325E-04-2.54849E-14
 -1      2322 6.03866E-03-5.19402E-04-2.67204E-14
 -1      2323 5.77465E-03-4.49192E-04-2.48810E-14
 -1      2324 6.20058E-03-5.43202E-04-2.79831E-14
 -1      2325 6.36380E-03-5.72255E-04-2.92727E-14
 -1      2326 6.09282E-03-4.84897E-04-2.73427E-14
 -1      2327 6.52877E-03-6.06521E-04-3.05910E-14
 -1      2328 6.69453E-03-6.46132E-04-3.19361E-14
 -1      2329 6.41937E-03-5.40577E-04-2.99137E-14
 -1      2330 6.86146E-03-6.90427E-04-3.33098E-14
 -1      2331 7.02812E-03-7.38600E-04-3.47120E-14
 -1      2332 6.75387E-03-6.18440E-04-3.25959E-14
 -1      2333 7.19470E-03-7.89089E-04-3.61407E-14
 -1      2334 7.35965E-03-8.39662E-04-3.75981E-14
 -1      2335 7.09316E-03-7.15916E-04-3.53888E-14
 -1      2336 7.52272E-03-8.88016E-04-3.90850E-14
 -1      2337 7.68339E-03-9.30206E-04-4.05978E-14
 -1      2338 7.43066E-03-8.21700E-04-3.82921E-14
 -1      2339 7.84104E-03-9.63729E-04-4.21363E-14
 -1      2340 7.99713E-03-9.84840E-04-4.37044E-14
 -1      2341 7.75913E-03-9.12883E-04-4.13061E-14
 -1      2342 8.15078E-03-9.91852E-04-4.52994E-14
 -1      2343 8.30516E-03-9.83362E-04-4.69217E-14
 -1      2344 8.07669E-03-9.60063E-04-4.44298E-14
 -1      2345 8.45924E-03-9.59716E-04-4.85719E-14
 -1      2346 8.61612E-03-9.22592E-04-5.02481E-14
 -1      2347 8.38995E-03-9.42685E-04-4.76638E-14
 -1      2348 8.77480E-03-8.74144E-04-5.19522E-14
 -1      2349 8.93645E-03-8.18197E-04-5.36834E-14
 -1      2350 8.70945E-03-8.62946E-04-5.10102E-14
 -1      2351 9.10042E-03-7.57359E-04-5.54411E-14
 -1      2352 9.26591E-03-6.95316E-04-5.72205E-14
 -1      2353 9.04018E-03-7.44361E-04-5.44637E-14
 -1      2354 9.43281E-03-6.34156E-04-5.90219E-14
 -1      2355 9.59948E-03-5.76012E-04-6.08464E-14
 -1      2356 9.37864E-03-6.16114E-04-5.80164E-14
 -1      2357 9.76627E-03-5.22062E-04-6.26911E-14
 -1      2358 9.93167E-03-4.73070E-04-6.45515E-14
 -1      2359 9.71742E-03-4.99105E-04-6.16549E-14
 -1      2360 1.00962E-02-4.29423E-04-6.64291E-14
 -1      2361 1.02590E-02-3.90967E-04-6.83233E-14
 -1      2362 1.00506E-02-4.02725E-04-6.53690E-14
 -1      2363 1.04204E-02-3.57592E-04-7.02348E-14
 -1      2364 1.05800E-02-3.28770E-04-7.21619E-14
 -1      2365 1.03757E-02-3.28318E-04-6.91504E-14
 -1      2366 1.07383E-02-3.04130E-04-7.41021E-14
 -1      2367 1.08949E-02-2.83084E-04-7.60558E-14
 -1      2368 1.06927E-02-2.73090E-04-7.29955E-14
 -1      2369 1.10503E-02-2.65172E-04-7.80243E-14
 -1      2370 1.12043E-02-2.49874E-04-8.00053E-14
 -1      2371 1.10026E-02-2.32917E-04-7.68981E-14
 -1      2372 1.13572E-02-2.36747E-04-8.19967E-14
 -1      2373 1.15090E-02-2.25382E-04-8.40001E-14
 -1      2374 1.13069E-02-2.03685E-04-8.08543E-14
 -1      2375 1.16598E-02-2.15404E-04-8.60111E-14
 -1      2376 1.18097E-02-2.06511E-04-8.80351E-14
 -1      2377 1.16069E-02-1.81854E-04-8.48548E-14
 -1      2378 1.19588E-02-1.98415E-04-9.00709E-14
 -1      2379 1.21071E-02-1.90899E-04-9.21151E-14
 -1      2380 1.19036E-02-1.64629E-04-8.89002E-14
 -1      2381 1.22548E-02-1.83758E-04-9.41672E-14
 -1      2382 1.24019E-02-1.76842E-04-9.62285E-14
 -1      2383 1.21977E-02-1.49932E-04-9.29842E-14
 -1      2384 1.25484E-02-1.70017E-04-9.83023E-14
 -1      2385 1.26945E-02-1.63181E-04-1.00384E-13
 -1      2386 1.24898E-02-1.36292E-04-9.71090E-14
 -1      2387 1.28401E-02-1.56253E-04-1.02477E-13
 -1      2388 1.29854E-02-1.49167E-04-1.04579E-13
 -1      2389 1.27803E-02-1.22724E-04-1.01273E-13
 -1      2390 1.31302E-02-1.41879E-04-1.06689E-13
 -1      2391 1.32748E-02-1.34349E-04-1.08811E-13
 -1      2392 1.30696E-02-1.08605E-04-1.05473E-13
 -1      2393 1.34191E-02-1.26559E-04-1.10940E-13
 -1      2394 1.35632E-02-1.18485E-04-1.13073E-13
 -1      2395 1.33579E-02-9.35717E-05-1.09710E-13
 -1      2396 1.37070E-02-1.10125E-04-1.15216E-13
 -1      2397 1.38506E-02-1.01463E-04-1.17366E-13
 -1      2398 1.36454E-02-7.74394E-05-1.13979E-13
 -1      2399 1.39941E-02-9.25131E-05-1.19521E-13
 -1      2400 1.41375E-02-8.32667E-05-1.21680E-13
 -1      2401 1.39324E-02-6.01270E-05-1.18274E-13
 -1      2402 1.02831E-02 2.44519E-04-5.40206E-14
 -1      2403 1.03927E-02 2.13292E-04-5.45620E-14
 -1      2404 1.86518E-03 5.15794E-04-2.23965E-15
 -1      2405 1.72469E-03 5.04492E-04-1.89081E-15
 -1      2406 2.14606E-03 5.31623E-04-3.02872E-15
 -1      2407 2.00562E-03 5.24778E-04-2.61897E-15
 -1      2408 1.92505E-03 4.84424E-04-2.50672E-15
 -1      2409 2.42742E-03 5.40129E-04-3.93803E-15
 -1      2410 2.28665E-03 5.36690E-04-3.46834E-15
 -1      2411 2.20796E-03 4.98030E-04-3.33480E-15
 -1      2412 2.70981E-03 5.43012E-04-4.96742E-15
 -1      2413 2.56846E-03 5.42194E-04-4.43815E-15
 -1      2414 2.49115E-03 5.04819E-04-4.28177E-15
 -1      2415 2.99368E-03 5.41550E-04-6.11445E-15
 -1      2416 2.85154E-03 5.42760E-04-5.52587E-15
 -1      2417 2.77508E-03 5.06354E-04-5.34742E-15
 -1      2418 3.27940E-03 5.36734E-04-7.37768E-15
 -1      2419 3.13629E-03 5.39507E-04-6.73185E-15
 -1      2420 3.06011E-03 5.03820E-04-6.53057E-15
 -1      2421 3.56733E-03 5.29394E-04-8.75538E-15
 -1      2422 3.42306E-03 5.33329E-04-8.05218E-15
 -1      2423 3.34655E-03 4.98148E-04-7.82898E-15
 -1      2424 3.85789E-03 5.20319E-04-1.02464E-14
 -1      2425 3.71224E-03 5.25020E-04-9.48657E-15
 -1      2426 3.63471E-03 4.90130E-04-9.24071E-15
 -1      2427 4.15151E-03 5.10397E-04-1.18484E-14
 -1      2428 4.00426E-03 5.15398E-04-1.10335E-14
 -1      2429 3.92492E-03 4.80547E-04-1.07657E-14
 -1      2430 4.44875E-03 5.00779E-04-1.35621E-14
 -1      2431 4.29962E-03 5.05463E-04-1.26916E-14
 -1      2432 4.21756E-03 4.70306E-04-1.24014E-14
 -1      2433 4.75023E-03 4.93081E-04-1.53826E-14
 -1      2434 4.59889E-03 4.96570E-04-1.44587E-14
 -1      2435 4.51307E-03 4.60610E-04-1.41477E-14
 -1      2436 5.05663E-03 4.89615E-04-1.73084E-14
 -1      2437 4.90274E-03 4.90651E-04-1.63325E-14
 -1      2438 4.81201E-03 4.53148E-04-1.60003E-14
 -1      2439 5.36878E-03 4.93659E-04-1.93375E-14
 -1      2440 5.21192E-03 4.90465E-04-1.83103E-14
 -1      2441 5.11508E-03 4.50337E-04-1.79583E-14
 -1      2442 5.68754E-03 5.09674E-04-2.14675E-14
 -1      2443 5.52730E-03 4.99856E-04-2.03894E-14
 -1      2444 5.42325E-03 4.55571E-04-2.00191E-14
 -1      2445 6.01384E-03 5.43362E-04-2.36984E-14
 -1      2446 5.84978E-03 5.23918E-04-2.25709E-14
 -1      2447 5.73783E-03 4.73446E-04-2.21806E-14
 -1      2448 6.34839E-03 6.01206E-04-2.60256E-14
 -1      2449 6.18024E-03 5.68839E-04-2.48501E-14
 -1      2450 6.06055E-03 5.09823E-04-2.44404E-14
 -1      2451 6.69114E-03 6.88971E-04-2.84501E-14
 -1      2452 6.51909E-03 6.41042E-04-2.72266E-14
 -1      2453 6.39329E-03 5.71436E-04-2.67986E-14
 -1      2454 7.04016E-03 8.08490E-04-3.09720E-14
 -1      2455 6.86546E-03 7.44856E-04-2.96974E-14
 -1      2456 6.73724E-03 6.64368E-04-2.92516E-14
 -1      2457 7.39046E-03 9.52504E-04-3.35964E-14
 -1      2458 7.21599E-03 8.78454E-04-3.22704E-14
 -1      2459 7.09110E-03 7.90672E-04-3.18011E-14
 -1      2460 7.73382E-03 1.09866E-03-3.63291E-14
 -1      2461 7.56353E-03 1.02744E-03-3.49492E-14
 -1      2462 7.44858E-03 9.42032E-04-3.44545E-14
 -1      2463 8.06440E-03 1.21062E-03-3.91812E-14
 -1      2464 7.90044E-03 1.16174E-03-3.77409E-14
 -1      2465 7.79901E-03 1.09184E-03-3.72203E-14
 -1      2466 8.38461E-03 1.25213E-03-4.21475E-14
 -1      2467 8.22432E-03 1.24185E-03-4.06499E-14
 -1      2468 8.13514E-03 1.19690E-03-4.01049E-14
 -1      2469 8.70644E-03 1.21050E-03-4.52322E-14
 -1      2470 8.54372E-03 1.24090E-03-4.36748E-14
 -1      2471 8.46222E-03 1.21833E-03-4.31074E-14
 -1      2472 9.04025E-03 1.10686E-03-4.84290E-14
 -1      2473 8.87134E-03 1.16396E-03-4.68171E-14
 -1      2474 8.79533E-03 1.15124E-03-4.62278E-14
 -1      2475 9.38613E-03 9.79642E-04-5.17397E-14
 -1      2476 9.21221E-03 1.04365E-03-5.00704E-14
 -1      2477 9.14288E-03 1.02917E-03-4.94632E-14
 -1      2478 9.73679E-03 8.62546E-04-5.51589E-14
 -1      2479 9.56174E-03 9.18401E-04-5.34350E-14
 -1      2480 9.49980E-03 8.96839E-04-5.28083E-14
 -1      2481 1.00847E-02 7.73206E-04-5.86815E-14
 -1      2482 9.91175E-03 8.13965E-04-5.69078E-14
 -1      2483 9.85532E-03 7.85328E-04-5.62595E-14
 -1      2484 1.04256E-02 7.15767E-04-6.22935E-14
 -1      2485 1.02564E-02 7.40645E-04-6.04763E-14
 -1      2486 1.02019E-02 7.06489E-04-5.98104E-14
 -1      2487 1.07582E-02 6.86758E-04-6.59908E-14
 -1      2488 1.05930E-02 6.98078E-04-6.41321E-14
 -1      2489 1.05373E-02 6.59912E-04-6.34482E-14
 -1      2490 1.10828E-02 6.79939E-04-6.97663E-14
 -1      2491 1.09215E-02 6.80970E-04-6.78697E-14
 -1      2492 1.08624E-02 6.39927E-04-6.71682E-14
 -1      2493 1.14002E-02 6.88970E-04-7.36076E-14
 -1      2494 1.12423E-02 6.82815E-04-7.16774E-14
 -1      2495 1.11790E-02 6.39763E-04-7.09616E-14
 -1      2496 1.17115E-02 7.08510E-04-7.75176E-14
 -1      2497 1.15566E-02 6.97693E-04-7.55552E-14
 -1      2498 1.14889E-02 6.53324E-04-7.48222E-14
 -1      2499 1.20175E-02 7.34489E-04-8.14910E-14
 -1      2500 1.18651E-02 7.20890E-04-7.94974E-14
 -1      2501 1.17937E-02 6.75758E-04-7.87485E-14
 -1      2502 1.23191E-02 7.64001E-04-8.55304E-14
 -1      2503 1.21688E-02 7.48941E-04-8.35014E-14
 -1      2504 1.20944E-02 7.03466E-04-8.27359E-14
 -1      2505 1.26171E-02 7.95075E-04-8.96313E-14
 -1      2506 1.24685E-02 7.79436E-04-8.75724E-14
 -1      2507 1.23918E-02 7.33920E-04-8.67892E-14
 -1      2508 1.29120E-02 8.26436E-04-9.37860E-14
 -1      2509 1.27649E-02 8.10781E-04-9.17026E-14
 -1      2510 1.26865E-02 7.65422E-04-9.09014E-14
 -1      2511 1.32046E-02 8.57304E-04-9.79893E-14
 -1      2512 1.30586E-02 8.41970E-04-9.58820E-14
 -1      2513 1.29790E-02 7.96890E-04-9.50672E-14
 -1      2514 1.34952E-02 8.87234E-04-1.02237E-13
 -1      2515 1.33501E-02 8.72409E-04-1.00110E-13
 -1      2516 1.32698E-02 8.27672E-04-9.92799E-14
 -1      2517 1.37844E-02 9.16001E-04-1.06522E-13
 -1      2518 1.36400E-02 9.01776E-04-1.04373E-13
 -1      2519 1.35592E-02 8.57406E-04-1.03532E-13
 -1      2520 1.40724E-02 9.43518E-04-1.10845E-13
 -1      2521 1.39285E-02 9.29923E-04-1.08679E-13
 -1      2522 1.38475E-02 8.85925E-04-1.07822E-13
 -1      2523 1.43596E-02 9.69783E-04-1.15211E-13
 -1      2524 1.42161E-02 9.56809E-04-1.13020E-13
 -1      2525 1.41349E-02 9.13170E-04-1.12151E-13
 -1      2526 1.46461E-02 9.94859E-04-1.19621E-13
 -1      2527 1.45029E-02 9.82470E-04-1.17412E-13
 -1      2528 1.44217E-02 9.39167E-04-1.16523E-13
 -1      2529 1.47943E-02 1.00841E-03-1.21908E-13
 -1      2530 1.46336E-02 6.74511E-04-1.22440E-13
 -1      2531 1.46435E-02 7.15436E-04-1.22224E-13
 -1      2532 1.46134E-02 5.93036E-04-1.22869E-13
 -1      2533 1.46235E-02 6.33719E-04-1.22654E-13
 -1      2534 1.45054E-02 6.43908E-04-1.20670E-13
 -1      2535 1.46733E-02 8.37719E-04-1.21572E-13
 -1      2536 1.46836E-02 8.79257E-04-1.21348E-13
 -1      2537 1.46534E-02 7.56159E-04-1.22008E-13
 -1      2538 1.46633E-02 7.96684E-04-1.21793E-13
 -1      2539 1.45448E-02 8.06824E-04-1.19783E-13
 -1      2540 1.45251E-02 7.25213E-04-1.20230E-13
 -1      2541 1.45927E-02 5.11920E-04-1.23293E-13
 -1      2542 1.46031E-02 5.52448E-04-1.23082E-13
 -1      2543 1.44852E-02 5.62786E-04-1.21103E-13
 -1      2544 1.45712E-02 4.30959E-04-1.23719E-13
 -1      2545 1.45820E-02 4.71438E-04-1.23506E-13
 -1      2546 1.44644E-02 4.82000E-04-1.21531E-13
 -1      2547 1.45489E-02 3.49931E-04-1.24135E-13
 -1      2548 1.45601E-02 3.90471E-04-1.23927E-13
 -1      2549 1.44427E-02 4.01320E-04-1.21956E-13
 -1      2550 1.45263E-02 2.70007E-04-1.24542E-13
 -1      2551 1.45376E-02 3.10017E-04-1.24340E-13
 -1      2552 1.44203E-02 3.21191E-04-1.22369E-13
 -1      2553 1.45029E-02 1.88253E-04-1.24952E-13
 -1      2554 1.45146E-02 2.29197E-04-1.24748E-13
 -1      2555 1.43973E-02 2.40712E-04-1.22778E-13
 -1      2556 1.44796E-02 1.05923E-04-1.25356E-13
 -1      2557 1.44912E-02 1.47164E-04-1.25155E-13
 -1      2558 1.43737E-02 1.59010E-04-1.23184E-13
 -1      2559 1.44566E-02 2.29616E-05-1.25757E-13
 -1      2560 1.44680E-02 6.45182E-05-1.25554E-13
 -1      2561 1.43502E-02 7.66516E-05-1.23583E-13
 -1      2562 1.45148E-02-4.51626E-05-1.27287E-13
 -1      2563 9.58633E-03 5.51588E-04-5.10439E-14
 -1      2564 9.76273E-03 4.59476E-04-5.18291E-14
 -1      2565 1.58399E-03 4.90350E-04-1.57265E-15
 -1      2566 1.44294E-03 4.73159E-04-1.28487E-15
 -1      2567 1.64183E-03 4.61912E-04-1.79969E-15
 -1      2568 9.94422E-03 3.74897E-04-5.25880E-14
 -1      2569 1.01191E-02 3.03759E-04-5.33514E-14
 -1      2570 9.87494E-03 4.13460E-04-5.29669E-14
 -1      2571 1.04101E-02 1.24349E-04-5.52069E-14
 -1      2572 1.02869E-02 9.08267E-05-5.49530E-14
 -1      2573 1.05342E-02 1.57168E-04-5.54734E-14
 -1      2574 1.04949E-02 1.48359E-04-5.54229E-14
 -1      2575 8.62716E-03-7.47813E-04-4.80380E-14
 -1      2576 8.47446E-03-8.12184E-04-4.69378E-14
 -1      2577 6.80190E-03-2.05629E-04-3.68352E-14
 -1      2578 6.60771E-03-1.16813E-04-3.61127E-14
 -1      2579 6.04079E-03 1.05295E-04-3.41407E-14
 -1      2580 6.11660E-03 1.22240E-04-3.40866E-14
 -1      2581 5.47032E-04-2.26498E-05-4.00626E-16
 -1      2582 5.47490E-04-3.85235E-05-4.01710E-16
 -1      2583 6.62975E-04-5.51637E-05-5.44283E-16
 -1      2584 6.61737E-04-1.74891E-05-5.41166E-16
 -1      2585 8.16175E-03 1.11694E-03-4.16796E-14
 -1      2586 8.29157E-03 1.13653E-03-4.26465E-14
 -1      2587 7.21573E-03-4.27212E-04-3.85538E-14
 -1      2588 7.02216E-03-3.17979E-04-3.77029E-14
 -1      2589 7.77934E-03 9.52530E-04-3.92686E-14
 -1      2590 7.96586E-03 1.05045E-03-4.03593E-14
 -1      2591 7.38654E-03 7.16557E-04-3.75326E-14
 -1      2592 7.55548E-03 8.22504E-04-3.81873E-14
 -1      2593 7.00976E-03 4.95476E-04-3.62021E-14
 -1      2594 7.20077E-03 6.06354E-04-3.68646E-14
 -1      2595 7.28131E-03 6.53527E-04-3.66271E-14
 -1      2596 6.57398E-03 2.82954E-04-3.50852E-14
 -1      2597 6.77173E-03 3.72596E-04-3.55418E-14
 -1      2598 6.27604E-03 1.70374E-04-3.42903E-14
 -1      2599 6.41636E-03 2.18301E-04-3.46868E-14
 -1      2600 6.50262E-03 2.49878E-04-3.42706E-14
 -1      2601 6.00493E-03 8.61225E-05-3.42158E-14
 -1      2602 6.00738E-03 9.30939E-05-3.41784E-14
 -1      2603 6.01087E-03 9.55096E-05-3.35120E-14
 -1      2604 6.42929E-03-4.46923E-05-3.54175E-14
 -1      2605 6.30389E-03-2.70922E-06-3.49667E-14
 -1      2606 8.29729E-03-8.52815E-04-4.56452E-14
 -1      2607 8.13910E-03-8.53457E-04-4.43744E-14
 -1      2608 7.56474E-03-6.30443E-04-4.03265E-14
 -1      2609 7.41707E-03-5.42666E-04-3.94886E-14
 -1      2610 9.78372E-03-1.05835E-04-5.36215E-14
 -1      2611 9.60753E-03-1.92446E-04-5.31022E-14
 -1      2612 7.91820E-03-8.01997E-04-4.26944E-14
 -1      2613 7.74882E-03-7.25618E-04-4.15002E-14
 -1      2614 7.64915E-03-6.87115E-04-4.06583E-14
 -1      2615 8.94452E-03-5.73572E-04-5.00206E-14
 -1      2616 8.80190E-03-6.59050E-04-4.91737E-14
 -1      2617 9.35456E-03-3.29113E-04-5.21758E-14
 -1      2618 9.14339E-03-4.55950E-04-5.11400E-14
 -1      2619 1.01137E-02 3.15200E-05-5.45677E-14
 -1      2620 9.95271E-03-3.12762E-05-5.40948E-14
 -1      2621 9.87908E-03-5.93316E-05-5.46818E-14
 -1      2622 8.87045E-03 9.66094E-04-4.68525E-14
 -1      2623 9.00674E-03 8.86602E-04-4.77313E-14
 -1      2624 9.11209E-03 8.34281E-04-4.86541E-14
 -1      2625 7.57271E-04 3.32423E-04-3.21059E-16
 -1      2626 6.10953E-04 2.83578E-04-2.08262E-16
 -1      2627 5.84397E-04 2.56881E-04-2.18629E-16
 -1      2628 8.13347E-04 3.20837E-04-4.27826E-16
 -1      2629 8.39492E-03 1.13737E-03-4.33594E-14
 -1      2630 6.70626E-04-1.36655E-04-5.31503E-16
 -1      2631 5.54928E-04-1.25189E-04-3.88632E-16
 -1      2632 5.58075E-04-1.45095E-04-3.80541E-16
 -1      2633 1.35755E-03 4.27699E-04-1.21450E-15
 -1      2634 5.72113E-04 2.26707E-04-2.48838E-16
 -1      2635 1.02112E-02 6.91333E-05-5.55493E-14
 -1      2636 9.47948E-03-2.61383E-04-5.32657E-14
 -1      2637 1.04601E-02 1.94764E-04-5.52959E-14
 -1      2638 1.05132E-02 1.86193E-04-5.60356E-14
 -1      2639 1.04270E-02 2.08872E-04-5.58216E-14
 -1      2640 1.02052E-02 2.76055E-04-5.44089E-14
 -1      2641 1.47131E-02 9.65420E-04-1.21002E-13
 -1      2642 1.05536E-02 1.66460E-04-5.59404E-14
 -1      2643 1.05605E-02 1.65595E-04-5.68403E-14
 -1      2644 1.05593E-02 1.72034E-04-5.64067E-14
 -1      2645 1.46888E-02 9.31194E-04-1.20938E-13
 -1      2646 8.02671E-03-8.39349E-04-4.35003E-14
 -1      2647 1.43619E-02-7.06570E-05-1.25094E-13
 -1      2648 1.44218E-02-1.46899E-05-1.25546E-13
 -1      2649 1.43036E-02-2.31298E-06-1.23569E-13
 -1      2650 1.42341E-02-7.76890E-05-1.23145E-13
 -1      2651 8.70941E-03-7.10313E-04-4.89277E-14
 -1      2652 9.47796E-03 6.20520E-04-5.08673E-14
 -1      2653 6.89486E-04 2.49649E-04-3.67680E-16
 -1      2654 1.45596E-02 8.99676E-04-1.19144E-13
 -1      2655 1.04606E-02 1.41075E-04-5.61551E-14
 -1      2656 8.38436E-03-8.40491E-04-4.64871E-14
 -1      2657 6.18175E-03 1.38291E-04-3.36776E-14
 -1      2658 6.25119E-03 1.60901E-04-3.32679E-14
 -1      2659 6.10347E-03 1.19561E-04-3.30683E-14
 -1      2660 6.88063E-03 4.26178E-04-3.53150E-14
 -1      2661 6.51599E-03-8.59072E-05-3.52355E-14
 -1      2662 7.66646E-03 8.91934E-04-3.83537E-14
 -1      2663 6.21696E-03 2.31624E-05-3.43664E-14
 -1      2664 6.14080E-03 3.85258E-05-3.37715E-14
 -1      2665 6.26026E-03 5.07122E-08-3.39544E-14
 -1      2666 6.89865E-03-2.61927E-04-3.67804E-14
 -1      2667 7.29638E-03-4.84658E-04-3.85647E-14
 -1      2668 5.64507E-04-1.63813E-04-3.75337E-16
 -1      2669 5.69828E-04-1.86846E-04-3.62273E-16
 -1      2670 6.97943E-04-2.26150E-04-4.99505E-16
 -1      2671 6.81010E-04-1.80176E-04-5.17707E-16
 -1      2672 8.05354E-03 1.08842E-03-4.07379E-14
 -1      2673 8.67798E-03 1.06996E-03-4.55642E-14
 -1      2674 8.76592E-03 1.02330E-03-4.62056E-14
 -1      2675 8.87710E-03 9.75962E-04-4.71122E-14
 -1      2676 6.01583E-03 7.63866E-05-3.38617E-14
 -1      2677 5.98434E-03 7.90963E-05-3.31960E-14
 -1      2678 6.03994E-03 6.64235E-05-3.35072E-14
 -1      2679 9.05832E-03-5.08773E-04-5.11988E-14
 -1      2680 1.41722E-02-4.55543E-05-1.21892E-13
 -1      2681 7.80669E-04 7.63560E-05-6.73208E-16
 -1      2682 7.79394E-04 5.47504E-05-6.83373E-16
 -1      2683 7.78534E-04 3.31150E-05-6.91978E-16
 -1      2684 7.78104E-04 1.17380E-05-6.99039E-16
 -1      2685 8.96903E-04 4.89572E-05-8.71997E-16
 -1      2686 7.91987E-04 1.71367E-04-6.11883E-16
 -1      2687 7.88015E-04 1.46105E-04-6.30938E-16
 -1      2688 8.03678E-04 2.26345E-04-5.64259E-16
 -1      2689 7.97162E-04 1.98050E-04-5.90036E-16
 -1      2690 9.15289E-04 2.05531E-04-7.68035E-16
 -1      2691 1.12976E-03 3.58350E-04-9.02978E-16
 -1      2692 9.86122E-04 3.30038E-04-6.94946E-16
 -1      2693 1.44119E-02 8.35419E-04-1.17368E-13
 -1      2694 1.44166E-02 8.87139E-04-1.16949E-13
 -1      2695 1.42735E-02 8.74325E-04-1.14762E-13
 -1      2696 1.41614E-03 4.02391E-04-1.40813E-15
 -1      2697 1.27300E-03 3.82348E-04-1.14059E-15
 -1      2698 1.18985E-03 3.37560E-04-1.06351E-15
 -1      2699 1.03090E-02 9.85498E-05-5.68259E-14
 -1      2700 1.01550E-02 4.86775E-05-5.64335E-14
 -1      2701 8.28129E-04-2.63167E-04-6.61268E-16
 -1      2702 9.59745E-04-2.97837E-04-8.47968E-16
 -1      2703 8.17660E-04-2.36600E-04-6.74279E-16
 -1      2704 1.10279E-03-3.25366E-04-1.08820E-15
 -1      2705 1.24617E-03-3.48880E-04-1.35993E-15
 -1      2706 1.09045E-03-2.94876E-04-1.10548E-15
 -1      2707 9.62005E-03-1.90901E-04-5.45502E-14
 -1      2708 9.39839E-03-3.15820E-04-5.36067E-14
 -1      2709 1.38942E-03-3.68717E-04-1.66329E-15
 -1      2710 1.53269E-03-3.85193E-04-1.99852E-15
 -1      2711 1.37676E-03-3.36152E-04-1.68321E-15
 -1      2712 1.67574E-03-3.98784E-04-2.36535E-15
 -1      2713 1.81874E-03-4.09716E-04-2.76383E-15
 -1      2714 1.66355E-03-3.65102E-04-2.38671E-15
 -1      2715 1.96160E-03-4.18416E-04-3.19377E-15
 -1      2716 2.10440E-03-4.25054E-04-3.65462E-15
 -1      2717 1.95024E-03-3.84130E-04-3.21531E-15
 -1      2718 2.24714E-03-4.29971E-04-4.14660E-15
 -1      2719 2.38988E-03-4.33299E-04-4.66975E-15
 -1      2720 2.23671E-03-3.95376E-04-4.16797E-15
 -1      2721 2.53263E-03-4.35300E-04-5.22348E-15
 -1      2722 2.67542E-03-4.36077E-04-5.80789E-15
 -1      2723 2.52299E-03-4.00577E-04-5.24335E-15
 -1      2724 2.81828E-03-4.35831E-04-6.42205E-15
 -1      2725 2.96124E-03-4.34645E-04-7.06663E-15
 -1      2726 2.80920E-03-4.01096E-04-6.43989E-15
 -1      2727 3.10431E-03-4.32674E-04-7.74145E-15
 -1      2728 3.24754E-03-4.29992E-04-8.44591E-15
 -1      2729 3.09545E-03-3.98001E-04-7.75637E-15
 -1      2730 3.39091E-03-4.26725E-04-9.17968E-15
 -1      2731 3.53449E-03-4.22949E-04-9.94354E-15
 -1      2732 3.38184E-03-3.92153E-04-9.19117E-15
 -1      2733 3.67827E-03-4.18776E-04-1.07367E-14
 -1      2734 3.82232E-03-4.14296E-04-1.15586E-14
 -1      2735 3.66852E-03-3.84305E-04-1.07439E-14
 -1      2736 3.96662E-03-4.09626E-04-1.24103E-14
 -1      2737 4.11127E-03-4.04881E-04-1.32900E-14
 -1      2738 3.95563E-03-3.75204E-04-1.24136E-14
 -1      2739 4.25625E-03-4.00201E-04-1.41999E-14
 -1      2740 4.40168E-03-3.95743E-04-1.51383E-14
 -1      2741 4.24342E-03-3.65708E-04-1.41980E-14
 -1      2742 4.54756E-03-3.91688E-04-1.61050E-14
 -1      2743 4.69403E-03-3.88253E-04-1.71013E-14
 -1      2744 4.53227E-03-3.56899E-04-1.60975E-14
 -1      2745 4.84115E-03-3.85673E-04-1.81255E-14
 -1      2746 4.98906E-03-3.84252E-04-1.91790E-14
 -1      2747 4.82277E-03-3.50222E-04-1.81120E-14
 -1      2748 5.13789E-03-3.84289E-04-2.02595E-14
 -1      2749 5.28781E-03-3.86198E-04-2.13674E-14
 -1      2750 5.11589E-03-3.47618E-04-2.02398E-14
 -1      2751 5.43908E-03-3.90344E-04-2.25033E-14
 -1      2752 5.59181E-03-3.97280E-04-2.36648E-14
 -1      2753 5.41311E-03-3.51679E-04-2.24761E-14
 -1      2754 5.74645E-03-4.07415E-04-2.48520E-14
 -1      2755 5.90301E-03-4.21448E-04-2.60652E-14
 -1      2756 5.71659E-03-3.65810E-04-2.48177E-14
 -1      2757 6.06215E-03-4.39795E-04-2.73047E-14
 -1      2758 6.22359E-03-4.63219E-04-2.85727E-14
 -1      2759 6.02914E-03-3.94341E-04-2.72628E-14
 -1      2760 6.38817E-03-4.92085E-04-2.98668E-14
 -1      2761 6.55508E-03-5.26916E-04-3.11891E-14
 -1      2762 6.35378E-03-4.42444E-04-2.98151E-14
 -1      2763 6.72512E-03-5.67912E-04-3.25380E-14
 -1      2764 6.89674E-03-6.14630E-04-3.39152E-14
 -1      2765 6.69236E-03-5.15253E-04-3.24752E-14
 -1      2766 7.07023E-03-6.66768E-04-3.53201E-14
 -1      2767 7.24351E-03-7.21945E-04-3.67503E-14
 -1      2768 7.04303E-03-6.14789E-04-3.52452E-14
 -1      2769 7.41591E-03-7.79109E-04-3.82114E-14
 -1      2770 7.58604E-03-8.32712E-04-3.96995E-14
 -1      2771 7.39772E-03-7.33760E-04-3.81245E-14
 -1      2772 7.75225E-03-8.79948E-04-4.12133E-14
 -1      2773 7.91594E-03-9.14980E-04-4.27543E-14
 -1      2774 7.74420E-03-8.46650E-04-4.11142E-14
 -1      2775 8.07538E-03-9.34181E-04-4.43258E-14
 -1      2776 8.23487E-03-9.35307E-04-4.59236E-14
 -1      2777 8.07512E-03-9.10522E-04-4.42151E-14
 -1      2778 8.39337E-03-9.16432E-04-4.75491E-14
 -1      2779 8.55503E-03-8.80663E-04-4.92036E-14
 -1      2780 8.39879E-03-8.92817E-04-4.74285E-14
 -1      2781 8.71933E-03-8.29297E-04-5.08849E-14
 -1      2782 8.88724E-03-7.68794E-04-5.25938E-14
 -1      2783 8.73130E-03-7.96810E-04-5.07543E-14
 -1      2784 9.05854E-03-7.02163E-04-5.43299E-14
 -1      2785 9.23116E-03-6.34504E-04-5.60926E-14
 -1      2786 9.07911E-03-6.58803E-04-5.41917E-14
 -1      2787 9.40505E-03-5.68906E-04-5.78759E-14
 -1      2788 9.57763E-03-5.07148E-04-5.96795E-14
 -1      2789 9.43403E-03-5.19255E-04-5.77302E-14
 -1      2790 9.74912E-03-4.51090E-04-6.15061E-14
 -1      2791 9.91785E-03-4.00664E-04-6.33520E-14
 -1      2792 9.78350E-03-4.00840E-04-6.13541E-14
 -1      2793 1.00842E-02-3.56677E-04-6.52140E-14
 -1      2794 1.02476E-02-3.18143E-04-6.70904E-14
 -1      2795 1.01202E-02-3.09117E-04-6.50530E-14
 -1      2796 1.04084E-02-2.85205E-04-6.89850E-14
 -1      2797 1.05666E-02-2.56809E-04-7.08982E-14
 -1      2798 1.04431E-02-2.41401E-04-6.88183E-14
 -1      2799 1.07227E-02-2.32753E-04-7.28241E-14
 -1      2800 1.08767E-02-2.12188E-04-7.47638E-14
 -1      2801 1.07542E-02-1.92368E-04-7.26488E-14
 -1      2802 1.10290E-02-1.94754E-04-7.67203E-14
 -1      2803 1.11799E-02-1.79835E-04-7.86904E-14
 -1      2804 1.10567E-02-1.56949E-04-7.65400E-14
 -1      2805 1.13296E-02-1.67035E-04-8.06725E-14
 -1      2806 1.14783E-02-1.55935E-04-8.26656E-14
 -1      2807 1.13533E-02-1.30956E-04-8.04873E-14
 -1      2808 1.16261E-02-1.46169E-04-8.46691E-14
 -1      2809 1.17732E-02-1.37463E-04-8.66819E-14
 -1      2810 1.16461E-02-1.11132E-04-8.44803E-14
 -1      2811 1.19196E-02-1.29512E-04-8.87078E-14
 -1      2812 1.20656E-02-1.22141E-04-9.07463E-14
 -1      2813 1.19365E-02-9.50328E-05-8.85173E-14
 -1      2814 1.22112E-02-1.15116E-04-9.27929E-14
 -1      2815 1.23563E-02-1.08330E-04-9.48485E-14
 -1      2816 1.22253E-02-8.08825E-05-9.25981E-14
 -1      2817 1.25012E-02-1.01612E-04-9.69137E-14
 -1      2818 1.26458E-02-9.49034E-05-9.89897E-14
 -1      2819 1.25131E-02-6.74378E-05-9.67174E-14
 -1      2820 1.27901E-02-8.80854E-05-1.01076E-13
 -1      2821 1.29342E-02-8.11284E-05-1.03171E-13
 -1      2822 1.28004E-02-5.38681E-05-1.00876E-13
 -1      2823 1.30782E-02-7.39577E-05-1.05273E-13
 -1      2824 1.32220E-02-6.65610E-05-1.07387E-13
 -1      2825 1.30871E-02-3.96515E-05-1.05072E-13
 -1      2826 1.33656E-02-5.88952E-05-1.09510E-13
 -1      2827 1.35091E-02-5.09584E-05-1.11638E-13
 -1      2828 1.33736E-02-2.44884E-05-1.09306E-13
 -1      2829 1.36525E-02-4.27297E-05-1.13773E-13
 -1      2830 1.37958E-02-3.42158E-05-1.15918E-13
 -1      2831 1.36599E-02-8.23131E-06-1.13570E-13
 -1      2832 1.39390E-02-2.53986E-05-1.18065E-13
 -1      2833 8.79401E-03-6.71669E-04-4.99295E-14
 -1      2834 8.64321E-03-7.52369E-04-4.87807E-14
 -1      2835 8.10782E-03-8.65907E-04-4.42424E-14
 -1      2836 7.91544E-03-8.19339E-04-4.25633E-14
 -1      2837 1.98626E-03 4.52363E-04-2.77983E-15
 -1      2838 1.84395E-03 4.43718E-04-2.39156E-15
 -1      2839 2.84036E-03 4.69388E-04-5.73197E-15
 -1      2840 2.69776E-03 4.69768E-04-5.16651E-15
 -1      2841 3.12614E-03 4.65934E-04-6.95052E-15
 -1      2842 2.98314E-03 4.68081E-04-6.32678E-15
 -1      2843 2.90561E-03 4.32260E-04-6.12084E-15
 -1      2844 3.41288E-03 4.59566E-04-8.28363E-15
 -1      2845 3.26937E-03 4.63070E-04-7.60281E-15
 -1      2846 3.19176E-03 4.28031E-04-7.37436E-15
 -1      2847 3.70082E-03 4.51044E-04-9.73043E-15
 -1      2848 3.55668E-03 4.55532E-04-8.99300E-15
 -1      2849 3.47840E-03 4.21126E-04-8.74293E-15
 -1      2850 3.99020E-03 4.41141E-04-1.12889E-14
 -1      2851 3.84530E-03 4.46217E-04-1.04960E-14
 -1      2852 3.76567E-03 4.12274E-04-1.02238E-14
 -1      2853 4.28130E-03 4.30777E-04-1.29584E-14
 -1      2854 4.13549E-03 4.35955E-04-1.21093E-14
 -1      2855 4.05372E-03 4.02233E-04-1.18163E-14
 -1      2856 4.57448E-03 4.21187E-04-1.47372E-14
 -1      2857 4.42758E-03 4.25799E-04-1.38346E-14
 -1      2858 4.34275E-03 3.91930E-04-1.35186E-14
 -1      2859 4.87026E-03 4.14105E-04-1.66230E-14
 -1      2860 4.72198E-03 4.17208E-04-1.56673E-14
 -1      2861 4.63303E-03 3.82608E-04-1.53312E-14
 -1      2862 5.16940E-03 4.11991E-04-1.86132E-14
 -1      2863 5.01933E-03 4.12246E-04-1.76047E-14
 -1      2864 4.92508E-03 3.76002E-04-1.72493E-14
 -1      2865 5.47310E-03 4.18266E-04-2.07048E-14
 -1      2866 5.32058E-03 4.13818E-04-1.96462E-14
 -1      2867 5.21974E-03 3.74543E-04-1.92712E-14
 -1      2868 5.78323E-03 4.37550E-04-2.28973E-14
 -1      2869 5.62724E-03 4.25908E-04-2.17890E-14
 -1      2870 5.51853E-03 3.81580E-04-2.13948E-14
 -1      2871 6.10247E-03 4.75825E-04-2.51865E-14
 -1      2872 5.94160E-03 4.53811E-04-2.40298E-14
 -1      2873 5.82398E-03 4.01672E-04-2.36163E-14
 -1      2874 6.43411E-03 5.40167E-04-2.75737E-14
 -1      2875 6.26673E-03 5.04121E-04-2.63678E-14
 -1      2876 6.13992E-03 4.40919E-04-2.59364E-14
 -1      2877 6.78078E-03 6.37466E-04-3.00540E-14
 -1      2878 6.60583E-03 5.84178E-04-2.88021E-14
 -1      2879 6.47117E-03 5.07094E-04-2.83512E-14
 -1      2880 7.14187E-03 7.70565E-04-3.26319E-14
 -1      2881 6.96038E-03 6.99477E-04-3.13303E-14
 -1      2882 6.82211E-03 6.08406E-04-3.08592E-14
 -1      2883 7.50954E-03 9.31636E-04-3.53153E-14
 -1      2884 7.32643E-03 8.49475E-04-3.39611E-14
 -1      2885 7.19205E-03 7.50400E-04-3.34658E-14
 -1      2886 7.86856E-03 1.08719E-03-3.81134E-14
 -1      2887 7.69086E-03 1.01355E-03-3.66991E-14
 -1      2888 7.57062E-03 9.24104E-04-3.61789E-14
 -1      2889 8.21058E-03 1.18557E-03-4.10317E-14
 -1      2890 8.04084E-03 1.14808E-03-3.95576E-14
 -1      2891 7.93814E-03 1.08770E-03-3.90079E-14
 -1      2892 8.54481E-03 1.18195E-03-4.40712E-14
 -1      2893 8.37597E-03 1.19722E-03-4.25365E-14
 -1      2894 8.28729E-03 1.17310E-03-4.19623E-14
 -1      2895 8.89030E-03 1.08432E-03-4.72289E-14
 -1      2896 8.71442E-03 1.14126E-03-4.56354E-14
 -1      2897 8.63411E-03 1.13580E-03-4.50396E-14
 -1      2898 9.25294E-03 9.43581E-04-5.05014E-14
 -1      2899 9.07038E-03 1.01517E-03-4.88507E-14
 -1      2900 8.99743E-03 1.00533E-03-4.82353E-14
 -1      2901 9.61979E-03 8.09650E-04-5.38827E-14
 -1      2902 9.43727E-03 8.73398E-04-5.21806E-14
 -1      2903 9.37518E-03 8.50652E-04-5.15461E-14
 -1      2904 9.97768E-03 7.07660E-04-5.73672E-14
 -1      2905 9.80097E-03 7.54266E-04-5.56124E-14
 -1      2906 9.74844E-03 7.21353E-04-5.49641E-14
 -1      2907 1.03204E-02 6.41762E-04-6.09440E-14
 -1      2908 1.01513E-02 6.70595E-04-5.91437E-14
 -1      2909 1.01041E-02 6.32697E-04-5.84764E-14
 -1      2910 1.06485E-02 6.07009E-04-6.46034E-14
 -1      2911 1.04863E-02 6.21075E-04-6.27638E-14
 -1      2912 1.04396E-02 5.81104E-04-6.20795E-14
 -1      2913 1.09652E-02 5.96114E-04-6.83470E-14
 -1      2914 1.08081E-02 5.99097E-04-6.64666E-14
 -1      2915 1.07586E-02 5.58118E-04-6.57637E-14
 -1      2916 1.12736E-02 6.02255E-04-7.21576E-14
 -1      2917 1.11203E-02 5.97455E-04-7.02440E-14
 -1      2918 1.10661E-02 5.55693E-04-6.95257E-14
 -1      2919 1.15763E-02 6.19873E-04-7.60361E-14
 -1      2920 1.14256E-02 6.09923E-04-7.40894E-14
 -1      2921 1.13663E-02 5.67420E-04-7.33567E-14
 -1      2922 1.18750E-02 6.44732E-04-7.99771E-14
 -1      2923 1.17261E-02 6.31605E-04-7.79989E-14
 -1      2924 1.16620E-02 5.88451E-04-7.72497E-14
 -1      2925 1.21707E-02 6.73760E-04-8.39817E-14
 -1      2926 1.20231E-02 6.58869E-04-8.19716E-14
 -1      2927 1.19549E-02 6.15217E-04-8.12074E-14
 -1      2928 1.24641E-02 7.04818E-04-8.80482E-14
 -1      2929 1.23176E-02 6.89132E-04-8.60066E-14
 -1      2930 1.22459E-02 6.45164E-04-8.52263E-14
 -1      2931 1.27557E-02 7.36482E-04-9.21735E-14
 -1      2932 1.26101E-02 7.20637E-04-9.01056E-14
 -1      2933 1.25357E-02 6.76522E-04-8.93078E-14
 -1      2934 1.30459E-02 7.67850E-04-9.63496E-14
 -1      2935 1.29010E-02 7.52242E-04-9.42556E-14
 -1      2936 1.28245E-02 7.08118E-04-9.34457E-14
 -1      2937 1.33350E-02 7.98389E-04-1.00566E-13
 -1      2938 1.31906E-02 7.83246E-04-9.84510E-14
 -1      2939 1.31126E-02 7.39215E-04-9.76276E-14
 -1      2940 1.36232E-02 8.27813E-04-1.04824E-13
 -1      2941 1.34792E-02 8.13252E-04-1.02692E-13
 -1      2942 1.34002E-02 7.69384E-04-1.01852E-13
 -1      2943 1.39107E-02 8.56001E-04-1.09121E-13
 -1      2944 1.37670E-02 8.42066E-04-1.06968E-13
 -1      2945 1.36872E-02 7.98408E-04-1.06118E-13
 -1      2946 1.41639E-02 8.72062E-04-1.13019E-13
 -1      2947 1.40205E-02 8.58694E-04-1.10851E-13
 -1      2948 1.39404E-02 8.15298E-04-1.09987E-13
 -1      2949 1.41596E-02 8.20389E-04-1.13450E-13
 -1      2950 1.43362E-02 4.52210E-04-1.19771E-13
 -1      2951 1.43468E-02 4.92391E-04-1.19558E-13
 -1      2952 1.05162E-02 1.51332E-04-5.74733E-14
 -1      2953 1.04354E-02 1.34314E-04-5.72551E-14
 -1      2954 1.43773E-02 6.13319E-04-1.18903E-13
 -1      2955 1.43872E-02 6.53865E-04-1.18680E-13
 -1      2956 1.43143E-02 3.71858E-04-1.20195E-13
 -1      2957 1.43254E-02 4.12049E-04-1.19985E-13
 -1      2958 1.42082E-02 4.22604E-04-1.18015E-13
 -1      2959 1.43572E-02 5.32610E-04-1.19340E-13
 -1      2960 1.43674E-02 5.72913E-04-1.19123E-13
 -1      2961 1.42495E-02 5.82798E-04-1.17142E-13
 -1      2962 1.42293E-02 5.02565E-04-1.17583E-13
 -1      2963 1.42918E-02 2.92658E-04-1.20603E-13
 -1      2964 1.43031E-02 3.32302E-04-1.20399E-13
 -1      2965 1.41861E-02 3.43296E-04-1.18432E-13
 -1      2966 1.42682E-02 2.11645E-04-1.21011E-13
 -1      2967 1.42801E-02 2.52223E-04-1.20806E-13
 -1      2968 1.41631E-02 2.63680E-04-1.18839E-13
 -1      2969 1.42444E-02 1.29995E-04-1.21414E-13
 -1      2970 1.42563E-02 1.70909E-04-1.21214E-13
 -1      2971 1.41391E-02 1.82821E-04-1.19247E-13
 -1      2972 1.42207E-02 4.75920E-05-1.21811E-13
 -1      2973 1.42325E-02 8.88904E-05-1.21614E-13
 -1      2974 1.41150E-02 1.01205E-04-1.19649E-13
 -1      2975 1.70154E-03 4.32690E-04-2.03346E-15
 -1      2976 1.55892E-03 4.19087E-04-1.70548E-15
 -1      2977 1.47643E-03 3.76319E-04-1.60863E-15
 -1      2978 1.76268E-03 4.02841E-04-2.27336E-15
 -1      2979 9.06660E-03 8.80154E-04-4.85811E-14
 -1      2980 9.19455E-03 8.02996E-04-4.94764E-14
 -1      2981 9.83230E-03 4.49947E-04-5.33589E-14
 -1      2982 9.98902E-03 3.75221E-04-5.41312E-14
 -1      2983 8.48581E-03-8.18371E-04-4.75515E-14
 -1      2984 8.33388E-03-8.60052E-04-4.62464E-14
 -1      2985 6.58495E-03-1.28092E-04-3.49907E-14
 -1      2986 6.42277E-03-6.46172E-05-3.43105E-14
 -1      2987 6.75336E-03 3.68788E-04-3.42278E-14
 -1      2988 6.96228E-03 4.78277E-04-3.48705E-14
 -1      2989 6.96685E-03-3.15872E-04-3.66006E-14
 -1      2990 6.77368E-03-2.15829E-04-3.57519E-14
 -1      2991 9.38703E-03 6.90878E-04-5.07427E-14
 -1      2992 9.60203E-03 5.70391E-04-5.20777E-14
 -1      2993 2.55531E-03 4.69060E-04-4.63017E-15
 -1      2994 2.41298E-03 4.67164E-04-4.12302E-15
 -1      2995 2.61981E-03 4.33008E-04-4.98301E-15
 -1      2996 2.27072E-03 4.63861E-04-3.64540E-15
 -1      2997 2.12850E-03 4.59026E-04-3.19795E-15
 -1      2998 2.33419E-03 4.29278E-04-3.96188E-15
 -1      2999 8.00726E-03 1.08585E-03-3.99563E-14
 -1      3000 8.17327E-03 1.14078E-03-4.12689E-14
 -1      3001 8.03065E-04 2.76210E-04-4.90290E-16
 -1      3002 7.84879E-04 1.22032E-04-6.46835E-16
 -1      3003 7.82486E-04 9.88078E-05-6.60889E-16
 -1      3004 9.00066E-04 9.80788E-05-8.46830E-16
 -1      3005 9.05843E-04 1.49687E-04-8.12948E-16
 -1      3006 7.33696E-03-5.31544E-04-3.84595E-14
 -1      3007 7.16374E-03-4.26108E-04-3.75430E-14
 -1      3008 7.17380E-03 6.01740E-04-3.55228E-14
 -1      3009 7.33252E-03 7.00259E-04-3.61736E-14
 -1      3010 5.97934E-03 8.88705E-05-3.28559E-14
 -1      3011 6.00961E-03 9.57087E-05-3.28197E-14
 -1      3012 6.42044E-03 2.22992E-04-3.34002E-14
 -1      3013 6.56390E-03 2.79681E-04-3.37891E-14
 -1      3014 7.54842E-03 8.28707E-04-3.73131E-14
 -1      3015 7.74315E-03 9.49527E-04-3.83760E-14
 -1      3016 9.14856E-03-4.66109E-04-5.23655E-14
 -1      3017 8.97420E-03-5.70787E-04-5.12279E-14
 -1      3018 1.41788E-02-1.76258E-05-1.21745E-13
 -1      3019 1.42139E-02 1.98566E-05-1.21957E-13
 -1      3020 1.40960E-02 3.24447E-05-1.19993E-13
 -1      3021 1.40823E-02-2.31151E-05-1.20283E-13
 -1      3022 7.82207E-04-9.67735E-05-7.08255E-16
 -1      3023 7.84516E-04-1.19915E-04-7.04623E-16
 -1      3024 7.71771E-03-7.40294E-04-4.09997E-14
 -1      3025 7.55737E-03-6.57070E-04-3.98326E-14
 -1      3026 1.01666E-02 3.03776E-04-5.51217E-14
 -1      3027 1.03097E-02 2.53425E-04-5.58038E-14
 -1      3028 8.34035E-03 1.14941E-03-4.27929E-14
 -1      3029 8.49420E-03 1.13002E-03-4.41001E-14
 -1      3030 9.97840E-03-2.04458E-05-5.58394E-14
 -1      3031 9.82974E-03-8.67355E-05-5.53567E-14
 -1      3032 7.87551E-04-1.43886E-04-6.98497E-16
 -1      3033 7.91395E-04-1.68905E-04-6.89810E-16
 -1      3034 9.05352E-04-1.47197E-04-8.89222E-16
 -1      3035 8.95852E-04 9.98954E-07-8.88748E-16
 -1      3036 7.78073E-04-9.58801E-06-7.04149E-16
 -1      3037 7.78441E-04-3.09480E-05-7.07794E-16
 -1      3038 1.01087E-02 1.96021E-05-5.71171E-14
 -1      3039 8.97156E-03 9.44180E-04-4.79177E-14
 -1      3040 1.01255E-02 3.41086E-04-5.55192E-14
 -1      3041 1.03950E-02 2.31766E-04-5.65448E-14
 -1      3042 1.04697E-02 2.18351E-04-5.72876E-14
 -1      3043 1.03727E-02 2.60705E-04-5.72646E-14
 -1      3044 1.03983E-02 1.15782E-04-5.81491E-14
 -1      3045 9.44541E-03-3.23392E-04-5.49215E-14
 -1      3046 9.29774E-03-3.90339E-04-5.36360E-14
 -1      3047 9.22002E-03-4.60496E-04-5.36612E-14
 -1      3048 9.74074E-03-1.44538E-04-5.57034E-14
 -1      3049 7.02123E-03-3.73523E-04-3.64957E-14
 -1      3050 8.57801E-03-7.91920E-04-4.85335E-14
 -1      3051 8.21419E-03-8.75906E-04-4.52757E-14
 -1      3052 8.89875E-03-6.29496E-04-5.10758E-14
 -1      3053 7.81322E-03-7.98021E-04-4.17120E-14
 -1      3054 9.33483E-03 7.47013E-04-5.06651E-14
 -1      3055 2.04855E-03 4.19782E-04-3.05828E-15
 -1      3056 1.05629E-02 1.61636E-04-5.79447E-14
 -1      3057 1.05623E-02 1.54864E-04-5.90534E-14
 -1      3058 1.05969E-02 1.67607E-04-5.84157E-14
 -1      3059 1.05572E-02 1.80570E-04-5.69376E-14
 -1      3060 1.05910E-02 1.79218E-04-5.78414E-14
 -1      3061 1.05476E-02 1.90589E-04-5.74657E-14
 -1      3062 1.42689E-02 6.63229E-04-1.16693E-13
 -1      3063 1.43969E-02 6.94221E-04-1.18457E-13
 -1      3064 1.44065E-02 7.34751E-04-1.18232E-13
 -1      3065 1.44020E-02 7.94408E-04-1.17599E-13
 -1      3066 7.42055E-03 7.74150E-04-3.61887E-14
 -1      3067 6.30604E-03 1.85439E-04-3.27942E-14
 -1      3068 6.35234E-03 2.15234E-04-3.23201E-14
 -1      3069 6.20284E-03 1.59175E-04-3.21918E-14
 -1      3070 7.41984E-03-6.02367E-04-3.87846E-14
 -1      3071 5.95889E-03 8.03177E-05-3.25048E-14
 -1      3072 5.93757E-03 8.11134E-05-3.18206E-14
 -1      3073 5.95237E-03 7.30653E-05-3.21541E-14
 -1      3074 9.73606E-03 5.21884E-04-5.32295E-14
 -1      3075 6.64529E-03 3.33273E-04-3.33543E-14
 -1      3076 6.65549E-03-1.84016E-04-3.48137E-14
 -1      3077 6.04115E-03 1.06701E-04-3.24165E-14
 -1      3078 6.08162E-03 1.21610E-04-3.20133E-14
 -1      3079 5.98704E-03 9.89437E-05-3.17688E-14
 -1      3080 6.37846E-03-7.47572E-05-3.34718E-14
 -1      3081 6.32345E-03-3.45326E-05-3.37154E-14
 -1      3082 6.23214E-03-1.32517E-05-3.31251E-14
 -1      3083 7.02270E-03 5.36820E-04-3.44261E-14
 -1      3084 7.79230E-04-5.24569E-05-7.09610E-16
 -1      3085 7.80460E-04-7.43849E-05-7.09759E-16
 -1      3086 8.99772E-04-9.57527E-05-8.97855E-16
 -1      3087 8.96767E-04-4.68282E-05-8.97367E-16
 -1      3088 8.65014E-04 2.64282E-04-6.05012E-16
 -1      3089 8.60614E-03 1.10562E-03-4.49800E-14
 -1      3090 6.06521E-03 5.23975E-05-3.31031E-14
 -1      3091 6.00294E-03 5.82649E-05-3.24416E-14
 -1      3092 6.09128E-03 3.37885E-05-3.26977E-14
 -1      3093 7.88554E-03 1.04348E-03-3.88805E-14
 -1      3094 9.83220E-04 2.73003E-04-7.89326E-16
 -1      3095 1.04071E-03 2.40356E-04-9.41033E-16
 -1      3096 1.03414E-03 2.08833E-04-9.71323E-16
 -1      3097 1.40579E-02 3.14640E-04-1.16674E-13
 -1      3098 1.40692E-02 3.53798E-04-1.16469E-13
 -1      3099 8.79572E-03 1.05368E-03-4.65460E-14
 -1      3100 8.96999E-03 9.76419E-04-4.80023E-14
 -1      3101 8.27117E-03 1.16062E-03-4.19829E-14
 -1      3102 1.01121E-03-2.53085E-04-9.98997E-16
 -1      3103 1.15354E-03-2.75442E-04-1.25860E-15
 -1      3104 1.39460E-02 2.37968E-06-1.17920E-13
 -1      3105 1.58314E-03-3.24620E-04-2.22474E-15
 -1      3106 1.72674E-03-3.35775E-04-2.60879E-15
 -1      3107 1.87036E-03-3.44802E-04-3.02389E-15
 -1      3108 2.01398E-03-3.51835E-04-3.46984E-15
 -1      3109 1.79094E-03-3.05783E-04-2.83471E-15
 -1      3110 2.15756E-03-3.57189E-04-3.94609E-15
 -1      3111 2.30109E-03-3.60975E-04-4.45350E-15
 -1      3112 2.07859E-03-3.19081E-04-3.72722E-15
 -1      3113 2.44454E-03-3.63449E-04-4.99098E-15
 -1      3114 2.58794E-03-3.64702E-04-5.55900E-15
 -1      3115 2.36612E-03-3.26287E-04-4.74107E-15
 -1      3116 2.73125E-03-3.64933E-04-6.15661E-15
 -1      3117 2.87449E-03-3.64214E-04-6.78387E-15
 -1      3118 2.65327E-03-3.28698E-04-5.87559E-15
 -1      3119 3.01766E-03-3.62704E-04-7.44115E-15
 -1      3120 3.16077E-03-3.60460E-04-8.12832E-15
 -1      3121 2.93991E-03-3.27357E-04-7.12939E-15
 -1      3122 3.30381E-03-3.57613E-04-8.84479E-15
 -1      3123 3.44680E-03-3.54215E-04-9.59053E-15
 -1      3124 3.22593E-03-3.23097E-04-8.50115E-15
 -1      3125 3.58972E-03-3.50382E-04-1.03656E-14
 -1      3126 3.73263E-03-3.46168E-04-1.11700E-14
 -1      3127 3.51129E-03-3.16604E-04-9.99006E-15
 -1      3128 3.87550E-03-3.41692E-04-1.20034E-14
 -1      3129 4.01839E-03-3.37020E-04-1.28647E-14
 -1      3130 3.79597E-03-3.08500E-04-1.15959E-14
 -1      3131 4.16127E-03-3.32285E-04-1.37548E-14
 -1      3132 4.30426E-03-3.27579E-04-1.46742E-14
 -1      3133 4.08003E-03-2.99421E-04-1.33159E-14
 -1      3134 4.44733E-03-3.23064E-04-1.56215E-14
 -1      3135 4.59063E-03-3.18878E-04-1.65978E-14
 -1      3136 4.36364E-03-2.90112E-04-1.51493E-14
 -1      3137 4.73419E-03-3.15214E-04-1.76023E-14
 -1      3138 4.87818E-03-3.12286E-04-1.86357E-14
 -1      3139 4.64718E-03-2.81518E-04-1.70964E-14
 -1      3140 5.02272E-03-3.10322E-04-1.96971E-14
 -1      3141 5.16804E-03-3.09654E-04-2.07851E-14
 -1      3142 4.93138E-03-2.74893E-04-1.91573E-14
 -1      3143 5.31437E-03-3.10534E-04-2.18998E-14
 -1      3144 5.46203E-03-3.13479E-04-2.30416E-14
 -1      3145 5.21755E-03-2.71937E-04-2.13286E-14
 -1      3146 5.61141E-03-3.18750E-04-2.42099E-14
 -1      3147 5.76288E-03-3.27151E-04-2.54024E-14
 -1      3148 5.50783E-03-2.74997E-04-2.36053E-14
 -1      3149 5.91709E-03-3.38931E-04-2.66214E-14
 -1      3150 6.07430E-03-3.55261E-04-2.78670E-14
 -1      3151 5.80557E-03-2.87444E-04-2.59847E-14
 -1      3152 6.23547E-03-3.76374E-04-2.91379E-14
 -1      3153 6.40047E-03-4.03813E-04-3.04372E-14
 -1      3154 6.11547E-03-3.14247E-04-2.84671E-14
 -1      3155 6.57051E-03-4.37702E-04-3.17634E-14
 -1      3156 6.74439E-03-4.79583E-04-3.31152E-14
 -1      3157 6.44318E-03-3.62660E-04-3.10555E-14
 -1      3158 6.92335E-03-5.29260E-04-3.44936E-14
 -1      3159 7.10427E-03-5.86576E-04-3.58988E-14
 -1      3160 6.79309E-03-4.42095E-04-3.37493E-14
 -1      3161 7.60132E-03-7.53147E-04-3.98933E-14
 -1      3162 7.78007E-03-8.14401E-04-4.14004E-14
 -1      3163 7.95466E-03-8.70337E-04-4.29756E-14
 -1      3164 8.12259E-03-8.92178E-04-4.45428E-14
 -1      3165 8.32996E-03-8.82777E-04-4.65594E-14
 -1      3166 8.49842E-03-8.47255E-04-4.81899E-14
 -1      3167 9.01807E-03-6.46199E-04-5.32125E-14
 -1      3168 9.20043E-03-5.68712E-04-5.49558E-14
 -1      3169 9.38371E-03-4.95283E-04-5.67222E-14
 -1      3170 9.56412E-03-4.28585E-04-5.85103E-14
 -1      3171 9.33590E-03-4.72035E-04-5.57173E-14
 -1      3172 9.74225E-03-3.70149E-04-6.03195E-14
 -1      3173 9.91492E-03-3.19119E-04-6.21480E-14
 -1      3174 9.70416E-03-3.37317E-04-5.92898E-14
 -1      3175 1.00835E-02-2.75936E-04-6.39934E-14
 -1      3176 1.02474E-02-2.38994E-04-6.58554E-14
 -1      3177 1.00510E-02-2.40416E-04-6.29383E-14
 -1      3178 1.04073E-02-2.08083E-04-6.77355E-14
 -1      3179 1.05636E-02-1.81703E-04-6.96313E-14
 -1      3180 1.03756E-02-1.73032E-04-6.66560E-14
 -1      3181 1.07170E-02-1.59580E-04-7.15437E-14
 -1      3182 1.08678E-02-1.40683E-04-7.34711E-14
 -1      3183 1.06833E-02-1.25938E-04-7.04413E-14
 -1      3184 1.10166E-02-1.24676E-04-7.54129E-14
 -1      3185 1.11638E-02-1.10877E-04-7.73718E-14
 -1      3186 1.09796E-02-9.22623E-05-7.42912E-14
 -1      3187 1.13098E-02-9.89638E-05-7.93435E-14
 -1      3188 1.14548E-02-8.85050E-05-8.13261E-14
 -1      3189 1.12689E-02-6.73074E-05-7.82009E-14
 -1      3190 1.15991E-02-7.92122E-05-8.33211E-14
 -1      3191 1.17429E-02-7.08134E-05-8.53265E-14
 -1      3192 1.15544E-02-4.78942E-05-8.21626E-14
 -1      3193 1.18863E-02-6.30678E-05-8.73437E-14
 -1      3194 1.20295E-02-5.58035E-05-8.93730E-14
 -1      3195 1.18381E-02-3.18125E-05-8.61723E-14
 -1      3196 1.21724E-02-4.88332E-05-9.14121E-14
 -1      3197 1.23152E-02-4.20491E-05-9.34635E-14
 -1      3198 1.21211E-02-1.74983E-05-9.02279E-14
 -1      3199 1.24580E-02-3.53152E-05-9.55233E-14
 -1      3200 1.26007E-02-2.85656E-05-9.75901E-14
 -1      3201 1.24041E-02-3.85118E-06-9.43264E-14
 -1      3202 1.27434E-02-2.17085E-05-9.96688E-14
 -1      3203 1.28861E-02-1.47056E-05-1.01758E-13
 -1      3204 1.26874E-02 9.87888E-06-9.84633E-14
 -1      3205 1.30287E-02-7.50006E-06-1.03856E-13
 -1      3206 1.31715E-02-7.16187E-08-1.05962E-13
 -1      3207 1.29712E-02 2.41762E-05-1.02639E-13
 -1      3208 1.33142E-02 7.60881E-06-1.08078E-13
 -1      3209 1.34569E-02 1.55540E-05-1.10202E-13
 -1      3210 1.32554E-02 3.93298E-05-1.06851E-13
 -1      3211 1.35996E-02 2.37727E-05-1.12333E-13
 -1      3212 1.37424E-02 3.22680E-05-1.14470E-13
 -1      3213 1.35399E-02 5.54888E-05-1.11095E-13
 -1      3214 9.88058E-03-1.01027E-04-5.72363E-14
 -1      3215 9.69642E-03-1.93741E-04-5.64153E-14
 -1      3216 2.97083E-03 3.95064E-04-6.51359E-15
 -1      3217 2.82774E-03 3.96353E-04-5.91238E-15
 -1      3218 3.82935E-03 3.73990E-04-1.07209E-14
 -1      3219 3.68623E-03 3.78664E-04-9.94933E-15
 -1      3220 4.11564E-03 3.64015E-04-1.23467E-14
 -1      3221 3.97246E-03 3.69084E-04-1.15202E-14
 -1      3222 3.89189E-03 3.36314E-04-1.12220E-14
 -1      3223 4.40211E-03 3.53966E-04-1.40828E-14
 -1      3224 4.25882E-03 3.58943E-04-1.32009E-14
 -1      3225 4.17600E-03 3.26598E-04-1.28811E-14
 -1      3226 4.68899E-03 3.45066E-04-1.59286E-14
 -1      3227 4.54546E-03 3.49292E-04-1.49925E-14
 -1      3228 4.45949E-03 3.16977E-04-1.46512E-14
 -1      3229 4.97675E-03 3.38999E-04-1.78793E-14
 -1      3230 4.83269E-03 3.41559E-04-1.68908E-14
 -1      3231 4.74248E-03 3.08618E-04-1.65295E-14
 -1      3232 5.26634E-03 3.38088E-04-1.99328E-14
 -1      3233 5.12120E-03 3.37721E-04-1.88932E-14
 -1      3234 5.02542E-03 3.03097E-04-1.85129E-14
 -1      3235 5.55957E-03 3.45512E-04-2.20877E-14
 -1      3236 5.41232E-03 3.40489E-04-2.09981E-14
 -1      3237 5.30933E-03 3.02541E-04-2.05990E-14
 -1      3238 5.85960E-03 3.65635E-04-2.43401E-14
 -1      3239 5.70845E-03 3.53550E-04-2.32019E-14
 -1      3240 5.59627E-03 3.09825E-04-2.27846E-14
 -1      3241 6.17151E-03 4.04726E-04-2.66891E-14
 -1      3242 6.01374E-03 3.82149E-04-2.55025E-14
 -1      3243 5.89005E-03 3.29043E-04-2.50671E-14
 -1      3244 6.50167E-03 4.71441E-04-2.91316E-14
 -1      3245 6.33403E-03 4.33722E-04-2.78982E-14
 -1      3246 6.19698E-03 3.66713E-04-2.74444E-14
 -1      3247 6.85762E-03 5.75876E-04-3.16671E-14
 -1      3248 6.67666E-03 5.17497E-04-3.03882E-14
 -1      3249 6.52578E-03 4.32495E-04-2.99147E-14
 -1      3250 8.44796E-03 1.15932E-03-4.35071E-14
 -1      3251 9.16556E-03 8.89603E-04-4.96413E-14
 -1      3252 9.88561E-03 6.32223E-04-5.60465E-14
 -1      3253 9.70199E-03 6.85103E-04-5.43091E-14
 -1      3254 1.02339E-02 5.60944E-04-5.95889E-14
 -1      3255 1.00635E-02 5.91883E-04-5.78074E-14
 -1      3256 1.00295E-02 5.47867E-04-5.71339E-14
 -1      3257 1.05586E-02 5.24878E-04-6.32176E-14
 -1      3258 1.03989E-02 5.39544E-04-6.13936E-14
 -1      3259 1.03645E-02 4.95776E-04-6.07063E-14
 -1      3260 1.08666E-02 5.13421E-04-6.69245E-14
 -1      3261 1.07143E-02 5.16794E-04-6.50598E-14
 -1      3262 1.06754E-02 4.74643E-04-6.43576E-14
 -1      3263 1.11645E-02 5.18726E-04-7.07037E-14
 -1      3264 1.10165E-02 5.14438E-04-6.88056E-14
 -1      3265 1.09714E-02 4.73416E-04-6.80838E-14
 -1      3266 1.14565E-02 5.35259E-04-7.45539E-14
 -1      3267 1.13110E-02 5.25890E-04-7.26209E-14
 -1      3268 1.12594E-02 4.85205E-04-7.18855E-14
 -1      3269 1.17455E-02 5.59035E-04-7.84641E-14
 -1      3270 1.16012E-02 5.46441E-04-7.65012E-14
 -1      3271 1.15437E-02 5.05546E-04-7.57527E-14
 -1      3272 1.20331E-02 5.87181E-04-8.24391E-14
 -1      3273 1.18894E-02 5.72697E-04-8.04441E-14
 -1      3274 1.18266E-02 5.31337E-04-7.96813E-14
 -1      3275 1.23199E-02 6.17644E-04-8.64718E-14
 -1      3276 1.21765E-02 6.02214E-04-8.44471E-14
 -1      3277 1.21093E-02 5.60343E-04-8.36695E-14
 -1      3278 1.26064E-02 6.48998E-04-9.05660E-14
 -1      3279 1.24631E-02 6.33269E-04-8.85118E-14
 -1      3280 1.23924E-02 5.90954E-04-8.77173E-14
 -1      3281 1.28927E-02 6.80300E-04-9.47121E-14
 -1      3282 1.27495E-02 6.64693E-04-9.26333E-14
 -1      3283 1.26761E-02 6.22046E-04-9.18224E-14
 -1      3284 1.31790E-02 7.10958E-04-9.89040E-14
 -1      3285 1.30358E-02 6.95731E-04-9.68050E-14
 -1      3286 1.29602E-02 6.52871E-04-9.59801E-14
 -1      3287 1.34651E-02 7.40636E-04-1.03137E-13
 -1      3288 1.33220E-02 7.25931E-04-1.01015E-13
 -1      3289 1.32448E-02 6.82962E-04-1.00181E-13
 -1      3290 1.37512E-02 7.69174E-04-1.07408E-13
 -1      3291 1.36081E-02 7.55052E-04-1.05268E-13
 -1      3292 1.35297E-02 7.12059E-04-1.04421E-13
 -1      3293 1.40804E-02 3.93553E-04-1.16255E-13
 -1      3294 1.40912E-02 4.33288E-04-1.16043E-13
 -1      3295 1.39527E-02 3.64765E-04-1.14502E-13
 -1      3296 1.39854E-02 7.26497E-05-1.17886E-13
 -1      3297 1.39977E-02 1.13570E-04-1.17687E-13
 -1      3298 2.68463E-03 3.96728E-04-5.34037E-15
 -1      3299 2.54149E-03 3.96110E-04-4.79704E-15
 -1      3300 2.74971E-03 3.60346E-04-5.70236E-15
 -1      3301 2.11185E-03 3.86685E-04-3.34243E-15
 -1      3302 1.96853E-03 3.80481E-04-2.91635E-15
 -1      3303 8.63637E-03-7.91325E-04-4.94348E-14
 -1      3304 1.40342E-02 2.34623E-04-1.17085E-13
 -1      3305 1.40462E-02 2.74707E-04-1.16880E-13
 -1      3306 1.39296E-02 2.85591E-04-1.14924E-13
 -1      3307 1.40099E-02 1.54080E-04-1.17489E-13
 -1      3308 1.40222E-02 1.94539E-04-1.17285E-13
 -1      3309 1.39054E-02 2.06015E-04-1.15332E-13
 -1      3310 1.38806E-02 1.25765E-04-1.15731E-13
 -1      3311 3.54315E-03 3.82977E-04-9.20534E-15
 -1      3312 3.40006E-03 3.86871E-04-8.48966E-15
 -1      3313 3.60715E-03 3.45242E-04-9.67226E-15
 -1      3314 3.25699E-03 3.90231E-04-7.80288E-15
 -1      3315 3.11391E-03 3.93002E-04-7.14408E-15
 -1      3316 3.03600E-03 3.57927E-04-6.91150E-15
 -1      3317 3.32183E-03 3.52664E-04-8.23544E-15
 -1      3318 6.86607E-03 4.76801E-04-3.32630E-14
 -1      3319 7.04963E-03 5.85551E-04-3.38937E-14
 -1      3320 1.02172E-02 4.38015E-05-5.84498E-14
 -1      3321 1.00612E-02-1.63313E-05-5.78464E-14
 -1      3322 6.50577E-03 2.92730E-04-3.22460E-14
 -1      3323 6.66887E-03 3.71709E-04-3.26701E-14
 -1      3324 1.29638E-03-2.94696E-04-1.54956E-15
 -1      3325 1.43968E-03-3.10972E-04-1.87145E-15
 -1      3326 1.21759E-03-2.54600E-04-1.41793E-15
 -1      3327 1.42736E-02 7.62871E-04-1.15830E-13
 -1      3328 2.39833E-03 3.94319E-04-4.28302E-15
 -1      3329 2.25511E-03 3.91255E-04-3.79795E-15
 -1      3330 2.46302E-03 3.59105E-04-4.60915E-15
 -1      3331 1.14530E-03 3.06935E-04-1.03235E-15
 -1      3332 1.08274E-03 2.68420E-04-9.76975E-16
 -1      3333 1.20188E-03 2.69262E-04-1.20902E-15
 -1      3334 1.28852E-03 3.28051E-04-1.28627E-15
 -1      3335 6.69065E-03-2.34077E-04-3.44682E-14
 -1      3336 6.52519E-03-1.56477E-04-3.37261E-14
 -1      3337 1.39530E-02 3.00539E-05-1.17777E-13
 -1      3338 1.00828E-02 3.87701E-04-5.59258E-14
 -1      3339 1.02391E-02 3.26407E-04-5.69319E-14
 -1      3340 1.04861E-02 1.25563E-04-5.96465E-14
 -1      3341 1.03715E-02 9.35962E-05-5.92114E-14
 -1      3342 1.01690E-03 6.71135E-05-1.07206E-15
 -1      3343 1.01569E-03 4.05535E-05-1.08447E-15
 -1      3344 7.05575E-03-4.28839E-04-3.63197E-14
 -1      3345 6.88183E-03-3.31770E-04-3.53983E-14
 -1      3346 9.68489E-03 5.83722E-04-5.33860E-14
 -1      3347 9.88861E-03 4.76466E-04-5.46853E-14
 -1      3348 9.35025E-03 8.22957E-04-5.12304E-14
 -1      3349 9.34433E-03 7.77755E-04-5.09894E-14
 -1      3350 9.51835E-03 6.79480E-04-5.22770E-14
 -1      3351 9.54258E-03 7.48910E-04-5.29244E-14
 -1      3352 7.41142E-03-6.95060E-04-3.83263E-14
 -1      3353 7.42427E-03-6.45085E-04-3.86027E-14
 -1      3354 7.22405E-03-5.31826E-04-3.72560E-14
 -1      3355 7.22916E-03-6.28577E-04-3.68740E-14
 -1      3356 8.81534E-03-7.19133E-04-5.11153E-14
 -1      3357 1.01508E-03 1.42143E-05-1.09430E-15
 -1      3358 1.01504E-03-1.20206E-05-1.10183E-15
 -1      3359 1.13562E-03 2.96198E-05-1.32010E-15
 -1      3360 1.02410E-03-1.46946E-04-1.10357E-15
 -1      3361 1.02819E-03-1.75882E-04-1.09549E-15
 -1      3362 9.69069E-03 6.48514E-04-5.39840E-14
 -1      3363 1.03314E-02 2.98619E-04-5.76797E-14
 -1      3364 1.04171E-02 2.77995E-04-5.84305E-14
 -1      3365 1.02996E-02 3.41250E-04-5.80904E-14
 -1      3366 9.60353E-03-2.66632E-04-5.64435E-14
 -1      3367 1.50366E-03-2.84846E-04-2.06478E-15
 -1      3368 8.94158E-03-6.32146E-04-5.18507E-14
 -1      3369 7.14668E-03 6.81806E-04-3.37655E-14
 -1      3370 7.31022E-03 7.49189E-04-3.49440E-14
 -1      3371 1.37753E-02 7.45511E-05-1.14578E-13
 -1      3372 1.38355E-02 4.29132E-05-1.15821E-13
 -1      3373 1.00120E-02-6.56560E-05-5.85699E-14
 -1      3374 1.88870E-03 3.41281E-04-2.77274E-15
 -1      3375 1.82516E-03 3.72347E-04-2.51993E-15
 -1      3376 1.68174E-03 3.62119E-04-2.15320E-15
 -1      3377 1.06246E-02 1.75897E-04-5.89524E-14
 -1      3378 1.06490E-02 1.72322E-04-6.00673E-14
 -1      3379 1.06427E-02 1.83791E-04-5.94881E-14
 -1      3380 8.62772E-03 1.12205E-03-4.50617E-14
 -1      3381 6.95602E-03 6.03591E-04-3.24460E-14
 -1      3382 6.79501E-03 5.01747E-04-3.19561E-14
 -1      3383 7.69592E-03 9.54881E-04-3.74560E-14
 -1      3384 7.50205E-03 8.59443E-04-3.60621E-14
 -1      3385 7.07810E-03-4.86523E-04-3.61374E-14
 -1      3386 1.39744E-02 4.43714E-04-1.14070E-13
 -1      3387 1.41018E-02 4.73028E-04-1.15826E-13
 -1      3388 1.41120E-02 5.12831E-04-1.15606E-13
 -1      3389 1.38608E-02 7.72137E-04-1.09126E-13
 -1      3390 1.37817E-02 7.29255E-04-1.08268E-13
 -1      3391 1.39703E-02 7.74895E-04-1.10849E-13
 -1      3392 1.41220E-02 5.52724E-04-1.15383E-13
 -1      3393 1.41317E-02 5.92758E-04-1.15158E-13
 -1      3394 1.39947E-02 5.22815E-04-1.13629E-13
 -1      3395 1.41644E-02 7.60670E-04-1.14096E-13
 -1      3396 1.40551E-02 7.58285E-04-1.12366E-13
 -1      3397 1.41694E-02 7.01460E-04-1.14736E-13
 -1      3398 1.05375E-02 2.10472E-04-5.81952E-14
 -1      3399 6.45410E-03-1.70832E-04-3.27938E-14
 -1      3400 6.42351E-03-1.21594E-04-3.31366E-14
 -1      3401 6.32582E-03-9.30981E-05-3.25516E-14
 -1      3402 1.41459E-02 6.26921E-04-1.15065E-13
 -1      3403 1.41553E-02 6.66955E-04-1.14837E-13
 -1      3404 1.40465E-02 6.64760E-04-1.13112E-13
 -1      3405 1.40186E-02 5.96447E-04-1.13309E-13
 -1      3406 1.02088E-03-1.18874E-04-1.10838E-15
 -1      3407 1.14363E-03-1.43482E-04-1.34028E-15
 -1      3408 1.01846E-03-9.15270E-05-1.11033E-15
 -1      3409 6.11632E-03 1.40496E-04-3.15489E-14
 -1      3410 6.14971E-03 1.63812E-04-3.10834E-14
 -1      3411 6.03856E-03 1.27868E-04-3.09089E-14
 -1      3412 5.95148E-03 6.19779E-05-3.17572E-14
 -1      3413 5.90696E-03 6.32570E-05-3.10783E-14
 -1      3414 5.95589E-03 4.84107E-05-3.13583E-14
 -1      3415 1.55677E-03 3.55081E-04-1.84964E-15
 -1      3416 1.41334E-03 3.39998E-04-1.53945E-15
 -1      3417 1.36956E-03 3.10186E-04-1.49773E-15
 -1      3418 1.61976E-03 3.27165E-04-2.06707E-15
 -1      3419 2.17598E-03 3.53183E-04-3.63240E-15
 -1      3420 6.70791E-03 4.24954E-04-3.21531E-14
 -1      3421 9.10763E-03-5.40561E-04-5.31768E-14
 -1      3422 5.93467E-03 8.81675E-05-3.13184E-14
 -1      3423 5.94787E-03 9.77988E-05-3.09225E-14
 -1      3424 6.38773E-03 2.52293E-04-3.16508E-14
 -1      3425 6.40667E-03 2.92212E-04-3.09815E-14
 -1      3426 6.27537E-03 2.19737E-04-3.10589E-14
 -1      3427 1.03347E-02 6.31087E-05-5.99508E-14
 -1      3428 9.25018E-03-4.76121E-04-5.44558E-14
 -1      3429 1.06091E-02 1.51961E-04-6.06006E-14
 -1      3430 1.05524E-02 1.41122E-04-6.01233E-14
 -1      3431 1.05445E-02 1.22396E-04-6.11962E-14
 -1      3432 1.01874E-03 9.39759E-05-1.05749E-15
 -1      3433 1.13837E-03 8.69950E-05-1.29179E-15
 -1      3434 1.02125E-03 1.21376E-04-1.04013E-15
 -1      3435 7.97308E-04-1.92870E-04-6.81760E-16
 -1      3436 8.05393E-04-2.16782E-04-6.73994E-16
 -1      3437 1.02880E-03 1.78634E-04-9.97656E-16
 -1      3438 1.02460E-03 1.49595E-04-1.02036E-15
 -1      3439 1.14411E-03 1.46197E-04-1.25231E-15
 -1      3440 1.15353E-03 2.08609E-04-1.19962E-15
 -1      3441 9.34828E-04-2.47478E-04-8.63743E-16
 -1      3442 6.13659E-03 7.74992E-06-3.24618E-14
 -1      3443 6.05212E-03 2.07052E-05-3.18055E-14
 -1      3444 6.18080E-03-2.40268E-05-3.22224E-14
 -1      3445 6.73515E-03-2.93417E-04-3.42935E-14
 -1      3446 1.00269E-02 4.47702E-04-5.60862E-14
 -1      3447 7.10290E-03-5.37096E-04-3.60956E-14
 -1      3448 5.90074E-03 8.01835E-05-3.09734E-14
 -1      3449 9.15412E-04-1.99987E-04-8.72823E-16
 -1      3450 9.84443E-03 5.64555E-04-5.51115E-14
 -1      3451 9.68238E-03 6.24574E-04-5.37165E-14
 -1      3452 1.36952E-02 1.04327E-04-1.13032E-13
 -1      3453 1.37879E-02 1.14985E-04-1.14381E-13
 -1      3454 1.38005E-02 1.55142E-04-1.14182E-13
 -1      3455 2.81506E-03 3.23933E-04-6.06978E-15
 -1      3456 2.67174E-03 3.24275E-04-5.49113E-15
 -1      3457 2.00007E-03-2.81255E-04-3.51055E-15
 -1      3458 2.14404E-03-2.85879E-04-3.98717E-15
 -1      3459 2.28796E-03-2.89208E-04-4.49406E-15
 -1      3460 2.43180E-03-2.91339E-04-5.03105E-15
 -1      3461 2.21021E-03-2.52295E-04-4.25033E-15
 -1      3462 2.57549E-03-2.92449E-04-5.59795E-15
 -1      3463 2.71903E-03-2.92611E-04-6.19440E-15
 -1      3464 2.49803E-03-2.56217E-04-5.32296E-15
 -1      3465 2.86236E-03-2.91974E-04-6.82008E-15
 -1      3466 3.00549E-03-2.90589E-04-7.47563E-15
 -1      3467 2.78514E-03-2.56538E-04-6.51394E-15
 -1      3468 3.14836E-03-2.88582E-04-8.16078E-15
 -1      3469 3.29099E-03-2.85990E-04-8.87474E-15
 -1      3470 3.07121E-03-2.54011E-04-7.82293E-15
 -1      3471 3.43334E-03-2.82924E-04-9.61775E-15
 -1      3472 3.57542E-03-2.79412E-04-1.03904E-14
 -1      3473 3.35597E-03-2.49240E-04-9.24829E-15
 -1      3474 3.71718E-03-2.75560E-04-1.11911E-14
 -1      3475 3.85867E-03-2.71397E-04-1.20209E-14
 -1      3476 3.63921E-03-2.42731E-04-1.07899E-14
 -1      3477 3.99984E-03-2.67036E-04-1.28789E-14
 -1      3478 4.14075E-03-2.62512E-04-1.37652E-14
 -1      3479 3.92078E-03-2.34945E-04-1.24451E-14
 -1      3480 4.28136E-03-2.57952E-04-1.46808E-14
 -1      3481 4.42177E-03-2.53413E-04-1.56235E-14
 -1      3482 4.20060E-03-2.26362E-04-1.42149E-14
 -1      3483 4.56196E-03-2.49040E-04-1.65952E-14
 -1      3484 4.70210E-03-2.44931E-04-1.75947E-14
 -1      3485 4.47872E-03-2.17531E-04-1.60973E-14
 -1      3486 4.84219E-03-2.41249E-04-1.86222E-14
 -1      3487 4.98249E-03-2.38166E-04-1.96780E-14
 -1      3488 4.75547E-03-2.09138E-04-1.80912E-14
 -1      3489 5.12309E-03-2.35855E-04-2.07605E-14
 -1      3490 5.26436E-03-2.34620E-04-2.18692E-14
 -1      3491 5.03156E-03-2.02084E-04-2.01968E-14
 -1      3492 5.40650E-03-2.34628E-04-2.30047E-14
 -1      3493 5.55010E-03-2.36430E-04-2.41656E-14
 -1      3494 5.30844E-03-1.97610E-04-2.24087E-14
 -1      3495 5.69553E-03-2.40167E-04-2.53520E-14
 -1      3496 5.84361E-03-2.46891E-04-2.65641E-14
 -1      3497 5.58867E-03-1.97553E-04-2.47238E-14
 -1      3498 5.99499E-03-2.56729E-04-2.78018E-14
 -1      3499 6.15060E-03-2.71409E-04-2.90648E-14
 -1      3500 5.87665E-03-2.05147E-04-2.71411E-14
 -1      3501 6.31155E-03-2.91099E-04-3.03542E-14
 -1      3502 6.47844E-03-3.18775E-04-3.16699E-14
 -1      3503 6.17923E-03-2.26255E-04-2.96595E-14
 -1      3504 6.94953E-03-4.43790E-04-3.51790E-14
 -1      3505 1.38013E-02 2.57187E-04-1.13173E-13
 -1      3506 1.38133E-02 2.96636E-04-1.12965E-13
 -1      3507 1.42539E-03-2.46232E-04-1.90757E-15
 -1      3508 1.56869E-03-2.57805E-04-2.26255E-15
 -1      3509 1.01691E-02-3.04348E-05-6.03164E-14
 -1      3510 1.00137E-02-1.04981E-04-5.96962E-14
 -1      3511 1.00252E-02-2.02050E-04-6.18859E-14
 -1      3512 1.01903E-02-1.65389E-04-6.37248E-14
 -1      3513 1.03497E-02-1.36373E-04-6.55809E-14
 -1      3514 1.05039E-02-1.11735E-04-6.74543E-14
 -1      3515 1.03300E-02-9.72794E-05-6.45107E-14
 -1      3516 1.06541E-02-9.15716E-05-6.93451E-14
 -1      3517 1.08013E-02-7.43416E-05-7.12514E-14
 -1      3518 1.06298E-02-5.61981E-05-6.82501E-14
 -1      3519 1.09460E-02-5.98478E-05-7.31728E-14
 -1      3520 1.10890E-02-4.71544E-05-7.51094E-14
 -1      3521 1.09160E-02-2.72528E-05-7.20571E-14
 -1      3522 1.12307E-02-3.61162E-05-7.70631E-14
 -1      3523 1.13716E-02-2.62185E-05-7.90294E-14
 -1      3524 1.11952E-02-5.30020E-06-7.59271E-14
 -1      3525 1.15118E-02-1.72981E-05-8.10062E-14
 -1      3526 1.16518E-02-9.07473E-06-8.29981E-14
 -1      3527 1.14713E-02 1.26058E-05-7.98534E-14
 -1      3528 1.17915E-02-1.38570E-06-8.50037E-14
 -1      3529 1.19313E-02 5.92516E-06-8.70186E-14
 -1      3530 1.17466E-02 2.82085E-05-8.38343E-14
 -1      3531 1.20712E-02 1.30032E-05-8.90454E-14
 -1      3532 1.22112E-02 1.99340E-05-9.10839E-14
 -1      3533 1.20226E-02 4.26465E-05-8.78650E-14
 -1      3534 1.23514E-02 2.68370E-05-9.31309E-14
 -1      3535 1.24918E-02 3.37562E-05-9.51905E-14
 -1      3536 1.22998E-02 5.67124E-05-9.19373E-14
 -1      3537 1.26324E-02 4.07825E-05-9.72589E-14
 -1      3538 1.27733E-02 4.79342E-05-9.93361E-14
 -1      3539 1.25783E-02 7.09580E-05-9.60533E-14
 -1      3540 1.29144E-02 5.52749E-05-1.01423E-13
 -1      3541 1.30557E-02 6.28092E-05-1.03519E-13
 -1      3542 1.28583E-02 8.57507E-05-1.00208E-13
 -1      3543 1.31972E-02 7.05803E-05-1.05626E-13
 -1      3544 1.33388E-02 7.85815E-05-1.07740E-13
 -1      3545 1.31395E-02 1.01314E-04-1.04400E-13
 -1      3546 1.34460E-02 8.70526E-05-1.09317E-13
 -1      3547 1.35879E-02 9.54981E-05-1.11444E-13
 -1      3548 1.36010E-02 1.35419E-04-1.11247E-13
 -1      3549 1.33873E-02 1.17937E-04-1.08085E-13
 -1      3550 3.95348E-03 2.99393E-04-1.17272E-14
 -1      3551 3.81215E-03 3.03855E-04-1.09219E-14
 -1      3552 4.79386E-03 2.73436E-04-1.71351E-14
 -1      3553 4.65466E-03 2.77053E-04-1.61659E-14
 -1      3554 5.07144E-03 2.68482E-04-1.91508E-14
 -1      3555 4.93270E-03 2.70524E-04-1.81297E-14
 -1      3556 4.84332E-03 2.39559E-04-1.77439E-14
 -1      3557 5.34894E-03 2.68129E-04-2.12682E-14
 -1      3558 5.21005E-03 2.67586E-04-2.01968E-14
 -1      3559 5.11501E-03 2.35152E-04-1.97923E-14
 -1      3560 5.62850E-03 2.74869E-04-2.34843E-14
 -1      3561 5.48819E-03 2.70376E-04-2.23638E-14
 -1      3562 5.38530E-03 2.34774E-04-2.19406E-14
 -1      3563 5.91425E-03 2.92284E-04-2.57963E-14
 -1      3564 5.77010E-03 2.81757E-04-2.46284E-14
 -1      3565 5.65620E-03 2.40391E-04-2.41862E-14
 -1      3566 6.21395E-03 3.27504E-04-2.82015E-14
 -1      3567 6.06168E-03 3.06769E-04-2.69869E-14
 -1      3568 5.93197E-03 2.55088E-04-2.65276E-14
 -1      3569 1.07886E-02 4.30558E-04-6.54980E-14
 -1      3570 1.06431E-02 4.32182E-04-6.36531E-14
 -1      3571 6.61908E-03 4.06103E-04-3.13807E-14
 -1      3572 1.04940E-02 4.37874E-04-6.18263E-14
 -1      3573 1.03395E-02 4.50385E-04-6.00181E-14
 -1      3574 1.06179E-02 3.88815E-04-6.29481E-14
 -1      3575 1.01861E-02 4.80906E-04-5.84323E-14
 -1      3576 1.00159E-02 5.11753E-04-5.66620E-14
 -1      3577 1.00149E-02 4.84770E-04-5.63885E-14
 -1      3578 1.03301E-02 4.14027E-04-5.95334E-14
 -1      3579 1.10720E-02 4.38043E-04-6.92471E-14
 -1      3580 1.09311E-02 4.32975E-04-6.73633E-14
 -1      3581 1.08958E-02 3.92837E-04-6.66421E-14
 -1      3582 1.13505E-02 4.54997E-04-7.30690E-14
 -1      3583 1.12115E-02 4.45611E-04-7.11494E-14
 -1      3584 1.11672E-02 4.06982E-04-7.04120E-14
 -1      3585 1.16276E-02 4.78146E-04-7.69526E-14
 -1      3586 1.14890E-02 4.65954E-04-7.50032E-14
 -1      3587 1.14370E-02 4.27635E-04-7.42527E-14
 -1      3588 1.19050E-02 5.05239E-04-8.08980E-14
 -1      3589 1.17661E-02 4.91303E-04-7.89168E-14
 -1      3590 1.17078E-02 4.52611E-04-7.81543E-14
 -1      3591 1.21836E-02 5.34607E-04-8.49010E-14
 -1      3592 1.20441E-02 5.19710E-04-8.28930E-14
 -1      3593 1.19806E-02 4.80354E-04-8.21149E-14
 -1      3594 1.24635E-02 5.65020E-04-8.89635E-14
 -1      3595 1.23233E-02 5.49731E-04-8.69254E-14
 -1      3596 1.22556E-02 5.09652E-04-8.61346E-14
 -1      3597 1.27446E-02 5.95607E-04-9.30803E-14
 -1      3598 1.26039E-02 5.80323E-04-9.10157E-14
 -1      3599 1.25329E-02 5.39582E-04-9.02103E-14
 -1      3600 1.30269E-02 6.25784E-04-9.72462E-14
 -1      3601 1.28856E-02 6.10765E-04-9.51570E-14
 -1      3602 1.28120E-02 5.69476E-04-9.43369E-14
 -1      3603 1.33101E-02 6.55188E-04-1.01455E-13
 -1      3604 1.31684E-02 6.40593E-04-9.93462E-14
 -1      3605 1.30928E-02 5.98881E-04-9.85122E-14
 -1      3606 1.35940E-02 6.83621E-04-1.05701E-13
 -1      3607 1.34520E-02 6.69527E-04-1.03571E-13
 -1      3608 1.33748E-02 6.27517E-04-1.02727E-13
 -1      3609 1.38250E-02 3.35936E-04-1.12756E-13
 -1      3610 1.38363E-02 3.75154E-04-1.12539E-13
 -1      3611 1.36974E-02 3.07439E-04-1.11011E-13
 -1      3612 4.51519E-03 2.81126E-04-1.52237E-14
 -1      3613 4.37530E-03 2.85558E-04-1.43078E-14
 -1      3614 4.56938E-03 2.46483E-04-1.57998E-14
 -1      3615 4.23508E-03 2.90139E-04-1.34201E-14
 -1      3616 4.09444E-03 2.94807E-04-1.25598E-14
 -1      3617 4.01422E-03 2.63325E-04-1.22363E-14
 -1      3618 4.29298E-03 2.54724E-04-1.39632E-14
 -1      3619 3.67052E-03 3.08054E-04-1.01439E-14
 -1      3620 3.52857E-03 3.11956E-04-9.39373E-15
 -1      3621 3.73333E-03 2.71519E-04-1.06194E-14
 -1      3622 9.44139E-03-3.95745E-04-5.62149E-14
 -1      3623 1.01558E-03-3.82887E-05-1.10693E-15
 -1      3624 1.01670E-03-6.47075E-05-1.10967E-15
 -1      3625 1.13810E-03-8.44480E-05-1.34449E-15
 -1      3626 2.24091E-03 3.19299E-04-3.92779E-15
 -1      3627 2.09709E-03 3.15229E-04-3.46511E-15
 -1      3628 5.89739E-03 9.82266E-05-3.00253E-14
 -1      3629 5.96157E-03 1.10447E-04-3.04666E-14
 -1      3630 5.97818E-03 1.27088E-04-3.00121E-14
 -1      3631 1.05505E-02 2.27368E-04-5.91306E-14
 -1      3632 1.06122E-02 2.01800E-04-5.93121E-14
 -1      3633 2.52826E-03 3.23683E-04-4.94091E-15
 -1      3634 2.38464E-03 3.22085E-04-4.41967E-15
 -1      3635 2.59396E-03 2.88154E-04-5.27795E-15
 -1      3636 1.71230E-03-2.67386E-04-2.64830E-15
 -1      3637 1.85614E-03-2.75133E-04-3.06433E-15
 -1      3638 1.63457E-03-2.29799E-04-2.46476E-15
 -1      3639 1.04597E-02 7.33810E-05-6.18663E-14
 -1      3640 1.03200E-02 2.79021E-05-6.10942E-14
 -1      3641 1.03201E-02-9.88661E-06-6.22379E-14
 -1      3642 6.78296E-03-3.50284E-04-3.42576E-14
 -1      3643 6.61006E-03-2.62623E-04-3.33470E-14
 -1      3644 6.81931E-03-4.05108E-04-3.42153E-14
 -1      3645 1.32657E-03 2.81153E-04-1.45378E-15
 -1      3646 1.28437E-03 2.52875E-04-1.40793E-15
 -1      3647 1.45157E-03 2.90689E-04-1.72255E-15
 -1      3648 5.87448E-03 7.07837E-05-3.05843E-14
 -1      3649 5.85573E-03 7.77073E-05-3.00921E-14
 -1      3650 5.85677E-03 6.03141E-05-3.01946E-14
 -1      3651 1.01887E-02 4.07486E-04-5.76473E-14
 -1      3652 9.66737E-03-2.77644E-04-5.77289E-14
 -1      3653 9.84725E-03-2.20716E-04-5.95268E-14
 -1      3654 6.44936E-03 3.64550E-04-3.01088E-14
 -1      3655 6.29331E-03 2.92718E-04-2.96256E-14
 -1      3656 1.05021E-02 2.89874E-04-5.99700E-14
 -1      3657 1.05253E-02 2.56041E-04-5.95511E-14
 -1      3658 1.06201E-02 2.42374E-04-6.06787E-14
 -1      3659 9.98896E-04-2.31949E-04-9.96599E-16
 -1      3660 2.95820E-03 3.22804E-04-6.67749E-15
 -1      3661 2.88065E-03 2.87597E-04-6.44253E-15
 -1      3662 3.10115E-03 3.20943E-04-7.31429E-15
 -1      3663 1.27768E-03 2.18568E-04-1.44376E-15
 -1      3664 6.49413E-03-2.77164E-04-3.21213E-14
 -1      3665 6.63902E-03-3.58677E-04-3.28515E-14
 -1      3666 1.25274E-03-2.20949E-04-1.52577E-15
 -1      3667 1.31879E-03-1.97911E-04-1.69225E-15
 -1      3668 1.13553E-03-2.71832E-05-1.33754E-15
 -1      3669 1.95325E-03 3.09652E-04-3.03158E-15
 -1      3670 1.80940E-03 3.02448E-04-2.62747E-15
 -1      3671 2.01863E-03 2.77514E-04-3.29668E-15
 -1      3672 1.06720E-02 1.96772E-04-6.04336E-14
 -1      3673 1.38471E-02 4.14325E-04-1.12325E-13
 -1      3674 1.38576E-02 4.53519E-04-1.12106E-13
 -1      3675 1.37201E-02 3.85252E-04-1.10583E-13
 -1      3676 1.37031E-02 6.86745E-04-1.07413E-13
 -1      3677 1.36250E-02 6.44645E-04-1.06554E-13
 -1      3678 1.38121E-02 6.89654E-04-1.09125E-13
 -1      3679 1.38677E-02 4.92773E-04-1.11884E-13
 -1      3680 1.38774E-02 5.32156E-04-1.11660E-13
 -1      3681 1.37409E-02 4.63002E-04-1.10144E-13
 -1      3682 1.38915E-02 5.65771E-04-1.11562E-13
 -1      3683 1.39054E-02 5.99561E-04-1.11467E-13
 -1      3684 1.37647E-02 5.35298E-04-1.09824E-13
 -1      3685 1.06056E-02 1.13486E-04-6.28364E-14
 -1      3686 1.05356E-02 9.55700E-05-6.23515E-14
 -1      3687 1.05342E-02 6.47047E-05-6.35106E-14
 -1      3688 5.97909E-03 2.93461E-05-3.11269E-14
 -1      3689 5.91388E-03 3.42796E-05-3.04545E-14
 -1      3690 6.00643E-03 5.92669E-06-3.08921E-14
 -1      3691 1.11093E-03-2.04971E-04-1.23770E-15
 -1      3692 1.07064E-02 1.72914E-04-6.16882E-14
 -1      3693 1.06625E-02 1.63558E-04-6.11445E-14
 -1      3694 1.06712E-02 1.51130E-04-6.22248E-14
 -1      3695 6.17544E-03 1.96668E-04-3.04270E-14
 -1      3696 6.25059E-03-1.07582E-04-3.15589E-14
 -1      3697 6.22009E-03-6.38034E-05-3.18935E-14
 -1      3698 6.12169E-03-4.18345E-05-3.12427E-14
 -1      3699 1.25742E-03 4.68947E-05-1.56618E-15
 -1      3700 1.25664E-03 1.64518E-05-1.57924E-15
 -1      3701 5.84729E-03 8.65547E-05-2.96451E-14
 -1      3702 5.84545E-03 9.75763E-05-2.91991E-14
 -1      3703 5.80691E-03 7.64835E-05-2.92648E-14
 -1      3704 9.91732E-04-2.04143E-04-1.00714E-15
 -1      3705 1.92217E-03-2.43849E-04-3.29706E-15
 -1      3706 3.38635E-03 3.15441E-04-8.67245E-15
 -1      3707 3.24386E-03 3.18476E-04-7.97946E-15
 -1      3708 3.45059E-03 2.78674E-04-9.11406E-15
 -1      3709 2.30651E-03 2.85115E-04-4.22893E-15
 -1      3710 1.03042E-02 3.95489E-04-5.89672E-14
 -1      3711 1.03172E-02 3.60735E-04-5.86569E-14
 -1      3712 1.04041E-02 3.35373E-04-5.94151E-14
 -1      3713 1.04478E-02 3.73959E-04-6.05573E-14
 -1      3714 1.26123E-03 1.08358E-04-1.53115E-15
 -1      3715 1.25894E-03 7.74433E-05-1.55030E-15
 -1      3716 1.38035E-03 6.56109E-05-1.83204E-15
 -1      3717 1.31013E-03-1.32174E-04-1.70527E-15
 -1      3718 1.31392E-03-1.64678E-04-1.70052E-15
 -1      3719 1.48579E-03-1.84910E-04-2.10373E-15
 -1      3720 1.37948E-02 1.86533E-04-1.13779E-13
 -1      3721 1.38073E-02 2.26204E-04-1.13580E-13
 -1      3722 1.36913E-02 2.37682E-04-1.11627E-13
 -1      3723 1.37025E-02 1.75705E-04-1.12434E-13
 -1      3724 6.44955E-03-2.24385E-04-3.21626E-14
 -1      3725 6.35553E-03-1.92859E-04-3.15879E-14
 -1      3726 1.00085E-02-1.33900E-04-6.02967E-14
 -1      3727 2.42105E-03-2.20098E-04-5.05123E-15
 -1      3728 2.56483E-03-2.20965E-04-5.61672E-15
 -1      3729 2.70838E-03-2.21098E-04-6.21106E-15
 -1      3730 2.85165E-03-2.20534E-04-6.83465E-15
 -1      3731 2.63217E-03-1.85662E-04-5.91161E-15
 -1      3732 2.99458E-03-2.19390E-04-7.48796E-15
 -1      3733 3.13714E-03-2.17687E-04-8.17063E-15
 -1      3734 2.91855E-03-1.84684E-04-7.15708E-15
 -1      3735 3.27928E-03-2.15528E-04-8.88191E-15
 -1      3736 3.42096E-03-2.12919E-04-9.62221E-15
 -1      3737 3.20330E-03-1.81706E-04-8.51881E-15
 -1      3738 3.56215E-03-2.09958E-04-1.03922E-14
 -1      3739 3.70283E-03-2.06643E-04-1.11896E-14
 -1      3740 3.48602E-03-1.77115E-04-9.99647E-15
 -1      3741 3.84294E-03-2.03069E-04-1.20152E-14
 -1      3742 3.98250E-03-1.99232E-04-1.28696E-14
 -1      3743 3.76633E-03-1.71228E-04-1.15887E-14
 -1      3744 4.12145E-03-1.95234E-04-1.37522E-14
 -1      3745 4.25983E-03-1.91070E-04-1.46640E-14
 -1      3746 4.04393E-03-1.64330E-04-1.32939E-14
 -1      3747 4.39757E-03-1.86852E-04-1.56031E-14
 -1      3748 4.53477E-03-1.82585E-04-1.65698E-14
 -1      3749 4.31855E-03-1.56698E-04-1.51118E-14
 -1      3750 4.67138E-03-1.78388E-04-1.75650E-14
 -1      3751 4.80755E-03-1.74295E-04-1.85877E-14
 -1      3752 4.59005E-03-1.48622E-04-1.70415E-14
 -1      3753 4.94326E-03-1.70427E-04-1.96365E-14
 -1      3754 5.07880E-03-1.66879E-04-2.07128E-14
 -1      3755 4.85849E-03-1.40436E-04-1.90807E-14
 -1      3756 5.21415E-03-1.63763E-04-2.18166E-14
 -1      3757 5.34982E-03-1.61290E-04-2.29462E-14
 -1      3758 5.12429E-03-1.32567E-04-2.12283E-14
 -1      3759 5.48585E-03-1.59534E-04-2.40998E-14
 -1      3760 5.62313E-03-1.59004E-04-2.52792E-14
 -1      3761 5.38847E-03-1.25621E-04-2.34809E-14
 -1      3762 5.76181E-03-1.59806E-04-2.64850E-14
 -1      3763 5.90324E-03-1.63042E-04-2.77151E-14
 -1      3764 5.65321E-03-1.20529E-04-2.58326E-14
 -1      3765 1.06115E-02-2.06398E-05-6.71595E-14
 -1      3766 1.07520E-02-6.73150E-06-6.90433E-14
 -1      3767 1.08899E-02 4.96292E-06-7.09447E-14
 -1      3768 1.10267E-02 1.54445E-05-7.28598E-14
 -1      3769 1.08680E-02 3.69001E-05-6.98332E-14
 -1      3770 1.11623E-02 2.47870E-05-7.47938E-14
 -1      3771 1.12976E-02 3.34799E-05-7.67423E-14
 -1      3772 1.11320E-02 5.42004E-05-7.36631E-14
 -1      3773 1.14326E-02 4.16030E-05-7.87029E-14
 -1      3774 1.15678E-02 4.93502E-05-8.06774E-14
 -1      3775 1.13956E-02 6.96929E-05-7.75548E-14
 -1      3776 1.17031E-02 5.68283E-05-8.26654E-14
 -1      3777 1.18389E-02 6.41171E-05-8.46685E-14
 -1      3778 1.16608E-02 8.44551E-05-8.15007E-14
 -1      3779 1.19751E-02 7.13260E-05-8.66849E-14
 -1      3780 1.21118E-02 7.84825E-05-8.87089E-14
 -1      3781 1.19284E-02 9.90152E-05-8.55037E-14
 -1      3782 1.22490E-02 8.56870E-05-9.07441E-14
 -1      3783 1.23867E-02 9.29405E-05-9.27906E-14
 -1      3784 1.21988E-02 1.13728E-04-8.95517E-14
 -1      3785 1.25249E-02 1.00327E-04-9.48484E-14
 -1      3786 1.26636E-02 1.07834E-04-9.69176E-14
 -1      3787 1.24720E-02 1.28853E-04-9.36447E-14
 -1      3788 1.28027E-02 1.15531E-04-9.89933E-14
 -1      3789 1.29423E-02 1.23391E-04-1.01079E-13
 -1      3790 1.27476E-02 1.44571E-04-9.77779E-14
 -1      3791 1.30823E-02 1.31465E-04-1.03176E-13
 -1      3792 1.32227E-02 1.39738E-04-1.05281E-13
 -1      3793 1.30255E-02 1.60991E-04-1.01950E-13
 -1      3794 5.15667E-03 2.03372E-04-2.04363E-14
 -1      3795 5.02441E-03 2.04942E-04-1.93841E-14
 -1      3796 1.42672E-03 2.26170E-04-1.76877E-15
 -1      3797 1.29645E-03 1.84925E-04-1.52821E-15
 -1      3798 4.89139E-03 2.07154E-04-1.83567E-14
 -1      3799 4.75737E-03 2.09974E-04-1.73554E-14
 -1      3800 4.93836E-03 1.76263E-04-1.89734E-14
 -1      3801 5.67954E-03 2.07392E-04-2.48925E-14
 -1      3802 5.54903E-03 2.04445E-04-2.37424E-14
 -1      3803 5.94177E-03 2.18430E-04-2.72619E-14
 -1      3804 5.80981E-03 2.12103E-04-2.60659E-14
 -1      3805 5.69829E-03 1.75639E-04-2.56012E-14
 -1      3806 1.12564E-02 3.79875E-04-7.15808E-14
 -1      3807 1.11259E-02 3.69899E-04-6.96757E-14
 -1      3808 1.07176E-02 2.11983E-04-6.16893E-14
 -1      3809 1.07362E-02 1.93864E-04-6.18665E-14
 -1      3810 1.07347E-02 3.48844E-04-6.40713E-14
 -1      3811 1.06016E-02 3.46576E-04-6.22420E-14
 -1      3812 1.17843E-02 4.28707E-04-7.93559E-14
 -1      3813 1.16511E-02 4.15437E-04-7.73889E-14
 -1      3814 1.20533E-02 4.56509E-04-8.33353E-14
 -1      3815 1.19184E-02 4.42403E-04-8.13389E-14
 -1      3816 1.18571E-02 4.05883E-04-8.05611E-14
 -1      3817 1.23255E-02 4.85351E-04-8.73676E-14
 -1      3818 1.21890E-02 4.70826E-04-8.53446E-14
 -1      3819 1.21232E-02 4.33286E-04-8.45543E-14
 -1      3820 1.26007E-02 5.14547E-04-9.14549E-14
 -1      3821 1.24627E-02 4.99924E-04-8.94052E-14
 -1      3822 1.23933E-02 4.61387E-04-8.86011E-14
 -1      3823 1.28782E-02 5.43582E-04-9.55921E-14
 -1      3824 1.27391E-02 5.29097E-04-9.35183E-14
 -1      3825 1.26669E-02 4.89670E-04-9.26994E-14
 -1      3826 1.31578E-02 5.72108E-04-9.97760E-14
 -1      3827 1.30177E-02 5.57916E-04-9.76773E-14
 -1      3828 1.29433E-02 5.17741E-04-9.68470E-14
 -1      3829 1.34389E-02 5.99911E-04-1.03997E-13
 -1      3830 1.32982E-02 5.86105E-04-1.01883E-13
 -1      3831 1.32219E-02 5.45325E-04-1.01038E-13
 -1      3832 1.35699E-02 2.79301E-04-1.09273E-13
 -1      3833 1.35818E-02 3.17976E-04-1.09060E-13
 -1      3834 1.39758E-02 7.15714E-04-1.11498E-13
 -1      3835 1.38969E-02 6.73457E-04-1.10631E-13
 -1      3836 1.69303E-03 3.01055E-04-2.31073E-15
 -1      3837 1.56764E-03 2.95476E-04-1.99627E-15
 -1      3838 1.52529E-03 2.67002E-04-1.94159E-15
 -1      3839 1.75806E-03 2.71511E-04-2.54285E-15
 -1      3840 2.66016E-03 2.52568E-04-5.62011E-15
 -1      3841 2.51657E-03 2.52058E-04-5.06331E-15
 -1      3842 1.38832E-02 6.39270E-04-1.10736E-13
 -1      3843 5.91341E-03 1.30949E-04-2.90037E-14
 -1      3844 5.99486E-03 1.50038E-04-2.94346E-14
 -1      3845 6.09474E-03 1.96204E-04-2.94108E-14
 -1      3846 1.84505E-03-2.07082E-04-3.08686E-15
 -1      3847 1.98901E-03-2.11972E-04-3.53294E-15
 -1      3848 2.37278E-03 2.50667E-04-4.53576E-15
 -1      3849 2.22884E-03 2.48330E-04-4.03711E-15
 -1      3850 2.43965E-03 2.16028E-04-4.84804E-15
 -1      3851 1.59339E-03-1.93259E-04-2.37879E-15
 -1      3852 1.73691E-03-2.00414E-04-2.77267E-15
 -1      3853 1.80447E-03-1.70235E-04-2.98562E-15
 -1      3854 1.58879E-03-1.57399E-04-2.38465E-15
 -1      3855 1.29205E-03 1.52179E-04-1.55602E-15
 -1      3856 5.41887E-03 2.02964E-04-2.26162E-14
 -1      3857 5.28799E-03 2.02678E-04-2.15141E-14
 -1      3858 5.44982E-03 1.72686E-04-2.32953E-14
 -1      3859 1.37866E-03 1.40974E-06-1.86126E-15
 -1      3860 1.25660E-03-1.38550E-05-1.58933E-15
 -1      3861 1.25727E-03-4.42288E-05-1.59626E-15
 -1      3862 5.83292E-03 4.33661E-05-2.95916E-14
 -1      3863 5.78934E-03 5.26855E-05-2.91115E-14
 -1      3864 2.13306E-03-2.15703E-04-4.00919E-15
 -1      3865 2.27710E-03-2.18363E-04-4.51531E-15
 -1      3866 2.05659E-03-1.79533E-04-3.77201E-15
 -1      3867 3.79578E-03 2.35737E-04-1.10989E-14
 -1      3868 3.65551E-03 2.39244E-04-1.03152E-14
 -1      3869 1.09960E-02 3.61128E-04-6.77899E-14
 -1      3870 1.08655E-02 3.54018E-04-6.59227E-14
 -1      3871 1.08401E-02 3.16353E-04-6.52001E-14
 -1      3872 1.28190E-03-7.18264E-05-1.65205E-15
 -1      3873 1.28403E-03-1.02994E-04-1.65383E-15
 -1      3874 1.45466E-03-1.19083E-04-2.05238E-15
 -1      3875 1.40351E-03-5.93941E-05-1.93305E-15
 -1      3876 6.21838E-03-1.93897E-04-3.02996E-14
 -1      3877 6.22962E-03-1.42368E-04-3.09207E-14
 -1      3878 6.12942E-03-1.15197E-04-3.02807E-14
 -1      3879 6.06627E-03-1.81682E-04-2.90180E-14
 -1      3880 1.15188E-02 4.02816E-04-7.54385E-14
 -1      3881 1.13872E-02 3.90886E-04-7.35005E-14
 -1      3882 1.15956E-02 3.79805E-04-7.66243E-14
 -1      3883 4.62251E-03 2.13174E-04-1.63802E-14
 -1      3884 4.48670E-03 2.16740E-04-1.54317E-14
 -1      3885 4.67484E-03 1.81250E-04-1.69643E-14
 -1      3886 1.41303E-03 1.43286E-04-1.84125E-15
 -1      3887 3.16628E-03 2.84223E-04-7.72128E-15
 -1      3888 2.34464E-03-1.84147E-04-4.78294E-15
 -1      3889 1.07391E-02 1.45946E-04-6.39433E-14
 -1      3890 1.06761E-02 1.31396E-04-6.33904E-14
 -1      3891 1.06826E-02 1.07028E-04-6.45590E-14
 -1      3892 1.35812E-02 2.18400E-04-1.10084E-13
 -1      3893 1.35757E-02 2.48958E-04-1.09679E-13
 -1      3894 1.34605E-02 2.59968E-04-1.07736E-13
 -1      3895 1.04597E-02-1.73551E-05-6.46926E-14
 -1      3896 1.05926E-02 3.36406E-05-6.54674E-14
 -1      3897 1.13391E-02 3.55721E-04-7.27489E-14
 -1      3898 1.07192E-02 2.32926E-04-6.21164E-14
 -1      3899 1.08067E-02 2.27552E-04-6.35643E-14
 -1      3900 1.07160E-02 2.57868E-04-6.25435E-14
 -1      3901 1.03266E-02-7.09149E-05-6.38980E-14
 -1      3902 1.01716E-02-9.77193E-05-6.20591E-14
 -1      3903 2.08483E-03 2.44888E-04-3.56784E-15
 -1      3904 1.94080E-03 2.40252E-04-3.12746E-15
 -1      3905 2.15174E-03 2.11818E-04-3.84496E-15
 -1      3906 1.35958E-02 1.66625E-04-1.10848E-13
 -1      3907 1.05187E-02 3.08645E-04-6.05447E-14
 -1      3908 1.33156E-02 1.99384E-04-1.06092E-13
 -1      3909 1.33738E-02 1.69686E-04-1.07329E-13
 -1      3910 5.19673E-03 1.73171E-04-2.10846E-14
 -1      3911 1.35932E-02 3.56521E-04-1.08844E-13
 -1      3912 1.36041E-02 3.95027E-04-1.08626E-13
 -1      3913 1.34665E-02 3.28184E-04-1.07114E-13
 -1      3914 4.07438E-03 2.28216E-04-1.27490E-14
 -1      3915 3.93540E-03 2.32060E-04-1.19101E-14
 -1      3916 3.85796E-03 2.00792E-04-1.15826E-14
 -1      3917 1.10876E-02 3.34246E-04-6.89390E-14
 -1      3918 1.07749E-02 1.85923E-04-6.29559E-14
 -1      3919 6.14274E-03 2.31092E-04-2.91409E-14
 -1      3920 4.40658E-03 1.87430E-04-1.50610E-14
 -1      3921 4.35008E-03 2.20468E-04-1.45100E-14
 -1      3922 4.21260E-03 2.24351E-04-1.36158E-14
 -1      3923 1.50431E-03 8.56299E-05-2.11705E-15
 -1      3924 1.50255E-03 5.18706E-05-2.13679E-15
 -1      3925 1.54288E-03 2.29518E-04-2.04567E-15
 -1      3926 1.36479E-02 6.05362E-04-1.07285E-13
 -1      3927 1.35701E-02 5.64187E-04-1.06427E-13
 -1      3928 1.36145E-02 4.33534E-04-1.08406E-13
 -1      3929 1.36243E-02 4.72139E-04-1.08182E-13
 -1      3930 1.34883E-02 4.04433E-04-1.06677E-13
 -1      3931 1.35908E-02 5.01642E-04-1.07357E-13
 -1      3932 1.36044E-02 5.34647E-04-1.07260E-13
 -1      3933 1.33969E-02 5.29845E-04-1.03979E-13
 -1      3934 1.34650E-02 4.71752E-04-1.05632E-13
 -1      3935 6.03270E-03-2.60033E-05-3.05694E-14
 -1      3936 5.95050E-03-1.47206E-05-2.99030E-14
 -1      3937 6.05597E-03-6.22226E-05-3.02421E-14
 -1      3938 1.62546E-03 3.63930E-05-2.46508E-15
 -1      3939 1.50164E-03 1.82373E-05-2.15355E-15
 -1      3940 1.50159E-03-1.53271E-05-2.16620E-15
 -1      3941 3.57869E-03 2.06871E-04-1.00097E-14
 -1      3942 3.51468E-03 2.42454E-04-9.55944E-15
 -1      3943 3.37331E-03 2.45360E-04-8.83213E-15
 -1      3944 5.71406E-03 1.46763E-04-2.63117E-14
 -1      3945 5.59774E-03 1.45535E-04-2.51329E-14
 -1      3946 5.87420E-03 1.66256E-04-2.76066E-14
 -1      3947 5.76646E-03 1.34956E-04-2.71213E-14
 -1      3948 5.75850E-03 6.19950E-05-2.86752E-14
 -1      3949 5.73607E-03 7.11610E-05-2.82411E-14
 -1      3950 5.71814E-03 4.58193E-05-2.80861E-14
 -1      3951 5.80982E-03 1.05459E-04-2.84337E-14
 -1      3952 5.80831E-03 1.24611E-04-2.78736E-14
 -1      3953 5.66806E-03 1.10006E-04-2.65678E-14
 -1      3954 5.75531E-03 9.29993E-05-2.80633E-14
 -1      3955 5.94063E-03-1.31516E-04-2.83343E-14
 -1      3956 5.83917E-03 2.62238E-05-2.93636E-14
 -1      3957 2.80349E-03 2.52335E-04-6.20500E-15
 -1      3958 2.72680E-03 2.17012E-04-5.96665E-15
 -1      3959 2.94652E-03 2.51405E-04-6.81904E-15
 -1      3960 2.55660E-03-1.50302E-04-5.61622E-15
 -1      3961 2.70007E-03-1.50350E-04-6.20825E-15
 -1      3962 1.34802E-02 1.78574E-04-1.08906E-13
 -1      3963 4.98503E-03 1.47029E-04-1.95933E-14
 -1      3964 4.85677E-03 1.48781E-04-1.85602E-14
 -1      3965 6.03501E-03-9.52803E-05-2.96177E-14
 -1      3966 2.84319E-03-1.49927E-04-6.82919E-15
 -1      3967 2.98590E-03-1.49038E-04-7.48005E-15
 -1      3968 2.76853E-03-1.15106E-04-6.50630E-15
 -1      3969 3.12811E-03-1.47772E-04-8.15975E-15
 -1      3970 3.26979E-03-1.46119E-04-8.86773E-15
 -1      3971 3.05370E-03-1.13671E-04-7.80418E-15
 -1      3972 3.41086E-03-1.44163E-04-9.60516E-15
 -1      3973 3.55127E-03-1.41879E-04-1.03711E-14
 -1      3974 3.33663E-03-1.11000E-04-9.21736E-15
 -1      3975 3.69097E-03-1.39352E-04-1.11652E-14
 -1      3976 3.82992E-03-1.36543E-04-1.19876E-14
 -1      3977 3.61680E-03-1.07284E-04-1.07452E-14
 -1      3978 3.96804E-03-1.33542E-04-1.28383E-14
 -1      3979 4.10532E-03-1.30302E-04-1.37175E-14
 -1      3980 3.89370E-03-1.02651E-04-1.23867E-14
 -1      3981 4.24166E-03-1.26916E-04-1.46239E-14
 -1      3982 4.37710E-03-1.23326E-04-1.55592E-14
 -1      3983 4.16681E-03-9.72045E-05-1.41402E-14
 -1      3984 4.51151E-03-1.19632E-04-1.65214E-14
 -1      3985 4.64496E-03-1.15765E-04-1.75116E-14
 -1      3986 4.43565E-03-9.10060E-05-1.60049E-14
 -1      3987 4.77732E-03-1.11836E-04-1.85299E-14
 -1      3988 4.90873E-03-1.07770E-04-1.95729E-14
 -1      3989 4.69971E-03-8.40660E-05-1.79802E-14
 -1      3990 5.03903E-03-1.03673E-04-2.06436E-14
 -1      3991 5.16851E-03-9.95139E-05-2.17418E-14
 -1      3992 4.95851E-03-7.63493E-05-2.00636E-14
 -1      3993 5.29695E-03-9.54043E-05-2.28640E-14
 -1      3994 5.42486E-03-9.12937E-05-2.40119E-14
 -1      3995 5.21173E-03-6.77683E-05-2.22510E-14
 -1      3996 5.55173E-03-8.72783E-05-2.51847E-14
 -1      3997 5.67892E-03-8.34830E-05-2.63831E-14
 -1      3998 5.45909E-03-5.84680E-05-2.45405E-14
 -1      3999 1.14154E-02 3.34034E-04-7.39190E-14
 -1      4000 1.12919E-02 3.22514E-04-7.19960E-14
 -1      4001 1.31608E-02 1.99378E-04-1.03648E-13
 -1      4002 1.33107E-02 2.29406E-04-1.05688E-13
 -1      4003 1.33054E-02 2.59180E-04-1.05283E-13
 -1      4004 5.23619E-03 1.44867E-04-2.17365E-14
 -1      4005 5.11146E-03 1.45785E-04-2.06518E-14
 -1      4006 5.03187E-03 1.19488E-04-2.02167E-14
 -1      4007 1.11039E-02 8.22876E-05-7.25348E-14
 -1      4008 1.12317E-02 8.94055E-05-7.44651E-14
 -1      4009 1.13599E-02 9.65359E-05-7.64079E-14
 -1      4010 1.14892E-02 1.03666E-04-7.83649E-14
 -1      4011 1.13252E-02 1.22085E-04-7.52636E-14
 -1      4012 1.16192E-02 1.10906E-04-8.03378E-14
 -1      4013 1.17503E-02 1.18187E-04-8.23230E-14
 -1      4014 1.15782E-02 1.36138E-04-7.91753E-14
 -1      4015 1.18823E-02 1.25609E-04-8.43222E-14
 -1      4016 1.20153E-02 1.33105E-04-8.63357E-14
 -1      4017 1.18365E-02 1.51077E-04-8.31442E-14
 -1      4018 1.21491E-02 1.40767E-04-8.83604E-14
 -1      4019 1.22839E-02 1.48534E-04-9.03951E-14
 -1      4020 1.20996E-02 1.66778E-04-8.71671E-14
 -1      4021 1.24194E-02 1.56485E-04-9.24403E-14
 -1      4022 1.25557E-02 1.64563E-04-9.44964E-14
 -1      4023 1.23669E-02 1.83195E-04-9.12376E-14
 -1      4024 1.26928E-02 1.72832E-04-9.65636E-14
 -1      4025 1.28305E-02 1.81248E-04-9.86393E-14
 -1      4026 1.26380E-02 2.00290E-04-9.53474E-14
 -1      4027 1.30216E-02 1.90572E-04-1.01549E-13
 -1      4028 1.53779E-03 1.80300E-04-2.10177E-15
 -1      4029 1.50567E-03 1.32500E-04-2.07706E-15
 -1      4030 1.62775E-03 1.19829E-04-2.40384E-15
 -1      4031 1.63503E-03 2.18931E-04-2.29803E-15
 -1      4032 1.06587E-02 2.90070E-04-6.22252E-14
 -1      4033 1.05389E-02 3.27355E-04-6.11196E-14
 -1      4034 1.07708E-02 2.76803E-04-6.36779E-14
 -1      4035 1.19264E-02 3.83890E-04-8.17658E-14
 -1      4036 1.17963E-02 3.70871E-04-7.97812E-14
 -1      4037 1.27316E-02 4.64865E-04-9.39432E-14
 -1      4038 1.25949E-02 4.51240E-04-9.18810E-14
 -1      4039 1.30072E-02 4.91885E-04-9.81006E-14
 -1      4040 1.28691E-02 4.78404E-04-9.60173E-14
 -1      4041 1.27950E-02 4.39924E-04-9.51862E-14
 -1      4042 1.32712E-02 5.17603E-04-1.02083E-13
 -1      4043 1.31319E-02 5.04336E-04-9.99797E-14
 -1      4044 1.30562E-02 4.64992E-04-9.91381E-14
 -1      4045 1.33057E-02 4.88947E-04-1.02910E-13
 -1      4046 1.75163E-03 2.19388E-04-2.61274E-15
 -1      4047 2.50715E-03 1.81241E-04-5.16591E-15
 -1      4048 2.36334E-03 1.80169E-04-4.63255E-15
 -1      4049 1.37563E-02 6.08069E-04-1.08997E-13
 -1      4050 1.16677E-02 3.58240E-04-7.78134E-14
 -1      4051 1.15407E-02 3.45876E-04-7.58578E-14
 -1      4052 1.14856E-02 3.13681E-04-7.50906E-14
 -1      4053 1.17353E-02 3.37373E-04-7.90023E-14
 -1      4054 3.23148E-03 2.47846E-04-8.13279E-15
 -1      4055 3.08919E-03 2.49900E-04-7.46190E-15
 -1      4056 3.01266E-03 2.15450E-04-7.20047E-15
 -1      4057 5.88416E-03-8.35622E-05-2.83061E-14
 -1      4058 1.24591E-02 4.37636E-04-8.98338E-14
 -1      4059 1.23243E-02 4.24013E-04-8.77983E-14
 -1      4060 1.25231E-02 4.13821E-04-9.10643E-14
 -1      4061 1.98092E-03-1.43946E-04-3.53888E-15
 -1      4062 2.12492E-03-1.46581E-04-4.01381E-15
 -1      4063 1.21905E-02 4.10511E-04-8.57742E-14
 -1      4064 1.20578E-02 3.97077E-04-8.37642E-14
 -1      4065 1.19923E-02 3.62206E-04-8.29706E-14
 -1      4066 1.22552E-02 3.87811E-04-8.69946E-14
 -1      4067 1.08513E-02 1.98954E-04-6.44083E-14
 -1      4068 1.08142E-02 1.75611E-04-6.42281E-14
 -1      4069 5.47950E-03 1.44665E-04-2.39777E-14
 -1      4070 5.35876E-03 1.44588E-04-2.28447E-14
 -1      4071 5.27561E-03 1.18527E-04-2.23911E-14
 -1      4072 5.84618E-03 2.32795E-06-2.90507E-14
 -1      4073 5.75449E-03 1.42657E-05-2.82079E-14
 -1      4074 5.85562E-03-2.60533E-05-2.87325E-14
 -1      4075 1.11706E-02 3.11629E-04-7.00882E-14
 -1      4076 1.10510E-02 3.01009E-04-6.82000E-14
 -1      4077 1.12449E-02 2.91324E-04-7.12411E-14
 -1      4078 2.26893E-03-1.48479E-04-4.51895E-15
 -1      4079 2.41286E-03-1.49686E-04-5.05311E-15
 -1      4080 2.48172E-03-1.15048E-04-5.32460E-15
 -1      4081 2.19395E-03-1.13165E-04-4.25884E-15
 -1      4082 1.08849E-02 2.85627E-04-6.55241E-14
 -1      4083 4.72699E-03 1.50783E-04-1.75522E-14
 -1      4084 4.59564E-03 1.53151E-04-1.65709E-14
 -1      4085 4.77933E-03 1.21803E-04-1.81437E-14
 -1      4086 1.08501E-02 6.75097E-05-6.87293E-14
 -1      4087 1.09771E-02 7.50821E-05-7.06242E-14
 -1      4088 1.10779E-02 1.09018E-04-7.14115E-14
 -1      4089 1.75307E-03 1.49223E-04-2.71411E-15
 -1      4090 1.75113E-03 9.90201E-05-2.76299E-15
 -1      4091 1.08394E-02 1.60031E-04-6.54075E-14
 -1      4092 1.29648E-02 2.18925E-04-1.00321E-13
 -1      4093 3.29677E-03 2.11908E-04-8.54847E-15
 -1      4094 1.31692E-02 2.66454E-04-1.03033E-13
 -1      4095 1.33178E-02 2.97028E-04-1.05070E-13
 -1      4096 1.33295E-02 3.34742E-04-1.04852E-13
 -1      4097 5.65975E-03 6.49517E-06-2.70594E-14
 -1      4098 5.66957E-03 2.77240E-05-2.73635E-14
 -1      4099 1.88944E-03 8.91668E-05-3.17670E-15
 -1      4100 1.76501E-03 6.15956E-05-2.83451E-15
 -1      4101 5.62972E-03 3.90289E-05-2.69436E-14
 -1      4102 1.81878E-03 1.89147E-04-2.84836E-15
 -1      4103 4.13410E-03 1.94141E-04-1.32662E-14
 -1      4104 1.08980E-02 2.36439E-04-6.52846E-14
 -1      4105 1.08784E-02 2.16748E-04-6.48475E-14
 -1      4106 1.09393E-02 2.06777E-04-6.61359E-14
 -1      4107 1.33404E-02 3.72352E-04-1.04632E-13
 -1      4108 1.33507E-02 4.09990E-04-1.04410E-13
 -1      4109 1.31929E-02 3.40872E-04-1.02598E-13
 -1      4110 4.46295E-03 1.55664E-04-1.56163E-14
 -1      4111 4.32894E-03 1.58393E-04-1.46884E-14
 -1      4112 4.51951E-03 1.25197E-04-1.61749E-14
 -1      4113 1.09679E-02 2.64485E-04-6.66486E-14
 -1      4114 3.92016E-03 1.66737E-04-1.20704E-14
 -1      4115 3.78191E-03 1.69447E-04-1.12530E-14
 -1      4116 3.70714E-03 1.37849E-04-1.09221E-14
 -1      4117 3.64281E-03 1.71981E-04-1.04639E-14
 -1      4118 3.50290E-03 1.74359E-04-9.70240E-15
 -1      4119 1.06211E-02 7.67774E-05-6.46117E-14
 -1      4120 1.07518E-02 6.78699E-05-6.70787E-14
 -1      4121 1.33453E-02 4.35116E-04-1.04072E-13
 -1      4122 1.33119E-02 4.63812E-04-1.03251E-13
 -1      4123 1.31870E-02 4.52194E-04-1.01360E-13
 -1      4124 1.31985E-02 4.02688E-04-1.02037E-13
 -1      4125 2.65070E-03 1.81687E-04-5.72827E-15
 -1      4126 2.57524E-03 1.46378E-04-5.48917E-15
 -1      4127 2.79394E-03 1.81534E-04-6.31896E-15
 -1      4128 1.76387E-03 2.53854E-05-2.85567E-15
 -1      4129 1.08619E-02 1.03864E-04-6.78528E-14
 -1      4130 5.68925E-03 7.74245E-05-2.74894E-14
 -1      4131 1.76483E-03-1.34181E-04-2.88241E-15
 -1      4132 1.87280E-03-1.39265E-04-3.20233E-15
 -1      4133 1.94188E-03-1.07530E-04-3.42223E-15
 -1      4134 5.50849E-03 1.18985E-04-2.46621E-14
 -1      4135 5.53950E-03 9.60942E-05-2.53494E-14
 -1      4136 5.42997E-03 9.53074E-05-2.41873E-14
 -1      4137 1.55571E-03-1.24105E-04-2.30827E-15
 -1      4138 1.66319E-03-1.30030E-04-2.59591E-15
 -1      4139 1.73220E-03-1.00191E-04-2.79484E-15
 -1      4140 1.52956E-03-9.29456E-05-2.24584E-15
 -1      4141 5.77297E-03-4.86732E-05-2.76211E-14
 -1      4142 5.59086E-03 8.74211E-05-2.60770E-14
 -1      4143 1.50266E-03-3.88655E-05-2.17460E-15
 -1      4144 1.52751E-03-6.89778E-05-2.24124E-15
 -1      4145 1.62862E-03-7.20346E-05-2.50794E-15
 -1      4146 1.62573E-03-2.29639E-05-2.49215E-15
 -1      4147 2.00684E-03 1.14283E-04-3.51376E-15
 -1      4148 2.02038E-03 7.49727E-05-3.59755E-15
 -1      4149 1.12905E-02 1.45977E-04-7.41202E-14
 -1      4150 1.14128E-02 1.52727E-04-7.60598E-14
 -1      4151 2.69463E-03-8.02769E-05-6.18709E-15
 -1      4152 2.83761E-03-7.99684E-05-6.80512E-15
 -1      4153 2.98010E-03-7.94217E-05-7.45251E-15
 -1      4154 3.12205E-03-7.86187E-05-8.12878E-15
 -1      4155 2.90729E-03-4.50046E-05-7.10535E-15
 -1      4156 3.26337E-03-7.76153E-05-8.83370E-15
 -1      4157 3.40398E-03-7.63774E-05-9.56712E-15
 -1      4158 3.19098E-03-4.39425E-05-8.45344E-15
 -1      4159 3.54382E-03-7.49766E-05-1.03290E-14
 -1      4160 3.68280E-03-7.33477E-05-1.11192E-14
 -1      4161 3.47189E-03-4.23057E-05-9.91624E-15
 -1      4162 3.82086E-03-7.15712E-05-1.19376E-14
 -1      4163 3.95792E-03-6.95732E-05-1.27844E-14
 -1      4164 3.74937E-03-4.01308E-05-1.14925E-14
 -1      4165 4.09390E-03-6.74259E-05-1.36590E-14
 -1      4166 4.22876E-03-6.50628E-05-1.45616E-14
 -1      4167 4.02274E-03-3.73600E-05-1.31816E-14
 -1      4168 4.36236E-03-6.25499E-05-1.54918E-14
 -1      4169 4.49467E-03-5.97746E-05-1.64499E-14
 -1      4170 4.29137E-03-3.38991E-05-1.49819E-14
 -1      4171 4.62553E-03-5.68493E-05-1.74347E-14
 -1      4172 4.75491E-03-5.36124E-05-1.84469E-14
 -1      4173 4.55443E-03-2.96678E-05-1.68926E-14
 -1      4174 4.88260E-03-5.02046E-05-1.94859E-14
 -1      4175 5.00862E-03-4.63846E-05-2.05506E-14
 -1      4176 4.81092E-03-2.44406E-05-1.89109E-14
 -1      4177 5.13262E-03-4.23495E-05-2.16416E-14
 -1      4178 5.25466E-03-3.77766E-05-2.27580E-14
 -1      4179 5.05956E-03-1.79057E-05-2.10356E-14
 -1      4180 3.07917E-03 1.79786E-04-7.58760E-15
 -1      4181 2.93678E-03 1.80896E-04-6.93906E-15
 -1      4182 2.86157E-03 1.46213E-04-6.67699E-15
 -1      4183 2.21938E-03 1.78354E-04-4.12840E-15
 -1      4184 2.07535E-03 1.75734E-04-3.65284E-15
 -1      4185 1.08784E-02 1.32740E-04-6.71855E-14
 -1      4186 1.09677E-02 1.31481E-04-6.88380E-14
 -1      4187 5.51317E-03 4.72495E-05-2.55479E-14
 -1      4188 5.57920E-03 6.40185E-05-2.62449E-14
 -1      4189 3.36229E-03 1.76465E-04-8.96921E-15
 -1      4190 3.22102E-03 1.78309E-04-8.26410E-15
 -1      4191 3.42811E-03 1.41588E-04-9.39441E-15
 -1      4192 1.15369E-02 1.59976E-04-7.80152E-14
 -1      4193 1.16629E-02 1.67482E-04-7.99844E-14
 -1      4194 1.14949E-02 1.82442E-04-7.68551E-14
 -1      4195 1.17903E-02 1.75349E-04-8.19698E-14
 -1      4196 1.19193E-02 1.83398E-04-8.39666E-14
 -1      4197 1.17435E-02 1.98374E-04-8.07943E-14
 -1      4198 1.20497E-02 1.91735E-04-8.59760E-14
 -1      4199 1.21814E-02 2.00238E-04-8.80008E-14
 -1      4200 1.19993E-02 2.15615E-04-8.47892E-14
 -1      4201 1.23143E-02 2.08972E-04-9.00324E-14
 -1      4202 1.24482E-02 2.17855E-04-9.20753E-14
 -1      4203 1.22611E-02 2.33804E-04-8.88280E-14
 -1      4204 1.25831E-02 2.26938E-04-9.41310E-14
 -1      4205 1.27190E-02 2.36137E-04-9.61957E-14
 -1      4206 1.25279E-02 2.52741E-04-9.29148E-14
 -1      4207 1.94146E-03 1.67519E-04-3.24317E-15
 -1      4208 1.28571E-02 4.14776E-04-9.64292E-14
 -1      4209 1.27208E-02 4.02291E-04-9.43580E-14
 -1      4210 6.04509E-03 2.06608E-04-2.85701E-14
 -1      4211 4.19377E-03 1.61149E-04-1.37880E-14
 -1      4212 4.05746E-03 1.63981E-04-1.29153E-14
 -1      4213 3.98253E-03 1.33624E-04-1.25629E-14
 -1      4214 4.25359E-03 1.29282E-04-1.43138E-14
 -1      4215 5.08005E-03 9.36381E-05-2.08435E-14
 -1      4216 4.95754E-03 9.38763E-05-1.97783E-14
 -1      4217 5.46633E-03 2.32620E-05-2.50435E-14
 -1      4218 5.40923E-03 5.08694E-05-2.43728E-14
 -1      4219 1.10483E-02 2.51921E-04-6.79570E-14
 -1      4220 1.25854E-02 3.89844E-04-9.22955E-14
 -1      4221 1.24510E-02 3.77388E-04-9.02476E-14
 -1      4222 1.26462E-02 3.65509E-04-9.35283E-14
 -1      4223 5.36023E-03 7.17698E-05-2.37083E-14
 -1      4224 5.31637E-03 9.38640E-05-2.30491E-14
 -1      4225 5.19952E-03 9.34958E-05-2.19340E-14
 -1      4226 5.29851E-03 4.78952E-05-2.32283E-14
 -1      4227 1.28483E-02 2.45857E-04-9.81476E-14
 -1      4228 1.30383E-02 2.56446E-04-1.01057E-13
 -1      4229 1.30508E-02 2.93228E-04-1.00841E-13
 -1      4230 1.27915E-02 2.72579E-04-9.69193E-14
 -1      4231 1.10679E-02 1.35416E-04-7.05095E-14
 -1      4232 1.11860E-02 1.41269E-04-7.24198E-14
 -1      4233 1.12702E-02 1.69891E-04-7.32038E-14
 -1      4234 1.10704E-02 1.60852E-04-6.98289E-14
 -1      4235 2.28771E-03 1.44543E-04-4.41715E-15
 -1      4236 1.90223E-03 1.10989E-05-3.27368E-15
 -1      4237 1.76317E-03-1.30461E-05-2.87156E-15
 -1      4238 1.13112E-02 2.72775E-04-7.23949E-14
 -1      4239 1.11961E-02 2.62365E-04-7.04841E-14
 -1      4240 1.07611E-02 1.15264E-04-6.56631E-14
 -1      4241 1.06897E-02 9.64853E-05-6.51026E-14
 -1      4242 4.83271E-03 9.42623E-05-1.87386E-14
 -1      4243 4.70573E-03 9.50559E-05-1.77246E-14
 -1      4244 4.88768E-03 6.81219E-05-1.93366E-14
 -1      4245 2.00995E-03 1.35412E-04-3.49858E-15
 -1      4246 5.26926E-03 6.90774E-06-2.30036E-14
 -1      4247 5.33966E-03-1.54231E-05-2.36411E-14
 -1      4248 3.14606E-03 1.44490E-04-7.97883E-15
 -1      4249 5.45531E-03-1.01217E-05-2.48010E-14
 -1      4250 1.10496E-02 1.81280E-04-6.88830E-14
 -1      4251 1.11448E-02 1.85857E-04-7.05551E-14
 -1      4252 2.35675E-03 1.10433E-04-4.71120E-15
 -1      4253 2.21283E-03 1.09262E-04-4.20164E-15
 -1      4254 1.14292E-02 2.83215E-04-7.43216E-14
 -1      4255 1.13707E-02 2.54472E-04-7.35504E-14
 -1      4256 1.15501E-02 2.94219E-04-7.62632E-14
 -1      4257 5.57373E-03-1.37413E-05-2.59831E-14
 -1      4258 1.23784E-02 3.41930E-04-8.94308E-14
 -1      4259 1.23177E-02 3.65039E-04-8.82138E-14
 -1      4260 1.21857E-02 3.52733E-04-8.61906E-14
 -1      4261 1.30835E-02 4.39267E-04-9.98268E-14
 -1      4262 1.29597E-02 4.27608E-04-9.79523E-14
 -1      4263 1.28839E-02 3.89754E-04-9.71130E-14
 -1      4264 1.30895E-02 4.14795E-04-1.00165E-13
 -1      4265 1.30624E-02 3.29849E-04-1.00622E-13
 -1      4266 4.57685E-03 9.59822E-05-1.67375E-14
 -1      4267 4.44622E-03 9.72024E-05-1.57768E-14
 -1      4268 4.63539E-03 6.79951E-05-1.73031E-14
 -1      4269 2.64398E-03 1.11480E-04-5.81723E-15
 -1      4270 2.50050E-03 1.11167E-04-5.24977E-15
 -1      4271 2.42648E-03 7.60884E-05-5.01084E-15
 -1      4272 1.30950E-02 3.90346E-04-1.00503E-13
 -1      4273 5.13012E-03 6.90370E-05-2.14734E-14
 -1      4274 1.28736E-02 3.07256E-04-9.78416E-14
 -1      4275 1.30140E-02 3.54359E-04-9.95814E-14
 -1      4276 1.29064E-02 3.66416E-04-9.77222E-14
 -1      4277 1.27448E-02 2.96579E-04-9.58902E-14
 -1      4278 3.77195E-03 1.04480E-04-1.13848E-14
 -1      4279 3.63363E-03 1.05954E-04-1.05900E-14
 -1      4280 1.11092E-02 2.35018E-04-6.90881E-14
 -1      4281 1.86742E-03-6.60702E-05-3.19231E-15
 -1      4282 1.97534E-03-6.94414E-05-3.52775E-15
 -1      4283 1.17988E-02 3.16900E-04-8.01924E-14
 -1      4284 1.16734E-02 3.05342E-04-7.82214E-14
 -1      4285 1.16098E-02 2.74736E-04-7.74377E-14
 -1      4286 4.04541E-03 1.01442E-04-1.30595E-14
 -1      4287 3.90922E-03 1.02992E-04-1.22081E-14
 -1      4288 3.83735E-03 7.19195E-05-1.18520E-14
 -1      4289 1.20552E-02 3.40627E-04-8.41762E-14
 -1      4290 1.19261E-02 3.28611E-04-8.21756E-14
 -1      4291 1.18588E-02 2.96286E-04-8.13820E-14
 -1      4292 1.21155E-02 3.18763E-04-8.53833E-14
 -1      4293 5.67064E-03-3.14794E-05-2.68024E-14
 -1      4294 1.08526E-02 1.52292E-04-6.59564E-14
 -1      4295 1.09395E-02 1.74105E-04-6.69241E-14
 -1      4296 2.55126E-03-8.02772E-05-5.59770E-15
 -1      4297 2.62147E-03-4.54403E-05-5.87193E-15
 -1      4298 2.40759E-03-7.99880E-05-5.03746E-15
 -1      4299 2.04573E-03-2.90219E-05-3.74592E-15
 -1      4300 2.11924E-03-7.07364E-05-4.00035E-15
 -1      4301 2.26319E-03-7.16459E-05-4.50271E-15
 -1      4302 1.76422E-03-3.83763E-05-2.88222E-15
 -1      4303 1.10450E-02 2.15512E-04-6.80853E-14
 -1      4304 1.10055E-02 1.96655E-04-6.76349E-14
 -1      4305 2.03285E-03 4.32052E-05-3.66379E-15
 -1      4306 2.03166E-03 2.85845E-06-3.68575E-15
 -1      4307 2.17556E-03 2.95039E-06-4.16666E-15
 -1      4308 2.14958E-03 6.75611E-05-4.02934E-15
 -1      4309 5.13222E-03 6.26483E-06-2.17001E-14
 -1      4310 5.22418E-03 2.61673E-05-2.25551E-14
 -1      4311 5.16591E-03 4.85159E-05-2.19201E-14
 -1      4312 5.01169E-03 3.05964E-06-2.06109E-14
 -1      4313 2.92978E-03 1.11084E-04-7.03901E-15
 -1      4314 2.78710E-03 1.11448E-04-6.41365E-15
 -1      4315 2.71336E-03 7.66027E-05-6.15086E-15
 -1      4316 3.21346E-03 1.09597E-04-8.37466E-15
 -1      4317 3.07192E-03 1.10471E-04-7.69275E-15
 -1      4318 2.99857E-03 7.62035E-05-7.40578E-15
 -1      4319 3.11950E-03-1.00001E-05-8.07731E-15
 -1      4320 3.26062E-03-9.65957E-06-8.77851E-15
 -1      4321 3.40098E-03-9.27673E-06-9.50717E-15
 -1      4322 3.54049E-03-8.78722E-06-1.02647E-14
 -1      4323 3.33097E-03 2.41870E-05-9.10264E-15
 -1      4324 3.65361E-03 1.61098E-05-1.08737E-14
 -1      4325 3.79137E-03 1.63135E-05-1.16803E-14
 -1      4326 3.92803E-03 1.65333E-05-1.25161E-14
 -1      4327 4.06351E-03 1.69313E-05-1.33795E-14
 -1      4328 4.48616E-03-2.30992E-06-1.63537E-14
 -1      4329 4.61555E-03-6.33449E-07-1.73336E-14
 -1      4330 4.75325E-03-3.95526E-07-1.84247E-14
 -1      4331 4.87866E-03 1.93464E-06-1.94601E-14
 -1      4332 4.95753E-03 2.56373E-05-2.00975E-14
 -1      4333 4.68838E-03 2.56739E-05-1.78557E-14
 -1      4334 4.91658E-03 4.73853E-05-1.96740E-14
 -1      4335 4.79244E-03 4.64899E-05-1.86344E-14
 -1      4336 1.14509E-02 2.03448E-04-7.56995E-14
 -1      4337 1.15718E-02 2.11607E-04-7.76526E-14
 -1      4338 1.16810E-02 2.37867E-04-7.91150E-14
 -1      4339 1.18057E-02 2.47184E-04-8.10948E-14
 -1      4340 1.19324E-02 2.57011E-04-8.30857E-14
 -1      4341 1.20608E-02 2.66945E-04-8.50908E-14
 -1      4342 1.21908E-02 2.77220E-04-8.71089E-14
 -1      4343 1.23223E-02 2.87574E-04-8.91349E-14
 -1      4344 1.24551E-02 2.98168E-04-9.11737E-14
 -1      4345 1.25890E-02 3.08813E-04-9.32265E-14
 -1      4346 5.04755E-03 4.72898E-05-2.08284E-14
 -1      4347 1.12446E-02 1.91575E-04-7.22644E-14
 -1      4348 1.13457E-02 1.97057E-04-7.39636E-14
 -1      4349 1.14171E-02 2.24672E-04-7.47464E-14
 -1      4350 1.12130E-02 2.11223E-04-7.13017E-14
 -1      4351 1.11864E-02 2.24509E-04-7.06141E-14
 -1      4352 4.31402E-03 9.85095E-05-1.48432E-14
 -1      4353 4.18037E-03 9.99791E-05-1.39373E-14
 -1      4354 4.37537E-03 6.87982E-05-1.53763E-14
 -1      4355 3.49440E-03 1.07299E-04-9.82276E-15
 -1      4356 3.35431E-03 1.08545E-04-9.08430E-15
 -1      4357 3.28141E-03 7.51475E-05-8.77400E-15
 -1      4358 3.56124E-03 7.36385E-05-1.02563E-14
 -1      4359 1.73002E-03-7.48460E-05-2.78931E-15
 -1      4360 2.80914E-03 1.56509E-05-6.62645E-15
 -1      4361 2.95163E-03 1.57315E-05-7.26299E-15
 -1      4362 1.28042E-02 3.54354E-04-9.62019E-14
 -1      4363 2.14053E-03 1.21243E-04-3.94141E-15
 -1      4364 1.12862E-02 2.31460E-04-7.23233E-14
 -1      4365 3.58531E-03 4.87838E-05-1.04353E-14
 -1      4366 4.65613E-03 4.75193E-05-1.75385E-14
 -1      4367 4.22254E-03-4.92508E-06-1.44758E-14
 -1      4368 4.35512E-03-3.68219E-06-1.54011E-14
 -1      4369 1.14017E-02 2.40589E-04-7.42493E-14
 -1      4370 1.27240E-02 3.19604E-04-9.52879E-14
 -1      4371 3.44606E-03 4.92117E-05-9.67274E-15
 -1      4372 4.52759E-03 4.72155E-05-1.65552E-14
 -1      4373 4.13170E-03 4.73385E-05-1.37668E-14
 -1      4374 2.33385E-03-3.74457E-05-4.75008E-15
 -1      4375 2.66616E-03 1.55884E-05-6.01795E-15
 -1      4376 2.52279E-03 1.54568E-05-5.43906E-15
 -1      4377 4.42022E-03 2.56086E-05-1.58182E-14
 -1      4378 2.37912E-03 1.53177E-05-4.88895E-15
 -1      4379 1.16284E-02 2.58025E-04-7.79425E-14
 -1      4380 1.15072E-02 2.48202E-04-7.59885E-14
 -1      4381 3.30594E-03 4.95820E-05-8.93879E-15
 -1      4382 3.02342E-03 5.01967E-05-7.55640E-15
 -1      4383 2.21011E-03 8.77528E-05-4.21652E-15
 -1      4384 2.22231E-03 5.52565E-05-4.29036E-15
 -1      4385 4.10898E-03 7.02105E-05-1.35593E-14
 -1      4386 4.39723E-03 4.70478E-05-1.55985E-14
 -1      4387 2.23521E-03 2.27586E-05-4.36203E-15
 -1      4388 4.26523E-03 4.71261E-05-1.46685E-14
 -1      4389 3.16504E-03 4.99334E-05-8.23370E-15
 -3
    1PSTEP                         2           1           1          
  100CL  101 1.000000000        4389                     0    1           1
 -4  STRESS      6    1
 -5  SXX         1    4    1    1
 -5  SYY         1    4    2    2
 -5  SZZ         1    4    3    3
 -5  SXY         1    4    1    2
 -5  SYZ         1    4    2    3
 -5  SZX         1    4    3    1
 -1         1 5.18328E+01 5.67454E+00 2.80417E+00-1.59875E+01-6.58001E-13 1.73467E-12
 -1         2-7.84069E-01-2.42213E+01-3.31886E+00-3.04976E-01 1.08081E-12 5.94039E-14
 -1         3 1.99993E+01-5.10797E-04 5.72013E-03-5.67014E-04-5.04085E-13-5.29267E-13
 -1         4 1.99992E+01-6.03846E-04 5.58862E-03 6.64219E-04 9.20971E-14 1.79807E-13
 -1         5 3.26904E+01 6.12789E+00 2.73420E+00 6.21285E+00-4.53179E-14 3.05625E-12
 -1         6 3.56686E+01 1.22341E+01 5.11161E+00-8.62947E+00-1.76081E-13 2.77067E-12
 -1         7 2.07858E+01 6.09008E+00-1.28146E-01-4.71778E+00-2.34396E-14 5.07563E-13
 -1         8 1.96569E+01 5.93029E+00 5.12105E-02-3.26841E+00-3.00940E-14-1.80754E-13
 -1         9 1.91361E+01 5.77146E+00 4.94698E-02-2.51987E+00-2.75162E-14-5.59409E-13
 -1        10 1.89049E+01 5.69473E+00 5.15857E-02-1.94361E+00-1.89423E-14-7.45270E-13
 -1        11 1.87893E+01 5.65575E+00 5.05553E-02-1.44842E+00-1.37438E-14-8.23217E-13
 -1        12 1.87296E+01 5.63520E+00 4.87354E-02-1.00865E+00-6.86322E-15-8.49533E-13
 -1        13 1.86983E+01 5.62443E+00 4.72114E-02-5.91011E-01-2.01716E-15-8.48712E-13
 -1        14 1.86852E+01 5.61990E+00 4.64001E-02-1.89748E-01 3.88638E-15-8.32850E-13
 -1        15 1.86858E+01 5.62007E+00 4.64428E-02 2.06522E-01 8.60960E-15-8.08537E-13
 -1        16 1.87000E+01 5.62496E+00 4.73542E-02 6.08643E-01 1.18531E-14-7.70759E-13
 -1        17 1.87326E+01 5.63601E+00 4.90324E-02 1.02831E+00 1.73407E-14-7.12675E-13
 -1        18 1.87935E+01 5.65686E+00 5.09802E-02 1.47137E+00 1.81270E-14-6.16925E-13
 -1        19 1.89101E+01 5.69626E+00 5.18786E-02 1.97253E+00 3.12606E-14-4.68875E-13
 -1        20 1.91416E+01 5.77400E+00 4.92598E-02 2.55693E+00 3.74353E-14-2.17045E-13
 -1        21 1.96525E+01 5.94489E+00 4.63677E-02 3.30269E+00 4.30489E-14 2.44689E-13
 -1        22 2.11670E+01 6.37114E+00 1.39539E-01 4.51589E+00 8.16014E-15 1.14016E-12
 -1        23 2.29718E+01-1.37656E+00-9.37296E-01-7.09818E-01-1.11609E-13 2.17447E-12
 -1        24 1.93182E+01-9.94537E-02-3.09463E-01 6.29593E-02-3.36502E-14 1.61789E-12
 -1        25 1.86357E+01-5.64845E-02-6.87795E-02 6.04200E-02-1.56138E-14 1.04794E-12
 -1        26 1.84407E+01-2.24277E-02-6.68492E-03 3.26134E-02-3.13031E-15 6.57797E-13
 -1        27 1.84634E+01-1.23331E-02 1.14388E-03 2.21992E-02 3.71979E-15 4.66228E-13
 -1        28 1.85956E+01-7.00604E-03 1.09470E-03 1.59029E-02-3.70202E-14 3.06659E-13
 -1        29 1.87836E+01-4.14602E-03 7.13145E-04 1.18155E-02-1.23041E-14 8.24852E-14
 -1        30 1.90004E+01-2.65086E-03 4.81419E-04 9.00347E-03 3.14969E-14-5.17958E-14
 -1        31 1.92338E+01-1.98546E-03 1.19514E-04 7.04755E-03-1.55236E-14-1.72932E-13
 -1        32 1.94805E+01-1.85661E-03-4.91843E-04 5.76669E-03 8.38346E-16-2.96278E-13
 -1        33 1.97437E+01-2.07872E-03-1.34627E-03 5.09554E-03 1.09158E-14-3.95783E-13
 -1        34 2.00306E+01-2.50786E-03-2.38474E-03 5.03014E-03 1.12037E-14-4.02517E-13
 -1        35 2.03513E+01-3.00167E-03-3.50897E-03 5.59990E-03-3.17394E-14-5.18966E-13
 -1        36 2.07169E+01-3.38778E-03-4.55648E-03 6.84294E-03 1.78913E-14-5.09086E-13
 -1        37 2.11369E+01-3.43452E-03-5.25042E-03 8.76804E-03-1.09918E-14-4.92505E-13
 -1        38 2.16162E+01-2.82646E-03-5.12990E-03 1.12841E-02-3.66235E-14-6.68845E-13
 -1        39 2.21491E+01-1.15964E-03-3.47818E-03 1.40744E-02 1.69643E-14-9.08674E-13
 -1        40 2.27122E+01 2.00922E-03 6.92138E-04 1.63956E-02-3.50521E-14-9.61558E-13
 -1        41 2.32545E+01 6.99993E-03 8.45676E-03 1.68182E-02 7.03073E-15-9.35305E-13
 -1        42 2.36885E+01 1.36632E-02 2.03649E-02 1.30336E-02-4.88283E-14-9.74174E-13
 -1        43 2.38873E+01 2.08477E-02 3.51795E-02 2.07951E-03-3.00926E-14-1.00182E-12
 -1        44 2.37004E+01 2.59041E-02 4.82024E-02-1.83908E-02 2.46795E-14-7.98967E-13
 -1        45 2.30031E+01 2.48678E-02 5.06403E-02-4.72676E-02-5.98371E-14-9.37679E-13
 -1        46 2.17837E+01 1.42506E-02 3.28250E-02-7.64160E-02 1.36990E-14-1.18308E-12
 -1        47 2.02365E+01-5.69656E-03-7.78013E-03-9.02514E-02 1.71081E-14-8.70123E-13
 -1        48 1.87815E+01-2.84031E-02-5.79606E-02-7.34843E-02 4.57154E-14-6.29382E-13
 -1        49 1.79297E+01-4.29781E-02-9.13865E-02-2.49566E-02 4.42788E-14-3.98763E-13
 -1        50 1.80222E+01-4.13394E-02-8.73746E-02 3.55514E-02-3.75581E-14-7.10147E-13
 -1        51 1.90209E+01-2.44347E-02-4.84867E-02 7.91821E-02-1.77809E-15-8.44137E-13
 -1        52 2.05333E+01-1.51800E-03 1.62230E-03 8.96156E-02-1.65134E-14-9.13797E-13
 -1        53 2.20476E+01 1.69086E-02 3.80971E-02 7.15778E-02 1.58588E-14-1.24277E-12
 -1        54 2.31809E+01 2.55360E-02 5.12445E-02 4.14610E-02 5.33579E-15-1.36998E-12
 -1        55 2.37830E+01 2.50654E-02 4.58574E-02 1.37935E-02 1.20509E-14-1.35977E-12
 -1        56 2.38952E+01 1.92827E-02 3.18716E-02-4.80488E-03 6.41703E-14-1.07161E-12
 -1        57 2.36537E+01 1.19788E-02 1.73442E-02-1.41333E-02-2.55503E-14-1.08303E-12
 -1        58 2.32082E+01 5.49887E-03 6.14792E-03-1.68259E-02 1.95347E-14-1.18799E-12
 -1        59 2.26801E+01 7.63102E-04-9.67164E-04-1.57707E-02-2.87222E-14-9.40803E-13
 -1        60 2.21513E+01-2.19969E-03-4.72065E-03-1.30937E-02 3.11143E-15-8.50241E-13
 -1        61 2.16686E+01-3.74687E-03-6.19406E-03-1.00582E-02 1.44044E-14-6.41330E-13
 -1        62 2.12535E+01-4.31334E-03-6.32138E-03-7.28823E-03-5.32542E-14-7.30394E-13
 -1        63 2.09114E+01-4.27459E-03-5.75900E-03-5.02004E-03-2.43666E-15-8.84946E-13
 -1        64 2.06385E+01-3.90928E-03-4.91829E-03-3.28652E-03-2.42986E-14-8.96001E-13
 -1        65 2.04268E+01-3.40666E-03-4.03979E-03-2.02762E-03-9.79261E-14-8.72319E-13
 -1        66 2.02669E+01-2.88686E-03-3.26136E-03-1.14597E-03 5.26616E-14-7.34364E-13
 -1        67 2.01497E+01-2.42030E-03-2.67008E-03-5.27536E-04 1.13110E-13 2.22755E-14
 -1        68 2.00679E+01-2.03897E-03-2.32563E-03-4.19840E-05 2.78152E-14 3.26250E-13
 -1        69 2.00161E+01-1.71675E-03-2.19435E-03 5.00414E-04 2.35751E-14 5.55705E-14
 -1        70 1.99915E+01-1.22288E-03-1.79301E-03 1.43396E-03-2.77487E-14 4.22962E-13
 -1        71 1.99919E+01 2.12603E-04 7.91126E-04 2.47259E-03-4.09958E-14 3.08044E-13
 -1        72 2.09874E+01-4.04072E-01-9.79331E-01-3.10613E-01 3.42434E-14 2.84478E-12
 -1        73 1.92822E+01-6.59059E-02-2.90808E-01-5.35572E-02 2.51344E-14 2.23293E-12
 -1        74 1.86442E+01-2.06768E-02-6.42833E-02-1.99708E-02 1.27479E-14 1.82965E-12
 -1        75 1.84484E+01-1.01727E-02-9.53707E-03-1.49123E-02 1.01536E-14 1.50640E-12
 -1        76 1.84705E+01-5.60864E-03 2.39206E-04-1.16743E-02-1.01286E-14 1.24718E-12
 -1        77 1.86014E+01-3.24666E-03 1.03862E-03-9.22334E-03 2.27474E-14 1.07565E-12
 -1        78 1.87878E+01-2.01528E-03 8.29185E-04-7.29493E-03-1.33495E-14 1.03785E-12
 -1        79 1.90033E+01-1.44969E-03 5.71865E-04-5.67616E-03 2.82044E-14 9.65729E-13
 -1        80 1.92360E+01-1.31744E-03 1.29419E-04-4.27953E-03-4.86353E-15 7.61161E-13
 -1        81 1.94834E+01-1.48868E-03-6.04398E-04-3.09576E-03 1.63989E-14 7.14213E-13
 -1        82 1.97498E+01-1.87945E-03-1.64723E-03-2.16018E-03 1.00378E-14 6.03833E-13
 -1        83 2.00448E+01-2.42035E-03-2.98100E-03-1.54597E-03 3.13410E-14 4.97052E-13
 -1        84 2.03818E+01-3.03179E-03-4.56573E-03-1.37317E-03 1.86346E-14 3.72997E-13
 -1        85 2.07774E+01-3.59643E-03-6.31383E-03-1.82663E-03 6.38733E-15 2.78711E-13
 -1        86 2.12496E+01-3.92355E-03-8.02604E-03-3.17658E-03 1.58768E-14 2.08169E-13
 -1        87 2.18146E+01-3.70474E-03-9.27478E-03-5.78626E-03-3.65039E-14 3.87908E-13
 -1        88 2.24821E+01-2.47319E-03-9.21837E-03-1.00689E-02-2.75675E-14 3.26785E-13
 -1        89 2.32457E+01 3.90454E-04-6.36569E-03-1.63077E-02 3.71049E-14 1.20856E-13
 -1        90 2.40678E+01 5.49753E-03 1.53960E-03-2.41825E-02-5.44164E-14 1.33645E-13
 -1        91 2.48590E+01 1.29746E-02 1.70453E-02-3.18401E-02 2.67592E-14 4.24386E-13
 -1        92 2.54568E+01 2.15634E-02 4.11080E-02-3.46272E-02-5.06218E-14 6.66325E-13
 -1        93 2.56205E+01 2.75939E-02 6.92858E-02-2.44513E-02 2.58786E-14 8.13408E-13
 -1        94 2.50786E+01 2.48436E-02 8.69950E-02 7.89574E-03 5.33774E-15 3.77812E-13
 -1        95 2.36653E+01 8.44611E-03 7.06405E-02 6.35760E-02 1.73282E-14 9.80258E-14
 -1        96 2.15424E+01-1.78375E-02 4.73414E-03 1.21744E-01 1.17121E-15 4.63928E-13
 -1        97 1.93503E+01-3.99716E-02-8.96586E-02 1.40700E-01-2.27745E-14 5.77628E-13
 -1        98 1.80206E+01-4.33608E-02-1.55622E-01 9.07596E-02-1.64859E-14 7.23317E-13
 -1        99 1.82200E+01-2.67010E-02-1.42789E-01-8.67843E-03 5.02619E-14 3.49918E-13
 -1       100 1.98475E+01-2.27392E-03-6.14049E-02-9.63437E-02-5.87930E-14 2.41390E-13
 -1       101 2.21109E+01 1.69482E-02 2.93213E-02-1.26935E-01 8.90791E-15 2.42369E-13
 -1       102 2.41067E+01 2.49937E-02 8.03541E-02-1.04306E-01 3.73631E-14-2.17437E-13
 -1       103 2.53124E+01 2.33010E-02 8.46751E-02-5.97578E-02-5.16651E-14 1.71581E-14
 -1       104 2.56667E+01 1.65208E-02 6.19200E-02-1.96754E-02-1.99466E-14 5.64273E-13
 -1       105 2.53805E+01 8.92411E-03 3.36304E-02 5.85264E-03 8.60555E-14 3.73169E-13
 -1       106 2.47287E+01 2.83654E-03 1.14444E-02 1.78792E-02-1.41762E-13 2.22924E-13
 -1       107 2.39355E+01-1.12495E-03-2.02678E-03 2.10814E-02 5.21328E-14-2.05445E-13
 -1       108 2.31452E+01-3.24791E-03-8.49039E-03 1.97115E-02 4.92538E-14-4.93645E-13
 -1       109 2.24337E+01-4.08704E-03-1.05480E-02 1.65320E-02 2.05519E-14-4.34951E-13
 -1       110 2.18313E+01-4.15129E-03-1.02822E-02 1.30225E-02-9.36442E-14-7.06576E-13
 -1       111 2.13416E+01-3.80963E-03-9.00639E-03 9.84681E-03 7.34243E-14-5.27156E-13
 -1       112 2.09553E+01-3.29772E-03-7.43774E-03 7.23036E-03-5.75839E-14-1.92628E-13
 -1       113 2.06576E+01-2.75357E-03-5.92570E-03 5.19183E-03 9.51706E-14 9.34712E-15
 -1       114 2.04327E+01-2.25275E-03-4.62265E-03 3.66673E-03 3.52006E-14-4.25381E-13
 -1       115 2.02665E+01-1.83011E-03-3.58905E-03 2.56119E-03-5.29801E-14-4.22158E-13
 -1       116 2.01469E+01-1.49825E-03-2.85110E-03 1.77072E-03 6.57810E-14-2.60305E-13
 -1       117 2.00647E+01-1.25371E-03-2.43922E-03 1.18853E-03-3.32142E-14-2.00511E-13
 -1       118 2.00136E+01-1.04755E-03-2.28532E-03 6.31740E-04 7.91840E-14-3.59182E-13
 -1       119 1.99903E+01-6.27500E-04-1.77941E-03-3.66919E-04-5.58762E-14-9.52972E-13
 -1       120 1.99920E+01 8.39180E-04 9.54896E-04-2.18099E-03 2.49407E-13-8.30834E-13
 -1       121 2.00000E+01-7.48329E-03 5.78275E-04-2.88785E-03-6.73576E-13 9.45119E-14
 -1       122 1.99988E+01-7.36474E-03-2.04202E-03-8.33358E-04 8.55985E-13 3.47933E-13
 -1       123 1.99989E+01 1.81346E-02-1.93243E-03 6.80872E-04 2.08024E-12 2.70206E-13
 -1       124 1.99994E+01 6.26003E-02-9.87665E-04 1.52482E-03 3.05187E-12-5.69075E-14
 -1       125 2.00000E+01 1.15947E-01 7.30446E-05 1.77481E-03 2.41544E-12-1.98236E-13
 -1       126 2.00006E+01 1.66612E-01 9.67095E-04 1.59807E-03 8.77846E-13-1.06922E-13
 -1       127 2.00010E+01 2.06763E-01 1.60570E-03 1.08669E-03 6.55383E-13 1.31905E-13
 -1       128 2.00012E+01 2.28498E-01 1.93152E-03 3.80170E-04 4.35257E-13-8.26616E-14
 -1       129 2.00012E+01 2.28188E-01 1.91866E-03-3.86573E-04-2.56824E-13 2.29547E-13
 -1       130 2.00009E+01 2.05976E-01 1.57388E-03-1.07953E-03-1.32290E-14-4.70740E-13
 -1       131 2.00005E+01 1.65718E-01 9.25977E-04-1.58410E-03-3.57466E-13-6.04563E-14
 -1       132 2.00000E+01 1.15354E-01 5.81884E-05-1.73930E-03-1.20990E-12 9.19854E-14
 -1       133 1.99994E+01 6.25543E-02-9.63067E-04-1.48266E-03-1.35164E-12-2.13148E-14
 -1       134 1.99988E+01 1.83996E-02-1.98094E-03-8.02466E-04-4.66663E-13 4.19610E-14
 -1       135 1.99991E+01-6.43448E-03-1.80310E-03 1.07780E-03-3.21238E-14-1.62038E-13
 -1       136 1.99992E+01-7.05019E-03 5.84845E-04 4.32503E-03-3.90363E-13-4.95703E-14
 -1       137-1.47033E+00-1.90578E+01-3.02419E+00-3.75291E+00 1.87550E-12 3.64569E-13
 -1       138-1.51557E+00-7.59049E+00-2.22911E+00-2.82742E+00 2.16682E-12 1.01316E-12
 -1       139 3.74779E+00 4.27029E+00-1.00201E+00 4.25416E+00 2.12069E-12 1.57496E-12
 -1       140 1.63878E+01 1.05295E+01 4.07675E-01 1.30579E+01 2.08489E-12 2.54452E-12
 -1       141 3.55776E+01 9.85119E+00 1.83173E+00 1.82604E+01 1.46810E-12 2.44765E-12
 -1       142 5.53559E+01 4.79505E+00 3.02812E+00 1.47116E+01 4.10963E-13 1.28320E-12
 -1       143 6.62260E+01 1.17156E+00 3.63181E+00 3.25584E+00 2.67460E-14-2.30704E-13
 -1       144 6.21172E+01 2.66152E+00 3.44263E+00-1.03072E+01 3.41785E-13-1.68110E-12
 -1       145 4.43571E+01 7.90026E+00 2.42904E+00-1.78634E+01 1.11769E-12-2.67947E-12
 -1       146 2.41354E+01 1.10684E+01 1.05017E+00-1.60773E+01 1.66900E-12-2.42384E-12
 -1       147 7.39405E+00 7.35540E+00-5.10639E-01-7.51597E+00 1.86456E-12-1.64263E-12
 -1       148-7.10515E-01-3.64015E+00-1.89608E+00 1.18640E+00 1.83092E-12-9.99284E-13
 -1       149-1.75128E+00-1.57297E+01-2.82959E+00 4.26319E+00 9.44189E-13-2.76251E-13
 -1       150-8.49924E-01-2.35355E+01-3.29570E+00 2.04661E+00 4.30211E-15-5.15803E-14
 -1       151-1.04064E+00-2.27777E+01-3.23211E+00-2.48052E+00-2.22888E-12-4.71208E-13
 -1       152-1.63931E+00-1.31334E+01-2.59090E+00-3.65379E+00-3.44796E-12-1.12456E-12
 -1       153 3.12528E-01-8.73133E-01-1.56789E+00 3.59860E-01-3.23741E-12-1.95083E-12
 -1       154 9.94640E+00 8.80661E+00-1.55423E-01 9.38606E+00-2.76251E-12-2.69684E-12
 -1       155 2.72877E+01 1.09872E+01 1.30508E+00 1.69712E+01-1.85013E-12-2.80748E-12
 -1       156 4.67559E+01 7.14297E+00 2.54032E+00 1.73185E+01-8.73024E-13-2.13157E-12
 -1       157 6.26433E+01 2.18373E+00 3.40710E+00 8.16246E+00-1.34438E-13-6.36602E-13
 -1       158 6.41564E+01 1.56087E+00 3.46437E+00-5.68989E+00-4.04538E-14 7.24365E-13
 -1       159 3.23392E+01 1.03682E+01 1.63544E+00-1.78842E+01-1.49281E-12 2.53508E-12
 -1       160 1.41276E+01 1.01443E+01 2.58273E-01-1.18623E+01-2.48879E-12 2.66770E-12
 -1       161 2.31464E+00 2.81113E+00-1.16825E+00-2.85897E+00-2.42451E-12 1.84541E-12
 -1       162-1.54297E+00-9.00242E+00-2.30460E+00 3.10181E+00-1.55376E-12 6.24834E-13
 -1       163-1.30245E+00-1.99576E+01-3.05962E+00 3.68016E+00 9.84213E-14 2.48239E-14
 -1       164 2.09900E+01 3.68884E+00-5.72124E-02-3.60087E+00-3.99222E-13 1.35274E-13
 -1       165 1.99833E+01 4.20611E+00-4.57713E-02-2.79868E+00-3.56209E-13-2.85921E-13
 -1       166 1.95152E+01 4.47785E+00-3.12094E-02-2.18554E+00-2.75032E-13-5.25835E-13
 -1       167 1.92799E+01 4.62045E+00-2.33755E-02-1.66437E+00-2.04102E-13-6.50367E-13
 -1       168 1.91536E+01 4.70565E+00-1.94079E-02-1.20990E+00-1.34952E-13-6.97575E-13
 -1       169 1.90819E+01 4.75949E+00-1.72974E-02-7.85183E-01-5.78490E-14-7.06126E-13
 -1       170 1.90457E+01 4.78918E+00-1.62744E-02-3.83236E-01 1.29120E-14-6.97419E-13
 -1       171 1.90351E+01 4.79834E+00-1.59792E-02 8.15944E-03 7.79068E-14-6.77482E-13
 -1       172 1.90475E+01 4.78789E+00-1.63162E-02 3.99899E-01 1.38032E-13-6.55283E-13
 -1       173 1.90859E+01 4.75648E+00-1.73796E-02 8.02940E-01 1.92673E-13-6.16615E-13
 -1       174 1.91583E+01 4.70122E+00-1.95598E-02 1.22222E+00 2.45242E-13-5.48146E-13
 -1       175 1.92896E+01 4.61048E+00-2.38848E-02 1.68785E+00 3.25261E-13-4.27753E-13
 -1       176 1.95289E+01 4.46080E+00-3.27171E-02 2.21621E+00 3.83370E-13-2.44681E-13
 -1       177 2.00065E+01 4.18151E+00-4.70365E-02 2.83713E+00 4.25192E-13 6.74356E-14
 -1       178 2.11106E+01 3.45928E+00-5.96218E-02 3.52783E+00 3.96795E-13 6.12572E-13
 -1       179 2.23781E+01 1.14217E+00-3.35861E-01 3.00817E+00 2.80251E-13 1.31517E-12
 -1       180 2.19364E+01 8.57164E-01 7.06061E-04-1.95306E+00-3.60451E-13 6.59573E-13
 -1       181 2.04189E+01 1.90549E-01-9.85196E-03-7.58522E-01-3.17574E-13 4.94414E-13
 -1       182 1.96519E+01 1.02524E-01 1.36755E-02-2.78451E-01-2.32498E-13 3.54701E-13
 -1       183 1.93238E+01 4.87973E-02 1.01117E-02-5.72283E-02-1.38037E-13 2.06795E-13
 -1       184 1.92110E+01 2.51133E-02 5.33501E-03 5.58095E-02-1.14239E-13 9.50691E-14
 -1       185 1.92224E+01 1.32410E-02 2.68389E-03 1.16950E-01-1.24074E-13 5.25918E-14
 -1       186 1.93068E+01 7.30901E-03 1.46792E-03 1.51310E-01-7.62438E-14 9.00842E-15
 -1       187 1.94364E+01 4.88572E-03 9.33014E-04 1.72491E-01-8.77003E-14-7.71531E-14
 -1       188 1.95971E+01 4.76951E-03 7.08423E-04 1.88820E-01-4.99217E-14-8.64850E-14
 -1       189 1.97832E+01 6.25106E-03 6.38425E-04 2.05815E-01-6.71372E-14-1.10504E-13
 -1       190 1.99942E+01 8.81363E-03 6.48240E-04 2.27211E-01-4.46349E-14-2.36249E-13
 -1       191 2.02332E+01 1.19681E-02 6.86020E-04 2.55309E-01-3.64613E-14-2.95176E-13
 -1       192 2.05050E+01 1.51181E-02 7.00782E-04 2.90915E-01-1.53919E-15-3.26367E-13
 -1       193 2.08145E+01 1.74125E-02 6.33649E-04 3.32919E-01-3.59704E-14-2.88725E-13
 -1       194 2.11642E+01 1.75726E-02 4.16401E-04 3.77479E-01-1.33438E-13-3.29501E-13
 -1       195 2.15513E+01 1.37195E-02-2.00427E-05 4.16799E-01-1.29605E-13-3.54382E-13
 -1       196 2.19642E+01 3.30278E-03-7.20655E-04 4.37658E-01 2.00388E-14-3.56414E-13
 -1       197 2.23778E+01-1.66156E-02-1.65922E-03 4.20257E-01-3.21742E-15-3.12203E-13
 -1       198 2.27492E+01-4.82456E-02-2.67733E-03 3.38796E-01-5.46158E-14-3.11654E-13
 -1       199 2.30158E+01-9.05062E-02-3.44915E-03 1.66452E-01 1.92927E-14-3.23272E-13
 -1       200 2.30998E+01-1.34834E-01-3.54668E-03-1.11684E-01 8.30000E-14-2.60242E-13
 -1       201 2.29255E+01-1.61161E-01-2.68400E-03-4.76018E-01-1.00470E-13-2.14176E-13
 -1       202 2.24533E+01-1.39797E-01-1.01583E-03-8.47058E-01-4.40871E-14-9.38754E-14
 -1       203 2.17276E+01-4.77198E-02 9.18624E-04-1.08092E+00 1.49439E-13-8.18208E-14
 -1       204 2.09137E+01 1.02110E-01 2.26214E-03-1.01948E+00 8.09337E-14-6.95503E-14
 -1       205 2.02753E+01 2.44808E-01 2.84594E-03-5.97850E-01 8.30620E-14-1.01397E-13
 -1       206 2.00633E+01 2.96664E-01 3.06598E-03 6.50294E-02-1.08368E-13-2.18854E-13
 -1       207 2.03690E+01 2.23226E-01 3.20346E-03 7.01180E-01-1.32406E-13-1.97973E-13
 -1       208 2.10629E+01 7.26273E-02 2.70391E-03 1.05968E+00-8.92882E-14-2.76171E-13
 -1       209 2.18804E+01-6.98323E-02 9.76477E-04 1.05766E+00-2.41337E-13-3.05967E-13
 -1       210 2.25706E+01-1.48115E-01-1.27205E-03 7.86576E-01-2.12213E-14-2.47871E-13
 -1       211 2.29922E+01-1.58111E-01-2.98122E-03 4.09172E-01 1.17744E-14-1.68097E-13
 -1       212 2.31204E+01-1.26133E-01-3.68314E-03 5.92110E-02 1.95960E-13-3.47913E-13
 -1       213 2.30058E+01-8.07256E-02-3.36130E-03-1.96217E-01 5.86315E-15-4.86153E-13
 -1       214 2.27273E+01-3.97344E-02-2.44128E-03-3.45891E-01-5.49096E-14-3.04494E-13
 -1       215 2.23615E+01-9.93096E-03-1.36907E-03-4.08269E-01 1.03327E-13-3.89231E-13
 -1       216 2.19684E+01 8.50660E-03-4.32009E-04-4.10501E-01 1.23495E-13-4.61740E-13
 -1       217 2.15885E+01 1.80573E-02 2.46260E-04-3.77303E-01 8.79684E-14-2.83295E-13
 -1       218 2.12453E+01 2.16169E-02 6.59244E-04-3.27090E-01-8.50033E-14-3.27395E-13
 -1       219 2.09496E+01 2.15829E-02 8.58069E-04-2.71918E-01-2.03872E-13-3.46614E-13
 -1       220 2.07038E+01 1.96605E-02 9.08705E-04-2.18824E-01-6.34623E-14-6.37226E-13
 -1       221 2.05055E+01 1.69589E-02 8.70029E-04-1.71332E-01 2.25261E-13-5.63213E-13
 -1       222 2.03496E+01 1.41613E-02 7.85742E-04-1.30697E-01 1.45226E-13-2.31963E-13
 -1       223 2.02302E+01 1.16758E-02 6.83534E-04-9.67707E-02 4.31781E-13-1.66639E-13
 -1       224 2.01416E+01 9.72780E-03 5.71298E-04-6.85914E-02 2.11404E-13-9.82001E-14
 -1       225 2.00786E+01 8.45756E-03 4.41999E-04-4.47878E-02-1.01270E-13-1.44898E-13
 -1       226 2.00370E+01 7.71600E-03 3.37204E-04-2.39977E-02 1.20921E-13-1.60810E-13
 -1       227 2.00119E+01 6.68740E-03 2.59923E-04-6.04140E-03 3.89398E-14-3.03309E-14
 -1       228 2.09279E+01 2.76830E-01-5.12028E-02 1.16029E+00 2.95795E-13 1.14473E-12
 -1       229 1.98402E+01 1.27102E-01 8.37606E-03 4.38427E-01 2.21311E-13 9.16847E-13
 -1       230 1.93429E+01 5.88105E-02 1.28091E-02 1.43546E-01 1.71603E-13 7.14483E-13
 -1       231 1.91463E+01 2.90461E-02 7.73330E-03 7.38535E-04 1.34529E-13 5.78280E-13
 -1       232 1.91160E+01 1.51218E-02 3.96818E-03-7.40017E-02 8.32355E-14 4.91239E-13
 -1       233 1.91807E+01 8.10987E-03 2.09934E-03-1.14671E-01 2.80962E-14 3.91769E-13
 -1       234 1.93018E+01 4.76665E-03 1.25309E-03-1.38042E-01 6.10083E-14 3.31056E-13
 -1       235 1.94592E+01 3.70188E-03 8.56606E-04-1.53725E-01 8.89213E-14 3.06178E-13
 -1       236 1.96442E+01 4.23140E-03 6.62591E-04-1.67988E-01 2.61067E-14 2.29176E-13
 -1       237 1.98553E+01 5.96860E-03 5.71329E-04-1.85312E-01 7.25799E-14 2.23233E-13
 -1       238 2.00964E+01 8.65536E-03 5.32314E-04-2.09082E-01 1.05324E-13 1.60885E-13
 -1       239 2.03750E+01 1.20594E-02 5.05904E-04-2.41829E-01 9.56356E-14 4.38944E-14
 -1       240 2.07009E+01 1.58711E-02 4.49173E-04-2.85160E-01 2.88024E-14-1.51103E-14
 -1       241 2.10848E+01 1.95596E-02 3.10915E-04-3.39297E-01 1.94434E-14 2.62663E-14
 -1       242 2.15355E+01 2.21519E-02 3.57123E-05-4.02092E-01-1.07345E-13 5.05698E-14
 -1       243 2.20567E+01 2.19133E-02-4.13411E-04-4.67267E-01 2.05151E-14 1.14485E-13
 -1       244 2.26404E+01 1.59596E-02-9.99746E-04-5.21728E-01 7.75283E-14 4.14415E-14
 -1       245 2.32589E+01 4.40772E-05-1.51215E-03-5.42143E-01-3.75733E-14 5.28067E-14
 -1       246 2.38547E+01-3.07728E-02-1.48389E-03-4.92388E-01-1.62555E-13 1.17257E-13
 -1       247 2.43307E+01-7.91686E-02-2.65449E-04-3.26287E-01-1.85504E-13 2.34261E-13
 -1       248 2.45522E+01-1.39058E-01 2.45822E-03-3.77143E-03 4.15002E-14 2.91461E-13
 -1       249 2.43733E+01-1.86277E-01 5.79926E-03 4.71368E-01 1.82160E-13 2.89940E-13
 -1       250 2.37032E+01-1.74256E-01 6.47193E-03 9.95291E-01 5.35132E-14 2.31010E-13
 -1       251 2.26142E+01-5.73988E-02 8.09578E-04 1.33002E+00-1.15043E-13 3.30312E-13
 -1       252 2.14309E+01 1.44295E-01-9.85641E-03 1.19671E+00-2.50425E-14 3.61889E-13
 -1       253 2.06578E+01 3.16919E-01-1.81649E-02 5.12732E-01 7.49375E-14 2.39287E-13
 -1       254 2.06928E+01 3.29990E-01-1.55055E-02-4.38728E-01 1.98284E-13 7.21940E-14
 -1       255 2.15223E+01 1.72373E-01-3.94469E-03-1.16075E+00-7.82399E-14-8.69617E-14
 -1       256 2.27259E+01-3.10680E-02 6.26580E-03-1.34006E+00 4.05819E-14-1.06184E-13
 -1       257 2.37999E+01-1.59772E-01 8.65869E-03-1.03636E+00 1.71183E-13-3.52322E-14
 -1       258 2.44388E+01-1.84931E-01 5.26264E-03-5.20699E-01-1.83311E-13-3.88643E-15
 -1       259 2.45880E+01-1.44861E-01 7.26030E-04-3.76345E-02-9.80219E-14-6.85129E-14
 -1       260 2.43489E+01-8.63701E-02-2.07714E-03 2.96765E-01 6.17479E-14 3.26809E-14
 -1       261 2.38705E+01-3.65549E-02-2.78150E-03 4.72185E-01-7.89646E-15 2.15221E-13
 -1       262 2.32855E+01-3.44961E-03-2.22393E-03 5.26854E-01 2.98902E-13 9.05903E-14
 -1       263 2.26879E+01 1.47055E-02-1.27218E-03 5.06936E-01 3.18861E-14-1.11298E-13
 -1       264 2.21336E+01 2.24873E-02-4.18335E-04 4.49193E-01-6.66236E-14 1.52419E-13
 -1       265 2.16500E+01 2.41003E-02 1.70789E-04 3.77728E-01 1.27688E-13 6.21020E-15
 -1       266 2.12453E+01 2.25141E-02 5.03299E-04 3.06303E-01-1.14014E-13-1.01441E-13
 -1       267 2.09170E+01 1.95580E-02 6.46985E-04 2.41707E-01-1.33765E-13 2.52639E-13
 -1       268 2.06572E+01 1.62588E-02 6.72409E-04 1.86538E-01 1.21083E-13 1.75340E-13
 -1       269 2.04559E+01 1.31510E-02 6.32894E-04 1.41070E-01-8.99658E-14 4.37665E-13
 -1       270 2.03031E+01 1.04992E-02 5.62105E-04 1.04378E-01 5.04480E-14 4.85295E-13
 -1       271 2.01900E+01 8.40965E-03 4.70811E-04 7.49518E-02 6.33853E-14 1.13573E-13
 -1       272 2.01090E+01 6.91822E-03 3.49783E-04 5.11156E-02-4.48598E-14 2.02272E-13
 -1       273 2.00543E+01 6.07200E-03 1.99008E-04 3.11420E-02 1.19280E-13 3.14756E-13
 -1       274 2.00213E+01 5.71926E-03 2.08905E-04 1.36249E-02 2.20674E-13 4.98280E-13
 -1       275 2.00050E+01 3.42721E-03 5.19641E-04-3.26710E-04 9.29561E-14 2.63260E-13
 -1       276 2.00067E+01 1.19811E-02 2.32356E-04 7.03525E-03 5.24330E-13 1.09342E-12
 -1       277 2.00067E+01 3.42214E-02 6.37549E-05 2.32162E-02 6.16526E-13 6.36009E-13
 -1       278 2.00041E+01 6.72217E-02 1.90663E-05 3.64603E-02 6.26071E-13 5.18593E-13
 -1       279 2.00008E+01 1.06713E-01-1.56829E-05 4.24490E-02 5.98770E-13-4.14062E-13
 -1       280 1.99976E+01 1.46007E-01-9.84261E-05 4.05563E-02 4.49562E-13-8.92900E-13
 -1       281 1.99950E+01 1.80133E-01-1.76710E-04 3.14405E-02 3.80883E-13-4.08869E-13
 -1       282 1.99933E+01 2.02844E-01-2.35519E-04 1.69626E-02 1.16861E-13-7.98626E-14
 -1       283 1.99928E+01 2.10578E-01-2.56008E-04-2.87826E-04 1.44191E-14-5.15539E-13
 -1       284 1.99934E+01 2.02158E-01-2.34246E-04-1.74249E-02-2.32165E-13 1.80976E-13
 -1       285 1.99951E+01 1.78959E-01-1.74784E-04-3.16151E-02 3.89002E-14-2.32298E-13
 -1       286 1.99977E+01 1.45359E-01-8.98645E-05-4.03100E-02-1.40665E-13-4.44923E-13
 -1       287 2.00008E+01 1.05559E-01-1.48292E-05-4.20739E-02-6.06632E-14-2.63653E-13
 -1       288 2.00040E+01 6.63914E-02 1.91068E-05-3.59823E-02-2.01840E-13 4.28658E-13
 -1       289 2.00066E+01 3.44688E-02 1.90407E-04-2.31760E-02-5.73303E-14 2.67676E-13
 -1       290 2.00116E+01 1.96822E-02 1.87178E-04-1.56963E-02-1.61357E-13-2.46610E-13
 -1       291-3.34345E-01-8.65093E+00-6.31475E-01 1.58932E+00 1.43913E-13 2.76335E-13
 -1       292 2.92488E+00-8.33635E+00-8.04566E-01 3.34318E+00 8.18623E-13 7.24761E-13
 -1       293 1.01878E+01-4.81825E+00-4.70388E-01 5.68634E+00 9.52988E-13 7.16011E-13
 -1       294 1.92095E+01-8.07624E-01-1.00246E-01 7.13898E+00 8.78603E-13 1.24128E-12
 -1       295 2.95913E+01 2.50223E+00 3.40845E-01 7.47688E+00 8.29725E-13 7.87315E-13
 -1       296 3.92018E+01 4.89828E+00 7.29697E-01 6.07926E+00 9.08708E-13 6.18450E-13
 -1       297 4.26766E+01 6.81349E+00 6.57672E-01 1.74347E+00 8.18692E-13 3.70107E-13
 -1       298 4.61340E+01 6.80197E+00 9.62786E-01-1.01076E+00 7.47458E-13-5.27217E-14
 -1       299 4.11159E+01 5.69451E+00 6.87575E-01-3.63657E+00 7.18731E-13-5.16337E-13
 -1       300 3.38841E+01 3.64280E+00 5.26656E-01-7.16880E+00 5.71043E-13-1.08613E-12
 -1       301 2.31901E+01 7.03851E-01 7.26299E-02-7.49889E+00 6.27359E-13-9.35085E-13
 -1       302 1.30482E+01-3.55026E+00-3.57360E-01-6.25215E+00 4.86861E-13-6.24029E-13
 -1       303 4.77539E+00-7.31912E+00-7.31473E-01-4.06742E+00 2.62151E-13-6.63656E-13
 -1       304 2.44108E-01-9.66955E+00-8.65418E-01-2.07503E+00-1.36044E-13-5.15643E-13
 -1       305-1.27630E+00-1.09855E+01-9.86249E-01 2.27010E-01-6.36106E-13-1.04600E-12
 -1       306 1.47152E+00-8.02970E+00-5.66705E-01 3.36781E+00-7.73270E-13-8.84542E-13
 -1       307 6.23564E+00-6.35778E+00-6.19306E-01 4.71862E+00-1.41342E-12-7.74127E-13
 -1       308 1.48576E+01-2.64677E+00-2.54315E-01 6.69918E+00-1.33304E-12-1.19951E-12
 -1       309 2.52147E+01 1.08270E+00 1.57389E-01 7.39215E+00-1.32377E-12-1.10281E-12
 -1       310 3.49413E+01 4.17077E+00 5.63229E-01 7.00651E+00-1.12345E-12-1.19632E-12
 -1       311 4.13278E+01 6.07986E+00 6.79035E-01 3.42618E+00-9.85212E-13-5.41955E-13
 -1       312 4.34299E+01 7.32164E+00 6.84621E-01 2.68946E-01-6.48842E-13-3.24902E-13
 -1       313 4.29804E+01 6.36734E+00 7.79280E-01-3.08805E+00-6.67563E-13 1.50102E-13
 -1       314 3.73855E+01 4.76451E+00 6.66690E-01-6.59464E+00-7.74766E-13 4.91829E-13
 -1       315 2.80294E+01 1.62630E+00 2.30315E-01-6.99343E+00-6.63913E-13 5.94580E-13
 -1       316 1.73336E+01-1.08619E+00-1.45653E-01-7.11165E+00-5.65520E-13 8.81933E-13
 -1       317 8.48155E+00-5.08430E+00-5.46629E-01-5.29895E+00-3.49387E-13 9.43828E-13
 -1       318 2.49750E+00-8.36499E+00-7.66151E-01-3.46245E+00-2.57294E-14 8.68527E-13
 -1       319-8.52341E-01-1.06832E+01-9.60508E-01-1.09878E+00 2.32786E-13 2.65191E-13
 -1       320 2.01373E+01 3.00319E+00-2.18969E-02-2.08361E+00-3.61125E-13-2.76524E-13
 -1       321 2.07440E+01 2.20748E+00-1.75743E-02-2.35314E+00-4.22772E-13-7.18869E-15
 -1       322 1.95971E+01 3.70418E+00-1.55398E-02-1.30337E+00-1.96174E-13-5.04242E-13
 -1       323 1.94756E+01 3.86619E+00-1.36343E-02-9.12210E-01-1.10717E-13-5.30302E-13
 -1       324 1.94071E+01 3.96075E+00-1.26262E-02-5.36425E-01-2.65245E-14-5.27293E-13
 -1       325 1.93766E+01 4.00407E+00-1.21976E-02-1.70754E-01 5.32893E-14-5.18161E-13
 -1       326 1.93780E+01 4.00243E+00-1.22157E-02 1.91575E-01 1.25132E-13-5.09503E-13
 -1       327 1.94115E+01 3.95546E+00-1.26723E-02 5.57600E-01 1.93213E-13-4.83772E-13
 -1       328 1.94819E+01 3.85841E+00-1.36987E-02 9.27692E-01 2.61395E-13-4.34943E-13
 -1       329 1.96071E+01 3.69114E+00-1.56034E-02 1.31938E+00 3.49984E-13-3.38012E-13
 -1       330 1.98180E+01 3.41706E+00-1.87895E-02 1.72411E+00 4.28358E-13-2.04475E-13
 -1       331 2.01800E+01 2.95753E+00-2.28678E-02 2.11370E+00 4.65955E-13-1.71660E-14
 -1       332 2.07357E+01 2.12890E+00-3.03717E-02 2.31133E+00 4.59804E-13 3.43690E-13
 -1       333 2.10716E+01 1.18701E+00-2.48130E-02 1.91383E+00 3.96244E-13 6.54215E-13
 -1       334 2.03743E+01 4.90452E-01 8.40029E-03 9.18068E-01 3.28425E-13 5.07763E-13
 -1       335 2.04495E+01 6.77905E-01 1.26183E-02-1.01159E+00-3.40451E-13 6.95986E-14
 -1       336 2.00368E+01 3.42737E-01 7.16874E-03-4.39105E-01-2.51613E-13 5.12635E-14
 -1       337 1.97957E+01 1.85924E-01 4.20882E-03-1.21183E-01-1.74478E-13 2.25896E-14
 -1       338 1.96791E+01 1.04129E-01 2.05389E-03 6.32069E-02-1.46846E-13-4.13350E-14
 -1       339 1.96499E+01 6.03150E-02 1.01226E-03 1.73003E-01-1.51593E-13-3.73693E-14
 -1       340 1.96806E+01 3.79388E-02 5.63262E-04 2.41483E-01-1.22978E-13-8.67926E-14
 -1       341 1.97533E+01 2.89572E-02 3.88582E-04 2.88939E-01-7.14772E-14-1.35704E-13
 -1       342 1.98575E+01 2.89169E-02 3.50942E-04 3.28572E-01-5.78959E-14-1.10734E-13
 -1       343 1.99879E+01 3.49331E-02 3.89971E-04 3.69268E-01-8.64183E-14-1.33187E-13
 -1       344 2.01430E+01 4.47058E-02 4.69236E-04 4.16840E-01-9.52606E-14-1.80139E-13
 -1       345 2.03236E+01 5.58914E-02 5.55160E-04 4.74418E-01-3.49598E-14-1.67095E-13
 -1       346 2.05318E+01 6.55550E-02 6.07590E-04 5.42205E-01 3.01959E-14-9.55026E-14
 -1       347 2.07698E+01 6.95904E-02 5.74064E-04 6.16685E-01-6.21539E-14-8.54934E-14
 -1       348 2.10390E+01 6.21259E-02 3.87369E-04 6.89255E-01-1.76908E-13-1.04031E-13
 -1       349 2.13385E+01 3.51238E-02-2.96463E-05 7.44409E-01-6.68580E-14-1.12826E-13
 -1       350 2.16634E+01-2.12546E-02-7.43899E-04 7.57870E-01 1.71052E-14-1.01296E-13
 -1       351 2.20033E+01-1.16337E-01-1.76509E-03 6.95836E-01 3.99612E-14-1.36644E-13
 -1       352 2.23386E+01-2.52829E-01-2.97137E-03 5.17835E-01 5.48476E-15-7.91347E-14
 -1       353 2.26365E+01-4.15266E-01-4.04578E-03 1.87481E-01 6.52184E-14-2.32398E-14
 -1       354 2.28454E+01-5.54687E-01-4.51359E-03-3.03590E-01 7.14643E-14 3.84061E-14
 -1       355 2.28964E+01-5.80832E-01-4.00726E-03-8.97272E-01 3.18070E-14 1.32469E-13
 -1       356 2.27243E+01-3.87152E-01-2.55462E-03-1.43051E+00 9.56459E-14 1.92383E-13
 -1       357 2.23272E+01 6.55559E-02 1.01690E-04-1.64586E+00 8.77542E-14 1.66792E-13
 -1       358 2.18391E+01 6.41602E-01 3.24055E-03-1.31266E+00 8.83516E-14-2.16136E-14
 -1       359 2.15105E+01 1.03862E+00 4.65044E-03-4.39583E-01-2.29448E-14-9.52182E-14
 -1       360 2.15485E+01 9.95725E-01 4.99773E-03 6.33250E-01-9.86793E-14-8.23273E-14
 -1       361 2.19292E+01 5.41077E-01 3.83813E-03 1.42213E+00-8.93389E-14-6.39532E-14
 -1       362 2.24193E+01-3.37338E-02 3.13264E-04 1.64423E+00-4.18464E-14 5.94832E-14
 -1       363 2.27818E+01-4.43959E-01-3.10569E-03 1.35128E+00-4.17982E-14 2.90801E-13
 -1       364 2.29127E+01-5.90234E-01-4.86144E-03 7.92667E-01-6.39679E-17 2.93545E-13
 -1       365 2.28315E+01-5.33449E-01-5.22423E-03 2.13164E-01-1.50514E-13 1.77772E-13
 -1       366 2.26076E+01-3.81809E-01-4.29582E-03-2.45000E-01 4.76680E-14-4.67982E-14
 -1       367 2.23083E+01-2.19393E-01-2.86428E-03-5.38942E-01-2.41124E-14-5.24987E-14
 -1       368 2.19816E+01-8.79129E-02-1.49617E-03-6.84609E-01-3.82951E-14 1.70572E-15
 -1       369 2.16584E+01 1.73356E-03-4.25560E-04-7.20167E-01 8.05291E-14 5.10263E-15
 -1       370 2.13566E+01 5.42070E-02 2.90829E-04-6.85109E-01 8.09286E-14-2.32851E-13
 -1       371 2.10861E+01 7.92253E-02 6.96404E-04-6.11384E-01 9.93998E-14-4.41661E-13
 -1       372 2.08514E+01 8.62983E-02 8.72286E-04-5.21528E-01-1.21657E-13-1.19606E-13
 -1       373 2.06531E+01 8.28757E-02 8.98818E-04-4.29848E-01-1.45666E-13 3.78985E-14
 -1       374 2.04894E+01 7.41622E-02 8.40296E-04-3.44446E-01-2.06164E-15 3.06730E-14
 -1       375 2.03572E+01 6.35391E-02 7.41990E-04-2.69153E-01 1.78035E-13-1.26316E-13
 -1       376 2.02526E+01 5.31034E-02 6.32962E-04-2.05031E-01 3.55661E-13 2.83958E-14
 -1       377 2.01715E+01 4.40860E-02 5.31295E-04-1.51433E-01 3.50934E-13-1.75569E-13
 -1       378 2.01102E+01 3.68580E-02 4.25534E-04-1.06863E-01-1.01997E-13-1.18359E-13
 -1       379 2.00647E+01 3.19843E-02 4.21477E-04-6.93890E-02 3.14368E-14-3.39332E-14
 -1       380 2.00344E+01 2.63922E-02 2.39945E-04-3.98267E-02-4.52961E-14-8.77073E-14
 -1       381 1.98817E+01 2.31355E-01 1.08664E-02 3.85885E-01 2.86193E-13 4.06037E-13
 -1       382 1.96059E+01 1.20270E-01 6.28671E-03 1.00909E-01 2.17512E-13 2.77582E-13
 -1       383 1.94899E+01 6.51177E-02 2.97385E-03-5.76599E-02 1.21386E-13 2.02804E-13
 -1       384 1.94767E+01 3.64936E-02 1.41577E-03-1.48627E-01 9.08927E-14 1.47067E-13
 -1       385 1.95300E+01 2.21964E-02 7.77495E-04-2.03480E-01 7.24814E-14 1.20867E-13
 -1       386 1.96282E+01 1.67197E-02 5.38677E-04-2.40569E-01 1.17561E-13 1.01028E-13
 -1       387 1.97598E+01 1.72843E-02 4.87660E-04-2.71761E-01 1.07490E-13 7.17099E-14
 -1       388 1.99199E+01 2.22974E-02 5.44565E-04-3.05361E-01 6.15629E-14 9.38587E-14
 -1       389 2.01087E+01 3.06869E-02 6.70801E-04-3.47454E-01 1.05788E-13 5.74693E-14
 -1       390 2.03297E+01 4.15068E-02 8.34435E-04-4.02445E-01 1.41898E-13-1.10645E-14
 -1       391 2.05885E+01 5.35749E-02 9.95582E-04-4.73030E-01 2.65342E-14-4.61990E-14
 -1       392 2.08916E+01 6.50053E-02 1.09535E-03-5.59584E-01 2.68857E-14-3.70325E-14
 -1       393 2.12449E+01 7.25360E-02 1.04555E-03-6.58789E-01-3.62068E-14-8.46722E-14
 -1       394 2.16516E+01 7.06078E-02 7.24188E-04-7.61248E-01-7.93723E-15-1.37050E-13
 -1       395 2.21094E+01 5.03353E-02-1.01936E-05-8.47921E-01 7.13824E-14-3.82705E-14
 -1       396 2.26068E+01-9.30290E-04-1.26312E-03-8.85688E-01 1.30657E-14 7.15966E-14
 -1       397 2.31184E+01-9.74191E-02-2.95602E-03-8.23950E-01-1.93307E-13 3.79328E-14
 -1       398 2.35985E+01-2.46386E-01-4.75195E-03-5.97734E-01-1.30809E-13 9.80184E-15
 -1       399 2.39752E+01-4.29395E-01-5.93039E-03-1.47688E-01-3.85508E-14 1.05609E-13
 -1       400 2.41494E+01-5.76759E-01-5.88064E-03 5.31273E-01 1.11895E-13 1.37413E-13
 -1       401 2.40125E+01-5.53612E-01-4.05145E-03 1.31397E+00-1.40257E-14 2.97867E-13
 -1       402 2.35041E+01-2.15009E-01-3.70719E-03 1.87751E+00-1.32897E-13 4.56879E-13
 -1       403 2.27600E+01 4.01329E-01-3.51041E-03 1.79137E+00 3.87290E-14 3.06976E-13
 -1       404 2.21537E+01 9.63292E-01-3.71402E-03 8.65844E-01 1.71601E-13 1.36609E-13
 -1       405 2.20896E+01 1.04808E+00-1.73713E-03-5.33312E-01 3.16116E-13 1.75196E-13
 -1       406 2.26238E+01 5.76943E-01 1.32312E-03-1.64156E+00 2.41820E-15 1.97046E-13
 -1       407 2.33893E+01-6.98742E-02 1.09033E-03-1.93895E+00-2.98180E-15 2.51727E-13
 -1       408 2.39716E+01-4.96821E-01-2.96014E-03-1.49841E+00 1.01144E-13 2.29473E-13
 -1       409 2.41863E+01-5.94012E-01-6.44735E-03-7.31165E-01 2.91767E-14 1.62911E-13
 -1       410 2.40645E+01-4.75468E-01-7.54471E-03-6.78288E-03-1.03257E-13-8.79383E-14
 -1       411 2.37186E+01-2.90020E-01-6.34742E-03 5.00060E-01-2.26126E-14 9.33956E-14
 -1       412 2.32567E+01-1.27314E-01-4.07876E-03 7.71257E-01 8.73562E-14 9.61514E-14
 -1       413 2.27570E+01-1.63648E-02-1.85405E-03 8.60248E-01 2.31615E-13 1.75073E-13
 -1       414 2.22696E+01 4.63130E-02-2.09001E-04 8.33607E-01 4.18266E-14 4.83558E-13
 -1       415 2.18236E+01 7.44894E-02 7.83212E-04 7.45825E-01-2.96001E-14 3.45373E-13
 -1       416 2.14331E+01 8.15527E-02 1.25537E-03 6.33811E-01 1.42136E-13 6.33251E-14
 -1       417 2.11026E+01 7.72896E-02 1.38652E-03 5.19498E-01-2.82043E-13-6.26683E-14
 -1       418 2.08302E+01 6.79096E-02 1.32525E-03 4.14319E-01-1.38470E-13 2.26681E-13
 -1       419 2.06107E+01 5.70017E-02 1.17377E-03 3.23127E-01-9.53846E-14 3.83214E-13
 -1       420 2.04375E+01 4.64896E-02 9.94640E-04 2.46966E-01-3.49864E-14 7.06831E-13
 -1       421 2.03033E+01 3.73428E-02 8.20958E-04 1.84818E-01 6.60971E-14 4.85933E-13
 -1       422 2.02015E+01 2.99929E-02 6.69749E-04 1.34610E-01 2.07858E-13 7.99377E-13
 -1       423 2.01263E+01 2.44617E-02 5.23586E-04 9.39313E-02 8.91206E-14 6.84074E-13
 -1       424 2.00723E+01 2.07762E-02 3.89024E-04 6.04548E-02-1.69746E-13 7.13736E-13
 -1       425 2.00354E+01 1.79519E-02 2.87366E-04 3.23862E-02 1.74774E-13 1.46524E-12
 -1       426 2.00190E+01 1.64288E-02 1.62368E-04 1.87426E-02 2.21540E-13 1.28130E-12
 -1       427 2.00085E+01 1.04009E-01 7.02077E-05 7.45968E-02-2.39689E-13 2.28161E-13
 -1       428 2.00202E+01 6.59730E-02 2.19539E-04 6.08505E-02 3.35415E-14 4.58709E-13
 -1       429 2.00225E+01 3.82403E-02 2.41307E-04 4.00678E-02 2.68903E-13 7.08926E-13
 -1       430 1.99962E+01 1.41659E-01-3.45610E-05 7.60956E-02-1.71902E-13-8.36386E-13
 -1       431 1.99848E+01 1.75790E-01-1.29385E-04 6.49266E-02 4.80573E-14-3.47282E-13
 -1       432 1.99763E+01 2.01133E-01-2.07926E-04 4.32181E-02 4.34006E-14-4.37810E-13
 -1       433 1.99720E+01 2.14381E-01-2.50279E-04 1.47019E-02-1.78231E-13-3.31916E-13
 -1       434 1.99722E+01 2.13808E-01-2.49814E-04-1.60243E-02-9.39085E-15-5.00586E-13
 -1       435 1.99768E+01 1.99545E-01-2.06019E-04-4.41258E-02-1.43917E-13 6.55462E-14
 -1       436 1.99852E+01 1.74096E-01-1.25821E-04-6.48828E-02-7.51735E-15-2.45764E-13
 -1       437 1.99964E+01 1.39964E-01-2.77938E-05-7.55879E-02 8.44814E-14-1.43959E-13
 -1       438 2.00087E+01 1.01894E-01 7.45883E-05-7.38881E-02 4.17909E-13 4.22800E-14
 -1       439 2.00200E+01 6.41584E-02 1.75885E-04-6.00980E-02-6.34974E-14 2.60090E-13
 -1       440 1.06105E+01-5.62628E+00-7.53401E-02 6.74833E+00 1.14034E-13 3.11778E-13
 -1       441 1.21794E+00-4.28548E+00-5.80312E-02-4.73183E-01-1.60569E-13 2.93376E-13
 -1       442 4.63009E+00-4.67451E+00-2.71779E-02 4.76696E+00-2.08625E-13 7.27238E-13
 -1       443 1.97020E+01-5.26640E+00-2.35604E-02 6.43130E+00-3.23214E-14 3.42476E-13
 -1       444 2.73559E+01-3.40902E+00-1.02178E-02 3.83275E+00 2.35263E-13 7.20812E-14
 -1       445 1.97998E+01 3.44032E+00-1.86511E-02-1.70528E+00-2.80034E-13-4.30579E-13
 -1       446 3.41912E+01 4.65953E+00-2.76327E-02-5.47737E-01 4.66571E-13 8.11018E-14
 -1       447 3.56356E+01 7.90857E+00 2.00240E-02-4.72033E-02 9.01001E-13 1.86486E-13
 -1       448 3.50413E+01 6.98361E+00 3.03043E-02 5.78329E-01 8.10324E-13 2.25861E-13
 -1       449 3.36098E+01 2.41512E+00 2.07809E-02-4.56271E-01 4.83343E-13-1.30021E-13
 -1       450 2.97065E+01-1.43002E+00 3.02139E-02-3.33935E+00 1.38070E-13-5.11258E-13
 -1       451 2.26193E+01-4.64593E+00-1.82512E-02-5.74879E+00 8.20594E-14-5.46854E-13
 -1       452 1.31332E+01-5.73025E+00-7.86063E-02-6.89431E+00-1.05083E-13-4.57460E-13
 -1       453 6.74921E+00-4.76062E+00 1.04517E-02-5.81359E+00-2.51618E-13-6.04725E-13
 -1       454 1.34640E+00-4.78823E+00-1.09849E-01-1.73624E+00-2.99490E-13-8.92009E-13
 -1       455 1.84701E+00-4.31368E+00-5.35412E-02 2.33785E+00-7.01314E-14-1.10698E-12
 -1       456 8.95981E+00-4.81759E+00 4.39175E-02 6.62428E+00-2.32828E-13-3.82652E-13
 -1       457 1.53450E+01-5.58802E+00-1.66024E-02 7.12948E+00-4.10255E-13-5.41665E-13
 -1       458 2.39456E+01-4.37337E+00-1.17668E-02 5.33137E+00-5.96426E-13-4.61312E-13
 -1       459 3.03230E+01-9.29203E-01 4.61549E-04 2.19659E+00-7.06622E-13-3.78170E-13
 -1       460 3.31233E+01 3.11789E+00-2.71396E-02 1.56023E-01-9.81847E-13-1.60774E-13
 -1       461 3.41528E+01 7.29532E+00-2.11685E-02-4.98481E-01-8.47572E-13-1.85262E-13
 -1       462 3.55031E+01 7.69654E+00 5.79239E-02 1.95084E-01-7.04603E-13-2.07348E-13
 -1       463 3.45117E+01 4.59754E+00 5.28652E-02-3.17684E-01-4.95687E-13-3.44447E-13
 -1       464 3.19342E+01 8.20776E-01 5.67884E-02-1.95409E+00-2.64165E-13-4.35013E-13
 -1       465 2.54330E+01-3.66224E+00-2.31060E-02-4.81495E+00 2.46331E-14-1.79995E-14
 -1       466 1.75719E+01-5.16716E+00-4.71085E-02-6.84675E+00 3.38563E-13 5.99437E-13
 -1       467 9.58185E+00-5.51324E+00-8.41870E-02-6.72364E+00 3.85331E-13 5.53627E-13
 -1       468 2.95377E+00-4.99686E+00-1.17376E-01-3.96332E+00-3.20854E-14 6.34354E-13
 -1       469 3.27745E+01 1.02799E+00 2.36956E-02 1.16937E+00 5.72518E-13-7.43849E-15
 -1       470 4.17655E+00-2.33964E+00 1.38020E-01 2.49533E+00-3.94591E-13 3.70037E-13
 -1       471 7.25111E+00-2.81813E+00 1.50404E-01 5.20133E+00 1.39451E-13-7.57255E-13
 -1       472 3.14428E+01 6.25989E+00-1.31132E-01-1.37213E+00 6.93556E-13-7.99430E-14
 -1       473 2.03728E+01 8.38106E-01 4.04483E-03 9.53725E-01 3.49050E-13 1.39944E-13
 -1       474 1.97444E+01 3.13455E+00-5.38041E-03-6.20464E-01-5.27970E-14-4.67532E-13
 -1       475 1.98407E+01 2.95549E+00-5.94629E-03-9.32508E-01-1.34267E-13-4.59699E-13
 -1       476 1.96754E+01 3.26283E+00-4.98891E-03 8.61586E-03 7.41642E-14-4.64201E-13
 -1       477 1.96945E+01 3.22829E+00-5.06852E-03 3.22862E-01 1.34861E-13-4.57812E-13
 -1       478 1.97492E+01 3.12740E+00-5.39849E-03 6.32011E-01 2.05125E-13-4.03071E-13
 -1       479 1.98486E+01 2.94326E+00-5.94818E-03 9.43204E-01 3.08709E-13-3.28067E-13
 -1       480 2.00030E+01 2.65086E+00-6.51783E-03 1.23669E+00 3.68070E-13-2.37765E-13
 -1       481 2.02405E+01 2.19769E+00-5.68556E-03 1.48225E+00 4.11342E-13-9.92177E-14
 -1       482 2.01202E+01 4.64546E-01 5.12437E-03 4.37974E-01 3.04537E-13 1.12903E-13
 -1       483 2.03450E+01 9.81800E-01 2.73364E-03-9.14095E-01-2.66621E-13-9.90286E-14
 -1       484 2.03920E+01 1.76091E+00-5.11060E-03-1.50465E+00-3.47274E-13-1.76691E-13
 -1       485 2.93930E+01-2.43568E+00-5.78199E-02 1.53350E-01 2.85786E-13-1.98307E-13
 -1       486 2.01813E+01 5.64237E-01 2.40820E-03-4.33276E-01-2.11272E-13-7.54091E-14
 -1       487 2.00471E+01 3.31705E-01 1.38153E-03-1.19052E-01-1.71540E-13-7.02142E-14
 -1       488 1.99638E+01 1.99040E-01 7.34504E-04 8.31348E-02-1.50477E-13-6.56610E-14
 -1       489 1.99276E+01 1.24582E-01 4.27338E-04 2.14446E-01-1.85789E-13-9.79877E-14
 -1       490 1.99296E+01 8.65802E-02 2.94997E-04 3.03896E-01-1.48931E-13-9.78322E-14
 -1       491 1.99614E+01 7.27900E-02 2.47194E-04 3.71736E-01-4.49467E-14-1.36789E-13
 -1       492 2.00172E+01 7.55625E-02 2.45740E-04 4.32185E-01-5.22544E-14-6.52227E-14
 -1       493 2.00936E+01 8.93629E-02 2.72263E-04 4.95114E-01-7.29990E-14-1.05925E-15
 -1       494 2.01893E+01 1.09301E-01 3.12553E-04 5.66868E-01-2.87169E-14 1.10092E-13
 -1       495 2.03045E+01 1.30022E-01 3.49647E-04 6.50442E-01-1.87151E-14 7.45334E-14
 -1       496 2.04413E+01 1.44652E-01 3.59178E-04 7.45081E-01-5.74811E-14-1.01238E-13
 -1       497 2.06031E+01 1.43688E-01 3.05199E-04 8.45320E-01-1.30693E-13-9.26397E-14
 -1       498 2.07955E+01 1.13999E-01 1.36840E-04 9.39463E-01-9.79917E-14 1.53341E-14
 -1       499 2.10266E+01 3.84992E-02-2.13375E-04 1.00760E+00-4.02339E-14 9.79984E-14
 -1       500 2.13076E+01-1.02151E-01-8.19922E-04 1.01953E+00 3.50320E-14 1.70684E-14
 -1       501 2.16515E+01-3.23177E-01-1.69177E-03 9.33572E-01 7.64805E-14 4.46042E-14
 -1       502 2.20665E+01-6.20851E-01-2.66733E-03 6.99072E-01 2.75542E-14 1.45076E-14
 -1       503 2.25414E+01-9.46432E-01-3.29277E-03 2.68023E-01 1.29398E-13-8.43744E-14
 -1       504 2.30210E+01-1.17436E+00-2.85973E-03-3.74096E-01 1.07846E-13 6.98321E-14
 -1       505 2.33842E+01-1.09660E+00-2.21336E-03-1.14844E+00 1.10884E-13 2.24765E-13
 -1       506 2.34694E+01-4.94369E-01-8.16406E-04-1.80621E+00 8.23408E-14 2.55125E-13
 -1       507 2.32149E+01 6.18960E-01 1.94270E-03-1.94463E+00-1.95046E-14 1.07308E-13
 -1       508 2.28049E+01 1.74975E+00-8.97813E-03-1.23749E+00 6.83733E-14 1.08317E-13
 -1       509 2.26335E+01 2.18589E+00-1.81552E-02 1.33531E-01-1.07032E-13-1.03516E-13
 -1       510 2.28911E+01 1.58637E+00-1.53361E-02 1.43430E+00-1.22623E-13-8.96774E-14
 -1       511 2.33105E+01 4.12647E-01-8.03769E-03 1.99436E+00-4.59876E-14-1.97496E-13
 -1       512 2.35220E+01-6.24189E-01-2.16306E-03 1.73459E+00 5.90000E-14-1.79809E-13
 -1       513 2.33758E+01-1.12872E+00 6.59676E-04 1.02131E+00 6.18682E-14-8.57168E-14
 -1       514 2.29733E+01-1.14230E+00-2.67189E-04 2.53866E-01-4.86565E-14-6.09064E-16
 -1       515 2.24801E+01-8.85215E-01-1.10385E-03-3.51243E-01-2.53116E-13 1.03429E-13
 -1       516 2.20096E+01-5.56811E-01-1.13350E-03-7.37209E-01 7.21951E-15-1.18919E-13
 -1       517 2.16078E+01-2.67917E-01-8.81029E-04-9.30681E-01-6.19917E-14-1.51812E-13
 -1       518 2.12808E+01-5.74485E-02-5.29429E-04-9.82614E-01-6.34026E-15-1.39580E-13
 -1       519 2.10180E+01 7.52251E-02-2.04044E-04-9.43034E-01-9.72897E-14-1.13482E-13
 -1       520 2.08063E+01 1.46405E-01 3.17027E-05-8.51604E-01 2.00211E-14-1.51688E-13
 -1       521 2.06344E+01 1.74912E-01 1.74590E-04-7.36515E-01-5.50672E-14-1.90331E-13
 -1       522 2.04943E+01 1.76707E-01 2.44618E-04-6.16217E-01-2.66900E-14-1.68547E-13
 -1       523 2.03802E+01 1.63589E-01 2.65398E-04-5.01772E-01-1.20956E-13-7.17070E-14
 -1       524 2.02875E+01 1.43592E-01 2.56682E-04-3.98991E-01 5.73474E-14 6.79079E-14
 -1       525 2.02130E+01 1.21876E-01 2.30761E-04-3.10164E-01 2.66887E-13-5.12113E-14
 -1       526 2.01537E+01 1.01645E-01 2.26261E-04-2.35362E-01 6.65362E-14-3.49664E-14
 -1       527 2.01069E+01 8.45239E-02 1.65024E-04-1.73084E-01 2.64245E-13-2.83060E-13
 -1       528 2.00706E+01 7.02316E-02 8.31992E-05-1.21358E-01 2.11274E-13 1.72666E-13
 -1       529 1.07979E+01-3.62202E+00 1.36728E-01 6.22936E+00-5.15435E-13 4.19005E-13
 -1       530 1.98493E+01 1.53309E-01 1.11231E-03-7.61992E-02 1.40753E-13 3.89896E-14
 -1       531 1.98164E+01 9.34614E-02 5.34216E-04-1.99747E-01 9.52656E-14 1.40648E-14
 -1       532 1.98314E+01 6.36963E-02 3.14394E-04-2.81767E-01 1.18863E-13-3.12342E-14
 -1       533 1.98825E+01 5.37860E-02 2.52153E-04-3.43216E-01 9.98751E-14 9.79885E-16
 -1       534 1.99621E+01 5.79466E-02 2.70125E-04-3.98736E-01 7.04320E-14 5.73236E-14
 -1       535 2.00663E+01 7.24990E-02 3.39292E-04-4.58935E-01 1.29906E-13-2.35534E-14
 -1       536 2.01939E+01 9.46296E-02 4.41465E-04-5.31536E-01 1.62399E-13-1.14693E-14
 -1       537 2.03457E+01 1.21491E-01 5.57530E-04-6.21787E-01 6.05367E-14 3.19859E-14
 -1       538 2.05242E+01 1.49249E-01 6.60488E-04-7.32221E-01 1.40279E-15-4.84501E-14
 -1       539 2.07327E+01 1.71833E-01 7.08413E-04-8.61694E-01 2.66605E-14-4.71288E-14
 -1       540 2.09758E+01 1.79241E-01 6.36858E-04-1.00352E+00-2.06269E-15-4.05518E-14
 -1       541 2.12599E+01 1.55468E-01 3.53534E-04-1.14248E+00 2.91897E-14-1.18850E-13
 -1       542 2.15944E+01 7.67711E-02-2.54662E-04-1.25061E+00-4.72237E-14-2.85608E-14
 -1       543 2.19936E+01-8.74373E-02-1.27624E-03-1.28212E+00-2.14134E-13 1.45600E-13
 -1       544 2.24755E+01-3.65134E-01-2.54887E-03-1.16919E+00-1.62422E-13 1.37642E-13
 -1       545 2.30514E+01-7.54010E-01-3.92328E-03-8.26219E-01-9.93287E-14 1.10688E-13
 -1       546 2.36985E+01-1.17057E+00-4.81570E-03-1.77458E-01-3.65584E-14 9.93417E-14
 -1       547 2.43145E+01-1.39684E+00-6.63697E-03 7.74845E-01-5.37352E-14 3.49679E-13
 -1       548 2.46918E+01-1.07465E+00-8.62239E-03 1.82789E+00-1.46525E-13 3.23062E-13
 -1       549 2.45738E+01 7.93938E-02-1.97090E-02 2.41629E+00 1.86006E-14 1.85650E-13
 -1       550 2.40862E+01 1.64119E+00-2.71907E-02 1.88990E+00 2.36557E-13 2.73668E-13
 -1       551 2.37385E+01 2.54936E+00-2.79471E-02 2.21872E-01 3.36873E-13 1.30719E-13
 -1       552 2.39701E+01 1.96167E+00-2.61309E-02-1.60295E+00 1.78323E-13 1.01125E-13
 -1       553 2.44888E+01 4.28846E-01-1.58562E-02-2.41535E+00 7.69957E-15-1.51859E-15
 -1       554 2.47101E+01-8.76454E-01-1.08977E-02-2.02801E+00-7.69803E-14-1.31447E-13
 -1       555 2.44390E+01-1.38434E+00-7.09668E-03-1.02565E+00 1.70225E-13-1.39080E-13
 -1       556 2.38584E+01-1.25084E+00-6.00370E-03-2.16579E-02-1.91560E-14 2.87547E-14
 -1       557 2.32066E+01-8.45776E-01-4.95921E-03 6.96765E-01-2.03378E-13 1.42353E-13
 -1       558 2.26161E+01-4.35138E-01-3.30265E-03 1.09524E+00 4.79778E-14 2.24326E-13
 -1       559 2.21219E+01-1.28131E-01-1.62409E-03 1.24327E+00 1.97439E-13 3.56263E-13
 -1       560 2.17161E+01 6.20030E-02-3.58059E-04 1.22769E+00 2.17441E-14 4.98003E-13
 -1       561 2.13812E+01 1.60023E-01 4.22947E-04 1.12028E+00 3.77485E-14 2.78736E-13
 -1       562 2.11025E+01 1.96988E-01 8.06644E-04 9.71183E-01 1.25487E-13 4.16505E-13
 -1       563 2.08698E+01 1.98238E-01 9.30959E-04 8.11861E-01-2.93173E-14 5.35730E-13
 -1       564 2.06764E+01 1.81146E-01 9.06676E-04 6.60133E-01-4.25884E-13 3.69827E-13
 -1       565 2.05172E+01 1.56478E-01 8.10001E-04 5.24783E-01-2.66592E-14 3.31929E-13
 -1       566 2.03877E+01 1.30413E-01 6.87627E-04 4.08999E-01-2.58521E-13 1.91636E-13
 -1       567 2.02841E+01 1.06266E-01 5.64313E-04 3.12709E-01-1.91065E-15 1.86847E-13
 -1       568 2.02023E+01 8.56778E-02 4.72392E-04 2.34126E-01 5.05812E-14 4.85983E-13
 -1       569 2.01390E+01 6.95353E-02 4.95214E-04 1.70770E-01-4.89449E-14 6.94816E-13
 -1       570 2.00904E+01 5.70091E-02 3.39777E-04 1.18876E-01-1.05064E-13 8.68422E-13
 -1       571 2.00528E+01 4.77750E-02 2.68059E-04 7.64592E-02-7.32384E-14 6.39702E-13
 -1       572 1.99775E+01 1.81837E-01-3.89343E-05 1.02795E-01-1.20672E-13-3.64754E-13
 -1       573 1.99566E+01 2.13500E-01-8.07449E-05 7.77811E-02-1.75965E-13-4.03936E-13
 -1       574 2.00271E+01 9.99807E-02 2.61832E-05 1.05366E-01-7.49369E-14 3.68097E-13
 -1       575 2.00029E+01 1.42384E-01 9.66651E-05 1.12193E-01-3.55358E-13-3.14370E-13
 -1       576 1.99432E+01 2.33586E-01-1.05450E-04 4.11939E-02-9.02308E-14-2.51861E-13
 -1       577 1.99388E+01 2.39864E-01-1.14722E-04-1.35209E-03-7.05856E-14-3.82980E-13
 -1       578 1.99440E+01 2.31724E-01-1.04798E-04-4.35287E-02 3.18401E-13 9.94004E-14
 -1       579 1.99577E+01 2.10691E-01-7.84372E-05-7.86101E-02 3.44305E-13-9.69234E-14
 -1       580 1.99785E+01 1.78482E-01-3.83811E-05-1.02629E-01 1.73487E-13-4.14296E-13
 -1       581 2.00033E+01 1.38956E-01 1.10149E-05-1.11286E-01 3.34046E-13 1.82433E-13
 -1       582 2.00278E+01 9.63222E-02 3.90984E-05-1.03323E-01 1.07432E-13-8.05792E-14
 -1       583 2.46149E+01-5.45111E+00-3.44262E-03 3.96437E+00-1.20313E-13 1.86816E-13
 -1       584 1.99459E+01 2.63158E-01 2.52042E-03 1.20136E-01 2.16170E-13 8.14312E-14
 -1       585 1.83904E+01-5.32108E+00 8.76924E-02 6.41074E+00-2.16098E-13 1.29391E-13
 -1       586 8.86234E+00-3.40583E+00 1.19007E-01-6.04938E+00 3.63910E-13 3.70787E-13
 -1       587 5.05713E+00-1.72369E+00 1.72213E-01-2.63999E+00 4.08354E-15 1.46522E-13
 -1       588 3.00941E+01 5.42882E+00-1.67344E-01 1.63041E+00-3.68372E-13-4.58071E-13
 -1       589 2.16661E+01-5.51532E+00 3.40592E-02 5.54452E+00-7.82915E-14-2.31456E-13
 -1       590 6.08043E+00-2.15515E+00 1.56490E-01-3.77361E+00-2.17257E-13-6.59056E-13
 -1       591 1.96915E+01 3.23278E+00-5.07995E-03-3.05703E-01 1.04797E-14-4.72744E-13
 -1       592 3.03484E+01 6.90437E+00-1.79421E-01 5.52275E-01 7.07545E-13 3.25703E-13
 -1       593 2.73695E+01-3.98559E+00-3.66940E-02 2.05542E+00-2.60604E-13-4.44089E-14
 -1       594 3.04518E+01 3.74734E+00-1.49963E-01 2.14155E+00 5.65048E-13 5.80064E-13
 -1       595 2.99671E+01-1.47737E+00-9.93425E-02 4.22857E-01 6.08480E-14 1.58026E-13
 -1       596 2.72029E+01-4.52588E+00-1.25117E-02-2.54001E+00-2.02754E-13-1.55383E-13
 -1       597 2.02729E+01-5.66585E+00 3.73743E-02-5.96987E+00-2.71914E-13-3.52579E-13
 -1       598 1.40725E+01-4.48722E+00 1.09571E-01-6.70925E+00-3.18481E-13-4.20192E-13
 -1       599 4.19482E+00-1.58533E+00 1.68041E-01-1.51780E-01-5.17242E-14-8.70762E-13
 -1       600 1.51339E+01-4.43827E+00 1.04240E-01 6.70813E+00 1.14360E-13-4.51725E-13
 -1       601 2.87552E+01 7.05526E+00-1.82986E-01-3.76611E-02-6.73628E-13-1.59091E-13
 -1       602 2.92475E+01-3.24467E-01-1.13389E-01-1.16754E+00-5.48020E-13 2.52930E-13
 -1       603 2.29059E+01-5.46091E+00 1.00909E-02-5.11171E+00 5.03257E-13-1.31936E-13
 -1       604 2.94759E+01 4.16661E+00-1.68806E-01-1.99110E+00-7.08662E-13 1.93158E-13
 -1       605 3.01892E+01 1.36917E+00-1.23103E-01 1.34044E+00-1.46827E-13-5.53745E-13
 -1       606 2.85154E+01-2.98416E+00-5.24737E-02-9.34313E-01 1.28157E-13-5.89584E-13
 -1       607 1.67737E+01-5.14953E+00 9.08777E-02-6.87941E+00 5.69739E-13 5.42500E-13
 -1       608 3.03530E+01 8.16707E-01-1.35566E-01-1.50271E+00 3.70599E-13-2.81240E-13
 -1       609 2.05776E+01 1.30765E+00-9.76109E-04 1.53436E+00 4.21368E-13 2.26118E-13
 -1       610 1.99924E+01 2.66954E+00-6.29984E-03-1.22567E+00-2.09000E-13-4.08077E-13
 -1       611 8.60554E+00-1.75429E+00 1.49819E-01 4.45258E+00-7.04870E-13 4.91995E-13
 -1       612 6.08573E+00-5.66850E-01 1.86167E-01 9.98520E-02-2.60018E-13 1.25233E-13
 -1       613 2.00495E+01 6.26980E-02 1.25063E-04-9.13554E-02-9.96414E-14 1.85298E-13
 -1       614 1.14653E+01-2.47828E+00 1.43824E-01-5.51850E+00-2.27575E-13-5.16497E-13
 -1       615 1.25619E+01-2.78407E+00 1.36365E-01 5.94788E+00 2.97935E-13-3.94906E-13
 -1       616 2.01730E+01 2.29008E+00-6.02327E-03-1.41742E+00-2.69075E-13-3.23116E-13
 -1       617 2.91845E+01 2.91409E+00-1.35798E-01-2.44993E+00 3.52184E-13-2.61166E-13
 -1       618 7.11817E+00-8.81337E-01 1.83975E-01 2.78980E+00 8.14886E-14-8.71719E-13
 -1       619 1.99651E+01 2.49733E+00-1.57433E-03 3.79133E-01 1.47966E-13-3.73436E-13
 -1       620 1.99311E+01 2.57634E+00-1.49677E-03 1.30288E-01 7.80686E-14-4.06692E-13
 -1       621 2.01311E+01 2.07764E+00-1.60249E-03 8.23274E-01 2.76589E-13-2.24574E-13
 -1       622 2.02495E+01 1.69763E+00-2.22937E-03 9.64764E-01 3.32420E-13-1.22599E-13
 -1       623 2.03291E+01 1.05311E+00 2.91380E-03 8.03229E-01 3.19348E-13-1.60136E-14
 -1       624 2.00454E+01 1.19257E-01 5.88746E-05 1.55140E-01-1.32219E-13 3.12917E-13
 -1       625 2.02226E+01 6.40636E-01 1.15490E-03 3.79557E-01 2.71832E-13 9.46662E-15
 -1       626 1.47300E+01-3.27345E+00 1.05898E-01-6.09538E+00 3.90174E-13 3.83645E-13
 -1       627 2.03004E+01 1.44329E+00 9.12833E-04-9.67659E-01-2.49503E-13-2.25927E-13
 -1       628 2.02798E+01 8.91877E-01 1.07058E-04-5.25743E-01-2.03664E-13-1.61677E-13
 -1       629 2.55675E+01-4.52263E+00 7.41355E-06-2.33607E+00 3.27415E-13-4.38123E-13
 -1       630 2.02171E+01 5.53456E-01 2.78277E-05-1.98749E-01-1.61046E-13-1.35019E-13
 -1       631 2.01539E+01 3.46417E-01-1.22970E-04 3.03114E-02-1.49921E-13-1.41155E-13
 -1       632 2.01066E+01 2.24105E-01-1.30409E-04 1.88390E-01-1.75793E-13-9.84108E-14
 -1       633 2.00783E+01 1.58157E-01-8.91007E-05 3.00501E-01-1.48289E-13-6.77642E-14
 -1       634 2.00677E+01 1.30968E-01-4.08028E-05 3.86699E-01-5.09191E-14-7.73867E-14
 -1       635 2.00724E+01 1.30844E-01 3.34678E-06 4.62225E-01 2.01537E-15-5.97906E-14
 -1       636 2.00901E+01 1.49065E-01 4.24297E-05 5.38277E-01-3.36698E-14-4.83054E-15
 -1       637 2.01197E+01 1.77958E-01 7.54086E-05 6.22566E-01-3.55333E-14 3.32507E-15
 -1       638 2.01614E+01 2.09377E-01 9.85694E-05 7.19535E-01-3.07028E-14-6.28158E-14
 -1       639 2.02173E+01 2.33258E-01 1.05018E-04 8.30200E-01-9.89637E-14 1.04991E-15
 -1       640 2.02926E+01 2.36087E-01 8.55926E-05 9.51568E-01-4.26469E-14 5.95335E-14
 -1       641 2.03974E+01 1.99438E-01 2.96659E-05 1.07554E+00-1.27598E-14 5.89399E-14
 -1       642 2.05483E+01 9.91948E-02-7.14645E-05 1.18717E+00-4.34001E-14 1.15623E-13
 -1       643 2.07717E+01-9.31799E-02-2.29651E-04 1.26205E+00-1.35083E-14 9.33877E-14
 -1       644 2.11048E+01-4.04222E-01-4.46404E-04 1.26236E+00 1.44982E-14 1.25779E-13
 -1       645 2.15905E+01-8.40973E-01-5.46024E-04 1.13231E+00-4.74421E-14 1.11275E-13
 -1       646 2.22590E+01-1.35646E+00-3.94109E-04 7.97464E-01 6.13600E-14 1.15984E-13
 -1       647 2.30850E+01-1.79375E+00-6.15421E-04 1.81776E-01 2.74441E-13 1.60169E-13
 -1       648 2.39240E+01-1.83877E+00-4.10569E-03-7.22084E-01 2.35576E-13 3.02035E-13
 -1       649 2.44969E+01-1.05114E+00-1.20470E-02-1.72084E+00 8.18139E-14 3.53073E-13
 -1       650 2.45408E+01 6.57345E-01-2.31264E-02-2.24869E+00-7.02986E-14 3.13258E-13
 -1       651 2.40575E+01 2.71367E+00-5.61223E-02-1.59655E+00-1.32177E-13 3.42846E-14
 -1       652 2.38297E+01 3.59874E+00-4.84665E-02 1.17048E-01-2.23040E-13-1.92210E-13
 -1       653 2.40838E+01 2.52396E+00-4.19571E-02 1.75499E+00-1.10597E-13-2.59757E-13
 -1       654 2.45395E+01 4.46653E-01-1.01123E-02 2.24016E+00-1.30775E-13-3.10729E-13
 -1       655 2.44729E+01-1.19973E+00-9.18910E-03 1.63404E+00 8.41803E-14-3.93961E-13
 -1       656 2.38595E+01-1.86932E+00-1.61221E-03 6.12972E-01 9.22203E-14-1.82271E-13
 -1       657 2.29991E+01-1.75819E+00-2.54903E-03-2.69868E-01-6.94002E-14-2.94649E-13
 -1       658 2.21781E+01-1.28729E+00-2.12555E-03-8.47530E-01-7.04794E-14-9.49431E-14
 -1       659 2.15289E+01-7.68015E-01-1.10734E-03-1.14273E+00-1.56194E-13 1.11507E-13
 -1       660 2.10625E+01-3.38092E-01-5.53859E-04-1.23966E+00-1.18091E-13-1.06026E-13
 -1       661 2.07460E+01-3.58420E-02-1.70114E-04-1.21189E+00-6.21247E-14-1.19722E-13
 -1       662 2.05359E+01 1.50123E-01 6.56868E-05-1.11372E+00-8.91515E-14-2.09637E-13
 -1       663 2.03956E+01 2.47421E-01 1.74288E-04-9.81100E-01-4.95866E-14-3.06704E-13
 -1       664 2.02994E+01 2.84072E-01 2.05482E-04-8.37046E-01-9.60672E-15-4.94431E-13
 -1       665 2.02307E+01 2.82895E-01 1.95971E-04-6.95775E-01 1.55900E-13-2.89344E-13
 -1       666 2.01795E+01 2.60579E-01 1.69669E-04-5.65496E-01-1.87008E-13-3.26306E-13
 -1       667 2.01398E+01 2.28522E-01 1.37944E-04-4.50294E-01 1.13234E-13-2.55405E-13
 -1       668 2.01082E+01 1.94048E-01 1.02393E-04-3.51514E-01 1.59994E-13-1.20264E-13
 -1       669 2.00825E+01 1.61548E-01 6.36805E-05-2.68737E-01 1.68677E-13-2.50748E-13
 -1       670 2.00619E+01 1.33477E-01 1.49548E-04-1.99931E-01 2.37575E-13-2.36938E-13
 -1       671 2.75209E+01 2.46031E+00-1.10569E-01 2.34547E+00-1.53905E-13-5.95263E-13
 -1       672 2.62285E+01 4.79914E+00-1.31822E-01-1.50179E+00-4.69673E-13-7.77503E-15
 -1       673 2.00666E+01 2.42182E-01 2.18330E-04-1.06335E-01 1.25324E-13-1.79690E-14
 -1       674 2.00318E+01 1.10910E-01 9.07902E-05-4.14088E-01 6.52705E-14-3.44813E-14
 -1       675 2.00616E+01 1.23767E-01 1.08581E-04-4.88647E-01 1.30832E-13-4.32734E-14
 -1       676 2.01061E+01 1.52969E-01 1.40862E-04-5.70415E-01 1.07138E-13 2.83604E-14
 -1       677 2.01635E+01 1.93507E-01 1.83156E-04-6.67252E-01 1.05700E-13 3.13735E-14
 -1       678 2.02331E+01 2.39782E-01 2.29080E-04-7.84304E-01 6.96536E-14 6.04973E-15
 -1       679 2.03157E+01 2.83972E-01 2.68491E-04-9.23755E-01 1.06153E-14-2.95065E-14
 -1       680 2.04144E+01 3.13892E-01 2.85284E-04-1.08400E+00 1.71864E-14-8.86194E-14
 -1       681 2.05372E+01 3.10242E-01 2.51732E-04-1.25815E+00 1.51824E-14-9.46811E-14
 -1       682 2.07003E+01 2.43512E-01 1.21869E-04-1.43159E+00-9.88556E-14 1.44182E-14
 -1       683 2.09342E+01 7.19016E-02-1.66597E-04-1.57824E+00-1.69077E-13 5.71503E-14
 -1       684 2.12908E+01-2.55967E-01-6.13948E-04-1.65406E+00-1.28773E-13-9.01238E-14
 -1       685 2.18465E+01-7.82114E-01-5.54958E-04-1.58433E+00-1.15743E-13-5.88742E-14
 -1       686 2.26749E+01-1.48051E+00-9.11845E-04-1.25613E+00-1.32998E-13 3.74333E-14
 -1       687 2.38121E+01-2.17427E+00-1.96227E-04-5.45837E-01-2.21590E-13 2.05024E-13
 -1       688 2.50988E+01-2.34411E+00-3.39430E-04 6.66612E-01-9.79867E-14 2.40452E-13
 -1       689 2.61074E+01-1.41616E+00-2.43793E-02 2.06065E+00 6.84023E-15 3.00624E-13
 -1       690 2.62426E+01 1.23433E+00-5.65213E-02 2.68415E+00 1.83790E-13 2.12583E-13
 -1       691 2.57750E+01 3.99923E+00-1.20578E-01 1.57510E+00 4.24848E-13 5.92061E-14
 -1       692 2.58478E+01 4.10660E+00-1.08327E-01-9.64782E-01 3.69947E-13-8.96219E-14
 -1       693 2.61209E+01 1.90357E+00-8.69117E-02-2.62102E+00 2.19963E-13-2.39224E-13
 -1       694 2.61897E+01-9.20056E-01-3.32885E-02-2.29800E+00 1.86641E-13-5.64679E-13
 -1       695 2.53518E+01-2.28034E+00-9.65690E-03-9.60940E-01-1.14153E-13-5.27111E-13
 -1       696 2.40947E+01-2.28622E+00-2.97518E-03 3.08227E-01-2.94404E-14-1.31383E-13
 -1       697 2.29098E+01-1.63807E+00-1.47872E-03 1.12499E+00-5.40682E-14-1.47741E-13
 -1       698 2.20138E+01-9.10137E-01-1.30306E-03 1.51697E+00-1.80327E-13-3.77622E-13
 -1       699 2.14092E+01-3.37838E-01-8.02111E-04 1.62316E+00-1.10649E-13-2.83451E-13
 -1       700 2.10207E+01 3.46167E-02-2.85630E-04 1.56281E+00 8.84611E-14 3.49979E-14
 -1       701 2.07701E+01 2.41141E-01 8.15068E-05 1.41556E+00 6.57689E-14 1.87830E-13
 -1       702 2.06009E+01 3.32475E-01 2.55058E-04 1.23084E+00 5.85448E-14 1.91185E-13
 -1       703 2.04783E+01 3.52694E-01 3.17716E-04 1.03823E+00-5.75845E-14 3.87584E-13
 -1       704 2.03832E+01 3.33516E-01 3.19577E-04 8.54774E-01-2.44884E-13 4.92140E-13
 -1       705 2.03059E+01 2.95569E-01 2.90764E-04 6.89404E-01-1.53708E-13 4.85400E-13
 -1       706 2.02417E+01 2.51343E-01 2.50037E-04 5.45887E-01 1.68128E-14 6.67648E-13
 -1       707 2.01879E+01 2.07925E-01 2.05156E-04 4.24737E-01 2.60992E-14 3.91915E-13
 -1       708 2.01432E+01 1.69068E-01 1.80744E-04 3.24698E-01-3.08148E-13-1.25556E-14
 -1       709 2.01059E+01 1.36987E-01 1.58224E-04 2.43610E-01-7.86312E-14 1.93537E-13
 -1       710 2.00710E+01 1.27807E-01 9.56890E-05 1.96676E-01-7.45060E-14 9.26279E-14
 -1       711 1.98963E+01 2.77766E-01-3.94701E-05 2.59911E-02 1.60400E-13 5.12856E-14
 -1       712 1.00879E+01-1.06771E+00 1.44709E-01-4.24486E+00 9.85323E-14-2.81719E-14
 -1       713 1.99401E+01 2.32795E-01-5.31161E-05 1.22072E-01-2.02922E-13-4.84160E-13
 -1       714 1.98972E+01 2.76197E-01-3.63795E-05-3.07467E-02 2.51691E-13 6.60474E-15
 -1       715 1.99111E+01 2.62852E-01-3.77214E-05 7.94195E-02-1.70448E-13-2.02623E-13
 -1       716 1.99131E+01 2.58965E-01-3.50275E-05-8.21336E-02 2.60553E-13-7.86347E-14
 -1       717 1.99423E+01 2.27472E-01-3.07703E-05-1.22935E-01 1.34512E-13-4.97930E-13
 -1       718 1.99809E+01 1.85158E-01 3.98717E-06-1.46640E-01 2.04854E-13 5.76994E-14
 -1       719 2.00224E+01 1.36643E-01 5.81986E-05-1.49520E-01 1.74049E-13-1.73885E-13
 -1       720 2.01320E+01 3.90702E-01 6.14414E-04 8.97195E-02 1.95567E-13-3.23305E-15
 -1       721 2.82024E+01-1.32245E+00-8.68679E-02-1.78530E+00 3.41139E-13-2.42330E-13
 -1       722 2.20161E+01-5.02943E+00 3.26314E-02 4.52944E+00-2.23987E-13 1.32294E-13
 -1       723 2.63791E+01 4.96835E+00-1.34635E-01 1.38494E+00-2.76335E-13-4.49394E-13
 -1       724 1.98225E+01-4.57906E+00 5.15206E-02 5.37436E+00 3.78066E-14-2.31645E-13
 -1       725 2.43209E+01-5.05522E+00 2.37341E-02-3.25591E+00-4.05082E-13 2.85275E-15
 -1       726 2.46948E+01-4.81677E+00 5.29252E-03 2.91412E+00-2.07317E-14 6.26599E-14
 -1       727 2.68647E+01-4.16754E+00-1.74433E-02 9.21342E-01-6.03224E-14-2.76775E-13
 -1       728 2.00199E+01 1.20185E-01 9.26981E-05-3.35936E-01 9.79705E-14-2.62413E-14
 -1       729 2.00299E+01 1.59699E-01 1.24712E-04-2.39765E-01 1.40322E-13-5.56248E-14
 -1       730 2.00320E+01 2.33573E+00-1.65863E-03 6.14952E-01 2.17650E-13-3.15238E-13
 -1       731 2.72445E+01-2.86830E+00-6.02053E-02-2.72270E-01-1.56395E-13 3.58463E-13
 -1       732 2.73318E+01-3.38995E+00-4.42773E-02 2.24038E-01-2.12520E-13 4.19439E-13
 -1       733 7.50449E+00-4.32732E-01 1.64537E-01-1.79340E+00-7.68153E-14-6.19241E-13
 -1       734 1.88473E+01-4.45727E+00 6.80747E-02-5.59489E+00-4.13964E-13-2.16018E-13
 -1       735 2.83205E+01 2.21818E-01-1.02492E-01 2.38922E+00 2.21507E-13 6.05502E-13
 -1       736 2.76222E+01-1.23698E+00-9.80264E-02 1.38498E+00 4.04381E-14-5.12274E-13
 -1       737 2.00489E+01 1.03672E-01 3.14063E-04-1.40111E-01 2.06824E-13-3.01236E-13
 -1       738 2.00263E+01 2.34619E+00-1.63331E-03-6.06764E-01-9.58371E-14-3.85320E-13
 -1       739 2.71524E+01 1.32432E+00-8.51291E-02-2.37866E+00-4.28456E-13 3.91388E-13
 -1       740 1.63062E+01-3.43947E+00 9.23549E-02 5.66786E+00-3.62068E-13 3.88176E-13
 -1       741 2.77307E+01 5.74170E+00-1.62079E-01-9.57740E-01 5.27883E-13 5.56282E-14
 -1       742 2.07002E+01-4.95371E+00 4.84030E-02-5.29666E+00 6.30499E-13 7.72117E-14
 -1       743 2.01225E+01 2.09564E+00-1.39393E-03-8.16697E-01-1.64712E-13-3.82712E-13
 -1       744 1.99301E+01 2.57798E+00-1.50582E-03-1.21394E-01 2.87682E-14-4.13196E-13
 -1       745 1.38270E+01-1.87056E+00 1.16971E-01 5.05470E+00-6.13141E-13 6.37785E-13
 -1       746 2.63793E+01-3.14983E+00 1.12003E-04 1.01669E-01 1.23549E-13-4.51096E-13
 -1       747 9.44989E+00 4.71874E-02 1.30259E-01-2.19518E+00-7.71570E-14-3.30673E-13
 -1       748 8.69701E+00-2.72096E-01 1.39066E-01 2.40151E+00-5.89126E-13-6.30190E-14
 -1       749 1.99785E+01 1.91415E-01-1.42492E-04 1.48209E-01-1.61660E-13-4.83293E-13
 -1       750 1.58713E+01-2.88850E+00 7.62279E-02-5.37993E+00-3.76926E-13-1.94754E-13
 -1       751 8.59946E+00 1.79400E-01 1.35631E-01 7.99599E-01-1.55436E-14-7.38173E-13
 -1       752 1.09073E+01-8.25188E-01 1.18062E-01-3.82054E+00-2.56035E-13-5.51677E-13
 -1       753 1.71768E+01-3.37701E+00 7.67448E-02 5.50085E+00 2.41460E-13-4.84859E-13
 -1       754 1.99618E+01 2.50312E+00-1.59279E-03-3.69503E-01-2.47762E-14-4.14533E-13
 -1       755 1.09551E+01-1.06153E+00 1.24114E-01 4.28296E+00 2.82753E-13-3.49297E-13
 -1       756 2.02750E+01 1.34692E+00 2.94373E-05 5.92544E-01 2.51057E-13-1.32560E-13
 -1       757 1.98507E+01 3.19608E-01-1.40811E-05-7.46300E-02 2.33544E-13-1.33594E-13
 -1       758 2.02599E+01 1.49130E+00-2.68720E-04-7.12193E-01-1.82454E-13-3.33129E-13
 -1       759 2.02854E+01 6.33975E-01 1.10366E-04-1.15719E-01-1.35116E-13-1.93721E-13
 -1       760 2.02475E+01 4.16251E-01 3.36159E-05 7.62832E-02-1.29869E-13-1.52459E-13
 -1       761 2.02027E+01 2.86239E-01-1.62700E-07 2.16330E-01-1.12642E-13-6.92845E-14
 -1       762 2.01586E+01 2.19005E-01-1.26742E-05 3.22313E-01-1.21441E-13-2.84946E-14
 -1       763 2.01176E+01 1.96987E-01-1.75116E-05 4.09808E-01-2.48753E-14-7.03474E-16
 -1       764 2.00797E+01 2.07175E-01-2.00881E-05 4.91527E-01 1.87907E-14-6.38470E-14
 -1       765 2.00445E+01 2.38804E-01-1.93330E-05 5.77262E-01-9.37463E-14-7.28095E-14
 -1       766 2.00116E+01 2.81550E-01-1.38788E-05 6.74079E-01-1.90972E-14-1.06877E-13
 -1       767 1.99822E+01 3.23899E-01-2.87639E-06 7.86495E-01-5.15560E-14-4.79722E-14
 -1       768 1.99601E+01 3.51393E-01 1.42032E-05 9.16575E-01-5.54811E-15-2.62316E-14
 -1       769 1.99536E+01 3.44682E-01 3.90990E-05 1.06375E+00-4.40620E-14 4.65658E-14
 -1       770 1.99789E+01 2.77756E-01 7.13286E-05 1.22419E+00 6.92586E-15-3.16953E-14
 -1       771 2.00641E+01 1.16963E-01 1.10320E-04 1.38930E+00-2.51866E-14 3.67874E-14
 -1       772 2.02547E+01-1.77900E-01 1.09807E-04 1.54217E+00 5.38253E-14 1.39902E-13
 -1       773 2.06188E+01-6.45923E-01 4.15470E-05 1.64830E+00 1.25937E-14 1.44811E-13
 -1       774 2.12427E+01-1.29822E+00 5.95564E-04 1.64027E+00 7.34151E-14 3.24535E-13
 -1       775 2.22143E+01-2.07056E+00 2.08154E-03 1.39838E+00 2.22414E-13 4.76219E-13
 -1       776 2.35378E+01-2.69669E+00 3.54806E-03 7.52268E-01 2.83196E-13 4.62876E-13
 -1       777 2.49973E+01-2.58617E+00-6.75478E-03-4.26135E-01 2.37814E-13 5.24137E-13
 -1       778 2.58880E+01-1.34523E+00-3.24126E-02 1.64891E+00 1.14448E-14-5.74288E-13
 -1       779 2.47974E+01-2.70874E+00-1.79122E-02 2.63483E-01 2.41699E-13-4.39595E-13
 -1       780 2.33546E+01-2.63221E+00-6.53065E-03-8.20212E-01 1.84707E-14-3.86268E-13
 -1       781 2.20536E+01-1.94338E+00-8.38655E-04-1.43402E+00 2.27537E-14-1.94794E-13
 -1       782 2.11374E+01-1.17581E+00 5.08449E-04-1.62616E+00 3.66306E-14-1.41558E-13
 -1       783 2.05517E+01-5.39270E-01 2.05866E-04-1.60499E+00-1.21333E-13 1.42195E-13
 -1       784 2.02155E+01-9.04909E-02 1.15045E-04-1.47830E+00-1.32917E-13 2.83606E-13
 -1       785 2.00405E+01 1.90744E-01 1.32777E-04-1.30963E+00-3.09810E-13 3.43860E-14
 -1       786 1.99620E+01 3.44114E-01 1.30819E-04-1.12960E+00-1.43267E-13 5.85077E-14
 -1       787 1.99369E+01 4.08617E-01 1.17881E-04-9.53868E-01-1.13982E-13 2.99713E-15
 -1       788 1.99386E+01 4.16024E-01 1.01775E-04-7.90626E-01 2.34178E-14-1.00058E-13
 -1       789 1.99516E+01 3.89924E-01 8.57375E-05-6.44090E-01 8.85613E-14-2.05697E-13
 -1       790 1.99675E+01 3.46811E-01 7.26332E-05-5.16097E-01 3.78161E-14 8.99874E-14
 -1       791 1.99821E+01 2.97759E-01 4.62774E-05-4.06688E-01 1.50186E-13-1.93026E-14
 -1       792 1.99942E+01 2.49503E-01 9.43588E-05-3.15459E-01 4.52412E-14-2.03980E-13
 -1       793 2.00023E+01 2.06328E-01 1.16477E-05-2.40077E-01 2.53309E-13 7.44648E-15
 -1       794 2.32115E+01-4.30713E+00 1.29111E-02-3.00578E+00 3.04284E-13-1.98774E-13
 -1       795 2.00894E+01 1.83804E-01 2.24390E-05-4.52902E-01 8.01731E-14-1.34484E-13
 -1       796 2.00278E+01 3.20341E-01 5.82092E-05-7.43599E-01 5.60713E-14-1.29556E-13
 -1       797 2.00056E+01 3.86713E-01 7.67340E-05-8.76228E-01 7.51455E-14-1.32545E-13
 -1       798 1.99811E+01 4.45643E-01 9.67232E-05-1.03313E+00 1.35781E-15-8.61260E-14
 -1       799 1.99583E+01 4.78444E-01 1.14017E-04-1.21487E+00 5.32704E-14-8.02740E-14
 -1       800 1.99490E+01 4.56563E-01 1.13661E-04-1.41961E+00-8.98041E-14-2.84869E-14
 -1       801 1.99794E+01 3.37596E-01 5.94479E-05-1.64242E+00-1.31432E-13-1.03560E-13
 -1       802 2.01002E+01 6.25501E-02-8.16372E-05-1.87276E+00-1.08818E-13-9.12521E-14
 -1       803 2.04020E+01-4.43791E-01-8.72455E-05-2.08778E+00-1.90064E-13-9.70897E-14
 -1       804 2.10416E+01-1.25423E+00 3.27361E-03-2.21413E+00-1.48474E-13-1.09537E-13
 -1       805 2.21690E+01-2.27442E+00 8.97780E-03-2.06466E+00-2.86230E-13-1.63886E-14
 -1       806 2.38777E+01-3.36249E+00-2.69773E-02-1.48783E+00-2.13451E-13 1.37199E-13
 -1       807 2.44180E+01-3.49873E+00 7.59553E-03 1.23900E+00-2.30968E-13-2.40666E-13
 -1       808 2.25019E+01-2.55201E+00 8.73359E-03 2.01994E+00-1.91967E-13-1.89994E-13
 -1       809 2.12350E+01-1.44291E+00 1.86608E-03 2.19456E+00-1.03853E-13 9.97367E-14
 -1       810 2.05148E+01-5.73388E-01 4.11550E-04 2.09512E+00-9.70293E-14 2.30047E-13
 -1       811 2.01530E+01-1.38698E-03-2.76857E-05 1.88606E+00-2.79696E-14-2.30397E-13
 -1       812 2.00000E+01 3.25374E-01 1.21554E-04 1.64587E+00-7.66908E-14-3.13657E-13
 -1       813 1.99540E+01 4.80735E-01 1.46937E-04 1.40660E+00-9.94324E-14-4.97333E-14
 -1       814 1.99559E+01 5.27519E-01 1.36440E-04 1.18140E+00-2.22134E-13 3.20627E-13
 -1       815 1.99746E+01 5.11260E-01 1.17998E-04 9.76333E-01-1.91768E-13 3.18480E-13
 -1       816 1.99952E+01 4.62380E-01 9.77159E-05 7.94334E-01-1.54186E-13 1.42427E-13
 -1       817 2.00116E+01 4.00062E-01 7.94357E-05 6.36415E-01-1.69076E-13-3.91935E-15
 -1       818 2.00224E+01 3.35768E-01 6.63248E-05 5.02144E-01 3.10359E-14 2.07812E-13
 -1       819 2.00280E+01 2.75956E-01 6.58487E-05 3.89953E-01-3.54412E-14 3.42065E-13
 -1       820 2.00291E+01 2.24330E-01 6.94856E-05 2.98460E-01-1.77379E-13 1.08184E-13
 -1       821 1.98376E+01 3.31707E-01-1.10396E-05-3.61211E-03 4.83718E-13-2.03850E-13
 -1       822 1.99975E+01 1.89639E-01 2.53347E-05-1.98297E-01 7.97112E-14-6.94909E-14
 -1       823 2.01162E+01 1.85367E-01 1.84198E-05-3.67612E-01 6.51232E-14-1.26790E-13
 -1       824 2.01920E+01 3.16965E-01 3.31365E-05-1.42547E-01 1.53365E-13-9.43345E-14
 -1       825 1.98855E+01 2.89140E-01-5.12952E-05-1.35525E-01 5.84813E-14-2.69911E-13
 -1       826 1.99365E+01 2.44411E-01-9.49137E-05-1.78816E-01 1.08936E-13-1.88997E-13
 -1       827 2.00477E+01 2.58816E-01 4.22386E-05-6.32476E-01 9.74211E-14-1.23545E-13
 -1       828 2.00674E+01 2.10854E-01 3.05556E-05-5.37960E-01 6.87668E-14-1.33926E-13
 -1       829 2.52066E+01-3.89411E+00-6.13283E-03-1.05829E+00-3.14145E-13 2.65923E-13
 -1       830 1.87054E+01-3.46551E+00 4.24574E-02-4.98033E+00 3.27403E-13 1.08439E-13
 -1       831 2.15483E+01-3.85739E+00 2.64506E-02-3.74466E+00-4.02146E-13-9.84811E-14
 -1       832 2.03030E+01 9.72168E-01-5.12595E-05-3.77259E-01-1.34177E-13-2.61424E-13
 -1       833 2.01501E+01 2.25233E-01 2.01459E-05-2.69471E-01 1.32815E-13-9.77453E-14
 -1       834 2.02918E+01 9.75928E-01 3.39353E-05 5.12510E-01 2.61917E-13-7.59144E-14
 -1       835 2.23873E+01-4.13165E+00 2.05753E-02 3.40744E+00 1.81461E-13 2.87329E-13
 -1       836 2.00579E+01-3.50736E+00 2.77528E-02 4.29656E+00-4.27516E-13 2.15253E-13
 -1       837 1.45445E+01-1.43831E+00 6.61979E-02-4.54654E+00 3.09110E-13 3.19404E-13
 -1       838 2.01323E+01 1.95974E+00-2.71820E-04 1.84871E-01 8.80957E-14-3.23869E-13
 -1       839 2.52972E+01-3.65872E+00-5.43219E-03 8.25756E-01 1.81004E-13 4.00017E-13
 -1       840 2.42968E+01-4.17716E+00 7.67045E-03 2.12345E+00-1.62900E-13-2.00412E-13
 -1       841 2.61606E+01-3.17449E+00-1.73633E-02-3.62121E-01-1.12496E-13-1.81569E-13
 -1       842 2.58383E+01-1.71018E+00-2.51397E-02-1.43798E+00-8.36822E-14 5.04466E-13
 -1       843 2.01186E+01 2.00033E+00-3.57462E-04 2.87433E-03 4.32864E-14-3.66972E-13
 -1       844 2.02234E+01 1.64097E+00-3.20125E-04-4.95356E-01-9.14490E-14-3.24323E-13
 -1       845 1.78508E+01-2.40031E+00 5.33368E-02 4.43053E+00-5.38118E-13 5.07525E-13
 -1       846 2.02379E+01 4.82663E-01-1.92814E-05 3.23161E-02 1.62840E-13-8.27729E-14
 -1       847 1.00823E+01 5.96843E-01 8.19104E-02-8.84878E-02-2.79515E-13-4.24039E-13
 -1       848 1.98480E+01 3.24037E-01-2.52224E-05 6.83490E-02 1.61786E-13 4.53884E-13
 -1       849 2.00123E+01 2.02796E-01-1.45228E-04 2.37826E-01-2.52197E-13 7.94606E-14
 -1       850 1.98812E+01 2.97081E-01-1.51252E-05 1.31745E-01-5.09368E-14-3.45795E-13
 -1       851 1.99762E+01 2.13087E-01-3.68093E-05 1.92941E-01-9.95412E-14-4.63525E-13
 -1       852 2.03906E+01-3.44334E+00 3.16290E-02 4.05859E+00 2.63407E-13 4.51791E-14
 -1       853 1.99247E+01 2.59602E-01 8.05247E-05 1.69391E-01-2.72571E-13-3.64897E-13
 -1       854 2.01674E+01 1.84324E+00-3.06412E-04-3.48414E-01-5.12712E-14-3.51587E-13
 -1       855 1.44903E+01-1.43708E+00 6.39078E-02-4.39560E+00-3.58795E-13-3.11837E-13
 -1       856 1.10208E+01 6.69293E-02 8.26667E-02 2.54138E+00 1.32174E-13-4.72969E-13
 -1       857 2.02662E+01 6.84840E-01 2.56976E-05 2.37694E-01 2.17250E-13-6.53087E-14
 -1       858 1.03534E+01 3.18430E-01 1.04157E-01-1.62765E+00-1.34037E-13-4.90417E-13
 -1       859 1.92651E+01-3.04288E+00-2.84571E-02-4.32337E+00-3.97756E-13-6.76282E-14
 -1       860 1.31148E+01-3.15778E-01 6.40073E-02-3.41106E+00 1.14979E-13-2.55676E-13
 -1       861 2.01720E+01 1.83796E+00 3.24742E-05 3.56276E-01 1.53444E-13-2.94691E-13
 -1       862 2.02268E+01 1.76440E+00-1.40921E-03-9.50766E-01-2.14871E-13-3.17721E-13
 -1       863 2.02268E+01 1.63432E+00 2.75140E-04 5.00881E-01 2.18802E-13-2.26001E-13
 -1       864 1.48173E+01-1.85076E+00 7.42535E-02 4.85786E+00 2.47484E-13-4.69612E-13
 -1       865 1.99229E+01 2.69920E-01-2.01063E-05-2.19450E-01-2.30001E-14-3.90660E-14
 -1       866 2.01386E+01 2.54591E-01-1.48817E-06-3.70714E-01 7.49008E-14-1.74917E-13
 -1       867 2.02917E+01 4.59638E-01-3.15355E-05 1.13057E-01-8.14749E-14-1.31082E-13
 -1       868 2.02401E+01 3.36323E-01 3.57179E-06 2.27240E-01-8.28988E-14-1.05259E-13
 -1       869 2.01755E+01 2.78401E-01 7.99745E-06 3.18914E-01-2.34424E-14 1.36561E-14
 -1       870 2.01016E+01 2.69117E-01 8.81766E-06 3.99902E-01-5.78347E-14 9.58078E-15
 -1       871 2.00197E+01 2.94771E-01 6.45539E-06 4.80327E-01-8.39306E-14-7.33204E-14
 -1       872 1.99299E+01 3.43052E-01 7.46387E-06 5.68478E-01-5.08592E-14-4.04893E-14
 -1       873 1.98322E+01 4.01465E-01 1.43053E-05 6.70945E-01-5.12466E-14-1.05222E-13
 -1       874 1.97277E+01 4.55785E-01 2.50251E-05 7.93045E-01-3.49436E-14-1.46515E-13
 -1       875 1.96206E+01 4.88056E-01 3.63795E-05 9.39504E-01 4.44422E-14-1.24345E-13
 -1       876 1.95206E+01 4.74331E-01 5.05183E-05 1.11488E+00 9.40915E-15-4.19911E-14
 -1       877 1.94467E+01 3.82761E-01 6.23627E-05 1.32380E+00 4.22294E-14 3.48021E-14
 -1       878 1.94333E+01 1.71850E-01 8.82849E-05 1.57067E+00 8.10887E-14 4.70463E-14
 -1       879 1.95403E+01-2.11629E-01 8.61934E-05 1.85620E+00 8.69957E-14 8.24152E-14
 -1       880 1.98673E+01-8.29194E-01-4.01072E-04 2.15999E+00 1.49770E-13 2.89915E-13
 -1       881 2.05643E+01-1.71016E+00 5.18290E-03 2.41693E+00 2.60601E-13 3.69393E-13
 -1       882 2.18435E+01-2.82149E+00 4.64936E-03 2.41907E+00 3.15075E-13 4.06212E-13
 -1       883 1.98051E+01 3.65087E-01-1.70031E-05-1.36645E-01 8.24953E-15-5.45519E-13
 -1       884 2.03188E+01 9.95810E-01 5.18390E-04-2.29851E-01-8.38395E-14-2.86606E-13
 -1       885 2.08319E+01-2.91444E+00 2.70386E-02-3.28237E+00 1.64579E-13-6.98673E-14
 -1       886 2.15597E+01-2.60602E+00 9.38012E-04-2.44417E+00 2.11565E-13-3.25766E-13
 -1       887 2.04532E+01-1.55135E+00-1.49289E-03-2.35239E+00 6.60459E-14-3.96801E-13
 -1       888 1.97883E+01-6.87866E-01 5.61960E-04-2.09243E+00 1.08869E-13-2.43936E-13
 -1       889 1.94989E+01-1.03501E-01 1.73897E-04-1.77781E+00 7.83079E-16-2.42382E-13
 -1       890 1.94065E+01 2.60833E-01 8.41639E-05-1.48800E+00-3.32975E-13 3.42299E-15
 -1       891 1.94220E+01 4.61569E-01 4.74584E-05-1.23456E+00-1.20972E-13 2.60876E-13
 -1       892 1.94894E+01 5.49297E-01 2.08992E-05-1.01692E+00 6.32072E-14 3.28421E-13
 -1       893 1.95761E+01 5.63494E-01 5.79628E-06-8.30861E-01-7.42676E-14 5.20770E-13
 -1       894 1.96643E+01 5.33155E-01-1.56184E-06-6.72335E-01 4.32067E-14 3.34718E-13
 -1       895 1.97447E+01 4.78856E-01 4.41249E-06-5.38007E-01 2.07098E-13 1.95198E-13
 -1       896 1.98136E+01 4.14757E-01 5.79824E-05-4.25593E-01 1.43093E-13 9.56846E-14
 -1       897 1.98686E+01 3.50666E-01 8.64147E-05-3.32838E-01 2.16762E-13 3.37340E-13
 -1       898 1.98977E+01 3.08605E-01 9.11390E-05-2.71775E-01 1.33659E-13 2.55659E-13
 -1       899 1.98053E+01 4.65300E-01 1.47013E-05-7.48611E-01 1.34024E-13-6.96100E-14
 -1       900 1.93858E+01 6.59130E-01 5.07953E-05-1.23878E+00-9.47502E-14 9.76285E-15
 -1       901 1.92198E+01 6.23643E-01 1.50629E-05-1.47304E+00-6.73966E-14 6.01770E-14
 -1       902 1.90736E+01 4.66287E-01-1.34796E-04-1.76154E+00-5.68889E-14-8.78191E-14
 -1       903 1.90044E+01 1.16486E-01-6.00597E-05-2.12181E+00-1.26132E-13-1.73059E-13
 -1       904 1.91002E+01-5.16837E-01-9.09797E-04-2.58204E+00-1.36351E-13-1.20501E-13
 -1       905 1.96668E+01-1.67888E+00 5.59526E-03-3.11258E+00-2.69239E-13-1.32703E-13
 -1       906 1.91915E+01-7.04843E-01 1.50216E-03 2.67144E+00-2.32873E-13 4.96952E-13
 -1       907 1.98544E+01-1.88060E+00 7.95627E-03 3.21720E+00-3.80737E-13 3.26899E-13
 -1       908 2.16665E+01-3.20075E+00 1.24938E-02 3.08451E+00-2.73076E-13-3.31801E-14
 -1       909 1.90012E+01 3.18489E-02 5.14391E-05 2.18692E+00 7.86066E-14 3.02918E-13
 -1       910 1.90363E+01 4.47336E-01 2.32778E-04 1.79616E+00 9.41437E-14 3.71473E-14
 -1       911 1.91659E+01 6.49610E-01 1.55968E-04 1.48109E+00-2.16656E-13 1.01735E-13
 -1       912 1.93230E+01 7.16326E-01 9.63800E-05 1.22256E+00-4.77107E-13 1.47645E-13
 -1       913 1.94746E+01 7.02121E-01 6.05686E-05 1.00544E+00-2.55992E-13 6.19160E-14
 -1       914 1.96067E+01 6.43544E-01 3.57063E-05 8.20559E-01-6.83549E-14 6.58317E-14
 -1       915 1.97151E+01 5.64473E-01 2.04771E-05 6.62756E-01-1.19069E-13 8.08165E-14
 -1       916 1.98005E+01 4.79865E-01 1.55110E-05 5.28808E-01-1.58730E-13-6.82733E-14
 -1       917 1.98659E+01 3.98578E-01 5.50727E-05 4.16492E-01-1.45587E-13 2.55736E-13
 -1       918 1.99123E+01 3.26327E-01-7.81604E-05 3.22918E-01 1.16157E-13 1.12111E-13
 -1       919 1.97704E+01 3.91879E-01-5.81499E-06-5.18868E-02 4.15234E-14-1.46136E-13
 -1       920 1.95443E+01 6.23443E-01 4.15927E-05-1.04516E+00-4.17204E-14-1.25287E-13
 -1       921 1.96849E+01 5.51052E-01 2.69721E-05-8.83609E-01 2.35642E-14-1.25509E-13
 -1       922 1.99073E+01 3.82177E-01 7.47534E-06-6.35470E-01 1.07550E-13-5.78721E-14
 -1       923 2.01304E+01 1.96198E+00-4.70957E-04-1.79132E-01 1.32318E-14-3.72327E-13
 -1       924 2.02537E+01 3.73270E-01 3.71608E-05-1.70777E-01 1.48802E-13-1.34949E-13
 -1       925 1.28227E+01-5.27516E-02 5.92834E-02-2.96057E+00-2.29922E-13-3.13886E-13
 -1       926 1.22130E+01-1.54421E-01 8.07999E-02 3.16185E+00-3.75905E-13 5.06139E-13
 -1       927 2.01999E+01 2.85215E-01 6.72007E-07-2.80556E-01 9.67891E-14-1.36175E-13
 -1       928 2.03221E+01 6.71069E-01 5.94891E-05-3.57935E-02-8.88510E-14-2.31798E-13
 -1       929 1.78445E+01-1.70220E+00 1.27474E-02-3.81324E+00 1.78708E-13 3.91318E-13
 -1       930 2.36382E+01-3.55110E+00-8.97972E-03 1.69732E+00 2.88496E-13 3.94712E-13
 -1       931 2.03066E+01 9.58539E-01-1.04916E-04 3.24011E-01 2.03910E-13-1.34951E-13
 -1       932 1.11074E+01 7.08402E-01 6.92492E-02 3.23681E-01-7.63964E-14-5.77033E-13
 -1       933 1.55853E+01-9.15933E-01 1.65944E-02 3.80909E+00-4.30340E-13 4.66099E-13
 -1       934 2.00706E+01 2.67452E-01 2.41007E-06-4.53554E-01 4.79522E-14-1.55326E-13
 -1       935 2.02975E+01 5.35048E-01-2.60187E-04-2.60277E-02 1.63172E-13-1.25328E-13
 -1       936 1.97678E+01 3.95459E-01-4.07452E-05 3.98447E-02 1.47257E-13 3.42680E-13
 -1       937 1.99243E+01 2.90174E-01 2.95414E-04 2.55748E-01 1.77128E-13-4.45858E-13
 -1       938 1.97984E+01 3.75048E-01-1.18373E-05 1.27206E-01 4.42294E-13 4.92986E-15
 -1       939 1.98477E+01 3.37902E-01-2.22190E-04 1.86005E-01 4.45172E-13-1.92564E-13
 -1       940 1.64259E+01-8.05410E-01 3.47032E-02-3.51453E+00 4.45477E-14 3.84313E-13
 -1       941 1.37472E+01-5.80035E-01 4.91621E-02 3.68389E+00 1.33215E-13-3.84434E-13
 -1       942 1.23893E+01 5.71224E-01 3.74975E-02-1.92202E+00-9.01552E-14-6.20337E-13
 -1       943 1.82270E+01-2.36737E+00 3.46109E-02 4.22666E+00 3.30114E-13-3.59737E-13
 -1       944 2.02530E+01 1.50474E+00 1.04095E-05 5.94638E-02 9.41694E-14-3.03767E-13
 -1       945 1.23798E+01 6.92963E-01 4.69189E-02-1.30619E+00-2.42755E-13-3.38642E-13
 -1       946 1.99945E+01 3.13089E-01 4.56146E-06-5.39159E-01 6.51506E-14-1.09995E-13
 -1       947 1.90987E+01-2.14709E+00 5.43196E-02 3.76647E+00-3.42518E-13 5.25159E-13
 -1       948 2.02691E+01 1.43151E+00 1.20232E-05 1.70154E-01 1.36097E-13-2.55503E-13
 -1       949 2.03105E+01 1.17825E+00 1.02558E-04-1.80529E-01-6.70702E-14-3.02754E-13
 -1       950 1.98597E+01 3.21515E-01 5.02597E-05-1.86263E-01-1.48851E-13-3.60203E-13
 -1       951 2.02330E+01 3.73802E-01-9.47840E-07 2.12151E-01-1.03997E-14-1.15639E-13
 -1       952 2.01430E+01 3.33885E-01 8.70040E-06 2.84187E-01-1.29991E-15-1.21741E-13
 -1       953 2.00339E+01 3.43465E-01 1.96668E-06 3.52348E-01-5.81714E-14-6.59197E-14
 -1       954 1.99068E+01 3.88607E-01-8.69144E-06 4.24425E-01-4.01562E-14-1.56055E-14
 -1       955 1.97614E+01 4.56012E-01-6.82106E-06 5.07358E-01-1.24608E-13-3.09327E-14
 -1       956 1.95965E+01 5.31830E-01 2.77834E-06 6.07520E-01-2.45942E-14-2.68732E-14
 -1       957 1.94118E+01 6.00607E-01 1.32320E-05 7.31660E-01 2.01004E-14-3.77288E-14
 -1       958 1.92087E+01 6.42619E-01 2.55230E-05 8.88302E-01 9.39323E-14-2.84389E-14
 -1       959 1.89932E+01 6.31831E-01 2.36229E-05 1.08888E+00 9.05311E-14 2.01879E-14
 -1       960 1.87801E+01 5.34153E-01 5.92510E-05 1.34954E+00 6.94986E-14 1.17773E-13
 -1       961 1.85952E+01 3.06522E-01 1.81221E-04 1.69290E+00 1.30318E-13 6.71472E-14
 -1       962 1.84946E+01-1.20470E-01-4.80957E-04 2.15801E+00 2.39383E-13 5.30175E-14
 -1       963 1.86137E+01-8.31921E-01 9.90447E-04 2.72919E+00 2.16100E-13 3.58611E-14
 -1       964 1.85786E+01-6.74150E-01 3.47291E-03-2.64229E+00 1.30027E-13 5.27676E-14
 -1       965 1.84819E+01-3.81470E-03-8.41227E-04-2.05421E+00-1.54690E-14-1.57289E-13
 -1       966 1.85855E+01 4.00902E-01-1.37587E-04-1.60715E+00 7.37125E-14-7.82701E-14
 -1       967 1.87632E+01 6.19580E-01-6.43372E-05-1.26707E+00 4.32008E-14 2.93805E-13
 -1       968 1.89630E+01 7.12699E-01-6.84931E-05-1.00585E+00 1.08648E-13 4.91659E-13
 -1       969 1.91577E+01 7.24459E-01-5.78566E-05-8.01313E-01-1.30397E-14 3.98052E-13
 -1       970 1.93344E+01 6.85526E-01-4.76035E-05-6.38011E-01-5.23335E-14 4.41223E-13
 -1       971 1.94876E+01 6.18422E-01-1.54128E-05-5.06195E-01 2.68581E-14 4.00403E-13
 -1       972 1.96157E+01 5.38957E-01-3.09266E-06-3.98003E-01 2.75736E-14-5.81035E-15
 -1       973 1.97193E+01 4.56899E-01-2.57598E-04-3.10673E-01 8.61080E-15-1.38325E-13
 -1       974 1.83608E+01 8.18601E-01-2.65039E-04-1.37821E+00 6.84566E-14-1.60492E-13
 -1       975 2.03131E+01 1.13624E+00-1.75990E-04 2.48743E-01 1.90726E-13-2.10150E-13
 -1       976 1.87240E+01 8.49700E-01-5.41604E-05-1.13054E+00-1.39232E-13-1.23366E-13
 -1       977 1.75349E+01 3.02058E-01-1.92354E-03-2.22962E+00-2.05248E-13-1.63008E-13
 -1       978 1.70232E+01-2.54300E-01 4.11843E-02-3.01970E+00-2.06609E-13-1.38140E-13
 -1       979 1.78355E+01 6.47129E-01 3.19909E-05 1.79015E+00 1.45072E-13 3.71269E-13
 -1       980 1.26950E+01 8.53177E-01 4.10569E-02 1.18957E+00-2.05549E-13-1.66447E-15
 -1       981 1.71650E+01-5.58892E-01 2.27704E-02 3.13746E+00-2.82831E-13 5.52010E-13
 -1       982 1.86041E+01 9.14252E-01 4.29086E-05 1.13101E+00-3.03219E-13 7.46361E-15
 -1       983 1.89132E+01 8.93996E-01 8.19981E-06 9.20331E-01-2.52967E-13-1.92514E-13
 -1       984 1.91693E+01 8.24707E-01-1.52022E-05 7.50813E-01-2.13213E-13-6.17799E-14
 -1       985 1.93770E+01 7.30572E-01-2.58747E-05 6.10199E-01-9.06492E-14-2.32872E-13
 -1       986 1.95420E+01 6.28081E-01-2.78509E-05 4.91835E-01-1.85173E-13-2.10837E-14
 -1       987 1.96712E+01 5.27140E-01-5.82119E-05 3.92110E-01-2.56570E-13 7.16482E-14
 -1       988 1.97701E+01 4.34358E-01-1.78733E-04 3.08681E-01 1.09636E-13-3.57826E-14
 -1       989 1.97005E+01 4.53308E-01 1.52054E-05-1.21921E-01-1.67791E-13-4.02379E-13
 -1       990 2.03075E+01 7.16781E-01 8.63874E-05 1.25024E-01 1.88845E-13-1.25359E-13
 -1       991 2.01963E+01 3.37314E-01-2.01573E-05-2.63968E-01 8.12524E-14-1.69902E-13
 -1       992 1.57089E+01-4.54415E-01 5.96074E-02-3.43301E+00-2.71084E-13-1.78096E-13
 -1       993 2.03376E+01 6.70752E-01-4.83690E-06 2.18781E-02-2.08456E-14-2.26900E-13
 -1       994 2.02697E+01 4.10271E-01-5.67396E-05-1.77935E-01 1.21142E-13-1.48462E-13
 -1       995 2.03385E+01 8.91247E-01-1.66833E-04-7.39317E-02-7.52000E-14-2.67104E-13
 -1       996 1.79541E+01 6.61955E-01-8.88346E-04-1.72250E+00-4.84142E-15-1.97029E-13
 -1       997 2.02516E+01 1.50520E+00-2.65767E-04-5.43924E-02 3.42801E-14-3.46826E-13
 -1       998 1.33053E+01 5.92432E-01 3.54597E-02 1.86863E+00 1.22067E-13-3.61789E-13
 -1       999 2.03005E+01 4.79083E-01-4.73631E-05 1.27562E-01-2.53492E-14-1.83589E-13
 -1      1000 1.97071E+01 5.12437E-01-2.50795E-05-5.71189E-01 1.21705E-13-1.72820E-13
 -1      1001 1.74392E+01 2.22130E-01-8.69327E-04 2.33963E+00 1.94497E-14 2.71218E-13
 -1      1002 2.02818E+01 1.36461E+00-7.14433E-05-1.33233E-01-2.73376E-14-2.99704E-13
 -1      1003 1.97675E+01-2.08333E+00 1.66838E-02 3.23981E+00 3.57079E-13 2.28064E-13
 -1      1004 1.82414E+01 8.50284E-01 1.54430E-04 1.40663E+00-6.23788E-14 4.40634E-13
 -1      1005 1.90368E+01 8.05263E-01 1.04444E-05-9.42768E-01-9.17223E-14-7.66594E-14
 -1      1006 1.52856E+01 7.85094E-02 4.00789E-02-2.75468E+00-2.26742E-13-1.92111E-13
 -1      1007 1.97594E+01 4.10072E-01-8.50049E-05-1.96547E-01-5.23701E-14-5.28616E-13
 -1      1008 1.47803E+01 3.98279E-01 1.37656E-02 2.34473E+00-9.39988E-14 1.74520E-13
 -1      1009 2.03217E+01 5.58483E-01 3.29047E-04-6.90221E-02 1.40061E-13-1.61444E-13
 -1      1010 1.96738E+01 4.73292E-01-4.07081E-05-1.01096E-02-1.55749E-13-6.95099E-14
 -1      1011 1.95222E+01 6.15848E-01-1.36395E-05-6.72241E-01 7.34257E-14-1.10227E-13
 -1      1012 1.93009E+01 7.19454E-01 1.41633E-05-7.93815E-01 5.78396E-15-2.87620E-14
 -1      1013 2.03277E+01 1.09892E+00-1.47817E-04 5.46370E-02 1.47181E-13-2.47473E-13
 -1      1014 1.96925E+01 4.63796E-01-8.43194E-05 1.04395E-01 1.12872E-13-9.08906E-14
 -1      1015 1.97129E+01 4.60478E-01 1.65698E-04 2.07640E-01 1.66216E-13-2.50943E-13
 -1      1016 1.67617E+01-1.26592E+00 1.52461E-02 3.80020E+00 2.11459E-13-2.64662E-13
 -1      1017 2.03267E+01 1.12906E+00 4.57793E-04 1.84077E-03 1.18103E-13-2.91716E-13
 -1      1018 1.98622E+01 4.22183E-01-5.37455E-06-4.85293E-01 7.28964E-14-1.81853E-13
 -1      1019 1.56445E+01 6.50382E-01 3.60665E-03-1.88217E+00-2.21521E-13-1.49594E-13
 -1      1020 1.33192E+01 9.78336E-01 1.87316E-02 4.18675E-01 2.21101E-15-2.91503E-13
 -1      1021 1.41921E+01 7.22138E-01 2.61358E-02-1.76546E+00-1.47266E-13-3.26776E-13
 -1      1022 2.01038E+01 3.23620E-01-8.34131E-06-3.38282E-01 6.39557E-14-1.75749E-13
 -1      1023 2.01929E+01 3.99909E-01-5.69751E-05 1.64420E-01 8.38763E-15-1.49265E-13
 -1      1024 1.80239E+01 1.03133E+00-2.47828E-04-8.51979E-01 3.92997E-14-2.06259E-13
 -1      1025 2.00751E+01 3.84115E-01-2.84910E-05 2.13575E-01 3.92770E-14-1.29004E-13
 -1      1026 1.99306E+01 4.16834E-01 1.35502E-05 2.63473E-01 7.31043E-15-1.19829E-13
 -1      1027 1.97595E+01 4.83586E-01-3.40430E-05 3.19985E-01-4.71870E-14-6.40779E-14
 -1      1028 1.95594E+01 5.71193E-01-6.83999E-05 3.89145E-01-5.24523E-14 7.46472E-14
 -1      1029 1.93271E+01 6.65816E-01-4.33458E-05 4.76755E-01-6.84525E-15 7.53391E-14
 -1      1030 1.90574E+01 7.52606E-01 2.60734E-05 5.90462E-01 2.00152E-14 4.71470E-14
 -1      1031 1.87458E+01 8.10889E-01 1.82069E-05 7.42424E-01 1.53243E-13-2.79981E-14
 -1      1032 1.83854E+01 8.18693E-01-5.96717E-05 9.49982E-01 1.09698E-13-1.88923E-14
 -1      1033 1.79732E+01 7.41803E-01-7.89307E-04 1.24443E+00 5.59461E-14 3.74567E-14
 -1      1034 1.75111E+01 5.42079E-01 2.46855E-03 1.67354E+00 5.52358E-14-5.47154E-14
 -1      1035 1.69702E+01 1.88975E-01 1.37455E-03 2.28216E+00 1.40871E-13-1.64644E-13
 -1      1036 1.72304E+01 1.06603E+00 2.59997E-05 1.09563E+00 7.61720E-15 4.11656E-13
 -1      1037 1.96196E+01 5.22282E-01-3.53015E-05-2.31369E-01 4.23456E-14-4.51689E-13
 -1      1038 1.74216E+01 1.02594E+00-3.38166E-04-1.06199E+00 1.01488E-14-1.38026E-13
 -1      1039 1.75410E+01 6.35006E-01-9.87512E-04-1.57187E+00 1.59973E-13-7.37155E-14
 -1      1040 1.79853E+01 8.27244E-01-2.74491E-04-1.16851E+00 1.59326E-13 4.19311E-15
 -1      1041 1.83728E+01 8.98125E-01-3.39891E-04-8.85188E-01 1.13681E-13-1.22919E-14
 -1      1042 1.87029E+01 8.93892E-01-3.03542E-04-6.80421E-01 1.29372E-14-1.26654E-13
 -1      1043 1.89824E+01 8.39849E-01-2.07916E-04-5.27098E-01 3.53717E-14-1.52805E-14
 -1      1044 1.92154E+01 7.56948E-01-1.43523E-04-4.09758E-01-6.21758E-14-5.65384E-14
 -1      1045 1.94069E+01 6.61174E-01-1.55438E-04-3.18730E-01-3.33581E-13-3.99519E-13
 -1      1046 2.03383E+01 9.55471E-01-8.15155E-05 1.13467E-01 1.39794E-13-2.30005E-13
 -1      1047 1.83370E+01 1.06750E+00-1.43775E-04 6.95414E-01-1.43494E-13 1.62399E-13
 -1      1048 1.92740E+01 7.65503E-01-1.19800E-04 3.82547E-01-2.83406E-13 2.29475E-13
 -1      1049 1.94652E+01 6.49349E-01-2.21136E-04 3.10194E-01-2.07370E-14-2.25276E-14
 -1      1050 1.96034E+01 5.50419E-01 2.88558E-05 2.56483E-01 1.42204E-14-2.78385E-13
 -1      1051 2.02515E+01 4.30266E-01-1.17713E-04-1.54562E-01 8.58602E-14-1.59293E-13
 -1      1052 1.78493E+01 1.10341E+00-2.53326E-05 8.59836E-01 1.33277E-13 5.16680E-13
 -1      1053 1.99931E+01 3.55712E-01 1.65438E-06-4.09593E-01 6.92212E-14-2.03591E-13
 -1      1054 1.90304E+01 8.81829E-01-1.49351E-04 4.67564E-01-8.02883E-14 2.06173E-14
 -1      1055 2.03360E+01 6.40402E-01-7.48252E-05 4.68576E-02 1.37277E-14-1.89008E-13
 -1      1056 1.87230E+01 9.87707E-01-1.96762E-04 5.69275E-01-2.62745E-13-1.16269E-13
 -1      1057 1.37300E+01 1.07225E+00 5.77809E-03-5.62666E-01-1.54101E-13-6.38562E-13
 -1      1058 1.66555E+01 9.18641E-01 3.17728E-05-1.38247E+00-1.13235E-13-8.18128E-14
 -1      1059 1.53880E+01 4.09678E-02 2.13060E-02 2.68464E+00 1.64497E-13-3.19846E-13
 -1      1060 1.64473E+01 9.24993E-01-8.64484E-04 1.45640E+00-4.50421E-14 2.23834E-13
 -1      1061 2.02822E+01 4.79277E-01-5.01717E-05 1.10801E-01-6.41318E-15-1.76089E-13
 -1      1062 1.85051E+01 9.71757E-01-1.11603E-04-7.05569E-01-5.36341E-14-1.26286E-13
 -1      1063 1.70573E+01 2.66771E-01 1.06702E-03-2.15492E+00-2.25915E-13-1.59491E-13
 -1      1064 2.03465E+01 7.63260E-01-5.70338E-04-2.88377E-03 1.01454E-13-2.57976E-13
 -1      1065 1.95531E+01 5.66175E-01 5.15080E-04-9.75673E-02-1.16908E-13-1.73151E-13
 -1      1066 1.49644E+01 8.63314E-01 4.84363E-03 1.33011E+00 1.48305E-14-2.60689E-13
 -1      1067 2.03485E+01 8.00292E-01-1.11575E-04-1.19858E-03 1.01660E-13-2.47991E-13
 -1      1068 1.46452E+01 1.06439E+00 1.10646E-02 8.29126E-01-1.58142E-15 3.58891E-13
 -1      1069 1.95401E+01 5.77793E-01-1.72066E-05 5.14636E-02-1.63341E-13-3.71742E-14
 -1      1070 1.88947E+01 8.73582E-01-1.61494E-05-5.95754E-01-3.12317E-15-8.45343E-14
 -1      1071 1.94759E+01 6.36725E-01-1.16578E-04-4.34421E-01 8.95333E-14-1.16969E-13
 -1      1072 1.96944E+01 5.27999E-01-5.69095E-05-3.72095E-01 9.16059E-14-1.22261E-13
 -1      1073 1.61705E+01-5.04792E-02 2.05750E-02-2.81525E+00-2.37589E-13 1.81396E-14
 -1      1074 1.95587E+01 5.71814E-01 3.15229E-04 1.54865E-01 9.51285E-14-2.26775E-13
 -1      1075 2.01537E+01 3.79945E-01-9.30601E-05-2.13062E-01 9.85991E-14-1.79569E-13
 -1      1076 2.03476E+01 8.29891E-01-1.25142E-04-1.16003E-02 2.00073E-14-2.04153E-13
 -1      1077 1.53667E+01 1.14876E+00 4.47758E-03-5.75122E-01 3.23368E-14-1.06275E-13
 -1      1078 2.03294E+01 1.06976E+00 6.19465E-04-7.01436E-02-5.08564E-15-2.49249E-13
 -1      1079 2.03272E+01 1.11418E+00 6.31733E-04-3.59451E-02 4.96062E-14-2.75385E-13
 -1      1080 2.03237E+01 5.95240E-01 2.57772E-04-5.69312E-02 4.27831E-14-2.37095E-13
 -1      1081 1.71454E+01 1.05482E+00 4.21868E-04-8.45568E-01 1.31701E-13-3.12056E-13
 -1      1082 2.01304E+01 4.18915E-01 4.93626E-05 8.06357E-02 5.25029E-14-1.06573E-13
 -1      1083 1.99860E+01 4.28847E-01 1.58824E-05 1.04369E-01 6.51072E-16-1.54965E-13
 -1      1084 1.98102E+01 4.83761E-01-7.48052E-05 1.32765E-01 5.82796E-14-7.27559E-14
 -1      1085 1.96000E+01 5.73107E-01 4.74311E-04 1.66980E-01 2.39698E-14 2.88940E-14
 -1      1086 1.93454E+01 6.82630E-01-1.60819E-05 2.09752E-01-3.73236E-14 5.20017E-14
 -1      1087 1.90525E+01 7.94413E-01 2.39952E-04 2.69186E-01-1.16384E-14 4.78977E-14
 -1      1088 1.87025E+01 8.95617E-01 1.76971E-06 3.54946E-01 2.02620E-14 1.29154E-13
 -1      1089 1.82753E+01 9.76157E-01 5.15314E-05 4.73795E-01 9.60539E-14 7.91418E-15
 -1      1090 1.77520E+01 1.01342E+00 2.16630E-04 6.44625E-01 7.48364E-14-7.51109E-14
 -1      1091 1.70862E+01 9.81672E-01-1.70992E-03 8.83929E-01 4.94448E-14-2.10453E-13
 -1      1092 2.00290E+01 3.87771E-01-5.13791E-05-2.65275E-01 5.40573E-14-1.76812E-13
 -1      1093 2.03180E+01 5.56906E-01 2.75576E-04-8.42479E-02 1.08690E-13-1.67863E-13
 -1      1094 1.54203E+01 7.98411E-01-1.75009E-03-1.51438E+00-1.82605E-13-3.18730E-13
 -1      1095 1.98770E+01 4.41234E-01 9.70991E-07-3.16807E-01 5.17941E-14-1.84660E-13
 -1      1096 1.77612E+01 1.08806E+00 8.50688E-04-6.05082E-01 1.81216E-13-3.73771E-13
 -1      1097 1.82378E+01 1.05997E+00-2.22086E-04-4.44066E-01 2.83658E-14-1.71785E-13
 -1      1098 1.86312E+01 9.85956E-01 9.05582E-05-3.28761E-01 9.98459E-14-5.84043E-14
 -1      1099 1.89466E+01 8.87432E-01 1.63009E-04-2.45445E-01-1.39912E-13-2.24758E-15
 -1      1100 1.92003E+01 7.79082E-01 9.84913E-04-1.82137E-01-3.54491E-13 1.36465E-14
 -1      1101 1.92754E+01 7.52551E-01 9.39277E-04 1.68928E-01-4.94672E-14-6.19916E-13
 -1      1102 1.92131E+01 7.56504E-01-5.90055E-05-5.07287E-01-5.91129E-14-9.66331E-14
 -1      1103 1.73897E+01 1.15576E+00-2.65404E-04-3.60985E-01-9.45136E-15-7.80653E-14
 -1      1104 1.59715E+01 1.13618E+00 1.92404E-03 5.77864E-01 4.30884E-15-2.91703E-13
 -1      1105 1.90224E+01 8.78016E-01-2.13245E-04 1.97279E-01-2.76879E-13-5.17669E-13
 -1      1106 1.65421E+01 1.17617E+00 5.25559E-04-4.25904E-01-4.75344E-14 9.02560E-15
 -1      1107 1.93982E+01 6.67622E-01 1.27051E-04-1.32718E-01-2.82569E-13 5.69714E-14
 -1      1108 1.64078E+01 9.81165E-01 3.19904E-03-1.12566E+00 5.56893E-14-1.89159E-13
 -1      1109 2.03487E+01 8.08210E-01-3.87739E-04 3.15192E-03 5.94698E-14-1.85235E-13
 -1      1110 1.62945E+01 1.21786E+00-2.74855E-03 4.46462E-01 1.99023E-14 1.02960E-13
 -1      1111 1.80269E+01 1.08866E+00-8.74572E-05-3.14952E-01 4.79775E-14-1.00520E-13
 -1      1112 1.55193E+01 1.19176E+00 4.29533E-03-2.72155E-01-9.62175E-16-4.14919E-13
 -1      1113 2.02958E+01 5.34027E-01 1.82730E-04-6.31628E-02 9.60129E-14-1.88835E-13
 -1      1114 1.71769E+01 1.22619E+00 1.78551E-04 3.64754E-01 1.40166E-13-3.91066E-14
 -1      1115 1.87106E+01 9.99418E-01-1.99206E-04 2.28488E-01-1.77863E-13-4.45361E-13
 -1      1116 1.94301E+01 6.58927E-01 1.91361E-04 1.64481E-01-8.02900E-14-3.30384E-13
 -1      1117 1.85253E+01 9.86810E-01-1.31366E-04-2.80166E-01-1.67633E-14-5.83475E-14
 -1      1118 2.02086E+01 4.38667E-01 1.01654E-04-9.74616E-02 6.30092E-14-1.74442E-13
 -1      1119 1.92851E+01 7.31497E-01-2.30491E-03 1.17510E-02-2.14447E-13-2.02747E-13
 -1      1120 1.95160E+01 6.22009E-01 3.27684E-04-1.99499E-01 8.23559E-14-1.92323E-13
 -1      1121 1.78050E+01 1.19828E+00 5.85584E-04 3.04294E-01 2.63911E-13-6.21518E-14
 -1      1122 1.92440E+01 7.44138E-01 5.49737E-06-2.28333E-01-1.10180E-14-4.61825E-14
 -1      1123 1.83138E+01 1.10929E+00-1.23018E-04 2.60805E-01-5.71981E-14-2.19487E-13
 -1      1124 2.02427E+01 4.66551E-01-9.05379E-05 5.75466E-02 2.02393E-14-1.59024E-13
 -1      1125 2.03186E+01 5.95088E-01 3.68843E-04 2.31884E-02 3.63964E-14-1.71988E-13
 -1      1126 2.03214E+01 6.09172E-01-1.59944E-04-1.88736E-02 2.51040E-14-2.46518E-13
 -1      1127 1.70989E+01 1.14667E+00-3.95318E-04 2.42978E-01-6.05612E-14-1.75439E-13
 -1      1128 2.00863E+01 4.13169E-01-9.62467E-05-1.26708E-01 3.80269E-14-1.28450E-13
 -1      1129 1.99334E+01 4.43741E-01 5.38716E-04-1.50949E-01 9.00246E-14-8.75298E-14
 -1      1130 1.98925E+01 4.61528E-01-2.94445E-04-3.74163E-02 7.56351E-14-8.30028E-14
 -1      1131 1.96901E+01 5.40392E-01-6.17724E-04-3.91249E-02 1.19252E-13-1.29616E-13
 -1      1132 1.84033E+01 1.00741E+00-1.99009E-04 1.94057E-02 2.09265E-14-9.02153E-14
 -1      1133 1.78345E+01 1.10066E+00-5.43480E-04 1.03498E-01 4.77386E-14-8.92637E-14
 -1      1134 1.72332E+01 1.21830E+00-4.12781E-03-1.27771E-01 2.16094E-13-2.59832E-13
 -1      1135 1.65061E+01 1.22765E+00 2.34441E-04-1.78817E-01 3.17036E-14-2.25314E-13
 -1      1136 1.89288E+01 8.65949E-01 1.01681E-03-2.54757E-01-7.18127E-15-6.31608E-14
 -1      1137 1.97469E+01 5.14565E-01 1.20001E-04-1.73661E-01 4.55729E-14-1.18958E-13
 -1      1138 1.88205E+01 8.92104E-01-1.34996E-03-7.72869E-03-1.25323E-14-7.76426E-14
 -1      1139 2.79063E+01 9.06777E+00 2.31941E+00-6.68601E+00-4.84057E-14 1.60813E-12
 -1      1140 2.05226E+01 6.21965E+00 2.09500E-01-3.89741E+00-2.55074E-14 2.39156E-13
 -1      1141 1.94265E+01 5.85065E+00 7.56185E-02-2.88163E+00-1.83881E-14-3.53733E-13
 -1      1142 1.90302E+01 5.72733E+00 6.08391E-02-2.22812E+00-1.20494E-14-6.37245E-13
 -1      1143 1.88525E+01 5.67321E+00 5.81568E-02-1.69385E+00-7.40380E-15-7.68025E-13
 -1      1144 1.87636E+01 5.64579E+00 5.56945E-02-1.22712E+00-5.43576E-15-8.21056E-13
 -1      1145 1.87178E+01 5.63145E+00 5.37214E-02-7.98943E-01-2.59471E-15-8.34608E-13
 -1      1146 1.86954E+01 5.62432E+00 5.23430E-02-3.89957E-01 6.57027E-16-8.24144E-13
 -1      1147 1.86891E+01 5.62229E+00 5.19009E-02 8.36668E-03 1.82276E-15-8.05967E-13
 -1      1148 1.86965E+01 5.62471E+00 5.24639E-02 4.07112E-01 5.36919E-15-7.74856E-13
 -1      1149 1.87201E+01 5.63224E+00 5.39900E-02 8.17488E-01 6.39766E-15-7.27017E-13
 -1      1150 1.87677E+01 5.64724E+00 5.63926E-02 1.24837E+00 9.90787E-15-6.50495E-13
 -1      1151 1.88576E+01 5.67493E+00 5.88004E-02 1.71970E+00 1.28127E-14-5.23913E-13
 -1      1152 1.90357E+01 5.72899E+00 6.09010E-02 2.26122E+00 1.66325E-14-3.28845E-13
 -1      1153 1.94232E+01 5.84789E+00 6.97098E-02 2.92223E+00 2.19130E-14 3.28244E-14
 -1      1154 2.04288E+01 6.17463E+00 1.53267E-01 3.87229E+00 2.31482E-14 6.98400E-13
 -1      1155 2.51648E+01 7.97729E+00 1.42606E+00 5.83648E+00 4.27991E-14 2.02716E-12
 -1      1156 2.87429E+01 3.60727E+00 1.26643E+00-4.20862E+00-1.99590E-13 2.48801E-12
 -1      1157 2.01758E+01-1.77614E-01-6.15773E-01-1.09800E-01-6.46427E-14 2.01908E-12
 -1      1158 1.87876E+01-9.65381E-02-2.36258E-01 6.22624E-02-2.64927E-14 1.33099E-12
 -1      1159 1.84598E+01-4.84758E-02-5.99104E-02 4.01979E-02-1.97572E-14 8.47288E-13
 -1      1160 1.84136E+01-2.53345E-02-1.59034E-02 2.64299E-02-9.10903E-15 5.50508E-13
 -1      1161 1.85095E+01-1.41290E-02-6.11984E-03 1.86908E-02-1.47952E-14 4.08597E-13
 -1      1162 1.86788E+01-8.13606E-03-3.15061E-03 1.37905E-02-1.98179E-14 1.99450E-13
 -1      1163 1.88858E+01-4.92405E-03-1.78798E-03 1.04786E-02 6.27265E-16 1.43132E-14
 -1      1164 1.91130E+01-3.36977E-03-1.31269E-03 8.16617E-03 4.67237E-15-1.21654E-13
 -1      1165 1.93534E+01-2.88083E-03-1.59641E-03 6.58961E-03-1.31804E-14-2.24949E-13
 -1      1166 1.96076E+01-3.10447E-03-2.50493E-03 5.64258E-03 5.45283E-15-3.38641E-13
 -1      1167 1.98811E+01-3.79173E-03-3.87379E-03 5.29772E-03 7.82279E-15-3.89260E-13
 -1      1168 2.01830E+01-4.72158E-03-5.50736E-03 5.56931E-03-8.96174E-15-4.73603E-13
 -1      1169 2.05243E+01-5.64576E-03-7.14162E-03 6.48806E-03-9.39868E-15-5.38371E-13
 -1      1170 2.09159E+01-6.23711E-03-8.37720E-03 8.06962E-03 4.90086E-15-5.08037E-13
 -1      1171 2.13658E+01-6.03716E-03-8.58860E-03 1.02600E-02-2.65959E-14-5.46578E-13
 -1      1172 2.18747E+01-4.41354E-03-6.82682E-03 1.28381E-02-4.23039E-15-8.17381E-13
 -1      1173 2.24297E+01-5.62426E-04-1.77338E-03 1.52569E-02-1.03888E-14-9.83049E-13
 -1      1174 2.29954E+01 6.36564E-03 8.10924E-03 1.64230E-02-1.83068E-15-9.79042E-13
 -1      1175 2.35035E+01 1.68831E-02 2.39625E-02 1.44868E-02-1.82450E-14-9.41497E-13
 -1      1176 2.38455E+01 3.03750E-02 4.51327E-02 6.87452E-03-2.51492E-14-1.05635E-12
 -1      1177 2.38770E+01 4.39116E-02 6.69887E-02-8.97241E-03 2.89872E-15-8.73846E-13
 -1      1178 2.34480E+01 5.12375E-02 7.91228E-02-3.35990E-02-8.01009E-15-8.17950E-13
 -1      1179 2.24735E+01 4.35385E-02 6.70801E-02-6.24184E-02-2.53482E-14-1.10591E-12
 -1      1180 2.10338E+01 1.44486E-02 2.09268E-02-8.37003E-02 1.49360E-14-1.05282E-12
 -1      1181 1.94460E+01-3.17030E-02-5.14966E-02-8.21062E-02 3.16075E-14-7.62446E-13
 -1      1182 1.82126E+01-7.51287E-02-1.18768E-01-4.93647E-02 3.14757E-14-4.70374E-13
 -1      1183 1.78043E+01-9.08088E-02-1.42663E-01 5.31392E-03-1.82909E-14-5.74634E-13
 -1      1184 1.83905E+01-6.84840E-02-1.08133E-01 5.75391E-02-9.41955E-16-8.50306E-13
 -1      1185 1.97310E+01-2.25258E-02-3.66838E-02 8.46641E-02 2.56850E-14-8.86194E-13
 -1      1186 2.13274E+01 2.13745E-02 3.23224E-02 8.10008E-02-3.70442E-14-1.06896E-12
 -1      1187 2.26999E+01 4.62485E-02 7.15960E-02 5.71371E-02 3.49859E-14-1.33100E-12
 -1      1188 2.35769E+01 5.03958E-02 7.77512E-02 2.84228E-02 1.32446E-15-1.43879E-12
 -1      1189 2.39173E+01 4.11939E-02 6.25806E-02 5.30610E-03 4.36881E-14-1.20661E-12
 -1      1190 2.38262E+01 2.71916E-02 4.01374E-02-8.81476E-03 4.39739E-14-1.01891E-12
 -1      1191 2.34576E+01 1.39956E-02 1.96568E-02-1.50715E-02-4.11845E-15-1.28042E-12
 -1      1192 2.29519E+01 3.99725E-03 4.79516E-03-1.61338E-02 1.63211E-14-1.00327E-12
 -1      1193 2.24114E+01-2.47695E-03-4.28900E-03-1.44544E-02-1.68900E-14-9.55677E-13
 -1      1194 2.18991E+01-6.04178E-03-8.88132E-03-1.17145E-02-1.39453E-14-7.28986E-13
 -1      1195 2.14476E+01-7.54564E-03-1.04929E-02-8.86777E-03-4.99579E-15-6.46186E-13
 -1      1196 2.10687E+01-7.74717E-03-1.03589E-02-6.36207E-03-1.30240E-14-8.01593E-13
 -1      1197 2.07623E+01-7.21821E-03-9.33932E-03-4.34863E-03-3.81086E-15-8.37348E-13
 -1      1198 2.05216E+01-6.35009E-03-7.98042E-03-2.82636E-03-4.01529E-14-8.80877E-13
 -1      1199 2.03375E+01-5.39431E-03-6.61138E-03-1.72475E-03-2.70557E-14-7.40920E-13
 -1      1200 2.02005E+01-4.50423E-03-5.42886E-03-9.42623E-04 2.32654E-14-4.26084E-13
 -1      1201 2.01023E+01-3.75921E-03-4.55193E-03-3.61152E-04 9.24241E-14 2.64795E-13
 -1      1202 2.00364E+01-3.19259E-03-4.01362E-03 1.73105E-04-1.19355E-14 9.71091E-14
 -1      1203 1.99989E+01-2.69022E-03-3.54486E-03 8.74628E-04 5.99478E-14 3.57012E-13
 -1      1204 1.99882E+01-2.36664E-03-1.83405E-03 2.12448E-03-6.02058E-14 2.50057E-13
 -1      1205 1.99959E+01 1.47928E-03 3.45696E-03 1.35625E-03 3.41790E-14 2.68702E-13
 -1      1206 2.77250E+01 5.24586E-01 3.74726E-01 1.96331E+00-4.06619E-14 3.10973E-12
 -1      1207 2.00332E+01-6.62839E-02-5.73141E-01 1.29433E-01 2.05704E-14 2.56997E-12
 -1      1208 1.88616E+01-4.07972E-02-1.93143E-01 1.96517E-02 1.10996E-14 2.04616E-12
 -1      1209 1.84879E+01-2.17972E-02-5.08228E-02 1.89450E-03 1.19535E-14 1.68004E-12
 -1      1210 1.84252E+01-1.30242E-02-1.40044E-02-3.43506E-03 6.39527E-15 1.40304E-12
 -1      1211 1.85144E+01-8.33221E-03-5.65830E-03-4.66007E-03 2.06215E-15 1.16500E-12
 -1      1212 1.86802E+01-5.66774E-03-3.44921E-03-4.58565E-03 8.96006E-15 1.04570E-12
 -1      1213 1.88853E+01-4.23161E-03-2.54904E-03-4.00712E-03-1.75109E-15 1.04612E-12
 -1      1214 1.91115E+01-3.64538E-03-2.32665E-03-3.18086E-03 1.49457E-14 8.70769E-13
 -1      1215 1.93522E+01-3.70414E-03-2.77203E-03-2.23355E-03 7.23445E-15 7.33843E-13
 -1      1216 1.96086E+01-4.28292E-03-3.87094E-03-1.26024E-03 2.17114E-14 6.77805E-13
 -1      1217 1.98877E+01-5.29004E-03-5.57656E-03-3.55321E-04 8.91209E-15 5.70269E-13
 -1      1218 2.02012E+01-6.62998E-03-7.82080E-03 3.64941E-04 1.54938E-14 4.34410E-13
 -1      1219 2.05643E+01-8.15838E-03-1.04838E-02 7.35655E-04 1.61181E-14 3.00969E-13
 -1      1220 2.09944E+01-9.61627E-03-1.33132E-02 5.09422E-04 1.51172E-14 2.45326E-13
 -1      1221 2.15092E+01-1.05325E-02-1.57780E-02-6.81112E-04-1.68354E-14 2.73724E-13
 -1      1222 2.21230E+01-1.00945E-02-1.68348E-02-3.34598E-03-1.97197E-14 3.96384E-13
 -1      1223 2.28393E+01-7.02414E-03-1.46161E-02-8.09255E-03-7.68179E-15 2.31912E-13
 -1      1224 2.36397E+01 4.02627E-04-6.18733E-03-1.53894E-02 1.88143E-14 1.05423E-13
 -1      1225 2.44654E+01 1.38608E-02 1.21522E-02-2.49402E-02 3.59966E-15 3.04264E-13
 -1      1226 2.51944E+01 3.35455E-02 4.30918E-02-3.45169E-02-9.92652E-15 4.96967E-13
 -1      1227 2.56248E+01 5.55855E-02 8.41055E-02-3.85479E-02-9.93997E-15 8.47825E-13
 -1      1228 2.54886E+01 6.94219E-02 1.21246E-01-2.78448E-02 1.38865E-15 5.89084E-13
 -1      1229 2.45377E+01 5.86859E-02 1.26178E-01 6.31168E-03 1.51450E-14 2.54435E-13
 -1      1230 2.27325E+01 1.36859E-02 6.90717E-02 6.09520E-02-1.13919E-14 1.77219E-13
 -1      1231 2.04620E+01-5.00737E-02-4.72598E-02 1.11499E-01 1.60100E-14 5.91527E-13
 -1      1232 1.85583E+01-9.43039E-02-1.66688E-01 1.20752E-01-4.35008E-14 6.65190E-13
 -1      1233 1.79063E+01-8.83816E-02-2.10820E-01 7.14067E-02 1.02279E-14 5.97068E-13
 -1      1234 1.88410E+01-4.23603E-02-1.50249E-01-1.16244E-02-6.37858E-15 2.85980E-13
 -1      1235 2.08845E+01 7.15426E-03-3.43343E-02-7.95606E-02-3.53333E-14 2.58321E-13
 -1      1236 2.31156E+01 3.53094E-02 6.21323E-02-1.02624E-01 4.84617E-14 6.80428E-14
 -1      1237 2.47743E+01 4.03894E-02 1.01869E-01-8.59530E-02 1.27528E-14-1.67838E-13
 -1      1238 2.55665E+01 3.22811E-02 9.34229E-02-5.22984E-02-5.06960E-14 3.41133E-13
 -1      1239 2.55866E+01 2.04673E-02 6.32360E-02-2.06522E-02 1.52825E-14 5.11676E-13
 -1      1240 2.50960E+01 1.00699E-02 3.22848E-02 9.52767E-04-1.97396E-14 3.54269E-13
 -1      1241 2.43544E+01 2.70947E-03 9.70696E-03 1.23990E-02-3.13023E-14 5.48138E-14
 -1      1242 2.35489E+01-1.75898E-03-3.55863E-03 1.66171E-02 2.33130E-14-4.59931E-13
 -1      1243 2.27896E+01-4.06361E-03-9.83727E-03 1.66684E-02 2.85132E-14-4.44207E-13
 -1      1244 2.21281E+01-4.95315E-03-1.18172E-02 1.47529E-02-1.75456E-14-5.46221E-13
 -1      1245 2.15800E+01-5.00820E-03-1.15188E-02 1.21801E-02-6.47178E-14-6.58914E-13
 -1      1246 2.11415E+01-4.62478E-03-1.02007E-02 9.62503E-03 6.89799E-14-4.89963E-13
 -1      1247 2.07998E+01-4.05395E-03-8.56321E-03 7.38363E-03-5.04359E-14 9.09715E-14
 -1      1248 2.05392E+01-3.44926E-03-6.96710E-03 5.55059E-03 7.98552E-14-1.49004E-13
 -1      1249 2.03444E+01-2.90391E-03-5.59121E-03 4.12270E-03-1.21538E-14-4.86057E-13
 -1      1250 2.02022E+01-2.46744E-03-4.52464E-03 3.05009E-03 2.50418E-14-2.95075E-13
 -1      1251 2.01017E+01-2.17075E-03-3.82666E-03 2.25985E-03 4.89326E-14-2.70793E-13
 -1      1252 2.00352E+01-2.01542E-03-3.50695E-03 1.63847E-03-4.81285E-14-1.28816E-13
 -1      1253 1.99979E+01-1.80735E-03-3.20934E-03 9.05936E-04 3.40976E-14-7.47247E-13
 -1      1254 1.99876E+01-7.19296E-04-1.40893E-03-4.84937E-04 6.23531E-14-8.97485E-13
 -1      1255 1.99963E+01 1.26858E-03 3.60116E-03-1.28209E-03-1.45377E-14-7.24072E-13
 -1      1256 2.00009E+01-3.83699E-03 3.28091E-03-1.34631E-03-6.56057E-13-1.30940E-14
 -1      1257 1.99982E+01-1.15818E-02-1.96629E-03-1.83936E-03-1.32654E-13 1.62890E-13
 -1      1258 1.99978E+01 1.46556E-03-3.19255E-03-5.51332E-05 1.54336E-12 1.33363E-13
 -1      1259 1.99985E+01 3.78207E-02-2.22708E-03 1.08986E-03 2.69449E-12 1.33723E-13
 -1      1260 1.99996E+01 8.87300E-02-5.94442E-04 1.62346E-03 2.99958E-12-9.27926E-14
 -1      1261 2.00007E+01 1.42692E-01 9.99527E-04 1.65137E-03 1.53913E-12-2.44989E-13
 -1      1262 2.00016E+01 1.89708E-01 2.26732E-03 1.32693E-03 6.81202E-13-7.78213E-16
 -1      1263 2.00022E+01 2.21706E-01 3.08344E-03 7.25139E-04 7.44979E-13-4.88290E-14
 -1      1264 2.00024E+01 2.32760E-01 3.34753E-03-2.09906E-06 1.56147E-14-5.84182E-14
 -1      1265 2.00021E+01 2.21105E-01 3.04296E-03-7.23903E-04-1.69550E-13 4.87057E-14
 -1      1266 2.00015E+01 1.88788E-01 2.20358E-03-1.30886E-03-1.71273E-13-2.44318E-13
 -1      1267 2.00007E+01 1.41855E-01 9.46149E-04-1.63883E-03-6.64661E-13-1.06865E-13
 -1      1268 1.99996E+01 8.83756E-02-6.02962E-04-1.58935E-03-1.57527E-12-2.39394E-14
 -1      1269 1.99985E+01 3.80369E-02-2.19817E-03-1.08824E-03-8.35202E-13-6.85298E-14
 -1      1270 1.99980E+01 1.48824E-03-3.23233E-03 5.09574E-06-2.50159E-13-1.42755E-14
 -1      1271 1.99979E+01-9.78542E-03-1.52925E-03 2.92706E-03-8.66656E-14-1.77704E-13
 -1      1272 2.00010E+01-4.33917E-03 3.12439E-03 1.59590E-03-2.70234E-13 1.33447E-13
 -1      1273-1.27275E+00-2.33133E+01-3.63699E+00-2.32153E+00 1.60727E-12 2.22933E-13
 -1      1274-1.82256E+00-1.45785E+01-3.06863E+00-4.06215E+00 2.04348E-12 7.41573E-13
 -1      1275 5.37151E-01-1.79953E+00-1.80182E+00 1.88176E-01 2.20624E-12 1.39899E-12
 -1      1276 9.63376E+00 7.92124E+00-2.68926E-01 8.63155E+00 2.08145E-12 2.04237E-12
 -1      1277 2.61628E+01 1.09512E+01 1.38615E+00 1.62161E+01 1.84863E-12 2.61902E-12
 -1      1278 4.69915E+01 7.87853E+00 3.01936E+00 1.75067E+01 9.21985E-13 1.93756E-12
 -1      1279 6.30734E+01 3.38996E+00 4.05913E+00 9.48651E+00 1.88974E-13 5.80869E-13
 -1      1280 6.72613E+01 1.94366E+00 4.41021E+00-3.76283E+00 1.38056E-13-9.92151E-13
 -1      1281 5.50953E+01 5.79491E+00 3.57968E+00-1.49199E+01 8.06855E-13-2.29194E-12
 -1      1282 3.50221E+01 1.02799E+01 2.19504E+00-1.78034E+01 1.42608E-12-2.72227E-12
 -1      1283 1.54988E+01 9.91608E+00 3.89483E-01-1.20816E+01 1.80056E-12-2.12030E-12
 -1      1284 2.74573E+00 1.97714E+00-1.31768E+00-2.73097E+00 1.90958E-12-1.40743E-12
 -1      1285-1.64112E+00-1.05189E+01-2.69905E+00 3.42515E+00 1.36002E-12-6.81011E-13
 -1      1286-1.46527E+00-2.10899E+01-3.49560E+00 3.61197E+00 5.57221E-13-1.62551E-13
 -1      1287-8.95089E-01-2.51809E+01-3.81055E+00-2.52212E-01-1.00675E-12-2.31433E-13
 -1      1288-1.60821E+00-1.93363E+01-3.33428E+00-3.59141E+00-3.15525E-12-8.59590E-13
 -1      1289-1.17630E+00-7.74400E+00-2.43337E+00-2.40358E+00-3.35376E-12-1.66034E-12
 -1      1290 4.55609E+00 4.28793E+00-9.14918E-01 4.57493E+00-3.07310E-12-2.34635E-12
 -1      1291 1.85265E+01 1.06764E+01 7.64058E-01 1.35686E+01-2.40052E-12-2.88658E-12
 -1      1292 3.79566E+01 9.82551E+00 2.41220E+00 1.80304E+01-1.39044E-12-2.52554E-12
 -1      1293 5.69554E+01 5.08591E+00 3.71102E+00 1.36158E+01-4.62574E-13-1.45828E-12
 -1      1294 6.62975E+01 2.09833E+00 4.29428E+00 1.29172E+00-8.79158E-14 1.61676E-13
 -1      1295 6.03746E+01 3.97784E+00 3.90250E+00-1.15207E+01-3.33886E-13 1.31317E-12
 -1      1296 4.32998E+01 8.62182E+00 2.72672E+00-1.78869E+01-1.09246E-12 2.22800E-12
 -1      1297 2.33573E+01 1.10622E+01 1.20919E+00-1.53300E+01-2.02860E-12 2.69251E-12
 -1      1298 7.78340E+00 7.01451E+00-4.11671E-01-7.29228E+00-2.72160E-12 2.48912E-12
 -1      1299-1.37135E-01-3.40250E+00-1.96057E+00 6.99109E-01-2.03570E-12 1.22335E-12
 -1      1300-1.72698E+00-1.55642E+01-3.05299E+00 3.98458E+00-7.18758E-13 4.00346E-13
 -1      1301-1.05112E+00-2.40309E+01-3.73277E+00 1.99143E+00 5.81313E-13-2.41300E-14
 -1      1302 2.22210E+01 1.83599E+00-7.24615E-01-2.78589E+00-7.13318E-14 1.31611E-12
 -1      1303 2.03401E+01 4.68551E+00-4.83673E-02-3.29959E+00-2.02227E-13-4.41730E-14
 -1      1304 2.08383E+01 4.80327E+00-1.13204E-01-4.15283E+00-2.63289E-13 2.64885E-13
 -1      1305 1.95273E+01 4.99229E+00-1.94542E-02-2.64646E+00-1.95101E-13-4.77621E-13
 -1      1306 1.98185E+01 5.08662E+00 2.60841E-04-3.03749E+00-2.24078E-13-2.90101E-13
 -1      1307 2.05107E+01 3.94932E+00-2.58654E-02-3.06530E+00-3.52857E-13-4.03566E-14
 -1      1308 1.91919E+01 5.08578E+00-3.26146E-03-2.06205E+00-1.50697E-13-6.94823E-13
 -1      1309 1.93352E+01 5.13952E+00 1.07747E-02-2.35558E+00-1.75613E-13-5.97702E-13
 -1      1310 1.97541E+01 4.36682E+00-2.36872E-02-2.48048E+00-3.02224E-13-3.96384E-13
 -1      1311 1.90229E+01 5.13559E+00 3.50265E-03-1.55584E+00-1.09379E-13-7.97284E-13
 -1      1312 1.90980E+01 5.16438E+00 1.30397E-02-1.80562E+00-1.28338E-13-7.54022E-13
 -1      1313 1.94017E+01 4.55862E+00-1.93108E-02-1.92108E+00-2.27191E-13-5.83041E-13
 -1      1314 1.89333E+01 5.16765E+00 6.51936E-03-1.10940E+00-6.88039E-14-8.34249E-13
 -1      1315 1.89740E+01 5.18351E+00 1.29377E-02-1.33014E+00-8.43544E-14-8.17542E-13
 -1      1316 1.92201E+01 4.66870E+00-1.58474E-02-1.43500E+00-1.60187E-13-6.64489E-13
 -1      1317 1.88842E+01 5.18924E+00 8.10331E-03-6.88350E-01-2.78566E-14-8.38100E-13
 -1      1318 1.89062E+01 5.19784E+00 1.20894E-02-8.97347E-01-3.94311E-14-8.37884E-13
 -1      1319 1.91205E+01 4.73725E+00-1.37812E-02-9.96224E-01-9.13250E-14-6.98813E-13
 -1      1320 1.88613E+01 5.20226E+00 9.19880E-03-2.86708E-01 1.54985E-14-8.26044E-13
 -1      1321 1.88708E+01 5.20598E+00 1.10734E-02-4.87253E-01 5.03503E-16-8.31547E-13
 -1      1322 1.90663E+01 4.77853E+00-1.26988E-02-5.83502E-01-2.44078E-14-6.93456E-13
 -1      1323 1.88578E+01 5.20756E+00 1.01668E-02 1.07258E-01 5.05225E-14-8.03552E-13
 -1      1324 1.88575E+01 5.20742E+00 1.00931E-02-9.07162E-02 3.94229E-14-8.17880E-13
 -1      1325 1.90428E+01 4.79776E+00-1.22420E-02-1.87323E-01 4.50288E-14-6.83165E-13
 -1      1326 1.88727E+01 5.20564E+00 1.11709E-02 5.04399E-01 8.57925E-14-7.69985E-13
 -1      1327 1.88624E+01 5.20162E+00 9.13411E-03 3.03421E-01 7.27533E-14-7.91003E-13
 -1      1328 1.90437E+01 4.79712E+00-1.22593E-02 2.03778E-01 9.77487E-14-6.60583E-13
 -1      1329 1.89097E+01 5.19668E+00 1.21867E-02 9.16025E-01 1.16936E-13-7.22608E-13
 -1      1330 1.88868E+01 5.18791E+00 8.04510E-03 7.06036E-01 1.06767E-13-7.53592E-13
 -1      1331 1.90692E+01 4.77644E+00-1.27528E-02 6.00664E-01 1.60350E-13-6.30222E-13
 -1      1332 1.89786E+01 5.18164E+00 1.30719E-02 1.34764E+00 1.49340E-13-6.34432E-13
 -1      1333 1.89370E+01 5.16540E+00 6.40106E-03 1.12542E+00 1.37506E-13-6.86746E-13
 -1      1334 1.91251E+01 4.73367E+00-1.37860E-02 1.01126E+00 2.04412E-13-5.78686E-13
 -1      1335 1.91058E+01 5.16035E+00 1.30618E-02 1.83179E+00 2.01089E-13-4.99139E-13
 -1      1336 1.90293E+01 5.13091E+00 3.17469E-03 1.57914E+00 1.77733E-13-5.76268E-13
 -1      1337 1.92274E+01 4.66208E+00-1.59500E-02 1.45274E+00 2.72276E-13-4.79009E-13
 -1      1338 1.93456E+01 5.13361E+00 1.04322E-02 2.38930E+00 2.41203E-13-2.76831E-13
 -1      1339 1.92004E+01 5.07795E+00-4.23811E-03 2.09181E+00 2.17527E-13-4.09148E-13
 -1      1340 1.94141E+01 4.54588E+00-1.98016E-02 1.94792E+00 3.35971E-13-3.31159E-13
 -1      1341 1.98441E+01 5.09562E+00 6.26942E-03 3.07615E+00 2.68355E-13 1.09857E-13
 -1      1342 1.95392E+01 4.98275E+00-2.02741E-02 2.68857E+00 2.41224E-13-1.21937E-13
 -1      1343 1.97737E+01 4.34605E+00-2.43915E-02 2.51817E+00 3.86179E-13-7.56895E-14
 -1      1344 2.10734E+01 4.89961E+00 8.30289E-03 4.04604E+00 2.25042E-13 8.21482E-13
 -1      1345 2.03144E+01 4.72911E+00-4.76159E-02 3.40907E+00 2.20948E-13 3.91000E-13
 -1      1346 2.05488E+01 3.91251E+00-2.22752E-02 3.16930E+00 3.92363E-13 3.53717E-13
 -1      1347 2.71438E+01 3.19860E+00 9.25935E-01 4.57339E+00 9.76719E-14 2.11420E-12
 -1      1348 2.19815E+01 3.51720E+00-1.81477E-01 3.87793E+00 1.07914E-13 1.22152E-12
 -1      1349 2.20784E+01 2.55833E+00-3.26123E-02 3.44856E+00 3.59434E-13 9.86322E-13
 -1      1350 2.13791E+01 3.59325E-01-7.62514E-01 1.18141E+00 1.83964E-13 2.05219E-12
 -1      1351 2.19554E+01 1.31239E-01-4.00422E-01-1.28229E+00-2.14342E-13 1.38992E-12
 -1      1352 2.06363E+01 3.06418E-01-1.64512E-01-8.03102E-01-2.06904E-13 1.12853E-12
 -1      1353 2.00417E+01 1.53544E-01-7.33565E-02-3.99477E-01-1.68733E-13 1.01959E-12
 -1      1354 1.95751E+01 9.14380E-02-1.47650E-02-3.27272E-01-1.61197E-13 7.71425E-13
 -1      1355 2.09403E+01 3.69027E-01-1.04101E-01-1.26840E+00-3.66165E-13 5.89501E-13
 -1      1356 1.92218E+01 6.48561E-02 3.15039E-03-1.31984E-01-1.31658E-13 6.83995E-13
 -1      1357 1.90715E+01 4.18214E-02 1.33556E-02-1.13966E-01-1.13983E-13 5.04406E-13
 -1      1358 1.98967E+01 1.34253E-01-3.52163E-02-4.97699E-01-2.82788E-13 4.39277E-13
 -1      1359 1.89168E+01 3.22197E-02 1.33381E-02-2.30099E-02-7.25583E-14 4.23439E-13
 -1      1360 1.89034E+01 2.03213E-02 1.11943E-02-1.32392E-02-6.80792E-14 3.17538E-13
 -1      1361 1.94290E+01 5.63340E-02-8.73888E-03-1.61201E-01-1.87317E-13 2.93187E-13
 -1      1362 1.88556E+01 1.71343E-02 8.88775E-03 3.27683E-02-4.83957E-14 2.77025E-13
 -1      1363 1.89074E+01 1.04899E-02 6.61843E-03 3.80227E-02-7.49288E-14 1.97887E-13
 -1      1364 1.92338E+01 2.59444E-02-3.86076E-03 2.23697E-03-1.20379E-13 1.46123E-13
 -1      1365 1.89196E+01 9.51946E-03 4.81527E-03 6.26982E-02-8.20787E-14 1.72898E-13
 -1      1366 1.90046E+01 5.50972E-03 3.88001E-03 6.55026E-02-6.66672E-14 6.80168E-14
 -1      1367 1.91972E+01 1.25636E-02-2.71018E-03 8.80203E-02-1.26321E-13 7.79359E-14
 -1      1368 1.90517E+01 5.53165E-03 2.61098E-03 7.92455E-02-4.72174E-14 4.86677E-14
 -1      1369 1.91541E+01 3.07148E-03 2.50758E-03 8.07913E-02-2.85053E-14-1.66134E-14
 -1      1370 1.92527E+01 6.17899E-03-1.99328E-03 1.35056E-01-9.66878E-14 3.69223E-14
 -1      1371 1.92228E+01 3.63344E-03 1.51454E-03 8.91991E-02-2.70362E-14-6.10588E-14
 -1      1372 1.93355E+01 2.17174E-03 1.79447E-03 9.02472E-02-4.95144E-14-1.23959E-13
 -1      1373 1.93639E+01 3.38806E-03-1.45415E-03 1.62392E-01-9.44089E-14-3.91002E-14
 -1      1374 1.94189E+01 3.08056E-03 9.26502E-04 9.67438E-02-3.72550E-14-1.40645E-13
 -1      1375 1.95396E+01 2.29014E-03 1.37935E-03 9.78240E-02-2.96835E-14-1.98927E-13
 -1      1376 1.95110E+01 2.76743E-03-1.17055E-03 1.80856E-01-6.60003E-14-8.80664E-14
 -1      1377 1.96352E+01 3.45220E-03 5.60664E-04 1.04680E-01-4.43000E-14-1.92552E-13
 -1      1378 1.97649E+01 3.10130E-03 1.10638E-03 1.06174E-01-4.06267E-14-2.56725E-13
 -1      1379 1.96850E+01 3.59660E-03-1.14348E-03 1.97317E-01-6.16926E-14-8.82613E-14
 -1      1380 1.98727E+01 4.46298E-03 2.87514E-04 1.14924E-01-1.10406E-14-3.31752E-13
 -1      1381 2.00147E+01 4.35213E-03 8.98747E-04 1.17099E-01-1.86198E-14-3.30139E-13
 -1      1382 1.98832E+01 5.42176E-03-1.32290E-03 2.16381E-01-4.95105E-14-1.87034E-13
 -1      1383 2.01365E+01 5.86678E-03 3.77715E-05 1.28690E-01-2.04472E-14-3.44733E-13
 -1      1384 2.02954E+01 5.78865E-03 7.04284E-04 1.31700E-01-4.41116E-14-4.00053E-13
 -1      1385 2.01074E+01 7.86813E-03-1.64423E-03 2.41063E-01-4.19697E-14-2.72804E-13
 -1      1386 2.04338E+01 7.38663E-03-2.34150E-04 1.46458E-01-1.24650E-14-3.98558E-13
 -1      1387 2.06146E+01 7.09243E-03 4.78460E-04 1.50318E-01 1.82785E-14-4.00103E-13
 -1      1388 2.03618E+01 1.05195E-02-2.03455E-03 2.72928E-01-2.55465E-14-3.18235E-13
 -1      1389 2.07724E+01 8.64422E-03-5.57088E-04 1.67771E-01-1.77629E-14-3.71802E-13
 -1      1390 2.09794E+01 7.81141E-03 1.84686E-04 1.72293E-01-3.88894E-14-3.88513E-13
 -1      1391 2.06517E+01 1.28027E-02-2.40247E-03 3.11855E-01-1.59125E-14-3.18642E-13
 -1      1392 2.11579E+01 9.07873E-03-9.33031E-04 1.90825E-01-7.00146E-14-4.30065E-13
 -1      1393 2.13926E+01 7.28415E-03-1.91740E-04 1.95507E-01-9.37235E-14-5.00940E-13
 -1      1394 2.09812E+01 1.38532E-02-2.61962E-03 3.55411E-01-8.13193E-14-3.22492E-13
 -1      1395 2.15908E+01 7.86072E-03-1.31113E-03 2.11838E-01-7.65544E-14-5.34494E-13
 -1      1396 2.18497E+01 4.57820E-03-6.13683E-04 2.15708E-01-5.93099E-14-6.32295E-13
 -1      1397 2.13510E+01 1.23677E-02-2.49704E-03 3.97839E-01-1.41564E-13-3.42670E-13
 -1      1398 2.20616E+01 3.83779E-03-1.54618E-03 2.24272E-01-1.73418E-16-6.38387E-13
 -1      1399 2.23325E+01-1.49465E-03-9.47285E-04 2.25694E-01-1.91661E-14-6.58888E-13
 -1      1400 2.17548E+01 6.49864E-03-1.76153E-03 4.28700E-01-6.31041E-14-3.74392E-13
 -1      1401 2.25452E+01-4.38925E-03-1.35497E-03 2.18151E-01-1.83558E-14-6.10120E-13
 -1      1402 2.28024E+01-1.21488E-02-9.21983E-04 2.14674E-01 4.41552E-15-6.23709E-13
 -1      1403 2.21750E+01-6.05483E-03-4.91977E-05 4.31513E-01 1.12432E-14-3.48583E-13
 -1      1404 2.29936E+01-1.80611E-02-3.18598E-04 1.80165E-01-1.60583E-14-6.10800E-13
 -1      1405 2.31947E+01-2.79537E-02-1.54456E-04 1.68634E-01-5.94663E-14-6.61526E-13
 -1      1406 2.25784E+01-2.74407E-02 3.04053E-03 3.83379E-01-1.10216E-14-3.32450E-13
 -1      1407 2.33314E+01-3.72386E-02 1.97041E-03 9.59147E-02-1.88014E-14-6.42178E-13
 -1      1408 2.34166E+01-4.74908E-02 1.66146E-03 7.32228E-02-2.19000E-14-6.92133E-13
 -1      1409 2.29119E+01-5.80645E-02 7.74799E-03 2.57597E-01-3.44915E-14-3.17384E-13
 -1      1410 2.34576E+01-5.89828E-02 5.50223E-03-4.38281E-02 3.53675E-14-5.88186E-13
 -1      1411 2.33591E+01-6.54623E-02 4.31793E-03-7.88048E-02 4.84604E-14-5.21553E-13
 -1      1412 2.31032E+01-9.36974E-02 1.37187E-02 3.24222E-02 6.05202E-14-3.31773E-13
 -1      1413 2.32634E+01-7.52741E-02 9.22116E-03-2.31635E-01-3.68351E-14-5.14968E-13
 -1      1414 2.29287E+01-7.14787E-02 6.57067E-03-2.74793E-01-9.11302E-14-5.73572E-13
 -1      1415 2.30701E+01-1.22073E-01 1.93401E-02-2.91172E-01-1.57305E-14-2.52698E-13
 -1      1416 2.26744E+01-7.28736E-02 1.07213E-02-4.29625E-01-6.77895E-14-5.67962E-13
 -1      1417 2.21056E+01-5.24830E-02 6.18348E-03-4.68497E-01-9.69624E-15-6.69860E-13
 -1      1418 2.27465E+01-1.22332E-01 2.12686E-02-6.64846E-01-9.24347E-14-1.36178E-13
 -1      1419 2.17154E+01-3.90744E-02 7.32815E-03-5.64932E-01 7.55155E-14-6.00207E-13
 -1      1420 2.10073E+01-1.83487E-03 1.17418E-03-5.79812E-01 9.11233E-14-4.73864E-13
 -1      1421 2.21260E+01-7.35425E-02 1.52208E-02-9.76168E-01 6.05822E-14-9.84733E-14
 -1      1422 2.05692E+01 2.53811E-02-1.53844E-03-5.52418E-01 5.77051E-14-4.81198E-13
 -1      1423 1.99122E+01 6.81238E-02-7.74350E-03-5.26285E-01 7.54180E-14-3.60274E-13
 -1      1424 2.13121E+01 2.64494E-02-8.04698E-04-1.06968E+00 1.18473E-13-1.18109E-13
 -1      1425 1.95682E+01 9.61827E-02-1.19822E-02-3.49154E-01 6.24535E-14-3.65305E-13
 -1      1426 1.91868E+01 1.24038E-01-1.56945E-02-2.82974E-01 5.53897E-14-2.56134E-13
 -1      1427 2.05328E+01 1.44576E-01-2.20473E-02-8.27166E-01 8.40890E-14-5.16462E-14
 -1      1428 1.90724E+01 1.34575E-01-1.73972E-02-6.09997E-03-3.36016E-14-3.18601E-13
 -1      1429 1.91137E+01 1.31494E-01-1.68942E-02 7.48008E-02-9.72122E-14-3.94284E-13
 -1      1430 2.00720E+01 2.21649E-01-3.69743E-02-2.73106E-01-1.54703E-14-2.21091E-13
 -1      1431 1.92785E+01 1.16673E-01-1.42625E-02 3.40642E-01-5.34277E-14-4.38354E-13
 -1      1432 1.97263E+01 8.44909E-02-9.79601E-03 4.00702E-01-5.03391E-14-5.10959E-13
 -1      1433 2.01227E+01 2.13169E-01-3.50958E-02 3.92716E-01-1.18027E-13-1.96895E-13
 -1      1434 2.01001E+01 5.51795E-02-5.43802E-03 5.51678E-01-7.56556E-14-5.63424E-13
 -1      1435 2.07846E+01 1.20500E-02 9.21005E-04 5.69602E-01-3.09648E-14-6.25451E-13
 -1      1436 2.06634E+01 1.24313E-01-1.76730E-02 8.99990E-01-1.43616E-13-2.46778E-13
 -1      1437 2.12244E+01-1.32460E-02 2.88325E-03 5.70483E-01-1.52745E-13-6.08312E-13
 -1      1438 2.19198E+01-4.77943E-02 8.70454E-03 5.49652E-01-1.10033E-13-7.40491E-13
 -1      1439 2.14724E+01 5.50004E-03 3.33055E-03 1.07715E+00-1.29483E-13-3.20350E-13
 -1      1440 2.22908E+01-5.81922E-02 6.70377E-03 4.37464E-01-2.16840E-14-7.08850E-13
 -1      1441 2.28218E+01-7.51279E-02 1.07816E-02 3.96581E-01 8.89913E-16-7.46909E-13
 -1      1442 2.22667E+01-8.63764E-02 1.72949E-02 9.32488E-01-1.53409E-13-3.09929E-13
 -1      1443 2.30489E+01-7.15617E-02 6.20970E-03 2.38872E-01-1.40894E-14-7.68760E-13
 -1      1444 2.33404E+01-7.28223E-02 8.51745E-03 1.96769E-01 9.87144E-15-8.04239E-13
 -1      1445 2.28397E+01-1.24918E-01 2.13075E-02 5.99722E-01-8.25121E-15-2.00733E-13
 -1      1446 2.34115E+01-6.22062E-02 3.66763E-03 4.98374E-02 1.10903E-13-7.79730E-13
 -1      1447 2.34752E+01-5.45089E-02 4.67891E-03 1.73043E-02 1.01457E-13-7.43529E-13
 -1      1448 2.31118E+01-1.17480E-01 1.82236E-02 2.30788E-01 1.46628E-13-2.43620E-13
 -1      1449 2.34179E+01-4.31416E-02 1.13548E-03-9.02780E-02 2.44813E-14-7.48703E-13
 -1      1450 2.33121E+01-3.26453E-02 1.39709E-03-1.10368E-01 3.64292E-17-7.33416E-13
 -1      1451 2.31051E+01-8.61762E-02 1.22928E-02-7.36953E-02 5.92469E-14-4.92178E-13
 -1      1452 2.31689E+01-2.38582E-02-4.23381E-04-1.73590E-01-6.55101E-14-7.30645E-13
 -1      1453 2.29620E+01-1.42133E-02-5.77109E-04-1.82939E-01 2.08843E-14-7.69681E-13
 -1      1454 2.28923E+01-5.05540E-02 6.47936E-03-2.75888E-01-6.68649E-14-4.63966E-13
 -1      1455 2.27735E+01-8.77960E-03-9.85394E-04-2.09444E-01 9.03404E-14-7.43157E-13
 -1      1456 2.25229E+01-1.40896E-03-1.38005E-03-2.11254E-01 5.18232E-14-6.54062E-13
 -1      1457 2.25559E+01-2.12154E-02 2.04940E-03-3.80717E-01 8.86971E-14-3.29702E-13
 -1      1458 2.23206E+01 1.19058E-03-9.04528E-04-2.12440E-01 5.44465E-14-7.03014E-13
 -1      1459 2.20662E+01 6.16515E-03-1.44046E-03-2.09744E-01 7.43117E-14-6.87689E-13
 -1      1460 2.21661E+01-1.22189E-03-8.03754E-04-4.11753E-01 9.26086E-14-4.75028E-13
 -1      1461 2.18712E+01 6.82036E-03-5.47178E-04-1.96016E-01 4.22921E-14-5.36424E-13
 -1      1462 2.16367E+01 9.82632E-03-1.15330E-03-1.91089E-01 4.18502E-14-4.87513E-13
 -1      1463 2.17730E+01 1.03414E-02-2.36640E-03-3.95248E-01 9.68607E-14-3.56726E-13
 -1      1464 2.14610E+01 9.34568E-03-1.55498E-04-1.70203E-01-1.74421E-14-5.02222E-13
 -1      1465 2.12578E+01 1.09315E-02-7.73056E-04-1.64529E-01-9.30760E-14-5.57667E-13
 -1      1466 2.14080E+01 1.57261E-02-3.03288E-03-3.52829E-01 1.93979E-14-3.31636E-13
 -1      1467 2.11068E+01 9.90162E-03 1.56898E-04-1.41557E-01-1.25058E-13-5.48272E-13
 -1      1468 2.09382E+01 1.05518E-02-4.26369E-04-1.36002E-01-9.66511E-14-6.56029E-13
 -1      1469 2.10872E+01 1.71549E-02-3.14346E-03-2.99687E-01-1.54502E-13-3.22491E-13
 -1      1470 2.08131E+01 9.34553E-03 3.60655E-04-1.13898E-01-1.55572E-14-7.84275E-13
 -1      1471 2.06779E+01 9.42962E-03-1.58298E-04-1.08901E-01-1.90071E-14-8.32451E-13
 -1      1472 2.08166E+01 1.63426E-02-2.94464E-03-2.45297E-01-1.44786E-13-4.81183E-13
 -1      1473 2.05772E+01 8.26052E-03 4.66959E-04-8.91410E-02 5.68617E-14-7.69331E-13
 -1      1474 2.04717E+01 8.03924E-03 2.69435E-05-8.48685E-02 2.25914E-14-7.46167E-13
 -1      1475 2.05953E+01 1.44567E-02-2.59938E-03-1.94878E-01 8.09342E-14-6.42743E-13
 -1      1476 2.03928E+01 7.01890E-03 4.98344E-04-6.79741E-02-1.77666E-14-5.12846E-13
 -1      1477 2.03128E+01 6.66825E-03 1.39059E-04-6.44324E-02 1.13661E-13-4.58602E-13
 -1      1478 2.04194E+01 1.22343E-02-2.20975E-03-1.50773E-01 1.80700E-13-3.57481E-13
 -1      1479 2.02525E+01 5.85123E-03 4.72523E-04-5.03355E-02 2.17068E-13-4.73821E-13
 -1      1480 2.01936E+01 5.48253E-03 1.83222E-04-4.74325E-02 2.57694E-13-1.07878E-13
 -1      1481 2.02829E+01 1.01209E-02-1.83823E-03-1.13502E-01 2.89311E-13-2.25597E-13
 -1      1482 2.01490E+01 4.88829E-03 3.90580E-04-3.57276E-02 2.00899E-13-4.28355E-14
 -1      1483 2.01077E+01 4.56833E-03 1.54741E-04-3.33194E-02 1.24153E-13 9.57281E-14
 -1      1484 2.01800E+01 8.36632E-03-1.52545E-03-8.24891E-02 3.35682E-13-1.33736E-13
 -1      1485 2.00762E+01 4.21390E-03 2.35327E-04-2.34162E-02-5.52052E-14 1.97661E-14
 -1      1486 2.00499E+01 3.95358E-03 5.55690E-05-2.13135E-02-6.82857E-14-7.72965E-14
 -1      1487 2.01052E+01 7.16438E-03-1.28014E-03-5.65604E-02 3.11827E-14-1.83981E-13
 -1      1488 2.00292E+01 3.77453E-03 2.27774E-05-1.26630E-02 1.15831E-13 1.11279E-14
 -1      1489 2.00161E+01 3.45299E-03 1.44232E-06-1.06934E-02 7.95783E-14 1.70753E-13
 -1      1490 2.00538E+01 6.46954E-03-1.08899E-03-3.43133E-02-6.44558E-16-1.11869E-13
 -1      1491 2.00041E+01 3.70466E-03 6.25603E-05-3.18459E-03-1.10870E-14 2.53891E-13
 -1      1492 2.00024E+01 2.43118E-03 5.56247E-04-1.29285E-03 5.72489E-15 2.00524E-13
 -1      1493 2.00215E+01 5.90132E-03-8.16332E-04-1.50837E-02 1.04217E-13-9.88265E-14
 -1      1494 1.99975E+01-1.06184E-03 1.42129E-03 2.48404E-03-2.49151E-13 2.41812E-13
 -1      1495 2.00036E+01 9.53683E-04 9.15639E-05 6.12585E-05-1.33195E-13-1.14779E-14
 -1      1496 2.02166E+01 7.54709E-02-1.51878E-01 4.81785E-01 1.72119E-13 1.67042E-12
 -1      1497 2.14833E+01 2.15926E-01-2.29150E-01 7.18503E-01 1.47646E-13 1.93362E-12
 -1      1498 2.16896E+01 8.80554E-01-8.53931E-02 2.05935E+00 2.90358E-13 1.29340E-12
 -1      1499 1.92945E+01 3.25321E-02-2.12797E-02 1.83792E-01 1.22236E-13 1.35994E-12
 -1      1500 1.97123E+01 1.13680E-01-6.25667E-02 2.35818E-01 1.13905E-13 1.53573E-12
 -1      1501 2.02707E+01 1.87622E-01-5.51493E-02 7.81712E-01 2.49217E-13 1.05027E-12
 -1      1502 1.89208E+01 1.54341E-02 5.64710E-03 5.03540E-02 9.30133E-14 1.09675E-12
 -1      1503 1.90557E+01 5.19724E-02 1.06208E-03 7.68406E-02 9.44305E-14 1.24840E-12
 -1      1504 1.95333E+01 7.22089E-02-1.22030E-02 2.93517E-01 2.02286E-13 8.39094E-13
 -1      1505 1.88223E+01 7.66850E-03 6.90539E-03-1.39508E-02 6.03649E-14 9.16668E-13
 -1      1506 1.88313E+01 2.65300E-02 1.11710E-02 8.20197E-04 6.40763E-14 1.02499E-12
 -1      1507 1.92087E+01 3.18376E-02-2.58591E-03 7.53831E-02 1.47744E-13 6.46601E-13
 -1      1508 1.88669E+01 4.03245E-03 4.65837E-03-4.70858E-02 5.50898E-14 7.73643E-13
 -1      1509 1.88141E+01 1.48899E-02 8.62355E-03-3.83356E-02 3.90996E-14 8.42840E-13
 -1      1510 1.91079E+01 1.45847E-02-1.83180E-03-3.41014E-02 1.12335E-13 5.48317E-13
 -1      1511 1.89895E+01 2.23135E-03 3.10256E-03-6.47620E-02 1.29226E-14 6.97271E-13
 -1      1512 1.89048E+01 8.89817E-03 5.50388E-03-5.93123E-02 2.45112E-14 7.21260E-13
 -1      1513 1.91326E+01 6.50767E-03-1.97242E-03-9.24138E-02 5.51395E-14 4.49278E-13
 -1      1514 1.91561E+01 1.43886E-03 2.23323E-03-7.47102E-02 3.88739E-14 6.45633E-13
 -1      1515 1.90545E+01 5.76645E-03 3.60978E-03-7.10572E-02 1.84522E-14 6.66054E-13
 -1      1516 1.92299E+01 2.68227E-03-1.88981E-03-1.24837E-01 4.50912E-14 3.65743E-13
 -1      1517 1.93505E+01 1.30763E-03 1.65499E-03-8.14374E-02 3.51950E-14 5.16812E-13
 -1      1518 1.92386E+01 4.34192E-03 2.55887E-03-7.85977E-02 5.23501E-14 6.02404E-13
 -1      1519 1.93717E+01 1.21328E-03-1.74876E-03-1.44585E-01 7.71169E-14 3.27727E-13
 -1      1520 1.95666E+01 1.66166E-03 1.16345E-03-8.79438E-02 1.49817E-14 4.65163E-13
 -1      1521 1.94461E+01 4.09030E-03 1.93976E-03-8.51957E-02 8.49386E-15 4.87778E-13
 -1      1522 1.95441E+01 1.25847E-03-1.71866E-03-1.59629E-01 5.54123E-14 2.83104E-13
 -1      1523 1.98058E+01 2.39463E-03 6.83374E-04-9.64158E-02 5.66171E-14 4.21740E-13
 -1      1524 1.96750E+01 4.72823E-03 1.54359E-03-9.31821E-02 5.25292E-14 4.74802E-13
 -1      1525 1.97423E+01 2.37852E-03-1.86315E-03-1.75369E-01 6.24509E-14 2.26026E-13
 -1      1526 2.00746E+01 3.42699E-03 1.87525E-04-1.08531E-01 7.85781E-14 3.11819E-13
 -1      1527 1.99292E+01 6.08193E-03 1.27449E-03-1.04321E-01 5.51938E-14 3.79067E-13
 -1      1528 1.99677E+01 4.30710E-03-2.19732E-03-1.95756E-01 7.38977E-14 2.11120E-13
 -1      1529 2.03835E+01 4.67489E-03-3.36647E-04-1.25566E-01 6.14042E-14 2.11951E-13
 -1      1530 2.02170E+01 8.01354E-03 1.07856E-03-1.19953E-01 6.09818E-14 2.73061E-13
 -1      1531 2.02262E+01 6.84348E-03-2.72116E-03-2.23765E-01 1.11316E-13 1.19197E-13
 -1      1532 2.07455E+01 6.01297E-03-8.91210E-04-1.48337E-01 6.14840E-15 1.29880E-13
 -1      1533 2.05501E+01 1.03573E-02 9.12305E-04-1.40978E-01 2.13559E-14 1.78302E-13
 -1      1534 2.05265E+01 9.77183E-03-3.42324E-03-2.61492E-01 6.63688E-14 6.13127E-15
 -1      1535 2.11747E+01 7.21906E-03-1.45374E-03-1.76947E-01 1.30783E-14 1.28897E-13
 -1      1536 2.09422E+01 1.28364E-02 7.31977E-04-1.67654E-01 7.28172E-15 1.64888E-13
 -1      1537 2.08791E+01 1.27652E-02-4.26500E-03-3.09901E-01 1.41907E-14 7.85255E-15
 -1      1538 2.16834E+01 7.89038E-03-1.94100E-03-2.10241E-01-8.29827E-14 2.01113E-13
 -1      1539 2.14062E+01 1.49362E-02 4.96186E-04-1.99139E-01-4.28511E-14 1.21654E-13
 -1      1540 2.12942E+01 1.52429E-02-5.14561E-03-3.68126E-01-2.90584E-14 3.47088E-14
 -1      1541 2.22775E+01 7.32774E-03-2.13776E-03-2.44824E-01 4.66532E-16 2.27537E-13
 -1      1542 2.19519E+01 1.57173E-02 1.87378E-04-2.32663E-01-1.16183E-14 2.56999E-13
 -1      1543 2.17788E+01 1.61571E-02-5.83913E-03-4.32125E-01-6.08396E-14 8.47451E-14
 -1      1544 2.29487E+01 4.41237E-03-1.58330E-03-2.73563E-01 4.87883E-14 8.45921E-14
 -1      1545 2.25791E+01 1.35778E-02-1.34123E-04-2.62216E-01 2.74328E-14 1.72126E-13
 -1      1546 2.23319E+01 1.37067E-02-5.89739E-03-4.92499E-01 6.19418E-14 1.08677E-13
 -1      1547 2.36633E+01-2.40991E-03 5.42856E-04-2.83646E-01-6.72559E-14 8.39190E-14
 -1      1548 2.32691E+01 6.07668E-03-2.32603E-04-2.76815E-01 1.63143E-15 5.32005E-14
 -1      1549 2.29379E+01 5.07041E-03-4.53927E-03-5.31437E-01 4.04715E-14 3.45505E-14
 -1      1550 2.43462E+01-1.47353E-02 5.35591E-03-2.55131E-01-6.80805E-14 2.68615E-13
 -1      1551 2.39718E+01-9.82848E-03 4.01146E-04-2.59004E-01-1.08618E-13 1.36250E-13
 -1      1552 2.35563E+01-1.34630E-02-6.26179E-04-5.19639E-01-1.02546E-13 1.01040E-13
 -1      1553 2.48674E+01-3.29063E-02 1.36376E-02-1.62490E-01-1.14242E-13 4.40124E-13
 -1      1554 2.45907E+01-3.64094E-02 2.49124E-03-1.85552E-01-7.07125E-14 3.51115E-13
 -1      1555 2.41120E+01-4.51855E-02 6.98047E-03-4.16085E-01-1.58722E-13 1.85034E-13
 -1      1556 2.50426E+01-5.34925E-02 2.42769E-02 1.62058E-02 5.00164E-14 5.32528E-13
 -1      1557 2.49749E+01-7.18756E-02 6.46953E-03-3.42368E-02-2.15132E-14 5.04773E-13
 -1      1558 2.44888E+01-8.91786E-02 1.83935E-02-1.76829E-01-9.46170E-14 3.01644E-13
 -1      1559 2.46711E+01-6.62440E-02 3.19439E-02 2.77836E-01 9.43577E-14 3.07667E-13
 -1      1560 2.49332E+01-1.05296E-01 1.13248E-02 1.98835E-01 8.45088E-14 5.27868E-13
 -1      1561 2.45402E+01-1.33920E-01 3.07967E-02 2.18704E-01 1.18650E-13 3.35728E-13
 -1      1562 2.36368E+01-5.39424E-02 2.63695E-02 5.62482E-01 6.07786E-14 1.86871E-13
 -1      1563 2.42957E+01-1.13227E-01 1.30760E-02 4.71547E-01 5.65277E-14 3.06075E-13
 -1      1564 2.41335E+01-1.50513E-01 3.70608E-02 7.20908E-01 1.32746E-13 2.34339E-13
 -1      1565 2.20639E+01-4.54755E-03-1.44074E-03 7.36599E-01-1.01674E-13 3.50525E-13
 -1      1566 2.30364E+01-6.84870E-02 5.43412E-03 6.73898E-01-9.63691E-14 1.94691E-13
 -1      1567 2.32401E+01-9.92506E-02 2.71960E-02 1.16139E+00-3.91527E-14 2.75377E-13
 -1      1568 2.04254E+01 6.70903E-02-4.40846E-02 6.48140E-01-1.19071E-14 4.57939E-13
 -1      1569 2.14178E+01 3.06137E-02-1.35302E-02 6.60074E-01-5.76362E-15 4.32931E-13
 -1      1570 2.20518E+01 3.84633E-02 1.56498E-04 1.27688E+00-6.73159E-14 3.87752E-13
 -1      1571 1.94121E+01 1.16567E-01-7.52948E-02 2.59020E-01 2.01644E-14 4.95087E-13
 -1      1572 2.00084E+01 1.37540E-01-3.46623E-02 3.58078E-01-2.28116E-14 4.22280E-13
 -1      1573 2.10034E+01 2.08914E-01-3.13095E-02 8.74665E-01-1.14457E-14 2.85459E-13
 -1      1574 1.95320E+01 1.05357E-01-6.77594E-02-2.66922E-01 1.37963E-13 2.14426E-13
 -1      1575 1.94380E+01 1.81892E-01-4.13396E-02-1.25876E-01 1.16546E-13 3.58310E-13
 -1      1576 2.05849E+01 3.00879E-01-4.64264E-02 4.87769E-02 1.83312E-13 1.86317E-13
 -1      1577 2.07291E+01 4.24420E-02-2.47438E-02-6.54785E-01-6.43999E-14 7.48845E-14
 -1      1578 1.99905E+01 1.33578E-01-2.52780E-02-5.46062E-01-1.50002E-14 9.29049E-14
 -1      1579 2.10129E+01 2.36769E-01-3.73794E-02-8.02127E-01 1.30590E-14 3.14332E-15
 -1      1580 2.24209E+01-2.47225E-02 2.20299E-02-7.38534E-01 1.91017E-14 6.06737E-14
 -1      1581 2.13898E+01 3.45162E-02 2.07653E-03-7.05163E-01-2.07755E-14 6.21170E-14
 -1      1582 2.20603E+01 6.17379E-02-1.64461E-02-1.25920E+00-1.10341E-14-7.09988E-14
 -1      1583 2.39265E+01-6.04906E-02 4.58692E-02-5.60309E-01 1.00930E-13-1.09177E-13
 -1      1584 2.30090E+01-4.94351E-02 2.22592E-02-5.92193E-01 1.04818E-13 3.68594E-14
 -1      1585 2.32399E+01-1.00858E-01 1.45763E-03-1.19446E+00 1.19595E-13-1.25507E-13
 -1      1586 2.48388E+01-6.19531E-02 4.42877E-02-2.74116E-01-1.28380E-13-4.33681E-14
 -1      1587 2.42767E+01-8.55376E-02 2.69042E-02-3.34378E-01-6.94670E-14-1.63633E-13
 -1      1588 2.41281E+01-1.73625E-01 1.00754E-02-7.79905E-01 2.18610E-14 3.18495E-15
 -1      1589 2.50948E+01-4.49612E-02 2.94425E-02-1.32558E-02-3.77415E-14 2.13992E-13
 -1      1590 2.49239E+01-8.06721E-02 2.01781E-02-7.06000E-02-1.10906E-13 4.28685E-14
 -1      1591 2.45387E+01-1.61854E-01 1.11856E-02-2.77917E-01-1.96301E-13 5.90157E-14
 -1      1592 2.48424E+01-2.47259E-02 1.34913E-02 1.62736E-01 9.86607E-14 1.38490E-13
 -1      1593 2.49722E+01-5.67473E-02 1.00722E-02 1.22433E-01 5.71427E-14 2.42425E-13
 -1      1594 2.44972E+01-1.10058E-01 8.66699E-03 1.31070E-01 5.81080E-14-6.32419E-14
 -1      1595 2.42876E+01-8.84487E-03 2.21640E-03 2.51924E-01-9.32988E-14 2.28283E-13
 -1      1596 2.45937E+01-3.09836E-02 2.02115E-03 2.29763E-01-4.23576E-15 2.53715E-13
 -1      1597 2.41340E+01-5.56672E-02 5.46809E-03 3.85287E-01-5.25708E-14 1.07296E-13
 -1      1598 2.36064E+01 1.09484E-03-3.77994E-03 2.77113E-01 1.94738E-13-4.60049E-15
 -1      1599 2.39841E+01-1.11897E-02-2.42324E-03 2.68643E-01 6.93840E-14 1.70031E-13
 -1      1600 2.35949E+01-1.54276E-02 2.90592E-03 4.99681E-01 1.65825E-13 2.32432E-13
 -1      1601 2.29175E+01 6.19498E-03-6.01162E-03 2.63882E-01 7.74943E-14-3.39945E-13
 -1      1602 2.32975E+01 1.29634E-03-3.96573E-03 2.63911E-01 5.08252E-14-1.93724E-13
 -1      1603 2.29964E+01 8.52594E-03 1.22226E-03 5.16735E-01 1.85172E-13 3.72705E-15
 -1      1604 2.22874E+01 8.12068E-03-6.15237E-03 2.31873E-01-5.38100E-15-1.85078E-13
 -1      1605 2.26321E+01 7.89199E-03-3.85956E-03 2.36351E-01-1.23339E-14-1.59301E-13
 -1      1606 2.24148E+01 1.99808E-02 2.35225E-04 4.77853E-01-7.89993E-15 5.03282E-14
 -1      1607 2.17455E+01 8.24651E-03-5.37341E-03 1.93603E-01 1.66997E-14-2.85691E-13
 -1      1608 2.20392E+01 1.05592E-02-3.08384E-03 1.99899E-01 7.61374E-14-1.66990E-13
 -1      1609 2.18921E+01 2.35605E-02-2.97453E-04 4.13334E-01 5.42986E-14 8.23746E-14
 -1      1610 2.12985E+01 7.49072E-03-4.32744E-03 1.56019E-01-1.23126E-14-3.41808E-13
 -1      1611 2.15385E+01 1.09249E-02-2.19254E-03 1.62619E-01-1.31594E-13-4.62655E-13
 -1      1612 2.14456E+01 2.28602E-02-5.58199E-04 3.42008E-01-2.51904E-14-1.13263E-13
 -1      1613 2.09408E+01 6.39662E-03-3.31947E-03 1.22423E-01-1.10428E-13-7.77685E-14
 -1      1614 2.11311E+01 1.01036E-02-1.42341E-03 1.28556E-01-2.78722E-14-1.72045E-13
 -1      1615 2.10779E+01 2.01972E-02-6.61341E-04 2.74102E-01-7.37134E-14 1.78501E-13
 -1      1616 2.06615E+01 5.25867E-03-2.46409E-03 9.39810E-02 1.25366E-13 4.74323E-14
 -1      1617 2.08087E+01 8.78151E-03-8.40312E-04 9.93233E-02-5.69293E-15 3.44820E-14
 -1      1618 2.07834E+01 1.69009E-02-6.75279E-04 2.14292E-01-5.10568E-14 1.94421E-13
 -1      1619 2.04478E+01 4.22509E-03-1.78718E-03 7.07052E-02-4.95025E-15-9.43033E-14
 -1      1620 2.05594E+01 7.35282E-03-4.31413E-04 7.51833E-02 6.63198E-14 1.01400E-13
 -1      1621 2.05529E+01 1.36660E-02-6.42723E-04 1.64017E-01 4.04765E-14 3.20532E-13
 -1      1622 2.02877E+01 3.36684E-03-1.28274E-03 5.20246E-02-5.36628E-14-1.03817E-14
 -1      1623 2.03705E+01 6.03608E-03-1.62779E-04 5.57063E-02-1.65479E-14-8.68804E-15
 -1      1624 2.03761E+01 1.08237E-02-5.94851E-04 1.22962E-01-8.23426E-14 5.08196E-13
 -1      1625 2.01708E+01 2.70645E-03-9.41695E-04 3.70982E-02 5.05357E-14-8.94966E-14
 -1      1626 2.02306E+01 4.94607E-03-5.01020E-06 4.01287E-02 4.01443E-14-1.58313E-13
 -1      1627 2.02434E+01 8.51643E-03-5.57878E-04 8.99226E-02 1.23930E-13 2.54147E-13
 -1      1628 2.00889E+01 2.24982E-03-7.66795E-04 2.50083E-02-1.61118E-14 3.83832E-14
 -1      1629 2.01302E+01 4.13977E-03 5.55501E-05 2.75721E-02 3.61603E-15 8.28734E-15
 -1      1630 2.01466E+01 6.77731E-03-5.60572E-04 6.33124E-02-2.41260E-14 1.42846E-13
 -1      1631 2.00359E+01 1.99457E-03-7.21073E-04 1.48041E-02 9.50770E-14 4.39353E-14
 -1      1632 2.00617E+01 3.65555E-03 2.16533E-05 1.71378E-02-1.77024E-14 7.38925E-14
 -1      1633 2.00790E+01 5.62309E-03-6.24016E-04 4.14437E-02-2.61812E-14 2.22052E-13
 -1      1634 2.00073E+01 1.83873E-03-5.20795E-04 5.68613E-03 7.68480E-14-2.46082E-13
 -1      1635 2.00197E+01 3.41592E-03-2.59117E-05 8.07098E-03 1.61628E-13 1.74773E-16
 -1      1636 2.00352E+01 5.05104E-03-6.58656E-04 2.27848E-02 2.17036E-13 4.14109E-13
 -1      1637 1.99992E+01 1.19093E-03 7.38153E-04-1.39853E-03 1.03911E-13-3.27874E-13
 -1      1638 2.00000E+01 2.59970E-03 2.26114E-04 5.82648E-04 4.98415E-14-3.54603E-13
 -1      1639 2.00107E+01 3.92976E-03-4.49493E-04 6.72176E-03 1.88647E-13 4.76428E-13
 -1      1640 1.99979E+01-1.25751E-03 1.45062E-03-2.22358E-03-1.79765E-13-2.49699E-13
 -1      1641 2.00030E+01 4.21252E-03-4.07864E-04 3.72788E-03 6.49188E-13 7.50319E-13
 -1      1642 2.00026E+01 2.06433E-03 4.66921E-04 1.92057E-03-3.56809E-14 4.97523E-13
 -1      1643 2.00027E+01 2.77727E-02-4.62754E-04 1.24622E-02 1.26186E-12 4.23645E-13
 -1      1644 2.00031E+01 1.52190E-02-3.00840E-04 1.07006E-02 7.23590E-13 4.90907E-13
 -1      1645 2.00061E+01 2.10577E-02-6.00132E-04 1.50145E-02 4.68680E-13 7.85429E-13
 -1      1646 2.00014E+01 6.54587E-02-2.88285E-04 1.91351E-02 1.69679E-12 8.97757E-14
 -1      1647 2.00021E+01 4.44187E-02-3.11516E-04 1.80233E-02 1.38026E-12 4.78029E-13
 -1      1648 2.00044E+01 4.89032E-02-7.22086E-04 3.01353E-02 8.09373E-13 6.17149E-13
 -1      1649 1.99998E+01 1.10825E-01-1.17169E-04 2.19352E-02 1.46339E-12-3.19714E-13
 -1      1650 2.00007E+01 8.56952E-02-1.73782E-04 2.17010E-02 1.78057E-12-1.48861E-13
 -1      1651 2.00021E+01 8.61909E-02-3.05423E-04 3.98541E-02 6.27834E-13 2.08126E-16
 -1      1652 1.99983E+01 1.54912E-01-2.13709E-05 2.06096E-02 6.59845E-13-4.93645E-13
 -1      1653 1.99991E+01 1.31050E-01-6.31251E-05 2.11803E-02 1.39166E-12-6.31747E-13
 -1      1654 1.99994E+01 1.26943E-01 1.62728E-04 4.18826E-02 6.00066E-13-8.71618E-13
 -1      1655 1.99972E+01 1.91474E-01 3.25629E-05 1.55966E-02 4.65182E-13-9.56441E-14
 -1      1656 1.99978E+01 1.72541E-01 5.94973E-06 1.68463E-02 6.52664E-13-2.21915E-13
 -1      1657 1.99971E+01 1.64944E-01 5.86428E-04 3.63276E-02 3.88802E-13-5.73234E-13
 -1      1658 1.99965E+01 2.13469E-01 5.29668E-05 7.92161E-03 2.91704E-13-1.18110E-13
 -1      1659 1.99969E+01 2.03211E-01 3.83186E-05 9.59368E-03 3.79730E-13 2.71318E-14
 -1      1660 1.99954E+01 1.94338E-01 8.96157E-04 2.44108E-02 2.39479E-13-1.80282E-13
 -1      1661 1.99965E+01 2.17331E-01 5.37170E-05-1.04710E-03-1.15734E-13-1.70359E-13
 -1      1662 1.99965E+01 2.17472E-01 5.10033E-05 7.61623E-04 1.54493E-13-2.68944E-13
 -1      1663 1.99945E+01 2.10074E-01 1.05411E-03 8.40583E-03 5.32188E-14-4.11428E-13
 -1      1664 1.99969E+01 2.02506E-01 3.75449E-05-9.80818E-03-1.70863E-13-1.10435E-13
 -1      1665 1.99966E+01 2.12986E-01 4.85733E-05-8.16089E-03-2.22798E-13 3.02264E-13
 -1      1666 1.99946E+01 2.09709E-01 1.04559E-03-8.93551E-03-8.75190E-14-1.43804E-13
 -1      1667 1.99979E+01 1.71538E-01 6.77086E-07-1.69015E-02-1.48454E-13-6.32147E-14
 -1      1668 1.99973E+01 1.90534E-01 3.19962E-05-1.56952E-02 5.28293E-14-4.14388E-13
 -1      1669 1.99955E+01 1.93356E-01 8.72217E-04-2.47357E-02-1.12234E-13-6.69125E-14
 -1      1670 1.99992E+01 1.30476E-01-5.66609E-05-2.10398E-02-5.67304E-13-1.04561E-13
 -1      1671 1.99984E+01 1.54202E-01-1.88734E-05-2.04990E-02-2.20414E-13-3.38513E-13
 -1      1672 1.99972E+01 1.63943E-01 5.68966E-04-3.62761E-02-1.39596E-13-3.98317E-13
 -1      1673 2.00007E+01 8.50882E-02-1.60532E-04-2.14877E-02-7.69729E-13-1.97074E-13
 -1      1674 1.99998E+01 1.09980E-01-1.13363E-04-2.17362E-02-6.68486E-13-9.24130E-14
 -1      1675 1.99995E+01 1.25996E-01 1.48744E-04-4.15794E-02-5.62692E-14-2.72557E-13
 -1      1676 2.00020E+01 4.41473E-02-3.38572E-04-1.78221E-02-3.65093E-13 1.36222E-13
 -1      1677 2.00013E+01 6.50491E-02-2.69777E-04-1.88997E-02-7.33286E-13 1.80734E-13
 -1      1678 2.00020E+01 8.51808E-02-3.15926E-04-3.94367E-02-2.32258E-13 7.37748E-14
 -1      1679 2.00034E+01 1.55880E-02-1.18502E-04-1.08077E-02-9.68978E-14 5.76319E-14
 -1      1680 2.00024E+01 2.79360E-02-4.73876E-04-1.25994E-02-2.66370E-13 2.32341E-13
 -1      1681 2.00041E+01 4.85701E-02-7.02690E-04-2.97851E-02-1.01310E-13 3.39730E-13
 -1      1682 2.00046E+01 5.99544E-03 4.95476E-04-4.77818E-03-2.52757E-13-3.21960E-13
 -1      1683 2.00047E+01 9.02146E-03-4.19371E-04-7.28940E-03-5.75478E-14-1.63544E-13
 -1      1684 2.00091E+01 2.64779E-02-9.79476E-05-1.95056E-02-7.18025E-14 9.86945E-14
 -1      1685 2.00125E+01 1.37180E-02 4.76513E-04-1.11082E-02-8.79437E-14-3.01461E-13
 -1      1686-3.99980E-01-1.33098E+01-1.47101E+00-6.76037E-01 9.81049E-13 3.64264E-13
 -1      1687-4.44477E-01-1.54488E+01-1.63361E+00 3.92688E-01 6.28567E-13 1.94178E-13
 -1      1688 1.30860E+00-7.69487E+00-1.22384E+00 3.40839E-01 1.46738E-12 8.11767E-13
 -1      1689 6.26725E-01-1.27518E+01-1.68831E+00-2.29781E-01 1.31495E-12 5.15397E-13
 -1      1690 7.46611E+00-2.90533E-01-5.38905E-01 4.75887E+00 1.52611E-12 1.09379E-12
 -1      1691 4.18672E+00-5.70124E+00-1.28825E+00 1.78446E+00 1.54432E-12 8.52651E-13
 -1      1692 1.77486E+01 5.01545E+00 2.35887E-01 9.71474E+00 1.44540E-12 1.86562E-12
 -1      1693 1.13062E+01 1.74309E+00-6.46520E-01 6.09532E+00 1.44340E-12 1.42131E-12
 -1      1694 3.19424E+01 6.37607E+00 1.00196E+00 1.25492E+01 1.19382E-12 1.57518E-12
 -1      1695 2.28587E+01 5.97344E+00 1.24239E-01 1.05077E+01 1.44507E-12 1.70308E-12
 -1      1696 4.59850E+01 4.90741E+00 1.54185E+00 1.04093E+01 7.08072E-13 9.78773E-13
 -1      1697 3.70831E+01 6.62065E+00 9.22764E-01 1.20862E+01 1.14242E-12 1.50946E-12
 -1      1698 5.30581E+01 3.83051E+00 1.67524E+00 2.85585E+00 4.08951E-13 8.48210E-14
 -1      1699 4.84416E+01 5.03032E+00 1.38569E+00 7.67165E+00 6.04100E-13 7.59837E-13
 -1      1700 5.31535E+01 4.12348E+00 1.71126E+00-5.12367E+00 4.72067E-13-8.04079E-13
 -1      1701 5.49604E+01 3.57003E+00 1.80498E+00 6.91968E-01 3.65485E-13-1.80612E-13
 -1      1702 4.24480E+01 5.85174E+00 1.13888E+00-1.03633E+01 8.64947E-13-1.52012E-12
 -1      1703 5.01983E+01 4.17890E+00 1.66976E+00-7.08277E+00 6.13370E-13-1.08280E-12
 -1      1704 2.88120E+01 6.67399E+00 4.83533E-01-1.17231E+01 1.10623E-12-1.72973E-12
 -1      1705 3.80267E+01 5.90250E+00 1.23473E+00-1.22929E+01 8.67972E-13-1.79368E-12
 -1      1706 1.51707E+01 3.83613E+00-3.67566E-01-7.88971E+00 1.21791E-12-1.29297E-12
 -1      1707 2.33546E+01 6.03992E+00 5.62455E-01-1.13760E+01 1.13576E-12-1.58362E-12
 -1      1708 6.03736E+00-3.25001E+00-1.11032E+00-2.94501E+00 1.11822E-12-8.00027E-13
 -1      1709 1.05814E+01 1.87338E+00-2.75331E-01-6.54953E+00 1.13820E-12-1.06359E-12
 -1      1710 1.32408E+00-1.07473E+01-1.63396E+00 3.56126E-02 5.81202E-13-4.89275E-13
 -1      1711 2.63173E+00-5.33355E+00-1.05194E+00-1.40496E+00 1.01563E-12-7.70273E-13
 -1      1712-2.56706E-01-1.57458E+01-1.82045E+00 1.24762E-01-7.94920E-14-2.80637E-13
 -1      1713-1.49229E-01-1.23190E+01-1.52320E+00 7.82370E-01 3.98348E-13-3.50442E-13
 -1      1714-8.03593E-01-1.61584E+01-1.78111E+00-8.18312E-01-1.32427E-12-6.92141E-13
 -1      1715-7.82789E-01-1.65461E+01-1.83843E+00 8.14579E-01-3.60822E-13-4.92439E-13
 -1      1716 5.69085E-01-1.03300E+01-1.24594E+00 1.64561E-01-2.06668E-12-8.78464E-13
 -1      1717 1.83855E-01-1.43673E+01-1.59980E+00 3.69076E-01-1.51940E-12-7.32775E-13
 -1      1718 3.80316E+00-3.40299E+00-8.31198E-01 2.44002E+00-2.30282E-12-1.33582E-12
 -1      1719 2.08440E+00-8.91757E+00-1.45388E+00 6.31672E-01-2.38809E-12-9.73804E-13
 -1      1720 1.25825E+01 3.11194E+00-8.39590E-02 7.65914E+00-2.04814E-12-1.91658E-12
 -1      1721 7.39069E+00-1.54310E+00-9.53585E-01 3.92266E+00-2.27063E-12-1.56208E-12
 -1      1722 2.58566E+01 6.17730E+00 7.06416E-01 1.17661E+01-1.62570E-12-1.94156E-12
 -1      1723 1.75020E+01 4.56567E+00-1.93644E-01 8.75211E+00-1.97442E-12-1.90004E-12
 -1      1724 3.97501E+01 5.81558E+00 1.30785E+00 1.20258E+01-1.01402E-12-1.67966E-12
 -1      1725 3.08276E+01 6.86828E+00 5.94028E-01 1.20434E+01-1.40199E-12-1.95555E-12
 -1      1726 5.04656E+01 4.00960E+00 1.57348E+00 6.02630E+00-5.94330E-13-6.82454E-13
 -1      1727 4.35971E+01 5.71181E+00 1.16271E+00 9.96382E+00-8.95201E-13-1.30707E-12
 -1      1728 5.25220E+01 3.98618E+00 1.54949E+00-2.20120E+00-3.28015E-13 1.32644E-13
 -1      1729 5.18391E+01 4.17708E+00 1.50046E+00 3.57551E+00-3.91187E-13-3.93213E-13
 -1      1730 4.67910E+01 5.25081E+00 1.34703E+00-9.07873E+00-6.32439E-13 8.65197E-13
 -1      1731 5.20960E+01 3.77386E+00 1.64273E+00-4.65574E+00-3.53773E-13 4.39315E-13
 -1      1732 3.45829E+01 6.85336E+00 8.13567E-01-1.22109E+01-1.04672E-12 1.41265E-12
 -1      1733 4.35000E+01 5.37443E+00 1.48011E+00-1.12273E+01-7.17149E-13 1.07003E-12
 -1      1734 2.11775E+01 5.25719E+00 2.57440E-02-9.68283E+00-1.41154E-12 1.52811E-12
 -1      1735 2.96553E+01 6.00860E+00 8.34270E-01-1.19359E+01-1.10423E-12 1.49614E-12
 -1      1736 9.59848E+00 9.25722E-01-7.48423E-01-5.35477E+00-1.43174E-12 1.38678E-12
 -1      1737 1.56269E+01 4.59321E+00 9.57851E-02-9.08996E+00-1.54987E-12 1.70641E-12
 -1      1738 3.29044E+00-6.45990E+00-1.34234E+00-1.35471E+00-9.56901E-13 7.45959E-13
 -1      1739 5.88476E+00-1.07916E+00-6.50631E-01-3.91513E+00-1.33205E-12 1.31473E-12
 -1      1740 5.26203E-01-1.32952E+01-1.70085E+00 7.22819E-02-1.57652E-14 5.32921E-13
 -1      1741 1.13205E+00-8.49217E+00-1.24550E+00-3.50722E-01-7.23421E-13 7.07351E-13
 -1      1742-6.37360E-01-1.65789E+01-1.83024E+00-4.34503E-01 6.03129E-13 1.49436E-13
 -1      1743-6.55198E-01-1.47549E+01-1.69921E+00 9.85688E-01 1.68643E-13 1.09412E-13
 -1      1744 2.46687E+01 1.08108E+00 2.66863E-01 7.40339E+00 8.95728E-13 1.10101E-12
 -1      1745 1.45706E+01-2.97964E+00-3.48467E-01 6.33377E+00 9.44800E-13 1.02035E-12
 -1      1746 2.00017E+01-1.08966E-03 4.48601E-04-1.99404E-03-2.17034E-13 1.00809E-13
 -1      1747 2.00055E+01 7.72294E-03 1.97441E-04 3.09371E-03 3.12759E-13 7.11872E-13
 -1      1748 7.99715E-01-9.51591E+00-1.09599E+00 2.37404E+00 5.17753E-13 5.60330E-13
 -1      1749 6.20198E+00-6.99869E+00-8.52357E-01 4.47162E+00 9.60343E-13 7.50823E-13
 -1      1750-1.14943E+00-1.05275E+01-1.16004E+00 1.94870E-01 2.27818E-13 3.00204E-13
 -1      1751 3.51888E+01 4.21052E+00 9.00071E-01 6.98823E+00 8.71359E-13 6.91003E-13
 -1      1752 4.24779E+01 6.45081E+00 1.24982E+00 4.09967E+00 8.87873E-13 5.37348E-13
 -1      1753 4.57998E+01 7.49175E+00 1.36721E+00 4.65481E-01 7.42129E-13 1.46563E-13
 -1      1754 4.48715E+01 7.03938E+00 1.39226E+00-2.42943E+00 7.86038E-13-3.33289E-13
 -1      1755 3.87320E+01 5.19058E+00 1.07668E+00-5.60015E+00 6.32612E-13-8.24008E-13
 -1      1756 2.90192E+01 2.55520E+00 5.45339E-01-7.50724E+00 6.21614E-13-1.08813E-12
 -1      1757 1.81048E+01-1.48437E+00-1.46362E-01-6.83490E+00 6.00298E-13-8.37219E-13
 -1      1758 8.62091E+00-5.76156E+00-7.12020E-01-5.13611E+00 3.94240E-13-6.80678E-13
 -1      1759 2.07456E+00-9.24373E+00-1.11198E+00-2.97083E+00 9.92539E-14-6.18838E-13
 -1      1760-9.95513E-01-1.12241E+01-1.29567E+00-8.77917E-01-3.96100E-13-7.42739E-13
 -1      1761-4.58862E-01-1.02167E+01-1.10429E+00 1.71568E+00-7.53397E-13-1.08907E-12
 -1      1762 3.35025E+00-8.22234E+00-9.71920E-01 3.83672E+00-1.20359E-12-7.89493E-13
 -1      1763 1.02876E+01-4.75932E+00-5.79237E-01 5.70679E+00-1.39555E-12-1.02246E-12
 -1      1764 2.01804E+01-6.78752E-01 2.69556E-02 7.11031E+00-1.35725E-12-1.19982E-12
 -1      1765 3.05879E+01 3.08191E+00 6.42428E-01 7.31342E+00-1.27198E-12-1.19249E-12
 -1      1766 3.94719E+01 5.72249E+00 1.14328E+00 5.45194E+00-1.08469E-12-8.74190E-13
 -1      1767 4.38078E+01 7.51261E+00 1.29644E+00 1.89232E+00-8.30613E-13-4.23162E-13
 -1      1768 4.46362E+01 7.57523E+00 1.32824E+00-1.40726E+00-6.30052E-13-5.90639E-14
 -1      1769 4.14377E+01 6.17776E+00 1.23140E+00-5.02542E+00-7.54702E-13 3.19300E-13
 -1      1770 3.31685E+01 3.62698E+00 7.14223E-01-6.85093E+00-7.87231E-13 6.19504E-13
 -1      1771 2.30958E+01 5.34211E-01 2.21867E-01-7.26844E+00-6.94667E-13 7.76379E-13
 -1      1772 1.27544E+01-3.22105E+00-4.13924E-01-6.17802E+00-4.53637E-13 1.04805E-12
 -1      1773 5.15925E+00-7.29863E+00-8.91458E-01-4.25897E+00-1.98730E-13 8.15945E-13
 -1      1774 3.54761E-01-1.02620E+01-1.19237E+00-2.23241E+00 5.99520E-14 6.37213E-13
 -1      1775 2.28179E+01 1.98183E+00-2.38188E-02-2.71610E+00-2.59175E-13 1.07350E-12
 -1      1776 1.98247E+01 3.72025E+00-3.48780E-02-2.14315E+00-3.12942E-13-3.50078E-13
 -1      1777 2.00485E+01 3.56071E+00-4.27519E-02-2.42990E+00-3.65782E-13-2.36117E-13
 -1      1778 2.03553E+01 3.18079E+00-4.50847E-02-2.57465E+00-3.77681E-13-8.31141E-14
 -1      1779 2.05664E+01 2.80660E+00-1.42324E-01-2.84330E+00-4.09853E-13 1.11189E-13
 -1      1780 2.04244E+01 2.69206E+00-2.87118E-03-2.20905E+00-3.89062E-13-1.32321E-13
 -1      1781 1.93695E+01 4.19941E+00-2.02416E-02-1.25905E+00-1.66819E-13-5.43423E-13
 -1      1782 1.94410E+01 4.15816E+00-1.70486E-02-1.48276E+00-2.04352E-13-5.19949E-13
 -1      1783 1.92749E+01 4.30904E+00-1.68416E-02-8.50563E-01-8.17744E-14-5.56333E-13
 -1      1784 1.93168E+01 4.28384E+00-1.42332E-02-1.06000E+00-1.27169E-13-5.57124E-13
 -1      1785 1.95411E+01 3.79841E+00-9.10755E-03-1.10679E+00-1.55541E-13-5.22003E-13
 -1      1786 1.92241E+01 4.37225E+00-1.48102E-02-4.61317E-01-8.50459E-15-5.54107E-13
 -1      1787 1.92458E+01 4.35860E+00-1.32245E-02-6.59801E-01-4.31863E-14-5.59500E-13
 -1      1788 1.94451E+01 3.92314E+00-9.01054E-03-7.23677E-01-6.43283E-14-5.29566E-13
 -1      1789 1.92049E+01 4.39920E+00-1.36348E-02-8.25290E-02 6.63324E-14-5.39319E-13
 -1      1790 1.92113E+01 4.39501E+00-1.31466E-02-2.75891E-01 3.39904E-14-5.52919E-13
 -1      1791 1.93952E+01 3.99051E+00-8.92014E-03-3.53268E-01 1.43123E-14-5.23475E-13
 -1      1792 1.92131E+01 4.39361E+00-1.30974E-02 2.94680E-01 1.35559E-13-5.22742E-13
 -1      1793 1.92055E+01 4.39835E+00-1.37196E-02 1.01154E-01 1.02663E-13-5.32827E-13
 -1      1794 1.93804E+01 4.01092E+00-8.89051E-03 1.03987E-02 8.26428E-14-5.17773E-13
 -1      1795 1.92501E+01 4.35450E+00-1.32257E-02 6.79326E-01 1.96686E-13-4.91013E-13
 -1      1796 1.92270E+01 4.36901E+00-1.49227E-02 4.80329E-01 1.68889E-13-5.14058E-13
 -1      1797 1.93980E+01 3.98714E+00-8.94576E-03 3.74262E-01 1.55088E-13-4.97276E-13
 -1      1798 1.93225E+01 4.27785E+00-1.42868E-02 1.07395E+00 2.54502E-13-4.38833E-13
 -1      1799 1.92798E+01 4.30356E+00-1.70114E-02 8.67275E-01 2.26165E-13-4.70174E-13
 -1      1800 1.94507E+01 3.91670E+00-8.98030E-03 7.41979E-01 2.23298E-13-4.62349E-13
 -1      1801 1.94512E+01 4.14638E+00-1.72706E-02 1.50223E+00 3.43845E-13-3.29313E-13
 -1      1802 1.93765E+01 4.19056E+00-2.05501E-02 1.27341E+00 2.95097E-13-3.92153E-13
 -1      1803 1.95493E+01 3.78835E+00-9.08392E-03 1.12260E+00 2.94885E-13-3.86989E-13
 -1      1804 1.96745E+01 3.92525E+00-2.50590E-02 1.96702E+00 4.09404E-13-1.78524E-13
 -1      1805 1.95450E+01 4.00378E+00-2.69264E-02 1.70982E+00 3.70488E-13-2.64563E-13
 -1      1806 1.97196E+01 3.57599E+00-8.59841E-03 1.52085E+00 3.81345E-13-2.70037E-13
 -1      1807 2.00730E+01 3.52279E+00-4.50264E-02 2.46035E+00 4.50202E-13 6.46982E-14
 -1      1808 1.98386E+01 3.68494E+00-3.96621E-02 2.17095E+00 4.16773E-13-8.04738E-14
 -1      1809 2.00095E+01 3.22768E+00-5.23494E-03 1.92041E+00 4.42549E-13-1.03953E-13
 -1      1810 2.09027E+01 2.67954E+00-5.74637E-02 2.84790E+00 4.29045E-13 5.04950E-13
 -1      1811 2.04039E+01 3.09558E+00-5.02676E-02 2.60555E+00 4.32632E-13 2.45769E-13
 -1      1812 2.05115E+01 2.61071E+00 3.18701E-03 2.23230E+00 4.55090E-13 1.60854E-13
 -1      1813 2.16995E+01 1.21181E+00-1.21846E-01 2.32269E+00 3.48541E-13 1.01733E-12
 -1      1814 2.12506E+01 2.26059E+00 1.27418E-04 2.73180E+00 3.91236E-13 6.82163E-13
 -1      1815 2.09196E+01 1.68445E+00-2.28108E-02 2.13052E+00 4.28850E-13 4.99854E-13
 -1      1816 2.09237E+01 7.78218E-01-6.22735E-02 1.51766E+00 3.58574E-13 9.09176E-13
 -1      1817 2.17679E+01 2.45474E+00 9.08016E-02-3.03993E+00-3.59549E-13 4.55427E-13
 -1      1818 2.00796E+01 2.98812E-01-8.76406E-03 6.49808E-01 2.75217E-13 7.16443E-13
 -1      1819 2.06280E+01 4.40825E-01-1.23419E-02 1.02713E+00 2.99004E-13 8.28745E-13
 -1      1820 2.07245E+01 8.45218E-01 2.18735E-03 1.40643E+00 3.58061E-13 5.89057E-13
 -1      1821 2.14843E+01 1.74103E+00 7.94308E-02-2.32843E+00-3.88287E-13 3.24310E-13
 -1      1822 2.05031E+01 5.02065E-01 3.25518E-02-9.12111E-01-3.18124E-13 2.81133E-13
 -1      1823 2.00762E+01 3.54341E-01 7.99698E-03-6.19229E-01-2.76579E-13 2.01464E-13
 -1      1824 1.98859E+01 2.60407E-01 2.74491E-02-3.78454E-01-2.39831E-13 1.99083E-13
 -1      1825 1.97013E+01 1.82345E-01 1.08156E-02-2.38395E-01-1.96789E-13 1.27735E-13
 -1      1826 2.01945E+01 4.87487E-01-6.12320E-03-7.06925E-01-2.99071E-13 6.39124E-14
 -1      1827 1.95855E+01 1.37885E-01 1.67447E-02-1.00986E-01-1.47898E-13 1.16983E-13
 -1      1828 1.95165E+01 9.96841E-02 7.53218E-03-2.66340E-02-1.35488E-13 5.59995E-14
 -1      1829 1.98795E+01 2.51088E-01-6.06672E-03-2.72882E-01-2.21503E-13 4.36188E-14
 -1      1830 1.94606E+01 7.61398E-02 8.89971E-03 5.26250E-02-1.33635E-13 3.17632E-14
 -1      1831 1.94591E+01 5.62165E-02 4.88109E-03 9.39766E-02-1.24483E-13 1.03489E-14
 -1      1832 1.97125E+01 1.36017E-01-4.99200E-03-2.50000E-02-1.64752E-13-1.08728E-14
 -1      1833 1.94456E+01 4.33517E-02 4.57070E-03 1.40811E-01-1.46210E-13 1.14041E-14
 -1      1834 1.94839E+01 3.30753E-02 3.45220E-03 1.64781E-01-1.08879E-13-2.42653E-14
 -1      1835 1.96478E+01 7.62322E-02-3.94312E-03 1.20338E-01-1.57018E-13-3.31738E-14
 -1      1836 1.94996E+01 2.62932E-02 2.31099E-03 1.93786E-01-9.86638E-14-5.11678E-14
 -1      1837 1.95626E+01 2.17465E-02 2.77300E-03 2.08912E-01-9.42052E-14-8.13085E-14
 -1      1838 1.96538E+01 4.50155E-02-2.98662E-03 2.08447E-01-1.47032E-13-6.64370E-14
 -1      1839 1.95988E+01 1.88142E-02 1.13827E-03 2.28971E-01-8.08314E-14-8.96257E-14
 -1      1840 1.96786E+01 1.79795E-02 2.52107E-03 2.40489E-01-5.38577E-14-7.81003E-14
 -1      1841 1.97087E+01 3.04485E-02-2.27697E-03 2.65761E-01-9.76771E-14-1.15995E-13
 -1      1842 1.97301E+01 1.76443E-02 5.51437E-04 2.57380E-01-5.12121E-14-8.64744E-14
 -1      1843 1.98236E+01 1.93294E-02 2.53466E-03 2.68748E-01-4.67680E-14-9.90152E-14
 -1      1844 1.97988E+01 2.65214E-02-1.83822E-03 3.08865E-01-6.08438E-14-1.20322E-13
 -1      1845 1.98879E+01 2.07605E-02 2.99697E-04 2.86363E-01-6.35272E-14-1.13581E-13
 -1      1846 1.99944E+01 2.41231E-02 2.71577E-03 2.99906E-01-6.18722E-14-1.48473E-13
 -1      1847 1.99169E+01 2.97257E-02-1.62452E-03 3.48731E-01-8.61602E-14-1.18590E-13
 -1      1848 2.00709E+01 2.66426E-02 2.41703E-04 3.20796E-01-7.37283E-14-1.91038E-13
 -1      1849 2.01918E+01 3.09260E-02 2.97496E-03 3.37938E-01-4.68744E-14-2.39571E-13
 -1      1850 2.00598E+01 3.75904E-02-1.57425E-03 3.92679E-01-9.26842E-14-1.59092E-13
 -1      1851 2.02809E+01 3.38334E-02 2.82984E-04 3.63471E-01-3.04533E-14-2.60573E-13
 -1      1852 2.04183E+01 3.81666E-02 3.20264E-03 3.84722E-01-2.80794E-14-2.62169E-13
 -1      1853 2.02274E+01 4.78982E-02-1.62837E-03 4.45182E-01-6.03341E-14-2.03932E-13
 -1      1854 2.05212E+01 4.05822E-02 3.50638E-04 4.14969E-01 2.16081E-15-2.53985E-13
 -1      1855 2.06772E+01 4.37796E-02 3.24885E-03 4.39697E-01 6.94280E-15-2.14409E-13
 -1      1856 2.04215E+01 5.81126E-02-1.73240E-03 5.07928E-01-5.11115E-15-1.21125E-13
 -1      1857 2.07952E+01 4.44759E-02 3.84228E-04 4.73056E-01-3.20626E-14-1.84397E-13
 -1      1858 2.09705E+01 4.48206E-02 2.90739E-03 4.99042E-01-8.50770E-14-1.60851E-13
 -1      1859 2.06445E+01 6.48261E-02-1.83412E-03 5.79310E-01-1.03357E-14-9.32694E-14
 -1      1860 2.11045E+01 4.20467E-02 3.35450E-04 5.31603E-01-1.50973E-13-1.81422E-13
 -1      1861 2.12973E+01 3.70900E-02 1.91120E-03 5.54384E-01-1.52732E-13-1.95396E-13
 -1      1862 2.08985E+01 6.31810E-02-1.88038E-03 6.53341E-01-1.27343E-13-9.55408E-14
 -1      1863 2.14472E+01 2.84512E-02 1.73999E-04 5.79071E-01-8.50186E-14-2.07968E-13
 -1      1864 2.16508E+01 1.49589E-02-4.24084E-05 5.91158E-01-5.19238E-15-1.96664E-13
 -1      1865 2.11841E+01 4.63756E-02-1.81212E-03 7.18061E-01-1.16509E-13-1.35758E-13
 -1      1866 2.18149E+01-2.47768E-03-1.05054E-04 5.96848E-01 3.68537E-14-2.18288E-13
 -1      1867 2.20159E+01-2.81276E-02-3.20336E-03 5.87144E-01 1.70801E-14-1.96460E-13
 -1      1868 2.14988E+01 5.64113E-03-1.55191E-03 7.53661E-01-4.13712E-14-1.02532E-13
 -1      1869 2.21894E+01-5.71434E-02-4.85410E-04 5.58290E-01 1.88222E-14-2.12243E-13
 -1      1870 2.23659E+01-9.75541E-02-7.57281E-03 5.12475E-01 2.46576E-14-1.95384E-13
 -1      1871 2.18352E+01-6.84348E-02-9.74236E-04 7.31105E-01 3.01956E-14-1.34893E-13
 -1      1872 2.25394E+01-1.38935E-01-9.71909E-04 4.30443E-01-4.81689E-14-1.40626E-13
 -1      1873 2.26603E+01-1.92576E-01-1.25794E-02 3.33728E-01-3.37837E-16-1.73367E-13
 -1      1874 2.21785E+01-1.81727E-01 1.40296E-04 6.13033E-01 3.18641E-14-9.14052E-14
 -1      1875 2.28171E+01-2.41588E-01-1.69394E-03 1.81878E-01 6.26062E-14-1.43212E-13
 -1      1876 2.28456E+01-2.97788E-01-1.67062E-02 2.60051E-02 9.61523E-14-1.47654E-13
 -1      1877 2.25025E+01-3.27797E-01 2.11973E-03 3.60316E-01 1.27619E-14-7.62771E-14
 -1      1878 2.29581E+01-3.39437E-01-3.00895E-03-1.99010E-01 8.26691E-14-8.41197E-14
 -1      1879 2.28614E+01-3.73591E-01-1.74175E-02-4.03571E-01-5.50948E-15-8.07414E-14
 -1      1880 2.27645E+01-4.74606E-01 5.22019E-03-5.08779E-02 8.93430E-14 1.30116E-14
 -1      1881 2.28912E+01-3.80119E-01-5.36597E-03-6.73949E-01-1.51120E-14 1.67041E-14
 -1      1882 2.26572E+01-3.55757E-01-1.20052E-02-8.84010E-01 1.30755E-14 1.08045E-13
 -1      1883 2.29019E+01-5.53335E-01 8.99697E-03-5.97842E-01 4.84526E-14 5.44166E-14
 -1      1884 2.25668E+01-2.94300E-01-8.40403E-03-1.12384E+00 1.90820E-15 9.19152E-14
 -1      1885 2.22250E+01-1.82663E-01 3.99476E-05-1.25968E+00 1.20337E-13 3.35886E-14
 -1      1886 2.28430E+01-4.67591E-01 1.13544E-02-1.17191E+00 2.65157E-14 1.85525E-13
 -1      1887 2.20114E+01-4.11389E-02-9.28704E-03-1.35216E+00 1.16747E-13 5.48563E-14
 -1      1888 2.16416E+01 1.42496E-01 1.40300E-02-1.32330E+00 7.84373E-14 7.76566E-14
 -1      1889 2.25470E+01-1.49907E-01 8.30477E-03-1.56069E+00 1.17800E-13 1.37243E-13
 -1      1890 2.13765E+01 3.22278E-01-4.27956E-03-1.16755E+00 7.33172E-14-3.31853E-15
 -1      1891 2.10941E+01 4.98035E-01 2.14073E-02-9.33431E-01 8.28990E-14-3.36198E-14
 -1      1892 2.20770E+01 3.50338E-01-1.31904E-03-1.51043E+00 9.20275E-14 6.95203E-14
 -1      1893 2.09155E+01 6.21970E-01 7.01076E-03-5.36363E-01 1.95590E-14-1.33800E-13
 -1      1894 2.08224E+01 6.85671E-01 1.65846E-02-1.62490E-01-7.06518E-14-2.17749E-13
 -1      1895 2.16384E+01 8.20210E-01-1.34134E-02-8.98732E-01 2.91659E-14-9.50403E-14
 -1      1896 2.08442E+01 6.72647E-01 1.88755E-02 3.23173E-01-7.11479E-14-1.58914E-13
 -1      1897 2.09763E+01 5.81313E-01 4.59601E-03 6.81711E-01-1.30486E-13-1.36063E-13
 -1      1898 2.14819E+01 9.91229E-01-1.79645E-02 9.99132E-02-5.39360E-14-8.15357E-14
 -1      1899 2.11846E+01 4.40046E-01 2.17268E-02 1.04171E+00-1.16660E-13-1.05300E-13
 -1      1900 2.14921E+01 2.54400E-01-5.11694E-03 1.23985E+00-5.65442E-14-9.90475E-14
 -1      1901 2.17088E+01 7.55150E-01-9.08922E-03 1.05438E+00-1.15919E-13-1.13230E-13
 -1      1902 2.17578E+01 7.52303E-02 1.22727E-02 1.34598E+00-7.69161E-14-1.02423E-13
 -1      1903 2.21321E+01-9.86851E-02-8.69093E-03 1.33905E+00-1.15194E-13-9.67854E-14
 -1      1904 2.21745E+01 2.56707E-01 2.83557E-03 1.56421E+00-6.48936E-14-7.63842E-15
 -1      1905 2.23256E+01-2.27319E-01-2.50311E-03 1.21100E+00-1.73205E-13-4.10809E-14
 -1      1906 2.26547E+01-3.21256E-01-7.42297E-03 1.05432E+00-2.88311E-15 4.58474E-14
 -1      1907 2.26236E+01-2.26185E-01 9.24312E-03 1.51733E+00-4.01207E-14 1.39881E-13
 -1      1908 2.27213E+01-3.68362E-01-1.37741E-02 8.02433E-01 2.00708E-15-3.02527E-14
 -1      1909 2.29338E+01-3.78300E-01-4.67397E-03 5.88781E-01 2.87582E-14 1.37515E-13
 -1      1910 2.28776E+01-5.02872E-01 9.29484E-03 1.07698E+00-5.88592E-15 2.92153E-13
 -1      1911 2.28870E+01-3.62640E-01-1.79372E-02 3.24764E-01-8.67501E-14-1.77369E-14
 -1      1912 2.29627E+01-3.21325E-01-2.65123E-03 1.28041E-01 3.03950E-14-1.15198E-13
 -1      1913 2.28990E+01-5.50427E-01 6.04586E-03 4.98499E-01-8.02743E-14 2.64169E-13
 -1      1914 2.28422E+01-2.76151E-01-1.62402E-02-8.17873E-02 9.53829E-14-2.54959E-13
 -1      1915 2.27988E+01-2.18539E-01-1.41133E-03-2.25100E-01 5.25834E-14-2.69089E-13
 -1      1916 2.27389E+01-4.49806E-01 2.75840E-03-2.38841E-02-6.32602E-14 3.75292E-14
 -1      1917 2.26415E+01-1.69658E-01-1.16173E-02-3.60112E-01-1.17861E-14-2.67948E-13
 -1      1918 2.25143E+01-1.17573E-01-6.35565E-04-4.44147E-01-6.22302E-14-1.44687E-13
 -1      1919 2.24696E+01-2.96079E-01 5.94465E-04-3.99717E-01 4.31400E-14-9.58408E-14
 -1      1920 2.23456E+01-7.77743E-02-6.55306E-03-5.11301E-01-2.99856E-14-1.20507E-13
 -1      1921 2.21713E+01-3.96495E-02-6.69766E-05-5.46270E-01 3.16244E-14-1.35517E-13
 -1      1922 2.21501E+01-1.51892E-01-6.44949E-04-6.17778E-01-2.60766E-14-6.95928E-15
 -1      1923 2.20066E+01-1.23103E-02-2.34484E-03-5.63057E-01 7.63881E-14-2.00236E-13
 -1      1924 2.18153E+01 1.14626E-02 3.97799E-04-5.63981E-01 1.21964E-13-2.01790E-13
 -1      1925 2.18201E+01-4.33997E-02-1.30718E-03-7.06392E-01 8.83516E-16-5.67451E-14
 -1      1926 2.16632E+01 2.76907E-02 5.98250E-04-5.48556E-01 1.29958E-13-3.07804E-13
 -1      1927 2.14758E+01 4.00743E-02 7.57239E-04-5.29209E-01 1.04388E-13-1.82922E-13
 -1      1928 2.15041E+01 2.62516E-02-1.64123E-03-7.04958E-01 1.13188E-13-1.58793E-13
 -1      1929 2.13405E+01 4.80722E-02 2.35470E-03-4.96225E-01 9.17203E-14-3.61838E-13
 -1      1930 2.11696E+01 5.26498E-02 9.95148E-04-4.66983E-01 1.55247E-14-3.36187E-13
 -1      1931 2.12158E+01 6.41655E-02-1.78501E-03-6.49349E-01 4.70977E-14-3.45257E-13
 -1      1932 2.10528E+01 5.52411E-02 3.19594E-03-4.26727E-01-1.37556E-13-1.60255E-13
 -1      1933 2.09045E+01 5.50537E-02 1.11496E-03-3.94468E-01-1.58042E-13-1.34931E-13
 -1      1934 2.09621E+01 7.98349E-02-1.80505E-03-5.66765E-01 5.88418E-15-2.97786E-13
 -1      1935 2.08062E+01 5.44510E-02 3.41692E-03-3.53433E-01-1.98971E-13-1.48942E-13
 -1      1936 2.06822E+01 5.17116E-02 1.13902E-03-3.22233E-01-1.12063E-13-2.17257E-13
 -1      1937 2.07453E+01 8.16104E-02-1.73762E-03-4.75531E-01-1.61647E-13-1.57039E-15
 -1      1938 2.06013E+01 4.94633E-02 3.26339E-03-2.84070E-01-3.28964E-14-2.91658E-13
 -1      1939 2.05009E+01 4.56427E-02 1.09843E-03-2.56016E-01 1.60834E-13-1.87574E-13
 -1      1940 2.05645E+01 7.57029E-02-1.60956E-03-3.86751E-01-3.00604E-14-1.26342E-14
 -1      1941 2.04356E+01 4.27588E-02 2.91352E-03-2.22431E-01 2.65191E-13-3.29936E-13
 -1      1942 2.03564E+01 3.87767E-02 1.02396E-03-1.98307E-01 2.33828E-13-2.24208E-13
 -1      1943 2.04171E+01 6.63117E-02-1.44428E-03-3.06314E-01 6.02618E-14-2.90023E-14
 -1      1944 2.03048E+01 3.58888E-02 2.48351E-03-1.69752E-01 2.34770E-13-1.18519E-13
 -1      1945 2.02439E+01 3.22980E-02 9.42267E-04-1.49527E-01 4.20998E-13 4.59253E-14
 -1      1946 2.02995E+01 5.61069E-02-1.26108E-03-2.36609E-01 2.71205E-13-6.91002E-14
 -1      1947 2.02040E+01 2.97910E-02 2.04480E-03-1.25678E-01 4.06640E-13-9.88704E-14
 -1      1948 2.01587E+01 2.68695E-02 8.55069E-04-1.08838E-01 2.58543E-13-3.55246E-14
 -1      1949 2.02074E+01 4.67137E-02-1.07426E-03-1.77807E-01 3.79271E-13-9.01913E-14
 -1      1950 2.01285E+01 2.48733E-02 1.61950E-03-8.89999E-02 2.83314E-14-9.34688E-14
 -1      1951 2.00962E+01 2.27962E-02 7.82379E-04-7.48853E-02-6.10689E-14-9.59583E-14
 -1      1952 2.01369E+01 3.88480E-02-9.31938E-04-1.28744E-01 1.04348E-13-1.75387E-13
 -1      1953 2.00735E+01 2.13664E-02 1.17760E-03-5.81188E-02-1.12123E-15-1.41672E-13
 -1      1954 2.00521E+01 1.98881E-02 6.80873E-04-4.59841E-02 5.36652E-14-1.23391E-13
 -1      1955 2.00842E+01 3.32101E-02-7.29150E-04-8.78783E-02-3.92564E-14-1.53842E-13
 -1      1956 2.00370E+01 1.83079E-02 8.70142E-04-3.25275E-02 4.97551E-15-2.36168E-13
 -1      1957 2.00239E+01 1.65210E-02 6.23904E-04-2.26055E-02 2.22879E-14-2.54778E-13
 -1      1958 2.00220E+01 2.14774E-02-5.17029E-04-2.74875E-02-8.54126E-14-1.30579E-13
 -1      1959 2.00468E+01 2.79072E-02-8.07951E-04-5.42357E-02 6.84706E-15-2.83069E-14
 -1      1960 1.96061E+01 1.44071E-01 8.05656E-03 2.49429E-01 2.34852E-13 5.64002E-13
 -1      1961 1.98734E+01 2.05670E-01 1.65691E-02 4.23638E-01 2.52898E-13 6.58466E-13
 -1      1962 2.00898E+01 3.52411E-01-1.63044E-03 6.43891E-01 3.02060E-13 4.65177E-13
 -1      1963 1.93769E+01 7.53409E-02 7.19163E-03 4.14256E-02 1.84824E-13 4.13667E-13
 -1      1964 1.94851E+01 1.04683E-01 1.43957E-02 1.32178E-01 1.84804E-13 4.87408E-13
 -1      1965 1.97079E+01 1.68835E-01-2.10225E-03 2.40248E-01 2.53614E-13 3.57625E-13
 -1      1966 1.93057E+01 4.13124E-02 4.77992E-03-7.18666E-02 9.11207E-14 3.55418E-13
 -1      1967 1.93258E+01 5.64698E-02 8.63169E-03-2.11464E-02 1.31664E-13 3.87775E-13
 -1      1968 1.95231E+01 8.65204E-02-3.04135E-03 2.02547E-02 1.74614E-13 2.39020E-13
 -1      1969 1.93320E+01 2.36034E-02 3.35628E-03-1.35740E-01 5.33907E-14 2.62895E-13
 -1      1970 1.93020E+01 3.16477E-02 4.76764E-03-1.05958E-01 7.47115E-14 3.30685E-13
 -1      1971 1.94663E+01 4.60763E-02-3.13841E-03-1.03545E-01 1.02573E-13 1.83419E-13
 -1      1972 1.94194E+01 1.48104E-02 2.67076E-03-1.73731E-01 7.43908E-14 2.26907E-13
 -1      1973 1.93595E+01 1.88321E-02 2.71272E-03-1.55025E-01 5.10752E-14 2.54982E-13
 -1      1974 1.94913E+01 2.57634E-02-2.71233E-03-1.75947E-01 8.32685E-14 1.33452E-13
 -1      1975 1.95473E+01 1.15930E-02 2.36898E-03-1.99528E-01 1.05243E-13 2.02602E-13
 -1      1976 1.94683E+01 1.31004E-02 1.69600E-03-1.86056E-01 8.41602E-14 2.29320E-13
 -1      1977 1.95702E+01 1.66267E-02-2.22495E-03-2.21591E-01 9.36982E-14 1.25458E-13
 -1      1978 1.97058E+01 1.22468E-02 2.28760E-03-2.22041E-01 5.71197E-14 1.44170E-13
 -1      1979 1.96124E+01 1.20779E-02 1.23946E-03-2.09907E-01 9.61086E-14 2.13829E-13
 -1      1980 1.96867E+01 1.45708E-02-1.86912E-03-2.55479E-01 1.12299E-13 8.82820E-14
 -1      1981 1.98918E+01 1.57812E-02 2.36524E-03-2.47576E-01 6.28816E-14 1.51956E-13
 -1      1982 1.97848E+01 1.44595E-02 1.10761E-03-2.33937E-01 6.46232E-14 1.49668E-13
 -1      1983 1.98332E+01 1.74674E-02-1.68069E-03-2.87646E-01 9.74790E-14 7.71167E-14
 -1      1984 2.01073E+01 2.15134E-02 2.56913E-03-2.80812E-01 9.32875E-14 1.10167E-13
 -1      1985 1.99850E+01 1.94197E-02 1.17911E-03-2.63479E-01 7.71720E-14 1.34083E-13
 -1      1986 2.00075E+01 2.40363E-02-1.64434E-03-3.25267E-01 7.11744E-14 9.78004E-14
 -1      1987 2.03577E+01 2.88167E-02 2.86009E-03-3.25168E-01 1.27285E-13 2.75605E-14
 -1      1988 2.02165E+01 2.63035E-02 1.37417E-03-3.02462E-01 1.26617E-13 9.25075E-14
 -1      1989 2.02118E+01 3.33157E-02-1.73673E-03-3.73584E-01 1.24886E-13 2.00986E-14
 -1      1990 2.06509E+01 3.68767E-02 3.17069E-03-3.82740E-01 5.44890E-14-4.39982E-14
 -1      1991 2.04860E+01 3.43816E-02 1.62016E-03-3.53542E-01 6.76911E-14-1.17080E-14
 -1      1992 2.04507E+01 4.42908E-02-1.93743E-03-4.36165E-01 9.62889E-14-1.20247E-14
 -1      1993 2.09951E+01 4.43672E-02 3.38227E-03-4.53736E-01 1.46879E-14-1.42373E-14
 -1      1994 2.08014E+01 4.25604E-02 1.83175E-03-4.17770E-01 1.77328E-14-3.22333E-14
 -1      1995 2.07305E+01 5.54908E-02-2.22879E-03-5.14596E-01 1.24117E-14-3.86139E-14
 -1      1996 2.13976E+01 4.89825E-02 3.29912E-03-5.35263E-01-8.73099E-14-2.69936E-14
 -1      1997 2.11710E+01 4.89726E-02 1.89611E-03-4.93707E-01 3.05745E-16-4.06222E-14
 -1      1998 2.10577E+01 6.44370E-02-2.59173E-03-6.07501E-01 1.76478E-14-5.89448E-14
 -1      1999 2.18609E+01 4.68034E-02 2.63102E-03-6.19219E-01-6.58328E-15-2.98633E-14
 -1      2000 2.16006E+01 5.04005E-02 1.66484E-03-5.75782E-01-7.40298E-14-3.06142E-14
 -1      2001 2.14374E+01 6.68702E-02-2.99577E-03-7.08697E-01-4.16696E-14-1.22338E-13
 -1      2002 2.23794E+01 3.16205E-02 1.01616E-03-6.89103E-01 5.56633E-14-9.74047E-16
 -1      2003 2.20903E+01 4.15702E-02 9.64120E-04-6.51681E-01 6.37340E-14 5.07706E-14
 -1      2004 2.18705E+01 5.58054E-02-3.37577E-03-8.04233E-01 4.94318E-14-8.51671E-14
 -1      2005 2.29322E+01-5.23489E-03-1.84525E-03-7.16064E-01 3.08781E-16 6.09669E-14
 -1      2006 2.26296E+01 1.46331E-02-3.59925E-04-6.98852E-01 4.09953E-14 2.01067E-14
 -1      2007 2.23510E+01 2.08298E-02-3.58098E-03-8.68390E-01 2.82631E-14 1.59569E-14
 -1      2008 2.34773E+01-7.30535E-02-5.86227E-03-6.55995E-01-1.90848E-13 6.49845E-14
 -1      2009 2.31910E+01-4.01194E-02-2.32913E-03-6.81136E-01-1.11139E-13 3.98605E-14
 -1      2010 2.28613E+01-5.10290E-02-3.27370E-03-8.59647E-01-7.55051E-14 6.54359E-14
 -1      2011 2.39438E+01-1.75332E-01-1.00971E-02-4.52825E-01-1.86991E-13 7.22426E-14
 -1      2012 2.37216E+01-1.30119E-01-4.74547E-03-5.48918E-01-1.63588E-13 7.98389E-14
 -1      2013 2.33667E+01-1.69875E-01-1.82287E-03-7.20133E-01-1.54368E-13 4.78033E-14
 -1      2014 2.42323E+01-2.96577E-01-1.24270E-02-5.74017E-02 1.47183E-14 2.00579E-13
 -1      2015 2.41368E+01-2.50102E-01-7.08885E-03-2.49925E-01-1.19432E-13 1.34180E-13
 -1      2016 2.38083E+01-3.29753E-01 1.52531E-03-3.86423E-01-1.17998E-13 2.55716E-14
 -1      2017 2.42275E+01-3.85524E-01-1.00887E-02 5.28148E-01 1.77187E-13 2.11577E-13
 -1      2018 2.43213E+01-3.65640E-01-8.77686E-03 2.39486E-01 9.52849E-14 1.87482E-13
 -1      2019 2.40987E+01-4.86781E-01 7.10413E-03 1.76926E-01 4.02300E-14 1.62850E-13
 -1      2020 2.38374E+01-3.49615E-01-2.08479E-03 1.18348E+00 1.78087E-14 2.52290E-13
 -1      2021 2.41533E+01-3.98762E-01-9.07974E-03 8.59217E-01 1.11456E-13 2.89317E-13
 -1      2022 2.41290E+01-5.41409E-01 1.35005E-02 9.15123E-01 7.07195E-14 1.79295E-13
 -1      2023 2.30652E+01-1.04185E-01 4.94760E-03 1.62062E+00-8.35974E-14 3.86871E-13
 -1      2024 2.35657E+01-2.46366E-01-8.51186E-03 1.40519E+00-8.59434E-14 3.20639E-13
 -1      2025 2.38053E+01-3.56742E-01 1.58838E-02 1.60901E+00-8.59902E-14 3.65027E-13
 -1      2026 2.21202E+01 3.04334E-01 2.63925E-03 1.48754E+00-1.99216E-14 3.47698E-13
 -1      2027 2.26679E+01 1.18152E-01-4.73333E-03 1.54979E+00-4.62165E-14 3.28060E-13
 -1      2028 2.31546E+01 1.04978E-01 5.10706E-03 1.87008E+00-5.00719E-14 4.39541E-13
 -1      2029 2.14246E+01 6.44266E-01-1.10059E-02 6.62430E-01 1.18953E-13 1.43423E-13
 -1      2030 2.18040E+01 5.33759E-01 2.59209E-03 1.04903E+00 6.38656E-14 2.29431E-13
 -1      2031 2.24402E+01 6.65768E-01-1.32123E-02 1.36570E+00 1.15991E-13 2.05828E-13
 -1      2032 2.13875E+01 6.59668E-01-2.17940E-02-5.15669E-01 2.57541E-13 1.59660E-13
 -1      2033 2.14115E+01 7.17742E-01 1.03227E-02 2.25987E-02 2.43618E-13 1.96850E-13
 -1      2034 2.20799E+01 9.70708E-01-2.39893E-02 1.73160E-01 2.27270E-13 1.57576E-13
 -1      2035 2.20580E+01 3.35648E-01-1.61644E-02-1.41969E+00-6.23789E-14 3.52947E-14
 -1      2036 2.17025E+01 5.21796E-01 1.20611E-02-1.01704E+00 5.17815E-14 1.09919E-13
 -1      2037 2.23241E+01 7.91156E-01-1.45171E-02-1.11696E+00 1.63820E-13 2.10370E-13
 -1      2038 2.30536E+01-7.39417E-02 2.27967E-04-1.64538E+00 6.16846E-15 8.10046E-14
 -1      2039 2.24868E+01 1.05919E-01 4.68980E-03-1.54284E+00-7.23154E-14 8.45018E-14
 -1      2040 2.29989E+01 2.59361E-01 2.10793E-03-1.82617E+00-3.68559E-14 1.99231E-13
 -1      2041 2.38997E+01-3.30142E-01 1.25332E-02-1.26450E+00 1.28794E-13 8.46285E-14
 -1      2042 2.33609E+01-2.45857E-01-5.94389E-03-1.42014E+00 7.11098E-14 1.50054E-14
 -1      2043 2.36888E+01-2.66231E-01 7.16975E-03-1.73679E+00 6.12626E-14 2.33678E-13
 -1      2044 2.43356E+01-3.78562E-01 1.48430E-02-6.18402E-01-1.04054E-13 6.44981E-14
 -1      2045 2.39909E+01-3.88462E-01-1.30140E-02-8.85248E-01 9.03548E-14 1.24361E-13
 -1      2046 2.40904E+01-5.32205E-01 2.44076E-03-1.11347E+00 1.10608E-13 2.35837E-13
 -1      2047 2.43469E+01-2.96833E-01 1.02121E-02-1.34096E-02-1.14884E-13-1.11325E-13
 -1      2048 2.42427E+01-3.53456E-01-1.43501E-02-2.64895E-01-1.81799E-13-2.63813E-15
 -1      2049 2.41355E+01-5.28985E-01-3.01464E-03-3.58672E-01-9.18796E-14 3.63425E-16
 -1      2050 2.40464E+01-1.77879E-01 4.20901E-03 4.06128E-01 9.84109E-15 1.21203E-13
 -1      2051 2.41431E+01-2.39471E-01-1.17484E-02 2.29505E-01-4.14026E-14-6.58397E-14
 -1      2052 2.39002E+01-3.81747E-01-5.03110E-03 2.57354E-01-2.09121E-14-4.13653E-14
 -1      2053 2.35682E+01-7.57010E-02-6.22096E-05 6.27186E-01 5.66353E-14 1.30986E-13
 -1      2054 2.37939E+01-1.22489E-01-7.58174E-03 5.31616E-01-3.71222E-14 1.76144E-13
 -1      2055 2.34946E+01-2.09595E-01-4.27634E-03 6.43306E-01-2.68605E-14 1.95885E-13
 -1      2056 2.30202E+01-6.86337E-03-2.12794E-03 6.96615E-01 2.45672E-13 6.69057E-14
 -1      2057 2.33072E+01-3.53898E-02-3.53181E-03 6.63701E-01 1.40125E-13 1.41485E-13
 -1      2058 2.30113E+01-7.33506E-02-2.66899E-03 8.20076E-01 1.66937E-13 4.23051E-14
 -1      2059 2.24748E+01 3.15981E-02-2.64953E-03 6.71361E-01 2.16058E-14 1.58645E-13
 -1      2060 2.27732E+01 1.76908E-02-4.10007E-04 6.78159E-01 1.62537E-13 2.26937E-13
 -1      2061 2.25149E+01 1.32954E-02-1.34624E-03 8.48800E-01 1.32223E-13 3.86364E-13
 -1      2062 2.19737E+01 4.85796E-02-2.38397E-03 5.97228E-01-7.56628E-14 2.06607E-13
 -1      2063 2.22532E+01 4.42456E-02 1.60342E-03 6.25025E-01-5.97077E-14 5.39777E-14
 -1      2064 2.20455E+01 5.86375E-02-5.93558E-04 7.90101E-01 3.77738E-14 4.15232E-13
 -1      2065 2.15368E+01 5.25095E-02-1.84385E-03 5.04674E-01 1.65231E-13 8.26577E-14
 -1      2066 2.17823E+01 5.35925E-02 2.66560E-03 5.40866E-01 3.86457E-14 1.77599E-13
 -1      2067 2.16253E+01 7.61991E-02-2.95649E-04 6.89434E-01 3.82333E-14 1.84189E-13
 -1      2068 2.11698E+01 4.94871E-02-1.29127E-03 4.11411E-01-1.99316E-13-1.55203E-13
 -1      2069 2.13761E+01 5.31770E-02 3.04579E-03 4.48558E-01-4.50326E-14-1.07858E-13
 -1      2070 2.12635E+01 7.75910E-02-2.52768E-04 5.75952E-01-3.30291E-14-2.63875E-14
 -1      2071 2.08703E+01 4.33619E-02-8.28542E-04 3.26410E-01-4.81243E-14 2.64637E-13
 -1      2072 2.10381E+01 4.79697E-02 3.00123E-03 3.60657E-01-1.29191E-13 1.74598E-13
 -1      2073 2.09615E+01 7.08265E-02-3.10394E-04 4.66138E-01-3.17548E-13 1.04016E-13
 -1      2074 2.06314E+01 3.63522E-02-4.75819E-04 2.53283E-01 3.06205E-14 3.36983E-13
 -1      2075 2.07645E+01 4.09526E-02 2.72894E-03 2.83002E-01-9.45398E-14 2.97705E-13
 -1      2076 2.07156E+01 6.07989E-02-3.81399E-04 3.68009E-01-5.78738E-14 2.25972E-13
 -1      2077 2.04448E+01 2.96476E-02-2.18511E-04 1.92606E-01-7.85502E-14 6.80278E-13
 -1      2078 2.05481E+01 3.37781E-02 2.36145E-03 2.17452E-01 9.42258E-15 5.67932E-13
 -1      2079 2.05195E+01 5.02455E-02-4.28796E-04 2.84441E-01-1.17979E-13 5.97751E-13
 -1      2080 2.03019E+01 2.38500E-02-3.23315E-05 1.43353E-01 4.33863E-14 4.83835E-13
 -1      2081 2.03804E+01 2.73047E-02 1.97850E-03 1.63677E-01-1.17644E-13 5.47256E-13
 -1      2082 2.03662E+01 4.05903E-02-4.44408E-04 2.15414E-01 2.66693E-14 5.44890E-13
 -1      2083 2.01949E+01 1.92226E-02 9.70918E-05 1.03685E-01 1.46698E-13 4.99768E-13
 -1      2084 2.02531E+01 2.19546E-02 1.62380E-03 1.20220E-01 2.67868E-13 6.34594E-13
 -1      2085 2.02488E+01 3.25225E-02-4.34484E-04 1.59370E-01 1.94096E-13 5.75381E-13
 -1      2086 2.01173E+01 1.57976E-02 1.70721E-04 7.15595E-02 1.79527E-14 3.62820E-13
 -1      2087 2.01589E+01 1.78289E-02 1.30466E-03 8.51391E-02 9.19620E-15 4.63135E-13
 -1      2088 2.01607E+01 2.61984E-02-4.34397E-04 1.14039E-01 9.39840E-14 8.22792E-13
 -1      2089 2.00633E+01 1.35484E-02 1.84188E-04 4.49432E-02-8.36255E-14 4.92035E-13
 -1      2090 2.00915E+01 1.49610E-02 1.01205E-03 5.64611E-02-1.07582E-13 3.32799E-13
 -1      2091 2.00966E+01 2.16927E-02-4.30697E-04 7.70779E-02 6.54489E-15 5.06411E-13
 -1      2092 2.00287E+01 1.19664E-02 3.38827E-04 2.24936E-02 1.84471E-13 9.58539E-13
 -1      2093 2.00456E+01 1.29436E-02 7.05218E-04 3.23987E-02 2.03285E-13 8.52031E-13
 -1      2094 2.00516E+01 1.87129E-02-3.76354E-04 4.63065E-02-2.47092E-14 1.17549E-12
 -1      2095 2.00120E+01 9.75598E-03 4.89726E-04 8.79076E-03 1.93218E-13 8.65672E-13
 -1      2096 2.00209E+01 1.18457E-02 4.54085E-04 1.64611E-02 2.42431E-13 9.66133E-13
 -1      2097 2.00259E+01 1.70530E-02-2.46538E-04 2.55110E-02 1.91573E-13 1.47146E-12
 -1      2098 2.00128E+01 1.38722E-02 6.87612E-05 1.26787E-02 3.55550E-13 1.16775E-12
 -1      2099 2.00035E+01 1.04995E-01-2.97149E-04 5.83924E-02 1.64897E-13-9.27940E-14
 -1      2100 2.00076E+01 8.62923E-02 4.90921E-04 5.52024E-02 1.41447E-13 4.51999E-13
 -1      2101 2.00113E+01 6.66488E-02-6.32111E-05 4.88819E-02 3.69856E-13 3.78581E-13
 -1      2102 2.00144E+01 5.06770E-02 5.29415E-04 4.13378E-02 4.27725E-13 5.67627E-13
 -1      2103 2.00141E+01 8.45342E-02-7.73209E-05 6.84325E-02-7.45501E-14 2.27222E-13
 -1      2104 2.00144E+01 3.65477E-02 1.27757E-04 3.17609E-02 4.43862E-13 6.51819E-13
 -1      2105 2.00150E+01 2.47930E-02 4.11847E-04 2.28038E-02 3.60564E-13 8.59182E-13
 -1      2106 2.00213E+01 2.69567E-02 2.48573E-04 2.92480E-02 1.92245E-13 8.46457E-13
 -1      2107 2.00203E+01 5.14097E-02-2.92126E-04 5.02078E-02 2.31484E-13 7.44781E-13
 -1      2108 1.99955E+01 1.42966E-01-5.30422E-04 5.78714E-02 1.25891E-13-8.77710E-13
 -1      2109 1.99997E+01 1.24348E-01 2.21191E-04 5.91679E-02 1.96534E-13-5.30654E-13
 -1      2110 2.00024E+01 1.23170E-01 1.07600E-04 7.59333E-02-2.31572E-13-2.90844E-13
 -1      2111 1.99885E+01 1.76683E-01-7.11498E-04 4.75003E-02 2.18738E-13-4.59361E-13
 -1      2112 1.99920E+01 1.60524E-01-1.00372E-04 5.30001E-02 1.67288E-13-4.76633E-13
 -1      2113 1.99911E+01 1.60034E-01 4.22836E-04 7.10760E-02-3.96054E-14-6.54293E-13
 -1      2114 1.99837E+01 2.00484E-01-7.98589E-04 2.92668E-02 1.27331E-13-2.13888E-13
 -1      2115 1.99859E+01 1.89705E-01-4.16829E-04 3.78759E-02 2.63181E-13-4.11905E-13
 -1      2116 1.99815E+01 1.90577E-01 6.52959E-04 5.44882E-02 1.00584E-13-3.99188E-13
 -1      2117 1.99817E+01 2.10969E-01-7.73850E-04 6.36377E-03-5.53469E-14-4.94245E-13
 -1      2118 1.99824E+01 2.07286E-01-6.57842E-04 1.65870E-02-8.55376E-15-2.40451E-13
 -1      2119 1.99753E+01 2.10400E-01 8.00528E-04 2.91756E-02-7.71370E-14-4.01302E-13
 -1      2120 1.99826E+01 2.06687E-01-6.34759E-04-1.74630E-02-9.67783E-14-1.52356E-13
 -1      2121 1.99817E+01 2.10671E-01-7.90190E-04-7.30901E-03 3.53474E-14-4.48238E-13
 -1      2122 1.99733E+01 2.16905E-01 8.44798E-04-6.72326E-04-1.14055E-13-4.79477E-13
 -1      2123 1.99863E+01 1.88358E-01-4.01035E-04-3.83886E-02-8.79345E-14-7.66648E-14
 -1      2124 1.99840E+01 1.99368E-01-7.97280E-04-2.99645E-02-1.89723E-13 1.61587E-13
 -1      2125 1.99756E+01 2.09278E-01 7.78994E-04-3.03096E-02-1.42833E-14-1.03198E-13
 -1      2126 1.99922E+01 1.59359E-01-9.26789E-05-5.28247E-02-1.24976E-13-3.24427E-13
 -1      2127 1.99889E+01 1.75280E-01-6.98932E-04-4.75924E-02-4.05019E-14-2.05867E-13
 -1      2128 1.99820E+01 1.88840E-01 6.32337E-04-5.49153E-02-1.17283E-13-1.02564E-13
 -1      2129 1.99998E+01 1.22965E-01 2.31711E-04-5.87439E-02 7.39171E-14-1.11693E-13
 -1      2130 1.99957E+01 1.41817E-01-5.15109E-04-5.75262E-02 1.74883E-14-2.57912E-13
 -1      2131 1.99914E+01 1.58267E-01 3.91597E-04-7.07898E-02 3.18654E-14-2.82958E-13
 -1      2132 2.00077E+01 8.47897E-02 4.78495E-04-5.45893E-02 9.43076E-14 2.90009E-13
 -1      2133 2.00036E+01 1.03385E-01-2.90511E-04-5.78594E-02 2.16503E-13-1.21896E-13
 -1      2134 2.00027E+01 1.21257E-01 1.27305E-04-7.53455E-02 3.06063E-13-7.80415E-14
 -1      2135 2.00137E+01 4.86461E-02 9.17950E-05-4.08644E-02-3.62312E-15 2.24799E-13
 -1      2136 2.00111E+01 6.55079E-02-4.09999E-05-4.82429E-02-4.44314E-14 3.81306E-13
 -1      2137 2.00140E+01 8.28900E-02-5.02719E-05-6.74987E-02 9.85078E-14 1.97730E-13
 -1      2138 1.05415E+01-5.12123E+00-1.63951E-01 6.31732E+00 5.69989E-13 5.36939E-13
 -1      2139 6.75506E+00-6.76501E+00-4.35700E-01 5.01775E+00 4.55358E-13 5.86919E-13
 -1      2140 4.41269E-01-6.34083E+00-3.05148E-01 6.33246E-01-3.12528E-14 1.89571E-13
 -1      2141 2.52749E-01-7.46752E+00-4.83276E-01-1.01921E+00 8.84293E-14 2.53464E-13
 -1      2142 3.96364E+00-6.52793E+00-3.40615E-01 4.29680E+00 3.09530E-13 6.94944E-13
 -1      2143 2.14466E+00-6.34291E+00-2.64107E-01 3.09845E+00 6.63913E-14 4.60354E-13
 -1      2144 7.37687E+00-5.48195E+00-1.72970E-01 5.76166E+00-6.89448E-14 5.27467E-13
 -1      2145 1.95110E+01-3.06055E+00-7.25044E-03 6.77088E+00 4.45866E-13 7.97695E-13
 -1      2146 1.48394E+01-5.00494E+00-3.20135E-01 6.03552E+00 4.06453E-13 5.84172E-13
 -1      2147 2.83077E+01-5.54878E-01 1.56709E-01 5.54694E+00 5.32852E-13 4.19609E-13
 -1      2148 2.33866E+01-2.41984E+00-1.83146E-01 5.44752E+00 5.52836E-13 5.62550E-13
 -1      2149 1.95332E+01 4.02199E+00-2.56864E-02-1.68839E+00-2.40182E-13-4.86555E-13
 -1      2150 1.96583E+01 3.94668E+00-2.42005E-02-1.94340E+00-2.81736E-13-4.22450E-13
 -1      2151 1.99784E+01 3.25803E+00-7.84885E-03-1.89503E+00-3.16841E-13-3.57173E-13
 -1      2152 1.97050E+01 3.59329E+00-9.09883E-03-1.50325E+00-2.28624E-13-4.68500E-13
 -1      2153 3.77792E+01 5.65275E+00 1.33239E-01 7.39878E-01 6.73406E-13 3.41283E-13
 -1      2154 3.67236E+01 4.50915E+00 2.47509E-01 2.34047E+00 6.58085E-13 3.35953E-13
 -1      2155 4.07019E+01 7.29094E+00 4.39946E-01-1.64271E-01 8.33444E-13 7.97626E-14
 -1      2156 3.88970E+01 7.24160E+00 2.34732E-01 6.37865E-01 8.48432E-13 2.88575E-13
 -1      2157 3.77516E+01 6.11208E+00 1.82804E-01-1.16154E+00 7.07601E-13-1.46105E-13
 -1      2158 4.00987E+01 6.77976E+00 3.71975E-01-5.20226E-01 8.34610E-13 4.18832E-14
 -1      2159 3.37993E+01 2.64495E+00 1.54402E-01-3.48031E+00 4.99496E-13-5.92415E-13
 -1      2160 3.67244E+01 3.94634E+00 1.89728E-01-2.20348E+00 6.18394E-13-3.37286E-13
 -1      2161 2.63795E+01-6.22158E-01-9.60128E-02-5.32570E+00 3.98237E-13-7.37965E-13
 -1      2162 3.14171E+01 1.09968E+00 2.20130E-01-5.24033E+00 3.70814E-13-8.16791E-13
 -1      2163 1.78145E+01-4.13082E+00-2.65498E-01-5.99959E+00 2.73948E-13-5.76317E-13
 -1      2164 2.29247E+01-2.00579E+00 8.01313E-02-6.60576E+00 3.80085E-13-7.02660E-13
 -1      2165 8.87826E+00-6.33849E+00-4.18537E-01-5.46718E+00 6.19504E-14-5.48081E-13
 -1      2166 1.31874E+01-4.52860E+00-1.16762E-01-6.64909E+00 2.23488E-13-4.87499E-13
 -1      2167 3.50932E+00-6.81693E+00-3.49863E-01-3.88444E+00-1.80633E-13-5.66325E-13
 -1      2168 6.06788E+00-5.95265E+00-2.18712E-01-5.19586E+00 3.99680E-15-5.85726E-13
 -1      2169 1.11313E-01-7.66825E+00-4.84659E-01-5.30137E-01-4.85563E-13-9.80382E-13
 -1      2170 8.93622E-01-6.97463E+00-3.85133E-01-2.07987E+00-2.23738E-13-6.75404E-13
 -1      2171 1.64422E+00-6.13754E+00-2.97204E-01 2.88748E+00-3.86191E-13-9.89930E-13
 -1      2172 3.01138E-01-7.60528E+00-5.12929E-01 1.05493E+00-3.38493E-13-1.14175E-12
 -1      2173 1.31294E+00-4.90998E+00-2.18875E-01 3.32434E-01-2.41182E-13-1.05466E-12
 -1      2174 7.87249E+00-5.58115E+00-1.70776E-01 5.92185E+00-8.07909E-13-5.08898E-13
 -1      2175 5.22506E+00-5.96735E+00-1.69350E-01 5.02190E+00-5.24802E-13-6.22169E-13
 -1      2176 1.52267E+01-4.13418E+00-4.31599E-02 6.97533E+00-8.49321E-13-8.13516E-13
 -1      2177 1.08525E+01-5.83787E+00-3.28411E-01 6.00563E+00-8.10685E-13-6.47572E-13
 -1      2178 1.19538E+01-5.48363E+00-9.82322E-02 6.87063E+00-3.21854E-13-4.63490E-13
 -1      2179 2.44695E+01-1.67936E+00 8.90029E-02 6.31868E+00-9.89986E-13-7.63334E-13
 -1      2180 1.94220E+01-3.63537E+00-2.24403E-01 6.00260E+00-8.70970E-13-8.18734E-13
 -1      2181 3.22426E+01 1.54792E+00 2.16407E-01 4.50579E+00-9.20777E-13-7.45848E-13
 -1      2182 2.77380E+01-2.68747E-01-9.18812E-02 4.65149E+00-9.91596E-13-7.19869E-13
 -1      2183 3.65570E+01 4.48407E+00 1.47910E-01 1.91621E+00-9.98479E-13-3.09308E-13
 -1      2184 3.39648E+01 3.22762E+00 1.03853E-01 3.21150E+00-1.02186E-12-6.44818E-13
 -1      2185 3.22193E+01 1.39219E+00 2.17564E-01 1.16169E+00-8.38496E-13-2.99094E-13
 -1      2186 3.84001E+01 7.17233E+00 2.14270E-01 2.32652E-01-7.31804E-13-2.68535E-13
 -1      2187 3.74895E+01 6.43366E+00 1.88634E-01 1.05605E+00-8.49765E-13-3.36287E-13
 -1      2188 3.91075E+01 6.82850E+00 3.28428E-01-1.10363E+00-6.38822E-13 6.55032E-15
 -1      2189 3.90532E+01 7.29532E+00 2.08183E-01-5.46883E-02-6.88727E-13-2.42313E-13
 -1      2190 3.58720E+01 4.29721E+00 2.05436E-01-3.13714E+00-5.89820E-13 1.06137E-13
 -1      2191 3.82117E+01 5.39300E+00 2.74427E-01-1.91030E+00-6.07181E-13-6.62803E-14
 -1      2192 2.98333E+01 1.03329E+00-6.42835E-03-4.34642E+00-4.62991E-13 1.06803E-13
 -1      2193 3.43606E+01 2.79310E+00 3.26883E-01-4.30232E+00-5.84005E-13 8.83738E-14
 -1      2194 3.36937E+01 3.00639E+00 2.66816E-01-1.13974E+00-3.85969E-13-4.14169E-13
 -1      2195 2.15115E+01-2.64918E+00-1.80339E-01-5.93181E+00-2.89269E-13 4.27713E-13
 -1      2196 2.64569E+01-1.00603E+00 8.99453E-02-5.92735E+00-3.42504E-13 3.00926E-13
 -1      2197 1.29422E+01-5.08896E+00-3.61789E-01-6.06489E+00 3.43059E-14 7.80154E-13
 -1      2198 1.74902E+01-3.15307E+00-4.64165E-02-6.96605E+00-1.25344E-13 6.73461E-13
 -1      2199 6.00570E+00-6.72444E+00-4.16858E-01-5.01648E+00 1.95288E-13 6.73211E-13
 -1      2200 9.27143E+00-5.25525E+00-2.10071E-01-6.13854E+00-5.77316E-15 7.48852E-13
 -1      2201 1.11749E+00-7.59172E+00-4.88513E-01-2.36254E+00 7.31359E-14 4.55969E-13
 -1      2202 2.85579E+00-6.52385E+00-3.40362E-01-3.88103E+00-5.17364E-14 7.72826E-13
 -1      2203 1.86003E+00-4.98965E+00-2.23710E-01-2.19812E+00-8.21981E-14 5.10092E-13
 -1      2204 3.55115E+01 2.91652E+00 2.78724E-01 3.61120E+00 7.55535E-13 2.15272E-13
 -1      2205 3.11387E+01 1.42632E+00 4.30447E-03 4.10489E+00 6.50618E-13 3.17524E-13
 -1      2206 3.40970E+01 3.25852E+00 2.63232E-01 3.63323E-01 5.17836E-13 3.54161E-14
 -1      2207 3.04679E+01-1.06045E+00 1.48382E-01 2.47675E+00 4.06827E-13 7.41629E-14
 -1      2208 2.07160E+01 1.10883E+00-2.03666E-02-1.60724E+00-3.69919E-13 2.38266E-13
 -1      2209 2.06148E+01 1.33055E+00-1.88984E-02-1.66540E+00-3.89085E-13 5.23540E-14
 -1      2210 2.15547E+00-5.22278E+00-1.68399E-01 2.10239E+00-1.38251E-13 2.60791E-13
 -1      2211 2.66035E+00-3.29124E+00 4.00523E-02 1.12755E+00-2.74100E-13 2.22489E-13
 -1      2212 4.20256E+00-3.65728E+00-3.08318E-02 3.53257E+00-2.89574E-13 6.54143E-13
 -1      2213 1.51362E+01-5.61220E+00-7.10264E-02 6.65392E+00 7.55507E-14 2.90955E-13
 -1      2214 2.00171E+01 4.07534E-02 2.53246E-04-3.79015E-02-1.01229E-13 1.12327E-13
 -1      2215 2.38150E+01-4.31284E+00 5.86095E-02 5.25676E+00 1.38889E-13 2.39392E-13
 -1      2216 6.04914E+00-5.53486E+00-1.90991E-01-5.40003E+00 1.89959E-13 5.66047E-13
 -1      2217 1.35543E+01-5.51645E+00-1.03000E-01-6.79435E+00 3.47666E-13 6.64392E-13
 -1      2218 2.90658E+01-1.38434E+00 1.28851E-01-3.38741E+00-8.95117E-14-1.88849E-13
 -1      2219 3.56862E+01 6.49117E+00 3.08083E-01-7.28137E-02-6.03129E-13-2.35645E-13
 -1      2220 3.43301E+01 5.50660E+00 2.08626E-01-1.55328E-01-9.59066E-13-1.58706E-13
 -1      2221 1.97322E+01-5.10618E+00 2.18134E-03 6.31463E+00-4.91329E-13-5.11619E-13
 -1      2222 4.66598E+00-5.09717E+00-1.03430E-01 4.43245E+00-2.52631E-13-8.44852E-13
 -1      2223 4.62835E+00-3.42348E+00 9.90072E-02 3.94007E+00 2.58960E-14-9.17488E-13
 -1      2224 7.84037E+00-4.06983E+00-3.66419E-02 5.82146E+00-4.89608E-14-6.04572E-13
 -1      2225 3.73373E+00-5.00678E+00-1.59456E-01-3.84087E+00-2.21018E-13-7.24198E-13
 -1      2226 9.69379E+00-5.61965E+00-1.64135E-01-6.30214E+00-2.06113E-13-5.71182E-13
 -1      2227 1.79172E+01-5.32469E+00-6.11645E-02-6.46278E+00-3.44169E-15-5.00253E-13
 -1      2228 2.64125E+01-3.01212E+00 9.32355E-02-4.52959E+00 1.60039E-13-5.64104E-13
 -1      2229 3.22307E+01 7.33957E-01 2.38674E-01-1.97368E+00 2.60330E-13-3.33511E-13
 -1      2230 3.50213E+01 4.97007E+00 2.34957E-01 7.33306E-02 6.47482E-13 4.50751E-14
 -1      2231 3.64373E+01 6.51812E+00 1.84453E-01-3.49624E-03 7.58782E-13 2.09333E-13
 -1      2232 3.29940E+01 5.58261E+00 1.07143E-02-9.10841E-01 5.41844E-13 1.78191E-14
 -1      2233 3.34117E+01 7.04918E+00-9.14798E-02-7.42736E-01 8.10241E-13 1.09607E-13
 -1      2234 3.58851E+01 7.84123E+00 2.77922E-01 2.32673E-01 8.65474E-13 1.51490E-13
 -1      2235 2.75266E+01-2.58560E+00 1.10476E-01 3.83774E+00-7.31526E-13-4.57467E-13
 -1      2236 3.53978E+01 7.90027E+00 2.42773E-01-1.50778E-01-7.87592E-13-1.92017E-13
 -1      2237 2.17494E+01-4.36157E+00 4.56414E-02-5.96322E+00 8.57092E-14 2.97928E-13
 -1      2238 2.01441E+01 5.11468E-01 4.03077E-03 6.62145E-01 3.14878E-13 2.69455E-13
 -1      2239 2.04072E+01 7.03474E-01 2.08342E-02 9.55866E-01 3.41983E-13 3.24622E-13
 -1      2240 1.95733E+01 3.54177E+00-1.12315E-02-5.81229E-01-3.83780E-14-5.01266E-13
 -1      2241 1.96089E+01 3.49424E+00-1.04503E-02-7.63405E-01-8.38275E-14-5.03666E-13
 -1      2242 1.96553E+01 3.40301E+00-1.29314E-02-9.25853E-01-1.18599E-13-5.00527E-13
 -1      2243 1.97161E+01 3.32025E+00-1.26940E-02-1.11359E+00-1.67521E-13-4.86644E-13
 -1      2244 1.97986E+01 3.06132E+00 3.48706E-04-7.76605E-01-9.21610E-14-4.62910E-13
 -1      2245 1.95255E+01 3.62810E+00-9.63787E-03 9.78191E-02 1.03097E-13-4.88865E-13
 -1      2246 1.95248E+01 3.62894E+00-9.64644E-03-7.87790E-02 5.73765E-14-4.89240E-13
 -1      2247 1.95521E+01 3.58696E+00-9.69473E-03 4.37821E-01 1.72292E-13-4.71482E-13
 -1      2248 1.95344E+01 3.61046E+00-1.02065E-02 2.59667E-01 1.26349E-13-4.87784E-13
 -1      2249 1.96894E+01 3.25734E+00-6.48535E-04 1.65698E-01 1.02515E-13-4.64611E-13
 -1      2250 1.96144E+01 3.48658E+00-1.05401E-02 7.76839E-01 2.38393E-13-4.21811E-13
 -1      2251 1.95779E+01 3.53526E+00-1.13196E-02 5.97518E-01 1.98849E-13-4.50855E-13
 -1      2252 1.97270E+01 3.19095E+00-2.84555E-04 4.77379E-01 1.70827E-13-4.32661E-13
 -1      2253 1.97248E+01 3.30727E+00-1.28462E-02 1.12691E+00 3.30707E-13-3.38499E-13
 -1      2254 1.96624E+01 3.39284E+00-1.30124E-02 9.38959E-01 2.80476E-13-3.86646E-13
 -1      2255 1.98050E+01 3.05200E+00 4.15357E-04 7.87727E-01 2.53673E-13-3.64527E-13
 -1      2256 1.99013E+01 3.01544E+00-1.80405E-02 1.47287E+00 4.03877E-13-2.24188E-13
 -1      2257 1.98034E+01 3.15912E+00-1.53027E-02 1.28284E+00 3.54893E-13-2.90727E-13
 -1      2258 1.99341E+01 2.81995E+00 2.04493E-03 1.09094E+00 3.30111E-13-2.83686E-13
 -1      2259 2.01732E+01 2.54993E+00-2.83000E-02 1.77819E+00 4.50884E-13-6.17510E-14
 -1      2260 2.00257E+01 2.79155E+00-1.71610E-02 1.60329E+00 4.17658E-13-1.53898E-13
 -1      2261 2.01261E+01 2.46206E+00 5.90659E-03 1.35635E+00 3.86653E-13-1.63457E-13
 -1      2262 1.98783E+01 2.76822E-01 5.15598E-03 2.62338E-01 2.63755E-13 2.05420E-13
 -1      2263 2.00321E+01 3.74638E-01 2.02407E-02 4.23133E-01 2.95048E-13 2.62166E-13
 -1      2264 2.02140E+01 6.42869E-01-2.46897E-03 6.82779E-01 3.31082E-13 1.28501E-13
 -1      2265 2.03982E+01 8.59230E-01 1.22878E-02-9.82939E-01-2.98488E-13-1.50689E-14
 -1      2266 2.01954E+01 6.37035E-01-3.04383E-03-6.70912E-01-2.50511E-13-2.74613E-14
 -1      2267 2.05413E+01 1.95792E+00-1.37376E-02-1.88751E+00-3.73613E-13-1.05084E-13
 -1      2268 2.04092E+01 1.22194E+00-5.36958E-03-1.27151E+00-3.48757E-13-5.71396E-14
 -1      2269 2.03751E+01 1.38157E+00 3.37892E-03-1.20988E+00-3.09694E-13-1.23942E-13
 -1      2270 2.02876E+01 2.37011E+00-7.60007E-03-1.81163E+00-3.44495E-13-2.20733E-13
 -1      2271 3.07660E+01-8.51727E-01-9.56635E-02 7.39544E-01 4.16655E-13-8.12961E-14
 -1      2272 2.84715E+01-2.81687E+00-2.46012E-02 1.83530E+00 2.54907E-13-4.74898E-14
 -1      2273 2.01282E+01 4.79115E-01 1.47885E-02-4.49062E-01-2.22265E-13-4.93312E-15
 -1      2274 1.99999E+01 3.59341E-01 1.52688E-03-2.72876E-01-1.95420E-13-2.72580E-14
 -1      2275 2.02521E+01 7.62311E-01-7.02540E-04-6.64787E-01-2.37880E-13-8.56831E-14
 -1      2276 1.99369E+01 2.74990E-01 9.78272E-03-1.28347E-01-1.78814E-13-2.15766E-14
 -1      2277 1.98724E+01 2.08764E-01 2.03847E-03-2.41393E-02-1.56393E-13-5.51240E-14
 -1      2278 2.01004E+01 4.39748E-01-2.28588E-03-2.71982E-01-1.99855E-13-7.29490E-14
 -1      2279 1.98322E+01 1.61665E-01 5.79105E-03 6.77979E-02-1.48857E-13-5.17234E-14
 -1      2280 1.98137E+01 1.24781E-01 2.05327E-03 1.31252E-01-1.37862E-13-4.35465E-14
 -1      2281 1.99927E+01 2.59146E-01-2.79552E-03-1.59858E-02-1.54723E-13-6.72119E-14
 -1      2282 1.97957E+01 9.86053E-02 3.28025E-03 1.90140E-01-1.52349E-13-7.78133E-14
 -1      2283 1.98091E+01 7.91659E-02 2.07737E-03 2.30685E-01-1.48494E-13-9.63244E-14
 -1      2284 1.99348E+01 1.56811E-01-2.82014E-03 1.49441E-01-1.77386E-13-8.48512E-14
 -1      2285 1.98094E+01 6.58637E-02 1.75749E-03 2.70221E-01-1.41787E-13-1.03803E-13
 -1      2286 1.98452E+01 5.76064E-02 2.16712E-03 2.98856E-01-1.02386E-13-1.47302E-13
 -1      2287 1.99192E+01 1.01285E-01-2.68553E-03 2.59005E-01-1.67550E-13-9.09672E-14
 -1      2288 1.98600E+01 5.27983E-02 8.37122E-04 3.28553E-01-5.05316E-14-1.45649E-13
 -1      2289 1.99124E+01 5.20802E-02 2.32566E-03 3.52473E-01-3.79902E-14-1.35724E-13
 -1      2290 1.99371E+01 7.57575E-02-2.56363E-03 3.37119E-01-9.74689E-14-1.15310E-13
 -1      2291 1.99388E+01 5.30674E-02 2.94071E-04 3.78991E-01-6.33378E-14-1.00568E-13
 -1      2292 2.00051E+01 5.74762E-02 2.54209E-03 4.03044E-01-7.45529E-14-1.02304E-13
 -1      2293 1.99815E+01 7.03961E-02-2.51003E-03 4.00904E-01-4.37753E-14-1.19443E-13
 -1      2294 2.00416E+01 6.22998E-02-8.86787E-07 4.31005E-01-6.56592E-14-9.33161E-14
 -1      2295 2.01206E+01 6.99191E-02 2.78601E-03 4.58358E-01-7.57880E-14-8.40718E-14
 -1      2296 2.00479E+01 7.86950E-02-2.52218E-03 4.62357E-01-7.17522E-14-4.36021E-14
 -1      2297 2.01666E+01 7.68223E-02-1.23960E-04 4.90739E-01-6.32757E-14-4.58314E-14
 -1      2298 2.02586E+01 8.57460E-02 3.00064E-03 5.23090E-01-1.80229E-14-1.54847E-14
 -1      2299 2.01338E+01 9.55242E-02-2.57271E-03 5.29578E-01-5.74855E-14 4.70082E-14
 -1      2300 2.03144E+01 9.27722E-02-1.17042E-04 5.61308E-01-1.59464E-14-9.98824E-15
 -1      2301 2.04201E+01 1.00685E-01 3.09531E-03 5.98765E-01 7.87554E-15-2.78901E-15
 -1      2302 2.02391E+01 1.15855E-01-2.62289E-03 6.07262E-01-6.20131E-15 1.29730E-13
 -1      2303 2.04870E+01 1.05290E-01 6.76793E-06 6.42483E-01-3.27743E-15-5.36504E-14
 -1      2304 2.06071E+01 1.09032E-01 2.93627E-03 6.83161E-01-5.09258E-14-9.98957E-14
 -1      2305 2.03649E+01 1.33687E-01-2.62829E-03 6.96581E-01-3.41730E-14-1.44783E-14
 -1      2306 2.06873E+01 1.07679E-01 2.63374E-04 7.29816E-01-1.00592E-13-1.07363E-13
 -1      2307 2.08220E+01 1.02808E-01 2.34014E-03 7.69152E-01-1.50405E-13-9.82331E-14
 -1      2308 2.05143E+01 1.40977E-01-2.54321E-03 7.94505E-01-9.14897E-14-1.42238E-13
 -1      2309 2.09188E+01 9.06029E-02 6.97021E-04 8.13194E-01-1.43082E-13-6.49907E-14
 -1      2310 2.10668E+01 7.10897E-02 1.07804E-03 8.43047E-01-9.15273E-14-6.60094E-14
 -1      2311 2.06917E+01 1.26578E-01-2.32666E-03 8.92554E-01-1.10321E-13-3.93587E-14
 -1      2312 2.11853E+01 4.16895E-02 1.36816E-03 8.74919E-01-6.67167E-14-1.06485E-14
 -1      2313 2.13435E+01 1.39508E-04-1.09406E-03 8.82680E-01-2.60195E-14 1.04907E-15
 -1      2314 2.09043E+01 7.55707E-02-1.94537E-03 9.75009E-01-7.37164E-14 5.02271E-14
 -1      2315 2.14902E+01-5.35409E-02 2.31006E-03 8.87720E-01 1.64292E-14-5.02481E-14
 -1      2316 2.16525E+01-1.24340E-01-4.34369E-03 8.56001E-01 3.56011E-14-8.03592E-14
 -1      2317 2.11618E+01-3.00778E-02-1.36098E-03 1.01683E+00-2.60047E-14 5.62474E-14
 -1      2318 2.18346E+01-2.07586E-01 3.43153E-03 8.13797E-01 3.26222E-14-6.38020E-14
 -1      2319 2.19908E+01-3.10440E-01-8.54733E-03 7.21949E-01 7.38489E-14-5.68523E-15
 -1      2320 2.14767E+01-2.07572E-01-4.80160E-04 9.81905E-01 6.12132E-14 1.17780E-14
 -1      2321 2.22120E+01-4.20960E-01 4.33011E-03 6.07555E-01 4.86835E-14-4.58547E-14
 -1      2322 2.23467E+01-5.45992E-01-1.29311E-02 4.37110E-01 4.48526E-14-3.06075E-14
 -1      2323 2.18602E+01-4.62893E-01 9.33220E-04 8.23515E-01 5.52193E-14 4.92340E-14
 -1      2324 2.25983E+01-6.64013E-01 4.04123E-03 2.27076E-01 9.09225E-14-4.22831E-14
 -1      2325 2.26897E+01-7.76811E-01-1.56305E-02-2.62427E-02 9.69429E-14-6.60518E-15
 -1      2326 2.23119E+01-7.70902E-01 3.19061E-03 4.91172E-01 7.42733E-14-4.81004E-14
 -1      2327 2.29370E+01-8.53772E-01 9.88186E-04-3.38108E-01 8.16703E-14 6.50715E-14
 -1      2328 2.29582E+01-8.87001E-01-1.36581E-02-6.44856E-01 7.83397E-14 6.11440E-14
 -1      2329 2.27990E+01-1.04749E+00 6.11969E-03-4.82215E-02 1.33090E-13-1.15315E-14
 -1      2330 2.31316E+01-8.45445E-01-6.42387E-03-1.01798E+00 4.42879E-14 1.12454E-13
 -1      2331 2.30609E+01-7.12143E-01-4.18545E-03-1.29537E+00 1.18736E-13 2.14886E-13
 -1      2332 2.32315E+01-1.13009E+00 7.80672E-03-7.64569E-01 8.87036E-14 1.46094E-13
 -1      2333 2.30744E+01-4.80363E-01-1.71458E-02-1.60720E+00 1.29440E-13 2.49262E-13
 -1      2334 2.29119E+01-1.38509E-01 9.87964E-03-1.72269E+00 8.91101E-14 2.34314E-13
 -1      2335 2.34612E+01-8.13630E-01 3.09623E-03-1.49276E+00 1.25189E-13 2.63947E-13
 -1      2336 2.27470E+01 2.69238E-01-2.18940E-02-1.77862E+00 1.04498E-14 1.07367E-13
 -1      2337 2.25391E+01 7.22183E-01 1.88589E-02-1.61138E+00 2.28810E-14 5.35873E-14
 -1      2338 2.33696E+01 2.18761E-02-4.08095E-03-1.89893E+00 2.56154E-14 1.39692E-13
 -1      2339 2.23216E+01 1.12442E+00-1.56706E-02-1.26199E+00 5.93796E-14 5.26538E-14
 -1      2340 2.21663E+01 1.44162E+00 9.18783E-03-8.22352E-01 1.77393E-14 2.91681E-14
 -1      2341 2.30218E+01 1.16637E+00-8.41661E-03-1.60735E+00 3.41602E-14 1.56539E-13
 -1      2342 2.20957E+01 1.59356E+00 1.36573E-03-1.54120E-01-3.94632E-14-7.68127E-14
 -1      2343 2.20859E+01 1.55118E+00-1.21001E-02 3.80233E-01-9.83554E-14-3.89077E-14
 -1      2344 2.27231E+01 2.00454E+00-8.24788E-03-5.42527E-01-3.87832E-14-8.11443E-14
 -1      2345 2.22437E+01 1.34509E+00 1.83344E-02 1.02249E+00-1.28976E-13-9.01024E-14
 -1      2346 2.23894E+01 9.71460E-01-2.36061E-02 1.40584E+00-1.28055E-13-7.18176E-14
 -1      2347 2.27735E+01 1.96519E+00 2.78639E-03 8.17474E-01-1.15241E-13-6.83414E-14
 -1      2348 2.26229E+01 5.58031E-01 1.79373E-02 1.69465E+00-9.37479E-14-1.30415E-13
 -1      2349 2.28374E+01 1.06910E-01-2.02898E-02 1.79508E+00-2.22273E-14-5.75360E-14
 -1      2350 2.31205E+01 1.05394E+00 7.73372E-03 1.74426E+00-1.18270E-13-1.07314E-13
 -1      2351 2.29521E+01-2.70970E-01 3.77768E-03 1.68047E+00 8.25295E-15-1.61817E-14
 -1      2352 2.31281E+01-5.71713E-01-8.84944E-03 1.53058E+00 4.44024E-14 8.25957E-14
 -1      2353 2.34286E+01-1.06625E-01 7.48260E-04 1.87716E+00-4.63171E-16-1.98891E-13
 -1      2354 2.30527E+01-7.68665E-01-9.68714E-03 1.18290E+00 5.68295E-15 1.26349E-13
 -1      2355 2.31312E+01-8.56946E-01 1.68268E-03 9.07460E-01 3.66868E-14 1.69999E-13
 -1      2356 2.34432E+01-9.10514E-01-7.67426E-03 1.37256E+00 8.34600E-14-1.52082E-13
 -1      2357 2.29214E+01-8.76727E-01-1.56719E-02 5.24410E-01-4.98438E-14 1.99419E-13
 -1      2358 2.28993E+01-8.15308E-01 6.06687E-03 2.40415E-01-8.51205E-14 2.61424E-13
 -1      2359 2.31554E+01-1.17205E+00-1.20432E-02 6.24594E-01 2.00029E-14-3.53435E-14
 -1      2360 2.26423E+01-7.31038E-01-1.50243E-02-6.53960E-02-1.86652E-13 2.05615E-13
 -1      2361 2.25464E+01-6.07049E-01 6.47023E-03-2.90166E-01-9.36026E-14 6.27619E-14
 -1      2362 2.27049E+01-1.03878E+00-1.20554E-02-6.18391E-02-1.77546E-13 6.27062E-14
 -1      2363 2.23021E+01-4.90765E-01-1.09583E-02-4.86729E-01 3.24402E-14-9.21795E-14
 -1      2364 2.21636E+01-3.65663E-01 5.11867E-03-6.31621E-01 1.69610E-14-1.59128E-13
 -1      2365 2.22273E+01-7.33522E-01-9.06152E-03-5.54145E-01-1.20828E-13-1.01683E-14
 -1      2366 2.19564E+01-2.60253E-01-6.46757E-03-7.30942E-01-7.33701E-14-9.10609E-14
 -1      2367 2.17997E+01-1.61802E-01 3.36191E-03-8.03138E-01-6.35818E-14-6.45736E-14
 -1      2368 2.17973E+01-4.16802E-01-5.69265E-03-8.40319E-01-2.02994E-14-1.51704E-13
 -1      2369 2.16327E+01-8.35315E-02-2.74334E-03-8.30828E-01-5.98153E-14-5.32743E-14
 -1      2370 2.14742E+01-1.76433E-02 1.92561E-03-8.48454E-01-1.14785E-14-1.57415E-14
 -1      2371 2.14380E+01-1.62779E-01-3.03658E-03-9.60114E-01-1.06969E-14-1.39556E-13
 -1      2372 2.13416E+01 3.25334E-02-9.46628E-05-8.29994E-01-9.88783E-15 6.33020E-14
 -1      2373 2.11915E+01 7.03867E-02 9.71600E-04-8.12163E-01-4.11094E-14-1.03291E-13
 -1      2374 2.11464E+01 1.05491E-02-1.30278E-03-9.64249E-01-3.95507E-14-1.15295E-13
 -1      2375 2.10859E+01 9.79471E-02 1.56078E-03-7.67755E-01-2.61756E-14-1.74014E-13
 -1      2376 2.09500E+01 1.15353E-01 4.21726E-04-7.30185E-01 2.58570E-14-2.82351E-13
 -1      2377 2.09109E+01 1.12855E-01-3.31360E-04-8.97459E-01-6.54727E-14-1.21231E-13
 -1      2378 2.08652E+01 1.27060E-01 2.44174E-03-6.74083E-01 5.84689E-14-2.90022E-13
 -1      2379 2.07464E+01 1.31165E-01 1.46917E-04-6.28039E-01-2.99882E-14-2.48286E-13
 -1      2380 2.07198E+01 1.62464E-01 1.20260E-04-7.93476E-01-3.82692E-14-1.61503E-13
 -1      2381 2.06778E+01 1.32870E-01 2.77860E-03-5.69477E-01-6.65046E-14-2.72072E-13
 -1      2382 2.05769E+01 1.29219E-01 3.67585E-05-5.22228E-01-6.22528E-14-1.00292E-13
 -1      2383 2.05639E+01 1.77178E-01 2.65499E-04-6.75440E-01-5.45077E-14-2.32053E-13
 -1      2384 2.05212E+01 1.25282E-01 2.76521E-03-4.66668E-01-1.16229E-13-5.62360E-14
 -1      2385 2.04376E+01 1.17749E-01 1.60653E-05-4.22407E-01-4.34072E-14-5.02699E-14
 -1      2386 2.04366E+01 1.71069E-01 2.53904E-04-5.57969E-01-5.15905E-14-7.66410E-14
 -1      2387 2.03926E+01 1.11147E-01 2.54715E-03-3.72675E-01 3.28150E-14 4.71257E-14
 -1      2388 2.03248E+01 1.02259E-01 3.93446E-05-3.33441E-01 9.96844E-14 2.93942E-15
 -1      2389 2.03330E+01 1.54129E-01 1.76359E-04-4.49399E-01-2.81101E-15-5.76689E-14
 -1      2390 2.02887E+01 9.49083E-02 2.22461E-03-2.90610E-01 1.85688E-13-2.44298E-14
 -1      2391 2.02350E+01 8.62251E-02 7.77667E-05-2.57026E-01 3.31923E-13-5.33684E-14
 -1      2392 2.02493E+01 1.32973E-01 8.41083E-05-3.53715E-01 1.30079E-13 7.77889E-14
 -1      2393 2.02062E+01 7.93199E-02 1.86540E-03-2.21078E-01 1.84898E-13-6.79776E-14
 -1      2394 2.01644E+01 7.17461E-02 1.24700E-04-1.92886E-01 1.98906E-13-1.87196E-13
 -1      2395 2.01823E+01 1.11744E-01 2.56626E-06-2.72038E-01 1.88828E-13-4.34585E-14
 -1      2396 2.01415E+01 6.62279E-02 1.58720E-03-1.63083E-01 3.40960E-13-2.38852E-13
 -1      2397 2.01098E+01 5.98129E-02 1.54212E-04-1.39242E-01 1.21404E-13-1.90263E-13
 -1      2398 2.01290E+01 9.31564E-02 5.59473E-06-2.03984E-01 1.43711E-13-2.24421E-13
 -1      2399 2.00919E+01 5.54356E-02 1.26512E-03-1.15326E-01 5.16172E-15 1.09247E-13
 -1      2400 2.00686E+01 5.13168E-02 4.68442E-04-9.52417E-02 7.75051E-14 2.04250E-13
 -1      2401 2.00865E+01 7.59514E-02-8.81243E-04-1.46635E-01 2.19309E-13-8.82382E-14
 -1      2402 1.06146E+01-4.62411E+00 2.75160E-02 6.57962E+00-2.02338E-13 2.99066E-13
 -1      2403 7.72305E+00-3.97903E+00 8.37877E-02 5.43854E+00-4.18249E-13 5.95385E-13
 -1      2404 1.96697E+01 9.12048E-02 2.87730E-03-1.16641E-01 1.16547E-13 8.52413E-14
 -1      2405 1.96831E+01 1.19814E-01 7.08405E-03-6.25030E-02 1.36523E-13 1.27222E-13
 -1      2406 1.96778E+01 5.65014E-02 2.42455E-03-2.04953E-01 7.69095E-14 5.26418E-14
 -1      2407 1.96552E+01 7.14638E-02 3.92476E-03-1.71366E-01 1.01212E-13 7.66496E-14
 -1      2408 1.98188E+01 1.18323E-01-3.64146E-03-1.40254E-01 1.12962E-13 2.42506E-14
 -1      2409 1.97334E+01 4.04092E-02 2.29966E-03-2.63995E-01 1.19989E-13 2.80471E-14
 -1      2410 1.96863E+01 4.67103E-02 2.13656E-03-2.40814E-01 9.30000E-14 5.04323E-14
 -1      2411 1.98136E+01 7.49042E-02-2.87096E-03-2.41990E-01 1.09397E-13-1.05200E-15
 -1      2412 1.98243E+01 3.68431E-02 2.39305E-03-3.10110E-01 1.12041E-13 3.71044E-14
 -1      2413 1.97592E+01 3.71763E-02 1.12290E-03-2.90708E-01 1.23370E-13 4.54901E-14
 -1      2414 1.98492E+01 5.59371E-02-2.24206E-03-3.13017E-01 1.13542E-13-2.85493E-14
 -1      2415 1.99443E+01 4.22988E-02 2.65593E-03-3.54712E-01 5.78419E-14 6.56883E-14
 -1      2416 1.98639E+01 3.82650E-02 5.62935E-04-3.34435E-01 9.91302E-14 4.90033E-14
 -1      2417 1.99160E+01 5.35474E-02-1.82340E-03-3.70993E-01 9.15494E-14 3.89184E-14
 -1      2418 2.00911E+01 5.44705E-02 3.05419E-03-4.06093E-01 1.05938E-13 1.57081E-14
 -1      2419 1.99957E+01 4.71658E-02 2.85789E-04-3.81536E-01 8.14992E-14 3.52794E-14
 -1      2420 2.00086E+01 6.31029E-02-1.59020E-03-4.28478E-01 9.03793E-14 3.89685E-14
 -1      2421 2.02658E+01 7.14706E-02 3.54152E-03-4.70263E-01 1.46263E-13-3.54970E-14
 -1      2422 2.01539E+01 6.18513E-02 1.89316E-04-4.38976E-01 1.55150E-13 8.14106E-15
 -1      2423 2.01246E+01 8.14394E-02-1.49725E-03-4.94609E-01 1.63667E-13-1.66800E-14
 -1      2424 2.04715E+01 9.12004E-02 4.04214E-03-5.51122E-01 4.55723E-14-1.58610E-14
 -1      2425 2.03406E+01 8.04120E-02 2.05971E-04-5.11625E-01 1.13187E-13-1.51244E-14
 -1      2426 2.02641E+01 1.05798E-01-1.50358E-03-5.75870E-01 1.06126E-13-2.73396E-15
 -1      2427 2.07125E+01 1.10620E-01 4.42973E-03-6.50024E-01 2.35020E-14-4.74527E-14
 -1      2428 2.05596E+01 1.00404E-01 2.91047E-04-6.02125E-01 5.08447E-15-4.09762E-14
 -1      2429 2.04289E+01 1.32903E-01-1.58191E-03-6.76175E-01 3.01961E-14 1.93922E-14
 -1      2430 2.09931E+01 1.24756E-01 4.50091E-03-7.64589E-01 3.01724E-14-5.67043E-14
 -1      2431 2.08157E+01 1.18011E-01 4.21690E-04-7.10104E-01 6.91682E-14-3.33413E-14
 -1      2432 2.06220E+01 1.57860E-01-1.72810E-03-7.96281E-01 1.51429E-14-4.45670E-14
 -1      2433 2.13170E+01 1.25363E-01 3.94823E-03-8.86557E-01-2.62124E-14-8.70987E-14
 -1      2434 2.11141E+01 1.26887E-01 6.04279E-04-8.30540E-01-2.51612E-14-5.09870E-14
 -1      2435 2.08476E+01 1.72675E-01-1.97672E-03-9.32377E-01 2.46880E-14-5.28585E-14
 -1      2436 2.16858E+01 9.93886E-02 2.34710E-03-9.98506E-01 4.17463E-14-6.92374E-14
 -1      2437 2.14594E+01 1.16684E-01 8.89796E-04-9.51050E-01 2.54951E-14-8.48789E-14
 -1      2438 2.11109E+01 1.64354E-01-2.42396E-03-1.07367E+00-4.85582E-15-6.93068E-14
 -1      2439 2.20985E+01 2.80183E-02-8.10714E-04-1.06955E+00-2.64062E-14 1.23087E-14
 -1      2440 2.18553E+01 7.16198E-02 1.38951E-03-1.04797E+00 1.74701E-14-1.05357E-14
 -1      2441 2.14197E+01 1.12960E-01-3.24180E-03-1.19878E+00-5.36192E-16-7.23263E-14
 -1      2442 2.25491E+01-1.11304E-01-5.92525E-03-1.05115E+00-1.76362E-13 9.64866E-14
 -1      2443 2.23030E+01-2.95269E-02 2.25584E-03-1.08158E+00-7.51056E-14 9.84889E-14
 -1      2444 2.17854E+01-8.84372E-03-4.63127E-03-1.27110E+00-1.34090E-13 3.02336E-14
 -1      2445 2.30244E+01-3.34620E-01-1.28198E-02-8.76706E-01-1.22168E-13 6.58033E-14
 -1      2446 2.27987E+01-2.08326E-01 3.59122E-03-9.92503E-01-1.81942E-13 9.66976E-14
 -1      2447 2.22241E+01-2.30671E-01-6.54591E-03-1.23400E+00-1.96265E-13 1.57366E-13
 -1      2448 2.34948E+01-6.26477E-01-2.00607E-02-4.74135E-01-1.07738E-13 7.73776E-14
 -1      2449 2.33246E+01-4.70000E-01 4.83119E-03-7.05817E-01-1.00192E-13 7.23536E-14
 -1      2450 2.27513E+01-5.64828E-01-8.11144E-03-1.01034E+00-1.18965E-13 1.44513E-13
 -1      2451 2.39019E+01-9.00394E-01-2.41990E-02 1.95552E-01 1.96076E-14 1.56879E-13
 -1      2452 2.38317E+01-7.70270E-01 4.38918E-03-1.55435E-01-2.29140E-14 9.41630E-14
 -1      2453 2.33646E+01-9.68114E-01-7.72738E-03-5.17488E-01-7.95987E-14 7.02144E-14
 -1      2454 2.41453E+01-9.66499E-01-1.98428E-02 1.06478E+00-3.81448E-14 2.92991E-13
 -1      2455 2.42173E+01-9.74866E-01-1.41580E-03 6.55795E-01 9.24174E-15 2.25292E-13
 -1      2456 2.40070E+01-1.28459E+00-2.74583E-03 2.85164E-01-4.10566E-14 2.26331E-13
 -1      2457 2.40975E+01-5.66370E-01-2.73825E-03 1.86720E+00-1.41397E-13 3.57564E-13
 -1      2458 2.43247E+01-8.45522E-01-1.42887E-02 1.56041E+00-1.33606E-13 2.94819E-13
 -1      2459 2.45245E+01-1.23329E+00 3.25230E-03 1.30088E+00-1.19537E-13 3.63103E-13
 -1      2460 2.37015E+01 3.64970E-01 1.46150E-02 2.09552E+00 7.34517E-14 2.78392E-13
 -1      2461 2.40086E+01-1.59958E-01-3.42434E-02 2.12335E+00-6.48500E-14 3.47378E-13
 -1      2462 2.46759E+01-4.69226E-01 8.51805E-03 2.16365E+00-6.22471E-14 2.43774E-13
 -1      2463 2.31678E+01 1.39206E+00 1.30059E-02 1.34720E+00 2.01086E-13 2.10060E-13
 -1      2464 2.34135E+01 9.12670E-01-3.76460E-02 1.82223E+00 1.72123E-13 2.78161E-13
 -1      2465 2.43609E+01 8.74213E-01-1.49155E-02 2.22231E+00 1.38861E-13 2.23844E-13
 -1      2466 2.29417E+01 1.76575E+00-1.19770E-02-1.80302E-01 3.10946E-13 1.28322E-13
 -1      2467 2.29764E+01 1.70725E+00-1.62054E-02 5.47985E-01 2.49793E-13 1.81927E-13
 -1      2468 2.39118E+01 2.09126E+00-3.70875E-02 1.10420E+00 2.72980E-13 2.18680E-13
 -1      2469 2.32811E+01 1.14476E+00-3.57722E-02-1.61341E+00 8.54282E-14 1.69647E-13
 -1      2470 2.30790E+01 1.56524E+00 1.17488E-02-1.05375E+00 2.48898E-13 1.00915E-13
 -1      2471 2.38555E+01 2.25700E+00-3.61805E-02-7.21059E-01 2.95146E-13 6.77958E-14
 -1      2472 2.38938E+01 6.69037E-02-3.33382E-02-2.14894E+00-1.36861E-14 1.05631E-13
 -1      2473 2.35835E+01 6.11248E-01 1.84067E-02-2.02171E+00-7.56860E-15 1.45652E-13
 -1      2474 2.42614E+01 1.20675E+00-1.32079E-02-2.08052E+00 7.86142E-14 5.80317E-14
 -1      2475 2.42981E+01-7.32824E-01-1.65425E-02-1.74312E+00 1.07117E-14 6.90780E-14
 -1      2476 2.40383E+01-3.97828E-01 9.74516E-04-1.98712E+00 2.12599E-14 9.18692E-14
 -1      2477 2.46468E+01-1.99034E-01 8.34277E-03-2.27008E+00-2.75318E-14-7.25062E-14
 -1      2478 2.42862E+01-9.77931E-01-1.00516E-03-8.75071E-01 1.45370E-13-2.21497E-14
 -1      2479 2.41699E+01-9.21842E-01-1.75313E-02-1.26799E+00 1.47351E-13 1.02184E-13
 -1      2480 2.46044E+01-1.11888E+00 6.72280E-03-1.53574E+00 2.03748E-14-8.75065E-14
 -1      2481 2.39508E+01-8.27025E-01 5.39995E-03-1.98668E-02-7.59557E-14-5.84843E-14
 -1      2482 2.39857E+01-9.38814E-01-2.40255E-02-3.81739E-01 1.13425E-14 4.82339E-14
 -1      2483 2.41518E+01-1.31849E+00-2.46075E-03-5.12034E-01 8.60169E-14-7.25114E-14
 -1      2484 2.34619E+01-5.31164E-01 5.68189E-03 5.91546E-01-8.01685E-14 1.26092E-13
 -1      2485 2.36090E+01-6.87679E-01-2.08114E-02 3.41012E-01-9.79520E-14 6.05824E-14
 -1      2486 2.35210E+01-1.05446E+00-8.88538E-03 3.53679E-01-1.29159E-13 6.15232E-14
 -1      2487 2.29406E+01-2.53745E-01 4.00680E-03 9.28184E-01 5.90279E-14 1.63844E-13
 -1      2488 2.31526E+01-3.86854E-01-1.37053E-02 7.94978E-01-2.23432E-15 1.77116E-13
 -1      2489 2.28974E+01-6.46542E-01-9.57407E-03 9.09267E-01-6.45204E-14 1.86770E-13
 -1      2490 2.24459E+01-5.51100E-02 2.42744E-03 1.04863E+00 1.94385E-13 3.20941E-13
 -1      2491 2.26841E+01-1.44901E-01-6.74411E-03 1.00598E+00 1.65695E-13 1.88569E-13
 -1      2492 2.23572E+01-2.86410E-01-7.49460E-03 1.17826E+00 1.15402E-13 2.98734E-13
 -1      2493 2.20002E+01 6.32229E-02 1.44082E-03 1.02874E+00-9.49986E-15 4.91721E-13
 -1      2494 2.22378E+01 1.26507E-02-1.50102E-03 1.04398E+00 1.26315E-13 4.43698E-13
 -1      2495 2.19097E+01-3.68564E-02-5.12286E-03 1.24082E+00 1.20535E-13 4.36348E-13
 -1      2496 2.16098E+01 1.21017E-01 9.54392E-04 9.31702E-01-1.21322E-15 4.06385E-13
 -1      2497 2.18306E+01 9.83979E-02 1.82898E-03 9.77944E-01 6.51063E-15 3.77579E-13
 -1      2498 2.15408E+01 1.07705E-01-3.40750E-03 1.17670E+00 1.89025E-14 2.52918E-13
 -1      2499 2.12749E+01 1.39945E-01 7.54094E-04 8.01337E-01 1.10027E-13 2.45603E-13
 -1      2500 2.14702E+01 1.34583E-01 3.60265E-03 8.60136E-01 7.31928E-14 4.67571E-13
 -1      2501 2.12346E+01 1.75389E-01-2.40761E-03 1.04675E+00 1.01692E-13 3.98438E-13
 -1      2502 2.09926E+01 1.36852E-01 6.83204E-04 6.64561E-01-1.14652E-13 2.97902E-13
 -1      2503 2.11593E+01 1.40892E-01 4.29418E-03 7.24768E-01 8.92238E-14 3.05025E-13
 -1      2504 2.09792E+01 1.94612E-01-1.88814E-03 8.91540E-01 6.48019E-14 5.08324E-13
 -1      2505 2.07590E+01 1.22945E-01 6.53619E-04 5.36122E-01-3.38839E-13 3.00654E-13
 -1      2506 2.08972E+01 1.31327E-01 4.31644E-03 5.91801E-01-4.38147E-13 2.87753E-13
 -1      2507 2.07664E+01 1.86840E-01-1.61800E-03 7.35484E-01-2.72633E-13 4.37916E-13
 -1      2508 2.05688E+01 1.05003E-01 6.28057E-04 4.22887E-01-1.19077E-13 3.62884E-13
 -1      2509 2.06807E+01 1.14736E-01 3.97167E-03 4.71430E-01-9.59111E-14 2.81259E-13
 -1      2510 2.05905E+01 1.66175E-01-1.44998E-03 5.91711E-01-1.80613E-13 2.67612E-13
 -1      2511 2.04167E+01 8.68313E-02 5.97298E-04 3.26977E-01-1.31092E-13 4.25514E-13
 -1      2512 2.05054E+01 9.62721E-02 3.45960E-03 3.67748E-01-1.72783E-13 3.34794E-13
 -1      2513 2.04467E+01 1.41076E-01-1.30981E-03 4.66088E-01-1.79419E-13 3.30555E-13
 -1      2514 2.02970E+01 7.04284E-02 5.61405E-04 2.47839E-01 1.11883E-13 4.34889E-13
 -1      2515 2.03660E+01 7.87326E-02 2.90075E-03 2.81289E-01 5.34402E-14 4.70616E-13
 -1      2516 2.03308E+01 1.16266E-01-1.16896E-03 3.60095E-01-1.40090E-13 1.60300E-13
 -1      2517 2.02046E+01 5.68127E-02 5.53817E-04 1.83520E-01 7.87278E-14 6.01571E-13
 -1      2518 2.02571E+01 6.35614E-02 2.36297E-03 2.10667E-01 8.24286E-14 5.50186E-13
 -1      2519 2.02388E+01 9.42039E-02-1.01982E-03 2.72731E-01 4.14049E-14 3.65329E-13
 -1      2520 2.01345E+01 4.61842E-02 5.06697E-04 1.31229E-01 7.53918E-14 7.77488E-13
 -1      2521 2.01734E+01 5.14371E-02 1.87207E-03 1.53402E-01 2.55128E-14 7.49907E-13
 -1      2522 2.01665E+01 7.60310E-02-9.39182E-04 2.01886E-01-2.72058E-14 5.21277E-13
 -1      2523 2.00825E+01 3.83722E-02 4.27275E-04 8.86061E-02-1.14119E-13 8.82914E-13
 -1      2524 2.01106E+01 4.22248E-02 1.48256E-03 1.06980E-01 1.46014E-14 8.63946E-13
 -1      2525 2.01105E+01 6.12868E-02-1.16587E-03 1.44237E-01-3.93263E-14 7.99018E-13
 -1      2526 2.00445E+01 3.28393E-02 4.20882E-04 5.37812E-02-6.75835E-14 1.02953E-12
 -1      2527 2.00645E+01 3.56771E-02 1.21544E-03 6.91341E-02-1.58263E-13 8.48711E-13
 -1      2528 2.00683E+01 5.02911E-02-1.13237E-03 9.68595E-02-5.19816E-14 7.87506E-13
 -1      2529 2.00302E+01 2.87675E-02 6.66254E-04 3.66137E-02 2.08256E-13 1.05009E-12
 -1      2530 1.99792E+01 1.77492E-01-8.81978E-04 8.32226E-02-8.98150E-15-3.68390E-13
 -1      2531 1.99884E+01 1.61857E-01 3.21722E-04 8.94988E-02-1.29196E-13-6.49005E-13
 -1      2532 1.99649E+01 2.05877E-01-8.88548E-04 5.97474E-02-8.62005E-14-4.14789E-13
 -1      2533 1.99717E+01 1.94234E-01-1.45920E-05 7.16163E-02-9.54486E-15-2.83330E-13
 -1      2534 1.99678E+01 1.99454E-01 6.38295E-04 9.09346E-02-9.17242E-14-2.94376E-13
 -1      2535 2.00160E+01 1.01351E-01-5.31871E-04 8.96625E-02-1.37077E-13 2.53607E-13
 -1      2536 2.00256E+01 8.35834E-02 7.89213E-04 8.32188E-02-1.34155E-13 4.46334E-13
 -1      2537 1.99978E+01 1.40882E-01-6.97024E-04 9.36778E-02-3.54251E-13-5.80974E-13
 -1      2538 2.00075E+01 1.23590E-01 6.15674E-04 9.29314E-02-3.47105E-13 4.38139E-14
 -1      2539 2.00135E+01 1.21214E-01-3.24060E-04 1.08781E-01-1.43139E-13 8.96119E-15
 -1      2540 1.99909E+01 1.63181E-01 4.80266E-04 1.08459E-01-2.81037E-13-4.00710E-13
 -1      2541 1.99566E+01 2.22601E-01-7.84424E-04 2.72051E-02-1.79072E-13-2.63982E-13
 -1      2542 1.99601E+01 2.16507E-01-3.40769E-04 4.26950E-02-5.82888E-14-4.32896E-13
 -1      2543 1.99509E+01 2.25797E-01 8.11184E-04 5.98982E-02-1.21797E-13-3.69256E-13
 -1      2544 1.99552E+01 2.25679E-01-5.81730E-04-9.32813E-03-8.64602E-14-5.05328E-13
 -1      2545 1.99550E+01 2.25927E-01-6.17916E-04 7.33124E-03-1.73856E-13-3.16917E-13
 -1      2546 1.99421E+01 2.39223E-01 8.96672E-04 2.00494E-02-1.11945E-13-3.05214E-13
 -1      2547 1.99608E+01 2.14827E-01-3.11486E-04-4.42813E-02 1.08140E-13 6.75581E-14
 -1      2548 1.99570E+01 2.21384E-01-8.01716E-04-2.90372E-02 1.56856E-13-1.51582E-13
 -1      2549 1.99425E+01 2.38264E-01 8.79052E-04-2.26055E-02 1.41603E-13-8.88574E-14
 -1      2550 1.99725E+01 1.92025E-01 8.80947E-06-7.19772E-02 1.58914E-13-1.15147E-13
 -1      2551 1.99657E+01 2.03694E-01-8.85003E-04-6.06401E-02 7.70706E-14-1.09235E-13
 -1      2552 1.99519E+01 2.23344E-01 7.82288E-04-6.14855E-02 3.29180E-13-5.97474E-14
 -1      2553 1.99890E+01 1.59316E-01 3.32342E-04-8.91012E-02 8.13429E-14-2.30190E-13
 -1      2554 1.99800E+01 1.75006E-01-8.55899E-04-8.31138E-02 1.01459E-13-3.72663E-13
 -1      2555 1.99688E+01 1.96231E-01 5.86043E-04-9.12556E-02 2.29416E-13-3.12193E-13
 -1      2556 2.00077E+01 1.20859E-01 5.72077E-04-9.23689E-02 3.97046E-13 1.25842E-13
 -1      2557 1.99979E+01 1.38442E-01-7.25593E-04-9.29587E-02 2.24913E-13 7.30138E-14
 -1      2558 1.99913E+01 1.59696E-01 3.53613E-04-1.07715E-01 2.80820E-13-6.30804E-14
 -1      2559 2.00251E+01 8.09516E-02 6.29837E-04-8.13049E-02-1.05835E-14 4.80981E-14
 -1      2560 2.00166E+01 9.85105E-02-4.90609E-04-8.84327E-02 2.45651E-13-9.27365E-15
 -1      2561 2.00155E+01 1.18142E-01 1.29714E-04-1.08076E-01 2.11719E-13 2.25900E-14
 -1      2562 2.00281E+01 4.58090E-02 5.77279E-04-5.08454E-02-7.80879E-14 2.21288E-13
 -1      2563 2.56462E+01-4.60815E+00-1.00652E-01 3.98653E+00 3.10862E-15 1.40388E-13
 -1      2564 2.23549E+01-5.31127E+00 5.28551E-03 5.08088E+00-1.16657E-13 1.85102E-13
 -1      2565 1.97279E+01 1.56336E-01 3.85434E-03 2.57106E-02 1.68844E-13 1.33217E-13
 -1      2566 1.97967E+01 2.08731E-01 1.24992E-02 1.17480E-01 2.13769E-13 1.79654E-13
 -1      2567 1.98786E+01 2.01058E-01-4.23000E-03 1.80835E-02 1.79474E-13 6.03456E-14
 -1      2568 1.88819E+01-5.41848E+00-1.58753E-02 6.46759E+00-1.32339E-13 2.06085E-13
 -1      2569 1.46614E+01-5.35357E+00 2.82005E-02 6.55978E+00-8.18512E-14 1.50352E-13
 -1      2570 2.16836E+01-5.40688E+00 8.71958E-02 5.25818E+00-1.65562E-13 1.59414E-13
 -1      2571 5.95568E+00-4.06126E+00 2.69921E-02-4.94339E+00 2.01089E-13 4.06175E-13
 -1      2572 9.10560E+00-4.49617E+00-4.18514E-03-6.46931E+00 3.86524E-13 3.50553E-13
 -1      2573 3.13838E+00-2.88085E+00 8.11640E-02-1.48652E+00-1.33699E-13 2.81497E-13
 -1      2574 4.00841E+00-3.27437E+00 5.06779E-02-3.37918E+00-2.32037E-14 3.59268E-13
 -1      2575 3.22134E+01 4.99433E+00-9.83547E-02 8.29817E-01-4.18471E-13-4.10783E-13
 -1      2576 3.23912E+01 6.45686E+00-1.66727E-01 8.20385E-01-5.30354E-13-3.74423E-13
 -1      2577 2.25533E+01-5.07790E+00-5.52790E-02 5.53305E+00-3.44974E-13-3.29500E-13
 -1      2578 1.86080E+01-5.41719E+00 2.95069E-02 6.26764E+00-2.53020E-13-3.89196E-13
 -1      2579 3.77760E+00-3.41140E+00 4.11683E-02-2.71272E+00-2.56378E-13-7.77933E-13
 -1      2580 6.21212E+00-3.48761E+00 4.20429E-02-4.74754E+00-2.20490E-13-6.48148E-13
 -1      2581 1.95322E+01 3.61355E+00-1.01662E-02-2.40626E-01 3.67963E-14-4.91997E-13
 -1      2582 1.95485E+01 3.59198E+00-9.64095E-03-4.18656E-01-1.04011E-14-5.00760E-13
 -1      2583 1.97229E+01 3.19674E+00-3.76552E-04-4.63019E-01-2.11859E-14-4.72733E-13
 -1      2584 1.96880E+01 3.25949E+00-6.71034E-04-1.48510E-01 3.71142E-14-4.69336E-13
 -1      2585 3.25377E+01 6.95216E+00-1.00801E-01 7.49689E-01 7.45293E-13 3.47500E-13
 -1      2586 3.29614E+01 7.28645E+00-1.11925E-01 3.03507E-02 8.01970E-13 2.63442E-13
 -1      2587 2.85095E+01-2.61845E+00-1.13736E-01 2.19922E+00-5.07865E-13-2.22905E-13
 -1      2588 2.58115E+01-4.08932E+00-1.39714E-03 3.54203E+00-4.65961E-13-2.39864E-13
 -1      2589 3.21103E+01 3.13017E+00-4.57006E-02 1.01315E+00 5.23387E-13 2.38587E-13
 -1      2590 3.24166E+01 5.16749E+00-1.73195E-01 1.19366E+00 6.75904E-13 4.14141E-13
 -1      2591 2.99369E+01-1.47987E+00-3.52178E-02-1.27473E+00 7.83505E-14-1.76859E-13
 -1      2592 3.13584E+01 2.39853E-01-1.76905E-01-8.84210E-02 2.66828E-13-9.43690E-15
 -1      2593 2.50649E+01-4.51287E+00-3.29022E-03-4.01804E+00-9.15656E-14-3.71203E-13
 -1      2594 2.81525E+01-3.15530E+00-7.46605E-02-2.98678E+00-2.66454E-15-3.57797E-13
 -1      2595 2.88324E+01-2.94939E+00 3.08447E-02-1.05585E+00-3.92672E-14-5.20417E-14
 -1      2596 1.68543E+01-5.57036E+00 4.62600E-03-6.41051E+00-2.20879E-13-3.91270E-13
 -1      2597 2.11981E+01-5.29238E+00-5.26386E-02-5.94675E+00-1.02029E-13-4.91052E-13
 -1      2598 1.04594E+01-4.48519E+00 7.49947E-02-6.30529E+00-3.08281E-13-5.36154E-13
 -1      2599 1.36475E+01-5.10652E+00 4.19029E-02-6.90847E+00-2.13218E-13-4.63837E-13
 -1      2600 1.71726E+01-5.15238E+00 7.48860E-02-6.36924E+00-3.08364E-13-3.48999E-13
 -1      2601 2.92856E+00-2.91489E+00 5.06097E-02 1.12513E+00-3.56729E-14-9.92928E-13
 -1      2602 2.80240E+00-3.13611E+00 4.13613E-02-1.02097E+00-1.51365E-13-9.01557E-13
 -1      2603 5.03412E+00-1.99441E+00 1.40240E-01-1.98138E+00-1.84977E-13-7.84262E-13
 -1      2604 1.51534E+01-4.98772E+00 4.70444E-02 7.01955E+00-1.87295E-13-5.00294E-13
 -1      2605 1.21004E+01-4.48170E+00 9.47603E-02 6.61559E+00-4.11893E-14-4.21274E-13
 -1      2606 3.18468E+01 7.30499E+00-1.21275E-01 2.69647E-01-6.97609E-13-1.95205E-13
 -1      2607 3.12023E+01 7.20673E+00-1.53439E-01-4.22342E-01-7.67220E-13-1.58040E-13
 -1      2608 3.08105E+01 1.19012E+00-1.67178E-01-4.17887E-01-7.54410E-13 4.33820E-14
 -1      2609 2.98054E+01-5.99647E-01-6.44500E-02 3.27620E-01-6.00353E-13-8.23785E-14
 -1      2610 2.04096E+01-5.25293E+00 7.53548E-03-5.87824E+00 4.61409E-13 2.49065E-13
 -1      2611 2.38427E+01-4.71729E+00-1.03512E-01-5.03471E+00 2.38420E-13-1.30479E-13
 -1      2612 3.14602E+01 5.59712E+00-1.98667E-01-1.14695E+00-8.25895E-13 8.32667E-16
 -1      2613 3.12808E+01 3.65538E+00-1.04595E-01-1.06163E+00-8.15903E-13 3.13083E-14
 -1      2614 2.96384E+01 1.96415E+00-4.77938E-02-1.63354E+00-6.40293E-13 2.32481E-13
 -1      2615 3.09713E+01 1.08734E+00-7.73900E-02-1.17754E-01-1.59817E-13-4.92661E-13
 -1      2616 3.19895E+01 2.82578E+00-1.36725E-01 4.32031E-01-3.03257E-13-5.10314E-13
 -1      2617 2.71873E+01-3.21561E+00-7.35143E-03-2.72796E+00 1.09301E-13-3.80890E-13
 -1      2618 2.98712E+01-1.28780E+00-9.78881E-02-1.49854E+00-6.64017E-14-5.84893E-13
 -1      2619 1.33283E+01-5.20925E+00 3.00597E-02-6.75728E+00 4.73954E-13 4.79464E-13
 -1      2620 1.70524E+01-5.25164E+00-1.58498E-02-6.91336E+00 4.87888E-13 5.62758E-13
 -1      2621 1.99661E+01-5.31187E+00 8.99477E-02-6.02178E+00 5.81701E-13 2.91163E-13
 -1      2622 3.19704E+01 2.68175E+00-1.47527E-01-9.74470E-01 4.14196E-13-1.48936E-13
 -1      2623 3.14946E+01 8.73806E-01-8.81544E-02-3.38154E-01 4.71068E-13-1.08746E-13
 -1      2624 3.00688E+01-7.08902E-01-1.93451E-02-6.89917E-01 3.52648E-13-2.41973E-13
 -1      2625 2.04783E+01 8.77025E-01-7.07218E-03 1.21526E+00 3.85679E-13 3.58311E-13
 -1      2626 2.08254E+01 1.25771E+00-5.96227E-03 1.71679E+00 4.01030E-13 4.24702E-13
 -1      2627 2.06362E+01 1.71653E+00-1.57949E-02 1.90949E+00 4.39914E-13 2.86948E-13
 -1      2628 2.04447E+01 1.06218E+00-9.49734E-03 1.22573E+00 3.91663E-13 1.93877E-13
 -1      2629 3.11842E+01 6.74169E+00-1.01020E-01-3.84351E-01 7.24587E-13 8.46892E-14
 -1      2630 1.99241E+01 2.83563E+00 1.80509E-03-1.08028E+00-1.73441E-13-4.36584E-13
 -1      2631 1.97932E+01 3.17636E+00-1.49466E-02-1.26993E+00-1.98491E-13-4.62550E-13
 -1      2632 1.98879E+01 3.03713E+00-1.73952E-02-1.45830E+00-2.47786E-13-4.27833E-13
 -1      2633 2.00089E+01 3.53701E-01-3.85646E-03 2.72416E-01 2.68657E-13 1.00563E-13
 -1      2634 2.04191E+01 2.11824E+00-1.26983E-02 1.86092E+00 4.36079E-13 1.00317E-13
 -1      2635 1.28027E+01-4.37938E+00 1.05005E-01-6.60511E+00 4.39426E-13 4.38483E-13
 -1      2636 2.60871E+01-4.24345E+00 4.95119E-02-3.09386E+00 2.38726E-13-3.81362E-13
 -1      2637 6.83755E+00-3.15522E+00 9.90112E-02 4.62868E+00-4.94854E-13 6.35159E-13
 -1      2638 6.41816E+00-1.95422E+00 1.73726E-01 3.58367E+00-5.51476E-13 4.58827E-13
 -1      2639 9.59499E+00-2.76415E+00 1.02654E-01 5.21636E+00-6.18131E-13 5.14672E-13
 -1      2640 1.45500E+01-4.59272E+00 9.78256E-02 6.45786E+00-3.27099E-13 1.82632E-13
 -1      2641 2.00359E+01 4.33924E-02-3.71865E-06 5.78434E-02 3.04727E-14 7.05512E-13
 -1      2642 3.86228E+00-2.29226E+00 1.15378E-01-1.59126E-01-2.84660E-13 2.51132E-13
 -1      2643 5.46948E+00-1.22230E+00 1.36138E-01-1.16320E+00-1.49753E-13 1.13382E-13
 -1      2644 5.04014E+00-1.45471E+00 1.43506E-01 1.21403E+00-3.38070E-13 2.05336E-13
 -1      2645 2.00350E+01 5.69960E-02-5.95813E-05 6.87666E-02-3.92020E-15 6.17142E-13
 -1      2646 2.94156E+01 5.84440E+00-1.01588E-01-1.08805E+00-6.82204E-13 1.61954E-14
 -1      2647 2.00433E+01 4.47762E-02 6.45734E-04-6.53595E-02-3.98229E-14 1.24278E-13
 -1      2648 2.00327E+01 6.29855E-02-4.97053E-04-7.54394E-02-1.11267E-13 1.78745E-13
 -1      2649 2.00389E+01 8.01868E-02 3.46176E-04-9.79565E-02-3.51971E-14 1.65756E-14
 -1      2650 2.00589E+01 4.85041E-02 1.04827E-03-8.09538E-02-6.03521E-15 2.16190E-13
 -1      2651 3.04784E+01 3.54265E+00-3.66342E-02 1.51874E+00-2.67980E-13-5.39374E-13
 -1      2652 2.73190E+01-4.02932E+00 3.26793E-02 2.05169E+00 9.23844E-14 6.88616E-14
 -1      2653 2.04367E+01 1.81400E+00 1.25198E-02 1.54576E+00 4.11464E-13 6.15402E-14
 -1      2654 2.00424E+01 7.40724E-02 6.73594E-04 9.18231E-02 1.14396E-14 5.10094E-13
 -1      2655 6.80795E+00-2.67106E+00 1.19285E-01-4.34837E+00 1.90015E-13 2.93210E-13
 -1      2656 2.96920E+01 6.41495E+00-7.93842E-02 8.09519E-01-5.33990E-13-3.28064E-13
 -1      2657 9.40539E+00-3.52649E+00 1.32094E-01-5.66659E+00-2.40030E-13-5.69489E-13
 -1      2658 1.25662E+01-3.56089E+00 7.05495E-02-6.04564E+00-2.95666E-13-4.97338E-13
 -1      2659 8.83320E+00-2.27861E+00 1.71154E-01-4.79906E+00-1.66089E-13-5.74707E-13
 -1      2660 2.39854E+01-5.20840E+00 5.71119E-02-4.37120E+00-2.42889E-13-2.98844E-13
 -1      2661 1.83948E+01-5.07297E+00 7.44054E-02 6.21452E+00-1.69309E-14-3.26759E-13
 -1      2662 3.06144E+01 1.15126E+00-4.98926E-02 1.30683E+00 3.46168E-13 3.57492E-13
 -1      2663 1.09699E+01-3.79420E+00 1.19080E-01 6.27700E+00 1.72085E-14-4.19997E-13
 -1      2664 9.95469E+00-2.68919E+00 1.76069E-01 5.64145E+00 1.89196E-13-5.17031E-13
 -1      2665 1.36860E+01-3.69397E+00 6.24386E-02 6.27206E+00 2.02963E-13-4.38857E-13
 -1      2666 2.47562E+01-4.82246E+00 4.69712E-02 3.86205E+00-1.79717E-13-1.48714E-13
 -1      2667 2.85960E+01-2.13570E+00-1.82375E-02 4.71153E-01-4.06036E-13 9.70890E-14
 -1      2668 1.99943E+01 2.84880E+00-1.49646E-02-1.56958E+00-2.70902E-13-3.87714E-13
 -1      2669 2.01361E+01 2.61905E+00-2.23107E-02-1.73601E+00-3.13519E-13-3.13477E-13
 -1      2670 2.02889E+01 2.06072E+00 3.91779E-03-1.46795E+00-3.17200E-13-2.43372E-13
 -1      2671 2.00969E+01 2.51005E+00 5.01773E-03-1.32493E+00-2.38266E-13-3.64526E-13
 -1      2672 3.06271E+01 5.52463E+00-7.27391E-02 1.45229E+00 6.16979E-13 4.77882E-13
 -1      2673 3.01277E+01 4.51784E+00-1.90112E-01-1.90766E+00 4.89386E-13-1.95038E-13
 -1      2674 3.15865E+01 3.63421E+00-9.60724E-02-1.50403E+00 3.96627E-13-1.37557E-13
 -1      2675 2.98750E+01 2.03272E+00-6.48494E-02-1.96381E+00 3.26961E-13-2.70534E-13
 -1      2676 4.74913E+00-2.44883E+00 1.30282E-01 2.63834E+00 4.93078E-14-9.65006E-13
 -1      2677 5.62545E+00-1.23113E+00 1.74938E-01 1.44689E+00 9.31200E-15-8.50986E-13
 -1      2678 6.98987E+00-1.94826E+00 1.07708E-01 3.87136E+00 1.36599E-13-8.34222E-13
 -1      2679 2.95631E+01-7.75507E-01-2.32123E-02 2.31670E-01-4.00374E-15-5.24941E-13
 -1      2680 2.00576E+01 6.48581E-02-1.05157E-03-1.05858E-01 9.10094E-14 1.87413E-13
 -1      2681 1.98534E+01 2.80419E+00-6.29050E-03 5.01737E-01 1.77094E-13-3.87783E-13
 -1      2682 1.98277E+01 2.85575E+00-5.87216E-03 3.54238E-01 1.40900E-13-4.16477E-13
 -1      2683 1.98101E+01 2.89538E+00-5.65245E-03 2.23210E-01 1.05300E-13-4.34783E-13
 -1      2684 1.98011E+01 2.91295E+00-5.55200E-03 7.25828E-02 7.98140E-14-4.36488E-13
 -1      2685 1.99538E+01 2.55184E+00 3.94357E-03 2.54846E-01 1.11499E-13-3.94302E-13
 -1      2686 2.00553E+01 2.34830E+00-1.05866E-02 1.02254E+00 3.30044E-13-2.37297E-13
 -1      2687 1.99907E+01 2.50052E+00-6.54834E-03 8.87988E-01 2.93849E-13-2.74111E-13
 -1      2688 2.02260E+01 1.92428E+00-1.18319E-02 1.20430E+00 3.66856E-13-1.21830E-13
 -1      2689 2.01352E+01 2.16532E+00-5.01466E-03 1.11049E+00 3.50387E-13-1.83231E-13
 -1      2690 2.02004E+01 1.91365E+00 6.53986E-03 8.99322E-01 3.10841E-13-1.71559E-13
 -1      2691 2.02227E+01 7.41214E-01-3.10096E-03 6.15383E-01 3.08079E-13 3.90189E-14
 -1      2692 2.03598E+01 9.62740E-01 9.19164E-03 8.83463E-01 3.25510E-13 5.57876E-14
 -1      2693 2.00354E+01 1.08949E-01-2.09497E-04 1.29100E-01-4.13861E-14 3.54906E-13
 -1      2694 2.00524E+01 8.25708E-02 4.90259E-04 1.15360E-01 8.92922E-15 4.23145E-13
 -1      2695 2.00716E+01 8.96340E-02 1.46149E-03 1.38255E-01-1.29839E-13 4.97637E-13
 -1      2696 2.00899E+01 4.37901E-01-1.11108E-03 2.47659E-01 2.49266E-13 5.73063E-14
 -1      2697 2.01842E+01 5.71985E-01 1.04307E-02 4.17302E-01 2.83228E-13 5.60274E-14
 -1      2698 2.02667E+01 8.42693E-01 5.84505E-04 5.83115E-01 2.99023E-13-8.89913E-15
 -1      2699 1.19472E+01-3.25095E+00 1.37869E-01-6.04274E+00 3.85053E-13 3.79780E-13
 -1      2700 1.54878E+01-4.30210E+00 2.40938E-02-6.53801E+00 4.47253E-13 4.14169E-13
 -1      2701 2.03283E+01 1.58974E+00-8.66638E-03-1.22026E+00-2.96763E-13-2.03042E-13
 -1      2702 2.03107E+01 1.22821E+00 1.28152E-03-9.44918E-01-2.61022E-13-1.65762E-13
 -1      2703 2.02474E+01 1.85530E+00-1.40167E-03-1.19523E+00-2.57986E-13-2.65564E-13
 -1      2704 2.03057E+01 9.36450E-01 1.06268E-03-7.12193E-01-2.32768E-13-1.39373E-13
 -1      2705 2.02197E+01 7.33589E-01-1.58436E-03-4.77915E-01-2.09319E-13-1.29988E-13
 -1      2706 2.02933E+01 1.16447E+00 2.21677E-03-7.44589E-01-2.26638E-13-1.83318E-13
 -1      2707 2.45197E+01-4.87596E+00 7.73619E-02-3.61052E+00 4.13780E-13-3.24393E-13
 -1      2708 2.67876E+01-3.87608E+00-9.54724E-02-1.66603E+00 2.50053E-13-5.22499E-13
 -1      2709 2.02002E+01 5.62864E-01 2.45554E-03-3.15705E-01-1.91226E-13-1.11461E-13
 -1      2710 2.01281E+01 4.45217E-01-7.67079E-04-1.56495E-01-1.70955E-13-1.06917E-13
 -1      2711 2.02457E+01 7.23679E-01 1.02949E-03-3.61104E-01-1.84554E-13-1.44505E-13
 -1      2712 2.01051E+01 3.43611E-01 2.35441E-03-4.61204E-02-1.47884E-13-9.66184E-14
 -1      2713 2.00594E+01 2.74633E-01 1.22448E-04 5.91665E-02-1.51528E-13-1.04146E-13
 -1      2714 2.01789E+01 4.49063E-01-9.25997E-04-8.33774E-02-1.47360E-13-1.34069E-13
 -1      2715 2.00412E+01 2.15401E-01 1.97126E-03 1.33661E-01-1.71924E-13-9.30803E-14
 -1      2716 2.00203E+01 1.76160E-01 8.94751E-04 2.03752E-01-1.93222E-13-9.01070E-14
 -1      2717 2.01225E+01 2.83418E-01-1.86431E-03 1.09636E-01-1.72007E-13-1.28440E-13
 -1      2718 2.00095E+01 1.44200E-01 1.60423E-03 2.55553E-01-1.59871E-13-7.82554E-14
 -1      2719 2.00087E+01 1.24291E-01 1.50146E-03 3.04413E-01-1.40350E-13-8.31947E-14
 -1      2720 2.00847E+01 1.88777E-01-2.19371E-03 2.44186E-01-1.60192E-13-8.25735E-14
 -1      2721 2.00053E+01 1.10712E-01 1.32254E-03 3.43649E-01-9.73744E-14-8.60137E-14
 -1      2722 2.00205E+01 1.03942E-01 1.97188E-03 3.81347E-01-5.22944E-14-1.05940E-13
 -1      2723 2.00657E+01 1.41959E-01-2.25894E-03 3.42885E-01-9.87862E-14-7.71465E-14
 -1      2724 2.00236E+01 1.03087E-01 1.13421E-03 4.15539E-01-2.32837E-14-8.17596E-14
 -1      2725 2.00516E+01 1.05368E-01 2.34449E-03 4.49299E-01-1.55560E-14-6.22001E-14
 -1      2726 2.00633E+01 1.28176E-01-2.23752E-03 4.23382E-01-2.69503E-14-6.30524E-14
 -1      2727 2.00605E+01 1.13185E-01 1.03349E-03 4.83881E-01-3.10350E-14-2.69027E-14
 -1      2728 2.00994E+01 1.21385E-01 2.63637E-03 5.18797E-01-6.08820E-14 5.76848E-15
 -1      2729 2.00749E+01 1.37153E-01-2.20687E-03 4.98888E-01-1.61506E-14-4.81002E-14
 -1      2730 2.01138E+01 1.34434E-01 1.00946E-03 5.57447E-01-5.30813E-14 1.90539E-14
 -1      2731 2.01626E+01 1.45643E-01 2.83387E-03 5.96853E-01-3.29381E-14 4.74076E-14
 -1      2732 2.00987E+01 1.60679E-01-2.19546E-03 5.78861E-01-4.01970E-14 5.68594E-15
 -1      2733 2.01829E+01 1.60369E-01 1.05078E-03 6.41613E-01-2.46675E-14 3.42099E-14
 -1      2734 2.02415E+01 1.71295E-01 2.88886E-03 6.87158E-01-3.26367E-14-5.54636E-15
 -1      2735 2.01344E+01 1.90860E-01-2.21204E-03 6.69393E-01-2.93943E-14-2.33034E-14
 -1      2736 2.02690E+01 1.83364E-01 1.15037E-03 7.38340E-01-6.42334E-14 1.04915E-14
 -1      2737 2.03380E+01 1.89741E-01 2.71394E-03 7.89806E-01-8.94174E-14-6.42493E-14
 -1      2738 2.01830E+01 2.18627E-01-2.26265E-03 7.73247E-01-6.70775E-14-4.94566E-14
 -1      2739 2.03755E+01 1.93352E-01 1.30971E-03 8.45680E-01-7.15390E-14-3.27425E-14
 -1      2740 2.04562E+01 1.89317E-01 2.17948E-03 9.00524E-01-9.16980E-14-2.75990E-14
 -1      2741 2.02483E+01 2.32227E-01-2.36265E-03 8.89494E-01-8.11435E-14 4.18056E-14
 -1      2742 2.05091E+01 1.76526E-01 1.54028E-03 9.56743E-01-8.31478E-14 2.59160E-14
 -1      2743 2.06034E+01 1.54097E-01 1.11621E-03 1.00937E+00-3.74611E-14 7.75193E-14
 -1      2744 2.03376E+01 2.15709E-01-2.54615E-03 1.01268E+00-2.23127E-14 2.72993E-14
 -1      2745 2.06806E+01 1.14404E-01 1.85843E-03 1.05809E+00-6.65293E-14 8.12739E-14
 -1      2746 2.07918E+01 6.34232E-02-6.72284E-04 1.09889E+00-3.80870E-14 1.28088E-13
 -1      2747 2.04641E+01 1.47753E-01-2.87765E-03 1.13140E+00-1.83094E-14 7.47575E-14
 -1      2748 2.09070E+01-1.58142E-02 2.25841E-03 1.12754E+00-2.16916E-14 1.11709E-13
 -1      2749 2.10395E+01-1.06435E-01-3.36753E-03 1.14175E+00 2.71791E-14 9.88724E-14
 -1      2750 2.06491E+01 1.82694E-03-3.45751E-03 1.22618E+00-5.53134E-14 1.01255E-13
 -1      2751 2.12117E+01-2.37455E-01 2.65619E-03 1.13138E+00 3.31753E-14 7.28687E-14
 -1      2752 2.13708E+01-3.75516E-01-6.95887E-03 1.09819E+00 5.90314E-14 8.92982E-14
 -1      2753 2.09242E+01-2.50064E-01-4.37755E-03 1.26618E+00 1.12532E-15 1.09111E-13
 -1      2754 2.16219E+01-5.62993E-01 2.85185E-03 1.02205E+00 9.27015E-15 5.31025E-14
 -1      2755 2.18109E+01-7.43508E-01-1.08655E-02 9.14940E-01-3.01793E-14 5.37010E-14
 -1      2756 2.13297E+01-6.25392E-01-5.49266E-03 1.20485E+00-5.27817E-15 1.27347E-13
 -1      2757 2.21557E+01-9.70062E-01 2.36325E-03 7.39673E-01 4.50349E-14 4.52896E-14
 -1      2758 2.23706E+01-1.15881E+00-1.33564E-02 5.30541E-01 9.51701E-14-2.13179E-14
 -1      2759 2.19042E+01-1.10492E+00-6.20343E-03 9.77131E-01 1.10987E-14 1.25453E-13
 -1      2760 2.27943E+01-1.36123E+00 1.75892E-04 2.26602E-01 1.92476E-13-3.17021E-15
 -1      2761 2.30150E+01-1.47529E+00-1.12389E-02-1.00323E-01 1.96684E-13 4.84886E-14
 -1      2762 2.26545E+01-1.58570E+00-5.30074E-03 5.06136E-01 1.58888E-13 1.46045E-13
 -1      2763 2.34400E+01-1.52261E+00-5.26625E-03-5.25635E-01 1.60978E-13 1.66391E-13
 -1      2764 2.36202E+01-1.42996E+00-2.86089E-03-9.39958E-01 1.78108E-13 2.72850E-13
 -1      2765 2.35006E+01-1.82895E+00-2.98679E-03-2.55719E-01 2.57126E-13 2.10113E-13
 -1      2766 2.38973E+01-1.13753E+00-1.32647E-02-1.38811E+00 1.18076E-13 3.07262E-13
 -1      2767 2.39595E+01-7.11008E-01 8.30682E-03-1.76170E+00 7.96811E-14 3.30221E-13
 -1      2768 2.42277E+01-1.47446E+00-5.66549E-03-1.22295E+00 1.72095E-13 3.38814E-13
 -1      2769 2.39613E+01-9.13890E-03-1.92640E-02-1.97389E+00-4.01324E-14 2.73898E-13
 -1      2770 2.38800E+01 6.96575E-01 1.30849E-02-2.09500E+00-5.53542E-14 2.41617E-13
 -1      2771 2.45364E+01-2.10415E-01-2.05139E-02-2.00544E+00-2.14611E-14 3.69033E-13
 -1      2772 2.36083E+01 1.57836E+00-3.09521E-02-1.75539E+00-2.81754E-14 1.43154E-13
 -1      2773 2.34683E+01 2.17757E+00-2.39384E-02-1.41119E+00 1.36419E-14 9.14598E-14
 -1      2774 2.43291E+01 1.78845E+00-1.43930E-02-1.99751E+00-8.29614E-14 1.66197E-13
 -1      2775 2.32971E+01 2.67640E+00-2.88899E-02-6.15148E-01-9.66519E-14-6.72171E-14
 -1      2776 2.32115E+01 2.76821E+00-6.62596E-02 1.04048E-01-1.80661E-13-1.54788E-13
 -1      2777 2.40461E+01 3.21732E+00-1.48665E-02-7.90715E-01-2.03833E-13-1.31968E-13
 -1      2778 2.33812E+01 2.45667E+00-1.77827E-02 8.95434E-01-1.12924E-13-2.29622E-13
 -1      2779 2.34470E+01 1.95184E+00-7.19421E-02 1.55419E+00-1.04451E-13-2.33237E-13
 -1      2780 2.40937E+01 3.09988E+00-3.36578E-03 1.00021E+00-1.46952E-13-2.02983E-13
 -1      2781 2.37219E+01 1.12449E+00-1.60680E-02 1.85012E+00-1.70426E-13-2.42270E-13
 -1      2782 2.38846E+01 4.13746E-01-3.61810E-02 2.10504E+00-1.30787E-13-2.58621E-13
 -1      2783 2.44157E+01 1.51922E+00 1.56276E-02 2.08577E+00-1.31672E-13-2.79717E-13
 -1      2784 2.39167E+01-3.65035E-01-1.68699E-02 1.85707E+00 3.86271E-14-3.42841E-13
 -1      2785 2.40093E+01-8.82669E-01 1.97844E-03 1.69512E+00 5.82407E-14-3.38585E-13
 -1      2786 2.45578E+01-3.45004E-01 1.16461E-02 1.97103E+00-2.16129E-14-3.89586E-13
 -1      2787 2.37323E+01-1.26420E+00-9.83502E-03 1.20690E+00 5.77906E-14-2.27939E-13
 -1      2788 2.36668E+01-1.45212E+00 2.31742E-02 8.38790E-01 6.60467E-14-2.44921E-13
 -1      2789 2.41510E+01-1.54647E+00-5.02658E-03 1.10786E+00 7.47312E-14-2.63145E-13
 -1      2790 2.32309E+01-1.46845E+00-2.41043E-03 3.85784E-01 2.09685E-15-2.32793E-13
 -1      2791 2.30420E+01-1.41206E+00 2.33179E-02 1.01943E-02-3.27459E-14-2.64402E-13
 -1      2792 2.33674E+01-1.85043E+00-2.44407E-02 1.42207E-01 3.20976E-14-2.27506E-13
 -1      2793 2.26101E+01-1.23375E+00 1.34911E-03-3.01567E-01-6.71373E-14-1.74949E-13
 -1      2794 2.23734E+01-1.06457E+00 1.64225E-02-5.87408E-01-1.47188E-13-7.53401E-14
 -1      2795 2.25220E+01-1.55695E+00-2.82607E-02-5.83703E-01-8.21830E-14-1.95834E-13
 -1      2796 2.20255E+01-8.35760E-01 3.15932E-03-7.57117E-01-1.60652E-13 4.62202E-14
 -1      2797 2.17967E+01-6.52698E-01 9.42875E-03-9.33921E-01-5.07135E-14-1.75142E-15
 -1      2798 2.18020E+01-1.05202E+00-2.23817E-02-1.00927E+00-9.45257E-14 2.82640E-14
 -1      2799 2.15456E+01-4.50888E-01 3.17600E-03-9.98688E-01-7.40640E-14-1.05216E-13
 -1      2800 2.13485E+01-3.00475E-01 4.11983E-03-1.08313E+00-4.05365E-14-1.30697E-13
 -1      2801 2.12624E+01-5.67976E-01-1.47539E-02-1.19819E+00-1.70338E-13 3.84682E-14
 -1      2802 2.11784E+01-1.52459E-01 2.54904E-03-1.07946E+00-6.36764E-14-1.75228E-13
 -1      2803 2.10170E+01-4.76020E-02 8.22793E-04-1.09748E+00-2.66713E-14-1.94414E-13
 -1      2804 2.08861E+01-1.94457E-01-8.26705E-03-1.22822E+00-4.36611E-14-1.59176E-13
 -1      2805 2.09051E+01 4.68934E-02 1.88185E-03-1.05400E+00-5.54827E-15-2.71581E-13
 -1      2806 2.07748E+01 1.10403E-01-9.42429E-04-1.02964E+00-2.67289E-14-2.80261E-13
 -1      2807 2.06330E+01 5.42987E-02-3.78382E-03-1.16287E+00-9.55062E-14-1.34589E-13
 -1      2808 2.07015E+01 1.62284E-01 1.38529E-03-9.66013E-01-7.54407E-14-2.89997E-13
 -1      2809 2.05959E+01 1.94399E-01-1.74373E-03-9.17941E-01 3.78734E-14-2.64852E-13
 -1      2810 2.04638E+01 1.98536E-01-1.09110E-03-1.04636E+00-7.82769E-14-2.01721E-13
 -1      2811 2.05470E+01 2.16339E-01 1.06134E-03-8.46962E-01 3.12811E-15-3.86718E-13
 -1      2812 2.04609E+01 2.27193E-01-1.98417E-03-7.88313E-01-8.24953E-14-3.87930E-13
 -1      2813 2.03485E+01 2.66785E-01 3.25026E-04-9.07601E-01-2.43515E-14-3.95942E-13
 -1      2814 2.04271E+01 2.30050E-01 8.59728E-04-7.17942E-01 5.55877E-14-2.32601E-13
 -1      2815 2.03565E+01 2.27875E-01-1.91995E-03-6.57304E-01-2.13892E-14-1.87228E-13
 -1      2816 2.02672E+01 2.85003E-01 9.40664E-04-7.64865E-01 1.31889E-13-3.91808E-13
 -1      2817 2.03323E+01 2.19787E-01 7.29798E-04-5.92131E-01-1.00466E-13-1.67279E-13
 -1      2818 2.02744E+01 2.10556E-01-1.70442E-03-5.34667E-01-1.38533E-13-1.48953E-13
 -1      2819 2.02074E+01 2.73300E-01 1.10122E-03-6.29189E-01-7.80601E-14-2.84525E-13
 -1      2820 2.02562E+01 1.97151E-01 6.34855E-04-4.76980E-01-2.66974E-14-1.75500E-13
 -1      2821 2.02091E+01 1.84897E-01-1.42871E-03-4.25408E-01 1.07977E-13-1.47991E-13
 -1      2822 2.01617E+01 2.45947E-01 1.03126E-03-5.06629E-01-6.68192E-14-2.69478E-13
 -1      2823 2.01950E+01 1.69833E-01 5.55020E-04-3.75974E-01 7.63948E-14-5.59976E-14
 -1      2824 2.01570E+01 1.57127E-01-1.14903E-03-3.31368E-01 2.19754E-13-1.19331E-13
 -1      2825 2.01256E+01 2.12412E-01 8.54193E-04-3.99837E-01 1.70846E-13-1.86187E-13
 -1      2826 2.01456E+01 1.42674E-01 4.79231E-04-2.89975E-01 2.42581E-13-1.39216E-13
 -1      2827 2.01153E+01 1.31070E-01-8.57440E-04-2.52413E-01 1.69065E-13-8.73919E-14
 -1      2828 2.00963E+01 1.78658E-01 6.31739E-04-3.09205E-01 1.66940E-13-1.60535E-13
 -1      2829 2.01058E+01 1.18105E-01 2.83623E-04-2.17989E-01 1.55838E-13-9.10421E-14
 -1      2830 2.00846E+01 1.09263E-01 2.55861E-04-1.87174E-01 2.23243E-13-1.89818E-13
 -1      2831 2.00720E+01 1.48405E-01 3.91341E-04-2.33800E-01 1.96377E-13-3.19481E-13
 -1      2832 2.00685E+01 1.01206E-01 2.64665E-04-1.59783E-01 2.48404E-13-3.57937E-14
 -1      2833 2.88877E+01 2.05586E+00-9.73229E-02 1.90499E+00-1.20404E-13-5.73111E-13
 -1      2834 2.86194E+01 3.82980E+00-2.08231E-01 1.88981E+00-2.49023E-13-4.92884E-13
 -1      2835 2.74001E+01 5.83976E+00-1.99115E-01-7.20247E-01-5.97855E-13-5.00086E-14
 -1      2836 2.79003E+01 4.61940E+00-1.03640E-01-1.85262E+00-5.80647E-13 1.13978E-13
 -1      2837 1.99454E+01 1.63617E-01 6.16157E-04-1.55080E-01 1.07530E-13 7.11929E-15
 -1      2838 1.99676E+01 2.08235E-01 5.05927E-03-8.62875E-02 1.35573E-13 1.54683E-14
 -1      2839 2.00002E+01 8.58569E-02 2.02637E-03-4.07815E-01 7.04671E-14 6.66520E-16
 -1      2840 1.99604E+01 8.38972E-02 5.62733E-04-3.76941E-01 7.67303E-14-1.19452E-14
 -1      2841 2.00672E+01 1.00601E-01 2.43061E-03-4.75178E-01 1.30849E-13-2.83426E-14
 -1      2842 2.00140E+01 9.08802E-02-1.20705E-04-4.42461E-01 1.03246E-13 7.39182E-15
 -1      2843 2.00420E+01 1.15596E-01-1.35745E-03-4.51267E-01 9.84019E-14-5.37942E-14
 -1      2844 2.01533E+01 1.27053E-01 2.84391E-03-5.52388E-01 1.23374E-13 1.67571E-14
 -1      2845 2.00876E+01 1.11669E-01-5.98900E-04-5.13746E-01 1.35876E-13-1.57352E-14
 -1      2846 2.00800E+01 1.36914E-01-1.09443E-03-5.29042E-01 1.24532E-13-4.38152E-15
 -1      2847 2.02581E+01 1.61269E-01 3.24964E-03-6.45958E-01 5.56647E-14 4.04037E-14
 -1      2848 2.01796E+01 1.42288E-01-9.30500E-04-5.98637E-01 1.12277E-13 2.35391E-14
 -1      2849 2.01316E+01 1.71980E-01-9.03913E-04-6.18072E-01 1.15171E-13 2.81889E-14
 -1      2850 2.03822E+01 1.98446E-01 3.60361E-03-7.59689E-01 2.26452E-14-2.83865E-14
 -1      2851 2.02901E+01 1.78527E-01-1.13805E-03-7.02363E-01 5.61273E-14 5.46063E-15
 -1      2852 2.01955E+01 2.15524E-01-7.75550E-04-7.24861E-01 7.97217E-14-9.71040E-15
 -1      2853 2.05278E+01 2.31470E-01 3.82861E-03-8.94070E-01 9.14573E-15-6.67718E-14
 -1      2854 2.04206E+01 2.14666E-01-1.19943E-03-8.27286E-01 8.12626E-15-4.26904E-14
 -1      2855 2.02719E+01 2.60847E-01-7.29270E-04-8.53096E-01 2.90069E-14 3.99129E-14
 -1      2856 2.06986E+01 2.48985E-01 3.80763E-03-1.04495E+00 3.15825E-14-7.95245E-14
 -1      2857 2.05745E+01 2.41810E-01-1.03035E-03-9.71994E-01-1.39044E-15-8.02126E-14
 -1      2858 2.03625E+01 2.97915E-01-8.39032E-04-1.00312E+00 2.00801E-14-9.30798E-14
 -1      2859 2.09020E+01 2.32966E-01 3.37159E-03-1.20132E+00 9.53447E-15-1.43206E-13
 -1      2860 2.07585E+01 2.45700E-01-4.58778E-04-1.12958E+00 2.42333E-14-8.99024E-14
 -1      2861 2.04725E+01 3.10869E-01-1.27298E-03-1.17076E+00 2.36634E-14-7.65838E-14
 -1      2862 2.11510E+01 1.56282E-01 2.27643E-03-1.34206E+00-7.38784E-14-1.99154E-14
 -1      2863 2.09842E+01 2.04181E-01 8.06322E-04-1.28491E+00-9.88841E-15-6.55333E-14
 -1      2864 2.06132E+01 2.75042E-01-2.34802E-03-1.34539E+00-4.02152E-14-3.85469E-14
 -1      2865 2.14681E+01-1.79447E-02 1.39229E-04-1.43151E+00-2.26943E-13 1.02828E-13
 -1      2866 2.12725E+01 8.53214E-02 3.19529E-03-1.41053E+00-1.26871E-13 2.94026E-14
 -1      2867 2.08067E+01 1.54299E-01-4.56300E-03-1.50685E+00-1.38340E-13 4.65345E-14
 -1      2868 2.18881E+01-3.30243E-01-3.57242E-03-1.41412E+00-1.19048E-13 2.55357E-14
 -1      2869 2.16571E+01-1.50856E-01 7.22499E-03-1.46094E+00-1.73509E-13 6.29703E-14
 -1      2870 2.10924E+01-9.86879E-02-8.52432E-03-1.62045E+00-1.55961E-13-3.38028E-14
 -1      2871 2.24535E+01-7.99391E-01-9.05272E-03-1.20928E+00-1.03019E-13-1.03906E-14
 -1      2872 2.21848E+01-5.39243E-01 1.33100E-02-1.36468E+00-1.21805E-13 9.09765E-15
 -1      2873 2.15332E+01-5.32457E-01-1.43770E-02-1.62786E+00-1.10986E-13-7.99762E-14
 -1      2874 2.31877E+01-1.36643E+00-1.64770E-02-7.22673E-01-9.29287E-14 6.27582E-14
 -1      2875 2.28953E+01-1.06922E+00 1.95360E-02-1.02440E+00-9.18023E-14 6.47015E-14
 -1      2876 2.22073E+01-1.15223E+00-2.00872E-02-1.43502E+00-1.23762E-13-1.91661E-14
 -1      2877 2.40556E+01-1.82027E+00-2.31412E-02 1.12171E-01-1.19620E-13 2.77346E-13
 -1      2878 2.37827E+01-1.61775E+00 2.17686E-02-3.40844E-01-1.37898E-13 1.93758E-13
 -1      2879 2.31721E+01-1.85911E+00-2.47589E-02-9.23495E-01-1.83869E-13 1.24009E-13
 -1      2880 2.48533E+01-1.72393E+00-2.95346E-02 1.21829E+00-9.27266E-14 2.97931E-13
 -1      2881 2.46992E+01-1.85459E+00 8.68751E-03 7.15441E-01-6.76898E-14 3.70617E-13
 -1      2882 2.43838E+01-2.30895E+00-2.22428E-02 4.09894E-02-1.64722E-13 2.53548E-13
 -1      2883 2.53134E+01-5.18330E-01-5.81093E-03 2.21900E+00 2.98008E-14 2.41363E-13
 -1      2884 2.53608E+01-1.27005E+00-1.75928E-02 1.91989E+00-3.97729E-14 3.26591E-13
 -1      2885 2.55364E+01-1.99028E+00-5.25872E-02 1.33591E+00-5.41798E-14 2.03245E-13
 -1      2886 2.51425E+01 1.60472E+00-1.47318E-02 2.26504E+00 2.24286E-13 2.16251E-13
 -1      2887 2.53256E+01 4.75870E-01-8.47588E-02 2.50799E+00 1.08545E-13 2.10814E-13
 -1      2888 2.61986E+01-1.78135E-01-3.08505E-02 2.40140E+00 9.11007E-14 2.57891E-13
 -1      2889 2.47562E+01 3.28367E+00-4.91000E-02 8.37996E-01 3.76539E-13 1.56387E-13
 -1      2890 2.48925E+01 2.59675E+00-1.00978E-01 1.65444E+00 3.38084E-13 2.04720E-13
 -1      2891 2.60738E+01 2.62515E+00-1.02179E-01 2.20620E+00 3.06408E-13 1.57548E-13
 -1      2892 2.48374E+01 2.96102E+00-8.40893E-02-1.25583E+00 2.88755E-13 3.59814E-14
 -1      2893 2.47441E+01 3.39973E+00-5.28509E-02-3.81204E-01 3.84116E-13 1.80776E-14
 -1      2894 2.58788E+01 4.18876E+00-8.49352E-02 2.26497E-01 4.63393E-13 6.09582E-15
 -1      2895 2.52533E+01 9.61783E-01-9.00150E-02-2.44265E+00 1.29494E-13-7.89820E-14
 -1      2896 2.50360E+01 2.07283E+00-2.73211E-02-2.08468E+00 1.98980E-13-2.40181E-14
 -1      2897 2.60320E+01 3.10506E+00-7.09365E-02-1.81041E+00 2.62401E-13-1.61732E-13
 -1      2898 2.53951E+01-9.78462E-01-4.23640E-02-2.12922E+00 1.76014E-14-3.38779E-13
 -1      2899 2.53167E+01-1.00346E-01-9.04681E-03-2.35794E+00 1.04736E-13-2.31929E-13
 -1      2900 2.62483E+01 5.16394E-01-3.08169E-02-2.52249E+00 2.14967E-13-3.78822E-13
 -1      2901 2.48945E+01-1.82381E+00 1.35758E-03-9.98283E-01 2.84512E-14-3.47529E-13
 -1      2902 2.50103E+01-1.55136E+00-2.43012E-02-1.50069E+00-7.06882E-14-3.52436E-13
 -1      2903 2.57719E+01-1.64566E+00-1.89844E-02-1.62610E+00 4.39457E-14-5.81250E-13
 -1      2904 2.40047E+01-1.71676E+00 1.97286E-02 1.24945E-01-1.14336E-14-2.81298E-14
 -1      2905 2.42581E+01-1.86437E+00-2.49471E-02-3.57058E-01 6.71646E-14-1.00329E-13
 -1      2906 2.46834E+01-2.31717E+00-1.56541E-02-3.05446E-01-1.04529E-13-2.87545E-13
 -1      2907 2.30911E+01-1.19014E+00 2.03270E-02 8.92221E-01-2.12585E-13-8.03186E-14
 -1      2908 2.33835E+01-1.48626E+00-1.89670E-02 5.56984E-01-5.76561E-14-2.52743E-14
 -1      2909 2.34354E+01-1.99384E+00-2.43171E-02 7.40635E-01-2.80702E-14-1.14476E-13
 -1      2910 2.23409E+01-6.34572E-01 1.43950E-02 1.29268E+00-5.24382E-14-9.23431E-14
 -1      2911 2.26144E+01-9.11370E-01-1.11288E-02 1.11123E+00-1.94931E-13-1.25793E-13
 -1      2912 2.24036E+01-1.29802E+00-2.23617E-02 1.33730E+00-9.99545E-14-2.83083E-13
 -1      2913 2.17824E+01-2.09195E-01 8.42415E-03 1.42496E+00 6.27953E-14 3.41030E-14
 -1      2914 2.20177E+01-4.08187E-01-4.82012E-03 1.36179E+00 3.36647E-14-4.91511E-14
 -1      2915 2.16721E+01-6.38431E-01-1.59836E-02 1.57966E+00-1.48539E-13-3.54888E-13
 -1      2916 2.13781E+01 6.13740E-02 4.13783E-03 1.39054E+00 3.41560E-14 3.30040E-13
 -1      2917 2.15757E+01-5.88855E-02-6.52066E-04 1.40447E+00 1.07896E-13 2.35005E-13
 -1      2918 2.11919E+01-1.59536E-01-9.78116E-03 1.59816E+00-4.83265E-14-1.04739E-13
 -1      2919 2.10809E+01 2.06605E-01 1.53108E-03 1.26526E+00 1.03421E-13 1.62436E-13
 -1      2920 2.12470E+01 1.46147E-01 1.81635E-03 1.32266E+00 1.22341E-13 3.83157E-13
 -1      2921 2.08830E+01 1.33782E-01-5.37986E-03 1.49168E+00 1.47785E-13 1.19250E-13
 -1      2922 2.08545E+01 2.66522E-01 1.19355E-04 1.09940E+00 9.54214E-14 2.82180E-13
 -1      2923 2.09947E+01 2.45168E-01 3.11812E-03 1.17664E+00 1.29549E-13 3.20877E-13
 -1      2924 2.06789E+01 2.84598E-01-2.80821E-03 1.32408E+00 2.70218E-14 1.26292E-13
 -1      2925 2.06756E+01 2.74918E-01-5.33796E-04 9.23944E-01-3.10822E-14 4.92703E-13
 -1      2926 2.07940E+01 2.76373E-01 3.66430E-03 1.00598E+00 2.97350E-14 4.17973E-13
 -1      2927 2.05357E+01 3.41187E-01-1.50287E-03 1.13447E+00-3.25602E-14 2.85465E-13
 -1      2928 2.05308E+01 2.55640E-01-7.55971E-04 7.56592E-01-3.40439E-13 4.31616E-13
 -1      2929 2.06302E+01 2.68816E-01 3.73721E-03 8.34759E-01-2.02047E-13 5.02331E-13
 -1      2930 2.04279E+01 3.41993E-01-9.19851E-04 9.45901E-01-1.22804E-13 4.72066E-13
 -1      2931 2.04124E+01 2.23906E-01-7.56434E-04 6.06359E-01-7.91516E-14 3.71358E-13
 -1      2932 2.04948E+01 2.41895E-01 3.52467E-03 6.76286E-01-2.69569E-13 4.03473E-13
 -1      2933 2.03421E+01 3.13507E-01-6.95769E-04 7.71227E-01-2.32357E-13 4.72811E-13
 -1      2934 2.03155E+01 1.88739E-01-6.56705E-04 4.76793E-01-1.47633E-13 3.51152E-13
 -1      2935 2.03828E+01 2.07530E-01 3.15645E-03 5.36832E-01 2.70842E-14 4.80972E-13
 -1      2936 2.02714E+01 2.72442E-01-6.22338E-04 6.16700E-01-7.38213E-14 6.11207E-13
 -1      2937 2.02367E+01 1.55139E-01-5.28681E-04 3.68145E-01-4.14409E-14 1.28521E-13
 -1      2938 2.02910E+01 1.72564E-01 2.71909E-03 4.18270E-01-1.19931E-13 2.43613E-13
 -1      2939 2.02125E+01 2.28655E-01-5.94251E-04 4.84394E-01 2.15645E-14 6.01257E-13
 -1      2940 2.01735E+01 1.25808E-01-3.29530E-04 2.78868E-01-7.45834E-14 2.01374E-13
 -1      2941 2.02163E+01 1.40695E-01 2.27262E-03 3.19917E-01-1.54181E-13 6.61418E-14
 -1      2942 2.01633E+01 1.87548E-01-5.73700E-04 3.73841E-01-1.19689E-13 1.70798E-13
 -1      2943 2.01243E+01 1.02403E-01 3.39196E-04 2.06490E-01-8.63087E-14 4.40449E-13
 -1      2944 2.01565E+01 1.13667E-01 1.85013E-03 2.39354E-01-2.74685E-15 4.12878E-13
 -1      2945 2.01220E+01 1.51944E-01-7.21001E-04 2.83265E-01-1.99816E-13 8.57929E-14
 -1      2946 2.00839E+01 9.18040E-02 6.65787E-04 1.57140E-01-7.67556E-14 3.34700E-13
 -1      2947 2.01078E+01 1.00418E-01 1.54458E-03 1.84407E-01-4.61762E-14 3.98935E-13
 -1      2948 2.00833E+01 1.30331E-01-1.79906E-03 2.19264E-01-6.42710E-14 6.72833E-14
 -1      2949 2.00546E+01 1.20657E-01-1.74929E-03 1.75067E-01-1.50830E-13 2.23724E-13
 -1      2950 1.99169E+01 2.57544E-01-6.16810E-04 1.16536E-02 7.17280E-14-1.91131E-13
 -1      2951 1.99198E+01 2.54720E-01-3.50918E-04 3.41251E-02 4.75401E-14 2.41825E-14
 -1      2952 7.57538E+00-1.33520E+00 1.55331E-01-3.46460E+00 6.30607E-14 2.20379E-14
 -1      2953 9.38089E+00-2.18772E+00 1.17609E-01-5.17206E+00 2.21795E-13 2.29761E-13
 -1      2954 1.99462E+01 2.21584E-01-1.03250E-03 9.91031E-02-2.17681E-13-4.71794E-13
 -1      2955 1.99605E+01 2.07153E-01 3.04008E-04 1.12525E-01-1.94462E-13-3.29954E-13
 -1      2956 1.99208E+01 2.53069E-01-2.98805E-04-3.76229E-02 2.87501E-13 1.01858E-13
 -1      2957 1.99172E+01 2.56732E-01-6.61699E-04-1.53607E-02 9.58192E-14-9.95604E-14
 -1      2958 1.98978E+01 2.79493E-01 1.02247E-03-2.40826E-03 1.61650E-13-1.08516E-13
 -1      2959 1.99257E+01 2.46689E-01-8.78564E-04 5.95293E-02-1.11691E-13-9.39752E-14
 -1      2960 1.99348E+01 2.37644E-01-4.23313E-06 7.89128E-02-2.22153E-13-4.03028E-13
 -1      2961 1.99263E+01 2.50010E-01 8.14841E-04 1.01349E-01-1.97896E-13-4.67197E-13
 -1      2962 1.99048E+01 2.72743E-01 9.84700E-04 5.30369E-02 2.98716E-14 7.35087E-14
 -1      2963 1.99364E+01 2.34390E-01 4.89005E-05-8.06393E-02 3.05303E-13-1.15859E-13
 -1      2964 1.99270E+01 2.43814E-01-8.94765E-04-6.20799E-02 3.05328E-13-7.95563E-14
 -1      2965 1.99062E+01 2.69880E-01 9.54523E-04-5.68040E-02 3.04378E-13 1.75529E-14
 -1      2966 1.99621E+01 2.03013E-01 3.85031E-04-1.12838E-01 1.79064E-13-4.89525E-13
 -1      2967 1.99479E+01 2.17529E-01-1.02238E-03-1.00018E-01 2.76035E-13-2.65724E-13
 -1      2968 1.99285E+01 2.45178E-01 7.57652E-04-1.03193E-01 1.41668E-13-2.34266E-13
 -1      2969 1.99941E+01 1.62496E-01 6.52234E-04-1.28808E-01 2.97444E-13 9.62256E-14
 -1      2970 1.99772E+01 1.80384E-01-1.02720E-03-1.23957E-01 2.73631E-13-1.73857E-13
 -1      2971 1.99622E+01 2.07787E-01 5.67218E-04-1.35655E-01 1.52857E-13-2.84752E-13
 -1      2972 2.00268E+01 1.16780E-01 5.22382E-04-1.25975E-01 1.20264E-13-5.29741E-14
 -1      2973 2.00107E+01 1.36589E-01-8.49111E-04-1.30092E-01 2.27923E-13-6.79508E-15
 -1      2974 2.00021E+01 1.61775E-01 3.48404E-04-1.49239E-01 1.70141E-13-3.70951E-14
 -1      2975 1.99954E+01 2.63355E-01-1.52001E-04 4.12987E-03 1.68871E-13 1.14845E-14
 -1      2976 2.00513E+01 3.41731E-01 7.74752E-03 1.11462E-01 2.02391E-13 4.96208E-14
 -1      2977 2.01672E+01 5.09411E-01-2.11022E-03 2.30411E-01 2.31898E-13 1.35484E-14
 -1      2978 2.00886E+01 3.10947E-01-2.97531E-03-1.15830E-02 1.63482E-13-1.14213E-14
 -1      2979 2.91782E+01-4.39904E-01-1.67432E-01-1.54164E+00 3.30486E-13-2.65760E-13
 -1      2980 2.88260E+01-1.70499E+00-2.59120E-02-8.98956E-01 3.09239E-13-2.59293E-13
 -1      2981 2.29697E+01-5.39485E+00-1.09605E-01 4.35040E+00-1.31464E-13 1.27849E-13
 -1      2982 2.03668E+01-5.03195E+00 1.21926E-01 5.33313E+00-1.94719E-13 1.15774E-13
 -1      2983 2.82611E+01 5.16780E+00-1.34026E-01 1.61040E+00-3.32234E-13-4.25576E-13
 -1      2984 2.74741E+01 6.02203E+00-1.70804E-01 6.43029E-01-4.83169E-13-3.40325E-13
 -1      2985 2.05227E+01-5.13041E+00-1.69162E-02 5.53790E+00-2.75058E-14-2.19980E-13
 -1      2986 1.75495E+01-4.45271E+00 9.26427E-02 6.01860E+00 5.06539E-14-3.37973E-13
 -1      2987 2.25280E+01-5.22159E+00 9.10966E-02-4.51155E+00-3.24005E-13-1.66148E-13
 -1      2988 2.54442E+01-4.98319E+00-9.71041E-02-2.97117E+00-3.30208E-13-9.59927E-14
 -1      2989 2.57164E+01-4.57927E+00-1.17923E-01 2.58256E+00-1.05901E-13 1.58484E-14
 -1      2990 2.33854E+01-5.01622E+00 8.25253E-02 4.12026E+00-3.93990E-14-5.57054E-14
 -1      2991 2.78546E+01-3.51249E+00-1.40136E-01 6.36026E-01 1.27495E-13-1.91458E-13
 -1      2992 2.59885E+01-4.58794E+00 8.24075E-02 2.30589E+00-3.68039E-14 8.27116E-15
 -1      2993 1.99545E+01 8.70690E-02 1.62155E-03-3.41075E-01 8.67727E-14-1.96160E-14
 -1      2994 1.99304E+01 9.55916E-02 1.54718E-03-3.06410E-01 1.13620E-13-3.14537E-14
 -1      2995 2.00200E+01 1.13378E-01-1.71276E-03-3.75437E-01 8.05108E-14-1.47948E-14
 -1      2996 1.99342E+01 1.09992E-01 1.17513E-03-2.62469E-01 1.28386E-13-2.54438E-14
 -1      2997 1.99301E+01 1.33134E-01 2.98385E-03-2.16249E-01 1.28060E-13-4.22099E-15
 -1      2998 2.00175E+01 1.37166E-01-2.16850E-03-2.88975E-01 1.24621E-13-3.47705E-14
 -1      2999 2.79858E+01 4.13475E+00-1.06550E-01 2.01229E+00 4.55247E-13 2.68313E-13
 -1      3000 2.77308E+01 5.20614E+00-2.32283E-01 9.84163E-01 5.48811E-13 1.33981E-13
 -1      3001 2.03416E+01 1.50871E+00-1.71965E-03 1.24789E+00 3.75840E-13 1.68489E-14
 -1      3002 1.99341E+01 2.62844E+00-7.82079E-03 7.73965E-01 2.72621E-13-3.16915E-13
 -1      3003 1.98892E+01 2.72343E+00-6.35569E-03 6.27340E-01 2.09816E-13-3.53736E-13
 -1      3004 2.00051E+01 2.43370E+00 4.63492E-03 4.97749E-01 1.76578E-13-3.47301E-13
 -1      3005 2.00895E+01 2.22740E+00 5.77713E-03 7.20636E-01 2.45865E-13-2.70979E-13
 -1      3006 2.80141E+01-1.77013E+00-1.79849E-01-6.18934E-01-3.43135E-13 3.19536E-13
 -1      3007 2.74696E+01-3.23707E+00 3.45697E-02 7.60774E-01-1.97748E-13 1.57763E-13
 -1      3008 2.73909E+01-3.79371E+00 2.85353E-02-1.01059E+00-1.83683E-13 2.25292E-13
 -1      3009 2.83287E+01-2.65497E+00-1.68011E-01 1.94041E-01-1.23233E-13 3.36370E-13
 -1      3010 5.84883E+00-1.01044E+00 1.55535E-01-9.64138E-01-7.25149E-14-7.23116E-13
 -1      3011 6.71262E+00-1.31296E+00 1.32926E-01-2.78116E+00-1.58165E-13-6.17284E-13
 -1      3012 1.65077E+01-4.40894E+00 9.79383E-02-6.10273E+00-3.25406E-13-3.17024E-13
 -1      3013 1.93578E+01-5.12831E+00-4.25159E-03-5.84266E+00-3.33872E-13-2.89303E-13
 -1      3014 2.92627E+01-4.30553E-01-2.76941E-02 1.52782E+00 1.48326E-13 4.81837E-13
 -1      3015 2.91723E+01 1.80888E+00-2.13277E-01 2.21786E+00 4.27436E-13 5.92304E-13
 -1      3016 2.80643E+01-1.93287E+00-5.98176E-02 3.15132E-01 8.96436E-14-5.06192E-13
 -1      3017 2.87775E+01-4.85946E-02-1.44577E-01 1.25276E+00-7.72299E-14-5.40235E-13
 -1      3018 2.00503E+01 8.31087E-02 4.35821E-04-1.15521E-01 4.56862E-14-1.30815E-13
 -1      3019 2.00367E+01 9.87933E-02-5.84023E-04-1.21298E-01 1.59675E-13-2.30154E-13
 -1      3020 2.00351E+01 1.20641E-01 1.86807E-04-1.45104E-01 1.83173E-13-1.67179E-13
 -1      3021 2.00617E+01 8.79249E-02 9.62892E-04-1.31032E-01 2.18273E-13-1.27867E-13
 -1      3022 1.98840E+01 2.73206E+00-6.33271E-03-6.17471E-01-7.07591E-14-4.26264E-13
 -1      3023 1.99279E+01 2.63996E+00-7.60370E-03-7.64547E-01-1.19057E-13-4.20825E-13
 -1      3024 2.80900E+01 2.47613E+00-2.17025E-01-2.03435E+00-5.62939E-13 2.97665E-13
 -1      3025 2.82975E+01 6.84601E-01-3.30521E-02-1.85281E+00-4.84016E-13 3.45071E-13
 -1      3026 1.70620E+01-4.42848E+00 3.01499E-02 6.10604E+00-2.82357E-13 2.14398E-13
 -1      3027 1.36917E+01-3.44832E+00 1.40289E-01 5.93944E+00-4.53693E-13 3.55049E-13
 -1      3028 2.89207E+01 6.35287E+00-1.86047E-01-2.00855E-01 6.26915E-13 1.72117E-13
 -1      3029 2.96506E+01 5.91527E+00-1.62650E-01-1.25062E+00 6.47343E-13-6.73073E-15
 -1      3030 1.89022E+01-4.93050E+00 1.21458E-01-5.96181E+00 5.93456E-13 4.12032E-13
 -1      3031 2.14562E+01-5.33736E+00-8.32267E-02-5.28817E+00 6.07361E-13 8.72392E-15
 -1      3032 1.99824E+01 2.51388E+00-6.85600E-03-8.80356E-01-1.44591E-13-4.11528E-13
 -1      3033 2.00474E+01 2.36714E+00-9.55750E-03-1.01433E+00-1.92913E-13-3.92721E-13
 -1      3034 2.00831E+01 2.23870E+00 5.34639E-03-7.13355E-01-1.25392E-13-3.72880E-13
 -1      3035 1.99361E+01 2.59141E+00 3.72179E-03 4.46448E-03 5.32160E-14-4.03303E-13
 -1      3036 1.98004E+01 2.91381E+00-5.60333E-03-5.95959E-02 5.15201E-14-4.40274E-13
 -1      3037 1.98083E+01 2.89849E+00-5.60479E-03-2.10309E-01 1.88700E-14-4.49289E-13
 -1      3038 1.77737E+01-4.13669E+00 1.11975E-01-5.79338E+00 4.63907E-13 2.64767E-13
 -1      3039 2.87412E+01 8.40608E-01-8.51644E-02-2.20721E+00 3.60961E-13-2.50105E-13
 -1      3040 1.91819E+01-4.26972E+00 9.33105E-02 5.22004E+00-2.55698E-13 2.65739E-13
 -1      3041 1.24745E+01-2.73131E+00 1.34165E-01 5.64451E+00-5.92776E-13 6.16313E-13
 -1      3042 1.13650E+01-1.73099E+00 1.86442E-01 4.81003E+00-6.79304E-13 6.42542E-13
 -1      3043 1.49967E+01-2.67284E+00 7.75623E-02 5.25192E+00-4.96728E-13 5.14463E-13
 -1      3044 1.23804E+01-2.18607E+00 1.47617E-01-5.22323E+00 2.74697E-13 2.30121E-13
 -1      3045 2.60489E+01-3.73555E+00 3.73887E-02-1.05808E+00 1.93772E-13-4.25032E-13
 -1      3046 2.73229E+01-3.14361E+00-4.73082E-02-3.64184E-01 1.60623E-13-4.49099E-13
 -1      3047 2.69381E+01-2.16522E+00-4.35952E-02 7.81953E-01 9.25371E-14-4.80102E-13
 -1      3048 2.33893E+01-4.83970E+00 6.34865E-02-3.85421E+00 5.04860E-13-1.94140E-13
 -1      3049 2.61292E+01-3.88998E+00-5.92056E-04 1.34247E+00-1.00055E-13 1.75811E-13
 -1      3050 2.71518E+01 3.80566E+00-7.02975E-02 1.92329E+00-2.46927E-13-4.80449E-13
 -1      3051 2.63743E+01 5.13584E+00-1.09796E-01-5.69342E-02-3.89591E-13-2.39244E-13
 -1      3052 2.77829E+01 5.94848E-01-7.01059E-02 1.87250E+00-3.16136E-14-5.77344E-13
 -1      3053 2.68803E+01 3.18388E+00-4.35480E-02-2.07451E+00-4.51347E-13 1.82063E-13
 -1      3054 2.76148E+01-2.83048E+00-5.46824E-02-4.04013E-01 1.86879E-13-2.18311E-13
 -1      3055 2.00388E+01 1.97353E-01-2.67729E-03-1.75133E-01 1.35607E-13-5.70716E-14
 -1      3056 7.47593E+00-7.73313E-01 1.87578E-01-2.43852E+00-1.02487E-14-1.20542E-13
 -1      3057 9.67623E+00-5.50641E-01 1.06555E-01-3.12759E+00 4.40273E-15-2.93210E-13
 -1      3058 7.70094E+00-2.45697E-01 1.43904E-01-1.13414E+00-1.61832E-13-9.49241E-14
 -1      3059 6.69107E+00-1.22731E+00 1.86211E-01 2.40616E+00-4.68542E-13 1.45856E-13
 -1      3060 7.36463E+00-4.24451E-01 1.52622E-01 1.32307E+00-3.47840E-13 1.78746E-14
 -1      3061 8.47643E+00-1.12317E+00 7.17559E-02 3.39181E+00-6.38128E-13 1.96898E-13
 -1      3062 1.99602E+01 2.14100E-01 7.62152E-04 1.35524E-01-2.19569E-13-3.57008E-13
 -1      3063 1.99750E+01 1.85177E-01-1.22402E-03 1.24379E-01-1.98773E-13-4.01308E-13
 -1      3064 1.99929E+01 1.67545E-01 7.22103E-04 1.30684E-01-1.56020E-13-4.42919E-13
 -1      3065 2.00204E+01 1.30819E-01-5.33316E-04 1.33115E-01-1.62280E-13-1.42804E-14
 -1      3066 2.80163E+01-1.64269E+00-1.86441E-02 1.38805E+00-2.22114E-14 5.02667E-13
 -1      3067 1.50759E+01-3.69062E+00 1.05907E-01-6.02830E+00-3.28654E-13-3.30652E-13
 -1      3068 1.73033E+01-3.67610E+00 7.36961E-02-5.42961E+00-3.79932E-13-1.79891E-13
 -1      3069 1.36771E+01-2.65220E+00 1.12237E-01-5.50591E+00-3.11862E-13-3.80224E-13
 -1      3070 2.73836E+01-8.30369E-01-6.87657E-02-1.36716E+00-2.94126E-13 4.00749E-13
 -1      3071 6.59624E+00-6.36697E-01 1.82490E-01 3.47346E-01-2.75812E-14-7.51649E-13
 -1      3072 7.98415E+00-1.64474E-01 1.30191E-01-4.18864E-01-3.73009E-14-6.73350E-13
 -1      3073 7.76084E+00-3.78449E-01 1.23985E-01 1.74642E+00 2.23432E-14-8.12739E-13
 -1      3074 2.46776E+01-4.66080E+00 4.45948E-02 2.75577E+00-2.21517E-13-7.88328E-14
 -1      3075 2.17233E+01-4.82907E+00 6.86368E-02-4.51907E+00-4.23522E-13-8.97383E-14
 -1      3076 2.23916E+01-4.77341E+00 5.50848E-02 4.23418E+00-1.67921E-15-7.18123E-14
 -1      3077 8.75636E+00-1.42455E+00 1.79209E-01-3.81299E+00-1.96211E-13-6.09596E-13
 -1      3078 1.10352E+01-1.70113E+00 8.07928E-02-4.61041E+00-2.36533E-13-5.35461E-13
 -1      3079 9.19877E+00-6.59307E-01 1.33880E-01-2.91709E+00-1.47764E-13-6.02379E-13
 -1      3080 1.84252E+01-3.96132E+00 5.80704E-02 5.39096E+00 1.31513E-13-3.43253E-13
 -1      3081 1.62796E+01-3.90050E+00 1.08366E-01 6.09304E+00 1.98175E-13-4.56156E-13
 -1      3082 1.48637E+01-3.08240E+00 9.67919E-02 5.78085E+00 2.57766E-13-4.44700E-13
 -1      3083 2.60252E+01-4.30465E+00 8.10479E-03-1.58948E+00-2.99871E-13 1.47514E-13
 -1      3084 1.98245E+01 2.86095E+00-5.88206E-03-3.40948E-01-3.20771E-15-4.39317E-13
 -1      3085 1.98495E+01 2.81068E+00-6.23524E-03-4.91171E-01-4.19397E-14-4.40317E-13
 -1      3086 2.00004E+01 2.44132E+00 4.44383E-03-4.88945E-01-6.24434E-14-4.10997E-13
 -1      3087 1.99517E+01 2.55540E+00 3.89438E-03-2.45690E-01 4.14203E-15-4.15086E-13
 -1      3088 2.02980E+01 1.60071E+00-1.39706E-03 1.14236E+00 3.65156E-13-4.63943E-14
 -1      3089 2.86197E+01 4.47920E+00-1.14411E-01-1.68116E+00 4.73149E-13-9.37167E-14
 -1      3090 9.27784E+00-1.88844E+00 1.75644E-01 4.72152E+00 2.23682E-13-5.40540E-13
 -1      3091 9.02197E+00-9.56940E-01 1.53147E-01 3.61721E+00 1.62148E-13-6.09734E-13
 -1      3092 1.15941E+01-2.01176E+00 7.88075E-02 5.03652E+00 3.33775E-13-3.46653E-13
 -1      3093 2.72591E+01 2.41093E+00-8.08705E-02 2.16545E+00 3.20299E-13 2.64427E-13
 -1      3094 2.02899E+01 1.38597E+00 2.22013E-03 8.91579E-01 3.27295E-13-6.63731E-14
 -1      3095 2.02512E+01 1.51167E+00-6.00448E-03 7.70291E-01 2.94331E-13-1.29665E-13
 -1      3096 2.02109E+01 1.70430E+00-7.73295E-04 7.14328E-01 2.54366E-13-1.78291E-13
 -1      3097 1.98828E+01 2.88687E-01-6.57497E-06-7.87044E-02 2.37979E-13-8.44584E-14
 -1      3098 1.98726E+01 2.96341E-01-8.59692E-04-5.19045E-02 2.93925E-13 3.83268E-14
 -1      3099 2.75806E+01 2.29176E+00-1.53883E-01-2.54531E+00 3.14859E-13-2.71477E-13
 -1      3100 2.72835E+01 4.84343E-01-6.88609E-02-2.27683E+00 3.30430E-13-2.74059E-13
 -1      3101 2.67458E+01 4.95723E+00-1.07730E-01 4.03738E-01 5.01627E-13 3.32824E-14
 -1      3102 2.02792E+01 1.47478E+00 1.21369E-03-8.40636E-01-2.21222E-13-2.72155E-13
 -1      3103 2.02718E+01 1.18204E+00-3.49424E-03-6.21688E-01-1.98234E-13-2.45170E-13
 -1      3104 2.00549E+01 1.17475E-01-2.05551E-04-1.68585E-01 1.96800E-13-2.32778E-13
 -1      3105 2.02571E+01 6.03124E-01 3.44546E-03-1.61021E-01-1.40331E-13-1.67470E-13
 -1      3106 2.02215E+01 4.82589E-01-1.73608E-03-4.24020E-02-1.42697E-13-1.84845E-13
 -1      3107 2.02058E+01 3.88718E-01 2.70056E-03 5.01831E-02-1.41518E-13-1.47593E-13
 -1      3108 2.01789E+01 3.15441E-01-6.31733E-04 1.33305E-01-1.42736E-13-1.21498E-13
 -1      3109 2.02621E+01 5.23304E-01-6.06631E-04-1.72137E-02-1.30439E-13-1.71185E-13
 -1      3110 2.01585E+01 2.60350E-01 1.79460E-03 1.99953E-01-1.34704E-13-7.86251E-14
 -1      3111 2.01423E+01 2.19911E-01 2.27875E-04 2.59721E-01-1.37105E-13-6.01231E-14
 -1      3112 2.02205E+01 3.49481E-01-9.72536E-04 1.48064E-01-1.26985E-13-1.26980E-13
 -1      3113 2.01209E+01 1.91805E-01 9.49186E-04 3.09617E-01-1.41055E-13-2.84267E-14
 -1      3114 2.01147E+01 1.74616E-01 8.67750E-04 3.55970E-01-8.37150E-14-4.24838E-14
 -1      3115 2.01765E+01 2.51093E-01-1.00449E-03 2.70369E-01-1.20749E-13-4.27945E-14
 -1      3116 2.00939E+01 1.65603E-01 2.31844E-04 3.96979E-01-4.82375E-14-2.49170E-14
 -1      3117 2.00963E+01 1.64988E-01 1.34470E-03 4.37562E-01-1.21374E-14-4.42214E-14
 -1      3118 2.01347E+01 2.06755E-01-8.78020E-04 3.66519E-01-7.36235E-14-1.65161E-14
 -1      3119 2.00763E+01 1.69396E-01-3.45563E-04 4.76023E-01 9.05021E-15-4.62372E-14
 -1      3120 2.00860E+01 1.80223E-01 1.70938E-03 5.16490E-01-1.42983E-14-3.64906E-14
 -1      3121 2.00960E+01 2.01147E-01-6.96276E-04 4.50664E-01 6.10645E-15-2.41144E-14
 -1      3122 2.00667E+01 1.93425E-01-7.83873E-04 5.57253E-01-6.01295E-14-2.40429E-14
 -1      3123 2.00830E+01 2.11133E-01 1.99574E-03 6.01525E-01-6.82053E-14-2.66907E-14
 -1      3124 2.00603E+01 2.22345E-01-5.16499E-04 5.34049E-01-3.78427E-14-7.69324E-14
 -1      3125 2.00645E+01 2.28683E-01-1.07749E-03 6.48068E-01-3.96032E-14-5.34741E-14
 -1      3126 2.00872E+01 2.48484E-01 2.22500E-03 6.98429E-01-2.71654E-14-6.38253E-14
 -1      3127 2.00269E+01 2.59778E-01-3.79172E-04 6.25096E-01-6.17549E-14-1.07943E-13
 -1      3128 2.00704E+01 2.65360E-01-1.20028E-03 7.52941E-01-3.92311E-14-4.77105E-14
 -1      3129 2.01004E+01 2.81450E-01 2.41114E-03 8.09992E-01-6.72139E-14-1.05342E-15
 -1      3130 1.99962E+01 3.02494E-01-3.33731E-04 7.29590E-01-3.98678E-14-8.11617E-14
 -1      3131 2.00874E+01 2.91260E-01-1.09046E-03 8.73386E-01-4.62758E-14 1.52872E-14
 -1      3132 2.01272E+01 2.95957E-01 2.56351E-03 9.35794E-01-1.15288E-14 4.52112E-14
 -1      3133 1.99703E+01 3.37434E-01-4.64294E-04 8.50822E-01-2.88948E-14-2.73150E-14
 -1      3134 2.01227E+01 2.90088E-01-6.33372E-04 1.00755E+00-3.92949E-14 5.24913E-14
 -1      3135 2.01770E+01 2.72975E-01 2.68776E-03 1.07159E+00-2.38767E-14 3.61360E-14
 -1      3136 1.99551E+01 3.47561E-01-9.11427E-04 9.89557E-01-3.13866E-14-4.19928E-15
 -1      3137 2.01898E+01 2.39867E-01 3.53559E-04 1.14934E+00 8.25955E-15 7.85267E-15
 -1      3138 2.02668E+01 1.87212E-01 2.77356E-03 1.20812E+00 4.01591E-15 3.22917E-14
 -1      3139 1.99622E+01 3.09977E-01-1.89265E-03 1.14363E+00-9.54678E-15 4.06472E-15
 -1      3140 2.03118E+01 1.12138E-01 2.14687E-03 1.28672E+00-5.67365E-14 4.86503E-14
 -1      3141 2.04242E+01 7.13234E-03 2.71878E-03 1.32909E+00-4.40631E-14 4.79483E-14
 -1      3142 2.00127E+01 1.94498E-01-3.73645E-03 1.30690E+00-2.64459E-14-3.41470E-14
 -1      3143 2.05253E+01-1.26682E-01 5.11078E-03 1.39856E+00 1.31577E-14 7.03566E-14
 -1      3144 2.06909E+01-3.01444E-01 2.14774E-03 1.40730E+00 3.89427E-14 9.21170E-14
 -1      3145 2.01421E+01-3.63562E-02-6.91424E-03 1.46681E+00 5.32414E-15 1.34221E-13
 -1      3146 2.08835E+01-5.08243E-01 9.61795E-03 1.44806E+00 1.52484E-14 1.38215E-13
 -1      3147 2.11219E+01-7.62336E-01 4.98529E-04 1.39730E+00-6.21291E-15 1.63309E-13
 -1      3148 2.04056E+01-4.23089E-01-1.19434E-02 1.59830E+00 4.27069E-14 1.46982E-13
 -1      3149 2.14505E+01-1.04107E+00 1.60162E-02 1.37299E+00-7.12863E-15 2.56009E-13
 -1      3150 2.17732E+01-1.35814E+00-3.12298E-03 1.22753E+00 3.03247E-14 2.71891E-13
 -1      3151 2.08804E+01-9.91668E-01-1.84693E-02 1.65096E+00 2.65764E-14 2.30680E-13
 -1      3152 2.22798E+01-1.66993E+00 2.28073E-02 1.07638E+00 1.17061E-13 3.35046E-13
 -1      3153 2.26716E+01-1.97180E+00-9.20998E-03 7.96519E-01 2.50920E-13 3.48618E-13
 -1      3154 2.16554E+01-1.71414E+00-2.44736E-02 1.53380E+00 1.43968E-13 4.32017E-13
 -1      3155 2.33511E+01-2.19587E+00 2.33595E-02 4.36455E-01 3.04833E-13 3.56089E-13
 -1      3156 2.37442E+01-2.29926E+00-1.74542E-02 9.98754E-03 2.77778E-13 3.68523E-13
 -1      3157 2.27942E+01-2.41860E+00-2.33859E-02 1.09659E+00 2.48868E-13 4.28298E-13
 -1      3158 2.44697E+01-2.18554E+00 7.27093E-03-5.94439E-01 2.15407E-13 4.59596E-13
 -1      3159 2.47453E+01-1.81398E+00-2.95323E-02-1.08081E+00 1.32620E-13 4.28825E-13
 -1      3160 2.41976E+01-2.70292E+00-2.25337E-02 1.86860E-01 2.85619E-13 4.82149E-13
 -1      3161 2.57523E+01 9.47777E-01-6.39092E-02-2.30638E+00-1.84665E-13 3.01786E-13
 -1      3162 2.55354E+01 2.27761E+00-6.55729E-02-2.01464E+00-3.07615E-13 2.16773E-13
 -1      3163 2.50132E+01 3.57606E+00-1.46220E-01-1.47613E+00-3.14027E-13-4.36279E-14
 -1      3164 2.48948E+01 4.26911E+00-1.02199E-01-6.34172E-01-3.11542E-13-1.28329E-13
 -1      3165 2.49936E+01 4.31215E+00-1.00750E-01 7.56735E-01-2.36242E-13-3.07615E-13
 -1      3166 2.50577E+01 3.57411E+00-1.34726E-01 1.50993E+00-1.69371E-13-2.79301E-13
 -1      3167 2.51914E+01-4.01098E-01-2.35450E-02 1.92879E+00-4.74516E-14-4.12816E-13
 -1      3168 2.51711E+01-1.32499E+00-3.31182E-02 1.60734E+00 4.78194E-14-4.96289E-13
 -1      3169 2.46228E+01-1.95209E+00-2.25419E-02 9.37243E-01 1.57447E-13-3.39510E-13
 -1      3170 2.43549E+01-2.24680E+00 1.89289E-02 4.45192E-01 1.88435E-13-2.46954E-13
 -1      3171 2.53716E+01-2.03559E+00-3.86398E-03 9.54525E-01 1.36113E-13-5.58085E-13
 -1      3172 2.35861E+01-2.26898E+00-1.41292E-02-1.50229E-01 8.50440E-14-2.28588E-13
 -1      3173 2.31975E+01-2.11552E+00 2.92786E-02-5.30972E-01-1.15884E-14-3.16903E-13
 -1      3174 2.40208E+01-2.67967E+00-2.63679E-02-2.98391E-01 1.39172E-13-4.41916E-13
 -1      3175 2.25310E+01-1.87575E+00-8.87931E-03-8.69790E-01-6.70698E-14-1.93081E-13
 -1      3176 2.21517E+01-1.55808E+00 2.35297E-02-1.11072E+00-3.80017E-14-1.39666E-13
 -1      3177 2.25848E+01-2.33873E+00-4.14648E-02-1.15453E+00 1.86439E-15-2.56208E-13
 -1      3178 2.16702E+01-1.24358E+00-6.48050E-04-1.24590E+00-1.04047E-14-5.81260E-14
 -1      3179 2.13600E+01-9.35601E-01 1.55447E-02-1.36322E+00-9.81669E-14 9.89584E-15
 -1      3180 2.15223E+01-1.58789E+00-2.59762E-02-1.54116E+00 4.84852E-14-1.81862E-13
 -1      3181 2.10547E+01-6.59605E-01 2.86213E-03-1.37790E+00-2.20302E-13 1.72388E-13
 -1      3182 2.08248E+01-4.18848E-01 8.39708E-03-1.40914E+00-1.73760E-13 6.21273E-14
 -1      3183 2.07950E+01-8.76118E-01-1.81094E-02-1.62184E+00-4.07912E-14 5.40908E-15
 -1      3184 2.06511E+01-2.16419E-01 3.75855E-03-1.35989E+00-1.02618E-13 9.81569E-14
 -1      3185 2.04912E+01-5.36671E-02 3.68691E-03-1.33800E+00-3.96110E-14 4.52964E-14
 -1      3186 2.03544E+01-3.25228E-01-1.12279E-02-1.54387E+00-1.32940E-13 2.87498E-13
 -1      3187 2.04024E+01 7.69301E-02 3.51687E-03-1.26026E+00-1.55862E-13 7.83646E-14
 -1      3188 2.02939E+01 1.73903E-01 9.45934E-04-1.20838E+00-2.19291E-13-1.94189E-14
 -1      3189 2.01124E+01 4.47379E-02-6.31515E-03-1.39467E+00-1.89303E-13 1.39181E-13
 -1      3190 2.02556E+01 2.47440E-01 3.02127E-03-1.12070E+00-1.81231E-13-5.69140E-14
 -1      3191 2.01817E+01 2.95842E-01-5.46228E-04-1.05424E+00-1.02922E-13-1.25450E-13
 -1      3192 1.99939E+01 2.64991E-01-3.16072E-03-1.21956E+00-2.65576E-13-1.48113E-14
 -1      3193 2.01712E+01 3.28891E-01 2.54894E-03-9.66533E-01-9.98812E-14-1.88420E-13
 -1      3194 2.01196E+01 3.44602E-01-1.27067E-03-8.95497E-01-6.84124E-14-2.44525E-13
 -1      3195 1.99467E+01 3.75541E-01-1.31718E-03-1.04130E+00-9.75426E-14 7.90111E-14
 -1      3196 2.01229E+01 3.51315E-01 2.16845E-03-8.13091E-01 2.35610E-14-3.24999E-13
 -1      3197 2.00853E+01 3.46845E-01-1.54099E-03-7.43762E-01 1.27110E-13-2.89780E-13
 -1      3198 1.99374E+01 4.12284E-01-3.30834E-04-8.71615E-01-7.12397E-14-1.44030E-14
 -1      3199 2.00943E+01 3.37939E-01 1.86448E-03-6.69442E-01 1.02220E-13-2.49898E-13
 -1      3200 2.00658E+01 3.22335E-01-1.55313E-03-6.05524E-01-1.12712E-13-2.41082E-13
 -1      3201 1.99457E+01 4.03260E-01 1.39579E-04-7.16625E-01 1.07635E-13-2.12933E-13
 -1      3202 2.00761E+01 3.05357E-01 1.60865E-03-5.40530E-01-1.08776E-13-1.73160E-13
 -1      3203 2.00538E+01 2.84809E-01-1.42309E-03-4.83917E-01 4.42065E-14-1.32793E-13
 -1      3204 1.99604E+01 3.68725E-01 3.18402E-04-5.79323E-01 8.95814E-15 8.41478E-15
 -1      3205 2.00632E+01 2.64807E-01 1.37647E-03-4.28425E-01 1.51361E-13-1.20883E-13
 -1      3206 2.00452E+01 2.43214E-01-1.26240E-03-3.79719E-01 1.43224E-13-8.35751E-14
 -1      3207 1.99756E+01 3.22603E-01 3.42755E-04-4.60681E-01 1.32171E-13 1.17374E-13
 -1      3208 2.00529E+01 2.23590E-01 1.22775E-03-3.33422E-01 8.20414E-14-1.70880E-13
 -1      3209 2.00381E+01 2.03366E-01-1.02377E-03-2.92274E-01 7.05986E-14-2.76558E-13
 -1      3210 1.99885E+01 2.73712E-01 2.36728E-04-3.60288E-01 6.50462E-14-2.19163E-13
 -1      3211 2.00438E+01 1.85450E-01 9.98309E-04-2.54288E-01 1.79620E-13-1.51031E-13
 -1      3212 2.00322E+01 1.69522E-01-2.47089E-04-2.20493E-01 2.49242E-13-2.22786E-13
 -1      3213 1.99975E+01 2.27461E-01-2.40152E-04-2.76945E-01 1.40410E-13-5.11905E-14
 -1      3214 2.21547E+01-4.46272E+00 1.09118E-01-4.07335E+00 5.19133E-13-1.61572E-14
 -1      3215 2.41047E+01-4.60397E+00-9.66835E-02-2.79187E+00 2.97765E-13-2.03014E-13
 -1      3216 2.00778E+01 1.55132E-01 1.58939E-03-4.71768E-01 1.03520E-13-9.00786E-14
 -1      3217 2.00626E+01 1.48136E-01-8.33930E-06-4.32330E-01 6.83274E-14-7.07575E-14
 -1      3218 2.01325E+01 2.83452E-01 2.63217E-03-7.64621E-01 5.98065E-14-5.37610E-14
 -1      3219 2.00950E+01 2.54320E-01-1.74096E-03-7.05437E-01 9.66538E-14-5.26406E-14
 -1      3220 2.01626E+01 3.38833E-01 2.91855E-03-9.00498E-01 2.93408E-14-5.18745E-14
 -1      3221 2.01182E+01 3.10204E-01-2.08265E-03-8.30513E-01 7.51572E-14-1.54178E-14
 -1      3222 2.00172E+01 3.53770E-01 2.61253E-04-8.08951E-01 5.05880E-14-1.38445E-13
 -1      3223 2.01999E+01 3.83016E-01 3.20752E-03-1.05893E+00-1.92912E-15-9.53049E-14
 -1      3224 2.01471E+01 3.61766E-01-2.24705E-03-9.78809E-01-1.76224E-15-6.09670E-14
 -1      3225 1.99946E+01 4.16737E-01 4.13237E-04-9.53657E-01 3.64147E-14-1.28145E-13
 -1      3226 2.02503E+01 3.96959E-01 3.54486E-03-1.23687E+00 4.81652E-14-7.35507E-14
 -1      3227 2.01855E+01 3.93764E-01-2.10428E-03-1.14969E+00 5.12700E-14-6.44459E-14
 -1      3228 1.99711E+01 4.62750E-01 3.05331E-04-1.12302E+00 2.38254E-14-6.73927E-14
 -1      3229 2.03287E+01 3.51530E-01 3.98921E-03-1.42635E+00-1.27257E-13-3.30400E-15
 -1      3230 2.02438E+01 3.82626E-01-1.41567E-03-1.33856E+00-3.98827E-14-3.90567E-14
 -1      3231 1.99537E+01 4.67937E-01-3.59568E-04-1.31639E+00-8.52612E-15-5.99068E-14
 -1      3232 2.04640E+01 2.04345E-01 4.56531E-03-1.61228E+00-1.29550E-13-3.17848E-14
 -1      3233 2.03443E+01 2.93053E-01 2.32868E-04-1.53519E+00-1.26236E-13-1.83504E-14
 -1      3234 1.99601E+01 3.96321E-01-2.11463E-03-1.53044E+00-1.30798E-13-5.74321E-14
 -1      3235 2.07087E+01-1.00703E-01 5.12644E-03-1.76808E+00-1.52550E-13-1.06799E-13
 -1      3236 2.05291E+01 7.58679E-02 3.56890E-03-1.72049E+00-1.13520E-13-5.28103E-14
 -1      3237 2.00264E+01 1.96377E-01-5.78278E-03-1.75753E+00-9.26392E-14-1.23223E-13
 -1      3238 2.11455E+01-6.26612E-01 4.47541E-03-1.84634E+00-1.60014E-13-5.83228E-14
 -1      3239 2.08715E+01-3.29343E-01 9.97419E-03-1.85943E+00-1.87610E-13-8.40149E-14
 -1      3240 2.02190E+01-1.99599E-01-1.24391E-02-1.98116E+00-1.75632E-13-6.74035E-14
 -1      3241 2.18869E+01-1.39721E+00 1.63900E-03-1.74992E+00-1.55593E-13-3.72057E-14
 -1      3242 2.14879E+01-9.76797E-01 2.19641E-02-1.87556E+00-1.27766E-13-3.61618E-14
 -1      3243 2.06568E+01-8.74515E-01-2.34060E-02-2.15750E+00-1.58204E-13-1.23895E-13
 -1      3244 2.30215E+01-2.27122E+00-9.75775E-04-1.34222E+00-2.62580E-13 6.20372E-14
 -1      3245 2.24849E+01-1.81518E+00 3.78692E-02-1.63272E+00-2.10888E-13 1.87797E-14
 -1      3246 2.15023E+01-1.81317E+00-3.09724E-02-2.15703E+00-2.08465E-13-7.54561E-14
 -1      3247 2.46304E+01-2.90681E+00-3.04444E-03-3.91805E-01-1.62937E-13 1.91730E-13
 -1      3248 2.39625E+01-2.70542E+00 3.78183E-02-9.91299E-01-2.20805E-13 1.49608E-13
 -1      3249 2.29178E+01-2.79977E+00-2.41590E-02-1.78989E+00-2.65973E-13 4.78159E-14
 -1      3250 2.67630E+01 4.83979E+00-1.48017E-01-9.39682E-01 4.16223E-13-4.79894E-14
 -1      3251 2.71818E+01-1.11138E+00-5.87919E-02-2.06948E+00 2.82888E-13-4.03816E-13
 -1      3252 2.43255E+01-2.81202E+00 3.93204E-02 7.15341E-01-1.34791E-13-2.70265E-13
 -1      3253 2.49263E+01-2.94299E+00-2.52041E-02 1.30833E-01-2.00076E-13-3.04011E-13
 -1      3254 2.27785E+01-2.02329E+00 3.82509E-02 1.52533E+00-6.49667E-14-1.05735E-13
 -1      3255 2.33291E+01-2.48010E+00-1.18453E-02 1.17855E+00-6.53262E-14-1.42806E-13
 -1      3256 2.33259E+01-3.08663E+00-3.16286E-02 1.67293E+00-1.95348E-13-2.99409E-13
 -1      3257 2.16740E+01-1.13159E+00 2.36141E-02 1.83060E+00-1.01440E-13-8.01090E-14
 -1      3258 2.21041E+01-1.57455E+00-3.12841E-05 1.67748E+00-6.79058E-15-2.92587E-14
 -1      3259 2.17605E+01-2.03977E+00-3.38555E-02 2.12429E+00-1.32998E-13-1.45756E-13
 -1      3260 2.09903E+01-4.31393E-01 1.20016E-02 1.84578E+00-1.26128E-13-5.30131E-14
 -1      3261 2.12874E+01-7.56804E-01 4.16717E-03 1.81696E+00-1.27930E-13-9.48588E-14
 -1      3262 2.08043E+01-1.03278E+00-2.47211E-02 2.15108E+00-1.03259E-13 2.51824E-13
 -1      3263 2.06012E+01 2.77403E-02 4.87747E-03 1.71819E+00 7.20777E-14-1.85618E-13
 -1      3264 2.07957E+01-1.75457E-01 4.87086E-03 1.76019E+00-5.53220E-14-2.14131E-13
 -1      3265 2.02961E+01-2.99290E-01-1.43534E-02 1.99273E+00-4.29547E-14 6.23861E-14
 -1      3266 2.03910E+01 2.87208E-01 1.05706E-03 1.52827E+00-3.39660E-14-1.93299E-14
 -1      3267 2.05186E+01 1.78603E-01 4.53770E-03 1.60676E+00 6.70859E-14-1.44227E-13
 -1      3268 2.00598E+01 1.57314E-01-6.91843E-03 1.76624E+00-4.59108E-14-3.76320E-13
 -1      3269 2.02789E+01 4.06735E-01-9.01236E-04 1.31811E+00-2.22782E-14 1.62782E-14
 -1      3270 2.03665E+01 3.61782E-01 3.94922E-03 1.41199E+00-4.43446E-14 1.25686E-13
 -1      3271 1.99714E+01 4.01851E-01-2.65565E-03 1.52584E+00-9.80636E-14-1.53968E-13
 -1      3272 2.02166E+01 4.38275E-01-1.76120E-03 1.10997E+00-1.36008E-13 2.66516E-13
 -1      3273 2.02811E+01 4.32105E-01 3.43594E-03 1.20648E+00-8.32810E-14 2.53677E-13
 -1      3274 1.99546E+01 5.04454E-01-5.48656E-04 1.29329E+00-1.81900E-13 1.57383E-13
 -1      3275 2.01777E+01 4.19649E-01-2.01158E-03 9.15947E-01-1.90217E-13 3.36307E-13
 -1      3276 2.02284E+01 4.34828E-01 3.04632E-03 1.00756E+00-1.82236E-13 3.81876E-13
 -1      3277 1.99668E+01 5.20189E-01 3.35805E-04 1.07798E+00-2.08818E-13 3.61966E-13
 -1      3278 2.01492E+01 3.75943E-01-1.94471E-03 7.42267E-01-1.49438E-13 2.10365E-13
 -1      3279 2.01909E+01 4.01177E-01 2.72399E-03 8.24927E-01-1.34584E-13 2.58269E-13
 -1      3280 1.99868E+01 4.87610E-01 5.92666E-04 8.84359E-01-1.28026E-13 2.05468E-13
 -1      3281 2.01254E+01 3.22734E-01-1.72868E-03 5.91466E-01-8.77865E-14 3.29220E-13
 -1      3282 2.01605E+01 3.51136E-01 2.42202E-03 6.63405E-01-1.04302E-13 1.99790E-13
 -1      3283 2.00049E+01 4.31816E-01 5.61658E-04 7.14381E-01-1.44613E-13 2.99656E-14
 -1      3284 2.01042E+01 2.69138E-01-1.45765E-03 4.63659E-01 1.31841E-14 4.19141E-13
 -1      3285 2.01337E+01 2.96750E-01 2.12205E-03 5.24596E-01-8.28515E-15 4.30460E-13
 -1      3286 2.00180E+01 3.68279E-01 4.28554E-04 5.68322E-01-1.43449E-13 2.54873E-15
 -1      3287 2.00850E+01 2.20126E-01-1.14496E-03 3.57434E-01-1.84758E-13 1.63644E-13
 -1      3288 2.01095E+01 2.44863E-01 1.82395E-03 4.07970E-01 7.59012E-14 3.47627E-13
 -1      3289 2.00257E+01 3.06034E-01 2.88699E-04 4.45181E-01 9.13983E-14 3.49242E-13
 -1      3290 2.00683E+01 1.79340E-01-3.22432E-04 2.70969E-01-7.51159E-14 6.08023E-14
 -1      3291 2.00880E+01 1.99054E-01 1.59920E-03 3.11700E-01-2.68091E-13 2.75281E-15
 -1      3292 2.00284E+01 2.49855E-01 2.46937E-05 3.43258E-01-1.63395E-13 2.56408E-13
 -1      3293 1.98672E+01 3.02852E-01-4.27359E-04-1.77849E-02 3.72478E-13-2.38374E-13
 -1      3294 1.98666E+01 3.03535E-01-5.04592E-04 1.18101E-02 3.33495E-13-2.12423E-13
 -1      3295 1.98453E+01 3.28234E-01 1.12978E-03-3.93754E-02 4.03890E-13-5.30570E-14
 -1      3296 2.00119E+01 1.63317E-01 6.12694E-04-1.73659E-01 1.24536E-13-1.82508E-13
 -1      3297 1.99860E+01 1.86071E-01-1.10726E-03-1.71484E-01 1.27087E-13 2.70171E-14
 -1      3298 2.00763E+01 1.48185E-01 1.11275E-03-3.91917E-01 7.05721E-14-7.48528E-14
 -1      3299 2.00713E+01 1.55472E-01 8.66293E-04-3.50004E-01 8.73568E-14-7.77705E-14
 -1      3300 2.00993E+01 1.83278E-01-9.16625E-04-4.10513E-01 6.76801E-14-1.20581E-13
 -1      3301 2.01129E+01 2.34481E-01-3.19103E-04-1.92345E-01 1.40228E-13-8.18076E-14
 -1      3302 2.01357E+01 2.87680E-01 3.24727E-03-1.20985E-01 1.41646E-13-6.26532E-14
 -1      3303 2.57043E+01 2.62550E+00-6.48149E-02 2.06977E+00-1.74943E-13-3.95788E-13
 -1      3304 1.99156E+01 2.58134E-01 3.09576E-04-1.29226E-01 5.80830E-14-3.16053E-13
 -1      3305 1.98970E+01 2.72432E-01-1.09693E-03-1.07927E-01 1.70300E-13-1.26586E-13
 -1      3306 1.98689E+01 3.06684E-01 9.19071E-04-1.05717E-01 1.40028E-13-3.64644E-13
 -1      3307 1.99609E+01 2.14900E-01 5.61640E-04-1.62528E-01 1.75881E-13-9.97980E-14
 -1      3308 1.99365E+01 2.34531E-01-1.16611E-03-1.49799E-01 1.14799E-13-3.38223E-13
 -1      3309 1.99114E+01 2.68888E-01 7.08888E-04-1.57943E-01 4.19561E-15-1.77147E-13
 -1      3310 1.99681E+01 2.18706E-01 7.68489E-04-1.89563E-01 1.79051E-13-1.75339E-13
 -1      3311 2.01078E+01 2.29153E-01 2.32516E-03-6.50671E-01 1.27125E-13-5.40611E-14
 -1      3312 2.00770E+01 2.04075E-01-1.28050E-03-6.01146E-01 1.04506E-13-4.68301E-14
 -1      3313 2.00374E+01 2.89448E-01-7.21475E-07-6.87230E-01 9.59884E-14-1.33923E-13
 -1      3314 2.00890E+01 1.84225E-01 1.98367E-03-5.55099E-01 7.42414E-14-5.43651E-14
 -1      3315 2.00654E+01 1.66609E-01-7.10171E-04-5.12620E-01 1.03431E-13-8.19724E-14
 -1      3316 2.00760E+01 1.96428E-01-6.07309E-04-4.95220E-01 9.22254E-14-1.30956E-13
 -1      3317 2.00562E+01 2.34322E-01-2.99249E-04-5.84657E-01 6.75256E-14-1.45162E-13
 -1      3318 2.49303E+01-4.29789E+00 9.70930E-02-2.05801E+00-3.27766E-13 1.88769E-13
 -1      3319 2.60246E+01-3.81325E+00-1.23623E-01-5.17194E-01-2.50998E-13 3.37952E-13
 -1      3320 1.68277E+01-3.29576E+00 1.03693E-01-5.47851E+00 3.58755E-13 3.06553E-13
 -1      3321 1.94591E+01-4.32101E+00-4.15323E-02-5.18974E+00 4.48225E-13 6.49897E-14
 -1      3322 2.04112E+01-3.98186E+00 1.20782E-01-4.57730E+00-4.57127E-13-1.16735E-13
 -1      3323 2.27822E+01-4.57044E+00-3.37261E-02-3.51260E+00-3.93276E-13-1.17788E-14
 -1      3324 2.02973E+01 9.43241E-01 3.79198E-03-4.55278E-01-1.69527E-13-2.06645E-13
 -1      3325 2.02606E+01 7.53708E-01-3.01217E-03-2.88638E-01-1.51600E-13-1.93605E-13
 -1      3326 2.02809E+01 1.22933E+00 4.00173E-04-5.39585E-01-1.58547E-13-3.01409E-13
 -1      3327 2.00125E+01 1.57600E-01 7.16606E-04 1.53982E-01-7.70659E-14-1.05861E-13
 -1      3328 2.00872E+01 1.71042E-01 5.02410E-04-3.03842E-01 1.07637E-13-8.14222E-14
 -1      3329 2.00949E+01 1.97596E-01 1.95748E-03-2.52091E-01 1.32222E-13-9.02924E-14
 -1      3330 2.01286E+01 2.03566E-01-1.20706E-03-3.19405E-01 9.58045E-14-1.12094E-13
 -1      3331 2.03033E+01 1.01334E+00-4.84818E-04 6.55824E-01 2.93799E-13-4.86478E-14
 -1      3332 2.02791E+01 1.33381E+00 2.74058E-03 7.37476E-01 2.96548E-13-8.62039E-14
 -1      3333 2.02834E+01 1.16349E+00 1.37748E-04 5.53857E-01 2.60798E-13-1.02543E-13
 -1      3334 2.02481E+01 8.06042E-01-3.44834E-03 4.43856E-01 2.68928E-13-4.39800E-14
 -1      3335 2.33066E+01-4.58099E+00-5.94642E-02 3.23861E+00 6.07639E-14 1.17965E-13
 -1      3336 2.12204E+01-4.29459E+00 6.24600E-02 4.33783E+00 1.08927E-13 9.06566E-15
 -1      3337 2.00398E+01 1.34530E-01-4.73100E-04-1.73872E-01 2.16964E-13-2.58543E-13
 -1      3338 2.08219E+01-4.36011E+00-4.14646E-02 4.47960E+00-3.02515E-13 1.77022E-13
 -1      3339 1.83155E+01-3.42001E+00 8.82892E-02 4.94978E+00-3.69010E-13 3.33802E-13
 -1      3340 1.23545E+01-1.24987E+00 1.00206E-01-4.41241E+00 1.83603E-13 1.61551E-13
 -1      3341 1.44936E+01-2.35945E+00 5.04667E-02-5.33090E+00 3.28876E-13 3.54161E-13
 -1      3342 2.00444E+01 2.21980E+00-4.28528E-03 2.77680E-01 1.19712E-13-3.47603E-13
 -1      3343 2.00296E+01 2.26049E+00-3.51120E-03 1.61224E-01 7.64823E-14-3.71411E-13
 -1      3344 2.60480E+01-3.36572E+00-9.65668E-02 3.63178E-01 4.58357E-15 3.38181E-13
 -1      3345 2.51384E+01-4.08555E+00 6.72289E-02 1.77183E+00 7.03647E-14 1.97141E-13
 -1      3346 2.53466E+01-4.29434E+00-8.20123E-02 1.58785E+00-1.75589E-13-3.01186E-13
 -1      3347 2.33770E+01-4.45863E+00 9.04240E-02 3.21368E+00-2.34809E-13-6.10970E-14
 -1      3348 2.62228E+01-2.09284E+00-4.29970E-02-1.31580E+00 7.95904E-14-4.24952E-13
 -1      3349 2.70787E+01-2.35254E+00-6.13975E-02-1.01905E+00 9.50212E-14-1.58432E-13
 -1      3350 2.65718E+01-3.51642E+00 4.62044E-02 1.86647E-01-7.95848E-14-2.32793E-13
 -1      3351 2.58255E+01-2.66208E+00 1.80761E-02-6.79836E-01-1.19786E-13-4.43947E-13
 -1      3352 2.51865E+01-4.80989E-01-4.08392E-02-1.85333E+00-7.48256E-14 4.16472E-13
 -1      3353 2.64432E+01-3.33963E-01-6.27350E-02-1.90508E+00-2.70645E-13 4.32383E-13
 -1      3354 2.66306E+01-2.16586E+00 1.70785E-02-9.25834E-01-9.49484E-14 4.51861E-13
 -1      3355 2.51717E+01-1.32375E+00-1.03300E-02-1.60008E+00-6.09582E-15 4.26357E-13
 -1      3356 2.58685E+01 1.22130E+00-8.75722E-02 2.25243E+00-1.17913E-13-4.53443E-13
 -1      3357 2.00217E+01 2.28066E+00-3.77829E-03 6.28823E-02 6.08399E-14-3.86326E-13
 -1      3358 2.00212E+01 2.28141E+00-3.82972E-03-5.55269E-02 3.41599E-14-3.85623E-13
 -1      3359 2.01317E+01 1.99541E+00 5.34690E-03 9.41578E-02 6.26057E-14-3.45505E-13
 -1      3360 2.01237E+01 1.98828E+00-2.85330E-03-5.56379E-01-9.22438E-14-3.39588E-13
 -1      3361 2.01626E+01 1.86512E+00-4.12292E-03-6.50170E-01-1.29556E-13-3.49252E-13
 -1      3362 2.52147E+01-3.38863E+00-3.72359E-02 4.70301E-01-1.88427E-13-1.34892E-13
 -1      3363 1.71767E+01-2.92096E+00 7.87198E-02 5.02675E+00-4.58529E-13 4.52451E-13
 -1      3364 1.58273E+01-2.17826E+00 5.17139E-02 4.73881E+00-5.68851E-13 4.80248E-13
 -1      3365 1.89436E+01-2.94511E+00 4.24120E-02 4.31749E+00-4.51458E-13 3.55310E-13
 -1      3366 2.49360E+01-3.86463E+00 1.10752E-02-1.46145E+00 1.75349E-13-2.99823E-13
 -1      3367 2.02905E+01 8.03308E-01 5.04580E-04-2.43242E-01-1.38453E-13-2.18852E-13
 -1      3368 2.67010E+01 3.84100E-01-6.58806E-02 2.05921E+00-7.26225E-14-5.95635E-13
 -1      3369 2.58696E+01-2.68211E+00-8.26157E-03 5.73710E-01-1.75984E-13 2.84328E-13
 -1      3370 2.68730E+01-2.14209E+00 5.29211E-02 1.28104E+00-8.38704E-14 3.75568E-13
 -1      3371 1.99982E+01 1.96167E-01-9.90054E-04-2.18713E-01 1.85880E-13-7.00786E-14
 -1      3372 2.00305E+01 1.62988E-01 6.80324E-04-2.00579E-01 1.34301E-13-1.83500E-13
 -1      3373 2.10956E+01-3.90574E+00 6.50889E-02-4.09423E+00 3.69094E-13-1.07054E-14
 -1      3374 2.02093E+01 3.96046E-01-1.58458E-03-5.78643E-02 1.71121E-13-1.05757E-13
 -1      3375 2.01541E+01 3.55260E-01-1.36201E-03-3.82833E-02 1.42931E-13-3.72704E-14
 -1      3376 2.01917E+01 4.46877E-01 4.01953E-03 6.53341E-02 1.79142E-13-3.25225E-14
 -1      3377 8.32662E+00 5.03066E-02 1.73776E-01-2.88470E-02-2.61046E-13-8.72774E-14
 -1      3378 9.69632E+00 2.96996E-01 8.41571E-02-1.07009E+00-1.82547E-13-3.45168E-13
 -1      3379 9.18826E+00 1.04740E-01 3.77650E-02 1.06095E+00-4.46786E-13-1.73070E-13
 -1      3380 2.68508E+01 3.80725E+00-1.23891E-01-1.89341E+00 3.42143E-13-1.30673E-13
 -1      3381 2.52941E+01-2.99102E+00 5.16145E-02-1.13468E-01-2.10774E-13 1.88728E-13
 -1      3382 2.43656E+01-3.70533E+00-8.02590E-02-1.32800E+00-2.59780E-13 1.69215E-13
 -1      3383 2.72734E+01 8.29817E-01-6.91532E-02 2.52668E+00 1.97807E-13 3.96898E-13
 -1      3384 2.69823E+01-8.54015E-01-1.28044E-01 2.07911E+00 1.02229E-13 4.48034E-13
 -1      3385 2.56445E+01-2.72326E+00-1.98018E-02-3.05529E-01 7.23250E-14 4.32418E-13
 -1      3386 1.98440E+01 3.30548E-01 1.16257E-03 3.25571E-02 2.88832E-13 9.98816E-14
 -1      3387 1.98709E+01 2.99404E-01-8.11835E-04 4.63819E-02 1.61733E-13 2.57541E-13
 -1      3388 1.98803E+01 2.92735E-01-1.08067E-04 7.42882E-02 3.46690E-14 1.36338E-13
 -1      3389 2.00618E+01 1.72259E-01 1.53157E-03 2.42409E-01-1.64195E-13 4.16044E-14
 -1      3390 2.00184E+01 2.12819E-01-8.12768E-04 2.67290E-01-1.81534E-13 8.41850E-14
 -1      3391 2.00446E+01 1.66199E-01 9.55535E-04 2.18381E-01-1.87127E-13 6.20257E-14
 -1      3392 1.98940E+01 2.78317E-01-1.03528E-03 1.04703E-01-1.52797E-13-3.55202E-13
 -1      3393 1.99121E+01 2.64569E-01 1.87289E-04 1.26937E-01-1.48952E-13-4.63636E-13
 -1      3394 1.98654E+01 3.13121E-01 1.02340E-03 1.00666E-01 9.01246E-14 1.81586E-15
 -1      3395 2.00132E+01 1.66456E-01 3.69071E-04 1.75338E-01-1.33986E-13 5.83737E-15
 -1      3396 2.00245E+01 1.73372E-01 1.08779E-03 1.97297E-01-1.32313E-13-6.36806E-14
 -1      3397 1.99752E+01 1.99586E-01-1.46772E-03 1.70012E-01-1.53309E-13-5.52599E-13
 -1      3398 1.11436E+01-1.08639E+00 1.37002E-01 3.87236E+00-6.56301E-13 3.63071E-13
 -1      3399 2.13877E+01-3.75338E+00 3.80339E-02 3.68190E+00 2.15298E-13 2.40181E-13
 -1      3400 2.01280E+01-4.00751E+00 3.75877E-02 4.70818E+00 1.49179E-13-1.48045E-13
 -1      3401 1.88114E+01-3.42279E+00 4.25529E-02 4.79686E+00 2.22780E-13-2.91770E-13
 -1      3402 1.99302E+01 2.44031E-01-1.20107E-03 1.45131E-01-2.31218E-13-4.34807E-13
 -1      3403 1.99535E+01 2.25262E-01 2.89487E-04 1.58502E-01-2.19937E-13-3.25361E-13
 -1      3404 1.99512E+01 2.37765E-01 7.58915E-04 1.81522E-01-1.40539E-13-4.53925E-13
 -1      3405 1.99047E+01 2.80194E-01 1.08827E-03 1.51409E-01-2.03518E-13-4.23691E-13
 -1      3406 2.00902E+01 2.08492E+00-5.39311E-03-4.73124E-01-7.72094E-14-3.74903E-13
 -1      3407 2.02015E+01 1.76094E+00 6.15424E-03-4.22373E-01-7.82304E-14-3.33834E-13
 -1      3408 2.00638E+01 2.16716E+00-3.07189E-03-3.62988E-01-3.39014E-14-3.85795E-13
 -1      3409 1.31486E+01-1.92814E+00 1.32261E-01-4.90077E+00-3.08503E-13-4.09561E-13
 -1      3410 1.50531E+01-2.23579E+00 1.85685E-02-4.89772E+00-3.80300E-13-2.35929E-13
 -1      3411 1.26792E+01-1.14532E+00 7.53100E-02-4.14093E+00-3.10155E-13-4.07466E-13
 -1      3412 9.25703E+00-3.78257E-01 1.61700E-01 2.65043E+00 1.09818E-13-6.37032E-13
 -1      3413 9.75038E+00 8.28898E-02 8.18520E-02 1.74214E+00 2.90878E-14-6.34603E-13
 -1      3414 1.08673E+01-5.39848E-01 6.19012E-02 3.36029E+00 2.27471E-13-4.03733E-13
 -1      3415 2.01985E+01 5.30592E-01-2.26141E-03 1.62693E-01 2.08135E-13-3.80479E-14
 -1      3416 2.02482E+01 6.71665E-01 3.67013E-03 3.11757E-01 2.41977E-13-2.76525E-14
 -1      3417 2.02753E+01 8.34574E-01 9.67000E-04 3.72828E-01 2.38166E-13-6.63649E-14
 -1      3418 2.02470E+01 5.82947E-01-8.66870E-04 1.32726E-01 1.86324E-13-7.09243E-14
 -1      3419 2.01654E+01 2.68967E-01-1.43259E-03-2.07633E-01 1.40025E-13-9.40531E-14
 -1      3420 2.36087E+01-4.00279E+00 3.62012E-02-2.45005E+00-3.38295E-13 7.16475E-14
 -1      3421 2.67743E+01-1.34780E+00-6.20695E-02 1.54356E+00 6.33799E-14-5.12174E-13
 -1      3422 9.11163E+00 1.37610E-02 1.94382E-01-1.71673E+00-1.11119E-13-5.92040E-13
 -1      3423 1.05033E+01-2.86310E-01 8.47545E-02-2.66879E+00-1.92048E-13-5.38819E-13
 -1      3424 1.90591E+01-3.78599E+00-1.60869E-02-4.92555E+00-4.36276E-13-1.51087E-13
 -1      3425 2.01773E+01-3.47501E+00-6.41855E-02-4.04657E+00-4.06015E-13-1.09277E-13
 -1      3426 1.77626E+01-2.90992E+00 6.86653E-02-4.82919E+00-4.18769E-13-1.09981E-13
 -1      3427 1.66180E+01-2.43719E+00 8.82799E-02-4.82944E+00 3.21881E-13 2.81979E-13
 -1      3428 2.60842E+01-2.13280E+00-1.99187E-02 8.18835E-01 8.06525E-14-5.78662E-13
 -1      3429 1.12294E+01-1.68190E-01 7.20348E-02-2.86816E+00 1.01273E-14-3.01453E-13
 -1      3430 1.17660E+01-6.72301E-01 1.31229E-01-3.82913E+00 6.75050E-14-8.56260E-14
 -1      3431 1.37873E+01-8.64259E-01 6.26257E-02-3.91945E+00 1.70457E-13 8.05536E-14
 -1      3432 2.00656E+01 2.16067E+00-3.50273E-03 3.70619E-01 1.47099E-13-3.25928E-13
 -1      3433 2.01583E+01 1.91731E+00 6.39898E-03 2.71317E-01 1.15541E-13-3.02953E-13
 -1      3434 2.00933E+01 2.07619E+00-5.79893E-03 4.78645E-01 1.92482E-13-3.08228E-13
 -1      3435 2.01167E+01 2.20204E+00-5.88027E-03-1.09422E+00-2.02053E-13-3.56684E-13
 -1      3436 2.01888E+01 2.00768E+00-1.06029E-02-1.17522E+00-2.40440E-13-3.14295E-13
 -1      3437 2.01669E+01 1.84373E+00-6.79334E-03 6.54625E-01 2.47606E-13-2.25939E-13
 -1      3438 2.01295E+01 1.97669E+00-2.95658E-03 5.62074E-01 2.14273E-13-2.77040E-13
 -1      3439 2.02098E+01 1.75464E+00 7.84554E-03 4.31080E-01 1.86202E-13-2.69483E-13
 -1      3440 2.02611E+01 1.50913E+00 7.04840E-03 5.50870E-01 2.34343E-13-1.76031E-13
 -1      3441 2.02674E+01 1.61469E+00 2.72791E-03-9.59530E-01-2.39403E-13-2.70518E-13
 -1      3442 1.38087E+01-2.27276E+00 1.44122E-01 5.37266E+00 2.97838E-13-4.58911E-13
 -1      3443 1.28523E+01-1.47665E+00 8.79411E-02 4.63469E+00 2.58314E-13-4.06924E-13
 -1      3444 1.58842E+01-2.64143E+00 5.47184E-02 5.15816E+00 2.62151E-13-4.71893E-13
 -1      3445 2.39412E+01-3.98826E+00 1.30252E-02 2.17503E+00 1.99177E-13 2.72586E-13
 -1      3446 2.23054E+01-3.91625E+00 3.81096E-02 3.26868E+00-2.95743E-13 1.60627E-14
 -1      3447 2.53409E+01-2.18347E+00-4.34229E-02-8.92950E-01 8.26318E-14 4.88486E-13
 -1      3448 9.38121E+00 2.18613E-01 1.00408E-01-4.93629E-01-8.47447E-14-6.12080E-13
 -1      3449 2.01848E+01 1.94904E+00 5.66414E-03-8.87794E-01-1.91898E-13-3.58358E-13
 -1      3450 2.44673E+01-3.70256E+00 7.80672E-02 1.65274E+00-1.86815E-13-1.80258E-13
 -1      3451 2.52506E+01-3.74652E+00-2.68818E-02 9.08340E-01-1.42613E-13-1.24675E-13
 -1      3452 1.99645E+01 2.39906E-01 1.02611E-03-2.30638E-01 1.44971E-13-1.70132E-14
 -1      3453 1.99618E+01 2.29567E-01 1.41908E-04-2.09373E-01 6.08541E-14-5.18098E-14
 -1      3454 1.99281E+01 2.55109E-01-1.13670E-03-1.98987E-01 3.52585E-14-1.49012E-13
 -1      3455 2.01152E+01 2.19282E-01 7.06700E-04-4.12363E-01 6.74089E-14-1.45527E-13
 -1      3456 2.01291E+01 2.21524E-01 1.74534E-04-3.68143E-01 5.81992E-14-1.31475E-13
 -1      3457 2.02727E+01 4.43460E-01 1.74365E-03 9.27523E-02-1.12328E-13-1.37216E-13
 -1      3458 2.02471E+01 3.69193E-01-1.12070E-03 1.64918E-01-9.43657E-14-1.01376E-13
 -1      3459 2.02240E+01 3.15143E-01 1.11535E-03 2.20290E-01-8.81569E-14-8.60458E-14
 -1      3460 2.01999E+01 2.75712E-01-2.86844E-04 2.75150E-01-9.79991E-14-8.03593E-14
 -1      3461 2.02642E+01 3.97343E-01 3.07160E-05 1.71439E-01-8.03290E-14-1.13187E-13
 -1      3462 2.01687E+01 2.50814E-01 3.85363E-04 3.19574E-01-8.20117E-14-7.52114E-15
 -1      3463 2.01474E+01 2.37236E-01 3.54359E-04 3.64777E-01-2.91894E-14 1.05640E-14
 -1      3464 2.02062E+01 3.06798E-01-5.92013E-05 2.73783E-01-6.12139E-14-4.95039E-14
 -1      3465 2.01103E+01 2.33633E-01-2.88777E-04 4.04274E-01-3.22838E-14-3.07306E-15
 -1      3466 2.00916E+01 2.38854E-01 8.35976E-04 4.46094E-01-1.06763E-14-3.44132E-14
 -1      3467 2.01375E+01 2.73409E-01 7.74176E-06 3.59642E-01-3.65954E-14 8.74741E-15
 -1      3468 2.00496E+01 2.50292E-01-8.80468E-04 4.85769E-01-2.78094E-14-9.94421E-14
 -1      3469 2.00331E+01 2.68366E-01 1.20848E-03 5.29090E-01-8.21039E-14-6.60877E-14
 -1      3470 2.00604E+01 2.81894E-01 1.68803E-04 4.39958E-01-7.75852E-14-4.41933E-14
 -1      3471 1.99863E+01 2.89259E-01-1.37437E-03 5.73082E-01-9.31154E-14-9.05812E-14
 -1      3472 1.99717E+01 3.14506E-01 1.52482E-03 6.21468E-01-2.01689E-14-9.11419E-14
 -1      3473 1.99754E+01 3.19197E-01 3.66186E-04 5.23938E-01-8.67415E-14-3.42890E-14
 -1      3474 1.99205E+01 3.39116E-01-1.75779E-03 6.73018E-01-2.73808E-14-9.02837E-14
 -1      3475 1.99082E+01 3.65341E-01 1.84680E-03 7.28819E-01-4.85249E-14-7.89842E-14
 -1      3476 1.98824E+01 3.72867E-01 5.46483E-04 6.19010E-01-3.53850E-14-7.52199E-14
 -1      3477 1.98533E+01 3.86983E-01-2.00648E-03 7.90458E-01-5.42511E-14-9.23722E-14
 -1      3478 1.98451E+01 4.06612E-01 2.25149E-03 8.54907E-01-2.73605E-14-8.58193E-14
 -1      3479 1.97819E+01 4.29494E-01 6.40031E-04 7.31094E-01-4.61344E-14-1.24396E-13
 -1      3480 1.97889E+01 4.16698E-01-2.06033E-03 9.28708E-01 1.13814E-14-9.22059E-14
 -1      3481 1.97891E+01 4.19734E-01 2.83544E-03 1.00193E+00 1.05805E-14-2.94253E-14
 -1      3482 1.96762E+01 4.72878E-01 5.21694E-04 8.65183E-01-4.90452E-16-1.48325E-13
 -1      3483 1.97366E+01 4.06749E-01-1.79738E-03 1.08961E+00-3.34085E-14 1.07812E-14
 -1      3484 1.97534E+01 3.79794E-01 3.72373E-03 1.17042E+00-3.16853E-15-1.06623E-14
 -1      3485 1.95717E+01 4.81888E-01 1.28916E-06 1.02591E+00 9.60863E-15-8.84968E-14
 -1      3486 1.97147E+01 3.28487E-01-1.00168E-03 1.27331E+00 5.09597E-15 5.60146E-15
 -1      3487 1.97621E+01 2.54018E-01 5.06165E-03 1.35867E+00 3.84846E-14 4.18436E-14
 -1      3488 1.94819E+01 4.28340E-01-1.21689E-03 1.21784E+00 4.09576E-14-1.66934E-14
 -1      3489 1.97554E+01 1.45025E-01 7.66180E-04 1.47723E+00 3.39305E-14 8.93242E-14
 -1      3490 1.98561E+01 9.89811E-04 6.85690E-03 1.56085E+00 3.84021E-14 1.32434E-13
 -1      3491 1.94321E+01 2.75118E-01-3.59887E-03 1.44548E+00 6.47975E-14 7.02366E-14
 -1      3492 1.99130E+01-1.88448E-01 4.32624E-03 1.69231E+00 3.14605E-14 1.23785E-13
 -1      3493 2.00996E+01-4.27418E-01 8.47880E-03 1.76086E+00 3.34829E-14 1.09459E-13
 -1      3494 1.94669E+01-2.57803E-02-7.96628E-03 1.71161E+00 5.70036E-14 3.45753E-14
 -1      3495 2.02741E+01-7.19130E-01 1.10545E-02 1.89017E+00 7.04927E-14 1.82328E-13
 -1      3496 2.05848E+01-1.07100E+00 8.55950E-03 1.91460E+00 1.34735E-13 2.61367E-13
 -1      3497 1.96625E+01-5.34454E-01-1.59652E-02 2.00773E+00 1.29315E-13 1.94183E-13
 -1      3498 2.09599E+01-1.46452E+00 2.49224E-02 1.99870E+00 1.90701E-13 3.21328E-13
 -1      3499 2.14266E+01-1.91843E+00 6.05622E-03 1.92570E+00 2.53459E-13 3.99335E-13
 -1      3500 2.01452E+01-1.30329E+00-2.65964E-02 2.29370E+00 1.96206E-13 3.48885E-13
 -1      3501 2.20979E+01-2.37779E+00 3.79888E-02 1.87298E+00 2.69263E-13 4.18941E-13
 -1      3502 2.27392E+01-2.80849E+00 1.51430E-03 1.60875E+00 2.61288E-13 4.27204E-13
 -1      3503 2.10833E+01-2.28752E+00-2.76566E-02 2.43878E+00 2.82956E-13 3.65241E-13
 -1      3504 2.52653E+01-2.98568E+00 5.67244E-02 1.45464E-01 2.24211E-13 4.63244E-13
 -1      3505 1.98470E+01 3.26889E-01 2.56545E-04-1.36198E-01 7.09569E-14-3.95576E-13
 -1      3506 1.98257E+01 3.40662E-01-1.07716E-03-1.04675E-01 8.06211E-14-3.96477E-13
 -1      3507 2.03111E+01 9.88880E-01 1.18494E-03-3.07160E-01-9.66306E-14-2.83042E-13
 -1      3508 2.02997E+01 8.08271E-01-2.72693E-03-1.72854E-01-1.05632E-13-2.40785E-13
 -1      3509 1.99085E+01-3.15243E+00 6.02997E-02-4.06706E+00 2.29262E-13 8.49841E-15
 -1      3510 2.18454E+01-3.65105E+00-7.95563E-03-3.20317E+00 2.71620E-13-7.15357E-14
 -1      3511 2.25743E+01-2.67893E+00 6.38967E-03-1.64521E+00 9.83671E-14-3.33681E-13
 -1      3512 2.19166E+01-2.22463E+00 3.66983E-02-1.90452E+00 1.32160E-13-2.95721E-13
 -1      3513 2.12959E+01-1.75926E+00 1.21560E-02-1.92195E+00 5.31944E-14-3.13386E-13
 -1      3514 2.08332E+01-1.32137E+00 2.23683E-02-1.97280E+00 4.02574E-14-3.10290E-13
 -1      3515 2.09379E+01-2.08841E+00-1.63998E-02-2.38310E+00 1.02173E-13-4.02376E-13
 -1      3516 2.04935E+01-9.37838E-01 9.77228E-03-1.87244E+00 6.48843E-14-2.51902E-13
 -1      3517 2.01986E+01-5.98022E-01 1.01914E-02-1.83523E+00 3.52927E-14-1.56774E-13
 -1      3518 2.00363E+01-1.14087E+00-2.50521E-02-2.23323E+00 1.08853E-13-3.25312E-13
 -1      3519 2.00441E+01-3.18767E-01 8.56827E-03-1.69862E+00-5.28668E-15-7.76958E-14
 -1      3520 1.98708E+01-9.16217E-02 3.71180E-03-1.62192E+00-8.01416E-14 5.79304E-14
 -1      3521 1.96078E+01-4.07861E-01-1.36409E-02-1.93335E+00 8.36046E-14-2.38649E-13
 -1      3522 1.98219E+01 8.90706E-02 6.42032E-03-1.48696E+00-2.76594E-13 7.90521E-14
 -1      3523 1.97292E+01 2.26045E-01 4.75375E-04-1.39638E+00-3.20942E-13-2.71416E-14
 -1      3524 1.94354E+01 7.34242E-02-7.03768E-03-1.63128E+00-2.02167E-13-1.23898E-13
 -1      3525 1.97373E+01 3.29865E-01 4.64411E-03-1.27382E+00-2.91605E-13 8.72389E-14
 -1      3526 1.96933E+01 4.00792E-01-1.12188E-03-1.18160E+00-1.69481E-13 1.03320E-13
 -1      3527 1.94079E+01 3.59547E-01-3.02764E-03-1.35964E+00-2.15767E-13 2.05929E-13
 -1      3528 1.97288E+01 4.49900E-01 3.32486E-03-1.07386E+00-1.86526E-15 1.90989E-13
 -1      3529 1.97123E+01 4.75952E-01-1.83351E-03-9.85857E-01 1.94059E-14 1.42256E-13
 -1      3530 1.94551E+01 5.05661E-01-7.89300E-04-1.12432E+00-3.78356E-14 2.45874E-13
 -1      3531 1.97580E+01 4.88831E-01 2.44147E-03-8.92443E-01-1.00360E-13 2.45048E-13
 -1      3532 1.97555E+01 4.86434E-01-2.06891E-03-8.11597E-01-6.35061E-14 2.28258E-13
 -1      3533 1.95349E+01 5.57463E-01 3.50792E-04-9.22686E-01 7.82381E-16 4.72326E-13
 -1      3534 1.98022E+01 4.77090E-01 1.87268E-03-7.31364E-01-5.33601E-15 1.72527E-13
 -1      3535 1.98058E+01 4.58228E-01-2.04410E-03-6.59167E-01 8.27899E-14-3.35389E-14
 -1      3536 1.96234E+01 5.49684E-01 8.67913E-04-7.50542E-01-1.87183E-14 4.68156E-13
 -1      3537 1.98486E+01 4.36693E-01 1.49798E-03-5.90937E-01 1.96816E-13-5.18045E-14
 -1      3538 1.98540E+01 4.09679E-01-1.88535E-03-5.27969E-01 1.34337E-13 1.45334E-13
 -1      3539 1.97078E+01 5.07381E-01 1.03712E-03-6.04250E-01 1.75464E-13 1.42499E-13
 -1      3540 1.98908E+01 3.82907E-01 1.25021E-03-4.70740E-01 1.03582E-13 8.88452E-14
 -1      3541 1.98959E+01 3.53438E-01-1.66066E-03-4.16893E-01 1.69110E-13 1.00923E-13
 -1      3542 1.97821E+01 4.48043E-01 1.05858E-03-4.80969E-01 8.79209E-14 1.61560E-13
 -1      3543 1.99262E+01 3.25870E-01 1.07536E-03-3.69336E-01 1.13406E-13 1.30892E-13
 -1      3544 1.99300E+01 2.97429E-01-1.43611E-03-3.24620E-01 8.70894E-14 1.56599E-13
 -1      3545 1.98441E+01 3.83024E-01 8.38992E-04-3.78205E-01 2.15104E-13 1.57523E-13
 -1      3546 1.99479E+01 2.80619E-01 1.18220E-03-2.93485E-01 1.21144E-13 1.67777E-13
 -1      3547 1.99518E+01 2.55929E-01-3.11343E-04-2.56464E-01 1.86389E-13 1.66663E-13
 -1      3548 1.99110E+01 2.88935E-01 1.82260E-04-2.44863E-01 4.35163E-14 4.66634E-14
 -1      3549 1.98834E+01 3.31087E-01 6.11425E-04-3.01432E-01 1.74282E-13 3.77234E-13
 -1      3550 1.99058E+01 4.28833E-01 1.93914E-03-8.12167E-01 9.83629E-14-8.65259E-14
 -1      3551 1.99142E+01 3.89474E-01-2.41386E-03-7.47004E-01 7.75530E-14-8.29576E-14
 -1      3552 1.96688E+01 5.62039E-01 3.78333E-03-1.32868E+00-8.69785E-14-3.16058E-14
 -1      3553 1.96685E+01 5.63845E-01-3.53083E-03-1.22854E+00-2.96997E-14-7.00632E-14
 -1      3554 1.96040E+01 4.86164E-01 5.51753E-03-1.55814E+00-1.23069E-13-4.80472E-14
 -1      3555 1.95823E+01 5.35108E-01-3.41297E-03-1.44760E+00-9.00886E-14-1.53476E-14
 -1      3556 1.93087E+01 6.44217E-01 1.48899E-03-1.35402E+00-1.04473E-13 5.40914E-14
 -1      3557 1.95975E+01 2.71931E-01 8.31181E-03-1.81984E+00-1.01722E-13-8.57999E-14
 -1      3558 1.95284E+01 3.97770E-01-2.55650E-03-1.70170E+00-1.11678E-13-9.94436E-14
 -1      3559 1.91487E+01 5.46838E-01-2.96212E-04-1.61462E+00-4.03250E-14-3.36475E-15
 -1      3560 1.97260E+01-1.52751E-01 1.34395E-02-2.11190E+00-1.46113E-13-1.67761E-13
 -1      3561 1.95627E+01 8.84861E-02 1.09826E-04-1.99362E+00-1.09523E-13-1.13901E-13
 -1      3562 1.90306E+01 2.89858E-01-4.35189E-03-1.93828E+00-8.79435E-14-1.22664E-13
 -1      3563 2.01102E+01-8.88658E-01 1.68396E-02-2.42167E+00-1.36017E-13-1.36550E-13
 -1      3564 1.97868E+01-4.71950E-01 8.26892E-03-2.32507E+00-1.30170E-13-1.18356E-13
 -1      3565 1.90242E+01-2.07999E-01-1.22936E-02-2.34386E+00-1.44665E-13-1.49924E-13
 -1      3566 2.10076E+01-1.98518E+00 2.86579E-02-2.58800E+00-2.71574E-13-6.22887E-14
 -1      3567 2.04336E+01-1.41633E+00 2.81599E-02-2.62874E+00-2.16318E-13-1.09351E-13
 -1      3568 1.92947E+01-1.14615E+00-4.03870E-02-2.86759E+00-2.06758E-13-1.31513E-13
 -1      3569 1.98914E+01-6.25434E-01 1.10059E-02 2.36653E+00-1.39688E-13 3.55103E-13
 -1      3570 2.02594E+01-1.07489E+00 1.88073E-02 2.44989E+00-1.63120E-13 3.66377E-13
 -1      3571 2.29537E+01-3.69136E+00 9.41381E-03-2.59492E+00-3.00981E-13 2.30484E-14
 -1      3572 2.06190E+01-1.60942E+00 3.16727E-02 2.64511E+00-2.54631E-13 1.70438E-13
 -1      3573 2.12103E+01-2.24776E+00 1.06582E-02 2.62861E+00-2.70497E-13 3.63997E-14
 -1      3574 1.94570E+01-1.29768E+00-1.40852E-02 2.94124E+00-3.27654E-13 4.53068E-13
 -1      3575 2.21948E+01-2.77917E+00 6.38044E-02 2.51379E+00-3.12474E-13-1.04565E-13
 -1      3576 2.30509E+01-3.43883E+00-5.89725E-03 2.22443E+00-2.53145E-13-1.85142E-13
 -1      3577 2.28100E+01-3.78867E+00-5.00702E-02 2.65672E+00-1.94849E-13-1.15918E-13
 -1      3578 2.06162E+01-2.56085E+00-2.88536E-02 3.15951E+00-3.19194E-13 4.11407E-14
 -1      3579 1.95917E+01 1.61679E-02 1.65060E-03 2.03132E+00 2.91143E-14 8.00310E-14
 -1      3580 1.97843E+01-2.62134E-01 1.42700E-02 2.15054E+00 3.49655E-15 2.47075E-13
 -1      3581 1.90563E+01-3.46435E-01-1.46728E-02 2.42428E+00-8.47745E-14 3.95994E-13
 -1      3582 1.95217E+01 3.82866E-01-1.79656E-03 1.72014E+00-1.07117E-14-1.62773E-13
 -1      3583 1.96073E+01 2.30662E-01 9.28172E-03 1.84463E+00-8.56162E-15-8.94492E-14
 -1      3584 1.90065E+01 2.37504E-01-5.36425E-03 1.98765E+00 1.08781E-13 1.49831E-13
 -1      3585 1.95585E+01 5.60468E-01-3.08465E-03 1.44494E+00-1.90090E-13-8.54283E-14
 -1      3586 1.95882E+01 4.93147E-01 5.99285E-03 1.56416E+00-1.33169E-13-1.00108E-13
 -1      3587 1.91017E+01 5.50004E-01-6.00041E-04 1.63578E+00-6.82997E-14 6.38974E-14
 -1      3588 1.96360E+01 6.17130E-01-3.38805E-03 1.20372E+00-3.71923E-13 1.86518E-13
 -1      3589 1.96401E+01 6.02637E-01 3.90218E-03 1.31406E+00-3.00098E-13 3.85451E-14
 -1      3590 1.92503E+01 6.85863E-01 1.48424E-03 1.34986E+00-3.42597E-13 1.44868E-13
 -1      3591 1.97207E+01 6.02131E-01-3.25776E-03 9.92669E-01-2.13445E-13 2.71710E-13
 -1      3592 1.97153E+01 6.18068E-01 2.71082E-03 1.09258E+00-2.12245E-13 2.45697E-13
 -1      3593 1.94060E+01 7.12312E-01 2.18788E-03 1.11256E+00-3.51313E-13 8.89295E-14
 -1      3594 1.97973E+01 5.48749E-01-2.94209E-03 8.09035E-01-1.63446E-13 2.74161E-13
 -1      3595 1.97903E+01 5.80271E-01 2.06308E-03 8.97675E-01-1.24123E-13 2.31853E-13
 -1      3596 1.95475E+01 6.75625E-01 2.23097E-03 9.11828E-01-1.75677E-13 3.67215E-14
 -1      3597 1.98602E+01 4.78459E-01-2.55517E-03 6.50895E-01-1.34106E-13 1.59133E-13
 -1      3598 1.98549E+01 5.16122E-01 1.69550E-03 7.27993E-01-1.78688E-13 1.27837E-13
 -1      3599 1.96667E+01 6.06325E-01 1.98165E-03 7.40634E-01-1.23230E-13 1.20427E-13
 -1      3600 1.99089E+01 4.04442E-01-2.15938E-03 5.16504E-01-1.28740E-13 5.50536E-14
 -1      3601 1.99060E+01 4.42535E-01 1.46177E-03 5.82298E-01-1.62635E-13 3.26356E-14
 -1      3602 1.97624E+01 5.23965E-01 1.62641E-03 5.94855E-01-6.78848E-14 7.07679E-14
 -1      3603 1.99448E+01 3.34531E-01-1.70901E-03 4.04023E-01-7.49774E-14 3.97658E-13
 -1      3604 1.99443E+01 3.69628E-01 1.29170E-03 4.59131E-01-9.84894E-15 2.29943E-13
 -1      3605 1.98366E+01 4.40542E-01 1.27317E-03 4.71718E-01-2.45933E-13-2.73454E-14
 -1      3606 1.99698E+01 2.72743E-01-1.41260E-03 3.11980E-01-6.08204E-14 1.70869E-13
 -1      3607 1.99714E+01 3.02605E-01 1.02779E-03 3.56258E-01-5.78882E-14 2.69912E-13
 -1      3608 1.98922E+01 3.63188E-01 9.76821E-04 3.68814E-01 3.30840E-15 3.34880E-13
 -1      3609 1.98111E+01 3.54910E-01-1.80781E-04-6.37088E-02 1.74782E-13-1.58107E-13
 -1      3610 1.98030E+01 3.60263E-01-7.91680E-04-2.69651E-02 3.03387E-13-1.27345E-13
 -1      3611 1.97884E+01 3.81099E-01 1.09260E-03-9.48545E-02-4.65321E-14-3.61583E-13
 -1      3612 1.97516E+01 5.54408E-01 2.79811E-03-1.12932E+00-7.69949E-15-1.19833E-13
 -1      3613 1.97591E+01 5.29962E-01-3.30484E-03-1.04076E+00-1.12801E-14-1.15241E-13
 -1      3614 1.94717E+01 6.44116E-01 2.01028E-03-1.14054E+00-5.38370E-14-6.03597E-14
 -1      3615 1.98331E+01 5.01449E-01 2.26085E-03-9.57843E-01-3.09662E-15-1.15188E-13
 -1      3616 1.98421E+01 4.64835E-01-2.90728E-03-8.81225E-01 4.80286E-14-1.28226E-13
 -1      3617 1.97495E+01 5.09961E-01 1.55675E-03-8.15125E-01 9.01001E-14-8.19764E-14
 -1      3618 1.96205E+01 5.89622E-01 1.90928E-03-9.63215E-01-1.84015E-14-1.44454E-13
 -1      3619 1.99682E+01 3.53728E-01 1.69315E-03-6.89565E-01 8.95244E-14-8.51438E-14
 -1      3620 1.99760E+01 3.18020E-01-1.86083E-03-6.34426E-01 9.77819E-14-6.51618E-14
 -1      3621 1.98592E+01 4.24901E-01 1.11230E-03-6.91245E-01 1.22729E-13-1.00387E-13
 -1      3622 2.55199E+01-2.96116E+00-3.27338E-02 1.42563E-01 2.12933E-13-4.85794E-13
 -1      3623 2.00284E+01 2.26333E+00-3.36303E-03-1.53419E-01 2.45781E-14-3.93931E-13
 -1      3624 2.00416E+01 2.22389E+00-4.51607E-03-2.69853E-01-7.66035E-15-3.97365E-13
 -1      3625 2.01553E+01 1.92098E+00 5.94540E-03-2.64481E-01-1.55454E-14-3.68035E-13
 -1      3626 2.02026E+01 2.96033E-01-6.31532E-04-2.20658E-01 1.45210E-13-1.08703E-13
 -1      3627 2.02269E+01 3.50787E-01 2.00638E-03-1.54578E-01 1.49404E-13-9.33003E-14
 -1      3628 1.15257E+01 7.86956E-02 4.85152E-02-2.34273E+00-1.82684E-13-4.03032E-13
 -1      3629 1.19700E+01-3.91696E-01 1.27171E-01-3.37730E+00-2.77438E-13-4.25229E-13
 -1      3630 1.35862E+01-7.15109E-01 6.35671E-02-3.60993E+00-2.85490E-13-3.43336E-13
 -1      3631 1.27591E+01-1.08048E+00 2.97465E-02 4.08143E+00-4.79679E-13 5.55597E-13
 -1      3632 1.05872E+01-1.35545E-01 1.71072E-01 2.81983E+00-5.37067E-13 2.14467E-13
 -1      3633 2.01591E+01 2.33942E-01 1.33594E-04-3.24676E-01 8.17830E-14-1.20736E-13
 -1      3634 2.01778E+01 2.58692E-01 1.01894E-03-2.73450E-01 1.24272E-13-8.86566E-14
 -1      3635 2.01673E+01 2.69172E-01-2.66984E-04-3.26198E-01 8.64469E-14-1.56986E-13
 -1      3636 2.03063E+01 6.58736E-01 1.94166E-03-7.80058E-02-1.10322E-13-1.95717E-13
 -1      3637 2.02841E+01 5.37780E-01-1.97092E-03 2.02981E-02-1.06859E-13-1.74567E-13
 -1      3638 2.03210E+01 8.31570E-01 9.32729E-04-1.30140E-01-8.85151E-14-2.54222E-13
 -1      3639 1.62623E+01-1.56496E+00 4.47016E-02-4.19002E+00 2.32354E-13 3.72157E-13
 -1      3640 1.81308E+01-2.59573E+00-8.36105E-03-4.40988E+00 2.52211E-13 2.22149E-13
 -1      3641 1.94686E+01-2.33919E+00 5.41289E-02-3.59116E+00 1.93296E-13 1.10855E-13
 -1      3642 2.43347E+01-3.71333E+00-6.56647E-02 1.31847E+00 2.37761E-13 4.22848E-13
 -1      3643 2.30933E+01-3.77154E+00 3.89195E-02 2.53551E+00 2.37233E-13 3.23367E-13
 -1      3644 2.43980E+01-3.16031E+00-1.80429E-02 6.49731E-01 2.93145E-13 4.59410E-13
 -1      3645 2.02998E+01 9.72668E-01 1.11366E-03 4.18263E-01 2.28806E-13-1.11898E-13
 -1      3646 2.02875E+01 1.14703E+00-1.79477E-03 4.54503E-01 2.29060E-13-1.31498E-13
 -1      3647 2.02815E+01 8.21299E-01-1.94924E-03 2.79140E-01 2.09924E-13-1.00264E-13
 -1      3648 1.00013E+01 5.00608E-01 1.55049E-01 5.55382E-01-4.72252E-14-6.74849E-13
 -1      3649 1.06186E+01 4.74161E-01 5.07068E-02-6.20439E-01-1.11193E-13-5.17739E-13
 -1      3650 1.09753E+01 3.76959E-01 6.45807E-02 1.37546E+00-1.25672E-14-5.39770E-13
 -1      3651 2.10026E+01-3.27671E+00 7.35470E-02 3.65766E+00-3.44792E-13 1.06123E-13
 -1      3652 2.42411E+01-3.50408E+00 8.38004E-03-1.29640E+00 1.88168E-13-4.72027E-13
 -1      3653 2.34063E+01-3.36993E+00 2.61083E-02-1.77186E+00 1.26505E-13-4.35161E-13
 -1      3654 2.19239E+01-3.02281E+00 1.23962E-02-2.83541E+00-3.27068E-13-4.32555E-14
 -1      3655 2.04345E+01-2.60233E+00 4.50040E-02-3.42182E+00-3.13239E-13-1.21802E-13
 -1      3656 1.65928E+01-1.66685E+00 1.21225E-02 4.12360E+00-4.82005E-13 5.61225E-13
 -1      3657 1.48777E+01-1.34694E+00 1.13287E-01 4.33025E+00-4.89112E-13 3.97252E-13
 -1      3658 1.38804E+01-5.49858E-01 2.77364E-02 3.50497E+00-4.05103E-13 4.22815E-13
 -1      3659 2.02363E+01 1.63197E+00-1.74755E-03-8.29564E-01-2.07924E-13-3.22670E-13
 -1      3660 2.00806E+01 2.25556E-01-5.79542E-04-4.52730E-01 5.75166E-14-1.55219E-13
 -1      3661 2.01035E+01 2.60651E-01-4.21549E-05-4.12221E-01 6.43866E-14-1.85805E-13
 -1      3662 2.00702E+01 2.40320E-01 1.12892E-03-4.96202E-01 5.74703E-14-1.22055E-13
 -1      3663 2.02711E+01 1.28582E+00-2.02611E-03 4.18582E-01 2.11618E-13-1.73110E-13
 -1      3664 2.26741E+01-3.19492E+00-1.01622E-02 2.06546E+00 2.90287E-13 3.58331E-13
 -1      3665 2.36943E+01-3.05644E+00 4.43440E-02 1.20460E+00 2.69753E-13 4.47104E-13
 -1      3666 2.02672E+01 1.30088E+00-2.30560E-03-4.43838E-01-1.08197E-13-3.14385E-13
 -1      3667 2.02755E+01 1.30627E+00-3.23154E-04-3.63058E-01-8.49808E-14-3.14006E-13
 -1      3668 2.01303E+01 1.99763E+00 5.36913E-03-8.83875E-02 3.13787E-14-3.66206E-13
 -1      3669 2.02436E+01 4.22297E-01-1.43550E-03-8.46636E-02 1.60883E-13-1.08478E-13
 -1      3670 2.02720E+01 5.16868E-01 2.68055E-03 5.74452E-03 1.65159E-13-1.25787E-13
 -1      3671 2.02714E+01 4.54367E-01-2.55076E-04-1.00819E-01 1.62547E-13-1.05866E-13
 -1      3672 1.10896E+01 2.67481E-01 1.19714E-01 1.61795E+00-3.44709E-13-1.71668E-14
 -1      3673 1.98020E+01 3.62200E-01-6.70842E-04 1.73894E-02 2.75695E-13 1.62182E-13
 -1      3674 1.98081E+01 3.58688E-01-3.84417E-04 5.46722E-02 1.23385E-13 4.44915E-13
 -1      3675 1.97704E+01 3.96536E-01 1.32394E-03-6.09571E-03 1.24769E-13 6.09696E-14
 -1      3676 1.99772E+01 2.59954E-01 1.19546E-03 2.78587E-01-3.07770E-14-5.99820E-14
 -1      3677 1.99182E+01 3.10401E-01 8.54565E-04 2.88857E-01 1.89738E-13-1.79212E-13
 -1      3678 1.99685E+01 2.45671E-01-3.73903E-04 2.47541E-01-3.88774E-14-1.13795E-13
 -1      3679 1.98213E+01 3.47982E-01-9.81809E-04 9.70913E-02 3.00966E-13 2.14437E-13
 -1      3680 1.98408E+01 3.35453E-01-2.73451E-05 1.29978E-01 2.01212E-13-1.23208E-13
 -1      3681 1.97839E+01 3.88496E-01 1.29581E-03 8.40240E-02 2.82438E-13 1.06851E-13
 -1      3682 1.98633E+01 3.14912E-01-1.29567E-03 1.58722E-01 1.71836E-13-1.52442E-13
 -1      3683 1.98886E+01 2.98763E-01 4.51406E-04 1.77836E-01 1.60143E-14-2.63090E-13
 -1      3684 1.98264E+01 3.58555E-01 1.33636E-03 1.58008E-01 4.08136E-13-4.02286E-15
 -1      3685 1.47785E+01-6.23475E-01 2.24790E-02-3.50013E+00 7.59341E-14 3.95170E-15
 -1      3686 1.55764E+01-1.15155E+00 4.59925E-02-4.01733E+00 1.95836E-13 3.12975E-13
 -1      3687 1.70525E+01-1.25562E+00 8.78277E-03-3.65232E+00 6.45595E-14 4.40372E-13
 -1      3688 1.25068E+01-7.79266E-01 1.28963E-01 3.95297E+00 1.89841E-13-3.64209E-13
 -1      3689 1.23245E+01-2.88442E-01 4.64890E-02 3.17896E+00 1.74985E-13-4.23175E-13
 -1      3690 1.41760E+01-1.24010E+00 3.29048E-02 4.24454E+00 1.70020E-13-4.27047E-13
 -1      3691 2.02458E+01 1.58310E+00 4.33364E-03-6.07575E-01-1.28006E-13-3.35484E-13
 -1      3692 1.11223E+01 5.20856E-01 7.70897E-03-1.06489E+00-2.13999E-13-4.67862E-13
 -1      3693 1.11260E+01 3.16594E-01 1.23065E-01-2.06650E+00-1.01408E-13-3.56160E-13
 -1      3694 1.26974E+01 1.19708E-01 3.82726E-02-2.62007E+00 7.37006E-14-4.47024E-13
 -1      3695 1.68987E+01-2.31628E+00 6.12200E-03-4.46000E+00-3.88731E-13-1.14034E-13
 -1      3696 1.92984E+01-2.92673E+00 3.72636E-02 4.14628E+00 3.33379E-13-1.86040E-13
 -1      3697 1.77590E+01-2.84761E+00 7.17829E-02 4.84883E+00 2.62904E-13-4.68132E-13
 -1      3698 1.65150E+01-2.14093E+00 3.28229E-02 4.58192E+00 2.37126E-13-4.11851E-13
 -1      3699 2.01887E+01 1.72383E+00-3.36913E-03 1.18237E-01 9.15365E-14-3.13625E-13
 -1      3700 2.01830E+01 1.74462E+00-2.99895E-03 3.49165E-02 6.22773E-14-3.41857E-13
 -1      3701 1.15128E+01 5.42037E-01 1.17058E-01-1.45804E+00-1.82736E-13-4.00513E-13
 -1      3702 1.26063E+01 3.08557E-01 5.79109E-02-2.10464E+00-2.43408E-13-2.97845E-13
 -1      3703 1.16539E+01 6.77676E-01 3.01100E-02-5.50041E-01-1.45467E-13-4.76501E-13
 -1      3704 2.01924E+01 1.78830E+00-2.85654E-03-7.67938E-01-1.68440E-13-3.68025E-13
 -1      3705 2.03060E+01 5.63594E-01 2.16160E-04 4.05191E-02-9.10375E-14-1.82563E-13
 -1      3706 2.00221E+01 2.87893E-01 1.44237E-03-5.86087E-01 6.99718E-14-1.07332E-13
 -1      3707 2.00305E+01 2.60570E-01-1.25321E-03-5.38550E-01 7.21018E-14-1.29770E-13
 -1      3708 1.99523E+01 3.48217E-01 6.72824E-04-5.86737E-01 7.95116E-14-7.06179E-14
 -1      3709 2.02243E+01 3.28197E-01-3.30763E-04-2.26825E-01 1.20275E-13-1.49359E-13
 -1      3710 2.03763E+01-2.68429E+00 3.21861E-02 3.46726E+00-2.81161E-13 1.97967E-13
 -1      3711 1.94360E+01-2.84936E+00-3.03227E-03 4.04316E+00-3.54754E-13 3.73084E-13
 -1      3712 1.84961E+01-2.23467E+00 7.47880E-02 4.05337E+00-3.95925E-13 5.67449E-13
 -1      3713 1.95573E+01-1.97822E+00 6.05948E-02 3.47417E+00-4.04950E-13 3.72313E-13
 -1      3714 2.02140E+01 1.62271E+00-4.85539E-03 2.58574E-01 1.40489E-13-2.79440E-13
 -1      3715 2.01987E+01 1.68640E+00-2.80590E-03 1.80462E-01 1.12821E-13-2.85663E-13
 -1      3716 2.02676E+01 1.48229E+00 5.66134E-03 1.14592E-01 1.16606E-13-2.69005E-13
 -1      3717 2.02430E+01 1.49709E+00-1.29037E-03-2.66213E-01-5.57370E-14-3.20166E-13
 -1      3718 2.02622E+01 1.39520E+00-3.86461E-03-3.27066E-01-7.39612E-14-3.18425E-13
 -1      3719 2.03144E+01 1.09788E+00 2.48610E-03-2.05638E-01-8.14658E-14-2.97333E-13
 -1      3720 1.98992E+01 2.82851E-01 1.01437E-04-1.82551E-01-7.77380E-14-1.68965E-13
 -1      3721 1.98709E+01 3.03002E-01-1.18844E-03-1.60301E-01-7.86929E-14-3.89624E-13
 -1      3722 1.98348E+01 3.44878E-01 1.16552E-03-1.62655E-01-5.70022E-14-5.80320E-13
 -1      3723 1.98897E+01 2.96580E-01-7.37262E-05-2.03022E-01-8.71097E-14-1.82350E-14
 -1      3724 2.20835E+01-3.46385E+00 3.71287E-03 2.90348E+00 2.56807E-13 3.96957E-13
 -1      3725 2.11596E+01-3.07926E+00 2.88877E-02 3.19727E+00 3.01493E-13 2.94350E-13
 -1      3726 2.21906E+01-3.43330E+00-2.03716E-02-2.71902E+00 2.74290E-13-2.49734E-13
 -1      3727 2.02375E+01 3.57122E-01 2.72339E-04 2.19036E-01-4.99249E-14-9.39962E-14
 -1      3728 2.02040E+01 3.24729E-01-3.75283E-04 2.65529E-01-4.54564E-15-4.64289E-14
 -1      3729 2.01595E+01 3.06889E-01-2.59487E-04 3.01215E-01-8.71918E-15-4.29440E-14
 -1      3730 2.01223E+01 3.01262E-01 1.42325E-04 3.42069E-01-4.83236E-14-4.84043E-14
 -1      3731 2.01884E+01 3.54056E-01 6.49661E-04 2.48527E-01-5.32757E-16-1.03968E-13
 -1      3732 2.00672E+01 3.05802E-01-8.10691E-04 3.76179E-01-7.20869E-14-2.80645E-14
 -1      3733 2.00268E+01 3.19793E-01 5.33277E-04 4.16283E-01-7.99978E-14-8.30719E-14
 -1      3734 2.00894E+01 3.39109E-01 7.16401E-04 3.18275E-01-4.08476E-14-1.01532E-13
 -1      3735 1.99620E+01 3.40077E-01-1.35381E-03 4.52836E-01-7.18989E-14-4.22756E-14
 -1      3736 1.99183E+01 3.67225E-01 8.49229E-04 4.96250E-01-4.24679E-14-1.39861E-14
 -1      3737 1.99722E+01 3.66803E-01 9.02706E-04 3.88078E-01-5.33323E-14-3.50523E-14
 -1      3738 1.98435E+01 3.96920E-01-1.86930E-03 5.38789E-01-8.21525E-14-2.96170E-14
 -1      3739 1.97966E+01 4.30745E-01 1.15556E-03 5.88787E-01-9.01836E-14-6.50869E-14
 -1      3740 1.98370E+01 4.23526E-01 1.17878E-03 4.65312E-01-7.55182E-14-3.05156E-14
 -1      3741 1.97115E+01 4.63115E-01-2.36028E-03 6.40494E-01-4.83498E-14-8.98061E-14
 -1      3742 1.96619E+01 4.96491E-01 1.54651E-03 6.99766E-01-1.12547E-14-8.40772E-14
 -1      3743 1.96831E+01 4.95592E-01 1.47246E-03 5.56619E-01-8.78234E-14-4.36777E-14
 -1      3744 1.95662E+01 5.23703E-01-2.83776E-03 7.63949E-01-1.92825E-15-1.04247E-13
 -1      3745 1.95163E+01 5.47893E-01 2.14304E-03 8.35022E-01 3.02673E-14-8.08354E-14
 -1      3746 1.95094E+01 5.68341E-01 1.73786E-03 6.68449E-01 1.19290E-15-1.80233E-14
 -1      3747 1.94108E+01 5.59826E-01-3.28340E-03 9.15698E-01 4.64912E-14-7.78756E-14
 -1      3748 1.93656E+01 5.63327E-01 3.11645E-03 1.00124E+00 4.86394E-14-2.85418E-14
 -1      3749 1.93163E+01 6.24117E-01 1.87793E-03 8.08429E-01 5.02180E-14-5.54899E-14
 -1      3750 1.92535E+01 5.46516E-01-3.64362E-03 1.10361E+00 7.17961E-14-2.89984E-14
 -1      3751 1.92231E+01 5.14142E-01 4.69798E-03 1.20667E+00 7.03352E-14 2.63140E-14
 -1      3752 1.91071E+01 6.39903E-01 1.71331E-03 9.86481E-01 9.41561E-14-1.80285E-14
 -1      3753 1.91115E+01 4.50954E-01-3.76178E-03 1.33776E+00 3.90720E-14 4.28864E-14
 -1      3754 1.91138E+01 3.62897E-01 7.27683E-03 1.46184E+00 9.58571E-14 5.54563E-14
 -1      3755 1.88912E+01 5.85310E-01 9.28884E-04 1.21631E+00 8.69908E-14 7.56152E-14
 -1      3756 1.90173E+01 2.30560E-01-3.13038E-03 1.63123E+00 9.84877E-14 6.27807E-15
 -1      3757 1.90835E+01 6.09770E-02 1.15594E-02 1.77886E+00 1.18373E-13 5.72128E-14
 -1      3758 1.86887E+01 4.20648E-01-7.71408E-04 1.51676E+00 8.98299E-14 9.27604E-14
 -1      3759 1.90311E+01-1.70687E-01-5.32949E-04 2.00111E+00 2.04643E-13 8.52597E-14
 -1      3760 1.92082E+01-4.64615E-01 1.41464E-02 2.17065E+00 2.05861E-13 1.66908E-13
 -1      3761 1.85349E+01 9.48788E-02-3.97772E-03 1.91768E+00 1.84221E-13 7.38638E-14
 -1      3762 1.92735E+01-8.12975E-01 1.17354E-02 2.43194E+00 1.76041E-13 1.39741E-13
 -1      3763 1.95942E+01-1.27519E+00 1.10582E-02 2.61251E+00 2.38168E-13 2.37050E-13
 -1      3764 1.85183E+01-5.03813E-01-1.66287E-02 2.44079E+00 2.16891E-13 1.00903E-14
 -1      3765 1.95708E+01-1.09824E+00 2.27867E-02-2.49932E+00 1.23136E-13-7.56166E-14
 -1      3766 1.92031E+01-6.83212E-01 4.54266E-03-2.34622E+00 1.22633E-13-5.68703E-14
 -1      3767 1.91593E+01-3.31053E-01 1.46338E-02-2.08050E+00 1.88135E-14-1.03507E-13
 -1      3768 1.90011E+01-5.98347E-02-1.50501E-03-1.91196E+00-1.72186E-14-1.94789E-13
 -1      3769 1.85045E+01-3.41823E-01-5.61409E-03-2.34178E+00 5.83914E-14-8.56459E-14
 -1      3770 1.90554E+01 1.61254E-01 1.02601E-02-1.69652E+00-1.98224E-14-1.76569E-13
 -1      3771 1.89976E+01 3.23090E-01-3.34819E-03-1.54739E+00-1.34860E-13 1.00319E-15
 -1      3772 1.85257E+01 1.98376E-01-4.04913E-03-1.82515E+00 5.14013E-14-1.86424E-13
 -1      3773 1.90910E+01 4.49247E-01 6.58476E-03-1.37889E+00-1.65202E-13 2.13696E-13
 -1      3774 1.90902E+01 5.33155E-01-3.81522E-03-1.25221E+00-7.97404E-15 3.16252E-13
 -1      3775 1.86760E+01 5.11831E-01-4.51315E-04-1.43315E+00 2.74486E-14 1.56365E-13
 -1      3776 1.91948E+01 5.93413E-01 4.13653E-03-1.12015E+00 2.90713E-15 4.08151E-13
 -1      3777 1.92223E+01 6.24623E-01-3.67068E-03-1.01336E+00 4.59923E-14 4.08240E-13
 -1      3778 1.88690E+01 6.68868E-01 1.28603E-03-1.13362E+00 9.31060E-14 4.01625E-13
 -1      3779 1.93238E+01 6.41199E-01 2.60049E-03-9.08459E-01 5.58990E-14 4.65838E-13
 -1      3780 1.93627E+01 6.38562E-01-3.31922E-03-8.18127E-01 6.66181E-15 5.90175E-13
 -1      3781 1.90675E+01 7.21586E-01 1.98308E-03-9.01630E-01 6.84926E-14 3.19173E-13
 -1      3782 1.94546E+01 6.27665E-01 1.69433E-03-7.33569E-01-7.46349E-14 5.82506E-13
 -1      3783 1.94953E+01 6.04748E-01-2.91997E-03-6.57082E-01 1.02277E-14 5.24566E-13
 -1      3784 1.92532E+01 7.07920E-01 2.18479E-03-7.18196E-01-5.42100E-14 4.66303E-13
 -1      3785 1.95750E+01 5.78210E-01 1.15682E-03-5.88363E-01 7.32656E-14 4.05626E-13
 -1      3786 1.96125E+01 5.44878E-01-2.45828E-03-5.23794E-01 8.67038E-14 3.11268E-13
 -1      3787 1.94176E+01 6.54594E-01 2.12406E-03-5.70930E-01 1.04216E-14 4.25838E-13
 -1      3788 1.96792E+01 5.10313E-01 6.81739E-04-4.67366E-01 6.25429E-14 1.59200E-13
 -1      3789 1.97119E+01 4.73242E-01-2.05636E-03-4.13750E-01 8.63538E-14 7.48934E-14
 -1      3790 1.95573E+01 5.81169E-01 2.01165E-03-4.51291E-01 9.31971E-15 2.18233E-13
 -1      3791 1.97662E+01 4.37987E-01 7.95073E-04-3.67044E-01 7.59018E-14 3.93204E-14
 -1      3792 1.97924E+01 4.01433E-01-1.33620E-03-3.22360E-01 2.01769E-13 8.17941E-14
 -1      3793 1.96721E+01 5.00387E-01 1.66770E-03-3.53326E-01-2.39386E-14-1.02152E-13
 -1      3794 1.87187E+01 6.53002E-01 6.36479E-03-1.56853E+00 1.90744E-14-7.91816E-14
 -1      3795 1.87820E+01 7.09280E-01-7.12782E-03-1.42998E+00 2.46828E-14-1.23697E-15
 -1      3796 2.03190E+01 1.06170E+00 5.57289E-03 2.89175E-01 1.92219E-13-1.62362E-13
 -1      3797 2.02622E+01 1.37106E+00-4.75340E-03 3.68126E-01 2.05780E-13-2.11541E-13
 -1      3798 1.89703E+01 7.42827E-01 3.60654E-03-1.29968E+00-9.28670E-14-4.15301E-14
 -1      3799 1.90470E+01 7.45680E-01-5.70750E-03-1.18854E+00-1.20016E-13-2.96585E-14
 -1      3800 1.85594E+01 8.40966E-01 5.07416E-03-1.25130E+00-2.85790E-14-1.55349E-13
 -1      3801 1.83400E+01-9.00527E-02 1.47580E-02-2.40868E+00-2.11157E-13-1.48312E-13
 -1      3802 1.82730E+01 1.90813E-01-8.42036E-03-2.17362E+00-1.89214E-13-1.81090E-13
 -1      3803 1.82278E+01-1.00751E+00-6.24252E-03-3.16124E+00-2.36736E-13-1.36252E-13
 -1      3804 1.81641E+01-3.48875E-01 3.21231E-02-2.75043E+00-1.82632E-13-1.20827E-13
 -1      3805 1.73760E+01-3.22571E-02 3.99102E-03-2.55831E+00-2.04157E-13-1.11853E-13
 -1      3806 1.84305E+01 5.30356E-01-8.31340E-03 1.79659E+00 1.75217E-13 1.56900E-13
 -1      3807 1.84295E+01 3.57453E-01 1.28542E-02 1.99034E+00 1.11906E-13 3.01843E-13
 -1      3808 1.23208E+01 3.04974E-01 1.03692E-02 2.13304E+00-2.88441E-13 2.41231E-13
 -1      3809 1.14651E+01 7.95307E-01 1.04212E-01 6.04102E-01-2.05912E-13-3.59573E-13
 -1      3810 1.81632E+01-6.42601E-01-1.26749E-03 2.88153E+00-2.99692E-13 5.52934E-13
 -1      3811 1.84665E+01-1.21328E+00 1.37547E-02 3.22229E+00-3.63112E-13 5.23630E-13
 -1      3812 1.89552E+01 8.06089E-01-5.87499E-03 1.18093E+00-3.67882E-13 1.12095E-13
 -1      3813 1.88834E+01 7.88604E-01 4.00402E-03 1.30382E+00-2.13115E-13 1.54934E-13
 -1      3814 1.91865E+01 7.91106E-01-4.78849E-03 9.66413E-01-2.45598E-13-1.61673E-13
 -1      3815 1.91152E+01 8.08964E-01 2.13208E-03 1.06908E+00-3.57463E-13-1.00099E-14
 -1      3816 1.87744E+01 9.10334E-01 5.04455E-03 1.02366E+00-3.02471E-13-7.89438E-14
 -1      3817 1.93817E+01 7.28605E-01-3.94029E-03 7.88602E-01-1.58546E-13-1.92434E-13
 -1      3818 1.93189E+01 7.65864E-01 1.23044E-03 8.76017E-01-2.70974E-13-1.17306E-13
 -1      3819 1.90544E+01 8.64505E-01 4.32678E-03 8.34240E-01-2.18524E-13-1.58561E-13
 -1      3820 1.95409E+01 6.43000E-01-3.25096E-03 6.38833E-01-1.12431E-13-1.43852E-13
 -1      3821 1.94892E+01 6.88941E-01 8.20282E-04 7.13661E-01-9.70722E-14-1.98680E-13
 -1      3822 1.92838E+01 7.81810E-01 3.59808E-03 6.79503E-01-1.97251E-13-1.43685E-13
 -1      3823 1.96671E+01 5.50144E-01-2.68783E-03 5.12158E-01-9.91900E-14-1.01290E-13
 -1      3824 1.96265E+01 5.97934E-01 6.52973E-04 5.75996E-01-4.56970E-14-8.99200E-14
 -1      3825 1.94679E+01 6.82617E-01 2.91323E-03 5.50227E-01-8.70707E-14-1.33569E-13
 -1      3826 1.97653E+01 4.59719E-01-2.13859E-03 4.05464E-01-2.11452E-13 5.23048E-14
 -1      3827 1.97344E+01 5.05320E-01 6.54389E-04 4.59486E-01-1.67989E-13 2.55323E-15
 -1      3828 1.96130E+01 5.80083E-01 2.24637E-03 4.41260E-01-2.73388E-13 1.42402E-13
 -1      3829 1.98383E+01 3.78501E-01-1.65783E-03 3.15979E-01 1.41880E-13 6.97784E-14
 -1      3830 1.98173E+01 4.18695E-01 7.93967E-04 3.61898E-01-3.17381E-14 1.48240E-13
 -1      3831 1.97249E+01 4.82197E-01 1.32608E-03 3.50069E-01-1.08007E-13-1.69326E-14
 -1      3832 1.97540E+01 4.08872E-01 1.44628E-04-1.29628E-01-1.00094E-13-5.05744E-13
 -1      3833 1.97335E+01 4.20605E-01-1.13306E-03-8.60422E-02-1.36206E-13-2.18122E-13
 -1      3834 1.99905E+01 2.07108E-01-1.24849E-03 2.14600E-01-1.90834E-13-1.57486E-13
 -1      3835 1.99533E+01 2.50311E-01 5.70739E-04 2.22853E-01 4.73059E-14-4.97391E-13
 -1      3836 2.02703E+01 5.95406E-01-1.94010E-03 7.69736E-02 1.72865E-13-1.07986E-13
 -1      3837 2.02893E+01 7.06143E-01 1.98544E-03 1.81962E-01 2.03627E-13-9.26449E-14
 -1      3838 2.02999E+01 8.36854E-01-1.48607E-03 2.19732E-01 1.98462E-13-1.28579E-13
 -1      3839 2.02987E+01 6.23310E-01-1.53310E-03 4.57472E-02 1.78663E-13-1.38148E-13
 -1      3840 2.01675E+01 2.94931E-01-1.26148E-04-3.17444E-01 8.62278E-14-1.74911E-13
 -1      3841 2.01992E+01 3.13190E-01 2.11092E-04-2.71521E-01 8.62608E-14-1.67882E-13
 -1      3842 1.99209E+01 2.73056E-01-1.07717E-03 2.10964E-01-3.89652E-14-4.55091E-13
 -1      3843 1.42435E+01-3.07410E-01 2.57008E-02-3.23432E+00-2.19236E-13-3.03344E-13
 -1      3844 1.52082E+01-8.94389E-01 1.02944E-01-3.88141E+00-3.31835E-13-2.76591E-13
 -1      3845 1.74097E+01-1.73349E+00 3.61191E-02-3.87690E+00-3.40932E-13-7.33719E-14
 -1      3846 2.03302E+01 6.73301E-01 1.99120E-04-7.88489E-03-6.22146E-14-2.37927E-13
 -1      3847 2.03135E+01 5.61182E-01-1.52412E-03 6.71143E-02-5.21974E-14-1.95883E-13
 -1      3848 2.02345E+01 3.45400E-01-7.38627E-04-2.29270E-01 1.02974E-13-1.57112E-13
 -1      3849 2.02634E+01 3.95119E-01 7.63546E-04-1.73258E-01 1.32573E-13-1.58677E-13
 -1      3850 2.02328E+01 3.73772E-01 4.69440E-04-2.21673E-01 1.00284E-13-1.62686E-13
 -1      3851 2.03274E+01 9.42557E-01-9.33788E-04-1.48483E-01-8.09117E-14-2.81178E-13
 -1      3852 2.03289E+01 7.80898E-01-1.11814E-03-5.51366E-02-8.25074E-14-2.70484E-13
 -1      3853 2.03390E+01 7.83769E-01 1.47784E-03-2.64476E-02-5.45673E-14-2.29022E-13
 -1      3854 2.03246E+01 1.03831E+00 1.13121E-03-1.29446E-01-6.91979E-14-2.92246E-13
 -1      3855 2.02442E+01 1.47706E+00-2.00964E-03 3.08768E-01 1.71310E-13-2.54887E-13
 -1      3856 1.84885E+01 4.06375E-01 1.13172E-02-1.92351E+00-7.45896E-14-1.60670E-13
 -1      3857 1.85076E+01 5.48262E-01-8.70110E-03-1.74617E+00-1.74924E-14-1.20197E-13
 -1      3858 1.77579E+01 4.90718E-01 2.58003E-03-1.96368E+00-1.03760E-13-2.07051E-13
 -1      3859 2.02578E+01 1.51998E+00 5.11922E-03 2.58462E-03 7.05889E-14-3.24002E-13
 -1      3860 2.01837E+01 1.74496E+00-2.76732E-03-2.98503E-02 4.65689E-14-3.59219E-13
 -1      3861 2.01868E+01 1.72307E+00-4.25545E-03-1.14328E-01 1.99014E-14-3.60209E-13
 -1      3862 1.22907E+01 4.00775E-01 1.08004E-01 2.19237E+00 1.18586E-13-4.31911E-13
 -1      3863 1.21567E+01 6.11169E-01 2.43135E-02 1.16278E+00 1.83603E-14-4.47684E-13
 -1      3864 2.02974E+01 4.72588E-01 6.56330E-04 1.19476E-01-6.31256E-14-1.49278E-13
 -1      3865 2.02696E+01 4.05048E-01-1.04344E-03 1.77267E-01-7.14877E-14-1.33402E-13
 -1      3866 2.03202E+01 5.73909E-01 9.13647E-04 7.61084E-02-1.74666E-14-2.14271E-13
 -1      3867 1.97550E+01 4.90547E-01 9.10134E-04-6.59040E-01 1.22127E-13-1.29963E-13
 -1      3868 1.98042E+01 4.44325E-01-2.33187E-03-6.04580E-01 1.10089E-13-1.41386E-13
 -1      3869 1.82173E+01 1.13146E-01-6.16495E-03 2.26374E+00 1.30985E-14 3.38370E-13
 -1      3870 1.83281E+01-2.14287E-01 2.06541E-02 2.52100E+00-1.44398E-13 3.63628E-13
 -1      3871 1.72633E+01-2.03786E-01-1.58393E-02 2.73751E+00-1.27879E-13 4.06126E-13
 -1      3872 2.02078E+01 1.65324E+00-1.88490E-03-1.59846E-01-4.49521E-15-3.31788E-13
 -1      3873 2.02190E+01 1.59042E+00-4.84941E-03-2.36525E-01-4.15750E-14-3.22452E-13
 -1      3874 2.03008E+01 1.28276E+00 3.94642E-03-1.58297E-01-5.43035E-14-2.91473E-13
 -1      3875 2.02728E+01 1.44719E+00 4.61651E-03-9.48011E-02 2.25545E-15-3.31275E-13
 -1      3876 2.08229E+01-2.47959E+00 1.22628E-02 2.84358E+00 3.37931E-13 3.18800E-13
 -1      3877 1.99919E+01-2.76956E+00 3.61743E-03 3.64642E+00 3.32231E-13 1.39593E-13
 -1      3878 1.90642E+01-2.18061E+00 5.42289E-02 3.70885E+00 3.82079E-13-6.79344E-14
 -1      3879 2.02191E+01-1.85563E+00 3.68441E-02 2.79195E+00 2.97133E-13 3.26671E-13
 -1      3880 1.86952E+01 7.37300E-01-7.16814E-03 1.44834E+00-2.02499E-13 2.80198E-13
 -1      3881 1.86412E+01 6.60516E-01 7.55574E-03 1.60018E+00 1.53494E-14 2.20579E-13
 -1      3882 1.84408E+01 8.89505E-01 5.59410E-03 1.26540E+00-1.77088E-13 2.16968E-13
 -1      3883 1.92087E+01 7.35934E-01 2.13707E-03-1.08866E+00-1.04665E-13-5.09565E-14
 -1      3884 1.92837E+01 7.07749E-01-4.59169E-03-9.97168E-01-7.20478E-14-9.39365E-14
 -1      3885 1.88949E+01 8.33179E-01 4.61078E-03-1.03476E+00-1.31920E-13-8.11411E-14
 -1      3886 2.02966E+01 1.30265E+00 5.43483E-03 2.13824E-01 1.58083E-13-2.39656E-13
 -1      3887 2.00326E+01 2.90343E-01 2.81803E-04-4.96064E-01 6.10030E-14-1.27101E-13
 -1      3888 2.02671E+01 4.26651E-01 7.38585E-04 1.70618E-01-2.45514E-14-1.48886E-13
 -1      3889 1.37485E+01 2.62926E-01-1.36726E-02-2.35662E+00-1.08915E-13-4.77115E-13
 -1      3890 1.43318E+01-1.28346E-01 6.97631E-02-3.05917E+00-2.21368E-14-2.69425E-13
 -1      3891 1.58606E+01-3.47178E-01 4.81339E-02-3.11423E+00-1.07141E-13 1.39210E-13
 -1      3892 1.98134E+01 3.66299E-01 9.99025E-04-1.91960E-01-1.06476E-13-4.97593E-13
 -1      3893 1.97803E+01 3.84273E-01-1.70756E-03-1.65565E-01-4.81414E-14-6.03720E-13
 -1      3894 1.97323E+01 4.32790E-01 9.39730E-04-1.59749E-01-1.13479E-13-4.84245E-13
 -1      3895 1.92911E+01-1.64777E+00 1.03684E-02-3.07222E+00 1.57564E-13 1.18473E-14
 -1      3896 1.82533E+01-1.18945E+00 6.34592E-03-3.18703E+00 1.61183E-13 2.82877E-13
 -1      3897 1.80572E+01 7.56955E-01 5.51860E-03 1.59198E+00 7.81505E-14 3.79362E-13
 -1      3898 1.36810E+01 1.45564E-01 7.88400E-02 2.69692E+00-2.35817E-13 4.02799E-13
 -1      3899 1.37078E+01 5.77574E-01 2.42375E-03 1.81905E+00-1.53735E-13 2.00284E-13
 -1      3900 1.50522E+01-2.36798E-01-4.46187E-03 3.01918E+00-3.06877E-13 2.62651E-13
 -1      3901 2.05838E+01-2.25809E+00-1.66215E-02-2.80206E+00 9.12005E-14-2.55607E-13
 -1      3902 2.11061E+01-2.71415E+00 6.01616E-03-2.87239E+00 2.04082E-13-1.93602E-13
 -1      3903 2.02862E+01 4.62314E-01-1.47282E-03-1.20689E-01 1.45647E-13-1.43777E-13
 -1      3904 2.03115E+01 5.49921E-01 1.02107E-03-4.67260E-02 1.47274E-13-1.37847E-13
 -1      3905 2.02951E+01 4.84267E-01 5.60261E-04-1.25170E-01 1.34917E-13-1.50206E-13
 -1      3906 1.98746E+01 3.14881E-01-7.96615E-04-2.29031E-01 3.03225E-14-7.00768E-14
 -1      3907 1.72739E+01-1.59208E+00 5.74046E-03 3.84171E+00-3.97342E-13 6.04745E-13
 -1      3908 1.97374E+01 4.33115E-01-7.00263E-04-2.52150E-01 5.51024E-14-3.85087E-13
 -1      3909 1.98090E+01 3.83340E-01 2.03525E-04-2.66568E-01 1.45708E-13-1.10943E-13
 -1      3910 1.81756E+01 7.48003E-01 4.74156E-03-1.54514E+00 1.66205E-14-1.81172E-13
 -1      3911 1.97222E+01 4.31581E-01-3.62855E-04-3.16784E-02-6.77002E-14-8.98075E-14
 -1      3912 1.97202E+01 4.32743E-01-7.71700E-04 1.55487E-02 5.88192E-15 1.16468E-13
 -1      3913 1.96881E+01 4.66251E-01 1.35203E-03-6.66865E-02-1.74516E-13-1.76784E-13
 -1      3914 1.96017E+01 5.85494E-01 1.08326E-03-7.76605E-01 7.39863E-14-8.19888E-14
 -1      3915 1.96595E+01 5.36569E-01-2.99528E-03-7.12280E-01 1.27215E-13-7.50880E-14
 -1      3916 1.96211E+01 5.66657E-01 2.30763E-03-6.21009E-01 9.48455E-14-1.37023E-13
 -1      3917 1.76450E+01 4.41112E-01 3.49044E-03 2.05509E+00 6.88661E-14 3.52450E-13
 -1      3918 1.24443E+01 7.72054E-01 6.41903E-02-3.39094E-01-1.75603E-13-3.99174E-13
 -1      3919 1.88547E+01-2.02984E+00 1.77220E-02-3.59550E+00-3.07706E-13-1.55060E-13
 -1      3920 1.91805E+01 7.66939E-01 3.88229E-03-8.67038E-01-3.41947E-14-6.09348E-14
 -1      3921 1.94202E+01 6.74003E-01 1.41387E-03-9.17720E-01-1.74981E-14-5.46963E-14
 -1      3922 1.94874E+01 6.30083E-01-3.72357E-03-8.41210E-01 3.09779E-14-6.72196E-14
 -1      3923 2.02934E+01 1.25780E+00-3.29165E-03 1.07411E-01 1.51010E-13-2.41123E-13
 -1      3924 2.02885E+01 1.29414E+00-2.34719E-03 6.02431E-02 1.14361E-13-2.69568E-13
 -1      3925 2.03143E+01 9.23837E-01-8.91183E-05 1.91149E-01 1.82316E-13-1.71007E-13
 -1      3926 1.98758E+01 3.34718E-01 2.33691E-04 2.53812E-01 3.38860E-13-2.08146E-13
 -1      3927 1.98101E+01 3.85906E-01 1.78610E-04 2.44835E-01 3.41626E-13-1.73647E-13
 -1      3928 1.97288E+01 4.27950E-01-8.97054E-04 7.12884E-02 1.42382E-13 1.57598E-13
 -1      3929 1.97450E+01 4.17363E-01-8.61263E-04 1.15586E-01 3.16266E-13-9.44844E-14
 -1      3930 1.96843E+01 4.72037E-01 1.52659E-03 4.75637E-02-5.35012E-14 7.64102E-15
 -1      3931 1.97544E+01 4.15806E-01-8.57545E-04 1.66219E-01 3.75539E-13-8.20869E-14
 -1      3932 1.97821E+01 3.96712E-01-7.08318E-04 1.96389E-01 3.96386E-13-1.87109E-13
 -1      3933 1.97428E+01 4.48885E-01 1.04726E-03 2.57957E-01 1.90700E-13-1.66215E-13
 -1      3934 1.97029E+01 4.65121E-01 1.26325E-03 1.55815E-01 1.27551E-13-2.70505E-13
 -1      3935 1.59280E+01-1.52983E+00 7.97856E-02 4.30004E+00 1.94324E-13-3.73188E-13
 -1      3936 1.52337E+01-9.57315E-01 1.39594E-02 3.79759E+00 1.34542E-13-3.51746E-13
 -1      3937 1.74128E+01-1.86753E+00-4.09083E-03 4.02430E+00 2.55067E-13-3.27974E-13
 -1      3938 2.03331E+01 1.12766E+00 5.29413E-03 2.83035E-02 1.22746E-13-2.83208E-13
 -1      3939 2.02863E+01 1.31064E+00-2.46272E-03 2.62444E-02 1.11421E-13-2.98312E-13
 -1      3940 2.02852E+01 1.31090E+00-2.63526E-03-2.26592E-02 7.14159E-14-3.09459E-13
 -1      3941 1.97890E+01 4.69047E-01 1.68985E-03-5.27733E-01 1.02064E-13-1.72901E-13
 -1      3942 1.98841E+01 4.03487E-01 7.86982E-04-5.59913E-01 6.73887E-14-1.06767E-13
 -1      3943 1.99265E+01 3.65664E-01-1.69439E-03-5.12915E-01 5.12559E-14-1.49223E-13
 -1      3944 1.63747E+01 9.19093E-02-8.02715E-03-2.44766E+00-2.10678E-13-1.24366E-13
 -1      3945 1.65654E+01 4.55790E-01-1.60775E-02-2.08671E+00-1.85896E-13-1.03122E-13
 -1      3946 1.63934E+01-3.91318E-01 3.22358E-02-3.17185E+00-2.24338E-13-1.19524E-13
 -1      3947 1.56010E+01 1.21948E-01 1.94668E-02-2.65684E+00-2.32484E-13-1.51769E-13
 -1      3948 1.23691E+01 8.75768E-01 8.29860E-02 3.96256E-01-2.37987E-14-4.37705E-13
 -1      3949 1.27462E+01 8.06725E-01 1.04269E-03-4.11232E-01-1.27220E-13-3.20449E-13
 -1      3950 1.32893E+01 7.77176E-01 2.20823E-02 1.10997E+00 9.79887E-14-3.39357E-13
 -1      3951 1.35442E+01 3.37456E-01 4.34795E-02-2.34959E+00-1.59121E-13-3.19352E-13
 -1      3952 1.48898E+01 1.33478E-01 3.82464E-02-2.62870E+00-1.91757E-13-2.82313E-13
 -1      3953 1.49205E+01 6.52262E-01 1.61224E-03-1.78708E+00-1.88176E-13-2.24532E-13
 -1      3954 1.33133E+01 7.07860E-01 3.89391E-02-1.54777E+00-1.87086E-13-3.23519E-13
 -1      3955 1.90745E+01-1.48350E+00-2.79121E-02 2.99522E+00 2.84895E-13 1.81055E-13
 -1      3956 1.34191E+01 8.46057E-03 2.61575E-02 2.72862E+00 1.34799E-13-3.69385E-13
 -1      3957 2.01214E+01 2.89579E-01-4.31651E-04-3.54188E-01 8.41819E-14-1.81987E-13
 -1      3958 2.01503E+01 3.30612E-01 5.34087E-04-3.01434E-01 8.23765E-14-1.73535E-13
 -1      3959 2.00873E+01 2.95568E-01 3.15985E-04-3.95939E-01 6.39922E-14-1.62414E-13
 -1      3960 2.02127E+01 3.87518E-01-3.98770E-04 1.88286E-01-5.10082E-15-1.45061E-13
 -1      3961 2.01671E+01 3.66142E-01-4.44520E-04 2.23993E-01 2.54123E-14-1.42005E-13
 -1      3962 1.98253E+01 3.59912E-01-5.70569E-04-2.37295E-01 6.51897E-14-1.33729E-13
 -1      3963 1.81835E+01 9.31166E-01 1.52580E-03-1.10980E+00 7.70143E-14-2.02939E-13
 -1      3964 1.83593E+01 9.28059E-01-8.39909E-03-9.98147E-01-3.65322E-14-1.64167E-13
 -1      3965 1.83148E+01-1.73234E+00 1.31402E-02 3.57091E+00 2.94733E-13-3.68741E-14
 -1      3966 2.01081E+01 3.58780E-01-7.70263E-04 2.49116E-01 1.76018E-14-1.46922E-13
 -1      3967 2.00537E+01 3.63809E-01-8.73238E-05 2.82557E-01-1.84238E-14-1.12292E-13
 -1      3968 2.01358E+01 3.92866E-01 1.08198E-03 1.89125E-01 3.66519E-14-1.29836E-13
 -1      3969 1.99806E+01 3.78795E-01-1.23655E-03 3.08529E-01-1.98788E-14-8.45070E-14
 -1      3970 1.99178E+01 4.03260E-01 1.66754E-04 3.43423E-01-1.25203E-14-5.44305E-14
 -1      3971 2.00055E+01 4.01615E-01 1.31735E-03 2.38260E-01 1.50333E-14-1.33056E-13
 -1      3972 1.98307E+01 4.33724E-01-1.76114E-03 3.73310E-01-5.09191E-14-5.05453E-14
 -1      3973 1.97592E+01 4.70918E-01 3.70635E-04 4.12873E-01-7.65085E-14-4.14108E-14
 -1      3974 1.98492E+01 4.51673E-01 1.63612E-03 2.91363E-01-1.36713E-14-1.06006E-13
 -1      3975 1.96568E+01 5.10261E-01-2.36539E-03 4.49833E-01-8.69487E-14-1.29074E-15
 -1      3976 1.95764E+01 5.53258E-01 6.02707E-04 4.97253E-01-2.76645E-14 4.47106E-14
 -1      3977 1.96650E+01 5.29698E-01 2.05240E-03 3.54012E-01-4.98867E-14-1.32720E-14
 -1      3978 1.94570E+01 5.94228E-01-3.06444E-03 5.44248E-01-1.41061E-14 2.60013E-14
 -1      3979 1.93675E+01 6.35805E-01 9.79649E-04 6.02833E-01 4.05855E-15 3.34157E-14
 -1      3980 1.94504E+01 6.21544E-01 2.53184E-03 4.32032E-01-2.12558E-14 8.42738E-14
 -1      3981 1.92286E+01 6.70158E-01-3.87934E-03 6.63882E-01 2.26937E-14 1.25746E-14
 -1      3982 1.91310E+01 7.01274E-01 1.63165E-03 7.37801E-01 8.01470E-14-1.08244E-14
 -1      3983 1.92020E+01 7.12970E-01 3.28882E-03 5.32087E-01-1.30015E-14 8.95710E-14
 -1      3984 1.89698E+01 7.18415E-01-4.94100E-03 8.18906E-01 1.44941E-13-3.07839E-15
 -1      3985 1.88677E+01 7.27350E-01 2.76178E-03 9.13927E-01 1.21255E-13 7.21024E-15
 -1      3986 1.89140E+01 7.86401E-01 4.00620E-03 6.64735E-01 1.05131E-13-2.64261E-14
 -1      3987 1.86807E+01 7.13789E-01-6.40197E-03 1.02375E+00 9.46975E-14 3.74225E-14
 -1      3988 1.85827E+01 6.86020E-01 4.85347E-03 1.14839E+00 1.03076E-13 8.51636E-14
 -1      3989 1.85807E+01 8.20524E-01 4.69034E-03 8.43406E-01 1.16451E-13-3.79636E-14
 -1      3990 1.83683E+01 6.22423E-01-8.31007E-03 1.30121E+00 5.13432E-14 1.17992E-13
 -1      3991 1.82866E+01 5.37240E-01 7.02325E-03 1.46728E+00 1.08869E-13 9.35458E-14
 -1      3992 1.81971E+01 7.88379E-01 5.32994E-03 1.09250E+00 8.85930E-14-1.12446E-14
 -1      3993 1.80531E+01 4.01965E-01-8.91694E-03 1.67478E+00 1.04943E-13 3.30736E-15
 -1      3994 1.80198E+01 2.38843E-01 1.58078E-02 1.89546E+00 1.26071E-13-2.25145E-14
 -1      3995 1.77825E+01 6.50886E-01 1.13905E-02 1.45255E+00 6.19058E-14 2.77708E-15
 -1      3996 1.77304E+01 4.79018E-03-1.30600E-02 2.22442E+00 1.89628E-13-1.04476E-13
 -1      3997 1.78270E+01-3.25910E-01 1.33367E-02 2.52017E+00 1.98074E-13-1.02034E-13
 -1      3998 1.72730E+01 3.98123E-01 1.98566E-02 1.96156E+00 7.46963E-14-1.21290E-13
 -1      3999 1.77143E+01 9.37421E-01-1.27875E-02 1.26139E+00 1.18471E-14 4.59650E-13
 -1      4000 1.75219E+01 8.71414E-01 5.15312E-03 1.43543E+00 2.92123E-14 3.73077E-13
 -1      4001 1.96677E+01 4.88769E-01-6.92389E-04-2.72264E-01 5.01278E-14-3.13801E-13
 -1      4002 1.96944E+01 4.65596E-01 8.48620E-04-2.11376E-01 5.15433E-14-3.85104E-13
 -1      4003 1.96572E+01 4.86210E-01-1.21471E-03-1.74774E-01-2.64068E-14-4.21107E-13
 -1      4004 1.76783E+01 8.56323E-01 3.91628E-03-1.38561E+00 1.84591E-14-2.02563E-13
 -1      4005 1.78718E+01 9.02961E-01-1.21411E-02-1.22910E+00 6.10379E-14-1.87251E-13
 -1      4006 1.77576E+01 1.04113E+00 1.09184E-02-9.53524E-01 4.52181E-14-1.66828E-13
 -1      4007 1.80200E+01 3.37573E-01 1.15431E-02-1.81282E+00 1.02281E-13-1.47396E-13
 -1      4008 1.80555E+01 4.97511E-01-1.05870E-02-1.59387E+00 1.63770E-13-7.93223E-14
 -1      4009 1.82875E+01 6.27592E-01 7.14155E-03-1.38683E+00 1.23549E-13-2.49474E-14
 -1      4010 1.83646E+01 7.08080E-01-8.22057E-03-1.22277E+00 1.01158E-13 1.48575E-13
 -1      4011 1.77862E+01 7.39985E-01 6.14909E-03-1.36413E+00 1.76272E-13-3.90248E-15
 -1      4012 1.85667E+01 7.67683E-01 3.97641E-03-1.07440E+00 1.01292E-13 1.45824E-13
 -1      4013 1.86587E+01 7.94513E-01-6.49797E-03-9.49909E-01 1.31745E-13 2.88848E-13
 -1      4014 1.81977E+01 8.69789E-01 5.42786E-03-1.02233E+00 1.11201E-13 3.00662E-14
 -1      4015 1.88307E+01 8.08327E-01 2.08298E-03-8.41192E-01 4.31896E-14 1.70061E-13
 -1      4016 1.89226E+01 8.00839E-01-5.09583E-03-7.44491E-01-5.13340E-14 8.82389E-14
 -1      4017 1.85535E+01 9.02325E-01 4.73692E-03-7.80366E-01 5.74263E-14-8.61987E-14
 -1      4018 1.90674E+01 7.85345E-01 1.10367E-03-6.62278E-01 7.31275E-15 1.32428E-13
 -1      4019 1.91520E+01 7.56304E-01-4.03692E-03-5.85567E-01 4.99783E-14 1.65749E-13
 -1      4020 1.88561E+01 8.72199E-01 4.19448E-03-6.01876E-01 3.36376E-14-9.89887E-14
 -1      4021 1.92723E+01 7.23425E-01 5.49511E-04-5.22217E-01 7.01812E-15 8.24404E-14
 -1      4022 1.93461E+01 6.82754E-01-3.22164E-03-4.60456E-01 5.91888E-14 1.31006E-13
 -1      4023 1.91098E+01 8.02792E-01 3.52936E-03-4.67055E-01-5.52265E-14 6.16227E-14
 -1      4024 1.94447E+01 6.41421E-01 2.88343E-04-4.11223E-01-1.11651E-13-4.33951E-14
 -1      4025 1.95074E+01 5.97086E-01-2.21542E-03-3.60600E-01-1.43601E-13-1.28075E-13
 -1      4026 1.93199E+01 7.12949E-01 3.08016E-03-3.63556E-01-1.56262E-13-2.70453E-13
 -1      4027 1.96148E+01 5.31089E-01-3.37537E-04-3.11785E-01 6.08223E-15-3.50428E-13
 -1      4028 2.03167E+01 1.04007E+00-4.66450E-03 1.76384E-01 1.77024E-13-2.32817E-13
 -1      4029 2.03041E+01 1.19271E+00-3.96462E-04 1.47899E-01 1.39883E-13-2.43732E-13
 -1      4030 2.03360E+01 1.04465E+00 4.18088E-03 8.50561E-02 1.49881E-13-2.32699E-13
 -1      4031 2.03282E+01 8.49257E-01 3.27423E-03 1.24795E-01 1.62400E-13-1.82918E-13
 -1      4032 1.64707E+01-6.96140E-01 5.36631E-02 3.45017E+00-3.47307E-13 4.98186E-13
 -1      4033 1.78342E+01-1.46602E+00 1.52335E-02 3.59894E+00-4.02126E-13 5.52986E-13
 -1      4034 1.59573E+01-8.64395E-02 2.45822E-02 2.79474E+00-1.82999E-13 3.03505E-13
 -1      4035 1.86130E+01 9.71553E-01-6.53276E-03 8.13453E-01-2.17701E-13 2.76940E-14
 -1      4036 1.84622E+01 9.93753E-01 3.27123E-04 9.08537E-01-2.62176E-13 7.08769E-14
 -1      4037 1.94022E+01 6.92904E-01-3.06315E-03 4.39762E-01-2.31416E-13 1.32027E-13
 -1      4038 1.93211E+01 7.48400E-01-4.42716E-04 4.93958E-01-9.47403E-14 3.00785E-14
 -1      4039 1.95640E+01 5.85254E-01-2.35460E-03 3.52768E-01-1.88466E-13-7.82164E-16
 -1      4040 1.95004E+01 6.39617E-01-2.03255E-04 3.98941E-01-2.09820E-13 5.70578E-14
 -1      4041 1.93789E+01 7.11089E-01 3.12535E-03 3.45949E-01-1.77534E-13 1.45698E-13
 -1      4042 1.96841E+01 4.89583E-01-1.90079E-03 2.84171E-01-4.62656E-14-1.84091E-13
 -1      4043 1.96351E+01 5.39936E-01 1.42466E-04 3.23080E-01-1.88288E-13-2.02711E-13
 -1      4044 1.95406E+01 6.02081E-01 2.15721E-03 2.83162E-01 3.17617E-14-1.85671E-13
 -1      4045 1.96609E+01 5.05475E-01 7.81500E-04 2.32032E-01 3.54146E-14-2.09826E-13
 -1      4046 2.03227E+01 7.39706E-01-6.11717E-04 4.83317E-02 1.42469E-13-1.78329E-13
 -1      4047 2.02229E+01 3.82240E-01-7.82409E-04-2.08980E-01 7.31591E-14-1.58279E-13
 -1      4048 2.02608E+01 4.21979E-01-7.81973E-05-1.65911E-01 1.05810E-13-1.31361E-13
 -1      4049 1.98815E+01 3.15488E-01-5.02337E-04 2.21830E-01 3.14796E-13-4.07200E-13
 -1      4050 1.82109E+01 9.94840E-01-8.97293E-03 1.00306E+00-9.71042E-14 2.13849E-13
 -1      4051 1.80358E+01 9.83611E-01 1.97033E-03 1.12773E+00 7.38493E-14 4.43193E-13
 -1      4052 1.75775E+01 1.09856E+00 1.21642E-02 9.74527E-01 1.10648E-13 4.76689E-13
 -1      4053 1.81215E+01 1.09574E+00 9.21051E-03 7.75461E-01-2.29310E-14 4.00454E-13
 -1      4054 1.99936E+01 3.35199E-01 6.10220E-04-4.74205E-01 6.84505E-14-1.46390E-13
 -1      4055 2.00310E+01 3.10751E-01-1.06499E-03-4.31750E-01 7.17551E-14-1.73141E-13
 -1      4056 2.00497E+01 3.40204E-01 7.93986E-04-3.73904E-01 5.81625E-14-1.81127E-13
 -1      4057 1.77753E+01-1.01220E+00 2.41054E-02 3.21090E+00 2.35933E-13-6.92274E-14
 -1      4058 1.91965E+01 8.01083E-01-3.85601E-03 5.42215E-01-6.29146E-14-3.50101E-14
 -1      4059 1.90944E+01 8.53671E-01-4.83671E-04 6.06126E-01-9.88900E-14 7.02214E-14
 -1      4060 1.91647E+01 8.28479E-01 4.21892E-03 4.24391E-01-1.88725E-13 1.63927E-13
 -1      4061 2.03365E+01 6.56477E-01-2.11224E-04 3.47345E-02 3.61709E-15-1.99510E-13
 -1      4062 2.03166E+01 5.57044E-01-1.29780E-03 8.66278E-02 6.10064E-15-1.88520E-13
 -1      4063 1.89370E+01 8.99441E-01-4.94116E-03 6.64374E-01-2.01926E-13 2.28456E-14
 -1      4064 1.88114E+01 9.41845E-01-3.18271E-04 7.40989E-01-2.41945E-13-7.47260E-14
 -1      4065 1.85512E+01 1.03584E+00 6.98009E-03 6.31269E-01-1.55004E-13-5.26648E-14
 -1      4066 1.88933E+01 9.41083E-01 5.47388E-03 5.17613E-01-1.89784E-13-1.38726E-13
 -1      4067 1.31643E+01 9.18442E-01-4.26231E-03 2.99421E-01-2.31158E-13-2.45314E-13
 -1      4068 1.31138E+01 8.83337E-01 5.44399E-02-1.19621E+00-1.47701E-13-6.69825E-13
 -1      4069 1.70843E+01 6.33493E-01 8.64574E-03-1.79693E+00-1.76474E-13-1.40879E-13
 -1      4070 1.72787E+01 7.60961E-01-1.76402E-02-1.56522E+00-5.73617E-14-1.68269E-13
 -1      4071 1.70866E+01 9.89480E-01 1.51859E-02-1.21581E+00-3.00985E-14-1.25721E-13
 -1      4072 1.46742E+01-2.30199E-01 6.71390E-02 3.16995E+00 1.47270E-13-3.54628E-13
 -1      4073 1.42621E+01 2.76194E-01-4.86113E-03 2.32145E+00 1.07664E-13-3.42261E-13
 -1      4074 1.60226E+01-6.05533E-01 1.76046E-02 3.23955E+00 2.17147E-13-3.03311E-13
 -1      4075 1.71034E+01 7.51699E-01-1.86183E-02 1.63784E+00-1.08997E-14 3.21421E-13
 -1      4076 1.69468E+01 5.98396E-01 1.34975E-02 1.88779E+00-5.16817E-15 2.18157E-13
 -1      4077 1.68827E+01 1.01280E+00 1.71220E-02 1.26906E+00-4.02061E-14 2.78124E-13
 -1      4078 2.02912E+01 4.80608E-01-1.32085E-04 1.19112E-01 2.24923E-15-1.89236E-13
 -1      4079 2.02565E+01 4.24854E-01-8.59270E-04 1.61190E-01-8.64575E-15-1.54070E-13
 -1      4080 2.02393E+01 4.40092E-01 1.16705E-03 1.37989E-01-1.11328E-14-1.53230E-13
 -1      4081 2.03111E+01 5.60447E-01 1.42992E-03 7.95858E-02 3.84928E-15-1.91947E-13
 -1      4082 1.61494E+01 2.96790E-01-1.76994E-03 2.35903E+00-2.47198E-15 1.97881E-13
 -1      4083 1.86071E+01 9.13656E-01 4.25703E-04-9.13764E-01-1.02101E-13-1.44036E-13
 -1      4084 1.87599E+01 8.80147E-01-6.00721E-03-8.29330E-01-7.08249E-14-9.18264E-14
 -1      4085 1.82897E+01 1.01083E+00 8.06070E-03-7.76896E-01-2.17003E-14-1.64777E-13
 -1      4086 1.78047E+01-1.82757E-01 1.18014E-02-2.41118E+00-5.55979E-14-9.32926E-14
 -1      4087 1.77591E+01 1.03450E-01-1.52233E-02-2.10424E+00-7.76473E-14-1.38529E-13
 -1      4088 1.73298E+01 4.68405E-01 1.06809E-02-1.85157E+00-2.14650E-14-1.65219E-13
 -1      4089 2.03395E+01 8.53701E-01-2.26563E-03 5.01374E-02 1.21450E-13-2.36195E-13
 -1      4090 2.03378E+01 9.26228E-01-1.57016E-03 3.10455E-02 1.32855E-13-2.50952E-13
 -1      4091 1.43191E+01 5.97524E-01 2.33983E-03-1.68134E+00-1.74563E-13-5.12916E-13
 -1      4092 1.95222E+01 5.93117E-01 2.06130E-03-2.74338E-01-2.00397E-13-4.25302E-13
 -1      4093 1.99303E+01 3.90017E-01 1.18781E-03-4.47132E-01 7.27161E-14-2.11406E-13
 -1      4094 1.95850E+01 5.46602E-01 8.96712E-04-1.65624E-01-6.21817E-14-3.19021E-13
 -1      4095 1.96280E+01 5.08282E-01-7.50498E-05-1.09698E-01-1.74254E-13-2.53538E-13
 -1      4096 1.96108E+01 5.17077E-01-1.45082E-03-5.32949E-02-1.40999E-13-9.04024E-14
 -1      4097 1.50796E+01 4.45909E-01-9.26408E-03 2.01846E+00 8.07878E-14-2.92244E-13
 -1      4098 1.42736E+01 7.52224E-01 5.69361E-02 1.59473E+00 6.52458E-14-3.12764E-13
 -1      4099 2.03524E+01 7.94167E-01 3.84159E-03-1.29098E-03 1.00970E-13-2.49459E-13
 -1      4100 2.03361E+01 9.41643E-01-2.26571E-03 2.32787E-02 1.33239E-13-2.56164E-13
 -1      4101 1.40933E+01 8.67933E-01-2.47045E-02 8.80011E-01 1.23482E-14-2.84297E-13
 -1      4102 2.03310E+01 7.47680E-01 1.18666E-04 2.03154E-02 1.27758E-13-1.89050E-13
 -1      4103 1.94205E+01 6.71135E-01 3.06688E-03-7.32064E-01 4.40626E-14-8.37037E-14
 -1      4104 1.46549E+01 7.48608E-01 1.18996E-02 1.54811E+00-6.05210E-14 3.14155E-13
 -1      4105 1.38162E+01 9.90975E-01 6.48087E-02 9.84101E-01-1.33504E-13 2.54512E-13
 -1      4106 1.41715E+01 1.04077E+00-5.86689E-03 2.15043E-01-8.88921E-14-1.64208E-13
 -1      4107 1.96075E+01 5.24213E-01-3.39766E-04 1.98147E-02-1.93082E-13-6.75773E-14
 -1      4108 1.96164E+01 5.18963E-01-8.25173E-04 7.84893E-02-2.08174E-15-2.78635E-14
 -1      4109 1.95425E+01 5.74106E-01 2.40674E-04-2.32560E-02-1.84413E-13-7.03191E-14
 -1      4110 1.89597E+01 8.40769E-01 8.19003E-06-7.65836E-01-3.43169E-14-6.45780E-14
 -1      4111 1.90895E+01 7.90694E-01-4.43211E-03-6.98640E-01-1.42613E-14-5.07380E-14
 -1      4112 1.87185E+01 9.29528E-01 6.11337E-03-6.49563E-01-2.87105E-14-9.26914E-14
 -1      4113 1.56858E+01 6.83510E-01 1.58691E-02 1.87797E+00-4.40251E-14 1.90342E-13
 -1      4114 1.94957E+01 6.26784E-01-1.37738E-04-5.51548E-01 3.32494E-14-1.21246E-13
 -1      4115 1.95870E+01 5.71372E-01-2.68547E-03-5.04810E-01 8.61559E-14-1.47127E-13
 -1      4116 1.95925E+01 5.85332E-01 2.67652E-03-4.02950E-01 9.34395E-14-1.25898E-13
 -1      4117 1.96985E+01 5.20531E-01-4.97919E-05-4.70342E-01 1.16511E-13-1.35213E-13
 -1      4118 1.97752E+01 4.72802E-01-1.98733E-03-4.30008E-01 9.80866E-14-1.50860E-13
 -1      4119 1.69347E+01-8.49754E-01 1.90431E-02-3.28908E+00 3.99871E-14 2.26307E-13
 -1      4120 1.73797E+01-4.35806E-01-1.94145E-02-2.73449E+00 4.28325E-15 1.05095E-13
 -1      4121 1.96268E+01 5.16437E-01-2.13494E-04 1.29567E-01 1.13655E-13-2.67100E-13
 -1      4122 1.96333E+01 5.14471E-01-1.19916E-03 1.82574E-01 2.25784E-14-3.14537E-13
 -1      4123 1.95796E+01 5.62069E-01 2.18752E-04 2.05429E-01 1.20231E-13-2.14831E-13
 -1      4124 1.95499E+01 5.75850E-01 8.94815E-04 1.02130E-01 4.86641E-14-1.28396E-13
 -1      4125 2.01747E+01 3.59390E-01-4.27582E-04-2.38443E-01 9.22717E-14-1.78361E-13
 -1      4126 2.02039E+01 4.05708E-01 9.18671E-04-1.84188E-01 9.17282E-14-1.82948E-13
 -1      4127 2.01279E+01 3.51020E-01-3.78875E-04-2.75339E-01 8.06849E-14-1.87364E-13
 -1      4128 2.03352E+01 9.57198E-01-2.39708E-03 4.28725E-03 1.16887E-13-2.80642E-13
 -1      4129 1.67425E+01 1.10802E-01 3.57957E-02-2.44632E+00-2.29996E-13-1.82571E-14
 -1      4130 1.37117E+01 8.75354E-01 3.51593E-02-7.02623E-01-1.08700E-13-3.03505E-13
 -1      4131 2.03424E+01 8.60992E-01-6.03595E-04-4.18837E-02-2.25835E-14-2.15408E-13
 -1      4132 2.03404E+01 7.51567E-01-9.26477E-04 5.37944E-03 4.93080E-15-1.95191E-13
 -1      4133 2.03424E+01 7.39155E-01 1.61373E-03 1.82811E-02 1.43001E-14-1.95379E-13
 -1      4134 1.62174E+01 7.96793E-01 1.67419E-02-1.62378E+00-1.79187E-13-1.29078E-13
 -1      4135 1.55159E+01 9.05320E-01 1.30089E-02-1.20563E+00-1.34370E-13-1.70463E-13
 -1      4136 1.59798E+01 9.95904E-01-1.70610E-02-1.00439E+00-4.06923E-14-8.75047E-14
 -1      4137 2.03156E+01 1.12261E+00-2.16415E-03-1.25377E-01-3.85500E-14-2.74996E-13
 -1      4138 2.03326E+01 9.81415E-01-3.91729E-04-7.18434E-02-4.26324E-14-2.52882E-13
 -1      4139 2.03399E+01 9.47092E-01 4.17987E-04-4.02377E-02 1.22766E-14-2.27903E-13
 -1      4140 2.03052E+01 1.21806E+00 5.90313E-04-1.03700E-01-1.45350E-14-2.75073E-13
 -1      4141 1.68071E+01-4.70604E-01 4.17221E-03 2.98201E+00 2.12470E-13-1.82105E-13
 -1      4142 1.47462E+01 9.22501E-01-6.80388E-03-1.14909E+00-9.57422E-14-2.15607E-13
 -1      4143 2.02884E+01 1.30539E+00-9.28262E-04-4.77812E-02 4.17141E-14-3.01483E-13
 -1      4144 2.02994E+01 1.23592E+00-2.51355E-03-8.18394E-02 8.62556E-15-2.95320E-13
 -1      4145 2.03289E+01 1.09859E+00 2.49297E-03-5.33666E-02 1.63591E-14-2.68063E-13
 -1      4146 2.03337E+01 1.13159E+00 5.29628E-03-1.71673E-02 8.55801E-14-2.74070E-13
 -1      4147 2.03335E+01 6.75355E-01-1.26093E-03-3.35131E-02 6.79386E-14-2.52227E-13
 -1      4148 2.03347E+01 6.91808E-01-1.82928E-03-2.70527E-02 5.81432E-14-2.44289E-13
 -1      4149 1.73248E+01 8.57062E-01 1.52251E-03-1.20398E+00 1.21341E-13-1.33945E-13
 -1      4150 1.75427E+01 9.19680E-01-1.33682E-02-1.01664E+00 1.24634E-13-1.51437E-13
 -1      4151 2.01608E+01 4.08367E-01-6.46926E-04 1.23111E-01 3.30825E-14-1.11722E-13
 -1      4152 2.01012E+01 4.00374E-01-5.41559E-04 1.47220E-01 6.17844E-14-9.90339E-14
 -1      4153 2.00285E+01 4.04746E-01-1.27225E-03 1.60400E-01 3.14637E-14-1.14376E-13
 -1      4154 1.99573E+01 4.22427E-01-2.20504E-04 1.83857E-01-3.98982E-15-1.19227E-13
 -1      4155 2.00611E+01 4.26313E-01 1.89975E-03 9.29841E-02 3.22621E-14-1.30197E-13
 -1      4156 1.98679E+01 4.48575E-01-1.49197E-03 1.99244E-01 2.45037E-14-9.30828E-14
 -1      4157 1.97828E+01 4.83654E-01-4.81718E-04 2.25313E-01 1.59010E-14-5.56554E-14
 -1      4158 1.99033E+01 4.58092E-01 2.23077E-03 1.18360E-01 1.81072E-14-1.21788E-13
 -1      4159 1.96772E+01 5.25427E-01-1.71477E-03 2.43919E-01 9.90669E-16-4.02263E-15
 -1      4160 1.95767E+01 5.72391E-01-4.86723E-04 2.75284E-01-8.20058E-15 7.84438E-14
 -1      4161 1.97132E+01 5.29899E-01 2.73192E-03 1.49590E-01 4.77660E-14-2.81954E-14
 -1      4162 1.94493E+01 6.21400E-01-3.04557E-03 3.02086E-01-4.92404E-14 8.14131E-14
 -1      4163 1.93351E+01 6.74281E-01-2.24494E-04 3.41081E-01 6.89824E-16 8.27661E-14
 -1      4164 1.94835E+01 6.32844E-01 4.29394E-03 1.88021E-01-2.00790E-14 5.67397E-14
 -1      4165 1.91823E+01 7.22593E-01-4.56026E-03 3.78958E-01 2.66830E-15 8.12921E-14
 -1      4166 1.90530E+01 7.73645E-01 1.84421E-04 4.29212E-01-1.49577E-15 9.62937E-14
 -1      4167 1.92123E+01 7.46891E-01 5.83440E-03 2.38205E-01-6.35264E-15 3.21262E-14
 -1      4168 1.88705E+01 8.16646E-01-4.91226E-03 4.77240E-01 2.32938E-14 7.42350E-14
 -1      4169 1.87182E+01 8.56285E-01 2.85929E-04 5.45489E-01 1.02067E-13 5.70991E-14
 -1      4170 1.88973E+01 8.49841E-01 6.19366E-03 3.10917E-01-7.25529E-15 9.23365E-14
 -1      4171 1.84977E+01 8.82975E-01-6.66321E-03 6.13973E-01 1.16133E-13-3.11746E-14
 -1      4172 1.83222E+01 9.02195E-01 7.54222E-04 7.08112E-01 1.15957E-13-7.80598E-15
 -1      4173 1.85078E+01 9.43518E-01 6.49190E-03 4.12510E-01 5.12866E-14 7.67546E-14
 -1      4174 1.80497E+01 9.01565E-01-9.35871E-03 8.04513E-01 8.48588E-14-6.62989E-14
 -1      4175 1.78478E+01 8.86286E-01 7.80766E-04 9.40307E-01 7.13065E-14-4.81175E-14
 -1      4176 1.80385E+01 1.00304E+00 8.08435E-03 5.56673E-01 1.04377E-13-2.40737E-14
 -1      4177 1.74929E+01 8.47151E-01-1.59511E-02 1.07658E+00 6.06517E-14-8.28606E-14
 -1      4178 1.72385E+01 7.62026E-01-1.11100E-02 1.29655E+00 6.09198E-14-1.05828E-13
 -1      4179 1.74524E+01 1.00846E+00 9.12833E-03 7.61723E-01 6.33187E-14-1.33559E-13
 -1      4180 2.00100E+01 3.71643E-01-1.11070E-04-3.36916E-01 4.66009E-14-1.94536E-13
 -1      4181 2.00653E+01 3.55458E-01-8.81212E-04-3.02111E-01 4.68594E-14-1.90505E-13
 -1      4182 2.00934E+01 3.84640E-01 1.04716E-03-2.39316E-01 8.14651E-14-1.79599E-13
 -1      4183 2.02926E+01 4.81123E-01-1.07416E-03-1.30732E-01 1.18465E-13-1.47143E-13
 -1      4184 2.03190E+01 5.59006E-01-3.21696E-04-7.53804E-02 1.22389E-13-1.65493E-13
 -1      4185 1.57138E+01 3.65094E-01-7.70433E-03-2.16534E+00-2.69242E-13-2.21463E-13
 -1      4186 1.61741E+01 4.97507E-01-2.82732E-02-1.87839E+00-2.09685E-13-2.63864E-13
 -1      4187 1.51420E+01 1.04248E+00 2.10667E-02 3.29560E-01 4.92523E-14-1.68777E-13
 -1      4188 1.44008E+01 1.09949E+00 2.71740E-02-1.10909E-01-8.66928E-16-1.64269E-13
 -1      4189 1.98680E+01 4.31949E-01 1.15569E-06-4.00189E-01 7.66654E-14-2.00283E-13
 -1      4190 1.99330E+01 3.97188E-01-1.38806E-03-3.63959E-01 6.43839E-14-2.03610E-13
 -1      4191 1.97908E+01 4.86597E-01 1.99194E-03-3.44169E-01 7.09815E-14-1.63923E-13
 -1      4192 1.78699E+01 9.65240E-01 2.79885E-03-8.84871E-01 1.46278E-13-2.35472E-13
 -1      4193 1.80483E+01 9.76705E-01-1.11110E-02-7.56147E-01 1.59194E-13-2.21054E-13
 -1      4194 1.75029E+01 1.08108E+00 1.38772E-02-7.20393E-01 1.38462E-13-3.95824E-13
 -1      4195 1.83062E+01 9.80580E-01 4.04413E-04-6.57547E-01 4.67765E-14-1.59647E-13
 -1      4196 1.84633E+01 9.62216E-01-8.17053E-03-5.67052E-01 4.50226E-14-1.92039E-13
 -1      4197 1.80335E+01 1.09086E+00 1.29935E-02-5.21685E-01 9.91939E-14-2.45212E-13
 -1      4198 1.86674E+01 9.39505E-01-3.30301E-04-4.97808E-01 1.10259E-13-1.22481E-13
 -1      4199 1.88018E+01 9.01489E-01-6.04768E-03-4.31015E-01 1.98486E-14-7.75407E-14
 -1      4200 1.84741E+01 1.03896E+00 1.39457E-02-3.85427E-01 1.15545E-13-1.23176E-13
 -1      4201 1.89644E+01 8.62678E-01-5.27957E-04-3.80719E-01-9.22275E-14 1.95219E-15
 -1      4202 1.90770E+01 8.13846E-01-4.43271E-03-3.29697E-01-1.20354E-13-6.43439E-15
 -1      4203 1.88199E+01 9.49110E-01 1.11769E-02-2.86475E-01-5.40862E-14 4.45038E-14
 -1      4204 1.92067E+01 7.64713E-01-1.04082E-03-2.91423E-01-2.39507E-13-5.28721E-15
 -1      4205 1.93011E+01 7.11596E-01-3.34766E-03-2.52186E-01-3.63190E-13-2.21951E-13
 -1      4206 1.90950E+01 8.41428E-01 8.03111E-03-2.14016E-01-1.94437E-13 6.20868E-15
 -1      4207 2.03347E+01 6.63317E-01 4.69324E-04-3.48152E-02 1.20432E-13-2.13497E-13
 -1      4208 1.93670E+01 6.98553E-01-1.65902E-03 2.40185E-01-1.11769E-14-4.01090E-13
 -1      4209 1.92689E+01 7.57917E-01-1.49673E-03 2.70967E-01-2.02098E-13-2.71665E-13
 -1      4210 1.79982E+01-1.40139E+00 8.60360E-02-3.65889E+00-2.64452E-13-1.38757E-13
 -1      4211 1.92524E+01 7.38793E-01-1.20429E-04-6.48026E-01-8.56699E-15-6.31244E-14
 -1      4212 1.93615E+01 6.81798E-01-3.43106E-03-5.92636E-01 1.64633E-14-1.21931E-13
 -1      4213 1.93545E+01 7.00362E-01 3.43718E-03-4.70415E-01 1.12306E-14-9.87709E-14
 -1      4214 1.90676E+01 8.20462E-01 4.68694E-03-5.50855E-01-3.34205E-14-9.34317E-14
 -1      4215 1.73809E+01 1.09241E+00-3.99861E-03-7.02949E-01-1.59870E-14-8.89223E-14
 -1      4216 1.76822E+01 1.08129E+00-1.00571E-02-6.17349E-01 2.18257E-14-1.57434E-13
 -1      4217 1.55364E+01 1.07328E+00 4.40225E-02 9.20126E-01 1.49058E-14-2.90424E-13
 -1      4218 1.55922E+01 1.09179E+00-3.02245E-02 2.35311E-02 7.19954E-14-2.18194E-13
 -1      4219 1.55065E+01 9.61373E-01-2.25703E-02 1.16925E+00-2.28218E-14 3.59691E-13
 -1      4220 1.91449E+01 8.16220E-01-3.43006E-03 2.93559E-01-3.20117E-13-1.10570E-13
 -1      4221 1.90229E+01 8.76471E-01-2.29348E-03 3.28322E-01-1.83533E-13-1.28317E-13
 -1      4222 1.91645E+01 8.21911E-01 5.90496E-03 1.83145E-01-1.58559E-13-5.98595E-13
 -1      4223 1.60441E+01 1.17452E+00 2.72488E-02-4.93385E-01-1.36024E-15-5.02094E-14
 -1      4224 1.65672E+01 1.05043E+00-3.45395E-03-8.87607E-01-5.32335E-14-1.18747E-15
 -1      4225 1.69475E+01 1.07883E+00-1.52826E-02-7.58879E-01-3.57711E-14-4.90706E-14
 -1      4226 1.62343E+01 1.13530E+00-1.19957E-02 4.31106E-02 1.43245E-15-1.39413E-13
 -1      4227 1.93998E+01 6.65176E-01-2.23499E-04-2.24039E-01-3.43595E-13-1.88002E-13
 -1      4228 1.95074E+01 5.92698E-01-1.45457E-03-1.87658E-01-1.17756E-13-2.60009E-13
 -1      4229 1.94788E+01 6.17871E-01 1.23548E-03-1.15198E-01-1.45446E-13-9.74739E-14
 -1      4230 1.93145E+01 7.25417E-01 4.61348E-03-1.56309E-01-4.05570E-13 3.45485E-14
 -1      4231 1.66889E+01 6.39225E-01 1.10840E-03-1.63951E+00-8.87833E-14-1.87106E-13
 -1      4232 1.69337E+01 7.76605E-01-1.96688E-02-1.36429E+00 1.33255E-13-1.69670E-13
 -1      4233 1.68361E+01 1.03850E+00 2.14791E-02-9.78462E-01 1.34885E-13-2.45239E-13
 -1      4234 1.59995E+01 9.35924E-01 3.31056E-02-1.30772E+00-6.37509E-14-1.94735E-13
 -1      4235 2.02860E+01 4.92835E-01 8.46693E-04-1.20559E-01 1.09660E-13-1.58673E-13
 -1      4236 2.03524E+01 8.16835E-01 3.81236E-03 2.22862E-03 8.01110E-14-2.07948E-13
 -1      4237 2.03352E+01 9.60790E-01-2.26035E-03-9.20136E-04 9.49984E-14-2.35716E-13
 -1      4238 1.67190E+01 1.11854E+00-1.75028E-02 7.88344E-01-2.63457E-14 2.68026E-13
 -1      4239 1.63477E+01 1.08932E+00 3.25917E-03 9.32874E-01-1.69210E-14 1.83243E-13
 -1      4240 1.57334E+01 5.31499E-02 5.07146E-02-2.82318E+00-3.00411E-13-1.36969E-13
 -1      4241 1.62685E+01-3.76453E-01 4.10865E-02-3.14552E+00-6.79938E-14 2.03208E-13
 -1      4242 1.80082E+01 1.05991E+00-3.01163E-03-5.77730E-01 2.22090E-14-1.60132E-13
 -1      4243 1.82485E+01 1.02279E+00-6.67341E-03-5.17805E-01 1.47067E-14-1.18867E-13
 -1      4244 1.77390E+01 1.13151E+00 9.27534E-03-3.35957E-01 6.15594E-15-9.27760E-14
 -1      4245 2.03308E+01 6.59189E-01-9.51828E-05-4.33483E-02 9.16638E-14-2.19601E-13
 -1      4246 1.65921E+01 1.06174E+00 1.31530E-02 7.45461E-01 4.56970E-15-2.46892E-13
 -1      4247 1.66554E+01 8.11744E-01-1.99990E-02 1.18007E+00 1.21301E-15-1.51764E-13
 -1      4248 1.99562E+01 4.15650E-01 1.38727E-03-2.90921E-01 4.54905E-14-1.74560E-13
 -1      4249 1.63701E+01 6.93784E-01 4.33541E-03 1.44704E+00 2.74842E-14-2.19156E-13
 -1      4250 1.54695E+01 1.00015E+00 5.72482E-03-8.53871E-01-5.51052E-14-3.42341E-13
 -1      4251 1.59164E+01 1.05303E+00-1.55283E-02-7.20329E-01 3.31274E-14-2.60394E-13
 -1      4252 2.02729E+01 4.78965E-01-8.61839E-04-1.07708E-01 9.15520E-14-1.70189E-13
 -1      4253 2.03071E+01 5.45838E-01 1.81480E-04-7.47303E-02 1.07687E-13-1.80594E-13
 -1      4254 1.71762E+01 1.14988E+00-3.14405E-03 7.19290E-01 5.43560E-14 1.94882E-13
 -1      4255 1.67804E+01 1.23814E+00 1.47383E-02 4.05951E-01 6.65259E-14-2.75144E-14
 -1      4256 1.74840E+01 1.15363E+00-1.03488E-02 6.22289E-01 9.67777E-14 2.28492E-13
 -1      4257 1.58705E+01 4.62072E-01-3.69862E-02 1.86669E+00 6.53548E-14-1.76947E-13
 -1      4258 1.88954E+01 9.49968E-01 9.93100E-03 2.12698E-01-2.35590E-13-4.62522E-13
 -1      4259 1.88664E+01 9.33259E-01-4.49718E-03 3.53700E-01-1.47417E-13-1.59234E-13
 -1      4260 1.87121E+01 9.88866E-01-3.05800E-03 3.93971E-01-2.53399E-13-1.82922E-13
 -1      4261 1.95143E+01 6.02226E-01-1.47991E-03 2.11948E-01 8.28704E-14-2.67149E-13
 -1      4262 1.94436E+01 6.52697E-01-1.27741E-03 2.35744E-01 2.68004E-14-1.85369E-13
 -1      4263 1.93645E+01 7.09524E-01 4.63674E-03 1.68184E-01-6.59526E-14-4.40567E-13
 -1      4264 1.94970E+01 6.15244E-01 8.46370E-04 1.59200E-01 1.72263E-14-1.99390E-13
 -1      4265 1.94664E+01 6.23054E-01-4.63912E-04-3.58103E-02-2.41699E-13 9.23768E-14
 -1      4266 1.85030E+01 9.78801E-01-2.25349E-03-4.88984E-01-2.23403E-14-8.13068E-14
 -1      4267 1.86973E+01 9.25278E-01-4.80321E-03-4.43448E-01-4.12468E-15-9.79711E-14
 -1      4268 1.82961E+01 1.04410E+00 6.04348E-03-2.95943E-01 3.45845E-14-5.39653E-14
 -1      4269 2.01802E+01 4.07394E-01-5.70959E-04-1.54583E-01 6.90593E-14-1.81911E-13
 -1      4270 2.02289E+01 4.33917E-01-6.31534E-04-1.25421E-01 7.50123E-14-1.83902E-13
 -1      4271 2.02549E+01 4.86506E-01 1.73390E-03-8.01087E-02 9.12945E-14-1.57717E-13
 -1      4272 1.94826E+01 6.16527E-01-1.23939E-03 1.04713E-01-1.22737E-13-2.83292E-13
 -1      4273 1.70165E+01 1.18094E+00 1.55556E-02-3.89823E-01-1.96985E-14-3.42701E-14
 -1      4274 1.93388E+01 6.98119E-01-2.26317E-03-6.31950E-02-2.63639E-13-4.09769E-14
 -1      4275 1.94235E+01 6.57074E-01 1.67720E-03 3.34111E-02-1.78601E-13-9.06941E-14
 -1      4276 1.93569E+01 6.96265E-01-1.02352E-03 9.25784E-02-1.63719E-13-2.93633E-13
 -1      4277 1.92446E+01 7.61340E-01 2.10919E-03-8.29375E-02-3.48916E-13-1.19965E-13
 -1      4278 1.94934E+01 6.26353E-01-1.38191E-03-3.13805E-01 1.23222E-13-1.34231E-13
 -1      4279 1.96036E+01 5.70617E-01-2.11433E-03-2.87240E-01 8.93762E-14-1.43148E-13
 -1      4280 1.55472E+01 1.15188E+00 1.61462E-02 6.29168E-01 4.36369E-14 2.27376E-13
 -1      4281 2.03485E+01 8.25972E-01 1.14877E-03-5.70601E-03 2.84796E-14-2.18950E-13
 -1      4282 2.03419E+01 7.25022E-01-9.12678E-04 2.29956E-02 3.52676E-14-2.05187E-13
 -1      4283 1.80605E+01 1.11559E+00-8.97532E-03 5.12061E-01 5.81610E-14 8.29780E-14
 -1      4284 1.78200E+01 1.14121E+00-3.94920E-03 5.76469E-01 1.50430E-13 2.33971E-13
 -1      4285 1.75376E+01 1.21753E+00 1.14247E-02 3.40005E-01 1.91910E-13-3.09945E-14
 -1      4286 1.92249E+01 7.46474E-01-1.71221E-03-3.64079E-01-6.73582E-14-6.79283E-14
 -1      4287 1.93558E+01 6.85467E-01-3.05136E-03-3.33195E-01 6.98017E-14-9.25640E-14
 -1      4288 1.93943E+01 6.89502E-01 5.82259E-03-2.13686E-01 4.29636E-14-1.33965E-13
 -1      4289 1.85124E+01 1.03858E+00-6.00265E-03 4.23423E-01-1.95696E-13-2.03488E-13
 -1      4290 1.83190E+01 1.08359E+00-3.45850E-03 4.72646E-01-7.62977E-14-6.94546E-14
 -1      4291 1.81044E+01 1.17010E+00 1.54068E-02 2.79377E-01 1.48374E-13-6.25920E-14
 -1      4292 1.85508E+01 1.06864E+00 1.31126E-02 2.44453E-01-1.15034E-13-3.30376E-13
 -1      4293 1.62614E+01 1.39577E-01 3.23444E-02 2.44257E+00 1.65216E-13-2.15009E-13
 -1      4294 1.47860E+01 5.23362E-01 4.65731E-04-1.77831E+00-2.54117E-13-4.56550E-13
 -1      4295 1.46428E+01 9.48238E-01 2.23473E-02-1.09483E+00-1.62639E-13-4.79078E-13
 -1      4296 2.02159E+01 4.31381E-01-9.42923E-04 1.11293E-01 9.81069E-15-1.38391E-13
 -1      4297 2.01899E+01 4.43895E-01 1.89182E-03 7.01253E-02 3.61073E-14-1.11219E-13
 -1      4298 2.02612E+01 4.71462E-01-9.13021E-04 8.42726E-02 1.63732E-15-1.53966E-13
 -1      4299 2.03356E+01 6.98783E-01 6.44506E-04 1.36257E-02 6.15792E-14-1.60295E-13
 -1      4300 2.03262E+01 6.17741E-01-6.32154E-04 3.49884E-02 2.71372E-14-1.84784E-13
 -1      4301 2.02990E+01 5.36312E-01-8.07442E-04 6.62308E-02 6.39255E-15-1.79406E-13
 -1      4302 2.03369E+01 9.54533E-01-1.40402E-03-1.48103E-02 5.40472E-14-2.40271E-13
 -1      4303 1.50478E+01 1.11800E+00-4.38958E-03 2.44360E-01-1.97628E-14-1.13437E-13
 -1      4304 1.47562E+01 1.15394E+00 2.97815E-02-4.11363E-01-7.00395E-14-5.46917E-13
 -1      4305 2.03343E+01 6.99779E-01-1.26579E-03-1.31876E-02 6.40343E-14-2.40559E-13
 -1      4306 2.03342E+01 7.03959E-01-1.68777E-03-3.58779E-03 4.99339E-14-1.95531E-13
 -1      4307 2.03189E+01 6.04020E-01 5.78587E-06 3.32905E-03 3.72413E-14-2.11239E-13
 -1      4308 2.03260E+01 6.09226E-01 2.68886E-03-3.81906E-02 2.16251E-14-2.43795E-13
 -1      4309 1.71113E+01 1.06360E+00 4.58178E-03 5.51220E-01-8.89198E-15-2.41741E-13
 -1      4310 1.66042E+01 1.14456E+00 1.06981E-02 4.00644E-01-3.20898E-14-1.97283E-13
 -1      4311 1.67888E+01 1.15136E+00-1.12992E-02-7.78131E-02-5.89622E-14-8.24569E-14
 -1      4312 1.74116E+01 1.06531E+00-8.34451E-03 4.52803E-01 1.05124E-14-1.33843E-13
 -1      4313 2.00568E+01 3.99434E-01-3.87402E-04-1.95086E-01 7.74533E-14-1.26210E-13
 -1      4314 2.01184E+01 3.96035E-01-9.30177E-04-1.69272E-01 7.35992E-14-1.39352E-13
 -1      4315 2.01508E+01 4.27491E-01 1.96592E-03-1.11216E-01 2.90387E-14-1.67264E-13
 -1      4316 1.99027E+01 4.42016E-01-4.23551E-04-2.33075E-01 6.69060E-14-1.42346E-13
 -1      4317 1.99785E+01 4.14879E-01-1.09589E-03-2.08104E-01 7.75029E-14-1.40247E-13
 -1      4318 2.00115E+01 4.24842E-01 5.13155E-05-1.38773E-01 8.11096E-14-9.75914E-14
 -1      4319 1.99353E+01 4.43423E-01-1.93058E-03 3.29757E-02 4.34784E-14-1.37815E-13
 -1      4320 1.98482E+01 4.73259E-01-8.61565E-04 4.65595E-02 6.98294E-14-1.06776E-13
 -1      4321 1.97463E+01 5.11044E-01-1.78097E-03 4.85825E-02 9.63378E-14-9.95831E-14
 -1      4322 1.96390E+01 5.55260E-01-1.90766E-03 6.46692E-02 6.93532E-14-6.62187E-14
 -1      4323 1.97960E+01 5.02685E-01 1.36375E-03-3.79235E-02 8.47522E-14-1.13184E-13
 -1      4324 1.95436E+01 5.98975E-01-2.22455E-03-1.42832E-02 3.06826E-14-1.04644E-13
 -1      4325 1.94157E+01 6.52315E-01-3.06660E-03 2.01908E-04-4.76336E-15-9.21838E-14
 -1      4326 1.92768E+01 7.11342E-01-3.86304E-03-4.03935E-03-3.23934E-14-3.42529E-14
 -1      4327 1.91305E+01 7.72384E-01-2.36061E-03 1.56489E-02-1.57846E-14-5.09040E-14
 -1      4328 1.85396E+01 9.44984E-01-4.98004E-03 1.91644E-01-1.36685E-15 1.60632E-14
 -1      4329 1.83290E+01 9.93133E-01-1.36947E-03 2.40248E-01 4.09789E-14-3.34276E-14
 -1      4330 1.80392E+01 1.02841E+00-7.13125E-03 2.95156E-01 6.50772E-14-2.83932E-14
 -1      4331 1.77849E+01 1.05921E+00-2.98089E-04 3.65105E-01 7.37382E-14-1.02953E-13
 -1      4332 1.74964E+01 1.13440E+00 9.06079E-03 1.72536E-01 1.09996E-14-1.51294E-13
 -1      4333 1.81410E+01 1.06202E+00 6.65743E-03 6.17126E-02 3.50202E-14-4.64361E-14
 -1      4334 1.75986E+01 1.11893E+00-7.12503E-03-1.18911E-01 9.99331E-15-8.09017E-14
 -1      4335 1.79232E+01 1.09097E+00-2.74625E-03-1.12650E-01 3.85232E-14-7.20000E-14
 -1      4336 1.71646E+01 1.13996E+00-5.61090E-03-4.74172E-01 1.86652E-13-3.13826E-13
 -1      4337 1.74639E+01 1.13970E+00-1.33954E-02-3.67534E-01 2.05198E-13-2.52685E-13
 -1      4338 1.77267E+01 1.15190E+00-5.42600E-03-1.47524E-01 2.22559E-13-1.70654E-13
 -1      4339 1.79720E+01 1.12234E+00-1.09303E-02-9.18545E-02 1.61658E-13-6.32272E-14
 -1      4340 1.82297E+01 1.08383E+00-8.56143E-03-8.78897E-02 1.84903E-14-1.41969E-13
 -1      4341 1.84305E+01 1.03919E+00-1.07941E-02-4.41884E-02 2.29998E-14-1.82268E-13
 -1      4342 1.86337E+01 9.91825E-01-7.22716E-03-4.70401E-02-4.31458E-14-2.54562E-13
 -1      4343 1.87963E+01 9.37242E-01-8.28978E-03-1.59522E-02-1.86526E-13-3.09522E-13
 -1      4344 1.89574E+01 8.82235E-01-5.28628E-03-2.15453E-02-2.51203E-13-3.22727E-13
 -1      4345 1.90890E+01 8.25386E-01-4.93221E-03-4.52286E-04-2.69309E-13-3.47613E-13
 -1      4346 1.72244E+01 1.14813E+00-5.00170E-03-7.07792E-02-2.24508E-14-1.11272E-13
 -1      4347 1.64187E+01 1.09969E+00-6.94819E-03-6.40995E-01-2.32826E-14-2.53195E-13
 -1      4348 1.67839E+01 1.12399E+00-1.40157E-02-5.29310E-01 6.85720E-14-2.57762E-13
 -1      4349 1.69139E+01 1.23873E+00 1.23704E-02-1.48983E-01 1.04022E-13-2.14670E-13
 -1      4350 1.60751E+01 1.22479E+00 2.20520E-02-2.18473E-01 5.15859E-14-3.22949E-13
 -1      4351 1.58793E+01 1.18893E+00-1.35401E-02 1.06274E-01 1.69352E-15-1.34067E-13
 -1      4352 1.89019E+01 8.69721E-01-1.26765E-03-4.21344E-01 1.85187E-15-8.90235E-14
 -1      4353 1.90603E+01 8.08841E-01-3.11502E-03-3.83732E-01-4.59785E-14-7.47261E-14
 -1      4354 1.87402E+01 9.30149E-01 4.32339E-03-2.65703E-01-3.04228E-14-8.06913E-14
 -1      4355 1.97169E+01 5.21227E-01-7.83638E-04-2.71882E-01 5.30342E-14-9.92081E-14
 -1      4356 1.98088E+01 4.77076E-01-1.33087E-03-2.46758E-01 3.92647E-14-1.44268E-13
 -1      4357 1.98438E+01 4.79531E-01 1.53475E-03-1.62588E-01 5.98968E-14-1.03635E-13
 -1      4358 1.96402E+01 5.68069E-01 2.13972E-03-1.85720E-01 7.50801E-14-1.43364E-13
 -1      4359 2.03356E+01 9.66557E-01-1.72325E-03-2.61279E-02 3.14394E-14-2.49706E-13
 -1      4360 2.01052E+01 4.18341E-01-1.03641E-03-2.22440E-02 2.54487E-14-1.52286E-13
 -1      4361 2.00335E+01 4.23227E-01-8.11736E-04-1.37750E-02 4.08446E-15-1.59222E-13
 -1      4362 1.92725E+01 7.37816E-01-3.40304E-03 9.12195E-02-1.29108E-13-3.85593E-13
 -1      4363 2.03203E+01 5.78527E-01 7.13796E-04-7.10573E-02 8.17425E-14-1.99367E-13
 -1      4364 1.63899E+01 1.21122E+00-5.55855E-03 1.19828E-01 9.81532E-14-1.15551E-13
 -1      4365 1.96073E+01 5.83131E-01 1.70539E-03-1.16827E-01 9.93767E-14-1.51805E-13
 -1      4366 1.82091E+01 1.04206E+00-4.20879E-03-1.40653E-01 3.65378E-14-8.21875E-14
 -1      4367 1.89231E+01 8.38233E-01-5.21855E-03 1.30308E-01-2.24890E-14-2.73046E-14
 -1      4368 1.87520E+01 8.94614E-01-2.20640E-03 1.68479E-01 1.28475E-15-6.51752E-15
 -1      4369 1.68339E+01 1.21545E+00-7.18264E-03 1.05640E-01 1.21549E-13-1.15555E-13
 -1      4370 1.92149E+01 7.67018E-01-3.22694E-03-4.31189E-03-1.94596E-13-2.69723E-13
 -1      4371 1.97199E+01 5.27357E-01 1.68845E-05-1.07879E-01 9.82895E-14-1.48525E-13
 -1      4372 1.84610E+01 9.93243E-01-1.90853E-03-1.34581E-01 1.77174E-14-8.94444E-14
 -1      4373 1.90453E+01 8.23195E-01 3.39825E-03-1.23756E-01-1.43250E-15-3.09546E-14
 -1      4374 2.02835E+01 5.30819E-01 1.63609E-03 3.99021E-02 1.68908E-14-1.81544E-13
 -1      4375 2.01674E+01 4.28231E-01-1.57793E-03-1.08933E-02 5.21805E-14-1.58431E-13
 -1      4376 2.02240E+01 4.55297E-01-8.20729E-04-1.98896E-02 5.17765E-14-1.58682E-13
 -1      4377 1.86278E+01 9.56076E-01 4.89339E-03 6.41376E-03-2.99435E-15-1.00092E-13
 -1      4378 2.02690E+01 5.00753E-01-9.64045E-04-6.33288E-03 5.42343E-14-1.84812E-13
 -1      4379 1.75344E+01 1.21601E+00 3.76965E-03 9.67765E-02 2.43963E-13-1.40012E-13
 -1      4380 1.72106E+01 1.21057E+00-3.76417E-03 1.06833E-01 2.09103E-13-1.27212E-13
 -1      4381 1.98188E+01 4.85098E-01-1.04639E-03-1.02552E-01 5.50783E-14-1.15340E-13
 -1      4382 1.99937E+01 4.37406E-01 1.13173E-03-8.53473E-02 5.96284E-14-9.35063E-14
 -1      4383 2.03084E+01 5.66353E-01 3.99249E-04-6.08250E-02 7.96488E-14-2.18279E-13
 -1      4384 2.03070E+01 5.74501E-01 2.86550E-04-3.92549E-02 5.37285E-14-2.33542E-13
 -1      4385 1.90971E+01 8.04331E-01 2.11803E-03-2.43217E-01-1.40101E-14-3.23970E-15
 -1      4386 1.86713E+01 9.35488E-01-2.65504E-03-1.37023E-01-3.44291E-14-7.26141E-14
 -1      4387 2.03055E+01 5.66730E-01-6.11496E-04-1.92273E-02 4.99389E-14-1.98165E-13
 -1      4388 1.88789E+01 8.75538E-01-4.32779E-05-1.32147E-01-1.01649E-14-6.89769E-14
 -1      4389 1.99151E+01 4.53431E-01 9.55785E-04-9.49302E-02 7.67273E-14-7.27491E-14
 -3
    1PSTEP                         3           1           1          
  100CL  101 1.000000000        4389                     0    1           1
 -4  TOSTRAIN    6    1
 -5  EXX         1    4    1    1
 -5  EYY         1    4    2    2
 -5  EZZ         1    4    3    3
 -5  EXY         1    4    1    2
 -5  EYZ         1    4    2    3
 -5  EZX         1    4    3    1
 -1         1 2.34710E-04-5.10312E-05-6.88002E-05-9.89700E-05-4.07370E-18 1.07395E-17
 -1         2 3.56095E-05-1.09478E-04 1.99179E-05-1.88795E-06 6.69095E-18 3.67798E-19
 -1         3 9.52275E-05-2.85811E-05-2.85425E-05-3.51009E-09-3.12053E-18-3.27641E-18
 -1         4 9.52273E-05-2.85812E-05-2.85429E-05 4.11183E-09 5.70125E-19 1.11309E-18
 -1         5 1.43008E-04-2.14261E-05-4.24346E-05 3.84605E-05-2.80527E-19 1.89199E-17
 -1         6 1.45071E-04 2.56932E-10-4.40915E-05-5.34205E-05-1.09013E-18 1.71507E-17
 -1         7 9.04630E-05-5.10542E-07-3.90043E-05-2.92053E-05-1.45478E-19 3.14178E-18
 -1         8 8.50592E-05 8.50664E-08-3.63093E-05-2.02330E-05-1.86294E-19-1.11899E-18
 -1         9 8.28089E-05 7.51292E-08-3.53467E-05-1.55992E-05-1.70399E-19-3.46300E-18
 -1        10 8.18144E-05 3.70537E-08-3.48967E-05-1.20319E-05-1.17268E-19-4.61357E-18
 -1        11 8.13209E-05 1.80962E-08-3.46807E-05-8.96644E-06-8.50871E-20-5.09609E-18
 -1        12 8.10688E-05 8.06345E-09-3.45748E-05-6.24401E-06-4.24790E-20-5.25902E-18
 -1        13 8.09373E-05 3.65632E-09-3.45220E-05-3.65864E-06-1.24871E-20-5.25392E-18
 -1        14 8.08827E-05 1.90742E-09-3.45007E-05-1.17463E-06 2.40598E-20-5.15573E-18
 -1        15 8.08850E-05 1.89010E-09-3.45015E-05 1.27847E-06 5.32971E-20-5.00523E-18
 -1        16 8.09444E-05 3.55913E-09-3.45245E-05 3.76779E-06 7.33742E-20-4.77137E-18
 -1        17 8.10814E-05 7.21713E-09-3.45788E-05 6.36575E-06 1.07355E-19-4.41180E-18
 -1        18 8.13388E-05 1.67404E-08-3.46863E-05 9.10847E-06 1.12202E-19-3.81906E-18
 -1        19 8.18364E-05 3.65334E-08-3.49049E-05 1.22109E-05 1.93501E-19-2.90257E-18
 -1        20 8.28315E-05 7.97317E-08-3.53591E-05 1.58286E-05 2.31809E-19-1.34364E-18
 -1        21 8.50242E-05 1.67819E-07-3.63468E-05 2.04453E-05 2.66365E-19 1.51470E-18
 -1        22 9.14943E-05-9.91675E-08-3.86757E-05 2.79555E-05 5.06102E-20 7.05827E-18
 -1        23 1.12695E-04-3.80329E-05-3.53136E-05-4.39411E-06-6.90967E-19 1.34609E-17
 -1        24 9.25757E-05-2.76290E-05-2.89290E-05 3.89748E-07-2.08291E-19 1.00155E-17
 -1        25 8.89202E-05-2.67931E-05-2.68692E-05 3.74028E-07-9.66643E-20 6.48729E-18
 -1        26 8.78543E-05-2.64411E-05-2.63436E-05 2.01893E-07-1.93850E-20 4.07207E-18
 -1        27 8.79369E-05-2.64366E-05-2.63532E-05 1.37423E-07 2.30287E-20 2.88618E-18
 -1        28 8.85588E-05-2.66000E-05-2.65499E-05 9.84465E-08-2.29172E-19 1.89837E-18
 -1        29 8.94505E-05-2.68545E-05-2.68244E-05 7.31435E-08-7.61684E-20 5.10629E-19
 -1        30 9.04814E-05-2.71568E-05-2.71374E-05 5.57358E-08 1.94980E-19-3.20619E-19
 -1        31 9.15922E-05-2.74865E-05-2.74735E-05 4.36277E-08-9.60984E-20-1.07053E-18
 -1        32 9.27678E-05-2.78375E-05-2.78290E-05 3.56986E-08 5.19020E-21-1.83411E-18
 -1        33 9.40224E-05-2.82132E-05-2.82087E-05 3.15438E-08 6.75741E-20-2.45009E-18
 -1        34 9.53907E-05-2.86236E-05-2.86229E-05 3.11390E-08 6.93565E-20-2.49177E-18
 -1        35 9.69202E-05-2.90826E-05-2.90857E-05 3.46660E-08-1.96482E-19-3.21264E-18
 -1        36 9.86631E-05-2.96051E-05-2.96124E-05 4.23610E-08 1.10756E-19-3.15147E-18
 -1        37 1.00664E-04-3.02045E-05-3.02157E-05 5.42784E-08-6.80443E-20-3.04884E-18
 -1        38 1.02946E-04-3.08864E-05-3.09007E-05 6.98542E-08-2.26717E-19-4.14047E-18
 -1        39 1.05478E-04-3.16421E-05-3.16565E-05 8.71274E-08 1.05017E-19-5.62511E-18
 -1        40 1.08149E-04-3.24374E-05-3.24455E-05 1.01497E-07-2.16990E-19-5.95251E-18
 -1        41 1.10714E-04-3.31995E-05-3.31905E-05 1.04112E-07 4.35238E-20-5.78999E-18
 -1        42 1.12754E-04-3.38048E-05-3.37633E-05 8.06840E-08-3.02272E-19-6.03062E-18
 -1        43 1.13669E-04-3.40757E-05-3.39870E-05 1.28732E-08-1.86291E-19-6.20172E-18
 -1        44 1.12753E-04-3.38032E-05-3.36652E-05-1.13848E-07 1.52774E-19-4.94596E-18
 -1        45 1.09431E-04-3.28156E-05-3.26560E-05-2.92609E-07-3.70431E-19-5.80472E-18
 -1        46 1.03665E-04-3.10986E-05-3.09836E-05-4.73051E-07 8.47992E-20-7.32382E-18
 -1        47 9.63833E-05-2.89252E-05-2.89381E-05-5.58699E-07 1.05908E-19-5.38636E-18
 -1        48 8.95589E-05-2.68831E-05-2.70661E-05-4.54903E-07 2.82993E-19-3.89610E-18
 -1        49 8.55717E-05-2.56880E-05-2.59877E-05-1.54493E-07 2.74123E-19-2.46852E-18
 -1        50 8.60037E-05-2.58180E-05-2.61030E-05 2.20080E-07-2.32487E-19-4.39616E-18
 -1        51 9.06799E-05-2.72198E-05-2.73687E-05 4.90175E-07-1.10098E-20-5.22551E-18
 -1        52 9.77776E-05-2.93429E-05-2.93234E-05 5.54763E-07-1.02226E-19-5.65670E-18
 -1        53 1.04910E-04-3.14705E-05-3.13393E-05 4.43101E-07 9.81739E-20-7.69331E-18
 -1        54 1.10276E-04-3.30672E-05-3.29080E-05 2.56664E-07 3.30343E-20-8.48088E-18
 -1        55 1.13151E-04-3.39218E-05-3.37931E-05 8.53882E-08 7.46009E-20-8.41763E-18
 -1        56 1.13714E-04-3.40897E-05-3.40118E-05-2.97445E-08 3.97249E-19-6.63375E-18
 -1        57 1.12595E-04-3.37588E-05-3.37255E-05-8.74917E-08-1.58167E-19-6.70447E-18
 -1        58 1.10499E-04-3.31372E-05-3.31332E-05-1.04160E-07 1.20928E-19-7.35419E-18
 -1        59 1.08001E-04-3.23952E-05-3.24059E-05-9.76283E-08-1.77804E-19-5.82400E-18
 -1        60 1.05492E-04-3.16485E-05-3.16641E-05-8.10561E-08 1.92614E-20-5.26339E-18
 -1        61 1.03198E-04-3.09641E-05-3.09793E-05-6.22650E-08 8.91694E-20-3.97015E-18
 -1        62 1.01222E-04-3.03737E-05-3.03861E-05-4.51176E-08-3.29668E-19-4.52149E-18
 -1        63 9.95925E-05-2.98856E-05-2.98948E-05-3.10764E-08-1.50849E-20-5.47824E-18
 -1        64 9.82914E-05-2.94952E-05-2.95015E-05-2.03451E-08-1.50420E-19-5.54667E-18
 -1        65 9.72813E-05-2.91917E-05-2.91956E-05-1.25519E-08-6.06208E-19-5.40007E-18
 -1        66 9.65177E-05-2.89618E-05-2.89641E-05-7.09407E-09 3.26001E-19-4.54606E-18
 -1        67 9.59582E-05-2.87930E-05-2.87945E-05-3.26570E-09 7.00206E-19 1.37896E-19
 -1        68 9.55674E-05-2.86748E-05-2.86765E-05-2.59901E-10 1.72190E-19 2.01965E-18
 -1        69 9.53204E-05-2.85995E-05-2.86024E-05 3.09780E-09 1.45941E-19 3.44009E-19
 -1        70 9.52018E-05-2.85625E-05-2.85660E-05 8.87691E-09-1.71778E-19 2.61834E-18
 -1        71 9.51981E-05-2.85600E-05-2.85564E-05 1.53065E-08-2.53783E-19 1.90694E-18
 -1        72 1.01916E-04-3.05070E-05-3.40682E-05-1.92285E-06 2.11917E-19 1.76105E-17
 -1        73 9.23294E-05-2.74443E-05-2.88366E-05-3.31545E-07 1.55589E-19 1.38229E-17
 -1        74 8.89032E-05-2.66412E-05-2.69111E-05-1.23629E-07 7.89238E-20 1.13264E-17
 -1        75 8.78776E-05-2.63897E-05-2.63857E-05-9.23140E-08 6.28554E-20 9.32532E-18
 -1        76 8.79625E-05-2.64135E-05-2.63773E-05-7.22694E-08-6.26999E-20 7.72063E-18
 -1        77 8.85811E-05-2.65903E-05-2.65638E-05-5.70968E-08 1.40818E-19 6.65879E-18
 -1        78 8.94676E-05-2.68506E-05-2.68329E-05-4.51591E-08-8.26395E-20 6.42479E-18
 -1        79 9.04934E-05-2.71554E-05-2.71428E-05-3.51381E-08 1.74598E-19 5.97833E-18
 -1        80 9.16017E-05-2.74865E-05-2.74775E-05-2.64923E-08-3.01074E-20 4.71196E-18
 -1        81 9.27810E-05-2.78396E-05-2.78342E-05-1.91642E-08 1.01517E-19 4.42131E-18
 -1        82 9.40518E-05-2.82206E-05-2.82192E-05-1.33725E-08 6.21396E-20 3.73801E-18
 -1        83 9.54590E-05-2.86426E-05-2.86461E-05-9.57031E-09 1.94014E-19 3.07699E-18
 -1        84 9.70670E-05-2.91248E-05-2.91343E-05-8.50055E-09 1.15359E-19 2.30904E-18
 -1        85 9.89543E-05-2.96902E-05-2.97070E-05-1.13077E-08 3.95407E-20 1.72534E-18
 -1        86 1.01206E-04-3.03637E-05-3.03891E-05-1.96646E-08 9.82862E-20 1.28867E-18
 -1        87 1.03898E-04-3.11681E-05-3.12026E-05-3.58197E-08-2.25976E-19 2.40132E-18
 -1        88 1.07074E-04-3.21159E-05-3.21576E-05-6.23312E-08-1.70656E-19 2.02297E-18
 -1        89 1.10702E-04-3.31971E-05-3.32389E-05-1.00952E-07 2.29697E-19 7.48148E-19
 -1        90 1.14598E-04-3.43585E-05-3.43831E-05-1.49701E-07-3.36864E-19 8.27313E-19
 -1        91 1.18334E-04-3.54755E-05-3.54503E-05-1.97105E-07 1.65649E-19 2.62715E-18
 -1        92 1.21133E-04-3.63228E-05-3.62018E-05-2.14359E-07-3.13379E-19 4.12486E-18
 -1        93 1.21864E-04-3.65683E-05-3.63102E-05-1.51365E-07 1.60198E-19 5.03538E-18
 -1        94 1.19262E-04-3.58326E-05-3.54478E-05 4.88784E-08 3.30293E-20 2.33882E-18
 -1        95 1.12579E-04-3.38682E-05-3.34832E-05 3.93566E-07 1.07272E-19 6.06793E-19
 -1        96 1.02601E-04-3.08665E-05-3.07268E-05 7.53652E-07 7.25313E-21 2.87202E-18
 -1        97 9.23297E-05-2.77056E-05-2.80132E-05 8.70998E-07-1.40978E-19 3.57593E-18
 -1        98 8.60967E-05-2.57279E-05-2.64228E-05 5.61845E-07-1.02061E-19 4.47769E-18
 -1        99 8.70040E-05-2.59517E-05-2.66704E-05-5.37236E-08 3.11136E-19 2.16617E-18
 -1       100 9.46031E-05-2.82767E-05-2.86428E-05-5.96413E-07-3.63963E-19 1.49403E-18
 -1       101 1.05224E-04-3.15481E-05-3.14715E-05-7.85790E-07 5.51456E-20 1.50047E-18
 -1       102 1.14643E-04-3.44340E-05-3.40913E-05-6.45706E-07 2.31298E-19-1.34615E-18
 -1       103 1.20381E-04-3.61706E-05-3.57907E-05-3.69929E-07-3.19824E-19 1.06197E-19
 -1       104 1.22110E-04-3.66764E-05-3.63954E-05-1.21800E-07-1.23476E-19 3.49311E-18
 -1       105 1.20799E-04-3.62634E-05-3.61104E-05 3.62306E-08 5.32722E-19 2.31008E-18
 -1       106 1.17735E-04-3.53295E-05-3.52762E-05 1.10681E-07-8.77572E-19 1.38001E-18
 -1       107 1.13983E-04-3.41961E-05-3.42017E-05 1.30504E-07 3.22727E-19-1.27178E-18
 -1       108 1.10232E-04-3.30679E-05-3.31004E-05 1.22024E-07 3.04905E-19-3.05591E-18
 -1       109 1.06848E-04-3.20526E-05-3.20926E-05 1.02341E-07 1.27227E-19-2.69253E-18
 -1       110 1.03979E-04-3.11926E-05-3.12306E-05 8.06152E-08-5.79702E-19-4.37405E-18
 -1       111 1.01645E-04-3.04933E-05-3.05255E-05 6.09565E-08 4.54531E-19-3.26335E-18
 -1       112 9.98025E-05-2.99412E-05-2.99669E-05 4.47594E-08-3.56472E-19-1.19246E-18
 -1       113 9.83817E-05-2.95154E-05-2.95351E-05 3.21399E-08 5.89152E-19 5.78638E-20
 -1       114 9.73085E-05-2.91937E-05-2.92084E-05 2.26988E-08 2.17909E-19-2.63332E-18
 -1       115 9.65148E-05-2.89557E-05-2.89666E-05 1.58550E-08-3.27972E-19-2.61335E-18
 -1       116 9.59437E-05-2.87843E-05-2.87927E-05 1.09616E-08 4.07216E-19-1.61141E-18
 -1       117 9.55513E-05-2.86663E-05-2.86736E-05 7.35756E-09-2.05612E-19-1.24126E-18
 -1       118 9.53075E-05-2.85925E-05-2.86002E-05 3.91077E-09 4.90186E-19-2.22351E-18
 -1       119 9.51956E-05-2.85581E-05-2.85652E-05-2.27140E-09-3.45901E-19-5.89935E-18
 -1       120 9.51973E-05-2.85573E-05-2.85566E-05-1.35014E-08 1.54395E-18-5.14326E-18
 -1       121 9.52478E-05-2.86078E-05-2.85579E-05-1.78772E-08-4.16976E-18 5.85074E-19
 -1       122 9.52460E-05-2.86019E-05-2.85690E-05-5.15888E-09 5.29895E-18 2.15387E-18
 -1       123 9.52098E-05-2.84808E-05-2.86050E-05 4.21492E-09 1.28776E-17 1.67271E-18
 -1       124 9.51472E-05-2.82710E-05-2.86647E-05 9.43939E-09 1.88925E-17-3.52285E-19
 -1       125 9.50723E-05-2.80194E-05-2.87367E-05 1.09869E-08 1.49527E-17-1.22717E-18
 -1       126 9.50013E-05-2.77802E-05-2.88056E-05 9.89284E-09 5.43428E-18-6.61899E-19
 -1       127 9.49450E-05-2.75905E-05-2.88605E-05 6.72714E-09 4.05713E-18 8.16557E-19
 -1       128 9.49145E-05-2.74878E-05-2.88903E-05 2.35343E-09 2.69445E-18-5.11715E-19
 -1       129 9.49150E-05-2.74892E-05-2.88900E-05-2.39307E-09-1.58986E-18 1.42101E-18
 -1       130 9.49461E-05-2.75942E-05-2.88595E-05-6.68282E-09-8.18929E-20-2.91410E-18
 -1       131 9.50025E-05-2.77844E-05-2.88045E-05-9.80632E-09-2.21288E-18-3.74253E-19
 -1       132 9.50731E-05-2.80222E-05-2.87359E-05-1.07671E-08-7.48983E-18 5.69433E-19
 -1       133 9.51472E-05-2.82713E-05-2.86645E-05-9.17836E-09-8.36730E-18-1.31949E-19
 -1       134 9.52090E-05-2.84793E-05-2.86055E-05-4.96764E-09-2.88887E-18 2.59758E-19
 -1       135 9.52456E-05-2.85982E-05-2.85695E-05 6.67208E-09-1.98861E-19-1.00309E-18
 -1       136 9.52433E-05-2.86046E-05-2.85574E-05 2.67740E-08-2.41653E-18-3.06864E-19
 -1       137 2.45441E-05-8.43306E-05 1.49249E-05-2.32323E-05 1.16099E-17 2.25676E-18
 -1       138 6.81100E-06-3.07956E-05 2.39382E-06-1.75031E-05 1.34145E-17 6.27143E-18
 -1       139 1.31776E-05 1.64122E-05-1.62259E-05 2.63353E-05 1.31299E-17 9.75147E-18
 -1       140 6.24127E-05 2.61470E-05-3.65121E-05 8.08347E-05 1.29058E-17 1.57518E-17
 -1       141 1.52727E-04-6.53145E-06-5.61757E-05 1.13040E-04 9.08888E-18 1.51560E-17
 -1       142 2.52424E-04-6.05723E-05-7.15104E-05 9.10717E-05 2.54390E-18 7.94432E-18
 -1       143 3.08500E-04-9.42180E-05-7.89879E-05 2.01552E-05 1.65754E-19-1.42826E-18
 -1       144 2.87076E-04-8.09830E-05-7.61475E-05-6.38065E-05 2.11576E-18-1.04073E-17
 -1       145 1.96468E-04-2.92171E-05-6.30865E-05-1.10583E-04 6.91941E-18-1.65870E-17
 -1       146 9.76180E-05 1.67275E-05-4.52903E-05-9.95259E-05 1.03330E-17-1.50056E-17
 -1       147 2.54315E-05 2.51923E-05-2.35023E-05-4.65274E-05 1.15417E-17-1.01699E-17
 -1       148 4.52550E-06-1.36103E-05-2.81373E-06 7.34440E-06 1.13337E-17-6.18609E-18
 -1       149 1.81739E-05-6.83594E-05 1.14986E-05 2.63911E-05 5.84495E-18-1.71027E-18
 -1       150 3.42830E-05-1.06151E-04 1.91425E-05 1.26695E-05 2.66815E-20-3.19384E-19
 -1       151 3.22014E-05-1.02361E-04 1.86352E-05-1.53556E-05-1.37983E-17-2.91714E-18
 -1       152 1.46570E-05-5.64968E-05 8.76624E-06-2.26187E-05-2.13427E-17-6.96166E-18
 -1       153 4.97541E-06-2.36440E-06-6.66530E-06 2.22770E-06-2.00412E-17-1.20766E-17
 -1       154 3.50050E-05 2.79491E-05-2.75301E-05 5.81042E-05-1.70995E-17-1.66954E-17
 -1       155 1.12381E-04 1.14734E-05-4.84638E-05 1.05060E-04-1.14532E-17-1.73798E-17
 -1       156 2.08814E-04-3.64090E-05-6.49016E-05 1.07210E-04-5.40343E-18-1.31968E-17
 -1       157 2.90314E-04-8.39589E-05-7.63857E-05 5.05295E-05-8.32276E-19-3.94124E-18
 -1       158 2.98328E-04-8.91684E-05-7.73848E-05-3.52231E-05-2.50669E-19 4.48440E-18
 -1       159 1.36848E-04 8.37200E-07-5.32228E-05-1.10712E-04-9.24198E-18 1.56938E-17
 -1       160 5.24134E-05 2.77550E-05-3.34443E-05-7.34334E-05-1.54075E-17 1.65159E-17
 -1       161 8.67510E-06 1.17486E-05-1.28856E-05-1.76984E-05-1.50082E-17 1.14248E-17
 -1       162 8.80543E-06-3.73721E-05 4.09052E-06 1.92017E-05-9.61891E-18 3.86776E-18
 -1       163 2.66797E-05-8.88049E-05 1.58019E-05 2.27819E-05 6.10711E-19 1.53869E-19
 -1       164 9.47642E-05-1.23380E-05-3.55279E-05-2.22911E-05-2.47132E-18 8.37504E-19
 -1       165 8.92154E-05-8.45314E-06-3.47743E-05-1.73252E-05-2.20509E-18-1.77002E-18
 -1       166 8.65770E-05-6.51112E-06-3.44244E-05-1.35296E-05-1.70258E-18-3.25516E-18
 -1       167 8.52420E-05-5.50724E-06-3.42547E-05-1.03033E-05-1.26349E-18-4.02610E-18
 -1       168 8.45128E-05-4.92665E-06-3.41770E-05-7.48988E-06-8.35419E-19-4.31829E-18
 -1       169 8.40918E-05-4.57094E-06-3.41416E-05-4.86066E-06-3.58113E-19-4.37126E-18
 -1       170 8.38754E-05-4.37929E-06-3.41273E-05-2.37241E-06 7.99313E-20-4.31737E-18
 -1       171 8.38115E-05-4.32099E-06-3.41239E-05 5.05108E-08 4.82280E-19-4.19393E-18
 -1       172 8.38859E-05-4.38798E-06-3.41283E-05 2.47557E-06 8.54487E-19-4.05652E-18
 -1       173 8.41149E-05-4.59076E-06-3.41432E-05 4.97058E-06 1.19274E-18-3.81714E-18
 -1       174 8.45421E-05-4.95437E-06-3.41782E-05 7.56613E-06 1.51816E-18-3.39327E-18
 -1       175 8.53030E-05-5.56782E-06-3.42567E-05 1.04486E-05 2.01352E-18-2.64796E-18
 -1       176 8.66691E-05-6.60983E-06-3.44268E-05 1.37194E-05 2.37325E-18-1.51467E-18
 -1       177 8.93629E-05-8.60165E-06-3.47783E-05 1.75632E-05 2.63216E-18 4.17495E-19
 -1       178 9.56700E-05-1.36000E-05-3.53837E-05 2.18390E-05 2.45634E-18 3.79209E-18
 -1       179 1.05411E-04-2.60501E-05-3.51998E-05 1.86220E-05 1.73486E-18 8.14168E-18
 -1       180 1.03234E-04-2.72571E-05-3.25589E-05-1.20904E-05-2.23143E-18 4.08296E-18
 -1       181 9.69748E-05-2.82484E-05-2.94890E-05-4.69561E-06-1.96591E-18 3.06066E-18
 -1       182 9.34144E-05-2.76054E-05-2.81554E-05-1.72374E-06-1.43926E-18 2.19577E-18
 -1       183 9.19337E-05-2.73874E-05-2.76269E-05-3.54271E-07-8.54521E-19 1.28016E-18
 -1       184 9.14377E-05-2.73324E-05-2.74548E-05 3.45488E-07-7.07193E-19 5.88527E-19
 -1       185 9.15126E-05-2.74014E-05-2.74667E-05 7.23974E-07-7.68078E-19 3.25569E-19
 -1       186 9.19245E-05-2.75484E-05-2.75846E-05 9.36680E-07-4.71985E-19 5.57656E-20
 -1       187 9.25460E-05-2.77444E-05-2.77688E-05 1.06780E-06-5.42907E-19-4.77615E-19
 -1       188 9.33119E-05-2.79742E-05-2.79993E-05 1.16888E-06-3.09039E-19-5.35384E-19
 -1       189 9.41957E-05-2.82328E-05-2.82676E-05 1.27409E-06-4.15610E-19-6.84074E-19
 -1       190 9.51967E-05-2.85220E-05-2.85726E-05 1.40655E-06-2.76312E-19-1.46249E-18
 -1       191 9.63303E-05-2.88485E-05-2.89184E-05 1.58048E-06-2.25712E-19-1.82728E-18
 -1       192 9.76204E-05-2.92219E-05-2.93112E-05 1.80090E-06-9.52788E-21-2.02037E-18
 -1       193 9.90910E-05-2.96530E-05-2.97569E-05 2.06093E-06-2.22674E-19-1.78734E-18
 -1       194 1.00756E-04-3.01515E-05-3.02577E-05 2.33678E-06-8.26045E-19-2.03976E-18
 -1       195 1.02606E-04-3.07222E-05-3.08072E-05 2.58018E-06-8.02318E-19-2.19379E-18
 -1       196 1.04588E-04-3.13607E-05-3.13856E-05 2.70931E-06 1.24050E-19-2.20637E-18
 -1       197 1.06587E-04-3.20451E-05-3.19525E-05 2.60159E-06-1.99160E-20-1.93268E-18
 -1       198 1.08402E-04-3.27248E-05-3.24427E-05 2.09731E-06-3.38098E-19-1.92929E-18
 -1       199 1.09733E-04-3.33057E-05-3.27668E-05 1.03042E-06 1.19435E-19-2.00121E-18
 -1       200 1.10197E-04-3.36367E-05-3.28240E-05-6.91379E-07 5.13813E-19-1.61102E-18
 -1       201 1.09403E-04-3.35144E-05-3.25333E-05-2.94678E-06-6.21954E-19-1.32585E-18
 -1       202 1.07122E-04-3.27404E-05-3.18812E-05-5.24369E-06-2.72918E-19-5.81114E-19
 -1       203 1.03532E-04-3.12680E-05-3.09669E-05-6.69142E-06 9.25099E-19-5.06509E-19
 -1       204 9.94399E-05-2.93937E-05-3.00118E-05-6.31105E-06 5.01018E-19-4.30541E-19
 -1       205 9.61955E-05-2.78031E-05-2.93010E-05-3.70098E-06 5.14202E-19-6.27704E-19
 -1       206 9.51115E-05-2.72536E-05-2.90711E-05 4.02563E-07-6.70850E-19-1.35481E-18
 -1       207 9.66717E-05-2.80401E-05-2.94022E-05 4.34064E-06-8.19653E-19-1.22556E-18
 -1       208 1.00192E-04-2.97479E-05-3.01808E-05 6.55992E-06-5.52739E-19-1.70963E-18
 -1       209 1.04291E-04-3.15916E-05-3.11533E-05 6.54740E-06-1.49399E-18-1.89409E-18
 -1       210 1.07692E-04-3.29472E-05-3.20382E-05 4.86928E-06-1.31366E-19-1.53444E-18
 -1       211 1.09717E-04-3.35946E-05-3.26343E-05 2.53297E-06 7.28812E-20-1.04060E-18
 -1       212 1.10283E-04-3.36246E-05-3.28666E-05 3.66545E-07 1.21309E-18-2.15375E-18
 -1       213 1.09672E-04-3.32450E-05-3.27661E-05-1.21468E-06 3.62983E-20-3.00952E-18
 -1       214 1.08285E-04-3.26533E-05-3.24224E-05-2.14123E-06-3.39920E-19-1.88496E-18
 -1       215 1.06499E-04-3.19903E-05-3.19373E-05-2.52738E-06 6.39645E-19-2.40953E-18
 -1       216 1.04600E-04-3.13423E-05-3.13976E-05-2.54120E-06 7.64491E-19-2.85839E-18
 -1       217 1.02776E-04-3.07551E-05-3.08653E-05-2.33569E-06 5.44566E-19-1.75373E-18
 -1       218 1.01136E-04-3.02484E-05-3.03782E-05-2.02484E-06-5.26212E-19-2.02673E-18
 -1       219 9.97279E-05-2.98264E-05-2.99547E-05-1.68330E-06-1.26207E-18-2.14571E-18
 -1       220 9.85602E-05-2.94846E-05-2.96006E-05-1.35462E-06-3.92864E-19-3.94473E-18
 -1       221 9.76197E-05-2.92140E-05-2.93136E-05-1.06063E-06 1.39447E-18-3.48656E-18
 -1       222 9.68814E-05-2.90045E-05-2.90873E-05-8.09078E-07 8.99018E-19-1.43596E-18
 -1       223 9.63165E-05-2.88456E-05-2.89137E-05-5.99057E-07 2.67293E-18-1.03158E-18
 -1       224 9.58975E-05-2.87282E-05-2.87848E-05-4.24614E-07 1.30869E-18-6.07905E-19
 -1       225 9.55997E-05-2.86441E-05-2.86937E-05-2.77258E-07-6.26912E-19-8.96989E-19
 -1       226 9.54028E-05-2.85880E-05-2.86337E-05-1.48557E-07 7.48562E-19-9.95490E-19
 -1       227 9.52848E-05-2.85570E-05-2.85967E-05-3.73991E-08 2.41056E-19-1.87763E-19
 -1       228 9.93341E-05-2.85055E-05-3.05362E-05 7.18274E-06 1.83113E-18 7.08644E-18
 -1       229 9.42834E-05-2.77498E-05-2.84848E-05 2.71407E-06 1.37003E-18 5.67570E-18
 -1       230 9.20066E-05-2.73709E-05-2.76557E-05 8.88621E-07 1.06231E-18 4.42300E-18
 -1       231 9.11203E-05-2.72246E-05-2.73565E-05 4.57189E-09 8.32797E-19 3.57984E-18
 -1       232 9.10014E-05-2.72423E-05-2.73113E-05-4.58106E-07 5.15267E-19 3.04101E-18
 -1       233 9.13220E-05-2.73654E-05-2.74026E-05-7.09869E-07 1.73928E-19 2.42524E-18
 -1       234 9.19045E-05-2.75530E-05-2.75748E-05-8.54547E-07 3.77671E-19 2.04939E-18
 -1       235 9.26563E-05-2.77824E-05-2.78001E-05-9.51633E-07 5.50466E-19 1.89539E-18
 -1       236 9.35368E-05-2.80439E-05-2.80660E-05-1.03992E-06 1.61613E-19 1.41871E-18
 -1       237 9.45399E-05-2.83372E-05-2.83706E-05-1.14717E-06 4.49304E-19 1.38192E-18
 -1       238 9.56842E-05-2.86687E-05-2.87190E-05-1.29432E-06 6.52007E-19 9.95956E-19
 -1       239 9.70059E-05-2.90504E-05-2.91220E-05-1.49704E-06 5.92031E-19 2.71728E-19
 -1       240 9.85525E-05-2.94978E-05-2.95933E-05-1.76527E-06 1.78301E-19-9.35390E-20
 -1       241 1.00375E-04-3.00284E-05-3.01476E-05-2.10041E-06 1.20363E-19 1.62598E-19
 -1       242 1.02518E-04-3.06596E-05-3.07965E-05-2.48914E-06-6.64514E-19 3.13051E-19
 -1       243 1.05001E-04-3.14046E-05-3.15428E-05-2.89261E-06 1.26997E-19 7.08713E-19
 -1       244 1.07790E-04-3.22659E-05-3.23709E-05-3.22974E-06 4.79937E-19 2.56547E-19
 -1       245 1.10759E-04-3.32247E-05-3.32343E-05-3.35612E-06-2.32596E-19 3.26900E-19
 -1       246 1.13640E-04-3.42225E-05-3.40412E-05-3.04811E-06-1.00629E-18 7.25892E-19
 -1       247 1.15974E-04-3.51347E-05-3.46463E-05-2.01987E-06-1.14836E-18 1.45019E-18
 -1       248 1.17110E-04-3.57403E-05-3.48642E-05-2.33469E-08 2.56922E-19 1.80429E-18
 -1       249 1.16321E-04-3.57142E-05-3.45252E-05 2.91799E-06 1.12766E-18 1.79487E-18
 -1       250 1.13112E-04-3.47007E-05-3.35819E-05 6.16132E-06 3.31269E-19 1.43006E-18
 -1       251 1.07767E-04-3.25804E-05-3.22201E-05 8.23348E-06-7.12175E-19 2.04479E-18
 -1       252 1.01860E-04-2.99143E-05-3.08686E-05 7.40821E-06-1.55037E-19 2.24026E-18
 -1       253 9.79437E-05-2.79761E-05-3.00504E-05 3.17406E-06 4.63883E-19 1.48130E-18
 -1       254 9.80881E-05-2.79677E-05-3.01064E-05-2.71594E-06 1.22746E-18 4.46922E-19
 -1       255 1.02246E-04-2.99196E-05-3.10111E-05-7.18559E-06-4.84344E-19-5.38316E-19
 -1       256 1.08254E-04-3.26225E-05-3.23913E-05-8.29558E-06 2.51224E-19-6.57324E-19
 -1       257 1.13549E-04-3.47731E-05-3.37304E-05-6.41557E-06 1.05970E-18-2.18098E-19
 -1       258 1.16632E-04-3.58007E-05-3.46233E-05-3.22338E-06-1.13476E-18-2.40577E-20
 -1       259 1.17292E-04-3.58166E-05-3.49153E-05-2.32976E-07-6.06797E-19-4.24129E-19
 -1       260 1.16073E-04-3.51925E-05-3.46706E-05 1.83711E-06 3.82247E-19 2.02318E-19
 -1       261 1.13725E-04-3.42708E-05-3.40617E-05 2.92305E-06-4.88880E-20 1.33233E-18
 -1       262 1.10891E-04-3.32782E-05-3.32706E-05 3.26148E-06 1.85035E-18 5.60795E-19
 -1       263 1.08018E-04-3.23394E-05-3.24383E-05 3.13818E-06 1.97390E-19-6.88987E-19
 -1       264 1.05367E-04-3.15118E-05-3.16536E-05 2.78072E-06-4.12431E-19 9.43543E-19
 -1       265 1.03061E-04-3.08141E-05-3.09622E-05 2.33832E-06 7.90450E-19 3.84432E-20
 -1       266 1.01135E-04-3.02440E-05-3.03802E-05 1.89616E-06-7.05798E-19-6.27973E-19
 -1       267 9.95760E-05-2.97893E-05-2.99063E-05 1.49628E-06-8.28072E-19 1.56396E-18
 -1       268 9.83433E-05-2.94338E-05-2.95303E-05 1.15476E-06 7.49561E-19 1.08543E-18
 -1       269 9.73891E-05-2.91609E-05-2.92384E-05 8.73292E-07-5.56929E-19 2.70935E-18
 -1       270 9.66656E-05-2.89552E-05-2.90167E-05 6.46147E-07 3.12298E-19 3.00421E-18
 -1       271 9.61299E-05-2.88034E-05-2.88526E-05 4.63987E-07 3.92385E-19 7.03069E-19
 -1       272 9.57468E-05-2.86947E-05-2.87354E-05 3.16430E-07-2.77704E-19 1.25216E-18
 -1       273 9.54879E-05-2.86204E-05-2.86568E-05 1.92784E-07 7.38400E-19 1.94849E-18
 -1       274 9.53311E-05-2.85749E-05-2.86090E-05 8.43445E-08 1.36607E-18 3.08459E-18
 -1       275 9.52560E-05-2.85629E-05-2.85809E-05-2.02249E-09 5.75442E-19 1.62971E-18
 -1       276 9.52526E-05-2.85243E-05-2.85970E-05 4.35516E-08 3.24585E-18 6.76876E-18
 -1       277 9.52212E-05-2.84182E-05-2.86296E-05 1.43719E-07 3.81659E-18 3.93720E-18
 -1       278 9.51614E-05-2.82572E-05-2.86732E-05 2.25707E-07 3.87568E-18 3.21034E-18
 -1       279 9.50893E-05-2.80643E-05-2.87250E-05 2.62779E-07 3.70667E-18-2.56324E-18
 -1       280 9.50181E-05-2.78726E-05-2.87770E-05 2.51063E-07 2.78300E-18-5.52748E-18
 -1       281 9.49570E-05-2.77062E-05-2.88224E-05 1.94632E-07 2.35785E-18-2.53110E-18
 -1       282 9.49167E-05-2.75956E-05-2.88527E-05 1.05007E-07 7.23425E-19-4.94388E-19
 -1       283 9.49031E-05-2.75580E-05-2.88631E-05-1.78178E-09 8.92613E-20-3.19143E-18
 -1       284 9.49181E-05-2.75990E-05-2.88519E-05-1.07868E-07-1.43721E-18 1.12033E-18
 -1       285 9.49594E-05-2.77120E-05-2.88209E-05-1.95712E-07 2.40811E-19-1.43804E-18
 -1       286 9.50194E-05-2.78758E-05-2.87762E-05-2.49538E-07-8.70783E-19-2.75429E-18
 -1       287 9.50912E-05-2.80699E-05-2.87235E-05-2.60457E-07-3.75534E-19-1.63214E-18
 -1       288 9.51623E-05-2.82610E-05-2.86719E-05-2.22748E-07-1.24949E-18 2.65360E-18
 -1       289 9.52199E-05-2.84170E-05-2.86292E-05-1.43470E-07-3.54902E-19 1.65704E-18
 -1       290 9.52651E-05-2.84946E-05-2.86153E-05-9.71677E-08-9.98877E-19-1.52664E-18
 -1       291 1.16685E-05-3.98152E-05 9.82909E-06 9.83862E-06 8.90973E-19 1.71079E-18
 -1       292 2.69864E-05-4.27259E-05 3.89941E-06 2.06959E-05 5.06737E-18 4.48671E-18
 -1       293 5.60686E-05-3.68261E-05-9.91073E-06 3.52012E-05 5.89916E-18 4.43268E-18
 -1       294 9.27708E-05-3.11448E-05-2.67658E-05 4.41937E-05 5.43943E-18 7.68428E-18
 -1       295 1.36849E-04-3.08448E-05-4.42248E-05 4.62855E-05 5.13641E-18 4.87362E-18
 -1       296 1.78635E-04-3.37198E-05-5.95253E-05 3.76335E-05 5.62523E-18 3.82817E-18
 -1       297 1.92549E-04-2.94610E-05-6.75684E-05 1.07929E-05 5.06801E-18 2.29122E-18
 -1       298 2.08593E-04-3.48908E-05-7.10381E-05-6.25709E-06 4.62724E-18-3.26425E-19
 -1       299 1.86673E-04-3.26026E-05-6.35979E-05-2.25121E-05 4.44904E-18-3.19543E-18
 -1       300 1.55396E-04-3.18115E-05-5.11019E-05-4.43783E-05 3.53493E-18-6.72438E-18
 -1       301 1.09320E-04-2.98808E-05-3.37883E-05-4.64217E-05 3.88386E-18-5.78799E-18
 -1       302 6.77168E-05-3.50358E-05-1.52703E-05-3.87038E-05 3.01438E-18-3.86300E-18
 -1       303 3.42408E-05-4.06300E-05 1.50697E-07-2.51792E-05 1.62313E-18-4.10831E-18
 -1       304 1.62124E-05-4.51579E-05 9.34387E-06-1.28454E-05-8.42374E-19-3.19204E-18
 -1       305 1.10249E-05-4.90797E-05 1.28204E-05 1.40530E-06-3.93782E-18-6.47525E-18
 -1       306 1.92878E-05-3.95293E-05 6.67024E-06 2.08483E-05-4.78648E-18-5.47554E-18
 -1       307 3.96608E-05-3.82985E-05-2.77460E-06 2.92105E-05-8.74964E-18-4.79227E-18
 -1       308 7.48951E-05-3.34656E-05-1.86551E-05 4.14711E-05-8.25222E-18-7.42551E-18
 -1       309 1.18298E-04-3.10901E-05-3.68182E-05 4.57609E-05-8.19547E-18-6.82645E-18
 -1       310 1.59624E-04-3.08599E-05-5.31923E-05 4.33736E-05-6.95462E-18-7.40540E-18
 -1       311 1.87144E-04-3.10581E-05-6.44918E-05 2.12097E-05-6.09864E-18-3.35499E-18
 -1       312 1.95372E-04-2.81558E-05-6.92421E-05 1.66491E-06-4.01705E-18-2.01127E-18
 -1       313 1.94459E-04-3.21932E-05-6.67859E-05-1.91165E-05-4.13289E-18 9.28878E-19
 -1       314 1.70268E-04-3.16722E-05-5.70396E-05-4.08240E-05-4.79620E-18 3.04572E-18
 -1       315 1.30821E-04-3.26267E-05-4.12685E-05-4.32927E-05-4.10980E-18 3.67993E-18
 -1       316 8.43008E-05-2.97266E-05-2.39042E-05-4.40245E-05-3.50079E-18 5.45955E-18
 -1       317 4.84325E-05-3.55466E-05-7.45621E-06-3.28030E-05-2.16269E-18 5.84246E-18
 -1       318 2.49373E-05-4.23066E-05 4.73379E-06-2.14342E-05-1.58819E-19 5.37638E-18
 -1       319 1.25752E-05-4.82828E-05 1.19055E-05-6.80195E-06 1.44091E-18 1.64166E-18
 -1       320 9.16330E-05-1.44354E-05-3.31621E-05-1.28985E-05-2.23553E-18-1.71181E-18
 -1       321 9.56525E-05-1.90974E-05-3.28715E-05-1.45671E-05-2.61716E-18-4.45023E-20
 -1       322 8.80498E-05-1.03347E-05-3.33615E-05-8.06849E-06-1.21441E-18-3.12151E-18
 -1       323 8.72371E-05-9.39234E-06-3.34103E-05-5.64701E-06-6.85393E-19-3.28281E-18
 -1       324 8.67746E-05-8.84569E-06-3.34428E-05-3.32072E-06-1.64199E-19-3.26420E-18
 -1       325 8.65669E-05-8.59644E-06-3.34591E-05-1.05705E-06 3.29886E-19-3.20766E-18
 -1       326 8.65759E-05-8.60621E-06-3.34588E-05 1.18594E-06 7.74627E-19-3.15407E-18
 -1       327 8.68031E-05-8.87708E-06-3.34417E-05 3.45181E-06 1.19608E-18-2.99477E-18
 -1       328 8.72787E-05-9.43840E-06-3.34086E-05 5.74286E-06 1.61816E-18-2.69250E-18
 -1       329 8.81163E-05-1.04110E-05-3.33575E-05 8.16760E-06 2.16657E-18-2.09245E-18
 -1       330 8.95170E-05-1.20129E-05-3.32825E-05 1.06731E-05 2.65174E-18-1.26579E-18
 -1       331 9.19030E-05-1.47125E-05-3.31626E-05 1.30848E-05 2.88448E-18-1.06276E-19
 -1       332 9.57437E-05-1.94415E-05-3.28084E-05 1.43082E-05 2.84641E-18 2.12757E-18
 -1       333 9.86805E-05-2.44144E-05-3.19161E-05 1.18475E-05 2.45297E-18 4.04990E-18
 -1       334 9.63076E-05-2.67826E-05-2.97667E-05 5.68328E-06 2.03308E-18 3.14329E-18
 -1       335 9.63920E-05-2.60034E-05-3.01219E-05-6.26221E-06-2.10754E-18 4.30847E-19
 -1       336 9.49134E-05-2.70022E-05-2.90795E-05-2.71827E-06-1.55761E-18 3.17343E-19
 -1       337 9.39938E-05-2.74003E-05-2.85252E-05-7.50177E-07-1.08010E-18 1.39840E-19
 -1       338 9.35584E-05-2.76201E-05-2.82520E-05 3.91281E-07-9.09047E-19-2.55885E-19
 -1       339 9.34834E-05-2.77855E-05-2.81526E-05 1.07097E-06-9.38430E-19-2.31335E-19
 -1       340 9.36622E-05-2.79353E-05-2.81667E-05 1.49489E-06-7.61294E-19-5.37287E-19
 -1       341 9.40214E-05-2.80817E-05-2.82585E-05 1.78867E-06-4.42478E-19-8.40073E-19
 -1       342 9.45176E-05-2.82306E-05-2.84075E-05 2.03402E-06-3.58404E-19-6.85496E-19
 -1       343 9.51299E-05-2.83883E-05-2.86022E-05 2.28594E-06-5.34970E-19-8.24494E-19
 -1       344 9.58543E-05-2.85634E-05-2.88373E-05 2.58044E-06-5.89708E-19-1.11515E-18
 -1       345 9.66983E-05-2.87683E-05-2.91109E-05 2.93687E-06-2.16418E-19-1.03440E-18
 -1       346 9.76758E-05-2.90198E-05-2.94219E-05 3.35651E-06 1.86928E-19-5.91207E-19
 -1       347 9.88037E-05-2.93406E-05-2.97679E-05 3.81757E-06-3.84762E-19-5.29245E-19
 -1       348 1.00097E-04-2.97605E-05-3.01427E-05 4.26682E-06-1.09515E-18-6.44003E-19
 -1       349 1.01562E-04-3.03162E-05-3.05339E-05 4.60825E-06-4.13883E-19-6.98447E-19
 -1       350 1.03191E-04-3.10479E-05-3.09209E-05 4.69158E-06 1.05889E-19-6.27072E-19
 -1       351 1.04946E-04-3.19847E-05-3.12755E-05 4.30756E-06 2.47379E-19-8.45893E-19
 -1       352 1.06740E-04-3.31121E-05-3.15653E-05 3.20565E-06 3.39541E-20-4.89882E-19
 -1       353 1.08392E-04-3.43095E-05-3.17639E-05 1.16060E-06 4.03735E-19-1.43865E-19
 -1       354 1.09587E-04-3.52712E-05-3.18654E-05-1.87937E-06 4.42399E-19 2.37752E-19
 -1       355 1.09866E-04-3.54693E-05-3.18985E-05-5.55454E-06 1.96900E-19 8.20045E-19
 -1       356 1.08768E-04-3.43032E-05-3.19224E-05-8.85553E-06 5.92097E-19 1.19095E-18
 -1       357 1.06226E-04-3.15840E-05-3.19892E-05-1.01887E-05 5.43240E-19 1.03253E-18
 -1       358 1.03074E-04-2.81481E-05-3.20998E-05-8.12600E-06 5.46940E-19-1.33796E-19
 -1       359 1.00941E-04-2.57901E-05-3.21909E-05-2.72123E-06-1.42050E-19-5.89444E-19
 -1       360 1.01182E-04-2.60492E-05-3.21823E-05 3.92012E-06-6.10879E-19-5.09647E-19
 -1       361 1.03646E-04-2.87564E-05-3.20821E-05 8.80365E-06-5.53051E-19-3.95899E-19
 -1       362 1.06806E-04-3.21887E-05-3.19779E-05 1.01786E-05-2.59049E-19 3.68233E-19
 -1       363 1.09124E-04-3.46551E-05-3.19260E-05 8.36505E-06-2.58750E-19 1.80019E-18
 -1       364 1.09958E-04-3.55361E-05-3.19124E-05 4.90699E-06-3.98701E-22 1.81718E-18
 -1       365 1.09491E-04-3.51492E-05-3.18793E-05 1.31959E-06-9.31754E-19 1.10049E-18
 -1       366 1.08207E-04-3.41086E-05-3.17716E-05-1.51667E-06 2.95092E-19-2.89703E-19
 -1       367 1.06547E-04-3.29096E-05-3.15692E-05-3.33631E-06-1.49267E-19-3.24993E-19
 -1       368 1.04802E-04-3.18188E-05-3.12839E-05-4.23805E-06-2.37065E-19 1.05594E-20
 -1       369 1.03133E-04-3.09316E-05-3.09450E-05-4.45818E-06 4.98514E-19 3.15871E-20
 -1       370 1.01620E-04-3.02517E-05-3.05854E-05-4.24115E-06 5.00986E-19-1.44146E-18
 -1       371 1.00296E-04-2.97468E-05-3.02329E-05-3.78476E-06 6.15332E-19-2.73409E-18
 -1       372 9.91680E-05-2.93781E-05-2.99069E-05-3.22851E-06-7.53114E-19-7.40419E-19
 -1       373 9.82284E-05-2.91111E-05-2.96185E-05-2.66096E-06-9.01745E-19 2.34610E-19
 -1       374 9.74614E-05-2.89186E-05-2.93725E-05-2.13229E-06-1.27624E-20 1.89880E-19
 -1       375 9.68471E-05-2.87802E-05-2.91689E-05-1.66619E-06 1.10212E-18-7.81956E-19
 -1       376 9.63641E-05-2.86803E-05-2.90051E-05-1.26924E-06 2.20171E-18 1.75784E-19
 -1       377 9.59911E-05-2.86073E-05-2.88769E-05-9.37443E-07 2.17245E-18-1.08686E-18
 -1       378 9.57096E-05-2.85539E-05-2.87795E-05-6.61531E-07-6.31408E-19-7.32702E-19
 -1       379 9.55001E-05-2.85122E-05-2.87076E-05-4.29551E-07 1.94609E-19-2.10063E-19
 -1       380 9.53638E-05-2.84952E-05-2.86571E-05-2.46546E-07-2.80404E-19-5.42950E-19
 -1       381 9.43285E-05-2.73162E-05-2.86811E-05 2.38881E-06 1.77167E-18 2.51356E-18
 -1       382 9.31808E-05-2.74447E-05-2.81504E-05 6.24675E-07 1.34651E-18 1.71836E-18
 -1       383 9.27118E-05-2.75369E-05-2.79216E-05-3.56942E-07 7.51437E-19 1.25546E-18
 -1       384 9.26919E-05-2.76521E-05-2.78692E-05-9.20074E-07 5.62668E-19 9.10414E-19
 -1       385 9.29671E-05-2.77954E-05-2.79280E-05-1.25964E-06 4.48695E-19 7.48225E-19
 -1       386 9.34431E-05-2.79615E-05-2.80616E-05-1.48924E-06 7.27761E-19 6.25409E-19
 -1       387 9.40687E-05-2.81466E-05-2.82506E-05-1.68233E-06 6.65412E-19 4.43918E-19
 -1       388 9.48240E-05-2.83516E-05-2.84862E-05-1.89033E-06 3.81104E-19 5.81030E-19
 -1       389 9.57109E-05-2.85815E-05-2.87674E-05-2.15091E-06 6.54880E-19 3.55762E-19
 -1       390 9.67475E-05-2.88459E-05-2.90977E-05-2.49133E-06 8.78416E-19-6.84943E-20
 -1       391 9.79624E-05-2.91584E-05-2.94839E-05-2.92828E-06 1.64259E-19-2.85994E-19
 -1       392 9.93893E-05-2.95371E-05-2.99328E-05-3.46409E-06 1.66436E-19-2.29249E-19
 -1       393 1.01061E-04-3.00059E-05-3.04485E-05-4.07821E-06-2.24137E-19-5.24161E-19
 -1       394 1.03001E-04-3.05957E-05-3.10283E-05-4.71249E-06-4.91366E-20-8.48403E-19
 -1       395 1.05211E-04-3.13452E-05-3.16568E-05-5.24904E-06 4.41892E-19-2.36914E-19
 -1       396 1.07655E-04-3.22981E-05-3.23001E-05-5.48283E-06 8.08838E-20 4.43215E-19
 -1       397 1.10231E-04-3.34860E-05-3.29012E-05-5.10065E-06-1.19667E-18 2.34821E-19
 -1       398 1.12733E-04-3.48786E-05-3.33828E-05-3.70026E-06-8.09765E-19 6.06811E-20
 -1       399 1.14790E-04-3.62866E-05-3.36651E-05-9.14257E-07-2.38660E-19 6.53772E-19
 -1       400 1.15830E-04-3.72372E-05-3.37032E-05 3.28883E-06 6.92688E-19 8.50654E-19
 -1       401 1.15142E-04-3.69340E-05-3.35320E-05 8.13412E-06-8.68374E-20 1.84394E-18
 -1       402 1.12237E-04-3.45959E-05-3.32878E-05 1.16227E-05-8.22697E-19 2.82830E-18
 -1       403 1.07813E-04-3.05982E-05-3.31044E-05 1.10895E-05 2.39752E-19 1.90031E-18
 -1       404 1.04123E-04-2.70557E-05-3.30419E-05 5.35998E-06 1.06229E-18 8.45668E-19
 -1       405 1.03694E-04-2.65632E-05-3.30620E-05-3.30146E-06 1.95692E-18 1.08455E-18
 -1       406 1.06906E-04-2.95742E-05-3.31376E-05-1.01620E-05 1.49687E-20 1.21981E-18
 -1       407 1.11476E-04-3.37475E-05-3.33082E-05-1.20030E-05-1.84575E-20 1.55831E-18
 -1       408 1.14865E-04-3.66068E-05-3.35495E-05-9.27587E-06 6.26121E-19 1.42055E-18
 -1       409 1.16031E-04-3.73713E-05-3.37340E-05-4.52626E-06 1.80620E-19 1.00849E-18
 -1       410 1.15283E-04-3.66312E-05-3.37345E-05-4.19893E-08-6.39209E-19-5.44380E-19
 -1       411 1.13369E-04-3.52557E-05-3.34996E-05 3.09561E-06-1.39985E-19 5.78161E-19
 -1       412 1.10934E-04-3.38243E-05-3.30614E-05 4.77445E-06 5.40775E-19 5.95227E-19
 -1       413 1.08393E-04-3.25853E-05-3.24954E-05 5.32535E-06 1.43381E-18 1.08378E-18
 -1       414 1.05980E-04-3.15929E-05-3.18809E-05 5.16043E-06 2.58927E-19 2.99345E-18
 -1       415 1.03814E-04-3.08230E-05-3.12792E-05 4.61701E-06-1.83237E-19 2.13802E-18
 -1       416 1.01944E-04-3.02322E-05-3.07293E-05 3.92359E-06 8.79893E-19 3.92012E-19
 -1       417 1.00376E-04-2.97805E-05-3.02504E-05 3.21594E-06-1.74598E-18-3.87947E-19
 -1       418 9.90925E-05-2.94359E-05-2.98481E-05 2.56483E-06-8.57196E-19 1.40326E-18
 -1       419 9.80633E-05-2.91742E-05-2.95198E-05 2.00031E-06-5.90477E-19 2.37228E-18
 -1       420 9.72535E-05-2.89764E-05-2.92581E-05 1.52884E-06-2.16583E-19 4.37562E-18
 -1       421 9.66278E-05-2.88281E-05-2.90541E-05 1.14411E-06 4.09173E-19 3.00815E-18
 -1       422 9.61538E-05-2.87174E-05-2.88990E-05 8.33302E-07 1.28674E-18 4.94853E-18
 -1       423 9.58037E-05-2.86361E-05-2.87843E-05 5.81480E-07 5.51699E-19 4.23474E-18
 -1       424 9.55523E-05-2.85764E-05-2.87026E-05 3.74244E-07-1.05081E-18 4.41837E-18
 -1       425 9.53805E-05-2.85369E-05-2.86462E-05 2.00486E-07 1.08193E-18 9.07056E-18
 -1       426 9.53049E-05-2.85206E-05-2.86213E-05 1.16025E-07 1.37144E-18 7.93185E-18
 -1       427 9.51301E-05-2.80884E-05-2.87319E-05 4.61790E-07-1.48379E-18 1.41243E-18
 -1       428 9.52396E-05-2.82864E-05-2.86935E-05 3.76693E-07 2.07638E-19 2.83963E-18
 -1       429 9.52904E-05-2.84219E-05-2.86571E-05 2.48039E-07 1.66464E-18 4.38859E-18
 -1       430 9.50179E-05-2.78914E-05-2.87686E-05 4.71068E-07-1.06415E-18-5.17763E-18
 -1       431 9.49147E-05-2.77124E-05-2.88014E-05 4.01927E-07 2.97498E-19-2.14984E-18
 -1       432 9.48384E-05-2.75796E-05-2.88260E-05 2.67541E-07 2.68671E-19-2.71025E-18
 -1       433 9.47987E-05-2.75102E-05-2.88388E-05 9.10115E-08-1.10334E-18-2.05472E-18
 -1       434 9.48004E-05-2.75132E-05-2.88383E-05-9.91983E-08-5.81338E-20-3.09887E-18
 -1       435 9.48431E-05-2.75878E-05-2.88244E-05-2.73159E-07-8.90912E-19 4.05762E-19
 -1       436 9.49192E-05-2.77211E-05-2.87996E-05-4.01655E-07-4.65360E-20-1.52140E-18
 -1       437 9.50213E-05-2.78998E-05-2.87664E-05-4.67925E-07 5.22980E-19-8.91173E-19
 -1       438 9.51341E-05-2.80988E-05-2.87291E-05-4.57402E-07 2.58706E-18 2.61733E-19
 -1       439 9.52413E-05-2.82947E-05-2.86908E-05-3.72035E-07-3.93079E-19 1.61008E-18
 -1       440 5.86716E-05-4.18421E-05-7.47915E-06 4.17754E-05 7.05790E-19 1.93002E-18
 -1       441 1.20047E-05-2.20641E-05 4.10586E-06-2.92923E-06-9.94000E-19 1.81593E-18
 -1       442 2.87647E-05-2.88352E-05-6.59553E-08 2.95097E-05-1.29141E-18 4.50177E-18
 -1       443 1.01376E-04-5.31902E-05-2.07345E-05 3.98128E-05-2.00006E-19 2.12018E-18
 -1       444 1.35151E-04-5.52987E-05-3.42585E-05 2.37265E-05 1.45647E-18 4.46280E-19
 -1       445 8.93967E-05-1.18763E-05-3.32890E-05-1.05565E-05-1.73354E-18-2.66547E-18
 -1       446 1.56198E-04-2.66168E-05-5.56326E-05-3.39075E-06 2.88828E-18 5.02185E-19
 -1       447 1.58367E-04-1.32768E-05-6.21106E-05-2.92211E-07 5.57729E-18 1.15443E-18
 -1       448 1.56843E-04-1.68470E-05-5.98912E-05 3.58013E-06 5.01655E-18 1.39813E-18
 -1       449 1.56567E-04-3.65432E-05-5.13653E-05-2.82454E-06 2.99236E-18-8.05105E-19
 -1       450 1.43459E-04-4.92907E-05-4.02511E-05-2.06722E-05 8.54709E-19-3.16494E-18
 -1       451 1.14374E-04-5.44107E-05-2.57631E-05-3.55878E-05 5.08855E-19-3.38496E-18
 -1       452 7.08372E-05-4.59362E-05-1.09499E-05-4.26790E-05-6.50627E-19-2.83192E-18
 -1       453 3.89250E-05-3.23263E-05-2.79107E-06-3.59889E-05-1.55727E-18-3.74367E-18
 -1       454 1.34087E-05-2.45676E-05 4.39381E-06-1.07482E-05-1.85394E-18-5.52202E-18
 -1       455 1.50342E-05-2.31034E-05 3.26885E-06 1.44724E-05-4.34237E-19-6.85260E-18
 -1       456 4.94853E-05-3.58034E-05-5.70833E-06 4.10074E-05-1.44112E-18-2.36878E-18
 -1       457 8.10779E-05-4.85073E-05-1.40176E-05 4.41349E-05-2.53962E-18-3.35318E-18
 -1       458 1.20291E-04-5.50168E-05-2.80164E-05 3.30037E-05-3.69232E-18-2.85609E-18
 -1       459 1.45722E-04-4.77440E-05-4.19889E-05 1.35979E-05-4.37437E-18-2.34130E-18
 -1       460 1.53315E-04-3.24332E-05-5.19024E-05 9.65859E-07-6.07820E-18-9.95370E-19
 -1       461 1.52241E-04-1.40198E-05-5.93123E-05-3.08583E-06-5.24695E-18-1.14672E-18
 -1       462 1.57984E-04-1.41512E-05-6.14379E-05 1.20766E-06-4.36190E-18-1.28341E-18
 -1       463 1.57698E-04-2.74850E-05-5.56187E-05-1.96662E-06-3.06848E-18-2.13230E-18
 -1       464 1.50814E-04-4.17929E-05-4.65224E-05-1.20968E-05-1.63529E-18-2.69282E-18
 -1       465 1.26375E-04-5.37392E-05-3.12112E-05-2.98068E-05 1.52572E-19-1.11597E-19
 -1       466 9.11247E-05-4.96410E-05-1.79454E-05-4.23847E-05 2.09567E-18 3.71085E-18
 -1       467 5.36242E-05-3.98216E-05-6.21319E-06-4.16225E-05 2.38588E-18 3.42710E-18
 -1       468 2.13716E-05-2.78466E-05 2.35977E-06-2.45348E-05-1.98576E-19 3.92663E-18
 -1       469 1.54567E-04-4.19594E-05-4.81765E-05 7.23898E-06 3.54408E-18-4.57398E-20
 -1       470 2.30335E-05-1.73048E-05-1.96691E-06 1.54473E-05-2.44263E-18 2.29069E-18
 -1       471 3.83401E-05-2.39933E-05-5.61662E-06 3.21987E-05 8.63232E-19-4.68764E-18
 -1       472 1.40972E-04-1.49220E-05-5.44854E-05-8.49415E-06 4.29319E-18-4.94826E-19
 -1       473 9.58104E-05-2.51188E-05-3.02821E-05 5.90401E-06 2.16078E-18 8.66322E-19
 -1       474 8.95507E-05-1.32722E-05-3.27098E-05-3.84097E-06-3.26839E-19-2.89425E-18
 -1       475 9.02661E-05-1.42617E-05-3.25943E-05-5.77267E-06-8.31177E-19-2.84576E-18
 -1       476 8.90385E-05-1.25634E-05-3.27927E-05 5.33363E-08 4.59112E-19-2.87362E-18
 -1       477 8.91785E-05-1.27549E-05-3.27709E-05 1.99867E-06 8.34856E-19-2.83408E-18
 -1       478 8.95838E-05-1.33131E-05-3.27066E-05 3.91245E-06 1.26982E-18-2.49521E-18
 -1       479 9.03210E-05-1.43311E-05-3.25881E-05 5.83888E-06 1.91106E-18-2.03089E-18
 -1       480 9.14748E-05-1.59433E-05-3.23937E-05 7.65573E-06 2.27853E-18-1.47188E-18
 -1       481 9.32520E-05-1.84417E-05-3.20817E-05 9.17584E-06 2.54640E-18-6.14206E-19
 -1       482 9.51396E-05-2.65384E-05-2.93824E-05 2.71126E-06 1.88523E-18 6.98923E-19
 -1       483 9.54747E-05-2.43930E-05-3.04539E-05-5.65868E-06-1.65051E-18-6.13038E-19
 -1       484 9.45966E-05-2.07389E-05-3.16714E-05-9.31447E-06-2.14979E-18-1.09381E-18
 -1       485 1.43529E-04-5.35059E-05-3.87858E-05 9.49311E-07 1.76914E-18-1.22751E-18
 -1       486 9.52919E-05-2.61470E-05-2.96250E-05-2.68219E-06-1.30787E-18-4.66818E-19
 -1       487 9.49866E-05-2.70611E-05-2.91060E-05-7.36990E-07-1.06191E-18-4.34659E-19
 -1       488 9.47803E-05-2.75729E-05-2.88005E-05 5.14644E-07-9.31522E-19-4.06473E-19
 -1       489 9.47149E-05-2.78754E-05-2.86440E-05 1.32752E-06-1.15012E-18-6.06590E-19
 -1       490 9.47786E-05-2.80589E-05-2.85931E-05 1.88126E-06-9.21954E-19-6.05628E-19
 -1       491 9.49498E-05-2.81700E-05-2.86190E-05 2.30122E-06-2.78242E-19-8.46788E-19
 -1       492 9.52116E-05-2.82365E-05-2.87028E-05 2.67543E-06-3.23480E-19-4.03760E-19
 -1       493 9.55558E-05-2.82800E-05-2.88315E-05 3.06499E-06-4.51898E-19-6.55732E-21
 -1       494 9.59827E-05-2.83218E-05-2.89965E-05 3.50918E-06-1.77772E-19 6.81524E-19
 -1       495 9.65020E-05-2.83878E-05-2.91906E-05 4.02655E-06-1.15856E-19 4.61397E-19
 -1       496 9.71325E-05-2.85136E-05-2.94068E-05 4.61241E-06-3.55836E-19-6.26713E-19
 -1       497 9.79045E-05-2.87493E-05-2.96369E-05 5.23293E-06-8.09050E-19-5.73484E-19
 -1       498 9.88631E-05-2.91652E-05-2.98700E-05 5.81572E-06-6.06615E-19 9.49253E-20
 -1       499 1.00072E-04-2.98543E-05-3.00940E-05 6.23753E-06-2.49067E-19 6.06657E-19
 -1       500 1.01612E-04-3.09247E-05-3.02974E-05 6.31136E-06 2.16864E-19 1.05661E-19
 -1       501 1.03566E-04-3.24672E-05-3.04771E-05 5.77925E-06 4.73452E-19 2.76122E-19
 -1       502 1.05969E-04-3.44762E-05-3.06493E-05 4.32759E-06 1.70574E-19 8.98087E-20
 -1       503 1.08697E-04-3.67042E-05-3.08657E-05 1.65919E-06 8.01037E-19-5.22318E-19
 -1       504 1.11305E-04-3.84752E-05-3.12231E-05-2.31583E-06 6.67619E-19 4.32294E-19
 -1       505 1.12923E-04-3.86247E-05-3.18500E-05-7.10937E-06 6.86427E-19 1.39141E-18
 -1       506 1.12467E-04-3.58807E-05-3.28254E-05-1.11813E-05 5.09734E-19 1.57934E-18
 -1       507 1.09660E-04-3.02195E-05-3.40391E-05-1.20382E-05-1.20742E-19 6.64289E-19
 -1       508 1.06108E-04-2.42335E-05-3.51208E-05-7.66067E-06 4.23258E-19 6.70532E-19
 -1       509 1.04682E-04-2.18987E-05-3.55428E-05 8.26619E-07-6.62572E-19-6.40815E-19
 -1       510 1.06761E-04-2.51255E-05-3.50408E-05 8.87903E-06-7.59094E-19-5.55147E-19
 -1       511 1.10424E-04-3.13242E-05-3.39285E-05 1.23460E-05-2.84687E-19-1.22259E-18
 -1       512 1.12904E-04-3.65721E-05-3.27215E-05 1.07379E-05 3.65236E-19-1.11310E-18
 -1       513 1.12925E-04-3.87698E-05-3.17784E-05 6.32238E-06 3.82994E-19-5.30633E-19
 -1       514 1.11029E-04-3.82582E-05-3.11885E-05 1.57155E-06-3.01209E-19-3.77112E-21
 -1       515 1.08314E-04-3.63281E-05-3.08550E-05-2.17436E-06-1.56690E-18 6.40273E-19
 -1       516 1.05605E-04-3.40921E-05-3.06522E-05-4.56368E-06 4.46918E-20-7.36168E-19
 -1       517 1.03278E-04-3.21429E-05-3.04898E-05-5.76136E-06-3.83758E-19-9.39789E-19
 -1       518 1.01420E-04-3.06739E-05-3.03216E-05-6.08285E-06-3.92493E-20-8.64066E-19
 -1       519 9.99787E-05-2.96672E-05-3.01342E-05-5.83783E-06-6.02269E-19-7.02510E-19
 -1       520 9.88684E-05-2.90262E-05-2.99323E-05-5.27184E-06 1.23940E-19-9.39021E-19
 -1       521 9.80091E-05-2.86451E-05-2.97268E-05-4.55938E-06-3.40892E-19-1.17824E-18
 -1       522 9.73393E-05-2.84365E-05-2.95289E-05-3.81468E-06-1.65224E-19-1.04339E-18
 -1       523 9.68143E-05-2.83359E-05-2.93469E-05-3.10621E-06-7.48775E-19-4.43901E-19
 -1       524 9.64019E-05-2.82988E-05-2.91861E-05-2.46995E-06 3.55007E-19 4.20382E-19
 -1       525 9.60781E-05-2.82957E-05-2.90488E-05-1.92007E-06 1.65216E-18-3.17022E-19
 -1       526 9.58245E-05-2.83073E-05-2.89351E-05-1.45700E-06 4.11891E-19-2.16459E-19
 -1       527 9.56263E-05-2.83219E-05-2.88442E-05-1.07147E-06 1.63581E-18-1.75228E-18
 -1       528 9.54740E-05-2.83380E-05-2.87723E-05-7.51263E-07 1.30789E-18 1.06889E-18
 -1       529 5.63975E-05-3.28686E-05-9.60015E-06 3.85627E-05-3.19104E-18 2.59383E-18
 -1       530 9.42998E-05-2.76277E-05-2.85698E-05-4.71709E-07 8.71330E-19 2.41364E-19
 -1       531 9.42293E-05-2.78648E-05-2.84401E-05-1.23653E-06 5.89740E-19 8.70680E-20
 -1       532 9.43437E-05-2.80277E-05-2.84201E-05-1.74427E-06 7.35820E-19-1.93354E-19
 -1       533 9.46014E-05-2.81478E-05-2.84792E-05-2.12467E-06 6.18275E-19 6.06599E-21
 -1       534 9.49747E-05-2.82418E-05-2.85988E-05-2.46837E-06 4.36008E-19 3.54860E-19
 -1       535 9.54498E-05-2.83214E-05-2.87681E-05-2.84102E-06 8.04179E-19-1.45807E-19
 -1       536 9.60255E-05-2.83984E-05-2.89815E-05-3.29046E-06 1.00533E-18-7.10005E-20
 -1       537 9.67100E-05-2.84876E-05-2.92362E-05-3.84916E-06 3.74751E-19 1.98008E-19
 -1       538 9.75200E-05-2.86105E-05-2.95303E-05-4.53280E-06 8.68416E-21-2.99929E-19
 -1       539 9.84805E-05-2.88009E-05-2.98602E-05-5.33430E-06 1.65042E-19-2.91750E-19
 -1       540 9.96278E-05-2.91128E-05-3.02185E-05-6.21227E-06-1.27696E-20-2.51035E-19
 -1       541 1.01015E-04-2.96314E-05-3.05917E-05-7.07249E-06 1.80698E-19-7.35738E-19
 -1       542 1.02721E-04-3.04832E-05-3.09600E-05-7.74187E-06-2.92337E-19-1.76805E-19
 -1       543 1.04858E-04-3.18339E-05-3.13006E-05-7.93691E-06-1.32559E-18 9.01331E-19
 -1       544 1.07552E-04-3.38430E-05-3.15984E-05-7.23787E-06-1.00547E-18 8.52066E-19
 -1       545 1.10852E-04-3.65156E-05-3.18722E-05-5.11469E-06-6.14893E-19 6.85211E-19
 -1       546 1.14529E-04-3.94222E-05-3.22056E-05-1.09855E-06-2.26313E-19 6.14970E-19
 -1       547 1.17788E-04-4.13771E-05-3.27711E-05 4.79666E-06-3.32647E-19 2.16468E-18
 -1       548 1.19128E-04-4.03791E-05-3.37799E-05 1.13155E-05-9.07056E-19 1.99990E-18
 -1       549 1.16933E-04-3.46992E-05-3.53127E-05 1.49580E-05 1.15140E-19 1.14927E-18
 -1       550 1.12391E-04-2.65549E-05-3.68829E-05 1.16994E-05 1.46445E-18 1.69413E-18
 -1       551 1.09439E-04-2.17325E-05-3.76872E-05 1.37350E-06 2.08542E-18 8.09209E-19
 -1       552 1.11378E-04-2.48644E-05-3.71698E-05-9.92301E-06 1.10388E-18 6.26012E-19
 -1       553 1.16024E-04-3.29193E-05-3.56722E-05-1.49522E-05 4.76621E-20-9.40504E-21
 -1       554 1.18935E-04-3.94582E-05-3.41000E-05-1.25543E-05-4.76545E-19-8.13719E-19
 -1       555 1.18364E-04-4.14948E-05-3.29690E-05-6.34929E-06 1.05378E-18-8.60972E-19
 -1       556 1.15407E-04-4.00312E-05-3.23251E-05-1.34073E-07-1.18582E-19 1.78004E-19
 -1       557 1.11723E-04-3.71728E-05-3.19677E-05 4.31331E-06-1.25900E-18 8.81233E-19
 -1       558 1.08322E-04-3.43761E-05-3.17028E-05 6.78005E-06 2.97006E-19 1.38868E-18
 -1       559 1.05528E-04-3.22105E-05-3.14274E-05 7.69641E-06 1.22224E-18 2.20544E-18
 -1       560 1.03322E-04-3.07272E-05-3.11133E-05 7.59998E-06 1.34606E-19 3.08288E-18
 -1       561 1.01586E-04-2.97832E-05-3.07712E-05 6.93504E-06 2.33680E-19 1.72551E-18
 -1       562 1.00205E-04-2.92095E-05-3.04240E-05 6.01208E-06 7.76827E-19 2.57836E-18
 -1       563 9.90955E-05-2.88713E-05-3.00928E-05 5.02581E-06-1.81488E-19 3.31642E-18
 -1       564 9.81989E-05-2.86764E-05-2.97922E-05 4.08654E-06-2.63643E-18 2.28941E-18
 -1       565 9.74761E-05-2.85663E-05-2.95299E-05 3.24866E-06-1.65033E-19 2.05480E-18
 -1       566 9.68972E-05-2.85053E-05-2.93084E-05 2.53190E-06-1.60037E-18 1.18632E-18
 -1       567 9.64382E-05-2.84720E-05-2.91264E-05 1.93582E-06-1.18278E-20 1.15667E-18
 -1       568 9.60785E-05-2.84531E-05-2.89806E-05 1.44935E-06 3.13121E-19 3.00847E-18
 -1       569 9.58001E-05-2.84396E-05-2.88670E-05 1.05715E-06-3.02992E-19 4.30124E-18
 -1       570 9.55866E-05-2.84296E-05-2.87804E-05 7.35900E-07-6.50396E-19 5.37594E-18
 -1       571 9.54207E-05-2.84197E-05-2.87138E-05 4.73319E-07-4.53381E-19 3.96006E-18
 -1       572 9.48715E-05-2.76734E-05-2.87993E-05 6.36349E-07-7.47018E-19-2.25800E-18
 -1       573 9.47267E-05-2.74927E-05-2.88149E-05 4.81502E-07-1.08930E-18-2.50055E-18
 -1       574 9.52243E-05-2.81341E-05-2.87528E-05 6.52263E-07-4.63895E-19 2.27869E-18
 -1       575 9.50482E-05-2.78976E-05-2.87785E-05 6.94528E-07-2.19983E-18-1.94610E-18
 -1       576 9.46339E-05-2.73778E-05-2.88244E-05 2.55010E-07-5.58571E-19-1.55914E-18
 -1       577 9.46042E-05-2.73416E-05-2.88272E-05-8.37009E-09-4.36958E-19-2.37083E-18
 -1       578 9.46407E-05-2.73879E-05-2.88230E-05-2.69464E-07 1.97105E-18 6.15336E-19
 -1       579 9.47360E-05-2.75076E-05-2.88124E-05-4.86634E-07 2.13141E-18-6.00002E-19
 -1       580 9.48809E-05-2.76908E-05-2.87959E-05-6.35324E-07 1.07397E-18-2.56469E-18
 -1       581 9.50551E-05-2.79144E-05-2.87745E-05-6.88911E-07 2.06791E-18 1.12935E-18
 -1       582 9.52328E-05-2.81525E-05-2.87485E-05-6.39621E-07 6.65056E-19-4.98824E-19
 -1       583 1.25006E-04-6.11170E-05-2.73933E-05 2.45413E-05-7.44701E-19 1.15654E-18
 -1       584 9.46011E-05-2.72447E-05-2.88581E-05 7.43699E-07 1.33819E-18 5.04099E-19
 -1       585 9.50496E-05-5.17358E-05-1.82529E-05 3.96855E-05-1.33778E-18 8.01002E-19
 -1       586 4.68971E-05-2.90487E-05-7.22831E-06-3.74486E-05 2.25263E-18 2.29530E-18
 -1       587 2.62979E-05-1.56785E-05-3.94199E-06-1.63428E-05 2.52522E-20 9.06855E-19
 -1       588 1.35789E-04-1.69010E-05-5.15440E-05 1.00930E-05-2.28058E-18-2.83571E-18
 -1       589 1.11002E-04-5.72636E-05-2.29103E-05 3.43232E-05-4.84715E-19-1.43283E-18
 -1       590 3.18097E-05-1.91725E-05-4.86236E-06-2.33605E-05-1.34493E-18-4.07995E-18
 -1       591 8.91578E-05-1.27292E-05-3.27731E-05-1.89245E-06 6.48745E-20-2.92651E-18
 -1       592 1.34909E-04-1.02206E-05-5.40726E-05 3.41884E-06 4.37990E-18 2.01626E-18
 -1       593 1.36077E-04-5.80258E-05-3.35803E-05 1.27240E-05-1.61336E-18-2.74650E-19
 -1       594 1.39870E-04-2.54439E-05-4.95700E-05 1.32572E-05 3.49814E-18 3.59084E-18
 -1       595 1.44953E-04-4.97033E-05-4.11727E-05 2.61769E-06 3.76698E-19 9.78270E-19
 -1       596 1.36021E-04-6.03952E-05-3.24554E-05-1.57239E-05-1.25509E-18-9.61753E-19
 -1       597 1.04578E-04-5.59949E-05-2.06893E-05-3.69564E-05-1.68332E-18-2.18262E-18
 -1       598 7.32656E-05-4.16278E-05-1.31715E-05-4.15334E-05-1.97136E-18-2.60119E-18
 -1       599 2.20000E-05-1.37818E-05-2.92765E-06-9.39593E-07-3.20185E-19-5.39009E-18
 -1       600 7.82576E-05-4.29034E-05-1.47831E-05 4.15265E-05 7.07961E-19-2.79645E-18
 -1       601 1.27112E-04-7.22089E-06-5.20291E-05-2.33140E-07-4.17005E-18-9.84858E-19
 -1       602 1.39899E-04-4.31652E-05-4.18585E-05-7.22766E-06-3.39255E-18 1.56579E-18
 -1       603 1.16863E-04-5.87415E-05-2.48734E-05-3.16439E-05 3.11539E-18-8.16778E-19
 -1       604 1.34650E-04-2.20263E-05-4.88646E-05-1.23258E-05-4.38673E-18 1.19580E-18
 -1       605 1.41978E-04-3.64317E-05-4.56696E-05 8.29798E-06-9.09052E-19-3.42789E-18
 -1       606 1.40126E-04-5.48716E-05-3.67231E-05-5.78384E-06 7.93385E-19-3.64986E-18
 -1       607 8.71013E-05-4.86138E-05-1.61732E-05-4.25868E-05 3.52662E-18 3.35838E-18
 -1       608 1.43565E-04-3.92787E-05-4.51737E-05-9.30251E-06 2.29422E-18-1.74097E-18
 -1       609 9.61221E-05-2.31683E-05-3.12693E-05 9.49841E-06 2.60848E-18 1.39978E-18
 -1       610 9.13972E-05-1.58395E-05-3.24042E-05-7.58746E-06-1.29381E-18-2.52619E-18
 -1       611 4.32709E-05-2.08614E-05-9.07407E-06 2.75636E-05-4.36349E-18 3.04582E-18
 -1       612 2.95235E-05-1.16591E-05-6.99760E-06 6.18131E-07-1.60963E-18 7.74876E-19
 -1       613 9.53840E-05-2.83437E-05-2.87311E-05-5.65534E-07-6.16827E-19 1.14708E-18
 -1       614 5.79315E-05-2.83858E-05-1.21537E-05-3.41622E-05-1.40880E-18-3.19734E-18
 -1       615 6.36008E-05-3.13978E-05-1.33189E-05 3.68202E-05 1.84426E-18-2.44467E-18
 -1       616 9.27990E-05-1.79048E-05-3.21188E-05-8.77453E-06-1.66570E-18-2.00024E-18
 -1       617 1.35005E-04-2.76215E-05-4.65018E-05-1.51662E-05 2.18021E-18-1.61675E-18
 -1       618 3.48923E-05-1.46285E-05-8.03369E-06 1.72702E-05 5.04408E-19-5.39645E-18
 -1       619 9.15065E-05-1.66273E-05-3.20967E-05 2.34701E-06 9.15982E-19-2.31175E-18
 -1       620 9.12316E-05-1.62026E-05-3.21606E-05 8.06543E-07 4.83282E-19-2.51762E-18
 -1       621 9.28968E-05-1.88629E-05-3.17344E-05 5.09646E-06 1.71222E-18-1.39022E-18
 -1       622 9.40042E-05-2.08407E-05-3.13637E-05 5.97235E-06 2.05784E-18-7.58943E-19
 -1       623 9.52969E-05-2.40310E-05-3.05322E-05 4.97237E-06 1.97691E-18-9.91314E-20
 -1       624 9.52839E-05-2.80685E-05-2.88064E-05 9.60388E-07-8.18498E-19 1.93711E-18
 -1       625 9.53813E-05-2.58404E-05-2.97991E-05 2.34964E-06 1.68277E-18 5.86030E-20
 -1       626 7.46681E-05-3.67821E-05-1.58623E-05-3.77333E-05 2.41534E-18 2.37503E-18
 -1       627 9.46056E-05-2.21291E-05-3.10581E-05-5.99027E-06-1.54454E-18-1.39859E-18
 -1       628 9.52964E-05-2.47243E-05-3.02448E-05-3.25460E-06-1.26078E-18-1.00086E-18
 -1       629 1.28211E-04-5.80614E-05-3.00641E-05-1.44614E-05 2.02685E-18-2.71219E-18
 -1       630 9.54811E-05-2.62461E-05-2.96721E-05-1.23035E-06-9.96951E-19-8.35835E-19
 -1       631 9.54763E-05-2.71415E-05-2.92868E-05 1.87642E-07-9.28080E-19-8.73814E-19
 -1       632 9.54256E-05-2.76563E-05-2.90444E-05 1.16623E-06-1.08824E-18-6.09210E-19
 -1       633 9.53851E-05-2.79300E-05-2.89096E-05 1.86024E-06-9.17982E-19-4.19493E-19
 -1       634 9.53736E-05-2.80445E-05-2.88555E-05 2.39385E-06-3.15213E-19-4.79060E-19
 -1       635 9.53959E-05-2.80518E-05-2.88618E-05 2.86139E-06 1.24760E-20-3.70132E-19
 -1       636 9.54542E-05-2.79904E-05-2.89129E-05 3.33219E-06-2.08432E-19-2.99033E-20
 -1       637 9.55538E-05-2.78951E-05-2.89963E-05 3.85398E-06-2.19968E-19 2.05837E-20
 -1       638 9.57072E-05-2.78050E-05-2.91006E-05 4.45427E-06-1.90065E-19-3.88860E-19
 -1       639 9.59393E-05-2.77712E-05-2.92145E-05 5.13933E-06-6.12632E-19 6.49943E-21
 -1       640 9.62943E-05-2.78654E-05-2.93264E-05 5.89066E-06-2.64004E-19 3.68541E-19
 -1       641 9.68453E-05-2.81894E-05-2.94239E-05 6.65809E-06-7.89892E-20 3.64866E-19
 -1       642 9.77072E-05-2.88822E-05-2.94967E-05 7.34913E-06-2.68667E-19 7.15759E-19
 -1       643 9.90464E-05-3.01173E-05-2.95419E-05 7.81270E-06-8.36226E-20 5.78115E-19
 -1       644 1.01077E-04-3.20740E-05-2.95744E-05 7.81462E-06 8.97503E-20 7.78633E-19
 -1       645 1.04014E-04-3.48474E-05-2.96447E-05 7.00952E-06-2.93688E-19 6.88844E-19
 -1       646 1.07934E-04-3.82574E-05-2.98627E-05 4.93668E-06 3.79847E-19 7.18000E-19
 -1       647 1.12492E-04-4.15194E-05-3.04190E-05 1.12528E-06 1.69892E-18 9.91519E-19
 -1       648 1.16556E-04-4.29273E-05-3.15698E-05-4.47005E-06 1.45833E-18 1.86974E-18
 -1       649 1.18171E-04-3.99837E-05-3.35512E-05-1.06528E-05 5.06469E-19 2.18567E-18
 -1       650 1.15955E-04-3.18950E-05-3.61075E-05-1.39205E-05-4.35176E-19 1.93923E-18
 -1       651 1.10763E-04-2.13654E-05-3.85117E-05-9.88342E-06-8.18221E-19 2.12235E-19
 -1       652 1.08403E-04-1.68363E-05-3.94143E-05 7.24584E-07-1.38074E-18-1.18987E-18
 -1       653 1.11139E-04-2.23267E-05-3.82109E-05 1.08642E-05-6.84687E-19-1.60802E-18
 -1       654 1.16231E-04-3.29151E-05-3.57427E-05 1.38677E-05-8.09567E-19-1.92357E-18
 -1       655 1.18265E-04-4.06611E-05-3.32911E-05 1.01155E-05 5.21112E-19-2.43880E-18
 -1       656 1.16289E-04-4.29842E-05-3.14222E-05 3.79459E-06 5.70894E-19-1.12835E-18
 -1       657 1.12035E-04-4.12246E-05-3.03563E-05-1.67061E-06-4.29619E-19-1.82402E-18
 -1       658 1.07452E-04-3.78099E-05-2.98541E-05-5.24661E-06-4.36300E-19-5.87743E-19
 -1       659 1.03617E-04-3.44112E-05-2.96637E-05-7.07403E-06-9.66920E-19 6.90281E-19
 -1       660 1.00781E-04-3.16984E-05-2.96089E-05-7.67409E-06-7.31038E-19-6.56354E-19
 -1       661 9.88419E-05-2.98076E-05-2.95867E-05-7.50217E-06-3.84581E-19-7.41134E-19
 -1       662 9.75753E-05-2.86222E-05-2.95511E-05-6.89446E-06-5.51890E-19-1.29775E-18
 -1       663 9.67681E-05-2.79586E-05-2.94892E-05-6.07348E-06-3.06964E-19-1.89864E-18
 -1       664 9.62576E-05-2.76467E-05-2.94040E-05-5.18171E-06-5.94701E-20-3.06077E-18
 -1       665 9.59322E-05-2.75542E-05-2.93042E-05-4.30718E-06 9.65098E-19-1.79118E-18
 -1       666 9.57203E-05-2.75872E-05-2.91993E-05-3.50069E-06-1.15767E-18-2.01999E-18
 -1       667 9.55773E-05-2.76832E-05-2.90970E-05-2.78754E-06 7.00970E-19-1.58108E-18
 -1       668 9.54760E-05-2.78021E-05-2.90027E-05-2.17604E-06 9.90438E-19-7.44490E-19
 -1       669 9.54000E-05-2.79201E-05-2.89197E-05-1.66361E-06 1.04419E-18-1.55225E-18
 -1       670 9.53419E-05-2.80244E-05-2.88498E-05-1.23767E-06 1.47070E-18-1.46676E-18
 -1       671 1.27695E-04-2.74419E-05-4.33568E-05 1.45196E-05-9.52806E-19-3.68494E-18
 -1       672 1.18230E-04-1.44279E-05-4.49529E-05-9.29679E-06-2.90755E-18-4.81088E-20
 -1       673 9.52089E-05-2.75136E-05-2.90115E-05-6.58265E-07 7.75817E-19-1.11237E-19
 -1       674 9.52312E-05-2.80889E-05-2.87749E-05-2.56340E-06 4.04055E-19-2.13456E-19
 -1       675 9.53544E-05-2.80702E-05-2.88357E-05-3.02496E-06 8.09911E-19-2.67883E-19
 -1       676 9.55246E-05-2.79948E-05-2.89408E-05-3.53114E-06 6.63238E-19 1.75564E-19
 -1       677 9.57400E-05-2.78838E-05-2.90806E-05-4.13061E-06 6.54332E-19 1.94217E-19
 -1       678 9.60053E-05-2.77630E-05-2.92459E-05-4.85521E-06 4.31189E-19 3.74508E-20
 -1       679 9.63353E-05-2.76705E-05-2.94268E-05-5.71848E-06 6.57136E-20-1.82659E-19
 -1       680 9.67627E-05-2.76691E-05-2.96105E-05-6.71049E-06 1.06392E-19-5.48596E-19
 -1       681 9.73527E-05-2.78619E-05-2.97809E-05-7.78854E-06 9.39861E-20-5.86121E-19
 -1       682 9.82248E-05-2.84124E-05-2.99191E-05-8.86225E-06-6.11963E-19 8.92560E-20
 -1       683 9.95841E-05-2.95633E-05-3.00095E-05-9.77005E-06-1.04666E-18 3.53788E-19
 -1       684 1.01751E-04-3.16335E-05-3.00527E-05-1.02394E-05-7.97167E-19-5.57910E-19
 -1       685 1.05149E-04-3.49328E-05-3.00946E-05-9.80777E-06-7.16503E-19-3.64459E-19
 -1       686 1.10092E-04-3.94414E-05-3.02820E-05-7.77602E-06-8.23317E-19 2.31728E-19
 -1       687 1.16497E-04-4.43707E-05-3.09121E-05-3.37899E-06-1.37175E-18 1.26919E-18
 -1       688 1.22867E-04-4.70174E-05-3.25083E-05 4.12665E-06-6.06581E-19 1.48851E-18
 -1       689 1.26379E-04-4.40051E-05-3.53893E-05 1.27564E-05 4.23450E-20 1.86100E-18
 -1       690 1.23282E-04-3.15310E-05-3.95220E-05 1.66161E-05 1.13770E-18 1.31596E-18
 -1       691 1.17197E-04-1.76053E-05-4.31089E-05 9.75062E-06 2.63001E-18 3.66534E-19
 -1       692 1.17373E-04-1.72154E-05-4.33078E-05-5.97246E-06 2.29022E-18-5.54813E-19
 -1       693 1.21790E-04-2.81267E-05-4.04488E-05-1.62253E-05 1.36172E-18-1.48092E-18
 -1       694 1.26075E-04-4.17475E-05-3.62580E-05-1.42257E-05 1.15540E-18-3.49560E-18
 -1       695 1.23994E-04-4.70618E-05-3.30052E-05-5.94868E-06-7.06670E-19-3.26307E-18
 -1       696 1.18007E-04-4.53035E-05-3.11692E-05 1.90807E-06-1.82247E-19-8.13327E-19
 -1       697 1.11436E-04-4.05265E-05-3.03952E-05 6.96421E-06-3.34706E-19-9.14591E-19
 -1       698 1.06130E-04-3.57804E-05-3.01543E-05 9.39076E-06-1.11631E-18-2.33766E-18
 -1       699 1.02433E-04-3.21922E-05-3.01058E-05 1.00481E-05-6.84971E-19-1.75469E-18
 -1       700 1.00050E-04-2.98644E-05-3.00804E-05 9.67453E-06 5.47616E-19 2.16655E-19
 -1       701 9.85609E-05-2.85235E-05-3.00157E-05 8.76302E-06 4.07141E-19 1.16276E-18
 -1       702 9.76241E-05-2.78470E-05-2.99036E-05 7.61948E-06 3.62420E-19 1.18353E-18
 -1       703 9.70113E-05-2.75756E-05-2.97570E-05 6.42717E-06-3.56475E-19 2.39933E-18
 -1       704 9.65860E-05-2.75312E-05-2.95938E-05 5.29146E-06-1.51595E-18 3.04658E-18
 -1       705 9.62723E-05-2.76014E-05-2.94294E-05 4.26774E-06-9.51529E-19 3.00486E-18
 -1       706 9.60295E-05-2.77202E-05-2.92745E-05 3.37930E-06 1.04079E-19 4.13306E-18
 -1       707 9.58356E-05-2.78500E-05-2.91359E-05 2.62933E-06 1.61567E-19 2.42614E-18
 -1       708 9.56782E-05-2.79712E-05-2.90167E-05 2.01003E-06-1.90758E-18-7.77254E-20
 -1       709 9.55464E-05-2.80706E-05-2.89176E-05 1.50806E-06-4.86765E-19 1.19809E-18
 -1       710 9.53936E-05-2.80644E-05-2.88550E-05 1.21752E-06-4.61228E-19 5.73411E-19
 -1       711 9.43473E-05-2.71005E-05-2.88202E-05 1.60898E-07 9.92954E-19 3.17482E-19
 -1       712 4.93563E-05-1.97024E-05-1.21969E-05-2.62777E-05 6.10009E-19-1.74436E-19
 -1       713 9.46202E-05-2.73772E-05-2.88186E-05 7.55684E-07-1.25619E-18-2.99718E-18
 -1       714 9.43539E-05-2.71093E-05-2.88193E-05-1.90337E-07 1.55809E-18 4.08865E-20
 -1       715 9.44394E-05-2.71927E-05-2.88201E-05 4.91644E-07-1.05515E-18-1.25434E-18
 -1       716 9.44544E-05-2.72141E-05-2.88174E-05-5.08446E-07 1.61294E-18-4.86786E-19
 -1       717 9.46386E-05-2.74058E-05-2.88142E-05-7.61026E-07 8.32696E-19-3.08243E-18
 -1       718 9.48824E-05-2.76624E-05-2.88086E-05-9.07769E-07 1.26814E-18 3.57187E-19
 -1       719 9.51497E-05-2.79529E-05-2.87984E-05-9.25602E-07 1.07745E-18-1.07643E-18
 -1       720 9.53078E-05-2.69004E-05-2.93153E-05 5.55406E-07 1.21065E-18-2.00138E-20
 -1       721 1.36310E-04-4.64624E-05-3.88136E-05-1.10518E-05 2.11183E-18-1.50023E-18
 -1       722 1.11977E-04-5.54478E-05-2.41112E-05 2.80394E-05-1.38649E-18 8.18977E-19
 -1       723 1.18710E-04-1.38333E-05-4.54233E-05 8.57343E-06-1.71074E-18-2.78199E-18
 -1       724 1.00861E-04-5.01965E-05-2.15309E-05 3.32698E-05 2.33993E-19-1.43397E-18
 -1       725 1.23002E-04-5.88505E-05-2.74094E-05-2.01556E-05-2.50760E-18 1.76884E-20
 -1       726 1.24468E-04-5.82228E-05-2.83719E-05 1.80398E-05-1.28325E-19 3.87895E-19
 -1       727 1.33906E-04-5.81986E-05-3.25076E-05 5.70355E-06-3.73436E-19-1.71338E-18
 -1       728 9.51612E-05-2.80277E-05-2.87711E-05-2.07960E-06 6.06484E-19-1.62446E-19
 -1       729 9.51524E-05-2.78539E-05-2.88418E-05-1.48426E-06 8.68658E-19-3.44344E-19
 -1       730 9.20560E-05-1.74922E-05-3.19618E-05 3.80685E-06 1.34736E-18-1.95147E-18
 -1       731 1.33919E-04-5.24933E-05-3.51099E-05-1.68548E-06-9.68156E-19 2.21899E-18
 -1       732 1.35057E-04-5.51247E-05-3.44134E-05 1.38690E-06-1.31558E-18 2.59647E-18
 -1       733 3.61188E-05-1.30164E-05-9.31899E-06-1.11020E-05-4.75543E-19-3.83330E-18
 -1       734 9.60195E-05-4.82471E-05-2.02331E-05-3.46350E-05-2.56267E-18-1.33720E-18
 -1       735 1.34689E-04-3.92551E-05-4.12627E-05 1.47904E-05 1.37124E-18 3.74841E-18
 -1       736 1.33441E-04-4.52106E-05-3.81600E-05 8.57366E-06 2.50331E-19-3.17126E-18
 -1       737 9.53226E-05-2.81481E-05-2.87879E-05-8.67355E-07 1.28034E-18-1.86480E-18
 -1       738 9.20140E-05-1.74343E-05-3.19685E-05-3.75616E-06-5.93278E-19-2.38532E-18
 -1       739 1.27527E-04-3.23613E-05-4.10865E-05-1.47250E-05-2.65238E-18 2.42288E-18
 -1       740 8.24303E-05-3.98050E-05-1.79413E-05 3.50867E-05-2.24141E-18 2.40306E-18
 -1       741 1.24080E-04-1.20423E-05-4.85895E-05-5.92887E-06 3.26791E-18 3.44365E-19
 -1       742 1.05580E-04-5.32299E-05-2.22645E-05-3.27889E-05 3.90305E-18 4.77938E-19
 -1       743 9.28298E-05-1.87653E-05-3.17469E-05-5.05574E-06-1.01964E-18-2.36917E-18
 -1       744 9.12247E-05-1.61933E-05-3.21616E-05-7.51490E-07 1.78089E-19-2.55788E-18
 -1       745 6.83479E-05-2.88273E-05-1.65236E-05 3.12910E-05-3.79561E-18 3.94826E-18
 -1       746 1.30115E-04-5.26841E-05-3.31845E-05 6.29377E-07 7.64832E-19-2.79247E-18
 -1       747 4.47460E-05-1.34612E-05-1.29470E-05-1.35892E-05-4.77667E-19-2.04704E-18
 -1       748 4.16044E-05-1.39187E-05-1.13734E-05 1.48665E-05-3.64697E-18-3.90217E-19
 -1       749 9.48624E-05-2.76290E-05-2.88148E-05 9.17485E-07-1.00075E-18-2.99181E-18
 -1       750 7.95953E-05-3.65370E-05-1.81839E-05-3.33043E-05-2.33332E-18-1.20551E-18
 -1       751 4.04998E-05-1.16244E-05-1.18954E-05 4.94990E-06-9.62193E-20-4.56943E-18
 -1       752 5.29496E-05-1.96799E-05-1.38408E-05-2.36510E-05-1.58498E-18-3.41513E-18
 -1       753 8.65089E-05-4.07289E-05-1.93485E-05 3.40529E-05 1.49472E-18-3.00150E-18
 -1       754 9.14826E-05-1.65950E-05-3.21003E-05-2.28740E-06-1.53376E-19-2.56615E-18
 -1       755 5.35062E-05-2.08823E-05-1.35426E-05 2.65135E-05 1.75039E-18-2.16221E-18
 -1       756 9.46234E-05-2.25504E-05-3.08883E-05 3.66813E-06 1.55416E-18-8.20612E-19
 -1       757 9.40706E-05-2.68362E-05-2.88148E-05-4.61995E-07 1.44575E-18-8.27011E-19
 -1       758 9.43459E-05-2.18410E-05-3.10745E-05-4.40881E-06-1.12948E-18-2.06222E-18
 -1       759 9.56912E-05-2.59603E-05-2.98843E-05-7.16354E-07-8.36430E-19-1.19923E-18
 -1       760 9.58217E-05-2.69428E-05-2.95194E-05 4.72230E-07-8.03951E-19-9.43794E-19
 -1       761 9.57946E-05-2.74980E-05-2.92700E-05 1.33919E-06-6.97306E-19-4.28904E-19
 -1       762 9.56806E-05-2.77551E-05-2.91110E-05 1.99527E-06-7.51775E-19-1.76395E-19
 -1       763 9.55166E-05-2.78013E-05-2.90209E-05 2.53691E-06-1.53990E-19-4.35488E-21
 -1       764 9.53217E-05-2.76987E-05-2.89814E-05 3.04278E-06 1.16323E-19-3.95243E-19
 -1       765 9.51087E-05-2.74978E-05-2.89762E-05 3.57353E-06-5.80334E-19-4.50725E-19
 -1       766 9.48912E-05-2.72473E-05-2.89903E-05 4.17287E-06-1.18221E-19-6.61621E-19
 -1       767 9.46908E-05-2.70037E-05-2.90088E-05 4.86878E-06-3.19156E-19-2.96970E-19
 -1       768 9.45459E-05-2.68411E-05-2.90163E-05 5.67404E-06-3.43453E-20-1.62386E-19
 -1       769 9.45244E-05-2.68638E-05-2.89973E-05 6.58514E-06-2.72765E-19 2.88265E-19
 -1       770 9.47405E-05-2.72187E-05-2.89377E-05 7.57829E-06 4.28744E-20-1.96209E-19
 -1       771 9.53760E-05-2.81062E-05-2.88295E-05 8.60046E-06-1.55917E-19 2.27731E-19
 -1       772 9.67049E-05-2.97826E-05-2.86806E-05 9.54674E-06 3.33205E-19 8.66057E-19
 -1       773 9.91073E-05-3.25313E-05-2.85324E-05 1.02038E-05 7.79614E-20 8.96449E-19
 -1       774 1.03009E-04-3.65295E-05-2.84892E-05 1.01540E-05 4.54474E-19 2.00903E-18
 -1       775 1.08738E-04-4.15976E-05-2.87669E-05 8.65665E-06 1.37685E-18 2.94803E-18
 -1       776 1.15932E-04-4.64718E-05-2.97561E-05 4.65690E-06 1.75312E-18 2.86542E-18
 -1       777 1.22739E-04-4.80158E-05-3.20480E-05-2.63798E-06 1.47219E-18 3.24466E-18
 -1       778 1.25244E-04-4.33425E-05-3.52155E-05 1.02075E-05 7.08662E-20-3.55512E-18
 -1       779 1.21978E-04-4.82980E-05-3.16405E-05 1.63109E-06 1.49623E-18-2.72130E-18
 -1       780 1.14982E-04-4.58887E-05-2.96345E-05-5.07750E-06 1.14348E-19-2.39119E-18
 -1       781 1.07795E-04-4.07582E-05-2.87329E-05-8.87730E-06 1.40859E-19-1.20587E-18
 -1       782 1.02333E-04-3.57961E-05-2.85141E-05-1.00667E-05 2.26759E-19-8.76309E-19
 -1       783 9.86354E-05-3.19278E-05-2.85882E-05-9.93563E-06-7.51106E-19 8.80256E-19
 -1       784 9.63932E-05-2.93103E-05-2.87494E-05-9.15140E-06-8.22818E-19 1.75566E-18
 -1       785 9.51580E-05-2.77211E-05-2.89011E-05-8.10721E-06-1.91787E-18 2.12866E-19
 -1       786 9.45651E-05-2.68786E-05-2.90080E-05-6.99274E-06-8.86888E-19 3.62191E-19
 -1       787 9.43536E-05-2.65356E-05-2.90644E-05-5.90489E-06-7.05601E-19 1.85539E-20
 -1       788 9.43511E-05-2.65028E-05-2.90775E-05-4.89435E-06 1.44968E-19-6.19408E-19
 -1       789 9.44503E-05-2.66456E-05-2.90589E-05-3.98722E-06 5.48236E-19-1.27336E-18
 -1       790 9.45878E-05-2.68736E-05-2.90201E-05-3.19489E-06 2.34100E-19 5.57065E-19
 -1       791 9.47273E-05-2.71280E-05-2.89710E-05-2.51760E-06 9.29724E-19-1.19493E-19
 -1       792 9.48538E-05-2.73751E-05-2.89191E-05-1.95284E-06 2.80065E-19-1.26273E-18
 -1       793 9.49544E-05-2.75923E-05-2.88695E-05-1.48619E-06 1.56810E-18 4.60973E-20
 -1       794 1.16666E-04-5.36879E-05-2.69448E-05-1.86072E-05 1.88364E-18-1.23051E-18
 -1       795 9.54011E-05-2.78239E-05-2.89616E-05-2.80368E-06 4.96310E-19-8.32517E-19
 -1       796 9.49126E-05-2.70858E-05-2.90685E-05-4.60323E-06 3.47108E-19-8.02015E-19
 -1       797 9.47121E-05-2.67380E-05-2.91315E-05-5.42427E-06 4.65186E-19-8.20519E-19
 -1       798 9.45114E-05-2.64225E-05-2.91806E-05-6.39558E-06 8.40537E-21-5.33161E-19
 -1       799 9.43560E-05-2.62337E-05-2.91948E-05-7.52063E-06 3.29769E-19-4.96934E-19
 -1       800 9.43428E-05-2.63246E-05-2.91502E-05-8.78808E-06-5.55930E-19-1.76348E-19
 -1       801 9.46575E-05-2.69345E-05-2.90240E-05-1.01674E-05-8.13625E-19-6.41083E-19
 -1       802 9.56260E-05-2.84166E-05-2.88043E-05-1.15933E-05-6.73637E-19-5.64894E-19
 -1       803 9.77866E-05-3.12589E-05-2.85122E-05-1.29244E-05-1.17659E-18-6.01032E-19
 -1       804 1.01985E-04-3.60366E-05-2.82520E-05-1.37065E-05-9.19124E-19-6.78087E-19
 -1       805 1.08803E-04-4.25134E-05-2.83780E-05-1.27812E-05-1.77189E-18-1.01452E-19
 -1       806 1.18546E-04-5.00844E-05-2.94359E-05-9.21039E-06-1.32137E-18 8.49362E-19
 -1       807 1.21263E-04-5.15543E-05-2.98485E-05 7.66999E-06-1.42980E-18-1.48984E-18
 -1       808 1.10785E-04-4.43105E-05-2.84582E-05 1.25044E-05-1.18837E-18-1.17614E-18
 -1       809 1.03178E-04-3.72094E-05-2.82656E-05 1.35854E-05-6.42901E-19 6.17421E-19
 -1       810 9.85081E-05-3.20379E-05-2.84858E-05 1.29698E-05-6.00659E-19 1.42410E-18
 -1       811 9.59686E-05-2.87965E-05-2.87881E-05 1.16756E-05-1.73145E-19-1.42627E-18
 -1       812 9.47731E-05-2.70222E-05-2.90357E-05 1.01887E-05-4.74753E-19-1.94168E-18
 -1       813 9.43319E-05-2.62167E-05-2.91917E-05 8.70754E-06-6.15534E-19-3.07873E-19
 -1       814 9.42745E-05-2.59967E-05-2.92614E-05 7.31344E-06-1.37512E-18 1.98483E-18
 -1       815 9.43868E-05-2.61008E-05-2.92650E-05 6.04397E-06-1.18713E-18 1.97154E-18
 -1       816 9.45545E-05-2.63629E-05-2.92246E-05 4.91730E-06-9.54487E-19 8.81690E-19
 -1       817 9.47218E-05-2.66831E-05-2.91592E-05 3.93971E-06-1.04666E-18-2.42624E-20
 -1       818 9.48650E-05-2.70046E-05-2.90828E-05 3.10851E-06 1.92127E-19 1.28645E-18
 -1       819 9.49769E-05-2.72974E-05-2.90053E-05 2.41400E-06-2.19398E-19 2.11755E-18
 -1       820 9.50560E-05-2.75448E-05-2.89331E-05 1.84761E-06-1.09806E-18 6.69708E-19
 -1       821 9.39908E-05-2.67598E-05-2.88133E-05-2.23607E-08 2.99445E-18-1.26193E-18
 -1       822 9.49554E-05-2.76649E-05-2.88387E-05-1.22755E-06 4.93450E-19-4.30182E-19
 -1       823 9.55268E-05-2.78548E-05-2.90022E-05-2.27569E-06 4.03143E-19-7.84893E-19
 -1       824 9.56996E-05-2.73364E-05-2.92984E-05-8.82434E-07 9.49403E-19-5.83976E-19
 -1       825 9.42800E-05-2.70310E-05-2.88212E-05-8.38967E-07 3.62027E-19-1.67088E-18
 -1       826 9.45865E-05-2.73167E-05-2.88303E-05-1.10696E-06 6.74368E-19-1.16998E-18
 -1       827 9.50957E-05-2.74072E-05-2.90092E-05-3.91533E-06 6.03083E-19-7.64799E-19
 -1       828 9.52579E-05-2.76637E-05-2.89688E-05-3.33023E-06 4.25699E-19-8.29067E-19
 -1       829 1.25603E-04-5.45441E-05-3.04756E-05-6.55130E-06-1.94471E-18 1.64618E-18
 -1       830 9.39633E-05-4.32851E-05-2.15690E-05-3.08306E-05 2.02675E-18 6.71313E-19
 -1       831 1.08083E-04-4.91895E-05-2.51467E-05-2.31813E-05-2.48946E-18-6.09639E-19
 -1       832 9.52922E-05-2.43748E-05-3.03933E-05-2.33542E-06-8.30621E-19-1.61834E-18
 -1       833 9.56313E-05-2.77134E-05-2.91076E-05-1.66815E-06 8.22185E-19-6.05090E-19
 -1       834 9.52335E-05-2.43411E-05-3.03823E-05 3.17268E-06 1.62139E-18-4.69946E-19
 -1       835 1.12479E-04-5.16858E-05-2.59815E-05 2.10937E-05 1.12333E-18 1.77870E-18
 -1       836 1.00485E-04-4.53955E-05-2.35115E-05 2.65977E-05-2.64651E-18 1.33253E-18
 -1       837 7.12199E-05-2.77216E-05-1.84080E-05-2.81452E-05 1.91353E-18 1.97725E-18
 -1       838 9.30690E-05-1.94280E-05-3.15614E-05 1.14444E-06 5.45354E-19-2.00490E-18
 -1       839 1.25697E-04-5.35535E-05-3.09379E-05 5.11182E-06 1.12049E-18 2.47630E-18
 -1       840 1.21655E-04-5.46118E-05-2.87058E-05 1.31452E-05-1.00845E-18-1.24065E-18
 -1       841 1.29134E-04-5.24641E-05-3.29200E-05-2.24170E-06-6.96403E-19-1.12401E-18
 -1       842 1.25519E-04-4.50197E-05-3.45885E-05-8.90176E-06-5.18027E-19 3.12286E-18
 -1       843 9.29460E-05-1.92150E-05-3.16002E-05 1.77934E-08 2.67964E-19-2.27173E-18
 -1       844 9.39583E-05-2.10760E-05-3.12364E-05-3.06649E-06-5.66112E-19-2.00772E-18
 -1       845 8.83564E-05-3.70073E-05-2.18181E-05 2.74271E-05-3.33122E-18 3.14183E-18
 -1       846 9.56817E-05-2.66129E-05-2.96010E-05 2.00052E-07 1.00806E-18-5.12404E-19
 -1       847 4.70413E-05-1.16782E-05-1.48659E-05-5.47782E-07-1.73033E-18-2.62498E-18
 -1       848 9.40514E-05-2.68112E-05-2.88173E-05 4.23113E-07 1.00153E-18 2.80976E-18
 -1       849 9.50071E-05-2.76231E-05-2.88794E-05 1.47226E-06-1.56122E-18 4.91899E-19
 -1       850 9.42479E-05-2.69870E-05-2.88262E-05 8.15567E-07-3.15323E-19-2.14064E-18
 -1       851 9.48203E-05-2.75227E-05-2.88420E-05 1.19440E-06-6.16207E-19-2.86944E-18
 -1       852 1.01972E-04-4.55714E-05-2.40597E-05 2.51246E-05 1.63062E-18 2.79706E-19
 -1       853 9.45083E-05-2.72277E-05-2.88343E-05 1.04861E-06-1.68735E-18-2.25889E-18
 -1       854 9.34027E-05-2.00329E-05-3.14453E-05-2.15685E-06-3.17394E-19-2.17649E-18
 -1       855 7.09629E-05-2.76349E-05-1.83431E-05-2.72109E-05-2.22109E-18-1.93040E-18
 -1       856 5.22663E-05-1.55434E-05-1.54460E-05 1.57323E-05 8.18207E-19-2.92788E-18
 -1       857 9.55272E-05-2.56906E-05-2.99299E-05 1.47144E-06 1.34488E-18-4.04292E-19
 -1       858 4.86984E-05-1.34231E-05-1.47495E-05-1.00759E-05-8.29722E-19-3.03595E-18
 -1       859 9.61261E-05-4.19708E-05-2.33101E-05-2.67637E-05-2.46231E-18-4.18646E-19
 -1       860 6.28113E-05-2.03306E-05-1.79796E-05-2.11161E-05 7.11766E-19-1.58280E-18
 -1       861 9.34316E-05-2.00651E-05-3.14427E-05 2.20552E-06 9.49890E-19-1.82428E-18
 -1       862 9.37995E-05-2.04915E-05-3.14227E-05-5.88570E-06-1.33015E-18-1.96684E-18
 -1       863 9.39829E-05-2.11133E-05-3.12288E-05 3.10069E-06 1.35449E-18-1.39905E-18
 -1       864 7.30966E-05-3.00869E-05-1.81701E-05 3.00725E-05 1.53200E-18-2.90718E-18
 -1       865 9.44854E-05-2.71759E-05-2.88470E-05-1.35850E-06-1.42382E-19-2.41837E-19
 -1       866 9.55342E-05-2.75570E-05-2.91331E-05-2.29490E-06 4.63672E-19-1.08282E-18
 -1       867 9.59703E-05-2.67993E-05-2.96449E-05 6.99879E-07-5.04368E-19-8.11460E-19
 -1       868 9.59010E-05-2.73129E-05-2.93949E-05 1.40672E-06-5.13183E-19-6.51602E-19
 -1       869 9.56759E-05-2.74964E-05-2.92198E-05 1.97423E-06-1.45120E-19 8.45379E-20
 -1       870 9.53374E-05-2.74351E-05-2.91010E-05 2.47559E-06-3.58024E-19 5.93096E-20
 -1       871 9.49108E-05-2.71959E-05-2.90207E-05 2.97345E-06-5.19571E-19-4.53888E-19
 -1       872 9.44142E-05-2.68377E-05-2.89613E-05 3.51915E-06-3.14843E-19-2.50648E-19
 -1       873 9.38654E-05-2.64200E-05-2.89051E-05 4.15347E-06-3.17241E-19-6.51372E-19
 -1       874 9.32903E-05-2.60121E-05-2.88335E-05 4.90933E-06-2.16318E-19-9.06994E-19
 -1       875 9.27342E-05-2.57054E-05-2.87265E-05 5.81597E-06 2.75119E-19-7.69753E-19
 -1       876 9.22774E-05-2.56279E-05-2.85639E-05 6.90165E-06 5.82471E-20-2.59945E-19
 -1       877 9.20564E-05-2.59584E-05-2.83275E-05 8.19493E-06 2.61420E-19 2.15442E-19
 -1       878 9.22937E-05-2.69436E-05-2.80069E-05 9.72322E-06 5.01978E-19 2.91239E-19
 -1       879 9.33514E-05-2.89226E-05-2.76120E-05 1.14908E-05 5.38545E-19 5.10189E-19
 -1       880 9.57915E-05-3.23299E-05-2.71992E-05 1.33714E-05 9.27153E-19 1.79471E-18
 -1       881 1.00361E-04-3.75286E-05-2.69098E-05 1.49619E-05 1.61324E-18 2.28673E-18
 -1       882 1.08041E-04-4.46474E-05-2.71522E-05 1.49752E-05 1.95047E-18 2.51464E-18
 -1       883 9.37885E-05-2.65545E-05-2.88146E-05-8.45897E-07 5.10685E-20-3.37702E-18
 -1       884 9.53329E-05-2.42857E-05-3.04470E-05-1.42289E-06-5.19006E-19-1.77423E-18
 -1       885 1.03324E-04-4.36768E-05-2.54676E-05-2.03194E-05 1.01881E-18-4.32526E-19
 -1       886 1.06387E-04-4.32105E-05-2.70722E-05-1.51306E-05 1.30969E-18-2.01666E-18
 -1       887 9.96146E-05-3.66041E-05-2.70098E-05-1.45624E-05 4.08852E-19-2.45639E-18
 -1       888 9.52121E-05-3.15454E-05-2.72837E-05-1.29531E-05 6.73948E-19-1.51008E-18
 -1       889 9.29996E-05-2.83487E-05-2.77069E-05-1.10055E-05 4.84749E-21-1.50046E-18
 -1       890 9.20391E-05-2.64816E-05-2.80958E-05-9.21145E-06-2.06128E-18 2.11905E-20
 -1       891 9.18261E-05-2.55478E-05-2.84048E-05-7.64252E-06-7.48876E-19 1.61495E-18
 -1       892 9.20218E-05-2.52263E-05-2.86266E-05-6.29525E-06 3.91283E-19 2.03308E-18
 -1       893 9.24147E-05-2.52826E-05-2.87709E-05-5.14343E-06-4.59752E-19 3.22382E-18
 -1       894 9.28778E-05-2.55530E-05-2.88535E-05-4.16207E-06 2.67470E-19 2.07206E-18
 -1       895 9.33384E-05-2.59265E-05-2.88908E-05-3.33052E-06 1.28203E-18 1.20837E-18
 -1       896 9.37579E-05-2.63302E-05-2.88974E-05-2.63462E-06 8.85816E-19 5.92333E-19
 -1       897 9.41111E-05-2.67139E-05-2.88842E-05-2.06043E-06 1.34186E-18 2.08829E-18
 -1       898 9.43098E-05-2.69558E-05-2.88657E-05-1.68242E-06 8.27413E-19 1.58265E-18
 -1       899 9.36461E-05-2.60776E-05-2.89579E-05-4.63426E-06 8.29673E-19-4.30919E-19
 -1       900 9.13714E-05-2.45553E-05-2.86353E-05-7.66866E-06-5.86549E-19 6.04365E-20
 -1       901 9.06319E-05-2.44871E-05-2.83477E-05-9.11884E-06-4.17217E-19 3.72523E-19
 -1       902 9.01610E-05-2.50275E-05-2.79148E-05-1.09048E-05-3.52170E-19-5.43642E-19
 -1       903 9.03308E-05-2.65943E-05-2.73158E-05-1.31350E-05-7.80815E-19-1.07132E-18
 -1       904 9.16928E-05-2.97458E-05-2.65519E-05-1.59840E-05-8.44072E-19-7.45960E-19
 -1       905 9.60419E-05-3.60981E-05-2.56704E-05-1.92684E-05-1.66672E-18-8.21500E-19
 -1       906 9.23927E-05-3.07749E-05-2.64023E-05 1.65375E-05-1.44160E-18 3.07637E-18
 -1       907 9.72201E-05-3.73301E-05-2.56390E-05 1.99160E-05-2.35695E-18 2.02366E-18
 -1       908 1.07728E-04-4.62116E-05-2.63201E-05 1.90946E-05-1.69048E-18-2.05396E-19
 -1       909 9.04364E-05-2.69930E-05-2.71898E-05 1.35381E-05 4.86612E-19 1.87521E-18
 -1       910 9.00097E-05-2.50649E-05-2.78327E-05 1.11191E-05 5.82794E-19 2.29960E-19
 -1       911 9.03379E-05-2.42867E-05-2.83071E-05 9.16865E-06-1.34121E-18 6.29785E-19
 -1       912 9.09907E-05-2.41933E-05-2.86271E-05 7.56821E-06-2.95352E-18 9.13991E-19
 -1       913 9.17329E-05-2.44775E-05-2.88235E-05 6.22414E-06-1.58471E-18 3.83290E-19
 -1       914 9.24457E-05-2.49451E-05-2.89287E-05 5.07965E-06-4.23150E-19 4.07529E-19
 -1       915 9.30750E-05-2.54765E-05-2.89707E-05 4.10277E-06-7.37091E-19 5.00293E-19
 -1       916 9.36026E-05-2.60014E-05-2.89719E-05 3.27357E-06-9.82617E-19-4.22644E-19
 -1       917 9.40298E-05-2.64819E-05-2.89489E-05 2.57828E-06-9.01255E-19 1.58313E-18
 -1       918 9.43542E-05-2.68920E-05-2.89126E-05 1.99902E-06 7.19070E-19 6.94023E-19
 -1       919 9.35850E-05-2.63773E-05-2.88033E-05-3.21204E-07 2.57050E-19-9.04653E-19
 -1       920 9.21776E-05-2.49518E-05-2.88109E-05-6.47004E-06-2.58269E-19-7.75588E-19
 -1       921 9.29505E-05-2.54973E-05-2.89084E-05-5.46996E-06 1.45874E-19-7.76958E-19
 -1       922 9.42506E-05-2.66191E-05-2.89849E-05-3.93386E-06 6.65784E-19-3.58256E-19
 -1       923 9.30570E-05-1.94143E-05-3.15628E-05-1.10891E-06 8.19109E-20-2.30488E-18
 -1       924 9.59130E-05-2.71565E-05-2.94670E-05-1.05719E-06 9.21156E-19-8.35396E-19
 -1       925 6.10514E-05-1.86541E-05-1.79605E-05-1.83274E-05-1.42331E-18-1.94312E-18
 -1       926 5.82624E-05-1.82979E-05-1.68418E-05 1.95734E-05-2.32704E-18 3.13319E-18
 -1       927 9.57826E-05-2.74989E-05-2.92645E-05-1.73678E-06 5.99171E-19-8.42989E-19
 -1       928 9.58134E-05-2.58362E-05-2.99900E-05-2.21579E-07-5.50030E-19-1.43494E-18
 -1       929 8.73872E-05-3.36160E-05-2.29997E-05-2.36058E-05 1.10629E-18 2.42242E-18
 -1       930 1.17649E-04-5.06660E-05-2.87386E-05 1.05072E-05 1.78592E-18 2.44345E-18
 -1       931 9.53288E-05-2.44448E-05-3.03792E-05 2.00579E-06 1.26230E-18-8.35413E-19
 -1       932 5.17813E-05-1.25933E-05-1.65499E-05 2.00374E-06-4.72929E-19-3.57214E-18
 -1       933 7.55006E-05-2.66500E-05-2.08772E-05 2.35801E-05-2.66400E-18 2.88536E-18
 -1       934 9.51922E-05-2.73987E-05-2.90544E-05-2.80771E-06 2.96847E-19-9.61542E-19
 -1       935 9.58908E-05-2.64482E-05-2.97620E-05-1.61124E-07 1.01011E-18-7.75842E-19
 -1       936 9.35677E-05-2.63566E-05-2.88049E-05 2.46658E-07 9.11588E-19 2.12135E-18
 -1       937 9.44624E-05-2.70819E-05-2.88763E-05 1.58320E-06 1.09651E-18-2.76008E-18
 -1       938 9.37425E-05-2.64975E-05-2.88193E-05 7.87465E-07 2.73801E-18 3.05183E-20
 -1       939 9.40304E-05-2.67445E-05-2.88376E-05 1.15146E-06 2.75582E-18-1.19206E-18
 -1       940 7.93197E-05-2.73505E-05-2.21498E-05-2.17566E-05 2.75774E-19 2.37907E-18
 -1       941 6.62211E-05-2.24711E-05-1.85761E-05 2.28050E-05 8.24686E-19-2.37988E-18
 -1       942 5.81273E-05-1.50325E-05-1.83365E-05-1.18982E-05-5.58094E-19-3.84016E-18
 -1       943 9.01279E-05-3.73613E-05-2.24919E-05 2.61650E-05 2.04355E-18-2.22696E-18
 -1       944 9.42931E-05-2.17674E-05-3.10824E-05 3.68109E-07 5.82953E-19-1.88046E-18
 -1       945 5.78946E-05-1.44527E-05-1.84520E-05-8.08593E-06-1.50276E-18-2.09634E-18
 -1       946 9.47646E-05-2.70727E-05-2.90108E-05-3.33765E-06 4.03313E-19-6.80924E-19
 -1       947 9.39359E-05-3.75857E-05-2.39579E-05 2.33163E-05-2.12034E-18 3.25098E-18
 -1       948 9.44744E-05-2.21391E-05-3.10008E-05 1.05333E-06 8.42508E-19-1.58169E-18
 -1       949 9.50334E-05-2.34045E-05-3.06978E-05-1.11756E-06-4.15197E-19-1.87419E-18
 -1       950 9.41106E-05-2.68400E-05-2.88301E-05-1.15306E-06-9.21458E-19-2.22983E-18
 -1       951 9.58138E-05-2.71243E-05-2.94384E-05 1.31331E-06-6.43791E-20-7.15858E-19
 -1       952 9.54419E-05-2.71857E-05-2.92526E-05 1.75925E-06-8.04707E-21-7.53635E-19
 -1       953 9.49087E-05-2.69843E-05-2.91105E-05 2.18120E-06-3.60108E-19-4.08074E-19
 -1       954 9.42392E-05-2.65878E-05-2.89935E-05 2.62739E-06-2.48586E-19-9.66051E-20
 -1       955 9.34503E-05-2.60590E-05-2.88820E-05 3.14079E-06-7.71386E-19-1.91489E-19
 -1       956 9.25571E-05-2.54625E-05-2.87548E-05 3.76084E-06-1.52250E-19-1.66358E-19
 -1       957 9.15790E-05-2.48711E-05-2.85891E-05 4.52932E-06 1.24431E-19-2.33560E-19
 -1       958 9.05517E-05-2.43809E-05-2.83588E-05 5.49901E-06 5.81486E-19-1.76050E-19
 -1       959 8.95414E-05-2.41245E-05-2.80357E-05 6.74068E-06 5.60431E-19 1.24972E-19
 -1       960 8.86660E-05-2.42852E-05-2.75915E-05 8.35428E-06 4.30230E-19 7.29071E-19
 -1       961 8.81104E-05-2.51052E-05-2.70016E-05 1.04799E-05 8.06728E-19 4.15673E-19
 -1       962 8.82421E-05-2.69938E-05-2.62510E-05 1.33591E-05 1.48189E-18 3.28202E-19
 -1       963 8.98238E-05-3.05540E-05-2.53979E-05 1.68950E-05 1.33776E-18 2.21996E-19
 -1       964 8.94277E-05-2.97561E-05-2.55613E-05-1.63570E-05 8.04931E-19 3.26656E-19
 -1       965 8.80156E-05-2.64196E-05-2.64012E-05-1.27165E-05-9.57598E-20-9.73693E-19
 -1       966 8.79297E-05-2.46414E-05-2.71240E-05-9.94904E-06 4.56315E-19-4.84529E-19
 -1       967 8.84635E-05-2.38541E-05-2.76900E-05-7.84374E-06 2.67433E-19 1.81879E-18
 -1       968 8.92821E-05-2.36961E-05-2.81085E-05-6.22669E-06 6.72581E-19 3.04361E-18
 -1       969 9.01921E-05-2.39182E-05-2.84033E-05-4.96051E-06-8.07221E-20 2.46413E-18
 -1       970 9.10894E-05-2.43561E-05-2.86001E-05-3.94959E-06-3.23969E-19 2.73138E-18
 -1       971 9.19147E-05-2.48945E-05-2.87230E-05-3.13359E-06 1.66264E-19 2.47869E-18
 -1       972 9.26381E-05-2.54559E-05-2.87924E-05-2.46383E-06 1.70693E-19-3.59689E-20
 -1       973 9.32492E-05-2.59944E-05-2.88244E-05-1.92322E-06 5.33049E-20-8.56295E-19
 -1       974 8.62635E-05-2.23313E-05-2.74004E-05-8.53177E-06 4.23779E-19-9.93523E-19
 -1       975 9.51060E-05-2.36078E-05-3.06427E-05 1.53983E-06 1.18069E-18-1.30093E-18
 -1       976 8.79483E-05-2.27024E-05-2.79627E-05-6.99860E-06-8.61912E-19-7.63691E-19
 -1       977 8.30708E-05-2.36088E-05-2.54905E-05-1.38024E-05-1.27058E-18-1.00910E-18
 -1       978 8.13672E-05-2.55886E-05-2.37594E-05-1.86934E-05-1.27903E-18-8.55155E-19
 -1       979 8.40064E-05-2.23978E-05-2.64036E-05 1.10819E-05 8.98062E-19 2.29833E-18
 -1       980 5.91749E-05-1.41316E-05-1.91590E-05 7.36398E-06-1.27245E-18-1.02901E-20
 -1       981 8.25040E-05-2.72154E-05-2.36146E-05 1.94224E-05-1.75086E-18 3.41721E-18
 -1       982 8.72848E-05-2.22238E-05-2.78831E-05 7.00149E-06-1.87707E-18 4.62031E-20
 -1       983 8.87857E-05-2.27617E-05-2.82960E-05 5.69728E-06-1.56599E-18-1.19175E-18
 -1       984 9.01044E-05-2.34576E-05-2.85630E-05 4.64789E-06-1.31989E-18-3.82447E-19
 -1       985 9.12277E-05-2.42024E-05-2.87252E-05 3.77742E-06-5.61162E-19-1.44159E-18
 -1       986 9.21599E-05-2.49262E-05-2.88145E-05 3.04469E-06-1.14631E-18-1.30518E-19
 -1       987 9.29192E-05-2.55914E-05-2.88550E-05 2.42735E-06-1.58829E-18 4.43536E-19
 -1       988 9.35232E-05-2.61744E-05-2.88644E-05 1.91088E-06 6.78698E-19-2.21511E-19
 -1       989 9.31643E-05-2.59850E-05-2.87911E-05-7.54747E-07-1.03870E-18-2.49092E-18
 -1       990 9.56783E-05-2.55976E-05-3.00343E-05 7.73961E-07 1.16904E-18-7.76034E-19
 -1       991 9.56909E-05-2.72455E-05-2.93338E-05-1.63409E-06 5.02991E-19-1.05177E-18
 -1       992 7.53683E-05-2.46903E-05-2.15083E-05-2.12519E-05-1.67813E-18-1.10251E-18
 -1       993 9.58876E-05-2.58597E-05-3.00120E-05 1.35436E-07-1.29044E-19-1.40462E-18
 -1       994 9.59365E-05-2.70030E-05-2.95431E-05-1.10150E-06 7.49926E-19-9.19048E-19
 -1       995 9.55769E-05-2.48107E-05-3.03290E-05-4.57672E-07-4.65524E-19-1.65350E-18
 -1       996 8.45515E-05-2.24953E-05-2.65987E-05-1.06631E-05-2.99716E-20-1.21971E-18
 -1       997 9.42863E-05-2.17629E-05-3.10824E-05-3.36715E-07 2.12210E-19-2.14702E-18
 -1       998 6.24618E-05-1.62372E-05-1.96851E-05 1.15677E-05 7.55654E-19-2.23965E-18
 -1       999 9.59848E-05-2.67193E-05-2.96854E-05 7.89667E-07-1.56923E-19-1.13650E-18
 -1      1000 9.31114E-05-2.57128E-05-2.88852E-05-3.53593E-06 7.53415E-19-1.06984E-18
 -1      1001 8.27279E-05-2.38542E-05-2.52347E-05 1.44834E-05 1.20409E-19 1.67897E-18
 -1      1002 9.46307E-05-2.24758E-05-3.09238E-05-8.24774E-07-1.69233E-19-1.85531E-18
 -1      1003 9.70834E-05-3.81838E-05-2.51837E-05 2.00559E-05 2.21047E-18 1.41183E-18
 -1      1004 8.56491E-05-2.20104E-05-2.72732E-05 8.70774E-06-3.86155E-19 2.72773E-18
 -1      1005 8.95010E-05-2.33608E-05-2.83457E-05-5.83618E-06-5.67804E-19-4.74558E-19
 -1      1006 7.26191E-05-2.15200E-05-2.17579E-05-1.70528E-05-1.40365E-18-1.18927E-18
 -1      1007 9.35066E-05-2.62748E-05-2.88139E-05-1.21672E-06-3.24196E-19-3.27238E-18
 -1      1008 6.97939E-05-1.92379E-05-2.16182E-05 1.45150E-05-5.81891E-19 1.08036E-18
 -1      1009 9.59715E-05-2.63720E-05-2.98272E-05-4.27280E-07 8.67045E-19-9.99416E-19
 -1      1010 9.30089E-05-2.58517E-05-2.87818E-05-6.25829E-08-9.64159E-19-4.30299E-19
 -1      1011 9.20833E-05-2.49563E-05-2.87688E-05-4.16149E-06 4.54540E-19-6.82360E-19
 -1      1012 9.08813E-05-2.41468E-05-2.86005E-05-4.91409E-06 3.58055E-20-1.78051E-19
 -1      1013 9.52288E-05-2.38064E-05-3.06101E-05 3.38229E-07 9.11120E-19-1.53197E-18
 -1      1014 9.31114E-05-2.59235E-05-2.87951E-05 6.46255E-07 6.98733E-19-5.62656E-19
 -1      1015 9.32128E-05-2.59687E-05-2.88183E-05 1.28539E-06 1.02895E-18-1.55346E-18
 -1      1016 8.16041E-05-2.99952E-05-2.20642E-05 2.35251E-05 1.30904E-18-1.63840E-18
 -1      1017 9.51803E-05-2.36623E-05-3.06489E-05 1.13952E-08 7.31115E-19-1.80586E-18
 -1      1018 9.39787E-05-2.63641E-05-2.89777E-05-3.00419E-06 4.51264E-19-1.12575E-18
 -1      1019 7.35631E-05-1.92573E-05-2.32612E-05-1.16515E-05-1.37132E-18-9.26054E-19
 -1      1020 6.20005E-05-1.43955E-05-2.03359E-05 2.59180E-06 1.36890E-20-1.80455E-18
 -1      1021 6.65123E-05-1.68730E-05-2.11815E-05-1.09291E-05-9.11648E-19-2.02290E-18
 -1      1022 9.52699E-05-2.71786E-05-2.91820E-05-2.09413E-06 3.95916E-19-1.08797E-18
 -1      1023 9.55857E-05-2.69427E-05-2.94186E-05 1.01784E-06 5.19234E-20-9.24021E-19
 -1      1024 8.43550E-05-2.08369E-05-2.72229E-05-5.27416E-06 2.43284E-19-1.27684E-18
 -1      1025 9.50468E-05-2.68495E-05-2.92275E-05 1.32213E-06 2.43144E-19-7.98594E-19
 -1      1026 9.43120E-05-2.64874E-05-2.90677E-05 1.63102E-06 4.52551E-20-7.41801E-19
 -1      1027 9.34022E-05-2.59250E-05-2.89189E-05 1.98086E-06-2.92110E-19-3.96672E-19
 -1      1028 9.23241E-05-2.52219E-05-2.87583E-05 2.40899E-06-3.24705E-19 4.62101E-19
 -1      1029 9.10826E-05-2.44395E-05-2.85615E-05 2.95134E-06-4.23755E-20 4.66385E-19
 -1      1030 8.96742E-05-2.36410E-05-2.82998E-05 3.65524E-06 1.23904E-19 2.91862E-19
 -1      1031 8.81073E-05-2.29184E-05-2.79380E-05 4.59596E-06 9.48645E-19-1.73322E-19
 -1      1032 8.63801E-05-2.23663E-05-2.74347E-05 5.88084E-06 6.79085E-19-1.16952E-19
 -1      1033 8.45280E-05-2.21425E-05-2.67394E-05 7.70359E-06 3.46333E-19 2.31874E-19
 -1      1034 8.26084E-05-2.24381E-05-2.57786E-05 1.03600E-05 3.41937E-19-3.38715E-19
 -1      1035 8.05384E-05-2.33452E-05-2.45065E-05 1.41277E-05 8.72060E-19-1.01922E-18
 -1      1036 8.05266E-05-1.95386E-05-2.61376E-05 6.78249E-06 4.71545E-20 2.54835E-18
 -1      1037 9.26808E-05-2.55409E-05-2.87743E-05-1.43228E-06 2.62140E-19-2.79617E-18
 -1      1038 8.14949E-05-2.00021E-05-2.63552E-05-6.57424E-06 6.28258E-20-8.54447E-19
 -1      1039 8.26228E-05-2.20333E-05-2.59704E-05-9.73061E-06 9.90308E-19-4.56334E-19
 -1      1040 8.44629E-05-2.17536E-05-2.68764E-05-7.23361E-06 9.86305E-19 2.59570E-20
 -1      1041 8.62069E-05-2.19696E-05-2.75315E-05-5.47974E-06 7.03742E-19-7.60928E-20
 -1      1042 8.77850E-05-2.24614E-05-2.79969E-05-4.21213E-06 8.00875E-20-7.84048E-19
 -1      1043 8.91931E-05-2.31182E-05-2.83185E-05-3.26299E-06 2.18968E-19-9.45930E-20
 -1      1044 9.04208E-05-2.38459E-05-2.85326E-05-2.53660E-06-3.84898E-19-3.50000E-19
 -1      1045 9.14697E-05-2.45755E-05-2.86695E-05-1.97309E-06-2.06503E-18-2.47321E-18
 -1      1046 9.54840E-05-2.45047E-05-3.04200E-05 7.02418E-07 8.65391E-19-1.42384E-18
 -1      1047 8.57942E-05-2.11122E-05-2.77214E-05 4.30494E-06-8.88297E-19 1.00533E-18
 -1      1048 9.06873E-05-2.38888E-05-2.86284E-05 2.36815E-06-1.75442E-18 1.42056E-18
 -1      1049 9.17642E-05-2.47150E-05-2.87362E-05 1.92025E-06-1.28372E-19-1.39457E-19
 -1      1050 9.25631E-05-2.53838E-05-2.87910E-05 1.58775E-06 8.80309E-20-1.72334E-18
 -1      1051 9.58212E-05-2.68817E-05-2.95459E-05-9.56810E-07 5.31515E-19-9.86100E-19
 -1      1052 8.34204E-05-2.02447E-05-2.70754E-05 5.32279E-06 8.25047E-19 3.19850E-18
 -1      1053 9.46969E-05-2.68677E-05-2.90697E-05-2.53558E-06 4.28512E-19-1.26032E-18
 -1      1054 8.93615E-05-2.29869E-05-2.84468E-05 2.89444E-06-4.97023E-19 1.27631E-19
 -1      1055 9.59232E-05-2.60018E-05-2.99666E-05 2.90071E-07 8.49811E-20-1.17005E-18
 -1      1056 8.77466E-05-2.20435E-05-2.81591E-05 3.52409E-06-1.62651E-18-7.19758E-19
 -1      1057 6.38411E-05-1.45166E-05-2.11186E-05-3.48317E-06-9.53961E-19-3.95300E-18
 -1      1058 7.79995E-05-1.94191E-05-2.51058E-05-8.55816E-06-7.00977E-19-5.06459E-19
 -1      1059 7.31874E-05-2.18183E-05-2.19400E-05 1.66192E-05 1.01832E-18-1.98000E-18
 -1      1060 7.70004E-05-1.90902E-05-2.48217E-05 9.01582E-06-2.78830E-19 1.38564E-18
 -1      1061 9.58972E-05-2.66922E-05-2.96595E-05 6.85911E-07-3.97007E-20-1.09007E-18
 -1      1062 8.67317E-05-2.18083E-05-2.78247E-05-4.36781E-06-3.32021E-19-7.81771E-19
 -1      1063 8.08427E-05-2.30988E-05-2.47436E-05-1.33400E-05-1.39852E-18-9.87331E-19
 -1      1064 9.57984E-05-2.54310E-05-3.01595E-05-1.78519E-08 6.28049E-19-1.59699E-18
 -1      1065 9.23005E-05-2.52377E-05-2.87394E-05-6.03988E-07-7.23718E-19-1.07189E-18
 -1      1066 7.00189E-05-1.72736E-05-2.25880E-05 8.23400E-06 9.18113E-20-1.61378E-18
 -1      1067 9.57546E-05-2.52582E-05-3.02131E-05-7.41977E-09 6.29326E-19-1.53518E-18
 -1      1068 6.82026E-05-1.58690E-05-2.23896E-05 5.13268E-06-9.78886E-21 2.22170E-18
 -1      1069 9.22225E-05-2.51629E-05-2.87399E-05 3.18584E-07-1.01116E-18-2.30126E-19
 -1      1070 8.87267E-05-2.28325E-05-2.82404E-05-3.68800E-06-1.93341E-20-5.23308E-19
 -1      1071 9.18329E-05-2.47905E-05-2.87329E-05-2.68928E-06 5.54253E-19-7.24093E-19
 -1      1072 9.30288E-05-2.56205E-05-2.88894E-05-2.30345E-06 5.67084E-19-7.56855E-19
 -1      1073 7.70452E-05-2.33705E-05-2.29307E-05-1.74277E-05-1.47079E-18 1.12293E-19
 -1      1074 9.23192E-05-2.52185E-05-2.87563E-05 9.58687E-07 5.88891E-19-1.40385E-18
 -1      1075 9.54274E-05-2.69816E-05-2.93342E-05-1.31895E-06 6.10375E-19-1.11162E-18
 -1      1076 9.57078E-05-2.51159E-05-3.02541E-05-7.18113E-08 1.23855E-19-1.26380E-18
 -1      1077 7.15275E-05-1.64886E-05-2.35723E-05-3.56028E-06 2.00177E-19-6.57892E-19
 -1      1078 9.52775E-05-2.39488E-05-3.05673E-05-4.34222E-07-3.14824E-20-1.54297E-18
 -1      1079 9.52035E-05-2.37341E-05-3.06275E-05-2.22517E-07 3.07086E-19-1.70476E-18
 -1      1080 9.59286E-05-2.61997E-05-2.98829E-05-3.52431E-07 2.64848E-19-1.46773E-18
 -1      1081 8.01370E-05-1.94710E-05-2.59982E-05-5.23447E-06 8.15291E-19-1.93178E-18
 -1      1082 9.52607E-05-2.67630E-05-2.93560E-05 4.99173E-07 3.25018E-19-6.59735E-19
 -1      1083 9.45585E-05-2.65093E-05-2.91639E-05 6.46093E-07 4.03030E-21-9.59305E-19
 -1      1084 9.36432E-05-2.59965E-05-2.89917E-05 8.21877E-07 3.60778E-19-4.50394E-19
 -1      1085 9.25141E-05-2.52717E-05-2.88165E-05 1.03369E-06 1.48384E-19 1.78868E-19
 -1      1086 9.11456E-05-2.43856E-05-2.86115E-05 1.29847E-06-2.31051E-19 3.21916E-19
 -1      1087 8.95909E-05-2.34352E-05-2.83516E-05 1.66639E-06-7.20476E-20 2.96509E-19
 -1      1088 8.77800E-05-2.24530E-05-2.79973E-05 2.19728E-06 1.25432E-19 7.99524E-19
 -1      1089 8.56308E-05-2.14593E-05-2.75019E-05 2.93302E-06 5.94620E-19 4.89922E-20
 -1      1090 8.30853E-05-2.05345E-05-2.68067E-05 3.99054E-06 4.63273E-19-4.64972E-19
 -1      1091 7.99627E-05-1.97317E-05-2.58193E-05 5.47194E-06 3.06090E-19-1.30281E-18
 -1      1092 9.48225E-05-2.67663E-05-2.91671E-05-1.64218E-06 3.34641E-19-1.09455E-18
 -1      1093 9.59566E-05-2.63742E-05-2.98200E-05-5.21535E-07 6.72841E-19-1.03915E-18
 -1      1094 7.22920E-05-1.82246E-05-2.31779E-05-9.37472E-06-1.13041E-18-1.97308E-18
 -1      1095 9.40219E-05-2.62946E-05-2.90260E-05-1.96119E-06 3.20630E-19-1.14313E-18
 -1      1096 8.30217E-05-2.01932E-05-2.69235E-05-3.74574E-06 1.12181E-18-2.31382E-18
 -1      1097 8.53328E-05-2.10062E-05-2.75693E-05-2.74898E-06 1.75598E-19-1.06343E-18
 -1      1098 8.73114E-05-2.19211E-05-2.80241E-05-2.03519E-06 6.18094E-19-3.61551E-19
 -1      1099 8.89539E-05-2.28409E-05-2.83336E-05-1.51942E-06-8.66122E-19-1.39132E-20
 -1      1100 9.03158E-05-2.37206E-05-2.85373E-05-1.12752E-06-2.19447E-18 8.44792E-20
 -1      1101 9.07113E-05-2.39541E-05-2.86069E-05 1.04574E-06-3.06226E-19-3.83758E-18
 -1      1102 9.04101E-05-2.38447E-05-2.85282E-05-3.14035E-06-3.65937E-19-5.98205E-19
 -1      1103 8.11575E-05-1.93385E-05-2.64948E-05-2.23467E-06-5.85090E-20-4.83263E-19
 -1      1104 7.44291E-05-1.74088E-05-2.44304E-05 3.57725E-06 2.66729E-20-1.80577E-18
 -1      1105 8.93290E-05-2.29936E-05-2.84302E-05 1.22125E-06-1.71401E-18-3.20462E-18
 -1      1106 7.70908E-05-1.80315E-05-2.53093E-05-2.63655E-06-2.94261E-19 5.58723E-20
 -1      1107 9.14185E-05-2.45327E-05-2.86649E-05-8.21589E-07-1.74924E-18 3.52680E-19
 -1      1108 7.67262E-05-1.87721E-05-2.48262E-05-6.96834E-06 3.44743E-19-1.17098E-18
 -1      1109 9.57447E-05-2.52204E-05-3.02260E-05 1.95119E-08 3.68146E-19-1.14669E-18
 -1      1110 7.58568E-05-1.74745E-05-2.50307E-05 2.76381E-06 1.23205E-19 6.37375E-19
 -1      1111 8.42871E-05-2.05684E-05-2.73083E-05-1.94970E-06 2.97003E-19-6.22265E-19
 -1      1112 7.21930E-05-1.65016E-05-2.38526E-05-1.68477E-06-5.95549E-21-2.56854E-18
 -1      1113 9.58836E-05-2.64513E-05-2.97561E-05-3.91008E-07 5.94366E-19-1.16898E-18
 -1      1114 8.00428E-05-1.86997E-05-2.62893E-05 2.25800E-06 8.67692E-19-2.42088E-19
 -1      1115 8.76708E-05-2.19701E-05-2.81582E-05 1.41445E-06-1.10106E-18-2.75700E-18
 -1      1116 9.15826E-05-2.46198E-05-2.86977E-05 1.01822E-06-4.97033E-19-2.04524E-18
 -1      1117 8.68062E-05-2.17655E-05-2.78751E-05-1.73436E-06-1.03773E-19-3.61199E-19
 -1      1118 9.56045E-05-2.67806E-05-2.94956E-05-6.03334E-07 3.90057E-19-1.07988E-18
 -1      1119 9.07921E-05-2.40635E-05-2.86061E-05 7.27445E-08-1.32753E-18-1.25510E-18
 -1      1120 9.20443E-05-2.49185E-05-2.87670E-05-1.23499E-06 5.09822E-19-1.19057E-18
 -1      1121 8.30729E-05-1.97304E-05-2.71447E-05 1.88372E-06 1.63373E-18-3.84750E-19
 -1      1122 9.05751E-05-2.39479E-05-2.85545E-05-1.41349E-06-6.82072E-20-2.85892E-19
 -1      1123 8.56239E-05-2.08800E-05-2.77478E-05 1.61451E-06-3.54083E-19-1.35873E-18
 -1      1124 9.57276E-05-2.66964E-05-2.95851E-05 3.56241E-07 1.25291E-19-9.84432E-19
 -1      1125 9.59044E-05-2.61933E-05-2.98749E-05 1.43548E-07 2.25311E-19-1.06469E-18
 -1      1126 9.58987E-05-2.61296E-05-2.99016E-05-1.16837E-07 1.55406E-19-1.52606E-18
 -1      1127 7.97857E-05-1.89661E-05-2.60670E-05 1.50415E-06-3.74903E-19-1.08605E-18
 -1      1128 9.50589E-05-2.67271E-05-2.92854E-05-7.84386E-07 2.35404E-19-7.95166E-19
 -1      1129 9.42863E-05-2.63640E-05-2.91077E-05-9.34445E-07 5.57295E-19-5.41851E-19
 -1      1130 9.40671E-05-2.62196E-05-2.90785E-05-2.31625E-07 4.68217E-19-5.13827E-19
 -1      1131 9.29914E-05-2.55546E-05-2.89037E-05-2.42202E-07 7.38224E-19-8.02384E-19
 -1      1132 8.61960E-05-2.14930E-05-2.77306E-05 1.20130E-07 1.29545E-19-5.58475E-19
 -1      1133 8.33547E-05-2.02359E-05-2.70529E-05 6.40702E-07 2.95525E-19-5.52584E-19
 -1      1134 8.03284E-05-1.88116E-05-2.63790E-05-7.90964E-07 1.33773E-18-1.60849E-18
 -1      1135 7.68463E-05-1.77345E-05-2.53328E-05-1.10697E-06 1.96262E-19-1.39480E-18
 -1      1136 8.88987E-05-2.29191E-05-2.82734E-05-1.57706E-06-4.44554E-20-3.90996E-19
 -1      1137 9.32974E-05-2.57597E-05-2.89443E-05-1.07504E-06 2.82118E-19-7.36406E-19
 -1      1138 8.83488E-05-2.26364E-05-2.81673E-05-4.78443E-08-7.75814E-20-4.80645E-19
 -1      1139 1.16620E-04 2.56932E-10-4.17753E-05-4.13896E-05-3.00697E-19 9.95433E-18
 -1      1140 8.85423E-05 7.18521E-11-3.72056E-05-2.41269E-05-1.57866E-19 1.48051E-18
 -1      1141 8.40412E-05 4.14560E-11-3.57502E-05-1.78387E-05-1.13820E-19-2.18979E-18
 -1      1142 8.23513E-05 3.20528E-11-3.50782E-05-1.37932E-05-7.45654E-20-3.94483E-18
 -1      1143 8.15863E-05 2.73134E-11-3.47599E-05-1.04857E-05-4.58721E-20-4.75442E-18
 -1      1144 8.12055E-05 2.45262E-11-3.46054E-05-7.59645E-06-3.36629E-20-5.08273E-18
 -1      1145 8.10106E-05 2.28176E-11-3.45288E-05-4.94584E-06-1.60572E-20-5.16660E-18
 -1      1146 8.09161E-05 2.18860E-11-3.44932E-05-2.41402E-06 4.06477E-21-5.10183E-18
 -1      1147 8.08896E-05 2.16025E-11-3.44834E-05 5.17937E-08 1.12844E-20-4.98933E-18
 -1      1148 8.09209E-05 2.19315E-11-3.44948E-05 2.52022E-06 3.32378E-20-4.79673E-18
 -1      1149 8.10202E-05 2.29208E-11-3.45320E-05 5.06064E-06 3.96054E-20-4.50060E-18
 -1      1150 8.12221E-05 2.46916E-11-3.46100E-05 7.72799E-06 6.13239E-20-4.02687E-18
 -1      1151 8.16071E-05 2.76210E-11-3.47665E-05 1.06458E-05 7.93035E-20-3.24328E-18
 -1      1152 8.23750E-05 3.25199E-11-3.50882E-05 1.39980E-05 1.03020E-19-2.03573E-18
 -1      1153 8.40378E-05 4.19448E-11-3.57696E-05 1.80900E-05 1.35472E-19 2.03156E-19
 -1      1154 8.82401E-05 6.66795E-11-3.72750E-05 2.39713E-05 1.43254E-19 4.32344E-18
 -1      1155 1.06399E-04 1.63563E-10-4.05551E-05 3.61306E-05 2.64698E-19 1.25493E-17
 -1      1156 1.29909E-04-2.56930E-05-4.01839E-05-2.60534E-05-1.23561E-18 1.54016E-17
 -1      1157 9.72088E-05-2.87887E-05-3.15011E-05-6.79716E-07-4.00250E-19 1.24991E-17
 -1      1158 8.99403E-05-2.69617E-05-2.78266E-05 3.85434E-07-1.64020E-19 8.23947E-18
 -1      1159 8.80587E-05-2.65164E-05-2.65872E-05 2.48844E-07-1.22310E-19 5.24512E-18
 -1      1160 8.77428E-05-2.64031E-05-2.63447E-05 1.63613E-07-5.63906E-20 3.40790E-18
 -1      1161 8.81694E-05-2.65007E-05-2.64511E-05 1.15705E-07-9.15887E-20 2.52937E-18
 -1      1162 8.89626E-05-2.67182E-05-2.66873E-05 8.53698E-08-1.22683E-19 1.23471E-18
 -1      1163 8.99421E-05-2.70006E-05-2.69812E-05 6.48677E-08 3.88279E-21 8.86076E-20
 -1      1164 9.10208E-05-2.73184E-05-2.73057E-05 5.05525E-08 2.89242E-20-7.53085E-19
 -1      1165 9.21654E-05-2.76591E-05-2.76512E-05 4.07928E-08-8.15927E-20-1.39254E-18
 -1      1166 9.33774E-05-2.80220E-05-2.80183E-05 3.49303E-08 3.37564E-20-2.09635E-18
 -1      1167 9.46828E-05-2.84141E-05-2.84146E-05 3.27954E-08 4.84269E-20-2.40971E-18
 -1      1168 9.61242E-05-2.88475E-05-2.88524E-05 3.44767E-08-5.54773E-20-2.93183E-18
 -1      1169 9.77531E-05-2.93371E-05-2.93464E-05 4.01642E-08-5.81818E-20-3.33277E-18
 -1      1170 9.96204E-05-2.98976E-05-2.99108E-05 4.99548E-08 3.03381E-20-3.14501E-18
 -1      1171 1.01763E-04-3.05390E-05-3.05548E-05 6.35142E-08-1.64641E-19-3.38358E-18
 -1      1172 1.04181E-04-3.12608E-05-3.12758E-05 7.94742E-08-2.61892E-20-5.05996E-18
 -1      1173 1.06812E-04-3.20426E-05-3.20501E-05 9.44477E-08-6.43117E-20-6.08553E-18
 -1      1174 1.09481E-04-3.28319E-05-3.28211E-05 1.01666E-07-1.13332E-20-6.06075E-18
 -1      1175 1.11863E-04-3.35303E-05-3.34865E-05 8.96801E-08-1.12947E-19-5.82833E-18
 -1      1176 1.13442E-04-3.39849E-05-3.38935E-05 4.25566E-08-1.55680E-19-6.53933E-18
 -1      1177 1.13541E-04-3.39966E-05-3.38537E-05-5.55435E-08 1.79432E-20-5.40951E-18
 -1      1178 1.11471E-04-3.33661E-05-3.31935E-05-2.07994E-07-4.95911E-20-5.06346E-18
 -1      1179 1.06859E-04-3.19935E-05-3.18478E-05-3.86400E-07-1.56923E-19-6.84609E-18
 -1      1180 1.00110E-04-3.00094E-05-2.99693E-05-5.18145E-07 9.24598E-20-6.51739E-18
 -1      1181 9.27190E-05-2.78574E-05-2.79800E-05-5.08277E-07 1.95666E-19-4.71972E-18
 -1      1182 8.70036E-05-2.62061E-05-2.64762E-05-3.05591E-07 1.94857E-19-2.91183E-18
 -1      1183 8.51157E-05-2.56633E-05-2.59843E-05 3.28957E-08-1.13218E-19-3.55724E-18
 -1      1184 8.78263E-05-2.64438E-05-2.66893E-05 3.56194E-07-5.83659E-21-5.26378E-18
 -1      1185 9.40419E-05-2.82421E-05-2.83297E-05 5.24111E-07 1.59002E-19-5.48581E-18
 -1      1186 1.01483E-04-3.04122E-05-3.03444E-05 5.01434E-07-2.29321E-19-6.61729E-18
 -1      1187 1.07926E-04-3.23105E-05-3.21536E-05 3.53706E-07 2.16582E-19-8.23957E-18
 -1      1188 1.12088E-04-3.35524E-05-3.33830E-05 1.75951E-07 8.19571E-21-8.90679E-18
 -1      1189 1.13744E-04-3.40608E-05-3.39284E-05 3.28473E-08 2.70452E-19-7.46950E-18
 -1      1190 1.13362E-04-3.39652E-05-3.38851E-05-5.45676E-08 2.72225E-19-6.30754E-18
 -1      1191 1.11655E-04-3.34723E-05-3.34373E-05-9.33001E-08-2.54962E-20-7.92640E-18
 -1      1192 1.09282E-04-3.27763E-05-3.27714E-05-9.98761E-08 1.01036E-19-6.21075E-18
 -1      1193 1.06731E-04-3.20220E-05-3.20332E-05-8.94796E-08-1.04557E-19-5.91608E-18
 -1      1194 1.04303E-04-3.13005E-05-3.13181E-05-7.25181E-08-8.63279E-20-4.51278E-18
 -1      1195 1.02157E-04-3.06603E-05-3.06786E-05-5.48957E-08-3.09279E-20-4.00021E-18
 -1      1196 1.00353E-04-3.01203E-05-3.01364E-05-3.93842E-08-8.06241E-20-4.96224E-18
 -1      1197 9.88917E-05-2.96814E-05-2.96946E-05-2.69201E-08-2.35912E-20-5.18358E-18
 -1      1198 9.77426E-05-2.93355E-05-2.93456E-05-1.74965E-08-2.48565E-19-5.45304E-18
 -1      1199 9.68626E-05-2.90699E-05-2.90774E-05-1.06770E-08-1.67487E-19-4.58665E-18
 -1      1200 9.62073E-05-2.88716E-05-2.88773E-05-5.83528E-09 1.44024E-19-2.63766E-18
 -1      1201 9.57371E-05-2.87290E-05-2.87339E-05-2.23570E-09 5.72149E-19 1.63921E-18
 -1      1202 9.54218E-05-2.86329E-05-2.86380E-05 1.07160E-09-7.38863E-20 6.01152E-19
 -1      1203 9.52415E-05-2.85775E-05-2.85828E-05 5.41436E-09 3.71105E-19 2.21008E-18
 -1      1204 9.51878E-05-2.85632E-05-2.85599E-05 1.31515E-08-3.72702E-19 1.54797E-18
 -1      1205 9.52113E-05-2.85634E-05-2.85512E-05 8.39586E-09 2.11584E-19 1.66339E-18
 -1      1206 1.30739E-04-3.76444E-05-3.85721E-05 1.21538E-05-2.51648E-19 1.92505E-17
 -1      1207 9.63095E-05-2.81157E-05-3.12534E-05 8.01255E-07 1.27267E-19 1.59092E-17
 -1      1208 9.01515E-05-2.68635E-05-2.78066E-05 1.21653E-07 6.87222E-20 1.26666E-17
 -1      1209 8.81415E-05-2.64425E-05-2.66222E-05 1.17279E-08 7.39963E-20 1.04002E-17
 -1      1210 8.77778E-05-2.63638E-05-2.63698E-05-2.12647E-08 3.95938E-20 8.68545E-18
 -1      1211 8.81840E-05-2.64808E-05-2.64642E-05-2.88480E-08 1.27675E-20 7.21188E-18
 -1      1212 8.89665E-05-2.67081E-05-2.66944E-05-2.83874E-08 5.54662E-20 6.47341E-18
 -1      1213 8.99396E-05-2.69955E-05-2.69851E-05-2.48060E-08-1.08398E-20 6.47598E-18
 -1      1214 9.10156E-05-2.73161E-05-2.73080E-05-1.96911E-08 9.25212E-20 5.39049E-18
 -1      1215 9.21624E-05-2.76596E-05-2.76539E-05-1.38267E-08 4.47848E-20 4.54282E-18
 -1      1216 9.33857E-05-2.80271E-05-2.80245E-05-7.80149E-09 1.34404E-19 4.19593E-18
 -1      1217 9.47189E-05-2.84282E-05-2.84300E-05-2.19961E-09 5.51713E-20 3.53024E-18
 -1      1218 9.62170E-05-2.88793E-05-2.88867E-05 2.25916E-09 9.59132E-20 2.68921E-18
 -1      1219 9.79519E-05-2.94014E-05-2.94158E-05 4.55405E-09 9.97787E-20 1.86313E-18
 -1      1220 1.00006E-04-3.00188E-05-3.00416E-05 3.15356E-09 9.35831E-20 1.51869E-18
 -1      1221 1.02462E-04-3.07551E-05-3.07876E-05-4.21641E-09-1.04217E-19 1.69446E-18
 -1      1222 1.05386E-04-3.16283E-05-3.16700E-05-2.07132E-08-1.22076E-19 2.45381E-18
 -1      1223 1.08790E-04-3.26402E-05-3.26872E-05-5.00967E-08-4.75538E-20 1.43567E-18
 -1      1224 1.12579E-04-3.37603E-05-3.38011E-05-9.52679E-08 1.16469E-19 6.52586E-19
 -1      1225 1.16465E-04-3.49019E-05-3.49125E-05-1.54392E-07 2.22826E-20 1.88354E-18
 -1      1226 1.19864E-04-3.58938E-05-3.58347E-05-2.13676E-07-6.14562E-20 3.07646E-18
 -1      1227 1.21823E-04-3.64623E-05-3.62857E-05-2.38630E-07-6.15389E-20 5.24843E-18
 -1      1228 1.21102E-04-3.62549E-05-3.59341E-05-1.72373E-07 8.58944E-21 3.64672E-18
 -1      1229 1.16582E-04-3.49547E-05-3.45369E-05 3.90723E-08 9.37427E-20 1.57516E-18
 -1      1230 1.08132E-04-3.25085E-05-3.21657E-05 3.77322E-07-7.05188E-20 1.09680E-18
 -1      1231 9.75769E-05-2.94023E-05-2.93849E-05 6.90234E-07 9.91095E-20 3.66204E-18
 -1      1232 8.87457E-05-2.67228E-05-2.71709E-05 7.47510E-07-2.69297E-19 4.11796E-18
 -1      1233 8.56954E-05-2.57001E-05-2.64580E-05 4.42041E-07 6.33356E-20 3.69620E-18
 -1      1234 8.99940E-05-2.69027E-05-2.75706E-05-7.19609E-08-3.94995E-20 1.77030E-18
 -1      1235 9.94889E-05-2.97519E-05-3.00087E-05-4.92518E-07-2.18735E-19 1.59899E-18
 -1      1236 1.09935E-04-3.29429E-05-3.27768E-05-6.35292E-07 2.99999E-19 4.21187E-19
 -1      1237 1.17770E-04-3.53451E-05-3.49645E-05-5.32090E-07 7.89594E-20-1.03915E-18
 -1      1238 1.21566E-04-3.65034E-05-3.61249E-05-3.23752E-07-3.13829E-19 2.11176E-18
 -1      1239 1.21721E-04-3.65452E-05-3.62804E-05-1.27847E-07 9.46096E-20 3.16752E-18
 -1      1240 1.19444E-04-3.58497E-05-3.57121E-05 5.89808E-09-1.22196E-19 2.19309E-18
 -1      1241 1.15955E-04-3.47929E-05-3.47496E-05 7.67560E-08-1.93776E-19 3.39316E-19
 -1      1242 1.12145E-04-3.36446E-05-3.36558E-05 1.02868E-07 1.44318E-19-2.84720E-18
 -1      1243 1.08542E-04-3.25619E-05-3.25976E-05 1.03186E-07 1.76510E-19-2.74984E-18
 -1      1244 1.05396E-04-3.16182E-05-3.16607E-05 9.13277E-08-1.08615E-19-3.38136E-18
 -1      1245 1.02786E-04-3.08360E-05-3.08763E-05 7.54008E-08-4.00634E-19-4.07898E-18
 -1      1246 1.00695E-04-3.02096E-05-3.02442E-05 5.95835E-08 4.27018E-19-3.03310E-18
 -1      1247 9.90647E-05-2.97211E-05-2.97490E-05 4.57082E-08-3.12223E-19 5.63158E-19
 -1      1248 9.78205E-05-2.93482E-05-2.93699E-05 3.43608E-08 4.94342E-19-9.22406E-19
 -1      1249 9.68903E-05-2.90693E-05-2.90859E-05 2.55215E-08-7.52370E-20-3.00892E-18
 -1      1250 9.62108E-05-2.88655E-05-2.88783E-05 1.88815E-08 1.55021E-19-1.82665E-18
 -1      1251 9.57311E-05-2.87216E-05-2.87319E-05 1.39895E-08 3.02916E-19-1.67634E-18
 -1      1252 9.54137E-05-2.86263E-05-2.86356E-05 1.01429E-08-2.97938E-19-7.97433E-19
 -1      1253 9.52352E-05-2.85724E-05-2.85811E-05 5.60817E-09 2.11080E-19-4.62581E-18
 -1      1254 9.51820E-05-2.85551E-05-2.85594E-05-3.00199E-09 3.85995E-19-5.55586E-18
 -1      1255 9.52135E-05-2.85652E-05-2.85508E-05-7.93677E-09-8.99951E-20-4.48235E-18
 -1      1256 9.52434E-05-2.85957E-05-2.85517E-05-8.33430E-09-4.06131E-18-8.10586E-20
 -1      1257 9.52488E-05-2.86212E-05-2.85616E-05-1.13865E-08-8.21194E-19 1.00836E-18
 -1      1258 9.52301E-05-2.85568E-05-2.85856E-05-3.41301E-10 9.55416E-18 8.25582E-19
 -1      1259 9.51801E-05-2.83860E-05-2.86339E-05 6.74674E-09 1.66802E-17 8.27811E-19
 -1      1260 9.51102E-05-2.81475E-05-2.87004E-05 1.00500E-08 1.85688E-17-5.74431E-19
 -1      1261 9.50360E-05-2.78943E-05-2.87715E-05 1.02227E-08 9.52796E-18-1.51660E-18
 -1      1262 9.49714E-05-2.76736E-05-2.88339E-05 8.21433E-09 4.21697E-18-4.81750E-21
 -1      1263 9.49273E-05-2.75232E-05-2.88766E-05 4.48895E-09 4.61178E-18-3.02275E-19
 -1      1264 9.49121E-05-2.74712E-05-2.88914E-05-1.29942E-11 9.66623E-20-3.61636E-19
 -1      1265 9.49281E-05-2.75260E-05-2.88759E-05-4.48130E-09-1.04960E-18 3.01512E-19
 -1      1266 9.49725E-05-2.76778E-05-2.88328E-05-8.10244E-09-1.06026E-18-1.51245E-18
 -1      1267 9.50372E-05-2.78982E-05-2.87705E-05-1.01451E-08-4.11456E-18-6.61544E-19
 -1      1268 9.51106E-05-2.81491E-05-2.86999E-05-9.83886E-09-9.75166E-18-1.48196E-19
 -1      1269 9.51798E-05-2.83850E-05-2.86341E-05-6.73673E-09-5.17030E-18-4.24232E-19
 -1      1270 9.52311E-05-2.85569E-05-2.85861E-05 3.15450E-11-1.54860E-18-8.83725E-20
 -1      1271 9.52441E-05-2.86128E-05-2.85617E-05 1.81199E-08-5.36500E-19-1.10007E-18
 -1      1272 9.52446E-05-2.85980E-05-2.85518E-05 9.87937E-09-1.67288E-18 8.26102E-19
 -1      1273 3.24398E-05-1.04002E-04 1.78040E-05-1.43714E-05 9.94925E-18 1.38000E-18
 -1      1274 1.65313E-05-6.24339E-05 8.81754E-06-2.51466E-05 1.26496E-17 4.59007E-18
 -1      1275 7.70265E-06-6.76251E-06-6.77671E-06 1.16490E-06 1.36609E-17 8.66091E-18
 -1      1276 3.49432E-05 2.43419E-05-2.63592E-05 5.34334E-05 1.28851E-17 1.26445E-17
 -1      1277 1.06960E-04 1.27931E-05-4.64194E-05 1.00385E-04 1.14443E-17 1.62156E-17
 -1      1278 2.08201E-04-3.39273E-05-6.40079E-05 1.08375E-04 5.70816E-18 1.19974E-17
 -1      1279 2.89708E-04-7.97609E-05-7.56185E-05 5.87260E-05 1.16991E-18 3.59481E-18
 -1      1280 3.11215E-04-9.31324E-05-7.78633E-05-2.32937E-05 8.54762E-19-6.14120E-18
 -1      1281 2.48966E-04-5.62266E-05-6.99399E-05-9.23612E-05 4.99517E-18-1.41895E-17
 -1      1282 1.48950E-04-4.21538E-06-5.42645E-05-1.10212E-04 8.82778E-18-1.68543E-17
 -1      1283 5.90814E-05 2.45219E-05-3.44522E-05-7.47907E-05 1.11470E-17-1.31239E-17
 -1      1284 1.21328E-05 7.37489E-06-1.30216E-05-1.69060E-05 1.18212E-17-8.71512E-18
 -1      1285 1.10680E-05-4.38899E-05 4.51887E-06 2.12033E-05 8.41527E-18-4.21526E-18
 -1      1286 2.81447E-05-9.33413E-05 1.55760E-05 2.23598E-05 3.44997E-18-1.00638E-18
 -1      1287 3.71541E-05-1.13187E-04 1.91060E-05-1.56131E-06-6.23268E-18-1.43260E-18
 -1      1288 2.47284E-05-8.50170E-05 1.40432E-05-2.22325E-05-1.95334E-17-5.32106E-18
 -1      1289 8.93765E-06-3.17195E-05 1.15583E-06-1.48793E-05-2.07608E-17-1.02771E-17
 -1      1290 1.68771E-05 1.52170E-05-1.69911E-05 2.83210E-05-1.90210E-17-1.45258E-17
 -1      1291 7.18779E-05 2.32819E-05-3.80800E-05 8.39958E-05-1.48578E-17-1.78707E-17
 -1      1292 1.63263E-04-1.08816E-05-5.67735E-05 1.11617E-04-8.60755E-18-1.56295E-17
 -1      1293 2.58649E-04-6.24476E-05-7.09589E-05 8.42880E-05-2.86318E-18-9.03022E-18
 -1      1294 3.06570E-04-9.08533E-05-7.72593E-05 7.99636E-06-5.44430E-19 1.00130E-18
 -1      1295 2.76241E-04-7.28824E-05-7.33487E-05-7.13188E-05-2.06697E-18 8.12982E-18
 -1      1296 1.89977E-04-2.46958E-05-6.11893E-05-1.10728E-04-6.76356E-18 1.37948E-17
 -1      1297 9.36945E-05 1.75822E-05-4.34126E-05-9.48997E-05-1.25590E-17 1.66679E-17
 -1      1298 2.76312E-05 2.28714E-05-2.31002E-05-4.51427E-05-1.68475E-17 1.54109E-17
 -1      1299 7.00850E-06-1.32056E-05-4.27945E-06 4.32782E-06-1.26072E-17 7.57417E-18
 -1      1300 1.83723E-05-6.72869E-05 1.01637E-05 2.46665E-05-4.44862E-18 2.47821E-18
 -1      1301 3.46570E-05-1.07599E-04 1.80563E-05 1.23279E-05 3.59947E-18-1.49342E-19
 -1      1302 1.04227E-04-2.19664E-05-3.78177E-05-1.72460E-05-4.41939E-19 8.14676E-18
 -1      1303 9.02333E-05-6.67628E-06-3.59812E-05-2.04261E-05-1.25176E-18-2.73486E-19
 -1      1304 9.25299E-05-6.73457E-06-3.71699E-05-2.57080E-05-1.62969E-18 1.63975E-18
 -1      1305 8.58831E-05-4.09553E-06-3.51206E-05-1.63828E-05-1.20779E-18-2.95673E-18
 -1      1306 8.71067E-05-4.09047E-06-3.55775E-05-1.88035E-05-1.38712E-18-1.79587E-18
 -1      1307 9.20651E-05-1.04578E-05-3.50661E-05-1.89757E-05-2.18431E-18-2.49875E-19
 -1      1308 8.41291E-05-3.19430E-06-3.46979E-05-1.27651E-05-9.32901E-19-4.30130E-18
 -1      1309 8.47149E-05-3.16321E-06-3.49126E-05-1.45822E-05-1.08709E-18-3.70008E-18
 -1      1310 8.78626E-05-7.39191E-06-3.45712E-05-1.53554E-05-1.87094E-18-2.45383E-18
 -1      1311 8.32438E-05-2.72543E-06-3.44955E-05-9.63140E-06-6.77110E-19-4.93556E-18
 -1      1312 8.35464E-05-2.70915E-06-3.45984E-05-1.11777E-05-7.94464E-19-4.66775E-18
 -1      1313 8.59041E-05-5.98137E-06-3.43209E-05-1.18924E-05-1.40643E-18-3.60934E-18
 -1      1314 8.27670E-05-2.44909E-06-3.43989E-05-6.86773E-06-4.25929E-19-5.16439E-18
 -1      1315 8.29288E-05-2.44080E-06-3.44491E-05-8.23423E-06-5.22202E-19-5.06094E-18
 -1      1316 8.48774E-05-5.20275E-06-3.42024E-05-8.88334E-06-9.91637E-19-4.11351E-18
 -1      1317 8.24999E-05-2.27831E-06-3.43520E-05-4.26121E-06-1.72447E-19-5.18824E-18
 -1      1318 8.25868E-05-2.27454E-06-3.43768E-05-5.55500E-06-2.44091E-19-5.18691E-18
 -1      1319 8.43022E-05-4.73702E-06-3.41481E-05-6.16710E-06-5.65345E-19-4.32598E-18
 -1      1320 8.23708E-05-2.18518E-06-3.43327E-05-1.77486E-06 9.59436E-20-5.11362E-18
 -1      1321 8.24080E-05-2.18371E-06-3.43427E-05-3.01633E-06 3.11682E-21-5.14766E-18
 -1      1322 8.39838E-05-4.46459E-06-3.41246E-05-3.61216E-06-1.51095E-19-4.29283E-18
 -1      1323 8.23453E-05-2.15639E-06-3.43307E-05 6.63981E-07 3.12758E-19-4.97439E-18
 -1      1324 8.23439E-05-2.15643E-06-3.43303E-05-5.61576E-07 2.44049E-19-5.06306E-18
 -1      1325 8.38436E-05-4.34005E-06-3.41163E-05-1.15962E-06 2.78750E-19-4.22912E-18
 -1      1326 8.24172E-05-2.18816E-06-3.43444E-05 3.12247E-06 5.31098E-19-4.76656E-18
 -1      1327 8.23769E-05-2.18968E-06-3.43337E-05 1.87832E-06 4.50377E-19-4.89668E-18
 -1      1328 8.38489E-05-4.34438E-06-3.41167E-05 1.26148E-06 6.05111E-19-4.08932E-18
 -1      1329 8.26051E-05-2.28522E-06-3.43797E-05 5.67063E-06 7.23889E-19-4.47326E-18
 -1      1330 8.25146E-05-2.28838E-06-3.43542E-05 4.37070E-06 6.60936E-19-4.66509E-18
 -1      1331 8.40002E-05-4.47849E-06-3.41259E-05 3.71840E-06 9.92643E-19-3.90137E-18
 -1      1332 8.29532E-05-2.45645E-06-3.44524E-05 8.34253E-06 9.24470E-19-3.92743E-18
 -1      1333 8.27881E-05-2.46491E-06-3.44016E-05 6.96686E-06 8.51228E-19-4.25131E-18
 -1      1334 8.43293E-05-4.76063E-06-3.41496E-05 6.26018E-06 1.26541E-18-3.58231E-18
 -1      1335 8.35892E-05-2.73950E-06-3.46037E-05 1.13397E-05 1.24482E-18-3.08990E-18
 -1      1336 8.32815E-05-2.75638E-06-3.44995E-05 9.77564E-06 1.10025E-18-3.56739E-18
 -1      1337 8.49217E-05-5.24456E-06-3.42038E-05 8.99315E-06 1.68552E-18-2.96528E-18
 -1      1338 8.47733E-05-3.20573E-06-3.49206E-05 1.47909E-05 1.49319E-18-1.71373E-18
 -1      1339 8.41822E-05-3.24234E-06-3.47035E-05 1.29493E-05 1.34657E-18-2.53280E-18
 -1      1340 8.59823E-05-6.05912E-06-3.43228E-05 1.20585E-05 2.07982E-18-2.04995E-18
 -1      1341 8.72073E-05-4.09283E-06-3.55983E-05 1.90428E-05 1.66108E-18 6.80035E-19
 -1      1342 8.59548E-05-4.15684E-06-3.51280E-05 1.66435E-05 1.49337E-18-7.54839E-19
 -1      1343 8.79866E-05-7.51781E-06-3.45729E-05 1.55886E-05 2.39066E-18-4.68568E-19
 -1      1344 9.33383E-05-6.78529E-06-3.70648E-05 2.50469E-05 1.39337E-18 5.08537E-18
 -1      1345 9.00474E-05-6.43300E-06-3.60032E-05 2.11038E-05 1.36780E-18 2.42045E-18
 -1      1346 9.22938E-05-1.06926E-05-3.50508E-05 1.96195E-05 2.42892E-18 2.18963E-18
 -1      1347 1.23364E-04-2.48682E-05-3.89370E-05 2.83115E-05 6.04570E-19 1.30879E-17
 -1      1348 9.99083E-05-1.43943E-05-3.72909E-05 2.40062E-05 6.68097E-19 7.56178E-18
 -1      1349 1.01527E-04-1.93115E-05-3.53507E-05 2.13482E-05 2.22506E-18 6.10563E-18
 -1      1350 1.02381E-04-2.77412E-05-3.46859E-05 7.31347E-06 1.13886E-18 1.27044E-17
 -1      1351 1.04934E-04-3.01678E-05-3.34591E-05-7.93796E-06-1.32698E-18 8.60395E-18
 -1      1352 9.80655E-05-2.77863E-05-3.07016E-05-4.97158E-06-1.28082E-18 6.98606E-18
 -1      1353 9.53223E-05-2.77951E-05-2.91997E-05-2.47295E-06-1.04450E-18 6.31175E-18
 -1      1354 9.31053E-05-2.75079E-05-2.81654E-05-2.02597E-06-9.97911E-19 4.77547E-18
 -1      1355 9.93370E-05-2.80087E-05-3.09375E-05-7.85201E-06-2.26677E-18 3.64923E-18
 -1      1356 9.14352E-05-2.71554E-05-2.75373E-05-8.17043E-07-8.15024E-19 4.23426E-18
 -1      1357 9.07378E-05-2.70649E-05-2.72411E-05-7.05506E-07-7.05605E-19 3.12253E-18
 -1      1358 9.46045E-05-2.77342E-05-2.87833E-05-3.08100E-06-1.75061E-18 2.71935E-18
 -1      1359 9.00148E-05-2.68896E-05-2.70065E-05-1.42442E-07-4.49186E-19 2.62128E-18
 -1      1360 8.99711E-05-2.69241E-05-2.69806E-05-8.19567E-08-4.21452E-19 1.96573E-18
 -1      1361 9.24508E-05-2.74749E-05-2.78777E-05-9.97910E-07-1.15957E-18 1.81495E-18
 -1      1362 8.97513E-05-2.68677E-05-2.69187E-05 2.02851E-07-2.99593E-19 1.71492E-18
 -1      1363 9.00109E-05-2.69701E-05-2.69941E-05 2.35378E-07-4.63843E-19 1.22502E-18
 -1      1364 9.15579E-05-2.73478E-05-2.75323E-05 1.38479E-08-7.45204E-19 9.04572E-19
 -1      1365 9.00730E-05-2.69896E-05-2.70187E-05 3.88131E-07-5.08107E-19 1.07033E-18
 -1      1366 9.04845E-05-2.71287E-05-2.71388E-05 4.05493E-07-4.12701E-19 4.21068E-19
 -1      1367 9.14010E-05-2.73608E-05-2.74554E-05 5.44887E-07-7.81980E-19 4.82458E-19
 -1      1368 9.07108E-05-2.71941E-05-2.72122E-05 4.90567E-07-2.92298E-19 3.01292E-19
 -1      1369 9.12022E-05-2.73520E-05-2.73555E-05 5.00137E-07-1.76462E-19-1.02842E-19
 -1      1370 9.16737E-05-2.74716E-05-2.75222E-05 8.36063E-07-5.98543E-19 2.28563E-19
 -1      1371 9.15299E-05-2.74460E-05-2.74591E-05 5.52185E-07-1.67368E-19-3.77975E-19
 -1      1372 9.20680E-05-2.76143E-05-2.76167E-05 5.58673E-07-3.06518E-19-7.67366E-19
 -1      1373 9.22061E-05-2.76445E-05-2.76744E-05 1.00529E-06-5.84435E-19-2.42050E-19
 -1      1374 9.24653E-05-2.77280E-05-2.77413E-05 5.98890E-07-2.30626E-19-8.70661E-19
 -1      1375 9.30404E-05-2.79047E-05-2.79104E-05 6.05577E-07-1.83755E-19-1.23146E-18
 -1      1376 9.29074E-05-2.78580E-05-2.78824E-05 1.11959E-06-4.08574E-19-5.45174E-19
 -1      1377 9.34950E-05-2.80346E-05-2.80525E-05 6.48018E-07-2.74238E-19-1.19199E-18
 -1      1378 9.41125E-05-2.82224E-05-2.82347E-05 6.57266E-07-2.51498E-19-1.58925E-18
 -1      1379 9.37346E-05-2.81027E-05-2.81320E-05 1.22149E-06-3.81906E-19-5.46378E-19
 -1      1380 9.46250E-05-2.83687E-05-2.83945E-05 7.11437E-07-6.83462E-20-2.05371E-18
 -1      1381 9.53005E-05-2.85730E-05-2.85943E-05 7.24899E-07-1.15265E-19-2.04372E-18
 -1      1382 9.46761E-05-2.83769E-05-2.84186E-05 1.33950E-06-3.06494E-19-1.15783E-18
 -1      1383 9.58795E-05-2.87385E-05-2.87746E-05 7.96651E-07-1.26577E-19-2.13406E-18
 -1      1384 9.66354E-05-2.89668E-05-2.89983E-05 8.15283E-07-2.73072E-19-2.47652E-18
 -1      1385 9.57405E-05-2.86850E-05-2.87439E-05 1.49229E-06-2.59812E-19-1.68879E-18
 -1      1386 9.72937E-05-2.91557E-05-2.92028E-05 9.06643E-07-7.71644E-20-2.46726E-18
 -1      1387 9.81542E-05-2.94164E-05-2.94573E-05 9.30538E-07 1.13152E-19-2.47682E-18
 -1      1388 9.69488E-05-2.90353E-05-2.91130E-05 1.68956E-06-1.58145E-19-1.97002E-18
 -1      1389 9.89046E-05-2.96329E-05-2.96898E-05 1.03858E-06-1.09960E-19-2.30162E-18
 -1      1390 9.98903E-05-2.99336E-05-2.99808E-05 1.06657E-06-2.40743E-19-2.40508E-18
 -1      1391 9.83265E-05-2.94380E-05-2.95321E-05 1.93053E-06-9.85048E-20-1.97255E-18
 -1      1392 1.00740E-04-3.01810E-05-3.02430E-05 1.18130E-06-4.33423E-19-2.66230E-18
 -1      1393 1.01860E-04-3.05259E-05-3.05722E-05 1.21028E-06-5.80193E-19-3.10104E-18
 -1      1394 9.98945E-05-2.99035E-05-3.00054E-05 2.20016E-06-5.03404E-19-1.99638E-18
 -1      1395 1.02804E-04-3.08046E-05-3.08614E-05 1.31138E-06-4.73909E-19-3.30878E-18
 -1      1396 1.04041E-04-3.11912E-05-3.12234E-05 1.33534E-06-3.67157E-19-3.91420E-18
 -1      1397 1.01657E-04-3.04390E-05-3.05310E-05 2.46281E-06-8.76352E-19-2.12129E-18
 -1      1398 1.05052E-04-3.14961E-05-3.15294E-05 1.38835E-06-1.07337E-21-3.95191E-18
 -1      1399 1.06349E-04-3.19093E-05-3.19059E-05 1.39715E-06-1.18648E-19-4.07883E-18
 -1      1400 1.03587E-04-3.10448E-05-3.10959E-05 2.65385E-06-3.90644E-19-2.31766E-18
 -1      1401 1.07366E-04-3.22264E-05-3.22076E-05 1.35046E-06-1.13630E-19-3.77692E-18
 -1      1402 1.08602E-04-3.26314E-05-3.25619E-05 1.32893E-06 2.73350E-20-3.86107E-18
 -1      1403 1.05604E-04-3.17073E-05-3.16702E-05 2.67127E-06 6.96006E-20-2.15790E-18
 -1      1404 1.09520E-04-3.29336E-05-3.28238E-05 1.11531E-06-9.94073E-20-3.78115E-18
 -1      1405 1.10491E-04-3.32681E-05-3.30960E-05 1.04392E-06-3.68128E-19-4.09517E-18
 -1      1406 1.07551E-04-3.23899E-05-3.22012E-05 2.37330E-06-6.82325E-20-2.05803E-18
 -1      1407 1.11152E-04-3.35108E-05-3.32680E-05 5.93758E-07-1.16391E-19-3.97540E-18
 -1      1408 1.11573E-04-3.36809E-05-3.33766E-05 4.53284E-07-1.35578E-19-4.28463E-18
 -1      1409 1.09176E-04-3.30189E-05-3.26115E-05 1.59465E-06-2.13518E-19-1.96476E-18
 -1      1410 1.11779E-04-3.37996E-05-3.34004E-05-2.71317E-07 2.18945E-19-3.64115E-18
 -1      1411 1.11321E-04-3.36880E-05-3.32560E-05-4.87839E-07 2.99989E-19-3.22864E-18
 -1      1412 1.10129E-04-3.34703E-05-3.28054E-05 2.00709E-07 3.74653E-19-2.05383E-18
 -1      1413 1.10872E-04-3.36050E-05-3.30820E-05-1.43393E-06-2.28031E-19-3.18789E-18
 -1      1414 1.09277E-04-3.31051E-05-3.26219E-05-1.70110E-06-5.64150E-19-3.55068E-18
 -1      1415 1.10004E-04-3.35662E-05-3.26908E-05-1.80250E-06-9.73889E-20-1.56432E-18
 -1      1416 1.08062E-04-3.27543E-05-3.22368E-05-2.65958E-06-4.19652E-19-3.51598E-18
 -1      1417 1.05331E-04-3.18382E-05-3.14751E-05-2.90022E-06-6.00202E-20-4.14673E-18
 -1      1418 1.08461E-04-3.31079E-05-3.22189E-05-4.11571E-06-5.72210E-19-8.42990E-19
 -1      1419 1.03452E-04-3.12185E-05-3.09313E-05-3.49720E-06 4.67475E-19-3.71562E-18
 -1      1420 1.00036E-04-3.00208E-05-3.00022E-05-3.58931E-06 5.64097E-19-2.93349E-18
 -1      1421 1.05445E-04-3.19805E-05-3.14311E-05-6.04294E-06 3.75034E-19-6.09573E-19
 -1      1422 9.79147E-05-2.92616E-05-2.94282E-05-3.41973E-06 3.57216E-19-2.97870E-18
 -1      1423 9.47338E-05-2.81105E-05-2.85802E-05-3.25796E-06 4.66867E-19-2.23021E-18
 -1      1424 1.01450E-04-3.03188E-05-3.04875E-05-6.62182E-06 7.33405E-19-7.31148E-19
 -1      1425 9.30618E-05-2.74795E-05-2.81491E-05-2.16143E-06 3.86611E-19-2.26142E-18
 -1      1426 9.12108E-05-2.67966E-05-2.76616E-05-1.75174E-06 3.42903E-19-1.58559E-18
 -1      1427 9.76002E-05-2.86126E-05-2.96441E-05-5.12055E-06 5.20555E-19-3.19728E-19
 -1      1428 9.06536E-05-2.65806E-05-2.75214E-05-3.77617E-08-2.08026E-19-1.97229E-18
 -1      1429 9.08539E-05-2.66550E-05-2.75736E-05 4.63053E-07-6.01764E-19-2.44080E-18
 -1      1430 9.53171E-05-2.75660E-05-2.91670E-05-1.69066E-06-9.57677E-20-1.36866E-18
 -1      1431 9.16561E-05-2.69647E-05-2.77753E-05 2.10874E-06-3.30740E-19-2.71366E-18
 -1      1432 9.38281E-05-2.77641E-05-2.83478E-05 2.48054E-06-3.11629E-19-3.16303E-18
 -1      1433 9.55680E-05-2.76815E-05-2.92184E-05 2.43110E-06-7.30619E-19-1.21886E-18
 -1      1434 9.56436E-05-2.84439E-05-2.88191E-05 3.41515E-06-4.68343E-19-3.48782E-18
 -1      1435 9.89558E-05-2.96362E-05-2.97051E-05 3.52611E-06-1.91694E-19-3.87173E-18
 -1      1436 9.82449E-05-2.89020E-05-2.97809E-05 5.57137E-06-8.89047E-19-1.52768E-18
 -1      1437 1.01083E-04-3.03877E-05-3.02879E-05 3.53156E-06-9.45567E-19-3.76570E-18
 -1      1438 1.04436E-04-3.15540E-05-3.12042E-05 3.40261E-06-6.81160E-19-4.58401E-18
 -1      1439 1.02237E-04-3.06535E-05-3.06669E-05 6.66807E-06-8.01560E-19-1.98312E-18
 -1      1440 1.06220E-04-3.21306E-05-3.17289E-05 2.70811E-06-1.34235E-19-4.38805E-18
 -1      1441 1.08767E-04-3.29758E-05-3.24440E-05 2.45502E-06 5.51233E-21-4.62374E-18
 -1      1442 1.06131E-04-3.22456E-05-3.16039E-05 5.77255E-06-9.49660E-19-1.91862E-18
 -1      1443 1.09850E-04-3.32767E-05-3.27953E-05 1.47873E-06-8.72245E-20-4.75903E-18
 -1      1444 1.11237E-04-3.37024E-05-3.31989E-05 1.21809E-06 6.11055E-20-4.97862E-18
 -1      1445 1.08908E-04-3.32534E-05-3.23482E-05 3.71257E-06-5.10867E-20-1.24264E-18
 -1      1446 1.11567E-04-3.37464E-05-3.33386E-05 3.08517E-07 6.86547E-19-4.82690E-18
 -1      1447 1.11858E-04-3.38022E-05-3.34358E-05 1.07122E-07 6.28068E-19-4.60280E-18
 -1      1448 1.10198E-04-3.36023E-05-3.27622E-05 1.42869E-06 9.07682E-19-1.50812E-18
 -1      1449 1.11574E-04-3.36611E-05-3.33870E-05-5.58864E-07 1.51546E-19-4.63483E-18
 -1      1450 1.11055E-04-3.34605E-05-3.32498E-05-6.83230E-07 2.28302E-22-4.54020E-18
 -1      1451 1.10130E-04-3.34351E-05-3.28256E-05-4.56209E-07 3.66779E-19-3.04682E-18
 -1      1452 1.10363E-04-3.32114E-05-3.30663E-05-1.07460E-06-4.05537E-19-4.52302E-18
 -1      1453 1.09364E-04-3.28697E-05-3.27853E-05-1.13248E-06 1.29283E-19-4.76469E-18
 -1      1454 1.09074E-04-3.29532E-05-3.26002E-05-1.70788E-06-4.13928E-19-2.87216E-18
 -1      1455 1.08459E-04-3.25739E-05-3.25257E-05-1.29656E-06 5.59251E-19-4.60050E-18
 -1      1456 1.07256E-04-3.21803E-05-3.21801E-05-1.30776E-06 3.20810E-19-4.04896E-18
 -1      1457 1.07436E-04-3.23267E-05-3.21826E-05-2.35682E-06 5.49076E-19-2.04102E-18
 -1      1458 1.06288E-04-3.18796E-05-3.18926E-05-1.31511E-06 3.37050E-19-4.35199E-18
 -1      1459 1.05070E-04-3.14917E-05-3.15388E-05-1.29842E-06 4.60025E-19-4.25711E-18
 -1      1460 1.05556E-04-3.16705E-05-3.16679E-05-2.54895E-06 5.73292E-19-2.94065E-18
 -1      1461 1.04140E-04-3.12114E-05-3.12570E-05-1.21343E-06 2.61808E-19-3.32073E-18
 -1      1462 1.03019E-04-3.08611E-05-3.09291E-05-1.18293E-06 2.59073E-19-3.01795E-18
 -1      1463 1.03670E-04-3.10517E-05-3.11304E-05-2.44677E-06 5.99614E-19-2.20830E-18
 -1      1464 1.02182E-04-3.06139E-05-3.06727E-05-1.05364E-06-1.07975E-19-3.10900E-18
 -1      1465 1.01213E-04-3.03151E-05-3.03875E-05-1.01852E-06-5.76186E-19-3.45222E-18
 -1      1466 1.01925E-04-3.05037E-05-3.06198E-05-2.18418E-06 1.20082E-19-2.05298E-18
 -1      1467 1.00494E-04-3.01057E-05-3.01660E-05-8.76307E-07-7.74166E-19-3.39406E-18
 -1      1468 9.96912E-05-2.98609E-05-2.99288E-05-8.41920E-07-5.98317E-19-4.06113E-18
 -1      1469 1.00395E-04-3.00385E-05-3.01641E-05-1.85520E-06-9.56441E-19-1.99638E-18
 -1      1470 9.90963E-05-2.96890E-05-2.97447E-05-7.05086E-07-9.63070E-20-4.85503E-18
 -1      1471 9.84528E-05-2.94947E-05-2.95540E-05-6.74147E-07-1.17665E-19-5.15327E-18
 -1      1472 9.91074E-05-2.96559E-05-2.97753E-05-1.51851E-06-8.96293E-19-2.97875E-18
 -1      1473 9.79742E-05-2.93573E-05-2.94056E-05-5.51825E-07 3.52000E-19-4.76252E-18
 -1      1474 9.74729E-05-2.92071E-05-2.92567E-05-5.25376E-07 1.39851E-19-4.61913E-18
 -1      1475 9.80561E-05-2.93494E-05-2.94549E-05-1.20639E-06 5.01020E-19-3.97889E-18
 -1      1476 9.70979E-05-2.90999E-05-2.91402E-05-4.20792E-07-1.09982E-19-3.17476E-18
 -1      1477 9.67177E-05-2.89867E-05-2.90271E-05-3.98867E-07 7.03615E-19-2.83896E-18
 -1      1478 9.72207E-05-2.91091E-05-2.91985E-05-9.33354E-07 1.11862E-18-2.21298E-18
 -1      1479 9.64314E-05-2.89049E-05-2.89382E-05-3.11601E-07 1.34375E-18-2.93318E-18
 -1      1480 9.61519E-05-2.88222E-05-2.88550E-05-2.93630E-07 1.59525E-18-6.67818E-19
 -1      1481 9.65735E-05-2.89248E-05-2.89988E-05-7.02633E-07 1.79097E-18-1.39655E-18
 -1      1482 9.59402E-05-2.87616E-05-2.87894E-05-2.21171E-07 1.24366E-18-2.65172E-19
 -1      1483 9.57443E-05-2.87038E-05-2.87311E-05-2.06263E-07 7.68565E-19 5.92603E-19
 -1      1484 9.60856E-05-2.87866E-05-2.88478E-05-5.10647E-07 2.07803E-18-8.27892E-19
 -1      1485 9.55946E-05-2.86606E-05-2.86852E-05-1.44957E-07-3.41747E-19 1.22362E-19
 -1      1486 9.54698E-05-2.86239E-05-2.86480E-05-1.31941E-07-4.22722E-19-4.78502E-19
 -1      1487 9.57308E-05-2.86858E-05-2.87381E-05-3.50136E-07 1.93036E-19-1.13893E-18
 -1      1488 9.53719E-05-2.85953E-05-2.86185E-05-7.83901E-08 7.17051E-19 6.88876E-20
 -1      1489 9.53097E-05-2.85780E-05-2.85993E-05-6.61974E-08 4.92627E-19 1.05704E-18
 -1      1490 9.54867E-05-2.86159E-05-2.86627E-05-2.12416E-07-3.99032E-21-6.92525E-19
 -1      1491 9.52521E-05-2.85597E-05-2.85822E-05-1.97141E-08-6.86340E-20 1.57170E-18
 -1      1492 9.52452E-05-2.85640E-05-2.85757E-05-8.00338E-09 3.54399E-20 1.24134E-18
 -1      1493 9.53334E-05-2.85729E-05-2.86145E-05-9.33751E-08 6.45156E-19-6.11784E-19
 -1      1494 9.52257E-05-2.85749E-05-2.85596E-05 1.53774E-08-1.54236E-18 1.49693E-18
 -1      1495 9.52539E-05-2.85722E-05-2.85775E-05 3.79220E-10-8.24538E-19-7.10532E-20
 -1      1496 9.63785E-05-2.83044E-05-2.97118E-05 2.98248E-06 1.06551E-18 1.03407E-17
 -1      1497 1.02320E-04-2.93348E-05-3.20900E-05 4.44787E-06 9.13949E-19 1.19701E-17
 -1      1498 1.02148E-04-2.66700E-05-3.26497E-05 1.27484E-05 1.79740E-18 8.00679E-18
 -1      1499 9.18625E-05-2.73783E-05-2.77114E-05 1.13776E-06 7.56718E-19 8.41863E-18
 -1      1500 9.37950E-05-2.75297E-05-2.86207E-05 1.45983E-06 7.05102E-19 9.50689E-18
 -1      1501 9.63378E-05-2.79859E-05-2.94888E-05 4.83917E-06 1.54276E-18 6.50169E-18
 -1      1502 9.00688E-05-2.69643E-05-2.70248E-05 3.11715E-07 5.75804E-19 6.78942E-18
 -1      1503 9.06656E-05-2.69764E-05-2.72916E-05 4.75680E-07 5.84578E-19 7.72812E-18
 -1      1504 9.29301E-05-2.75435E-05-2.80660E-05 1.81701E-06 1.25226E-18 5.19439E-18
 -1      1505 8.96093E-05-2.68624E-05-2.68671E-05-8.63623E-08 3.73687E-19 5.67459E-18
 -1      1506 8.96188E-05-2.67914E-05-2.68865E-05 5.07741E-09 3.96666E-19 6.34515E-18
 -1      1507 9.14280E-05-2.72856E-05-2.74987E-05 4.66657E-07 9.14597E-19 4.00279E-18
 -1      1508 8.98302E-05-2.69402E-05-2.69364E-05-2.91483E-07 3.41033E-19 4.78924E-18
 -1      1509 8.95574E-05-2.68187E-05-2.68575E-05-2.37316E-07 2.42043E-19 5.21759E-18
 -1      1510 9.09717E-05-2.72249E-05-2.73265E-05-2.11104E-07 6.95404E-19 3.39435E-18
 -1      1511 9.04184E-05-2.71216E-05-2.71162E-05-4.00908E-07 7.99975E-20 4.31645E-18
 -1      1512 9.00025E-05-2.69724E-05-2.69934E-05-3.67172E-07 1.51736E-19 4.46497E-18
 -1      1513 9.11012E-05-2.72985E-05-2.73510E-05-5.72086E-07 3.41339E-19 2.78125E-18
 -1      1514 9.12145E-05-2.73623E-05-2.73573E-05-4.62492E-07 2.40647E-19 3.99678E-18
 -1      1515 9.07225E-05-2.71985E-05-2.72118E-05-4.39878E-07 1.14228E-19 4.12319E-18
 -1      1516 9.15699E-05-2.74559E-05-2.74842E-05-7.72803E-07 2.79137E-19 2.26413E-18
 -1      1517 9.21410E-05-2.76397E-05-2.76375E-05-5.04136E-07 2.17874E-19 3.19932E-18
 -1      1518 9.16025E-05-2.74667E-05-2.74777E-05-4.86557E-07 3.24072E-19 3.72917E-18
 -1      1519 9.22469E-05-2.76656E-05-2.76839E-05-8.95048E-07 4.77390E-19 2.02879E-18
 -1      1520 9.31703E-05-2.79460E-05-2.79491E-05-5.44414E-07 9.27431E-20 2.87958E-18
 -1      1521 9.25921E-05-2.77635E-05-2.77768E-05-5.27402E-07 5.25806E-20 3.01958E-18
 -1      1522 9.30677E-05-2.79117E-05-2.79301E-05-9.88177E-07 3.43028E-19 1.75255E-18
 -1      1523 9.43089E-05-2.82836E-05-2.82942E-05-5.96860E-07 3.50487E-19 2.61077E-18
 -1      1524 9.36816E-05-2.80869E-05-2.81066E-05-5.76842E-07 3.25180E-19 2.93925E-18
 -1      1525 9.40102E-05-2.81893E-05-2.82156E-05-1.08562E-06 3.86601E-19 1.39921E-18
 -1      1526 9.55882E-05-2.86620E-05-2.86820E-05-6.71861E-07 4.86435E-19 1.93032E-18
 -1      1527 9.48902E-05-2.84431E-05-2.84728E-05-6.45798E-07 3.41676E-19 2.34661E-18
 -1      1528 9.50815E-05-2.85017E-05-2.85420E-05-1.21182E-06 4.57461E-19 1.30694E-18
 -1      1529 9.70580E-05-2.90965E-05-2.91275E-05-7.77312E-07 3.80122E-19 1.31208E-18
 -1      1530 9.62583E-05-2.88448E-05-2.88877E-05-7.42568E-07 3.77504E-19 1.69038E-18
 -1      1531 9.63093E-05-2.88581E-05-2.89173E-05-1.38521E-06 6.89099E-19 7.37886E-19
 -1      1532 9.87808E-05-2.96065E-05-2.96493E-05-9.18274E-07 3.80627E-20 8.04013E-19
 -1      1533 9.78417E-05-2.93093E-05-2.93678E-05-8.72722E-07 1.32205E-19 1.10378E-18
 -1      1534 9.77360E-05-2.92721E-05-2.93538E-05-1.61876E-06 4.10854E-19 3.79568E-20
 -1      1535 1.00824E-04-3.02131E-05-3.02668E-05-1.09539E-06 8.09628E-20 7.97951E-19
 -1      1536 9.97052E-05-2.98573E-05-2.99322E-05-1.03786E-06 4.50764E-20 1.02072E-18
 -1      1537 9.94120E-05-2.97604E-05-2.98658E-05-1.91844E-06 8.78466E-20 4.86101E-20
 -1      1538 1.03246E-04-3.09359E-05-3.09968E-05-1.30149E-06-5.13704E-19 1.24497E-18
 -1      1539 1.01912E-04-3.05099E-05-3.05993E-05-1.23276E-06-2.65267E-19 7.53118E-19
 -1      1540 1.01386E-04-3.03403E-05-3.04665E-05-2.27887E-06-1.79884E-19 2.14862E-19
 -1      1541 1.06076E-04-3.17870E-05-3.18456E-05-1.51558E-06 2.88686E-21 1.40856E-18
 -1      1542 1.04510E-04-3.12853E-05-3.13814E-05-1.44029E-06-7.19234E-20 1.59094E-18
 -1      1543 1.03694E-04-3.10273E-05-3.11634E-05-2.67506E-06-3.76625E-19 5.24614E-19
 -1      1544 1.09276E-04-3.27606E-05-3.27978E-05-1.69348E-06 3.02023E-19 5.23678E-19
 -1      1545 1.07500E-04-3.21910E-05-3.22759E-05-1.62324E-06 1.69823E-19 1.06554E-18
 -1      1546 1.06331E-04-3.18291E-05-3.19504E-05-3.04880E-06 3.83449E-19 6.72759E-19
 -1      1547 1.12685E-04-3.38169E-05-3.37987E-05-1.75590E-06-4.16346E-19 5.19496E-19
 -1      1548 1.10797E-04-3.32123E-05-3.32514E-05-1.71362E-06 1.00990E-20 3.29324E-19
 -1      1549 1.09227E-04-3.27377E-05-3.27972E-05-3.28985E-06 2.50538E-19 2.13889E-19
 -1      1550 1.15948E-04-3.48581E-05-3.47337E-05-1.57938E-06-4.21449E-19 1.66288E-18
 -1      1551 1.14165E-04-3.42928E-05-3.42295E-05-1.60336E-06-6.72400E-19 8.43460E-19
 -1      1552 1.12193E-04-3.37150E-05-3.36356E-05-3.21681E-06-6.34808E-19 6.25494E-19
 -1      1553 1.18444E-04-3.57011E-05-3.54130E-05-1.00589E-06-7.07213E-19 2.72456E-18
 -1      1554 1.17147E-04-3.53065E-05-3.50657E-05-1.14865E-06-4.37751E-19 2.17357E-18
 -1      1555 1.14874E-04-3.46708E-05-3.43479E-05-2.57576E-06-9.82565E-19 1.14546E-18
 -1      1556 1.19292E-04-3.60646E-05-3.55831E-05 1.00322E-07 3.09637E-19 3.29661E-18
 -1      1557 1.19022E-04-3.60299E-05-3.55449E-05-2.11942E-07-1.33163E-19 3.12478E-18
 -1      1558 1.16714E-04-3.54349E-05-3.47690E-05-1.09465E-06-5.85723E-19 1.86732E-18
 -1      1559 1.17530E-04-3.56055E-05-3.49976E-05 1.71994E-06 5.84122E-19 1.90461E-18
 -1      1560 1.18864E-04-3.61365E-05-3.54146E-05 1.23088E-06 5.23135E-19 3.26776E-18
 -1      1561 1.17005E-04-3.57391E-05-3.47194E-05 1.35388E-06 7.34510E-19 2.07832E-18
 -1      1562 1.12595E-04-3.40614E-05-3.35642E-05 3.48203E-06 3.76241E-19 1.15684E-18
 -1      1563 1.15837E-04-3.52660E-05-3.44841E-05 2.91910E-06 3.49911E-19 1.89476E-18
 -1      1564 1.15083E-04-3.52460E-05-3.40849E-05 4.46276E-06 8.21754E-19 1.45069E-18
 -1      1565 1.05075E-04-3.15395E-05-3.15202E-05 4.55990E-06-6.29408E-19 2.16989E-18
 -1      1566 1.09787E-04-3.32431E-05-3.27855E-05 4.17175E-06-5.96576E-19 1.20527E-18
 -1      1567 1.10770E-04-3.37116E-05-3.29288E-05 7.18954E-06-2.42377E-19 1.70471E-18
 -1      1568 9.72310E-05-2.87967E-05-2.94849E-05 4.01230E-06-7.37051E-20 2.83491E-18
 -1      1569 1.01965E-04-3.04317E-05-3.07050E-05 4.08617E-06-3.56813E-20 2.68012E-18
 -1      1570 1.04953E-04-3.13196E-05-3.15568E-05 7.90450E-06-4.16727E-19 2.40041E-18
 -1      1571 9.23795E-05-2.70689E-05-2.82566E-05 1.60346E-06 1.24831E-19 3.06480E-18
 -1      1572 9.51311E-05-2.78790E-05-2.89450E-05 2.21667E-06-1.41203E-19 2.61421E-18
 -1      1573 9.97625E-05-2.89653E-05-3.04524E-05 5.41459E-06-7.08596E-20 1.76712E-18
 -1      1574 9.29557E-05-2.73043E-05-2.83760E-05-1.65238E-06 8.54034E-19 1.32743E-18
 -1      1575 9.23609E-05-2.68433E-05-2.82252E-05-7.79233E-07 7.21474E-19 2.21813E-18
 -1      1576 9.76598E-05-2.79079E-05-3.00579E-05 3.01952E-07 1.13476E-18 1.15339E-18
 -1      1577 9.86847E-05-2.93755E-05-2.97915E-05-4.05343E-06-3.98661E-19 4.63433E-19
 -1      1578 9.50380E-05-2.78856E-05-2.88690E-05-3.38038E-06-9.28692E-20 5.75135E-19
 -1      1579 9.97767E-05-2.88376E-05-3.05347E-05-4.96555E-06 8.08255E-20 1.94685E-20
 -1      1580 1.06770E-04-3.21790E-05-3.18896E-05-4.57188E-06 1.18247E-19 3.75765E-19
 -1      1581 1.01804E-04-3.03955E-05-3.05963E-05-4.36530E-06-1.28615E-19 3.84447E-19
 -1      1582 1.04984E-04-3.11972E-05-3.16812E-05-7.79504E-06-6.83119E-20-4.39557E-19
 -1      1583 1.13957E-04-3.45343E-05-3.38759E-05-3.46858E-06 6.24806E-19-6.75879E-19
 -1      1584 1.09606E-04-3.31372E-05-3.26934E-05-3.66596E-06 6.48874E-19 2.28222E-19
 -1      1585 1.10808E-04-3.36822E-05-3.30488E-05-7.39426E-06 7.40353E-19-7.76915E-19
 -1      1586 1.18305E-04-3.58423E-05-3.51847E-05-1.69691E-06-7.94722E-19-2.68457E-19
 -1      1587 1.15687E-04-3.51267E-05-3.44306E-05-2.06996E-06-4.30041E-19-1.01300E-18
 -1      1588 1.15129E-04-3.53098E-05-3.41726E-05-4.82798E-06 1.35340E-19 1.97200E-20
 -1      1589 1.19521E-04-3.61059E-05-3.56453E-05-8.20596E-08-2.33636E-19 1.32470E-18
 -1      1590 1.18772E-04-3.60186E-05-3.53943E-05-4.37048E-07-6.86560E-19 2.65360E-19
 -1      1591 1.17066E-04-3.58419E-05-3.47707E-05-1.72044E-06-1.21520E-18 3.65336E-19
 -1      1592 1.18313E-04-3.56261E-05-3.53895E-05 1.00742E-06 6.10754E-19 8.57303E-19
 -1      1593 1.18982E-04-3.59592E-05-3.55456E-05 7.57920E-07 3.53742E-19 1.50072E-18
 -1      1594 1.16798E-04-3.55324E-05-3.47974E-05 8.11384E-07 3.59718E-19-3.91495E-19
 -1      1595 1.15665E-04-3.47419E-05-3.46734E-05 1.55953E-06-5.77566E-19 1.41318E-18
 -1      1596 1.17154E-04-3.52843E-05-3.50800E-05 1.42234E-06-2.62282E-20 1.57061E-18
 -1      1597 1.14996E-04-3.47500E-05-3.43716E-05 2.38511E-06-3.25446E-19 6.64219E-19
 -1      1598 1.12415E-04-3.37129E-05-3.37431E-05 1.71546E-06 1.20552E-18-2.84815E-20
 -1      1599 1.14229E-04-3.43128E-05-3.42585E-05 1.66303E-06 4.29518E-19 1.05257E-18
 -1      1600 1.12375E-04-3.37847E-05-3.36712E-05 3.09326E-06 1.02653E-18 1.43886E-18
 -1      1601 1.09131E-04-3.27012E-05-3.27768E-05 1.63355E-06 4.79726E-19-2.10443E-18
 -1      1602 1.10944E-04-3.32703E-05-3.33028E-05 1.63373E-06 3.14633E-19-1.19921E-18
 -1      1603 1.09493E-04-3.28131E-05-3.28584E-05 3.19884E-06 1.14631E-18 2.30684E-20
 -1      1604 1.06128E-04-3.17917E-05-3.18800E-05 1.43540E-06-3.33106E-20-1.14570E-18
 -1      1605 1.07766E-04-3.22885E-05-3.23612E-05 1.46313E-06-7.63521E-20-9.86145E-19
 -1      1606 1.06708E-04-3.19264E-05-3.20486E-05 2.95814E-06-4.89029E-20 3.11549E-19
 -1      1607 1.03546E-04-3.10181E-05-3.11024E-05 1.19850E-06 1.03378E-19-1.76857E-18
 -1      1608 1.04938E-04-3.14299E-05-3.15144E-05 1.23747E-06 4.71328E-19-1.03374E-18
 -1      1609 1.04215E-04-3.11618E-05-3.13095E-05 2.55873E-06 3.36135E-19 5.09940E-19
 -1      1610 1.01417E-04-3.03846E-05-3.04577E-05 9.65831E-07-7.62222E-20-2.11595E-18
 -1      1611 1.02552E-04-3.07141E-05-3.07953E-05 1.00669E-06-8.14627E-19-2.86407E-18
 -1      1612 1.02090E-04-3.05269E-05-3.06719E-05 2.11719E-06-1.55940E-19-7.01151E-19
 -1      1613 9.97139E-05-2.98803E-05-2.99404E-05 7.57855E-07-6.83599E-19-4.81422E-19
 -1      1614 1.00612E-04-3.01371E-05-3.02085E-05 7.95826E-07-1.72540E-19-1.06504E-18
 -1      1615 1.00343E-04-3.00142E-05-3.01433E-05 1.69682E-06-4.56322E-19 1.10500E-18
 -1      1616 9.83839E-05-2.94878E-05-2.95356E-05 5.81787E-07 7.76079E-19 2.93629E-19
 -1      1617 9.90778E-05-2.96837E-05-2.97433E-05 6.14858E-07-3.52420E-20 2.13459E-19
 -1      1618 9.89456E-05-2.96092E-05-2.97180E-05 1.32657E-06-3.16066E-19 1.20356E-18
 -1      1619 9.73668E-05-2.91884E-05-2.92256E-05 4.37699E-07-3.06421E-20-5.83783E-19
 -1      1620 9.78919E-05-2.93349E-05-2.93831E-05 4.65420E-07 4.10551E-19 6.27714E-19
 -1      1621 9.78522E-05-2.92952E-05-2.93838E-05 1.01535E-06 2.50570E-19 1.98425E-18
 -1      1622 9.66050E-05-2.89645E-05-2.89933E-05 3.22057E-07-3.32197E-19-6.42661E-20
 -1      1623 9.69940E-05-2.90717E-05-2.91101E-05 3.44849E-07-1.02438E-19-5.37833E-20
 -1      1624 9.70142E-05-2.90563E-05-2.91269E-05 7.61195E-07-5.09737E-19 3.14598E-18
 -1      1625 9.60491E-05-2.88013E-05-2.88238E-05 2.29656E-07 3.12841E-19-5.54027E-19
 -1      1626 9.63293E-05-2.88773E-05-2.89080E-05 2.48416E-07 2.48512E-19-9.80034E-19
 -1      1627 9.63858E-05-2.88778E-05-2.89340E-05 5.56664E-07 7.67183E-19 1.57329E-18
 -1      1628 9.56595E-05-2.86867E-05-2.87053E-05 1.54813E-07-9.97398E-20 2.37610E-19
 -1      1629 9.58521E-05-2.87378E-05-2.87631E-05 1.70685E-07 2.23839E-20 5.13026E-20
 -1      1630 9.59275E-05-2.87478E-05-2.87933E-05 3.91934E-07-1.49352E-19 8.84288E-19
 -1      1631 9.54070E-05-2.86121E-05-2.86289E-05 9.16443E-08 5.88572E-19 2.71980E-19
 -1      1632 9.55267E-05-2.86422E-05-2.86647E-05 1.06091E-07-1.09587E-19 4.57430E-19
 -1      1633 9.56072E-05-2.86566E-05-2.86953E-05 2.56556E-07-1.62074E-19 1.37461E-18
 -1      1634 9.52711E-05-2.85724E-05-2.85870E-05 3.51998E-08 4.75726E-19-1.52337E-18
 -1      1635 9.53272E-05-2.85833E-05-2.86046E-05 4.99632E-08 1.00055E-18 1.08154E-21
 -1      1636 9.53996E-05-2.85968E-05-2.86321E-05 1.41049E-07 1.34356E-18 2.56353E-18
 -1      1637 9.52317E-05-2.85657E-05-2.85685E-05-8.65755E-09 6.43258E-19-2.02969E-18
 -1      1638 9.52339E-05-2.85593E-05-2.85740E-05 3.60687E-09 3.08542E-19-2.19516E-18
 -1      1639 9.52841E-05-2.85674E-05-2.85945E-05 4.16109E-08 1.16782E-18 2.94932E-18
 -1      1640 9.52278E-05-2.85765E-05-2.85597E-05-1.37650E-08-1.11283E-18-1.54576E-18
 -1      1641 9.52468E-05-2.85550E-05-2.85836E-05 2.30773E-08 4.01879E-18 4.64483E-18
 -1      1642 9.52470E-05-2.85660E-05-2.85759E-05 1.18892E-08-2.20880E-19 3.07990E-18
 -1      1643 9.52118E-05-2.84423E-05-2.86171E-05 7.71471E-08 7.81154E-18 2.62256E-18
 -1      1644 9.52314E-05-2.85029E-05-2.85990E-05 6.62418E-08 4.47937E-18 3.03895E-18
 -1      1645 9.52378E-05-2.84790E-05-2.86130E-05 9.29468E-08 2.90135E-18 4.86218E-18
 -1      1646 9.51515E-05-2.82612E-05-2.86683E-05 1.18455E-07 1.05039E-17 5.55754E-19
 -1      1647 9.51853E-05-2.83625E-05-2.86394E-05 1.11573E-07 8.54449E-18 2.95923E-18
 -1      1648 9.51903E-05-2.83439E-05-2.86511E-05 1.86552E-07 5.01040E-18 3.82045E-18
 -1      1649 9.50789E-05-2.80432E-05-2.87300E-05 1.35789E-07 9.05911E-18-1.97918E-18
 -1      1650 9.51191E-05-2.81641E-05-2.86956E-05 1.34339E-07 1.10226E-17-9.21520E-19
 -1      1651 9.51252E-05-2.81635E-05-2.86990E-05 2.46716E-07 3.88659E-18 1.28844E-21
 -1      1652 9.50089E-05-2.78313E-05-2.87904E-05 1.27583E-07 4.08475E-18-3.05590E-18
 -1      1653 9.50468E-05-2.79460E-05-2.87577E-05 1.31116E-07 8.61506E-18-3.91081E-18
 -1      1654 9.50537E-05-2.79663E-05-2.87512E-05 2.59273E-07 3.71469E-18-5.39573E-18
 -1      1655 9.49511E-05-2.76557E-05-2.88408E-05 9.65506E-08 2.87970E-18-5.92083E-19
 -1      1656 9.49812E-05-2.77467E-05-2.88148E-05 1.04286E-07 4.04030E-18-1.37376E-18
 -1      1657 9.49879E-05-2.77827E-05-2.88002E-05 2.24885E-07 2.40687E-18-3.54859E-18
 -1      1658 9.49166E-05-2.75501E-05-2.88712E-05 4.90385E-08 1.80578E-18-7.31157E-19
 -1      1659 9.49329E-05-2.75993E-05-2.88571E-05 5.93895E-08 2.35071E-18 1.67958E-19
 -1      1660 9.49373E-05-2.76407E-05-2.88382E-05 1.51114E-07 1.48249E-18-1.11603E-18
 -1      1661 9.49107E-05-2.75315E-05-2.88766E-05-6.48205E-09-7.16447E-19-1.05460E-18
 -1      1662 9.49104E-05-2.75309E-05-2.88768E-05 4.71481E-09 9.56384E-19-1.66489E-18
 -1      1663 9.49104E-05-2.75648E-05-2.88587E-05 5.20361E-08 3.29450E-19-2.54694E-18
 -1      1664 9.49341E-05-2.76028E-05-2.88561E-05-6.07173E-08-1.05772E-18-6.83643E-19
 -1      1665 9.49175E-05-2.75524E-05-2.88706E-05-5.05198E-08-1.37923E-18 1.87116E-18
 -1      1666 9.49111E-05-2.75665E-05-2.88583E-05-5.53151E-08-5.41785E-19-8.90218E-19
 -1      1667 9.49829E-05-2.77515E-05-2.88134E-05-1.04628E-07-9.19000E-19-3.91329E-19
 -1      1668 9.49528E-05-2.76603E-05-2.88396E-05-9.71605E-08 3.27038E-19-2.56526E-18
 -1      1669 9.49391E-05-2.76455E-05-2.88370E-05-1.53126E-07-6.94780E-19-4.14220E-19
 -1      1670 9.50478E-05-2.79488E-05-2.87569E-05-1.30246E-07-3.51188E-18-6.47285E-19
 -1      1671 9.50101E-05-2.78348E-05-2.87895E-05-1.26898E-07-1.36447E-18-2.09556E-18
 -1      1672 9.49898E-05-2.77876E-05-2.87989E-05-2.24566E-07-8.64167E-19-2.46577E-18
 -1      1673 9.51200E-05-2.81670E-05-2.86947E-05-1.33019E-07-4.76499E-18-1.21998E-18
 -1      1674 9.50802E-05-2.80473E-05-2.87288E-05-1.34558E-07-4.13825E-18-5.72080E-19
 -1      1675 9.50553E-05-2.79709E-05-2.87499E-05-2.57396E-07-3.48333E-19-1.68726E-18
 -1      1676 9.51852E-05-2.83636E-05-2.86390E-05-1.10327E-07-2.26010E-18 8.43276E-19
 -1      1677 9.51520E-05-2.82632E-05-2.86676E-05-1.16998E-07-4.53939E-18 1.11883E-18
 -1      1678 9.51266E-05-2.81683E-05-2.86975E-05-2.44132E-07-1.43779E-18 4.56701E-19
 -1      1679 9.52324E-05-2.85020E-05-2.85992E-05-6.69048E-08-5.99844E-19 3.56768E-19
 -1      1680 9.52105E-05-2.84412E-05-2.86171E-05-7.79962E-08-1.64896E-18 1.43830E-18
 -1      1681 9.51894E-05-2.83451E-05-2.86501E-05-1.84384E-07-6.27157E-19 2.10309E-18
 -1      1682 9.52506E-05-2.85501E-05-2.85842E-05-2.95792E-08-1.56469E-18-1.99309E-18
 -1      1683 9.52480E-05-2.85345E-05-2.85930E-05-4.51249E-08-3.56248E-19-1.01241E-18
 -1      1684 9.52438E-05-2.84582E-05-2.86227E-05-1.20749E-07-4.44492E-19 6.10966E-19
 -1      1685 9.52772E-05-2.85246E-05-2.86066E-05-6.87649E-08-5.44413E-19-1.86619E-18
 -1      1686 1.92108E-05-6.07071E-05 1.25806E-05-4.18499E-06 6.07323E-18 2.25480E-18
 -1      1687 2.22869E-05-7.05970E-05 1.49256E-05 2.43093E-06 3.89116E-18 1.20194E-18
 -1      1688 1.89725E-05-3.67633E-05 3.29540E-06 2.10995E-06 9.08443E-18 5.02523E-18
 -1      1689 2.36132E-05-5.92065E-05 9.28199E-06-1.42245E-06 8.13999E-18 3.19050E-18
 -1      1690 3.67378E-05-1.12795E-05-1.28170E-05 2.94597E-05 9.44865E-18 6.77203E-18
 -1      1691 2.99217E-05-3.12894E-05-3.97093E-06 1.10467E-05 9.56131E-18 5.27829E-18
 -1      1692 7.70153E-05-1.80904E-06-3.13968E-05 6.01389E-05 8.94806E-18 1.15484E-17
 -1      1693 5.22725E-05-6.92768E-06-2.17205E-05 3.77329E-05 8.93704E-18 8.79898E-18
 -1      1694 1.41567E-04-1.67011E-05-4.99694E-05 7.76853E-05 7.39079E-18 9.75104E-18
 -1      1695 1.00140E-04-4.38790E-06-4.05972E-05 6.50475E-05 8.94636E-18 1.05430E-17
 -1      1696 2.09763E-04-4.45268E-05-6.53613E-05 6.44388E-05 4.38318E-18 6.06137E-18
 -1      1697 1.65810E-04-2.27672E-05-5.80398E-05 7.48192E-05 7.07230E-18 9.34447E-18
 -1      1698 2.44792E-04-5.99499E-05-7.32920E-05 1.76791E-05 2.53136E-18 5.25160E-19
 -1      1699 2.21509E-04-4.72279E-05-6.97899E-05 4.74912E-05 3.73965E-18 4.70357E-18
 -1      1700 2.44776E-04-5.87426E-05-7.36754E-05-3.17179E-05 2.92226E-18-4.97759E-18
 -1      1701 2.54037E-04-6.40932E-05-7.50197E-05 4.28361E-06 2.26264E-18-1.11806E-18
 -1      1702 1.92147E-04-3.44016E-05-6.35765E-05-6.41535E-05 5.35484E-18-9.41054E-18
 -1      1703 2.30684E-04-5.41977E-05-6.97305E-05-4.38457E-05 3.79704E-18-6.70342E-18
 -1      1704 1.26975E-04-1.00698E-05-4.83917E-05-7.25713E-05 6.84826E-18-1.07082E-17
 -1      1705 1.70884E-04-2.79807E-05-5.68764E-05-7.60989E-05 5.37273E-18-1.11038E-17
 -1      1706 6.72865E-05-2.88012E-06-2.89030E-05-4.88411E-05 7.53944E-18-8.00446E-18
 -1      1707 1.01780E-04-5.40564E-06-3.93138E-05-7.04229E-05 7.03122E-18-9.80017E-18
 -1      1708 3.49784E-05-2.25149E-05-9.26914E-06-1.82310E-05 6.92195E-18-4.95303E-18
 -1      1709 4.81045E-05-5.80203E-06-1.91036E-05-4.05447E-05 7.04647E-18-6.58653E-18
 -1      1710 2.39926E-05-5.07348E-05 5.68094E-06 2.20459E-07 3.59820E-18-3.02899E-18
 -1      1711 2.16542E-05-2.76547E-05-1.14950E-06-8.69739E-06 6.28668E-18-4.76837E-18
 -1      1712 2.38722E-05-7.20126E-05 1.41919E-05 7.72337E-07-4.91703E-19-1.73726E-18
 -1      1713 1.90639E-05-5.62726E-05 1.05584E-05 4.84324E-06 2.46487E-18-2.16946E-18
 -1      1714 2.18012E-05-7.32521E-05 1.57499E-05-5.06574E-06-8.19801E-18-4.28472E-18
 -1      1715 2.25360E-05-7.50463E-05 1.60011E-05 5.04263E-06-2.23363E-18-3.04868E-18
 -1      1716 1.92470E-05-4.82235E-05 8.01113E-06 1.01871E-06-1.27936E-17-5.43800E-18
 -1      1717 2.36857E-05-6.63931E-05 1.26440E-05 2.28476E-06-9.40630E-18-4.53628E-18
 -1      1718 2.41591E-05-2.04504E-05-4.52975E-06 1.51049E-05-1.42556E-17-8.26958E-18
 -1      1719 2.47421E-05-4.33654E-05 2.83843E-06 3.91035E-06-1.47824E-17-6.02876E-18
 -1      1720 5.55910E-05-3.03630E-06-2.28204E-05 4.74137E-05-1.26784E-17-1.18652E-17
 -1      1721 3.87604E-05-1.65439E-05-1.28946E-05 2.42831E-05-1.40582E-17-9.67058E-18
 -1      1722 1.13293E-04-8.53148E-06-4.23988E-05 7.28381E-05-1.00636E-17-1.20211E-17
 -1      1723 7.70972E-05-2.98497E-06-3.24474E-05 5.41798E-05-1.22235E-17-1.17627E-17
 -1      1724 1.79110E-04-3.09610E-05-5.88661E-05 7.44455E-05-6.27673E-18-1.03982E-17
 -1      1725 1.36137E-04-1.21819E-05-5.10225E-05 7.45544E-05-8.67955E-18-1.21041E-17
 -1      1726 2.32337E-04-5.52482E-05-7.03289E-05 3.73057E-05-3.67909E-18-4.22500E-18
 -1      1727 1.97784E-04-3.67435E-05-6.49046E-05 6.16808E-05-5.54118E-18-8.09086E-18
 -1      1728 2.42197E-04-5.82632E-05-7.33475E-05-1.36265E-05-2.03097E-18 8.21198E-19
 -1      1729 2.38742E-04-5.63085E-05-7.28781E-05 2.21341E-05-2.42167E-18-2.43395E-18
 -1      1730 2.13389E-04-4.37648E-05-6.79310E-05-5.62016E-05-3.91515E-18 5.35664E-18
 -1      1731 2.40338E-04-5.87988E-05-7.19915E-05-2.88213E-05-2.19022E-18 2.71982E-18
 -1      1732 1.53727E-04-1.79313E-05-5.53205E-05-7.55914E-05-6.48065E-18 8.74477E-18
 -1      1733 1.97351E-04-3.86648E-05-6.27725E-05-6.95024E-05-4.43972E-18 6.62549E-18
 -1      1734 9.32980E-05-5.25603E-06-3.76412E-05-5.99413E-05-8.73884E-18 9.45966E-18
 -1      1735 1.31440E-04-1.49441E-05-4.69757E-05-7.38892E-05-6.83556E-18 9.26146E-18
 -1      1736 4.54538E-05-8.23474E-06-1.85985E-05-3.31486E-05-8.86420E-18 8.58637E-18
 -1      1737 6.77152E-05-5.88553E-07-2.84297E-05-5.62712E-05-9.59434E-18 1.05642E-17
 -1      1738 2.68148E-05-3.35444E-05-1.86429E-06-8.38629E-06-5.92415E-18 4.61802E-18
 -1      1739 3.04938E-05-1.26162E-05-9.96340E-06-2.42365E-05-8.24417E-18 8.13872E-18
 -1      1740 2.39286E-05-6.16323E-05 1.01421E-05 4.47459E-07-9.82558E-20 3.29909E-18
 -1      1741 1.93017E-05-4.02769E-05 4.58353E-06-2.17114E-06-4.47572E-18 4.37863E-18
 -1      1742 2.32637E-05-7.54219E-05 1.58792E-05-2.68978E-06 3.73372E-18 9.24960E-19
 -1      1743 2.03859E-05-6.68981E-05 1.39230E-05 6.10188E-06 1.04524E-18 6.77203E-19
 -1      1744 1.15544E-04-3.04742E-05-3.55146E-05 4.58305E-05 5.54510E-18 6.81692E-18
 -1      1745 7.41382E-05-3.45061E-05-1.82179E-05 3.92091E-05 5.84876E-18 6.31632E-18
 -1      1746 9.52471E-05-2.85797E-05-2.85702E-05-1.23441E-08-1.34354E-18 6.24055E-19
 -1      1747 9.52528E-05-2.85428E-05-2.85893E-05 1.91515E-08 1.93613E-18 4.40683E-18
 -1      1748 1.89680E-05-4.48906E-05 7.23270E-06 1.46965E-05 3.20517E-18 3.46924E-18
 -1      1749 4.07490E-05-4.09694E-05-2.92069E-06 2.76815E-05 5.94532E-18 4.64809E-18
 -1      1750 1.12230E-05-4.68318E-05 1.11574E-05 1.20634E-06 1.41010E-18 1.85839E-18
 -1      1751 1.60265E-04-3.15055E-05-5.19987E-05 4.32604E-05 5.39412E-18 4.27582E-18
 -1      1752 1.91275E-04-3.17500E-05-6.39466E-05 2.53789E-05 5.49682E-18 3.32672E-18
 -1      1753 2.05438E-04-3.17064E-05-6.96202E-05 2.88155E-06 4.59346E-18 9.07596E-19
 -1      1754 2.01628E-04-3.25702E-05-6.75285E-05-1.50393E-05 4.86620E-18-2.06253E-18
 -1      1755 1.75485E-04-3.21525E-05-5.76195E-05-3.46676E-05 3.91615E-18-5.10083E-18
 -1      1756 1.33757E-04-3.00674E-05-4.25094E-05-4.64734E-05 3.84849E-18-6.73561E-18
 -1      1757 8.85430E-05-3.27234E-05-2.44405E-05-4.23113E-05 3.71678E-18-5.18215E-18
 -1      1758 5.02999E-05-3.87344E-05-7.47536E-06-3.17949E-05 2.44115E-18-4.21357E-18
 -1      1759 2.46727E-05-4.53929E-05 4.94653E-06-1.83908E-05 6.14946E-19-3.83092E-18
 -1      1760 1.31448E-05-5.01748E-05 1.12867E-05-5.43472E-06-2.45195E-18-4.59812E-18
 -1      1761 1.39877E-05-4.64177E-05 9.99222E-06 1.06209E-05-4.66376E-18-6.74154E-18
 -1      1762 2.90883E-05-4.25516E-05 2.33194E-06 2.37511E-05-7.45050E-18-4.88717E-18
 -1      1763 5.66151E-05-3.65325E-05-1.06558E-05 3.53278E-05-8.63889E-18-6.32945E-18
 -1      1764 9.70281E-05-3.20997E-05-2.77311E-05 4.40162E-05-8.40299E-18-7.42763E-18
 -1      1765 1.40336E-04-2.99390E-05-4.50405E-05 4.52736E-05-7.87359E-18-7.38105E-18
 -1      1766 1.78153E-04-3.07718E-05-5.91193E-05 3.37501E-05-6.71464E-18-5.41085E-18
 -1      1767 1.96024E-04-2.86603E-05-6.71413E-05 1.17144E-05-5.14149E-18-2.61945E-18
 -1      1768 1.99834E-04-2.95910E-05-6.82628E-05-8.71161E-06-3.90059E-18-3.65918E-19
 -1      1769 1.86738E-04-3.15379E-05-6.21583E-05-3.11097E-05-4.67213E-18 1.97782E-18
 -1      1770 1.51743E-04-3.11325E-05-4.91639E-05-4.24105E-05-4.87298E-18 3.83452E-18
 -1      1771 1.08900E-04-3.07671E-05-3.27007E-05-4.49951E-05-4.30039E-18 4.80606E-18
 -1      1772 6.59282E-05-3.29676E-05-1.55902E-05-3.82449E-05-2.80876E-18 6.48785E-18
 -1      1773 3.62680E-05-4.08522E-05-1.18879E-06-2.63651E-05-1.22904E-18 5.05094E-18
 -1      1774 1.80527E-05-4.76699E-05 8.47521E-06-1.38197E-05 3.71000E-19 3.94484E-18
 -1      1775 1.05859E-04-2.31257E-05-3.55416E-05-1.68140E-05-1.60443E-18 6.64540E-18
 -1      1776 8.91388E-05-1.05558E-05-3.38018E-05-1.32671E-05-1.93725E-18-2.16713E-18
 -1      1777 9.04432E-05-1.16238E-05-3.39309E-05-1.50422E-05-2.26436E-18-1.46169E-18
 -1      1778 9.24503E-05-1.38679E-05-3.38377E-05-1.59383E-05-2.33801E-18-5.14520E-19
 -1      1779 9.41290E-05-1.58124E-05-3.40677E-05-1.76014E-05-2.53719E-18 6.88320E-19
 -1      1780 9.34172E-05-1.63542E-05-3.30371E-05-1.36751E-05-2.40848E-18-8.19107E-19
 -1      1781 8.62654E-05-7.64456E-06-3.37662E-05-7.79413E-06-1.03269E-18-3.36404E-18
 -1      1782 8.66605E-05-7.94782E-06-3.37943E-05-9.17900E-06-1.26504E-18-3.21873E-18
 -1      1783 8.56533E-05-6.99218E-06-3.37715E-05-5.26539E-06-5.06222E-19-3.44396E-18
 -1      1784 8.58854E-05-7.17588E-06-3.37830E-05-6.56191E-06-7.87236E-19-3.44883E-18
 -1      1785 8.76397E-05-9.81521E-06-3.33856E-05-6.85157E-06-9.62875E-19-3.23144E-18
 -1      1786 8.53185E-05-6.62163E-06-3.37796E-05-2.85577E-06-5.26467E-20-3.43022E-18
 -1      1787 8.54389E-05-6.71985E-06-3.37835E-05-4.08448E-06-2.67342E-19-3.46357E-18
 -1      1788 8.70043E-05-9.08428E-06-3.34262E-05-4.47991E-06-3.98222E-19-3.27827E-18
 -1      1789 8.51870E-05-6.46756E-06-3.37851E-05-5.10894E-07 4.10629E-19-3.33861E-18
 -1      1790 8.52226E-05-6.49732E-06-3.37859E-05-1.70790E-06 2.10416E-19-3.42283E-18
 -1      1791 8.66699E-05-8.69218E-06-3.34506E-05-2.18690E-06 8.85993E-20-3.24055E-18
 -1      1792 8.52328E-05-6.50654E-06-3.37862E-05 1.82421E-06 8.39174E-19-3.23601E-18
 -1      1793 8.51908E-05-6.47223E-06-3.37851E-05 6.26190E-07 6.35533E-19-3.29844E-18
 -1      1794 8.65706E-05-8.57403E-06-3.34586E-05 6.43728E-08 5.11598E-19-3.20526E-18
 -1      1795 8.54652E-05-6.74547E-06-3.37838E-05 4.20535E-06 1.21758E-18-3.03960E-18
 -1      1796 8.53371E-05-6.64104E-06-3.37797E-05 2.97346E-06 1.04550E-18-3.18225E-18
 -1      1797 8.66882E-05-8.71221E-06-3.34499E-05 2.31686E-06 9.60071E-19-3.07836E-18
 -1      1798 8.59212E-05-7.21247E-06-3.37828E-05 6.64824E-06 1.57549E-18-2.71659E-18
 -1      1799 8.56849E-05-7.02513E-06-3.37715E-05 5.36884E-06 1.40007E-18-2.91060E-18
 -1      1800 8.70399E-05-9.12293E-06-3.34248E-05 4.59320E-06 1.38232E-18-2.86215E-18
 -1      1801 8.67261E-05-8.01811E-06-3.37931E-05 9.29954E-06 2.12857E-18-2.03857E-18
 -1      1802 8.63117E-05-7.69622E-06-3.37650E-05 7.88299E-06 1.82679E-18-2.42762E-18
 -1      1803 8.76931E-05-9.87489E-06-3.33828E-05 6.94943E-06 1.82548E-18-2.39565E-18
 -1      1804 8.81163E-05-9.37891E-06-3.38332E-05 1.21768E-05 2.53440E-18-1.10514E-18
 -1      1805 8.73903E-05-8.81739E-06-3.37694E-05 1.05846E-05 2.29350E-18-1.63774E-18
 -1      1806 8.88066E-05-1.11301E-05-3.33204E-05 9.41476E-06 2.36071E-18-1.67166E-18
 -1      1807 9.06176E-05-1.18363E-05-3.39227E-05 1.52308E-05 2.78696E-18 4.00541E-19
 -1      1808 8.92621E-05-1.07369E-05-3.37940E-05 1.34392E-05 2.58002E-18-4.98135E-19
 -1      1809 9.06798E-05-1.32076E-05-3.32209E-05 1.18883E-05 2.73959E-18-6.43494E-19
 -1      1810 9.57909E-05-1.70192E-05-3.39626E-05 1.76298E-05 2.65598E-18 3.12598E-18
 -1      1811 9.28109E-05-1.43357E-05-3.38100E-05 1.61296E-05 2.67820E-18 1.52138E-18
 -1      1812 9.39397E-05-1.68747E-05-3.30166E-05 1.38190E-05 2.81723E-18 9.95740E-19
 -1      1813 1.01774E-04-2.50546E-05-3.33106E-05 1.43786E-05 2.15760E-18 6.29769E-18
 -1      1814 9.79637E-05-1.95935E-05-3.35868E-05 1.69112E-05 2.42193E-18 4.22294E-18
 -1      1815 9.72435E-05-2.18314E-05-3.24002E-05 1.31889E-05 2.65479E-18 3.09432E-18
 -1      1816 9.86138E-05-2.60962E-05-3.12993E-05 9.39501E-06 2.21970E-18 5.62824E-18
 -1      1817 1.00020E-04-1.95374E-05-3.41714E-05-1.88186E-05-2.22582E-18 2.81946E-18
 -1      1818 9.52028E-05-2.72497E-05-2.91538E-05 4.02262E-06 1.70373E-18 4.43513E-18
 -1      1819 9.76166E-05-2.73518E-05-3.01572E-05 6.35843E-06 1.85098E-18 5.13031E-18
 -1      1820 9.74775E-05-2.55847E-05-3.08035E-05 8.70647E-06 2.21658E-18 3.64655E-18
 -1      1821 9.97054E-05-2.25147E-05-3.28008E-05-1.44141E-05-2.40367E-18 2.00763E-18
 -1      1822 9.68699E-05-2.69458E-05-2.98523E-05-5.64640E-06-1.96935E-18 1.74035E-18
 -1      1823 9.50834E-05-2.70044E-05-2.91484E-05-3.83332E-06-1.71214E-18 1.24716E-18
 -1      1824 9.42833E-05-2.72075E-05-2.86497E-05-2.34281E-06-1.48466E-18 1.23242E-18
 -1      1825 9.35399E-05-2.72919E-05-2.83538E-05-1.47578E-06-1.21822E-18 7.90745E-19
 -1      1826 9.54765E-05-2.65191E-05-2.95748E-05-4.37620E-06-1.85139E-18 3.95647E-19
 -1      1827 9.30432E-05-2.73466E-05-2.80965E-05-6.25149E-07-9.15557E-19 7.24177E-19
 -1      1828 9.27826E-05-2.74168E-05-2.79873E-05-1.64877E-07-8.38735E-19 3.46666E-19
 -1      1829 9.43143E-05-2.71950E-05-2.87869E-05-1.68927E-06-1.37120E-18 2.70015E-19
 -1      1830 9.25478E-05-2.74509E-05-2.78672E-05 3.25774E-07-8.27268E-19 1.96627E-19
 -1      1831 9.25751E-05-2.75380E-05-2.78558E-05 5.81760E-07-7.70605E-19 6.40651E-20
 -1      1832 9.36818E-05-2.75059E-05-2.83788E-05-1.54762E-07-1.01990E-18-6.73126E-20
 -1      1833 9.25297E-05-2.75795E-05-2.78196E-05 8.71688E-07-9.05111E-19 7.05949E-20
 -1      1834 9.27284E-05-2.76816E-05-2.78650E-05 1.02007E-06-6.74011E-19-1.50215E-19
 -1      1835 9.34576E-05-2.76996E-05-2.81959E-05 7.44950E-07-9.72014E-19-2.05362E-19
 -1      1836 9.28144E-05-2.77347E-05-2.78831E-05 1.19963E-06-6.10775E-19-3.16753E-19
 -1      1837 9.31202E-05-2.78470E-05-2.79644E-05 1.29327E-06-5.83176E-19-5.03339E-19
 -1      1838 9.35295E-05-2.78582E-05-2.81554E-05 1.29039E-06-9.10198E-19-4.11277E-19
 -1      1839 9.32989E-05-2.79103E-05-2.80197E-05 1.41744E-06-5.00385E-19-5.54826E-19
 -1      1840 9.36785E-05-2.80303E-05-2.81260E-05 1.48874E-06-3.33405E-19-4.83478E-19
 -1      1841 9.38106E-05-2.80070E-05-2.82096E-05 1.64518E-06-6.04667E-19-7.18063E-19
 -1      1842 9.39271E-05-2.81027E-05-2.82085E-05 1.59331E-06-3.17028E-19-5.35318E-19
 -1      1843 9.43667E-05-2.82310E-05-2.83349E-05 1.66368E-06-2.89516E-19-6.12951E-19
 -1      1844 9.42449E-05-2.81551E-05-2.83307E-05 1.91202E-06-3.76652E-19-7.44853E-19
 -1      1845 9.46744E-05-2.83129E-05-2.84396E-05 1.77273E-06-3.93264E-19-7.03120E-19
 -1      1846 9.51732E-05-2.84525E-05-2.85850E-05 1.85656E-06-3.83018E-19-9.19120E-19
 -1      1847 9.48022E-05-2.83088E-05-2.85029E-05 2.15881E-06-5.33374E-19-7.34131E-19
 -1      1848 9.55375E-05-2.85462E-05-2.87097E-05 1.98588E-06-4.56414E-19-1.18262E-18
 -1      1849 9.61029E-05-2.87024E-05-2.88754E-05 2.09199E-06-2.90175E-19-1.48306E-18
 -1      1850 9.54712E-05-2.84755E-05-2.87180E-05 2.43087E-06-5.73761E-19-9.84858E-19
 -1      1851 9.65272E-05-2.88121E-05-2.90198E-05 2.25006E-06-1.88520E-19-1.61307E-18
 -1      1852 9.71709E-05-2.89918E-05-2.92083E-05 2.38161E-06-1.73824E-19-1.62295E-18
 -1      1853 9.62547E-05-2.86658E-05-2.89724E-05 2.75589E-06-3.73496E-19-1.26244E-18
 -1      1854 9.76617E-05-2.91233E-05-2.93724E-05 2.56886E-06 1.33772E-20-1.57229E-18
 -1      1855 9.83955E-05-2.93350E-05-2.95859E-05 2.72193E-06 4.29795E-20-1.32729E-18
 -1      1856 9.71645E-05-2.88943E-05-2.92648E-05 3.14432E-06-3.16401E-20-7.49820E-19
 -1      1857 9.89606E-05-2.94962E-05-2.97691E-05 2.92844E-06-1.98484E-19-1.14151E-18
 -1      1858 9.97913E-05-2.97486E-05-3.00080E-05 3.08931E-06-5.26668E-19-9.95744E-19
 -1      1859 9.82171E-05-2.91808E-05-2.95935E-05 3.58620E-06-6.39828E-20-5.77382E-19
 -1      1860 1.00437E-04-2.99496E-05-3.02078E-05 3.29087E-06-9.34597E-19-1.12309E-18
 -1      1861 1.01360E-04-3.02508E-05-3.04685E-05 3.43190E-06-9.45484E-19-1.20960E-18
 -1      1862 9.94293E-05-2.95515E-05-2.99543E-05 4.04449E-06-7.88314E-19-5.91443E-19
 -1      1863 1.02089E-04-3.05036E-05-3.06787E-05 3.58473E-06-5.26305E-19-1.28742E-18
 -1      1864 1.03078E-04-3.08584E-05-3.09513E-05 3.65955E-06-3.21434E-20-1.21744E-18
 -1      1865 1.00813E-04-3.00396E-05-3.03379E-05 4.44514E-06-7.21244E-19-8.40408E-19
 -1      1866 1.03884E-04-3.11757E-05-3.11610E-05 3.69477E-06 2.28142E-19-1.35131E-18
 -1      1867 1.04882E-04-3.15807E-05-3.14264E-05 3.63470E-06 1.05735E-19-1.21618E-18
 -1      1868 1.02369E-04-3.06835E-05-3.07280E-05 4.66552E-06-2.56108E-19-6.34721E-19
 -1      1869 1.05746E-04-3.19706E-05-3.16198E-05 3.45608E-06 1.16518E-19-1.31389E-18
 -1      1870 1.06654E-04-3.24050E-05-3.18480E-05 3.17246E-06 1.52641E-19-1.20952E-18
 -1      1871 1.04076E-04-3.15176E-05-3.11000E-05 4.52589E-06 1.86925E-19-8.35050E-19
 -1      1872 1.07531E-04-3.28594E-05-3.20054E-05 2.66465E-06-2.98185E-19-8.70545E-19
 -1      1873 1.08199E-04-3.32709E-05-3.21566E-05 2.06593E-06-2.08780E-21-1.07322E-18
 -1      1874 1.05871E-04-3.25492E-05-3.14233E-05 3.79497E-06 1.97253E-19-5.65842E-19
 -1      1875 1.09001E-04-3.37439E-05-3.22588E-05 1.12591E-06 3.87564E-19-8.86552E-19
 -1      1876 1.09238E-04-3.40307E-05-3.22907E-05 1.60984E-07 5.95233E-19-9.14050E-19
 -1      1877 1.07620E-04-3.37105E-05-3.16681E-05 2.23053E-06 7.90024E-20-4.72191E-19
 -1      1878 1.09814E-04-3.44094E-05-3.23268E-05-1.23196E-06 5.11760E-19-5.20739E-19
 -1      1879 1.09422E-04-3.44132E-05-3.22083E-05-2.49830E-06-3.41063E-20-4.99824E-19
 -1      1880 1.09073E-04-3.47882E-05-3.18178E-05-3.14958E-07 5.53073E-19 8.05475E-20
 -1      1881 1.09556E-04-3.45041E-05-3.21842E-05-4.17207E-06-9.35574E-20 1.03408E-19
 -1      1882 1.08417E-04-3.40444E-05-3.19164E-05-5.47244E-06 8.09181E-20 6.68858E-19
 -1      1883 1.09834E-04-3.53648E-05-3.18837E-05-3.70093E-06 2.99949E-19 3.36866E-19
 -1      1884 1.07894E-04-3.36278E-05-3.18579E-05-6.95708E-06 1.18088E-20 5.69004E-19
 -1      1885 1.06094E-04-3.26199E-05-3.14889E-05-7.79805E-06 7.44946E-19 2.07933E-19
 -1      1886 1.09428E-04-3.48756E-05-3.19107E-05-7.25468E-06 1.64149E-19 1.14849E-18
 -1      1887 1.04888E-04-3.16275E-05-3.14303E-05-8.37053E-06 7.22718E-19 3.39594E-19
 -1      1888 1.02832E-04-3.02580E-05-3.10533E-05-8.19184E-06 4.85565E-19 4.80744E-19
 -1      1889 1.07569E-04-3.29357E-05-3.19562E-05-9.66144E-06 7.29236E-19 8.49601E-19
 -1      1890 1.01339E-04-2.89971E-05-3.10186E-05-7.22771E-06 4.53864E-19-2.05339E-20
 -1      1891 9.97061E-05-2.77934E-05-3.07440E-05-5.77838E-06 5.13183E-19-2.08122E-19
 -1      1892 1.04630E-04-2.98684E-05-3.20453E-05-9.35025E-06 5.69696E-19 4.30362E-19
 -1      1893 9.86989E-05-2.69275E-05-3.07344E-05-3.32035E-06 1.21073E-19-8.28286E-19
 -1      1894 9.81510E-05-2.65048E-05-3.06468E-05-1.00589E-06-4.37373E-19-1.34797E-18
 -1      1895 1.01888E-04-2.69871E-05-3.21476E-05-5.56358E-06 1.80524E-19-5.88341E-19
 -1      1896 9.82700E-05-2.66012E-05-3.06484E-05 2.00060E-06-4.40431E-19-9.83756E-19
 -1      1897 9.90502E-05-2.72046E-05-3.07747E-05 4.22012E-06-8.07772E-19-8.42301E-19
 -1      1898 1.00904E-04-2.59426E-05-3.21900E-05 6.18510E-07-3.33896E-19-5.04745E-19
 -1      1899 1.00219E-04-2.81992E-05-3.07888E-05 6.44871E-06-7.22182E-19-6.51858E-19
 -1      1900 1.01987E-04-2.94843E-05-3.10908E-05 7.67523E-06-3.50036E-19-6.13133E-19
 -1      1901 1.02309E-04-2.74036E-05-3.21346E-05 6.52714E-06-7.17609E-19-7.00950E-19
 -1      1902 1.03484E-04-3.07419E-05-3.11316E-05 8.33225E-06-4.76148E-19-6.34057E-19
 -1      1903 1.05544E-04-3.20748E-05-3.15177E-05 8.28938E-06-7.13102E-19-5.99143E-19
 -1      1904 1.05222E-04-3.04594E-05-3.20310E-05 9.68323E-06-4.01722E-19-4.72816E-20
 -1      1905 1.06641E-04-3.29726E-05-3.15809E-05 7.49665E-06-1.07222E-18-2.54308E-19
 -1      1906 1.08349E-04-3.38831E-05-3.19403E-05 6.52677E-06-1.78406E-20 2.83809E-19
 -1      1907 1.08041E-04-3.34096E-05-3.19522E-05 9.39297E-06-2.48366E-19 8.65939E-19
 -1      1908 1.08742E-04-3.41934E-05-3.19983E-05 4.96744E-06 1.24276E-20-1.87274E-19
 -1      1909 1.09756E-04-3.45574E-05-3.22444E-05 3.64484E-06 1.78029E-19 8.51283E-19
 -1      1910 1.09646E-04-3.50902E-05-3.19196E-05 6.66702E-06-3.64357E-20 1.80856E-18
 -1      1911 1.09530E-04-3.43970E-05-3.22631E-05 2.01044E-06-5.37019E-19-1.09800E-19
 -1      1912 1.09809E-04-3.43302E-05-3.23574E-05 7.92636E-07 1.88160E-19-7.13129E-19
 -1      1913 1.09821E-04-3.53426E-05-3.18978E-05 3.08594E-06-4.96940E-19 1.63533E-18
 -1      1914 1.09190E-04-3.39235E-05-3.23145E-05-5.06302E-07 5.90468E-19-1.57832E-18
 -1      1915 1.08880E-04-3.36083E-05-3.22642E-05-1.39348E-06 3.25519E-19-1.66579E-18
 -1      1916 1.08919E-04-3.46301E-05-3.18285E-05-1.47854E-07-3.91604E-19 2.32323E-19
 -1      1917 1.08076E-04-3.31363E-05-3.21579E-05-2.22926E-06-7.29639E-20-1.65873E-18
 -1      1918 1.07380E-04-3.27222E-05-3.19983E-05-2.74948E-06-3.85228E-19-8.95678E-19
 -1      1919 1.07420E-04-3.35102E-05-3.16736E-05-2.47444E-06 2.67054E-19-5.93302E-19
 -1      1920 1.06528E-04-3.22833E-05-3.18424E-05-3.16520E-06-1.85626E-19-7.45998E-19
 -1      1921 1.05634E-04-3.18620E-05-3.16170E-05-3.38167E-06 1.95769E-19-8.38917E-19
 -1      1922 1.05694E-04-3.23653E-05-3.14290E-05-3.82434E-06-1.61426E-19-4.30812E-20
 -1      1923 1.04814E-04-3.14933E-05-3.14316E-05-3.48559E-06 4.72878E-19-1.23955E-18
 -1      1924 1.03866E-04-3.11107E-05-3.11792E-05-3.49131E-06 7.55017E-19-1.24918E-18
 -1      1925 1.03969E-04-3.13763E-05-3.11158E-05-4.37290E-06 5.46890E-21-3.51280E-19
 -1      1926 1.03117E-04-3.08164E-05-3.09841E-05-3.39582E-06 8.04503E-19-1.90545E-18
 -1      1927 1.02207E-04-3.04900E-05-3.07333E-05-3.27606E-06 6.46209E-19-1.13238E-18
 -1      1928 1.02365E-04-3.05927E-05-3.07654E-05-4.36403E-06 7.00687E-19-9.83001E-19
 -1      1929 1.01549E-04-3.02608E-05-3.05438E-05-3.07187E-06 5.67793E-19-2.23995E-18
 -1      1930 1.00731E-04-2.99930E-05-3.03127E-05-2.89085E-06 9.61052E-20-2.08116E-18
 -1      1931 1.00938E-04-3.00002E-05-3.04084E-05-4.01978E-06 2.91557E-19-2.13730E-18
 -1      1932 1.00168E-04-2.98169E-05-3.01391E-05-2.64165E-06-8.51535E-19-9.92053E-19
 -1      1933 9.94649E-05-2.96030E-05-2.99369E-05-2.44195E-06-9.78353E-19-8.35288E-19
 -1      1934 9.97081E-05-2.95631E-05-3.00685E-05-3.50855E-06 3.64253E-20-1.84344E-18
 -1      1935 9.89943E-05-2.94687E-05-2.97846E-05-2.18792E-06-1.23173E-18-9.22022E-19
 -1      1936 9.84113E-05-2.93014E-05-2.96145E-05-1.99478E-06-6.93727E-19-1.34493E-18
 -1      1937 9.86730E-05-2.92450E-05-2.97610E-05-2.94376E-06-1.00067E-18-9.72154E-21
 -1      1938 9.80262E-05-2.91996E-05-2.94856E-05-1.75853E-06-2.03645E-19-1.80550E-18
 -1      1939 9.75564E-05-2.90712E-05-2.93469E-05-1.58486E-06 9.95638E-19-1.16117E-18
 -1      1940 9.78205E-05-2.90151E-05-2.94937E-05-2.39417E-06-1.86089E-19-7.82117E-20
 -1      1941 9.72473E-05-2.89943E-05-2.92410E-05-1.37695E-06 1.64166E-18-2.04246E-18
 -1      1942 9.68782E-05-2.88973E-05-2.91310E-05-1.22761E-06 1.44751E-18-1.38796E-18
 -1      1943 9.71318E-05-2.88495E-05-2.92690E-05-1.89623E-06 3.73049E-19-1.79538E-19
 -1      1944 9.66349E-05-2.88396E-05-2.90464E-05-1.05084E-06 1.45334E-18-7.33691E-19
 -1      1945 9.63522E-05-2.87675E-05-2.89616E-05-9.25646E-07 2.60618E-18 2.84300E-19
 -1      1946 9.65858E-05-2.87303E-05-2.90854E-05-1.46472E-06 1.67889E-18-4.27763E-19
 -1      1947 9.61642E-05-2.87240E-05-2.88957E-05-7.78004E-07 2.51730E-18-6.12055E-19
 -1      1948 9.59541E-05-2.86714E-05-2.88324E-05-6.73757E-07 1.60050E-18-2.19914E-19
 -1      1949 9.61606E-05-2.86438E-05-2.89396E-05-1.10071E-06 2.34787E-18-5.58327E-19
 -1      1950 9.58120E-05-2.86388E-05-2.87828E-05-5.50952E-07 1.75385E-19-5.78616E-19
 -1      1951 9.56623E-05-2.86014E-05-2.87376E-05-4.63575E-07-3.78045E-19-5.94028E-19
 -1      1952 9.58360E-05-2.85807E-05-2.88270E-05-7.96986E-07 6.45966E-19-1.08573E-18
 -1      1953 9.55559E-05-2.85764E-05-2.87013E-05-3.59783E-07-6.94046E-21-8.77020E-19
 -1      1954 9.54568E-05-2.85521E-05-2.86710E-05-2.84664E-07 3.32213E-19-7.63852E-19
 -1      1955 9.55924E-05-2.85325E-05-2.87426E-05-5.44009E-07-2.43015E-19-9.52352E-19
 -1      1956 9.53868E-05-2.85383E-05-2.86463E-05-2.01361E-07 3.08007E-20-1.46199E-18
 -1      1957 9.53276E-05-2.85278E-05-2.86263E-05-1.39939E-07 1.37973E-19-1.57719E-18
 -1      1958 9.53131E-05-2.84999E-05-2.86361E-05-1.70161E-07-5.28744E-19-8.08346E-19
 -1      1959 9.54221E-05-2.85042E-05-2.86819E-05-3.35745E-07 4.23866E-20-1.75233E-19
 -1      1960 9.31448E-05-2.73341E-05-2.81761E-05 1.54409E-06 1.45386E-18 3.49146E-18
 -1      1961 9.43177E-05-2.74348E-05-2.86055E-05 2.62252E-06 1.56557E-18 4.07621E-18
 -1      1962 9.51648E-05-2.70193E-05-2.92110E-05 3.98599E-06 1.86989E-18 2.87967E-18
 -1      1963 9.21529E-05-2.73327E-05-2.77546E-05 2.56444E-07 1.14414E-18 2.56080E-18
 -1      1964 9.26159E-05-2.73579E-05-2.79168E-05 8.18247E-07 1.14402E-18 3.01729E-18
 -1      1965 9.36088E-05-2.73471E-05-2.84053E-05 1.48725E-06 1.56998E-18 2.21387E-18
 -1      1966 9.18660E-05-2.73896E-05-2.76158E-05-4.44888E-07 5.64078E-19 2.20020E-18
 -1      1967 9.19344E-05-2.73517E-05-2.76478E-05-1.30906E-07 8.15054E-19 2.40052E-18
 -1      1968 9.28478E-05-2.74738E-05-2.80282E-05 1.25386E-07 1.08094E-18 1.47965E-18
 -1      1969 9.20186E-05-2.75095E-05-2.76349E-05-8.40296E-07 3.30512E-19 1.62744E-18
 -1      1970 9.18620E-05-2.74303E-05-2.75967E-05-6.55933E-07 4.62501E-19 2.04710E-18
 -1      1971 9.26351E-05-2.75850E-05-2.78897E-05-6.40993E-07 6.34979E-19 1.13546E-18
 -1      1972 9.24483E-05-2.76753E-05-2.77504E-05-1.07548E-06 4.60516E-19 1.40467E-18
 -1      1973 9.21575E-05-2.75707E-05-2.76705E-05-9.59680E-07 3.16180E-19 1.57846E-18
 -1      1974 9.27829E-05-2.77182E-05-2.78945E-05-1.08919E-06 5.15472E-19 8.26128E-19
 -1      1975 9.30626E-05-2.78729E-05-2.79300E-05-1.23517E-06 6.51506E-19 1.25420E-18
 -1      1976 9.26852E-05-2.77519E-05-2.78225E-05-1.15178E-06 5.20992E-19 1.41960E-18
 -1      1977 9.31706E-05-2.78750E-05-2.79917E-05-1.37175E-06 5.80036E-19 7.76646E-19
 -1      1978 9.38164E-05-2.80961E-05-2.81578E-05-1.37454E-06 3.53597E-19 8.92478E-19
 -1      1979 9.33731E-05-2.79619E-05-2.80290E-05-1.29943E-06 5.94958E-19 1.32370E-18
 -1      1980 9.37280E-05-2.80518E-05-2.81536E-05-1.58154E-06 6.95182E-19 5.46507E-19
 -1      1981 9.46969E-05-2.83451E-05-2.84281E-05-1.53262E-06 3.89266E-19 9.40678E-19
 -1      1982 9.41911E-05-2.81967E-05-2.82794E-05-1.44818E-06 4.00049E-19 9.26519E-19
 -1      1983 9.44211E-05-2.82475E-05-2.83661E-05-1.78067E-06 6.03442E-19 4.77389E-19
 -1      1984 9.57145E-05-2.86259E-05-2.87432E-05-1.73836E-06 5.77494E-19 6.81987E-19
 -1      1985 9.51372E-05-2.84592E-05-2.85721E-05-1.63106E-06 4.77732E-19 8.30035E-19
 -1      1986 9.52420E-05-2.84654E-05-2.86244E-05-2.01356E-06 4.40604E-19 6.05431E-19
 -1      1987 9.68964E-05-2.89494E-05-2.91100E-05-2.01295E-06 7.87956E-19 1.70613E-19
 -1      1988 9.62297E-05-2.87575E-05-2.89118E-05-1.87239E-06 7.83821E-19 5.72665E-19
 -1      1989 9.62015E-05-2.87129E-05-2.89298E-05-2.31266E-06 7.73106E-19 1.24419E-19
 -1      1990 9.82804E-05-2.93302E-05-2.95389E-05-2.36935E-06 3.37314E-19-2.72371E-19
 -1      1991 9.75008E-05-2.91043E-05-2.93071E-05-2.18860E-06 4.19041E-19-7.24784E-20
 -1      1992 9.73236E-05-2.90016E-05-2.92877E-05-2.70007E-06 5.96074E-19-7.44384E-20
 -1      1993 9.99086E-05-2.97866E-05-3.00403E-05-2.80884E-06 9.09262E-20-8.81361E-20
 -1      1994 9.89910E-05-2.95163E-05-2.97684E-05-2.58619E-06 1.09775E-19-1.99540E-19
 -1      1995 9.86404E-05-2.93475E-05-2.97048E-05-3.18559E-06 7.68352E-20-2.39038E-19
 -1      1996 1.01818E-04-3.03394E-05-3.06222E-05-3.31354E-06-5.40490E-19-1.67104E-19
 -1      1997 1.00742E-04-3.00138E-05-3.03053E-05-3.05628E-06 1.89259E-21-2.51473E-19
 -1      1998 1.00186E-04-2.97719E-05-3.01868E-05-3.76072E-06 1.09251E-19-3.64896E-19
 -1      1999 1.04029E-04-3.10108E-05-3.12842E-05-3.83326E-06-4.07552E-20-1.84868E-19
 -1      2000 1.02786E-04-3.06204E-05-3.09221E-05-3.56437E-06-4.58280E-19-1.89517E-19
 -1      2001 1.01991E-04-3.03021E-05-3.07346E-05-4.38717E-06-2.57957E-19-7.57328E-19
 -1      2002 1.06522E-04-3.18214E-05-3.20108E-05-4.26588E-06 3.44582E-19-6.02518E-21
 -1      2003 1.05131E-04-3.13610E-05-3.16123E-05-4.03421E-06 3.94542E-19 3.14294E-19
 -1      2004 1.04070E-04-3.09730E-05-3.13394E-05-4.97858E-06 3.06007E-19-5.27225E-19
 -1      2005 1.09211E-04-3.27826E-05-3.27617E-05-4.43277E-06 1.91327E-21 3.77423E-19
 -1      2006 1.07740E-04-3.22578E-05-3.23506E-05-4.32622E-06 2.53780E-19 1.24471E-19
 -1      2007 1.06409E-04-3.18257E-05-3.19768E-05-5.37575E-06 1.74962E-19 9.87769E-20
 -1      2008 1.11909E-04-3.38784E-05-3.34625E-05-4.06092E-06-1.18144E-18 4.02288E-19
 -1      2009 1.10494E-04-3.33177E-05-3.30838E-05-4.21656E-06-6.87998E-19 2.46751E-19
 -1      2010 1.08941E-04-3.28974E-05-3.26017E-05-5.32162E-06-4.67413E-19 4.05080E-19
 -1      2011 1.14283E-04-3.50260E-05-3.40031E-05-2.80320E-06-1.15756E-18 4.47217E-19
 -1      2012 1.13153E-04-3.45008E-05-3.37247E-05-3.39806E-06-1.01267E-18 4.94244E-19
 -1      2013 1.11515E-04-3.41873E-05-3.31470E-05-4.45797E-06-9.55609E-19 2.95922E-19
 -1      2014 1.15833E-04-3.60121E-05-3.42531E-05-3.55344E-07 9.11024E-20 1.24168E-18
 -1      2015 1.15304E-04-3.56619E-05-3.41575E-05-1.54715E-06-7.39341E-19 8.30633E-19
 -1      2016 1.13842E-04-3.55843E-05-3.35335E-05-2.39214E-06-7.30467E-19 1.58303E-19
 -1      2017 1.15934E-04-3.64321E-05-3.41080E-05 3.26949E-06 1.09687E-18 1.30975E-18
 -1      2018 1.16351E-04-3.64733E-05-3.42642E-05 1.48253E-06 5.89866E-19 1.16061E-18
 -1      2019 1.15441E-04-3.67549E-05-3.36975E-05 1.09525E-06 2.49041E-19 1.00812E-18
 -1      2020 1.14014E-04-3.57153E-05-3.35639E-05 7.32629E-06 1.10240E-19 1.56180E-18
 -1      2021 1.15598E-04-3.63906E-05-3.39783E-05 5.31896E-06 6.89961E-19 1.79101E-18
 -1      2022 1.15654E-04-3.70674E-05-3.36323E-05 5.66505E-06 4.37790E-19 1.10993E-18
 -1      2023 1.09976E-04-3.34535E-05-3.27779E-05 1.00324E-05-5.17508E-19 2.39491E-18
 -1      2024 1.12582E-04-3.48263E-05-3.33538E-05 8.69878E-06-5.32029E-19 1.98490E-18
 -1      2025 1.13846E-04-3.57291E-05-3.34224E-05 9.96054E-06-5.32321E-19 2.25970E-18
 -1      2026 1.04896E-04-3.01549E-05-3.20225E-05 9.20861E-06-1.23329E-19 2.15242E-18
 -1      2027 1.07781E-04-3.18134E-05-3.25741E-05 9.59393E-06-2.86099E-19 2.03084E-18
 -1      2028 1.10103E-04-3.25853E-05-3.32036E-05 1.15767E-05-3.09971E-19 2.72095E-18
 -1      2029 1.01117E-04-2.75229E-05-3.15793E-05 4.10075E-06 7.36376E-19 8.87849E-19
 -1      2030 1.03063E-04-2.86106E-05-3.18988E-05 6.49397E-06 3.95353E-19 1.42025E-18
 -1      2031 1.05926E-04-2.88682E-05-3.30714E-05 8.45436E-06 7.18032E-19 1.27418E-18
 -1      2032 1.00934E-04-2.73811E-05-3.15997E-05-3.19224E-06 1.59430E-18 9.88382E-19
 -1      2033 1.00920E-04-2.71848E-05-3.15641E-05 1.39897E-07 1.50809E-18 1.21859E-18
 -1      2034 1.03790E-04-2.68861E-05-3.30437E-05 1.07194E-06 1.40690E-18 9.75471E-19
 -1      2035 1.04582E-04-2.98900E-05-3.20679E-05-8.78854E-06-3.86154E-19 2.18508E-19
 -1      2036 1.02583E-04-2.85361E-05-3.16916E-05-6.29596E-06 3.20576E-19 6.80445E-19
 -1      2037 1.05196E-04-2.81035E-05-3.30910E-05-6.91454E-06 1.01416E-18 1.30228E-18
 -1      2038 1.09884E-04-3.32861E-05-3.28270E-05-1.01857E-05 3.81839E-20 5.01496E-19
 -1      2039 1.06922E-04-3.16264E-05-3.22530E-05-9.55094E-06-4.47664E-19 5.23109E-19
 -1      2040 1.09145E-04-3.16236E-05-3.32161E-05-1.13049E-05-2.28163E-19 1.23332E-18
 -1      2041 1.14262E-04-3.57324E-05-3.36111E-05-7.82783E-06 7.97290E-19 5.23890E-19
 -1      2042 1.11602E-04-3.45350E-05-3.30498E-05-8.79133E-06 4.40199E-19 9.28825E-20
 -1      2043 1.13174E-04-3.51191E-05-3.34267E-05-1.07515E-05 3.79233E-19 1.44658E-18
 -1      2044 1.16403E-04-3.65890E-05-3.41536E-05-3.82820E-06-6.44142E-19 3.99270E-19
 -1      2045 1.14816E-04-3.61040E-05-3.37798E-05-5.48010E-06 5.59333E-19 7.69847E-19
 -1      2046 1.15473E-04-3.69526E-05-3.36429E-05-6.89288E-06 6.84707E-19 1.45995E-18
 -1      2047 1.16347E-04-3.62093E-05-3.43086E-05-8.30117E-08-7.11183E-19-6.89161E-19
 -1      2048 1.15967E-04-3.62950E-05-3.41958E-05-1.63983E-06-1.12542E-18-1.63347E-20
 -1      2049 1.15691E-04-3.69940E-05-3.37379E-05-2.22035E-06-5.68776E-19 2.25159E-21
 -1      2050 1.14755E-04-3.52050E-05-3.40778E-05 2.51413E-06 6.09202E-20 7.50312E-19
 -1      2051 1.15326E-04-3.56136E-05-3.42039E-05 1.42074E-06-2.56294E-19-4.07582E-19
 -1      2052 1.14363E-04-3.59537E-05-3.36217E-05 1.59315E-06-1.29457E-19-2.56072E-19
 -1      2053 1.12338E-04-3.40292E-05-3.35610E-05 3.88258E-06 3.50602E-19 8.10849E-19
 -1      2054 1.13490E-04-3.45638E-05-3.38525E-05 3.29096E-06-2.29807E-19 1.09044E-18
 -1      2055 1.12185E-04-3.45557E-05-3.32846E-05 3.98237E-06-1.66277E-19 1.21262E-18
 -1      2056 1.09633E-04-3.29157E-05-3.28864E-05 4.31238E-06 1.52083E-18 4.14169E-19
 -1      2057 1.11042E-04-3.34594E-05-3.32622E-05 4.10862E-06 8.67436E-19 8.75862E-19
 -1      2058 1.09686E-04-3.32188E-05-3.27813E-05 5.07666E-06 1.03342E-18 2.61892E-19
 -1      2059 1.06982E-04-3.19526E-05-3.21647E-05 4.15604E-06 1.33750E-19 9.82088E-19
 -1      2060 1.08419E-04-3.24483E-05-3.25604E-05 4.19813E-06 1.00618E-18 1.40485E-18
 -1      2061 1.07197E-04-3.20989E-05-3.21896E-05 5.25448E-06 8.18521E-19 2.39177E-18
 -1      2062 1.04571E-04-3.11563E-05-3.14718E-05 3.69713E-06-4.68389E-19 1.27899E-18
 -1      2063 1.05902E-04-3.15819E-05-3.18459E-05 3.86920E-06-3.69617E-19 3.34148E-19
 -1      2064 1.04896E-04-3.12135E-05-3.15802E-05 4.89110E-06 2.33839E-19 2.57049E-18
 -1      2065 1.02484E-04-3.05142E-05-3.08507E-05 3.12418E-06 1.02285E-18 5.11691E-19
 -1      2066 1.03645E-04-3.08661E-05-3.11814E-05 3.34822E-06 2.39234E-19 1.09942E-18
 -1      2067 1.02869E-04-3.05300E-05-3.10035E-05 4.26793E-06 2.36683E-19 1.14022E-18
 -1      2068 1.00740E-04-3.00051E-05-3.03195E-05 2.54683E-06-1.23386E-18-9.60784E-19
 -1      2069 1.01711E-04-3.02884E-05-3.05987E-05 2.77679E-06-2.78771E-19-6.67694E-19
 -1      2070 1.01144E-04-3.00066E-05-3.04885E-05 3.56542E-06-2.04466E-19-1.63352E-19
 -1      2071 9.93216E-05-2.96070E-05-2.98806E-05 2.02063E-06-2.97909E-19 1.63823E-18
 -1      2072 1.00109E-04-2.98303E-05-3.01087E-05 2.23264E-06-7.99755E-19 1.08085E-18
 -1      2073 9.97161E-05-2.96073E-05-3.00477E-05 2.88562E-06-1.96577E-18 6.43911E-19
 -1      2074 9.81936E-05-2.92997E-05-2.95277E-05 1.56794E-06 1.89554E-19 2.08609E-18
 -1      2075 9.88163E-05-2.94725E-05-2.97091E-05 1.75192E-06-5.85250E-19 1.84293E-18
 -1      2076 9.85593E-05-2.93036E-05-2.96823E-05 2.27815E-06-3.58265E-19 1.39887E-18
 -1      2077 9.73142E-05-2.90654E-05-2.92503E-05 1.19233E-06-4.86265E-19 4.21124E-18
 -1      2078 9.77965E-05-2.91970E-05-2.93915E-05 1.34613E-06 5.83311E-20 3.51577E-18
 -1      2079 9.76407E-05-2.90737E-05-2.93874E-05 1.76083E-06-7.30345E-19 3.70037E-18
 -1      2080 9.66418E-05-2.88891E-05-2.90370E-05 8.87420E-07 2.68582E-19 2.99517E-18
 -1      2081 9.70077E-05-2.89877E-05-2.91444E-05 1.01324E-06-7.28273E-19 3.38777E-18
 -1      2082 9.69247E-05-2.89007E-05-2.91547E-05 1.33352E-06 1.65094E-19 3.37313E-18
 -1      2083 9.61388E-05-2.87585E-05-2.88769E-05 6.41860E-07 9.08133E-19 3.09380E-18
 -1      2084 9.64097E-05-2.88308E-05-2.89567E-05 7.44217E-07 1.65823E-18 3.92844E-18
 -1      2085 9.63768E-05-2.87713E-05-2.89753E-05 9.86574E-07 1.20154E-18 3.56188E-18
 -1      2086 9.57736E-05-2.86639E-05-2.87607E-05 4.42987E-07 1.11135E-19 2.24603E-18
 -1      2087 9.59675E-05-2.87154E-05-2.88177E-05 5.27052E-07 5.69282E-20 2.86703E-18
 -1      2088 9.59666E-05-2.86757E-05-2.88405E-05 7.05953E-07 5.81805E-19 5.09348E-18
 -1      2089 9.55198E-05-2.85976E-05-2.86803E-05 2.78220E-07-5.17682E-19 3.04593E-18
 -1      2090 9.56511E-05-2.86324E-05-2.87187E-05 3.49521E-07-6.65982E-19 2.06018E-18
 -1      2091 9.56678E-05-2.86056E-05-2.87425E-05 4.77149E-07 4.05157E-20 3.13493E-18
 -1      2092 9.53573E-05-2.85560E-05-2.86280E-05 1.39246E-07 1.14197E-18 5.93381E-18
 -1      2093 9.54359E-05-2.85760E-05-2.86517E-05 2.00563E-07 1.25843E-18 5.27448E-18
 -1      2094 9.54577E-05-2.85555E-05-2.86737E-05 2.86660E-07-1.52961E-19 7.27683E-18
 -1      2095 9.52804E-05-2.85428E-05-2.86001E-05 5.44190E-08 1.19611E-18 5.35892E-18
 -1      2096 9.53200E-05-2.85455E-05-2.86160E-05 1.01902E-07 1.50076E-18 5.98083E-18
 -1      2097 9.53376E-05-2.85269E-05-2.86340E-05 1.57925E-07 1.18593E-18 9.10902E-18
 -1      2098 9.52792E-05-2.85238E-05-2.86092E-05 7.84875E-08 2.20102E-18 7.22895E-18
 -1      2099 9.51050E-05-2.80760E-05-2.87278E-05 3.61477E-07 1.02079E-18-5.74439E-19
 -1      2100 9.51505E-05-2.81721E-05-2.87033E-05 3.41729E-07 8.75622E-19 2.79809E-18
 -1      2101 9.51969E-05-2.82701E-05-2.86831E-05 3.02603E-07 2.28959E-18 2.34360E-18
 -1      2102 9.52334E-05-2.83514E-05-2.86619E-05 2.55901E-07 2.64782E-18 3.51388E-18
 -1      2103 9.51847E-05-2.81889E-05-2.87127E-05 4.23630E-07-4.61501E-19 1.40661E-18
 -1      2104 9.52545E-05-2.84182E-05-2.86437E-05 1.96615E-07 2.74772E-18 4.03507E-18
 -1      2105 9.52736E-05-2.84754E-05-2.86263E-05 1.41166E-07 2.23206E-18 5.31874E-18
 -1      2106 9.53008E-05-2.84739E-05-2.86392E-05 1.81059E-07 1.19009E-18 5.23997E-18
 -1      2107 9.52617E-05-2.83552E-05-2.86753E-05 3.10810E-07 1.43300E-18 4.61055E-18
 -1      2108 9.50134E-05-2.78835E-05-2.87718E-05 3.58252E-07 7.79328E-19-5.43344E-18
 -1      2109 9.50585E-05-2.79791E-05-2.87475E-05 3.66278E-07 1.21664E-18-3.28500E-18
 -1      2110 9.50736E-05-2.79886E-05-2.87504E-05 4.70064E-07-1.43354E-18-1.80046E-18
 -1      2111 9.49322E-05-2.77127E-05-2.88109E-05 2.94050E-07 1.35409E-18-2.84367E-18
 -1      2112 9.49708E-05-2.77954E-05-2.87898E-05 3.28096E-07 1.03559E-18-2.95059E-18
 -1      2113 9.49665E-05-2.77973E-05-2.87853E-05 4.39994E-07-2.45176E-19-4.05039E-18
 -1      2114 9.48754E-05-2.75924E-05-2.88384E-05 1.81175E-07 7.88241E-19-1.32407E-18
 -1      2115 9.49008E-05-2.76474E-05-2.88243E-05 2.34470E-07 1.62922E-18-2.54989E-18
 -1      2116 9.48769E-05-2.76384E-05-2.88142E-05 3.37308E-07 6.22663E-19-2.47117E-18
 -1      2117 9.48506E-05-2.75395E-05-2.88503E-05 3.93948E-08-3.42623E-19-3.05961E-18
 -1      2118 9.48591E-05-2.75583E-05-2.88455E-05 1.02681E-07-5.29517E-20-1.48850E-18
 -1      2119 9.48190E-05-2.75354E-05-2.88330E-05 1.80611E-07-4.77515E-19-2.48425E-18
 -1      2120 9.48608E-05-2.75614E-05-2.88448E-05-1.08104E-07-5.99104E-19-9.43157E-19
 -1      2121 9.48513E-05-2.75410E-05-2.88501E-05-4.52462E-08 2.18817E-19-2.77481E-18
 -1      2122 9.48000E-05-2.75016E-05-2.88392E-05-4.16202E-09-7.06053E-19-2.96819E-18
 -1      2123 9.49043E-05-2.76543E-05-2.88228E-05-2.37644E-07-5.44356E-19-4.74592E-19
 -1      2124 9.48784E-05-2.75981E-05-2.88372E-05-1.85494E-07-1.17448E-18 1.00030E-18
 -1      2125 9.48221E-05-2.75412E-05-2.88319E-05-1.87631E-07-8.84201E-20-6.38846E-19
 -1      2126 9.49735E-05-2.78013E-05-2.87884E-05-3.27010E-07-7.73659E-19-2.00836E-18
 -1      2127 9.49357E-05-2.77199E-05-2.88092E-05-2.94620E-07-2.50726E-19-1.27441E-18
 -1      2128 9.48816E-05-2.76473E-05-2.88124E-05-3.39952E-07-7.26037E-19-6.34920E-19
 -1      2129 9.50611E-05-2.79859E-05-2.87457E-05-3.63653E-07 4.57582E-19-6.91434E-19
 -1      2130 9.50158E-05-2.78892E-05-2.87703E-05-3.56114E-07 1.08261E-19-1.59660E-18
 -1      2131 9.49703E-05-2.78060E-05-2.87833E-05-4.38223E-07 1.97262E-19-1.75165E-18
 -1      2132 9.51528E-05-2.81793E-05-2.87012E-05-3.37934E-07 5.83809E-19 1.79529E-18
 -1      2133 9.51078E-05-2.80838E-05-2.87256E-05-3.58177E-07 1.34026E-18-7.54596E-19
 -1      2134 9.50775E-05-2.79981E-05-2.87479E-05-4.66424E-07 1.89467E-18-4.83114E-19
 -1      2135 9.52336E-05-2.83595E-05-2.86600E-05-2.52970E-07-2.24290E-20 1.39161E-18
 -1      2136 9.51976E-05-2.82753E-05-2.86811E-05-2.98646E-07-2.75052E-19 2.36047E-18
 -1      2137 9.51863E-05-2.81966E-05-2.87100E-05-4.17849E-07 6.09810E-19 1.22404E-18
 -1      2138 5.77481E-05-3.92119E-05-8.52401E-06 3.91072E-05 3.52789E-18 3.32389E-18
 -1      2139 4.24537E-05-4.12420E-05-2.06056E-06 3.10622E-05 2.81935E-18 3.63324E-18
 -1      2140 1.15955E-05-3.03889E-05 6.97485E-06 3.92009E-06-1.93547E-19 1.17314E-18
 -1      2141 1.25619E-05-3.52303E-05 8.00550E-06-6.30940E-06 5.47501E-19 1.56913E-18
 -1      2142 2.86867E-05-3.62611E-05 2.04130E-06 2.65993E-05 1.91641E-18 4.30229E-18
 -1      2143 1.96513E-05-3.28908E-05 4.73984E-06 1.91809E-05 4.11446E-19 2.85027E-18
 -1      2144 4.32064E-05-3.63958E-05-3.53070E-06 3.56674E-05-4.26905E-19 3.26552E-18
 -1      2145 9.72921E-05-4.24366E-05-2.35352E-05 4.19149E-05 2.75963E-18 4.93778E-18
 -1      2146 7.82710E-05-4.45748E-05-1.55737E-05 3.73628E-05 2.51611E-18 3.61641E-18
 -1      2147 1.35368E-04-4.33058E-05-3.89007E-05 3.43382E-05 3.29856E-18 2.59700E-18
 -1      2148 1.15083E-04-4.46709E-05-3.08247E-05 3.37228E-05 3.42159E-18 3.48300E-18
 -1      2149 8.73064E-05-8.71560E-06-3.37726E-05-1.04519E-05-1.48684E-18-3.01200E-18
 -1      2150 8.80073E-05-9.25495E-06-3.38366E-05-1.20306E-05-1.74409E-18-2.61513E-18
 -1      2151 9.04919E-05-1.30149E-05-3.32322E-05-1.17311E-05-1.96140E-18-2.21107E-18
 -1      2152 8.87132E-05-1.10261E-05-3.33266E-05-9.30586E-06-1.41529E-18-2.90023E-18
 -1      2153 1.71635E-04-2.72427E-05-6.14111E-05 4.58020E-06 4.16867E-18 2.11250E-18
 -1      2154 1.68079E-04-3.13437E-05-5.77252E-05 1.44886E-05 4.07380E-18 2.07947E-18
 -1      2155 1.82775E-04-2.40553E-05-6.64662E-05-1.01691E-06 5.15970E-18 4.93820E-19
 -1      2156 1.74543E-04-2.14187E-05-6.47945E-05 3.94869E-06 5.25160E-18 1.78660E-18
 -1      2157 1.70777E-04-2.50868E-05-6.17918E-05-7.19048E-06 4.38043E-18-9.04208E-19
 -1      2158 1.80729E-04-2.55306E-05-6.51979E-05-3.22045E-06 5.16690E-18 2.59404E-19
 -1      2159 1.56950E-04-3.59103E-05-5.13280E-05-2.15448E-05 3.09209E-18-3.66850E-18
 -1      2160 1.68969E-04-3.39424E-05-5.71976E-05-1.36406E-05 3.82817E-18-2.08794E-18
 -1      2161 1.26643E-04-4.05106E-05-3.72535E-05-3.29686E-05 2.46571E-18-4.56890E-18
 -1      2162 1.47720E-04-3.99595E-05-4.54043E-05-3.24401E-05 2.29546E-18-5.05594E-18
 -1      2163 9.11115E-05-4.47406E-05-2.08124E-05-3.71403E-05 1.69703E-18-3.56728E-18
 -1      2164 1.11916E-04-4.24155E-05-2.95027E-05-4.08928E-05 2.35390E-18-4.34951E-18
 -1      2165 5.19303E-05-4.22686E-05-5.62128E-06-3.38444E-05 3.84129E-19-3.39281E-18
 -1      2166 6.94332E-05-4.02370E-05-1.29257E-05-4.11610E-05 1.38405E-18-3.01755E-18
 -1      2167 2.69493E-05-3.69751E-05 3.05915E-06-2.40465E-05-1.11830E-18-3.50587E-18
 -1      2168 3.77109E-05-3.67019E-05-1.20609E-06-3.21648E-05 2.54110E-20-3.62594E-18
 -1      2169 1.21771E-05-3.59821E-05 8.48773E-06-3.28180E-06-3.00578E-18-6.06941E-18
 -1      2170 1.47693E-05-3.39389E-05 6.85319E-06-1.28754E-05-1.38553E-18-4.18095E-18
 -1      2171 1.70221E-05-3.11507E-05 5.00377E-06 1.78749E-05-2.39033E-18-6.12786E-18
 -1      2172 1.30314E-05-3.59130E-05 7.99197E-06 6.53053E-06-2.09545E-18-7.06807E-18
 -1      2173 1.35790E-05-2.49438E-05 4.09637E-06 2.05792E-06-1.49300E-18-6.52893E-18
 -1      2174 4.57051E-05-3.75794E-05-4.08656E-06 3.66591E-05-5.00088E-18-3.15012E-18
 -1      2175 3.36479E-05-3.56384E-05 2.53989E-07 3.10880E-05-3.24922E-18-3.85146E-18
 -1      2176 7.84758E-05-4.13773E-05-1.60520E-05 4.31806E-05-5.25753E-18-5.03572E-18
 -1      2177 6.04877E-05-4.28339E-05-8.72768E-06 3.71777E-05-5.01909E-18-4.00869E-18
 -1      2178 6.48969E-05-4.30490E-05-9.71087E-06 4.25325E-05-1.99265E-18-2.86932E-18
 -1      2179 1.18793E-04-4.30805E-05-3.21335E-05 3.91156E-05-6.12871E-18-4.72560E-18
 -1      2180 9.79995E-05-4.47364E-05-2.36209E-05 3.71590E-05-5.39136E-18-5.06865E-18
 -1      2181 1.51016E-04-3.89989E-05-4.72416E-05 2.78930E-05-5.70000E-18-4.61802E-18
 -1      2182 1.32601E-04-4.07742E-05-3.96793E-05 2.87949E-05-6.13866E-18-4.45624E-18
 -1      2183 1.67464E-04-3.10828E-05-5.79257E-05 1.18622E-05-6.18101E-18-1.91429E-18
 -1      2184 1.56978E-04-3.32999E-05-5.26375E-05 1.98807E-05-6.32577E-18-3.99164E-18
 -1      2185 1.51126E-04-3.97089E-05-4.69804E-05 7.19143E-06-5.19067E-18-1.85161E-18
 -1      2186 1.72305E-04-2.10095E-05-6.40831E-05 1.44023E-06-4.53036E-18-1.66220E-18
 -1      2187 1.69061E-04-2.31895E-05-6.18492E-05 6.53746E-06-5.26092E-18-2.08095E-18
 -1      2188 1.76002E-04-2.38203E-05-6.40589E-05-6.83202E-06-3.95564E-18 4.06576E-20
 -1      2189 1.75248E-04-2.13481E-05-6.52209E-05-3.38547E-07-4.26354E-18-1.49999E-18
 -1      2190 1.64387E-04-3.10762E-05-5.64063E-05-1.94204E-05-3.65114E-18 6.57721E-19
 -1      2191 1.73864E-04-2.92992E-05-6.09856E-05-1.18256E-05-3.75913E-18-4.09964E-19
 -1      2192 1.40596E-04-3.76894E-05-4.41257E-05-2.69064E-05-2.86615E-18 6.59839E-19
 -1      2193 1.59165E-04-3.62530E-05-5.15201E-05-2.66334E-05-3.61519E-18 5.46760E-19
 -1      2194 1.55770E-04-3.41989E-05-5.11582E-05-7.05556E-06-2.38906E-18-2.56482E-18
 -1      2195 1.06478E-04-4.30882E-05-2.78049E-05-3.67207E-05-1.79063E-18 2.64782E-18
 -1      2196 1.27294E-04-4.27147E-05-3.59300E-05-3.66931E-05-2.11970E-18 1.86263E-18
 -1      2197 6.94164E-05-4.22052E-05-1.29417E-05-3.75446E-05 2.12605E-19 4.82957E-18
 -1      2198 8.78572E-05-3.99342E-05-2.07026E-05-4.31232E-05-7.75459E-19 4.16910E-18
 -1      2199 3.88004E-05-4.00052E-05-9.58256E-07-3.10544E-05 1.20872E-18 4.16740E-18
 -1      2200 5.19573E-05-3.79698E-05-6.73773E-06-3.80005E-05-3.59989E-20 4.63565E-18
 -1      2201 1.68646E-05-3.70496E-05 6.92265E-06-1.46253E-05 4.52527E-19 2.82274E-18
 -1      2202 2.34050E-05-3.46594E-05 3.61931E-06-2.40254E-05-3.21025E-19 4.78404E-18
 -1      2203 1.63049E-05-2.60978E-05 3.40560E-06-1.36074E-05-5.09067E-19 3.15774E-18
 -1      2204 1.64538E-04-3.72407E-05-5.35699E-05 2.23551E-05 4.67717E-18 1.33238E-18
 -1      2205 1.46236E-04-3.76979E-05-4.65009E-05 2.54112E-05 4.02764E-18 1.96596E-18
 -1      2206 1.57335E-04-3.35693E-05-5.21115E-05 2.24914E-06 3.20549E-18 2.19382E-19
 -1      2207 1.46388E-04-4.87873E-05-4.13040E-05 1.53323E-05 2.51855E-18 4.59092E-19
 -1      2208 9.70928E-05-2.42851E-05-3.12753E-05-9.94957E-06-2.28995E-18 1.47503E-18
 -1      2209 9.62918E-05-2.30867E-05-3.14405E-05-1.03096E-05-2.40860E-18 3.24096E-19
 -1      2210 1.79658E-05-2.77091E-05 3.57998E-06 1.30148E-05-8.56139E-19 1.61444E-18
 -1      2211 1.73129E-05-1.95303E-05 1.09201E-06 6.98006E-06-1.69682E-18 1.37770E-18
 -1      2212 2.52809E-05-2.33752E-05-9.25785E-07 2.18683E-05-1.79253E-18 4.04966E-18
 -1      2213 8.01961E-05-4.82464E-05-1.39440E-05 4.11909E-05 4.66715E-19 1.80111E-18
 -1      2214 9.52610E-05-2.84022E-05-2.86529E-05-2.34628E-07-6.26654E-19 6.95360E-19
 -1      2215 1.19482E-04-5.46425E-05-2.75812E-05 3.25418E-05 8.59527E-19 1.48231E-18
 -1      2216 3.69852E-05-3.47252E-05-1.64417E-06-3.34288E-05 1.17611E-18 3.50354E-18
 -1      2217 7.25719E-05-4.54849E-05-1.19731E-05-4.20603E-05 2.15189E-18 4.11285E-18
 -1      2218 1.40202E-04-4.82987E-05-3.89313E-05-2.09697E-05-5.53854E-19-1.16975E-18
 -1      2219 1.60221E-04-2.05100E-05-5.87863E-05-4.50751E-07-3.73414E-18-1.45859E-18
 -1      2220 1.55312E-04-2.31192E-05-5.59161E-05-9.61557E-07-5.93728E-18-9.82346E-19
 -1      2221 1.01254E-04-5.25071E-05-2.08839E-05 3.90906E-05-3.04127E-18-3.16727E-18
 -1      2222 2.96484E-05-3.07902E-05 1.23455E-07 2.74390E-05-1.56405E-18-5.23000E-18
 -1      2223 2.67890E-05-2.30556E-05-1.24978E-06 2.43909E-05 1.60089E-19-5.67936E-18
 -1      2224 4.32015E-05-3.05283E-05-5.56096E-06 3.60376E-05-3.03238E-19-3.74283E-18
 -1      2225 2.51600E-05-2.89479E-05 1.05933E-06-2.37768E-05-1.36838E-18-4.48250E-18
 -1      2226 5.44235E-05-4.03740E-05-6.60179E-06-3.90133E-05-1.27563E-18-3.53573E-18
 -1      2227 9.30139E-05-5.08642E-05-1.82805E-05-4.00077E-05-2.03288E-20-3.09654E-18
 -1      2228 1.29944E-04-5.22088E-05-3.29852E-05-2.80403E-05 9.90605E-19-3.49274E-18
 -1      2229 1.52090E-04-4.28898E-05-4.59559E-05-1.22180E-05 1.61161E-18-2.06464E-18
 -1      2230 1.59332E-04-2.66991E-05-5.60117E-05 4.53951E-07 4.00858E-18 2.79097E-19
 -1      2231 1.63936E-04-2.12781E-05-6.04866E-05-2.16434E-08 4.69764E-18 1.29617E-18
 -1      2232 1.49124E-04-2.05658E-05-5.50585E-05-5.63854E-06 3.35383E-18 1.09903E-19
 -1      2233 1.49164E-04-1.40327E-05-5.82368E-05-4.59789E-06 5.01528E-18 6.78685E-19
 -1      2234 1.59283E-04-1.43223E-05-6.11428E-05 1.44035E-06 5.35748E-18 9.37665E-19
 -1      2235 1.34615E-04-5.17939E-05-3.51039E-05 2.37574E-05-4.52887E-18-2.83290E-18
 -1      2236 1.56928E-04-1.32948E-05-6.06983E-05-9.33386E-07-4.87552E-18-1.18857E-18
 -1      2237 1.09734E-04-5.19051E-05-2.46223E-05-3.69151E-05 5.30243E-19 1.84463E-18
 -1      2238 9.51878E-05-2.63475E-05-2.94887E-05 4.09899E-06 1.94923E-18 1.66806E-18
 -1      2239 9.61423E-05-2.58330E-05-3.00589E-05 5.91727E-06 2.11704E-18 2.00957E-18
 -1      2240 8.81623E-05-1.10802E-05-3.30750E-05-3.59808E-06-2.37578E-19-3.10308E-18
 -1      2241 8.83989E-05-1.13585E-05-3.30542E-05-4.72584E-06-5.18932E-19-3.11792E-18
 -1      2242 8.87538E-05-1.18558E-05-3.30021E-05-5.73147E-06-7.34185E-19-3.09849E-18
 -1      2243 8.91610E-05-1.23370E-05-3.29695E-05-6.89363E-06-1.03704E-18-3.01257E-18
 -1      2244 8.99055E-05-1.37066E-05-3.26554E-05-4.80755E-06-5.70521E-19-2.86563E-18
 -1      2245 8.78096E-05-1.06032E-05-3.31225E-05 6.05547E-07 6.38220E-19-3.02630E-18
 -1      2246 8.78049E-05-1.05982E-05-3.31227E-05-4.87679E-07 3.55188E-19-3.02862E-18
 -1      2247 8.79948E-05-1.08370E-05-3.31019E-05 2.71032E-06 1.06657E-18-2.91868E-18
 -1      2248 8.78776E-05-1.06990E-05-3.31127E-05 1.60746E-06 7.82162E-19-3.01961E-18
 -1      2249 8.91069E-05-1.26157E-05-3.27842E-05 1.02575E-06 6.34619E-19-2.87616E-18
 -1      2250 8.84363E-05-1.14028E-05-3.30516E-05 4.80900E-06 1.47576E-18-2.61121E-18
 -1      2251 8.81937E-05-1.11176E-05-3.30727E-05 3.69892E-06 1.23097E-18-2.79100E-18
 -1      2252 8.93801E-05-1.29861E-05-3.27413E-05 2.95521E-06 1.05750E-18-2.67838E-18
 -1      2253 8.92212E-05-1.24110E-05-3.29641E-05 6.97612E-06 2.04724E-18-2.09548E-18
 -1      2254 8.88022E-05-1.19142E-05-3.29980E-05 5.81260E-06 1.73628E-18-2.39352E-18
 -1      2255 8.99487E-05-1.37600E-05-3.26508E-05 4.87641E-06 1.57036E-18-2.25660E-18
 -1      2256 9.04860E-05-1.40454E-05-3.28241E-05 9.11774E-06 2.50019E-18-1.38782E-18
 -1      2257 8.98108E-05-1.32253E-05-3.28765E-05 7.94140E-06 2.19695E-18-1.79973E-18
 -1      2258 9.08929E-05-1.50519E-05-3.24961E-05 6.75341E-06 2.04355E-18-1.75615E-18
 -1      2259 9.24604E-05-1.66359E-05-3.25963E-05 1.10079E-05 2.79119E-18-3.82283E-19
 -1      2260 9.13972E-05-1.52906E-05-3.26778E-05 9.92514E-06 2.58550E-18-9.52700E-19
 -1      2261 9.23127E-05-1.70359E-05-3.22406E-05 8.39647E-06 2.39356E-18-1.01189E-18
 -1      2262 9.42556E-05-2.70867E-05-2.87684E-05 1.62400E-06 1.63277E-18 1.27165E-18
 -1      2263 9.48270E-05-2.68623E-05-2.90562E-05 2.61940E-06 1.82648E-18 1.62293E-18
 -1      2264 9.53422E-05-2.58123E-05-2.98073E-05 4.22673E-06 2.04956E-18 7.95476E-19
 -1      2265 9.58894E-05-2.50663E-05-3.03093E-05-6.08486E-06-1.84778E-18-9.32861E-20
 -1      2266 9.52628E-05-2.58127E-05-2.97751E-05-4.15327E-06-1.55078E-18-1.70004E-19
 -1      2267 9.50383E-05-2.00016E-05-3.22071E-05-1.16846E-05-2.31284E-18-6.50548E-19
 -1      2268 9.54486E-05-2.33295E-05-3.09272E-05-7.87128E-06-2.15897E-18-3.53721E-19
 -1      2269 9.50457E-05-2.25332E-05-3.10649E-05-7.48972E-06-1.91715E-18-7.67261E-19
 -1      2270 9.32325E-05-1.76852E-05-3.24043E-05-1.12148E-05-2.13258E-18-1.36645E-18
 -1      2271 1.47858E-04-4.78706E-05-4.31903E-05 4.57813E-06 2.57924E-18-5.03349E-19
 -1      2272 1.39638E-04-5.40521E-05-3.67666E-05 1.13614E-05 1.57792E-18-2.93920E-19
 -1      2273 9.51431E-05-2.64942E-05-2.93686E-05-2.77991E-06-1.37592E-18-3.05370E-20
 -1      2274 9.47219E-05-2.68623E-05-2.90773E-05-1.68923E-06-1.20974E-18-1.68739E-19
 -1      2275 9.53508E-05-2.53006E-05-3.00240E-05-4.11535E-06-1.47259E-18-5.30419E-19
 -1      2276 9.45308E-05-2.71858E-05-2.88276E-05-7.94526E-07-1.10694E-18-1.33570E-19
 -1      2277 9.43293E-05-2.73979E-05-2.86777E-05-1.49434E-07-9.68149E-19-3.41244E-19
 -1      2278 9.50914E-05-2.66176E-05-2.93540E-05-1.68370E-06-1.23720E-18-4.51590E-19
 -1      2279 9.41997E-05-2.75701E-05-2.85350E-05 4.19701E-07-9.21499E-19-3.20193E-19
 -1      2280 9.41696E-05-2.77140E-05-2.84737E-05 8.12510E-07-8.53435E-19-2.69575E-19
 -1      2281 9.48373E-05-2.73230E-05-2.89446E-05-9.89597E-08-9.57808E-19-4.16074E-19
 -1      2282 9.41199E-05-2.78148E-05-2.84049E-05 1.17706E-06-9.43114E-19-4.81702E-19
 -1      2283 9.42129E-05-2.79247E-05-2.84019E-05 1.42805E-06-9.19251E-19-5.96294E-19
 -1      2284 9.47076E-05-2.77275E-05-2.87157E-05 9.25112E-07-1.09811E-18-5.25269E-19
 -1      2285 9.42341E-05-2.79881E-05-2.83849E-05 1.67280E-06-8.77729E-19-6.42590E-19
 -1      2286 9.44154E-05-2.80790E-05-2.84222E-05 1.85006E-06-6.33815E-19-9.11867E-19
 -1      2287 9.47126E-05-2.79699E-05-2.86135E-05 1.60337E-06-1.03721E-18-5.63130E-19
 -1      2288 9.44946E-05-2.81211E-05-2.84428E-05 2.03390E-06-3.12815E-19-9.01640E-19
 -1      2289 9.47432E-05-2.82016E-05-2.85096E-05 2.18197E-06-2.35178E-19-8.40197E-19
 -1      2290 9.48342E-05-2.81172E-05-2.86021E-05 2.08693E-06-6.03379E-19-7.13823E-19
 -1      2291 9.48707E-05-2.82318E-05-2.85585E-05 2.34614E-06-3.92091E-19-6.22563E-19
 -1      2292 9.51767E-05-2.83087E-05-2.86487E-05 2.49503E-06-4.61518E-19-6.33311E-19
 -1      2293 9.50533E-05-2.82063E-05-2.86576E-05 2.48179E-06-2.70990E-19-7.39411E-19
 -1      2294 9.53472E-05-2.83342E-05-2.87199E-05 2.66812E-06-4.06462E-19-5.77671E-19
 -1      2295 9.57087E-05-2.84148E-05-2.88304E-05 2.83745E-06-4.69164E-19-5.20445E-19
 -1      2296 9.53572E-05-2.82615E-05-2.87642E-05 2.86221E-06-4.44180E-19-2.69918E-19
 -1      2297 9.59219E-05-2.84434E-05-2.89198E-05 3.03791E-06-3.91707E-19-2.83718E-19
 -1      2298 9.63428E-05-2.85368E-05-2.90491E-05 3.23818E-06-1.11570E-19-9.58578E-20
 -1      2299 9.57426E-05-2.83041E-05-2.89113E-05 3.27834E-06-3.55863E-19 2.91003E-19
 -1      2300 9.66030E-05-2.85787E-05-2.91537E-05 3.47477E-06-9.87157E-20-6.18319E-20
 -1      2301 9.70904E-05-2.86966E-05-2.93007E-05 3.70664E-06 4.87536E-20-1.72653E-20
 -1      2302 9.62148E-05-2.83575E-05-2.90910E-05 3.75924E-06-3.83892E-20 8.03089E-19
 -1      2303 9.74067E-05-2.87658E-05-2.94175E-05 3.97728E-06-2.02891E-20-3.32121E-19
 -1      2304 9.79692E-05-2.89238E-05-2.95805E-05 4.22909E-06-3.15255E-19-6.18402E-19
 -1      2305 9.67887E-05-2.84524E-05-2.92963E-05 4.31217E-06-2.11548E-19-8.96276E-20
 -1      2306 9.83566E-05-2.90409E-05-2.97058E-05 4.51791E-06-6.22715E-19-6.64627E-19
 -1      2307 9.90020E-05-2.92594E-05-2.98814E-05 4.76142E-06-9.31081E-19-6.08110E-19
 -1      2308 9.74892E-05-2.86311E-05-2.95196E-05 4.91837E-06-5.66365E-19-8.80522E-19
 -1      2309 9.94828E-05-2.94535E-05-3.00101E-05 5.03406E-06-8.85747E-19-4.02323E-19
 -1      2310 1.00215E-04-2.97585E-05-3.01919E-05 5.21886E-06-5.66597E-19-4.08630E-19
 -1      2311 9.83544E-05-2.89535E-05-2.97515E-05 5.52533E-06-6.82937E-19-2.43649E-19
 -1      2312 1.00821E-04-3.00681E-05-3.03178E-05 5.41617E-06-4.13008E-19-6.59189E-20
 -1      2313 1.01637E-04-3.04885E-05-3.04961E-05 5.46421E-06-1.61074E-19 6.49419E-21
 -1      2314 9.94389E-05-2.95006E-05-2.99805E-05 6.03577E-06-4.56339E-19 3.10930E-19
 -1      2315 1.02408E-04-3.09586E-05-3.06129E-05 5.49541E-06 1.01704E-19-3.11059E-19
 -1      2316 1.03291E-04-3.15180E-05-3.07752E-05 5.29905E-06 2.20387E-19-4.97461E-19
 -1      2317 1.00816E-04-3.03725E-05-3.01947E-05 6.29465E-06-1.60982E-19 3.48198E-19
 -1      2318 1.04266E-04-3.21857E-05-3.08795E-05 5.03779E-06 2.01947E-19-3.94965E-19
 -1      2319 1.05174E-04-3.28816E-05-3.10127E-05 4.46921E-06 4.57160E-19-3.51941E-20
 -1      2320 1.02567E-04-3.16688E-05-3.03868E-05 6.07846E-06 3.78940E-19 7.29110E-20
 -1      2321 1.06367E-04-3.37423E-05-3.11095E-05 3.76105E-06 3.01375E-19-2.83863E-19
 -1      2322 1.07211E-04-3.45054E-05-3.12055E-05 2.70592E-06 2.77656E-19-1.89474E-19
 -1      2323 1.04756E-04-3.34345E-05-3.05632E-05 5.09795E-06 3.41832E-19 3.04783E-19
 -1      2324 1.08554E-04-3.54511E-05-3.13155E-05 1.40571E-06 5.62857E-19-2.61751E-19
 -1      2325 1.09178E-04-3.60906E-05-3.13785E-05-1.62455E-07 6.00123E-19-4.08900E-20
 -1      2326 1.07344E-04-3.55496E-05-3.07576E-05 3.04059E-06 4.59785E-19-2.97765E-19
 -1      2327 1.10442E-04-3.68341E-05-3.15427E-05-2.09305E-06 5.05579E-19 4.02824E-19
 -1      2328 1.10612E-04-3.70018E-05-3.15954E-05-3.99197E-06 4.84959E-19 3.78511E-19
 -1      2329 1.10054E-04-3.75668E-05-3.10445E-05-2.98514E-07 8.23888E-19-7.13863E-20
 -1      2330 1.11368E-04-3.70619E-05-3.18680E-05-6.30176E-06 2.74164E-19 6.96143E-19
 -1      2331 1.10837E-04-3.63294E-05-3.19468E-05-8.01896E-06 7.35033E-19 1.33025E-18
 -1      2332 1.12230E-04-3.85804E-05-3.15363E-05-4.73305E-06 5.49116E-19 9.04390E-19
 -1      2333 1.10589E-04-3.52264E-05-3.23589E-05-9.94933E-06 8.01296E-19 1.54305E-18
 -1      2334 1.09288E-04-3.34050E-05-3.24864E-05-1.06643E-05 5.51634E-19 1.45052E-18
 -1      2335 1.12878E-04-3.73948E-05-3.23389E-05-9.24091E-06 7.74986E-19 1.63396E-18
 -1      2336 1.07965E-04-3.11823E-05-3.29845E-05-1.10105E-05 6.46880E-20 6.64655E-19
 -1      2337 1.06270E-04-2.87867E-05-3.31406E-05-9.97518E-06 1.41640E-19 3.31733E-19
 -1      2338 1.11258E-04-3.32751E-05-3.34358E-05-1.17553E-05 1.58571E-19 8.64764E-19
 -1      2339 1.04710E-04-2.65113E-05-3.35690E-05-7.81229E-06 3.67589E-19 3.25951E-19
 -1      2340 1.03481E-04-2.48144E-05-3.36819E-05-5.09075E-06 1.09797E-19 1.80567E-19
 -1      2341 1.07974E-04-2.73222E-05-3.45946E-05-9.95028E-06 2.11464E-19 9.69052E-19
 -1      2342 1.02939E-04-2.39789E-05-3.38353E-05-9.54078E-07-2.44309E-19-4.75508E-19
 -1      2343 1.02972E-04-2.41475E-05-3.38249E-05 2.35382E-06-6.08878E-19-2.40858E-19
 -1      2344 1.05353E-04-2.29043E-05-3.53644E-05-3.35850E-06-2.40081E-19-5.02320E-19
 -1      2345 1.03975E-04-2.53977E-05-3.36110E-05 6.32973E-06-7.98421E-19-5.57783E-19
 -1      2346 1.05262E-04-2.73252E-05-3.34851E-05 8.70281E-06-7.92724E-19-4.44586E-19
 -1      2347 1.05634E-04-2.31796E-05-3.53278E-05 5.06055E-06-7.13400E-19-4.23063E-19
 -1      2348 1.06905E-04-2.96868E-05-3.30302E-05 1.04907E-05-5.80353E-19-8.07330E-19
 -1      2349 1.08626E-04-3.20867E-05-3.28742E-05 1.11124E-05-1.37597E-19-3.56182E-19
 -1      2350 1.08581E-04-2.80216E-05-3.44981E-05 1.07978E-05-7.32147E-19-6.64322E-19
 -1      2351 1.09677E-04-3.40845E-05-3.23836E-05 1.04029E-05 5.10883E-20-1.00175E-19
 -1      2352 1.10963E-04-3.57500E-05-3.22656E-05 9.47501E-06 2.74871E-19 5.11304E-19
 -1      2353 1.11716E-04-3.39783E-05-3.33136E-05 1.16205E-05-2.87197E-21-1.23123E-18
 -1      2354 1.10887E-04-3.65789E-05-3.18805E-05 7.32271E-06 3.51750E-20 7.82157E-19
 -1      2355 1.11370E-04-3.71276E-05-3.18123E-05 5.61761E-06 2.27107E-19 1.05238E-18
 -1      2356 1.12946E-04-3.78151E-05-3.22261E-05 8.49678E-06 5.16657E-19-9.41464E-19
 -1      2357 1.10424E-04-3.68973E-05-3.15670E-05 3.24635E-06-3.08565E-19 1.23450E-18
 -1      2358 1.10200E-04-3.66043E-05-3.15196E-05 1.48828E-06-5.26934E-19 1.61834E-18
 -1      2359 1.11955E-04-3.86431E-05-3.14621E-05 3.86653E-06 1.23824E-19-2.18795E-19
 -1      2360 1.08886E-04-3.58058E-05-3.13733E-05-4.04833E-07-1.15547E-18 1.27286E-18
 -1      2361 1.08222E-04-3.51091E-05-3.13111E-05-1.79626E-06-5.79440E-19 3.88527E-19
 -1      2362 1.09620E-04-3.73649E-05-3.10090E-05-3.82813E-07-1.09909E-18 3.88182E-19
 -1      2363 1.06917E-04-3.41815E-05-3.12112E-05-3.01308E-06 2.00823E-19-5.70634E-19
 -1      2364 1.06056E-04-3.34109E-05-3.11156E-05-3.91003E-06 1.04997E-19-9.85081E-19
 -1      2365 1.06905E-04-3.52332E-05-3.07485E-05-3.43042E-06-7.47982E-19-6.29468E-20
 -1      2366 1.04936E-04-3.25964E-05-3.10254E-05-4.52488E-06-4.54196E-19-5.63712E-19
 -1      2367 1.04035E-04-3.19178E-05-3.08953E-05-4.97181E-06-3.93603E-19-3.99740E-19
 -1      2368 1.04400E-04-3.31156E-05-3.05707E-05-5.20198E-06-1.25664E-19-9.39121E-19
 -1      2369 1.03136E-04-3.12977E-05-3.07976E-05-5.14322E-06-3.70285E-19-3.29792E-19
 -1      2370 1.02281E-04-3.07642E-05-3.06431E-05-5.25233E-06-7.10573E-20-9.74475E-20
 -1      2371 1.02323E-04-3.13966E-05-3.04077E-05-5.94357E-06-6.62187E-20-8.63919E-19
 -1      2372 1.01580E-04-3.03329E-05-3.05349E-05-5.13806E-06-6.12103E-20 3.91870E-19
 -1      2373 1.00810E-04-2.99398E-05-3.03695E-05-5.02768E-06-2.54487E-19-6.39419E-19
 -1      2374 1.00684E-04-3.01571E-05-3.02304E-05-5.96916E-06-2.44838E-19-7.13734E-19
 -1      2375 1.00267E-04-2.96585E-05-3.02551E-05-4.75277E-06-1.62040E-19-1.07723E-18
 -1      2376 9.95967E-05-2.93799E-05-3.00914E-05-4.52019E-06 1.60067E-19-1.74789E-18
 -1      2377 9.94149E-05-2.93348E-05-3.00355E-05-5.55570E-06-4.05307E-19-7.50476E-19
 -1      2378 9.91729E-05-2.92058E-05-2.99773E-05-4.17289E-06 3.61950E-19-1.79538E-18
 -1      2379 9.86049E-05-2.90133E-05-2.98244E-05-3.88786E-06-1.85640E-19-1.53701E-18
 -1      2380 9.84333E-05-2.88262E-05-2.98312E-05-4.91199E-06-2.36905E-19-9.99780E-19
 -1      2381 9.82718E-05-2.89109E-05-2.97163E-05-3.52533E-06-4.11695E-19-1.68426E-18
 -1      2382 9.78004E-05-2.87803E-05-2.95800E-05-3.23284E-06-3.85374E-19-6.20857E-19
 -1      2383 9.76697E-05-2.85336E-05-2.96288E-05-4.18130E-06-3.37428E-19-1.43652E-18
 -1      2384 9.75373E-05-2.87234E-05-2.94819E-05-2.88890E-06-7.19514E-19-3.48127E-19
 -1      2385 9.71536E-05-2.86359E-05-2.93647E-05-2.61490E-06-2.68711E-19-3.11194E-19
 -1      2386 9.70723E-05-2.83809E-05-2.94383E-05-3.45409E-06-3.19370E-19-4.74444E-19
 -1      2387 9.69454E-05-2.86067E-05-2.92790E-05-2.30704E-06 2.03141E-19 2.91731E-19
 -1      2388 9.66388E-05-2.85486E-05-2.91814E-05-2.06416E-06 6.17094E-19 1.81965E-20
 -1      2389 9.66034E-05-2.83134E-05-2.92665E-05-2.78199E-06-1.74014E-20-3.56998E-19
 -1      2390 9.64743E-05-2.85352E-05-2.91089E-05-1.79901E-06 1.14950E-18-1.51232E-19
 -1      2391 9.62336E-05-2.84966E-05-2.90299E-05-1.59111E-06 2.05476E-18-3.30376E-19
 -1      2392 9.62351E-05-2.82945E-05-2.91171E-05-2.18966E-06 8.05248E-19 4.81550E-19
 -1      2393 9.61039E-05-2.84909E-05-2.89704E-05-1.36858E-06 1.14460E-18-4.20814E-19
 -1      2394 9.59183E-05-2.84648E-05-2.89082E-05-1.19405E-06 1.23132E-18-1.15883E-18
 -1      2395 9.59465E-05-2.82997E-05-2.89915E-05-1.68405E-06 1.16894E-18-2.69029E-19
 -1      2396 9.58150E-05-2.84605E-05-2.88606E-05-1.00956E-06 2.11071E-18-1.47861E-18
 -1      2397 9.56752E-05-2.84437E-05-2.88130E-05-8.61974E-07 7.51552E-19-1.17782E-18
 -1      2398 9.57195E-05-2.83122E-05-2.88888E-05-1.26276E-06 8.89638E-19-1.38928E-18
 -1      2399 9.55946E-05-2.84405E-05-2.87759E-05-7.13923E-07 3.19536E-20 6.76292E-19
 -1      2400 9.54906E-05-2.84257E-05-2.87404E-05-5.89592E-07 4.79793E-19 1.26441E-18
 -1      2401 9.55426E-05-2.83320E-05-2.88076E-05-9.07743E-07 1.35763E-18-5.46236E-19
 -1      2402 5.71124E-05-3.72226E-05-8.42687E-06 4.07310E-05-1.25276E-18 1.85140E-18
 -1      2403 4.23411E-05-3.01004E-05-4.94962E-06 3.36672E-05-2.58917E-18 3.68565E-18
 -1      2404 9.35306E-05-2.76693E-05-2.82161E-05-7.22063E-07 7.21482E-19 5.27684E-19
 -1      2405 9.35478E-05-2.75583E-05-2.82562E-05-3.86924E-07 8.45143E-19 7.87565E-19
 -1      2406 9.36198E-05-2.78456E-05-2.81804E-05-1.26875E-06 4.76106E-19 3.25878E-19
 -1      2407 9.34884E-05-2.77441E-05-2.81622E-05-1.06083E-06 6.26547E-19 4.74498E-19
 -1      2408 9.42115E-05-2.77440E-05-2.84990E-05-8.68236E-07 6.99291E-19 1.50123E-19
 -1      2409 9.39076E-05-2.80014E-05-2.82374E-05-1.63425E-06 7.42789E-19 1.73625E-19
 -1      2410 9.36746E-05-2.79039E-05-2.81799E-05-1.49075E-06 5.75714E-19 3.12200E-19
 -1      2411 9.42477E-05-2.79444E-05-2.84258E-05-1.49803E-06 6.77220E-19-6.51239E-21
 -1      2412 9.43455E-05-2.81485E-05-2.83617E-05-1.91973E-06 6.93589E-19 2.29694E-19
 -1      2413 9.40368E-05-2.80520E-05-2.82752E-05-1.79962E-06 7.63721E-19 2.81605E-19
 -1      2414 9.44431E-05-2.80864E-05-2.84465E-05-1.93772E-06 7.02876E-19-1.76733E-19
 -1      2415 9.49084E-05-2.82942E-05-2.85396E-05-2.19583E-06 3.58069E-19 4.06642E-19
 -1      2416 9.45344E-05-2.81955E-05-2.84289E-05-2.07031E-06 6.13664E-19 3.03353E-19
 -1      2417 9.47642E-05-2.81938E-05-2.85366E-05-2.29662E-06 5.66734E-19 2.40923E-19
 -1      2418 9.55896E-05-2.84465E-05-2.87648E-05-2.51391E-06 6.55809E-19 9.72407E-20
 -1      2419 9.51497E-05-2.83411E-05-2.86313E-05-2.36189E-06 5.04518E-19 2.18396E-19
 -1      2420 9.51911E-05-2.82809E-05-2.86814E-05-2.65248E-06 5.59491E-19 2.41233E-19
 -1      2421 9.63967E-05-2.86159E-05-2.90364E-05-2.91115E-06 9.05439E-19-2.19743E-19
 -1      2422 9.58824E-05-2.84970E-05-2.88788E-05-2.71747E-06 9.60450E-19 5.03969E-20
 -1      2423 9.57172E-05-2.83595E-05-2.88729E-05-3.06186E-06 1.01318E-18-1.03257E-19
 -1      2424 9.73475E-05-2.88166E-05-2.93561E-05-3.41171E-06 2.82115E-19-9.81874E-20
 -1      2425 9.67448E-05-2.86754E-05-2.91719E-05-3.16720E-06 7.00679E-19-9.36272E-20
 -1      2426 9.63469E-05-2.84428E-05-2.91071E-05-3.56491E-06 6.56971E-19-1.69246E-20
 -1      2427 9.84666E-05-2.90689E-05-2.97262E-05-4.02396E-06 1.45490E-19-2.93755E-19
 -1      2428 9.77589E-05-2.88931E-05-2.95129E-05-3.72744E-06 3.14759E-20-2.53662E-19
 -1      2429 9.70930E-05-2.85491E-05-2.93816E-05-4.18585E-06 1.86928E-19 1.20047E-19
 -1      2430 9.97826E-05-2.94025E-05-3.01470E-05-4.73317E-06 1.86782E-19-3.51027E-19
 -1      2431 9.89532E-05-2.91754E-05-2.99033E-05-4.39588E-06 4.28184E-19-2.06399E-19
 -1      2432 9.79772E-05-2.87059E-05-2.96938E-05-4.92936E-06 9.37419E-20-2.75891E-19
 -1      2433 1.01325E-04-2.98615E-05-3.06131E-05-5.48821E-06-1.62269E-19-5.39182E-19
 -1      2434 1.00361E-04-2.95596E-05-3.03414E-05-5.14144E-06-1.55761E-19-3.15634E-19
 -1      2435 9.90302E-05-2.89571E-05-3.00383E-05-5.77186E-06 1.52831E-19-3.27219E-19
 -1      2436 1.03121E-04-3.05098E-05-3.11106E-05-6.18123E-06 2.58431E-19-4.28613E-19
 -1      2437 1.02020E-04-3.01019E-05-3.08188E-05-5.88745E-06 1.57827E-19-5.25440E-19
 -1      2438 1.00297E-04-2.93723E-05-3.04047E-05-6.64653E-06-3.00593E-20-4.29042E-19
 -1      2439 1.05192E-04-3.14346E-05-3.16131E-05-6.62102E-06-1.63467E-19 7.61933E-20
 -1      2440 1.03968E-04-3.08827E-05-3.13175E-05-6.48743E-06 1.08149E-19-6.52199E-20
 -1      2441 1.01842E-04-3.00570E-05-3.07764E-05-7.42104E-06-3.31927E-21-4.47734E-19
 -1      2442 1.07544E-04-3.27346E-05-3.20822E-05-6.50711E-06-1.09177E-18 5.97296E-19
 -1      2443 1.06244E-04-3.20052E-05-3.18084E-05-6.69551E-06-4.64939E-19 6.09695E-19
 -1      2444 1.03759E-04-3.11575E-05-3.11315E-05-7.86869E-06-8.30084E-19 1.87162E-19
 -1      2445 1.10136E-04-3.44671E-05-3.24750E-05-5.42723E-06-7.56281E-19 4.07357E-19
 -1      2446 1.08858E-04-3.35668E-05-3.22549E-05-6.14406E-06-1.12631E-18 5.98602E-19
 -1      2447 1.06168E-04-3.28377E-05-3.14503E-05-7.63905E-06-1.21497E-18 9.74169E-19
 -1      2448 1.12804E-04-3.65186E-05-3.27646E-05-2.93512E-06-6.66956E-19 4.79002E-19
 -1      2449 1.11734E-04-3.55659E-05-3.26264E-05-4.36935E-06-6.20237E-19 4.47902E-19
 -1      2450 1.09158E-04-3.51799E-05-3.17336E-05-6.25447E-06-7.36450E-19 8.94603E-19
 -1      2451 1.15139E-04-3.83986E-05-3.29745E-05 1.21056E-06 1.21377E-19 9.71155E-19
 -1      2452 1.14578E-04-3.77195E-05-3.29240E-05-9.62218E-07-1.41852E-19 5.82913E-19
 -1      2453 1.12654E-04-3.79770E-05-3.20317E-05-3.20350E-06-4.92751E-19 4.34660E-19
 -1      2454 1.16387E-04-3.90674E-05-3.32071E-05 6.59151E-06-2.36137E-19 1.81376E-18
 -1      2455 1.16715E-04-3.92363E-05-3.32102E-05 4.05969E-06 5.72045E-20 1.39467E-18
 -1      2456 1.16158E-04-4.04090E-05-3.24737E-05 1.76530E-06-2.54161E-19 1.40110E-18
 -1      2457 1.15563E-04-3.71181E-05-3.36289E-05 1.15588E-05-8.75315E-19 2.21349E-18
 -1      2458 1.17060E-04-3.87555E-05-3.36098E-05 9.65971E-06-8.27078E-19 1.82507E-18
 -1      2459 1.18540E-04-4.09124E-05-3.32576E-05 8.05306E-06-7.39988E-19 2.24778E-18
 -1      2460 1.12322E-04-3.21423E-05-3.43111E-05 1.29723E-05 4.54698E-19 1.72338E-18
 -1      2461 1.14604E-04-3.50108E-05-3.42325E-05 1.31445E-05-4.01461E-19 2.15044E-18
 -1      2462 1.18163E-04-3.74979E-05-3.45405E-05 1.33940E-05-3.85347E-19 1.50908E-18
 -1      2463 1.08316E-04-2.64866E-05-3.50236E-05 8.33984E-06 1.24485E-18 1.30037E-18
 -1      2464 1.10243E-04-2.90480E-05-3.49310E-05 1.12805E-05 1.06553E-18 1.72195E-18
 -1      2465 1.14777E-04-3.06171E-05-3.61212E-05 1.37571E-05 8.59633E-19 1.38571E-18
 -1      2466 1.06741E-04-2.43484E-05-3.53534E-05-1.11616E-06 1.92488E-18 7.94378E-19
 -1      2467 1.06996E-04-2.46705E-05-3.53395E-05 3.39229E-06 1.54636E-18 1.12621E-18
 -1      2468 1.10931E-04-2.41484E-05-3.73239E-05 6.83551E-06 1.68991E-18 1.35372E-18
 -1      2469 1.09278E-04-2.77564E-05-3.50645E-05-9.98778E-06 5.28826E-19 1.05020E-18
 -1      2470 1.07647E-04-2.55332E-05-3.51501E-05-6.52319E-06 1.54081E-18 6.24713E-19
 -1      2471 1.10425E-04-2.32800E-05-3.74759E-05-4.46370E-06 1.82713E-18 4.19688E-19
 -1      2472 1.13732E-04-3.37678E-05-3.43884E-05-1.33030E-05-8.47231E-20 6.53909E-19
 -1      2473 1.11403E-04-3.08063E-05-3.44763E-05-1.25153E-05-4.68515E-20 9.01660E-19
 -1      2474 1.13825E-04-2.88939E-05-3.64459E-05-1.28794E-05 4.86620E-19 3.59235E-19
 -1      2475 1.16776E-04-3.81776E-05-3.37435E-05-1.07908E-05 6.63068E-20 4.27623E-19
 -1      2476 1.15035E-04-3.62362E-05-3.37674E-05-1.23012E-05 1.31611E-19 5.68716E-19
 -1      2477 1.17638E-04-3.61695E-05-3.48857E-05-1.40529E-05-1.70426E-19-4.48848E-19
 -1      2478 1.17047E-04-3.93500E-05-3.33023E-05-5.41711E-06 8.99910E-19-1.37119E-19
 -1      2479 1.16437E-04-3.88931E-05-3.32950E-05-7.84947E-06 9.12175E-19 6.32562E-19
 -1      2480 1.18753E-04-4.04868E-05-3.35188E-05-9.50695E-06 1.26127E-19-5.41707E-19
 -1      2481 1.15225E-04-3.81614E-05-3.30083E-05-1.22985E-07-4.70206E-19-3.62044E-19
 -1      2482 1.15593E-04-3.87015E-05-3.30385E-05-2.36314E-06 7.02111E-20 2.98592E-19
 -1      2483 1.16896E-04-4.07776E-05-3.26307E-05-3.16974E-06 5.32489E-19-4.48880E-19
 -1      2484 1.12474E-04-3.60544E-05-3.27311E-05 3.66195E-06-4.96282E-19 7.80572E-19
 -1      2485 1.13436E-04-3.69721E-05-3.28439E-05 2.11103E-06-6.06370E-19 3.75035E-19
 -1      2486 1.13524E-04-3.86100E-05-3.21373E-05 2.18944E-06-7.99553E-19 3.80858E-19
 -1      2487 1.09598E-04-3.39863E-05-3.23907E-05 5.74590E-06 3.65415E-19 1.01427E-18
 -1      2488 1.10823E-04-3.48978E-05-3.25878E-05 4.92129E-06-1.38272E-20 1.09643E-18
 -1      2489 1.09972E-04-3.57756E-05-3.18325E-05 5.62880E-06-3.99411E-19 1.15619E-18
 -1      2490 1.06960E-04-3.23314E-05-3.19753E-05 6.49153E-06 1.20333E-18 1.98678E-18
 -1      2491 1.08236E-04-3.30862E-05-3.22309E-05 6.22750E-06 1.02573E-18 1.16733E-18
 -1      2492 1.06883E-04-3.32920E-05-3.15654E-05 7.29397E-06 7.14395E-19 1.84930E-18
 -1      2493 1.04670E-04-3.11298E-05-3.15123E-05 6.36838E-06-5.88088E-20 3.04399E-18
 -1      2494 1.05878E-04-3.17059E-05-3.17935E-05 6.46272E-06 7.81949E-19 2.74670E-18
 -1      2495 1.04392E-04-3.14678E-05-3.12713E-05 7.68125E-06 7.46169E-19 2.70120E-18
 -1      2496 1.02730E-04-3.02963E-05-3.10395E-05 5.76768E-06-7.51080E-21 2.51572E-18
 -1      2497 1.03812E-04-3.07206E-05-3.13184E-05 6.05394E-06 4.03040E-20 2.33739E-18
 -1      2498 1.02426E-04-3.02549E-05-3.09427E-05 7.28431E-06 1.17015E-19 1.56568E-18
 -1      2499 1.01108E-04-2.97274E-05-3.05890E-05 4.96066E-06 6.81120E-19 1.52040E-18
 -1      2500 1.02042E-04-3.00360E-05-3.08468E-05 5.32465E-06 4.53098E-19 2.89449E-18
 -1      2501 1.00870E-04-2.94966E-05-3.05972E-05 6.47986E-06 6.29524E-19 2.46652E-18
 -1      2502 9.97685E-05-2.93388E-05-3.01817E-05 4.11395E-06-7.09753E-19 1.84416E-18
 -1      2503 1.00551E-04-2.95628E-05-3.04084E-05 4.48666E-06 5.52338E-19 1.88825E-18
 -1      2504 9.96255E-05-2.90408E-05-3.02573E-05 5.51906E-06 4.01155E-19 3.14677E-18
 -1      2505 9.86757E-05-2.90712E-05-2.98282E-05 3.31885E-06-2.09757E-18 1.86119E-18
 -1      2506 9.93165E-05-2.92339E-05-3.00201E-05 3.66353E-06-2.71234E-18 1.78133E-18
 -1      2507 9.86230E-05-2.87743E-05-2.99409E-05 4.55300E-06-1.68773E-18 2.71091E-18
 -1      2508 9.77958E-05-2.88849E-05-2.95310E-05 2.61787E-06-7.37142E-19 2.24642E-18
 -1      2509 9.83099E-05-2.90032E-05-2.96888E-05 2.91838E-06-5.93736E-19 1.74113E-18
 -1      2510 9.78146E-05-2.86216E-05-2.96593E-05 3.66297E-06-1.11808E-18 1.65664E-18
 -1      2511 9.70974E-05-2.87541E-05-2.92879E-05 2.02414E-06-8.11521E-19 2.63413E-18
 -1      2512 9.75022E-05-2.88399E-05-2.94145E-05 2.27653E-06-1.06961E-18 2.07254E-18
 -1      2513 9.71656E-05-2.85359E-05-2.94174E-05 2.88531E-06-1.11069E-18 2.04629E-18
 -1      2514 9.65512E-05-2.86612E-05-2.90937E-05 1.53424E-06 6.92611E-19 2.69217E-18
 -1      2515 9.68642E-05-2.87235E-05-2.91929E-05 1.74132E-06 3.30820E-19 2.91334E-18
 -1      2516 9.66490E-05-2.84887E-05-2.92157E-05 2.22916E-06-8.67223E-19 9.92332E-19
 -1      2517 9.61305E-05-2.85940E-05-2.89423E-05 1.13608E-06 4.87363E-19 3.72401E-18
 -1      2518 9.63680E-05-2.86394E-05-2.90182E-05 1.30413E-06 5.10272E-19 3.40591E-18
 -1      2519 9.62420E-05-2.84625E-05-2.90520E-05 1.68833E-06 2.56316E-19 2.26156E-18
 -1      2520 9.58119E-05-2.85444E-05-2.88271E-05 8.12372E-07 4.66711E-19 4.81302E-18
 -1      2521 9.59875E-05-2.85768E-05-2.88837E-05 9.49634E-07 1.57936E-19 4.64228E-18
 -1      2522 9.59236E-05-2.84459E-05-2.89223E-05 1.24977E-06-1.68417E-19 3.22696E-18
 -1      2523 9.55754E-05-2.85071E-05-2.87420E-05 5.48514E-07-7.06453E-19 5.46566E-18
 -1      2524 9.57024E-05-2.85305E-05-2.87827E-05 6.62259E-07 9.03900E-20 5.34824E-18
 -1      2525 9.56786E-05-2.84358E-05-2.88224E-05 8.92899E-07-2.43449E-19 4.94630E-18
 -1      2526 9.54025E-05-2.84792E-05-2.86799E-05 3.32931E-07-4.18374E-19 6.37330E-18
 -1      2527 9.54924E-05-2.84954E-05-2.87087E-05 4.27973E-07-9.79726E-19 5.25393E-18
 -1      2528 9.54932E-05-2.84279E-05-2.87463E-05 5.99606E-07-3.21791E-19 4.87504E-18
 -1      2529 9.53399E-05-2.84785E-05-2.86525E-05 2.26656E-07 1.28921E-18 6.50056E-18
 -1      2530 9.48870E-05-2.76953E-05-2.87995E-05 5.15187E-07-5.55997E-20-2.28051E-18
 -1      2531 9.49511E-05-2.77845E-05-2.87845E-05 5.54040E-07-7.99783E-19-4.01765E-18
 -1      2532 9.47783E-05-2.75397E-05-2.88197E-05 3.69865E-07-5.33622E-19-2.56774E-18
 -1      2533 9.48259E-05-2.76061E-05-2.88085E-05 4.43339E-07-5.90872E-20-1.75395E-18
 -1      2534 9.47991E-05-2.75766E-05-2.88074E-05 5.62928E-07-5.67817E-19-1.82233E-18
 -1      2535 9.51705E-05-2.81110E-05-2.87417E-05 5.55054E-07-8.48570E-19 1.56995E-18
 -1      2536 9.52394E-05-2.82111E-05-2.87236E-05 5.15164E-07-8.30483E-19 2.76302E-18
 -1      2537 9.50274E-05-2.78965E-05-2.87729E-05 5.79910E-07-2.19298E-18-3.59650E-18
 -1      2538 9.50965E-05-2.79945E-05-2.87558E-05 5.75290E-07-2.14875E-18 2.71229E-19
 -1      2539 9.51296E-05-2.80130E-05-2.87654E-05 6.73403E-07-8.86096E-19 5.54740E-20
 -1      2540 9.49612E-05-2.77821E-05-2.87893E-05 6.71411E-07-1.73975E-18-2.48059E-18
 -1      2541 9.47144E-05-2.74483E-05-2.88311E-05 1.68412E-07-1.10854E-18-1.63417E-18
 -1      2542 9.47391E-05-2.74829E-05-2.88253E-05 2.64302E-07-3.60836E-19-2.67983E-18
 -1      2543 9.46806E-05-2.74272E-05-2.88200E-05 3.70798E-07-7.53980E-19-2.28587E-18
 -1      2544 9.47030E-05-2.74319E-05-2.88325E-05-5.77456E-08-5.35230E-19-3.12822E-18
 -1      2545 9.47019E-05-2.74304E-05-2.88328E-05 4.53839E-08-1.07625E-18-1.96187E-18
 -1      2546 9.46194E-05-2.73509E-05-2.88262E-05 1.24115E-07-6.92992E-19-1.88942E-18
 -1      2547 9.47450E-05-2.74920E-05-2.88238E-05-2.74122E-07 6.69436E-19 4.18217E-19
 -1      2548 9.47184E-05-2.74547E-05-2.88301E-05-1.79754E-07 9.71013E-19-9.38363E-19
 -1      2549 9.46227E-05-2.73560E-05-2.88255E-05-1.39939E-07 8.76589E-19-5.50070E-19
 -1      2550 9.48327E-05-2.76177E-05-2.88064E-05-4.45573E-07 9.83756E-19-7.12812E-19
 -1      2551 9.47852E-05-2.75513E-05-2.88177E-05-3.75391E-07 4.77103E-19-6.76214E-19
 -1      2552 9.46888E-05-2.74403E-05-2.88180E-05-3.80625E-07 2.03778E-18-3.69865E-19
 -1      2553 9.49576E-05-2.77975E-05-2.87817E-05-5.51579E-07 5.03552E-19-1.42498E-18
 -1      2554 9.48941E-05-2.77083E-05-2.87969E-05-5.14514E-07 6.28077E-19-2.30696E-18
 -1      2555 9.48085E-05-2.75933E-05-2.88044E-05-5.64915E-07 1.42020E-18-1.93262E-18
 -1      2556 9.51014E-05-2.80078E-05-2.87524E-05-5.71807E-07 2.45790E-18 7.79021E-19
 -1      2557 9.50315E-05-2.79082E-05-2.87697E-05-5.75458E-07 1.39232E-18 4.51990E-19
 -1      2558 9.49680E-05-2.77990E-05-2.87854E-05-6.66810E-07 1.73841E-18-3.90498E-19
 -1      2559 9.52410E-05-2.82227E-05-2.87199E-05-5.03316E-07-6.55172E-20 2.97750E-19
 -1      2560 9.51772E-05-2.81254E-05-2.87382E-05-5.47440E-07 1.52070E-18-5.74084E-20
 -1      2561 9.51430E-05-2.80312E-05-2.87618E-05-6.69040E-07 1.31064E-18 1.39843E-19
 -1      2562 9.53058E-05-2.83943E-05-2.86743E-05-3.14757E-07-4.83401E-19 1.36988E-18
 -1      2563 1.28852E-04-5.84372E-05-3.05336E-05 2.46785E-05 1.90582E-20 8.68950E-19
 -1      2564 1.14032E-04-5.72348E-05-2.43228E-05 3.14531E-05-7.22096E-19 1.14604E-18
 -1      2565 9.37137E-05-2.74438E-05-2.83877E-05 1.59161E-07 1.04523E-18 8.24680E-19
 -1      2566 9.39539E-05-2.73049E-05-2.85197E-05 7.27257E-07 1.32333E-18 1.11214E-18
 -1      2567 9.43786E-05-2.74345E-05-2.87053E-05 1.11946E-07 1.11103E-18 3.73568E-19
 -1      2568 9.76770E-05-5.27537E-05-1.93090E-05 4.00375E-05-8.19081E-19 1.27576E-18
 -1      2569 7.74238E-05-4.64783E-05-1.31626E-05 4.06082E-05-5.06526E-19 9.30783E-19
 -1      2570 1.10855E-04-5.68481E-05-2.28372E-05 3.25506E-05-1.02491E-18 9.86846E-19
 -1      2571 3.41236E-05-2.78860E-05-2.57778E-06-3.06020E-05 1.24471E-18 2.51399E-18
 -1      2572 4.97891E-05-3.44123E-05-6.60483E-06-4.00481E-05 2.39287E-18 2.17010E-18
 -1      2573 1.89442E-05-1.83177E-05 1.85904E-08-9.20226E-06-8.27657E-19 1.74192E-18
 -1      2574 2.36929E-05-2.13909E-05-8.07304E-07-2.09188E-05-1.43572E-19 2.22389E-18
 -1      2575 1.46403E-04-2.20961E-05-5.36223E-05 5.13696E-06-2.59023E-18-2.54237E-18
 -1      2576 1.45258E-04-1.52880E-05-5.62911E-05 5.07857E-06-3.28310E-18-2.31769E-18
 -1      2577 1.14730E-04-5.63205E-05-2.52281E-05 3.42522E-05-2.13558E-18-2.03976E-18
 -1      2578 9.63061E-05-5.24211E-05-1.87035E-05 3.87996E-05-1.56616E-18-2.40931E-18
 -1      2579 2.28032E-05-2.17001E-05-3.27111E-07-1.67930E-05-1.58692E-18-4.81559E-18
 -1      2580 3.45038E-05-2.55422E-05-3.69195E-06-2.93895E-05-1.36521E-18-4.01261E-18
 -1      2581 8.78629E-05-1.06813E-05-3.31138E-05-1.48959E-06 2.27787E-19-3.04569E-18
 -1      2582 8.79703E-05-1.08079E-05-3.31037E-05-2.59168E-06-6.43877E-20-3.09994E-18
 -1      2583 8.93522E-05-1.29524E-05-3.27441E-05-2.86631E-06-1.31151E-19-2.92645E-18
 -1      2584 8.90967E-05-1.26033E-05-3.27853E-05-9.19350E-07 2.29755E-19-2.90541E-18
 -1      2585 1.45154E-04-1.32329E-05-5.68940E-05 4.64093E-06 4.61379E-18 2.15115E-18
 -1      2586 1.46710E-04-1.22304E-05-5.80299E-05 1.87885E-07 4.96446E-18 1.63080E-18
 -1      2587 1.39663E-04-5.30342E-05-3.75288E-05 1.36142E-05-3.14397E-18-1.38003E-18
 -1      2588 1.28756E-04-5.63445E-05-3.10383E-05 2.19269E-05-2.88457E-18-1.48527E-18
 -1      2589 1.48500E-04-3.09011E-05-5.05612E-05 6.27187E-06 3.24011E-18 1.47680E-18
 -1      2590 1.47230E-04-2.14549E-05-5.45163E-05 7.38932E-06 4.18392E-18 2.56355E-18
 -1      2591 1.44721E-04-4.97637E-05-4.08206E-05-7.89118E-06 4.85006E-19-1.09458E-18
 -1      2592 1.49236E-04-4.34028E-05-4.59828E-05-5.47368E-07 1.65182E-18-5.86570E-20
 -1      2593 1.25808E-04-5.72922E-05-2.93758E-05-2.48736E-05-5.66665E-19-2.29800E-18
 -1      2594 1.38674E-04-5.51365E-05-3.60659E-05-1.84896E-05-1.65171E-20-2.21499E-18
 -1      2595 1.41467E-04-5.52779E-05-3.68289E-05-6.53623E-06-2.43098E-19-3.21873E-19
 -1      2596 8.82095E-05-5.06097E-05-1.60978E-05-3.96841E-05-1.36753E-18-2.42214E-18
 -1      2597 1.08579E-04-5.54096E-05-2.29731E-05-3.68132E-05-6.31463E-19-3.03990E-18
 -1      2598 5.61069E-05-3.64072E-05-8.17744E-06-3.90327E-05-1.90815E-18-3.31910E-18
 -1      2599 7.22230E-05-4.38730E-05-1.20018E-05-4.27667E-05-1.31989E-18-2.87144E-18
 -1      2600 8.90279E-05-4.91744E-05-1.68152E-05-3.94286E-05-1.90921E-18-2.16052E-18
 -1      2601 1.80374E-05-1.81364E-05 2.21467E-07 6.96509E-06-2.20758E-19-6.14692E-18
 -1      2602 1.77658E-05-1.89964E-05 6.73681E-07-6.32028E-06-9.36977E-19-5.58110E-18
 -1      2603 2.66208E-05-1.68891E-05-3.67463E-06-1.22657E-05-1.14498E-18-4.85477E-18
 -1      2604 7.92170E-05-4.54659E-05-1.42983E-05 4.34544E-05-1.15938E-18-3.09702E-18
 -1      2605 6.38881E-05-3.87631E-05-1.04327E-05 4.09537E-05-2.54957E-19-2.60791E-18
 -1      2606 1.41389E-04-1.05364E-05-5.65086E-05 1.66925E-06-4.31860E-18-1.20835E-18
 -1      2607 1.38506E-04-1.00378E-05-5.56008E-05-2.61450E-06-4.74931E-18-9.78429E-19
 -1      2608 1.45255E-04-3.81090E-05-4.65113E-05-2.58692E-06-4.67054E-18 2.68086E-19
 -1      2609 1.42879E-04-4.53425E-05-4.20294E-05 2.02813E-06-3.71652E-18-5.09914E-19
 -1      2610 1.04682E-04-5.41813E-05-2.16166E-05-3.63891E-05 2.85662E-18 1.54192E-18
 -1      2611 1.20423E-04-5.63764E-05-2.78149E-05-3.11672E-05 1.47617E-18-8.07328E-19
 -1      2612 1.42098E-04-1.80063E-05-5.38850E-05-7.10015E-06-5.11227E-18 5.08220E-21
 -1      2613 1.43884E-04-2.71309E-05-5.04069E-05-6.57199E-06-5.05107E-18 1.93547E-19
 -1      2614 1.38397E-04-3.29191E-05-4.53740E-05-1.01124E-05-3.96358E-18 1.43911E-18
 -1      2615 1.46040E-04-3.89564E-05-4.61666E-05-7.28953E-07-9.89546E-19-3.04974E-18
 -1      2616 1.48489E-04-3.20478E-05-5.03872E-05 2.67448E-06-1.87724E-18-3.15901E-18
 -1      2617 1.34068E-04-5.41409E-05-3.42803E-05-1.68874E-05 6.76779E-19-2.35814E-18
 -1      2618 1.44223E-04-4.86657E-05-4.12996E-05-9.27665E-06-4.11076E-19-3.62064E-18
 -1      2619 7.08668E-05-4.38893E-05-1.14555E-05-4.18308E-05 2.93391E-18 2.96816E-18
 -1      2620 8.87271E-05-4.93458E-05-1.69338E-05-4.27970E-05 3.02052E-18 3.48374E-18
 -1      2621 1.02536E-04-5.39461E-05-2.05062E-05-3.72777E-05 3.60074E-18 1.80243E-18
 -1      2622 1.48620E-04-3.26910E-05-5.02056E-05-6.03244E-06 2.56355E-18-9.22207E-19
 -1      2623 1.48852E-04-4.07054E-05-4.66604E-05-2.09334E-06 2.91612E-18-6.73391E-19
 -1      2624 1.44225E-04-4.63034E-05-4.20348E-05-4.27092E-06 2.18307E-18-1.49798E-18
 -1      2625 9.62730E-05-2.50683E-05-3.05413E-05 7.52302E-06 2.38755E-18 2.21812E-18
 -1      2626 9.73801E-05-2.37529E-05-3.15756E-05 1.06277E-05 2.48260E-18 2.62911E-18
 -1      2627 9.58378E-05-2.12837E-05-3.20076E-05 1.18207E-05 2.72328E-18 1.77632E-18
 -1      2628 9.58521E-05-2.41352E-05-3.07694E-05 7.58786E-06 2.42458E-18 1.20019E-18
 -1      2629 1.39010E-04-1.23012E-05-5.46609E-05-2.37931E-06 4.48567E-18 5.24313E-19
 -1      2630 9.08232E-05-1.49626E-05-3.25053E-05-6.68746E-06-1.07368E-18-2.70266E-18
 -1      2631 8.97370E-05-1.31291E-05-3.28848E-05-7.86145E-06-1.22875E-18-2.86342E-18
 -1      2632 9.03904E-05-1.39239E-05-3.28329E-05-9.02760E-06-1.53391E-18-2.64849E-18
 -1      2633 9.47806E-05-2.68943E-05-2.91078E-05 1.68639E-06 1.66311E-18 6.22536E-19
 -1      2634 9.42261E-05-1.90652E-05-3.22567E-05 1.15200E-05 2.69954E-18 6.20981E-19
 -1      2635 6.70716E-05-3.92938E-05-1.15333E-05-4.08888E-05 2.71961E-18 2.71442E-18
 -1      2636 1.30216E-04-5.75449E-05-3.09695E-05-1.91525E-05 1.47775E-18-2.36121E-18
 -1      2637 3.69258E-05-2.49342E-05-4.78899E-06 2.86537E-05-3.06308E-18 3.93235E-18
 -1      2638 3.31062E-05-1.87228E-05-5.54979E-06 2.21846E-05-3.41375E-18 2.84031E-18
 -1      2639 4.94926E-05-2.70164E-05-9.26952E-06 3.22918E-05-3.82668E-18 3.18654E-18
 -1      2640 7.57072E-05-4.27957E-05-1.37589E-05 3.99773E-05-2.02526E-18 1.13058E-18
 -1      2641 9.53469E-05-2.84160E-05-2.86847E-05 3.58078E-07 1.88641E-19 4.36746E-18
 -1      2642 2.15017E-05-1.65979E-05-1.69347E-06-9.85066E-07-1.76216E-18 1.55431E-18
 -1      2643 2.75968E-05-1.38285E-05-5.41912E-06-7.20074E-06-9.27078E-19 7.01767E-19
 -1      2644 2.58738E-05-1.43324E-05-4.43869E-06 7.51544E-06-2.09275E-18 1.27097E-18
 -1      2645 9.53234E-05-2.83499E-05-2.87031E-05 4.25698E-07-2.42680E-20 3.82040E-18
 -1      2646 1.31870E-04-1.40467E-05-5.08552E-05-6.73557E-06-4.22331E-18 1.00162E-19
 -1      2647 9.53796E-05-2.84210E-05-2.86942E-05-4.04606E-07-2.46523E-19 7.69343E-19
 -1      2648 9.53046E-05-2.83175E-05-2.87105E-05-4.67006E-07-6.88798E-19 1.10652E-18
 -1      2649 9.53083E-05-2.82457E-05-2.87399E-05-6.06397E-07-2.17887E-19 1.02611E-19
 -1      2650 9.54479E-05-2.84261E-05-2.87199E-05-5.01142E-07-3.73607E-20 1.33832E-18
 -1      2651 1.40126E-04-2.66184E-05-4.87759E-05 9.40172E-06-1.65913E-18-3.33879E-18
 -1      2652 1.35800E-04-5.82610E-05-3.31153E-05 1.27009E-05 5.71906E-19 4.26375E-19
 -1      2653 9.47082E-05-2.05751E-05-3.17271E-05 9.56897E-06 2.54716E-18 3.80966E-19
 -1      2654 9.53332E-05-2.82802E-05-2.87346E-05 5.68429E-07 7.08166E-20 3.15773E-18
 -1      2655 3.60642E-05-2.26154E-05-5.34181E-06-2.69185E-05 1.17621E-18 1.81477E-18
 -1      2656 1.32340E-04-1.17563E-05-5.19594E-05 5.01131E-06-3.30597E-18-2.03087E-18
 -1      2657 4.96367E-05-3.04178E-05-7.76942E-06-3.50789E-05-1.48612E-18-3.52556E-18
 -1      2658 6.48253E-05-3.50092E-05-1.25288E-05-3.74254E-05-1.83023E-18-3.07886E-18
 -1      2659 4.50735E-05-2.37139E-05-8.54868E-06-2.97085E-05-1.02830E-18-3.55754E-18
 -1      2660 1.21575E-04-5.91483E-05-2.65523E-05-2.70598E-05-1.50327E-18-1.84992E-18
 -1      2661 9.47352E-05-5.05416E-05-1.86769E-05 3.84708E-05-1.05032E-19-2.02287E-18
 -1      2662 1.44209E-04-3.81814E-05-4.56171E-05 8.08989E-06 2.14310E-18 2.21309E-18
 -1      2663 5.74878E-05-3.39090E-05-9.68396E-06 3.88576E-05 1.06726E-19-2.60018E-18
 -1      2664 5.09935E-05-2.72782E-05-9.54086E-06 3.49233E-05 1.17134E-18-3.20073E-18
 -1      2665 7.03593E-05-3.72310E-05-1.39770E-05 3.88271E-05 1.25657E-18-2.71665E-18
 -1      2666 1.24709E-04-5.83971E-05-2.82530E-05 2.39079E-05-1.11268E-18-9.20407E-19
 -1      2667 1.39248E-04-5.09953E-05-3.78872E-05 2.91666E-06-2.51366E-18 6.00970E-19
 -1      2668 9.11628E-05-1.49762E-05-3.27043E-05-9.71643E-06-1.67701E-18-2.40013E-18
 -1      2669 9.21765E-05-1.62623E-05-3.26136E-05-1.07467E-05-1.94083E-18-1.94057E-18
 -1      2670 9.36644E-05-1.91768E-05-3.19094E-05-9.08729E-06-1.96363E-18-1.50659E-18
 -1      2671 9.21068E-05-1.67645E-05-3.22718E-05-8.20198E-06-1.47498E-18-2.25659E-18
 -1      2672 1.38055E-04-1.73414E-05-5.19917E-05 8.99040E-06 3.81970E-18 2.95847E-18
 -1      2673 1.37283E-04-2.12545E-05-5.03989E-05-1.18093E-05 3.02984E-18-1.20745E-18
 -1      2674 1.45357E-04-2.76805E-05-5.07727E-05-9.31067E-06 2.45534E-18-8.51692E-19
 -1      2675 1.39451E-04-3.29063E-05-4.58912E-05-1.21569E-05 2.02409E-18-1.67469E-18
 -1      2676 2.59271E-05-1.86317E-05-2.66575E-06 1.63326E-05 3.05144E-19-5.97391E-18
 -1      2677 2.82967E-05-1.41488E-05-5.44456E-06 8.95693E-06 5.76247E-20-5.26791E-18
 -1      2678 3.59145E-05-1.94168E-05-6.68941E-06 2.39656E-05 8.45339E-19-5.16394E-18
 -1      2679 1.41917E-04-4.58927E-05-4.12356E-05 1.43415E-06-2.48287E-20-3.24943E-18
 -1      2680 9.54215E-05-2.83434E-05-2.87514E-05-6.55312E-07 5.63391E-19 1.16017E-18
 -1      2681 9.05430E-05-1.49998E-05-3.23979E-05 3.10599E-06 1.09630E-18-2.40056E-18
 -1      2682 9.03463E-05-1.47181E-05-3.24329E-05 2.19290E-06 8.72239E-19-2.57819E-18
 -1      2683 9.02056E-05-1.45045E-05-3.24633E-05 1.38178E-06 6.51858E-19-2.69151E-18
 -1      2684 9.01374E-05-1.44082E-05-3.24750E-05 4.49322E-07 4.94087E-19-2.70207E-18
 -1      2685 9.13671E-05-1.63595E-05-3.21322E-05 1.57762E-06 6.90230E-19-2.44091E-18
 -1      2686 9.21617E-05-1.74529E-05-3.20555E-05 6.33001E-06 2.04313E-18-1.46898E-18
 -1      2687 9.16310E-05-1.66415E-05-3.21615E-05 5.49707E-06 1.81907E-18-1.69687E-18
 -1      2688 9.35822E-05-1.97141E-05-3.16996E-05 7.45518E-06 2.27101E-18-7.54187E-19
 -1      2689 9.27957E-05-1.84463E-05-3.18817E-05 6.87446E-06 2.16906E-18-1.13429E-18
 -1      2690 9.34493E-05-1.97545E-05-3.15604E-05 5.56723E-06 1.92425E-18-1.06203E-18
 -1      2691 9.52440E-05-2.53555E-05-2.99632E-05 3.80951E-06 1.90714E-18 2.41544E-19
 -1      2692 9.55629E-05-2.45141E-05-3.04170E-05 5.46906E-06 2.01506E-18 3.45350E-19
 -1      2693 9.52512E-05-2.81028E-05-2.87786E-05 7.99188E-07-2.56200E-19 2.19704E-18
 -1      2694 9.53690E-05-2.82538E-05-2.87619E-05 7.14134E-07 5.52761E-20 2.61947E-18
 -1      2695 9.54490E-05-2.82490E-05-2.87948E-05 8.55862E-07-8.03763E-19 3.08061E-18
 -1      2696 9.50420E-05-2.66130E-05-2.93307E-05 1.53313E-06 1.54307E-18 3.54754E-19
 -1      2697 9.52833E-05-2.61258E-05-2.96020E-05 2.58330E-06 1.75331E-18 3.46837E-19
 -1      2698 9.53033E-05-2.49404E-05-3.01534E-05 3.60976E-06 1.85110E-18-5.50900E-20
 -1      2699 6.13385E-05-3.27450E-05-1.17666E-05-3.74074E-05 2.38376E-18 2.35105E-18
 -1      2700 7.98629E-05-4.26460E-05-1.58648E-05-4.04734E-05 2.76874E-18 2.56397E-18
 -1      2701 9.45429E-05-2.14579E-05-3.13528E-05-7.55398E-06-1.83711E-18-1.25693E-18
 -1      2702 9.49613E-05-2.31685E-05-3.07638E-05-5.84949E-06-1.61585E-18-1.02615E-18
 -1      2703 9.37677E-05-2.00881E-05-3.15819E-05-7.39902E-06-1.59706E-18-1.64397E-18
 -1      2704 9.53546E-05-2.45504E-05-3.03409E-05-4.40881E-06-1.44095E-18-8.62787E-19
 -1      2705 9.52385E-05-2.53897E-05-2.99408E-05-2.95852E-06-1.29578E-18-8.04685E-19
 -1      2706 9.49681E-05-2.34485E-05-3.06434E-05-4.60936E-06-1.40300E-18-1.13483E-18
 -1      2707 1.23616E-04-5.83575E-05-2.76941E-05-2.23509E-05 2.56148E-18-2.00821E-18
 -1      2708 1.33233E-04-5.65891E-05-3.31853E-05-1.03135E-05 1.54798E-18-3.23471E-18
 -1      2709 9.53838E-05-2.61806E-05-2.96498E-05-1.95436E-06-1.18378E-18-6.89995E-19
 -1      2710 9.52134E-05-2.66333E-05-2.93942E-05-9.68779E-07-1.05829E-18-6.61870E-19
 -1      2711 9.53730E-05-2.54779E-05-2.99514E-05-2.23540E-06-1.14248E-18-8.94553E-19
 -1      2712 9.52444E-05-2.70887E-05-2.92012E-05-2.85507E-07-9.15471E-19-5.98114E-19
 -1      2713 9.51282E-05-2.73486E-05-2.90480E-05 3.66269E-07-9.38030E-19-6.44713E-19
 -1      2714 9.54500E-05-2.66873E-05-2.94730E-05-5.16146E-07-9.12226E-19-8.29952E-19
 -1      2715 9.51239E-05-2.76074E-05-2.89287E-05 8.27428E-07-1.06429E-18-5.76211E-19
 -1      2716 9.50816E-05-2.77628E-05-2.88478E-05 1.26132E-06-1.19613E-18-5.57805E-19
 -1      2717 9.54192E-05-2.73942E-05-2.91602E-05 6.78700E-07-1.06480E-18-7.95103E-19
 -1      2718 9.50749E-05-2.79006E-05-2.87833E-05 1.58199E-06-9.89676E-19-4.84438E-19
 -1      2719 9.51000E-05-2.79942E-05-2.87543E-05 1.88446E-06-8.68833E-19-5.15015E-19
 -1      2720 9.53750E-05-2.77904E-05-2.89726E-05 1.51163E-06-9.91665E-19-5.11169E-19
 -1      2721 9.51032E-05-2.80537E-05-2.87308E-05 2.12735E-06-6.02794E-19-5.32466E-19
 -1      2722 9.51843E-05-2.81086E-05-2.87398E-05 2.36072E-06-3.23727E-19-6.55819E-19
 -1      2723 9.53516E-05-2.79861E-05-2.88789E-05 2.12262E-06-6.11533E-19-4.77574E-19
 -1      2724 9.52014E-05-2.81158E-05-2.87470E-05 2.57238E-06-1.44138E-19-5.06131E-19
 -1      2725 9.53299E-05-2.81467E-05-2.87845E-05 2.78138E-06-9.62995E-20-3.85048E-19
 -1      2726 9.53595E-05-2.80483E-05-2.88556E-05 2.62094E-06-1.66835E-19-3.90325E-19
 -1      2727 9.53629E-05-2.81203E-05-2.88146E-05 2.99545E-06-1.92122E-19-1.66540E-19
 -1      2728 9.55342E-05-2.81391E-05-2.88743E-05 3.21160E-06-3.76888E-19 3.57097E-20
 -1      2729 9.54017E-05-2.80221E-05-2.88848E-05 3.08836E-06-9.99796E-20-2.97763E-19
 -1      2730 9.55864E-05-2.80952E-05-2.89212E-05 3.45087E-06-3.28598E-19 1.17952E-19
 -1      2731 9.58003E-05-2.81142E-05-2.89983E-05 3.69480E-06-2.03902E-19 2.93476E-19
 -1      2732 9.54818E-05-2.79442E-05-2.89524E-05 3.58342E-06-2.48839E-19 3.51987E-20
 -1      2733 9.58783E-05-2.80705E-05-2.90568E-05 3.97189E-06-1.52704E-19 2.11775E-19
 -1      2734 9.61393E-05-2.81049E-05-2.91474E-05 4.25383E-06-2.02037E-19-3.43346E-20
 -1      2735 9.56085E-05-2.78514E-05-2.90466E-05 4.14386E-06-1.81965E-19-1.44260E-19
 -1      2736 9.62553E-05-2.80842E-05-2.92121E-05 4.57067E-06-3.97636E-19 6.49472E-20
 -1      2737 9.65726E-05-2.81546E-05-2.93124E-05 4.88927E-06-5.53537E-19-3.97734E-19
 -1      2738 9.58006E-05-2.77886E-05-2.91560E-05 4.78676E-06-4.15242E-19-3.06160E-19
 -1      2739 9.67483E-05-2.81891E-05-2.93779E-05 5.23516E-06-4.42861E-19-2.02692E-19
 -1      2740 9.71368E-05-2.83247E-05-2.94832E-05 5.57467E-06-5.67654E-19-1.70851E-19
 -1      2741 9.60921E-05-2.78169E-05-2.92692E-05 5.50639E-06-5.02316E-19 2.58796E-19
 -1      2742 9.74081E-05-2.84603E-05-2.95436E-05 5.92269E-06-5.14725E-19 1.60432E-19
 -1      2743 9.78898E-05-2.87013E-05-2.96483E-05 6.24848E-06-2.31902E-19 4.79881E-19
 -1      2744 9.65413E-05-2.80229E-05-2.93740E-05 6.26896E-06-1.38127E-19 1.68996E-19
 -1      2745 9.83130E-05-2.90016E-05-2.96983E-05 6.55010E-06-4.11848E-19 5.03124E-19
 -1      2746 9.89190E-05-2.93996E-05-2.97964E-05 6.80263E-06-2.35777E-19 7.92927E-19
 -1      2747 9.72413E-05-2.85268E-05-2.94592E-05 7.00393E-06-1.13344E-19 4.62785E-19
 -1      2748 9.95764E-05-2.99456E-05-2.98338E-05 6.97999E-06-1.34281E-19 6.91532E-19
 -1      2749 1.00345E-04-3.05585E-05-2.99204E-05 7.06798E-06 1.68252E-19 6.12067E-19
 -1      2750 9.83315E-05-2.94851E-05-2.95178E-05 7.59066E-06-3.42416E-19 6.26818E-19
 -1      2751 1.01344E-04-3.14370E-05-2.99506E-05 7.00377E-06 2.05371E-19 4.51092E-19
 -1      2752 1.02312E-04-3.23080E-05-3.00264E-05 6.79830E-06 3.65434E-19 5.52798E-19
 -1      2753 1.00003E-04-3.10763E-05-2.95553E-05 7.83826E-06 6.96672E-21 6.75452E-19
 -1      2754 1.03762E-04-3.35734E-05-3.00706E-05 6.32698E-06 5.73881E-20 3.28730E-19
 -1      2755 1.04939E-04-3.46835E-05-3.01481E-05 5.66391E-06-1.86824E-19 3.32434E-19
 -1      2756 1.02471E-04-3.34413E-05-2.96038E-05 7.45857E-06-3.26740E-20 7.88336E-19
 -1      2757 1.06886E-04-3.62737E-05-3.02539E-05 4.57893E-06 2.78787E-19 2.80364E-19
 -1      2758 1.08201E-04-3.74571E-05-3.03662E-05 3.28430E-06 5.89148E-19-1.31968E-19
 -1      2759 1.05893E-04-3.65444E-05-2.97428E-05 6.04890E-06 6.87060E-20 7.76615E-19
 -1      2760 1.10489E-04-3.90455E-05-3.06178E-05 1.40278E-06 1.19152E-18-1.96257E-20
 -1      2761 1.11719E-04-3.98877E-05-3.08245E-05-6.21046E-07 1.21757E-18 3.00166E-19
 -1      2762 1.10151E-04-3.99070E-05-3.01235E-05 3.13322E-06 9.83594E-19 9.04091E-19
 -1      2763 1.13802E-04-4.07288E-05-3.13357E-05-3.25393E-06 9.96531E-19 1.03004E-18
 -1      2764 1.14524E-04-4.05484E-05-3.17140E-05-5.81878E-06 1.10258E-18 1.68908E-18
 -1      2765 1.14525E-04-4.22773E-05-3.09738E-05-1.58302E-06 1.59173E-18 1.30070E-18
 -1      2766 1.15441E-04-3.95369E-05-3.25771E-05-8.59307E-06 7.30956E-19 1.90210E-18
 -1      2767 1.15097E-04-3.76255E-05-3.31726E-05-1.09058E-05 4.93264E-19 2.04422E-18
 -1      2768 1.17485E-04-4.16242E-05-3.25317E-05-7.57067E-06 1.06535E-18 2.09743E-18
 -1      2769 1.14142E-04-3.42464E-05-3.43091E-05-1.22193E-05-2.48437E-19 1.69556E-18
 -1      2770 1.12701E-04-3.08160E-05-3.50471E-05-1.29691E-05-3.42674E-19 1.49572E-18
 -1      2771 1.17170E-04-3.60246E-05-3.48491E-05-1.24146E-05-1.32852E-19 2.28449E-18
 -1      2772 1.10210E-04-2.61660E-05-3.61284E-05-1.08667E-05-1.74409E-19 8.86193E-19
 -1      2773 1.08677E-04-2.31225E-05-3.67509E-05-8.73594E-06 8.44452E-20 5.66175E-19
 -1      2774 1.13319E-04-2.62189E-05-3.73794E-05-1.23655E-05-5.13593E-19 1.02885E-18
 -1      2775 1.07157E-04-2.04956E-05-3.72426E-05-3.80806E-06-5.98323E-19-4.16105E-19
 -1      2776 1.06671E-04-1.98827E-05-3.74295E-05 6.44104E-07-1.11840E-18-9.58206E-19
 -1      2777 1.09931E-04-1.90098E-05-3.90186E-05-4.89490E-06-1.26181E-18-8.16940E-19
 -1      2778 1.07855E-04-2.16779E-05-3.69960E-05 5.54316E-06-6.99040E-19-1.42147E-18
 -1      2779 1.08967E-04-2.40984E-05-3.66266E-05 9.62116E-06-6.46610E-19-1.44385E-18
 -1      2780 1.10308E-04-1.96535E-05-3.88641E-05 6.19176E-06-9.09713E-19-1.25655E-18
 -1      2781 1.11378E-04-2.85108E-05-3.55714E-05 1.14531E-05-1.05503E-18-1.49977E-18
 -1      2782 1.13197E-04-3.20989E-05-3.48841E-05 1.30312E-05-8.09631E-19-1.60098E-18
 -1      2783 1.14072E-04-2.76675E-05-3.69754E-05 1.29119E-05-8.15097E-19-1.73157E-18
 -1      2784 1.14435E-04-3.58809E-05-3.37256E-05 1.14961E-05 2.39118E-19-2.12235E-18
 -1      2785 1.15588E-04-3.85050E-05-3.30286E-05 1.04936E-05 3.60538E-19-2.09601E-18
 -1      2786 1.17418E-04-3.67421E-05-3.45343E-05 1.22016E-05-1.33778E-19-2.41171E-18
 -1      2787 1.14831E-04-3.99092E-05-3.21441E-05 7.47126E-06 3.57756E-19-1.41105E-18
 -1      2788 1.14740E-04-4.07576E-05-3.16248E-05 5.19251E-06 4.08863E-19-1.51619E-18
 -1      2789 1.17221E-04-4.18583E-05-3.23161E-05 6.85820E-06 4.62622E-19-1.62899E-18
 -1      2790 1.12725E-04-4.01762E-05-3.11007E-05 2.38819E-06 1.29801E-20-1.44111E-18
 -1      2791 1.11707E-04-3.96745E-05-3.07888E-05 6.31076E-08-2.02717E-19-1.63678E-18
 -1      2792 1.13952E-04-4.21587E-05-3.08549E-05 8.80326E-07 1.98702E-19-1.40837E-18
 -1      2793 1.09428E-04-3.81771E-05-3.05313E-05-1.86685E-06-4.15615E-19-1.08301E-18
 -1      2794 1.08037E-04-3.70548E-05-3.03629E-05-3.63634E-06-9.11164E-19-4.66390E-19
 -1      2795 1.09512E-04-3.95480E-05-3.00846E-05-3.61340E-06-5.08749E-19-1.21231E-18
 -1      2796 1.06073E-04-3.54494E-05-3.02560E-05-4.68692E-06-9.94514E-19 2.86122E-19
 -1      2797 1.04713E-04-3.42597E-05-3.01608E-05-5.78141E-06-3.13941E-19-1.08439E-20
 -1      2798 1.05354E-04-3.61234E-05-2.97494E-05-6.24788E-06-5.85162E-19 1.74967E-19
 -1      2799 1.03237E-04-3.29310E-05-3.01201E-05-6.18235E-06-4.58492E-19-6.51340E-19
 -1      2800 1.02083E-04-3.19346E-05-3.00490E-05-6.70510E-06-2.50940E-19-8.09077E-19
 -1      2801 1.02082E-04-3.30584E-05-2.96337E-05-7.41738E-06-1.05447E-18 2.38137E-19
 -1      2802 1.01064E-04-3.09845E-05-3.00249E-05-6.68240E-06-3.94187E-19-1.08475E-18
 -1      2803 1.00148E-04-3.02521E-05-2.99523E-05-6.79389E-06-1.65108E-19-1.20351E-18
 -1      2804 9.97473E-05-3.07515E-05-2.95989E-05-7.60326E-06-2.70283E-19-9.85375E-19
 -1      2805 9.94785E-05-2.96439E-05-2.99225E-05-6.52477E-06-3.43465E-20-1.68121E-18
 -1      2806 9.87712E-05-2.91512E-05-2.98405E-05-6.37399E-06-1.65464E-19-1.73495E-18
 -1      2807 9.81804E-05-2.92118E-05-2.95714E-05-7.19871E-06-5.91229E-19-8.33171E-19
 -1      2808 9.83446E-05-2.88027E-05-2.97988E-05-5.98008E-06-4.67014E-19-1.79522E-18
 -1      2809 9.78006E-05-2.84946E-05-2.97088E-05-5.68249E-06 2.34455E-19-1.63956E-18
 -1      2810 9.71645E-05-2.82870E-05-2.95228E-05-6.47749E-06-4.84571E-19-1.24875E-18
 -1      2811 9.75322E-05-2.83242E-05-2.96568E-05-5.24310E-06 1.93649E-20-2.39397E-18
 -1      2812 9.71110E-05-2.81451E-05-2.95638E-05-4.88003E-06-5.10685E-19-2.40147E-18
 -1      2813 9.65159E-05-2.77993E-05-2.94488E-05-5.61848E-06-1.50747E-19-2.45107E-18
 -1      2814 9.69421E-05-2.80873E-05-2.95061E-05-4.44440E-06 3.44114E-19-1.43991E-18
 -1      2815 9.66131E-05-2.79929E-05-2.94154E-05-4.06903E-06-1.32409E-19-1.15903E-18
 -1      2816 9.61019E-05-2.75973E-05-2.93558E-05-4.73488E-06 8.16454E-19-2.42548E-18
 -1      2817 9.65052E-05-2.80005E-05-2.93566E-05-3.66557E-06-6.21929E-19-1.03554E-18
 -1      2818 9.62466E-05-2.79584E-05-2.92724E-05-3.30984E-06-8.57586E-19-9.22089E-19
 -1      2819 9.58337E-05-2.75679E-05-2.92529E-05-3.89498E-06-4.83229E-19-1.76134E-18
 -1      2820 9.61758E-05-2.79996E-05-2.92161E-05-2.95273E-06-1.65270E-19-1.08643E-18
 -1      2821 9.59719E-05-2.79877E-05-2.91412E-05-2.63348E-06 6.68426E-19-9.16135E-19
 -1      2822 9.56551E-05-2.76327E-05-2.91488E-05-3.13627E-06-4.13643E-19-1.66819E-18
 -1      2823 9.59233E-05-2.80421E-05-2.90900E-05-2.32746E-06 4.72920E-19-3.46652E-19
 -1      2824 9.57627E-05-2.80458E-05-2.90256E-05-2.05133E-06 1.36038E-18-7.38716E-19
 -1      2825 9.55313E-05-2.77405E-05-2.90502E-05-2.47518E-06 1.05762E-18-1.15258E-18
 -1      2826 9.57271E-05-2.81008E-05-2.89810E-05-1.79509E-06 1.50169E-18-8.61813E-19
 -1      2827 9.56010E-05-2.81107E-05-2.89274E-05-1.56256E-06 1.04659E-18-5.40998E-19
 -1      2828 9.54408E-05-2.78592E-05-2.89613E-05-1.91413E-06 1.03344E-18-9.93787E-19
 -1      2829 9.55727E-05-2.81605E-05-2.88899E-05-1.34946E-06 9.64712E-19-5.63594E-19
 -1      2830 9.54847E-05-2.81724E-05-2.88472E-05-1.15869E-06 1.38198E-18-1.17506E-18
 -1      2831 9.53685E-05-2.79682E-05-2.88845E-05-1.44733E-06 1.21567E-18-1.97774E-18
 -1      2832 9.54193E-05-2.81877E-05-2.88126E-05-9.89131E-07 1.53774E-18-2.21580E-19
 -1      2833 1.34763E-04-3.13394E-05-4.46686E-05 1.17928E-05-7.45283E-19-3.54769E-18
 -1      2834 1.31109E-04-2.23503E-05-4.73476E-05 1.16988E-05-1.54160E-18-3.05122E-18
 -1      2835 1.22419E-04-1.10502E-05-4.84337E-05-4.45867E-06-3.70111E-18-3.09604E-19
 -1      2836 1.26408E-04-1.77124E-05-4.69503E-05-1.14686E-05-3.59428E-18 7.05473E-19
 -1      2837 9.47434E-05-2.77152E-05-2.87242E-05-9.60021E-07 6.65664E-19 4.40720E-20
 -1      2838 9.47791E-05-2.75408E-05-2.87985E-05-5.34161E-07 8.39262E-19 9.57556E-20
 -1      2839 9.51134E-05-2.81657E-05-2.86847E-05-2.52457E-06 4.36225E-19 4.12593E-21
 -1      2840 9.49286E-05-2.81161E-05-2.86320E-05-2.33344E-06 4.74997E-19-7.39463E-20
 -1      2841 9.54108E-05-2.81918E-05-2.87995E-05-2.94158E-06 8.10021E-19-1.75455E-19
 -1      2842 9.51749E-05-2.81584E-05-2.87218E-05-2.73905E-06 6.39143E-19 4.57588E-20
 -1      2843 9.52751E-05-2.80791E-05-2.88031E-05-2.79356E-06 6.09155E-19-3.33012E-19
 -1      2844 9.57827E-05-2.81895E-05-2.89584E-05-3.41954E-06 7.63741E-19 1.03734E-19
 -1      2845 9.54965E-05-2.81639E-05-2.88589E-05-3.18033E-06 8.41138E-19-9.74083E-20
 -1      2846 9.54250E-05-2.80322E-05-2.88865E-05-3.27502E-06 7.70910E-19-2.71236E-20
 -1      2847 9.62321E-05-2.81768E-05-2.91551E-05-3.99879E-06 3.44592E-19 2.50118E-19
 -1      2848 9.58915E-05-2.81491E-05-2.90357E-05-3.70585E-06 6.95046E-19 1.45718E-19
 -1      2849 9.56202E-05-2.79391E-05-2.90094E-05-3.82616E-06 7.12965E-19 1.74503E-19
 -1      2850 9.67696E-05-2.81776E-05-2.93838E-05-4.70284E-06 1.40185E-19-1.75726E-19
 -1      2851 9.63661E-05-2.81341E-05-2.92463E-05-4.34796E-06 3.47455E-19 3.38038E-20
 -1      2852 9.58623E-05-2.78233E-05-2.91623E-05-4.48723E-06 4.93515E-19-6.01120E-20
 -1      2853 9.74151E-05-2.82286E-05-2.96378E-05-5.53472E-06 5.66164E-20-4.13349E-19
 -1      2854 9.69359E-05-2.81483E-05-2.94846E-05-5.12129E-06 5.03056E-20-2.64274E-19
 -1      2855 9.61610E-05-2.77166E-05-2.93359E-05-5.28107E-06 1.79567E-19 2.47080E-19
 -1      2856 9.82038E-05-2.83893E-05-2.99070E-05-6.46874E-06 1.95510E-19-4.92295E-19
 -1      2857 9.76300E-05-2.82393E-05-2.97426E-05-6.01711E-06-8.60764E-21-4.96554E-19
 -1      2858 9.65397E-05-2.76694E-05-2.95188E-05-6.20978E-06 1.24305E-19-5.76208E-19
 -1      2859 9.91958E-05-2.87555E-05-3.01768E-05-7.43676E-06 5.90231E-20-8.86515E-19
 -1      2860 9.84996E-05-2.84843E-05-3.00082E-05-6.99266E-06 1.50016E-19-5.56538E-19
 -1      2861 9.70458E-05-2.77643E-05-2.96966E-05-7.24754E-06 1.46487E-19-4.74090E-19
 -1      2862 1.00492E-04-2.94747E-05-3.04281E-05-8.30797E-06-4.57342E-19-1.23286E-19
 -1      2863 9.96320E-05-2.90063E-05-3.02653E-05-7.95420E-06-6.12141E-20-4.05682E-19
 -1      2864 9.77687E-05-2.81344E-05-2.98516E-05-8.32859E-06-2.48951E-19-2.38623E-19
 -1      2865 1.02254E-04-3.07543E-05-3.06424E-05-8.86175E-06-1.40488E-18 6.36557E-19
 -1      2866 1.01171E-04-2.99875E-05-3.04959E-05-8.73184E-06-7.85389E-19 1.82016E-19
 -1      2867 9.88658E-05-2.89826E-05-2.99661E-05-9.32812E-06-8.56390E-19 2.88071E-19
 -1      2868 1.04706E-04-3.28361E-05-3.08139E-05-8.75410E-06-7.36964E-19 1.58077E-19
 -1      2869 1.03334E-04-3.16674E-05-3.06888E-05-9.04390E-06-1.07410E-18 3.89816E-19
 -1      2870 1.00593E-04-3.05897E-05-3.00315E-05-1.00314E-05-9.65472E-19-2.09255E-19
 -1      2871 1.08076E-04-3.58701E-05-3.09776E-05-7.48604E-06-6.37738E-19-6.43224E-20
 -1      2872 1.06393E-04-3.42794E-05-3.08589E-05-8.44805E-06-7.54031E-19 5.63186E-20
 -1      2873 1.03320E-04-3.32766E-05-3.00695E-05-1.00772E-05-6.87057E-19-4.95092E-19
 -1      2874 1.12393E-04-3.96086E-05-3.12517E-05-4.47369E-06-5.75278E-19 3.88503E-19
 -1      2875 1.10525E-04-3.78270E-05-3.10871E-05-6.34151E-06-5.68300E-19 4.00532E-19
 -1      2876 1.07424E-04-3.71828E-05-3.01743E-05-8.88348E-06-7.66146E-19-1.18644E-19
 -1      2877 1.17184E-04-4.30001E-05-3.18750E-05 6.94393E-07-7.40505E-19 1.71690E-18
 -1      2878 1.15531E-04-4.17099E-05-3.15605E-05-2.10999E-06-8.53653E-19 1.19945E-18
 -1      2879 1.13035E-04-4.19206E-05-3.05651E-05-5.71688E-06-1.13824E-18 7.67680E-19
 -1      2880 1.20854E-04-4.36717E-05-3.31826E-05 7.54179E-06-5.74017E-19 1.84433E-18
 -1      2881 1.20252E-04-4.41283E-05-3.25938E-05 4.42892E-06-4.19030E-19 2.29429E-18
 -1      2882 1.19444E-04-4.57973E-05-3.16415E-05 2.53744E-07-1.01971E-18 1.56958E-18
 -1      2883 1.21289E-04-3.86220E-05-3.54492E-05 1.37367E-05 1.84494E-19 1.49416E-18
 -1      2884 1.22605E-04-4.22524E-05-3.44991E-05 1.18850E-05-2.46215E-19 2.02176E-18
 -1      2885 1.24520E-04-4.58830E-05-3.38878E-05 8.26991E-06-3.35392E-19 1.25819E-18
 -1      2886 1.17455E-04-2.82554E-05-3.82805E-05 1.40217E-05 1.38839E-18 1.33868E-18
 -1      2887 1.20039E-04-3.37923E-05-3.72629E-05 1.55257E-05 6.71988E-19 1.30505E-18
 -1      2888 1.25054E-04-3.82308E-05-3.73191E-05 1.48658E-05 5.63965E-19 1.59650E-18
 -1      2889 1.13266E-04-1.96594E-05-4.02908E-05 5.18759E-06 2.33098E-18 9.68106E-19
 -1      2890 1.14970E-04-2.30510E-05-3.97513E-05 1.02417E-05 2.09297E-18 1.26731E-18
 -1      2891 1.20557E-04-2.46016E-05-4.14850E-05 1.36574E-05 1.89704E-18 9.75253E-19
 -1      2892 1.14163E-04-2.12618E-05-4.01124E-05-7.77421E-06 1.78750E-18 2.22740E-19
 -1      2893 1.13048E-04-1.90840E-05-4.04572E-05-2.35983E-06 2.37794E-18 1.11888E-19
 -1      2894 1.17370E-04-1.69020E-05-4.33582E-05 1.40212E-06 2.86864E-18 3.77194E-20
 -1      2895 1.19008E-04-3.13676E-05-3.78788E-05-1.51212E-05 8.01717E-19-4.88930E-19
 -1      2896 1.16297E-04-2.58561E-05-3.88570E-05-1.29051E-05 1.23180E-18-1.48687E-19
 -1      2897 1.19627E-04-2.23012E-05-4.19621E-05-1.12073E-05 1.62440E-18-1.00119E-18
 -1      2898 1.22387E-04-4.08775E-05-3.50826E-05-1.31809E-05 1.08969E-19-2.09719E-18
 -1      2899 1.20712E-04-3.66317E-05-3.60665E-05-1.45968E-05 6.48351E-19-1.43576E-18
 -1      2900 1.24298E-04-3.49946E-05-3.83821E-05-1.56154E-05 1.33090E-18-2.34512E-18
 -1      2901 1.21149E-04-4.42503E-05-3.29516E-05-6.17985E-06 1.76120E-19-2.15137E-18
 -1      2902 1.21348E-04-4.30817E-05-3.36285E-05-9.29001E-06-4.37592E-19-2.18175E-18
 -1      2903 1.25102E-04-4.46264E-05-3.45565E-05-1.00664E-05 2.72043E-19-3.59818E-18
 -1      2904 1.16732E-04-4.24956E-05-3.17459E-05 7.73466E-07-7.07798E-20-1.74138E-19
 -1      2905 1.18214E-04-4.34967E-05-3.21098E-05-2.21036E-06 4.15781E-19-6.21085E-19
 -1      2906 1.20873E-04-4.62738E-05-3.20263E-05-1.89085E-06-6.47080E-19-1.78004E-18
 -1      2907 1.11629E-04-3.86837E-05-3.11904E-05 5.52327E-06-1.31601E-18-4.97210E-19
 -1      2908 1.13500E-04-4.04554E-05-3.13721E-05 3.44799E-06-3.56919E-19-1.56462E-19
 -1      2909 1.14480E-04-4.29389E-05-3.07467E-05 4.58488E-06-1.73763E-19-7.08662E-19
 -1      2910 1.07271E-04-3.49579E-05-3.09404E-05 8.00231E-06-3.24616E-19-5.71649E-19
 -1      2911 1.09006E-04-3.66303E-05-3.10573E-05 6.87906E-06-1.20671E-18-7.78719E-19
 -1      2912 1.08570E-04-3.81543E-05-3.02573E-05 8.27853E-06-6.18765E-19-1.75242E-18
 -1      2913 1.04013E-04-3.21259E-05-3.07788E-05 8.82121E-06 3.88733E-19 2.11115E-19
 -1      2914 1.05436E-04-3.33907E-05-3.08937E-05 8.43013E-06 2.08400E-19-3.04268E-19
 -1      2915 1.04135E-04-3.39774E-05-3.01242E-05 9.77882E-06-9.19527E-19-2.19693E-18
 -1      2916 1.01707E-04-3.02539E-05-3.06082E-05 8.60814E-06 2.11442E-19 2.04311E-18
 -1      2917 1.02827E-04-3.11020E-05-3.07415E-05 8.69436E-06 6.67929E-19 1.45479E-18
 -1      2918 1.01156E-04-3.10199E-05-3.00928E-05 9.89336E-06-2.99164E-19-6.48381E-19
 -1      2919 1.00088E-04-2.91340E-05-3.04035E-05 7.83253E-06 6.40228E-19 1.00556E-18
 -1      2920 1.00965E-04-2.96595E-05-3.05530E-05 8.18792E-06 7.57350E-19 2.37192E-18
 -1      2921 9.92594E-05-2.91881E-05-3.00496E-05 9.23421E-06 9.14861E-19 7.38212E-19
 -1      2922 9.89261E-05-2.85231E-05-3.01723E-05 6.80580E-06 5.90704E-19 1.74683E-18
 -1      2923 9.96201E-05-2.88294E-05-3.03278E-05 7.28394E-06 8.01967E-19 1.98638E-18
 -1      2924 9.80684E-05-2.81820E-05-2.99612E-05 8.19671E-06 1.67277E-19 7.81808E-19
 -1      2925 9.80633E-05-2.82267E-05-2.99319E-05 5.71965E-06-1.92414E-19 3.05007E-18
 -1      2926 9.86192E-05-2.83950E-05-3.00832E-05 6.22750E-06 1.84074E-19 2.58745E-18
 -1      2927 9.73038E-05-2.77099E-05-2.98313E-05 7.02288E-06-2.01563E-19 1.76716E-18
 -1      2928 9.74018E-05-2.81114E-05-2.96986E-05 4.68366E-06-2.10748E-18 2.67191E-18
 -1      2929 9.78497E-05-2.81970E-05-2.98379E-05 5.16755E-06-1.25076E-18 3.10967E-18
 -1      2930 9.67886E-05-2.75529E-05-2.96757E-05 5.85558E-06-7.60213E-19 2.92231E-18
 -1      2931 9.68831E-05-2.80933E-05-2.94840E-05 3.75365E-06-4.89986E-19 2.29888E-18
 -1      2932 9.72437E-05-2.81314E-05-2.96071E-05 4.18653E-06-1.66876E-18 2.49769E-18
 -1      2933 9.64203E-05-2.75663E-05-2.95113E-05 4.77426E-06-1.43840E-18 2.92692E-18
 -1      2934 9.64716E-05-2.81224E-05-2.92948E-05 2.95158E-06-9.13919E-19 2.17380E-18
 -1      2935 9.67602E-05-2.81346E-05-2.93998E-05 3.32324E-06 1.67664E-19 2.97744E-18
 -1      2936 9.61422E-05-2.76609E-05-2.93513E-05 3.81767E-06-4.56989E-19 3.78366E-18
 -1      2937 9.61443E-05-2.81700E-05-2.91337E-05 2.27899E-06-2.56539E-19 7.95605E-19
 -1      2938 9.63732E-05-2.81692E-05-2.92206E-05 2.58929E-06-7.42429E-19 1.50808E-18
 -1      2939 9.59240E-05-2.77853E-05-2.92044E-05 2.99863E-06 1.33494E-19 3.72207E-18
 -1      2940 9.58849E-05-2.82197E-05-2.90005E-05 1.72632E-06-4.61706E-19 1.24660E-18
 -1      2941 9.60640E-05-2.82138E-05-2.90707E-05 1.98044E-06-9.54457E-19 4.09449E-19
 -1      2942 9.57487E-05-2.79108E-05-2.90754E-05 2.31425E-06-7.40932E-19 1.05732E-18
 -1      2943 9.56831E-05-2.82618E-05-2.88936E-05 1.27827E-06-5.34292E-19 2.72659E-18
 -1      2944 9.58183E-05-2.82564E-05-2.89486E-05 1.48172E-06-1.70042E-20 2.55591E-18
 -1      2945 9.56028E-05-2.80211E-05-2.89661E-05 1.75354E-06-1.23696E-18 5.31099E-19
 -1      2946 9.55056E-05-2.82551E-05-2.88193E-05 9.72769E-07-4.75154E-19 2.07195E-18
 -1      2947 9.56056E-05-2.82494E-05-2.88615E-05 1.14157E-06-2.85853E-19 2.46960E-18
 -1      2948 9.54513E-05-2.80673E-05-2.88852E-05 1.35735E-06-3.97868E-19 4.16516E-19
 -1      2949 9.53283E-05-2.80724E-05-2.88302E-05 1.08375E-06-9.33712E-19 1.38496E-18
 -1      2950 9.44752E-05-2.72254E-05-2.88235E-05 7.21412E-08 4.44030E-19-1.18319E-18
 -1      2951 9.44928E-05-2.72434E-05-2.88224E-05 2.11251E-07 2.94296E-19 1.49701E-19
 -1      2952 3.77587E-05-1.74019E-05-8.17487E-06-2.14475E-05 3.90482E-19 1.36372E-19
 -1      2953 4.76282E-05-2.39870E-05-9.71591E-06-3.20175E-05 1.37315E-18 1.42196E-18
 -1      2954 9.46667E-05-2.74379E-05-2.88160E-05 6.13496E-07-1.34755E-18-2.92063E-18
 -1      2955 9.47534E-05-2.75289E-05-2.88094E-05 6.96584E-07-1.20381E-18-2.04257E-18
 -1      2956 9.44998E-05-2.72528E-05-2.88212E-05-2.32904E-07 1.77977E-18 6.30549E-19
 -1      2957 9.44780E-05-2.72297E-05-2.88231E-05-9.50899E-08 5.93167E-19-6.16326E-19
 -1      2958 9.43508E-05-2.70960E-05-2.88199E-05-1.49083E-08 1.00069E-18-6.71764E-19
 -1      2959 9.45329E-05-2.72893E-05-2.88218E-05 3.68515E-07-6.91418E-19-5.81751E-19
 -1      2960 9.45883E-05-2.73467E-05-2.88179E-05 4.88508E-07-1.37523E-18-2.49493E-18
 -1      2961 9.45290E-05-2.72768E-05-2.88195E-05 6.27396E-07-1.22507E-18-2.89217E-18
 -1      2962 9.43935E-05-2.71380E-05-2.88203E-05 3.28324E-07 1.84919E-19 4.55054E-19
 -1      2963 9.46005E-05-2.73646E-05-2.88152E-05-4.99196E-07 1.88997E-18-7.17222E-19
 -1      2964 9.45436E-05-2.73049E-05-2.88198E-05-3.84304E-07 1.89013E-18-4.92492E-19
 -1      2965 9.44046E-05-2.71537E-05-2.88185E-05-3.51644E-07 1.88424E-18 1.08661E-19
 -1      2966 9.47673E-05-2.75512E-05-2.88055E-05-6.98520E-07 1.10849E-18-3.03039E-18
 -1      2967 9.46807E-05-2.74597E-05-2.88126E-05-6.19160E-07 1.70879E-18-1.64496E-18
 -1      2968 9.45462E-05-2.73028E-05-2.88159E-05-6.38816E-07 8.76994E-19-1.45022E-18
 -1      2969 9.49772E-05-2.77902E-05-2.87921E-05-7.97385E-07 1.84132E-18 5.95682E-19
 -1      2970 9.48734E-05-2.76784E-05-2.88015E-05-7.67356E-07 1.69391E-18-1.07626E-18
 -1      2971 9.47604E-05-2.75288E-05-2.88115E-05-8.39772E-07 9.46260E-19-1.76275E-18
 -1      2972 9.51979E-05-2.80543E-05-2.87740E-05-7.79843E-07 7.44494E-19-3.27935E-19
 -1      2973 9.50949E-05-2.79350E-05-2.87858E-05-8.05329E-07 1.41095E-18-4.20648E-20
 -1      2974 9.50165E-05-2.78046E-05-2.88039E-05-9.23864E-07 1.05325E-18-2.29637E-19
 -1      2975 9.48401E-05-2.73105E-05-2.89418E-05 2.55658E-08 1.04539E-18 7.10946E-20
 -1      2976 9.49831E-05-2.70285E-05-2.90960E-05 6.90002E-07 1.25290E-18 3.07176E-19
 -1      2977 9.53096E-05-2.63815E-05-2.95481E-05 1.42635E-06 1.43556E-18 8.38707E-20
 -1      2978 9.52199E-05-2.72130E-05-2.91563E-05-7.17045E-08 1.01203E-18-7.07035E-20
 -1      2979 1.39812E-04-4.35388E-05-4.18521E-05-9.54351E-06 2.04596E-18-1.64547E-18
 -1      2980 1.39740E-04-4.92620E-05-3.88677E-05-5.56497E-06 1.91435E-18-1.60534E-18
 -1      2981 1.17243E-04-5.83470E-05-2.56288E-05 2.69311E-05-8.13787E-19 7.91460E-19
 -1      2982 1.03999E-04-5.32313E-05-2.13263E-05 3.30146E-05-1.20554E-18 7.16696E-19
 -1      2983 1.27386E-04-1.55730E-05-4.83938E-05 9.96915E-06-2.05670E-18-2.63459E-18
 -1      2984 1.22470E-04-1.03284E-05-4.86650E-05 3.98066E-06-2.99109E-18-2.10680E-18
 -1      2985 1.05080E-04-5.37244E-05-2.20695E-05 3.42822E-05-1.70254E-19-1.36182E-18
 -1      2986 8.97977E-05-4.64064E-05-1.82685E-05 3.72580E-05 3.13720E-19-2.09228E-18
 -1      2987 1.14605E-04-5.71776E-05-2.42896E-05-2.79287E-05-2.00567E-18-1.02846E-18
 -1      2988 1.28420E-04-5.99396E-05-2.96924E-05-1.83930E-05-2.04421E-18-5.94299E-19
 -1      2989 1.29169E-04-5.83753E-05-3.07574E-05 1.59873E-05-6.55604E-19 9.82029E-20
 -1      2990 1.18407E-04-5.74124E-05-2.58487E-05 2.55064E-05-2.43893E-19-3.44928E-19
 -1      2991 1.37859E-04-5.63183E-05-3.54418E-05 3.93730E-06 7.89236E-19-1.18521E-18
 -1      2992 1.30191E-04-5.90915E-05-3.01798E-05 1.42746E-05-2.27852E-19 5.12984E-20
 -1      2993 9.48947E-05-2.80941E-05-2.86231E-05-2.11142E-06 5.37164E-19-1.21432E-19
 -1      2994 9.47678E-05-2.80190E-05-2.86012E-05-1.89683E-06 7.03361E-19-1.94713E-19
 -1      2995 9.51739E-05-2.80577E-05-2.87702E-05-2.32413E-06 4.98400E-19-9.15869E-20
 -1      2996 9.47660E-05-2.79553E-05-2.86290E-05-1.62481E-06 7.94768E-19-1.57509E-19
 -1      2997 9.47106E-05-2.78418E-05-2.86475E-05-1.33869E-06 7.92755E-19-2.61301E-20
 -1      2998 9.51283E-05-2.79401E-05-2.88026E-05-1.78889E-06 7.71463E-19-2.15246E-19
 -1      2999 1.27511E-04-2.01382E-05-4.63939E-05 1.24570E-05 2.81808E-18 1.66114E-18
 -1      3000 1.24946E-04-1.44925E-05-4.81589E-05 6.09244E-06 3.39703E-18 8.29444E-19
 -1      3001 9.47118E-05-2.18726E-05-3.12229E-05 7.72503E-06 2.32662E-18 1.04304E-19
 -1      3002 9.11807E-05-1.59498E-05-3.22695E-05 4.79121E-06 1.68765E-18-1.96185E-18
 -1      3003 9.08287E-05-1.54353E-05-3.23340E-05 3.88353E-06 1.29886E-18-2.18980E-18
 -1      3004 9.17791E-05-1.69963E-05-3.20334E-05 3.08130E-06 1.09310E-18-2.14996E-18
 -1      3005 9.24741E-05-1.81009E-05-3.18538E-05 4.46108E-06 1.52202E-18-1.67749E-18
 -1      3006 1.36186E-04-4.81924E-05-3.83478E-05-3.83150E-06-2.12423E-18 1.97803E-18
 -1      3007 1.35382E-04-5.47062E-05-3.44532E-05 4.70955E-06-1.22415E-18 9.76417E-19
 -1      3008 1.35812E-04-5.72359E-05-3.35743E-05-6.25601E-06-1.13707E-18 1.39464E-18
 -1      3009 1.38931E-04-5.28723E-05-3.74768E-05 1.20120E-06-7.62866E-19 2.08232E-18
 -1      3010 2.90728E-05-1.33893E-05-6.17134E-06-5.96848E-06-4.48901E-19-4.47615E-18
 -1      3011 3.36506E-05-1.60315E-05-7.08082E-06-1.72167E-05-9.79170E-19-3.82160E-18
 -1      3012 8.47667E-05-4.47173E-05-1.68176E-05-3.77788E-05-2.01446E-18-1.96252E-18
 -1      3013 9.95124E-05-5.20685E-05-2.03481E-05-3.61688E-05-2.06676E-18-1.79089E-18
 -1      3014 1.40001E-04-4.38146E-05-4.13207E-05 9.45795E-06 9.18237E-19 2.98283E-18
 -1      3015 1.36636E-04-3.27563E-05-4.52744E-05 1.37296E-05 2.64613E-18 3.66659E-18
 -1      3016 1.36486E-04-4.92105E-05-3.76154E-05 1.95082E-06 5.54965E-19-3.13339E-18
 -1      3017 1.37312E-04-4.11356E-05-4.17297E-05 7.75517E-06-4.78097E-19-3.34430E-18
 -1      3018 9.53584E-05-2.82482E-05-2.87600E-05-7.15129E-07 2.82819E-19-8.09809E-19
 -1      3019 9.52728E-05-2.81526E-05-2.87678E-05-7.50894E-07 9.88466E-19-1.42476E-18
 -1      3020 9.52326E-05-2.80474E-05-2.87930E-05-8.98261E-07 1.13393E-18-1.03492E-18
 -1      3021 9.54049E-05-2.82423E-05-2.87806E-05-8.11153E-07 1.35121E-18-7.91556E-19
 -1      3022 9.07920E-05-1.53869E-05-3.23389E-05-3.82244E-06-4.38033E-19-2.63878E-18
 -1      3023 9.11341E-05-1.58863E-05-3.22760E-05-4.73291E-06-7.37022E-19-2.60511E-18
 -1      3024 1.30535E-04-2.80274E-05-4.46993E-05-1.25936E-05-3.48469E-18 1.84277E-18
 -1      3025 1.33819E-04-3.71178E-05-4.15604E-05-1.14698E-05-2.99638E-18 2.13622E-18
 -1      3026 8.75308E-05-4.55053E-05-1.79043E-05 3.77993E-05-1.74796E-18 1.32730E-18
 -1      3027 6.99241E-05-3.61805E-05-1.39653E-05 3.67680E-05-2.80876E-18 2.19784E-18
 -1      3028 1.28908E-04-1.07977E-05-5.12768E-05-1.24339E-06 3.88068E-18 1.06547E-18
 -1      3029 1.32975E-04-1.39577E-05-5.15829E-05-7.74192E-06 4.00731E-18-4.15576E-20
 -1      3030 9.68806E-05-5.06552E-05-1.93812E-05-3.69064E-05 3.67358E-18 2.55063E-18
 -1      3031 1.09916E-04-5.59487E-05-2.34232E-05-3.27363E-05 3.75987E-18 5.39322E-20
 -1      3032 9.15728E-05-1.65656E-05-3.21702E-05-5.44982E-06-8.95088E-19-2.54756E-18
 -1      3033 9.20960E-05-1.73535E-05-3.20663E-05-6.27917E-06-1.19422E-18-2.43113E-18
 -1      3034 9.24279E-05-1.80373E-05-3.18628E-05-4.41601E-06-7.76235E-19-2.30830E-18
 -1      3035 9.12263E-05-1.61454E-05-3.21644E-05 2.76373E-08 3.29433E-19-2.49664E-18
 -1      3036 9.01331E-05-1.44030E-05-3.24756E-05-3.68927E-07 3.18934E-19-2.72550E-18
 -1      3037 9.01923E-05-1.44872E-05-3.24649E-05-1.30192E-06 1.16814E-19-2.78131E-18
 -1      3038 9.03865E-05-4.52496E-05-1.89483E-05-3.58638E-05 2.87197E-18 1.63906E-18
 -1      3039 1.35783E-04-3.69342E-05-4.26652E-05-1.36637E-05 2.23458E-18-1.54838E-18
 -1      3040 9.73087E-05-4.78680E-05-2.08588E-05 3.23146E-05-1.58289E-18 1.64510E-18
 -1      3041 6.31128E-05-3.10187E-05-1.32800E-05 3.49422E-05-3.66956E-18 3.81504E-18
 -1      3042 5.63255E-05-2.47448E-05-1.28750E-05 2.97764E-05-4.20520E-18 3.97788E-18
 -1      3043 7.51205E-05-3.42625E-05-1.72362E-05 3.25119E-05-3.07494E-18 3.18479E-18
 -1      3044 6.18661E-05-2.83070E-05-1.38603E-05-3.23343E-05 1.70042E-18 1.42460E-18
 -1      3045 1.29326E-04-5.50545E-05-3.16982E-05-6.55000E-06 1.19954E-18-2.63115E-18
 -1      3046 1.34668E-04-5.39347E-05-3.47672E-05-2.25447E-06 9.94324E-19-2.78033E-18
 -1      3047 1.31432E-04-4.87313E-05-3.55974E-05 4.84066E-06 5.72859E-19-2.97208E-18
 -1      3048 1.18201E-04-5.65502E-05-2.61971E-05-2.38594E-05 3.12534E-18-1.20189E-18
 -1      3049 1.29983E-04-5.58502E-05-3.17731E-05 8.31050E-06-6.19340E-19 1.08828E-18
 -1      3050 1.23958E-04-2.05657E-05-4.45597E-05 1.19061E-05-1.52858E-18-2.97425E-18
 -1      3051 1.18412E-04-1.30643E-05-4.55373E-05-3.52450E-07-2.41193E-18-1.48103E-18
 -1      3052 1.31550E-04-3.67571E-05-4.08735E-05 1.15917E-05-1.95718E-19-3.57395E-18
 -1      3053 1.23515E-04-2.31769E-05-4.31563E-05-1.28422E-05-2.79394E-18 1.12708E-18
 -1      3054 1.35621E-04-5.28501E-05-3.56666E-05-2.50103E-06 1.15686E-18-1.35155E-18
 -1      3055 9.51446E-05-2.76832E-05-2.89215E-05-1.08415E-06 8.39473E-19-3.53301E-19
 -1      3056 3.64364E-05-1.46303E-05-8.68193E-06-1.50956E-05-6.34745E-20-7.46024E-19
 -1      3057 4.67117E-05-1.65975E-05-1.25291E-05-1.93613E-05 2.72639E-20-1.81509E-18
 -1      3058 3.68166E-05-1.23769E-05-9.96510E-06-7.02084E-06-1.00183E-18-5.87523E-19
 -1      3059 3.33495E-05-1.56690E-05-6.91865E-06 1.48953E-05-2.90035E-18 9.02514E-19
 -1      3060 3.54580E-05-1.27601E-05-9.18777E-06 8.19043E-06-2.15326E-18 1.10538E-19
 -1      3061 4.18660E-05-1.75602E-05-1.01630E-05 2.09969E-05-3.95040E-18 1.21888E-18
 -1      3062 9.47415E-05-2.74961E-05-2.88168E-05 8.38961E-07-1.35924E-18-2.21005E-18
 -1      3063 9.48561E-05-2.76521E-05-2.88060E-05 7.69966E-07-1.23050E-18-2.48429E-18
 -1      3064 9.49637E-05-2.77644E-05-2.87971E-05 8.08998E-07-9.65840E-19-2.74188E-18
 -1      3065 9.51492E-05-2.79769E-05-2.87900E-05 8.24048E-07-1.00459E-18-8.84023E-20
 -1      3066 1.35784E-04-4.78190E-05-3.77654E-05 8.59270E-06-1.37537E-19 3.11184E-18
 -1      3067 7.69108E-05-3.92626E-05-1.57603E-05-3.73180E-05-2.03447E-18-2.04675E-18
 -1      3068 8.75430E-05-4.23295E-05-1.91165E-05-3.36119E-05-2.35195E-18-1.11353E-18
 -1      3069 6.87576E-05-3.23286E-05-1.52154E-05-3.40842E-05-1.93071E-18-2.35369E-18
 -1      3070 1.31682E-04-4.29753E-05-3.82606E-05-8.46335E-06-1.82080E-18 2.48080E-18
 -1      3071 3.20595E-05-1.27158E-05-7.64463E-06 2.15024E-06-1.70730E-19-4.65275E-18
 -1      3072 3.80687E-05-1.23751E-05-1.05510E-05-2.59297E-06-2.30909E-19-4.16793E-18
 -1      3073 3.73199E-05-1.30662E-05-9.95586E-06 1.08112E-05 1.38318E-19-5.03138E-18
 -1      3074 1.24107E-04-5.75117E-05-2.83831E-05 1.70595E-05-1.37124E-18-4.88050E-19
 -1      3075 1.10245E-04-5.41269E-05-2.38077E-05-2.79752E-05-2.62178E-18-5.55533E-19
 -1      3076 1.13367E-04-5.47972E-05-2.49065E-05 2.62116E-05-1.04291E-20-4.44573E-19
 -1      3077 4.34760E-05-1.95487E-05-9.62065E-06-2.36042E-05-1.21475E-18-3.77396E-18
 -1      3078 5.48635E-05-2.39806E-05-1.29497E-05-2.85407E-05-1.46441E-18-3.31476E-18
 -1      3079 4.45543E-05-1.64719E-05-1.15617E-05-1.80582E-05-9.14743E-19-3.72885E-18
 -1      3080 9.33152E-05-4.52681E-05-2.03862E-05 3.33726E-05 8.14157E-19-2.12486E-18
 -1      3081 8.29395E-05-4.19853E-05-1.71685E-05 3.77188E-05 1.22672E-18-2.82390E-18
 -1      3082 7.50447E-05-3.60502E-05-1.63695E-05 3.57862E-05 1.59555E-18-2.75280E-18
 -1      3083 1.30068E-04-5.76888E-05-3.09908E-05-9.83962E-06-1.85635E-18 9.13102E-19
 -1      3084 9.03238E-05-1.46887E-05-3.24358E-05-2.11063E-06-1.98573E-20-2.71958E-18
 -1      3085 9.05152E-05-1.49634E-05-3.24014E-05-3.04058E-06-2.59627E-19-2.72577E-18
 -1      3086 9.17463E-05-1.69531E-05-3.20385E-05-3.02680E-06-3.86554E-19-2.54427E-18
 -1      3087 9.13519E-05-1.63394E-05-3.21344E-05-1.52094E-06 2.56413E-20-2.56958E-18
 -1      3088 9.43725E-05-2.13728E-05-3.12905E-05 7.07176E-06 2.26049E-18-2.87204E-19
 -1      3089 1.30049E-04-1.93922E-05-4.78289E-05-1.04072E-05 2.92883E-18-5.80165E-19
 -1      3090 4.66270E-05-2.24975E-05-9.71988E-06 2.92284E-05 1.38490E-18-3.34620E-18
 -1      3091 4.41100E-05-1.76642E-05-1.07922E-05 2.23922E-05 1.00384E-18-3.77448E-18
 -1      3092 5.79712E-05-2.62553E-05-1.33137E-05 3.11784E-05 2.06623E-18-2.14575E-18
 -1      3093 1.26476E-04-2.73454E-05-4.27708E-05 1.34052E-05 1.98280E-18 1.63700E-18
 -1      3094 9.46353E-05-2.23889E-05-3.09549E-05 5.51930E-06 2.02611E-18-4.10881E-19
 -1      3095 9.42834E-05-2.17233E-05-3.11184E-05 4.76847E-06 1.82205E-18-8.02690E-19
 -1      3096 9.38089E-05-2.07559E-05-3.13112E-05 4.42203E-06 1.57464E-18-1.10371E-18
 -1      3097 9.42676E-05-2.70293E-05-2.88164E-05-4.87218E-07 1.47320E-18-5.22837E-19
 -1      3098 9.42092E-05-2.69770E-05-2.88168E-05-3.21314E-07 1.81954E-18 2.37261E-19
 -1      3099 1.28282E-04-2.82678E-05-4.34076E-05-1.57567E-05 1.94918E-18-1.68057E-18
 -1      3100 1.29328E-04-3.65716E-05-3.99962E-05-1.40946E-05 2.04569E-18-1.69658E-18
 -1      3101 1.20433E-04-1.44485E-05-4.58030E-05 2.49933E-06 3.10533E-18 2.06067E-19
 -1      3102 9.44591E-05-2.19493E-05-3.10713E-05-5.20393E-06-1.36947E-18-1.68477E-18
 -1      3103 9.48489E-05-2.33260E-05-3.06650E-05-3.84855E-06-1.22716E-18-1.51772E-18
 -1      3104 9.53319E-05-2.80901E-05-2.88186E-05-1.04362E-06 1.21829E-18-1.44101E-18
 -1      3105 9.55960E-05-2.60717E-05-2.97839E-05-9.96797E-07-8.68715E-19-1.03672E-18
 -1      3106 9.56061E-05-2.65874E-05-2.95856E-05-2.62488E-07-8.83363E-19-1.14428E-18
 -1      3107 9.56591E-05-2.70183E-05-2.94079E-05 3.10657E-07-8.76067E-19-9.13669E-19
 -1      3108 9.56403E-05-2.73240E-05-2.92806E-05 8.25223E-07-8.83605E-19-7.52130E-19
 -1      3109 9.57397E-05-2.64531E-05-2.96964E-05-1.06561E-07-8.07477E-19-1.05972E-18
 -1      3110 9.56183E-05-2.75606E-05-2.91612E-05 1.23780E-06-8.33882E-19-4.86727E-19
 -1      3111 9.56011E-05-2.77278E-05-2.90877E-05 1.60780E-06-8.48745E-19-3.72191E-19
 -1      3112 9.57902E-05-2.72208E-05-2.93903E-05 9.16589E-07-7.86096E-19-7.86065E-19
 -1      3113 9.55385E-05-2.78322E-05-2.90136E-05 1.91668E-06-8.73197E-19-1.75975E-19
 -1      3114 9.55338E-05-2.79051E-05-2.89807E-05 2.20362E-06-5.18236E-19-2.62995E-19
 -1      3115 9.57214E-05-2.76265E-05-2.91871E-05 1.67371E-06-7.47497E-19-2.64918E-19
 -1      3116 9.54482E-05-2.79173E-05-2.89410E-05 2.45749E-06-2.98613E-19-1.54248E-19
 -1      3117 9.54591E-05-2.79253E-05-2.89383E-05 2.70872E-06-7.51363E-20-2.73751E-19
 -1      3118 9.55853E-05-2.77780E-05-2.90634E-05 2.26893E-06-4.55764E-19-1.02242E-19
 -1      3119 9.53598E-05-2.78732E-05-2.89240E-05 2.94681E-06 5.60251E-20-2.86230E-19
 -1      3120 9.53878E-05-2.78385E-05-2.89436E-05 3.19732E-06-8.85129E-20-2.25894E-19
 -1      3121 9.54091E-05-2.77498E-05-2.89993E-05 2.78982E-06 3.78018E-20-1.49280E-19
 -1      3122 9.52806E-05-2.77445E-05-2.89468E-05 3.44966E-06-3.72230E-19-1.48837E-19
 -1      3123 9.53287E-05-2.76874E-05-2.89821E-05 3.72372E-06-4.22223E-19-1.65228E-19
 -1      3124 9.52082E-05-2.75980E-05-2.89776E-05 3.30602E-06-2.34264E-19-4.76248E-19
 -1      3125 9.52201E-05-2.75731E-05-2.89954E-05 4.01185E-06-2.45163E-19-3.31030E-19
 -1      3126 9.52950E-05-2.75159E-05-2.90403E-05 4.32361E-06-1.68167E-19-3.95109E-19
 -1      3127 9.49955E-05-2.73722E-05-2.89827E-05 3.86964E-06-3.82292E-19-6.68216E-19
 -1      3128 9.51958E-05-2.74066E-05-2.90567E-05 4.66107E-06-2.42860E-19-2.95351E-19
 -1      3129 9.53105E-05-2.73780E-05-2.91054E-05 5.01423E-06-4.16086E-19-6.52123E-21
 -1      3130 9.47882E-05-2.71250E-05-2.89997E-05 4.51651E-06-2.46801E-19-5.02430E-19
 -1      3131 9.52397E-05-2.73078E-05-2.91175E-05 5.40667E-06-2.86469E-19 9.46348E-20
 -1      3132 9.54171E-05-2.73474E-05-2.91637E-05 5.79301E-06-7.13685E-20 2.79879E-19
 -1      3133 9.46155E-05-2.69216E-05-2.90133E-05 5.26699E-06-1.78873E-19-1.69093E-19
 -1      3134 9.54089E-05-2.73644E-05-2.91641E-05 6.23724E-06-2.43254E-19 3.24946E-19
 -1      3135 9.56871E-05-2.75282E-05-2.92014E-05 6.63364E-06-1.47808E-19 2.23699E-19
 -1      3136 9.45291E-05-2.68510E-05-2.90082E-05 6.12583E-06-1.94298E-19-2.59955E-20
 -1      3137 9.57987E-05-2.77008E-05-2.91835E-05 7.11494E-06 5.11304E-20 4.86119E-20
 -1      3138 9.62370E-05-2.80650E-05-2.92068E-05 7.47882E-06 2.48607E-20 1.99901E-19
 -1      3139 9.46179E-05-2.70386E-05-2.89693E-05 7.07960E-06-5.90992E-20 2.51626E-20
 -1      3140 9.65594E-05-2.84859E-05-2.91668E-05 7.96540E-06-3.51226E-19 3.01169E-19
 -1      3141 9.72442E-05-2.91474E-05-2.91747E-05 8.22773E-06-2.72773E-19 2.96822E-19
 -1      3142 9.50262E-05-2.76581E-05-2.88853E-05 8.09031E-06-1.63713E-19-2.11386E-19
 -1      3143 9.79133E-05-2.99324E-05-2.91166E-05 8.65773E-06 8.14531E-20 4.35541E-19
 -1      3144 9.89557E-05-3.09970E-05-2.91176E-05 8.71184E-06 2.41074E-19 5.70247E-19
 -1      3145 9.59767E-05-2.89377E-05-2.87554E-05 9.08025E-06 3.29582E-20 8.30893E-19
 -1      3146 1.00158E-04-3.22675E-05-2.90617E-05 8.96419E-06 9.43937E-20 8.55616E-19
 -1      3147 1.01669E-04-3.38050E-05-2.90827E-05 8.64997E-06-3.84598E-20 1.01096E-18
 -1      3148 9.77910E-05-3.11485E-05-2.86033E-05 9.89423E-06 2.64378E-19 9.09890E-19
 -1      3149 1.03609E-04-3.56239E-05-2.90800E-05 8.49945E-06-4.41309E-20 1.58481E-18
 -1      3150 1.05627E-04-3.75675E-05-2.91792E-05 7.59899E-06 1.87722E-19 1.68314E-18
 -1      3151 1.00873E-04-3.45249E-05-2.85004E-05 1.02202E-05 1.64521E-19 1.42802E-18
 -1      3152 1.08447E-04-3.98129E-05-2.93340E-05 6.66329E-06 7.24663E-19 2.07409E-18
 -1      3153 1.10790E-04-4.17643E-05-2.96149E-05 4.93083E-06 1.55331E-18 2.15811E-18
 -1      3154 1.05605E-04-3.90639E-05-2.86041E-05 9.49497E-06 8.91228E-19 2.67439E-18
 -1      3155 1.14299E-04-4.38486E-05-3.01106E-05 2.70186E-06 1.88706E-18 2.20435E-18
 -1      3156 1.16377E-04-4.48443E-05-3.07188E-05 6.18276E-08 1.71958E-18 2.28133E-18
 -1      3157 1.12032E-04-4.40468E-05-2.92193E-05 6.78840E-06 1.54061E-18 2.65137E-18
 -1      3158 1.19634E-04-4.53745E-05-3.17999E-05-3.67986E-06 1.33347E-18 2.84512E-18
 -1      3159 1.20468E-04-4.39463E-05-3.28997E-05-6.69073E-06 8.20973E-19 2.65462E-18
 -1      3160 1.19120E-04-4.74068E-05-3.08139E-05 1.15675E-06 1.76812E-18 2.98473E-18
 -1      3161 1.21367E-04-3.21844E-05-3.84472E-05-1.42776E-05-1.14318E-18 1.86824E-18
 -1      3162 1.18437E-04-2.55397E-05-4.00451E-05-1.24716E-05-1.90429E-18 1.34194E-18
 -1      3163 1.14211E-04-1.84955E-05-4.15381E-05-9.13794E-06-1.94389E-18-2.70098E-19
 -1      3164 1.12594E-04-1.50890E-05-4.21495E-05-3.92583E-06-1.92859E-18-7.94414E-19
 -1      3165 1.13001E-04-1.50272E-05-4.23452E-05 4.68455E-06-1.46251E-18-1.90429E-18
 -1      3166 1.14409E-04-1.85847E-05-4.15442E-05 9.34719E-06-1.04863E-18-1.72900E-18
 -1      3167 1.20566E-04-3.78641E-05-3.55269E-05 1.19401E-05-2.93735E-19-2.55554E-18
 -1      3168 1.21803E-04-4.22209E-05-3.42236E-05 9.95019E-06 2.96025E-19-3.07226E-18
 -1      3169 1.20073E-04-4.44390E-05-3.24941E-05 5.80198E-06 9.74674E-19-2.10172E-18
 -1      3170 1.19159E-04-4.55189E-05-3.14929E-05 2.75595E-06 1.16651E-18-1.52877E-18
 -1      3171 1.23731E-04-4.59329E-05-3.33555E-05 5.90897E-06 8.42619E-19-3.45481E-18
 -1      3172 1.15576E-04-4.44789E-05-3.05203E-05-9.29990E-07 5.26464E-19-1.41507E-18
 -1      3173 1.13445E-04-4.32550E-05-2.99777E-05-3.28697E-06-7.17364E-20-1.96178E-18
 -1      3174 1.18251E-04-4.70381E-05-3.06129E-05-1.84718E-06 8.61552E-19-2.73567E-18
 -1      3175 1.09983E-04-4.11066E-05-2.95498E-05-5.38441E-06-4.15195E-19-1.19526E-18
 -1      3176 1.07676E-04-3.90983E-05-2.93073E-05-6.87589E-06-2.35245E-19-8.64596E-19
 -1      3177 1.10947E-04-4.33415E-05-2.91203E-05-7.14706E-06 1.15425E-20-1.58605E-18
 -1      3178 1.04969E-04-3.68783E-05-2.91840E-05-7.71271E-06-6.44126E-20-3.59826E-19
 -1      3179 1.03029E-04-3.49918E-05-2.91038E-05-8.43901E-06-6.07702E-19 6.12610E-20
 -1      3180 1.04793E-04-3.82705E-05-2.86015E-05-9.54049E-06 3.00147E-19-1.12581E-18
 -1      3181 1.01199E-04-3.32232E-05-2.91222E-05-8.52985E-06-1.36377E-18 1.06717E-18
 -1      3182 9.97523E-05-3.17563E-05-2.91114E-05-8.72323E-06-1.07566E-18 3.84597E-19
 -1      3183 1.00301E-04-3.38532E-05-2.85417E-05-1.00400E-05-2.52516E-19 3.34859E-20
 -1      3184 9.86424E-05-3.05375E-05-2.91745E-05-8.41838E-06-6.35255E-19 6.07638E-19
 -1      3185 9.76484E-05-2.95339E-05-2.91789E-05-8.28285E-06-2.45211E-19 2.80406E-19
 -1      3186 9.74062E-05-3.06103E-05-2.86665E-05-9.55730E-06-8.22959E-19 1.77975E-18
 -1      3187 9.70392E-05-2.87849E-05-2.92394E-05-7.80160E-06-9.64857E-19 4.85114E-19
 -1      3188 9.63878E-05-2.81645E-05-2.92352E-05-7.48046E-06-1.35751E-18-1.20212E-19
 -1      3189 9.57183E-05-2.85099E-05-2.88260E-05-8.63364E-06-1.17188E-18 8.61598E-19
 -1      3190 9.60976E-05-2.77626E-05-2.92757E-05-6.93765E-06-1.12190E-18-3.52325E-19
 -1      3191 9.56816E-05-2.74215E-05-2.92563E-05-6.52628E-06-6.37137E-19-7.76593E-19
 -1      3192 9.48351E-05-2.72964E-05-2.89563E-05-7.54968E-06-1.64404E-18-9.16894E-20
 -1      3193 9.55801E-05-2.72536E-05-2.92738E-05-5.98330E-06-6.18312E-19-1.16641E-18
 -1      3194 9.53169E-05-2.70994E-05-2.92406E-05-5.54355E-06-4.23506E-19-1.51373E-18
 -1      3195 9.44499E-05-2.67052E-05-2.90381E-05-6.44617E-06-6.03835E-19 4.89117E-19
 -1      3196 9.53182E-05-2.70771E-05-2.92385E-05-5.03342E-06 1.45854E-19-2.01190E-18
 -1      3197 9.51508E-05-2.70394E-05-2.91961E-05-4.60424E-06 7.86871E-19-1.79388E-18
 -1      3198 9.43514E-05-2.65182E-05-2.90725E-05-5.39571E-06-4.41008E-19-8.91616E-20
 -1      3199 9.52016E-05-2.70996E-05-2.91800E-05-4.14417E-06 6.32792E-19-1.54698E-18
 -1      3200 9.50931E-05-2.71283E-05-2.91333E-05-3.74848E-06-6.97739E-19-1.49241E-18
 -1      3201 9.44032E-05-2.65738E-05-2.90693E-05-4.43625E-06 6.66310E-19-1.31816E-18
 -1      3202 9.51620E-05-2.72284E-05-2.91087E-05-3.34614E-06-6.73378E-19-1.07194E-18
 -1      3203 9.50893E-05-2.72900E-05-2.90619E-05-2.99568E-06 2.73659E-19-8.22053E-19
 -1      3204 9.45225E-05-2.67595E-05-2.90401E-05-3.58628E-06 5.54551E-20 5.20915E-20
 -1      3205 9.51587E-05-2.74027E-05-2.90334E-05-2.65215E-06 9.37000E-19-7.48324E-19
 -1      3206 9.51076E-05-2.74760E-05-2.89894E-05-2.35064E-06 8.86626E-19-5.17370E-19
 -1      3207 9.46607E-05-2.70009E-05-2.89958E-05-2.85184E-06 8.18204E-19 7.26604E-19
 -1      3208 9.51687E-05-2.75840E-05-2.89605E-05-2.06404E-06 5.07876E-19-1.05783E-18
 -1      3209 9.51305E-05-2.76560E-05-2.89213E-05-1.80932E-06 4.37039E-19-1.71203E-18
 -1      3210 9.47922E-05-2.72520E-05-2.89449E-05-2.23035E-06 4.02667E-19-1.35672E-18
 -1      3211 9.51803E-05-2.77523E-05-2.88942E-05-1.57416E-06 1.11193E-18-9.34956E-19
 -1      3212 9.51495E-05-2.78098E-05-2.88608E-05-1.36495E-06 1.54292E-18-1.37915E-18
 -1      3213 9.49017E-05-2.74844E-05-2.88940E-05-1.71442E-06 8.69207E-19-3.16893E-19
 -1      3214 1.11718E-04-5.30565E-05-2.47547E-05-2.52160E-05 3.21364E-18-1.00029E-19
 -1      3215 1.21500E-04-5.62209E-05-2.83186E-05-1.72830E-05 1.84333E-18-1.25675E-18
 -1      3216 9.53846E-05-2.79461E-05-2.88966E-05-2.92047E-06 6.40840E-19-5.57630E-19
 -1      3217 9.53244E-05-2.79554E-05-2.88725E-05-2.67633E-06 4.22979E-19-4.38023E-19
 -1      3218 9.54606E-05-2.74148E-05-2.91532E-05-4.73337E-06 3.70231E-19-3.32806E-19
 -1      3219 9.53296E-05-2.74936E-05-2.90787E-05-4.36699E-06 5.98333E-19-3.25871E-19
 -1      3220 9.55244E-05-2.71945E-05-2.92739E-05-5.57451E-06 1.81634E-19-3.21127E-19
 -1      3221 9.53609E-05-2.72602E-05-2.91934E-05-5.14127E-06 4.65259E-19-9.54434E-20
 -1      3222 9.48144E-05-2.69118E-05-2.91002E-05-5.00779E-06 3.13164E-19-8.57042E-19
 -1      3223 9.56380E-05-2.70376E-05-2.93888E-05-6.55529E-06-1.19424E-20-5.89983E-19
 -1      3224 9.54250E-05-2.70557E-05-2.93091E-05-6.05929E-06-1.09090E-20-3.77414E-19
 -1      3225 9.46165E-05-2.65799E-05-2.91571E-05-5.90359E-06 2.25424E-19-7.93280E-19
 -1      3226 9.58581E-05-2.70439E-05-2.94793E-05-7.65681E-06 2.98165E-19-4.55314E-19
 -1      3227 9.55620E-05-2.69584E-05-2.94090E-05-7.11714E-06 3.17385E-19-3.98951E-19
 -1      3228 9.44389E-05-2.63270E-05-2.91897E-05-6.95200E-06 1.47490E-19-4.17193E-19
 -1      3229 9.62953E-05-2.73727E-05-2.95241E-05-8.82979E-06-7.87781E-19-2.04533E-20
 -1      3230 9.58547E-05-2.70957E-05-2.94731E-05-8.28631E-06-2.46893E-19-2.41780E-19
 -1      3231 9.43497E-05-2.62765E-05-2.91755E-05-8.14910E-06-5.27806E-20-3.70851E-19
 -1      3232 9.71492E-05-2.82678E-05-2.95045E-05-9.98080E-06-8.01976E-19-1.96763E-19
 -1      3233 9.64587E-05-2.76681E-05-2.94808E-05-9.50354E-06-7.81458E-19-1.13598E-19
 -1      3234 9.44850E-05-2.66242E-05-2.90907E-05-9.47416E-06-8.09703E-19-3.55532E-19
 -1      3235 9.87496E-05-3.00708E-05-2.94157E-05-1.09453E-05-9.44359E-19-6.61139E-19
 -1      3236 9.76442E-05-2.89711E-05-2.94187E-05-1.06507E-05-7.02743E-19-3.26921E-19
 -1      3237 9.50917E-05-2.76658E-05-2.89173E-05-1.08799E-05-5.73481E-19-7.62807E-19
 -1      3238 1.01582E-04-3.31981E-05-2.92914E-05-1.14298E-05-9.90564E-19-3.61046E-19
 -1      3239 9.98441E-05-3.13989E-05-2.92984E-05-1.15108E-05-1.16140E-18-5.20094E-19
 -1      3240 9.65839E-05-2.98170E-05-2.86584E-05-1.22643E-05-1.08725E-18-4.17258E-19
 -1      3241 1.06217E-04-3.79227E-05-2.92632E-05-1.08328E-05-9.63202E-19-2.30323E-19
 -1      3242 1.03687E-04-3.53798E-05-2.91970E-05-1.16106E-05-7.90936E-19-2.23858E-19
 -1      3243 9.96485E-05-3.36406E-05-2.83719E-05-1.33559E-05-9.79359E-19-7.66968E-19
 -1      3244 1.12872E-04-4.37018E-05-2.96479E-05-8.30900E-06-1.62549E-18 3.84030E-19
 -1      3245 1.09610E-04-4.08191E-05-2.93479E-05-1.01073E-05-1.30549E-18 1.16252E-19
 -1      3246 1.05027E-04-3.93075E-05-2.82749E-05-1.33530E-05-1.29051E-18-4.67112E-19
 -1      3247 1.21444E-04-4.90239E-05-3.10482E-05-2.42546E-06-1.00864E-18 1.18690E-18
 -1      3248 1.17918E-04-4.71691E-05-3.01872E-05-6.13661E-06-1.36689E-18 9.26139E-19
 -1      3249 1.13166E-04-4.60374E-05-2.88550E-05-1.10802E-05-1.64649E-18 2.96025E-19
 -1      3250 1.20740E-04-1.49748E-05-4.58517E-05-5.81708E-06 2.57667E-18-2.97084E-19
 -1      3251 1.31109E-04-4.40394E-05-3.75234E-05-1.28111E-05 1.75124E-18-2.49981E-18
 -1      3252 1.19797E-04-4.81974E-05-3.05463E-05 4.42830E-06-8.34420E-19-1.67307E-18
 -1      3253 1.22937E-04-4.95873E-05-3.15248E-05 8.09920E-07-1.23857E-18-1.88197E-18
 -1      3254 1.11305E-04-4.22301E-05-2.94682E-05 9.44249E-06-4.02170E-19-6.54553E-19
 -1      3255 1.14651E-04-4.51204E-05-2.98407E-05 7.29581E-06-4.04399E-19-8.84043E-19
 -1      3256 1.15530E-04-4.79757E-05-2.90638E-05 1.03562E-05-1.20929E-18-1.85348E-18
 -1      3257 1.04792E-04-3.63851E-05-2.92338E-05 1.13323E-05-6.27957E-19-4.95913E-19
 -1      3258 1.07507E-04-3.90750E-05-2.93280E-05 1.03844E-05-4.20340E-20-1.81127E-19
 -1      3259 1.06584E-04-4.07513E-05-2.83337E-05 1.31504E-05-8.23318E-19-9.02289E-19
 -1      3260 1.00553E-04-3.20575E-05-2.93127E-05 1.14263E-05-7.80792E-19-3.28177E-19
 -1      3261 1.02444E-04-3.40204E-05-2.93096E-05 1.12478E-05-7.91948E-19-5.87221E-19
 -1      3262 1.00579E-04-3.46032E-05-2.83628E-05 1.33162E-05-6.39224E-19 1.55891E-18
 -1      3263 9.80544E-05-2.93052E-05-2.94467E-05 1.06364E-05 4.46195E-19-1.14907E-18
 -1      3264 9.92707E-05-3.05506E-05-2.94343E-05 1.08964E-05-3.42469E-19-1.32557E-18
 -1      3265 9.70962E-05-3.03991E-05-2.86352E-05 1.23359E-05-2.65911E-19 3.86197E-19
 -1      3266 9.66883E-05-2.77639E-05-2.95353E-05 9.46072E-06-2.10266E-19-1.19661E-19
 -1      3267 9.74458E-05-2.84682E-05-2.95458E-05 9.94662E-06 4.15293E-19-8.92836E-19
 -1      3268 9.53080E-05-2.78978E-05-2.89145E-05 1.09339E-05-2.84209E-19-2.32960E-18
 -1      3269 9.59866E-05-2.70318E-05-2.95553E-05 8.15971E-06-1.37912E-19 1.00770E-19
 -1      3270 9.64610E-05-2.73779E-05-2.95931E-05 8.74089E-06-2.74514E-19 7.78058E-19
 -1      3271 9.45317E-05-2.66132E-05-2.91173E-05 9.44566E-06-6.07061E-19-9.53138E-19
 -1      3272 9.56459E-05-2.67913E-05-2.95153E-05 6.87125E-06-8.41955E-19 1.64986E-18
 -1      3273 9.59543E-05-2.69202E-05-2.95739E-05 7.46867E-06-5.15549E-19 1.57038E-18
 -1      3274 9.43019E-05-2.61036E-05-2.92298E-05 8.00609E-06-1.12605E-18 9.74273E-19
 -1      3275 9.54875E-05-2.68240E-05-2.94343E-05 5.67015E-06-1.17753E-18 2.08190E-18
 -1      3276 9.57001E-05-2.68314E-05-2.95044E-05 6.23729E-06-1.12813E-18 2.36399E-18
 -1      3277 9.43365E-05-2.60474E-05-2.92656E-05 6.67323E-06-1.29268E-18 2.24074E-18
 -1      3278 9.54143E-05-2.69916E-05-2.93309E-05 4.59499E-06-9.25090E-19 1.30226E-18
 -1      3279 9.55702E-05-2.69377E-05-2.94043E-05 5.10669E-06-8.33136E-19 1.59881E-18
 -1      3280 9.44777E-05-2.62314E-05-2.92463E-05 5.47461E-06-7.92543E-19 1.27194E-18
 -1      3281 9.53769E-05-2.72113E-05-2.92199E-05 3.66146E-06-5.43440E-19 2.03803E-18
 -1      3282 9.54971E-05-2.71321E-05-2.92908E-05 4.10679E-06-6.45681E-19 1.23680E-18
 -1      3283 9.46439E-05-2.65230E-05-2.91927E-05 4.42236E-06-8.95226E-19 1.85501E-19
 -1      3284 9.53519E-05-2.74366E-05-2.91117E-05 2.87027E-06 8.16159E-20 2.59468E-18
 -1      3285 9.54478E-05-2.73524E-05-2.91763E-05 3.24750E-06-5.12892E-20 2.66475E-18
 -1      3286 9.47972E-05-2.68441E-05-2.91212E-05 3.51818E-06-8.88019E-19 1.57780E-20
 -1      3287 9.53300E-05-2.76430E-05-2.90128E-05 2.21269E-06-1.14374E-18 1.01304E-18
 -1      3288 9.54073E-05-2.75645E-05-2.90690E-05 2.52553E-06 4.69864E-19 2.15198E-18
 -1      3289 9.49229E-05-2.71513E-05-2.90440E-05 2.75588E-06 5.65799E-19 2.16197E-18
 -1      3290 9.53077E-05-2.78146E-05-2.89268E-05 1.67743E-06-4.65003E-19 3.76395E-19
 -1      3291 9.53705E-05-2.77515E-05-2.89739E-05 1.92957E-06-1.65961E-18 1.70411E-20
 -1      3292 9.50164E-05-2.74223E-05-2.89688E-05 2.12493E-06-1.01149E-18 1.58729E-18
 -1      3293 9.41736E-05-2.69389E-05-2.88164E-05-1.10097E-07 2.30582E-18-1.47565E-18
 -1      3294 9.41699E-05-2.69347E-05-2.88169E-05 7.31103E-08 2.06449E-18-1.31500E-18
 -1      3295 9.40308E-05-2.67890E-05-2.88139E-05-2.43753E-07 2.50027E-18-3.28448E-19
 -1      3296 9.50608E-05-2.78117E-05-2.88189E-05-1.07503E-06 7.70937E-19-1.12981E-18
 -1      3297 9.49073E-05-2.76638E-05-2.88225E-05-1.06157E-06 7.86729E-19 1.67249E-19
 -1      3298 9.53883E-05-2.79764E-05-2.88869E-05-2.42615E-06 4.36875E-19-4.63375E-19
 -1      3299 9.53545E-05-2.79342E-05-2.88913E-05-2.16669E-06 5.40780E-19-4.81437E-19
 -1      3300 9.54504E-05-2.78392E-05-2.89795E-05-2.54127E-06 4.18972E-19-7.46451E-19
 -1      3301 9.54410E-05-2.76156E-05-2.90691E-05-1.19071E-06 8.68079E-19-5.06428E-19
 -1      3302 9.54687E-05-2.74000E-05-2.91608E-05-7.48953E-07 8.76857E-19-3.87853E-19
 -1      3303 1.18743E-04-2.41255E-05-4.07798E-05 1.28129E-05-1.08309E-18-2.45011E-18
 -1      3304 9.44669E-05-2.72221E-05-2.88181E-05-7.99972E-07 3.59561E-19-1.95652E-18
 -1      3305 9.43600E-05-2.71254E-05-2.88187E-05-6.68118E-07 1.05424E-18-7.83630E-19
 -1      3306 9.41742E-05-2.69250E-05-2.88178E-05-6.54442E-07 8.66841E-19-2.25732E-18
 -1      3307 9.47441E-05-2.74930E-05-2.88199E-05-1.00612E-06 1.08879E-18-6.17797E-19
 -1      3308 9.46023E-05-2.73622E-05-2.88213E-05-9.27330E-07 7.10658E-19-2.09376E-18
 -1      3309 9.44309E-05-2.71654E-05-2.88256E-05-9.77744E-07 2.59729E-20-1.09662E-18
 -1      3310 9.47726E-05-2.74855E-05-2.88346E-05-1.17349E-06 1.10841E-18-1.08543E-18
 -1      3311 9.54209E-05-2.76376E-05-2.90418E-05-4.02796E-06 7.86962E-19-3.34664E-19
 -1      3312 9.53149E-05-2.77078E-05-2.89790E-05-3.72138E-06 6.46940E-19-2.89901E-19
 -1      3313 9.50026E-05-2.72465E-05-2.90383E-05-4.25428E-06 5.94214E-19-8.29048E-19
 -1      3314 9.53960E-05-2.78242E-05-2.89523E-05-3.43633E-06 4.59590E-19-3.36546E-19
 -1      3315 9.53125E-05-2.78705E-05-2.89063E-05-3.17336E-06 6.40284E-19-5.07448E-19
 -1      3316 9.53201E-05-2.77437E-05-2.89635E-05-3.06565E-06 5.70919E-19-8.10683E-19
 -1      3317 9.51714E-05-2.75355E-05-2.89879E-05-3.61930E-06 4.18015E-19-8.98624E-19
 -1      3318 1.24717E-04-5.62195E-05-2.90125E-05-1.27400E-05-2.02901E-18 1.16859E-18
 -1      3319 1.29551E-04-5.51596E-05-3.23191E-05-3.20168E-06-1.55377E-18 2.09212E-18
 -1      3320 8.46922E-05-3.98819E-05-1.88376E-05-3.39146E-05 2.22087E-18 1.89767E-18
 -1      3321 9.88947E-05-4.83156E-05-2.18236E-05-3.21269E-05 2.77477E-18 4.02314E-19
 -1      3322 1.02712E-04-4.82927E-05-2.28953E-05-2.83356E-05-2.82983E-18-7.22599E-19
 -1      3323 1.15064E-04-5.42619E-05-2.61774E-05-2.17447E-05-2.43458E-18-7.29143E-20
 -1      3324 9.53011E-05-2.45100E-05-3.03256E-05-2.81839E-06-1.04945E-18-1.27923E-18
 -1      3325 9.54065E-05-2.53503E-05-3.00348E-05-1.78681E-06-9.38474E-19-1.19851E-18
 -1      3326 9.48189E-05-2.31193E-05-3.07270E-05-3.34029E-06-9.81484E-19-1.86586E-18
 -1      3327 9.50714E-05-2.78398E-05-2.88110E-05 9.53220E-07-4.77075E-19-6.55327E-19
 -1      3328 9.54084E-05-2.78823E-05-2.89380E-05-1.88093E-06 6.66325E-19-5.04042E-19
 -1      3329 9.54047E-05-2.77688E-05-2.89799E-05-1.56057E-06 8.18516E-19-5.58953E-19
 -1      3330 9.55613E-05-2.77840E-05-2.90517E-05-1.97727E-06 5.93076E-19-6.93914E-19
 -1      3331 9.52356E-05-2.41786E-05-3.04547E-05 4.05986E-06 1.81875E-18-3.01153E-19
 -1      3332 9.46576E-05-2.26225E-05-3.08625E-05 4.56533E-06 1.83577E-18-5.33643E-19
 -1      3333 9.49252E-05-2.34360E-05-3.06378E-05 3.42864E-06 1.61446E-18-6.34788E-19
 -1      3334 9.52730E-05-2.50826E-05-3.00938E-05 2.74768E-06 1.66479E-18-2.72257E-19
 -1      3335 1.17613E-04-5.50245E-05-2.70341E-05 2.00486E-05 3.76136E-19 7.30265E-19
 -1      3336 1.07095E-04-5.08546E-05-2.38823E-05 2.68532E-05 6.74291E-19 5.61292E-20
 -1      3337 9.52361E-05-2.79870E-05-2.88227E-05-1.07635E-06 1.34311E-18-1.60051E-18
 -1      3338 1.05440E-04-5.04488E-05-2.37143E-05 2.77309E-05-1.87258E-18 1.09588E-18
 -1      3339 9.19763E-05-4.25769E-05-2.08589E-05 3.06415E-05-2.28434E-18 2.06642E-18
 -1      3340 6.04736E-05-2.37443E-05-1.53867E-05-2.73149E-05 1.13661E-18 1.00003E-18
 -1      3341 7.23157E-05-3.20127E-05-1.70942E-05-3.30008E-05 2.03584E-18 2.19249E-18
 -1      3342 9.22844E-05-1.80582E-05-3.18264E-05 1.71897E-06 7.41076E-19-2.15183E-18
 -1      3343 9.21546E-05-1.78444E-05-3.18596E-05 9.98056E-07 4.73462E-19-2.29921E-18
 -1      3344 1.28984E-04-5.31007E-05-3.28631E-05 2.24824E-06 2.83756E-20 2.09349E-18
 -1      3345 1.25447E-04-5.54631E-05-2.97554E-05 1.09685E-05 4.35583E-19 1.22042E-18
 -1      3346 1.26950E-04-5.65414E-05-3.04651E-05 9.82952E-06-1.08701E-18-1.86452E-18
 -1      3347 1.17559E-04-5.47565E-05-2.65956E-05 1.98942E-05-1.45359E-18-3.78227E-19
 -1      3348 1.27922E-04-4.73656E-05-3.46761E-05-8.14541E-06 4.92699E-19-2.63062E-18
 -1      3349 1.32395E-04-4.97988E-05-3.56155E-05-6.30839E-06 5.88198E-19-9.80811E-19
 -1      3350 1.31490E-04-5.47706E-05-3.27163E-05 1.15543E-06-4.92664E-19-1.44117E-18
 -1      3351 1.26756E-04-4.95959E-05-3.30045E-05-4.20851E-06-7.41531E-19-2.74824E-18
 -1      3352 1.20681E-04-3.82128E-05-3.54881E-05-1.14730E-05-4.63208E-19 2.57816E-18
 -1      3353 1.26487E-04-3.92767E-05-3.75977E-05-1.17933E-05-1.67543E-18 2.67662E-18
 -1      3354 1.29882E-04-4.83818E-05-3.48683E-05-5.73135E-06-5.87761E-19 2.79727E-18
 -1      3355 1.21771E-04-4.22484E-05-3.41178E-05-9.90526E-06-3.77459E-20 2.63935E-18
 -1      3356 1.21564E-04-3.10142E-05-3.91167E-05 1.39436E-05-7.29957E-19-2.80703E-18
 -1      3357 9.20889E-05-1.77368E-05-3.18785E-05 3.89272E-07 3.76628E-19-2.39154E-18
 -1      3358 9.20852E-05-1.77323E-05-3.18790E-05-3.43738E-07 2.11467E-19-2.38719E-18
 -1      3359 9.30069E-05-1.92652E-05-3.15846E-05 5.82882E-07 3.87559E-19-2.13884E-18
 -1      3360 9.29907E-05-1.92760E-05-3.16021E-05-3.44425E-06-5.71033E-19-2.10221E-18
 -1      3361 9.33537E-05-1.99163E-05-3.14878E-05-4.02486E-06-8.02013E-19-2.16204E-18
 -1      3362 1.24964E-04-5.21041E-05-3.13574E-05 2.91139E-06-1.16645E-18-8.35062E-19
 -1      3363 8.58541E-05-3.85599E-05-1.99905E-05 3.11180E-05-2.83851E-18 2.80087E-18
 -1      3364 7.84060E-05-3.30569E-05-1.92524E-05 2.93355E-05-3.52146E-18 2.97293E-18
 -1      3365 9.43543E-05-4.11472E-05-2.26530E-05 2.67273E-05-2.79479E-18 2.19956E-18
 -1      3366 1.24248E-04-5.40417E-05-3.00492E-05-9.04705E-06 1.08550E-18-1.85601E-18
 -1      3367 9.54732E-05-2.51619E-05-3.01316E-05-1.50579E-06-8.57089E-19-1.35480E-18
 -1      3368 1.26693E-04-3.62212E-05-3.90068E-05 1.27475E-05-4.49510E-19-3.68724E-18
 -1      3369 1.27032E-04-4.97167E-05-3.31644E-05 3.55154E-06-1.08944E-18 1.76013E-18
 -1      3370 1.30951E-04-4.86660E-05-3.50778E-05 7.93028E-06-5.19152E-19 2.32492E-18
 -1      3371 9.49507E-05-2.76333E-05-2.88538E-05-1.35394E-06 1.15069E-18-4.33820E-19
 -1      3372 9.51494E-05-2.78398E-05-2.88446E-05-1.24168E-06 8.31386E-19-1.13595E-18
 -1      3373 1.05942E-04-4.88284E-05-2.42470E-05-2.53452E-05 2.28487E-18-6.62539E-20
 -1      3374 9.56710E-05-2.69822E-05-2.94437E-05-3.58207E-07 1.05932E-18-6.54689E-19
 -1      3375 9.54662E-05-2.70979E-05-2.93055E-05-2.36992E-07 8.84813E-19-2.30722E-19
 -1      3376 9.55068E-05-2.67230E-05-2.94645E-05 4.04449E-07 1.10897E-18-2.01330E-19
 -1      3377 3.93305E-05-1.19039E-05-1.11395E-05-1.78577E-07-1.61598E-18-5.40407E-19
 -1      3378 4.56284E-05-1.25578E-05-1.38754E-05-6.62439E-06-1.13004E-18-2.13685E-18
 -1      3379 4.35500E-05-1.26813E-05-1.30959E-05 6.56781E-06-2.76583E-18-1.07139E-18
 -1      3380 1.22599E-04-2.00515E-05-4.43871E-05-1.17211E-05 2.11822E-18-8.09022E-19
 -1      3381 1.24647E-04-5.04512E-05-3.16158E-05-7.02418E-07-1.30479E-18 1.16832E-18
 -1      3382 1.21434E-04-5.23377E-05-2.98968E-05-8.22094E-06-1.60817E-18 1.04753E-18
 -1      3383 1.28787E-04-3.49118E-05-4.04768E-05 1.56414E-05 1.22449E-18 2.45692E-18
 -1      3384 1.29890E-04-4.24300E-05-3.79359E-05 1.28707E-05 6.32853E-19 2.77360E-18
 -1      3385 1.26035E-04-4.95746E-05-3.28389E-05-1.89137E-06 4.47730E-19 2.67688E-18
 -1      3386 9.40212E-05-2.67761E-05-2.88152E-05 2.01544E-07 1.78801E-18 6.18315E-19
 -1      3387 9.41966E-05-2.69600E-05-2.88185E-05 2.87126E-07 1.00120E-18 1.59430E-18
 -1      3388 9.42499E-05-2.70063E-05-2.88191E-05 4.59879E-07 2.14618E-19 8.43996E-19
 -1      3389 9.52842E-05-2.78416E-05-2.88985E-05 1.50063E-06-1.01645E-18 2.57551E-19
 -1      3390 9.50227E-05-2.75831E-05-2.89056E-05 1.65465E-06-1.12378E-18 5.21145E-19
 -1      3391 9.52118E-05-2.78451E-05-2.88681E-05 1.35188E-06-1.15841E-18 3.83968E-19
 -1      3392 9.43372E-05-2.70932E-05-2.88225E-05 6.48162E-07-9.45887E-19-2.19887E-18
 -1      3393 9.44413E-05-2.71863E-05-2.88229E-05 7.85800E-07-9.22084E-19-2.87013E-18
 -1      3394 9.41483E-05-2.68895E-05-2.88216E-05 6.23173E-07 5.57914E-19 1.12410E-20
 -1      3395 9.50628E-05-2.77982E-05-2.88264E-05 1.08543E-06-8.29435E-19 3.61360E-20
 -1      3396 9.51057E-05-2.77824E-05-2.88490E-05 1.22136E-06-8.19079E-19-3.94214E-19
 -1      3397 9.48368E-05-2.75834E-05-2.88281E-05 1.05246E-06-9.49055E-19-3.42085E-18
 -1      3398 5.44212E-05-2.12885E-05-1.37151E-05 2.39717E-05-4.06285E-18 2.24739E-18
 -1      3399 1.07154E-04-4.84814E-05-2.50108E-05 2.27927E-05 1.33278E-18 1.48684E-18
 -1      3400 1.01519E-04-4.78914E-05-2.28503E-05 2.91459E-05 9.23478E-19-9.16437E-19
 -1      3401 9.44068E-05-4.32331E-05-2.17810E-05 2.96949E-05 1.37913E-18-1.80622E-18
 -1      3402 9.45589E-05-2.73080E-05-2.88261E-05 8.98431E-07-1.43135E-18-2.69166E-18
 -1      3403 9.46944E-05-2.74327E-05-2.88254E-05 9.81201E-07-1.36151E-18-2.01414E-18
 -1      3404 9.46649E-05-2.73706E-05-2.88377E-05 1.12371E-06-8.70001E-19-2.81001E-18
 -1      3405 9.43826E-05-2.71026E-05-2.88304E-05 9.37293E-07-1.25987E-18-2.62285E-18
 -1      3406 9.26969E-05-1.87644E-05-3.17044E-05-2.92886E-06-4.77963E-19-2.32083E-18
 -1      3407 9.36733E-05-2.04827E-05-3.13456E-05-2.61469E-06-4.84284E-19-2.06659E-18
 -1      3408 9.24504E-05-1.83384E-05-3.17732E-05-2.24707E-06-2.09866E-19-2.38825E-18
 -1      3409 6.51778E-05-2.81542E-05-1.53994E-05-3.03381E-05-1.90979E-18-2.53538E-18
 -1      3410 7.48490E-05-3.21776E-05-1.82221E-05-3.03192E-05-2.35428E-18-1.46044E-18
 -1      3411 6.19058E-05-2.36747E-05-1.61184E-05-2.56343E-05-1.92001E-18-2.52246E-18
 -1      3412 4.43905E-05-1.52565E-05-1.19140E-05 1.64074E-05 6.79797E-19-3.94357E-18
 -1      3413 4.61951E-05-1.36513E-05-1.36578E-05 1.07846E-05 1.80074E-19-3.92854E-18
 -1      3414 5.24318E-05-1.81838E-05-1.44587E-05 2.08018E-05 1.40814E-18-2.49928E-18
 -1      3415 9.54288E-05-2.63252E-05-2.96238E-05 1.00715E-06 1.28846E-18-2.35535E-19
 -1      3416 9.54553E-05-2.57329E-05-2.98681E-05 1.92993E-06 1.49796E-18-1.71182E-19
 -1      3417 9.53555E-05-2.49919E-05-3.01524E-05 2.30798E-06 1.47436E-18-4.10831E-19
 -1      3418 9.55826E-05-2.61471E-05-2.97612E-05 8.21635E-07 1.15343E-18-4.39055E-19
 -1      3419 9.56434E-05-2.75248E-05-2.91987E-05-1.28534E-06 8.66821E-19-5.82234E-19
 -1      3420 1.18089E-04-5.28394E-05-2.78361E-05-1.51669E-05-2.09424E-18 4.43514E-19
 -1      3421 1.29511E-04-4.45785E-05-3.66192E-05 9.55539E-06 3.92335E-19-3.17060E-18
 -1      3422 4.30914E-05-1.32288E-05-1.21106E-05-1.06274E-05-6.87870E-19-3.66501E-18
 -1      3423 5.03038E-05-1.64892E-05-1.41922E-05-1.65211E-05-1.18892E-18-3.33551E-18
 -1      3424 9.61894E-05-4.52329E-05-2.18954E-05-3.04915E-05-2.70076E-18-9.35257E-19
 -1      3425 1.01138E-04-4.52807E-05-2.41660E-05-2.50502E-05-2.51341E-18-6.76488E-19
 -1      3426 8.86429E-05-3.93300E-05-2.08912E-05-2.98950E-05-2.59240E-18-6.80803E-19
 -1      3427 8.24891E-05-3.54718E-05-1.98380E-05-2.98966E-05 1.99265E-18 1.74558E-18
 -1      3428 1.27286E-04-4.73908E-05-3.43111E-05 5.06898E-06 4.99273E-19-3.58218E-18
 -1      3429 5.36105E-05-1.69457E-05-1.54586E-05-1.77553E-05 6.26540E-20-1.86617E-18
 -1      3430 5.68016E-05-2.01975E-05-1.52232E-05-2.37041E-05 4.17905E-19-5.30084E-19
 -1      3431 6.67990E-05-2.39011E-05-1.81633E-05-2.42633E-05 1.05520E-18 4.98638E-19
 -1      3432 9.24688E-05-1.83712E-05-3.17685E-05 2.29431E-06 9.10614E-19-2.01765E-18
 -1      3433 9.32439E-05-1.96767E-05-3.15062E-05 1.67958E-06 7.15254E-19-1.87542E-18
 -1      3434 9.27247E-05-1.88098E-05-3.16983E-05 2.96304E-06 1.19155E-18-1.90808E-18
 -1      3435 9.26564E-05-1.82438E-05-3.19119E-05-6.77371E-06-1.25081E-18-2.20805E-18
 -1      3436 9.32841E-05-1.92656E-05-3.17597E-05-7.27519E-06-1.48844E-18-1.94563E-18
 -1      3437 9.34088E-05-2.00205E-05-3.14762E-05 4.05244E-06 1.53280E-18-1.39867E-18
 -1      3438 9.30351E-05-1.93394E-05-3.15943E-05 3.47951E-06 1.32645E-18-1.71501E-18
 -1      3439 9.37191E-05-2.05269E-05-3.13403E-05 2.66859E-06 1.15268E-18-1.66823E-18
 -1      3440 9.43155E-05-2.17682E-05-3.10668E-05 3.41015E-06 1.45069E-18-1.08972E-18
 -1      3441 9.42007E-05-2.12683E-05-3.12471E-05-5.93995E-06-1.48202E-18-1.67464E-18
 -1      3442 6.87968E-05-3.07553E-05-1.57937E-05 3.32594E-05 1.84373E-18-2.84074E-18
 -1      3443 6.31853E-05-2.55177E-05-1.58322E-05 2.86909E-05 1.59899E-18-2.51897E-18
 -1      3444 7.93343E-05-3.53481E-05-1.86577E-05 3.19315E-05 1.62276E-18-2.92120E-18
 -1      3445 1.19684E-04-5.32120E-05-2.84421E-05 1.34645E-05 1.23299E-18 1.68745E-18
 -1      3446 1.11756E-04-5.05681E-05-2.60887E-05 2.02347E-05-1.83073E-18 9.94552E-20
 -1      3447 1.23852E-04-4.65368E-05-3.32889E-05-5.52779E-06 5.11528E-19 3.02395E-18
 -1      3448 4.42167E-05-1.25042E-05-1.32359E-05-3.05580E-06-5.24591E-19-3.78910E-18
 -1      3449 9.33259E-05-1.95625E-05-3.15929E-05-5.49587E-06-1.18794E-18-2.21841E-18
 -1      3450 1.21689E-04-5.26961E-05-2.92922E-05 1.02313E-05-1.15648E-18-1.11588E-18
 -1      3451 1.25631E-04-5.38744E-05-3.08481E-05 5.62306E-06-8.82820E-19-7.71793E-19
 -1      3452 9.47249E-05-2.73798E-05-2.88586E-05-1.42776E-06 8.97441E-19-1.05320E-19
 -1      3453 9.47280E-05-2.74239E-05-2.88441E-05-1.29612E-06 3.76716E-19-3.20727E-19
 -1      3454 9.45327E-05-2.72522E-05-2.88385E-05-1.23183E-06 2.18267E-19-9.22455E-19
 -1      3455 9.54722E-05-2.76927E-05-2.90458E-05-2.55272E-06 4.17293E-19-9.00884E-19
 -1      3456 9.55360E-05-2.77012E-05-2.90714E-05-2.27898E-06 3.60281E-19-8.13890E-19
 -1      3457 9.59008E-05-2.68518E-05-2.95863E-05 5.74181E-07-6.95362E-19-8.49431E-19
 -1      3458 9.58892E-05-2.71648E-05-2.94573E-05 1.02092E-06-5.84169E-19-6.27568E-19
 -1      3459 9.58530E-05-2.73924E-05-2.93363E-05 1.36370E-06-5.45733E-19-5.32664E-19
 -1      3460 9.57965E-05-2.75437E-05-2.92522E-05 1.70331E-06-6.06661E-19-4.97462E-19
 -1      3461 9.59285E-05-2.70568E-05-2.95163E-05 1.06129E-06-4.97275E-19-7.00683E-19
 -1      3462 9.56828E-05-2.76187E-05-2.91690E-05 1.97832E-06-5.07691E-19-4.65595E-20
 -1      3463 9.56004E-05-2.76528E-05-2.91192E-05 2.25815E-06-1.80696E-19 6.53963E-20
 -1      3464 9.57819E-05-2.74050E-05-2.93046E-05 1.69485E-06-3.78943E-19-3.06453E-19
 -1      3465 9.54302E-05-2.76161E-05-2.90642E-05 2.50265E-06-1.99852E-19-1.90237E-20
 -1      3466 9.53319E-05-2.75661E-05-2.90395E-05 2.76154E-06-6.60912E-20-2.13034E-19
 -1      3467 9.55022E-05-2.74659E-05-2.91584E-05 2.22636E-06-2.26543E-19 5.41507E-20
 -1      3468 9.51180E-05-2.74492E-05-2.90040E-05 3.00714E-06-1.72153E-19-6.15594E-19
 -1      3469 9.50104E-05-2.73425E-05-2.89963E-05 3.27532E-06-5.08263E-19-4.09114E-19
 -1      3470 9.51226E-05-2.73156E-05-2.90596E-05 2.72355E-06-4.80289E-19-2.73578E-19
 -1      3471 9.47618E-05-2.71725E-05-2.89717E-05 3.54765E-06-5.76428E-19-5.60741E-19
 -1      3472 9.46519E-05-2.70355E-05-2.89730E-05 3.84718E-06-1.24855E-19-5.64212E-19
 -1      3473 9.46643E-05-2.70168E-05-2.89905E-05 3.24343E-06-5.36971E-19-2.12265E-19
 -1      3474 9.43776E-05-2.68405E-05-2.89507E-05 4.16630E-06-1.69500E-19-5.58899E-19
 -1      3475 9.42764E-05-2.67032E-05-2.89534E-05 4.51173E-06-3.00392E-19-4.88950E-19
 -1      3476 9.41448E-05-2.66287E-05-2.89335E-05 3.83196E-06-2.19050E-19-4.65647E-19
 -1      3477 9.39895E-05-2.65162E-05-2.89242E-05 4.89331E-06-3.35840E-19-5.71828E-19
 -1      3478 9.39166E-05-2.64172E-05-2.89204E-05 5.29228E-06-1.69374E-19-5.31262E-19
 -1      3479 9.35851E-05-2.62156E-05-2.88704E-05 4.52582E-06-2.85594E-19-7.70070E-19
 -1      3480 9.36403E-05-2.62826E-05-2.88749E-05 5.74914E-06 7.04563E-20-5.70798E-19
 -1      3481 9.36301E-05-2.62754E-05-2.88562E-05 6.20241E-06 6.54980E-20-1.82156E-19
 -1      3482 9.30199E-05-2.58578E-05-2.87819E-05 5.35589E-06-3.03596E-21-9.18200E-19
 -1      3483 9.34053E-05-2.62557E-05-2.87848E-05 6.74523E-06-2.06815E-19 6.67408E-20
 -1      3484 9.35157E-05-2.64159E-05-2.87439E-05 7.24543E-06-1.96148E-20-6.60045E-20
 -1      3485 9.25100E-05-2.56648E-05-2.86479E-05 6.35087E-06 5.94819E-20-5.47837E-19
 -1      3486 9.34118E-05-2.65982E-05-2.86379E-05 7.88238E-06 3.15465E-20 3.46756E-20
 -1      3487 9.37353E-05-2.70292E-05-2.85704E-05 8.41079E-06 2.38238E-19 2.59032E-19
 -1      3488 9.21606E-05-2.57898E-05-2.84489E-05 7.53903E-06 2.53547E-19-1.03340E-19
 -1      3489 9.38653E-05-2.75326E-05-2.84256E-05 9.14474E-06 2.10046E-19 5.52960E-19
 -1      3490 9.45417E-05-2.83709E-05-2.83346E-05 9.66240E-06 2.37727E-19 8.19833E-19
 -1      3491 9.21460E-05-2.64449E-05-2.81703E-05 8.94821E-06 4.01128E-19 4.34798E-19
 -1      3492 9.50869E-05-2.93507E-05-2.81573E-05 1.04762E-05 1.94755E-19 7.66289E-19
 -1      3493 9.63108E-05-3.07611E-05-2.80627E-05 1.09006E-05 2.07275E-19 6.77607E-19
 -1      3494 9.27475E-05-2.79212E-05-2.78109E-05 1.05957E-05 3.52879E-19 2.14038E-19
 -1      3495 9.75549E-05-3.24032E-05-2.78830E-05 1.17010E-05 4.36384E-19 1.12870E-18
 -1      3496 9.95404E-05-3.45190E-05-2.78360E-05 1.18523E-05 8.34075E-19 1.61798E-18
 -1      3497 9.44170E-05-3.06114E-05-2.74017E-05 1.24288E-05 8.00522E-19 1.20208E-18
 -1      3498 1.01866E-04-3.69523E-05-2.77319E-05 1.23729E-05 1.18052E-18 1.98917E-18
 -1      3499 1.04763E-04-3.97534E-05-2.78399E-05 1.19210E-05 1.56903E-18 2.47208E-18
 -1      3500 9.78296E-05-3.49471E-05-2.70437E-05 1.41991E-05 1.21461E-18 2.15977E-18
 -1      3501 1.08571E-04-4.29455E-05-2.79907E-05 1.15946E-05 1.66687E-18 2.59345E-18
 -1      3502 1.12292E-04-4.58604E-05-2.84652E-05 9.95890E-06 1.61750E-18 2.64460E-18
 -1      3503 1.03704E-04-4.09724E-05-2.69828E-05 1.50972E-05 1.75163E-18 2.26102E-18
 -1      3504 1.24495E-04-5.03919E-05-3.15580E-05 9.00492E-07 1.38798E-18 2.86771E-18
 -1      3505 9.40420E-05-2.67966E-05-2.88186E-05-8.43131E-07 4.39257E-19-2.44880E-18
 -1      3506 9.39232E-05-2.66987E-05-2.88143E-05-6.47987E-07 4.99083E-19-2.45438E-18
 -1      3507 9.53053E-05-2.43087E-05-3.04230E-05-1.90146E-06-5.98190E-19-1.75216E-18
 -1      3508 9.55145E-05-2.51468E-05-3.01673E-05-1.07005E-06-6.53912E-19-1.49058E-18
 -1      3509 9.92196E-05-4.35384E-05-2.36501E-05-2.51770E-05 1.41921E-18 5.26153E-20
 -1      3510 1.09253E-04-4.85823E-05-2.60298E-05-1.98291E-05 1.68145E-18-4.42853E-19
 -1      3511 1.11315E-04-4.50149E-05-2.83915E-05-1.01846E-05 6.08934E-19-2.06565E-18
 -1      3512 1.07490E-04-4.19553E-05-2.79566E-05-1.17899E-05 8.18138E-19-1.83066E-18
 -1      3513 1.03905E-04-3.88175E-05-2.78516E-05-1.18978E-05 3.29301E-19-1.94002E-18
 -1      3514 1.01062E-04-3.60859E-05-2.77675E-05-1.22126E-05 2.49211E-19-1.92084E-18
 -1      3515 1.02711E-04-3.98327E-05-2.70060E-05-1.47525E-05 6.32495E-19-2.49090E-18
 -1      3516 9.89138E-05-3.37562E-05-2.78901E-05-1.15913E-05 4.01664E-19-1.55940E-18
 -1      3517 9.70238E-05-3.17175E-05-2.79524E-05-1.13609E-05 2.18478E-19-9.70505E-19
 -1      3518 9.70764E-05-3.40201E-05-2.71127E-05-1.38247E-05 6.73853E-19-2.01383E-18
 -1      3519 9.58910E-05-3.01645E-05-2.81382E-05-1.05152E-05-3.27274E-20-4.80976E-19
 -1      3520 9.47484E-05-2.88285E-05-2.82383E-05-1.00404E-05-4.96115E-19 3.58617E-19
 -1      3521 9.39727E-05-2.99339E-05-2.74935E-05-1.19683E-05 5.17552E-19-1.47735E-18
 -1      3522 9.42538E-05-2.79021E-05-2.84137E-05-9.20499E-06-1.71225E-18 4.89371E-19
 -1      3523 9.36248E-05-2.71088E-05-2.85052E-05-8.64423E-06-1.98678E-18-1.68019E-19
 -1      3524 9.24547E-05-2.74052E-05-2.79033E-05-1.00984E-05-1.25151E-18-7.66986E-19
 -1      3525 9.35091E-05-2.66319E-05-2.86452E-05-7.88557E-06-1.80518E-18 5.40050E-19
 -1      3526 9.32067E-05-2.62232E-05-2.87112E-05-7.31465E-06-1.04917E-18 6.39602E-19
 -1      3527 9.19093E-05-2.60091E-05-2.82536E-05-8.41681E-06-1.33570E-18 1.27480E-18
 -1      3528 9.32991E-05-2.60463E-05-2.88108E-05-6.64773E-06-1.15469E-20 1.18231E-18
 -1      3529 9.31906E-05-2.58913E-05-2.88490E-05-6.10292E-06 1.20132E-19 8.80630E-19
 -1      3530 9.19221E-05-2.53840E-05-2.85191E-05-6.96010E-06-2.34220E-19 1.52208E-18
 -1      3531 9.33840E-05-2.59015E-05-2.89125E-05-5.52465E-06-6.21278E-19 1.51696E-18
 -1      3532 9.33819E-05-2.59028E-05-2.89269E-05-5.02417E-06-3.93133E-19 1.41302E-18
 -1      3533 9.22264E-05-2.52529E-05-2.87017E-05-5.71186E-06 4.84356E-21 2.92393E-18
 -1      3534 9.36119E-05-2.60197E-05-2.89615E-05-4.52749E-06-3.30325E-20 1.06802E-18
 -1      3535 9.36616E-05-2.61090E-05-2.89583E-05-4.08056E-06 5.12509E-19-2.07622E-19
 -1      3536 9.26581E-05-2.54171E-05-2.88145E-05-4.64621E-06-1.15875E-19 2.89811E-18
 -1      3537 9.38910E-05-2.62778E-05-2.89718E-05-3.65818E-06 1.21838E-18-3.20695E-19
 -1      3538 9.39605E-05-2.64094E-05-2.89572E-05-3.26838E-06 8.31612E-19 8.99687E-19
 -1      3539 9.31202E-05-2.57393E-05-2.88738E-05-3.74059E-06 1.08621E-18 8.82139E-19
 -1      3540 9.41694E-05-2.65939E-05-2.89565E-05-2.91410E-06 6.41221E-19 5.49994E-19
 -1      3541 9.42398E-05-2.67373E-05-2.89355E-05-2.58077E-06 1.04687E-18 6.24764E-19
 -1      3542 9.35590E-05-2.61282E-05-2.88952E-05-2.97743E-06 5.44272E-19 1.00013E-18
 -1      3543 9.44196E-05-2.69158E-05-2.89264E-05-2.28637E-06 7.02039E-19 8.10281E-19
 -1      3544 9.44818E-05-2.70530E-05-2.89031E-05-2.00955E-06 5.39125E-19 9.69423E-19
 -1      3545 9.39471E-05-2.65259E-05-2.88918E-05-2.34127E-06 1.33160E-18 9.75140E-19
 -1      3546 9.45876E-05-2.71625E-05-2.88923E-05-1.81681E-06 7.49938E-19 1.03862E-18
 -1      3547 9.46436E-05-2.72835E-05-2.88697E-05-1.58763E-06 1.15384E-18 1.03172E-18
 -1      3548 9.44014E-05-2.70687E-05-2.88562E-05-1.51582E-06 2.69386E-19 2.88868E-19
 -1      3549 9.42088E-05-2.68291E-05-2.88749E-05-1.86601E-06 1.07889E-18 2.33526E-18
 -1      3550 9.41740E-05-2.63975E-05-2.90402E-05-5.02770E-06 6.08913E-19-5.35637E-19
 -1      3551 9.42764E-05-2.65907E-05-2.90167E-05-4.62431E-06 4.80090E-19-5.13547E-19
 -1      3552 9.28526E-05-2.54273E-05-2.88832E-05-8.22515E-06-5.38438E-19-1.95655E-19
 -1      3553 9.28592E-05-2.54079E-05-2.89202E-05-7.60522E-06-1.83855E-19-4.33724E-19
 -1      3554 9.26499E-05-2.56985E-05-2.86739E-05-9.64560E-06-7.61856E-19-2.97434E-19
 -1      3555 9.24895E-05-2.54217E-05-2.87554E-05-8.96136E-06-5.57692E-19-9.50093E-20
 -1      3556 9.10237E-05-2.45183E-05-2.84970E-05-8.38200E-06-6.46739E-19 3.34851E-19
 -1      3557 9.29208E-05-2.67133E-05-2.83453E-05-1.12657E-05-6.29705E-19-5.31142E-19
 -1      3558 9.24278E-05-2.59999E-05-2.84781E-05-1.05343E-05-6.91340E-19-6.15603E-19
 -1      3559 9.04033E-05-2.47508E-05-2.81378E-05-9.99525E-06-2.49631E-19-2.08294E-20
 -1      3560 9.41323E-05-2.89266E-05-2.78978E-05-1.30737E-05-9.04509E-19-1.03852E-18
 -1      3561 9.30293E-05-2.75256E-05-2.80727E-05-1.23415E-05-6.78002E-19-7.05103E-19
 -1      3562 9.02139E-05-2.58000E-05-2.76213E-05-1.19989E-05-5.44412E-19-7.59348E-19
 -1      3563 9.70085E-05-3.29847E-05-2.73792E-05-1.49913E-05-8.42009E-19-8.45316E-19
 -1      3564 9.48853E-05-3.05261E-05-2.75533E-05-1.43933E-05-8.05820E-19-7.32682E-19
 -1      3565 9.09064E-05-2.81504E-05-2.69389E-05-1.45096E-05-8.95549E-19-9.28100E-19
 -1      3566 1.02831E-04-3.95051E-05-2.70385E-05-1.60209E-05-1.68118E-18-3.85592E-19
 -1      3567 9.92858E-05-3.59754E-05-2.70334E-05-1.62731E-05-1.33911E-18-6.76938E-19
 -1      3568 9.35747E-05-3.29641E-05-2.61188E-05-1.77518E-05-1.27991E-18-8.14124E-19
 -1      3569 9.55988E-05-3.14103E-05-2.74704E-05 1.46499E-05-8.64735E-19 2.19826E-18
 -1      3570 9.79819E-05-3.40874E-05-2.73168E-05 1.51660E-05-1.00979E-18 2.26804E-18
 -1      3571 1.14563E-04-5.03823E-05-2.74727E-05-1.60638E-05-1.86321E-18 1.42705E-19
 -1      3572 1.00440E-04-3.71649E-05-2.70058E-05 1.63745E-05-1.57629E-18 1.05509E-18
 -1      3573 1.04197E-04-4.10193E-05-2.70386E-05 1.62723E-05-1.67451E-18 2.25350E-19
 -1      3574 9.45265E-05-3.39551E-05-2.60090E-05 1.82077E-05-2.02834E-18 2.80469E-18
 -1      3575 1.09569E-04-4.50322E-05-2.74328E-05 1.55615E-05-1.93436E-18-6.47292E-19
 -1      3576 1.14687E-04-4.92969E-05-2.80454E-05 1.37703E-05-1.56706E-18-1.14613E-18
 -1      3577 1.14103E-04-5.05556E-05-2.74118E-05 1.64464E-05-1.20621E-18-7.17596E-19
 -1      3578 1.01872E-04-4.16050E-05-2.59307E-05 1.95589E-05-1.97598E-18 2.54692E-19
 -1      3579 9.32684E-05-2.79135E-05-2.80034E-05 1.25748E-05 1.80232E-19 4.95429E-19
 -1      3580 9.45650E-05-2.95319E-05-2.78208E-05 1.33129E-05 2.16436E-20 1.52952E-18
 -1      3581 9.12602E-05-2.88520E-05-2.67983E-05 1.50074E-05-5.24796E-19 2.45139E-18
 -1      3582 9.24159E-05-2.60624E-05-2.84436E-05 1.06485E-05-6.63108E-20-1.00764E-18
 -1      3583 9.30254E-05-2.69253E-05-2.82958E-05 1.14192E-05-5.30006E-20-5.53733E-19
 -1      3584 9.01757E-05-2.60136E-05-2.75170E-05 1.23045E-05 6.73405E-19 9.27522E-19
 -1      3585 9.23393E-05-2.52674E-05-2.87560E-05 8.94486E-06-1.17675E-18-5.28842E-19
 -1      3586 9.25642E-05-2.56434E-05-2.86591E-05 9.68287E-06-8.24382E-19-6.19718E-19
 -1      3587 9.01755E-05-2.46682E-05-2.80767E-05 1.01263E-05-4.22808E-19 3.95555E-19
 -1      3588 9.26282E-05-2.51079E-05-2.89492E-05 7.45157E-06-2.30238E-18 1.15463E-18
 -1      3589 9.26576E-05-2.51931E-05-2.88996E-05 8.13465E-06-1.85775E-18 2.38613E-19
 -1      3590 9.06859E-05-2.42365E-05-2.84731E-05 8.35626E-06-2.12084E-18 8.96799E-19
 -1      3591 9.30528E-05-2.53005E-05-2.90482E-05 6.14510E-06-1.32132E-18 1.68201E-18
 -1      3592 9.29956E-05-2.52254E-05-2.90348E-05 6.76356E-06-1.31389E-18 1.52098E-18
 -1      3593 9.13887E-05-2.43340E-05-2.87300E-05 6.88728E-06-2.17480E-18 5.50516E-19
 -1      3594 9.34932E-05-2.56646E-05-2.90798E-05 5.00831E-06-1.01181E-18 1.69719E-18
 -1      3595 9.34077E-05-2.55116E-05-2.90910E-05 5.55704E-06-7.68382E-19 1.43528E-18
 -1      3596 9.21149E-05-2.47109E-05-2.88795E-05 5.64465E-06-1.08753E-18 2.27324E-19
 -1      3597 9.38927E-05-2.60897E-05-2.90674E-05 4.02935E-06-8.30179E-19 9.85107E-19
 -1      3598 9.38073E-05-2.59088E-05-2.90934E-05 4.50662E-06-1.10616E-18 7.91374E-19
 -1      3599 9.27820E-05-2.52109E-05-2.89520E-05 4.58488E-06-7.62854E-19 7.45498E-19
 -1      3600 9.42295E-05-2.65123E-05-2.90293E-05 3.19740E-06-7.96961E-19 3.40808E-19
 -1      3601 9.41564E-05-2.63320E-05-2.90624E-05 3.60470E-06-1.00679E-18 2.02030E-19
 -1      3602 9.33558E-05-2.57393E-05-2.89728E-05 3.68244E-06-4.20239E-19 4.38087E-19
 -1      3603 9.45000E-05-2.68972E-05-2.89787E-05 2.50110E-06-4.64146E-19 2.46169E-18
 -1      3604 9.44428E-05-2.67335E-05-2.90137E-05 2.84224E-06-6.09697E-20 1.42346E-18
 -1      3605 9.38287E-05-2.62420E-05-2.89613E-05 2.92016E-06-1.52245E-18-1.69281E-19
 -1      3606 9.47066E-05-2.72275E-05-2.89246E-05 1.93131E-06-3.76507E-19 1.05776E-18
 -1      3607 9.46683E-05-2.70911E-05-2.89580E-05 2.20541E-06-3.58355E-19 1.67089E-18
 -1      3608 9.42047E-05-2.66894E-05-2.89317E-05 2.28313E-06 2.04805E-20 2.07307E-18
 -1      3609 9.38318E-05-2.66112E-05-2.88094E-05-3.94388E-07 1.08198E-18-9.78759E-19
 -1      3610 9.37863E-05-2.65733E-05-2.88084E-05-1.66927E-07 1.87811E-18-7.88327E-19
 -1      3611 9.36846E-05-2.64560E-05-2.88084E-05-5.87194E-07-2.88056E-19-2.23837E-18
 -1      3612 9.32593E-05-2.55806E-05-2.89953E-05-6.99104E-06-4.76636E-20-7.41823E-19
 -1      3613 9.33386E-05-2.56989E-05-2.90001E-05-6.44282E-06-6.98293E-20-7.13395E-19
 -1      3614 9.17992E-05-2.47523E-05-2.87273E-05-7.06050E-06-3.33276E-19-3.73655E-19
 -1      3615 9.37239E-05-2.59484E-05-2.90386E-05-5.92951E-06-1.91698E-20-7.13071E-19
 -1      3616 9.38263E-05-2.61282E-05-2.90238E-05-5.45520E-06 2.97320E-19-7.93780E-19
 -1      3617 9.33147E-05-2.57875E-05-2.89347E-05-5.04601E-06 5.57762E-19-5.07473E-19
 -1      3618 9.25857E-05-2.52242E-05-2.88624E-05-5.96276E-06-1.13914E-19-8.94241E-19
 -1      3619 9.45789E-05-2.68440E-05-2.90232E-05-4.26874E-06 5.54199E-19-5.27080E-19
 -1      3620 9.46724E-05-2.70202E-05-2.90004E-05-3.92740E-06 6.05316E-19-4.03383E-19
 -1      3621 9.39590E-05-2.63485E-05-2.89720E-05-4.27913E-06 7.59750E-19-6.21443E-19
 -1      3622 1.25800E-04-5.05110E-05-3.23827E-05 8.82531E-07 1.31817E-18-3.00726E-18
 -1      3623 9.21448E-05-1.78294E-05-3.18614E-05-9.49736E-07 1.52150E-19-2.43862E-18
 -1      3624 9.22659E-05-1.80345E-05-3.18294E-05-1.67052E-06-4.74212E-20-2.45988E-18
 -1      3625 9.32248E-05-1.96542E-05-3.15092E-05-1.63726E-06-9.62335E-20-2.27831E-18
 -1      3626 9.57807E-05-2.74502E-05-2.92867E-05-1.36598E-06 8.98921E-19-6.72922E-19
 -1      3627 9.58147E-05-2.72281E-05-2.93872E-05-9.56911E-07 9.24882E-19-5.77573E-19
 -1      3628 5.47027E-05-1.61599E-05-1.63467E-05-1.45026E-05-1.13087E-18-2.49488E-18
 -1      3629 5.73778E-05-1.91469E-05-1.59348E-05-2.09071E-05-1.71752E-18-2.63242E-18
 -1      3630 6.56270E-05-2.29049E-05-1.80846E-05-2.23472E-05-1.76733E-18-2.12536E-18
 -1      3631 6.22585E-05-2.34149E-05-1.65420E-05 2.52660E-05-2.96943E-18 3.43938E-18
 -1      3632 5.03645E-05-1.60144E-05-1.41163E-05 1.74561E-05-3.32468E-18 1.32772E-18
 -1      3633 9.56613E-05-2.76849E-05-2.91323E-05-2.00990E-06 5.06275E-19-7.47410E-19
 -1      3634 9.57139E-05-2.75951E-05-2.91902E-05-1.69279E-06 7.69300E-19-5.48827E-19
 -1      3635 9.56504E-05-2.75282E-05-2.91962E-05-2.01932E-06 5.35147E-19-9.71816E-19
 -1      3636 9.57528E-05-2.58749E-05-2.99408E-05-4.82893E-07-6.82948E-19-1.21158E-18
 -1      3637 9.58254E-05-2.64136E-05-2.97549E-05 1.25655E-07-6.61506E-19-1.08065E-18
 -1      3638 9.55772E-05-2.50714E-05-3.02135E-05-8.05630E-07-5.47950E-19-1.57376E-18
 -1      3639 7.96113E-05-3.07479E-05-2.07833E-05-2.59382E-05 1.43841E-18 2.30382E-18
 -1      3640 9.00572E-05-3.82498E-05-2.22328E-05-2.72992E-05 1.56132E-18 1.37518E-18
 -1      3641 9.59721E-05-3.90287E-05-2.42129E-05-2.22310E-05 1.19659E-18 6.86236E-19
 -1      3642 1.21278E-04-5.23526E-05-2.97718E-05 8.16196E-06 1.47184E-18 2.61763E-18
 -1      3643 1.15300E-04-5.10057E-05-2.74172E-05 1.56960E-05 1.46859E-18 2.00179E-18
 -1      3644 1.20721E-04-4.98776E-05-3.04254E-05 4.02215E-06 1.81471E-18 2.84397E-18
 -1      3645 9.52744E-05-2.43695E-05-3.03839E-05 2.58925E-06 1.41642E-18-6.92702E-19
 -1      3646 9.49713E-05-2.35176E-05-3.06294E-05 2.81359E-06 1.41799E-18-8.14038E-19
 -1      3647 9.54081E-05-2.50598E-05-3.01561E-05 1.72801E-06 1.29953E-18-6.20685E-19
 -1      3648 4.66886E-05-1.21252E-05-1.42644E-05 3.43808E-06-2.92359E-19-4.17757E-18
 -1      3649 4.98148E-05-1.29839E-05-1.56053E-05-3.84081E-06-6.88321E-19-3.20507E-18
 -1      3650 5.16323E-05-1.39762E-05-1.59099E-05 8.51478E-06-7.78013E-20-3.34139E-18
 -1      3651 1.04588E-04-4.57122E-05-2.49725E-05 2.26426E-05-2.13439E-18 6.56967E-19
 -1      3652 1.20428E-04-5.13282E-05-2.95844E-05-8.02535E-06 1.16485E-18-2.92208E-18
 -1      3653 1.16235E-04-4.95221E-05-2.84990E-05-1.09686E-05 7.83135E-19-2.69386E-18
 -1      3654 1.08700E-04-4.57319E-05-2.69425E-05-1.75526E-05-2.02469E-18-2.67785E-19
 -1      3655 1.00961E-04-4.16486E-05-2.52603E-05-2.11827E-05-1.93908E-18-7.54045E-19
 -1      3656 8.13773E-05-3.16587E-05-2.12651E-05 2.55271E-05-2.98385E-18 3.47421E-18
 -1      3657 7.26084E-05-2.78296E-05-1.87902E-05 2.68063E-05-3.02783E-18 2.45925E-18
 -1      3658 6.68431E-05-2.24872E-05-1.89116E-05 2.16974E-05-2.50780E-18 2.61736E-18
 -1      3659 9.40343E-05-2.11352E-05-3.12487E-05-5.13540E-06-1.28715E-18-1.99748E-18
 -1      3660 9.53003E-05-2.76116E-05-2.90115E-05-2.80261E-06 3.56055E-19-9.60878E-19
 -1      3661 9.53588E-05-2.74781E-05-2.90919E-05-2.55184E-06 3.98584E-19-1.15022E-18
 -1      3662 9.52273E-05-2.75289E-05-2.90096E-05-3.07172E-06 3.55769E-19-7.55579E-19
 -1      3663 9.46952E-05-2.28329E-05-3.08053E-05 2.59122E-06 1.31001E-18-1.07163E-18
 -1      3664 1.12550E-04-4.75909E-05-2.78757E-05 1.27862E-05 1.79702E-18 2.21824E-18
 -1      3665 1.17133E-04-4.84668E-05-2.92715E-05 7.45704E-06 1.66990E-18 2.76779E-18
 -1      3666 9.46556E-05-2.27552E-05-3.08226E-05-2.74757E-06-6.69790E-19-1.94620E-18
 -1      3667 9.46843E-05-2.27442E-05-3.08326E-05-2.24750E-06-5.26072E-19-1.94385E-18
 -1      3668 9.29971E-05-1.92527E-05-3.15857E-05-5.47161E-07 1.94249E-19-2.26699E-18
 -1      3669 9.57971E-05-2.69065E-05-2.95296E-05-5.24108E-07 9.95945E-19-6.71529E-19
 -1      3670 9.57912E-05-2.65026E-05-2.96856E-05 3.55613E-08 1.02241E-18-7.78679E-19
 -1      3671 9.58817E-05-2.67951E-05-2.96094E-05-6.24115E-07 1.00624E-18-6.55363E-19
 -1      3672 5.22546E-05-1.47396E-05-1.56544E-05 1.00159E-05-2.13393E-18-1.06303E-19
 -1      3673 9.37787E-05-2.65628E-05-2.88092E-05 1.07649E-07 1.70668E-18 1.00398E-18
 -1      3674 9.38124E-05-2.65887E-05-2.88115E-05 3.38447E-07 7.63814E-19 2.75424E-18
 -1      3675 9.35766E-05-2.63571E-05-2.88037E-05-3.77354E-08 7.72377E-19 3.77431E-19
 -1      3676 9.47564E-05-2.73027E-05-2.89045E-05 1.72459E-06-1.90524E-19-3.71317E-19
 -1      3677 9.44040E-05-2.69777E-05-2.88940E-05 1.78816E-06 1.17457E-18-1.10941E-18
 -1      3678 9.47377E-05-2.73560E-05-2.88792E-05 1.53240E-06-2.40669E-19-7.04445E-19
 -1      3679 9.38913E-05-2.66576E-05-2.88179E-05 6.01042E-07 1.86312E-18 1.32747E-18
 -1      3680 9.40007E-05-2.67465E-05-2.88233E-05 8.04627E-07 1.24560E-18-7.62715E-19
 -1      3681 9.36523E-05-2.64146E-05-2.88116E-05 5.20148E-07 1.74843E-18 6.61459E-19
 -1      3682 9.41390E-05-2.68747E-05-2.88321E-05 9.82566E-07 1.06375E-18-9.43688E-19
 -1      3683 9.42801E-05-2.69902E-05-2.88369E-05 1.10089E-06 9.91364E-20-1.62865E-18
 -1      3684 9.38972E-05-2.66179E-05-2.88293E-05 9.78145E-07 2.52656E-18-2.49034E-20
 -1      3685 7.12325E-05-2.41132E-05-2.01145E-05-2.16674E-05 4.70050E-19 2.44316E-20
 -1      3686 7.57525E-05-2.78012E-05-2.03879E-05-2.48692E-05 1.21234E-18 1.93746E-18
 -1      3687 8.29836E-05-3.03524E-05-2.25252E-05-2.26096E-05 3.99654E-19 2.72607E-18
 -1      3688 6.04850E-05-2.17618E-05-1.61394E-05 2.44708E-05 1.17513E-18-2.25454E-18
 -1      3689 5.90336E-05-1.90463E-05-1.69729E-05 1.96793E-05 1.08325E-18-2.61961E-18
 -1      3690 6.92295E-05-2.62037E-05-1.83232E-05 2.62757E-05 1.05249E-18-2.64364E-18
 -1      3691 9.41410E-05-2.13902E-05-3.11636E-05-3.76118E-06-7.92418E-19-2.07681E-18
 -1      3692 5.22084E-05-1.34198E-05-1.65964E-05-6.59218E-06-1.32475E-18-2.89632E-18
 -1      3693 5.23528E-05-1.45625E-05-1.57605E-05-1.27926E-05-6.27771E-19-2.20483E-18
 -1      3694 6.02379E-05-1.76237E-05-1.81278E-05-1.62195E-05 4.56240E-19-2.76731E-18
 -1      3695 8.37700E-05-3.51796E-05-2.08028E-05-2.76095E-05-2.40647E-18-7.05896E-19
 -1      3696 9.60249E-05-4.15592E-05-2.32106E-05 2.56674E-05 2.06378E-18-1.15167E-18
 -1      3697 8.85320E-05-3.90326E-05-2.09601E-05 3.00166E-05 1.62752E-18-2.89802E-18
 -1      3698 8.16546E-05-3.38347E-05-2.03781E-05 2.83643E-05 1.46791E-18-2.54960E-18
 -1      3699 9.36788E-05-2.06275E-05-3.13197E-05 7.31945E-07 5.66655E-19-1.94149E-18
 -1      3700 9.36214E-05-2.05208E-05-3.13394E-05 2.16149E-07 3.85526E-19-2.11626E-18
 -1      3701 5.38812E-05-1.40329E-05-1.66638E-05-9.02594E-06-1.13120E-18-2.47937E-18
 -1      3702 5.95063E-05-1.66224E-05-1.81740E-05-1.30287E-05-1.50680E-18-1.84381E-18
 -1      3703 5.44839E-05-1.34645E-05-1.74732E-05-3.40502E-06-9.00509E-19-2.94979E-18
 -1      3704 9.36036E-05-2.03264E-05-3.14146E-05-4.75390E-06-1.04272E-18-2.27825E-18
 -1      3705 9.58898E-05-2.63251E-05-2.98127E-05 2.50833E-07-5.63565E-19-1.13015E-18
 -1      3706 9.49299E-05-2.72341E-05-2.90074E-05-3.62816E-06 4.33158E-19-6.64436E-19
 -1      3707 9.50128E-05-2.73724E-05-2.89932E-05-3.33388E-06 4.46344E-19-8.03338E-19
 -1      3708 9.45126E-05-2.68461E-05-2.89976E-05-3.63218E-06 4.92214E-19-4.37158E-19
 -1      3709 9.58379E-05-2.73286E-05-2.93623E-05-1.40415E-06 7.44562E-19-9.24601E-19
 -1      3710 1.00819E-04-4.19373E-05-2.51210E-05 2.14640E-05-1.74055E-18 1.22551E-18
 -1      3711 9.66272E-05-4.13297E-05-2.37096E-05 2.50291E-05-2.19612E-18 2.30955E-18
 -1      3712 9.11621E-05-3.71711E-05-2.28745E-05 2.50923E-05-2.45096E-18 3.51278E-18
 -1      3713 9.58696E-05-3.74457E-05-2.48245E-05 2.15068E-05-2.50683E-18 2.30479E-18
 -1      3714 9.39457E-05-2.11430E-05-3.12184E-05 1.60070E-06 8.69691E-19-1.72987E-18
 -1      3715 9.37792E-05-2.08208E-05-3.12778E-05 1.11715E-06 6.98414E-19-1.76839E-18
 -1      3716 9.43869E-05-2.19033E-05-3.10443E-05 7.09379E-07 7.21850E-19-1.66527E-18
 -1      3717 9.42585E-05-2.17878E-05-3.10634E-05-1.64798E-06-3.45039E-19-1.98198E-18
 -1      3718 9.44993E-05-2.22967E-05-3.09576E-05-2.02469E-06-4.57856E-19-1.97120E-18
 -1      3719 9.51633E-05-2.37961E-05-3.05771E-05-1.27300E-06-5.04312E-19-1.84063E-18
 -1      3720 9.43541E-05-2.70807E-05-2.88311E-05-1.13007E-06-4.81235E-19-1.04598E-18
 -1      3721 9.41921E-05-2.69424E-05-2.88255E-05-9.92340E-07-4.87146E-19-2.41196E-18
 -1      3722 9.39571E-05-2.66948E-05-2.88226E-05-1.00691E-06-3.52871E-19-3.59246E-18
 -1      3723 9.42892E-05-2.70014E-05-2.88379E-05-1.25681E-06-5.39250E-19-1.12883E-19
 -1      3724 1.10102E-04-4.80477E-05-2.65818E-05 1.79739E-05 1.58976E-18 2.45734E-18
 -1      3725 1.05118E-04-4.49324E-05-2.56915E-05 1.97926E-05 1.86639E-18 1.82217E-18
 -1      3726 1.10603E-04-4.80209E-05-2.68932E-05-1.68320E-05 1.69798E-18-1.54599E-18
 -1      3727 9.58587E-05-2.72106E-05-2.94197E-05 1.35594E-06-3.09059E-19-5.81881E-19
 -1      3728 9.57463E-05-2.73160E-05-2.93286E-05 1.64375E-06-2.81398E-20-2.87417E-19
 -1      3729 9.55596E-05-2.73376E-05-2.92390E-05 1.86467E-06-5.39758E-20-2.65844E-19
 -1      3730 9.53898E-05-2.73117E-05-2.91758E-05 2.11757E-06-2.99146E-19-2.99646E-19
 -1      3731 9.56287E-05-2.71556E-05-2.93433E-05 1.53850E-06-3.29802E-21-6.43614E-19
 -1      3732 9.51226E-05-2.72101E-05-2.91082E-05 2.32872E-06-4.46252E-19-1.73733E-19
 -1      3733 9.49083E-05-2.70877E-05-2.90641E-05 2.57699E-06-4.95225E-19-5.14255E-19
 -1      3734 9.51782E-05-2.70853E-05-2.91801E-05 1.97028E-06-2.52866E-19-6.28531E-19
 -1      3735 9.45730E-05-2.68957E-05-2.90093E-05 2.80327E-06-4.45088E-19-2.61706E-19
 -1      3736 9.43234E-05-2.67073E-05-2.89753E-05 3.07202E-06-2.62897E-19-8.65809E-20
 -1      3737 9.45804E-05-2.67863E-05-2.90514E-05 2.40239E-06-3.30152E-19-2.16990E-19
 -1      3738 9.39285E-05-2.64551E-05-2.89238E-05 3.33536E-06-5.08563E-19-1.83343E-19
 -1      3739 9.36525E-05-2.62313E-05-2.88907E-05 3.64487E-06-5.58279E-19-4.02919E-19
 -1      3740 9.38554E-05-2.63235E-05-2.89381E-05 2.88050E-06-4.67493E-19-1.88906E-19
 -1      3741 9.32059E-05-2.59505E-05-2.88321E-05 3.96497E-06-2.99309E-19-5.55943E-19
 -1      3742 9.29168E-05-2.57264E-05-2.87904E-05 4.33189E-06-6.96719E-20-5.20477E-19
 -1      3743 9.30188E-05-2.57608E-05-2.88196E-05 3.44574E-06-5.43669E-19-2.70386E-19
 -1      3744 9.24285E-05-2.54539E-05-2.87134E-05 4.72921E-06-1.19368E-20-6.45338E-19
 -1      3745 9.21489E-05-2.52745E-05-2.86529E-05 5.16918E-06 1.87369E-19-5.00410E-19
 -1      3746 9.20875E-05-2.51667E-05-2.86742E-05 4.13801E-06 7.38465E-21-1.11573E-19
 -1      3747 9.16375E-05-2.50592E-05-2.85452E-05 5.66860E-06 2.87803E-19-4.82087E-19
 -1      3748 9.14081E-05-2.49871E-05-2.84551E-05 6.19814E-06 3.01101E-19-1.76687E-19
 -1      3749 9.10882E-05-2.46254E-05-2.84774E-05 5.00456E-06 3.10873E-19-3.43509E-19
 -1      3750 9.09078E-05-2.48973E-05-2.83031E-05 6.83186E-06 4.44452E-19-1.79514E-19
 -1      3751 9.07972E-05-2.50199E-05-2.81736E-05 7.46984E-06 4.35408E-19 1.62896E-19
 -1      3752 9.00698E-05-2.42512E-05-2.82019E-05 6.10679E-06 5.82871E-19-1.11605E-19
 -1      3753 9.03682E-05-2.51493E-05-2.79643E-05 8.28139E-06 2.41874E-19 2.65487E-19
 -1      3754 9.04891E-05-2.55877E-05-2.77892E-05 9.04947E-06 5.93401E-19 3.43300E-19
 -1      3755 8.91208E-05-2.42016E-05-2.78192E-05 7.52952E-06 5.38515E-19 4.68094E-19
 -1      3756 9.02336E-05-2.60652E-05-2.75118E-05 1.00981E-05 6.09686E-19 3.88636E-20
 -1      3757 9.07702E-05-2.69883E-05-2.72942E-05 1.10120E-05 7.32787E-19 3.54175E-19
 -1      3758 8.83942E-05-2.46940E-05-2.73028E-05 9.38944E-06 5.56090E-19 5.74230E-19
 -1      3759 9.08691E-05-2.79994E-05-2.69461E-05 1.23878E-05 1.26684E-18 5.27796E-19
 -1      3760 9.21114E-05-2.96730E-05-2.67092E-05 1.34374E-05 1.27438E-18 1.03324E-18
 -1      3761 8.81316E-05-2.60210E-05-2.66329E-05 1.18713E-05 1.14042E-18 4.57252E-19
 -1      3762 9.29230E-05-3.14216E-05-2.63162E-05 1.50549E-05 1.08979E-18 8.65062E-19
 -1      3763 9.51115E-05-3.40798E-05-2.61173E-05 1.61727E-05 1.47438E-18 1.46745E-18
 -1      3764 8.89257E-05-2.88300E-05-2.58141E-05 1.51097E-05 1.34266E-18 6.24612E-20
 -1      3765 9.47308E-05-3.32206E-05-2.62809E-05-1.54720E-05 7.62277E-19-4.68105E-19
 -1      3766 9.24130E-05-3.06929E-05-2.64354E-05-1.45242E-05 7.59155E-19-3.52057E-19
 -1      3767 9.16869E-05-2.89678E-05-2.68278E-05-1.28793E-05 1.16464E-19-6.40759E-19
 -1      3768 9.05689E-05-2.74271E-05-2.70661E-05-1.18359E-05-1.06591E-19-1.20584E-18
 -1      3769 8.86131E-05-2.80547E-05-2.59734E-05-1.44967E-05 3.61471E-19-5.30190E-19
 -1      3770 9.04950E-05-2.64688E-05-2.74035E-05-1.05022E-05-1.22710E-19-1.09305E-18
 -1      3771 9.00079E-05-2.55961E-05-2.76169E-05-9.57906E-06-8.34851E-19 6.21089E-21
 -1      3772 8.79401E-05-2.55149E-05-2.67680E-05-1.12985E-05 3.18198E-19-1.15405E-18
 -1      3773 9.02582E-05-2.51430E-05-2.78833E-05-8.53596E-06-1.02268E-18 1.32288E-18
 -1      3774 9.01496E-05-2.47275E-05-2.80516E-05-7.75178E-06-4.93629E-20 1.95775E-18
 -1      3775 8.82028E-05-2.42421E-05-2.74133E-05-8.87187E-06 1.69920E-19 9.67976E-19
 -1      3776 9.05499E-05-2.46012E-05-2.82491E-05-6.93428E-06 1.79966E-20 2.52665E-18
 -1      3777 9.06477E-05-2.44808E-05-2.83702E-05-6.27316E-06 2.84714E-19 2.52720E-18
 -1      3778 8.88948E-05-2.37724E-05-2.79051E-05-7.01764E-06 5.76371E-19 2.48625E-18
 -1      3779 9.10983E-05-2.45558E-05-2.85090E-05-5.62379E-06 3.46041E-19 2.88376E-18
 -1      3780 9.12956E-05-2.46154E-05-2.85890E-05-5.06459E-06 4.12399E-20 3.65346E-18
 -1      3781 8.97641E-05-2.38060E-05-2.82607E-05-5.58152E-06 4.24002E-19 1.97583E-18
 -1      3782 9.17421E-05-2.48059E-05-2.86810E-05-4.54114E-06-4.62026E-19 3.60599E-18
 -1      3783 9.19749E-05-2.49665E-05-2.87282E-05-4.06765E-06 6.33143E-20 3.24731E-18
 -1      3784 9.06675E-05-2.41367E-05-2.85055E-05-4.44598E-06-3.35586E-19 2.88664E-18
 -1      3785 9.23866E-05-2.52126E-05-2.87848E-05-3.64225E-06 4.53549E-19 2.51102E-18
 -1      3786 9.26181E-05-2.54197E-05-2.88080E-05-3.24254E-06 5.36738E-19 1.92689E-18
 -1      3787 9.15264E-05-2.46253E-05-2.86644E-05-3.53433E-06 6.45145E-20 2.63614E-18
 -1      3788 9.29806E-05-2.56841E-05-2.88389E-05-2.89322E-06 3.87170E-19 9.85523E-19
 -1      3789 9.31931E-05-2.59034E-05-2.88457E-05-2.56131E-06 5.34571E-19 4.63625E-19
 -1      3790 9.22967E-05-2.51743E-05-2.87596E-05-2.79371E-06 5.76936E-20 1.35096E-18
 -1      3791 9.34980E-05-2.61529E-05-2.88594E-05-2.27218E-06 4.69868E-19 2.43412E-19
 -1      3792 9.36779E-05-2.63613E-05-2.88547E-05-1.99556E-06 1.24905E-18 5.06345E-19
 -1      3793 9.29595E-05-2.57226E-05-2.88099E-05-2.18725E-06-1.48192E-19-6.32369E-19
 -1      3794 8.81949E-05-2.36406E-05-2.76436E-05-9.70996E-06 1.18079E-19-4.90172E-19
 -1      3795 8.84350E-05-2.34437E-05-2.78786E-05-8.85224E-06 1.52798E-19-7.65845E-21
 -1      3796 9.52323E-05-2.39793E-05-3.05173E-05 1.79013E-06 1.18993E-18-1.00510E-18
 -1      3797 9.45347E-05-2.24103E-05-3.09273E-05 2.27887E-06 1.27387E-18-1.30954E-18
 -1      3798 8.92683E-05-2.35683E-05-2.81444E-05-8.04561E-06-5.74891E-19-2.57092E-19
 -1      3799 8.96427E-05-2.36509E-05-2.83024E-05-7.35762E-06-7.42959E-19-1.83600E-19
 -1      3800 8.71696E-05-2.25161E-05-2.76907E-05-7.74613E-06-1.76919E-19-9.61687E-19
 -1      3801 8.74407E-05-2.66498E-05-2.60010E-05-1.49109E-05-1.30715E-18-9.18129E-19
 -1      3802 8.67535E-05-2.51836E-05-2.64169E-05-1.34557E-05-1.17132E-18-1.12103E-18
 -1      3803 8.82471E-05-3.08284E-05-2.46301E-05-1.95696E-05-1.46550E-18-8.43473E-19
 -1      3804 8.69480E-05-2.76559E-05-2.52973E-05-1.70264E-05-1.13059E-18-7.47980E-19
 -1      3805 8.27834E-05-2.49822E-05-2.47578E-05-1.58372E-05-1.26383E-18-6.92436E-19
 -1      3806 8.70185E-05-2.37919E-05-2.71265E-05 1.11218E-05 1.08467E-18 9.71285E-19
 -1      3807 8.72304E-05-2.46440E-05-2.67773E-05 1.23211E-05 6.92753E-19 1.86855E-18
 -1      3808 5.82201E-05-1.61637E-05-1.79875E-05 1.32045E-05-1.78559E-18 1.49332E-18
 -1      3809 5.33106E-05-1.27404E-05-1.70186E-05 3.73968E-06-1.27470E-18-2.22590E-18
 -1      3810 8.74111E-05-2.90056E-05-2.50354E-05 1.78380E-05-1.85523E-18 3.42292E-18
 -1      3811 8.96495E-05-3.21780E-05-2.45820E-05 1.99475E-05-2.24784E-18 3.24151E-18
 -1      3812 8.91196E-05-2.32319E-05-2.82584E-05 7.31049E-06-2.27737E-18 6.93922E-19
 -1      3813 8.87886E-05-2.32267E-05-2.80838E-05 8.07124E-06-1.31928E-18 9.59113E-19
 -1      3814 9.02408E-05-2.36352E-05-2.85622E-05 5.98256E-06-1.52037E-18-1.00084E-18
 -1      3815 8.98658E-05-2.34582E-05-2.84529E-05 6.61814E-06-2.21286E-18-6.19658E-20
 -1      3816 8.80944E-05-2.24929E-05-2.80971E-05 6.33697E-06-1.87244E-18-4.88700E-19
 -1      3817 9.12588E-05-2.42130E-05-2.87478E-05 4.88182E-06-9.81475E-19-1.19126E-18
 -1      3818 9.08990E-05-2.39533E-05-2.86867E-05 5.42296E-06-1.67746E-18-7.26183E-19
 -1      3819 8.94943E-05-2.31101E-05-2.84350E-05 5.16434E-06-1.35277E-18-9.81566E-19
 -1      3820 9.21379E-05-2.48490E-05-2.88496E-05 3.95468E-06-6.95998E-19-8.90515E-19
 -1      3821 9.18204E-05-2.45622E-05-2.88220E-05 4.41790E-06-6.00923E-19-1.22992E-18
 -1      3822 9.07058E-05-2.38306E-05-2.86481E-05 4.20645E-06-1.22108E-18-8.89475E-19
 -1      3823 9.28708E-05-2.54723E-05-2.88946E-05 3.17050E-06-6.14033E-19-6.27032E-19
 -1      3824 9.26046E-05-2.51915E-05-2.88890E-05 3.56569E-06-2.82886E-19-5.56648E-19
 -1      3825 9.17251E-05-2.45649E-05-2.87726E-05 3.40616E-06-5.39009E-19-8.26853E-19
 -1      3826 9.34667E-05-2.60439E-05-2.89030E-05 2.51001E-06-1.30899E-18 3.23791E-19
 -1      3827 9.32507E-05-2.57867E-05-2.89108E-05 2.84444E-06-1.03993E-18 1.58058E-20
 -1      3828 9.25633E-05-2.52595E-05-2.88366E-05 2.73161E-06-1.69240E-18 8.81537E-19
 -1      3829 9.39296E-05-2.65356E-05-2.88890E-05 1.95606E-06 8.78304E-19 4.31962E-19
 -1      3830 9.37690E-05-2.63178E-05-2.89048E-05 2.24032E-06-1.96474E-19 9.17676E-19
 -1      3831 9.32372E-05-2.58841E-05-2.88609E-05 2.16709E-06-6.68616E-19-1.04821E-19
 -1      3832 9.34826E-05-2.62733E-05-2.88035E-05-8.02458E-07-6.19628E-19-3.13080E-18
 -1      3833 9.33697E-05-2.61862E-05-2.87969E-05-5.32642E-07-8.43177E-19-1.35028E-18
 -1      3834 9.48990E-05-2.75699E-05-2.88597E-05 1.32848E-06-1.18135E-18-9.74914E-19
 -1      3835 9.46572E-05-2.73135E-05-2.88596E-05 1.37957E-06 2.92846E-19-3.07908E-18
 -1      3836 9.56774E-05-2.61195E-05-2.98174E-05 4.76504E-07 1.07012E-18-6.68487E-19
 -1      3837 9.56041E-05-2.56250E-05-2.99840E-05 1.12643E-06 1.26055E-18-5.73516E-19
 -1      3838 9.54729E-05-2.50127E-05-3.02025E-05 1.36024E-06 1.22857E-18-7.95963E-19
 -1      3839 9.57722E-05-2.60278E-05-2.98959E-05 2.83197E-07 1.10601E-18-8.55200E-19
 -1      3840 9.56143E-05-2.74060E-05-2.92326E-05-1.96513E-06 5.33791E-19-1.08278E-18
 -1      3841 9.57389E-05-2.73649E-05-2.93024E-05-1.68084E-06 5.33996E-19-1.03927E-18
 -1      3842 9.44728E-05-2.71566E-05-2.88536E-05 1.30597E-06-2.41213E-19-2.81723E-18
 -1      3843 6.82285E-05-2.18484E-05-1.97863E-05-2.00220E-05-1.35715E-18-1.87782E-18
 -1      3844 7.35504E-05-2.61320E-05-1.99580E-05-2.40278E-05-2.05421E-18-1.71224E-18
 -1      3845 8.53282E-05-3.31773E-05-2.22226E-05-2.39998E-05-2.11054E-18-4.54235E-19
 -1      3846 9.58485E-05-2.58373E-05-3.00041E-05-4.88112E-08-3.85138E-19-1.47288E-18
 -1      3847 9.59315E-05-2.63448E-05-2.98282E-05 4.15469E-07-3.23127E-19-1.21261E-18
 -1      3848 9.58626E-05-2.72607E-05-2.94034E-05-1.41929E-06 6.37460E-19-9.72597E-19
 -1      3849 9.59268E-05-2.70673E-05-2.95085E-05-1.07255E-06 8.20692E-19-9.82289E-19
 -1      3850 9.58120E-05-2.71248E-05-2.94357E-05-1.37226E-06 6.20806E-19-1.00710E-18
 -1      3851 9.54522E-05-2.45495E-05-3.03902E-05-9.19181E-07-5.00882E-19-1.74062E-18
 -1      3852 9.56901E-05-2.53211E-05-3.01621E-05-3.41322E-07-5.10760E-19-1.67442E-18
 -1      3853 9.57304E-05-2.53255E-05-3.01683E-05-1.63723E-07-3.37797E-19-1.41775E-18
 -1      3854 9.52987E-05-2.40924E-05-3.05130E-05-8.01334E-07-4.28368E-19-1.80914E-18
 -1      3855 9.42939E-05-2.18839E-05-3.10400E-05 1.91142E-06 1.06049E-18-1.57787E-18
 -1      3856 8.74440E-05-2.44933E-05-2.69389E-05-1.19074E-05-4.61746E-19-9.94620E-19
 -1      3857 8.73604E-05-2.38162E-05-2.72640E-05-1.08097E-05-1.08287E-19-7.44076E-19
 -1      3858 8.38567E-05-2.30353E-05-2.60572E-05-1.21561E-05-6.42322E-19-1.28174E-18
 -1      3859 9.42872E-05-2.17091E-05-3.10868E-05 1.60000E-08 4.36979E-19-2.00573E-18
 -1      3860 9.36240E-05-2.05205E-05-3.13398E-05-1.84787E-07 2.88284E-19-2.22374E-18
 -1      3861 9.36723E-05-2.06271E-05-3.13201E-05-7.07746E-07 1.23200E-19-2.22987E-18
 -1      3862 5.78003E-05-1.58040E-05-1.76164E-05 1.35718E-05 7.34100E-19-2.67371E-18
 -1      3863 5.69811E-05-1.44911E-05-1.81240E-05 7.19815E-06 1.13661E-19-2.77141E-18
 -1      3864 9.59783E-05-2.67468E-05-2.96683E-05 7.39614E-07-3.90777E-19-9.24105E-19
 -1      3865 9.59446E-05-2.70262E-05-2.95401E-05 1.09737E-06-4.42543E-19-8.25821E-19
 -1      3866 9.59417E-05-2.62973E-05-2.98444E-05 4.71147E-07-1.08127E-19-1.32644E-18
 -1      3867 9.33695E-05-2.58868E-05-2.89179E-05-4.07977E-06 7.56026E-19-8.04532E-19
 -1      3868 9.36742E-05-2.61725E-05-2.89375E-05-3.74264E-06 6.81501E-19-8.75245E-19
 -1      3869 8.65964E-05-2.54772E-05-2.62158E-05 1.40136E-05 8.10869E-20 2.09467E-18
 -1      3870 8.75531E-05-2.72329E-05-2.57785E-05 1.56062E-05-8.93893E-19 2.25103E-18
 -1      3871 8.25197E-05-2.56096E-05-2.44461E-05 1.69465E-05-7.91620E-19 2.51411E-18
 -1      3872 9.38688E-05-2.09931E-05-3.12391E-05-9.89523E-07-2.78273E-20-2.05392E-18
 -1      3873 9.40157E-05-2.13039E-05-3.11794E-05-1.46420E-06-2.57369E-19-1.99613E-18
 -1      3874 9.48324E-05-2.28984E-05-3.08149E-05-9.79935E-07-3.36164E-19-1.80436E-18
 -1      3875 9.44632E-05-2.20764E-05-3.10066E-05-5.86864E-07 1.39621E-20-2.05075E-18
 -1      3876 1.02681E-04-4.15720E-05-2.61463E-05 1.76031E-05 2.09196E-18 1.97352E-18
 -1      3877 9.91509E-05-4.17534E-05-2.45861E-05 2.25731E-05 2.05667E-18 8.64146E-19
 -1      3878 9.38194E-05-3.76958E-05-2.38611E-05 2.29595E-05 2.36524E-18-4.20545E-19
 -1      3879 9.88795E-05-3.77734E-05-2.60580E-05 1.72835E-05 1.83939E-18 2.02225E-18
 -1      3880 8.79819E-05-2.31863E-05-2.77949E-05 8.96591E-06-1.25357E-18 1.73456E-18
 -1      3881 8.78135E-05-2.34958E-05-2.75380E-05 9.90590E-06 9.50197E-20 1.36549E-18
 -1      3882 8.65348E-05-2.21163E-05-2.75881E-05 7.83344E-06-1.09626E-18 1.34313E-18
 -1      3883 9.04157E-05-2.39396E-05-2.84822E-05-6.73929E-06-6.47929E-19-3.15445E-19
 -1      3884 9.08229E-05-2.41714E-05-2.85811E-05-6.17295E-06-4.46010E-19-5.81512E-19
 -1      3885 8.87788E-05-2.30318E-05-2.81610E-05-6.40564E-06-8.16648E-19-5.02302E-19
 -1      3886 9.47819E-05-2.27998E-05-3.08302E-05 1.32367E-06 9.78606E-19-1.48359E-18
 -1      3887 9.49784E-05-2.72359E-05-2.90315E-05-3.07087E-06 3.77637E-19-7.86813E-19
 -1      3888 9.58995E-05-2.69224E-05-2.95590E-05 1.05621E-06-1.51985E-19-9.21672E-19
 -1      3889 6.51132E-05-1.83692E-05-2.00815E-05-1.45886E-05-6.74235E-19-2.95354E-18
 -1      3890 6.83305E-05-2.11849E-05-1.99585E-05-1.89377E-05-1.37034E-19-1.66789E-18
 -1      3891 7.59539E-05-2.43800E-05-2.19328E-05-1.92786E-05-6.63252E-19 8.61770E-19
 -1      3892 9.38248E-05-2.65620E-05-2.88234E-05-1.18832E-06-6.59135E-19-3.08034E-18
 -1      3893 9.36455E-05-2.64253E-05-2.88147E-05-1.02493E-06-2.98019E-19-3.73731E-18
 -1      3894 9.33437E-05-2.61294E-05-2.88028E-05-9.88923E-07-7.02491E-19-2.99771E-18
 -1      3895 9.42014E-05-3.54200E-05-2.51553E-05-1.90185E-05 9.75392E-19 7.33478E-20
 -1      3896 8.86107E-05-3.17493E-05-2.43467E-05-1.97292E-05 9.97802E-19 1.75115E-18
 -1      3897 8.48975E-05-2.21993E-05-2.68511E-05 9.85514E-06 4.83789E-19 2.34843E-18
 -1      3898 6.48270E-05-1.89638E-05-1.93768E-05 1.66952E-05-1.45981E-18 2.49351E-18
 -1      3899 6.44467E-05-1.68357E-05-2.03961E-05 1.12608E-05-9.51675E-19 1.23987E-18
 -1      3900 7.20218E-05-2.26244E-05-2.11861E-05 1.86902E-05-1.89971E-18 1.62593E-18
 -1      3901 1.01268E-04-4.01345E-05-2.62587E-05-1.73461E-05 5.64567E-19-1.58234E-18
 -1      3902 1.04374E-04-4.30847E-05-2.62456E-05-1.77814E-05 1.26337E-18-1.19851E-18
 -1      3903 9.59426E-05-2.67767E-05-2.96478E-05-7.47125E-07 9.01622E-19-8.90045E-19
 -1      3904 9.59343E-05-2.63992E-05-2.97971E-05-2.89256E-07 9.11699E-19-8.53338E-19
 -1      3905 9.59508E-05-2.66878E-05-2.96822E-05-7.74862E-07 8.35200E-19-9.29848E-19
 -1      3906 9.41924E-05-2.68918E-05-2.88460E-05-1.41781E-06 1.87710E-19-4.33809E-19
 -1      3907 8.45229E-05-3.22665E-05-2.23753E-05 2.37820E-05-2.45972E-18 3.74366E-18
 -1      3908 9.33700E-05-2.61329E-05-2.88184E-05-1.56093E-06 3.41110E-19-2.38387E-18
 -1      3909 9.37807E-05-2.64734E-05-2.88452E-05-1.65018E-06 9.02000E-19-6.86790E-19
 -1      3910 8.54750E-05-2.24099E-05-2.70111E-05-9.56516E-06 1.02888E-19-1.12154E-18
 -1      3911 9.32992E-05-2.61189E-05-2.87928E-05-1.96104E-07-4.19096E-19-5.55951E-19
 -1      3912 9.32887E-05-2.61099E-05-2.87936E-05 9.62537E-08 3.64119E-20 7.20992E-19
 -1      3913 9.30850E-05-2.59076E-05-2.87855E-05-4.12821E-07-1.08034E-18-1.09438E-18
 -1      3914 9.25037E-05-2.52160E-05-2.88338E-05-4.80755E-06 4.58010E-19-5.07550E-19
 -1      3915 9.28545E-05-2.55257E-05-2.88658E-05-4.40935E-06 7.87523E-19-4.64831E-19
 -1      3916 9.26212E-05-2.53351E-05-2.88287E-05-3.84434E-06 5.87139E-19-8.48236E-19
 -1      3917 8.33888E-05-2.31117E-05-2.58207E-05 1.27220E-05 4.26315E-19 2.18183E-18
 -1      3918 5.80637E-05-1.41928E-05-1.85748E-05-2.09916E-06-1.08707E-18-2.47106E-18
 -1      3919 9.26590E-05-3.66266E-05-2.39512E-05-2.22579E-05-1.90483E-18-9.59847E-19
 -1      3920 9.02346E-05-2.37542E-05-2.84779E-05-5.36738E-06-2.11681E-19-3.77216E-19
 -1      3921 9.15124E-05-2.45357E-05-2.86993E-05-5.68112E-06-1.08321E-19-3.38596E-19
 -1      3922 9.19024E-05-2.48334E-05-2.87570E-05-5.20749E-06 1.91768E-19-4.16122E-19
 -1      3923 9.48432E-05-2.29964E-05-3.08031E-05 6.64926E-07 9.34823E-19-1.49267E-18
 -1      3924 9.47663E-05-2.28176E-05-3.08435E-05 3.72933E-07 7.07946E-19-1.66875E-18
 -1      3925 9.54153E-05-2.46211E-05-3.03407E-05 1.18330E-06 1.12862E-18-1.05861E-18
 -1      3926 9.41681E-05-2.68004E-05-2.88710E-05 1.57122E-06 2.09771E-18-1.28852E-18
 -1      3927 9.37824E-05-2.64628E-05-2.88506E-05 1.51565E-06 2.11483E-18-1.07496E-18
 -1      3928 9.33364E-05-2.61448E-05-2.87996E-05 4.41309E-07 8.81413E-19 9.75605E-19
 -1      3929 9.34287E-05-2.62184E-05-2.88074E-05 7.15531E-07 1.95783E-18-5.84903E-19
 -1      3930 9.30581E-05-2.58748E-05-2.87875E-05 2.94442E-07-3.31198E-19 4.73017E-20
 -1      3931 9.34759E-05-2.62393E-05-2.88187E-05 1.02897E-06 2.32477E-18-5.08157E-19
 -1      3932 9.36347E-05-2.63700E-05-2.88302E-05 1.21574E-06 2.45382E-18-1.15829E-18
 -1      3933 9.33707E-05-2.60680E-05-2.88403E-05 1.59688E-06 1.18052E-18-1.02895E-18
 -1      3934 9.31570E-05-2.59339E-05-2.88054E-05 9.64568E-07 7.89600E-19-1.67456E-18
 -1      3935 7.79191E-05-3.01532E-05-2.01889E-05 2.66193E-05 1.20295E-18-2.31026E-18
 -1      3936 7.38891E-05-2.63410E-05-2.03284E-05 2.35089E-05 8.32845E-19-2.17748E-18
 -1      3937 8.55918E-05-3.37626E-05-2.22270E-05 2.49124E-05 1.57898E-18-2.03036E-18
 -1      3938 9.52056E-05-2.36850E-05-3.06330E-05 1.75212E-07 7.59855E-19-1.75319E-18
 -1      3939 9.47325E-05-2.27357E-05-3.08645E-05 1.62466E-07 6.89751E-19-1.84670E-18
 -1      3940 9.47271E-05-2.27326E-05-3.08641E-05-1.40271E-07 4.42098E-19-1.91570E-18
 -1      3941 9.35610E-05-2.60389E-05-2.89321E-05-3.26692E-06 6.31823E-19-1.07034E-18
 -1      3942 9.41089E-05-2.64857E-05-2.89786E-05-3.46613E-06 4.17168E-19-6.60938E-19
 -1      3943 9.43679E-05-2.67227E-05-2.89968E-05-3.17519E-06 3.17299E-19-9.23760E-19
 -1      3944 7.78547E-05-2.29432E-05-2.35619E-05-1.51522E-05-1.30420E-18-7.69893E-19
 -1      3945 7.82548E-05-2.14715E-05-2.43926E-05-1.29177E-05-1.15078E-18-6.38378E-19
 -1      3946 7.85768E-05-2.53286E-05-2.27066E-05-1.96353E-05-1.38875E-18-7.39923E-19
 -1      3947 7.40885E-05-2.17342E-05-2.23687E-05-1.64471E-05-1.43919E-18-9.39532E-19
 -1      3948 5.75309E-05-1.36184E-05-1.85261E-05 2.45302E-06-1.47318E-19-2.70961E-18
 -1      3949 5.95424E-05-1.43688E-05-1.93564E-05-2.54572E-06-7.87549E-19-1.98372E-18
 -1      3950 6.21407E-05-1.53155E-05-1.99898E-05 6.87125E-06 6.06597E-19-2.10080E-18
 -1      3951 6.39520E-05-1.78041E-05-1.96239E-05-1.45451E-05-9.85033E-19-1.97695E-18
 -1      3952 7.06586E-05-2.06902E-05-2.12797E-05-1.62729E-05-1.18707E-18-1.74766E-18
 -1      3953 7.01160E-05-1.82113E-05-2.22392E-05-1.10629E-05-1.16490E-18-1.38996E-18
 -1      3954 6.23300E-05-1.57039E-05-1.98449E-05-9.58146E-06-1.15815E-18-2.00273E-18
 -1      3955 9.29901E-05-3.42737E-05-2.52629E-05 1.85418E-05 1.76363E-18 1.12081E-18
 -1      3956 6.38511E-05-1.91673E-05-1.90577E-05 1.68915E-05 8.34470E-19-2.28670E-18
 -1      3957 9.54030E-05-2.73653E-05-2.91606E-05-2.19259E-06 5.21126E-19-1.12659E-18
 -1      3958 9.54808E-05-2.72126E-05-2.92559E-05-1.86602E-06 5.09950E-19-1.07426E-18
 -1      3959 9.52309E-05-2.72891E-05-2.91168E-05-2.45105E-06 3.96142E-19-1.00542E-18
 -1      3960 9.56978E-05-2.70293E-05-2.94307E-05 1.16558E-06-3.15766E-20-8.97998E-19
 -1      3961 9.55115E-05-2.70660E-05-2.93353E-05 1.38662E-06 1.57315E-19-8.79081E-19
 -1      3962 9.38929E-05-2.66072E-05-2.88388E-05-1.46897E-06 4.03555E-19-8.27847E-19
 -1      3963 8.52557E-05-2.15445E-05-2.72994E-05-6.87016E-06 4.76756E-19-1.25629E-18
 -1      3964 8.61116E-05-2.17963E-05-2.75934E-05-6.17900E-06-2.26153E-19-1.01627E-18
 -1      3965 8.96695E-05-3.44321E-05-2.36267E-05 2.21056E-05 1.82451E-18-2.28275E-19
 -1      3966 9.52413E-05-2.70162E-05-2.92420E-05 1.54215E-06 1.08964E-19-9.09520E-19
 -1      3967 9.49741E-05-2.69156E-05-2.91682E-05 1.74916E-06-1.14052E-19-6.95144E-19
 -1      3968 9.53219E-05-2.68962E-05-2.93215E-05 1.17077E-06 2.26893E-19-8.03746E-19
 -1      3969 9.46063E-05-2.67381E-05-2.90907E-05 1.90994E-06-1.23059E-19-5.23138E-19
 -1      3970 9.42702E-05-2.65339E-05-2.90293E-05 2.12595E-06-7.75066E-20-3.36951E-19
 -1      3971 9.46888E-05-2.66688E-05-2.91468E-05 1.47494E-06 9.30638E-20-8.23679E-19
 -1      3972 9.38148E-05-2.62617E-05-2.89575E-05 2.31097E-06-3.15213E-19-3.12900E-19
 -1      3973 9.34182E-05-2.59855E-05-2.88984E-05 2.55588E-06-4.73624E-19-2.56353E-19
 -1      3974 9.38722E-05-2.62074E-05-2.89934E-05 1.80367E-06-8.46319E-20-6.56227E-19
 -1      3975 9.28782E-05-2.56479E-05-2.88213E-05 2.78468E-06-5.38254E-19-7.99067E-21
 -1      3976 9.24295E-05-2.53325E-05-2.87537E-05 3.07823E-06-1.71257E-19 2.76780E-19
 -1      3977 9.28832E-05-2.55734E-05-2.88398E-05 2.19150E-06-3.08823E-19-8.21599E-20
 -1      3978 9.18077E-05-2.49616E-05-2.86592E-05 3.36915E-06-8.73235E-20 1.60960E-19
 -1      3979 9.13163E-05-2.46415E-05-2.85714E-05 3.73182E-06 2.51243E-20 2.06859E-19
 -1      3980 9.17295E-05-2.48302E-05-2.86622E-05 2.67448E-06-1.31584E-19 5.21695E-19
 -1      3981 9.06131E-05-2.42727E-05-2.84453E-05 4.10974E-06 1.40485E-19 7.78425E-20
 -1      3982 9.00959E-05-2.39929E-05-2.83241E-05 4.56734E-06 4.96148E-19-6.70080E-20
 -1      3983 9.04149E-05-2.40410E-05-2.84343E-05 3.29387E-06-8.04858E-20 5.54487E-19
 -1      3984 8.93130E-05-2.36716E-05-2.81495E-05 5.06942E-06 8.97254E-19-1.90564E-20
 -1      3985 8.88032E-05-2.34943E-05-2.79798E-05 5.65764E-06 7.50626E-19 4.46345E-20
 -1      3986 8.89373E-05-2.32809E-05-2.81243E-05 4.11503E-06 6.50811E-19-1.63590E-19
 -1      3987 8.79453E-05-2.32786E-05-2.77369E-05 6.33749E-06 5.86222E-19 2.31663E-19
 -1      3988 8.75020E-05-2.32869E-05-2.75036E-05 7.10908E-06 6.38090E-19 5.27203E-19
 -1      3989 8.73005E-05-2.26433E-05-2.76937E-05 5.22109E-06 7.20889E-19-2.35013E-19
 -1      3990 8.65908E-05-2.32646E-05-2.71692E-05 8.05513E-06 3.17839E-19 7.30428E-19
 -1      3991 8.63015E-05-2.35755E-05-2.68578E-05 9.08318E-06 6.73952E-19 5.79093E-19
 -1      3992 8.55191E-05-2.22493E-05-2.70968E-05 6.76311E-06 5.48433E-19-6.96097E-20
 -1      3993 8.54055E-05-2.38633E-05-2.64068E-05 1.03677E-05 6.49647E-19 2.04752E-20
 -1      3994 8.54449E-05-2.46278E-05-2.60085E-05 1.17338E-05 7.80439E-19-1.39375E-19
 -1      3995 8.37324E-05-2.23204E-05-2.62791E-05 8.99195E-06 3.83226E-19 1.71913E-20
 -1      3996 8.44425E-05-2.52877E-05-2.53982E-05 1.37702E-05 1.17389E-18-6.46757E-19
 -1      3997 8.53370E-05-2.70381E-05-2.49380E-05 1.56010E-05 1.22617E-18-6.31638E-19
 -1      3998 8.16552E-05-2.28082E-05-2.51499E-05 1.21430E-05 4.62406E-19-7.50843E-19
 -1      3999 8.30330E-05-2.08240E-05-2.67062E-05 7.80859E-06 7.33387E-20 2.84545E-18
 -1      4000 8.21855E-05-2.08891E-05-2.62517E-05 8.88597E-06 1.80838E-19 2.30953E-18
 -1      4001 9.29585E-05-2.57683E-05-2.87983E-05-1.68544E-06 3.10315E-19-1.94258E-18
 -1      4002 9.31167E-05-2.59190E-05-2.87960E-05-1.30852E-06 3.19077E-19-2.38398E-18
 -1      4003 9.29128E-05-2.57647E-05-2.87821E-05-1.08194E-06-1.63471E-19-2.60685E-18
 -1      4004 8.29535E-05-2.11826E-05-2.64594E-05-8.57762E-06 1.14270E-19-1.25396E-18
 -1      4005 8.38313E-05-2.12140E-05-2.68789E-05-7.60868E-06 3.77854E-19-1.15918E-18
 -1      4006 8.30571E-05-2.04258E-05-2.68034E-05-5.90277E-06 2.79922E-19-1.03275E-18
 -1      4007 8.53106E-05-2.41518E-05-2.61701E-05-1.12222E-05 6.33171E-19-9.12453E-19
 -1      4008 8.52829E-05-2.34093E-05-2.65547E-05-9.86679E-06 1.01381E-18-4.91042E-19
 -1      4009 8.61766E-05-2.31467E-05-2.69876E-05-8.58514E-06 7.64829E-19-1.54436E-19
 -1      4010 8.64505E-05-2.28515E-05-2.72858E-05-7.56953E-06 6.26217E-19 9.19751E-19
 -1      4011 8.36302E-05-2.18939E-05-2.64367E-05-8.44463E-06 1.09120E-18-2.41595E-20
 -1      4012 8.73106E-05-2.28739E-05-2.76017E-05-6.65104E-06 6.27043E-19 9.02722E-19
 -1      4013 8.77250E-05-2.28625E-05-2.78212E-05-5.88039E-06 8.15567E-19 1.78811E-18
 -1      4014 8.54054E-05-2.18626E-05-2.72134E-05-6.32871E-06 6.88387E-19 1.86125E-19
 -1      4015 8.85124E-05-2.30548E-05-2.80459E-05-5.20738E-06 2.67364E-19 1.05276E-18
 -1      4016 8.89710E-05-2.32115E-05-2.82007E-05-4.60875E-06-3.17782E-19 5.46241E-19
 -1      4017 8.70541E-05-2.22150E-05-2.77715E-05-4.83084E-06 3.55496E-19-5.33611E-19
 -1      4018 8.96738E-05-2.35010E-05-2.83559E-05-4.09981E-06 4.52693E-20 8.19791E-19
 -1      4019 9.01252E-05-2.37527E-05-2.84596E-05-3.62494E-06 3.09389E-19 1.02606E-18
 -1      4020 8.85390E-05-2.27900E-05-2.81633E-05-3.72590E-06 2.08233E-19-6.12787E-19
 -1      4021 9.07384E-05-2.40877E-05-2.85626E-05-3.23277E-06 4.34454E-20 5.10345E-19
 -1      4022 9.11536E-05-2.43815E-05-2.86280E-05-2.85044E-06 3.66407E-19 8.10991E-19
 -1      4023 8.98471E-05-2.34819E-05-2.84297E-05-2.89129E-06-3.41879E-19 3.81474E-19
 -1      4024 9.16771E-05-2.47242E-05-2.86931E-05-2.54567E-06-6.91170E-19-2.68636E-19
 -1      4025 9.20426E-05-2.50213E-05-2.87312E-05-2.23228E-06-8.88957E-19-7.92842E-19
 -1      4026 9.09766E-05-2.42093E-05-2.86037E-05-2.25059E-06-9.67339E-19-1.67423E-18
 -1      4027 9.26456E-05-2.54917E-05-2.87815E-05-1.93010E-06 3.76518E-20-2.16932E-18
 -1      4028 9.52668E-05-2.40644E-05-3.05318E-05 1.09190E-06 1.09586E-18-1.44125E-18
 -1      4029 9.49830E-05-2.33258E-05-3.07116E-05 9.15566E-07 8.65944E-19-1.50882E-18
 -1      4030 9.53398E-05-2.40829E-05-3.05239E-05 5.26538E-07 9.27834E-19-1.44052E-18
 -1      4031 9.55831E-05-2.50009E-05-3.02379E-05 7.72543E-07 1.00533E-18-1.13235E-18
 -1      4032 7.93498E-05-2.69212E-05-2.22796E-05 2.13582E-05-2.14999E-18 3.08400E-18
 -1      4033 8.69974E-05-3.24802E-05-2.33106E-05 2.22791E-05-2.48935E-18 3.42323E-18
 -1      4034 7.60757E-05-2.32429E-05-2.25557E-05 1.73008E-05-1.13286E-18 1.87884E-18
 -1      4035 8.72545E-05-2.19542E-05-2.80090E-05 5.03566E-06-1.34767E-18 1.71439E-19
 -1      4036 8.64952E-05-2.16429E-05-2.77927E-05 5.62428E-06-1.62299E-18 4.38761E-19
 -1      4037 9.14061E-05-2.44136E-05-2.87219E-05 2.72234E-06-1.43257E-18 8.17308E-19
 -1      4038 9.09368E-05-2.40372E-05-2.86729E-05 3.05784E-06-5.86488E-19 1.86200E-19
 -1      4039 9.23293E-05-2.51583E-05-2.87959E-05 2.18380E-06-1.16669E-18-4.84201E-21
 -1      4040 9.19458E-05-2.48117E-05-2.87725E-05 2.46963E-06-1.29888E-18 3.53215E-19
 -1      4041 9.12602E-05-2.43025E-05-2.86851E-05 2.14159E-06-1.09902E-18 9.01939E-19
 -1      4042 9.30371E-05-2.57861E-05-2.88286E-05 1.75915E-06-2.86406E-19-1.13961E-18
 -1      4043 9.27291E-05-2.54793E-05-2.88208E-05 2.00002E-06-1.16559E-18-1.25488E-18
 -1      4044 9.21871E-05-2.50511E-05-2.87649E-05 1.75291E-06 1.96620E-19-1.14939E-18
 -1      4045 9.29004E-05-2.56812E-05-2.88055E-05 1.43639E-06 2.19233E-19-1.29892E-18
 -1      4046 9.57189E-05-2.55091E-05-3.00920E-05 2.99196E-07 8.81948E-19-1.10394E-18
 -1      4047 9.57547E-05-2.70686E-05-2.94397E-05-1.29369E-06 4.52889E-19-9.79825E-19
 -1      4048 9.58774E-05-2.69345E-05-2.95472E-05-1.02707E-06 6.55013E-19-8.13185E-19
 -1      4049 9.42237E-05-2.68991E-05-2.88552E-05 1.37324E-06 1.94873E-18-2.52076E-18
 -1      4050 8.53104E-05-2.12655E-05-2.74796E-05 6.20944E-06-6.01121E-19 1.32383E-18
 -1      4051 8.44767E-05-2.10844E-05-2.71612E-05 6.98119E-06 4.57163E-19 2.74357E-18
 -1      4052 8.21157E-05-1.98969E-05-2.66222E-05 6.03279E-06 6.84965E-19 2.95093E-18
 -1      4053 8.47143E-05-2.06832E-05-2.74093E-05 4.80047E-06-1.41953E-19 2.47900E-18
 -1      4054 9.47280E-05-2.69670E-05-2.90383E-05-2.93555E-06 4.23741E-19-9.06225E-19
 -1      4055 9.49435E-05-2.71345E-05-2.90648E-05-2.67274E-06 4.44198E-19-1.07183E-18
 -1      4056 9.49876E-05-2.70236E-05-2.91247E-05-2.31464E-06 3.60053E-19-1.12126E-18
 -1      4057 8.60558E-05-3.02477E-05-2.38325E-05 1.98770E-05 1.46054E-18-4.28546E-19
 -1      4058 9.02730E-05-2.36034E-05-2.85863E-05 3.35657E-06-3.89471E-19-2.16729E-19
 -1      4059 8.97070E-05-2.32120E-05-2.84996E-05 3.75221E-06-6.12177E-19 4.34704E-19
 -1      4060 9.00709E-05-2.34390E-05-2.85416E-05 2.62718E-06-1.16830E-18 1.01479E-18
 -1      4061 9.59029E-05-2.59257E-05-2.99910E-05 2.15023E-07 2.23914E-20-1.23506E-18
 -1      4062 9.59517E-05-2.63693E-05-2.98257E-05 5.36268E-07 3.77661E-20-1.16703E-18
 -1      4063 8.88985E-05-2.27628E-05-2.83614E-05 4.11279E-06-1.25002E-18 1.41425E-19
 -1      4064 8.82329E-05-2.23880E-05-2.82204E-05 4.58707E-06-1.49776E-18-4.62589E-19
 -1      4065 8.68495E-05-2.15792E-05-2.79483E-05 3.90786E-06-9.59550E-19-3.26021E-19
 -1      4066 8.86158E-05-2.25169E-05-2.83087E-05 3.20427E-06-1.17485E-18-8.58777E-19
 -1      4067 6.13810E-05-1.44265E-05-2.01384E-05 1.85356E-06-1.43097E-18-1.51862E-18
 -1      4068 6.11071E-05-1.46054E-05-1.97367E-05-7.40511E-06-9.14339E-19-4.14649E-18
 -1      4069 8.04367E-05-2.14019E-05-2.52700E-05-1.11239E-05-1.09246E-18-8.72106E-19
 -1      4070 8.12177E-05-2.10350E-05-2.58550E-05-9.68948E-06-3.55092E-19-1.04167E-18
 -1      4071 7.99298E-05-1.97194E-05-2.57507E-05-7.52647E-06-1.86324E-19-7.78274E-19
 -1      4072 7.01100E-05-2.21552E-05-2.03146E-05 1.96235E-05 9.11672E-19-2.19532E-18
 -1      4073 6.75270E-05-1.90522E-05-2.07921E-05 1.43709E-05 6.66502E-19-2.11873E-18
 -1      4074 7.71380E-05-2.57981E-05-2.19406E-05 2.00544E-05 1.34425E-18-1.87765E-18
 -1      4075 8.03973E-05-2.08273E-05-2.55959E-05 1.01390E-05-6.74748E-20 1.98975E-18
 -1      4076 7.98249E-05-2.13795E-05-2.50003E-05 1.16863E-05-3.19953E-20 1.35049E-18
 -1      4077 7.89224E-05-1.93197E-05-2.54834E-05 7.85610E-06-2.48893E-19 1.72172E-18
 -1      4078 9.59383E-05-2.66986E-05-2.96746E-05 7.37359E-07 1.39239E-20-1.17146E-18
 -1      4079 9.58537E-05-2.69135E-05-2.95488E-05 9.97844E-07-5.35215E-20-9.53767E-19
 -1      4080 9.57474E-05-2.68193E-05-2.95365E-05 8.54217E-07-6.89176E-20-9.48567E-19
 -1      4081 9.59168E-05-2.63491E-05-2.98097E-05 4.92674E-07 2.38289E-20-1.18824E-18
 -1      4082 7.64803E-05-2.16547E-05-2.35029E-05 1.46035E-05-1.53012E-20 1.22497E-18
 -1      4083 8.72993E-05-2.22314E-05-2.78847E-05-5.65663E-06-6.32053E-19-8.91649E-19
 -1      4084 8.80843E-05-2.26002E-05-2.80859E-05-5.13395E-06-4.38439E-19-5.68449E-19
 -1      4085 8.56381E-05-2.13261E-05-2.75338E-05-4.80936E-06-1.34336E-19-1.02005E-18
 -1      4086 8.50286E-05-2.63224E-05-2.51180E-05-1.49263E-05-3.44187E-19-5.77524E-19
 -1      4087 8.44411E-05-2.48558E-05-2.55904E-05-1.30263E-05-4.80673E-19-8.57566E-19
 -1      4088 8.18383E-05-2.25416E-05-2.53751E-05-1.14621E-05-1.32883E-19-1.02279E-18
 -1      4089 9.56385E-05-2.49880E-05-3.02868E-05 3.10374E-07 7.51835E-19-1.46216E-18
 -1      4090 9.55256E-05-2.46411E-05-3.03846E-05 1.92187E-07 8.22436E-19-1.55351E-18
 -1      4091 6.73293E-05-1.76139E-05-2.12983E-05-1.04083E-05-1.08063E-18-3.17521E-18
 -1      4092 9.21125E-05-2.50674E-05-2.87263E-05-1.69828E-06-1.24055E-18-2.63282E-18
 -1      4093 9.43472E-05-2.66163E-05-2.90233E-05-2.76796E-06 4.50147E-19-1.30870E-18
 -1      4094 9.24798E-05-2.53770E-05-2.87552E-05-1.02529E-06-3.84934E-19-1.97489E-18
 -1      4095 9.27405E-05-2.56195E-05-2.87664E-05-6.79080E-07-1.07872E-18-1.56952E-18
 -1      4096 9.26482E-05-2.55511E-05-2.87610E-05-3.29921E-07-8.72853E-19-5.59634E-19
 -1      4097 7.11836E-05-1.94056E-05-2.22233E-05 1.24953E-05 5.00113E-19-1.80914E-18
 -1      4098 6.68134E-05-1.68901E-05-2.11943E-05 9.87215E-06 4.03906E-19-1.93615E-18
 -1      4099 9.57760E-05-2.52985E-05-3.01910E-05-7.99178E-09 6.25049E-19-1.54427E-18
 -1      4100 9.54966E-05-2.45643E-05-3.04076E-05 1.44106E-07 8.24811E-19-1.58578E-18
 -1      4101 6.59065E-05-1.59650E-05-2.14909E-05 5.44768E-06 7.64414E-20-1.75992E-18
 -1      4102 9.57460E-05-2.54841E-05-3.01118E-05 1.25762E-07 7.90885E-19-1.17031E-18
 -1      4103 9.15154E-05-2.45521E-05-2.86877E-05-4.53182E-06 2.72768E-19-5.18166E-19
 -1      4104 6.86987E-05-1.73877E-05-2.19483E-05 9.58355E-06-3.74650E-19 1.94478E-18
 -1      4105 6.42830E-05-1.51110E-05-2.08444E-05 6.09205E-06-8.26453E-19 1.57555E-18
 -1      4106 6.60049E-05-1.52806E-05-2.17598E-05 1.33122E-06-5.50283E-19-1.01654E-18
 -1      4107 9.26204E-05-2.55139E-05-2.87611E-05 1.22662E-07-1.19527E-18-4.18336E-19
 -1      4108 9.26712E-05-2.55510E-05-2.87687E-05 4.85886E-07-1.28870E-20-1.72488E-19
 -1      4109 9.22392E-05-2.51844E-05-2.87369E-05-1.43966E-07-1.14160E-18-4.35309E-19
 -1      4110 8.90834E-05-2.30817E-05-2.82864E-05-4.74089E-06-2.12438E-19-3.99769E-19
 -1      4111 8.97791E-05-2.34992E-05-2.84214E-05-4.32492E-06-8.82842E-20-3.14093E-19
 -1      4112 8.77992E-05-2.23232E-05-2.80395E-05-4.02111E-06-1.77732E-19-5.73804E-19
 -1      4113 7.36954E-05-1.91762E-05-2.33092E-05 1.16255E-05-2.72531E-19 1.17830E-18
 -1      4114 9.19416E-05-2.48662E-05-2.87471E-05-3.41434E-06 2.05830E-19-7.50569E-19
 -1      4115 9.24590E-05-2.52568E-05-2.88104E-05-3.12501E-06 5.33346E-19-9.10787E-19
 -1      4116 9.24577E-05-2.52058E-05-2.88128E-05-2.49446E-06 5.78435E-19-7.79368E-19
 -1      4117 9.30590E-05-2.56620E-05-2.88846E-05-2.91164E-06 7.21258E-19-8.37030E-19
 -1      4118 9.34951E-05-2.59960E-05-2.89352E-05-2.66195E-06 6.07203E-19-9.33896E-19
 -1      4119 8.18281E-05-2.82661E-05-2.28878E-05-2.03609E-05 2.47545E-19 1.40094E-18
 -1      4120 8.34106E-05-2.68756E-05-2.42980E-05-1.69278E-05 2.65144E-20 6.50591E-19
 -1      4121 9.27233E-05-2.55787E-05-2.87770E-05 8.02080E-07 7.03581E-19-1.65348E-18
 -1      4122 9.27588E-05-2.55960E-05-2.87883E-05 1.13022E-06 1.39771E-19-1.94713E-18
 -1      4123 9.24327E-05-2.52946E-05-2.87727E-05 1.27170E-06 7.44286E-19-1.32991E-18
 -1      4124 9.22707E-05-2.51875E-05-2.87468E-05 6.32236E-07 3.01254E-19-7.94835E-19
 -1      4125 9.55572E-05-2.71090E-05-2.93365E-05-1.47608E-06 5.71206E-19-1.10414E-18
 -1      4126 9.56281E-05-2.69321E-05-2.94379E-05-1.14021E-06 5.67841E-19-1.13253E-18
 -1      4127 9.53463E-05-2.70821E-05-2.92574E-05-1.70448E-06 4.99478E-19-1.15987E-18
 -1      4128 9.54703E-05-2.44888E-05-3.04291E-05 2.65401E-08 7.23585E-19-1.73731E-18
 -1      4129 7.95168E-05-2.34414E-05-2.39057E-05-1.51439E-05-1.42378E-18-1.13023E-19
 -1      4130 6.39930E-05-1.54700E-05-2.06712E-05-4.34957E-06-6.72908E-19-1.87885E-18
 -1      4131 9.56392E-05-2.49597E-05-3.02934E-05-2.59280E-07-1.39803E-19-1.33348E-18
 -1      4132 9.57866E-05-2.54775E-05-3.01358E-05 3.33013E-08 3.05241E-20-1.20832E-18
 -1      4133 9.58105E-05-2.55432E-05-3.01089E-05 1.13169E-07 8.85245E-20-1.20949E-18
 -1      4134 7.60635E-05-1.93974E-05-2.42263E-05-1.00520E-05-1.10925E-18-7.99051E-19
 -1      4135 7.25736E-05-1.78732E-05-2.33970E-05-7.46342E-06-8.31813E-19-1.05524E-18
 -1      4136 7.46957E-05-1.80614E-05-2.43322E-05-6.21767E-06-2.51900E-19-5.41692E-19
 -1      4137 9.51405E-05-2.36735E-05-3.06364E-05-7.76146E-07-2.38643E-19-1.70236E-18
 -1      4138 9.54206E-05-2.43727E-05-3.04505E-05-4.44745E-07-2.63915E-19-1.56546E-18
 -1      4139 9.55028E-05-2.45476E-05-3.04079E-05-2.49091E-07 7.59983E-20-1.41083E-18
 -1      4140 9.49504E-05-2.32080E-05-3.07447E-05-6.41950E-07-8.99785E-20-1.70283E-18
 -1      4141 8.07000E-05-2.62570E-05-2.33179E-05 1.84601E-05 1.31529E-18-1.12732E-18
 -1      4142 6.89119E-05-1.66634E-05-2.24163E-05-7.11343E-06-5.92693E-19-1.33471E-18
 -1      4143 9.47478E-05-2.27659E-05-3.08527E-05-2.95788E-07 2.58230E-19-1.86632E-18
 -1      4144 9.49020E-05-2.31103E-05-3.07768E-05-5.06625E-07 5.33963E-20-1.82817E-18
 -1      4145 9.52313E-05-2.38135E-05-3.05988E-05-3.30365E-07 1.01271E-19-1.65944E-18
 -1      4146 9.52030E-05-2.36672E-05-3.06395E-05-1.06274E-07 5.29782E-19-1.69662E-18
 -1      4147 9.58631E-05-2.58301E-05-3.00186E-05-2.07462E-07 4.20573E-19-1.56141E-18
 -1      4148 9.58464E-05-2.57527E-05-3.00466E-05-1.67469E-07 3.59934E-19-1.51227E-18
 -1      4149 8.12723E-05-2.06706E-05-2.59668E-05-7.45321E-06 7.51157E-19-8.29186E-19
 -1      4150 8.22419E-05-2.06625E-05-2.64385E-05-6.29347E-06 7.71545E-19-9.37469E-19
 -1      4151 9.54214E-05-2.68556E-05-2.93876E-05 7.62115E-07 2.04796E-19-6.91610E-19
 -1      4152 9.51489E-05-2.68087E-05-2.92906E-05 9.11362E-07 3.82475E-19-6.13067E-19
 -1      4153 9.47976E-05-2.66830E-05-2.91965E-05 9.92951E-07 1.94775E-19-7.08041E-19
 -1      4154 9.44314E-05-2.64985E-05-2.91149E-05 1.13816E-06-2.46990E-20-7.38072E-19
 -1      4155 9.49175E-05-2.66314E-05-2.92587E-05 5.75616E-07 1.99718E-19-8.05985E-19
 -1      4156 9.39702E-05-2.62445E-05-2.90306E-05 1.23341E-06 1.51690E-19-5.76227E-19
 -1      4157 9.35133E-05-2.59573E-05-2.89543E-05 1.39479E-06 9.84347E-20-3.44534E-19
 -1      4158 9.41202E-05-2.62551E-05-2.90771E-05 7.32702E-07 1.12092E-19-7.53926E-19
 -1      4159 9.29529E-05-2.56058E-05-2.88691E-05 1.50997E-06 6.13282E-21-2.49020E-20
 -1      4160 9.24053E-05-2.52403E-05-2.87867E-05 1.70414E-06-5.07661E-20 4.85605E-19
 -1      4161 9.31113E-05-2.56422E-05-2.89057E-05 9.26033E-07 2.95694E-19-1.74543E-19
 -1      4162 9.17323E-05-2.48213E-05-2.86869E-05 1.87005E-06-3.04821E-19 5.03986E-19
 -1      4163 9.11090E-05-2.44104E-05-2.85859E-05 2.11146E-06 4.26991E-21 5.12361E-19
 -1      4164 9.18683E-05-2.48261E-05-2.87172E-05 1.16394E-06-1.24299E-19 3.51247E-19
 -1      4165 9.03184E-05-2.39558E-05-2.84572E-05 2.34593E-06 1.65180E-20 5.03237E-19
 -1      4166 8.96229E-05-2.35348E-05-2.83228E-05 2.65702E-06-9.25967E-21 5.96103E-19
 -1      4167 9.04120E-05-2.38979E-05-2.84854E-05 1.47460E-06-3.93264E-20 1.98877E-19
 -1      4168 8.87000E-05-2.30621E-05-2.81479E-05 2.95434E-06 1.44200E-19 4.59550E-19
 -1      4169 8.79105E-05-2.26631E-05-2.79622E-05 3.37684E-06 6.31845E-19 3.53471E-19
 -1      4170 8.87641E-05-2.29581E-05-2.81807E-05 1.92472E-06-4.49138E-20 5.71606E-19
 -1      4171 8.68323E-05-2.22111E-05-2.77184E-05 3.80079E-06 7.18917E-19-1.92985E-19
 -1      4172 8.59585E-05-2.18794E-05-2.74598E-05 4.38355E-06 7.17827E-19-4.83231E-20
 -1      4173 8.67752E-05-2.19560E-05-2.77567E-05 2.55364E-06 3.17488E-19 4.75147E-19
 -1      4174 8.46762E-05-2.14787E-05-2.71178E-05 4.98032E-06 5.25317E-19-4.10422E-19
 -1      4175 8.37221E-05-2.12775E-05-2.67592E-05 5.82095E-06 4.41422E-19-2.97872E-19
 -1      4176 8.44533E-05-2.10045E-05-2.71637E-05 3.44607E-06 6.46145E-19-1.49028E-19
 -1      4177 8.21119E-05-2.09330E-05-2.62760E-05 6.66454E-06 3.75464E-19-5.12947E-19
 -1      4178 8.10153E-05-2.09819E-05-2.57679E-05 8.02629E-06 3.77120E-19-6.55127E-19
 -1      4179 8.16531E-05-2.01429E-05-2.63292E-05 4.71543E-06 3.91976E-19-8.26792E-19
 -1      4180 9.47551E-05-2.68159E-05-2.91172E-05-2.08567E-06 2.88481E-19-1.20427E-18
 -1      4181 9.50427E-05-2.69709E-05-2.91768E-05-1.87021E-06 2.90082E-19-1.17932E-18
 -1      4182 9.51317E-05-2.68747E-05-2.92493E-05-1.48148E-06 5.04307E-19-1.11180E-18
 -1      4183 9.59454E-05-2.66968E-05-2.96818E-05-8.09296E-07 7.33353E-19-9.10883E-19
 -1      4184 9.59592E-05-2.63648E-05-2.98273E-05-4.66640E-07 7.57647E-19-1.02448E-18
 -1      4185 7.43170E-05-2.06987E-05-2.30065E-05-1.34045E-05-1.66674E-18-1.37097E-18
 -1      4186 7.63490E-05-2.06963E-05-2.39512E-05-1.16281E-05-1.29805E-18-1.63346E-18
 -1      4187 7.05854E-05-1.66973E-05-2.30204E-05 2.04013E-06 3.04899E-19-1.04482E-18
 -1      4188 6.69657E-05-1.53757E-05-2.20139E-05-6.86580E-07-5.37088E-21-1.01690E-18
 -1      4189 9.39927E-05-2.63260E-05-2.90000E-05-2.47736E-06 4.74595E-19-1.23985E-18
 -1      4190 9.43536E-05-2.65824E-05-2.90497E-05-2.25308E-06 3.98567E-19-1.26044E-18
 -1      4191 9.35439E-05-2.59583E-05-2.89582E-05-2.13057E-06 4.39409E-19-1.01476E-18
 -1      4192 8.37119E-05-2.09361E-05-2.68940E-05-5.47777E-06 9.05530E-19-1.45768E-18
 -1      4193 8.45647E-05-2.11164E-05-2.72315E-05-4.68091E-06 9.85484E-19-1.36843E-18
 -1      4194 8.17827E-05-1.98759E-05-2.64824E-05-4.45958E-06 8.57144E-19-2.45033E-18
 -1      4195 8.57712E-05-2.14829E-05-2.75507E-05-4.07053E-06 2.89570E-19-9.88289E-19
 -1      4196 8.65576E-05-2.17825E-05-2.77897E-05-3.51032E-06 2.78712E-19-1.18881E-18
 -1      4197 8.42970E-05-2.05862E-05-2.72587E-05-3.22948E-06 6.14057E-19-1.51798E-18
 -1      4198 8.75509E-05-2.21935E-05-2.80115E-05-3.08167E-06 6.82557E-19-7.58218E-19
 -1      4199 8.82531E-05-2.25583E-05-2.81763E-05-2.66819E-06 1.22873E-19-4.80013E-19
 -1      4200 8.64678E-05-2.14641E-05-2.78094E-05-2.38598E-06 7.15281E-19-7.62517E-19
 -1      4201 8.90748E-05-2.29832E-05-2.83269E-05-2.35683E-06-5.70932E-19 1.20851E-20
 -1      4202 8.96868E-05-2.33711E-05-2.84367E-05-2.04098E-06-7.45049E-19-3.98320E-20
 -1      4203 8.82469E-05-2.23820E-05-2.81883E-05-1.77342E-06-3.34818E-19 2.75500E-19
 -1      4204 9.03695E-05-2.37952E-05-2.85355E-05-1.80405E-06-1.48266E-18-3.27300E-20
 -1      4205 9.08983E-05-2.41797E-05-2.86055E-05-1.56115E-06-2.24832E-18-1.37399E-18
 -1      4206 8.97153E-05-2.32833E-05-2.84424E-05-1.32486E-06-1.20366E-18 3.84349E-20
 -1      4207 9.58835E-05-2.58915E-05-2.99949E-05-2.15522E-07 7.45534E-19-1.32165E-18
 -1      4208 9.12280E-05-2.43383E-05-2.86729E-05 1.48686E-06-6.91906E-20-2.48294E-18
 -1      4209 9.06759E-05-2.39157E-05-2.86168E-05 1.67742E-06-1.25108E-18-1.68174E-18
 -1      4210 8.75850E-05-3.25080E-05-2.33001E-05-2.26503E-05-1.63708E-18-8.59024E-19
 -1      4211 9.06228E-05-2.39852E-05-2.85594E-05-4.01159E-06-5.30341E-20-3.90771E-19
 -1      4212 9.12286E-05-2.44078E-05-2.86496E-05-3.66870E-06 1.01915E-19-7.54808E-19
 -1      4213 9.11590E-05-2.43192E-05-2.86335E-05-2.91209E-06 6.95227E-20-6.11439E-19
 -1      4214 8.96191E-05-2.33391E-05-2.83891E-05-3.41005E-06-2.06889E-19-5.78387E-19
 -1      4215 8.12114E-05-1.96222E-05-2.64095E-05-4.35159E-06-9.89664E-20-5.50470E-19
 -1      4216 8.26706E-05-2.00969E-05-2.68529E-05-3.82169E-06 1.35112E-19-9.74590E-19
 -1      4217 7.23867E-05-1.71469E-05-2.35185E-05 5.69602E-06 9.22753E-20-1.79786E-18
 -1      4218 7.27321E-05-1.70324E-05-2.39782E-05 1.45669E-07 4.45683E-19-1.35073E-18
 -1      4219 7.24994E-05-1.75420E-05-2.36330E-05 7.23823E-06-1.41274E-19 2.22665E-18
 -1      4220 9.00053E-05-2.34583E-05-2.85323E-05 1.81727E-06-1.98167E-18-6.84484E-19
 -1      4221 8.93363E-05-2.29986E-05-2.84385E-05 2.03247E-06-1.13615E-18-7.94342E-19
 -1      4222 9.00768E-05-2.34724E-05-2.85239E-05 1.13375E-06-9.81559E-19-3.70559E-18
 -1      4223 7.46838E-05-1.73661E-05-2.44683E-05-3.05429E-06-8.42401E-21-3.10821E-19
 -1      4224 7.73957E-05-1.86604E-05-2.51845E-05-5.49471E-06-3.29540E-19-7.34950E-21
 -1      4225 7.91832E-05-1.90517E-05-2.58247E-05-4.69782E-06-2.21440E-19-3.03769E-19
 -1      4226 7.57014E-05-1.77685E-05-2.48708E-05 2.66875E-07 8.86489E-21-8.63035E-19
 -1      4227 9.14299E-05-2.45461E-05-2.86653E-05-1.38691E-06-2.12702E-18-1.16382E-18
 -1      4228 9.20476E-05-2.50432E-05-2.87213E-05-1.16169E-06-7.28964E-19-1.60958E-18
 -1      4229 9.18718E-05-2.48864E-05-2.87037E-05-7.13128E-07-9.00381E-19-6.03410E-19
 -1      4230 9.09310E-05-2.41444E-05-2.86065E-05-9.67628E-07-2.51067E-18 2.13872E-19
 -1      4231 7.85561E-05-2.07989E-05-2.47492E-05-1.01493E-05-5.49614E-19-1.15827E-18
 -1      4232 7.95551E-05-2.04647E-05-2.53940E-05-8.44561E-06 8.24911E-19-1.05034E-18
 -1      4233 7.86574E-05-1.91370E-05-2.54328E-05-6.05715E-06 8.35001E-19-1.51815E-18
 -1      4234 7.48037E-05-1.84469E-05-2.40358E-05-8.09540E-06-3.94649E-19-1.20549E-18
 -1      4235 9.58950E-05-2.66344E-05-2.96801E-05-7.46320E-07 6.78850E-19-9.82259E-19
 -1      4236 9.57440E-05-2.51907E-05-3.02237E-05 1.37962E-08 4.95925E-19-1.28730E-18
 -1      4237 9.54649E-05-2.44718E-05-3.04336E-05-5.69608E-09 5.88086E-19-1.45919E-18
 -1      4238 7.80413E-05-1.85329E-05-2.55655E-05 4.88022E-06-1.63092E-19 1.65921E-18
 -1      4239 7.62855E-05-1.81713E-05-2.48946E-05 5.77493E-06-1.04748E-19 1.13436E-18
 -1      4240 7.47724E-05-2.22956E-05-2.23106E-05-1.74768E-05-1.85968E-18-8.47905E-19
 -1      4241 7.79479E-05-2.50920E-05-2.25072E-05-1.94723E-05-4.20916E-19 1.25796E-18
 -1      4242 8.42434E-05-2.06745E-05-2.72545E-05-3.57642E-06 1.37484E-19-9.91298E-19
 -1      4243 8.54462E-05-2.11894E-05-2.75622E-05-3.20546E-06 9.10420E-20-7.35843E-19
 -1      4244 8.28415E-05-1.99665E-05-2.69136E-05-2.07973E-06 3.81076E-20-5.74330E-19
 -1      4245 9.58716E-05-2.59048E-05-2.99861E-05-2.68347E-07 5.67443E-19-1.35944E-18
 -1      4246 7.74744E-05-1.86659E-05-2.51571E-05 4.61476E-06 2.82896E-20-1.52838E-18
 -1      4247 7.81804E-05-1.98994E-05-2.50483E-05 7.30518E-06 7.51080E-21-9.39492E-19
 -1      4248 9.44337E-05-2.65315E-05-2.90960E-05-1.80094E-06 2.81608E-19-1.08061E-18
 -1      4249 7.69554E-05-2.00883E-05-2.43563E-05 8.95789E-06 1.70141E-19-1.35667E-18
 -1      4250 7.22275E-05-1.73449E-05-2.35009E-05-5.28586E-06-3.41129E-19-2.11925E-18
 -1      4251 7.43102E-05-1.77011E-05-2.43160E-05-4.45918E-06 2.05075E-19-1.61196E-18
 -1      4252 9.58544E-05-2.66792E-05-2.96496E-05-6.66763E-07 5.66750E-19-1.05355E-18
 -1      4253 9.59206E-05-2.64112E-05-2.97891E-05-4.62616E-07 6.66632E-19-1.11796E-18
 -1      4254 8.01531E-05-1.90573E-05-2.61950E-05 4.45275E-06 3.36489E-19 1.20641E-18
 -1      4255 7.81169E-05-1.80971E-05-2.56706E-05 2.51303E-06 4.11828E-19-1.70328E-19
 -1      4256 8.16237E-05-1.94688E-05-2.66744E-05 3.85226E-06 5.99100E-19 1.41447E-18
 -1      4257 7.49667E-05-2.04190E-05-2.35084E-05 1.15557E-05 4.04577E-19-1.09537E-18
 -1      4258 8.86066E-05-2.24839E-05-2.83032E-05 1.31670E-06-1.45841E-18-2.86323E-18
 -1      4259 8.85131E-05-2.25014E-05-2.83066E-05 2.18957E-06-9.12580E-19-9.85732E-19
 -1      4260 8.76970E-05-2.20183E-05-2.81588E-05 2.43887E-06-1.56866E-18-1.13238E-18
 -1      4261 9.20670E-05-2.50077E-05-2.87449E-05 1.31206E-06 5.13007E-19-1.65378E-18
 -1      4262 9.16580E-05-2.46667E-05-2.87151E-05 1.45937E-06 1.65907E-19-1.14753E-18
 -1      4263 9.11915E-05-2.42915E-05-2.86551E-05 1.04114E-06-4.08278E-19-2.72732E-18
 -1      4264 9.19626E-05-2.49243E-05-2.87277E-05 9.85523E-07 1.06639E-19-1.23432E-18
 -1      4265 9.18075E-05-2.48415E-05-2.87014E-05-2.21683E-07-1.49623E-18 5.71856E-19
 -1      4266 8.67146E-05-2.17687E-05-2.78419E-05-3.02704E-06-1.38297E-19-5.03327E-19
 -1      4267 8.77197E-05-2.22975E-05-2.80551E-05-2.74516E-06-2.55342E-20-6.06488E-19
 -1      4268 8.56239E-05-2.11740E-05-2.76000E-05-1.83203E-06 2.14094E-19-3.34071E-19
 -1      4269 9.55150E-05-2.68881E-05-2.94136E-05-9.56945E-07 4.27510E-19-1.12612E-18
 -1      4270 9.57090E-05-2.68312E-05-2.95213E-05-7.76413E-07 4.64362E-19-1.13844E-18
 -1      4271 9.57544E-05-2.66213E-05-2.96223E-05-4.95911E-07 5.65157E-19-9.76342E-19
 -1      4272 9.18954E-05-2.48947E-05-2.87190E-05 6.48226E-07-7.59803E-19-1.75371E-18
 -1      4273 7.93216E-05-1.87080E-05-2.59222E-05-2.41319E-06-1.21944E-19-2.12149E-19
 -1      4274 9.10955E-05-2.42993E-05-2.86350E-05-3.91207E-07-1.63205E-18-2.53666E-19
 -1      4275 9.15516E-05-2.46213E-05-2.86785E-05 2.06830E-07-1.10563E-18-5.61439E-19
 -1      4276 9.11823E-05-2.43356E-05-2.86522E-05 5.73104E-07-1.01350E-18-1.81773E-18
 -1      4277 9.05501E-05-2.38698E-05-2.85698E-05-5.13423E-07-2.15995E-18-7.42642E-19
 -1      4278 9.19329E-05-2.48631E-05-2.87491E-05-1.94260E-06 7.62803E-19-8.30951E-19
 -1      4279 9.25381E-05-2.52848E-05-2.88303E-05-1.77815E-06 5.53281E-19-8.86152E-19
 -1      4280 7.23656E-05-1.67482E-05-2.37789E-05 3.89485E-06 2.70135E-19 1.40757E-18
 -1      4281 9.57161E-05-2.51378E-05-3.02438E-05-3.53229E-08 1.76302E-19-1.35540E-18
 -1      4282 9.58316E-05-2.56060E-05-3.00999E-05 1.42354E-07 2.18324E-19-1.27020E-18
 -1      4283 8.44214E-05-2.04755E-05-2.74371E-05 3.16990E-06 3.60046E-19 5.13674E-19
 -1      4284 8.32326E-05-2.00172E-05-2.71063E-05 3.56862E-06 9.31230E-19 1.44839E-18
 -1      4285 8.17566E-05-1.92722E-05-2.67386E-05 2.10479E-06 1.18801E-18-1.91870E-19
 -1      4286 9.04833E-05-2.39071E-05-2.85387E-05-2.25382E-06-4.16980E-19-4.20509E-19
 -1      4287 9.11957E-05-2.43827E-05-2.86449E-05-2.06263E-06 4.32106E-19-5.73015E-19
 -1      4288 9.13605E-05-2.44311E-05-2.86634E-05-1.32282E-06 2.65964E-19-8.29310E-19
 -1      4289 8.66792E-05-2.14921E-05-2.79586E-05 2.62119E-06-1.21145E-18-1.25969E-18
 -1      4290 8.56901E-05-2.10051E-05-2.77344E-05 2.92591E-06-4.72320E-19-4.29956E-19
 -1      4291 8.45177E-05-2.03135E-05-2.74616E-05 1.72947E-06 9.18503E-19-3.87473E-19
 -1      4292 8.67919E-05-2.14311E-05-2.79654E-05 1.51328E-06-7.12117E-19-2.04518E-18
 -1      4293 7.71897E-05-2.26121E-05-2.32760E-05 1.51206E-05 1.02277E-18-1.33101E-18
 -1      4294 6.96610E-05-1.86313E-05-2.18682E-05-1.10086E-05-1.57311E-18-2.82626E-18
 -1      4295 6.83409E-05-1.64347E-05-2.21665E-05-6.77751E-06-1.00681E-18-2.96571E-18
 -1      4296 9.56512E-05-2.68243E-05-2.95006E-05 6.88957E-07 6.07328E-20-8.56709E-19
 -1      4297 9.55057E-05-2.67317E-05-2.94679E-05 4.34109E-07 2.23521E-19-6.88498E-19
 -1      4298 9.58095E-05-2.66981E-05-2.96224E-05 5.21687E-07 1.01358E-20-9.53120E-19
 -1      4299 9.58372E-05-2.57243E-05-3.00461E-05 8.43498E-08 3.81204E-19-9.92300E-19
 -1      4300 9.59100E-05-2.60950E-05-2.99230E-05 2.16595E-07 1.67992E-19-1.14390E-18
 -1      4301 9.58968E-05-2.64435E-05-2.97685E-05 4.10000E-07 3.95729E-20-1.11061E-18
 -1      4302 9.54808E-05-2.45053E-05-3.04230E-05-9.16827E-08 3.34578E-19-1.48739E-18
 -1      4303 7.00653E-05-1.61668E-05-2.31149E-05 1.51271E-06-1.22337E-19-7.02233E-19
 -1      4304 6.85765E-05-1.56279E-05-2.25869E-05-2.54653E-06-4.33568E-19-3.38567E-18
 -1      4305 9.58322E-05-2.57149E-05-3.00547E-05-8.16376E-08 3.96403E-19-1.48918E-18
 -1      4306 9.58265E-05-2.56943E-05-3.00626E-05-2.22101E-08 3.09114E-19-1.21043E-18
 -1      4307 9.58936E-05-2.61507E-05-2.98898E-05 2.06084E-08 2.30541E-19-1.30767E-18
 -1      4308 9.59162E-05-2.61399E-05-2.98946E-05-2.36418E-07 1.33870E-19-1.50921E-18
 -1      4309 7.99564E-05-1.93865E-05-2.59423E-05 3.41231E-06-5.50439E-20-1.49649E-18
 -1      4310 7.74174E-05-1.82853E-05-2.53045E-05 2.48018E-06-1.98651E-19-1.22128E-18
 -1      4311 7.83180E-05-1.84852E-05-2.56826E-05-4.81700E-07-3.65004E-19-5.10448E-19
 -1      4312 8.14023E-05-1.97889E-05-2.64353E-05 2.80307E-06 6.50768E-20-8.28552E-19
 -1      4313 9.49383E-05-2.67499E-05-2.92250E-05-1.20768E-06 4.79473E-19-7.81302E-19
 -1      4314 9.52374E-05-2.68533E-05-2.93107E-05-1.04787E-06 4.55614E-19-8.62654E-19
 -1      4315 9.53427E-05-2.67540E-05-2.93882E-05-6.88481E-07 1.79763E-19-1.03544E-18
 -1      4316 9.41438E-05-2.63270E-05-2.90659E-05-1.44285E-06 4.14180E-19-8.81187E-19
 -1      4317 9.45448E-05-2.65636E-05-2.91387E-05-1.28826E-06 4.79780E-19-8.68198E-19
 -1      4318 9.46859E-05-2.65649E-05-2.91945E-05-8.59073E-07 5.02107E-19-6.04137E-19
 -1      4319 9.42995E-05-2.63648E-05-2.91217E-05 2.04136E-07 2.69152E-19-8.53138E-19
 -1      4320 9.38404E-05-2.60997E-05-2.90348E-05 2.88226E-07 4.32277E-19-6.60997E-19
 -1      4321 9.33025E-05-2.57729E-05-2.89475E-05 3.00749E-07 5.96376E-19-6.16467E-19
 -1      4322 9.27286E-05-2.54089E-05-2.88581E-05 4.00333E-07 4.29329E-19-4.09925E-19
 -1      4323 9.35465E-05-2.58882E-05-2.89916E-05-2.34765E-07 5.24656E-19-7.00663E-19
 -1      4324 9.22123E-05-2.50640E-05-2.87857E-05-8.84201E-08 1.89940E-19-6.47796E-19
 -1      4325 9.15284E-05-2.46261E-05-2.86832E-05 1.24990E-09-2.94880E-20-5.70662E-19
 -1      4326 9.07835E-05-2.41454E-05-2.85729E-05-2.50055E-08-2.00531E-19-2.12042E-19
 -1      4327 8.99974E-05-2.36478E-05-2.84439E-05 9.68740E-08-9.77148E-20-3.15121E-19
 -1      4328 8.69409E-05-2.19781E-05-2.78588E-05 1.18637E-06-8.46123E-21 9.94389E-20
 -1      4329 8.58642E-05-2.14531E-05-2.76096E-05 1.48725E-06 2.53679E-19-2.06932E-19
 -1      4330 8.44421E-05-2.08629E-05-2.72734E-05 1.82716E-06 4.02859E-19-1.75767E-19
 -1      4331 8.31774E-05-2.03627E-05-2.69216E-05 2.26017E-06 4.56475E-19-6.37328E-19
 -1      4332 8.16827E-05-1.96059E-05-2.65723E-05 1.06808E-06 6.80929E-20-9.36584E-19
 -1      4333 8.48591E-05-2.08680E-05-2.74012E-05 3.82030E-07 2.16792E-19-2.87461E-19
 -1      4334 8.22145E-05-1.98024E-05-2.67732E-05-7.36115E-07 6.18624E-20-5.00820E-19
 -1      4335 8.37941E-05-2.04056E-05-2.71762E-05-6.97355E-07 2.38477E-19-4.45714E-19
 -1      4336 8.01158E-05-1.90845E-05-2.61761E-05-2.93535E-06 1.15546E-18-1.94273E-18
 -1      4337 8.15526E-05-1.95022E-05-2.66404E-05-2.27521E-06 1.27027E-18-1.56424E-18
 -1      4338 8.27751E-05-1.98309E-05-2.69953E-05-9.13243E-07 1.37775E-18-1.05643E-18
 -1      4339 8.39932E-05-2.03142E-05-2.73297E-05-5.68623E-07 1.00074E-18-3.91406E-19
 -1      4340 8.52720E-05-2.08691E-05-2.76315E-05-5.44079E-07 1.14465E-19-8.78855E-19
 -1      4341 8.62952E-05-2.13654E-05-2.78652E-05-2.73547E-07 1.42380E-19-1.12833E-18
 -1      4342 8.73252E-05-2.18862E-05-2.80708E-05-2.91200E-07-2.67094E-19-1.57586E-18
 -1      4343 8.81792E-05-2.23770E-05-2.82303E-05-9.87515E-08-1.15469E-18-1.91609E-18
 -1      4344 8.90204E-05-2.28733E-05-2.83675E-05-1.33376E-07-1.55506E-18-1.99784E-18
 -1      4345 8.97281E-05-2.33326E-05-2.84727E-05-2.79987E-09-1.66715E-18-2.15189E-18
 -1      4346 8.03880E-05-1.91319E-05-2.62703E-05-4.38157E-07-1.38983E-19-6.88826E-19
 -1      4347 7.66233E-05-1.82087E-05-2.50594E-05-3.96806E-06-1.44129E-19-1.56740E-18
 -1      4348 7.83376E-05-1.86046E-05-2.56494E-05-3.27668E-06 4.24492E-19-1.59567E-18
 -1      4349 7.87551E-05-1.82817E-05-2.58734E-05-9.22276E-07 6.43949E-19-1.32891E-18
 -1      4350 7.47669E-05-1.71636E-05-2.46091E-05-1.35245E-06 3.19346E-19-1.99921E-18
 -1      4351 7.39365E-05-1.70038E-05-2.44476E-05 6.57884E-07 1.04853E-20-8.29940E-19
 -1      4352 8.87683E-05-2.28593E-05-2.82512E-05-2.60832E-06 1.14639E-20-5.51098E-19
 -1      4353 8.96123E-05-2.33729E-05-2.83993E-05-2.37549E-06-2.84628E-19-4.62590E-19
 -1      4354 8.79043E-05-2.23487E-05-2.80800E-05-1.64483E-06-1.88332E-19-4.99517E-19
 -1      4355 9.31465E-05-2.56838E-05-2.89153E-05-1.68308E-06 3.28307E-19-6.14145E-19
 -1      4356 9.36480E-05-2.60246E-05-2.89862E-05-1.52755E-06 2.43067E-19-8.93085E-19
 -1      4357 9.38071E-05-2.60670E-05-2.90260E-05-1.00650E-06 3.70790E-19-6.41550E-19
 -1      4358 9.27103E-05-2.53554E-05-2.88588E-05-1.14969E-06 4.64782E-19-8.87494E-19
 -1      4359 9.54579E-05-2.44457E-05-3.04399E-05-1.61744E-07 1.94625E-19-1.54580E-18
 -1      4360 9.51430E-05-2.67282E-05-2.93243E-05-1.37701E-07 1.57539E-19-9.42724E-19
 -1      4361 9.47941E-05-2.66027E-05-2.92277E-05-8.52736E-08 2.52846E-20-9.85663E-19
 -1      4362 9.07248E-05-2.40139E-05-2.86024E-05 5.64692E-07-7.99243E-19-2.38701E-18
 -1      4363 9.59359E-05-2.62752E-05-2.98521E-05-4.39878E-07 5.06025E-19-1.23417E-18
 -1      4364 7.63250E-05-1.76385E-05-2.51710E-05 7.41794E-07 6.07617E-19-7.15316E-19
 -1      4365 9.25325E-05-2.52360E-05-2.88353E-05-7.23215E-07 6.15189E-19-9.39744E-19
 -1      4366 8.52271E-05-2.10448E-05-2.75216E-05-8.70711E-07 2.26187E-19-5.08780E-19
 -1      4367 8.89201E-05-2.30340E-05-2.82553E-05 8.06668E-07-1.39218E-19-1.69029E-19
 -1      4368 8.80202E-05-2.25253E-05-2.80771E-05 1.04297E-06 7.95334E-21-4.03466E-20
 -1      4369 7.84353E-05-1.82503E-05-2.58190E-05 6.53961E-07 7.52446E-19-7.15340E-19
 -1      4370 9.04082E-05-2.37927E-05-2.85609E-05-2.66926E-08-1.20464E-18-1.66971E-18
 -1      4371 9.31509E-05-2.56601E-05-2.89246E-05-6.67821E-07 6.08459E-19-9.19442E-19
 -1      4372 8.64931E-05-2.16403E-05-2.78008E-05-8.33122E-07 1.09680E-19-5.53704E-19
 -1      4373 8.95110E-05-2.32924E-05-2.83674E-05-7.66107E-07-8.86779E-21-1.91624E-19
 -1      4374 9.58274E-05-2.64510E-05-2.97269E-05 2.47013E-07 1.04562E-19-1.12384E-18
 -1      4375 9.54258E-05-2.67691E-05-2.94299E-05-6.74348E-08 3.23022E-19-9.80761E-19
 -1      4376 9.56554E-05-2.67221E-05-2.95457E-05-1.23126E-07 3.20522E-19-9.82317E-19
 -1      4377 8.73311E-05-2.20654E-05-2.79537E-05 3.97042E-08-1.85366E-20-6.19619E-19
 -1      4378 9.58051E-05-2.65698E-05-2.96757E-05-3.92035E-08 3.35737E-19-1.14408E-18
 -1      4379 8.17544E-05-1.92639E-05-2.67683E-05 5.99093E-07 1.51025E-18-8.66741E-19
 -1      4380 8.02310E-05-1.88165E-05-2.63338E-05 6.61349E-07 1.29445E-18-7.87503E-19
 -1      4381 9.36838E-05-2.60011E-05-2.90106E-05-6.34849E-07 3.40961E-19-7.14012E-19
 -1      4382 9.45814E-05-2.64811E-05-2.91818E-05-5.28340E-07 3.69128E-19-5.78848E-19
 -1      4383 9.58970E-05-2.63156E-05-2.98192E-05-3.76536E-07 4.93064E-19-1.35125E-18
 -1      4384 9.58790E-05-2.62747E-05-2.98294E-05-2.43007E-07 3.32605E-19-1.44574E-18
 -1      4385 8.97867E-05-2.34545E-05-2.84206E-05-1.50563E-06-8.67295E-20-2.00558E-20
 -1      4386 8.75786E-05-2.22149E-05-2.80224E-05-8.48240E-07-2.13133E-19-4.49516E-19
 -1      4387 9.58841E-05-2.63083E-05-2.98204E-05-1.19026E-07 3.09146E-19-1.22674E-18
 -1      4388 8.86489E-05-2.28006E-05-2.82209E-05-8.18053E-07-6.29257E-20-4.27000E-19
 -1      4389 9.41845E-05-2.62923E-05-2.90933E-05-5.87663E-07 4.74978E-19-4.50352E-19
 -3
    1PSTEP                         4           1           1          
  100CL  101 1.000000000        4389                     0    1           1
 -4  ERROR       1    1
 -5  STR(%)      1    1    0    0
 -1         1 1.30199E+01
 -1         2 2.67331E+01
 -1         3 1.08059E-02
 -1         4 1.22875E-02
 -1         5 1.40432E+01
 -1         6 1.31468E+01
 -1         7 1.31468E+01
 -1         8 3.64276E+00
 -1         9 1.80785E+00
 -1        10 1.28087E+00
 -1        11 1.03520E+00
 -1        12 8.91661E-01
 -1        13 8.00344E-01
 -1        14 7.46390E-01
 -1        15 7.48423E-01
 -1        16 8.04736E-01
 -1        17 8.92654E-01
 -1        18 1.04412E+00
 -1        19 1.29828E+00
 -1        20 1.81652E+00
 -1        21 3.48423E+00
 -1        22 8.62996E+00
 -1        23 1.31468E+01
 -1        24 4.33961E+00
 -1        25 3.36479E+00
 -1        26 2.13742E+00
 -1        27 1.39469E+00
 -1        28 1.06633E+00
 -1        29 8.39602E-01
 -1        30 6.73813E-01
 -1        31 5.48834E-01
 -1        32 4.53885E-01
 -1        33 3.81319E-01
 -1        34 3.72844E-01
 -1        35 4.18321E-01
 -1        36 4.69314E-01
 -1        37 5.18048E-01
 -1        38 6.00246E-01
 -1        39 7.56017E-01
 -1        40 9.34659E-01
 -1        41 1.07677E+00
 -1        42 1.11962E+00
 -1        43 1.11962E+00
 -1        44 1.13262E+00
 -1        45 1.26014E+00
 -1        46 1.57390E+00
 -1        47 2.72913E+00
 -1        48 3.44390E+00
 -1        49 3.44390E+00
 -1        50 3.37374E+00
 -1        51 3.37374E+00
 -1        52 2.53012E+00
 -1        53 1.54097E+00
 -1        54 1.17823E+00
 -1        55 1.14649E+00
 -1        56 1.10999E+00
 -1        57 1.10999E+00
 -1        58 1.04000E+00
 -1        59 8.84985E-01
 -1        60 7.05352E-01
 -1        61 5.63566E-01
 -1        62 4.56844E-01
 -1        63 3.91275E-01
 -1        64 3.22513E-01
 -1        65 2.57573E-01
 -1        66 1.99975E-01
 -1        67 1.50753E-01
 -1        68 1.22351E-01
 -1        69 1.04282E-01
 -1        70 7.94493E-02
 -1        71 4.05405E-02
 -1        72 1.40432E+01
 -1        73 3.41511E+00
 -1        74 2.43624E+00
 -1        75 1.69241E+00
 -1        76 1.17569E+00
 -1        77 9.63650E-01
 -1        78 8.06171E-01
 -1        79 6.84332E-01
 -1        80 5.91183E-01
 -1        81 5.23023E-01
 -1        82 4.77091E-01
 -1        83 4.50210E-01
 -1        84 4.58004E-01
 -1        85 5.33214E-01
 -1        86 6.16473E-01
 -1        87 6.96249E-01
 -1        88 7.52722E-01
 -1        89 7.70350E-01
 -1        90 9.75349E-01
 -1        91 1.21959E+00
 -1        92 1.35489E+00
 -1        93 1.62866E+00
 -1        94 1.77198E+00
 -1        95 1.97681E+00
 -1        96 2.34230E+00
 -1        97 3.66766E+00
 -1        98 4.06452E+00
 -1        99 4.44591E+00
 -1       100 4.44591E+00
 -1       101 3.30682E+00
 -1       102 1.85350E+00
 -1       103 1.31813E+00
 -1       104 1.48881E+00
 -1       105 1.57034E+00
 -1       106 1.57034E+00
 -1       107 1.44397E+00
 -1       108 1.22318E+00
 -1       109 1.02711E+00
 -1       110 8.23982E-01
 -1       111 6.35579E-01
 -1       112 4.73196E-01
 -1       113 3.57505E-01
 -1       114 2.78043E-01
 -1       115 2.11303E-01
 -1       116 1.56550E-01
 -1       117 1.11824E-01
 -1       118 7.55316E-02
 -1       119 6.11011E-02
 -1       120 3.35047E-02
 -1       121 1.31142E-02
 -1       122 1.45972E-02
 -1       123 1.45972E-02
 -1       124 9.79515E-03
 -1       125 5.38736E-03
 -1       126 1.05766E-02
 -1       127 1.40535E-02
 -1       128 1.50539E-02
 -1       129 1.50539E-02
 -1       130 1.38712E-02
 -1       131 1.02084E-02
 -1       132 5.25455E-03
 -1       133 9.75964E-03
 -1       134 1.40767E-02
 -1       135 1.72987E-02
 -1       136 1.88195E-02
 -1       137 2.67331E+01
 -1       138 4.67689E+01
 -1       139 4.67689E+01
 -1       140 1.92804E+01
 -1       141 1.22376E+01
 -1       142 1.35132E+01
 -1       143 1.35132E+01
 -1       144 1.31795E+01
 -1       145 1.31795E+01
 -1       146 1.48916E+01
 -1       147 3.97346E+01
 -1       148 3.97346E+01
 -1       149 2.50166E+01
 -1       150 2.50166E+01
 -1       151 2.64949E+01
 -1       152 2.76775E+01
 -1       153 3.20451E+01
 -1       154 3.13556E+01
 -1       155 1.31457E+01
 -1       156 1.33845E+01
 -1       157 1.33845E+01
 -1       158 1.32096E+01
 -1       159 1.18775E+01
 -1       160 2.27230E+01
 -1       161 4.87311E+01
 -1       162 4.87311E+01
 -1       163 2.48095E+01
 -1       164 6.05151E+00
 -1       165 2.28213E+00
 -1       166 1.49709E+00
 -1       167 1.15068E+00
 -1       168 9.64853E-01
 -1       169 8.57063E-01
 -1       170 7.88444E-01
 -1       171 7.48423E-01
 -1       172 7.91973E-01
 -1       173 8.60083E-01
 -1       174 9.73874E-01
 -1       175 1.16488E+00
 -1       176 1.51861E+00
 -1       177 2.24994E+00
 -1       178 3.91509E+00
 -1       179 1.40432E+01
 -1       180 4.33961E+00
 -1       181 3.36479E+00
 -1       182 2.13742E+00
 -1       183 1.46825E+00
 -1       184 1.06633E+00
 -1       185 8.39602E-01
 -1       186 6.73813E-01
 -1       187 5.48834E-01
 -1       188 4.53885E-01
 -1       189 3.81319E-01
 -1       190 3.36744E-01
 -1       191 3.72844E-01
 -1       192 4.18321E-01
 -1       193 4.69314E-01
 -1       194 5.35960E-01
 -1       195 6.42136E-01
 -1       196 7.68249E-01
 -1       197 9.34659E-01
 -1       198 1.07677E+00
 -1       199 1.11962E+00
 -1       200 1.11612E+00
 -1       201 1.13262E+00
 -1       202 1.26014E+00
 -1       203 1.73941E+00
 -1       204 2.72913E+00
 -1       205 3.44390E+00
 -1       206 3.37338E+00
 -1       207 3.37374E+00
 -1       208 2.53012E+00
 -1       209 1.59200E+00
 -1       210 1.17823E+00
 -1       211 1.14649E+00
 -1       212 1.08647E+00
 -1       213 1.10999E+00
 -1       214 1.04000E+00
 -1       215 8.84985E-01
 -1       216 7.35560E-01
 -1       217 6.29619E-01
 -1       218 5.26881E-01
 -1       219 4.19868E-01
 -1       220 3.22513E-01
 -1       221 2.57573E-01
 -1       222 2.00778E-01
 -1       223 1.56565E-01
 -1       224 1.22351E-01
 -1       225 1.04282E-01
 -1       226 7.94493E-02
 -1       227 4.48636E-02
 -1       228 3.41511E+00
 -1       229 2.43624E+00
 -1       230 1.69241E+00
 -1       231 1.17569E+00
 -1       232 9.63650E-01
 -1       233 8.06171E-01
 -1       234 6.84332E-01
 -1       235 5.91183E-01
 -1       236 5.23023E-01
 -1       237 4.77091E-01
 -1       238 4.50210E-01
 -1       239 4.37991E-01
 -1       240 4.59425E-01
 -1       241 5.33214E-01
 -1       242 6.16473E-01
 -1       243 6.96249E-01
 -1       244 7.52722E-01
 -1       245 8.47152E-01
 -1       246 1.00060E+00
 -1       247 1.21959E+00
 -1       248 1.35489E+00
 -1       249 1.62866E+00
 -1       250 1.77198E+00
 -1       251 1.97681E+00
 -1       252 2.50559E+00
 -1       253 3.66766E+00
 -1       254 4.06452E+00
 -1       255 4.44591E+00
 -1       256 3.30682E+00
 -1       257 1.85350E+00
 -1       258 1.17970E+00
 -1       259 1.31813E+00
 -1       260 1.48881E+00
 -1       261 1.57034E+00
 -1       262 1.44397E+00
 -1       263 1.22318E+00
 -1       264 1.02711E+00
 -1       265 8.43874E-01
 -1       266 6.69169E-01
 -1       267 5.12060E-01
 -1       268 3.78996E-01
 -1       269 2.78043E-01
 -1       270 2.11303E-01
 -1       271 1.56550E-01
 -1       272 1.13257E-01
 -1       273 7.92091E-02
 -1       274 6.11011E-02
 -1       275 3.35047E-02
 -1       276 2.17293E-02
 -1       277 2.49628E-02
 -1       278 2.49628E-02
 -1       279 1.37515E-02
 -1       280 2.03831E-02
 -1       281 2.74121E-02
 -1       282 3.01946E-02
 -1       283 3.01946E-02
 -1       284 3.00992E-02
 -1       285 2.68043E-02
 -1       286 1.98250E-02
 -1       287 1.38664E-02
 -1       288 2.45453E-02
 -1       289 2.45453E-02
 -1       290 2.77841E-02
 -1       291 2.92617E+01
 -1       292 2.86428E+01
 -1       293 4.67689E+01
 -1       294 2.05282E+01
 -1       295 1.11874E+01
 -1       296 1.22376E+01
 -1       297 1.35132E+01
 -1       298 1.24749E+01
 -1       299 1.31795E+01
 -1       300 1.14377E+01
 -1       301 1.48916E+01
 -1       302 3.97346E+01
 -1       303 3.63668E+01
 -1       304 2.72257E+01
 -1       305 2.72257E+01
 -1       306 3.37633E+01
 -1       307 3.37633E+01
 -1       308 3.20451E+01
 -1       309 1.31457E+01
 -1       310 1.16277E+01
 -1       311 1.33845E+01
 -1       312 1.32096E+01
 -1       313 1.30199E+01
 -1       314 1.18775E+01
 -1       315 1.14515E+01
 -1       316 2.43531E+01
 -1       317 4.87311E+01
 -1       318 3.00765E+01
 -1       319 2.92617E+01
 -1       320 1.05440E+00
 -1       321 2.45781E+00
 -1       322 7.82084E-01
 -1       323 6.88457E-01
 -1       324 6.25001E-01
 -1       325 5.80590E-01
 -1       326 5.83858E-01
 -1       327 6.27717E-01
 -1       328 6.94581E-01
 -1       329 7.89753E-01
 -1       330 9.24857E-01
 -1       331 1.14393E+00
 -1       332 1.31073E+00
 -1       333 2.19913E+00
 -1       334 1.90983E+00
 -1       335 1.74509E+00
 -1       336 1.28235E+00
 -1       337 9.20591E-01
 -1       338 6.85735E-01
 -1       339 5.84463E-01
 -1       340 4.93298E-01
 -1       341 4.12385E-01
 -1       342 3.40997E-01
 -1       343 2.77053E-01
 -1       344 2.93531E-01
 -1       345 3.30883E-01
 -1       346 3.71297E-01
 -1       347 4.67306E-01
 -1       348 5.67936E-01
 -1       349 6.55092E-01
 -1       350 7.49091E-01
 -1       351 8.29326E-01
 -1       352 8.30495E-01
 -1       353 6.98411E-01
 -1       354 5.94927E-01
 -1       355 6.97118E-01
 -1       356 1.22440E+00
 -1       357 1.62309E+00
 -1       358 2.09289E+00
 -1       359 2.13127E+00
 -1       360 2.15883E+00
 -1       361 2.04078E+00
 -1       362 1.55901E+00
 -1       363 1.12123E+00
 -1       364 6.38853E-01
 -1       365 6.08959E-01
 -1       366 7.30390E-01
 -1       367 8.32557E-01
 -1       368 8.13103E-01
 -1       369 7.24666E-01
 -1       370 6.49603E-01
 -1       371 5.74209E-01
 -1       372 4.82048E-01
 -1       373 3.87785E-01
 -1       374 3.00335E-01
 -1       375 2.24267E-01
 -1       376 1.61236E-01
 -1       377 1.18558E-01
 -1       378 8.63348E-02
 -1       379 6.21790E-02
 -1       380 4.20576E-02
 -1       381 1.14654E+00
 -1       382 9.01081E-01
 -1       383 7.09871E-01
 -1       384 5.44767E-01
 -1       385 4.80810E-01
 -1       386 4.36297E-01
 -1       387 3.97293E-01
 -1       388 3.66165E-01
 -1       389 3.43348E-01
 -1       390 3.42031E-01
 -1       391 3.96105E-01
 -1       392 5.42772E-01
 -1       393 7.00902E-01
 -1       394 8.56949E-01
 -1       395 9.87135E-01
 -1       396 1.10724E+00
 -1       397 1.14243E+00
 -1       398 1.14243E+00
 -1       399 1.01605E+00
 -1       400 7.98390E-01
 -1       401 1.01121E+00
 -1       402 1.77708E+00
 -1       403 2.19943E+00
 -1       404 2.41357E+00
 -1       405 2.37917E+00
 -1       406 2.54107E+00
 -1       407 2.19870E+00
 -1       408 1.32884E+00
 -1       409 8.00600E-01
 -1       410 9.46118E-01
 -1       411 1.12724E+00
 -1       412 1.15357E+00
 -1       413 1.14141E+00
 -1       414 1.02750E+00
 -1       415 9.20307E-01
 -1       416 7.79399E-01
 -1       417 6.31584E-01
 -1       418 4.93613E-01
 -1       419 3.73615E-01
 -1       420 2.74138E-01
 -1       421 2.04407E-01
 -1       422 1.54411E-01
 -1       423 1.13257E-01
 -1       424 7.92091E-02
 -1       425 5.12381E-02
 -1       426 2.76348E-02
 -1       427 2.83119E-02
 -1       428 4.20122E-02
 -1       429 4.20122E-02
 -1       430 2.85702E-02
 -1       431 3.92698E-02
 -1       432 4.43347E-02
 -1       433 4.43347E-02
 -1       434 4.37830E-02
 -1       435 4.37830E-02
 -1       436 3.83384E-02
 -1       437 2.72289E-02
 -1       438 2.83265E-02
 -1       439 3.92771E-02
 -1       440 2.86428E+01
 -1       441 2.97264E+01
 -1       442 2.27737E+01
 -1       443 1.63090E+01
 -1       444 9.28265E+00
 -1       445 9.06181E-01
 -1       446 8.90775E+00
 -1       447 1.03752E+01
 -1       448 1.06746E+01
 -1       449 8.10605E+00
 -1       450 7.73940E+00
 -1       451 1.39274E+01
 -1       452 2.42200E+01
 -1       453 2.74056E+01
 -1       454 3.56477E+01
 -1       455 3.56477E+01
 -1       456 3.37633E+01
 -1       457 2.11215E+01
 -1       458 1.21118E+01
 -1       459 7.23448E+00
 -1       460 8.81984E+00
 -1       461 1.00305E+01
 -1       462 9.36341E+00
 -1       463 8.93164E+00
 -1       464 7.47439E+00
 -1       465 9.79594E+00
 -1       466 1.80119E+01
 -1       467 3.00765E+01
 -1       468 2.97264E+01
 -1       469 7.30249E+00
 -1       470 2.83562E+01
 -1       471 2.32450E+01
 -1       472 9.28823E+00
 -1       473 1.05970E+00
 -1       474 4.80240E-01
 -1       475 5.05529E-01
 -1       476 4.24291E-01
 -1       477 4.50642E-01
 -1       478 4.80995E-01
 -1       479 5.05870E-01
 -1       480 5.05870E-01
 -1       481 5.92079E-01
 -1       482 9.01081E-01
 -1       483 7.92743E-01
 -1       484 8.74011E-01
 -1       485 5.75329E+00
 -1       486 7.05753E-01
 -1       487 5.87133E-01
 -1       488 4.66211E-01
 -1       489 3.92322E-01
 -1       490 3.40454E-01
 -1       491 2.82913E-01
 -1       492 2.22701E-01
 -1       493 1.98809E-01
 -1       494 2.28255E-01
 -1       495 2.73155E-01
 -1       496 3.78709E-01
 -1       497 4.86853E-01
 -1       498 5.93575E-01
 -1       499 6.81781E-01
 -1       500 7.26953E-01
 -1       501 7.26953E-01
 -1       502 7.86660E-01
 -1       503 1.00594E+00
 -1       504 1.20488E+00
 -1       505 1.42667E+00
 -1       506 1.33925E+00
 -1       507 1.64075E+00
 -1       508 2.05615E+00
 -1       509 2.51126E+00
 -1       510 2.13109E+00
 -1       511 1.58531E+00
 -1       512 1.24422E+00
 -1       513 1.13285E+00
 -1       514 1.13181E+00
 -1       515 1.15123E+00
 -1       516 1.07033E+00
 -1       517 9.44031E-01
 -1       518 8.59379E-01
 -1       519 7.88708E-01
 -1       520 6.91481E-01
 -1       521 5.84643E-01
 -1       522 4.79388E-01
 -1       523 3.82472E-01
 -1       524 2.97407E-01
 -1       525 2.25507E-01
 -1       526 1.66665E-01
 -1       527 1.19375E-01
 -1       528 6.21790E-02
 -1       529 1.97865E+01
 -1       530 5.44767E-01
 -1       531 4.71830E-01
 -1       532 4.06469E-01
 -1       533 3.41165E-01
 -1       534 2.77675E-01
 -1       535 2.36799E-01
 -1       536 2.75143E-01
 -1       537 3.29000E-01
 -1       538 4.64492E-01
 -1       539 6.12819E-01
 -1       540 7.67345E-01
 -1       541 9.14051E-01
 -1       542 1.02989E+00
 -1       543 1.12799E+00
 -1       544 1.27990E+00
 -1       545 1.36238E+00
 -1       546 1.33136E+00
 -1       547 1.63511E+00
 -1       548 1.82175E+00
 -1       549 1.95977E+00
 -1       550 2.65293E+00
 -1       551 3.24064E+00
 -1       552 3.04020E+00
 -1       553 2.13713E+00
 -1       554 1.81327E+00
 -1       555 1.69248E+00
 -1       556 1.42219E+00
 -1       557 1.37326E+00
 -1       558 1.31078E+00
 -1       559 1.17632E+00
 -1       560 1.06113E+00
 -1       561 9.58903E-01
 -1       562 8.23595E-01
 -1       563 6.78475E-01
 -1       564 5.40238E-01
 -1       565 4.17646E-01
 -1       566 3.14092E-01
 -1       567 2.29752E-01
 -1       568 1.63191E-01
 -1       569 1.10764E-01
 -1       570 7.38349E-02
 -1       571 5.12381E-02
 -1       572 5.07501E-02
 -1       573 5.89731E-02
 -1       574 6.01513E-02
 -1       575 6.10997E-02
 -1       576 5.94804E-02
 -1       577 5.94844E-02
 -1       578 5.94844E-02
 -1       579 5.79072E-02
 -1       580 4.88115E-02
 -1       581 4.00071E-02
 -1       582 4.00071E-02
 -1       583 8.09596E+00
 -1       584 7.09871E-01
 -1       585 1.35226E+01
 -1       586 2.30722E+01
 -1       587 2.97264E+01
 -1       588 7.24598E+00
 -1       589 9.98917E+00
 -1       590 2.74056E+01
 -1       591 4.50483E-01
 -1       592 7.68438E+00
 -1       593 6.80800E+00
 -1       594 6.35897E+00
 -1       595 3.89486E+00
 -1       596 8.10136E+00
 -1       597 1.17919E+01
 -1       598 1.77012E+01
 -1       599 3.56477E+01
 -1       600 1.35279E+01
 -1       601 8.78726E+00
 -1       602 4.12281E+00
 -1       603 8.50987E+00
 -1       604 6.29383E+00
 -1       605 5.05655E+00
 -1       606 6.75724E+00
 -1       607 1.41667E+01
 -1       608 4.68265E+00
 -1       609 1.32287E+00
 -1       610 5.05529E-01
 -1       611 2.00932E+01
 -1       612 2.34322E+01
 -1       613 4.20576E-02
 -1       614 1.65289E+01
 -1       615 1.46040E+01
 -1       616 4.61501E-01
 -1       617 5.85799E+00
 -1       618 2.14504E+01
 -1       619 3.53949E-01
 -1       620 3.36695E-01
 -1       621 3.59526E-01
 -1       622 3.37537E-01
 -1       623 5.34146E-01
 -1       624 9.86247E-02
 -1       625 5.14332E-01
 -1       626 1.22861E+01
 -1       627 3.41271E-01
 -1       628 3.75058E-01
 -1       629 6.35370E+00
 -1       630 3.13916E-01
 -1       631 3.14085E-01
 -1       632 2.83568E-01
 -1       633 2.38247E-01
 -1       634 2.18327E-01
 -1       635 1.84551E-01
 -1       636 1.40919E-01
 -1       637 1.74952E-01
 -1       638 2.69424E-01
 -1       639 3.73969E-01
 -1       640 4.87130E-01
 -1       641 6.05224E-01
 -1       642 7.20867E-01
 -1       643 8.20521E-01
 -1       644 9.98775E-01
 -1       645 1.18337E+00
 -1       646 1.32625E+00
 -1       647 1.63056E+00
 -1       648 1.91557E+00
 -1       649 1.65810E+00
 -1       650 2.70681E+00
 -1       651 4.22805E+00
 -1       652 4.07934E+00
 -1       653 4.69672E+00
 -1       654 2.88030E+00
 -1       655 1.81875E+00
 -1       656 2.01348E+00
 -1       657 1.53694E+00
 -1       658 1.30859E+00
 -1       659 1.17570E+00
 -1       660 1.07033E+00
 -1       661 9.44031E-01
 -1       662 8.12575E-01
 -1       663 6.91481E-01
 -1       664 5.84643E-01
 -1       665 4.79388E-01
 -1       666 3.82472E-01
 -1       667 2.97407E-01
 -1       668 2.25507E-01
 -1       669 1.66665E-01
 -1       670 1.19375E-01
 -1       671 4.69672E+00
 -1       672 5.21723E+00
 -1       673 3.76238E-01
 -1       674 2.15215E-01
 -1       675 1.55332E-01
 -1       676 1.72128E-01
 -1       677 2.47193E-01
 -1       678 3.66605E-01
 -1       679 5.02999E-01
 -1       680 6.56599E-01
 -1       681 8.25094E-01
 -1       682 1.00172E+00
 -1       683 1.17252E+00
 -1       684 1.33996E+00
 -1       685 1.67604E+00
 -1       686 1.96454E+00
 -1       687 2.33482E+00
 -1       688 2.06796E+00
 -1       689 2.67119E+00
 -1       690 2.65293E+00
 -1       691 6.35897E+00
 -1       692 3.24064E+00
 -1       693 3.93838E+00
 -1       694 2.52457E+00
 -1       695 2.39317E+00
 -1       696 2.30985E+00
 -1       697 2.06488E+00
 -1       698 1.74395E+00
 -1       699 1.42262E+00
 -1       700 1.21933E+00
 -1       701 1.05945E+00
 -1       702 8.89400E-01
 -1       703 7.26907E-01
 -1       704 5.80714E-01
 -1       705 4.54354E-01
 -1       706 3.48358E-01
 -1       707 2.61597E-01
 -1       708 1.92078E-01
 -1       709 1.35459E-01
 -1       710 1.34765E-01
 -1       711 8.15586E-02
 -1       712 1.61998E+01
 -1       713 7.59275E-02
 -1       714 8.07527E-02
 -1       715 8.15586E-02
 -1       716 8.07527E-02
 -1       717 7.42480E-02
 -1       718 6.17261E-02
 -1       719 6.50384E-02
 -1       720 4.55262E-01
 -1       721 2.87498E+00
 -1       722 7.57691E+00
 -1       723 5.70821E+00
 -1       724 8.04188E+00
 -1       725 6.76019E+00
 -1       726 5.98390E+00
 -1       727 6.07645E+00
 -1       728 2.67536E-01
 -1       729 3.09584E-01
 -1       730 3.59526E-01
 -1       731 3.92447E+00
 -1       732 4.51331E+00
 -1       733 1.49927E+01
 -1       734 8.64252E+00
 -1       735 3.17969E+00
 -1       736 2.36983E+00
 -1       737 5.54198E-02
 -1       738 3.57859E-01
 -1       739 4.22805E+00
 -1       740 1.07247E+01
 -1       741 5.90783E+00
 -1       742 8.35201E+00
 -1       743 3.57859E-01
 -1       744 3.36163E-01
 -1       745 1.24682E+01
 -1       746 4.04854E+00
 -1       747 1.30402E+01
 -1       748 1.41655E+01
 -1       749 9.20839E-02
 -1       750 9.10602E+00
 -1       751 1.43630E+01
 -1       752 1.17353E+01
 -1       753 8.44983E+00
 -1       754 3.53339E-01
 -1       755 1.27340E+01
 -1       756 2.40930E-01
 -1       757 1.04095E-01
 -1       758 2.12247E-01
 -1       759 2.29101E-01
 -1       760 2.23095E-01
 -1       761 1.90595E-01
 -1       762 1.44711E-01
 -1       763 1.06237E-01
 -1       764 9.97644E-02
 -1       765 1.37984E-01
 -1       766 2.08681E-01
 -1       767 3.00074E-01
 -1       768 4.04307E-01
 -1       769 5.36154E-01
 -1       770 6.88218E-01
 -1       771 8.70516E-01
 -1       772 1.07289E+00
 -1       773 1.30236E+00
 -1       774 1.69596E+00
 -1       775 2.12799E+00
 -1       776 2.37023E+00
 -1       777 2.25249E+00
 -1       778 2.88030E+00
 -1       779 2.95896E+00
 -1       780 2.44797E+00
 -1       781 2.01279E+00
 -1       782 1.66627E+00
 -1       783 1.27264E+00
 -1       784 1.06292E+00
 -1       785 8.67257E-01
 -1       786 6.98651E-01
 -1       787 5.58269E-01
 -1       788 4.37621E-01
 -1       789 3.42016E-01
 -1       790 2.67095E-01
 -1       791 2.02237E-01
 -1       792 1.53844E-01
 -1       793 1.26443E-01
 -1       794 5.61106E+00
 -1       795 1.00823E-01
 -1       796 2.60864E-01
 -1       797 3.78053E-01
 -1       798 5.16218E-01
 -1       799 6.91422E-01
 -1       800 9.00782E-01
 -1       801 1.15205E+00
 -1       802 1.47778E+00
 -1       803 1.85914E+00
 -1       804 2.37122E+00
 -1       805 3.01607E+00
 -1       806 2.85175E+00
 -1       807 3.54831E+00
 -1       808 3.32471E+00
 -1       809 2.43949E+00
 -1       810 1.93648E+00
 -1       811 1.57043E+00
 -1       812 1.23926E+00
 -1       813 9.78466E-01
 -1       814 7.69391E-01
 -1       815 5.97342E-01
 -1       816 4.64024E-01
 -1       817 3.54177E-01
 -1       818 2.64216E-01
 -1       819 1.97281E-01
 -1       820 1.43438E-01
 -1       821 1.04095E-01
 -1       822 9.47552E-02
 -1       823 1.51152E-01
 -1       824 2.50904E-01
 -1       825 1.03969E-01
 -1       826 9.56244E-02
 -1       827 1.66754E-01
 -1       828 9.50831E-02
 -1       829 4.50220E+00
 -1       830 6.77839E+00
 -1       831 5.84476E+00
 -1       832 1.92575E-01
 -1       833 1.97747E-01
 -1       834 2.74450E-01
 -1       835 4.37787E+00
 -1       836 6.18614E+00
 -1       837 9.01899E+00
 -1       838 2.81458E-01
 -1       839 3.84054E+00
 -1       840 4.97850E+00
 -1       841 3.14797E+00
 -1       842 2.70681E+00
 -1       843 2.72473E-01
 -1       844 2.76652E-01
 -1       845 6.69393E+00
 -1       846 2.84474E-01
 -1       847 1.06712E+01
 -1       848 1.06602E-01
 -1       849 1.34765E-01
 -1       850 1.06602E-01
 -1       851 1.34765E-01
 -1       852 4.73294E+00
 -1       853 9.82195E-02
 -1       854 2.82616E-01
 -1       855 7.61139E+00
 -1       856 8.75636E+00
 -1       857 2.61694E-01
 -1       858 7.25797E+00
 -1       859 7.16671E+00
 -1       860 8.90696E+00
 -1       861 2.81458E-01
 -1       862 3.15872E-01
 -1       863 2.78356E-01
 -1       864 8.31551E+00
 -1       865 1.26443E-01
 -1       866 1.15575E-01
 -1       867 1.47303E-01
 -1       868 1.27511E-01
 -1       869 1.14265E-01
 -1       870 1.32312E-01
 -1       871 1.48546E-01
 -1       872 2.08681E-01
 -1       873 3.00074E-01
 -1       874 4.04307E-01
 -1       875 5.20003E-01
 -1       876 6.55187E-01
 -1       877 8.37272E-01
 -1       878 1.09426E+00
 -1       879 1.49046E+00
 -1       880 1.98028E+00
 -1       881 2.56323E+00
 -1       882 2.59482E+00
 -1       883 1.34868E-01
 -1       884 1.53417E-01
 -1       885 3.82341E+00
 -1       886 2.95441E+00
 -1       887 3.11668E+00
 -1       888 1.91948E+00
 -1       889 1.44800E+00
 -1       890 1.06668E+00
 -1       891 8.24813E-01
 -1       892 6.51262E-01
 -1       893 5.36269E-01
 -1       894 4.30881E-01
 -1       895 3.38714E-01
 -1       896 2.60386E-01
 -1       897 1.95307E-01
 -1       898 1.78217E-01
 -1       899 3.70996E-01
 -1       900 8.67612E-01
 -1       901 1.08523E+00
 -1       902 1.43249E+00
 -1       903 1.92054E+00
 -1       904 2.86285E+00
 -1       905 5.84476E+00
 -1       906 3.30885E+00
 -1       907 5.30248E+00
 -1       908 3.54831E+00
 -1       909 2.14479E+00
 -1       910 1.53322E+00
 -1       911 1.16349E+00
 -1       912 9.38805E-01
 -1       913 7.47334E-01
 -1       914 5.85198E-01
 -1       915 4.51149E-01
 -1       916 3.42212E-01
 -1       917 2.54773E-01
 -1       918 1.85093E-01
 -1       919 1.34868E-01
 -1       920 6.75014E-01
 -1       921 5.10089E-01
 -1       922 2.54629E-01
 -1       923 2.82616E-01
 -1       924 1.64677E-01
 -1       925 6.28871E+00
 -1       926 9.26008E+00
 -1       927 1.29741E-01
 -1       928 1.42900E-01
 -1       929 5.46474E+00
 -1       930 2.37364E+00
 -1       931 1.66594E-01
 -1       932 6.24945E+00
 -1       933 6.45200E+00
 -1       934 1.32412E-01
 -1       935 1.80012E-01
 -1       936 1.36632E-01
 -1       937 1.41491E-01
 -1       938 1.75476E-01
 -1       939 1.75476E-01
 -1       940 5.50437E+00
 -1       941 6.30969E+00
 -1       942 6.86612E+00
 -1       943 5.32786E+00
 -1       944 2.07666E-01
 -1       945 4.94152E+00
 -1       946 1.65888E-01
 -1       947 5.30248E+00
 -1       948 2.23164E-01
 -1       949 2.30711E-01
 -1       950 1.40184E-01
 -1       951 1.18127E-01
 -1       952 1.44698E-01
 -1       953 1.70845E-01
 -1       954 1.96961E-01
 -1       955 2.78425E-01
 -1       956 3.80496E-01
 -1       957 5.04491E-01
 -1       958 6.55187E-01
 -1       959 8.37272E-01
 -1       960 1.05600E+00
 -1       961 1.37076E+00
 -1       962 2.09238E+00
 -1       963 2.82335E+00
 -1       964 3.30614E+00
 -1       965 2.03271E+00
 -1       966 1.37578E+00
 -1       967 1.03342E+00
 -1       968 8.24813E-01
 -1       969 6.51262E-01
 -1       970 5.10211E-01
 -1       971 3.95866E-01
 -1       972 3.03644E-01
 -1       973 2.30219E-01
 -1       974 1.43249E+00
 -1       975 2.23164E-01
 -1       976 1.07959E+00
 -1       977 2.71832E+00
 -1       978 5.84476E+00
 -1       979 2.03051E+00
 -1       980 6.86612E+00
 -1       981 4.34528E+00
 -1       982 1.16349E+00
 -1       983 8.87874E-01
 -1       984 6.80039E-01
 -1       985 5.20437E-01
 -1       986 3.96179E-01
 -1       987 2.99204E-01
 -1       988 2.24330E-01
 -1       989 1.92908E-01
 -1       990 1.46570E-01
 -1       991 1.23591E-01
 -1       992 5.28521E+00
 -1       993 9.00779E-02
 -1       994 1.10451E-01
 -1       995 7.73820E-02
 -1       996 1.90798E+00
 -1       997 2.33751E-01
 -1       998 5.68301E+00
 -1       999 1.00104E-01
 -1      1000 3.29861E-01
 -1      1001 3.70695E+00
 -1      1002 2.33751E-01
 -1      1003 4.16153E+00
 -1      1004 1.53322E+00
 -1      1005 8.15339E-01
 -1      1006 5.55437E+00
 -1      1007 1.79781E-01
 -1      1008 4.68080E+00
 -1      1009 1.16654E-01
 -1      1010 1.92908E-01
 -1      1011 4.55741E-01
 -1      1012 6.13524E-01
 -1      1013 1.35472E-01
 -1      1014 1.92193E-01
 -1      1015 1.96742E-01
 -1      1016 5.07067E+00
 -1      1017 1.35472E-01
 -1      1018 2.28458E-01
 -1      1019 2.78355E+00
 -1      1020 4.77102E+00
 -1      1021 4.44685E+00
 -1      1022 1.50472E-01
 -1      1023 1.45952E-01
 -1      1024 1.24020E+00
 -1      1025 1.74143E-01
 -1      1026 2.07045E-01
 -1      1027 2.44417E-01
 -1      1028 3.22286E-01
 -1      1029 4.33694E-01
 -1      1030 5.79866E-01
 -1      1031 7.78633E-01
 -1      1032 1.05600E+00
 -1      1033 1.43808E+00
 -1      1034 2.81098E+00
 -1      1035 3.84374E+00
 -1      1036 1.92997E+00
 -1      1037 2.98471E-01
 -1      1038 1.77493E+00
 -1      1039 1.87173E+00
 -1      1040 1.37578E+00
 -1      1041 1.01307E+00
 -1      1042 7.54428E-01
 -1      1043 5.67604E-01
 -1      1044 4.29446E-01
 -1      1045 3.24651E-01
 -1      1046 1.33643E-01
 -1      1047 9.70070E-01
 -1      1048 4.11373E-01
 -1      1049 3.12134E-01
 -1      1050 2.36782E-01
 -1      1051 1.27614E-01
 -1      1052 1.34133E+00
 -1      1053 1.76876E-01
 -1      1054 5.41991E-01
 -1      1055 8.60653E-02
 -1      1056 7.19610E-01
 -1      1057 5.55437E+00
 -1      1058 2.63295E+00
 -1      1059 4.12668E+00
 -1      1060 3.70695E+00
 -1      1061 1.20092E-01
 -1      1062 8.95910E-01
 -1      1063 2.84287E+00
 -1      1064 7.30859E-02
 -1      1065 2.68448E-01
 -1      1066 3.97466E+00
 -1      1067 7.30859E-02
 -1      1068 3.43141E+00
 -1      1069 3.21973E-01
 -1      1070 6.60228E-01
 -1      1071 3.64834E-01
 -1      1072 2.66410E-01
 -1      1073 5.55437E+00
 -1      1074 2.04177E-01
 -1      1075 1.54060E-01
 -1      1076 6.37932E-02
 -1      1077 3.97466E+00
 -1      1078 9.75789E-02
 -1      1079 1.34833E-01
 -1      1080 5.89308E-02
 -1      1081 1.51991E+00
 -1      1082 1.74143E-01
 -1      1083 2.34261E-01
 -1      1084 2.44417E-01
 -1      1085 3.06770E-01
 -1      1086 3.86691E-01
 -1      1087 5.58752E-01
 -1      1088 5.97014E-01
 -1      1089 8.29156E-01
 -1      1090 1.18556E+00
 -1      1091 1.92062E+00
 -1      1092 1.85612E-01
 -1      1093 9.82928E-02
 -1      1094 3.70340E+00
 -1      1095 2.13477E-01
 -1      1096 1.11353E+00
 -1      1097 9.02349E-01
 -1      1098 6.77365E-01
 -1      1099 4.98823E-01
 -1      1100 3.59927E-01
 -1      1101 3.14229E-01
 -1      1102 4.91855E-01
 -1      1103 1.25861E+00
 -1      1104 3.03285E+00
 -1      1105 4.07879E-01
 -1      1106 1.83843E+00
 -1      1107 3.21973E-01
 -1      1108 2.20799E+00
 -1      1109 7.01740E-02
 -1      1110 2.78144E+00
 -1      1111 9.08340E-01
 -1      1112 2.97013E+00
 -1      1113 1.17999E-01
 -1      1114 1.35330E+00
 -1      1115 5.33608E-01
 -1      1116 2.96940E-01
 -1      1117 6.85206E-01
 -1      1118 1.54060E-01
 -1      1119 3.21973E-01
 -1      1120 3.37017E-01
 -1      1121 9.47294E-01
 -1      1122 5.58752E-01
 -1      1123 7.14810E-01
 -1      1124 1.40528E-01
 -1      1125 1.04503E-01
 -1      1126 6.26923E-02
 -1      1127 1.70128E+00
 -1      1128 2.34261E-01
 -1      1129 2.23494E-01
 -1      1130 2.34261E-01
 -1      1131 2.67731E-01
 -1      1132 7.98537E-01
 -1      1133 1.09095E+00
 -1      1134 1.13821E+00
 -1      1135 1.61967E+00
 -1      1136 5.34488E-01
 -1      1137 2.67731E-01
 -1      1138 5.62793E-01
 -1      1139 1.31468E+01
 -1      1140 8.39478E+00
 -1      1141 2.72530E+00
 -1      1142 1.54436E+00
 -1      1143 1.15804E+00
 -1      1144 9.63432E-01
 -1      1145 8.46003E-01
 -1      1146 7.73367E-01
 -1      1147 7.47407E-01
 -1      1148 7.76579E-01
 -1      1149 8.48695E-01
 -1      1150 9.68386E-01
 -1      1151 1.17120E+00
 -1      1152 1.55740E+00
 -1      1153 2.65038E+00
 -1      1154 6.05710E+00
 -1      1155 1.13366E+01
 -1      1156 1.31468E+01
 -1      1157 8.74320E+00
 -1      1158 3.85220E+00
 -1      1159 2.75110E+00
 -1      1160 1.76605E+00
 -1      1161 1.23051E+00
 -1      1162 9.52966E-01
 -1      1163 7.56708E-01
 -1      1164 6.11323E-01
 -1      1165 5.01359E-01
 -1      1166 4.17602E-01
 -1      1167 3.77081E-01
 -1      1168 3.95582E-01
 -1      1169 4.43817E-01
 -1      1170 4.93681E-01
 -1      1171 5.59147E-01
 -1      1172 6.78132E-01
 -1      1173 8.45338E-01
 -1      1174 1.00571E+00
 -1      1175 1.09819E+00
 -1      1176 1.11962E+00
 -1      1177 1.12612E+00
 -1      1178 1.19638E+00
 -1      1179 1.41702E+00
 -1      1180 2.15152E+00
 -1      1181 3.08651E+00
 -1      1182 3.44390E+00
 -1      1183 3.40882E+00
 -1      1184 3.37374E+00
 -1      1185 2.95193E+00
 -1      1186 2.03554E+00
 -1      1187 1.35960E+00
 -1      1188 1.16236E+00
 -1      1189 1.12824E+00
 -1      1190 1.10999E+00
 -1      1191 1.07500E+00
 -1      1192 9.62493E-01
 -1      1193 7.95169E-01
 -1      1194 6.34459E-01
 -1      1195 5.10205E-01
 -1      1196 4.24060E-01
 -1      1197 3.56894E-01
 -1      1198 2.90043E-01
 -1      1199 2.28774E-01
 -1      1200 1.75364E-01
 -1      1201 1.36552E-01
 -1      1202 1.13317E-01
 -1      1203 9.18656E-02
 -1      1204 5.99949E-02
 -1      1205 2.64140E-02
 -1      1206 1.40432E+01
 -1      1207 8.72917E+00
 -1      1208 2.92568E+00
 -1      1209 2.06433E+00
 -1      1210 1.43405E+00
 -1      1211 1.06967E+00
 -1      1212 8.84910E-01
 -1      1213 7.45252E-01
 -1      1214 6.37758E-01
 -1      1215 5.57103E-01
 -1      1216 5.00057E-01
 -1      1217 4.63651E-01
 -1      1218 4.54107E-01
 -1      1219 4.95609E-01
 -1      1220 5.74843E-01
 -1      1221 6.56361E-01
 -1      1222 7.24486E-01
 -1      1223 7.61536E-01
 -1      1224 8.72849E-01
 -1      1225 1.09747E+00
 -1      1226 1.28724E+00
 -1      1227 1.49177E+00
 -1      1228 1.70032E+00
 -1      1229 1.87440E+00
 -1      1230 2.15956E+00
 -1      1231 3.00498E+00
 -1      1232 3.86609E+00
 -1      1233 4.25522E+00
 -1      1234 4.44591E+00
 -1      1235 3.87637E+00
 -1      1236 2.58016E+00
 -1      1237 1.58582E+00
 -1      1238 1.40347E+00
 -1      1239 1.52958E+00
 -1      1240 1.57034E+00
 -1      1241 1.50715E+00
 -1      1242 1.33357E+00
 -1      1243 1.12514E+00
 -1      1244 9.25544E-01
 -1      1245 7.29780E-01
 -1      1246 5.54387E-01
 -1      1247 4.15350E-01
 -1      1248 3.17774E-01
 -1      1249 2.44673E-01
 -1      1250 1.83927E-01
 -1      1251 1.34187E-01
 -1      1252 9.36777E-02
 -1      1253 6.83163E-02
 -1      1254 4.73029E-02
 -1      1255 2.21553E-02
 -1      1256 1.19601E-02
 -1      1257 1.38557E-02
 -1      1258 1.45972E-02
 -1      1259 1.21962E-02
 -1      1260 7.59126E-03
 -1      1261 7.98198E-03
 -1      1262 1.23150E-02
 -1      1263 1.45537E-02
 -1      1264 1.50539E-02
 -1      1265 1.44625E-02
 -1      1266 1.20398E-02
 -1      1267 7.73148E-03
 -1      1268 7.50709E-03
 -1      1269 1.19182E-02
 -1      1270 1.56877E-02
 -1      1271 1.80591E-02
 -1      1272 1.55535E-02
 -1      1273 2.67331E+01
 -1      1274 3.67510E+01
 -1      1275 4.67689E+01
 -1      1276 3.30246E+01
 -1      1277 1.57590E+01
 -1      1278 1.28754E+01
 -1      1279 1.35132E+01
 -1      1280 1.33463E+01
 -1      1281 1.31795E+01
 -1      1282 1.40356E+01
 -1      1283 2.73131E+01
 -1      1284 3.97346E+01
 -1      1285 3.23756E+01
 -1      1286 2.50166E+01
 -1      1287 2.57557E+01
 -1      1288 2.70862E+01
 -1      1289 2.98613E+01
 -1      1290 3.17004E+01
 -1      1291 2.22507E+01
 -1      1292 1.32651E+01
 -1      1293 1.33845E+01
 -1      1294 1.32970E+01
 -1      1295 1.31147E+01
 -1      1296 1.24487E+01
 -1      1297 1.73002E+01
 -1      1298 3.57270E+01
 -1      1299 4.87311E+01
 -1      1300 3.67703E+01
 -1      1301 2.57713E+01
 -1      1302 1.31468E+01
 -1      1303 4.84713E+00
 -1      1304 9.59915E+00
 -1      1305 2.04499E+00
 -1      1306 2.96244E+00
 -1      1307 4.16682E+00
 -1      1308 1.38898E+00
 -1      1309 1.65247E+00
 -1      1310 1.88961E+00
 -1      1311 1.09294E+00
 -1      1312 1.21578E+00
 -1      1313 1.32389E+00
 -1      1314 9.28257E-01
 -1      1315 1.00003E+00
 -1      1316 1.05777E+00
 -1      1317 8.28704E-01
 -1      1318 8.74362E-01
 -1      1319 9.10958E-01
 -1      1320 7.67417E-01
 -1      1321 7.94394E-01
 -1      1322 8.22753E-01
 -1      1323 7.48423E-01
 -1      1324 7.47407E-01
 -1      1325 7.68434E-01
 -1      1326 7.98354E-01
 -1      1327 7.70198E-01
 -1      1328 7.70198E-01
 -1      1329 8.76369E-01
 -1      1330 8.32410E-01
 -1      1331 8.26028E-01
 -1      1332 1.00900E+00
 -1      1333 9.33264E-01
 -1      1334 9.16978E-01
 -1      1335 1.23158E+00
 -1      1336 1.10450E+00
 -1      1337 1.06938E+00
 -1      1338 1.66757E+00
 -1      1339 1.40845E+00
 -1      1340 1.34175E+00
 -1      1341 2.86708E+00
 -1      1342 2.03323E+00
 -1      1343 1.88427E+00
 -1      1344 6.27253E+00
 -1      1345 3.69966E+00
 -1      1346 3.08251E+00
 -1      1347 1.40432E+01
 -1      1348 1.13366E+01
 -1      1349 8.97916E+00
 -1      1350 1.40432E+01
 -1      1351 8.74320E+00
 -1      1352 4.33961E+00
 -1      1353 3.85220E+00
 -1      1354 3.36479E+00
 -1      1355 3.85220E+00
 -1      1356 2.75110E+00
 -1      1357 2.13742E+00
 -1      1358 2.75110E+00
 -1      1359 1.80283E+00
 -1      1360 1.43147E+00
 -1      1361 1.80283E+00
 -1      1362 1.23051E+00
 -1      1363 1.06633E+00
 -1      1364 1.26729E+00
 -1      1365 9.52966E-01
 -1      1366 8.39602E-01
 -1      1367 9.52966E-01
 -1      1368 7.56708E-01
 -1      1369 6.73813E-01
 -1      1370 7.56708E-01
 -1      1371 6.11323E-01
 -1      1372 5.48834E-01
 -1      1373 6.11323E-01
 -1      1374 5.01359E-01
 -1      1375 4.53885E-01
 -1      1376 5.01359E-01
 -1      1377 4.17602E-01
 -1      1378 3.81319E-01
 -1      1379 4.17602E-01
 -1      1380 3.59032E-01
 -1      1381 3.54794E-01
 -1      1382 3.59032E-01
 -1      1383 3.72844E-01
 -1      1384 3.95582E-01
 -1      1385 3.54794E-01
 -1      1386 4.18321E-01
 -1      1387 4.43817E-01
 -1      1388 3.95582E-01
 -1      1389 4.69314E-01
 -1      1390 4.93681E-01
 -1      1391 4.43817E-01
 -1      1392 5.27004E-01
 -1      1393 5.68103E-01
 -1      1394 5.02637E-01
 -1      1395 6.21191E-01
 -1      1396 6.99077E-01
 -1      1397 5.89048E-01
 -1      1398 7.62133E-01
 -1      1399 8.51454E-01
 -1      1400 7.05192E-01
 -1      1401 9.34659E-01
 -1      1402 1.00571E+00
 -1      1403 8.51454E-01
 -1      1404 1.07677E+00
 -1      1405 1.09819E+00
 -1      1406 1.00571E+00
 -1      1407 1.11962E+00
 -1      1408 1.11962E+00
 -1      1409 1.09819E+00
 -1      1410 1.11787E+00
 -1      1411 1.12437E+00
 -1      1412 1.11787E+00
 -1      1413 1.13262E+00
 -1      1414 1.19638E+00
 -1      1415 1.12437E+00
 -1      1416 1.26014E+00
 -1      1417 1.41702E+00
 -1      1418 1.19638E+00
 -1      1419 1.65665E+00
 -1      1420 2.23427E+00
 -1      1421 1.49978E+00
 -1      1422 2.72913E+00
 -1      1423 3.08651E+00
 -1      1424 2.23427E+00
 -1      1425 3.44390E+00
 -1      1426 3.44390E+00
 -1      1427 3.08651E+00
 -1      1428 3.40864E+00
 -1      1429 3.37356E+00
 -1      1430 3.40864E+00
 -1      1431 3.37374E+00
 -1      1432 3.37374E+00
 -1      1433 3.37356E+00
 -1      1434 2.95193E+00
 -1      1435 2.53012E+00
 -1      1436 2.95193E+00
 -1      1437 2.06106E+00
 -1      1438 1.56649E+00
 -1      1439 2.06106E+00
 -1      1440 1.35960E+00
 -1      1441 1.17823E+00
 -1      1442 1.38511E+00
 -1      1443 1.16236E+00
 -1      1444 1.14649E+00
 -1      1445 1.16236E+00
 -1      1446 1.11648E+00
 -1      1447 1.09823E+00
 -1      1448 1.11648E+00
 -1      1449 1.10999E+00
 -1      1450 1.10999E+00
 -1      1451 1.09823E+00
 -1      1452 1.07500E+00
 -1      1453 1.04000E+00
 -1      1454 1.07500E+00
 -1      1455 9.62493E-01
 -1      1456 8.84985E-01
 -1      1457 9.62493E-01
 -1      1458 8.10273E-01
 -1      1459 7.20456E-01
 -1      1460 8.10273E-01
 -1      1461 6.67485E-01
 -1      1462 5.96593E-01
 -1      1463 6.82589E-01
 -1      1464 5.45224E-01
 -1      1465 4.91862E-01
 -1      1466 5.78250E-01
 -1      1467 4.38356E-01
 -1      1468 4.05572E-01
 -1      1469 4.73374E-01
 -1      1470 3.56894E-01
 -1      1471 3.22513E-01
 -1      1472 3.71191E-01
 -1      1473 2.90043E-01
 -1      1474 2.57573E-01
 -1      1475 2.90043E-01
 -1      1476 2.29176E-01
 -1      1477 2.00377E-01
 -1      1478 2.29176E-01
 -1      1479 1.78270E-01
 -1      1480 1.53659E-01
 -1      1481 1.78672E-01
 -1      1482 1.36552E-01
 -1      1483 1.22351E-01
 -1      1484 1.39458E-01
 -1      1485 1.13317E-01
 -1      1486 1.04282E-01
 -1      1487 1.13317E-01
 -1      1488 9.18656E-02
 -1      1489 7.94493E-02
 -1      1490 9.18656E-02
 -1      1491 6.21564E-02
 -1      1492 4.27021E-02
 -1      1493 6.21564E-02
 -1      1494 2.96800E-02
 -1      1495 3.18416E-02
 -1      1496 3.41511E+00
 -1      1497 8.72917E+00
 -1      1498 8.72917E+00
 -1      1499 2.43624E+00
 -1      1500 2.92568E+00
 -1      1501 2.92568E+00
 -1      1502 1.69241E+00
 -1      1503 2.06433E+00
 -1      1504 2.06433E+00
 -1      1505 1.17569E+00
 -1      1506 1.43405E+00
 -1      1507 1.43405E+00
 -1      1508 9.63650E-01
 -1      1509 1.06967E+00
 -1      1510 1.06967E+00
 -1      1511 8.06171E-01
 -1      1512 8.84910E-01
 -1      1513 8.84910E-01
 -1      1514 6.84332E-01
 -1      1515 7.45252E-01
 -1      1516 7.45252E-01
 -1      1517 5.91183E-01
 -1      1518 6.37758E-01
 -1      1519 6.37758E-01
 -1      1520 5.23023E-01
 -1      1521 5.57103E-01
 -1      1522 5.57103E-01
 -1      1523 4.77091E-01
 -1      1524 5.00057E-01
 -1      1525 5.00057E-01
 -1      1526 4.50210E-01
 -1      1527 4.63651E-01
 -1      1528 4.63651E-01
 -1      1529 4.47998E-01
 -1      1530 4.44101E-01
 -1      1531 4.44101E-01
 -1      1532 4.96319E-01
 -1      1533 4.58714E-01
 -1      1534 4.48708E-01
 -1      1535 5.74843E-01
 -1      1536 5.33214E-01
 -1      1537 4.96319E-01
 -1      1538 6.56361E-01
 -1      1539 6.16473E-01
 -1      1540 5.74843E-01
 -1      1541 7.24486E-01
 -1      1542 6.96249E-01
 -1      1543 6.56361E-01
 -1      1544 7.61536E-01
 -1      1545 7.52722E-01
 -1      1546 7.24486E-01
 -1      1547 9.11250E-01
 -1      1548 8.08751E-01
 -1      1549 7.99937E-01
 -1      1550 1.11009E+00
 -1      1551 9.87972E-01
 -1      1552 9.23874E-01
 -1      1553 1.28724E+00
 -1      1554 1.21959E+00
 -1      1555 1.11009E+00
 -1      1556 1.49177E+00
 -1      1557 1.35489E+00
 -1      1558 1.28724E+00
 -1      1559 1.70032E+00
 -1      1560 1.62866E+00
 -1      1561 1.49177E+00
 -1      1562 1.87440E+00
 -1      1563 1.77198E+00
 -1      1564 1.70032E+00
 -1      1565 2.15956E+00
 -1      1566 1.97681E+00
 -1      1567 1.87440E+00
 -1      1568 3.08663E+00
 -1      1569 2.42395E+00
 -1      1570 2.24120E+00
 -1      1571 3.86609E+00
 -1      1572 3.66766E+00
 -1      1573 3.08663E+00
 -1      1574 4.25522E+00
 -1      1575 4.06452E+00
 -1      1576 3.86609E+00
 -1      1577 4.44591E+00
 -1      1578 4.44591E+00
 -1      1579 4.25522E+00
 -1      1580 3.30682E+00
 -1      1581 3.87637E+00
 -1      1582 3.87637E+00
 -1      1583 1.85350E+00
 -1      1584 2.58016E+00
 -1      1585 2.58016E+00
 -1      1586 1.24892E+00
 -1      1587 1.51660E+00
 -1      1588 1.51660E+00
 -1      1589 1.40347E+00
 -1      1590 1.31813E+00
 -1      1591 1.24892E+00
 -1      1592 1.52958E+00
 -1      1593 1.48881E+00
 -1      1594 1.40347E+00
 -1      1595 1.57034E+00
 -1      1596 1.57034E+00
 -1      1597 1.52958E+00
 -1      1598 1.44397E+00
 -1      1599 1.50715E+00
 -1      1600 1.50715E+00
 -1      1601 1.22318E+00
 -1      1602 1.33357E+00
 -1      1603 1.33357E+00
 -1      1604 1.02711E+00
 -1      1605 1.12514E+00
 -1      1606 1.12514E+00
 -1      1607 8.33928E-01
 -1      1608 9.35490E-01
 -1      1609 9.35490E-01
 -1      1610 6.52374E-01
 -1      1611 7.46576E-01
 -1      1612 7.56522E-01
 -1      1613 4.92628E-01
 -1      1614 5.73819E-01
 -1      1615 5.90614E-01
 -1      1616 3.68251E-01
 -1      1617 4.26096E-01
 -1      1618 4.45528E-01
 -1      1619 2.78043E-01
 -1      1620 3.17774E-01
 -1      1621 3.28519E-01
 -1      1622 2.11303E-01
 -1      1623 2.44673E-01
 -1      1624 2.44673E-01
 -1      1625 1.56550E-01
 -1      1626 1.83927E-01
 -1      1627 1.83927E-01
 -1      1628 1.12541E-01
 -1      1629 1.34904E-01
 -1      1630 1.34904E-01
 -1      1631 7.73704E-02
 -1      1632 9.55164E-02
 -1      1633 9.62332E-02
 -1      1634 6.11011E-02
 -1      1635 6.83163E-02
 -1      1636 7.01551E-02
 -1      1637 3.35047E-02
 -1      1638 4.73029E-02
 -1      1639 4.73029E-02
 -1      1640 2.33095E-02
 -1      1641 1.81633E-02
 -1      1642 1.74218E-02
 -1      1643 1.97800E-02
 -1      1644 1.97800E-02
 -1      1645 2.33461E-02
 -1      1646 1.73790E-02
 -1      1647 1.97800E-02
 -1      1648 2.49628E-02
 -1      1649 9.56941E-03
 -1      1650 1.17733E-02
 -1      1651 1.93571E-02
 -1      1652 1.54799E-02
 -1      1653 1.28852E-02
 -1      1654 1.70673E-02
 -1      1655 2.07328E-02
 -1      1656 1.89944E-02
 -1      1657 2.38976E-02
 -1      1658 2.26242E-02
 -1      1659 2.21240E-02
 -1      1660 2.88034E-02
 -1      1661 2.26242E-02
 -1      1662 2.26242E-02
 -1      1663 3.01946E-02
 -1      1664 2.19852E-02
 -1      1665 2.25765E-02
 -1      1666 3.01469E-02
 -1      1667 1.85063E-02
 -1      1668 2.03377E-02
 -1      1669 2.84517E-02
 -1      1670 1.25398E-02
 -1      1671 1.50167E-02
 -1      1672 2.33146E-02
 -1      1673 1.18130E-02
 -1      1674 9.56049E-03
 -1      1675 1.68457E-02
 -1      1676 1.93110E-02
 -1      1677 1.71525E-02
 -1      1678 1.92059E-02
 -1      1679 2.09220E-02
 -1      1680 1.93110E-02
 -1      1681 2.45453E-02
 -1      1682 2.33018E-02
 -1      1683 2.25414E-02
 -1      1684 2.61647E-02
 -1      1685 3.63238E-02
 -1      1686 2.79974E+01
 -1      1687 2.79974E+01
 -1      1688 3.77058E+01
 -1      1689 2.76879E+01
 -1      1690 4.67689E+01
 -1      1691 4.67689E+01
 -1      1692 1.99043E+01
 -1      1693 3.36485E+01
 -1      1694 1.17125E+01
 -1      1695 1.52339E+01
 -1      1696 1.28754E+01
 -1      1697 1.22376E+01
 -1      1698 1.35132E+01
 -1      1699 1.35132E+01
 -1      1700 1.28272E+01
 -1      1701 1.29940E+01
 -1      1702 1.31795E+01
 -1      1703 1.31795E+01
 -1      1704 1.31647E+01
 -1      1705 1.23086E+01
 -1      1706 2.73131E+01
 -1      1707 1.48916E+01
 -1      1708 3.97346E+01
 -1      1709 3.97346E+01
 -1      1710 3.06917E+01
 -1      1711 3.80507E+01
 -1      1712 2.61212E+01
 -1      1713 2.61212E+01
 -1      1714 2.68603E+01
 -1      1715 2.61212E+01
 -1      1716 3.07204E+01
 -1      1717 3.01291E+01
 -1      1718 3.29042E+01
 -1      1719 3.07204E+01
 -1      1720 3.17004E+01
 -1      1721 3.20451E+01
 -1      1722 1.31457E+01
 -1      1723 2.22507E+01
 -1      1724 1.25061E+01
 -1      1725 1.23867E+01
 -1      1726 1.33845E+01
 -1      1727 1.33845E+01
 -1      1728 1.32096E+01
 -1      1729 1.32970E+01
 -1      1730 1.30199E+01
 -1      1731 1.31147E+01
 -1      1732 1.18775E+01
 -1      1733 1.24487E+01
 -1      1734 1.70872E+01
 -1      1735 1.16645E+01
 -1      1736 3.65421E+01
 -1      1737 2.35380E+01
 -1      1738 4.87311E+01
 -1      1739 4.87311E+01
 -1      1740 2.74430E+01
 -1      1741 3.94038E+01
 -1      1742 2.79974E+01
 -1      1743 2.70356E+01
 -1      1744 1.58578E+01
 -1      1745 3.36485E+01
 -1      1746 2.33095E-02
 -1      1747 2.76170E-02
 -1      1748 2.89522E+01
 -1      1749 3.77058E+01
 -1      1750 2.92617E+01
 -1      1751 1.17125E+01
 -1      1752 1.28754E+01
 -1      1753 1.29940E+01
 -1      1754 1.28272E+01
 -1      1755 1.23086E+01
 -1      1756 1.31647E+01
 -1      1757 2.73131E+01
 -1      1758 3.80507E+01
 -1      1759 3.17963E+01
 -1      1760 2.72257E+01
 -1      1761 3.04945E+01
 -1      1762 3.37633E+01
 -1      1763 3.29042E+01
 -1      1764 2.25954E+01
 -1      1765 1.23867E+01
 -1      1766 1.25061E+01
 -1      1767 1.32970E+01
 -1      1768 1.31147E+01
 -1      1769 1.24487E+01
 -1      1770 1.16645E+01
 -1      1771 1.79023E+01
 -1      1772 3.65421E+01
 -1      1773 3.94038E+01
 -1      1774 2.96691E+01
 -1      1775 9.59915E+00
 -1      1776 1.27575E+00
 -1      1777 1.66827E+00
 -1      1778 2.36997E+00
 -1      1779 4.25466E+00
 -1      1780 1.75611E+00
 -1      1781 8.73468E-01
 -1      1782 9.66384E-01
 -1      1783 7.72760E-01
 -1      1784 8.26655E-01
 -1      1785 7.35271E-01
 -1      1786 7.06722E-01
 -1      1787 7.41032E-01
 -1      1788 6.56729E-01
 -1      1789 6.64507E-01
 -1      1790 6.84517E-01
 -1      1791 6.02795E-01
 -1      1792 6.87915E-01
 -1      1793 6.66141E-01
 -1      1794 5.82224E-01
 -1      1795 7.43900E-01
 -1      1796 7.09845E-01
 -1      1797 6.05787E-01
 -1      1798 8.34227E-01
 -1      1799 7.77332E-01
 -1      1800 6.61149E-01
 -1      1801 9.77315E-01
 -1      1802 8.81813E-01
 -1      1803 7.42167E-01
 -1      1804 1.22173E+00
 -1      1805 1.04487E+00
 -1      1806 8.57305E-01
 -1      1807 1.69693E+00
 -1      1808 1.33127E+00
 -1      1809 1.03439E+00
 -1      1810 2.61291E+00
 -1      1811 1.78033E+00
 -1      1812 1.22733E+00
 -1      1813 8.12118E+00
 -1      1814 3.05711E+00
 -1      1815 1.75493E+00
 -1      1816 2.80712E+00
 -1      1817 5.19556E+00
 -1      1818 2.17304E+00
 -1      1819 2.66247E+00
 -1      1820 2.05448E+00
 -1      1821 3.39871E+00
 -1      1822 2.55494E+00
 -1      1823 1.94125E+00
 -1      1824 1.70988E+00
 -1      1825 1.37530E+00
 -1      1826 1.51372E+00
 -1      1827 1.19442E+00
 -1      1828 9.93460E-01
 -1      1829 1.10147E+00
 -1      1830 8.76032E-01
 -1      1831 7.62668E-01
 -1      1832 8.03163E-01
 -1      1833 7.12032E-01
 -1      1834 6.29138E-01
 -1      1835 6.35099E-01
 -1      1836 5.83555E-01
 -1      1837 5.21066E-01
 -1      1838 5.38880E-01
 -1      1839 4.80609E-01
 -1      1840 4.33135E-01
 -1      1841 4.52841E-01
 -1      1842 3.97441E-01
 -1      1843 3.61158E-01
 -1      1844 3.76691E-01
 -1      1845 3.29186E-01
 -1      1846 3.06898E-01
 -1      1847 3.09025E-01
 -1      1848 3.15138E-01
 -1      1849 3.33187E-01
 -1      1850 2.85292E-01
 -1      1851 3.51863E-01
 -1      1852 3.74602E-01
 -1      1853 3.12207E-01
 -1      1854 3.94809E-01
 -1      1855 4.20305E-01
 -1      1856 3.51090E-01
 -1      1857 4.68310E-01
 -1      1858 5.01633E-01
 -1      1859 4.19302E-01
 -1      1860 5.51948E-01
 -1      1861 6.05036E-01
 -1      1862 5.17621E-01
 -1      1863 6.48614E-01
 -1      1864 7.11670E-01
 -1      1865 6.11514E-01
 -1      1866 7.58670E-01
 -1      1867 8.41875E-01
 -1      1868 7.02091E-01
 -1      1869 8.81992E-01
 -1      1870 9.53045E-01
 -1      1871 7.89208E-01
 -1      1872 9.53630E-01
 -1      1873 9.75059E-01
 -1      1874 8.29910E-01
 -1      1875 9.09017E-01
 -1      1876 9.07266E-01
 -1      1877 7.64453E-01
 -1      1878 8.55525E-01
 -1      1879 8.63774E-01
 -1      1880 6.46669E-01
 -1      1881 9.14869E-01
 -1      1882 9.78631E-01
 -1      1883 6.46023E-01
 -1      1884 1.24227E+00
 -1      1885 1.48190E+00
 -1      1886 9.60758E-01
 -1      1887 1.68125E+00
 -1      1888 2.17611E+00
 -1      1889 1.42375E+00
 -1      1890 2.41101E+00
 -1      1891 2.76839E+00
 -1      1892 1.85799E+00
 -1      1893 2.78758E+00
 -1      1894 2.75232E+00
 -1      1895 2.11208E+00
 -1      1896 2.76611E+00
 -1      1897 2.76629E+00
 -1      1898 2.14505E+00
 -1      1899 2.70726E+00
 -1      1900 2.28545E+00
 -1      1901 2.09981E+00
 -1      1902 2.04456E+00
 -1      1903 1.57550E+00
 -1      1904 1.79990E+00
 -1      1905 1.35661E+00
 -1      1906 1.14973E+00
 -1      1907 1.34012E+00
 -1      1908 9.08540E-01
 -1      1909 8.92671E-01
 -1      1910 8.80039E-01
 -1      1911 8.77724E-01
 -1      1912 8.47714E-01
 -1      1913 6.23906E-01
 -1      1914 9.08430E-01
 -1      1915 9.20192E-01
 -1      1916 6.69674E-01
 -1      1917 9.71276E-01
 -1      1918 9.36278E-01
 -1      1919 7.81473E-01
 -1      1920 9.26551E-01
 -1      1921 8.49044E-01
 -1      1922 8.22830E-01
 -1      1923 8.04826E-01
 -1      1924 7.30113E-01
 -1      1925 7.68885E-01
 -1      1926 6.92581E-01
 -1      1927 6.39611E-01
 -1      1928 6.87135E-01
 -1      1929 6.01914E-01
 -1      1930 5.50545E-01
 -1      1931 6.11906E-01
 -1      1932 5.04465E-01
 -1      1933 4.50958E-01
 -1      1934 5.28128E-01
 -1      1935 4.03826E-01
 -1      1936 3.55149E-01
 -1      1937 4.34916E-01
 -1      1938 3.11424E-01
 -1      1939 2.78954E-01
 -1      1940 3.44060E-01
 -1      1941 2.40920E-01
 -1      1942 2.12523E-01
 -1      1943 2.62301E-01
 -1      1944 1.81007E-01
 -1      1945 1.58901E-01
 -1      1946 1.92752E-01
 -1      1947 1.37562E-01
 -1      1948 1.20455E-01
 -1      1949 1.39897E-01
 -1      1950 1.04343E-01
 -1      1951 9.53083E-02
 -1      1952 1.02447E-01
 -1      1953 8.32304E-02
 -1      1954 7.08142E-02
 -1      1955 7.42569E-02
 -1      1956 6.07534E-02
 -1      1957 4.34606E-02
 -1      1958 3.49208E-02
 -1      1959 5.21183E-02
 -1      1960 1.41948E+00
 -1      1961 1.79139E+00
 -1      1962 1.52818E+00
 -1      1963 1.03838E+00
 -1      1964 1.29675E+00
 -1      1965 1.02381E+00
 -1      1966 8.36760E-01
 -1      1967 9.42780E-01
 -1      1968 8.05476E-01
 -1      1969 6.75469E-01
 -1      1970 7.54209E-01
 -1      1971 6.27319E-01
 -1      1972 5.82571E-01
 -1      1973 6.43491E-01
 -1      1974 5.12789E-01
 -1      1975 5.13740E-01
 -1      1976 5.60315E-01
 -1      1977 4.58554E-01
 -1      1978 4.60158E-01
 -1      1979 4.94238E-01
 -1      1980 4.16795E-01
 -1      1981 4.21628E-01
 -1      1982 4.44594E-01
 -1      1983 3.81729E-01
 -1      1984 3.96779E-01
 -1      1985 4.10220E-01
 -1      1986 3.54757E-01
 -1      1987 3.90011E-01
 -1      1988 3.96121E-01
 -1      1989 3.42690E-01
 -1      1990 4.27765E-01
 -1      1991 4.17048E-01
 -1      1992 3.69068E-01
 -1      1993 5.37993E-01
 -1      1994 5.01098E-01
 -1      1995 4.69438E-01
 -1      1996 6.58687E-01
 -1      1997 6.17058E-01
 -1      1998 6.21837E-01
 -1      1999 7.76599E-01
 -1      2000 7.36711E-01
 -1      2001 7.78925E-01
 -1      2002 8.69929E-01
 -1      2003 8.41692E-01
 -1      2004 9.22042E-01
 -1      2005 9.77196E-01
 -1      2006 9.29980E-01
 -1      2007 1.04719E+00
 -1      2008 1.07151E+00
 -1      2009 9.94792E-01
 -1      2010 1.12484E+00
 -1      2011 1.18101E+00
 -1      2012 1.07151E+00
 -1      2013 1.14243E+00
 -1      2014 1.18547E+00
 -1      2015 1.11782E+00
 -1      2016 1.07924E+00
 -1      2017 1.21352E+00
 -1      2018 1.07664E+00
 -1      2019 9.07221E-01
 -1      2020 1.39160E+00
 -1      2021 1.31993E+00
 -1      2022 9.04801E-01
 -1      2023 1.87695E+00
 -1      2024 1.77453E+00
 -1      2025 1.39415E+00
 -1      2026 2.35251E+00
 -1      2027 2.08812E+00
 -1      2028 1.98826E+00
 -1      2029 3.04062E+00
 -1      2030 2.45958E+00
 -1      2031 2.30650E+00
 -1      2032 3.22185E+00
 -1      2033 3.02342E+00
 -1      2034 2.39637E+00
 -1      2035 3.49349E+00
 -1      2036 3.30279E+00
 -1      2037 2.46012E+00
 -1      2038 2.75276E+00
 -1      2039 3.32230E+00
 -1      2040 2.36988E+00
 -1      2041 1.59117E+00
 -1      2042 2.31783E+00
 -1      2043 1.76377E+00
 -1      2044 9.90152E-01
 -1      2045 1.32705E+00
 -1      2046 1.06472E+00
 -1      2047 1.13213E+00
 -1      2048 1.06291E+00
 -1      2049 8.73359E-01
 -1      2050 1.30803E+00
 -1      2051 1.22269E+00
 -1      2052 1.03668E+00
 -1      2053 1.36196E+00
 -1      2054 1.32119E+00
 -1      2055 1.14040E+00
 -1      2056 1.29269E+00
 -1      2057 1.35587E+00
 -1      2058 1.14749E+00
 -1      2059 1.12534E+00
 -1      2060 1.23573E+00
 -1      2061 1.08445E+00
 -1      2062 9.73707E-01
 -1      2063 1.07174E+00
 -1      2064 9.73902E-01
 -1      2065 8.11637E-01
 -1      2066 9.03253E-01
 -1      2067 8.49853E-01
 -1      2068 6.50377E-01
 -1      2069 7.37729E-01
 -1      2070 7.05492E-01
 -1      2071 5.02837E-01
 -1      2072 5.81391E-01
 -1      2073 5.62599E-01
 -1      2074 3.76305E-01
 -1      2075 4.42837E-01
 -1      2076 4.33614E-01
 -1      2077 2.76090E-01
 -1      2078 3.26567E-01
 -1      2079 3.23876E-01
 -1      2080 2.07855E-01
 -1      2081 2.41225E-01
 -1      2082 2.39272E-01
 -1      2083 1.55481E-01
 -1      2084 1.82857E-01
 -1      2085 1.79409E-01
 -1      2086 1.13257E-01
 -1      2087 1.34904E-01
 -1      2088 1.33834E-01
 -1      2089 7.92091E-02
 -1      2090 9.62332E-02
 -1      2091 9.62332E-02
 -1      2092 5.61696E-02
 -1      2093 6.52236E-02
 -1      2094 6.52236E-02
 -1      2095 3.05698E-02
 -1      2096 4.43680E-02
 -1      2097 3.94365E-02
 -1      2098 2.46821E-02
 -1      2099 2.10317E-02
 -1      2100 2.66373E-02
 -1      2101 3.34875E-02
 -1      2102 3.34875E-02
 -1      2103 3.51620E-02
 -1      2104 3.34875E-02
 -1      2105 3.18707E-02
 -1      2106 3.48235E-02
 -1      2107 4.20122E-02
 -1      2108 2.44767E-02
 -1      2109 2.11608E-02
 -1      2110 2.84410E-02
 -1      2111 3.33409E-02
 -1      2112 2.98264E-02
 -1      2113 3.39200E-02
 -1      2114 3.72647E-02
 -1      2115 3.58734E-02
 -1      2116 4.18022E-02
 -1      2117 3.72647E-02
 -1      2118 3.72647E-02
 -1      2119 4.43347E-02
 -1      2120 3.69411E-02
 -1      2121 3.69888E-02
 -1      2122 4.40589E-02
 -1      2123 3.52936E-02
 -1      2124 3.69411E-02
 -1      2125 4.37830E-02
 -1      2126 2.90817E-02
 -1      2127 3.25713E-02
 -1      2128 4.10607E-02
 -1      2129 2.05477E-02
 -1      2130 2.35270E-02
 -1      2131 3.27837E-02
 -1      2132 2.64359E-02
 -1      2133 2.10965E-02
 -1      2134 2.77777E-02
 -1      2135 3.19112E-02
 -1      2136 3.19112E-02
 -1      2137 3.38018E-02
 -1      2138 3.77058E+01
 -1      2139 2.86428E+01
 -1      2140 2.94941E+01
 -1      2141 2.94941E+01
 -1      2142 2.57082E+01
 -1      2143 2.60177E+01
 -1      2144 2.57082E+01
 -1      2145 1.84186E+01
 -1      2146 3.15390E+01
 -1      2147 1.02350E+01
 -1      2148 1.49054E+01
 -1      2149 1.02843E+00
 -1      2150 1.20164E+00
 -1      2151 9.80292E-01
 -1      2152 8.44132E-01
 -1      2153 1.12105E+01
 -1      2154 1.05727E+01
 -1      2155 1.14250E+01
 -1      2156 1.19442E+01
 -1      2157 1.19270E+01
 -1      2158 1.15747E+01
 -1      2159 9.77187E+00
 -1      2160 1.06428E+01
 -1      2161 1.13155E+01
 -1      2162 9.58854E+00
 -1      2163 2.68310E+01
 -1      2164 1.44095E+01
 -1      2165 3.02934E+01
 -1      2166 3.19773E+01
 -1      2167 2.73156E+01
 -1      2168 3.18862E+01
 -1      2169 3.14367E+01
 -1      2170 3.14367E+01
 -1      2171 3.47055E+01
 -1      2172 3.14367E+01
 -1      2173 3.56477E+01
 -1      2174 3.37633E+01
 -1      2175 3.37633E+01
 -1      2176 2.65833E+01
 -1      2177 2.74424E+01
 -1      2178 2.74424E+01
 -1      2179 1.26287E+01
 -1      2180 2.20784E+01
 -1      2181 9.43107E+00
 -1      2182 1.01901E+01
 -1      2183 1.11022E+01
 -1      2184 1.02238E+01
 -1      2185 8.02716E+00
 -1      2186 1.16201E+01
 -1      2187 1.17075E+01
 -1      2188 1.11916E+01
 -1      2189 1.12865E+01
 -1      2190 1.04046E+01
 -1      2191 1.09758E+01
 -1      2192 9.46293E+00
 -1      2193 9.67593E+00
 -1      2194 8.20301E+00
 -1      2195 1.70745E+01
 -1      2196 1.06237E+01
 -1      2197 3.33715E+01
 -1      2198 2.11825E+01
 -1      2199 3.00765E+01
 -1      2200 3.94038E+01
 -1      2201 2.94941E+01
 -1      2202 2.99014E+01
 -1      2203 2.97264E+01
 -1      2204 9.77003E+00
 -1      2205 9.24494E+00
 -1      2206 8.10512E+00
 -1      2207 8.29257E+00
 -1      2208 2.91130E+00
 -1      2209 2.10145E+00
 -1      2210 2.88089E+01
 -1      2211 2.90413E+01
 -1      2212 2.55649E+01
 -1      2213 2.24759E+01
 -1      2214 3.35306E-02
 -1      2215 1.27958E+01
 -1      2216 2.99014E+01
 -1      2217 2.40442E+01
 -1      2218 8.63516E+00
 -1      2219 9.14752E+00
 -1      2220 9.42519E+00
 -1      2221 1.66167E+01
 -1      2222 2.85041E+01
 -1      2223 2.94463E+01
 -1      2224 2.85041E+01
 -1      2225 3.15266E+01
 -1      2226 2.58128E+01
 -1      2227 1.90737E+01
 -1      2228 1.08334E+01
 -1      2229 7.92273E+00
 -1      2230 9.39031E+00
 -1      2231 1.14007E+01
 -1      2232 9.09799E+00
 -1      2233 9.83170E+00
 -1      2234 1.05249E+01
 -1      2235 9.67313E+00
 -1      2236 9.69698E+00
 -1      2237 1.39039E+01
 -1      2238 1.10312E+00
 -1      2239 1.48477E+00
 -1      2240 5.52620E-01
 -1      2241 5.84348E-01
 -1      2242 5.96993E-01
 -1      2243 6.43806E-01
 -1      2244 4.92884E-01
 -1      2245 5.04075E-01
 -1      2246 5.02441E-01
 -1      2247 5.39179E-01
 -1      2248 5.17250E-01
 -1      2249 4.37467E-01
 -1      2250 5.87788E-01
 -1      2251 5.54356E-01
 -1      2252 4.65818E-01
 -1      2253 6.47811E-01
 -1      2254 6.00226E-01
 -1      2255 4.93432E-01
 -1      2256 7.15363E-01
 -1      2257 6.47811E-01
 -1      2258 5.05870E-01
 -1      2259 8.68002E-01
 -1      2260 7.58468E-01
 -1      2261 5.48974E-01
 -1      2262 9.01081E-01
 -1      2263 1.02381E+00
 -1      2264 9.80393E-01
 -1      2265 1.26892E+00
 -1      2266 1.03754E+00
 -1      2267 1.66591E+00
 -1      2268 1.30955E+00
 -1      2269 8.33377E-01
 -1      2270 9.64208E-01
 -1      2271 6.52789E+00
 -1      2272 7.51797E+00
 -1      2273 9.94050E-01
 -1      2274 8.13172E-01
 -1      2275 7.49248E-01
 -1      2276 7.53862E-01
 -1      2277 6.36434E-01
 -1      2278 6.46443E-01
 -1      2279 5.75973E-01
 -1      2280 5.25337E-01
 -1      2281 5.26672E-01
 -1      2282 4.88392E-01
 -1      2283 4.42810E-01
 -1      2284 4.29266E-01
 -1      2285 4.16876E-01
 -1      2286 3.76419E-01
 -1      2287 3.66388E-01
 -1      2288 3.47649E-01
 -1      2289 3.11955E-01
 -1      2290 3.11684E-01
 -1      2291 2.81849E-01
 -1      2292 2.49877E-01
 -1      2293 2.52807E-01
 -1      2294 2.37931E-01
 -1      2295 2.46170E-01
 -1      2296 2.10755E-01
 -1      2297 2.60893E-01
 -1      2298 2.79569E-01
 -1      2299 2.13532E-01
 -1      2300 3.02019E-01
 -1      2301 3.22226E-01
 -1      2302 2.50705E-01
 -1      2303 3.75003E-01
 -1      2304 4.23008E-01
 -1      2305 3.25932E-01
 -1      2306 4.77080E-01
 -1      2307 5.27394E-01
 -1      2308 4.32781E-01
 -1      2309 5.80755E-01
 -1      2310 6.24334E-01
 -1      2311 5.40214E-01
 -1      2312 6.68436E-01
 -1      2313 7.15436E-01
 -1      2314 6.37678E-01
 -1      2315 7.38022E-01
 -1      2316 7.78140E-01
 -1      2317 7.04367E-01
 -1      2318 7.78140E-01
 -1      2319 7.78724E-01
 -1      2320 7.26953E-01
 -1      2321 8.08578E-01
 -1      2322 7.42535E-01
 -1      2323 7.56807E-01
 -1      2324 8.52175E-01
 -1      2325 8.00434E-01
 -1      2326 8.96300E-01
 -1      2327 8.99904E-01
 -1      2328 9.51000E-01
 -1      2329 1.10541E+00
 -1      2330 1.06189E+00
 -1      2331 1.32553E+00
 -1      2332 1.31577E+00
 -1      2333 1.28183E+00
 -1      2334 1.48117E+00
 -1      2335 1.38296E+00
 -1      2336 1.63192E+00
 -1      2337 1.86682E+00
 -1      2338 1.49000E+00
 -1      2339 2.07452E+00
 -1      2340 2.09371E+00
 -1      2341 1.84845E+00
 -1      2342 2.32126E+00
 -1      2343 2.33504E+00
 -1      2344 2.28370E+00
 -1      2345 2.14496E+00
 -1      2346 2.08594E+00
 -1      2347 2.32117E+00
 -1      2348 1.81305E+00
 -1      2349 1.57216E+00
 -1      2350 1.85820E+00
 -1      2351 1.40162E+00
 -1      2352 1.18272E+00
 -1      2353 1.41477E+00
 -1      2354 1.12704E+00
 -1      2355 8.85851E-01
 -1      2356 1.18854E+00
 -1      2357 8.85331E-01
 -1      2358 8.70384E-01
 -1      2359 1.13233E+00
 -1      2360 8.80092E-01
 -1      2361 9.40808E-01
 -1      2362 1.14152E+00
 -1      2363 9.00361E-01
 -1      2364 9.51444E-01
 -1      2365 1.11078E+00
 -1      2366 8.88294E-01
 -1      2367 8.78567E-01
 -1      2368 1.00718E+00
 -1      2369 8.36241E-01
 -1      2370 7.92022E-01
 -1      2371 9.01705E-01
 -1      2372 7.56687E-01
 -1      2373 7.19156E-01
 -1      2374 8.24043E-01
 -1      2375 6.70542E-01
 -1      2376 6.32845E-01
 -1      2377 7.40095E-01
 -1      2378 5.79426E-01
 -1      2379 5.33345E-01
 -1      2380 6.38062E-01
 -1      2381 4.80718E-01
 -1      2382 4.33586E-01
 -1      2383 5.32015E-01
 -1      2384 3.85128E-01
 -1      2385 3.41404E-01
 -1      2386 4.30930E-01
 -1      2387 2.98871E-01
 -1      2388 2.60837E-01
 -1      2389 3.39940E-01
 -1      2390 2.24887E-01
 -1      2391 1.93372E-01
 -1      2392 2.61457E-01
 -1      2393 1.63951E-01
 -1      2394 1.42612E-01
 -1      2395 1.96086E-01
 -1      2396 1.18967E-01
 -1      2397 1.02855E-01
 -1      2398 1.43020E-01
 -1      2399 7.42569E-02
 -1      2400 6.21790E-02
 -1      2401 9.07773E-02
 -1      2402 2.42146E+01
 -1      2403 2.12801E+01
 -1      2404 5.44767E-01
 -1      2405 6.27319E-01
 -1      2406 4.76320E-01
 -1      2407 5.08299E-01
 -1      2408 5.08299E-01
 -1      2409 4.21383E-01
 -1      2410 4.43640E-01
 -1      2411 4.39150E-01
 -1      2412 3.69229E-01
 -1      2413 3.88731E-01
 -1      2414 3.73817E-01
 -1      2415 3.21920E-01
 -1      2416 3.37484E-01
 -1      2417 3.09420E-01
 -1      2418 2.90074E-01
 -1      2419 3.01482E-01
 -1      2420 2.57237E-01
 -1      2421 3.08587E-01
 -1      2422 3.09246E-01
 -1      2423 2.55971E-01
 -1      2424 3.62552E-01
 -1      2425 3.35515E-01
 -1      2426 3.02071E-01
 -1      2427 5.03632E-01
 -1      2428 4.30299E-01
 -1      2429 3.96746E-01
 -1      2430 6.56860E-01
 -1      2431 5.77795E-01
 -1      2432 5.38656E-01
 -1      2433 8.12147E-01
 -1      2434 7.34124E-01
 -1      2435 6.90082E-01
 -1      2436 9.50593E-01
 -1      2437 8.85500E-01
 -1      2438 8.40698E-01
 -1      2439 1.06856E+00
 -1      2440 1.00851E+00
 -1      2441 9.71969E-01
 -1      2442 1.13521E+00
 -1      2443 1.11761E+00
 -1      2444 1.07894E+00
 -1      2445 1.21116E+00
 -1      2446 1.21116E+00
 -1      2447 1.20394E+00
 -1      2448 1.18922E+00
 -1      2449 1.25241E+00
 -1      2450 1.32114E+00
 -1      2451 1.06488E+00
 -1      2452 1.17371E+00
 -1      2453 1.34687E+00
 -1      2454 1.32316E+00
 -1      2455 1.21675E+00
 -1      2456 1.48324E+00
 -1      2457 1.79941E+00
 -1      2458 1.41648E+00
 -1      2459 1.72843E+00
 -1      2460 2.07960E+00
 -1      2461 1.86842E+00
 -1      2462 1.89076E+00
 -1      2463 2.53325E+00
 -1      2464 2.42618E+00
 -1      2465 2.30635E+00
 -1      2466 2.80991E+00
 -1      2467 2.82710E+00
 -1      2468 2.94678E+00
 -1      2469 2.79063E+00
 -1      2470 2.70969E+00
 -1      2471 3.14042E+00
 -1      2472 2.16791E+00
 -1      2473 2.33910E+00
 -1      2474 2.58867E+00
 -1      2475 1.57106E+00
 -1      2476 2.00598E+00
 -1      2477 1.97520E+00
 -1      2478 1.24654E+00
 -1      2479 1.51066E+00
 -1      2480 1.75287E+00
 -1      2481 1.18415E+00
 -1      2482 1.11139E+00
 -1      2483 1.55733E+00
 -1      2484 1.25025E+00
 -1      2485 1.15969E+00
 -1      2486 1.39772E+00
 -1      2487 1.23217E+00
 -1      2488 1.21901E+00
 -1      2489 1.34202E+00
 -1      2490 1.15886E+00
 -1      2491 1.16494E+00
 -1      2492 1.24355E+00
 -1      2493 1.04431E+00
 -1      2494 1.10127E+00
 -1      2495 1.11872E+00
 -1      2496 9.39605E-01
 -1      2497 9.93200E-01
 -1      2498 1.01002E+00
 -1      2499 8.01497E-01
 -1      2500 8.71951E-01
 -1      2501 8.91249E-01
 -1      2502 6.55029E-01
 -1      2503 7.28937E-01
 -1      2504 7.51035E-01
 -1      2505 5.16926E-01
 -1      2506 5.85911E-01
 -1      2507 6.09356E-01
 -1      2508 3.95630E-01
 -1      2509 4.55629E-01
 -1      2510 4.78942E-01
 -1      2511 2.94115E-01
 -1      2512 3.43853E-01
 -1      2513 3.65869E-01
 -1      2514 2.17079E-01
 -1      2515 2.51945E-01
 -1      2516 2.71922E-01
 -1      2517 1.58801E-01
 -1      2518 1.83799E-01
 -1      2519 1.96471E-01
 -1      2520 1.12011E-01
 -1      2521 1.32588E-01
 -1      2522 1.36978E-01
 -1      2523 7.65220E-02
 -1      2524 9.35461E-02
 -1      2525 9.22996E-02
 -1      2526 5.12381E-02
 -1      2527 6.52236E-02
 -1      2528 6.25365E-02
 -1      2529 4.66251E-02
 -1      2530 4.50099E-02
 -1      2531 3.96602E-02
 -1      2532 5.16539E-02
 -1      2533 4.91214E-02
 -1      2534 5.48616E-02
 -1      2535 4.42316E-02
 -1      2536 5.10817E-02
 -1      2537 4.48349E-02
 -1      2538 4.47058E-02
 -1      2539 6.06255E-02
 -1      2540 5.59249E-02
 -1      2541 5.19076E-02
 -1      2542 5.19076E-02
 -1      2543 5.92267E-02
 -1      2544 5.16337E-02
 -1      2545 5.19096E-02
 -1      2546 5.94824E-02
 -1      2547 5.16337E-02
 -1      2548 5.16337E-02
 -1      2549 5.94844E-02
 -1      2550 4.81228E-02
 -1      2551 5.08451E-02
 -1      2552 5.86958E-02
 -1      2553 3.80202E-02
 -1      2554 4.35750E-02
 -1      2555 5.33594E-02
 -1      2556 3.41668E-02
 -1      2557 3.36180E-02
 -1      2558 4.44093E-02
 -1      2559 3.96421E-02
 -1      2560 3.41668E-02
 -1      2561 4.00071E-02
 -1      2562 4.06673E-02
 -1      2563 8.68931E+00
 -1      2564 1.22025E+01
 -1      2565 7.09871E-01
 -1      2566 8.05476E-01
 -1      2567 6.27319E-01
 -1      2568 1.49158E+01
 -1      2569 2.10827E+01
 -1      2570 1.08093E+01
 -1      2571 2.63993E+01
 -1      2572 2.65743E+01
 -1      2573 2.97264E+01
 -1      2574 2.97264E+01
 -1      2575 8.08881E+00
 -1      2576 8.30469E+00
 -1      2577 1.10505E+01
 -1      2578 1.55554E+01
 -1      2579 3.15266E+01
 -1      2580 2.74056E+01
 -1      2581 5.15536E-01
 -1      2582 5.37742E-01
 -1      2583 4.65361E-01
 -1      2584 4.37387E-01
 -1      2585 9.17948E+00
 -1      2586 9.02978E+00
 -1      2587 7.02124E+00
 -1      2588 9.45988E+00
 -1      2589 7.23251E+00
 -1      2590 8.51677E+00
 -1      2591 5.81713E+00
 -1      2592 6.00045E+00
 -1      2593 1.10144E+01
 -1      2594 7.92038E+00
 -1      2595 5.99811E+00
 -1      2596 1.80059E+01
 -1      2597 1.28596E+01
 -1      2598 2.25534E+01
 -1      2599 2.09606E+01
 -1      2600 1.47465E+01
 -1      2601 3.56477E+01
 -1      2602 3.56477E+01
 -1      2603 3.15266E+01
 -1      2604 1.73247E+01
 -1      2605 2.36456E+01
 -1      2606 9.07533E+00
 -1      2607 9.40890E+00
 -1      2608 6.47133E+00
 -1      2609 5.67865E+00
 -1      2610 1.32609E+01
 -1      2611 9.15290E+00
 -1      2612 8.16218E+00
 -1      2613 7.55684E+00
 -1      2614 5.20832E+00
 -1      2615 6.26547E+00
 -1      2616 6.99409E+00
 -1      2617 8.27659E+00
 -1      2618 7.11581E+00
 -1      2619 2.21216E+01
 -1      2620 1.60893E+01
 -1      2621 1.13383E+01
 -1      2622 6.79520E+00
 -1      2623 5.99257E+00
 -1      2624 5.21797E+00
 -1      2625 1.61635E+00
 -1      2626 1.76100E+00
 -1      2627 1.31680E+00
 -1      2628 1.19129E+00
 -1      2629 8.48631E+00
 -1      2630 5.05529E-01
 -1      2631 6.43806E-01
 -1      2632 7.05855E-01
 -1      2633 8.05476E-01
 -1      2634 1.23340E+00
 -1      2635 1.86195E+01
 -1      2636 7.63356E+00
 -1      2637 2.14334E+01
 -1      2638 2.42247E+01
 -1      2639 1.99398E+01
 -1      2640 1.66545E+01
 -1      2641 4.66251E-02
 -1      2642 2.65793E+01
 -1      2643 2.65793E+01
 -1      2644 2.58942E+01
 -1      2645 4.66251E-02
 -1      2646 7.54054E+00
 -1      2647 4.20576E-02
 -1      2648 4.06673E-02
 -1      2649 4.10323E-02
 -1      2650 5.21183E-02
 -1      2651 6.15126E+00
 -1      2652 6.92463E+00
 -1      2653 9.57475E-01
 -1      2654 5.56947E-02
 -1      2655 2.63993E+01
 -1      2656 8.01662E+00
 -1      2657 2.19673E+01
 -1      2658 1.71151E+01
 -1      2659 2.19673E+01
 -1      2660 9.94661E+00
 -1      2661 1.17585E+01
 -1      2662 5.12691E+00
 -1      2663 2.41836E+01
 -1      2664 1.89245E+01
 -1      2665 1.40660E+01
 -1      2666 8.39858E+00
 -1      2667 5.46540E+00
 -1      2668 6.83841E-01
 -1      2669 7.57953E-01
 -1      2670 6.67756E-01
 -1      2671 4.83515E-01
 -1      2672 7.02167E+00
 -1      2673 7.57311E+00
 -1      2674 7.38287E+00
 -1      2675 5.27032E+00
 -1      2676 2.85490E+01
 -1      2677 2.85490E+01
 -1      2678 2.23477E+01
 -1      2679 5.90690E+00
 -1      2680 5.21183E-02
 -1      2681 4.17472E-01
 -1      2682 4.02296E-01
 -1      2683 3.93668E-01
 -1      2684 3.80493E-01
 -1      2685 3.45322E-01
 -1      2686 4.32698E-01
 -1      2687 4.32698E-01
 -1      2688 4.64808E-01
 -1      2689 4.21704E-01
 -1      2690 3.48532E-01
 -1      2691 7.17613E-01
 -1      2692 7.96925E-01
 -1      2693 7.93880E-02
 -1      2694 7.49314E-02
 -1      2695 8.62298E-02
 -1      2696 6.12101E-01
 -1      2697 7.07706E-01
 -1      2698 5.24239E-01
 -1      2699 1.76792E+01
 -1      2700 1.32264E+01
 -1      2701 6.07641E-01
 -1      2702 5.67007E-01
 -1      2703 4.01386E-01
 -1      2704 5.83900E-01
 -1      2705 5.40406E-01
 -1      2706 3.58164E-01
 -1      2707 7.43179E+00
 -1      2708 6.55547E+00
 -1      2709 5.09835E-01
 -1      2710 4.50524E-01
 -1      2711 3.44487E-01
 -1      2712 4.50609E-01
 -1      2713 3.90148E-01
 -1      2714 3.14001E-01
 -1      2715 3.74890E-01
 -1      2716 3.37945E-01
 -1      2717 2.98827E-01
 -1      2718 3.15284E-01
 -1      2719 2.89350E-01
 -1      2720 2.60907E-01
 -1      2721 2.79390E-01
 -1      2722 2.50620E-01
 -1      2723 2.28287E-01
 -1      2724 2.33732E-01
 -1      2725 2.03626E-01
 -1      2726 2.01439E-01
 -1      2727 1.81810E-01
 -1      2728 1.69864E-01
 -1      2729 1.62735E-01
 -1      2730 1.86881E-01
 -1      2731 2.01603E-01
 -1      2732 1.57936E-01
 -1      2733 2.48840E-01
 -1      2734 2.71290E-01
 -1      2735 2.22188E-01
 -1      2736 3.23562E-01
 -1      2737 3.76339E-01
 -1      2738 3.21697E-01
 -1      2739 4.32920E-01
 -1      2740 4.86991E-01
 -1      2741 4.30550E-01
 -1      2742 5.46039E-01
 -1      2743 5.99400E-01
 -1      2744 5.46177E-01
 -1      2745 6.57221E-01
 -1      2746 7.01324E-01
 -1      2747 6.63046E-01
 -1      2748 7.51151E-01
 -1      2749 7.73737E-01
 -1      2750 7.70694E-01
 -1      2751 8.62864E-01
 -1      2752 8.62864E-01
 -1      2753 9.09648E-01
 -1      2754 9.55163E-01
 -1      2755 9.85017E-01
 -1      2756 1.09107E+00
 -1      2757 1.05646E+00
 -1      2758 1.16610E+00
 -1      2759 1.25481E+00
 -1      2760 1.31825E+00
 -1      2761 1.41772E+00
 -1      2762 1.47841E+00
 -1      2763 1.56022E+00
 -1      2764 1.67112E+00
 -1      2765 1.77307E+00
 -1      2766 1.54238E+00
 -1      2767 1.49867E+00
 -1      2768 1.78683E+00
 -1      2769 2.02303E+00
 -1      2770 2.17378E+00
 -1      2771 2.18245E+00
 -1      2772 2.93440E+00
 -1      2773 3.14210E+00
 -1      2774 3.46743E+00
 -1      2775 3.06774E+00
 -1      2776 3.29530E+00
 -1      2777 4.15369E+00
 -1      2778 3.60399E+00
 -1      2779 3.41391E+00
 -1      2780 4.38803E+00
 -1      2781 2.50569E+00
 -1      2782 2.23280E+00
 -1      2783 3.78851E+00
 -1      2784 1.70203E+00
 -1      2785 1.53148E+00
 -1      2786 2.34952E+00
 -1      2787 1.62885E+00
 -1      2788 1.57317E+00
 -1      2789 1.91612E+00
 -1      2790 1.33489E+00
 -1      2791 1.33437E+00
 -1      2792 1.77521E+00
 -1      2793 1.22020E+00
 -1      2794 1.22991E+00
 -1      2795 1.42276E+00
 -1      2796 1.16346E+00
 -1      2797 1.12302E+00
 -1      2798 1.24215E+00
 -1      2799 1.07033E+00
 -1      2800 1.00718E+00
 -1      2801 1.12302E+00
 -1      2802 9.44031E-01
 -1      2803 9.01705E-01
 -1      2804 1.00718E+00
 -1      2805 8.35977E-01
 -1      2806 8.00642E-01
 -1      2807 8.78303E-01
 -1      2808 7.40095E-01
 -1      2809 6.91481E-01
 -1      2810 7.52028E-01
 -1      2811 6.38062E-01
 -1      2812 5.84643E-01
 -1      2813 6.38062E-01
 -1      2814 5.32015E-01
 -1      2815 4.79388E-01
 -1      2816 5.32015E-01
 -1      2817 4.30930E-01
 -1      2818 3.82472E-01
 -1      2819 4.30930E-01
 -1      2820 3.39940E-01
 -1      2821 2.97407E-01
 -1      2822 3.39940E-01
 -1      2823 2.61457E-01
 -1      2824 2.25507E-01
 -1      2825 2.61457E-01
 -1      2826 1.96086E-01
 -1      2827 1.66665E-01
 -1      2828 1.96086E-01
 -1      2829 1.43020E-01
 -1      2830 1.19375E-01
 -1      2831 1.43020E-01
 -1      2832 9.07773E-02
 -1      2833 4.87664E+00
 -1      2834 5.97135E+00
 -1      2835 7.00224E+00
 -1      2836 5.75553E+00
 -1      2837 4.24034E-01
 -1      2838 4.60503E-01
 -1      2839 2.46445E-01
 -1      2840 2.78190E-01
 -1      2841 1.96066E-01
 -1      2842 2.16504E-01
 -1      2843 1.85274E-01
 -1      2844 2.23636E-01
 -1      2845 2.04464E-01
 -1      2846 1.63730E-01
 -1      2847 2.88096E-01
 -1      2848 2.61168E-01
 -1      2849 2.09661E-01
 -1      2850 4.15549E-01
 -1      2851 3.47802E-01
 -1      2852 3.06899E-01
 -1      2853 5.57909E-01
 -1      2854 4.83746E-01
 -1      2855 4.34802E-01
 -1      2856 7.11972E-01
 -1      2857 6.34709E-01
 -1      2858 5.79799E-01
 -1      2859 8.69572E-01
 -1      2860 7.96220E-01
 -1      2861 7.40846E-01
 -1      2862 1.01580E+00
 -1      2863 9.57885E-01
 -1      2864 9.13407E-01
 -1      2865 1.15025E+00
 -1      2866 1.10120E+00
 -1      2867 1.08712E+00
 -1      2868 1.30993E+00
 -1      2869 1.23397E+00
 -1      2870 1.25624E+00
 -1      2871 1.51921E+00
 -1      2872 1.47797E+00
 -1      2873 1.50800E+00
 -1      2874 1.64795E+00
 -1      2875 1.66346E+00
 -1      2876 1.82029E+00
 -1      2877 1.98496E+00
 -1      2878 1.83309E+00
 -1      2879 2.14968E+00
 -1      2880 1.94485E+00
 -1      2881 1.85154E+00
 -1      2882 2.20139E+00
 -1      2883 2.31548E+00
 -1      2884 2.24647E+00
 -1      2885 2.36958E+00
 -1      2886 2.65293E+00
 -1      2887 2.30635E+00
 -1      2888 2.66206E+00
 -1      2889 4.79980E+00
 -1      2890 4.50595E+00
 -1      2891 4.50595E+00
 -1      2892 3.14042E+00
 -1      2893 3.24064E+00
 -1      2894 4.79980E+00
 -1      2895 3.03775E+00
 -1      2896 3.48929E+00
 -1      2897 3.58951E+00
 -1      2898 2.16892E+00
 -1      2899 2.33085E+00
 -1      2900 3.23147E+00
 -1      2901 2.04283E+00
 -1      2902 2.10322E+00
 -1      2903 2.45887E+00
 -1      2904 1.86602E+00
 -1      2905 2.00116E+00
 -1      2906 2.35151E+00
 -1      2907 1.71907E+00
 -1      2908 1.74354E+00
 -1      2909 2.18736E+00
 -1      2910 1.52736E+00
 -1      2911 1.55860E+00
 -1      2912 1.90442E+00
 -1      2913 1.29947E+00
 -1      2914 1.36670E+00
 -1      2915 1.58328E+00
 -1      2916 1.14023E+00
 -1      2917 1.19782E+00
 -1      2918 1.32097E+00
 -1      2919 1.00918E+00
 -1      2920 1.06029E+00
 -1      2921 1.13939E+00
 -1      2922 8.56498E-01
 -1      2923 9.24151E-01
 -1      2924 9.74424E-01
 -1      2925 7.02691E-01
 -1      2926 7.75251E-01
 -1      2927 8.08153E-01
 -1      2928 5.60476E-01
 -1      2929 6.29594E-01
 -1      2930 6.53810E-01
 -1      2931 4.36000E-01
 -1      2932 4.97296E-01
 -1      2933 5.17534E-01
 -1      2934 3.31225E-01
 -1      2935 3.83002E-01
 -1      2936 4.01356E-01
 -1      2937 2.45674E-01
 -1      2938 2.87844E-01
 -1      2939 3.04977E-01
 -1      2940 1.77634E-01
 -1      2941 2.10915E-01
 -1      2942 2.26837E-01
 -1      2943 1.23112E-01
 -1      2944 1.49325E-01
 -1      2945 1.63769E-01
 -1      2946 1.04300E-01
 -1      2947 1.22764E-01
 -1      2948 1.35112E-01
 -1      2949 1.16695E-01
 -1      2950 7.05215E-02
 -1      2951 7.05195E-02
 -1      2952 2.29631E+01
 -1      2953 1.96360E+01
 -1      2954 6.74503E-02
 -1      2955 6.33388E-02
 -1      2956 7.01186E-02
 -1      2957 7.01186E-02
 -1      2958 8.11557E-02
 -1      2959 7.05195E-02
 -1      2960 7.02659E-02
 -1      2961 7.87431E-02
 -1      2962 8.15586E-02
 -1      2963 6.93300E-02
 -1      2964 7.01186E-02
 -1      2965 8.07527E-02
 -1      2966 6.15298E-02
 -1      2967 6.60776E-02
 -1      2968 7.75004E-02
 -1      2969 5.08666E-02
 -1      2970 5.52688E-02
 -1      2971 6.79871E-02
 -1      2972 5.25228E-02
 -1      2973 5.25228E-02
 -1      2974 6.33823E-02
 -1      2975 5.00014E-01
 -1      2976 5.82566E-01
 -1      2977 4.84797E-01
 -1      2978 4.15750E-01
 -1      2979 3.77882E+00
 -1      2980 4.31414E+00
 -1      2981 7.83643E+00
 -1      2982 1.05497E+01
 -1      2983 6.47710E+00
 -1      2984 7.24774E+00
 -1      2985 9.01553E+00
 -1      2986 1.07849E+01
 -1      2987 9.27603E+00
 -1      2988 7.43077E+00
 -1      2989 6.39595E+00
 -1      2990 7.98654E+00
 -1      2991 5.91487E+00
 -1      2992 7.08621E+00
 -1      2993 3.04351E-01
 -1      2994 3.37003E-01
 -1      2995 2.41376E-01
 -1      2996 3.58026E-01
 -1      2997 3.90707E-01
 -1      2998 2.88560E-01
 -1      2999 6.35897E+00
 -1      3000 7.02167E+00
 -1      3001 8.25892E-01
 -1      3002 4.32698E-01
 -1      3003 4.20261E-01
 -1      3004 3.56738E-01
 -1      3005 3.59526E-01
 -1      3006 4.02364E+00
 -1      3007 5.36623E+00
 -1      3008 6.30733E+00
 -1      3009 4.20408E+00
 -1      3010 2.53202E+01
 -1      3011 2.11991E+01
 -1      3012 1.31719E+01
 -1      3013 1.02172E+01
 -1      3014 3.53727E+00
 -1      3015 4.76933E+00
 -1      3016 4.56353E+00
 -1      3017 3.71319E+00
 -1      3018 4.87387E-02
 -1      3019 4.77135E-02
 -1      3020 6.02291E-02
 -1      3021 5.87994E-02
 -1      3022 4.19049E-01
 -1      3023 4.31694E-01
 -1      3024 5.26094E+00
 -1      3025 4.17543E+00
 -1      3026 1.21236E+01
 -1      3027 1.52556E+01
 -1      3028 6.79611E+00
 -1      3029 7.59803E+00
 -1      3030 1.12594E+01
 -1      3031 8.43094E+00
 -1      3032 4.31694E-01
 -1      3033 4.31694E-01
 -1      3034 3.57859E-01
 -1      3035 3.36429E-01
 -1      3036 3.80227E-01
 -1      3037 3.93323E-01
 -1      3038 1.03191E+01
 -1      3039 4.36648E+00
 -1      3040 9.15079E+00
 -1      3041 1.61273E+01
 -1      3042 1.62807E+01
 -1      3043 1.15964E+01
 -1      3044 1.42430E+01
 -1      3045 5.20112E+00
 -1      3046 5.40289E+00
 -1      3047 3.20918E+00
 -1      3048 7.35286E+00
 -1      3049 4.95419E+00
 -1      3050 5.20247E+00
 -1      3051 5.46272E+00
 -1      3052 3.53328E+00
 -1      3053 4.72264E+00
 -1      3054 4.47572E+00
 -1      3055 3.42911E-01
 -1      3056 2.13833E+01
 -1      3057 1.46200E+01
 -1      3058 1.82362E+01
 -1      3059 2.12608E+01
 -1      3060 1.87988E+01
 -1      3061 1.71293E+01
 -1      3062 8.40057E-02
 -1      3063 7.14170E-02
 -1      3064 7.65918E-02
 -1      3065 7.98622E-02
 -1      3066 3.84650E+00
 -1      3067 1.34036E+01
 -1      3068 8.87427E+00
 -1      3069 1.28175E+01
 -1      3070 4.07626E+00
 -1      3071 2.50053E+01
 -1      3072 1.46778E+01
 -1      3073 1.79067E+01
 -1      3074 6.82668E+00
 -1      3075 7.70136E+00
 -1      3076 7.01289E+00
 -1      3077 1.95704E+01
 -1      3078 1.41321E+01
 -1      3079 1.33640E+01
 -1      3080 8.24585E+00
 -1      3081 1.09889E+01
 -1      3082 1.15269E+01
 -1      3083 5.63675E+00
 -1      3084 4.01911E-01
 -1      3085 4.16789E-01
 -1      3086 3.55599E-01
 -1      3087 3.44751E-01
 -1      3088 5.63112E-01
 -1      3089 5.88291E+00
 -1      3090 1.79895E+01
 -1      3091 1.70922E+01
 -1      3092 1.36690E+01
 -1      3093 4.76933E+00
 -1      3094 4.35842E-01
 -1      3095 2.89234E-01
 -1      3096 3.00228E-01
 -1      3097 9.24237E-02
 -1      3098 9.24237E-02
 -1      3099 4.89818E+00
 -1      3100 3.40668E+00
 -1      3101 6.13340E+00
 -1      3102 2.76759E-01
 -1      3103 2.93652E-01
 -1      3104 8.73976E-02
 -1      3105 2.71508E-01
 -1      3106 2.71593E-01
 -1      3107 2.68590E-01
 -1      3108 2.53332E-01
 -1      3109 2.26098E-01
 -1      3110 2.37082E-01
 -1      3111 2.14421E-01
 -1      3112 2.06845E-01
 -1      3113 1.91479E-01
 -1      3114 1.81519E-01
 -1      3115 1.67653E-01
 -1      3116 1.62282E-01
 -1      3117 1.45394E-01
 -1      3118 1.25474E-01
 -1      3119 1.42158E-01
 -1      3120 1.20342E-01
 -1      3121 1.03001E-01
 -1      3122 1.39452E-01
 -1      3123 1.56468E-01
 -1      3124 1.18874E-01
 -1      3125 1.91817E-01
 -1      3126 2.39053E-01
 -1      3127 1.73333E-01
 -1      3128 2.84749E-01
 -1      3129 3.37022E-01
 -1      3130 2.54378E-01
 -1      3131 3.89138E-01
 -1      3132 4.45719E-01
 -1      3133 3.52191E-01
 -1      3134 5.11642E-01
 -1      3135 5.70689E-01
 -1      3136 4.70231E-01
 -1      3137 6.46721E-01
 -1      3138 7.04543E-01
 -1      3139 6.12186E-01
 -1      3140 7.95692E-01
 -1      3141 8.45518E-01
 -1      3142 7.79367E-01
 -1      3143 9.46703E-01
 -1      3144 1.03583E+00
 -1      3145 9.71701E-01
 -1      3146 1.15057E+00
 -1      3147 1.24287E+00
 -1      3148 1.18762E+00
 -1      3149 1.43967E+00
 -1      3150 1.51111E+00
 -1      3151 1.49916E+00
 -1      3152 1.72712E+00
 -1      3153 1.87928E+00
 -1      3154 1.91197E+00
 -1      3155 2.00040E+00
 -1      3156 2.14290E+00
 -1      3157 2.24911E+00
 -1      3158 2.08403E+00
 -1      3159 1.95529E+00
 -1      3160 2.31136E+00
 -1      3161 3.46743E+00
 -1      3162 4.22805E+00
 -1      3163 4.72264E+00
 -1      3164 4.64828E+00
 -1      3165 4.89378E+00
 -1      3166 5.20247E+00
 -1      3167 2.88030E+00
 -1      3168 2.34952E+00
 -1      3169 2.38886E+00
 -1      3170 2.48622E+00
 -1      3171 2.91963E+00
 -1      3172 2.23073E+00
 -1      3173 1.99245E+00
 -1      3174 2.70347E+00
 -1      3175 1.77486E+00
 -1      3176 1.66069E+00
 -1      3177 2.23038E+00
 -1      3178 1.48743E+00
 -1      3179 1.42099E+00
 -1      3180 1.83953E+00
 -1      3181 1.22417E+00
 -1      3182 1.17148E+00
 -1      3183 1.46945E+00
 -1      3184 1.06663E+00
 -1      3185 1.00348E+00
 -1      3186 1.16778E+00
 -1      3187 9.05644E-01
 -1      3188 8.39916E-01
 -1      3189 9.65089E-01
 -1      3190 7.55613E-01
 -1      3191 6.95066E-01
 -1      3192 7.82954E-01
 -1      3193 6.24875E-01
 -1      3194 5.71456E-01
 -1      3195 6.28460E-01
 -1      3196 5.11132E-01
 -1      3197 4.58505E-01
 -1      3198 4.97945E-01
 -1      3199 4.10702E-01
 -1      3200 3.62244E-01
 -1      3201 3.89819E-01
 -1      3202 3.24784E-01
 -1      3203 2.82251E-01
 -1      3204 3.04556E-01
 -1      3205 2.49822E-01
 -1      3206 2.13872E-01
 -1      3207 2.34666E-01
 -1      3208 1.89675E-01
 -1      3209 1.60255E-01
 -1      3210 1.78040E-01
 -1      3211 1.46554E-01
 -1      3212 1.22909E-01
 -1      3213 1.40143E-01
 -1      3214 6.98154E+00
 -1      3215 5.98238E+00
 -1      3216 1.28078E-01
 -1      3217 1.58019E-01
 -1      3218 3.13734E-01
 -1      3219 2.54029E-01
 -1      3220 4.40526E-01
 -1      3221 3.72329E-01
 -1      3222 3.19459E-01
 -1      3223 5.86408E-01
 -1      3224 5.09609E-01
 -1      3225 4.47136E-01
 -1      3226 7.58258E-01
 -1      3227 6.74011E-01
 -1      3228 6.03820E-01
 -1      3229 9.51251E-01
 -1      3230 8.62938E-01
 -1      3231 7.96102E-01
 -1      3232 1.16229E+00
 -1      3233 1.07689E+00
 -1      3234 1.02642E+00
 -1      3235 1.40887E+00
 -1      3236 1.32515E+00
 -1      3237 1.31492E+00
 -1      3238 1.76759E+00
 -1      3239 1.59955E+00
 -1      3240 1.66846E+00
 -1      3241 2.16788E+00
 -1      3242 2.02363E+00
 -1      3243 2.11518E+00
 -1      3244 2.67544E+00
 -1      3245 2.49031E+00
 -1      3246 2.69365E+00
 -1      3247 2.45986E+00
 -1      3248 2.59329E+00
 -1      3249 2.93391E+00
 -1      3250 4.57424E+00
 -1      3251 2.69978E+00
 -1      3252 2.92908E+00
 -1      3253 2.97074E+00
 -1      3254 2.69480E+00
 -1      3255 2.81728E+00
 -1      3256 3.43651E+00
 -1      3257 2.09172E+00
 -1      3258 2.25219E+00
 -1      3259 2.88210E+00
 -1      3260 1.67955E+00
 -1      3261 1.84022E+00
 -1      3262 2.18799E+00
 -1      3263 1.39488E+00
 -1      3264 1.49652E+00
 -1      3265 1.75346E+00
 -1      3266 1.14935E+00
 -1      3267 1.22929E+00
 -1      3268 1.40485E+00
 -1      3269 9.33933E-01
 -1      3270 1.01896E+00
 -1      3271 1.10886E+00
 -1      3272 7.48149E-01
 -1      3273 8.29395E-01
 -1      3274 8.73928E-01
 -1      3275 5.89028E-01
 -1      3276 6.62124E-01
 -1      3277 6.83366E-01
 -1      3278 4.59189E-01
 -1      3279 5.22369E-01
 -1      3280 5.30683E-01
 -1      3281 3.51267E-01
 -1      3282 4.04266E-01
 -1      3283 4.09101E-01
 -1      3284 2.62906E-01
 -1      3285 3.06287E-01
 -1      3286 3.09197E-01
 -1      3287 1.94680E-01
 -1      3288 2.29439E-01
 -1      3289 2.30749E-01
 -1      3290 1.39449E-01
 -1      3291 1.67758E-01
 -1      3292 1.70360E-01
 -1      3293 9.24237E-02
 -1      3294 9.28267E-02
 -1      3295 1.04095E-01
 -1      3296 7.98968E-02
 -1      3297 7.82407E-02
 -1      3298 1.83184E-01
 -1      3299 2.09344E-01
 -1      3300 1.25988E-01
 -1      3301 2.80244E-01
 -1      3302 3.13571E-01
 -1      3303 4.69672E+00
 -1      3304 8.91085E-02
 -1      3305 9.23608E-02
 -1      3306 1.04032E-01
 -1      3307 7.86753E-02
 -1      3308 8.49362E-02
 -1      3309 9.97967E-02
 -1      3310 9.51898E-02
 -1      3311 2.06974E-01
 -1      3312 1.69441E-01
 -1      3313 2.13809E-01
 -1      3314 1.33606E-01
 -1      3315 1.25208E-01
 -1      3316 9.79532E-02
 -1      3317 1.30919E-01
 -1      3318 5.63120E+00
 -1      3319 4.50775E+00
 -1      3320 9.53224E+00
 -1      3321 7.56520E+00
 -1      3322 7.24364E+00
 -1      3323 6.30248E+00
 -1      3324 2.83816E-01
 -1      3325 2.53246E-01
 -1      3326 2.02411E-01
 -1      3327 9.53543E-02
 -1      3328 2.32642E-01
 -1      3329 2.53665E-01
 -1      3330 1.74450E-01
 -1      3331 4.04298E-01
 -1      3332 3.05994E-01
 -1      3333 2.57690E-01
 -1      3334 3.94391E-01
 -1      3335 5.18089E+00
 -1      3336 6.20988E+00
 -1      3337 9.22069E-02
 -1      3338 6.88152E+00
 -1      3339 8.45540E+00
 -1      3340 1.26094E+01
 -1      3341 1.06525E+01
 -1      3342 3.17704E-01
 -1      3343 3.09077E-01
 -1      3344 3.88250E+00
 -1      3345 4.91222E+00
 -1      3346 5.52748E+00
 -1      3347 6.27771E+00
 -1      3348 2.83627E+00
 -1      3349 3.01148E+00
 -1      3350 4.61221E+00
 -1      3351 2.77057E+00
 -1      3352 2.70681E+00
 -1      3353 3.46743E+00
 -1      3354 3.31564E+00
 -1      3355 2.18245E+00
 -1      3356 3.78851E+00
 -1      3357 3.04584E-01
 -1      3358 3.04318E-01
 -1      3359 2.76966E-01
 -1      3360 3.17256E-01
 -1      3361 3.17256E-01
 -1      3362 3.34814E+00
 -1      3363 8.70930E+00
 -1      3364 9.58106E+00
 -1      3365 6.44003E+00
 -1      3366 4.82980E+00
 -1      3367 2.10838E-01
 -1      3368 3.78851E+00
 -1      3369 3.58670E+00
 -1      3370 3.59225E+00
 -1      3371 1.10599E-01
 -1      3372 1.07065E-01
 -1      3373 6.19472E+00
 -1      3374 2.67689E-01
 -1      3375 3.30356E-01
 -1      3376 3.69868E-01
 -1      3377 1.70517E+01
 -1      3378 1.18557E+01
 -1      3379 1.24183E+01
 -1      3380 4.92310E+00
 -1      3381 3.28508E+00
 -1      3382 3.67698E+00
 -1      3383 2.91631E+00
 -1      3384 2.92544E+00
 -1      3385 3.27367E+00
 -1      3386 1.05349E-01
 -1      3387 9.40804E-02
 -1      3388 9.40804E-02
 -1      3389 1.35112E-01
 -1      3390 1.39101E-01
 -1      3391 1.34765E-01
 -1      3392 9.40804E-02
 -1      3393 9.12649E-02
 -1      3394 1.06602E-01
 -1      3395 1.16695E-01
 -1      3396 1.34765E-01
 -1      3397 1.13424E-01
 -1      3398 1.33168E+01
 -1      3399 4.55541E+00
 -1      3400 6.38741E+00
 -1      3401 6.59138E+00
 -1      3402 8.70735E-02
 -1      3403 9.51517E-02
 -1      3404 1.16492E-01
 -1      3405 1.02411E-01
 -1      3406 3.20238E-01
 -1      3407 2.79634E-01
 -1      3408 3.17978E-01
 -1      3409 1.20702E+01
 -1      3410 8.35870E+00
 -1      3411 9.67333E+00
 -1      3412 1.51034E+01
 -1      3413 1.15597E+01
 -1      3414 1.07452E+01
 -1      3415 3.58478E-01
 -1      3416 3.88013E-01
 -1      3417 2.68072E-01
 -1      3418 2.73084E-01
 -1      3419 2.24325E-01
 -1      3420 5.17348E+00
 -1      3421 2.62506E+00
 -1      3422 1.11253E+01
 -1      3423 9.49662E+00
 -1      3424 7.90461E+00
 -1      3425 6.50573E+00
 -1      3426 8.13636E+00
 -1      3427 7.89869E+00
 -1      3428 3.46442E+00
 -1      3429 1.09736E+01
 -1      3430 1.25534E+01
 -1      3431 8.96297E+00
 -1      3432 3.17704E-01
 -1      3433 2.81458E-01
 -1      3434 3.20492E-01
 -1      3435 4.10700E-01
 -1      3436 3.88686E-01
 -1      3437 3.18941E-01
 -1      3438 3.18941E-01
 -1      3439 2.79907E-01
 -1      3440 2.59643E-01
 -1      3441 3.28571E-01
 -1      3442 1.14597E+01
 -1      3443 1.05247E+01
 -1      3444 8.38267E+00
 -1      3445 4.10921E+00
 -1      3446 5.58232E+00
 -1      3447 2.47965E+00
 -1      3448 1.08105E+01
 -1      3449 3.36865E-01
 -1      3450 4.26341E+00
 -1      3451 4.06324E+00
 -1      3452 1.26443E-01
 -1      3453 1.10599E-01
 -1      3454 1.11034E-01
 -1      3455 1.08199E-01
 -1      3456 1.33363E-01
 -1      3457 1.85199E-01
 -1      3458 1.68949E-01
 -1      3459 1.59053E-01
 -1      3460 1.36111E-01
 -1      3461 1.37407E-01
 -1      3462 1.29488E-01
 -1      3463 1.10251E-01
 -1      3464 1.20888E-01
 -1      3465 1.19274E-01
 -1      3466 1.16038E-01
 -1      3467 1.23288E-01
 -1      3468 1.24155E-01
 -1      3469 1.43265E-01
 -1      3470 1.40429E-01
 -1      3471 1.73333E-01
 -1      3472 2.08681E-01
 -1      3473 1.78614E-01
 -1      3474 2.54378E-01
 -1      3475 3.00074E-01
 -1      3476 2.54378E-01
 -1      3477 3.52191E-01
 -1      3478 4.04307E-01
 -1      3479 3.52191E-01
 -1      3480 4.62155E-01
 -1      3481 5.28078E-01
 -1      3482 4.62155E-01
 -1      3483 5.95670E-01
 -1      3484 6.71702E-01
 -1      3485 5.87595E-01
 -1      3486 7.62745E-01
 -1      3487 8.53894E-01
 -1      3488 7.46229E-01
 -1      3489 9.82390E-01
 -1      3490 1.08358E+00
 -1      3491 9.65768E-01
 -1      3492 1.28167E+00
 -1      3493 1.39641E+00
 -1      3494 1.29236E+00
 -1      3495 1.64132E+00
 -1      3496 1.83812E+00
 -1      3497 1.73537E+00
 -1      3498 2.12959E+00
 -1      3499 2.34561E+00
 -1      3500 2.27175E+00
 -1      3501 2.36141E+00
 -1      3502 2.48253E+00
 -1      3503 2.57903E+00
 -1      3504 3.04651E+00
 -1      3505 1.19418E-01
 -1      3506 1.19481E-01
 -1      3507 1.72996E-01
 -1      3508 1.91259E-01
 -1      3509 5.30090E+00
 -1      3510 4.71724E+00
 -1      3511 2.70119E+00
 -1      3512 2.48360E+00
 -1      3513 2.56474E+00
 -1      3514 2.39148E+00
 -1      3515 3.03555E+00
 -1      3516 1.79287E+00
 -1      3517 1.59606E+00
 -1      3518 2.51808E+00
 -1      3519 1.36032E+00
 -1      3520 1.25546E+00
 -1      3521 1.68374E+00
 -1      3522 1.06480E+00
 -1      3523 9.66966E-01
 -1      3524 1.25734E+00
 -1      3525 8.46035E-01
 -1      3526 7.61732E-01
 -1      3527 9.45744E-01
 -1      3528 6.74957E-01
 -1      3529 6.04765E-01
 -1      3530 7.38038E-01
 -1      3531 5.47269E-01
 -1      3532 4.86945E-01
 -1      3533 5.93765E-01
 -1      3534 4.34251E-01
 -1      3535 3.86449E-01
 -1      3536 4.83575E-01
 -1      3537 3.40365E-01
 -1      3538 3.02905E-01
 -1      3539 3.84797E-01
 -1      3540 2.63741E-01
 -1      3541 2.31312E-01
 -1      3542 2.99550E-01
 -1      3543 1.98772E-01
 -1      3544 1.74575E-01
 -1      3545 2.27846E-01
 -1      3546 1.66030E-01
 -1      3547 1.52330E-01
 -1      3548 1.52330E-01
 -1      3549 1.86762E-01
 -1      3550 3.74525E-01
 -1      3551 3.15930E-01
 -1      3552 8.84197E-01
 -1      3553 7.79517E-01
 -1      3554 1.11864E+00
 -1      3555 9.93008E-01
 -1      3556 9.76423E-01
 -1      3557 1.45513E+00
 -1      3558 1.29227E+00
 -1      3559 1.25886E+00
 -1      3560 1.88984E+00
 -1      3561 1.69916E+00
 -1      3562 1.67651E+00
 -1      3563 2.61703E+00
 -1      3564 2.36099E+00
 -1      3565 2.39169E+00
 -1      3566 4.43041E+00
 -1      3567 4.10799E+00
 -1      3568 4.35380E+00
 -1      3569 2.62267E+00
 -1      3570 2.87417E+00
 -1      3571 4.34826E+00
 -1      3572 3.87099E+00
 -1      3573 4.31360E+00
 -1      3574 4.30567E+00
 -1      3575 3.43651E+00
 -1      3576 3.54831E+00
 -1      3577 4.26341E+00
 -1      3578 4.42540E+00
 -1      3579 1.85761E+00
 -1      3580 2.04064E+00
 -1      3581 2.72682E+00
 -1      3582 1.38624E+00
 -1      3583 1.55183E+00
 -1      3584 1.83901E+00
 -1      3585 1.07098E+00
 -1      3586 1.20137E+00
 -1      3587 1.34836E+00
 -1      3588 8.54098E-01
 -1      3589 9.58635E-01
 -1      3590 1.05115E+00
 -1      3591 6.72338E-01
 -1      3592 7.58362E-01
 -1      3593 8.43069E-01
 -1      3594 5.24611E-01
 -1      3595 5.91270E-01
 -1      3596 6.66266E-01
 -1      3597 4.02663E-01
 -1      3598 4.57587E-01
 -1      3599 5.18174E-01
 -1      3600 3.03214E-01
 -1      3601 3.48195E-01
 -1      3602 3.96681E-01
 -1      3603 2.26027E-01
 -1      3604 2.59495E-01
 -1      3605 2.98493E-01
 -1      3606 1.64266E-01
 -1      3607 1.91187E-01
 -1      3608 2.19933E-01
 -1      3609 1.19481E-01
 -1      3610 1.19481E-01
 -1      3611 1.34868E-01
 -1      3612 6.83218E-01
 -1      3613 5.95616E-01
 -1      3614 7.71313E-01
 -1      3615 5.13153E-01
 -1      3616 4.44071E-01
 -1      3617 4.40542E-01
 -1      3618 5.92551E-01
 -1      3619 2.57747E-01
 -1      3620 2.10691E-01
 -1      3621 3.12812E-01
 -1      3622 3.50375E+00
 -1      3623 3.09390E-01
 -1      3624 3.17978E-01
 -1      3625 2.82616E-01
 -1      3626 1.81212E-01
 -1      3627 2.07790E-01
 -1      3628 6.77334E+00
 -1      3629 9.01199E+00
 -1      3630 6.95005E+00
 -1      3631 1.08641E+01
 -1      3632 1.17128E+01
 -1      3633 1.40446E-01
 -1      3634 1.63744E-01
 -1      3635 1.22658E-01
 -1      3636 1.86000E-01
 -1      3637 1.82998E-01
 -1      3638 1.48158E-01
 -1      3639 7.24186E+00
 -1      3640 6.12156E+00
 -1      3641 4.64408E+00
 -1      3642 3.10709E+00
 -1      3643 3.37576E+00
 -1      3644 2.31307E+00
 -1      3645 2.20522E-01
 -1      3646 2.03762E-01
 -1      3647 2.14144E-01
 -1      3648 1.03062E+01
 -1      3649 6.75371E+00
 -1      3650 7.50291E+00
 -1      3651 4.86722E+00
 -1      3652 4.28501E+00
 -1      3653 4.02951E+00
 -1      3654 4.43041E+00
 -1      3655 5.84476E+00
 -1      3656 6.57296E+00
 -1      3657 9.46010E+00
 -1      3658 7.85604E+00
 -1      3659 2.64059E-01
 -1      3660 1.16618E-01
 -1      3661 1.23993E-01
 -1      3662 1.13748E-01
 -1      3663 2.22475E-01
 -1      3664 2.48423E+00
 -1      3665 2.37193E+00
 -1      3666 2.34614E-01
 -1      3667 2.15035E-01
 -1      3668 2.77545E-01
 -1      3669 2.15458E-01
 -1      3670 2.32243E-01
 -1      3671 1.72345E-01
 -1      3672 9.96563E+00
 -1      3673 1.20363E-01
 -1      3674 1.21617E-01
 -1      3675 1.35750E-01
 -1      3676 1.42464E-01
 -1      3677 1.63292E-01
 -1      3678 1.38128E-01
 -1      3679 1.41039E-01
 -1      3680 1.41039E-01
 -1      3681 1.56054E-01
 -1      3682 1.41039E-01
 -1      3683 1.36848E-01
 -1      3684 1.75476E-01
 -1      3685 7.20567E+00
 -1      3686 7.26168E+00
 -1      3687 5.48456E+00
 -1      3688 9.52182E+00
 -1      3689 7.53302E+00
 -1      3690 7.31260E+00
 -1      3691 2.44450E-01
 -1      3692 8.76865E+00
 -1      3693 9.95316E+00
 -1      3694 7.88654E+00
 -1      3695 7.38905E+00
 -1      3696 5.03040E+00
 -1      3697 6.88884E+00
 -1      3698 6.82168E+00
 -1      3699 2.44562E-01
 -1      3700 2.40069E-01
 -1      3701 6.09974E+00
 -1      3702 5.61511E+00
 -1      3703 5.59549E+00
 -1      3704 2.85053E-01
 -1      3705 1.45101E-01
 -1      3706 1.66321E-01
 -1      3707 1.30486E-01
 -1      3708 2.10258E-01
 -1      3709 1.47209E-01
 -1      3710 4.42540E+00
 -1      3711 5.74431E+00
 -1      3712 5.99821E+00
 -1      3713 5.30248E+00
 -1      3714 2.52311E-01
 -1      3715 2.52311E-01
 -1      3716 2.15415E-01
 -1      3717 2.56664E-01
 -1      3718 2.53682E-01
 -1      3719 1.92064E-01
 -1      3720 1.17904E-01
 -1      3721 1.22076E-01
 -1      3722 1.37526E-01
 -1      3723 1.33313E-01
 -1      3724 3.48635E+00
 -1      3725 3.66388E+00
 -1      3726 4.28274E+00
 -1      3727 1.22819E-01
 -1      3728 1.16196E-01
 -1      3729 1.29482E-01
 -1      3730 1.38505E-01
 -1      3731 1.31413E-01
 -1      3732 1.51578E-01
 -1      3733 1.59696E-01
 -1      3734 1.57771E-01
 -1      3735 1.72754E-01
 -1      3736 2.02821E-01
 -1      3737 1.83903E-01
 -1      3738 2.43553E-01
 -1      3739 2.89250E-01
 -1      3740 2.37693E-01
 -1      3741 3.40285E-01
 -1      3742 3.92402E-01
 -1      3743 3.29461E-01
 -1      3744 4.54399E-01
 -1      3745 5.12247E-01
 -1      3746 4.42493E-01
 -1      3747 5.87595E-01
 -1      3748 6.55187E-01
 -1      3749 5.79839E-01
 -1      3750 7.46229E-01
 -1      3751 8.37272E-01
 -1      3752 7.46229E-01
 -1      3753 9.46637E-01
 -1      3754 1.07513E+00
 -1      3755 9.46637E-01
 -1      3756 1.23251E+00
 -1      3757 1.43061E+00
 -1      3758 1.21338E+00
 -1      3759 1.79142E+00
 -1      3760 2.03633E+00
 -1      3761 1.73157E+00
 -1      3762 2.40181E+00
 -1      3763 2.69329E+00
 -1      3764 2.45787E+00
 -1      3765 3.21141E+00
 -1      3766 2.61281E+00
 -1      3767 1.97609E+00
 -1      3768 1.74036E+00
 -1      3769 2.66942E+00
 -1      3770 1.41189E+00
 -1      3771 1.22123E+00
 -1      3772 1.70424E+00
 -1      3773 1.05005E+00
 -1      3774 9.29116E-01
 -1      3775 1.20460E+00
 -1      3776 8.24813E-01
 -1      3777 7.38038E-01
 -1      3778 9.29116E-01
 -1      3779 6.51262E-01
 -1      3780 5.93765E-01
 -1      3781 7.38038E-01
 -1      3782 5.23240E-01
 -1      3783 4.70546E-01
 -1      3784 5.80737E-01
 -1      3785 4.13373E-01
 -1      3786 3.67290E-01
 -1      3787 4.53039E-01
 -1      3788 3.21179E-01
 -1      3789 2.82015E-01
 -1      3790 3.49755E-01
 -1      3791 2.45303E-01
 -1      3792 2.12763E-01
 -1      3793 2.66931E-01
 -1      3794 1.43249E+00
 -1      3795 1.25886E+00
 -1      3796 1.94879E-01
 -1      3797 2.50760E-01
 -1      3798 1.08241E+00
 -1      3799 9.73602E-01
 -1      3800 1.25604E+00
 -1      3801 2.79058E+00
 -1      3802 2.31943E+00
 -1      3803 5.84476E+00
 -1      3804 4.35380E+00
 -1      3805 4.28154E+00
 -1      3806 1.78187E+00
 -1      3807 2.08765E+00
 -1      3808 8.06310E+00
 -1      3809 8.76865E+00
 -1      3810 3.82706E+00
 -1      3811 4.82388E+00
 -1      3812 1.05115E+00
 -1      3813 1.16349E+00
 -1      3814 8.17604E-01
 -1      3815 9.13339E-01
 -1      3816 1.02568E+00
 -1      3817 6.32618E-01
 -1      3818 7.13686E-01
 -1      3819 7.83956E-01
 -1      3820 4.85793E-01
 -1      3821 5.52817E-01
 -1      3822 6.00238E-01
 -1      3823 3.69196E-01
 -1      3824 4.23664E-01
 -1      3825 4.58308E-01
 -1      3826 2.76989E-01
 -1      3827 3.20708E-01
 -1      3828 3.47692E-01
 -1      3829 2.04712E-01
 -1      3830 2.39552E-01
 -1      3831 2.61767E-01
 -1      3832 1.63888E-01
 -1      3833 1.63888E-01
 -1      3834 1.34765E-01
 -1      3835 1.38128E-01
 -1      3836 2.15522E-01
 -1      3837 2.04132E-01
 -1      3838 1.56582E-01
 -1      3839 1.63291E-01
 -1      3840 1.19583E-01
 -1      3841 1.26666E-01
 -1      3842 1.19855E-01
 -1      3843 5.78696E+00
 -1      3844 6.44830E+00
 -1      3845 6.22596E+00
 -1      3846 1.16489E-01
 -1      3847 1.18690E-01
 -1      3848 1.20096E-01
 -1      3849 1.37564E-01
 -1      3850 1.17021E-01
 -1      3851 1.15399E-01
 -1      3852 1.10141E-01
 -1      3853 8.37300E-02
 -1      3854 1.54047E-01
 -1      3855 2.52311E-01
 -1      3856 1.91426E+00
 -1      3857 1.67023E+00
 -1      3858 2.31315E+00
 -1      3859 2.20708E-01
 -1      3860 2.53112E-01
 -1      3861 2.58184E-01
 -1      3862 7.21968E+00
 -1      3863 5.96623E+00
 -1      3864 1.23704E-01
 -1      3865 1.13807E-01
 -1      3866 9.50912E-02
 -1      3867 3.50428E-01
 -1      3868 2.92245E-01
 -1      3869 2.92587E+00
 -1      3870 3.50790E+00
 -1      3871 4.02611E+00
 -1      3872 2.58184E-01
 -1      3873 2.58184E-01
 -1      3874 2.32231E-01
 -1      3875 2.33751E-01
 -1      3876 3.37818E+00
 -1      3877 4.44724E+00
 -1      3878 4.74470E+00
 -1      3879 3.36238E+00
 -1      3880 1.34836E+00
 -1      3881 1.53322E+00
 -1      3882 1.34836E+00
 -1      3883 8.41475E-01
 -1      3884 7.45177E-01
 -1      3885 9.47466E-01
 -1      3886 2.23164E-01
 -1      3887 1.49150E-01
 -1      3888 1.09116E-01
 -1      3889 6.21024E+00
 -1      3890 7.23066E+00
 -1      3891 5.52937E+00
 -1      3892 1.59982E-01
 -1      3893 1.57324E-01
 -1      3894 1.86344E-01
 -1      3895 4.29071E+00
 -1      3896 4.38544E+00
 -1      3897 1.78187E+00
 -1      3898 6.97044E+00
 -1      3899 5.77346E+00
 -1      3900 5.56640E+00
 -1      3901 3.47005E+00
 -1      3902 3.38891E+00
 -1      3903 1.40665E-01
 -1      3904 1.48333E-01
 -1      3905 1.13552E-01
 -1      3906 1.59200E-01
 -1      3907 5.87724E+00
 -1      3908 2.05000E-01
 -1      3909 1.87544E-01
 -1      3910 1.67023E+00
 -1      3911 1.63888E-01
 -1      3912 1.64770E-01
 -1      3913 1.92908E-01
 -1      3914 4.82915E-01
 -1      3915 4.13368E-01
 -1      3916 3.92801E-01
 -1      3917 2.86873E+00
 -1      3918 6.86612E+00
 -1      3919 5.84476E+00
 -1      3920 7.14432E-01
 -1      3921 6.44269E-01
 -1      3922 5.61806E-01
 -1      3923 1.79318E-01
 -1      3924 1.71569E-01
 -1      3925 1.84867E-01
 -1      3926 1.80285E-01
 -1      3927 1.99903E-01
 -1      3928 1.64412E-01
 -1      3929 1.83834E-01
 -1      3930 1.92550E-01
 -1      3931 1.86109E-01
 -1      3932 1.86109E-01
 -1      3933 2.10536E-01
 -1      3934 1.94467E-01
 -1      3935 6.69309E+00
 -1      3936 5.69018E+00
 -1      3937 5.19927E+00
 -1      3938 1.35472E-01
 -1      3939 1.71569E-01
 -1      3940 1.84611E-01
 -1      3941 2.79159E-01
 -1      3942 2.41543E-01
 -1      3943 1.97173E-01
 -1      3944 4.31415E+00
 -1      3945 2.75093E+00
 -1      3946 5.56498E+00
 -1      3947 4.03438E+00
 -1      3948 5.51024E+00
 -1      3949 4.85627E+00
 -1      3950 5.22702E+00
 -1      3951 5.36778E+00
 -1      3952 4.86603E+00
 -1      3953 3.61520E+00
 -1      3954 4.69418E+00
 -1      3955 3.49244E+00
 -1      3956 5.99635E+00
 -1      3957 1.33023E-01
 -1      3958 1.37032E-01
 -1      3959 1.41442E-01
 -1      3960 1.32040E-01
 -1      3961 1.45325E-01
 -1      3962 1.78999E-01
 -1      3963 1.33634E+00
 -1      3964 1.15989E+00
 -1      3965 4.61610E+00
 -1      3966 1.59420E-01
 -1      3967 1.72494E-01
 -1      3968 1.60047E-01
 -1      3969 1.88945E-01
 -1      3970 2.02003E-01
 -1      3971 1.90594E-01
 -1      3972 2.20689E-01
 -1      3973 2.61421E-01
 -1      3974 2.25731E-01
 -1      3975 3.00356E-01
 -1      3976 3.51391E-01
 -1      3977 2.83351E-01
 -1      3978 4.07095E-01
 -1      3979 4.69092E-01
 -1      3980 3.77990E-01
 -1      3981 5.42178E-01
 -1      3982 6.17526E-01
 -1      3983 5.06780E-01
 -1      3984 7.16910E-01
 -1      3985 8.07953E-01
 -1      3986 6.79249E-01
 -1      3987 9.46637E-01
 -1      3988 1.05600E+00
 -1      3989 9.17317E-01
 -1      3990 1.24704E+00
 -1      3991 1.40442E+00
 -1      3992 1.24704E+00
 -1      3993 2.09087E+00
 -1      3994 2.45168E+00
 -1      3995 2.12453E+00
 -1      3996 2.96806E+00
 -1      3997 3.33354E+00
 -1      3998 3.32736E+00
 -1      3999 1.73160E+00
 -1      4000 1.98024E+00
 -1      4001 2.64345E-01
 -1      4002 2.39126E-01
 -1      4003 2.45689E-01
 -1      4004 1.84145E+00
 -1      4005 1.60371E+00
 -1      4006 1.50756E+00
 -1      4007 1.95222E+00
 -1      4008 1.62375E+00
 -1      4009 1.37578E+00
 -1      4010 1.20460E+00
 -1      4011 1.62375E+00
 -1      4012 1.02324E+00
 -1      4013 9.18941E-01
 -1      4014 1.19442E+00
 -1      4015 7.89620E-01
 -1      4016 7.02845E-01
 -1      4017 8.83748E-01
 -1      4018 6.09433E-01
 -1      4019 5.38908E-01
 -1      4020 6.61016E-01
 -1      4021 4.69829E-01
 -1      4022 4.12656E-01
 -1      4023 4.98525E-01
 -1      4024 3.60258E-01
 -1      4025 3.14147E-01
 -1      4026 3.77048E-01
 -1      4027 3.01057E-01
 -1      4028 1.78403E-01
 -1      4029 1.78403E-01
 -1      4030 1.34558E-01
 -1      4031 1.40106E-01
 -1      4032 5.39864E+00
 -1      4033 5.87724E+00
 -1      4034 4.51304E+00
 -1      4035 9.28972E-01
 -1      4036 1.06678E+00
 -1      4037 4.03776E-01
 -1      4038 4.65905E-01
 -1      4039 3.05669E-01
 -1      4040 3.54156E-01
 -1      4041 3.61753E-01
 -1      4042 2.30556E-01
 -1      4043 2.67993E-01
 -1      4044 2.74458E-01
 -1      4045 2.16762E-01
 -1      4046 1.56828E-01
 -1      4047 1.25602E-01
 -1      4048 1.19032E-01
 -1      4049 1.58483E-01
 -1      4050 1.25241E+00
 -1      4051 1.43728E+00
 -1      4052 1.63565E+00
 -1      4053 1.15570E+00
 -1      4054 1.71382E-01
 -1      4055 1.54644E-01
 -1      4056 1.63674E-01
 -1      4057 3.94701E+00
 -1      4058 5.31214E-01
 -1      4059 6.11015E-01
 -1      4060 4.76682E-01
 -1      4061 8.80716E-02
 -1      4062 9.30849E-02
 -1      4063 6.99824E-01
 -1      4064 8.03742E-01
 -1      4065 8.44840E-01
 -1      4066 6.30800E-01
 -1      4067 6.21024E+00
 -1      4068 6.21024E+00
 -1      4069 2.67563E+00
 -1      4070 2.27046E+00
 -1      4071 2.20394E+00
 -1      4072 5.21818E+00
 -1      4073 4.90484E+00
 -1      4074 4.59867E+00
 -1      4075 2.86873E+00
 -1      4076 3.70695E+00
 -1      4077 2.81846E+00
 -1      4078 1.10098E-01
 -1      4079 1.19110E-01
 -1      4080 1.33022E-01
 -1      4081 1.03079E-01
 -1      4082 4.19387E+00
 -1      4083 9.87751E-01
 -1      4084 8.55625E-01
 -1      4085 1.06805E+00
 -1      4086 3.07450E+00
 -1      4087 2.43779E+00
 -1      4088 2.35730E+00
 -1      4089 1.03364E-01
 -1      4090 1.04279E-01
 -1      4091 5.55437E+00
 -1      4092 3.11561E-01
 -1      4093 2.02667E-01
 -1      4094 2.83460E-01
 -1      4095 2.30678E-01
 -1      4096 2.30678E-01
 -1      4097 4.05067E+00
 -1      4098 4.82883E+00
 -1      4099 7.30859E-02
 -1      4100 1.04279E-01
 -1      4101 4.37284E+00
 -1      4102 1.25148E-01
 -1      4103 5.34633E-01
 -1      4104 4.05611E+00
 -1      4105 5.14877E+00
 -1      4106 4.49289E+00
 -1      4107 2.57441E-01
 -1      4108 2.57083E-01
 -1      4109 2.95211E-01
 -1      4110 7.37783E-01
 -1      4111 6.36876E-01
 -1      4112 7.78069E-01
 -1      4113 4.19387E+00
 -1      4114 4.10288E-01
 -1      4115 3.47347E-01
 -1      4116 3.15622E-01
 -1      4117 2.98136E-01
 -1      4118 2.47434E-01
 -1      4119 5.50955E+00
 -1      4120 4.43025E+00
 -1      4121 1.98185E-01
 -1      4122 2.00459E-01
 -1      4123 2.20479E-01
 -1      4124 2.63075E-01
 -1      4125 1.38825E-01
 -1      4126 1.40837E-01
 -1      4127 1.52266E-01
 -1      4128 1.04279E-01
 -1      4129 4.19862E+00
 -1      4130 4.60894E+00
 -1      4131 7.05876E-02
 -1      4132 7.69356E-02
 -1      4133 7.49293E-02
 -1      4134 2.70825E+00
 -1      4135 3.37910E+00
 -1      4136 3.30380E+00
 -1      4137 1.64145E-01
 -1      4138 8.74805E-02
 -1      4139 8.06861E-02
 -1      4140 1.65665E-01
 -1      4141 4.45720E+00
 -1      4142 4.21075E+00
 -1      4143 1.84292E-01
 -1      4144 1.84292E-01
 -1      4145 1.16206E-01
 -1      4146 1.35153E-01
 -1      4147 6.60083E-02
 -1      4148 6.60083E-02
 -1      4149 1.69582E+00
 -1      4150 1.44784E+00
 -1      4151 1.60047E-01
 -1      4152 1.74143E-01
 -1      4153 2.04202E-01
 -1      4154 2.20653E-01
 -1      4155 2.04202E-01
 -1      4156 2.25731E-01
 -1      4157 2.44417E-01
 -1      4158 2.39339E-01
 -1      4159 2.75593E-01
 -1      4160 3.14528E-01
 -1      4161 2.75593E-01
 -1      4162 3.54489E-01
 -1      4163 4.10192E-01
 -1      4164 3.46731E-01
 -1      4165 4.96223E-01
 -1      4166 5.69309E-01
 -1      4167 4.72721E-01
 -1      4168 5.88440E-01
 -1      4169 6.87823E-01
 -1      4170 5.77883E-01
 -1      4171 8.03895E-01
 -1      4172 9.42579E-01
 -1      4173 7.13085E-01
 -1      4174 1.12078E+00
 -1      4175 1.31182E+00
 -1      4176 1.00736E+00
 -1      4177 1.67935E+00
 -1      4178 2.36580E+00
 -1      4179 1.55309E+00
 -1      4180 1.81244E-01
 -1      4181 1.68042E-01
 -1      4182 1.69836E-01
 -1      4183 1.04372E-01
 -1      4184 1.07473E-01
 -1      4185 4.62888E+00
 -1      4186 3.27313E+00
 -1      4187 3.97466E+00
 -1      4188 4.37284E+00
 -1      4189 2.20967E-01
 -1      4190 1.95176E-01
 -1      4191 2.39943E-01
 -1      4192 1.24465E+00
 -1      4193 1.06330E+00
 -1      4194 1.31672E+00
 -1      4195 9.57709E-01
 -1      4196 8.28388E-01
 -1      4197 1.00794E+00
 -1      4198 7.15896E-01
 -1      4199 6.22485E-01
 -1      4200 7.89857E-01
 -1      4201 5.33214E-01
 -1      4202 4.64134E-01
 -1      4203 5.88094E-01
 -1      4204 3.94686E-01
 -1      4205 3.42289E-01
 -1      4206 4.29375E-01
 -1      4207 9.48698E-02
 -1      4208 3.13181E-01
 -1      4209 3.62801E-01
 -1      4210 6.50573E+00
 -1      4211 5.52690E-01
 -1      4212 4.73798E-01
 -1      4213 4.28344E-01
 -1      4214 5.76041E-01
 -1      4215 1.51677E+00
 -1      4216 1.24940E+00
 -1      4217 3.50375E+00
 -1      4218 3.50375E+00
 -1      4219 3.56918E+00
 -1      4220 4.09626E-01
 -1      4221 4.74935E-01
 -1      4222 3.61054E-01
 -1      4223 2.90654E+00
 -1      4224 2.23569E+00
 -1      4225 1.80668E+00
 -1      4226 2.43564E+00
 -1      4227 3.23312E-01
 -1      4228 3.10222E-01
 -1      4229 2.95211E-01
 -1      4230 3.40950E-01
 -1      4231 2.52543E+00
 -1      4232 2.03986E+00
 -1      4233 1.86395E+00
 -1      4234 2.95569E+00
 -1      4235 1.12953E-01
 -1      4236 7.16299E-02
 -1      4237 1.02823E-01
 -1      4238 2.35570E+00
 -1      4239 3.24419E+00
 -1      4240 5.55437E+00
 -1      4241 5.52937E+00
 -1      4242 1.07427E+00
 -1      4243 9.02125E-01
 -1      4244 1.08348E+00
 -1      4245 8.56893E-02
 -1      4246 2.47674E+00
 -1      4247 2.92191E+00
 -1      4248 1.99544E-01
 -1      4249 3.43829E+00
 -1      4250 3.33676E+00
 -1      4251 2.58906E+00
 -1      4252 1.22806E-01
 -1      4253 1.08146E-01
 -1      4254 1.64163E+00
 -1      4255 2.06737E+00
 -1      4256 1.34731E+00
 -1      4257 3.90920E+00
 -1      4258 4.70744E-01
 -1      4259 5.37799E-01
 -1      4260 6.26609E-01
 -1      4261 2.66861E-01
 -1      4262 3.04537E-01
 -1      4263 3.05584E-01
 -1      4264 2.50558E-01
 -1      4265 3.21973E-01
 -1      4266 7.90558E-01
 -1      4267 6.72717E-01
 -1      4268 7.96773E-01
 -1      4269 1.54060E-01
 -1      4270 1.40837E-01
 -1      4271 1.36029E-01
 -1      4272 3.09456E-01
 -1      4273 1.54852E+00
 -1      4274 3.21973E-01
 -1      4275 3.21973E-01
 -1      4276 3.09456E-01
 -1      4277 3.40950E-01
 -1      4278 3.50925E-01
 -1      4279 3.01714E-01
 -1      4280 3.10643E+00
 -1      4281 6.69836E-02
 -1      4282 7.81197E-02
 -1      4283 9.58682E-01
 -1      4284 1.14431E+00
 -1      4285 1.15029E+00
 -1      4286 5.25303E-01
 -1      4287 4.61793E-01
 -1      4288 4.47884E-01
 -1      4289 7.17210E-01
 -1      4290 8.42440E-01
 -1      4291 8.31052E-01
 -1      4292 6.24209E-01
 -1      4293 3.98521E+00
 -1      4294 5.55437E+00
 -1      4295 4.62888E+00
 -1      4296 1.43240E-01
 -1      4297 1.57335E-01
 -1      4298 1.30310E-01
 -1      4299 8.73385E-02
 -1      4300 9.52841E-02
 -1      4301 1.12297E-01
 -1      4302 1.02504E-01
 -1      4303 3.20077E+00
 -1      4304 4.26225E+00
 -1      4305 6.78891E-02
 -1      4306 6.64331E-02
 -1      4307 8.35976E-02
 -1      4308 6.08115E-02
 -1      4309 1.81095E+00
 -1      4310 2.36706E+00
 -1      4311 1.76985E+00
 -1      4312 1.44342E+00
 -1      4313 2.09936E-01
 -1      4314 1.94160E-01
 -1      4315 1.94160E-01
 -1      4316 2.18485E-01
 -1      4317 2.04553E-01
 -1      4318 2.28877E-01
 -1      4319 2.34261E-01
 -1      4320 2.39339E-01
 -1      4321 2.56074E-01
 -1      4322 2.87250E-01
 -1      4323 2.50996E-01
 -1      4324 3.21893E-01
 -1      4325 3.61854E-01
 -1      4326 4.72721E-01
 -1      4327 5.58752E-01
 -1      4328 6.97775E-01
 -1      4329 8.13846E-01
 -1      4330 9.60054E-01
 -1      4331 1.13825E+00
 -1      4332 1.39611E+00
 -1      4333 9.44744E-01
 -1      4334 1.17478E+00
 -1      4335 9.99645E-01
 -1      4336 1.32906E+00
 -1      4337 1.12587E+00
 -1      4338 1.03041E+00
 -1      4339 9.24822E-01
 -1      4340 8.08580E-01
 -1      4341 6.96088E-01
 -1      4342 6.05486E-01
 -1      4343 5.16215E-01
 -1      4344 4.53351E-01
 -1      4345 3.83903E-01
 -1      4346 1.47995E+00
 -1      4347 1.91383E+00
 -1      4348 1.56979E+00
 -1      4349 1.37894E+00
 -1      4350 2.29490E+00
 -1      4351 2.87578E+00
 -1      4352 5.97358E-01
 -1      4353 5.13172E-01
 -1      4354 6.09847E-01
 -1      4355 2.67070E-01
 -1      4356 2.40604E-01
 -1      4357 2.45612E-01
 -1      4358 3.02374E-01
 -1      4359 9.93133E-02
 -1      4360 2.04202E-01
 -1      4361 2.34261E-01
 -1      4362 3.18101E-01
 -1      4363 7.86118E-02
 -1      4364 2.20055E+00
 -1      4365 3.02374E-01
 -1      4366 8.53438E-01
 -1      4367 5.60772E-01
 -1      4368 5.79903E-01
 -1      4369 1.48648E+00
 -1      4370 3.37078E-01
 -1      4371 2.67731E-01
 -1      4372 7.41871E-01
 -1      4373 5.60772E-01
 -1      4374 1.22515E-01
 -1      4375 1.64101E-01
 -1      4376 1.47294E-01
 -1      4377 6.80665E-01
 -1      4378 1.29264E-01
 -1      4379 1.04275E+00
 -1      4380 1.24575E+00
 -1      4381 2.50996E-01
 -1      4382 2.34261E-01
 -1      4383 8.84649E-02
 -1      4384 9.03457E-02
 -1      4385 5.46620E-01
 -1      4386 6.24000E-01
 -1      4387 1.11251E-01
 -1      4388 5.48641E-01
 -1      4389 2.28877E-01
 -3
 9999
