    1C
    1UUSER                                                              
    1UDATE              27.october.2022                                 
    1UTIME              00:50:25                                        
    1UHOST                                                              
    1UPGM               CalculiX                                        
    1UVERSION           Version 2.17                             
    1UCOMPILETIME       Thu Jul 23 21:43:50 CEST 2020                    
    1UDIR                                                               
    1UDBN                                                               
    1UMAT    1SOLIDMATERIAL                                             
    2C                          4328                                     1
 -1         1 5.60032E+01 2.18182E+01 0.00000E+00
 -1         2 6.83863E+01 1.73437E+01 0.00000E+00
 -1         3 1.50000E+02 0.00000E+00 0.00000E+00
 -1         4 1.50000E+02 5.00000E+01 0.00000E+00
 -1         5 0.00000E+00 0.00000E+00 0.00000E+00
 -1         6 0.00000E+00 5.00000E+01 0.00000E+00
 -1         7 0.00000E+00 4.70500E+01 0.00000E+00
 -1         8 0.00000E+00 4.41000E+01 0.00000E+00
 -1         9 0.00000E+00 4.11500E+01 0.00000E+00
 -1        10 0.00000E+00 3.82000E+01 0.00000E+00
 -1        11 0.00000E+00 3.52500E+01 0.00000E+00
 -1        12 0.00000E+00 3.23500E+01 0.00000E+00
 -1        13 0.00000E+00 2.94000E+01 0.00000E+00
 -1        14 0.00000E+00 2.64500E+01 0.00000E+00
 -1        15 0.00000E+00 2.35000E+01 0.00000E+00
 -1        16 0.00000E+00 2.05500E+01 0.00000E+00
 -1        17 0.00000E+00 1.76000E+01 0.00000E+00
 -1        18 0.00000E+00 1.47000E+01 0.00000E+00
 -1        19 0.00000E+00 1.17500E+01 0.00000E+00
 -1        20 0.00000E+00 8.80000E+00 0.00000E+00
 -1        21 0.00000E+00 5.85000E+00 0.00000E+00
 -1        22 0.00000E+00 2.90000E+00 0.00000E+00
 -1        23 3.15000E+00 5.00000E+01 0.00000E+00
 -1        24 6.15000E+00 5.00000E+01 0.00000E+00
 -1        25 9.15000E+00 5.00000E+01 0.00000E+00
 -1        26 1.21500E+01 5.00000E+01 0.00000E+00
 -1        27 1.51500E+01 5.00000E+01 0.00000E+00
 -1        28 1.81500E+01 5.00000E+01 0.00000E+00
 -1        29 2.11500E+01 5.00000E+01 0.00000E+00
 -1        30 2.41500E+01 5.00000E+01 0.00000E+00
 -1        31 2.71500E+01 5.00000E+01 0.00000E+00
 -1        32 3.01500E+01 5.00000E+01 0.00000E+00
 -1        33 3.31500E+01 5.00000E+01 0.00000E+00
 -1        34 3.61500E+01 5.00000E+01 0.00000E+00
 -1        35 3.91500E+01 5.00000E+01 0.00000E+00
 -1        36 4.21500E+01 5.00000E+01 0.00000E+00
 -1        37 4.51500E+01 5.00000E+01 0.00000E+00
 -1        38 4.81500E+01 5.00000E+01 0.00000E+00
 -1        39 5.11500E+01 5.00000E+01 0.00000E+00
 -1        40 5.41500E+01 5.00000E+01 0.00000E+00
 -1        41 5.71500E+01 5.00000E+01 0.00000E+00
 -1        42 6.01500E+01 5.00000E+01 0.00000E+00
 -1        43 6.31500E+01 5.00000E+01 0.00000E+00
 -1        44 6.61500E+01 5.00000E+01 0.00000E+00
 -1        45 6.91500E+01 5.00000E+01 0.00000E+00
 -1        46 7.21500E+01 5.00000E+01 0.00000E+00
 -1        47 7.51500E+01 5.00000E+01 0.00000E+00
 -1        48 7.81500E+01 5.00000E+01 0.00000E+00
 -1        49 8.11500E+01 5.00000E+01 0.00000E+00
 -1        50 8.41500E+01 5.00000E+01 0.00000E+00
 -1        51 8.71500E+01 5.00000E+01 0.00000E+00
 -1        52 9.01500E+01 5.00000E+01 0.00000E+00
 -1        53 9.31500E+01 5.00000E+01 0.00000E+00
 -1        54 9.61500E+01 5.00000E+01 0.00000E+00
 -1        55 9.91500E+01 5.00000E+01 0.00000E+00
 -1        56 1.02150E+02 5.00000E+01 0.00000E+00
 -1        57 1.05150E+02 5.00000E+01 0.00000E+00
 -1        58 1.08150E+02 5.00000E+01 0.00000E+00
 -1        59 1.11150E+02 5.00000E+01 0.00000E+00
 -1        60 1.14150E+02 5.00000E+01 0.00000E+00
 -1        61 1.17150E+02 5.00000E+01 0.00000E+00
 -1        62 1.20150E+02 5.00000E+01 0.00000E+00
 -1        63 1.23150E+02 5.00000E+01 0.00000E+00
 -1        64 1.26150E+02 5.00000E+01 0.00000E+00
 -1        65 1.29150E+02 5.00000E+01 0.00000E+00
 -1        66 1.32150E+02 5.00000E+01 0.00000E+00
 -1        67 1.35150E+02 5.00000E+01 0.00000E+00
 -1        68 1.38150E+02 5.00000E+01 0.00000E+00
 -1        69 1.41150E+02 5.00000E+01 0.00000E+00
 -1        70 1.44150E+02 5.00000E+01 0.00000E+00
 -1        71 1.47150E+02 5.00000E+01 0.00000E+00
 -1        72 3.15000E+00 0.00000E+00 0.00000E+00
 -1        73 6.15000E+00 0.00000E+00 0.00000E+00
 -1        74 9.15000E+00 0.00000E+00 0.00000E+00
 -1        75 1.21500E+01 0.00000E+00 0.00000E+00
 -1        76 1.51500E+01 0.00000E+00 0.00000E+00
 -1        77 1.81500E+01 0.00000E+00 0.00000E+00
 -1        78 2.11500E+01 0.00000E+00 0.00000E+00
 -1        79 2.41500E+01 0.00000E+00 0.00000E+00
 -1        80 2.71500E+01 0.00000E+00 0.00000E+00
 -1        81 3.01500E+01 0.00000E+00 0.00000E+00
 -1        82 3.31500E+01 0.00000E+00 0.00000E+00
 -1        83 3.61500E+01 0.00000E+00 0.00000E+00
 -1        84 3.91500E+01 0.00000E+00 0.00000E+00
 -1        85 4.21500E+01 0.00000E+00 0.00000E+00
 -1        86 4.51500E+01 0.00000E+00 0.00000E+00
 -1        87 4.81500E+01 0.00000E+00 0.00000E+00
 -1        88 5.11500E+01 0.00000E+00 0.00000E+00
 -1        89 5.41500E+01 0.00000E+00 0.00000E+00
 -1        90 5.71500E+01 0.00000E+00 0.00000E+00
 -1        91 6.01500E+01 0.00000E+00 0.00000E+00
 -1        92 6.31500E+01 0.00000E+00 0.00000E+00
 -1        93 6.58500E+01 0.00000E+00 0.00000E+00
 -1        94 6.88500E+01 0.00000E+00 0.00000E+00
 -1        95 7.18500E+01 0.00000E+00 0.00000E+00
 -1        96 7.48500E+01 0.00000E+00 0.00000E+00
 -1        97 7.78500E+01 0.00000E+00 0.00000E+00
 -1        98 8.08500E+01 0.00000E+00 0.00000E+00
 -1        99 8.38500E+01 0.00000E+00 0.00000E+00
 -1       100 8.68500E+01 0.00000E+00 0.00000E+00
 -1       101 9.00000E+01 0.00000E+00 0.00000E+00
 -1       102 9.30000E+01 0.00000E+00 0.00000E+00
 -1       103 9.60000E+01 0.00000E+00 0.00000E+00
 -1       104 9.90000E+01 0.00000E+00 0.00000E+00
 -1       105 1.02000E+02 0.00000E+00 0.00000E+00
 -1       106 1.05000E+02 0.00000E+00 0.00000E+00
 -1       107 1.08000E+02 0.00000E+00 0.00000E+00
 -1       108 1.11000E+02 0.00000E+00 0.00000E+00
 -1       109 1.14000E+02 0.00000E+00 0.00000E+00
 -1       110 1.17000E+02 0.00000E+00 0.00000E+00
 -1       111 1.20000E+02 0.00000E+00 0.00000E+00
 -1       112 1.23000E+02 0.00000E+00 0.00000E+00
 -1       113 1.26000E+02 0.00000E+00 0.00000E+00
 -1       114 1.29000E+02 0.00000E+00 0.00000E+00
 -1       115 1.32000E+02 0.00000E+00 0.00000E+00
 -1       116 1.35000E+02 0.00000E+00 0.00000E+00
 -1       117 1.38000E+02 0.00000E+00 0.00000E+00
 -1       118 1.41000E+02 0.00000E+00 0.00000E+00
 -1       119 1.44000E+02 0.00000E+00 0.00000E+00
 -1       120 1.47000E+02 0.00000E+00 0.00000E+00
 -1       121 1.50000E+02 2.95000E+00 0.00000E+00
 -1       122 1.50000E+02 5.90000E+00 0.00000E+00
 -1       123 1.50000E+02 8.85000E+00 0.00000E+00
 -1       124 1.50000E+02 1.18000E+01 0.00000E+00
 -1       125 1.50000E+02 1.47500E+01 0.00000E+00
 -1       126 1.50000E+02 1.76500E+01 0.00000E+00
 -1       127 1.50000E+02 2.06000E+01 0.00000E+00
 -1       128 1.50000E+02 2.35500E+01 0.00000E+00
 -1       129 1.50000E+02 2.65000E+01 0.00000E+00
 -1       130 1.50000E+02 2.94500E+01 0.00000E+00
 -1       131 1.50000E+02 3.24000E+01 0.00000E+00
 -1       132 1.50000E+02 3.53000E+01 0.00000E+00
 -1       133 1.50000E+02 3.82500E+01 0.00000E+00
 -1       134 1.50000E+02 4.12000E+01 0.00000E+00
 -1       135 1.50000E+02 4.41500E+01 0.00000E+00
 -1       136 1.50000E+02 4.71000E+01 0.00000E+00
 -1       137 6.82375E+01 1.59083E+01 0.00000E+00
 -1       138 6.77651E+01 1.44607E+01 0.00000E+00
 -1       139 6.70569E+01 1.32395E+01 0.00000E+00
 -1       140 6.60959E+01 1.21649E+01 0.00000E+00
 -1       141 6.49455E+01 1.13160E+01 0.00000E+00
 -1       142 6.35160E+01 1.06755E+01 0.00000E+00
 -1       143 6.20845E+01 1.03786E+01 0.00000E+00
 -1       144 6.04624E+01 1.04049E+01 0.00000E+00
 -1       145 5.90202E+01 1.07557E+01 0.00000E+00
 -1       146 5.76041E+01 1.14534E+01 0.00000E+00
 -1       147 5.64794E+01 1.23515E+01 0.00000E+00
 -1       148 5.55135E+01 1.35344E+01 0.00000E+00
 -1       149 5.48223E+01 1.49118E+01 0.00000E+00
 -1       150 5.44711E+01 1.62574E+01 0.00000E+00
 -1       151 5.43951E+01 1.76957E+01 0.00000E+00
 -1       152 5.46294E+01 1.91725E+01 0.00000E+00
 -1       153 5.51687E+01 2.05594E+01 0.00000E+00
 -1       154 5.70007E+01 2.27995E+01 0.00000E+00
 -1       155 5.81508E+01 2.35511E+01 0.00000E+00
 -1       156 5.94430E+01 2.40685E+01 0.00000E+00
 -1       157 6.08200E+01 2.43207E+01 0.00000E+00
 -1       158 6.22612E+01 2.42888E+01 0.00000E+00
 -1       159 6.36879E+01 2.39544E+01 0.00000E+00
 -1       160 6.49769E+01 2.33526E+01 0.00000E+00
 -1       161 6.61117E+01 2.25080E+01 0.00000E+00
 -1       162 6.70469E+01 2.14616E+01 0.00000E+00
 -1       163 6.77967E+01 2.01555E+01 0.00000E+00
 -1       164 6.82254E+01 1.88360E+01 0.00000E+00
 -1       165 2.59800E+00 4.55750E+01 0.00000E+00
 -1       166 2.59800E+00 4.26250E+01 0.00000E+00
 -1       167 2.59800E+00 3.96750E+01 0.00000E+00
 -1       168 2.59800E+00 3.67250E+01 0.00000E+00
 -1       169 2.59800E+00 3.38250E+01 0.00000E+00
 -1       170 2.59800E+00 3.08750E+01 0.00000E+00
 -1       171 2.59800E+00 2.79250E+01 0.00000E+00
 -1       172 2.59800E+00 2.49750E+01 0.00000E+00
 -1       173 2.59800E+00 2.20250E+01 0.00000E+00
 -1       174 2.59800E+00 1.90750E+01 0.00000E+00
 -1       175 2.59800E+00 1.61750E+01 0.00000E+00
 -1       176 2.59800E+00 1.32250E+01 0.00000E+00
 -1       177 2.59800E+00 1.02750E+01 0.00000E+00
 -1       178 2.59800E+00 7.32500E+00 0.00000E+00
 -1       179 2.59800E+00 4.37500E+00 0.00000E+00
 -1       180 2.87400E+00 2.18750E+00 0.00000E+00
 -1       181 4.65000E+00 4.74020E+01 0.00000E+00
 -1       182 7.65000E+00 4.74020E+01 0.00000E+00
 -1       183 1.06500E+01 4.74020E+01 0.00000E+00
 -1       184 1.36500E+01 4.74020E+01 0.00000E+00
 -1       185 1.66500E+01 4.74020E+01 0.00000E+00
 -1       186 1.96500E+01 4.74020E+01 0.00000E+00
 -1       187 2.26500E+01 4.74020E+01 0.00000E+00
 -1       188 2.56500E+01 4.74020E+01 0.00000E+00
 -1       189 2.86500E+01 4.74020E+01 0.00000E+00
 -1       190 3.16500E+01 4.74020E+01 0.00000E+00
 -1       191 3.46500E+01 4.74020E+01 0.00000E+00
 -1       192 3.76500E+01 4.74020E+01 0.00000E+00
 -1       193 4.06500E+01 4.74020E+01 0.00000E+00
 -1       194 4.36500E+01 4.74020E+01 0.00000E+00
 -1       195 4.66500E+01 4.74020E+01 0.00000E+00
 -1       196 4.96500E+01 4.74020E+01 0.00000E+00
 -1       197 5.26500E+01 4.74020E+01 0.00000E+00
 -1       198 5.56500E+01 4.74020E+01 0.00000E+00
 -1       199 5.86500E+01 4.74020E+01 0.00000E+00
 -1       200 6.16500E+01 4.74020E+01 0.00000E+00
 -1       201 6.46500E+01 4.74020E+01 0.00000E+00
 -1       202 6.76500E+01 4.74020E+01 0.00000E+00
 -1       203 7.06500E+01 4.74020E+01 0.00000E+00
 -1       204 7.36500E+01 4.74020E+01 0.00000E+00
 -1       205 7.66500E+01 4.74020E+01 0.00000E+00
 -1       206 7.96500E+01 4.74020E+01 0.00000E+00
 -1       207 8.26500E+01 4.74020E+01 0.00000E+00
 -1       208 8.56500E+01 4.74020E+01 0.00000E+00
 -1       209 8.86500E+01 4.74020E+01 0.00000E+00
 -1       210 9.16500E+01 4.74020E+01 0.00000E+00
 -1       211 9.46500E+01 4.74020E+01 0.00000E+00
 -1       212 9.76500E+01 4.74020E+01 0.00000E+00
 -1       213 1.00650E+02 4.74020E+01 0.00000E+00
 -1       214 1.03650E+02 4.74020E+01 0.00000E+00
 -1       215 1.06650E+02 4.74020E+01 0.00000E+00
 -1       216 1.09650E+02 4.74020E+01 0.00000E+00
 -1       217 1.12650E+02 4.74020E+01 0.00000E+00
 -1       218 1.15650E+02 4.74020E+01 0.00000E+00
 -1       219 1.18650E+02 4.74020E+01 0.00000E+00
 -1       220 1.21650E+02 4.74020E+01 0.00000E+00
 -1       221 1.24650E+02 4.74020E+01 0.00000E+00
 -1       222 1.27650E+02 4.74020E+01 0.00000E+00
 -1       223 1.30650E+02 4.74020E+01 0.00000E+00
 -1       224 1.33650E+02 4.74020E+01 0.00000E+00
 -1       225 1.36650E+02 4.74020E+01 0.00000E+00
 -1       226 1.39650E+02 4.74020E+01 0.00000E+00
 -1       227 1.42650E+02 4.74020E+01 0.00000E+00
 -1       228 1.45650E+02 4.74020E+01 0.00000E+00
 -1       229 5.87400E+00 2.18750E+00 0.00000E+00
 -1       230 8.87400E+00 2.18750E+00 0.00000E+00
 -1       231 1.18740E+01 2.18750E+00 0.00000E+00
 -1       232 1.48740E+01 2.18750E+00 0.00000E+00
 -1       233 1.78740E+01 2.18750E+00 0.00000E+00
 -1       234 2.08740E+01 2.18750E+00 0.00000E+00
 -1       235 2.38740E+01 2.18750E+00 0.00000E+00
 -1       236 2.68740E+01 2.18750E+00 0.00000E+00
 -1       237 2.98740E+01 2.18750E+00 0.00000E+00
 -1       238 3.28740E+01 2.18750E+00 0.00000E+00
 -1       239 3.58740E+01 2.18750E+00 0.00000E+00
 -1       240 3.88740E+01 2.18750E+00 0.00000E+00
 -1       241 4.18740E+01 2.18750E+00 0.00000E+00
 -1       242 4.48740E+01 2.18750E+00 0.00000E+00
 -1       243 4.78740E+01 2.18750E+00 0.00000E+00
 -1       244 5.08740E+01 2.18750E+00 0.00000E+00
 -1       245 5.38740E+01 2.18750E+00 0.00000E+00
 -1       246 5.68740E+01 2.18750E+00 0.00000E+00
 -1       247 5.98740E+01 2.18750E+00 0.00000E+00
 -1       248 6.28740E+01 2.18750E+00 0.00000E+00
 -1       249 6.55740E+01 2.18750E+00 0.00000E+00
 -1       250 6.85740E+01 2.18750E+00 0.00000E+00
 -1       251 7.15740E+01 2.18750E+00 0.00000E+00
 -1       252 7.45740E+01 2.18750E+00 0.00000E+00
 -1       253 7.75740E+01 2.18750E+00 0.00000E+00
 -1       254 8.05740E+01 2.18750E+00 0.00000E+00
 -1       255 8.35740E+01 2.18750E+00 0.00000E+00
 -1       256 8.65740E+01 2.18750E+00 0.00000E+00
 -1       257 8.97240E+01 2.18750E+00 0.00000E+00
 -1       258 9.27240E+01 2.18750E+00 0.00000E+00
 -1       259 9.57240E+01 2.18750E+00 0.00000E+00
 -1       260 9.87240E+01 2.18750E+00 0.00000E+00
 -1       261 1.01724E+02 2.18750E+00 0.00000E+00
 -1       262 1.04724E+02 2.18750E+00 0.00000E+00
 -1       263 1.07724E+02 2.18750E+00 0.00000E+00
 -1       264 1.10724E+02 2.18750E+00 0.00000E+00
 -1       265 1.13724E+02 2.18750E+00 0.00000E+00
 -1       266 1.16724E+02 2.18750E+00 0.00000E+00
 -1       267 1.19724E+02 2.18750E+00 0.00000E+00
 -1       268 1.22724E+02 2.18750E+00 0.00000E+00
 -1       269 1.25724E+02 2.18750E+00 0.00000E+00
 -1       270 1.28724E+02 2.18750E+00 0.00000E+00
 -1       271 1.31724E+02 2.18750E+00 0.00000E+00
 -1       272 1.34724E+02 2.18750E+00 0.00000E+00
 -1       273 1.37724E+02 2.18750E+00 0.00000E+00
 -1       274 1.40724E+02 2.18750E+00 0.00000E+00
 -1       275 1.43724E+02 2.18750E+00 0.00000E+00
 -1       276 1.46724E+02 2.18750E+00 0.00000E+00
 -1       277 1.47402E+02 4.42500E+00 0.00000E+00
 -1       278 1.47402E+02 7.37500E+00 0.00000E+00
 -1       279 1.47402E+02 1.03250E+01 0.00000E+00
 -1       280 1.47402E+02 1.32750E+01 0.00000E+00
 -1       281 1.47402E+02 1.61750E+01 0.00000E+00
 -1       282 1.47402E+02 1.91250E+01 0.00000E+00
 -1       283 1.47402E+02 2.20750E+01 0.00000E+00
 -1       284 1.47402E+02 2.50250E+01 0.00000E+00
 -1       285 1.47402E+02 2.79750E+01 0.00000E+00
 -1       286 1.47402E+02 3.09250E+01 0.00000E+00
 -1       287 1.47402E+02 3.38250E+01 0.00000E+00
 -1       288 1.47402E+02 3.67750E+01 0.00000E+00
 -1       289 1.47402E+02 3.97250E+01 0.00000E+00
 -1       290 1.47402E+02 4.26750E+01 0.00000E+00
 -1       291 1.46526E+02 4.50385E+01 0.00000E+00
 -1       292 6.95179E+01 1.65010E+01 0.00000E+00
 -1       293 6.93132E+01 1.47563E+01 0.00000E+00
 -1       294 6.84598E+01 1.32419E+01 0.00000E+00
 -1       295 6.74801E+01 1.18940E+01 0.00000E+00
 -1       296 6.62405E+01 1.07649E+01 0.00000E+00
 -1       297 6.47950E+01 9.73644E+00 0.00000E+00
 -1       298 6.30635E+01 9.25786E+00 0.00000E+00
 -1       299 6.12511E+01 9.01194E+00 0.00000E+00
 -1       300 5.94548E+01 9.40222E+00 0.00000E+00
 -1       301 5.77022E+01 9.86666E+00 0.00000E+00
 -1       302 5.62852E+01 1.09550E+01 0.00000E+00
 -1       303 5.49275E+01 1.20702E+01 0.00000E+00
 -1       304 5.37847E+01 1.35290E+01 0.00000E+00
 -1       305 5.34736E+01 1.52784E+01 0.00000E+00
 -1       306 5.32224E+01 1.69126E+01 0.00000E+00
 -1       307 5.33148E+01 1.86241E+01 0.00000E+00
 -1       308 5.36910E+01 2.03357E+01 0.00000E+00
 -1       309 5.43659E+01 2.19976E+01 0.00000E+00
 -1       310 5.56517E+01 2.31732E+01 0.00000E+00
 -1       311 5.68667E+01 2.42604E+01 0.00000E+00
 -1       312 5.83462E+01 2.49353E+01 0.00000E+00
 -1       313 5.98979E+01 2.54696E+01 0.00000E+00
 -1       314 6.15693E+01 2.56006E+01 0.00000E+00
 -1       315 6.33276E+01 2.56283E+01 0.00000E+00
 -1       316 6.48808E+01 2.48280E+01 0.00000E+00
 -1       317 6.62682E+01 2.39029E+01 0.00000E+00
 -1       318 6.74833E+01 2.27927E+01 0.00000E+00
 -1       319 6.86186E+01 2.14956E+01 0.00000E+00
 -1       320 6.91641E+01 1.98703E+01 0.00000E+00
 -1       321 6.96778E+01 1.82378E+01 0.00000E+00
 -1       322 5.19600E+00 4.11500E+01 0.00000E+00
 -1       323 5.19600E+00 4.41000E+01 0.00000E+00
 -1       324 5.19600E+00 3.52750E+01 0.00000E+00
 -1       325 5.19600E+00 3.23250E+01 0.00000E+00
 -1       326 5.19600E+00 2.93750E+01 0.00000E+00
 -1       327 5.19600E+00 2.64250E+01 0.00000E+00
 -1       328 5.19600E+00 2.34750E+01 0.00000E+00
 -1       329 5.19600E+00 2.05250E+01 0.00000E+00
 -1       330 5.19600E+00 1.76250E+01 0.00000E+00
 -1       331 5.19600E+00 1.46750E+01 0.00000E+00
 -1       332 5.19600E+00 1.17250E+01 0.00000E+00
 -1       333 5.19600E+00 8.77500E+00 0.00000E+00
 -1       334 5.19600E+00 5.82500E+00 0.00000E+00
 -1       335 5.53500E+00 4.00625E+00 0.00000E+00
 -1       336 8.53500E+00 4.00625E+00 0.00000E+00
 -1       337 9.15000E+00 4.48040E+01 0.00000E+00
 -1       338 1.21500E+01 4.48040E+01 0.00000E+00
 -1       339 1.51500E+01 4.48040E+01 0.00000E+00
 -1       340 1.81500E+01 4.48040E+01 0.00000E+00
 -1       341 2.11500E+01 4.48040E+01 0.00000E+00
 -1       342 2.41500E+01 4.48040E+01 0.00000E+00
 -1       343 2.71500E+01 4.48040E+01 0.00000E+00
 -1       344 3.01500E+01 4.48040E+01 0.00000E+00
 -1       345 3.31500E+01 4.48040E+01 0.00000E+00
 -1       346 3.61500E+01 4.48040E+01 0.00000E+00
 -1       347 3.91500E+01 4.48040E+01 0.00000E+00
 -1       348 4.21500E+01 4.48040E+01 0.00000E+00
 -1       349 4.51500E+01 4.48040E+01 0.00000E+00
 -1       350 4.81500E+01 4.48040E+01 0.00000E+00
 -1       351 5.11500E+01 4.48040E+01 0.00000E+00
 -1       352 5.41500E+01 4.48040E+01 0.00000E+00
 -1       353 5.71500E+01 4.48040E+01 0.00000E+00
 -1       354 6.01500E+01 4.48040E+01 0.00000E+00
 -1       355 6.31500E+01 4.48040E+01 0.00000E+00
 -1       356 6.61500E+01 4.48040E+01 0.00000E+00
 -1       357 6.91500E+01 4.48040E+01 0.00000E+00
 -1       358 7.21500E+01 4.48040E+01 0.00000E+00
 -1       359 7.51500E+01 4.48040E+01 0.00000E+00
 -1       360 7.81500E+01 4.48040E+01 0.00000E+00
 -1       361 8.11500E+01 4.48040E+01 0.00000E+00
 -1       362 8.41500E+01 4.48040E+01 0.00000E+00
 -1       363 8.71500E+01 4.48040E+01 0.00000E+00
 -1       364 9.01500E+01 4.48040E+01 0.00000E+00
 -1       365 9.31500E+01 4.48040E+01 0.00000E+00
 -1       366 9.61500E+01 4.48040E+01 0.00000E+00
 -1       367 9.91500E+01 4.48040E+01 0.00000E+00
 -1       368 1.02150E+02 4.48040E+01 0.00000E+00
 -1       369 1.05150E+02 4.48040E+01 0.00000E+00
 -1       370 1.08150E+02 4.48040E+01 0.00000E+00
 -1       371 1.11150E+02 4.48040E+01 0.00000E+00
 -1       372 1.14150E+02 4.48040E+01 0.00000E+00
 -1       373 1.17150E+02 4.48040E+01 0.00000E+00
 -1       374 1.20150E+02 4.48040E+01 0.00000E+00
 -1       375 1.23150E+02 4.48040E+01 0.00000E+00
 -1       376 1.26150E+02 4.48040E+01 0.00000E+00
 -1       377 1.29150E+02 4.48040E+01 0.00000E+00
 -1       378 1.32150E+02 4.48040E+01 0.00000E+00
 -1       379 1.35150E+02 4.48040E+01 0.00000E+00
 -1       380 1.38150E+02 4.48040E+01 0.00000E+00
 -1       381 1.41150E+02 4.48040E+01 0.00000E+00
 -1       382 1.43838E+02 4.49212E+01 0.00000E+00
 -1       383 1.15350E+01 4.00625E+00 0.00000E+00
 -1       384 1.45350E+01 4.00625E+00 0.00000E+00
 -1       385 1.75350E+01 4.00625E+00 0.00000E+00
 -1       386 2.05350E+01 4.00625E+00 0.00000E+00
 -1       387 2.35350E+01 4.00625E+00 0.00000E+00
 -1       388 2.65350E+01 4.00625E+00 0.00000E+00
 -1       389 2.95350E+01 4.00625E+00 0.00000E+00
 -1       390 3.25350E+01 4.00625E+00 0.00000E+00
 -1       391 3.55350E+01 4.00625E+00 0.00000E+00
 -1       392 3.85350E+01 4.00625E+00 0.00000E+00
 -1       393 4.15350E+01 4.00625E+00 0.00000E+00
 -1       394 4.45350E+01 4.00625E+00 0.00000E+00
 -1       395 4.75350E+01 4.00625E+00 0.00000E+00
 -1       396 5.05350E+01 4.00625E+00 0.00000E+00
 -1       397 5.35350E+01 4.00625E+00 0.00000E+00
 -1       398 5.65350E+01 4.00625E+00 0.00000E+00
 -1       399 5.95350E+01 4.00625E+00 0.00000E+00
 -1       400 6.25350E+01 4.00625E+00 0.00000E+00
 -1       401 6.52350E+01 4.00625E+00 0.00000E+00
 -1       402 6.82350E+01 4.00625E+00 0.00000E+00
 -1       403 7.12350E+01 4.00625E+00 0.00000E+00
 -1       404 7.42350E+01 4.00625E+00 0.00000E+00
 -1       405 7.72350E+01 4.00625E+00 0.00000E+00
 -1       406 8.02350E+01 4.00625E+00 0.00000E+00
 -1       407 8.32350E+01 4.00625E+00 0.00000E+00
 -1       408 8.62350E+01 4.00625E+00 0.00000E+00
 -1       409 8.93850E+01 4.00625E+00 0.00000E+00
 -1       410 9.23850E+01 4.00625E+00 0.00000E+00
 -1       411 9.53850E+01 4.00625E+00 0.00000E+00
 -1       412 9.83850E+01 4.00625E+00 0.00000E+00
 -1       413 1.01385E+02 4.00625E+00 0.00000E+00
 -1       414 1.04385E+02 4.00625E+00 0.00000E+00
 -1       415 1.07385E+02 4.00625E+00 0.00000E+00
 -1       416 1.10385E+02 4.00625E+00 0.00000E+00
 -1       417 1.13385E+02 4.00625E+00 0.00000E+00
 -1       418 1.16385E+02 4.00625E+00 0.00000E+00
 -1       419 1.19385E+02 4.00625E+00 0.00000E+00
 -1       420 1.22385E+02 4.00625E+00 0.00000E+00
 -1       421 1.25385E+02 4.00625E+00 0.00000E+00
 -1       422 1.28385E+02 4.00625E+00 0.00000E+00
 -1       423 1.31385E+02 4.00625E+00 0.00000E+00
 -1       424 1.34385E+02 4.00625E+00 0.00000E+00
 -1       425 1.37385E+02 4.00625E+00 0.00000E+00
 -1       426 1.40385E+02 4.00625E+00 0.00000E+00
 -1       427 1.43385E+02 4.00625E+00 0.00000E+00
 -1       428 1.45393E+02 4.21562E+00 0.00000E+00
 -1       429 1.44804E+02 1.18000E+01 0.00000E+00
 -1       430 1.44804E+02 8.85000E+00 0.00000E+00
 -1       431 1.45099E+02 6.53281E+00 0.00000E+00
 -1       432 1.44804E+02 1.47000E+01 0.00000E+00
 -1       433 1.44804E+02 1.76500E+01 0.00000E+00
 -1       434 1.44804E+02 2.06000E+01 0.00000E+00
 -1       435 1.44804E+02 2.35500E+01 0.00000E+00
 -1       436 1.44804E+02 2.65000E+01 0.00000E+00
 -1       437 1.44804E+02 2.94500E+01 0.00000E+00
 -1       438 1.44804E+02 3.23500E+01 0.00000E+00
 -1       439 1.44804E+02 3.53000E+01 0.00000E+00
 -1       440 1.44804E+02 3.82500E+01 0.00000E+00
 -1       441 1.44804E+02 4.12000E+01 0.00000E+00
 -1       442 7.02347E+01 1.32394E+01 0.00000E+00
 -1       443 7.08886E+01 1.72505E+01 0.00000E+00
 -1       444 7.06839E+01 1.55058E+01 0.00000E+00
 -1       445 6.92550E+01 1.18915E+01 0.00000E+00
 -1       446 6.79024E+01 1.01854E+01 0.00000E+00
 -1       447 5.19600E+00 3.82125E+01 0.00000E+00
 -1       448 6.42746E+01 8.24781E+00 0.00000E+00
 -1       449 6.23654E+01 7.60141E+00 0.00000E+00
 -1       450 6.00599E+01 7.85856E+00 0.00000E+00
 -1       451 5.82250E+01 8.30051E+00 0.00000E+00
 -1       452 5.61021E+01 9.24996E+00 0.00000E+00
 -1       453 5.47444E+01 1.03651E+01 0.00000E+00
 -1       454 5.30719E+01 1.17936E+01 0.00000E+00
 -1       455 5.20230E+01 1.41180E+01 0.00000E+00
 -1       456 5.17719E+01 1.57522E+01 0.00000E+00
 -1       457 5.16397E+01 1.78563E+01 0.00000E+00
 -1       458 5.21551E+01 1.97760E+01 0.00000E+00
 -1       459 5.25170E+01 2.17805E+01 0.00000E+00
 -1       460 5.40776E+01 2.36039E+01 0.00000E+00
 -1       461 5.52927E+01 2.46911E+01 0.00000E+00
 -1       462 5.69989E+01 2.59296E+01 0.00000E+00
 -1       463 5.85507E+01 2.64638E+01 0.00000E+00
 -1       464 6.06127E+01 2.70779E+01 0.00000E+00
 -1       465 6.23710E+01 2.71056E+01 0.00000E+00
 -1       466 6.49666E+01 2.69017E+01 0.00000E+00
 -1       467 6.63540E+01 2.59766E+01 0.00000E+00
 -1       468 6.78065E+01 2.43666E+01 0.00000E+00
 -1       469 6.90893E+01 2.30530E+01 0.00000E+00
 -1       470 7.03584E+01 2.11754E+01 0.00000E+00
 -1       471 7.08722E+01 1.95429E+01 0.00000E+00
 -1       472 6.63178E+01 9.12624E+00 0.00000E+00
 -1       473 1.00350E+01 6.60425E+00 0.00000E+00
 -1       474 7.79400E+00 3.08500E+01 0.00000E+00
 -1       475 7.79400E+00 3.38000E+01 0.00000E+00
 -1       476 7.79400E+00 2.49500E+01 0.00000E+00
 -1       477 7.79400E+00 2.20000E+01 0.00000E+00
 -1       478 7.79400E+00 1.91000E+01 0.00000E+00
 -1       479 7.79400E+00 1.61500E+01 0.00000E+00
 -1       480 7.79400E+00 1.32000E+01 0.00000E+00
 -1       481 7.79400E+00 1.02500E+01 0.00000E+00
 -1       482 1.30350E+01 6.60425E+00 0.00000E+00
 -1       483 1.06500E+01 4.22060E+01 0.00000E+00
 -1       484 5.87997E+01 6.65647E+00 0.00000E+00
 -1       485 1.36500E+01 4.22060E+01 0.00000E+00
 -1       486 1.66500E+01 4.22060E+01 0.00000E+00
 -1       487 1.96500E+01 4.22060E+01 0.00000E+00
 -1       488 2.26500E+01 4.22060E+01 0.00000E+00
 -1       489 2.56500E+01 4.22060E+01 0.00000E+00
 -1       490 2.86500E+01 4.22060E+01 0.00000E+00
 -1       491 3.16500E+01 4.22060E+01 0.00000E+00
 -1       492 3.46500E+01 4.22060E+01 0.00000E+00
 -1       493 3.76500E+01 4.22060E+01 0.00000E+00
 -1       494 4.06500E+01 4.22060E+01 0.00000E+00
 -1       495 4.36500E+01 4.22060E+01 0.00000E+00
 -1       496 4.66500E+01 4.22060E+01 0.00000E+00
 -1       497 4.96500E+01 4.22060E+01 0.00000E+00
 -1       498 5.26500E+01 4.22060E+01 0.00000E+00
 -1       499 5.56500E+01 4.22060E+01 0.00000E+00
 -1       500 5.86500E+01 4.22060E+01 0.00000E+00
 -1       501 6.16500E+01 4.22060E+01 0.00000E+00
 -1       502 6.46500E+01 4.22060E+01 0.00000E+00
 -1       503 6.76500E+01 4.22060E+01 0.00000E+00
 -1       504 7.06500E+01 4.22060E+01 0.00000E+00
 -1       505 7.36500E+01 4.22060E+01 0.00000E+00
 -1       506 7.66500E+01 4.22060E+01 0.00000E+00
 -1       507 7.96500E+01 4.22060E+01 0.00000E+00
 -1       508 8.26500E+01 4.22060E+01 0.00000E+00
 -1       509 8.56500E+01 4.22060E+01 0.00000E+00
 -1       510 8.86500E+01 4.22060E+01 0.00000E+00
 -1       511 9.16500E+01 4.22060E+01 0.00000E+00
 -1       512 9.46500E+01 4.22060E+01 0.00000E+00
 -1       513 9.76500E+01 4.22060E+01 0.00000E+00
 -1       514 1.00650E+02 4.22060E+01 0.00000E+00
 -1       515 1.03650E+02 4.22060E+01 0.00000E+00
 -1       516 1.06650E+02 4.22060E+01 0.00000E+00
 -1       517 1.09650E+02 4.22060E+01 0.00000E+00
 -1       518 1.12650E+02 4.22060E+01 0.00000E+00
 -1       519 1.15650E+02 4.22060E+01 0.00000E+00
 -1       520 1.18650E+02 4.22060E+01 0.00000E+00
 -1       521 1.21650E+02 4.22060E+01 0.00000E+00
 -1       522 1.24650E+02 4.22060E+01 0.00000E+00
 -1       523 1.27650E+02 4.22060E+01 0.00000E+00
 -1       524 1.30650E+02 4.22060E+01 0.00000E+00
 -1       525 1.33650E+02 4.22060E+01 0.00000E+00
 -1       526 1.36650E+02 4.22060E+01 0.00000E+00
 -1       527 1.39650E+02 4.22060E+01 0.00000E+00
 -1       528 1.90350E+01 6.60425E+00 0.00000E+00
 -1       529 2.20350E+01 6.60425E+00 0.00000E+00
 -1       530 2.50350E+01 6.60425E+00 0.00000E+00
 -1       531 2.80350E+01 6.60425E+00 0.00000E+00
 -1       532 3.10350E+01 6.60425E+00 0.00000E+00
 -1       533 3.40350E+01 6.60425E+00 0.00000E+00
 -1       534 3.70350E+01 6.60425E+00 0.00000E+00
 -1       535 4.00350E+01 6.60425E+00 0.00000E+00
 -1       536 4.30350E+01 6.60425E+00 0.00000E+00
 -1       537 4.60350E+01 6.60425E+00 0.00000E+00
 -1       538 4.90350E+01 6.60425E+00 0.00000E+00
 -1       539 5.20350E+01 6.60425E+00 0.00000E+00
 -1       540 6.38850E+01 5.88893E+00 0.00000E+00
 -1       541 6.67350E+01 6.05651E+00 0.00000E+00
 -1       542 6.97350E+01 6.22407E+00 0.00000E+00
 -1       543 7.27350E+01 6.22407E+00 0.00000E+00
 -1       544 7.57350E+01 6.22407E+00 0.00000E+00
 -1       545 7.87350E+01 6.22407E+00 0.00000E+00
 -1       546 8.17350E+01 6.22407E+00 0.00000E+00
 -1       547 8.47350E+01 6.22407E+00 0.00000E+00
 -1       548 8.78850E+01 6.22407E+00 0.00000E+00
 -1       549 9.08850E+01 6.22407E+00 0.00000E+00
 -1       550 9.38850E+01 6.22407E+00 0.00000E+00
 -1       551 9.68850E+01 6.22407E+00 0.00000E+00
 -1       552 9.98850E+01 6.22407E+00 0.00000E+00
 -1       553 1.02885E+02 6.22407E+00 0.00000E+00
 -1       554 1.05885E+02 6.22407E+00 0.00000E+00
 -1       555 1.08885E+02 6.22407E+00 0.00000E+00
 -1       556 1.11885E+02 6.22407E+00 0.00000E+00
 -1       557 1.14885E+02 6.22407E+00 0.00000E+00
 -1       558 1.17885E+02 6.22407E+00 0.00000E+00
 -1       559 1.20885E+02 6.22407E+00 0.00000E+00
 -1       560 1.23885E+02 6.22407E+00 0.00000E+00
 -1       561 1.26885E+02 6.22407E+00 0.00000E+00
 -1       562 1.29885E+02 6.22407E+00 0.00000E+00
 -1       563 1.32885E+02 6.22407E+00 0.00000E+00
 -1       564 1.35885E+02 6.22407E+00 0.00000E+00
 -1       565 1.38885E+02 6.22407E+00 0.00000E+00
 -1       566 1.41885E+02 6.22407E+00 0.00000E+00
 -1       567 1.42206E+02 1.61750E+01 0.00000E+00
 -1       568 1.42206E+02 1.91250E+01 0.00000E+00
 -1       569 1.42206E+02 1.03250E+01 0.00000E+00
 -1       570 1.42206E+02 1.32500E+01 0.00000E+00
 -1       571 7.10645E+01 1.16064E+01 0.00000E+00
 -1       572 1.42206E+02 2.20750E+01 0.00000E+00
 -1       573 1.42206E+02 2.50250E+01 0.00000E+00
 -1       574 1.42206E+02 2.79750E+01 0.00000E+00
 -1       575 1.42206E+02 3.08750E+01 0.00000E+00
 -1       576 1.42206E+02 3.38250E+01 0.00000E+00
 -1       577 1.42206E+02 3.67750E+01 0.00000E+00
 -1       578 1.42206E+02 3.97250E+01 0.00000E+00
 -1       579 6.97914E+01 1.00770E+01 0.00000E+00
 -1       580 1.60350E+01 6.60425E+00 0.00000E+00
 -1       581 7.23232E+01 1.61978E+01 0.00000E+00
 -1       582 7.25954E+01 1.84090E+01 0.00000E+00
 -1       583 6.80631E+01 8.22986E+00 0.00000E+00
 -1       584 7.09366E+01 2.29339E+01 0.00000E+00
 -1       585 5.21216E+01 2.36985E+01 0.00000E+00
 -1       586 5.29031E+01 9.90262E+00 0.00000E+00
 -1       587 5.65317E+01 7.36254E+00 0.00000E+00
 -1       588 7.79400E+00 2.79000E+01 0.00000E+00
 -1       589 6.10225E+01 6.02544E+00 0.00000E+00
 -1       590 5.09841E+01 1.22504E+01 0.00000E+00
 -1       591 6.59736E+01 7.11137E+00 0.00000E+00
 -1       592 5.44410E+01 8.61166E+00 0.00000E+00
 -1       593 5.02409E+01 1.92609E+01 0.00000E+00
 -1       594 5.04507E+01 1.47128E+01 0.00000E+00
 -1       595 6.95551E+01 2.47910E+01 0.00000E+00
 -1       596 5.00777E+01 1.67020E+01 0.00000E+00
 -1       597 5.06028E+01 2.12653E+01 0.00000E+00
 -1       598 5.35974E+01 2.53632E+01 0.00000E+00
 -1       599 5.53036E+01 2.66017E+01 0.00000E+00
 -1       600 5.72437E+01 2.77392E+01 0.00000E+00
 -1       601 5.93057E+01 2.83532E+01 0.00000E+00
 -1       602 6.14674E+01 2.86391E+01 0.00000E+00
 -1       603 6.37965E+01 2.86300E+01 0.00000E+00
 -1       604 6.66118E+01 2.78661E+01 0.00000E+00
 -1       605 6.81025E+01 2.64011E+01 0.00000E+00
 -1       606 7.20116E+01 2.07985E+01 0.00000E+00
 -1       607 7.92300E+00 4.16780E+01 0.00000E+00
 -1       608 7.61550E+00 6.21462E+00 0.00000E+00
 -1       609 7.20595E+01 1.40555E+01 0.00000E+00
 -1       610 7.79400E+00 3.67375E+01 0.00000E+00
 -1       611 5.50350E+01 6.55922E+00 0.00000E+00
 -1       612 1.42046E+02 8.27454E+00 0.00000E+00
 -1       613 1.41678E+02 4.22645E+01 0.00000E+00
 -1       614 5.08153E+01 1.03594E+01 0.00000E+00
 -1       615 6.54417E+01 2.95944E+01 0.00000E+00
 -1       616 5.02074E+01 2.31833E+01 0.00000E+00
 -1       617 1.03920E+01 2.05500E+01 0.00000E+00
 -1       618 1.03920E+01 2.35000E+01 0.00000E+00
 -1       619 1.03920E+01 1.46750E+01 0.00000E+00
 -1       620 1.03920E+01 1.17250E+01 0.00000E+00
 -1       621 1.15350E+01 9.20225E+00 0.00000E+00
 -1       622 7.42262E+01 1.48762E+01 0.00000E+00
 -1       623 1.45350E+01 9.20225E+00 0.00000E+00
 -1       624 1.51500E+01 3.96080E+01 0.00000E+00
 -1       625 1.81500E+01 3.96080E+01 0.00000E+00
 -1       626 2.11500E+01 3.96080E+01 0.00000E+00
 -1       627 2.41500E+01 3.96080E+01 0.00000E+00
 -1       628 2.71500E+01 3.96080E+01 0.00000E+00
 -1       629 3.01500E+01 3.96080E+01 0.00000E+00
 -1       630 3.31500E+01 3.96080E+01 0.00000E+00
 -1       631 3.61500E+01 3.96080E+01 0.00000E+00
 -1       632 3.91500E+01 3.96080E+01 0.00000E+00
 -1       633 4.21500E+01 3.96080E+01 0.00000E+00
 -1       634 4.51500E+01 3.96080E+01 0.00000E+00
 -1       635 4.81500E+01 3.96080E+01 0.00000E+00
 -1       636 5.11500E+01 3.96080E+01 0.00000E+00
 -1       637 5.41500E+01 3.96080E+01 0.00000E+00
 -1       638 5.71500E+01 3.96080E+01 0.00000E+00
 -1       639 6.01500E+01 3.96080E+01 0.00000E+00
 -1       640 6.31500E+01 3.96080E+01 0.00000E+00
 -1       641 6.61500E+01 3.96080E+01 0.00000E+00
 -1       642 6.91500E+01 3.96080E+01 0.00000E+00
 -1       643 7.21500E+01 3.96080E+01 0.00000E+00
 -1       644 7.51500E+01 3.96080E+01 0.00000E+00
 -1       645 7.81500E+01 3.96080E+01 0.00000E+00
 -1       646 8.11500E+01 3.96080E+01 0.00000E+00
 -1       647 8.41500E+01 3.96080E+01 0.00000E+00
 -1       648 8.71500E+01 3.96080E+01 0.00000E+00
 -1       649 9.01500E+01 3.96080E+01 0.00000E+00
 -1       650 9.31500E+01 3.96080E+01 0.00000E+00
 -1       651 9.61500E+01 3.96080E+01 0.00000E+00
 -1       652 9.91500E+01 3.96080E+01 0.00000E+00
 -1       653 1.02150E+02 3.96080E+01 0.00000E+00
 -1       654 1.05150E+02 3.96080E+01 0.00000E+00
 -1       655 1.08150E+02 3.96080E+01 0.00000E+00
 -1       656 1.11150E+02 3.96080E+01 0.00000E+00
 -1       657 1.14150E+02 3.96080E+01 0.00000E+00
 -1       658 1.17150E+02 3.96080E+01 0.00000E+00
 -1       659 1.20150E+02 3.96080E+01 0.00000E+00
 -1       660 1.23150E+02 3.96080E+01 0.00000E+00
 -1       661 1.26150E+02 3.96080E+01 0.00000E+00
 -1       662 1.29150E+02 3.96080E+01 0.00000E+00
 -1       663 1.32150E+02 3.96080E+01 0.00000E+00
 -1       664 1.35150E+02 3.96080E+01 0.00000E+00
 -1       665 1.38150E+02 3.96080E+01 0.00000E+00
 -1       666 2.35350E+01 9.20225E+00 0.00000E+00
 -1       667 7.01797E+01 7.98165E+00 0.00000E+00
 -1       668 2.05350E+01 9.20225E+00 0.00000E+00
 -1       669 2.95350E+01 9.20225E+00 0.00000E+00
 -1       670 3.25350E+01 9.20225E+00 0.00000E+00
 -1       671 3.55350E+01 9.20225E+00 0.00000E+00
 -1       672 3.85350E+01 9.20225E+00 0.00000E+00
 -1       673 4.15350E+01 9.20225E+00 0.00000E+00
 -1       674 4.45350E+01 9.20225E+00 0.00000E+00
 -1       675 4.75350E+01 9.20225E+00 0.00000E+00
 -1       676 8.02350E+01 8.82207E+00 0.00000E+00
 -1       677 8.32350E+01 8.82207E+00 0.00000E+00
 -1       678 8.63850E+01 8.82207E+00 0.00000E+00
 -1       679 8.93850E+01 8.82207E+00 0.00000E+00
 -1       680 9.23850E+01 8.82207E+00 0.00000E+00
 -1       681 9.53850E+01 8.82207E+00 0.00000E+00
 -1       682 9.83850E+01 8.82207E+00 0.00000E+00
 -1       683 1.01385E+02 8.82207E+00 0.00000E+00
 -1       684 1.04385E+02 8.82207E+00 0.00000E+00
 -1       685 1.07385E+02 8.82207E+00 0.00000E+00
 -1       686 1.10385E+02 8.82207E+00 0.00000E+00
 -1       687 1.13385E+02 8.82207E+00 0.00000E+00
 -1       688 1.16385E+02 8.82207E+00 0.00000E+00
 -1       689 1.19385E+02 8.82207E+00 0.00000E+00
 -1       690 1.22385E+02 8.82207E+00 0.00000E+00
 -1       691 1.25385E+02 8.82207E+00 0.00000E+00
 -1       692 1.28385E+02 8.82207E+00 0.00000E+00
 -1       693 1.31385E+02 8.82207E+00 0.00000E+00
 -1       694 1.34385E+02 8.82207E+00 0.00000E+00
 -1       695 1.37385E+02 8.82207E+00 0.00000E+00
 -1       696 1.39715E+02 8.54830E+00 0.00000E+00
 -1       697 1.39608E+02 2.35500E+01 0.00000E+00
 -1       698 1.40178E+02 3.96665E+01 0.00000E+00
 -1       699 1.39608E+02 1.76500E+01 0.00000E+00
 -1       700 7.18909E+01 2.50862E+01 0.00000E+00
 -1       701 1.39608E+02 2.65000E+01 0.00000E+00
 -1       702 1.39608E+02 2.06000E+01 0.00000E+00
 -1       703 1.39608E+02 2.94000E+01 0.00000E+00
 -1       704 1.39608E+02 3.23500E+01 0.00000E+00
 -1       705 1.39608E+02 3.53000E+01 0.00000E+00
 -1       706 1.75350E+01 9.20225E+00 0.00000E+00
 -1       707 7.01023E+01 2.67449E+01 0.00000E+00
 -1       708 4.85785E+01 1.53913E+01 0.00000E+00
 -1       709 4.84477E+01 1.80907E+01 0.00000E+00
 -1       710 7.17461E+01 9.74442E+00 0.00000E+00
 -1       711 7.72350E+01 8.82207E+00 0.00000E+00
 -1       712 7.42350E+01 8.82207E+00 0.00000E+00
 -1       713 2.65350E+01 9.20225E+00 0.00000E+00
 -1       714 1.21500E+01 3.96080E+01 0.00000E+00
 -1       715 7.31509E+01 1.21854E+01 0.00000E+00
 -1       716 6.86115E+01 2.82100E+01 0.00000E+00
 -1       717 4.88774E+01 1.30830E+01 0.00000E+00
 -1       718 1.03920E+01 1.76125E+01 0.00000E+00
 -1       719 7.44985E+01 1.70873E+01 0.00000E+00
 -1       720 7.38068E+01 1.99711E+01 0.00000E+00
 -1       721 7.29658E+01 2.29508E+01 0.00000E+00
 -1       722 1.03920E+01 3.23250E+01 0.00000E+00
 -1       723 6.26387E+01 3.03496E+01 0.00000E+00
 -1       724 5.13253E+01 2.58909E+01 0.00000E+00
 -1       725 4.84042E+01 2.06274E+01 0.00000E+00
 -1       726 5.33446E+01 2.75061E+01 0.00000E+00
 -1       727 5.52847E+01 2.86435E+01 0.00000E+00
 -1       728 5.76417E+01 3.01718E+01 0.00000E+00
 -1       729 6.01617E+01 3.01965E+01 0.00000E+00
 -1       730 1.03920E+01 3.52625E+01 0.00000E+00
 -1       731 1.03920E+01 2.64500E+01 0.00000E+00
 -1       732 7.47611E+01 2.21233E+01 0.00000E+00
 -1       733 1.39715E+02 1.14733E+01 0.00000E+00
 -1       734 1.38879E+02 3.74540E+01 0.00000E+00
 -1       735 4.80089E+01 2.25454E+01 0.00000E+00
 -1       736 4.82062E+01 1.11426E+01 0.00000E+00
 -1       737 6.74415E+01 2.99383E+01 0.00000E+00
 -1       738 1.39608E+02 1.47250E+01 0.00000E+00
 -1       739 1.03920E+01 2.93875E+01 0.00000E+00
 -1       740 6.42839E+01 3.13141E+01 0.00000E+00
 -1       741 1.05210E+01 3.87342E+01 0.00000E+00
 -1       742 1.29900E+01 1.32000E+01 0.00000E+00
 -1       743 1.66500E+01 3.70100E+01 0.00000E+00
 -1       744 1.96500E+01 3.70100E+01 0.00000E+00
 -1       745 2.26500E+01 3.70100E+01 0.00000E+00
 -1       746 2.56500E+01 3.70100E+01 0.00000E+00
 -1       747 2.86500E+01 3.70100E+01 0.00000E+00
 -1       748 3.16500E+01 3.70100E+01 0.00000E+00
 -1       749 3.46500E+01 3.70100E+01 0.00000E+00
 -1       750 3.76500E+01 3.70100E+01 0.00000E+00
 -1       751 4.06500E+01 3.70100E+01 0.00000E+00
 -1       752 4.36500E+01 3.70100E+01 0.00000E+00
 -1       753 4.66500E+01 3.70100E+01 0.00000E+00
 -1       754 4.96500E+01 3.70100E+01 0.00000E+00
 -1       755 5.26500E+01 3.70100E+01 0.00000E+00
 -1       756 5.56500E+01 3.70100E+01 0.00000E+00
 -1       757 5.86500E+01 3.70100E+01 0.00000E+00
 -1       758 6.16500E+01 3.70100E+01 0.00000E+00
 -1       759 6.46500E+01 3.70100E+01 0.00000E+00
 -1       760 6.76500E+01 3.70100E+01 0.00000E+00
 -1       761 7.06500E+01 3.70100E+01 0.00000E+00
 -1       762 7.36500E+01 3.70100E+01 0.00000E+00
 -1       763 7.66500E+01 3.70100E+01 0.00000E+00
 -1       764 7.96500E+01 3.70100E+01 0.00000E+00
 -1       765 8.26500E+01 3.70100E+01 0.00000E+00
 -1       766 8.56500E+01 3.70100E+01 0.00000E+00
 -1       767 8.86500E+01 3.70100E+01 0.00000E+00
 -1       768 9.16500E+01 3.70100E+01 0.00000E+00
 -1       769 9.46500E+01 3.70100E+01 0.00000E+00
 -1       770 9.76500E+01 3.70100E+01 0.00000E+00
 -1       771 1.00650E+02 3.70100E+01 0.00000E+00
 -1       772 1.03650E+02 3.70100E+01 0.00000E+00
 -1       773 1.06650E+02 3.70100E+01 0.00000E+00
 -1       774 1.09650E+02 3.70100E+01 0.00000E+00
 -1       775 1.12650E+02 3.70100E+01 0.00000E+00
 -1       776 1.15650E+02 3.70100E+01 0.00000E+00
 -1       777 1.18650E+02 3.70100E+01 0.00000E+00
 -1       778 1.21650E+02 3.70100E+01 0.00000E+00
 -1       779 1.24650E+02 3.70100E+01 0.00000E+00
 -1       780 1.27650E+02 3.70100E+01 0.00000E+00
 -1       781 1.30650E+02 3.70100E+01 0.00000E+00
 -1       782 1.33650E+02 3.70100E+01 0.00000E+00
 -1       783 1.36264E+02 3.72320E+01 0.00000E+00
 -1       784 3.40350E+01 1.18003E+01 0.00000E+00
 -1       785 3.10350E+01 1.18003E+01 0.00000E+00
 -1       786 4.00350E+01 1.18003E+01 0.00000E+00
 -1       787 4.30350E+01 1.18003E+01 0.00000E+00
 -1       788 4.56206E+01 1.14714E+01 0.00000E+00
 -1       789 4.62979E+01 1.66336E+01 0.00000E+00
 -1       790 4.62544E+01 1.91704E+01 0.00000E+00
 -1       791 7.57481E+01 1.27078E+01 0.00000E+00
 -1       792 5.54390E+01 3.09874E+01 0.00000E+00
 -1       793 8.17350E+01 1.14201E+01 0.00000E+00
 -1       794 9.08850E+01 1.14201E+01 0.00000E+00
 -1       795 9.38850E+01 1.14201E+01 0.00000E+00
 -1       796 9.68850E+01 1.14201E+01 0.00000E+00
 -1       797 9.98850E+01 1.14201E+01 0.00000E+00
 -1       798 1.02885E+02 1.14201E+01 0.00000E+00
 -1       799 1.05885E+02 1.14201E+01 0.00000E+00
 -1       800 1.08885E+02 1.14201E+01 0.00000E+00
 -1       801 1.11885E+02 1.14201E+01 0.00000E+00
 -1       802 1.14885E+02 1.14201E+01 0.00000E+00
 -1       803 1.17885E+02 1.14201E+01 0.00000E+00
 -1       804 1.20885E+02 1.14201E+01 0.00000E+00
 -1       805 1.23885E+02 1.14201E+01 0.00000E+00
 -1       806 1.26885E+02 1.14201E+01 0.00000E+00
 -1       807 1.29885E+02 1.14201E+01 0.00000E+00
 -1       808 1.32885E+02 1.14201E+01 0.00000E+00
 -1       809 1.35885E+02 1.14201E+01 0.00000E+00
 -1       810 7.23907E+01 2.74188E+01 0.00000E+00
 -1       811 1.37010E+02 2.79500E+01 0.00000E+00
 -1       812 1.37010E+02 3.38250E+01 0.00000E+00
 -1       813 5.88783E+01 3.25694E+01 0.00000E+00
 -1       814 1.37010E+02 2.50000E+01 0.00000E+00
 -1       815 1.36500E+01 3.70100E+01 0.00000E+00
 -1       816 1.37010E+02 3.08875E+01 0.00000E+00
 -1       817 7.87350E+01 1.14201E+01 0.00000E+00
 -1       818 4.68609E+01 1.39953E+01 0.00000E+00
 -1       819 8.78850E+01 1.14201E+01 0.00000E+00
 -1       820 8.48100E+01 1.14201E+01 0.00000E+00
 -1       821 3.70350E+01 1.18003E+01 0.00000E+00
 -1       822 2.20350E+01 1.18003E+01 0.00000E+00
 -1       823 7.09000E+01 2.88839E+01 0.00000E+00
 -1       824 6.13553E+01 3.27226E+01 0.00000E+00
 -1       825 4.87164E+01 2.53835E+01 0.00000E+00
 -1       826 7.63972E+01 1.57312E+01 0.00000E+00
 -1       827 7.39603E+01 2.47897E+01 0.00000E+00
 -1       828 1.37625E+01 1.12011E+01 0.00000E+00
 -1       829 5.10543E+01 2.82996E+01 0.00000E+00
 -1       830 5.34989E+01 2.98499E+01 0.00000E+00
 -1       831 1.20210E+01 3.61362E+01 0.00000E+00
 -1       832 1.29900E+01 2.20250E+01 0.00000E+00
 -1       833 7.58204E+01 1.89292E+01 0.00000E+00
 -1       834 1.29900E+01 2.49750E+01 0.00000E+00
 -1       835 7.67747E+01 2.10815E+01 0.00000E+00
 -1       836 4.84454E+01 2.77921E+01 0.00000E+00
 -1       837 1.90350E+01 1.18003E+01 0.00000E+00
 -1       838 1.20210E+01 3.31987E+01 0.00000E+00
 -1       839 1.29900E+01 1.61375E+01 0.00000E+00
 -1       840 2.80350E+01 1.18003E+01 0.00000E+00
 -1       841 5.66756E+01 3.33850E+01 0.00000E+00
 -1       842 4.58590E+01 2.10884E+01 0.00000E+00
 -1       843 1.37010E+02 1.91250E+01 0.00000E+00
 -1       844 1.63988E+01 1.15007E+01 0.00000E+00
 -1       845 1.37010E+02 2.20625E+01 0.00000E+00
 -1       846 2.50350E+01 1.18003E+01 0.00000E+00
 -1       847 1.36637E+02 3.55285E+01 0.00000E+00
 -1       848 1.37010E+02 1.62000E+01 0.00000E+00
 -1       849 6.97299E+01 3.06122E+01 0.00000E+00
 -1       850 1.20210E+01 3.02612E+01 0.00000E+00
 -1       851 6.62836E+01 3.16579E+01 0.00000E+00
 -1       852 1.29900E+01 1.90812E+01 0.00000E+00
 -1       853 4.47381E+01 1.49216E+01 0.00000E+00
 -1       854 2.11500E+01 3.44120E+01 0.00000E+00
 -1       855 2.41500E+01 3.44120E+01 0.00000E+00
 -1       856 2.71500E+01 3.44120E+01 0.00000E+00
 -1       857 3.01500E+01 3.44120E+01 0.00000E+00
 -1       858 3.31500E+01 3.44120E+01 0.00000E+00
 -1       859 3.61500E+01 3.44120E+01 0.00000E+00
 -1       860 3.91500E+01 3.44120E+01 0.00000E+00
 -1       861 4.21500E+01 3.44120E+01 0.00000E+00
 -1       862 4.51500E+01 3.44120E+01 0.00000E+00
 -1       863 4.81500E+01 3.44120E+01 0.00000E+00
 -1       864 5.11500E+01 3.44120E+01 0.00000E+00
 -1       865 5.41500E+01 3.44120E+01 0.00000E+00
 -1       866 6.61500E+01 3.44120E+01 0.00000E+00
 -1       867 6.91500E+01 3.44120E+01 0.00000E+00
 -1       868 7.21500E+01 3.44120E+01 0.00000E+00
 -1       869 7.51500E+01 3.44120E+01 0.00000E+00
 -1       870 7.81500E+01 3.44120E+01 0.00000E+00
 -1       871 8.11500E+01 3.44120E+01 0.00000E+00
 -1       872 8.41500E+01 3.44120E+01 0.00000E+00
 -1       873 8.71500E+01 3.44120E+01 0.00000E+00
 -1       874 9.01500E+01 3.44120E+01 0.00000E+00
 -1       875 9.31500E+01 3.44120E+01 0.00000E+00
 -1       876 9.61500E+01 3.44120E+01 0.00000E+00
 -1       877 9.91500E+01 3.44120E+01 0.00000E+00
 -1       878 1.02150E+02 3.44120E+01 0.00000E+00
 -1       879 1.05150E+02 3.44120E+01 0.00000E+00
 -1       880 1.08150E+02 3.44120E+01 0.00000E+00
 -1       881 1.11150E+02 3.44120E+01 0.00000E+00
 -1       882 1.14150E+02 3.44120E+01 0.00000E+00
 -1       883 1.17150E+02 3.44120E+01 0.00000E+00
 -1       884 1.20150E+02 3.44120E+01 0.00000E+00
 -1       885 1.23150E+02 3.44120E+01 0.00000E+00
 -1       886 1.26150E+02 3.44120E+01 0.00000E+00
 -1       887 1.29150E+02 3.44120E+01 0.00000E+00
 -1       888 1.32150E+02 3.44120E+01 0.00000E+00
 -1       889 3.25350E+01 1.43982E+01 0.00000E+00
 -1       890 4.15350E+01 1.43982E+01 0.00000E+00
 -1       891 9.23850E+01 1.40181E+01 0.00000E+00
 -1       892 1.01385E+02 1.40181E+01 0.00000E+00
 -1       893 1.04385E+02 1.40181E+01 0.00000E+00
 -1       894 1.07385E+02 1.40181E+01 0.00000E+00
 -1       895 1.10385E+02 1.40181E+01 0.00000E+00
 -1       896 1.13385E+02 1.40181E+01 0.00000E+00
 -1       897 1.16385E+02 1.40181E+01 0.00000E+00
 -1       898 1.19385E+02 1.40181E+01 0.00000E+00
 -1       899 1.22385E+02 1.40181E+01 0.00000E+00
 -1       900 1.25385E+02 1.40181E+01 0.00000E+00
 -1       901 1.28385E+02 1.40181E+01 0.00000E+00
 -1       902 1.31385E+02 1.40181E+01 0.00000E+00
 -1       903 1.34385E+02 1.40181E+01 0.00000E+00
 -1       904 7.52237E+01 2.73270E+01 0.00000E+00
 -1       905 8.02350E+01 1.40181E+01 0.00000E+00
 -1       906 7.83161E+01 1.48746E+01 0.00000E+00
 -1       907 1.51500E+01 3.44120E+01 0.00000E+00
 -1       908 8.93850E+01 1.40181E+01 0.00000E+00
 -1       909 9.83850E+01 1.40181E+01 0.00000E+00
 -1       910 7.33173E+01 2.98527E+01 0.00000E+00
 -1       911 1.35855E+01 3.38054E+01 0.00000E+00
 -1       912 1.25055E+01 2.76181E+01 0.00000E+00
 -1       913 4.65358E+01 2.44198E+01 0.00000E+00
 -1       914 7.84563E+01 1.77536E+01 0.00000E+00
 -1       915 9.53850E+01 1.40181E+01 0.00000E+00
 -1       916 7.61638E+01 2.39980E+01 0.00000E+00
 -1       917 1.56263E+01 1.34996E+01 0.00000E+00
 -1       918 5.33472E+01 3.23319E+01 0.00000E+00
 -1       919 5.09026E+01 3.07815E+01 0.00000E+00
 -1       920 1.34412E+02 2.64750E+01 0.00000E+00
 -1       921 4.42262E+01 1.78669E+01 0.00000E+00
 -1       922 1.81500E+01 3.44120E+01 0.00000E+00
 -1       923 7.94106E+01 1.99059E+01 0.00000E+00
 -1       924 4.82937E+01 3.02741E+01 0.00000E+00
 -1       925 2.05350E+01 1.43982E+01 0.00000E+00
 -1       926 6.37153E+01 3.47142E+01 0.00000E+00
 -1       927 2.95350E+01 1.43982E+01 0.00000E+00
 -1       928 3.55350E+01 1.43982E+01 0.00000E+00
 -1       929 1.34394E+02 3.49702E+01 0.00000E+00
 -1       930 3.85350E+01 1.43982E+01 0.00000E+00
 -1       931 8.33100E+01 1.40181E+01 0.00000E+00
 -1       932 7.21473E+01 3.15810E+01 0.00000E+00
 -1       933 4.38308E+01 1.97849E+01 0.00000E+00
 -1       934 1.34412E+02 2.35375E+01 0.00000E+00
 -1       935 2.35350E+01 1.43982E+01 0.00000E+00
 -1       936 1.35855E+01 3.08679E+01 0.00000E+00
 -1       937 1.34412E+02 1.76625E+01 0.00000E+00
 -1       938 8.63475E+01 1.40181E+01 0.00000E+00
 -1       939 4.62648E+01 2.68285E+01 0.00000E+00
 -1       940 1.34412E+02 2.06000E+01 0.00000E+00
 -1       941 1.55880E+01 2.05531E+01 0.00000E+00
 -1       942 1.55880E+01 2.35031E+01 0.00000E+00
 -1       943 1.34412E+02 2.94125E+01 0.00000E+00
 -1       944 1.34580E+02 3.26497E+01 0.00000E+00
 -1       945 2.56500E+01 3.18140E+01 0.00000E+00
 -1       946 2.86500E+01 3.18140E+01 0.00000E+00
 -1       947 3.16500E+01 3.18140E+01 0.00000E+00
 -1       948 3.46500E+01 3.18140E+01 0.00000E+00
 -1       949 3.76500E+01 3.18140E+01 0.00000E+00
 -1       950 4.06500E+01 3.18140E+01 0.00000E+00
 -1       951 4.36500E+01 3.18140E+01 0.00000E+00
 -1       952 7.66500E+01 3.18140E+01 0.00000E+00
 -1       953 7.96500E+01 3.18140E+01 0.00000E+00
 -1       954 8.26500E+01 3.18140E+01 0.00000E+00
 -1       955 8.56500E+01 3.18140E+01 0.00000E+00
 -1       956 8.86500E+01 3.18140E+01 0.00000E+00
 -1       957 9.16500E+01 3.18140E+01 0.00000E+00
 -1       958 9.46500E+01 3.18140E+01 0.00000E+00
 -1       959 9.76500E+01 3.18140E+01 0.00000E+00
 -1       960 1.00650E+02 3.18140E+01 0.00000E+00
 -1       961 1.03650E+02 3.18140E+01 0.00000E+00
 -1       962 1.06650E+02 3.18140E+01 0.00000E+00
 -1       963 1.09650E+02 3.18140E+01 0.00000E+00
 -1       964 1.12650E+02 3.18140E+01 0.00000E+00
 -1       965 1.15650E+02 3.18140E+01 0.00000E+00
 -1       966 1.18650E+02 3.18140E+01 0.00000E+00
 -1       967 1.21650E+02 3.18140E+01 0.00000E+00
 -1       968 1.24650E+02 3.18140E+01 0.00000E+00
 -1       969 1.27650E+02 3.18140E+01 0.00000E+00
 -1       970 1.30650E+02 3.18140E+01 0.00000E+00
 -1       971 7.79894E+01 2.63108E+01 0.00000E+00
 -1       972 1.02885E+02 1.66161E+01 0.00000E+00
 -1       973 1.11885E+02 1.66161E+01 0.00000E+00
 -1       974 1.14885E+02 1.66161E+01 0.00000E+00
 -1       975 1.17885E+02 1.66161E+01 0.00000E+00
 -1       976 1.20885E+02 1.66161E+01 0.00000E+00
 -1       977 1.23885E+02 1.66161E+01 0.00000E+00
 -1       978 1.26885E+02 1.66161E+01 0.00000E+00
 -1       979 1.29885E+02 1.66161E+01 0.00000E+00
 -1       980 4.41882E+01 2.31623E+01 0.00000E+00
 -1       981 1.66500E+01 3.18140E+01 0.00000E+00
 -1       982 1.80806E+01 1.39489E+01 0.00000E+00
 -1       983 8.03752E+01 1.68970E+01 0.00000E+00
 -1       984 1.08885E+02 1.66161E+01 0.00000E+00
 -1       985 1.05885E+02 1.66161E+01 0.00000E+00
 -1       986 1.61458E+01 1.66550E+01 0.00000E+00
 -1       987 9.08850E+01 1.66161E+01 0.00000E+00
 -1       988 9.98850E+01 1.66161E+01 0.00000E+00
 -1       989 7.63442E+01 3.01550E+01 0.00000E+00
 -1       990 2.65350E+01 1.43982E+01 0.00000E+00
 -1       991 6.88412E+01 3.21304E+01 0.00000E+00
 -1       992 2.26500E+01 3.18140E+01 0.00000E+00
 -1       993 1.96500E+01 3.18140E+01 0.00000E+00
 -1       994 7.87997E+01 2.28224E+01 0.00000E+00
 -1       995 4.11283E+01 1.74921E+01 0.00000E+00
 -1       996 3.10350E+01 1.69963E+01 0.00000E+00
 -1       997 3.40350E+01 1.69963E+01 0.00000E+00
 -1       998 8.13295E+01 1.90493E+01 0.00000E+00
 -1       999 1.29885E+02 1.95536E+01 0.00000E+00
 -1      1000 4.39172E+01 2.55709E+01 0.00000E+00
 -1      1001 1.31814E+02 2.50063E+01 0.00000E+00
 -1      1002 9.38850E+01 1.66161E+01 0.00000E+00
 -1      1003 1.40700E+01 2.82248E+01 0.00000E+00
 -1      1004 8.78475E+01 1.66161E+01 0.00000E+00
 -1      1005 9.68850E+01 1.66161E+01 0.00000E+00
 -1      1006 1.51178E+01 3.13409E+01 0.00000E+00
 -1      1007 2.20350E+01 1.69963E+01 0.00000E+00
 -1      1008 1.81860E+01 2.20281E+01 0.00000E+00
 -1      1009 1.81333E+01 1.79885E+01 0.00000E+00
 -1      1010 1.55696E+01 2.64995E+01 0.00000E+00
 -1      1011 1.31814E+02 2.79438E+01 0.00000E+00
 -1      1012 1.19385E+02 1.92141E+01 0.00000E+00
 -1      1013 2.71500E+01 2.92160E+01 0.00000E+00
 -1      1014 3.01500E+01 2.92160E+01 0.00000E+00
 -1      1015 3.31500E+01 2.92160E+01 0.00000E+00
 -1      1016 3.61500E+01 2.92160E+01 0.00000E+00
 -1      1017 3.91500E+01 2.92160E+01 0.00000E+00
 -1      1018 4.21500E+01 2.92160E+01 0.00000E+00
 -1      1019 2.20877E+01 2.10359E+01 0.00000E+00
 -1      1020 2.80350E+01 1.69963E+01 0.00000E+00
 -1      1021 8.11500E+01 2.92160E+01 0.00000E+00
 -1      1022 8.41500E+01 2.92160E+01 0.00000E+00
 -1      1023 8.71500E+01 2.92160E+01 0.00000E+00
 -1      1024 9.01500E+01 2.92160E+01 0.00000E+00
 -1      1025 9.31500E+01 2.92160E+01 0.00000E+00
 -1      1026 9.61500E+01 2.92160E+01 0.00000E+00
 -1      1027 9.91500E+01 2.92160E+01 0.00000E+00
 -1      1028 1.02150E+02 2.92160E+01 0.00000E+00
 -1      1029 1.05150E+02 2.92160E+01 0.00000E+00
 -1      1030 1.08150E+02 2.92160E+01 0.00000E+00
 -1      1031 1.11150E+02 2.92160E+01 0.00000E+00
 -1      1032 1.14150E+02 2.92160E+01 0.00000E+00
 -1      1033 1.17150E+02 2.92160E+01 0.00000E+00
 -1      1034 1.20150E+02 2.92160E+01 0.00000E+00
 -1      1035 1.23150E+02 2.92160E+01 0.00000E+00
 -1      1036 1.26150E+02 2.92160E+01 0.00000E+00
 -1      1037 1.29150E+02 2.92160E+01 0.00000E+00
 -1      1038 1.13385E+02 1.92141E+01 0.00000E+00
 -1      1039 1.22385E+02 1.92141E+01 0.00000E+00
 -1      1040 1.25385E+02 1.92141E+01 0.00000E+00
 -1      1041 1.27635E+02 1.93838E+01 0.00000E+00
 -1      1042 2.11500E+01 2.92160E+01 0.00000E+00
 -1      1043 2.43113E+01 1.77171E+01 0.00000E+00
 -1      1044 1.10385E+02 1.92141E+01 0.00000E+00
 -1      1045 1.07385E+02 1.92141E+01 0.00000E+00
 -1      1046 3.70350E+01 1.69963E+01 0.00000E+00
 -1      1047 1.16385E+02 1.92141E+01 0.00000E+00
 -1      1048 8.08813E+01 2.51443E+01 0.00000E+00
 -1      1049 8.48100E+01 1.66161E+01 0.00000E+00
 -1      1050 2.41500E+01 2.92160E+01 0.00000E+00
 -1      1051 4.57764E+01 2.88746E+01 0.00000E+00
 -1      1052 1.30850E+02 2.22799E+01 0.00000E+00
 -1      1053 1.81676E+01 2.50245E+01 0.00000E+00
 -1      1054 1.04385E+02 1.92141E+01 0.00000E+00
 -1      1055 4.08280E+01 2.05852E+01 0.00000E+00
 -1      1056 1.81500E+01 2.92160E+01 0.00000E+00
 -1      1057 8.16039E+01 2.18875E+01 0.00000E+00
 -1      1058 1.01385E+02 1.92141E+01 0.00000E+00
 -1      1059 4.30336E+01 2.73935E+01 0.00000E+00
 -1      1060 2.20693E+01 2.40322E+01 0.00000E+00
 -1      1061 7.81500E+01 2.92160E+01 0.00000E+00
 -1      1062 2.95350E+01 1.95942E+01 0.00000E+00
 -1      1063 3.67346E+01 2.00894E+01 0.00000E+00
 -1      1064 3.25350E+01 1.95942E+01 0.00000E+00
 -1      1065 4.09271E+01 2.39353E+01 0.00000E+00
 -1      1066 9.23850E+01 1.92141E+01 0.00000E+00
 -1      1067 8.93475E+01 1.92141E+01 0.00000E+00
 -1      1068 9.83850E+01 1.92141E+01 0.00000E+00
 -1      1069 1.28882E+02 2.45096E+01 0.00000E+00
 -1      1070 1.29016E+02 2.68628E+01 0.00000E+00
 -1      1071 8.26500E+01 2.66180E+01 0.00000E+00
 -1      1072 3.16500E+01 2.66180E+01 0.00000E+00
 -1      1073 3.46500E+01 2.66180E+01 0.00000E+00
 -1      1074 3.76500E+01 2.66180E+01 0.00000E+00
 -1      1075 4.03418E+01 2.70057E+01 0.00000E+00
 -1      1076 1.11885E+02 2.18121E+01 0.00000E+00
 -1      1077 1.23885E+02 2.18121E+01 0.00000E+00
 -1      1078 2.58113E+01 2.03151E+01 0.00000E+00
 -1      1079 8.56500E+01 2.66180E+01 0.00000E+00
 -1      1080 8.86500E+01 2.66180E+01 0.00000E+00
 -1      1081 9.16500E+01 2.66180E+01 0.00000E+00
 -1      1082 9.46500E+01 2.66180E+01 0.00000E+00
 -1      1083 9.76500E+01 2.66180E+01 0.00000E+00
 -1      1084 1.00650E+02 2.66180E+01 0.00000E+00
 -1      1085 1.03650E+02 2.66180E+01 0.00000E+00
 -1      1086 1.06650E+02 2.66180E+01 0.00000E+00
 -1      1087 1.09650E+02 2.66180E+01 0.00000E+00
 -1      1088 1.12650E+02 2.66180E+01 0.00000E+00
 -1      1089 1.15650E+02 2.66180E+01 0.00000E+00
 -1      1090 1.18650E+02 2.66180E+01 0.00000E+00
 -1      1091 1.21650E+02 2.66180E+01 0.00000E+00
 -1      1092 1.24650E+02 2.66180E+01 0.00000E+00
 -1      1093 1.14885E+02 2.18121E+01 0.00000E+00
 -1      1094 8.45583E+01 1.99619E+01 0.00000E+00
 -1      1095 1.20885E+02 2.18121E+01 0.00000E+00
 -1      1096 1.08885E+02 2.18121E+01 0.00000E+00
 -1      1097 2.56500E+01 2.66180E+01 0.00000E+00
 -1      1098 8.69529E+01 1.95880E+01 0.00000E+00
 -1      1099 2.86500E+01 2.66180E+01 0.00000E+00
 -1      1100 1.28259E+02 2.19467E+01 0.00000E+00
 -1      1101 1.05885E+02 2.18121E+01 0.00000E+00
 -1      1102 9.53850E+01 1.92141E+01 0.00000E+00
 -1      1103 1.02885E+02 2.18121E+01 0.00000E+00
 -1      1104 1.17885E+02 2.18121E+01 0.00000E+00
 -1      1105 2.57930E+01 2.33114E+01 0.00000E+00
 -1      1106 9.38850E+01 2.18121E+01 0.00000E+00
 -1      1107 9.08475E+01 2.18121E+01 0.00000E+00
 -1      1108 1.26072E+02 2.18794E+01 0.00000E+00
 -1      1109 8.44997E+01 2.31013E+01 0.00000E+00
 -1      1110 2.95166E+01 2.25906E+01 0.00000E+00
 -1      1111 3.83257E+01 2.23357E+01 0.00000E+00
 -1      1112 9.98850E+01 2.18121E+01 0.00000E+00
 -1      1113 1.26696E+02 2.44422E+01 0.00000E+00
 -1      1114 3.25166E+01 2.25906E+01 0.00000E+00
 -1      1115 3.79878E+01 2.44769E+01 0.00000E+00
 -1      1116 3.54100E+01 2.27142E+01 0.00000E+00
 -1      1117 9.01500E+01 2.40200E+01 0.00000E+00
 -1      1118 9.91500E+01 2.40200E+01 0.00000E+00
 -1      1119 8.68943E+01 2.27273E+01 0.00000E+00
 -1      1120 9.68850E+01 2.18121E+01 0.00000E+00
 -1      1121 3.61500E+01 2.40200E+01 0.00000E+00
 -1      1122 9.68332E+01 2.38066E+01 0.00000E+00
 -1      1123 8.78476E+01 2.18121E+01 0.00000E+00
 -1      1124 0.00000E+00 4.85250E+01 0.00000E+00
 -1      1125 0.00000E+00 4.55750E+01 0.00000E+00
 -1      1126 0.00000E+00 4.26250E+01 0.00000E+00
 -1      1127 0.00000E+00 3.96750E+01 0.00000E+00
 -1      1128 0.00000E+00 3.67250E+01 0.00000E+00
 -1      1129 0.00000E+00 3.38000E+01 0.00000E+00
 -1      1130 0.00000E+00 3.08750E+01 0.00000E+00
 -1      1131 0.00000E+00 2.79250E+01 0.00000E+00
 -1      1132 0.00000E+00 2.49750E+01 0.00000E+00
 -1      1133 0.00000E+00 2.20250E+01 0.00000E+00
 -1      1134 0.00000E+00 1.90750E+01 0.00000E+00
 -1      1135 0.00000E+00 1.61500E+01 0.00000E+00
 -1      1136 0.00000E+00 1.32250E+01 0.00000E+00
 -1      1137 0.00000E+00 1.02750E+01 0.00000E+00
 -1      1138 0.00000E+00 7.32500E+00 0.00000E+00
 -1      1139 0.00000E+00 4.37500E+00 0.00000E+00
 -1      1140 0.00000E+00 1.45000E+00 0.00000E+00
 -1      1141 1.57500E+00 5.00000E+01 0.00000E+00
 -1      1142 4.65000E+00 5.00000E+01 0.00000E+00
 -1      1143 7.65000E+00 5.00000E+01 0.00000E+00
 -1      1144 1.06500E+01 5.00000E+01 0.00000E+00
 -1      1145 1.36500E+01 5.00000E+01 0.00000E+00
 -1      1146 1.66500E+01 5.00000E+01 0.00000E+00
 -1      1147 1.96500E+01 5.00000E+01 0.00000E+00
 -1      1148 2.26500E+01 5.00000E+01 0.00000E+00
 -1      1149 2.56500E+01 5.00000E+01 0.00000E+00
 -1      1150 2.86500E+01 5.00000E+01 0.00000E+00
 -1      1151 3.16500E+01 5.00000E+01 0.00000E+00
 -1      1152 3.46500E+01 5.00000E+01 0.00000E+00
 -1      1153 3.76500E+01 5.00000E+01 0.00000E+00
 -1      1154 4.06500E+01 5.00000E+01 0.00000E+00
 -1      1155 4.36500E+01 5.00000E+01 0.00000E+00
 -1      1156 4.66500E+01 5.00000E+01 0.00000E+00
 -1      1157 4.96500E+01 5.00000E+01 0.00000E+00
 -1      1158 5.26500E+01 5.00000E+01 0.00000E+00
 -1      1159 5.56500E+01 5.00000E+01 0.00000E+00
 -1      1160 5.86500E+01 5.00000E+01 0.00000E+00
 -1      1161 6.16500E+01 5.00000E+01 0.00000E+00
 -1      1162 6.46500E+01 5.00000E+01 0.00000E+00
 -1      1163 6.76500E+01 5.00000E+01 0.00000E+00
 -1      1164 7.06500E+01 5.00000E+01 0.00000E+00
 -1      1165 7.36500E+01 5.00000E+01 0.00000E+00
 -1      1166 7.66500E+01 5.00000E+01 0.00000E+00
 -1      1167 7.96500E+01 5.00000E+01 0.00000E+00
 -1      1168 8.26500E+01 5.00000E+01 0.00000E+00
 -1      1169 8.56500E+01 5.00000E+01 0.00000E+00
 -1      1170 8.86500E+01 5.00000E+01 0.00000E+00
 -1      1171 9.16500E+01 5.00000E+01 0.00000E+00
 -1      1172 9.46500E+01 5.00000E+01 0.00000E+00
 -1      1173 9.76500E+01 5.00000E+01 0.00000E+00
 -1      1174 1.00650E+02 5.00000E+01 0.00000E+00
 -1      1175 1.03650E+02 5.00000E+01 0.00000E+00
 -1      1176 1.06650E+02 5.00000E+01 0.00000E+00
 -1      1177 1.09650E+02 5.00000E+01 0.00000E+00
 -1      1178 1.12650E+02 5.00000E+01 0.00000E+00
 -1      1179 1.15650E+02 5.00000E+01 0.00000E+00
 -1      1180 1.18650E+02 5.00000E+01 0.00000E+00
 -1      1181 1.21650E+02 5.00000E+01 0.00000E+00
 -1      1182 1.24650E+02 5.00000E+01 0.00000E+00
 -1      1183 1.27650E+02 5.00000E+01 0.00000E+00
 -1      1184 1.30650E+02 5.00000E+01 0.00000E+00
 -1      1185 1.33650E+02 5.00000E+01 0.00000E+00
 -1      1186 1.36650E+02 5.00000E+01 0.00000E+00
 -1      1187 1.39650E+02 5.00000E+01 0.00000E+00
 -1      1188 1.42650E+02 5.00000E+01 0.00000E+00
 -1      1189 1.45650E+02 5.00000E+01 0.00000E+00
 -1      1190 1.48575E+02 5.00000E+01 0.00000E+00
 -1      1191 1.57500E+00 0.00000E+00 0.00000E+00
 -1      1192 4.65000E+00 0.00000E+00 0.00000E+00
 -1      1193 7.65000E+00 0.00000E+00 0.00000E+00
 -1      1194 1.06500E+01 0.00000E+00 0.00000E+00
 -1      1195 1.36500E+01 0.00000E+00 0.00000E+00
 -1      1196 1.66500E+01 0.00000E+00 0.00000E+00
 -1      1197 1.96500E+01 0.00000E+00 0.00000E+00
 -1      1198 2.26500E+01 0.00000E+00 0.00000E+00
 -1      1199 2.56500E+01 0.00000E+00 0.00000E+00
 -1      1200 2.86500E+01 0.00000E+00 0.00000E+00
 -1      1201 3.16500E+01 0.00000E+00 0.00000E+00
 -1      1202 3.46500E+01 0.00000E+00 0.00000E+00
 -1      1203 3.76500E+01 0.00000E+00 0.00000E+00
 -1      1204 4.06500E+01 0.00000E+00 0.00000E+00
 -1      1205 4.36500E+01 0.00000E+00 0.00000E+00
 -1      1206 4.66500E+01 0.00000E+00 0.00000E+00
 -1      1207 4.96500E+01 0.00000E+00 0.00000E+00
 -1      1208 5.26500E+01 0.00000E+00 0.00000E+00
 -1      1209 5.56500E+01 0.00000E+00 0.00000E+00
 -1      1210 5.86500E+01 0.00000E+00 0.00000E+00
 -1      1211 6.16500E+01 0.00000E+00 0.00000E+00
 -1      1212 6.45000E+01 0.00000E+00 0.00000E+00
 -1      1213 6.73500E+01 0.00000E+00 0.00000E+00
 -1      1214 7.03500E+01 0.00000E+00 0.00000E+00
 -1      1215 7.33500E+01 0.00000E+00 0.00000E+00
 -1      1216 7.63500E+01 0.00000E+00 0.00000E+00
 -1      1217 7.93500E+01 0.00000E+00 0.00000E+00
 -1      1218 8.23500E+01 0.00000E+00 0.00000E+00
 -1      1219 8.53500E+01 0.00000E+00 0.00000E+00
 -1      1220 8.84250E+01 0.00000E+00 0.00000E+00
 -1      1221 9.15000E+01 0.00000E+00 0.00000E+00
 -1      1222 9.45000E+01 0.00000E+00 0.00000E+00
 -1      1223 9.75000E+01 0.00000E+00 0.00000E+00
 -1      1224 1.00500E+02 0.00000E+00 0.00000E+00
 -1      1225 1.03500E+02 0.00000E+00 0.00000E+00
 -1      1226 1.06500E+02 0.00000E+00 0.00000E+00
 -1      1227 1.09500E+02 0.00000E+00 0.00000E+00
 -1      1228 1.12500E+02 0.00000E+00 0.00000E+00
 -1      1229 1.15500E+02 0.00000E+00 0.00000E+00
 -1      1230 1.18500E+02 0.00000E+00 0.00000E+00
 -1      1231 1.21500E+02 0.00000E+00 0.00000E+00
 -1      1232 1.24500E+02 0.00000E+00 0.00000E+00
 -1      1233 1.27500E+02 0.00000E+00 0.00000E+00
 -1      1234 1.30500E+02 0.00000E+00 0.00000E+00
 -1      1235 1.33500E+02 0.00000E+00 0.00000E+00
 -1      1236 1.36500E+02 0.00000E+00 0.00000E+00
 -1      1237 1.39500E+02 0.00000E+00 0.00000E+00
 -1      1238 1.42500E+02 0.00000E+00 0.00000E+00
 -1      1239 1.45500E+02 0.00000E+00 0.00000E+00
 -1      1240 1.48500E+02 0.00000E+00 0.00000E+00
 -1      1241 1.50000E+02 1.47500E+00 0.00000E+00
 -1      1242 1.50000E+02 4.42500E+00 0.00000E+00
 -1      1243 1.50000E+02 7.37500E+00 0.00000E+00
 -1      1244 1.50000E+02 1.03250E+01 0.00000E+00
 -1      1245 1.50000E+02 1.32750E+01 0.00000E+00
 -1      1246 1.50000E+02 1.62000E+01 0.00000E+00
 -1      1247 1.50000E+02 1.91250E+01 0.00000E+00
 -1      1248 1.50000E+02 2.20750E+01 0.00000E+00
 -1      1249 1.50000E+02 2.50250E+01 0.00000E+00
 -1      1250 1.50000E+02 2.79750E+01 0.00000E+00
 -1      1251 1.50000E+02 3.09250E+01 0.00000E+00
 -1      1252 1.50000E+02 3.38500E+01 0.00000E+00
 -1      1253 1.50000E+02 3.67750E+01 0.00000E+00
 -1      1254 1.50000E+02 3.97250E+01 0.00000E+00
 -1      1255 1.50000E+02 4.26750E+01 0.00000E+00
 -1      1256 1.50000E+02 4.56250E+01 0.00000E+00
 -1      1257 1.50000E+02 4.85500E+01 0.00000E+00
 -1      1258 6.83490E+01 1.66222E+01 0.00000E+00
 -1      1259 6.80408E+01 1.51716E+01 0.00000E+00
 -1      1260 6.74418E+01 1.38322E+01 0.00000E+00
 -1      1261 6.66041E+01 1.26774E+01 0.00000E+00
 -1      1262 6.55424E+01 1.17110E+01 0.00000E+00
 -1      1263 6.42487E+01 1.09557E+01 0.00000E+00
 -1      1264 6.28080E+01 1.04896E+01 0.00000E+00
 -1      1265 6.12727E+01 1.03446E+01 0.00000E+00
 -1      1266 5.97320E+01 1.05419E+01 0.00000E+00
 -1      1267 5.82924E+01 1.10645E+01 0.00000E+00
 -1      1268 5.70186E+01 1.18734E+01 0.00000E+00
 -1      1269 5.59641E+01 1.29165E+01 0.00000E+00
 -1      1270 5.51299E+01 1.42040E+01 0.00000E+00
 -1      1271 5.46132E+01 1.55759E+01 0.00000E+00
 -1      1272 5.43960E+01 1.69746E+01 0.00000E+00
 -1      1273 5.44727E+01 1.84404E+01 0.00000E+00
 -1      1274 5.48621E+01 1.98804E+01 0.00000E+00
 -1      1275 5.55519E+01 2.12114E+01 0.00000E+00
 -1      1276 5.64773E+01 2.23339E+01 0.00000E+00
 -1      1277 5.75573E+01 2.32036E+01 0.00000E+00
 -1      1278 5.87840E+01 2.38420E+01 0.00000E+00
 -1      1279 6.01251E+01 2.42291E+01 0.00000E+00
 -1      1280 6.15414E+01 2.43419E+01 0.00000E+00
 -1      1281 6.29833E+01 2.41590E+01 0.00000E+00
 -1      1282 6.43477E+01 2.36864E+01 0.00000E+00
 -1      1283 6.55657E+01 2.29590E+01 0.00000E+00
 -1      1284 6.66056E+01 2.20083E+01 0.00000E+00
 -1      1285 6.74570E+01 2.08288E+01 0.00000E+00
 -1      1286 6.80438E+01 1.95064E+01 0.00000E+00
 -1      1287 6.83459E+01 1.80941E+01 0.00000E+00
 -1      1288 1.57500E+00 4.85250E+01 0.00000E+00
 -1      1289 1.29900E+00 4.48375E+01 0.00000E+00
 -1      1290 1.29900E+00 4.63125E+01 0.00000E+00
 -1      1291 1.29900E+00 4.18875E+01 0.00000E+00
 -1      1292 1.29900E+00 4.33625E+01 0.00000E+00
 -1      1293 2.59800E+00 4.41000E+01 0.00000E+00
 -1      1294 1.29900E+00 3.89375E+01 0.00000E+00
 -1      1295 1.29900E+00 4.04125E+01 0.00000E+00
 -1      1296 2.59800E+00 4.11500E+01 0.00000E+00
 -1      1297 1.29900E+00 3.59875E+01 0.00000E+00
 -1      1298 1.29900E+00 3.74625E+01 0.00000E+00
 -1      1299 2.59800E+00 3.82000E+01 0.00000E+00
 -1      1300 1.29900E+00 3.30875E+01 0.00000E+00
 -1      1301 1.29900E+00 3.45375E+01 0.00000E+00
 -1      1302 2.59800E+00 3.52750E+01 0.00000E+00
 -1      1303 1.29900E+00 3.01375E+01 0.00000E+00
 -1      1304 1.29900E+00 3.16125E+01 0.00000E+00
 -1      1305 2.59800E+00 3.23500E+01 0.00000E+00
 -1      1306 1.29900E+00 2.71875E+01 0.00000E+00
 -1      1307 1.29900E+00 2.86625E+01 0.00000E+00
 -1      1308 2.59800E+00 2.94000E+01 0.00000E+00
 -1      1309 1.29900E+00 2.42375E+01 0.00000E+00
 -1      1310 1.29900E+00 2.57125E+01 0.00000E+00
 -1      1311 2.59800E+00 2.64500E+01 0.00000E+00
 -1      1312 1.29900E+00 2.12875E+01 0.00000E+00
 -1      1313 1.29900E+00 2.27625E+01 0.00000E+00
 -1      1314 2.59800E+00 2.35000E+01 0.00000E+00
 -1      1315 1.29900E+00 1.83375E+01 0.00000E+00
 -1      1316 1.29900E+00 1.98125E+01 0.00000E+00
 -1      1317 2.59800E+00 2.05500E+01 0.00000E+00
 -1      1318 1.29900E+00 1.54375E+01 0.00000E+00
 -1      1319 1.29900E+00 1.68875E+01 0.00000E+00
 -1      1320 2.59800E+00 1.76250E+01 0.00000E+00
 -1      1321 1.29900E+00 1.24875E+01 0.00000E+00
 -1      1322 1.29900E+00 1.39625E+01 0.00000E+00
 -1      1323 2.59800E+00 1.47000E+01 0.00000E+00
 -1      1324 1.29900E+00 9.53750E+00 0.00000E+00
 -1      1325 1.29900E+00 1.10125E+01 0.00000E+00
 -1      1326 2.59800E+00 1.17500E+01 0.00000E+00
 -1      1327 1.29900E+00 6.58750E+00 0.00000E+00
 -1      1328 1.29900E+00 8.06250E+00 0.00000E+00
 -1      1329 2.59800E+00 8.80000E+00 0.00000E+00
 -1      1330 1.29900E+00 3.63750E+00 0.00000E+00
 -1      1331 1.29900E+00 5.11250E+00 0.00000E+00
 -1      1332 2.59800E+00 5.85000E+00 0.00000E+00
 -1      1333 1.43700E+00 1.09375E+00 0.00000E+00
 -1      1334 1.43700E+00 2.54375E+00 0.00000E+00
 -1      1335 2.73600E+00 3.28125E+00 0.00000E+00
 -1      1336 3.01200E+00 1.09375E+00 0.00000E+00
 -1      1337 3.90000E+00 4.87010E+01 0.00000E+00
 -1      1338 5.40000E+00 4.87010E+01 0.00000E+00
 -1      1339 6.90000E+00 4.87010E+01 0.00000E+00
 -1      1340 8.40000E+00 4.87010E+01 0.00000E+00
 -1      1341 6.15000E+00 4.74020E+01 0.00000E+00
 -1      1342 9.90000E+00 4.87010E+01 0.00000E+00
 -1      1343 1.14000E+01 4.87010E+01 0.00000E+00
 -1      1344 9.15000E+00 4.74020E+01 0.00000E+00
 -1      1345 1.29000E+01 4.87010E+01 0.00000E+00
 -1      1346 1.44000E+01 4.87010E+01 0.00000E+00
 -1      1347 1.21500E+01 4.74020E+01 0.00000E+00
 -1      1348 1.59000E+01 4.87010E+01 0.00000E+00
 -1      1349 1.74000E+01 4.87010E+01 0.00000E+00
 -1      1350 1.51500E+01 4.74020E+01 0.00000E+00
 -1      1351 1.89000E+01 4.87010E+01 0.00000E+00
 -1      1352 2.04000E+01 4.87010E+01 0.00000E+00
 -1      1353 1.81500E+01 4.74020E+01 0.00000E+00
 -1      1354 2.19000E+01 4.87010E+01 0.00000E+00
 -1      1355 2.34000E+01 4.87010E+01 0.00000E+00
 -1      1356 2.11500E+01 4.74020E+01 0.00000E+00
 -1      1357 2.49000E+01 4.87010E+01 0.00000E+00
 -1      1358 2.64000E+01 4.87010E+01 0.00000E+00
 -1      1359 2.41500E+01 4.74020E+01 0.00000E+00
 -1      1360 2.79000E+01 4.87010E+01 0.00000E+00
 -1      1361 2.94000E+01 4.87010E+01 0.00000E+00
 -1      1362 2.71500E+01 4.74020E+01 0.00000E+00
 -1      1363 3.09000E+01 4.87010E+01 0.00000E+00
 -1      1364 3.24000E+01 4.87010E+01 0.00000E+00
 -1      1365 3.01500E+01 4.74020E+01 0.00000E+00
 -1      1366 3.39000E+01 4.87010E+01 0.00000E+00
 -1      1367 3.54000E+01 4.87010E+01 0.00000E+00
 -1      1368 3.31500E+01 4.74020E+01 0.00000E+00
 -1      1369 3.69000E+01 4.87010E+01 0.00000E+00
 -1      1370 3.84000E+01 4.87010E+01 0.00000E+00
 -1      1371 3.61500E+01 4.74020E+01 0.00000E+00
 -1      1372 3.99000E+01 4.87010E+01 0.00000E+00
 -1      1373 4.14000E+01 4.87010E+01 0.00000E+00
 -1      1374 3.91500E+01 4.74020E+01 0.00000E+00
 -1      1375 4.29000E+01 4.87010E+01 0.00000E+00
 -1      1376 4.44000E+01 4.87010E+01 0.00000E+00
 -1      1377 4.21500E+01 4.74020E+01 0.00000E+00
 -1      1378 4.59000E+01 4.87010E+01 0.00000E+00
 -1      1379 4.74000E+01 4.87010E+01 0.00000E+00
 -1      1380 4.51500E+01 4.74020E+01 0.00000E+00
 -1      1381 4.89000E+01 4.87010E+01 0.00000E+00
 -1      1382 5.04000E+01 4.87010E+01 0.00000E+00
 -1      1383 4.81500E+01 4.74020E+01 0.00000E+00
 -1      1384 5.19000E+01 4.87010E+01 0.00000E+00
 -1      1385 5.34000E+01 4.87010E+01 0.00000E+00
 -1      1386 5.11500E+01 4.74020E+01 0.00000E+00
 -1      1387 5.49000E+01 4.87010E+01 0.00000E+00
 -1      1388 5.64000E+01 4.87010E+01 0.00000E+00
 -1      1389 5.41500E+01 4.74020E+01 0.00000E+00
 -1      1390 5.79000E+01 4.87010E+01 0.00000E+00
 -1      1391 5.94000E+01 4.87010E+01 0.00000E+00
 -1      1392 5.71500E+01 4.74020E+01 0.00000E+00
 -1      1393 6.09000E+01 4.87010E+01 0.00000E+00
 -1      1394 6.24000E+01 4.87010E+01 0.00000E+00
 -1      1395 6.01500E+01 4.74020E+01 0.00000E+00
 -1      1396 6.39000E+01 4.87010E+01 0.00000E+00
 -1      1397 6.54000E+01 4.87010E+01 0.00000E+00
 -1      1398 6.31500E+01 4.74020E+01 0.00000E+00
 -1      1399 6.69000E+01 4.87010E+01 0.00000E+00
 -1      1400 6.84000E+01 4.87010E+01 0.00000E+00
 -1      1401 6.61500E+01 4.74020E+01 0.00000E+00
 -1      1402 6.99000E+01 4.87010E+01 0.00000E+00
 -1      1403 7.14000E+01 4.87010E+01 0.00000E+00
 -1      1404 6.91500E+01 4.74020E+01 0.00000E+00
 -1      1405 7.29000E+01 4.87010E+01 0.00000E+00
 -1      1406 7.44000E+01 4.87010E+01 0.00000E+00
 -1      1407 7.21500E+01 4.74020E+01 0.00000E+00
 -1      1408 7.59000E+01 4.87010E+01 0.00000E+00
 -1      1409 7.74000E+01 4.87010E+01 0.00000E+00
 -1      1410 7.51500E+01 4.74020E+01 0.00000E+00
 -1      1411 7.89000E+01 4.87010E+01 0.00000E+00
 -1      1412 8.04000E+01 4.87010E+01 0.00000E+00
 -1      1413 7.81500E+01 4.74020E+01 0.00000E+00
 -1      1414 8.19000E+01 4.87010E+01 0.00000E+00
 -1      1415 8.34000E+01 4.87010E+01 0.00000E+00
 -1      1416 8.11500E+01 4.74020E+01 0.00000E+00
 -1      1417 8.49000E+01 4.87010E+01 0.00000E+00
 -1      1418 8.64000E+01 4.87010E+01 0.00000E+00
 -1      1419 8.41500E+01 4.74020E+01 0.00000E+00
 -1      1420 8.79000E+01 4.87010E+01 0.00000E+00
 -1      1421 8.94000E+01 4.87010E+01 0.00000E+00
 -1      1422 8.71500E+01 4.74020E+01 0.00000E+00
 -1      1423 9.09000E+01 4.87010E+01 0.00000E+00
 -1      1424 9.24000E+01 4.87010E+01 0.00000E+00
 -1      1425 9.01500E+01 4.74020E+01 0.00000E+00
 -1      1426 9.39000E+01 4.87010E+01 0.00000E+00
 -1      1427 9.54000E+01 4.87010E+01 0.00000E+00
 -1      1428 9.31500E+01 4.74020E+01 0.00000E+00
 -1      1429 9.69000E+01 4.87010E+01 0.00000E+00
 -1      1430 9.84000E+01 4.87010E+01 0.00000E+00
 -1      1431 9.61500E+01 4.74020E+01 0.00000E+00
 -1      1432 9.99000E+01 4.87010E+01 0.00000E+00
 -1      1433 1.01400E+02 4.87010E+01 0.00000E+00
 -1      1434 9.91500E+01 4.74020E+01 0.00000E+00
 -1      1435 1.02900E+02 4.87010E+01 0.00000E+00
 -1      1436 1.04400E+02 4.87010E+01 0.00000E+00
 -1      1437 1.02150E+02 4.74020E+01 0.00000E+00
 -1      1438 1.05900E+02 4.87010E+01 0.00000E+00
 -1      1439 1.07400E+02 4.87010E+01 0.00000E+00
 -1      1440 1.05150E+02 4.74020E+01 0.00000E+00
 -1      1441 1.08900E+02 4.87010E+01 0.00000E+00
 -1      1442 1.10400E+02 4.87010E+01 0.00000E+00
 -1      1443 1.08150E+02 4.74020E+01 0.00000E+00
 -1      1444 1.11900E+02 4.87010E+01 0.00000E+00
 -1      1445 1.13400E+02 4.87010E+01 0.00000E+00
 -1      1446 1.11150E+02 4.74020E+01 0.00000E+00
 -1      1447 1.14900E+02 4.87010E+01 0.00000E+00
 -1      1448 1.16400E+02 4.87010E+01 0.00000E+00
 -1      1449 1.14150E+02 4.74020E+01 0.00000E+00
 -1      1450 1.17900E+02 4.87010E+01 0.00000E+00
 -1      1451 1.19400E+02 4.87010E+01 0.00000E+00
 -1      1452 1.17150E+02 4.74020E+01 0.00000E+00
 -1      1453 1.20900E+02 4.87010E+01 0.00000E+00
 -1      1454 1.22400E+02 4.87010E+01 0.00000E+00
 -1      1455 1.20150E+02 4.74020E+01 0.00000E+00
 -1      1456 1.23900E+02 4.87010E+01 0.00000E+00
 -1      1457 1.25400E+02 4.87010E+01 0.00000E+00
 -1      1458 1.23150E+02 4.74020E+01 0.00000E+00
 -1      1459 1.26900E+02 4.87010E+01 0.00000E+00
 -1      1460 1.28400E+02 4.87010E+01 0.00000E+00
 -1      1461 1.26150E+02 4.74020E+01 0.00000E+00
 -1      1462 1.29900E+02 4.87010E+01 0.00000E+00
 -1      1463 1.31400E+02 4.87010E+01 0.00000E+00
 -1      1464 1.29150E+02 4.74020E+01 0.00000E+00
 -1      1465 1.32900E+02 4.87010E+01 0.00000E+00
 -1      1466 1.34400E+02 4.87010E+01 0.00000E+00
 -1      1467 1.32150E+02 4.74020E+01 0.00000E+00
 -1      1468 1.35900E+02 4.87010E+01 0.00000E+00
 -1      1469 1.37400E+02 4.87010E+01 0.00000E+00
 -1      1470 1.35150E+02 4.74020E+01 0.00000E+00
 -1      1471 1.38900E+02 4.87010E+01 0.00000E+00
 -1      1472 1.40400E+02 4.87010E+01 0.00000E+00
 -1      1473 1.38150E+02 4.74020E+01 0.00000E+00
 -1      1474 1.41900E+02 4.87010E+01 0.00000E+00
 -1      1475 1.43400E+02 4.87010E+01 0.00000E+00
 -1      1476 1.41150E+02 4.74020E+01 0.00000E+00
 -1      1477 1.44900E+02 4.87010E+01 0.00000E+00
 -1      1478 1.46400E+02 4.87010E+01 0.00000E+00
 -1      1479 1.44150E+02 4.74020E+01 0.00000E+00
 -1      1480 1.48575E+02 4.85500E+01 0.00000E+00
 -1      1481 1.47825E+02 4.72510E+01 0.00000E+00
 -1      1482 6.01200E+00 1.09375E+00 0.00000E+00
 -1      1483 4.51200E+00 1.09375E+00 0.00000E+00
 -1      1484 4.37400E+00 2.18750E+00 0.00000E+00
 -1      1485 9.01200E+00 1.09375E+00 0.00000E+00
 -1      1486 7.51200E+00 1.09375E+00 0.00000E+00
 -1      1487 7.37400E+00 2.18750E+00 0.00000E+00
 -1      1488 1.20120E+01 1.09375E+00 0.00000E+00
 -1      1489 1.05120E+01 1.09375E+00 0.00000E+00
 -1      1490 1.03740E+01 2.18750E+00 0.00000E+00
 -1      1491 1.50120E+01 1.09375E+00 0.00000E+00
 -1      1492 1.35120E+01 1.09375E+00 0.00000E+00
 -1      1493 1.33740E+01 2.18750E+00 0.00000E+00
 -1      1494 1.80120E+01 1.09375E+00 0.00000E+00
 -1      1495 1.65120E+01 1.09375E+00 0.00000E+00
 -1      1496 1.63740E+01 2.18750E+00 0.00000E+00
 -1      1497 2.10120E+01 1.09375E+00 0.00000E+00
 -1      1498 1.95120E+01 1.09375E+00 0.00000E+00
 -1      1499 1.93740E+01 2.18750E+00 0.00000E+00
 -1      1500 2.40120E+01 1.09375E+00 0.00000E+00
 -1      1501 2.25120E+01 1.09375E+00 0.00000E+00
 -1      1502 2.23740E+01 2.18750E+00 0.00000E+00
 -1      1503 2.70120E+01 1.09375E+00 0.00000E+00
 -1      1504 2.55120E+01 1.09375E+00 0.00000E+00
 -1      1505 2.53740E+01 2.18750E+00 0.00000E+00
 -1      1506 3.00120E+01 1.09375E+00 0.00000E+00
 -1      1507 2.85120E+01 1.09375E+00 0.00000E+00
 -1      1508 2.83740E+01 2.18750E+00 0.00000E+00
 -1      1509 3.30120E+01 1.09375E+00 0.00000E+00
 -1      1510 3.15120E+01 1.09375E+00 0.00000E+00
 -1      1511 3.13740E+01 2.18750E+00 0.00000E+00
 -1      1512 3.60120E+01 1.09375E+00 0.00000E+00
 -1      1513 3.45120E+01 1.09375E+00 0.00000E+00
 -1      1514 3.43740E+01 2.18750E+00 0.00000E+00
 -1      1515 3.90120E+01 1.09375E+00 0.00000E+00
 -1      1516 3.75120E+01 1.09375E+00 0.00000E+00
 -1      1517 3.73740E+01 2.18750E+00 0.00000E+00
 -1      1518 4.20120E+01 1.09375E+00 0.00000E+00
 -1      1519 4.05120E+01 1.09375E+00 0.00000E+00
 -1      1520 4.03740E+01 2.18750E+00 0.00000E+00
 -1      1521 4.50120E+01 1.09375E+00 0.00000E+00
 -1      1522 4.35120E+01 1.09375E+00 0.00000E+00
 -1      1523 4.33740E+01 2.18750E+00 0.00000E+00
 -1      1524 4.80120E+01 1.09375E+00 0.00000E+00
 -1      1525 4.65120E+01 1.09375E+00 0.00000E+00
 -1      1526 4.63740E+01 2.18750E+00 0.00000E+00
 -1      1527 5.10120E+01 1.09375E+00 0.00000E+00
 -1      1528 4.95120E+01 1.09375E+00 0.00000E+00
 -1      1529 4.93740E+01 2.18750E+00 0.00000E+00
 -1      1530 5.40120E+01 1.09375E+00 0.00000E+00
 -1      1531 5.25120E+01 1.09375E+00 0.00000E+00
 -1      1532 5.23740E+01 2.18750E+00 0.00000E+00
 -1      1533 5.70120E+01 1.09375E+00 0.00000E+00
 -1      1534 5.55120E+01 1.09375E+00 0.00000E+00
 -1      1535 5.53740E+01 2.18750E+00 0.00000E+00
 -1      1536 6.00120E+01 1.09375E+00 0.00000E+00
 -1      1537 5.85120E+01 1.09375E+00 0.00000E+00
 -1      1538 5.83740E+01 2.18750E+00 0.00000E+00
 -1      1539 6.30120E+01 1.09375E+00 0.00000E+00
 -1      1540 6.15120E+01 1.09375E+00 0.00000E+00
 -1      1541 6.13740E+01 2.18750E+00 0.00000E+00
 -1      1542 6.57120E+01 1.09375E+00 0.00000E+00
 -1      1543 6.43620E+01 1.09375E+00 0.00000E+00
 -1      1544 6.42240E+01 2.18750E+00 0.00000E+00
 -1      1545 6.87120E+01 1.09375E+00 0.00000E+00
 -1      1546 6.72120E+01 1.09375E+00 0.00000E+00
 -1      1547 6.70740E+01 2.18750E+00 0.00000E+00
 -1      1548 7.17120E+01 1.09375E+00 0.00000E+00
 -1      1549 7.02120E+01 1.09375E+00 0.00000E+00
 -1      1550 7.00740E+01 2.18750E+00 0.00000E+00
 -1      1551 7.47120E+01 1.09375E+00 0.00000E+00
 -1      1552 7.32120E+01 1.09375E+00 0.00000E+00
 -1      1553 7.30740E+01 2.18750E+00 0.00000E+00
 -1      1554 7.77120E+01 1.09375E+00 0.00000E+00
 -1      1555 7.62120E+01 1.09375E+00 0.00000E+00
 -1      1556 7.60740E+01 2.18750E+00 0.00000E+00
 -1      1557 8.07120E+01 1.09375E+00 0.00000E+00
 -1      1558 7.92120E+01 1.09375E+00 0.00000E+00
 -1      1559 7.90740E+01 2.18750E+00 0.00000E+00
 -1      1560 8.37120E+01 1.09375E+00 0.00000E+00
 -1      1561 8.22120E+01 1.09375E+00 0.00000E+00
 -1      1562 8.20740E+01 2.18750E+00 0.00000E+00
 -1      1563 8.67120E+01 1.09375E+00 0.00000E+00
 -1      1564 8.52120E+01 1.09375E+00 0.00000E+00
 -1      1565 8.50740E+01 2.18750E+00 0.00000E+00
 -1      1566 8.98620E+01 1.09375E+00 0.00000E+00
 -1      1567 8.82870E+01 1.09375E+00 0.00000E+00
 -1      1568 8.81490E+01 2.18750E+00 0.00000E+00
 -1      1569 9.28620E+01 1.09375E+00 0.00000E+00
 -1      1570 9.13620E+01 1.09375E+00 0.00000E+00
 -1      1571 9.12240E+01 2.18750E+00 0.00000E+00
 -1      1572 9.58620E+01 1.09375E+00 0.00000E+00
 -1      1573 9.43620E+01 1.09375E+00 0.00000E+00
 -1      1574 9.42240E+01 2.18750E+00 0.00000E+00
 -1      1575 9.88620E+01 1.09375E+00 0.00000E+00
 -1      1576 9.73620E+01 1.09375E+00 0.00000E+00
 -1      1577 9.72240E+01 2.18750E+00 0.00000E+00
 -1      1578 1.01862E+02 1.09375E+00 0.00000E+00
 -1      1579 1.00362E+02 1.09375E+00 0.00000E+00
 -1      1580 1.00224E+02 2.18750E+00 0.00000E+00
 -1      1581 1.04862E+02 1.09375E+00 0.00000E+00
 -1      1582 1.03362E+02 1.09375E+00 0.00000E+00
 -1      1583 1.03224E+02 2.18750E+00 0.00000E+00
 -1      1584 1.07862E+02 1.09375E+00 0.00000E+00
 -1      1585 1.06362E+02 1.09375E+00 0.00000E+00
 -1      1586 1.06224E+02 2.18750E+00 0.00000E+00
 -1      1587 1.10862E+02 1.09375E+00 0.00000E+00
 -1      1588 1.09362E+02 1.09375E+00 0.00000E+00
 -1      1589 1.09224E+02 2.18750E+00 0.00000E+00
 -1      1590 1.13862E+02 1.09375E+00 0.00000E+00
 -1      1591 1.12362E+02 1.09375E+00 0.00000E+00
 -1      1592 1.12224E+02 2.18750E+00 0.00000E+00
 -1      1593 1.16862E+02 1.09375E+00 0.00000E+00
 -1      1594 1.15362E+02 1.09375E+00 0.00000E+00
 -1      1595 1.15224E+02 2.18750E+00 0.00000E+00
 -1      1596 1.19862E+02 1.09375E+00 0.00000E+00
 -1      1597 1.18362E+02 1.09375E+00 0.00000E+00
 -1      1598 1.18224E+02 2.18750E+00 0.00000E+00
 -1      1599 1.22862E+02 1.09375E+00 0.00000E+00
 -1      1600 1.21362E+02 1.09375E+00 0.00000E+00
 -1      1601 1.21224E+02 2.18750E+00 0.00000E+00
 -1      1602 1.25862E+02 1.09375E+00 0.00000E+00
 -1      1603 1.24362E+02 1.09375E+00 0.00000E+00
 -1      1604 1.24224E+02 2.18750E+00 0.00000E+00
 -1      1605 1.28862E+02 1.09375E+00 0.00000E+00
 -1      1606 1.27362E+02 1.09375E+00 0.00000E+00
 -1      1607 1.27224E+02 2.18750E+00 0.00000E+00
 -1      1608 1.31862E+02 1.09375E+00 0.00000E+00
 -1      1609 1.30362E+02 1.09375E+00 0.00000E+00
 -1      1610 1.30224E+02 2.18750E+00 0.00000E+00
 -1      1611 1.34862E+02 1.09375E+00 0.00000E+00
 -1      1612 1.33362E+02 1.09375E+00 0.00000E+00
 -1      1613 1.33224E+02 2.18750E+00 0.00000E+00
 -1      1614 1.37862E+02 1.09375E+00 0.00000E+00
 -1      1615 1.36362E+02 1.09375E+00 0.00000E+00
 -1      1616 1.36224E+02 2.18750E+00 0.00000E+00
 -1      1617 1.40862E+02 1.09375E+00 0.00000E+00
 -1      1618 1.39362E+02 1.09375E+00 0.00000E+00
 -1      1619 1.39224E+02 2.18750E+00 0.00000E+00
 -1      1620 1.43862E+02 1.09375E+00 0.00000E+00
 -1      1621 1.42362E+02 1.09375E+00 0.00000E+00
 -1      1622 1.42224E+02 2.18750E+00 0.00000E+00
 -1      1623 1.46862E+02 1.09375E+00 0.00000E+00
 -1      1624 1.45362E+02 1.09375E+00 0.00000E+00
 -1      1625 1.45224E+02 2.18750E+00 0.00000E+00
 -1      1626 1.48500E+02 1.47500E+00 0.00000E+00
 -1      1627 1.48701E+02 5.16250E+00 0.00000E+00
 -1      1628 1.48701E+02 3.68750E+00 0.00000E+00
 -1      1629 1.48701E+02 8.11250E+00 0.00000E+00
 -1      1630 1.48701E+02 6.63750E+00 0.00000E+00
 -1      1631 1.47402E+02 5.90000E+00 0.00000E+00
 -1      1632 1.48701E+02 1.10625E+01 0.00000E+00
 -1      1633 1.48701E+02 9.58750E+00 0.00000E+00
 -1      1634 1.47402E+02 8.85000E+00 0.00000E+00
 -1      1635 1.48701E+02 1.40125E+01 0.00000E+00
 -1      1636 1.48701E+02 1.25375E+01 0.00000E+00
 -1      1637 1.47402E+02 1.18000E+01 0.00000E+00
 -1      1638 1.48701E+02 1.69125E+01 0.00000E+00
 -1      1639 1.48701E+02 1.54625E+01 0.00000E+00
 -1      1640 1.47402E+02 1.47250E+01 0.00000E+00
 -1      1641 1.48701E+02 1.98625E+01 0.00000E+00
 -1      1642 1.48701E+02 1.83875E+01 0.00000E+00
 -1      1643 1.47402E+02 1.76500E+01 0.00000E+00
 -1      1644 1.48701E+02 2.28125E+01 0.00000E+00
 -1      1645 1.48701E+02 2.13375E+01 0.00000E+00
 -1      1646 1.47402E+02 2.06000E+01 0.00000E+00
 -1      1647 1.48701E+02 2.57625E+01 0.00000E+00
 -1      1648 1.48701E+02 2.42875E+01 0.00000E+00
 -1      1649 1.47402E+02 2.35500E+01 0.00000E+00
 -1      1650 1.48701E+02 2.87125E+01 0.00000E+00
 -1      1651 1.48701E+02 2.72375E+01 0.00000E+00
 -1      1652 1.47402E+02 2.65000E+01 0.00000E+00
 -1      1653 1.48701E+02 3.16625E+01 0.00000E+00
 -1      1654 1.48701E+02 3.01875E+01 0.00000E+00
 -1      1655 1.47402E+02 2.94500E+01 0.00000E+00
 -1      1656 1.48701E+02 3.45625E+01 0.00000E+00
 -1      1657 1.48701E+02 3.31125E+01 0.00000E+00
 -1      1658 1.47402E+02 3.23750E+01 0.00000E+00
 -1      1659 1.48701E+02 3.75125E+01 0.00000E+00
 -1      1660 1.48701E+02 3.60375E+01 0.00000E+00
 -1      1661 1.47402E+02 3.53000E+01 0.00000E+00
 -1      1662 1.48701E+02 4.04625E+01 0.00000E+00
 -1      1663 1.48701E+02 3.89875E+01 0.00000E+00
 -1      1664 1.47402E+02 3.82500E+01 0.00000E+00
 -1      1665 1.48701E+02 4.34125E+01 0.00000E+00
 -1      1666 1.48701E+02 4.19375E+01 0.00000E+00
 -1      1667 1.47402E+02 4.12000E+01 0.00000E+00
 -1      1668 1.48263E+02 4.60692E+01 0.00000E+00
 -1      1669 1.48263E+02 4.45942E+01 0.00000E+00
 -1      1670 1.46964E+02 4.38568E+01 0.00000E+00
 -1      1671 1.46088E+02 4.62202E+01 0.00000E+00
 -1      1672 6.88777E+01 1.62047E+01 0.00000E+00
 -1      1673 6.89521E+01 1.69223E+01 0.00000E+00
 -1      1674 6.85391E+01 1.46085E+01 0.00000E+00
 -1      1675 6.87754E+01 1.53323E+01 0.00000E+00
 -1      1676 6.77583E+01 1.32407E+01 0.00000E+00
 -1      1677 6.81124E+01 1.38513E+01 0.00000E+00
 -1      1678 6.67880E+01 1.20294E+01 0.00000E+00
 -1      1679 6.72685E+01 1.25667E+01 0.00000E+00
 -1      1680 6.55930E+01 1.10405E+01 0.00000E+00
 -1      1681 6.61682E+01 1.14649E+01 0.00000E+00
 -1      1682 6.41555E+01 1.02060E+01 0.00000E+00
 -1      1683 6.48702E+01 1.05262E+01 0.00000E+00
 -1      1684 6.25740E+01 9.81821E+00 0.00000E+00
 -1      1685 6.32897E+01 9.96667E+00 0.00000E+00
 -1      1686 6.08567E+01 9.70841E+00 0.00000E+00
 -1      1687 6.16678E+01 9.69525E+00 0.00000E+00
 -1      1688 5.92375E+01 1.00789E+01 0.00000E+00
 -1      1689 5.99586E+01 9.90355E+00 0.00000E+00
 -1      1690 5.76532E+01 1.06600E+01 0.00000E+00
 -1      1691 5.83612E+01 1.03112E+01 0.00000E+00
 -1      1692 5.63823E+01 1.16532E+01 0.00000E+00
 -1      1693 5.69447E+01 1.12042E+01 0.00000E+00
 -1      1694 5.52205E+01 1.28023E+01 0.00000E+00
 -1      1695 5.57034E+01 1.22108E+01 0.00000E+00
 -1      1696 5.43035E+01 1.42204E+01 0.00000E+00
 -1      1697 5.46491E+01 1.35317E+01 0.00000E+00
 -1      1698 5.39723E+01 1.57679E+01 0.00000E+00
 -1      1699 5.41479E+01 1.50951E+01 0.00000E+00
 -1      1700 5.38088E+01 1.73041E+01 0.00000E+00
 -1      1701 5.38467E+01 1.65850E+01 0.00000E+00
 -1      1702 5.39721E+01 1.88983E+01 0.00000E+00
 -1      1703 5.38550E+01 1.81599E+01 0.00000E+00
 -1      1704 5.44298E+01 2.04476E+01 0.00000E+00
 -1      1705 5.41602E+01 1.97541E+01 0.00000E+00
 -1      1706 5.51845E+01 2.19079E+01 0.00000E+00
 -1      1707 5.47673E+01 2.12785E+01 0.00000E+00
 -1      1708 5.63262E+01 2.29863E+01 0.00000E+00
 -1      1709 5.58274E+01 2.24957E+01 0.00000E+00
 -1      1710 5.75088E+01 2.39057E+01 0.00000E+00
 -1      1711 5.69337E+01 2.35299E+01 0.00000E+00
 -1      1712 5.88946E+01 2.45019E+01 0.00000E+00
 -1      1713 5.82485E+01 2.42432E+01 0.00000E+00
 -1      1714 6.03589E+01 2.48951E+01 0.00000E+00
 -1      1715 5.96705E+01 2.47690E+01 0.00000E+00
 -1      1716 6.19152E+01 2.49447E+01 0.00000E+00
 -1      1717 6.11946E+01 2.49607E+01 0.00000E+00
 -1      1718 6.35078E+01 2.47914E+01 0.00000E+00
 -1      1719 6.27944E+01 2.49585E+01 0.00000E+00
 -1      1720 6.49288E+01 2.40903E+01 0.00000E+00
 -1      1721 6.42844E+01 2.43912E+01 0.00000E+00
 -1      1722 6.61900E+01 2.32054E+01 0.00000E+00
 -1      1723 6.56225E+01 2.36278E+01 0.00000E+00
 -1      1724 6.72651E+01 2.21272E+01 0.00000E+00
 -1      1725 6.67975E+01 2.26503E+01 0.00000E+00
 -1      1726 6.82076E+01 2.08255E+01 0.00000E+00
 -1      1727 6.78327E+01 2.14786E+01 0.00000E+00
 -1      1728 6.86947E+01 1.93531E+01 0.00000E+00
 -1      1729 6.84804E+01 2.00129E+01 0.00000E+00
 -1      1730 6.90321E+01 1.77907E+01 0.00000E+00
 -1      1731 6.89516E+01 1.85369E+01 0.00000E+00
 -1      1732 6.68603E+01 1.13294E+01 0.00000E+00
 -1      1733 6.79700E+01 1.25680E+01 0.00000E+00
 -1      1734 1.48362E+02 2.56875E+00 0.00000E+00
 -1      1735 1.47063E+02 3.30625E+00 0.00000E+00
 -1      1736 6.94155E+01 1.56287E+01 0.00000E+00
 -1      1737 6.88865E+01 1.39991E+01 0.00000E+00
 -1      1738 6.95978E+01 1.73694E+01 0.00000E+00
 -1      1739 6.55178E+01 1.02507E+01 0.00000E+00
 -1      1740 6.39293E+01 9.49715E+00 0.00000E+00
 -1      1741 6.21573E+01 9.13490E+00 0.00000E+00
 -1      1742 6.03529E+01 9.20708E+00 0.00000E+00
 -1      1743 5.85785E+01 9.63444E+00 0.00000E+00
 -1      1744 5.69937E+01 1.04108E+01 0.00000E+00
 -1      1745 5.56064E+01 1.15126E+01 0.00000E+00
 -1      1746 5.43561E+01 1.27996E+01 0.00000E+00
 -1      1747 5.36292E+01 1.44037E+01 0.00000E+00
 -1      1748 5.33480E+01 1.60955E+01 0.00000E+00
 -1      1749 5.32686E+01 1.77683E+01 0.00000E+00
 -1      1750 5.35029E+01 1.94799E+01 0.00000E+00
 -1      1751 5.40284E+01 2.11667E+01 0.00000E+00
 -1      1752 5.50088E+01 2.25854E+01 0.00000E+00
 -1      1753 5.62592E+01 2.37168E+01 0.00000E+00
 -1      1754 5.76065E+01 2.45978E+01 0.00000E+00
 -1      1755 5.91221E+01 2.52024E+01 0.00000E+00
 -1      1756 6.07336E+01 2.55351E+01 0.00000E+00
 -1      1757 6.24484E+01 2.56145E+01 0.00000E+00
 -1      1758 6.41042E+01 2.52282E+01 0.00000E+00
 -1      1759 6.55745E+01 2.43654E+01 0.00000E+00
 -1      1760 6.68757E+01 2.33478E+01 0.00000E+00
 -1      1761 6.80509E+01 2.21442E+01 0.00000E+00
 -1      1762 6.88913E+01 2.06830E+01 0.00000E+00
 -1      1763 6.94210E+01 1.90540E+01 0.00000E+00
 -1      1764 2.87400E+00 4.77875E+01 0.00000E+00
 -1      1765 3.89700E+00 4.04125E+01 0.00000E+00
 -1      1766 3.89700E+00 4.18875E+01 0.00000E+00
 -1      1767 3.89700E+00 4.33625E+01 0.00000E+00
 -1      1768 3.89700E+00 4.48375E+01 0.00000E+00
 -1      1769 5.19600E+00 4.26250E+01 0.00000E+00
 -1      1770 3.89700E+00 3.45500E+01 0.00000E+00
 -1      1771 3.89700E+00 3.60000E+01 0.00000E+00
 -1      1772 3.89700E+00 3.16000E+01 0.00000E+00
 -1      1773 3.89700E+00 3.30750E+01 0.00000E+00
 -1      1774 5.19600E+00 3.38000E+01 0.00000E+00
 -1      1775 3.89700E+00 2.86500E+01 0.00000E+00
 -1      1776 3.89700E+00 3.01250E+01 0.00000E+00
 -1      1777 5.19600E+00 3.08500E+01 0.00000E+00
 -1      1778 3.89700E+00 2.57000E+01 0.00000E+00
 -1      1779 3.89700E+00 2.71750E+01 0.00000E+00
 -1      1780 5.19600E+00 2.79000E+01 0.00000E+00
 -1      1781 3.89700E+00 2.27500E+01 0.00000E+00
 -1      1782 3.89700E+00 2.42250E+01 0.00000E+00
 -1      1783 5.19600E+00 2.49500E+01 0.00000E+00
 -1      1784 3.89700E+00 1.98000E+01 0.00000E+00
 -1      1785 3.89700E+00 2.12750E+01 0.00000E+00
 -1      1786 5.19600E+00 2.20000E+01 0.00000E+00
 -1      1787 3.89700E+00 1.69000E+01 0.00000E+00
 -1      1788 3.89700E+00 1.83500E+01 0.00000E+00
 -1      1789 5.19600E+00 1.90750E+01 0.00000E+00
 -1      1790 3.89700E+00 1.39500E+01 0.00000E+00
 -1      1791 3.89700E+00 1.54250E+01 0.00000E+00
 -1      1792 5.19600E+00 1.61500E+01 0.00000E+00
 -1      1793 3.89700E+00 1.10000E+01 0.00000E+00
 -1      1794 3.89700E+00 1.24750E+01 0.00000E+00
 -1      1795 5.19600E+00 1.32000E+01 0.00000E+00
 -1      1796 3.89700E+00 8.05000E+00 0.00000E+00
 -1      1797 3.89700E+00 9.52500E+00 0.00000E+00
 -1      1798 5.19600E+00 1.02500E+01 0.00000E+00
 -1      1799 3.89700E+00 5.10000E+00 0.00000E+00
 -1      1800 3.89700E+00 6.57500E+00 0.00000E+00
 -1      1801 5.19600E+00 7.30000E+00 0.00000E+00
 -1      1802 4.20450E+00 3.09687E+00 0.00000E+00
 -1      1803 4.06650E+00 4.19063E+00 0.00000E+00
 -1      1804 5.36550E+00 4.91563E+00 0.00000E+00
 -1      1805 5.70450E+00 3.09687E+00 0.00000E+00
 -1      1806 3.62400E+00 4.64885E+01 0.00000E+00
 -1      1807 8.70450E+00 3.09687E+00 0.00000E+00
 -1      1808 7.20450E+00 3.09687E+00 0.00000E+00
 -1      1809 7.03500E+00 4.00625E+00 0.00000E+00
 -1      1810 4.92300E+00 4.57510E+01 0.00000E+00
 -1      1811 8.40000E+00 4.61030E+01 0.00000E+00
 -1      1812 9.90000E+00 4.61030E+01 0.00000E+00
 -1      1813 1.14000E+01 4.61030E+01 0.00000E+00
 -1      1814 1.29000E+01 4.61030E+01 0.00000E+00
 -1      1815 1.06500E+01 4.48040E+01 0.00000E+00
 -1      1816 1.44000E+01 4.61030E+01 0.00000E+00
 -1      1817 1.59000E+01 4.61030E+01 0.00000E+00
 -1      1818 1.36500E+01 4.48040E+01 0.00000E+00
 -1      1819 1.74000E+01 4.61030E+01 0.00000E+00
 -1      1820 1.89000E+01 4.61030E+01 0.00000E+00
 -1      1821 1.66500E+01 4.48040E+01 0.00000E+00
 -1      1822 2.04000E+01 4.61030E+01 0.00000E+00
 -1      1823 2.19000E+01 4.61030E+01 0.00000E+00
 -1      1824 1.96500E+01 4.48040E+01 0.00000E+00
 -1      1825 2.34000E+01 4.61030E+01 0.00000E+00
 -1      1826 2.49000E+01 4.61030E+01 0.00000E+00
 -1      1827 2.26500E+01 4.48040E+01 0.00000E+00
 -1      1828 2.64000E+01 4.61030E+01 0.00000E+00
 -1      1829 2.79000E+01 4.61030E+01 0.00000E+00
 -1      1830 2.56500E+01 4.48040E+01 0.00000E+00
 -1      1831 2.94000E+01 4.61030E+01 0.00000E+00
 -1      1832 3.09000E+01 4.61030E+01 0.00000E+00
 -1      1833 2.86500E+01 4.48040E+01 0.00000E+00
 -1      1834 3.24000E+01 4.61030E+01 0.00000E+00
 -1      1835 3.39000E+01 4.61030E+01 0.00000E+00
 -1      1836 3.16500E+01 4.48040E+01 0.00000E+00
 -1      1837 3.54000E+01 4.61030E+01 0.00000E+00
 -1      1838 3.69000E+01 4.61030E+01 0.00000E+00
 -1      1839 3.46500E+01 4.48040E+01 0.00000E+00
 -1      1840 3.84000E+01 4.61030E+01 0.00000E+00
 -1      1841 3.99000E+01 4.61030E+01 0.00000E+00
 -1      1842 3.76500E+01 4.48040E+01 0.00000E+00
 -1      1843 4.14000E+01 4.61030E+01 0.00000E+00
 -1      1844 4.29000E+01 4.61030E+01 0.00000E+00
 -1      1845 4.06500E+01 4.48040E+01 0.00000E+00
 -1      1846 4.44000E+01 4.61030E+01 0.00000E+00
 -1      1847 4.59000E+01 4.61030E+01 0.00000E+00
 -1      1848 4.36500E+01 4.48040E+01 0.00000E+00
 -1      1849 4.74000E+01 4.61030E+01 0.00000E+00
 -1      1850 4.89000E+01 4.61030E+01 0.00000E+00
 -1      1851 4.66500E+01 4.48040E+01 0.00000E+00
 -1      1852 5.04000E+01 4.61030E+01 0.00000E+00
 -1      1853 5.19000E+01 4.61030E+01 0.00000E+00
 -1      1854 4.96500E+01 4.48040E+01 0.00000E+00
 -1      1855 5.34000E+01 4.61030E+01 0.00000E+00
 -1      1856 5.49000E+01 4.61030E+01 0.00000E+00
 -1      1857 5.26500E+01 4.48040E+01 0.00000E+00
 -1      1858 5.64000E+01 4.61030E+01 0.00000E+00
 -1      1859 5.79000E+01 4.61030E+01 0.00000E+00
 -1      1860 5.56500E+01 4.48040E+01 0.00000E+00
 -1      1861 5.94000E+01 4.61030E+01 0.00000E+00
 -1      1862 6.09000E+01 4.61030E+01 0.00000E+00
 -1      1863 5.86500E+01 4.48040E+01 0.00000E+00
 -1      1864 6.24000E+01 4.61030E+01 0.00000E+00
 -1      1865 6.39000E+01 4.61030E+01 0.00000E+00
 -1      1866 6.16500E+01 4.48040E+01 0.00000E+00
 -1      1867 6.54000E+01 4.61030E+01 0.00000E+00
 -1      1868 6.69000E+01 4.61030E+01 0.00000E+00
 -1      1869 6.46500E+01 4.48040E+01 0.00000E+00
 -1      1870 6.84000E+01 4.61030E+01 0.00000E+00
 -1      1871 6.99000E+01 4.61030E+01 0.00000E+00
 -1      1872 6.76500E+01 4.48040E+01 0.00000E+00
 -1      1873 7.14000E+01 4.61030E+01 0.00000E+00
 -1      1874 7.29000E+01 4.61030E+01 0.00000E+00
 -1      1875 7.06500E+01 4.48040E+01 0.00000E+00
 -1      1876 7.44000E+01 4.61030E+01 0.00000E+00
 -1      1877 7.59000E+01 4.61030E+01 0.00000E+00
 -1      1878 7.36500E+01 4.48040E+01 0.00000E+00
 -1      1879 7.74000E+01 4.61030E+01 0.00000E+00
 -1      1880 7.89000E+01 4.61030E+01 0.00000E+00
 -1      1881 7.66500E+01 4.48040E+01 0.00000E+00
 -1      1882 8.04000E+01 4.61030E+01 0.00000E+00
 -1      1883 8.19000E+01 4.61030E+01 0.00000E+00
 -1      1884 7.96500E+01 4.48040E+01 0.00000E+00
 -1      1885 8.34000E+01 4.61030E+01 0.00000E+00
 -1      1886 8.49000E+01 4.61030E+01 0.00000E+00
 -1      1887 8.26500E+01 4.48040E+01 0.00000E+00
 -1      1888 8.64000E+01 4.61030E+01 0.00000E+00
 -1      1889 8.79000E+01 4.61030E+01 0.00000E+00
 -1      1890 8.56500E+01 4.48040E+01 0.00000E+00
 -1      1891 8.94000E+01 4.61030E+01 0.00000E+00
 -1      1892 9.09000E+01 4.61030E+01 0.00000E+00
 -1      1893 8.86500E+01 4.48040E+01 0.00000E+00
 -1      1894 9.24000E+01 4.61030E+01 0.00000E+00
 -1      1895 9.39000E+01 4.61030E+01 0.00000E+00
 -1      1896 9.16500E+01 4.48040E+01 0.00000E+00
 -1      1897 9.54000E+01 4.61030E+01 0.00000E+00
 -1      1898 9.69000E+01 4.61030E+01 0.00000E+00
 -1      1899 9.46500E+01 4.48040E+01 0.00000E+00
 -1      1900 9.84000E+01 4.61030E+01 0.00000E+00
 -1      1901 9.99000E+01 4.61030E+01 0.00000E+00
 -1      1902 9.76500E+01 4.48040E+01 0.00000E+00
 -1      1903 1.01400E+02 4.61030E+01 0.00000E+00
 -1      1904 1.02900E+02 4.61030E+01 0.00000E+00
 -1      1905 1.00650E+02 4.48040E+01 0.00000E+00
 -1      1906 1.04400E+02 4.61030E+01 0.00000E+00
 -1      1907 1.05900E+02 4.61030E+01 0.00000E+00
 -1      1908 1.03650E+02 4.48040E+01 0.00000E+00
 -1      1909 1.07400E+02 4.61030E+01 0.00000E+00
 -1      1910 1.08900E+02 4.61030E+01 0.00000E+00
 -1      1911 1.06650E+02 4.48040E+01 0.00000E+00
 -1      1912 1.10400E+02 4.61030E+01 0.00000E+00
 -1      1913 1.11900E+02 4.61030E+01 0.00000E+00
 -1      1914 1.09650E+02 4.48040E+01 0.00000E+00
 -1      1915 1.13400E+02 4.61030E+01 0.00000E+00
 -1      1916 1.14900E+02 4.61030E+01 0.00000E+00
 -1      1917 1.12650E+02 4.48040E+01 0.00000E+00
 -1      1918 1.16400E+02 4.61030E+01 0.00000E+00
 -1      1919 1.17900E+02 4.61030E+01 0.00000E+00
 -1      1920 1.15650E+02 4.48040E+01 0.00000E+00
 -1      1921 1.19400E+02 4.61030E+01 0.00000E+00
 -1      1922 1.20900E+02 4.61030E+01 0.00000E+00
 -1      1923 1.18650E+02 4.48040E+01 0.00000E+00
 -1      1924 1.22400E+02 4.61030E+01 0.00000E+00
 -1      1925 1.23900E+02 4.61030E+01 0.00000E+00
 -1      1926 1.21650E+02 4.48040E+01 0.00000E+00
 -1      1927 1.25400E+02 4.61030E+01 0.00000E+00
 -1      1928 1.26900E+02 4.61030E+01 0.00000E+00
 -1      1929 1.24650E+02 4.48040E+01 0.00000E+00
 -1      1930 1.28400E+02 4.61030E+01 0.00000E+00
 -1      1931 1.29900E+02 4.61030E+01 0.00000E+00
 -1      1932 1.27650E+02 4.48040E+01 0.00000E+00
 -1      1933 1.31400E+02 4.61030E+01 0.00000E+00
 -1      1934 1.32900E+02 4.61030E+01 0.00000E+00
 -1      1935 1.30650E+02 4.48040E+01 0.00000E+00
 -1      1936 1.34400E+02 4.61030E+01 0.00000E+00
 -1      1937 1.35900E+02 4.61030E+01 0.00000E+00
 -1      1938 1.33650E+02 4.48040E+01 0.00000E+00
 -1      1939 1.37400E+02 4.61030E+01 0.00000E+00
 -1      1940 1.38900E+02 4.61030E+01 0.00000E+00
 -1      1941 1.36650E+02 4.48040E+01 0.00000E+00
 -1      1942 1.40400E+02 4.61030E+01 0.00000E+00
 -1      1943 1.41900E+02 4.61030E+01 0.00000E+00
 -1      1944 1.39650E+02 4.48040E+01 0.00000E+00
 -1      1945 1.43244E+02 4.61616E+01 0.00000E+00
 -1      1946 1.44744E+02 4.61616E+01 0.00000E+00
 -1      1947 1.45182E+02 4.49799E+01 0.00000E+00
 -1      1948 1.42494E+02 4.48626E+01 0.00000E+00
 -1      1949 1.17045E+01 3.09687E+00 0.00000E+00
 -1      1950 1.02045E+01 3.09687E+00 0.00000E+00
 -1      1951 1.00350E+01 4.00625E+00 0.00000E+00
 -1      1952 1.47045E+01 3.09687E+00 0.00000E+00
 -1      1953 1.32045E+01 3.09687E+00 0.00000E+00
 -1      1954 1.30350E+01 4.00625E+00 0.00000E+00
 -1      1955 1.77045E+01 3.09687E+00 0.00000E+00
 -1      1956 1.62045E+01 3.09687E+00 0.00000E+00
 -1      1957 1.60350E+01 4.00625E+00 0.00000E+00
 -1      1958 2.07045E+01 3.09687E+00 0.00000E+00
 -1      1959 1.92045E+01 3.09687E+00 0.00000E+00
 -1      1960 1.90350E+01 4.00625E+00 0.00000E+00
 -1      1961 2.37045E+01 3.09687E+00 0.00000E+00
 -1      1962 2.22045E+01 3.09687E+00 0.00000E+00
 -1      1963 2.20350E+01 4.00625E+00 0.00000E+00
 -1      1964 2.67045E+01 3.09687E+00 0.00000E+00
 -1      1965 2.52045E+01 3.09687E+00 0.00000E+00
 -1      1966 2.50350E+01 4.00625E+00 0.00000E+00
 -1      1967 2.97045E+01 3.09687E+00 0.00000E+00
 -1      1968 2.82045E+01 3.09687E+00 0.00000E+00
 -1      1969 2.80350E+01 4.00625E+00 0.00000E+00
 -1      1970 3.27045E+01 3.09687E+00 0.00000E+00
 -1      1971 3.12045E+01 3.09687E+00 0.00000E+00
 -1      1972 3.10350E+01 4.00625E+00 0.00000E+00
 -1      1973 3.57045E+01 3.09687E+00 0.00000E+00
 -1      1974 3.42045E+01 3.09687E+00 0.00000E+00
 -1      1975 3.40350E+01 4.00625E+00 0.00000E+00
 -1      1976 3.87045E+01 3.09687E+00 0.00000E+00
 -1      1977 3.72045E+01 3.09687E+00 0.00000E+00
 -1      1978 3.70350E+01 4.00625E+00 0.00000E+00
 -1      1979 4.17045E+01 3.09687E+00 0.00000E+00
 -1      1980 4.02045E+01 3.09687E+00 0.00000E+00
 -1      1981 4.00350E+01 4.00625E+00 0.00000E+00
 -1      1982 4.47045E+01 3.09687E+00 0.00000E+00
 -1      1983 4.32045E+01 3.09687E+00 0.00000E+00
 -1      1984 4.30350E+01 4.00625E+00 0.00000E+00
 -1      1985 4.77045E+01 3.09687E+00 0.00000E+00
 -1      1986 4.62045E+01 3.09687E+00 0.00000E+00
 -1      1987 4.60350E+01 4.00625E+00 0.00000E+00
 -1      1988 5.07045E+01 3.09687E+00 0.00000E+00
 -1      1989 4.92045E+01 3.09687E+00 0.00000E+00
 -1      1990 4.90350E+01 4.00625E+00 0.00000E+00
 -1      1991 5.37045E+01 3.09687E+00 0.00000E+00
 -1      1992 5.22045E+01 3.09687E+00 0.00000E+00
 -1      1993 5.20350E+01 4.00625E+00 0.00000E+00
 -1      1994 5.67045E+01 3.09687E+00 0.00000E+00
 -1      1995 5.52045E+01 3.09687E+00 0.00000E+00
 -1      1996 5.50350E+01 4.00625E+00 0.00000E+00
 -1      1997 5.97045E+01 3.09687E+00 0.00000E+00
 -1      1998 5.82045E+01 3.09687E+00 0.00000E+00
 -1      1999 5.80350E+01 4.00625E+00 0.00000E+00
 -1      2000 6.27045E+01 3.09687E+00 0.00000E+00
 -1      2001 6.12045E+01 3.09687E+00 0.00000E+00
 -1      2002 6.10350E+01 4.00625E+00 0.00000E+00
 -1      2003 6.54045E+01 3.09687E+00 0.00000E+00
 -1      2004 6.40545E+01 3.09687E+00 0.00000E+00
 -1      2005 6.38850E+01 4.00625E+00 0.00000E+00
 -1      2006 6.84045E+01 3.09687E+00 0.00000E+00
 -1      2007 6.69045E+01 3.09687E+00 0.00000E+00
 -1      2008 6.67350E+01 4.00625E+00 0.00000E+00
 -1      2009 7.14045E+01 3.09687E+00 0.00000E+00
 -1      2010 6.99045E+01 3.09687E+00 0.00000E+00
 -1      2011 6.97350E+01 4.00625E+00 0.00000E+00
 -1      2012 7.44045E+01 3.09687E+00 0.00000E+00
 -1      2013 7.29045E+01 3.09687E+00 0.00000E+00
 -1      2014 7.27350E+01 4.00625E+00 0.00000E+00
 -1      2015 7.74045E+01 3.09687E+00 0.00000E+00
 -1      2016 7.59045E+01 3.09687E+00 0.00000E+00
 -1      2017 7.57350E+01 4.00625E+00 0.00000E+00
 -1      2018 8.04045E+01 3.09687E+00 0.00000E+00
 -1      2019 7.89045E+01 3.09687E+00 0.00000E+00
 -1      2020 7.87350E+01 4.00625E+00 0.00000E+00
 -1      2021 8.34045E+01 3.09687E+00 0.00000E+00
 -1      2022 8.19045E+01 3.09687E+00 0.00000E+00
 -1      2023 8.17350E+01 4.00625E+00 0.00000E+00
 -1      2024 8.64045E+01 3.09687E+00 0.00000E+00
 -1      2025 8.49045E+01 3.09687E+00 0.00000E+00
 -1      2026 8.47350E+01 4.00625E+00 0.00000E+00
 -1      2027 8.95545E+01 3.09687E+00 0.00000E+00
 -1      2028 8.79795E+01 3.09687E+00 0.00000E+00
 -1      2029 8.78100E+01 4.00625E+00 0.00000E+00
 -1      2030 9.25545E+01 3.09687E+00 0.00000E+00
 -1      2031 9.10545E+01 3.09687E+00 0.00000E+00
 -1      2032 9.08850E+01 4.00625E+00 0.00000E+00
 -1      2033 9.55545E+01 3.09687E+00 0.00000E+00
 -1      2034 9.40545E+01 3.09687E+00 0.00000E+00
 -1      2035 9.38850E+01 4.00625E+00 0.00000E+00
 -1      2036 9.85545E+01 3.09687E+00 0.00000E+00
 -1      2037 9.70545E+01 3.09687E+00 0.00000E+00
 -1      2038 9.68850E+01 4.00625E+00 0.00000E+00
 -1      2039 1.01554E+02 3.09687E+00 0.00000E+00
 -1      2040 1.00054E+02 3.09687E+00 0.00000E+00
 -1      2041 9.98850E+01 4.00625E+00 0.00000E+00
 -1      2042 1.04554E+02 3.09687E+00 0.00000E+00
 -1      2043 1.03054E+02 3.09687E+00 0.00000E+00
 -1      2044 1.02885E+02 4.00625E+00 0.00000E+00
 -1      2045 1.07554E+02 3.09687E+00 0.00000E+00
 -1      2046 1.06054E+02 3.09687E+00 0.00000E+00
 -1      2047 1.05885E+02 4.00625E+00 0.00000E+00
 -1      2048 1.10554E+02 3.09687E+00 0.00000E+00
 -1      2049 1.09054E+02 3.09687E+00 0.00000E+00
 -1      2050 1.08885E+02 4.00625E+00 0.00000E+00
 -1      2051 1.13554E+02 3.09687E+00 0.00000E+00
 -1      2052 1.12054E+02 3.09687E+00 0.00000E+00
 -1      2053 1.11885E+02 4.00625E+00 0.00000E+00
 -1      2054 1.16554E+02 3.09687E+00 0.00000E+00
 -1      2055 1.15054E+02 3.09687E+00 0.00000E+00
 -1      2056 1.14885E+02 4.00625E+00 0.00000E+00
 -1      2057 1.19554E+02 3.09687E+00 0.00000E+00
 -1      2058 1.18054E+02 3.09687E+00 0.00000E+00
 -1      2059 1.17885E+02 4.00625E+00 0.00000E+00
 -1      2060 1.22554E+02 3.09687E+00 0.00000E+00
 -1      2061 1.21054E+02 3.09687E+00 0.00000E+00
 -1      2062 1.20885E+02 4.00625E+00 0.00000E+00
 -1      2063 1.25554E+02 3.09687E+00 0.00000E+00
 -1      2064 1.24054E+02 3.09687E+00 0.00000E+00
 -1      2065 1.23885E+02 4.00625E+00 0.00000E+00
 -1      2066 1.28555E+02 3.09687E+00 0.00000E+00
 -1      2067 1.27054E+02 3.09687E+00 0.00000E+00
 -1      2068 1.26885E+02 4.00625E+00 0.00000E+00
 -1      2069 1.31555E+02 3.09687E+00 0.00000E+00
 -1      2070 1.30055E+02 3.09687E+00 0.00000E+00
 -1      2071 1.29885E+02 4.00625E+00 0.00000E+00
 -1      2072 1.34555E+02 3.09687E+00 0.00000E+00
 -1      2073 1.33055E+02 3.09687E+00 0.00000E+00
 -1      2074 1.32885E+02 4.00625E+00 0.00000E+00
 -1      2075 1.37555E+02 3.09687E+00 0.00000E+00
 -1      2076 1.36055E+02 3.09687E+00 0.00000E+00
 -1      2077 1.35885E+02 4.00625E+00 0.00000E+00
 -1      2078 1.40555E+02 3.09687E+00 0.00000E+00
 -1      2079 1.39055E+02 3.09687E+00 0.00000E+00
 -1      2080 1.38885E+02 4.00625E+00 0.00000E+00
 -1      2081 1.43555E+02 3.09687E+00 0.00000E+00
 -1      2082 1.42055E+02 3.09687E+00 0.00000E+00
 -1      2083 1.41885E+02 4.00625E+00 0.00000E+00
 -1      2084 1.46059E+02 3.20156E+00 0.00000E+00
 -1      2085 1.44559E+02 3.20156E+00 0.00000E+00
 -1      2086 1.44389E+02 4.11094E+00 0.00000E+00
 -1      2087 1.46398E+02 4.32031E+00 0.00000E+00
 -1      2088 1.46103E+02 1.25375E+01 0.00000E+00
 -1      2089 1.46103E+02 1.10625E+01 0.00000E+00
 -1      2090 1.46103E+02 9.58750E+00 0.00000E+00
 -1      2091 1.46103E+02 8.11250E+00 0.00000E+00
 -1      2092 1.44804E+02 1.03250E+01 0.00000E+00
 -1      2093 1.46250E+02 6.95391E+00 0.00000E+00
 -1      2094 1.46250E+02 5.47891E+00 0.00000E+00
 -1      2095 1.45246E+02 5.37422E+00 0.00000E+00
 -1      2096 1.44951E+02 7.69141E+00 0.00000E+00
 -1      2097 1.46103E+02 1.54375E+01 0.00000E+00
 -1      2098 1.46103E+02 1.39875E+01 0.00000E+00
 -1      2099 1.44804E+02 1.32500E+01 0.00000E+00
 -1      2100 1.46103E+02 1.83875E+01 0.00000E+00
 -1      2101 1.46103E+02 1.69125E+01 0.00000E+00
 -1      2102 1.44804E+02 1.61750E+01 0.00000E+00
 -1      2103 1.46103E+02 2.13375E+01 0.00000E+00
 -1      2104 1.46103E+02 1.98625E+01 0.00000E+00
 -1      2105 1.44804E+02 1.91250E+01 0.00000E+00
 -1      2106 1.46103E+02 2.42875E+01 0.00000E+00
 -1      2107 1.46103E+02 2.28125E+01 0.00000E+00
 -1      2108 1.44804E+02 2.20750E+01 0.00000E+00
 -1      2109 1.46103E+02 2.72375E+01 0.00000E+00
 -1      2110 1.46103E+02 2.57625E+01 0.00000E+00
 -1      2111 1.44804E+02 2.50250E+01 0.00000E+00
 -1      2112 1.46103E+02 3.01875E+01 0.00000E+00
 -1      2113 1.46103E+02 2.87125E+01 0.00000E+00
 -1      2114 1.44804E+02 2.79750E+01 0.00000E+00
 -1      2115 1.46103E+02 3.30875E+01 0.00000E+00
 -1      2116 1.46103E+02 3.16375E+01 0.00000E+00
 -1      2117 1.44804E+02 3.09000E+01 0.00000E+00
 -1      2118 1.46103E+02 3.60375E+01 0.00000E+00
 -1      2119 1.46103E+02 3.45625E+01 0.00000E+00
 -1      2120 1.44804E+02 3.38250E+01 0.00000E+00
 -1      2121 1.46103E+02 3.89875E+01 0.00000E+00
 -1      2122 1.46103E+02 3.75125E+01 0.00000E+00
 -1      2123 1.44804E+02 3.67750E+01 0.00000E+00
 -1      2124 1.46103E+02 4.19375E+01 0.00000E+00
 -1      2125 1.46103E+02 4.04625E+01 0.00000E+00
 -1      2126 1.44804E+02 3.97250E+01 0.00000E+00
 -1      2127 6.93472E+01 1.32407E+01 0.00000E+00
 -1      2128 6.97739E+01 1.39979E+01 0.00000E+00
 -1      2129 7.02032E+01 1.68758E+01 0.00000E+00
 -1      2130 7.02832E+01 1.77441E+01 0.00000E+00
 -1      2131 6.99985E+01 1.51311E+01 0.00000E+00
 -1      2132 7.01009E+01 1.60034E+01 0.00000E+00
 -1      2133 7.07862E+01 1.63782E+01 0.00000E+00
 -1      2134 6.83676E+01 1.18927E+01 0.00000E+00
 -1      2135 6.88574E+01 1.25667E+01 0.00000E+00
 -1      2136 6.97449E+01 1.25655E+01 0.00000E+00
 -1      2137 6.70715E+01 1.04751E+01 0.00000E+00
 -1      2138 6.76913E+01 1.10397E+01 0.00000E+00
 -1      2139 3.89700E+00 3.74688E+01 0.00000E+00
 -1      2140 3.89700E+00 3.89437E+01 0.00000E+00
 -1      2141 5.19600E+00 3.96813E+01 0.00000E+00
 -1      2142 5.19600E+00 3.67438E+01 0.00000E+00
 -1      2143 6.36691E+01 8.75283E+00 0.00000E+00
 -1      2144 6.45348E+01 8.99212E+00 0.00000E+00
 -1      2145 6.18082E+01 8.30667E+00 0.00000E+00
 -1      2146 6.27144E+01 8.42963E+00 0.00000E+00
 -1      2147 5.97574E+01 8.63039E+00 0.00000E+00
 -1      2148 6.06555E+01 8.43525E+00 0.00000E+00
 -1      2149 5.79636E+01 9.08359E+00 0.00000E+00
 -1      2150 5.88399E+01 8.85137E+00 0.00000E+00
 -1      2151 5.61937E+01 1.01025E+01 0.00000E+00
 -1      2152 5.69022E+01 9.55831E+00 0.00000E+00
 -1      2153 5.48359E+01 1.12176E+01 0.00000E+00
 -1      2154 5.55148E+01 1.06601E+01 0.00000E+00
 -1      2155 5.54232E+01 9.80754E+00 0.00000E+00
 -1      2156 5.34283E+01 1.26613E+01 0.00000E+00
 -1      2157 5.39997E+01 1.19319E+01 0.00000E+00
 -1      2158 5.27483E+01 1.46982E+01 0.00000E+00
 -1      2159 5.29039E+01 1.38235E+01 0.00000E+00
 -1      2160 5.24971E+01 1.63324E+01 0.00000E+00
 -1      2161 5.26227E+01 1.55153E+01 0.00000E+00
 -1      2162 5.18975E+01 1.49351E+01 0.00000E+00
 -1      2163 5.24773E+01 1.82402E+01 0.00000E+00
 -1      2164 5.24310E+01 1.73845E+01 0.00000E+00
 -1      2165 5.29230E+01 2.00559E+01 0.00000E+00
 -1      2166 5.27350E+01 1.92001E+01 0.00000E+00
 -1      2167 5.34414E+01 2.18891E+01 0.00000E+00
 -1      2168 5.31040E+01 2.10581E+01 0.00000E+00
 -1      2169 5.48646E+01 2.33885E+01 0.00000E+00
 -1      2170 5.42218E+01 2.28007E+01 0.00000E+00
 -1      2171 5.60797E+01 2.44757E+01 0.00000E+00
 -1      2172 5.54722E+01 2.39321E+01 0.00000E+00
 -1      2173 5.46851E+01 2.41475E+01 0.00000E+00
 -1      2174 5.76726E+01 2.54324E+01 0.00000E+00
 -1      2175 5.69328E+01 2.50950E+01 0.00000E+00
 -1      2176 5.92243E+01 2.59667E+01 0.00000E+00
 -1      2177 5.84484E+01 2.56996E+01 0.00000E+00
 -1      2178 5.77748E+01 2.61967E+01 0.00000E+00
 -1      2179 6.10910E+01 2.63393E+01 0.00000E+00
 -1      2180 6.02553E+01 2.62737E+01 0.00000E+00
 -1      2181 6.28493E+01 2.63670E+01 0.00000E+00
 -1      2182 6.19701E+01 2.63531E+01 0.00000E+00
 -1      2183 6.14918E+01 2.70918E+01 0.00000E+00
 -1      2184 6.49237E+01 2.58649E+01 0.00000E+00
 -1      2185 6.41471E+01 2.62650E+01 0.00000E+00
 -1      2186 6.63111E+01 2.49397E+01 0.00000E+00
 -1      2187 6.56174E+01 2.54023E+01 0.00000E+00
 -1      2188 6.56603E+01 2.64392E+01 0.00000E+00
 -1      2189 6.76449E+01 2.35796E+01 0.00000E+00
 -1      2190 6.70374E+01 2.41347E+01 0.00000E+00
 -1      2191 6.88540E+01 2.22743E+01 0.00000E+00
 -1      2192 6.82863E+01 2.29229E+01 0.00000E+00
 -1      2193 6.97613E+01 2.05229E+01 0.00000E+00
 -1      2194 6.94885E+01 2.13355E+01 0.00000E+00
 -1      2195 7.02750E+01 1.88903E+01 0.00000E+00
 -1      2196 7.00181E+01 1.97066E+01 0.00000E+00
 -1      2197 7.06153E+01 2.03591E+01 0.00000E+00
 -1      2198 6.55564E+01 9.43134E+00 0.00000E+00
 -1      2199 6.62791E+01 9.94556E+00 0.00000E+00
 -1      2200 6.42300E+00 4.57510E+01 0.00000E+00
 -1      2201 5.91425E+01 8.07954E+00 0.00000E+00
 -1      2202 6.52962E+01 8.68703E+00 0.00000E+00
 -1      2203 7.17300E+00 4.44520E+01 0.00000E+00
 -1      2204 7.04593E+01 1.43726E+01 0.00000E+00
 -1      2205 1.45665E+02 4.31193E+01 0.00000E+00
 -1      2206 6.85787E+01 1.10384E+01 0.00000E+00
 -1      2207 7.08804E+01 1.83967E+01 0.00000E+00
 -1      2208 6.71101E+01 9.65580E+00 0.00000E+00
 -1      2209 6.97239E+01 2.21142E+01 0.00000E+00
 -1      2210 6.70803E+01 2.51716E+01 0.00000E+00
 -1      2211 6.36688E+01 2.70037E+01 0.00000E+00
 -1      2212 5.95817E+01 2.67709E+01 0.00000E+00
 -1      2213 5.61458E+01 2.53103E+01 0.00000E+00
 -1      2214 5.32973E+01 2.26922E+01 0.00000E+00
 -1      2215 5.23360E+01 2.07783E+01 0.00000E+00
 -1      2216 5.17058E+01 1.68043E+01 0.00000E+00
 -1      2217 5.39081E+01 1.10794E+01 0.00000E+00
 -1      2218 5.71635E+01 8.77523E+00 0.00000E+00
 -1      2219 6.33200E+01 7.92461E+00 0.00000E+00
 -1      2220 6.12127E+01 7.72998E+00 0.00000E+00
 -1      2221 5.25475E+01 1.29558E+01 0.00000E+00
 -1      2222 5.18974E+01 1.88162E+01 0.00000E+00
 -1      2223 6.84479E+01 2.37098E+01 0.00000E+00
 -1      2224 1.07850E+01 5.30525E+00 0.00000E+00
 -1      2225 9.28500E+00 5.30525E+00 0.00000E+00
 -1      2226 6.49500E+00 3.01125E+01 0.00000E+00
 -1      2227 6.49500E+00 3.15875E+01 0.00000E+00
 -1      2228 6.49500E+00 3.30625E+01 0.00000E+00
 -1      2229 6.49500E+00 3.45375E+01 0.00000E+00
 -1      2230 7.79400E+00 3.23250E+01 0.00000E+00
 -1      2231 6.49500E+00 2.42125E+01 0.00000E+00
 -1      2232 6.49500E+00 2.56875E+01 0.00000E+00
 -1      2233 6.49500E+00 2.12625E+01 0.00000E+00
 -1      2234 6.49500E+00 2.27375E+01 0.00000E+00
 -1      2235 7.79400E+00 2.34750E+01 0.00000E+00
 -1      2236 6.49500E+00 1.83625E+01 0.00000E+00
 -1      2237 6.49500E+00 1.98125E+01 0.00000E+00
 -1      2238 7.79400E+00 2.05500E+01 0.00000E+00
 -1      2239 6.49500E+00 1.54125E+01 0.00000E+00
 -1      2240 6.49500E+00 1.68875E+01 0.00000E+00
 -1      2241 7.79400E+00 1.76250E+01 0.00000E+00
 -1      2242 6.49500E+00 1.24625E+01 0.00000E+00
 -1      2243 6.49500E+00 1.39375E+01 0.00000E+00
 -1      2244 7.79400E+00 1.46750E+01 0.00000E+00
 -1      2245 6.49500E+00 9.51250E+00 0.00000E+00
 -1      2246 6.49500E+00 1.09875E+01 0.00000E+00
 -1      2247 7.79400E+00 1.17250E+01 0.00000E+00
 -1      2248 1.37850E+01 5.30525E+00 0.00000E+00
 -1      2249 1.22850E+01 5.30525E+00 0.00000E+00
 -1      2250 1.15350E+01 6.60425E+00 0.00000E+00
 -1      2251 9.90000E+00 4.35050E+01 0.00000E+00
 -1      2252 1.14000E+01 4.35050E+01 0.00000E+00
 -1      2253 5.85123E+01 7.47849E+00 0.00000E+00
 -1      2254 5.94298E+01 7.25752E+00 0.00000E+00
 -1      2255 1.29000E+01 4.35050E+01 0.00000E+00
 -1      2256 1.44000E+01 4.35050E+01 0.00000E+00
 -1      2257 1.21500E+01 4.22060E+01 0.00000E+00
 -1      2258 1.59000E+01 4.35050E+01 0.00000E+00
 -1      2259 1.74000E+01 4.35050E+01 0.00000E+00
 -1      2260 1.51500E+01 4.22060E+01 0.00000E+00
 -1      2261 1.89000E+01 4.35050E+01 0.00000E+00
 -1      2262 2.04000E+01 4.35050E+01 0.00000E+00
 -1      2263 1.81500E+01 4.22060E+01 0.00000E+00
 -1      2264 2.19000E+01 4.35050E+01 0.00000E+00
 -1      2265 2.34000E+01 4.35050E+01 0.00000E+00
 -1      2266 2.11500E+01 4.22060E+01 0.00000E+00
 -1      2267 2.49000E+01 4.35050E+01 0.00000E+00
 -1      2268 2.64000E+01 4.35050E+01 0.00000E+00
 -1      2269 2.41500E+01 4.22060E+01 0.00000E+00
 -1      2270 2.79000E+01 4.35050E+01 0.00000E+00
 -1      2271 2.94000E+01 4.35050E+01 0.00000E+00
 -1      2272 2.71500E+01 4.22060E+01 0.00000E+00
 -1      2273 3.09000E+01 4.35050E+01 0.00000E+00
 -1      2274 3.24000E+01 4.35050E+01 0.00000E+00
 -1      2275 3.01500E+01 4.22060E+01 0.00000E+00
 -1      2276 3.39000E+01 4.35050E+01 0.00000E+00
 -1      2277 3.54000E+01 4.35050E+01 0.00000E+00
 -1      2278 3.31500E+01 4.22060E+01 0.00000E+00
 -1      2279 3.69000E+01 4.35050E+01 0.00000E+00
 -1      2280 3.84000E+01 4.35050E+01 0.00000E+00
 -1      2281 3.61500E+01 4.22060E+01 0.00000E+00
 -1      2282 3.99000E+01 4.35050E+01 0.00000E+00
 -1      2283 4.14000E+01 4.35050E+01 0.00000E+00
 -1      2284 3.91500E+01 4.22060E+01 0.00000E+00
 -1      2285 4.29000E+01 4.35050E+01 0.00000E+00
 -1      2286 4.44000E+01 4.35050E+01 0.00000E+00
 -1      2287 4.21500E+01 4.22060E+01 0.00000E+00
 -1      2288 4.59000E+01 4.35050E+01 0.00000E+00
 -1      2289 4.74000E+01 4.35050E+01 0.00000E+00
 -1      2290 4.51500E+01 4.22060E+01 0.00000E+00
 -1      2291 4.89000E+01 4.35050E+01 0.00000E+00
 -1      2292 5.04000E+01 4.35050E+01 0.00000E+00
 -1      2293 4.81500E+01 4.22060E+01 0.00000E+00
 -1      2294 5.19000E+01 4.35050E+01 0.00000E+00
 -1      2295 5.34000E+01 4.35050E+01 0.00000E+00
 -1      2296 5.11500E+01 4.22060E+01 0.00000E+00
 -1      2297 5.49000E+01 4.35050E+01 0.00000E+00
 -1      2298 5.64000E+01 4.35050E+01 0.00000E+00
 -1      2299 5.41500E+01 4.22060E+01 0.00000E+00
 -1      2300 5.79000E+01 4.35050E+01 0.00000E+00
 -1      2301 5.94000E+01 4.35050E+01 0.00000E+00
 -1      2302 5.71500E+01 4.22060E+01 0.00000E+00
 -1      2303 6.09000E+01 4.35050E+01 0.00000E+00
 -1      2304 6.24000E+01 4.35050E+01 0.00000E+00
 -1      2305 6.01500E+01 4.22060E+01 0.00000E+00
 -1      2306 6.39000E+01 4.35050E+01 0.00000E+00
 -1      2307 6.54000E+01 4.35050E+01 0.00000E+00
 -1      2308 6.31500E+01 4.22060E+01 0.00000E+00
 -1      2309 6.69000E+01 4.35050E+01 0.00000E+00
 -1      2310 6.84000E+01 4.35050E+01 0.00000E+00
 -1      2311 6.61500E+01 4.22060E+01 0.00000E+00
 -1      2312 6.99000E+01 4.35050E+01 0.00000E+00
 -1      2313 7.14000E+01 4.35050E+01 0.00000E+00
 -1      2314 6.91500E+01 4.22060E+01 0.00000E+00
 -1      2315 7.29000E+01 4.35050E+01 0.00000E+00
 -1      2316 7.44000E+01 4.35050E+01 0.00000E+00
 -1      2317 7.21500E+01 4.22060E+01 0.00000E+00
 -1      2318 7.59000E+01 4.35050E+01 0.00000E+00
 -1      2319 7.74000E+01 4.35050E+01 0.00000E+00
 -1      2320 7.51500E+01 4.22060E+01 0.00000E+00
 -1      2321 7.89000E+01 4.35050E+01 0.00000E+00
 -1      2322 8.04000E+01 4.35050E+01 0.00000E+00
 -1      2323 7.81500E+01 4.22060E+01 0.00000E+00
 -1      2324 8.19000E+01 4.35050E+01 0.00000E+00
 -1      2325 8.34000E+01 4.35050E+01 0.00000E+00
 -1      2326 8.11500E+01 4.22060E+01 0.00000E+00
 -1      2327 8.49000E+01 4.35050E+01 0.00000E+00
 -1      2328 8.64000E+01 4.35050E+01 0.00000E+00
 -1      2329 8.41500E+01 4.22060E+01 0.00000E+00
 -1      2330 8.79000E+01 4.35050E+01 0.00000E+00
 -1      2331 8.94000E+01 4.35050E+01 0.00000E+00
 -1      2332 8.71500E+01 4.22060E+01 0.00000E+00
 -1      2333 9.09000E+01 4.35050E+01 0.00000E+00
 -1      2334 9.24000E+01 4.35050E+01 0.00000E+00
 -1      2335 9.01500E+01 4.22060E+01 0.00000E+00
 -1      2336 9.39000E+01 4.35050E+01 0.00000E+00
 -1      2337 9.54000E+01 4.35050E+01 0.00000E+00
 -1      2338 9.31500E+01 4.22060E+01 0.00000E+00
 -1      2339 9.69000E+01 4.35050E+01 0.00000E+00
 -1      2340 9.84000E+01 4.35050E+01 0.00000E+00
 -1      2341 9.61500E+01 4.22060E+01 0.00000E+00
 -1      2342 9.99000E+01 4.35050E+01 0.00000E+00
 -1      2343 1.01400E+02 4.35050E+01 0.00000E+00
 -1      2344 9.91500E+01 4.22060E+01 0.00000E+00
 -1      2345 1.02900E+02 4.35050E+01 0.00000E+00
 -1      2346 1.04400E+02 4.35050E+01 0.00000E+00
 -1      2347 1.02150E+02 4.22060E+01 0.00000E+00
 -1      2348 1.05900E+02 4.35050E+01 0.00000E+00
 -1      2349 1.07400E+02 4.35050E+01 0.00000E+00
 -1      2350 1.05150E+02 4.22060E+01 0.00000E+00
 -1      2351 1.08900E+02 4.35050E+01 0.00000E+00
 -1      2352 1.10400E+02 4.35050E+01 0.00000E+00
 -1      2353 1.08150E+02 4.22060E+01 0.00000E+00
 -1      2354 1.11900E+02 4.35050E+01 0.00000E+00
 -1      2355 1.13400E+02 4.35050E+01 0.00000E+00
 -1      2356 1.11150E+02 4.22060E+01 0.00000E+00
 -1      2357 1.14900E+02 4.35050E+01 0.00000E+00
 -1      2358 1.16400E+02 4.35050E+01 0.00000E+00
 -1      2359 1.14150E+02 4.22060E+01 0.00000E+00
 -1      2360 1.17900E+02 4.35050E+01 0.00000E+00
 -1      2361 1.19400E+02 4.35050E+01 0.00000E+00
 -1      2362 1.17150E+02 4.22060E+01 0.00000E+00
 -1      2363 1.20900E+02 4.35050E+01 0.00000E+00
 -1      2364 1.22400E+02 4.35050E+01 0.00000E+00
 -1      2365 1.20150E+02 4.22060E+01 0.00000E+00
 -1      2366 1.23900E+02 4.35050E+01 0.00000E+00
 -1      2367 1.25400E+02 4.35050E+01 0.00000E+00
 -1      2368 1.23150E+02 4.22060E+01 0.00000E+00
 -1      2369 1.26900E+02 4.35050E+01 0.00000E+00
 -1      2370 1.28400E+02 4.35050E+01 0.00000E+00
 -1      2371 1.26150E+02 4.22060E+01 0.00000E+00
 -1      2372 1.29900E+02 4.35050E+01 0.00000E+00
 -1      2373 1.31400E+02 4.35050E+01 0.00000E+00
 -1      2374 1.29150E+02 4.22060E+01 0.00000E+00
 -1      2375 1.32900E+02 4.35050E+01 0.00000E+00
 -1      2376 1.34400E+02 4.35050E+01 0.00000E+00
 -1      2377 1.32150E+02 4.22060E+01 0.00000E+00
 -1      2378 1.35900E+02 4.35050E+01 0.00000E+00
 -1      2379 1.37400E+02 4.35050E+01 0.00000E+00
 -1      2380 1.35150E+02 4.22060E+01 0.00000E+00
 -1      2381 1.38900E+02 4.35050E+01 0.00000E+00
 -1      2382 1.40400E+02 4.35050E+01 0.00000E+00
 -1      2383 1.38150E+02 4.22060E+01 0.00000E+00
 -1      2384 1.97850E+01 5.30525E+00 0.00000E+00
 -1      2385 1.82850E+01 5.30525E+00 0.00000E+00
 -1      2386 2.27850E+01 5.30525E+00 0.00000E+00
 -1      2387 2.12850E+01 5.30525E+00 0.00000E+00
 -1      2388 2.05350E+01 6.60425E+00 0.00000E+00
 -1      2389 2.57850E+01 5.30525E+00 0.00000E+00
 -1      2390 2.42850E+01 5.30525E+00 0.00000E+00
 -1      2391 2.35350E+01 6.60425E+00 0.00000E+00
 -1      2392 2.87850E+01 5.30525E+00 0.00000E+00
 -1      2393 2.72850E+01 5.30525E+00 0.00000E+00
 -1      2394 2.65350E+01 6.60425E+00 0.00000E+00
 -1      2395 3.17850E+01 5.30525E+00 0.00000E+00
 -1      2396 3.02850E+01 5.30525E+00 0.00000E+00
 -1      2397 2.95350E+01 6.60425E+00 0.00000E+00
 -1      2398 3.47850E+01 5.30525E+00 0.00000E+00
 -1      2399 3.32850E+01 5.30525E+00 0.00000E+00
 -1      2400 3.25350E+01 6.60425E+00 0.00000E+00
 -1      2401 3.77850E+01 5.30525E+00 0.00000E+00
 -1      2402 3.62850E+01 5.30525E+00 0.00000E+00
 -1      2403 3.55350E+01 6.60425E+00 0.00000E+00
 -1      2404 4.07850E+01 5.30525E+00 0.00000E+00
 -1      2405 3.92850E+01 5.30525E+00 0.00000E+00
 -1      2406 3.85350E+01 6.60425E+00 0.00000E+00
 -1      2407 4.37850E+01 5.30525E+00 0.00000E+00
 -1      2408 4.22850E+01 5.30525E+00 0.00000E+00
 -1      2409 4.15350E+01 6.60425E+00 0.00000E+00
 -1      2410 4.67850E+01 5.30525E+00 0.00000E+00
 -1      2411 4.52850E+01 5.30525E+00 0.00000E+00
 -1      2412 4.45350E+01 6.60425E+00 0.00000E+00
 -1      2413 4.97850E+01 5.30525E+00 0.00000E+00
 -1      2414 4.82850E+01 5.30525E+00 0.00000E+00
 -1      2415 4.75350E+01 6.60425E+00 0.00000E+00
 -1      2416 5.27850E+01 5.30525E+00 0.00000E+00
 -1      2417 5.12850E+01 5.30525E+00 0.00000E+00
 -1      2418 5.05350E+01 6.60425E+00 0.00000E+00
 -1      2419 6.45600E+01 4.94759E+00 0.00000E+00
 -1      2420 6.32100E+01 4.94759E+00 0.00000E+00
 -1      2421 6.74850E+01 5.03138E+00 0.00000E+00
 -1      2422 6.59850E+01 5.03138E+00 0.00000E+00
 -1      2423 7.04850E+01 5.11516E+00 0.00000E+00
 -1      2424 6.89850E+01 5.11516E+00 0.00000E+00
 -1      2425 7.34850E+01 5.11516E+00 0.00000E+00
 -1      2426 7.19850E+01 5.11516E+00 0.00000E+00
 -1      2427 7.12350E+01 6.22407E+00 0.00000E+00
 -1      2428 7.64850E+01 5.11516E+00 0.00000E+00
 -1      2429 7.49850E+01 5.11516E+00 0.00000E+00
 -1      2430 7.42350E+01 6.22407E+00 0.00000E+00
 -1      2431 7.94850E+01 5.11516E+00 0.00000E+00
 -1      2432 7.79850E+01 5.11516E+00 0.00000E+00
 -1      2433 7.72350E+01 6.22407E+00 0.00000E+00
 -1      2434 8.24850E+01 5.11516E+00 0.00000E+00
 -1      2435 8.09850E+01 5.11516E+00 0.00000E+00
 -1      2436 8.02350E+01 6.22407E+00 0.00000E+00
 -1      2437 8.54850E+01 5.11516E+00 0.00000E+00
 -1      2438 8.39850E+01 5.11516E+00 0.00000E+00
 -1      2439 8.32350E+01 6.22407E+00 0.00000E+00
 -1      2440 8.86350E+01 5.11516E+00 0.00000E+00
 -1      2441 8.70600E+01 5.11516E+00 0.00000E+00
 -1      2442 8.63100E+01 6.22407E+00 0.00000E+00
 -1      2443 9.16350E+01 5.11516E+00 0.00000E+00
 -1      2444 9.01350E+01 5.11516E+00 0.00000E+00
 -1      2445 8.93850E+01 6.22407E+00 0.00000E+00
 -1      2446 9.46350E+01 5.11516E+00 0.00000E+00
 -1      2447 9.31350E+01 5.11516E+00 0.00000E+00
 -1      2448 9.23850E+01 6.22407E+00 0.00000E+00
 -1      2449 9.76350E+01 5.11516E+00 0.00000E+00
 -1      2450 9.61350E+01 5.11516E+00 0.00000E+00
 -1      2451 9.53850E+01 6.22407E+00 0.00000E+00
 -1      2452 1.00635E+02 5.11516E+00 0.00000E+00
 -1      2453 9.91350E+01 5.11516E+00 0.00000E+00
 -1      2454 9.83850E+01 6.22407E+00 0.00000E+00
 -1      2455 1.03635E+02 5.11516E+00 0.00000E+00
 -1      2456 1.02135E+02 5.11516E+00 0.00000E+00
 -1      2457 1.01385E+02 6.22407E+00 0.00000E+00
 -1      2458 1.06635E+02 5.11516E+00 0.00000E+00
 -1      2459 1.05135E+02 5.11516E+00 0.00000E+00
 -1      2460 1.04385E+02 6.22407E+00 0.00000E+00
 -1      2461 1.09635E+02 5.11516E+00 0.00000E+00
 -1      2462 1.08135E+02 5.11516E+00 0.00000E+00
 -1      2463 1.07385E+02 6.22407E+00 0.00000E+00
 -1      2464 1.12635E+02 5.11516E+00 0.00000E+00
 -1      2465 1.11135E+02 5.11516E+00 0.00000E+00
 -1      2466 1.10385E+02 6.22407E+00 0.00000E+00
 -1      2467 1.15635E+02 5.11516E+00 0.00000E+00
 -1      2468 1.14135E+02 5.11516E+00 0.00000E+00
 -1      2469 1.13385E+02 6.22407E+00 0.00000E+00
 -1      2470 1.18635E+02 5.11516E+00 0.00000E+00
 -1      2471 1.17135E+02 5.11516E+00 0.00000E+00
 -1      2472 1.16385E+02 6.22407E+00 0.00000E+00
 -1      2473 1.21635E+02 5.11516E+00 0.00000E+00
 -1      2474 1.20135E+02 5.11516E+00 0.00000E+00
 -1      2475 1.19385E+02 6.22407E+00 0.00000E+00
 -1      2476 1.24635E+02 5.11516E+00 0.00000E+00
 -1      2477 1.23135E+02 5.11516E+00 0.00000E+00
 -1      2478 1.22385E+02 6.22407E+00 0.00000E+00
 -1      2479 1.27635E+02 5.11516E+00 0.00000E+00
 -1      2480 1.26135E+02 5.11516E+00 0.00000E+00
 -1      2481 1.25385E+02 6.22407E+00 0.00000E+00
 -1      2482 1.30635E+02 5.11516E+00 0.00000E+00
 -1      2483 1.29135E+02 5.11516E+00 0.00000E+00
 -1      2484 1.28385E+02 6.22407E+00 0.00000E+00
 -1      2485 1.33635E+02 5.11516E+00 0.00000E+00
 -1      2486 1.32135E+02 5.11516E+00 0.00000E+00
 -1      2487 1.31385E+02 6.22407E+00 0.00000E+00
 -1      2488 1.36635E+02 5.11516E+00 0.00000E+00
 -1      2489 1.35135E+02 5.11516E+00 0.00000E+00
 -1      2490 1.34385E+02 6.22407E+00 0.00000E+00
 -1      2491 1.39635E+02 5.11516E+00 0.00000E+00
 -1      2492 1.38135E+02 5.11516E+00 0.00000E+00
 -1      2493 1.37385E+02 6.22407E+00 0.00000E+00
 -1      2494 1.42635E+02 5.11516E+00 0.00000E+00
 -1      2495 1.41135E+02 5.11516E+00 0.00000E+00
 -1      2496 1.40385E+02 6.22407E+00 0.00000E+00
 -1      2497 1.44242E+02 5.26953E+00 0.00000E+00
 -1      2498 1.43505E+02 1.69125E+01 0.00000E+00
 -1      2499 1.43505E+02 1.54375E+01 0.00000E+00
 -1      2500 1.43505E+02 1.98625E+01 0.00000E+00
 -1      2501 1.43505E+02 1.83875E+01 0.00000E+00
 -1      2502 1.42206E+02 1.76500E+01 0.00000E+00
 -1      2503 1.43505E+02 1.10625E+01 0.00000E+00
 -1      2504 1.43505E+02 9.58750E+00 0.00000E+00
 -1      2505 1.43505E+02 1.39750E+01 0.00000E+00
 -1      2506 1.43505E+02 1.25250E+01 0.00000E+00
 -1      2507 1.42206E+02 1.17875E+01 0.00000E+00
 -1      2508 1.42206E+02 1.47125E+01 0.00000E+00
 -1      2509 7.01597E+01 1.17489E+01 0.00000E+00
 -1      2510 7.06496E+01 1.24229E+01 0.00000E+00
 -1      2511 1.43505E+02 2.28125E+01 0.00000E+00
 -1      2512 1.43505E+02 2.13375E+01 0.00000E+00
 -1      2513 1.42206E+02 2.06000E+01 0.00000E+00
 -1      2514 1.43505E+02 2.57625E+01 0.00000E+00
 -1      2515 1.43505E+02 2.42875E+01 0.00000E+00
 -1      2516 1.42206E+02 2.35500E+01 0.00000E+00
 -1      2517 1.43505E+02 2.87125E+01 0.00000E+00
 -1      2518 1.43505E+02 2.72375E+01 0.00000E+00
 -1      2519 1.42206E+02 2.65000E+01 0.00000E+00
 -1      2520 1.43505E+02 3.16125E+01 0.00000E+00
 -1      2521 1.43505E+02 3.01625E+01 0.00000E+00
 -1      2522 1.42206E+02 2.94250E+01 0.00000E+00
 -1      2523 1.43505E+02 3.45625E+01 0.00000E+00
 -1      2524 1.43505E+02 3.30875E+01 0.00000E+00
 -1      2525 1.42206E+02 3.23500E+01 0.00000E+00
 -1      2526 1.43505E+02 3.75125E+01 0.00000E+00
 -1      2527 1.43505E+02 3.60375E+01 0.00000E+00
 -1      2528 1.42206E+02 3.53000E+01 0.00000E+00
 -1      2529 1.43505E+02 4.04625E+01 0.00000E+00
 -1      2530 1.43505E+02 3.89875E+01 0.00000E+00
 -1      2531 1.42206E+02 3.82500E+01 0.00000E+00
 -1      2532 1.44321E+02 4.30606E+01 0.00000E+00
 -1      2533 6.88469E+01 1.01312E+01 0.00000E+00
 -1      2534 6.95232E+01 1.09843E+01 0.00000E+00
 -1      2535 1.67850E+01 5.30525E+00 0.00000E+00
 -1      2536 1.52850E+01 5.30525E+00 0.00000E+00
 -1      2537 1.75350E+01 6.60425E+00 0.00000E+00
 -1      2538 7.15035E+01 1.58518E+01 0.00000E+00
 -1      2539 7.16059E+01 1.67242E+01 0.00000E+00
 -1      2540 7.17420E+01 1.78297E+01 0.00000E+00
 -1      2541 7.17338E+01 1.89759E+01 0.00000E+00
 -1      2542 6.71904E+01 8.67805E+00 0.00000E+00
 -1      2543 6.79828E+01 9.20761E+00 0.00000E+00
 -1      2544 7.06475E+01 2.20547E+01 0.00000E+00
 -1      2545 7.00130E+01 2.29935E+01 0.00000E+00
 -1      2546 5.30996E+01 2.36512E+01 0.00000E+00
 -1      2547 5.23193E+01 2.27395E+01 0.00000E+00
 -1      2548 5.29875E+01 1.08481E+01 0.00000E+00
 -1      2549 5.38237E+01 1.01339E+01 0.00000E+00
 -1      2550 5.63169E+01 8.30625E+00 0.00000E+00
 -1      2551 5.73784E+01 7.83153E+00 0.00000E+00
 -1      2552 6.49500E+00 2.71625E+01 0.00000E+00
 -1      2553 6.49500E+00 2.86375E+01 0.00000E+00
 -1      2554 7.79400E+00 2.93750E+01 0.00000E+00
 -1      2555 7.79400E+00 2.64250E+01 0.00000E+00
 -1      2556 6.05412E+01 6.94200E+00 0.00000E+00
 -1      2557 6.16939E+01 6.81342E+00 0.00000E+00
 -1      2558 5.15036E+01 1.31842E+01 0.00000E+00
 -1      2559 5.20280E+01 1.20220E+01 0.00000E+00
 -1      2560 6.51241E+01 7.67959E+00 0.00000E+00
 -1      2561 6.61457E+01 8.11881E+00 0.00000E+00
 -1      2562 6.31252E+01 6.74517E+00 0.00000E+00
 -1      2563 6.40798E+01 7.06837E+00 0.00000E+00
 -1      2564 5.45927E+01 9.48839E+00 0.00000E+00
 -1      2565 5.52716E+01 8.93081E+00 0.00000E+00
 -1      2566 5.11980E+01 1.95185E+01 0.00000E+00
 -1      2567 5.09403E+01 1.85586E+01 0.00000E+00
 -1      2568 5.11113E+01 1.52325E+01 0.00000E+00
 -1      2569 5.12369E+01 1.44154E+01 0.00000E+00
 -1      2570 6.93222E+01 2.39220E+01 0.00000E+00
 -1      2571 6.86808E+01 2.45788E+01 0.00000E+00
 -1      2572 5.08587E+01 1.72792E+01 0.00000E+00
 -1      2573 5.09248E+01 1.62271E+01 0.00000E+00
 -1      2574 5.15599E+01 2.15229E+01 0.00000E+00
 -1      2575 5.13790E+01 2.05207E+01 0.00000E+00
 -1      2576 5.04219E+01 2.02631E+01 0.00000E+00
 -1      2577 5.44450E+01 2.50271E+01 0.00000E+00
 -1      2578 5.38375E+01 2.44835E+01 0.00000E+00
 -1      2579 5.61513E+01 2.62656E+01 0.00000E+00
 -1      2580 5.52981E+01 2.56464E+01 0.00000E+00
 -1      2581 5.44505E+01 2.59824E+01 0.00000E+00
 -1      2582 5.78972E+01 2.71015E+01 0.00000E+00
 -1      2583 5.71213E+01 2.68344E+01 0.00000E+00
 -1      2584 5.99592E+01 2.77156E+01 0.00000E+00
 -1      2585 5.89282E+01 2.74085E+01 0.00000E+00
 -1      2586 5.82747E+01 2.80462E+01 0.00000E+00
 -1      2587 6.19192E+01 2.78724E+01 0.00000E+00
 -1      2588 6.10400E+01 2.78585E+01 0.00000E+00
 -1      2589 6.43815E+01 2.77659E+01 0.00000E+00
 -1      2590 6.30838E+01 2.78678E+01 0.00000E+00
 -1      2591 6.64829E+01 2.69214E+01 0.00000E+00
 -1      2592 6.57892E+01 2.73839E+01 0.00000E+00
 -1      2593 6.79545E+01 2.53838E+01 0.00000E+00
 -1      2594 6.72283E+01 2.61888E+01 0.00000E+00
 -1      2595 6.88288E+01 2.55961E+01 0.00000E+00
 -1      2596 7.14419E+01 2.01707E+01 0.00000E+00
 -1      2597 7.11850E+01 2.09870E+01 0.00000E+00
 -1      2598 6.55950E+00 4.28890E+01 0.00000E+00
 -1      2599 8.53650E+00 4.32410E+01 0.00000E+00
 -1      2600 9.28650E+00 4.19420E+01 0.00000E+00
 -1      2601 6.55950E+00 4.14140E+01 0.00000E+00
 -1      2602 8.07525E+00 5.11044E+00 0.00000E+00
 -1      2603 6.57525E+00 5.11044E+00 0.00000E+00
 -1      2604 6.40575E+00 6.01981E+00 0.00000E+00
 -1      2605 8.82525E+00 6.40944E+00 0.00000E+00
 -1      2606 7.11471E+01 1.36475E+01 0.00000E+00
 -1      2607 7.13717E+01 1.47807E+01 0.00000E+00
 -1      2608 6.24538E+01 5.95719E+00 0.00000E+00
 -1      2609 7.79400E+00 3.52687E+01 0.00000E+00
 -1      2610 6.49500E+00 3.60062E+01 0.00000E+00
 -1      2611 6.49500E+00 3.74750E+01 0.00000E+00
 -1      2612 1.45350E+01 6.60425E+00 0.00000E+00
 -1      2613 6.40575E+00 7.49481E+00 0.00000E+00
 -1      2614 7.15620E+01 1.28309E+01 0.00000E+00
 -1      2615 7.02459E+01 2.38625E+01 0.00000E+00
 -1      2616 5.02642E+01 1.57074E+01 0.00000E+00
 -1      2617 5.99111E+01 6.34096E+00 0.00000E+00
 -1      2618 5.28595E+01 2.45308E+01 0.00000E+00
 -1      2619 5.36720E+01 9.25714E+00 0.00000E+00
 -1      2620 7.04279E+01 1.08417E+01 0.00000E+00
 -1      2621 6.17788E+01 5.01585E+00 0.00000E+00
 -1      2622 6.53100E+01 5.97272E+00 0.00000E+00
 -1      2623 5.57850E+01 5.28273E+00 0.00000E+00
 -1      2624 5.42850E+01 5.28273E+00 0.00000E+00
 -1      2625 6.02788E+01 5.01585E+00 0.00000E+00
 -1      2626 5.35350E+01 6.58173E+00 0.00000E+00
 -1      2627 6.82350E+01 6.14029E+00 0.00000E+00
 -1      2628 1.43492E+02 6.37844E+00 0.00000E+00
 -1      2629 1.43425E+02 8.56227E+00 0.00000E+00
 -1      2630 1.43572E+02 7.40367E+00 0.00000E+00
 -1      2631 1.41965E+02 7.24930E+00 0.00000E+00
 -1      2632 1.42126E+02 9.29977E+00 0.00000E+00
 -1      2633 1.42758E+02 4.35929E+01 0.00000E+00
 -1      2634 1.43241E+02 4.17323E+01 0.00000E+00
 -1      2635 1.41942E+02 4.09948E+01 0.00000E+00
 -1      2636 1.41414E+02 4.35342E+01 0.00000E+00
 -1      2637 6.89273E+01 9.15344E+00 0.00000E+00
 -1      2638 7.70475E+00 8.23231E+00 0.00000E+00
 -1      2639 7.21913E+01 1.51267E+01 0.00000E+00
 -1      2640 5.54864E+01 7.98710E+00 0.00000E+00
 -1      2641 7.23035E+01 1.96037E+01 0.00000E+00
 -1      2642 5.19436E+01 1.10765E+01 0.00000E+00
 -1      2643 5.18592E+01 1.01310E+01 0.00000E+00
 -1      2644 5.08997E+01 1.13049E+01 0.00000E+00
 -1      2645 6.55950E+00 3.99453E+01 0.00000E+00
 -1      2646 6.73572E+01 2.71336E+01 0.00000E+00
 -1      2647 6.52042E+01 2.82481E+01 0.00000E+00
 -1      2648 6.46191E+01 2.91122E+01 0.00000E+00
 -1      2649 6.60268E+01 2.87303E+01 0.00000E+00
 -1      2650 6.03866E+01 2.84962E+01 0.00000E+00
 -1      2651 5.62737E+01 2.71704E+01 0.00000E+00
 -1      2652 5.13622E+01 2.24819E+01 0.00000E+00
 -1      2653 5.04051E+01 2.22243E+01 0.00000E+00
 -1      2654 5.11645E+01 2.34409E+01 0.00000E+00
 -1      2655 5.01593E+01 1.79814E+01 0.00000E+00
 -1      2656 7.14741E+01 2.18662E+01 0.00000E+00
 -1      2657 6.70184E+01 7.67062E+00 0.00000E+00
 -1      2658 7.24593E+01 1.73034E+01 0.00000E+00
 -1      2659 1.40664E+02 4.22352E+01 0.00000E+00
 -1      2660 5.76657E+01 7.00951E+00 0.00000E+00
 -1      2661 5.07174E+01 1.34816E+01 0.00000E+00
 -1      2662 6.26320E+01 2.86345E+01 0.00000E+00
 -1      2663 5.91674E+01 5.33136E+00 0.00000E+00
 -1      2664 9.09300E+00 1.98250E+01 0.00000E+00
 -1      2665 9.09300E+00 2.12750E+01 0.00000E+00
 -1      2666 9.09300E+00 2.27500E+01 0.00000E+00
 -1      2667 9.09300E+00 2.42250E+01 0.00000E+00
 -1      2668 1.03920E+01 2.20250E+01 0.00000E+00
 -1      2669 9.09300E+00 1.39375E+01 0.00000E+00
 -1      2670 9.09300E+00 1.54125E+01 0.00000E+00
 -1      2671 9.09300E+00 1.09875E+01 0.00000E+00
 -1      2672 9.09300E+00 1.24625E+01 0.00000E+00
 -1      2673 1.03920E+01 1.32000E+01 0.00000E+00
 -1      2674 1.22850E+01 7.90325E+00 0.00000E+00
 -1      2675 1.07850E+01 7.90325E+00 0.00000E+00
 -1      2676 7.31429E+01 1.44658E+01 0.00000E+00
 -1      2677 7.32747E+01 1.55370E+01 0.00000E+00
 -1      2678 1.52850E+01 7.90325E+00 0.00000E+00
 -1      2679 1.37850E+01 7.90325E+00 0.00000E+00
 -1      2680 1.30350E+01 9.20225E+00 0.00000E+00
 -1      2681 8.91450E+00 8.42712E+00 0.00000E+00
 -1      2682 1.44000E+01 4.09070E+01 0.00000E+00
 -1      2683 1.59000E+01 4.09070E+01 0.00000E+00
 -1      2684 1.74000E+01 4.09070E+01 0.00000E+00
 -1      2685 1.89000E+01 4.09070E+01 0.00000E+00
 -1      2686 1.66500E+01 3.96080E+01 0.00000E+00
 -1      2687 2.04000E+01 4.09070E+01 0.00000E+00
 -1      2688 2.19000E+01 4.09070E+01 0.00000E+00
 -1      2689 1.96500E+01 3.96080E+01 0.00000E+00
 -1      2690 2.34000E+01 4.09070E+01 0.00000E+00
 -1      2691 2.49000E+01 4.09070E+01 0.00000E+00
 -1      2692 2.26500E+01 3.96080E+01 0.00000E+00
 -1      2693 2.64000E+01 4.09070E+01 0.00000E+00
 -1      2694 2.79000E+01 4.09070E+01 0.00000E+00
 -1      2695 2.56500E+01 3.96080E+01 0.00000E+00
 -1      2696 2.94000E+01 4.09070E+01 0.00000E+00
 -1      2697 3.09000E+01 4.09070E+01 0.00000E+00
 -1      2698 2.86500E+01 3.96080E+01 0.00000E+00
 -1      2699 3.24000E+01 4.09070E+01 0.00000E+00
 -1      2700 3.39000E+01 4.09070E+01 0.00000E+00
 -1      2701 3.16500E+01 3.96080E+01 0.00000E+00
 -1      2702 3.54000E+01 4.09070E+01 0.00000E+00
 -1      2703 3.69000E+01 4.09070E+01 0.00000E+00
 -1      2704 3.46500E+01 3.96080E+01 0.00000E+00
 -1      2705 3.84000E+01 4.09070E+01 0.00000E+00
 -1      2706 3.99000E+01 4.09070E+01 0.00000E+00
 -1      2707 3.76500E+01 3.96080E+01 0.00000E+00
 -1      2708 4.14000E+01 4.09070E+01 0.00000E+00
 -1      2709 4.29000E+01 4.09070E+01 0.00000E+00
 -1      2710 4.06500E+01 3.96080E+01 0.00000E+00
 -1      2711 4.44000E+01 4.09070E+01 0.00000E+00
 -1      2712 4.59000E+01 4.09070E+01 0.00000E+00
 -1      2713 4.36500E+01 3.96080E+01 0.00000E+00
 -1      2714 4.74000E+01 4.09070E+01 0.00000E+00
 -1      2715 4.89000E+01 4.09070E+01 0.00000E+00
 -1      2716 4.66500E+01 3.96080E+01 0.00000E+00
 -1      2717 5.04000E+01 4.09070E+01 0.00000E+00
 -1      2718 5.19000E+01 4.09070E+01 0.00000E+00
 -1      2719 4.96500E+01 3.96080E+01 0.00000E+00
 -1      2720 5.34000E+01 4.09070E+01 0.00000E+00
 -1      2721 5.49000E+01 4.09070E+01 0.00000E+00
 -1      2722 5.26500E+01 3.96080E+01 0.00000E+00
 -1      2723 5.64000E+01 4.09070E+01 0.00000E+00
 -1      2724 5.79000E+01 4.09070E+01 0.00000E+00
 -1      2725 5.56500E+01 3.96080E+01 0.00000E+00
 -1      2726 5.94000E+01 4.09070E+01 0.00000E+00
 -1      2727 6.09000E+01 4.09070E+01 0.00000E+00
 -1      2728 5.86500E+01 3.96080E+01 0.00000E+00
 -1      2729 6.24000E+01 4.09070E+01 0.00000E+00
 -1      2730 6.39000E+01 4.09070E+01 0.00000E+00
 -1      2731 6.16500E+01 3.96080E+01 0.00000E+00
 -1      2732 6.54000E+01 4.09070E+01 0.00000E+00
 -1      2733 6.69000E+01 4.09070E+01 0.00000E+00
 -1      2734 6.46500E+01 3.96080E+01 0.00000E+00
 -1      2735 6.84000E+01 4.09070E+01 0.00000E+00
 -1      2736 6.99000E+01 4.09070E+01 0.00000E+00
 -1      2737 6.76500E+01 3.96080E+01 0.00000E+00
 -1      2738 7.14000E+01 4.09070E+01 0.00000E+00
 -1      2739 7.29000E+01 4.09070E+01 0.00000E+00
 -1      2740 7.06500E+01 3.96080E+01 0.00000E+00
 -1      2741 7.44000E+01 4.09070E+01 0.00000E+00
 -1      2742 7.59000E+01 4.09070E+01 0.00000E+00
 -1      2743 7.36500E+01 3.96080E+01 0.00000E+00
 -1      2744 7.74000E+01 4.09070E+01 0.00000E+00
 -1      2745 7.89000E+01 4.09070E+01 0.00000E+00
 -1      2746 7.66500E+01 3.96080E+01 0.00000E+00
 -1      2747 8.04000E+01 4.09070E+01 0.00000E+00
 -1      2748 8.19000E+01 4.09070E+01 0.00000E+00
 -1      2749 7.96500E+01 3.96080E+01 0.00000E+00
 -1      2750 8.34000E+01 4.09070E+01 0.00000E+00
 -1      2751 8.49000E+01 4.09070E+01 0.00000E+00
 -1      2752 8.26500E+01 3.96080E+01 0.00000E+00
 -1      2753 8.64000E+01 4.09070E+01 0.00000E+00
 -1      2754 8.79000E+01 4.09070E+01 0.00000E+00
 -1      2755 8.56500E+01 3.96080E+01 0.00000E+00
 -1      2756 8.94000E+01 4.09070E+01 0.00000E+00
 -1      2757 9.09000E+01 4.09070E+01 0.00000E+00
 -1      2758 8.86500E+01 3.96080E+01 0.00000E+00
 -1      2759 9.24000E+01 4.09070E+01 0.00000E+00
 -1      2760 9.39000E+01 4.09070E+01 0.00000E+00
 -1      2761 9.16500E+01 3.96080E+01 0.00000E+00
 -1      2762 9.54000E+01 4.09070E+01 0.00000E+00
 -1      2763 9.69000E+01 4.09070E+01 0.00000E+00
 -1      2764 9.46500E+01 3.96080E+01 0.00000E+00
 -1      2765 9.84000E+01 4.09070E+01 0.00000E+00
 -1      2766 9.99000E+01 4.09070E+01 0.00000E+00
 -1      2767 9.76500E+01 3.96080E+01 0.00000E+00
 -1      2768 1.01400E+02 4.09070E+01 0.00000E+00
 -1      2769 1.02900E+02 4.09070E+01 0.00000E+00
 -1      2770 1.00650E+02 3.96080E+01 0.00000E+00
 -1      2771 1.04400E+02 4.09070E+01 0.00000E+00
 -1      2772 1.05900E+02 4.09070E+01 0.00000E+00
 -1      2773 1.03650E+02 3.96080E+01 0.00000E+00
 -1      2774 1.07400E+02 4.09070E+01 0.00000E+00
 -1      2775 1.08900E+02 4.09070E+01 0.00000E+00
 -1      2776 1.06650E+02 3.96080E+01 0.00000E+00
 -1      2777 1.10400E+02 4.09070E+01 0.00000E+00
 -1      2778 1.11900E+02 4.09070E+01 0.00000E+00
 -1      2779 1.09650E+02 3.96080E+01 0.00000E+00
 -1      2780 1.13400E+02 4.09070E+01 0.00000E+00
 -1      2781 1.14900E+02 4.09070E+01 0.00000E+00
 -1      2782 1.12650E+02 3.96080E+01 0.00000E+00
 -1      2783 1.16400E+02 4.09070E+01 0.00000E+00
 -1      2784 1.17900E+02 4.09070E+01 0.00000E+00
 -1      2785 1.15650E+02 3.96080E+01 0.00000E+00
 -1      2786 1.19400E+02 4.09070E+01 0.00000E+00
 -1      2787 1.20900E+02 4.09070E+01 0.00000E+00
 -1      2788 1.18650E+02 3.96080E+01 0.00000E+00
 -1      2789 1.22400E+02 4.09070E+01 0.00000E+00
 -1      2790 1.23900E+02 4.09070E+01 0.00000E+00
 -1      2791 1.21650E+02 3.96080E+01 0.00000E+00
 -1      2792 1.25400E+02 4.09070E+01 0.00000E+00
 -1      2793 1.26900E+02 4.09070E+01 0.00000E+00
 -1      2794 1.24650E+02 3.96080E+01 0.00000E+00
 -1      2795 1.28400E+02 4.09070E+01 0.00000E+00
 -1      2796 1.29900E+02 4.09070E+01 0.00000E+00
 -1      2797 1.27650E+02 3.96080E+01 0.00000E+00
 -1      2798 1.31400E+02 4.09070E+01 0.00000E+00
 -1      2799 1.32900E+02 4.09070E+01 0.00000E+00
 -1      2800 1.30650E+02 3.96080E+01 0.00000E+00
 -1      2801 1.34400E+02 4.09070E+01 0.00000E+00
 -1      2802 1.35900E+02 4.09070E+01 0.00000E+00
 -1      2803 1.33650E+02 3.96080E+01 0.00000E+00
 -1      2804 1.37400E+02 4.09070E+01 0.00000E+00
 -1      2805 1.38900E+02 4.09070E+01 0.00000E+00
 -1      2806 1.36650E+02 3.96080E+01 0.00000E+00
 -1      2807 2.42850E+01 7.90325E+00 0.00000E+00
 -1      2808 2.27850E+01 7.90325E+00 0.00000E+00
 -1      2809 6.91214E+01 8.10576E+00 0.00000E+00
 -1      2810 6.99855E+01 9.02934E+00 0.00000E+00
 -1      2811 2.12850E+01 7.90325E+00 0.00000E+00
 -1      2812 1.97850E+01 7.90325E+00 0.00000E+00
 -1      2813 2.20350E+01 9.20225E+00 0.00000E+00
 -1      2814 3.02850E+01 7.90325E+00 0.00000E+00
 -1      2815 2.87850E+01 7.90325E+00 0.00000E+00
 -1      2816 3.32850E+01 7.90325E+00 0.00000E+00
 -1      2817 3.17850E+01 7.90325E+00 0.00000E+00
 -1      2818 3.10350E+01 9.20225E+00 0.00000E+00
 -1      2819 3.62850E+01 7.90325E+00 0.00000E+00
 -1      2820 3.47850E+01 7.90325E+00 0.00000E+00
 -1      2821 3.40350E+01 9.20225E+00 0.00000E+00
 -1      2822 3.92850E+01 7.90325E+00 0.00000E+00
 -1      2823 3.77850E+01 7.90325E+00 0.00000E+00
 -1      2824 3.70350E+01 9.20225E+00 0.00000E+00
 -1      2825 4.22850E+01 7.90325E+00 0.00000E+00
 -1      2826 4.07850E+01 7.90325E+00 0.00000E+00
 -1      2827 4.00350E+01 9.20225E+00 0.00000E+00
 -1      2828 4.52850E+01 7.90325E+00 0.00000E+00
 -1      2829 4.37850E+01 7.90325E+00 0.00000E+00
 -1      2830 4.30350E+01 9.20225E+00 0.00000E+00
 -1      2831 4.82850E+01 7.90325E+00 0.00000E+00
 -1      2832 4.67850E+01 7.90325E+00 0.00000E+00
 -1      2833 4.60350E+01 9.20225E+00 0.00000E+00
 -1      2834 5.14252E+01 8.48183E+00 0.00000E+00
 -1      2835 4.99252E+01 8.48183E+00 0.00000E+00
 -1      2836 5.65334E+01 5.68440E+00 0.00000E+00
 -1      2837 5.57834E+01 6.96088E+00 0.00000E+00
 -1      2838 5.76674E+01 5.33136E+00 0.00000E+00
 -1      2839 7.14573E+01 7.10286E+00 0.00000E+00
 -1      2840 6.99573E+01 7.10286E+00 0.00000E+00
 -1      2841 8.09850E+01 7.52307E+00 0.00000E+00
 -1      2842 7.94850E+01 7.52307E+00 0.00000E+00
 -1      2843 8.39850E+01 7.52307E+00 0.00000E+00
 -1      2844 8.24850E+01 7.52307E+00 0.00000E+00
 -1      2845 8.17350E+01 8.82207E+00 0.00000E+00
 -1      2846 8.71350E+01 7.52307E+00 0.00000E+00
 -1      2847 8.55600E+01 7.52307E+00 0.00000E+00
 -1      2848 8.48100E+01 8.82207E+00 0.00000E+00
 -1      2849 9.01350E+01 7.52307E+00 0.00000E+00
 -1      2850 8.86350E+01 7.52307E+00 0.00000E+00
 -1      2851 8.78850E+01 8.82207E+00 0.00000E+00
 -1      2852 9.31350E+01 7.52307E+00 0.00000E+00
 -1      2853 9.16350E+01 7.52307E+00 0.00000E+00
 -1      2854 9.08850E+01 8.82207E+00 0.00000E+00
 -1      2855 9.61350E+01 7.52307E+00 0.00000E+00
 -1      2856 9.46350E+01 7.52307E+00 0.00000E+00
 -1      2857 9.38850E+01 8.82207E+00 0.00000E+00
 -1      2858 9.91350E+01 7.52307E+00 0.00000E+00
 -1      2859 9.76350E+01 7.52307E+00 0.00000E+00
 -1      2860 9.68850E+01 8.82207E+00 0.00000E+00
 -1      2861 1.02135E+02 7.52307E+00 0.00000E+00
 -1      2862 1.00635E+02 7.52307E+00 0.00000E+00
 -1      2863 9.98850E+01 8.82207E+00 0.00000E+00
 -1      2864 1.05135E+02 7.52307E+00 0.00000E+00
 -1      2865 1.03635E+02 7.52307E+00 0.00000E+00
 -1      2866 1.02885E+02 8.82207E+00 0.00000E+00
 -1      2867 1.08135E+02 7.52307E+00 0.00000E+00
 -1      2868 1.06635E+02 7.52307E+00 0.00000E+00
 -1      2869 1.05885E+02 8.82207E+00 0.00000E+00
 -1      2870 1.11135E+02 7.52307E+00 0.00000E+00
 -1      2871 1.09635E+02 7.52307E+00 0.00000E+00
 -1      2872 1.08885E+02 8.82207E+00 0.00000E+00
 -1      2873 1.14135E+02 7.52307E+00 0.00000E+00
 -1      2874 1.12635E+02 7.52307E+00 0.00000E+00
 -1      2875 1.11885E+02 8.82207E+00 0.00000E+00
 -1      2876 1.17135E+02 7.52307E+00 0.00000E+00
 -1      2877 1.15635E+02 7.52307E+00 0.00000E+00
 -1      2878 1.14885E+02 8.82207E+00 0.00000E+00
 -1      2879 1.20135E+02 7.52307E+00 0.00000E+00
 -1      2880 1.18635E+02 7.52307E+00 0.00000E+00
 -1      2881 1.17885E+02 8.82207E+00 0.00000E+00
 -1      2882 1.23135E+02 7.52307E+00 0.00000E+00
 -1      2883 1.21635E+02 7.52307E+00 0.00000E+00
 -1      2884 1.20885E+02 8.82207E+00 0.00000E+00
 -1      2885 1.26135E+02 7.52307E+00 0.00000E+00
 -1      2886 1.24635E+02 7.52307E+00 0.00000E+00
 -1      2887 1.23885E+02 8.82207E+00 0.00000E+00
 -1      2888 1.29135E+02 7.52307E+00 0.00000E+00
 -1      2889 1.27635E+02 7.52307E+00 0.00000E+00
 -1      2890 1.26885E+02 8.82207E+00 0.00000E+00
 -1      2891 1.32135E+02 7.52307E+00 0.00000E+00
 -1      2892 1.30635E+02 7.52307E+00 0.00000E+00
 -1      2893 1.29885E+02 8.82207E+00 0.00000E+00
 -1      2894 1.35135E+02 7.52307E+00 0.00000E+00
 -1      2895 1.33635E+02 7.52307E+00 0.00000E+00
 -1      2896 1.32885E+02 8.82207E+00 0.00000E+00
 -1      2897 1.38135E+02 7.52307E+00 0.00000E+00
 -1      2898 1.36635E+02 7.52307E+00 0.00000E+00
 -1      2899 1.35885E+02 8.82207E+00 0.00000E+00
 -1      2900 1.40800E+02 7.38619E+00 0.00000E+00
 -1      2901 1.39300E+02 7.38619E+00 0.00000E+00
 -1      2902 1.38550E+02 8.68519E+00 0.00000E+00
 -1      2903 1.40880E+02 8.41142E+00 0.00000E+00
 -1      2904 1.40907E+02 2.42875E+01 0.00000E+00
 -1      2905 1.40907E+02 2.28125E+01 0.00000E+00
 -1      2906 1.40928E+02 4.09655E+01 0.00000E+00
 -1      2907 1.41192E+02 3.96958E+01 0.00000E+00
 -1      2908 1.39914E+02 4.09362E+01 0.00000E+00
 -1      2909 1.40907E+02 1.83875E+01 0.00000E+00
 -1      2910 1.40907E+02 1.69125E+01 0.00000E+00
 -1      2911 7.14137E+01 2.40100E+01 0.00000E+00
 -1      2912 7.07230E+01 2.49386E+01 0.00000E+00
 -1      2913 1.40907E+02 2.72375E+01 0.00000E+00
 -1      2914 1.40907E+02 2.57625E+01 0.00000E+00
 -1      2915 1.39608E+02 2.50250E+01 0.00000E+00
 -1      2916 1.40907E+02 2.13375E+01 0.00000E+00
 -1      2917 1.40907E+02 1.98625E+01 0.00000E+00
 -1      2918 1.39608E+02 1.91250E+01 0.00000E+00
 -1      2919 1.39608E+02 2.20750E+01 0.00000E+00
 -1      2920 1.40907E+02 3.01375E+01 0.00000E+00
 -1      2921 1.40907E+02 2.86875E+01 0.00000E+00
 -1      2922 1.39608E+02 2.79500E+01 0.00000E+00
 -1      2923 1.40907E+02 3.30875E+01 0.00000E+00
 -1      2924 1.40907E+02 3.16125E+01 0.00000E+00
 -1      2925 1.39608E+02 3.08750E+01 0.00000E+00
 -1      2926 1.40907E+02 3.60375E+01 0.00000E+00
 -1      2927 1.40907E+02 3.45625E+01 0.00000E+00
 -1      2928 1.39608E+02 3.38250E+01 0.00000E+00
 -1      2929 1.41192E+02 3.82207E+01 0.00000E+00
 -1      2930 1.82850E+01 7.90325E+00 0.00000E+00
 -1      2931 1.67850E+01 7.90325E+00 0.00000E+00
 -1      2932 1.60350E+01 9.20225E+00 0.00000E+00
 -1      2933 1.90350E+01 9.20225E+00 0.00000E+00
 -1      2934 6.49293E+01 6.50015E+00 0.00000E+00
 -1      2935 6.98287E+01 2.57680E+01 0.00000E+00
 -1      2936 6.91024E+01 2.65730E+01 0.00000E+00
 -1      2937 5.47380E+01 7.58544E+00 0.00000E+00
 -1      2938 4.93281E+01 1.60466E+01 0.00000E+00
 -1      2939 4.95146E+01 1.50520E+01 0.00000E+00
 -1      2940 4.93443E+01 1.86758E+01 0.00000E+00
 -1      2941 4.92627E+01 1.73963E+01 0.00000E+00
 -1      2942 7.07687E+01 9.91072E+00 0.00000E+00
 -1      2943 7.14053E+01 1.06754E+01 0.00000E+00
 -1      2944 7.79850E+01 7.52307E+00 0.00000E+00
 -1      2945 7.64850E+01 7.52307E+00 0.00000E+00
 -1      2946 7.87350E+01 8.82207E+00 0.00000E+00
 -1      2947 7.49850E+01 7.52307E+00 0.00000E+00
 -1      2948 7.34850E+01 7.52307E+00 0.00000E+00
 -1      2949 7.57350E+01 8.82207E+00 0.00000E+00
 -1      2950 2.72850E+01 7.90325E+00 0.00000E+00
 -1      2951 2.57850E+01 7.90325E+00 0.00000E+00
 -1      2952 2.50350E+01 9.20225E+00 0.00000E+00
 -1      2953 2.80350E+01 9.20225E+00 0.00000E+00
 -1      2954 1.14000E+01 4.09070E+01 0.00000E+00
 -1      2955 1.29000E+01 4.09070E+01 0.00000E+00
 -1      2956 1.36500E+01 3.96080E+01 0.00000E+00
 -1      2957 7.21077E+01 1.18959E+01 0.00000E+00
 -1      2958 7.26052E+01 1.31204E+01 0.00000E+00
 -1      2959 6.83570E+01 2.73055E+01 0.00000E+00
 -1      2960 6.76116E+01 2.80381E+01 0.00000E+00
 -1      2961 6.93569E+01 2.74775E+01 0.00000E+00
 -1      2962 4.96641E+01 1.38979E+01 0.00000E+00
 -1      2963 4.99308E+01 1.26667E+01 0.00000E+00
 -1      2964 9.09300E+00 1.68813E+01 0.00000E+00
 -1      2965 9.09300E+00 1.83563E+01 0.00000E+00
 -1      2966 1.03920E+01 1.90812E+01 0.00000E+00
 -1      2967 1.03920E+01 1.61437E+01 0.00000E+00
 -1      2968 7.85850E+00 3.92077E+01 0.00000E+00
 -1      2969 7.34108E+01 1.66426E+01 0.00000E+00
 -1      2970 7.35469E+01 1.77481E+01 0.00000E+00
 -1      2971 7.43623E+01 1.59817E+01 0.00000E+00
 -1      2972 7.32011E+01 1.91900E+01 0.00000E+00
 -1      2973 7.29092E+01 2.03848E+01 0.00000E+00
 -1      2974 7.24887E+01 2.18746E+01 0.00000E+00
 -1      2975 7.19512E+01 2.29423E+01 0.00000E+00
 -1      2976 7.24283E+01 2.40185E+01 0.00000E+00
 -1      2977 9.09300E+00 3.15875E+01 0.00000E+00
 -1      2978 9.09300E+00 3.30625E+01 0.00000E+00
 -1      2979 6.32176E+01 2.94898E+01 0.00000E+00
 -1      2980 6.20531E+01 2.94944E+01 0.00000E+00
 -1      2981 5.24613E+01 2.56270E+01 0.00000E+00
 -1      2982 5.17234E+01 2.47947E+01 0.00000E+00
 -1      2983 4.95035E+01 2.09464E+01 0.00000E+00
 -1      2984 4.93226E+01 1.99442E+01 0.00000E+00
 -1      2985 5.43241E+01 2.70539E+01 0.00000E+00
 -1      2986 5.34710E+01 2.64346E+01 0.00000E+00
 -1      2987 5.62642E+01 2.81913E+01 0.00000E+00
 -1      2988 5.52941E+01 2.76226E+01 0.00000E+00
 -1      2989 5.43146E+01 2.80748E+01 0.00000E+00
 -1      2990 5.84737E+01 2.92625E+01 0.00000E+00
 -1      2991 5.74427E+01 2.89555E+01 0.00000E+00
 -1      2992 6.08146E+01 2.94178E+01 0.00000E+00
 -1      2993 5.97337E+01 2.92748E+01 0.00000E+00
 -1      2994 5.32380E+01 7.60796E+00 0.00000E+00
 -1      2995 9.09300E+00 3.45313E+01 0.00000E+00
 -1      2996 9.09300E+00 3.60000E+01 0.00000E+00
 -1      2997 1.03920E+01 3.37938E+01 0.00000E+00
 -1      2998 1.03920E+01 2.49750E+01 0.00000E+00
 -1      2999 9.09300E+00 2.57000E+01 0.00000E+00
 -1      3000 9.09300E+00 2.71750E+01 0.00000E+00
 -1      3001 9.66450E+00 9.72612E+00 0.00000E+00
 -1      3002 7.42839E+01 2.10472E+01 0.00000E+00
 -1      3003 7.33863E+01 2.14609E+01 0.00000E+00
 -1      3004 7.38634E+01 2.25370E+01 0.00000E+00
 -1      3005 7.36886E+01 1.35308E+01 0.00000E+00
 -1      3006 1.39164E+02 3.96372E+01 0.00000E+00
 -1      3007 7.09629E+01 8.86303E+00 0.00000E+00
 -1      3008 6.63543E+01 6.58394E+00 0.00000E+00
 -1      3009 7.41526E+01 1.85292E+01 0.00000E+00
 -1      3010 4.91752E+01 9.78083E+00 0.00000E+00
 -1      3011 4.85131E+01 1.67410E+01 0.00000E+00
 -1      3012 6.88991E+01 7.22697E+00 0.00000E+00
 -1      3013 6.73991E+01 7.14318E+00 0.00000E+00
 -1      3014 4.84260E+01 1.93590E+01 0.00000E+00
 -1      3015 7.22073E+01 8.40186E+00 0.00000E+00
 -1      3016 1.40961E+02 9.43665E+00 0.00000E+00
 -1      3017 7.09966E+01 2.59156E+01 0.00000E+00
 -1      3018 1.40961E+02 1.23617E+01 0.00000E+00
 -1      3019 1.40961E+02 1.08992E+01 0.00000E+00
 -1      3020 1.39715E+02 1.00108E+01 0.00000E+00
 -1      3021 5.64632E+01 2.94076E+01 0.00000E+00
 -1      3022 1.39529E+02 3.85602E+01 0.00000E+00
 -1      3023 1.40542E+02 3.71145E+01 0.00000E+00
 -1      3024 1.39243E+02 3.63770E+01 0.00000E+00
 -1      3025 1.38514E+02 3.85310E+01 0.00000E+00
 -1      3026 4.93058E+01 2.19054E+01 0.00000E+00
 -1      3027 4.82066E+01 2.15864E+01 0.00000E+00
 -1      3028 4.91082E+01 2.28644E+01 0.00000E+00
 -1      3029 5.23349E+01 2.66985E+01 0.00000E+00
 -1      3030 1.09635E+01 1.04636E+01 0.00000E+00
 -1      3031 6.14002E+01 3.02731E+01 0.00000E+00
 -1      3032 4.95952E+01 1.16965E+01 0.00000E+00
 -1      3033 4.95108E+01 1.07510E+01 0.00000E+00
 -1      3034 4.78706E+01 1.01724E+01 0.00000E+00
 -1      3035 4.85418E+01 1.21128E+01 0.00000E+00
 -1      3036 6.70266E+01 2.89022E+01 0.00000E+00
 -1      3037 6.64416E+01 2.97663E+01 0.00000E+00
 -1      3038 6.80265E+01 2.90742E+01 0.00000E+00
 -1      3039 5.07664E+01 2.45371E+01 0.00000E+00
 -1      3040 7.24485E+01 1.09649E+01 0.00000E+00
 -1      3041 1.40907E+02 1.54500E+01 0.00000E+00
 -1      3042 1.40907E+02 1.39875E+01 0.00000E+00
 -1      3043 1.39608E+02 1.61875E+01 0.00000E+00
 -1      3044 9.09300E+00 2.86437E+01 0.00000E+00
 -1      3045 9.09300E+00 3.01187E+01 0.00000E+00
 -1      3046 1.03920E+01 3.08563E+01 0.00000E+00
 -1      3047 1.03920E+01 2.79188E+01 0.00000E+00
 -1      3048 4.87279E+01 1.42371E+01 0.00000E+00
 -1      3049 6.40402E+01 2.99720E+01 0.00000E+00
 -1      3050 6.34613E+01 3.08318E+01 0.00000E+00
 -1      3051 6.48628E+01 3.04542E+01 0.00000E+00
 -1      3052 9.15750E+00 3.77359E+01 0.00000E+00
 -1      3053 9.22200E+00 4.02061E+01 0.00000E+00
 -1      3054 1.05855E+01 4.04701E+01 0.00000E+00
 -1      3055 1.04565E+01 3.69984E+01 0.00000E+00
 -1      3056 5.89017E+01 3.01841E+01 0.00000E+00
 -1      3057 1.13355E+01 3.91711E+01 0.00000E+00
 -1      3058 1.16910E+01 1.24625E+01 0.00000E+00
 -1      3059 1.16910E+01 1.39375E+01 0.00000E+00
 -1      3060 1.59000E+01 3.83090E+01 0.00000E+00
 -1      3061 1.74000E+01 3.83090E+01 0.00000E+00
 -1      3062 1.89000E+01 3.83090E+01 0.00000E+00
 -1      3063 2.04000E+01 3.83090E+01 0.00000E+00
 -1      3064 1.81500E+01 3.70100E+01 0.00000E+00
 -1      3065 2.19000E+01 3.83090E+01 0.00000E+00
 -1      3066 2.34000E+01 3.83090E+01 0.00000E+00
 -1      3067 2.11500E+01 3.70100E+01 0.00000E+00
 -1      3068 2.49000E+01 3.83090E+01 0.00000E+00
 -1      3069 2.64000E+01 3.83090E+01 0.00000E+00
 -1      3070 2.41500E+01 3.70100E+01 0.00000E+00
 -1      3071 2.79000E+01 3.83090E+01 0.00000E+00
 -1      3072 2.94000E+01 3.83090E+01 0.00000E+00
 -1      3073 2.71500E+01 3.70100E+01 0.00000E+00
 -1      3074 3.09000E+01 3.83090E+01 0.00000E+00
 -1      3075 3.24000E+01 3.83090E+01 0.00000E+00
 -1      3076 3.01500E+01 3.70100E+01 0.00000E+00
 -1      3077 3.39000E+01 3.83090E+01 0.00000E+00
 -1      3078 3.54000E+01 3.83090E+01 0.00000E+00
 -1      3079 3.31500E+01 3.70100E+01 0.00000E+00
 -1      3080 3.69000E+01 3.83090E+01 0.00000E+00
 -1      3081 3.84000E+01 3.83090E+01 0.00000E+00
 -1      3082 3.61500E+01 3.70100E+01 0.00000E+00
 -1      3083 3.99000E+01 3.83090E+01 0.00000E+00
 -1      3084 4.14000E+01 3.83090E+01 0.00000E+00
 -1      3085 3.91500E+01 3.70100E+01 0.00000E+00
 -1      3086 4.29000E+01 3.83090E+01 0.00000E+00
 -1      3087 4.44000E+01 3.83090E+01 0.00000E+00
 -1      3088 4.21500E+01 3.70100E+01 0.00000E+00
 -1      3089 4.59000E+01 3.83090E+01 0.00000E+00
 -1      3090 4.74000E+01 3.83090E+01 0.00000E+00
 -1      3091 4.51500E+01 3.70100E+01 0.00000E+00
 -1      3092 4.89000E+01 3.83090E+01 0.00000E+00
 -1      3093 5.04000E+01 3.83090E+01 0.00000E+00
 -1      3094 4.81500E+01 3.70100E+01 0.00000E+00
 -1      3095 5.19000E+01 3.83090E+01 0.00000E+00
 -1      3096 5.34000E+01 3.83090E+01 0.00000E+00
 -1      3097 5.11500E+01 3.70100E+01 0.00000E+00
 -1      3098 5.49000E+01 3.83090E+01 0.00000E+00
 -1      3099 5.64000E+01 3.83090E+01 0.00000E+00
 -1      3100 5.41500E+01 3.70100E+01 0.00000E+00
 -1      3101 5.79000E+01 3.83090E+01 0.00000E+00
 -1      3102 5.94000E+01 3.83090E+01 0.00000E+00
 -1      3103 5.71500E+01 3.70100E+01 0.00000E+00
 -1      3104 6.09000E+01 3.83090E+01 0.00000E+00
 -1      3105 6.24000E+01 3.83090E+01 0.00000E+00
 -1      3106 6.01500E+01 3.70100E+01 0.00000E+00
 -1      3107 6.39000E+01 3.83090E+01 0.00000E+00
 -1      3108 6.54000E+01 3.83090E+01 0.00000E+00
 -1      3109 6.31500E+01 3.70100E+01 0.00000E+00
 -1      3110 6.69000E+01 3.83090E+01 0.00000E+00
 -1      3111 6.84000E+01 3.83090E+01 0.00000E+00
 -1      3112 6.61500E+01 3.70100E+01 0.00000E+00
 -1      3113 6.99000E+01 3.83090E+01 0.00000E+00
 -1      3114 7.14000E+01 3.83090E+01 0.00000E+00
 -1      3115 6.91500E+01 3.70100E+01 0.00000E+00
 -1      3116 7.29000E+01 3.83090E+01 0.00000E+00
 -1      3117 7.44000E+01 3.83090E+01 0.00000E+00
 -1      3118 7.21500E+01 3.70100E+01 0.00000E+00
 -1      3119 7.59000E+01 3.83090E+01 0.00000E+00
 -1      3120 7.74000E+01 3.83090E+01 0.00000E+00
 -1      3121 7.51500E+01 3.70100E+01 0.00000E+00
 -1      3122 7.89000E+01 3.83090E+01 0.00000E+00
 -1      3123 8.04000E+01 3.83090E+01 0.00000E+00
 -1      3124 7.81500E+01 3.70100E+01 0.00000E+00
 -1      3125 8.19000E+01 3.83090E+01 0.00000E+00
 -1      3126 8.34000E+01 3.83090E+01 0.00000E+00
 -1      3127 8.11500E+01 3.70100E+01 0.00000E+00
 -1      3128 8.49000E+01 3.83090E+01 0.00000E+00
 -1      3129 8.64000E+01 3.83090E+01 0.00000E+00
 -1      3130 8.41500E+01 3.70100E+01 0.00000E+00
 -1      3131 8.79000E+01 3.83090E+01 0.00000E+00
 -1      3132 8.94000E+01 3.83090E+01 0.00000E+00
 -1      3133 8.71500E+01 3.70100E+01 0.00000E+00
 -1      3134 9.09000E+01 3.83090E+01 0.00000E+00
 -1      3135 9.24000E+01 3.83090E+01 0.00000E+00
 -1      3136 9.01500E+01 3.70100E+01 0.00000E+00
 -1      3137 9.39000E+01 3.83090E+01 0.00000E+00
 -1      3138 9.54000E+01 3.83090E+01 0.00000E+00
 -1      3139 9.31500E+01 3.70100E+01 0.00000E+00
 -1      3140 9.69000E+01 3.83090E+01 0.00000E+00
 -1      3141 9.84000E+01 3.83090E+01 0.00000E+00
 -1      3142 9.61500E+01 3.70100E+01 0.00000E+00
 -1      3143 9.99000E+01 3.83090E+01 0.00000E+00
 -1      3144 1.01400E+02 3.83090E+01 0.00000E+00
 -1      3145 9.91500E+01 3.70100E+01 0.00000E+00
 -1      3146 1.02900E+02 3.83090E+01 0.00000E+00
 -1      3147 1.04400E+02 3.83090E+01 0.00000E+00
 -1      3148 1.02150E+02 3.70100E+01 0.00000E+00
 -1      3149 1.05900E+02 3.83090E+01 0.00000E+00
 -1      3150 1.07400E+02 3.83090E+01 0.00000E+00
 -1      3151 1.05150E+02 3.70100E+01 0.00000E+00
 -1      3152 1.08900E+02 3.83090E+01 0.00000E+00
 -1      3153 1.10400E+02 3.83090E+01 0.00000E+00
 -1      3154 1.08150E+02 3.70100E+01 0.00000E+00
 -1      3155 1.11900E+02 3.83090E+01 0.00000E+00
 -1      3156 1.13400E+02 3.83090E+01 0.00000E+00
 -1      3157 1.11150E+02 3.70100E+01 0.00000E+00
 -1      3158 1.14900E+02 3.83090E+01 0.00000E+00
 -1      3159 1.16400E+02 3.83090E+01 0.00000E+00
 -1      3160 1.14150E+02 3.70100E+01 0.00000E+00
 -1      3161 1.17900E+02 3.83090E+01 0.00000E+00
 -1      3162 1.19400E+02 3.83090E+01 0.00000E+00
 -1      3163 1.17150E+02 3.70100E+01 0.00000E+00
 -1      3164 1.20900E+02 3.83090E+01 0.00000E+00
 -1      3165 1.22400E+02 3.83090E+01 0.00000E+00
 -1      3166 1.20150E+02 3.70100E+01 0.00000E+00
 -1      3167 1.23900E+02 3.83090E+01 0.00000E+00
 -1      3168 1.25400E+02 3.83090E+01 0.00000E+00
 -1      3169 1.23150E+02 3.70100E+01 0.00000E+00
 -1      3170 1.26900E+02 3.83090E+01 0.00000E+00
 -1      3171 1.28400E+02 3.83090E+01 0.00000E+00
 -1      3172 1.26150E+02 3.70100E+01 0.00000E+00
 -1      3173 1.29900E+02 3.83090E+01 0.00000E+00
 -1      3174 1.31400E+02 3.83090E+01 0.00000E+00
 -1      3175 1.29150E+02 3.70100E+01 0.00000E+00
 -1      3176 1.32900E+02 3.83090E+01 0.00000E+00
 -1      3177 1.34400E+02 3.83090E+01 0.00000E+00
 -1      3178 1.32150E+02 3.70100E+01 0.00000E+00
 -1      3179 1.35707E+02 3.84200E+01 0.00000E+00
 -1      3180 1.37207E+02 3.84200E+01 0.00000E+00
 -1      3181 1.37572E+02 3.73430E+01 0.00000E+00
 -1      3182 1.34957E+02 3.71210E+01 0.00000E+00
 -1      3183 3.47850E+01 1.05013E+01 0.00000E+00
 -1      3184 3.32850E+01 1.05013E+01 0.00000E+00
 -1      3185 3.17850E+01 1.05013E+01 0.00000E+00
 -1      3186 3.02850E+01 1.05013E+01 0.00000E+00
 -1      3187 3.25350E+01 1.18003E+01 0.00000E+00
 -1      3188 4.07850E+01 1.05013E+01 0.00000E+00
 -1      3189 3.92850E+01 1.05013E+01 0.00000E+00
 -1      3190 4.37850E+01 1.05013E+01 0.00000E+00
 -1      3191 4.22850E+01 1.05013E+01 0.00000E+00
 -1      3192 4.15350E+01 1.18003E+01 0.00000E+00
 -1      3193 4.65778E+01 1.03368E+01 0.00000E+00
 -1      3194 4.50778E+01 1.03368E+01 0.00000E+00
 -1      3195 4.43278E+01 1.16358E+01 0.00000E+00
 -1      3196 4.69134E+01 1.13070E+01 0.00000E+00
 -1      3197 4.73728E+01 1.73622E+01 0.00000E+00
 -1      3198 4.74382E+01 1.60124E+01 0.00000E+00
 -1      3199 5.24690E+01 8.25344E+00 0.00000E+00
 -1      3200 4.73293E+01 1.98989E+01 0.00000E+00
 -1      3201 4.73510E+01 1.86305E+01 0.00000E+00
 -1      3202 4.62761E+01 1.79020E+01 0.00000E+00
 -1      3203 7.44495E+01 1.24466E+01 0.00000E+00
 -1      3204 7.49871E+01 1.37920E+01 0.00000E+00
 -1      3205 5.65403E+01 3.05796E+01 0.00000E+00
 -1      3206 5.53618E+01 2.98154E+01 0.00000E+00
 -1      3207 8.24850E+01 1.01211E+01 0.00000E+00
 -1      3208 8.09850E+01 1.01211E+01 0.00000E+00
 -1      3209 9.16350E+01 1.01211E+01 0.00000E+00
 -1      3210 9.01350E+01 1.01211E+01 0.00000E+00
 -1      3211 9.46350E+01 1.01211E+01 0.00000E+00
 -1      3212 9.31350E+01 1.01211E+01 0.00000E+00
 -1      3213 9.23850E+01 1.14201E+01 0.00000E+00
 -1      3214 9.76350E+01 1.01211E+01 0.00000E+00
 -1      3215 9.61350E+01 1.01211E+01 0.00000E+00
 -1      3216 9.53850E+01 1.14201E+01 0.00000E+00
 -1      3217 1.00635E+02 1.01211E+01 0.00000E+00
 -1      3218 9.91350E+01 1.01211E+01 0.00000E+00
 -1      3219 9.83850E+01 1.14201E+01 0.00000E+00
 -1      3220 1.03635E+02 1.01211E+01 0.00000E+00
 -1      3221 1.02135E+02 1.01211E+01 0.00000E+00
 -1      3222 1.01385E+02 1.14201E+01 0.00000E+00
 -1      3223 1.06635E+02 1.01211E+01 0.00000E+00
 -1      3224 1.05135E+02 1.01211E+01 0.00000E+00
 -1      3225 1.04385E+02 1.14201E+01 0.00000E+00
 -1      3226 1.09635E+02 1.01211E+01 0.00000E+00
 -1      3227 1.08135E+02 1.01211E+01 0.00000E+00
 -1      3228 1.07385E+02 1.14201E+01 0.00000E+00
 -1      3229 1.12635E+02 1.01211E+01 0.00000E+00
 -1      3230 1.11135E+02 1.01211E+01 0.00000E+00
 -1      3231 1.10385E+02 1.14201E+01 0.00000E+00
 -1      3232 1.15635E+02 1.01211E+01 0.00000E+00
 -1      3233 1.14135E+02 1.01211E+01 0.00000E+00
 -1      3234 1.13385E+02 1.14201E+01 0.00000E+00
 -1      3235 1.18635E+02 1.01211E+01 0.00000E+00
 -1      3236 1.17135E+02 1.01211E+01 0.00000E+00
 -1      3237 1.16385E+02 1.14201E+01 0.00000E+00
 -1      3238 1.21635E+02 1.01211E+01 0.00000E+00
 -1      3239 1.20135E+02 1.01211E+01 0.00000E+00
 -1      3240 1.19385E+02 1.14201E+01 0.00000E+00
 -1      3241 1.24635E+02 1.01211E+01 0.00000E+00
 -1      3242 1.23135E+02 1.01211E+01 0.00000E+00
 -1      3243 1.22385E+02 1.14201E+01 0.00000E+00
 -1      3244 1.27635E+02 1.01211E+01 0.00000E+00
 -1      3245 1.26135E+02 1.01211E+01 0.00000E+00
 -1      3246 1.25385E+02 1.14201E+01 0.00000E+00
 -1      3247 1.30635E+02 1.01211E+01 0.00000E+00
 -1      3248 1.29135E+02 1.01211E+01 0.00000E+00
 -1      3249 1.28385E+02 1.14201E+01 0.00000E+00
 -1      3250 1.33635E+02 1.01211E+01 0.00000E+00
 -1      3251 1.32135E+02 1.01211E+01 0.00000E+00
 -1      3252 1.31385E+02 1.14201E+01 0.00000E+00
 -1      3253 1.36635E+02 1.01211E+01 0.00000E+00
 -1      3254 1.35135E+02 1.01211E+01 0.00000E+00
 -1      3255 1.34385E+02 1.14201E+01 0.00000E+00
 -1      3256 1.38550E+02 1.01477E+01 0.00000E+00
 -1      3257 7.21408E+01 2.62525E+01 0.00000E+00
 -1      3258 7.12465E+01 2.70819E+01 0.00000E+00
 -1      3259 1.38309E+02 2.86750E+01 0.00000E+00
 -1      3260 1.38309E+02 2.72250E+01 0.00000E+00
 -1      3261 1.38309E+02 3.45625E+01 0.00000E+00
 -1      3262 1.38309E+02 3.30875E+01 0.00000E+00
 -1      3263 5.95200E+01 3.13829E+01 0.00000E+00
 -1      3264 5.82600E+01 3.13706E+01 0.00000E+00
 -1      3265 1.38309E+02 2.57500E+01 0.00000E+00
 -1      3266 1.38309E+02 2.42750E+01 0.00000E+00
 -1      3267 1.37010E+02 2.64750E+01 0.00000E+00
 -1      3268 1.29000E+01 3.83090E+01 0.00000E+00
 -1      3269 1.44000E+01 3.83090E+01 0.00000E+00
 -1      3270 1.51500E+01 3.70100E+01 0.00000E+00
 -1      3271 1.38309E+02 3.16187E+01 0.00000E+00
 -1      3272 1.38309E+02 3.01437E+01 0.00000E+00
 -1      3273 1.37010E+02 2.94188E+01 0.00000E+00
 -1      3274 1.37010E+02 3.23563E+01 0.00000E+00
 -1      3275 7.94850E+01 1.01211E+01 0.00000E+00
 -1      3276 7.79850E+01 1.01211E+01 0.00000E+00
 -1      3277 8.02350E+01 1.14201E+01 0.00000E+00
 -1      3278 4.77197E+01 1.46933E+01 0.00000E+00
 -1      3279 4.78691E+01 1.35391E+01 0.00000E+00
 -1      3280 8.86350E+01 1.01211E+01 0.00000E+00
 -1      3281 8.71350E+01 1.01211E+01 0.00000E+00
 -1      3282 8.93850E+01 1.14201E+01 0.00000E+00
 -1      3283 8.55975E+01 1.01211E+01 0.00000E+00
 -1      3284 8.40225E+01 1.01211E+01 0.00000E+00
 -1      3285 8.32725E+01 1.14201E+01 0.00000E+00
 -1      3286 8.63475E+01 1.14201E+01 0.00000E+00
 -1      3287 3.77850E+01 1.05013E+01 0.00000E+00
 -1      3288 3.62850E+01 1.05013E+01 0.00000E+00
 -1      3289 3.55350E+01 1.18003E+01 0.00000E+00
 -1      3290 3.85350E+01 1.18003E+01 0.00000E+00
 -1      3291 2.27850E+01 1.05013E+01 0.00000E+00
 -1      3292 2.12850E+01 1.05013E+01 0.00000E+00
 -1      3293 7.64915E+01 1.07649E+01 0.00000E+00
 -1      3294 7.49915E+01 1.07649E+01 0.00000E+00
 -1      3295 7.05011E+01 2.78144E+01 0.00000E+00
 -1      3296 6.97557E+01 2.85470E+01 0.00000E+00
 -1      3297 7.16453E+01 2.81514E+01 0.00000E+00
 -1      3298 6.19970E+01 3.15361E+01 0.00000E+00
 -1      3299 6.07585E+01 3.14595E+01 0.00000E+00
 -1      3300 6.01168E+01 3.26460E+01 0.00000E+00
 -1      3301 5.00208E+01 2.56372E+01 0.00000E+00
 -1      3302 4.94619E+01 2.42834E+01 0.00000E+00
 -1      3303 7.53117E+01 1.53037E+01 0.00000E+00
 -1      3304 7.54478E+01 1.64092E+01 0.00000E+00
 -1      3305 7.34631E+01 2.38702E+01 0.00000E+00
 -1      3306 7.29256E+01 2.49379E+01 0.00000E+00
 -1      3307 1.26488E+01 1.02017E+01 0.00000E+00
 -1      3308 1.20772E+01 1.14631E+01 0.00000E+00
 -1      3309 1.33763E+01 1.22006E+01 0.00000E+00
 -1      3310 1.41488E+01 1.02017E+01 0.00000E+00
 -1      3311 5.21994E+01 2.79028E+01 0.00000E+00
 -1      3312 5.11898E+01 2.70952E+01 0.00000E+00
 -1      3313 5.43918E+01 2.92467E+01 0.00000E+00
 -1      3314 5.34217E+01 2.86780E+01 0.00000E+00
 -1      3315 5.44689E+01 3.04186E+01 0.00000E+00
 -1      3316 1.12710E+01 3.74352E+01 0.00000E+00
 -1      3317 1.20855E+01 3.78721E+01 0.00000E+00
 -1      3318 1.12065E+01 3.56994E+01 0.00000E+00
 -1      3319 1.16910E+01 2.12875E+01 0.00000E+00
 -1      3320 1.16910E+01 2.27625E+01 0.00000E+00
 -1      3321 7.51594E+01 1.80082E+01 0.00000E+00
 -1      3322 7.48136E+01 1.94501E+01 0.00000E+00
 -1      3323 1.16910E+01 2.42375E+01 0.00000E+00
 -1      3324 1.16910E+01 2.57125E+01 0.00000E+00
 -1      3325 1.29900E+01 2.35000E+01 0.00000E+00
 -1      3326 7.43607E+01 2.34565E+01 0.00000E+00
 -1      3327 7.52907E+01 2.05263E+01 0.00000E+00
 -1      3328 7.57679E+01 2.16024E+01 0.00000E+00
 -1      3329 7.62976E+01 2.00053E+01 0.00000E+00
 -1      3330 4.97498E+01 2.80458E+01 0.00000E+00
 -1      3331 4.98853E+01 2.68415E+01 0.00000E+00
 -1      3332 4.85809E+01 2.65878E+01 0.00000E+00
 -1      3333 2.05350E+01 1.18003E+01 0.00000E+00
 -1      3334 1.97850E+01 1.05013E+01 0.00000E+00
 -1      3335 1.82850E+01 1.05013E+01 0.00000E+00
 -1      3336 1.12065E+01 3.27619E+01 0.00000E+00
 -1      3337 1.12065E+01 3.42306E+01 0.00000E+00
 -1      3338 1.20210E+01 3.46675E+01 0.00000E+00
 -1      3339 1.29900E+01 1.46687E+01 0.00000E+00
 -1      3340 1.16910E+01 1.54063E+01 0.00000E+00
 -1      3341 1.16910E+01 1.68750E+01 0.00000E+00
 -1      3342 2.95350E+01 1.18003E+01 0.00000E+00
 -1      3343 2.87850E+01 1.05013E+01 0.00000E+00
 -1      3344 2.72850E+01 1.05013E+01 0.00000E+00
 -1      3345 5.71586E+01 3.17784E+01 0.00000E+00
 -1      3346 5.60573E+01 3.21862E+01 0.00000E+00
 -1      3347 5.77770E+01 3.29772E+01 0.00000E+00
 -1      3348 4.71316E+01 2.08579E+01 0.00000E+00
 -1      3349 4.60567E+01 2.01294E+01 0.00000E+00
 -1      3350 4.69340E+01 2.18169E+01 0.00000E+00
 -1      3351 7.61088E+01 1.73302E+01 0.00000E+00
 -1      3352 7.36930E+01 1.05037E+01 0.00000E+00
 -1      3353 1.28355E+01 3.65731E+01 0.00000E+00
 -1      3354 4.75335E+01 1.25689E+01 0.00000E+00
 -1      3355 1.37800E+02 1.14467E+01 0.00000E+00
 -1      3356 7.31755E+01 2.61042E+01 0.00000E+00
 -1      3357 1.38309E+02 1.98625E+01 0.00000E+00
 -1      3358 1.38309E+02 1.83875E+01 0.00000E+00
 -1      3359 7.72415E+01 1.20639E+01 0.00000E+00
 -1      3360 1.69669E+01 1.03515E+01 0.00000E+00
 -1      3361 1.54669E+01 1.03515E+01 0.00000E+00
 -1      3362 1.50806E+01 1.13509E+01 0.00000E+00
 -1      3363 1.77169E+01 1.16505E+01 0.00000E+00
 -1      3364 1.39662E+02 1.30992E+01 0.00000E+00
 -1      3365 1.38309E+02 2.28062E+01 0.00000E+00
 -1      3366 1.38309E+02 2.13312E+01 0.00000E+00
 -1      3367 1.37010E+02 2.05938E+01 0.00000E+00
 -1      3368 1.37010E+02 2.35313E+01 0.00000E+00
 -1      3369 2.42850E+01 1.05013E+01 0.00000E+00
 -1      3370 2.35350E+01 1.18003E+01 0.00000E+00
 -1      3371 2.57850E+01 1.05013E+01 0.00000E+00
 -1      3372 4.83626E+01 2.39644E+01 0.00000E+00
 -1      3373 1.37758E+02 3.64912E+01 0.00000E+00
 -1      3374 1.38123E+02 3.54142E+01 0.00000E+00
 -1      3375 1.36824E+02 3.46768E+01 0.00000E+00
 -1      3376 1.36451E+02 3.63802E+01 0.00000E+00
 -1      3377 4.65794E+01 1.53145E+01 0.00000E+00
 -1      3378 7.60726E+01 1.42195E+01 0.00000E+00
 -1      3379 1.38309E+02 1.69250E+01 0.00000E+00
 -1      3380 1.38309E+02 1.54625E+01 0.00000E+00
 -1      3381 1.37010E+02 1.76625E+01 0.00000E+00
 -1      3382 7.03149E+01 2.97481E+01 0.00000E+00
 -1      3383 6.91707E+01 2.94111E+01 0.00000E+00
 -1      3384 6.85857E+01 3.02752E+01 0.00000E+00
 -1      3385 6.28196E+01 3.20183E+01 0.00000E+00
 -1      3386 1.12065E+01 3.12931E+01 0.00000E+00
 -1      3387 1.20210E+01 3.17300E+01 0.00000E+00
 -1      3388 1.12065E+01 2.98244E+01 0.00000E+00
 -1      3389 7.29905E+01 9.28324E+00 0.00000E+00
 -1      3390 6.58627E+01 3.06262E+01 0.00000E+00
 -1      3391 6.52838E+01 3.14860E+01 0.00000E+00
 -1      3392 6.68625E+01 3.07981E+01 0.00000E+00
 -1      3393 1.16910E+01 1.83469E+01 0.00000E+00
 -1      3394 1.16910E+01 1.98156E+01 0.00000E+00
 -1      3395 1.29900E+01 2.05531E+01 0.00000E+00
 -1      3396 1.29900E+01 1.76094E+01 0.00000E+00
 -1      3397 5.22766E+01 2.90747E+01 0.00000E+00
 -1      3398 4.55180E+01 1.57776E+01 0.00000E+00
 -1      3399 4.57995E+01 1.44584E+01 0.00000E+00
 -1      3400 2.04000E+01 3.57110E+01 0.00000E+00
 -1      3401 2.19000E+01 3.57110E+01 0.00000E+00
 -1      3402 2.34000E+01 3.57110E+01 0.00000E+00
 -1      3403 2.49000E+01 3.57110E+01 0.00000E+00
 -1      3404 2.26500E+01 3.44120E+01 0.00000E+00
 -1      3405 2.64000E+01 3.57110E+01 0.00000E+00
 -1      3406 2.79000E+01 3.57110E+01 0.00000E+00
 -1      3407 2.56500E+01 3.44120E+01 0.00000E+00
 -1      3408 2.94000E+01 3.57110E+01 0.00000E+00
 -1      3409 3.09000E+01 3.57110E+01 0.00000E+00
 -1      3410 2.86500E+01 3.44120E+01 0.00000E+00
 -1      3411 3.24000E+01 3.57110E+01 0.00000E+00
 -1      3412 3.39000E+01 3.57110E+01 0.00000E+00
 -1      3413 3.16500E+01 3.44120E+01 0.00000E+00
 -1      3414 3.54000E+01 3.57110E+01 0.00000E+00
 -1      3415 3.69000E+01 3.57110E+01 0.00000E+00
 -1      3416 3.46500E+01 3.44120E+01 0.00000E+00
 -1      3417 3.84000E+01 3.57110E+01 0.00000E+00
 -1      3418 3.99000E+01 3.57110E+01 0.00000E+00
 -1      3419 3.76500E+01 3.44120E+01 0.00000E+00
 -1      3420 4.14000E+01 3.57110E+01 0.00000E+00
 -1      3421 4.29000E+01 3.57110E+01 0.00000E+00
 -1      3422 4.06500E+01 3.44120E+01 0.00000E+00
 -1      3423 4.44000E+01 3.57110E+01 0.00000E+00
 -1      3424 4.59000E+01 3.57110E+01 0.00000E+00
 -1      3425 4.36500E+01 3.44120E+01 0.00000E+00
 -1      3426 4.74000E+01 3.57110E+01 0.00000E+00
 -1      3427 4.89000E+01 3.57110E+01 0.00000E+00
 -1      3428 4.66500E+01 3.44120E+01 0.00000E+00
 -1      3429 5.04000E+01 3.57110E+01 0.00000E+00
 -1      3430 5.19000E+01 3.57110E+01 0.00000E+00
 -1      3431 4.96500E+01 3.44120E+01 0.00000E+00
 -1      3432 5.34000E+01 3.57110E+01 0.00000E+00
 -1      3433 5.49000E+01 3.57110E+01 0.00000E+00
 -1      3434 5.26500E+01 3.44120E+01 0.00000E+00
 -1      3435 5.61628E+01 3.51975E+01 0.00000E+00
 -1      3436 5.76628E+01 3.51975E+01 0.00000E+00
 -1      3437 6.00027E+01 3.48663E+01 0.00000E+00
 -1      3438 6.15027E+01 3.48663E+01 0.00000E+00
 -1      3439 6.54000E+01 3.57110E+01 0.00000E+00
 -1      3440 6.69000E+01 3.57110E+01 0.00000E+00
 -1      3441 6.84000E+01 3.57110E+01 0.00000E+00
 -1      3442 6.99000E+01 3.57110E+01 0.00000E+00
 -1      3443 6.76500E+01 3.44120E+01 0.00000E+00
 -1      3444 7.14000E+01 3.57110E+01 0.00000E+00
 -1      3445 7.29000E+01 3.57110E+01 0.00000E+00
 -1      3446 7.06500E+01 3.44120E+01 0.00000E+00
 -1      3447 7.44000E+01 3.57110E+01 0.00000E+00
 -1      3448 7.59000E+01 3.57110E+01 0.00000E+00
 -1      3449 7.36500E+01 3.44120E+01 0.00000E+00
 -1      3450 7.74000E+01 3.57110E+01 0.00000E+00
 -1      3451 7.89000E+01 3.57110E+01 0.00000E+00
 -1      3452 7.66500E+01 3.44120E+01 0.00000E+00
 -1      3453 8.04000E+01 3.57110E+01 0.00000E+00
 -1      3454 8.19000E+01 3.57110E+01 0.00000E+00
 -1      3455 7.96500E+01 3.44120E+01 0.00000E+00
 -1      3456 8.34000E+01 3.57110E+01 0.00000E+00
 -1      3457 8.49000E+01 3.57110E+01 0.00000E+00
 -1      3458 8.26500E+01 3.44120E+01 0.00000E+00
 -1      3459 8.64000E+01 3.57110E+01 0.00000E+00
 -1      3460 8.79000E+01 3.57110E+01 0.00000E+00
 -1      3461 8.56500E+01 3.44120E+01 0.00000E+00
 -1      3462 8.94000E+01 3.57110E+01 0.00000E+00
 -1      3463 9.09000E+01 3.57110E+01 0.00000E+00
 -1      3464 8.86500E+01 3.44120E+01 0.00000E+00
 -1      3465 9.24000E+01 3.57110E+01 0.00000E+00
 -1      3466 9.39000E+01 3.57110E+01 0.00000E+00
 -1      3467 9.16500E+01 3.44120E+01 0.00000E+00
 -1      3468 9.54000E+01 3.57110E+01 0.00000E+00
 -1      3469 9.69000E+01 3.57110E+01 0.00000E+00
 -1      3470 9.46500E+01 3.44120E+01 0.00000E+00
 -1      3471 9.84000E+01 3.57110E+01 0.00000E+00
 -1      3472 9.99000E+01 3.57110E+01 0.00000E+00
 -1      3473 9.76500E+01 3.44120E+01 0.00000E+00
 -1      3474 1.01400E+02 3.57110E+01 0.00000E+00
 -1      3475 1.02900E+02 3.57110E+01 0.00000E+00
 -1      3476 1.00650E+02 3.44120E+01 0.00000E+00
 -1      3477 1.04400E+02 3.57110E+01 0.00000E+00
 -1      3478 1.05900E+02 3.57110E+01 0.00000E+00
 -1      3479 1.03650E+02 3.44120E+01 0.00000E+00
 -1      3480 1.07400E+02 3.57110E+01 0.00000E+00
 -1      3481 1.08900E+02 3.57110E+01 0.00000E+00
 -1      3482 1.06650E+02 3.44120E+01 0.00000E+00
 -1      3483 1.10400E+02 3.57110E+01 0.00000E+00
 -1      3484 1.11900E+02 3.57110E+01 0.00000E+00
 -1      3485 1.09650E+02 3.44120E+01 0.00000E+00
 -1      3486 1.13400E+02 3.57110E+01 0.00000E+00
 -1      3487 1.14900E+02 3.57110E+01 0.00000E+00
 -1      3488 1.12650E+02 3.44120E+01 0.00000E+00
 -1      3489 1.16400E+02 3.57110E+01 0.00000E+00
 -1      3490 1.17900E+02 3.57110E+01 0.00000E+00
 -1      3491 1.15650E+02 3.44120E+01 0.00000E+00
 -1      3492 1.19400E+02 3.57110E+01 0.00000E+00
 -1      3493 1.20900E+02 3.57110E+01 0.00000E+00
 -1      3494 1.18650E+02 3.44120E+01 0.00000E+00
 -1      3495 1.22400E+02 3.57110E+01 0.00000E+00
 -1      3496 1.23900E+02 3.57110E+01 0.00000E+00
 -1      3497 1.21650E+02 3.44120E+01 0.00000E+00
 -1      3498 1.25400E+02 3.57110E+01 0.00000E+00
 -1      3499 1.26900E+02 3.57110E+01 0.00000E+00
 -1      3500 1.24650E+02 3.44120E+01 0.00000E+00
 -1      3501 1.28400E+02 3.57110E+01 0.00000E+00
 -1      3502 1.29900E+02 3.57110E+01 0.00000E+00
 -1      3503 1.27650E+02 3.44120E+01 0.00000E+00
 -1      3504 1.31400E+02 3.57110E+01 0.00000E+00
 -1      3505 1.32900E+02 3.57110E+01 0.00000E+00
 -1      3506 1.30650E+02 3.44120E+01 0.00000E+00
 -1      3507 3.32850E+01 1.30992E+01 0.00000E+00
 -1      3508 3.17850E+01 1.30992E+01 0.00000E+00
 -1      3509 4.22850E+01 1.30992E+01 0.00000E+00
 -1      3510 4.07850E+01 1.30992E+01 0.00000E+00
 -1      3511 9.31350E+01 1.27191E+01 0.00000E+00
 -1      3512 9.16350E+01 1.27191E+01 0.00000E+00
 -1      3513 1.02135E+02 1.27191E+01 0.00000E+00
 -1      3514 1.00635E+02 1.27191E+01 0.00000E+00
 -1      3515 1.05135E+02 1.27191E+01 0.00000E+00
 -1      3516 1.03635E+02 1.27191E+01 0.00000E+00
 -1      3517 1.02885E+02 1.40181E+01 0.00000E+00
 -1      3518 1.08135E+02 1.27191E+01 0.00000E+00
 -1      3519 1.06635E+02 1.27191E+01 0.00000E+00
 -1      3520 1.05885E+02 1.40181E+01 0.00000E+00
 -1      3521 1.11135E+02 1.27191E+01 0.00000E+00
 -1      3522 1.09635E+02 1.27191E+01 0.00000E+00
 -1      3523 1.08885E+02 1.40181E+01 0.00000E+00
 -1      3524 1.14135E+02 1.27191E+01 0.00000E+00
 -1      3525 1.12635E+02 1.27191E+01 0.00000E+00
 -1      3526 1.11885E+02 1.40181E+01 0.00000E+00
 -1      3527 1.17135E+02 1.27191E+01 0.00000E+00
 -1      3528 1.15635E+02 1.27191E+01 0.00000E+00
 -1      3529 1.14885E+02 1.40181E+01 0.00000E+00
 -1      3530 1.20135E+02 1.27191E+01 0.00000E+00
 -1      3531 1.18635E+02 1.27191E+01 0.00000E+00
 -1      3532 1.17885E+02 1.40181E+01 0.00000E+00
 -1      3533 1.23135E+02 1.27191E+01 0.00000E+00
 -1      3534 1.21635E+02 1.27191E+01 0.00000E+00
 -1      3535 1.20885E+02 1.40181E+01 0.00000E+00
 -1      3536 1.26135E+02 1.27191E+01 0.00000E+00
 -1      3537 1.24635E+02 1.27191E+01 0.00000E+00
 -1      3538 1.23885E+02 1.40181E+01 0.00000E+00
 -1      3539 1.29135E+02 1.27191E+01 0.00000E+00
 -1      3540 1.27635E+02 1.27191E+01 0.00000E+00
 -1      3541 1.26885E+02 1.40181E+01 0.00000E+00
 -1      3542 1.32135E+02 1.27191E+01 0.00000E+00
 -1      3543 1.30635E+02 1.27191E+01 0.00000E+00
 -1      3544 1.29885E+02 1.40181E+01 0.00000E+00
 -1      3545 1.35135E+02 1.27191E+01 0.00000E+00
 -1      3546 1.33635E+02 1.27191E+01 0.00000E+00
 -1      3547 1.32885E+02 1.40181E+01 0.00000E+00
 -1      3548 7.45920E+01 2.60583E+01 0.00000E+00
 -1      3549 7.38072E+01 2.73729E+01 0.00000E+00
 -1      3550 8.09850E+01 1.27191E+01 0.00000E+00
 -1      3551 7.94850E+01 1.27191E+01 0.00000E+00
 -1      3552 7.85256E+01 1.31474E+01 0.00000E+00
 -1      3553 7.70321E+01 1.37912E+01 0.00000E+00
 -1      3554 7.73567E+01 1.53029E+01 0.00000E+00
 -1      3555 7.92756E+01 1.44464E+01 0.00000E+00
 -1      3556 1.44000E+01 3.57110E+01 0.00000E+00
 -1      3557 1.59000E+01 3.57110E+01 0.00000E+00
 -1      3558 4.62407E+01 1.27334E+01 0.00000E+00
 -1      3559 1.37747E+02 1.30725E+01 0.00000E+00
 -1      3560 9.01350E+01 1.27191E+01 0.00000E+00
 -1      3561 8.86350E+01 1.27191E+01 0.00000E+00
 -1      3562 9.08850E+01 1.40181E+01 0.00000E+00
 -1      3563 9.91350E+01 1.27191E+01 0.00000E+00
 -1      3564 9.76350E+01 1.27191E+01 0.00000E+00
 -1      3565 9.98850E+01 1.40181E+01 0.00000E+00
 -1      3566 7.28540E+01 2.86358E+01 0.00000E+00
 -1      3567 7.21087E+01 2.93683E+01 0.00000E+00
 -1      3568 1.28033E+01 3.49708E+01 0.00000E+00
 -1      3569 1.36178E+01 3.54077E+01 0.00000E+00
 -1      3570 1.43678E+01 3.41087E+01 0.00000E+00
 -1      3571 1.28033E+01 3.35021E+01 0.00000E+00
 -1      3572 1.14487E+01 2.70341E+01 0.00000E+00
 -1      3573 1.14487E+01 2.85028E+01 0.00000E+00
 -1      3574 1.22633E+01 2.89397E+01 0.00000E+00
 -1      3575 1.27478E+01 2.62966E+01 0.00000E+00
 -1      3576 4.76261E+01 2.49016E+01 0.00000E+00
 -1      3577 4.72724E+01 2.34826E+01 0.00000E+00
 -1      3578 7.74268E+01 1.67424E+01 0.00000E+00
 -1      3579 7.71384E+01 1.83414E+01 0.00000E+00
 -1      3580 9.61350E+01 1.27191E+01 0.00000E+00
 -1      3581 9.46350E+01 1.27191E+01 0.00000E+00
 -1      3582 9.38850E+01 1.40181E+01 0.00000E+00
 -1      3583 9.68850E+01 1.40181E+01 0.00000E+00
 -1      3584 7.54624E+01 2.30607E+01 0.00000E+00
 -1      3585 7.50621E+01 2.43938E+01 0.00000E+00
 -1      3586 1.46944E+01 1.23503E+01 0.00000E+00
 -1      3587 1.43081E+01 1.33498E+01 0.00000E+00
 -1      3588 1.60125E+01 1.25001E+01 0.00000E+00
 -1      3589 5.43931E+01 3.16596E+01 0.00000E+00
 -1      3590 5.34230E+01 3.10909E+01 0.00000E+00
 -1      3591 5.22007E+01 3.03157E+01 0.00000E+00
 -1      3592 5.09784E+01 2.95405E+01 0.00000E+00
 -1      3593 5.21249E+01 3.15567E+01 0.00000E+00
 -1      3594 1.35711E+02 2.72125E+01 0.00000E+00
 -1      3595 1.35711E+02 2.57375E+01 0.00000E+00
 -1      3596 4.52403E+01 1.85186E+01 0.00000E+00
 -1      3597 4.52620E+01 1.72503E+01 0.00000E+00
 -1      3598 1.74000E+01 3.57110E+01 0.00000E+00
 -1      3599 1.89000E+01 3.57110E+01 0.00000E+00
 -1      3600 1.66500E+01 3.44120E+01 0.00000E+00
 -1      3601 1.36447E+02 1.38100E+01 0.00000E+00
 -1      3602 7.76155E+01 1.94175E+01 0.00000E+00
 -1      3603 7.80927E+01 2.04937E+01 0.00000E+00
 -1      3604 7.89335E+01 1.88297E+01 0.00000E+00
 -1      3605 4.96740E+01 2.92868E+01 0.00000E+00
 -1      3606 4.83695E+01 2.90331E+01 0.00000E+00
 -1      3607 4.95981E+01 3.05278E+01 0.00000E+00
 -1      3608 2.12850E+01 1.30992E+01 0.00000E+00
 -1      3609 1.97850E+01 1.30992E+01 0.00000E+00
 -1      3610 5.87642E+01 3.47897E+01 0.00000E+00
 -1      3611 1.43081E+01 1.48185E+01 0.00000E+00
 -1      3612 5.54128E+01 3.38985E+01 0.00000E+00
 -1      3613 6.25353E+01 3.37184E+01 0.00000E+00
 -1      3614 6.26826E+01 3.58621E+01 0.00000E+00
 -1      3615 6.41826E+01 3.58621E+01 0.00000E+00
 -1      3616 3.10350E+01 1.43982E+01 0.00000E+00
 -1      3617 3.02850E+01 1.30992E+01 0.00000E+00
 -1      3618 2.87850E+01 1.30992E+01 0.00000E+00
 -1      3619 3.47850E+01 1.30992E+01 0.00000E+00
 -1      3620 3.40350E+01 1.43982E+01 0.00000E+00
 -1      3621 3.62850E+01 1.30992E+01 0.00000E+00
 -1      3622 1.34022E+02 3.59901E+01 0.00000E+00
 -1      3623 1.35329E+02 3.61011E+01 0.00000E+00
 -1      3624 1.35515E+02 3.52494E+01 0.00000E+00
 -1      3625 1.33272E+02 3.46911E+01 0.00000E+00
 -1      3626 4.00350E+01 1.43982E+01 0.00000E+00
 -1      3627 3.92850E+01 1.30992E+01 0.00000E+00
 -1      3628 3.77850E+01 1.30992E+01 0.00000E+00
 -1      3629 4.51794E+01 1.31965E+01 0.00000E+00
 -1      3630 4.38866E+01 1.33609E+01 0.00000E+00
 -1      3631 7.56937E+01 2.56625E+01 0.00000E+00
 -1      3632 4.61974E+01 2.27541E+01 0.00000E+00
 -1      3633 8.40600E+01 1.27191E+01 0.00000E+00
 -1      3634 8.25225E+01 1.27191E+01 0.00000E+00
 -1      3635 8.17725E+01 1.40181E+01 0.00000E+00
 -1      3636 7.27323E+01 3.07168E+01 0.00000E+00
 -1      3637 7.15236E+01 3.02324E+01 0.00000E+00
 -1      3638 7.09386E+01 3.10966E+01 0.00000E+00
 -1      3639 7.42705E+01 2.85898E+01 0.00000E+00
 -1      3640 7.83862E+01 1.63141E+01 0.00000E+00
 -1      3641 2.65350E+01 1.18003E+01 0.00000E+00
 -1      3642 4.50426E+01 1.94776E+01 0.00000E+00
 -1      3643 4.40285E+01 1.88259E+01 0.00000E+00
 -1      3644 4.48449E+01 2.04366E+01 0.00000E+00
 -1      3645 1.35711E+02 2.42687E+01 0.00000E+00
 -1      3646 1.35711E+02 2.28000E+01 0.00000E+00
 -1      3647 1.34412E+02 2.50063E+01 0.00000E+00
 -1      3648 2.42850E+01 1.30992E+01 0.00000E+00
 -1      3649 2.27850E+01 1.30992E+01 0.00000E+00
 -1      3650 2.20350E+01 1.43982E+01 0.00000E+00
 -1      3651 1.28033E+01 3.20333E+01 0.00000E+00
 -1      3652 1.35855E+01 3.23366E+01 0.00000E+00
 -1      3653 1.28033E+01 3.05646E+01 0.00000E+00
 -1      3654 7.64693E+01 2.25397E+01 0.00000E+00
 -1      3655 1.35711E+02 1.83937E+01 0.00000E+00
 -1      3656 1.35711E+02 1.69312E+01 0.00000E+00
 -1      3657 8.71162E+01 1.27191E+01 0.00000E+00
 -1      3658 8.55788E+01 1.27191E+01 0.00000E+00
 -1      3659 8.48288E+01 1.40181E+01 0.00000E+00
 -1      3660 8.78662E+01 1.40181E+01 0.00000E+00
 -1      3661 4.31366E+01 1.46599E+01 0.00000E+00
 -1      3662 1.35702E+02 3.43976E+01 0.00000E+00
 -1      3663 6.49326E+01 3.45631E+01 0.00000E+00
 -1      3664 5.50114E+01 3.28584E+01 0.00000E+00
 -1      3665 4.74906E+01 2.61060E+01 0.00000E+00
 -1      3666 4.64003E+01 2.56242E+01 0.00000E+00
 -1      3667 4.73551E+01 2.73103E+01 0.00000E+00
 -1      3668 1.35711E+02 2.13312E+01 0.00000E+00
 -1      3669 1.35711E+02 1.98625E+01 0.00000E+00
 -1      3670 1.34412E+02 1.91313E+01 0.00000E+00
 -1      3671 6.39996E+01 3.30141E+01 0.00000E+00
 -1      3672 1.42890E+01 1.98172E+01 0.00000E+00
 -1      3673 1.42890E+01 2.12891E+01 0.00000E+00
 -1      3674 1.42890E+01 2.27641E+01 0.00000E+00
 -1      3675 1.42890E+01 2.42391E+01 0.00000E+00
 -1      3676 1.55880E+01 2.20281E+01 0.00000E+00
 -1      3677 6.62168E+01 3.30350E+01 0.00000E+00
 -1      3678 6.52169E+01 3.28630E+01 0.00000E+00
 -1      3679 4.44822E+01 1.63942E+01 0.00000E+00
 -1      3680 1.35711E+02 2.86812E+01 0.00000E+00
 -1      3681 1.34412E+02 2.79438E+01 0.00000E+00
 -1      3682 1.35711E+02 3.01500E+01 0.00000E+00
 -1      3683 1.96500E+01 3.44120E+01 0.00000E+00
 -1      3684 1.34487E+02 3.38100E+01 0.00000E+00
 -1      3685 1.35795E+02 3.32374E+01 0.00000E+00
 -1      3686 1.35795E+02 3.17686E+01 0.00000E+00
 -1      3687 1.33365E+02 3.35309E+01 0.00000E+00
 -1      3688 2.49000E+01 3.31130E+01 0.00000E+00
 -1      3689 2.64000E+01 3.31130E+01 0.00000E+00
 -1      3690 2.79000E+01 3.31130E+01 0.00000E+00
 -1      3691 2.94000E+01 3.31130E+01 0.00000E+00
 -1      3692 2.71500E+01 3.18140E+01 0.00000E+00
 -1      3693 3.09000E+01 3.31130E+01 0.00000E+00
 -1      3694 3.24000E+01 3.31130E+01 0.00000E+00
 -1      3695 3.01500E+01 3.18140E+01 0.00000E+00
 -1      3696 3.39000E+01 3.31130E+01 0.00000E+00
 -1      3697 3.54000E+01 3.31130E+01 0.00000E+00
 -1      3698 3.31500E+01 3.18140E+01 0.00000E+00
 -1      3699 3.69000E+01 3.31130E+01 0.00000E+00
 -1      3700 3.84000E+01 3.31130E+01 0.00000E+00
 -1      3701 3.61500E+01 3.18140E+01 0.00000E+00
 -1      3702 3.99000E+01 3.31130E+01 0.00000E+00
 -1      3703 4.14000E+01 3.31130E+01 0.00000E+00
 -1      3704 3.91500E+01 3.18140E+01 0.00000E+00
 -1      3705 4.29000E+01 3.31130E+01 0.00000E+00
 -1      3706 4.44000E+01 3.31130E+01 0.00000E+00
 -1      3707 4.21500E+01 3.18140E+01 0.00000E+00
 -1      3708 4.67218E+01 3.23431E+01 0.00000E+00
 -1      3709 4.82218E+01 3.23431E+01 0.00000E+00
 -1      3710 4.97218E+01 3.23431E+01 0.00000E+00
 -1      3711 5.37486E+01 3.33719E+01 0.00000E+00
 -1      3712 7.06487E+01 3.29965E+01 0.00000E+00
 -1      3713 7.21487E+01 3.29965E+01 0.00000E+00
 -1      3714 7.36487E+01 3.29965E+01 0.00000E+00
 -1      3715 7.59000E+01 3.31130E+01 0.00000E+00
 -1      3716 7.74000E+01 3.31130E+01 0.00000E+00
 -1      3717 7.89000E+01 3.31130E+01 0.00000E+00
 -1      3718 8.04000E+01 3.31130E+01 0.00000E+00
 -1      3719 7.81500E+01 3.18140E+01 0.00000E+00
 -1      3720 8.19000E+01 3.31130E+01 0.00000E+00
 -1      3721 8.34000E+01 3.31130E+01 0.00000E+00
 -1      3722 8.11500E+01 3.18140E+01 0.00000E+00
 -1      3723 8.49000E+01 3.31130E+01 0.00000E+00
 -1      3724 8.64000E+01 3.31130E+01 0.00000E+00
 -1      3725 8.41500E+01 3.18140E+01 0.00000E+00
 -1      3726 8.79000E+01 3.31130E+01 0.00000E+00
 -1      3727 8.94000E+01 3.31130E+01 0.00000E+00
 -1      3728 8.71500E+01 3.18140E+01 0.00000E+00
 -1      3729 9.09000E+01 3.31130E+01 0.00000E+00
 -1      3730 9.24000E+01 3.31130E+01 0.00000E+00
 -1      3731 9.01500E+01 3.18140E+01 0.00000E+00
 -1      3732 9.39000E+01 3.31130E+01 0.00000E+00
 -1      3733 9.54000E+01 3.31130E+01 0.00000E+00
 -1      3734 9.31500E+01 3.18140E+01 0.00000E+00
 -1      3735 9.69000E+01 3.31130E+01 0.00000E+00
 -1      3736 9.84000E+01 3.31130E+01 0.00000E+00
 -1      3737 9.61500E+01 3.18140E+01 0.00000E+00
 -1      3738 9.99000E+01 3.31130E+01 0.00000E+00
 -1      3739 1.01400E+02 3.31130E+01 0.00000E+00
 -1      3740 9.91500E+01 3.18140E+01 0.00000E+00
 -1      3741 1.02900E+02 3.31130E+01 0.00000E+00
 -1      3742 1.04400E+02 3.31130E+01 0.00000E+00
 -1      3743 1.02150E+02 3.18140E+01 0.00000E+00
 -1      3744 1.05900E+02 3.31130E+01 0.00000E+00
 -1      3745 1.07400E+02 3.31130E+01 0.00000E+00
 -1      3746 1.05150E+02 3.18140E+01 0.00000E+00
 -1      3747 1.08900E+02 3.31130E+01 0.00000E+00
 -1      3748 1.10400E+02 3.31130E+01 0.00000E+00
 -1      3749 1.08150E+02 3.18140E+01 0.00000E+00
 -1      3750 1.11900E+02 3.31130E+01 0.00000E+00
 -1      3751 1.13400E+02 3.31130E+01 0.00000E+00
 -1      3752 1.11150E+02 3.18140E+01 0.00000E+00
 -1      3753 1.14900E+02 3.31130E+01 0.00000E+00
 -1      3754 1.16400E+02 3.31130E+01 0.00000E+00
 -1      3755 1.14150E+02 3.18140E+01 0.00000E+00
 -1      3756 1.17900E+02 3.31130E+01 0.00000E+00
 -1      3757 1.19400E+02 3.31130E+01 0.00000E+00
 -1      3758 1.17150E+02 3.18140E+01 0.00000E+00
 -1      3759 1.20900E+02 3.31130E+01 0.00000E+00
 -1      3760 1.22400E+02 3.31130E+01 0.00000E+00
 -1      3761 1.20150E+02 3.18140E+01 0.00000E+00
 -1      3762 1.23900E+02 3.31130E+01 0.00000E+00
 -1      3763 1.25400E+02 3.31130E+01 0.00000E+00
 -1      3764 1.23150E+02 3.18140E+01 0.00000E+00
 -1      3765 1.26900E+02 3.31130E+01 0.00000E+00
 -1      3766 1.28400E+02 3.31130E+01 0.00000E+00
 -1      3767 1.26150E+02 3.18140E+01 0.00000E+00
 -1      3768 1.29900E+02 3.31130E+01 0.00000E+00
 -1      3769 1.31400E+02 3.31130E+01 0.00000E+00
 -1      3770 1.29150E+02 3.18140E+01 0.00000E+00
 -1      3771 7.70766E+01 2.51544E+01 0.00000E+00
 -1      3772 7.66065E+01 2.68189E+01 0.00000E+00
 -1      3773 1.03635E+02 1.53171E+01 0.00000E+00
 -1      3774 1.02135E+02 1.53171E+01 0.00000E+00
 -1      3775 1.12635E+02 1.53171E+01 0.00000E+00
 -1      3776 1.11135E+02 1.53171E+01 0.00000E+00
 -1      3777 1.15635E+02 1.53171E+01 0.00000E+00
 -1      3778 1.14135E+02 1.53171E+01 0.00000E+00
 -1      3779 1.13385E+02 1.66161E+01 0.00000E+00
 -1      3780 1.18635E+02 1.53171E+01 0.00000E+00
 -1      3781 1.17135E+02 1.53171E+01 0.00000E+00
 -1      3782 1.16385E+02 1.66161E+01 0.00000E+00
 -1      3783 1.21635E+02 1.53171E+01 0.00000E+00
 -1      3784 1.20135E+02 1.53171E+01 0.00000E+00
 -1      3785 1.19385E+02 1.66161E+01 0.00000E+00
 -1      3786 1.24635E+02 1.53171E+01 0.00000E+00
 -1      3787 1.23135E+02 1.53171E+01 0.00000E+00
 -1      3788 1.22385E+02 1.66161E+01 0.00000E+00
 -1      3789 1.27635E+02 1.53171E+01 0.00000E+00
 -1      3790 1.26135E+02 1.53171E+01 0.00000E+00
 -1      3791 1.25385E+02 1.66161E+01 0.00000E+00
 -1      3792 1.30635E+02 1.53171E+01 0.00000E+00
 -1      3793 1.29135E+02 1.53171E+01 0.00000E+00
 -1      3794 1.28385E+02 1.66161E+01 0.00000E+00
 -1      3795 1.35697E+02 1.51090E+01 0.00000E+00
 -1      3796 4.53620E+01 2.37911E+01 0.00000E+00
 -1      3797 4.50236E+01 2.21253E+01 0.00000E+00
 -1      3798 1.59000E+01 3.31130E+01 0.00000E+00
 -1      3799 1.74000E+01 3.31130E+01 0.00000E+00
 -1      3800 1.85578E+01 1.28746E+01 0.00000E+00
 -1      3801 1.72397E+01 1.27248E+01 0.00000E+00
 -1      3802 1.68534E+01 1.37242E+01 0.00000E+00
 -1      3803 1.93078E+01 1.41736E+01 0.00000E+00
 -1      3804 8.03051E+01 1.54575E+01 0.00000E+00
 -1      3805 7.93457E+01 1.58858E+01 0.00000E+00
 -1      3806 7.94158E+01 1.73253E+01 0.00000E+00
 -1      3807 1.09635E+02 1.53171E+01 0.00000E+00
 -1      3808 1.08135E+02 1.53171E+01 0.00000E+00
 -1      3809 1.10385E+02 1.66161E+01 0.00000E+00
 -1      3810 1.06635E+02 1.53171E+01 0.00000E+00
 -1      3811 1.05135E+02 1.53171E+01 0.00000E+00
 -1      3812 1.07385E+02 1.66161E+01 0.00000E+00
 -1      3813 1.58860E+01 1.50773E+01 0.00000E+00
 -1      3814 1.45679E+01 1.63963E+01 0.00000E+00
 -1      3815 9.16350E+01 1.53171E+01 0.00000E+00
 -1      3816 9.01350E+01 1.53171E+01 0.00000E+00
 -1      3817 1.00635E+02 1.53171E+01 0.00000E+00
 -1      3818 9.91350E+01 1.53171E+01 0.00000E+00
 -1      3819 1.01385E+02 1.66161E+01 0.00000E+00
 -1      3820 6.77168E+01 3.30350E+01 0.00000E+00
 -1      3821 7.57839E+01 2.87410E+01 0.00000E+00
 -1      3822 7.48308E+01 3.00038E+01 0.00000E+00
 -1      3823 2.72850E+01 1.30992E+01 0.00000E+00
 -1      3824 2.57850E+01 1.30992E+01 0.00000E+00
 -1      3825 2.80350E+01 1.43982E+01 0.00000E+00
 -1      3826 4.28806E+01 1.61326E+01 0.00000E+00
 -1      3827 6.81413E+01 3.10343E+01 0.00000E+00
 -1      3828 6.75624E+01 3.18941E+01 0.00000E+00
 -1      3829 1.45679E+01 1.78681E+01 0.00000E+00
 -1      3830 2.19000E+01 3.31130E+01 0.00000E+00
 -1      3831 2.34000E+01 3.31130E+01 0.00000E+00
 -1      3832 2.41500E+01 3.18140E+01 0.00000E+00
 -1      3833 6.92856E+01 3.13713E+01 0.00000E+00
 -1      3834 1.58669E+01 1.86041E+01 0.00000E+00
 -1      3835 1.34398E+02 1.58403E+01 0.00000E+00
 -1      3836 1.89000E+01 3.31130E+01 0.00000E+00
 -1      3837 2.04000E+01 3.31130E+01 0.00000E+00
 -1      3838 2.11500E+01 3.18140E+01 0.00000E+00
 -1      3839 7.77872E+01 2.19519E+01 0.00000E+00
 -1      3840 7.74818E+01 2.34102E+01 0.00000E+00
 -1      3841 7.91052E+01 2.13641E+01 0.00000E+00
 -1      3842 5.22486E+01 3.33719E+01 0.00000E+00
 -1      3843 4.26773E+01 1.76795E+01 0.00000E+00
 -1      3844 4.13317E+01 1.59452E+01 0.00000E+00
 -1      3845 1.32898E+02 1.58403E+01 0.00000E+00
 -1      3846 1.32148E+02 1.71393E+01 0.00000E+00
 -1      3847 1.32615E+02 3.22319E+01 0.00000E+00
 -1      3848 4.24796E+01 1.86385E+01 0.00000E+00
 -1      3849 4.59718E+01 3.10441E+01 0.00000E+00
 -1      3850 3.98317E+01 1.59452E+01 0.00000E+00
 -1      3851 3.70350E+01 1.43982E+01 0.00000E+00
 -1      3852 3.17850E+01 1.56973E+01 0.00000E+00
 -1      3853 3.02850E+01 1.56973E+01 0.00000E+00
 -1      3854 7.43987E+01 3.16975E+01 0.00000E+00
 -1      3855 7.71668E+01 2.82329E+01 0.00000E+00
 -1      3856 7.83945E+01 2.45666E+01 0.00000E+00
 -1      3857 1.04385E+02 1.66161E+01 0.00000E+00
 -1      3858 3.47850E+01 1.56973E+01 0.00000E+00
 -1      3859 3.32850E+01 1.56973E+01 0.00000E+00
 -1      3860 3.25350E+01 1.69963E+01 0.00000E+00
 -1      3861 6.89956E+01 3.32712E+01 0.00000E+00
 -1      3862 7.98929E+01 1.84014E+01 0.00000E+00
 -1      3863 8.03700E+01 1.94776E+01 0.00000E+00
 -1      3864 8.08524E+01 1.79732E+01 0.00000E+00
 -1      3865 1.32148E+02 1.86080E+01 0.00000E+00
 -1      3866 1.29885E+02 1.80848E+01 0.00000E+00
 -1      3867 1.32148E+02 2.00768E+01 0.00000E+00
 -1      3868 4.52265E+01 2.49954E+01 0.00000E+00
 -1      3869 4.40527E+01 2.43666E+01 0.00000E+00
 -1      3870 4.50910E+01 2.61997E+01 0.00000E+00
 -1      3871 1.81500E+01 3.18140E+01 0.00000E+00
 -1      3872 4.40095E+01 2.14736E+01 0.00000E+00
 -1      3873 1.71132E+01 1.53020E+01 0.00000E+00
 -1      3874 1.33113E+02 2.57406E+01 0.00000E+00
 -1      3875 1.33113E+02 2.42719E+01 0.00000E+00
 -1      3876 9.31350E+01 1.53171E+01 0.00000E+00
 -1      3877 9.23850E+01 1.66161E+01 0.00000E+00
 -1      3878 9.46350E+01 1.53171E+01 0.00000E+00
 -1      3879 1.34412E+02 2.20688E+01 0.00000E+00
 -1      3880 2.50350E+01 1.43982E+01 0.00000E+00
 -1      3881 1.30455E+01 2.92430E+01 0.00000E+00
 -1      3882 1.38278E+01 2.95463E+01 0.00000E+00
 -1      3883 1.32878E+01 2.79214E+01 0.00000E+00
 -1      3884 8.86162E+01 1.53171E+01 0.00000E+00
 -1      3885 8.70975E+01 1.53171E+01 0.00000E+00
 -1      3886 8.93662E+01 1.66161E+01 0.00000E+00
 -1      3887 9.83850E+01 1.66161E+01 0.00000E+00
 -1      3888 9.76350E+01 1.53171E+01 0.00000E+00
 -1      3889 9.61350E+01 1.53171E+01 0.00000E+00
 -1      3890 1.43516E+01 3.25732E+01 0.00000E+00
 -1      3891 1.51339E+01 3.28765E+01 0.00000E+00
 -1      3892 1.58839E+01 3.15775E+01 0.00000E+00
 -1      3893 1.43516E+01 3.11044E+01 0.00000E+00
 -1      3894 2.27850E+01 1.56973E+01 0.00000E+00
 -1      3895 2.12850E+01 1.56973E+01 0.00000E+00
 -1      3896 8.18426E+01 1.54575E+01 0.00000E+00
 -1      3897 1.68870E+01 2.12906E+01 0.00000E+00
 -1      3898 1.68870E+01 2.27656E+01 0.00000E+00
 -1      3899 1.71395E+01 1.73218E+01 0.00000E+00
 -1      3900 1.68607E+01 1.92708E+01 0.00000E+00
 -1      3901 1.81597E+01 2.00083E+01 0.00000E+00
 -1      3902 1.81070E+01 1.59687E+01 0.00000E+00
 -1      3903 1.55788E+01 2.50013E+01 0.00000E+00
 -1      3904 1.42798E+01 2.57373E+01 0.00000E+00
 -1      3905 1.40376E+01 2.70588E+01 0.00000E+00
 -1      3906 5.10263E+01 3.25968E+01 0.00000E+00
 -1      3907 1.34496E+02 3.10311E+01 0.00000E+00
 -1      3908 1.33113E+02 2.86781E+01 0.00000E+00
 -1      3909 1.33113E+02 2.72094E+01 0.00000E+00
 -1      3910 1.31814E+02 2.64750E+01 0.00000E+00
 -1      3911 7.04943E+01 3.18557E+01 0.00000E+00
 -1      3912 1.93342E+01 1.61934E+01 0.00000E+00
 -1      3913 2.00842E+01 1.74924E+01 0.00000E+00
 -1      3914 1.20135E+02 1.79151E+01 0.00000E+00
 -1      3915 1.18635E+02 1.79151E+01 0.00000E+00
 -1      3916 2.64000E+01 3.05150E+01 0.00000E+00
 -1      3917 2.79000E+01 3.05150E+01 0.00000E+00
 -1      3918 2.94000E+01 3.05150E+01 0.00000E+00
 -1      3919 3.09000E+01 3.05150E+01 0.00000E+00
 -1      3920 2.86500E+01 2.92160E+01 0.00000E+00
 -1      3921 3.24000E+01 3.05150E+01 0.00000E+00
 -1      3922 3.39000E+01 3.05150E+01 0.00000E+00
 -1      3923 3.16500E+01 2.92160E+01 0.00000E+00
 -1      3924 3.54000E+01 3.05150E+01 0.00000E+00
 -1      3925 3.69000E+01 3.05150E+01 0.00000E+00
 -1      3926 3.46500E+01 2.92160E+01 0.00000E+00
 -1      3927 3.84000E+01 3.05150E+01 0.00000E+00
 -1      3928 3.99000E+01 3.05150E+01 0.00000E+00
 -1      3929 3.76500E+01 2.92160E+01 0.00000E+00
 -1      3930 4.14000E+01 3.05150E+01 0.00000E+00
 -1      3931 4.29000E+01 3.05150E+01 0.00000E+00
 -1      3932 4.06500E+01 2.92160E+01 0.00000E+00
 -1      3933 2.20613E+01 1.90161E+01 0.00000E+00
 -1      3934 2.01105E+01 1.95122E+01 0.00000E+00
 -1      3935 2.01368E+01 2.15320E+01 0.00000E+00
 -1      3936 2.95350E+01 1.69963E+01 0.00000E+00
 -1      3937 2.87850E+01 1.56973E+01 0.00000E+00
 -1      3938 2.72850E+01 1.56973E+01 0.00000E+00
 -1      3939 8.04000E+01 3.05150E+01 0.00000E+00
 -1      3940 8.19000E+01 3.05150E+01 0.00000E+00
 -1      3941 8.34000E+01 3.05150E+01 0.00000E+00
 -1      3942 8.49000E+01 3.05150E+01 0.00000E+00
 -1      3943 8.26500E+01 2.92160E+01 0.00000E+00
 -1      3944 8.64000E+01 3.05150E+01 0.00000E+00
 -1      3945 8.79000E+01 3.05150E+01 0.00000E+00
 -1      3946 8.56500E+01 2.92160E+01 0.00000E+00
 -1      3947 8.94000E+01 3.05150E+01 0.00000E+00
 -1      3948 9.09000E+01 3.05150E+01 0.00000E+00
 -1      3949 8.86500E+01 2.92160E+01 0.00000E+00
 -1      3950 9.24000E+01 3.05150E+01 0.00000E+00
 -1      3951 9.39000E+01 3.05150E+01 0.00000E+00
 -1      3952 9.16500E+01 2.92160E+01 0.00000E+00
 -1      3953 9.54000E+01 3.05150E+01 0.00000E+00
 -1      3954 9.69000E+01 3.05150E+01 0.00000E+00
 -1      3955 9.46500E+01 2.92160E+01 0.00000E+00
 -1      3956 9.84000E+01 3.05150E+01 0.00000E+00
 -1      3957 9.99000E+01 3.05150E+01 0.00000E+00
 -1      3958 9.76500E+01 2.92160E+01 0.00000E+00
 -1      3959 1.01400E+02 3.05150E+01 0.00000E+00
 -1      3960 1.02900E+02 3.05150E+01 0.00000E+00
 -1      3961 1.00650E+02 2.92160E+01 0.00000E+00
 -1      3962 1.04400E+02 3.05150E+01 0.00000E+00
 -1      3963 1.05900E+02 3.05150E+01 0.00000E+00
 -1      3964 1.03650E+02 2.92160E+01 0.00000E+00
 -1      3965 1.07400E+02 3.05150E+01 0.00000E+00
 -1      3966 1.08900E+02 3.05150E+01 0.00000E+00
 -1      3967 1.06650E+02 2.92160E+01 0.00000E+00
 -1      3968 1.10400E+02 3.05150E+01 0.00000E+00
 -1      3969 1.11900E+02 3.05150E+01 0.00000E+00
 -1      3970 1.09650E+02 2.92160E+01 0.00000E+00
 -1      3971 1.13400E+02 3.05150E+01 0.00000E+00
 -1      3972 1.14900E+02 3.05150E+01 0.00000E+00
 -1      3973 1.12650E+02 2.92160E+01 0.00000E+00
 -1      3974 1.16400E+02 3.05150E+01 0.00000E+00
 -1      3975 1.17900E+02 3.05150E+01 0.00000E+00
 -1      3976 1.15650E+02 2.92160E+01 0.00000E+00
 -1      3977 1.19400E+02 3.05150E+01 0.00000E+00
 -1      3978 1.20900E+02 3.05150E+01 0.00000E+00
 -1      3979 1.18650E+02 2.92160E+01 0.00000E+00
 -1      3980 1.22400E+02 3.05150E+01 0.00000E+00
 -1      3981 1.23900E+02 3.05150E+01 0.00000E+00
 -1      3982 1.21650E+02 2.92160E+01 0.00000E+00
 -1      3983 1.25400E+02 3.05150E+01 0.00000E+00
 -1      3984 1.26900E+02 3.05150E+01 0.00000E+00
 -1      3985 1.24650E+02 2.92160E+01 0.00000E+00
 -1      3986 1.28400E+02 3.05150E+01 0.00000E+00
 -1      3987 1.29900E+02 3.05150E+01 0.00000E+00
 -1      3988 1.27650E+02 2.92160E+01 0.00000E+00
 -1      3989 7.49837E+01 3.08334E+01 0.00000E+00
 -1      3990 1.14135E+02 1.79151E+01 0.00000E+00
 -1      3991 1.12635E+02 1.79151E+01 0.00000E+00
 -1      3992 1.23135E+02 1.79151E+01 0.00000E+00
 -1      3993 1.21635E+02 1.79151E+01 0.00000E+00
 -1      3994 1.20885E+02 1.92141E+01 0.00000E+00
 -1      3995 1.26135E+02 1.79151E+01 0.00000E+00
 -1      3996 1.24635E+02 1.79151E+01 0.00000E+00
 -1      3997 1.23885E+02 1.92141E+01 0.00000E+00
 -1      3998 1.28760E+02 1.79999E+01 0.00000E+00
 -1      3999 1.27260E+02 1.79999E+01 0.00000E+00
 -1      4000 1.26510E+02 1.92989E+01 0.00000E+00
 -1      4001 1.28760E+02 1.94687E+01 0.00000E+00
 -1      4002 2.04000E+01 3.05150E+01 0.00000E+00
 -1      4003 2.19000E+01 3.05150E+01 0.00000E+00
 -1      4004 1.32531E+02 3.06133E+01 0.00000E+00
 -1      4005 2.39232E+01 1.60577E+01 0.00000E+00
 -1      4006 2.31732E+01 1.73567E+01 0.00000E+00
 -1      4007 2.31995E+01 1.93765E+01 0.00000E+00
 -1      4008 2.54232E+01 1.60577E+01 0.00000E+00
 -1      4009 1.11135E+02 1.79151E+01 0.00000E+00
 -1      4010 1.09635E+02 1.79151E+01 0.00000E+00
 -1      4011 1.11885E+02 1.92141E+01 0.00000E+00
 -1      4012 1.08135E+02 1.79151E+01 0.00000E+00
 -1      4013 1.06635E+02 1.79151E+01 0.00000E+00
 -1      4014 1.08885E+02 1.92141E+01 0.00000E+00
 -1      4015 3.77850E+01 1.56973E+01 0.00000E+00
 -1      4016 3.62850E+01 1.56973E+01 0.00000E+00
 -1      4017 3.55350E+01 1.69963E+01 0.00000E+00
 -1      4018 1.17135E+02 1.79151E+01 0.00000E+00
 -1      4019 1.15635E+02 1.79151E+01 0.00000E+00
 -1      4020 1.14885E+02 1.92141E+01 0.00000E+00
 -1      4021 3.90817E+01 1.72442E+01 0.00000E+00
 -1      4022 7.98405E+01 2.39833E+01 0.00000E+00
 -1      4023 7.94353E+01 2.57275E+01 0.00000E+00
 -1      4024 8.55788E+01 1.53171E+01 0.00000E+00
 -1      4025 8.40600E+01 1.53171E+01 0.00000E+00
 -1      4026 8.63288E+01 1.66161E+01 0.00000E+00
 -1      4027 2.34000E+01 3.05150E+01 0.00000E+00
 -1      4028 2.49000E+01 3.05150E+01 0.00000E+00
 -1      4029 2.26500E+01 2.92160E+01 0.00000E+00
 -1      4030 8.25926E+01 1.67565E+01 0.00000E+00
 -1      4031 4.70350E+01 2.95744E+01 0.00000E+00
 -1      4032 4.71109E+01 2.83334E+01 0.00000E+00
 -1      4033 4.60206E+01 2.78516E+01 0.00000E+00
 -1      4034 4.47132E+01 3.03443E+01 0.00000E+00
 -1      4035 1.32631E+02 2.29087E+01 0.00000E+00
 -1      4036 1.32631E+02 2.14400E+01 0.00000E+00
 -1      4037 1.30367E+02 2.09167E+01 0.00000E+00
 -1      4038 1.31332E+02 2.36431E+01 0.00000E+00
 -1      4039 1.68778E+01 2.42638E+01 0.00000E+00
 -1      4040 1.68686E+01 2.57620E+01 0.00000E+00
 -1      4041 1.81768E+01 2.35263E+01 0.00000E+00
 -1      4042 1.05135E+02 1.79151E+01 0.00000E+00
 -1      4043 1.03635E+02 1.79151E+01 0.00000E+00
 -1      4044 1.05885E+02 1.92141E+01 0.00000E+00
 -1      4045 4.23294E+01 2.01851E+01 0.00000E+00
 -1      4046 4.09781E+01 1.90387E+01 0.00000E+00
 -1      4047 1.74000E+01 3.05150E+01 0.00000E+00
 -1      4048 1.89000E+01 3.05150E+01 0.00000E+00
 -1      4049 1.96500E+01 2.92160E+01 0.00000E+00
 -1      4050 4.25081E+01 2.18737E+01 0.00000E+00
 -1      4051 8.05073E+01 2.08967E+01 0.00000E+00
 -1      4052 8.02018E+01 2.23550E+01 0.00000E+00
 -1      4053 1.02135E+02 1.79151E+01 0.00000E+00
 -1      4054 1.00635E+02 1.79151E+01 0.00000E+00
 -1      4055 1.02885E+02 1.92141E+01 0.00000E+00
 -1      4056 4.39632E+01 2.90453E+01 0.00000E+00
 -1      4057 4.44050E+01 2.81341E+01 0.00000E+00
 -1      4058 4.46492E+01 2.71110E+01 0.00000E+00
 -1      4059 4.34754E+01 2.64822E+01 0.00000E+00
 -1      4060 4.25918E+01 2.83047E+01 0.00000E+00
 -1      4061 1.17885E+02 1.92141E+01 0.00000E+00
 -1      4062 2.20785E+01 2.25340E+01 0.00000E+00
 -1      4063 2.01277E+01 2.30302E+01 0.00000E+00
 -1      4064 2.01185E+01 2.45284E+01 0.00000E+00
 -1      4065 7.74000E+01 3.05150E+01 0.00000E+00
 -1      4066 7.89000E+01 3.05150E+01 0.00000E+00
 -1      4067 3.02850E+01 1.82952E+01 0.00000E+00
 -1      4068 2.87850E+01 1.82952E+01 0.00000E+00
 -1      4069 3.87813E+01 2.03373E+01 0.00000E+00
 -1      4070 3.89315E+01 1.87907E+01 0.00000E+00
 -1      4071 3.68848E+01 1.85428E+01 0.00000E+00
 -1      4072 7.96500E+01 2.92160E+01 0.00000E+00
 -1      4073 8.30697E+01 1.78327E+01 0.00000E+00
 -1      4074 3.32850E+01 1.82952E+01 0.00000E+00
 -1      4075 3.17850E+01 1.82952E+01 0.00000E+00
 -1      4076 3.10350E+01 1.95942E+01 0.00000E+00
 -1      4077 4.25576E+01 2.35488E+01 0.00000E+00
 -1      4078 4.08775E+01 2.22603E+01 0.00000E+00
 -1      4079 1.31232E+02 2.98789E+01 0.00000E+00
 -1      4080 2.61732E+01 1.73567E+01 0.00000E+00
 -1      4081 9.53850E+01 1.66161E+01 0.00000E+00
 -1      4082 2.56500E+01 2.92160E+01 0.00000E+00
 -1      4083 9.31350E+01 1.79151E+01 0.00000E+00
 -1      4084 9.16350E+01 1.79151E+01 0.00000E+00
 -1      4085 9.01162E+01 1.79151E+01 0.00000E+00
 -1      4086 8.85975E+01 1.79151E+01 0.00000E+00
 -1      4087 9.08662E+01 1.92141E+01 0.00000E+00
 -1      4088 9.91350E+01 1.79151E+01 0.00000E+00
 -1      4089 9.76350E+01 1.79151E+01 0.00000E+00
 -1      4090 9.98850E+01 1.92141E+01 0.00000E+00
 -1      4091 1.81588E+01 2.71203E+01 0.00000E+00
 -1      4092 1.68598E+01 2.78577E+01 0.00000E+00
 -1      4093 8.12426E+01 2.35159E+01 0.00000E+00
 -1      4094 1.30482E+02 2.85799E+01 0.00000E+00
 -1      4095 1.30348E+02 2.47579E+01 0.00000E+00
 -1      4096 1.29866E+02 2.33947E+01 0.00000E+00
 -1      4097 1.53600E+01 3.00194E+01 0.00000E+00
 -1      4098 1.61100E+01 2.87204E+01 0.00000E+00
 -1      4099 8.14667E+01 2.04684E+01 0.00000E+00
 -1      4100 4.24221E+01 2.47531E+01 0.00000E+00
 -1      4101 1.30415E+02 2.74033E+01 0.00000E+00
 -1      4102 1.30415E+02 2.59345E+01 0.00000E+00
 -1      4103 1.28949E+02 2.56862E+01 0.00000E+00
 -1      4104 1.29083E+02 2.80394E+01 0.00000E+00
 -1      4105 8.19000E+01 2.79170E+01 0.00000E+00
 -1      4106 8.34000E+01 2.79170E+01 0.00000E+00
 -1      4107 3.09000E+01 2.79170E+01 0.00000E+00
 -1      4108 3.24000E+01 2.79170E+01 0.00000E+00
 -1      4109 3.39000E+01 2.79170E+01 0.00000E+00
 -1      4110 3.54000E+01 2.79170E+01 0.00000E+00
 -1      4111 3.31500E+01 2.66180E+01 0.00000E+00
 -1      4112 3.69000E+01 2.79170E+01 0.00000E+00
 -1      4113 3.84000E+01 2.79170E+01 0.00000E+00
 -1      4114 3.61500E+01 2.66180E+01 0.00000E+00
 -1      4115 3.97459E+01 2.81109E+01 0.00000E+00
 -1      4116 4.12459E+01 2.81109E+01 0.00000E+00
 -1      4117 4.16877E+01 2.71996E+01 0.00000E+00
 -1      4118 3.89959E+01 2.68119E+01 0.00000E+00
 -1      4119 1.12635E+02 2.05131E+01 0.00000E+00
 -1      4120 1.11135E+02 2.05131E+01 0.00000E+00
 -1      4121 1.24635E+02 2.05131E+01 0.00000E+00
 -1      4122 1.23135E+02 2.05131E+01 0.00000E+00
 -1      4123 2.76732E+01 1.99547E+01 0.00000E+00
 -1      4124 2.69232E+01 1.86557E+01 0.00000E+00
 -1      4125 2.50613E+01 1.90161E+01 0.00000E+00
 -1      4126 7.80697E+01 2.77634E+01 0.00000E+00
 -1      4127 7.72471E+01 2.96855E+01 0.00000E+00
 -1      4128 7.64971E+01 3.09845E+01 0.00000E+00
 -1      4129 8.49000E+01 2.79170E+01 0.00000E+00
 -1      4130 8.64000E+01 2.79170E+01 0.00000E+00
 -1      4131 8.41500E+01 2.66180E+01 0.00000E+00
 -1      4132 8.79000E+01 2.79170E+01 0.00000E+00
 -1      4133 8.94000E+01 2.79170E+01 0.00000E+00
 -1      4134 8.71500E+01 2.66180E+01 0.00000E+00
 -1      4135 9.09000E+01 2.79170E+01 0.00000E+00
 -1      4136 9.24000E+01 2.79170E+01 0.00000E+00
 -1      4137 9.01500E+01 2.66180E+01 0.00000E+00
 -1      4138 9.39000E+01 2.79170E+01 0.00000E+00
 -1      4139 9.54000E+01 2.79170E+01 0.00000E+00
 -1      4140 9.31500E+01 2.66180E+01 0.00000E+00
 -1      4141 9.69000E+01 2.79170E+01 0.00000E+00
 -1      4142 9.84000E+01 2.79170E+01 0.00000E+00
 -1      4143 9.61500E+01 2.66180E+01 0.00000E+00
 -1      4144 9.99000E+01 2.79170E+01 0.00000E+00
 -1      4145 1.01400E+02 2.79170E+01 0.00000E+00
 -1      4146 9.91500E+01 2.66180E+01 0.00000E+00
 -1      4147 1.02900E+02 2.79170E+01 0.00000E+00
 -1      4148 1.04400E+02 2.79170E+01 0.00000E+00
 -1      4149 1.02150E+02 2.66180E+01 0.00000E+00
 -1      4150 1.05900E+02 2.79170E+01 0.00000E+00
 -1      4151 1.07400E+02 2.79170E+01 0.00000E+00
 -1      4152 1.05150E+02 2.66180E+01 0.00000E+00
 -1      4153 1.08900E+02 2.79170E+01 0.00000E+00
 -1      4154 1.10400E+02 2.79170E+01 0.00000E+00
 -1      4155 1.08150E+02 2.66180E+01 0.00000E+00
 -1      4156 1.11900E+02 2.79170E+01 0.00000E+00
 -1      4157 1.13400E+02 2.79170E+01 0.00000E+00
 -1      4158 1.11150E+02 2.66180E+01 0.00000E+00
 -1      4159 1.14900E+02 2.79170E+01 0.00000E+00
 -1      4160 1.16400E+02 2.79170E+01 0.00000E+00
 -1      4161 1.14150E+02 2.66180E+01 0.00000E+00
 -1      4162 1.17900E+02 2.79170E+01 0.00000E+00
 -1      4163 1.19400E+02 2.79170E+01 0.00000E+00
 -1      4164 1.17150E+02 2.66180E+01 0.00000E+00
 -1      4165 1.20900E+02 2.79170E+01 0.00000E+00
 -1      4166 1.22400E+02 2.79170E+01 0.00000E+00
 -1      4167 1.20150E+02 2.66180E+01 0.00000E+00
 -1      4168 1.23900E+02 2.79170E+01 0.00000E+00
 -1      4169 1.25400E+02 2.79170E+01 0.00000E+00
 -1      4170 1.23150E+02 2.66180E+01 0.00000E+00
 -1      4171 1.27583E+02 2.80394E+01 0.00000E+00
 -1      4172 1.15635E+02 2.05131E+01 0.00000E+00
 -1      4173 1.14135E+02 2.05131E+01 0.00000E+00
 -1      4174 1.13385E+02 2.18121E+01 0.00000E+00
 -1      4175 8.46842E+01 1.82890E+01 0.00000E+00
 -1      4176 8.29439E+01 1.95056E+01 0.00000E+00
 -1      4177 7.95697E+01 2.77634E+01 0.00000E+00
 -1      4178 1.21635E+02 2.05131E+01 0.00000E+00
 -1      4179 1.20135E+02 2.05131E+01 0.00000E+00
 -1      4180 1.22385E+02 2.18121E+01 0.00000E+00
 -1      4181 1.09635E+02 2.05131E+01 0.00000E+00
 -1      4182 1.08135E+02 2.05131E+01 0.00000E+00
 -1      4183 1.10385E+02 2.18121E+01 0.00000E+00
 -1      4184 1.96588E+01 2.71203E+01 0.00000E+00
 -1      4185 8.10156E+01 2.71801E+01 0.00000E+00
 -1      4186 2.49000E+01 2.79170E+01 0.00000E+00
 -1      4187 2.64000E+01 2.79170E+01 0.00000E+00
 -1      4188 1.45939E+01 2.97828E+01 0.00000E+00
 -1      4189 8.74002E+01 1.81020E+01 0.00000E+00
 -1      4190 8.58815E+01 1.81020E+01 0.00000E+00
 -1      4191 8.57556E+01 1.97750E+01 0.00000E+00
 -1      4192 8.81502E+01 1.94010E+01 0.00000E+00
 -1      4193 2.79000E+01 2.79170E+01 0.00000E+00
 -1      4194 2.94000E+01 2.79170E+01 0.00000E+00
 -1      4195 3.01500E+01 2.66180E+01 0.00000E+00
 -1      4196 1.29554E+02 2.21133E+01 0.00000E+00
 -1      4197 1.29072E+02 2.07501E+01 0.00000E+00
 -1      4198 1.27947E+02 2.06653E+01 0.00000E+00
 -1      4199 1.28571E+02 2.32281E+01 0.00000E+00
 -1      4200 8.30811E+01 2.09247E+01 0.00000E+00
 -1      4201 3.53848E+01 1.85428E+01 0.00000E+00
 -1      4202 1.06635E+02 2.05131E+01 0.00000E+00
 -1      4203 1.05135E+02 2.05131E+01 0.00000E+00
 -1      4204 1.07385E+02 2.18121E+01 0.00000E+00
 -1      4205 9.61350E+01 1.79151E+01 0.00000E+00
 -1      4206 9.46350E+01 1.79151E+01 0.00000E+00
 -1      4207 9.38850E+01 1.92141E+01 0.00000E+00
 -1      4208 9.68850E+01 1.92141E+01 0.00000E+00
 -1      4209 1.48198E+01 2.73621E+01 0.00000E+00
 -1      4210 1.03635E+02 2.05131E+01 0.00000E+00
 -1      4211 1.02135E+02 2.05131E+01 0.00000E+00
 -1      4212 1.04385E+02 2.18121E+01 0.00000E+00
 -1      4213 2.39495E+01 2.06755E+01 0.00000E+00
 -1      4214 2.16097E+01 2.66241E+01 0.00000E+00
 -1      4215 1.18635E+02 2.05131E+01 0.00000E+00
 -1      4216 1.17135E+02 2.05131E+01 0.00000E+00
 -1      4217 1.16385E+02 2.18121E+01 0.00000E+00
 -1      4218 1.19385E+02 2.18121E+01 0.00000E+00
 -1      4219 2.39403E+01 2.21736E+01 0.00000E+00
 -1      4220 2.39311E+01 2.36718E+01 0.00000E+00
 -1      4221 2.58022E+01 2.18132E+01 0.00000E+00
 -1      4222 9.46350E+01 2.05131E+01 0.00000E+00
 -1      4223 9.31350E+01 2.05131E+01 0.00000E+00
 -1      4224 9.23662E+01 2.18121E+01 0.00000E+00
 -1      4225 9.16162E+01 2.05131E+01 0.00000E+00
 -1      4226 9.00975E+01 2.05131E+01 0.00000E+00
 -1      4227 1.26853E+02 2.06316E+01 0.00000E+00
 -1      4228 1.25728E+02 2.05467E+01 0.00000E+00
 -1      4229 1.24978E+02 2.18457E+01 0.00000E+00
 -1      4230 1.27165E+02 2.19130E+01 0.00000E+00
 -1      4231 2.71500E+01 2.66180E+01 0.00000E+00
 -1      4232 3.46348E+01 1.98418E+01 0.00000E+00
 -1      4233 8.45290E+01 2.15316E+01 0.00000E+00
 -1      4234 8.30518E+01 2.24944E+01 0.00000E+00
 -1      4235 2.95258E+01 2.10924E+01 0.00000E+00
 -1      4236 2.76640E+01 2.14528E+01 0.00000E+00
 -1      4237 2.76548E+01 2.29510E+01 0.00000E+00
 -1      4238 3.96264E+01 2.31355E+01 0.00000E+00
 -1      4239 3.95768E+01 2.14605E+01 0.00000E+00
 -1      4240 1.01385E+02 2.18121E+01 0.00000E+00
 -1      4241 1.00635E+02 2.05131E+01 0.00000E+00
 -1      4242 9.91350E+01 2.05131E+01 0.00000E+00
 -1      4243 8.26905E+01 2.41228E+01 0.00000E+00
 -1      4244 2.31097E+01 2.66241E+01 0.00000E+00
 -1      4245 1.27789E+02 2.44759E+01 0.00000E+00
 -1      4246 1.27477E+02 2.31945E+01 0.00000E+00
 -1      4247 1.26384E+02 2.31608E+01 0.00000E+00
 -1      4248 3.75301E+01 2.12126E+01 0.00000E+00
 -1      4249 1.26833E+02 2.67404E+01 0.00000E+00
 -1      4250 8.17656E+01 2.58811E+01 0.00000E+00
 -1      4251 8.35748E+01 2.48596E+01 0.00000E+00
 -1      4252 4.21295E+01 2.62883E+01 0.00000E+00
 -1      4253 4.06344E+01 2.54705E+01 0.00000E+00
 -1      4254 3.25258E+01 2.10924E+01 0.00000E+00
 -1      4255 3.10258E+01 2.10924E+01 0.00000E+00
 -1      4256 3.10166E+01 2.25906E+01 0.00000E+00
 -1      4257 3.91648E+01 2.57413E+01 0.00000E+00
 -1      4258 3.94574E+01 2.42061E+01 0.00000E+00
 -1      4259 3.81567E+01 2.34063E+01 0.00000E+00
 -1      4260 3.78189E+01 2.55474E+01 0.00000E+00
 -1      4261 1.27856E+02 2.56525E+01 0.00000E+00
 -1      4262 1.25673E+02 2.55301E+01 0.00000E+00
 -1      4263 3.68678E+01 2.25250E+01 0.00000E+00
 -1      4264 3.60723E+01 2.14018E+01 0.00000E+00
 -1      4265 8.50748E+01 2.48596E+01 0.00000E+00
 -1      4266 8.94000E+01 2.53190E+01 0.00000E+00
 -1      4267 9.09000E+01 2.53190E+01 0.00000E+00
 -1      4268 9.27675E+01 2.42150E+01 0.00000E+00
 -1      4269 9.42675E+01 2.42150E+01 0.00000E+00
 -1      4270 9.84000E+01 2.53190E+01 0.00000E+00
 -1      4271 9.99000E+01 2.53190E+01 0.00000E+00
 -1      4272 1.01768E+02 2.42150E+01 0.00000E+00
 -1      4273 1.03268E+02 2.42150E+01 0.00000E+00
 -1      4274 1.04768E+02 2.42150E+01 0.00000E+00
 -1      4275 1.06268E+02 2.42150E+01 0.00000E+00
 -1      4276 1.07768E+02 2.42150E+01 0.00000E+00
 -1      4277 1.09268E+02 2.42150E+01 0.00000E+00
 -1      4278 1.10768E+02 2.42150E+01 0.00000E+00
 -1      4279 1.12268E+02 2.42150E+01 0.00000E+00
 -1      4280 1.13768E+02 2.42150E+01 0.00000E+00
 -1      4281 1.15268E+02 2.42150E+01 0.00000E+00
 -1      4282 1.16768E+02 2.42150E+01 0.00000E+00
 -1      4283 1.18268E+02 2.42150E+01 0.00000E+00
 -1      4284 1.19768E+02 2.42150E+01 0.00000E+00
 -1      4285 1.21268E+02 2.42150E+01 0.00000E+00
 -1      4286 1.22768E+02 2.42150E+01 0.00000E+00
 -1      4287 1.24268E+02 2.42150E+01 0.00000E+00
 -1      4288 8.57263E+01 2.13446E+01 0.00000E+00
 -1      4289 8.56970E+01 2.29143E+01 0.00000E+00
 -1      4290 8.69236E+01 2.11577E+01 0.00000E+00
 -1      4291 3.39725E+01 2.11542E+01 0.00000E+00
 -1      4292 2.90833E+01 2.46043E+01 0.00000E+00
 -1      4293 3.05833E+01 2.46043E+01 0.00000E+00
 -1      4294 2.38597E+01 2.53251E+01 0.00000E+00
 -1      4295 3.20833E+01 2.46043E+01 0.00000E+00
 -1      4296 9.76350E+01 2.05131E+01 0.00000E+00
 -1      4297 9.61350E+01 2.05131E+01 0.00000E+00
 -1      4298 9.83850E+01 2.18121E+01 0.00000E+00
 -1      4299 3.35833E+01 2.46043E+01 0.00000E+00
 -1      4300 2.57215E+01 2.49647E+01 0.00000E+00
 -1      4301 2.72215E+01 2.49647E+01 0.00000E+00
 -1      4302 8.62721E+01 2.46727E+01 0.00000E+00
 -1      4303 9.53850E+01 2.18121E+01 0.00000E+00
 -1      4304 9.20175E+01 2.29160E+01 0.00000E+00
 -1      4305 3.54000E+01 2.53190E+01 0.00000E+00
 -1      4306 3.69000E+01 2.53190E+01 0.00000E+00
 -1      4307 8.77721E+01 2.46727E+01 0.00000E+00
 -1      4308 8.85221E+01 2.33737E+01 0.00000E+00
 -1      4309 9.53591E+01 2.28094E+01 0.00000E+00
 -1      4310 9.57416E+01 2.52123E+01 0.00000E+00
 -1      4311 9.72416E+01 2.52123E+01 0.00000E+00
 -1      4312 1.25290E+02 2.31272E+01 0.00000E+00
 -1      4313 1.00268E+02 2.42150E+01 0.00000E+00
 -1      4314 3.70689E+01 2.42484E+01 0.00000E+00
 -1      4315 3.39633E+01 2.26524E+01 0.00000E+00
 -1      4316 9.79916E+01 2.39133E+01 0.00000E+00
 -1      4317 9.68591E+01 2.28094E+01 0.00000E+00
 -1      4318 3.66989E+01 2.35955E+01 0.00000E+00
 -1      4319 8.93475E+01 2.18121E+01 0.00000E+00
 -1      4320 8.85975E+01 2.05131E+01 0.00000E+00
 -1      4321 9.80175E+01 2.29160E+01 0.00000E+00
 -1      4322 9.04987E+01 2.29160E+01 0.00000E+00
 -1      4323 3.43333E+01 2.33053E+01 0.00000E+00
 -1      4324 8.88709E+01 2.22697E+01 0.00000E+00
 -1      4325 8.74002E+01 2.07001E+01 0.00000E+00
 -1      4326 9.95175E+01 2.29160E+01 0.00000E+00
 -1      4327 3.57800E+01 2.33671E+01 0.00000E+00
 -1      4328 8.73709E+01 2.22697E+01 0.00000E+00
 -3
    3C                          2082                                     1
 -1       165    8    0    1
 -2         6         7        23      1124      1288      1141
 -1       166    8    0    1
 -2         7         8       165      1125      1289      1290
 -1       167    8    0    1
 -2         8         9       166      1126      1291      1292
 -1       168    8    0    1
 -2         8       166       165      1292      1293      1289
 -1       169    8    0    1
 -2         9        10       167      1127      1294      1295
 -1       170    8    0    1
 -2         9       167       166      1295      1296      1291
 -1       171    8    0    1
 -2        10        11       168      1128      1297      1298
 -1       172    8    0    1
 -2        10       168       167      1298      1299      1294
 -1       173    8    0    1
 -2        11        12       169      1129      1300      1301
 -1       174    8    0    1
 -2        11       169       168      1301      1302      1297
 -1       175    8    0    1
 -2        12        13       170      1130      1303      1304
 -1       176    8    0    1
 -2        12       170       169      1304      1305      1300
 -1       177    8    0    1
 -2        13        14       171      1131      1306      1307
 -1       178    8    0    1
 -2        13       171       170      1307      1308      1303
 -1       179    8    0    1
 -2        14        15       172      1132      1309      1310
 -1       180    8    0    1
 -2        14       172       171      1310      1311      1306
 -1       181    8    0    1
 -2        15        16       173      1133      1312      1313
 -1       182    8    0    1
 -2        15       173       172      1313      1314      1309
 -1       183    8    0    1
 -2        16        17       174      1134      1315      1316
 -1       184    8    0    1
 -2        16       174       173      1316      1317      1312
 -1       185    8    0    1
 -2        17        18       175      1135      1318      1319
 -1       186    8    0    1
 -2        17       175       174      1319      1320      1315
 -1       187    8    0    1
 -2        18        19       176      1136      1321      1322
 -1       188    8    0    1
 -2        18       176       175      1322      1323      1318
 -1       189    8    0    1
 -2        19        20       177      1137      1324      1325
 -1       190    8    0    1
 -2        19       177       176      1325      1326      1321
 -1       191    8    0    1
 -2        20        21       178      1138      1327      1328
 -1       192    8    0    1
 -2        20       178       177      1328      1329      1324
 -1       193    8    0    1
 -2        21        22       179      1139      1330      1331
 -1       194    8    0    1
 -2        21       179       178      1331      1332      1327
 -1       195    8    0    1
 -2        22         5       180      1140      1333      1334
 -1       196    8    0    1
 -2       179        22       180      1330      1334      1335
 -1       197    8    0    1
 -2         5        72       180      1191      1336      1333
 -1       198    8    0    1
 -2        24        23       181      1142      1337      1338
 -1       199    8    0    1
 -2        25        24       182      1143      1339      1340
 -1       200    8    0    1
 -2        24       181       182      1338      1341      1339
 -1       201    8    0    1
 -2        26        25       183      1144      1342      1343
 -1       202    8    0    1
 -2        25       182       183      1340      1344      1342
 -1       203    8    0    1
 -2        27        26       184      1145      1345      1346
 -1       204    8    0    1
 -2        26       183       184      1343      1347      1345
 -1       205    8    0    1
 -2        28        27       185      1146      1348      1349
 -1       206    8    0    1
 -2        27       184       185      1346      1350      1348
 -1       207    8    0    1
 -2        29        28       186      1147      1351      1352
 -1       208    8    0    1
 -2        28       185       186      1349      1353      1351
 -1       209    8    0    1
 -2        30        29       187      1148      1354      1355
 -1       210    8    0    1
 -2        29       186       187      1352      1356      1354
 -1       211    8    0    1
 -2        31        30       188      1149      1357      1358
 -1       212    8    0    1
 -2        30       187       188      1355      1359      1357
 -1       213    8    0    1
 -2        32        31       189      1150      1360      1361
 -1       214    8    0    1
 -2        31       188       189      1358      1362      1360
 -1       215    8    0    1
 -2        33        32       190      1151      1363      1364
 -1       216    8    0    1
 -2        32       189       190      1361      1365      1363
 -1       217    8    0    1
 -2        34        33       191      1152      1366      1367
 -1       218    8    0    1
 -2        33       190       191      1364      1368      1366
 -1       219    8    0    1
 -2        35        34       192      1153      1369      1370
 -1       220    8    0    1
 -2        34       191       192      1367      1371      1369
 -1       221    8    0    1
 -2        36        35       193      1154      1372      1373
 -1       222    8    0    1
 -2        35       192       193      1370      1374      1372
 -1       223    8    0    1
 -2        37        36       194      1155      1375      1376
 -1       224    8    0    1
 -2        36       193       194      1373      1377      1375
 -1       225    8    0    1
 -2        38        37       195      1156      1378      1379
 -1       226    8    0    1
 -2        37       194       195      1376      1380      1378
 -1       227    8    0    1
 -2        39        38       196      1157      1381      1382
 -1       228    8    0    1
 -2        38       195       196      1379      1383      1381
 -1       229    8    0    1
 -2        40        39       197      1158      1384      1385
 -1       230    8    0    1
 -2        39       196       197      1382      1386      1384
 -1       231    8    0    1
 -2        41        40       198      1159      1387      1388
 -1       232    8    0    1
 -2        40       197       198      1385      1389      1387
 -1       233    8    0    1
 -2        42        41       199      1160      1390      1391
 -1       234    8    0    1
 -2        41       198       199      1388      1392      1390
 -1       235    8    0    1
 -2        43        42       200      1161      1393      1394
 -1       236    8    0    1
 -2        42       199       200      1391      1395      1393
 -1       237    8    0    1
 -2        44        43       201      1162      1396      1397
 -1       238    8    0    1
 -2        43       200       201      1394      1398      1396
 -1       239    8    0    1
 -2        45        44       202      1163      1399      1400
 -1       240    8    0    1
 -2        44       201       202      1397      1401      1399
 -1       241    8    0    1
 -2        46        45       203      1164      1402      1403
 -1       242    8    0    1
 -2        45       202       203      1400      1404      1402
 -1       243    8    0    1
 -2        47        46       204      1165      1405      1406
 -1       244    8    0    1
 -2        46       203       204      1403      1407      1405
 -1       245    8    0    1
 -2        48        47       205      1166      1408      1409
 -1       246    8    0    1
 -2        47       204       205      1406      1410      1408
 -1       247    8    0    1
 -2        49        48       206      1167      1411      1412
 -1       248    8    0    1
 -2        48       205       206      1409      1413      1411
 -1       249    8    0    1
 -2        50        49       207      1168      1414      1415
 -1       250    8    0    1
 -2        49       206       207      1412      1416      1414
 -1       251    8    0    1
 -2        51        50       208      1169      1417      1418
 -1       252    8    0    1
 -2        50       207       208      1415      1419      1417
 -1       253    8    0    1
 -2        52        51       209      1170      1420      1421
 -1       254    8    0    1
 -2        51       208       209      1418      1422      1420
 -1       255    8    0    1
 -2        53        52       210      1171      1423      1424
 -1       256    8    0    1
 -2        52       209       210      1421      1425      1423
 -1       257    8    0    1
 -2        54        53       211      1172      1426      1427
 -1       258    8    0    1
 -2        53       210       211      1424      1428      1426
 -1       259    8    0    1
 -2        55        54       212      1173      1429      1430
 -1       260    8    0    1
 -2        54       211       212      1427      1431      1429
 -1       261    8    0    1
 -2        56        55       213      1174      1432      1433
 -1       262    8    0    1
 -2        55       212       213      1430      1434      1432
 -1       263    8    0    1
 -2        57        56       214      1175      1435      1436
 -1       264    8    0    1
 -2        56       213       214      1433      1437      1435
 -1       265    8    0    1
 -2        58        57       215      1176      1438      1439
 -1       266    8    0    1
 -2        57       214       215      1436      1440      1438
 -1       267    8    0    1
 -2        59        58       216      1177      1441      1442
 -1       268    8    0    1
 -2        58       215       216      1439      1443      1441
 -1       269    8    0    1
 -2        60        59       217      1178      1444      1445
 -1       270    8    0    1
 -2        59       216       217      1442      1446      1444
 -1       271    8    0    1
 -2        61        60       218      1179      1447      1448
 -1       272    8    0    1
 -2        60       217       218      1445      1449      1447
 -1       273    8    0    1
 -2        62        61       219      1180      1450      1451
 -1       274    8    0    1
 -2        61       218       219      1448      1452      1450
 -1       275    8    0    1
 -2        63        62       220      1181      1453      1454
 -1       276    8    0    1
 -2        62       219       220      1451      1455      1453
 -1       277    8    0    1
 -2        64        63       221      1182      1456      1457
 -1       278    8    0    1
 -2        63       220       221      1454      1458      1456
 -1       279    8    0    1
 -2        65        64       222      1183      1459      1460
 -1       280    8    0    1
 -2        64       221       222      1457      1461      1459
 -1       281    8    0    1
 -2        66        65       223      1184      1462      1463
 -1       282    8    0    1
 -2        65       222       223      1460      1464      1462
 -1       283    8    0    1
 -2        67        66       224      1185      1465      1466
 -1       284    8    0    1
 -2        66       223       224      1463      1467      1465
 -1       285    8    0    1
 -2        68        67       225      1186      1468      1469
 -1       286    8    0    1
 -2        67       224       225      1466      1470      1468
 -1       287    8    0    1
 -2        69        68       226      1187      1471      1472
 -1       288    8    0    1
 -2        68       225       226      1469      1473      1471
 -1       289    8    0    1
 -2        70        69       227      1188      1474      1475
 -1       290    8    0    1
 -2        69       226       227      1472      1476      1474
 -1       291    8    0    1
 -2        71        70       228      1189      1477      1478
 -1       292    8    0    1
 -2        70       227       228      1475      1479      1477
 -1       293    8    0    1
 -2         4        71       136      1190      1480      1257
 -1       294    8    0    1
 -2       136        71       228      1480      1478      1481
 -1       295    8    0    1
 -2        72        73       229      1192      1482      1483
 -1       296    8    0    1
 -2        72       229       180      1483      1484      1336
 -1       297    8    0    1
 -2        73        74       230      1193      1485      1486
 -1       298    8    0    1
 -2        73       230       229      1486      1487      1482
 -1       299    8    0    1
 -2        74        75       231      1194      1488      1489
 -1       300    8    0    1
 -2        74       231       230      1489      1490      1485
 -1       301    8    0    1
 -2        75        76       232      1195      1491      1492
 -1       302    8    0    1
 -2        75       232       231      1492      1493      1488
 -1       303    8    0    1
 -2        76        77       233      1196      1494      1495
 -1       304    8    0    1
 -2        76       233       232      1495      1496      1491
 -1       305    8    0    1
 -2        77        78       234      1197      1497      1498
 -1       306    8    0    1
 -2        77       234       233      1498      1499      1494
 -1       307    8    0    1
 -2        78        79       235      1198      1500      1501
 -1       308    8    0    1
 -2        78       235       234      1501      1502      1497
 -1       309    8    0    1
 -2        79        80       236      1199      1503      1504
 -1       310    8    0    1
 -2        79       236       235      1504      1505      1500
 -1       311    8    0    1
 -2        80        81       237      1200      1506      1507
 -1       312    8    0    1
 -2        80       237       236      1507      1508      1503
 -1       313    8    0    1
 -2        81        82       238      1201      1509      1510
 -1       314    8    0    1
 -2        81       238       237      1510      1511      1506
 -1       315    8    0    1
 -2        82        83       239      1202      1512      1513
 -1       316    8    0    1
 -2        82       239       238      1513      1514      1509
 -1       317    8    0    1
 -2        83        84       240      1203      1515      1516
 -1       318    8    0    1
 -2        83       240       239      1516      1517      1512
 -1       319    8    0    1
 -2        84        85       241      1204      1518      1519
 -1       320    8    0    1
 -2        84       241       240      1519      1520      1515
 -1       321    8    0    1
 -2        85        86       242      1205      1521      1522
 -1       322    8    0    1
 -2        85       242       241      1522      1523      1518
 -1       323    8    0    1
 -2        86        87       243      1206      1524      1525
 -1       324    8    0    1
 -2        86       243       242      1525      1526      1521
 -1       325    8    0    1
 -2        87        88       244      1207      1527      1528
 -1       326    8    0    1
 -2        87       244       243      1528      1529      1524
 -1       327    8    0    1
 -2        88        89       245      1208      1530      1531
 -1       328    8    0    1
 -2        88       245       244      1531      1532      1527
 -1       329    8    0    1
 -2        89        90       246      1209      1533      1534
 -1       330    8    0    1
 -2        89       246       245      1534      1535      1530
 -1       331    8    0    1
 -2        90        91       247      1210      1536      1537
 -1       332    8    0    1
 -2        90       247       246      1537      1538      1533
 -1       333    8    0    1
 -2        91        92       248      1211      1539      1540
 -1       334    8    0    1
 -2        91       248       247      1540      1541      1536
 -1       335    8    0    1
 -2        92        93       249      1212      1542      1543
 -1       336    8    0    1
 -2        92       249       248      1543      1544      1539
 -1       337    8    0    1
 -2        93        94       250      1213      1545      1546
 -1       338    8    0    1
 -2        93       250       249      1546      1547      1542
 -1       339    8    0    1
 -2        94        95       251      1214      1548      1549
 -1       340    8    0    1
 -2        94       251       250      1549      1550      1545
 -1       341    8    0    1
 -2        95        96       252      1215      1551      1552
 -1       342    8    0    1
 -2        95       252       251      1552      1553      1548
 -1       343    8    0    1
 -2        96        97       253      1216      1554      1555
 -1       344    8    0    1
 -2        96       253       252      1555      1556      1551
 -1       345    8    0    1
 -2        97        98       254      1217      1557      1558
 -1       346    8    0    1
 -2        97       254       253      1558      1559      1554
 -1       347    8    0    1
 -2        98        99       255      1218      1560      1561
 -1       348    8    0    1
 -2        98       255       254      1561      1562      1557
 -1       349    8    0    1
 -2        99       100       256      1219      1563      1564
 -1       350    8    0    1
 -2        99       256       255      1564      1565      1560
 -1       351    8    0    1
 -2       100       101       257      1220      1566      1567
 -1       352    8    0    1
 -2       100       257       256      1567      1568      1563
 -1       353    8    0    1
 -2       101       102       258      1221      1569      1570
 -1       354    8    0    1
 -2       101       258       257      1570      1571      1566
 -1       355    8    0    1
 -2       102       103       259      1222      1572      1573
 -1       356    8    0    1
 -2       102       259       258      1573      1574      1569
 -1       357    8    0    1
 -2       103       104       260      1223      1575      1576
 -1       358    8    0    1
 -2       103       260       259      1576      1577      1572
 -1       359    8    0    1
 -2       104       105       261      1224      1578      1579
 -1       360    8    0    1
 -2       104       261       260      1579      1580      1575
 -1       361    8    0    1
 -2       105       106       262      1225      1581      1582
 -1       362    8    0    1
 -2       105       262       261      1582      1583      1578
 -1       363    8    0    1
 -2       106       107       263      1226      1584      1585
 -1       364    8    0    1
 -2       106       263       262      1585      1586      1581
 -1       365    8    0    1
 -2       107       108       264      1227      1587      1588
 -1       366    8    0    1
 -2       107       264       263      1588      1589      1584
 -1       367    8    0    1
 -2       108       109       265      1228      1590      1591
 -1       368    8    0    1
 -2       108       265       264      1591      1592      1587
 -1       369    8    0    1
 -2       109       110       266      1229      1593      1594
 -1       370    8    0    1
 -2       109       266       265      1594      1595      1590
 -1       371    8    0    1
 -2       110       111       267      1230      1596      1597
 -1       372    8    0    1
 -2       110       267       266      1597      1598      1593
 -1       373    8    0    1
 -2       111       112       268      1231      1599      1600
 -1       374    8    0    1
 -2       111       268       267      1600      1601      1596
 -1       375    8    0    1
 -2       112       113       269      1232      1602      1603
 -1       376    8    0    1
 -2       112       269       268      1603      1604      1599
 -1       377    8    0    1
 -2       113       114       270      1233      1605      1606
 -1       378    8    0    1
 -2       113       270       269      1606      1607      1602
 -1       379    8    0    1
 -2       114       115       271      1234      1608      1609
 -1       380    8    0    1
 -2       114       271       270      1609      1610      1605
 -1       381    8    0    1
 -2       115       116       272      1235      1611      1612
 -1       382    8    0    1
 -2       115       272       271      1612      1613      1608
 -1       383    8    0    1
 -2       116       117       273      1236      1614      1615
 -1       384    8    0    1
 -2       116       273       272      1615      1616      1611
 -1       385    8    0    1
 -2       117       118       274      1237      1617      1618
 -1       386    8    0    1
 -2       117       274       273      1618      1619      1614
 -1       387    8    0    1
 -2       118       119       275      1238      1620      1621
 -1       388    8    0    1
 -2       118       275       274      1621      1622      1617
 -1       389    8    0    1
 -2       119       120       276      1239      1623      1624
 -1       390    8    0    1
 -2       119       276       275      1624      1625      1620
 -1       391    8    0    1
 -2       120         3       121      1240      1241      1626
 -1       392    8    0    1
 -2       121       122       277      1242      1627      1628
 -1       393    8    0    1
 -2       122       123       278      1243      1629      1630
 -1       394    8    0    1
 -2       122       278       277      1630      1631      1627
 -1       395    8    0    1
 -2       123       124       279      1244      1632      1633
 -1       396    8    0    1
 -2       123       279       278      1633      1634      1629
 -1       397    8    0    1
 -2       124       125       280      1245      1635      1636
 -1       398    8    0    1
 -2       124       280       279      1636      1637      1632
 -1       399    8    0    1
 -2       125       126       281      1246      1638      1639
 -1       400    8    0    1
 -2       125       281       280      1639      1640      1635
 -1       401    8    0    1
 -2       126       127       282      1247      1641      1642
 -1       402    8    0    1
 -2       126       282       281      1642      1643      1638
 -1       403    8    0    1
 -2       127       128       283      1248      1644      1645
 -1       404    8    0    1
 -2       127       283       282      1645      1646      1641
 -1       405    8    0    1
 -2       128       129       284      1249      1647      1648
 -1       406    8    0    1
 -2       128       284       283      1648      1649      1644
 -1       407    8    0    1
 -2       129       130       285      1250      1650      1651
 -1       408    8    0    1
 -2       129       285       284      1651      1652      1647
 -1       409    8    0    1
 -2       130       131       286      1251      1653      1654
 -1       410    8    0    1
 -2       130       286       285      1654      1655      1650
 -1       411    8    0    1
 -2       131       132       287      1252      1656      1657
 -1       412    8    0    1
 -2       131       287       286      1657      1658      1653
 -1       413    8    0    1
 -2       132       133       288      1253      1659      1660
 -1       414    8    0    1
 -2       132       288       287      1660      1661      1656
 -1       415    8    0    1
 -2       133       134       289      1254      1662      1663
 -1       416    8    0    1
 -2       133       289       288      1663      1664      1659
 -1       417    8    0    1
 -2       134       135       290      1255      1665      1666
 -1       418    8    0    1
 -2       134       290       289      1666      1667      1662
 -1       419    8    0    1
 -2       135       136       291      1256      1668      1669
 -1       420    8    0    1
 -2       290       135       291      1665      1669      1670
 -1       421    8    0    1
 -2       136       228       291      1481      1671      1668
 -1       422    8    0    1
 -2         2       137       292      1258      1672      1673
 -1       423    8    0    1
 -2       137       138       293      1259      1674      1675
 -1       424    8    0    1
 -2       138       139       294      1260      1676      1677
 -1       425    8    0    1
 -2       139       140       295      1261      1678      1679
 -1       426    8    0    1
 -2       140       141       296      1262      1680      1681
 -1       427    8    0    1
 -2       141       142       297      1263      1682      1683
 -1       428    8    0    1
 -2       142       143       298      1264      1684      1685
 -1       429    8    0    1
 -2       143       144       299      1265      1686      1687
 -1       430    8    0    1
 -2       144       145       300      1266      1688      1689
 -1       431    8    0    1
 -2       145       146       301      1267      1690      1691
 -1       432    8    0    1
 -2       146       147       302      1268      1692      1693
 -1       433    8    0    1
 -2       147       148       303      1269      1694      1695
 -1       434    8    0    1
 -2       148       149       304      1270      1696      1697
 -1       435    8    0    1
 -2       149       150       305      1271      1698      1699
 -1       436    8    0    1
 -2       150       151       306      1272      1700      1701
 -1       437    8    0    1
 -2       151       152       307      1273      1702      1703
 -1       438    8    0    1
 -2       152       153       308      1274      1704      1705
 -1       439    8    0    1
 -2       153         1       309      1275      1706      1707
 -1       440    8    0    1
 -2         1       154       310      1276      1708      1709
 -1       441    8    0    1
 -2       154       155       311      1277      1710      1711
 -1       442    8    0    1
 -2       155       156       312      1278      1712      1713
 -1       443    8    0    1
 -2       156       157       313      1279      1714      1715
 -1       444    8    0    1
 -2       157       158       314      1280      1716      1717
 -1       445    8    0    1
 -2       158       159       315      1281      1718      1719
 -1       446    8    0    1
 -2       159       160       316      1282      1720      1721
 -1       447    8    0    1
 -2       160       161       317      1283      1722      1723
 -1       448    8    0    1
 -2       161       162       318      1284      1724      1725
 -1       449    8    0    1
 -2       162       163       319      1285      1726      1727
 -1       450    8    0    1
 -2       163       164       320      1286      1728      1729
 -1       451    8    0    1
 -2       164         2       321      1287      1730      1731
 -1       452    8    0    1
 -2       295       140       296      1678      1681      1732
 -1       453    8    0    1
 -2       294       139       295      1676      1679      1733
 -1       454    8    0    1
 -2       120       121       276      1626      1734      1623
 -1       455    8    0    1
 -2       121       277       276      1628      1735      1734
 -1       456    8    0    1
 -2       292       137       293      1672      1675      1736
 -1       457    8    0    1
 -2       293       138       294      1674      1677      1737
 -1       458    8    0    1
 -2         2       292       321      1673      1738      1730
 -1       459    8    0    1
 -2       141       297       296      1683      1739      1680
 -1       460    8    0    1
 -2       142       298       297      1685      1740      1682
 -1       461    8    0    1
 -2       143       299       298      1687      1741      1684
 -1       462    8    0    1
 -2       144       300       299      1689      1742      1686
 -1       463    8    0    1
 -2       145       301       300      1691      1743      1688
 -1       464    8    0    1
 -2       146       302       301      1693      1744      1690
 -1       465    8    0    1
 -2       147       303       302      1695      1745      1692
 -1       466    8    0    1
 -2       148       304       303      1697      1746      1694
 -1       467    8    0    1
 -2       149       305       304      1699      1747      1696
 -1       468    8    0    1
 -2       150       306       305      1701      1748      1698
 -1       469    8    0    1
 -2       151       307       306      1703      1749      1700
 -1       470    8    0    1
 -2       152       308       307      1705      1750      1702
 -1       471    8    0    1
 -2       153       309       308      1707      1751      1704
 -1       472    8    0    1
 -2         1       310       309      1709      1752      1706
 -1       473    8    0    1
 -2       154       311       310      1711      1753      1708
 -1       474    8    0    1
 -2       155       312       311      1713      1754      1710
 -1       475    8    0    1
 -2       156       313       312      1715      1755      1712
 -1       476    8    0    1
 -2       157       314       313      1717      1756      1714
 -1       477    8    0    1
 -2       158       315       314      1719      1757      1716
 -1       478    8    0    1
 -2       159       316       315      1721      1758      1718
 -1       479    8    0    1
 -2       160       317       316      1723      1759      1720
 -1       480    8    0    1
 -2       161       318       317      1725      1760      1722
 -1       481    8    0    1
 -2       162       319       318      1727      1761      1724
 -1       482    8    0    1
 -2       163       320       319      1729      1762      1726
 -1       483    8    0    1
 -2       164       321       320      1731      1763      1728
 -1       484    8    0    1
 -2        23         7       165      1288      1290      1764
 -1       485    8    0    1
 -2       166       167       322      1296      1765      1766
 -1       486    8    0    1
 -2       165       166       323      1293      1767      1768
 -1       487    8    0    1
 -2       166       322       323      1766      1769      1767
 -1       488    8    0    1
 -2       168       169       324      1302      1770      1771
 -1       489    8    0    1
 -2       169       170       325      1305      1772      1773
 -1       490    8    0    1
 -2       169       325       324      1773      1774      1770
 -1       491    8    0    1
 -2       170       171       326      1308      1775      1776
 -1       492    8    0    1
 -2       170       326       325      1776      1777      1772
 -1       493    8    0    1
 -2       171       172       327      1311      1778      1779
 -1       494    8    0    1
 -2       171       327       326      1779      1780      1775
 -1       495    8    0    1
 -2       172       173       328      1314      1781      1782
 -1       496    8    0    1
 -2       172       328       327      1782      1783      1778
 -1       497    8    0    1
 -2       173       174       329      1317      1784      1785
 -1       498    8    0    1
 -2       173       329       328      1785      1786      1781
 -1       499    8    0    1
 -2       174       175       330      1320      1787      1788
 -1       500    8    0    1
 -2       174       330       329      1788      1789      1784
 -1       501    8    0    1
 -2       175       176       331      1323      1790      1791
 -1       502    8    0    1
 -2       175       331       330      1791      1792      1787
 -1       503    8    0    1
 -2       176       177       332      1326      1793      1794
 -1       504    8    0    1
 -2       176       332       331      1794      1795      1790
 -1       505    8    0    1
 -2       177       178       333      1329      1796      1797
 -1       506    8    0    1
 -2       177       333       332      1797      1798      1793
 -1       507    8    0    1
 -2       178       179       334      1332      1799      1800
 -1       508    8    0    1
 -2       178       334       333      1800      1801      1796
 -1       509    8    0    1
 -2       179       180       335      1335      1802      1803
 -1       510    8    0    1
 -2       334       179       335      1799      1803      1804
 -1       511    8    0    1
 -2       180       229       335      1484      1805      1802
 -1       512    8    0    1
 -2       181        23       165      1337      1764      1806
 -1       513    8    0    1
 -2       229       230       336      1487      1807      1808
 -1       514    8    0    1
 -2       229       336       335      1808      1809      1805
 -1       515    8    0    1
 -2       181       165       323      1806      1768      1810
 -1       516    8    0    1
 -2       183       182       337      1344      1811      1812
 -1       517    8    0    1
 -2       184       183       338      1347      1813      1814
 -1       518    8    0    1
 -2       183       337       338      1812      1815      1813
 -1       519    8    0    1
 -2       185       184       339      1350      1816      1817
 -1       520    8    0    1
 -2       184       338       339      1814      1818      1816
 -1       521    8    0    1
 -2       186       185       340      1353      1819      1820
 -1       522    8    0    1
 -2       185       339       340      1817      1821      1819
 -1       523    8    0    1
 -2       187       186       341      1356      1822      1823
 -1       524    8    0    1
 -2       186       340       341      1820      1824      1822
 -1       525    8    0    1
 -2       188       187       342      1359      1825      1826
 -1       526    8    0    1
 -2       187       341       342      1823      1827      1825
 -1       527    8    0    1
 -2       189       188       343      1362      1828      1829
 -1       528    8    0    1
 -2       188       342       343      1826      1830      1828
 -1       529    8    0    1
 -2       190       189       344      1365      1831      1832
 -1       530    8    0    1
 -2       189       343       344      1829      1833      1831
 -1       531    8    0    1
 -2       191       190       345      1368      1834      1835
 -1       532    8    0    1
 -2       190       344       345      1832      1836      1834
 -1       533    8    0    1
 -2       192       191       346      1371      1837      1838
 -1       534    8    0    1
 -2       191       345       346      1835      1839      1837
 -1       535    8    0    1
 -2       193       192       347      1374      1840      1841
 -1       536    8    0    1
 -2       192       346       347      1838      1842      1840
 -1       537    8    0    1
 -2       194       193       348      1377      1843      1844
 -1       538    8    0    1
 -2       193       347       348      1841      1845      1843
 -1       539    8    0    1
 -2       195       194       349      1380      1846      1847
 -1       540    8    0    1
 -2       194       348       349      1844      1848      1846
 -1       541    8    0    1
 -2       196       195       350      1383      1849      1850
 -1       542    8    0    1
 -2       195       349       350      1847      1851      1849
 -1       543    8    0    1
 -2       197       196       351      1386      1852      1853
 -1       544    8    0    1
 -2       196       350       351      1850      1854      1852
 -1       545    8    0    1
 -2       198       197       352      1389      1855      1856
 -1       546    8    0    1
 -2       197       351       352      1853      1857      1855
 -1       547    8    0    1
 -2       199       198       353      1392      1858      1859
 -1       548    8    0    1
 -2       198       352       353      1856      1860      1858
 -1       549    8    0    1
 -2       200       199       354      1395      1861      1862
 -1       550    8    0    1
 -2       199       353       354      1859      1863      1861
 -1       551    8    0    1
 -2       201       200       355      1398      1864      1865
 -1       552    8    0    1
 -2       200       354       355      1862      1866      1864
 -1       553    8    0    1
 -2       202       201       356      1401      1867      1868
 -1       554    8    0    1
 -2       201       355       356      1865      1869      1867
 -1       555    8    0    1
 -2       203       202       357      1404      1870      1871
 -1       556    8    0    1
 -2       202       356       357      1868      1872      1870
 -1       557    8    0    1
 -2       204       203       358      1407      1873      1874
 -1       558    8    0    1
 -2       203       357       358      1871      1875      1873
 -1       559    8    0    1
 -2       205       204       359      1410      1876      1877
 -1       560    8    0    1
 -2       204       358       359      1874      1878      1876
 -1       561    8    0    1
 -2       206       205       360      1413      1879      1880
 -1       562    8    0    1
 -2       205       359       360      1877      1881      1879
 -1       563    8    0    1
 -2       207       206       361      1416      1882      1883
 -1       564    8    0    1
 -2       206       360       361      1880      1884      1882
 -1       565    8    0    1
 -2       208       207       362      1419      1885      1886
 -1       566    8    0    1
 -2       207       361       362      1883      1887      1885
 -1       567    8    0    1
 -2       209       208       363      1422      1888      1889
 -1       568    8    0    1
 -2       208       362       363      1886      1890      1888
 -1       569    8    0    1
 -2       210       209       364      1425      1891      1892
 -1       570    8    0    1
 -2       209       363       364      1889      1893      1891
 -1       571    8    0    1
 -2       211       210       365      1428      1894      1895
 -1       572    8    0    1
 -2       210       364       365      1892      1896      1894
 -1       573    8    0    1
 -2       212       211       366      1431      1897      1898
 -1       574    8    0    1
 -2       211       365       366      1895      1899      1897
 -1       575    8    0    1
 -2       213       212       367      1434      1900      1901
 -1       576    8    0    1
 -2       212       366       367      1898      1902      1900
 -1       577    8    0    1
 -2       214       213       368      1437      1903      1904
 -1       578    8    0    1
 -2       213       367       368      1901      1905      1903
 -1       579    8    0    1
 -2       215       214       369      1440      1906      1907
 -1       580    8    0    1
 -2       214       368       369      1904      1908      1906
 -1       581    8    0    1
 -2       216       215       370      1443      1909      1910
 -1       582    8    0    1
 -2       215       369       370      1907      1911      1909
 -1       583    8    0    1
 -2       217       216       371      1446      1912      1913
 -1       584    8    0    1
 -2       216       370       371      1910      1914      1912
 -1       585    8    0    1
 -2       218       217       372      1449      1915      1916
 -1       586    8    0    1
 -2       217       371       372      1913      1917      1915
 -1       587    8    0    1
 -2       219       218       373      1452      1918      1919
 -1       588    8    0    1
 -2       218       372       373      1916      1920      1918
 -1       589    8    0    1
 -2       220       219       374      1455      1921      1922
 -1       590    8    0    1
 -2       219       373       374      1919      1923      1921
 -1       591    8    0    1
 -2       221       220       375      1458      1924      1925
 -1       592    8    0    1
 -2       220       374       375      1922      1926      1924
 -1       593    8    0    1
 -2       222       221       376      1461      1927      1928
 -1       594    8    0    1
 -2       221       375       376      1925      1929      1927
 -1       595    8    0    1
 -2       223       222       377      1464      1930      1931
 -1       596    8    0    1
 -2       222       376       377      1928      1932      1930
 -1       597    8    0    1
 -2       224       223       378      1467      1933      1934
 -1       598    8    0    1
 -2       223       377       378      1931      1935      1933
 -1       599    8    0    1
 -2       225       224       379      1470      1936      1937
 -1       600    8    0    1
 -2       224       378       379      1934      1938      1936
 -1       601    8    0    1
 -2       226       225       380      1473      1939      1940
 -1       602    8    0    1
 -2       225       379       380      1937      1941      1939
 -1       603    8    0    1
 -2       227       226       381      1476      1942      1943
 -1       604    8    0    1
 -2       226       380       381      1940      1944      1942
 -1       605    8    0    1
 -2       228       227       382      1479      1945      1946
 -1       606    8    0    1
 -2       291       228       382      1671      1946      1947
 -1       607    8    0    1
 -2       227       381       382      1943      1948      1945
 -1       608    8    0    1
 -2       230       231       383      1490      1949      1950
 -1       609    8    0    1
 -2       230       383       336      1950      1951      1807
 -1       610    8    0    1
 -2       231       232       384      1493      1952      1953
 -1       611    8    0    1
 -2       231       384       383      1953      1954      1949
 -1       612    8    0    1
 -2       232       233       385      1496      1955      1956
 -1       613    8    0    1
 -2       232       385       384      1956      1957      1952
 -1       614    8    0    1
 -2       233       234       386      1499      1958      1959
 -1       615    8    0    1
 -2       233       386       385      1959      1960      1955
 -1       616    8    0    1
 -2       234       235       387      1502      1961      1962
 -1       617    8    0    1
 -2       234       387       386      1962      1963      1958
 -1       618    8    0    1
 -2       235       236       388      1505      1964      1965
 -1       619    8    0    1
 -2       235       388       387      1965      1966      1961
 -1       620    8    0    1
 -2       236       237       389      1508      1967      1968
 -1       621    8    0    1
 -2       236       389       388      1968      1969      1964
 -1       622    8    0    1
 -2       237       238       390      1511      1970      1971
 -1       623    8    0    1
 -2       237       390       389      1971      1972      1967
 -1       624    8    0    1
 -2       238       239       391      1514      1973      1974
 -1       625    8    0    1
 -2       238       391       390      1974      1975      1970
 -1       626    8    0    1
 -2       239       240       392      1517      1976      1977
 -1       627    8    0    1
 -2       239       392       391      1977      1978      1973
 -1       628    8    0    1
 -2       240       241       393      1520      1979      1980
 -1       629    8    0    1
 -2       240       393       392      1980      1981      1976
 -1       630    8    0    1
 -2       241       242       394      1523      1982      1983
 -1       631    8    0    1
 -2       241       394       393      1983      1984      1979
 -1       632    8    0    1
 -2       242       243       395      1526      1985      1986
 -1       633    8    0    1
 -2       242       395       394      1986      1987      1982
 -1       634    8    0    1
 -2       243       244       396      1529      1988      1989
 -1       635    8    0    1
 -2       243       396       395      1989      1990      1985
 -1       636    8    0    1
 -2       244       245       397      1532      1991      1992
 -1       637    8    0    1
 -2       244       397       396      1992      1993      1988
 -1       638    8    0    1
 -2       245       246       398      1535      1994      1995
 -1       639    8    0    1
 -2       245       398       397      1995      1996      1991
 -1       640    8    0    1
 -2       246       247       399      1538      1997      1998
 -1       641    8    0    1
 -2       246       399       398      1998      1999      1994
 -1       642    8    0    1
 -2       247       248       400      1541      2000      2001
 -1       643    8    0    1
 -2       247       400       399      2001      2002      1997
 -1       644    8    0    1
 -2       248       249       401      1544      2003      2004
 -1       645    8    0    1
 -2       248       401       400      2004      2005      2000
 -1       646    8    0    1
 -2       249       250       402      1547      2006      2007
 -1       647    8    0    1
 -2       249       402       401      2007      2008      2003
 -1       648    8    0    1
 -2       250       251       403      1550      2009      2010
 -1       649    8    0    1
 -2       250       403       402      2010      2011      2006
 -1       650    8    0    1
 -2       251       252       404      1553      2012      2013
 -1       651    8    0    1
 -2       251       404       403      2013      2014      2009
 -1       652    8    0    1
 -2       252       253       405      1556      2015      2016
 -1       653    8    0    1
 -2       252       405       404      2016      2017      2012
 -1       654    8    0    1
 -2       253       254       406      1559      2018      2019
 -1       655    8    0    1
 -2       253       406       405      2019      2020      2015
 -1       656    8    0    1
 -2       254       255       407      1562      2021      2022
 -1       657    8    0    1
 -2       254       407       406      2022      2023      2018
 -1       658    8    0    1
 -2       255       256       408      1565      2024      2025
 -1       659    8    0    1
 -2       255       408       407      2025      2026      2021
 -1       660    8    0    1
 -2       256       257       409      1568      2027      2028
 -1       661    8    0    1
 -2       256       409       408      2028      2029      2024
 -1       662    8    0    1
 -2       257       258       410      1571      2030      2031
 -1       663    8    0    1
 -2       257       410       409      2031      2032      2027
 -1       664    8    0    1
 -2       258       259       411      1574      2033      2034
 -1       665    8    0    1
 -2       258       411       410      2034      2035      2030
 -1       666    8    0    1
 -2       259       260       412      1577      2036      2037
 -1       667    8    0    1
 -2       259       412       411      2037      2038      2033
 -1       668    8    0    1
 -2       260       261       413      1580      2039      2040
 -1       669    8    0    1
 -2       260       413       412      2040      2041      2036
 -1       670    8    0    1
 -2       261       262       414      1583      2042      2043
 -1       671    8    0    1
 -2       261       414       413      2043      2044      2039
 -1       672    8    0    1
 -2       262       263       415      1586      2045      2046
 -1       673    8    0    1
 -2       262       415       414      2046      2047      2042
 -1       674    8    0    1
 -2       263       264       416      1589      2048      2049
 -1       675    8    0    1
 -2       263       416       415      2049      2050      2045
 -1       676    8    0    1
 -2       264       265       417      1592      2051      2052
 -1       677    8    0    1
 -2       264       417       416      2052      2053      2048
 -1       678    8    0    1
 -2       265       266       418      1595      2054      2055
 -1       679    8    0    1
 -2       265       418       417      2055      2056      2051
 -1       680    8    0    1
 -2       266       267       419      1598      2057      2058
 -1       681    8    0    1
 -2       266       419       418      2058      2059      2054
 -1       682    8    0    1
 -2       267       268       420      1601      2060      2061
 -1       683    8    0    1
 -2       267       420       419      2061      2062      2057
 -1       684    8    0    1
 -2       268       269       421      1604      2063      2064
 -1       685    8    0    1
 -2       268       421       420      2064      2065      2060
 -1       686    8    0    1
 -2       269       270       422      1607      2066      2067
 -1       687    8    0    1
 -2       269       422       421      2067      2068      2063
 -1       688    8    0    1
 -2       270       271       423      1610      2069      2070
 -1       689    8    0    1
 -2       270       423       422      2070      2071      2066
 -1       690    8    0    1
 -2       271       272       424      1613      2072      2073
 -1       691    8    0    1
 -2       271       424       423      2073      2074      2069
 -1       692    8    0    1
 -2       272       273       425      1616      2075      2076
 -1       693    8    0    1
 -2       272       425       424      2076      2077      2072
 -1       694    8    0    1
 -2       273       274       426      1619      2078      2079
 -1       695    8    0    1
 -2       273       426       425      2079      2080      2075
 -1       696    8    0    1
 -2       274       275       427      1622      2081      2082
 -1       697    8    0    1
 -2       274       427       426      2082      2083      2078
 -1       698    8    0    1
 -2       275       276       428      1625      2084      2085
 -1       699    8    0    1
 -2       427       275       428      2081      2085      2086
 -1       700    8    0    1
 -2       276       277       428      1735      2087      2084
 -1       701    8    0    1
 -2       279       280       429      1637      2088      2089
 -1       702    8    0    1
 -2       278       279       430      1634      2090      2091
 -1       703    8    0    1
 -2       279       429       430      2089      2092      2090
 -1       704    8    0    1
 -2       277       278       431      1631      2093      2094
 -1       705    8    0    1
 -2       428       277       431      2087      2094      2095
 -1       706    8    0    1
 -2       278       430       431      2091      2096      2093
 -1       707    8    0    1
 -2       280       281       432      1640      2097      2098
 -1       708    8    0    1
 -2       280       432       429      2098      2099      2088
 -1       709    8    0    1
 -2       281       282       433      1643      2100      2101
 -1       710    8    0    1
 -2       281       433       432      2101      2102      2097
 -1       711    8    0    1
 -2       282       283       434      1646      2103      2104
 -1       712    8    0    1
 -2       282       434       433      2104      2105      2100
 -1       713    8    0    1
 -2       283       284       435      1649      2106      2107
 -1       714    8    0    1
 -2       283       435       434      2107      2108      2103
 -1       715    8    0    1
 -2       284       285       436      1652      2109      2110
 -1       716    8    0    1
 -2       284       436       435      2110      2111      2106
 -1       717    8    0    1
 -2       285       286       437      1655      2112      2113
 -1       718    8    0    1
 -2       285       437       436      2113      2114      2109
 -1       719    8    0    1
 -2       286       287       438      1658      2115      2116
 -1       720    8    0    1
 -2       286       438       437      2116      2117      2112
 -1       721    8    0    1
 -2       287       288       439      1661      2118      2119
 -1       722    8    0    1
 -2       287       439       438      2119      2120      2115
 -1       723    8    0    1
 -2       288       289       440      1664      2121      2122
 -1       724    8    0    1
 -2       288       440       439      2122      2123      2118
 -1       725    8    0    1
 -2       289       290       441      1667      2124      2125
 -1       726    8    0    1
 -2       289       441       440      2125      2126      2121
 -1       727    8    0    1
 -2       293       294       442      1737      2127      2128
 -1       728    8    0    1
 -2       321       292       443      1738      2129      2130
 -1       729    8    0    1
 -2       292       293       444      1736      2131      2132
 -1       730    8    0    1
 -2       292       444       443      2132      2133      2129
 -1       731    8    0    1
 -2       294       295       445      1733      2134      2135
 -1       732    8    0    1
 -2       294       445       442      2135      2136      2127
 -1       733    8    0    1
 -2       295       296       446      1732      2137      2138
 -1       734    8    0    1
 -2       167       168       447      1299      2139      2140
 -1       735    8    0    1
 -2       322       167       447      1765      2140      2141
 -1       736    8    0    1
 -2       168       324       447      1771      2142      2139
 -1       737    8    0    1
 -2       297       298       448      1740      2143      2144
 -1       738    8    0    1
 -2       298       299       449      1741      2145      2146
 -1       739    8    0    1
 -2       299       300       450      1742      2147      2148
 -1       740    8    0    1
 -2       300       301       451      1743      2149      2150
 -1       741    8    0    1
 -2       301       302       452      1744      2151      2152
 -1       742    8    0    1
 -2       302       303       453      1745      2153      2154
 -1       743    8    0    1
 -2       302       453       452      2154      2155      2151
 -1       744    8    0    1
 -2       303       304       454      1746      2156      2157
 -1       745    8    0    1
 -2       304       305       455      1747      2158      2159
 -1       746    8    0    1
 -2       305       306       456      1748      2160      2161
 -1       747    8    0    1
 -2       305       456       455      2161      2162      2158
 -1       748    8    0    1
 -2       306       307       457      1749      2163      2164
 -1       749    8    0    1
 -2       307       308       458      1750      2165      2166
 -1       750    8    0    1
 -2       308       309       459      1751      2167      2168
 -1       751    8    0    1
 -2       309       310       460      1752      2169      2170
 -1       752    8    0    1
 -2       310       311       461      1753      2171      2172
 -1       753    8    0    1
 -2       310       461       460      2172      2173      2169
 -1       754    8    0    1
 -2       311       312       462      1754      2174      2175
 -1       755    8    0    1
 -2       312       313       463      1755      2176      2177
 -1       756    8    0    1
 -2       312       463       462      2177      2178      2174
 -1       757    8    0    1
 -2       313       314       464      1756      2179      2180
 -1       758    8    0    1
 -2       314       315       465      1757      2181      2182
 -1       759    8    0    1
 -2       314       465       464      2182      2183      2179
 -1       760    8    0    1
 -2       315       316       466      1758      2184      2185
 -1       761    8    0    1
 -2       316       317       467      1759      2186      2187
 -1       762    8    0    1
 -2       316       467       466      2187      2188      2184
 -1       763    8    0    1
 -2       317       318       468      1760      2189      2190
 -1       764    8    0    1
 -2       318       319       469      1761      2191      2192
 -1       765    8    0    1
 -2       319       320       470      1762      2193      2194
 -1       766    8    0    1
 -2       320       321       471      1763      2195      2196
 -1       767    8    0    1
 -2       320       471       470      2196      2197      2193
 -1       768    8    0    1
 -2       296       297       472      1739      2198      2199
 -1       769    8    0    1
 -2       181       323       182      1810      2200      1341
 -1       770    8    0    1
 -2       450       300       451      2147      2150      2201
 -1       771    8    0    1
 -2       297       448       472      2144      2202      2198
 -1       772    8    0    1
 -2       337       182       323      1811      2200      2203
 -1       773    8    0    1
 -2       444       293       442      2131      2128      2204
 -1       774    8    0    1
 -2       441       290       291      2124      1670      2205
 -1       775    8    0    1
 -2       295       446       445      2138      2206      2134
 -1       776    8    0    1
 -2       321       443       471      2130      2207      2195
 -1       777    8    0    1
 -2       446       296       472      2137      2199      2208
 -1       778    8    0    1
 -2       469       319       470      2191      2194      2209
 -1       779    8    0    1
 -2       467       317       468      2186      2190      2210
 -1       780    8    0    1
 -2       465       315       466      2181      2185      2211
 -1       781    8    0    1
 -2       463       313       464      2176      2180      2212
 -1       782    8    0    1
 -2       461       311       462      2171      2175      2213
 -1       783    8    0    1
 -2       459       309       460      2167      2170      2214
 -1       784    8    0    1
 -2       458       308       459      2165      2168      2215
 -1       785    8    0    1
 -2       456       306       457      2160      2164      2216
 -1       786    8    0    1
 -2       453       303       454      2153      2157      2217
 -1       787    8    0    1
 -2       451       301       452      2149      2152      2218
 -1       788    8    0    1
 -2       448       298       449      2143      2146      2219
 -1       789    8    0    1
 -2       449       299       450      2145      2148      2220
 -1       790    8    0    1
 -2       454       304       455      2156      2159      2221
 -1       791    8    0    1
 -2       457       307       458      2163      2166      2222
 -1       792    8    0    1
 -2       468       318       469      2189      2192      2223
 -1       793    8    0    1
 -2       336       383       473      1951      2224      2225
 -1       794    8    0    1
 -2       325       326       474      1777      2226      2227
 -1       795    8    0    1
 -2       324       325       475      1774      2228      2229
 -1       796    8    0    1
 -2       325       474       475      2227      2230      2228
 -1       797    8    0    1
 -2       327       328       476      1783      2231      2232
 -1       798    8    0    1
 -2       328       329       477      1786      2233      2234
 -1       799    8    0    1
 -2       328       477       476      2234      2235      2231
 -1       800    8    0    1
 -2       329       330       478      1789      2236      2237
 -1       801    8    0    1
 -2       329       478       477      2237      2238      2233
 -1       802    8    0    1
 -2       330       331       479      1792      2239      2240
 -1       803    8    0    1
 -2       330       479       478      2240      2241      2236
 -1       804    8    0    1
 -2       331       332       480      1795      2242      2243
 -1       805    8    0    1
 -2       331       480       479      2243      2244      2239
 -1       806    8    0    1
 -2       332       333       481      1798      2245      2246
 -1       807    8    0    1
 -2       332       481       480      2246      2247      2242
 -1       808    8    0    1
 -2       383       384       482      1954      2248      2249
 -1       809    8    0    1
 -2       383       482       473      2249      2250      2224
 -1       810    8    0    1
 -2       338       337       483      1815      2251      2252
 -1       811    8    0    1
 -2       450       451       484      2201      2253      2254
 -1       812    8    0    1
 -2       339       338       485      1818      2255      2256
 -1       813    8    0    1
 -2       338       483       485      2252      2257      2255
 -1       814    8    0    1
 -2       340       339       486      1821      2258      2259
 -1       815    8    0    1
 -2       339       485       486      2256      2260      2258
 -1       816    8    0    1
 -2       341       340       487      1824      2261      2262
 -1       817    8    0    1
 -2       340       486       487      2259      2263      2261
 -1       818    8    0    1
 -2       342       341       488      1827      2264      2265
 -1       819    8    0    1
 -2       341       487       488      2262      2266      2264
 -1       820    8    0    1
 -2       343       342       489      1830      2267      2268
 -1       821    8    0    1
 -2       342       488       489      2265      2269      2267
 -1       822    8    0    1
 -2       344       343       490      1833      2270      2271
 -1       823    8    0    1
 -2       343       489       490      2268      2272      2270
 -1       824    8    0    1
 -2       345       344       491      1836      2273      2274
 -1       825    8    0    1
 -2       344       490       491      2271      2275      2273
 -1       826    8    0    1
 -2       346       345       492      1839      2276      2277
 -1       827    8    0    1
 -2       345       491       492      2274      2278      2276
 -1       828    8    0    1
 -2       347       346       493      1842      2279      2280
 -1       829    8    0    1
 -2       346       492       493      2277      2281      2279
 -1       830    8    0    1
 -2       348       347       494      1845      2282      2283
 -1       831    8    0    1
 -2       347       493       494      2280      2284      2282
 -1       832    8    0    1
 -2       349       348       495      1848      2285      2286
 -1       833    8    0    1
 -2       348       494       495      2283      2287      2285
 -1       834    8    0    1
 -2       350       349       496      1851      2288      2289
 -1       835    8    0    1
 -2       349       495       496      2286      2290      2288
 -1       836    8    0    1
 -2       351       350       497      1854      2291      2292
 -1       837    8    0    1
 -2       350       496       497      2289      2293      2291
 -1       838    8    0    1
 -2       352       351       498      1857      2294      2295
 -1       839    8    0    1
 -2       351       497       498      2292      2296      2294
 -1       840    8    0    1
 -2       353       352       499      1860      2297      2298
 -1       841    8    0    1
 -2       352       498       499      2295      2299      2297
 -1       842    8    0    1
 -2       354       353       500      1863      2300      2301
 -1       843    8    0    1
 -2       353       499       500      2298      2302      2300
 -1       844    8    0    1
 -2       355       354       501      1866      2303      2304
 -1       845    8    0    1
 -2       354       500       501      2301      2305      2303
 -1       846    8    0    1
 -2       356       355       502      1869      2306      2307
 -1       847    8    0    1
 -2       355       501       502      2304      2308      2306
 -1       848    8    0    1
 -2       357       356       503      1872      2309      2310
 -1       849    8    0    1
 -2       356       502       503      2307      2311      2309
 -1       850    8    0    1
 -2       358       357       504      1875      2312      2313
 -1       851    8    0    1
 -2       357       503       504      2310      2314      2312
 -1       852    8    0    1
 -2       359       358       505      1878      2315      2316
 -1       853    8    0    1
 -2       358       504       505      2313      2317      2315
 -1       854    8    0    1
 -2       360       359       506      1881      2318      2319
 -1       855    8    0    1
 -2       359       505       506      2316      2320      2318
 -1       856    8    0    1
 -2       361       360       507      1884      2321      2322
 -1       857    8    0    1
 -2       360       506       507      2319      2323      2321
 -1       858    8    0    1
 -2       362       361       508      1887      2324      2325
 -1       859    8    0    1
 -2       361       507       508      2322      2326      2324
 -1       860    8    0    1
 -2       363       362       509      1890      2327      2328
 -1       861    8    0    1
 -2       362       508       509      2325      2329      2327
 -1       862    8    0    1
 -2       364       363       510      1893      2330      2331
 -1       863    8    0    1
 -2       363       509       510      2328      2332      2330
 -1       864    8    0    1
 -2       365       364       511      1896      2333      2334
 -1       865    8    0    1
 -2       364       510       511      2331      2335      2333
 -1       866    8    0    1
 -2       366       365       512      1899      2336      2337
 -1       867    8    0    1
 -2       365       511       512      2334      2338      2336
 -1       868    8    0    1
 -2       367       366       513      1902      2339      2340
 -1       869    8    0    1
 -2       366       512       513      2337      2341      2339
 -1       870    8    0    1
 -2       368       367       514      1905      2342      2343
 -1       871    8    0    1
 -2       367       513       514      2340      2344      2342
 -1       872    8    0    1
 -2       369       368       515      1908      2345      2346
 -1       873    8    0    1
 -2       368       514       515      2343      2347      2345
 -1       874    8    0    1
 -2       370       369       516      1911      2348      2349
 -1       875    8    0    1
 -2       369       515       516      2346      2350      2348
 -1       876    8    0    1
 -2       371       370       517      1914      2351      2352
 -1       877    8    0    1
 -2       370       516       517      2349      2353      2351
 -1       878    8    0    1
 -2       372       371       518      1917      2354      2355
 -1       879    8    0    1
 -2       371       517       518      2352      2356      2354
 -1       880    8    0    1
 -2       373       372       519      1920      2357      2358
 -1       881    8    0    1
 -2       372       518       519      2355      2359      2357
 -1       882    8    0    1
 -2       374       373       520      1923      2360      2361
 -1       883    8    0    1
 -2       373       519       520      2358      2362      2360
 -1       884    8    0    1
 -2       375       374       521      1926      2363      2364
 -1       885    8    0    1
 -2       374       520       521      2361      2365      2363
 -1       886    8    0    1
 -2       376       375       522      1929      2366      2367
 -1       887    8    0    1
 -2       375       521       522      2364      2368      2366
 -1       888    8    0    1
 -2       377       376       523      1932      2369      2370
 -1       889    8    0    1
 -2       376       522       523      2367      2371      2369
 -1       890    8    0    1
 -2       378       377       524      1935      2372      2373
 -1       891    8    0    1
 -2       377       523       524      2370      2374      2372
 -1       892    8    0    1
 -2       379       378       525      1938      2375      2376
 -1       893    8    0    1
 -2       378       524       525      2373      2377      2375
 -1       894    8    0    1
 -2       380       379       526      1941      2378      2379
 -1       895    8    0    1
 -2       379       525       526      2376      2380      2378
 -1       896    8    0    1
 -2       381       380       527      1944      2381      2382
 -1       897    8    0    1
 -2       380       526       527      2379      2383      2381
 -1       898    8    0    1
 -2       385       386       528      1960      2384      2385
 -1       899    8    0    1
 -2       386       387       529      1963      2386      2387
 -1       900    8    0    1
 -2       386       529       528      2387      2388      2384
 -1       901    8    0    1
 -2       387       388       530      1966      2389      2390
 -1       902    8    0    1
 -2       387       530       529      2390      2391      2386
 -1       903    8    0    1
 -2       388       389       531      1969      2392      2393
 -1       904    8    0    1
 -2       388       531       530      2393      2394      2389
 -1       905    8    0    1
 -2       389       390       532      1972      2395      2396
 -1       906    8    0    1
 -2       389       532       531      2396      2397      2392
 -1       907    8    0    1
 -2       390       391       533      1975      2398      2399
 -1       908    8    0    1
 -2       390       533       532      2399      2400      2395
 -1       909    8    0    1
 -2       391       392       534      1978      2401      2402
 -1       910    8    0    1
 -2       391       534       533      2402      2403      2398
 -1       911    8    0    1
 -2       392       393       535      1981      2404      2405
 -1       912    8    0    1
 -2       392       535       534      2405      2406      2401
 -1       913    8    0    1
 -2       393       394       536      1984      2407      2408
 -1       914    8    0    1
 -2       393       536       535      2408      2409      2404
 -1       915    8    0    1
 -2       394       395       537      1987      2410      2411
 -1       916    8    0    1
 -2       394       537       536      2411      2412      2407
 -1       917    8    0    1
 -2       395       396       538      1990      2413      2414
 -1       918    8    0    1
 -2       395       538       537      2414      2415      2410
 -1       919    8    0    1
 -2       396       397       539      1993      2416      2417
 -1       920    8    0    1
 -2       396       539       538      2417      2418      2413
 -1       921    8    0    1
 -2       400       401       540      2005      2419      2420
 -1       922    8    0    1
 -2       401       402       541      2008      2421      2422
 -1       923    8    0    1
 -2       402       403       542      2011      2423      2424
 -1       924    8    0    1
 -2       403       404       543      2014      2425      2426
 -1       925    8    0    1
 -2       403       543       542      2426      2427      2423
 -1       926    8    0    1
 -2       404       405       544      2017      2428      2429
 -1       927    8    0    1
 -2       404       544       543      2429      2430      2425
 -1       928    8    0    1
 -2       405       406       545      2020      2431      2432
 -1       929    8    0    1
 -2       405       545       544      2432      2433      2428
 -1       930    8    0    1
 -2       406       407       546      2023      2434      2435
 -1       931    8    0    1
 -2       406       546       545      2435      2436      2431
 -1       932    8    0    1
 -2       407       408       547      2026      2437      2438
 -1       933    8    0    1
 -2       407       547       546      2438      2439      2434
 -1       934    8    0    1
 -2       408       409       548      2029      2440      2441
 -1       935    8    0    1
 -2       408       548       547      2441      2442      2437
 -1       936    8    0    1
 -2       409       410       549      2032      2443      2444
 -1       937    8    0    1
 -2       409       549       548      2444      2445      2440
 -1       938    8    0    1
 -2       410       411       550      2035      2446      2447
 -1       939    8    0    1
 -2       410       550       549      2447      2448      2443
 -1       940    8    0    1
 -2       411       412       551      2038      2449      2450
 -1       941    8    0    1
 -2       411       551       550      2450      2451      2446
 -1       942    8    0    1
 -2       412       413       552      2041      2452      2453
 -1       943    8    0    1
 -2       412       552       551      2453      2454      2449
 -1       944    8    0    1
 -2       413       414       553      2044      2455      2456
 -1       945    8    0    1
 -2       413       553       552      2456      2457      2452
 -1       946    8    0    1
 -2       414       415       554      2047      2458      2459
 -1       947    8    0    1
 -2       414       554       553      2459      2460      2455
 -1       948    8    0    1
 -2       415       416       555      2050      2461      2462
 -1       949    8    0    1
 -2       415       555       554      2462      2463      2458
 -1       950    8    0    1
 -2       416       417       556      2053      2464      2465
 -1       951    8    0    1
 -2       416       556       555      2465      2466      2461
 -1       952    8    0    1
 -2       417       418       557      2056      2467      2468
 -1       953    8    0    1
 -2       417       557       556      2468      2469      2464
 -1       954    8    0    1
 -2       418       419       558      2059      2470      2471
 -1       955    8    0    1
 -2       418       558       557      2471      2472      2467
 -1       956    8    0    1
 -2       419       420       559      2062      2473      2474
 -1       957    8    0    1
 -2       419       559       558      2474      2475      2470
 -1       958    8    0    1
 -2       420       421       560      2065      2476      2477
 -1       959    8    0    1
 -2       420       560       559      2477      2478      2473
 -1       960    8    0    1
 -2       421       422       561      2068      2479      2480
 -1       961    8    0    1
 -2       421       561       560      2480      2481      2476
 -1       962    8    0    1
 -2       422       423       562      2071      2482      2483
 -1       963    8    0    1
 -2       422       562       561      2483      2484      2479
 -1       964    8    0    1
 -2       423       424       563      2074      2485      2486
 -1       965    8    0    1
 -2       423       563       562      2486      2487      2482
 -1       966    8    0    1
 -2       424       425       564      2077      2488      2489
 -1       967    8    0    1
 -2       424       564       563      2489      2490      2485
 -1       968    8    0    1
 -2       425       426       565      2080      2491      2492
 -1       969    8    0    1
 -2       425       565       564      2492      2493      2488
 -1       970    8    0    1
 -2       426       427       566      2083      2494      2495
 -1       971    8    0    1
 -2       426       566       565      2495      2496      2491
 -1       972    8    0    1
 -2       427       428       431      2086      2095      2497
 -1       973    8    0    1
 -2       432       433       567      2102      2498      2499
 -1       974    8    0    1
 -2       433       434       568      2105      2500      2501
 -1       975    8    0    1
 -2       433       568       567      2501      2502      2498
 -1       976    8    0    1
 -2       430       429       569      2092      2503      2504
 -1       977    8    0    1
 -2       429       432       570      2099      2505      2506
 -1       978    8    0    1
 -2       569       429       570      2503      2506      2507
 -1       979    8    0    1
 -2       432       567       570      2499      2508      2505
 -1       980    8    0    1
 -2       442       445       571      2136      2509      2510
 -1       981    8    0    1
 -2       434       435       572      2108      2511      2512
 -1       982    8    0    1
 -2       434       572       568      2512      2513      2500
 -1       983    8    0    1
 -2       435       436       573      2111      2514      2515
 -1       984    8    0    1
 -2       435       573       572      2515      2516      2511
 -1       985    8    0    1
 -2       436       437       574      2114      2517      2518
 -1       986    8    0    1
 -2       436       574       573      2518      2519      2514
 -1       987    8    0    1
 -2       437       438       575      2117      2520      2521
 -1       988    8    0    1
 -2       437       575       574      2521      2522      2517
 -1       989    8    0    1
 -2       438       439       576      2120      2523      2524
 -1       990    8    0    1
 -2       438       576       575      2524      2525      2520
 -1       991    8    0    1
 -2       439       440       577      2123      2526      2527
 -1       992    8    0    1
 -2       439       577       576      2527      2528      2523
 -1       993    8    0    1
 -2       440       441       578      2126      2529      2530
 -1       994    8    0    1
 -2       440       578       577      2530      2531      2526
 -1       995    8    0    1
 -2       441       291       382      2205      1947      2532
 -1       996    8    0    1
 -2       445       446       579      2206      2533      2534
 -1       997    8    0    1
 -2       384       385       580      1957      2535      2536
 -1       998    8    0    1
 -2       385       528       580      2385      2537      2535
 -1       999    8    0    1
 -2       443       444       581      2133      2538      2539
 -1      1000    8    0    1
 -2       471       443       582      2207      2540      2541
 -1      1001    8    0    1
 -2       446       472       583      2208      2542      2543
 -1      1002    8    0    1
 -2       469       470       584      2209      2544      2545
 -1      1003    8    0    1
 -2       459       460       585      2214      2546      2547
 -1      1004    8    0    1
 -2       453       454       586      2217      2548      2549
 -1      1005    8    0    1
 -2       451       452       587      2218      2550      2551
 -1      1006    8    0    1
 -2       326       327       588      1780      2552      2553
 -1      1007    8    0    1
 -2       474       326       588      2226      2553      2554
 -1      1008    8    0    1
 -2       327       476       588      2232      2555      2552
 -1      1009    8    0    1
 -2       449       450       589      2220      2556      2557
 -1      1010    8    0    1
 -2       454       455       590      2221      2558      2559
 -1      1011    8    0    1
 -2       472       448       591      2202      2560      2561
 -1      1012    8    0    1
 -2       448       449       540      2219      2562      2563
 -1      1013    8    0    1
 -2       452       453       592      2155      2564      2565
 -1      1014    8    0    1
 -2       457       458       593      2222      2566      2567
 -1      1015    8    0    1
 -2       455       456       594      2162      2568      2569
 -1      1016    8    0    1
 -2       468       469       595      2223      2570      2571
 -1      1017    8    0    1
 -2       456       457       596      2216      2572      2573
 -1      1018    8    0    1
 -2       458       459       597      2215      2574      2575
 -1      1019    8    0    1
 -2       458       597       593      2575      2576      2566
 -1      1020    8    0    1
 -2       460       461       598      2173      2577      2578
 -1      1021    8    0    1
 -2       461       462       599      2213      2579      2580
 -1      1022    8    0    1
 -2       461       599       598      2580      2581      2577
 -1      1023    8    0    1
 -2       462       463       600      2178      2582      2583
 -1      1024    8    0    1
 -2       463       464       601      2212      2584      2585
 -1      1025    8    0    1
 -2       463       601       600      2585      2586      2582
 -1      1026    8    0    1
 -2       464       465       602      2183      2587      2588
 -1      1027    8    0    1
 -2       465       466       603      2211      2589      2590
 -1      1028    8    0    1
 -2       466       467       604      2188      2591      2592
 -1      1029    8    0    1
 -2       467       468       605      2210      2593      2594
 -1      1030    8    0    1
 -2       468       595       605      2571      2595      2593
 -1      1031    8    0    1
 -2       470       471       606      2197      2596      2597
 -1      1032    8    0    1
 -2       337       323       607      2203      2598      2599
 -1      1033    8    0    1
 -2       483       337       607      2251      2599      2600
 -1      1034    8    0    1
 -2       323       322       607      1769      2601      2598
 -1      1035    8    0    1
 -2       335       336       608      1809      2602      2603
 -1      1036    8    0    1
 -2       334       335       608      1804      2603      2604
 -1      1037    8    0    1
 -2       336       473       608      2225      2605      2602
 -1      1038    8    0    1
 -2       444       442       609      2204      2606      2607
 -1      1039    8    0    1
 -2       449       589       540      2557      2608      2562
 -1      1040    8    0    1
 -2       324       475       610      2229      2609      2610
 -1      1041    8    0    1
 -2       324       610       447      2610      2611      2142
 -1      1042    8    0    1
 -2       482       384       580      2248      2536      2612
 -1      1043    8    0    1
 -2       333       334       608      1801      2604      2613
 -1      1044    8    0    1
 -2       609       442       571      2606      2510      2614
 -1      1045    8    0    1
 -2       595       469       584      2570      2545      2615
 -1      1046    8    0    1
 -2       594       456       596      2568      2573      2616
 -1      1047    8    0    1
 -2       450       484       589      2254      2617      2556
 -1      1048    8    0    1
 -2       460       598       585      2578      2618      2546
 -1      1049    8    0    1
 -2       592       453       586      2564      2549      2619
 -1      1050    8    0    1
 -2       445       579       571      2534      2620      2509
 -1      1051    8    0    1
 -2       400       540       589      2420      2608      2621
 -1      1052    8    0    1
 -2       540       401       541      2419      2422      2622
 -1      1053    8    0    1
 -2       397       398       611      1996      2623      2624
 -1      1054    8    0    1
 -2       399       400       589      2002      2621      2625
 -1      1055    8    0    1
 -2       397       611       539      2624      2626      2416
 -1      1056    8    0    1
 -2       402       542       541      2424      2627      2421
 -1      1057    8    0    1
 -2       427       431       566      2497      2628      2494
 -1      1058    8    0    1
 -2       431       430       612      2096      2629      2630
 -1      1059    8    0    1
 -2       566       431       612      2628      2630      2631
 -1      1060    8    0    1
 -2       430       569       612      2504      2632      2629
 -1      1061    8    0    1
 -2       441       382       613      2532      2633      2634
 -1      1062    8    0    1
 -2       578       441       613      2529      2634      2635
 -1      1063    8    0    1
 -2       382       381       613      1948      2636      2633
 -1      1064    8    0    1
 -2       579       446       583      2533      2543      2637
 -1      1065    8    0    1
 -2       333       608       481      2613      2638      2245
 -1      1066    8    0    1
 -2       581       444       609      2538      2607      2639
 -1      1067    8    0    1
 -2       587       452       592      2550      2565      2640
 -1      1068    8    0    1
 -2       471       582       606      2541      2641      2596
 -1      1069    8    0    1
 -2       586       454       614      2548      2642      2643
 -1      1070    8    0    1
 -2       454       590       614      2559      2644      2642
 -1      1071    8    0    1
 -2       607       322       447      2601      2141      2645
 -1      1072    8    0    1
 -2       604       467       605      2591      2594      2646
 -1      1073    8    0    1
 -2       603       466       615      2589      2647      2648
 -1      1074    8    0    1
 -2       466       604       615      2592      2649      2647
 -1      1075    8    0    1
 -2       601       464       602      2584      2588      2650
 -1      1076    8    0    1
 -2       599       462       600      2579      2583      2651
 -1      1077    8    0    1
 -2       597       459       616      2574      2652      2653
 -1      1078    8    0    1
 -2       459       585       616      2547      2654      2652
 -1      1079    8    0    1
 -2       596       457       593      2572      2567      2655
 -1      1080    8    0    1
 -2       584       470       606      2544      2597      2656
 -1      1081    8    0    1
 -2       583       472       591      2542      2561      2657
 -1      1082    8    0    1
 -2       582       443       581      2540      2539      2658
 -1      1083    8    0    1
 -2       613       381       527      2636      2382      2659
 -1      1084    8    0    1
 -2       451       587       484      2551      2660      2253
 -1      1085    8    0    1
 -2       590       455       594      2558      2569      2661
 -1      1086    8    0    1
 -2       602       465       603      2587      2590      2662
 -1      1087    8    0    1
 -2       399       589       484      2625      2617      2663
 -1      1088    8    0    1
 -2       477       478       617      2238      2664      2665
 -1      1089    8    0    1
 -2       476       477       618      2235      2666      2667
 -1      1090    8    0    1
 -2       477       617       618      2665      2668      2666
 -1      1091    8    0    1
 -2       479       480       619      2244      2669      2670
 -1      1092    8    0    1
 -2       480       481       620      2247      2671      2672
 -1      1093    8    0    1
 -2       480       620       619      2672      2673      2669
 -1      1094    8    0    1
 -2       473       482       621      2250      2674      2675
 -1      1095    8    0    1
 -2       581       609       622      2639      2676      2677
 -1      1096    8    0    1
 -2       482       580       623      2612      2678      2679
 -1      1097    8    0    1
 -2       482       623       621      2679      2680      2674
 -1      1098    8    0    1
 -2       608       473       481      2605      2681      2638
 -1      1099    8    0    1
 -2       486       485       624      2260      2682      2683
 -1      1100    8    0    1
 -2       487       486       625      2263      2684      2685
 -1      1101    8    0    1
 -2       486       624       625      2683      2686      2684
 -1      1102    8    0    1
 -2       488       487       626      2266      2687      2688
 -1      1103    8    0    1
 -2       487       625       626      2685      2689      2687
 -1      1104    8    0    1
 -2       489       488       627      2269      2690      2691
 -1      1105    8    0    1
 -2       488       626       627      2688      2692      2690
 -1      1106    8    0    1
 -2       490       489       628      2272      2693      2694
 -1      1107    8    0    1
 -2       489       627       628      2691      2695      2693
 -1      1108    8    0    1
 -2       491       490       629      2275      2696      2697
 -1      1109    8    0    1
 -2       490       628       629      2694      2698      2696
 -1      1110    8    0    1
 -2       492       491       630      2278      2699      2700
 -1      1111    8    0    1
 -2       491       629       630      2697      2701      2699
 -1      1112    8    0    1
 -2       493       492       631      2281      2702      2703
 -1      1113    8    0    1
 -2       492       630       631      2700      2704      2702
 -1      1114    8    0    1
 -2       494       493       632      2284      2705      2706
 -1      1115    8    0    1
 -2       493       631       632      2703      2707      2705
 -1      1116    8    0    1
 -2       495       494       633      2287      2708      2709
 -1      1117    8    0    1
 -2       494       632       633      2706      2710      2708
 -1      1118    8    0    1
 -2       496       495       634      2290      2711      2712
 -1      1119    8    0    1
 -2       495       633       634      2709      2713      2711
 -1      1120    8    0    1
 -2       497       496       635      2293      2714      2715
 -1      1121    8    0    1
 -2       496       634       635      2712      2716      2714
 -1      1122    8    0    1
 -2       498       497       636      2296      2717      2718
 -1      1123    8    0    1
 -2       497       635       636      2715      2719      2717
 -1      1124    8    0    1
 -2       499       498       637      2299      2720      2721
 -1      1125    8    0    1
 -2       498       636       637      2718      2722      2720
 -1      1126    8    0    1
 -2       500       499       638      2302      2723      2724
 -1      1127    8    0    1
 -2       499       637       638      2721      2725      2723
 -1      1128    8    0    1
 -2       501       500       639      2305      2726      2727
 -1      1129    8    0    1
 -2       500       638       639      2724      2728      2726
 -1      1130    8    0    1
 -2       502       501       640      2308      2729      2730
 -1      1131    8    0    1
 -2       501       639       640      2727      2731      2729
 -1      1132    8    0    1
 -2       503       502       641      2311      2732      2733
 -1      1133    8    0    1
 -2       502       640       641      2730      2734      2732
 -1      1134    8    0    1
 -2       504       503       642      2314      2735      2736
 -1      1135    8    0    1
 -2       503       641       642      2733      2737      2735
 -1      1136    8    0    1
 -2       505       504       643      2317      2738      2739
 -1      1137    8    0    1
 -2       504       642       643      2736      2740      2738
 -1      1138    8    0    1
 -2       506       505       644      2320      2741      2742
 -1      1139    8    0    1
 -2       505       643       644      2739      2743      2741
 -1      1140    8    0    1
 -2       507       506       645      2323      2744      2745
 -1      1141    8    0    1
 -2       506       644       645      2742      2746      2744
 -1      1142    8    0    1
 -2       508       507       646      2326      2747      2748
 -1      1143    8    0    1
 -2       507       645       646      2745      2749      2747
 -1      1144    8    0    1
 -2       509       508       647      2329      2750      2751
 -1      1145    8    0    1
 -2       508       646       647      2748      2752      2750
 -1      1146    8    0    1
 -2       510       509       648      2332      2753      2754
 -1      1147    8    0    1
 -2       509       647       648      2751      2755      2753
 -1      1148    8    0    1
 -2       511       510       649      2335      2756      2757
 -1      1149    8    0    1
 -2       510       648       649      2754      2758      2756
 -1      1150    8    0    1
 -2       512       511       650      2338      2759      2760
 -1      1151    8    0    1
 -2       511       649       650      2757      2761      2759
 -1      1152    8    0    1
 -2       513       512       651      2341      2762      2763
 -1      1153    8    0    1
 -2       512       650       651      2760      2764      2762
 -1      1154    8    0    1
 -2       514       513       652      2344      2765      2766
 -1      1155    8    0    1
 -2       513       651       652      2763      2767      2765
 -1      1156    8    0    1
 -2       515       514       653      2347      2768      2769
 -1      1157    8    0    1
 -2       514       652       653      2766      2770      2768
 -1      1158    8    0    1
 -2       516       515       654      2350      2771      2772
 -1      1159    8    0    1
 -2       515       653       654      2769      2773      2771
 -1      1160    8    0    1
 -2       517       516       655      2353      2774      2775
 -1      1161    8    0    1
 -2       516       654       655      2772      2776      2774
 -1      1162    8    0    1
 -2       518       517       656      2356      2777      2778
 -1      1163    8    0    1
 -2       517       655       656      2775      2779      2777
 -1      1164    8    0    1
 -2       519       518       657      2359      2780      2781
 -1      1165    8    0    1
 -2       518       656       657      2778      2782      2780
 -1      1166    8    0    1
 -2       520       519       658      2362      2783      2784
 -1      1167    8    0    1
 -2       519       657       658      2781      2785      2783
 -1      1168    8    0    1
 -2       521       520       659      2365      2786      2787
 -1      1169    8    0    1
 -2       520       658       659      2784      2788      2786
 -1      1170    8    0    1
 -2       522       521       660      2368      2789      2790
 -1      1171    8    0    1
 -2       521       659       660      2787      2791      2789
 -1      1172    8    0    1
 -2       523       522       661      2371      2792      2793
 -1      1173    8    0    1
 -2       522       660       661      2790      2794      2792
 -1      1174    8    0    1
 -2       524       523       662      2374      2795      2796
 -1      1175    8    0    1
 -2       523       661       662      2793      2797      2795
 -1      1176    8    0    1
 -2       525       524       663      2377      2798      2799
 -1      1177    8    0    1
 -2       524       662       663      2796      2800      2798
 -1      1178    8    0    1
 -2       526       525       664      2380      2801      2802
 -1      1179    8    0    1
 -2       525       663       664      2799      2803      2801
 -1      1180    8    0    1
 -2       527       526       665      2383      2804      2805
 -1      1181    8    0    1
 -2       526       664       665      2802      2806      2804
 -1      1182    8    0    1
 -2       529       530       666      2391      2807      2808
 -1      1183    8    0    1
 -2       579       583       667      2637      2809      2810
 -1      1184    8    0    1
 -2       528       529       668      2388      2811      2812
 -1      1185    8    0    1
 -2       529       666       668      2808      2813      2811
 -1      1186    8    0    1
 -2       531       532       669      2397      2814      2815
 -1      1187    8    0    1
 -2       532       533       670      2400      2816      2817
 -1      1188    8    0    1
 -2       532       670       669      2817      2818      2814
 -1      1189    8    0    1
 -2       533       534       671      2403      2819      2820
 -1      1190    8    0    1
 -2       533       671       670      2820      2821      2816
 -1      1191    8    0    1
 -2       534       535       672      2406      2822      2823
 -1      1192    8    0    1
 -2       534       672       671      2823      2824      2819
 -1      1193    8    0    1
 -2       535       536       673      2409      2825      2826
 -1      1194    8    0    1
 -2       535       673       672      2826      2827      2822
 -1      1195    8    0    1
 -2       536       537       674      2412      2828      2829
 -1      1196    8    0    1
 -2       536       674       673      2829      2830      2825
 -1      1197    8    0    1
 -2       537       538       675      2415      2831      2832
 -1      1198    8    0    1
 -2       537       675       674      2832      2833      2828
 -1      1199    8    0    1
 -2       538       539       614      2418      2834      2835
 -1      1200    8    0    1
 -2       611       398       587      2623      2836      2837
 -1      1201    8    0    1
 -2       398       399       484      1999      2663      2838
 -1      1202    8    0    1
 -2       542       543       667      2427      2839      2840
 -1      1203    8    0    1
 -2       545       546       676      2436      2841      2842
 -1      1204    8    0    1
 -2       546       547       677      2439      2843      2844
 -1      1205    8    0    1
 -2       546       677       676      2844      2845      2841
 -1      1206    8    0    1
 -2       547       548       678      2442      2846      2847
 -1      1207    8    0    1
 -2       547       678       677      2847      2848      2843
 -1      1208    8    0    1
 -2       548       549       679      2445      2849      2850
 -1      1209    8    0    1
 -2       548       679       678      2850      2851      2846
 -1      1210    8    0    1
 -2       549       550       680      2448      2852      2853
 -1      1211    8    0    1
 -2       549       680       679      2853      2854      2849
 -1      1212    8    0    1
 -2       550       551       681      2451      2855      2856
 -1      1213    8    0    1
 -2       550       681       680      2856      2857      2852
 -1      1214    8    0    1
 -2       551       552       682      2454      2858      2859
 -1      1215    8    0    1
 -2       551       682       681      2859      2860      2855
 -1      1216    8    0    1
 -2       552       553       683      2457      2861      2862
 -1      1217    8    0    1
 -2       552       683       682      2862      2863      2858
 -1      1218    8    0    1
 -2       553       554       684      2460      2864      2865
 -1      1219    8    0    1
 -2       553       684       683      2865      2866      2861
 -1      1220    8    0    1
 -2       554       555       685      2463      2867      2868
 -1      1221    8    0    1
 -2       554       685       684      2868      2869      2864
 -1      1222    8    0    1
 -2       555       556       686      2466      2870      2871
 -1      1223    8    0    1
 -2       555       686       685      2871      2872      2867
 -1      1224    8    0    1
 -2       556       557       687      2469      2873      2874
 -1      1225    8    0    1
 -2       556       687       686      2874      2875      2870
 -1      1226    8    0    1
 -2       557       558       688      2472      2876      2877
 -1      1227    8    0    1
 -2       557       688       687      2877      2878      2873
 -1      1228    8    0    1
 -2       558       559       689      2475      2879      2880
 -1      1229    8    0    1
 -2       558       689       688      2880      2881      2876
 -1      1230    8    0    1
 -2       559       560       690      2478      2882      2883
 -1      1231    8    0    1
 -2       559       690       689      2883      2884      2879
 -1      1232    8    0    1
 -2       560       561       691      2481      2885      2886
 -1      1233    8    0    1
 -2       560       691       690      2886      2887      2882
 -1      1234    8    0    1
 -2       561       562       692      2484      2888      2889
 -1      1235    8    0    1
 -2       561       692       691      2889      2890      2885
 -1      1236    8    0    1
 -2       562       563       693      2487      2891      2892
 -1      1237    8    0    1
 -2       562       693       692      2892      2893      2888
 -1      1238    8    0    1
 -2       563       564       694      2490      2894      2895
 -1      1239    8    0    1
 -2       563       694       693      2895      2896      2891
 -1      1240    8    0    1
 -2       564       565       695      2493      2897      2898
 -1      1241    8    0    1
 -2       564       695       694      2898      2899      2894
 -1      1242    8    0    1
 -2       565       566       696      2496      2900      2901
 -1      1243    8    0    1
 -2       695       565       696      2897      2901      2902
 -1      1244    8    0    1
 -2       566       612       696      2631      2903      2900
 -1      1245    8    0    1
 -2       572       573       697      2516      2904      2905
 -1      1246    8    0    1
 -2       578       613       698      2635      2906      2907
 -1      1247    8    0    1
 -2       613       527       698      2659      2908      2906
 -1      1248    8    0    1
 -2       567       568       699      2502      2909      2910
 -1      1249    8    0    1
 -2       595       584       700      2615      2911      2912
 -1      1250    8    0    1
 -2       573       574       701      2519      2913      2914
 -1      1251    8    0    1
 -2       573       701       697      2914      2915      2904
 -1      1252    8    0    1
 -2       568       572       702      2513      2916      2917
 -1      1253    8    0    1
 -2       699       568       702      2909      2917      2918
 -1      1254    8    0    1
 -2       572       697       702      2905      2919      2916
 -1      1255    8    0    1
 -2       574       575       703      2522      2920      2921
 -1      1256    8    0    1
 -2       574       703       701      2921      2922      2913
 -1      1257    8    0    1
 -2       575       576       704      2525      2923      2924
 -1      1258    8    0    1
 -2       575       704       703      2924      2925      2920
 -1      1259    8    0    1
 -2       576       577       705      2528      2926      2927
 -1      1260    8    0    1
 -2       576       705       704      2927      2928      2923
 -1      1261    8    0    1
 -2       577       578       698      2531      2907      2929
 -1      1262    8    0    1
 -2       580       528       706      2537      2930      2931
 -1      1263    8    0    1
 -2       623       580       706      2678      2931      2932
 -1      1264    8    0    1
 -2       528       668       706      2812      2933      2930
 -1      1265    8    0    1
 -2       591       448       540      2560      2563      2934
 -1      1266    8    0    1
 -2       605       595       707      2595      2935      2936
 -1      1267    8    0    1
 -2       587       398       484      2836      2838      2660
 -1      1268    8    0    1
 -2       611       587       592      2837      2640      2937
 -1      1269    8    0    1
 -2       594       596       708      2616      2938      2939
 -1      1270    8    0    1
 -2       596       593       709      2655      2940      2941
 -1      1271    8    0    1
 -2       571       579       710      2620      2942      2943
 -1      1272    8    0    1
 -2       544       545       711      2433      2944      2945
 -1      1273    8    0    1
 -2       545       676       711      2842      2946      2944
 -1      1274    8    0    1
 -2       543       544       712      2430      2947      2948
 -1      1275    8    0    1
 -2       544       711       712      2945      2949      2947
 -1      1276    8    0    1
 -2       530       531       713      2394      2950      2951
 -1      1277    8    0    1
 -2       666       530       713      2807      2951      2952
 -1      1278    8    0    1
 -2       531       669       713      2815      2953      2950
 -1      1279    8    0    1
 -2       485       483       714      2257      2954      2955
 -1      1280    8    0    1
 -2       485       714       624      2955      2956      2682
 -1      1281    8    0    1
 -2       609       571       715      2614      2957      2958
 -1      1282    8    0    1
 -2       604       605       716      2646      2959      2960
 -1      1283    8    0    1
 -2       605       707       716      2936      2961      2959
 -1      1284    8    0    1
 -2       590       594       717      2661      2962      2963
 -1      1285    8    0    1
 -2       478       479       718      2241      2964      2965
 -1      1286    8    0    1
 -2       617       478       718      2664      2965      2966
 -1      1287    8    0    1
 -2       479       619       718      2670      2967      2964
 -1      1288    8    0    1
 -2       607       447       610      2645      2611      2968
 -1      1289    8    0    1
 -2       582       581       719      2658      2969      2970
 -1      1290    8    0    1
 -2       581       622       719      2677      2971      2969
 -1      1291    8    0    1
 -2       606       582       720      2641      2972      2973
 -1      1292    8    0    1
 -2       584       606       721      2656      2974      2975
 -1      1293    8    0    1
 -2       584       721       700      2975      2976      2911
 -1      1294    8    0    1
 -2       475       474       722      2230      2977      2978
 -1      1295    8    0    1
 -2       602       603       723      2662      2979      2980
 -1      1296    8    0    1
 -2       585       598       724      2618      2981      2982
 -1      1297    8    0    1
 -2       593       597       725      2576      2983      2984
 -1      1298    8    0    1
 -2       598       599       726      2581      2985      2986
 -1      1299    8    0    1
 -2       599       600       727      2651      2987      2988
 -1      1300    8    0    1
 -2       599       727       726      2988      2989      2985
 -1      1301    8    0    1
 -2       600       601       728      2586      2990      2991
 -1      1302    8    0    1
 -2       601       602       729      2650      2992      2993
 -1      1303    8    0    1
 -2       611       592       539      2937      2994      2626
 -1      1304    8    0    1
 -2       610       475       730      2609      2995      2996
 -1      1305    8    0    1
 -2       475       722       730      2978      2997      2995
 -1      1306    8    0    1
 -2       476       618       731      2667      2998      2999
 -1      1307    8    0    1
 -2       476       731       588      2999      3000      2555
 -1      1308    8    0    1
 -2       481       473       621      2681      2675      3001
 -1      1309    8    0    1
 -2       606       720       732      2973      3002      3003
 -1      1310    8    0    1
 -2       606       732       721      3003      3004      2974
 -1      1311    8    0    1
 -2       609       715       622      2958      3005      2676
 -1      1312    8    0    1
 -2       527       665       698      2805      3006      2908
 -1      1313    8    0    1
 -2       579       667       710      2810      3007      2942
 -1      1314    8    0    1
 -2       591       540       541      2934      2622      3008
 -1      1315    8    0    1
 -2       582       719       720      2970      3009      2972
 -1      1316    8    0    1
 -2       538       614       675      2835      3010      2831
 -1      1317    8    0    1
 -2       708       596       709      2938      2941      3011
 -1      1318    8    0    1
 -2       541       542       583      2627      3012      3013
 -1      1319    8    0    1
 -2       709       593       725      2940      2984      3014
 -1      1320    8    0    1
 -2       667       543       712      2839      2948      3015
 -1      1321    8    0    1
 -2       612       569       696      2632      3016      2903
 -1      1322    8    0    1
 -2       595       700       707      2912      3017      2935
 -1      1323    8    0    1
 -2       569       570       733      2507      3018      3019
 -1      1324    8    0    1
 -2       569       733       696      3019      3020      3016
 -1      1325    8    0    1
 -2       600       728       727      2991      3021      2987
 -1      1326    8    0    1
 -2       577       698       734      2929      3022      3023
 -1      1327    8    0    1
 -2       705       577       734      2926      3023      3024
 -1      1328    8    0    1
 -2       698       665       734      3006      3025      3022
 -1      1329    8    0    1
 -2       725       597       735      2983      3026      3027
 -1      1330    8    0    1
 -2       597       616       735      2653      3028      3026
 -1      1331    8    0    1
 -2       724       598       726      2981      2986      3029
 -1      1332    8    0    1
 -2       481       621       620      3001      3030      2671
 -1      1333    8    0    1
 -2       729       602       723      2992      2980      3031
 -1      1334    8    0    1
 -2       614       590       736      2644      3032      3033
 -1      1335    8    0    1
 -2       675       614       736      3010      3033      3034
 -1      1336    8    0    1
 -2       590       717       736      2963      3035      3032
 -1      1337    8    0    1
 -2       615       604       737      2649      3036      3037
 -1      1338    8    0    1
 -2       604       716       737      2960      3038      3036
 -1      1339    8    0    1
 -2       616       585       724      2654      2982      3039
 -1      1340    8    0    1
 -2       583       542       667      3012      2840      2809
 -1      1341    8    0    1
 -2       591       541       583      3008      3013      2657
 -1      1342    8    0    1
 -2       571       710       715      2943      3040      2957
 -1      1343    8    0    1
 -2       570       567       738      2508      3041      3042
 -1      1344    8    0    1
 -2       567       699       738      2910      3043      3041
 -1      1345    8    0    1
 -2       474       588       739      2554      3044      3045
 -1      1346    8    0    1
 -2       722       474       739      2977      3045      3046
 -1      1347    8    0    1
 -2       588       731       739      3000      3047      3044
 -1      1348    8    0    1
 -2       717       594       708      2962      2939      3048
 -1      1349    8    0    1
 -2       723       603       740      2979      3049      3050
 -1      1350    8    0    1
 -2       603       615       740      2648      3051      3049
 -1      1351    8    0    1
 -2       607       610       741      2968      3052      3053
 -1      1352    8    0    1
 -2       483       607       741      2600      3053      3054
 -1      1353    8    0    1
 -2       610       730       741      2996      3055      3052
 -1      1354    8    0    1
 -2       728       601       729      2990      2993      3056
 -1      1355    8    0    1
 -2       483       741       714      3054      3057      2954
 -1      1356    8    0    1
 -2       619       620       742      2673      3058      3059
 -1      1357    8    0    1
 -2       625       624       743      2686      3060      3061
 -1      1358    8    0    1
 -2       626       625       744      2689      3062      3063
 -1      1359    8    0    1
 -2       625       743       744      3061      3064      3062
 -1      1360    8    0    1
 -2       627       626       745      2692      3065      3066
 -1      1361    8    0    1
 -2       626       744       745      3063      3067      3065
 -1      1362    8    0    1
 -2       628       627       746      2695      3068      3069
 -1      1363    8    0    1
 -2       627       745       746      3066      3070      3068
 -1      1364    8    0    1
 -2       629       628       747      2698      3071      3072
 -1      1365    8    0    1
 -2       628       746       747      3069      3073      3071
 -1      1366    8    0    1
 -2       630       629       748      2701      3074      3075
 -1      1367    8    0    1
 -2       629       747       748      3072      3076      3074
 -1      1368    8    0    1
 -2       631       630       749      2704      3077      3078
 -1      1369    8    0    1
 -2       630       748       749      3075      3079      3077
 -1      1370    8    0    1
 -2       632       631       750      2707      3080      3081
 -1      1371    8    0    1
 -2       631       749       750      3078      3082      3080
 -1      1372    8    0    1
 -2       633       632       751      2710      3083      3084
 -1      1373    8    0    1
 -2       632       750       751      3081      3085      3083
 -1      1374    8    0    1
 -2       634       633       752      2713      3086      3087
 -1      1375    8    0    1
 -2       633       751       752      3084      3088      3086
 -1      1376    8    0    1
 -2       635       634       753      2716      3089      3090
 -1      1377    8    0    1
 -2       634       752       753      3087      3091      3089
 -1      1378    8    0    1
 -2       636       635       754      2719      3092      3093
 -1      1379    8    0    1
 -2       635       753       754      3090      3094      3092
 -1      1380    8    0    1
 -2       637       636       755      2722      3095      3096
 -1      1381    8    0    1
 -2       636       754       755      3093      3097      3095
 -1      1382    8    0    1
 -2       638       637       756      2725      3098      3099
 -1      1383    8    0    1
 -2       637       755       756      3096      3100      3098
 -1      1384    8    0    1
 -2       639       638       757      2728      3101      3102
 -1      1385    8    0    1
 -2       638       756       757      3099      3103      3101
 -1      1386    8    0    1
 -2       640       639       758      2731      3104      3105
 -1      1387    8    0    1
 -2       639       757       758      3102      3106      3104
 -1      1388    8    0    1
 -2       641       640       759      2734      3107      3108
 -1      1389    8    0    1
 -2       640       758       759      3105      3109      3107
 -1      1390    8    0    1
 -2       642       641       760      2737      3110      3111
 -1      1391    8    0    1
 -2       641       759       760      3108      3112      3110
 -1      1392    8    0    1
 -2       643       642       761      2740      3113      3114
 -1      1393    8    0    1
 -2       642       760       761      3111      3115      3113
 -1      1394    8    0    1
 -2       644       643       762      2743      3116      3117
 -1      1395    8    0    1
 -2       643       761       762      3114      3118      3116
 -1      1396    8    0    1
 -2       645       644       763      2746      3119      3120
 -1      1397    8    0    1
 -2       644       762       763      3117      3121      3119
 -1      1398    8    0    1
 -2       646       645       764      2749      3122      3123
 -1      1399    8    0    1
 -2       645       763       764      3120      3124      3122
 -1      1400    8    0    1
 -2       647       646       765      2752      3125      3126
 -1      1401    8    0    1
 -2       646       764       765      3123      3127      3125
 -1      1402    8    0    1
 -2       648       647       766      2755      3128      3129
 -1      1403    8    0    1
 -2       647       765       766      3126      3130      3128
 -1      1404    8    0    1
 -2       649       648       767      2758      3131      3132
 -1      1405    8    0    1
 -2       648       766       767      3129      3133      3131
 -1      1406    8    0    1
 -2       650       649       768      2761      3134      3135
 -1      1407    8    0    1
 -2       649       767       768      3132      3136      3134
 -1      1408    8    0    1
 -2       651       650       769      2764      3137      3138
 -1      1409    8    0    1
 -2       650       768       769      3135      3139      3137
 -1      1410    8    0    1
 -2       652       651       770      2767      3140      3141
 -1      1411    8    0    1
 -2       651       769       770      3138      3142      3140
 -1      1412    8    0    1
 -2       653       652       771      2770      3143      3144
 -1      1413    8    0    1
 -2       652       770       771      3141      3145      3143
 -1      1414    8    0    1
 -2       654       653       772      2773      3146      3147
 -1      1415    8    0    1
 -2       653       771       772      3144      3148      3146
 -1      1416    8    0    1
 -2       655       654       773      2776      3149      3150
 -1      1417    8    0    1
 -2       654       772       773      3147      3151      3149
 -1      1418    8    0    1
 -2       656       655       774      2779      3152      3153
 -1      1419    8    0    1
 -2       655       773       774      3150      3154      3152
 -1      1420    8    0    1
 -2       657       656       775      2782      3155      3156
 -1      1421    8    0    1
 -2       656       774       775      3153      3157      3155
 -1      1422    8    0    1
 -2       658       657       776      2785      3158      3159
 -1      1423    8    0    1
 -2       657       775       776      3156      3160      3158
 -1      1424    8    0    1
 -2       659       658       777      2788      3161      3162
 -1      1425    8    0    1
 -2       658       776       777      3159      3163      3161
 -1      1426    8    0    1
 -2       660       659       778      2791      3164      3165
 -1      1427    8    0    1
 -2       659       777       778      3162      3166      3164
 -1      1428    8    0    1
 -2       661       660       779      2794      3167      3168
 -1      1429    8    0    1
 -2       660       778       779      3165      3169      3167
 -1      1430    8    0    1
 -2       662       661       780      2797      3170      3171
 -1      1431    8    0    1
 -2       661       779       780      3168      3172      3170
 -1      1432    8    0    1
 -2       663       662       781      2800      3173      3174
 -1      1433    8    0    1
 -2       662       780       781      3171      3175      3173
 -1      1434    8    0    1
 -2       664       663       782      2803      3176      3177
 -1      1435    8    0    1
 -2       663       781       782      3174      3178      3176
 -1      1436    8    0    1
 -2       665       664       783      2806      3179      3180
 -1      1437    8    0    1
 -2       734       665       783      3025      3180      3181
 -1      1438    8    0    1
 -2       664       782       783      3177      3182      3179
 -1      1439    8    0    1
 -2       670       671       784      2821      3183      3184
 -1      1440    8    0    1
 -2       669       670       785      2818      3185      3186
 -1      1441    8    0    1
 -2       670       784       785      3184      3187      3185
 -1      1442    8    0    1
 -2       672       673       786      2827      3188      3189
 -1      1443    8    0    1
 -2       673       674       787      2830      3190      3191
 -1      1444    8    0    1
 -2       673       787       786      3191      3192      3188
 -1      1445    8    0    1
 -2       674       675       788      2833      3193      3194
 -1      1446    8    0    1
 -2       787       674       788      3190      3194      3195
 -1      1447    8    0    1
 -2       675       736       788      3034      3196      3193
 -1      1448    8    0    1
 -2       708       709       789      3011      3197      3198
 -1      1449    8    0    1
 -2       614       539       586      2834      3199      2643
 -1      1450    8    0    1
 -2       709       725       790      3014      3200      3201
 -1      1451    8    0    1
 -2       709       790       789      3201      3202      3197
 -1      1452    8    0    1
 -2       622       715       791      3005      3203      3204
 -1      1453    8    0    1
 -2       727       728       792      3021      3205      3206
 -1      1454    8    0    1
 -2       676       677       793      2845      3207      3208
 -1      1455    8    0    1
 -2       679       680       794      2854      3209      3210
 -1      1456    8    0    1
 -2       680       681       795      2857      3211      3212
 -1      1457    8    0    1
 -2       680       795       794      3212      3213      3209
 -1      1458    8    0    1
 -2       681       682       796      2860      3214      3215
 -1      1459    8    0    1
 -2       681       796       795      3215      3216      3211
 -1      1460    8    0    1
 -2       682       683       797      2863      3217      3218
 -1      1461    8    0    1
 -2       682       797       796      3218      3219      3214
 -1      1462    8    0    1
 -2       683       684       798      2866      3220      3221
 -1      1463    8    0    1
 -2       683       798       797      3221      3222      3217
 -1      1464    8    0    1
 -2       684       685       799      2869      3223      3224
 -1      1465    8    0    1
 -2       684       799       798      3224      3225      3220
 -1      1466    8    0    1
 -2       685       686       800      2872      3226      3227
 -1      1467    8    0    1
 -2       685       800       799      3227      3228      3223
 -1      1468    8    0    1
 -2       686       687       801      2875      3229      3230
 -1      1469    8    0    1
 -2       686       801       800      3230      3231      3226
 -1      1470    8    0    1
 -2       687       688       802      2878      3232      3233
 -1      1471    8    0    1
 -2       687       802       801      3233      3234      3229
 -1      1472    8    0    1
 -2       688       689       803      2881      3235      3236
 -1      1473    8    0    1
 -2       688       803       802      3236      3237      3232
 -1      1474    8    0    1
 -2       689       690       804      2884      3238      3239
 -1      1475    8    0    1
 -2       689       804       803      3239      3240      3235
 -1      1476    8    0    1
 -2       690       691       805      2887      3241      3242
 -1      1477    8    0    1
 -2       690       805       804      3242      3243      3238
 -1      1478    8    0    1
 -2       691       692       806      2890      3244      3245
 -1      1479    8    0    1
 -2       691       806       805      3245      3246      3241
 -1      1480    8    0    1
 -2       692       693       807      2893      3247      3248
 -1      1481    8    0    1
 -2       692       807       806      3248      3249      3244
 -1      1482    8    0    1
 -2       693       694       808      2896      3250      3251
 -1      1483    8    0    1
 -2       693       808       807      3251      3252      3247
 -1      1484    8    0    1
 -2       694       695       809      2899      3253      3254
 -1      1485    8    0    1
 -2       694       809       808      3254      3255      3250
 -1      1486    8    0    1
 -2       695       696       733      2902      3020      3256
 -1      1487    8    0    1
 -2       707       700       810      3017      3257      3258
 -1      1488    8    0    1
 -2       701       703       811      2922      3259      3260
 -1      1489    8    0    1
 -2       704       705       812      2928      3261      3262
 -1      1490    8    0    1
 -2       728       729       813      3056      3263      3264
 -1      1491    8    0    1
 -2       697       701       814      2915      3265      3266
 -1      1492    8    0    1
 -2       701       811       814      3260      3267      3265
 -1      1493    8    0    1
 -2       624       714       815      2956      3268      3269
 -1      1494    8    0    1
 -2       624       815       743      3269      3270      3060
 -1      1495    8    0    1
 -2       703       704       816      2925      3271      3272
 -1      1496    8    0    1
 -2       811       703       816      3259      3272      3273
 -1      1497    8    0    1
 -2       704       812       816      3262      3274      3271
 -1      1498    8    0    1
 -2       711       676       817      2946      3275      3276
 -1      1499    8    0    1
 -2       676       793       817      3208      3277      3275
 -1      1500    8    0    1
 -2       717       708       818      3048      3278      3279
 -1      1501    8    0    1
 -2       678       679       819      2851      3280      3281
 -1      1502    8    0    1
 -2       679       794       819      3210      3282      3280
 -1      1503    8    0    1
 -2       677       678       820      2848      3283      3284
 -1      1504    8    0    1
 -2       793       677       820      3207      3284      3285
 -1      1505    8    0    1
 -2       678       819       820      3281      3286      3283
 -1      1506    8    0    1
 -2       592       586       539      2619      3199      2994
 -1      1507    8    0    1
 -2       671       672       821      2824      3287      3288
 -1      1508    8    0    1
 -2       784       671       821      3183      3288      3289
 -1      1509    8    0    1
 -2       672       786       821      3189      3290      3287
 -1      1510    8    0    1
 -2       668       666       822      2813      3291      3292
 -1      1511    8    0    1
 -2       712       711       791      2949      3293      3294
 -1      1512    8    0    1
 -2       716       707       823      2961      3295      3296
 -1      1513    8    0    1
 -2       707       810       823      3258      3297      3295
 -1      1514    8    0    1
 -2       729       723       824      3031      3298      3299
 -1      1515    8    0    1
 -2       729       824       813      3299      3300      3263
 -1      1516    8    0    1
 -2       616       724       825      3039      3301      3302
 -1      1517    8    0    1
 -2       719       622       826      2971      3303      3304
 -1      1518    8    0    1
 -2       700       721       827      2976      3305      3306
 -1      1519    8    0    1
 -2       620       621       828      3030      3307      3308
 -1      1520    8    0    1
 -2       742       620       828      3058      3308      3309
 -1      1521    8    0    1
 -2       621       623       828      2680      3310      3307
 -1      1522    8    0    1
 -2       724       726       829      3029      3311      3312
 -1      1523    8    0    1
 -2       726       727       830      2989      3313      3314
 -1      1524    8    0    1
 -2       727       792       830      3206      3315      3313
 -1      1525    8    0    1
 -2       714       741       831      3057      3316      3317
 -1      1526    8    0    1
 -2       741       730       831      3055      3318      3316
 -1      1527    8    0    1
 -2       618       617       832      2668      3319      3320
 -1      1528    8    0    1
 -2       720       719       833      3009      3321      3322
 -1      1529    8    0    1
 -2       731       618       834      2998      3323      3324
 -1      1530    8    0    1
 -2       618       832       834      3320      3325      3323
 -1      1531    8    0    1
 -2       721       732       827      3004      3326      3305
 -1      1532    8    0    1
 -2       732       720       835      3002      3327      3328
 -1      1533    8    0    1
 -2       720       833       835      3322      3329      3327
 -1      1534    8    0    1
 -2       724       829       836      3312      3330      3331
 -1      1535    8    0    1
 -2       724       836       825      3331      3332      3301
 -1      1536    8    0    1
 -2       668       822       837      3292      3333      3334
 -1      1537    8    0    1
 -2       668       837       706      3334      3335      2933
 -1      1538    8    0    1
 -2       730       722       838      2997      3336      3337
 -1      1539    8    0    1
 -2       730       838       831      3337      3338      3318
 -1      1540    8    0    1
 -2       619       742       839      3059      3339      3340
 -1      1541    8    0    1
 -2       619       839       718      3340      3341      2967
 -1      1542    8    0    1
 -2       669       785       840      3186      3342      3343
 -1      1543    8    0    1
 -2       669       840       713      3343      3344      2953
 -1      1544    8    0    1
 -2       792       728       841      3205      3345      3346
 -1      1545    8    0    1
 -2       728       813       841      3264      3347      3345
 -1      1546    8    0    1
 -2       790       725       842      3200      3348      3349
 -1      1547    8    0    1
 -2       725       735       842      3027      3350      3348
 -1      1548    8    0    1
 -2       833       719       826      3321      3304      3351
 -1      1549    8    0    1
 -2       791       715       712      3203      3352      3294
 -1      1550    8    0    1
 -2       714       831       815      3317      3353      3268
 -1      1551    8    0    1
 -2       717       818       736      3279      3354      3035
 -1      1552    8    0    1
 -2       695       733       809      3256      3355      3253
 -1      1553    8    0    1
 -2       810       700       827      3257      3306      3356
 -1      1554    8    0    1
 -2       699       702       843      2918      3357      3358
 -1      1555    8    0    1
 -2       711       817       791      3276      3359      3293
 -1      1556    8    0    1
 -2       623       706       844      2932      3360      3361
 -1      1557    8    0    1
 -2       828       623       844      3310      3361      3362
 -1      1558    8    0    1
 -2       706       837       844      3335      3363      3360
 -1      1559    8    0    1
 -2       733       570       738      3018      3042      3364
 -1      1560    8    0    1
 -2       702       697       845      2919      3365      3366
 -1      1561    8    0    1
 -2       843       702       845      3357      3366      3367
 -1      1562    8    0    1
 -2       697       814       845      3266      3368      3365
 -1      1563    8    0    1
 -2       822       666       846      3291      3369      3370
 -1      1564    8    0    1
 -2       666       713       846      2952      3371      3369
 -1      1565    8    0    1
 -2       735       616       825      3028      3302      3372
 -1      1566    8    0    1
 -2       705       734       847      3024      3373      3374
 -1      1567    8    0    1
 -2       812       705       847      3261      3374      3375
 -1      1568    8    0    1
 -2       734       783       847      3181      3376      3373
 -1      1569    8    0    1
 -2       818       708       789      3278      3198      3377
 -1      1570    8    0    1
 -2       826       622       791      3303      3204      3378
 -1      1571    8    0    1
 -2       738       699       848      3043      3379      3380
 -1      1572    8    0    1
 -2       699       843       848      3358      3381      3379
 -1      1573    8    0    1
 -2       716       823       849      3296      3382      3383
 -1      1574    8    0    1
 -2       716       849       737      3383      3384      3038
 -1      1575    8    0    1
 -2       824       723       740      3298      3050      3385
 -1      1576    8    0    1
 -2       838       722       850      3336      3386      3387
 -1      1577    8    0    1
 -2       722       739       850      3046      3388      3386
 -1      1578    8    0    1
 -2       712       715       710      3352      3040      3389
 -1      1579    8    0    1
 -2       740       615       851      3051      3390      3391
 -1      1580    8    0    1
 -2       615       737       851      3037      3392      3390
 -1      1581    8    0    1
 -2       617       718       852      2966      3393      3394
 -1      1582    8    0    1
 -2       832       617       852      3319      3394      3395
 -1      1583    8    0    1
 -2       718       839       852      3341      3396      3393
 -1      1584    8    0    1
 -2       726       830       829      3314      3397      3311
 -1      1585    8    0    1
 -2       818       789       853      3377      3398      3399
 -1      1586    8    0    1
 -2       745       744       854      3067      3400      3401
 -1      1587    8    0    1
 -2       746       745       855      3070      3402      3403
 -1      1588    8    0    1
 -2       745       854       855      3401      3404      3402
 -1      1589    8    0    1
 -2       747       746       856      3073      3405      3406
 -1      1590    8    0    1
 -2       746       855       856      3403      3407      3405
 -1      1591    8    0    1
 -2       748       747       857      3076      3408      3409
 -1      1592    8    0    1
 -2       747       856       857      3406      3410      3408
 -1      1593    8    0    1
 -2       749       748       858      3079      3411      3412
 -1      1594    8    0    1
 -2       748       857       858      3409      3413      3411
 -1      1595    8    0    1
 -2       750       749       859      3082      3414      3415
 -1      1596    8    0    1
 -2       749       858       859      3412      3416      3414
 -1      1597    8    0    1
 -2       751       750       860      3085      3417      3418
 -1      1598    8    0    1
 -2       750       859       860      3415      3419      3417
 -1      1599    8    0    1
 -2       752       751       861      3088      3420      3421
 -1      1600    8    0    1
 -2       751       860       861      3418      3422      3420
 -1      1601    8    0    1
 -2       753       752       862      3091      3423      3424
 -1      1602    8    0    1
 -2       752       861       862      3421      3425      3423
 -1      1603    8    0    1
 -2       754       753       863      3094      3426      3427
 -1      1604    8    0    1
 -2       753       862       863      3424      3428      3426
 -1      1605    8    0    1
 -2       755       754       864      3097      3429      3430
 -1      1606    8    0    1
 -2       754       863       864      3427      3431      3429
 -1      1607    8    0    1
 -2       756       755       865      3100      3432      3433
 -1      1608    8    0    1
 -2       755       864       865      3430      3434      3432
 -1      1609    8    0    1
 -2       757       756       841      3103      3435      3436
 -1      1610    8    0    1
 -2       758       757       824      3106      3437      3438
 -1      1611    8    0    1
 -2       760       759       866      3112      3439      3440
 -1      1612    8    0    1
 -2       761       760       867      3115      3441      3442
 -1      1613    8    0    1
 -2       760       866       867      3440      3443      3441
 -1      1614    8    0    1
 -2       762       761       868      3118      3444      3445
 -1      1615    8    0    1
 -2       761       867       868      3442      3446      3444
 -1      1616    8    0    1
 -2       763       762       869      3121      3447      3448
 -1      1617    8    0    1
 -2       762       868       869      3445      3449      3447
 -1      1618    8    0    1
 -2       764       763       870      3124      3450      3451
 -1      1619    8    0    1
 -2       763       869       870      3448      3452      3450
 -1      1620    8    0    1
 -2       765       764       871      3127      3453      3454
 -1      1621    8    0    1
 -2       764       870       871      3451      3455      3453
 -1      1622    8    0    1
 -2       766       765       872      3130      3456      3457
 -1      1623    8    0    1
 -2       765       871       872      3454      3458      3456
 -1      1624    8    0    1
 -2       767       766       873      3133      3459      3460
 -1      1625    8    0    1
 -2       766       872       873      3457      3461      3459
 -1      1626    8    0    1
 -2       768       767       874      3136      3462      3463
 -1      1627    8    0    1
 -2       767       873       874      3460      3464      3462
 -1      1628    8    0    1
 -2       769       768       875      3139      3465      3466
 -1      1629    8    0    1
 -2       768       874       875      3463      3467      3465
 -1      1630    8    0    1
 -2       770       769       876      3142      3468      3469
 -1      1631    8    0    1
 -2       769       875       876      3466      3470      3468
 -1      1632    8    0    1
 -2       771       770       877      3145      3471      3472
 -1      1633    8    0    1
 -2       770       876       877      3469      3473      3471
 -1      1634    8    0    1
 -2       772       771       878      3148      3474      3475
 -1      1635    8    0    1
 -2       771       877       878      3472      3476      3474
 -1      1636    8    0    1
 -2       773       772       879      3151      3477      3478
 -1      1637    8    0    1
 -2       772       878       879      3475      3479      3477
 -1      1638    8    0    1
 -2       774       773       880      3154      3480      3481
 -1      1639    8    0    1
 -2       773       879       880      3478      3482      3480
 -1      1640    8    0    1
 -2       775       774       881      3157      3483      3484
 -1      1641    8    0    1
 -2       774       880       881      3481      3485      3483
 -1      1642    8    0    1
 -2       776       775       882      3160      3486      3487
 -1      1643    8    0    1
 -2       775       881       882      3484      3488      3486
 -1      1644    8    0    1
 -2       777       776       883      3163      3489      3490
 -1      1645    8    0    1
 -2       776       882       883      3487      3491      3489
 -1      1646    8    0    1
 -2       778       777       884      3166      3492      3493
 -1      1647    8    0    1
 -2       777       883       884      3490      3494      3492
 -1      1648    8    0    1
 -2       779       778       885      3169      3495      3496
 -1      1649    8    0    1
 -2       778       884       885      3493      3497      3495
 -1      1650    8    0    1
 -2       780       779       886      3172      3498      3499
 -1      1651    8    0    1
 -2       779       885       886      3496      3500      3498
 -1      1652    8    0    1
 -2       781       780       887      3175      3501      3502
 -1      1653    8    0    1
 -2       780       886       887      3499      3503      3501
 -1      1654    8    0    1
 -2       782       781       888      3178      3504      3505
 -1      1655    8    0    1
 -2       781       887       888      3502      3506      3504
 -1      1656    8    0    1
 -2       785       784       889      3187      3507      3508
 -1      1657    8    0    1
 -2       786       787       890      3192      3509      3510
 -1      1658    8    0    1
 -2       794       795       891      3213      3511      3512
 -1      1659    8    0    1
 -2       797       798       892      3222      3513      3514
 -1      1660    8    0    1
 -2       798       799       893      3225      3515      3516
 -1      1661    8    0    1
 -2       798       893       892      3516      3517      3513
 -1      1662    8    0    1
 -2       799       800       894      3228      3518      3519
 -1      1663    8    0    1
 -2       799       894       893      3519      3520      3515
 -1      1664    8    0    1
 -2       800       801       895      3231      3521      3522
 -1      1665    8    0    1
 -2       800       895       894      3522      3523      3518
 -1      1666    8    0    1
 -2       801       802       896      3234      3524      3525
 -1      1667    8    0    1
 -2       801       896       895      3525      3526      3521
 -1      1668    8    0    1
 -2       802       803       897      3237      3527      3528
 -1      1669    8    0    1
 -2       802       897       896      3528      3529      3524
 -1      1670    8    0    1
 -2       803       804       898      3240      3530      3531
 -1      1671    8    0    1
 -2       803       898       897      3531      3532      3527
 -1      1672    8    0    1
 -2       804       805       899      3243      3533      3534
 -1      1673    8    0    1
 -2       804       899       898      3534      3535      3530
 -1      1674    8    0    1
 -2       805       806       900      3246      3536      3537
 -1      1675    8    0    1
 -2       805       900       899      3537      3538      3533
 -1      1676    8    0    1
 -2       806       807       901      3249      3539      3540
 -1      1677    8    0    1
 -2       806       901       900      3540      3541      3536
 -1      1678    8    0    1
 -2       807       808       902      3252      3542      3543
 -1      1679    8    0    1
 -2       807       902       901      3543      3544      3539
 -1      1680    8    0    1
 -2       808       809       903      3255      3545      3546
 -1      1681    8    0    1
 -2       808       903       902      3546      3547      3542
 -1      1682    8    0    1
 -2       810       827       904      3356      3548      3549
 -1      1683    8    0    1
 -2       817       793       905      3277      3550      3551
 -1      1684    8    0    1
 -2       791       817       906      3359      3552      3553
 -1      1685    8    0    1
 -2       826       791       906      3378      3553      3554
 -1      1686    8    0    1
 -2       817       905       906      3551      3555      3552
 -1      1687    8    0    1
 -2       743       815       907      3270      3556      3557
 -1      1688    8    0    1
 -2       710       667       712      3007      3015      3389
 -1      1689    8    0    1
 -2       736       818       788      3354      3558      3196
 -1      1690    8    0    1
 -2       809       733       738      3355      3364      3559
 -1      1691    8    0    1
 -2       819       794       908      3282      3560      3561
 -1      1692    8    0    1
 -2       794       891       908      3512      3562      3560
 -1      1693    8    0    1
 -2       796       797       909      3219      3563      3564
 -1      1694    8    0    1
 -2       797       892       909      3514      3565      3563
 -1      1695    8    0    1
 -2       823       810       910      3297      3566      3567
 -1      1696    8    0    1
 -2       815       831       911      3353      3568      3569
 -1      1697    8    0    1
 -2       907       815       911      3556      3569      3570
 -1      1698    8    0    1
 -2       831       838       911      3338      3571      3568
 -1      1699    8    0    1
 -2       739       731       912      3047      3572      3573
 -1      1700    8    0    1
 -2       850       739       912      3388      3573      3574
 -1      1701    8    0    1
 -2       731       834       912      3324      3575      3572
 -1      1702    8    0    1
 -2       735       825       913      3372      3576      3577
 -1      1703    8    0    1
 -2       833       826       914      3351      3578      3579
 -1      1704    8    0    1
 -2       795       796       915      3216      3580      3581
 -1      1705    8    0    1
 -2       891       795       915      3511      3581      3582
 -1      1706    8    0    1
 -2       796       909       915      3564      3583      3580
 -1      1707    8    0    1
 -2       827       732       916      3326      3584      3585
 -1      1708    8    0    1
 -2       742       828       917      3309      3586      3587
 -1      1709    8    0    1
 -2       828       844       917      3362      3588      3586
 -1      1710    8    0    1
 -2       830       792       918      3315      3589      3590
 -1      1711    8    0    1
 -2       829       830       919      3397      3591      3592
 -1      1712    8    0    1
 -2       830       918       919      3590      3593      3591
 -1      1713    8    0    1
 -2       814       811       920      3267      3594      3595
 -1      1714    8    0    1
 -2       789       790       921      3202      3596      3597
 -1      1715    8    0    1
 -2       744       743       922      3064      3598      3599
 -1      1716    8    0    1
 -2       743       907       922      3557      3600      3598
 -1      1717    8    0    1
 -2       809       738       848      3559      3380      3601
 -1      1718    8    0    1
 -2       835       833       923      3329      3602      3603
 -1      1719    8    0    1
 -2       833       914       923      3579      3604      3602
 -1      1720    8    0    1
 -2       836       829       924      3330      3605      3606
 -1      1721    8    0    1
 -2       829       919       924      3592      3607      3605
 -1      1722    8    0    1
 -2       837       822       925      3333      3608      3609
 -1      1723    8    0    1
 -2       824       757       813      3437      3610      3300
 -1      1724    8    0    1
 -2       839       742       917      3339      3587      3611
 -1      1725    8    0    1
 -2       756       865       841      3433      3612      3435
 -1      1726    8    0    1
 -2       758       824       926      3438      3613      3614
 -1      1727    8    0    1
 -2       759       758       926      3109      3614      3615
 -1      1728    8    0    1
 -2       785       889       927      3508      3616      3617
 -1      1729    8    0    1
 -2       785       927       840      3617      3618      3342
 -1      1730    8    0    1
 -2       889       784       928      3507      3619      3620
 -1      1731    8    0    1
 -2       784       821       928      3289      3621      3619
 -1      1732    8    0    1
 -2       783       782       929      3182      3622      3623
 -1      1733    8    0    1
 -2       847       783       929      3376      3623      3624
 -1      1734    8    0    1
 -2       782       888       929      3505      3625      3622
 -1      1735    8    0    1
 -2       786       890       930      3510      3626      3627
 -1      1736    8    0    1
 -2       786       930       821      3627      3628      3290
 -1      1737    8    0    1
 -2       841       813       757      3347      3610      3436
 -1      1738    8    0    1
 -2       787       788       853      3195      3629      3630
 -1      1739    8    0    1
 -2       827       916       904      3585      3631      3548
 -1      1740    8    0    1
 -2       842       735       913      3350      3577      3632
 -1      1741    8    0    1
 -2       793       820       931      3285      3633      3634
 -1      1742    8    0    1
 -2       793       931       905      3634      3635      3550
 -1      1743    8    0    1
 -2       823       910       932      3567      3636      3637
 -1      1744    8    0    1
 -2       823       932       849      3637      3638      3382
 -1      1745    8    0    1
 -2       810       904       910      3549      3639      3566
 -1      1746    8    0    1
 -2       826       906       914      3554      3640      3578
 -1      1747    8    0    1
 -2       846       713       840      3371      3344      3641
 -1      1748    8    0    1
 -2       921       790       933      3596      3642      3643
 -1      1749    8    0    1
 -2       790       842       933      3349      3644      3642
 -1      1750    8    0    1
 -2       845       814       934      3368      3645      3646
 -1      1751    8    0    1
 -2       814       920       934      3595      3647      3645
 -1      1752    8    0    1
 -2       822       846       935      3370      3648      3649
 -1      1753    8    0    1
 -2       822       935       925      3649      3650      3608
 -1      1754    8    0    1
 -2       911       838       936      3571      3651      3652
 -1      1755    8    0    1
 -2       838       850       936      3387      3653      3651
 -1      1756    8    0    1
 -2       916       732       835      3584      3328      3654
 -1      1757    8    0    1
 -2       848       843       937      3381      3655      3656
 -1      1758    8    0    1
 -2       820       819       938      3286      3657      3658
 -1      1759    8    0    1
 -2       931       820       938      3633      3658      3659
 -1      1760    8    0    1
 -2       819       908       938      3561      3660      3657
 -1      1761    8    0    1
 -2       890       787       853      3509      3630      3661
 -1      1762    8    0    1
 -2       812       847       929      3375      3624      3662
 -1      1763    8    0    1
 -2       866       759       926      3439      3615      3663
 -1      1764    8    0    1
 -2       792       841       918      3346      3664      3589
 -1      1765    8    0    1
 -2       913       825       939      3576      3665      3666
 -1      1766    8    0    1
 -2       825       836       939      3332      3667      3665
 -1      1767    8    0    1
 -2       843       845       940      3367      3668      3669
 -1      1768    8    0    1
 -2       843       940       937      3669      3670      3655
 -1      1769    8    0    1
 -2       824       740       926      3385      3671      3613
 -1      1770    8    0    1
 -2       832       852       941      3395      3672      3673
 -1      1771    8    0    1
 -2       834       832       942      3325      3674      3675
 -1      1772    8    0    1
 -2       832       941       942      3673      3676      3674
 -1      1773    8    0    1
 -2       740       851       866      3391      3677      3678
 -1      1774    8    0    1
 -2       853       789       921      3398      3597      3679
 -1      1775    8    0    1
 -2       920       811       943      3594      3680      3681
 -1      1776    8    0    1
 -2       811       816       943      3273      3682      3680
 -1      1777    8    0    1
 -2       854       744       922      3400      3599      3683
 -1      1778    8    0    1
 -2       818       853       788      3399      3629      3558
 -1      1779    8    0    1
 -2       812       929       944      3662      3684      3685
 -1      1780    8    0    1
 -2       816       812       944      3274      3685      3686
 -1      1781    8    0    1
 -2       929       888       944      3625      3687      3684
 -1      1782    8    0    1
 -2       740       866       926      3678      3663      3671
 -1      1783    8    0    1
 -2       856       855       945      3407      3688      3689
 -1      1784    8    0    1
 -2       857       856       946      3410      3690      3691
 -1      1785    8    0    1
 -2       856       945       946      3689      3692      3690
 -1      1786    8    0    1
 -2       858       857       947      3413      3693      3694
 -1      1787    8    0    1
 -2       857       946       947      3691      3695      3693
 -1      1788    8    0    1
 -2       859       858       948      3416      3696      3697
 -1      1789    8    0    1
 -2       858       947       948      3694      3698      3696
 -1      1790    8    0    1
 -2       860       859       949      3419      3699      3700
 -1      1791    8    0    1
 -2       859       948       949      3697      3701      3699
 -1      1792    8    0    1
 -2       861       860       950      3422      3702      3703
 -1      1793    8    0    1
 -2       860       949       950      3700      3704      3702
 -1      1794    8    0    1
 -2       862       861       951      3425      3705      3706
 -1      1795    8    0    1
 -2       861       950       951      3703      3707      3705
 -1      1796    8    0    1
 -2       863       862       924      3428      3708      3709
 -1      1797    8    0    1
 -2       864       863       924      3431      3709      3710
 -1      1798    8    0    1
 -2       918       841       865      3664      3612      3711
 -1      1799    8    0    1
 -2       868       867       932      3446      3712      3713
 -1      1800    8    0    1
 -2       869       868       932      3449      3713      3714
 -1      1801    8    0    1
 -2       870       869       952      3452      3715      3716
 -1      1802    8    0    1
 -2       871       870       953      3455      3717      3718
 -1      1803    8    0    1
 -2       870       952       953      3716      3719      3717
 -1      1804    8    0    1
 -2       872       871       954      3458      3720      3721
 -1      1805    8    0    1
 -2       871       953       954      3718      3722      3720
 -1      1806    8    0    1
 -2       873       872       955      3461      3723      3724
 -1      1807    8    0    1
 -2       872       954       955      3721      3725      3723
 -1      1808    8    0    1
 -2       874       873       956      3464      3726      3727
 -1      1809    8    0    1
 -2       873       955       956      3724      3728      3726
 -1      1810    8    0    1
 -2       875       874       957      3467      3729      3730
 -1      1811    8    0    1
 -2       874       956       957      3727      3731      3729
 -1      1812    8    0    1
 -2       876       875       958      3470      3732      3733
 -1      1813    8    0    1
 -2       875       957       958      3730      3734      3732
 -1      1814    8    0    1
 -2       877       876       959      3473      3735      3736
 -1      1815    8    0    1
 -2       876       958       959      3733      3737      3735
 -1      1816    8    0    1
 -2       878       877       960      3476      3738      3739
 -1      1817    8    0    1
 -2       877       959       960      3736      3740      3738
 -1      1818    8    0    1
 -2       879       878       961      3479      3741      3742
 -1      1819    8    0    1
 -2       878       960       961      3739      3743      3741
 -1      1820    8    0    1
 -2       880       879       962      3482      3744      3745
 -1      1821    8    0    1
 -2       879       961       962      3742      3746      3744
 -1      1822    8    0    1
 -2       881       880       963      3485      3747      3748
 -1      1823    8    0    1
 -2       880       962       963      3745      3749      3747
 -1      1824    8    0    1
 -2       882       881       964      3488      3750      3751
 -1      1825    8    0    1
 -2       881       963       964      3748      3752      3750
 -1      1826    8    0    1
 -2       883       882       965      3491      3753      3754
 -1      1827    8    0    1
 -2       882       964       965      3751      3755      3753
 -1      1828    8    0    1
 -2       884       883       966      3494      3756      3757
 -1      1829    8    0    1
 -2       883       965       966      3754      3758      3756
 -1      1830    8    0    1
 -2       885       884       967      3497      3759      3760
 -1      1831    8    0    1
 -2       884       966       967      3757      3761      3759
 -1      1832    8    0    1
 -2       886       885       968      3500      3762      3763
 -1      1833    8    0    1
 -2       885       967       968      3760      3764      3762
 -1      1834    8    0    1
 -2       887       886       969      3503      3765      3766
 -1      1835    8    0    1
 -2       886       968       969      3763      3767      3765
 -1      1836    8    0    1
 -2       888       887       970      3506      3768      3769
 -1      1837    8    0    1
 -2       887       969       970      3766      3770      3768
 -1      1838    8    0    1
 -2       904       916       971      3631      3771      3772
 -1      1839    8    0    1
 -2       892       893       972      3517      3773      3774
 -1      1840    8    0    1
 -2       895       896       973      3526      3775      3776
 -1      1841    8    0    1
 -2       896       897       974      3529      3777      3778
 -1      1842    8    0    1
 -2       896       974       973      3778      3779      3775
 -1      1843    8    0    1
 -2       897       898       975      3532      3780      3781
 -1      1844    8    0    1
 -2       897       975       974      3781      3782      3777
 -1      1845    8    0    1
 -2       898       899       976      3535      3783      3784
 -1      1846    8    0    1
 -2       898       976       975      3784      3785      3780
 -1      1847    8    0    1
 -2       899       900       977      3538      3786      3787
 -1      1848    8    0    1
 -2       899       977       976      3787      3788      3783
 -1      1849    8    0    1
 -2       900       901       978      3541      3789      3790
 -1      1850    8    0    1
 -2       900       978       977      3790      3791      3786
 -1      1851    8    0    1
 -2       901       902       979      3544      3792      3793
 -1      1852    8    0    1
 -2       901       979       978      3793      3794      3789
 -1      1853    8    0    1
 -2       903       809       848      3545      3601      3795
 -1      1854    8    0    1
 -2       842       913       980      3632      3796      3797
 -1      1855    8    0    1
 -2       922       907       981      3600      3798      3799
 -1      1856    8    0    1
 -2       844       837       982      3363      3800      3801
 -1      1857    8    0    1
 -2       917       844       982      3588      3801      3802
 -1      1858    8    0    1
 -2       837       925       982      3609      3803      3800
 -1      1859    8    0    1
 -2       906       905       983      3555      3804      3805
 -1      1860    8    0    1
 -2       906       983       914      3805      3806      3640
 -1      1861    8    0    1
 -2       894       895       984      3523      3807      3808
 -1      1862    8    0    1
 -2       895       973       984      3776      3809      3807
 -1      1863    8    0    1
 -2       893       894       985      3520      3810      3811
 -1      1864    8    0    1
 -2       894       984       985      3808      3812      3810
 -1      1865    8    0    1
 -2       839       917       986      3611      3813      3814
 -1      1866    8    0    1
 -2       908       891       987      3562      3815      3816
 -1      1867    8    0    1
 -2       909       892       988      3565      3817      3818
 -1      1868    8    0    1
 -2       892       972       988      3774      3819      3817
 -1      1869    8    0    1
 -2       867       866       851      3443      3677      3820
 -1      1870    8    0    1
 -2       910       904       989      3639      3821      3822
 -1      1871    8    0    1
 -2       846       840       990      3641      3823      3824
 -1      1872    8    0    1
 -2       840       927       990      3618      3825      3823
 -1      1873    8    0    1
 -2       890       853       921      3661      3679      3826
 -1      1874    8    0    1
 -2       851       737       991      3392      3827      3828
 -1      1875    8    0    1
 -2       852       839       986      3396      3814      3829
 -1      1876    8    0    1
 -2       855       854       992      3404      3830      3831
 -1      1877    8    0    1
 -2       855       992       945      3831      3832      3688
 -1      1878    8    0    1
 -2       737       849       991      3384      3833      3827
 -1      1879    8    0    1
 -2       941       852       986      3672      3829      3834
 -1      1880    8    0    1
 -2       848       937       903      3656      3835      3795
 -1      1881    8    0    1
 -2       854       922       993      3683      3836      3837
 -1      1882    8    0    1
 -2       854       993       992      3837      3838      3830
 -1      1883    8    0    1
 -2       916       835       994      3654      3839      3840
 -1      1884    8    0    1
 -2       835       923       994      3603      3841      3839
 -1      1885    8    0    1
 -2       918       865       864      3711      3434      3842
 -1      1886    8    0    1
 -2       890       921       995      3826      3843      3844
 -1      1887    8    0    1
 -2       903       937       902      3835      3845      3547
 -1      1888    8    0    1
 -2       902       937       979      3845      3846      3792
 -1      1889    8    0    1
 -2       944       888       970      3687      3769      3847
 -1      1890    8    0    1
 -2       995       921       933      3843      3643      3848
 -1      1891    8    0    1
 -2       924       862       951      3708      3706      3849
 -1      1892    8    0    1
 -2       890       995       930      3844      3850      3626
 -1      1893    8    0    1
 -2       821       930       928      3628      3851      3621
 -1      1894    8    0    1
 -2       927       889       996      3616      3852      3853
 -1      1895    8    0    1
 -2       869       932       952      3714      3854      3715
 -1      1896    8    0    1
 -2       904       971       989      3772      3855      3821
 -1      1897    8    0    1
 -2       971       916       994      3771      3840      3856
 -1      1898    8    0    1
 -2       972       893       985      3773      3811      3857
 -1      1899    8    0    1
 -2       889       928       997      3620      3858      3859
 -1      1900    8    0    1
 -2       889       997       996      3859      3860      3852
 -1      1901    8    0    1
 -2       867       851       991      3820      3828      3861
 -1      1902    8    0    1
 -2       923       914       998      3604      3862      3863
 -1      1903    8    0    1
 -2       914       983       998      3806      3864      3862
 -1      1904    8    0    1
 -2       979       937       999      3846      3865      3866
 -1      1905    8    0    1
 -2       937       940       999      3670      3867      3865
 -1      1906    8    0    1
 -2       980       913      1000      3796      3868      3869
 -1      1907    8    0    1
 -2       913       939      1000      3666      3870      3868
 -1      1908    8    0    1
 -2       922       981       993      3799      3871      3836
 -1      1909    8    0    1
 -2       842       980       933      3797      3872      3644
 -1      1910    8    0    1
 -2       917       982       986      3802      3873      3813
 -1      1911    8    0    1
 -2       934       920      1001      3647      3874      3875
 -1      1912    8    0    1
 -2       987       891      1002      3815      3876      3877
 -1      1913    8    0    1
 -2       891       915      1002      3582      3878      3876
 -1      1914    8    0    1
 -2       845       934       940      3646      3879      3668
 -1      1915    8    0    1
 -2       935       846       990      3648      3824      3880
 -1      1916    8    0    1
 -2       936       850      1003      3653      3881      3882
 -1      1917    8    0    1
 -2       850       912      1003      3574      3883      3881
 -1      1918    8    0    1
 -2       938       908      1004      3660      3884      3885
 -1      1919    8    0    1
 -2       908       987      1004      3816      3886      3884
 -1      1920    8    0    1
 -2       909       988      1005      3818      3887      3888
 -1      1921    8    0    1
 -2       909      1005       915      3888      3889      3583
 -1      1922    8    0    1
 -2       907       911      1006      3570      3890      3891
 -1      1923    8    0    1
 -2       981       907      1006      3798      3891      3892
 -1      1924    8    0    1
 -2       911       936      1006      3652      3893      3890
 -1      1925    8    0    1
 -2       925       935      1007      3650      3894      3895
 -1      1926    8    0    1
 -2       983       905       931      3804      3635      3896
 -1      1927    8    0    1
 -2       942       941      1008      3676      3897      3898
 -1      1928    8    0    1
 -2       941       986      1009      3834      3899      3900
 -1      1929    8    0    1
 -2      1008       941      1009      3897      3900      3901
 -1      1930    8    0    1
 -2       986       982      1009      3873      3902      3899
 -1      1931    8    0    1
 -2       834       942      1010      3675      3903      3904
 -1      1932    8    0    1
 -2       912       834      1010      3575      3904      3905
 -1      1933    8    0    1
 -2       919       918       864      3593      3842      3906
 -1      1934    8    0    1
 -2       943       816       944      3682      3686      3907
 -1      1935    8    0    1
 -2       920       943      1011      3681      3908      3909
 -1      1936    8    0    1
 -2       920      1011      1001      3909      3910      3874
 -1      1937    8    0    1
 -2       991       849       932      3833      3638      3911
 -1      1938    8    0    1
 -2       982       925      1009      3803      3912      3902
 -1      1939    8    0    1
 -2       867       991       932      3861      3911      3712
 -1      1940    8    0    1
 -2       925      1007      1009      3895      3913      3912
 -1      1941    8    0    1
 -2       919       864       924      3906      3710      3607
 -1      1942    8    0    1
 -2       975       976      1012      3785      3914      3915
 -1      1943    8    0    1
 -2       946       945      1013      3692      3916      3917
 -1      1944    8    0    1
 -2       947       946      1014      3695      3918      3919
 -1      1945    8    0    1
 -2       946      1013      1014      3917      3920      3918
 -1      1946    8    0    1
 -2       948       947      1015      3698      3921      3922
 -1      1947    8    0    1
 -2       947      1014      1015      3919      3923      3921
 -1      1948    8    0    1
 -2       949       948      1016      3701      3924      3925
 -1      1949    8    0    1
 -2       948      1015      1016      3922      3926      3924
 -1      1950    8    0    1
 -2       950       949      1017      3704      3927      3928
 -1      1951    8    0    1
 -2       949      1016      1017      3925      3929      3927
 -1      1952    8    0    1
 -2       951       950      1018      3707      3930      3931
 -1      1953    8    0    1
 -2       950      1017      1018      3928      3932      3930
 -1      1954    8    0    1
 -2      1009      1007      1019      3913      3933      3934
 -1      1955    8    0    1
 -2      1009      1019      1008      3934      3935      3901
 -1      1956    8    0    1
 -2       927       996      1020      3853      3936      3937
 -1      1957    8    0    1
 -2       927      1020       990      3937      3938      3825
 -1      1958    8    0    1
 -2       954       953      1021      3722      3939      3940
 -1      1959    8    0    1
 -2       955       954      1022      3725      3941      3942
 -1      1960    8    0    1
 -2       954      1021      1022      3940      3943      3941
 -1      1961    8    0    1
 -2       956       955      1023      3728      3944      3945
 -1      1962    8    0    1
 -2       955      1022      1023      3942      3946      3944
 -1      1963    8    0    1
 -2       957       956      1024      3731      3947      3948
 -1      1964    8    0    1
 -2       956      1023      1024      3945      3949      3947
 -1      1965    8    0    1
 -2       958       957      1025      3734      3950      3951
 -1      1966    8    0    1
 -2       957      1024      1025      3948      3952      3950
 -1      1967    8    0    1
 -2       959       958      1026      3737      3953      3954
 -1      1968    8    0    1
 -2       958      1025      1026      3951      3955      3953
 -1      1969    8    0    1
 -2       960       959      1027      3740      3956      3957
 -1      1970    8    0    1
 -2       959      1026      1027      3954      3958      3956
 -1      1971    8    0    1
 -2       961       960      1028      3743      3959      3960
 -1      1972    8    0    1
 -2       960      1027      1028      3957      3961      3959
 -1      1973    8    0    1
 -2       962       961      1029      3746      3962      3963
 -1      1974    8    0    1
 -2       961      1028      1029      3960      3964      3962
 -1      1975    8    0    1
 -2       963       962      1030      3749      3965      3966
 -1      1976    8    0    1
 -2       962      1029      1030      3963      3967      3965
 -1      1977    8    0    1
 -2       964       963      1031      3752      3968      3969
 -1      1978    8    0    1
 -2       963      1030      1031      3966      3970      3968
 -1      1979    8    0    1
 -2       965       964      1032      3755      3971      3972
 -1      1980    8    0    1
 -2       964      1031      1032      3969      3973      3971
 -1      1981    8    0    1
 -2       966       965      1033      3758      3974      3975
 -1      1982    8    0    1
 -2       965      1032      1033      3972      3976      3974
 -1      1983    8    0    1
 -2       967       966      1034      3761      3977      3978
 -1      1984    8    0    1
 -2       966      1033      1034      3975      3979      3977
 -1      1985    8    0    1
 -2       968       967      1035      3764      3980      3981
 -1      1986    8    0    1
 -2       967      1034      1035      3978      3982      3980
 -1      1987    8    0    1
 -2       969       968      1036      3767      3983      3984
 -1      1988    8    0    1
 -2       968      1035      1036      3981      3985      3983
 -1      1989    8    0    1
 -2       970       969      1037      3770      3986      3987
 -1      1990    8    0    1
 -2       969      1036      1037      3984      3988      3986
 -1      1991    8    0    1
 -2       932       910       952      3636      3989      3854
 -1      1992    8    0    1
 -2       973       974      1038      3779      3990      3991
 -1      1993    8    0    1
 -2       976       977      1039      3788      3992      3993
 -1      1994    8    0    1
 -2       976      1039      1012      3993      3994      3914
 -1      1995    8    0    1
 -2       977       978      1040      3791      3995      3996
 -1      1996    8    0    1
 -2       977      1040      1039      3996      3997      3992
 -1      1997    8    0    1
 -2       978       979      1041      3794      3998      3999
 -1      1998    8    0    1
 -2      1040       978      1041      3995      3999      4000
 -1      1999    8    0    1
 -2       979       999      1041      3866      4001      3998
 -1      2000    8    0    1
 -2       992       993      1042      3838      4002      4003
 -1      2001    8    0    1
 -2       944       970       943      3847      4004      3907
 -1      2002    8    0    1
 -2      1007       935      1043      3894      4005      4006
 -1      2003    8    0    1
 -2      1019      1007      1043      3933      4006      4007
 -1      2004    8    0    1
 -2       935       990      1043      3880      4008      4005
 -1      2005    8    0    1
 -2       984       973      1044      3809      4009      4010
 -1      2006    8    0    1
 -2       973      1038      1044      3991      4011      4009
 -1      2007    8    0    1
 -2       985       984      1045      3812      4012      4013
 -1      2008    8    0    1
 -2       984      1044      1045      4010      4014      4012
 -1      2009    8    0    1
 -2       928       930      1046      3851      4015      4016
 -1      2010    8    0    1
 -2       928      1046       997      4016      4017      3858
 -1      2011    8    0    1
 -2       974       975      1047      3782      4018      4019
 -1      2012    8    0    1
 -2       974      1047      1038      4019      4020      3990
 -1      2013    8    0    1
 -2       930       995      1046      3850      4021      4015
 -1      2014    8    0    1
 -2       971       994      1048      3856      4022      4023
 -1      2015    8    0    1
 -2       931       938      1049      3659      4024      4025
 -1      2016    8    0    1
 -2       938      1004      1049      3885      4026      4024
 -1      2017    8    0    1
 -2       945       992      1050      3832      4027      4028
 -1      2018    8    0    1
 -2       992      1042      1050      4003      4029      4027
 -1      2019    8    0    1
 -2       983       931      1049      3896      4025      4030
 -1      2020    8    0    1
 -2       836       924      1051      3606      4031      4032
 -1      2021    8    0    1
 -2       939       836      1051      3667      4032      4033
 -1      2022    8    0    1
 -2       924       951      1051      3849      4034      4031
 -1      2023    8    0    1
 -2       940       934      1052      3879      4035      4036
 -1      2024    8    0    1
 -2       999       940      1052      3867      4036      4037
 -1      2025    8    0    1
 -2       934      1001      1052      3875      4038      4035
 -1      2026    8    0    1
 -2      1010       942      1053      3903      4039      4040
 -1      2027    8    0    1
 -2       942      1008      1053      3898      4041      4039
 -1      2028    8    0    1
 -2       972       985      1054      3857      4042      4043
 -1      2029    8    0    1
 -2       985      1045      1054      4013      4044      4042
 -1      2030    8    0    1
 -2       995       933      1055      3848      4045      4046
 -1      2031    8    0    1
 -2       993       981      1056      3871      4047      4048
 -1      2032    8    0    1
 -2       993      1056      1042      4048      4049      4002
 -1      2033    8    0    1
 -2       933       980      1055      3872      4050      4045
 -1      2034    8    0    1
 -2       994       923      1057      3841      4051      4052
 -1      2035    8    0    1
 -2       988       972      1058      3819      4053      4054
 -1      2036    8    0    1
 -2       972      1054      1058      4043      4055      4053
 -1      2037    8    0    1
 -2      1051       951      1018      4034      3931      4056
 -1      2038    8    0    1
 -2       939      1051      1059      4033      4057      4058
 -1      2039    8    0    1
 -2      1000       939      1059      3870      4058      4059
 -1      2040    8    0    1
 -2      1051      1018      1059      4056      4060      4057
 -1      2041    8    0    1
 -2       975      1012      1047      3915      4061      4018
 -1      2042    8    0    1
 -2      1008      1019      1060      3935      4062      4063
 -1      2043    8    0    1
 -2      1008      1060      1053      4063      4064      4041
 -1      2044    8    0    1
 -2       953       952      1061      3719      4065      4066
 -1      2045    8    0    1
 -2      1020       996      1062      3936      4067      4068
 -1      2046    8    0    1
 -2       995      1055      1063      4046      4069      4070
 -1      2047    8    0    1
 -2       995      1063      1046      4070      4071      4021
 -1      2048    8    0    1
 -2      1021       953      1061      3939      4066      4072
 -1      2049    8    0    1
 -2       998       983      1049      3864      4030      4073
 -1      2050    8    0    1
 -2       996       997      1064      3860      4074      4075
 -1      2051    8    0    1
 -2       996      1064      1062      4075      4076      4067
 -1      2052    8    0    1
 -2      1055       980      1065      4050      4077      4078
 -1      2053    8    0    1
 -2       943       970      1011      4004      4079      3908
 -1      2054    8    0    1
 -2      1043       990      1020      4008      3938      4080
 -1      2055    8    0    1
 -2      1002       915      1005      3878      3889      4081
 -1      2056    8    0    1
 -2      1013       945      1050      3916      4028      4082
 -1      2057    8    0    1
 -2       987      1002      1066      3877      4083      4084
 -1      2058    8    0    1
 -2      1004       987      1067      3886      4085      4086
 -1      2059    8    0    1
 -2       987      1066      1067      4084      4087      4085
 -1      2060    8    0    1
 -2      1005       988      1068      3887      4088      4089
 -1      2061    8    0    1
 -2       988      1058      1068      4054      4090      4088
 -1      2062    8    0    1
 -2      1010      1053      1056      4040      4091      4092
 -1      2063    8    0    1
 -2      1048       994      1057      4022      4052      4093
 -1      2064    8    0    1
 -2       970      1037      1011      3987      4094      4079
 -1      2065    8    0    1
 -2      1052      1001      1069      4038      4095      4096
 -1      2066    8    0    1
 -2      1056       981      1003      4047      4097      4098
 -1      2067    8    0    1
 -2      1057       923       998      4051      3863      4099
 -1      2068    8    0    1
 -2       980      1000      1065      3869      4100      4077
 -1      2069    8    0    1
 -2      1001      1011      1070      3910      4101      4102
 -1      2070    8    0    1
 -2      1069      1001      1070      4095      4102      4103
 -1      2071    8    0    1
 -2      1011      1037      1070      4094      4104      4101
 -1      2072    8    0    1
 -2      1022      1021      1071      3943      4105      4106
 -1      2073    8    0    1
 -2      1015      1014      1072      3923      4107      4108
 -1      2074    8    0    1
 -2      1016      1015      1073      3926      4109      4110
 -1      2075    8    0    1
 -2      1015      1072      1073      4108      4111      4109
 -1      2076    8    0    1
 -2      1017      1016      1074      3929      4112      4113
 -1      2077    8    0    1
 -2      1016      1073      1074      4110      4114      4112
 -1      2078    8    0    1
 -2      1018      1017      1075      3932      4115      4116
 -1      2079    8    0    1
 -2      1059      1018      1075      4060      4116      4117
 -1      2080    8    0    1
 -2      1017      1074      1075      4113      4118      4115
 -1      2081    8    0    1
 -2      1044      1038      1076      4011      4119      4120
 -1      2082    8    0    1
 -2      1039      1040      1077      3997      4121      4122
 -1      2083    8    0    1
 -2      1020      1062      1078      4068      4123      4124
 -1      2084    8    0    1
 -2      1020      1078      1043      4124      4125      4080
 -1      2085    8    0    1
 -2       989       971      1061      3855      4126      4127
 -1      2086    8    0    1
 -2       952       910       989      3989      3822      4128
 -1      2087    8    0    1
 -2      1023      1022      1079      3946      4129      4130
 -1      2088    8    0    1
 -2      1022      1071      1079      4106      4131      4129
 -1      2089    8    0    1
 -2      1024      1023      1080      3949      4132      4133
 -1      2090    8    0    1
 -2      1023      1079      1080      4130      4134      4132
 -1      2091    8    0    1
 -2      1025      1024      1081      3952      4135      4136
 -1      2092    8    0    1
 -2      1024      1080      1081      4133      4137      4135
 -1      2093    8    0    1
 -2      1026      1025      1082      3955      4138      4139
 -1      2094    8    0    1
 -2      1025      1081      1082      4136      4140      4138
 -1      2095    8    0    1
 -2      1027      1026      1083      3958      4141      4142
 -1      2096    8    0    1
 -2      1026      1082      1083      4139      4143      4141
 -1      2097    8    0    1
 -2      1028      1027      1084      3961      4144      4145
 -1      2098    8    0    1
 -2      1027      1083      1084      4142      4146      4144
 -1      2099    8    0    1
 -2      1029      1028      1085      3964      4147      4148
 -1      2100    8    0    1
 -2      1028      1084      1085      4145      4149      4147
 -1      2101    8    0    1
 -2      1030      1029      1086      3967      4150      4151
 -1      2102    8    0    1
 -2      1029      1085      1086      4148      4152      4150
 -1      2103    8    0    1
 -2      1031      1030      1087      3970      4153      4154
 -1      2104    8    0    1
 -2      1030      1086      1087      4151      4155      4153
 -1      2105    8    0    1
 -2      1032      1031      1088      3973      4156      4157
 -1      2106    8    0    1
 -2      1031      1087      1088      4154      4158      4156
 -1      2107    8    0    1
 -2      1033      1032      1089      3976      4159      4160
 -1      2108    8    0    1
 -2      1032      1088      1089      4157      4161      4159
 -1      2109    8    0    1
 -2      1034      1033      1090      3979      4162      4163
 -1      2110    8    0    1
 -2      1033      1089      1090      4160      4164      4162
 -1      2111    8    0    1
 -2      1035      1034      1091      3982      4165      4166
 -1      2112    8    0    1
 -2      1034      1090      1091      4163      4167      4165
 -1      2113    8    0    1
 -2      1036      1035      1092      3985      4168      4169
 -1      2114    8    0    1
 -2      1035      1091      1092      4166      4170      4168
 -1      2115    8    0    1
 -2      1037      1036      1070      3988      4171      4104
 -1      2116    8    0    1
 -2      1038      1047      1093      4020      4172      4173
 -1      2117    8    0    1
 -2      1038      1093      1076      4173      4174      4119
 -1      2118    8    0    1
 -2       998      1049      1094      4073      4175      4176
 -1      2119    8    0    1
 -2      1021      1061       971      4072      4126      4177
 -1      2120    8    0    1
 -2      1012      1039      1095      3994      4178      4179
 -1      2121    8    0    1
 -2      1039      1077      1095      4122      4180      4178
 -1      2122    8    0    1
 -2      1045      1044      1096      4014      4181      4182
 -1      2123    8    0    1
 -2      1044      1076      1096      4120      4183      4181
 -1      2124    8    0    1
 -2      1056      1053      1042      4091      4184      4049
 -1      2125    8    0    1
 -2       971      1048      1021      4023      4185      4177
 -1      2126    8    0    1
 -2      1013      1050      1097      4082      4186      4187
 -1      2127    8    0    1
 -2      1006       936      1003      3893      3882      4188
 -1      2128    8    0    1
 -2      1049      1004      1098      4026      4189      4190
 -1      2129    8    0    1
 -2      1094      1049      1098      4175      4190      4191
 -1      2130    8    0    1
 -2      1004      1067      1098      4086      4192      4189
 -1      2131    8    0    1
 -2      1014      1013      1099      3920      4193      4194
 -1      2132    8    0    1
 -2      1014      1099      1072      4194      4195      4107
 -1      2133    8    0    1
 -2       999      1052      1100      4037      4196      4197
 -1      2134    8    0    1
 -2      1041       999      1100      4001      4197      4198
 -1      2135    8    0    1
 -2      1052      1069      1100      4096      4199      4196
 -1      2136    8    0    1
 -2      1057       998      1094      4099      4176      4200
 -1      2137    8    0    1
 -2       997      1046      1063      4017      4071      4201
 -1      2138    8    0    1
 -2      1054      1045      1101      4044      4202      4203
 -1      2139    8    0    1
 -2      1045      1096      1101      4182      4204      4202
 -1      2140    8    0    1
 -2      1002      1005      1102      4081      4205      4206
 -1      2141    8    0    1
 -2      1066      1002      1102      4083      4206      4207
 -1      2142    8    0    1
 -2      1005      1068      1102      4089      4208      4205
 -1      2143    8    0    1
 -2       912      1010      1003      3905      4209      3883
 -1      2144    8    0    1
 -2      1058      1054      1103      4055      4210      4211
 -1      2145    8    0    1
 -2      1054      1101      1103      4203      4212      4210
 -1      2146    8    0    1
 -2      1019      1043      1078      4007      4125      4213
 -1      2147    8    0    1
 -2       952       989      1061      4128      4127      4065
 -1      2148    8    0    1
 -2      1003      1010      1056      4209      4092      4098
 -1      2149    8    0    1
 -2      1042      1053      1060      4184      4064      4214
 -1      2150    8    0    1
 -2      1047      1012      1104      4061      4215      4216
 -1      2151    8    0    1
 -2      1093      1047      1104      4172      4216      4217
 -1      2152    8    0    1
 -2      1012      1095      1104      4179      4218      4215
 -1      2153    8    0    1
 -2      1060      1019      1105      4062      4219      4220
 -1      2154    8    0    1
 -2      1019      1078      1105      4213      4221      4219
 -1      2155    8    0    1
 -2      1066      1102      1106      4207      4222      4223
 -1      2156    8    0    1
 -2      1066      1106      1107      4223      4224      4225
 -1      2157    8    0    1
 -2      1066      1107      1067      4225      4226      4087
 -1      2158    8    0    1
 -2      1040      1041      1108      4000      4227      4228
 -1      2159    8    0    1
 -2      1077      1040      1108      4121      4228      4229
 -1      2160    8    0    1
 -2      1041      1100      1108      4198      4230      4227
 -1      2161    8    0    1
 -2      1099      1013      1097      4193      4187      4231
 -1      2162    8    0    1
 -2      1064       997      1063      4074      4201      4232
 -1      2163    8    0    1
 -2      1057      1094      1109      4200      4233      4234
 -1      2164    8    0    1
 -2      1078      1062      1110      4123      4235      4236
 -1      2165    8    0    1
 -2      1078      1110      1105      4236      4237      4221
 -1      2166    8    0    1
 -2      1055      1065      1111      4078      4238      4239
 -1      2167    8    0    1
 -2      1058      1103      1112      4211      4240      4241
 -1      2168    8    0    1
 -2      1058      1112      1068      4241      4242      4090
 -1      2169    8    0    1
 -2      1048      1057      1109      4093      4234      4243
 -1      2170    8    0    1
 -2      1050      1042      1060      4029      4214      4244
 -1      2171    8    0    1
 -2      1100      1069      1113      4199      4245      4246
 -1      2172    8    0    1
 -2      1100      1113      1108      4246      4247      4230
 -1      2173    8    0    1
 -2      1063      1055      1111      4069      4239      4248
 -1      2174    8    0    1
 -2      1036      1092      1070      4169      4249      4171
 -1      2175    8    0    1
 -2      1021      1048      1071      4185      4250      4105
 -1      2176    8    0    1
 -2      1071      1048      1109      4250      4243      4251
 -1      2177    8    0    1
 -2      1065      1000      1075      4100      4252      4253
 -1      2178    8    0    1
 -2      1062      1064      1114      4076      4254      4255
 -1      2179    8    0    1
 -2      1062      1114      1110      4255      4256      4235
 -1      2180    8    0    1
 -2      1065      1075      1115      4253      4257      4258
 -1      2181    8    0    1
 -2      1111      1065      1115      4238      4258      4259
 -1      2182    8    0    1
 -2      1075      1074      1115      4118      4260      4257
 -1      2183    8    0    1
 -2      1113      1069      1070      4245      4103      4261
 -1      2184    8    0    1
 -2      1000      1059      1075      4059      4117      4252
 -1      2185    8    0    1
 -2      1113      1070      1092      4261      4249      4262
 -1      2186    8    0    1
 -2      1063      1111      1116      4248      4263      4264
 -1      2187    8    0    1
 -2      1079      1071      1109      4131      4251      4265
 -1      2188    8    0    1
 -2      1081      1080      1117      4137      4266      4267
 -1      2189    8    0    1
 -2      1082      1081      1106      4140      4268      4269
 -1      2190    8    0    1
 -2      1084      1083      1118      4146      4270      4271
 -1      2191    8    0    1
 -2      1085      1084      1103      4149      4272      4273
 -1      2192    8    0    1
 -2      1086      1085      1101      4152      4274      4275
 -1      2193    8    0    1
 -2      1087      1086      1096      4155      4276      4277
 -1      2194    8    0    1
 -2      1088      1087      1076      4158      4278      4279
 -1      2195    8    0    1
 -2      1089      1088      1093      4161      4280      4281
 -1      2196    8    0    1
 -2      1090      1089      1104      4164      4282      4283
 -1      2197    8    0    1
 -2      1091      1090      1095      4167      4284      4285
 -1      2198    8    0    1
 -2      1092      1091      1077      4170      4286      4287
 -1      2199    8    0    1
 -2      1109      1094      1119      4233      4288      4289
 -1      2200    8    0    1
 -2      1094      1098      1119      4191      4290      4288
 -1      2201    8    0    1
 -2      1064      1063      1116      4232      4264      4291
 -1      2202    8    0    1
 -2      1095      1077      1091      4180      4286      4285
 -1      2203    8    0    1
 -2      1096      1076      1087      4183      4278      4277
 -1      2204    8    0    1
 -2      1096      1086      1101      4276      4275      4204
 -1      2205    8    0    1
 -2      1072      1099      1110      4195      4292      4293
 -1      2206    8    0    1
 -2      1097      1050      1060      4186      4244      4294
 -1      2207    8    0    1
 -2      1101      1085      1103      4274      4273      4212
 -1      2208    8    0    1
 -2      1095      1090      1104      4284      4283      4218
 -1      2209    8    0    1
 -2      1072      1110      1114      4293      4256      4295
 -1      2210    8    0    1
 -2      1102      1068      1120      4208      4296      4297
 -1      2211    8    0    1
 -2      1068      1112      1120      4242      4298      4296
 -1      2212    8    0    1
 -2      1093      1088      1076      4280      4279      4174
 -1      2213    8    0    1
 -2      1073      1072      1114      4111      4295      4299
 -1      2214    8    0    1
 -2      1099      1097      1105      4231      4300      4301
 -1      2215    8    0    1
 -2      1079      1109      1119      4265      4289      4302
 -1      2216    8    0    1
 -2      1110      1099      1105      4292      4301      4237
 -1      2217    8    0    1
 -2      1097      1060      1105      4294      4220      4300
 -1      2218    8    0    1
 -2      1106      1102      1120      4222      4297      4303
 -1      2219    8    0    1
 -2      1106      1081      1117      4268      4267      4304
 -1      2220    8    0    1
 -2      1074      1073      1121      4114      4305      4306
 -1      2221    8    0    1
 -2      1117      1080      1119      4266      4307      4308
 -1      2222    8    0    1
 -2      1080      1079      1119      4134      4302      4307
 -1      2223    8    0    1
 -2      1082      1106      1122      4269      4309      4310
 -1      2224    8    0    1
 -2      1083      1082      1122      4143      4310      4311
 -1      2225    8    0    1
 -2      1089      1093      1104      4281      4217      4282
 -1      2226    8    0    1
 -2      1092      1077      1113      4287      4312      4262
 -1      2227    8    0    1
 -2      1103      1084      1112      4272      4313      4240
 -1      2228    8    0    1
 -2      1003       981      1006      4097      3892      4188
 -1      2229    8    0    1
 -2      1074      1121      1115      4306      4314      4260
 -1      2230    8    0    1
 -2      1064      1116      1114      4291      4315      4254
 -1      2231    8    0    1
 -2      1083      1122      1118      4311      4316      4270
 -1      2232    8    0    1
 -2      1113      1077      1108      4312      4229      4247
 -1      2233    8    0    1
 -2      1106      1120      1122      4303      4317      4309
 -1      2234    8    0    1
 -2      1116      1111      1115      4263      4259      4318
 -1      2235    8    0    1
 -2      1067      1107      1123      4226      4319      4320
 -1      2236    8    0    1
 -2      1122      1120      1118      4317      4321      4316
 -1      2237    8    0    1
 -2      1106      1117      1107      4304      4322      4224
 -1      2238    8    0    1
 -2      1121      1073      1114      4305      4299      4323
 -1      2239    8    0    1
 -2      1117      1119      1107      4308      4324      4322
 -1      2240    8    0    1
 -2      1067      1123      1098      4320      4325      4192
 -1      2241    8    0    1
 -2      1118      1120      1112      4321      4298      4326
 -1      2242    8    0    1
 -2      1084      1118      1112      4271      4326      4313
 -1      2243    8    0    1
 -2      1114      1116      1121      4315      4327      4323
 -1      2244    8    0    1
 -2      1119      1098      1123      4290      4325      4328
 -1      2245    8    0    1
 -2      1115      1121      1116      4314      4327      4318
 -1      2246    8    0    1
 -2      1123      1107      1119      4319      4324      4328
 -3
    1PSTEP                         1           1           1          
  100CL  101 1.000000000        4328                     0    1           1
 -4  DISP        4    1
 -5  D1          1    2    1    0
 -5  D2          1    2    2    0
 -5  D3          1    2    3    0
 -5  ALL         1    2    0    0    1ALL
 -1         1 4.62180E-03-4.03280E-05-1.94129E-15
 -1         2 8.73125E-03 7.18065E-04-2.40668E-15
 -1         3 1.61830E-02 4.04465E-03-1.33354E-14
 -1         4 1.43032E-02 2.61379E-03-2.32350E-14
 -1         5 0.00000E+00 0.00000E+00 0.00000E+00
 -1         6 0.00000E+00 0.00000E+00 0.00000E+00
 -1         7 0.00000E+00 0.00000E+00 0.00000E+00
 -1         8 0.00000E+00 0.00000E+00 0.00000E+00
 -1         9 0.00000E+00 0.00000E+00 0.00000E+00
 -1        10 0.00000E+00 0.00000E+00 0.00000E+00
 -1        11 0.00000E+00 0.00000E+00 0.00000E+00
 -1        12 0.00000E+00 0.00000E+00 0.00000E+00
 -1        13 0.00000E+00 0.00000E+00 0.00000E+00
 -1        14 0.00000E+00 0.00000E+00 0.00000E+00
 -1        15 0.00000E+00 0.00000E+00 0.00000E+00
 -1        16 0.00000E+00 0.00000E+00 0.00000E+00
 -1        17 0.00000E+00 0.00000E+00 0.00000E+00
 -1        18 0.00000E+00 0.00000E+00 0.00000E+00
 -1        19 0.00000E+00 0.00000E+00 0.00000E+00
 -1        20 0.00000E+00 0.00000E+00 0.00000E+00
 -1        21 0.00000E+00 0.00000E+00 0.00000E+00
 -1        22 0.00000E+00 0.00000E+00 0.00000E+00
 -1        23 4.09227E-04-2.57084E-04-2.79419E-17
 -1        24 7.01115E-04-3.93055E-04-9.94552E-17
 -1        25 9.72500E-04-4.85810E-04-2.07567E-16
 -1        26 1.23959E-03-5.49777E-04-3.48229E-16
 -1        27 1.50717E-03-5.94230E-04-5.15704E-16
 -1        28 1.77763E-03-6.24775E-04-7.04613E-16
 -1        29 2.05230E-03-6.45493E-04-9.13057E-16
 -1        30 2.33191E-03-6.59640E-04-1.14123E-15
 -1        31 2.61684E-03-6.70022E-04-1.38851E-15
 -1        32 2.90705E-03-6.79169E-04-1.65404E-15
 -1        33 3.20208E-03-6.89394E-04-1.93524E-15
 -1        34 3.50088E-03-7.02720E-04-2.22160E-15
 -1        35 3.80167E-03-7.20653E-04-2.51530E-15
 -1        36 4.10186E-03-7.43782E-04-2.80832E-15
 -1        37 4.39809E-03-7.71248E-04-3.10375E-15
 -1        38 4.68669E-03-8.00200E-04-3.40862E-15
 -1        39 4.96438E-03-8.25507E-04-3.71957E-15
 -1        40 5.22935E-03-8.40060E-04-4.04420E-15
 -1        41 5.48227E-03-8.35909E-04-4.38268E-15
 -1        42 5.72670E-03-8.06130E-04-4.73711E-15
 -1        43 5.96850E-03-7.46821E-04-5.11688E-15
 -1        44 6.21434E-03-6.58357E-04-5.51786E-15
 -1        45 6.46982E-03-5.45274E-04-5.93309E-15
 -1        46 6.73810E-03-4.14835E-04-6.37013E-15
 -1        47 7.01946E-03-2.75010E-04-6.83121E-15
 -1        48 7.31196E-03-1.32718E-04-7.30945E-15
 -1        49 7.61236E-03 7.13556E-06-7.80618E-15
 -1        50 7.91722E-03 1.41821E-04-8.32802E-15
 -1        51 8.22356E-03 2.70403E-04-8.87363E-15
 -1        52 8.52921E-03 3.93156E-04-9.43786E-15
 -1        53 8.83279E-03 5.11010E-04-1.00030E-14
 -1        54 9.13364E-03 6.25133E-04-1.05706E-14
 -1        55 9.43159E-03 7.36666E-04-1.11467E-14
 -1        56 9.72680E-03 8.46586E-04-1.17358E-14
 -1        57 1.00196E-02 9.55660E-04-1.23368E-14
 -1        58 1.03104E-02 1.06444E-03-1.29500E-14
 -1        59 1.05996E-02 1.17330E-03-1.35684E-14
 -1        60 1.08875E-02 1.28247E-03-1.41845E-14
 -1        61 1.11746E-02 1.39207E-03-1.48027E-14
 -1        62 1.14610E-02 1.50213E-03-1.54479E-14
 -1        63 1.17470E-02 1.61266E-03-1.61274E-14
 -1        64 1.20328E-02 1.72362E-03-1.68254E-14
 -1        65 1.23183E-02 1.83494E-03-1.75573E-14
 -1        66 1.26038E-02 1.94657E-03-1.83170E-14
 -1        67 1.28893E-02 2.05845E-03-1.91138E-14
 -1        68 1.31748E-02 2.17051E-03-1.99275E-14
 -1        69 1.34604E-02 2.28269E-03-2.07517E-14
 -1        70 1.37461E-02 2.39493E-03-2.15813E-14
 -1        71 1.40317E-02 2.50717E-03-2.24225E-14
 -1        72 4.11253E-04 2.57460E-04 3.78929E-17
 -1        73 7.00369E-04 3.94929E-04 8.73596E-17
 -1        74 9.72306E-04 4.86000E-04 1.43487E-16
 -1        75 1.23966E-03 5.48743E-04 1.99846E-16
 -1        76 1.50764E-03 5.91499E-04 2.51887E-16
 -1        77 1.77904E-03 6.19583E-04 2.97617E-16
 -1        78 2.05575E-03 6.36798E-04 3.34171E-16
 -1        79 2.33946E-03 6.46174E-04 3.60938E-16
 -1        80 2.63201E-03 6.50447E-04 3.77980E-16
 -1        81 2.93572E-03 6.52493E-04 3.83957E-16
 -1        82 3.25358E-03 6.55852E-04 3.79145E-16
 -1        83 3.58941E-03 6.65434E-04 3.65701E-16
 -1        84 3.94767E-03 6.88471E-04 3.45671E-16
 -1        85 4.33259E-03 7.35599E-04 3.19792E-16
 -1        86 4.74587E-03 8.21461E-04 2.83709E-16
 -1        87 5.18225E-03 9.62981E-04 2.30413E-16
 -1        88 5.62352E-03 1.17171E-03 1.68194E-16
 -1        89 6.03649E-03 1.43727E-03 1.01224E-16
 -1        90 6.38539E-03 1.70864E-03 3.93125E-17
 -1        91 6.66265E-03 1.89918E-03-2.55668E-17
 -1        92 6.91175E-03 1.93962E-03-9.90690E-17
 -1        93 7.16818E-03 1.85270E-03-1.80882E-16
 -1        94 7.52391E-03 1.68933E-03-2.99836E-16
 -1        95 7.94255E-03 1.53770E-03-4.56734E-16
 -1        96 8.38703E-03 1.44552E-03-6.49573E-16
 -1        97 8.82499E-03 1.42074E-03-8.77824E-16
 -1        98 9.23965E-03 1.45095E-03-1.14978E-15
 -1        99 9.62683E-03 1.51933E-03-1.44939E-15
 -1       100 9.98888E-03 1.61178E-03-1.76354E-15
 -1       101 1.03471E-02 1.72399E-03-2.10462E-15
 -1       102 1.06722E-02 1.83872E-03-2.45222E-15
 -1       103 1.09858E-02 1.95722E-03-2.83804E-15
 -1       104 1.12909E-02 2.07728E-03-3.22953E-15
 -1       105 1.15900E-02 2.19762E-03-3.64275E-15
 -1       106 1.18847E-02 2.31758E-03-4.07995E-15
 -1       107 1.21763E-02 2.43682E-03-4.53983E-15
 -1       108 1.24658E-02 2.55521E-03-5.01662E-15
 -1       109 1.27538E-02 2.67272E-03-5.51794E-15
 -1       110 1.30408E-02 2.78943E-03-6.05282E-15
 -1       111 1.33271E-02 2.90540E-03-6.62177E-15
 -1       112 1.36130E-02 3.02073E-03-7.20882E-15
 -1       113 1.38986E-02 3.13553E-03-7.81040E-15
 -1       114 1.41841E-02 3.24989E-03-8.43256E-15
 -1       115 1.44695E-02 3.36390E-03-9.05815E-15
 -1       116 1.47550E-02 3.47764E-03-9.71590E-15
 -1       117 1.50405E-02 3.59118E-03-1.03930E-14
 -1       118 1.53260E-02 3.70459E-03-1.10939E-14
 -1       119 1.56116E-02 3.81794E-03-1.18156E-14
 -1       120 1.58973E-02 3.93128E-03-1.25577E-14
 -1       121 1.60716E-02 3.96036E-03-1.39558E-14
 -1       122 1.59600E-02 3.87604E-03-1.45658E-14
 -1       123 1.58485E-02 3.79168E-03-1.51796E-14
 -1       124 1.57371E-02 3.70726E-03-1.58011E-14
 -1       125 1.56257E-02 3.62280E-03-1.64195E-14
 -1       126 1.55163E-02 3.53975E-03-1.70409E-14
 -1       127 1.54052E-02 3.45524E-03-1.76632E-14
 -1       128 1.52941E-02 3.37073E-03-1.82640E-14
 -1       129 1.51832E-02 3.28622E-03-1.88389E-14
 -1       130 1.50725E-02 3.20171E-03-1.94024E-14
 -1       131 1.49618E-02 3.11721E-03-1.99655E-14
 -1       132 1.48531E-02 3.03417E-03-2.05367E-14
 -1       133 1.47427E-02 2.94972E-03-2.11171E-14
 -1       134 1.46323E-02 2.86532E-03-2.16781E-14
 -1       135 1.45220E-02 2.78096E-03-2.22053E-14
 -1       136 1.44116E-02 2.69665E-03-2.27260E-14
 -1       137 8.73000E-03 8.94763E-04-2.22693E-15
 -1       138 8.62379E-03 1.07465E-03-2.01872E-15
 -1       139 8.43116E-03 1.23421E-03-1.82559E-15
 -1       140 8.14486E-03 1.38204E-03-1.63614E-15
 -1       141 7.78036E-03 1.50454E-03-1.46169E-15
 -1       142 7.30731E-03 1.59730E-03-1.29974E-15
 -1       143 6.81631E-03 1.63015E-03-1.18517E-15
 -1       144 6.25176E-03 1.59597E-03-1.10300E-15
 -1       145 5.74456E-03 1.50170E-03-1.06833E-15
 -1       146 5.25226E-03 1.34910E-03-1.06775E-15
 -1       147 4.86418E-03 1.17974E-03-1.09971E-15
 -1       148 4.53509E-03 9.83535E-04-1.16131E-15
 -1       149 4.29955E-03 7.82382E-04-1.25040E-15
 -1       150 4.17744E-03 6.01153E-04-1.35291E-15
 -1       151 4.14348E-03 4.21711E-04-1.47738E-15
 -1       152 4.20759E-03 2.47908E-04-1.62395E-15
 -1       153 4.36820E-03 9.30226E-05-1.77892E-15
 -1       154 4.92872E-03-1.38894E-04-2.09892E-15
 -1       155 5.28517E-03-2.07819E-04-2.25145E-15
 -1       156 5.69000E-03-2.46166E-04-2.39790E-15
 -1       157 6.12447E-03-2.51295E-04-2.53007E-15
 -1       158 6.58584E-03-2.20666E-04-2.64204E-15
 -1       159 7.04487E-03-1.53253E-04-2.72482E-15
 -1       160 7.47028E-03-5.74882E-05-2.76763E-15
 -1       161 7.85332E-03 6.40672E-05-2.77300E-15
 -1       162 8.17932E-03 2.05184E-04-2.74352E-15
 -1       163 8.45583E-03 3.72182E-04-2.66854E-15
 -1       164 8.63253E-03 5.36877E-04-2.56279E-15
 -1       165 2.40850E-04-1.22430E-04-2.58955E-17
 -1       166 2.25984E-04-9.11752E-05-2.43708E-17
 -1       167 2.20108E-04-6.91741E-05-2.17620E-17
 -1       168 2.16990E-04-5.16365E-05-1.90244E-17
 -1       169 2.15134E-04-3.69347E-05-1.62224E-17
 -1       170 2.13950E-04-2.36232E-05-1.37050E-17
 -1       171 2.13283E-04-1.13361E-05-1.10250E-17
 -1       172 2.13063E-04 4.42319E-07-8.50760E-18
 -1       173 2.13283E-04 1.21918E-05-5.88857E-18
 -1       174 2.13972E-04 2.44076E-05-2.93073E-18
 -1       175 2.15181E-04 3.74134E-05 1.18585E-19
 -1       176 2.17146E-04 5.23487E-05 3.92346E-18
 -1       177 2.20346E-04 7.00280E-05 8.34158E-18
 -1       178 2.26236E-04 9.23551E-05 1.36508E-17
 -1       179 2.39803E-04 1.24287E-04 2.02610E-17
 -1       180 2.97358E-04 1.81975E-04 2.86094E-17
 -1       181 4.68832E-04-2.57696E-04-6.43948E-17
 -1       182 7.68005E-04-3.71561E-04-1.50494E-16
 -1       183 1.05385E-03-4.49441E-04-2.67615E-16
 -1       184 1.33436E-03-5.03062E-04-4.12231E-16
 -1       185 1.61340E-03-5.39596E-04-5.79906E-16
 -1       186 1.89331E-03-5.64005E-04-7.68083E-16
 -1       187 2.17550E-03-5.80051E-04-9.75023E-16
 -1       188 2.46078E-03-5.90845E-04-1.19961E-15
 -1       189 2.74956E-03-5.99135E-04-1.44185E-15
 -1       190 3.04187E-03-6.07451E-04-1.69969E-15
 -1       191 3.33730E-03-6.18110E-04-1.96826E-15
 -1       192 3.63500E-03-6.33077E-04-2.24219E-15
 -1       193 3.93356E-03-6.53647E-04-2.52232E-15
 -1       194 4.23106E-03-6.79930E-04-2.80297E-15
 -1       195 4.52523E-03-7.10229E-04-3.09051E-15
 -1       196 4.81377E-03-7.40496E-04-3.38674E-15
 -1       197 5.09496E-03-7.64216E-04-3.69410E-15
 -1       198 5.36831E-03-7.73109E-04-4.01470E-15
 -1       199 5.63510E-03-7.58801E-04-4.34952E-15
 -1       200 5.89833E-03-7.15094E-04-4.70212E-15
 -1       201 6.16206E-03-6.39950E-04-5.07926E-15
 -1       202 6.43026E-03-5.36194E-04-5.47679E-15
 -1       203 6.70571E-03-4.10555E-04-5.89200E-15
 -1       204 6.98943E-03-2.71565E-04-6.32974E-15
 -1       205 7.28078E-03-1.27353E-04-6.78665E-15
 -1       206 7.57802E-03 1.58470E-05-7.26390E-15
 -1       207 7.87897E-03 1.54217E-04-7.75876E-15
 -1       208 8.18152E-03 2.86113E-04-8.27928E-15
 -1       209 8.48401E-03 4.11461E-04-8.81764E-15
 -1       210 8.78526E-03 5.31107E-04-9.36926E-15
 -1       211 9.08461E-03 6.46293E-04-9.92467E-15
 -1       212 9.38178E-03 7.58305E-04-1.04866E-14
 -1       213 9.67674E-03 8.68282E-04-1.10598E-14
 -1       214 9.96968E-03 9.77133E-04-1.16438E-14
 -1       215 1.02609E-02 1.08553E-03-1.22420E-14
 -1       216 1.05506E-02 1.19394E-03-1.28500E-14
 -1       217 1.08391E-02 1.30264E-03-1.34682E-14
 -1       218 1.11267E-02 1.41180E-03-1.40876E-14
 -1       219 1.14136E-02 1.52147E-03-1.47189E-14
 -1       220 1.17001E-02 1.63167E-03-1.53829E-14
 -1       221 1.19862E-02 1.74235E-03-1.60692E-14
 -1       222 1.22721E-02 1.85345E-03-1.67805E-14
 -1       223 1.25578E-02 1.96492E-03-1.75216E-14
 -1       224 1.28435E-02 2.07668E-03-1.82923E-14
 -1       225 1.31291E-02 2.18865E-03-1.90868E-14
 -1       226 1.34147E-02 2.30079E-03-1.99013E-14
 -1       227 1.37004E-02 2.41301E-03-2.07238E-14
 -1       228 1.39861E-02 2.52528E-03-2.15534E-14
 -1       229 6.04575E-04 3.22596E-04 6.87757E-17
 -1       230 8.95077E-04 4.18633E-04 1.14048E-16
 -1       231 1.17663E-03 4.84184E-04 1.59313E-16
 -1       232 1.45522E-03 5.28376E-04 2.00039E-16
 -1       233 1.73437E-03 5.56969E-04 2.34350E-16
 -1       234 2.01641E-03 5.73982E-04 2.59819E-16
 -1       235 2.30319E-03 5.82524E-04 2.75628E-16
 -1       236 2.59645E-03 5.85304E-04 2.81649E-16
 -1       237 2.89807E-03 5.85078E-04 2.76597E-16
 -1       238 3.21025E-03 5.85169E-04 2.62177E-16
 -1       239 3.53554E-03 5.90182E-04 2.39497E-16
 -1       240 3.87679E-03 6.06996E-04 2.08580E-16
 -1       241 4.23658E-03 6.45994E-04 1.69718E-16
 -1       242 4.61625E-03 7.22030E-04 1.21458E-16
 -1       243 5.01400E-03 8.53512E-04 5.95905E-17
 -1       244 5.42224E-03 1.05582E-03-1.21837E-17
 -1       245 5.82601E-03 1.32458E-03-8.85319E-17
 -1       246 6.20677E-03 1.61256E-03-1.63776E-16
 -1       247 6.55603E-03 1.82632E-03-2.42739E-16
 -1       248 6.88995E-03 1.88098E-03-3.37001E-16
 -1       249 7.20325E-03 1.79239E-03-4.37740E-16
 -1       250 7.58178E-03 1.61765E-03-5.75318E-16
 -1       251 7.98550E-03 1.45495E-03-7.44020E-16
 -1       252 8.39594E-03 1.35652E-03-9.49226E-16
 -1       253 8.79754E-03 1.33006E-03-1.18718E-15
 -1       254 9.18216E-03 1.36135E-03-1.45968E-15
 -1       255 9.54767E-03 1.43204E-03-1.76063E-15
 -1       256 9.89539E-03 1.52712E-03-2.08317E-15
 -1       257 1.02443E-02 1.64190E-03-2.43477E-15
 -1       258 1.05644E-02 1.75871E-03-2.78795E-15
 -1       259 1.08752E-02 1.87891E-03-3.17108E-15
 -1       260 1.11790E-02 2.00032E-03-3.57137E-15
 -1       261 1.14776E-02 2.12171E-03-3.99032E-15
 -1       262 1.17723E-02 2.24247E-03-4.43598E-15
 -1       263 1.20642E-02 2.36232E-03-4.90164E-15
 -1       264 1.23541E-02 2.48117E-03-5.39203E-15
 -1       265 1.26426E-02 2.59903E-03-5.90659E-15
 -1       266 1.29300E-02 2.71599E-03-6.44932E-15
 -1       267 1.32167E-02 2.83214E-03-7.01551E-15
 -1       268 1.35029E-02 2.94761E-03-7.59606E-15
 -1       269 1.37888E-02 3.06250E-03-8.19866E-15
 -1       270 1.40746E-02 3.17692E-03-8.82397E-15
 -1       271 1.43602E-02 3.29096E-03-9.46496E-15
 -1       272 1.46458E-02 3.40472E-03-1.01245E-14
 -1       273 1.49314E-02 3.51827E-03-1.08068E-14
 -1       274 1.52170E-02 3.63168E-03-1.15045E-14
 -1       275 1.55027E-02 3.74503E-03-1.22230E-14
 -1       276 1.57884E-02 3.85835E-03-1.29607E-14
 -1       277 1.57684E-02 3.82003E-03-1.36075E-14
 -1       278 1.56568E-02 3.73571E-03-1.42327E-14
 -1       279 1.55453E-02 3.65135E-03-1.48577E-14
 -1       280 1.54339E-02 3.56698E-03-1.54831E-14
 -1       281 1.53245E-02 3.48402E-03-1.60894E-14
 -1       282 1.52133E-02 3.39961E-03-1.66937E-14
 -1       283 1.51022E-02 3.31521E-03-1.72899E-14
 -1       284 1.49912E-02 3.23080E-03-1.78746E-14
 -1       285 1.48804E-02 3.14639E-03-1.84460E-14
 -1       286 1.47696E-02 3.06199E-03-1.90099E-14
 -1       287 1.46609E-02 2.97903E-03-1.95614E-14
 -1       288 1.45504E-02 2.89464E-03-2.01201E-14
 -1       289 1.44400E-02 2.81028E-03-2.06727E-14
 -1       290 1.43297E-02 2.72593E-03-2.12094E-14
 -1       291 1.41579E-02 2.62559E-03-2.13858E-14
 -1       292 8.76934E-03 7.97800E-04-2.41520E-15
 -1       293 8.68478E-03 8.96177E-04-2.18862E-15
 -1       294 8.47421E-03 1.03190E-03-1.93609E-15
 -1       295 8.17390E-03 1.19099E-03-1.70311E-15
 -1       296 7.81129E-03 1.37334E-03-1.48357E-15
 -1       297 7.39273E-03 1.55631E-03-1.27074E-15
 -1       298 6.98390E-03 1.68577E-03-1.11738E-15
 -1       299 6.56788E-03 1.71177E-03-9.99228E-16
 -1       300 6.12936E-03 1.59986E-03-9.56700E-16
 -1       301 5.70154E-03 1.39480E-03-9.25333E-16
 -1       302 5.24134E-03 1.15519E-03-9.66349E-16
 -1       303 4.84222E-03 9.09512E-04-1.00887E-15
 -1       304 4.48330E-03 6.97387E-04-1.08554E-15
 -1       305 4.23160E-03 5.81919E-04-1.22068E-15
 -1       306 4.12182E-03 4.76135E-04-1.34700E-15
 -1       307 4.14535E-03 3.79729E-04-1.49681E-15
 -1       308 4.30446E-03 2.77711E-04-1.66271E-15
 -1       309 4.58132E-03 1.59552E-04-1.84419E-15
 -1       310 4.90121E-03 2.65091E-06-2.03085E-15
 -1       311 5.25393E-03-1.33732E-04-2.21364E-15
 -1       312 5.60233E-03-2.49622E-04-2.38678E-15
 -1       313 5.96156E-03-3.19566E-04-2.56021E-15
 -1       314 6.32029E-03-3.18024E-04-2.71320E-15
 -1       315 6.68017E-03-2.42806E-04-2.86715E-15
 -1       316 7.08361E-03-9.13800E-05-2.92184E-15
 -1       317 7.48560E-03 8.64480E-05-2.94957E-15
 -1       318 7.87234E-03 2.72869E-04-2.94456E-15
 -1       319 8.22809E-03 4.62226E-04-2.91229E-15
 -1       320 8.52727E-03 5.89446E-04-2.77874E-15
 -1       321 8.71393E-03 7.07714E-04-2.63700E-15
 -1       322 4.56836E-04-1.57468E-04-6.94872E-17
 -1       323 4.75777E-04-2.05895E-04-7.50370E-17
 -1       324 4.40377E-04-8.75244E-05-5.50538E-17
 -1       325 4.36495E-04-5.96369E-05-4.74881E-17
 -1       326 4.34117E-04-3.43373E-05-4.00545E-17
 -1       327 4.32960E-04-1.05221E-05-3.23668E-17
 -1       328 4.32944E-04 1.27670E-05-2.47232E-17
 -1       329 4.34104E-04 3.64709E-05-1.64731E-17
 -1       330 4.36514E-04 6.11644E-05-7.69784E-18
 -1       331 4.40565E-04 8.88877E-05 1.85331E-18
 -1       332 4.46962E-04 1.20836E-04 1.26276E-17
 -1       333 4.57517E-04 1.59472E-04 2.49129E-17
 -1       334 4.77526E-04 2.09365E-04 3.92718E-17
 -1       335 5.33212E-04 2.61922E-04 5.30852E-17
 -1       336 8.27186E-04 3.59844E-04 9.00362E-17
 -1       337 8.66577E-04-3.43917E-04-1.97179E-16
 -1       338 1.15512E-03-4.07409E-04-3.20399E-16
 -1       339 1.44097E-03-4.51145E-04-4.67186E-16
 -1       340 1.72585E-03-4.80470E-04-6.34401E-16
 -1       341 2.01111E-03-4.99527E-04-8.21029E-16
 -1       342 2.29777E-03-5.11693E-04-1.02485E-15
 -1       343 2.58652E-03-5.19892E-04-1.24516E-15
 -1       344 2.87779E-03-5.26786E-04-1.48098E-15
 -1       345 3.17177E-03-5.34869E-04-1.72946E-15
 -1       346 3.46836E-03-5.46420E-04-1.98558E-15
 -1       347 3.76711E-03-5.63298E-04-2.24804E-15
 -1       348 4.06714E-03-5.86532E-04-2.51519E-15
 -1       349 4.36708E-03-6.15710E-04-2.78668E-15
 -1       350 4.66512E-03-6.48250E-04-3.06614E-15
 -1       351 4.95929E-03-6.78850E-04-3.35498E-15
 -1       352 5.24805E-03-6.99539E-04-3.65723E-15
 -1       353 5.53106E-03-7.00855E-04-3.97283E-15
 -1       354 5.80973E-03-6.74176E-04-4.30375E-15
 -1       355 6.08702E-03-6.14499E-04-4.65658E-15
 -1       356 6.36649E-03-5.22303E-04-5.03168E-15
 -1       357 6.65090E-03-4.03368E-04-5.42553E-15
 -1       358 6.94139E-03-2.66663E-04-5.84102E-15
 -1       359 7.23740E-03-1.21563E-04-6.27582E-15
 -1       360 7.53735E-03 2.42938E-05-6.73145E-15
 -1       361 7.83933E-03 1.65938E-04-7.20595E-15
 -1       362 8.14169E-03 3.00965E-04-7.70084E-15
 -1       363 8.44320E-03 4.28898E-04-8.21584E-15
 -1       364 8.74314E-03 5.50442E-04-8.74643E-15
 -1       365 9.04112E-03 6.66857E-04-9.28549E-15
 -1       366 9.33708E-03 7.79530E-04-9.83393E-15
 -1       367 9.63110E-03 8.89732E-04-1.03958E-14
 -1       368 9.92338E-03 9.98504E-04-1.09645E-14
 -1       369 1.02141E-02 1.10663E-03-1.15454E-14
 -1       370 1.05037E-02 1.21466E-03-1.21408E-14
 -1       371 1.07922E-02 1.32294E-03-1.27494E-14
 -1       372 1.10798E-02 1.43168E-03-1.33692E-14
 -1       373 1.13669E-02 1.54096E-03-1.39952E-14
 -1       374 1.16535E-02 1.65081E-03-1.46406E-14
 -1       375 1.19398E-02 1.76120E-03-1.53123E-14
 -1       376 1.22259E-02 1.87207E-03-1.60068E-14
 -1       377 1.25117E-02 1.98335E-03-1.67325E-14
 -1       378 1.27975E-02 2.09496E-03-1.74815E-14
 -1       379 1.30833E-02 2.20684E-03-1.82560E-14
 -1       380 1.33690E-02 2.31891E-03-1.90529E-14
 -1       381 1.36547E-02 2.43111E-03-1.98635E-14
 -1       382 1.39063E-02 2.52835E-03-2.06202E-14
 -1       383 1.11511E-03 4.27884E-04 1.26604E-16
 -1       384 1.39956E-03 4.73913E-04 1.58947E-16
 -1       385 1.68323E-03 5.03650E-04 1.84104E-16
 -1       386 1.96817E-03 5.21213E-04 2.00530E-16
 -1       387 2.25604E-03 5.29783E-04 2.08025E-16
 -1       388 2.54825E-03 5.32075E-04 2.05263E-16
 -1       389 2.84624E-03 5.30773E-04 1.92273E-16
 -1       390 3.15150E-03 5.29025E-04 1.69369E-16
 -1       391 3.46576E-03 5.31111E-04 1.38263E-16
 -1       392 3.79096E-03 5.43374E-04 9.86217E-17
 -1       393 4.12941E-03 5.75417E-04 4.99919E-17
 -1       394 4.48370E-03 6.41234E-04-7.24044E-18
 -1       395 4.85645E-03 7.59132E-04-7.71681E-17
 -1       396 5.24885E-03 9.47431E-04-1.56864E-16
 -1       397 5.65623E-03 1.21050E-03-2.42197E-16
 -1       398 6.06403E-03 1.51232E-03-3.28520E-16
 -1       399 6.45653E-03 1.75668E-03-4.18306E-16
 -1       400 6.83573E-03 1.83430E-03-5.23893E-16
 -1       401 7.18457E-03 1.74590E-03-6.38853E-16
 -1       402 7.58960E-03 1.55938E-03-7.90350E-16
 -1       403 8.00018E-03 1.38726E-03-9.70686E-16
 -1       404 8.39968E-03 1.28475E-03-1.18391E-15
 -1       405 8.78065E-03 1.25732E-03-1.42759E-15
 -1       406 9.14300E-03 1.28877E-03-1.70214E-15
 -1       407 9.48923E-03 1.36006E-03-2.00812E-15
 -1       408 9.82214E-03 1.45595E-03-2.33234E-15
 -1       409 1.01601E-02 1.57168E-03-2.68978E-15
 -1       410 1.04731E-02 1.68938E-03-3.04639E-15
 -1       411 1.07793E-02 1.81042E-03-3.43322E-15
 -1       412 1.10803E-02 1.93257E-03-3.83689E-15
 -1       413 1.13772E-02 2.05460E-03-4.26152E-15
 -1       414 1.16709E-02 2.17590E-03-4.70952E-15
 -1       415 1.19624E-02 2.29618E-03-5.18159E-15
 -1       416 1.22521E-02 2.41538E-03-5.67775E-15
 -1       417 1.25405E-02 2.53351E-03-6.20043E-15
 -1       418 1.28280E-02 2.65068E-03-6.74453E-15
 -1       419 1.31148E-02 2.76700E-03-7.31130E-15
 -1       420 1.34012E-02 2.88259E-03-7.89321E-15
 -1       421 1.36873E-02 2.99757E-03-8.49743E-15
 -1       422 1.39732E-02 3.11206E-03-9.12445E-15
 -1       423 1.42589E-02 3.22615E-03-9.77223E-15
 -1       424 1.45446E-02 3.33994E-03-1.04360E-14
 -1       425 1.48303E-02 3.45350E-03-1.11232E-14
 -1       426 1.51160E-02 3.56692E-03-1.18199E-14
 -1       427 1.54016E-02 3.68026E-03-1.25319E-14
 -1       428 1.55850E-02 3.75014E-03-1.30670E-14
 -1       429 1.52422E-02 3.51111E-03-1.45409E-14
 -1       430 1.53536E-02 3.59543E-03-1.39131E-14
 -1       431 1.54693E-02 3.67279E-03-1.34914E-14
 -1       432 1.51327E-02 3.42822E-03-1.51472E-14
 -1       433 1.50214E-02 3.34390E-03-1.57478E-14
 -1       434 1.49102E-02 3.25958E-03-1.63332E-14
 -1       435 1.47992E-02 3.17528E-03-1.69125E-14
 -1       436 1.46883E-02 3.09097E-03-1.74892E-14
 -1       437 1.45775E-02 3.00666E-03-1.80574E-14
 -1       438 1.44688E-02 2.92378E-03-1.86049E-14
 -1       439 1.43582E-02 2.83947E-03-1.91512E-14
 -1       440 1.42478E-02 2.75516E-03-1.96895E-14
 -1       441 1.41374E-02 2.67084E-03-2.02267E-14
 -1       442 8.57260E-03 9.22575E-04-2.08450E-15
 -1       443 8.77890E-03 7.81870E-04-2.63509E-15
 -1       444 8.76436E-03 8.30524E-04-2.40291E-15
 -1       445 8.33375E-03 1.03437E-03-1.83878E-15
 -1       446 7.94054E-03 1.23506E-03-1.53101E-15
 -1       447 4.46423E-04-1.19321E-04-6.25822E-17
 -1       448 7.14672E-03 1.65545E-03-1.07255E-15
 -1       449 6.79274E-03 1.75618E-03-9.03527E-16
 -1       450 6.38281E-03 1.69544E-03-8.27890E-16
 -1       451 6.02461E-03 1.52062E-03-7.97397E-16
 -1       452 5.54493E-03 1.21167E-03-8.03238E-16
 -1       453 5.16284E-03 9.72863E-04-8.50868E-16
 -1       454 4.72830E-03 7.12123E-04-9.05907E-16
 -1       455 4.31824E-03 5.32136E-04-1.05487E-15
 -1       456 4.15649E-03 4.69786E-04-1.17629E-15
 -1       457 4.09544E-03 4.12737E-04-1.33891E-15
 -1       458 4.19635E-03 3.57330E-04-1.52240E-15
 -1       459 4.42198E-03 2.72308E-04-1.70562E-15
 -1       460 4.80606E-03 1.09545E-04-1.95579E-15
 -1       461 5.10326E-03-2.73058E-05-2.13148E-15
 -1       462 5.49139E-03-2.01211E-04-2.36735E-15
 -1       463 5.77678E-03-3.04178E-04-2.53991E-15
 -1       464 6.12941E-03-3.63171E-04-2.77100E-15
 -1       465 6.41040E-03-3.26374E-04-2.92915E-15
 -1       466 6.83032E-03-1.46857E-04-3.14810E-15
 -1       467 7.14021E-03 1.98533E-05-3.18624E-15
 -1       468 7.59024E-03 2.49782E-04-3.15657E-15
 -1       469 7.96902E-03 4.45579E-04-3.14122E-15
 -1       470 8.38212E-03 6.31940E-04-3.05504E-15
 -1       471 8.61801E-03 7.16999E-04-2.91141E-15
 -1       472 7.57188E-03 1.44243E-03-1.29673E-15
 -1       473 9.35414E-04 3.29106E-04 7.67073E-17
 -1       474 6.62941E-04-6.83542E-05-8.92705E-17
 -1       475 6.68431E-04-1.06899E-04-1.03304E-16
 -1       476 6.58675E-04 1.80458E-06-6.00614E-17
 -1       477 6.59648E-04 3.60606E-05-4.46895E-17
 -1       478 6.62750E-04 7.09128E-05-2.85281E-17
 -1       479 6.68407E-04 1.09022E-04-1.12384E-17
 -1       480 6.77268E-04 1.51549E-04 7.57247E-18
 -1       481 6.90880E-04 2.00672E-04 2.84569E-17
 -1       482 1.22353E-03 3.82938E-04 9.88115E-17
 -1       483 9.80138E-04-3.12394E-04-2.39910E-16
 -1       484 6.24432E-03 1.63187E-03-6.59276E-16
 -1       485 1.26785E-03-3.61839E-04-3.66291E-16
 -1       486 1.55528E-03-3.95978E-04-5.13505E-16
 -1       487 1.84265E-03-4.18460E-04-6.80035E-16
 -1       488 2.13053E-03-4.32587E-04-8.63716E-16
 -1       489 2.41953E-03-4.41278E-04-1.06266E-15
 -1       490 2.71026E-03-4.47192E-04-1.27757E-15
 -1       491 3.00329E-03-4.52848E-04-1.50437E-15
 -1       492 3.29910E-03-4.60660E-04-1.74193E-15
 -1       493 3.59804E-03-4.72871E-04-1.98688E-15
 -1       494 3.90017E-03-4.91305E-04-2.23854E-15
 -1       495 4.20505E-03-5.16880E-04-2.49599E-15
 -1       496 4.51145E-03-5.48844E-04-2.75789E-15
 -1       497 4.81732E-03-5.83839E-04-3.02869E-15
 -1       498 5.12008E-03-6.15125E-04-3.31112E-15
 -1       499 5.41757E-03-6.32741E-04-3.60745E-15
 -1       500 5.70944E-03-6.25393E-04-3.91925E-15
 -1       501 5.99780E-03-5.84048E-04-4.24935E-15
 -1       502 6.28657E-03-5.05581E-04-4.60147E-15
 -1       503 6.57950E-03-3.94290E-04-4.97350E-15
 -1       504 6.87831E-03-2.59886E-04-5.36584E-15
 -1       505 7.18224E-03-1.13653E-04-5.77925E-15
 -1       506 7.48902E-03 3.48795E-05-6.21152E-15
 -1       507 7.79616E-03 1.79470E-04-6.66569E-15
 -1       508 8.10176E-03 3.17076E-04-7.13833E-15
 -1       509 8.40478E-03 4.47002E-04-7.62993E-15
 -1       510 8.70487E-03 5.69946E-04-8.13845E-15
 -1       511 9.00216E-03 6.87245E-04-8.66103E-15
 -1       512 9.29698E-03 8.00389E-04-9.19257E-15
 -1       513 9.58972E-03 9.10748E-04-9.73910E-15
 -1       514 9.88078E-03 1.01945E-03-1.02937E-14
 -1       515 1.01705E-02 1.12736E-03-1.08563E-14
 -1       516 1.04592E-02 1.23509E-03-1.14381E-14
 -1       517 1.07471E-02 1.34303E-03-1.20364E-14
 -1       518 1.10344E-02 1.45142E-03-1.26474E-14
 -1       519 1.13212E-02 1.56037E-03-1.32705E-14
 -1       520 1.16077E-02 1.66992E-03-1.39031E-14
 -1       521 1.18939E-02 1.78005E-03-1.45560E-14
 -1       522 1.21799E-02 1.89069E-03-1.52364E-14
 -1       523 1.24658E-02 2.00179E-03-1.59423E-14
 -1       524 1.27517E-02 2.11327E-03-1.66776E-14
 -1       525 1.30374E-02 2.22504E-03-1.74331E-14
 -1       526 1.33232E-02 2.33704E-03-1.82114E-14
 -1       527 1.36089E-02 2.44920E-03-1.90041E-14
 -1       528 1.79754E-03 4.41598E-04 1.21773E-16
 -1       529 2.08497E-03 4.53721E-04 1.20079E-16
 -1       530 2.37378E-03 4.58273E-04 1.09406E-16
 -1       531 2.66464E-03 4.57834E-04 8.86674E-17
 -1       532 2.95813E-03 4.55145E-04 5.75237E-17
 -1       533 3.25482E-03 4.53577E-04 1.64866E-17
 -1       534 3.55548E-03 4.57775E-04-3.29530E-17
 -1       535 3.86153E-03 4.74514E-04-9.23808E-17
 -1       536 4.17594E-03 5.13780E-04-1.59506E-16
 -1       537 4.50464E-03 5.89982E-04-2.37369E-16
 -1       538 4.85725E-03 7.22786E-04-3.26765E-16
 -1       539 5.24786E-03 9.34193E-04-4.23469E-16
 -1       540 7.01550E-03 1.75100E-03-7.88974E-16
 -1       541 7.43756E-03 1.56577E-03-9.58469E-16
 -1       542 7.88062E-03 1.35091E-03-1.16471E-15
 -1       543 8.28593E-03 1.21831E-03-1.37720E-15
 -1       544 8.65529E-03 1.17017E-03-1.61969E-15
 -1       545 8.99736E-03 1.18694E-03-1.88931E-15
 -1       546 9.32228E-03 1.24810E-03-2.19088E-15
 -1       547 9.63686E-03 1.33737E-03-2.51280E-15
 -1       548 9.96010E-03 1.44902E-03-2.86642E-15
 -1       549 1.02632E-02 1.56477E-03-3.22202E-15
 -1       550 1.05626E-02 1.68508E-03-3.59957E-15
 -1       551 1.08591E-02 1.80723E-03-4.00454E-15
 -1       552 1.11531E-02 1.92967E-03-4.42683E-15
 -1       553 1.14452E-02 2.05157E-03-4.87209E-15
 -1       554 1.17356E-02 2.17252E-03-5.34516E-15
 -1       555 1.20248E-02 2.29237E-03-5.83493E-15
 -1       556 1.23130E-02 2.41111E-03-6.35285E-15
 -1       557 1.26005E-02 2.52881E-03-6.89361E-15
 -1       558 1.28874E-02 2.64558E-03-7.45702E-15
 -1       559 1.31739E-02 2.76154E-03-8.03807E-15
 -1       560 1.34601E-02 2.87682E-03-8.63780E-15
 -1       561 1.37461E-02 2.99155E-03-9.25791E-15
 -1       562 1.40320E-02 3.10582E-03-9.90327E-15
 -1       563 1.43178E-02 3.21975E-03-1.05671E-14
 -1       564 1.46035E-02 3.33340E-03-1.12506E-14
 -1       565 1.48892E-02 3.44688E-03-1.19463E-14
 -1       566 1.51749E-02 3.56024E-03-1.26518E-14
 -1       567 1.48296E-02 3.28810E-03-1.48068E-14
 -1       568 1.47184E-02 3.20386E-03-1.53937E-14
 -1       569 1.50504E-02 3.45519E-03-1.35995E-14
 -1       570 1.49400E-02 3.37164E-03-1.42107E-14
 -1       571 8.46600E-03 9.75539E-04-1.94945E-15
 -1       572 1.46073E-02 3.11965E-03-1.59691E-14
 -1       573 1.44963E-02 3.03544E-03-1.65364E-14
 -1       574 1.43855E-02 2.95124E-03-1.70981E-14
 -1       575 1.42766E-02 2.86846E-03-1.76476E-14
 -1       576 1.41660E-02 2.78423E-03-1.81893E-14
 -1       577 1.40555E-02 2.69999E-03-1.87203E-14
 -1       578 1.39451E-02 2.61572E-03-1.92508E-14
 -1       579 8.17215E-03 1.11125E-03-1.65632E-15
 -1       580 1.51069E-03 4.19109E-04 1.14526E-16
 -1       581 8.81660E-03 8.25001E-04-2.64205E-15
 -1       582 8.76008E-03 7.95995E-04-2.94409E-15
 -1       583 7.75812E-03 1.34377E-03-1.30554E-15
 -1       584 8.16109E-03 5.89007E-04-3.32309E-15
 -1       585 4.60937E-03 1.89023E-04-1.83126E-15
 -1       586 4.99878E-03 8.08772E-04-7.37264E-16
 -1       587 5.83906E-03 1.36538E-03-6.44538E-16
 -1       588 6.59769E-04-3.25711E-05-7.49319E-17
 -1       589 6.60050E-03 1.77622E-03-6.79104E-16
 -1       590 4.48498E-03 5.51732E-04-8.56079E-16
 -1       591 7.36468E-03 1.57416E-03-1.04023E-15
 -1       592 5.37999E-03 1.04720E-03-6.82173E-16
 -1       593 4.10147E-03 3.67362E-04-1.37169E-15
 -1       594 4.19467E-03 4.51246E-04-1.02873E-15
 -1       595 7.74188E-03 3.91870E-04-3.38886E-15
 -1       596 4.07445E-03 4.05838E-04-1.16584E-15
 -1       597 4.24664E-03 3.16360E-04-1.54652E-15
 -1       598 4.95502E-03 3.78943E-05-2.06485E-15
 -1       599 5.29523E-03-1.22901E-04-2.29292E-15
 -1       600 5.63782E-03-2.76755E-04-2.54565E-15
 -1       601 5.94198E-03-3.64920E-04-2.77478E-15
 -1       602 6.23557E-03-3.69020E-04-2.99501E-15
 -1       603 6.55021E-03-2.71671E-04-3.21204E-15
 -1       604 6.98866E-03-3.13290E-05-3.41265E-15
 -1       605 7.34104E-03 1.73414E-04-3.41356E-15
 -1       606 8.52263E-03 7.24928E-04-3.18004E-15
 -1       607 7.15099E-04-2.40222E-04-1.43125E-16
 -1       608 7.06611E-04 2.78794E-04 5.95532E-17
 -1       609 8.73603E-03 8.69194E-04-2.34747E-15
 -1       610 6.76906E-04-1.49575E-04-1.17270E-16
 -1       611 5.68017E-03 1.23548E-03-5.18648E-16
 -1       612 1.51127E-02 3.50771E-03-1.31264E-14
 -1       613 1.37999E-02 2.52341E-03-1.95611E-14
 -1       614 4.69898E-03 6.32393E-04-6.94669E-16
 -1       615 6.72266E-03-1.80190E-04-3.47119E-15
 -1       616 4.37844E-03 2.41446E-04-1.66908E-15
 -1       617 8.93101E-04 6.84532E-05-6.52385E-17
 -1       618 8.90130E-04 2.41253E-05-9.04360E-17
 -1       619 9.09835E-04 1.64792E-04-1.08183E-17
 -1       620 9.25159E-04 2.20823E-04 1.98002E-17
 -1       621 1.05238E-03 2.94357E-04 5.25330E-17
 -1       622 8.86764E-03 8.74536E-04-2.65678E-15
 -1       623 1.33914E-03 3.35293E-04 5.90517E-17
 -1       624 1.38683E-03-3.13083E-04-4.05454E-16
 -1       625 1.67422E-03-3.38281E-04-5.51849E-16
 -1       626 1.96222E-03-3.54329E-04-7.15655E-16
 -1       627 2.25095E-03-3.63800E-04-8.94751E-16
 -1       628 2.54084E-03-3.69130E-04-1.08803E-15
 -1       629 2.83255E-03-3.72661E-04-1.29406E-15
 -1       630 3.12689E-03-3.76715E-04-1.51166E-15
 -1       631 3.42482E-03-3.83642E-04-1.73863E-15
 -1       632 3.72724E-03-3.95761E-04-1.97381E-15
 -1       633 4.03478E-03-4.15119E-04-2.21609E-15
 -1       634 4.34727E-03-4.42913E-04-2.46314E-15
 -1       635 4.66326E-03-4.78441E-04-2.71617E-15
 -1       636 4.97969E-03-5.17629E-04-2.97942E-15
 -1       637 5.29255E-03-5.51529E-04-3.25614E-15
 -1       638 5.59873E-03-5.66728E-04-3.54664E-15
 -1       639 5.89840E-03-5.48753E-04-3.85600E-15
 -1       640 6.19568E-03-4.88218E-04-4.18738E-15
 -1       641 6.49629E-03-3.86134E-04-4.53730E-15
 -1       642 6.80372E-03-2.53128E-04-4.90486E-15
 -1       643 7.11746E-03-1.03875E-04-5.29426E-15
 -1       644 7.43408E-03 4.87959E-05-5.70526E-15
 -1       645 7.74967E-03 1.96794E-04-6.13712E-15
 -1       646 8.06144E-03 3.36566E-04-6.58923E-15
 -1       647 8.36818E-03 4.67598E-04-7.05859E-15
 -1       648 8.66988E-03 5.90956E-04-7.54690E-15
 -1       649 8.96721E-03 7.08287E-04-8.04853E-15
 -1       650 9.26108E-03 8.21277E-04-8.56411E-15
 -1       651 9.55237E-03 9.31401E-04-9.09181E-15
 -1       652 9.84183E-03 1.03984E-03-9.63070E-15
 -1       653 1.01300E-02 1.14747E-03-1.01784E-14
 -1       654 1.04173E-02 1.25492E-03-1.07425E-14
 -1       655 1.07041E-02 1.36259E-03-1.13281E-14
 -1       656 1.09905E-02 1.47073E-03-1.19275E-14
 -1       657 1.12767E-02 1.57944E-03-1.25396E-14
 -1       658 1.15627E-02 1.68878E-03-1.31650E-14
 -1       659 1.18486E-02 1.79871E-03-1.38079E-14
 -1       660 1.21344E-02 1.90919E-03-1.44718E-14
 -1       661 1.24202E-02 2.02015E-03-1.51589E-14
 -1       662 1.27060E-02 2.13152E-03-1.58736E-14
 -1       663 1.29917E-02 2.24321E-03-1.66168E-14
 -1       664 1.32775E-02 2.35515E-03-1.73739E-14
 -1       665 1.35632E-02 2.46728E-03-1.81504E-14
 -1       666 2.19877E-03 3.86545E-04 2.74235E-17
 -1       667 8.04381E-03 1.22196E-03-1.42040E-15
 -1       668 1.91258E-03 3.78634E-04 4.70950E-17
 -1       669 2.76942E-03 3.87404E-04-4.05864E-17
 -1       670 3.05325E-03 3.85589E-04-9.05682E-17
 -1       671 3.33551E-03 3.86591E-04-1.49149E-16
 -1       672 3.61604E-03 3.94880E-04-2.18314E-16
 -1       673 3.89583E-03 4.16583E-04-2.96506E-16
 -1       674 4.17859E-03 4.60300E-04-3.83848E-16
 -1       675 4.47378E-03 5.39231E-04-4.82809E-16
 -1       676 9.19322E-03 1.13460E-03-2.42303E-15
 -1       677 9.47879E-03 1.21828E-03-2.74612E-15
 -1       678 9.77757E-03 1.32467E-03-3.09830E-15
 -1       679 1.00630E-02 1.43661E-03-3.45332E-15
 -1       680 1.03494E-02 1.55435E-03-3.82721E-15
 -1       681 1.06366E-02 1.67497E-03-4.22900E-15
 -1       682 1.09242E-02 1.79664E-03-4.65076E-15
 -1       683 1.12118E-02 1.91828E-03-5.09351E-15
 -1       684 1.14993E-02 2.03927E-03-5.56330E-15
 -1       685 1.17865E-02 2.15934E-03-6.05441E-15
 -1       686 1.20734E-02 2.27838E-03-6.56632E-15
 -1       687 1.23601E-02 2.39641E-03-7.10349E-15
 -1       688 1.26466E-02 2.51349E-03-7.66561E-15
 -1       689 1.29328E-02 2.62974E-03-8.24810E-15
 -1       690 1.32189E-02 2.74527E-03-8.84854E-15
 -1       691 1.35049E-02 2.86020E-03-9.46788E-15
 -1       692 1.37907E-02 2.97464E-03-1.01089E-14
 -1       693 1.40766E-02 3.08869E-03-1.07705E-14
 -1       694 1.43623E-02 3.20244E-03-1.14481E-14
 -1       695 1.46481E-02 3.31597E-03-1.21445E-14
 -1       696 1.48804E-02 3.41187E-03-1.26314E-14
 -1       697 1.43044E-02 2.97981E-03-1.56019E-14
 -1       698 1.37542E-02 2.54148E-03-1.86967E-14
 -1       699 1.45265E-02 3.14803E-03-1.44621E-14
 -1       700 7.97535E-03 5.30652E-04-3.67589E-15
 -1       701 1.41935E-02 2.89572E-03-1.61580E-14
 -1       702 1.44154E-02 3.06391E-03-1.50385E-14
 -1       703 1.40846E-02 2.81306E-03-1.66974E-14
 -1       704 1.39739E-02 2.72894E-03-1.72378E-14
 -1       705 1.38633E-02 2.64479E-03-1.77672E-14
 -1       706 1.62600E-03 3.62438E-04 5.72323E-17
 -1       707 7.57223E-03 3.21579E-04-3.66736E-15
 -1       708 4.07446E-03 3.93289E-04-9.93597E-16
 -1       709 4.00945E-03 3.57928E-04-1.18850E-15
 -1       710 8.37314E-03 1.05758E-03-1.76671E-15
 -1       711 8.90134E-03 1.07825E-03-2.12376E-15
 -1       712 8.59032E-03 1.06620E-03-1.85256E-15
 -1       713 2.48446E-03 3.88641E-04-9.65618E-19
 -1       714 1.10040E-03-2.76145E-04-2.78369E-16
 -1       715 8.68557E-03 9.30627E-04-2.20436E-15
 -1       716 7.23616E-03 1.25674E-04-3.66351E-15
 -1       717 4.25027E-03 4.47358E-04-8.32625E-16
 -1       718 8.99502E-04 1.14708E-04-3.88890E-17
 -1       719 8.87485E-03 8.51047E-04-2.96970E-15
 -1       720 8.69372E-03 7.96723E-04-3.26341E-15
 -1       721 8.33358E-03 6.82219E-04-3.53924E-15
 -1       722 9.00013E-04-1.11261E-04-1.59974E-16
 -1       723 6.34387E-03-3.48478E-04-3.26877E-15
 -1       724 4.71713E-03 8.62748E-05-1.94942E-15
 -1       725 4.07890E-03 3.14338E-04-1.37302E-15
 -1       726 5.08257E-03-7.21596E-05-2.22025E-15
 -1       727 5.39733E-03-2.14856E-04-2.46312E-15
 -1       728 5.73531E-03-3.55138E-04-2.79291E-15
 -1       729 6.04687E-03-3.94025E-04-3.01986E-15
 -1       730 9.09961E-04-1.62174E-04-1.81892E-16
 -1       731 8.90345E-04-1.96814E-05-1.14370E-16
 -1       732 8.55861E-03 7.66680E-04-3.63410E-15
 -1       733 1.47698E-02 3.32834E-03-1.32450E-14
 -1       734 1.37132E-02 2.55603E-03-1.79616E-14
 -1       735 4.15457E-03 2.56310E-04-1.49089E-15
 -1       736 4.37040E-03 4.88950E-04-6.56576E-16
 -1       737 6.96328E-03-4.17592E-05-3.71831E-15
 -1       738 1.46368E-02 3.23148E-03-1.38809E-14
 -1       739 8.93613E-04-6.42607E-05-1.37514E-16
 -1       740 6.51235E-03-2.87152E-04-3.52446E-15
 -1       741 9.39883E-04-2.31719E-04-2.11657E-16
 -1       742 1.15987E-03 2.24365E-04-3.60158E-18
 -1       743 1.50938E-03-2.61166E-04-4.37564E-16
 -1       744 1.79596E-03-2.78312E-04-5.80926E-16
 -1       745 2.08344E-03-2.88409E-04-7.40053E-16
 -1       746 2.37180E-03-2.93411E-04-9.13440E-16
 -1       747 2.66146E-03-2.95265E-04-1.09890E-15
 -1       748 2.95324E-03-2.95954E-04-1.29610E-15
 -1       749 3.24836E-03-2.97599E-04-1.50459E-15
 -1       750 3.54836E-03-3.02560E-04-1.72234E-15
 -1       751 3.85491E-03-3.13484E-04-1.94771E-15
 -1       752 4.16930E-03-3.33125E-04-2.17934E-15
 -1       753 4.49166E-03-3.63646E-04-2.41697E-15
 -1       754 4.82000E-03-4.04955E-04-2.66109E-15
 -1       755 5.14939E-03-4.52101E-04-2.91784E-15
 -1       756 5.47363E-03-4.91966E-04-3.18932E-15
 -1       757 5.78838E-03-5.04485E-04-3.47697E-15
 -1       758 6.09609E-03-4.70391E-04-3.78599E-15
 -1       759 6.40455E-03-3.82258E-04-4.11337E-15
 -1       760 6.72084E-03-2.50067E-04-4.45914E-15
 -1       761 7.04597E-03-9.42293E-05-4.82533E-15
 -1       762 7.37515E-03 6.59920E-05-5.21279E-15
 -1       763 7.70210E-03 2.19212E-04-5.62252E-15
 -1       764 8.02246E-03 3.61262E-04-6.05202E-15
 -1       765 8.33456E-03 4.92457E-04-6.50186E-15
 -1       766 8.63878E-03 6.14890E-04-6.96651E-15
 -1       767 8.93652E-03 7.30959E-04-7.44882E-15
 -1       768 9.22943E-03 8.42756E-04-7.94681E-15
 -1       769 9.51901E-03 9.51918E-04-8.45554E-15
 -1       770 9.80644E-03 1.05965E-03-8.97856E-15
 -1       771 1.00926E-02 1.16679E-03-9.51110E-15
 -1       772 1.03781E-02 1.27390E-03-1.00573E-14
 -1       773 1.06632E-02 1.38135E-03-1.06253E-14
 -1       774 1.09483E-02 1.48932E-03-1.12115E-14
 -1       775 1.12335E-02 1.59791E-03-1.18090E-14
 -1       776 1.15187E-02 1.70715E-03-1.24240E-14
 -1       777 1.18040E-02 1.81700E-03-1.30581E-14
 -1       778 1.20895E-02 1.92741E-03-1.37082E-14
 -1       779 1.23750E-02 2.03831E-03-1.43811E-14
 -1       780 1.26606E-02 2.14962E-03-1.50774E-14
 -1       781 1.29462E-02 2.26127E-03-1.58011E-14
 -1       782 1.32319E-02 2.37319E-03-1.65453E-14
 -1       783 1.34726E-02 2.46456E-03-1.72463E-14
 -1       784 3.13583E-03 3.24947E-04-2.52145E-16
 -1       785 2.86511E-03 3.23468E-04-1.83806E-16
 -1       786 3.65541E-03 3.44800E-04-4.17879E-16
 -1       787 3.90192E-03 3.71300E-04-5.15416E-16
 -1       788 4.12931E-03 4.17038E-04-5.83443E-16
 -1       789 3.92699E-03 3.38138E-04-9.79993E-16
 -1       790 3.91793E-03 3.06104E-04-1.15651E-15
 -1       791 8.89957E-03 9.42723E-04-2.52030E-15
 -1       792 5.46535E-03-3.09640E-04-2.67313E-15
 -1       793 9.34679E-03 1.11269E-03-2.96422E-15
 -1       794 1.01497E-02 1.43212E-03-4.04663E-15
 -1       795 1.04248E-02 1.54922E-03-4.44337E-15
 -1       796 1.07036E-02 1.66847E-03-4.86279E-15
 -1       797 1.09848E-02 1.78853E-03-5.30558E-15
 -1       798 1.12678E-02 1.90858E-03-5.77364E-15
 -1       799 1.15518E-02 2.02813E-03-6.26256E-15
 -1       800 1.18365E-02 2.14694E-03-6.76918E-15
 -1       801 1.21217E-02 2.26490E-03-7.30260E-15
 -1       802 1.24071E-02 2.38202E-03-7.86482E-15
 -1       803 1.26927E-02 2.49835E-03-8.44248E-15
 -1       804 1.29783E-02 2.61399E-03-9.04048E-15
 -1       805 1.32641E-02 2.72903E-03-9.66091E-15
 -1       806 1.35498E-02 2.84358E-03-1.03052E-14
 -1       807 1.38355E-02 2.95771E-03-1.09623E-14
 -1       808 1.41213E-02 3.07153E-03-1.16343E-14
 -1       809 1.44070E-02 3.18510E-03-1.23268E-14
 -1       810 7.79194E-03 4.32026E-04-3.99716E-15
 -1       811 1.38917E-02 2.75685E-03-1.57694E-14
 -1       812 1.36712E-02 2.58956E-03-1.68325E-14
 -1       813 5.87172E-03-4.20674E-04-3.11479E-15
 -1       814 1.40025E-02 2.84080E-03-1.52276E-14
 -1       815 1.22427E-03-2.35115E-04-3.11302E-16
 -1       816 1.37814E-02 2.67323E-03-1.63027E-14
 -1       817 9.09762E-03 1.03318E-03-2.64148E-15
 -1       818 4.06056E-03 3.83885E-04-8.15615E-16
 -1       819 9.87945E-03 1.31912E-03-3.67239E-15
 -1       820 9.60915E-03 1.21038E-03-3.31225E-15
 -1       821 3.39978E-03 3.30837E-04-3.30363E-16
 -1       822 2.02722E-03 3.16415E-04-4.03967E-17
 -1       823 7.48292E-03 2.61117E-04-3.99003E-15
 -1       824 6.14526E-03-4.08556E-04-3.36560E-15
 -1       825 4.39324E-03 1.43464E-04-1.74021E-15
 -1       826 8.97994E-03 9.04830E-04-2.98910E-15
 -1       827 8.22380E-03 6.39975E-04-3.86942E-15
 -1       828 1.24743E-03 2.77889E-04 2.47571E-17
 -1       829 4.82670E-03-4.13337E-05-2.11653E-15
 -1       830 5.19741E-03-1.96062E-04-2.42234E-15
 -1       831 1.06566E-03-1.98371E-04-2.42404E-16
 -1       832 1.12692E-03 5.51364E-05-1.19869E-16
 -1       833 8.86038E-03 8.56666E-04-3.34581E-15
 -1       834 1.12525E-03 3.23780E-06-1.54875E-16
 -1       835 8.78065E-03 8.40319E-04-3.72853E-15
 -1       836 4.49220E-03 2.73080E-05-1.89901E-15
 -1       837 1.74318E-03 3.05100E-04-1.23226E-17
 -1       838 1.05254E-03-1.40483E-04-2.14882E-16
 -1       839 1.14385E-03 1.64055E-04-4.45268E-17
 -1       840 2.58922E-03 3.23283E-04-1.25642E-16
 -1       841 5.61539E-03-4.10465E-04-2.98297E-15
 -1       842 3.93890E-03 2.65930E-04-1.26993E-15
 -1       843 1.42236E-02 3.00802E-03-1.41163E-14
 -1       844 1.49549E-03 2.95755E-04 1.07810E-17
 -1       845 1.41130E-02 2.92440E-03-1.46790E-14
 -1       846 2.30955E-03 3.21727E-04-7.85166E-17
 -1       847 1.35719E-02 2.52706E-03-1.70408E-14
 -1       848 1.43338E-02 3.09134E-03-1.35439E-14
 -1       849 7.21698E-03 9.68847E-05-4.04426E-15
 -1       850 1.04364E-03-8.69639E-05-1.86866E-16
 -1       851 6.73893E-03-1.77355E-04-3.76799E-15
 -1       852 1.13299E-03 1.08123E-04-8.31143E-17
 -1       853 3.88762E-03 3.37014E-04-7.92240E-16
 -1       854 1.91951E-03-2.16242E-04-6.01068E-16
 -1       855 2.20562E-03-2.20910E-04-7.53659E-16
 -1       856 2.49254E-03-2.21567E-04-9.19159E-16
 -1       857 2.78079E-03-2.19653E-04-1.09626E-15
 -1       858 3.07145E-03-2.16761E-04-1.28577E-15
 -1       859 3.36625E-03-2.14816E-04-1.48499E-15
 -1       860 3.66751E-03-2.16328E-04-1.69217E-15
 -1       861 3.97792E-03-2.24665E-04-1.90775E-15
 -1       862 4.29982E-03-2.44075E-04-2.12853E-15
 -1       863 4.63393E-03-2.78779E-04-2.35678E-15
 -1       864 4.97790E-03-3.30410E-04-2.59365E-15
 -1       865 5.32320E-03-3.91900E-04-2.84410E-15
 -1       866 6.63221E-03-2.56019E-04-4.02811E-15
 -1       867 6.97110E-03-8.87428E-05-4.37198E-15
 -1       868 7.31630E-03 8.51636E-05-4.73690E-15
 -1       869 7.65778E-03 2.47605E-04-5.12210E-15
 -1       870 7.98864E-03 3.92692E-04-5.52827E-15
 -1       871 8.30692E-03 5.23127E-04-5.95528E-15
 -1       872 8.61365E-03 6.42990E-04-6.40062E-15
 -1       873 8.91135E-03 7.56116E-04-6.86180E-15
 -1       874 9.20267E-03 8.65327E-04-7.33972E-15
 -1       875 9.48985E-03 9.72516E-04-7.83232E-15
 -1       876 9.77462E-03 1.07889E-03-8.33550E-15
 -1       877 1.00582E-02 1.18518E-03-8.85356E-15
 -1       878 1.03413E-02 1.29181E-03-9.38416E-15
 -1       879 1.06244E-02 1.39902E-03-9.93385E-15
 -1       880 1.09078E-02 1.50692E-03-1.05024E-14
 -1       881 1.11915E-02 1.61552E-03-1.10868E-14
 -1       882 1.14757E-02 1.72480E-03-1.16831E-14
 -1       883 1.17602E-02 1.83471E-03-1.23046E-14
 -1       884 1.20451E-02 1.94518E-03-1.29468E-14
 -1       885 1.23302E-02 2.05612E-03-1.36052E-14
 -1       886 1.26155E-02 2.16747E-03-1.42850E-14
 -1       887 1.29009E-02 2.27915E-03-1.49909E-14
 -1       888 1.31865E-02 2.39109E-03-1.57206E-14
 -1       889 2.95671E-03 2.67576E-04-3.41507E-16
 -1       890 3.68676E-03 3.09389E-04-6.32039E-16
 -1       891 1.02200E-02 1.43145E-03-4.65058E-15
 -1       892 1.10403E-02 1.78146E-03-5.97474E-15
 -1       893 1.13203E-02 1.89958E-03-6.46001E-15
 -1       894 1.16021E-02 2.01745E-03-6.96443E-15
 -1       895 1.18851E-02 2.13482E-03-7.49181E-15
 -1       896 1.21691E-02 2.25158E-03-8.04900E-15
 -1       897 1.24536E-02 2.36771E-03-8.62652E-15
 -1       898 1.27386E-02 2.48324E-03-9.21931E-15
 -1       899 1.30238E-02 2.59823E-03-9.83885E-15
 -1       900 1.33092E-02 2.71276E-03-1.04837E-14
 -1       901 1.35948E-02 2.82690E-03-1.11420E-14
 -1       902 1.38804E-02 2.94072E-03-1.18092E-14
 -1       903 1.41661E-02 3.05431E-03-1.24926E-14
 -1       904 8.12229E-03 5.73223E-04-4.31688E-15
 -1       905 9.22788E-03 1.02298E-03-3.17167E-15
 -1       906 9.09502E-03 9.60635E-04-3.07948E-15
 -1       907 1.35049E-03-1.89460E-04-3.37410E-16
 -1       908 9.95781E-03 1.31987E-03-4.25519E-15
 -1       909 1.07628E-02 1.66353E-03-5.51124E-15
 -1       910 7.70938E-03 3.57414E-04-4.37942E-15
 -1       911 1.20059E-03-1.65027E-04-2.72711E-16
 -1       912 1.08303E-03-4.25123E-05-1.73062E-16
 -1       913 4.13097E-03 1.76787E-04-1.53860E-15
 -1       914 9.05222E-03 9.28471E-04-3.48382E-15
 -1       915 1.04889E-02 1.54650E-03-5.06983E-15
 -1       916 8.50149E-03 7.43944E-04-4.02436E-15
 -1       917 1.40625E-03 2.42269E-04-2.32832E-17
 -1       918 5.22098E-03-2.97349E-04-2.60997E-15
 -1       919 4.89465E-03-1.64796E-04-2.29725E-15
 -1       920 1.36998E-02 2.70123E-03-1.48620E-14
 -1       921 3.79682E-03 2.92485E-04-9.70751E-16
 -1       922 1.63426E-03-2.06186E-04-4.61538E-16
 -1       923 9.02253E-03 9.20630E-04-3.87959E-15
 -1       924 4.56753E-03-9.29318E-05-2.06948E-15
 -1       925 1.86160E-03 2.47959E-04-9.50100E-17
 -1       926 6.35912E-03-3.70776E-04-3.79264E-15
 -1       927 2.69115E-03 2.63741E-04-2.64650E-16
 -1       928 3.21323E-03 2.74697E-04-4.28480E-16
 -1       929 1.33791E-02 2.45905E-03-1.63769E-14
 -1       930 3.45786E-03 2.87620E-04-5.24361E-16
 -1       931 9.45801E-03 1.11282E-03-3.52127E-15
 -1       932 7.45880E-03 2.07627E-04-4.42981E-15
 -1       933 3.77851E-03 2.59310E-04-1.07961E-15
 -1       934 1.38102E-02 2.78465E-03-1.43216E-14
 -1       935 2.14187E-03 2.56141E-04-1.41292E-16
 -1       936 1.18937E-03-1.06136E-04-2.39148E-16
 -1       937 1.40313E-02 2.95161E-03-1.32103E-14
 -1       938 9.70170E-03 1.21241E-03-3.87793E-15
 -1       939 4.21457E-03 7.89916E-05-1.69047E-15
 -1       940 1.39207E-02 2.86810E-03-1.37723E-14
 -1       941 1.36844E-03 9.20880E-05-1.46174E-16
 -1       942 1.36391E-03 3.36154E-05-1.93537E-16
 -1       943 1.35894E-02 2.61779E-03-1.53892E-14
 -1       944 1.34839E-02 2.53205E-03-1.60127E-14
 -1       945 2.32831E-03-1.52142E-04-7.55265E-16
 -1       946 2.61259E-03-1.48555E-04-9.12193E-16
 -1       947 2.89790E-03-1.42486E-04-1.08145E-15
 -1       948 3.18559E-03-1.35085E-04-1.26236E-15
 -1       949 3.47794E-03-1.28076E-04-1.45180E-15
 -1       950 3.77822E-03-1.24252E-04-1.64837E-15
 -1       951 4.09058E-03-1.28207E-04-1.85254E-15
 -1       952 7.96673E-03 4.32153E-04-5.02094E-15
 -1       953 8.29057E-03 5.60852E-04-5.42312E-15
 -1       954 8.59815E-03 6.76084E-04-5.84634E-15
 -1       955 8.89396E-03 7.84225E-04-6.28680E-15
 -1       956 9.18201E-03 8.89183E-04-6.74384E-15
 -1       957 9.46544E-03 9.93201E-04-7.21769E-15
 -1       958 9.74648E-03 1.09744E-03-7.70342E-15
 -1       959 1.00266E-02 1.20244E-03-8.20292E-15
 -1       960 1.03067E-02 1.30841E-03-8.71914E-15
 -1       961 1.05873E-02 1.41537E-03-9.25553E-15
 -1       962 1.08686E-02 1.52327E-03-9.80460E-15
 -1       963 1.11507E-02 1.63203E-03-1.03727E-14
 -1       964 1.14336E-02 1.74152E-03-1.09555E-14
 -1       965 1.17171E-02 1.85166E-03-1.15561E-14
 -1       966 1.20012E-02 1.96233E-03-1.21841E-14
 -1       967 1.22858E-02 2.07346E-03-1.28315E-14
 -1       968 1.25707E-02 2.18496E-03-1.34956E-14
 -1       969 1.28559E-02 2.29675E-03-1.41866E-14
 -1       970 1.31412E-02 2.40879E-03-1.49008E-14
 -1       971 8.48331E-03 7.15147E-04-4.52798E-15
 -1       972 1.10909E-02 1.77427E-03-6.65231E-15
 -1       973 1.19323E-02 2.12255E-03-8.22493E-15
 -1       974 1.22155E-02 2.23811E-03-8.79871E-15
 -1       975 1.24995E-02 2.35326E-03-9.39088E-15
 -1       976 1.27841E-02 2.46799E-03-1.00043E-14
 -1       977 1.30691E-02 2.58235E-03-1.06437E-14
 -1       978 1.33544E-02 2.69638E-03-1.13035E-14
 -1       979 1.36398E-02 2.81013E-03-1.19720E-14
 -1       980 3.88172E-03 1.91560E-04-1.32144E-15
 -1       981 1.47864E-03-1.39474E-04-3.56896E-16
 -1       982 1.63439E-03 2.47858E-04-5.43965E-17
 -1       983 9.19637E-03 9.86418E-04-3.58775E-15
 -1       984 1.16501E-02 2.00662E-03-7.67718E-15
 -1       985 1.13695E-02 1.89045E-03-7.15315E-15
 -1       986 1.43521E-03 1.75595E-04-8.65837E-17
 -1       987 1.00164E-02 1.32184E-03-4.84835E-15
 -1       988 1.08151E-02 1.65853E-03-6.16869E-15
 -1       989 8.03651E-03 4.91555E-04-4.78727E-15
 -1       990 2.41889E-03 2.60674E-04-1.97745E-16
 -1       991 7.02864E-03-2.55456E-05-4.10124E-15
 -1       992 2.04443E-03-1.52344E-04-6.10196E-16
 -1       993 1.76100E-03-1.48374E-04-4.77273E-16
 -1       994 8.80654E-03 8.47040E-04-4.18752E-15
 -1       995 3.59758E-03 2.59565E-04-8.10421E-16
 -1       996 2.79518E-03 2.10344E-04-4.18058E-16
 -1       997 3.05158E-03 2.19634E-04-5.13160E-16
 -1       998 9.19076E-03 9.81190E-04-3.99301E-15
 -1       999 1.35293E-02 2.72692E-03-1.25158E-14
 -1      1000 3.93896E-03 1.14553E-04-1.46529E-15
 -1      1001 1.35078E-02 2.64527E-03-1.39681E-14
 -1      1002 1.02763E-02 1.43118E-03-5.26490E-15
 -1      1003 1.22749E-03-5.71069E-05-2.21553E-16
 -1      1004 9.76261E-03 1.21619E-03-4.44839E-15
 -1      1005 1.05431E-02 1.54384E-03-5.70637E-15
 -1      1006 1.33334E-03-1.22894E-04-2.95127E-16
 -1      1007 1.98197E-03 1.91653E-04-1.91846E-16
 -1      1008 1.60556E-03 6.92130E-05-2.29004E-16
 -1      1009 1.61375E-03 1.56146E-04-1.43579E-16
 -1      1010 1.36311E-03-2.56316E-05-2.39324E-16
 -1      1011 1.33974E-02 2.56205E-03-1.44978E-14
 -1      1012 1.25449E-02 2.33848E-03-1.01601E-14
 -1      1013 2.45130E-03-8.26606E-05-7.45270E-16
 -1      1014 2.73145E-03-7.50066E-05-8.93688E-16
 -1      1015 3.01170E-03-6.44372E-05-1.05414E-15
 -1      1016 3.29355E-03-5.15605E-05-1.22534E-15
 -1      1017 3.57973E-03-3.78348E-05-1.40368E-15
 -1      1018 3.87447E-03-2.63954E-05-1.59007E-15
 -1      1019 1.96820E-03 1.00120E-04-3.05884E-16
 -1      1020 2.52996E-03 2.03945E-04-3.32884E-16
 -1      1021 8.59757E-03 7.14218E-04-5.30589E-15
 -1      1022 8.88752E-03 8.15022E-04-5.72483E-15
 -1      1023 9.16908E-03 9.13929E-04-6.15824E-15
 -1      1024 9.44641E-03 1.01355E-03-6.61082E-15
 -1      1025 9.72208E-03 1.11490E-03-7.07905E-15
 -1      1026 9.99764E-03 1.21821E-03-7.56180E-15
 -1      1027 1.02740E-02 1.32337E-03-8.05914E-15
 -1      1028 1.05516E-02 1.43009E-03-8.57875E-15
 -1      1029 1.08304E-02 1.53812E-03-9.11581E-15
 -1      1030 1.11107E-02 1.64720E-03-9.66817E-15
 -1      1031 1.13921E-02 1.75710E-03-1.02381E-14
 -1      1032 1.16745E-02 1.86766E-03-1.08237E-14
 -1      1033 1.19577E-02 1.97872E-03-1.14316E-14
 -1      1034 1.22417E-02 2.09019E-03-1.20614E-14
 -1      1035 1.25262E-02 2.20198E-03-1.27125E-14
 -1      1036 1.28110E-02 2.31400E-03-1.33831E-14
 -1      1037 1.30962E-02 2.42622E-03-1.40873E-14
 -1      1038 1.19781E-02 2.10979E-03-8.96572E-15
 -1      1039 1.28294E-02 2.45248E-03-1.07917E-14
 -1      1040 1.31142E-02 2.56625E-03-1.14500E-14
 -1      1041 1.33217E-02 2.64665E-03-1.19789E-14
 -1      1042 1.88966E-03-8.81389E-05-4.82084E-16
 -1      1043 2.18708E-03 1.80389E-04-2.63346E-16
 -1      1044 1.16962E-02 1.99519E-03-8.39955E-15
 -1      1045 1.14159E-02 1.88056E-03-7.85702E-15
 -1      1046 3.29601E-03 2.34497E-04-6.18886E-16
 -1      1047 1.22611E-02 2.22425E-03-9.55524E-15
 -1      1048 8.82748E-03 8.38572E-04-4.74729E-15
 -1      1049 9.52165E-03 1.11752E-03-4.07353E-15
 -1      1050 2.17063E-03-8.71093E-05-6.07719E-16
 -1      1051 4.24015E-03-9.65517E-06-1.80046E-15
 -1      1052 1.35185E-02 2.68616E-03-1.32423E-14
 -1      1053 1.60221E-03 5.44903E-06-2.88225E-16
 -1      1054 1.11376E-02 1.76616E-03-7.33475E-15
 -1      1055 3.57524E-03 2.05567E-04-9.87305E-16
 -1      1056 1.60889E-03-8.56408E-05-3.67694E-16
 -1      1057 9.07824E-03 9.38118E-04-4.40856E-15
 -1      1058 1.08619E-02 1.65236E-03-6.83606E-15
 -1      1059 3.91286E-03 4.41498E-05-1.53027E-15
 -1      1060 1.96301E-03 3.25082E-05-3.85969E-16
 -1      1061 8.29375E-03 6.06411E-04-4.90517E-15
 -1      1062 2.64692E-03 1.50937E-04-4.81515E-16
 -1      1063 3.25543E-03 1.76252E-04-7.75913E-16
 -1      1064 2.90747E-03 1.61844E-04-5.85191E-16
 -1      1065 3.63318E-03 1.33110E-04-1.19555E-15
 -1      1066 1.00607E-02 1.32172E-03-5.45161E-15
 -1      1067 9.80372E-03 1.21762E-03-5.03072E-15
 -1      1068 1.05898E-02 1.53974E-03-6.35480E-15
 -1      1069 1.32477E-02 2.54908E-03-1.31842E-14
 -1      1070 1.31719E-02 2.48768E-03-1.36371E-14
 -1      1071 8.89519E-03 8.46903E-04-5.17220E-15
 -1      1072 2.84894E-03-2.01008E-06-8.62063E-16
 -1      1073 3.12135E-03 1.31399E-05-1.01247E-15
 -1      1074 3.39327E-03 3.22448E-05-1.17296E-15
 -1      1075 3.64755E-03 3.99165E-05-1.34666E-15
 -1      1076 1.17408E-02 1.98287E-03-9.13022E-15
 -1      1077 1.28743E-02 2.43661E-03-1.15823E-14
 -1      1078 2.31091E-03 1.25053E-04-3.90208E-16
 -1      1079 9.16537E-03 9.38314E-04-5.58278E-15
 -1      1080 9.43309E-03 1.03256E-03-6.01028E-15
 -1      1081 9.70120E-03 1.13051E-03-6.45849E-15
 -1      1082 9.97071E-03 1.23195E-03-6.92613E-15
 -1      1083 1.02425E-02 1.33626E-03-7.40925E-15
 -1      1084 1.05166E-02 1.44288E-03-7.90617E-15
 -1      1085 1.07928E-02 1.55120E-03-8.42948E-15
 -1      1086 1.10709E-02 1.66082E-03-8.96582E-15
 -1      1087 1.13508E-02 1.77137E-03-9.52335E-15
 -1      1088 1.16320E-02 1.88256E-03-1.00954E-14
 -1      1089 1.19145E-02 1.99423E-03-1.06859E-14
 -1      1090 1.21978E-02 2.10622E-03-1.13012E-14
 -1      1091 1.24818E-02 2.21844E-03-1.19353E-14
 -1      1092 1.27663E-02 2.33083E-03-1.25905E-14
 -1      1093 1.20229E-02 2.09633E-03-9.71343E-15
 -1      1094 9.39205E-03 1.05416E-03-4.51479E-15
 -1      1095 1.25898E-02 2.32326E-03-1.09346E-14
 -1      1096 1.14602E-02 1.86956E-03-8.57113E-15
 -1      1097 2.29862E-03-2.12546E-05-5.93167E-16
 -1      1098 9.59479E-03 1.13317E-03-4.76819E-15
 -1      1099 2.57481E-03-1.33354E-05-7.22434E-16
 -1      1100 1.32847E-02 2.59790E-03-1.25794E-14
 -1      1101 1.11814E-02 1.75663E-03-8.03160E-15
 -1      1102 1.03223E-02 1.42914E-03-5.89386E-15
 -1      1103 1.09049E-02 1.64441E-03-7.51187E-15
 -1      1104 1.23060E-02 2.20982E-03-1.03128E-14
 -1      1105 2.30481E-03 5.69012E-05-4.90737E-16
 -1      1106 1.00962E-02 1.31796E-03-6.07197E-15
 -1      1107 9.83337E-03 1.21449E-03-5.62708E-15
 -1      1108 1.30794E-02 2.51729E-03-1.20761E-14
 -1      1109 9.24631E-03 9.90488E-04-4.94325E-15
 -1      1110 2.64034E-03 8.47776E-05-6.02572E-16
 -1      1111 3.39446E-03 1.44310E-04-9.70930E-16
 -1      1112 1.06314E-02 1.53341E-03-7.01452E-15
 -1      1113 1.30424E-02 2.46873E-03-1.26702E-14
 -1      1114 2.90463E-03 9.77866E-05-7.22177E-16
 -1      1115 3.39141E-03 9.16085E-05-1.07370E-15
 -1      1116 3.15401E-03 1.12565E-04-8.54290E-16
 -1      1117 9.68232E-03 1.14297E-03-5.85150E-15
 -1      1118 1.04813E-02 1.45326E-03-7.24593E-15
 -1      1119 9.46200E-03 1.06921E-03-5.21077E-15
 -1      1120 1.03614E-02 1.42429E-03-6.53216E-15
 -1      1121 3.22748E-03 8.80706E-05-9.56751E-16
 -1      1122 1.02807E-02 1.37560E-03-6.83811E-15
 -1      1123 9.58059E-03 1.11765E-03-5.20896E-15
 -1      1124 0.00000E+00 0.00000E+00 0.00000E+00
 -1      1125 0.00000E+00 0.00000E+00 0.00000E+00
 -1      1126 0.00000E+00 0.00000E+00 0.00000E+00
 -1      1127 0.00000E+00 0.00000E+00 0.00000E+00
 -1      1128 0.00000E+00 0.00000E+00 0.00000E+00
 -1      1129 0.00000E+00 0.00000E+00 0.00000E+00
 -1      1130 0.00000E+00 0.00000E+00 0.00000E+00
 -1      1131 0.00000E+00 0.00000E+00 0.00000E+00
 -1      1132 0.00000E+00 0.00000E+00 0.00000E+00
 -1      1133 0.00000E+00 0.00000E+00 0.00000E+00
 -1      1134 0.00000E+00 0.00000E+00 0.00000E+00
 -1      1135 0.00000E+00 0.00000E+00 0.00000E+00
 -1      1136 0.00000E+00 0.00000E+00 0.00000E+00
 -1      1137 0.00000E+00 0.00000E+00 0.00000E+00
 -1      1138 0.00000E+00 0.00000E+00 0.00000E+00
 -1      1139 0.00000E+00 0.00000E+00 0.00000E+00
 -1      1140 0.00000E+00 0.00000E+00 0.00000E+00
 -1      1141 2.10454E-04-1.46810E-04-1.44605E-17
 -1      1142 5.49499E-04-3.31984E-04-6.94296E-17
 -1      1143 8.32005E-04-4.48858E-04-1.57467E-16
 -1      1144 1.10356E-03-5.25731E-04-2.81228E-16
 -1      1145 1.37232E-03-5.78081E-04-4.35483E-16
 -1      1146 1.64207E-03-6.13944E-04-6.13455E-16
 -1      1147 1.91501E-03-6.38242E-04-8.12149E-16
 -1      1148 2.19234E-03-6.54552E-04-1.02988E-15
 -1      1149 2.47469E-03-6.65834E-04-1.26671E-15
 -1      1150 2.76226E-03-6.74726E-04-1.52257E-15
 -1      1151 3.05482E-03-6.83666E-04-1.79618E-15
 -1      1152 3.35162E-03-6.94884E-04-2.07962E-15
 -1      1153 3.65126E-03-7.10257E-04-2.36867E-15
 -1      1154 3.95158E-03-7.30982E-04-2.66241E-15
 -1      1155 4.24965E-03-7.57081E-04-2.95750E-15
 -1      1156 4.54198E-03-7.86795E-04-3.25830E-15
 -1      1157 4.82512E-03-8.16083E-04-3.56571E-15
 -1      1158 5.09652E-03-8.38557E-04-3.88279E-15
 -1      1159 5.35558E-03-8.46198E-04-4.21420E-15
 -1      1160 5.60439E-03-8.30974E-04-4.56254E-15
 -1      1161 5.84764E-03-7.86989E-04-4.93168E-15
 -1      1162 6.09159E-03-7.12314E-04-5.32144E-15
 -1      1163 6.34239E-03-6.09629E-04-5.72901E-15
 -1      1164 6.60439E-03-4.85349E-04-6.15396E-15
 -1      1165 6.87928E-03-3.47673E-04-6.60499E-15
 -1      1166 7.16621E-03-2.04496E-04-7.07235E-15
 -1      1167 7.46257E-03-6.19499E-05-7.55879E-15
 -1      1168 7.76507E-03 7.61369E-05-8.06782E-15
 -1      1169 8.07051E-03 2.08054E-04-8.60417E-15
 -1      1170 8.37637E-03 3.33643E-04-9.15985E-15
 -1      1171 8.68087E-03 4.53667E-04-9.72100E-15
 -1      1172 8.98302E-03 5.69298E-04-1.02871E-14
 -1      1173 9.28238E-03 6.81770E-04-1.08597E-14
 -1      1174 9.57895E-03 7.92187E-04-1.14425E-14
 -1      1175 9.87297E-03 9.01436E-04-1.20364E-14
 -1      1176 1.01648E-02 1.01018E-03-1.26458E-14
 -1      1177 1.04548E-02 1.11887E-03-1.32610E-14
 -1      1178 1.07434E-02 1.22781E-03-1.38799E-14
 -1      1179 1.10310E-02 1.33715E-03-1.44969E-14
 -1      1180 1.13177E-02 1.44696E-03-1.51284E-14
 -1      1181 1.16040E-02 1.55725E-03-1.57908E-14
 -1      1182 1.18898E-02 1.66801E-03-1.64752E-14
 -1      1183 1.21755E-02 1.77916E-03-1.71948E-14
 -1      1184 1.24611E-02 1.89066E-03-1.79429E-14
 -1      1185 1.27466E-02 2.00244E-03-1.87230E-14
 -1      1186 1.30321E-02 2.11443E-03-1.95238E-14
 -1      1187 1.33176E-02 2.22656E-03-2.03435E-14
 -1      1188 1.36032E-02 2.33879E-03-2.11694E-14
 -1      1189 1.38889E-02 2.45105E-03-2.20039E-14
 -1      1190 1.41675E-02 2.56049E-03-2.28335E-14
 -1      1191 2.26892E-04 1.58966E-04 1.84992E-17
 -1      1192 5.51205E-04 3.36086E-04 6.40492E-17
 -1      1193 8.32315E-04 4.49937E-04 1.15725E-16
 -1      1194 1.10378E-03 5.25418E-04 1.71236E-16
 -1      1195 1.37271E-03 5.76359E-04 2.24687E-16
 -1      1196 1.64315E-03 6.10207E-04 2.73246E-16
 -1      1197 1.91768E-03 6.31543E-04 3.14215E-16
 -1      1198 2.19824E-03 6.43653E-04 3.46457E-16
 -1      1199 2.48667E-03 6.49262E-04 3.68263E-16
 -1      1200 2.78508E-03 6.50995E-04 3.80636E-16
 -1      1201 3.09611E-03 6.51840E-04 3.81599E-16
 -1      1202 3.42311E-03 6.55755E-04 3.72017E-16
 -1      1203 3.77012E-03 6.68556E-04 3.53748E-16
 -1      1204 4.14135E-03 6.99126E-04 3.29421E-16
 -1      1205 4.53979E-03 7.60699E-04 2.99646E-16
 -1      1206 4.96413E-03 8.70995E-04 2.55723E-16
 -1      1207 5.40364E-03 1.04805E-03 1.98314E-16
 -1      1208 5.83325E-03 1.29688E-03 1.34821E-16
 -1      1209 6.21690E-03 1.58753E-03 6.88197E-17
 -1      1210 6.52892E-03 1.84299E-03 4.90601E-18
 -1      1211 6.78662E-03 1.96828E-03-6.47540E-17
 -1      1212 7.03622E-03 1.92994E-03-1.42559E-16
 -1      1213 7.34060E-03 1.78274E-03-2.41682E-16
 -1      1214 7.73037E-03 1.60295E-03-3.82764E-16
 -1      1215 8.16407E-03 1.47061E-03-5.56846E-16
 -1      1216 8.60581E-03 1.41148E-03-7.67873E-16
 -1      1217 9.03170E-03 1.41822E-03-1.01796E-15
 -1      1218 9.43208E-03 1.47253E-03-1.30474E-15
 -1      1219 9.80641E-03 1.55725E-03-1.61279E-15
 -1      1220 1.01667E-02 1.66266E-03-1.93423E-15
 -1      1221 1.05083E-02 1.77841E-03-2.27659E-15
 -1      1222 1.08279E-02 1.89635E-03-2.64727E-15
 -1      1223 1.11375E-02 2.01645E-03-3.03677E-15
 -1      1224 1.14398E-02 2.13715E-03-3.43768E-15
 -1      1225 1.17368E-02 2.25759E-03-3.86587E-15
 -1      1226 1.20301E-02 2.37734E-03-4.31197E-15
 -1      1227 1.23208E-02 2.49623E-03-4.78055E-15
 -1      1228 1.26096E-02 2.61421E-03-5.27032E-15
 -1      1229 1.28971E-02 2.73132E-03-5.78364E-15
 -1      1230 1.31838E-02 2.84764E-03-6.33353E-15
 -1      1231 1.34699E-02 2.96326E-03-6.91623E-15
 -1      1232 1.37557E-02 3.07830E-03-7.51553E-15
 -1      1233 1.40413E-02 3.19285E-03-8.12629E-15
 -1      1234 1.43268E-02 3.30701E-03-8.74691E-15
 -1      1235 1.46122E-02 3.42085E-03-9.38888E-15
 -1      1236 1.48977E-02 3.53447E-03-1.00600E-14
 -1      1237 1.51832E-02 3.64792E-03-1.07455E-14
 -1      1238 1.54688E-02 3.76128E-03-1.14571E-14
 -1      1239 1.57545E-02 3.87461E-03-1.21925E-14
 -1      1240 1.60402E-02 3.98796E-03-1.29500E-14
 -1      1241 1.61273E-02 4.00250E-03-1.36549E-14
 -1      1242 1.60158E-02 3.91820E-03-1.42632E-14
 -1      1243 1.59043E-02 3.83386E-03-1.48721E-14
 -1      1244 1.57928E-02 3.74947E-03-1.54870E-14
 -1      1245 1.56814E-02 3.66503E-03-1.61055E-14
 -1      1246 1.55710E-02 3.58127E-03-1.67233E-14
 -1      1247 1.54607E-02 3.49749E-03-1.73558E-14
 -1      1248 1.53496E-02 3.41298E-03-1.79693E-14
 -1      1249 1.52386E-02 3.32847E-03-1.85571E-14
 -1      1250 1.51278E-02 3.24396E-03-1.91238E-14
 -1      1251 1.50171E-02 3.15946E-03-1.96808E-14
 -1      1252 1.49074E-02 3.07569E-03-2.02487E-14
 -1      1253 1.47979E-02 2.99195E-03-2.08277E-14
 -1      1254 1.46875E-02 2.90752E-03-2.13993E-14
 -1      1255 1.45771E-02 2.82314E-03-2.19376E-14
 -1      1256 1.44668E-02 2.73880E-03-2.24648E-14
 -1      1257 1.43574E-02 2.65522E-03-2.29881E-14
 -1      1258 8.78562E-03 7.94512E-04-2.31778E-15
 -1      1259 8.71859E-03 9.49961E-04-2.12247E-15
 -1      1260 8.54252E-03 1.10966E-03-1.92350E-15
 -1      1261 8.27632E-03 1.27111E-03-1.73962E-15
 -1      1262 7.93088E-03 1.42966E-03-1.56131E-15
 -1      1263 7.50888E-03 1.57006E-03-1.39149E-15
 -1      1264 7.03905E-03 1.65980E-03-1.24976E-15
 -1      1265 6.53666E-03 1.66992E-03-1.14511E-15
 -1      1266 6.02508E-03 1.59212E-03-1.08342E-15
 -1      1267 5.53528E-03 1.43863E-03-1.06347E-15
 -1      1268 5.08840E-03 1.24489E-03-1.07797E-15
 -1      1269 4.70626E-03 1.04068E-03-1.12186E-15
 -1      1270 4.39438E-03 8.37884E-04-1.19579E-15
 -1      1271 4.19328E-03 6.60363E-04-1.29442E-15
 -1      1272 4.10466E-03 5.04214E-04-1.41028E-15
 -1      1273 4.12521E-03 3.53855E-04-1.54995E-15
 -1      1274 4.25873E-03 2.07425E-04-1.70562E-15
 -1      1275 4.49394E-03 6.55697E-05-1.86437E-15
 -1      1276 4.79925E-03-6.35819E-05-2.02685E-15
 -1      1277 5.14363E-03-1.70056E-04-2.18453E-15
 -1      1278 5.52219E-03-2.48982E-04-2.33534E-15
 -1      1279 5.92662E-03-2.89264E-04-2.47431E-15
 -1      1280 6.35136E-03-2.82478E-04-2.59401E-15
 -1      1281 6.78998E-03-2.22972E-04-2.69099E-15
 -1      1282 7.22034E-03-1.20122E-04-2.75322E-15
 -1      1283 7.62694E-03 1.43737E-05-2.77564E-15
 -1      1284 7.99785E-03 1.66998E-04-2.76068E-15
 -1      1285 8.32621E-03 3.30033E-04-2.70614E-15
 -1      1286 8.57809E-03 4.89383E-04-2.61282E-15
 -1      1287 8.73457E-03 6.42200E-04-2.48459E-15
 -1      1288 1.66340E-04-1.08942E-04-1.76860E-17
 -1      1289 1.12829E-04-5.55447E-05-1.64799E-17
 -1      1290 1.17772E-04-6.62837E-05-1.65612E-17
 -1      1291 1.08781E-04-4.17948E-05-1.59649E-17
 -1      1292 1.10625E-04-4.80076E-05-1.64392E-17
 -1      1293 2.27047E-04-1.04448E-04-3.91126E-17
 -1      1294 1.07126E-04-3.17921E-05-1.43521E-17
 -1      1295 1.08019E-04-3.65370E-05-1.49484E-17
 -1      1296 2.19838E-04-7.89254E-05-3.67545E-17
 -1      1297 1.06206E-04-2.36031E-05-1.27800E-17
 -1      1298 1.06712E-04-2.75690E-05-1.33763E-17
 -1      1299 2.16357E-04-5.96655E-05-3.31766E-17
 -1      1300 1.05652E-04-1.65878E-05-1.10182E-17
 -1      1301 1.05961E-04-2.00092E-05-1.15468E-17
 -1      1302 2.14361E-04-4.38389E-05-2.92328E-17
 -1      1303 1.05291E-04-1.01522E-05-9.59519E-18
 -1      1304 1.05482E-04-1.33141E-05-1.01237E-17
 -1      1305 2.13091E-04-2.99922E-05-2.55059E-17
 -1      1306 1.05103E-04-4.14712E-06-7.76560E-18
 -1      1307 1.05194E-04-7.12277E-06-8.26704E-18
 -1      1308 2.12296E-04-1.73202E-05-2.15756E-17
 -1      1309 1.05073E-04 1.66770E-06-6.09864E-18
 -1      1310 1.05072E-04-1.24157E-06-6.57298E-18
 -1      1311 2.11911E-04-5.39747E-06-1.74692E-17
 -1      1312 1.05203E-04 7.52793E-06-4.28260E-18
 -1      1313 1.05108E-04 4.56592E-06-4.81115E-18
 -1      1314 2.11912E-04 6.25906E-06-1.33628E-17
 -1      1315 1.05506E-04 1.36830E-05-2.24972E-18
 -1      1316 1.05307E-04 1.05400E-05-2.80537E-18
 -1      1317 2.12308E-04 1.81282E-05-8.87691E-18
 -1      1318 1.06006E-04 2.02939E-05-1.49078E-19
 -1      1319 1.05683E-04 1.68858E-05-8.40257E-19
 -1      1320 2.13129E-04 3.06145E-05-4.14707E-18
 -1      1321 1.06803E-04 2.79369E-05 2.30393E-18
 -1      1322 1.06278E-04 2.39526E-05 1.46367E-18
 -1      1323 2.14466E-04 4.44077E-05 8.40257E-19
 -1      1324 1.08112E-04 3.70322E-05 5.12286E-18
 -1      1325 1.07212E-04 3.22286E-05 4.16063E-18
 -1      1326 2.16561E-04 6.04516E-05 6.65429E-18
 -1      1327 1.10647E-04 4.86638E-05 8.36191E-18
 -1      1328 1.08837E-04 4.23787E-05 7.06087E-18
 -1      1329 2.20042E-04 7.99813E-05 1.31731E-17
 -1      1330 1.17084E-04 6.62720E-05 1.21837E-17
 -1      1331 1.12502E-04 5.62781E-05 1.05710E-17
 -1      1332 2.27107E-04 1.06079E-04 2.05863E-17
 -1      1333 1.57019E-04 1.08509E-04 1.64257E-17
 -1      1334 1.35631E-04 8.47062E-05 1.46638E-17
 -1      1335 2.56357E-04 1.48923E-04 2.86500E-17
 -1      1336 3.34091E-04 2.17310E-04 3.71746E-17
 -1      1337 4.20867E-04-2.57292E-04-5.78286E-17
 -1      1338 5.74146E-04-3.30049E-04-9.10052E-17
 -1      1339 7.21785E-04-3.88271E-04-1.34563E-16
 -1      1340 8.65673E-04-4.35130E-04-1.86659E-16
 -1      1341 6.12942E-04-3.22817E-04-1.13069E-16
 -1      1342 1.00671E-03-4.73719E-04-2.46412E-16
 -1      1343 1.14587E-03-5.05196E-04-3.13904E-16
 -1      1344 9.07715E-04-4.18529E-04-2.13845E-16
 -1      1345 1.28401E-03-5.31426E-04-3.88212E-16
 -1      1346 1.42166E-03-5.52916E-04-4.69080E-16
 -1      1347 1.19272E-03-4.82776E-04-3.44099E-16
 -1      1348 1.55929E-03-5.70742E-04-5.55355E-16
 -1      1349 1.69719E-03-5.85282E-04-6.46727E-16
 -1      1350 1.47345E-03-5.26277E-04-5.00020E-16
 -1      1351 1.83564E-03-5.97199E-04-7.43261E-16
 -1      1352 1.97480E-03-6.06849E-04-8.44688E-16
 -1      1353 1.75340E-03-5.55399E-04-6.77504E-16
 -1      1354 2.11481E-03-6.14700E-04-9.50737E-16
 -1      1355 2.25576E-03-6.21087E-04-1.06158E-15
 -1      1356 2.03469E-03-5.74476E-04-8.74667E-16
 -1      1357 2.39772E-03-6.26391E-04-1.17701E-15
 -1      1358 2.54073E-03-6.30923E-04-1.29650E-15
 -1      1359 2.31853E-03-5.86888E-04-1.09007E-15
 -1      1360 2.68481E-03-6.35028E-04-1.42120E-15
 -1      1361 2.82994E-03-6.38994E-04-1.55034E-15
 -1      1362 2.60559E-03-5.95528E-04-1.32335E-15
 -1      1363 2.97607E-03-6.43151E-04-1.68225E-15
 -1      1364 3.12313E-03-6.47753E-04-1.81777E-15
 -1      1365 2.89609E-03-6.03035E-04-1.57270E-15
 -1      1366 3.27102E-03-6.53116E-04-1.95497E-15
 -1      1367 3.41960E-03-6.59438E-04-2.09427E-15
 -1      1368 3.18985E-03-6.11868E-04-1.83490E-15
 -1      1369 3.56867E-03-6.66992E-04-2.23556E-15
 -1      1370 3.71803E-03-6.75883E-04-2.37771E-15
 -1      1371 3.48624E-03-6.24256E-04-2.10539E-15
 -1      1372 3.86741E-03-6.86282E-04-2.52069E-15
 -1      1373 4.01652E-03-6.98145E-04-2.66443E-15
 -1      1374 3.78415E-03-6.41961E-04-2.38294E-15
 -1      1375 4.16502E-03-7.11452E-04-2.80886E-15
 -1      1376 4.31258E-03-7.25943E-04-2.95495E-15
 -1      1377 4.08195E-03-6.65844E-04-2.66372E-15
 -1      1378 4.45883E-03-7.41309E-04-3.10179E-15
 -1      1379 4.60345E-03-7.57020E-04-3.25049E-15
 -1      1380 4.37760E-03-6.95259E-04-2.94803E-15
 -1      1381 4.74611E-03-7.72404E-04-3.40178E-15
 -1      1382 4.88657E-03-7.86659E-04-3.55484E-15
 -1      1383 4.66884E-03-7.27382E-04-3.24029E-15
 -1      1384 5.02468E-03-7.98772E-04-3.71129E-15
 -1      1385 5.16037E-03-8.07757E-04-3.87066E-15
 -1      1386 4.95371E-03-7.56793E-04-3.54174E-15
 -1      1387 5.29370E-03-8.12419E-04-4.03421E-15
 -1      1388 5.42490E-03-8.11781E-04-4.20097E-15
 -1      1389 5.23110E-03-7.75712E-04-3.85628E-15
 -1      1390 5.55430E-03-8.04770E-04-4.37142E-15
 -1      1391 5.68236E-03-7.90670E-04-4.54774E-15
 -1      1392 5.50138E-03-7.75227E-04-4.18437E-15
 -1      1393 5.80963E-03-7.68865E-04-4.72884E-15
 -1      1394 5.93673E-03-7.39122E-04-4.91541E-15
 -1      1395 5.76663E-03-7.47455E-04-4.52866E-15
 -1      1396 6.06430E-03-7.01497E-04-5.10619E-15
 -1      1397 6.19292E-03-6.56320E-04-5.30199E-15
 -1      1398 6.03037E-03-6.87906E-04-4.89439E-15
 -1      1399 6.32314E-03-6.04299E-04-5.50433E-15
 -1      1400 6.45537E-03-5.46216E-04-5.70941E-15
 -1      1401 6.29658E-03-5.97009E-04-5.28151E-15
 -1      1402 6.58993E-03-4.83185E-04-5.91999E-15
 -1      1403 6.72699E-03-4.16211E-04-6.13644E-15
 -1      1404 6.56861E-03-4.79961E-04-5.68847E-15
 -1      1405 6.86657E-03-3.46474E-04-6.35773E-15
 -1      1406 7.00861E-03-2.74952E-04-6.58528E-15
 -1      1407 6.84831E-03-3.45003E-04-6.11462E-15
 -1      1408 7.15292E-03-2.02613E-04-6.81677E-15
 -1      1409 7.29925E-03-1.30234E-04-7.05035E-15
 -1      1410 7.13585E-03-2.01016E-04-6.56203E-15
 -1      1411 7.44729E-03-5.84360E-05-7.29149E-15
 -1      1412 7.59673E-03 1.22678E-05-7.53867E-15
 -1      1413 7.43004E-03-5.55159E-05-7.02811E-15
 -1      1414 7.74723E-03 8.16028E-05-7.79016E-15
 -1      1415 7.89848E-03 1.49304E-04-8.04718E-15
 -1      1416 7.72894E-03 8.63793E-05-7.51443E-15
 -1      1417 8.05018E-03 2.15358E-04-8.31011E-15
 -1      1418 8.20208E-03 2.79687E-04-8.58078E-15
 -1      1419 8.03048E-03 2.22019E-04-8.02227E-15
 -1      1420 8.35395E-03 3.42435E-04-8.85464E-15
 -1      1421 8.50561E-03 4.03643E-04-9.12921E-15
 -1      1422 8.33281E-03 3.50707E-04-8.55160E-15
 -1      1423 8.65692E-03 4.63521E-04-9.40697E-15
 -1      1424 8.80777E-03 5.22172E-04-9.68512E-15
 -1      1425 8.63453E-03 4.73003E-04-9.09575E-15
 -1      1426 8.95809E-03 5.79810E-04-9.96536E-15
 -1      1427 9.10782E-03 6.36561E-04-1.02494E-14
 -1      1428 8.93473E-03 5.90090E-04-9.64785E-15
 -1      1429 9.25694E-03 6.92608E-04-1.05334E-14
 -1      1430 9.40545E-03 7.48075E-04-1.08184E-14
 -1      1431 9.23293E-03 7.03331E-04-1.02075E-14
 -1      1432 9.55336E-03 8.03105E-04-1.11077E-14
 -1      1433 9.70068E-03 8.57802E-04-1.14001E-14
 -1      1434 9.52898E-03 8.13994E-04-1.07754E-14
 -1      1435 9.84746E-03 9.12270E-04-1.16953E-14
 -1      1436 9.99373E-03 9.66591E-04-1.19924E-14
 -1      1437 9.82295E-03 9.23134E-04-1.13554E-14
 -1      1438 1.01395E-02 1.02083E-03-1.22929E-14
 -1      1439 1.02849E-02 1.07505E-03-1.25983E-14
 -1      1440 1.01150E-02 1.03155E-03-1.19459E-14
 -1      1441 1.04299E-02 1.12930E-03-1.29049E-14
 -1      1442 1.05745E-02 1.18360E-03-1.32106E-14
 -1      1443 1.04055E-02 1.13980E-03-1.25489E-14
 -1      1444 1.07188E-02 1.23799E-03-1.35176E-14
 -1      1445 1.08629E-02 1.29248E-03-1.38296E-14
 -1      1446 1.06947E-02 1.24826E-03-1.31606E-14
 -1      1447 1.10067E-02 1.34709E-03-1.41403E-14
 -1      1448 1.11504E-02 1.40183E-03-1.44504E-14
 -1      1449 1.09828E-02 1.35713E-03-1.37794E-14
 -1      1450 1.12938E-02 1.45670E-03-1.47688E-14
 -1      1451 1.14371E-02 1.51169E-03-1.50944E-14
 -1      1452 1.12701E-02 1.46651E-03-1.44095E-14
 -1      1453 1.15803E-02 1.56681E-03-1.54244E-14
 -1      1454 1.17234E-02 1.62205E-03-1.57591E-14
 -1      1455 1.15568E-02 1.57643E-03-1.50555E-14
 -1      1456 1.18665E-02 1.67741E-03-1.61020E-14
 -1      1457 1.20094E-02 1.73288E-03-1.64517E-14
 -1      1458 1.18431E-02 1.68687E-03-1.57291E-14
 -1      1459 1.21523E-02 1.78845E-03-1.68098E-14
 -1      1460 1.22952E-02 1.84411E-03-1.71770E-14
 -1      1461 1.21291E-02 1.79778E-03-1.64278E-14
 -1      1462 1.24380E-02 1.89985E-03-1.75491E-14
 -1      1463 1.25808E-02 1.95567E-03-1.79282E-14
 -1      1464 1.24149E-02 1.90908E-03-1.71562E-14
 -1      1465 1.27236E-02 2.01156E-03-1.83142E-14
 -1      1466 1.28664E-02 2.06751E-03-1.87097E-14
 -1      1467 1.27006E-02 2.02071E-03-1.79127E-14
 -1      1468 1.30092E-02 2.12350E-03-1.91087E-14
 -1      1469 1.31520E-02 2.17954E-03-1.95095E-14
 -1      1470 1.29863E-02 2.13260E-03-1.86931E-14
 -1      1471 1.32948E-02 2.23562E-03-1.99163E-14
 -1      1472 1.34376E-02 2.29171E-03-2.03280E-14
 -1      1473 1.32719E-02 2.24468E-03-1.94950E-14
 -1      1474 1.35804E-02 2.34783E-03-2.07424E-14
 -1      1475 1.37232E-02 2.40396E-03-2.11544E-14
 -1      1476 1.35576E-02 2.35688E-03-2.03131E-14
 -1      1477 1.38661E-02 2.46010E-03-2.15703E-14
 -1      1478 1.40089E-02 2.51623E-03-2.19919E-14
 -1      1479 1.38432E-02 2.46914E-03-2.11391E-14
 -1      1480 1.42217E-02 2.60192E-03-2.25798E-14
 -1      1481 1.41989E-02 2.61097E-03-2.21410E-14
 -1      1482 6.42184E-04 3.63596E-04 7.96618E-17
 -1      1483 4.91861E-04 2.97852E-04 5.71781E-17
 -1      1484 4.44836E-04 2.60224E-04 5.08355E-17
 -1      1485 9.29124E-04 4.57991E-04 1.28559E-16
 -1      1486 7.87424E-04 4.15349E-04 1.03812E-16
 -1      1487 7.45647E-04 3.79680E-04 9.22385E-17
 -1      1488 1.20677E-03 5.21275E-04 1.77890E-16
 -1      1489 1.06854E-03 4.92733E-04 1.53618E-16
 -1      1490 1.03378E-03 4.59167E-04 1.36623E-16
 -1      1491 1.48183E-03 5.63668E-04 2.23522E-16
 -1      1492 1.34428E-03 5.44687E-04 2.01201E-16
 -1      1493 1.31522E-03 5.12387E-04 1.78853E-16
 -1      1494 1.75818E-03 5.91023E-04 2.62824E-16
 -1      1495 1.61963E-03 5.78964E-04 2.44406E-16
 -1      1496 1.59483E-03 5.47304E-04 2.15973E-16
 -1      1497 2.03837E-03 6.07245E-04 2.94442E-16
 -1      1498 1.89766E-03 6.00315E-04 2.79738E-16
 -1      1499 1.87587E-03 5.68838E-04 2.46209E-16
 -1      1500 2.32437E-03 6.15317E-04 3.15557E-16
 -1      1501 2.18053E-03 6.12101E-04 3.05867E-16
 -1      1502 2.16061E-03 5.80455E-04 2.66795E-16
 -1      1503 2.61810E-03 6.17851E-04 3.26724E-16
 -1      1504 2.47015E-03 6.17062E-04 3.22672E-16
 -1      1505 2.45094E-03 5.84928E-04 2.77718E-16
 -1      1506 2.92171E-03 6.17532E-04 3.28567E-16
 -1      1507 2.76853E-03 6.17787E-04 3.28757E-16
 -1      1508 2.74869E-03 5.84830E-04 2.78843E-16
 -1      1509 3.23778E-03 6.17630E-04 3.18850E-16
 -1      1510 3.07801E-03 6.17182E-04 3.24461E-16
 -1      1511 3.05591E-03 5.83000E-04 2.69018E-16
 -1      1512 3.56938E-03 6.22741E-04 2.99931E-16
 -1      1513 3.40142E-03 6.19078E-04 3.10909E-16
 -1      1514 3.37492E-03 5.83156E-04 2.50031E-16
 -1      1515 3.91980E-03 6.39839E-04 2.73409E-16
 -1      1516 3.74200E-03 6.29122E-04 2.87788E-16
 -1      1517 3.70830E-03 5.90791E-04 2.22560E-16
 -1      1518 4.29188E-03 6.79652E-04 2.40300E-16
 -1      1519 4.10295E-03 6.56022E-04 2.58081E-16
 -1      1520 4.05860E-03 6.14417E-04 1.86862E-16
 -1      1521 4.68636E-03 7.57824E-04 1.98409E-16
 -1      1522 4.48635E-03 7.12920E-04 2.20594E-16
 -1      1523 4.42765E-03 6.67023E-04 1.43806E-16
 -1      1524 5.09928E-03 8.93977E-04 1.42613E-16
 -1      1525 4.89104E-03 8.17857E-04 1.72307E-16
 -1      1526 4.81536E-03 7.66743E-04 8.92569E-17
 -1      1527 5.51860E-03 1.10438E-03 7.65582E-17
 -1      1528 5.30943E-03 9.90241E-04 1.10263E-16
 -1      1529 5.21782E-03 9.33914E-04 2.32561E-17
 -1      1530 5.92292E-03 1.38314E-03 6.91179E-18
 -1      1531 5.72450E-03 1.23799E-03 4.19993E-17
 -1      1532 5.62479E-03 1.17898E-03-5.03341E-17
 -1      1533 6.28840E-03 1.67843E-03-6.51741E-17
 -1      1534 6.11171E-03 1.53438E-03-2.94496E-17
 -1      1535 6.01913E-03 1.47886E-03-1.27570E-16
 -1      1536 6.60758E-03 1.89313E-03-1.39225E-16
 -1      1537 6.45252E-03 1.80196E-03-1.00614E-16
 -1      1538 6.38430E-03 1.75704E-03-2.05727E-16
 -1      1539 6.90713E-03 1.94024E-03-2.22126E-16
 -1      1540 6.75667E-03 1.93847E-03-1.78988E-16
 -1      1541 6.72274E-03 1.90507E-03-2.91501E-16
 -1      1542 7.19616E-03 1.84116E-03-3.15909E-16
 -1      1543 7.04743E-03 1.90326E-03-2.67080E-16
 -1      1544 7.04426E-03 1.87393E-03-3.89188E-16
 -1      1545 7.56185E-03 1.65565E-03-4.45553E-16
 -1      1546 7.37314E-03 1.75180E-03-3.77465E-16
 -1      1547 7.38986E-03 1.71940E-03-5.08884E-16
 -1      1548 7.96726E-03 1.48637E-03-6.12290E-16
 -1      1549 7.76111E-03 1.56481E-03-5.24252E-16
 -1      1550 7.78311E-03 1.52673E-03-6.64873E-16
 -1      1551 8.38861E-03 1.38639E-03-8.08273E-16
 -1      1552 8.17755E-03 1.42705E-03-7.06073E-16
 -1      1553 8.19114E-03 1.38478E-03-8.52007E-16
 -1      1554 8.80447E-03 1.36123E-03-1.04359E-15
 -1      1555 8.59829E-03 1.36549E-03-9.21247E-16
 -1      1556 8.59663E-03 1.32132E-03-1.07364E-15
 -1      1557 9.20263E-03 1.39487E-03-1.31221E-15
 -1      1558 9.00621E-03 1.37208E-03-1.17420E-15
 -1      1559 8.98875E-03 1.32762E-03-1.32742E-15
 -1      1560 9.57923E-03 1.46761E-03-1.61556E-15
 -1      1561 9.39368E-03 1.42742E-03-1.46053E-15
 -1      1562 9.36312E-03 1.38362E-03-1.61614E-15
 -1      1563 9.93520E-03 1.56407E-03-1.92625E-15
 -1      1564 9.75964E-03 1.51360E-03-1.76885E-15
 -1      1565 9.71953E-03 1.47083E-03-1.92607E-15
 -1      1566 1.02902E-02 1.67962E-03-2.27153E-15
 -1      1567 1.01148E-02 1.62051E-03-2.09731E-15
 -1      1568 1.00682E-02 1.57891E-03-2.25847E-15
 -1      1569 1.06140E-02 1.79671E-03-2.62744E-15
 -1      1570 1.04536E-02 1.73758E-03-2.44634E-15
 -1      1571 1.04028E-02 1.69707E-03-2.61129E-15
 -1      1572 1.09272E-02 1.91692E-03-3.00977E-15
 -1      1573 1.07717E-02 1.85657E-03-2.81519E-15
 -1      1574 1.07185E-02 1.81697E-03-2.98282E-15
 -1      1575 1.12326E-02 2.03820E-03-3.40660E-15
 -1      1576 1.10807E-02 1.97751E-03-3.20645E-15
 -1      1577 1.10261E-02 1.93866E-03-3.37526E-15
 -1      1578 1.15320E-02 2.15940E-03-3.82429E-15
 -1      1579 1.13829E-02 2.09886E-03-3.61123E-15
 -1      1580 1.13275E-02 2.06059E-03-3.78449E-15
 -1      1581 1.18272E-02 2.27997E-03-4.26406E-15
 -1      1582 1.16801E-02 2.21979E-03-4.04144E-15
 -1      1583 1.16244E-02 2.18199E-03-4.21595E-15
 -1      1584 1.21194E-02 2.39962E-03-4.72723E-15
 -1      1585 1.19736E-02 2.33992E-03-4.49295E-15
 -1      1586 1.19179E-02 2.30248E-03-4.67177E-15
 -1      1587 1.24093E-02 2.51830E-03-5.21036E-15
 -1      1588 1.22646E-02 2.45909E-03-4.96528E-15
 -1      1589 1.22089E-02 2.42192E-03-5.14938E-15
 -1      1590 1.26977E-02 2.63601E-03-5.71952E-15
 -1      1591 1.25537E-02 2.57727E-03-5.46039E-15
 -1      1592 1.24981E-02 2.54032E-03-5.65039E-15
 -1      1593 1.29851E-02 2.75285E-03-6.25083E-15
 -1      1594 1.28415E-02 2.69454E-03-5.98165E-15
 -1      1595 1.27861E-02 2.65773E-03-6.17440E-15
 -1      1596 1.32717E-02 2.86891E-03-6.81733E-15
 -1      1597 1.31284E-02 2.81097E-03-6.53176E-15
 -1      1598 1.30732E-02 2.77428E-03-6.72685E-15
 -1      1599 1.35578E-02 2.98429E-03-7.40903E-15
 -1      1600 1.34148E-02 2.92668E-03-7.11113E-15
 -1      1601 1.33597E-02 2.89007E-03-7.30460E-15
 -1      1602 1.38436E-02 3.09912E-03-8.01350E-15
 -1      1603 1.37007E-02 3.04177E-03-7.70921E-15
 -1      1604 1.36458E-02 3.00522E-03-7.90150E-15
 -1      1605 1.41293E-02 3.21349E-03-8.63201E-15
 -1      1606 1.39865E-02 3.15636E-03-8.32091E-15
 -1      1607 1.39317E-02 3.11985E-03-8.51588E-15
 -1      1608 1.44149E-02 3.32750E-03-9.26871E-15
 -1      1609 1.42721E-02 3.27053E-03-8.94899E-15
 -1      1610 1.42174E-02 3.23405E-03-9.14851E-15
 -1      1611 1.47004E-02 3.44123E-03-9.92766E-15
 -1      1612 1.45576E-02 3.38439E-03-9.59465E-15
 -1      1613 1.45030E-02 3.34793E-03-9.79978E-15
 -1      1614 1.49860E-02 3.55476E-03-1.06072E-14
 -1      1615 1.48432E-02 3.49802E-03-1.02632E-14
 -1      1616 1.47886E-02 3.46156E-03-1.04697E-14
 -1      1617 1.52715E-02 3.66816E-03-1.13015E-14
 -1      1618 1.51287E-02 3.61147E-03-1.09534E-14
 -1      1619 1.50742E-02 3.57502E-03-1.11577E-14
 -1      1620 1.55572E-02 3.78149E-03-1.20266E-14
 -1      1621 1.54144E-02 3.72483E-03-1.16616E-14
 -1      1622 1.53599E-02 3.68837E-03-1.18661E-14
 -1      1623 1.58429E-02 3.89482E-03-1.27697E-14
 -1      1624 1.57000E-02 3.83815E-03-1.23941E-14
 -1      1625 1.56455E-02 3.80169E-03-1.25974E-14
 -1      1626 1.59845E-02 3.94581E-03-1.32661E-14
 -1      1627 1.58642E-02 3.84803E-03-1.40930E-14
 -1      1628 1.59200E-02 3.89018E-03-1.37827E-14
 -1      1629 1.57527E-02 3.76368E-03-1.47080E-14
 -1      1630 1.58084E-02 3.80586E-03-1.43993E-14
 -1      1631 1.57126E-02 3.77787E-03-1.39252E-14
 -1      1632 1.56412E-02 3.67930E-03-1.53259E-14
 -1      1633 1.56969E-02 3.72150E-03-1.50151E-14
 -1      1634 1.56011E-02 3.69353E-03-1.45440E-14
 -1      1635 1.55298E-02 3.59489E-03-1.59459E-14
 -1      1636 1.55855E-02 3.63710E-03-1.56380E-14
 -1      1637 1.54896E-02 3.60916E-03-1.51661E-14
 -1      1638 1.54204E-02 3.51189E-03-1.65569E-14
 -1      1639 1.54751E-02 3.55339E-03-1.62502E-14
 -1      1640 1.53792E-02 3.52550E-03-1.57804E-14
 -1      1641 1.53092E-02 3.42744E-03-1.71758E-14
 -1      1642 1.53648E-02 3.46966E-03-1.68693E-14
 -1      1643 1.52688E-02 3.44181E-03-1.63890E-14
 -1      1644 1.51981E-02 3.34298E-03-1.77763E-14
 -1      1645 1.52536E-02 3.38521E-03-1.74759E-14
 -1      1646 1.51577E-02 3.35741E-03-1.69921E-14
 -1      1647 1.50872E-02 3.25852E-03-1.83550E-14
 -1      1648 1.51426E-02 3.30075E-03-1.80687E-14
 -1      1649 1.50466E-02 3.27300E-03-1.75802E-14
 -1      1650 1.49764E-02 3.17407E-03-1.89226E-14
 -1      1651 1.50318E-02 3.21629E-03-1.86416E-14
 -1      1652 1.49357E-02 3.18860E-03-1.81586E-14
 -1      1653 1.48657E-02 3.08962E-03-1.94854E-14
 -1      1654 1.49210E-02 3.13184E-03-1.92028E-14
 -1      1655 1.48250E-02 3.10419E-03-1.87253E-14
 -1      1656 1.47570E-02 3.00662E-03-2.00433E-14
 -1      1657 1.48113E-02 3.04812E-03-1.97650E-14
 -1      1658 1.47152E-02 3.02051E-03-1.92815E-14
 -1      1659 1.46465E-02 2.92220E-03-2.06142E-14
 -1      1660 1.47017E-02 2.96441E-03-2.03301E-14
 -1      1661 1.46056E-02 2.93684E-03-1.98392E-14
 -1      1662 1.45361E-02 2.83781E-03-2.11701E-14
 -1      1663 1.45913E-02 2.88000E-03-2.08965E-14
 -1      1664 1.44952E-02 2.85246E-03-2.03986E-14
 -1      1665 1.44258E-02 2.75346E-03-2.17062E-14
 -1      1666 1.44810E-02 2.79563E-03-2.14412E-14
 -1      1667 1.43848E-02 2.76811E-03-2.09443E-14
 -1      1668 1.42848E-02 2.66113E-03-2.20556E-14
 -1      1669 1.43399E-02 2.70329E-03-2.17912E-14
 -1      1670 1.42438E-02 2.67576E-03-2.12981E-14
 -1      1671 1.40720E-02 2.57543E-03-2.14713E-14
 -1      1672 8.79510E-03 8.10449E-04-2.31895E-15
 -1      1673 8.80215E-03 7.64287E-04-2.40935E-15
 -1      1674 8.67369E-03 9.20991E-04-2.10262E-15
 -1      1675 8.74819E-03 8.65947E-04-2.20839E-15
 -1      1676 8.44086E-03 1.06780E-03-1.88470E-15
 -1      1677 8.56036E-03 1.00019E-03-1.97978E-15
 -1      1678 8.11822E-03 1.23921E-03-1.67969E-15
 -1      1679 8.27746E-03 1.15577E-03-1.77264E-15
 -1      1680 7.74167E-03 1.42708E-03-1.48591E-15
 -1      1681 7.92008E-03 1.33956E-03-1.57282E-15
 -1      1682 7.30656E-03 1.60757E-03-1.29969E-15
 -1      1683 7.50723E-03 1.52574E-03-1.38065E-15
 -1      1684 6.89187E-03 1.71599E-03-1.16302E-15
 -1      1685 7.07986E-03 1.67835E-03-1.22125E-15
 -1      1686 6.44984E-03 1.71284E-03-1.05788E-15
 -1      1687 6.65735E-03 1.73176E-03-1.09933E-15
 -1      1688 6.00425E-03 1.58244E-03-1.01457E-15
 -1      1689 6.20440E-03 1.65342E-03-1.03297E-15
 -1      1690 5.55520E-03 1.36019E-03-9.98144E-16
 -1      1691 5.77054E-03 1.47266E-03-9.96761E-16
 -1      1692 5.10561E-03 1.12477E-03-1.03091E-15
 -1      1693 5.29980E-03 1.23355E-03-1.01645E-15
 -1      1694 4.70779E-03 8.86676E-04-1.08050E-15
 -1      1695 4.89215E-03 9.89643E-04-1.05034E-15
 -1      1696 4.37213E-03 6.87609E-04-1.16224E-15
 -1      1697 4.51680E-03 7.66789E-04-1.11848E-15
 -1      1698 4.15886E-03 5.70497E-04-1.28241E-15
 -1      1699 4.23599E-03 6.26597E-04-1.23090E-15
 -1      1700 4.08224E-03 4.63299E-04-1.40956E-15
 -1      1701 4.10169E-03 5.10636E-04-1.34821E-15
 -1      1702 4.14058E-03 3.60038E-04-1.56120E-15
 -1      1703 4.09603E-03 4.08136E-04-1.48763E-15
 -1      1704 4.33064E-03 2.48695E-04-1.72475E-15
 -1      1705 4.22799E-03 3.03339E-04-1.64784E-15
 -1      1706 4.63160E-03 1.18950E-04-1.89758E-15
 -1      1707 4.48429E-03 1.85014E-04-1.81718E-15
 -1      1708 4.96182E-03-3.80879E-05-2.07276E-15
 -1      1709 4.80277E-03 2.86941E-05-1.99309E-15
 -1      1710 5.32159E-03-1.72246E-04-2.24064E-15
 -1      1711 5.15737E-03-1.10730E-04-2.16492E-15
 -1      1712 5.68072E-03-2.80673E-04-2.40213E-15
 -1      1713 5.51219E-03-2.35908E-04-2.32713E-15
 -1      1714 6.04710E-03-3.36340E-04-2.55210E-15
 -1      1715 5.88056E-03-3.18626E-04-2.48767E-15
 -1      1716 6.41987E-03-3.19935E-04-2.68291E-15
 -1      1717 6.24724E-03-3.37238E-04-2.62542E-15
 -1      1718 6.79542E-03-2.27303E-04-2.79993E-15
 -1      1719 6.62011E-03-2.81678E-04-2.75737E-15
 -1      1720 7.20573E-03-7.22675E-05-2.84917E-15
 -1      1721 7.02396E-03-1.48400E-04-2.82435E-15
 -1      1722 7.61114E-03 1.08120E-04-2.86298E-15
 -1      1723 7.42712E-03 2.18554E-05-2.86030E-15
 -1      1724 7.99417E-03 2.90809E-04-2.84247E-15
 -1      1725 7.82061E-03 2.07571E-04-2.85680E-15
 -1      1726 8.34469E-03 4.71926E-04-2.78436E-15
 -1      1727 8.18408E-03 3.95659E-04-2.82429E-15
 -1      1728 8.61423E-03 5.96406E-04-2.66285E-15
 -1      1729 8.50676E-03 5.39732E-04-2.71607E-15
 -1      1730 8.77274E-03 7.12242E-04-2.51811E-15
 -1      1731 8.71354E-03 6.64870E-04-2.59596E-15
 -1      1732 7.96359E-03 1.24875E-03-1.60245E-15
 -1      1733 8.32162E-03 1.06205E-03-1.82477E-15
 -1      1734 1.59300E-02 3.90935E-03-1.34607E-14
 -1      1735 1.57784E-02 3.83919E-03-1.32928E-14
 -1      1736 8.77690E-03 8.22010E-04-2.30125E-15
 -1      1737 8.60615E-03 9.15466E-04-2.06346E-15
 -1      1738 8.79717E-03 7.52088E-04-2.52331E-15
 -1      1739 7.55704E-03 1.46185E-03-1.38913E-15
 -1      1740 7.15321E-03 1.65425E-03-1.20555E-15
 -1      1741 6.76066E-03 1.75421E-03-1.06696E-15
 -1      1742 6.37020E-03 1.70984E-03-9.82423E-16
 -1      1743 5.95124E-03 1.52635E-03-9.43473E-16
 -1      1744 5.51491E-03 1.26629E-03-9.46698E-16
 -1      1745 5.06510E-03 9.94839E-04-9.86190E-16
 -1      1746 4.65709E-03 7.51569E-04-1.04377E-15
 -1      1747 4.32302E-03 5.99847E-04-1.14890E-15
 -1      1748 4.12516E-03 5.08911E-04-1.28069E-15
 -1      1749 4.07951E-03 4.36192E-04-1.42129E-15
 -1      1750 4.18483E-03 3.61244E-04-1.58193E-15
 -1      1751 4.43081E-03 2.63647E-04-1.75792E-15
 -1      1752 4.75778E-03 1.21514E-04-1.94305E-15
 -1      1753 5.11556E-03-4.50096E-05-2.12932E-15
 -1      1754 5.46948E-03-1.98097E-04-2.30827E-15
 -1      1755 5.81580E-03-3.14604E-04-2.48098E-15
 -1      1756 6.15106E-03-3.63250E-04-2.64266E-15
 -1      1757 6.48943E-03-3.23453E-04-2.79369E-15
 -1      1758 6.84062E-03-1.90825E-04-2.89810E-15
 -1      1759 7.24112E-03-7.16235E-07-2.93824E-15
 -1      1760 7.64681E-03 2.06743E-04-2.94715E-15
 -1      1761 8.04139E-03 4.11365E-04-2.92510E-15
 -1      1762 8.39732E-03 5.68817E-04-2.83957E-15
 -1      1763 8.66405E-03 6.79222E-04-2.70273E-15
 -1      1764 2.85191E-04-1.73210E-04-4.24601E-17
 -1      1765 3.33247E-04-1.11333E-04-5.44405E-17
 -1      1766 3.37515E-04-1.27679E-04-5.70155E-17
 -1      1767 3.43426E-04-1.46845E-04-5.88044E-17
 -1      1768 3.52839E-04-1.69082E-04-5.99022E-17
 -1      1769 4.60046E-04-1.80856E-04-8.33616E-17
 -1      1770 3.24531E-04-6.06006E-05-4.28802E-17
 -1      1771 3.25976E-04-7.15664E-05-4.60244E-17
 -1      1772 3.22436E-04-4.01240E-05-3.71881E-17
 -1      1773 3.23378E-04-5.00528E-05-3.99935E-17
 -1      1774 4.36058E-04-7.32561E-05-6.01597E-17
 -1      1775 3.21192E-04-2.14078E-05-3.10353E-17
 -1      1776 3.21728E-04-3.05787E-05-3.43286E-17
 -1      1777 4.33205E-04-4.67761E-05-5.17707E-17
 -1      1778 3.20668E-04-3.64173E-06-2.49773E-17
 -1      1779 3.20846E-04-1.24354E-05-2.80673E-17
 -1      1780 4.31576E-04-2.23247E-05-4.31512E-17
 -1      1781 3.20842E-04 1.39002E-05-1.86754E-17
 -1      1782 3.20666E-04 5.12853E-06-2.20093E-17
 -1      1783 4.31030E-04 1.12035E-06-3.43692E-17
 -1      1784 3.21745E-04 3.19501E-05-1.18314E-17
 -1      1785 3.21193E-04 2.28327E-05-1.54092E-17
 -1      1786 4.31559E-04 2.45067E-05-2.52077E-17
 -1      1787 3.23433E-04 5.09731E-05-4.68917E-18
 -1      1788 3.22470E-04 4.12756E-05-8.36191E-18
 -1      1789 4.33212E-04 4.86011E-05-1.53686E-17
 -1      1790 3.26181E-04 7.26045E-05 3.04932E-18
 -1      1791 3.24635E-04 6.14726E-05-1.04354E-18
 -1      1792 4.36158E-04 7.46863E-05-5.01444E-18
 -1      1793 3.30515E-04 9.79443E-05 1.20346E-17
 -1      1794 3.28067E-04 8.47740E-05 7.22350E-18
 -1      1795 4.40845E-04 1.04401E-04 6.27482E-18
 -1      1796 3.37925E-04 1.29429E-04 2.19958E-17
 -1      1797 3.33612E-04 1.12853E-04 1.67103E-17
 -1      1798 4.48233E-04 1.39567E-04 1.89600E-17
 -1      1799 3.53457E-04 1.72322E-04 3.33799E-17
 -1      1800 3.44158E-04 1.49241E-04 2.74710E-17
 -1      1801 4.61220E-04 1.83699E-04 3.32986E-17
 -1      1802 4.08225E-04 2.28202E-04 4.47233E-17
 -1      1803 3.79058E-04 1.97246E-04 3.86789E-17
 -1      1804 4.97566E-04 2.36238E-04 4.79353E-17
 -1      1805 5.59532E-04 2.94411E-04 6.26804E-17
 -1      1806 3.40656E-04-1.86653E-04-5.50775E-17
 -1      1807 8.56097E-04 3.93325E-04 1.02240E-16
 -1      1808 7.08801E-04 3.48511E-04 8.21961E-17
 -1      1809 6.75530E-04 3.18126E-04 7.26280E-17
 -1      1810 4.60220E-04-2.30375E-04-8.10983E-17
 -1      1811 8.09940E-04-3.62081E-04-1.83108E-16
 -1      1812 9.56197E-04-4.00674E-04-2.39432E-16
 -1      1813 1.10025E-03-4.32720E-04-3.02411E-16
 -1      1814 1.24339E-03-4.58929E-04-3.71895E-16
 -1      1815 1.00849E-03-3.81745E-04-2.63637E-16
 -1      1816 1.38554E-03-4.80696E-04-4.47450E-16
 -1      1817 1.52729E-03-4.98348E-04-5.28318E-16
 -1      1818 1.29681E-03-4.34247E-04-3.97956E-16
 -1      1819 1.66883E-03-5.12833E-04-6.14485E-16
 -1      1820 1.81043E-03-5.24432E-04-7.05572E-16
 -1      1821 1.58285E-03-4.69628E-04-5.54488E-16
 -1      1822 1.95229E-03-5.33812E-04-8.01307E-16
 -1      1823 2.09451E-03-5.41238E-04-9.01609E-16
 -1      1824 1.86830E-03-4.92755E-04-7.31159E-16
 -1      1825 2.23727E-03-5.47227E-04-1.00653E-15
 -1      1826 2.38060E-03-5.52035E-04-1.11532E-15
 -1      1827 2.15447E-03-5.07404E-04-9.25990E-16
 -1      1828 2.52462E-03-5.56102E-04-1.22844E-15
 -1      1829 2.66932E-03-5.59675E-04-1.34608E-15
 -1      1830 2.44227E-03-5.16713E-04-1.13768E-15
 -1      1831 2.81478E-03-5.63157E-04-1.46737E-15
 -1      1832 2.96092E-03-5.66785E-04-1.59178E-15
 -1      1833 2.73230E-03-5.23471E-04-1.36540E-15
 -1      1834 3.10783E-03-5.70934E-04-1.71923E-15
 -1      1835 3.25533E-03-5.75824E-04-1.84810E-15
 -1      1836 3.02488E-03-5.30279E-04-1.60681E-15
 -1      1837 3.40350E-03-5.81787E-04-1.97941E-15
 -1      1838 3.55207E-03-5.88997E-04-2.11320E-15
 -1      1839 3.32008E-03-5.39580E-04-1.85789E-15
 -1      1840 3.70114E-03-5.97698E-04-2.24827E-15
 -1      1841 3.85029E-03-6.07978E-04-2.38431E-15
 -1      1842 3.61766E-03-5.53545E-04-2.11689E-15
 -1      1843 3.99963E-03-6.19910E-04-2.52078E-15
 -1      1844 4.14865E-03-6.33427E-04-2.65913E-15
 -1      1845 3.91697E-03-5.73762E-04-2.38205E-15
 -1      1846 4.29743E-03-6.48335E-04-2.79917E-15
 -1      1847 4.44541E-03-6.64328E-04-2.93979E-15
 -1      1848 4.21696E-03-6.00696E-04-2.65201E-15
 -1      1849 4.59265E-03-6.80850E-04-3.08224E-15
 -1      1850 4.73863E-03-6.97295E-04-3.22737E-15
 -1      1851 4.51605E-03-6.32974E-04-2.92805E-15
 -1      1852 4.88336E-03-7.12714E-04-3.37606E-15
 -1      1853 5.02653E-03-7.26203E-04-3.52680E-15
 -1      1854 4.81234E-03-6.66651E-04-3.21253E-15
 -1      1855 5.16810E-03-7.36516E-04-3.68038E-15
 -1      1856 5.30815E-03-7.42584E-04-3.83790E-15
 -1      1857 5.10399E-03-6.94863E-04-3.50810E-15
 -1      1858 5.44655E-03-7.43119E-04-3.99897E-15
 -1      1859 5.58388E-03-7.37150E-04-4.16353E-15
 -1      1860 5.38994E-03-7.08401E-04-3.81647E-15
 -1      1861 5.71998E-03-7.23711E-04-4.33337E-15
 -1      1862 5.85581E-03-7.02239E-04-4.50838E-15
 -1      1863 5.67066E-03-6.97571E-04-4.14131E-15
 -1      1864 5.99120E-03-6.72411E-04-4.68846E-15
 -1      1865 6.12725E-03-6.34286E-04-4.87251E-15
 -1      1866 5.94838E-03-6.54994E-04-4.48460E-15
 -1      1867 6.26378E-03-5.88304E-04-5.06214E-15
 -1      1868 6.40172E-03-5.35116E-04-5.25831E-15
 -1      1869 6.22651E-03-5.78207E-04-4.84827E-15
 -1      1870 6.54091E-03-4.75763E-04-5.45874E-15
 -1      1871 6.68185E-03-4.11264E-04-5.66402E-15
 -1      1872 6.50836E-03-4.70613E-04-5.23205E-15
 -1      1873 6.82442E-03-3.42920E-04-5.87423E-15
 -1      1874 6.96866E-03-2.71794E-04-6.08960E-15
 -1      1875 6.79591E-03-3.40184E-04-5.63692E-15
 -1      1876 7.11451E-03-1.99097E-04-6.31071E-15
 -1      1877 7.26166E-03-1.25700E-04-6.53558E-15
 -1      1878 7.08936E-03-1.96728E-04-6.06180E-15
 -1      1879 7.41012E-03-5.24982E-05-6.76606E-15
 -1      1880 7.55937E-03 1.99356E-05-7.00117E-15
 -1      1881 7.38753E-03-4.91917E-05-6.50662E-15
 -1      1882 7.70949E-03 9.10893E-05-7.24155E-15
 -1      1883 7.85993E-03 1.60674E-04-7.48690E-15
 -1      1884 7.68858E-03 9.59445E-05-6.97204E-15
 -1      1885 8.01080E-03 2.28512E-04-7.73779E-15
 -1      1886 8.16162E-03 2.94525E-04-7.99411E-15
 -1      1887 7.99075E-03 2.35026E-04-7.45617E-15
 -1      1888 8.31249E-03 3.58768E-04-8.25516E-15
 -1      1889 8.46306E-03 4.21290E-04-8.52028E-15
 -1      1890 8.29261E-03 3.66756E-04-7.96219E-15
 -1      1891 8.61340E-03 4.82273E-04-8.78773E-15
 -1      1892 8.76331E-03 5.41831E-04-9.05810E-15
 -1      1893 8.59323E-03 4.91417E-04-8.48333E-15
 -1      1894 8.91281E-03 6.00188E-04-9.33148E-15
 -1      1895 9.06181E-03 6.57477E-04-9.60618E-15
 -1      1896 8.89209E-03 6.10141E-04-9.01827E-15
 -1      1897 9.21033E-03 7.13915E-04-9.88399E-15
 -1      1898 9.35835E-03 7.69625E-04-1.01644E-14
 -1      1899 9.18898E-03 7.24360E-04-9.56364E-15
 -1      1900 9.50587E-03 8.24792E-04-1.04445E-14
 -1      1901 9.65291E-03 8.79520E-04-1.07295E-14
 -1      1902 9.48392E-03 8.35474E-04-1.01172E-14
 -1      1903 9.79948E-03 9.33949E-04-1.10170E-14
 -1      1904 9.94564E-03 9.88160E-04-1.13067E-14
 -1      1905 9.77705E-03 9.44676E-04-1.06820E-14
 -1      1906 1.00914E-02 1.04225E-03-1.16004E-14
 -1      1907 1.02368E-02 1.09628E-03-1.18960E-14
 -1      1908 1.00686E-02 1.05290E-03-1.12555E-14
 -1      1909 1.03818E-02 1.15032E-03-1.21960E-14
 -1      1910 1.05265E-02 1.20439E-03-1.24992E-14
 -1      1911 1.03587E-02 1.16080E-03-1.18460E-14
 -1      1912 1.06709E-02 1.25855E-03-1.28040E-14
 -1      1913 1.08152E-02 1.31281E-03-1.31102E-14
 -1      1914 1.06477E-02 1.26883E-03-1.24483E-14
 -1      1915 1.09591E-02 1.36719E-03-1.34190E-14
 -1      1916 1.11029E-02 1.42171E-03-1.37315E-14
 -1      1917 1.09359E-02 1.37726E-03-1.30610E-14
 -1      1918 1.12465E-02 1.47636E-03-1.40460E-14
 -1      1919 1.13900E-02 1.53116E-03-1.43651E-14
 -1      1920 1.12233E-02 1.48623E-03-1.36842E-14
 -1      1921 1.15334E-02 1.58610E-03-1.46893E-14
 -1      1922 1.16766E-02 1.64117E-03-1.50182E-14
 -1      1923 1.15101E-02 1.59578E-03-1.43202E-14
 -1      1924 1.18198E-02 1.69637E-03-1.53540E-14
 -1      1925 1.19629E-02 1.75170E-03-1.56948E-14
 -1      1926 1.17966E-02 1.70589E-03-1.49800E-14
 -1      1927 1.21059E-02 1.80714E-03-1.60449E-14
 -1      1928 1.22489E-02 1.86269E-03-1.64025E-14
 -1      1929 1.20828E-02 1.81652E-03-1.56634E-14
 -1      1930 1.23918E-02 1.91833E-03-1.67647E-14
 -1      1931 1.25347E-02 1.97407E-03-1.71349E-14
 -1      1932 1.23688E-02 1.92761E-03-1.63742E-14
 -1      1933 1.26776E-02 2.02988E-03-1.75124E-14
 -1      1934 1.28205E-02 2.08577E-03-1.78941E-14
 -1      1935 1.26546E-02 2.03907E-03-1.71115E-14
 -1      1936 1.29633E-02 2.14171E-03-1.82814E-14
 -1      1937 1.31062E-02 2.19771E-03-1.86759E-14
 -1      1938 1.29404E-02 2.15083E-03-1.78733E-14
 -1      1939 1.32490E-02 2.25375E-03-1.90762E-14
 -1      1940 1.33919E-02 2.30982E-03-1.94779E-14
 -1      1941 1.32261E-02 2.26283E-03-1.86557E-14
 -1      1942 1.35347E-02 2.36593E-03-1.98853E-14
 -1      1943 1.36775E-02 2.42205E-03-2.02961E-14
 -1      1944 1.35118E-02 2.37498E-03-1.94600E-14
 -1      1945 1.38033E-02 2.47067E-03-2.06738E-14
 -1      1946 1.39462E-02 2.52681E-03-2.10875E-14
 -1      1947 1.40321E-02 2.57697E-03-2.10003E-14
 -1      1948 1.37805E-02 2.47971E-03-2.02417E-14
 -1      1949 1.14382E-03 4.59961E-04 1.41773E-16
 -1      1950 1.00056E-03 4.29955E-04 1.22325E-16
 -1      1951 9.68621E-04 4.00672E-04 1.08610E-16
 -1      1952 1.42708E-03 5.04371E-04 1.77010E-16
 -1      1953 1.28564E-03 4.84550E-04 1.60069E-16
 -1      1954 1.25623E-03 4.56543E-04 1.42139E-16
 -1      1955 1.70954E-03 5.32740E-04 2.06662E-16
 -1      1956 1.56819E-03 5.20306E-04 1.92852E-16
 -1      1957 1.54111E-03 4.93195E-04 1.70382E-16
 -1      1958 1.99378E-03 5.49228E-04 2.27899E-16
 -1      1959 1.85129E-03 5.42277E-04 2.18304E-16
 -1      1960 1.82593E-03 5.15691E-04 1.91551E-16
 -1      1961 2.28174E-03 5.56942E-04 2.39243E-16
 -1      1962 2.13718E-03 5.54014E-04 2.34879E-16
 -1      1963 2.11269E-03 5.27658E-04 2.03383E-16
 -1      1964 2.57510E-03 5.58517E-04 2.40706E-16
 -1      1965 2.42762E-03 5.58329E-04 2.41113E-16
 -1      1966 2.40304E-03 5.31948E-04 2.05863E-16
 -1      1967 2.87555E-03 5.56565E-04 2.32805E-16
 -1      1968 2.72429E-03 5.57787E-04 2.38131E-16
 -1      1969 2.69842E-03 5.31126E-04 1.98409E-16
 -1      1970 3.18492E-03 5.54189E-04 2.13642E-16
 -1      1971 3.02894E-03 5.55174E-04 2.24321E-16
 -1      1972 3.00030E-03 5.27930E-04 1.80560E-16
 -1      1973 3.50527E-03 5.55702E-04 1.86944E-16
 -1      1974 3.34351E-03 5.54096E-04 2.01513E-16
 -1      1975 3.31022E-03 5.25848E-04 1.53591E-16
 -1      1976 3.83877E-03 5.67657E-04 1.50284E-16
 -1      1977 3.67013E-03 5.59839E-04 1.69745E-16
 -1      1978 3.62992E-03 5.29943E-04 1.17771E-16
 -1      1979 4.18759E-03 6.00224E-04 1.06550E-16
 -1      1980 4.01106E-03 5.80584E-04 1.29535E-16
 -1      1981 3.96136E-03 5.48012E-04 7.28177E-17
 -1      1982 4.55348E-03 6.68545E-04 5.31801E-17
 -1      1983 4.36837E-03 6.28859E-04 8.14642E-17
 -1      1984 4.30690E-03 5.92023E-04 2.02204E-17
 -1      1985 4.93710E-03 7.92590E-04-1.11808E-17
 -1      1986 4.74344E-03 7.22422E-04 2.19686E-17
 -1      1987 4.66941E-03 6.79182E-04-4.34901E-17
 -1      1988 5.33639E-03 9.91854E-04-8.64651E-17
 -1      1989 5.13593E-03 8.82308E-04-4.76778E-17
 -1      1990 5.05193E-03 8.30840E-04-1.18070E-16
 -1      1991 5.74279E-03 1.26812E-03-1.65544E-16
 -1      1992 5.54067E-03 1.12207E-03-1.25740E-16
 -1      1993 5.45462E-03 1.06368E-03-2.00388E-16
 -1      1994 6.13903E-03 1.57804E-03-2.48757E-16
 -1      1995 5.94395E-03 1.42433E-03-2.06947E-16
 -1      1996 5.86767E-03 1.36677E-03-2.86243E-16
 -1      1997 6.50881E-03 1.82022E-03-3.35411E-16
 -1      1998 6.32599E-03 1.71514E-03-2.90729E-16
 -1      1999 6.26907E-03 1.67059E-03-3.75134E-16
 -1      2000 6.86293E-03 1.88639E-03-4.36080E-16
 -1      2001 6.68416E-03 1.87715E-03-3.84946E-16
 -1      2002 6.64726E-03 1.84962E-03-4.74664E-16
 -1      2003 7.19263E-03 1.78758E-03-5.45272E-16
 -1      2004 7.02411E-03 1.85126E-03-4.87647E-16
 -1      2005 7.00278E-03 1.82963E-03-5.85672E-16
 -1      2006 7.58488E-03 1.59157E-03-6.91613E-16
 -1      2007 7.38587E-03 1.69385E-03-6.14851E-16
 -1      2008 7.37799E-03 1.66765E-03-7.19002E-16
 -1      2009 7.99197E-03 1.41270E-03-8.68188E-16
 -1      2010 7.78863E-03 1.49609E-03-7.75272E-16
 -1      2011 7.79092E-03 1.46347E-03-8.85888E-16
 -1      2012 8.39517E-03 1.30741E-03-1.07562E-15
 -1      2013 8.19548E-03 1.35058E-03-9.67705E-16
 -1      2014 8.19999E-03 1.31504E-03-1.08157E-15
 -1      2015 8.78464E-03 1.28027E-03-1.31745E-15
 -1      2016 8.59241E-03 1.28527E-03-1.19330E-15
 -1      2017 8.59104E-03 1.24919E-03-1.31091E-15
 -1      2018 9.15704E-03 1.31394E-03-1.58971E-15
 -1      2019 8.97321E-03 1.29089E-03-1.44935E-15
 -1      2020 8.96193E-03 1.25491E-03-1.56961E-15
 -1      2021 9.51281E-03 1.38775E-03-1.89304E-15
 -1      2022 9.33699E-03 1.34683E-03-1.73685E-15
 -1      2023 9.31529E-03 1.31108E-03-1.85995E-15
 -1      2024 9.85367E-03 1.48575E-03-2.21085E-15
 -1      2025 9.68495E-03 1.43437E-03-2.05153E-15
 -1      2026 9.65434E-03 1.39886E-03-2.17278E-15
 -1      2027 1.01980E-02 1.60303E-03-2.56373E-15
 -1      2028 1.00273E-02 1.54298E-03-2.38600E-15
 -1      2029 9.98978E-03 1.50778E-03-2.51211E-15
 -1      2030 1.05154E-02 1.72165E-03-2.92633E-15
 -1      2031 1.03578E-02 1.66171E-03-2.74187E-15
 -1      2032 1.03153E-02 1.62690E-03-2.87038E-15
 -1      2033 1.08246E-02 1.84320E-03-3.30791E-15
 -1      2034 1.06708E-02 1.78217E-03-3.11325E-15
 -1      2035 1.06251E-02 1.74774E-03-3.24321E-15
 -1      2036 1.11277E-02 1.96559E-03-3.71037E-15
 -1      2037 1.09768E-02 1.90435E-03-3.50688E-15
 -1      2038 1.09289E-02 1.87029E-03-3.63789E-15
 -1      2039 1.14259E-02 2.08770E-03-4.13360E-15
 -1      2040 1.12773E-02 2.02670E-03-3.91973E-15
 -1      2041 1.12280E-02 1.99298E-03-4.05222E-15
 -1      2042 1.17205E-02 2.20897E-03-4.57918E-15
 -1      2043 1.15736E-02 2.14845E-03-4.35326E-15
 -1      2044 1.15235E-02 2.11501E-03-4.48941E-15
 -1      2045 1.20125E-02 2.32919E-03-5.04918E-15
 -1      2046 1.18668E-02 2.26922E-03-4.81153E-15
 -1      2047 1.18162E-02 2.23602E-03-4.95101E-15
 -1      2048 1.23025E-02 2.44830E-03-5.54063E-15
 -1      2049 1.21577E-02 2.38888E-03-5.29144E-15
 -1      2050 1.21069E-02 2.35588E-03-5.43275E-15
 -1      2051 1.25911E-02 2.56635E-03-6.05704E-15
 -1      2052 1.24470E-02 2.50745E-03-5.79469E-15
 -1      2053 1.23961E-02 2.47461E-03-5.93914E-15
 -1      2054 1.28787E-02 2.68343E-03-6.59542E-15
 -1      2055 1.27350E-02 2.62500E-03-6.32419E-15
 -1      2056 1.26841E-02 2.59229E-03-6.46907E-15
 -1      2057 1.31656E-02 2.79967E-03-7.16247E-15
 -1      2058 1.30222E-02 2.74165E-03-6.87751E-15
 -1      2059 1.29713E-02 2.70903E-03-7.02516E-15
 -1      2060 1.34519E-02 2.91520E-03-7.75009E-15
 -1      2061 1.33088E-02 2.85752E-03-7.45306E-15
 -1      2062 1.32579E-02 2.82497E-03-7.60289E-15
 -1      2063 1.37380E-02 3.03012E-03-8.35702E-15
 -1      2064 1.35950E-02 2.97273E-03-8.04986E-15
 -1      2065 1.35442E-02 2.94024E-03-8.19800E-15
 -1      2066 1.40238E-02 3.14456E-03-8.97974E-15
 -1      2067 1.38809E-02 3.08740E-03-8.66691E-15
 -1      2068 1.38302E-02 3.05495E-03-8.81553E-15
 -1      2069 1.43096E-02 3.25862E-03-9.62383E-15
 -1      2070 1.41667E-02 3.20163E-03-9.29855E-15
 -1      2071 1.41160E-02 3.16921E-03-9.45091E-15
 -1      2072 1.45952E-02 3.37238E-03-1.02877E-14
 -1      2073 1.44524E-02 3.31553E-03-9.95376E-15
 -1      2074 1.44018E-02 3.28313E-03-1.01058E-14
 -1      2075 1.48809E-02 3.48592E-03-1.09661E-14
 -1      2076 1.47380E-02 3.42917E-03-1.06235E-14
 -1      2077 1.46875E-02 3.39678E-03-1.07790E-14
 -1      2078 1.51665E-02 3.59932E-03-1.16629E-14
 -1      2079 1.50237E-02 3.54264E-03-1.13142E-14
 -1      2080 1.49731E-02 3.51025E-03-1.14677E-14
 -1      2081 1.54522E-02 3.71265E-03-1.23849E-14
 -1      2082 1.53093E-02 3.65599E-03-1.20219E-14
 -1      2083 1.52588E-02 3.62361E-03-1.21764E-14
 -1      2084 1.56867E-02 3.80425E-03-1.30202E-14
 -1      2085 1.55439E-02 3.74759E-03-1.26501E-14
 -1      2086 1.54933E-02 3.71521E-03-1.28044E-14
 -1      2087 1.56767E-02 3.78508E-03-1.33426E-14
 -1      2088 1.53380E-02 3.53905E-03-1.50081E-14
 -1      2089 1.53937E-02 3.58122E-03-1.46956E-14
 -1      2090 1.54495E-02 3.62339E-03-1.43835E-14
 -1      2091 1.55052E-02 3.66556E-03-1.40750E-14
 -1      2092 1.52979E-02 3.55327E-03-1.42266E-14
 -1      2093 1.55631E-02 3.70425E-03-1.38658E-14
 -1      2094 1.56188E-02 3.74641E-03-1.35539E-14
 -1      2095 1.55272E-02 3.71147E-03-1.32845E-14
 -1      2096 1.54115E-02 3.63411E-03-1.37063E-14
 -1      2097 1.52285E-02 3.45613E-03-1.56105E-14
 -1      2098 1.52833E-02 3.49759E-03-1.53103E-14
 -1      2099 1.51874E-02 3.46967E-03-1.48407E-14
 -1      2100 1.51173E-02 3.37177E-03-1.62173E-14
 -1      2101 1.51729E-02 3.41395E-03-1.59146E-14
 -1      2102 1.50770E-02 3.38606E-03-1.54428E-14
 -1      2103 1.50062E-02 3.28741E-03-1.68093E-14
 -1      2104 1.50617E-02 3.32959E-03-1.65155E-14
 -1      2105 1.49658E-02 3.30174E-03-1.60399E-14
 -1      2106 1.48952E-02 3.20305E-03-1.73920E-14
 -1      2107 1.49507E-02 3.24523E-03-1.71010E-14
 -1      2108 1.48547E-02 3.21743E-03-1.66247E-14
 -1      2109 1.47843E-02 3.11869E-03-1.79662E-14
 -1      2110 1.48397E-02 3.16087E-03-1.76799E-14
 -1      2111 1.47437E-02 3.13312E-03-1.72012E-14
 -1      2112 1.46736E-02 3.03434E-03-1.85297E-14
 -1      2113 1.47289E-02 3.07652E-03-1.82479E-14
 -1      2114 1.46329E-02 3.04882E-03-1.77701E-14
 -1      2115 1.45648E-02 2.95142E-03-1.90790E-14
 -1      2116 1.46192E-02 2.99288E-03-1.88047E-14
 -1      2117 1.45231E-02 2.96522E-03-1.83275E-14
 -1      2118 1.44543E-02 2.86707E-03-1.96320E-14
 -1      2119 1.45095E-02 2.90924E-03-1.93556E-14
 -1      2120 1.44134E-02 2.88163E-03-1.88745E-14
 -1      2121 1.43439E-02 2.78273E-03-2.01792E-14
 -1      2122 1.43991E-02 2.82490E-03-1.99060E-14
 -1      2123 1.43029E-02 2.79731E-03-1.94183E-14
 -1      2124 1.42335E-02 2.69839E-03-2.07172E-14
 -1      2125 1.42887E-02 2.74056E-03-2.04500E-14
 -1      2126 1.41926E-02 2.71300E-03-1.99583E-14
 -1      2127 8.52531E-03 9.17014E-04-2.01324E-15
 -1      2128 8.64539E-03 8.67997E-04-2.14024E-15
 -1      2129 8.81497E-03 7.76747E-04-2.52360E-15
 -1      2130 8.78722E-03 7.60642E-04-2.63508E-15
 -1      2131 8.75614E-03 8.23164E-04-2.29607E-15
 -1      2132 8.80507E-03 7.99692E-04-2.40954E-15
 -1      2133 8.81863E-03 7.93693E-04-2.51963E-15
 -1      2134 8.23332E-03 1.05596E-03-1.77671E-15
 -1      2135 8.39174E-03 9.79965E-04-1.89259E-15
 -1      2136 8.46144E-03 9.31177E-04-1.96482E-15
 -1      2137 7.83123E-03 1.27055E-03-1.51546E-15
 -1      2138 8.01210E-03 1.16819E-03-1.62515E-15
 -1      2139 3.27708E-04-8.36483E-05-4.87620E-17
 -1      2140 3.30082E-04-9.66877E-05-5.16758E-17
 -1      2141 4.47591E-04-1.37768E-04-7.65447E-17
 -1      2142 4.40473E-04-1.02980E-04-6.84809E-17
 -1      2143 7.03856E-03 1.70557E-03-1.10792E-15
 -1      2144 7.21196E-03 1.62285E-03-1.18503E-15
 -1      2145 6.68742E-03 1.78352E-03-9.60847E-16
 -1      2146 6.84885E-03 1.76431E-03-1.02116E-15
 -1      2147 6.29962E-03 1.68868E-03-8.97530E-16
 -1      2148 6.47345E-03 1.75293E-03-9.18645E-16
 -1      2149 5.92374E-03 1.46974E-03-8.63919E-16
 -1      2150 6.10881E-03 1.59191E-03-8.78556E-16
 -1      2151 5.45512E-03 1.15916E-03-8.85522E-16
 -1      2152 5.66829E-03 1.29829E-03-8.65058E-16
 -1      2153 5.03964E-03 8.96487E-04-9.27223E-16
 -1      2154 5.24535E-03 1.02690E-03-9.06881E-16
 -1      2155 5.38826E-03 1.06934E-03-8.27382E-16
 -1      2156 4.61151E-03 6.55012E-04-9.92414E-16
 -1      2157 4.80442E-03 7.52782E-04-9.54796E-16
 -1      2158 4.25189E-03 5.21158E-04-1.13399E-15
 -1      2159 4.38452E-03 5.60197E-04-1.06783E-15
 -1      2160 4.09909E-03 4.66063E-04-1.25943E-15
 -1      2161 4.16090E-03 4.89337E-04-1.19670E-15
 -1      2162 4.20161E-03 4.73022E-04-1.11473E-15
 -1      2163 4.08281E-03 4.22019E-04-1.41845E-15
 -1      2164 4.06831E-03 4.38482E-04-1.34457E-15
 -1      2165 4.22948E-03 3.64993E-04-1.59576E-15
 -1      2166 4.14065E-03 3.93698E-04-1.51280E-15
 -1      2167 4.50770E-03 2.70987E-04-1.77898E-15
 -1      2168 4.36091E-03 3.21911E-04-1.68886E-15
 -1      2169 4.88941E-03 9.91330E-05-2.00005E-15
 -1      2170 4.71998E-03 1.79814E-04-1.90624E-15
 -1      2171 5.22227E-03-6.12660E-05-2.18070E-15
 -1      2172 5.05337E-03 2.08511E-05-2.08969E-15
 -1      2173 4.98342E-03 7.08849E-05-2.05051E-15
 -1      2174 5.58963E-03-2.35271E-04-2.38514E-15
 -1      2175 5.43387E-03-1.60615E-04-2.29753E-15
 -1      2176 5.89020E-03-3.43789E-04-2.55723E-15
 -1      2177 5.74301E-03-2.95325E-04-2.47065E-15
 -1      2178 5.67049E-03-2.68044E-04-2.45924E-15
 -1      2179 6.21672E-03-3.83381E-04-2.74810E-15
 -1      2180 6.07757E-03-3.79119E-04-2.67147E-15
 -1      2181 6.50913E-03-3.19244E-04-2.90233E-15
 -1      2182 6.36629E-03-3.63815E-04-2.82402E-15
 -1      2183 6.26928E-03-3.85115E-04-2.85373E-15
 -1      2184 6.89377E-03-1.30688E-04-3.04089E-15
 -1      2185 6.72881E-03-2.20227E-04-3.01134E-15
 -1      2186 7.24521E-03 6.82823E-05-3.07431E-15
 -1      2187 7.06543E-03-3.78163E-05-3.05734E-15
 -1      2188 6.94595E-03-7.32404E-05-3.17351E-15
 -1      2189 7.68583E-03 2.99736E-04-3.05062E-15
 -1      2190 7.49489E-03 1.94626E-04-3.05360E-15
 -1      2191 8.08076E-03 5.01479E-04-3.02377E-15
 -1      2192 7.89230E-03 4.07652E-04-3.04085E-15
 -1      2193 8.46550E-03 6.53638E-04-2.90996E-15
 -1      2194 8.30652E-03 6.01838E-04-2.97949E-15
 -1      2195 8.69942E-03 7.31721E-04-2.77049E-15
 -1      2196 8.59568E-03 6.98115E-04-2.84008E-15
 -1      2197 8.52617E-03 7.09036E-04-2.97985E-15
 -1      2198 7.43827E-03 1.50053E-03-1.29611E-15
 -1      2199 7.62864E-03 1.38913E-03-1.40167E-15
 -1      2200 6.09724E-04-2.89351E-04-1.19682E-16
 -1      2201 6.23179E-03 1.64775E-03-8.16621E-16
 -1      2202 7.31998E-03 1.56458E-03-1.19387E-15
 -1      2203 6.66102E-04-2.82216E-04-1.39117E-16
 -1      2204 8.70871E-03 8.40568E-04-2.24632E-15
 -1      2205 1.41476E-02 2.64822E-03-2.08052E-14
 -1      2206 8.12303E-03 1.09211E-03-1.68884E-15
 -1      2207 8.75050E-03 7.63215E-04-2.77187E-15
 -1      2208 7.72148E-03 1.31914E-03-1.42074E-15
 -1      2209 8.18336E-03 5.83657E-04-3.09618E-15
 -1      2210 7.32304E-03 1.46999E-04-3.17598E-15
 -1      2211 6.60005E-03-2.74387E-04-3.04181E-15
 -1      2212 5.97840E-03-3.71472E-04-2.65966E-15
 -1      2213 5.33787E-03-1.07471E-04-2.25570E-15
 -1      2214 4.61297E-03 2.35536E-04-1.83482E-15
 -1      2215 4.28571E-03 3.51751E-04-1.61823E-15
 -1      2216 4.07362E-03 4.34886E-04-1.25931E-15
 -1      2217 4.95401E-03 7.97309E-04-8.77418E-16
 -1      2218 5.82394E-03 1.37707E-03-8.02391E-16
 -1      2219 6.94141E-03 1.74953E-03-9.97358E-16
 -1      2220 6.59325E-03 1.78493E-03-8.72485E-16
 -1      2221 4.49766E-03 5.74852E-04-9.80210E-16
 -1      2222 4.10121E-03 4.07123E-04-1.43387E-15
 -1      2223 7.75733E-03 3.82429E-04-3.14871E-15
 -1      2224 1.02173E-03 3.81294E-04 9.95704E-17
 -1      2225 8.76112E-04 3.48103E-04 8.49337E-17
 -1      2226 5.45543E-04-5.01880E-05-6.96464E-17
 -1      2227 5.47096E-04-6.58284E-05-7.54334E-17
 -1      2228 5.49110E-04-8.22170E-05-8.09086E-17
 -1      2229 5.51613E-04-9.94195E-05-8.67768E-17
 -1      2230 6.63199E-04-8.74417E-05-1.04232E-16
 -1      2231 5.43207E-04 8.64370E-06-4.55229E-17
 -1      2232 5.43225E-04-5.76360E-06-5.16893E-17
 -1      2233 5.44327E-04 3.77896E-05-3.27294E-17
 -1      2234 5.43573E-04 2.31368E-05-3.93159E-17
 -1      2235 6.56958E-04 1.88903E-05-5.74627E-17
 -1      2236 5.47046E-04 6.78149E-05-1.92852E-17
 -1      2237 5.45480E-04 5.25764E-05-2.62648E-17
 -1      2238 6.58916E-04 5.33641E-05-4.07389E-17
 -1      2239 5.51743E-04 1.01133E-04-4.96022E-18
 -1      2240 5.49135E-04 8.40586E-05-1.21973E-17
 -1      2241 6.63085E-04 8.97658E-05-2.29715E-17
 -1      2242 5.59062E-04 1.39003E-04 1.09504E-17
 -1      2243 5.55033E-04 1.19414E-04 2.77827E-18
 -1      2244 6.69960E-04 1.30059E-04-3.79471E-18
 -1      2245 5.70590E-04 1.83911E-04 2.83383E-17
 -1      2246 5.64214E-04 1.60440E-04 1.94614E-17
 -1      2247 6.80488E-04 1.75953E-04 1.71982E-17
 -1      2248 1.31025E-03 4.31248E-04 1.25605E-16
 -1      2249 1.16625E-03 4.08900E-04 1.13448E-16
 -1      2250 1.07731E-03 3.61086E-04 8.78068E-17
 -1      2251 9.19170E-04-3.31401E-04-2.27411E-16
 -1      2252 1.06423E-03-3.62034E-04-2.86392E-16
 -1      2253 6.17342E-03 1.60187E-03-7.31674E-16
 -1      2254 6.32809E-03 1.69844E-03-7.46988E-16
 -1      2255 1.20862E-03-3.87657E-04-3.51363E-16
 -1      2256 1.35275E-03-4.08724E-04-4.22053E-16
 -1      2257 1.12185E-03-3.41435E-04-3.07886E-16
 -1      2258 1.49645E-03-4.26110E-04-4.97771E-16
 -1      2259 1.64000E-03-4.40111E-04-5.78679E-16
 -1      2260 1.41028E-03-3.82567E-04-4.44238E-16
 -1      2261 1.78345E-03-4.51447E-04-6.64182E-16
 -1      2262 1.92696E-03-4.60378E-04-7.54334E-16
 -1      2263 1.69823E-03-4.10050E-04-6.00431E-16
 -1      2264 2.07065E-03-4.67475E-04-8.48578E-16
 -1      2265 2.21459E-03-4.72983E-04-9.47254E-16
 -1      2266 1.98617E-03-4.27524E-04-7.74744E-16
 -1      2267 2.35891E-03-4.77376E-04-1.05009E-15
 -1      2268 2.50364E-03-4.80899E-04-1.15679E-15
 -1      2269 2.27479E-03-4.38140E-04-9.65699E-16
 -1      2270 2.64890E-03-4.83970E-04-1.26663E-15
 -1      2271 2.79470E-03-4.86834E-04-1.38043E-15
 -1      2272 2.56474E-03-4.44699E-04-1.17198E-15
 -1      2273 2.94114E-03-4.89875E-04-1.49815E-15
 -1      2274 3.08818E-03-4.93345E-04-1.61758E-15
 -1      2275 2.85663E-03-4.49806E-04-1.39235E-15
 -1      2276 3.23596E-03-4.97588E-04-1.73967E-15
 -1      2277 3.38434E-03-5.02852E-04-1.86335E-15
 -1      2278 3.15101E-03-4.55961E-04-1.62461E-15
 -1      2279 3.53349E-03-5.09420E-04-1.98947E-15
 -1      2280 3.68318E-03-5.17501E-04-2.11720E-15
 -1      2281 3.44836E-03-4.65565E-04-1.86509E-15
 -1      2282 3.83357E-03-5.27267E-04-2.24594E-15
 -1      2283 3.98432E-03-5.38824E-04-2.37610E-15
 -1      2284 3.74894E-03-4.80762E-04-2.11319E-15
 -1      2285 4.13558E-03-5.52149E-04-2.50764E-15
 -1      2286 4.28687E-03-5.67149E-04-2.64144E-15
 -1      2287 4.05261E-03-5.03080E-04-2.36737E-15
 -1      2288 4.43831E-03-5.83510E-04-2.77676E-15
 -1      2289 4.58932E-03-6.00809E-04-2.91310E-15
 -1      2290 4.35859E-03-5.32787E-04-2.62729E-15
 -1      2291 4.73992E-03-6.18362E-04-3.05240E-15
 -1      2292 4.88959E-03-6.35320E-04-3.19457E-15
 -1      2293 4.66523E-03-5.67975E-04-2.89584E-15
 -1      2294 5.03821E-03-6.50621E-04-3.33933E-15
 -1      2295 5.18553E-03-6.63005E-04-3.48669E-15
 -1      2296 4.97005E-03-6.03582E-04-3.17290E-15
 -1      2297 5.33133E-03-6.71182E-04-3.63750E-15
 -1      2298 5.47584E-03-6.73734E-04-3.79262E-15
 -1      2299 5.27042E-03-6.30929E-04-3.46252E-15
 -1      2300 5.61884E-03-6.69459E-04-3.95212E-15
 -1      2301 5.76109E-03-6.57227E-04-4.11638E-15
 -1      2302 5.56481E-03-6.38700E-04-3.76629E-15
 -1      2303 5.90240E-03-6.36325E-04-4.28517E-15
 -1      2304 6.04390E-03-6.06373E-04-4.45905E-15
 -1      2305 5.85408E-03-6.15885E-04-4.08854E-15
 -1      2306 6.18541E-03-5.67443E-04-4.63694E-15
 -1      2307 6.32805E-03-5.20057E-04-4.82019E-15
 -1      2308 6.14160E-03-5.55826E-04-4.42937E-15
 -1      2309 6.47162E-03-4.65024E-04-5.00968E-15
 -1      2310 6.61679E-03-4.03579E-04-5.20402E-15
 -1      2311 6.43169E-03-4.59158E-04-4.79154E-15
 -1      2312 6.76334E-03-3.36961E-04-5.40332E-15
 -1      2313 6.91140E-03-2.66586E-04-5.60749E-15
 -1      2314 6.72738E-03-3.33544E-04-5.17330E-15
 -1      2315 7.06078E-03-1.93727E-04-5.81744E-15
 -1      2316 7.21117E-03-1.19589E-04-6.03170E-15
 -1      2317 7.02906E-03-1.90337E-04-5.57579E-15
 -1      2318 7.36247E-03-4.51789E-05-6.25198E-15
 -1      2319 7.51416E-03 2.87130E-05-6.47681E-15
 -1      2320 7.33494E-03-4.05569E-05-5.99993E-15
 -1      2321 7.66627E-03 1.01448E-04-6.70582E-15
 -1      2322 7.81826E-03 1.72653E-04-6.94053E-15
 -1      2323 7.64238E-03 1.07648E-04-6.44325E-15
 -1      2324 7.97025E-03 2.42035E-04-7.17902E-15
 -1      2325 8.12178E-03 3.09512E-04-7.42327E-15
 -1      2326 7.94906E-03 2.49666E-04-6.90538E-15
 -1      2327 8.27302E-03 3.75050E-04-7.67180E-15
 -1      2328 8.42365E-03 4.38737E-04-7.92578E-15
 -1      2329 8.25349E-03 3.83798E-04-7.38599E-15
 -1      2330 8.57384E-03 5.00694E-04-8.18457E-15
 -1      2331 8.72338E-03 5.61083E-04-8.44455E-15
 -1      2332 8.55505E-03 5.10233E-04-7.88707E-15
 -1      2333 8.87242E-03 6.20097E-04-8.70856E-15
 -1      2334 9.02085E-03 6.77910E-04-8.97545E-15
 -1      2335 8.85367E-03 6.30149E-04-8.40353E-15
 -1      2336 9.16878E-03 7.34729E-04-9.24459E-15
 -1      2337 9.31617E-03 7.90711E-04-9.51760E-15
 -1      2338 9.14964E-03 7.45075E-04-8.92969E-15
 -1      2339 9.46309E-03 8.46042E-04-9.79208E-15
 -1      2340 9.60956E-03 9.00849E-04-1.00684E-14
 -1      2341 9.44333E-03 8.56516E-04-9.46841E-15
 -1      2342 9.75561E-03 9.55283E-04-1.03479E-14
 -1      2343 9.90129E-03 1.00944E-03-1.06299E-14
 -1      2344 9.73517E-03 9.65764E-04-1.00173E-14
 -1      2345 1.00466E-02 1.06343E-03-1.09168E-14
 -1      2346 1.01916E-02 1.11732E-03-1.12048E-14
 -1      2347 1.00255E-02 1.07383E-03-1.05769E-14
 -1      2348 1.03364E-02 1.17119E-03-1.14977E-14
 -1      2349 1.04808E-02 1.22509E-03-1.17947E-14
 -1      2350 1.03147E-02 1.18147E-03-1.11511E-14
 -1      2351 1.06251E-02 1.27905E-03-1.20936E-14
 -1      2352 1.07691E-02 1.33311E-03-1.23965E-14
 -1      2353 1.06030E-02 1.28916E-03-1.17407E-14
 -1      2354 1.09130E-02 1.38729E-03-1.27014E-14
 -1      2355 1.10567E-02 1.44161E-03-1.30102E-14
 -1      2356 1.08906E-02 1.39724E-03-1.23430E-14
 -1      2357 1.12003E-02 1.49607E-03-1.33208E-14
 -1      2358 1.13438E-02 1.55068E-03-1.36349E-14
 -1      2359 1.11777E-02 1.50585E-03-1.29581E-14
 -1      2360 1.14871E-02 1.60544E-03-1.39541E-14
 -1      2361 1.16304E-02 1.66035E-03-1.42782E-14
 -1      2362 1.14643E-02 1.61507E-03-1.35867E-14
 -1      2363 1.17736E-02 1.71540E-03-1.46059E-14
 -1      2364 1.19167E-02 1.77059E-03-1.49390E-14
 -1      2365 1.17507E-02 1.72489E-03-1.42324E-14
 -1      2366 1.20598E-02 1.82590E-03-1.52819E-14
 -1      2367 1.22028E-02 1.88134E-03-1.56299E-14
 -1      2368 1.20368E-02 1.83527E-03-1.49009E-14
 -1      2369 1.23458E-02 1.93688E-03-1.59839E-14
 -1      2370 1.24887E-02 1.99253E-03-1.63454E-14
 -1      2371 1.23228E-02 1.94615E-03-1.55942E-14
 -1      2372 1.26316E-02 2.04826E-03-1.67113E-14
 -1      2373 1.27746E-02 2.10407E-03-1.70860E-14
 -1      2374 1.26087E-02 2.05745E-03-1.63136E-14
 -1      2375 1.29174E-02 2.15996E-03-1.74652E-14
 -1      2376 1.30603E-02 2.21591E-03-1.78486E-14
 -1      2377 1.28945E-02 2.16908E-03-1.70567E-14
 -1      2378 1.32032E-02 2.27191E-03-1.82380E-14
 -1      2379 1.33461E-02 2.32795E-03-1.86326E-14
 -1      2380 1.31803E-02 2.28099E-03-1.78222E-14
 -1      2381 1.34889E-02 2.38403E-03-1.90329E-14
 -1      2382 1.36318E-02 2.44014E-03-1.94357E-14
 -1      2383 1.34660E-02 2.39309E-03-1.86067E-14
 -1      2384 1.88369E-03 4.82994E-04 1.57399E-16
 -1      2385 1.74023E-03 4.74792E-04 1.52534E-16
 -1      2386 2.17185E-03 4.92497E-04 1.60123E-16
 -1      2387 2.02749E-03 4.88814E-04 1.59879E-16
 -1      2388 1.94131E-03 4.49989E-04 1.20116E-16
 -1      2389 2.46267E-03 4.94914E-04 1.53442E-16
 -1      2390 2.31682E-03 4.94444E-04 1.58226E-16
 -1      2391 2.22976E-03 4.57297E-04 1.13801E-16
 -1      2392 2.75723E-03 4.92791E-04 1.36813E-16
 -1      2393 2.60936E-03 4.94265E-04 1.46001E-16
 -1      2394 2.51984E-03 4.58201E-04 9.79441E-17
 -1      2395 3.05655E-03 4.88946E-04 1.09586E-16
 -1      2396 2.90615E-03 4.90896E-04 1.24724E-16
 -1      2397 2.81219E-03 4.55240E-04 7.19233E-17
 -1      2398 3.36168E-03 4.87053E-04 7.40510E-17
 -1      2399 3.20821E-03 4.87495E-04 9.28755E-17
 -1      2400 3.10733E-03 4.51305E-04 3.59955E-17
 -1      2401 3.67392E-03 4.92471E-04 2.84196E-17
 -1      2402 3.51670E-03 4.88453E-04 5.26787E-17
 -1      2403 3.40584E-03 4.50208E-04-9.14796E-18
 -1      2404 3.99513E-03 5.13378E-04-2.50857E-17
 -1      2405 3.83317E-03 5.00357E-04 2.90024E-18
 -1      2406 3.70870E-03 4.57445E-04-6.36156E-17
 -1      2407 4.32851E-03 5.62128E-04-8.78475E-17
 -1      2408 4.16006E-03 5.33254E-04-5.51859E-17
 -1      2409 4.01799E-03 4.81230E-04-1.26675E-16
 -1      2410 4.67958E-03 6.56325E-04-1.61831E-16
 -1      2411 4.50171E-03 6.02014E-04-1.23694E-16
 -1      2412 4.33837E-03 5.33814E-04-1.99696E-16
 -1      2413 5.05642E-03 8.18046E-04-2.45206E-16
 -1      2414 4.86508E-03 7.26722E-04-2.02136E-16
 -1      2415 4.67876E-03 6.32926E-04-2.83234E-16
 -1      2416 5.46588E-03 1.06515E-03-3.34395E-16
 -1      2417 5.25905E-03 9.29739E-04-2.89238E-16
 -1      2418 5.05367E-03 8.02147E-04-3.75026E-16
 -1      2419 7.09142E-03 1.77101E-03-7.23556E-16
 -1      2420 6.90950E-03 1.82761E-03-6.62542E-16
 -1      2421 7.50135E-03 1.56542E-03-8.84831E-16
 -1      2422 7.28857E-03 1.67520E-03-8.03312E-16
 -1      2423 7.93112E-03 1.35942E-03-1.07774E-15
 -1      2424 7.72005E-03 1.45296E-03-9.82951E-16
 -1      2425 8.33601E-03 1.23784E-03-1.28969E-15
 -1      2426 8.13832E-03 1.28844E-03-1.17965E-15
 -1      2427 8.08001E-03 1.26111E-03-1.27438E-15
 -1      2428 8.71186E-03 1.19924E-03-1.53321E-15
 -1      2429 8.52803E-03 1.20931E-03-1.40762E-15
 -1      2430 8.47233E-03 1.16983E-03-1.50232E-15
 -1      2431 9.06386E-03 1.22549E-03-1.80605E-15
 -1      2432 8.89051E-03 1.20592E-03-1.66603E-15
 -1      2433 8.82845E-03 1.15826E-03-1.75969E-15
 -1      2434 9.39957E-03 1.29440E-03-2.10583E-15
 -1      2435 9.23342E-03 1.25574E-03-1.95169E-15
 -1      2436 9.16081E-03 1.20256E-03-2.04421E-15
 -1      2437 9.72389E-03 1.38956E-03-2.42550E-15
 -1      2438 9.56287E-03 1.33948E-03-2.26284E-15
 -1      2439 9.47951E-03 1.28223E-03-2.35322E-15
 -1      2440 1.00553E-02 1.50549E-03-2.78228E-15
 -1      2441 9.89054E-03 1.44603E-03-2.60293E-15
 -1      2442 9.79787E-03 1.38603E-03-2.69065E-15
 -1      2443 1.03643E-02 1.62381E-03-3.14186E-15
 -1      2444 1.02105E-02 1.56400E-03-2.95818E-15
 -1      2445 1.01107E-02 1.50240E-03-3.04785E-15
 -1      2446 1.06679E-02 1.74563E-03-3.52431E-15
 -1      2447 1.05166E-02 1.68447E-03-3.33067E-15
 -1      2448 1.04120E-02 1.62210E-03-3.41433E-15
 -1      2449 1.09673E-02 1.86858E-03-3.92760E-15
 -1      2450 1.08181E-02 1.80707E-03-3.72348E-15
 -1      2451 1.07100E-02 1.74446E-03-3.80817E-15
 -1      2452 1.12634E-02 1.99135E-03-4.35128E-15
 -1      2453 1.11157E-02 1.93005E-03-4.13523E-15
 -1      2454 1.10054E-02 1.86750E-03-4.21841E-15
 -1      2455 1.15567E-02 2.11330E-03-4.79941E-15
 -1      2456 1.14103E-02 2.05246E-03-4.57337E-15
 -1      2457 1.12986E-02 1.99014E-03-4.65314E-15
 -1      2458 1.18480E-02 2.23414E-03-5.27111E-15
 -1      2459 1.17026E-02 2.17387E-03-5.03257E-15
 -1      2460 1.15899E-02 2.11186E-03-5.11256E-15
 -1      2461 1.21377E-02 2.35380E-03-5.76267E-15
 -1      2462 1.19930E-02 2.29412E-03-5.51427E-15
 -1      2463 1.18799E-02 2.23243E-03-5.59340E-15
 -1      2464 1.24262E-02 2.47232E-03-6.27947E-15
 -1      2465 1.22821E-02 2.41320E-03-6.01823E-15
 -1      2466 1.21686E-02 2.35183E-03-6.09553E-15
 -1      2467 1.27139E-02 2.58980E-03-6.82114E-15
 -1      2468 1.25702E-02 2.53119E-03-6.54845E-15
 -1      2469 1.24565E-02 2.47009E-03-6.62332E-15
 -1      2470 1.30009E-02 2.70637E-03-7.38675E-15
 -1      2471 1.28574E-02 2.64819E-03-7.10166E-15
 -1      2472 1.27438E-02 2.58735E-03-7.17612E-15
 -1      2473 1.32874E-02 2.82215E-03-7.96971E-15
 -1      2474 1.31442E-02 2.76435E-03-7.67522E-15
 -1      2475 1.30305E-02 2.70371E-03-7.74757E-15
 -1      2476 1.35736E-02 2.93728E-03-8.57407E-15
 -1      2477 1.34305E-02 2.87979E-03-8.26945E-15
 -1      2478 1.33169E-02 2.81933E-03-8.33983E-15
 -1      2479 1.38596E-02 3.05188E-03-9.19954E-15
 -1      2480 1.37166E-02 2.99464E-03-8.88523E-15
 -1      2481 1.36030E-02 2.93431E-03-8.95307E-15
 -1      2482 1.41454E-02 3.16605E-03-9.84241E-15
 -1      2483 1.40025E-02 3.10901E-03-9.51774E-15
 -1      2484 1.38890E-02 3.04879E-03-9.58459E-15
 -1      2485 1.44312E-02 3.27989E-03-1.05071E-14
 -1      2486 1.42883E-02 3.22301E-03-1.01716E-14
 -1      2487 1.41748E-02 3.16287E-03-1.02375E-14
 -1      2488 1.47169E-02 3.39349E-03-1.11852E-14
 -1      2489 1.45740E-02 3.33672E-03-1.08444E-14
 -1      2490 1.44606E-02 3.27664E-03-1.09058E-14
 -1      2491 1.50026E-02 3.50692E-03-1.18814E-14
 -1      2492 1.48597E-02 3.45022E-03-1.15304E-14
 -1      2493 1.47463E-02 3.39019E-03-1.15952E-14
 -1      2494 1.52883E-02 3.62026E-03-1.25969E-14
 -1      2495 1.51454E-02 3.56360E-03-1.22374E-14
 -1      2496 1.50321E-02 3.50358E-03-1.22974E-14
 -1      2497 1.54355E-02 3.67653E-03-1.30186E-14
 -1      2498 1.49255E-02 3.31601E-03-1.52726E-14
 -1      2499 1.49811E-02 3.35815E-03-1.49727E-14
 -1      2500 1.48143E-02 3.23174E-03-1.58608E-14
 -1      2501 1.48698E-02 3.27387E-03-1.55673E-14
 -1      2502 1.47739E-02 3.24598E-03-1.50998E-14
 -1      2503 1.51463E-02 3.48317E-03-1.40675E-14
 -1      2504 1.52020E-02 3.52532E-03-1.37571E-14
 -1      2505 1.50363E-02 3.39994E-03-1.46732E-14
 -1      2506 1.50910E-02 3.44137E-03-1.43733E-14
 -1      2507 1.49952E-02 3.41342E-03-1.39054E-14
 -1      2508 1.48847E-02 3.32987E-03-1.45079E-14
 -1      2509 8.39349E-03 9.58213E-04-1.89959E-15
 -1      2510 8.51911E-03 9.09854E-04-2.02331E-15
 -1      2511 1.47032E-02 3.14748E-03-1.64378E-14
 -1      2512 1.47587E-02 3.18961E-03-1.61509E-14
 -1      2513 1.46628E-02 3.16176E-03-1.56807E-14
 -1      2514 1.45923E-02 3.06322E-03-1.70122E-14
 -1      2515 1.46477E-02 3.10535E-03-1.67268E-14
 -1      2516 1.45518E-02 3.07755E-03-1.62559E-14
 -1      2517 1.44815E-02 2.97896E-03-1.75758E-14
 -1      2518 1.45369E-02 3.02109E-03-1.72944E-14
 -1      2519 1.44409E-02 2.99334E-03-1.68211E-14
 -1      2520 1.43727E-02 2.89613E-03-1.81215E-14
 -1      2521 1.44271E-02 2.93755E-03-1.78476E-14
 -1      2522 1.43310E-02 2.90985E-03-1.73734E-14
 -1      2523 1.42621E-02 2.81186E-03-1.86665E-14
 -1      2524 1.43174E-02 2.85400E-03-1.83960E-14
 -1      2525 1.42213E-02 2.82635E-03-1.79175E-14
 -1      2526 1.41516E-02 2.72758E-03-1.92049E-14
 -1      2527 1.42068E-02 2.76972E-03-1.89374E-14
 -1      2528 1.41107E-02 2.74211E-03-1.84574E-14
 -1      2529 1.40412E-02 2.64328E-03-1.97371E-14
 -1      2530 1.40964E-02 2.68543E-03-1.94688E-14
 -1      2531 1.40003E-02 2.65785E-03-1.89878E-14
 -1      2532 1.40218E-02 2.59959E-03-2.04253E-14
 -1      2533 8.03500E-03 1.13427E-03-1.59940E-15
 -1      2534 8.23035E-03 1.03275E-03-1.75426E-15
 -1      2535 1.59698E-03 4.63682E-04 1.45513E-16
 -1      2536 1.45370E-03 4.49415E-04 1.36352E-16
 -1      2537 1.65371E-03 4.33671E-04 1.17175E-16
 -1      2538 8.82149E-03 8.06871E-04-2.52473E-15
 -1      2539 8.83070E-03 8.00824E-04-2.64168E-15
 -1      2540 8.80037E-03 7.91216E-04-2.79145E-15
 -1      2541 8.72059E-03 7.80118E-04-2.92932E-15
 -1      2542 7.62978E-03 1.37793E-03-1.30898E-15
 -1      2543 7.80659E-03 1.26678E-03-1.42444E-15
 -1      2544 8.26939E-03 6.47199E-04-3.18415E-15
 -1      2545 8.05613E-03 5.60395E-04-3.22854E-15
 -1      2546 4.72386E-03 1.90368E-04-1.89913E-15
 -1      2547 4.52514E-03 2.66702E-04-1.77373E-15
 -1      2548 4.88110E-03 7.23267E-04-8.20511E-16
 -1      2549 5.10416E-03 8.51902E-04-7.92186E-16
 -1      2550 5.74046E-03 1.28728E-03-7.25711E-16
 -1      2551 5.96165E-03 1.45492E-03-7.21591E-16
 -1      2552 5.43618E-04-2.02995E-05-5.76253E-17
 -1      2553 5.44385E-04-3.50338E-05-6.37375E-17
 -1      2554 6.59072E-04-5.03360E-05-8.91079E-17
 -1      2555 6.57023E-04-1.53356E-05-7.35496E-17
 -1      2556 6.51211E-03 1.77685E-03-7.60920E-16
 -1      2557 6.68217E-03 1.80972E-03-7.98271E-16
 -1      2558 4.39328E-03 5.07687E-04-9.53359E-16
 -1      2559 4.60067E-03 5.85344E-04-8.80304E-16
 -1      2560 7.22717E-03 1.63000E-03-1.06816E-15
 -1      2561 7.41732E-03 1.51082E-03-1.17828E-15
 -1      2562 6.89581E-03 1.78992E-03-8.56981E-16
 -1      2563 7.04097E-03 1.73107E-03-9.41602E-16
 -1      2564 5.31146E-03 9.84236E-04-7.65894E-16
 -1      2565 5.49594E-03 1.11052E-03-7.43207E-16
 -1      2566 4.12484E-03 3.90727E-04-1.45082E-15
 -1      2567 4.06874E-03 4.00323E-04-1.36015E-15
 -1      2568 4.15055E-03 4.40919E-04-1.10253E-15
 -1      2569 4.23301E-03 4.59247E-04-1.04204E-15
 -1      2570 7.82667E-03 4.53175E-04-3.26442E-15
 -1      2571 7.63748E-03 3.52769E-04-3.27219E-15
 -1      2572 4.05197E-03 4.13506E-04-1.25400E-15
 -1      2573 4.08324E-03 4.21686E-04-1.17301E-15
 -1      2574 4.32345E-03 3.33692E-04-1.62986E-15
 -1      2575 4.21039E-03 3.66649E-04-1.54024E-15
 -1      2576 4.14615E-03 3.65696E-04-1.46476E-15
 -1      2577 5.06195E-03 3.26483E-05-2.10589E-15
 -1      2578 4.91552E-03 1.04415E-04-2.01746E-15
 -1      2579 5.42815E-03-1.57087E-04-2.33702E-15
 -1      2580 5.24766E-03-6.07593E-05-2.22058E-15
 -1      2581 5.15389E-03-2.75031E-05-2.18476E-15
 -1      2582 5.73666E-03-3.05300E-04-2.54985E-15
 -1      2583 5.61025E-03-2.46910E-04-2.46282E-15
 -1      2584 6.04395E-03-3.94315E-04-2.77876E-15
 -1      2585 5.89699E-03-3.60365E-04-2.66231E-15
 -1      2586 5.81541E-03-3.45963E-04-2.66505E-15
 -1      2587 6.31031E-03-3.79991E-04-2.96537E-15
 -1      2588 6.19326E-03-3.98490E-04-2.88623E-15
 -1      2589 6.65454E-03-2.33357E-04-3.18593E-15
 -1      2590 6.47112E-03-3.27642E-04-3.07257E-15
 -1      2591 7.02057E-03-6.46032E-06-3.30713E-15
 -1      2592 6.88105E-03-9.69157E-05-3.28525E-15
 -1      2593 7.41783E-03 2.31707E-04-3.28761E-15
 -1      2594 7.20802E-03 1.06755E-04-3.30341E-15
 -1      2595 7.51366E-03 3.02014E-04-3.40316E-15
 -1      2596 8.58783E-03 7.47456E-04-3.04435E-15
 -1      2597 8.46575E-03 7.15644E-04-3.11618E-15
 -1      2598 5.90772E-04-2.28623E-04-1.17568E-16
 -1      2599 7.84518E-04-2.92191E-04-1.78202E-16
 -1      2600 8.44018E-04-2.79630E-04-1.97393E-16
 -1      2601 5.81031E-04-2.00732E-04-1.13394E-16
 -1      2602 7.61041E-04 3.21367E-04 7.46473E-17
 -1      2603 6.13796E-04 2.74888E-04 5.90755E-17
 -1      2604 5.87156E-04 2.48319E-04 5.09711E-17
 -1      2605 8.17448E-04 3.08429E-04 6.89824E-17
 -1      2606 8.67502E-03 8.53977E-04-2.21930E-15
 -1      2607 8.77280E-03 8.25438E-04-2.37982E-15
 -1      2608 6.80284E-03 1.82012E-03-7.39643E-16
 -1      2609 6.69799E-04-1.28036E-04-1.18720E-16
 -1      2610 5.54764E-04-1.17713E-04-9.22114E-17
 -1      2611 5.58541E-04-1.37273E-04-9.77002E-17
 -1      2612 1.36603E-03 4.05307E-04 1.06225E-16
 -1      2613 5.74660E-04 2.18002E-04 4.07253E-17
 -1      2614 8.62764E-03 8.82887E-04-2.15401E-15
 -1      2615 7.94367E-03 5.24731E-04-3.35434E-15
 -1      2616 4.09588E-03 4.13110E-04-1.10016E-15
 -1      2617 6.43897E-03 1.75156E-03-6.74076E-16
 -1      2618 4.79648E-03 1.43905E-04-1.95323E-15
 -1      2619 5.20773E-03 8.99659E-04-7.10573E-16
 -1      2620 8.31805E-03 1.00414E-03-1.80860E-15
 -1      2621 6.72476E-03 1.84243E-03-6.10352E-16
 -1      2622 7.20814E-03 1.68575E-03-8.79695E-16
 -1      2623 5.89913E-03 1.38622E-03-4.27365E-16
 -1      2624 5.68359E-03 1.22037E-03-3.79403E-16
 -1      2625 6.52691E-03 1.80166E-03-5.52618E-16
 -1      2626 5.47530E-03 1.06712E-03-4.70449E-16
 -1      2627 7.64585E-03 1.45034E-03-1.06599E-15
 -1      2628 1.53221E-02 3.61652E-03-1.30730E-14
 -1      2629 1.52331E-02 3.55158E-03-1.35202E-14
 -1      2630 1.52910E-02 3.59026E-03-1.33108E-14
 -1      2631 1.51438E-02 3.53399E-03-1.28928E-14
 -1      2632 1.50815E-02 3.48146E-03-1.33644E-14
 -1      2633 1.38531E-02 2.52587E-03-2.00897E-14
 -1      2634 1.39686E-02 2.59712E-03-1.98933E-14
 -1      2635 1.38725E-02 2.56956E-03-1.94057E-14
 -1      2636 1.37273E-02 2.47725E-03-1.97146E-14
 -1      2637 7.94421E-03 1.19970E-03-1.48458E-15
 -1      2638 6.92365E-04 2.38989E-04 4.39780E-17
 -1      2639 8.81478E-03 8.26206E-04-2.50096E-15
 -1      2640 5.63917E-03 1.20119E-03-6.65334E-16
 -1      2641 8.68043E-03 7.82831E-04-3.06700E-15
 -1      2642 4.73016E-03 6.30725E-04-7.96922E-16
 -1      2643 4.85219E-03 6.83973E-04-7.15018E-16
 -1      2644 4.59231E-03 5.61597E-04-7.74419E-16
 -1      2645 5.73502E-04-1.75790E-04-1.08176E-16
 -1      2646 7.12983E-03 7.13541E-05-3.41838E-15
 -1      2647 6.73953E-03-1.76615E-04-3.31698E-15
 -1      2648 6.62045E-03-2.43140E-04-3.34588E-15
 -1      2649 6.82413E-03-1.19352E-04-3.45018E-15
 -1      2650 6.09870E-03-4.02905E-04-2.88707E-15
 -1      2651 5.50096E-03-2.06721E-04-2.42444E-15
 -1      2652 4.41074E-03 2.94671E-04-1.69169E-15
 -1      2653 4.30771E-03 3.05365E-04-1.61339E-15
 -1      2654 4.49388E-03 2.47722E-04-1.75416E-15
 -1      2655 4.04048E-03 3.93443E-04-1.27309E-15
 -1      2656 8.35965E-03 6.92951E-04-3.25160E-15
 -1      2657 7.53150E-03 1.45779E-03-1.17666E-15
 -1      2658 8.83227E-03 8.09537E-04-2.79898E-15
 -1      2659 1.37044E-02 2.48629E-03-1.92819E-14
 -1      2660 6.06963E-03 1.52447E-03-6.54587E-16
 -1      2661 4.31045E-03 4.68995E-04-9.44015E-16
 -1      2662 6.38412E-03-3.55932E-04-3.10534E-15
 -1      2663 6.37230E-03 1.72495E-03-5.43917E-16
 -1      2664 7.75461E-04 7.12897E-05-4.84503E-17
 -1      2665 7.73599E-04 5.13464E-05-5.93059E-17
 -1      2666 7.72364E-04 3.14502E-05-6.97820E-17
 -1      2667 7.71796E-04 1.18140E-05-8.01768E-17
 -1      2668 8.89290E-04 4.62337E-05-8.22503E-17
 -1      2669 7.90954E-04 1.60778E-04-1.26039E-18
 -1      2670 7.85748E-04 1.36641E-04-1.38778E-17
 -1      2671 8.05168E-04 2.14171E-04 2.52348E-17
 -1      2672 7.97414E-04 1.86549E-04 1.15196E-17
 -1      2673 9.14488E-04 1.92834E-04 2.60209E-18
 -1      2674 1.13507E-03 3.40193E-04 7.31565E-17
 -1      2675 9.90601E-04 3.14434E-04 6.55129E-17
 -1      2676 8.82478E-03 8.47334E-04-2.50720E-15
 -1      2677 8.86288E-03 8.37472E-04-2.65592E-15
 -1      2678 1.42337E-03 3.78819E-04 8.31041E-17
 -1      2679 1.27922E-03 3.61536E-04 7.89841E-17
 -1      2680 1.19394E-03 3.18487E-04 5.52265E-17
 -1      2681 8.06350E-04 2.63687E-04 4.91279E-17
 -1      2682 1.32519E-03-3.39644E-04-3.93836E-16
 -1      2683 1.46929E-03-3.55753E-04-4.64554E-16
 -1      2684 1.61334E-03-3.68928E-04-5.40068E-16
 -1      2685 1.75746E-03-3.79422E-04-6.20096E-16
 -1      2686 1.52920E-03-3.28317E-04-4.82917E-16
 -1      2687 1.90162E-03-3.87758E-04-7.04501E-16
 -1      2688 2.04591E-03-3.94174E-04-7.92769E-16
 -1      2689 1.81733E-03-3.48328E-04-6.37362E-16
 -1      2690 2.19038E-03-3.99125E-04-8.84994E-16
 -1      2691 2.33510E-03-4.02846E-04-9.81542E-16
 -1      2692 2.10596E-03-3.60433E-04-8.07947E-16
 -1      2693 2.48016E-03-4.05738E-04-1.08110E-15
 -1      2694 2.62562E-03-4.08045E-04-1.18345E-15
 -1      2695 2.39541E-03-3.67179E-04-9.93278E-16
 -1      2696 2.77161E-03-4.10129E-04-1.29039E-15
 -1      2697 2.91815E-03-4.12255E-04-1.40037E-15
 -1      2698 2.68626E-03-3.70973E-04-1.19250E-15
 -1      2699 3.06541E-03-4.14752E-04-1.51265E-15
 -1      2700 3.21340E-03-4.17912E-04-1.62712E-15
 -1      2701 2.97929E-03-3.74166E-04-1.40407E-15
 -1      2702 3.36232E-03-4.22026E-04-1.74395E-15
 -1      2703 3.51210E-03-4.27404E-04-1.86300E-15
 -1      2704 3.27541E-03-3.79132E-04-1.62651E-15
 -1      2705 3.66298E-03-4.34273E-04-1.98382E-15
 -1      2706 3.81479E-03-4.42922E-04-2.10601E-15
 -1      2707 3.57564E-03-3.88274E-04-1.85743E-15
 -1      2708 3.96778E-03-4.53467E-04-2.22985E-15
 -1      2709 4.12159E-03-4.66083E-04-2.35546E-15
 -1      2710 3.88085E-03-4.03905E-04-2.09565E-15
 -1      2711 4.27644E-03-4.80692E-04-2.48187E-15
 -1      2712 4.43177E-03-4.97205E-04-2.61079E-15
 -1      2713 4.19136E-03-4.27847E-04-2.34043E-15
 -1      2714 4.58766E-03-5.15257E-04-2.74145E-15
 -1      2715 4.74340E-03-5.34251E-04-2.87426E-15
 -1      2716 4.50640E-03-4.60625E-04-2.59052E-15
 -1      2717 4.89887E-03-5.53422E-04-3.00992E-15
 -1      2718 5.05339E-03-5.71522E-04-3.14829E-15
 -1      2719 4.82363E-03-5.00106E-04-2.84995E-15
 -1      2720 5.20669E-03-5.87382E-04-3.29013E-15
 -1      2721 5.35843E-03-5.99099E-04-3.43470E-15
 -1      2722 5.13911E-03-5.39811E-04-3.12056E-15
 -1      2723 5.50828E-03-6.05304E-04-3.58318E-15
 -1      2724 5.65668E-03-6.04004E-04-3.73655E-15
 -1      2725 5.44867E-03-5.68031E-04-3.40453E-15
 -1      2726 5.80340E-03-5.94055E-04-3.89501E-15
 -1      2727 5.94961E-03-5.74201E-04-4.05867E-15
 -1      2728 5.75046E-03-5.69576E-04-3.70480E-15
 -1      2729 6.09513E-03-5.44074E-04-4.22637E-15
 -1      2730 6.24158E-03-5.03714E-04-4.39859E-15
 -1      2731 6.04687E-03-5.31415E-04-4.02576E-15
 -1      2732 6.38877E-03-4.53670E-04-4.57672E-15
 -1      2733 6.53777E-03-3.95479E-04-4.75974E-15
 -1      2734 6.34387E-03-4.48662E-04-4.36563E-15
 -1      2735 6.68831E-03-3.30330E-04-4.94696E-15
 -1      2736 6.84068E-03-2.60243E-04-5.13906E-15
 -1      2737 6.64697E-03-3.27871E-04-4.72421E-15
 -1      2738 6.99456E-03-1.86587E-04-5.33825E-15
 -1      2739 7.14953E-03-1.11156E-04-5.54155E-15
 -1      2740 6.95776E-03-1.83090E-04-5.10331E-15
 -1      2741 7.30534E-03-3.50522E-05-5.75028E-15
 -1      2742 7.46128E-03 4.05547E-05-5.96422E-15
 -1      2743 7.27384E-03-2.90879E-05-5.50409E-15
 -1      2744 7.61726E-03 1.14960E-04-6.18292E-15
 -1      2745 7.77262E-03 1.87678E-04-6.40581E-15
 -1      2746 7.59093E-03 1.23248E-04-5.92521E-15
 -1      2747 7.92745E-03 2.58367E-04-6.63453E-15
 -1      2748 8.08123E-03 3.26965E-04-6.86717E-15
 -1      2749 7.90536E-03 2.68177E-04-6.36649E-15
 -1      2750 8.23418E-03 3.93390E-04-7.10503E-15
 -1      2751 8.38600E-03 4.57820E-04-7.34674E-15
 -1      2752 8.21503E-03 4.03959E-04-6.82658E-15
 -1      2753 8.53692E-03 5.20329E-04-7.59356E-15
 -1      2754 8.68680E-03 5.81169E-04-7.84611E-15
 -1      2755 8.51940E-03 5.31132E-04-7.30468E-15
 -1      2756 8.83585E-03 6.40492E-04-8.10104E-15
 -1      2757 8.98404E-03 6.98546E-04-8.35809E-15
 -1      2758 8.81890E-03 6.51252E-04-7.80052E-15
 -1      2759 9.13153E-03 7.55506E-04-8.61813E-15
 -1      2760 9.27834E-03 8.11580E-04-8.88158E-15
 -1      2761 9.11442E-03 7.66109E-04-8.31061E-15
 -1      2762 9.42460E-03 8.66936E-04-9.14735E-15
 -1      2763 9.57036E-03 9.21733E-04-9.41639E-15
 -1      2764 9.40689E-03 8.77353E-04-8.82934E-15
 -1      2765 9.71569E-03 9.76113E-04-9.68911E-15
 -1      2766 9.86065E-03 1.03019E-03-9.96230E-15
 -1      2767 9.69716E-03 9.86350E-04-9.36270E-15
 -1      2768 1.00053E-02 1.08407E-03-1.02406E-14
 -1      2769 1.01497E-02 1.13784E-03-1.05231E-14
 -1      2770 9.98591E-03 1.09415E-03-9.90786E-15
 -1      2771 1.02938E-02 1.19157E-03-1.08075E-14
 -1      2772 1.04378E-02 1.24532E-03-1.10964E-14
 -1      2773 1.02736E-02 1.20150E-03-1.04652E-14
 -1      2774 1.05815E-02 1.29913E-03-1.13891E-14
 -1      2775 1.07252E-02 1.35303E-03-1.16861E-14
 -1      2776 1.05606E-02 1.30892E-03-1.10400E-14
 -1      2777 1.08687E-02 1.40705E-03-1.19858E-14
 -1      2778 1.10121E-02 1.46122E-03-1.22890E-14
 -1      2779 1.08472E-02 1.41672E-03-1.16297E-14
 -1      2780 1.11554E-02 1.51553E-03-1.25960E-14
 -1      2781 1.12986E-02 1.56999E-03-1.29054E-14
 -1      2782 1.11335E-02 1.52508E-03-1.22331E-14
 -1      2783 1.14418E-02 1.62461E-03-1.32191E-14
 -1      2784 1.15849E-02 1.67939E-03-1.35391E-14
 -1      2785 1.14196E-02 1.63406E-03-1.28523E-14
 -1      2786 1.17280E-02 1.73432E-03-1.38603E-14
 -1      2787 1.18711E-02 1.78939E-03-1.41865E-14
 -1      2788 1.17055E-02 1.74367E-03-1.34876E-14
 -1      2789 1.20141E-02 1.84460E-03-1.45207E-14
 -1      2790 1.21570E-02 1.89994E-03-1.48603E-14
 -1      2791 1.19914E-02 1.85387E-03-1.41407E-14
 -1      2792 1.23000E-02 1.95539E-03-1.52075E-14
 -1      2793 1.24429E-02 2.01095E-03-1.55588E-14
 -1      2794 1.22773E-02 1.96459E-03-1.48203E-14
 -1      2795 1.25858E-02 2.06662E-03-1.59158E-14
 -1      2796 1.27288E-02 2.12237E-03-1.62804E-14
 -1      2797 1.25630E-02 2.07576E-03-1.55206E-14
 -1      2798 1.28717E-02 2.17820E-03-1.66507E-14
 -1      2799 1.30145E-02 2.23410E-03-1.70261E-14
 -1      2800 1.28488E-02 2.18730E-03-1.62468E-14
 -1      2801 1.31574E-02 2.29006E-03-1.74100E-14
 -1      2802 1.33003E-02 2.34608E-03-1.77951E-14
 -1      2803 1.31346E-02 2.29913E-03-1.69958E-14
 -1      2804 1.34432E-02 2.40214E-03-1.81837E-14
 -1      2805 1.35860E-02 2.45823E-03-1.85792E-14
 -1      2806 1.34203E-02 2.41118E-03-1.77643E-14
 -1      2807 2.28645E-03 4.22394E-04 6.46591E-17
 -1      2808 2.14249E-03 4.20536E-04 7.34682E-17
 -1      2809 7.88428E-03 1.25954E-03-1.36702E-15
 -1      2810 8.08320E-03 1.14152E-03-1.54575E-15
 -1      2811 1.99869E-03 4.16911E-04 7.95669E-17
 -1      2812 1.85488E-03 4.11321E-04 8.36326E-17
 -1      2813 2.05557E-03 3.84043E-04 3.62801E-17
 -1      2814 2.86364E-03 4.19030E-04 3.82181E-18
 -1      2815 2.71903E-03 4.20894E-04 2.25785E-17
 -1      2816 3.15324E-03 4.15655E-04-4.07931E-17
 -1      2817 3.00827E-03 4.17192E-04-1.71304E-17
 -1      2818 2.91168E-03 3.84460E-04-6.72747E-17
 -1      2819 3.44360E-03 4.15985E-04-9.52878E-17
 -1      2820 3.29820E-03 4.15119E-04-6.69630E-17
 -1      2821 3.19450E-03 3.82257E-04-1.21309E-16
 -1      2822 3.73535E-03 4.25439E-04-1.58985E-16
 -1      2823 3.58909E-03 4.19196E-04-1.25876E-16
 -1      2824 3.47531E-03 3.84539E-04-1.84653E-16
 -1      2825 4.03075E-03 4.51868E-04-2.32439E-16
 -1      2826 3.88220E-03 4.35893E-04-1.94818E-16
 -1      2827 3.75437E-03 3.96359E-04-2.58230E-16
 -1      2828 4.33573E-03 5.06849E-04-3.15625E-16
 -1      2829 4.18130E-03 4.74606E-04-2.72040E-16
 -1      2830 4.03396E-03 4.24723E-04-3.41768E-16
 -1      2831 4.66275E-03 6.07982E-04-4.08243E-16
 -1      2832 4.49529E-03 5.49555E-04-3.60551E-16
 -1      2833 4.32105E-03 4.80084E-04-4.33627E-16
 -1      2834 4.98920E-03 7.56820E-04-5.60139E-16
 -1      2835 4.80296E-03 6.58429E-04-5.08748E-16
 -1      2836 5.98397E-03 1.45200E-03-4.88867E-16
 -1      2837 5.78273E-03 1.29996E-03-5.82298E-16
 -1      2838 6.16380E-03 1.59142E-03-4.92485E-16
 -1      2839 8.15305E-03 1.19873E-03-1.40563E-15
 -1      2840 7.94510E-03 1.27191E-03-1.29896E-15
 -1      2841 9.25354E-03 1.18040E-03-2.31385E-15
 -1      2842 9.10045E-03 1.14559E-03-2.16262E-15
 -1      2843 9.55390E-03 1.26939E-03-2.63231E-15
 -1      2844 9.40430E-03 1.22225E-03-2.47122E-15
 -1      2845 9.33782E-03 1.16520E-03-2.58592E-15
 -1      2846 9.86520E-03 1.38069E-03-2.98756E-15
 -1      2847 9.70975E-03 1.32329E-03-2.80726E-15
 -1      2848 9.62878E-03 1.26359E-03-2.92289E-15
 -1      2849 1.01598E-02 1.49628E-03-3.34316E-15
 -1      2850 1.00126E-02 1.43762E-03-3.16327E-15
 -1      2851 9.92015E-03 1.37547E-03-3.27695E-15
 -1      2852 1.04533E-02 1.61664E-03-3.72411E-15
 -1      2853 1.03066E-02 1.55604E-03-3.53041E-15
 -1      2854 1.02057E-02 1.49206E-03-3.64436E-15
 -1      2855 1.07456E-02 1.73901E-03-4.12334E-15
 -1      2856 1.05995E-02 1.67768E-03-3.92125E-15
 -1      2857 1.04925E-02 1.61246E-03-4.03346E-15
 -1      2858 1.10368E-02 1.86177E-03-4.54442E-15
 -1      2859 1.08913E-02 1.80040E-03-4.33125E-15
 -1      2860 1.07799E-02 1.73445E-03-4.44263E-15
 -1      2861 1.13271E-02 1.98403E-03-4.99321E-15
 -1      2862 1.11820E-02 1.92300E-03-4.76646E-15
 -1      2863 1.10675E-02 1.85667E-03-4.87680E-15
 -1      2864 1.16163E-02 2.10534E-03-5.46137E-15
 -1      2865 1.14718E-02 2.04483E-03-5.22327E-15
 -1      2866 1.13551E-02 1.97836E-03-5.33282E-15
 -1      2867 1.19048E-02 2.22553E-03-5.95098E-15
 -1      2868 1.17607E-02 2.16559E-03-5.70336E-15
 -1      2869 1.16425E-02 2.09913E-03-5.81170E-15
 -1      2870 1.21926E-02 2.34457E-03-6.46401E-15
 -1      2871 1.20488E-02 2.28520E-03-6.20593E-15
 -1      2872 1.19297E-02 2.21883E-03-6.31117E-15
 -1      2873 1.24798E-02 2.46253E-03-7.00552E-15
 -1      2874 1.23363E-02 2.40368E-03-6.73226E-15
 -1      2875 1.22165E-02 2.33745E-03-6.83752E-15
 -1      2876 1.27666E-02 2.57952E-03-7.56619E-15
 -1      2877 1.26233E-02 2.52114E-03-7.28171E-15
 -1      2878 1.25032E-02 2.45505E-03-7.38754E-15
 -1      2879 1.30531E-02 2.69566E-03-8.14527E-15
 -1      2880 1.29099E-02 2.63769E-03-7.85316E-15
 -1      2881 1.27895E-02 2.57173E-03-7.95708E-15
 -1      2882 1.33393E-02 2.81108E-03-8.74931E-15
 -1      2883 1.31962E-02 2.75345E-03-8.44602E-15
 -1      2884 1.30757E-02 2.68763E-03-8.54776E-15
 -1      2885 1.36254E-02 2.92592E-03-9.37015E-15
 -1      2886 1.34824E-02 2.86857E-03-9.05481E-15
 -1      2887 1.33618E-02 2.80285E-03-9.15775E-15
 -1      2888 1.39113E-02 3.04027E-03-1.00105E-14
 -1      2889 1.37683E-02 2.98315E-03-9.68928E-15
 -1      2890 1.36477E-02 2.91752E-03-9.78911E-15
 -1      2891 1.41971E-02 3.15426E-03-1.06735E-14
 -1      2892 1.40542E-02 3.09731E-03-1.03410E-14
 -1      2893 1.39336E-02 3.03175E-03-1.04413E-14
 -1      2894 1.44829E-02 3.26795E-03-1.13494E-14
 -1      2895 1.43400E-02 3.21114E-03-1.10080E-14
 -1      2896 1.42194E-02 3.14563E-03-1.11090E-14
 -1      2897 1.47686E-02 3.38145E-03-1.20433E-14
 -1      2898 1.46258E-02 3.32472E-03-1.16955E-14
 -1      2899 1.45052E-02 3.25926E-03-1.17931E-14
 -1      2900 1.50276E-02 3.48607E-03-1.26423E-14
 -1      2901 1.48848E-02 3.42939E-03-1.22855E-14
 -1      2902 1.47642E-02 3.36395E-03-1.23843E-14
 -1      2903 1.49965E-02 3.45981E-03-1.28770E-14
 -1      2904 1.44003E-02 3.00764E-03-1.60687E-14
 -1      2905 1.44558E-02 3.04972E-03-1.57862E-14
 -1      2906 1.37770E-02 2.53244E-03-1.91296E-14
 -1      2907 1.38496E-02 2.57859E-03-1.89733E-14
 -1      2908 1.36815E-02 2.49533E-03-1.88542E-14
 -1      2909 1.46224E-02 3.17597E-03-1.49255E-14
 -1      2910 1.46780E-02 3.21806E-03-1.46329E-14
 -1      2911 8.05165E-03 5.87355E-04-3.49509E-15
 -1      2912 7.84612E-03 4.91734E-04-3.52999E-15
 -1      2913 1.42894E-02 2.92349E-03-1.66283E-14
 -1      2914 1.43449E-02 2.96557E-03-1.63506E-14
 -1      2915 1.42489E-02 2.93777E-03-1.58824E-14
 -1      2916 1.45113E-02 3.09179E-03-1.55005E-14
 -1      2917 1.45668E-02 3.13388E-03-1.52130E-14
 -1      2918 1.44709E-02 3.10597E-03-1.47476E-14
 -1      2919 1.43599E-02 3.02186E-03-1.53190E-14
 -1      2920 1.41806E-02 2.84077E-03-1.71675E-14
 -1      2921 1.42350E-02 2.88213E-03-1.68991E-14
 -1      2922 1.41390E-02 2.85439E-03-1.64288E-14
 -1      2923 1.40699E-02 2.75659E-03-1.77123E-14
 -1      2924 1.41252E-02 2.79868E-03-1.74428E-14
 -1      2925 1.40292E-02 2.77100E-03-1.69689E-14
 -1      2926 1.39594E-02 2.67238E-03-1.82482E-14
 -1      2927 1.40147E-02 2.71449E-03-1.79803E-14
 -1      2928 1.39186E-02 2.68686E-03-1.75074E-14
 -1      2929 1.39048E-02 2.62072E-03-1.87138E-14
 -1      2930 1.71113E-03 4.03310E-04 8.58010E-17
 -1      2931 1.56727E-03 3.92655E-04 8.55164E-17
 -1      2932 1.48152E-03 3.51943E-04 5.72459E-17
 -1      2933 1.76879E-03 3.72846E-04 5.09711E-17
 -1      2934 7.16000E-03 1.69140E-03-9.20704E-16
 -1      2935 7.62771E-03 3.76670E-04-3.52813E-15
 -1      2936 7.43470E-03 2.65119E-04-3.54044E-15
 -1      2937 5.56402E-03 1.13431E-03-6.01773E-16
 -1      2938 4.05021E-03 3.91590E-04-1.08106E-15
 -1      2939 4.11147E-03 4.03643E-04-1.01330E-15
 -1      2940 4.02932E-03 3.73924E-04-1.28337E-15
 -1      2941 4.01518E-03 3.80011E-04-1.18095E-15
 -1      2942 8.26418E-03 1.05023E-03-1.71799E-15
 -1      2943 8.41135E-03 9.86269E-04-1.86694E-15
 -1      2944 8.94414E-03 1.11903E-03-2.01748E-15
 -1      2945 8.78304E-03 1.10419E-03-1.87746E-15
 -1      2946 9.05060E-03 1.09041E-03-2.27695E-15
 -1      2947 8.61503E-03 1.10150E-03-1.74513E-15
 -1      2948 8.43804E-03 1.11858E-03-1.61977E-15
 -1      2949 8.75035E-03 1.04879E-03-1.99211E-15
 -1      2950 2.57472E-03 4.22257E-04 3.90719E-17
 -1      2951 2.43046E-03 4.22902E-04 5.28006E-17
 -1      2952 2.34179E-03 3.88085E-04 1.16958E-17
 -1      2953 2.62727E-03 3.87385E-04-2.29309E-17
 -1      2954 1.03736E-03-2.96658E-04-2.67391E-16
 -1      2955 1.18125E-03-3.20042E-04-3.27822E-16
 -1      2956 1.24164E-03-2.97695E-04-3.46565E-16
 -1      2957 8.58658E-03 9.16052E-04-2.08147E-15
 -1      2958 8.72127E-03 8.73326E-04-2.28292E-15
 -1      2959 7.25605E-03 1.57115E-04-3.54056E-15
 -1      2960 7.08934E-03 4.95927E-05-3.54091E-15
 -1      2961 7.38106E-03 2.32594E-04-3.66599E-15
 -1      2962 4.20955E-03 4.27291E-04-9.31028E-16
 -1      2963 4.35102E-03 4.66995E-04-8.45495E-16
 -1      2964 7.81471E-04 1.13884E-04-2.56007E-17
 -1      2965 7.78088E-04 9.21395E-05-3.71475E-17
 -1      2966 8.93867E-04 9.14781E-05-5.55247E-17
 -1      2967 9.02031E-04 1.39657E-04-2.73626E-17
 -1      2968 6.90228E-04-1.92671E-04-1.39469E-16
 -1      2969 8.86968E-03 8.30311E-04-2.80942E-15
 -1      2970 8.84429E-03 8.28722E-04-2.96341E-15
 -1      2971 8.90390E-03 8.53671E-04-2.82063E-15
 -1      2972 8.74928E-03 8.08168E-04-3.10963E-15
 -1      2973 8.62867E-03 7.83938E-04-3.22548E-15
 -1      2974 8.43295E-03 7.29256E-04-3.36177E-15
 -1      2975 8.24801E-03 6.67139E-04-3.42953E-15
 -1      2976 8.15544E-03 6.33048E-04-3.60863E-15
 -1      2977 7.78388E-04-8.91444E-05-1.28993E-16
 -1      2978 7.81672E-04-1.11194E-04-1.38358E-16
 -1      2979 6.42969E-03-3.34832E-04-3.24499E-15
 -1      2980 6.28994E-03-3.83766E-04-3.13378E-15
 -1      2981 4.85255E-03 8.83529E-05-2.01342E-15
 -1      2982 4.68439E-03 1.62331E-04-1.89711E-15
 -1      2983 4.14648E-03 3.38963E-04-1.46365E-15
 -1      2984 4.07590E-03 3.55981E-04-1.37812E-15
 -1      2985 5.21451E-03-8.45522E-05-2.26432E-15
 -1      2986 5.05186E-03-2.46303E-06-2.15026E-15
 -1      2987 5.54132E-03-2.49994E-04-2.51058E-15
 -1      2988 5.38314E-03-1.68077E-04-2.38527E-15
 -1      2989 5.26417E-03-1.40422E-04-2.34712E-15
 -1      2990 5.85260E-03-3.77789E-04-2.79005E-15
 -1      2991 5.71829E-03-3.31682E-04-2.67520E-15
 -1      2992 6.14036E-03-4.07934E-04-3.01129E-15
 -1      2993 6.01149E-03-4.04173E-04-2.90124E-15
 -1      2994 5.33784E-03 9.69421E-04-5.50043E-16
 -1      2995 7.85781E-04-1.34247E-04-1.47655E-16
 -1      2996 7.90752E-04-1.58544E-04-1.56654E-16
 -1      2997 9.02348E-04-1.36657E-04-1.78094E-16
 -1      2998 8.87950E-04 2.23509E-06-1.07594E-16
 -1      2999 7.71859E-04-7.80282E-06-9.03276E-17
 -1      3000 7.72545E-04-2.75254E-05-1.00248E-16
 -1      3001 8.67627E-04 2.50841E-04 3.93023E-17
 -1      3002 8.63902E-03 7.98075E-04-3.45402E-15
 -1      3003 8.54192E-03 7.68586E-04-3.40696E-15
 -1      3004 8.45633E-03 7.46065E-04-3.59004E-15
 -1      3005 8.80968E-03 8.75094E-04-2.43710E-15
 -1      3006 1.36587E-02 2.50436E-03-1.84261E-14
 -1      3007 8.20188E-03 1.11113E-03-1.59855E-15
 -1      3008 7.37686E-03 1.57621E-03-1.00888E-15
 -1      3009 8.82529E-03 8.33526E-04-3.12445E-15
 -1      3010 4.58947E-03 5.57577E-04-5.86242E-16
 -1      3011 4.00274E-03 3.71069E-04-1.09454E-15
 -1      3012 7.79461E-03 1.33278E-03-1.24260E-15
 -1      3013 7.56264E-03 1.45540E-03-1.13615E-15
 -1      3014 4.01387E-03 3.47670E-04-1.28545E-15
 -1      3015 8.32682E-03 1.09907E-03-1.63485E-15
 -1      3016 1.49654E-02 3.43355E-03-1.31118E-14
 -1      3017 7.76231E-03 4.48434E-04-3.67078E-15
 -1      3018 1.48549E-02 3.35001E-03-1.37229E-14
 -1      3019 1.49101E-02 3.39178E-03-1.34200E-14
 -1      3020 1.48251E-02 3.37012E-03-1.29359E-14
 -1      3021 5.59392E-03-3.02008E-04-2.63091E-15
 -1      3022 1.37337E-02 2.54875E-03-1.83329E-14
 -1      3023 1.38844E-02 2.62799E-03-1.83436E-14
 -1      3024 1.37883E-02 2.60040E-03-1.78705E-14
 -1      3025 1.36382E-02 2.51164E-03-1.80613E-14
 -1      3026 4.20073E-03 3.08922E-04-1.52402E-15
 -1      3027 4.10490E-03 3.01642E-04-1.43725E-15
 -1      3028 4.25742E-03 2.72181E-04-1.58331E-15
 -1      3029 4.91563E-03 2.45365E-05-2.08966E-15
 -1      3030 9.85351E-04 2.57846E-04 3.38407E-17
 -1      3031 6.19596E-03-4.02795E-04-3.14664E-15
 -1      3032 4.42895E-03 4.90319E-04-7.54842E-16
 -1      3033 4.52360E-03 5.27709E-04-6.75770E-16
 -1      3034 4.42012E-03 4.95298E-04-5.70521E-16
 -1      3035 4.30182E-03 4.46383E-04-7.45741E-16
 -1      3036 6.94847E-03-3.97814E-05-3.57105E-15
 -1      3037 6.82551E-03-1.19968E-04-3.59897E-15
 -1      3038 7.07392E-03 3.81736E-05-3.69392E-15
 -1      3039 4.55185E-03 1.90751E-04-1.81359E-15
 -1      3040 8.54280E-03 9.58340E-04-1.99053E-15
 -1      3041 1.47332E-02 3.25981E-03-1.43396E-14
 -1      3042 1.47884E-02 3.30156E-03-1.40436E-14
 -1      3043 1.45816E-02 3.18975E-03-1.41696E-14
 -1      3044 7.73855E-04-4.74979E-05-1.09843E-16
 -1      3045 7.75784E-04-6.80170E-05-1.19601E-16
 -1      3046 8.94393E-04-8.76662E-05-1.55244E-16
 -1      3047 8.89667E-04-4.19012E-05-1.31839E-16
 -1      3048 4.13466E-03 4.01044E-04-9.15758E-16
 -1      3049 6.51468E-03-2.95850E-04-3.37420E-15
 -1      3050 6.42148E-03-3.37445E-04-3.40090E-15
 -1      3051 6.59833E-03-2.51908E-04-3.50628E-15
 -1      3052 8.04039E-04-1.90343E-04-1.69054E-16
 -1      3053 8.24161E-04-2.40149E-04-1.85710E-16
 -1      3054 9.55868E-04-2.72181E-04-2.33808E-16
 -1      3055 9.21475E-04-1.96560E-04-2.04399E-16
 -1      3056 5.90286E-03-4.00876E-04-2.90955E-15
 -1      3057 1.01748E-03-2.55316E-04-2.51413E-16
 -1      3058 1.04034E-03 2.25370E-04 8.49743E-18
 -1      3059 1.03186E-03 1.95145E-04-1.00966E-17
 -1      3060 1.44633E-03-2.88707E-04-4.29236E-16
 -1      3061 1.58999E-03-3.00267E-04-4.99234E-16
 -1      3062 1.73381E-03-3.09548E-04-5.73272E-16
 -1      3063 1.87783E-03-3.16756E-04-6.51822E-16
 -1      3064 1.65133E-03-2.71595E-04-5.13139E-16
 -1      3065 2.02198E-03-3.22266E-04-7.34059E-16
 -1      3066 2.16632E-03-3.26283E-04-8.20185E-16
 -1      3067 1.93870E-03-2.84747E-04-6.63857E-16
 -1      3068 2.31088E-03-3.29157E-04-9.09537E-16
 -1      3069 2.45572E-03-3.31104E-04-1.00207E-15
 -1      3070 2.22683E-03-2.91773E-04-8.29049E-16
 -1      3071 2.60095E-03-3.32441E-04-1.09883E-15
 -1      3072 2.74664E-03-3.33412E-04-1.19823E-15
 -1      3073 2.51593E-03-2.94651E-04-1.00851E-15
 -1      3074 2.89294E-03-3.34307E-04-1.30011E-15
 -1      3075 3.03996E-03-3.35415E-04-1.40522E-15
 -1      3076 2.80666E-03-2.95357E-04-1.20013E-15
 -1      3077 3.18790E-03-3.37003E-04-1.51284E-15
 -1      3078 3.33686E-03-3.39424E-04-1.62244E-15
 -1      3079 3.10009E-03-2.95950E-04-1.40265E-15
 -1      3080 3.48710E-03-3.42915E-04-1.73447E-15
 -1      3081 3.63867E-03-3.47895E-04-1.84867E-15
 -1      3082 3.39766E-03-2.98693E-04-1.61533E-15
 -1      3083 3.79188E-03-3.54555E-04-1.96437E-15
 -1      3084 3.94662E-03-3.63344E-04-2.08170E-15
 -1      3085 3.70110E-03-3.06151E-04-1.83649E-15
 -1      3086 4.10322E-03-3.74373E-04-2.19991E-15
 -1      3087 4.26131E-03-3.87967E-04-2.32050E-15
 -1      3088 4.01204E-03-3.21188E-04-2.06371E-15
 -1      3089 4.42110E-03-4.04079E-04-2.44341E-15
 -1      3090 4.58190E-03-4.22665E-04-2.56753E-15
 -1      3091 4.33134E-03-3.46573E-04-2.29839E-15
 -1      3092 4.74378E-03-4.43364E-04-2.69351E-15
 -1      3093 4.90557E-03-4.65354E-04-2.82256E-15
 -1      3094 4.65815E-03-3.83780E-04-2.54100E-15
 -1      3095 5.06703E-03-4.87760E-04-2.95488E-15
 -1      3096 5.22713E-03-5.08579E-04-3.09018E-15
 -1      3097 4.98879E-03-4.30953E-04-2.79167E-15
 -1      3098 5.38543E-03-5.26469E-04-3.22878E-15
 -1      3099 5.54148E-03-5.38313E-04-3.37148E-15
 -1      3100 5.31668E-03-4.79005E-04-3.05656E-15
 -1      3101 5.69486E-03-5.42381E-04-3.51936E-15
 -1      3102 5.84665E-03-5.36117E-04-3.67202E-15
 -1      3103 5.63566E-03-5.10503E-04-3.33677E-15
 -1      3104 5.99622E-03-5.18534E-04-3.82825E-15
 -1      3105 6.14632E-03-4.87983E-04-3.99032E-15
 -1      3106 5.94369E-03-5.03434E-04-3.63498E-15
 -1      3107 6.29661E-03-4.44800E-04-4.15770E-15
 -1      3108 6.44897E-03-3.90621E-04-4.32919E-15
 -1      3109 6.24806E-03-4.41780E-04-3.95280E-15
 -1      3110 6.60310E-03-3.26675E-04-4.50615E-15
 -1      3111 6.75987E-03-2.55912E-04-4.68633E-15
 -1      3112 6.55797E-03-3.27488E-04-4.29019E-15
 -1      3113 6.91875E-03-1.79931E-04-4.87346E-15
 -1      3114 7.07924E-03-1.01668E-04-5.06564E-15
 -1      3115 6.87833E-03-1.78261E-04-4.64701E-15
 -1      3116 7.24091E-03-2.23986E-05-5.26186E-15
 -1      3117 7.40255E-03 5.60532E-05-5.46407E-15
 -1      3118 7.20682E-03-1.58337E-05-5.02437E-15
 -1      3119 7.56399E-03 1.32892E-04-5.67180E-15
 -1      3120 7.72425E-03 2.07486E-04-5.88479E-15
 -1      3121 7.53660E-03 1.43542E-04-5.42203E-15
 -1      3122 7.88338E-03 2.79518E-04-6.10182E-15
 -1      3123 8.04072E-03 3.48994E-04-6.32437E-15
 -1      3124 7.86161E-03 2.92326E-04-5.84080E-15
 -1      3125 8.19649E-03 4.15858E-04-6.55210E-15
 -1      3126 8.35042E-03 4.80473E-04-6.78299E-15
 -1      3127 8.17866E-03 4.29211E-04-6.27975E-15
 -1      3128 8.50279E-03 5.42908E-04-7.01941E-15
 -1      3129 8.65356E-03 6.03578E-04-7.25994E-15
 -1      3130 8.48718E-03 5.55823E-04-6.73639E-15
 -1      3131 8.80301E-03 6.62611E-04-7.50401E-15
 -1      3132 8.95121E-03 7.20368E-04-7.75247E-15
 -1      3133 8.78824E-03 6.74715E-04-7.21186E-15
 -1      3134 9.09839E-03 7.76992E-04-8.00260E-15
 -1      3135 9.24466E-03 8.32763E-04-8.25760E-15
 -1      3136 9.08348E-03 7.88264E-04-7.69919E-15
 -1      3137 9.39021E-03 8.87816E-04-8.51555E-15
 -1      3138 9.53514E-03 9.42350E-04-8.77506E-15
 -1      3139 9.37459E-03 8.98392E-04-8.20253E-15
 -1      3140 9.67958E-03 9.96481E-04-9.03769E-15
 -1      3141 9.82362E-03 1.05034E-03-9.30540E-15
 -1      3142 9.66295E-03 1.00654E-03-8.71791E-15
 -1      3143 9.96735E-03 1.10403E-03-9.57502E-15
 -1      3144 1.01108E-02 1.15763E-03-9.84817E-15
 -1      3145 9.94962E-03 1.11373E-03-9.24624E-15
 -1      3146 1.02541E-02 1.21120E-03-1.01253E-14
 -1      3147 1.03973E-02 1.26481E-03-1.04069E-14
 -1      3148 1.02353E-02 1.22067E-03-9.78629E-15
 -1      3149 1.05403E-02 1.31849E-03-1.06928E-14
 -1      3150 1.06833E-02 1.37227E-03-1.09825E-14
 -1      3151 1.05206E-02 1.32781E-03-1.03471E-14
 -1      3152 1.08262E-02 1.42618E-03-1.12754E-14
 -1      3153 1.09691E-02 1.48024E-03-1.15718E-14
 -1      3154 1.08057E-02 1.43542E-03-1.09223E-14
 -1      3155 1.11119E-02 1.53445E-03-1.18715E-14
 -1      3156 1.12548E-02 1.58883E-03-1.21753E-14
 -1      3157 1.10908E-02 1.54363E-03-1.15112E-14
 -1      3158 1.13976E-02 1.64336E-03-1.24854E-14
 -1      3159 1.15405E-02 1.69806E-03-1.27990E-14
 -1      3160 1.13760E-02 1.65250E-03-1.21177E-14
 -1      3161 1.16833E-02 1.75291E-03-1.31148E-14
 -1      3162 1.18261E-02 1.80791E-03-1.34354E-14
 -1      3163 1.16613E-02 1.76202E-03-1.27419E-14
 -1      3164 1.19689E-02 1.86306E-03-1.37627E-14
 -1      3165 1.21118E-02 1.91833E-03-1.40953E-14
 -1      3166 1.19466E-02 1.87214E-03-1.33847E-14
 -1      3167 1.22546E-02 1.97373E-03-1.44315E-14
 -1      3168 1.23975E-02 2.02924E-03-1.47772E-14
 -1      3169 1.22321E-02 1.98279E-03-1.40468E-14
 -1      3170 1.25403E-02 2.08486E-03-1.51277E-14
 -1      3171 1.26832E-02 2.14057E-03-1.54814E-14
 -1      3172 1.25177E-02 2.09390E-03-1.47318E-14
 -1      3173 1.28260E-02 2.19636E-03-1.58445E-14
 -1      3174 1.29689E-02 2.25223E-03-1.62118E-14
 -1      3175 1.28033E-02 2.20539E-03-1.54416E-14
 -1      3176 1.31118E-02 2.30817E-03-1.65846E-14
 -1      3177 1.32546E-02 2.36416E-03-1.69626E-14
 -1      3178 1.30890E-02 2.31718E-03-1.61760E-14
 -1      3179 1.33750E-02 2.40983E-03-1.73151E-14
 -1      3180 1.35178E-02 2.46591E-03-1.77011E-14
 -1      3181 1.35929E-02 2.51027E-03-1.76072E-14
 -1      3182 1.33522E-02 2.41884E-03-1.68966E-14
 -1      3183 3.23226E-03 3.51577E-04-2.05253E-16
 -1      3184 3.09515E-03 3.51428E-04-1.72063E-16
 -1      3185 2.95709E-03 3.51950E-04-1.41515E-16
 -1      3186 2.81791E-03 3.52995E-04-1.13923E-16
 -1      3187 3.00024E-03 3.21689E-04-2.19768E-16
 -1      3188 3.76741E-03 3.70896E-04-3.61785E-16
 -1      3189 3.63541E-03 3.62184E-04-3.18769E-16
 -1      3190 4.02871E-03 4.00965E-04-4.53888E-16
 -1      3191 3.89798E-03 3.83531E-04-4.06345E-16
 -1      3192 3.77519E-03 3.48884E-04-4.67901E-16
 -1      3193 4.28677E-03 4.55825E-04-5.36341E-16
 -1      3194 4.15171E-03 4.25018E-04-4.85126E-16
 -1      3195 4.00843E-03 3.81001E-04-5.50978E-16
 -1      3196 4.24045E-03 4.32446E-04-6.21065E-16
 -1      3197 3.94880E-03 3.47572E-04-1.08481E-15
 -1      3198 3.98054E-03 3.57028E-04-9.89246E-16
 -1      3199 5.15636E-03 8.51699E-04-5.78706E-16
 -1      3200 3.97786E-03 3.21461E-04-1.26699E-15
 -1      3201 3.94957E-03 3.36102E-04-1.17612E-15
 -1      3202 3.89661E-03 3.23754E-04-1.07045E-15
 -1      3203 8.80625E-03 9.11686E-04-2.36481E-15
 -1      3204 8.89675E-03 8.92424E-04-2.59587E-15
 -1      3205 5.61422E-03-3.41963E-04-2.73825E-15
 -1      3206 5.45716E-03-2.68561E-04-2.57468E-15
 -1      3207 9.41265E-03 1.15650E-03-2.86022E-15
 -1      3208 9.27882E-03 1.11185E-03-2.69790E-15
 -1      3209 1.02482E-02 1.48960E-03-3.94632E-15
 -1      3210 1.01086E-02 1.43064E-03-3.75387E-15
 -1      3211 1.05294E-02 1.60949E-03-4.34340E-15
 -1      3212 1.03884E-02 1.54924E-03-4.14237E-15
 -1      3213 1.02870E-02 1.48815E-03-4.24796E-15
 -1      3214 1.08126E-02 1.73072E-03-4.76381E-15
 -1      3215 1.06708E-02 1.67000E-03-4.55168E-15
 -1      3216 1.05638E-02 1.60718E-03-4.65743E-15
 -1      3217 1.10972E-02 1.85214E-03-5.20998E-15
 -1      3218 1.09548E-02 1.79144E-03-4.98320E-15
 -1      3219 1.08438E-02 1.72744E-03-5.09004E-15
 -1      3220 1.13826E-02 1.97308E-03-5.67607E-15
 -1      3221 1.12398E-02 1.91269E-03-5.44072E-15
 -1      3222 1.11259E-02 1.84792E-03-5.54419E-15
 -1      3223 1.16684E-02 2.09318E-03-6.16220E-15
 -1      3224 1.15255E-02 2.03324E-03-5.91714E-15
 -1      3225 1.14094E-02 1.96801E-03-6.02057E-15
 -1      3226 1.19544E-02 2.21230E-03-6.67652E-15
 -1      3227 1.18114E-02 2.15287E-03-6.41770E-15
 -1      3228 1.16939E-02 2.08737E-03-6.51900E-15
 -1      3229 1.22404E-02 2.33044E-03-7.21217E-15
 -1      3230 1.20974E-02 2.27149E-03-6.93896E-15
 -1      3231 1.19788E-02 2.20587E-03-7.04071E-15
 -1      3232 1.25265E-02 2.44763E-03-7.76844E-15
 -1      3233 1.23835E-02 2.38915E-03-7.48747E-15
 -1      3234 1.22642E-02 2.32349E-03-7.58565E-15
 -1      3235 1.28125E-02 2.56399E-03-8.34951E-15
 -1      3236 1.26695E-02 2.50591E-03-8.05869E-15
 -1      3237 1.25497E-02 2.44025E-03-8.15403E-15
 -1      3238 1.30984E-02 2.67961E-03-8.95051E-15
 -1      3239 1.29554E-02 2.62188E-03-8.64594E-15
 -1      3240 1.28354E-02 2.55626E-03-8.74234E-15
 -1      3241 1.33843E-02 2.79462E-03-9.57004E-15
 -1      3242 1.32414E-02 2.73719E-03-9.25815E-15
 -1      3243 1.31211E-02 2.67160E-03-9.35199E-15
 -1      3244 1.36702E-02 2.90912E-03-1.02113E-14
 -1      3245 1.35272E-02 2.85193E-03-9.88849E-15
 -1      3246 1.34068E-02 2.78639E-03-9.98412E-15
 -1      3247 1.39560E-02 3.02322E-03-1.08694E-14
 -1      3248 1.38131E-02 2.96622E-03-1.05380E-14
 -1      3249 1.36926E-02 2.90072E-03-1.06323E-14
 -1      3250 1.42418E-02 3.13700E-03-1.15438E-14
 -1      3251 1.40989E-02 3.08015E-03-1.12055E-14
 -1      3252 1.39784E-02 3.01468E-03-1.12963E-14
 -1      3253 1.45275E-02 3.25055E-03-1.22373E-14
 -1      3254 1.43846E-02 3.19380E-03-1.18901E-14
 -1      3255 1.42641E-02 3.12836E-03-1.19806E-14
 -1      3256 1.47089E-02 3.32219E-03-1.26899E-14
 -1      3257 7.86685E-03 4.96999E-04-3.83641E-15
 -1      3258 7.66977E-03 3.94269E-04-3.83152E-15
 -1      3259 1.39881E-02 2.78496E-03-1.62329E-14
 -1      3260 1.40425E-02 2.82626E-03-1.59693E-14
 -1      3261 1.37672E-02 2.61717E-03-1.73030E-14
 -1      3262 1.38225E-02 2.65922E-03-1.70356E-14
 -1      3263 5.96399E-03-4.23527E-04-3.07263E-15
 -1      3264 5.82054E-03-4.07016E-04-2.95731E-15
 -1      3265 1.40980E-02 2.86828E-03-1.56924E-14
 -1      3266 1.41534E-02 2.91029E-03-1.54153E-14
 -1      3267 1.39470E-02 2.79882E-03-1.55044E-14
 -1      3268 1.16005E-03-2.57435E-04-3.02723E-16
 -1      3269 1.30302E-03-2.74502E-04-3.63574E-16
 -1      3270 1.36499E-03-2.50333E-04-3.78902E-16
 -1      3271 1.38776E-02 2.70108E-03-1.67739E-14
 -1      3272 1.39329E-02 2.74312E-03-1.65033E-14
 -1      3273 1.38365E-02 2.71504E-03-1.60449E-14
 -1      3274 1.37262E-02 2.63139E-03-1.65752E-14
 -1      3275 9.14595E-03 1.07210E-03-2.54046E-15
 -1      3276 9.01158E-03 1.03835E-03-2.38857E-15
 -1      3277 9.22666E-03 1.06186E-03-2.80629E-15
 -1      3278 4.05309E-03 3.75956E-04-9.05451E-16
 -1      3279 4.13802E-03 3.95876E-04-8.26081E-16
 -1      3280 9.97002E-03 1.37289E-03-3.56907E-15
 -1      3281 9.83226E-03 1.31647E-03-3.38912E-15
 -1      3282 1.00147E-02 1.37192E-03-3.86275E-15
 -1      3283 9.69244E-03 1.26078E-03-3.20817E-15
 -1      3284 9.55012E-03 1.20627E-03-3.02933E-15
 -1      3285 9.48009E-03 1.15377E-03-3.13900E-15
 -1      3286 9.74512E-03 1.25935E-03-3.49280E-15
 -1      3287 3.50249E-03 3.56394E-04-2.78084E-16
 -1      3288 3.36792E-03 3.53173E-04-2.40801E-16
 -1      3289 3.26705E-03 3.23765E-04-2.92829E-16
 -1      3290 3.52581E-03 3.31590E-04-3.76001E-16
 -1      3291 2.11208E-03 3.51600E-04-1.02999E-17
 -1      3292 1.96950E-03 3.47954E-04 2.50722E-18
 -1      3293 8.89952E-03 9.92601E-04-2.33170E-15
 -1      3294 8.76694E-03 9.72545E-04-2.18944E-15
 -1      3295 7.50459E-03 3.01028E-04-3.83027E-15
 -1      3296 7.34404E-03 2.03185E-04-3.82830E-15
 -1      3297 7.62483E-03 3.57214E-04-3.99747E-15
 -1      3298 6.23792E-03-3.98326E-04-3.32293E-15
 -1      3299 6.10313E-03-4.20980E-04-3.19658E-15
 -1      3300 6.01275E-03-4.36565E-04-3.24270E-15
 -1      3301 4.55559E-03 1.38188E-04-1.84935E-15
 -1      3302 4.39540E-03 2.12211E-04-1.71070E-15
 -1      3303 8.94233E-03 8.78374E-04-2.82988E-15
 -1      3304 8.94584E-03 8.73598E-04-2.98732E-15
 -1      3305 8.27449E-03 6.80518E-04-3.70536E-15
 -1      3306 8.09844E-03 6.07316E-04-3.77031E-15
 -1      3307 1.14792E-03 2.88993E-04 3.93023E-17
 -1      3308 1.08362E-03 2.52139E-04 2.11013E-17
 -1      3309 1.20132E-03 2.51665E-04 7.83336E-18
 -1      3310 1.29128E-03 3.07639E-04 3.91397E-17
 -1      3311 4.96908E-03-4.29974E-05-2.17529E-15
 -1      3312 4.79211E-03 3.44363E-05-2.03986E-15
 -1      3313 5.31617E-03-2.02899E-04-2.44879E-15
 -1      3314 5.16657E-03-1.31503E-04-2.32775E-15
 -1      3315 5.34990E-03-2.57680E-04-2.55183E-15
 -1      3316 1.00023E-03-2.16828E-04-2.34892E-16
 -1      3317 1.07983E-03-2.37199E-04-2.67730E-16
 -1      3318 9.85274E-04-1.80886E-04-2.18399E-16
 -1      3319 1.00774E-03 6.31170E-05-9.41765E-17
 -1      3320 1.00605E-03 3.88098E-05-1.09721E-16
 -1      3321 8.89030E-03 8.55788E-04-3.16200E-15
 -1      3322 8.79624E-03 8.37033E-04-3.30993E-15
 -1      3323 1.00529E-03 1.47155E-05-1.24900E-16
 -1      3324 1.00544E-03-9.34117E-06-1.39794E-16
 -1      3325 1.12376E-03 2.91917E-05-1.41868E-16
 -1      3326 8.40036E-03 7.24607E-04-3.75644E-15
 -1      3327 8.74261E-03 8.29574E-04-3.49714E-15
 -1      3328 8.68345E-03 8.16583E-04-3.68491E-15
 -1      3329 8.83603E-03 8.56464E-04-3.54092E-15
 -1      3330 4.66391E-03 7.26002E-06-2.01225E-15
 -1      3331 4.61733E-03 7.32684E-05-1.93106E-15
 -1      3332 4.45130E-03 9.77980E-05-1.82565E-15
 -1      3333 1.88462E-03 3.12205E-04-2.74845E-17
 -1      3334 1.82669E-03 3.42428E-04 1.34577E-17
 -1      3335 1.68361E-03 3.34845E-04 2.19551E-17
 -1      3336 9.73909E-04-1.26099E-04-1.92771E-16
 -1      3337 9.79045E-04-1.52878E-04-2.05538E-16
 -1      3338 1.05652E-03-1.69469E-04-2.35191E-16
 -1      3339 1.14931E-03 1.94272E-04-2.66849E-17
 -1      3340 1.02470E-03 1.66579E-04-2.76607E-17
 -1      3341 1.01885E-03 1.39329E-04-4.49673E-17
 -1      3342 2.72713E-03 3.22146E-04-1.56627E-16
 -1      3343 2.67801E-03 3.53944E-04-8.79966E-17
 -1      3344 2.53729E-03 3.54666E-04-6.48624E-17
 -1      3345 5.68939E-03-3.91798E-04-2.89474E-15
 -1      3346 5.55771E-03-3.72211E-04-2.83255E-15
 -1      3347 5.75042E-03-4.29156E-04-3.05288E-15
 -1      3348 4.00085E-03 3.00846E-04-1.32500E-15
 -1      3349 3.91276E-03 2.93650E-04-1.21639E-15
 -1      3350 4.03088E-03 2.75425E-04-1.38229E-15
 -1      3351 8.95398E-03 8.80600E-04-3.17635E-15
 -1      3352 8.63307E-03 9.73373E-04-2.03745E-15
 -1      3353 1.14271E-03-2.17650E-04-2.82760E-16
 -1      3354 4.18945E-03 4.12003E-04-7.39541E-16
 -1      3355 1.45884E-02 3.25676E-03-1.27841E-14
 -1      3356 8.00332E-03 5.55594E-04-3.93652E-15
 -1      3357 1.43194E-02 3.03599E-03-1.45738E-14
 -1      3358 1.43750E-02 3.07802E-03-1.42874E-14
 -1      3359 9.00053E-03 9.73226E-04-2.58505E-15
 -1      3360 1.55925E-03 3.29951E-04 3.07507E-17
 -1      3361 1.41585E-03 3.17466E-04 3.47758E-17
 -1      3362 1.37002E-03 2.89180E-04 1.68864E-17
 -1      3363 1.61838E-03 3.02286E-04-1.76183E-18
 -1      3364 1.47033E-02 3.27991E-03-1.35618E-14
 -1      3365 1.42087E-02 2.95212E-03-1.51398E-14
 -1      3366 1.42642E-02 2.99414E-03-1.48563E-14
 -1      3367 1.41682E-02 2.96621E-03-1.43991E-14
 -1      3368 1.40577E-02 2.88260E-03-1.49546E-14
 -1      3369 2.25424E-03 3.53785E-04-2.58040E-17
 -1      3370 2.16812E-03 3.19774E-04-6.06476E-17
 -1      3371 2.39605E-03 3.54660E-04-4.42490E-17
 -1      3372 4.26787E-03 2.20943E-04-1.61993E-15
 -1      3373 1.36425E-02 2.54154E-03-1.75034E-14
 -1      3374 1.37176E-02 2.58590E-03-1.74064E-14
 -1      3375 1.36215E-02 2.55830E-03-1.69412E-14
 -1      3376 1.35222E-02 2.49579E-03-1.71480E-14
 -1      3377 3.96629E-03 3.50726E-04-9.00057E-16
 -1      3378 8.96790E-03 9.09070E-04-2.76131E-15
 -1      3379 1.44301E-02 3.11971E-03-1.40026E-14
 -1      3380 1.44853E-02 3.16141E-03-1.37127E-14
 -1      3381 1.42786E-02 3.04968E-03-1.38332E-14
 -1      3382 7.33258E-03 1.81122E-04-4.02162E-15
 -1      3383 7.20394E-03 1.13952E-04-3.85588E-15
 -1      3384 7.07608E-03 2.80708E-05-3.88326E-15
 -1      3385 6.31899E-03-3.76072E-04-3.45142E-15
 -1      3386 9.69685E-04-1.00398E-04-1.79991E-16
 -1      3387 1.04568E-03-1.13666E-04-2.06717E-16
 -1      3388 9.66381E-04-7.55650E-05-1.67035E-16
 -1      3389 8.47822E-03 1.03433E-03-1.81662E-15
 -1      3390 6.71424E-03-1.88197E-04-3.62706E-15
 -1      3391 6.61466E-03-2.46835E-04-3.65174E-15
 -1      3392 6.83141E-03-1.20430E-04-3.74913E-15
 -1      3393 1.01407E-03 1.13100E-04-6.18131E-17
 -1      3394 1.01041E-03 8.78190E-05-7.82387E-17
 -1      3395 1.12760E-03 8.15874E-05-1.05290E-16
 -1      3396 1.13599E-03 1.36042E-04-6.69224E-17
 -1      3397 5.02826E-03-1.11978E-04-2.27298E-15
 -1      3398 3.89308E-03 3.31329E-04-8.86403E-16
 -1      3399 3.95968E-03 3.49468E-04-8.05772E-16
 -1      3400 1.85649E-03-2.48113E-04-5.97463E-16
 -1      3401 1.99998E-03-2.52311E-04-6.73357E-16
 -1      3402 2.14362E-03-2.55186E-04-7.52775E-16
 -1      3403 2.28748E-03-2.56906E-04-8.35310E-16
 -1      3404 2.06149E-03-2.19475E-04-6.79984E-16
 -1      3405 2.43157E-03-2.57719E-04-9.21436E-16
 -1      3406 2.57598E-03-2.57815E-04-1.01132E-15
 -1      3407 2.34814E-03-2.21714E-04-8.38942E-16
 -1      3408 2.72081E-03-2.57424E-04-1.10326E-15
 -1      3409 2.86622E-03-2.56782E-04-1.19806E-15
 -1      3410 2.63576E-03-2.20609E-04-1.01002E-15
 -1      3411 3.01236E-03-2.56104E-04-1.29607E-15
 -1      3412 3.15944E-03-2.55710E-04-1.39672E-15
 -1      3413 2.92518E-03-2.17666E-04-1.19327E-15
 -1      3414 3.30772E-03-2.55801E-04-1.49952E-15
 -1      3415 3.45741E-03-2.56823E-04-1.60457E-15
 -1      3416 3.21785E-03-2.14624E-04-1.38751E-15
 -1      3417 3.60888E-03-2.58969E-04-1.71147E-15
 -1      3418 3.76228E-03-2.62846E-04-1.82035E-15
 -1      3419 3.51590E-03-2.13686E-04-1.59019E-15
 -1      3420 3.91806E-03-2.68641E-04-1.93103E-15
 -1      3421 4.07621E-03-2.77104E-04-2.04264E-15
 -1      3422 3.82199E-03-2.17821E-04-1.80067E-15
 -1      3423 4.23714E-03-2.88467E-04-2.15649E-15
 -1      3424 4.40043E-03-3.03269E-04-2.27289E-15
 -1      3425 4.13887E-03-2.31099E-04-2.01889E-15
 -1      3426 4.56661E-03-3.21433E-04-2.39000E-15
 -1      3427 4.73429E-03-3.43347E-04-2.51001E-15
 -1      3428 4.46855E-03-2.58073E-04-2.24251E-15
 -1      3429 4.90393E-03-3.69028E-04-2.63278E-15
 -1      3430 5.07313E-03-3.96559E-04-2.75812E-15
 -1      3431 4.81002E-03-3.02381E-04-2.47645E-15
 -1      3432 5.24180E-03-4.24993E-04-2.88743E-15
 -1      3433 5.40815E-03-4.51041E-04-3.02000E-15
 -1      3434 5.15780E-03-3.63626E-04-2.72070E-15
 -1      3435 5.55109E-03-4.56921E-04-3.09246E-15
 -1      3436 5.71368E-03-4.72789E-04-3.23407E-15
 -1      3437 5.96421E-03-4.68549E-04-3.43149E-15
 -1      3438 6.12124E-03-4.48218E-04-3.58111E-15
 -1      3439 6.51043E-03-3.30892E-04-4.07751E-15
 -1      3440 6.67166E-03-2.58621E-04-4.24813E-15
 -1      3441 6.83600E-03-1.78069E-04-4.42378E-15
 -1      3442 7.00295E-03-9.42925E-05-4.60467E-15
 -1      3443 6.79332E-03-1.81137E-04-4.20440E-15
 -1      3444 7.17208E-03-8.78882E-06-4.78998E-15
 -1      3445 7.34097E-03 7.47418E-05-4.98031E-15
 -1      3446 7.13720E-03-3.04657E-06-4.55918E-15
 -1      3447 7.50963E-03 1.55624E-04-5.17601E-15
 -1      3448 7.67628E-03 2.33204E-04-5.37736E-15
 -1      3449 7.48330E-03 1.68673E-04-4.93400E-15
 -1      3450 7.84106E-03 3.07071E-04-5.58403E-15
 -1      3451 8.00297E-03 3.77426E-04-5.79494E-15
 -1      3452 7.82189E-03 3.23509E-04-5.32953E-15
 -1      3453 8.16239E-03 4.44314E-04-6.01116E-15
 -1      3454 8.31897E-03 5.08487E-04-6.23171E-15
 -1      3455 8.14789E-03 4.61322E-04-5.74543E-15
 -1      3456 8.47318E-03 5.70065E-04-6.45741E-15
 -1      3457 8.62504E-03 6.29751E-04-6.68747E-15
 -1      3458 8.46100E-03 5.85833E-04-6.18127E-15
 -1      3459 8.77496E-03 6.87674E-04-6.92105E-15
 -1      3460 8.92314E-03 7.44378E-04-7.15895E-15
 -1      3461 8.76336E-03 7.01655E-04-6.63399E-15
 -1      3462 9.06991E-03 7.99977E-04-7.40068E-15
 -1      3463 9.21548E-03 8.54851E-04-7.64486E-15
 -1      3464 9.05778E-03 8.12251E-04-7.10249E-15
 -1      3465 9.36011E-03 9.09097E-04-7.89406E-15
 -1      3466 9.50399E-03 9.62959E-04-8.14602E-15
 -1      3467 9.34685E-03 9.20004E-04-7.58886E-15
 -1      3468 9.64729E-03 1.01652E-03-8.40009E-15
 -1      3469 9.79016E-03 1.06992E-03-8.65768E-15
 -1      3470 9.63264E-03 1.02645E-03-8.08510E-15
 -1      3471 9.93271E-03 1.12323E-03-8.91973E-15
 -1      3472 1.00751E-02 1.17653E-03-9.18453E-15
 -1      3473 9.91662E-03 1.13253E-03-8.59600E-15
 -1      3474 1.02172E-02 1.22988E-03-9.45275E-15
 -1      3475 1.03594E-02 1.28331E-03-9.72603E-15
 -1      3476 1.01998E-02 1.23881E-03-9.12189E-15
 -1      3477 1.05014E-02 1.33686E-03-1.00032E-14
 -1      3478 1.06435E-02 1.39054E-03-1.02855E-14
 -1      3479 1.04828E-02 1.34560E-03-9.66298E-15
 -1      3480 1.07856E-02 1.44439E-03-1.05696E-14
 -1      3481 1.09278E-02 1.49839E-03-1.08594E-14
 -1      3482 1.07660E-02 1.45306E-03-1.02202E-14
 -1      3483 1.10700E-02 1.55257E-03-1.11535E-14
 -1      3484 1.12123E-02 1.60692E-03-1.14492E-14
 -1      3485 1.10496E-02 1.56125E-03-1.07967E-14
 -1      3486 1.13546E-02 1.66144E-03-1.17522E-14
 -1      3487 1.14970E-02 1.71612E-03-1.20604E-14
 -1      3488 1.13335E-02 1.67015E-03-1.13886E-14
 -1      3489 1.16394E-02 1.77096E-03-1.23698E-14
 -1      3490 1.17820E-02 1.82596E-03-1.26851E-14
 -1      3491 1.16179E-02 1.77972E-03-1.19980E-14
 -1      3492 1.19245E-02 1.88109E-03-1.30055E-14
 -1      3493 1.20671E-02 1.93636E-03-1.33329E-14
 -1      3494 1.19025E-02 1.88990E-03-1.26285E-14
 -1      3495 1.22098E-02 1.99175E-03-1.36623E-14
 -1      3496 1.23525E-02 2.04726E-03-1.39968E-14
 -1      3497 1.21875E-02 2.00060E-03-1.32775E-14
 -1      3498 1.24952E-02 2.10287E-03-1.43394E-14
 -1      3499 1.26379E-02 2.15857E-03-1.46879E-14
 -1      3500 1.24727E-02 2.11174E-03-1.39472E-14
 -1      3501 1.27807E-02 2.21436E-03-1.50438E-14
 -1      3502 1.29235E-02 2.27022E-03-1.54031E-14
 -1      3503 1.27581E-02 2.22326E-03-1.46435E-14
 -1      3504 1.30663E-02 2.32615E-03-1.57664E-14
 -1      3505 1.32091E-02 2.38214E-03-1.61368E-14
 -1      3506 1.30436E-02 2.33507E-03-1.53597E-14
 -1      3507 3.04236E-03 2.93865E-04-3.01286E-16
 -1      3508 2.90980E-03 2.92844E-04-2.63624E-16
 -1      3509 3.78051E-03 3.31315E-04-5.77473E-16
 -1      3510 3.66574E-03 3.19816E-04-5.25784E-16
 -1      3511 1.03223E-02 1.48755E-03-4.55368E-15
 -1      3512 1.01874E-02 1.42942E-03-4.35284E-15
 -1      3513 1.11535E-02 1.84396E-03-5.88189E-15
 -1      3514 1.10131E-02 1.78424E-03-5.64642E-15
 -1      3515 1.14355E-02 1.96311E-03-6.36680E-15
 -1      3516 1.12943E-02 1.90358E-03-6.12368E-15
 -1      3517 1.11800E-02 1.84003E-03-6.22214E-15
 -1      3518 1.17189E-02 2.08168E-03-6.87677E-15
 -1      3519 1.15771E-02 2.02248E-03-6.61831E-15
 -1      3520 1.14609E-02 1.95824E-03-6.71819E-15
 -1      3521 1.20030E-02 2.19952E-03-7.40787E-15
 -1      3522 1.18608E-02 2.14069E-03-7.13958E-15
 -1      3523 1.17434E-02 2.07600E-03-7.23510E-15
 -1      3524 1.22878E-02 2.31658E-03-7.96146E-15
 -1      3525 1.21453E-02 2.25814E-03-7.68085E-15
 -1      3526 1.20269E-02 2.19315E-03-7.77427E-15
 -1      3527 1.25729E-02 2.43289E-03-8.53942E-15
 -1      3528 1.24303E-02 2.37482E-03-8.24746E-15
 -1      3529 1.23112E-02 2.30966E-03-8.34036E-15
 -1      3530 1.28583E-02 2.54854E-03-9.13631E-15
 -1      3531 1.27155E-02 2.49079E-03-8.83614E-15
 -1      3532 1.25959E-02 2.42552E-03-8.92556E-15
 -1      3533 1.31438E-02 2.66359E-03-9.75760E-15
 -1      3534 1.30010E-02 2.60613E-03-9.44324E-15
 -1      3535 1.28811E-02 2.54080E-03-9.53198E-15
 -1      3536 1.34294E-02 2.77815E-03-1.03976E-14
 -1      3537 1.32866E-02 2.72093E-03-1.00740E-14
 -1      3538 1.31664E-02 2.65556E-03-1.01618E-14
 -1      3539 1.37151E-02 2.89230E-03-1.10522E-14
 -1      3540 1.35722E-02 2.83527E-03-1.07230E-14
 -1      3541 1.34519E-02 2.76989E-03-1.08096E-14
 -1      3542 1.40008E-02 3.00613E-03-1.17231E-14
 -1      3543 1.38579E-02 2.94925E-03-1.13864E-14
 -1      3544 1.37375E-02 2.88387E-03-1.14729E-14
 -1      3545 1.42865E-02 3.11971E-03-1.24158E-14
 -1      3546 1.41436E-02 3.06294E-03-1.20678E-14
 -1      3547 1.40232E-02 2.99756E-03-1.21499E-14
 -1      3548 8.16360E-03 6.18764E-04-4.09514E-15
 -1      3549 7.95534E-03 5.18178E-04-4.15846E-15
 -1      3550 9.29274E-03 1.05908E-03-3.07317E-15
 -1      3551 9.17892E-03 1.01652E-03-2.91027E-15
 -1      3552 9.11276E-03 9.84243E-04-2.86790E-15
 -1      3553 9.01940E-03 9.36061E-04-2.79902E-15
 -1      3554 9.04833E-03 9.25448E-04-3.03978E-15
 -1      3555 9.16849E-03 9.84279E-04-3.12847E-15
 -1      3556 1.28541E-03-2.13660E-04-3.31779E-16
 -1      3557 1.42760E-03-2.25307E-04-3.92183E-16
 -1      3558 4.08525E-03 3.85551E-04-7.00320E-16
 -1      3559 1.45219E-02 3.20834E-03-1.30997E-14
 -1      3560 1.00543E-02 1.37229E-03-4.15995E-15
 -1      3561 9.92279E-03 1.31611E-03-3.96935E-15
 -1      3562 1.00891E-02 1.37309E-03-4.45665E-15
 -1      3563 1.08733E-02 1.72454E-03-5.41593E-15
 -1      3564 1.07342E-02 1.66487E-03-5.19210E-15
 -1      3565 1.09012E-02 1.72170E-03-5.74576E-15
 -1      3566 7.73612E-03 4.01964E-04-4.19067E-15
 -1      3567 7.58732E-03 3.18669E-04-4.18633E-15
 -1      3568 1.13103E-03-1.83195E-04-2.64803E-16
 -1      3569 1.20985E-03-2.00066E-04-2.98684E-16
 -1      3570 1.27360E-03-1.77908E-04-3.10475E-16
 -1      3571 1.12443E-03-1.53298E-04-2.49068E-16
 -1      3572 9.84353E-04-3.06098E-05-1.47397E-16
 -1      3573 9.86128E-04-5.46797E-05-1.61207E-16
 -1      3574 1.06114E-03-6.50595E-05-1.85751E-16
 -1      3575 1.10195E-03-1.99237E-05-1.69379E-16
 -1      3576 4.25619E-03 1.77234E-04-1.64257E-15
 -1      3577 4.14216E-03 2.29920E-04-1.52000E-15
 -1      3578 9.03420E-03 9.13122E-04-3.24065E-15
 -1      3579 8.96913E-03 8.93663E-04-3.41840E-15
 -1      3580 1.05959E-02 1.60543E-03-4.97418E-15
 -1      3581 1.04585E-02 1.54622E-03-4.76118E-15
 -1      3582 1.03544E-02 1.48717E-03-4.86265E-15
 -1      3583 1.06256E-02 1.60379E-03-5.29367E-15
 -1      3584 8.53179E-03 7.68770E-04-3.83284E-15
 -1      3585 8.36865E-03 7.08741E-04-3.94858E-15
 -1      3586 1.32515E-03 2.61787E-04 3.79471E-19
 -1      3587 1.28128E-03 2.35212E-04-1.46367E-17
 -1      3588 1.44905E-03 2.69564E-04-9.39190E-18
 -1      3589 5.35463E-03-3.05453E-04-2.64764E-15
 -1      3590 5.22725E-03-2.49369E-04-2.52240E-15
 -1      3591 5.05656E-03-1.74066E-04-2.36489E-15
 -1      3592 4.87782E-03-9.88834E-05-2.21328E-15
 -1      3593 5.07099E-03-2.31163E-04-2.45682E-15
 -1      3594 1.37957E-02 2.72905E-03-1.53192E-14
 -1      3595 1.38511E-02 2.77099E-03-1.50469E-14
 -1      3596 3.84310E-03 3.01037E-04-1.06488E-15
 -1      3597 3.84869E-03 3.13175E-04-9.77666E-16
 -1      3598 1.57022E-03-2.34812E-04-4.56598E-16
 -1      3599 1.71325E-03-2.42333E-04-5.24971E-16
 -1      3600 1.49065E-03-1.99350E-04-4.03228E-16
 -1      3601 1.43703E-02 3.13823E-03-1.29411E-14
 -1      3602 8.94565E-03 8.91217E-04-3.61311E-15
 -1      3603 8.91380E-03 8.85736E-04-3.80756E-15
 -1      3604 9.05087E-03 9.26632E-04-3.68597E-15
 -1      3605 4.70685E-03-5.81650E-05-2.09925E-15
 -1      3606 4.53994E-03-2.65641E-05-1.98929E-15
 -1      3607 4.73728E-03-1.21985E-04-2.18643E-15
 -1      3608 1.94275E-03 2.82299E-04-7.16658E-17
 -1      3609 1.80125E-03 2.77014E-04-5.43050E-17
 -1      3610 5.83628E-03-4.71047E-04-3.30333E-15
 -1      3611 1.27196E-03 2.02936E-04-3.85163E-17
 -1      3612 5.47643E-03-4.07512E-04-2.91780E-15
 -1      3613 6.25278E-03-4.06446E-04-3.58136E-15
 -1      3614 6.22344E-03-4.34667E-04-3.79617E-15
 -1      3615 6.37925E-03-3.85098E-04-3.95804E-15
 -1      3616 2.82346E-03 2.64123E-04-3.04715E-16
 -1      3617 2.77546E-03 2.92171E-04-2.28929E-16
 -1      3618 2.63944E-03 2.91831E-04-1.96593E-16
 -1      3619 3.17264E-03 2.95937E-04-3.41619E-16
 -1      3620 3.08409E-03 2.68541E-04-3.86491E-16
 -1      3621 3.30059E-03 2.99018E-04-3.84024E-16
 -1      3622 1.33055E-02 2.41610E-03-1.64632E-14
 -1      3623 1.34258E-02 2.46180E-03-1.68119E-14
 -1      3624 1.34755E-02 2.49303E-03-1.67094E-14
 -1      3625 1.32828E-02 2.42505E-03-1.60499E-14
 -1      3626 3.56908E-03 2.93154E-04-5.79642E-16
 -1      3627 3.54764E-03 3.10482E-04-4.76249E-16
 -1      3628 3.42557E-03 3.03927E-04-4.28856E-16
 -1      3629 3.98466E-03 3.61650E-04-6.91843E-16
 -1      3630 3.88575E-03 3.43470E-04-6.53625E-16
 -1      3631 8.31291E-03 6.74861E-04-4.17732E-15
 -1      3632 4.01899E-03 2.37787E-04-1.40702E-15
 -1      3633 9.53665E-03 1.15512E-03-3.41841E-15
 -1      3634 9.41264E-03 1.10535E-03-3.24445E-15
 -1      3635 9.34676E-03 1.06107E-03-3.34615E-15
 -1      3636 7.57375E-03 2.86290E-04-4.41026E-15
 -1      3637 7.45458E-03 2.37813E-04-4.21379E-15
 -1      3638 7.32877E-03 1.56331E-04-4.23924E-15
 -1      3639 7.90962E-03 4.76873E-04-4.35509E-15
 -1      3640 9.09495E-03 9.40281E-04-3.28668E-15
 -1      3641 2.44931E-03 3.22324E-04-1.03284E-16
 -1      3642 3.83997E-03 2.85836E-04-1.12100E-15
 -1      3643 3.77397E-03 2.77855E-04-1.02826E-15
 -1      3644 3.84560E-03 2.68023E-04-1.17622E-15
 -1      3645 1.39063E-02 2.81275E-03-1.47754E-14
 -1      3646 1.39616E-02 2.85451E-03-1.45011E-14
 -1      3647 1.37550E-02 2.74294E-03-1.45967E-14
 -1      3648 2.22404E-03 2.88714E-04-1.14370E-16
 -1      3649 2.08370E-03 2.86166E-04-9.21572E-17
 -1      3650 2.00105E-03 2.52810E-04-1.19818E-16
 -1      3651 1.11890E-03-1.24558E-04-2.33496E-16
 -1      3652 1.19263E-03-1.35568E-04-2.62011E-16
 -1      3653 1.11443E-03-9.67689E-05-2.17789E-16
 -1      3654 8.65532E-03 8.06914E-04-3.88117E-15
 -1      3655 1.41274E-02 2.97985E-03-1.36640E-14
 -1      3656 1.41825E-02 3.02148E-03-1.33816E-14
 -1      3657 9.79202E-03 1.26086E-03-3.78265E-15
 -1      3658 9.66200E-03 1.20648E-03-3.59810E-15
 -1      3659 9.58174E-03 1.15776E-03-3.70156E-15
 -1      3660 9.83057E-03 1.26258E-03-4.07041E-15
 -1      3661 3.78269E-03 3.15663E-04-7.12212E-16
 -1      3662 1.35251E-02 2.52427E-03-1.66063E-14
 -1      3663 6.48932E-03-3.27777E-04-3.91480E-15
 -1      3664 5.43243E-03-3.65612E-04-2.79757E-15
 -1      3665 4.30832E-03 1.23156E-04-1.72045E-15
 -1      3666 4.17358E-03 1.39006E-04-1.61869E-15
 -1      3667 4.35253E-03 6.54356E-05-1.79781E-15
 -1      3668 1.40168E-02 2.89628E-03-1.42246E-14
 -1      3669 1.40721E-02 2.93805E-03-1.39453E-14
 -1      3670 1.39760E-02 2.90985E-03-1.34978E-14
 -1      3671 6.42522E-03-3.42414E-04-3.66676E-15
 -1      3672 1.24878E-03 1.01370E-04-1.15684E-16
 -1      3673 1.24542E-03 7.31864E-05-1.37328E-16
 -1      3674 1.24331E-03 4.53312E-05-1.58334E-16
 -1      3675 1.24243E-03 1.76535E-05-1.78893E-16
 -1      3676 1.36383E-03 6.28557E-05-1.74028E-16
 -1      3677 6.67312E-03-2.26521E-04-3.90490E-15
 -1      3678 6.56505E-03-2.80097E-04-3.78010E-15
 -1      3679 3.82027E-03 3.10541E-04-8.84763E-16
 -1      3680 1.37405E-02 2.68729E-03-1.55848E-14
 -1      3681 1.36446E-02 2.65951E-03-1.51309E-14
 -1      3682 1.36854E-02 2.64551E-03-1.58505E-14
 -1      3683 1.77555E-03-2.12479E-04-5.34783E-16
 -1      3684 1.34315E-02 2.49554E-03-1.61970E-14
 -1      3685 1.35775E-02 2.56079E-03-1.64234E-14
 -1      3686 1.36326E-02 2.60260E-03-1.61615E-14
 -1      3687 1.33352E-02 2.46153E-03-1.58700E-14
 -1      3688 2.26596E-03-1.86735E-04-7.60175E-16
 -1      3689 2.40881E-03-1.86249E-04-8.39376E-16
 -1      3690 2.55184E-03-1.84986E-04-9.21247E-16
 -1      3691 2.69519E-03-1.83093E-04-1.00615E-15
 -1      3692 2.46938E-03-1.50550E-04-8.36530E-16
 -1      3693 2.83895E-03-1.80716E-04-1.09441E-15
 -1      3694 2.98334E-03-1.78075E-04-1.18548E-15
 -1      3695 2.75415E-03-1.45290E-04-9.99418E-16
 -1      3696 3.12856E-03-1.75303E-04-1.27875E-15
 -1      3697 3.27493E-03-1.72756E-04-1.37471E-15
 -1      3698 3.04053E-03-1.37993E-04-1.17377E-15
 -1      3699 3.42276E-03-1.70568E-04-1.47271E-15
 -1      3700 3.57245E-03-1.69320E-04-1.57231E-15
 -1      3701 3.33043E-03-1.30023E-04-1.35864E-15
 -1      3702 3.72446E-03-1.69167E-04-1.67469E-15
 -1      3703 3.87917E-03-1.71021E-04-1.77806E-15
 -1      3704 3.62672E-03-1.23553E-04-1.55140E-15
 -1      3705 4.03724E-03-1.75108E-04-1.88330E-15
 -1      3706 4.19878E-03-1.82725E-04-1.99060E-15
 -1      3707 3.93338E-03-1.22214E-04-1.75176E-15
 -1      3708 4.44265E-03-1.67884E-04-2.10738E-15
 -1      3709 4.61514E-03-1.86640E-04-2.21730E-15
 -1      3710 4.79139E-03-2.12111E-04-2.33030E-15
 -1      3711 5.28449E-03-3.50585E-04-2.73192E-15
 -1      3712 7.19765E-03 5.36850E-05-4.40894E-15
 -1      3713 7.37595E-03 1.45149E-04-4.59058E-15
 -1      3714 7.55246E-03 2.30296E-04-4.77633E-15
 -1      3715 7.80577E-03 3.42377E-04-5.07928E-15
 -1      3716 7.97306E-03 4.13970E-04-5.27848E-15
 -1      3717 8.13656E-03 4.80441E-04-5.48407E-15
 -1      3718 8.29583E-03 5.43436E-04-5.69323E-15
 -1      3719 8.12878E-03 5.01964E-04-5.22504E-15
 -1      3720 8.45161E-03 6.03163E-04-5.90715E-15
 -1      3721 8.60416E-03 6.60845E-04-6.12692E-15
 -1      3722 8.44540E-03 6.22328E-04-5.63814E-15
 -1      3723 8.75404E-03 7.16627E-04-6.35008E-15
 -1      3724 8.90166E-03 7.71323E-04-6.57670E-15
 -1      3725 8.74729E-03 7.32781E-04-6.06909E-15
 -1      3726 9.04744E-03 8.25024E-04-6.80783E-15
 -1      3727 9.19178E-03 8.78249E-04-7.04384E-15
 -1      3728 9.03909E-03 8.38422E-04-6.51618E-15
 -1      3729 9.33497E-03 9.31047E-04-7.28294E-15
 -1      3730 9.47733E-03 9.83709E-04-7.52533E-15
 -1      3731 9.32458E-03 9.42289E-04-6.98097E-15
 -1      3732 9.61904E-03 1.03627E-03-7.77302E-15
 -1      3733 9.76035E-03 1.08888E-03-8.02124E-15
 -1      3734 9.60655E-03 1.04601E-03-7.46057E-15
 -1      3735 9.90135E-03 1.14157E-03-8.27454E-15
 -1      3736 1.00422E-02 1.19441E-03-8.53060E-15
 -1      3737 9.88690E-03 1.15036E-03-7.95552E-15
 -1      3738 1.01830E-02 1.24741E-03-8.79121E-15
 -1      3739 1.03238E-02 1.30060E-03-9.05775E-15
 -1      3740 1.01668E-02 1.25567E-03-8.46355E-15
 -1      3741 1.04647E-02 1.35400E-03-9.32494E-15
 -1      3742 1.06057E-02 1.40759E-03-9.59748E-15
 -1      3743 1.04471E-02 1.36202E-03-8.98943E-15
 -1      3744 1.07468E-02 1.46140E-03-9.87601E-15
 -1      3745 1.08880E-02 1.51541E-03-1.01561E-14
 -1      3746 1.07279E-02 1.46938E-03-9.53212E-15
 -1      3747 1.10294E-02 1.56962E-03-1.04404E-14
 -1      3748 1.11710E-02 1.62401E-03-1.07311E-14
 -1      3749 1.10096E-02 1.57766E-03-1.00896E-14
 -1      3750 1.13127E-02 1.67859E-03-1.10268E-14
 -1      3751 1.14545E-02 1.73334E-03-1.13253E-14
 -1      3752 1.12920E-02 1.68676E-03-1.06668E-14
 -1      3753 1.15964E-02 1.78826E-03-1.16294E-14
 -1      3754 1.17385E-02 1.84332E-03-1.19366E-14
 -1      3755 1.15752E-02 1.79656E-03-1.12615E-14
 -1      3756 1.18807E-02 1.89852E-03-1.22497E-14
 -1      3757 1.20230E-02 1.95385E-03-1.25708E-14
 -1      3758 1.18590E-02 1.90695E-03-1.18750E-14
 -1      3759 1.21654E-02 2.00930E-03-1.28947E-14
 -1      3760 1.23079E-02 2.06486E-03-1.32225E-14
 -1      3761 1.21434E-02 2.01785E-03-1.25114E-14
 -1      3762 1.24504E-02 2.12051E-03-1.35583E-14
 -1      3763 1.25930E-02 2.17626E-03-1.38987E-14
 -1      3764 1.24281E-02 2.12916E-03-1.31690E-14
 -1      3765 1.27356E-02 2.23208E-03-1.42437E-14
 -1      3766 1.28783E-02 2.28798E-03-1.45978E-14
 -1      3767 1.27132E-02 2.24081E-03-1.38469E-14
 -1      3768 1.30210E-02 2.34394E-03-1.49546E-14
 -1      3769 1.31638E-02 2.39995E-03-1.53145E-14
 -1      3770 1.29985E-02 2.35273E-03-1.45488E-14
 -1      3771 8.48916E-03 7.38465E-04-4.27993E-15
 -1      3772 8.30698E-03 6.56667E-04-4.42765E-15
 -1      3773 1.12054E-02 1.83610E-03-6.56280E-15
 -1      3774 1.10662E-02 1.77744E-03-6.31914E-15
 -1      3775 1.20505E-02 2.18677E-03-8.14356E-15
 -1      3776 1.19088E-02 2.12859E-03-7.86800E-15
 -1      3777 1.23344E-02 2.30271E-03-8.71758E-15
 -1      3778 1.21923E-02 2.24480E-03-8.42673E-15
 -1      3779 1.20737E-02 2.18029E-03-8.51591E-15
 -1      3780 1.26189E-02 2.41811E-03-9.31233E-15
 -1      3781 1.24766E-02 2.36047E-03-9.01200E-15
 -1      3782 1.23574E-02 2.29569E-03-9.09819E-15
 -1      3783 1.29038E-02 2.53303E-03-9.92925E-15
 -1      3784 1.27613E-02 2.47563E-03-9.61846E-15
 -1      3785 1.26417E-02 2.41065E-03-9.69946E-15
 -1      3786 1.31891E-02 2.64750E-03-1.05671E-14
 -1      3787 1.30464E-02 2.59031E-03-1.02454E-14
 -1      3788 1.29265E-02 2.52521E-03-1.03256E-14
 -1      3789 1.34745E-02 2.76161E-03-1.12223E-14
 -1      3790 1.33317E-02 2.70460E-03-1.08931E-14
 -1      3791 1.32116E-02 2.63940E-03-1.09732E-14
 -1      3792 1.37600E-02 2.87541E-03-1.18925E-14
 -1      3793 1.36172E-02 2.81854E-03-1.15572E-14
 -1      3794 1.34970E-02 2.75329E-03-1.16364E-14
 -1      3795 1.42499E-02 3.07287E-03-1.30198E-14
 -1      3796 3.99648E-03 1.95901E-04-1.43132E-15
 -1      3797 3.90535E-03 2.36710E-04-1.29931E-15
 -1      3798 1.41273E-03-1.65499E-04-3.54155E-16
 -1      3799 1.55420E-03-1.72566E-04-4.13162E-16
 -1      3800 1.68721E-03 2.76847E-04-3.68358E-17
 -1      3801 1.56358E-03 2.72899E-04-2.24159E-17
 -1      3802 1.51903E-03 2.46546E-04-4.03052E-17
 -1      3803 1.74702E-03 2.48957E-04-7.60974E-17
 -1      3804 9.22757E-03 9.99212E-04-3.38283E-15
 -1      3805 9.15985E-03 9.68407E-04-3.33444E-15
 -1      3806 9.13303E-03 9.55115E-04-3.53829E-15
 -1      3807 1.17674E-02 2.07029E-03-7.59272E-15
 -1      3808 1.16263E-02 2.01186E-03-7.32627E-15
 -1      3809 1.17910E-02 2.06447E-03-7.95451E-15
 -1      3810 1.14856E-02 1.95335E-03-7.06730E-15
 -1      3811 1.13452E-02 1.89473E-03-6.81239E-15
 -1      3812 1.15096E-02 1.94832E-03-7.41776E-15
 -1      3813 1.41850E-03 2.09167E-04-5.74492E-17
 -1      3814 1.28768E-03 1.71507E-04-6.63667E-17
 -1      3815 1.01197E-02 1.37415E-03-4.75612E-15
 -1      3816 9.99083E-03 1.31911E-03-4.55770E-15
 -1      3817 1.09277E-02 1.71887E-03-6.07915E-15
 -1      3818 1.07900E-02 1.66039E-03-5.84370E-15
 -1      3819 1.09528E-02 1.71582E-03-6.41352E-15
 -1      3820 6.84704E-03-1.35406E-04-4.07333E-15
 -1      3821 8.07043E-03 5.38596E-04-4.55639E-15
 -1      3822 7.87085E-03 4.33776E-04-4.58577E-15
 -1      3823 2.50210E-03 2.91252E-04-1.66411E-16
 -1      3824 2.36353E-03 2.90367E-04-1.38656E-16
 -1      3825 2.55467E-03 2.61560E-04-2.33103E-16
 -1      3826 3.72708E-03 2.95026E-04-7.99457E-16
 -1      3827 6.98057E-03-3.57517E-05-3.91364E-15
 -1      3828 6.87272E-03-1.07854E-04-3.93891E-15
 -1      3829 1.28116E-03 1.41337E-04-9.00430E-17
 -1      3830 1.98069E-03-1.84791E-04-6.11612E-16
 -1      3831 2.12327E-03-1.86285E-04-6.84132E-16
 -1      3832 2.18523E-03-1.52785E-04-6.85622E-16
 -1      3833 7.10804E-03 3.26115E-05-4.07796E-15
 -1      3834 1.39883E-03 1.33244E-04-1.21187E-16
 -1      3835 1.40986E-02 3.00295E-03-1.28597E-14
 -1      3836 1.69608E-03-1.78068E-04-4.75721E-16
 -1      3837 1.83829E-03-1.82086E-04-5.41925E-16
 -1      3838 1.90139E-03-1.51176E-04-5.46709E-16
 -1      3839 8.79781E-03 8.50885E-04-3.96011E-15
 -1      3840 8.66416E-03 8.06640E-04-4.10931E-15
 -1      3841 8.92937E-03 8.91557E-04-4.03973E-15
 -1      3842 5.10701E-03-3.13690E-04-2.60724E-15
 -1      3843 3.69183E-03 2.73495E-04-8.91235E-16
 -1      3844 3.62705E-03 2.81026E-04-7.24200E-16
 -1      3845 1.39558E-02 2.94623E-03-1.25082E-14
 -1      3846 1.38355E-02 2.88095E-03-1.25864E-14
 -1      3847 1.33125E-02 2.47039E-03-1.54561E-14
 -1      3848 3.67558E-03 2.58989E-04-9.44205E-16
 -1      3849 4.32844E-03-1.03032E-04-1.96498E-15
 -1      3850 3.51971E-03 2.68725E-04-6.65998E-16
 -1      3851 3.33382E-03 2.77383E-04-4.78540E-16
 -1      3852 2.87223E-03 2.37915E-04-3.83943E-16
 -1      3853 2.74102E-03 2.35423E-04-3.42472E-16
 -1      3854 7.71250E-03 3.30129E-04-4.72484E-15
 -1      3855 8.25783E-03 6.15934E-04-4.66698E-15
 -1      3856 8.65304E-03 7.93709E-04-4.36677E-15
 -1      3857 1.12299E-02 1.83199E-03-6.90618E-15
 -1      3858 3.12709E-03 2.45565E-04-4.75938E-16
 -1      3859 3.00102E-03 2.41327E-04-4.28883E-16
 -1      3860 2.92243E-03 2.13519E-04-4.67494E-16
 -1      3861 6.98866E-03-6.15693E-05-4.24351E-15
 -1      3862 9.12774E-03 9.54188E-04-3.73874E-15
 -1      3863 9.11474E-03 9.51736E-04-3.93915E-15
 -1      3864 9.20437E-03 9.83310E-04-3.79167E-15
 -1      3865 1.37802E-02 2.83925E-03-1.28661E-14
 -1      3866 1.35845E-02 2.76852E-03-1.22468E-14
 -1      3867 1.37249E-02 2.79758E-03-1.31403E-14
 -1      3868 4.03475E-03 1.53949E-04-1.50532E-15
 -1      3869 3.90616E-03 1.61349E-04-1.39563E-15
 -1      3870 4.07122E-03 1.07243E-04-1.57883E-15
 -1      3871 1.61819E-03-1.44953E-04-4.20603E-16
 -1      3872 3.81377E-03 2.34462E-04-1.20270E-15
 -1      3873 1.53235E-03 2.11654E-04-7.53656E-17
 -1      3874 1.36037E-02 2.67327E-03-1.44149E-14
 -1      3875 1.36589E-02 2.71494E-03-1.41462E-14
 -1      3876 1.02506E-02 1.43004E-03-4.96265E-15
 -1      3877 1.01466E-02 1.37480E-03-5.06057E-15
 -1      3878 1.03833E-02 1.48689E-03-5.17533E-15
 -1      3879 1.38654E-02 2.82638E-03-1.40508E-14
 -1      3880 2.27995E-03 2.58525E-04-1.71467E-16
 -1      3881 1.13348E-03-7.33678E-05-2.10051E-16
 -1      3882 1.20628E-03-8.19295E-05-2.36139E-16
 -1      3883 1.15327E-03-4.98257E-05-2.01607E-16
 -1      3884 9.86294E-03 1.26486E-03-4.35955E-15
 -1      3885 9.73792E-03 1.21190E-03-4.16739E-15
 -1      3886 9.89025E-03 1.26672E-03-4.65119E-15
 -1      3887 1.06790E-02 1.60032E-03-5.93996E-15
 -1      3888 1.06532E-02 1.60219E-03-5.61552E-15
 -1      3889 1.05176E-02 1.54426E-03-5.39256E-15
 -1      3890 1.26502E-03-1.45121E-04-2.90905E-16
 -1      3891 1.33961E-03-1.56131E-04-3.22496E-16
 -1      3892 1.40422E-03-1.31603E-04-3.31386E-16
 -1      3893 1.25945E-03-1.14893E-04-2.72365E-16
 -1      3894 2.05986E-03 2.23788E-04-1.71168E-16
 -1      3895 1.92033E-03 2.19917E-04-1.44253E-16
 -1      3896 9.33335E-03 1.04308E-03-3.55748E-15
 -1      3897 1.48521E-03 8.14763E-05-1.88461E-16
 -1      3898 1.48282E-03 5.09952E-05-2.15634E-16
 -1      3899 1.52300E-03 1.66724E-04-1.16565E-16
 -1      3900 1.48858E-03 1.23597E-04-1.50176E-16
 -1      3901 1.60657E-03 1.12536E-04-1.89857E-16
 -1      3902 1.62124E-03 2.01610E-04-1.02335E-16
 -1      3903 1.36118E-03 4.05263E-06-2.21218E-16
 -1      3904 1.24192E-03-1.04842E-05-1.99249E-16
 -1      3905 1.22089E-03-3.51587E-05-2.10755E-16
 -1      3906 4.95231E-03-2.50336E-04-2.45036E-15
 -1      3907 1.35366E-02 2.57492E-03-1.57045E-14
 -1      3908 1.34934E-02 2.58993E-03-1.49446E-14
 -1      3909 1.35485E-02 2.63160E-03-1.46801E-14
 -1      3910 1.34525E-02 2.60366E-03-1.42342E-14
 -1      3911 7.23358E-03 9.22447E-05-4.26933E-15
 -1      3912 1.73465E-03 2.01670E-04-1.25469E-16
 -1      3913 1.79657E-03 1.74566E-04-1.70274E-16
 -1      3914 1.26644E-02 2.40312E-03-1.00908E-14
 -1      3915 1.25222E-02 2.34589E-03-9.78147E-15
 -1      3916 2.38864E-03-1.17322E-04-7.55486E-16
 -1      3917 2.52988E-03-1.14735E-04-8.30485E-16
 -1      3918 2.67112E-03-1.11387E-04-9.08887E-16
 -1      3919 2.81255E-03-1.07362E-04-9.89470E-16
 -1      3920 2.59021E-03-7.88723E-05-8.21934E-16
 -1      3921 2.95424E-03-1.02715E-04-1.07314E-15
 -1      3922 3.09652E-03-9.76342E-05-1.15947E-15
 -1      3923 2.87028E-03-6.93575E-05-9.76229E-16
 -1      3924 3.23955E-03-9.21706E-05-1.24789E-15
 -1      3925 3.38384E-03-8.67032E-05-1.33869E-15
 -1      3926 3.15110E-03-5.70062E-05-1.14139E-15
 -1      3927 3.52967E-03-8.13021E-05-1.43140E-15
 -1      3928 3.67777E-03-7.67068E-05-1.52649E-15
 -1      3929 3.43484E-03-4.27151E-05-1.31525E-15
 -1      3930 3.82859E-03-7.30360E-05-1.62296E-15
 -1      3931 3.98302E-03-7.16455E-05-1.72087E-15
 -1      3932 3.72511E-03-2.85602E-05-1.49751E-15
 -1      3933 1.97178E-03 1.45614E-04-2.52023E-16
 -1      3934 1.78921E-03 1.29290E-04-2.20378E-16
 -1      3935 1.78547E-03 8.46052E-05-2.69885E-16
 -1      3936 2.66190E-03 2.06278E-04-3.76977E-16
 -1      3937 2.60781E-03 2.33235E-04-3.03631E-16
 -1      3938 2.47280E-03 2.31342E-04-2.66483E-16
 -1      3939 8.44379E-03 6.43053E-04-5.37145E-15
 -1      3940 8.59557E-03 6.97429E-04-5.57865E-15
 -1      3941 8.74394E-03 7.49841E-04-5.79135E-15
 -1      3942 8.88964E-03 8.01401E-04-6.00717E-15
 -1      3943 8.74438E-03 7.68011E-04-5.51592E-15
 -1      3944 9.03313E-03 8.52187E-04-6.22838E-15
 -1      3945 9.17511E-03 9.02900E-04-6.45318E-15
 -1      3946 9.02983E-03 8.66445E-04-5.94206E-15
 -1      3947 9.31584E-03 9.53533E-04-6.68257E-15
 -1      3948 9.45582E-03 1.00441E-03-6.91473E-15
 -1      3949 9.30891E-03 9.64824E-04-6.38523E-15
 -1      3950 9.59520E-03 1.05553E-03-7.15045E-15
 -1      3951 9.73432E-03 1.10699E-03-7.39212E-15
 -1      3952 9.58505E-03 1.06481E-03-6.84427E-15
 -1      3953 9.87324E-03 1.15879E-03-7.63625E-15
 -1      3954 1.00122E-02 1.21097E-03-7.88376E-15
 -1      3955 9.86037E-03 1.16685E-03-7.31874E-15
 -1      3956 1.01512E-02 1.26352E-03-8.13806E-15
 -1      3957 1.02904E-02 1.31641E-03-8.39449E-15
 -1      3958 1.01361E-02 1.27092E-03-7.81258E-15
 -1      3959 1.04298E-02 1.36963E-03-8.65418E-15
 -1      3960 1.05694E-02 1.42315E-03-8.91901E-15
 -1      3961 1.04129E-02 1.37677E-03-8.32080E-15
 -1      3962 1.07093E-02 1.47696E-03-9.18914E-15
 -1      3963 1.08495E-02 1.53103E-03-9.46385E-15
 -1      3964 1.06910E-02 1.48410E-03-8.84769E-15
 -1      3965 1.09899E-02 1.58534E-03-9.74190E-15
 -1      3966 1.11306E-02 1.63987E-03-1.00223E-14
 -1      3967 1.09705E-02 1.59263E-03-9.39240E-15
 -1      3968 1.12716E-02 1.69460E-03-1.03077E-14
 -1      3969 1.14127E-02 1.74951E-03-1.06006E-14
 -1      3970 1.12513E-02 1.70211E-03-9.95452E-15
 -1      3971 1.15541E-02 1.80459E-03-1.08972E-14
 -1      3972 1.16957E-02 1.85981E-03-1.11969E-14
 -1      3973 1.15331E-02 1.81233E-03-1.05336E-14
 -1      3974 1.18375E-02 1.91517E-03-1.15031E-14
 -1      3975 1.19794E-02 1.97064E-03-1.18127E-14
 -1      3976 1.18160E-02 1.92315E-03-1.11315E-14
 -1      3977 1.21215E-02 2.02623E-03-1.21285E-14
 -1      3978 1.22636E-02 2.08191E-03-1.24505E-14
 -1      3979 1.20996E-02 2.03442E-03-1.17491E-14
 -1      3980 1.24059E-02 2.13768E-03-1.27780E-14
 -1      3981 1.25483E-02 2.19353E-03-1.31112E-14
 -1      3982 1.23838E-02 2.14605E-03-1.23898E-14
 -1      3983 1.26908E-02 2.24944E-03-1.34509E-14
 -1      3984 1.28334E-02 2.30542E-03-1.37939E-14
 -1      3985 1.26685E-02 2.25796E-03-1.30533E-14
 -1      3986 1.29760E-02 2.36145E-03-1.41423E-14
 -1      3987 1.31187E-02 2.41753E-03-1.44981E-14
 -1      3988 1.29535E-02 2.37008E-03-1.37378E-14
 -1      3989 7.83372E-03 4.01488E-04-4.69970E-15
 -1      3990 1.20967E-02 2.17371E-03-8.88996E-15
 -1      3991 1.19553E-02 2.11615E-03-8.60428E-15
 -1      3992 1.29491E-02 2.51733E-03-1.07239E-14
 -1      3993 1.28067E-02 2.46026E-03-1.04045E-14
 -1      3994 1.26870E-02 2.39549E-03-1.04805E-14
 -1      3995 1.32342E-02 2.63126E-03-1.13761E-14
 -1      3996 1.30916E-02 2.57433E-03-1.10475E-14
 -1      3997 1.29717E-02 2.50938E-03-1.11211E-14
 -1      3998 1.34806E-02 2.72834E-03-1.19780E-14
 -1      3999 1.33380E-02 2.67152E-03-1.16415E-14
 -1      4000 1.32179E-02 2.60647E-03-1.17119E-14
 -1      4001 1.34254E-02 2.68681E-03-1.22478E-14
 -1      4002 1.82373E-03-1.18752E-04-4.85248E-16
 -1      4003 1.96493E-03-1.19831E-04-5.48349E-16
 -1      4004 1.33653E-02 2.51320E-03-1.51508E-14
 -1      4005 2.16223E-03 2.17772E-04-2.04941E-16
 -1      4006 2.08356E-03 1.86145E-04-2.29160E-16
 -1      4007 2.07488E-03 1.40149E-04-2.90675E-16
 -1      4008 2.30006E-03 2.20375E-04-2.36817E-16
 -1      4009 1.18142E-02 2.05853E-03-8.32056E-15
 -1      4010 1.16734E-02 2.00085E-03-8.04330E-15
 -1      4011 1.18370E-02 2.05241E-03-8.68720E-15
 -1      4012 1.15330E-02 1.94314E-03-7.77335E-15
 -1      4013 1.13930E-02 1.88540E-03-7.50981E-15
 -1      4014 1.15559E-02 1.93772E-03-8.13256E-15
 -1      4015 3.36891E-03 2.58606E-04-5.76592E-16
 -1      4016 3.24982E-03 2.51451E-04-5.25066E-16
 -1      4017 3.17218E-03 2.24890E-04-5.68393E-16
 -1      4018 1.23802E-02 2.28858E-03-9.47639E-15
 -1      4019 1.22383E-02 2.23118E-03-9.17932E-15
 -1      4020 1.21194E-02 2.16698E-03-9.26402E-15
 -1      4021 3.44574E-03 2.42965E-04-7.14462E-16
 -1      4022 8.81724E-03 8.48333E-04-4.46916E-15
 -1      4023 8.66189E-03 7.85207E-04-4.64343E-15
 -1      4024 9.61635E-03 1.16104E-03-3.98089E-15
 -1      4025 9.49870E-03 1.11183E-03-3.79701E-15
 -1      4026 9.64370E-03 1.16396E-03-4.26082E-15
 -1      4027 2.10616E-03-1.19927E-04-6.14499E-16
 -1      4028 2.24742E-03-1.19068E-04-6.83495E-16
 -1      4029 2.02886E-03-8.81301E-05-5.47251E-16
 -1      4030 9.35920E-03 1.04682E-03-3.82807E-15
 -1      4031 4.40522E-03-4.23254E-05-1.93640E-15
 -1      4032 4.36911E-03 1.75038E-05-1.85464E-15
 -1      4033 4.23094E-03 4.17718E-05-1.74963E-15
 -1      4034 4.17106E-03-6.60326E-05-1.83176E-15
 -1      4035 1.36643E-02 2.73545E-03-1.37802E-14
 -1      4036 1.37195E-02 2.77711E-03-1.35076E-14
 -1      4037 1.35239E-02 2.70656E-03-1.28808E-14
 -1      4038 1.35131E-02 2.66573E-03-1.36056E-14
 -1      4039 1.48107E-03 2.01371E-05-2.42292E-16
 -1      4040 1.48085E-03-1.08308E-05-2.68381E-16
 -1      4041 1.60149E-03 3.74214E-05-2.62445E-16
 -1      4042 1.12536E-02 1.82770E-03-7.25182E-15
 -1      4043 1.11148E-02 1.77004E-03-6.99858E-15
 -1      4044 1.12765E-02 1.82310E-03-7.59988E-15
 -1      4045 3.67281E-03 2.33772E-04-1.03608E-15
 -1      4046 3.57313E-03 2.34342E-04-9.01975E-16
 -1      4047 1.54195E-03-1.13327E-04-3.68859E-16
 -1      4048 1.68271E-03-1.16591E-04-4.25414E-16
 -1      4049 1.74774E-03-8.75104E-05-4.27745E-16
 -1      4050 3.71263E-03 2.04970E-04-1.15205E-15
 -1      4051 9.05537E-03 9.32282E-04-4.14571E-15
 -1      4052 8.94985E-03 8.96885E-04-4.30159E-15
 -1      4053 1.09767E-02 1.71253E-03-6.74982E-15
 -1      4054 1.08394E-02 1.65517E-03-6.50645E-15
 -1      4055 1.09996E-02 1.70885E-03-7.08939E-15
 -1      4056 4.05526E-03-1.14334E-05-1.69709E-15
 -1      4057 4.07263E-03 2.65360E-05-1.66535E-15
 -1      4058 4.06221E-03 6.91084E-05-1.61295E-15
 -1      4059 3.92569E-03 8.50276E-05-1.50008E-15
 -1      4060 3.89442E-03 1.30032E-05-1.56227E-15
 -1      4061 1.24029E-02 2.28136E-03-9.85949E-15
 -1      4062 1.96308E-03 6.64266E-05-3.49194E-16
 -1      4063 1.78237E-03 5.15968E-05-3.05298E-16
 -1      4064 1.78122E-03 1.84503E-05-3.39843E-16
 -1      4065 8.12689E-03 5.25830E-04-4.97088E-15
 -1      4066 8.28779E-03 5.86658E-04-5.16954E-15
 -1      4067 2.71787E-03 1.80436E-04-4.53847E-16
 -1      4068 2.58584E-03 1.76705E-04-4.08175E-16
 -1      4069 3.41311E-03 1.89715E-04-8.81538E-16
 -1      4070 3.42399E-03 2.17145E-04-7.98339E-16
 -1      4071 3.26776E-03 2.05205E-04-7.01167E-16
 -1      4072 8.44721E-03 6.65831E-04-5.10825E-15
 -1      4073 9.36247E-03 1.04564E-03-4.03627E-15
 -1      4074 2.97528E-03 1.90481E-04-5.54583E-16
 -1      4075 2.84780E-03 1.85035E-04-5.03016E-16
 -1      4076 2.77619E-03 1.55592E-04-5.35460E-16
 -1      4077 3.75553E-03 1.66152E-04-1.26085E-15
 -1      4078 3.59370E-03 1.75010E-04-1.09418E-15
 -1      4079 1.32693E-02 2.48539E-03-1.47052E-14
 -1      4080 2.35796E-03 1.92109E-04-3.00758E-16
 -1      4081 1.04097E-02 1.48627E-03-5.48934E-15
 -1      4082 2.30980E-03-8.51916E-05-6.78440E-16
 -1      4083 1.01704E-02 1.37498E-03-5.36642E-15
 -1      4084 1.00415E-02 1.32116E-03-5.15489E-15
 -1      4085 9.91315E-03 1.26805E-03-4.94616E-15
 -1      4086 9.78752E-03 1.21618E-03-4.74246E-15
 -1      4087 9.93285E-03 1.26831E-03-5.24431E-15
 -1      4088 1.07030E-02 1.59814E-03-6.26804E-15
 -1      4089 1.05678E-02 1.54142E-03-6.03459E-15
 -1      4090 1.07258E-02 1.59546E-03-6.59833E-15
 -1      4091 1.60249E-03-3.97096E-05-3.32782E-16
 -1      4092 1.48330E-03-5.46330E-05-3.04512E-16
 -1      4093 8.96157E-03 8.95352E-04-4.58387E-15
 -1      4094 1.32467E-02 2.49409E-03-1.42937E-14
 -1      4095 1.33777E-02 2.59719E-03-1.35782E-14
 -1      4096 1.33831E-02 2.61758E-03-1.32183E-14
 -1      4097 1.34969E-03-9.66800E-05-2.90214E-16
 -1      4098 1.41570E-03-7.16209E-05-2.94673E-16
 -1      4099 9.14487E-03 9.62811E-04-4.20395E-15
 -1      4100 3.77726E-03 1.30984E-04-1.32950E-15
 -1      4101 1.32846E-02 2.52488E-03-1.40711E-14
 -1      4102 1.33398E-02 2.56642E-03-1.38073E-14
 -1      4103 1.32098E-02 2.51838E-03-1.34185E-14
 -1      4104 1.31340E-02 2.45695E-03-1.38674E-14
 -1      4105 8.74978E-03 7.86606E-04-5.24445E-15
 -1      4106 8.89078E-03 8.33744E-04-5.44946E-15
 -1      4107 2.78896E-03-3.78033E-05-8.83625E-16
 -1      4108 2.92735E-03-3.15817E-05-9.59953E-16
 -1      4109 3.06556E-03-2.44399E-05-1.03909E-15
 -1      4110 3.20410E-03-1.65274E-05-1.11985E-15
 -1      4111 2.98367E-03 5.87362E-06-9.39881E-16
 -1      4112 3.34298E-03-7.80905E-06-1.20275E-15
 -1      4113 3.48295E-03 1.33900E-06-1.28847E-15
 -1      4114 3.25538E-03 2.37429E-05-1.09445E-15
 -1      4115 3.61358E-03 3.75962E-06-1.37896E-15
 -1      4116 3.75758E-03 1.25909E-05-1.46840E-15
 -1      4117 3.77700E-03 4.66634E-05-1.43963E-15
 -1      4118 3.51753E-03 3.86147E-05-1.26123E-15
 -1      4119 1.18595E-02 2.04609E-03-9.05759E-15
 -1      4120 1.17187E-02 1.98906E-03-8.77105E-15
 -1      4121 1.29942E-02 2.50136E-03-1.15165E-14
 -1      4122 1.28518E-02 2.44458E-03-1.11927E-14
 -1      4123 2.47840E-03 1.37574E-04-4.38329E-16
 -1      4124 2.41732E-03 1.64534E-04-3.67870E-16
 -1      4125 2.24684E-03 1.52481E-04-3.28649E-16
 -1      4126 8.38503E-03 6.67680E-04-4.72474E-15
 -1      4127 8.16433E-03 5.56055E-04-4.85199E-15
 -1      4128 7.99701E-03 4.65866E-04-4.90965E-15
 -1      4129 9.02956E-03 8.80606E-04-5.65882E-15
 -1      4130 9.16725E-03 9.27986E-04-5.87262E-15
 -1      4131 9.03254E-03 8.94837E-04-5.37927E-15
 -1      4132 9.30383E-03 9.75780E-04-6.09158E-15
 -1      4133 9.44010E-03 1.02435E-03-6.31396E-15
 -1      4134 9.30073E-03 9.86385E-04-5.79994E-15
 -1      4135 9.57605E-03 1.07361E-03-6.54040E-15
 -1      4136 9.71207E-03 1.12365E-03-6.77019E-15
 -1      4137 9.56818E-03 1.08190E-03-6.23834E-15
 -1      4138 9.84815E-03 1.17436E-03-7.00460E-15
 -1      4139 9.98461E-03 1.22575E-03-7.24479E-15
 -1      4140 9.83657E-03 1.18125E-03-6.69372E-15
 -1      4141 1.01214E-02 1.27777E-03-7.48850E-15
 -1      4142 1.02586E-02 1.33033E-03-7.73833E-15
 -1      4143 1.01070E-02 1.28402E-03-7.16834E-15
 -1      4144 1.03962E-02 1.38340E-03-7.99102E-15
 -1      4145 1.05343E-02 1.43689E-03-8.24593E-15
 -1      4146 1.03797E-02 1.38944E-03-7.65966E-15
 -1      4147 1.06728E-02 1.49076E-03-8.50937E-15
 -1      4148 1.08118E-02 1.54498E-03-8.77668E-15
 -1      4149 1.06547E-02 1.49690E-03-8.17231E-15
 -1      4150 1.09511E-02 1.59949E-03-9.04511E-15
 -1      4151 1.10909E-02 1.65426E-03-9.32067E-15
 -1      4152 1.09318E-02 1.60590E-03-8.70167E-15
 -1      4153 1.12310E-02 1.70925E-03-9.59890E-15
 -1      4154 1.13715E-02 1.76443E-03-9.88170E-15
 -1      4155 1.12107E-02 1.71600E-03-9.24392E-15
 -1      4156 1.15122E-02 1.81978E-03-1.01714E-14
 -1      4157 1.16533E-02 1.87526E-03-1.04649E-14
 -1      4158 1.14913E-02 1.82689E-03-9.81025E-15
 -1      4159 1.17946E-02 1.93088E-03-1.07625E-14
 -1      4160 1.19361E-02 1.98659E-03-1.10651E-14
 -1      4161 1.17731E-02 1.93834E-03-1.03932E-14
 -1      4162 1.20778E-02 2.04241E-03-1.13736E-14
 -1      4163 1.22197E-02 2.09830E-03-1.16851E-14
 -1      4164 1.20560E-02 2.05018E-03-1.09972E-14
 -1      4165 1.23617E-02 2.15426E-03-1.20033E-14
 -1      4166 1.25039E-02 2.21028E-03-1.23279E-14
 -1      4167 1.23397E-02 2.16230E-03-1.16208E-14
 -1      4168 1.26462E-02 2.26635E-03-1.26598E-14
 -1      4169 1.27886E-02 2.32246E-03-1.29963E-14
 -1      4170 1.26240E-02 2.27461E-03-1.22678E-14
 -1      4171 1.29914E-02 2.40076E-03-1.35179E-14
 -1      4172 1.21419E-02 2.16010E-03-9.63602E-15
 -1      4173 1.20006E-02 2.10310E-03-9.34585E-15
 -1      4174 1.18817E-02 2.03954E-03-9.42417E-15
 -1      4175 9.46678E-03 1.08568E-03-4.29743E-15
 -1      4176 9.29398E-03 1.01698E-03-4.25347E-15
 -1      4177 8.53488E-03 7.18231E-04-4.91686E-15
 -1      4178 1.27095E-02 2.38777E-03-1.08691E-14
 -1      4179 1.25674E-02 2.33091E-03-1.05530E-14
 -1      4180 1.27320E-02 2.37993E-03-1.12590E-14
 -1      4181 1.15783E-02 1.93206E-03-8.49131E-15
 -1      4182 1.14383E-02 1.87508E-03-8.21753E-15
 -1      4183 1.16003E-02 1.92611E-03-8.85323E-15
 -1      4184 1.74212E-03-3.97705E-05-3.82954E-16
 -1      4185 8.71197E-03 7.83618E-04-5.03205E-15
 -1      4186 2.23304E-03-5.41381E-05-6.05283E-16
 -1      4187 2.37253E-03-5.13106E-05-6.70579E-16
 -1      4188 1.27782E-03-8.92939E-05-2.62648E-16
 -1      4189 9.68460E-03 1.17337E-03-4.61442E-15
 -1      4190 9.56474E-03 1.12486E-03-4.41952E-15
 -1      4191 9.49626E-03 1.09279E-03-4.64442E-15
 -1      4192 9.70109E-03 1.17416E-03-4.90227E-15
 -1      4193 2.51163E-03-4.76653E-05-7.38775E-16
 -1      4194 2.65049E-03-4.31675E-05-8.09831E-16
 -1      4195 2.71065E-03-7.76053E-06-7.94381E-16
 -1      4196 1.34016E-02 2.64205E-03-1.29132E-14
 -1      4197 1.34069E-02 2.66238E-03-1.25558E-14
 -1      4198 1.33032E-02 2.62228E-03-1.22839E-14
 -1      4199 1.32662E-02 2.57350E-03-1.28888E-14
 -1      4200 9.24277E-03 9.96984E-04-4.46572E-15
 -1      4201 3.14755E-03 1.96232E-04-6.42959E-16
 -1      4202 1.12988E-02 1.81820E-03-7.95045E-15
 -1      4203 1.11599E-02 1.76140E-03-7.68810E-15
 -1      4204 1.13206E-02 1.81293E-03-8.30331E-15
 -1      4205 1.04338E-02 1.48526E-03-5.80718E-15
 -1      4206 1.03013E-02 1.42966E-03-5.58435E-15
 -1      4207 1.01917E-02 1.37433E-03-5.67538E-15
 -1      4208 1.04561E-02 1.48362E-03-6.12814E-15
 -1      4209 1.29339E-03-4.20415E-05-2.35922E-16
 -1      4210 1.10216E-02 1.70479E-03-7.43119E-15
 -1      4211 1.08841E-02 1.64837E-03-7.17919E-15
 -1      4212 1.10430E-02 1.70027E-03-7.77481E-15
 -1      4213 2.13876E-03 1.12473E-04-3.50197E-16
 -1      4214 1.92254E-03-2.74440E-05-4.40362E-16
 -1      4215 1.24254E-02 2.27401E-03-1.02445E-14
 -1      4216 1.22835E-02 2.21707E-03-9.93754E-15
 -1      4217 1.21643E-02 2.15304E-03-1.00152E-14
 -1      4218 1.24478E-02 2.26653E-03-1.06245E-14
 -1      4219 2.13463E-03 7.85956E-05-3.95490E-16
 -1      4220 2.13297E-03 4.43638E-05-4.40444E-16
 -1      4221 2.30498E-03 9.11610E-05-4.44021E-16
 -1      4222 1.02111E-02 1.37286E-03-5.98919E-15
 -1      4223 1.00805E-02 1.31991E-03-5.76537E-15
 -1      4224 9.96538E-03 1.26553E-03-5.85201E-15
 -1      4225 9.94994E-03 1.26750E-03-5.54694E-15
 -1      4226 9.82141E-03 1.21629E-03-5.33280E-15
 -1      4227 1.32005E-02 2.58192E-03-1.20298E-14
 -1      4228 1.30968E-02 2.54177E-03-1.17640E-14
 -1      4229 1.29768E-02 2.47695E-03-1.18308E-14
 -1      4230 1.31820E-02 2.55760E-03-1.23319E-14
 -1      4231 2.43555E-03-1.75501E-05-6.59642E-16
 -1      4232 3.08086E-03 1.67168E-04-6.80066E-16
 -1      4233 9.32691E-03 1.02512E-03-4.73346E-15
 -1      4234 9.16385E-03 9.65667E-04-4.67673E-15
 -1      4235 2.63995E-03 1.18120E-04-5.44866E-16
 -1      4236 2.47357E-03 1.04340E-04-4.94017E-16
 -1      4237 2.47191E-03 7.04190E-05-5.48525E-16
 -1      4238 3.50692E-03 1.41714E-04-1.08323E-15
 -1      4239 3.48202E-03 1.76573E-04-9.82992E-16
 -1      4240 1.07681E-02 1.58855E-03-7.26737E-15
 -1      4241 1.07473E-02 1.59229E-03-6.93159E-15
 -1      4242 1.06116E-02 1.53655E-03-6.68848E-15
 -1      4243 9.04575E-03 9.19137E-04-4.85072E-15
 -1      4244 2.06195E-03-2.56991E-05-4.96077E-16
 -1      4245 1.31450E-02 2.50890E-03-1.29325E-14
 -1      4246 1.31635E-02 2.53327E-03-1.26337E-14
 -1      4247 1.30609E-02 2.49302E-03-1.23794E-14
 -1      4248 3.31847E-03 1.61450E-04-8.74301E-16
 -1      4249 1.29690E-02 2.40924E-03-1.31137E-14
 -1      4250 8.86206E-03 8.46276E-04-4.96238E-15
 -1      4251 9.07959E-03 9.25079E-04-5.06504E-15
 -1      4252 3.79369E-03 8.05730E-05-1.40926E-15
 -1      4253 3.63758E-03 9.15975E-05-1.27490E-15
 -1      4254 2.90148E-03 1.30372E-04-6.57785E-16
 -1      4255 2.77166E-03 1.23803E-04-6.00065E-16
 -1      4256 2.77123E-03 9.08949E-05-6.64142E-16
 -1      4257 3.51250E-03 7.05794E-05-1.20935E-15
 -1      4258 3.51014E-03 1.14151E-04-1.13628E-15
 -1      4259 3.38862E-03 1.20543E-04-1.02446E-15
 -1      4260 3.38953E-03 6.45718E-05-1.12510E-15
 -1      4261 1.31071E-02 2.47826E-03-1.31576E-14
 -1      4262 1.29043E-02 2.39972E-03-1.26397E-14
 -1      4263 3.27235E-03 1.28762E-04-9.15405E-16
 -1      4264 3.20047E-03 1.45693E-04-8.20036E-16
 -1      4265 9.20836E-03 9.67902E-04-5.26602E-15
 -1      4266 9.56115E-03 1.08929E-03-5.94036E-15
 -1      4267 9.69299E-03 1.13777E-03-6.16033E-15
 -1      4268 9.90407E-03 1.22551E-03-6.27529E-15
 -1      4269 1.00366E-02 1.27650E-03-6.50355E-15
 -1      4270 1.03632E-02 1.39486E-03-7.33306E-15
 -1      4271 1.04995E-02 1.44841E-03-7.58204E-15
 -1      4272 1.07125E-02 1.54335E-03-7.72108E-15
 -1      4273 1.08501E-02 1.59826E-03-7.97722E-15
 -1      4274 1.09883E-02 1.65354E-03-8.23969E-15
 -1      4275 1.11271E-02 1.70904E-03-8.50482E-15
 -1      4276 1.12664E-02 1.76479E-03-8.77612E-15
 -1      4277 1.14061E-02 1.82068E-03-9.05124E-15
 -1      4278 1.15463E-02 1.87673E-03-9.33445E-15
 -1      4279 1.16869E-02 1.93287E-03-9.62106E-15
 -1      4280 1.18278E-02 1.98910E-03-9.90907E-15
 -1      4281 1.19689E-02 2.04539E-03-1.02071E-14
 -1      4282 1.21104E-02 2.10173E-03-1.05099E-14
 -1      4283 1.22520E-02 2.15810E-03-1.08155E-14
 -1      4284 1.23939E-02 2.21450E-03-1.11249E-14
 -1      4285 1.25359E-02 2.27091E-03-1.14417E-14
 -1      4286 1.26781E-02 2.32733E-03-1.17630E-14
 -1      4287 1.28204E-02 2.38377E-03-1.20935E-14
 -1      4288 9.43025E-03 1.06303E-03-4.86498E-15
 -1      4289 9.35696E-03 1.03060E-03-5.08155E-15
 -1      4290 9.53430E-03 1.10245E-03-4.99636E-15
 -1      4291 3.02478E-03 1.36875E-04-7.18596E-16
 -1      4292 2.60394E-03 3.68309E-05-6.67218E-16
 -1      4293 2.73897E-03 4.28055E-05-7.31294E-16
 -1      4294 2.12822E-03 5.99131E-06-4.87010E-16
 -1      4295 2.87288E-03 4.97345E-05-7.97986E-16
 -1      4296 1.04768E-02 1.48134E-03-6.45092E-15
 -1      4297 1.03433E-02 1.42670E-03-6.21832E-15
 -1      4298 1.04965E-02 1.47832E-03-6.77601E-15
 -1      4299 3.00589E-03 5.80281E-05-8.66616E-16
 -1      4300 2.29882E-03 1.83326E-05-5.45516E-16
 -1      4301 2.43604E-03 2.23433E-05-6.04687E-16
 -1      4302 9.32031E-03 1.00776E-03-5.40496E-15
 -1      4303 1.02291E-02 1.37049E-03-6.30534E-15
 -1      4304 9.89169E-03 1.22965E-03-5.96857E-15
 -1      4305 3.17250E-03 5.22606E-05-9.90026E-16
 -1      4306 3.30519E-03 6.31477E-05-1.06585E-15
 -1      4307 9.44944E-03 1.05331E-03-5.61419E-15
 -1      4308 9.57260E-03 1.10609E-03-5.53428E-15
 -1      4309 1.01887E-02 1.34686E-03-6.45531E-15
 -1      4310 1.01277E-02 1.30397E-03-6.88687E-15
 -1      4311 1.02627E-02 1.35644E-03-7.12734E-15
 -1      4312 1.29583E-02 2.45276E-03-1.21291E-14
 -1      4313 1.05757E-02 1.48877E-03-7.46801E-15
 -1      4314 3.30643E-03 9.11084E-05-1.01682E-15
 -1      4315 3.02758E-03 1.04922E-04-7.90410E-16
 -1      4316 1.03813E-02 1.41428E-03-7.04540E-15
 -1      4317 1.03222E-02 1.39996E-03-6.68977E-15
 -1      4318 3.26766E-03 1.03453E-04-9.63680E-16
 -1      4319 9.70804E-03 1.16541E-03-5.42242E-15
 -1      4320 9.69654E-03 1.16743E-03-5.12702E-15
 -1      4321 1.04219E-02 1.43893E-03-6.89283E-15
 -1      4322 9.76060E-03 1.17922E-03-5.74805E-15
 -1      4323 3.06266E-03 9.28027E-05-8.38522E-16
 -1      4324 9.64924E-03 1.14070E-03-5.42252E-15
 -1      4325 9.59140E-03 1.12595E-03-4.99384E-15
 -1      4326 1.05571E-02 1.49319E-03-7.13627E-15
 -1      4327 3.18728E-03 1.01482E-04-9.08941E-16
 -1      4328 9.52411E-03 1.09396E-03-5.21741E-15
 -3
    1PSTEP                         2           1           1          
  100CL  101 1.000000000        4328                     0    1           1
 -4  STRESS      6    1
 -5  SXX         1    4    1    1
 -5  SYY         1    4    2    2
 -5  SZZ         1    4    3    3
 -5  SXY         1    4    1    2
 -5  SYZ         1    4    2    3
 -5  SZX         1    4    3    1
 -1         1 6.34298E+00 6.87591E+00-5.38871E-01 6.77658E+00-3.39950E-13-3.68816E-13
 -1         2-7.25147E-01-2.55961E+01-3.42450E+00 4.29463E-02 7.78808E-13-2.01263E-14
 -1         3 2.00001E+01 2.48189E-04 5.85334E-05 2.50873E-04 5.42127E-13 6.24623E-13
 -1         4 2.00000E+01 1.93181E-04 3.95325E-05-1.88700E-04 1.03776E-13 7.92311E-14
 -1         5 3.25244E+01 6.09901E+00 2.69700E+00 6.17162E+00-1.57027E-14 7.89452E-13
 -1         6 3.54925E+01 1.21646E+01 5.05592E+00-8.57067E+00-7.03881E-14-1.43385E-13
 -1         7 2.08293E+01 6.09992E+00-1.17086E-01-4.65437E+00-1.13520E-14-4.80185E-13
 -1         8 1.97202E+01 5.94765E+00 5.68159E-02-3.18188E+00 2.86576E-15-4.60581E-13
 -1         9 1.91940E+01 5.78765E+00 5.23798E-02-2.41784E+00 4.88151E-15-4.06545E-13
 -1        10 1.89384E+01 5.70421E+00 5.17286E-02-1.83771E+00 1.15186E-14-3.41945E-13
 -1        11 1.87940E+01 5.65661E+00 4.89081E-02-1.34990E+00 9.69797E-15-2.84341E-13
 -1        12 1.87059E+01 5.62764E+00 4.56263E-02-9.27128E-01 1.22710E-14-2.36232E-13
 -1        13 1.86514E+01 5.60994E+00 4.27738E-02-5.35676E-01 1.14412E-14-1.88199E-13
 -1        14 1.86254E+01 5.60154E+00 4.11530E-02-1.67058E-01 9.86255E-15-1.39540E-13
 -1        15 1.86261E+01 5.60168E+00 4.09902E-02 1.93380E-01 1.32423E-14-9.66247E-14
 -1        16 1.86538E+01 5.61054E+00 4.23778E-02 5.60342E-01 1.24705E-14-4.59810E-14
 -1        17 1.87115E+01 5.62898E+00 4.52322E-02 9.49658E-01 1.34810E-14 6.39094E-15
 -1        18 1.88040E+01 5.65919E+00 4.89729E-02 1.37126E+00 1.05011E-14 8.09832E-14
 -1        19 1.89530E+01 5.70812E+00 5.22310E-02 1.86218E+00 1.40547E-14 1.69551E-13
 -1        20 1.92080E+01 5.79252E+00 5.24057E-02 2.44966E+00 1.31041E-14 2.74509E-13
 -1        21 1.97209E+01 5.96316E+00 5.25043E-02 3.21164E+00 1.08455E-14 4.21572E-13
 -1        22 2.11926E+01 6.37461E+00 1.45430E-01 4.45054E+00 8.32667E-16 6.11905E-13
 -1        23 2.29634E+01-1.37822E+00-9.39242E-01-6.92540E-01-4.47073E-14-3.54605E-13
 -1        24 1.94139E+01-9.94748E-02-3.07628E-01 6.51003E-02-7.55559E-15-5.24235E-13
 -1        25 1.88143E+01-5.68626E-02-6.85742E-02 6.13628E-02-1.51962E-15-6.43777E-13
 -1        26 1.87057E+01-2.32136E-02-7.72642E-03 3.38966E-02-1.12529E-14-7.73702E-13
 -1        27 1.88281E+01-1.32595E-02-4.08863E-04 2.41418E-02 5.17490E-16-7.94620E-13
 -1        28 1.90771E+01-7.79834E-03-5.71813E-04 1.87306E-02-5.93926E-16-7.70136E-13
 -1        29 1.93983E+01-4.43195E-03-5.84602E-04 1.56775E-02 3.72030E-15-7.29868E-13
 -1        30 1.97588E+01-1.93447E-03 2.16991E-04 1.38955E-02 6.10079E-15-7.46509E-13
 -1        31 2.01318E+01 3.69384E-04 1.82354E-03 1.26957E-02-5.41359E-15-8.84522E-13
 -1        32 2.04890E+01 2.87762E-03 4.40971E-03 1.14530E-02-1.71573E-14-1.01407E-12
 -1        33 2.07948E+01 5.76573E-03 8.17445E-03 9.44003E-03 3.92261E-14-9.99814E-13
 -1        34 2.10033E+01 8.93259E-03 1.30482E-02 5.79719E-03-3.18176E-14-1.02744E-12
 -1        35 2.10592E+01 1.19016E-02 1.83636E-02-3.27848E-04 1.78117E-14-1.04217E-12
 -1        36 2.09059E+01 1.37656E-02 2.25802E-02-9.40533E-03-8.64543E-15-9.52714E-13
 -1        37 2.05018E+01 1.33021E-02 2.32893E-02-2.09065E-02-1.36755E-14-8.65640E-13
 -1        38 1.98455E+01 9.40367E-03 1.79096E-02-3.26649E-02-2.47221E-14-8.46686E-13
 -1        39 1.90009E+01 1.80405E-03 5.18932E-03-4.07739E-02-4.14259E-14-8.47052E-13
 -1        40 1.81084E+01-8.22145E-03-1.30090E-02-4.07407E-02 3.37820E-14-8.35599E-13
 -1        41 1.73632E+01-1.78016E-02-3.12097E-02-2.99007E-02 1.73656E-14-9.51510E-13
 -1        42 1.69579E+01-2.34909E-02-4.22729E-02-9.78195E-03-2.62431E-14-1.07938E-12
 -1        43 1.70088E+01-2.30202E-02-4.12916E-02 1.36173E-02-9.42952E-15-9.65131E-13
 -1        44 1.75058E+01-1.66163E-02-2.87606E-02 3.25488E-02 1.58939E-14-8.11564E-13
 -1        45 1.83175E+01-6.87661E-03-1.02528E-02 4.16433E-02 1.99577E-14-6.91001E-13
 -1        46 1.92481E+01 2.73348E-03 7.06851E-03 4.02088E-02-5.85389E-14-9.18193E-13
 -1        47 2.01114E+01 9.59049E-03 1.83182E-02 3.14551E-02 6.10586E-14-6.36567E-13
 -1        48 2.07824E+01 1.27224E-02 2.22798E-02 1.99245E-02-4.92510E-14-4.52948E-13
 -1        49 2.12124E+01 1.26099E-02 2.05619E-02 9.26508E-03 4.00367E-14-6.97222E-13
 -1        50 2.14136E+01 1.04416E-02 1.58069E-02 1.35676E-03-6.42274E-14-8.83340E-13
 -1        51 2.14334E+01 7.43238E-03 1.03000E-02-3.45293E-03 5.65806E-14-8.55180E-13
 -1        52 2.13300E+01 4.46437E-03 5.44925E-03-5.68543E-03 7.88215E-15-6.25078E-13
 -1        53 2.11572E+01 2.01439E-03 1.83045E-03-6.14854E-03-6.39637E-14-7.35625E-13
 -1        54 2.09569E+01 2.41180E-04-5.20885E-04-5.59191E-03 1.14785E-13-7.60065E-13
 -1        55 2.07576E+01-8.89842E-04-1.82841E-03-4.57359E-03-1.20686E-13-7.50920E-13
 -1        56 2.05765E+01-1.50186E-03-2.38681E-03-3.44985E-03 4.27859E-14-7.75273E-13
 -1        57 2.04218E+01-1.73913E-03-2.46489E-03-2.41623E-03-5.27074E-14-9.19008E-13
 -1        58 2.02959E+01-1.73184E-03-2.27032E-03-1.55882E-03 6.98209E-14-7.37281E-13
 -1        59 2.01976E+01-1.58251E-03-1.94716E-03-8.97722E-04-1.51306E-14-3.76763E-13
 -1        60 2.01237E+01-1.36468E-03-1.58681E-03-4.18138E-04-8.63543E-14-1.43260E-13
 -1        61 2.00703E+01-1.12685E-03-1.24194E-03-9.01233E-05 1.15135E-13-1.32898E-13
 -1        62 2.00333E+01-8.98262E-04-9.39000E-04 1.19981E-04-5.60377E-14-6.78795E-14
 -1        63 2.00091E+01-6.94330E-04-6.87761E-04 2.43598E-04-3.44372E-14-1.72006E-13
 -1        64 1.99945E+01-5.21199E-04-4.88163E-04 3.07335E-04-7.48836E-14-7.43161E-13
 -1        65 1.99869E+01-3.79119E-04-3.34803E-04 3.32319E-04 4.02424E-15-9.15324E-13
 -1        66 1.99844E+01-2.64776E-04-2.19507E-04 3.34483E-04 9.92739E-14-9.67549E-13
 -1        67 1.99852E+01-1.72719E-04-1.32144E-04 3.25084E-04 5.36577E-14-3.92082E-13
 -1        68 1.99881E+01-9.59794E-05-5.91666E-05 3.10911E-04-1.97113E-14-1.58819E-13
 -1        69 1.99921E+01-2.72769E-05 1.93749E-05 2.91190E-04 4.62700E-14-1.76831E-13
 -1        70 1.99963E+01 2.82320E-05 1.15438E-04 2.37737E-04 1.06510E-13-3.89565E-14
 -1        71 1.99993E+01-8.65880E-06 1.79123E-04 1.20230E-04 6.06612E-14 2.85451E-14
 -1        72 2.09728E+01-4.03069E-01-9.79432E-01-3.13821E-01-1.16573E-14 8.78242E-13
 -1        73 1.93662E+01-6.62687E-02-2.89053E-01-5.39873E-02 2.62811E-16 8.81285E-13
 -1        74 1.88165E+01-2.17883E-02-6.44918E-02-1.92688E-02 5.77077E-15 9.13098E-13
 -1        75 1.87212E+01-1.19756E-02-1.15042E-02-1.35782E-02 8.83028E-15 9.37243E-13
 -1        76 1.88729E+01-8.20036E-03-3.28657E-03-9.96463E-03 2.49366E-16 9.82943E-13
 -1        77 1.91795E+01-6.80588E-03-4.23316E-03-7.31554E-03 2.17323E-15 9.91671E-13
 -1        78 1.96083E+01-6.77514E-03-6.71371E-03-5.41798E-03-3.99680E-15 9.96068E-13
 -1        79 2.01591E+01-7.65517E-03-1.00782E-02-4.28060E-03 1.72144E-14 9.69252E-13
 -1        80 2.08541E+01-9.11105E-03-1.47363E-02-4.30193E-03-2.21156E-14 9.03543E-13
 -1        81 2.17342E+01-1.06431E-02-2.08484E-02-6.40898E-03 1.36015E-14 8.06016E-13
 -1        82 2.28539E+01-1.12531E-02-2.76764E-02-1.22884E-02 2.58803E-14 6.50395E-13
 -1        83 2.42691E+01-9.00631E-03-3.22072E-02-2.45480E-02-8.01659E-15 5.36319E-13
 -1        84 2.60044E+01-6.76130E-04-2.64749E-02-4.61574E-02-2.66704E-14 6.81125E-13
 -1        85 2.79811E+01 1.76649E-02 5.35397E-03-7.73984E-02-1.95582E-14 9.09221E-13
 -1        86 2.98868E+01 4.62235E-02 8.30371E-02-1.06445E-01 2.30874E-14 8.40567E-13
 -1        87 3.10123E+01 7.12826E-02 2.02141E-01-9.34514E-02-1.65415E-14 6.58737E-13
 -1        88 3.02652E+01 5.88689E-02 2.79321E-01 2.62455E-02-2.45767E-14 7.90694E-13
 -1        89 2.68006E+01-1.61028E-02 1.44214E-01 2.68457E-01 1.50010E-15 7.05699E-13
 -1        90 2.14373E+01-9.69083E-02-2.56761E-01 4.63316E-01-4.60049E-14 9.47853E-13
 -1        91 1.74860E+01-1.00156E-01-5.97338E-01 3.07702E-01-6.84539E-14 1.11790E-12
 -1        92 1.81678E+01-3.61568E-02-5.20261E-01-1.37802E-01 1.26201E-15 1.11732E-12
 -1        93 2.24159E+01 2.51420E-02-1.53043E-01-3.86943E-01-3.20364E-15 9.42288E-13
 -1        94 2.76785E+01 5.57222E-02 1.87632E-01-3.70873E-01-3.62670E-14 4.43187E-13
 -1        95 3.07638E+01 5.28638E-02 2.66882E-01-1.76446E-01 1.39320E-14 5.33969E-13
 -1        96 3.11810E+01 3.17933E-02 1.77328E-01-1.80025E-02 7.42180E-15 5.13071E-13
 -1        97 2.99097E+01 1.01403E-02 6.39272E-02 5.43643E-02 4.86217E-14 3.17725E-13
 -1        98 2.80137E+01-3.53591E-03-4.35156E-03 6.89157E-02 2.47613E-14 2.00884E-13
 -1        99 2.61350E+01-9.85884E-03-3.09833E-02 5.95269E-02-7.63932E-14 4.32387E-13
 -1       100 2.45367E+01-1.10122E-02-3.48698E-02 4.54533E-02-9.02194E-14 1.30817E-12
 -1       101 2.32334E+01-9.67285E-03-2.88318E-02 3.05329E-02 8.24250E-14 1.02955E-12
 -1       102 2.23025E+01-8.28224E-03-2.21327E-02 2.06892E-02 9.08229E-14 4.57183E-13
 -1       103 2.16177E+01-6.49546E-03-1.60808E-02 1.38020E-02-3.70002E-14 4.48507E-13
 -1       104 2.11209E+01-4.96844E-03-1.14692E-02 9.08814E-03 1.17520E-14 7.88395E-13
 -1       105 2.07639E+01-3.73979E-03-8.11869E-03 5.92981E-03-6.31954E-16 5.07348E-13
 -1       106 2.05096E+01-2.78741E-03-5.73474E-03 3.82473E-03-4.88046E-14 6.62609E-13
 -1       107 2.03302E+01-2.06361E-03-4.04884E-03 2.42305E-03-6.76159E-14 5.76909E-13
 -1       108 2.02050E+01-1.51914E-03-2.85547E-03 1.49018E-03-3.25992E-14 7.74464E-13
 -1       109 2.01191E+01-1.11178E-03-2.00763E-03 8.70841E-04-6.53610E-14 7.36649E-13
 -1       110 2.00615E+01-8.08005E-04-1.40309E-03 4.62351E-04 1.70971E-13 2.08148E-14
 -1       111 2.00241E+01-5.82094E-04-9.71280E-04 1.96236E-04-8.36493E-14-7.96047E-13
 -1       112 2.00011E+01-4.14524E-04-6.63187E-04 2.61605E-05 8.72448E-14-6.96211E-13
 -1       113 1.99882E+01-2.90454E-04-4.44252E-04-7.97868E-05-6.24164E-14-1.98900E-13
 -1       114 1.99822E+01-1.98441E-04-2.89585E-04-1.43982E-04-8.13097E-14 1.57783E-13
 -1       115 1.99810E+01-1.29379E-04-1.80584E-04-1.82518E-04 3.03145E-14 3.70426E-13
 -1       116 1.99829E+01-7.55063E-05-1.01605E-04-2.07509E-04 6.93628E-14 7.32177E-14
 -1       117 1.99867E+01-2.95815E-05-3.55216E-05-2.28312E-04-4.25410E-14 4.52317E-13
 -1       118 1.99914E+01 1.36804E-05 3.99270E-05-2.50019E-04 6.03840E-14 4.39480E-13
 -1       119 1.99960E+01 6.12364E-05 1.46019E-04-2.64672E-04-5.34654E-14 5.34578E-13
 -1       120 1.99992E+01-2.22585E-05 1.64569E-04-1.92067E-04-2.75645E-13 1.11993E-12
 -1       121 1.99998E+01-6.88587E-04 1.24747E-04-1.69361E-04 1.19695E-12-1.59329E-13
 -1       122 1.99998E+01-3.67096E-03 8.12250E-05-2.34941E-04 1.16787E-12 4.86376E-14
 -1       123 1.99998E+01-7.55424E-03-3.99397E-05-2.15535E-04 6.97166E-13-1.79853E-13
 -1       124 1.99998E+01-1.10346E-02-9.38593E-05-1.55381E-04 1.17709E-13 2.09867E-13
 -1       125 1.99998E+01-1.36001E-02-9.81870E-05-9.37890E-05-5.35991E-15-3.22801E-13
 -1       126 1.99998E+01-1.51779E-02-8.07036E-05-4.77812E-05-1.34800E-12-3.19918E-14
 -1       127 1.99998E+01-1.59740E-02-5.65569E-05-1.60083E-05-6.34071E-13 2.11574E-13
 -1       128 1.99998E+01-1.61798E-02-3.95812E-05 2.77875E-06-2.00063E-13 1.01614E-13
 -1       129 1.99998E+01-1.59613E-02-3.54229E-05 1.55055E-05 7.56807E-14 7.07911E-14
 -1       130 1.99998E+01-1.53621E-02-4.48071E-05 3.02503E-05 3.63456E-13-2.11625E-13
 -1       131 1.99998E+01-1.42968E-02-6.29684E-05 5.56133E-05-2.15245E-13-1.00783E-13
 -1       132 1.99998E+01-1.26290E-02-8.02271E-05 9.19477E-05-9.59987E-13 2.00113E-13
 -1       133 1.99998E+01-1.01587E-02-7.92054E-05 1.44067E-04-1.08555E-12-4.35627E-14
 -1       134 1.99998E+01-6.93074E-03-3.15132E-05 2.05123E-04-2.40651E-13 1.06927E-13
 -1       135 1.99998E+01-3.44293E-03 5.77076E-05 3.02783E-04-8.72732E-14-1.42514E-13
 -1       136 1.99999E+01-7.26797E-04 1.13356E-04 1.63188E-04-2.50663E-13-1.64771E-14
 -1       137-1.60108E+00-2.24134E+01-3.33986E+00-4.41148E+00 7.40380E-13 1.84602E-13
 -1       138-2.19921E+00-1.16218E+01-2.73234E+00-4.29275E+00 1.08286E-12 5.22027E-13
 -1       139 1.25475E+00 5.91194E-01-1.68957E+00 1.40489E+00 1.23823E-12 7.91700E-13
 -1       140 1.28370E+01 9.00168E+00-2.29518E-01 1.07954E+01 5.74762E-13 6.99885E-13
 -1       141 3.26892E+01 1.03069E+01 1.51933E+00 1.79224E+01 1.87850E-13 8.43769E-14
 -1       142 5.64453E+01 6.07119E+00 3.29883E+00 1.70515E+01-1.41887E-13-3.50719E-13
 -1       143 7.14551E+01 1.70147E+00 4.36086E+00 6.57355E+00 3.26128E-16-6.13204E-13
 -1       144 7.02520E+01 2.07942E+00 4.27653E+00-8.59951E+00 3.01590E-14-5.14533E-13
 -1       145 5.30400E+01 6.99957E+00 3.05808E+00-1.81597E+01 1.18072E-13-2.92821E-13
 -1       146 2.89160E+01 1.06547E+01 1.24208E+00-1.72250E+01 5.66214E-14-2.03171E-13
 -1       147 1.02318E+01 7.88397E+00-5.04528E-01-9.14035E+00 1.72251E-13 1.79301E-14
 -1       148 7.12840E-02-2.41409E+00-1.96819E+00 1.71039E-01-4.90163E-14-3.51941E-14
 -1       149-2.38079E+00-1.52790E+01-2.95849E+00 5.02359E+00-5.79814E-13 2.30996E-13
 -1       150-1.17436E+00-2.41964E+01-3.42909E+00 3.51524E+00-7.62890E-13 1.60259E-13
 -1       151-7.22348E-01-2.52583E+01-3.41137E+00-1.11470E+00-9.19473E-13-8.81274E-14
 -1       152-1.56933E+00-1.72807E+01-2.86121E+00-4.10647E+00-8.06355E-13-1.13437E-13
 -1       153-6.27787E-01-4.38153E+00-1.84449E+00-1.26472E+00-2.13218E-13-6.56142E-14
 -1       154 2.00735E+01 1.16335E+01 8.21453E-01 1.50522E+01-2.75613E-13-3.17080E-13
 -1       155 3.81084E+01 9.99140E+00 2.01633E+00 1.89455E+01-2.48968E-14 6.36158E-14
 -1       156 5.57125E+01 4.98795E+00 2.95457E+00 1.53496E+01 9.06775E-14 3.75311E-13
 -1       157 6.59355E+01 1.24929E+00 3.43895E+00 5.10590E+00-1.13139E-14 8.56093E-13
 -1       158 6.43241E+01 1.97344E+00 3.36396E+00-7.92877E+00-1.13295E-13 9.00280E-13
 -1       159 5.14933E+01 6.34836E+00 2.72950E+00-1.67306E+01-3.24657E-13 9.75053E-13
 -1       160 3.26684E+01 1.09714E+01 1.67434E+00-1.84479E+01-5.65492E-13 9.41525E-13
 -1       161 1.49338E+01 1.10467E+01 3.83961E-01-1.27494E+01-4.29878E-13 5.49005E-13
 -1       162 3.42899E+00 4.21935E+00-9.49155E-01-4.08349E+00-1.82632E-14 5.76206E-14
 -1       163-1.37282E+00-8.06578E+00-2.16367E+00 2.72257E+00 3.92630E-13-1.30840E-13
 -1       164-1.30114E+00-1.95984E+01-3.00175E+00 3.58704E+00 6.86340E-13-1.64771E-13
 -1       165 2.10635E+01 3.67523E+00-5.59841E-02-3.51092E+00-5.74991E-14-4.11046E-13
 -1       166 2.00583E+01 4.20534E+00-4.47500E-02-2.69737E+00 1.27320E-14-3.79509E-13
 -1       167 1.95631E+01 4.49029E+00-3.10202E-02-2.07591E+00 6.12566E-14-3.38674E-13
 -1       168 1.92927E+01 4.64276E+00-2.31935E-02-1.56063E+00 8.97700E-14-2.89444E-13
 -1       169 1.91286E+01 4.73704E+00-1.88144E-02-1.11827E+00 1.13638E-13-2.34777E-13
 -1       170 1.90226E+01 4.79884E+00-1.66036E-02-7.15509E-01 1.16695E-13-1.90784E-13
 -1       171 1.89624E+01 4.83476E+00-1.54938E-02-3.42921E-01 1.35453E-13-1.37604E-13
 -1       172 1.89424E+01 4.84795E+00-1.51446E-02 1.43019E-02 1.44559E-13-9.84898E-14
 -1       173 1.89621E+01 4.83868E+00-1.54833E-02 3.70306E-01 1.53658E-13-5.43402E-14
 -1       174 1.90240E+01 4.80492E+00-1.66048E-02 7.39813E-01 1.56793E-13-1.22324E-14
 -1       175 1.91324E+01 4.74347E+00-1.88853E-02 1.13202E+00 1.53059E-13 3.88431E-14
 -1       176 1.93067E+01 4.64253E+00-2.32941E-02 1.57939E+00 1.51117E-13 1.24441E-13
 -1       177 1.95862E+01 4.47913E+00-3.20834E-02 2.10108E+00 1.49297E-13 2.06678E-13
 -1       178 2.00887E+01 4.18389E+00-4.60416E-02 2.72746E+00 1.15368E-13 3.16840E-13
 -1       179 2.11840E+01 3.44690E+00-5.83204E-02 3.43428E+00 5.75668E-14 4.56087E-13
 -1       180 2.24166E+01 1.13144E+00-3.33538E-01 2.93965E+00-5.21631E-15 5.89070E-13
 -1       181 2.20106E+01 8.50442E-01 8.43397E-04-1.88610E+00-7.59982E-14-3.64240E-13
 -1       182 2.05512E+01 1.90094E-01-9.53321E-03-6.93349E-01-5.73222E-14-3.68840E-13
 -1       183 1.98501E+01 1.05588E-01 1.38501E-02-2.09021E-01-5.00659E-14-3.46210E-13
 -1       184 1.95966E+01 5.35360E-02 1.02707E-02 2.23329E-02-9.60928E-15-3.53881E-13
 -1       185 1.95689E+01 3.03507E-02 5.42227E-03 1.47912E-01-2.87812E-15-3.46428E-13
 -1       186 1.96755E+01 1.75451E-02 2.63927E-03 2.20752E-01 1.20416E-14-3.41720E-13
 -1       187 1.98617E+01 8.65864E-03 1.18587E-03 2.61536E-01-1.33947E-14-3.49545E-13
 -1       188 2.00913E+01 4.98551E-04 2.85694E-04 2.77754E-01-4.88373E-14-3.51197E-13
 -1       189 2.03356E+01-8.98460E-03-4.34635E-04 2.69647E-01-4.34033E-14-2.89251E-13
 -1       190 2.05664E+01-2.11488E-02-1.10031E-03 2.32875E-01-2.75728E-14-2.73032E-13
 -1       191 2.07528E+01-3.64304E-02-1.70516E-03 1.60746E-01-3.75000E-14-4.41485E-13
 -1       192 2.08600E+01-5.37020E-02-2.15795E-03 4.74050E-02-3.19935E-14-4.49087E-13
 -1       193 2.08519E+01-6.94725E-02-2.31838E-03-1.07278E-01 1.66100E-15-5.05726E-13
 -1       194 2.06985E+01-7.74756E-02-2.04604E-03-2.91410E-01 2.10611E-14-5.05298E-13
 -1       195 2.03873E+01-6.96485E-02-1.29372E-03-4.75494E-01 1.30716E-14-4.32389E-13
 -1       196 1.99379E+01-3.94982E-02-1.57917E-04-6.12122E-01 9.62772E-16-4.38981E-13
 -1       197 1.94129E+01 1.23879E-02 1.09942E-03-6.46508E-01 1.32292E-14-4.22157E-13
 -1       198 1.89153E+01 7.40431E-02 2.17902E-03-5.39301E-01-1.18310E-14-3.94705E-13
 -1       199 1.85654E+01 1.24028E-01 2.86868E-03-2.92662E-01-1.01020E-13-3.70371E-13
 -1       200 1.84597E+01 1.41369E-01 3.08718E-03 3.82135E-02 4.83238E-14-3.34313E-13
 -1       201 1.86317E+01 1.18209E-01 2.82938E-03 3.61841E-01 4.34592E-14-3.52393E-13
 -1       202 1.90372E+01 6.53118E-02 2.12030E-03 5.90393E-01-4.30376E-14-4.33572E-13
 -1       203 1.95741E+01 4.77997E-03 1.01405E-03 6.77369E-01-1.78643E-14-4.73246E-13
 -1       204 2.01246E+01-4.30449E-02-2.12119E-04 6.29300E-01 1.10537E-13-2.74030E-13
 -1       205 2.05933E+01-6.83670E-02-1.27047E-03 4.90062E-01 7.95653E-15-4.27196E-13
 -1       206 2.09268E+01-7.22682E-02-1.92984E-03 3.14195E-01-3.87416E-14-4.76730E-13
 -1       207 2.11130E+01-6.18597E-02-2.11547E-03 1.46056E-01-8.88009E-14-4.01375E-13
 -1       208 2.11688E+01-4.51124E-02-1.91712E-03 1.14166E-02 4.90412E-14-4.13814E-13
 -1       209 2.11257E+01-2.79514E-02-1.48676E-03-8.10719E-02 6.54034E-14-3.32569E-13
 -1       210 2.10181E+01-1.36162E-02-9.81188E-04-1.34135E-01-4.33729E-14-3.11353E-13
 -1       211 2.08765E+01-3.21068E-03-5.12268E-04-1.55981E-01-1.25144E-13-2.70730E-13
 -1       212 2.07242E+01 3.43552E-03-1.39272E-04-1.56104E-01-5.81296E-14-4.78906E-13
 -1       213 2.05772E+01 7.05989E-03 1.20854E-04-1.42977E-01 1.06565E-13-2.79476E-13
 -1       214 2.04449E+01 8.52539E-03 2.77533E-04-1.23143E-01-2.20680E-14-1.77587E-13
 -1       215 2.03319E+01 8.59964E-03 3.52292E-04-1.01143E-01 7.15142E-14-1.97685E-13
 -1       216 2.02392E+01 7.87659E-03 3.69122E-04-7.98176E-02 1.45122E-13-1.55344E-13
 -1       217 2.01660E+01 6.77392E-03 3.49316E-04-6.07253E-02 2.17181E-14-3.91258E-13
 -1       218 2.01101E+01 5.56204E-03 3.09449E-04-4.45437E-02 1.66592E-15-1.57141E-13
 -1       219 2.00687E+01 4.40064E-03 2.61225E-04-3.13895E-02 1.11820E-13-2.14966E-13
 -1       220 2.00393E+01 3.37220E-03 2.12180E-04-2.10579E-02-1.96831E-13-1.61127E-13
 -1       221 2.00192E+01 2.50859E-03 1.66634E-04-1.31867E-02-3.60261E-13-5.22120E-13
 -1       222 2.00064E+01 1.81068E-03 1.26607E-04-7.36301E-03-8.38258E-16-5.50148E-13
 -1       223 1.99989E+01 1.26140E-03 9.25462E-05-3.18836E-03 1.03089E-13-3.88565E-13
 -1       224 1.99953E+01 8.33683E-04 6.39391E-05-3.16447E-04 3.64994E-13-3.15719E-13
 -1       225 1.99943E+01 4.94013E-04 3.99426E-05 1.52476E-03 2.58759E-13-1.25753E-13
 -1       226 1.99950E+01 1.99590E-04 2.09515E-05 2.51707E-03 9.04753E-14 9.73781E-15
 -1       227 1.99965E+01-1.13014E-04 9.54419E-06 2.72845E-03 1.24615E-13 9.78249E-14
 -1       228 1.99982E+01-5.12497E-04 1.01687E-05 2.13318E-03-2.92118E-14 2.32385E-13
 -1       229 2.10232E+01 2.75132E-01-5.01845E-02 1.09961E+00 1.85824E-14 5.28421E-13
 -1       230 2.00100E+01 1.29301E-01 8.87763E-03 3.75342E-01 1.11309E-14 4.92573E-13
 -1       231 1.96027E+01 6.44432E-02 1.31837E-02 6.71540E-02 1.84748E-15 4.63246E-13
 -1       232 1.95212E+01 3.82255E-02 8.18756E-03-9.93860E-02-4.70392E-15 4.50999E-13
 -1       233 1.96429E+01 2.84595E-02 4.56525E-03-2.09515E-01 2.14195E-15 4.67660E-13
 -1       234 1.99111E+01 2.67249E-02 2.83738E-03-2.99824E-01-1.22357E-14 4.59661E-13
 -1       235 2.03048E+01 3.02580E-02 2.07119E-03-3.90975E-01 3.02781E-14 4.80219E-13
 -1       236 2.08257E+01 3.80054E-02 1.58559E-03-4.97436E-01 1.51207E-14 4.61273E-13
 -1       237 2.14901E+01 4.91154E-02 9.37359E-04-6.30216E-01 7.57593E-14 3.93082E-13
 -1       238 2.23222E+01 6.15769E-02-2.52159E-04-7.95408E-01 7.76714E-14 3.90757E-13
 -1       239 2.33437E+01 7.00072E-02-2.21850E-03-9.87684E-01 2.53324E-14 3.84446E-13
 -1       240 2.45547E+01 6.18734E-02-4.49608E-03-1.17581E+00-7.74062E-14 3.50202E-13
 -1       241 2.58997E+01 1.26853E-02-4.75817E-03-1.27747E+00-5.07318E-14 3.49212E-13
 -1       242 2.72189E+01-1.14627E-01 1.48324E-03-1.12999E+00 5.59934E-14 3.56505E-13
 -1       243 2.81996E+01-3.39194E-01 1.73692E-02-4.96841E-01 1.72553E-14 4.71902E-13
 -1       244 2.83857E+01-5.74383E-01 2.99183E-02 7.70522E-01-1.10469E-13 4.10972E-13
 -1       245 2.73856E+01-5.35143E-01 3.62144E-04 2.31888E+00-4.48708E-14 5.26999E-13
 -1       246 2.53899E+01 1.01282E-01-8.76973E-02 2.96276E+00-9.00495E-14 5.52999E-13
 -1       247 2.37128E+01 9.29899E-01-1.58639E-01 1.47226E+00-1.33581E-13 6.25450E-13
 -1       248 2.38762E+01 9.64750E-01-1.44723E-01-1.30660E+00 2.06654E-13 4.97984E-13
 -1       249 2.55553E+01 2.79353E-01-6.35872E-02-2.89698E+00 9.74082E-14 1.23349E-13
 -1       250 2.76183E+01-4.38559E-01 1.14234E-02-2.57007E+00 1.49938E-13 5.43177E-14
 -1       251 2.86327E+01-5.82243E-01 2.71813E-02-1.07311E+00-1.04073E-13-4.64229E-14
 -1       252 2.84515E+01-3.85936E-01 1.16864E-02 2.86040E-01-2.14247E-14 1.73140E-13
 -1       253 2.74895E+01-1.54657E-01-4.16950E-03 1.02085E+00 2.00572E-13 1.56972E-13
 -1       254 2.62108E+01-8.89475E-03-7.86066E-03 1.22882E+00-5.44072E-14-1.14791E-13
 -1       255 2.49222E+01 5.53519E-02-5.57460E-03 1.14774E+00-3.55068E-13 4.30811E-13
 -1       256 2.37784E+01 7.18580E-02-2.38418E-03 9.56206E-01-2.00887E-13 6.19751E-13
 -1       257 2.27943E+01 6.65194E-02 1.14985E-04 7.39952E-01 2.37477E-13 4.27293E-13
 -1       258 2.20617E+01 5.42442E-02 1.15357E-03 5.59279E-01 2.72404E-13 3.76891E-13
 -1       259 2.14986E+01 4.20264E-02 1.48347E-03 4.14441E-01-1.81882E-13 3.73573E-13
 -1       260 2.10748E+01 3.15569E-02 1.42846E-03 3.03130E-01-3.78105E-15 5.50257E-13
 -1       261 2.07599E+01 2.33263E-02 1.22597E-03 2.19548E-01 4.49548E-14 6.34283E-13
 -1       262 2.05285E+01 1.70995E-02 9.93341E-04 1.57592E-01-1.19975E-13 5.13893E-13
 -1       263 2.03602E+01 1.24741E-02 7.79679E-04 1.12003E-01-5.86933E-14 7.07907E-13
 -1       264 2.02391E+01 9.06586E-03 6.00612E-04 7.86222E-02-8.82042E-15 7.87069E-13
 -1       265 2.01531E+01 6.56178E-03 4.57162E-04 5.42866E-02 1.95983E-13 4.93948E-13
 -1       266 2.00931E+01 4.72344E-03 3.44944E-04 3.66342E-02 5.14890E-13 7.38766E-14
 -1       267 2.00521E+01 3.37477E-03 2.58256E-04 2.39132E-02 2.61735E-13-8.23044E-14
 -1       268 2.00251E+01 2.38704E-03 1.91704E-04 1.48249E-02-6.39877E-15-4.65495E-13
 -1       269 2.00081E+01 1.66571E-03 1.40707E-04 8.40651E-03-3.60026E-13-3.93826E-13
 -1       270 1.99982E+01 1.14042E-03 1.01505E-04 3.94501E-03-8.24684E-14-1.70327E-13
 -1       271 1.99933E+01 7.57742E-04 7.10171E-05 9.16456E-04 5.63232E-14-2.48824E-14
 -1       272 1.99918E+01 4.75050E-04 4.69929E-05-1.05542E-03-1.41336E-13 2.80118E-13
 -1       273 1.99925E+01 2.54078E-04 2.88368E-05-2.22369E-03-8.61037E-14 5.42456E-13
 -1       274 1.99944E+01 5.49751E-05 1.97159E-05-2.72223E-03-1.48091E-13 5.44203E-13
 -1       275 1.99967E+01-1.82154E-04 2.28127E-05-2.55675E-03 1.35666E-13 3.52737E-13
 -1       276 1.99987E+01-5.30704E-04 3.26685E-05-1.63097E-03-2.71297E-13-5.98728E-14
 -1       277 1.99993E+01-1.87745E-03 3.66614E-06-2.24065E-03 3.00801E-14 3.36605E-14
 -1       278 1.99998E+01-3.74236E-03-1.55812E-06-2.70875E-03 1.66218E-13-3.01176E-13
 -1       279 2.00000E+01-5.53961E-03-4.12696E-07-2.42424E-03-8.76531E-14-2.86499E-13
 -1       280 2.00001E+01-6.99097E-03 2.53773E-06-1.79041E-03-8.74669E-14 1.58836E-13
 -1       281 2.00001E+01-7.94197E-03 5.32100E-06-1.11433E-03 4.37108E-15-7.02378E-13
 -1       282 2.00000E+01-8.45874E-03 6.52591E-06-5.40562E-04-4.25902E-14 1.16922E-13
 -1       283 1.99999E+01-8.63144E-03 6.43482E-06-1.27548E-04-1.06016E-13 2.36486E-13
 -1       284 1.99999E+01-8.57742E-03 6.00958E-06 1.64515E-04-7.96827E-14 2.40568E-13
 -1       285 1.99999E+01-8.36008E-03 5.74032E-06 4.24158E-04 1.69381E-13 1.90928E-13
 -1       286 2.00000E+01-7.96727E-03 5.33928E-06 7.46366E-04 3.17615E-13-2.86874E-13
 -1       287 2.00000E+01-7.33636E-03 4.17079E-06 1.18106E-03-7.61436E-14-5.70050E-13
 -1       288 2.00000E+01-6.35505E-03 1.62399E-06 1.72401E-03-1.65429E-13-1.78076E-14
 -1       289 2.00000E+01-5.00376E-03-3.46586E-06 2.24767E-03-4.44951E-14 5.08630E-13
 -1       290 1.99998E+01-3.31905E-03-3.63398E-07 2.41344E-03-2.82650E-13 5.63643E-14
 -1       291 1.99993E+01-1.75034E-03-6.77005E-06 2.70086E-03-3.18813E-13-6.36271E-14
 -1       292-1.19830E+00-1.16655E+01-1.02806E+00 2.32611E-01 4.00145E-13 5.38875E-14
 -1       293 2.22383E+00-9.18535E+00-7.89349E-01 2.95209E+00 3.99875E-13 3.45959E-13
 -1       294 8.33263E+00-6.58017E+00-6.92015E-01 4.63929E+00 4.94160E-13 2.59542E-13
 -1       295 1.76807E+01-2.80912E+00-3.26538E-01 6.44234E+00 4.50084E-13 9.82270E-14
 -1       296 2.90459E+01 7.26178E-01 1.78685E-01 7.02901E+00 3.17635E-13-1.59373E-13
 -1       297 3.98059E+01 3.48032E+00 6.15038E-01 4.78957E+00 2.31305E-13-1.49603E-13
 -1       298 4.75428E+01 6.16712E+00 1.07308E+00 2.68603E+00 1.28036E-13-1.38695E-13
 -1       299 4.92373E+01 7.31470E+00 1.15675E+00-2.24395E-01-3.34177E-14-1.74491E-13
 -1       300 4.75106E+01 5.87698E+00 1.13596E+00-3.70736E+00-9.34808E-14-9.46465E-15
 -1       301 3.83035E+01 2.99958E+00 5.47267E-01-5.20587E+00-2.90531E-14 3.22520E-14
 -1       302 2.70018E+01 1.85278E-01 8.76330E-02-7.09036E+00-2.88658E-14-1.16129E-13
 -1       303 1.65387E+01-4.18132E+00-3.43015E-01-6.25986E+00-7.18592E-14 4.80171E-15
 -1       304 7.74325E+00-7.23245E+00-5.09584E-01-5.21759E+00-2.13912E-13-2.16011E-13
 -1       305 6.68446E-01-1.04649E+01-9.42166E-01-1.94098E+00-2.79610E-13 6.31439E-15
 -1       306-1.48089E+00-1.18190E+01-1.05353E+00 1.86234E-01-3.46124E-13-6.23113E-14
 -1       307-2.52194E-01-1.08650E+01-9.66597E-01 2.19499E+00-2.45137E-13 6.55448E-14
 -1       308 4.63976E+00-7.49283E+00-6.34744E-01 4.70661E+00-2.12858E-13 1.25301E-13
 -1       309 1.32152E+01-4.12235E+00-2.70254E-01 6.88609E+00-9.49241E-14-2.01256E-13
 -1       310 2.14213E+01 4.99557E-01 3.43330E-02 7.87812E+00-1.26288E-13 7.71605E-14
 -1       311 3.12578E+01 3.19202E+00 3.87819E-01 7.58089E+00-1.16268E-13 1.54821E-13
 -1       312 3.98201E+01 5.49480E+00 7.38645E-01 6.54888E+00-1.44523E-13 1.52267E-13
 -1       313 4.50113E+01 6.71300E+00 8.78446E-01 3.18840E+00-1.94830E-13 2.62179E-13
 -1       314 4.65910E+01 7.05493E+00 8.97817E-01-3.72222E-01-1.15935E-13 2.78423E-13
 -1       315 4.19218E+01 6.69763E+00 5.86271E-01-2.91087E+00-9.23844E-14 2.68563E-13
 -1       316 3.73428E+01 4.83000E+00 5.69599E-01-6.50777E+00-1.67463E-13 2.29039E-13
 -1       317 2.83428E+01 2.76287E+00 3.17763E-01-8.18008E+00-4.78229E-14 2.67120E-13
 -1       318 1.83411E+01-5.51057E-01-9.33888E-02-7.59509E+00 1.60372E-13 2.58377E-13
 -1       319 1.01903E+01-4.87734E+00-3.94088E-01-6.32905E+00 2.89935E-13 1.05908E-13
 -1       320 2.87519E+00-8.47807E+00-7.58883E-01-3.87489E+00 3.26378E-13-1.55362E-14
 -1       321-6.23891E-01-1.00716E+01-8.13932E-01-2.05858E+00 2.30482E-13-5.62606E-14
 -1       322 2.02147E+01 3.02998E+00-1.79270E-02-1.97621E+00 3.35058E-14-2.90180E-13
 -1       323 2.08364E+01 2.20424E+00-1.74285E-02-2.24542E+00-6.63835E-15-3.11589E-13
 -1       324 1.95794E+01 3.75756E+00-1.46854E-02-1.19039E+00 1.08381E-13-2.25419E-13
 -1       325 1.94115E+01 3.93977E+00-1.29527E-02-8.18793E-01 1.41484E-13-1.81099E-13
 -1       326 1.93064E+01 4.05142E+00-1.18916E-02-4.71591E-01 1.55377E-13-1.31425E-13
 -1       327 1.92543E+01 4.10700E+00-1.13900E-02-1.41634E-01 1.72524E-13-9.70370E-14
 -1       328 1.92529E+01 4.11091E+00-1.13892E-02 1.80706E-01 1.79728E-13-5.57293E-14
 -1       329 1.93040E+01 4.06134E+00-1.18999E-02 5.06261E-01 1.84882E-13-3.11756E-14
 -1       330 1.94099E+01 3.95317E+00-1.30587E-02 8.40401E-01 1.78744E-13 9.49284E-15
 -1       331 1.95845E+01 3.76651E+00-1.51455E-02 1.20386E+00 1.85453E-13 8.46549E-14
 -1       332 1.98497E+01 3.46712E+00-1.85147E-02 1.59271E+00 1.66693E-13 1.59106E-13
 -1       333 2.02586E+01 2.98062E+00-2.25189E-02 1.98121E+00 1.43134E-13 2.19815E-13
 -1       334 2.08368E+01 2.13090E+00-2.98413E-02 2.19523E+00 8.37592E-14 3.25583E-13
 -1       335 2.11745E+01 1.18398E+00-2.40391E-02 1.81923E+00 4.57689E-14 4.10207E-13
 -1       336 2.05309E+01 4.99386E-01 8.85571E-03 8.12211E-01 2.69541E-14 3.52577E-13
 -1       337 2.05892E+01 6.87372E-01 1.25621E-02-8.98566E-01-1.93682E-14-2.64283E-13
 -1       338 2.02256E+01 3.59129E-01 7.41043E-03-3.09593E-01-2.82190E-14-2.33397E-13
 -1       339 2.00423E+01 2.05407E-01 4.38772E-03 2.82698E-02-1.43917E-15-2.26731E-13
 -1       340 1.99921E+01 1.22290E-01 2.16028E-03 2.33220E-01-1.34258E-14-2.35227E-13
 -1       341 2.00370E+01 7.04336E-02 9.98070E-04 3.58087E-01 5.86285E-15-2.29006E-13
 -1       342 2.01462E+01 3.07471E-02 3.21970E-04 4.27895E-01-1.90998E-14-2.04921E-13
 -1       343 2.02959E+01-7.83949E-03-2.15523E-04 4.51789E-01 4.39317E-14-1.45967E-13
 -1       344 2.04659E+01-5.25296E-02-7.62511E-04 4.28826E-01-1.21135E-14-1.34903E-13
 -1       345 2.06368E+01-1.07210E-01-1.35736E-03 3.51760E-01-1.31782E-13-1.24061E-13
 -1       346 2.07871E+01-1.71015E-01-1.95900E-03 2.11172E-01-7.66781E-14-1.76210E-13
 -1       347 2.08926E+01-2.35726E-01-2.44159E-03 1.56311E-03-5.62933E-14-2.65769E-13
 -1       348 2.09259E+01-2.83402E-01-2.61865E-03-2.69900E-01 2.01358E-15-2.42090E-13
 -1       349 2.08610E+01-2.86936E-01-2.26764E-03-5.73168E-01 7.04040E-14-2.83210E-13
 -1       350 2.06822E+01-2.17477E-01-1.29803E-03-8.48092E-01 6.10397E-14-2.34372E-13
 -1       351 2.03986E+01-6.11660E-02 2.21190E-04-1.00890E+00 1.79502E-14-1.67784E-13
 -1       352 2.00590E+01 1.60071E-01 1.88453E-03-9.69786E-01 2.20978E-14-1.83054E-13
 -1       353 1.97518E+01 3.81099E-01 3.27162E-03-6.89481E-01-6.28214E-14-2.23817E-13
 -1       354 1.95778E+01 5.15902E-01 4.02499E-03-2.11344E-01 1.09179E-14-2.83423E-13
 -1       355 1.96036E+01 5.04238E-01 3.99339E-03 3.36110E-01 8.50687E-15-2.62117E-13
 -1       356 1.98233E+01 3.52131E-01 3.22497E-03 7.91411E-01 4.59593E-16-3.85474E-13
 -1       357 2.01618E+01 1.28042E-01 1.72663E-03 1.03785E+00 9.73646E-15-2.60955E-13
 -1       358 2.05186E+01-8.23103E-02 7.14240E-05 1.04842E+00 5.83978E-14-2.18451E-13
 -1       359 2.08121E+01-2.20995E-01-1.34509E-03 8.75341E-01-6.30776E-14-3.27800E-13
 -1       360 2.10020E+01-2.73764E-01-2.20341E-03 6.06633E-01-3.88653E-14-2.98166E-13
 -1       361 2.10848E+01-2.58616E-01-2.41346E-03 3.24030E-01 4.84646E-14-3.06487E-13
 -1       362 2.10787E+01-2.05202E-01-2.16124E-03 8.14751E-02 7.27874E-14-1.50241E-13
 -1       363 2.10093E+01-1.39786E-01-1.64845E-03-9.68906E-02-2.32214E-14-1.14777E-13
 -1       364 2.09017E+01-7.93413E-02-1.07530E-03-2.08904E-01 1.34269E-14-1.03869E-13
 -1       365 2.07759E+01-3.18048E-02-5.64325E-04-2.64585E-01-6.18509E-14-1.69511E-13
 -1       366 2.06468E+01 1.14067E-03-1.70763E-04-2.78438E-01-7.81389E-14 7.25731E-14
 -1       367 2.05241E+01 2.11780E-02 9.61087E-05-2.64749E-01 9.98361E-14 3.15904E-13
 -1       368 2.04137E+01 3.12759E-02 2.52672E-04-2.35361E-01 6.02739E-14 4.98430E-14
 -1       369 2.03184E+01 3.44837E-02 3.25133E-04-1.99020E-01-2.19430E-15 7.23469E-14
 -1       370 2.02389E+01 3.33761E-02 3.39998E-04-1.61596E-01 1.39929E-13-3.34592E-14
 -1       371 2.01745E+01 2.98923E-02 3.19609E-04-1.26629E-01-7.42355E-15-2.53388E-14
 -1       372 2.01237E+01 2.53723E-02 2.80690E-04-9.59582E-02 1.23388E-14 9.18986E-15
 -1       373 2.00848E+01 2.06701E-02 2.34673E-04-7.02668E-02 1.18307E-13-4.71843E-14
 -1       374 2.00557E+01 1.62789E-02 1.88707E-04-4.95186E-02-5.53439E-14 1.91723E-15
 -1       375 2.00347E+01 1.24417E-02 1.46761E-04-3.32765E-02-4.22468E-13 7.17594E-14
 -1       376 2.00201E+01 9.23875E-03 1.10598E-04-2.09200E-02-4.05158E-13 5.58045E-14
 -1       377 2.00103E+01 6.65019E-03 8.05722E-05-1.17870E-02 1.33917E-13-6.55655E-14
 -1       378 2.00042E+01 4.59846E-03 5.61177E-05-5.25942E-03 2.77393E-13 1.99924E-13
 -1       379 2.00007E+01 2.97226E-03 3.61201E-05-8.12397E-04 3.98917E-13 5.08904E-14
 -1       380 1.99991E+01 1.63943E-03 2.03413E-05 1.95483E-03 4.72009E-14 9.30960E-14
 -1       381 1.99986E+01 4.39149E-04 7.79669E-06 3.32861E-03 3.05188E-14 2.96058E-14
 -1       382 1.99987E+01-6.47015E-04-1.08040E-05 3.48506E-03 2.31757E-13 1.44874E-13
 -1       383 2.01096E+01 2.51333E-01 1.13184E-02 2.55861E-01 2.45429E-14 3.30490E-13
 -1       384 1.99265E+01 1.52055E-01 6.98576E-03-6.83331E-02 2.19898E-14 2.88896E-13
 -1       385 1.99309E+01 1.10737E-01 3.97738E-03-2.83933E-01 4.54107E-15 2.65391E-13
 -1       386 2.00745E+01 9.94017E-02 2.78359E-03-4.53686E-01-7.64232E-15 2.29140E-13
 -1       387 2.03313E+01 1.07140E-01 2.56446E-03-6.14442E-01-8.11135E-15 1.89264E-13
 -1       388 2.06917E+01 1.29141E-01 2.75061E-03-7.90918E-01 4.51461E-14 2.22111E-13
 -1       389 2.11567E+01 1.61569E-01 2.98782E-03-1.00070E+00 9.37812E-14 1.99944E-13
 -1       390 2.17339E+01 1.97196E-01 2.89854E-03-1.25305E+00 6.17644E-14 2.40568E-13
 -1       391 2.24330E+01 2.19082E-01 1.95429E-03-1.54120E+00 4.80746E-14 2.51041E-13
 -1       392 2.32618E+01 1.90686E-01-3.92248E-04-1.82526E+00-1.69507E-14 1.50058E-13
 -1       393 2.42226E+01 4.46145E-02-4.09628E-03-2.00372E+00 4.43499E-14 9.36378E-14
 -1       394 2.53091E+01-3.14342E-01-7.54237E-03-1.87995E+00 1.40187E-14 1.04088E-13
 -1       395 2.64983E+01-9.47556E-01-8.09655E-03-1.15711E+00-5.00147E-14 1.24172E-13
 -1       396 2.76477E+01-1.63517E+00-7.21915E-03 4.13727E-01-7.21038E-14 2.38008E-13
 -1       397 2.83746E+01-1.64194E+00-3.43371E-02 2.56149E+00-6.49537E-14 2.74682E-13
 -1       398 2.81025E+01 2.20786E-02-1.08282E-01 3.92641E+00-1.04357E-13 3.11489E-13
 -1       399 2.72545E+01 2.49306E+00-1.59760E-01 2.30248E+00-1.66672E-13 5.23170E-13
 -1       400 2.72265E+01 2.97055E+00-1.41114E-01-1.44529E+00 2.47122E-13 3.82786E-13
 -1       401 2.79967E+01 9.75941E-01-1.03783E-01-3.69109E+00 2.55657E-13 3.05840E-13
 -1       402 2.85681E+01-1.24922E+00-4.83465E-02-3.24863E+00 1.75420E-13 1.50074E-13
 -1       403 2.81131E+01-1.77206E+00-1.82028E-02-1.16469E+00-5.03902E-14 5.62801E-14
 -1       404 2.70361E+01-1.21349E+00-1.08706E-02 6.85275E-01-9.68253E-14-1.00651E-13
 -1       405 2.58315E+01-5.04107E-01-1.22053E-02 1.66658E+00 2.37066E-13-3.90426E-14
 -1       406 2.47285E+01-4.18442E-02-6.39990E-03 1.93782E+00-4.11012E-14 1.83461E-13
 -1       407 2.37681E+01 1.71405E-01-1.40427E-03 1.81352E+00-5.15107E-13 2.84401E-13
 -1       408 2.29529E+01 2.32331E-01 1.68017E-03 1.52991E+00-1.36703E-13 1.25010E-13
 -1       409 2.22475E+01 2.20705E-01 3.20660E-03 1.20354E+00 2.09027E-13 8.13345E-15
 -1       410 2.17081E+01 1.83849E-01 3.30967E-03 9.25141E-01 2.75350E-13 3.15370E-13
 -1       411 2.12793E+01 1.44374E-01 2.89916E-03 6.96412E-01-6.14211E-14 5.07104E-13
 -1       412 2.09451E+01 1.09820E-01 2.34523E-03 5.16925E-01-4.30635E-14 3.78377E-13
 -1       413 2.06885E+01 8.20904E-02 1.81506E-03 3.79624E-01-5.56667E-14 5.59460E-13
 -1       414 2.04940E+01 6.07654E-02 1.37128E-03 2.76149E-01-6.98237E-14 5.94515E-13
 -1       415 2.03483E+01 4.47122E-02 1.02197E-03 1.98882E-01-1.57542E-13 6.29981E-13
 -1       416 2.02405E+01 3.27515E-02 7.55322E-04 1.41551E-01-5.18198E-14 6.33661E-13
 -1       417 2.01618E+01 2.38801E-02 5.54902E-04 9.92418E-02 3.82590E-13 3.16361E-13
 -1       418 2.01053E+01 1.73131E-02 4.05406E-04 6.81954E-02 4.63940E-13 1.91119E-13
 -1       419 2.00654E+01 1.24589E-02 2.94312E-04 4.55685E-02 4.16009E-13 2.59276E-13
 -1       420 2.00379E+01 8.87824E-03 2.11919E-04 2.92182E-02 3.79617E-14 2.42450E-13
 -1       421 2.00197E+01 6.24426E-03 1.50866E-04 1.75334E-02-2.18519E-13 2.15650E-13
 -1       422 2.00081E+01 4.31126E-03 1.05569E-04 9.30641E-03-2.19697E-13 4.01369E-15
 -1       423 2.00013E+01 2.89132E-03 7.16230E-05 3.64016E-03-2.12289E-13-1.07899E-13
 -1       424 1.99979E+01 1.83420E-03 4.55811E-05-1.19421E-04-1.23010E-13 1.59994E-13
 -1       425 1.99967E+01 1.01042E-03 2.50913E-05-2.42600E-03-2.48984E-13 1.19180E-13
 -1       426 1.99969E+01 2.87914E-04 9.43371E-06-3.55597E-03-5.74185E-14-1.05333E-13
 -1       427 1.99978E+01-4.63027E-04 8.48054E-07-3.61102E-03 2.65789E-13-1.41879E-13
 -1       428 1.99986E+01-1.12975E-03-5.99733E-06-3.14575E-03 1.02585E-13 1.18098E-13
 -1       429 2.00008E+01-2.32719E-03 4.85692E-06-2.80688E-03-1.71580E-13 3.24610E-13
 -1       430 2.00003E+01-2.09001E-03-1.33886E-06-3.62826E-03-1.75158E-13-5.93587E-13
 -1       431 1.99995E+01-1.81384E-03-8.98365E-06-3.75589E-03-1.49273E-14-1.42880E-13
 -1       432 2.00009E+01-2.27018E-03 7.69044E-06-1.80451E-03-5.91941E-14-4.54582E-13
 -1       433 2.00007E+01-1.99727E-03 8.59828E-06-8.98754E-04 3.94227E-13-8.12970E-14
 -1       434 2.00004E+01-1.65802E-03 7.80921E-06-2.57056E-04 3.27417E-13 4.14900E-14
 -1       435 2.00002E+01-1.39206E-03 6.62818E-06 1.33751E-04-1.18613E-13 7.69510E-14
 -1       436 2.00001E+01-1.29024E-03 6.11926E-06 3.92894E-04-3.19620E-13 2.30826E-13
 -1       437 2.00002E+01-1.37000E-03 6.42314E-06 6.83829E-04-2.48042E-13 1.18657E-13
 -1       438 2.00004E+01-1.56633E-03 6.88468E-06 1.13565E-03 1.08390E-13-5.13941E-13
 -1       439 2.00006E+01-1.77431E-03 6.29716E-06 1.81248E-03 4.52926E-13-3.60327E-15
 -1       440 2.00006E+01-1.84618E-03 3.82548E-06 2.61982E-03 3.62583E-13 1.28749E-13
 -1       441 2.00002E+01-1.72685E-03-4.89677E-06 3.33116E-03-8.88928E-14-1.76036E-13
 -1       442 1.06200E+01-5.80056E+00-1.80392E-02 6.43915E+00-1.98036E-14 1.84429E-13
 -1       443 7.86609E-01-4.83265E+00-1.01561E-01-7.59124E-01 2.93071E-13 7.20535E-14
 -1       444 2.53215E+00-5.31301E+00-1.20991E-01 3.11435E+00 2.35395E-13 1.09662E-13
 -1       445 1.76588E+01-6.42536E+00-7.74932E-02 6.39040E+00 2.57405E-13-1.98404E-13
 -1       446 2.75117E+01-5.01836E+00-2.43145E-02 3.86689E+00 2.08153E-13-2.64969E-13
 -1       447 1.98251E+01 3.47938E+00-2.04390E-02-1.59000E+00 7.58202E-14-2.63502E-13
 -1       448 3.77936E+01 3.93836E+00 1.14030E-01-1.11109E+00 2.12275E-13 5.68434E-14
 -1       449 3.75963E+01 7.14597E+00 6.81186E-02-9.08837E-01 1.83076E-13-3.73104E-14
 -1       450 3.86469E+01 6.87940E+00 1.33967E-01 8.78915E-01-1.85296E-13-1.05083E-13
 -1       451 3.74186E+01 3.33303E+00 1.10123E-01 9.36616E-01-1.26232E-13-7.85483E-15
 -1       452 3.27136E+01-2.26589E+00-2.05703E-02-1.36326E+00 8.74301E-15 5.59552E-14
 -1       453 2.66228E+01-5.14492E+00-2.03966E-02-4.32214E+00-1.87766E-14-5.53724E-14
 -1       454 1.80385E+01-6.42336E+00 1.11281E-02-6.56791E+00-1.71460E-13-8.81708E-14
 -1       455 7.33852E+00-5.08805E+00-6.34665E-03-5.69957E+00-5.63577E-14-1.55209E-13
 -1       456 2.65409E+00-4.36961E+00 1.13922E-02-2.73101E+00-6.86534E-14-8.47517E-14
 -1       457 1.58241E+00-4.05639E+00 6.15531E-03 2.04911E+00 3.46494E-14 3.61933E-14
 -1       458 5.04670E+00-5.16598E+00-4.99650E-02 5.81509E+00 6.21170E-14 2.70187E-13
 -1       459 1.31999E+01-5.51750E+00 2.70972E-02 7.74547E+00 3.35287E-14-4.25632E-14
 -1       460 2.21338E+01-4.61497E+00 1.38184E-02 6.50580E+00 8.04912E-15 9.34253E-14
 -1       461 2.79036E+01-2.25855E+00 2.41486E-04 4.54374E+00-1.31561E-13 2.21115E-13
 -1       462 3.30790E+01 1.95730E+00 3.94586E-02 1.65778E+00-8.00818E-14 8.83182E-14
 -1       463 3.54484E+01 5.51943E+00 5.61900E-02 5.29000E-01-2.70922E-13 1.49741E-13
 -1       464 3.55899E+01 8.22889E+00 2.88265E-03-1.45436E-01-1.42913E-13-2.33806E-14
 -1       465 3.53429E+01 8.09974E+00-2.34188E-03 2.24855E-01-1.59955E-13-5.61426E-14
 -1       466 3.28804E+01 3.96543E+00-1.02687E-01 4.88904E-01 8.22606E-14-1.25525E-13
 -1       467 3.18492E+01 4.93787E-01-1.98352E-02-1.52609E+00 1.98690E-13-7.07490E-14
 -1       468 2.63702E+01-2.87077E+00 2.08552E-03-5.25019E+00 2.23821E-13-5.81341E-14
 -1       469 1.92795E+01-5.00373E+00-7.90645E-03-7.14460E+00 3.51413E-13 2.58848E-13
 -1       470 1.03842E+01-5.31428E+00-1.21250E-02-7.45679E+00 3.27793E-13 2.04559E-14
 -1       471 4.61890E+00-4.54547E+00 1.40219E-02-5.52004E+00 1.83936E-13-1.49256E-13
 -1       472 3.37110E+01-1.44991E+00 3.06742E-03 9.52877E-01 1.99816E-13-2.00673E-14
 -1       473 2.05224E+01 8.79280E-01 4.18952E-03 7.86079E-01 4.01359E-14 2.18959E-13
 -1       474 1.96333E+01 3.25652E+00-5.05173E-03-5.21391E-01 1.43756E-13-1.35949E-13
 -1       475 1.97807E+01 3.04974E+00-5.57970E-03-8.06650E-01 1.24178E-13-1.65452E-13
 -1       476 1.95102E+01 3.42216E+00-4.64602E-03 2.46737E-02 1.57011E-13-6.51723E-14
 -1       477 1.95357E+01 3.39143E+00-4.72579E-03 2.89264E-01 1.67266E-13-4.28791E-14
 -1       478 1.96206E+01 3.28204E+00-5.09654E-03 5.50519E-01 1.59391E-13-3.02415E-14
 -1       479 1.97717E+01 3.07667E+00-5.72248E-03 8.19864E-01 1.72011E-13 4.09670E-14
 -1       480 1.99918E+01 2.75258E+00-6.40107E-03 1.08467E+00 1.50002E-13 1.03150E-13
 -1       481 2.02967E+01 2.26261E+00-5.65236E-03 1.31921E+00 1.25875E-13 1.56593E-13
 -1       482 2.03195E+01 5.31581E-01 5.47213E-03 2.24197E-01 4.67966E-14 1.79167E-13
 -1       483 2.04648E+01 1.01676E+00 3.09057E-03-7.67061E-01 1.96374E-14-2.17746E-13
 -1       484 3.31101E+01 3.91465E+00-1.31776E-01 2.85339E+00-2.61888E-13-5.74402E-14
 -1       485 2.03334E+01 6.00097E-01 2.05480E-03-2.55263E-01 1.84260E-15-1.71020E-13
 -1       486 2.02395E+01 3.69406E-01 1.18358E-03 8.99115E-02-2.22035E-15-1.62425E-13
 -1       487 2.02055E+01 2.27957E-01 5.60601E-04 3.18524E-01-1.90700E-14-1.63625E-13
 -1       488 2.02289E+01 1.29133E-01 2.28509E-04 4.65550E-01 1.06910E-14-1.57913E-13
 -1       489 2.03013E+01 4.53796E-02-5.36893E-07 5.49348E-01 3.88889E-14-1.70227E-13
 -1       490 2.04144E+01-4.15424E-02-2.23527E-04 5.75594E-01 5.29828E-15-1.89499E-13
 -1       491 2.05610E+01-1.43622E-01-4.77106E-04 5.40237E-01-7.93921E-14-2.39893E-13
 -1       492 2.07332E+01-2.65513E-01-7.62354E-04 4.32695E-01-1.38430E-13-1.61589E-13
 -1       493 2.09189E+01-4.00499E-01-1.04022E-03 2.40649E-01-5.30669E-14-1.11596E-13
 -1       494 2.10981E+01-5.24869E-01-1.20046E-03-4.19522E-02-2.68850E-14-6.20244E-14
 -1       495 2.12390E+01-5.94164E-01-1.14530E-03-4.02508E-01 1.16426E-14-9.50174E-14
 -1       496 2.12995E+01-5.47899E-01-7.20724E-04-7.94597E-01 6.33548E-14-1.13476E-13
 -1       497 2.12390E+01-3.31246E-01-9.70377E-05-1.12657E+00 3.77348E-14-1.41944E-13
 -1       498 2.10476E+01 6.15762E-02 6.39620E-04-1.27007E+00-9.69906E-15-1.66800E-13
 -1       499 2.07765E+01 5.45214E-01 1.11328E-03-1.10914E+00-3.11501E-14-1.75705E-13
 -1       500 2.05401E+01 9.46329E-01 1.12033E-03-6.17984E-01-5.26405E-14-1.19057E-13
 -1       501 2.04593E+01 1.08858E+00 1.37940E-03 8.52103E-02-1.91112E-15-1.01604E-13
 -1       502 2.05835E+01 8.99679E-01 1.73739E-03 7.69075E-01 1.29348E-14-1.05020E-13
 -1       503 2.08459E+01 4.75900E-01 1.16572E-03 1.21436E+00 6.19048E-14-5.87829E-14
 -1       504 2.11214E+01 4.19180E-03 6.41620E-04 1.32849E+00 1.50898E-14-2.13950E-13
 -1       505 2.13054E+01-3.55140E-01-1.35526E-04 1.15823E+00-4.00029E-14-3.04922E-13
 -1       506 2.13591E+01-5.34888E-01-8.39259E-04 8.26188E-01 1.19967E-14-1.46219E-13
 -1       507 2.12999E+01-5.53080E-01-1.10539E-03 4.55143E-01-4.15280E-14-3.65440E-14
 -1       508 2.11691E+01-4.68136E-01-1.11575E-03 1.27614E-01 1.32887E-13-2.10082E-14
 -1       509 2.10068E+01-3.39552E-01-8.98245E-04-1.18298E-01 3.89971E-14-1.01658E-13
 -1       510 2.08410E+01-2.09729E-01-6.17316E-04-2.76821E-01 6.76121E-14-7.67354E-15
 -1       511 2.06871E+01-1.01258E-01-3.55289E-04-3.59754E-01-2.96654E-14 1.01741E-13
 -1       512 2.05520E+01-2.17999E-02-1.46780E-04-3.85472E-01 4.26375E-14 3.36197E-13
 -1       513 2.04371E+01 2.97910E-02-8.85506E-07-3.72500E-01 9.54492E-14 2.59928E-13
 -1       514 2.03415E+01 5.86605E-02 8.88846E-05-3.36491E-01-7.28339E-14 2.53178E-13
 -1       515 2.02633E+01 7.09550E-02 1.34895E-04-2.89282E-01-7.38530E-14 1.36368E-13
 -1       516 2.02001E+01 7.22686E-02 1.50046E-04-2.39052E-01-3.87530E-14 8.91585E-14
 -1       517 2.01496E+01 6.70452E-02 1.45760E-04-1.90957E-01 1.11164E-13 1.59051E-13
 -1       518 2.01100E+01 5.85051E-02 1.30695E-04-1.47868E-01 1.50861E-14 2.31555E-13
 -1       519 2.00792E+01 4.88070E-02 1.10866E-04-1.11060E-01-2.21944E-13-1.09569E-14
 -1       520 2.00558E+01 3.92811E-02 9.01409E-05-8.07606E-02 1.36424E-13-1.41795E-13
 -1       521 2.00382E+01 3.06580E-02 7.07538E-05-5.65810E-02-5.40707E-14-1.15445E-13
 -1       522 2.00253E+01 2.32603E-02 5.37929E-05-3.78118E-02-3.78643E-13 1.61650E-13
 -1       523 2.00161E+01 1.71494E-02 3.95610E-05-2.36270E-02-2.95444E-13 1.65712E-13
 -1       524 2.00097E+01 1.22292E-02 2.80409E-05-1.32125E-02 2.69052E-13 1.87140E-13
 -1       525 2.00055E+01 8.31566E-03 1.88494E-05-5.83911E-03 8.51181E-14 1.93600E-13
 -1       526 2.00028E+01 5.16767E-03 1.17913E-05-9.06551E-04 3.51898E-13-6.39991E-14
 -1       527 2.00011E+01 2.52078E-03 6.82892E-06 2.04118E-03-7.46912E-15-3.48131E-15
 -1       528 2.01910E+01 2.87002E-01 1.82802E-03-4.46937E-01 2.57155E-14 1.30599E-13
 -1       529 2.02533E+01 2.72726E-01 1.49388E-03-6.90259E-01 3.12489E-14 1.14615E-13
 -1       530 2.03804E+01 2.99368E-01 1.55959E-03-9.27567E-01 2.91838E-14 6.64249E-14
 -1       531 2.05599E+01 3.56004E-01 1.78218E-03-1.18593E+00 5.13787E-14 7.28613E-14
 -1       532 2.07826E+01 4.29906E-01 1.96643E-03-1.48384E+00 4.79143E-14 1.08293E-13
 -1       533 2.10450E+01 4.96320E-01 1.88294E-03-1.82848E+00 7.00943E-14 1.40240E-13
 -1       534 2.13568E+01 5.03347E-01 1.17322E-03-2.20769E+00 1.07635E-13 1.14065E-13
 -1       535 2.17604E+01 3.51485E-01-3.96272E-04-2.57414E+00 5.50864E-14 6.19477E-14
 -1       536 2.23680E+01-1.21694E-01-1.91877E-03-2.81946E+00 1.37984E-14 3.82392E-14
 -1       537 2.33994E+01-1.09767E+00 4.06558E-04-2.73031E+00-6.33677E-14 3.61198E-14
 -1       538 2.52120E+01-2.60955E+00-7.56958E-03-1.92809E+00-1.63656E-13 1.55526E-13
 -1       539 2.79982E+01-3.88924E+00-1.70983E-03-8.89644E-02-4.32319E-14 1.10407E-13
 -1       540 3.12581E+01 3.60573E+00-1.73870E-01-3.21589E+00 3.72605E-13 2.26492E-13
 -1       541 3.08379E+01-9.71253E-01-1.21191E-01-3.50667E+00 2.41938E-13 3.17885E-13
 -1       542 2.87960E+01-3.50378E+00-4.47530E-02-1.13891E+00 1.30751E-13 3.18471E-13
 -1       543 2.62892E+01-2.93035E+00-1.77325E-03 1.13787E+00 4.39856E-14 1.58909E-13
 -1       544 2.43503E+01-1.45254E+00-7.10956E-03 2.30543E+00 4.95687E-14 2.88550E-15
 -1       545 2.31283E+01-3.52116E-01-2.64178E-03 2.63153E+00-8.52578E-14 3.17688E-13
 -1       546 2.23791E+01 2.39834E-01-7.99946E-04 2.48516E+00-2.85340E-13 3.18235E-13
 -1       547 2.18875E+01 4.64238E-01 1.23718E-03 2.14013E+00-2.49238E-13 2.49280E-14
 -1       548 2.15046E+01 4.91499E-01 2.57197E-03 1.72813E+00 4.83543E-15 8.06411E-14
 -1       549 2.12092E+01 4.33553E-01 2.72665E-03 1.36204E+00 1.67116E-13-1.43349E-14
 -1       550 2.09594E+01 3.53480E-01 2.42582E-03 1.05013E+00-1.18326E-13 2.07438E-13
 -1       551 2.07493E+01 2.76249E-01 1.97153E-03 7.97013E-01-2.02616E-15 2.50545E-13
 -1       552 2.05756E+01 2.10826E-01 1.52408E-03 5.97636E-01 1.75326E-15 4.25378E-13
 -1       553 2.04346E+01 1.58685E-01 1.14649E-03 4.43493E-01-4.66064E-14 1.72264E-13
 -1       554 2.03224E+01 1.18422E-01 8.49253E-04 3.25779E-01-1.67454E-13 2.77075E-13
 -1       555 2.02348E+01 8.78427E-02 6.23253E-04 2.36671E-01-5.78318E-14 4.14413E-13
 -1       556 2.01676E+01 6.48171E-02 4.54462E-04 1.69696E-01 4.09284E-13-6.05462E-14
 -1       557 2.01168E+01 4.75556E-02 3.29527E-04 1.19694E-01 2.71900E-13 8.80329E-14
 -1       558 2.00792E+01 3.46514E-02 2.37447E-04 8.26331E-02 4.30320E-13 2.80546E-13
 -1       559 2.00520E+01 2.50300E-02 1.69743E-04 5.53929E-02 2.08558E-13 5.46294E-13
 -1       560 2.00326E+01 1.78784E-02 1.20031E-04 3.55728E-02-1.32457E-13 3.59136E-13
 -1       561 2.00193E+01 1.25785E-02 8.35291E-05 2.13352E-02-2.59602E-13 2.41075E-13
 -1       562 2.00105E+01 8.65476E-03 5.66554E-05 1.12866E-02-8.51051E-14 3.92434E-13
 -1       563 2.00049E+01 5.73668E-03 3.63650E-05 4.38194E-03-1.70676E-13 1.60209E-13
 -1       564 2.00017E+01 3.51337E-03 2.09837E-05-1.42421E-04-1.59022E-13-1.39178E-13
 -1       565 2.00000E+01 1.71842E-03 1.44738E-05-2.82276E-03-1.76246E-13-4.02085E-13
 -1       566 1.99994E+01 6.12694E-05 1.29493E-06-3.98800E-03 6.84121E-14-4.53273E-13
 -1       567 2.00016E+01 3.51929E-03 3.59567E-06-5.95916E-04 1.52465E-13 6.63159E-14
 -1       568 2.00010E+01 4.80573E-03 4.17042E-06 1.03084E-04 4.59767E-13 3.38946E-14
 -1       569 2.00015E+01 9.22507E-04 2.48697E-06-2.90399E-03-4.73495E-14-6.83678E-14
 -1       570 2.00019E+01 2.13468E-03 1.36102E-06-1.68442E-03-1.98912E-13 1.73866E-13
 -1       571 1.77274E+01-5.29662E+00 1.01357E-01 6.24751E+00-2.31759E-15-1.32044E-13
 -1       572 2.00005E+01 5.72808E-03 3.27076E-06 3.75085E-04 2.14598E-13-1.97483E-13
 -1       573 2.00002E+01 6.11431E-03 2.72390E-06 3.51931E-04-1.12240E-13-1.90761E-14
 -1       574 2.00003E+01 5.89344E-03 2.65457E-06 2.64303E-04-2.56390E-13 3.74589E-13
 -1       575 2.00007E+01 5.13077E-03 2.80792E-06 3.52609E-04-2.00239E-13 1.08316E-13
 -1       576 2.00011E+01 3.94355E-03 1.81718E-06 7.87150E-04 3.73343E-13-2.00624E-13
 -1       577 2.00014E+01 2.59940E-03-3.99746E-07 1.59598E-03 3.91334E-13 3.61195E-14
 -1       578 2.00012E+01 1.35352E-03 1.15721E-06 2.54720E-03 4.83132E-14 4.67617E-14
 -1       579 2.44491E+01-6.14639E+00 2.08613E-02 4.33133E+00 1.95628E-13-2.85265E-13
 -1       580 2.02088E+01 3.60268E-01 3.03137E-03-1.60077E-01 3.57242E-14 1.43695E-13
 -1       581 4.58125E+00-1.60092E+00 1.79718E-01 1.53208E+00 1.86373E-13 5.27356E-16
 -1       582 5.15144E+00-1.36416E+00 1.77693E-01-3.12349E+00 2.49224E-13 1.00128E-13
 -1       583 3.06786E+01-4.25741E+00-3.90267E-02-8.30103E-02 1.32300E-13 1.93158E-13
 -1       584 1.74949E+01-5.17643E+00 8.43060E-02-7.34205E+00 2.16896E-13 2.14473E-13
 -1       585 2.01557E+01-5.41920E+00 4.45146E-02 6.61297E+00 7.45237E-15 3.02015E-14
 -1       586 2.47432E+01-5.95961E+00 1.06415E-02-4.03938E+00-7.64527E-14-1.00392E-13
 -1       587 3.28756E+01-6.74597E-01-1.09444E-01 2.59578E+00-2.55906E-14 1.79856E-14
 -1       588 1.95434E+01 3.37741E+00-4.74263E-03-2.44154E-01 1.57984E-13-1.02576E-13
 -1       589 3.17047E+01 5.81096E+00-1.75938E-01 4.30225E-01 5.44981E-14 1.00003E-13
 -1       590 1.51658E+01-4.22020E+00 1.45808E-01-6.32107E+00-1.91999E-14-1.11799E-13
 -1       591 3.28149E+01-1.67865E-01-1.44506E-01-2.89676E+00 2.56087E-13 2.34007E-13
 -1       592 3.00147E+01-4.81148E+00-3.02088E-02-8.17363E-01-3.22763E-14 5.66491E-14
 -1       593 6.55232E+00-1.83788E+00 1.81349E-01 4.59110E+00 1.41179E-13 1.99105E-13
 -1       594 7.50618E+00-2.28741E+00 1.58373E-01-4.35150E+00 4.63588E-14-1.14631E-13
 -1       595 2.45394E+01-5.06915E+00 2.04587E-02-4.99962E+00 1.84228E-13-6.57321E-14
 -1       596 4.79364E+00-1.11490E+00 1.83026E-01-5.19797E-01 1.32602E-13 1.19488E-14
 -1       597 1.17312E+01-3.39022E+00 1.50394E-01 6.94977E+00 7.35592E-14 1.12549E-14
 -1       598 2.62258E+01-4.70227E+00-7.67361E-03 3.90257E+00-8.40196E-14 1.86462E-13
 -1       599 2.97088E+01-1.64723E+00-7.84451E-02 8.74002E-01-5.74974E-14 1.30430E-13
 -1       600 3.08122E+01 2.77332E+00-1.32575E-01-1.27701E+00-1.43968E-13 1.15984E-13
 -1       601 3.06356E+01 6.47809E+00-1.63893E-01-1.30010E+00-1.46938E-13-7.37466E-14
 -1       602 3.02062E+01 7.78312E+00-1.76058E-01 7.59626E-02-1.32921E-13-1.59250E-13
 -1       603 2.97962E+01 5.91974E+00-1.90845E-01 1.46195E+00-9.38138E-15-2.81046E-13
 -1       604 2.96997E+01 7.07824E-01-1.16750E-01 1.04221E+00 4.58279E-14-1.63806E-13
 -1       605 2.87778E+01-2.72677E+00-5.57458E-02-1.57815E+00 2.31377E-13 2.89838E-14
 -1       606 1.01537E+01-3.28970E+00 1.48844E-01-6.83238E+00 1.12174E-13-1.18516E-14
 -1       607 2.04813E+01 1.79919E+00-5.66467E-03-1.39144E+00 2.16105E-14-2.47714E-13
 -1       608 2.07018E+01 1.32653E+00-8.04203E-04 1.39728E+00 6.37615E-14 2.61330E-13
 -1       609 8.93476E+00-2.93364E+00 1.46335E-01 5.24955E+00 1.55986E-14 4.76841E-14
 -1       610 1.99874E+01 2.74475E+00-6.52976E-03-1.09309E+00 8.61087E-14-2.27788E-13
 -1       611 3.04459E+01-2.42541E+00-1.08541E-01 2.41091E+00 3.72653E-14 3.61169E-14
 -1       612 2.00007E+01 4.41059E-04 7.98821E-07-3.59918E-03 2.25508E-14-9.09508E-13
 -1       613 2.00005E+01 8.52172E-04 2.17427E-06 3.12272E-03 4.53719E-14 1.92153E-13
 -1       614 2.11771E+01-4.83313E+00 6.52376E-02-5.03581E+00-4.49085E-14-1.32909E-13
 -1       615 2.79817E+01 3.13908E+00-1.28955E-01 2.12344E+00-2.82899E-14-3.08767E-13
 -1       616 1.74383E+01-4.25964E+00 7.79530E-02 6.69328E+00 3.67900E-14-5.01196E-14
 -1       617 1.97697E+01 2.71426E+00-1.45977E-03 3.13698E-01 1.39877E-13-4.54462E-14
 -1       618 1.97170E+01 2.79276E+00-1.38660E-03 1.27679E-01 1.47558E-13-4.05003E-14
 -1       619 2.00566E+01 2.24577E+00-1.61296E-03 6.52363E-01 1.34428E-13 4.31444E-14
 -1       620 2.02628E+01 1.82170E+00-2.16312E-03 7.68410E-01 1.02044E-13 1.05861E-13
 -1       621 2.04226E+01 1.15131E+00 2.87149E-03 5.87412E-01 6.66476E-14 1.09926E-13
 -1       622 9.54152E+00-2.01315E-01 1.53323E-01 3.09720E+00 1.37581E-14 2.47857E-14
 -1       623 2.03345E+01 7.83075E-01 1.31915E-03 1.00445E-01 4.31264E-14 9.13637E-14
 -1       624 2.03403E+01 7.77714E-01 3.53542E-04-1.24528E-01 6.18832E-15-1.74535E-13
 -1       625 2.03024E+01 5.05489E-01 2.00616E-04 1.86549E-01-1.50776E-14-1.27542E-13
 -1       626 2.02856E+01 3.19659E-01 8.49776E-05 4.08964E-01 9.52242E-15-1.05440E-13
 -1       627 2.03034E+01 1.75633E-01 2.31975E-05 5.61328E-01-2.30260E-15-9.00694E-14
 -1       628 2.03635E+01 4.16627E-02-3.62822E-05 6.54020E-01 1.70669E-14-1.29020E-13
 -1       629 2.04721E+01-1.05741E-01-1.11739E-04 6.87891E-01-4.59498E-14-1.37322E-13
 -1       630 2.06359E+01-2.81873E-01-2.13450E-04 6.54527E-01-6.35199E-14-9.82362E-14
 -1       631 2.08591E+01-4.89720E-01-3.43141E-04 5.37876E-01-7.25222E-14-1.54436E-14
 -1       632 2.11376E+01-7.11856E-01-4.70397E-04 3.18375E-01-2.10829E-14-2.67927E-14
 -1       633 2.14498E+01-9.00094E-01-4.18850E-04-1.77071E-02-1.04562E-14 1.26300E-14
 -1       634 2.17468E+01-9.69675E-01-2.26593E-04-4.59967E-01 4.87757E-14-2.70705E-14
 -1       635 2.19526E+01-8.12128E-01 1.99089E-04-9.48657E-01 3.01263E-14-2.80862E-14
 -1       636 2.19818E+01-3.38344E-01-9.08937E-06-1.34815E+00-2.68428E-14-3.96670E-14
 -1       637 2.18099E+01 4.15992E-01-1.69340E-04-1.46065E+00-2.91303E-14-3.47948E-14
 -1       638 2.15218E+01 1.23544E+00-1.21610E-03-1.12262E+00 3.44521E-14-6.32410E-15
 -1       639 2.13083E+01 1.76397E+00-1.81002E-03-3.61591E-01-5.68599E-15-6.96437E-14
 -1       640 2.13385E+01 1.71067E+00 3.87559E-04 5.63720E-01-1.16031E-14 2.72959E-14
 -1       641 2.15779E+01 1.12018E+00-7.69195E-04 1.27073E+00-3.83321E-14-9.73089E-14
 -1       642 2.18588E+01 3.00695E-01-7.37726E-06 1.53421E+00-2.90650E-14-2.25776E-13
 -1       643 2.20023E+01-4.06051E-01 2.53377E-04 1.37208E+00 1.99074E-14-8.09239E-14
 -1       644 2.19413E+01-8.13504E-01-2.74365E-04 9.63292E-01-6.30357E-14 2.83554E-14
 -1       645 2.17188E+01-9.18706E-01-3.12328E-04 4.95861E-01 7.42244E-14 6.95170E-14
 -1       646 2.14174E+01-8.17622E-01-5.24304E-04 9.03947E-02 1.28223E-13 1.46926E-13
 -1       647 2.11094E+01-6.18196E-01-4.25240E-04-2.04544E-01 8.65416E-14 2.15240E-13
 -1       648 2.08376E+01-4.01354E-01-2.84256E-04-3.87236E-01 1.02312E-13 1.96562E-13
 -1       649 2.06179E+01-2.12295E-01-1.65089E-04-4.77313E-01-3.25721E-14 2.21868E-13
 -1       650 2.04500E+01-6.86995E-02-7.39380E-05-4.99903E-01 1.74350E-13 3.08753E-13
 -1       651 2.03263E+01 2.84122E-02-1.34540E-05-4.78171E-01-6.85204E-14 2.46092E-13
 -1       652 2.02369E+01 8.60852E-02 2.30920E-05-4.30669E-01-1.24006E-14 6.35944E-14
 -1       653 2.01728E+01 1.13974E-01 4.26478E-05-3.70991E-01-2.17071E-13-9.42113E-14
 -1       654 2.01269E+01 1.21388E-01 4.97822E-05-3.08363E-01-3.06231E-14 2.01394E-14
 -1       655 2.00938E+01 1.16006E-01 4.93507E-05-2.48567E-01-7.30844E-14 8.17635E-14
 -1       656 2.00695E+01 1.03586E-01 4.47621E-05-1.94847E-01-4.16805E-15-7.84514E-14
 -1       657 2.00516E+01 8.81285E-02 3.82401E-05-1.48666E-01-2.36313E-13-2.41956E-13
 -1       658 2.00383E+01 7.22104E-02 3.12496E-05-1.10318E-01-1.49903E-13-2.38984E-13
 -1       659 2.00282E+01 5.73394E-02 2.46201E-05-7.93832E-02-1.63888E-14-3.77993E-13
 -1       660 2.00206E+01 4.42731E-02 1.87681E-05-5.50620E-02-1.06207E-13-4.86609E-13
 -1       661 2.00148E+01 3.32710E-02 1.38208E-05-3.64018E-02-1.81910E-13-1.51874E-13
 -1       662 2.00105E+01 2.42820E-02 9.61810E-06-2.24421E-02 1.70215E-13 4.41078E-13
 -1       663 2.00072E+01 1.70736E-02 6.26250E-06-1.23041E-02 2.50421E-13 2.71782E-13
 -1       664 2.00048E+01 1.13176E-02 7.66670E-06-5.22522E-03 3.72796E-14-6.25960E-15
 -1       665 2.00029E+01 6.61628E-03 1.14631E-06-6.29005E-04 3.22774E-13 1.39938E-13
 -1       666 2.01751E+01 5.01311E-01 5.14801E-04-8.48380E-01 6.97396E-14 3.36644E-14
 -1       667 2.74409E+01-4.88994E+00 1.74654E-03 1.36367E+00 1.80750E-13 8.72531E-14
 -1       668 2.02091E+01 5.03379E-01 4.84829E-04-5.77827E-01 7.42080E-14 5.89172E-14
 -1       669 2.01088E+01 6.55685E-01 7.05595E-04-1.40124E+00 3.85363E-14 9.66626E-14
 -1       670 2.00421E+01 7.70428E-01 7.42909E-04-1.72431E+00 7.48901E-14 5.87078E-14
 -1       671 1.99373E+01 8.55439E-01 7.05976E-04-2.09624E+00 5.81154E-14 5.47996E-14
 -1       672 1.98113E+01 8.19383E-01 5.62752E-04-2.52420E+00 9.01832E-14 7.11440E-14
 -1       673 1.97446E+01 5.01274E-01 1.32293E-03-3.00813E+00 5.87806E-14 1.12334E-13
 -1       674 1.99448E+01-3.55181E-01 6.79810E-03-3.53369E+00-5.67615E-14 9.38696E-14
 -1       675 2.08977E+01-2.00302E+00 3.85470E-02-4.00507E+00-1.00364E-13 1.38454E-13
 -1       676 2.01777E+01 2.88893E-01 3.42012E-03 3.03285E+00-2.19719E-13 3.24438E-13
 -1       677 2.01183E+01 7.47599E-01 6.91788E-04 2.53666E+00-1.01044E-13 2.89676E-13
 -1       678 2.01801E+01 8.57816E-01 8.03002E-04 2.05316E+00 1.51268E-15 8.08015E-14
 -1       679 2.02458E+01 7.92218E-01 9.85088E-04 1.64718E+00 1.60056E-13-2.02788E-13
 -1       680 2.02798E+01 6.68776E-01 9.24677E-04 1.30077E+00-9.36411E-14-7.01458E-14
 -1       681 2.02817E+01 5.37575E-01 7.81250E-04 1.01327E+00-3.86113E-14-3.90943E-14
 -1       682 2.02609E+01 4.20000E-01 6.13784E-04 7.79726E-01-1.06657E-13-4.36545E-14
 -1       683 2.02276E+01 3.22514E-01 4.66334E-04 5.93273E-01 4.04622E-14-1.26137E-13
 -1       684 2.01899E+01 2.44916E-01 3.48148E-04 4.46451E-01-2.82605E-13 1.97776E-13
 -1       685 2.01529E+01 1.84538E-01 2.57175E-04 3.32123E-01 1.11388E-13 1.31126E-13
 -1       686 2.01194E+01 1.38156E-01 1.88616E-04 2.43946E-01 2.52097E-13-1.10367E-13
 -1       687 2.00908E+01 1.02786E-01 1.37597E-04 1.76540E-01 8.91067E-14 2.49647E-13
 -1       688 2.00674E+01 7.59413E-02 9.98218E-05 1.25470E-01 1.30799E-13 5.89122E-13
 -1       689 2.00488E+01 5.56470E-02 7.19256E-05 8.71411E-02 3.14987E-13 5.80493E-13
 -1       690 2.00344E+01 4.03654E-02 5.13700E-05 5.86761E-02 2.51914E-14 5.12995E-13
 -1       691 2.00236E+01 2.89049E-02 3.62273E-05 3.77936E-02 1.09659E-13 3.80712E-13
 -1       692 2.00157E+01 2.03342E-02 2.49890E-05 2.27051E-02-2.10496E-13-1.12442E-13
 -1       693 2.00100E+01 1.39171E-02 1.60078E-05 1.20364E-02-1.36143E-13 1.43333E-13
 -1       694 2.00061E+01 9.08528E-03 9.50257E-06 4.72709E-03-4.97619E-14 6.02160E-14
 -1       695 2.00034E+01 5.29047E-03-4.59418E-06 3.29162E-05 1.02734E-13-3.65472E-13
 -1       696 2.00018E+01 2.67765E-03 3.58047E-06-2.35314E-03 1.51421E-13-7.22701E-13
 -1       697 2.00000E+01 1.40608E-02 5.98711E-07 8.31987E-04 2.85950E-13-3.12805E-13
 -1       698 2.00020E+01 3.85476E-03-5.46224E-06 1.33835E-03 2.50090E-13-4.10510E-14
 -1       699 2.00018E+01 1.08429E-02 4.98733E-07 1.41989E-03 3.83045E-14 2.39349E-13
 -1       700 2.20488E+01-4.89591E+00 3.77566E-02-5.19964E+00 3.27027E-13-1.45479E-13
 -1       701 1.99999E+01 1.41304E-02 7.36381E-07-9.87899E-06 1.13310E-14-7.30617E-14
 -1       702 2.00007E+01 1.29067E-02 8.94546E-07 1.41463E-03 1.23866E-14-5.11187E-14
 -1       703 2.00003E+01 1.31379E-02 3.44582E-07-7.22211E-04-1.30433E-13 3.13623E-13
 -1       704 2.00011E+01 1.12068E-02-1.51696E-06-1.00311E-03 2.00162E-13 4.33459E-13
 -1       705 2.00020E+01 8.64171E-03-2.29417E-06-6.38639E-04 4.31443E-13-9.75771E-14
 -1       706 2.02613E+01 5.86462E-01 8.04365E-04-2.73500E-01 5.89178E-14 1.04722E-13
 -1       707 2.62275E+01-4.34032E+00-1.53050E-02-2.45027E+00 3.41773E-13-1.86764E-13
 -1       708 8.79909E+00-9.84502E-02 1.57296E-01-2.48252E+00 1.18950E-13-4.74273E-14
 -1       709 7.93041E+00 1.45784E-01 1.58652E-01 1.92424E+00 1.27289E-13 1.92638E-13
 -1       710 2.26803E+01-4.95276E+00 6.45427E-02 4.45072E+00 8.73260E-14-9.37412E-14
 -1       711 2.06551E+01-8.26053E-01 5.80736E-03 3.53122E+00-1.05065E-13 1.88817E-13
 -1       712 2.21272E+01-2.80592E+00 5.30741E-02 3.81640E+00-1.75754E-14 4.49467E-14
 -1       713 2.01475E+01 5.57655E-01 6.00872E-04-1.11508E+00 3.48436E-14 4.62237E-14
 -1       714 2.03678E+01 1.21028E+00 8.71934E-04-5.43731E-01 4.80720E-14-2.09934E-13
 -1       715 1.51456E+01-2.80700E+00 1.05819E-01 5.62260E+00-9.06983E-14-3.25018E-14
 -1       716 2.78598E+01-2.12310E+00-5.67579E-02 1.61640E-01 3.16249E-13-1.60510E-13
 -1       717 1.30330E+01-1.55663E+00 1.25813E-01-4.93882E+00 4.50768E-14-1.27655E-13
 -1       718 1.98847E+01 2.53628E+00-1.57978E-03 4.90532E-01 1.47299E-13 1.45162E-14
 -1       719 7.88254E+00 4.99889E-01 1.60031E-01-3.71535E-01 1.49614E-13-1.34621E-13
 -1       720 9.65069E+00-9.93256E-01 1.52726E-01-4.86665E+00 3.52565E-14 5.91333E-14
 -1       721 1.64850E+01-3.64418E+00 8.50901E-02-6.57997E+00 1.61923E-13 6.93438E-14
 -1       722 1.99124E+01 2.48901E+00-1.73732E-03-4.63723E-01 1.22708E-13-1.43277E-13
 -1       723 2.69257E+01 6.18961E+00-1.49488E-01 9.41277E-01-3.12320E-14-3.44124E-13
 -1       724 2.39007E+01-5.02729E+00 2.84733E-02 4.21934E+00-2.74121E-14 4.12500E-14
 -1       725 1.14716E+01-1.11260E+00 1.30873E-01 5.08823E+00 1.39215E-13-4.41869E-14
 -1       726 2.73150E+01-3.52587E+00-3.59267E-02 1.11476E+00-1.28417E-13 1.23717E-13
 -1       727 2.84465E+01-4.34487E-01-9.32825E-02-1.19302E+00-5.39534E-14 2.10075E-14
 -1       728 2.72933E+01 3.53362E+00-1.28944E-01-2.12909E+00-7.17863E-14-2.50876E-14
 -1       729 2.71493E+01 6.27202E+00-1.51073E-01-9.35971E-01-8.60492E-14-1.10649E-13
 -1       730 2.00734E+01 2.20332E+00-2.30167E-03-6.54101E-01 9.80509E-14-1.53231E-13
 -1       731 1.97259E+01 2.77931E+00-1.56179E-03-6.42799E-02 1.39635E-13-7.73508E-14
 -1       732 1.46160E+01-1.86289E+00 7.35184E-02-5.62487E+00-5.83214E-14 4.76910E-14
 -1       733 2.00029E+01 5.06031E-03 6.87618E-06-8.55480E-04 1.57600E-14-8.93656E-14
 -1       734 2.00026E+01 7.91310E-03-2.37290E-06-7.38620E-04 1.13026E-13-3.72421E-13
 -1       735 1.54712E+01-2.22458E+00 7.08952E-02 5.61720E+00 1.36611E-13-5.02914E-14
 -1       736 1.75880E+01-2.03620E+00 8.34920E-02-4.85601E+00-4.10574E-14 7.64666E-15
 -1       737 2.72526E+01 2.76444E-01-7.54082E-02 1.75705E+00 1.08467E-13-3.11431E-13
 -1       738 2.00028E+01 8.27297E-03 2.63919E-06 7.11924E-04-3.28604E-14 1.93923E-13
 -1       739 1.97928E+01 2.67884E+00-1.67414E-03-2.62471E-01 1.20878E-13-1.01888E-13
 -1       740 2.58995E+01 4.25680E+00-9.65878E-02 1.77983E+00-1.74513E-14-4.33743E-13
 -1       741 2.03054E+01 1.68745E+00-8.53313E-04-7.95823E-01 5.93210E-14-2.24492E-13
 -1       742 2.02174E+01 1.54628E+00 2.22737E-04 3.62656E-01 6.85030E-14 6.56881E-14
 -1       743 2.02981E+01 8.94463E-01-1.67722E-05 2.41323E-02 2.43182E-14-1.41091E-13
 -1       744 2.02847E+01 6.04671E-01-4.64675E-06 2.92839E-01 2.36609E-14-9.36462E-14
 -1       745 2.02747E+01 3.89085E-01-4.61101E-07 4.99878E-01 8.42793E-15-5.24727E-14
 -1       746 2.02894E+01 2.06294E-01 1.07165E-06 6.55201E-01-1.05071E-14-8.68794E-14
 -1       747 2.03482E+01 2.17228E-02-9.53420E-06 7.63842E-01-2.04046E-16-1.20351E-13
 -1       748 2.04710E+01-1.92468E-01-3.81381E-05 8.22435E-01-2.94737E-14-9.30520E-14
 -1       749 2.06789E+01-4.54408E-01-9.65526E-05 8.17248E-01 1.04888E-14-1.93550E-14
 -1       750 2.09900E+01-7.64621E-01-2.09642E-04 7.22899E-01-1.21993E-14 6.87921E-14
 -1       751 2.14094E+01-1.09171E+00-3.80598E-04 5.04097E-01-1.01158E-14 1.27225E-13
 -1       752 2.19124E+01-1.35367E+00-1.58308E-05 1.25792E-01-2.41480E-14 3.19593E-14
 -1       753 2.24209E+01-1.40438E+00 2.28277E-04-4.15454E-01-1.53595E-14-6.49837E-14
 -1       754 2.28090E+01-1.06637E+00-9.41704E-04-1.05534E+00 1.66655E-14-2.36232E-14
 -1       755 2.29061E+01-1.83133E-01-3.32631E-03-1.56049E+00-4.98410E-14 3.91421E-14
 -1       756 2.26987E+01 1.09245E+00-1.46468E-03-1.62396E+00-5.26724E-14-5.58288E-15
 -1       757 2.22667E+01 2.29711E+00-1.19335E-02-1.01409E+00 1.26952E-13 2.71593E-15
 -1       758 2.22023E+01 2.71026E+00-1.90209E-03 1.22437E-01 7.01167E-14 1.04887E-13
 -1       759 2.23908E+01 2.14345E+00-1.02876E-02 1.20725E+00-1.18888E-13 1.02012E-13
 -1       760 2.27358E+01 9.00084E-01-4.55482E-03 1.71532E+00-1.17634E-13 1.98437E-13
 -1       761 2.29008E+01-3.30506E-01-2.41870E-03 1.56804E+00 1.04940E-13 1.14413E-13
 -1       762 2.27313E+01-1.09399E+00-1.04606E-03 1.03167E+00 1.48579E-13 2.36205E-13
 -1       763 2.23134E+01-1.35256E+00 3.75411E-04 4.18678E-01 6.98658E-14 3.92674E-13
 -1       764 2.17870E+01-1.24695E+00-4.78219E-04-7.88645E-02 8.54444E-14 4.21654E-13
 -1       765 2.12822E+01-9.63516E-01-3.10004E-04-4.08829E-01 1.09111E-13 2.28555E-13
 -1       766 2.08643E+01-6.40409E-01-1.61295E-04-5.86982E-01 9.89624E-14 2.07386E-13
 -1       767 2.05506E+01-3.53075E-01-8.12031E-05-6.53220E-01 9.33685E-14 2.41991E-13
 -1       768 2.03321E+01-1.31321E-01-2.50368E-05-6.46317E-01 3.82590E-14 3.86237E-13
 -1       769 2.01890E+01 2.16700E-02 7.67572E-07-5.96492E-01-9.66633E-14 2.15569E-13
 -1       770 2.01007E+01 1.15365E-01 1.09944E-05-5.24992E-01-1.74942E-13 2.28368E-14
 -1       771 2.00497E+01 1.63516E-01 1.70004E-05-4.45871E-01-2.20611E-13-1.30652E-13
 -1       772 2.00224E+01 1.79735E-01 1.77178E-05-3.67833E-01-3.87898E-14-2.31113E-14
 -1       773 2.00093E+01 1.75434E-01 1.60444E-05-2.95852E-01-1.30878E-13 2.21541E-14
 -1       774 2.00042E+01 1.59313E-01 1.36407E-05-2.32446E-01-1.96681E-13 1.94077E-13
 -1       775 2.00031E+01 1.37565E-01 1.10340E-05-1.78512E-01-2.30051E-13-1.01418E-13
 -1       776 2.00037E+01 1.14297E-01 8.63644E-06-1.33915E-01-3.15952E-13-2.43350E-13
 -1       777 2.00046E+01 9.20091E-02 6.54813E-06-9.79256E-02-8.45378E-14-1.80820E-14
 -1       778 2.00054E+01 7.20472E-02 4.75217E-06-6.95150E-02 2.53623E-14-9.89646E-14
 -1       779 2.00057E+01 5.49734E-02 3.29647E-06-4.75546E-02-7.71906E-15 2.03478E-13
 -1       780 2.00056E+01 4.08475E-02 1.94323E-06-3.09430E-02 1.38229E-13-2.91776E-14
 -1       781 2.00051E+01 2.94226E-02 1.10505E-06-1.86720E-02 2.02935E-13-2.44649E-13
 -1       782 2.00043E+01 2.02795E-02 3.36842E-06-9.92522E-03 4.75764E-14-2.73644E-13
 -1       783 2.00036E+01 1.34163E-02-9.58645E-07-4.46398E-03 1.74513E-13 4.56826E-14
 -1       784 1.90483E+01 1.11611E+00 6.36024E-06-1.66054E+00 4.95009E-14 8.19650E-14
 -1       785 1.94301E+01 9.69903E-01 1.67340E-04-1.38351E+00 5.90558E-14 5.65401E-14
 -1       786 1.78738E+01 1.15360E+00 1.54157E-03-2.41804E+00 1.56486E-14 1.11004E-13
 -1       787 1.71043E+01 7.46858E-01 9.44775E-03-3.04591E+00 1.13784E-14 1.60697E-13
 -1       788 1.69360E+01-2.39965E-01 3.23317E-02-3.92006E+00-5.01092E-14 5.61929E-14
 -1       789 1.07924E+01 1.12097E+00 8.36790E-02-3.79557E-01 1.30894E-13 1.27311E-13
 -1       790 1.15750E+01 6.04860E-01 8.16588E-02 2.51900E+00 9.31375E-14 1.31173E-13
 -1       791 1.45862E+01-4.12480E-01 6.46449E-02 4.12296E+00-5.60073E-14-9.53959E-14
 -1       792 2.63952E+01 7.42479E-01-6.00662E-02-1.97094E+00-3.49859E-14 4.59580E-14
 -1       793 1.79059E+01 1.06005E+00-7.96660E-04 2.54264E+00-1.04132E-13-1.45835E-13
 -1       794 1.93939E+01 1.01036E+00 2.11194E-04 1.31753E+00 9.16505E-14 9.18442E-14
 -1       795 1.96433E+01 8.32756E-01 2.21612E-04 1.05856E+00-2.20019E-14-1.04522E-13
 -1       796 1.98070E+01 6.65931E-01 1.80627E-04 8.41149E-01-6.80189E-14-6.47849E-14
 -1       797 1.99094E+01 5.22286E-01 1.38869E-04 6.60162E-01 3.00027E-14-8.44085E-14
 -1       798 1.99700E+01 4.04240E-01 1.05114E-04 5.11493E-01-2.34042E-13 2.98656E-13
 -1       799 2.00033E+01 3.09876E-01 7.86127E-05 3.91099E-01-1.16955E-13 2.91382E-14
 -1       800 2.00197E+01 2.35695E-01 5.78704E-05 2.94898E-01 2.14910E-13 2.35452E-13
 -1       801 2.00260E+01 1.77976E-01 4.23049E-05 2.19003E-01 1.63926E-13 3.54292E-13
 -1       802 2.00267E+01 1.33382E-01 3.07755E-05 1.59864E-01-1.31424E-13 2.02487E-13
 -1       803 2.00244E+01 9.91247E-02 2.22519E-05 1.14343E-01 3.18725E-13 2.17933E-13
 -1       804 2.00210E+01 7.29478E-02 1.59478E-05 7.97396E-02 2.92287E-13 3.48935E-13
 -1       805 2.00172E+01 5.30540E-02 1.13576E-05 5.37854E-02 5.57835E-14 2.10239E-13
 -1       806 2.00135E+01 3.80095E-02 8.30386E-06 3.46050E-02-4.97677E-14 4.67182E-13
 -1       807 2.00103E+01 2.66536E-02 6.18449E-06 2.06798E-02-1.64202E-13 5.93752E-13
 -1       808 2.00076E+01 1.80661E-02 3.70690E-06 1.08879E-02 1.24405E-13 5.74172E-14
 -1       809 2.00053E+01 1.16151E-02 8.03867E-06 4.16606E-03 3.96318E-13-1.99507E-13
 -1       810 2.41837E+01-4.21742E+00 1.71415E-02-2.85582E+00 4.45984E-13-3.95493E-13
 -1       811 1.99989E+01 2.28148E-02 7.69548E-07-1.55792E-03 3.10135E-13 2.67979E-13
 -1       812 2.00017E+01 1.68629E-02 1.86082E-07-3.77816E-03-1.11323E-13 2.53625E-13
 -1       813 2.47488E+01 4.02221E+00-7.10667E-02-1.43158E+00 5.90309E-14-7.03552E-14
 -1       814 1.99986E+01 2.36115E-02 2.05645E-07 4.89252E-04 4.96133E-14-3.39175E-13
 -1       815 2.02842E+01 1.31428E+00 6.12769E-05-3.13625E-01 4.68185E-14-1.46024E-13
 -1       816 2.00000E+01 2.04622E-02-2.03940E-06-3.13108E-03 1.37032E-13 4.98401E-13
 -1       817 1.73141E+01 4.20347E-01 1.57000E-02 3.29212E+00-1.97698E-13-1.64791E-13
 -1       818 1.26239E+01 2.14947E-01 8.18577E-02-3.32228E+00 6.35056E-14-6.99302E-14
 -1       819 1.90340E+01 1.16666E+00 1.07202E-04 1.62739E+00 2.11914E-13 2.57434E-14
 -1       820 1.85307E+01 1.23375E+00-2.14800E-04 2.01987E+00-8.77060E-14-6.33456E-14
 -1       821 1.85330E+01 1.21497E+00 3.83234E-04-1.99039E+00 2.93169E-14 1.25664E-13
 -1       822 2.00563E+01 7.26079E-01 8.67094E-05-6.41750E-01 7.28130E-14 9.79737E-14
 -1       823 2.58531E+01-3.33442E+00-1.92057E-02-7.63390E-01 5.37306E-13-1.18612E-13
 -1       824 2.43762E+01 4.89926E+00-7.83181E-02-2.05047E-02 1.60573E-13-2.48473E-13
 -1       825 2.06416E+01-3.83104E+00 4.25126E-02 4.83022E+00 3.97200E-14-2.92960E-14
 -1       826 1.10990E+01 1.09685E+00 9.28408E-02 1.32293E+00-1.69292E-14-2.00517E-13
 -1       827 1.97454E+01-3.71942E+00 4.03169E-02-5.27747E+00 3.20704E-13-3.34201E-13
 -1       828 2.03111E+01 1.15090E+00 1.28216E-04 2.50442E-01 5.39593E-14 1.13691E-13
 -1       829 2.51794E+01-3.97716E+00-1.85435E-02 1.74830E+00-5.88368E-14 1.11701E-13
 -1       830 2.67039E+01-1.84871E+00-3.73930E-02-8.06126E-01-2.52541E-14 9.89278E-14
 -1       831 2.02047E+01 1.73250E+00-9.33174E-05-4.98258E-01 7.77541E-14-1.38423E-13
 -1       832 1.98612E+01 2.23609E+00-2.10495E-04 1.53638E-01 1.06493E-13-4.75975E-14
 -1       833 1.05463E+01 5.86211E-01 9.38902E-02-2.61339E+00 6.33564E-14 3.43250E-13
 -1       834 1.98494E+01 2.26102E+00-3.96200E-05 4.84201E-02 1.01487E-13-2.54224E-14
 -1       835 1.37108E+01-1.98199E-01 4.36790E-02-3.98542E+00 7.43875E-14 1.65111E-13
 -1       836 2.28063E+01-3.72265E+00 7.79164E-03 3.00362E+00-3.97768E-14 4.57575E-14
 -1       837 2.01703E+01 7.97315E-01-3.20633E-05-3.64926E-01 8.09522E-14 7.56822E-14
 -1       838 2.00482E+01 2.04895E+00-6.65924E-04-3.71353E-01 9.60101E-14-1.41555E-13
 -1       839 2.00654E+01 1.87922E+00 3.05802E-04 3.21120E-01 1.01140E-13 7.49517E-15
 -1       840 1.97067E+01 8.35037E-01 1.51159E-04-1.13274E+00 9.56092E-15-1.38972E-14
 -1       841 2.44904E+01 2.08230E+00-3.21426E-02-1.97937E+00 2.29105E-14-7.64172E-14
 -1       842 1.38065E+01-2.48473E-01 4.06972E-02 3.88144E+00 7.46738E-14-9.50490E-14
 -1       843 2.00009E+01 2.02387E-02-3.76977E-06 3.80270E-03-1.09208E-13 1.90259E-13
 -1       844 2.02530E+01 9.23123E-01 2.52609E-05-8.67525E-02 4.87752E-14 8.59151E-14
 -1       845 1.99993E+01 2.27042E-02-1.43300E-06 2.45492E-03-8.41228E-14 5.38643E-14
 -1       846 1.99074E+01 7.45935E-01 1.24335E-04-8.91805E-01 7.34730E-14 4.02962E-14
 -1       847 2.00027E+01 1.54241E-02 2.94467E-05-4.28693E-03-6.69416E-14-1.53412E-13
 -1       848 2.00027E+01 1.66616E-02-5.30578E-06 4.18531E-03-4.96566E-15 2.03545E-13
 -1       849 2.59838E+01-1.70585E+00-3.76854E-02 8.95891E-01 3.13861E-13-1.22010E-13
 -1       850 1.99199E+01 2.27250E+00-8.09172E-04-2.21943E-01 1.00811E-13-1.34867E-13
 -1       851 2.58034E+01 1.97593E+00-6.36405E-02 2.13794E+00-1.87697E-14-2.90032E-13
 -1       852 1.99371E+01 2.10960E+00 1.16970E-04 2.46752E-01 1.25325E-13-1.02384E-14
 -1       853 1.33654E+01 1.15799E+00 4.08644E-02-1.91423E+00 6.31509E-14 4.23082E-14
 -1       854 2.02089E+01 6.72355E-01-1.89572E-05 3.90132E-01 5.65668E-14-5.30685E-14
 -1       855 2.01903E+01 4.41720E-01-4.97937E-06 5.84938E-01-1.83561E-14-5.56898E-14
 -1       856 2.01940E+01 2.30414E-01 1.99617E-05 7.52009E-01-3.05943E-14-7.38690E-14
 -1       857 2.02488E+01 4.75734E-04 7.87084E-06 8.94066E-01-1.44945E-14-1.04419E-13
 -1       858 2.03879E+01-2.80885E-01-1.27778E-05 1.00541E+00 1.66502E-14-8.24892E-14
 -1       859 2.06492E+01-6.36870E-01-6.79301E-05 1.06673E+00 5.07205E-14-5.87275E-14
 -1       860 2.10710E+01-1.06872E+00-2.47513E-04 1.03870E+00 1.25385E-14-3.46588E-14
 -1       861 2.16777E+01-1.53163E+00-4.37422E-04 8.56067E-01-5.18095E-14-3.63624E-14
 -1       862 2.24526E+01-1.90041E+00 4.85239E-04 4.27564E-01-1.94824E-14 2.20826E-14
 -1       863 2.32291E+01-1.89345E+00-7.58000E-03-2.52892E-01-8.65627E-15-1.26147E-14
 -1       864 2.39562E+01-1.31035E+00-4.26589E-03-1.14872E+00-4.94695E-14-9.26725E-14
 -1       865 2.40624E+01 2.73155E-01-7.67803E-03-1.79816E+00-2.87079E-14-1.80750E-13
 -1       866 2.38262E+01 1.94672E+00-1.51795E-02 1.86086E+00-3.31536E-14-4.21110E-14
 -1       867 2.40726E+01-7.04568E-02-9.48560E-03 1.79751E+00 1.87127E-14 7.99296E-15
 -1       868 2.37558E+01-1.35206E+00-1.37076E-03 1.03977E+00 2.62986E-13 1.55104E-13
 -1       869 2.30631E+01-1.89895E+00-5.42524E-04 1.83636E-01 1.71316E-13 3.22939E-13
 -1       870 2.22321E+01-1.76658E+00-5.08112E-04-4.32136E-01-3.06764E-15 3.05522E-13
 -1       871 2.14633E+01-1.36480E+00-3.15886E-04-7.85718E-01-3.37830E-14 2.02739E-13
 -1       872 2.08636E+01-9.05343E-01-1.34656E-04-9.19625E-01-5.35803E-15 2.70191E-13
 -1       873 2.04413E+01-5.00615E-01-8.14471E-05-9.18773E-01 6.62417E-14 1.61460E-13
 -1       874 2.01685E+01-1.90372E-01-9.02024E-06-8.45225E-01 1.35580E-13 1.60153E-13
 -1       875 2.00079E+01 2.34122E-02 1.18575E-05-7.39555E-01-1.28143E-13 6.93048E-14
 -1       876 1.99245E+01 1.55254E-01 8.59849E-06-6.25331E-01-1.95124E-13 1.00319E-13
 -1       877 1.98909E+01 2.24280E-01 1.32141E-05-5.15406E-01-2.88448E-13-3.60610E-14
 -1       878 1.98868E+01 2.49174E-01 1.11099E-05-4.16112E-01 7.58964E-14-5.13832E-14
 -1       879 1.98981E+01 2.45484E-01 7.68140E-06-3.29781E-01-2.85354E-14 2.17752E-14
 -1       880 1.99162E+01 2.24935E-01 5.13299E-06-2.56795E-01-3.28765E-14 7.13020E-14
 -1       881 1.99356E+01 1.95995E-01 3.16854E-06-1.96482E-01-3.12333E-13 3.37878E-15
 -1       882 1.99536E+01 1.64379E-01 1.94798E-06-1.47585E-01-3.16179E-13 2.08956E-13
 -1       883 1.99686E+01 1.33638E-01 1.18723E-06-1.08614E-01-1.29256E-13 1.66065E-13
 -1       884 1.99804E+01 1.05760E-01 5.65811E-07-7.80556E-02 5.53246E-14 2.10398E-13
 -1       885 1.99891E+01 8.16526E-02 8.09402E-09-5.44794E-02-3.92828E-14 2.69649E-14
 -1       886 1.99951E+01 6.15091E-02-4.85850E-07-3.65977E-02-2.37195E-14-2.24526E-13
 -1       887 1.99989E+01 4.51121E-02 1.98976E-06-2.33106E-02 1.11446E-13-2.15128E-14
 -1       888 2.00011E+01 3.18585E-02-2.06633E-05-1.36226E-02 1.85325E-13 4.32416E-13
 -1       889 1.86524E+01 1.23029E+00-3.54347E-05-1.09008E+00 2.91793E-14 6.26220E-14
 -1       890 1.57153E+01 1.47907E+00 1.03842E-02-1.72597E+00 8.46415E-15 1.07728E-13
 -1       891 1.89277E+01 1.10181E+00-5.54317E-07 8.88523E-01 1.16862E-13 6.36536E-14
 -1       892 1.96907E+01 5.73276E-01 1.17974E-05 4.95003E-01-2.44446E-13-4.60262E-14
 -1       893 1.98036E+01 4.48170E-01 1.12978E-05 3.92856E-01-4.90756E-14-4.95901E-14
 -1       894 1.98788E+01 3.47072E-01 8.00906E-06 3.06250E-01 2.35411E-14-7.24671E-14
 -1       895 1.99282E+01 2.66455E-01 5.05222E-06 2.34449E-01 1.10237E-13 2.24772E-13
 -1       896 1.99600E+01 2.02803E-01 3.19336E-06 1.76137E-01 2.82006E-13 2.90155E-13
 -1       897 1.99802E+01 1.52955E-01 2.16900E-06 1.29652E-01 2.39054E-13 6.12801E-14
 -1       898 1.99925E+01 1.14201E-01 1.51551E-06 9.32305E-02 1.80237E-13-7.79281E-14
 -1       899 1.99996E+01 8.42879E-02 1.17846E-06 6.51734E-02 6.03439E-14 1.05855E-13
 -1       900 2.00034E+01 6.13640E-02 8.37410E-07 4.39284E-02 4.64525E-14 2.76628E-13
 -1       901 2.00050E+01 4.38601E-02 2.68061E-06 2.81341E-02-1.30793E-14 2.80742E-14
 -1       902 2.00053E+01 3.04924E-02-2.42055E-05 1.65901E-02 3.21498E-13-2.99778E-13
 -1       903 2.00047E+01 2.05377E-02 1.62289E-05 8.54969E-03 2.01876E-13-3.23901E-13
 -1       904 2.18160E+01-3.33697E+00 1.58932E-02-3.39027E+00 3.47823E-13-3.19810E-13
 -1       905 1.54168E+01 1.40033E+00 2.50193E-02 1.90098E+00-1.93470E-13-2.76612E-13
 -1       906 1.34901E+01 1.32758E+00 3.80304E-02 1.72556E+00-1.11380E-13-1.02300E-13
 -1       907 2.02025E+01 1.35954E+00 4.96954E-07-1.09473E-01 4.38856E-14-7.35359E-14
 -1       908 1.84286E+01 1.30562E+00-1.59827E-04 1.04715E+00 3.07938E-14-1.37656E-13
 -1       909 1.95235E+01 7.24845E-01 9.09336E-06 6.12543E-01-3.38553E-14-1.93457E-13
 -1       910 2.41788E+01-3.29050E+00-9.43734E-03-1.25870E+00 3.65429E-13 9.50656E-14
 -1       911 2.01381E+01 1.68527E+00-9.76574E-05-2.47160E-01 6.71121E-14-1.30786E-13
 -1       912 1.98662E+01 2.29797E+00-5.50304E-04-7.01464E-02 9.75442E-14-7.00679E-14
 -1       913 1.82247E+01-2.27603E+00 3.70875E-02 4.66072E+00 8.04391E-14-1.04092E-13
 -1       914 1.27153E+01 1.42232E+00 3.48170E-02-7.71605E-01-6.51131E-14 1.37338E-14
 -1       915 1.92793E+01 9.02806E-01 2.40336E-06 7.44160E-01 9.16273E-14-9.95345E-14
 -1       916 1.75995E+01-2.07712E+00 3.27025E-02-4.80891E+00 1.55032E-13-5.00314E-13
 -1       917 2.01961E+01 1.22573E+00-7.85398E-05 4.61853E-02 6.44233E-14 3.03480E-14
 -1       918 2.52594E+01-8.36886E-01-2.26584E-02-1.51185E+00-6.14309E-15 5.55962E-14
 -1       919 2.50210E+01-2.70171E+00-3.45394E-03 6.20276E-02-8.22120E-14 9.53261E-14
 -1       920 1.99960E+01 3.45118E-02-3.88025E-06-1.46035E-03 3.89689E-13 1.93196E-13
 -1       921 1.28654E+01 1.34391E+00 3.26747E-02 6.85120E-01 4.02415E-14 1.36472E-13
 -1       922 2.02226E+01 9.63189E-01-1.74954E-05 1.59973E-01 5.50983E-14-8.25496E-14
 -1       923 1.42318E+01 9.70889E-01 1.70434E-02-2.12371E+00-9.54911E-16 1.97335E-13
 -1       924 2.36770E+01-3.17288E+00-1.08235E-03 1.35866E+00-9.70586E-14 9.40622E-14
 -1       925 1.99927E+01 9.68950E-01-5.08923E-04-3.87535E-01 6.04580E-14-1.86520E-14
 -1       926 2.33269E+01 3.27309E+00-2.87226E-02 1.15037E+00 2.21351E-15 1.25941E-14
 -1       927 1.91600E+01 1.07459E+00 1.75404E-05-9.43683E-01-1.29778E-14 4.17830E-14
 -1       928 1.79597E+01 1.39208E+00-5.05656E-04-1.23419E+00 3.28603E-14 2.87472E-14
 -1       929 2.00023E+01 2.27648E-02 3.68870E-06-8.40088E-03 2.55887E-13 2.53068E-13
 -1       930 1.70173E+01 1.50747E+00 3.59290E-03-1.42836E+00 3.85131E-14 8.34596E-14
 -1       931 1.67424E+01 1.56483E+00 9.78914E-04 1.49357E+00-2.13850E-14-1.91230E-13
 -1       932 2.46797E+01-2.44545E+00-1.40286E-02 2.17498E-01 3.47114E-13 1.31119E-14
 -1       933 1.39465E+01 8.39254E-01 1.97714E-02 2.10543E+00-1.64636E-14 3.36935E-14
 -1       934 1.99963E+01 3.45007E-02-1.82123E-06 2.35755E-03-2.11821E-13 1.24182E-13
 -1       935 1.97997E+01 9.21751E-01 1.09185E-04-6.03159E-01 8.37361E-14 2.86099E-14
 -1       936 2.00126E+01 1.92675E+00 3.88410E-04-1.49282E-01 8.82552E-14-1.49254E-13
 -1       937 2.00011E+01 2.75987E-02-1.29247E-05 7.94306E-03-7.84067E-14 1.73153E-13
 -1       938 1.77215E+01 1.48012E+00 1.19290E-04 1.23449E+00 4.23062E-14-3.55089E-13
 -1       939 2.07035E+01-2.79971E+00 8.22312E-03 3.58987E+00 2.68080E-15-1.05743E-13
 -1       940 1.99983E+01 3.20379E-02 3.32227E-06 5.77346E-03-2.41977E-13 1.39922E-13
 -1       941 1.99300E+01 1.77204E+00-1.27688E-04 9.92064E-02 8.76106E-14 5.12619E-15
 -1       942 1.99029E+01 1.82959E+00-5.61077E-06 8.60066E-02 6.96972E-14-2.14016E-14
 -1       943 1.99973E+01 3.21677E-02-1.34376E-06-4.89748E-03 3.45146E-13 1.87683E-13
 -1       944 2.00002E+01 2.66473E-02 1.00557E-05-7.24613E-03 6.83722E-14 3.38563E-13
 -1       945 2.00326E+01 4.92758E-01 2.01822E-05 6.55787E-01-1.22954E-14-3.44806E-14
 -1       946 2.00068E+01 2.67170E-01 4.47689E-05 8.49681E-01 2.74455E-14 3.25623E-14
 -1       947 2.00378E+01 4.19329E-03-3.41635E-05 1.04947E+00 1.07657E-14 1.67442E-14
 -1       948 2.01730E+01-3.37626E-01-1.01310E-05 1.25090E+00 3.96583E-14 3.31629E-14
 -1       949 2.04711E+01-7.91727E-01 1.00557E-04 1.43098E+00 2.41504E-14 5.69891E-14
 -1       950 2.10021E+01-1.36854E+00 3.11832E-04 1.53603E+00-4.71494E-14 9.87611E-15
 -1       951 2.18160E+01-2.01123E+00 3.69707E-03 1.46585E+00 3.44290E-14 6.20992E-14
 -1       952 2.26663E+01-2.41250E+00 1.13045E-02-1.08915E+00 1.85502E-13 2.53578E-13
 -1       953 2.15420E+01-1.80818E+00-4.29891E-05-1.40634E+00 5.53389E-14 2.96016E-13
 -1       954 2.07364E+01-1.16274E+00 1.62140E-04-1.42504E+00 2.07436E-14 3.29380E-13
 -1       955 2.02144E+01-6.19964E-01-1.69913E-04-1.29543E+00-8.83036E-14 3.30329E-13
 -1       956 1.99074E+01-2.15568E-01-2.45586E-05-1.10651E+00-1.62488E-14 1.46136E-14
 -1       957 1.97508E+01 5.60331E-02-2.03437E-06-9.10569E-01-5.10852E-14-8.50942E-14
 -1       958 1.96906E+01 2.20830E-01-1.92980E-05-7.31352E-01-1.41915E-13-1.66296E-13
 -1       959 1.96885E+01 3.05494E-01 1.12673E-05-5.77225E-01-2.45858E-13 7.87022E-14
 -1       960 1.97180E+01 3.34361E-01-4.28081E-06-4.49722E-01-2.57326E-13 1.95241E-13
 -1       961 1.97612E+01 3.27937E-01-8.39297E-06-3.46398E-01-6.75974E-14 4.15640E-14
 -1       962 1.98080E+01 3.00461E-01-9.95127E-06-2.63758E-01-2.26709E-15-1.28514E-13
 -1       963 1.98523E+01 2.62453E-01-8.97664E-06-1.98545E-01-1.11541E-13-1.31482E-13
 -1       964 1.98908E+01 2.21075E-01-7.33026E-06-1.47582E-01-4.43374E-14-3.07123E-14
 -1       965 1.99225E+01 1.80780E-01-5.62778E-06-1.08091E-01-1.30796E-13 1.14665E-13
 -1       966 1.99475E+01 1.44086E-01-4.14931E-06-7.77617E-02-3.25019E-14 2.43735E-13
 -1       967 1.99663E+01 1.12181E-01-3.35113E-06-5.47015E-02-8.52251E-14 6.10137E-14
 -1       968 1.99798E+01 8.53957E-02-8.21143E-07-3.73471E-02-1.61720E-13 2.43691E-13
 -1       969 1.99892E+01 6.34470E-02-3.58348E-08-2.45057E-02-1.76538E-14 9.74742E-14
 -1       970 1.99952E+01 4.58198E-02 3.31563E-06-1.50093E-02 5.49232E-13 1.15358E-13
 -1       971 1.96561E+01-1.99804E+00 2.01822E-02-3.53563E+00 4.86778E-14-5.85933E-13
 -1       972 1.95829E+01 5.77675E-01-2.70592E-05 3.23438E-01-1.37568E-13-8.77407E-14
 -1       973 1.98753E+01 2.76994E-01-1.97641E-05 1.65940E-01 1.55370E-13 1.53734E-13
 -1       974 1.99207E+01 2.12298E-01-1.53131E-05 1.26373E-01 1.50147E-13 2.90412E-13
 -1       975 1.99516E+01 1.60939E-01-1.11966E-05 9.38655E-02 4.01248E-13 3.82131E-13
 -1       976 1.99723E+01 1.20552E-01-7.84893E-06 6.78349E-02 2.32581E-13 2.18297E-13
 -1       977 1.99858E+01 8.90857E-02-6.79915E-06 4.74757E-02 1.59393E-14 7.59098E-14
 -1       978 1.99942E+01 6.48018E-02-1.53189E-06 3.19487E-02 1.99090E-13-2.14635E-13
 -1       979 1.99992E+01 4.61113E-02 1.60938E-05 2.02736E-02 3.55198E-13-2.19209E-13
 -1       980 1.65773E+01-6.50597E-01 1.83816E-02 3.67491E+00-3.10919E-14-1.11541E-13
 -1       981 2.01174E+01 1.35806E+00-4.99600E-04 4.80360E-02 6.32165E-14-1.25680E-13
 -1       982 2.01155E+01 1.06288E+00 2.25234E-04-1.96509E-01 7.19041E-14 2.05618E-14
 -1       983 1.42291E+01 1.63396E+00 1.06069E-02 1.09562E-01-7.93473E-14-1.55408E-13
 -1       984 1.98097E+01 3.57648E-01-2.35375E-05 2.12687E-01-1.53580E-13-1.18039E-14
 -1       985 1.97159E+01 4.56999E-01-2.55315E-05 2.65890E-01-5.50007E-14-9.71005E-14
 -1       986 2.00502E+01 1.47182E+00-2.74264E-04 4.34282E-02 6.52796E-14-2.83660E-14
 -1       987 1.82622E+01 1.27375E+00-1.24097E-04 4.86647E-01-1.70247E-13-1.65585E-13
 -1       988 1.93954E+01 7.21822E-01-2.48523E-05 3.81672E-01-1.60837E-13 4.50617E-14
 -1       989 2.25492E+01-2.72056E+00 1.55850E-02-1.80499E+00 2.90481E-13 1.12011E-13
 -1       990 1.95295E+01 9.63033E-01 4.15315E-05-7.83476E-01 5.08402E-14 5.80536E-14
 -1       991 2.54074E+01-3.89943E-01-1.02951E-02 1.72936E+00 1.28552E-13-1.39224E-13
 -1       992 2.00802E+01 7.21287E-01-1.29972E-04 4.63219E-01 3.99544E-14-1.02825E-13
 -1       993 2.01178E+01 9.97058E-01-1.38558E-05 2.64418E-01 7.98354E-14-1.15677E-13
 -1       994 1.62089E+01-3.70028E-01 1.44860E-02-3.57523E+00 6.34060E-14-2.91750E-13
 -1       995 1.51114E+01 1.54132E+00 8.04734E-03 6.00450E-02-2.92806E-14 8.46570E-14
 -1       996 1.86333E+01 1.21231E+00 5.55030E-05-5.36788E-01 2.96553E-14 4.33093E-14
 -1       997 1.79432E+01 1.36048E+00 1.20022E-03-5.12498E-01 5.63857E-14 1.84800E-14
 -1       998 1.49788E+01 1.37018E+00 5.74379E-03-1.10137E+00-8.84984E-14 1.42752E-13
 -1       999 1.99928E+01 5.42055E-02-1.01349E-05 1.51228E-02 6.83758E-14-1.59328E-13
 -1      1000 1.88486E+01-1.49653E+00 6.71588E-03 3.44641E+00 1.21011E-15-1.45993E-13
 -1      1001 1.99915E+01 4.84838E-02-8.28935E-06 5.19027E-04 1.39176E-13 8.12722E-13
 -1      1002 1.87684E+01 1.07560E+00-9.09561E-05 4.72233E-01 1.60355E-13-1.22232E-13
 -1      1003 1.99399E+01 1.97927E+00-1.15649E-03-3.90008E-02 9.46628E-14-7.91994E-14
 -1      1004 1.75500E+01 1.46276E+00-5.05718E-04 4.63101E-01-9.06060E-15-2.43890E-13
 -1      1005 1.91333E+01 8.88788E-01-4.55225E-05 4.34322E-01 9.59553E-14-6.21204E-14
 -1      1006 2.00745E+01 1.63251E+00 1.47861E-03-5.40907E-02 8.39328E-14-1.55632E-13
 -1      1007 1.97804E+01 1.09265E+00 1.23036E-03-3.19357E-01 2.76224E-14-2.19215E-14
 -1      1008 1.98814E+01 1.49330E+00-1.71353E-04 4.91666E-02 4.79212E-14-5.55959E-16
 -1      1009 1.99554E+01 1.36181E+00-2.63177E-04-6.55954E-02 7.37557E-14-9.14233E-15
 -1      1010 1.99357E+01 1.79326E+00 3.60991E-04 5.40213E-02 7.67880E-14-5.95815E-14
 -1      1011 1.99923E+01 4.68435E-02-7.46828E-06-5.79780E-03 3.83083E-13 2.31823E-14
 -1      1012 1.99389E+01 1.58522E-01-3.93533E-05 5.84048E-02 3.74209E-13 2.37977E-13
 -1      1013 1.97946E+01 5.60731E-01 3.19860E-04 6.98003E-01 6.42168E-14-9.04788E-14
 -1      1014 1.97048E+01 3.43580E-01 6.83687E-05 9.33824E-01 3.66150E-14-4.62952E-14
 -1      1015 1.96697E+01 6.93319E-02-2.26746E-04 1.21770E+00 2.52352E-14-1.82193E-15
 -1      1016 1.97493E+01-3.16692E-01 2.02736E-05 1.55149E+00 1.45241E-14-6.80161E-14
 -1      1017 2.00203E+01-8.60705E-01 9.56019E-04 1.91763E+00 4.67666E-14-5.85955E-14
 -1      1018 2.05977E+01-1.60249E+00 2.73292E-03 2.25274E+00-1.09990E-14-6.01819E-15
 -1      1019 1.96988E+01 1.18830E+00-1.32635E-06-3.23217E-02 2.86951E-14 3.42368E-14
 -1      1020 1.91400E+01 1.10099E+00-2.52611E-04-5.10490E-01 1.79242E-14 5.23215E-14
 -1      1021 2.03540E+01-1.38302E+00-1.44423E-03-2.13638E+00-3.87645E-14-3.94416E-14
 -1      1022 1.97477E+01-6.56470E-01-1.20330E-03-1.78518E+00-9.35640E-14-8.71373E-14
 -1      1023 1.94746E+01-1.66087E-01-1.00923E-04-1.41939E+00-2.41278E-13-1.46882E-16
 -1      1024 1.93725E+01 1.50030E-01 5.54485E-05-1.09604E+00-1.64268E-13-1.62834E-13
 -1      1025 1.93747E+01 3.31611E-01-1.08909E-04-8.30680E-01-2.05258E-13-3.53917E-13
 -1      1026 1.94314E+01 4.19425E-01 8.15557E-05-6.21205E-01-4.77333E-14-4.20777E-13
 -1      1027 1.95126E+01 4.42220E-01 3.92805E-05-4.60332E-01-1.31339E-13-2.95004E-13
 -1      1028 1.95996E+01 4.25723E-01-5.72341E-05-3.39330E-01-1.61328E-13-3.19098E-13
 -1      1029 1.96829E+01 3.86543E-01-6.63141E-05-2.47965E-01-7.32132E-14-1.21883E-13
 -1      1030 1.97570E+01 3.36105E-01-5.14695E-05-1.80259E-01-5.90968E-14-1.70977E-13
 -1      1031 1.98194E+01 2.82828E-01-4.36857E-05-1.30209E-01-3.77862E-14-1.68848E-13
 -1      1032 1.98699E+01 2.31628E-01-3.61331E-05-9.32554E-02-8.43982E-14-2.84014E-13
 -1      1033 1.99094E+01 1.85258E-01-2.91021E-05-6.60319E-02 1.00674E-13-1.89069E-13
 -1      1034 1.99394E+01 1.44986E-01-2.38308E-05-4.60267E-02 8.55466E-14-4.27667E-14
 -1      1035 1.99614E+01 1.11092E-01-1.27539E-05-3.14325E-02-3.03843E-14 2.21824E-13
 -1      1036 1.99770E+01 8.33014E-02-7.63782E-06-2.06590E-02-2.28795E-13 2.68696E-13
 -1      1037 1.99874E+01 6.10884E-02 1.63018E-05-1.30625E-02 2.62141E-13 3.37928E-13
 -1      1038 1.98544E+01 2.70348E-01-6.54307E-05 9.98676E-02-3.76159E-14 8.70072E-14
 -1      1039 1.99630E+01 1.18879E-01-2.61268E-05 4.24813E-02 2.60933E-13 2.71151E-13
 -1      1040 1.99791E+01 8.79193E-02-1.69631E-05 2.99063E-02 4.07499E-13 3.15159E-14
 -1      1041 1.99870E+01 6.96851E-02-9.24192E-06 2.18003E-02 4.69539E-13-2.10756E-13
 -1      1042 1.99782E+01 1.01490E+00-2.40170E-05 3.20010E-01 5.57421E-14-1.05291E-13
 -1      1043 1.95564E+01 1.07474E+00-5.81328E-04-3.41099E-01 2.97179E-14-1.70086E-14
 -1      1044 1.97850E+01 3.46406E-01-8.17959E-05 1.24194E-01-1.33019E-13-1.58794E-13
 -1      1045 1.96889E+01 4.38313E-01-9.70434E-05 1.48589E-01-1.98592E-13 1.28005E-14
 -1      1046 1.70400E+01 1.48202E+00 9.55054E-04-4.13111E-01-1.24391E-14 9.12204E-14
 -1      1047 1.99040E+01 2.08363E-01-5.04894E-05 7.76245E-02 2.48693E-13 1.70922E-13
 -1      1048 1.81555E+01-6.03926E-01 1.81549E-03-2.90298E+00-1.24010E-13-4.63931E-13
 -1      1049 1.65528E+01 1.63206E+00-5.37306E-04 4.10148E-01 1.03072E-13-1.65949E-13
 -1      1050 1.98953E+01 7.72584E-01 6.83977E-04 4.99542E-01 5.13425E-14-1.11611E-13
 -1      1051 2.17708E+01-2.72659E+00 3.18430E-03 2.53927E+00-1.03063E-14-2.69109E-14
 -1      1052 1.99908E+01 5.29544E-02 5.05411E-06 7.29815E-03-6.99638E-14 2.76712E-13
 -1      1053 1.99015E+01 1.48679E+00 2.09715E-04 1.11462E-01 5.53948E-14-3.83678E-14
 -1      1054 1.95574E+01 5.47286E-01-1.12070E-04 1.69462E-01 4.22184E-14 5.46163E-14
 -1      1055 1.58969E+01 9.69391E-01 1.40693E-02 1.62319E+00-2.10857E-14-1.00084E-13
 -1      1056 2.00238E+01 1.32915E+00 6.36735E-04 1.51776E-01 5.42737E-14-7.44839E-14
 -1      1057 1.62185E+01 6.21598E-01 6.89709E-03-2.24416E+00-5.95867E-15-5.37027E-14
 -1      1058 1.93797E+01 6.73448E-01-4.65943E-05 1.80232E-01-8.93229E-14 1.87611E-13
 -1      1059 1.99087E+01-1.62686E+00-3.13595E-03 2.84125E+00 1.78085E-14-9.50408E-14
 -1      1060 1.97371E+01 1.16019E+00-3.90166E-04 1.59163E-01 1.54535E-14-3.74579E-14
 -1      1061 2.12396E+01-2.27555E+00-2.79140E-02-2.33248E+00 1.09363E-13 5.24758E-14
 -1      1062 1.88343E+01 1.12201E+00-1.56493E-04-9.84878E-02 3.23114E-14 6.10468E-15
 -1      1063 1.72347E+01 1.19551E+00-3.85618E-03 6.06567E-01-3.74798E-14-5.02336E-14
 -1      1064 1.82645E+01 1.18581E+00-7.06393E-04 4.84792E-02 4.02935E-14-2.70728E-14
 -1      1065 1.76225E+01-1.01181E-01 6.09168E-03 2.53672E+00-1.26223E-15-5.98516E-14
 -1      1066 1.83833E+01 1.12745E+00 1.56051E-04 4.16211E-02-8.94059E-14-3.64506E-13
 -1      1067 1.77957E+01 1.27373E+00 1.68424E-03-1.25928E-01-4.13690E-14-1.09886E-13
 -1      1068 1.91391E+01 8.15863E-01-1.00415E-04 1.72744E-01-1.18078E-13 1.26976E-13
 -1      1069 1.99833E+01 6.81738E-02 6.13076E-05 1.89575E-03-6.08265E-14 7.53615E-13
 -1      1070 1.99844E+01 6.55651E-02-6.08313E-06-6.08472E-03 1.70420E-14 6.75834E-13
 -1      1071 1.89178E+01-5.33816E-01 1.05429E-02-2.32920E+00-1.11596E-14-4.62790E-13
 -1      1072 1.92557E+01 4.88488E-01-1.31350E-04 9.81655E-01 7.22652E-14-6.87400E-14
 -1      1073 1.90897E+01 2.35906E-01 1.33933E-04 1.36190E+00-6.17598E-14-2.85836E-14
 -1      1074 1.90076E+01-1.63688E-01-1.54273E-03 1.86112E+00-1.45362E-14-7.96219E-14
 -1      1075 1.92846E+01-7.73880E-01 3.11817E-04 2.37086E+00 6.42916E-14-1.29299E-13
 -1      1076 1.97899E+01 3.20850E-01 1.36298E-05 4.93948E-02-7.32130E-14 2.72909E-13
 -1      1077 1.99616E+01 1.11424E-01 1.99251E-05 2.04223E-02 5.81570E-13-4.37993E-14
 -1      1078 1.93589E+01 1.08546E+00 2.28219E-04-8.12387E-02 2.45365E-14 2.15551E-14
 -1      1079 1.87699E+01 3.07151E-03-1.32866E-03-1.75049E+00 4.29591E-14-3.40545E-13
 -1      1080 1.88277E+01 3.32292E-01-6.63650E-05-1.26080E+00-3.31489E-13-4.27410E-14
 -1      1081 1.89454E+01 5.13536E-01 4.63423E-04-8.97226E-01-2.31963E-13-4.70492E-14
 -1      1082 1.91093E+01 5.75113E-01 7.82362E-04-6.30168E-01-1.62520E-13-1.00647E-13
 -1      1083 1.92706E+01 5.75684E-01-1.40310E-04-4.35385E-01-2.94135E-14-2.30937E-13
 -1      1084 1.94104E+01 5.45790E-01 4.83231E-04-2.99668E-01-5.82179E-14-1.14974E-13
 -1      1085 1.95420E+01 4.85065E-01 7.48434E-06-2.02544E-01-1.26958E-13 1.03776E-13
 -1      1086 1.96524E+01 4.17099E-01-4.27697E-05-1.37015E-01-1.35029E-13-3.56221E-15
 -1      1087 1.97423E+01 3.48979E-01-3.07080E-05-9.19575E-02-1.21692E-13-1.64018E-13
 -1      1088 1.98137E+01 2.85102E-01-2.08916E-05-6.13123E-02-1.36682E-13-2.37092E-13
 -1      1089 1.98690E+01 2.28032E-01-1.39667E-05-4.06001E-02 1.43409E-13 1.14345E-13
 -1      1090 1.99108E+01 1.78848E-01-9.41594E-06-2.66605E-02 2.32515E-13 1.22337E-13
 -1      1091 1.99416E+01 1.37615E-01-1.15509E-05-1.73203E-02 2.93647E-13-3.64647E-14
 -1      1092 1.99644E+01 1.03483E-01 1.04989E-04-1.11099E-02 1.32005E-13 4.32095E-13
 -1      1093 1.98555E+01 2.51962E-01 1.75537E-05 4.33032E-02 1.30638E-13 6.38393E-14
 -1      1094 1.65333E+01 1.29154E+00 4.23772E-03-8.86984E-01 6.05790E-14-4.44639E-14
 -1      1095 1.99377E+01 1.48622E-01 2.22740E-05 2.78068E-02 2.32402E-13 1.75197E-13
 -1      1096 1.97014E+01 4.02408E-01 1.09845E-06 5.10765E-02-2.01672E-13 1.61130E-13
 -1      1097 1.96454E+01 8.32882E-01-8.53508E-04 4.71509E-01 6.26951E-14-1.10156E-13
 -1      1098 1.72052E+01 1.31706E+00 2.93602E-04-4.51055E-01 4.38331E-14 1.12834E-13
 -1      1099 1.94575E+01 6.70570E-01 5.39329E-04 6.89187E-01 8.41778E-14-1.26655E-13
 -1      1100 1.99836E+01 7.06509E-02 8.03821E-06 1.16822E-02 4.03722E-13 1.00350E-13
 -1      1101 1.95836E+01 4.96662E-01-3.11424E-05 4.37962E-02-7.49704E-14 2.22667E-13
 -1      1102 1.88164E+01 9.68675E-01-1.74980E-04 1.33172E-01-4.74569E-14-1.00058E-14
 -1      1103 1.94282E+01 6.01934E-01-2.38929E-04 2.05841E-02-1.05056E-14 6.43863E-14
 -1      1104 1.99034E+01 1.94945E-01 1.72620E-05 3.55707E-02 2.80796E-13 5.27466E-14
 -1      1105 1.94406E+01 1.00075E+00-3.33779E-04 2.23740E-01 1.60800E-14-6.55174E-14
 -1      1106 1.86366E+01 9.39256E-01 3.94104E-04-2.59533E-01-2.63077E-13 1.18846E-13
 -1      1107 1.82400E+01 1.00752E+00 1.83585E-03-4.75252E-01-9.06209E-14 1.94979E-14
 -1      1108 1.99747E+01 8.91491E-02 1.16579E-04 1.55093E-02 4.39403E-13-4.72403E-14
 -1      1109 1.73872E+01 6.24249E-01 6.00244E-04-1.73991E+00 5.39338E-14-1.75185E-13
 -1      1110 1.89780E+01 9.59061E-01 4.32813E-05 3.59177E-01 6.98204E-14-7.40167E-14
 -1      1111 1.73416E+01 6.98873E-01-2.75183E-03 1.51379E+00-2.78362E-14-1.10473E-13
 -1      1112 1.92369E+01 7.09333E-01 1.91857E-04-2.74623E-02-1.20777E-13 8.80553E-14
 -1      1113 1.99736E+01 8.56905E-02-1.59241E-04 2.30859E-03 2.14271E-13 5.07129E-13
 -1      1114 1.85285E+01 9.25877E-01 2.69184E-03 6.21672E-01 7.49413E-14-1.08516E-13
 -1      1115 1.81905E+01 2.41128E-01-3.70403E-04 1.81515E+00-2.33218E-14 5.17777E-15
 -1      1116 1.80514E+01 8.08188E-01-1.90103E-03 1.02867E+00 1.86371E-14-1.18362E-13
 -1      1117 1.84120E+01 7.60967E-01-2.71061E-03-8.56864E-01-1.81291E-13 6.03909E-14
 -1      1118 1.92184E+01 6.71138E-01-1.30392E-03-2.04916E-01-4.30936E-16 3.55725E-14
 -1      1119 1.77154E+01 8.47993E-01-2.40349E-03-1.17601E+00 1.68130E-13-1.39353E-13
 -1      1120 1.89838E+01 8.22731E-01 1.85873E-04-1.13908E-01-6.77716E-14 3.64308E-14
 -1      1121 1.82601E+01 5.21240E-01-4.92634E-03 1.38150E+00-6.17780E-15 6.62586E-15
 -1      1122 1.90428E+01 7.38028E-01-3.28244E-05-2.86223E-01-2.73991E-13 6.74030E-14
 -1      1123 1.77092E+01 1.01505E+00-6.73942E-05-8.32177E-01 7.03526E-14-1.18325E-13
 -1      1124 2.78490E+01 9.04564E+00 2.30295E+00-6.62873E+00-2.73670E-14-3.14415E-13
 -1      1125 2.05717E+01 6.23632E+00 2.15982E-01-3.82161E+00-5.66214E-15-4.61756E-13
 -1      1126 1.94879E+01 5.87059E+00 8.07232E-02-2.78665E+00-6.45317E-16-4.32617E-13
 -1      1127 1.90765E+01 5.74182E+00 6.28492E-02-2.12331E+00 2.91434E-15-3.69031E-13
 -1      1128 1.88718E+01 5.67876E+00 5.74016E-02-1.59106E+00 3.58047E-15-3.11928E-13
 -1      1129 1.87541E+01 5.64217E+00 5.31387E-02-1.13653E+00 4.15466E-15-2.57897E-13
 -1      1130 1.86822E+01 5.61952E+00 4.95144E-02-7.30074E-01 4.83034E-15-2.11749E-13
 -1      1131 1.86417E+01 5.60660E+00 4.69325E-02-3.50673E-01 4.35893E-15-1.62591E-13
 -1      1132 1.86290E+01 5.60249E+00 4.59426E-02 1.32033E-02 4.63063E-15-1.13594E-13
 -1      1133 1.86434E+01 5.60703E+00 4.67062E-02 3.76221E-01 5.22325E-15-7.11532E-14
 -1      1134 1.86864E+01 5.62068E+00 4.92245E-02 7.53601E-01 5.43402E-15-1.80038E-14
 -1      1135 1.87626E+01 5.64480E+00 5.33874E-02 1.15839E+00 5.36203E-15 4.44844E-14
 -1      1136 1.88847E+01 5.68289E+00 5.81849E-02 1.61371E+00 6.32133E-15 1.27686E-13
 -1      1137 1.90911E+01 5.74631E+00 6.32413E-02 2.15156E+00 5.62050E-15 2.22650E-13
 -1      1138 1.94916E+01 5.87008E+00 7.53247E-02 2.82217E+00 5.32907E-15 3.49082E-13
 -1      1139 2.04782E+01 6.19172E+00 1.60786E-01 3.79356E+00 9.71445E-16 5.19362E-13
 -1      1140 2.51156E+01 7.95934E+00 1.41545E+00 5.77808E+00-1.37668E-14 7.15011E-13
 -1      1141 2.86473E+01 3.57458E+00 1.23891E+00-4.17066E+00-7.39686E-14-2.50799E-13
 -1      1142 2.02201E+01-1.78726E-01-6.16332E-01-1.02670E-01-2.48065E-14-4.38011E-13
 -1      1143 1.89249E+01-9.70915E-02-2.35411E-01 6.38039E-02-5.16948E-16-5.87629E-13
 -1      1144 1.86797E+01-4.97064E-02-6.10223E-02 4.14106E-02-9.05439E-15-7.29555E-13
 -1      1145 1.87256E+01-2.69808E-02-1.81299E-02 2.81187E-02-4.82210E-15-8.07240E-13
 -1      1146 1.89295E+01-1.58531E-02-8.71111E-03 2.11306E-02 9.40003E-16-7.83547E-13
 -1      1147 1.92244E+01-9.39847E-03-5.37634E-03 1.71622E-02-3.58871E-17-7.66404E-13
 -1      1148 1.95720E+01-4.99523E-03-2.66629E-03 1.48385E-02 1.97368E-15-7.36421E-13
 -1      1149 1.99446E+01-1.26458E-03 5.09023E-04 1.33506E-02-5.71388E-15-8.26592E-13
 -1      1150 2.03162E+01 2.64443E-03 4.71162E-03 1.20737E-02-6.99996E-15-9.64936E-13
 -1      1151 2.06557E+01 7.24751E-03 1.04201E-02 1.03499E-02 9.71727E-15-1.04983E-12
 -1      1152 2.09226E+01 1.26845E-02 1.77812E-02 7.40475E-03 1.82146E-15-9.89531E-13
 -1      1153 2.10654E+01 1.85425E-02 2.61966E-02 2.40933E-03 2.76146E-15-1.08603E-12
 -1      1154 2.10260E+01 2.36354E-02 3.38881E-02-5.26356E-03-4.75965E-15-1.01087E-12
 -1      1155 2.07514E+01 2.59329E-02 3.77122E-02-1.55539E-02 2.33255E-15-9.01307E-13
 -1      1156 2.02154E+01 2.29136E-02 3.37081E-02-2.71056E-02-3.24205E-14-8.78082E-13
 -1      1157 1.94458E+01 1.26611E-02 1.88292E-02-3.69083E-02-8.62190E-15-8.24861E-13
 -1      1158 1.85457E+01-4.46366E-03-6.43404E-03-4.08147E-02-5.41678E-15-8.69645E-13
 -1      1159 1.76902E+01-2.45233E-02-3.61535E-02-3.52970E-02 1.53595E-14-9.01910E-13
 -1      1160 1.70856E+01-4.06667E-02-6.00699E-02-1.98043E-02-3.42565E-15-1.03610E-12
 -1      1161 1.68983E+01-4.62613E-02-6.83273E-02 1.92761E-03 3.69279E-15-1.07041E-12
 -1      1162 1.71857E+01-3.88333E-02-5.72938E-02 2.30721E-02 5.48953E-15-9.12440E-13
 -1      1163 1.78710E+01-2.17602E-02-3.19517E-02 3.71125E-02 2.33756E-14-6.98927E-13
 -1      1164 1.87782E+01-2.06761E-03-2.72565E-03 4.10389E-02-3.83371E-14-7.79557E-13
 -1      1165 1.97044E+01 1.37653E-02 2.06177E-02 3.60861E-02-1.01208E-14-8.68278E-13
 -1      1166 2.04879E+01 2.24668E-02 3.31580E-02 2.60778E-02 1.37863E-14-4.46428E-13
 -1      1167 2.10418E+01 2.42056E-02 3.52115E-02 1.50580E-02 1.57749E-14-5.44160E-13
 -1      1168 2.13518E+01 2.11300E-02 3.01642E-02 5.77001E-03-1.70003E-15-8.54108E-13
 -1      1169 2.14524E+01 1.57555E-02 2.19374E-02-6.59150E-04-1.88716E-14-9.03565E-13
 -1      1170 2.14000E+01 1.00407E-02 1.34989E-02-4.28582E-03 3.62762E-14-7.90594E-13
 -1      1171 2.12529E+01 5.11870E-03 6.47923E-03-5.74375E-03-1.55108E-14-6.37972E-13
 -1      1172 2.10597E+01 1.43493E-03 1.42636E-03-5.79120E-03-3.15899E-15-8.70229E-13
 -1      1173 2.08555E+01-1.00198E-03-1.75888E-03-5.07308E-03-7.63490E-15-7.08149E-13
 -1      1174 2.06628E+01-2.39727E-03-3.45898E-03-4.04619E-03-1.53721E-14-8.24666E-13
 -1      1175 2.04938E+01-3.02126E-03-4.11254E-03-2.99068E-03-1.71371E-14-8.19365E-13
 -1      1176 2.03534E+01-3.12879E-03-4.10333E-03-2.05311E-03 2.47897E-14-8.91861E-13
 -1      1177 2.02417E+01-2.92572E-03-3.72340E-03-1.29198E-03 3.01075E-14-5.44218E-13
 -1      1178 2.01563E+01-2.56252E-03-3.17454E-03-7.14312E-04-1.61501E-14-2.56203E-13
 -1      1179 2.00934E+01-2.14045E-03-2.58478E-03-3.00815E-04-3.49014E-14-1.32964E-13
 -1      1180 2.00489E+01-1.72213E-03-2.02793E-03-2.16781E-05 1.24976E-14 1.82138E-14
 -1      1181 2.00189E+01-1.34210E-03-1.54066E-03 1.54492E-04-1.85690E-15-1.26628E-13
 -1      1182 2.00001E+01-1.01583E-03-1.13586E-03 2.56150E-04-3.95000E-14-3.23024E-13
 -1      1183 1.99895E+01-7.46540E-04-8.12170E-04 3.06969E-04-2.38812E-14-9.93611E-13
 -1      1184 1.99848E+01-5.30072E-04-5.60180E-04 3.25490E-04 1.35191E-14-8.38841E-13
 -1      1185 1.99842E+01-3.57973E-04-3.65832E-04 3.25393E-04 6.59427E-14-7.43871E-13
 -1      1186 1.99863E+01-2.19217E-04-2.11079E-04 3.15739E-04 2.26522E-14-2.05545E-13
 -1      1187 1.99900E+01-1.01101E-04-7.15764E-05 2.99876E-04 1.88145E-16-1.71768E-13
 -1      1188 1.99943E+01 1.07679E-05 7.93912E-05 2.66380E-04 1.10958E-13-7.58340E-14
 -1      1189 1.99981E+01 1.18891E-04 2.45479E-04 1.86781E-04 5.12956E-14-2.11770E-13
 -1      1190 1.99998E+01 2.36862E-05 1.10843E-04-1.07422E-06 6.88232E-14 1.62735E-13
 -1      1191 2.76127E+01 5.20657E-01 3.53177E-01 1.94978E+00-1.57027E-14 8.23175E-13
 -1      1192 2.00673E+01-6.75623E-02-5.72979E-01 1.27063E-01-5.62050E-15 8.82128E-13
 -1      1193 1.89878E+01-4.27477E-02-1.93357E-01 1.97863E-02-2.29244E-15 9.00660E-13
 -1      1194 1.87064E+01-2.48879E-02-5.34962E-02 3.28688E-03 6.34649E-15 9.27449E-13
 -1      1195 1.87562E+01-1.75744E-02-1.91488E-02-1.14352E-03-4.54498E-16 9.77707E-13
 -1      1196 1.89946E+01-1.47747E-02-1.35447E-02-1.58974E-03-3.05073E-15 9.95540E-13
 -1      1197 1.93649E+01-1.46047E-02-1.48199E-02-7.73090E-04-9.49544E-16 1.01238E-12
 -1      1198 1.98526E+01-1.64324E-02-1.86062E-02 4.64754E-04-1.41423E-15 1.00515E-12
 -1      1199 2.04692E+01-1.99562E-02-2.46886E-02 1.63078E-03 2.43078E-15 9.16666E-13
 -1      1200 2.12465E+01-2.47427E-02-3.32377E-02 2.01744E-03-2.97570E-15 8.98972E-13
 -1      1201 2.22329E+01-2.96516E-02-4.35635E-02 3.20099E-04 9.26386E-15 7.33712E-13
 -1      1202 2.34869E+01-3.18803E-02-5.25861E-02-5.78601E-03 9.67759E-15 5.47784E-13
 -1      1203 2.50570E+01-2.55695E-02-5.19423E-02-1.98875E-02 2.60252E-15 6.17340E-13
 -1      1204 2.69343E+01-7.11462E-04-2.41322E-02-4.58580E-02-3.82082E-14 8.17693E-13
 -1      1205 2.89538E+01 5.42155E-02 5.71124E-02-8.27708E-02-2.58920E-14 9.29451E-13
 -1      1206 3.06328E+01 1.36859E-01 2.05509E-01-1.12018E-01 1.85546E-14 7.20795E-13
 -1      1207 3.10409E+01 2.00686E-01 3.64559E-01-8.42663E-02-3.57978E-14 7.13457E-13
 -1      1208 2.90499E+01 1.48273E-01 3.56499E-01 5.66094E-02 3.36606E-14 7.19147E-13
 -1      1209 2.44086E+01-6.74875E-02 1.43255E-03 2.74595E-01-4.35294E-14 8.63531E-13
 -1      1210 1.91822E+01-2.62203E-01-5.34396E-01 3.71450E-01-2.54970E-14 1.05455E-12
 -1      1211 1.71630E+01-2.12952E-01-7.46371E-01 1.74987E-01-4.47559E-14 1.18647E-12
 -1      1212 1.97948E+01-6.80234E-02-4.62832E-01-1.52166E-01-7.66054E-15 1.08435E-12
 -1      1213 2.49272E+01 8.61491E-02 7.45869E-03-3.12108E-01-2.39956E-15 7.53286E-13
 -1      1214 2.94082E+01 1.04103E-01 2.82571E-01-2.72679E-01 8.31106E-15 4.50112E-13
 -1      1215 3.12002E+01 6.90404E-02 2.76688E-01-1.34141E-01-1.90941E-14 5.74901E-13
 -1      1216 3.06987E+01 3.03085E-02 1.53583E-01-2.04318E-02 4.13298E-15 4.77989E-13
 -1      1217 2.90344E+01 5.40202E-03 4.40894E-02 3.68030E-02 1.67756E-14 2.13080E-13
 -1      1218 2.70950E+01-7.31980E-03-1.43275E-02 5.26200E-02 4.78629E-14 2.43569E-13
 -1      1219 2.53326E+01-1.16179E-02-3.46460E-02 4.88425E-02-1.04053E-13 9.09293E-13
 -1      1220 2.38692E+01-1.19488E-02-3.54580E-02 3.94931E-02-1.63522E-14 1.19380E-12
 -1      1221 2.27503E+01-1.09927E-02-3.01331E-02 2.83397E-02 4.04264E-14 7.65551E-13
 -1      1222 2.19443E+01-9.10889E-03-2.32171E-02 2.02038E-02 6.62558E-14 2.38420E-13
 -1      1223 2.13560E+01-7.27406E-03-1.72837E-02 1.41213E-02-3.23452E-14 7.99274E-13
 -1      1224 2.09316E+01-5.68831E-03-1.26679E-02 9.75690E-03 2.61726E-14 6.34777E-13
 -1      1225 2.06283E+01-4.39122E-03-9.22763E-03 6.69110E-03-1.18207E-13 6.20031E-13
 -1      1226 2.04133E+01-3.36143E-03-6.70842E-03 4.55631E-03 2.59916E-15 5.70739E-13
 -1      1227 2.02625E+01-2.55707E-03-4.87332E-03 3.07436E-03-4.09273E-14 7.89942E-13
 -1      1228 2.01582E+01-1.93450E-03-3.53582E-03 2.04651E-03-1.89447E-14 7.86943E-13
 -1      1229 2.00873E+01-1.45542E-03-2.55854E-03 1.33432E-03 6.49329E-16 5.39130E-13
 -1      1230 2.00405E+01-1.08844E-03-1.84298E-03 8.42149E-04 9.71247E-14-4.85552E-13
 -1      1231 2.00109E+01-8.08559E-04-1.31886E-03 5.03747E-04 6.84737E-15-7.83911E-13
 -1      1232 1.99933E+01-5.95932E-04-9.35669E-04 2.72743E-04-2.24817E-15-5.07116E-13
 -1      1233 1.99842E+01-4.34669E-04-6.56371E-04 1.16185E-04-5.96887E-15 2.26914E-14
 -1      1234 1.99809E+01-3.11668E-04-4.52998E-04 1.01749E-05-7.02550E-14 3.18924E-13
 -1      1235 1.99814E+01-2.15319E-04-3.02774E-04-6.32574E-05 1.06829E-13 1.54968E-13
 -1      1236 1.99844E+01-1.33653E-04-1.83331E-04-1.18403E-04-8.51539E-14 2.60820E-13
 -1      1237 1.99888E+01-5.25641E-05-6.72165E-05-1.66669E-04 6.71431E-14 5.20582E-13
 -1      1238 1.99936E+01 4.38785E-05 7.85376E-05-2.13768E-04-7.85341E-15 4.19959E-13
 -1      1239 1.99978E+01 1.62935E-04 2.54436E-04-2.36223E-04-2.88616E-14 7.56155E-13
 -1      1240 1.99998E+01 4.23104E-06 1.08022E-04-1.66528E-05-3.62087E-14 9.72125E-13
 -1      1241 1.99998E+01-3.83842E-05 8.53461E-05-2.11235E-05 1.05193E-12 6.94942E-14
 -1      1242 1.99999E+01-1.87341E-03 2.04502E-04-1.67620E-04 1.12486E-12-9.84154E-14
 -1      1243 1.99998E+01-5.59138E-03 2.16493E-05-2.25064E-04 9.93479E-13-1.24113E-13
 -1      1244 1.99997E+01-9.42068E-03-1.07473E-04-1.86903E-04 3.42801E-13-7.11712E-15
 -1      1245 1.99997E+01-1.24951E-02-1.50319E-04-1.27287E-04 1.96059E-13-6.76891E-14
 -1      1246 1.99997E+01-1.45551E-02-1.40490E-04-7.21954E-05-8.28597E-13-2.16536E-13
 -1      1247 1.99997E+01-1.57053E-02-1.06563E-04-3.39965E-05-1.04107E-12 1.10700E-13
 -1      1248 1.99998E+01-1.61688E-02-7.42667E-05-7.80625E-06-5.01304E-13-1.46688E-14
 -1      1249 1.99998E+01-1.61422E-02-5.73305E-05 9.11155E-06 6.63864E-14-8.49311E-14
 -1      1250 1.99998E+01-1.57374E-02-6.12653E-05 2.40694E-05 1.92554E-13 6.06290E-15
 -1      1251 1.99998E+01-1.49293E-02-8.27853E-05 4.47309E-05 1.06933E-13-1.62988E-13
 -1      1252 1.99997E+01-1.35911E-02-1.10239E-04 7.64670E-05-6.26643E-13 6.28311E-14
 -1      1253 1.99997E+01-1.15374E-02-1.23371E-04 1.20644E-04-1.05965E-12-2.77994E-14
 -1      1254 1.99997E+01-8.64453E-03-8.83575E-05 1.74613E-04-7.79931E-13-3.54140E-14
 -1      1255 1.99998E+01-5.07618E-03 4.68244E-05 2.45318E-04 2.97803E-15 9.30919E-14
 -1      1256 1.99999E+01-1.74475E-03 2.10012E-04 1.98961E-04-1.94674E-13-6.28918E-14
 -1      1257 1.99998E+01-6.66082E-05 7.08407E-05 4.55553E-05-1.94084E-13 2.41040E-14
 -1      1258-1.12527E+00-2.59984E+01-3.91651E+00-2.45660E+00 7.81070E-13 1.27225E-14
 -1      1259-2.25800E+00-1.82578E+01-3.45897E+00-5.00116E+00 9.03499E-13 3.10085E-13
 -1      1260-1.11370E+00-6.03063E+00-2.53033E+00-2.14930E+00 1.26077E-12 7.88702E-13
 -1      1261 6.43413E+00 5.13183E+00-1.02478E+00 5.86165E+00 9.27480E-13 7.69163E-13
 -1      1262 2.27041E+01 1.04651E+01 8.71388E-01 1.48209E+01 3.44169E-13 4.05675E-13
 -1      1263 4.57332E+01 8.95776E+00 2.94180E+00 1.84483E+01-1.13243E-14-1.33005E-13
 -1      1264 6.66558E+01 4.27218E+00 4.69831E+00 1.26344E+01-7.46347E-14-5.37792E-13
 -1      1265 7.39873E+01 2.03258E+00 5.20186E+00-1.05987E+00 2.15106E-15-6.00936E-13
 -1      1266 6.41512E+01 4.82419E+00 4.44413E+00-1.43353E+01 1.16684E-13-4.66738E-13
 -1      1267 4.18122E+01 9.63787E+00 2.60102E+00-1.85637E+01 9.11493E-14-2.78444E-13
 -1      1268 1.93012E+01 1.00372E+01 5.17056E-01-1.35307E+01 7.77156E-14-6.21725E-14
 -1      1269 4.30494E+00 2.83266E+00-1.44641E+00-4.03563E+00 8.65974E-14-7.68274E-14
 -1      1270-1.79996E+00-9.54634E+00-2.81182E+00 3.33609E+00-2.85105E-13 1.14464E-13
 -1      1271-1.95908E+00-2.13190E+01-3.67365E+00 4.92139E+00-7.19536E-13 1.85962E-13
 -1      1272-9.67065E-01-2.64712E+01-3.89747E+00 1.32605E+00-8.26367E-13 5.19446E-14
 -1      1273-1.18822E+00-2.28582E+01-3.57022E+00-3.05503E+00-9.66005E-13-1.45092E-13
 -1      1274-1.47980E+00-1.16324E+01-2.66306E+00-3.39992E+00-5.20695E-13-9.12603E-14
 -1      1275 2.24808E+00 1.33572E+00-1.33068E+00 2.35646E+00-2.04947E-13-1.74305E-13
 -1      1276 1.28878E+01 9.90731E+00 2.31099E-01 1.10882E+01-3.64153E-13-3.82583E-13
 -1      1277 2.94989E+01 1.16168E+01 1.76288E+00 1.75683E+01-1.46105E-13-1.21014E-13
 -1      1278 4.82785E+01 8.03359E+00 3.02228E+00 1.80006E+01 1.64313E-14 1.22791E-13
 -1      1279 6.29137E+01 3.47489E+00 3.88515E+00 1.07317E+01 5.20695E-14 7.11431E-13
 -1      1280 6.79068E+01 1.70060E+00 4.20341E+00-1.51441E+00-1.94289E-14 9.37195E-13
 -1      1281 5.98657E+01 4.77062E+00 3.76459E+00-1.29258E+01-2.46997E-13 9.16378E-13
 -1      1282 4.34323E+01 9.39479E+00 2.79878E+00-1.85167E+01-4.59188E-13 9.89209E-13
 -1      1283 2.40049E+01 1.18310E+01 1.32299E+00-1.61318E+01-5.90195E-13 7.78488E-13
 -1      1284 8.72965E+00 8.12462E+00-2.72938E-01-8.37214E+00-1.86295E-13 3.16192E-13
 -1      1285 4.66406E-01-2.07887E+00-1.74228E+00-1.67127E-01 1.11910E-13-5.32907E-14
 -1      1286-1.63712E+00-1.50003E+01-2.98890E+00 3.84852E+00 7.04770E-13-1.75748E-13
 -1      1287-1.16009E+00-2.41987E+01-3.68032E+00 2.12073E+00 7.05547E-13-5.51191E-14
 -1      1288 2.22337E+01 1.83777E+00-7.20471E-01-2.74494E+00-3.15581E-14-4.10449E-13
 -1      1289 2.04059E+01 4.68535E+00-4.61984E-02-3.21467E+00-1.86379E-14-4.54789E-13
 -1      1290 2.08953E+01 4.79728E+00-1.09142E-01-4.07404E+00-4.77118E-14-4.71512E-13
 -1      1291 1.95920E+01 4.99782E+00-1.85454E-02-2.54554E+00 1.33296E-14-4.12562E-13
 -1      1292 1.98882E+01 5.09358E+00 3.38786E-03-2.94277E+00 6.71685E-15-4.39732E-13
 -1      1293 2.05849E+01 3.94510E+00-2.43753E-02-2.97119E+00-1.69760E-14-3.94795E-13
 -1      1294 1.92313E+01 5.09546E+00-3.79294E-03-1.95523E+00 4.19595E-14-3.54022E-13
 -1      1295 1.93897E+01 5.15315E+00 1.26735E-02-2.24979E+00 3.34038E-14-3.86340E-13
 -1      1296 1.98157E+01 4.37305E+00-2.31381E-02-2.37416E+00 3.27828E-14-3.60705E-13
 -1      1297 1.90304E+01 5.14659E+00 2.30612E-03-1.45478E+00 5.44356E-14-2.98072E-13
 -1      1298 1.91221E+01 5.18064E+00 1.37632E-02-1.70070E+00 5.45536E-14-3.29330E-13
 -1      1299 1.94326E+01 4.57700E+00-1.88277E-02-1.81429E+00 7.29026E-14-3.12340E-13
 -1      1300 1.89080E+01 5.17947E+00 5.05750E-03-1.02291E+00 7.11124E-14-2.42903E-13
 -1      1301 1.89652E+01 5.20027E+00 1.31660E-02-1.23524E+00 6.36470E-14-2.67206E-13
 -1      1302 1.92142E+01 4.69569E+00-1.54067E-02-1.33675E+00 9.17695E-14-2.58814E-13
 -1      1303 1.88304E+01 5.20197E+00 6.30527E-03-6.25777E-01 7.00785E-14-1.97582E-13
 -1      1304 1.88660E+01 5.21465E+00 1.17428E-02-8.22009E-01 7.02390E-14-2.25963E-13
 -1      1305 1.90782E+01 4.77236E+00-1.32735E-02-9.15197E-01 1.14112E-13-2.16830E-13
 -1      1306 1.87896E+01 5.21652E+00 7.31641E-03-2.55032E-01 8.01077E-14-1.47188E-13
 -1      1307 1.88067E+01 5.22259E+00 1.01126E-02-4.39749E-01 7.82404E-14-1.71547E-13
 -1      1308 1.89947E+01 4.82047E+00-1.21847E-02-5.28244E-01 1.16197E-13-1.59525E-13
 -1      1309 1.87820E+01 5.22406E+00 8.44927E-03 1.03986E-01 8.61932E-14-1.02158E-13
 -1      1310 1.87819E+01 5.22408E+00 8.64481E-03-7.66145E-02 8.34671E-14-1.27535E-13
 -1      1311 1.89545E+01 4.84473E+00-1.16837E-02-1.63954E-01 1.34141E-13-1.22076E-13
 -1      1312 1.88077E+01 5.22480E+00 9.86812E-03 4.65685E-01 8.87840E-14-5.47236E-14
 -1      1313 1.87900E+01 5.21865E+00 7.36139E-03 2.81817E-01 8.92849E-14-8.38149E-14
 -1      1314 1.89544E+01 4.84677E+00-1.16441E-02 1.92038E-01 1.41589E-13-7.55750E-14
 -1      1315 1.88694E+01 5.21827E+00 1.15178E-02 8.45319E-01 9.38650E-14-5.07580E-15
 -1      1316 1.88324E+01 5.20536E+00 6.16885E-03 6.50232E-01 9.05274E-14-3.25868E-14
 -1      1317 1.89953E+01 4.82575E+00-1.20879E-02 5.54117E-01 1.44213E-13-3.00003E-14
 -1      1318 1.89722E+01 5.20456E+00 1.32165E-02 1.25258E+00 8.72982E-14 5.80647E-14
 -1      1319 1.89125E+01 5.18292E+00 4.68934E-03 1.04112E+00 8.95664E-14 1.84765E-14
 -1      1320 1.90812E+01 4.77909E+00-1.30684E-02 9.34260E-01 1.49359E-13 1.26184E-14
 -1      1321 1.91372E+01 5.18243E+00 1.41720E-02 1.72234E+00 9.07607E-14 1.45613E-13
 -1      1322 1.90416E+01 5.14739E+00 1.93487E-03 1.47525E+00 8.53866E-14 9.96841E-14
 -1      1323 1.92231E+01 4.69979E+00-1.51932E-02 1.35293E+00 1.41112E-13 8.42763E-14
 -1      1324 1.94087E+01 5.15135E+00 1.26039E-02 2.27784E+00 9.09550E-14 2.42788E-13
 -1      1325 1.92487E+01 5.09160E+00-4.62015E-03 1.97979E+00 8.81725E-14 1.88037E-13
 -1      1326 1.94516E+01 4.57219E+00-1.89259E-02 1.83560E+00 1.41146E-13 1.65017E-13
 -1      1327 1.99200E+01 5.10397E+00 9.50744E-03 2.97510E+00 6.91877E-14 3.71654E-13
 -1      1328 1.96116E+01 4.99088E+00-1.93460E-02 2.58121E+00 7.14984E-14 2.96971E-13
 -1      1329 1.98440E+01 4.35810E+00-2.32345E-02 2.40533E+00 1.26362E-13 2.64760E-13
 -1      1330 2.11242E+01 4.89163E+00 1.10944E-02 3.96550E+00 3.16136E-14 5.42705E-13
 -1      1331 2.03842E+01 4.72819E+00-4.51780E-02 3.31824E+00 3.68178E-14 4.46407E-13
 -1      1332 2.06281E+01 3.90975E+00-2.05589E-02 3.06741E+00 7.83783E-14 3.86996E-13
 -1      1333 2.70868E+01 3.18033E+00 9.11597E-01 4.51882E+00-1.68754E-14 6.97831E-13
 -1      1334 2.20091E+01 3.51028E+00-1.78679E-01 3.81225E+00 8.32667E-17 6.05488E-13
 -1      1335 2.21334E+01 2.54870E+00-3.08518E-02 3.36496E+00 3.21531E-14 5.21583E-13
 -1      1336 2.13952E+01 3.55561E-01-7.59563E-01 1.14405E+00-1.40166E-14 7.33968E-13
 -1      1337 2.19979E+01 1.28830E-01-3.99069E-01-1.24199E+00-5.40540E-14-3.72230E-13
 -1      1338 2.07228E+01 3.03567E-01-1.62622E-01-7.68932E-01-4.25979E-14-4.41827E-13
 -1      1339 2.01560E+01 1.53323E-01-7.25842E-02-3.66006E-01-2.58196E-14-4.46745E-13
 -1      1340 1.97308E+01 9.17746E-02-1.40928E-02-2.94272E-01-2.36339E-14-4.99437E-13
 -1      1341 2.10428E+01 3.65813E-01-1.03844E-01-1.20239E+00-7.06796E-14-3.68129E-13
 -1      1342 1.94109E+01 6.61498E-02 3.32770E-03-9.71153E-02-3.31644E-14-4.91614E-13
 -1      1343 1.93040E+01 4.34529E-02 1.35255E-02-7.82481E-02-3.47795E-14-5.50619E-13
 -1      1344 2.00604E+01 1.34831E-01-3.56519E-02-4.30797E-01-5.53863E-14-3.63274E-13
 -1      1345 1.91872E+01 3.44403E-02 1.31968E-02 1.68996E-02-1.16673E-14-5.56274E-13
 -1      1346 1.92233E+01 2.25269E-02 1.11747E-02 2.79404E-02-5.26749E-15-5.77489E-13
 -1      1347 1.96625E+01 5.93614E-02-9.33377E-03-8.68356E-02-3.50310E-14-3.55337E-13
 -1      1348 1.92189E+01 1.97396E-02 8.57793E-03 7.91672E-02 1.55756E-15-5.55334E-13
 -1      1349 1.93279E+01 1.27005E-02 6.43523E-03 8.58349E-02-1.28803E-16-5.50789E-13
 -1      1350 1.95469E+01 2.99089E-02-4.59853E-03 8.80761E-02-7.59288E-15-3.58973E-13
 -1      1351 1.93889E+01 1.18799E-02 4.34986E-03 1.15390E-01 1.08062E-14-5.48506E-13
 -1      1352 1.95385E+01 6.97410E-03 3.51865E-03 1.19413E-01 1.96126E-14-5.33256E-13
 -1      1353 1.96008E+01 1.64134E-02-3.43080E-03 1.86150E-01-1.25594E-15-3.50693E-13
 -1      1354 1.96381E+01 6.75823E-03 1.99695E-03 1.35841E-01 7.75205E-15-5.26811E-13
 -1      1355 1.98091E+01 2.74475E-03 1.93299E-03 1.37912E-01-4.25148E-15-5.37665E-13
 -1      1356 1.97562E+01 8.50376E-03-2.47467E-03 2.42488E-01 1.54464E-14-3.54486E-13
 -1      1357 1.99296E+01 2.48190E-03 7.80747E-04 1.44251E-01-2.62060E-14-5.38214E-13
 -1      1358 2.01077E+01-1.34231E-03 9.91800E-04 1.44434E-01-2.98969E-14-6.03815E-13
 -1      1359 1.99706E+01 2.23784E-03-1.39275E-03 2.70875E-01-4.41705E-14-3.51024E-13
 -1      1360 2.02349E+01-2.10685E-03 1.68886E-04 1.40722E-01-2.40872E-14-5.91326E-13
 -1      1361 2.04052E+01-6.15831E-03 3.92434E-04 1.38619E-01-3.33923E-14-6.42110E-13
 -1      1362 2.02133E+01-4.46596E-03-1.52474E-04 2.75047E-01-4.35991E-14-3.46546E-13
 -1      1363 2.05250E+01-7.79114E-03-2.11316E-05 1.22995E-01-3.57409E-14-6.32645E-13
 -1      1364 2.06696E+01-1.22151E-02 7.50086E-05 1.17863E-01-3.04444E-16-6.58853E-13
 -1      1365 2.04569E+01-1.29450E-02 1.35845E-03 2.52871E-01-4.03767E-14-2.71857E-13
 -1      1366 2.07661E+01-1.49472E-02 2.04499E-04 8.74986E-02 3.57115E-15-7.07970E-13
 -1      1367 2.08627E+01-1.95115E-02 8.02186E-05 7.84527E-02-3.78649E-14-7.41392E-13
 -1      1368 2.06723E+01-2.38861E-02 3.25822E-03 1.98716E-01-2.02336E-14-3.74835E-13
 -1      1369 2.09181E+01-2.32866E-02 8.72702E-04 3.08929E-02-4.61844E-14-7.08203E-13
 -1      1370 2.09405E+01-2.72225E-02 4.46320E-04 1.72901E-02-2.04233E-14-7.41436E-13
 -1      1371 2.08264E+01-3.69566E-02 5.54997E-03 1.06121E-01-4.12864E-14-4.51313E-13
 -1      1372 2.09357E+01-3.14818E-02 1.91734E-03-4.74931E-02 1.81604E-14-7.55650E-13
 -1      1373 2.08581E+01-3.33806E-02 1.10733E-03-6.54310E-02-7.04254E-15-7.30578E-13
 -1      1374 2.08829E+01-5.02022E-02 7.99166E-03-2.81862E-02-1.48753E-15-5.06434E-13
 -1      1375 2.07772E+01-3.68884E-02 3.06672E-03-1.42403E-01 1.31201E-14-7.27209E-13
 -1      1376 2.05818E+01-3.48509E-02 1.79458E-03-1.62810E-01-4.55755E-15-6.91655E-13
 -1      1377 2.08067E+01-5.95738E-02 9.97346E-03-1.98651E-01-6.68736E-16-5.07329E-13
 -1      1378 2.04179E+01-3.57972E-02 3.78846E-03-2.39567E-01-3.92741E-15-6.44072E-13
 -1      1379 2.01063E+01-2.80681E-02 2.02516E-03-2.58351E-01-3.17138E-14-6.49262E-13
 -1      1380 2.05738E+01-5.92028E-02 1.04969E-02-3.84789E-01 2.97488E-14-4.73367E-13
 -1      1381 1.98692E+01-2.47162E-02 3.44294E-03-3.15060E-01-1.44030E-14-6.32994E-13
 -1      1382 1.94733E+01-1.08669E-02 1.27589E-03-3.26201E-01-3.38668E-14-6.49460E-13
 -1      1383 2.01850E+01-4.33044E-02 8.39710E-03-5.47954E-01-1.33279E-14-4.23435E-13
 -1      1384 1.91959E+01-2.79924E-03 1.65386E-03-3.40089E-01-1.88786E-14-6.24428E-13
 -1      1385 1.87817E+01 1.50370E-02-6.29304E-04-3.37500E-01 1.90047E-14-6.17572E-13
 -1      1386 1.96806E+01-9.78243E-03 2.98798E-03-6.36172E-01 5.39147E-15-4.62877E-13
 -1      1387 1.85183E+01 2.58034E-02-1.23076E-03-2.92362E-01 2.66501E-14-6.09394E-13
 -1      1388 1.81750E+01 4.27255E-02-3.16280E-03-2.73091E-01-1.69426E-14-6.38122E-13
 -1      1389 1.91461E+01 3.59550E-02-5.08976E-03-6.00945E-01 2.57580E-14-4.30407E-13
 -1      1390 1.79894E+01 5.19449E-02-4.08122E-03-1.70019E-01-2.67824E-14-6.57988E-13
 -1      1391 1.78038E+01 6.19661E-02-5.14574E-03-1.37047E-01-7.28714E-14-7.09860E-13
 -1      1392 1.86997E+01 8.04741E-02-1.33969E-02-4.22468E-01-8.04738E-14-3.78138E-13
 -1      1393 1.77475E+01 6.52565E-02-5.53954E-03 9.45486E-04 1.32654E-14-6.89747E-13
 -1      1394 1.77714E+01 6.43626E-02-5.40204E-03 3.86958E-02 1.38934E-14-6.62265E-13
 -1      1395 1.84583E+01 1.07128E-01-1.85421E-02-1.29468E-01-3.16587E-14-3.51406E-13
 -1      1396 1.78623E+01 6.00410E-02-4.92794E-03 1.73688E-01-2.42861E-15-6.15619E-13
 -1      1397 1.80913E+01 4.86301E-02-3.61906E-03 2.05037E-01 1.72154E-14-5.88770E-13
 -1      1398 1.84926E+01 1.04820E-01-1.80898E-02 2.03044E-01 4.66675E-14-3.59929E-13
 -1      1399 1.83056E+01 3.90067E-02-2.74715E-03 3.00609E-01 1.01091E-14-6.22526E-13
 -1      1400 1.86811E+01 2.16527E-02-6.34157E-04 3.17465E-01 1.63194E-15-5.93178E-13
 -1      1401 1.87967E+01 7.47113E-02-1.22593E-02 4.83007E-01 9.63812E-15-4.18139E-13
 -1      1402 1.89646E+01 1.13229E-02-2.53932E-04 3.54189E-01-1.36638E-14-6.26124E-13
 -1      1403 1.93985E+01-5.96990E-03 2.12667E-03 3.54702E-01-6.26474E-14-6.74835E-13
 -1      1404 1.92908E+01 2.93967E-02-3.86816E-03 6.41810E-01-4.25545E-14-4.67614E-13
 -1      1405 1.96885E+01-1.30232E-02 1.44671E-03 3.35089E-01 2.71586E-14-6.05779E-13
 -1      1406 2.00953E+01-2.57909E-02 3.66638E-03 3.23008E-01 9.91473E-14-4.97630E-13
 -1      1407 1.98567E+01-1.43517E-02 3.75834E-03 6.59711E-01 2.33148E-14-3.84526E-13
 -1      1408 2.03417E+01-2.80274E-02 1.96781E-03 2.65171E-01 6.36245E-14-4.98154E-13
 -1      1409 2.06623E+01-3.46694E-02 3.78143E-03 2.46755E-01-2.24681E-14-4.51939E-13
 -1      1410 2.03817E+01-4.43255E-02 8.50002E-03 5.63256E-01 8.89488E-14-3.30298E-13
 -1      1411 2.08371E+01-3.28301E-02 1.57088E-03 1.73400E-01-2.51838E-14-4.80567E-13
 -1      1412 2.10466E+01-3.41209E-02 2.91948E-03 1.54387E-01 7.73687E-16-5.57280E-13
 -1      1413 2.07895E+01-5.66606E-02 9.99546E-03 4.03013E-01-2.92036E-14-4.89007E-13
 -1      1414 2.11439E+01-3.00114E-02 7.87085E-04 8.40913E-02-3.81899E-14-5.49650E-13
 -1      1415 2.12457E+01-2.78245E-02 1.71877E-03 6.81523E-02-7.23410E-14-6.15425E-13
 -1      1416 2.10487E+01-5.43893E-02 9.08863E-03 2.29175E-01-7.31290E-14-4.17723E-13
 -1      1417 2.12749E+01-2.31821E-02 5.71328E-05 1.17713E-02-6.50088E-15-6.34630E-13
 -1      1418 2.12896E+01-1.94037E-02 6.47423E-04 3.96707E-04 5.50081E-14-6.20198E-13
 -1      1419 2.11646E+01-4.35589E-02 6.94509E-03 7.69169E-02-8.84275E-15-4.70285E-13
 -1      1420 2.12674E+01-1.53514E-02-4.05539E-04-3.83858E-02 3.48148E-14-5.60470E-13
 -1      1421 2.12218E+01-1.13465E-02-7.92540E-05-4.52429E-02 4.83160E-14-4.55998E-13
 -1      1422 2.11640E+01-2.98485E-02 4.52384E-03-3.67905E-02 4.49055E-14-3.90821E-13
 -1      1423 2.11663E+01-8.36568E-03-5.78243E-04-6.75316E-02 8.10029E-15-4.42674E-13
 -1      1424 2.10858E+01-4.89477E-03-4.50850E-04-7.07091E-02-5.05086E-14-4.62188E-13
 -1      1425 2.10819E+01-1.70579E-02 2.39259E-03-1.09301E-01 5.15200E-14-3.70419E-13
 -1      1426 2.10128E+01-3.01884E-03-5.40116E-04-7.99272E-02-7.90657E-14-5.07806E-13
 -1      1427 2.09176E+01-3.74072E-04-5.55279E-04-8.04936E-02 2.85527E-14-4.90690E-13
 -1      1428 2.09518E+01-7.00209E-03 7.81120E-04-1.46334E-01-1.26456E-13-2.73314E-13
 -1      1429 2.08393E+01 5.89636E-04-3.91567E-04-8.06144E-02 5.35864E-14-5.90554E-13
 -1      1430 2.07433E+01 2.40121E-03-5.00511E-04-7.95531E-02-8.84022E-14-5.95092E-13
 -1      1431 2.08008E+01-8.00114E-05-2.93804E-04-1.56897E-01-7.58650E-14-3.61070E-13
 -1      1432 2.06680E+01 2.71315E-03-2.12977E-04-7.41252E-02-1.91264E-14-5.33439E-13
 -1      1433 2.05799E+01 3.82147E-03-3.74802E-04-7.22064E-02 7.29531E-14-5.73059E-13
 -1      1434 2.06485E+01 4.07766E-03-9.18273E-04-1.50044E-01-2.23684E-15-4.18997E-13
 -1      1435 2.05124E+01 3.72349E-03-5.30839E-05-6.39714E-02-1.08285E-14-4.57535E-13
 -1      1436 2.04366E+01 4.30052E-03-2.35672E-04-6.17335E-02-7.12228E-14-5.61395E-13
 -1      1437 2.05074E+01 6.12871E-03-1.20911E-03-1.33304E-01 4.90292E-14-2.24916E-13
 -1      1438 2.03790E+01 3.98144E-03 6.67228E-05-5.25915E-02 1.16698E-14-5.15160E-13
 -1      1439 2.03169E+01 4.19072E-03-1.13647E-04-5.03742E-02 1.01803E-13-5.01857E-13
 -1      1440 2.03842E+01 6.74254E-03-1.27622E-03-1.12213E-01-2.47697E-15-1.99564E-13
 -1      1441 2.02699E+01 3.78163E-03 1.43037E-04-4.15127E-02 1.17075E-13-4.42949E-13
 -1      1442 2.02210E+01 3.75728E-03-2.05659E-05-3.95052E-02 6.49065E-14-2.96234E-13
 -1      1443 2.02814E+01 6.47608E-03-1.20779E-03-9.04433E-02 1.33975E-13-2.03952E-13
 -1      1444 2.01840E+01 3.34035E-03 1.81809E-04-3.15754E-02 6.33413E-14-3.82925E-13
 -1      1445 2.01470E+01 3.18264E-03 4.25905E-05-2.98636E-02 6.59032E-15-3.04299E-13
 -1      1446 2.01988E+01 5.74095E-03-1.06794E-03-7.01771E-02 8.82985E-14-2.64972E-13
 -1      1447 2.01188E+01 2.80355E-03 1.92363E-04-2.31472E-02-4.65236E-14-1.34263E-13
 -1      1448 2.00919E+01 2.58219E-03 8.00288E-05-2.17512E-02 5.95848E-14-1.83861E-13
 -1      1449 2.01347E+01 4.81520E-03-8.99796E-04-5.25163E-02-3.13909E-15-2.98747E-13
 -1      1450 2.00711E+01 2.26187E-03 1.83994E-04-1.62959E-02 1.20194E-13-2.19254E-13
 -1      1451 2.00523E+01 2.02202E-03 9.76724E-05-1.51978E-02-4.40783E-14-1.86694E-13
 -1      1452 2.00867E+01 3.87113E-03-7.30212E-04-3.78454E-02 4.58416E-14-1.76669E-13
 -1      1453 2.00376E+01 1.76581E-03 1.64438E-04-1.09171E-02-6.58672E-14-1.51717E-13
 -1      1454 2.00251E+01 1.53434E-03 1.01314E-04-1.00801E-02-8.57661E-14-2.08627E-13
 -1      1455 2.00518E+01 3.00464E-03-5.74298E-04-2.61112E-02-4.64969E-14-1.38835E-13
 -1      1456 2.00152E+01 1.33870E-03 1.39424E-04-6.82221E-03-2.04515E-13-3.79991E-13
 -1      1457 2.00075E+01 1.12961E-03 9.57883E-05-6.20252E-03-2.06716E-13-5.91883E-13
 -1      1458 2.00276E+01 2.26008E-03-4.39187E-04-1.70241E-02-3.11493E-13-2.94405E-13
 -1      1459 2.00012E+01 9.86513E-04 1.12793E-04-3.79499E-03-7.20756E-14-6.96374E-13
 -1      1460 1.99971E+01 8.05116E-04 8.47246E-05-3.34973E-03 4.95776E-15-7.97572E-13
 -1      1461 2.00115E+01 1.64918E-03-3.26891E-04-1.01926E-02-2.00697E-13-4.92240E-13
 -1      1462 1.99935E+01 7.04767E-04 8.68467E-05-1.62622E-03 7.33020E-14-6.20216E-13
 -1      1463 1.99919E+01 5.50749E-04 7.06455E-05-1.31728E-03 1.14342E-13-6.21537E-13
 -1      1464 2.00017E+01 1.16438E-03-2.36341E-04-5.20854E-03 1.14611E-13-4.96769E-13
 -1      1465 1.99903E+01 4.82909E-04 6.28666E-05-1.33489E-04 2.68104E-13-6.92268E-13
 -1      1466 1.99904E+01 3.52289E-04 5.54241E-05 7.01088E-05 2.22938E-13-4.01373E-13
 -1      1467 1.99965E+01 7.87112E-04-1.64727E-04-1.69812E-03 2.10676E-13-3.93747E-13
 -1      1468 1.99900E+01 3.06599E-04 4.19441E-05 8.27260E-04 1.53253E-13-2.72368E-13
 -1      1469 1.99913E+01 1.92794E-04 4.13657E-05 9.47960E-04 9.61242E-14-1.30643E-13
 -1      1470 1.99944E+01 4.92399E-04-1.08099E-04 6.48781E-04 2.95358E-13-2.26076E-13
 -1      1471 1.99917E+01 1.57812E-04 2.67723E-05 1.35339E-03 1.58087E-14-8.69329E-14
 -1      1472 1.99935E+01 5.14154E-05 3.34655E-05 1.40266E-03 8.26790E-14-1.22878E-13
 -1      1473 1.99944E+01 2.49420E-04-6.12338E-05 2.06020E-03 1.39336E-13-1.22865E-14
 -1      1474 1.99944E+01 1.01211E-05 2.39337E-05 1.48273E-03 9.51276E-14 3.33525E-14
 -1      1475 1.99963E+01-1.00729E-04 3.57955E-05 1.45508E-03 1.41596E-13 1.65101E-13
 -1      1476 1.99957E+01 1.43603E-05-1.78580E-05 2.65963E-03 1.18657E-13-4.00008E-14
 -1      1477 1.99972E+01-1.59946E-04 4.17478E-05 1.17690E-03 5.26889E-16 1.37342E-13
 -1      1478 1.99986E+01-2.64055E-04 5.83584E-05 1.07807E-03 2.10748E-14 1.10824E-13
 -1      1479 1.99974E+01-2.87960E-04 2.46524E-05 2.45734E-03 6.57531E-14 1.79612E-13
 -1      1480 1.99995E+01-2.90013E-04 1.22235E-04 2.13944E-04-1.29662E-13 7.72568E-14
 -1      1481 1.99992E+01-7.67054E-04 5.87925E-05 1.17500E-03-4.26820E-14 7.59112E-14
 -1      1482 2.03070E+01 7.51712E-02-1.50042E-01 4.50625E-01 1.36904E-14 7.02362E-13
 -1      1483 2.15255E+01 2.16029E-01-2.28440E-01 6.85302E-01 1.08802E-14 6.96929E-13
 -1      1484 2.17501E+01 8.72041E-01-8.64651E-02 1.99547E+00 7.02216E-15 5.54071E-13
 -1      1485 1.94669E+01 3.36725E-02-2.06278E-02 1.51477E-01 1.46029E-14 6.94264E-13
 -1      1486 1.98403E+01 1.14949E-01-6.13271E-02 2.04089E-01 2.60209E-15 6.80951E-13
 -1      1487 2.04005E+01 1.86553E-01-5.55042E-02 7.20711E-01 9.27036E-15 5.14725E-13
 -1      1488 1.91894E+01 1.78002E-02 5.55427E-03 1.10696E-02 7.13058E-15 6.91672E-13
 -1      1489 1.92735E+01 5.51508E-02 1.81989E-03 3.95903E-02 3.83200E-15 6.84831E-13
 -1      1490 1.97446E+01 7.47267E-02-1.30317E-02 2.24587E-01 1.12271E-14 4.89317E-13
 -1      1491 1.92144E+01 1.13411E-02 6.37605E-03-6.57433E-02 7.99274E-16 7.18569E-13
 -1      1492 1.91581E+01 3.18204E-02 1.17063E-02-4.74834E-02-1.48796E-15 6.92182E-13
 -1      1493 1.95208E+01 3.72709E-02-3.99200E-03-1.18472E-02-4.28997E-15 4.54975E-13
 -1      1494 1.94244E+01 9.26732E-03 3.76059E-03-1.17572E-01 3.66634E-15 7.31307E-13
 -1      1495 1.92835E+01 2.27182E-02 9.16509E-03-1.03582E-01-6.44016E-15 7.16557E-13
 -1      1496 1.95513E+01 2.30397E-02-3.92121E-03-1.50524E-01-8.74604E-15 4.65590E-13
 -1      1497 1.97719E+01 9.46222E-03 1.74238E-03-1.61545E-01-2.43078E-15 7.20842E-13
 -1      1498 1.95661E+01 1.99807E-02 6.14006E-03-1.48566E-01-2.11441E-15 7.19334E-13
 -1      1499 1.97508E+01 1.85574E-02-4.98227E-03-2.50815E-01-3.42825E-15 4.84783E-13
 -1      1500 2.02451E+01 1.12534E-02 1.77416E-04-2.07550E-01 1.90924E-14 7.28403E-13
 -1      1501 1.99766E+01 2.11322E-02 4.32770E-03-1.93277E-01 6.91244E-15 7.18196E-13
 -1      1502 2.00820E+01 1.93125E-02-6.19136E-03-3.41216E-01 6.72813E-15 4.71041E-13
 -1      1503 2.08557E+01 1.43675E-02-1.48785E-03-2.62821E-01 6.43322E-15 6.69917E-13
 -1      1504 2.05146E+01 2.52905E-02 3.23508E-03-2.45206E-01 3.24766E-14 6.97786E-13
 -1      1505 2.05365E+01 2.37501E-02-7.86219E-03-4.39288E-01 3.02093E-14 4.84774E-13
 -1      1506 2.16316E+01 1.84570E-02-3.62000E-03-3.33080E-01 4.40286E-14 6.19010E-13
 -1      1507 2.11993E+01 3.19593E-02 2.28181E-03-3.10178E-01 2.34318E-14 6.61617E-13
 -1      1508 2.11237E+01 3.11212E-02-1.03111E-02-5.57831E-01 3.63754E-14 4.22786E-13
 -1      1509 2.26115E+01 2.25958E-02-6.28824E-03-4.21577E-01 4.99462E-14 5.39877E-13
 -1      1510 2.20632E+01 4.01640E-02 1.02579E-03-3.91864E-01 3.83122E-14 5.77550E-13
 -1      1511 2.18646E+01 4.03451E-02-1.36240E-02-7.05610E-01 7.29859E-14 3.85497E-13
 -1      1512 2.38316E+01 2.44266E-02-8.78939E-03-5.25351E-01 1.10675E-14 4.51087E-13
 -1      1513 2.31436E+01 4.72155E-02-7.82195E-04-4.88887E-01 3.80902E-14 5.05478E-13
 -1      1514 2.27842E+01 4.86065E-02-1.73596E-02-8.83590E-01 6.86682E-14 3.87811E-13
 -1      1515 2.52995E+01 1.87958E-02-8.42226E-03-6.26894E-01-4.71372E-14 5.12507E-13
 -1      1516 2.44657E+01 4.66193E-02-2.73819E-03-5.88103E-01-3.70507E-14 4.45512E-13
 -1      1517 2.38979E+01 4.89627E-02-1.97603E-02-1.07480E+00-2.05252E-14 3.56933E-13
 -1      1518 2.69398E+01-3.64447E-03 1.23758E-03-6.79478E-01-3.22180E-14 6.22571E-13
 -1      1519 2.60062E+01 2.53064E-02-2.65351E-03-6.52478E-01-6.21913E-14 5.13617E-13
 -1      1520 2.51868E+01 2.67462E-02-1.63962E-02-1.22488E+00-7.10767E-14 3.72848E-13
 -1      1521 2.85083E+01-5.52654E-02 2.96808E-02-5.89471E-01 2.90670E-14 6.04482E-13
 -1      1522 2.76305E+01-3.71996E-02 4.55222E-03-6.05604E-01 9.27470E-15 6.11192E-13
 -1      1523 2.65567E+01-4.29331E-02 6.58486E-04-1.21442E+00-4.71498E-15 3.50789E-13
 -1      1524 2.94983E+01-1.37355E-01 7.81428E-02-2.20740E-01 9.70231E-15 5.60703E-13
 -1      1525 2.90049E+01-1.56260E-01 2.46104E-02-3.29370E-01 4.56371E-14 6.09533E-13
 -1      1526 2.77841E+01-1.85672E-01 3.86437E-02-8.44077E-01 3.55063E-14 4.17097E-13
 -1      1527 2.91743E+01-2.05953E-01 1.12289E-01 5.06640E-01-9.04971E-14 5.92151E-13
 -1      1528 2.95398E+01-2.99852E-01 5.10498E-02 2.71429E-01-6.47260E-14 5.41615E-13
 -1      1529 2.84754E+01-3.79749E-01 8.80156E-02 9.02571E-02-3.21236E-14 4.53785E-13
 -1      1530 2.69865E+01-1.53065E-01 4.82450E-02 1.37545E+00-2.14837E-14 6.22030E-13
 -1      1531 2.85424E+01-3.38659E-01 4.54579E-02 1.07969E+00-1.09635E-14 6.59195E-13
 -1      1532 2.81428E+01-4.80534E-01 9.77083E-02 1.51447E+00-7.89230E-14 4.41078E-13
 -1      1533 2.34591E+01 9.50992E-02-1.58261E-01 1.69789E+00-8.26075E-14 7.24865E-13
 -1      1534 2.58120E+01-1.03760E-01-4.47729E-02 1.56798E+00-5.57228E-14 6.13676E-13
 -1      1535 2.65934E+01-2.21229E-01 8.12887E-03 2.67517E+00-5.77698E-14 5.79897E-13
 -1      1536 2.07845E+01 3.50610E-01-3.43337E-01 7.88122E-01-7.92838E-14 8.45282E-13
 -1      1537 2.24868E+01 3.34520E-01-1.90181E-01 1.04276E+00-7.25392E-14 7.58033E-13
 -1      1538 2.45501E+01 4.68029E-01-1.37558E-01 2.29223E+00-1.12951E-13 6.07236E-13
 -1      1539 2.12126E+01 3.11651E-01-2.97287E-01-8.10541E-01 1.10932E-13 7.72271E-13
 -1      1540 2.08791E+01 5.28033E-01-2.54652E-01-3.60246E-01 5.49283E-14 8.02435E-13
 -1      1541 2.35985E+01 9.46016E-01-2.11109E-01 9.81821E-02-2.30371E-15 6.05183E-13
 -1      1542 2.40568E+01 5.49708E-02-8.35808E-02-1.68017E+00 5.38458E-14 5.22221E-13
 -1      1543 2.21968E+01 3.01198E-01-1.62607E-01-1.43207E+00 4.20081E-14 6.09013E-13
 -1      1544 2.45050E+01 6.00471E-01-1.70212E-01-2.14678E+00 1.63952E-13 3.04992E-13
 -1      1545 2.75972E+01-1.77478E-01 1.10809E-01-1.46254E+00 6.76103E-14 2.07223E-13
 -1      1546 2.52637E+01-7.12063E-02-1.34554E-02-1.49631E+00 1.17805E-13 4.32487E-13
 -1      1547 2.64539E+01-9.85778E-02-6.41077E-02-2.78032E+00 1.63758E-13 1.04416E-13
 -1      1548 2.96060E+01-1.94042E-01 1.50501E-01-5.90691E-01-2.79533E-14 2.27374E-13
 -1      1549 2.82253E+01-2.48316E-01 8.16508E-02-7.85430E-01-8.29198E-14 1.39611E-13
 -1      1550 2.80920E+01-5.47824E-01 5.06475E-03-1.82035E+00 7.91381E-15-3.64292E-15
 -1      1551 2.97412E+01-1.14749E-01 9.21548E-02 1.67379E-01 2.65933E-15 3.22006E-13
 -1      1552 2.95436E+01-2.21472E-01 7.82196E-02-5.59454E-03-3.53259E-14 3.09322E-13
 -1      1553 2.85755E+01-4.97588E-01 2.81248E-02-3.74512E-01-8.36449E-14 9.37375E-14
 -1      1554 2.86595E+01-3.86380E-02 2.51883E-02 5.58955E-01 1.10910E-13 2.42598E-13
 -1      1555 2.92381E+01-1.21422E-01 3.61798E-02 4.65879E-01 7.09034E-14 2.74326E-13
 -1      1556 2.80253E+01-2.63144E-01 2.18188E-02 6.67831E-01 6.84973E-14 2.14294E-13
 -1      1557 2.71004E+01 5.02056E-03-1.07059E-02 6.58141E-01-5.38801E-14 5.97716E-14
 -1      1558 2.79842E+01-3.81688E-02 1.68027E-03 6.29047E-01 2.21550E-14 7.64458E-14
 -1      1559 2.68969E+01-6.86315E-02 1.01527E-02 1.13049E+00 1.57233E-13 5.22117E-14
 -1      1560 2.55330E+01 2.21080E-02-2.16159E-02 6.04838E-01-1.88625E-13 4.52825E-13
 -1      1561 2.64240E+01 8.25588E-03-1.23374E-02 6.09259E-01-1.09648E-13 2.91801E-13
 -1      1562 2.55951E+01 3.32070E-02 2.96912E-03 1.18872E+00-2.01156E-13 7.78579E-14
 -1      1563 2.41692E+01 2.48616E-02-2.09426E-02 4.97817E-01-1.52934E-13 9.45764E-13
 -1      1564 2.49378E+01 2.68382E-02-1.38728E-02 5.14486E-01-2.12391E-13 5.62939E-13
 -1      1565 2.43632E+01 6.90920E-02-1.58387E-04 1.05071E+00-3.39949E-13 6.16330E-13
 -1      1566 2.30258E+01 2.20900E-02-1.55756E-02 3.80950E-01 1.95539E-13 7.27821E-13
 -1      1567 2.36584E+01 2.99038E-02-1.07605E-02 4.01352E-01 6.74235E-14 8.29701E-13
 -1      1568 2.32883E+01 7.11508E-02-5.50967E-04 8.46624E-01 3.19649E-14 4.98986E-13
 -1      1569 2.21938E+01 1.74766E-02-1.08437E-02 2.85404E-01 1.64199E-13 4.19713E-13
 -1      1570 2.26499E+01 2.72761E-02-6.57176E-03 3.02493E-01 1.78684E-13 6.42177E-13
 -1      1571 2.24246E+01 6.00812E-02-1.22564E-03 6.48638E-01 2.62537E-13 4.16037E-13
 -1      1572 2.15679E+01 1.33309E-02-7.30341E-03 2.10049E-01-1.01295E-13 3.85680E-13
 -1      1573 2.19055E+01 2.23139E-02-3.78813E-03 2.23874E-01-5.64132E-15 4.26062E-13
 -1      1574 2.17738E+01 4.68110E-02-1.14077E-03 4.86429E-01 6.20823E-14 2.96396E-13
 -1      1575 2.11056E+01 9.91577E-03-4.84087E-03 1.52694E-01-2.76298E-15 6.24855E-13
 -1      1576 2.13518E+01 1.74228E-02-1.98655E-03 1.63424E-01-7.02298E-14 5.73200E-13
 -1      1577 2.12800E+01 3.51361E-02-1.00684E-03 3.58689E-01-1.44203E-13 4.84841E-13
 -1      1578 2.07679E+01 7.28497E-03-3.18920E-03 1.09975E-01 5.73634E-14 5.31560E-13
 -1      1579 2.09456E+01 1.32771E-02-9.25750E-04 1.18112E-01 4.88713E-14 6.72445E-13
 -1      1580 2.09112E+01 2.58060E-02-8.80557E-04 2.61434E-01 3.37937E-14 6.31553E-13
 -1      1581 2.05236E+01 5.31860E-03-2.09566E-03 7.85171E-02-1.17078E-13 5.72321E-13
 -1      1582 2.06507E+01 9.98402E-03-3.36958E-04 8.46180E-02-1.04262E-13 5.28876E-13
 -1      1583 2.06388E+01 1.87415E-02-7.60914E-04 1.88760E-01-8.30028E-14 5.60794E-13
 -1      1584 2.03486E+01 3.86840E-03-1.37233E-03 5.54986E-02-9.29660E-14 5.56655E-13
 -1      1585 2.04387E+01 7.45118E-03-2.74006E-05 6.00460E-02 1.34680E-14 6.20995E-13
 -1      1586 2.04399E+01 1.35279E-02-6.48377E-04 1.35021E-01-2.88589E-14 5.77858E-13
 -1      1587 2.02247E+01 2.80438E-03-8.91914E-04 3.87267E-02-3.05076E-14 7.07744E-13
 -1      1588 2.02877E+01 5.53391E-03 1.23854E-04 4.21046E-02-4.25301E-14 6.41287E-13
 -1      1589 2.02960E+01 9.72466E-03-5.44803E-04 9.55356E-02-9.49596E-14 7.85077E-13
 -1      1590 2.01381E+01 2.02463E-03-5.71194E-04 2.65547E-02 8.37116E-14 5.62846E-13
 -1      1591 2.01815E+01 4.09338E-03 1.88013E-04 2.90567E-02 7.47132E-14 5.54151E-13
 -1      1592 2.01931E+01 6.96274E-03-4.51842E-04 6.66593E-02 1.00148E-13 6.59544E-13
 -1      1593 2.00787E+01 1.45317E-03-3.56395E-04 1.77643E-02 3.22638E-13 2.95278E-14
 -1      1594 2.01081E+01 3.01463E-03 2.05637E-04 1.96114E-02 2.02427E-13 3.25365E-13
 -1      1595 2.01208E+01 4.95913E-03-3.70408E-04 4.56398E-02 3.15828E-13 3.14379E-13
 -1      1596 2.00392E+01 1.03457E-03-2.12700E-04 1.14578E-02 3.59230E-14-4.69665E-13
 -1      1597 2.00584E+01 2.20830E-03 1.99370E-04 1.28157E-02 2.41906E-13-1.35878E-13
 -1      1598 2.00708E+01 3.50589E-03-3.00644E-04 3.04260E-02 4.42261E-13 1.95588E-14
 -1      1599 2.00139E+01 7.28471E-04-1.17311E-04 6.97367E-03 1.58723E-14-5.30110E-13
 -1      1600 2.00258E+01 1.60682E-03 1.81673E-04 7.96648E-03-4.77435E-14-5.52822E-13
 -1      1601 2.00372E+01 2.45274E-03-2.42079E-04 1.94956E-02 9.64526E-14-3.28455E-13
 -1      1602 1.99987E+01 5.05265E-04-5.50233E-05 3.82339E-03-2.59184E-13-2.55420E-13
 -1      1603 2.00056E+01 1.15936E-03 1.59300E-04 4.54454E-03-1.07476E-13-5.04275E-13
 -1      1604 2.00155E+01 1.69129E-03-1.93806E-04 1.17193E-02-1.35017E-13-4.49492E-13
 -1      1605 1.99906E+01 3.42843E-04-1.54981E-05 1.64666E-03-8.27935E-14 2.49257E-14
 -1      1606 1.99940E+01 8.27397E-04 1.35813E-04 2.16629E-03-7.84500E-14-1.01367E-13
 -1      1607 2.00023E+01 1.14264E-03-1.54633E-04 6.25951E-03-2.40581E-13-2.66097E-13
 -1      1608 1.99875E+01 2.24246E-04 8.47545E-06 1.79772E-04 1.84345E-14 1.82292E-13
 -1      1609 1.99884E+01 5.81159E-04 1.12934E-04 5.50147E-04-5.60403E-14 6.11365E-14
 -1      1610 1.99951E+01 7.48377E-04-1.23220E-04 2.49756E-03-3.73086E-14-1.72967E-13
 -1      1611 1.99876E+01 1.35675E-04 2.26471E-05-7.65659E-04-3.22839E-14 1.57317E-13
 -1      1612 1.99869E+01 3.96597E-04 9.14850E-05-5.06780E-04-4.05735E-14 2.78988E-13
 -1      1613 1.99921E+01 4.64053E-04-9.78298E-05-1.74216E-05 5.43427E-15 1.23102E-13
 -1      1614 1.99897E+01 6.41578E-05 3.35336E-05-1.31452E-03-6.18419E-14 4.13595E-13
 -1      1615 1.99881E+01 2.52006E-04 7.25345E-05-1.14266E-03-8.79204E-14 3.16713E-13
 -1      1616 1.99918E+01 2.53156E-04-7.56172E-05-1.60145E-03-2.15857E-13 4.59870E-13
 -1      1617 1.99929E+01-4.77604E-06 5.04931E-05-1.52883E-03-5.12805E-14 4.55713E-13
 -1      1618 1.99908E+01 1.23949E-04 5.92874E-05-1.43479E-03-6.57508E-14 4.81503E-13
 -1      1619 1.99932E+01 8.06876E-05-5.07661E-05-2.45050E-03-5.55846E-14 6.14804E-13
 -1      1620 1.99963E+01-8.83591E-05 7.99999E-05-1.39913E-03-5.73028E-14 4.68716E-13
 -1      1621 1.99942E+01-1.69585E-05 5.70753E-05-1.39506E-03 2.01367E-14 4.51933E-13
 -1      1622 1.99954E+01-9.27866E-05-1.44193E-05-2.63546E-03 1.69407E-14 4.88639E-13
 -1      1623 1.99988E+01-2.24352E-04 8.42008E-05-8.63681E-04-1.80870E-13 5.62018E-13
 -1      1624 1.99973E+01-2.07188E-04 6.57572E-05-9.68611E-04-1.42701E-13 2.98146E-13
 -1      1625 1.99977E+01-3.57177E-04 3.23796E-05-2.11753E-03-6.01660E-14 7.09135E-14
 -1      1626 1.99995E+01-3.53864E-04 1.07722E-04-2.68470E-04 4.86645E-13 4.67364E-13
 -1      1627 1.99997E+01-2.80419E-03 2.61804E-05-1.24760E-03 5.76783E-13 5.31777E-14
 -1      1628 1.99995E+01-1.42418E-03 3.18811E-05-1.09708E-03 4.83466E-13-6.57632E-14
 -1      1629 1.99998E+01-5.58376E-03-1.40473E-05-1.44212E-03 4.32593E-13-2.83000E-13
 -1      1630 1.99997E+01-3.80467E-03 1.33774E-05-1.44728E-03 6.91542E-13-9.42696E-14
 -1      1631 1.99996E+01-2.75936E-03 1.85647E-05-2.52102E-03 1.92242E-13-9.34592E-14
 -1      1632 1.99999E+01-8.18190E-03-2.65248E-05-1.25750E-03-3.71214E-14-8.94341E-14
 -1      1633 1.99999E+01-6.55655E-03-7.49107E-06-1.32294E-03 3.29676E-13-2.77444E-13
 -1      1634 1.99999E+01-4.67890E-03-1.87043E-05-2.59296E-03 1.19453E-13-3.32531E-13
 -1      1635 1.99999E+01-1.01894E-02-2.48345E-05-9.11436E-04-3.69579E-14-1.56720E-13
 -1      1636 1.99999E+01-8.96545E-03-1.31139E-05-9.91615E-04 5.28464E-14 1.90416E-13
 -1      1637 2.00000E+01-6.35587E-03-3.63620E-05-2.11862E-03-9.51226E-14 6.93137E-14
 -1      1638 1.99999E+01-1.14731E-02-1.82315E-05-5.57290E-04-5.93255E-13-3.58612E-13
 -1      1639 1.99999E+01-1.07012E-02-9.58290E-06-6.26235E-04 1.03964E-14-5.48687E-13
 -1      1640 2.00000E+01-7.56723E-03-3.68246E-05-1.45057E-03-9.87700E-14-4.72991E-13
 -1      1641 1.99999E+01-1.21558E-02-1.08231E-05-2.62608E-04-4.23704E-13 2.54189E-13
 -1      1642 1.99999E+01-1.17541E-02-5.72184E-06-3.13735E-04-6.12347E-13 8.73388E-14
 -1      1643 2.00000E+01-8.28506E-03-2.62741E-05-8.20959E-04 4.41632E-14-2.63587E-13
 -1      1644 1.99999E+01-1.23641E-02-5.04608E-06-5.26369E-05-1.85778E-13 2.31134E-14
 -1      1645 1.99999E+01-1.22510E-02-2.69002E-06-8.59146E-05-3.67380E-13 1.98877E-13
 -1      1646 2.00000E+01-8.60387E-03-1.50368E-05-3.27146E-04-1.88477E-13 3.08851E-13
 -1      1647 1.99998E+01-1.22352E-02-1.82697E-06 9.78408E-05-1.48185E-14 1.02666E-13
 -1      1648 1.99999E+01-1.23372E-02-2.28883E-06 7.36860E-05-1.22705E-13 2.28759E-13
 -1      1649 1.99999E+01-8.64348E-03-7.16192E-06 2.23546E-05-9.20924E-14 1.78866E-13
 -1      1650 1.99999E+01-1.18233E-02-1.32658E-06 2.37051E-04 1.85250E-13-4.20180E-15
 -1      1651 1.99999E+01-1.21200E-02-4.58152E-06 2.10594E-04 9.20279E-14 2.10586E-13
 -1      1652 1.99999E+01-8.50233E-03-5.37065E-06 2.93838E-04 8.19778E-14 1.87809E-13
 -1      1653 1.99999E+01-1.10854E-02-3.54905E-06 4.14335E-04 2.98145E-14-2.19379E-13
 -1      1654 1.99999E+01-1.16129E-02-9.49938E-06 3.75596E-04 3.81136E-13-1.65365E-13
 -1      1655 1.99999E+01-8.20705E-03-9.94754E-06 5.81084E-04 2.67378E-13 3.72143E-14
 -1      1656 1.99999E+01-9.93253E-03-7.59671E-06 6.53268E-04-5.03591E-13-1.29210E-13
 -1      1657 1.99999E+01-1.07466E-02-1.61974E-05 6.00213E-04-7.34378E-14-4.23744E-13
 -1      1658 2.00000E+01-7.71240E-03-1.85016E-05 9.58655E-04 8.68429E-14-6.08371E-13
 -1      1659 1.99999E+01-8.22114E-03-1.08412E-05 9.48488E-04-6.20683E-13-1.22832E-13
 -1      1660 1.99999E+01-9.40393E-03-2.28227E-05 8.83005E-04-5.02781E-13 7.78133E-14
 -1      1661 2.00000E+01-6.92231E-03-2.76350E-05 1.45093E-03-1.63405E-13-8.97859E-14
 -1      1662 1.99999E+01-5.98803E-03-1.14288E-05 1.22936E-03-2.38079E-13 2.70767E-13
 -1      1663 1.99999E+01-7.48965E-03-2.51616E-05 1.16837E-03-5.39664E-13 2.68632E-13
 -1      1664 2.00000E+01-5.74834E-03-2.97418E-05 1.99210E-03-1.66750E-13 1.65107E-13
 -1      1665 1.99998E+01-3.51569E-03-2.75793E-06 1.30866E-03-2.08553E-13-6.98770E-15
 -1      1666 1.99998E+01-5.09910E-03-1.82793E-05 1.29817E-03-2.34255E-13 1.49988E-13
 -1      1667 1.99999E+01-4.18894E-03-1.99966E-05 2.38540E-03-1.87320E-13 2.33348E-13
 -1      1668 1.99995E+01-1.44036E-03 9.83665E-07 1.32150E-03-2.33820E-13-5.74745E-14
 -1      1669 1.99996E+01-2.67077E-03-1.75491E-05 1.53142E-03-1.89651E-13-1.40883E-13
 -1      1670 1.99997E+01-2.39078E-03 6.91680E-05 2.55230E-03-2.87773E-13-3.40741E-14
 -1      1671 1.99988E+01-9.94052E-04 4.77933E-05 2.40832E-03-1.58910E-13 6.69299E-14
 -1      1672-9.47207E-01-1.64255E+01-1.85153E+00-1.75115E+00 5.76206E-13 1.30368E-13
 -1      1673-7.72493E-01-1.78144E+01-1.92335E+00-1.43702E-01 5.49564E-13 1.86240E-14
 -1      1674 7.87149E-01-1.01459E+01-1.41056E+00-4.12589E-01 7.53841E-13 3.48013E-13
 -1      1675 2.68984E-01-1.48314E+01-1.81023E+00-6.74726E-01 5.64770E-13 2.64094E-13
 -1      1676 5.35973E+00-2.80966E+00-9.22508E-01 2.89481E+00 8.60201E-13 5.03486E-13
 -1      1677 2.85038E+00-8.36989E+00-1.59706E+00 4.21265E-01 7.49734E-13 4.74787E-13
 -1      1678 1.53980E+01 3.21452E+00-1.46508E-01 8.24500E+00 5.57554E-13 3.89466E-13
 -1      1679 9.31857E+00-9.45020E-01-1.05538E+00 4.37479E+00 8.26894E-13 4.15779E-13
 -1      1680 3.02068E+01 5.67123E+00 7.53667E-01 1.20646E+01 2.69229E-13-9.10383E-15
 -1      1681 2.07792E+01 4.45489E+00-2.49161E-01 9.23382E+00 4.30544E-13 2.92877E-13
 -1      1682 4.67880E+01 4.83920E+00 1.62624E+00 1.06730E+01 3.85525E-14-1.84297E-13
 -1      1683 3.62277E+01 5.94488E+00 7.12953E-01 1.12698E+01 1.99729E-13-4.50751E-14
 -1      1684 5.78919E+01 3.81654E+00 2.22188E+00 4.98978E+00 4.20775E-14-3.48943E-13
 -1      1685 5.13310E+01 5.23398E+00 1.68640E+00 9.43760E+00-1.50296E-14-2.49911E-13
 -1      1686 5.86554E+01 4.13285E+00 2.19993E+00-3.78210E+00-2.32037E-14-3.53162E-13
 -1      1687 5.91098E+01 3.96965E+00 2.21125E+00 2.52025E+00 8.71525E-15-4.14502E-13
 -1      1688 4.97387E+01 5.57882E+00 1.64162E+00-1.05959E+01 1.74444E-14-1.63869E-13
 -1      1689 5.74081E+01 3.92613E+00 2.27078E+00-6.46943E+00-2.84217E-14-2.38920E-13
 -1      1690 3.36750E+01 5.90393E+00 5.70086E-01-1.12245E+01 2.89768E-14-7.81597E-14
 -1      1691 4.45053E+01 5.11937E+00 1.54529E+00-1.13608E+01 4.64073E-14-7.39409E-14
 -1      1692 1.84091E+01 3.83707E+00-3.80171E-01-8.51284E+00 6.48370E-14 3.99680E-15
 -1      1693 2.74279E+01 5.64611E+00 6.30087E-01-1.17487E+01-7.66054E-15-1.34781E-13
 -1      1694 8.25502E+00-2.85354E+00-1.09665E+00-3.53158E+00-7.72715E-14-4.32987E-14
 -1      1695 1.37787E+01 1.92939E+00-2.19790E-01-7.31446E+00 5.17364E-14 7.54952E-15
 -1      1696 2.63754E+00-1.04065E+01-1.53708E+00-5.13242E-01-3.80362E-13 3.41394E-15
 -1      1697 4.77284E+00-4.83196E+00-9.16368E-01-2.55143E+00-1.49658E-13-1.14797E-13
 -1      1698-3.50734E-01-1.65283E+01-1.98159E+00 9.66642E-01-5.14200E-13 9.19265E-14
 -1      1699-2.41941E-01-1.24763E+01-1.61776E+00 1.36146E+00-4.52194E-13 1.06221E-13
 -1      1700-7.89743E-01-1.78702E+01-1.93133E+00-1.24977E-01-5.83811E-13-6.32550E-14
 -1      1701-8.89551E-01-1.73994E+01-1.91783E+00 1.50587E+00-5.40096E-13 5.48173E-14
 -1      1702-3.39656E-01-1.37031E+01-1.60477E+00-7.16687E-01-5.25802E-13 1.70697E-15
 -1      1703-4.41258E-01-1.72646E+01-1.94542E+00 2.66036E-01-5.89528E-13-5.14588E-14
 -1      1704 2.59444E+00-5.81811E+00-9.81099E-01 1.73003E+00-2.34479E-13-7.71605E-15
 -1      1705 1.30546E+00-1.16239E+01-1.61710E+00 3.87784E-01-4.70624E-13 1.70974E-14
 -1      1706 1.02916E+01 1.21075E+00-2.40458E-01 6.52946E+00-1.88516E-13-2.79221E-13
 -1      1707 6.27764E+00-3.86989E+00-1.00990E+00 3.29687E+00-1.52767E-13-1.39555E-13
 -1      1708 2.05289E+01 6.22104E+00 4.49893E-01 1.10776E+01-2.11386E-13-1.20570E-13
 -1      1709 1.37013E+01 3.64092E+00-3.69686E-01 7.69085E+00-2.37810E-13-1.56319E-13
 -1      1710 3.39939E+01 6.66261E+00 1.06258E+00 1.28814E+01-8.12128E-14 1.37890E-13
 -1      1711 2.56401E+01 6.70782E+00 3.34900E-01 1.14628E+01-1.77858E-13-2.30926E-14
 -1      1712 4.67045E+01 5.33730E+00 1.57993E+00 1.09192E+01-4.00652E-14 2.27596E-13
 -1      1713 3.86507E+01 6.96112E+00 1.00876E+00 1.26012E+01-5.87308E-14 1.12910E-13
 -1      1714 5.42326E+01 3.79240E+00 1.74323E+00 4.43762E+00-8.78742E-14 5.53058E-13
 -1      1715 4.97467E+01 5.09871E+00 1.48210E+00 8.85475E+00-2.29955E-14 3.68483E-13
 -1      1716 5.44193E+01 3.94775E+00 1.63579E+00-3.71977E+00-9.81437E-14 6.32716E-13
 -1      1717 5.52449E+01 3.77966E+00 1.74050E+00 1.91113E+00-7.60780E-14 5.29660E-13
 -1      1718 4.61323E+01 5.60423E+00 1.17098E+00-9.26185E+00-1.58970E-13 6.18172E-13
 -1      1719 5.16980E+01 4.22165E+00 1.53454E+00-5.50805E+00-1.37196E-13 5.56277E-13
 -1      1720 3.47020E+01 7.11007E+00 7.48226E-01-1.24190E+01-3.15581E-13 5.43343E-13
 -1      1721 4.31796E+01 5.63166E+00 1.32303E+00-1.15214E+01-2.68507E-13 5.58664E-13
 -1      1722 2.14466E+01 6.42723E+00 1.08357E-01-1.07483E+01-2.26152E-13 4.22329E-13
 -1      1723 2.98099E+01 7.02143E+00 8.83462E-01-1.29916E+01-3.28182E-13 6.22613E-13
 -1      1724 1.07192E+01 1.90389E+00-5.98416E-01-6.21987E+00 7.48290E-14 1.28342E-13
 -1      1725 1.66412E+01 5.36262E+00 2.26659E-01-9.78819E+00-1.06137E-13 3.82028E-13
 -1      1726 4.30208E+00-5.95469E+00-1.20576E+00-2.18851E+00 2.89879E-13-6.48370E-14
 -1      1727 7.37855E+00-4.24347E-01-4.73134E-01-5.01364E+00 1.33671E-13 7.09433E-14
 -1      1728 6.41712E-01-1.31944E+01-1.69332E+00-9.25949E-02 5.25135E-13-1.07098E-13
 -1      1729 1.33096E+00-8.02030E+00-1.17603E+00-6.37096E-01 3.78808E-13-3.30846E-14
 -1      1730-5.32653E-01-1.69057E+01-1.80751E+00-7.83537E-01 5.01543E-13 9.63118E-15
 -1      1731-4.26107E-01-1.43032E+01-1.56226E+00 3.90728E-01 4.16889E-13-6.07847E-14
 -1      1732 2.35160E+01-8.97165E-01 1.74105E-02 6.79032E+00 3.77920E-13 6.66134E-15
 -1      1733 1.27497E+01-4.95029E+00-6.43056E-01 5.50622E+00 5.43121E-13 1.71085E-13
 -1      1734 1.99994E+01-7.17430E-04 9.14641E-05-9.07829E-04 3.86102E-13 3.68910E-14
 -1      1735 1.99990E+01-1.12241E-03 4.89113E-05-1.93547E-03-1.49188E-13-7.64123E-14
 -1      1736-1.54673E-03-1.12076E+01-1.25853E+00 1.52218E+00 4.36984E-13 2.27096E-13
 -1      1737 4.83791E+00-8.63278E+00-1.05118E+00 3.62258E+00 4.52083E-13 3.73840E-13
 -1      1738-1.41502E+00-1.17723E+01-1.29848E+00-9.13260E-01 2.89047E-13-9.88098E-15
 -1      1739 3.53321E+01 2.51431E+00 7.46577E-01 6.18479E+00 2.60125E-13-1.66422E-13
 -1      1740 4.48562E+01 5.50925E+00 1.37144E+00 3.85227E+00 1.78579E-13-1.58984E-13
 -1      1741 4.99593E+01 7.64709E+00 1.79601E+00 1.22277E+00 8.08242E-14-1.83686E-13
 -1      1742 5.00428E+01 7.37826E+00 1.80844E+00-1.98718E+00-9.76441E-14-7.04992E-14
 -1      1743 4.38444E+01 5.09918E+00 1.29802E+00-4.54701E+00-6.38239E-14-1.40998E-14
 -1      1744 3.34633E+01 1.94118E+00 6.21544E-01-6.43168E+00-2.94764E-14-5.12923E-14
 -1      1745 2.16171E+01-2.07012E+00-1.68745E-01-6.57970E+00-2.22045E-14-2.55351E-14
 -1      1746 1.18192E+01-6.27191E+00-6.48585E-01-5.56611E+00-1.49880E-13-1.12438E-13
 -1      1747 3.71707E+00-9.29799E+00-9.92545E-01-3.59375E+00-2.66009E-13-1.19543E-13
 -1      1748-9.45190E-01-1.21510E+01-1.41407E+00-7.60471E-01-3.21521E-13 2.01505E-14
 -1      1749-1.37799E+00-1.23272E+01-1.41047E+00 1.17142E+00-3.06088E-13-5.97300E-14
 -1      1750 1.75588E+00-9.88474E+00-1.10244E+00 3.35899E+00-2.40918E-13 1.70031E-13
 -1      1751 8.72691E+00-6.04640E+00-5.80660E-01 5.85976E+00-1.92624E-13-7.08184E-14
 -1      1752 1.71709E+01-2.00094E+00-1.85181E-01 7.19521E+00-8.33777E-14-8.02691E-14
 -1      1753 2.67766E+01 2.19561E+00 4.23637E-01 7.94637E+00-1.40221E-13 1.44218E-13
 -1      1754 3.62202E+01 4.86837E+00 9.08194E-01 7.19458E+00-1.11841E-13 1.18683E-13
 -1      1755 4.36726E+01 6.71589E+00 1.32666E+00 5.08847E+00-1.85130E-13 2.13607E-13
 -1      1756 4.72234E+01 7.61154E+00 1.48849E+00 1.44092E+00-1.57985E-13 2.44221E-13
 -1      1757 4.55504E+01 7.59536E+00 1.30827E+00-1.75687E+00-1.26454E-13 3.31318E-13
 -1      1758 4.10004E+01 6.45043E+00 1.14577E+00-4.89877E+00-1.25316E-13 2.89990E-13
 -1      1759 3.37513E+01 4.36682E+00 8.57816E-01-7.56535E+00-1.12438E-13 2.50355E-13
 -1      1760 2.35901E+01 1.36937E+00 2.63858E-01-8.02424E+00 1.04472E-13 3.20854E-13
 -1      1761 1.41049E+01-2.96947E+00-3.37171E-01-6.81575E+00 2.07612E-13 1.74138E-13
 -1      1762 6.19530E+00-7.03721E+00-7.75500E-01-5.11067E+00 2.84883E-13 3.90452E-14
 -1      1763 6.72184E-01-1.01916E+01-1.14828E+00-2.86013E+00 3.01925E-13-8.07132E-14
 -1      1764 2.28512E+01 1.97218E+00-2.47808E-02-2.65781E+00-5.90986E-14-3.78669E-13
 -1      1765 1.98856E+01 3.72676E+00-3.57555E-02-2.02744E+00 5.09827E-14-3.01779E-13
 -1      1766 2.01280E+01 3.56925E+00-3.90952E-02-2.32191E+00 2.29677E-14-3.17343E-13
 -1      1767 2.04358E+01 3.17729E+00-4.56556E-02-2.47120E+00 6.73593E-15-3.22936E-13
 -1      1768 2.06533E+01 2.79989E+00-1.40201E-01-2.74585E+00-3.07671E-14-3.49019E-13
 -1      1769 2.05013E+01 2.69855E+00-3.68567E-03-2.09857E+00 1.56769E-14-3.02963E-13
 -1      1770 1.93467E+01 4.24102E+00-2.03151E-02-1.15718E+00 1.08067E-13-2.19463E-13
 -1      1771 1.94405E+01 4.19645E+00-1.58578E-02-1.37436E+00 1.00702E-13-2.43815E-13
 -1      1772 1.92121E+01 4.36498E+00-1.67962E-02-7.69205E-01 1.28999E-13-1.71446E-13
 -1      1773 1.92735E+01 4.33684E+00-1.31130E-02-9.67734E-01 1.28102E-13-2.00303E-13
 -1      1774 1.95002E+01 3.86203E+00-8.28822E-03-1.00333E+00 1.17285E-13-2.08084E-13
 -1      1775 1.91314E+01 4.44006E+00-1.45677E-02-4.08813E-01 1.43232E-13-1.23459E-13
 -1      1776 1.91667E+01 4.42408E+00-1.21867E-02-5.92840E-01 1.36355E-13-1.50472E-13
 -1      1777 1.93628E+01 4.00522E+00-8.24451E-03-6.44220E-01 1.46863E-13-1.54902E-13
 -1      1778 1.90971E+01 4.47532E+00-1.31674E-02-6.48765E-02 1.61119E-13-8.88907E-14
 -1      1779 1.91091E+01 4.46959E+00-1.22260E-02-2.41388E-01 1.55695E-13-1.10363E-13
 -1      1780 1.92837E+01 4.08731E+00-8.02800E-03-3.06039E-01 1.56065E-13-1.15880E-13
 -1      1781 1.91079E+01 4.47325E+00-1.24179E-02 2.74541E-01 1.68540E-13-4.92349E-14
 -1      1782 1.90967E+01 4.47747E+00-1.30125E-02 9.87197E-02 1.63173E-13-6.97740E-14
 -1      1783 1.92568E+01 4.11679E+00-7.86983E-03 1.96331E-02 1.75029E-13-7.81562E-14
 -1      1784 1.91660E+01 4.43177E+00-1.23788E-02 6.22230E-01 1.70444E-13-1.62925E-14
 -1      1785 1.91301E+01 4.44708E+00-1.45162E-02 4.39982E-01 1.71411E-13-3.61915E-14
 -1      1786 1.92818E+01 4.09473E+00-7.85731E-03 3.43087E-01 1.76352E-13-4.16308E-14
 -1      1787 1.92745E+01 4.34657E+00-1.33246E-02 9.85333E-01 1.69965E-13 2.96031E-14
 -1      1788 1.92119E+01 4.37448E+00-1.69589E-02 7.92396E-01 1.69406E-13 1.62717E-15
 -1      1789 1.93613E+01 4.01766E+00-7.90940E-03 6.72415E-01 1.73883E-13-9.56006E-15
 -1      1790 1.94499E+01 4.20036E+00-1.62373E-02 1.39035E+00 1.69862E-13 1.12032E-13
 -1      1791 1.93507E+01 4.24836E+00-2.08393E-02 1.17106E+00 1.69592E-13 6.54390E-14
 -1      1792 1.95024E+01 3.87427E+00-8.16092E-03 1.02074E+00 1.79332E-13 4.61055E-14
 -1      1793 1.97204E+01 3.95974E+00-2.39872E-02 1.84378E+00 1.57091E-13 1.79613E-13
 -1      1794 1.95675E+01 4.04355E+00-2.74328E-02 1.59054E+00 1.59305E-13 1.42313E-13
 -1      1795 1.97246E+01 3.63964E+00-7.91207E-03 1.39677E+00 1.71498E-13 1.27322E-13
 -1      1796 2.01547E+01 3.53565E+00-4.37849E-02 2.33945E+00 1.30160E-13 2.63085E-13
 -1      1797 1.99047E+01 3.70434E+00-3.99823E-02 2.04785E+00 1.47398E-13 2.09541E-13
 -1      1798 2.00646E+01 3.26509E+00-4.85227E-03 1.78775E+00 1.54443E-13 1.92501E-13
 -1      1799 2.09910E+01 2.67503E+00-5.61302E-02 2.74360E+00 7.36954E-14 3.84789E-13
 -1      1800 2.04937E+01 3.09680E+00-5.00337E-02 2.49297E+00 1.02521E-13 3.12569E-13
 -1      1801 2.06005E+01 2.62346E+00 3.23719E-03 2.10767E+00 1.09338E-13 2.65926E-13
 -1      1802 2.17705E+01 1.20600E+00-1.20627E-01 2.24293E+00 2.97470E-14 4.89594E-13
 -1      1803 2.13341E+01 2.25211E+00-1.01378E-05 2.63843E+00 5.40713E-14 4.26048E-13
 -1      1804 2.10233E+01 1.68497E+00-2.14200E-02 2.02436E+00 6.02001E-14 3.76626E-13
 -1      1805 2.10250E+01 7.76406E-01-6.05561E-02 1.43852E+00 3.35842E-14 4.71057E-13
 -1      1806 2.18369E+01 2.44242E+00 8.97547E-02-2.95920E+00-6.61641E-14-3.56673E-13
 -1      1807 2.02451E+01 3.05409E-01-7.31763E-03 5.64233E-01 1.90507E-14 4.26098E-13
 -1      1808 2.07553E+01 4.44256E-01-1.14767E-02 9.45141E-01 2.05599E-14 4.39222E-13
 -1      1809 2.08505E+01 8.47085E-01 1.51993E-03 1.30701E+00 3.41983E-14 3.81542E-13
 -1      1810 2.15668E+01 1.73537E+00 7.88053E-02-2.23949E+00-4.80449E-14-3.36939E-13
 -1      1811 2.06403E+01 5.05886E-01 3.26627E-02-8.23436E-01-4.02976E-14-3.09683E-13
 -1      1812 2.02467E+01 3.61632E-01 8.92248E-03-5.27552E-01-2.23814E-14-3.04531E-13
 -1      1813 2.00803E+01 2.69958E-01 2.75941E-02-2.79368E-01-3.52513E-14-2.88825E-13
 -1      1814 1.99331E+01 1.93705E-01 1.16874E-02-1.33318E-01-1.36245E-14-2.88290E-13
 -1      1815 2.03568E+01 4.99539E-01-6.80940E-03-5.85731E-01-2.58734E-14-2.49244E-13
 -1      1816 1.98460E+01 1.50224E-01 1.69239E-02 1.30795E-02-5.81826E-15-2.86108E-13
 -1      1817 1.98194E+01 1.12468E-01 8.22065E-03 9.46649E-02-1.49967E-15-2.77451E-13
 -1      1818 2.00954E+01 2.68196E-01-6.57527E-03-1.33307E-01-2.19373E-14-2.45885E-13
 -1      1819 1.97968E+01 8.85084E-02 9.06081E-03 1.83209E-01-1.30646E-14-2.82608E-13
 -1      1820 1.98424E+01 6.71056E-02 5.22997E-03 2.31187E-01-1.10003E-14-2.86364E-13
 -1      1821 1.99906E+01 1.54237E-01-5.48904E-03 1.34931E-01-6.76954E-15-2.25057E-13
 -1      1822 1.98663E+01 5.17961E-02 4.65218E-03 2.84883E-01 4.23923E-16-2.78132E-13
 -1      1823 1.99543E+01 3.73206E-02 3.15582E-03 3.12301E-01-3.14364E-15-2.94389E-13
 -1      1824 1.99969E+01 8.99316E-02-4.33208E-03 2.98348E-01-7.39404E-15-2.37740E-13
 -1      1825 2.00099E+01 2.53264E-02 2.21139E-03 3.42010E-01-2.78809E-14-2.74190E-13
 -1      1826 2.01207E+01 1.28368E-02 1.40494E-03 3.53875E-01-2.27009E-14-2.60125E-13
 -1      1827 2.00804E+01 4.64427E-02-3.15564E-03 3.95056E-01-1.26002E-14-2.32329E-13
 -1      1828 2.01966E+01 1.04994E-03 7.40472E-04 3.63439E-01-3.47476E-15-2.52853E-13
 -1      1829 2.03147E+01-1.25759E-02-4.35666E-04 3.60341E-01 1.35820E-14-2.04923E-13
 -1      1830 2.02150E+01 9.13277E-03-2.08670E-03 4.41807E-01 6.59419E-15-1.75384E-13
 -1      1831 2.04012E+01-2.62000E-02-2.71593E-04 3.49128E-01-1.99198E-14-1.87384E-13
 -1      1832 2.05120E+01-4.29617E-02-2.54654E-03 3.28904E-01-8.19819E-15-1.65581E-13
 -1      1833 2.03793E+01-3.08256E-02-1.10096E-03 4.42521E-01 2.57403E-14-1.48187E-13
 -1      1834 2.05995E+01-5.95192E-02-1.07754E-03 2.93479E-01-7.87950E-14-1.90950E-13
 -1      1835 2.06872E+01-8.00904E-02-4.89804E-03 2.52559E-01-7.88549E-14-2.46891E-13
 -1      1836 2.05542E+01-7.87615E-02-9.39909E-05 3.92956E-01-8.43817E-14-1.35373E-13
 -1      1837 2.07653E+01-9.92698E-02-1.81164E-03 1.88545E-01-5.48322E-14-3.04817E-13
 -1      1838 2.08128E+01-1.22245E-01-7.20949E-03 1.23797E-01-2.68574E-14-3.18480E-13
 -1      1839 2.07194E+01-1.36061E-01 1.05165E-03 2.84567E-01-9.97841E-14-1.56585E-13
 -1      1840 2.08689E+01-1.41527E-01-2.54470E-03 2.86570E-02-3.26883E-14-3.79873E-13
 -1      1841 2.08591E+01-1.62461E-01-8.90305E-03-5.98513E-02-2.51067E-14-3.82834E-13
 -1      1842 2.08521E+01-1.98181E-01 2.41965E-03 1.09561E-01-6.27033E-14-2.29725E-13
 -1      1843 2.08790E+01-1.76383E-01-3.29635E-03-1.82815E-01-1.39463E-14-3.79070E-13
 -1      1844 2.07987E+01-1.87315E-01-9.15094E-03-2.88279E-01 3.59565E-15-3.52541E-13
 -1      1845 2.09259E+01-2.52231E-01 3.98385E-03-1.31699E-01-2.05248E-14-2.68543E-13
 -1      1846 2.07681E+01-1.87620E-01-3.97219E-03-4.25282E-01 5.53359E-14-3.76685E-13
 -1      1847 2.06135E+01-1.78319E-01-7.13446E-03-5.30980E-01 6.65145E-14-3.42645E-13
 -1      1848 2.09130E+01-2.76194E-01 5.47566E-03-4.21103E-01 3.09175E-14-2.61023E-13
 -1      1849 2.05230E+01-1.56201E-01-4.29710E-03-6.54583E-01 2.77096E-14-3.16970E-13
 -1      1850 2.03061E+01-1.18392E-01-2.58294E-03-7.33571E-01 2.62164E-14-2.89436E-13
 -1      1851 2.07906E+01-2.42917E-01 6.26394E-03-7.13780E-01 6.74038E-14-2.75821E-13
 -1      1852 2.01593E+01-6.96032E-02-3.68124E-03-8.05001E-01 2.20968E-14-2.92183E-13
 -1      1853 1.99115E+01-3.93768E-03 3.63242E-03-8.25833E-01 1.15836E-14-3.01420E-13
 -1      1854 2.05535E+01-1.32303E-01 5.32859E-03-9.36187E-01 3.93127E-14-2.08982E-13
 -1      1855 1.97334E+01 6.47583E-02-1.45782E-03-8.06786E-01 3.07426E-14-3.06311E-13
 -1      1856 1.95028E+01 1.43127E-01 9.38706E-03-7.46487E-01 2.58574E-14-3.06098E-13
 -1      1857 2.02296E+01 5.08262E-02 1.89198E-03-1.00072E+00 8.78323E-15-1.76055E-13
 -1      1858 1.93403E+01 2.11650E-01 2.62538E-03-6.19097E-01-3.32546E-14-3.16667E-13
 -1      1859 1.91804E+01 2.75360E-01 1.22979E-02-4.78406E-01-7.07368E-14-2.90545E-13
 -1      1860 1.98900E+01 2.63668E-01-3.61330E-03-8.41353E-01-1.85923E-14-2.14797E-13
 -1      1861 1.90878E+01 3.17122E-01 7.65538E-03-2.62603E-01-3.26917E-14-3.03444E-13
 -1      1862 1.90403E+01 3.39293E-01 1.12046E-02-7.31066E-02 3.27663E-14-2.84553E-13
 -1      1863 1.96353E+01 4.33996E-01-8.80353E-03-4.57713E-01-2.71870E-14-2.49493E-13
 -1      1864 1.90536E+01 3.35628E-01 1.15389E-02 1.73542E-01 3.35088E-14-2.76015E-13
 -1      1865 1.91327E+01 3.06151E-01 7.05880E-03 3.58832E-01 4.87882E-14-2.99640E-13
 -1      1866 1.95562E+01 4.92651E-01-1.07738E-02 6.30318E-02 7.93636E-16-2.94381E-13
 -1      1867 1.92488E+01 2.58966E-01 1.20776E-02 5.64453E-01 3.87203E-14-3.68943E-13
 -1      1868 1.94358E+01 1.91694E-01 2.20938E-03 6.94716E-01-3.69487E-14-3.68934E-13
 -1      1869 1.96857E+01 4.14685E-01-8.05174E-03 5.72008E-01 1.65840E-14-3.37623E-13
 -1      1870 1.96139E+01 1.22126E-01 8.59606E-03 8.06952E-01-6.77557E-14-3.28104E-13
 -1      1871 1.98647E+01 4.53653E-02-1.50205E-03 8.55679E-01 5.52726E-16-3.35087E-13
 -1      1872 1.99795E+01 2.34424E-01-2.66696E-03 9.26480E-01-1.84564E-14-3.43668E-13
 -1      1873 2.00508E+01-2.00787E-02 2.61565E-03 8.61818E-01 5.23823E-14-3.28629E-13
 -1      1874 2.03127E+01-8.04289E-02-3.31011E-03 8.33284E-01 8.84384E-14-2.63935E-13
 -1      1875 2.03427E+01 2.50988E-02 2.49208E-03 1.05389E+00 3.81856E-14-2.10058E-13
 -1      1876 2.04636E+01-1.23892E-01-3.38932E-03 7.56186E-01 9.75955E-15-2.66568E-13
 -1      1877 2.06917E+01-1.55451E-01-3.62362E-03 6.75873E-01-4.84990E-14-3.41347E-13
 -1      1878 2.06789E+01-1.44448E-01 5.42606E-03 9.68648E-01 2.14763E-14-2.85205E-13
 -1      1879 2.07869E+01-1.72557E-01-7.51466E-03 5.54946E-01-4.69260E-14-3.87120E-13
 -1      1880 2.09539E+01-1.76787E-01-3.13959E-03 4.54055E-01-5.05559E-14-4.03792E-13
 -1      1881 2.09254E+01-2.38502E-01 5.95320E-03 7.43327E-01-6.23299E-14-3.49090E-13
 -1      1882 2.09929E+01-1.73034E-01-9.11146E-03 3.26331E-01 3.94259E-15-3.76738E-13
 -1      1883 2.10904E+01-1.59003E-01-2.37245E-03 2.30024E-01-1.24618E-14-3.21725E-13
 -1      1884 2.10616E+01-2.57916E-01 5.00837E-03 4.64381E-01 8.93231E-15-2.70456E-13
 -1      1885 2.10837E+01-1.43445E-01-8.60686E-03 1.20159E-01-2.47515E-14-2.82045E-13
 -1      1886 2.11176E+01-1.21299E-01-1.61554E-03 4.30005E-02 4.61671E-14-2.65360E-13
 -1      1887 2.10968E+01-2.25400E-01 3.52116E-03 2.00062E-01 5.67114E-14-2.52035E-13
 -1      1888 2.10793E+01-1.01928E-01-6.86162E-03-3.78820E-02 5.73933E-15-1.78272E-13
 -1      1889 2.10638E+01-7.92462E-02-9.58582E-04-9.09851E-02 2.87474E-14-1.94841E-13
 -1      1890 2.10548E+01-1.68043E-01 2.08682E-03-1.08750E-02 3.49182E-14-1.30827E-13
 -1      1891 2.10070E+01-6.12260E-02-4.69022E-03-1.41818E-01 4.54792E-14-2.35974E-13
 -1      1892 2.09582E+01-4.22020E-02-4.28667E-04-1.72371E-01 3.82040E-15-2.21508E-13
 -1      1893 2.09621E+01-1.07006E-01 9.46004E-04-1.55770E-01-1.18948E-14-1.27864E-13
 -1      1894 2.08932E+01-2.79556E-02-2.64914E-03-1.97684E-01-8.72077E-14-2.59468E-13
 -1      1895 2.08260E+01-1.40644E-02-2.44437E-05-2.10305E-01-1.18976E-13-2.32063E-13
 -1      1896 2.08419E+01-5.45406E-02 1.32398E-04-2.38985E-01-2.18772E-14-1.25423E-13
 -1      1897 2.07601E+01-4.12650E-03-1.01640E-03-2.16689E-01-1.61912E-13-1.71690E-13
 -1      1898 2.06863E+01 4.80492E-03 2.62995E-04-2.16756E-01-1.09543E-13-1.71881E-13
 -1      1899 2.07118E+01-1.54058E-02-3.98325E-04-2.73061E-01-7.78552E-14-6.20006E-14
 -1      1900 2.06243E+01 1.09144E-02 1.32935E-04-2.10702E-01 2.38426E-14-1.05122E-13
 -1      1901 2.05520E+01 1.58160E-02 4.47041E-04-2.03048E-01 1.73040E-13 3.77734E-14
 -1      1902 2.05841E+01 1.03646E-02-7.09867E-04-2.72539E-01-1.11704E-14 2.07264E-13
 -1      1903 2.04967E+01 1.89665E-02 8.41082E-04-1.89922E-01 1.09189E-13-5.50952E-14
 -1      1904 2.04310E+01 2.09565E-02 5.45213E-04-1.78312E-01 3.10806E-14-4.13606E-14
 -1      1905 2.04664E+01 2.50267E-02-8.61715E-04-2.50538E-01 1.06555E-13 2.14553E-13
 -1      1906 2.03834E+01 2.20457E-02 1.20088E-03-1.62070E-01 1.68805E-15-4.02510E-14
 -1      1907 2.03268E+01 2.21365E-02 5.77127E-04-1.49135E-01 4.58393E-14-5.98053E-14
 -1      1908 2.03630E+01 3.15100E-02-9.02827E-04-2.17351E-01 5.42941E-15 4.46960E-14
 -1      1909 2.02873E+01 2.19249E-02 1.31399E-03-1.32421E-01 1.05078E-13-9.07224E-14
 -1      1910 2.02406E+01 2.09122E-02 5.62073E-04-1.19827E-01 1.39909E-13 1.08265E-14
 -1      1911 2.02755E+01 3.25528E-02-8.71358E-04-1.80265E-01 1.03738E-13 4.08750E-15
 -1      1912 2.02088E+01 1.99737E-02 1.26963E-03-1.04230E-01 5.97175E-14-7.90532E-14
 -1      1913 2.01717E+01 1.84256E-02 5.17149E-04-9.29026E-02-2.31205E-14-1.40710E-13
 -1      1914 2.02036E+01 3.03514E-02-7.96047E-04-1.43955E-01 4.32004E-14-3.94176E-14
 -1      1915 2.01466E+01 1.71587E-02 1.13694E-03-7.92422E-02-3.06759E-15-1.91996E-13
 -1      1916 2.01181E+01 1.54482E-02 4.56104E-04-6.95967E-02 3.25988E-14-7.26372E-14
 -1      1917 2.01464E+01 2.64989E-02-6.98025E-04-1.11085E-01 2.27487E-14 7.98238E-15
 -1      1918 2.00989E+01 1.41083E-02 9.64805E-04-5.81726E-02 3.44788E-14-7.66979E-14
 -1      1919 2.00777E+01 1.24597E-02 3.89062E-04-5.02936E-02 1.29898E-13-3.71427E-14
 -1      1920 2.01019E+01 2.20591E-02-5.92233E-04-8.28924E-02 2.29419E-14-5.52362E-14
 -1      1921 2.00635E+01 1.11958E-02 7.84987E-04-4.10837E-02 1.26781E-13-3.54767E-14
 -1      1922 2.00483E+01 9.72740E-03 3.22809E-04-3.48639E-02-1.28113E-13-4.86230E-14
 -1      1923 2.00683E+01 1.76841E-02-4.88574E-04-5.96850E-02 9.36623E-14-1.82746E-14
 -1      1924 2.00380E+01 8.61454E-03 6.16178E-04-2.76676E-02-3.59938E-13-7.36046E-14
 -1      1925 2.00276E+01 7.37410E-03 2.61349E-04-2.29036E-02-3.74571E-13-1.82315E-13
 -1      1926 2.00437E+01 1.37291E-02-3.93020E-04-4.12143E-02-3.01931E-13 3.67383E-14
 -1      1927 2.00204E+01 6.43896E-03 4.67811E-04-1.74395E-02-3.77670E-13-2.20206E-13
 -1      1928 2.00137E+01 5.43029E-03 2.06511E-04-1.38948E-02-2.22264E-13-2.22585E-13
 -1      1929 2.00262E+01 1.03493E-02-3.08623E-04-2.69438E-02-3.70290E-13 1.09939E-13
 -1      1930 2.00089E+01 4.66955E-03 3.43218E-04-9.86459E-03 1.07827E-13-3.16108E-13
 -1      1931 2.00050E+01 3.87073E-03 1.58496E-04-7.30814E-03 1.64580E-13-2.41522E-13
 -1      1932 2.00142E+01 7.57278E-03-2.36377E-04-1.62273E-02-1.80687E-13-7.23509E-14
 -1      1933 2.00020E+01 3.26354E-03 2.41995E-04-4.43403E-03 1.26115E-13-7.65957E-14
 -1      1934 2.00000E+01 2.63814E-03 1.16245E-04-2.66341E-03 2.98360E-13 7.16613E-14
 -1      1935 2.00065E+01 5.35165E-03-1.75916E-04-8.42216E-03 2.46377E-13 2.33114E-14
 -1      1936 1.99983E+01 2.15312E-03 1.61795E-04-7.10547E-04 3.52815E-13-6.79657E-14
 -1      1937 1.99977E+01 1.65616E-03 7.78354E-05 4.34860E-04 3.31848E-13 1.59649E-14
 -1      1938 2.00020E+01 3.59362E-03-1.26260E-04-2.95513E-03 3.05980E-13 1.17379E-13
 -1      1939 1.99969E+01 1.25525E-03 9.96909E-05 1.64580E-03 1.83298E-13-4.15463E-14
 -1      1940 1.99971E+01 8.39020E-04 4.43659E-05 2.27464E-03 9.67541E-14 1.24125E-13
 -1      1941 1.99996E+01 2.18115E-03-8.54223E-05 6.38889E-04 2.32099E-13 9.31720E-14
 -1      1942 1.99969E+01 4.61238E-04 5.02589E-05 2.87539E-03 4.80349E-14-1.07114E-14
 -1      1943 1.99976E+01 6.96091E-05 1.48494E-05 3.03051E-03 9.80643E-14-3.35643E-14
 -1      1944 1.99987E+01 9.90314E-04-5.07990E-05 2.69798E-03-5.94080E-15 6.98447E-14
 -1      1945 1.99977E+01-2.67994E-04 2.70386E-05 3.07762E-03 1.80861E-13 6.90808E-14
 -1      1946 1.99985E+01-6.97216E-04-1.02856E-05 2.77007E-03 1.14744E-13 1.22533E-13
 -1      1947 1.99990E+01-1.20867E-03-2.47899E-05 3.13998E-03-5.53638E-14 8.80871E-14
 -1      1948 1.99986E+01-1.73295E-04-4.09295E-05 3.44864E-03 2.03799E-13 9.52675E-14
 -1      1949 1.98525E+01 1.58154E-01 9.51455E-03 1.44915E-01 2.19581E-14 3.94691E-13
 -1      1950 2.00735E+01 2.16881E-01 1.73874E-02 3.28445E-01 2.05183E-14 4.09693E-13
 -1      1951 2.02786E+01 3.65664E-01-2.32729E-03 5.26742E-01 1.99112E-14 3.40984E-13
 -1      1952 1.97278E+01 9.74118E-02 9.04974E-03-9.51085E-02 1.94358E-14 3.59301E-13
 -1      1953 1.97770E+01 1.23747E-01 1.54527E-02 1.11096E-02 1.32559E-14 3.71492E-13
 -1      1954 1.99778E+01 1.93127E-01-2.96804E-03 9.16044E-02 2.18957E-14 3.22336E-13
 -1      1955 1.97941E+01 7.28275E-02 7.29246E-03-2.55356E-01 1.22732E-14 3.59869E-13
 -1      1956 1.97362E+01 8.44927E-02 1.00852E-02-1.81967E-01-3.04704E-15 3.59441E-13
 -1      1957 1.98982E+01 1.23138E-01-4.07075E-03-1.76231E-01 8.37481E-15 2.76603E-13
 -1      1958 2.00022E+01 6.69907E-02 6.75947E-03-3.84421E-01-1.64022E-14 3.46660E-13
 -1      1959 1.98679E+01 7.07056E-02 6.71097E-03-3.22966E-01-1.61763E-16 3.49677E-13
 -1      1960 1.99781E+01 9.75997E-02-4.41976E-03-3.67525E-01-7.50702E-16 2.47628E-13
 -1      1961 2.03301E+01 7.33491E-02 7.18827E-03-5.10526E-01 1.39931E-14 3.34894E-13
 -1      1962 2.01305E+01 7.19283E-02 5.20813E-03-4.48587E-01-1.95599E-14 3.18441E-13
 -1      1963 2.01812E+01 9.61065E-02-4.33154E-03-5.31703E-01-1.37468E-14 2.16408E-13
 -1      1964 2.07738E+01 8.89661E-02 8.13584E-03-6.53015E-01 1.40825E-14 3.54581E-13
 -1      1965 2.05088E+01 8.39142E-02 4.75286E-03-5.81601E-01 3.89918E-14 3.42393E-13
 -1      1966 2.04902E+01 1.10678E-01-4.29424E-03-6.99281E-01 3.04140E-14 1.97116E-13
 -1      1967 2.13420E+01 1.11222E-01 9.15505E-03-8.26001E-01 8.01295E-14 2.77422E-13
 -1      1968 2.10042E+01 1.04098E-01 4.72862E-03-7.38104E-01 4.48170E-14 3.13984E-13
 -1      1969 2.09017E+01 1.37045E-01-4.56769E-03-8.91370E-01 6.88807E-14 2.23262E-13
 -1      1970 2.20499E+01 1.34820E-01 9.53048E-03-1.03685E+00 5.78326E-14 3.13374E-13
 -1      1971 2.16282E+01 1.28641E-01 4.61925E-03-9.28359E-01 6.63332E-14 2.93714E-13
 -1      1972 2.14207E+01 1.69803E-01-5.32553E-03-1.12159E+00 7.14741E-14 2.29043E-13
 -1      1973 2.29109E+01 1.47287E-01 8.03920E-03-1.27878E+00 1.62413E-14 3.23793E-13
 -1      1974 2.23975E+01 1.48685E-01 3.85164E-03-1.15237E+00 7.32574E-14 3.21591E-13
 -1      1975 2.20569E+01 1.97155E-01-6.76402E-03-1.39176E+00 8.03264E-14 2.60652E-13
 -1      1976 2.39249E+01 1.22059E-01 3.03566E-03-1.51472E+00-5.01810E-14 2.64270E-13
 -1      1977 2.33248E+01 1.44412E-01 1.88085E-03-1.38845E+00-1.23139E-14 2.86242E-13
 -1      1978 2.28204E+01 1.92923E-01-9.05722E-03-1.67983E+00-7.00655E-15 1.92809E-13
 -1      1979 2.50591E+01 1.13059E-02-6.53370E-03-1.64994E+00 1.55191E-14 2.40927E-13
 -1      1980 2.44078E+01 7.71729E-02-1.26785E-03-1.57222E+00-1.97408E-14 2.39826E-13
 -1      1981 2.37176E+01 1.06087E-01-1.19598E-02-1.91737E+00 2.64011E-14 1.10537E-13
 -1      1982 2.62251E+01-2.48987E-01-1.88957E-02-1.50091E+00 5.70551E-14 2.45340E-13
 -1      1983 2.56093E+01-1.13533E-01-4.02631E-03-1.56806E+00-2.09954E-14 2.12570E-13
 -1      1984 2.47480E+01-1.43519E-01-1.39782E-02-1.95824E+00-5.80525E-15 1.05742E-13
 -1      1985 2.72616E+01-6.80907E-01-2.57012E-02-7.97394E-01-5.73847E-14 3.22666E-13
 -1      1986 2.68287E+01-4.84724E-01-4.13836E-03-1.15387E+00 7.66748E-16 2.58262E-13
 -1      1987 2.58947E+01-6.33190E-01-1.24758E-02-1.55898E+00 9.12465E-15 1.26879E-13
 -1      1988 2.79114E+01-1.10264E+00-1.70952E-02 6.56549E-01-7.33857E-14 3.44339E-13
 -1      1989 2.78456E+01-9.69109E-01-2.55216E-03-9.17001E-02-3.45314E-14 3.59413E-13
 -1      1990 2.70832E+01-1.28978E+00-5.18805E-03-4.29987E-01-6.83065E-14 1.45550E-13
 -1      1991 2.78245E+01-9.81300E-01-1.06097E-02 2.51191E+00-7.90808E-14 3.41366E-13
 -1      1992 2.82554E+01-1.17862E+00-1.93346E-02 1.56745E+00-9.46708E-14 3.52173E-13
 -1      1993 2.80521E+01-1.60970E+00 1.78629E-04 1.45008E+00-6.52828E-14 2.95780E-13
 -1      1994 2.67926E+01 2.01015E-01-6.32925E-02 3.42658E+00-1.04625E-13 4.45977E-13
 -1      1995 2.76586E+01-4.74094E-01-7.26497E-02 2.99143E+00-8.18269E-14 3.94004E-13
 -1      1996 2.82942E+01-8.40580E-01-6.47206E-02 3.30789E+00-7.53009E-14 2.58847E-13
 -1      1997 2.55432E+01 1.72977E+00-1.54003E-01 1.84003E+00-1.42941E-13 5.98160E-13
 -1      1998 2.63577E+01 1.15191E+00-1.03885E-01 2.64142E+00-1.30590E-13 5.40224E-13
 -1      1999 2.77833E+01 1.21417E+00-1.04496E-01 3.22684E+00-1.44301E-13 4.41324E-13
 -1      2000 2.55117E+01 1.82899E+00-1.88780E-01-1.43720E+00 2.05752E-13 4.79734E-13
 -1      2001 2.55472E+01 2.06235E+00-1.04435E-01 7.46075E-02 5.35683E-15 5.36121E-13
 -1      2002 2.72883E+01 2.79747E+00-1.43498E-01 4.34810E-01 7.99361E-15 4.70870E-13
 -1      2003 2.67323E+01 5.06732E-01-1.16704E-01-3.33008E+00 1.40277E-13 1.89605E-13
 -1      2004 2.60259E+01 1.18395E+00-9.01654E-02-2.48068E+00 2.60986E-13 3.48849E-13
 -1      2005 2.76548E+01 1.96749E+00-1.13040E-01-2.69294E+00 3.16802E-13 3.12129E-13
 -1      2006 2.81184E+01-8.51058E-01 2.18696E-03-2.93005E+00 1.34490E-13 8.86895E-14
 -1      2007 2.71350E+01-3.50416E-01-5.99503E-02-3.10712E+00 1.47382E-13 6.97602E-14
 -1      2008 2.83085E+01-1.22340E-01-5.42231E-02-3.59187E+00 2.19921E-13 2.33733E-13
 -1      2009 2.84487E+01-1.11800E+00 5.69519E-02-1.12546E+00-6.92120E-14 1.33020E-14
 -1      2010 2.78887E+01-1.12553E+00-3.65007E-02-1.86520E+00 3.67761E-16 9.70127E-14
 -1      2011 2.83000E+01-1.51240E+00-3.54593E-02-2.19956E+00 3.98579E-14 1.20608E-13
 -1      2012 2.78112E+01-7.44188E-01 4.36873E-02 4.91417E-01-4.78836E-14 9.21416E-14
 -1      2013 2.78276E+01-9.67520E-01-2.05592E-02-1.76582E-01-1.17503E-13 1.79915E-14
 -1      2014 2.75112E+01-1.50518E+00-3.16952E-02-1.92252E-01-1.02821E-13-2.43696E-14
 -1      2015 2.66921E+01-2.99907E-01 1.18727E-02 1.35566E+00 1.97970E-13 6.32272E-14
 -1      2016 2.71264E+01-4.99604E-01-1.27481E-02 9.88690E-01 1.05228E-13 9.79165E-14
 -1      2017 2.63926E+01-8.80503E-01-2.99740E-02 1.21306E+00 8.54837E-14-9.08032E-14
 -1      2018 2.54725E+01-1.49585E-02-4.90698E-03 1.59310E+00-2.57524E-14 3.22416E-14
 -1      2019 2.60931E+01-1.27430E-01-7.08567E-03 1.48167E+00 1.67400E-13 1.13329E-13
 -1      2020 2.52687E+01-2.84190E-01-1.67315E-02 1.81899E+00 1.42532E-13 4.38954E-14
 -1      2021 2.43342E+01 1.14117E-01-9.69688E-03 1.48609E+00-4.64171E-13 2.96216E-13
 -1      2022 2.49773E+01 7.08778E-02-9.66379E-04 1.51871E+00-3.32201E-13 8.20819E-14
 -1      2023 2.42498E+01 5.97294E-02-5.68865E-03 1.88019E+00-2.99653E-13 2.84788E-13
 -1      2024 2.33510E+01 1.49151E-01-8.98032E-03 1.24529E+00-1.57719E-13 3.95469E-13
 -1      2025 2.39302E+01 1.43874E-01 3.41869E-03 1.33583E+00-2.91278E-13 3.73648E-13
 -1      2026 2.33637E+01 2.00379E-01 1.16350E-04 1.67087E+00-3.22365E-13 2.32286E-13
 -1      2027 2.25076E+01 1.40061E-01-6.28970E-03 9.71365E-01 2.19858E-13 1.88904E-13
 -1      2028 2.30069E+01 1.50902E-01 5.81582E-03 1.07813E+00 7.34161E-14 2.75584E-13
 -1      2029 2.26007E+01 2.26455E-01 2.80612E-03 1.36407E+00 7.58430E-14 3.71430E-14
 -1      2030 2.18749E+01 1.16186E-01-3.76299E-03 7.40407E-01 2.79998E-13 4.37044E-13
 -1      2031 2.22504E+01 1.31297E-01 6.42169E-03 8.31949E-01 2.30986E-13 3.41695E-13
 -1      2032 2.19753E+01 2.01532E-01 2.37040E-03 1.06150E+00 1.91392E-13 1.25477E-13
 -1      2033 2.13817E+01 9.09750E-02-2.23809E-03 5.53271E-01-1.67099E-13 4.03328E-13
 -1      2034 2.16704E+01 1.05349E-01 5.98713E-03 6.28385E-01 1.04131E-13 4.52205E-13
 -1      2035 2.14888E+01 1.63216E-01 1.75953E-03 8.08481E-01 1.68200E-13 3.93869E-13
 -1      2036 2.10050E+01 6.91078E-02-1.23586E-03 4.07914E-01 1.48631E-14 4.17903E-13
 -1      2037 2.12225E+01 8.11416E-02 5.09003E-03 4.66690E-01-1.59163E-13 3.84084E-13
 -1      2038 2.11067E+01 1.26026E-01 1.09339E-03 6.04925E-01-1.17779E-13 4.43173E-13
 -1      2039 2.07209E+01 5.16254E-02-6.27881E-04 2.97694E-01-3.44635E-14 6.48123E-13
 -1      2040 2.08827E+01 6.11112E-02 4.11100E-03 3.42544E-01 2.36326E-14 5.46169E-13
 -1      2041 2.08115E+01 9.48281E-02 5.64893E-04 4.47005E-01-5.85426E-15 3.91353E-13
 -1      2042 2.05091E+01 3.82068E-02-2.70915E-04 2.15259E-01-6.80883E-14 5.58321E-13
 -1      2043 2.06281E+01 4.54608E-02 3.21957E-03 2.49002E-01-3.60038E-14 6.31879E-13
 -1      2044 2.05865E+01 7.03424E-02 2.07278E-04 3.26984E-01-9.42918E-14 6.44072E-13
 -1      2045 2.03529E+01 2.81143E-02-6.83072E-05 1.54112E-01-9.54357E-14 6.57789E-13
 -1      2046 2.04395E+01 3.35755E-02 2.47349E-03 1.79287E-01-1.04460E-13 5.56937E-13
 -1      2047 2.04171E+01 5.17541E-02-8.42910E-06 2.36883E-01-8.64597E-14 5.74929E-13
 -1      2048 2.02389E+01 2.05965E-02 4.12954E-05 1.09009E-01-1.17290E-14 7.83576E-13
 -1      2049 2.03013E+01 2.46756E-02 1.87640E-03 1.27688E-01-9.72900E-14 7.86980E-13
 -1      2050 2.02910E+01 3.78755E-02-1.24084E-04 1.69777E-01-1.38738E-13 6.27842E-13
 -1      2051 2.01570E+01 1.50200E-02 9.57911E-05 7.59037E-02 3.01524E-13 4.22237E-13
 -1      2052 2.02013E+01 1.80542E-02 1.41040E-03 8.96977E-02 1.76326E-13 5.95798E-13
 -1      2053 2.01984E+01 2.75937E-02-1.75513E-04 1.20092E-01 1.89966E-13 5.14719E-13
 -1      2054 2.00989E+01 1.08909E-02 1.18253E-04 5.17351E-02 5.33246E-13 1.98661E-13
 -1      2055 2.01299E+01 1.31418E-02 1.05196E-03 6.18707E-02 3.54657E-13 3.83600E-13
 -1      2056 2.01314E+01 2.00019E-02-1.88641E-04 8.35088E-02 4.03385E-13 2.49524E-13
 -1      2057 2.00586E+01 7.83802E-03 1.22574E-04 3.42086E-02 3.46928E-13 1.99634E-13
 -1      2058 2.00798E+01 9.50310E-03 7.78634E-04 4.16108E-02 4.63881E-13 2.77093E-13
 -1      2059 2.00836E+01 1.44053E-02-1.80693E-04 5.67384E-02 4.41549E-13 2.24710E-13
 -1      2060 2.00315E+01 5.58554E-03 1.17013E-04 2.16080E-02 6.82684E-14-1.64073E-13
 -1      2061 2.00455E+01 6.81272E-03 5.71421E-04 2.69725E-02 2.26743E-13 8.44911E-14
 -1      2062 2.00503E+01 1.02860E-02-1.62455E-04 3.72962E-02 2.64802E-13 1.86148E-13
 -1      2063 2.00139E+01 3.92822E-03 1.06361E-04 1.26508E-02-2.92791E-13-1.76438E-13
 -1      2064 2.00228E+01 4.82859E-03 4.14973E-04 1.65007E-02-1.08622E-13-1.65110E-13
 -1      2065 2.00278E+01 7.26080E-03-1.40345E-04 2.33111E-02-1.18524E-13 2.68380E-13
 -1      2066 2.00032E+01 2.71141E-03 9.32561E-05 6.38139E-03-1.34875E-13-1.43865E-13
 -1      2067 2.00084E+01 3.36915E-03 2.97152E-04 9.10815E-03-3.02127E-13-2.87714E-13
 -1      2068 2.00131E+01 5.04479E-03-1.17947E-04 1.33777E-02-2.33125E-13 7.02067E-14
 -1      2069 1.99974E+01 1.81640E-03 7.87710E-05 2.09312E-03-5.79112E-14-6.51348E-14
 -1      2070 2.00000E+01 2.29624E-03 2.08317E-04 3.98768E-03-1.01603E-13-1.49602E-13
 -1      2071 2.00041E+01 3.42329E-03-9.70742E-05 6.44628E-03-1.82006E-13-6.42044E-15
 -1      2072 1.99949E+01 1.14744E-03 6.30447E-05-7.24970E-04-1.01342E-13 2.51779E-13
 -1      2073 1.99958E+01 1.50117E-03 1.40804E-04 5.47840E-04 2.36143E-14 1.62807E-13
 -1      2074 1.99992E+01 2.22923E-03-7.87655E-05 1.74285E-03-1.73892E-13 2.21944E-15
 -1      2075 1.99947E+01 6.19957E-04 4.58728E-05-2.42263E-03-1.55196E-13 2.86240E-13
 -1      2076 1.99944E+01 8.92867E-04 8.87444E-05-1.62899E-03-2.37529E-13 2.13121E-13
 -1      2077 1.99970E+01 1.32700E-03-6.24728E-05-1.28555E-03-2.28219E-13 1.67944E-13
 -1      2078 1.99957E+01 1.46186E-04 2.83815E-05-3.19963E-03-1.50052E-13 2.58850E-13
 -1      2079 1.99948E+01 3.83029E-04 4.87640E-05-2.81076E-03-3.15487E-14 3.09758E-13
 -1      2080 1.99966E+01 5.87986E-04-4.75083E-05-3.00490E-03-1.08355E-13 6.39543E-14
 -1      2081 1.99972E+01-3.66944E-04 1.71056E-05-3.08691E-03 2.78577E-13 1.07128E-13
 -1      2082 1.99962E+01-1.22598E-04 2.12379E-05-3.12617E-03 7.06154E-14 1.84301E-13
 -1      2083 1.99972E+01-1.13034E-04-2.86036E-05-3.61345E-03 7.59457E-14-2.14682E-13
 -1      2084 1.99986E+01-9.19205E-04 4.95531E-07-2.35362E-03-1.00428E-13-6.54709E-14
 -1      2085 1.99976E+01-5.93112E-04 6.48986E-06-2.83117E-03 2.18736E-13 1.28148E-13
 -1      2086 1.99982E+01-7.43212E-04-2.53067E-06-3.38529E-03 1.91668E-13 5.54991E-15
 -1      2087 1.99990E+01-1.49198E-03 1.80997E-05-2.70238E-03 2.28037E-14 1.27065E-13
 -1      2088 2.00005E+01-4.63213E-03-1.79214E-06-2.28124E-03-1.01558E-13 3.05107E-13
 -1      2089 2.00004E+01-3.90856E-03 2.49314E-05-2.63127E-03-1.55091E-13 8.38072E-14
 -1      2090 2.00002E+01-3.77310E-03 1.13335E-07-3.01279E-03-1.42635E-13-3.99865E-13
 -1      2091 2.00000E+01-2.90214E-03 9.99988E-06-3.16010E-03-1.89816E-14-4.40671E-13
 -1      2092 2.00005E+01-2.24607E-03-1.72961E-05-3.24130E-03-1.61433E-13-8.06638E-14
 -1      2093 1.99997E+01-2.77525E-03 3.38992E-06-3.20940E-03 5.88705E-14-2.17926E-13
 -1      2094 1.99993E+01-1.89566E-03-1.00245E-05-2.96635E-03 2.93252E-14 2.89268E-14
 -1      2095 1.99991E+01-1.50302E-03-1.49957E-05-3.43700E-03 9.23042E-15 1.01556E-13
 -1      2096 1.99999E+01-1.97575E-03-1.04560E-05-3.71754E-03-1.85985E-14-4.97006E-13
 -1      2097 2.00005E+01-5.08682E-03-4.80967E-06-1.44690E-03-5.32870E-14-6.75842E-13
 -1      2098 2.00005E+01-4.58957E-03 3.53265E-05-1.81993E-03-1.01910E-13-1.50446E-13
 -1      2099 2.00008E+01-2.33728E-03-1.30683E-05-2.30706E-03-1.50089E-13-6.89355E-15
 -1      2100 2.00003E+01-5.21905E-03-5.45626E-06-7.13942E-04 2.97416E-13-1.07491E-13
 -1      2101 2.00004E+01-4.93180E-03 3.56450E-05-1.02709E-03 1.32938E-13-2.51050E-13
 -1      2102 2.00007E+01-2.15630E-03-2.29484E-06-1.34066E-03 1.43753E-13-2.68143E-13
 -1      2103 2.00001E+01-5.14193E-03-3.00826E-06-1.91630E-04 7.14596E-14 3.07780E-13
 -1      2104 2.00002E+01-5.03003E-03 2.76993E-05-4.12096E-04 1.45731E-13 1.47658E-13
 -1      2105 2.00005E+01-1.82737E-03 8.11600E-06-5.64459E-04 4.43172E-13-1.50342E-13
 -1      2106 2.00000E+01-4.98195E-03 3.11618E-06 1.48517E-04-7.07662E-14 6.44767E-14
 -1      2107 2.00001E+01-4.99664E-03 1.58370E-05-2.37995E-06-6.79296E-14 2.32051E-13
 -1      2108 2.00003E+01-1.50497E-03 1.58933E-05-5.18559E-05 1.25558E-13 1.53811E-13
 -1      2109 2.00000E+01-4.81581E-03 1.24880E-05 4.10978E-04-4.80151E-14 2.18856E-13
 -1      2110 2.00000E+01-4.92917E-03 4.33696E-06 2.78549E-04-1.89496E-13 2.39966E-13
 -1      2111 2.00002E+01-1.31138E-03 1.92404E-05 2.65822E-04-2.52370E-13 5.39699E-14
 -1      2112 2.00001E+01-4.64940E-03 2.27119E-05 7.23635E-04 2.61553E-14-6.07489E-14
 -1      2113 2.00001E+01-4.86429E-03-4.05228E-06 5.54884E-04-8.01677E-14 2.36810E-13
 -1      2114 2.00002E+01-1.30364E-03 1.74047E-05 5.33103E-04-3.13021E-13 2.39733E-13
 -1      2115 2.00003E+01-4.42257E-03 3.03967E-05 1.17263E-03 3.78308E-14-5.81877E-13
 -1      2116 2.00002E+01-4.76525E-03-8.53418E-06 9.39728E-04 1.05710E-13-4.04410E-13
 -1      2117 2.00004E+01-1.45580E-03 1.17811E-05 8.99586E-04-1.08519E-13-2.67320E-13
 -1      2118 2.00004E+01-4.03389E-03 3.12476E-05 1.78617E-03 1.69843E-13 1.25740E-13
 -1      2119 2.00003E+01-4.54485E-03-9.11176E-06 1.48911E-03 1.78353E-13-1.36465E-13
 -1      2120 2.00005E+01-1.67722E-03 2.13602E-06 1.46354E-03 3.45422E-13-2.75111E-13
 -1      2121 2.00003E+01-3.40484E-03 2.05926E-05 2.44226E-03 2.07730E-13 3.16748E-13
 -1      2122 2.00003E+01-4.08231E-03-6.51964E-06 2.15732E-03 1.69005E-13 3.33025E-14
 -1      2123 2.00006E+01-1.83472E-03-8.00736E-06 2.21551E-03 4.50071E-13 7.44258E-14
 -1      2124 1.99999E+01-2.57835E-03-2.02560E-05 2.92903E-03-1.56013E-13-5.06504E-14
 -1      2125 2.00002E+01-3.31954E-03 7.53640E-06 2.75224E-03-6.16630E-14 2.04904E-13
 -1      2126 2.00004E+01-1.78049E-03-5.45463E-06 2.96699E-03 4.65070E-14 3.29515E-14
 -1      2127 9.86552E+00-6.19339E+00-2.23971E-01 5.71827E+00 2.28817E-13 1.58942E-13
 -1      2128 6.43848E+00-7.19069E+00-3.66306E-01 4.68220E+00 1.78857E-13 3.12916E-13
 -1      2129-2.70129E-02-8.06345E+00-4.83530E-01-1.61967E-02 3.21472E-13 6.80012E-14
 -1      2130 1.37839E-01-7.20015E+00-3.68435E-01-1.56708E+00 2.54824E-13 3.26406E-14
 -1      2131 2.48774E+00-7.05899E+00-3.55698E-01 3.17287E+00 2.99150E-13 2.35700E-13
 -1      2132 7.08894E-01-8.25688E+00-5.29139E-01 1.47000E+00 3.35842E-13 6.67799E-14
 -1      2133 1.46262E+00-5.40538E+00-2.45904E-01 1.16123E+00 2.50161E-13 1.09468E-13
 -1      2134 1.77355E+01-4.66919E+00-1.28457E-01 6.42048E+00 3.32401E-13-1.04750E-13
 -1      2135 1.29629E+01-6.43938E+00-4.27528E-01 5.52147E+00 3.93907E-13-2.65066E-14
 -1      2136 1.40976E+01-6.33670E+00-1.14127E-01 6.33276E+00 1.14575E-13-1.02487E-14
 -1      2137 2.81718E+01-2.25970E+00 8.81527E-02 5.37131E+00 2.38309E-13-2.70339E-13
 -1      2138 2.26978E+01-4.13609E+00-2.79132E-01 5.14405E+00 2.40086E-13-7.47735E-14
 -1      2139 1.95490E+01 4.04812E+00-2.72929E-02-1.57774E+00 8.14717E-14-2.63524E-13
 -1      2140 1.96941E+01 3.97239E+00-2.36528E-02-1.82723E+00 6.80870E-14-2.84273E-13
 -1      2141 2.00251E+01 3.27426E+00-1.37571E-02-1.78347E+00 5.65624E-14-2.77400E-13
 -1      2142 1.97139E+01 3.63808E+00-6.83068E-03-1.38890E+00 9.01592E-14-2.43276E-13
 -1      2143 4.20938E+01 4.92895E+00 4.43330E-01 1.04853E+00 1.85962E-13-3.03091E-14
 -1      2144 3.85896E+01 3.48798E+00 2.05010E-01 1.60059E+00 2.27152E-13-6.17284E-14
 -1      2145 4.28047E+01 7.05570E+00 4.15281E-01-1.85128E-01 5.88418E-14-1.02827E-13
 -1      2146 4.22437E+01 6.41909E+00 4.08933E-01 3.88333E-01 1.70308E-13-6.44484E-14
 -1      2147 4.28100E+01 6.12189E+00 4.80537E-01-9.60295E-01-1.45606E-13-4.99045E-14
 -1      2148 4.32783E+01 6.91536E+00 4.24602E-01 1.64970E-02-1.26621E-13-1.18808E-13
 -1      2149 3.76284E+01 2.95029E+00 1.54817E-01-1.86413E+00-9.28702E-14 7.77156E-16
 -1      2150 4.19133E+01 4.52412E+00 5.04572E-01-1.54525E+00-9.53126E-14 9.54792E-15
 -1      2151 2.99751E+01-1.40824E+00-9.36142E-02-4.07047E+00-1.67089E-14-7.23865E-14
 -1      2152 3.50575E+01 3.17005E-01 1.90866E-01-3.36283E+00-6.30052E-15 6.46150E-14
 -1      2153 2.15069E+01-4.64312E+00-2.69749E-01-5.34417E+00-2.08722E-14-2.69784E-14
 -1      2154 2.68936E+01-2.52364E+00 9.96561E-02-5.66626E+00-1.19904E-14-1.08025E-13
 -1      2155 2.99648E+01-3.63062E+00 8.20080E-02-2.88134E+00-1.57929E-14-2.60902E-14
 -1      2156 1.28840E+01-6.59419E+00-2.46023E-01-5.84559E+00-1.84242E-13-1.59255E-13
 -1      2157 1.75422E+01-5.32347E+00-5.31648E-02-6.52784E+00-1.21902E-13-5.35127E-14
 -1      2158 4.06772E+00-7.48147E+00-4.29687E-01-3.80187E+00-1.48381E-13-7.89091E-14
 -1      2159 7.55124E+00-5.98851E+00-1.67936E-01-5.54427E+00-1.28841E-13-1.86934E-13
 -1      2160 5.66405E-01-7.58382E+00-4.02247E-01-1.13683E+00-2.14689E-13-3.31957E-14
 -1      2161 1.93902E+00-7.11042E+00-3.03778E-01-2.60128E+00-1.46105E-13-1.74860E-14
 -1      2162 4.87701E+00-4.99467E+00-1.11169E-01-4.20851E+00-5.65104E-14-1.11244E-13
 -1      2163 8.43711E-01-7.07887E+00-3.24774E-01 2.41064E+00-8.80129E-14 4.32987E-14
 -1      2164 1.54426E-01-7.45445E+00-3.81017E-01 9.02286E-01-1.58923E-13-4.88498E-14
 -1      2165 4.97884E+00-6.18581E+00-2.33620E-01 5.38713E+00-6.70020E-14 2.27929E-13
 -1      2166 2.36301E+00-7.69401E+00-4.59755E-01 3.88431E+00-7.13873E-14 1.97009E-13
 -1      2167 1.32009E+01-4.77603E+00-4.99714E-02 7.40405E+00-2.52021E-14-1.07046E-13
 -1      2168 8.97126E+00-6.36761E+00-3.12413E-01 6.23014E+00-9.71445E-14 2.19755E-14
 -1      2169 2.19256E+01-2.10218E+00 9.48454E-02 7.18151E+00-5.62883E-14 7.98250E-14
 -1      2170 1.75522E+01-4.27078E+00-1.89276E-01 6.66541E+00-2.87548E-14-3.71647E-14
 -1      2171 2.92877E+01 5.14286E-01 1.78218E-01 6.04433E+00-1.18627E-13 1.55875E-13
 -1      2172 2.46546E+01-1.18842E+00-1.17522E-01 6.14849E+00-1.30951E-13 1.74305E-13
 -1      2173 2.51763E+01-3.39076E+00 6.65867E-02 5.51017E+00-7.67164E-14 1.56097E-13
 -1      2174 3.60380E+01 3.71134E+00 3.23881E-01 4.09025E+00-1.20091E-13 1.01696E-13
 -1      2175 3.20672E+01 2.22647E+00 3.87545E-02 4.41834E+00-8.44186E-14 6.83897E-14
 -1      2176 3.96197E+01 6.06426E+00 3.05870E-01 2.02255E+00-2.29927E-13 1.97065E-13
 -1      2177 3.73431E+01 5.12029E+00 1.97874E-01 3.23919E+00-2.21129E-13 1.44440E-13
 -1      2178 3.47108E+01 4.06314E+00 2.80255E-01 1.10102E+00-1.99174E-13 1.19627E-13
 -1      2179 4.05072E+01 7.42714E+00 2.47508E-01 3.83401E-02-1.10911E-13 1.02500E-13
 -1      2180 3.99017E+01 7.28856E+00 2.72748E-01 1.13242E+00-1.95954E-13 8.31002E-14
 -1      2181 3.81817E+01 7.20893E+00 9.21174E-02-1.14241E+00-1.21736E-13 6.48925E-14
 -1      2182 4.05549E+01 7.49399E+00 3.43961E-01-3.40645E-01-1.37612E-13 9.96703E-14
 -1      2183 3.60248E+01 8.55710E+00 2.70681E-01 3.95904E-02-1.47660E-13 8.22259E-15
 -1      2184 3.49122E+01 3.97291E+00 4.30245E-02-2.60070E+00-2.93099E-14 1.21458E-13
 -1      2185 3.67258E+01 5.25002E+00 7.00850E-02-1.35424E+00-1.00475E-14 5.39013E-14
 -1      2186 3.02125E+01 1.14823E+00-2.98697E-02-4.58115E+00 5.87169E-14 9.10383E-15
 -1      2187 3.40241E+01 2.47870E+00 1.21958E-01-3.88407E+00-2.02095E-16 3.81917E-14
 -1      2188 3.29230E+01 2.58494E+00 2.07701E-01-5.70323E-01 1.22041E-13-9.50906E-14
 -1      2189 2.22674E+01-1.92783E+00-1.81494E-01-6.38803E+00 2.25597E-13 1.65756E-13
 -1      2190 2.71202E+01-1.14293E-01 1.25639E-01-6.60601E+00 9.60898E-14 1.28564E-13
 -1      2191 1.46676E+01-4.84142E+00-2.45660E-01-6.71846E+00 3.39062E-13 1.84408E-13
 -1      2192 1.89765E+01-2.80217E+00 3.02125E-02-7.38726E+00 2.16938E-13 2.67064E-13
 -1      2193 6.69730E+00-6.67384E+00-3.67147E-01-5.70266E+00 3.43670E-13-1.54321E-14
 -1      2194 1.04024E+01-4.99683E+00-9.84274E-02-7.00812E+00 3.30624E-13 8.42000E-14
 -1      2195 2.03801E+00-6.96124E+00-3.26906E-01-3.67127E+00 2.30427E-13-1.14908E-13
 -1      2196 4.03557E+00-6.38767E+00-2.54014E-01-4.95522E+00 2.56073E-13-9.18987E-14
 -1      2197 7.44806E+00-5.17252E+00-8.85815E-02-6.49321E+00 2.47691E-13-1.14131E-13
 -1      2198 3.62789E+01 9.86918E-01 2.25983E-01 3.00850E+00 2.22183E-13-1.03473E-13
 -1      2199 3.13989E+01-6.90396E-01-4.45089E-02 3.79807E+00 2.31482E-13-1.01918E-13
 -1      2200 2.08273E+01 1.10710E+00-1.98419E-02-1.51841E+00-3.51108E-14-3.35138E-13
 -1      2201 3.86340E+01 5.50398E+00 3.94223E-01 9.57302E-01-1.45217E-13-6.96665E-14
 -1      2202 3.64235E+01 1.47274E+00 2.78977E-01-5.39638E-02 2.22988E-13 1.22125E-14
 -1      2203 2.07270E+01 1.33383E+00-1.93844E-02-1.55522E+00-1.29549E-14-2.85263E-13
 -1      2204 6.32039E+00-5.80366E+00-1.62733E-01 4.90546E+00 1.27565E-13 2.07445E-13
 -1      2205 1.99997E+01-1.87061E-03-1.08523E-05 3.03712E-03-2.15271E-13-1.18105E-13
 -1      2206 2.27530E+01-5.78331E+00-1.22380E-02 5.30086E+00 2.44915E-13-2.28678E-13
 -1      2207 2.37473E+00-5.00288E+00-1.64494E-01-3.21298E+00 2.94820E-13 1.08247E-14
 -1      2208 3.09508E+01-3.14113E+00 1.25489E-01 2.37131E+00 2.23765E-13-1.44551E-13
 -1      2209 1.47681E+01-5.40738E+00-5.08785E-02-7.35123E+00 3.52440E-13 1.20220E-13
 -1      2210 2.97130E+01-9.74823E-01 1.72230E-01-3.52365E+00 1.72987E-13-6.98330E-14
 -1      2211 3.46815E+01 6.29471E+00 1.15811E-01 3.56800E-01-6.82787E-15-1.10356E-13
 -1      2212 3.62877E+01 7.24009E+00 2.94491E-01 2.11701E-01-2.16827E-13 6.97220E-14
 -1      2213 3.09783E+01-1.13839E-02 1.68378E-01 3.20580E+00-8.91787E-14 1.53932E-13
 -1      2214 1.75525E+01-5.40290E+00-4.51749E-02 7.16329E+00 3.56382E-14 3.50275E-14
 -1      2215 9.03501E+00-5.39946E+00-4.22742E-02 6.90879E+00 1.48770E-14 1.03778E-13
 -1      2216 1.78522E+00-4.63575E+00-1.57739E-01-3.38171E-01-4.14946E-14-2.80331E-14
 -1      2217 2.22067E+01-6.07602E+00-8.34512E-02-5.41218E+00-9.89209E-14-8.75966E-14
 -1      2218 3.56502E+01 6.64280E-01 2.16196E-01-2.01138E-01-6.83897E-14 7.25531E-14
 -1      2219 3.83935E+01 5.94611E+00 3.77334E-01-1.08221E+00 2.30260E-13 1.38778E-15
 -1      2220 3.88630E+01 7.46907E+00 3.74952E-01-7.28848E-03-1.83187E-14-1.03639E-13
 -1      2221 1.25613E+01-5.93368E+00-2.48600E-02-6.30773E+00-1.39389E-13-1.63133E-13
 -1      2222 3.06087E+00-5.03268E+00-1.71871E-01 3.91950E+00 4.91274E-14 1.66256E-13
 -1      2223 2.29449E+01-3.95326E+00 3.89215E-02-6.20222E+00 2.72393E-13 1.48770E-13
 -1      2224 2.03352E+01 5.44549E-01 5.81958E-03 5.11740E-01 2.93515E-14 2.72399E-13
 -1      2225 2.05614E+01 7.27579E-01 2.08627E-02 8.19435E-01 3.30413E-14 2.82272E-13
 -1      2226 1.94663E+01 3.64749E+00-1.13062E-02-4.99507E-01 1.50616E-13-1.31927E-13
 -1      2227 1.95226E+01 3.59249E+00-9.49381E-03-6.67425E-01 1.48910E-13-1.63978E-13
 -1      2228 1.95919E+01 3.48634E+00-1.30429E-02-8.16359E-01 1.37551E-13-1.77434E-13
 -1      2229 1.96784E+01 3.39430E+00-1.16723E-02-9.94642E-01 1.13511E-13-1.98837E-13
 -1      2230 1.97130E+01 3.16927E+00 6.90460E-04-6.63601E-01 1.37521E-13-1.55385E-13
 -1      2231 1.93800E+01 3.76153E+00-9.44163E-03 1.00231E-01 1.71603E-13-6.07838E-14
 -1      2232 1.93815E+01 3.76005E+00-9.03925E-03-5.62086E-02 1.65686E-13-8.31037E-14
 -1      2233 1.94191E+01 3.72114E+00-9.31601E-03 3.95205E-01 1.76716E-13-3.84944E-14
 -1      2234 1.93923E+01 3.74588E+00-9.88162E-03 2.37601E-01 1.72965E-13-5.06548E-14
 -1      2235 1.95279E+01 3.41938E+00 2.05802E-04 1.57000E-01 1.60790E-13-5.24056E-14
 -1      2236 1.95148E+01 3.61117E+00-9.97116E-03 6.92349E-01 1.67895E-13-1.17129E-14
 -1      2237 1.94590E+01 3.66472E+00-1.13390E-02 5.31449E-01 1.71440E-13-3.10776E-14
 -1      2238 1.95839E+01 3.35095E+00 6.66828E-04 4.19690E-01 1.57794E-13-3.64782E-14
 -1      2239 1.96765E+01 3.41183E+00-1.20924E-02 1.00748E+00 1.81751E-13 5.93007E-14
 -1      2240 1.95864E+01 3.50578E+00-1.33994E-02 8.34169E-01 1.76178E-13 2.10682E-14
 -1      2241 1.97027E+01 3.19731E+00 1.30890E-03 6.84873E-01 1.62346E-13 5.01509E-15
 -1      2242 1.99134E+01 3.09185E+00-1.71427E-02 1.33125E+00 1.58869E-13 1.35517E-13
 -1      2243 1.97844E+01 3.24636E+00-1.59902E-02 1.14971E+00 1.68063E-13 9.02290E-14
 -1      2244 1.98906E+01 2.93873E+00 2.73976E-03 9.52547E-01 1.58154E-13 6.61645E-14
 -1      2245 2.02431E+01 2.59441E+00-2.73381E-02 1.63069E+00 1.39380E-13 1.94404E-13
 -1      2246 2.00674E+01 2.84784E+00-1.79397E-02 1.45719E+00 1.52925E-13 1.57475E-13
 -1      2247 2.01490E+01 2.54634E+00 6.29543E-03 1.19856E+00 1.34216E-13 1.35801E-13
 -1      2248 2.01414E+01 3.29359E-01 7.60765E-03 6.87340E-02 3.35548E-14 2.37566E-13
 -1      2249 2.02473E+01 4.16753E-01 2.03394E-02 2.51501E-01 2.91538E-14 2.55023E-13
 -1      2250 2.03852E+01 6.95652E-01-3.35074E-03 4.92895E-01 4.19768E-14 2.00532E-13
 -1      2251 2.05291E+01 8.81259E-01 1.33033E-02-8.49758E-01-4.36977E-15-2.45282E-13
 -1      2252 2.03472E+01 6.61077E-01-2.81567E-03-5.28204E-01-9.07087E-15-2.30657E-13
 -1      2253 3.52034E+01 3.72646E+00-2.24822E-02 2.09996E+00-1.81410E-13-4.12448E-14
 -1      2254 3.55398E+01 5.20586E+00-1.20826E-01 1.69599E+00-1.92069E-13-5.73430E-14
 -1      2255 2.03009E+01 5.07967E-01 1.61753E-02-2.95431E-01-1.72930E-14-1.99004E-13
 -1      2256 2.01959E+01 3.88382E-01 1.25305E-03-1.08083E-01 1.46150E-16-2.03047E-13
 -1      2257 2.03837E+01 7.93209E-01-2.52212E-03-5.00171E-01 2.69034E-15-1.94674E-13
 -1      2258 2.01584E+01 3.06739E-01 1.09946E-02 5.00221E-02-8.65844E-16-1.84755E-13
 -1      2259 2.01228E+01 2.37581E-01 1.81379E-03 1.65338E-01-3.15243E-15-1.92032E-13
 -1      2260 2.02665E+01 4.76399E-01-4.47562E-03-7.62137E-02 4.71650E-15-1.63084E-13
 -1      2261 2.01114E+01 1.88119E-01 6.70919E-03 2.69556E-01-1.70688E-14-1.97250E-13
 -1      2262 2.01265E+01 1.43818E-01 1.55895E-03 3.40893E-01-2.77480E-15-1.91440E-13
 -1      2263 2.02057E+01 2.92136E-01-4.48154E-03 2.08308E-01-1.37024E-14-1.62801E-13
 -1      2264 2.01419E+01 1.09176E-01 4.15442E-03 4.07387E-01 1.31015E-14-1.98848E-13
 -1      2265 2.01909E+01 7.54563E-02 9.23121E-04 4.48285E-01 6.51633E-15-1.94714E-13
 -1      2266 2.02042E+01 1.73611E-01-3.88241E-03 3.94998E-01-6.44984E-15-1.69519E-13
 -1      2267 2.02301E+01 4.57772E-02 2.75007E-03 4.85460E-01-4.41484E-15-1.91578E-13
 -1      2268 2.03000E+01 1.38163E-02-9.54121E-05 5.01186E-01 3.25937E-14-1.60369E-13
 -1      2269 2.02554E+01 8.35727E-02-3.20935E-03 5.09933E-01 2.37051E-14-1.63809E-13
 -1      2270 2.03598E+01-1.73011E-02 2.06926E-03 5.11397E-01 3.01864E-14-1.68057E-13
 -1      2271 2.04395E+01-5.34471E-02-1.53180E-03 5.01885E-01 1.51355E-14-1.95338E-13
 -1      2272 2.03508E+01-8.04248E-04-2.66073E-03 5.64969E-01 2.18142E-14-1.79003E-13
 -1      2273 2.05169E+01-9.01518E-02 1.82661E-03 4.82881E-01-4.82887E-14-1.89262E-13
 -1      2274 2.05960E+01-1.33882E-01-3.36109E-03 4.44693E-01-1.02666E-13-1.70702E-13
 -1      2275 2.04828E+01-9.45240E-02-2.23021E-03 5.60794E-01-2.01145E-14-2.29056E-13
 -1      2276 2.06874E+01-1.77659E-01 1.76843E-03 3.91175E-01-1.29570E-13-1.47186E-13
 -1      2277 2.07549E+01-2.28753E-01-5.41920E-03 3.19620E-01-1.10357E-13-1.41421E-13
 -1      2278 2.06442E+01-2.05772E-01-1.79685E-03 4.89935E-01-1.17319E-13-2.20414E-13
 -1      2279 2.08542E+01-2.76939E-01 1.58944E-03 2.25621E-01-7.90868E-14-1.45053E-13
 -1      2280 2.08983E+01-3.29535E-01-7.29406E-03 1.17840E-01-4.68341E-14-1.68766E-13
 -1      2281 2.08254E+01-3.33332E-01-1.14303E-03 3.40687E-01-9.78790E-14-1.43801E-13
 -1      2282 2.09946E+01-3.73300E-01 9.14887E-04-1.93017E-02-5.36546E-14-1.30786E-13
 -1      2283 2.10032E+01-4.13866E-01-8.24951E-03-1.59888E-01-1.01447E-14-1.17163E-13
 -1      2284 2.10110E+01-4.61756E-01 3.17230E-05 1.03423E-01-3.17221E-14-6.41402E-14
 -1      2285 2.10786E+01-4.36983E-01-6.60782E-04-3.33492E-01 1.04547E-14-1.66824E-13
 -1      2286 2.10417E+01-4.44291E-01-7.29691E-03-4.91877E-01 4.05678E-14-1.84626E-13
 -1      2287 2.11753E+01-5.56697E-01 1.98011E-03-2.19253E-01-1.13609E-14-9.95600E-14
 -1      2288 2.10723E+01-4.25042E-01-3.25513E-03-6.78775E-01 5.67007E-14-2.15315E-13
 -1      2289 2.09859E+01-3.75280E-01-3.56230E-03-8.24329E-01 7.37433E-14-1.90088E-13
 -1      2290 2.12810E+01-5.65853E-01 4.55373E-03-5.98573E-01 4.50152E-14-1.04130E-13
 -1      2291 2.09487E+01-2.94516E-01-6.41185E-03-9.79938E-01 5.80347E-14-2.03972E-13
 -1      2292 2.08207E+01-1.74384E-01 2.79459E-03-1.06786E+00 3.11122E-14-1.57136E-13
 -1      2293 2.12846E+01-4.31960E-01 6.91772E-03-9.65961E-01 6.21811E-14-1.28771E-13
 -1      2294 2.07099E+01-3.09621E-02-8.44479E-03-1.13165E+00 1.03538E-14-1.74540E-13
 -1      2295 2.05637E+01 1.44333E-01 9.73699E-03-1.11564E+00-5.25925E-15-1.67327E-13
 -1      2296 2.11573E+01-1.27455E-01 6.83547E-03-1.21030E+00 5.97439E-15-1.59285E-13
 -1      2297 2.04083E+01 3.19075E-01-7.28812E-03-1.03452E+00-2.51795E-15-1.98006E-13
 -1      2298 2.02808E+01 4.97567E-01 1.36753E-02-8.90537E-01-4.99115E-14-2.10855E-13
 -1      2299 2.09172E+01 3.06843E-01 3.13116E-03-1.20613E+00-2.44890E-14-1.69180E-13
 -1      2300 2.01455E+01 6.41744E-01-1.83114E-03-6.54822E-01-5.54175E-14-1.64080E-13
 -1      2301 2.00754E+01 7.51889E-01 1.19066E-02-4.04531E-01-1.81721E-14-1.71230E-13
 -1      2302 2.06494E+01 7.41101E-01-3.83202E-03-8.78120E-01-2.53996E-14-1.86425E-13
 -1      2303 2.00290E+01 8.02685E-01 6.27884E-03-7.06696E-02 1.60592E-15-2.09558E-13
 -1      2304 2.00403E+01 7.93071E-01 5.14154E-03 2.17310E-01 2.88138E-15-1.96173E-13
 -1      2305 2.04802E+01 1.00601E+00-9.26240E-03-2.71862E-01-4.92796E-14-9.38204E-14
 -1      2306 2.01104E+01 7.25446E-01 1.26885E-02 5.42414E-01-1.43375E-15-1.67893E-13
 -1      2307 2.02015E+01 6.01330E-01-2.44874E-03 7.80357E-01 2.74975E-15-2.61552E-13
 -1      2308 2.05033E+01 9.84360E-01-7.94961E-03 4.34431E-01 1.40493E-14-8.01986E-14
 -1      2309 2.03506E+01 4.48935E-01 1.33314E-02 9.94802E-01 1.89128E-14-2.29200E-13
 -1      2310 2.04938E+01 2.68524E-01-7.33169E-03 1.12059E+00 3.57884E-14-2.15087E-13
 -1      2311 2.07082E+01 6.84442E-01-2.29666E-03 1.00710E+00 4.46490E-14-7.69703E-14
 -1      2312 2.06506E+01 9.77562E-02 8.57254E-03 1.17960E+00 5.00641E-14-2.26331E-13
 -1      2313 2.08072E+01-6.81138E-02-7.76226E-03 1.18071E+00 1.93555E-14-2.32244E-13
 -1      2314 2.09904E+01 2.44200E-01 3.97075E-03 1.28728E+00 3.98598E-14-1.23419E-13
 -1      2315 2.09126E+01-1.99742E-01 1.51024E-03 1.10396E+00 1.95925E-14-2.66173E-13
 -1      2316 2.10480E+01-3.05421E-01-5.35868E-03 1.00998E+00-1.62513E-14-3.09801E-13
 -1      2317 2.12277E+01-1.67867E-01 7.08198E-03 1.25405E+00-2.28294E-14-3.01353E-13
 -1      2318 2.10800E+01-3.72991E-01-4.49351E-03 8.53879E-01-3.40301E-14-2.74874E-13
 -1      2319 2.11739E+01-4.09585E-01-2.25768E-03 7.11950E-01-6.16954E-15-2.00975E-13
 -1      2320 2.13468E+01-4.38075E-01 6.39634E-03 9.96402E-01-2.15808E-14-2.45503E-13
 -1      2321 2.11425E+01-4.18664E-01-7.71293E-03 5.34827E-01-1.71048E-14-1.35597E-13
 -1      2322 2.11895E+01-4.02525E-01 2.31034E-04 3.87405E-01 1.14344E-14-1.58489E-13
 -1      2323 2.13400E+01-5.39303E-01 4.01497E-03 6.39955E-01 6.86300E-15-7.42019E-14
 -1      2324 2.11185E+01-3.73680E-01-8.28758E-03 2.29559E-01 1.02128E-13-1.80608E-13
 -1      2325 2.11237E+01-3.29028E-01 1.59593E-03 1.03975E-01 1.38557E-13-8.82440E-14
 -1      2326 2.12403E+01-5.08278E-01 1.57852E-03 2.88080E-01 3.42176E-14-4.76816E-15
 -1      2327 2.10357E+01-2.83652E-01-7.14825E-03-1.53945E-02 6.40922E-14-1.40552E-13
 -1      2328 2.10094E+01-2.30999E-01 2.06136E-03-1.07240E-01 1.64489E-14-1.85004E-13
 -1      2329 2.10901E+01-4.03145E-01-1.01375E-04 6.00319E-04 7.14863E-14-5.56516E-14
 -1      2330 2.09201E+01-1.84584E-01-5.26121E-03-1.84717E-01 6.31841E-15-1.30903E-13
 -1      2331 2.08732E+01-1.36751E-01 1.96680E-03-2.42067E-01 4.49580E-14-4.12255E-14
 -1      2332 2.09237E+01-2.74912E-01-9.72743E-04-2.01299E-01 5.45871E-14-9.36859E-14
 -1      2333 2.07913E+01-9.76849E-02-3.31190E-03-2.83037E-01-3.65634E-14 1.31319E-14
 -1      2334 2.07335E+01-6.04320E-02 1.62454E-03-3.11213E-01-3.19943E-14 4.91195E-15
 -1      2335 2.07625E+01-1.56280E-01-1.29642E-03-3.21248E-01 1.96951E-14 6.21653E-14
 -1      2336 2.06625E+01-3.16577E-02-1.65521E-03-3.24456E-01-3.65891E-14 5.61067E-14
 -1      2337 2.06013E+01-6.02109E-03 1.23238E-03-3.30982E-01 6.42069E-15 1.79925E-13
 -1      2338 2.06173E+01-6.25633E-02-1.32327E-03-3.74705E-01-6.48136E-15 2.22147E-13
 -1      2339 2.05418E+01 1.27705E-02-4.17634E-04-3.25448E-01 7.38650E-14 1.92994E-13
 -1      2340 2.04823E+01 2.82411E-02 8.85638E-04-3.17706E-01 8.58573E-14 3.24361E-13
 -1      2341 2.04920E+01 2.86098E-03-1.22169E-03-3.80306E-01 8.94487E-14 2.89858E-13
 -1      2342 2.04335E+01 3.88552E-02 4.06545E-04-3.00981E-01-1.49107E-14 2.99813E-13
 -1      2343 2.03791E+01 4.65310E-02 6.15804E-04-2.85091E-01-1.49532E-14 1.67496E-13
 -1      2344 2.03867E+01 4.30775E-02-1.08095E-03-3.55210E-01 1.48947E-14 2.30130E-13
 -1      2345 2.03397E+01 5.11624E-02 8.85290E-04-2.62914E-01-1.03487E-14 1.01212E-13
 -1      2346 2.02921E+01 5.34417E-02 4.21442E-04-2.43413E-01-5.48243E-14 9.22366E-14
 -1      2347 2.02999E+01 6.37003E-02-9.39735E-04-3.13169E-01-8.46131E-14 2.23276E-13
 -1      2348 2.02607E+01 5.40993E-02 1.10526E-03-2.19742E-01-5.88756E-14 2.21297E-14
 -1      2349 2.02205E+01 5.29995E-02 2.88199E-04-1.99686E-01 6.89614E-14-5.89497E-14
 -1      2350 2.02293E+01 7.05805E-02-8.10787E-04-2.64166E-01-9.52973E-14 5.43429E-14
 -1      2351 2.01958E+01 5.12824E-02 1.14845E-03-1.77007E-01 9.97408E-14-1.81087E-14
 -1      2352 2.01629E+01 4.83236E-02 1.99828E-04-1.58252E-01 3.19996E-14 7.81150E-14
 -1      2353 2.01726E+01 6.87251E-02-6.95308E-04-2.14836E-01 7.95196E-14 9.17182E-14
 -1      2354 2.01437E+01 4.53915E-02 1.08212E-03-1.37946E-01 1.31332E-14 1.31503E-13
 -1      2355 2.01176E+01 4.16279E-02 1.42346E-04-1.21464E-01-6.42943E-15 1.70648E-13
 -1      2356 2.01278E+01 6.19557E-02-5.91563E-04-1.69160E-01 6.87059E-14 2.73064E-13
 -1      2357 2.01028E+01 3.82584E-02 9.56602E-04-1.04138E-01-1.05208E-13-1.57953E-14
 -1      2358 2.00826E+01 3.43645E-02 1.05120E-04-9.02967E-02-1.58099E-14-8.37411E-14
 -1      2359 2.00929E+01 5.29529E-02-4.98120E-04-1.29184E-01-1.32347E-13 9.40829E-14
 -1      2360 2.00714E+01 3.10376E-02 8.06890E-04-7.60575E-02 1.74234E-13-1.67262E-13
 -1      2361 2.00562E+01 2.74048E-02 8.06337E-05-6.48463E-02 2.88004E-14-1.50914E-13
 -1      2362 2.00660E+01 4.34544E-02-4.14192E-04-9.56365E-02-3.19385E-14-9.97627E-14
 -1      2363 2.00479E+01 2.43846E-02 6.55452E-04-5.35043E-02-1.73031E-13-6.73634E-14
 -1      2364 2.00369E+01 2.12069E-02 6.38025E-05-4.46987E-02-2.68833E-13-2.99331E-14
 -1      2365 2.00458E+01 3.44857E-02-3.39426E-04-6.84229E-02 8.39580E-15-9.75298E-14
 -1      2366 2.00308E+01 1.86115E-02 5.15382E-04-3.59128E-02-3.83568E-13 8.25835E-14
 -1      2367 2.00230E+01 1.59531E-02 5.12358E-05-2.91896E-02-3.65926E-13 1.41280E-13
 -1      2368 2.00308E+01 2.65707E-02-2.73605E-04-4.69827E-02-1.52897E-13 1.62409E-14
 -1      2369 2.00187E+01 1.38064E-02 3.93188E-04-2.25647E-02-3.23985E-13 1.50503E-13
 -1      2370 2.00134E+01 1.16518E-02 4.06389E-05-1.75759E-02-9.64122E-14 1.44422E-13
 -1      2371 2.00199E+01 1.98998E-02-2.16448E-04-3.05416E-02-3.75451E-13 1.57111E-13
 -1      2372 2.00105E+01 9.92140E-03 2.91156E-04-1.27237E-02 1.87059E-13 1.23698E-13
 -1      2373 2.00071E+01 8.20889E-03 3.04795E-05-9.14275E-03 3.37039E-13 1.14579E-13
 -1      2374 2.00123E+01 1.44558E-02-1.67479E-04-1.82754E-02-1.65137E-14 2.24712E-13
 -1      2375 2.00052E+01 6.83021E-03 2.09024E-04-5.71655E-03 1.55005E-13 3.10235E-14
 -1      2376 2.00032E+01 5.47176E-03 1.91609E-05-3.26404E-03 2.12902E-13-1.10837E-14
 -1      2377 2.00072E+01 1.00997E-02-1.25900E-04-9.41022E-03 1.80273E-13 1.54682E-13
 -1      2378 2.00020E+01 4.35909E-03 1.44985E-04-9.79250E-04 4.60261E-13-2.93638E-14
 -1      2379 2.00010E+01 3.25783E-03 8.99348E-06 5.58779E-04 2.23991E-13 7.74853E-15
 -1      2380 2.00038E+01 6.61880E-03-9.18942E-05-3.27729E-03 2.76633E-13 1.24945E-13
 -1      2381 2.00003E+01 2.28990E-03 8.92849E-05 1.92609E-03-1.84516E-14 6.21573E-14
 -1      2382 1.99999E+01 1.38444E-03 1.07112E-05 2.68435E-03-4.63451E-14 1.03470E-13
 -1      2383 2.00017E+01 3.78651E-03-6.18635E-05 6.54092E-04 1.45116E-13-1.22800E-13
 -1      2384 2.01443E+01 1.94116E-01 7.06199E-03-4.58022E-01 6.59672E-15 1.67112E-13
 -1      2385 2.00772E+01 2.07217E-01 7.34708E-03-3.60705E-01 1.51975E-14 1.92286E-13
 -1      2386 2.03027E+01 1.94252E-01 7.80681E-03-6.60130E-01 4.63431E-15 1.50340E-13
 -1      2387 2.01758E+01 1.89693E-01 4.17638E-03-5.68908E-01 1.20633E-14 1.63445E-13
 -1      2388 2.02038E+01 2.73003E-01-4.30424E-03-5.69531E-01 2.10688E-14 1.13322E-13
 -1      2389 2.05460E+01 2.21113E-01 9.04226E-03-8.67585E-01 3.88656E-14 1.43254E-13
 -1      2390 2.03652E+01 2.03479E-01 2.27753E-03-7.69114E-01 1.43334E-14 1.25923E-13
 -1      2391 2.03021E+01 2.80429E-01-3.35625E-03-8.08522E-01 3.32977E-14 8.03084E-14
 -1      2392 2.08679E+01 2.67319E-01 1.04671E-02-1.10254E+00 7.02307E-14 1.46306E-13
 -1      2393 2.06336E+01 2.40393E-01 1.01398E-03-9.87485E-01 5.10590E-14 1.59112E-13
 -1      2394 2.04582E+01 3.22992E-01-2.39475E-03-1.05540E+00 3.70716E-14 7.45072E-14
 -1      2395 2.12671E+01 3.22164E-01 1.15925E-02-1.37854E+00 5.99338E-14 1.64456E-13
 -1      2396 2.09764E+01 2.92351E-01 5.11614E-05-1.24220E+00 8.49069E-14 1.58335E-13
 -1      2397 2.06617E+01 3.89045E-01-1.57454E-03-1.33295E+00 5.35928E-14 9.92423E-14
 -1      2398 2.17462E+01 3.63149E-01 1.15764E-02-1.69529E+00 7.17347E-14 2.10400E-13
 -1      2399 2.13954E+01 3.44301E-01-6.60405E-04-1.54145E+00 7.99703E-14 1.94698E-13
 -1      2400 2.09062E+01 4.60021E-01-1.14481E-03-1.65424E+00 5.43198E-14 1.10011E-13
 -1      2401 2.23141E+01 3.43175E-01 9.15311E-03-2.02605E+00 4.56252E-14 1.11851E-13
 -1      2402 2.19009E+01 3.63860E-01-7.45450E-04-1.87530E+00 7.45341E-14 1.74937E-13
 -1      2403 2.11936E+01 4.97413E-01-1.85077E-03-2.01728E+00 9.19033E-14 1.45168E-13
 -1      2404 2.29948E+01 1.74814E-01 2.91704E-03-2.29578E+00 5.03833E-14 3.82420E-14
 -1      2405 2.25197E+01 2.86443E-01 1.09689E-03-2.19875E+00 2.76373E-14 6.08346E-14
 -1      2406 2.15464E+01 4.24644E-01-5.22706E-03-2.39323E+00 7.67549E-14 6.89134E-14
 -1      2407 2.38444E+01-2.74036E-01-7.75665E-03-2.35175E+00 4.22926E-15 4.69043E-14
 -1      2408 2.33121E+01 1.47335E-03 7.75935E-03-2.40348E+00 3.48270E-14 4.78619E-14
 -1      2409 2.20333E+01 1.08055E-01-1.35520E-02-2.70568E+00 3.37042E-14 5.17886E-14
 -1      2410 2.49670E+01-1.11819E+00-2.00208E-02-1.94330E+00-2.82413E-14 6.33287E-14
 -1      2411 2.43884E+01-6.29226E-01 2.32346E-02-2.28037E+00-5.17381E-15 6.87245E-14
 -1      2412 2.28114E+01-6.32527E-01-2.78723E-02-2.79574E+00-2.20084E-14 3.21778E-14
 -1      2413 2.64505E+01-2.21449E+00-2.93186E-02-7.84868E-01-1.26232E-13 1.57531E-13
 -1      2414 2.58836E+01-1.65040E+00 4.26830E-02-1.51420E+00-7.39721E-14 1.09350E-13
 -1      2415 2.41099E+01-1.90179E+00-5.76854E-02-2.37700E+00-1.00054E-13 9.69953E-14
 -1      2416 2.81910E+01-2.68344E+00-3.25230E-02 1.28659E+00-5.46785E-14 2.13189E-13
 -1      2417 2.78273E+01-2.64128E+00 4.40415E-02 2.45475E-01-9.26776E-14 2.17312E-13
 -1      2418 2.63588E+01-3.36993E+00-8.99265E-02-1.08476E+00-1.44811E-13 1.45894E-13
 -1      2419 2.94936E+01 1.90052E+00-2.20954E-01-3.33275E+00 3.21965E-13 3.54133E-13
 -1      2420 2.92291E+01 3.47114E+00-1.20439E-01-2.30053E+00 3.51635E-13 3.08142E-13
 -1      2421 2.96033E+01-1.39172E+00-1.25716E-01-3.32751E+00 2.38712E-13 2.55580E-13
 -1      2422 2.94254E+01 2.89358E-01-6.70756E-02-3.63427E+00 2.48343E-13 3.44003E-13
 -1      2423 2.84470E+01-2.60962E+00-1.03057E-02-1.15310E+00 4.54315E-14 2.22277E-13
 -1      2424 2.86875E+01-2.27358E+00-5.19073E-02-2.18140E+00 1.29299E-13 3.23921E-13
 -1      2425 2.67103E+01-1.93541E+00 4.29046E-02 8.61966E-01-2.38976E-14-4.06966E-14
 -1      2426 2.71793E+01-2.37608E+00-3.70351E-02-1.01835E-03 1.82562E-14 1.14279E-13
 -1      2427 2.74527E+01-3.21171E+00-2.30728E-02 1.96934E-02 7.58456E-14 2.77528E-13
 -1      2428 2.51274E+01-8.73398E-01 2.71234E-02 1.95399E+00 1.42722E-13-6.97185E-15
 -1      2429 2.56696E+01-1.39923E+00-2.87912E-02 1.51628E+00-1.41900E-15-7.77672E-14
 -1      2430 2.51919E+01-2.23740E+00-5.25895E-02 1.77699E+00 3.68316E-14 2.52975E-14
 -1      2431 2.39534E+01-1.38344E-01 1.16640E-02 2.26719E+00-1.00871E-13 2.66408E-13
 -1      2432 2.44785E+01-4.76610E-01-1.45689E-02 2.15292E+00 9.41885E-14 1.60206E-13
 -1      2433 2.36586E+01-9.27445E-01-3.37216E-02 2.49331E+00-1.14318E-15 1.61042E-13
 -1      2434 2.30907E+01 2.28883E-01 2.23469E-03 2.14128E+00-3.63882E-13 2.90437E-13
 -1      2435 2.35657E+01 7.10778E-02-2.12266E-03 2.20933E+00-2.11171E-13 2.89857E-13
 -1      2436 2.27164E+01-6.67422E-02-1.65121E-02 2.57058E+00-1.94796E-13 3.07975E-13
 -1      2437 2.24313E+01 3.53162E-01-1.19270E-03 1.83087E+00-1.83456E-13 4.14078E-15
 -1      2438 2.28452E+01 3.05739E-01 5.39627E-03 1.97395E+00-3.70526E-13 1.38805E-13
 -1      2439 2.21202E+01 3.48262E-01-5.87633E-03 2.31668E+00-2.84397E-13 1.91992E-13
 -1      2440 2.18839E+01 3.52545E-01-1.50953E-03 1.46280E+00 1.40391E-13 1.70833E-14
 -1      2441 2.22443E+01 3.59645E-01 8.87547E-03 1.62731E+00-1.75537E-14-1.39602E-15
 -1      2442 2.16909E+01 4.77137E-01-2.49612E-04 1.93464E+00-1.23027E-13 5.29474E-14
 -1      2443 2.14652E+01 3.02909E-01-8.99262E-04 1.14073E+00 1.99653E-13 1.34078E-13
 -1      2444 2.17452E+01 3.29670E-01 9.68999E-03 1.28259E+00 1.40726E-13 7.29402E-14
 -1      2445 2.13521E+01 4.60391E-01 5.89336E-04 1.54359E+00 9.42248E-14 7.05851E-14
 -1      2446 2.11245E+01 2.43077E-01-4.79257E-04 8.70617E-01-3.33379E-14 3.75705E-13
 -1      2447 2.13476E+01 2.73521E-01 8.93664E-03 9.88420E-01 1.42188E-13 2.66808E-13
 -1      2448 2.10785E+01 3.91304E-01 6.11425E-04 1.20406E+00 3.39041E-14 3.90853E-14
 -1      2449 2.08514E+01 1.88056E-01-1.44139E-04 6.54572E-01 4.85072E-15 4.20646E-13
 -1      2450 2.10258E+01 2.15491E-01 7.53894E-03 7.47914E-01-3.33561E-14 4.93758E-13
 -1      2451 2.08481E+01 3.12494E-01 1.74782E-04 9.21560E-01-6.96132E-14 2.25937E-13
 -1      2452 2.06353E+01 1.42521E-01 6.55186E-05 4.86546E-01-1.70538E-14 4.45937E-13
 -1      2453 2.07695E+01 1.65094E-01 6.05834E-03 5.58589E-01 1.71109E-15 4.70784E-13
 -1      2454 2.06562E+01 2.41212E-01-2.40107E-04 6.95554E-01-5.94143E-15 3.70823E-13
 -1      2455 2.04669E+01 1.06727E-01 1.78602E-04 3.58069E-01-7.87257E-14 4.44971E-13
 -1      2456 2.05687E+01 1.24475E-01 4.72595E-03 4.12808E-01-5.79148E-14 4.16868E-13
 -1      2457 2.04993E+01 1.82620E-01-5.07365E-04 5.19100E-01-3.80290E-14 2.89414E-13
 -1      2458 2.03374E+01 7.93281E-02 2.26748E-04 2.60894E-01-1.70951E-13 5.04151E-13
 -1      2459 2.04137E+01 9.29550E-02 3.61850E-03 3.02076E-01-1.23929E-13 4.04064E-13
 -1      2460 2.03734E+01 1.36682E-01-6.31012E-04 3.83465E-01-6.37105E-14 1.75389E-13
 -1      2461 2.02392E+01 5.86408E-02 2.34841E-04 1.87958E-01-5.45137E-14 4.94072E-13
 -1      2462 2.02958E+01 6.89758E-02 2.73655E-03 2.18723E-01-9.75152E-14 5.66851E-13
 -1      2463 2.02743E+01 1.01549E-01-6.52229E-04 2.80306E-01-1.42797E-13 3.72088E-13
 -1      2464 2.01659E+01 4.31275E-02 2.20484E-04 1.33559E-01 3.89014E-13 9.62343E-14
 -1      2465 2.02072E+01 5.09172E-02 2.05113E-03 1.56407E-01 1.51242E-13 2.37976E-13
 -1      2466 2.01976E+01 7.50250E-02-6.11849E-04 2.02470E-01 1.91238E-13 2.32243E-13
 -1      2467 2.01119E+01 3.15348E-02 1.95293E-04 9.32373E-02 3.45598E-13 1.91677E-13
 -1      2468 2.01417E+01 3.73860E-02 1.52589E-03 1.10103E-01 3.85890E-13 2.06445E-13
 -1      2469 2.01393E+01 5.51336E-02-5.40386E-04 1.44145E-01 3.20532E-13-7.84925E-14
 -1      2470 2.00730E+01 2.28922E-02 1.66401E-04 6.35582E-02 4.19061E-13 2.11632E-13
 -1      2471 2.00940E+01 2.72763E-02 1.12673E-03 7.59206E-02 4.15128E-13 2.11930E-13
 -1      2472 2.00958E+01 4.02692E-02-4.57871E-04 1.00742E-01 3.30740E-13 1.45847E-13
 -1      2473 2.00454E+01 1.64653E-02 1.37805E-04 4.18950E-02 9.15776E-14 3.74207E-13
 -1      2474 2.00600E+01 1.97411E-02 8.25030E-04 5.08791E-02 3.88606E-13 3.20829E-13
 -1      2475 2.00638E+01 2.91901E-02-3.76112E-04 6.86906E-02 3.64200E-13 4.47779E-13
 -1      2476 2.00265E+01 1.17003E-02 1.11363E-04 2.62468E-02-1.62571E-13 3.52021E-13
 -1      2477 2.00362E+01 1.41409E-02 5.98002E-04 3.27052E-02-1.54582E-13 3.56425E-13
 -1      2478 2.00409E+01 2.09546E-02-3.01302E-04 4.52375E-02-3.29942E-14 4.26949E-13
 -1      2479 2.00139E+01 8.17665E-03 8.75258E-05 1.50966E-02-1.97735E-13 1.71691E-13
 -1      2480 2.00202E+01 9.99134E-03 4.27919E-04 1.96722E-02-1.71460E-13 3.38258E-13
 -1      2481 2.00249E+01 1.48509E-02-2.36100E-04 2.82679E-02-1.65134E-13 2.91530E-13
 -1      2482 2.00060E+01 5.57083E-03 6.59998E-05 7.30384E-03-1.13235E-13 9.79042E-14
 -1      2483 2.00097E+01 6.92222E-03 3.01076E-04 1.04767E-02-1.29692E-13 2.44345E-13
 -1      2484 2.00141E+01 1.03366E-02-1.80991E-04 1.61697E-02-2.13474E-13 2.80312E-13
 -1      2485 2.00015E+01 3.62691E-03 4.53288E-05 2.02245E-03-1.28556E-13 5.73322E-14
 -1      2486 2.00034E+01 4.64654E-03 2.06815E-04 4.14522E-03-2.10980E-13-4.62294E-16
 -1      2487 2.00071E+01 6.99400E-03-1.35220E-04 7.72704E-03-1.31215E-13 2.77576E-13
 -1      2488 1.99992E+01 2.13024E-03 2.57412E-05-1.34915E-03-2.29692E-13-6.90422E-14
 -1      2489 2.00000E+01 2.92800E-03 1.37190E-04-3.28083E-05-1.47050E-13-2.79873E-14
 -1      2490 2.00029E+01 4.48349E-03-9.89815E-05 2.03570E-03-1.35507E-13-5.53089E-14
 -1      2491 1.99984E+01 8.81072E-04 6.29720E-06-3.21721E-03-1.89700E-14-2.58607E-13
 -1      2492 1.99985E+01 1.56345E-03 8.50575E-05-2.55370E-03-2.21254E-13-1.32729E-13
 -1      2493 2.00006E+01 2.54277E-03-6.42919E-05-1.54560E-03-2.34986E-13-2.65105E-13
 -1      2494 1.99986E+01-2.98937E-04-9.72810E-06-3.79974E-03 6.97991E-14-2.76859E-13
 -1      2495 1.99982E+01 3.47853E-04 4.74519E-05-3.71981E-03-3.46436E-14-3.89979E-13
 -1      2496 1.99995E+01 8.35733E-04-4.81858E-05-3.46131E-03 8.31832E-14-5.53822E-13
 -1      2497 1.99987E+01-9.89594E-04 1.90500E-05-3.66719E-03 8.85921E-14-1.02879E-13
 -1      2498 2.00011E+01 7.28879E-04-2.58742E-05-7.60430E-04 2.58621E-13 3.07444E-14
 -1      2499 2.00013E+01 6.38941E-04 3.33400E-05-1.20533E-03 8.42867E-14-1.90861E-13
 -1      2500 2.00007E+01 1.53205E-03-2.63172E-05-9.63329E-05 4.47038E-13-9.38870E-14
 -1      2501 2.00009E+01 1.40968E-03 2.74161E-05-3.96562E-04 4.34004E-13 4.99170E-15
 -1      2502 2.00013E+01 4.22390E-03 2.52688E-05-2.25574E-04 2.66511E-13 1.55675E-13
 -1      2503 2.00012E+01-6.94801E-04-3.33593E-06-2.84565E-03-1.88113E-13 1.33200E-13
 -1      2504 2.00009E+01-5.96763E-04 1.70687E-05-3.26786E-03-1.71399E-13-2.49588E-13
 -1      2505 2.00013E+01-8.32549E-05-1.68880E-05-1.74774E-03-1.87249E-13-1.14708E-13
 -1      2506 2.00013E+01-8.58834E-05 2.68381E-05-2.25588E-03-2.23897E-13 2.84081E-13
 -1      2507 2.00017E+01 1.50679E-03-1.56638E-05-2.30799E-03-1.10957E-13 5.79245E-14
 -1      2508 2.00017E+01 2.85084E-03 6.44999E-06-1.12579E-03-2.08279E-14 9.48106E-14
 -1      2509 1.76481E+01-5.90796E+00-1.36947E-02 6.39370E+00 1.51379E-13-1.62675E-13
 -1      2510 1.43491E+01-5.42599E+00 7.89421E-02 6.26532E+00 1.21014E-14-2.03726E-14
 -1      2511 2.00003E+01 2.12676E-03-1.96656E-05 2.32873E-04 2.26430E-14 2.55143E-14
 -1      2512 2.00005E+01 2.02441E-03 1.34861E-05 6.81432E-05 2.68838E-13-7.16804E-14
 -1      2513 2.00008E+01 5.35677E-03 3.81242E-05 2.57080E-04 3.80422E-13-1.48512E-13
 -1      2514 2.00002E+01 2.38002E-03-7.12087E-06 3.53626E-04-2.17610E-13 9.40428E-14
 -1      2515 2.00002E+01 2.33419E-03-2.97871E-06 2.59046E-04-1.67189E-13-1.74400E-15
 -1      2516 2.00004E+01 6.02810E-03 4.52250E-05 3.72304E-04 4.14724E-14-1.45308E-13
 -1      2517 2.00003E+01 2.24394E-03 7.98459E-06 4.61942E-04-2.61159E-13 2.09434E-13
 -1      2518 2.00002E+01 2.26382E-03-1.71750E-05 3.48814E-04-2.45847E-13 2.32135E-13
 -1      2519 2.00003E+01 6.11253E-03 4.54009E-05 3.05302E-04-1.17704E-13 1.79356E-13
 -1      2520 2.00006E+01 1.78099E-03 2.18429E-05 7.38893E-04-9.08373E-14-1.43050E-13
 -1      2521 2.00004E+01 1.83744E-03-2.62641E-05 5.38048E-04-1.87490E-13 1.83059E-14
 -1      2522 2.00005E+01 5.60588E-03 3.97738E-05 2.95536E-04-2.76107E-13 1.55265E-13
 -1      2523 2.00009E+01 1.09602E-03 2.85583E-05 1.29980E-03 4.08714E-13-1.79778E-13
 -1      2524 2.00007E+01 1.15652E-03-2.78433E-05 9.74632E-04 3.15982E-13-3.21902E-13
 -1      2525 2.00009E+01 4.60734E-03 2.72268E-05 5.50230E-04 1.16330E-13 8.86655E-14
 -1      2526 2.00010E+01 3.60738E-04 2.04031E-05 2.10340E-03 3.22116E-13 1.09274E-13
 -1      2527 2.00010E+01 3.90516E-04-1.80651E-05 1.69759E-03 4.11659E-13-3.12195E-15
 -1      2528 2.00013E+01 3.31497E-03 1.68448E-05 1.17787E-03 3.64730E-13-1.06623E-13
 -1      2529 2.00007E+01-1.93182E-04 9.35404E-06 2.91291E-03-3.89104E-14-7.73385E-14
 -1      2530 2.00009E+01-2.61105E-04-8.59758E-06 2.57970E-03 1.56170E-13 8.27011E-14
 -1      2531 2.00013E+01 1.94360E-03-1.48043E-05 2.05871E-03 2.57246E-13 1.75956E-16
 -1      2532 1.99996E+01-1.05156E-03 3.06253E-05 3.40879E-03 6.69923E-14-5.15053E-14
 -1      2533 2.56618E+01-5.70286E+00-8.07988E-02 4.19559E+00 2.53797E-13-2.33036E-13
 -1      2534 2.12075E+01-6.16856E+00-3.36880E-03 5.29993E+00 2.36533E-13-1.88724E-13
 -1      2535 2.00839E+01 2.31456E-01 7.06354E-03-2.30230E-01 2.17873E-14 2.10032E-13
 -1      2536 2.00906E+01 2.71398E-01 1.27029E-02-1.06957E-01 2.39830E-14 2.12826E-13
 -1      2537 2.01769E+01 3.14890E-01-4.97022E-03-3.06284E-01 3.62596E-14 1.39774E-13
 -1      2538 3.57793E+00-3.37473E+00 4.28941E-02 2.42044E+00 2.07431E-13 6.72240E-14
 -1      2539 2.68421E+00-3.08422E+00 5.28884E-02 3.09005E-01 2.54104E-13-2.79776E-14
 -1      2540 3.08730E+00-2.94066E+00 8.03041E-02-1.88761E+00 3.34288E-13 3.29736E-14
 -1      2541 4.72032E+00-2.93710E+00 6.94264E-02-4.35251E+00 2.56017E-13 3.67484E-14
 -1      2542 3.18371E+01-3.07411E+00-1.19488E-01 5.65357E-01 1.45411E-13 6.90559E-14
 -1      2543 2.92106E+01-4.54167E+00-1.82077E-02 1.73362E+00 1.86295E-13-6.18949E-14
 -1      2544 1.40177E+01-5.11145E+00 6.33702E-02-7.32932E+00 2.15550E-13 1.52406E-13
 -1      2545 1.81958E+01-5.21189E+00-1.38602E-02-7.32241E+00 3.00093E-13 2.11067E-13
 -1      2546 2.10014E+01-5.14289E+00 2.29511E-03 6.66408E+00 2.38698E-14 4.78229E-14
 -1      2547 1.68005E+01-5.31512E+00 6.96908E-02 7.22426E+00 3.37508E-14-2.04906E-14
 -1      2548 2.14218E+01-6.05623E+00 9.93717E-03-5.37980E+00-1.00225E-13-8.60492E-14
 -1      2549 2.55206E+01-5.66297E+00-2.58440E-02-4.29987E+00-6.61970E-14-7.18592E-14
 -1      2550 3.29255E+01-1.31997E+00-3.30235E-02 7.03143E-01 5.20417E-15 8.35443E-14
 -1      2551 3.47591E+01 1.06697E+00-1.25626E-01 1.55991E+00-9.98646E-14 2.65343E-14
 -1      2552 1.93962E+01 3.73678E+00-1.01281E-02-1.95491E-01 1.62263E-13-1.03003E-13
 -1      2553 1.94250E+01 3.70993E+00-8.83204E-03-3.55620E-01 1.57829E-13-1.18502E-13
 -1      2554 1.95933E+01 3.33013E+00 1.11297E-04-3.82329E-01 1.46278E-13-1.13634E-13
 -1      2555 1.95315E+01 3.41190E+00 2.14645E-06-1.09411E-01 1.52614E-13-8.76760E-14
 -1      2556 3.50446E+01 6.30684E+00-6.23684E-02 8.61220E-01-6.55032E-14 1.54182E-14
 -1      2557 3.43873E+01 6.49846E+00-1.21749E-01-3.53386E-01 1.05027E-13 5.08760E-14
 -1      2558 1.14205E+01-4.58983E+00 9.97090E-02-5.97907E+00-6.17839E-14-1.50213E-13
 -1      2559 1.63024E+01-5.42450E+00 7.33523E-03-6.44885E+00-1.05499E-13-8.96228E-14
 -1      2560 3.48633E+01 1.70962E+00-1.23839E-01-1.93316E+00 2.41224E-13 1.09524E-13
 -1      2561 3.32853E+01-7.09172E-01-7.70259E-02-1.20452E+00 2.42445E-13 8.07132E-14
 -1      2562 3.39174E+01 5.12147E+00-2.08953E-01-1.91748E+00 2.98206E-13 6.53366E-14
 -1      2563 3.43054E+01 3.76589E+00-9.12956E-02-2.46385E+00 2.70950E-13 8.92897E-14
 -1      2564 2.83365E+01-4.89218E+00-3.67121E-02-2.41327E+00-3.98015E-14-7.10543E-15
 -1      2565 3.10394E+01-3.71481E+00-1.17587E-01-1.22123E+00-1.69309E-14 6.18949E-14
 -1      2566 5.80876E+00-3.49449E+00 6.06005E-02 5.30057E+00 1.08330E-13 2.54408E-13
 -1      2567 4.10802E+00-2.83610E+00 1.10593E-01 3.27906E+00 9.18432E-14 1.55431E-13
 -1      2568 5.21115E+00-3.28759E+00 9.74019E-02-3.41858E+00-2.10387E-14-1.34281E-13
 -1      2569 7.29835E+00-3.68920E+00 3.22250E-02-5.07059E+00-2.14828E-14-1.02529E-13
 -1      2570 2.20171E+01-4.94657E+00 1.41525E-02-5.95194E+00 2.91073E-13 1.12965E-13
 -1      2571 2.52212E+01-4.11666E+00-5.57568E-02-5.17895E+00 2.19436E-13-1.32117E-13
 -1      2572 3.17893E+00-2.52845E+00 9.27874E-02 8.16970E-01 8.93660E-14 2.92544E-14
 -1      2573 3.74188E+00-2.72248E+00 9.52407E-02-1.68769E+00 3.23075E-14-5.43454E-14
 -1      2574 1.22150E+01-4.47236E+00 3.80191E-02 7.32235E+00 5.10980E-14-4.99600E-16
 -1      2575 8.55408E+00-4.19524E+00 7.13054E-02 6.35883E+00 6.07847E-14 1.13964E-13
 -1      2576 9.17760E+00-2.73153E+00 1.62024E-01 5.84345E+00 1.10273E-13 1.02141E-13
 -1      2577 2.68824E+01-3.59967E+00-5.29829E-02 4.28818E+00-1.14658E-13 2.41557E-13
 -1      2578 2.42847E+01-4.58379E+00 5.40679E-03 5.09071E+00-2.25930E-14 1.44662E-13
 -1      2579 3.11148E+01 3.13423E-02-9.93229E-02 1.34569E+00-4.30489E-14 1.40832E-13
 -1      2580 2.89290E+01-1.92464E+00-4.16626E-02 2.60634E+00-9.11354E-14 1.92957E-13
 -1      2581 2.81804E+01-3.16617E+00 1.79126E-02 2.36551E+00-1.11341E-13 1.65312E-13
 -1      2582 3.28388E+01 3.99834E+00-1.16209E-01-2.72234E-01-2.39531E-13 1.53183E-13
 -1      2583 3.18664E+01 2.35511E+00-8.46220E-02 4.91641E-02-1.35891E-13 1.22402E-13
 -1      2584 3.28780E+01 7.23670E+00-1.65344E-01-6.17776E-01-1.40721E-13-6.16313E-14
 -1      2585 3.30302E+01 5.96902E+00-8.52682E-02-5.75355E-01-2.14495E-13 6.41986E-14
 -1      2586 3.10118E+01 4.77588E+00-4.54547E-02-1.34556E+00-1.57319E-13 9.46743E-14
 -1      2587 3.25668E+01 7.87770E+00-1.43812E-01 2.76137E-01-1.43774E-13-8.51055E-14
 -1      2588 3.27317E+01 7.92672E+00-1.31166E-01-1.65414E-01-1.15130E-13-5.00502E-14
 -1      2589 3.14513E+01 5.05108E+00-1.28166E-01 9.76775E-01 5.37903E-14-2.10054E-13
 -1      2590 3.25198E+01 6.94348E+00-1.10449E-01 7.19758E-01-7.32747E-14-1.90070E-13
 -1      2591 3.07408E+01 6.17000E-01-6.98987E-02-9.03768E-02 1.72751E-13-5.09037E-14
 -1      2592 3.09481E+01 2.22697E+00-1.88707E-01 6.88622E-01 3.22520E-14-1.93012E-13
 -1      2593 2.78218E+01-2.79606E+00-6.78541E-03-3.27445E+00 1.98813E-13-1.31173E-13
 -1      2594 2.99487E+01-1.22722E+00-1.37600E-01-1.62729E+00 2.47120E-13 8.07687E-15
 -1      2595 2.69264E+01-3.88778E+00 4.42419E-02-3.28712E+00 1.54460E-13-5.58442E-14
 -1      2596 7.49343E+00-3.80632E+00 1.14472E-01-6.05212E+00 9.28424E-14-1.88544E-13
 -1      2597 1.01199E+01-4.29329E+00 3.83393E-02-7.20940E+00 2.02893E-13-6.58362E-14
 -1      2598 2.06349E+01 1.96785E+00-1.28036E-02-1.76424E+00 1.77237E-14-2.82588E-13
 -1      2599 2.05222E+01 1.23492E+00-6.43233E-03-1.14507E+00 4.81646E-15-2.71205E-13
 -1      2600 2.04828E+01 1.41266E+00 5.66084E-03-1.07209E+00 2.36217E-14-2.32268E-13
 -1      2601 2.03670E+01 2.40618E+00-5.22463E-03-1.69840E+00 2.70691E-14-2.64642E-13
 -1      2602 2.06214E+01 8.92640E-01-5.47756E-03 1.09323E+00 5.36099E-14 3.08838E-13
 -1      2603 2.09403E+01 1.26547E+00-5.43964E-03 1.60213E+00 5.57367E-14 3.38495E-13
 -1      2604 2.07476E+01 1.72692E+00-1.57125E-02 1.78347E+00 7.27456E-14 2.97186E-13
 -1      2605 2.05803E+01 1.09210E+00-9.71031E-03 1.07393E+00 4.78454E-14 2.37258E-13
 -1      2606 9.53516E+00-4.41223E+00 1.08363E-02 5.88862E+00 1.07137E-14 1.14575E-13
 -1      2607 5.87701E+00-3.95860E+00 5.77278E-02 4.13834E+00 1.60427E-13 5.98410E-14
 -1      2608 3.16830E+01 4.91535E+00-1.05232E-01-1.43743E+00 2.19602E-13 1.35267E-13
 -1      2609 1.98934E+01 2.91625E+00 2.66285E-03-9.45926E-01 1.02819E-13-1.92736E-13
 -1      2610 1.97820E+01 3.23342E+00-1.51894E-02-1.14154E+00 1.01661E-13-2.20402E-13
 -1      2611 1.99020E+01 3.09878E+00-1.64746E-02-1.33421E+00 8.23926E-14-2.44482E-13
 -1      2612 2.02364E+01 4.34406E-01-4.64447E-03 2.63412E-02 4.00866E-14 1.68405E-13
 -1      2613 2.05189E+01 2.13918E+00-1.26840E-02 1.72505E+00 9.96113E-14 2.41734E-13
 -1      2614 1.32890E+01-4.20083E+00 1.36761E-01 5.92420E+00-1.32394E-14-1.43496E-14
 -1      2615 2.11450E+01-5.22059E+00 7.44171E-02-6.24466E+00 2.26430E-13 9.79980E-14
 -1      2616 6.13903E+00-1.76619E+00 1.73401E-01-2.43757E+00 8.27671E-14-5.94247E-14
 -1      2617 3.27369E+01 5.06461E+00-5.36834E-02 1.70333E+00-1.11799E-13 3.05311E-16
 -1      2618 2.33978E+01-5.18460E+00 5.71748E-02 5.32025E+00-1.54321E-14 9.55347E-14
 -1      2619 2.76130E+01-5.44142E+00 5.53657E-02-2.36935E+00-5.76206E-14-2.11775E-14
 -1      2620 2.11884E+01-5.75733E+00 9.02708E-02 5.25591E+00 5.29299E-14-2.30586E-13
 -1      2621 2.93581E+01 4.28124E+00-1.93366E-01-4.97871E-01 1.60649E-13 2.22769E-13
 -1      2622 3.11774E+01 1.33241E+00-1.15371E-01-3.49257E+00 3.02813E-13 3.03424E-13
 -1      2623 2.95969E+01-9.58156E-01-5.27266E-02 3.21531E+00-4.27713E-14 1.56070E-13
 -1      2624 2.95032E+01-2.17308E+00-5.51086E-02 2.53710E+00-8.16361E-15 1.85421E-13
 -1      2625 2.93328E+01 4.08854E+00-1.97485E-01 1.29552E+00-5.14033E-14 3.08063E-13
 -1      2626 2.90636E+01-3.27946E+00-6.21390E-02 1.25938E+00 1.85355E-14 5.58095E-14
 -1      2627 2.98786E+01-2.35810E+00-6.00647E-02-2.38668E+00 1.93873E-13 2.94667E-13
 -1      2628 1.99994E+01-8.78154E-04-2.23746E-05-3.92134E-03-1.81806E-14-2.59328E-13
 -1      2629 2.00005E+01-8.44047E-04-4.12811E-06-3.61253E-03-1.21084E-13-8.40419E-13
 -1      2630 2.00000E+01-7.53509E-04 6.85705E-06-3.71381E-03-1.68668E-14-6.34233E-13
 -1      2631 2.00001E+01 3.04366E-04 3.03379E-05-3.78394E-03 8.64431E-14-5.98325E-13
 -1      2632 2.00011E+01 6.82933E-04-1.09046E-05-3.26452E-03 7.33603E-15-4.62087E-13
 -1      2633 1.99996E+01 3.35041E-05 4.36842E-06 3.30188E-03 1.82690E-13 1.30824E-13
 -1      2634 2.00003E+01-4.17138E-04-2.56738E-05 3.28672E-03 5.11623E-14-7.21130E-14
 -1      2635 2.00009E+01 1.18450E-03 3.08704E-05 2.82072E-03 6.33992E-15 1.60466E-13
 -1      2636 1.99996E+01 7.69765E-04 5.37271E-05 3.17004E-03 2.76568E-14 1.06682E-13
 -1      2637 2.78688E+01-5.25825E+00 5.11880E-02 2.21660E+00 1.92790E-13-8.42659E-14
 -1      2638 2.05279E+01 1.85506E+00 1.22475E-02 1.39357E+00 8.76400E-14 2.06594E-13
 -1      2639 6.73678E+00-2.33681E+00 1.61579E-01 3.42995E+00 1.09301E-13 7.57450E-14
 -1      2640 3.18294E+01-2.72642E+00 2.05320E-02 8.70708E-01-1.60132E-14 7.92144E-14
 -1      2641 7.48824E+00-2.37729E+00 1.66465E-01-5.04961E+00 1.45772E-13 3.23075E-14
 -1      2642 1.98568E+01-5.57249E+00 1.00600E-01-5.70675E+00-1.05277E-13-9.34634E-14
 -1      2643 2.26683E+01-5.67418E+00-1.03141E-01-4.58289E+00-5.47201E-14-1.85437E-13
 -1      2644 1.82315E+01-4.43486E+00 1.44558E-01-5.77395E+00-3.73035E-14-6.99163E-14
 -1      2645 2.01748E+01 2.65465E+00-1.19911E-02-1.53132E+00 5.01876E-14-2.57280E-13
 -1      2646 2.94676E+01-9.20136E-01-2.23826E-02-2.85827E-01 1.97668E-13 7.74381E-15
 -1      2647 3.03413E+01 3.47077E+00-1.20519E-01 1.37017E+00 2.15938E-14-2.35006E-13
 -1      2648 2.87705E+01 4.46725E+00-1.88516E-01 1.85524E+00-1.67921E-14-2.85619E-13
 -1      2649 2.89967E+01 2.05597E+00-6.58443E-02 1.58139E+00-1.99840E-14-2.95944E-13
 -1      2650 3.07047E+01 7.28841E+00-7.60124E-02-6.03018E-01-1.45495E-13-1.17954E-13
 -1      2651 3.05543E+01 6.16240E-01-3.23268E-02-1.80790E-01-8.22120E-14 1.16324E-13
 -1      2652 1.56133E+01-4.78436E+00 1.08554E-01 7.18241E+00 4.00791E-14-7.91103E-14
 -1      2653 1.47051E+01-3.72675E+00 1.60687E-01 6.91907E+00 4.94882E-14-2.62568E-14
 -1      2654 1.85167E+01-5.01980E+00-5.64215E-02 6.66052E+00 1.30729E-14-1.14908E-14
 -1      2655 5.46597E+00-1.52788E+00 1.70112E-01 2.07118E+00 1.22652E-13 1.05971E-13
 -1      2656 1.37640E+01-4.34660E+00 1.09766E-01-7.16908E+00 1.83409E-13 1.03140E-13
 -1      2657 3.20422E+01-2.08502E+00 3.92573E-03-1.63362E+00 2.09530E-13 2.36172E-13
 -1      2658 4.80255E+00-1.56421E+00 1.66171E-01-8.37798E-01 2.43975E-13-2.60902E-14
 -1      2659 2.00007E+01 1.58410E-03-6.21551E-05 2.60677E-03-2.30289E-14 1.76145E-13
 -1      2660 3.33143E+01 1.69780E+00-1.94277E-02 2.83923E+00-1.72307E-13-2.07057E-14
 -1      2661 1.13215E+01-3.31263E+00 1.67235E-01-5.48548E+00 3.02536E-15-1.11411E-13
 -1      2662 3.02595E+01 6.99701E+00-1.08612E-01 8.08787E-01-5.19584E-14-2.50092E-13
 -1      2663 3.00546E+01 3.36266E+00-1.39753E-01 2.64428E+00-2.22183E-13 1.97287E-13
 -1      2664 1.96918E+01 2.98951E+00-6.23182E-03 4.28024E-01 1.49460E-13-4.02857E-14
 -1      2665 1.96501E+01 3.04501E+00-6.06458E-03 3.05099E-01 1.53984E-13-4.16475E-14
 -1      2666 1.96232E+01 3.08445E+00-5.87309E-03 2.04737E-01 1.60356E-13-4.53270E-14
 -1      2667 1.96118E+01 3.10054E+00-5.36535E-03 7.93576E-02 1.54677E-13-5.62790E-14
 -1      2668 1.97497E+01 2.76992E+00 4.83084E-03 2.20856E-01 1.39675E-13-4.66855E-14
 -1      2669 2.00146E+01 2.48363E+00-9.87286E-03 8.61135E-01 1.44455E-13 6.53201E-14
 -1      2670 1.99127E+01 2.64976E+00-7.50181E-03 7.41608E-01 1.57106E-13 3.90226E-14
 -1      2671 2.02627E+01 2.01883E+00-1.12109E-02 1.02597E+00 1.09962E-13 1.25153E-13
 -1      2672 2.01334E+01 2.27661E+00-6.10533E-03 9.36578E-01 1.28797E-13 1.00633E-13
 -1      2673 2.01700E+01 2.06133E+00 7.07709E-03 7.14327E-01 1.17830E-13 7.60637E-14
 -1      2674 2.03715E+01 8.26777E-01-1.25285E-03 3.99622E-01 6.16646E-14 1.44765E-13
 -1      2675 2.04822E+01 1.03132E+00 8.95611E-03 6.92341E-01 5.51581E-14 1.75745E-13
 -1      2676 9.08085E+00-1.56439E+00 9.60657E-02 4.16528E+00 1.32255E-14 9.43134E-14
 -1      2677 7.15904E+00-8.44800E-01 1.68686E-01 2.28583E+00 7.20327E-14 4.84890E-14
 -1      2678 2.02790E+01 5.61198E-01 1.08741E-03-3.32734E-02 4.07549E-14 1.21621E-13
 -1      2679 2.03399E+01 6.74802E-01 9.80496E-03 1.71041E-01 5.15215E-14 1.39400E-13
 -1      2680 2.03676E+01 9.61725E-01-1.81548E-04 3.36565E-01 6.03833E-14 9.21022E-14
 -1      2681 2.04442E+01 1.56340E+00-1.00262E-03 1.08003E+00 7.83774E-14 1.85151E-13
 -1      2682 2.03479E+01 7.07122E-01 8.08461E-03-1.96587E-01 6.61369E-15-1.69429E-13
 -1      2683 2.02916E+01 5.61709E-01-2.31823E-03-1.51137E-02 4.91946E-15-1.77042E-13
 -1      2684 2.02821E+01 4.52272E-01 6.59569E-03 1.32249E-01-7.99434E-15-1.59368E-13
 -1      2685 2.02568E+01 3.58503E-01-8.23689E-04 2.54496E-01-9.76297E-15-1.55900E-13
 -1      2686 2.03114E+01 6.37257E-01-2.37231E-03 3.56026E-02-6.70850E-15-1.50961E-13
 -1      2687 2.02549E+01 2.85218E-01 4.83351E-03 3.58939E-01-2.51033E-15-1.42352E-13
 -1      2688 2.02602E+01 2.18348E-01-1.28135E-04 4.38879E-01 7.97908E-15-1.26843E-13
 -1      2689 2.02836E+01 4.08413E-01-3.00767E-03 3.01137E-01-6.09182E-15-1.19080E-13
 -1      2690 2.02740E+01 1.61719E-01 3.72890E-03 5.09533E-01 3.92698E-16-1.11376E-13
 -1      2691 2.03048E+01 1.05211E-01-5.31634E-05 5.56578E-01 2.87947E-14-1.20434E-13
 -1      2692 2.02847E+01 2.43859E-01-3.16235E-03 4.87842E-01 6.92788E-15-1.02250E-13
 -1      2693 2.03393E+01 5.22061E-02 3.30673E-03 5.98286E-01 2.92182E-14-1.40239E-13
 -1      2694 2.03906E+01-5.70416E-03-5.18252E-04 6.15676E-01-3.51946E-16-1.42024E-13
 -1      2695 2.03241E+01 1.05063E-01-3.28049E-03 6.10118E-01 3.41967E-15-1.03089E-13
 -1      2696 2.04500E+01-6.43436E-02 3.48475E-03 6.28482E-01-3.70289E-14-1.70558E-13
 -1      2697 2.05173E+01-1.31916E-01-1.49024E-03 6.14576E-01-6.49177E-14-2.07837E-13
 -1      2698 2.04084E+01-3.56804E-02-3.53717E-03 6.73578E-01-1.14937E-14-1.49771E-13
 -1      2699 2.06055E+01-2.01910E-01 4.10647E-03 5.93986E-01-8.42480E-14-1.83453E-13
 -1      2700 2.06840E+01-2.83066E-01-2.93773E-03 5.43750E-01-9.97735E-14-1.44419E-13
 -1      2701 2.05441E+01-1.97759E-01-3.92469E-03 6.74399E-01-5.10340E-14-1.07243E-13
 -1      2702 2.08035E+01-3.64956E-01 4.88324E-03 4.81692E-01-1.09115E-13-9.81022E-14
 -1      2703 2.08868E+01-4.56634E-01-4.73310E-03 3.88945E-01-5.90176E-14-7.90983E-14
 -1      2704 2.07370E+01-3.90167E-01-4.25633E-03 6.00254E-01-6.41120E-14-6.02022E-14
 -1      2705 2.10353E+01-5.42610E-01 5.30869E-03 2.76063E-01-3.69055E-14-6.91930E-14
 -1      2706 2.11137E+01-6.30778E-01-6.46355E-03 1.37260E-01-2.04329E-14-6.73394E-14
 -1      2707 2.09881E+01-6.05309E-01-4.11128E-03 4.33102E-01-3.85729E-14-2.45412E-14
 -1      2708 2.12788E+01-7.00883E-01 4.66568E-03-3.21581E-02-2.28627E-14-7.57727E-14
 -1      2709 2.13385E+01-7.57043E-01-7.25395E-03-2.11879E-01-6.76737E-15-4.93126E-14
 -1      2710 2.12860E+01-8.09776E-01-2.79764E-03 1.55751E-01-2.64625E-14-1.08332E-14
 -1      2711 2.14926E+01-7.77682E-01 1.99220E-03-4.30776E-01 4.92252E-14-4.67624E-14
 -1      2712 2.15169E+01-7.60363E-01-5.86035E-03-6.29740E-01 6.16078E-14-8.39201E-14
 -1      2713 2.15969E+01-9.36029E-01 3.95147E-04-2.34566E-01 2.85267E-14 2.81320E-14
 -1      2714 2.16176E+01-6.90240E-01-3.13514E-03-8.66474E-01 3.07601E-14-4.69777E-14
 -1      2715 2.15926E+01-5.56983E-01-8.92948E-04-1.04017E+00 2.65290E-14-7.26001E-14
 -1      2716 2.18585E+01-8.87786E-01 5.18141E-03-7.03904E-01 3.91859E-14-5.76361E-14
 -1      2717 2.15930E+01-3.65342E-01-1.02058E-02-1.22682E+00 1.55965E-14-1.11741E-13
 -1      2718 2.15190E+01-1.04085E-01 6.77907E-03-1.30885E+00-8.57832E-15-9.86208E-14
 -1      2719 2.19871E+01-5.65123E-01 1.01851E-02-1.15669E+00-3.63620E-15-5.39655E-14
 -1      2720 2.14071E+01 1.91798E-01-1.51560E-02-1.35256E+00-1.88272E-14-1.28292E-13
 -1      2721 2.13066E+01 5.27875E-01 1.39577E-02-1.28020E+00-3.92037E-14-1.10414E-13
 -1      2722 2.19189E+01 5.02518E-02 1.01042E-02-1.42247E+00-2.98555E-14-3.61689E-14
 -1      2723 2.11320E+01 8.42970E-01-1.42753E-02-1.10790E+00-8.68484E-15-7.88870E-14
 -1      2724 2.10483E+01 1.12871E+00 1.39075E-02-8.61280E-01-1.47066E-14-1.04546E-13
 -1      2725 2.16798E+01 8.34680E-01 4.23212E-03-1.31635E+00 9.12123E-15 1.35907E-14
 -1      2726 2.09225E+01 1.32920E+00-5.19290E-03-4.91061E-01-4.83923E-14-9.45958E-14
 -1      2727 2.08932E+01 1.43210E+00 5.25677E-03-1.30111E-01-8.68186E-15-7.74897E-14
 -1      2728 2.14155E+01 1.49383E+00-6.44575E-03-7.60067E-01 2.17044E-14-7.97782E-14
 -1      2729 2.09102E+01 1.41355E+00 8.37888E-03 3.16678E-01 3.38913E-14-1.53660E-14
 -1      2730 2.09550E+01 1.27635E+00-5.74662E-03 6.65828E-01 2.34615E-14-2.36456E-14
 -1      2731 2.13161E+01 1.73323E+00-7.94628E-03 1.04984E-01-8.42783E-15-2.80098E-14
 -1      2732 2.10975E+01 1.05137E+00 1.49156E-02 1.01145E+00 8.80372E-17-1.02271E-13
 -1      2733 2.11936E+01 7.50005E-01-1.43793E-02 1.23292E+00 3.64189E-14-5.56790E-14
 -1      2734 2.14583E+01 1.41360E+00-3.88691E-03 9.36447E-01-3.88259E-14-2.37087E-14
 -1      2735 2.13641E+01 4.33741E-01 1.27730E-02 1.37016E+00 1.15207E-15-1.21380E-13
 -1      2736 2.14688E+01 1.08065E-01-1.42091E-02 1.41865E+00-3.17767E-14-1.97573E-13
 -1      2737 2.17341E+01 7.19058E-01 5.34064E-03 1.42592E+00-2.63702E-14-1.47721E-13
 -1      2738 2.15644E+01-1.70185E-01 5.29140E-03 1.35091E+00 2.01457E-14-1.60634E-13
 -1      2739 2.16381E+01-4.06797E-01-8.51414E-03 1.25570E+00-2.92728E-14-1.58645E-13
 -1      2740 2.19538E+01-4.02454E-02 1.09421E-02 1.46967E+00 2.22517E-14-1.88375E-13
 -1      2741 2.16193E+01-5.73294E-01-2.35905E-03 1.06328E+00-7.19591E-14-1.57788E-13
 -1      2742 2.16434E+01-6.81139E-01-2.00434E-03 8.90467E-01-2.67906E-16-6.94562E-14
 -1      2743 2.19896E+01-6.01753E-01 8.96409E-03 1.17391E+00-6.73459E-14-4.08835E-14
 -1      2744 2.15323E+01-7.30460E-01-6.59224E-03 6.63462E-01 6.31993E-14-3.43360E-14
 -1      2745 2.15102E+01-7.29712E-01 2.89282E-03 4.75633E-01 1.38962E-14 1.63284E-14
 -1      2746 2.18372E+01-8.63226E-01 4.31011E-03 7.28301E-01 4.30351E-14 3.37218E-14
 -1      2747 2.13527E+01-6.96200E-01-7.53136E-03 2.74459E-01 1.41342E-14 1.85039E-14
 -1      2748 2.12985E+01-6.30666E-01 5.08500E-03 1.11518E-01 1.38345E-13 5.26962E-14
 -1      2749 2.15658E+01-8.69883E-01-2.54147E-04 2.88445E-01 6.25699E-14 1.17417E-13
 -1      2750 2.11352E+01-5.55570E-01-6.47125E-03-3.75535E-02 1.05624E-13 4.16698E-14
 -1      2751 2.10649E+01-4.65745E-01 5.41409E-03-1.58173E-01 4.98095E-14 7.12118E-14
 -1      2752 2.12558E+01-7.21652E-01-2.93355E-03-6.24263E-02 1.60040E-13 1.56243E-13
 -1      2753 2.09199E+01-3.81334E-01-4.65628E-03-2.52376E-01 7.94403E-14 3.21790E-14
 -1      2754 2.08457E+01-2.94187E-01 4.66103E-03-3.28986E-01 9.78394E-14 8.02185E-14
 -1      2755 2.09643E+01-5.13885E-01-3.80096E-03-3.00521E-01 7.24700E-14 2.19471E-13
 -1      2756 2.07284E+01-2.19239E-01-2.87766E-03-3.77005E-01 1.10267E-14 9.41067E-14
 -1      2757 2.06577E+01-1.48141E-01 3.51513E-03-4.16065E-01-1.16031E-14 9.51267E-14
 -1      2758 2.07192E+01-3.10450E-01-3.62290E-03-4.35770E-01 4.38723E-14 2.37242E-13
 -1      2759 2.05685E+01-9.04880E-02-1.43289E-03-4.29985E-01 8.49511E-14 1.77390E-13
 -1      2760 2.05049E+01-3.93146E-02 2.38893E-03-4.40838E-01 1.14073E-13 3.28546E-13
 -1      2761 2.05270E+01-1.43368E-01-2.99770E-03-4.90993E-01 7.27656E-14 2.23719E-13
 -1      2762 2.04397E+01 1.07431E-04-3.82891E-04-4.32134E-01-4.07415E-15 3.22779E-13
 -1      2763 2.03844E+01 3.27790E-02 1.46247E-03-4.24012E-01 8.57246E-15 2.19654E-13
 -1      2764 2.03829E+01-2.22969E-02-2.29165E-03-4.90504E-01 4.50236E-14 2.55910E-13
 -1      2765 2.03380E+01 5.64994E-02 3.11701E-04-4.02010E-01 6.56625E-15 1.13287E-13
 -1      2766 2.02910E+01 7.43507E-02 7.81769E-04-3.82656E-01-3.99518E-14 1.09140E-13
 -1      2767 2.02777E+01 5.56712E-02-1.67414E-03-4.55197E-01-3.35797E-14 1.34049E-13
 -1      2768 2.02584E+01 8.61055E-02 7.22465E-04-3.54240E-01-1.09548E-13 8.70100E-14
 -1      2769 2.02192E+01 9.32649E-02 3.25120E-04-3.29494E-01-1.14083E-13 4.35658E-14
 -1      2770 2.02020E+01 9.88750E-02-1.19535E-03-4.01124E-01-1.12023E-13-2.83718E-14
 -1      2771 2.01964E+01 9.67391E-02 9.23504E-04-2.99360E-01-6.72458E-14 2.00669E-14
 -1      2772 2.01642E+01 9.68751E-02 4.44141E-05-2.73257E-01-4.29209E-14 1.09663E-13
 -1      2773 2.01478E+01 1.16819E-01-8.51580E-04-3.39658E-01-1.35798E-13-7.47438E-14
 -1      2774 2.01482E+01 9.51420E-02 9.79990E-04-2.44354E-01-2.26609E-14 1.73946E-13
 -1      2775 2.01222E+01 9.11356E-02-1.09814E-04-2.19440E-01 5.39787E-14 1.15940E-13
 -1      2776 2.01087E+01 1.18035E-01-6.14887E-04-2.78260E-01-3.17273E-14 8.69963E-14
 -1      2777 2.01108E+01 8.65115E-02 9.43693E-04-1.93425E-01 7.22612E-14 3.82273E-14
 -1      2778 2.00901E+01 8.04401E-02-1.79520E-04-1.71122E-01-3.72788E-15 5.60671E-14
 -1      2779 2.00804E+01 1.09274E-01-4.54290E-04-2.21407E-01-1.73320E-14-2.95116E-14
 -1      2780 2.00819E+01 7.45395E-02 8.53544E-04-1.48751E-01-8.68719E-14-1.02836E-13
 -1      2781 2.00656E+01 6.77922E-02-1.96898E-04-1.29686E-01-2.81839E-13-9.09191E-14
 -1      2782 2.00596E+01 9.54351E-02-3.45083E-04-1.71424E-01-1.20227E-13-1.50762E-13
 -1      2783 2.00597E+01 6.16570E-02 7.37587E-04-1.11120E-01-2.12075E-13-1.86257E-13
 -1      2784 2.00472E+01 5.50877E-02-1.84903E-04-9.54039E-02 1.02648E-14-1.88316E-13
 -1      2785 2.00441E+01 7.98232E-02-2.69175E-04-1.29166E-01-2.46842E-13-2.30152E-13
 -1      2786 2.00428E+01 4.93299E-02 6.14793E-04-8.04447E-02 5.84984E-14-2.16157E-13
 -1      2787 2.00333E+01 4.34053E-02-1.58929E-04-6.78769E-02-2.56796E-14-2.27002E-13
 -1      2788 2.00325E+01 6.44892E-02-2.14215E-04-9.45520E-02-5.50930E-14-2.83383E-13
 -1      2789 2.00301E+01 3.83347E-02 4.97072E-04-5.61353E-02 9.66227E-17-2.59336E-13
 -1      2790 2.00231E+01 3.32578E-02-1.28680E-04-4.63553E-02-1.99874E-13-1.63440E-13
 -1      2791 2.00238E+01 5.05711E-02-1.72389E-04-6.69625E-02-6.16643E-14-3.73451E-13
 -1      2792 2.00206E+01 2.89836E-02 3.91168E-04-3.73645E-02-3.00584E-13-4.22577E-14
 -1      2793 2.00155E+01 2.47883E-02-9.99137E-05-2.99521E-02-2.67010E-13-1.61031E-14
 -1      2794 2.00172E+01 3.85804E-02-1.38955E-04-4.55132E-02-1.69366E-13-4.71899E-13
 -1      2795 2.00137E+01 2.12945E-02 3.00190E-04-2.32412E-02-1.06089E-13 2.24783E-13
 -1      2796 2.00102E+01 1.79127E-02-7.57249E-05-1.77816E-02 1.87977E-13 2.50412E-13
 -1      2797 2.00123E+01 2.86229E-02-1.11303E-04-2.92428E-02-9.38126E-15 2.70853E-13
 -1      2798 2.00088E+01 1.51102E-02 2.25124E-04-1.29200E-02 2.90634E-13 2.09700E-13
 -1      2799 2.00064E+01 1.24190E-02-5.68379E-05-9.04108E-03 1.86505E-13 3.25858E-13
 -1      2800 2.00085E+01 2.05578E-02-8.78309E-05-1.72283E-02 2.61154E-13 3.70180E-13
 -1      2801 2.00054E+01 1.01841E-02 1.66760E-04-5.65722E-03 1.04231E-13 2.65144E-13
 -1      2802 2.00038E+01 8.02340E-03-4.15545E-05-3.04337E-03 1.76921E-13-7.11664E-15
 -1      2803 2.00057E+01 1.41118E-02-6.69134E-05-8.65215E-03 1.12888E-13 1.85140E-13
 -1      2804 2.00030E+01 6.17116E-03 1.13581E-04-8.56103E-04 2.05579E-13 5.01712E-14
 -1      2805 2.00021E+01 4.45470E-03-1.22078E-05 7.09694E-04 1.15720E-13 6.96447E-15
 -1      2806 2.00037E+01 8.87266E-03-6.69137E-05-2.81521E-03 2.17051E-13-4.15780E-14
 -1      2807 2.02833E+01 4.03875E-01 5.17208E-03-8.90385E-01 5.22162E-14 5.03225E-14
 -1      2808 2.02193E+01 3.89019E-01 7.69639E-04-7.66174E-01 6.00869E-14 8.50081E-14
 -1      2809 2.88543E+01-4.68630E+00-6.75866E-02 6.46666E-01 1.62204E-13 1.40638E-13
 -1      2810 2.62034E+01-5.36722E+00 6.98518E-02 2.69741E+00 1.91694E-13-1.08913E-13
 -1      2811 2.02374E+01 3.88475E-01 3.92637E-03-6.37006E-01 4.77311E-14 8.89490E-14
 -1      2812 2.02088E+01 4.02072E-01 3.47141E-03-5.07487E-01 4.62826E-14 1.02238E-13
 -1      2813 2.01846E+01 4.99353E-01-1.57571E-03-7.13846E-01 7.12360E-14 3.38511E-14
 -1      2814 2.04493E+01 5.49860E-01 7.40554E-03-1.44330E+00 3.26026E-14 1.17863E-13
 -1      2815 2.03330E+01 5.00908E-01-3.48638E-03-1.29344E+00 5.29579E-14 7.78182E-14
 -1      2816 2.05462E+01 6.40564E-01 8.39491E-03-1.77597E+00 6.02263E-14 1.03548E-13
 -1      2817 2.04085E+01 5.93364E-01-5.20114E-03-1.60527E+00 4.60129E-14 9.34055E-14
 -1      2818 2.00827E+01 7.15884E-01 3.21695E-03-1.56095E+00 4.92418E-14 7.92536E-14
 -1      2819 2.06507E+01 6.84992E-01 9.42772E-03-2.15065E+00 9.26735E-14 9.06641E-14
 -1      2820 2.04866E+01 6.69115E-01-6.20244E-03-1.96448E+00 7.72238E-14 9.27878E-14
 -1      2821 2.00016E+01 8.18134E-01 4.45886E-03-1.90803E+00 7.12711E-14 5.95522E-14
 -1      2822 2.07955E+01 5.86991E-01 1.10447E-02-2.54863E+00 8.29106E-14 9.31644E-14
 -1      2823 2.05837E+01 6.58445E-01-5.29505E-03-2.36738E+00 1.02040E-13 1.08979E-13
 -1      2824 1.98864E+01 8.44296E-01 3.94808E-03-2.30780E+00 7.19304E-14 7.25381E-14
 -1      2825 2.10831E+01 1.83302E-01 1.49862E-02-2.91928E+00 1.81498E-14 9.29762E-14
 -1      2826 2.07673E+01 4.34586E-01 5.60453E-04-2.78771E+00 6.96295E-14 9.99461E-14
 -1      2827 1.97773E+01 6.65829E-01-6.28677E-04-2.76388E+00 7.41632E-14 5.59204E-14
 -1      2828 2.17389E+01-7.55648E-01 2.25576E-02-3.14885E+00-5.53134E-14 5.63422E-14
 -1      2829 2.12120E+01-2.06609E-01 1.72000E-02-3.15766E+00-1.95007E-14 1.00500E-13
 -1      2830 1.98047E+01 7.21645E-02-1.19539E-02-3.27007E+00-1.55995E-15 1.18400E-13
 -1      2831 2.32710E+01-2.36337E+00 5.33300E-02-2.96334E+00-1.51133E-13 1.37754E-13
 -1      2832 2.22861E+01-1.48649E+00 6.08624E-02-3.30474E+00-9.46014E-14 9.89677E-14
 -1      2833 2.02997E+01-1.20189E+00-1.71792E-02-3.77159E+00-7.44994E-14 1.12322E-13
 -1      2834 2.50855E+01-4.46991E+00 6.71720E-02-2.68245E+00-3.60961E-14-2.34847E-14
 -1      2835 2.36008E+01-3.60998E+00 9.86810E-02-3.35302E+00-1.06873E-13 4.40472E-14
 -1      2836 3.04256E+01-1.22570E-01-9.54210E-02 3.49020E+00-7.20674E-14 1.29327E-13
 -1      2837 3.14618E+01-1.65376E+00-1.81621E-01 2.44122E+00 1.80966E-14 4.94049E-15
 -1      2838 3.02202E+01 1.61550E+00-2.08607E-01 3.37386E+00-1.91264E-13 1.47285E-13
 -1      2839 2.68990E+01-3.87523E+00 4.61788E-02 1.25163E+00 8.11434E-14 1.37142E-13
 -1      2840 2.81025E+01-4.16169E+00-3.94576E-02 1.77421E-01 1.66901E-13 1.76810E-13
 -1      2841 2.13077E+01 2.79761E-01 7.08746E-03 2.75196E+00-2.53361E-13 3.42595E-13
 -1      2842 2.16917E+01-5.05675E-02 1.59281E-02 2.84120E+00-1.77760E-13 3.40920E-13
 -1      2843 2.10089E+01 6.06965E-01-2.48078E-03 2.33996E+00-1.99428E-13 1.92487E-13
 -1      2844 2.12622E+01 4.88922E-01 1.07128E-02 2.51346E+00-2.10309E-13 3.38429E-13
 -1      2845 2.01379E+01 5.18352E-01-4.07491E-03 2.78283E+00-1.42805E-13 3.29971E-13
 -1      2846 2.08413E+01 6.68385E-01-4.66777E-03 1.89426E+00-2.26609E-14 1.37857E-13
 -1      2847 2.10358E+01 6.62910E-01 8.83132E-03 2.09785E+00-9.96844E-14 8.72344E-14
 -1      2848 2.01570E+01 8.09704E-01 2.39168E-03 2.29327E+00-5.14463E-14 2.01445E-13
 -1      2849 2.07259E+01 6.04467E-01-4.43134E-03 1.50764E+00 1.76272E-13-5.47988E-14
 -1      2850 2.08786E+01 6.47045E-01 8.36817E-03 1.68925E+00 3.83203E-14 7.35284E-15
 -1      2851 2.02244E+01 8.29800E-01 4.13319E-03 1.84780E+00 5.62321E-14-1.12474E-13
 -1      2852 2.06184E+01 5.02881E-01-3.63870E-03 1.17753E+00-1.62950E-13 7.85274E-14
 -1      2853 2.07477E+01 5.58059E-01 7.55973E-03 1.33367E+00 3.89554E-14-6.16844E-14
 -1      2854 2.02716E+01 7.33936E-01 3.74990E-03 1.47150E+00 4.98214E-14-1.41395E-13
 -1      2855 2.05151E+01 3.99759E-01-2.72645E-03 9.06334E-01-5.33754E-14 7.40768E-14
 -1      2856 2.06244E+01 4.52559E-01 6.56123E-03 1.03422E+00-1.34249E-13 4.42368E-14
 -1      2857 2.02860E+01 6.05007E-01 2.63388E-03 1.15469E+00-7.77941E-14-5.02965E-14
 -1      2858 2.04185E+01 3.09586E-01-1.94417E-03 6.89232E-01-7.40778E-14 2.31301E-13
 -1      2859 2.05093E+01 3.54607E-01 5.50071E-03 7.90879E-01-1.22212E-13 7.54683E-14
 -1      2860 2.02735E+01 4.79430E-01 1.53721E-03 8.94403E-01-9.36419E-14 1.82613E-14
 -1      2861 2.03318E+01 2.36020E-01-1.33813E-03 5.18526E-01-1.82111E-14 6.92634E-14
 -1      2862 2.04057E+01 2.72299E-01 4.48774E-03 5.97765E-01 5.37439E-15 1.04497E-13
 -1      2863 2.02444E+01 3.71149E-01 7.04151E-04 6.84706E-01 4.27138E-15-1.24500E-13
 -1      2864 2.02571E+01 1.78146E-01-8.96243E-04 3.86026E-01-2.08903E-13 2.74601E-13
 -1      2865 2.03160E+01 2.06506E-01 3.58633E-03 4.46990E-01-1.25230E-13 1.66982E-13
 -1      2866 2.02077E+01 2.83195E-01 1.58240E-04 5.18374E-01-9.76983E-14 8.12632E-14
 -1      2867 2.01948E+01 1.33514E-01-5.86763E-04 2.84194E-01 1.47207E-14 2.19797E-13
 -1      2868 2.02409E+01 1.55313E-01 2.82069E-03 3.30650E-01-5.91259E-14 2.67124E-13
 -1      2869 2.01698E+01 2.14025E-01-1.59777E-04 3.88080E-01-1.30312E-13 2.86223E-13
 -1      2870 2.01443E+01 9.94669E-02-3.76212E-04 2.06576E-01 3.76258E-13 5.59991E-14
 -1      2871 2.01799E+01 1.16068E-01 2.19079E-03 2.41702E-01 9.39373E-14 1.48827E-13
 -1      2872 2.01343E+01 1.60605E-01-3.19194E-04 2.87070E-01 1.89810E-13-1.00741E-13
 -1      2873 2.01046E+01 7.36528E-02-2.35920E-04 1.47873E-01 1.66803E-13 2.12922E-13
 -1      2874 2.01315E+01 8.62273E-02 1.68362E-03 1.74237E-01 3.12447E-13 1.33240E-13
 -1      2875 2.01034E+01 1.19769E-01-3.77057E-04 2.09481E-01 1.84740E-13 7.89619E-14
 -1      2876 2.00739E+01 5.41585E-02-1.43980E-04 1.03829E-01 2.81378E-13 4.06235E-13
 -1      2877 2.00939E+01 6.36464E-02 1.28120E-03 1.23466E-01 1.88960E-13 3.72384E-13
 -1      2878 2.00775E+01 8.87411E-02-3.75312E-04 1.50408E-01 9.01707E-14 4.66939E-13
 -1      2879 2.00509E+01 3.94876E-02-8.46486E-05 7.10752E-02 1.86601E-13 5.95225E-13
 -1      2880 2.00655E+01 4.66206E-02 9.65346E-04 8.55751E-02 3.35572E-13 5.57096E-13
 -1      2881 2.00567E+01 6.52658E-02-3.42068E-04 1.05841E-01 2.40683E-13 6.55973E-13
 -1      2882 2.00339E+01 2.84870E-02-4.71269E-05 4.69657E-02-4.29628E-14 5.36206E-13
 -1      2883 2.00443E+01 3.38288E-02 7.19615E-04 5.75625E-02 7.61354E-14 5.53297E-13
 -1      2884 2.00405E+01 4.75720E-02-2.94912E-04 7.25496E-02 1.47669E-13 4.48793E-13
 -1      2885 2.00217E+01 2.02680E-02-2.43981E-05 2.94376E-02-1.21152E-13 2.81507E-13
 -1      2886 2.00290E+01 2.42542E-02 5.30034E-04 3.70827E-02 4.51895E-14 3.93679E-13
 -1      2887 2.00281E+01 3.42878E-02-2.44303E-04 4.79593E-02 6.17371E-14 5.49013E-13
 -1      2888 2.00133E+01 1.41390E-02-1.21815E-05 1.68982E-02-1.64789E-13 2.45378E-13
 -1      2889 2.00181E+01 1.71097E-02 3.85064E-04 2.23180E-02-3.10995E-13 8.50470E-14
 -1      2890 2.00189E+01 2.43484E-02-1.96019E-04 3.00390E-02-7.41753E-14 1.46871E-13
 -1      2891 2.00076E+01 9.55935E-03-6.82814E-06 8.13828E-03-1.66634E-13 2.05161E-13
 -1      2892 2.00107E+01 1.17792E-02 2.74944E-04 1.18785E-02-1.16962E-13 2.50050E-13
 -1      2893 2.00123E+01 1.69194E-02-1.52818E-04 1.72089E-02-1.75730E-13-4.27238E-14
 -1      2894 2.00040E+01 6.08963E-03-8.16052E-06 2.24157E-03-9.55716E-14-5.59141E-14
 -1      2895 2.00058E+01 7.78279E-03 1.92199E-04 4.70933E-03-1.18459E-13 1.46603E-13
 -1      2896 2.00076E+01 1.13512E-02-1.15701E-04 8.25962E-03-1.02859E-13 2.07131E-13
 -1      2897 2.00018E+01 3.36598E-03 8.67446E-07-1.40716E-03-9.43398E-14-3.79159E-13
 -1      2898 2.00028E+01 4.67111E-03 1.25009E-04 3.90149E-05-2.86093E-14-1.84390E-13
 -1      2899 2.00044E+01 7.08136E-03-8.67643E-05 2.26116E-03 4.18603E-14-1.67261E-13
 -1      2900 2.00006E+01 1.25281E-03 1.22051E-05-3.18863E-03 2.56558E-13-6.60155E-13
 -1      2901 2.00010E+01 2.34457E-03 7.85749E-05-2.53753E-03 2.25093E-14-5.48330E-13
 -1      2902 2.00024E+01 3.99202E-03-3.82768E-05-1.19038E-03 1.06954E-13-5.15631E-13
 -1      2903 2.00012E+01 1.50972E-03-2.11082E-05-2.97809E-03 1.35354E-13-8.25100E-13
 -1      2904 2.00001E+01 1.00056E-02-3.44840E-05 5.48505E-04 8.69530E-14-2.21703E-13
 -1      2905 2.00003E+01 9.83835E-03-8.74114E-06 6.36756E-04 2.98077E-13-2.80972E-13
 -1      2906 2.00012E+01 2.27743E-03 2.02047E-06 2.21066E-03 1.28383E-13 1.83167E-13
 -1      2907 2.00015E+01 2.62046E-03-1.40260E-05 1.96832E-03 1.61876E-13 4.92773E-14
 -1      2908 2.00017E+01 3.33347E-03 7.16260E-05 1.62510E-03 1.28283E-13-8.02676E-15
 -1      2909 2.00013E+01 7.74211E-03-5.43134E-05 7.23150E-04 2.07488E-13 1.22364E-13
 -1      2910 2.00018E+01 7.17811E-03 2.81626E-05 4.25400E-04 1.03202E-13 1.69939E-13
 -1      2911 1.99783E+01-4.90704E+00 1.03483E-01-6.18882E+00 2.68424E-13 6.07916E-14
 -1      2912 2.30116E+01-5.12981E+00-5.47142E-02-5.17464E+00 2.29788E-13-8.75324E-14
 -1      2913 2.00001E+01 9.94903E-03-1.44058E-05 9.20935E-05-1.14268E-13 2.56674E-13
 -1      2914 2.00000E+01 1.00467E-02-2.98099E-05 2.12512E-04-7.57652E-14-7.32136E-15
 -1      2915 2.00000E+01 1.42963E-02 7.92898E-05 4.14280E-04 9.02230E-14-3.06403E-13
 -1      2916 2.00005E+01 9.22612E-03-4.92806E-05 8.49138E-04 1.28322E-13-2.15950E-13
 -1      2917 2.00009E+01 8.82535E-03 1.30202E-05 7.81102E-04 2.64339E-13-6.69794E-14
 -1      2918 2.00013E+01 1.20353E-02 5.99979E-05 1.45079E-03 1.23389E-14 9.87264E-14
 -1      2919 2.00005E+01 1.36730E-02 7.40351E-05 1.14309E-03 1.54382E-13-1.58350E-13
 -1      2920 2.00005E+01 9.09689E-03 6.92239E-06-2.09398E-04-1.63993E-13 6.67766E-14
 -1      2921 2.00002E+01 9.42682E-03-4.59920E-05-1.86189E-04-2.51828E-13 3.67400E-13
 -1      2922 2.00002E+01 1.38200E-02 7.44898E-05-3.79332E-04-4.69142E-14 2.23409E-13
 -1      2923 2.00012E+01 7.55681E-03 1.99526E-05-1.21957E-04 2.83276E-13 1.42432E-13
 -1      2924 2.00008E+01 8.08686E-03-5.32950E-05-2.86703E-04 2.17064E-14 3.20853E-13
 -1      2925 2.00008E+01 1.23293E-02 5.81875E-05-8.90420E-04 8.18105E-15 3.34662E-13
 -1      2926 2.00017E+01 5.54481E-03-6.20747E-07 4.77979E-04 4.59042E-13 1.90111E-14
 -1      2927 2.00015E+01 6.23024E-03-4.82719E-05 7.94725E-05 4.33415E-13-1.72063E-13
 -1      2928 2.00016E+01 1.00681E-02 4.15438E-05-8.56807E-04 3.02893E-13 1.17043E-13
 -1      2929 2.00018E+01 3.41626E-03 3.64703E-05 1.42470E-03 3.51316E-13-5.19463E-14
 -1      2930 2.02330E+01 4.32166E-01 2.57226E-03-3.63853E-01 4.40970E-14 1.25473E-13
 -1      2931 2.02470E+01 4.85436E-01 6.69607E-03-2.10083E-01 4.64143E-14 1.21741E-13
 -1      2932 2.02867E+01 6.77856E-01-2.31323E-03-8.98383E-02 4.24970E-14 9.85627E-14
 -1      2933 2.02248E+01 5.39627E-01-2.49341E-03-4.27862E-01 6.92204E-14 8.73130E-14
 -1      2934 3.23924E+01 2.03576E+00-8.54715E-03-3.08475E+00 2.85966E-13 2.05169E-13
 -1      2935 2.55357E+01-4.58713E+00 4.95669E-02-3.60085E+00 2.18464E-13-1.48770E-13
 -1      2936 2.72236E+01-3.65338E+00-1.15173E-01-2.08465E+00 2.50182E-13-7.49539E-14
 -1      2937 3.02825E+01-3.46420E+00-5.07105E-02 8.37654E-01 2.09242E-14 3.75533E-14
 -1      2938 6.82477E+00-6.03573E-01 1.55480E-01-1.48785E+00 1.22319E-13-1.04361E-14
 -1      2939 8.06174E+00-1.22847E+00 1.06833E-01-3.43195E+00 1.07470E-13-8.58758E-14
 -1      2940 7.10149E+00-8.93827E-01 1.18016E-01 3.26140E+00 1.27384E-13 1.67921E-13
 -1      2941 6.35852E+00-4.70556E-01 1.65902E-01 7.02996E-01 1.16639E-13 8.18234E-14
 -1      2942 2.33097E+01-5.65838E+00-4.69589E-02 4.46155E+00 9.44800E-14-1.91459E-13
 -1      2943 2.03674E+01-5.05144E+00 1.13694E-01 5.18821E+00 1.80689E-14-1.14613E-13
 -1      2944 2.19639E+01-5.38045E-01 2.83104E-02 3.04295E+00-9.56639E-14 2.44406E-13
 -1      2945 2.25939E+01-1.18846E+00 2.01742E-02 2.93060E+00-1.37858E-14 1.12216E-13
 -1      2946 2.03463E+01-2.63528E-01-1.34885E-02 3.28274E+00-1.85501E-13 2.52506E-13
 -1      2947 2.33453E+01-1.98366E+00 6.49300E-02 2.91979E+00-5.36984E-15 1.12896E-14
 -1      2948 2.42206E+01-2.97050E+00 2.00152E-03 2.50444E+00-7.84095E-15 8.70970E-14
 -1      2949 2.12194E+01-1.84583E+00-3.08233E-02 3.67959E+00-6.36973E-14 1.23759E-13
 -1      2950 2.03583E+01 4.62615E-01 6.33797E-03-1.15220E+00 4.75782E-14 5.32325E-14
 -1      2951 2.02657E+01 4.26619E-01-1.49029E-03-1.01974E+00 4.55869E-14 5.54256E-14
 -1      2952 2.01582E+01 5.28180E-01-1.48823E-04-9.81374E-01 5.11486E-14 3.62195E-14
 -1      2953 2.01300E+01 6.07265E-01 1.50719E-03-1.25691E+00 4.19973E-14 7.55794E-14
 -1      2954 2.04135E+01 1.12265E+00 3.12853E-03-6.59081E-01 4.45168E-14-1.99855E-13
 -1      2955 2.03481E+01 8.88772E-01-4.17644E-03-3.96589E-01 2.65495E-14-1.88502E-13
 -1      2956 2.03497E+01 9.85669E-01-4.17867E-04-3.27595E-01 2.47814E-14-1.90150E-13
 -1      2957 1.60913E+01-4.15689E+00-1.08239E-03 5.97638E+00-6.81954E-14-2.16493E-15
 -1      2958 1.21751E+01-2.80010E+00 1.55998E-01 5.40035E+00-8.48627E-14 1.07414E-14
 -1      2959 2.83973E+01-2.34402E+00-1.46587E-02-6.45605E-01 2.99309E-13 1.47660E-14
 -1      2960 2.86479E+01-7.79752E-01-1.27180E-01 5.84851E-01 1.98383E-13-1.29050E-13
 -1      2961 2.71685E+01-3.25669E+00-1.90187E-02-1.16854E+00 3.21401E-13-1.36294E-13
 -1      2962 1.04580E+01-1.87280E+00 1.75339E-01-4.66158E+00 8.18789E-14-1.10911E-13
 -1      2963 1.39179E+01-2.90790E+00 9.56100E-02-5.58157E+00 1.96509E-14-1.18600E-13
 -1      2964 1.98234E+01 2.79535E+00-7.40832E-03 6.49976E-01 1.62696E-13 3.14835E-14
 -1      2965 1.97497E+01 2.89979E+00-6.94987E-03 5.25029E-01 1.57722E-13-1.28795E-14
 -1      2966 1.98346E+01 2.64411E+00 5.61439E-03 4.02512E-01 1.42856E-13-2.18011E-14
 -1      2967 1.99794E+01 2.41331E+00 6.56766E-03 5.72203E-01 1.41875E-13 3.77261E-14
 -1      2968 2.02304E+01 2.32703E+00 1.76221E-04-1.26283E+00 5.15713E-14-2.40621E-13
 -1      2969 6.29368E+00-5.15279E-01 1.58373E-01 5.89724E-01 1.54848E-13-1.35253E-13
 -1      2970 6.44666E+00-3.97717E-01 1.41107E-01-1.71872E+00 1.67481E-13 2.33147E-15
 -1      2971 8.85021E+00 1.10945E-01 1.91259E-01 1.35808E+00 7.34551E-14-1.71502E-13
 -1      2972 7.42034E+00-1.17604E+00 1.68184E-01-3.98261E+00 1.18981E-13 8.35165E-14
 -1      2973 9.71769E+00-2.20104E+00 9.22810E-02-5.82127E+00 1.07511E-13 2.73670E-14
 -1      2974 1.34707E+01-3.39209E+00 1.36732E-01-6.76324E+00 1.84450E-13 1.36613E-13
 -1      2975 1.68281E+01-4.45475E+00 3.64221E-02-7.01968E+00 2.21878E-13 1.36766E-13
 -1      2976 1.94216E+01-4.32768E+00 9.69128E-02-5.96576E+00 2.40724E-13-4.97172E-14
 -1      2977 1.97716E+01 2.86269E+00-6.57131E-03-4.96796E-01 1.33546E-13-1.43836E-13
 -1      2978 1.98436E+01 2.75749E+00-6.85929E-03-6.31478E-01 1.23424E-13-1.53922E-13
 -1      2979 2.83399E+01 6.07278E+00-1.75008E-01 1.23643E+00-2.96985E-14-2.77764E-13
 -1      2980 2.85289E+01 6.94867E+00-1.66565E-01 4.51292E-01-9.18432E-14-2.75543E-13
 -1      2981 2.47759E+01-5.02307E+00-8.32377E-02 4.14565E+00-4.22024E-14 8.63198E-14
 -1      2982 2.23281E+01-5.10030E+00 1.17005E-01 5.31962E+00-3.15581E-14 6.57183E-14
 -1      2983 1.14304E+01-2.29846E+00 8.82676E-02 6.00438E+00 9.74915E-14-1.62370E-14
 -1      2984 9.21896E+00-1.42500E+00 1.89362E-01 4.79783E+00 1.48104E-13 5.95357E-14
 -1      2985 2.82565E+01-2.74505E+00-1.36067E-01 1.08521E+00-1.11315E-13 1.01238E-13
 -1      2986 2.68593E+01-3.96781E+00 1.47385E-02 2.39865E+00-1.24043E-13 1.31797E-13
 -1      2987 2.94238E+01 1.03675E+00-1.79603E-01-1.18374E+00-7.66054E-14 2.90185E-14
 -1      2988 2.91270E+01-9.29892E-01-5.00316E-02-2.57801E-01-3.89966E-14 7.49678E-14
 -1      2989 2.80377E+01-1.97567E+00-1.97754E-02-6.56177E-02-7.98389E-14 7.60919E-14
 -1      2990 2.87424E+01 4.86119E+00-2.07348E-01-1.63118E+00-1.19960E-13-4.40481E-14
 -1      2991 2.90439E+01 3.26782E+00-1.07208E-01-1.82450E+00-1.13187E-13 2.08167E-16
 -1      2992 2.85867E+01 7.00788E+00-1.87165E-01-3.78397E-01-1.01863E-13-1.24930E-13
 -1      2993 2.88345E+01 6.38497E+00-1.63644E-01-1.16031E+00-1.01169E-13-1.03757E-13
 -1      2994 2.87746E+01-4.57748E+00-9.03930E-02-5.19621E-01 2.97679E-15 4.39718E-14
 -1      2995 1.99293E+01 2.61236E+00-7.01259E-03-7.34252E-01 1.10451E-13-1.52456E-13
 -1      2996 2.00175E+01 2.45229E+00-1.20149E-02-8.65858E-01 8.78128E-14-1.95941E-13
 -1      2997 1.99993E+01 2.35911E+00 3.08528E-03-5.58546E-01 1.11947E-13-1.42487E-13
 -1      2998 1.97273E+01 2.80018E+00 4.04921E-03 3.19478E-02 1.42466E-13-5.31996E-14
 -1      2999 1.96152E+01 3.09291E+00-6.03224E-03-2.39091E-02 1.48966E-13-6.84023E-14
 -1      3000 1.96336E+01 3.07153E+00-5.04637E-03-1.51893E-01 1.50120E-13-9.28860E-14
 -1      3001 2.03689E+01 1.68188E+00-2.18442E-03 9.53732E-01 8.97208E-14 1.35033E-13
 -1      3002 1.22666E+01-1.39425E+00 1.28138E-01-5.35863E+00-5.88418E-15 4.28546E-14
 -1      3003 1.27112E+01-2.48474E+00 1.51763E-01-6.17906E+00 4.79339E-14 1.03736E-13
 -1      3004 1.53131E+01-2.84481E+00-8.61021E-03-6.08054E+00 6.35464E-14 9.41885E-14
 -1      3005 1.23437E+01-1.45114E+00 1.96288E-01 4.42716E+00-4.59355E-14 3.99680E-15
 -1      3006 2.00023E+01 5.12489E-03-6.67323E-05 4.09722E-04 2.48661E-13 6.16848E-15
 -1      3007 2.50716E+01-5.01235E+00 6.60142E-03 2.97439E+00 1.29910E-13 1.76248E-15
 -1      3008 3.17690E+01-7.82590E-01-2.11372E-01-3.11713E+00 2.12566E-13 3.33483E-13
 -1      3009 8.54552E+00-1.97398E-01 1.79901E-01-2.64447E+00 8.28330E-14 7.06102E-14
 -1      3010 2.08187E+01-3.40073E+00-3.80027E-03-4.47994E+00-6.89240E-14 1.96856E-14
 -1      3011 8.26823E+00 8.36077E-02 1.92077E-01-2.96029E-01 1.10107E-13 5.75096E-14
 -1      3012 2.96819E+01-3.99112E+00-5.39405E-02-6.73868E-01 1.56260E-13 2.44679E-13
 -1      3013 3.09395E+01-2.36375E+00-2.99594E-02-1.84634E+00 1.77046E-13 2.99288E-13
 -1      3014 9.68489E+00-5.12887E-01 1.56055E-01 3.62152E+00 1.35246E-13 1.24137E-13
 -1      3015 2.45468E+01-4.01543E+00 9.32721E-04 2.67053E+00 7.31637E-14 4.24799E-14
 -1      3016 2.00017E+01 1.85476E-03 9.88770E-06-2.59538E-03 4.13241E-14-4.21453E-13
 -1      3017 2.43023E+01-4.68724E+00 5.36115E-02-3.82975E+00 3.30770E-13-2.27082E-13
 -1      3018 2.00024E+01 3.56279E-03-2.20360E-05-1.23128E-03-9.96276E-14 7.89297E-14
 -1      3019 2.00022E+01 2.96037E-03 1.50012E-05-1.86522E-03 2.28250E-14-1.05618E-13
 -1      3020 2.00024E+01 3.81604E-03-2.02649E-05-1.61333E-03 2.88263E-14-3.82044E-13
 -1      3021 2.80668E+01 1.63922E+00-7.95642E-02-1.71236E+00-8.49321E-14 1.17961E-15
 -1      3022 2.00023E+01 5.80295E-03-2.75890E-05 3.01693E-04 1.77262E-13-2.00952E-13
 -1      3023 2.00020E+01 5.25502E-03-2.74766E-05 5.21983E-04 3.09933E-13-1.68372E-13
 -1      3024 2.00024E+01 8.47100E-03 7.65844E-05-7.06908E-04 2.92628E-13-1.96254E-13
 -1      3025 2.00029E+01 7.52109E-03 1.05718E-04-7.74871E-04 2.39991E-13-9.64497E-14
 -1      3026 1.38629E+01-2.73318E+00 1.57523E-01 6.20723E+00 8.54733E-14-5.71765E-14
 -1      3027 1.34818E+01-1.68233E+00 9.03026E-02 5.41226E+00 1.23165E-13-7.04437E-14
 -1      3028 1.61203E+01-3.31767E+00-2.90849E-02 6.11418E+00 8.64309E-14-3.56937E-14
 -1      3029 2.57291E+01-4.37024E+00 1.27276E-02 2.66889E+00-7.69593E-14 9.06844E-14
 -1      3030 2.03443E+01 1.49869E+00 3.15725E-03 6.84514E-01 7.91734E-14 1.07863E-13
 -1      3031 2.71746E+01 6.30564E+00-1.21127E-01 3.34987E-02-4.63518E-14-2.25267E-13
 -1      3032 1.66235E+01-3.11439E+00 1.42208E-01-5.49328E+00-6.27276E-15-3.59018E-14
 -1      3033 1.90977E+01-3.35293E+00 6.14887E-02-4.87451E+00-3.99819E-14-2.08028E-14
 -1      3034 1.91397E+01-2.00416E+00 3.17968E-02-4.40665E+00-7.03500E-14 9.22942E-14
 -1      3035 1.53970E+01-1.82637E+00 1.08188E-01-4.95218E+00-1.62856E-14-7.43017E-14
 -1      3036 2.85370E+01 4.70149E-01-7.17239E-02 1.40004E+00 3.24046E-14-2.77126E-13
 -1      3037 2.75744E+01 1.70341E+00-1.18603E-01 1.96915E+00 1.12826E-14-3.41310E-13
 -1      3038 2.76294E+01-8.73707E-01-5.44013E-02 9.53883E-01 2.31350E-13-2.32245E-13
 -1      3039 2.08462E+01-4.69992E+00 8.85643E-02 5.58762E+00-9.24261E-15 3.82472E-14
 -1      3040 1.90687E+01-3.85424E+00 1.52725E-01 5.04533E+00 2.53408E-14-2.97540E-14
 -1      3041 2.00021E+01 5.81670E-03-4.27840E-05 4.05219E-05 2.13237E-14 3.01365E-14
 -1      3042 2.00024E+01 5.20797E-03 3.85303E-05-4.84073E-04-8.97855E-14 9.78351E-14
 -1      3043 2.00023E+01 9.66367E-03 4.68706E-05 1.10311E-03 3.21024E-14 2.51729E-13
 -1      3044 1.96657E+01 3.01958E+00-6.25566E-03-2.57600E-01 1.41543E-13-9.48072E-14
 -1      3045 1.97119E+01 2.95920E+00-5.48769E-03-3.89535E-01 1.33188E-13-1.15161E-13
 -1      3046 1.98567E+01 2.59651E+00 2.63032E-03-3.62706E-01 1.23281E-13-1.30067E-13
 -1      3047 1.97637E+01 2.74219E+00 3.09775E-03-1.62915E-01 1.24796E-13-9.17413E-14
 -1      3048 1.10349E+01-8.49936E-01 1.85675E-01-3.79036E+00 1.03570E-13-9.64784E-14
 -1      3049 2.77814E+01 4.93557E+00-1.54254E-01 1.66546E+00-2.75613E-14-3.20133E-13
 -1      3050 2.64109E+01 5.26635E+00-1.10198E-01 1.38945E+00-3.28487E-14-3.98511E-13
 -1      3051 2.69953E+01 3.76610E+00-9.02313E-02 1.88737E+00-1.42525E-14-3.69385E-13
 -1      3052 2.01657E+01 2.21063E+00-2.77331E-04-9.60143E-01 7.18548E-14-2.27860E-13
 -1      3053 2.03660E+01 1.73780E+00-9.56986E-03-1.07239E+00 3.87251E-14-2.23421E-13
 -1      3054 2.03756E+01 1.36547E+00-5.92538E-04-7.87143E-01 4.92184E-14-2.14576E-13
 -1      3055 2.02021E+01 1.96321E+00 5.15744E-03-7.31527E-01 7.51591E-14-2.04225E-13
 -1      3056 2.73592E+01 4.97722E+00-9.93037E-02-1.57954E+00-7.73964E-14-3.23144E-14
 -1      3057 2.03395E+01 1.46015E+00 4.08533E-03-6.74926E-01 5.58993E-14-2.15311E-13
 -1      3058 2.02309E+01 1.67263E+00-5.76257E-03 5.57955E-01 8.64611E-14 8.82478E-14
 -1      3059 2.01414E+01 1.88588E+00-2.16184E-03 5.14143E-01 9.90224E-14 5.00808E-14
 -1      3060 2.03252E+01 8.47441E-01 4.12802E-03-5.37729E-02 1.86085E-14-1.67688E-13
 -1      3061 2.02998E+01 6.91256E-01-2.63846E-03 1.05944E-01 1.15960E-14-1.35351E-13
 -1      3062 2.03006E+01 5.65551E-01 3.99199E-03 2.35923E-01-1.07200E-14-9.92102E-14
 -1      3063 2.02863E+01 4.55495E-01-1.27179E-03 3.51879E-01 4.35852E-15-9.87267E-14
 -1      3064 2.02867E+01 7.47547E-01-9.01080E-04 1.61552E-01 2.52755E-14-1.00981E-13
 -1      3065 2.02871E+01 3.63346E-01 3.48334E-03 4.50880E-01 3.56911E-15-7.38378E-14
 -1      3066 2.02912E+01 2.77232E-01-3.38328E-04 5.31814E-01-9.25180E-15-8.90349E-14
 -1      3067 2.02730E+01 4.94279E-01-1.90132E-03 3.98809E-01 1.84504E-14-6.99268E-14
 -1      3068 2.03034E+01 1.99148E-01 3.29309E-03 6.04809E-01-9.26378E-15-8.79235E-14
 -1      3069 2.03292E+01 1.19429E-01 1.04669E-04 6.56022E-01 1.38486E-14-1.03335E-13
 -1      3070 2.02738E+01 2.94549E-01-2.73865E-03 5.79581E-01-6.78973E-15-7.24583E-14
 -1      3071 2.03634E+01 4.02705E-02 3.64354E-03 7.05219E-01 5.73336E-15-1.31898E-13
 -1      3072 2.04134E+01-4.70667E-02 4.75938E-05 7.27518E-01-2.26200E-14-1.19594E-13
 -1      3073 2.03087E+01 1.10133E-01-3.67285E-03 7.11490E-01-3.97986E-15-1.09751E-13
 -1      3074 2.04806E+01-1.38810E-01 4.60427E-03 7.50768E-01-3.04873E-14-9.57420E-14
 -1      3075 2.05569E+01-2.43867E-01-5.73928E-04 7.40431E-01-4.74030E-14-9.70451E-14
 -1      3076 2.03968E+01-9.03612E-02-4.85598E-03 7.95449E-01-1.29948E-14-9.84876E-14
 -1      3077 2.06685E+01-3.54892E-01 6.10668E-03 7.30421E-01-4.49522E-14-5.81078E-14
 -1      3078 2.07721E+01-4.81479E-01-1.88491E-03 6.79778E-01-3.40857E-14-5.61483E-15
 -1      3079 2.05585E+01-3.29973E-01-6.27734E-03 8.22989E-01-1.94824E-14-6.41014E-14
 -1      3080 2.09377E+01-6.10254E-01 7.83942E-03 6.23727E-01-4.76468E-14 3.22251E-14
 -1      3081 2.10656E+01-7.50970E-01-3.95481E-03 5.22853E-01-7.07523E-15 2.39292E-14
 -1      3082 2.08143E+01-6.17853E-01-7.66183E-03 7.74615E-01 5.49154E-15 2.12531E-14
 -1      3083 2.12875E+01-8.81998E-01 9.07707E-03 4.03939E-01-1.94800E-14 3.76727E-14
 -1      3084 2.14288E+01-1.01106E+00-6.41843E-03 2.44755E-01 3.53613E-16 6.72799E-14
 -1      3085 2.11773E+01-9.37971E-01-8.31555E-03 6.19854E-01-1.65840E-14 1.02584E-13
 -1      3086 2.16923E+01-1.10796E+00 8.74426E-03 4.79606E-02-2.67323E-14 5.62709E-14
 -1      3087 2.18250E+01-1.17452E+00-7.93735E-03-1.67210E-01-1.73443E-14 3.36483E-14
 -1      3088 2.16405E+01-1.23257E+00-6.91750E-03 3.23102E-01-3.87700E-15 1.03751E-13
 -1      3089 2.20866E+01-1.17736E+00 4.79595E-03-4.39373E-01 1.54534E-14-3.35038E-14
 -1      3090 2.21790E+01-1.11087E+00-7.16573E-03-6.83700E-01 3.64768E-14-5.00801E-14
 -1      3091 2.21556E+01-1.38437E+00-1.68063E-03-1.37815E-01-2.30111E-14-3.60813E-14
 -1      3092 2.23697E+01-9.50667E-01-4.08309E-03-9.93662E-01 1.34216E-14-3.78371E-14
 -1      3093 2.23894E+01-6.76336E-01-6.78665E-04-1.20634E+00-4.19389E-14-4.23909E-14
 -1      3094 2.26218E+01-1.23904E+00 3.77740E-03-7.30642E-01 8.15634E-15-5.09277E-14
 -1      3095 2.24157E+01-3.04478E-01-1.75510E-02-1.43686E+00-4.70982E-14 1.20402E-14
 -1      3096 2.23620E+01 1.69602E-01 8.78091E-03-1.51142E+00-3.91128E-14 1.69780E-14
 -1      3097 2.28840E+01-6.05742E-01 1.28404E-02-1.32081E+00-1.27916E-14-1.59018E-14
 -1      3098 2.22198E+01 6.86770E-01-2.55258E-02-1.52400E+00-3.31746E-14 2.37024E-14
 -1      3099 2.21238E+01 1.23788E+00 1.77239E-02-1.37382E+00-1.08932E-14 6.87774E-15
 -1      3100 2.28392E+01 4.66539E-01 9.45623E-03-1.62001E+00-3.70569E-14 3.85013E-14
 -1      3101 2.19009E+01 1.69406E+00-2.94661E-02-1.04731E+00 2.80431E-14-2.34179E-14
 -1      3102 2.18219E+01 2.05770E+00-4.74964E-04-6.83042E-01 3.18322E-14-5.14718E-14
 -1      3103 2.25473E+01 1.74217E+00 1.01448E-02-1.35378E+00 8.23300E-15-3.61451E-14
 -1      3104 2.17610E+01 2.24054E+00-2.01854E-03-1.07050E-01 4.24790E-14 2.75533E-14
 -1      3105 2.17624E+01 2.19234E+00-9.66481E-03 3.46117E-01 2.53064E-14 4.25675E-14
 -1      3106 2.22755E+01 2.52299E+00 2.39341E-03-4.43296E-01 9.78479E-14 5.04593E-14
 -1      3107 2.18822E+01 1.97173E+00 1.32624E-02 8.78693E-01-8.33118E-14 7.51155E-14
 -1      3108 2.19584E+01 1.56373E+00-2.48948E-02 1.22502E+00-9.91670E-14 1.33097E-14
 -1      3109 2.23151E+01 2.46740E+00-3.42789E-03 6.84393E-01-9.27773E-15 7.70713E-14
 -1      3110 2.21705E+01 1.07646E+00 1.55415E-02 1.48880E+00-9.98216E-14 4.56501E-14
 -1      3111 2.22627E+01 5.33760E-01-2.50365E-02 1.60379E+00-6.39226E-14-3.68676E-14
 -1      3112 2.25915E+01 1.53579E+00 1.39726E-03 1.49643E+00-1.33868E-13 1.56869E-13
 -1      3113 2.23813E+01 3.54195E-02 7.46637E-03 1.55395E+00 6.60377E-14-6.63280E-14
 -1      3114 2.24267E+01-4.05671E-01-1.45612E-02 1.45381E+00 9.32620E-14-1.49119E-14
 -1      3115 2.28543E+01 3.06458E-01 1.29294E-02 1.66912E+00-1.87762E-15 1.63498E-13
 -1      3116 2.23612E+01-7.33044E-01-2.76277E-03 1.20472E+00 7.04417E-14 3.13482E-14
 -1      3117 2.23275E+01-9.62606E-01-3.03331E-03 9.91479E-01 2.33580E-14 1.47388E-13
 -1      3118 2.28409E+01-7.05488E-01 9.58381E-03 1.30637E+00 1.27453E-13 1.18557E-13
 -1      3119 2.21201E+01-1.08808E+00-7.73158E-03 6.93398E-01 8.64380E-15 2.61986E-13
 -1      3120 2.20204E+01-1.12388E+00 5.81710E-03 4.60163E-01 5.84370E-14 2.70450E-13
 -1      3121 2.25292E+01-1.22046E+00 5.81207E-03 7.22537E-01 1.23513E-13 2.96602E-13
 -1      3122 2.17486E+01-1.09707E+00-8.33495E-03 2.08514E-01 3.88312E-14 2.44546E-13
 -1      3123 2.16139E+01-1.01296E+00 8.87161E-03 1.21072E-02 7.72042E-14 3.07769E-13
 -1      3124 2.20383E+01-1.30628E+00-2.73234E-03 1.62178E-01 5.84264E-14 4.06515E-13
 -1      3125 2.13489E+01-9.05546E-01-6.36689E-03-1.60770E-01 1.52753E-13 1.97277E-13
 -1      3126 2.12091E+01-7.71859E-01 8.91706E-03-2.99771E-01 1.48354E-13 2.37317E-13
 -1      3127 2.15145E+01-1.11476E+00-7.10293E-03-2.51590E-01 8.67768E-14 2.99485E-13
 -1      3128 2.09883E+01-6.41235E-01-3.80259E-03-3.97749E-01 6.14906E-14 2.69127E-13
 -1      3129 2.08627E+01-5.05619E-01 7.32299E-03-4.81223E-01 8.54350E-14 2.37189E-13
 -1      3130 2.10524E+01-8.11022E-01-7.83782E-03-5.03762E-01 1.07213E-13 2.28771E-13
 -1      3131 2.06966E+01-3.85429E-01-1.78808E-03-5.22077E-01 8.65012E-14 2.51118E-13
 -1      3132 2.05933E+01-2.71797E-01 5.28522E-03-5.60867E-01 4.24588E-14 2.95351E-13
 -1      3133 2.06898E+01-5.04047E-01-6.87315E-03-6.24021E-01 7.79203E-14 2.14840E-13
 -1      3134 2.04776E+01-1.76828E-01-4.52560E-04-5.63314E-01-3.30163E-14 3.34003E-13
 -1      3135 2.03974E+01-9.29559E-02 3.43290E-03-5.70101E-01 8.57159E-14 4.02809E-13
 -1      3136 2.04281E+01-2.47515E-01-5.31526E-03-6.52151E-01 8.74679E-14 2.87846E-13
 -1      3137 2.03219E+01-2.61404E-02 3.40695E-04-5.49336E-01 3.16813E-14 3.08965E-13
 -1      3138 2.02617E+01 2.91399E-02 1.97594E-03-5.35415E-01-6.13833E-14 2.39440E-13
 -1      3139 2.02514E+01-5.84288E-02-3.77871E-03-6.22698E-01-1.63208E-14 3.25866E-13
 -1      3140 2.02155E+01 7.09303E-02 7.65321E-04-5.02433E-01-1.26205E-13 2.12274E-13
 -1      3141 2.01712E+01 1.02723E-01 9.37449E-04-4.76696E-01-8.59218E-14 9.55869E-14
 -1      3142 2.01389E+01 6.62093E-02-2.52275E-03-5.61306E-01-1.21576E-13 1.33419E-13
 -1      3143 2.01449E+01 1.24930E-01 9.57744E-04-4.38918E-01-1.13547E-13 4.10492E-14
 -1      3144 2.01125E+01 1.39354E-01 2.59986E-04-4.07813E-01-2.74498E-13-9.80192E-14
 -1      3145 2.00715E+01 1.38043E-01-1.58771E-03-4.85531E-01-1.97813E-13-8.82977E-14
 -1      3146 2.00990E+01 1.47639E-01 1.00721E-03-3.69927E-01-1.54190E-13-5.77753E-14
 -1      3147 2.00752E+01 1.50318E-01-1.44679E-04-3.37799E-01-3.00451E-14-4.55531E-15
 -1      3148 2.00339E+01 1.70818E-01-9.45678E-04-4.06679E-01-1.52440E-13-5.72282E-14
 -1      3149 2.00693E+01 1.49546E-01 9.73370E-04-3.02538E-01-5.03044E-14 6.66354E-15
 -1      3150 2.00516E+01 1.45004E-01-3.57304E-04-2.72096E-01-1.12714E-13 2.79294E-14
 -1      3151 2.00146E+01 1.77136E-01-5.33491E-04-3.31521E-01-5.34907E-14-5.41919E-14
 -1      3152 2.00500E+01 1.38937E-01 8.92886E-04-2.40879E-01-1.49246E-13 6.33695E-14
 -1      3153 2.00368E+01 1.30518E-01-4.42405E-04-2.13631E-01-1.02577E-13 7.49980E-14
 -1      3154 2.00061E+01 1.67135E-01-2.81407E-04-2.63761E-01-1.75200E-13 8.01266E-14
 -1      3155 2.00372E+01 1.21856E-01 7.88344E-04-1.87008E-01-1.38367E-13-6.68290E-14
 -1      3156 2.00272E+01 1.11867E-01-4.48736E-04-1.63618E-01-2.45022E-13-1.90257E-13
 -1      3157 2.00033E+01 1.48314E-01-1.37059E-04-2.05078E-01-2.31770E-13 1.18385E-13
 -1      3158 2.00284E+01 1.02409E-01 6.75260E-04-1.41582E-01-2.63479E-13-2.23374E-13
 -1      3159 2.00208E+01 9.23247E-02-4.11130E-04-1.22160E-01-2.55165E-13-2.21174E-13
 -1      3160 2.00032E+01 1.25860E-01-6.10894E-05-1.55834E-01-2.80097E-13-2.13464E-13
 -1      3161 2.00221E+01 8.31759E-02 5.63772E-04-1.04379E-01-1.04868E-13-1.31663E-13
 -1      3162 2.00162E+01 7.38471E-02-3.53062E-04-8.86973E-02-4.92085E-14-2.45337E-13
 -1      3163 2.00040E+01 1.03105E-01-2.54784E-05-1.15579E-01-1.66145E-13-1.44782E-13
 -1      3164 2.00173E+01 6.56098E-02 4.60038E-04-7.46719E-02-9.24027E-15-2.99481E-13
 -1      3165 2.00128E+01 5.74552E-02-2.89420E-04-6.23241E-02-6.87714E-14-2.89350E-13
 -1      3166 2.00049E+01 8.19880E-02-1.18349E-05-8.34256E-02-7.08119E-14-9.23153E-14
 -1      3167 2.00136E+01 5.03892E-02 3.67597E-04-5.14985E-02-8.97219E-14-2.33841E-13
 -1      3168 2.00102E+01 4.35402E-02-2.28866E-04-4.20054E-02-8.74959E-14-4.43660E-14
 -1      3169 2.00055E+01 6.34716E-02-9.04715E-06-5.82876E-02 2.55143E-14 1.87450E-14
 -1      3170 2.00106E+01 3.76847E-02 2.87964E-04-3.38315E-02 6.49615E-15-1.29686E-14
 -1      3171 2.00080E+01 3.20949E-02-1.76110E-04-2.67124E-02 1.53039E-13 1.25006E-13
 -1      3172 2.00056E+01 4.78725E-02-1.02038E-05-3.90463E-02 6.07197E-14 2.08696E-13
 -1      3173 2.00081E+01 2.73546E-02 2.21001E-04-2.06899E-02 1.79083E-13 1.24616E-13
 -1      3174 2.00061E+01 2.28732E-02-1.32604E-04-1.55051E-02 2.21482E-13 2.36713E-14
 -1      3175 2.00053E+01 3.51014E-02-1.20244E-05-2.46447E-02 1.63525E-13-1.98188E-13
 -1      3176 2.00060E+01 1.90817E-02 1.65174E-04-1.12116E-02 7.61428E-14-1.18690E-14
 -1      3177 2.00045E+01 1.55305E-02-8.46398E-05-7.58565E-03-1.24729E-14-7.29654E-14
 -1      3178 2.00046E+01 2.48449E-02-7.62176E-06-1.41647E-02 1.36102E-13-3.32054E-13
 -1      3179 2.00043E+01 1.26870E-02 1.30061E-04-4.93709E-03 1.13506E-13 2.91811E-14
 -1      3180 2.00032E+01 9.82819E-03-4.97107E-05-2.52551E-03 3.38880E-13 1.36455E-13
 -1      3181 2.00029E+01 1.04999E-02-7.75703E-05-2.53262E-03 1.12525E-13-2.06134E-13
 -1      3182 2.00038E+01 1.67490E-02-5.35567E-05-7.11184E-03 1.04299E-13-1.08817E-13
 -1      3183 1.94854E+01 9.90641E-01 4.39138E-03-1.87251E+00 4.52769E-14 5.60871E-14
 -1      3184 1.95317E+01 9.32391E-01-9.35238E-03-1.69873E+00 7.76500E-14 6.13408E-14
 -1      3185 1.97305E+01 8.73239E-01 3.16038E-03-1.55004E+00 7.33769E-14 5.90795E-14
 -1      3186 1.97604E+01 8.05553E-01-6.63799E-03-1.39620E+00 4.87021E-14 7.27534E-14
 -1      3187 1.92651E+01 1.05295E+00 8.98736E-03-1.52070E+00 5.40777E-14 6.89019E-14
 -1      3188 1.88145E+01 8.43949E-01 1.69982E-02-2.70846E+00 2.53993E-14 1.30536E-13
 -1      3189 1.88285E+01 9.64751E-01-1.34329E-02-2.48093E+00 4.72444E-14 7.90548E-14
 -1      3190 1.85520E+01 2.24359E-01 3.78874E-02-3.29854E+00-2.23584E-14 1.40212E-13
 -1      3191 1.84303E+01 5.97126E-01-8.49529E-03-3.03115E+00 4.76156E-14 1.56814E-13
 -1      3192 1.75381E+01 9.71458E-01 1.84901E-02-2.71972E+00 7.25104E-15 1.30740E-13
 -1      3193 1.88997E+01-1.08906E+00 6.12138E-02-3.99448E+00-7.52107E-14 7.36321E-14
 -1      3194 1.84403E+01-3.16396E-01 3.13535E-03-3.70136E+00-6.81486E-14 8.47933E-14
 -1      3195 1.69977E+01 2.53741E-01 9.73232E-03-3.46948E+00-2.42480E-14 1.34032E-13
 -1      3196 1.71592E+01-1.16426E+00 2.12666E-02-4.38602E+00-4.86000E-14 9.19403E-15
 -1      3197 9.30870E+00 6.23237E-01 8.42151E-02 7.19782E-01 1.33418E-13 1.38695E-13
 -1      3198 9.73922E+00 5.23843E-01 9.60775E-02-1.39243E+00 1.11914E-13 2.11497E-14
 -1      3199 2.69122E+01-4.80689E+00 1.19889E-01-1.89947E+00-3.06422E-14 1.76525E-14
 -1      3200 1.13404E+01-2.90030E-01 5.90090E-02 3.75884E+00 1.14235E-13 4.20775E-14
 -1      3201 9.90423E+00 4.21172E-01 1.46663E-01 2.22256E+00 1.16495E-13 1.86282E-13
 -1      3202 1.12197E+01 8.71932E-01 1.13006E-01 1.11161E+00 1.08767E-13 1.41734E-13
 -1      3203 1.47235E+01-1.68318E+00 2.39972E-02 4.88929E+00-6.01186E-14-1.32630E-13
 -1      3204 1.21075E+01-2.53494E-01 1.23583E-01 3.58110E+00 9.89139E-15 4.71845E-16
 -1      3205 2.67965E+01 2.08393E+00-1.11357E-01-2.06202E+00-5.66214E-14 1.24276E-14
 -1      3206 2.74813E+01 2.62366E-01-4.08323E-02-1.63381E+00-6.39766E-14 2.57155E-14
 -1      3207 1.90059E+01 8.84178E-01-1.20818E-02 2.54688E+00-7.38244E-14 1.78332E-14
 -1      3208 1.90501E+01 6.86609E-01 1.68334E-02 2.78533E+00-1.42113E-13 6.21864E-14
 -1      3209 1.98254E+01 8.29064E-01-7.81863E-03 1.31428E+00-1.77126E-15-9.30517E-14
 -1      3210 1.98141E+01 9.06373E-01 3.95349E-03 1.47812E+00 1.48068E-13-1.08224E-13
 -1      3211 1.99541E+01 6.76610E-01-5.99000E-03 1.03941E+00 8.94844E-15-9.96506E-14
 -1      3212 1.99579E+01 7.55633E-01 3.36876E-03 1.17713E+00-6.05250E-14-8.09741E-14
 -1      3213 1.95392E+01 9.29301E-01 7.31453E-03 1.18624E+00-7.28947E-15-2.53810E-14
 -1      3214 2.00281E+01 5.36056E-01-4.50421E-03 8.12699E-01-4.57141E-14-8.88582E-14
 -1      3215 2.00427E+01 6.06525E-01 3.03356E-03 9.25961E-01 2.48217E-14-2.22664E-14
 -1      3216 1.97390E+01 7.54454E-01 5.12083E-03 9.48262E-01 1.53415E-15-4.54997E-14
 -1      3217 2.00646E+01 4.16881E-01-3.33465E-03 6.28117E-01 5.74464E-14-1.07000E-13
 -1      3218 2.00849E+01 4.75668E-01 2.72101E-03 7.19573E-01-1.17381E-14-1.31674E-13
 -1      3219 1.98670E+01 5.97309E-01 3.39102E-03 7.49226E-01-4.67043E-14-1.85272E-13
 -1      3220 2.00774E+01 3.20221E-01-2.43849E-03 4.79799E-01-3.12689E-13 1.34940E-13
 -1      3221 2.00995E+01 3.67492E-01 2.38732E-03 5.52536E-01-1.47147E-13 2.64806E-14
 -1      3222 1.99450E+01 4.65157E-01 2.13950E-03 5.84555E-01-7.69248E-14 1.51011E-13
 -1      3223 2.00765E+01 2.43802E-01-1.76673E-03 3.62069E-01 1.38918E-14-1.19650E-14
 -1      3224 2.00977E+01 2.80999E-01 2.03955E-03 4.19202E-01-2.24194E-13 1.81741E-14
 -1      3225 1.99896E+01 3.58095E-01 1.28137E-03 4.50194E-01-2.00114E-13 2.49129E-13
 -1      3226 2.00686E+01 1.84283E-01-1.27188E-03 2.69653E-01 2.24315E-13-1.68883E-14
 -1      3227 2.00876E+01 2.13180E-01 1.70090E-03 3.14052E-01 1.87112E-13 5.09856E-14
 -1      3228 2.00130E+01 2.73282E-01 7.15369E-04 3.42066E-01 8.20655E-14 3.17498E-14
 -1      3229 2.00579E+01 1.38342E-01-9.10907E-04 1.97869E-01 8.39456E-14 1.60933E-13
 -1      3230 2.00740E+01 1.60613E-01 1.38946E-03 2.32033E-01 2.07110E-13 6.37197E-14
 -1      3231 2.00234E+01 2.07009E-01 3.58483E-04 2.56175E-01 1.77340E-13 3.88638E-13
 -1      3232 2.00467E+01 1.03097E-01-6.49121E-04 1.42689E-01-4.30796E-14 3.44797E-13
 -1      3233 2.00599E+01 1.20163E-01 1.11455E-03 1.68725E-01-6.48291E-14 2.07887E-13
 -1      3234 2.00264E+01 1.55671E-01 1.43257E-04 1.88799E-01-4.45139E-15 2.89798E-13
 -1      3235 2.00365E+01 7.61903E-02-4.59985E-04 1.00725E-01 3.88338E-13 3.65563E-13
 -1      3236 2.00469E+01 8.92031E-02 8.79474E-04 1.20367E-01 2.30943E-13 3.74025E-13
 -1      3237 2.00253E+01 1.16152E-01 2.04599E-05 1.36592E-01 1.12858E-13 1.83508E-13
 -1      3238 2.00276E+01 5.57480E-02-3.23704E-04 6.91736E-02 1.27306E-13 3.24990E-13
 -1      3239 2.00357E+01 6.56209E-02 6.83374E-04 8.38312E-02 3.64935E-13 3.23968E-13
 -1      3240 2.00224E+01 8.58960E-02-4.37853E-05 9.66336E-02 3.47346E-13 3.40931E-13
 -1      3241 2.00204E+01 4.02922E-02-2.25923E-04 4.57508E-02 1.41609E-13 2.11587E-13
 -1      3242 2.00265E+01 4.77455E-02 5.23108E-04 5.65522E-02 7.73873E-14 2.90237E-13
 -1      3243 2.00187E+01 6.28534E-02-7.21374E-05 6.64418E-02 1.06947E-13 2.99171E-13
 -1      3244 2.00146E+01 2.86524E-02-1.56571E-04 2.86194E-02-1.50744E-13 7.14758E-14
 -1      3245 2.00191E+01 3.42589E-02 3.94749E-04 3.64578E-02 4.99833E-14 2.75025E-13
 -1      3246 2.00150E+01 4.53934E-02-7.96916E-05 4.39454E-02 9.31788E-14 2.14480E-13
 -1      3247 2.00102E+01 1.98842E-02-1.10201E-04 1.63310E-02-1.92194E-13 2.21586E-13
 -1      3248 2.00134E+01 2.41086E-02 2.93485E-04 2.18996E-02-1.83783E-13 1.20425E-13
 -1      3249 2.00116E+01 3.22135E-02-7.44719E-05 2.74513E-02-1.21215E-13 6.44924E-13
 -1      3250 2.00068E+01 1.32817E-02-7.46375E-05 7.78186E-03 2.91910E-14 9.10748E-14
 -1      3251 2.00091E+01 1.64594E-02 2.13420E-04 1.16146E-02-2.51960E-15 1.86909E-13
 -1      3252 2.00087E+01 2.22660E-02-6.07579E-05 1.56300E-02-5.95026E-14 3.80546E-13
 -1      3253 2.00043E+01 8.15475E-03-6.05955E-05 2.03465E-03 2.54635E-13-2.25243E-13
 -1      3254 2.00059E+01 1.06639E-02 1.54966E-04 4.55858E-03 1.94338E-13-6.35249E-14
 -1      3255 2.00062E+01 1.47146E-02-6.18590E-05 7.43027E-03 2.75662E-13-1.83968E-13
 -1      3256 2.00033E+01 5.41379E-03 8.07369E-05-3.52139E-04 6.87379E-14-2.92468E-13
 -1      3257 2.33116E+01-4.41152E+00 1.00349E-01-3.93730E+00 3.80786E-13-3.32371E-13
 -1      3258 2.49854E+01-4.38388E+00-7.07020E-02-2.70863E+00 3.90406E-13-2.82888E-13
 -1      3259 1.99996E+01 1.78942E-02-1.11644E-05-1.18802E-03 3.06404E-14 3.67917E-13
 -1      3260 1.99993E+01 1.83372E-02-6.31673E-05-7.15928E-04 1.68434E-13 1.16709E-13
 -1      3261 2.00019E+01 1.26393E-02-7.82713E-06-2.20535E-03 1.21259E-13-1.73736E-14
 -1      3262 2.00013E+01 1.39067E-02-7.76362E-05-2.35907E-03 7.77162E-14 3.38747E-13
 -1      3263 2.58819E+01 5.08162E+00-1.23544E-01-1.13450E+00-3.87607E-14-9.71497E-14
 -1      3264 2.59705E+01 3.89488E+00-9.17735E-02-1.75561E+00 4.99600E-15-2.98268E-14
 -1      3265 1.99992E+01 1.87551E-02-4.20572E-05 1.74421E-04 3.38775E-14-3.51625E-13
 -1      3266 1.99993E+01 1.87233E-02-3.75506E-05 7.21632E-04 1.77158E-13-4.29817E-13
 -1      3267 1.99989E+01 2.35119E-02 1.17168E-04-5.44211E-04 1.94530E-13-1.26518E-14
 -1      3268 2.03247E+01 1.26720E+00 1.16912E-03-4.29181E-01 4.65346E-14-1.94854E-13
 -1      3269 2.03098E+01 1.03567E+00-3.60129E-03-2.19066E-01 3.22109E-14-1.73280E-13
 -1      3270 2.02907E+01 1.10010E+00 4.34895E-04-1.40863E-01 3.62747E-14-1.51416E-13
 -1      3271 2.00006E+01 1.57814E-02 1.32178E-05-2.08990E-03 1.76642E-13 4.49620E-13
 -1      3272 2.00000E+01 1.66531E-02-8.01500E-05-1.85312E-03 3.17290E-14 4.50237E-13
 -1      3273 1.99996E+01 2.18913E-02 1.03099E-04-2.37768E-03 1.80741E-13 4.15138E-13
 -1      3274 2.00009E+01 1.88627E-02 5.67245E-05-3.51356E-03 7.77131E-16 3.51429E-13
 -1      3275 1.87548E+01 3.48022E-01 1.58776E-03 3.12986E+00-1.82373E-13 1.75754E-14
 -1      3276 1.89936E+01-1.62803E-01 3.05441E-02 3.38941E+00-1.29696E-13 3.96202E-14
 -1      3277 1.76614E+01 7.63791E-01 2.25654E-02 2.89986E+00-1.64885E-13-1.30894E-13
 -1      3278 1.08123E+01 5.95447E-02 1.19164E-01-2.87096E+00 8.74648E-14-4.27852E-14
 -1      3279 1.26899E+01-7.14794E-01 5.64036E-02-4.12851E+00 3.51837E-14-9.57706E-14
 -1      3280 1.96254E+01 9.66540E-01-9.87417E-03 1.64428E+00 2.25150E-13-1.37512E-13
 -1      3281 1.96016E+01 1.01796E+00 5.49472E-03 1.83421E+00 9.68552E-14 1.45923E-14
 -1      3282 1.92425E+01 1.09959E+00 9.79014E-03 1.47014E+00 1.76076E-13 6.99948E-14
 -1      3283 1.93417E+01 1.03010E+00-1.18500E-02 2.04520E+00-2.95239E-14 3.17429E-14
 -1      3284 1.93218E+01 1.00081E+00 9.72733E-03 2.27187E+00-3.84042E-14 8.53580E-14
 -1      3285 1.82602E+01 1.16752E+00 1.27135E-02 2.27298E+00-7.07716E-14-1.51121E-13
 -1      3286 1.88194E+01 1.21497E+00 1.16718E-02 1.81999E+00 3.12594E-14 9.03813E-15
 -1      3287 1.91663E+01 1.02527E+00 7.79946E-03-2.25013E+00 4.99344E-14 9.88229E-14
 -1      3288 1.92188E+01 1.01950E+00-1.19099E-02-2.05164E+00 2.87922E-14 7.97818E-14
 -1      3289 1.88269E+01 1.17951E+00 1.20294E-02-1.82229E+00 3.88337E-14 8.15715E-14
 -1      3290 1.82498E+01 1.20348E+00 1.55909E-02-2.19840E+00 3.31907E-14 1.10350E-13
 -1      3291 2.01162E+01 6.12397E-01 1.20460E-03-7.45427E-01 6.80618E-14 6.18678E-14
 -1      3292 2.01354E+01 6.18475E-01 3.88453E-04-6.07831E-01 7.68225E-14 7.48918E-14
 -1      3293 1.78549E+01-6.88011E-01 5.00579E-02 3.91479E+00-1.22036E-13-5.33358E-14
 -1      3294 1.84648E+01-1.66434E+00 9.59955E-02 4.18944E+00-4.93841E-14-5.16184E-14
 -1      3295 2.61019E+01-3.71507E+00 2.13383E-02-1.53934E+00 4.90569E-13-1.19835E-13
 -1      3296 2.67122E+01-2.81850E+00-7.94001E-02-3.39858E-01 3.99819E-13-1.55369E-13
 -1      3297 2.50936E+01-3.81015E+00 8.69906E-03-1.79060E+00 5.27462E-13-2.41019E-13
 -1      3298 2.56287E+01 5.52440E+00-1.30448E-01 4.96627E-01 6.36158E-14-2.82732E-13
 -1      3299 2.57006E+01 5.59586E+00-1.16627E-01-4.98407E-01 2.30649E-14-2.08862E-13
 -1      3300 2.46626E+01 4.48466E+00-4.98532E-02-7.34166E-01 1.00496E-13-1.73537E-13
 -1      3301 2.20098E+01-4.49986E+00-2.71757E-02 4.56489E+00 2.04697E-15 1.87003E-15
 -1      3302 1.92845E+01-3.92682E+00 1.39100E-01 5.69566E+00 5.70308E-14 1.82909E-14
 -1      3303 1.02897E+01 3.57501E-01 6.75220E-02 2.22366E+00 2.79672E-14-8.30308E-14
 -1      3304 9.59645E+00 7.98589E-01 1.35639E-01 4.76891E-01 1.10431E-13-2.32425E-13
 -1      3305 1.83518E+01-3.56938E+00 1.51345E-01-5.86381E+00 1.84158E-13-1.65118E-13
 -1      3306 2.05996E+01-4.44598E+00-7.39917E-02-5.28058E+00 3.07782E-13-2.01075E-13
 -1      3307 2.03603E+01 1.14841E+00-9.94720E-04 4.17479E-01 6.18234E-14 9.63291E-14
 -1      3308 2.02931E+01 1.48211E+00 2.03580E-03 5.09307E-01 8.06477E-14 1.10796E-13
 -1      3309 2.02649E+01 1.35191E+00 9.09859E-04 3.07769E-01 6.38819E-14 9.78757E-14
 -1      3310 2.03160E+01 9.66985E-01-1.89534E-03 1.73214E-01 4.72037E-14 9.76283E-14
 -1      3311 2.60893E+01-3.89790E+00-9.26768E-02 1.51311E+00-9.94916E-14 1.10613E-13
 -1      3312 2.45972E+01-4.36550E+00 3.10842E-02 2.89690E+00-2.56808E-14 7.64718E-14
 -1      3313 2.73985E+01-1.27439E+00-1.30048E-01-9.12054E-01-5.22360E-14 4.60951E-14
 -1      3314 2.70864E+01-2.50342E+00 1.47264E-02 7.43681E-02-7.76254E-14 1.06255E-13
 -1      3315 2.66491E+01-5.89395E-01-4.05755E-02-1.41193E+00-2.43035E-14 5.99798E-14
 -1      3316 2.02442E+01 1.70336E+00-5.77560E-03-6.41484E-01 6.72069E-14-2.00005E-13
 -1      3317 2.02865E+01 1.47907E+00 2.84341E-04-5.24216E-01 5.95805E-14-1.97988E-13
 -1      3318 2.01439E+01 1.97135E+00 1.40702E-03-5.81698E-01 9.03285E-14-1.44742E-13
 -1      3319 1.98109E+01 2.46566E+00-4.65585E-03 2.28852E-01 1.23080E-13-4.61402E-14
 -1      3320 1.97871E+01 2.50649E+00-3.54919E-03 1.44604E-01 1.28056E-13-4.61664E-14
 -1      3321 9.06435E+00 4.97133E-01 8.78728E-02-1.52535E+00 1.29619E-13 1.85407E-13
 -1      3322 1.00292E+01-2.27996E-01 1.05429E-01-3.70700E+00 3.45904E-14 2.09943E-13
 -1      3323 1.97788E+01 2.51864E+00-4.26821E-03 8.33500E-02 1.28551E-13-2.71797E-14
 -1      3324 1.97866E+01 2.51484E+00-2.43941E-03-4.18384E-03 1.23381E-13-5.14937E-14
 -1      3325 1.98619E+01 2.26496E+00 6.15296E-03 1.01354E-01 1.05446E-13-4.40905E-14
 -1      3326 1.71972E+01-2.80162E+00 8.51726E-02-5.54868E+00 1.42046E-13-1.65871E-13
 -1      3327 1.19736E+01-5.26756E-01 1.39917E-01-4.38537E+00 3.33344E-14 1.33595E-13
 -1      3328 1.39007E+01-1.10847E+00-2.75528E-02-4.76340E+00-1.95156E-14 7.91034E-14
 -1      3329 1.22422E+01 1.95871E-01 8.65389E-02-3.40405E+00 6.22107E-14 2.48100E-13
 -1      3330 2.39777E+01-3.84263E+00 1.05014E-02 2.36174E+00-4.87197E-14 1.26814E-13
 -1      3331 2.33369E+01-4.36397E+00 1.97041E-02 3.56085E+00-2.10595E-14 3.03390E-14
 -1      3332 2.17188E+01-3.77165E+00 1.09429E-02 3.92164E+00 2.13371E-15-1.60184E-14
 -1      3333 2.01130E+01 7.60180E-01 5.91237E-04-5.05077E-01 7.93109E-14 9.09033E-14
 -1      3334 2.01907E+01 6.45954E-01 4.20345E-05-4.72237E-01 8.83639E-14 7.25817E-14
 -1      3335 2.02203E+01 6.99187E-01 2.14541E-03-3.15720E-01 7.99929E-14 8.39047E-14
 -1      3336 1.99823E+01 2.26735E+00-1.01734E-03-4.21038E-01 1.07860E-13-1.32260E-13
 -1      3337 2.00522E+01 2.12038E+00-5.39185E-03-5.07243E-01 9.55994E-14-1.45028E-13
 -1      3338 2.01274E+01 1.89812E+00 1.70771E-03-4.34906E-01 8.37770E-14-1.38114E-13
 -1      3339 2.01490E+01 1.73268E+00 7.01128E-03 3.44685E-01 8.64363E-14 2.86234E-14
 -1      3340 2.00518E+01 2.05065E+00-6.08673E-03 4.79426E-01 1.19369E-13 2.53266E-14
 -1      3341 1.99733E+01 2.19734E+00-4.04911E-03 4.10417E-01 1.21760E-13 1.79458E-14
 -1      3342 1.95852E+01 9.08754E-01 6.20660E-03-1.25749E+00 3.40331E-14 2.08123E-14
 -1      3343 1.99048E+01 7.47427E-01 2.60997E-03-1.26493E+00 2.48789E-14 3.58240E-14
 -1      3344 1.99224E+01 6.92497E-01-4.19251E-03-1.12556E+00 1.79066E-14 1.54322E-14
 -1      3345 2.58127E+01 2.67115E+00-9.54799E-02-2.00304E+00-9.45077E-15-1.47694E-14
 -1      3346 2.54629E+01 1.51835E+00-1.90676E-02-1.97667E+00-5.53724E-15 5.05845E-15
 -1      3347 2.46231E+01 3.11008E+00-3.05554E-02-1.74594E+00 2.49974E-14-5.18856E-14
 -1      3348 1.28599E+01-6.28620E-01 1.40026E-01 4.39693E+00 1.11539E-13-9.35640E-14
 -1      3349 1.26659E+01 1.71059E-01 5.19738E-02 3.24265E+00 8.58948E-14 3.19189E-15
 -1      3350 1.43601E+01-1.29091E+00-2.12289E-02 4.72263E+00 9.36751E-14-5.93969E-14
 -1      3351 1.06470E+01 9.23659E-01 1.14901E-01-6.23027E-01 2.48881E-14 1.70280E-14
 -1      3352 1.89061E+01-2.80333E+00 9.37042E-02 4.74183E+00-6.64746E-15-1.83742E-14
 -1      3353 2.02478E+01 1.52668E+00 2.13058E-03-4.10137E-01 6.16343E-14-1.32376E-13
 -1      3354 1.50431E+01-8.98400E-01 1.07660E-01-4.19597E+00-1.85962E-15-6.14231E-14
 -1      3355 2.00040E+01 8.31047E-03 1.25384E-05 1.50664E-03 2.15171E-13-1.58862E-13
 -1      3356 2.21109E+01-4.06180E+00 4.20740E-02-4.11520E+00 3.84477E-13-3.72760E-13
 -1      3357 2.00007E+01 1.64184E-02-8.63705E-05 2.53585E-03-3.76810E-14 9.99127E-14
 -1      3358 2.00014E+01 1.54849E-02 1.52106E-05 2.64381E-03-5.86089E-14 2.29213E-13
 -1      3359 1.61493E+01 2.43316E-02 6.23364E-02 3.64530E+00-1.24692E-13-1.63970E-13
 -1      3360 2.02572E+01 7.49954E-01-9.66364E-04-1.81069E-01 5.26207E-14 9.04873E-14
 -1      3361 2.02970E+01 8.59675E-01 2.52693E-03 1.01020E-02 3.39935E-14 8.40405E-14
 -1      3362 2.02792E+01 1.04063E+00 1.06334E-03 8.00224E-02 4.39914E-14 1.06325E-13
 -1      3363 2.02097E+01 8.60203E-01 1.61154E-04-2.27777E-01 6.55796E-14 7.69568E-14
 -1      3364 2.00028E+01 6.62551E-03-3.78995E-05-8.89411E-05-1.73641E-15 1.38658E-13
 -1      3365 1.99996E+01 1.82439E-02-6.86069E-05 1.56994E-03 1.33000E-13-4.64335E-14
 -1      3366 2.00001E+01 1.77261E-02-8.41874E-06 1.98215E-03-2.76417E-14 1.23701E-13
 -1      3367 2.00002E+01 2.17391E-02 1.04502E-04 3.16356E-03-8.98910E-14 1.61875E-13
 -1      3368 1.99991E+01 2.34620E-02 1.19139E-04 1.48712E-03-1.16588E-14-2.26074E-13
 -1      3369 2.00404E+01 6.23680E-01-1.82089E-03-8.69781E-01 6.14425E-14 3.18285E-14
 -1      3370 1.99851E+01 7.37234E-01 1.87584E-03-7.67702E-01 7.11932E-14 6.19909E-14
 -1      3371 2.00265E+01 6.52567E-01 2.03122E-03-1.00272E+00 3.69353E-14 4.85511E-14
 -1      3372 1.82025E+01-3.09380E+00 8.83697E-02 5.34075E+00 1.06158E-13 2.21316E-14
 -1      3373 2.00026E+01 1.14396E-02-4.08379E-05-2.50425E-03-3.91072E-14-3.03882E-13
 -1      3374 2.00022E+01 1.18592E-02-5.28284E-05-2.37053E-03 1.61406E-13-8.07579E-14
 -1      3375 2.00022E+01 1.62994E-02 6.85124E-05-4.04440E-03-3.83242E-14 7.79392E-14
 -1      3376 2.00032E+01 1.46327E-02 1.06590E-04-4.43988E-03 6.17632E-15-1.31528E-13
 -1      3377 1.17458E+01 7.15600E-01 1.26505E-01-1.84564E+00 1.09044E-13 2.07820E-14
 -1      3378 1.27374E+01 3.69404E-01 8.77651E-02 2.74678E+00-2.01436E-14 3.15720E-14
 -1      3379 2.00021E+01 1.35496E-02-9.97735E-05 2.73935E-03 2.51694E-14 2.03261E-13
 -1      3380 2.00028E+01 1.24472E-02 3.08014E-05 2.49651E-03 5.37824E-14 2.90180E-13
 -1      3381 2.00019E+01 1.86411E-02 8.27558E-05 4.03521E-03-8.57029E-14 1.90477E-13
 -1      3382 2.59955E+01-2.53863E+00-2.47396E-02 5.26520E-02 3.82619E-13-8.68888E-14
 -1      3383 2.69458E+01-1.87667E+00-2.58064E-02 5.72205E-01 3.01991E-13-2.05787E-13
 -1      3384 2.65679E+01-7.42395E-01-6.23969E-02 1.34099E+00 2.31794E-13-2.01755E-13
 -1      3385 2.52141E+01 4.74229E+00-8.01869E-02 8.81808E-01 8.19622E-14-3.38637E-13
 -1      3386 1.99111E+01 2.37737E+00-3.76386E-03-3.39429E-01 1.13156E-13-1.36453E-13
 -1      3387 1.99858E+01 2.16857E+00 1.53255E-03-2.96687E-01 9.67285E-14-1.36097E-13
 -1      3388 1.98553E+01 2.47099E+00-2.90770E-03-2.45078E-01 1.15732E-13-1.17425E-13
 -1      3389 2.23641E+01-3.85643E+00 6.17933E-02 4.12157E+00 4.42146E-14-5.46403E-14
 -1      3390 2.68836E+01 2.50884E+00-1.05965E-01 2.06567E+00-2.78944E-15-2.80005E-13
 -1      3391 2.59088E+01 3.10764E+00-7.63600E-02 2.01611E+00-1.35586E-14-3.63230E-13
 -1      3392 2.65393E+01 1.23676E+00-5.89067E-02 1.92953E+00 5.55042E-14-2.97637E-13
 -1      3393 1.99033E+01 2.31210E+00-5.66901E-03 3.61369E-01 1.38052E-13 1.48991E-15
 -1      3394 1.98496E+01 2.40360E+00-4.11574E-03 2.83693E-01 1.35015E-13-1.96395E-14
 -1      3395 1.99070E+01 2.19323E+00 7.67345E-03 2.00681E-01 1.09574E-13-1.71619E-14
 -1      3396 2.00121E+01 2.01444E+00 8.60161E-03 2.85124E-01 1.12841E-13 2.71294E-15
 -1      3397 2.60854E+01-3.00039E+00-1.43616E-02 4.66723E-01-5.41789E-14 8.23577E-14
 -1      3398 1.20130E+01 1.08503E+00 2.35311E-02-1.11361E+00 9.07412E-14 8.61394E-14
 -1      3399 1.29777E+01 6.66489E-01 4.60000E-02-2.59407E+00 7.87287E-14-2.26347E-14
 -1      3400 2.02510E+01 6.45151E-01 2.20543E-03 3.39272E-01 4.47449E-14-8.44876E-14
 -1      3401 2.02427E+01 5.26424E-01-7.16626E-04 4.45607E-01 3.52193E-14-5.18873E-14
 -1      3402 2.02375E+01 4.21428E-01 2.24744E-03 5.39855E-01-6.74260E-15-5.74400E-14
 -1      3403 2.02424E+01 3.21045E-01 3.69453E-04 6.21335E-01-1.96833E-14-7.06948E-14
 -1      3404 2.01951E+01 5.55396E-01-1.22943E-03 4.88878E-01 1.37189E-14-4.66972E-14
 -1      3405 2.02479E+01 2.24422E-01 2.61415E-03 7.00526E-01-2.09920E-14-8.91014E-14
 -1      3406 2.02753E+01 1.23691E-01 1.14725E-03 7.59906E-01-9.15797E-15-9.68852E-14
 -1      3407 2.01845E+01 3.33264E-01-2.60200E-03 6.69530E-01-2.20943E-14-5.67676E-14
 -1      3408 2.03068E+01 1.84353E-02 3.54332E-03 8.24931E-01-1.57014E-14-9.96815E-14
 -1      3409 2.03658E+01-9.88346E-02 1.50109E-03 8.61109E-01-2.26117E-14-9.30479E-14
 -1      3410 2.02099E+01 1.11142E-01-4.26833E-03 8.24106E-01-2.41453E-14-9.19423E-14
 -1      3411 2.04409E+01-2.26410E-01 5.24411E-03 9.08320E-01-7.66666E-15-9.28389E-14
 -1      3412 2.05408E+01-3.72467E-01 1.20630E-03 9.15230E-01 2.86640E-14-6.54971E-14
 -1      3413 2.03013E+01-1.46717E-01-6.47072E-03 9.51246E-01 2.00401E-15-1.07522E-13
 -1      3414 2.06798E+01-5.30371E-01 7.80903E-03 9.34121E-01 3.52318E-14-4.51754E-14
 -1      3415 2.08278E+01-7.09581E-01-1.66190E-04 8.99769E-01 1.48117E-14-1.34863E-14
 -1      3416 2.04943E+01-4.68342E-01-9.18416E-03 1.03875E+00 4.23898E-14-6.21416E-14
 -1      3417 2.10508E+01-8.94373E-01 1.09900E-02 8.70219E-01-1.25865E-14 2.27099E-14
 -1      3418 2.12472E+01-1.09519E+00-3.21119E-03 7.77028E-01-1.29689E-14 5.42063E-14
 -1      3419 2.08274E+01-8.65943E-01-1.21857E-02 1.05762E+00 3.01764E-14-4.64166E-14
 -1      3420 2.15663E+01-1.28156E+00 1.39340E-02 6.67892E-01-3.78994E-14 4.52670E-14
 -1      3421 2.17969E+01-1.46361E+00-7.49540E-03 4.96935E-01-1.98437E-14 1.13830E-14
 -1      3422 2.13342E+01-1.31771E+00-1.47356E-02 9.56176E-01-1.83217E-14-2.61327E-14
 -1      3423 2.21978E+01-1.59178E+00 1.48668E-02 2.73311E-01-2.59141E-14-1.79926E-14
 -1      3424 2.24305E+01-1.66891E+00-9.37807E-03 1.80924E-02-4.37840E-14-2.75535E-14
 -1      3425 2.20128E+01-1.74207E+00-1.88093E-02 6.57594E-01-4.23038E-14 3.77975E-15
 -1      3426 2.28470E+01-1.63582E+00 1.06325E-02-3.30146E-01-2.68301E-14-4.36769E-14
 -1      3427 2.30077E+01-1.51198E+00-1.92446E-02-6.33560E-01 1.59889E-14-1.40382E-15
 -1      3428 2.28376E+01-1.88240E+00 3.55811E-03 7.52394E-02-3.81205E-15 8.65551E-15
 -1      3429 2.33690E+01-1.18089E+00 5.55534E-03-1.09376E+00 1.74999E-14-4.15925E-14
 -1      3430 2.34029E+01-6.86806E-01 1.50025E-03-1.34748E+00-2.96117E-14-2.40298E-14
 -1      3431 2.35843E+01-1.67149E+00-2.42722E-02-6.84592E-01-3.89389E-14-4.00326E-14
 -1      3432 2.34439E+01-2.91361E-02-3.06824E-02-1.66562E+00-5.88973E-14-6.05269E-14
 -1      3433 2.33560E+01 7.19121E-01-5.77108E-03-1.68214E+00-4.62677E-14-6.98087E-14
 -1      3434 2.40189E+01-5.33267E-01 4.41041E-03-1.48655E+00-2.68579E-14-1.48968E-13
 -1      3435 2.35246E+01 1.52791E+00-3.40243E-02-1.76362E+00-1.25373E-14-8.43184E-14
 -1      3436 2.33500E+01 2.32175E+00-3.30250E-03-1.44012E+00 9.69572E-14-8.25633E-14
 -1      3437 2.32517E+01 3.54164E+00-3.55051E-02-5.73698E-01 1.65458E-13-9.08830E-14
 -1      3438 2.32331E+01 3.67797E+00-4.29535E-02 4.15053E-02 1.02763E-13-8.25390E-14
 -1      3439 2.31194E+01 2.14311E+00 4.36192E-03 1.52809E+00-8.09058E-14 4.35594E-14
 -1      3440 2.32425E+01 1.33249E+00-4.38807E-02 1.77106E+00-6.78576E-14 7.39783E-14
 -1      3441 2.34008E+01 5.17413E-01 9.14941E-03 1.75299E+00-6.21786E-14 1.42185E-13
 -1      3442 2.34630E+01-2.37091E-01-1.85034E-02 1.66371E+00 3.91826E-14 1.05195E-13
 -1      3443 2.39922E+01 9.22884E-01-4.47925E-03 1.86268E+00-1.00206E-14-4.66328E-14
 -1      3444 2.33137E+01-8.33895E-01-1.12686E-02 1.29549E+00 1.61385E-13 1.59233E-13
 -1      3445 2.32344E+01-1.23813E+00-4.12702E-03 1.02732E+00 2.04803E-13 2.57714E-13
 -1      3446 2.39472E+01-7.49092E-01-1.19902E-02 1.42789E+00 1.49493E-13 6.49078E-14
 -1      3447 2.28979E+01-1.50247E+00-1.10825E-02 6.15169E-01 1.56684E-13 3.08161E-13
 -1      3448 2.27000E+01-1.60009E+00 8.49017E-03 3.08145E-01 1.53219E-13 3.38281E-13
 -1      3449 2.34316E+01-1.63133E+00 1.21433E-02 6.21219E-01 2.06976E-13 2.37029E-13
 -1      3450 2.22698E+01-1.57938E+00-1.00296E-02-8.72766E-03 1.58522E-14 3.37609E-13
 -1      3451 2.20300E+01-1.47468E+00 1.43275E-02-2.44153E-01 6.99252E-14 3.50695E-13
 -1      3452 2.26188E+01-1.83537E+00-7.87472E-03-1.36015E-01 9.05887E-14 3.72316E-13
 -1      3453 2.16284E+01-1.32644E+00-7.09396E-03-4.37294E-01 1.05633E-14 2.91423E-13
 -1      3454 2.13951E+01-1.13624E+00 1.33771E-02-5.85113E-01 4.37779E-15 1.91486E-13
 -1      3455 2.18080E+01-1.58442E+00-1.38745E-02-6.22056E-01-1.76373E-14 2.55752E-13
 -1      3456 2.10799E+01-9.47979E-01-2.64881E-03-6.69418E-01 3.21037E-14 2.12122E-13
 -1      3457 2.08825E+01-7.52892E-01 1.01683E-02-7.43805E-01 7.85665E-14 2.03223E-13
 -1      3458 2.11263E+01-1.15065E+00-1.35997E-02-8.60199E-01-5.74643E-15 1.94188E-13
 -1      3459 2.06603E+01-5.77990E-01 2.28508E-06-7.57268E-01 8.53693E-14 1.04670E-13
 -1      3460 2.05094E+01-4.14091E-01 6.79938E-03-7.79349E-01 4.64452E-14 1.79509E-13
 -1      3461 2.06233E+01-7.14733E-01-1.10914E-02-9.23382E-01 4.04083E-14 1.70851E-13
 -1      3462 2.03661E+01-2.75048E-01 1.30125E-03-7.52543E-01 1.16006E-13 2.03558E-13
 -1      3463 2.02592E+01-1.53530E-01 4.09409E-03-7.41522E-01 1.34099E-13 2.39082E-13
 -1      3464 2.02843E+01-3.53553E-01-8.09555E-03-8.83979E-01 7.18056E-14 2.17147E-13
 -1      3465 2.01750E+01-5.47844E-02 1.75651E-03-6.95247E-01-1.43996E-14 1.92675E-13
 -1      3466 2.01037E+01 2.61698E-02 2.13728E-03-6.65528E-01-9.32499E-14 1.18496E-13
 -1      3467 2.00747E+01-8.86101E-02-5.43304E-03-7.93079E-01 2.78190E-15 7.80484E-14
 -1      3468 2.00604E+01 8.90019E-02 1.76701E-03-6.12440E-01-1.58044E-13 9.40175E-14
 -1      3469 2.00154E+01 1.36573E-01 8.26825E-04-5.73856E-01-1.67475E-13 1.37818E-14
 -1      3470 1.99581E+01 8.62874E-02-3.41059E-03-6.82439E-01-1.55995E-13 9.96416E-14
 -1      3471 1.99984E+01 1.71060E-01 1.59772E-03-5.21168E-01-2.30828E-13-9.29431E-14
 -1      3472 1.99715E+01 1.93752E-01 2.45062E-05-4.80091E-01-2.25355E-13-1.13505E-13
 -1      3473 1.99033E+01 1.88147E-01-1.96343E-03-5.69996E-01-2.53593E-13-6.02224E-15
 -1      3474 1.99700E+01 2.07865E-01 1.36797E-03-4.31589E-01-5.05331E-14-9.84429E-14
 -1      3475 1.99548E+01 2.13546E-01-4.24504E-04-3.91862E-01 1.80929E-14-2.22684E-14
 -1      3476 1.98867E+01 2.36007E-01-9.96246E-04-4.65236E-01-1.12250E-13-1.83868E-14
 -1      3477 1.99614E+01 2.14190E-01 1.14140E-03-3.49184E-01-2.54831E-14-2.16808E-15
 -1      3478 1.99534E+01 2.09186E-01-6.41117E-04-3.12941E-01-1.08445E-13 2.18197E-14
 -1      3479 1.98917E+01 2.47119E-01-4.06363E-04-3.72387E-01 4.68555E-14-3.61158E-14
 -1      3480 1.99636E+01 2.01710E-01 9.42239E-04-2.76569E-01-9.04588E-14 6.32727E-14
 -1      3481 1.99596E+01 1.90739E-01-7.08644E-04-2.44851E-01-6.69160E-14 1.37761E-13
 -1      3482 1.99072E+01 2.35286E-01-6.02775E-05-2.92738E-01-5.99414E-14 5.74267E-14
 -1      3483 1.99705E+01 1.79057E-01 7.70678E-04-2.14637E-01-2.60135E-13 1.49560E-13
 -1      3484 1.99687E+01 1.65438E-01-6.86380E-04-1.87755E-01-2.62059E-13 1.98974E-14
 -1      3485 1.99263E+01 2.10670E-01 1.19773E-04-2.26133E-01-1.55551E-13 1.94082E-14
 -1      3486 1.99788E+01 1.52218E-01 6.25859E-04-1.63184E-01-2.74564E-13 5.45120E-14
 -1      3487 1.99780E+01 1.38121E-01-6.15980E-04-1.40994E-01-3.91879E-13 9.56950E-15
 -1      3488 1.99452E+01 1.80426E-01 1.94176E-04-1.71588E-01-2.96156E-13 1.43549E-13
 -1      3489 1.99865E+01 1.25045E-01 5.04984E-04-1.21380E-01-2.04296E-13-1.89211E-14
 -1      3490 1.99861E+01 1.11769E-01-5.25090E-04-1.03479E-01-5.68096E-14 7.16764E-14
 -1      3491 1.99616E+01 1.49233E-01 2.07562E-04-1.27717E-01-2.63294E-13 2.18416E-13
 -1      3492 1.99929E+01 9.97962E-02 4.04292E-04-8.80942E-02-5.64131E-14 1.22777E-13
 -1      3493 1.99925E+01 8.80201E-02-4.30580E-04-7.39552E-02 6.78804E-15 1.52143E-13
 -1      3494 1.99750E+01 1.19887E-01 1.89183E-04-9.30143E-02 9.09643E-15 1.21110E-13
 -1      3495 1.99975E+01 7.76069E-02 3.20631E-04-6.20918E-02 2.48323E-14 7.09560E-14
 -1      3496 1.99971E+01 6.75915E-02-3.42500E-04-5.11481E-02-1.32379E-14 1.26952E-13
 -1      3497 1.99851E+01 9.38522E-02 1.57413E-04-6.60046E-02-2.03357E-14 2.26230E-13
 -1      3498 2.00007E+01 5.88606E-02 2.51835E-04-4.21621E-02-3.85203E-14 8.82646E-14
 -1      3499 2.00001E+01 5.06013E-02-2.65782E-04-3.38691E-02 3.48113E-14-1.53189E-14
 -1      3500 1.99924E+01 7.16862E-02 1.21835E-04-4.53249E-02-3.28458E-14-1.17268E-13
 -1      3501 2.00025E+01 4.34777E-02 1.95259E-04-2.71996E-02 8.58490E-14 9.96857E-15
 -1      3502 2.00018E+01 3.68277E-02-1.95522E-04-2.10652E-02 1.44303E-13-1.21472E-14
 -1      3503 1.99972E+01 5.33812E-02 9.04993E-05-2.97788E-02 2.03359E-14-2.35983E-13
 -1      3504 2.00032E+01 3.10352E-02 1.28651E-04-1.61988E-02 1.35226E-13 4.08790E-14
 -1      3505 2.00027E+01 2.58009E-02-1.05025E-04-1.18650E-02 1.20803E-13 6.04637E-14
 -1      3506 2.00001E+01 3.86270E-02 7.26367E-05-1.83198E-02 1.74312E-13 2.53054E-13
 -1      3507 1.88336E+01 1.17032E+00-2.17187E-03-1.36621E+00 4.25983E-14 9.16933E-14
 -1      3508 1.90245E+01 1.09169E+00-8.69722E-03-1.24429E+00 4.79359E-14 7.05136E-14
 -1      3509 1.63637E+01 1.12680E+00 9.50009E-03-2.34279E+00-8.62158E-16 1.17450E-13
 -1      3510 1.67427E+01 1.26605E+00-2.48162E-02-2.07391E+00 7.75508E-15 1.14421E-13
 -1      3511 1.92710E+01 9.58592E-01-7.64346E-03 9.80085E-01 3.32198E-14 1.62530E-14
 -1      3512 1.91480E+01 1.05560E+00-1.07175E-03 1.09616E+00 1.07245E-13 1.45551E-13
 -1      3513 1.98253E+01 4.84366E-01-3.24612E-03 5.05323E-01-2.28511E-13 1.43118E-13
 -1      3514 1.97969E+01 5.49352E-01 5.08845E-04 5.75892E-01-1.26562E-13-1.07741E-14
 -1      3515 1.99000E+01 3.75461E-01-2.43964E-03 3.93363E-01-7.49524E-14 1.21631E-13
 -1      3516 1.98852E+01 4.28068E-01 7.25712E-04 4.51267E-01-7.37599E-14 1.90872E-13
 -1      3517 1.97549E+01 5.13602E-01 2.89839E-03 4.43270E-01-1.25348E-13-4.33364E-14
 -1      3518 1.99469E+01 2.88509E-01-1.82806E-03 3.01491E-01 9.79759E-14 9.79897E-14
 -1      3519 1.99404E+01 3.30391E-01 8.02224E-04 3.48267E-01-4.47152E-14 3.16632E-14
 -1      3520 1.98462E+01 3.99482E-01 1.92870E-03 3.48910E-01 1.25308E-14-4.67157E-14
 -1      3521 1.99755E+01 2.19913E-01-1.36451E-03 2.27329E-01 1.70654E-13 3.16347E-13
 -1      3522 1.99739E+01 2.52900E-01 7.88307E-04 2.64565E-01 1.30793E-13 3.28071E-13
 -1      3523 1.99067E+01 3.07946E-01 1.26262E-03 2.69749E-01 2.68621E-14 7.43679E-14
 -1      3524 1.99923E+01 1.66265E-01-1.01333E-03 1.68393E-01 7.82157E-14 2.64630E-13
 -1      3525 1.99933E+01 1.92034E-01 7.20573E-04 1.97628E-01 2.13973E-13 4.29147E-13
 -1      3526 1.99461E+01 2.35361E-01 8.11639E-04 2.04758E-01 1.67054E-13 3.20479E-13
 -1      3527 2.00016E+01 1.24602E-01-7.48102E-04 1.22249E-01 2.25464E-13 7.69515E-14
 -1      3528 2.00038E+01 1.44593E-01 6.27183E-04 1.44899E-01 6.55077E-14 1.21085E-13
 -1      3529 1.99713E+01 1.78315E-01 5.10610E-04 1.52433E-01 3.22151E-13 1.54817E-13
 -1      3530 2.00062E+01 9.24538E-02-5.48655E-04 8.66449E-02 2.77144E-13 1.77911E-13
 -1      3531 2.00089E+01 1.07862E-01 5.26537E-04 1.03960E-01 2.74502E-13 9.26938E-14
 -1      3532 1.99870E+01 1.33825E-01 3.12631E-04 1.11054E-01 2.02433E-13-3.78841E-14
 -1      3533 2.00081E+01 6.78054E-02-3.99000E-04 5.95793E-02 2.14688E-14 2.67308E-13
 -1      3534 2.00107E+01 7.96027E-02 4.29465E-04 7.26329E-02 2.12863E-13 3.12181E-13
 -1      3535 1.99964E+01 9.93728E-02 1.84796E-04 7.88841E-02 1.16277E-13 7.26827E-15
 -1      3536 2.00082E+01 4.90236E-02-2.87980E-04 3.93255E-02 1.76561E-14 4.64680E-13
 -1      3537 2.00106E+01 5.80026E-02 3.42445E-04 4.90178E-02 3.56281E-14 3.14597E-13
 -1      3538 2.00016E+01 7.28808E-02 1.03548E-04 5.42946E-02 6.64764E-14 1.05235E-13
 -1      3539 2.00075E+01 3.47721E-02-2.02014E-04 2.44453E-02-9.33901E-14 3.42576E-13
 -1      3540 2.00096E+01 4.15759E-02 2.69469E-04 3.15026E-02-8.15247E-14 4.31938E-13
 -1      3541 2.00042E+01 5.26193E-02 4.76765E-05 3.58139E-02 4.15599E-15 2.44092E-13
 -1      3542 2.00064E+01 2.38660E-02-1.60791E-04 1.38215E-02 2.12370E-13-1.10462E-13
 -1      3543 2.00081E+01 2.90391E-02 1.90893E-04 1.87532E-02 9.00616E-14 1.42714E-13
 -1      3544 2.00051E+01 3.71860E-02 2.29748E-05 2.21829E-02 1.71236E-13-2.05248E-13
 -1      3545 2.00051E+01 1.58486E-02-8.11116E-06 6.45434E-03 3.37219E-13-2.45874E-13
 -1      3546 2.00064E+01 1.96341E-02 1.55834E-04 9.78096E-03 2.80518E-13-2.42669E-13
 -1      3547 2.00050E+01 2.56708E-02 6.10615E-05 1.25049E-02 2.63175E-13-3.59605E-13
 -1      3548 2.10289E+01-3.38666E+00 1.17526E-01-4.24414E+00 3.68061E-13-3.98418E-13
 -1      3549 2.27533E+01-3.89240E+00-6.86018E-02-3.17031E+00 4.06734E-13-3.88807E-13
 -1      3550 1.65695E+01 1.20573E+00-2.57122E-02 2.23742E+00-1.50470E-13-1.77101E-13
 -1      3551 1.62036E+01 9.07213E-01-6.70470E-03 2.62218E+00-2.17200E-13-2.01755E-13
 -1      3552 1.53099E+01 8.26881E-01-1.22332E-03 2.62056E+00-1.97299E-13-1.55063E-13
 -1      3553 1.37686E+01 5.03708E-01 4.84332E-03 2.84668E+00-6.50021E-14-1.87766E-14
 -1      3554 1.24711E+01 1.24694E+00 1.12432E-01 1.50135E+00-5.83101E-14-1.39048E-13
 -1      3555 1.45807E+01 1.40892E+00 7.29272E-02 1.79466E+00-1.86183E-13-2.03126E-13
 -1      3556 2.02425E+01 1.33958E+00 2.12589E-04-2.11296E-01 3.81687E-14-1.09008E-13
 -1      3557 2.02485E+01 1.12027E+00-2.49080E-03-4.39428E-02 2.32719E-14-1.14063E-13
 -1      3558 1.47973E+01-3.79925E-02 4.38319E-02-3.65653E+00 1.26288E-14-1.98938E-14
 -1      3559 2.00039E+01 1.01008E-02-2.19061E-05 2.37330E-03 1.69269E-13 4.19222E-14
 -1      3560 1.88911E+01 1.14580E+00-1.04738E-02 1.19173E+00 8.31618E-14 6.10163E-14
 -1      3561 1.87136E+01 1.23608E+00-1.27342E-03 1.32738E+00 1.15823E-13-3.99854E-14
 -1      3562 1.87145E+01 1.21705E+00 1.23698E-02 9.67255E-01 6.44371E-14 1.98476E-14
 -1      3563 1.97092E+01 6.18166E-01-4.30504E-03 6.39421E-01 3.24339E-15-1.11283E-13
 -1      3564 1.96598E+01 6.96370E-01 1.11130E-04 7.23967E-01-8.43997E-14-1.13986E-13
 -1      3565 1.96187E+01 6.53399E-01 4.26824E-03 5.53156E-01-1.44903E-13-1.53373E-13
 -1      3566 2.42843E+01-3.62367E+00 5.56488E-02-1.96467E+00 4.02534E-13-9.95003E-14
 -1      3567 2.48730E+01-3.33559E+00-5.30695E-02-1.04283E+00 4.42257E-13-3.22999E-14
 -1      3568 2.01653E+01 1.70372E+00-2.96505E-03-3.69438E-01 6.74148E-14-1.31388E-13
 -1      3569 2.02108E+01 1.50575E+00 2.61530E-04-2.81607E-01 4.60337E-14-1.28369E-13
 -1      3570 2.01719E+01 1.52484E+00 1.32824E-03-1.81674E-01 5.51206E-14-8.85349E-14
 -1      3571 2.00966E+01 1.86615E+00 8.63603E-04-3.12305E-01 8.53709E-14-1.45295E-13
 -1      3572 1.97926E+01 2.53061E+00-4.43275E-03-7.10424E-02 1.19302E-13-8.22871E-14
 -1      3573 1.98274E+01 2.48583E+00-2.39687E-03-1.63770E-01 1.10806E-13-8.86260E-14
 -1      3574 1.98958E+01 2.29630E+00 3.10411E-03-1.44871E-01 1.04497E-13-9.84853E-14
 -1      3575 1.98637E+01 2.29072E+00 4.47420E-03-9.30119E-03 9.19917E-14-5.04957E-14
 -1      3576 1.92295E+01-3.13092E+00-2.69527E-02 4.75652E+00 5.44079E-14-8.84362E-14
 -1      3577 1.70541E+01-2.14972E+00 1.34222E-01 5.14446E+00 1.31534E-13-7.50996E-14
 -1      3578 1.17480E+01 1.23707E+00 1.45560E-02 2.29898E-01-9.97423E-14-1.10675E-13
 -1      3579 1.16540E+01 1.02888E+00 6.64458E-02-1.62623E+00-3.73204E-14 1.49381E-13
 -1      3580 1.95329E+01 7.77646E-01-5.71562E-03 7.97164E-01-4.47255E-14-4.84880E-14
 -1      3581 1.94527E+01 8.67965E-01-4.51125E-04 8.96770E-01 5.09470E-14-1.29505E-13
 -1      3582 1.91288E+01 1.01169E+00 8.83821E-03 8.15891E-01 1.51263E-13-4.58847E-14
 -1      3583 1.94187E+01 8.20269E-01 6.19535E-03 6.77834E-01 5.09301E-15-1.64067E-13
 -1      3584 1.62895E+01-1.85648E+00 1.36843E-01-5.16033E+00 5.50671E-14-1.87541E-13
 -1      3585 1.83908E+01-3.01556E+00-6.83119E-02-5.08243E+00 2.64035E-13-4.12167E-13
 -1      3586 2.02543E+01 1.19186E+00 1.91584E-04 1.47419E-01 5.67398E-14 8.30856E-14
 -1      3587 2.02060E+01 1.38072E+00-9.37592E-04 2.01213E-01 6.16940E-14 5.67280E-14
 -1      3588 2.02193E+01 1.07442E+00-1.87058E-03-2.16603E-02 6.42329E-14 6.26385E-14
 -1      3589 2.57199E+01-1.77643E-01-9.66159E-02-1.69602E+00-9.72833E-15 5.65104E-14
 -1      3590 2.60379E+01-1.18992E+00 2.81511E-02-1.20962E+00-9.04832E-15 9.21138E-14
 -1      3591 2.57261E+01-2.41856E+00-7.52676E-02-3.02020E-01-5.32777E-14 9.70161E-14
 -1      3592 2.51260E+01-3.25679E+00 7.71306E-03 8.98059E-01-7.91398E-14 8.31887E-14
 -1      3593 2.52547E+01-1.81009E+00 5.47511E-03-7.47746E-01-4.34939E-14 6.76577E-14
 -1      3594 1.99974E+01 2.85312E-02-3.61676E-05-1.59188E-03 4.37267E-13 1.83954E-13
 -1      3595 1.99972E+01 2.88823E-02-8.02466E-05-3.88026E-04 2.47187E-13 3.60899E-14
 -1      3596 1.21825E+01 9.09583E-01 2.55619E-02 1.60566E+00 5.97278E-14 1.36474E-13
 -1      3597 1.19109E+01 1.25326E+00 8.10893E-02 1.73009E-01 8.44793E-14 1.77372E-13
 -1      3598 2.02634E+01 9.35401E-01 1.95371E-03 9.03342E-02 2.84171E-14-1.10303E-13
 -1      3599 2.02527E+01 7.78063E-01-1.96816E-03 2.26394E-01 5.05961E-14-9.49334E-14
 -1      3600 2.02146E+01 1.15915E+00 1.17830E-03 2.73882E-02 4.83858E-14-8.20651E-14
 -1      3601 2.00040E+01 1.44518E-02 2.73996E-05 4.30157E-03 2.25283E-13 2.86831E-14
 -1      3602 1.25984E+01 8.16366E-01 7.17698E-02-2.33590E+00-1.59959E-14 2.50570E-13
 -1      3603 1.38030E+01 3.63425E-01-2.40054E-02-2.99326E+00 2.57615E-14 1.61069E-13
 -1      3604 1.35687E+01 1.19513E+00 4.75741E-02-1.50527E+00-3.95725E-14 8.17870E-14
 -1      3605 2.43862E+01-3.59888E+00-1.04956E-02 1.58915E+00-6.48179E-14 6.81165E-14
 -1      3606 2.32276E+01-3.36978E+00 1.79257E-02 2.18934E+00-4.88411E-14 4.43638E-14
 -1      3607 2.43352E+01-3.03441E+00-2.92422E-02 7.34139E-01-9.40307E-14 8.41809E-14
 -1      3608 2.00205E+01 8.43150E-01-1.92304E-03-5.13597E-01 6.91469E-14 4.24597E-14
 -1      3609 2.00828E+01 8.88101E-01 2.52918E-04-3.76609E-01 7.13720E-14 4.86285E-14
 -1      3610 2.34244E+01 3.04952E+00-6.40396E-02-1.23453E+00 1.34726E-13-4.15674E-14
 -1      3611 2.01298E+01 1.54062E+00-3.34907E-03 1.91027E-01 8.09793E-14 1.31683E-14
 -1      3612 2.42795E+01 1.11128E+00-3.58345E-02-1.89841E+00 1.50106E-14-1.23301E-13
 -1      3613 2.38524E+01 4.13531E+00-4.48054E-02 6.31595E-01 8.31071E-14-1.15078E-13
 -1      3614 2.27546E+01 3.05684E+00 6.26145E-04 5.90703E-01 1.24623E-14 7.33944E-14
 -1      3615 2.28296E+01 2.63582E+00-4.74335E-02 1.14423E+00-5.37417E-14 1.75151E-14
 -1      3616 1.89376E+01 1.16395E+00 1.10046E-02-1.01711E+00 2.47784E-15 4.45196E-14
 -1      3617 1.92833E+01 1.01920E+00-1.68835E-03-1.15745E+00 1.73298E-14 4.55665E-14
 -1      3618 1.94226E+01 9.50639E-01-5.70851E-03-1.04306E+00-6.74048E-16 2.05196E-14
 -1      3619 1.84792E+01 1.23912E+00-1.31319E-02-1.45941E+00 3.58555E-14 9.07110E-14
 -1      3620 1.83531E+01 1.32851E+00 1.58899E-02-1.16232E+00 3.43628E-14 4.15924E-14
 -1      3621 1.82231E+01 1.30456E+00-1.52660E-03-1.59937E+00 2.28888E-14 9.70282E-14
 -1      3622 2.00034E+01 2.17644E-02 9.40268E-05-9.25524E-03 2.06929E-13-4.68254E-14
 -1      3623 2.00030E+01 1.78963E-02-3.98561E-05-6.46655E-03 2.34808E-13 2.69156E-14
 -1      3624 2.00025E+01 1.89212E-02-3.89525E-05-6.29120E-03 1.33267E-13 3.89572E-14
 -1      3625 2.00017E+01 2.73483E-02 2.32489E-05-1.10246E-02 2.24810E-13 3.98660E-13
 -1      3626 1.64811E+01 1.53757E+00 4.82402E-02-1.57529E+00 1.36358E-14 9.27906E-14
 -1      3627 1.74136E+01 1.32855E+00 2.98940E-04-1.89457E+00 5.69720E-14 8.66481E-14
 -1      3628 1.77408E+01 1.32764E+00-1.88821E-02-1.71959E+00 6.69758E-14 1.19436E-13
 -1      3629 1.51006E+01 5.20146E-01 6.81240E-02-2.99393E+00 2.66818E-14 5.60871E-14
 -1      3630 1.52168E+01 9.27392E-01 4.79078E-03-2.57022E+00 4.24574E-14 9.79772E-14
 -1      3631 1.97963E+01-2.77890E+00 2.43930E-02-4.17761E+00 2.42386E-13-5.15594E-13
 -1      3632 1.60459E+01-1.29118E+00 6.02179E-02 4.38309E+00 7.89438E-14-7.57068E-14
 -1      3633 1.75954E+01 1.36310E+00-2.16287E-02 1.77148E+00-7.59978E-14-1.25233E-13
 -1      3634 1.72855E+01 1.31766E+00 7.18909E-04 1.99636E+00-5.97656E-14-1.20328E-13
 -1      3635 1.61504E+01 1.49408E+00 2.55092E-02 1.69887E+00-9.18172E-14-2.38868E-13
 -1      3636 2.44169E+01-2.83174E+00-6.34098E-03-5.41565E-01 3.54822E-13 3.01048E-14
 -1      3637 2.52866E+01-2.77248E+00 1.47823E-02-2.25124E-01 3.97838E-13-8.14279E-15
 -1      3638 2.52617E+01-2.16601E+00-6.30374E-02 5.21799E-01 3.36968E-13-9.56873E-15
 -1      3639 2.30985E+01-3.38631E+00 8.43706E-03-2.31676E+00 3.19963E-13-4.69650E-14
 -1      3640 1.30494E+01 1.37979E+00 4.15167E-02 4.99545E-01-5.69113E-14-4.52485E-14
 -1      3641 1.98162E+01 7.93824E-01 3.77561E-03-1.01216E+00 4.06405E-14 6.30897E-15
 -1      3642 1.29523E+01 7.47446E-01 9.46132E-02 2.25528E+00 3.10099E-14 7.92977E-14
 -1      3643 1.33847E+01 1.05285E+00 8.11510E-03 1.45180E+00 6.26235E-15 8.21079E-14
 -1      3644 1.37219E+01 2.13498E-01-3.73394E-02 2.99949E+00 3.05624E-14-2.86299E-14
 -1      3645 1.99974E+01 2.89241E-02-6.96081E-05 1.37174E-03-8.04844E-14 3.27033E-14
 -1      3646 1.99978E+01 2.84625E-02-5.00170E-05 2.54060E-03-1.74187E-13 6.16736E-15
 -1      3647 1.99963E+01 3.49989E-02 1.79291E-04 4.52954E-04 6.83389E-14 2.40891E-13
 -1      3648 1.98486E+01 8.30211E-01-1.31375E-03-7.44711E-01 9.63947E-14 5.08813E-14
 -1      3649 1.99269E+01 8.26361E-01-9.90619E-04-6.22504E-01 8.31666E-14 6.95990E-14
 -1      3650 1.99051E+01 9.47938E-01 3.62587E-03-4.97347E-01 5.72704E-14-9.53773E-15
 -1      3651 2.00260E+01 1.98318E+00-2.76385E-03-2.57147E-01 9.75250E-14-1.43236E-13
 -1      3652 2.00753E+01 1.81121E+00 1.20426E-03-1.97694E-01 8.75007E-14-1.41977E-13
 -1      3653 1.99674E+01 2.09566E+00-7.48299E-04-1.87208E-01 8.83347E-14-1.42384E-13
 -1      3654 1.56244E+01-1.12756E+00 5.86288E-02-4.47555E+00 1.15914E-13-1.54241E-13
 -1      3655 2.00007E+01 2.36989E-02-1.61258E-04 5.78611E-03-1.17805E-13 1.89121E-13
 -1      3656 2.00021E+01 2.21986E-02 6.41915E-05 6.10726E-03-9.75022E-14 2.18192E-13
 -1      3657 1.83500E+01 1.30549E+00-1.45318E-02 1.44419E+00 1.23184E-13-1.60102E-13
 -1      3658 1.81025E+01 1.36100E+00-1.45408E-05 1.61310E+00-4.45768E-14-1.99094E-13
 -1      3659 1.73083E+01 1.54934E+00 2.71991E-02 1.35858E+00-5.50786E-15-3.16697E-13
 -1      3660 1.81266E+01 1.41178E+00 1.70995E-02 1.13997E+00 3.07991E-14-3.10588E-13
 -1      3661 1.47172E+01 1.36961E+00 6.67664E-02-1.82091E+00 2.68847E-14 8.84648E-14
 -1      3662 2.00019E+01 1.97218E-02-5.92832E-05-5.99534E-03 4.81000E-14 3.04427E-13
 -1      3663 2.36371E+01 2.61845E+00-1.13471E-02 1.52646E+00-8.59729E-15-8.43596E-15
 -1      3664 2.49582E+01 6.36325E-01-2.71350E-02-1.81270E+00 1.41397E-14-1.61468E-14
 -1      3665 2.07442E+01-3.28403E+00 4.58762E-02 4.16048E+00 2.23242E-14-1.22439E-13
 -1      3666 1.94611E+01-2.58155E+00-3.30649E-03 4.13344E+00 2.50789E-14-1.23927E-13
 -1      3667 2.17477E+01-3.25960E+00 1.28092E-02 3.28440E+00-1.68095E-14-2.63687E-14
 -1      3668 1.99986E+01 2.72521E-02-1.06134E-04 4.06455E-03-1.63343E-13 7.67788E-14
 -1      3669 1.99996E+01 2.61142E-02 2.11048E-06 4.92217E-03-1.73288E-13 1.83600E-13
 -1      3670 2.00001E+01 3.02755E-02 2.31092E-04 6.98532E-03-1.80780E-13 2.04944E-13
 -1      3671 2.45629E+01 3.76891E+00-6.31101E-02 1.46567E+00 1.57513E-15-1.67373E-13
 -1      3672 1.99278E+01 1.92827E+00-5.07884E-03 1.67358E-01 1.02161E-13-1.19472E-14
 -1      3673 1.98939E+01 1.99349E+00-3.38265E-03 1.29700E-01 9.64247E-14-2.49214E-14
 -1      3674 1.98769E+01 2.02306E+00-4.27522E-03 1.15123E-01 9.35805E-14-3.84933E-14
 -1      3675 1.98754E+01 2.03847E+00-2.05033E-03 7.11045E-02 8.57816E-14-2.36930E-14
 -1      3676 1.99255E+01 1.81624E+00 6.81607E-03 9.26473E-02 8.29226E-14-1.41487E-14
 -1      3677 2.47817E+01 2.02557E+00-2.05486E-02 2.00303E+00-4.24973E-14-1.66967E-13
 -1      3678 2.47751E+01 3.00396E+00-6.55045E-02 1.78875E+00-4.18034E-14-1.97173E-13
 -1      3679 1.30148E+01 1.27540E+00 3.19970E-02-5.55229E-01 3.89688E-14 1.16924E-13
 -1      3680 1.99979E+01 2.72978E-02-1.06559E-04-3.16053E-03 3.85064E-13 1.39102E-13
 -1      3681 1.99969E+01 3.37522E-02 1.73172E-04-3.21578E-03 4.05754E-13 1.17946E-13
 -1      3682 1.99988E+01 2.62865E-02 2.19238E-05-4.13015E-03 2.41939E-13 3.40799E-13
 -1      3683 2.02141E+01 8.17252E-01 1.06160E-04 2.76951E-01 5.80286E-14-6.59438E-14
 -1      3684 2.00012E+01 2.49342E-02 3.94481E-05-7.85796E-03 1.63255E-13 3.48945E-13
 -1      3685 2.00010E+01 2.17314E-02 3.30783E-05-5.53366E-03-5.39017E-15 3.52325E-13
 -1      3686 1.99999E+01 2.33413E-02-1.25773E-04-5.16055E-03 6.76232E-14 3.78152E-13
 -1      3687 2.00005E+01 2.92340E-02-5.10188E-05-1.03643E-02 1.78754E-13 3.78382E-13
 -1      3688 2.01147E+01 4.69605E-01 8.15249E-04 6.18698E-01-1.00674E-14-5.52550E-14
 -1      3689 2.01170E+01 3.61695E-01 1.67984E-03 7.05446E-01-3.34601E-14-5.43912E-14
 -1      3690 2.01056E+01 2.51706E-01 1.46669E-03 7.98321E-01-8.66224E-15-2.18130E-14
 -1      3691 2.01342E+01 1.35016E-01 2.90786E-03 8.74601E-01-5.84656E-17-3.82441E-14
 -1      3692 2.00131E+01 3.77612E-01-2.35989E-03 7.52618E-01 4.07967E-15-2.67317E-15
 -1      3693 2.01518E+01 6.95014E-03 2.71629E-03 9.67670E-01 5.06062E-15-3.41013E-14
 -1      3694 2.02224E+01-1.37330E-01 3.82710E-03 1.03174E+00 9.07727E-15-1.94301E-14
 -1      3695 2.00098E+01 1.31200E-01-4.74449E-03 9.49195E-01 1.33207E-14 2.01060E-14
 -1      3696 2.02941E+01-3.00514E-01 5.14952E-03 1.12150E+00 2.37930E-14-6.18735E-15
 -1      3697 2.04240E+01-4.88508E-01 4.11772E-03 1.16502E+00 4.57791E-14-6.63662E-15
 -1      3698 2.00845E+01-1.74453E-01-8.01883E-03 1.15026E+00 3.59260E-14 2.32225E-14
 -1      3699 2.05813E+01-6.98007E-01 9.14050E-03 1.23833E+00 4.54034E-14 1.44386E-14
 -1      3700 2.07872E+01-9.37345E-01 3.03008E-03 1.24325E+00 3.51538E-14 1.45595E-14
 -1      3701 2.02895E+01-5.76874E-01-1.22057E-02 1.34238E+00 2.38865E-14 3.22154E-14
 -1      3702 2.10677E+01-1.19024E+00 1.50424E-02 1.27142E+00-1.30489E-14-1.89543E-14
 -1      3703 2.13593E+01-1.46851E+00-1.50686E-04 1.20666E+00-4.04516E-14-2.91709E-14
 -1      3704 2.06885E+01-1.09886E+00-1.74477E-02 1.48788E+00-1.81677E-14 4.05377E-14
 -1      3705 2.18037E+01-1.72544E+00 2.62647E-02 1.14018E+00-1.81840E-14-5.29763E-15
 -1      3706 2.21706E+01-1.99131E+00 1.04783E-03 9.62045E-01 1.00944E-14 5.28781E-14
 -1      3707 2.13485E+01-1.72467E+00-2.44738E-02 1.50877E+00 2.29970E-15 3.61436E-14
 -1      3708 2.30303E+01-2.46628E+00 6.49056E-03 8.57242E-01-4.60231E-14 7.81970E-14
 -1      3709 2.35655E+01-2.48067E+00 1.27664E-02 4.66326E-01-6.02374E-14 4.39939E-14
 -1      3710 2.40132E+01-2.28249E+00 2.20202E-03 9.05402E-03-1.07376E-13-3.77649E-15
 -1      3711 2.46832E+01-1.94284E-01 7.93298E-03-1.67162E+00-5.08447E-15-6.11282E-14
 -1      3712 2.45001E+01-1.24544E+00-1.39284E-02 1.10047E+00 2.03998E-13 6.46011E-15
 -1      3713 2.42263E+01-1.84918E+00-7.46992E-03 6.54379E-01 2.88096E-13 4.35684E-14
 -1      3714 2.38225E+01-2.16344E+00-3.04095E-04 1.54310E-01 2.50772E-13 1.30464E-13
 -1      3715 2.28642E+01-2.18306E+00-8.06477E-03-4.54650E-01 1.80515E-13 2.65239E-13
 -1      3716 2.24906E+01-2.03184E+00 2.46437E-02-7.24312E-01 9.34088E-14 2.56353E-13
 -1      3717 2.19008E+01-1.81907E+00-7.18154E-03-9.30514E-01 1.81279E-14 2.69734E-13
 -1      3718 2.15399E+01-1.54565E+00 1.99372E-02-1.07492E+00 2.47122E-14 3.00783E-13
 -1      3719 2.20344E+01-2.13670E+00-2.30975E-02-1.25710E+00 9.91463E-14 2.72078E-13
 -1      3720 2.11161E+01-1.27906E+00 7.66818E-06-1.11508E+00 4.91469E-16 3.12541E-13
 -1      3721 2.08279E+01-1.00910E+00 1.34275E-02-1.15826E+00 3.54263E-15 3.95180E-13
 -1      3722 2.10786E+01-1.50781E+00-2.10671E-02-1.42434E+00 3.41515E-14 2.67652E-13
 -1      3723 2.05536E+01-7.68137E-01 3.01105E-03-1.11516E+00-7.30689E-14 3.57097E-13
 -1      3724 2.03460E+01-5.46595E-01 7.79121E-03-1.09810E+00 3.70071E-15 2.81235E-13
 -1      3725 2.04324E+01-9.08659E-01-1.62152E-02-1.36401E+00-5.13624E-14 3.31236E-13
 -1      3726 2.01859E+01-3.58178E-01 4.02749E-03-1.01811E+00 3.66200E-14 1.56454E-13
 -1      3727 2.00490E+01-1.96882E-01 4.02704E-03-9.70583E-01 7.79606E-14 9.85568E-14
 -1      3728 2.00325E+01-4.28170E-01-1.09702E-02-1.20190E+00-3.16744E-14 1.67282E-13
 -1      3729 1.99680E+01-6.47417E-02 3.90071E-03-8.81512E-01 3.60454E-14 5.18536E-14
 -1      3730 1.98852E+01 4.15104E-02 1.61739E-03-8.22301E-01-9.59650E-14 3.09260E-14
 -1      3731 1.98120E+01-8.59719E-02-6.84584E-03-1.00797E+00-4.19978E-14-2.60272E-14
 -1      3732 1.98549E+01 1.25282E-01 3.26655E-03-7.37723E-01-1.39745E-13 9.71246E-15
 -1      3733 1.98102E+01 1.87471E-01 1.76175E-04-6.77145E-01-1.47818E-13 1.34151E-13
 -1      3734 1.97112E+01 1.35039E-01-4.00679E-03-8.19945E-01-9.11350E-14-1.63332E-13
 -1      3735 1.98102E+01 2.33532E-01 2.57647E-03-6.02594E-01-2.30962E-13 1.71024E-13
 -1      3736 1.97904E+01 2.63143E-01-5.90404E-04-5.46041E-01-2.74063E-13 1.46224E-13
 -1      3737 1.96851E+01 2.61713E-01-2.03732E-03-6.53137E-01-1.82471E-13-5.76325E-14
 -1      3738 1.98067E+01 2.82165E-01 1.94578E-03-4.83247E-01-2.84436E-13 1.55358E-13
 -1      3739 1.98019E+01 2.89649E-01-9.52980E-04-4.33148E-01-1.12965E-13 1.21586E-13
 -1      3740 1.97018E+01 3.19525E-01-8.27947E-04-5.12349E-01-2.59392E-13 1.74006E-13
 -1      3741 1.98253E+01 2.90934E-01 1.43191E-03-3.81584E-01 7.77731E-14 1.35326E-14
 -1      3742 1.98287E+01 2.84534E-01-1.07545E-03-3.38548E-01 4.29686E-14-2.10307E-14
 -1      3743 1.97398E+01 3.31319E-01-1.40404E-04-3.97134E-01-1.47975E-13 1.39464E-13
 -1      3744 1.98538E+01 2.74955E-01 1.05642E-03-2.96881E-01-4.34893E-15-9.56844E-14
 -1      3745 1.98609E+01 2.60653E-01-1.05764E-03-2.60818E-01-2.06956E-14-5.80930E-14
 -1      3746 1.97857E+01 3.14701E-01 2.57525E-04-3.04280E-01-2.52276E-14-1.02565E-13
 -1      3747 1.98846E+01 2.45321E-01 7.75784E-04-2.27671E-01-1.24269E-13-4.80611E-14
 -1      3748 1.98928E+01 2.27414E-01-9.61286E-04-1.98044E-01-2.26285E-13-1.32960E-13
 -1      3749 1.98316E+01 2.82070E-01 4.44984E-04-2.30493E-01-3.97614E-14-1.12979E-13
 -1      3750 1.99134E+01 2.09857E-01 5.71611E-04-1.71991E-01-1.80104E-13-5.40163E-15
 -1      3751 1.99211E+01 1.91182E-01-8.30348E-04-1.48055E-01-1.56686E-13 1.07385E-13
 -1      3752 1.98730E+01 2.42366E-01 4.96999E-04-1.72533E-01-8.79331E-14-1.71513E-13
 -1      3753 1.99381E+01 1.73650E-01 4.25619E-04-1.27790E-01-2.00039E-13 1.32367E-13
 -1      3754 1.99447E+01 1.55926E-01-6.91544E-04-1.08747E-01-1.75293E-13 1.84261E-13
 -1      3755 1.99080E+01 2.01463E-01 4.75281E-04-1.27412E-01-1.17539E-13 2.59315E-14
 -1      3756 1.99581E+01 1.39727E-01 3.20488E-04-9.31487E-02-1.10007E-13 1.87840E-13
 -1      3757 1.99632E+01 1.23879E-01-5.59828E-04-7.82250E-02 2.19168E-14 1.31330E-13
 -1      3758 1.99361E+01 1.62879E-01 4.17082E-04-9.25892E-02-5.63500E-14 2.06252E-13
 -1      3759 1.99734E+01 1.09667E-01 2.43282E-04-6.63545E-02-1.69106E-14 9.05877E-14
 -1      3760 1.99771E+01 9.60861E-02-4.41388E-04-5.48370E-02-9.29072E-14 6.48627E-14
 -1      3761 1.99577E+01 1.28486E-01 3.44941E-04-6.59639E-02-4.71396E-14 7.98682E-14
 -1      3762 1.99845E+01 8.40797E-02 1.85785E-04-4.59074E-02-1.20799E-13 7.33085E-14
 -1      3763 1.99871E+01 7.27937E-02-3.40851E-04-3.71577E-02-1.03605E-13 4.86262E-14
 -1      3764 1.99737E+01 9.90653E-02 2.76126E-04-4.58192E-02-1.21555E-13 1.92211E-13
 -1      3765 1.99922E+01 6.29224E-02 1.43177E-04-3.05495E-02 3.92597E-15-1.35269E-13
 -1      3766 1.99937E+01 5.37732E-02-2.55093E-04-2.40302E-02 1.17961E-13-3.34503E-14
 -1      3767 1.99850E+01 7.46275E-02 2.14576E-04-3.07631E-02-1.33194E-13 2.44001E-13
 -1      3768 1.99971E+01 4.57951E-02 1.05727E-04-1.92261E-02 3.55928E-13 3.74930E-14
 -1      3769 1.99981E+01 3.85569E-02-1.09089E-04-1.44364E-02 3.82916E-13 2.13354E-13
 -1      3770 1.99925E+01 5.47363E-02 1.34997E-04-1.96911E-02 2.84352E-13 1.25375E-13
 -1      3771 1.88263E+01-1.92486E+00 1.00943E-01-4.11206E+00 1.14918E-13-5.94224E-13
 -1      3772 2.04800E+01-2.76901E+00-7.18414E-02-3.51538E+00 2.19760E-13-4.19165E-13
 -1      3773 1.96883E+01 5.10095E-01-2.57407E-03 3.60307E-01-1.47617E-13-8.70959E-14
 -1      3774 1.96321E+01 5.74682E-01-9.27454E-04 4.06888E-01-1.63173E-13-7.20949E-14
 -1      3775 1.99159E+01 2.38138E-01-1.20747E-03 1.71789E-01 1.77880E-13 2.34024E-13
 -1      3776 1.99008E+01 2.72481E-01 1.36282E-04 1.99686E-01 1.12749E-13 2.03272E-13
 -1      3777 1.99491E+01 1.81178E-01-9.23735E-04 1.28536E-01 2.50205E-13 1.91043E-13
 -1      3778 1.99399E+01 2.08385E-01 2.24659E-04 1.50988E-01 3.09805E-13 1.70502E-13
 -1      3779 1.99006E+01 2.45641E-01 1.01099E-03 1.45849E-01 2.06014E-13 2.01950E-13
 -1      3780 1.99711E+01 1.36397E-01-7.00257E-04 9.39112E-02 2.90345E-13 1.93270E-13
 -1      3781 1.99657E+01 1.57761E-01 2.53244E-04 1.11641E-01 3.02715E-13 2.83528E-13
 -1      3782 1.99379E+01 1.87286E-01 6.93869E-04 1.09830E-01 2.03349E-13 3.73593E-13
 -1      3783 1.99853E+01 1.01485E-01-5.25535E-04 6.67549E-02 5.58200E-14 1.87781E-13
 -1      3784 1.99824E+01 1.18118E-01 2.47051E-04 8.05040E-02 1.42100E-13 1.13767E-13
 -1      3785 1.99631E+01 1.41186E-01 4.71317E-04 8.05915E-02 3.51147E-13 2.36045E-13
 -1      3786 1.99942E+01 7.44824E-02-3.93723E-04 4.58692E-02 3.21477E-14 8.91338E-14
 -1      3787 1.99928E+01 8.73327E-02 2.23180E-04 5.63444E-02 5.28251E-14 1.25246E-14
 -1      3788 1.99798E+01 1.05105E-01 3.16678E-04 5.74362E-02 1.54614E-13 1.90728E-13
 -1      3789 1.99993E+01 5.37633E-02-2.87932E-04 3.00781E-02 9.74444E-14-5.59604E-14
 -1      3790 1.99989E+01 6.36755E-02 2.11643E-04 3.79700E-02 5.75641E-14 6.59954E-14
 -1      3791 1.99905E+01 7.70687E-02 1.90489E-04 3.95293E-02 4.49893E-14-3.63175E-14
 -1      3792 2.00019E+01 3.79143E-02-2.14867E-04 1.82825E-02 3.21577E-13-1.45878E-13
 -1      3793 2.00022E+01 4.55611E-02 2.08383E-04 2.42696E-02 2.09399E-13-1.17295E-13
 -1      3794 1.99968E+01 5.53627E-02 2.69043E-05 2.59977E-02 3.12202E-13-2.61257E-13
 -1      3795 2.00035E+01 1.84154E-02-1.24356E-04 6.32697E-03 2.19780E-14-4.64398E-14
 -1      3796 1.72725E+01-1.53022E+00-1.85580E-02 4.17693E+00 3.38809E-14-7.30978E-14
 -1      3797 1.53777E+01-3.75736E-01 9.38802E-02 3.78749E+00 3.32026E-14-9.10678E-14
 -1      3798 2.01592E+01 1.36019E+00-4.53161E-04-2.78701E-02 6.51521E-14-9.37841E-14
 -1      3799 2.01679E+01 1.15733E+00-1.82161E-03 1.03365E-01 6.69035E-14-9.72174E-14
 -1      3800 2.01385E+01 9.25621E-01-2.42661E-03-2.81275E-01 6.90302E-14 5.84286E-14
 -1      3801 2.01865E+01 9.96482E-01 8.42985E-04-1.41921E-01 6.48069E-14 5.82118E-14
 -1      3802 2.01556E+01 1.14511E+00 7.93987E-04-7.95990E-02 7.05958E-14 1.70795E-14
 -1      3803 2.00567E+01 1.01710E+00 1.11284E-03-2.96276E-01 7.27470E-14 1.35315E-14
 -1      3804 1.47632E+01 1.51871E+00 1.50938E-02 1.02862E+00-1.37035E-13-2.22896E-13
 -1      3805 1.37493E+01 1.45279E+00-1.08184E-02 8.58989E-01-8.36854E-14-1.32269E-13
 -1      3806 1.34979E+01 1.52152E+00 2.83597E-02-3.39320E-01-2.58244E-14-5.55979E-14
 -1      3807 1.98664E+01 3.09951E-01-1.56395E-03 2.24637E-01 6.33224E-15 7.60872E-14
 -1      3808 1.98425E+01 3.52874E-01-4.91868E-05 2.58583E-01-3.64975E-14-2.75378E-14
 -1      3809 1.98464E+01 3.18787E-01 1.46187E-03 1.89013E-01-3.32919E-14 8.69112E-14
 -1      3810 1.97938E+01 3.99580E-01-2.00993E-03 2.87587E-01 1.48248E-14-6.14274E-14
 -1      3811 1.97568E+01 4.52601E-01-3.85768E-04 3.27913E-01-5.71238E-14-1.05918E-13
 -1      3812 1.97684E+01 4.09460E-01 2.09776E-03 2.39043E-01-9.37656E-14-5.87657E-14
 -1      3813 2.01284E+01 1.36375E+00 4.67008E-03 4.51324E-02 6.92833E-14-9.70030E-15
 -1      3814 2.00555E+01 1.66201E+00-3.42751E-03 1.76196E-01 8.58938E-14-5.58277E-15
 -1      3815 1.85758E+01 1.18140E+00-7.62909E-03 6.96225E-01-1.92357E-14-4.71367E-14
 -1      3816 1.83221E+01 1.28049E+00-6.99374E-03 7.55615E-01-6.93843E-14-1.61652E-13
 -1      3817 1.95362E+01 6.44285E-01-3.29921E-03 4.41387E-01-1.92438E-13-2.37019E-14
 -1      3818 1.94522E+01 7.21191E-01-1.77224E-03 4.93531E-01-1.18870E-13-8.58764E-14
 -1      3819 1.95009E+01 6.54192E-01 4.25469E-03 3.52609E-01-1.12836E-13-8.67676E-14
 -1      3820 2.48467E+01 8.51410E-01-4.55684E-02 1.91891E+00-4.03497E-15-1.71736E-13
 -1      3821 2.23353E+01-2.93240E+00 7.65957E-02-2.52799E+00 3.02437E-13-2.94331E-14
 -1      3822 2.32336E+01-3.04446E+00-3.17583E-02-1.55025E+00 3.28763E-13 6.38899E-14
 -1      3823 1.96110E+01 8.95261E-01-1.45464E-03-9.54883E-01 2.89455E-14 2.01688E-14
 -1      3824 1.97126E+01 8.52833E-01-3.71485E-03-8.41112E-01 7.11554E-14 5.71794E-14
 -1      3825 1.93670E+01 1.02718E+00 8.17493E-03-8.64596E-01 2.14447E-14 3.90211E-14
 -1      3826 1.42004E+01 1.40606E+00-5.17135E-03-6.39474E-01 3.70728E-14 1.12722E-13
 -1      3827 2.62734E+01-1.25943E-01-6.23735E-02 1.72399E+00 1.21517E-13-2.21573E-13
 -1      3828 2.56163E+01 7.21874E-01-5.00592E-02 1.94198E+00 2.82205E-14-2.22426E-13
 -1      3829 1.99930E+01 1.77912E+00-2.93602E-03 1.53699E-01 9.50801E-14-1.03480E-14
 -1      3830 2.01463E+01 6.99745E-01 5.30980E-04 4.25673E-01 5.08862E-14-8.67422E-14
 -1      3831 2.01365E+01 5.80360E-01 2.97405E-04 5.24679E-01 2.09780E-14-8.17047E-14
 -1      3832 2.00535E+01 6.06133E-01-7.76909E-04 5.59382E-01 2.02043E-14-5.58695E-14
 -1      3833 2.56878E+01-9.79409E-01-1.16454E-02 1.29992E+00 2.46884E-13-1.15852E-13
 -1      3834 1.99955E+01 1.64413E+00 6.84904E-03 7.51447E-02 6.91297E-14 6.22251E-15
 -1      3835 2.00027E+01 2.43113E-02-3.75642E-05 8.35963E-03 4.36846E-15 2.45846E-14
 -1      3836 2.01711E+01 9.83465E-01 5.14978E-04 2.11952E-01 7.31459E-14-9.31824E-14
 -1      3837 2.01625E+01 8.31711E-01-1.03507E-03 3.26896E-01 7.55999E-14-7.31943E-14
 -1      3838 2.00993E+01 8.59903E-01 7.69279E-04 3.64415E-01 5.23539E-14-1.07790E-13
 -1      3839 1.50790E+01-2.22875E-01 7.67775E-02-3.74651E+00 9.53122E-14-6.68736E-14
 -1      3840 1.66512E+01-1.28183E+00-5.59745E-02-4.19698E+00 1.01317E-13-4.18499E-13
 -1      3841 1.52003E+01 3.30693E-01 3.88255E-02-2.87864E+00 3.66911E-14-2.27362E-14
 -1      3842 2.44731E+01-1.19235E+00-6.85644E-02-1.24732E+00-3.11274E-14-2.42450E-14
 -1      3843 1.41615E+01 1.50298E+00 7.41509E-02 3.22778E-01 4.52156E-15 7.34933E-14
 -1      3844 1.52909E+01 1.48702E+00-1.51755E-02-8.14294E-01-5.66550E-15 8.93365E-14
 -1      3845 2.00031E+01 2.95692E-02 8.62500E-05 1.22700E-02 1.69635E-13-3.25190E-14
 -1      3846 2.00000E+01 3.63774E-02-1.21072E-04 1.36580E-02 1.29135E-13-3.91603E-14
 -1      3847 1.99980E+01 3.59143E-02 4.52004E-05-1.09918E-02 2.66777E-13 1.98557E-13
 -1      3848 1.44310E+01 1.21494E+00-5.17527E-03 1.00715E+00-1.66438E-14 8.62435E-14
 -1      3849 2.25680E+01-2.57269E+00-1.88513E-02 1.46432E+00-3.70702E-14 9.19230E-14
 -1      3850 1.59899E+01 1.49876E+00-2.07532E-02-7.28468E-01-2.97965E-14 8.76200E-14
 -1      3851 1.75631E+01 1.47405E+00 2.61884E-02-1.32843E+00 4.17063E-14 5.14009E-14
 -1      3852 1.86216E+01 1.21129E+00-6.76663E-03-8.03028E-01 1.92422E-14 5.68612E-14
 -1      3853 1.88812E+01 1.14096E+00-5.74286E-03-7.47270E-01 3.57884E-15 6.15796E-14
 -1      3854 2.35940E+01-2.50128E+00-1.04023E-02-5.01785E-01 3.10907E-13 8.09053E-14
 -1      3855 2.11393E+01-2.47710E+00-5.71358E-03-2.73284E+00 1.69921E-13-1.43324E-13
 -1      3856 1.79250E+01-1.19991E+00 2.00857E-02-3.62531E+00 5.76865E-14-4.54941E-13
 -1      3857 1.96575E+01 5.20401E-01 2.98744E-03 2.94555E-01-9.02449E-14 1.12014E-14
 -1      3858 1.79179E+01 1.35501E+00-1.23602E-02-8.53547E-01 3.93134E-14-7.84919E-15
 -1      3859 1.82774E+01 1.28183E+00-9.49617E-03-8.09264E-01 3.97514E-14 7.55505E-15
 -1      3860 1.83376E+01 1.29959E+00 1.67644E-02-5.27098E-01 5.37160E-14 1.04752E-14
 -1      3861 2.47474E+01-1.83838E-01 6.32745E-03 1.75850E+00 8.79193E-14-7.67962E-14
 -1      3862 1.39395E+01 1.40523E+00 3.34326E-02-9.43311E-01-6.56497E-14 7.87009E-14
 -1      3863 1.45360E+01 1.09480E+00-2.56574E-02-1.61887E+00-3.98412E-14 1.41432E-13
 -1      3864 1.46347E+01 1.49895E+00 1.63003E-02-5.42196E-01-9.28866E-14 4.12613E-14
 -1      3865 1.99972E+01 4.01566E-02-9.03895E-05 1.15641E-02-3.14365E-14-9.73855E-14
 -1      3866 1.99964E+01 5.07185E-02 2.70027E-04 1.78889E-02 2.66214E-13-2.21660E-13
 -1      3867 1.99954E+01 4.25015E-02-1.65850E-04 1.01508E-02-9.20590E-14-3.90175E-14
 -1      3868 1.86469E+01-1.84212E+00 5.59193E-02 3.98815E+00 2.54814E-14-1.46824E-13
 -1      3869 1.76766E+01-1.15791E+00-2.80435E-02 3.60848E+00-2.92769E-14-1.34118E-13
 -1      3870 1.97495E+01-2.15303E+00 8.86210E-03 3.52709E+00 1.07731E-14-1.32790E-13
 -1      3871 2.01216E+01 1.18028E+00 2.55145E-03 1.57824E-01 6.97769E-14-1.29670E-13
 -1      3872 1.52115E+01 6.58932E-02 1.34721E-02 2.99542E+00-1.80793E-14-6.50209E-14
 -1      3873 2.00791E+01 1.26160E+00-2.64641E-03-7.22281E-02 7.19340E-14-2.12566E-14
 -1      3874 1.99937E+01 4.12554E-02-7.81854E-05-5.99257E-04 2.82087E-13 5.11801E-13
 -1      3875 1.99938E+01 4.10566E-02-1.71356E-04 1.42882E-03-3.87517E-14 4.60805E-13
 -1      3876 1.88322E+01 1.08262E+00-4.57129E-03 6.72550E-01 1.62950E-13-3.19118E-14
 -1      3877 1.85494E+01 1.18728E+00 1.17002E-02 4.80467E-01 2.55652E-14-1.22089E-13
 -1      3878 1.90104E+01 9.84632E-01-5.61746E-03 6.14446E-01 1.40765E-13-5.06384E-14
 -1      3879 1.99976E+01 3.38520E-02 2.28805E-04 4.10436E-03-1.92809E-13 4.90678E-14
 -1      3880 1.96770E+01 9.47526E-01 5.14987E-03-6.94771E-01 7.27064E-14 5.74540E-14
 -1      3881 1.99277E+01 2.12277E+00-2.36735E-03-1.23269E-01 9.94635E-14-1.08523E-13
 -1      3882 1.99746E+01 1.95593E+00-4.10202E-04-9.10420E-02 8.83285E-14-1.15295E-13
 -1      3883 1.98991E+01 2.13201E+00-3.76423E-03-5.15899E-02 9.55484E-14-6.39503E-14
 -1      3884 1.79631E+01 1.37711E+00-1.03670E-02 7.67933E-01 5.92007E-15-2.64680E-13
 -1      3885 1.76016E+01 1.46344E+00-9.06537E-03 8.33505E-01 1.53079E-14-2.68345E-13
 -1      3886 1.79584E+01 1.38587E+00 1.66803E-02 4.77523E-01-9.62088E-14-2.38067E-13
 -1      3887 1.92812E+01 8.11664E-01 6.00184E-03 4.08421E-01-3.04105E-14-3.28445E-14
 -1      3888 1.93188E+01 8.03080E-01-4.25663E-03 5.27773E-01 6.29002E-14-1.17570E-13
 -1      3889 1.91954E+01 8.91819E-01-2.99213E-03 5.83882E-01 1.12982E-13-3.18927E-14
 -1      3890 2.01022E+01 1.65438E+00-1.82169E-03-1.47603E-01 8.65440E-14-1.46874E-13
 -1      3891 2.01360E+01 1.49954E+00 1.40296E-04-8.04890E-02 7.77726E-14-1.07794E-13
 -1      3892 2.00973E+01 1.49628E+00 1.27589E-03-4.02232E-03 6.95609E-14-1.27954E-13
 -1      3893 2.00454E+01 1.78057E+00 2.03368E-03-1.03756E-01 8.64299E-14-1.62834E-13
 -1      3894 1.97782E+01 9.99829E-01-4.26422E-03-4.60128E-01 4.51168E-14-1.43140E-14
 -1      3895 1.98790E+01 1.03137E+00-2.25978E-03-3.51988E-01 3.69497E-14-3.27384E-14
 -1      3896 1.54731E+01 1.61470E+00-2.70557E-03 8.78323E-01-4.65149E-14-1.75827E-13
 -1      3897 1.99002E+01 1.62318E+00-4.57962E-03 7.01643E-02 7.31512E-14-5.88613E-16
 -1      3898 1.98921E+01 1.65619E+00-1.45725E-03 7.18164E-02 5.84062E-14-1.75469E-14
 -1      3899 1.99984E+01 1.41372E+00-2.90383E-03-1.47208E-02 6.11422E-14-3.04684E-14
 -1      3900 1.99389E+01 1.56586E+00-1.60407E-03 2.74357E-02 7.67964E-14 1.17642E-14
 -1      3901 1.99226E+01 1.44995E+00 6.40126E-03-7.56163E-03 6.05916E-14 8.47372E-15
 -1      3902 2.00339E+01 1.22869E+00 3.02800E-03-1.26225E-01 7.16664E-14-9.44997E-15
 -1      3903 1.99247E+01 1.82660E+00 5.59640E-03 7.14409E-02 7.08668E-14-2.45096E-14
 -1      3904 1.98872E+01 2.01802E+00-3.97675E-03 4.58528E-02 8.27194E-14-3.18229E-14
 -1      3905 1.99035E+01 2.03970E+00-5.00276E-04-5.89426E-03 8.21399E-14-5.89259E-14
 -1      3906 2.46171E+01-1.89000E+00 4.46212E-02-6.11083E-01-7.24785E-14 5.84602E-16
 -1      3907 1.99988E+01 2.96333E-02 7.49948E-05-6.17702E-03 1.43613E-13 3.04301E-13
 -1      3908 1.99949E+01 3.92386E-02-5.81039E-05-5.39721E-03 3.57213E-13 1.20507E-13
 -1      3909 1.99940E+01 4.03162E-02-1.51565E-04-3.54713E-03 3.87030E-13 7.27892E-14
 -1      3910 1.99921E+01 4.81529E-02 1.78651E-04-2.66799E-03 2.52602E-13 4.06413E-13
 -1      3911 2.50955E+01-1.47162E+00-1.58383E-02 9.76161E-01 2.64112E-13-4.53491E-14
 -1      3912 1.99732E+01 1.15853E+00-1.59058E-03-2.17940E-01 6.95499E-14-2.42082E-14
 -1      3913 1.98774E+01 1.21342E+00 8.28364E-04-1.93554E-01 6.00678E-14-8.37449E-15
 -1      3914 1.99547E+01 1.38672E-01-5.95628E-04 6.35040E-02 3.08311E-13 2.39077E-13
 -1      3915 1.99447E+01 1.60040E-01-2.71225E-05 7.58609E-02 3.69629E-13 2.85586E-13
 -1      3916 1.99141E+01 5.24762E-01-1.00221E-03 6.76344E-01 3.27785E-14-5.65381E-14
 -1      3917 1.99053E+01 4.18125E-01 3.41457E-03 7.75561E-01 5.36969E-14-3.06317E-14
 -1      3918 1.98590E+01 3.03242E-01-5.51196E-04 8.90148E-01 3.78532E-14-1.16281E-14
 -1      3919 1.98800E+01 1.79781E-01 5.19351E-03 9.95046E-01 1.14745E-14-1.50925E-14
 -1      3920 1.97455E+01 4.51579E-01-1.20938E-03 8.13909E-01 5.42656E-14-8.34042E-14
 -1      3921 1.98612E+01 3.61236E-02 6.18486E-04 1.13009E+00 2.39921E-14-1.46369E-14
 -1      3922 1.99350E+01-1.27772E-01 6.95194E-03 1.24005E+00 4.15216E-14 7.82279E-15
 -1      3923 1.96768E+01 2.03461E-01-4.07221E-03 1.07311E+00 2.65043E-14-1.65526E-14
 -1      3924 1.99756E+01-3.22793E-01 3.64830E-03 1.39420E+00 2.90923E-14-2.58168E-14
 -1      3925 2.01299E+01-5.49337E-01 8.58553E-03 1.49962E+00 1.36309E-14-2.18649E-14
 -1      3926 1.96880E+01-1.31497E-01-8.54912E-03 1.38249E+00 2.03812E-14-3.03145E-14
 -1      3927 2.02734E+01-8.13657E-01 9.13481E-03 1.66047E+00 1.67362E-14-4.21175E-15
 -1      3928 2.05387E+01-1.11869E+00 8.46395E-03 1.73714E+00-7.34742E-15 2.87585E-15
 -1      3929 1.98492E+01-6.01821E-01-1.33851E-02 1.73289E+00 2.55233E-14-5.67105E-14
 -1      3930 2.08504E+01-1.45461E+00 1.94410E-02 1.87129E+00-2.23539E-14 1.36851E-14
 -1      3931 2.12516E+01-1.83837E+00 4.34129E-03 1.86918E+00 2.96594E-14 4.01097E-14
 -1      3932 2.02562E+01-1.24874E+00-1.78340E-02 2.08665E+00 1.86032E-14-1.11798E-14
 -1      3933 1.97356E+01 1.15636E+00 3.85605E-03-1.73177E-01 3.02045E-14 7.66916E-15
 -1      3934 1.98210E+01 1.26687E+00-5.01312E-03-6.73075E-02 6.08826E-14 1.74596E-14
 -1      3935 1.97988E+01 1.32966E+00-2.15042E-04 8.89435E-03 3.76696E-14 2.32545E-14
 -1      3936 1.89167E+01 1.16934E+00 1.10516E-02-5.26535E-01 1.81363E-14 6.59494E-14
 -1      3937 1.91352E+01 1.07916E+00-5.45353E-03-7.21553E-01-1.65102E-15 7.68136E-14
 -1      3938 1.93225E+01 1.03132E+00-4.71718E-03-6.52197E-01 3.03433E-14 4.36514E-14
 -1      3939 2.09615E+01-1.59482E+00 6.86238E-03-1.78002E+00 1.03953E-14 1.61500E-13
 -1      3940 2.05697E+01-1.23149E+00 1.77752E-02-1.75633E+00 2.78183E-14 1.09011E-13
 -1      3941 2.02679E+01-9.12834E-01 7.45611E-03-1.61630E+00-1.64363E-14 8.26001E-14
 -1      3942 2.00056E+01-6.28010E-01 7.11486E-03-1.52883E+00-6.50578E-14 1.49961E-13
 -1      3943 1.99858E+01-1.02910E+00-1.81188E-02-1.96795E+00-5.42281E-14-1.10035E-13
 -1      3944 1.98624E+01-3.87249E-01 8.17897E-03-1.36492E+00-1.35718E-13 1.37605E-13
 -1      3945 1.97025E+01-1.88572E-01 2.52890E-03-1.25750E+00-1.29391E-13 6.99061E-15
 -1      3946 1.95797E+01-4.22282E-01-1.27571E-02-1.59922E+00-1.65785E-13 2.15791E-14
 -1      3947 1.96519E+01-2.55583E-02 6.80119E-03-1.10596E+00-9.14662E-14-1.10561E-13
 -1      3948 1.95668E+01 1.00455E-01-6.16114E-05-1.00093E+00-8.37725E-14-1.40440E-13
 -1      3949 1.94063E+01-1.30341E-02-6.82532E-03-1.25527E+00-2.09764E-13-8.97087E-14
 -1      3950 1.95702E+01 2.00763E-01 5.12927E-03-8.73507E-01-1.27934E-13-2.95231E-13
 -1      3951 1.95337E+01 2.72318E-01-1.39961E-03-7.80511E-01-1.78503E-13-3.56409E-13
 -1      3952 1.93656E+01 2.37639E-01-3.72769E-03-9.60412E-01-1.87196E-13-2.35819E-13
 -1      3953 1.95656E+01 3.25745E-01 3.76858E-03-6.77643E-01-1.34931E-13-3.81425E-13
 -1      3954 1.95594E+01 3.57888E-01-1.73636E-03-5.99588E-01-1.44838E-13-3.00119E-13
 -1      3955 1.94009E+01 3.75955E-01-1.04613E-03-7.23743E-01-1.35525E-13-3.43063E-13
 -1      3956 1.96030E+01 3.78363E-01 2.61929E-03-5.19444E-01-1.65691E-13-1.92614E-13
 -1      3957 1.96136E+01 3.84051E-01-1.86124E-03-4.55859E-01-2.01195E-13-7.69393E-14
 -1      3958 1.94731E+01 4.31310E-01 5.55199E-05-5.38858E-01-6.11997E-14-3.81605E-13
 -1      3959 1.96600E+01 3.83370E-01 1.73052E-03-3.94733E-01-1.74123E-13-9.98068E-14
 -1      3960 1.96784E+01 3.73247E-01-1.78898E-03-3.43771E-01-1.64403E-13-1.25731E-13
 -1      3961 1.95584E+01 4.34713E-01 5.43507E-04-3.98321E-01-1.79397E-13-2.80257E-13
 -1      3962 1.97226E+01 3.59771E-01 1.16521E-03-2.97091E-01-1.51996E-13-3.03801E-14
 -1      3963 1.97435E+01 3.40436E-01-1.58157E-03-2.56801E-01-6.84102E-14-5.16203E-14
 -1      3964 1.96441E+01 4.07518E-01 8.67769E-04-2.92454E-01-1.08744E-13-2.52070E-13
 -1      3965 1.97826E+01 3.20162E-01 7.50987E-04-2.21783E-01-3.18131E-14-8.20730E-14
 -1      3966 1.98028E+01 2.96809E-01-1.33166E-03-1.90249E-01-2.39406E-14-6.88419E-14
 -1      3967 1.97229E+01 3.62598E-01 9.61856E-04-2.13206E-01-7.45544E-14-1.52770E-13
 -1      3968 1.98357E+01 2.74019E-01 4.74217E-04-1.64119E-01-1.08191E-13-1.23402E-13
 -1      3969 1.98535E+01 2.49994E-01-1.08982E-03-1.39615E-01-3.73507E-14-1.04206E-13
 -1      3970 1.97909E+01 3.10584E-01 9.09087E-04-1.54578E-01-7.11426E-14-1.66525E-13
 -1      3971 1.98801E+01 2.27372E-01 2.99441E-04-1.20175E-01-2.11500E-15-1.00207E-13
 -1      3972 1.98949E+01 2.04671E-01-8.73232E-04-1.01263E-01-6.51336E-14-3.64866E-14
 -1      3973 1.98469E+01 2.58166E-01 8.00088E-04-1.11251E-01-3.82906E-14-2.36788E-13
 -1      3974 1.99157E+01 1.83782E-01 1.89969E-04-8.68537E-02 2.14150E-14-7.21898E-14
 -1      3975 1.99274E+01 1.63484E-01-6.86632E-04-7.23636E-02 5.60916E-14 8.78116E-14
 -1      3976 1.98915E+01 2.09200E-01 6.71321E-04-7.92912E-02 6.28153E-15-2.74741E-13
 -1      3977 1.99432E+01 1.45114E-01 1.22736E-04-6.17303E-02-1.83734E-14 7.93706E-14
 -1      3978 1.99520E+01 1.27668E-01-5.33484E-04-5.07215E-02-1.32605E-14 4.12858E-14
 -1      3979 1.99259E+01 1.65714E-01 5.41847E-04-5.57716E-02 7.03676E-14-1.29898E-13
 -1      3980 1.99636E+01 1.12086E-01 8.09052E-05-4.29381E-02-5.38680E-14 1.75080E-13
 -1      3981 1.99700E+01 9.75942E-02-3.90524E-04-3.46719E-02-7.58551E-14 1.79463E-13
 -1      3982 1.99515E+01 1.28482E-01 4.20218E-04-3.85195E-02 4.10898E-14 1.53841E-13
 -1      3983 1.99782E+01 8.46671E-02 3.43505E-05-2.89337E-02-1.77974E-13 1.81340E-13
 -1      3984 1.99827E+01 7.28517E-02-2.81476E-04-2.28419E-02-1.73318E-13 1.80492E-13
 -1      3985 1.99700E+01 9.76869E-02 3.58574E-04-2.59564E-02-1.30533E-13 1.98354E-13
 -1      3986 1.99882E+01 6.25493E-02 4.39447E-05-1.87519E-02 1.02719E-13 9.23268E-14
 -1      3987 1.99910E+01 5.31382E-02-1.84461E-04-1.42466E-02 4.71030E-13 2.33854E-13
 -1      3988 1.99827E+01 7.22841E-02 1.79915E-04-1.67931E-02-7.56609E-15 3.15225E-13
 -1      3989 2.33837E+01-2.83591E+00 1.02012E-02-1.18283E+00 3.26941E-13 1.22444E-13
 -1      3990 1.98858E+01 2.40116E-01-9.73653E-04 1.13857E-01 2.73894E-14 2.75905E-13
 -1      3991 1.98634E+01 2.73600E-01-3.16063E-04 1.32195E-01 1.21064E-13 1.23839E-13
 -1      3992 1.99738E+01 1.03285E-01-4.54557E-04 4.52593E-02 1.44740E-13 1.67314E-13
 -1      3993 1.99674E+01 1.20081E-01 3.17850E-05 5.50033E-02 3.15891E-13 2.28114E-13
 -1      3994 1.99523E+01 1.39227E-01 5.08421E-04 5.02826E-02 3.33608E-13 2.76666E-13
 -1      3995 1.99863E+01 7.58201E-02-3.15468E-04 3.10870E-02 2.79588E-13-1.82086E-13
 -1      3996 1.99824E+01 8.88592E-02 8.27713E-05 3.85481E-02 1.51220E-13 5.05524E-14
 -1      3997 1.99720E+01 1.03687E-01 3.48707E-04 3.60565E-02 3.47146E-13 1.86125E-13
 -1      3998 1.99931E+01 5.74536E-02-1.58549E-04 2.14058E-02 3.92915E-13-3.09197E-13
 -1      3999 1.99908E+01 6.77060E-02 1.65034E-04 2.69339E-02 3.67929E-13-3.03105E-13
 -1      4000 1.99833E+01 7.89673E-02 1.36593E-04 2.56704E-02 4.25189E-13-1.09542E-13
 -1      4001 1.99899E+01 6.18096E-02-5.78271E-05 1.83832E-02 2.68038E-13-1.29587E-13
 -1      4002 2.00489E+01 1.00376E+00-9.06919E-04 2.92160E-01 6.40127E-14-1.20193E-13
 -1      4003 2.00293E+01 8.66463E-01-3.25498E-04 3.90267E-01 5.25511E-14-1.13928E-13
 -1      4004 1.99960E+01 3.88849E-02-9.19859E-05-9.58272E-03 4.04028E-13 2.46061E-13
 -1      4005 1.96705E+01 1.00459E+00-1.05438E-03-4.74753E-01 5.76186E-14-1.60190E-15
 -1      4006 1.96781E+01 1.08691E+00 3.46103E-03-3.35706E-01 2.82158E-14-2.29076E-14
 -1      4007 1.96186E+01 1.12626E+00-3.96375E-03-1.74365E-01 2.49289E-14-5.38350E-15
 -1      4008 1.95321E+01 1.01126E+00-3.61101E-03-5.54524E-01 4.08919E-14 2.88421E-14
 -1      4009 1.98279E+01 3.10341E-01-1.21612E-03 1.46076E-01 1.67553E-14-1.69414E-14
 -1      4010 1.97952E+01 3.51497E-01-6.10841E-04 1.67348E-01-1.96518E-13-7.07969E-14
 -1      4011 1.98236E+01 3.09872E-01 1.41660E-03 1.11949E-01-6.72962E-14-1.02870E-13
 -1      4012 1.97463E+01 3.96522E-01-1.49237E-03 1.82014E-01-1.99305E-13-7.82091E-15
 -1      4013 1.96991E+01 4.46363E-01-1.06745E-03 2.05596E-01-1.52481E-13-9.72110E-14
 -1      4014 1.97424E+01 3.94442E-01 1.96072E-03 1.36422E-01-1.42029E-13-1.18233E-14
 -1      4015 1.69601E+01 1.48858E+00-1.47872E-02-9.07281E-01-8.16838E-15 7.79962E-14
 -1      4016 1.74452E+01 1.43346E+00-1.41040E-02-8.41563E-01 3.06343E-14 2.85634E-14
 -1      4017 1.75432E+01 1.45284E+00 2.43699E-02-4.71395E-01 2.01991E-14 6.19565E-14
 -1      4018 1.99266E+01 1.83617E-01-7.66451E-04 8.62808E-02 3.53723E-13 2.42115E-13
 -1      4019 1.99115E+01 2.10516E-01-1.33646E-04 1.01550E-01 1.39405E-13 3.09863E-13
 -1      4020 1.98819E+01 2.40421E-01 1.01790E-03 8.86081E-02 6.04312E-14 2.20054E-13
 -1      4021 1.61686E+01 1.50312E+00 1.16703E-02-1.70611E-01-3.00411E-14 9.02438E-14
 -1      4022 1.73320E+01-4.23591E-01 5.74412E-02-3.21134E+00-4.90489E-14-3.64095E-13
 -1      4023 1.87357E+01-1.33500E+00-4.12426E-02-3.22043E+00-4.84751E-14-5.66817E-13
 -1      4024 1.70914E+01 1.52814E+00-1.79945E-02 8.37315E-01 3.64522E-14-2.67532E-13
 -1      4025 1.66139E+01 1.58617E+00-9.29272E-03 9.20921E-01 1.50427E-14-2.35894E-13
 -1      4026 1.71232E+01 1.56175E+00 2.26969E-02 4.28063E-01 4.76648E-14-2.26780E-13
 -1      4027 1.99857E+01 7.44182E-01-1.86442E-03 4.81274E-01 4.42452E-14-1.03367E-13
 -1      4028 1.99667E+01 6.33654E-01 1.82776E-03 5.78030E-01 1.93946E-14-7.39419E-14
 -1      4029 1.99395E+01 9.00823E-01 3.35260E-03 4.09752E-01 6.25427E-14-1.08850E-13
 -1      4030 1.55576E+01 1.65752E+00 3.24939E-02 2.94650E-01-2.64953E-14-2.01363E-13
 -1      4031 2.27294E+01-2.96789E+00 9.93859E-03 1.99394E+00-3.74093E-14 3.74835E-14
 -1      4032 2.22524E+01-3.24548E+00-1.07979E-02 2.78004E+00-1.83577E-14-1.09769E-14
 -1      4033 2.12216E+01-2.74842E+00 5.01043E-05 3.05127E+00 3.15893E-15-2.44611E-14
 -1      4034 2.18268E+01-2.31183E+00 2.34065E-02 1.95271E+00 1.28326E-14-2.92171E-15
 -1      4035 1.99936E+01 4.32759E-02-1.05397E-04 4.66853E-03-1.06141E-13 2.12771E-13
 -1      4036 1.99945E+01 4.18098E-02-1.85355E-04 6.56003E-03-2.01581E-13 1.72759E-13
 -1      4037 1.99919E+01 5.42795E-02 2.37418E-04 1.12000E-02-2.61191E-14 3.42688E-14
 -1      4038 1.99913E+01 5.12069E-02 1.77357E-04 3.84509E-03 9.24617E-14 5.27901E-13
 -1      4039 1.98961E+01 1.64606E+00-5.11276E-03 9.58525E-02 6.91093E-14-3.03529E-14
 -1      4040 1.99203E+01 1.63973E+00 6.23192E-04 8.76294E-02 7.53730E-14-5.20699E-14
 -1      4041 1.99009E+01 1.50476E+00 6.88003E-03 8.33797E-02 5.48515E-14-2.45238E-14
 -1      4042 1.96326E+01 5.00699E-01-1.79548E-03 2.19534E-01 1.94296E-15-9.07943E-14
 -1      4043 1.95652E+01 5.59947E-01-1.78243E-03 2.44047E-01-4.76989E-14-1.18067E-14
 -1      4044 1.96308E+01 4.95688E-01 2.69132E-03 1.59252E-01-7.59916E-14-5.52205E-14
 -1      4045 1.50368E+01 9.89572E-01 6.62590E-02 1.85046E+00-2.03091E-14-2.71684E-14
 -1      4046 1.54815E+01 1.22416E+00 2.07114E-03 8.82500E-01-2.55351E-14 3.17684E-14
 -1      4047 2.00693E+01 1.34267E+00-8.56577E-04 1.01258E-01 5.64280E-14-1.07270E-13
 -1      4048 2.00659E+01 1.16098E+00-1.90742E-03 2.08549E-01 6.61377E-14-1.05691E-13
 -1      4049 2.00083E+01 1.17492E+00 3.63942E-03 2.38335E-01 4.91656E-14-9.07506E-14
 -1      4050 1.60654E+01 1.83014E-01-9.39787E-03 2.61850E+00-3.88908E-14-1.27589E-13
 -1      4051 1.52794E+01 8.18314E-01 3.46780E-02-2.18258E+00-5.50775E-17 1.03417E-13
 -1      4052 1.61016E+01 7.51300E-02-3.72186E-02-2.90060E+00 5.42288E-14-1.48470E-13
 -1      4053 1.94757E+01 6.24389E-01-2.11263E-03 2.54458E-01-8.60065E-14-2.84550E-14
 -1      4054 1.93800E+01 6.93703E-01-2.73120E-03 2.77420E-01-6.65617E-14 7.76396E-14
 -1      4055 1.94788E+01 6.14227E-01 3.63392E-03 1.75604E-01-3.78700E-14 2.10296E-13
 -1      4056 2.11067E+01-2.16892E+00-1.43826E-02 2.41348E+00-2.14280E-14-4.35780E-14
 -1      4057 2.08431E+01-2.17102E+00 1.30228E-02 2.72559E+00-1.96983E-15-4.56995E-14
 -1      4058 2.02755E+01-2.20019E+00 2.15680E-03 3.21953E+00 1.39832E-14-1.07453E-13
 -1      4059 1.93691E+01-1.57762E+00-1.12847E-02 3.14022E+00 2.94555E-14-1.01294E-13
 -1      4060 2.02723E+01-1.60087E+00 8.25929E-03 2.53501E+00-8.47152E-15-5.00411E-14
 -1      4061 1.99234E+01 1.84195E-01 7.26174E-04 6.78597E-02 3.49321E-13 1.59172E-13
 -1      4062 1.97282E+01 1.18406E+00 5.63374E-03 6.33216E-02 2.85258E-14 5.31617E-15
 -1      4063 1.98017E+01 1.30584E+00-8.14210E-03 9.44327E-02 3.77012E-14-1.90161E-14
 -1      4064 1.98347E+01 1.31511E+00 2.27139E-03 1.37485E-01 3.20735E-14-3.50594E-14
 -1      4065 2.19813E+01-2.40423E+00-2.37478E-02-1.72720E+00 1.24223E-13 2.06569E-13
 -1      4066 2.14736E+01-1.98730E+00 2.22566E-02-1.84235E+00 7.72021E-14 2.08806E-13
 -1      4067 1.87154E+01 1.14922E+00-9.46364E-03-3.05775E-01 2.69932E-14 4.85717E-15
 -1      4068 1.89754E+01 1.10928E+00-4.55271E-03-3.05921E-01 2.79345E-14 2.92304E-14
 -1      4069 1.66013E+01 1.05764E+00-5.81427E-03 1.10817E+00-3.01432E-14-7.50290E-14
 -1      4070 1.62215E+01 1.37887E+00 3.72044E-03 3.91465E-01-2.82061E-14 3.99647E-14
 -1      4071 1.71218E+01 1.32807E+00-5.27317E-03 1.04164E-01-3.41901E-14 6.06847E-14
 -1      4072 2.07307E+01-1.80071E+00-2.39108E-02-2.20884E+00 1.60948E-14 6.25021E-14
 -1      4073 1.57243E+01 1.52383E+00-9.55516E-03-2.72917E-01 2.05053E-14 4.62521E-14
 -1      4074 1.80727E+01 1.24998E+00-1.44555E-02-2.16962E-01 5.85879E-14 3.34660E-14
 -1      4075 1.84340E+01 1.19876E+00-3.98475E-03-2.48936E-01 4.51335E-14 8.89154E-15
 -1      4076 1.85925E+01 1.17496E+00 1.74554E-02-3.11095E-02 3.07579E-14-3.02168E-14
 -1      4077 1.72150E+01-2.99699E-01 5.65179E-02 3.05721E+00-1.60841E-14-8.63302E-14
 -1      4078 1.66725E+01 3.96093E-01-1.47131E-02 2.13679E+00 3.17888E-15-8.26119E-14
 -1      4079 1.99936E+01 4.69939E-02 1.14421E-04-1.04484E-02 4.97931E-13 8.28982E-14
 -1      4080 1.93715E+01 1.09169E+00 7.38454E-03-4.25927E-01 2.65007E-14 6.87297E-15
 -1      4081 1.89749E+01 9.91141E-01 8.37787E-03 4.54186E-01 9.65206E-14-9.34942E-14
 -1      4082 1.98468E+01 6.64840E-01 6.10582E-04 5.97157E-01 5.29165E-14-1.05577E-13
 -1      4083 1.85615E+01 1.10088E+00-3.92284E-03 2.63573E-01 7.37003E-14-3.10211E-13
 -1      4084 1.83005E+01 1.18647E+00-9.01885E-03 2.53647E-01-9.55798E-14-2.89418E-13
 -1      4085 1.80083E+01 1.27429E+00-4.62842E-03 1.91583E-01-1.14754E-13-1.88804E-13
 -1      4086 1.76354E+01 1.34697E+00-1.40650E-02 1.56226E-01-5.21165E-15-1.60509E-13
 -1      4087 1.81277E+01 1.21316E+00 1.28548E-02-3.75642E-02-5.49450E-14-2.43255E-13
 -1      4088 1.92598E+01 7.67988E-01-2.52754E-03 2.80858E-01-1.35950E-13 1.22313E-13
 -1      4089 1.91256E+01 8.45865E-01-4.15259E-03 2.98365E-01-5.64115E-14 6.15182E-14
 -1      4090 1.92734E+01 7.50395E-01 5.02782E-03 1.77454E-01-5.92777E-14 7.31464E-14
 -1      4091 1.99535E+01 1.42131E+00 7.87517E-04 1.31316E-01 4.96909E-14-4.70785E-14
 -1      4092 1.99733E+01 1.55609E+00-2.71062E-03 9.83490E-02 6.48750E-14-7.40995E-14
 -1      4093 1.71917E+01-1.31065E-02 6.69410E-03-2.61806E+00-5.77160E-14-2.19927E-13
 -1      4094 1.99898E+01 5.37589E-02-7.18869E-05-9.28587E-03 3.53576E-13 2.90230E-13
 -1      4095 1.99876E+01 5.81346E-02 4.37872E-05 1.14744E-03 7.01033E-15 7.58621E-13
 -1      4096 1.99867E+01 6.02761E-02-1.81902E-04 4.74492E-03-6.39428E-14 5.11073E-13
 -1      4097 2.00287E+01 1.66988E+00-7.52968E-04-4.80417E-03 7.50858E-14-1.16369E-13
 -1      4098 1.99935E+01 1.64739E+00 2.58324E-03 5.24532E-02 7.31704E-14-8.12577E-14
 -1      4099 1.55991E+01 9.94795E-01 1.49604E-02-1.70912E+00-6.30390E-14 1.45144E-14
 -1      4100 1.81654E+01-7.69440E-01 1.45733E-03 2.98577E+00-7.30319E-15-1.04495E-13
 -1      4101 1.99884E+01 5.60799E-02-3.00680E-05-5.99630E-03 1.99540E-13 3.51814E-13
 -1      4102 1.99877E+01 5.68431E-02-1.55142E-04-2.52913E-03-1.92786E-15 7.59152E-13
 -1      4103 1.99839E+01 6.72353E-02 1.24293E-04-2.28123E-03-6.03063E-14 6.47769E-13
 -1      4104 1.99859E+01 6.36073E-02 6.97765E-05-9.58411E-03 1.85520E-13 5.08667E-13
 -1      4105 1.96099E+01-9.81242E-01-5.94728E-03-2.26586E+00-4.89898E-14-2.71237E-13
 -1      4106 1.93351E+01-5.92771E-01 1.20388E-03-2.03721E+00-7.86250E-14-2.95040E-13
 -1      4107 1.94800E+01 4.03749E-01-5.42853E-03 9.56066E-01 6.51551E-14-4.42703E-14
 -1      4108 1.94793E+01 2.89207E-01 8.16375E-03 1.09735E+00 4.49166E-14-8.11547E-15
 -1      4109 1.93805E+01 1.41510E-01-5.21062E-03 1.28806E+00-1.91450E-14-1.47118E-14
 -1      4110 1.94386E+01-2.74864E-02 1.08141E-02 1.46117E+00-2.39094E-14-5.66047E-14
 -1      4111 1.91785E+01 3.68505E-01 2.89014E-03 1.16366E+00-1.38371E-16-3.52937E-14
 -1      4112 1.93928E+01-2.46990E-01-1.80557E-03 1.70049E+00-7.15613E-15-8.32394E-14
 -1      4113 1.95379E+01-4.98870E-01 1.27555E-02 1.89708E+00 2.05610E-14-1.17700E-13
 -1      4114 1.90405E+01 3.10025E-02-6.56059E-03 1.60444E+00-4.09645E-14-3.77004E-14
 -1      4115 1.96691E+01-8.17241E-01 3.74952E-03 2.13616E+00 6.31244E-14-1.19266E-13
 -1      4116 1.99527E+01-1.18587E+00 9.77590E-03 2.32181E+00 2.43913E-14-7.82341E-14
 -1      4117 1.95731E+01-1.18987E+00-7.75875E-03 2.58430E+00 3.22060E-14-1.14003E-13
 -1      4118 1.91208E+01-4.63325E-01-3.97370E-03 2.11843E+00 3.00528E-14-1.13585E-13
 -1      4119 1.98214E+01 2.93783E-01-1.00525E-03 7.52863E-02-7.17277E-14 1.17368E-13
 -1      4120 1.97864E+01 3.31462E-01-1.01908E-03 8.51491E-02-1.13056E-13 3.62894E-14
 -1      4121 1.99703E+01 9.88598E-02-2.99279E-04 2.52842E-02 5.24459E-13 7.63517E-14
 -1      4122 1.99622E+01 1.14847E-01-1.23562E-04 3.09842E-02 3.65377E-13 8.27087E-14
 -1      4123 1.91278E+01 1.10988E+00 1.00441E-02-9.44195E-02 2.61325E-14 1.46053E-14
 -1      4124 1.92411E+01 1.08131E+00-4.23656E-03-2.83881E-01 3.33633E-14 1.09337E-14
 -1      4125 1.94466E+01 1.07992E+00-3.64549E-03-2.11117E-01 3.53231E-14 2.20792E-15
 -1      4126 2.06129E+01-2.07998E+00 5.09752E-02-2.91066E+00 6.99037E-14-2.35208E-13
 -1      4127 2.18269E+01-2.58936E+00-4.79184E-02-2.10195E+00 2.35995E-13 6.68294E-14
 -1      4128 2.26556E+01-2.46815E+00 5.55811E-02-1.42286E+00 2.46693E-13 2.12284E-13
 -1      4129 1.92849E+01-3.12970E-01 1.18184E-02-1.76726E+00-7.12676E-14-2.30528E-13
 -1      4130 1.91289E+01-8.95922E-02-4.18872E-03-1.57405E+00-1.23398E-13-1.71047E-13
 -1      4131 1.88233E+01-2.83005E-01-7.09600E-03-2.03535E+00 2.20939E-14-3.84391E-13
 -1      4132 1.91681E+01 9.96478E-02 1.14725E-02-1.34093E+00-3.02410E-13-4.33611E-14
 -1      4133 1.91008E+01 2.31983E-01-3.56106E-03-1.17587E+00-2.94064E-13-6.16126E-14
 -1      4134 1.87873E+01 1.69901E-01-4.50339E-03-1.49713E+00-1.31785E-13-1.73704E-13
 -1      4135 1.91712E+01 3.40522E-01 7.15053E-03-9.98198E-01-2.59406E-13-1.02006E-13
 -1      4136 1.91554E+01 4.09467E-01-6.30953E-03-8.65165E-01-2.22867E-13-1.87239E-13
 -1      4137 1.88920E+01 4.20759E-01-3.26758E-04-1.07346E+00-3.25349E-13-2.41485E-14
 -1      4138 1.92491E+01 4.62588E-01 5.32281E-03-7.25571E-01-2.28483E-13-1.87389E-13
 -1      4139 1.92694E+01 4.87742E-01-3.56884E-03-6.24247E-01-1.17943E-13-2.50406E-13
 -1      4140 1.90308E+01 5.54292E-01 3.95868E-03-7.58105E-01-1.68827E-13-5.91440E-14
 -1      4141 1.93530E+01 5.04211E-01 3.04553E-03-5.27253E-01-3.03185E-14-2.95023E-13
 -1      4142 1.93883E+01 5.02744E-01-3.04877E-03-4.49416E-01-8.98553E-14-2.47527E-13
 -1      4143 1.92023E+01 5.81053E-01 4.42826E-03-5.28639E-01-9.86715E-14-1.96074E-13
 -1      4144 1.94656E+01 4.95013E-01 1.68318E-03-3.78833E-01-1.72190E-13-1.22423E-13
 -1      4145 1.95027E+01 4.76553E-01-3.79002E-03-3.21483E-01-1.69904E-13-2.05376E-13
 -1      4146 1.93512E+01 5.61444E-01 2.32410E-03-3.64713E-01-4.26545E-14-1.22150E-13
 -1      4147 1.95738E+01 4.57565E-01 1.35858E-03-2.69282E-01-1.10662E-13-9.93105E-14
 -1      4148 1.96108E+01 4.29529E-01-2.80182E-03-2.26803E-01-3.64379E-14-4.79956E-14
 -1      4149 1.94886E+01 5.21837E-01 4.94448E-03-2.47618E-01-9.16648E-14-9.50368E-15
 -1      4150 1.96694E+01 4.02845E-01 6.23524E-04-1.91093E-01-9.03148E-14-8.48371E-14
 -1      4151 1.97035E+01 3.71829E-01-2.12945E-03-1.59890E-01-1.17161E-13-1.31019E-13
 -1      4152 1.96089E+01 4.56758E-01 4.54071E-03-1.67903E-01-1.47869E-13 6.21539E-14
 -1      4153 1.97506E+01 3.43029E-01 2.77092E-04-1.35098E-01-1.31758E-13-1.65251E-13
 -1      4154 1.97799E+01 3.12328E-01-1.59075E-03-1.12160E-01-6.73430E-14-1.79600E-13
 -1      4155 1.97067E+01 3.87494E-01 3.63705E-03-1.13226E-01-1.02526E-13-8.60514E-14
 -1      4156 1.98169E+01 2.84147E-01 7.16150E-05-9.50470E-02-7.04662E-14-2.30482E-13
 -1      4157 1.98410E+01 2.55719E-01-1.17811E-03-7.81750E-02-1.83605E-13-2.85937E-13
 -1      4158 1.97853E+01 3.20356E-01 2.82292E-03-7.58367E-02-1.54362E-13-2.93468E-13
 -1      4159 1.98696E+01 2.29847E-01-3.82799E-05-6.64337E-02-6.26867E-14-1.53859E-13
 -1      4160 1.98886E+01 2.04704E-01-8.65077E-04-5.40246E-02 8.34524E-14-9.65791E-14
 -1      4161 1.98469E+01 2.58983E-01 2.14833E-03-5.04707E-02-1.78290E-14-5.14719E-14
 -1      4162 1.99101E+01 1.81996E-01-8.64666E-05-4.60057E-02 1.73528E-13-1.02340E-13
 -1      4163 1.99246E+01 1.60511E-01-6.29249E-04-3.68807E-02 2.17779E-13-2.14728E-14
 -1      4164 1.98940E+01 2.05164E-01 1.60386E-03-3.33490E-02 1.94935E-13 7.40195E-14
 -1      4165 1.99403E+01 1.41255E-01-9.66379E-05-3.14132E-02 1.65749E-13-9.93421E-14
 -1      4166 1.99511E+01 1.23373E-01-4.43128E-04-2.47028E-02 1.18797E-13 3.37063E-14
 -1      4167 1.99292E+01 1.59423E-01 1.15349E-03-2.18438E-02 2.44677E-13 5.11228E-14
 -1      4168 1.99623E+01 1.07321E-01-1.30940E-04-2.09953E-02 1.73136E-14 2.45255E-13
 -1      4169 1.99704E+01 9.30315E-02-1.57619E-04-1.60298E-02-1.03755E-13 3.41779E-13
 -1      4170 1.99544E+01 1.21282E-01 6.51170E-04-1.41844E-02 2.30951E-13 1.40485E-13
 -1      4171 1.99805E+01 7.42433E-02-1.24209E-04-1.29386E-02-2.40713E-14 5.46656E-13
 -1      4172 1.98791E+01 2.28595E-01-8.38334E-04 6.08454E-02 1.17825E-13 6.23108E-14
 -1      4173 1.98544E+01 2.59810E-01-6.16039E-04 7.03630E-02-5.42898E-15 7.83287E-14
 -1      4174 1.98298E+01 2.89318E-01 2.76256E-03 4.67547E-02 4.26213E-14 2.14764E-13
 -1      4175 1.65024E+01 1.46023E+00 2.22845E-04-2.48358E-01 1.27293E-13 1.36898E-14
 -1      4176 1.58130E+01 1.35203E+00 2.00178E-02-9.73095E-01 2.02212E-14 4.83805E-14
 -1      4177 2.00962E+01-1.64668E+00 3.05778E-02-2.75392E+00-3.29798E-14-3.18808E-13
 -1      4178 1.99498E+01 1.32736E-01-5.17255E-04 3.52121E-02 2.02515E-13 1.80842E-13
 -1      4179 1.99381E+01 1.53133E-01-1.89664E-04 4.24410E-02 3.41087E-13 1.23372E-13
 -1      4180 1.99519E+01 1.31021E-01 9.62652E-04 2.41590E-02 3.91959E-13 4.72317E-14
 -1      4181 1.97424E+01 3.72407E-01-1.16458E-03 8.87270E-02-1.39845E-13-2.09424E-14
 -1      4182 1.96934E+01 4.17000E-01-1.62737E-03 9.76682E-02-1.84294E-13 2.94162E-14
 -1      4183 1.97553E+01 3.65614E-01 3.69561E-03 5.10409E-02-1.52786E-13 1.69614E-13
 -1      4184 1.99260E+01 1.24660E+00-4.87780E-03 2.10051E-01 4.17191E-14-5.62171E-14
 -1      4185 1.93280E+01-1.05016E+00-2.58336E-03-2.56305E+00-8.33630E-14-3.13048E-13
 -1      4186 1.97710E+01 7.96196E-01-2.19322E-03 4.84943E-01 6.10102E-14-9.71706E-14
 -1      4187 1.97249E+01 7.02592E-01 3.12921E-03 5.82633E-01 6.30415E-14-9.95945E-14
 -1      4188 2.00048E+01 1.81147E+00 4.56393E-04-5.28382E-02 7.95750E-14-1.18488E-13
 -1      4189 1.73451E+01 1.39753E+00-4.18479E-03 2.22986E-02 2.80592E-15-5.21876E-14
 -1      4190 1.68328E+01 1.46374E+00-9.92198E-03-5.52279E-02 8.84288E-14 2.57288E-14
 -1      4191 1.68960E+01 1.28791E+00 3.48817E-03-6.70818E-01 1.58294E-14 6.85363E-14
 -1      4192 1.75413E+01 1.31784E+00 1.72600E-02-2.80525E-01 5.35536E-15 4.63442E-15
 -1      4193 1.96260E+01 6.05220E-01-3.67139E-03 6.94166E-01 7.82844E-14-9.33148E-14
 -1      4194 1.95895E+01 5.13344E-01 5.01564E-03 8.09192E-01 7.18283E-14-7.26039E-14
 -1      4195 1.93669E+01 5.91058E-01 5.85384E-03 8.29649E-01 8.40407E-14-1.03969E-13
 -1      4196 1.99873E+01 6.18962E-02 8.70093E-05 9.35736E-03 1.15899E-13 1.61404E-13
 -1      4197 1.99878E+01 6.22103E-02-2.09532E-04 1.35150E-02 1.95540E-13 1.18909E-14
 -1      4198 1.99852E+01 7.04994E-02 7.86682E-05 1.67712E-02 4.78417E-13 3.21763E-15
 -1      4199 1.99833E+01 6.96912E-02 7.71290E-05 6.81057E-03 1.73777E-13 3.76237E-13
 -1      4200 1.62920E+01 9.65096E-01-1.60174E-02-1.52869E+00 2.08037E-14-1.12228E-13
 -1      4201 1.75570E+01 1.29423E+00-1.28295E-03 1.33996E-02 1.79414E-15 2.82836E-14
 -1      4202 1.96355E+01 4.65474E-01-1.28440E-03 9.80215E-02-1.59942E-13 1.23306E-13
 -1      4203 1.95675E+01 5.16975E-01-2.50702E-03 1.03918E-01-4.07863E-14 1.30540E-13
 -1      4204 1.96553E+01 4.54872E-01 4.84476E-03 4.88609E-02-1.24395E-13 1.98506E-13
 -1      4205 1.89644E+01 9.28500E-01-3.14719E-03 2.88500E-01-1.50861E-14-7.82262E-14
 -1      4206 1.87771E+01 1.01247E+00-6.23299E-03 2.95234E-01 4.86849E-14-1.27059E-13
 -1      4207 1.86268E+01 1.05760E+00 9.19910E-03 8.94902E-02-8.64890E-14-2.48078E-13
 -1      4208 1.89969E+01 8.99632E-01 6.57753E-03 1.54636E-01-1.07971E-13 9.50948E-14
 -1      4209 1.99402E+01 1.88850E+00 1.44876E-03 1.17427E-02 8.18715E-14-7.03789E-14
 -1      4210 1.94921E+01 5.73165E-01-1.29526E-03 9.82856E-02 2.32012E-14 1.86097E-13
 -1      4211 1.93993E+01 6.30541E-01-3.68604E-03 9.78075E-02-7.04526E-14 1.77371E-13
 -1      4212 1.95222E+01 5.56256E-01 6.01987E-03 3.44423E-02-4.42859E-14 7.69429E-14
 -1      4213 1.95465E+01 1.13783E+00 5.76306E-03-5.63567E-02 2.08712E-14 2.64944E-14
 -1      4214 1.98513E+01 1.09533E+00-6.77859E-04 2.50198E-01 3.11286E-14-5.54373E-14
 -1      4215 1.99205E+01 1.75432E-01-6.80636E-04 4.71962E-02 3.34831E-13 1.16557E-13
 -1      4216 1.99034E+01 2.00857E-01-3.55538E-04 5.57044E-02 3.12897E-13 5.27529E-14
 -1      4217 1.98846E+01 2.25546E-01 2.03361E-03 3.95952E-02 2.39876E-13-2.26346E-14
 -1      4218 1.99242E+01 1.73238E-01 1.46787E-03 3.16953E-02 2.57666E-13 1.33876E-13
 -1      4219 1.95617E+01 1.08451E+00-6.00042E-03 8.62869E-02 2.29306E-14 2.85991E-15
 -1      4220 1.96089E+01 1.07985E+00 5.00106E-03 1.86610E-01 1.40873E-14-4.51710E-14
 -1      4221 1.93953E+01 1.04607E+00-5.52397E-04 7.59903E-02 1.82047E-14-1.20017E-14
 -1      4222 1.87221E+01 9.49646E-01-2.56504E-03-5.64463E-02-1.63224E-13 6.81932E-14
 -1      4223 1.84990E+01 1.01200E+00-9.09217E-03-1.16336E-01-2.45728E-13-8.94285E-14
 -1      4224 1.84674E+01 9.87464E-01 1.21813E-02-3.55780E-01-2.15081E-13 1.21397E-13
 -1      4225 1.82971E+01 1.07380E+00 5.52159E-04-2.14418E-01-1.25913E-13-8.26526E-14
 -1      4226 1.79978E+01 1.11778E+00-9.42024E-03-3.17575E-01-8.55352E-14-5.63649E-14
 -1      4227 1.99804E+01 7.90781E-02-2.04137E-04 1.88105E-02 4.81959E-13-7.53563E-14
 -1      4228 1.99766E+01 8.87673E-02 7.05422E-06 2.28066E-02 4.90053E-13 6.32032E-14
 -1      4229 1.99692E+01 9.99390E-02 2.51938E-04 1.76953E-02 5.38380E-13-5.91578E-14
 -1      4230 1.99795E+01 7.99041E-02 1.66873E-04 1.35343E-02 4.18632E-13 8.76354E-14
 -1      4231 1.95623E+01 7.60564E-01 5.10613E-03 5.77921E-01 7.58635E-14-1.34397E-13
 -1      4232 1.78110E+01 1.20980E+00 1.81616E-02 3.04152E-01 5.73955E-15-4.14178E-14
 -1      4233 1.69653E+01 9.53199E-01 4.92952E-03-1.33026E+00 4.87733E-14-1.13797E-13
 -1      4234 1.68871E+01 6.63176E-01 3.21411E-02-1.96449E+00 2.19605E-14-1.12098E-13
 -1      4235 1.88853E+01 1.03334E+00-7.53782E-03 1.36503E-01 4.09680E-14-8.67828E-15
 -1      4236 1.91565E+01 1.01597E+00-6.91136E-03 1.23794E-01 3.47947E-14 1.61190E-15
 -1      4237 1.92381E+01 9.86218E-01 8.45024E-03 2.84729E-01 4.32596E-14-7.82755E-14
 -1      4238 1.74167E+01 2.76664E-01-1.86709E-02 2.03464E+00-2.63796E-14-8.27402E-14
 -1      4239 1.66723E+01 8.42199E-01 1.58142E-02 1.55074E+00-1.43358E-14-1.25613E-13
 -1      4240 1.93447E+01 6.64201E-01 5.44187E-03-1.57302E-03-5.21515E-14 6.77956E-14
 -1      4241 1.93029E+01 6.94200E-01-8.64427E-04 8.19622E-02-1.37463E-13 2.16874E-13
 -1      4242 1.91809E+01 7.56450E-01-3.57372E-03 7.14937E-02-9.54840E-14 1.01007E-13
 -1      4243 1.76374E+01 3.15743E-02-2.23936E-02-2.30288E+00-1.80108E-14-3.07906E-13
 -1      4244 1.97987E+01 9.78507E-01-9.81009E-04 3.34262E-01 3.47388E-14-6.47545E-14
 -1      4245 1.99787E+01 7.69570E-02 2.94510E-05 2.17003E-03 5.87283E-14 7.52142E-13
 -1      4246 1.99785E+01 7.80194E-02-1.66430E-04 7.44961E-03 2.75335E-13 3.01367E-13
 -1      4247 1.99742E+01 8.76866E-02 6.83618E-05 8.92706E-03 2.69588E-13 1.41011E-13
 -1      4248 1.73055E+01 9.49977E-01 5.76480E-03 1.05205E+00-1.90056E-14-9.62734E-14
 -1      4249 1.99756E+01 8.38889E-02 2.29331E-04-8.45231E-03 7.11182E-14 6.76474E-13
 -1      4250 1.85820E+01-5.45506E-01 2.27144E-02-2.60497E+00-4.05091E-14-4.83643E-13
 -1      4251 1.81028E+01 5.28680E-02 4.75853E-03-2.07905E+00 4.48845E-14-3.50503E-13
 -1      4252 1.91163E+01-1.09872E+00 1.87796E-02 2.86995E+00 2.78924E-14-1.22795E-13
 -1      4253 1.84405E+01-4.85198E-01-1.79255E-02 2.47832E+00 3.28028E-14-1.03957E-13
 -1      4254 1.83579E+01 1.02305E+00-1.77662E-02 3.48966E-01 5.51755E-14-7.63402E-14
 -1      4255 1.86619E+01 1.01893E+00-6.00813E-03 2.50466E-01 6.46006E-14-4.31260E-14
 -1      4256 1.87884E+01 9.57159E-01 1.43020E-02 4.85185E-01 7.92158E-14-1.01032E-13
 -1      4257 1.87103E+01-2.60194E-01 9.59247E-04 2.11510E+00 1.69239E-14-5.28216E-14
 -1      4258 1.79649E+01 9.19915E-02 2.09174E-02 2.15334E+00-2.86433E-14-5.49519E-14
 -1      4259 1.77296E+01 4.49603E-01-1.81186E-02 1.69074E+00-2.57149E-14-7.00126E-14
 -1      4260 1.85785E+01 1.20340E-02-1.37984E-02 1.84526E+00-8.78385E-15 1.71748E-15
 -1      4261 1.99792E+01 7.55196E-02-8.19847E-05-2.42377E-03 8.08093E-14 6.31792E-13
 -1      4262 1.99686E+01 9.42295E-02-2.17135E-04-4.45230E-03 2.81404E-13 4.78617E-13
 -1      4263 1.77533E+01 7.73357E-01 1.74008E-02 1.25963E+00-1.95850E-15-1.04542E-13
 -1      4264 1.76176E+01 9.68963E-01-1.64476E-02 8.39071E-01 3.45600E-15-1.23134E-13
 -1      4265 1.80786E+01 2.96783E-01-6.30358E-03-1.76132E+00 6.47805E-14-2.84220E-13
 -1      4266 1.86178E+01 5.59663E-01 3.63408E-03-1.05937E+00-2.75839E-13-5.90915E-14
 -1      4267 1.86707E+01 6.27065E-01-5.60910E-03-8.77122E-01-2.15397E-13 3.53064E-14
 -1      4268 1.87541E+01 7.44578E-01 6.98370E-04-5.90467E-01-2.13805E-13 3.99912E-14
 -1      4269 1.88508E+01 7.45929E-01-5.34956E-03-4.67377E-01-1.43759E-13 3.85021E-14
 -1      4270 1.92417E+01 6.26410E-01-8.86637E-05-3.19237E-01-2.23502E-14-1.18993E-13
 -1      4271 1.93185E+01 6.09297E-01 1.33582E-03-2.54452E-01 1.70356E-14-1.53983E-13
 -1      4272 1.94025E+01 5.78538E-01-1.85198E-03-1.38729E-01-6.60282E-15-1.08715E-14
 -1      4273 1.94686E+01 5.38331E-01-4.92892E-03-9.64054E-02-1.10846E-13 8.02387E-14
 -1      4274 1.95474E+01 4.92147E-01-2.97062E-03-7.96118E-02-1.59299E-13 1.80846E-13
 -1      4275 1.96039E+01 4.53620E-01-3.91871E-03-5.00871E-02-9.46167E-14 1.96942E-13
 -1      4276 1.96646E+01 4.10305E-01-2.63841E-03-4.24479E-02-1.61237E-13 1.55354E-13
 -1      4277 1.97110E+01 3.73834E-01-2.89942E-03-2.26352E-02-1.56266E-13 6.98919E-14
 -1      4278 1.97568E+01 3.35010E-01-2.15794E-03-2.03804E-02-1.15459E-13 6.63380E-14
 -1      4279 1.97937E+01 3.02032E-01-2.09020E-03-7.31388E-03-6.96880E-14 5.79480E-14
 -1      4280 1.98278E+01 2.68384E-01-1.70714E-03-7.98156E-03 7.84012E-14 2.34915E-14
 -1      4281 1.98563E+01 2.39623E-01-1.48272E-03 5.41558E-04 2.18817E-13 1.17163E-13
 -1      4282 1.98813E+01 2.11231E-01-1.31722E-03-1.51985E-03 2.25784E-13 1.54512E-13
 -1      4283 1.99028E+01 1.86859E-01-1.03054E-03 3.99187E-03 1.93040E-13 1.80133E-13
 -1      4284 1.99208E+01 1.63443E-01-9.77579E-04 1.46845E-03 1.78439E-13 2.41294E-13
 -1      4285 1.99368E+01 1.43272E-01-6.67260E-04 5.00739E-03 3.04312E-13 1.70001E-13
 -1      4286 1.99495E+01 1.24536E-01-5.82824E-04 2.61168E-03 4.55787E-13 6.66565E-14
 -1      4287 1.99609E+01 1.08235E-01-2.69735E-04 4.50526E-03 4.08917E-13 2.26485E-13
 -1      4288 1.71246E+01 1.06794E+00-1.13092E-03-1.04622E+00 7.05815E-14-8.72923E-14
 -1      4289 1.75656E+01 7.09625E-01-6.88134E-03-1.45148E+00 1.11779E-13-1.20438E-13
 -1      4290 1.74547E+01 1.08664E+00 2.29160E-03-8.18070E-01 8.56245E-14-3.15292E-14
 -1      4291 1.81376E+01 1.01840E+00 8.07187E-04 5.25783E-01 3.50501E-14-8.37749E-14
 -1      4292 1.92001E+01 8.01011E-01-7.61409E-03 5.38149E-01 7.71646E-14-1.22746E-13
 -1      4293 1.90927E+01 7.34825E-01-5.17810E-04 6.80152E-01 8.13502E-14-1.17353E-13
 -1      4294 1.96792E+01 9.96325E-01-3.57532E-03 3.11046E-01 3.04464E-14-7.27555E-14
 -1      4295 1.88701E+01 6.80006E-01-1.14482E-02 8.30109E-01 6.38328E-14-1.09186E-13
 -1      4296 1.90520E+01 8.22756E-01-1.21032E-03 3.30463E-02-6.89660E-14 4.98056E-14
 -1      4297 1.88867E+01 8.88032E-01-5.30350E-03 5.04541E-03-2.37296E-14 4.45208E-14
 -1      4298 1.91246E+01 7.69992E-01 4.49891E-03-6.89179E-02-1.13590E-13 5.89099E-14
 -1      4299 1.87800E+01 5.97619E-01 3.17795E-03 1.01382E+00-9.74996E-16-8.51338E-14
 -1      4300 1.95323E+01 9.16268E-01-3.21709E-03 3.54508E-01 3.32627E-14-8.95460E-14
 -1      4301 1.94278E+01 8.38538E-01-3.95509E-03 4.58005E-01 4.17179E-14-1.23120E-13
 -1      4302 1.82345E+01 4.44278E-01 8.60497E-03-1.49137E+00 1.47663E-13-2.92529E-13
 -1      4303 1.88273E+01 8.78754E-01 2.22460E-03-1.82359E-01-1.24014E-13 3.32034E-14
 -1      4304 1.85112E+01 8.61455E-01-1.57622E-03-5.46727E-01-2.48439E-13 1.19929E-13
 -1      4305 1.86765E+01 3.63796E-01-7.30435E-03 1.37303E+00-4.42716E-14-1.79973E-14
 -1      4306 1.86455E+01 2.02986E-01 1.05511E-02 1.62143E+00-1.01240E-14 1.47460E-14
 -1      4307 1.82824E+01 5.66107E-01-5.33460E-03-1.24030E+00-2.32258E-14-1.58408E-13
 -1      4308 1.81000E+01 8.04890E-01 2.45264E-03-1.00309E+00-3.48072E-15-8.04305E-14
 -1      4309 1.88626E+01 8.38531E-01 5.17765E-03-2.76506E-01-2.06853E-13 6.49765E-14
 -1      4310 1.90561E+01 6.59185E-01-3.24281E-03-4.63906E-01-2.06169E-13 5.31395E-15
 -1      4311 1.91425E+01 6.51400E-01-5.03455E-03-3.64429E-01-1.77959E-13-8.27115E-14
 -1      4312 1.99678E+01 9.90152E-02 1.68985E-04 1.07004E-02 4.64238E-13 1.50380E-13
 -1      4313 1.93059E+01 6.24558E-01-3.63445E-03-1.71643E-01-3.06370E-14-8.14567E-14
 -1      4314 1.82477E+01 4.09585E-01 1.23806E-02 1.58335E+00-1.03111E-14 4.84757E-14
 -1      4315 1.83385E+01 9.01864E-01 2.24734E-02 7.96800E-01 4.53630E-14-9.46608E-14
 -1      4316 1.91392E+01 7.06107E-01 1.75497E-03-2.43520E-01-1.54432E-13 1.21299E-13
 -1      4317 1.90236E+01 7.78044E-01 2.11699E-03-1.99090E-01-1.63847E-13 4.45462E-14
 -1      4318 1.81070E+01 5.24367E-01-4.15196E-03 1.41804E+00-3.40505E-15-5.82151E-14
 -1      4319 1.79977E+01 1.01958E+00 6.93713E-03-6.43271E-01-2.98781E-14-7.77970E-14
 -1      4320 1.77428E+01 1.15404E+00 2.64468E-03-4.73303E-01-1.10294E-14-9.59822E-14
 -1      4321 1.91004E+01 7.42072E-01-2.52089E-03-1.62943E-01-7.15871E-14 1.22695E-13
 -1      4322 1.83217E+01 8.78353E-01-3.17023E-03-6.77439E-01-6.98730E-14 5.65625E-14
 -1      4323 1.83858E+01 7.33619E-01-2.33839E-03 9.89212E-01 2.31633E-14-8.39304E-14
 -1      4324 1.79771E+01 9.36064E-01-3.10794E-03-7.95708E-01 2.27193E-14-7.26027E-14
 -1      4325 1.74494E+01 1.14728E+00-6.96028E-03-6.52627E-01 7.15078E-14-5.04133E-14
 -1      4326 1.92229E+01 6.86922E-01-2.51153E-03-1.18798E-01-5.11509E-14 5.01899E-15
 -1      4327 1.81200E+01 6.34464E-01-2.26109E-02 1.22157E+00 3.29635E-15-6.58792E-14
 -1      4328 1.77043E+01 9.32518E-01-3.06135E-03-9.99338E-01 1.19547E-13-9.41844E-14
 -3
    1PSTEP                         3           1           1          
  100CL  101 1.000000000        4328                     0    1           1
 -4  TOSTRAIN    6    1
 -5  EXX         1    4    1    1
 -5  EYY         1    4    2    2
 -5  EZZ         1    4    3    3
 -5  EXY         1    4    1    2
 -5  EYZ         1    4    2    3
 -5  EZX         1    4    3    1
 -1         1 2.11518E-05 2.44508E-05-2.14502E-05 4.19502E-05-2.10445E-18-2.28487E-18
 -1         2 3.80049E-05-1.15958E-04 2.12946E-05 2.65858E-07 4.82105E-18-1.24884E-19
 -1         3 9.52379E-05-2.85704E-05-2.85716E-05 1.55302E-09 3.35602E-18 3.86672E-18
 -1         4 9.52377E-05-2.85705E-05-2.85715E-05-1.16815E-09 6.42422E-19 4.90478E-19
 -1         5 1.42312E-04-2.12734E-05-4.23335E-05 3.82053E-05-9.72500E-20 4.88727E-18
 -1         6 1.44411E-04 2.56729E-10-4.40058E-05-5.30565E-05-4.35587E-19-8.87585E-19
 -1         7 9.06400E-05-5.41556E-07-3.90278E-05-2.88127E-05-7.01979E-20-2.97261E-18
 -1         8 8.53277E-05 6.93363E-08-3.63978E-05-1.96974E-05 1.78671E-20-2.85117E-18
 -1         9 8.30571E-05 6.54140E-08-3.54387E-05-1.49676E-05 3.01755E-20-2.51668E-18
 -1        10 8.19603E-05 3.40787E-08-3.49575E-05-1.13763E-05 7.12633E-20-2.11682E-18
 -1        11 8.13447E-05 1.77555E-08-3.46966E-05-8.35655E-06 6.00533E-20-1.76021E-18
 -1        12 8.09709E-05 1.04614E-08-3.45449E-05-5.73936E-06 7.59749E-20-1.46239E-18
 -1        13 8.07407E-05 8.07862E-09-3.44553E-05-3.31609E-06 7.08232E-20-1.16504E-18
 -1        14 8.06316E-05 7.41485E-09-3.44140E-05-1.03417E-06 6.10550E-20-8.63818E-19
 -1        15 8.06346E-05 7.45259E-09-3.44159E-05 1.19711E-06 8.19765E-20-5.98152E-19
 -1        16 8.07520E-05 8.05783E-09-3.44615E-05 3.46878E-06 7.72041E-20-2.84638E-19
 -1        17 8.09961E-05 9.40527E-09-3.45567E-05 5.87884E-06 8.34592E-20 3.95574E-20
 -1        18 8.13882E-05 1.57461E-08-3.47142E-05 8.48875E-06 6.50230E-20 5.01319E-19
 -1        19 8.20235E-05 3.11251E-08-3.49815E-05 1.15278E-05 8.70326E-20 1.04960E-18
 -1        20 8.31167E-05 6.85989E-08-3.54655E-05 1.51646E-05 8.10637E-20 1.69934E-18
 -1        21 8.53150E-05 1.48350E-07-3.64414E-05 1.98816E-05 6.70744E-20 2.60976E-18
 -1        22 9.16027E-05-1.27578E-07-3.86892E-05 2.75510E-05 5.61159E-21 3.78796E-18
 -1        23 1.12660E-04-3.80260E-05-3.53086E-05-4.28715E-06-2.76742E-19-2.19540E-18
 -1        24 9.30287E-05-2.77683E-05-2.90569E-05 4.03002E-07-4.67754E-20-3.24528E-18
 -1        25 8.97709E-05-2.70503E-05-2.71228E-05 3.79865E-07-9.40835E-21-3.98529E-18
 -1        26 8.91191E-05-2.68220E-05-2.67261E-05 2.09836E-07-6.96552E-20-4.78955E-18
 -1        27 8.96773E-05-2.69599E-05-2.68803E-05 1.49449E-07 3.20284E-21-4.91908E-18
 -1        28 9.08551E-05-2.72893E-05-2.72445E-05 1.15951E-07-3.67806E-21-4.76751E-18
 -1        29 9.23802E-05-2.77322E-05-2.77084E-05 9.70513E-08 2.30316E-20-4.51824E-18
 -1        30 9.40919E-05-2.82364E-05-2.82231E-05 8.60197E-08 3.77667E-20-4.62123E-18
 -1        31 9.58625E-05-2.87605E-05-2.87515E-05 7.85927E-08-3.35128E-20-5.47562E-18
 -1        32 9.75562E-05-2.92626E-05-2.92531E-05 7.08996E-08-1.06212E-19-6.27756E-18
 -1        33 9.90030E-05-2.96911E-05-2.96762E-05 5.84383E-08 2.42827E-19-6.18932E-18
 -1        34 9.99843E-05-2.99808E-05-2.99553E-05 3.58874E-08-1.96963E-19-6.36037E-18
 -1        35 1.00239E-04-3.00542E-05-3.00142E-05-2.02954E-09 1.10263E-19-6.45154E-18
 -1        36 9.95000E-05-2.98323E-05-2.97777E-05-5.82235E-08-5.35202E-20-5.89776E-18
 -1        37 9.75754E-05-2.92582E-05-2.91964E-05-1.29421E-07-8.46595E-20-5.35871E-18
 -1        38 9.44634E-05-2.83315E-05-2.82789E-05-2.02211E-07-1.53040E-19-5.24139E-18
 -1        39 9.04707E-05-2.71430E-05-2.71221E-05-2.52410E-07-2.56447E-19-5.24368E-18
 -1        40 8.62610E-05-2.58898E-05-2.59194E-05-2.52204E-07 2.09129E-19-5.17278E-18
 -1        41 8.27520E-05-2.48448E-05-2.49278E-05-1.85100E-07 1.07500E-19-5.89027E-18
 -1        42 8.08458E-05-2.42770E-05-2.43933E-05-6.05549E-08-1.62459E-19-6.68188E-18
 -1        43 8.10861E-05-2.43489E-05-2.44620E-05 8.42974E-08-5.83766E-20-5.97463E-18
 -1        44 8.34258E-05-2.50463E-05-2.51215E-05 2.01493E-07 9.83849E-20-5.02398E-18
 -1        45 8.72505E-05-2.61859E-05-2.62068E-05 2.57792E-07 1.23546E-19-4.27760E-18
 -1        46 9.16435E-05-2.74943E-05-2.74675E-05 2.48911E-07-3.62384E-19-5.68403E-18
 -1        47 9.57285E-05-2.87110E-05-2.86570E-05 1.94722E-07 3.77983E-19-3.94066E-18
 -1        48 9.89140E-05-2.96605E-05-2.96013E-05 1.23342E-07-3.04884E-19-2.80399E-18
 -1        49 1.00964E-04-3.02728E-05-3.02236E-05 5.73553E-08 2.47848E-19-4.31616E-18
 -1        50 1.01932E-04-3.05638E-05-3.05306E-05 8.39898E-09-3.97600E-19-5.46830E-18
 -1        51 1.02039E-04-3.05985E-05-3.05807E-05-2.13753E-08 3.50260E-19-5.29397E-18
 -1        52 1.01557E-04-3.04580E-05-3.04519E-05-3.51955E-08 4.87948E-20-3.86953E-18
 -1        53 1.00743E-04-3.02177E-05-3.02188E-05-3.80624E-08-3.95965E-19-4.55387E-18
 -1        54 9.97951E-05-2.99365E-05-2.99412E-05-3.46166E-08 7.10573E-19-4.70517E-18
 -1        55 9.88497E-05-2.96554E-05-2.96612E-05-2.83127E-08-7.47107E-19-4.64855E-18
 -1        56 9.79888E-05-2.93987E-05-2.94042E-05-2.13562E-08 2.64865E-19-4.79931E-18
 -1        57 9.72526E-05-2.91787E-05-2.91832E-05-1.49576E-08-3.26284E-19-5.68910E-18
 -1        58 9.66530E-05-2.89992E-05-2.90025E-05-9.64985E-09 4.32225E-19-4.56412E-18
 -1        59 9.61843E-05-2.88585E-05-2.88608E-05-5.55733E-09-9.36658E-20-2.33234E-18
 -1        60 9.58316E-05-2.87524E-05-2.87538E-05-2.58848E-09-5.34574E-19-8.86847E-19
 -1        61 9.55763E-05-2.86755E-05-2.86762E-05-5.57906E-10 7.12739E-19-8.22705E-19
 -1        62 9.53993E-05-2.86220E-05-2.86222E-05 7.42742E-10-3.46900E-19-4.20207E-19
 -1        63 9.52834E-05-2.85867E-05-2.85867E-05 1.50799E-09-2.13182E-19-1.06480E-18
 -1        64 9.52134E-05-2.85654E-05-2.85652E-05 1.90255E-09-4.63565E-19-4.60052E-18
 -1        65 9.51770E-05-2.85541E-05-2.85538E-05 2.05722E-09 2.49120E-20-5.66629E-18
 -1        66 9.51644E-05-2.85501E-05-2.85498E-05 2.07061E-09 6.14553E-19-5.98959E-18
 -1        67 9.51680E-05-2.85509E-05-2.85506E-05 2.01242E-09 3.32167E-19-2.42717E-18
 -1        68 9.51817E-05-2.85548E-05-2.85546E-05 1.92469E-09-1.22022E-19-9.83167E-19
 -1        69 9.52007E-05-2.85604E-05-2.85601E-05 1.80260E-09 2.86434E-19-1.09467E-18
 -1        70 9.52201E-05-2.85661E-05-2.85656E-05 1.47170E-09 6.59350E-19-2.41159E-19
 -1        71 9.52346E-05-2.85707E-05-2.85696E-05 7.44284E-10 3.75521E-19 1.76708E-19
 -1        72 1.01846E-04-3.04814E-05-3.40493E-05-1.94270E-06-7.21566E-20 5.43647E-18
 -1        73 9.27276E-05-2.75686E-05-2.89478E-05-3.34207E-07 1.62789E-21 5.45566E-18
 -1        74 8.97257E-05-2.68924E-05-2.71567E-05-1.19283E-07 3.57234E-20 5.65249E-18
 -1        75 8.91823E-05-2.67852E-05-2.67823E-05-8.40558E-08 5.46642E-20 5.80196E-18
 -1        76 8.98873E-05-2.69956E-05-2.69652E-05-6.16858E-08 1.54435E-21 6.08489E-18
 -1        77 9.13465E-05-2.74256E-05-2.74097E-05-4.52867E-08 1.34524E-20 6.13893E-18
 -1        78 9.33922E-05-2.80346E-05-2.80342E-05-3.35399E-08-2.47430E-20 6.16613E-18
 -1        79 9.60211E-05-2.88208E-05-2.88358E-05-2.64989E-08 1.06569E-19 6.00015E-18
 -1        80 9.93394E-05-2.98139E-05-2.98488E-05-2.66310E-08-1.36907E-19 5.59336E-18
 -1        81 1.03541E-04-3.10697E-05-3.11329E-05-3.96746E-08 8.41979E-20 4.98963E-18
 -1        82 1.08884E-04-3.26625E-05-3.27642E-05-7.60709E-08 1.60215E-19 4.02627E-18
 -1        83 1.15626E-04-3.46671E-05-3.48107E-05-1.51964E-07-4.96242E-20 3.32003E-18
 -1        84 1.23869E-04-3.71146E-05-3.72743E-05-2.85736E-07-1.65102E-19 4.21650E-18
 -1        85 1.33211E-04-3.98966E-05-3.99728E-05-4.79133E-07-1.21076E-19 5.62861E-18
 -1        86 1.42134E-04-4.25940E-05-4.23661E-05-6.58944E-07 1.42934E-19 5.20357E-18
 -1        87 1.47287E-04-4.42526E-05-4.34425E-05-5.78509E-07-1.02385E-19 4.07790E-18
 -1        88 1.43637E-04-4.33547E-05-4.19900E-05 1.62472E-07-1.52115E-19 4.89469E-18
 -1        89 1.27439E-04-3.85693E-05-3.75768E-05 1.66188E-06 9.27766E-21 4.36825E-18
 -1        90 1.02587E-04-3.07193E-05-3.17089E-05 2.86814E-06-2.84795E-19 5.86771E-18
 -1        91 8.42631E-05-2.46036E-05-2.76814E-05 1.90482E-06-4.23775E-19 6.92044E-18
 -1        92 8.73080E-05-2.53829E-05-2.83797E-05-8.53057E-07 7.80197E-21 6.91650E-18
 -1        93 1.06925E-04-3.16844E-05-3.27874E-05-2.39536E-06-1.98317E-20 5.83362E-18
 -1        94 1.31455E-04-3.95435E-05-3.87269E-05-2.29588E-06-2.24503E-19 2.74365E-18
 -1        95 1.46038E-04-4.40779E-05-4.27530E-05-1.09229E-06 8.62551E-20 3.30560E-18
 -1        96 1.48182E-04-4.46462E-05-4.37453E-05-1.11444E-07 4.59400E-20 3.17616E-18
 -1        97 1.42321E-04-4.27712E-05-4.24382E-05 3.36541E-07 3.00994E-19 1.96686E-18
 -1        98 1.33410E-04-4.00302E-05-4.00352E-05 4.26621E-07 1.53284E-19 1.24366E-18
 -1        99 1.24511E-04-3.73384E-05-3.74691E-05 3.68500E-07-4.72911E-19 2.67668E-18
 -1       100 1.16907E-04-3.50551E-05-3.52028E-05 2.81377E-07-5.58501E-19 8.09818E-18
 -1       101 1.10690E-04-3.31955E-05-3.33141E-05 1.89013E-07 5.10249E-19 6.37341E-18
 -1       102 1.06246E-04-3.18685E-05-3.19543E-05 1.28076E-07 5.62238E-19 2.83018E-18
 -1       103 1.02974E-04-3.08904E-05-3.09498E-05 8.54411E-08-2.29046E-19 2.77647E-18
 -1       104 1.00599E-04-3.01799E-05-3.02202E-05 5.62599E-08 7.27499E-20 4.88054E-18
 -1       105 9.88926E-05-2.96689E-05-2.96960E-05 3.67083E-08-3.91194E-21 3.14073E-18
 -1       106 9.76770E-05-2.93045E-05-2.93228E-05 2.36769E-08-3.02123E-19 4.10186E-18
 -1       107 9.68191E-05-2.90472E-05-2.90594E-05 1.49998E-08-4.18575E-19 3.57134E-18
 -1       108 9.62207E-05-2.88675E-05-2.88758E-05 9.22492E-09-2.01804E-19 4.79430E-18
 -1       109 9.58099E-05-2.87440E-05-2.87496E-05 5.39092E-09-4.04616E-19 4.56021E-18
 -1       110 9.55342E-05-2.86611E-05-2.86648E-05 2.86217E-09 1.05839E-18 1.28853E-19
 -1       111 9.53552E-05-2.86073E-05-2.86097E-05 1.21479E-09-5.17829E-19-4.92791E-18
 -1       112 9.52449E-05-2.85740E-05-2.85756E-05 1.61946E-10 5.40087E-19-4.30988E-18
 -1       113 9.51829E-05-2.85553E-05-2.85562E-05-4.93918E-10-3.86387E-19-1.23129E-18
 -1       114 9.51543E-05-2.85466E-05-2.85472E-05-8.91316E-10-5.03346E-19 9.76754E-19
 -1       115 9.51483E-05-2.85447E-05-2.85450E-05-1.12987E-09 1.87661E-19 2.29311E-18
 -1       116 9.51571E-05-2.85473E-05-2.85474E-05-1.28458E-09 4.29389E-19 4.53253E-19
 -1       117 9.51749E-05-2.85525E-05-2.85526E-05-1.41336E-09-2.63349E-19 2.80006E-18
 -1       118 9.51970E-05-2.85591E-05-2.85589E-05-1.54774E-09 3.73805E-19 2.72059E-18
 -1       119 9.52186E-05-2.85656E-05-2.85651E-05-1.63844E-09-3.30976E-19 3.30929E-18
 -1       120 9.52340E-05-2.85706E-05-2.85695E-05-1.18899E-09-1.70638E-18 6.93288E-18
 -1       121 9.52381E-05-2.85747E-05-2.85696E-05-1.04842E-09 7.40969E-18-9.86324E-19
 -1       122 9.52425E-05-2.85888E-05-2.85656E-05-1.45440E-09 7.22968E-18 3.01090E-19
 -1       123 9.52479E-05-2.86070E-05-2.85605E-05-1.33427E-09 4.31579E-18-1.11337E-18
 -1       124 9.52528E-05-2.86235E-05-2.85558E-05-9.61885E-10 7.28678E-19 1.29918E-18
 -1       125 9.52565E-05-2.86357E-05-2.85521E-05-5.80598E-10-3.31804E-20-1.99829E-18
 -1       126 9.52587E-05-2.86432E-05-2.85498E-05-2.95788E-10-8.34474E-18-1.98044E-19
 -1       127 9.52599E-05-2.86471E-05-2.85485E-05-9.90993E-11-3.92520E-18 1.30974E-18
 -1       128 9.52602E-05-2.86481E-05-2.85482E-05 1.72018E-11-1.23849E-18 6.29037E-19
 -1       129 9.52599E-05-2.86471E-05-2.85485E-05 9.59866E-11 4.68499E-19 4.38230E-19
 -1       130 9.52590E-05-2.86442E-05-2.85494E-05 1.87264E-10 2.24997E-18-1.31006E-18
 -1       131 9.52575E-05-2.86391E-05-2.85510E-05 3.44273E-10-1.33247E-18-6.23897E-19
 -1       132 9.52551E-05-2.86311E-05-2.85534E-05 5.69200E-10-5.94278E-18 1.23879E-18
 -1       133 9.52516E-05-2.86194E-05-2.85570E-05 8.91845E-10-6.72006E-18-2.69674E-19
 -1       134 9.52471E-05-2.86041E-05-2.85614E-05 1.26981E-09-1.48974E-18 6.61930E-19
 -1       135 9.52422E-05-2.85877E-05-2.85660E-05 1.87437E-09-5.40263E-19-8.82228E-19
 -1       136 9.52383E-05-2.85748E-05-2.85696E-05 1.01021E-09-1.55173E-18-1.02001E-19
 -1       137 2.91661E-05-9.96718E-05 1.84023E-05-2.73091E-05 4.58414E-18 1.14274E-18
 -1       138 1.00336E-05-4.82971E-05 6.73322E-06-2.65742E-05 6.70427E-18 3.23164E-18
 -1       139 7.54413E-06 3.43638E-06-1.06827E-05 8.69694E-06 7.66438E-18 4.90093E-18
 -1       140 4.85970E-05 2.48544E-05-3.22911E-05 6.68287E-05 3.55881E-18 4.33046E-18
 -1       141 1.38768E-04 2.11294E-07-5.41881E-05 1.10948E-04 1.16255E-18 5.20078E-19
 -1       142 2.55402E-04-5.64384E-05-7.36006E-05 1.05557E-04-8.78479E-19-2.17179E-18
 -1       143 3.31602E-04-1.00206E-04-8.37434E-05 4.06934E-05 2.19699E-21-3.79598E-18
 -1       144 3.25453E-04-9.65673E-05-8.29662E-05-5.32351E-05 1.86605E-19-3.18611E-18
 -1       145 2.38203E-04-4.68088E-05-7.12085E-05-1.12417E-04 7.31201E-19-1.81265E-18
 -1       146 1.20700E-04 7.65384E-06-5.06149E-05-1.06631E-04 3.50248E-19-1.25700E-18
 -1       147 3.81808E-05 2.36466E-05-2.82822E-05-5.65831E-05 1.06726E-18 1.11385E-19
 -1       148 6.59985E-06-8.78582E-06-6.02545E-06 1.05882E-06-3.03661E-19-2.18111E-19
 -1       149 1.47164E-05-6.51294E-05 1.11402E-05 3.10984E-05-3.59015E-18 1.42990E-18
 -1       150 3.38729E-05-1.08645E-04 1.99150E-05 2.17610E-05-4.72179E-18 9.92034E-19
 -1       151 3.75169E-05-1.14372E-04 2.08706E-05-6.90052E-06-5.69206E-18-5.45622E-19
 -1       152 2.13011E-05-7.59595E-05 1.33038E-05-2.54210E-05-4.99411E-18-7.02190E-19
 -1       153 5.90485E-06-1.73326E-05-1.62712E-06-7.82922E-06-1.32052E-18-4.06152E-19
 -1       154 7.77953E-05 2.55478E-05-4.13841E-05 9.31806E-05-1.70508E-18-1.96427E-18
 -1       155 1.64315E-04-9.74291E-06-5.91124E-05 1.17282E-04-1.53736E-19 3.92176E-19
 -1       156 2.53951E-04-6.00580E-05-7.26456E-05 9.50215E-05 5.61371E-19 2.32383E-18
 -1       157 3.07281E-04-9.31574E-05-7.96023E-05 3.16080E-05-7.00126E-20 5.29925E-18
 -1       158 2.98680E-04-8.72998E-05-7.86919E-05-4.90828E-05-7.01529E-19 5.57337E-18
 -1       159 2.32238E-04-4.72309E-05-6.96334E-05-1.03571E-04-2.00969E-18 6.03765E-18
 -1       160 1.37498E-04 3.18388E-06-5.43695E-05-1.14201E-04-3.50100E-18 5.82716E-18
 -1       161 5.47838E-05 3.07209E-05-3.52867E-05-7.89247E-05-2.66053E-18 3.39787E-18
 -1       162 1.16568E-05 1.65495E-05-1.54460E-05-2.52788E-05-1.13502E-19 3.54907E-19
 -1       163 8.07625E-06-3.33563E-05 3.18054E-06 1.68540E-05 2.43098E-18-8.09763E-19
 -1       164 2.60900E-05-8.71786E-05 1.55624E-05 2.22055E-05 4.24787E-18-1.02009E-18
 -1       165 9.51320E-05-1.25096E-05-3.56076E-05-2.17342E-05-3.55952E-19-2.54457E-18
 -1       166 8.95718E-05-8.56530E-06-3.48754E-05-1.66980E-05 7.88204E-20-2.34934E-18
 -1       167 8.67874E-05-6.52068E-06-3.45098E-05-1.28509E-05 3.79199E-19-2.09653E-18
 -1       168 8.52708E-05-5.41952E-06-3.43040E-05-9.66102E-06 5.55712E-19-1.79178E-18
 -1       169 8.43483E-05-4.74235E-06-3.41834E-05-6.92265E-06 7.03475E-19-1.45337E-18
 -1       170 8.37519E-05-4.29977E-06-3.41097E-05-4.42934E-06 7.22394E-19-1.18105E-18
 -1       171 8.34124E-05-4.04432E-06-3.40697E-05-2.12285E-06 8.38516E-19-8.51837E-19
 -1       172 8.32980E-05-3.95348E-06-3.40584E-05 8.85353E-08 8.94889E-19-6.09705E-19
 -1       173 8.34055E-05-4.02531E-06-3.40749E-05 2.29237E-06 9.51218E-19-3.36385E-19
 -1       174 8.37502E-05-4.27291E-06-3.41204E-05 4.57980E-06 9.70623E-19-7.57367E-20
 -1       175 8.43571E-05-4.71703E-06-3.41983E-05 7.00771E-06 9.47509E-19 2.40445E-19
 -1       176 8.53375E-05-5.44039E-06-3.43240E-05 9.77718E-06 9.35490E-19 7.70363E-19
 -1       177 8.69149E-05-6.60530E-06-3.45319E-05 1.30067E-05 9.24209E-19 1.27942E-18
 -1       178 8.97492E-05-8.70904E-06-3.48944E-05 1.68843E-05 7.14168E-19 1.96140E-18
 -1       179 9.60354E-05-1.37658E-05-3.54647E-05 2.12598E-05 3.56336E-19 2.82324E-18
 -1       180 1.05606E-04-2.61595E-05-3.52283E-05 1.81978E-05-3.22600E-20 3.64669E-18
 -1       181 1.03596E-04-2.73952E-05-3.26546E-05-1.16759E-05-4.70447E-19-2.25485E-18
 -1       182 9.76050E-05-2.84401E-05-2.96759E-05-4.29216E-06-3.54854E-19-2.28330E-18
 -1       183 9.43537E-05-2.78743E-05-2.84422E-05-1.29394E-06-3.09921E-19-2.14322E-18
 -1       184 9.32259E-05-2.77548E-05-2.80227E-05 1.38251E-07-5.94792E-20-2.19069E-18
 -1       185 9.31341E-05-2.78188E-05-2.79731E-05 9.15646E-07-1.78158E-20-2.14455E-18
 -1       186 9.36641E-05-2.80281E-05-2.81204E-05 1.36656E-06 7.45443E-20-2.11541E-18
 -1       187 9.45654E-05-2.83343E-05-2.83806E-05 1.61903E-06-8.29199E-20-2.16385E-18
 -1       188 9.56718E-05-2.86999E-05-2.87012E-05 1.71943E-06-3.02327E-19-2.17408E-18
 -1       189 9.68496E-05-2.90930E-05-2.90401E-05 1.66924E-06-2.68686E-19-1.79060E-18
 -1       190 9.79670E-05-2.94797E-05-2.93556E-05 1.44161E-06-1.70690E-19-1.69019E-18
 -1       191 9.88773E-05-2.98179E-05-2.96029E-05 9.95096E-07-2.32142E-19-2.73301E-18
 -1       192 9.94130E-05-3.00526E-05-2.97335E-05 2.93460E-07-1.98054E-19-2.78006E-18
 -1       193 9.93975E-05-3.01160E-05-2.97003E-05-6.64100E-07 1.02819E-20-3.13068E-18
 -1       194 9.86780E-05-2.99353E-05-2.94684E-05-1.80397E-06 1.30375E-19-3.12804E-18
 -1       195 9.71836E-05-2.94545E-05-2.90313E-05-2.94353E-06 8.09223E-20-2.67669E-18
 -1       196 9.49989E-05-2.86705E-05-2.84270E-05-3.78933E-06 5.96066E-21-2.71751E-18
 -1       197 9.24229E-05-2.76752E-05-2.77451E-05-4.00219E-06 8.18950E-20-2.61335E-18
 -1       198 8.99640E-05-2.66724E-05-2.71173E-05-3.33853E-06-7.32386E-20-2.44340E-18
 -1       199 8.82252E-05-2.59354E-05-2.66855E-05-1.81172E-06-6.25362E-19-2.29277E-18
 -1       200 8.76967E-05-2.57022E-05-2.65582E-05 2.36560E-07 2.99145E-19-2.06956E-18
 -1       201 8.85495E-05-2.60579E-05-2.67721E-05 2.23997E-06 2.69027E-19-2.18148E-18
 -1       202 9.05570E-05-2.68880E-05-2.72792E-05 3.65482E-06-2.66427E-19-2.68402E-18
 -1       203 9.32019E-05-2.79417E-05-2.79650E-05 4.19323E-06-1.10588E-19-2.92962E-18
 -1       204 9.58932E-05-2.89541E-05-2.86890E-05 3.89566E-06 6.84276E-19-1.69637E-18
 -1       205 9.81628E-05-2.97427E-05-2.93274E-05 3.03372E-06 4.92536E-20-2.64455E-18
 -1       206 9.97575E-05-3.02368E-05-2.98014E-05 1.94502E-06-2.39833E-19-2.95118E-18
 -1       207 1.00629E-04-3.04530E-05-3.00831E-05 9.04155E-07-5.49720E-19-2.48470E-18
 -1       208 1.00871E-04-3.04532E-05-3.01858E-05 7.06742E-08 3.03587E-19-2.56171E-18
 -1       209 1.00640E-04-3.03105E-05-3.01467E-05-5.01874E-07 4.04878E-19-2.05876E-18
 -1       210 1.00107E-04-3.00893E-05-3.00111E-05-8.30358E-07-2.68499E-19-1.92742E-18
 -1       211 9.94171E-05-2.98381E-05-2.98214E-05-9.65595E-07-7.74701E-19-1.67595E-18
 -1       212 9.86820E-05-2.95894E-05-2.96116E-05-9.66359E-07-3.59850E-19-2.96465E-18
 -1       213 9.79763E-05-2.93625E-05-2.94055E-05-8.85093E-07 6.59686E-19-1.73009E-18
 -1       214 9.73440E-05-2.91668E-05-2.92178E-05-7.62314E-07-1.36612E-19-1.09935E-18
 -1       215 9.68056E-05-2.90051E-05-2.90561E-05-6.26126E-07 4.42708E-19-1.22376E-18
 -1       216 9.63655E-05-2.88762E-05-2.89227E-05-4.94109E-07 8.98374E-19-9.61656E-19
 -1       217 9.60185E-05-2.87768E-05-2.88166E-05-3.75919E-07 1.34445E-19-2.42207E-18
 -1       218 9.57538E-05-2.87026E-05-2.87351E-05-2.75747E-07 1.03132E-20-9.72777E-19
 -1       219 9.55587E-05-2.86490E-05-2.86746E-05-1.94316E-07 6.92220E-19-1.33074E-18
 -1       220 9.54200E-05-2.86118E-05-2.86314E-05-1.30359E-07-1.21848E-18-9.97452E-19
 -1       221 9.53259E-05-2.85872E-05-2.86017E-05-8.16320E-08-2.23019E-18-3.23217E-18
 -1       222 9.52658E-05-2.85721E-05-2.85826E-05-4.55805E-08-5.18927E-21-3.40568E-18
 -1       223 9.52311E-05-2.85640E-05-2.85713E-05-1.97375E-08 6.38173E-19-2.40541E-18
 -1       224 9.52145E-05-2.85609E-05-2.85656E-05-1.95896E-09 2.25949E-18-1.95445E-18
 -1       225 9.52103E-05-2.85610E-05-2.85638E-05 9.43899E-09 1.60184E-18-7.78473E-19
 -1       226 9.52140E-05-2.85634E-05-2.85645E-05 1.55819E-08 5.60085E-19 6.02817E-20
 -1       227 9.52217E-05-2.85670E-05-2.85663E-05 1.68904E-08 7.71424E-19 6.05583E-19
 -1       228 9.52303E-05-2.85713E-05-2.85681E-05 1.32054E-08-1.80835E-19 1.43858E-18
 -1       229 9.97893E-05-2.86514E-05-3.06652E-05 6.80713E-06 1.15038E-19 3.27121E-18
 -1       230 9.50885E-05-2.79827E-05-2.87282E-05 2.32354E-06 6.88810E-20 3.04931E-18
 -1       231 9.32353E-05-2.77158E-05-2.80331E-05 4.15715E-07 1.14515E-20 2.86771E-18
 -1       232 9.28917E-05-2.77171E-05-2.79030E-05-6.15247E-07-2.91217E-20 2.79190E-18
 -1       233 9.34906E-05-2.79323E-05-2.80802E-05-1.29700E-06 1.32605E-20 2.89504E-18
 -1       234 9.47723E-05-2.83212E-05-2.84690E-05-1.85605E-06-7.57408E-20 2.84552E-18
 -1       235 9.66432E-05-2.88657E-05-2.90402E-05-2.42032E-06 1.87437E-19 2.97278E-18
 -1       236 9.91135E-05-2.95723E-05-2.97978E-05-3.07936E-06 9.36021E-20 2.85550E-18
 -1       237 1.02262E-04-3.04677E-05-3.07659E-05-3.90134E-06 4.68985E-19 2.43337E-18
 -1       238 1.06209E-04-3.15953E-05-3.19781E-05-4.92395E-06 4.80822E-19 2.41897E-18
 -1       239 1.11064E-04-3.30117E-05-3.34588E-05-6.11423E-06 1.56824E-19 2.37989E-18
 -1       240 1.16845E-04-3.47771E-05-3.51880E-05-7.27880E-06-4.79181E-19 2.16792E-18
 -1       241 1.23321E-04-3.69324E-05-3.70404E-05-7.90812E-06-3.14052E-19 2.16177E-18
 -1       242 1.29775E-04-3.94321E-05-3.87133E-05-6.99515E-06 3.46632E-19 2.20694E-18
 -1       243 1.34743E-04-4.19251E-05-3.97178E-05-3.07568E-06 1.06839E-19 2.92130E-18
 -1       244 1.35948E-04-4.33289E-05-3.95880E-05 4.76990E-06-6.83886E-19 2.54408E-18
 -1       245 1.31171E-04-4.16710E-05-3.83560E-05 1.43550E-05-2.77780E-19 3.26240E-18
 -1       246 1.20885E-04-3.56637E-05-3.68335E-05 1.83409E-05-5.57506E-19 3.42336E-18
 -1       247 1.11816E-04-2.92207E-05-3.59593E-05 9.11402E-06-8.26863E-19 3.87186E-18
 -1       248 1.12525E-04-2.93081E-05-3.61763E-05-8.08850E-06 1.27934E-18 3.08282E-18
 -1       249 1.21384E-04-3.50865E-05-3.72095E-05-1.79337E-05 6.02995E-19 7.63547E-19
 -1       250 1.32126E-04-4.15594E-05-3.87738E-05-1.59099E-05 9.28193E-19 3.36206E-19
 -1       251 1.37139E-04-4.37153E-05-3.99427E-05-6.64303E-06-6.44248E-19-2.87409E-19
 -1       252 1.36018E-04-4.24995E-05-4.00380E-05 1.77072E-06-1.32647E-19 1.07184E-18
 -1       253 1.31129E-04-4.00012E-05-3.90696E-05 6.31955E-06 1.24165E-18 9.71725E-19
 -1       254 1.24837E-04-3.74751E-05-3.74687E-05 7.60698E-06-3.36805E-19-7.10621E-19
 -1       255 1.18606E-04-3.53315E-05-3.57087E-05 7.10505E-06-2.19804E-18 2.66692E-18
 -1       256 1.13131E-04-3.36235E-05-3.40831E-05 5.91937E-06-1.24359E-18 3.83654E-18
 -1       257 1.08449E-04-3.22467E-05-3.26578E-05 4.58066E-06 1.47009E-18 2.64514E-18
 -1       258 1.04977E-04-3.12601E-05-3.15887E-05 3.46220E-06 1.68632E-18 2.33313E-18
 -1       259 1.02312E-04-3.05143E-05-3.07652E-05 2.56559E-06-1.12594E-18 2.31259E-18
 -1       260 1.00309E-04-2.99586E-05-3.01451E-05 1.87652E-06-2.34034E-20 3.40635E-18
 -1       261 9.88215E-05-2.95477E-05-2.96845E-05 1.35911E-06 2.78292E-19 3.92652E-18
 -1       262 9.77289E-05-2.92464E-05-2.93461E-05 9.75568E-07-7.42703E-19 3.18124E-18
 -1       263 9.69342E-05-2.90277E-05-2.91000E-05 6.93351E-07-3.63339E-19 4.38228E-18
 -1       264 9.63626E-05-2.88706E-05-2.89230E-05 4.86709E-07-5.46030E-20 4.87233E-18
 -1       265 9.59570E-05-2.87595E-05-2.87973E-05 3.36060E-07 1.21323E-18 3.05778E-18
 -1       266 9.56741E-05-2.86824E-05-2.87095E-05 2.26783E-07 3.18741E-18 4.57331E-19
 -1       267 9.54812E-05-2.86302E-05-2.86495E-05 1.48034E-07 1.62027E-18-5.09503E-19
 -1       268 9.53539E-05-2.85962E-05-2.86098E-05 9.17732E-08-3.96115E-20-2.88164E-18
 -1       269 9.52740E-05-2.85753E-05-2.85847E-05 5.20403E-08-2.22873E-18-2.43797E-18
 -1       270 9.52278E-05-2.85636E-05-2.85700E-05 2.44215E-08-5.10519E-19-1.05440E-18
 -1       271 9.52052E-05-2.85584E-05-2.85626E-05 5.67330E-09 3.48667E-19-1.54034E-19
 -1       272 9.51985E-05-2.85576E-05-2.85602E-05-6.53358E-09-8.74937E-19 1.73407E-18
 -1       273 9.52020E-05-2.85596E-05-2.85610E-05-1.37657E-08-5.33023E-19 3.35806E-18
 -1       274 9.52113E-05-2.85632E-05-2.85634E-05-1.68519E-08-9.16751E-19 3.36888E-18
 -1       275 9.52224E-05-2.85676E-05-2.85663E-05-1.58275E-08 8.39838E-19 2.18361E-18
 -1       276 9.52324E-05-2.85721E-05-2.85686E-05-1.00965E-08-1.67946E-18-3.70641E-19
 -1       277 9.52376E-05-2.85794E-05-2.85678E-05-1.38707E-08 1.86210E-19 2.08375E-19
 -1       278 9.52424E-05-2.85889E-05-2.85658E-05-1.67685E-08 1.02897E-18-1.86442E-18
 -1       279 9.52462E-05-2.85979E-05-2.85636E-05-1.50072E-08-5.42614E-19-1.77356E-18
 -1       280 9.52486E-05-2.86049E-05-2.85616E-05-1.10835E-08-5.41462E-19 9.83268E-19
 -1       281 9.52498E-05-2.86094E-05-2.85602E-05-6.89826E-09 2.70591E-20-4.34806E-18
 -1       282 9.52502E-05-2.86117E-05-2.85593E-05-3.34634E-09-2.63654E-19 7.23801E-19
 -1       283 9.52502E-05-2.86125E-05-2.85590E-05-7.89584E-10-6.56289E-19 1.46396E-18
 -1       284 9.52499E-05-2.86122E-05-2.85590E-05 1.01843E-09-4.93274E-19 1.48923E-18
 -1       285 9.52496E-05-2.86111E-05-2.85593E-05 2.62574E-09 1.04855E-18 1.18194E-18
 -1       286 9.52493E-05-2.86093E-05-2.85600E-05 4.62036E-09 1.96619E-18-1.77589E-18
 -1       287 9.52486E-05-2.86064E-05-2.85610E-05 7.31133E-09-4.71365E-19-3.52888E-18
 -1       288 9.52474E-05-2.86018E-05-2.85624E-05 1.06725E-08-1.02408E-18-1.10237E-19
 -1       289 9.52452E-05-2.85952E-05-2.85643E-05 1.39141E-08-2.75446E-19 3.14866E-18
 -1       290 9.52417E-05-2.85869E-05-2.85663E-05 1.49403E-08-1.74974E-18 3.48922E-19
 -1       291 9.52373E-05-2.85788E-05-2.85680E-05 1.67196E-08-1.97361E-18-3.93882E-19
 -1       292 1.24274E-05-5.23694E-05 1.34813E-05 1.43997E-06 2.47709E-18 3.33413E-19
 -1       293 2.48392E-05-4.57890E-05 6.18622E-06 1.82748E-05 2.47567E-18 2.14193E-18
 -1       294 5.00680E-05-4.22493E-05-5.79883E-06 2.87194E-05 3.05948E-18 1.60672E-18
 -1       295 8.86731E-05-3.81684E-05-2.28000E-05 3.98812E-05 2.78610E-18 6.08170E-19
 -1       296 1.37021E-04-3.82915E-05-4.16807E-05 4.35129E-05 1.96618E-18-9.86158E-19
 -1       297 1.83702E-04-4.11713E-05-5.89088E-05 2.96497E-05 1.43195E-18-9.26019E-19
 -1       298 2.16051E-04-4.00840E-05-7.16185E-05 1.66278E-05 7.92823E-19-8.59103E-19
 -1       299 2.22361E-04-3.71597E-05-7.52803E-05-1.38911E-06-2.06888E-19-1.08011E-18
 -1       300 2.16222E-04-4.15094E-05-7.08586E-05-2.29503E-05-5.78735E-19-5.88688E-20
 -1       301 1.77331E-04-4.12174E-05-5.63984E-05-3.22268E-05-1.79756E-19 2.00535E-19
 -1       302 1.28190E-04-3.78169E-05-3.84214E-05-4.38927E-05-1.79147E-19-7.19343E-19
 -1       303 8.52191E-05-4.30477E-05-1.92868E-05-3.87515E-05-4.44269E-19 2.99638E-20
 -1       304 4.79327E-05-4.47740E-05-3.15631E-06-3.22994E-05-1.32412E-18-1.33727E-18
 -1       305 1.94788E-05-4.94416E-05 9.50836E-06-1.20156E-05-1.73176E-18 3.90694E-20
 -1       306 1.13375E-05-5.26604E-05 1.39831E-05 1.15288E-06-2.14265E-18-3.85506E-19
 -1       307 1.57014E-05-4.99971E-05 1.12789E-05 1.35881E-05-1.51746E-18 4.05623E-19
 -1       308 3.37049E-05-4.14016E-05 1.05321E-06 2.91361E-05-1.31756E-18 7.75525E-19
 -1       309 6.92047E-05-3.81230E-05-1.42767E-05 4.26282E-05-5.87417E-19-1.24588E-18
 -1       310 1.01244E-04-2.82721E-05-3.11521E-05 4.87693E-05-7.82235E-19 4.77938E-19
 -1       311 1.43733E-04-3.00080E-05-4.73673E-05 4.69293E-05-7.19766E-19 9.58630E-19
 -1       312 1.80715E-04-3.17754E-05-6.12183E-05 4.05407E-05-8.94559E-19 9.42536E-19
 -1       313 2.03494E-04-3.35901E-05-6.97088E-05 1.97377E-05-1.20596E-18 1.62323E-18
 -1       314 2.10501E-04-3.42463E-05-7.23618E-05-2.30423E-06-7.17437E-19 1.72350E-18
 -1       315 1.89222E-04-2.88324E-05-6.66646E-05-1.80197E-05-5.71853E-19 1.66304E-18
 -1       316 1.70109E-04-3.11606E-05-5.75345E-05-4.02862E-05-1.03660E-18 1.41730E-18
 -1       317 1.30565E-04-2.77872E-05-4.29236E-05-5.06386E-05-2.96144E-19 1.65383E-18
 -1       318 8.82593E-05-2.86923E-05-2.58591E-05-4.70172E-05 9.91664E-19 1.60026E-18
 -1       319 5.60560E-05-3.72201E-05-9.46658E-06-3.91798E-05 1.79529E-18 6.55498E-19
 -1       320 2.68870E-05-4.33951E-05 4.39039E-06-2.39874E-05 2.01954E-18-9.61647E-20
 -1       321 1.25799E-05-4.59060E-05 1.14034E-05-1.27436E-05 1.42704E-18-3.48448E-19
 -1       322 9.19577E-05-1.44241E-05-3.32921E-05-1.22337E-05 2.07415E-19-1.79636E-18
 -1       323 9.60968E-05-1.92450E-05-3.29982E-05-1.39002E-05-4.11076E-20-1.92889E-18
 -1       324 8.78880E-05-1.00564E-05-3.34084E-05-7.36908E-06 6.70929E-19-1.39545E-18
 -1       325 8.68262E-05-8.95144E-06-3.34207E-05-5.06872E-06 8.75854E-19-1.12109E-18
 -1       326 8.61647E-05-8.27119E-06-3.34250E-05-2.91937E-06 9.61855E-19-8.13578E-19
 -1       327 8.58363E-05-7.93276E-06-3.34275E-05-8.76779E-07 1.06801E-18-6.00705E-19
 -1       328 8.58241E-05-7.91213E-06-3.34311E-05 1.11866E-06 1.11260E-18-3.44991E-19
 -1       329 8.61387E-05-8.22039E-06-3.34357E-05 3.13400E-06 1.14451E-18-1.92991E-19
 -1       330 8.67994E-05-8.88519E-06-3.34380E-05 5.20248E-06 1.10651E-18 5.87596E-20
 -1       331 8.79007E-05-1.00205E-05-3.34308E-05 7.45249E-06 1.14804E-18 5.24049E-19
 -1       332 8.95957E-05-1.18201E-05-3.33979E-05 9.85965E-06 1.03191E-18 9.84954E-19
 -1       333 9.22434E-05-1.47152E-05-3.33060E-05 1.22646E-05 8.86059E-19 1.36077E-18
 -1       334 9.62215E-05-1.95771E-05-3.29531E-05 1.35895E-05 5.18515E-19 2.01556E-18
 -1       335 9.91740E-05-2.45770E-05-3.20552E-05 1.12619E-05 2.83319E-19 2.53936E-18
 -1       336 9.70403E-05-2.69645E-05-3.00011E-05 5.02797E-06 1.66865E-19 2.18262E-18
 -1       337 9.70437E-05-2.61578E-05-3.03352E-05-5.56255E-06-1.19895E-19-1.63604E-18
 -1       338 9.57886E-05-2.71941E-05-2.93714E-05-1.91653E-06-1.74682E-19-1.44484E-18
 -1       339 9.51399E-05-2.76600E-05-2.89044E-05 1.75003E-07-8.90956E-21-1.40357E-18
 -1       340 9.50228E-05-2.79809E-05-2.87246E-05 1.44374E-06-8.31143E-20-1.45617E-18
 -1       341 9.53123E-05-2.82903E-05-2.87202E-05 2.21673E-06 3.62938E-20-1.41766E-18
 -1       342 9.58900E-05-2.86344E-05-2.88227E-05 2.64887E-06-1.18236E-19-1.26856E-18
 -1       343 9.66587E-05-2.90312E-05-2.89840E-05 2.79679E-06 2.71958E-19-9.03605E-19
 -1       344 9.75330E-05-2.94861E-05-2.91656E-05 2.65464E-06-7.49885E-20-8.35117E-19
 -1       345 9.84255E-05-2.99897E-05-2.93344E-05 2.17756E-06-8.15794E-19-7.67994E-19
 -1       346 9.92335E-05-3.05075E-05-2.94609E-05 1.30725E-06-4.74676E-19-1.09082E-18
 -1       347 9.98287E-05-3.09655E-05-2.95214E-05 9.67640E-09-3.48482E-19-1.64524E-18
 -1       348 1.00056E-04-3.12399E-05-2.95017E-05-1.67081E-06 1.24640E-20-1.49865E-18
 -1       349 9.97512E-05-3.11645E-05-2.94023E-05-3.54818E-06 4.35833E-19-1.75321E-18
 -1       350 9.87990E-05-3.05797E-05-2.92414E-05-5.25010E-06 3.77864E-19-1.45087E-18
 -1       351 9.72232E-05-2.94324E-05-2.90524E-05-6.24558E-06 1.11121E-19-1.03867E-18
 -1       352 9.52877E-05-2.78962E-05-2.88754E-05-6.00344E-06 1.36797E-19-1.13319E-18
 -1       353 9.35069E-05-2.64067E-05-2.87457E-05-4.26821E-06-3.88895E-19-1.38554E-18
 -1       354 9.24850E-05-2.55174E-05-2.86862E-05-1.30832E-06 6.75840E-20-1.75452E-18
 -1       355 9.26246E-05-2.56098E-05-2.87065E-05 2.08068E-06 5.26633E-20-1.62263E-18
 -1       356 9.38891E-05-2.66468E-05-2.88067E-05 4.89921E-06 2.84219E-21-2.38627E-18
 -1       357 9.58233E-05-2.81954E-05-2.89773E-05 6.42478E-06 6.02727E-20-1.61544E-18
 -1       358 9.78249E-05-2.97043E-05-2.91943E-05 6.49020E-06 3.61510E-19-1.35232E-18
 -1       359 9.94230E-05-3.07821E-05-2.94223E-05 5.41878E-06-3.90478E-19-2.02924E-18
 -1       360 1.00404E-04-3.13034E-05-2.96223E-05 3.75535E-06-2.40595E-19-1.84579E-18
 -1       361 1.00777E-04-3.13493E-05-2.97632E-05 2.00590E-06 3.00021E-19-1.89730E-18
 -1       362 1.00671E-04-3.10864E-05-2.98295E-05 5.04370E-07 4.50587E-19-9.30061E-19
 -1       363 1.00246E-04-3.06766E-05-2.98215E-05-5.99799E-07-1.43751E-19-7.10526E-19
 -1       364 9.96467E-05-3.02358E-05-2.97513E-05-1.29322E-06 8.31188E-20-6.42998E-19
 -1       365 9.89792E-05-2.98305E-05-2.96371E-05-1.63791E-06-3.82887E-19-1.04936E-18
 -1       366 9.83167E-05-2.94897E-05-2.94979E-05-1.72366E-06-4.83717E-19 4.49262E-19
 -1       367 9.77036E-05-2.92195E-05-2.93500E-05-1.63893E-06 6.18033E-19 1.95559E-18
 -1       368 9.71632E-05-2.90139E-05-2.92060E-05-1.45699E-06 3.73124E-19 3.08552E-19
 -1       369 9.67046E-05-2.88626E-05-2.90740E-05-1.23203E-06-1.35838E-20 4.47862E-19
 -1       370 9.63274E-05-2.87542E-05-2.89587E-05-1.00035E-06 8.66225E-19-2.07129E-19
 -1       371 9.60257E-05-2.86788E-05-2.88618E-05-7.83894E-07-4.59556E-20-1.56859E-19
 -1       372 9.57905E-05-2.86277E-05-2.87831E-05-5.94027E-07 7.63832E-20 5.68896E-20
 -1       373 9.56119E-05-2.85944E-05-2.87209E-05-4.34985E-07 7.32380E-19-2.92094E-19
 -1       374 9.54800E-05-2.85738E-05-2.86734E-05-3.06544E-07-3.42605E-19 1.18685E-20
 -1       375 9.53855E-05-2.85620E-05-2.86381E-05-2.05997E-07-2.61528E-18 4.44225E-19
 -1       376 9.53203E-05-2.85563E-05-2.86128E-05-1.29505E-07-2.50812E-18 3.45457E-19
 -1       377 9.52775E-05-2.85546E-05-2.85952E-05-7.29672E-08 8.29009E-19-4.05882E-19
 -1       378 9.52513E-05-2.85556E-05-2.85837E-05-3.25583E-08 1.71720E-18 1.23763E-18
 -1       379 9.52372E-05-2.85584E-05-2.85765E-05-5.02912E-09 2.46949E-18 3.15036E-19
 -1       380 9.52314E-05-2.85624E-05-2.85724E-05 1.21013E-08 2.92196E-19 5.76309E-19
 -1       381 9.52310E-05-2.85674E-05-2.85701E-05 2.06057E-08 1.88926E-19 1.83274E-19
 -1       382 9.52330E-05-2.85727E-05-2.85687E-05 2.15742E-08 1.43469E-18 8.96841E-19
 -1       383 9.53847E-05-2.75473E-05-2.90331E-05 1.58390E-06 1.51930E-19 2.04590E-18
 -1       384 9.46610E-05-2.77524E-05-2.86504E-05-4.23014E-07 1.36122E-19 1.78840E-18
 -1       385 9.47451E-05-2.79511E-05-2.86120E-05-1.75768E-06 2.81093E-20 1.64290E-18
 -1       386 9.54468E-05-2.82085E-05-2.88066E-05-2.80853E-06-4.73089E-20 1.41849E-18
 -1       387 9.66592E-05-2.85383E-05-2.91856E-05-3.80369E-06-5.02115E-20 1.17163E-18
 -1       388 9.83436E-05-2.89486E-05-2.97310E-05-4.89616E-06 2.79478E-19 1.37497E-18
 -1       389 1.00511E-04-2.94588E-05-3.04405E-05-6.19481E-06 5.80548E-19 1.23775E-18
 -1       390 1.03209E-04-3.01135E-05-3.13163E-05-7.75700E-06 3.82352E-19 1.48923E-18
 -1       391 1.06508E-04-3.10066E-05-3.23508E-05-9.54074E-06 2.97609E-19 1.55406E-18
 -1       392 1.10498E-04-3.23225E-05-3.35054E-05-1.12992E-05-1.04931E-19 9.28932E-19
 -1       393 1.15288E-04-3.43855E-05-3.46870E-05-1.24040E-05 2.74547E-19 5.79668E-19
 -1       394 1.20979E-04-3.76419E-05-3.57427E-05-1.16378E-05 8.67845E-20 6.44354E-19
 -1       395 1.27547E-04-4.23553E-05-3.65396E-05-7.16304E-06-3.09634E-19 7.68686E-19
 -1       396 1.34002E-04-4.72729E-05-3.71951E-05 2.56117E-06-4.46353E-19 1.47339E-18
 -1       397 1.37512E-04-4.83048E-05-3.83530E-05 1.58568E-05-4.02079E-19 1.70040E-18
 -1       398 1.33945E-04-3.98866E-05-4.06936E-05 2.43064E-05-6.45995E-19 1.92828E-18
 -1       399 1.26450E-04-2.68351E-05-4.32573E-05 1.42534E-05-1.03190E-18 3.23866E-18
 -1       400 1.25608E-04-2.45479E-05-4.38106E-05-8.94706E-06 1.53011E-18 2.36962E-18
 -1       401 1.32072E-04-3.51997E-05-4.18837E-05-2.28496E-05 1.58263E-18 1.89329E-18
 -1       402 1.37892E-04-4.66912E-05-3.92572E-05-2.01106E-05 1.08592E-18 9.29045E-19
 -1       403 1.36430E-04-4.85740E-05-3.77168E-05-7.21000E-06-3.11973E-19 3.48392E-19
 -1       404 1.30492E-04-4.43859E-05-3.69412E-05 4.24218E-06-5.99388E-19-6.23082E-19
 -1       405 1.23745E-04-3.92852E-05-3.62401E-05 1.03169E-05 1.46755E-18-2.41692E-19
 -1       406 1.17823E-04-3.55165E-05-3.52971E-05 1.19960E-05-2.54437E-19 1.13572E-18
 -1       407 1.12939E-04-3.31363E-05-3.42060E-05 1.12265E-05-3.18876E-18 1.76057E-18
 -1       408 1.08965E-04-3.16858E-05-3.31137E-05 9.47088E-06-8.46262E-19 7.73871E-19
 -1       409 1.05620E-04-3.07357E-05-3.20821E-05 7.45049E-06 1.29398E-18 5.03503E-20
 -1       410 1.03105E-04-3.01409E-05-3.12585E-05 5.72706E-06 1.70455E-18 1.95229E-18
 -1       411 1.01119E-04-2.97156E-05-3.05914E-05 4.31112E-06-3.80223E-19 3.13922E-18
 -1       412 9.95782E-05-2.94019E-05-3.00673E-05 3.20001E-06-2.66584E-19 2.34233E-18
 -1       413 9.83967E-05-2.91666E-05-2.96636E-05 2.35005E-06-3.44605E-19 3.46332E-18
 -1       414 9.75015E-05-2.89897E-05-2.93574E-05 1.70950E-06-4.32241E-19 3.68033E-18
 -1       415 9.68313E-05-2.88575E-05-2.91280E-05 1.23118E-06-9.75260E-19 3.89988E-18
 -1       416 9.63355E-05-2.87601E-05-2.89582E-05 8.76269E-07-3.20790E-19 3.92266E-18
 -1       417 9.59738E-05-2.86897E-05-2.88341E-05 6.14354E-07 2.36842E-18 1.95842E-18
 -1       418 9.57141E-05-2.86400E-05-2.87446E-05 4.22162E-07 2.87201E-18 1.18312E-18
 -1       419 9.55312E-05-2.86059E-05-2.86812E-05 2.82091E-07 2.57529E-18 1.60504E-18
 -1       420 9.54058E-05-2.85836E-05-2.86373E-05 1.80875E-07 2.35001E-19 1.50088E-18
 -1       421 9.53226E-05-2.85700E-05-2.86077E-05 1.08540E-07-1.35274E-18 1.33497E-18
 -1       422 9.52704E-05-2.85626E-05-2.85887E-05 5.76111E-08-1.36003E-18 2.48466E-20
 -1       423 9.52402E-05-2.85597E-05-2.85771E-05 2.25343E-08-1.31417E-18-6.67949E-19
 -1       424 9.52254E-05-2.85597E-05-2.85708E-05-7.39274E-10-7.61489E-19 9.90437E-19
 -1       425 9.52209E-05-2.85619E-05-2.85680E-05-1.50181E-08-1.54133E-18 7.37783E-19
 -1       426 9.52228E-05-2.85656E-05-2.85673E-05-2.20131E-08-3.55448E-19-6.52059E-19
 -1       427 9.52282E-05-2.85705E-05-2.85676E-05-2.23539E-08 1.64536E-18-8.78301E-19
 -1       428 9.52331E-05-2.85748E-05-2.85679E-05-1.94737E-08 6.35049E-19 7.31086E-19
 -1       429 9.52452E-05-2.85837E-05-2.85692E-05-1.73760E-08-1.06216E-18 2.00949E-18
 -1       430 9.52425E-05-2.85818E-05-2.85689E-05-2.24607E-08-1.08431E-18-3.67459E-18
 -1       431 9.52384E-05-2.85794E-05-2.85682E-05-2.32507E-08-9.24070E-20-8.84495E-19
 -1       432 9.52454E-05-2.85835E-05-2.85694E-05-1.11708E-08-3.66440E-19-2.81408E-18
 -1       433 9.52441E-05-2.85819E-05-2.85695E-05-5.56371E-09 2.44045E-18-5.03267E-19
 -1       434 9.52423E-05-2.85799E-05-2.85696E-05-1.59130E-09 2.02687E-18 2.56843E-19
 -1       435 9.52410E-05-2.85783E-05-2.85697E-05 8.27985E-10-7.34272E-19 4.76363E-19
 -1       436 9.52406E-05-2.85778E-05-2.85698E-05 2.43220E-09-1.97860E-18 1.42892E-18
 -1       437 9.52412E-05-2.85783E-05-2.85698E-05 4.23323E-09-1.53550E-18 7.34541E-19
 -1       438 9.52424E-05-2.85795E-05-2.85698E-05 7.03023E-09 6.70985E-19-3.18154E-18
 -1       439 9.52436E-05-2.85808E-05-2.85698E-05 1.12201E-08 2.80383E-18-2.23059E-20
 -1       440 9.52437E-05-2.85811E-05-2.85697E-05 1.62179E-08 2.24456E-18 7.97020E-19
 -1       441 9.52417E-05-2.85800E-05-2.85693E-05 2.06214E-08-5.50289E-19-1.08974E-18
 -1       442 5.88839E-05-4.27674E-05-6.97087E-06 3.98614E-05-1.22502E-19 1.14175E-18
 -1       443 1.07946E-05-2.39913E-05 5.29644E-06-4.69934E-06 1.81425E-18 4.45857E-19
 -1       444 1.98207E-05-2.87446E-05 3.39650E-06 1.92793E-05 1.45711E-18 6.79426E-19
 -1       445 9.33796E-05-5.57132E-05-1.64169E-05 3.95596E-05 1.59348E-18-1.22837E-18
 -1       446 1.38212E-04-6.31647E-05-3.22492E-05 2.39379E-05 1.28844E-18-1.63986E-18
 -1       447 8.94640E-05-1.17239E-05-3.33895E-05-9.84285E-06 4.69365E-19-1.63119E-18
 -1       448 1.74181E-04-3.53997E-05-5.90741E-05-6.87815E-06 1.31407E-18 3.52154E-19
 -1       449 1.68724E-04-1.97779E-05-6.35931E-05-5.62613E-06 1.13354E-18-2.30922E-19
 -1       450 1.74014E-04-2.26422E-05-6.43996E-05 5.44090E-06-1.14731E-18-6.50362E-19
 -1       451 1.73265E-04-3.77408E-05-5.76922E-05 5.79810E-06-7.81388E-19-4.82809E-20
 -1       452 1.59045E-04-5.74942E-05-4.35946E-05-8.43924E-06 5.41836E-20 3.46436E-19
 -1       453 1.34154E-04-6.25030E-05-3.07798E-05-2.67561E-05-1.16255E-19-3.42307E-19
 -1       454 9.50581E-05-5.63727E-05-1.65401E-05-4.06585E-05-1.06154E-18-5.45813E-19
 -1       455 4.22231E-05-3.47034E-05-3.24517E-06-3.52831E-05-3.48978E-19-9.60641E-19
 -1       456 1.88646E-05-2.46155E-05 2.50499E-06-1.69062E-05-4.25158E-19-5.24949E-19
 -1       457 1.33213E-05-2.15855E-05 3.56356E-06 1.26850E-05 2.14538E-19 2.23723E-19
 -1       458 3.14832E-05-3.17381E-05-6.75213E-08 3.59982E-05 3.85082E-19 1.67268E-18
 -1       459 7.07002E-05-4.51696E-05-1.08459E-05 4.79482E-05 2.07205E-19-2.63480E-19
 -1       460 1.11972E-04-5.36155E-05-2.49611E-05 4.02740E-05 4.98691E-20 5.78047E-19
 -1       461 1.36101E-04-5.06177E-05-3.66347E-05 2.81279E-05-8.14634E-19 1.36881E-18
 -1       462 1.54667E-04-3.79916E-05-4.98640E-05 1.02624E-05-4.95620E-19 5.46972E-19
 -1       463 1.60837E-04-2.44379E-05-5.82579E-05 3.27476E-06-1.67755E-18 9.26972E-19
 -1       464 1.57716E-04-1.16616E-05-6.25845E-05-9.00319E-07-8.85044E-19-1.44710E-19
 -1       465 1.56732E-04-1.19163E-05-6.20721E-05 1.39196E-06-9.90182E-19-3.47522E-19
 -1       466 1.51055E-04-2.79423E-05-5.31259E-05 3.02655E-06 5.09384E-19-7.77153E-19
 -1       467 1.50986E-04-4.31192E-05-4.62987E-05-9.44722E-06 1.23001E-18-4.38022E-19
 -1       468 1.29670E-04-5.13450E-05-3.35606E-05-3.25012E-05 1.38564E-18-3.59777E-19
 -1       469 9.89666E-05-5.13581E-05-2.04316E-05-4.42285E-05 2.17518E-18 1.60232E-18
 -1       470 5.70579E-05-4.01234E-05-7.30055E-06-4.61611E-05 2.02917E-18 1.26526E-19
 -1       471 2.84682E-05-2.82636E-05-3.81193E-08-3.41717E-05 1.13873E-18-9.23795E-19
 -1       472 1.62595E-04-5.50673E-05-4.60726E-05 5.89876E-06 1.23696E-18-1.24514E-19
 -1       473 9.64635E-05-2.51366E-05-3.05539E-05 4.86620E-06 2.48455E-19 1.35546E-18
 -1       474 8.88470E-05-1.25331E-05-3.27238E-05-3.22766E-06 8.89922E-19-8.41587E-19
 -1       475 8.98450E-05-1.37276E-05-3.26415E-05-4.99355E-06 7.68722E-19-1.02423E-18
 -1       476 8.80237E-05-1.15691E-05-3.27827E-05 1.52742E-07 9.71972E-19-4.03449E-19
 -1       477 8.81892E-05-1.17518E-05-3.27756E-05 1.79068E-06 1.03546E-18-2.65444E-19
 -1       478 8.87499E-05-1.23933E-05-3.27423E-05 3.40797E-06 9.86704E-19-1.87211E-19
 -1       479 8.97639E-05-1.35863E-05-3.26678E-05 5.07535E-06 1.06483E-18 2.53604E-19
 -1       480 9.12757E-05-1.54430E-05-3.25224E-05 6.71463E-06 9.28583E-19 6.38554E-19
 -1       481 9.34269E-05-1.82129E-05-3.22546E-05 8.16654E-06 7.79224E-19 9.69383E-19
 -1       482 9.59922E-05-2.65043E-05-2.97612E-05 1.38789E-06 2.89693E-19 1.10913E-18
 -1       483 9.59946E-05-2.43982E-05-3.06733E-05-4.74847E-06 1.21563E-19-1.34795E-18
 -1       484 1.52263E-04-2.84707E-05-5.35200E-05 1.76639E-05-1.62122E-18-3.55754E-19
 -1       485 9.59653E-05-2.61930E-05-2.98951E-05-1.58020E-06 1.14087E-20-1.05870E-18
 -1       486 9.58492E-05-2.71562E-05-2.94357E-05 5.56595E-07-1.37450E-20-1.00549E-18
 -1       487 9.58902E-05-2.77803E-05-2.91880E-05 1.97182E-06-1.18052E-19-1.01292E-18
 -1       488 9.61435E-05-2.82839E-05-2.90819E-05 2.88198E-06 6.61826E-20-9.77554E-19
 -1       489 9.66081E-05-2.87858E-05-2.90667E-05 3.40073E-06 2.40740E-19-1.05379E-18
 -1       490 9.72713E-05-2.93610E-05-2.91052E-05 3.56320E-06 3.27990E-20-1.17309E-18
 -1       491 9.81156E-05-3.00562E-05-2.91700E-05 3.34432E-06-4.91475E-19-1.48505E-18
 -1       492 9.91097E-05-3.08821E-05-2.92431E-05 2.67859E-06-8.56947E-19-1.00031E-18
 -1       493 1.00187E-04-3.17897E-05-2.93169E-05 1.48973E-06-3.28509E-19-6.90834E-19
 -1       494 1.01219E-04-3.26378E-05-2.93960E-05-2.59704E-07-1.66431E-19-3.83960E-19
 -1       495 1.01989E-04-3.31692E-05-2.94981E-05-2.49172E-06 7.20727E-20-5.88203E-19
 -1       496 1.02210E-04-3.30359E-05-2.96486E-05-4.91893E-06 3.92196E-19-7.02469E-19
 -1       497 1.01612E-04-3.19187E-05-2.98687E-05-6.97399E-06 2.33596E-19-8.78699E-19
 -1       498 1.00138E-04-2.97758E-05-3.01530E-05-7.86236E-06-6.00406E-20-1.03257E-18
 -1       499 9.81554E-05-2.70861E-05-3.04543E-05-6.86611E-06-1.92833E-19-1.08770E-18
 -1       500 9.64565E-05-2.48383E-05-3.06896E-05-3.82562E-06-3.25869E-19-7.37017E-19
 -1       501 9.58681E-05-2.40458E-05-3.07761E-05 5.27492E-07-1.18312E-20-6.28977E-19
 -1       502 9.67290E-05-2.51233E-05-3.06820E-05 4.76094E-06 8.00723E-20-6.50127E-19
 -1       503 9.85847E-05-2.75153E-05-3.04542E-05 7.51748E-06 3.83222E-19-3.63896E-19
 -1       504 1.00571E-04-3.01544E-05-3.01764E-05 8.22397E-06 9.34125E-20-1.32445E-18
 -1       505 1.01962E-04-3.21273E-05-2.99296E-05 7.17000E-06-2.47636E-19-1.88761E-18
 -1       506 1.02475E-04-3.30588E-05-2.97528E-05 5.11450E-06 7.42643E-20-9.05166E-19
 -1       507 1.02220E-04-3.30605E-05-2.96435E-05 2.81755E-06-2.57078E-19-2.26225E-19
 -1       508 1.01476E-04-3.24692E-05-2.95781E-05 7.89990E-07 8.22631E-19-1.30051E-19
 -1       509 1.00519E-04-3.16254E-05-2.95290E-05-7.32320E-07 2.41411E-19-6.29310E-19
 -1       510 9.95434E-05-3.07707E-05-2.94762E-05-1.71365E-06 4.18551E-19-4.75027E-20
 -1       511 9.86554E-05-3.00347E-05-2.94101E-05-2.22705E-06-1.83643E-19 6.29826E-19
 -1       512 9.78979E-05-2.94636E-05-2.93295E-05-2.38625E-06 2.63946E-19 2.08122E-18
 -1       513 9.72770E-05-2.90540E-05-2.92384E-05-2.30595E-06 5.90876E-19 1.60908E-18
 -1       514 9.67805E-05-2.87801E-05-2.91427E-05-2.08304E-06-4.50877E-19 1.56729E-18
 -1       515 9.63903E-05-2.86099E-05-2.90483E-05-1.79079E-06-4.57185E-19 8.44185E-19
 -1       516 9.60873E-05-2.85133E-05-2.89598E-05-1.47985E-06-2.39900E-19 5.51934E-19
 -1       517 9.58547E-05-2.84661E-05-2.88803E-05-1.18211E-06 6.88156E-19 9.84599E-19
 -1       518 9.56780E-05-2.84501E-05-2.88115E-05-9.15374E-07 9.33904E-20 1.43343E-18
 -1       519 9.55454E-05-2.84523E-05-2.87538E-05-6.87512E-07-1.37394E-18-6.78282E-20
 -1       520 9.54474E-05-2.84642E-05-2.87068E-05-4.99946E-07 8.44531E-19-8.77776E-19
 -1       521 9.53761E-05-2.84801E-05-2.86695E-05-3.50263E-07-3.34723E-19-7.14661E-19
 -1       522 9.53254E-05-2.84969E-05-2.86406E-05-2.34073E-07-2.34398E-18 1.00069E-18
 -1       523 9.52903E-05-2.85128E-05-2.86188E-05-1.46263E-07-1.82894E-18 1.02584E-18
 -1       524 9.52669E-05-2.85271E-05-2.86027E-05-8.17918E-08 1.66556E-18 1.15848E-18
 -1       525 9.52522E-05-2.85397E-05-2.85910E-05-3.61469E-08 5.26921E-19 1.19848E-18
 -1       526 9.52438E-05-2.85508E-05-2.85827E-05-5.61198E-09 2.17841E-18-3.96185E-19
 -1       527 9.52399E-05-2.85611E-05-2.85766E-05 1.26359E-08-4.62374E-20-2.15510E-20
 -1       528 9.57349E-05-2.74802E-05-2.92456E-05-2.76675E-06 1.59191E-19 8.08468E-19
 -1       529 9.60525E-05-2.76367E-05-2.93158E-05-4.27303E-06 1.93446E-19 7.09524E-19
 -1       530 9.66198E-05-2.76916E-05-2.95351E-05-5.74208E-06 1.80663E-19 4.11202E-19
 -1       531 9.73932E-05-2.76786E-05-2.98714E-05-7.34146E-06 3.18059E-19 4.51046E-19
 -1       532 9.83478E-05-2.76451E-05-3.02942E-05-9.18566E-06 2.96611E-19 6.70387E-19
 -1       533 9.95025E-05-2.77035E-05-3.07643E-05-1.13192E-05 4.33918E-19 8.68155E-19
 -1       534 1.00978E-04-2.81145E-05-3.12232E-05-1.36667E-05 6.66311E-19 7.06114E-19
 -1       535 1.03119E-04-2.94120E-05-3.15903E-05-1.59351E-05 3.41010E-19 3.83487E-19
 -1       536 1.06691E-04-3.25311E-05-3.17896E-05-1.74538E-05 8.54163E-20 2.36719E-19
 -1       537 1.12993E-04-3.86554E-05-3.18577E-05-1.69019E-05-3.92277E-19 2.23592E-19
 -1       538 1.23796E-04-4.84328E-05-3.23253E-05-1.19358E-05-1.01309E-18 9.62809E-19
 -1       539 1.38883E-04-5.85152E-05-3.44495E-05-5.50732E-07-2.67629E-19 6.83456E-19
 -1       540 1.43945E-04-2.72359E-05-5.06334E-05-1.99079E-05 2.30658E-18 1.40221E-18
 -1       541 1.48408E-04-4.85060E-05-4.32437E-05-2.17080E-05 1.49771E-18 1.96782E-18
 -1       542 1.42193E-04-5.77579E-05-3.63449E-05-7.05039E-06 8.09411E-19 1.97151E-18
 -1       543 1.29375E-04-5.15075E-05-3.33783E-05 7.04395E-06 2.72334E-19 9.83720E-19
 -1       544 1.18039E-04-4.16929E-05-3.27450E-05 1.42717E-05 3.06851E-19 1.78605E-20
 -1       545 1.10642E-04-3.47134E-05-3.25500E-05 1.62904E-05-5.27791E-19 1.96664E-18
 -1       546 1.06226E-04-3.08270E-05-3.23166E-05 1.53843E-05-1.76639E-18 1.97003E-18
 -1       547 1.03561E-04-2.90590E-05-3.19252E-05 1.32484E-05-1.54290E-18 1.54315E-19
 -1       548 1.01697E-04-2.83840E-05-3.14107E-05 1.06980E-05 2.99328E-20 4.99207E-19
 -1       549 1.00373E-04-2.82383E-05-3.09053E-05 8.43166E-06 1.03453E-18-8.87397E-20
 -1       550 9.92980E-05-2.82622E-05-3.04354E-05 6.50080E-06-7.32491E-19 1.28414E-18
 -1       551 9.84088E-05-2.83292E-05-3.00271E-05 4.93389E-06-1.25450E-20 1.55099E-18
 -1       552 9.76755E-05-2.83919E-05-2.96876E-05 3.69965E-06 1.08545E-20 2.63329E-18
 -1       553 9.70792E-05-2.84383E-05-2.94135E-05 2.74543E-06-2.88515E-19 1.06640E-18
 -1       554 9.66031E-05-2.84693E-05-2.91972E-05 2.01673E-06-1.03662E-18 1.71523E-18
 -1       555 9.62299E-05-2.84895E-05-2.90294E-05 1.46511E-06-3.58006E-19 2.56541E-18
 -1       556 9.59427E-05-2.85028E-05-2.89012E-05 1.05050E-06 2.53366E-18-3.74810E-19
 -1       557 9.57260E-05-2.85123E-05-2.88047E-05 7.40963E-07 1.68319E-18 5.44965E-19
 -1       558 9.55656E-05-2.85200E-05-2.87330E-05 5.11538E-07 2.66389E-18 1.73672E-18
 -1       559 9.54495E-05-2.85267E-05-2.86806E-05 3.42909E-07 1.29107E-18 3.38182E-18
 -1       560 9.53677E-05-2.85330E-05-2.86430E-05 2.20212E-07-8.19970E-19 2.22322E-18
 -1       561 9.53118E-05-2.85392E-05-2.86166E-05 1.32075E-07-1.60706E-18 1.49237E-18
 -1       562 9.52754E-05-2.85452E-05-2.85985E-05 6.98694E-08-5.26841E-19 2.42935E-18
 -1       563 9.52531E-05-2.85511E-05-2.85864E-05 2.71263E-08-1.05657E-18 9.91768E-19
 -1       564 9.52409E-05-2.85571E-05-2.85787E-05-8.81652E-10-9.84423E-19-8.61579E-19
 -1       565 9.52356E-05-2.85633E-05-2.85738E-05-1.74742E-08-1.09105E-18-2.48910E-18
 -1       566 9.52350E-05-2.85702E-05-2.85706E-05-2.46876E-08 4.23503E-19-2.80598E-18
 -1       567 9.52407E-05-2.85570E-05-2.85787E-05-3.68901E-09 9.43833E-19 4.10527E-19
 -1       568 9.52362E-05-2.85500E-05-2.85798E-05 6.38140E-10 2.84618E-18 2.09824E-19
 -1       569 9.52440E-05-2.85692E-05-2.85749E-05-1.79771E-08-2.93116E-19-4.23229E-19
 -1       570 9.52440E-05-2.85639E-05-2.85771E-05-1.04273E-08-1.23136E-18 1.07631E-18
 -1       571 9.18379E-05-5.06916E-05-1.72756E-05 3.86751E-05-1.42407E-20-8.17466E-19
 -1       572 9.52324E-05-2.85449E-05-2.85803E-05 2.32196E-09 1.32847E-18-1.22251E-18
 -1       573 9.52305E-05-2.85427E-05-2.85805E-05 2.17862E-09-6.94816E-19-1.18090E-19
 -1       574 9.52312E-05-2.85438E-05-2.85803E-05 1.63616E-09-1.58717E-18 2.31889E-18
 -1       575 9.52339E-05-2.85480E-05-2.85797E-05 2.18282E-09-1.23957E-18 6.70525E-19
 -1       576 9.52379E-05-2.85543E-05-2.85787E-05 4.87283E-09 2.31117E-18-1.24196E-18
 -1       577 9.52412E-05-2.85611E-05-2.85772E-05 9.87990E-09 2.42254E-18 2.23597E-19
 -1       578 9.52418E-05-2.85667E-05-2.85750E-05 1.57684E-08 2.99082E-19 2.89477E-19
 -1       579 1.25175E-04-6.42257E-05-2.60475E-05 2.68130E-05 1.21105E-18-1.76596E-18
 -1       580 9.57133E-05-2.71585E-05-2.93699E-05-9.90955E-07 2.21150E-19 8.89538E-19
 -1       581 2.38457E-05-1.44248E-05-3.40182E-06 9.48430E-06 1.15375E-18 3.38813E-21
 -1       582 2.62256E-05-1.41091E-05-4.56424E-06-1.93359E-05 1.54290E-18 6.19922E-19
 -1       583 1.52227E-04-6.40442E-05-3.79305E-05-5.13874E-07 8.18935E-19 1.19596E-18
 -1       584 9.05833E-05-4.97628E-05-1.71963E-05-4.54508E-05 1.34239E-18 1.32767E-18
 -1       585 1.03658E-04-5.46632E-05-2.08402E-05 4.09374E-05 4.60574E-20 1.87029E-19
 -1       586 1.26323E-04-6.37417E-05-2.67830E-05-2.50057E-05-4.73333E-19-6.21510E-19
 -1       587 1.57671E-04-5.00212E-05-4.65226E-05 1.60691E-05-1.58422E-19 1.11385E-19
 -1       588 8.82458E-05-1.18295E-05-3.27666E-05-1.51143E-06 9.77998E-19-6.34991E-19
 -1       589 1.42925E-04-1.73698E-05-5.44316E-05 2.66330E-06 3.37543E-19 6.19074E-19
 -1       590 7.80387E-05-4.19699E-05-1.49423E-05-3.91305E-05-1.19008E-19-6.92132E-19
 -1       591 1.56708E-04-4.74714E-05-4.73268E-05-1.79323E-05 1.58538E-18 1.44880E-18
 -1       592 1.49844E-04-6.57468E-05-3.61484E-05-5.05987E-06-1.99794E-19 3.50672E-19
 -1       593 3.35680E-05-1.83713E-05-5.87134E-06 2.84211E-05 8.74032E-19 1.23259E-18
 -1       594 3.87852E-05-2.18418E-05-6.70122E-06-2.69378E-05 2.86932E-19-7.09443E-19
 -1       595 1.24067E-04-5.92243E-05-2.77173E-05-3.09500E-05 1.14037E-18-4.06973E-19
 -1       596 2.41581E-05-1.24186E-05-4.38379E-06-3.21779E-06 8.20874E-19 7.42213E-20
 -1       597 6.04910E-05-3.31175E-05-1.11995E-05 4.30224E-05 4.55333E-19 6.95626E-20
 -1       598 1.31613E-04-5.98462E-05-3.07844E-05 2.41588E-05-5.20105E-19 1.15440E-18
 -1       599 1.43936E-04-5.01730E-05-4.04615E-05 5.41049E-06-3.55952E-19 8.07222E-19
 -1       600 1.42952E-04-3.06217E-05-4.86106E-05-7.90531E-06-8.91237E-19 7.17913E-19
 -1       601 1.36863E-04-1.26829E-05-5.37999E-05-8.04823E-06-9.09608E-19-4.56498E-19
 -1       602 1.32972E-04-5.83770E-06-5.51088E-05 4.70244E-07-8.23210E-19-9.85837E-19
 -1       603 1.33702E-04-1.41041E-05-5.19315E-05 9.05020E-06-5.77041E-20-1.73978E-18
 -1       604 1.40583E-04-3.88908E-05-4.39953E-05 6.45180E-06 2.83650E-19-1.01400E-18
 -1       605 1.41012E-04-5.40161E-05-3.74812E-05-9.76951E-06 1.43231E-18 1.79359E-19
 -1       606 5.28379E-05-3.03832E-05-9.09693E-06-4.22957E-05 6.94355E-19-7.33742E-20
 -1       607 9.49678E-05-2.06833E-05-3.18562E-05-8.61365E-06 1.33768E-19-1.53347E-18
 -1       608 9.66863E-05-2.32561E-05-3.14729E-05 8.64981E-06 3.94721E-19 1.61776E-18
 -1       609 4.65284E-05-2.69427E-05-7.87620E-06 3.24972E-05 9.66147E-20 2.94873E-19
 -1       610 9.12664E-05-1.54739E-05-3.25056E-05-6.76672E-06 5.33054E-19-1.41011E-18
 -1       611 1.48600E-04-5.48887E-05-4.05461E-05 1.49247E-05 2.30644E-19 2.23564E-19
 -1       612 9.52406E-05-2.85703E-05-2.85730E-05-2.22807E-08 1.39600E-19-5.63029E-18
 -1       613 9.52391E-05-2.85680E-05-2.85733E-05 1.93311E-08 2.80874E-19 1.18952E-18
 -1       614 1.07655E-04-5.33612E-05-2.30379E-05-3.11740E-05-2.78039E-19-8.22800E-19
 -1       615 1.28946E-04-2.48417E-05-4.50724E-05 1.31451E-05-1.75018E-19-1.91130E-18
 -1       616 8.90134E-05-4.53073E-05-1.84555E-05 4.14346E-05 2.27746E-19-3.10292E-19
 -1       617 9.02661E-05-1.53153E-05-3.21269E-05 1.94194E-06 8.65904E-19-2.81333E-19
 -1       618 8.99027E-05-1.48663E-05-3.21634E-05 7.90396E-07 9.13453E-19-2.50717E-19
 -1       619 9.23016E-05-1.79558E-05-3.18682E-05 4.03843E-06 8.32176E-19 2.67084E-19
 -1       620 9.38900E-05-2.02689E-05-3.15595E-05 4.75683E-06 6.31702E-19 6.55331E-19
 -1       621 9.56018E-05-2.36969E-05-3.08062E-05 3.63636E-06 4.12579E-19 6.80495E-19
 -1       622 4.55044E-05-1.48084E-05-1.26130E-05 1.91731E-05 8.51533E-20 1.53578E-19
 -1       623 9.57106E-05-2.53223E-05-3.01617E-05 6.21802E-07 2.66972E-19 5.65585E-19
 -1       624 9.57470E-05-2.53547E-05-3.01669E-05-7.70885E-07 3.83083E-20-1.08045E-18
 -1       625 9.59557E-05-2.65966E-05-2.97246E-05 1.15483E-06-9.33369E-20-7.89546E-19
 -1       626 9.61411E-05-2.74573E-05-2.94356E-05 2.53168E-06 5.89485E-20-6.52723E-19
 -1       627 9.64321E-05-2.81686E-05-2.92557E-05 3.47489E-06-1.42544E-20-5.57572E-19
 -1       628 9.69094E-05-2.88922E-05-2.91503E-05 4.04870E-06 1.05652E-19-7.98697E-19
 -1       629 9.76375E-05-2.97492E-05-2.90953E-05 4.25837E-06-2.84451E-19-8.50088E-19
 -1       630 9.86693E-05-3.08218E-05-2.90782E-05 4.05183E-06-3.93218E-19-6.08129E-19
 -1       631 1.00029E-04-3.21302E-05-2.91008E-05 3.32971E-06-4.48947E-19-9.56027E-20
 -1       632 1.01673E-04-3.35857E-05-2.91819E-05 1.97089E-06-1.30514E-19-1.65860E-19
 -1       633 1.03429E-04-3.49282E-05-2.93588E-05-1.09616E-07-6.47286E-20 7.81852E-20
 -1       634 1.04942E-04-3.56840E-05-2.96826E-05-2.84742E-06 3.01945E-19-1.67580E-19
 -1       635 1.05696E-04-3.52284E-05-3.01998E-05-5.87264E-06 1.86497E-19-1.73867E-19
 -1       636 1.05158E-04-3.30137E-05-3.09192E-05-8.34569E-06-1.66171E-19-2.45557E-19
 -1       637 1.03263E-04-2.91759E-05-3.17522E-05-9.04211E-06-1.80332E-19-2.15395E-19
 -1       638 1.00722E-04-2.48607E-05-3.25162E-05-6.94954E-06 2.13272E-19-3.91486E-20
 -1       639 9.89507E-05-2.20380E-05-3.29690E-05-2.23842E-06-3.51990E-20-4.31129E-19
 -1       640 9.91674E-05-2.23380E-05-3.29255E-05 3.48970E-06-7.18300E-20 1.68974E-19
 -1       641 1.01153E-04-2.54903E-05-3.24295E-05 7.86641E-06-2.37293E-19-6.02386E-19
 -1       642 1.03660E-04-2.97949E-05-3.16564E-05 9.49749E-06-1.79926E-19-1.39766E-18
 -1       643 1.05352E-04-3.33658E-05-3.08505E-05 8.49381E-06 1.23237E-19-5.00957E-19
 -1       644 1.05645E-04-3.52181E-05-3.01839E-05 5.96324E-06-3.90222E-19 1.75534E-19
 -1       645 1.04736E-04-3.54011E-05-2.97158E-05 3.06961E-06 4.59484E-19 4.30344E-19
 -1       646 1.03156E-04-3.44889E-05-2.94307E-05 5.59586E-07 7.93759E-19 9.09540E-19
 -1       647 1.01405E-04-3.30995E-05-2.92752E-05-1.26623E-06 5.35734E-19 1.33244E-18
 -1       648 9.98003E-05-3.16788E-05-2.91960E-05-2.39718E-06 6.33360E-19 1.21681E-18
 -1       649 9.84838E-05-3.04648E-05-2.91516E-05-2.95479E-06-2.01637E-19 1.37347E-18
 -1       650 9.74793E-05-2.95414E-05-2.91165E-05-3.09464E-06 1.07931E-18 1.91133E-18
 -1       651 9.67513E-05-2.89022E-05-2.90782E-05-2.96011E-06-4.24174E-19 1.52342E-18
 -1       652 9.62431E-05-2.84999E-05-2.90327E-05-2.66605E-06-7.67659E-20 3.93679E-19
 -1       653 9.58983E-05-2.82757E-05-2.89810E-05-2.29661E-06-1.34377E-18-5.83213E-19
 -1       654 9.56690E-05-2.81748E-05-2.89259E-05-1.90891E-06-1.89572E-19 1.24672E-19
 -1       655 9.55187E-05-2.81530E-05-2.88709E-05-1.53875E-06-4.52427E-19 5.06155E-19
 -1       656 9.54212E-05-2.81776E-05-2.88185E-05-1.20619E-06-2.58021E-20-4.85651E-19
 -1       657 9.53581E-05-2.82256E-05-2.87709E-05-9.20315E-07-1.46289E-18-1.49782E-18
 -1       658 9.53172E-05-2.82823E-05-2.87291E-05-6.82923E-07-9.27969E-19-1.47942E-18
 -1       659 9.52905E-05-2.83387E-05-2.86935E-05-4.91420E-07-1.01454E-19-2.33996E-18
 -1       660 9.52729E-05-2.83901E-05-2.86640E-05-3.40860E-07-6.57472E-19-3.01234E-18
 -1       661 9.52612E-05-2.84342E-05-2.86401E-05-2.25345E-07-1.12611E-18-9.40170E-19
 -1       662 9.52533E-05-2.84708E-05-2.86210E-05-1.38927E-07 1.05371E-18 2.73048E-18
 -1       663 9.52480E-05-2.85004E-05-2.86061E-05-7.61681E-08 1.55022E-18 1.68246E-18
 -1       664 9.52446E-05-2.85244E-05-2.85944E-05-3.23466E-08 2.30778E-19-3.87499E-20
 -1       665 9.52427E-05-2.85441E-05-2.85851E-05-3.89384E-09 1.99813E-18 8.66283E-19
 -1       666 9.53550E-05-2.64351E-05-2.95353E-05-5.25188E-06 4.31721E-19 2.08399E-19
 -1       667 1.37654E-04-6.24892E-05-3.22073E-05 8.44177E-06 1.11889E-18 5.40175E-19
 -1       668 9.55140E-05-2.64738E-05-2.95870E-05-3.57703E-06 4.59383E-19 3.64726E-19
 -1       669 9.48186E-05-2.56056E-05-2.96602E-05-8.67435E-06 2.38558E-19 5.98387E-19
 -1       670 9.43367E-05-2.49639E-05-2.97286E-05-1.06743E-05 4.63606E-19 3.63429E-19
 -1       671 9.37165E-05-2.44094E-05-2.97006E-05-1.29767E-05 3.59762E-19 3.39237E-19
 -1       672 9.31680E-05-2.44008E-05-2.94697E-05-1.56260E-05 5.58277E-19 4.40415E-19
 -1       673 9.33037E-05-2.58214E-05-2.89163E-05-1.86217E-05 3.63880E-19 6.95400E-19
 -1       674 9.54730E-05-3.01936E-05-2.79528E-05-2.18752E-05-3.51375E-19 5.81096E-19
 -1       675 1.02319E-04-3.94472E-05-2.68089E-05-2.47933E-05-6.21299E-19 8.57105E-19
 -1       676 9.56666E-05-2.74545E-05-2.92217E-05 1.87748E-05-1.36016E-18 2.00843E-18
 -1       677 9.47323E-05-2.51814E-05-2.98051E-05 1.57031E-05-6.25509E-19 1.79323E-18
 -1       678 9.48691E-05-2.47450E-05-3.00503E-05 1.27101E-05 9.36286E-21 5.00199E-19
 -1       679 9.52756E-05-2.51516E-05-3.00497E-05 1.01968E-05 9.90820E-19-1.25535E-18
 -1       680 9.56138E-05-2.57878E-05-2.99222E-05 8.05241E-06-5.79683E-19-4.34235E-19
 -1       681 9.58105E-05-2.64151E-05-2.97381E-05 6.27261E-06-2.39022E-19-2.42013E-19
 -1       682 9.58795E-05-2.69450E-05-2.95412E-05 4.82688E-06-6.60259E-19-2.70242E-19
 -1       683 9.58606E-05-2.73615E-05-2.93551E-05 3.67264E-06 2.50480E-19-7.80849E-19
 -1       684 9.57919E-05-2.76769E-05-2.91909E-05 2.76374E-06-1.74946E-18 1.22433E-18
 -1       685 9.57020E-05-2.79114E-05-2.90522E-05 2.05600E-06 6.89543E-19 8.11733E-19
 -1       686 9.56091E-05-2.80844E-05-2.89385E-05 1.51014E-06 1.56060E-18-6.83223E-19
 -1       687 9.55236E-05-2.82119E-05-2.88474E-05 1.09287E-06 5.51613E-19 1.54544E-18
 -1       688 9.54503E-05-2.83062E-05-2.87757E-05 7.76720E-07 8.09709E-19 3.64695E-18
 -1       689 9.53907E-05-2.83762E-05-2.87202E-05 5.39445E-07 1.94992E-18 3.59353E-18
 -1       690 9.53441E-05-2.84284E-05-2.86780E-05 3.63233E-07 1.55947E-19 3.17568E-18
 -1       691 9.53090E-05-2.84675E-05-2.86462E-05 2.33960E-07 6.78840E-19 2.35679E-18
 -1       692 9.52835E-05-2.84970E-05-2.86227E-05 1.40555E-07-1.30307E-18-6.96070E-19
 -1       693 9.52658E-05-2.85195E-05-2.86055E-05 7.45113E-08-8.42792E-19 8.87302E-19
 -1       694 9.52539E-05-2.85368E-05-2.85930E-05 2.92629E-08-3.08050E-19 3.72766E-19
 -1       695 9.52468E-05-2.85511E-05-2.85839E-05 2.03767E-10 6.35972E-19-2.26245E-18
 -1       696 9.52428E-05-2.85612E-05-2.85778E-05-1.45670E-08 9.37365E-19-4.47386E-18
 -1       697 9.52181E-05-2.85045E-05-2.85915E-05 5.15040E-09 1.77017E-18-1.93641E-18
 -1       698 9.52420E-05-2.85559E-05-2.85798E-05 8.28502E-09 1.54818E-18-2.54125E-19
 -1       699 9.52312E-05-2.85224E-05-2.85895E-05 8.78979E-09 2.37123E-19 1.48168E-18
 -1       700 1.11935E-04-5.48661E-05-2.43244E-05-3.21883E-05 2.02450E-18-9.00571E-19
 -1       701 9.52172E-05-2.85039E-05-2.85914E-05-6.11556E-11 7.01440E-20-4.52286E-19
 -1       702 9.52232E-05-2.85110E-05-2.85909E-05 8.75724E-09 7.66787E-20-3.16449E-19
 -1       703 9.52207E-05-2.85093E-05-2.85906E-05-4.47083E-09-8.07443E-19 1.94147E-18
 -1       704 9.52274E-05-2.85197E-05-2.85890E-05-6.20971E-09 1.23910E-18 2.68332E-18
 -1       705 9.52352E-05-2.85331E-05-2.85866E-05-3.95348E-09 2.67083E-18-6.04049E-19
 -1       706 9.56436E-05-2.61532E-05-2.97787E-05-1.69310E-06 3.64730E-19 6.48280E-19
 -1       707 1.31115E-04-5.81142E-05-3.13403E-05-1.51683E-05 2.11573E-18-1.15615E-18
 -1       708 4.18164E-05-1.32637E-05-1.16805E-05-1.53680E-05 7.36350E-19-2.93550E-19
 -1       709 3.73290E-05-1.08616E-05-1.07819E-05 1.19120E-05 7.87972E-19 1.19252E-18
 -1       710 1.14985E-04-5.60772E-05-2.50177E-05 2.75521E-05 5.40566E-19-5.80319E-19
 -1       711 9.95294E-05-3.34492E-05-2.82996E-05 2.18599E-05-6.50392E-19 1.16887E-18
 -1       712 1.09300E-04-4.50477E-05-2.73491E-05 2.36253E-05-1.08817E-19 2.78211E-19
 -1       713 9.51428E-05-2.61274E-05-2.95759E-05-6.90289E-06 2.15698E-19 2.86147E-19
 -1       714 9.52591E-05-2.33348E-05-3.08216E-05-3.36596E-06 2.97588E-19-1.29959E-18
 -1       715 7.59805E-05-3.51543E-05-1.71226E-05 3.48066E-05-5.61530E-19-2.01329E-19
 -1       716 1.35780E-04-4.98286E-05-3.70370E-05 1.00063E-06 1.95771E-18-9.93596E-19
 -1       717 6.41061E-05-2.62109E-05-1.57958E-05-3.05736E-05 2.79031E-19-7.90123E-19
 -1       718 9.10681E-05-1.63269E-05-3.20375E-05 3.03663E-06 9.11851E-19 8.98628E-20
 -1       719 3.65932E-05-9.10896E-06-1.12128E-05-2.29998E-06 9.26186E-19-8.33375E-19
 -1       720 4.71564E-05-1.87347E-05-1.16405E-05-3.01269E-05 2.18257E-19 3.66077E-19
 -1       721 8.35845E-05-4.10248E-05-1.79389E-05-4.07332E-05 1.00249E-18 4.29234E-19
 -1       722 9.12676E-05-1.65913E-05-3.20103E-05-2.87067E-06 7.59619E-19-8.86956E-19
 -1       723 1.19589E-04-8.77745E-06-4.80195E-05 5.82695E-06-1.93494E-19-2.13031E-18
 -1       724 1.20954E-04-5.81239E-05-2.68264E-05 2.61197E-05-1.69764E-19 2.55341E-19
 -1       725 5.60292E-05-2.18731E-05-1.41754E-05 3.14985E-05 8.61750E-19-2.73565E-19
 -1       726 1.35159E-04-5.57599E-05-3.41555E-05 6.90088E-06-7.94986E-19 7.65903E-19
 -1       727 1.36214E-04-4.25736E-05-4.04614E-05-7.38536E-06-3.33943E-19 1.30099E-19
 -1       728 1.25104E-04-2.19794E-05-4.46525E-05-1.31801E-05-4.44375E-19-1.55258E-19
 -1       729 1.20538E-04-8.70213E-06-4.84641E-05-5.79411E-06-5.32837E-19-6.85031E-19
 -1       730 9.24432E-05-1.81809E-05-3.18348E-05-4.04919E-06 6.06981E-19-9.48571E-19
 -1       731 8.99644E-05-1.49428E-05-3.21577E-05-3.97923E-07 8.64409E-19-4.78839E-19
 -1       732 7.21564E-05-2.98560E-05-1.78687E-05-3.48206E-05-3.61048E-19 2.95270E-19
 -1       733 9.52449E-05-2.85516E-05-2.85828E-05-5.29583E-09 9.75619E-20-5.53216E-19
 -1       734 9.52393E-05-2.85375E-05-2.85865E-05-4.57241E-09 6.99686E-19-2.30547E-18
 -1       735 7.67491E-05-3.27963E-05-1.85862E-05 3.47732E-05 8.45696E-19-3.11351E-19
 -1       736 8.65419E-05-3.49412E-05-2.18192E-05-3.00610E-05-2.54216E-19 4.72750E-20
 -1       737 1.29487E-04-3.75082E-05-3.96863E-05 1.08770E-05 6.71432E-19-1.92793E-18
 -1       738 9.52395E-05-2.85360E-05-2.85872E-05 4.40715E-09-2.03421E-19 1.20048E-18
 -1       739 9.04268E-05-1.55166E-05-3.21103E-05-1.62482E-06 7.48293E-19-6.30734E-19
 -1       740 1.17388E-04-1.65908E-05-4.35403E-05 1.10180E-05-1.07997E-19-2.68505E-18
 -1       741 9.42830E-05-2.09710E-05-3.14224E-05-4.92652E-06 3.67225E-19-1.38971E-18
 -1       742 9.40639E-05-2.15190E-05-3.10899E-05 2.24501E-06 4.24067E-19 4.06640E-19
 -1       743 9.53798E-05-2.47379E-05-3.02751E-05 1.49391E-07 1.50541E-19-8.73419E-19
 -1       744 9.57302E-05-2.60988E-05-2.98420E-05 1.81281E-06 1.46472E-19-5.79715E-19
 -1       745 9.59902E-05-2.71110E-05-2.95197E-05 3.09448E-06 5.21730E-20-3.24831E-19
 -1       746 9.63215E-05-2.80025E-05-2.92796E-05 4.05601E-06-6.50440E-20-5.37825E-19
 -1       747 9.68652E-05-2.89654E-05-2.90999E-05 4.72854E-06-1.26305E-21-7.45030E-19
 -1       748 9.77561E-05-3.01608E-05-2.89695E-05 5.09126E-06-1.82457E-19-5.76036E-19
 -1       749 9.91203E-05-3.17050E-05-2.88926E-05 5.05916E-06 6.49311E-20-1.19817E-19
 -1       750 1.01045E-04-3.36265E-05-2.88944E-05 4.47509E-06-7.55198E-20 4.25856E-19
 -1       751 1.03510E-04-3.57830E-05-2.90271E-05 3.12060E-06-6.26219E-20 7.87586E-19
 -1       752 1.06278E-04-3.77494E-05-2.93696E-05 7.78711E-07-1.49488E-19 1.97843E-19
 -1       753 1.08772E-04-3.87177E-05-3.00225E-05-2.57186E-06-9.50832E-20-4.02281E-19
 -1       754 1.10139E-04-3.76608E-05-3.10653E-05-6.53306E-06 1.03168E-19-1.46239E-19
 -1       755 1.09343E-04-3.35904E-05-3.24773E-05-9.66019E-06-3.08541E-19 2.42307E-19
 -1       756 1.06530E-04-2.72224E-05-3.39943E-05-1.00531E-05-3.26067E-19-3.45629E-20
 -1       757 1.02767E-04-2.08538E-05-3.51479E-05-6.27768E-06 7.85903E-19 1.68083E-20
 -1       758 1.01856E-04-1.88088E-05-3.55984E-05 7.57946E-07 4.34055E-19 6.49305E-19
 -1       759 1.03576E-04-2.17653E-05-3.50980E-05 7.47348E-06-7.35972E-19 6.31504E-19
 -1       760 1.06987E-04-2.81871E-05-3.37873E-05 1.06186E-05-7.28212E-19 1.22842E-18
 -1       761 1.09527E-04-3.42858E-05-3.22548E-05 9.70690E-06 6.49626E-19 7.08269E-19
 -1       762 1.09809E-04-3.76813E-05-3.09155E-05 6.38651E-06 9.19774E-19 1.46222E-18
 -1       763 1.08186E-04-3.83176E-05-2.99423E-05 2.59182E-06 4.32503E-19 2.43084E-18
 -1       764 1.05530E-04-3.70615E-05-2.93452E-05-4.88209E-07 5.28943E-19 2.61024E-18
 -1       765 1.02721E-04-3.49909E-05-2.90282E-05-2.53085E-06 6.75453E-19 1.41486E-18
 -1       766 1.00269E-04-3.28554E-05-2.88920E-05-3.63370E-06 6.12625E-19 1.28382E-18
 -1       767 9.83647E-05-3.10393E-05-2.88541E-05-4.04374E-06 5.77995E-19 1.49804E-18
 -1       768 9.70072E-05-2.96712E-05-2.88584E-05-4.00101E-06 2.36841E-19 2.39099E-18
 -1       769 9.61071E-05-2.87382E-05-2.88724E-05-3.69257E-06-5.98392E-19 1.33448E-18
 -1       770 9.55529E-05-2.81660E-05-2.88801E-05-3.24995E-06-1.08298E-18 1.41371E-19
 -1       771 9.52410E-05-2.78638E-05-2.88759E-05-2.76015E-06-1.36569E-18-8.08801E-19
 -1       772 9.50877E-05-2.77475E-05-2.88600E-05-2.27706E-06-2.40127E-19-1.43070E-19
 -1       773 9.50317E-05-2.77493E-05-2.88352E-05-1.83147E-06-8.10196E-19 1.37144E-19
 -1       774 9.50304E-05-2.78188E-05-2.88049E-05-1.43895E-06-1.21755E-18 1.20143E-18
 -1       775 9.50563E-05-2.79208E-05-2.87723E-05-1.10507E-06-1.42413E-18-6.27827E-19
 -1       776 9.50922E-05-2.80324E-05-2.87399E-05-8.28998E-07-1.95589E-18-1.50645E-18
 -1       777 9.51287E-05-2.81399E-05-2.87095E-05-6.06206E-07-5.23330E-19-1.11936E-19
 -1       778 9.51609E-05-2.82361E-05-2.86821E-05-4.30331E-07 1.57005E-19-6.12638E-19
 -1       779 9.51869E-05-2.83179E-05-2.86582E-05-2.94386E-07-4.77847E-20 1.25963E-18
 -1       780 9.52065E-05-2.83849E-05-2.86378E-05-1.91552E-07 8.55704E-19-1.80623E-19
 -1       781 9.52204E-05-2.84386E-05-2.86208E-05-1.15589E-07 1.25626E-18-1.51450E-18
 -1       782 9.52298E-05-2.84811E-05-2.86066E-05-6.14418E-08 2.94520E-19-1.69399E-18
 -1       783 9.52359E-05-2.85126E-05-2.85957E-05-2.76342E-08 1.08032E-18 2.82797E-19
 -1       784 8.91117E-05-2.18970E-05-2.88062E-05-1.02795E-05 3.06434E-19 5.07402E-19
 -1       785 9.11386E-05-2.31390E-05-2.91421E-05-8.56457E-06 3.65583E-19 3.50010E-19
 -1       786 8.34633E-05-2.00429E-05-2.71747E-05-1.49688E-05 9.68730E-20 6.87167E-19
 -1       787 8.03684E-05-2.08917E-05-2.54566E-05-1.88557E-05 7.04336E-20 9.94791E-19
 -1       788 8.09444E-05-2.53832E-05-2.36976E-05-2.42670E-05-3.10213E-19 3.47859E-19
 -1       789 4.96715E-05-1.01993E-05-1.66206E-05-2.34964E-06 8.10294E-19 7.88138E-19
 -1       790 5.41384E-05-1.37721E-05-1.70110E-05 1.55938E-05 5.76566E-19 8.12093E-19
 -1       791 6.99550E-05-2.28940E-05-1.99403E-05 2.55231E-05-3.46701E-19-5.90514E-19
 -1       792 1.24717E-04-3.40860E-05-3.90541E-05-1.22010E-05-2.16629E-19 2.84510E-19
 -1       793 8.37532E-05-2.05309E-05-2.70981E-05 1.57401E-05-6.44627E-19-9.02784E-19
 -1       794 9.09083E-05-2.28947E-05-2.91480E-05 8.15615E-06 5.67359E-19 5.68561E-19
 -1       795 9.23494E-05-2.40966E-05-2.92504E-05 6.55296E-06-1.36202E-19-6.47042E-19
 -1       796 9.33676E-05-2.51249E-05-2.92462E-05 5.20712E-06-4.21070E-19-4.01050E-19
 -1       797 9.40602E-05-2.59551E-05-2.91874E-05 4.08672E-06 1.85731E-19-5.22529E-19
 -1       798 9.45174E-05-2.66037E-05-2.91055E-05 3.16639E-06-1.44883E-18 1.84882E-18
 -1       799 9.48112E-05-2.71007E-05-2.90185E-05 2.42109E-06-7.24006E-19 1.80379E-19
 -1       800 9.49952E-05-2.74773E-05-2.89360E-05 1.82556E-06 1.33040E-18 1.45756E-18
 -1       801 9.51077E-05-2.77612E-05-2.88627E-05 1.35573E-06 1.01478E-18 2.19324E-18
 -1       802 9.51746E-05-2.79744E-05-2.87999E-05 9.89635E-07-8.13575E-19 1.25349E-18
 -1       803 9.52128E-05-2.81344E-05-2.87478E-05 7.07835E-07 1.97306E-18 1.34911E-18
 -1       804 9.52337E-05-2.82540E-05-2.87055E-05 4.93626E-07 1.80940E-18 2.16008E-18
 -1       805 9.52440E-05-2.83433E-05-2.86717E-05 3.32957E-07 3.45327E-19 1.30148E-18
 -1       806 9.52483E-05-2.84098E-05-2.86450E-05 2.14221E-07-3.08086E-19 2.89208E-18
 -1       807 9.52491E-05-2.84593E-05-2.86242E-05 1.28018E-07-1.01649E-18 3.67561E-18
 -1       808 9.52483E-05-2.84962E-05-2.86080E-05 6.74012E-08 7.70127E-19 3.55440E-19
 -1       809 9.52465E-05-2.85236E-05-2.85955E-05 2.57899E-08 2.45340E-18-1.23505E-18
 -1       810 1.21161E-04-5.46556E-05-2.84417E-05-1.76789E-05 2.76086E-18-2.44827E-18
 -1       811 9.52002E-05-2.84612E-05-2.86024E-05-9.64428E-09 1.91988E-18 1.65892E-18
 -1       812 9.52220E-05-2.84935E-05-2.85979E-05-2.33886E-08-6.89142E-19 1.57006E-18
 -1       813 1.12207E-04-1.61006E-05-4.14399E-05-8.86217E-06 3.65429E-19-4.35530E-19
 -1       814 9.51977E-05-2.84570E-05-2.86031E-05 3.02870E-09 3.07130E-19-2.09965E-18
 -1       815 9.47138E-05-2.27190E-05-3.08547E-05-1.94149E-06 2.89828E-19-9.03959E-19
 -1       816 9.52091E-05-2.84740E-05-2.86007E-05-1.93829E-08 8.48295E-19 3.08534E-18
 -1       817 8.18251E-05-2.27552E-05-2.52601E-05 2.03798E-05-1.22382E-18-1.02014E-18
 -1       818 5.96899E-05-1.71276E-05-1.79514E-05-2.05665E-05 3.93116E-19-4.32940E-19
 -1       819 8.89714E-05-2.16361E-05-2.88576E-05 1.00743E-05 1.31185E-18 1.59364E-19
 -1       820 8.64791E-05-2.05971E-05-2.82359E-05 1.25040E-05-5.42942E-19-3.92140E-19
 -1       821 8.65163E-05-2.06907E-05-2.82096E-05-1.23215E-05 1.81485E-19 7.77916E-19
 -1       822 9.44688E-05-2.51945E-05-2.96887E-05-3.97274E-06 4.50747E-19 6.06505E-19
 -1       823 1.27901E-04-5.27838E-05-3.22610E-05-4.72575E-06 3.32618E-18-7.34265E-19
 -1       824 1.09190E-04-1.13814E-05-4.21950E-05-1.26934E-07 9.94046E-19-1.53817E-18
 -1       825 1.03705E-04-4.77917E-05-2.38126E-05 2.99014E-05 2.45904E-19-1.81371E-19
 -1       826 5.11529E-05-1.07653E-05-1.69806E-05 8.18960E-06-1.04784E-19-1.24138E-18
 -1       827 9.92814E-05-4.59768E-05-2.27022E-05-3.26701E-05 1.98530E-18-2.06886E-18
 -1       828 9.50752E-05-2.35355E-05-3.06594E-05 1.55036E-06 3.34034E-19 7.03801E-19
 -1       829 1.25610E-04-5.48830E-05-3.03773E-05 1.08228E-05-3.64230E-19 6.91493E-19
 -1       830 1.29856E-04-4.68984E-05-3.56855E-05-4.99031E-06-1.56357E-19 6.12378E-19
 -1       831 9.37378E-05-2.06137E-05-3.13393E-05-3.08445E-06 4.81335E-19-8.56904E-19
 -1       832 9.13832E-05-1.77248E-05-3.15686E-05 9.51094E-07 6.59242E-19-2.94651E-19
 -1       833 4.92490E-05-1.24088E-05-1.54565E-05-1.61782E-05 3.92193E-19 2.12486E-18
 -1       834 9.12910E-05-1.75895E-05-3.15865E-05 2.99743E-07 6.28253E-19-1.57377E-19
 -1       835 6.55101E-05-2.05930E-05-1.90957E-05-2.46716E-05 4.60521E-19 1.02210E-18
 -1       836 1.13908E-04-5.03185E-05-2.72253E-05 1.85938E-05-2.46245E-19 2.83256E-19
 -1       837 9.49101E-05-2.50179E-05-2.99539E-05-2.25907E-06 5.01133E-19 4.68509E-19
 -1       838 9.25416E-05-1.88824E-05-3.15706E-05-2.29885E-06 5.94349E-19-8.76294E-19
 -1       839 9.28644E-05-1.97166E-05-3.13480E-05 1.98788E-06 6.26105E-19 4.63981E-20
 -1       840 9.26483E-05-2.41763E-05-2.93446E-05-7.01221E-06 5.91871E-20-8.60302E-20
 -1       841 1.13692E-04-2.50247E-05-3.81141E-05-1.22532E-05 1.41838E-19-4.73068E-19
 -1       842 6.60421E-05-2.09649E-05-1.91748E-05 2.40280E-05 4.62281E-19-5.88423E-19
 -1       843 9.52134E-05-2.84763E-05-2.86016E-05 2.35405E-08-6.76051E-19 1.17780E-18
 -1       844 9.51243E-05-2.45371E-05-3.02516E-05-5.37040E-07 3.01942E-19 5.31855E-19
 -1       845 9.52025E-05-2.84624E-05-2.86029E-05 1.51971E-08-5.20760E-19 3.33445E-19
 -1       846 9.37315E-05-2.48873E-05-2.95042E-05-5.52070E-06 4.54833E-19 2.49453E-19
 -1       847 9.52287E-05-2.85018E-05-2.85971E-05-2.65381E-08-4.14400E-19-9.49693E-19
 -1       848 9.52273E-05-2.84960E-05-2.85992E-05 2.59091E-08-3.07398E-20 1.26004E-18
 -1       849 1.26223E-04-4.51890E-05-3.48622E-05 5.54600E-06 1.94294E-18-7.55309E-19
 -1       850 9.16116E-05-1.76345E-05-3.17073E-05-1.37393E-06 6.24065E-19-8.34890E-19
 -1       851 1.20142E-04-2.73620E-05-3.99879E-05 1.32349E-05-1.16216E-19-1.79546E-18
 -1       852 9.19247E-05-1.84360E-05-3.14947E-05 1.52751E-06 7.75819E-19-6.33808E-20
 -1       853 6.19322E-05-1.36376E-05-2.05531E-05-1.18500E-05 3.90932E-19 2.61912E-19
 -1       854 9.52722E-05-2.56681E-05-2.98304E-05 2.41510E-06 3.50175E-19-3.28520E-19
 -1       855 9.55131E-05-2.67398E-05-2.94743E-05 3.62104E-06-1.13633E-19-3.44746E-19
 -1       856 9.58326E-05-2.77514E-05-2.91776E-05 4.65529E-06-1.89394E-19-4.57284E-19
 -1       857 9.64224E-05-2.89247E-05-2.89276E-05 5.53469E-06-8.97280E-20-6.46405E-19
 -1       858 9.74866E-05-3.04631E-05-2.87244E-05 6.22399E-06 1.03073E-19-5.10648E-19
 -1       859 9.92394E-05-3.25315E-05-2.85894E-05 6.60354E-06 3.13985E-19-3.63552E-19
 -1       860 1.01865E-04-3.51902E-05-2.85759E-05 6.43003E-06 7.76196E-20-2.14554E-19
 -1       861 1.05416E-04-3.82610E-05-2.87822E-05 5.29946E-06-3.20724E-19-2.25102E-19
 -1       862 1.09631E-04-4.11254E-05-2.93579E-05 2.64683E-06-1.20603E-19 1.36702E-19
 -1       863 1.13331E-04-4.21901E-05-3.05156E-05-1.56552E-06-5.35781E-20-7.80925E-20
 -1       864 1.15955E-04-4.04568E-05-3.23715E-05-7.11113E-06-3.06236E-19-5.73683E-19
 -1       865 1.14204E-04-3.30632E-05-3.48017E-05-1.11315E-05-1.77718E-19-1.11893E-18
 -1       866 1.10699E-04-2.47457E-05-3.68908E-05 1.15196E-05-2.05233E-19-2.60683E-19
 -1       867 1.14746E-04-3.47114E-05-3.43340E-05 1.11275E-05 1.15845E-19 4.94869E-20
 -1       868 1.15056E-04-4.03733E-05-3.20119E-05 6.43664E-06 1.62800E-18 9.60172E-19
 -1       869 1.12538E-04-4.19891E-05-3.02371E-05 1.13679E-06 1.06052E-18 1.99914E-18
 -1       870 1.08391E-04-4.01717E-05-2.92388E-05-2.67513E-06-1.89900E-20 1.89133E-18
 -1       871 1.04157E-04-3.71605E-05-2.87137E-05-4.86397E-06-2.09131E-19 1.25505E-18
 -1       872 1.00644E-04-3.41162E-05-2.85125E-05-5.69292E-06-3.31693E-20 1.67261E-18
 -1       873 9.80549E-05-3.15856E-05-2.84871E-05-5.68764E-06 4.10068E-19 9.99516E-19
 -1       874 9.63126E-05-2.97187E-05-2.85403E-05-5.23235E-06 8.39306E-19 9.91422E-19
 -1       875 9.52421E-05-2.84712E-05-2.86161E-05-4.57820E-06-7.93268E-19 4.29030E-19
 -1       876 9.46569E-05-2.77243E-05-2.86854E-05-3.87109E-06-1.20791E-18 6.21025E-19
 -1       877 9.43984E-05-2.73477E-05-2.87360E-05-3.19061E-06-1.78563E-18-2.23235E-19
 -1       878 9.43429E-05-2.72231E-05-2.87656E-05-2.57593E-06 4.69835E-19-3.18086E-19
 -1       879 9.44022E-05-2.72569E-05-2.87765E-05-2.04150E-06-1.76648E-19 1.34799E-19
 -1       880 9.45176E-05-2.73806E-05-2.87730E-05-1.58968E-06-2.03521E-19 4.41393E-19
 -1       881 9.46517E-05-2.75462E-05-2.87595E-05-1.21632E-06-1.93349E-18 2.09163E-20
 -1       882 9.47822E-05-2.77224E-05-2.87399E-05-9.13622E-07-1.95730E-18 1.29353E-18
 -1       883 9.48978E-05-2.78902E-05-2.87175E-05-6.72371E-07-8.00158E-19 1.02802E-18
 -1       884 9.49938E-05-2.80399E-05-2.86946E-05-4.83201E-07 3.42486E-19 1.30246E-18
 -1       885 9.50697E-05-2.81671E-05-2.86725E-05-3.37254E-07-2.43179E-19 1.66926E-19
 -1       886 9.51271E-05-2.82716E-05-2.86524E-05-2.26557E-07-1.46835E-19-1.38992E-18
 -1       887 9.51686E-05-2.83551E-05-2.86344E-05-1.44304E-07 6.89906E-19-1.33175E-19
 -1       888 9.51977E-05-2.84212E-05-2.86186E-05-8.43302E-08 1.14725E-18 2.67686E-18
 -1       889 8.70636E-05-2.07878E-05-2.84041E-05-6.74814E-06 1.80633E-19 3.87661E-19
 -1       890 7.27070E-05-1.54221E-05-2.45139E-05-1.06846E-05 5.23986E-20 6.66892E-19
 -1       891 8.85578E-05-2.17928E-05-2.86136E-05 5.50038E-06 7.23432E-19 3.94047E-19
 -1       892 9.29461E-05-2.53996E-05-2.89484E-05 3.06430E-06-1.51324E-18-2.84925E-19
 -1       893 9.36626E-05-2.61567E-05-2.89311E-05 2.43196E-06-3.03801E-19-3.06986E-19
 -1       894 9.41652E-05-2.67456E-05-2.88941E-05 1.89583E-06 1.45730E-19-4.48606E-19
 -1       895 9.45154E-05-2.72000E-05-2.88495E-05 1.45135E-06 6.82417E-19 1.39144E-18
 -1       896 9.47581E-05-2.75486E-05-2.88041E-05 1.09037E-06 1.74575E-18 1.79620E-18
 -1       897 9.49251E-05-2.78147E-05-2.87616E-05 8.02605E-07 1.47986E-18 3.79353E-19
 -1       898 9.50390E-05-2.80168E-05-2.87238E-05 5.77141E-07 1.11575E-18-4.82412E-19
 -1       899 9.51158E-05-2.81695E-05-2.86913E-05 4.03454E-07 3.73557E-19 6.55291E-19
 -1       900 9.51666E-05-2.82841E-05-2.86639E-05 2.71938E-07 2.87563E-19 1.71246E-18
 -1       901 9.51994E-05-2.83698E-05-2.86413E-05 1.74163E-07-8.09672E-20 1.73792E-19
 -1       902 9.52197E-05-2.84337E-05-2.86226E-05 1.02700E-07 1.99022E-18-1.85577E-18
 -1       903 9.52313E-05-2.84804E-05-2.86075E-05 5.29267E-08 1.24971E-18-2.00510E-18
 -1       904 1.08630E-04-4.70787E-05-2.63229E-05-2.09874E-05 2.15320E-18-1.97979E-18
 -1       905 7.13772E-05-1.53915E-05-2.39053E-05 1.17680E-05-1.19768E-18-1.71236E-18
 -1       906 6.22879E-05-1.30042E-05-2.09871E-05 1.06820E-05-6.89499E-19-6.33256E-19
 -1       907 9.42602E-05-2.23867E-05-3.08029E-05-6.77692E-07 2.71673E-19-4.55222E-19
 -1       908 8.58904E-05-2.01091E-05-2.81925E-05 6.48238E-06 1.90628E-19-8.52154E-19
 -1       909 9.19333E-05-2.44390E-05-2.89261E-05 3.79193E-06-2.09581E-19-1.19759E-18
 -1       910 1.19851E-04-5.01967E-05-2.98854E-05-7.79194E-06 2.26218E-18 5.88493E-19
 -1       911 9.34882E-05-2.07434E-05-3.11767E-05-1.53004E-06 4.15456E-19-8.09626E-19
 -1       912 9.13187E-05-1.74367E-05-3.16657E-05-4.34240E-07 6.03845E-19-4.33753E-19
 -1       913 8.99827E-05-3.69265E-05-2.26072E-05 2.88521E-05 4.97973E-19-6.44374E-19
 -1       914 5.84675E-05-1.14415E-05-2.00308E-05-4.77660E-06-4.03083E-19 8.50275E-20
 -1       915 9.05165E-05-2.32428E-05-2.88316E-05 4.60671E-06 5.67217E-19-6.16165E-19
 -1       916 8.67277E-05-3.50799E-05-2.20191E-05-2.97695E-05 9.59715E-19-3.09721E-18
 -1       917 9.44208E-05-2.30146E-05-3.06029E-05 2.85909E-07 3.98811E-19 1.87868E-19
 -1       918 1.21511E-04-4.00376E-05-3.49972E-05-9.35908E-06-3.80255E-20 3.44157E-19
 -1       919 1.23012E-04-4.86047E-05-3.19012E-05 3.83981E-07-5.08931E-19 5.90117E-19
 -1       920 9.51699E-05-2.84014E-05-2.86151E-05-9.04026E-09 2.41236E-18 1.19598E-18
 -1       921 5.92974E-05-1.20263E-05-2.01435E-05 4.24122E-06 2.49108E-19 8.44829E-19
 -1       922 9.49221E-05-2.43028E-05-3.02655E-05 9.90310E-07 3.41085E-19-5.11021E-19
 -1       923 6.63590E-05-1.57322E-05-2.16369E-05-1.31468E-05-5.90959E-21 1.22159E-18
 -1       924 1.17282E-04-4.89317E-05-2.92967E-05 8.41076E-06-6.00831E-19 5.82291E-19
 -1       925 9.38200E-05-2.39463E-05-2.99477E-05-2.39903E-06 3.74264E-19-1.15465E-19
 -1       926 1.06446E-04-1.76969E-05-3.81367E-05 7.12135E-06 1.37113E-20 7.79667E-20
 -1       927 8.97028E-05-2.22543E-05-2.89064E-05-5.84184E-06-8.03381E-20 2.58657E-19
 -1       928 8.35346E-05-1.90271E-05-2.76479E-05-7.64024E-06 2.03421E-19 1.77959E-19
 -1       929 9.52166E-05-2.84663E-05-2.86073E-05-5.20055E-08 1.58406E-18 1.56661E-18
 -1       930 7.88763E-05-1.71372E-05-2.64469E-05-8.84223E-06 2.38415E-19 5.16657E-19
 -1       931 7.74888E-05-1.64675E-05-2.61485E-05 9.24590E-06-1.32386E-19-1.18381E-18
 -1       932 1.21036E-04-4.68818E-05-3.18301E-05 1.34642E-06 2.14881E-18 8.11630E-20
 -1       933 6.51849E-05-1.59554E-05-2.10284E-05 1.30336E-05-1.01922E-19 2.08565E-19
 -1       934 9.51714E-05-2.84019E-05-2.86155E-05 1.45944E-08-1.31127E-18 7.68745E-19
 -1       935 9.29672E-05-2.38961E-05-2.96015E-05-3.73384E-06 5.18367E-19 1.77109E-19
 -1       936 9.25452E-05-1.94151E-05-3.13401E-05-9.24124E-07 5.46341E-19-9.23950E-19
 -1       937 9.52041E-05-2.84416E-05-2.86125E-05 4.91713E-08-4.85375E-19 1.07190E-18
 -1       938 8.22735E-05-1.82684E-05-2.74303E-05 7.64211E-06 2.61896E-19-2.19817E-18
 -1       939 1.02576E-04-4.29202E-05-2.55377E-05 2.22230E-05 1.65883E-20-6.54601E-19
 -1       940 9.51841E-05-2.84164E-05-2.86147E-05 3.57405E-08-1.49795E-18 8.66182E-19
 -1       941 9.23736E-05-2.00330E-05-3.10036E-05 6.14135E-07 5.42351E-19 3.17336E-20
 -1       942 9.21620E-05-1.97204E-05-3.10464E-05 5.32422E-07 4.31459E-19-1.32486E-19
 -1       943 9.51793E-05-2.84144E-05-2.86136E-05-3.03177E-08 2.13662E-18 1.16185E-18
 -1       944 9.52009E-05-2.84448E-05-2.86097E-05-4.48570E-08 4.23256E-19 2.09587E-18
 -1       945 9.46892E-05-2.62715E-05-2.93218E-05 4.05963E-06-7.61143E-20-2.13451E-19
 -1       946 9.48889E-05-2.73090E-05-2.89627E-05 5.25993E-06 1.69901E-19 2.01576E-19
 -1       947 9.54123E-05-2.86054E-05-2.86316E-05 6.49672E-06 6.66457E-20 1.03655E-19
 -1       948 9.65441E-05-3.04263E-05-2.83363E-05 7.74366E-06 2.45504E-19 2.05295E-19
 -1       949 9.86124E-05-3.30147E-05-2.81129E-05 8.85843E-06 1.49501E-19 3.52790E-19
 -1       950 1.01964E-04-3.65202E-05-2.80464E-05 9.50877E-06-2.91878E-19 6.11370E-20
 -1       951 1.06754E-04-4.07483E-05-2.82749E-05 9.07431E-06 2.13126E-19 3.84429E-19
 -1       952 1.11365E-04-4.38847E-05-2.88802E-05-6.74237E-06 1.14835E-18 1.56977E-18
 -1       953 1.05164E-04-3.93846E-05-2.81913E-05-8.70593E-06 3.42574E-19 1.83248E-18
 -1       954 1.00406E-04-3.51606E-05-2.79617E-05-8.82168E-06 1.28415E-19 2.03902E-18
 -1       955 9.71448E-05-3.18296E-05-2.79928E-05-8.01932E-06-5.46642E-19 2.04490E-18
 -1       956 9.51051E-05-2.94656E-05-2.81313E-05-6.84981E-06-1.00588E-19 9.04653E-20
 -1       957 9.39712E-05-2.79485E-05-2.82954E-05-5.63686E-06-3.16242E-19-5.26774E-19
 -1       958 9.34492E-05-2.70778E-05-2.84450E-05-4.52742E-06-8.78520E-19-1.02945E-18
 -1       959 9.33185E-05-2.66718E-05-2.85629E-05-3.57330E-06-1.52198E-18 4.87204E-19
 -1       960 9.34174E-05-2.65763E-05-2.86462E-05-2.78399E-06-1.59297E-18 1.20864E-18
 -1       961 9.36326E-05-2.66687E-05-2.86988E-05-2.14437E-06-4.18460E-19 2.57301E-19
 -1       962 9.38948E-05-2.68664E-05-2.87265E-05-1.63279E-06-1.40344E-20-7.95565E-19
 -1       963 9.41598E-05-2.71106E-05-2.87354E-05-1.22909E-06-6.90491E-19-8.13938E-19
 -1       964 9.44024E-05-2.73627E-05-2.87313E-05-9.13601E-07-2.74470E-19-1.90123E-19
 -1       965 9.46109E-05-2.75999E-05-2.87190E-05-6.69137E-07-8.09687E-19 7.09832E-19
 -1       966 9.47821E-05-2.78102E-05-2.87022E-05-4.81382E-07-2.01202E-19 1.50883E-18
 -1       967 9.49172E-05-2.79890E-05-2.86835E-05-3.38628E-07-5.27584E-19 3.77704E-19
 -1       968 9.50201E-05-2.81360E-05-2.86646E-05-2.31196E-07-1.00113E-18 1.50856E-18
 -1       969 9.50959E-05-2.82538E-05-2.86466E-05-1.51702E-07-1.09285E-19 6.03411E-19
 -1       970 9.51497E-05-2.83464E-05-2.86300E-05-9.29144E-08 3.40001E-18 7.14120E-19
 -1       971 9.64260E-05-3.76234E-05-2.51297E-05-2.18872E-05 3.01344E-19-3.62722E-18
 -1       972 9.24266E-05-2.52247E-05-2.88009E-05 2.00223E-06-8.51611E-19-5.43157E-19
 -1       973 9.42487E-05-2.70743E-05-2.87891E-05 1.02725E-06 9.61816E-19 9.51688E-19
 -1       974 9.45572E-05-2.74472E-05-2.87615E-05 7.82309E-07 9.29479E-19 1.79779E-18
 -1       975 9.47779E-05-2.77359E-05-2.87323E-05 5.81072E-07 2.48392E-18 2.36557E-18
 -1       976 9.49342E-05-2.79579E-05-2.87042E-05 4.19930E-07 1.43979E-18 1.35136E-18
 -1       977 9.50434E-05-2.81270E-05-2.86785E-05 2.93897E-07 9.86720E-20 4.69918E-19
 -1       978 9.51181E-05-2.82546E-05-2.86558E-05 1.97778E-07 1.23246E-18-1.32869E-18
 -1       979 9.51682E-05-2.83507E-05-2.86360E-05 1.25503E-07 2.19885E-18-1.35701E-18
 -1       980 7.98427E-05-2.68062E-05-2.26649E-05 2.27494E-05-1.92475E-19-6.90484E-19
 -1       981 9.38578E-05-2.22715E-05-3.06816E-05 2.97366E-07 3.91340E-19-7.78020E-19
 -1       982 9.42696E-05-2.36755E-05-3.02538E-05-1.21649E-06 4.45121E-19 1.27288E-19
 -1       983 6.54082E-05-1.25617E-05-2.26110E-05 6.78239E-07-4.91199E-19-9.62044E-19
 -1       984 9.38211E-05-2.65965E-05-2.88106E-05 1.31663E-06-9.50734E-19-7.30720E-20
 -1       985 9.32324E-05-2.59893E-05-2.88185E-05 1.64598E-06-3.40481E-19-6.01098E-19
 -1       986 9.33751E-05-2.16341E-05-3.07471E-05 2.68841E-07 4.04112E-19-1.75599E-19
 -1       987 8.51432E-05-2.00231E-05-2.79090E-05 3.01258E-06-1.05391E-18-1.02505E-18
 -1       988 9.13279E-05-2.42704E-05-2.87390E-05 2.36273E-06-9.95659E-19 2.78953E-19
 -1       989 1.11241E-04-4.51904E-05-2.82524E-05-1.11738E-05 1.79822E-18 6.93409E-19
 -1       990 9.16220E-05-2.33135E-05-2.92749E-05-4.85009E-06 3.14725E-19 3.59379E-19
 -1       991 1.21559E-04-3.81384E-05-3.57882E-05 1.07055E-05 7.95781E-19-8.61882E-19
 -1       992 9.45896E-05-2.52511E-05-2.97170E-05 2.86755E-06 2.47337E-19-6.36538E-19
 -1       993 9.43747E-05-2.39918E-05-3.01641E-05 1.63687E-06 4.94219E-19-7.16094E-19
 -1       994 7.76932E-05-2.49383E-05-2.25580E-05-2.21324E-05 3.92512E-19-1.80607E-18
 -1       995 6.97456E-05-1.42596E-05-2.37513E-05 3.71707E-07-1.81264E-19 5.24066E-19
 -1       996 8.69979E-05-2.08461E-05-2.83506E-05-3.32297E-06 1.83581E-19 2.68105E-19
 -1       997 8.34984E-05-1.91563E-05-2.75709E-05-3.17261E-06 3.49052E-19 1.14399E-19
 -1       998 6.93619E-05-1.48818E-05-2.33283E-05-6.81798E-06-5.47856E-19 8.83702E-19
 -1       999 9.51263E-05-2.83030E-05-2.86386E-05 9.36174E-08 4.23279E-19-9.86315E-19
 -1      1000 9.18837E-05-3.40625E-05-2.47567E-05 2.13349E-05 7.49426E-21-9.03764E-19
 -1      1001 9.51283E-05-2.83284E-05-2.86286E-05 3.21302E-09 8.61564E-19 5.03113E-18
 -1      1002 8.78369E-05-2.16900E-05-2.83490E-05 2.92335E-06 9.92674E-19-7.56678E-19
 -1      1003 9.21259E-05-1.90588E-05-3.13186E-05-2.41434E-07 5.86008E-19-4.90282E-19
 -1      1004 8.14826E-05-1.81052E-05-2.71635E-05 2.86681E-06-5.60900E-20-1.50979E-18
 -1      1005 8.98412E-05-2.31009E-05-2.86032E-05 2.68866E-06 5.94009E-19-3.84555E-19
 -1      1006 9.32588E-05-2.09062E-05-3.10030E-05-3.34847E-07 5.19584E-19-9.63439E-19
 -1      1007 9.26297E-05-2.30564E-05-2.98128E-05-1.97697E-06 1.70996E-19-1.35704E-19
 -1      1008 9.25404E-05-2.12909E-05-3.05361E-05 3.04365E-07 2.96655E-19-3.44156E-21
 -1      1009 9.30808E-05-2.20225E-05-3.04545E-05-4.06067E-07 4.56584E-19-5.65957E-20
 -1      1010 9.23694E-05-1.99407E-05-3.10396E-05 3.34418E-07 4.75354E-19-3.68838E-19
 -1      1011 9.51346E-05-2.83374E-05-2.86274E-05-3.58912E-08 2.37147E-18 1.43509E-19
 -1      1012 9.47207E-05-2.77292E-05-2.87108E-05 3.61553E-07 2.31653E-18 1.47319E-18
 -1      1013 9.34585E-05-2.56083E-05-2.90775E-05 4.32097E-06 3.97533E-19-5.60106E-19
 -1      1014 9.33414E-05-2.65137E-05-2.86402E-05 5.78081E-06 2.26665E-19-2.86590E-19
 -1      1015 9.35665E-05-2.77691E-05-2.81997E-05 7.53812E-06 1.56218E-19-1.12787E-20
 -1      1016 9.44966E-05-2.97214E-05-2.77608E-05 9.60445E-06 8.99107E-20-4.21052E-19
 -1      1017 9.65628E-05-3.27003E-05-2.73663E-05 1.18710E-05 2.89508E-19-3.62734E-19
 -1      1018 1.00369E-04-3.70601E-05-2.71229E-05 1.39455E-05-6.80852E-20-3.72572E-20
 -1      1019 9.21061E-05-2.24826E-05-2.98387E-05-2.00086E-07 1.77637E-19 2.11942E-19
 -1      1020 8.95703E-05-2.20997E-05-2.89169E-05-3.16018E-06 1.10959E-19 3.23896E-19
 -1      1021 9.89014E-05-3.56608E-05-2.71082E-05-1.32252E-05-2.39973E-19-2.44162E-19
 -1      1022 9.49764E-05-3.13354E-05-2.72790E-05-1.10511E-05-5.79208E-19-5.39423E-19
 -1      1023 9.29737E-05-2.86116E-05-2.75841E-05-8.78670E-06-1.49363E-18-9.09795E-22
 -1      1024 9.20354E-05-2.69606E-05-2.78890E-05-6.78500E-06-1.01690E-18-1.00802E-18
 -1      1025 9.17867E-05-2.60988E-05-2.81523E-05-5.14230E-06-1.27065E-18-2.19092E-18
 -1      1026 9.19312E-05-2.57620E-05-2.83579E-05-3.84555E-06-2.95492E-19-2.60481E-18
 -1      1027 9.22855E-05-2.57694E-05-2.85067E-05-2.84968E-06-8.13050E-19-1.82622E-18
 -1      1028 9.27235E-05-2.59721E-05-2.86079E-05-2.10061E-06-9.98695E-19-1.97537E-18
 -1      1029 9.31761E-05-2.62777E-05-2.86710E-05-1.53502E-06-4.53224E-19-7.54514E-19
 -1      1030 9.36011E-05-2.66238E-05-2.87047E-05-1.11589E-06-3.65838E-19-1.05843E-18
 -1      1031 9.39741E-05-2.69666E-05-2.87177E-05-8.06055E-07-2.33915E-19-1.04525E-18
 -1      1032 9.42877E-05-2.72825E-05-2.87166E-05-5.77295E-07-5.22465E-19-1.75818E-18
 -1      1033 9.45422E-05-2.75598E-05-2.87068E-05-4.08769E-07 6.23219E-19-1.17043E-18
 -1      1034 9.47424E-05-2.77944E-05-2.86921E-05-2.84927E-07 5.29574E-19-2.64746E-19
 -1      1035 9.48958E-05-2.79873E-05-2.86751E-05-1.94582E-07-1.88093E-19 1.37320E-18
 -1      1036 9.50096E-05-2.81419E-05-2.86576E-05-1.27889E-07-1.41635E-18 1.66336E-18
 -1      1037 9.50910E-05-2.82626E-05-2.86407E-05-8.08631E-08 1.62278E-18 2.09194E-18
 -1      1038 9.41586E-05-2.70759E-05-2.87499E-05 6.18228E-07-2.32860E-19 5.38616E-19
 -1      1039 9.48923E-05-2.79525E-05-2.86886E-05 2.62980E-07 1.61530E-18 1.67855E-18
 -1      1040 9.50131E-05-2.81229E-05-2.86673E-05 1.85134E-07 2.52261E-18 1.95099E-19
 -1      1041 9.50766E-05-2.82210E-05-2.86524E-05 1.34954E-07 2.90667E-18-1.30468E-18
 -1      1042 9.36843E-05-2.37074E-05-2.99902E-05 1.98101E-06 3.45070E-19-6.51799E-19
 -1      1043 9.15912E-05-2.28191E-05-2.94758E-05-2.11156E-06 1.83968E-19-1.05291E-19
 -1      1044 9.37193E-05-2.66146E-05-2.87595E-05 7.68822E-07-8.23450E-19-9.83012E-19
 -1      1045 9.31307E-05-2.60397E-05-2.87537E-05 9.19837E-07-1.22938E-18 7.92412E-20
 -1      1046 7.90243E-05-1.72870E-05-2.64555E-05-2.55735E-06-7.70006E-20 5.64695E-19
 -1      1047 9.44833E-05-2.74420E-05-2.87322E-05 4.80533E-07 1.53952E-18 1.05809E-18
 -1      1048 8.73147E-05-2.88148E-05-2.50650E-05-1.79708E-05-7.67678E-19-2.87196E-18
 -1      1049 7.64921E-05-1.58744E-05-2.59809E-05 2.53901E-06 6.38063E-19-1.02730E-18
 -1      1050 9.36350E-05-2.47439E-05-2.95223E-05 3.09240E-06 3.17834E-19-6.90926E-19
 -1      1051 1.07561E-04-4.40895E-05-2.71909E-05 1.57193E-05-6.38033E-20-1.66591E-19
 -1      1052 9.51187E-05-2.83061E-05-2.86339E-05 4.51790E-08-4.33109E-19 1.71298E-18
 -1      1053 9.26448E-05-2.13511E-05-3.05537E-05 6.90005E-07 3.42920E-19-2.37515E-19
 -1      1054 9.23490E-05-2.53329E-05-2.87216E-05 1.04905E-06 2.61352E-19 3.38101E-19
 -1      1055 7.42944E-05-1.81138E-05-2.40277E-05 1.00483E-05-1.30526E-19-6.19567E-19
 -1      1056 9.34516E-05-2.22770E-05-3.05012E-05 9.39566E-07 3.35980E-19-4.61091E-19
 -1      1057 7.63333E-05-2.02192E-05-2.40245E-05-1.38924E-05-3.68889E-20-3.32447E-19
 -1      1058 9.13222E-05-2.44783E-05-2.86476E-05 1.11572E-06-5.52951E-19 1.16140E-18
 -1      1059 9.71319E-05-3.61834E-05-2.61318E-05 1.75887E-05 1.10245E-19-5.88352E-19
 -1      1060 9.23295E-05-2.26706E-05-2.98552E-05 9.85295E-07 9.56646E-20-2.31882E-19
 -1      1061 1.04432E-04-4.11384E-05-2.72245E-05-1.44392E-05 6.77011E-19 3.24844E-19
 -1      1062 8.80844E-05-2.15630E-05-2.85097E-05-6.09686E-07 2.00023E-19 3.77912E-20
 -1      1063 8.03678E-05-1.89226E-05-2.63473E-05 3.75494E-06-2.32015E-19-3.10971E-19
 -1      1064 8.52808E-05-2.04444E-05-2.77895E-05 3.00109E-07 2.49436E-19-1.67593E-19
 -1      1065 8.40523E-05-2.56655E-05-2.50014E-05 1.57035E-05-7.81272E-21-3.70511E-19
 -1      1066 8.59288E-05-2.08933E-05-2.78718E-05 2.57654E-07-5.53464E-19-2.25647E-18
 -1      1067 8.29194E-05-1.93595E-05-2.72340E-05-7.79555E-07-2.56094E-19-6.80250E-19
 -1      1068 8.99731E-05-2.34563E-05-2.85075E-05 1.06937E-06-7.30958E-19 7.86040E-19
 -1      1069 9.50611E-05-2.82230E-05-2.86447E-05 1.17356E-08-3.76545E-19 4.66524E-18
 -1      1070 9.50704E-05-2.82370E-05-2.86429E-05-3.76673E-08 1.05498E-19 4.18374E-18
 -1      1071 9.08325E-05-2.95825E-05-2.62127E-05-1.44189E-05-6.90824E-20-2.86490E-18
 -1      1072 9.09961E-05-2.51818E-05-2.82066E-05 6.07691E-06 4.47356E-19-4.25534E-19
 -1      1073 9.05661E-05-2.61478E-05-2.76074E-05 8.43083E-06-3.82324E-19-1.76945E-19
 -1      1074 9.07484E-05-2.79310E-05-2.69272E-05 1.15212E-05-8.99865E-20-4.92897E-19
 -1      1075 9.29364E-05-3.12350E-05-2.64424E-05 1.46768E-05 3.97998E-19-8.00425E-19
 -1      1076 9.37795E-05-2.67435E-05-2.87296E-05 3.05778E-07-4.53223E-19 1.68944E-18
 -1      1077 9.48962E-05-2.79861E-05-2.86757E-05 1.26424E-07 3.60020E-18-2.71139E-19
 -1      1078 9.06344E-05-2.24871E-05-2.92052E-05-5.02906E-07 1.51893E-19 1.33437E-19
 -1      1079 8.93781E-05-2.67976E-05-2.68249E-05-1.08364E-05 2.65937E-19-2.10814E-18
 -1      1080 8.91813E-05-2.53143E-05-2.73718E-05-7.80497E-06-2.05208E-18-2.64588E-19
 -1      1081 8.94821E-05-2.46202E-05-2.77963E-05-5.55426E-06-1.43596E-18-2.91257E-19
 -1      1082 9.01738E-05-2.45614E-05-2.81168E-05-3.90104E-06-1.00608E-18-6.23051E-19
 -1      1083 9.09427E-05-2.47879E-05-2.83525E-05-2.69524E-06-1.82083E-19-1.42961E-18
 -1      1084 9.16502E-05-2.51309E-05-2.85066E-05-1.85509E-06-3.60396E-19-7.11742E-19
 -1      1085 9.23643E-05-2.56074E-05-2.86101E-05-1.25384E-06-7.85932E-19 6.42425E-19
 -1      1086 9.29869E-05-2.60886E-05-2.86709E-05-8.48187E-07-8.35893E-19-2.20518E-20
 -1      1087 9.35124E-05-2.65414E-05-2.87019E-05-5.69261E-07-7.53333E-19-1.01535E-18
 -1      1088 9.39437E-05-2.69476E-05-2.87127E-05-3.79552E-07-8.46125E-19-1.46771E-18
 -1      1089 9.42886E-05-2.72984E-05-2.87101E-05-2.51334E-07 8.87772E-19 7.07851E-19
 -1      1090 9.45580E-05-2.75924E-05-2.86996E-05-1.65041E-07 1.43938E-18 7.57324E-19
 -1      1091 9.47634E-05-2.78327E-05-2.86847E-05-1.07221E-07 1.81782E-18-2.25734E-19
 -1      1092 9.49205E-05-2.80279E-05-2.86679E-05-6.87756E-08 8.17171E-19 2.67487E-18
 -1      1093 9.41902E-05-2.71653E-05-2.87249E-05 2.68068E-07 8.08710E-19 3.95196E-19
 -1      1094 7.68788E-05-1.74749E-05-2.54439E-05-5.49085E-06 3.75014E-19-2.75255E-19
 -1      1095 9.47289E-05-2.77747E-05-2.86946E-05 1.72137E-07 1.43868E-18 1.08456E-18
 -1      1096 9.32415E-05-2.62287E-05-2.87198E-05 3.16188E-07-1.24845E-18 9.97474E-19
 -1      1097 9.23608E-05-2.40975E-05-2.92587E-05 2.91887E-06 3.88113E-19-6.81920E-19
 -1      1098 8.00474E-05-1.83075E-05-2.64589E-05-2.79224E-06 2.71348E-19 6.98496E-19
 -1      1099 9.16960E-05-2.46040E-05-2.87518E-05 4.26640E-06 5.21101E-19-7.84056E-19
 -1      1100 9.50588E-05-2.82115E-05-2.86488E-05 7.23184E-08 2.49923E-18 6.21214E-19
 -1      1101 9.25457E-05-2.56115E-05-2.86862E-05 2.71119E-07-4.64103E-19 1.37841E-18
 -1      1102 8.82184E-05-2.22676E-05-2.82652E-05 8.24398E-07-2.93781E-19-6.19407E-20
 -1      1103 9.16559E-05-2.48879E-05-2.86157E-05 1.27425E-07-6.50351E-20 3.98581E-19
 -1      1104 9.44996E-05-2.75052E-05-2.87119E-05 2.20199E-07 1.73826E-18 3.26526E-19
 -1      1105 9.11452E-05-2.30064E-05-2.92036E-05 1.38505E-06 9.95427E-20-4.05583E-19
 -1      1106 8.74033E-05-2.21516E-05-2.79636E-05-1.60663E-06-1.62857E-18 7.35713E-19
 -1      1107 8.54151E-05-2.12620E-05-2.74877E-05-2.94204E-06-5.60986E-19 1.20701E-19
 -1      1108 9.49903E-05-2.81110E-05-2.86621E-05 9.60101E-08 2.72011E-18-2.92440E-19
 -1      1109 8.19034E-05-2.18671E-05-2.57277E-05-1.07709E-05 3.33876E-19-1.08448E-18
 -1      1110 8.90012E-05-2.25445E-05-2.84813E-05 2.22348E-06 4.32222E-19-4.58198E-19
 -1      1111 8.15848E-05-2.14419E-05-2.57853E-05 9.37111E-06-1.72318E-19-6.83885E-19
 -1      1112 9.05907E-05-2.41038E-05-2.84937E-05-1.70005E-07-7.47669E-19 5.45104E-19
 -1      1113 9.49903E-05-2.81255E-05-2.86569E-05 1.42913E-08 1.32644E-18 3.13937E-18
 -1      1114 8.69042E-05-2.20641E-05-2.77791E-05 3.84845E-06 4.63923E-19-6.71763E-19
 -1      1115 8.62776E-05-2.48377E-05-2.63327E-05 1.12366E-05-1.44372E-19 3.20539E-20
 -1      1116 8.48073E-05-2.19365E-05-2.69513E-05 6.36799E-06 1.15372E-19-7.32718E-19
 -1      1117 8.65928E-05-2.26753E-05-2.74028E-05-5.30440E-06-1.12228E-18 3.73848E-19
 -1      1118 9.05594E-05-2.42571E-05-2.84199E-05-1.26853E-06-2.66776E-21 2.20211E-19
 -1      1119 8.31511E-05-2.12662E-05-2.65306E-05-7.28008E-06 1.04080E-18-8.62662E-19
 -1      1120 8.92234E-05-2.32022E-05-2.82941E-05-7.05147E-07-4.19539E-19 2.25524E-19
 -1      1121 8.62152E-05-2.35967E-05-2.68539E-05 8.55217E-06-3.82436E-20 4.10166E-20
 -1      1122 8.96255E-05-2.36895E-05-2.82584E-05-1.77186E-06-1.69613E-18 4.17257E-19
 -1      1123 8.28797E-05-2.04652E-05-2.67493E-05-5.15157E-06 4.35515E-19-7.32486E-19
 -1      1124 1.16402E-04 2.56729E-10-4.17402E-05-4.10350E-05-1.68983E-19-1.94627E-18
 -1      1125 8.87430E-05 7.28070E-11-3.72687E-05-2.36576E-05-3.52577E-20-2.85837E-18
 -1      1126 8.42976E-05 4.21203E-11-3.58420E-05-1.72507E-05-3.97047E-21-2.67808E-18
 -1      1127 8.25483E-05 3.21691E-11-3.51555E-05-1.31443E-05 1.80259E-20-2.28449E-18
 -1      1128 8.16710E-05 2.68873E-11-3.47988E-05-9.84941E-06 2.21287E-20-1.93099E-18
 -1      1129 8.11690E-05 2.35957E-11-3.45987E-05-7.03568E-06 2.57286E-20-1.59650E-18
 -1      1130 8.08642E-05 2.14365E-11-3.44809E-05-4.51950E-06 2.99042E-20-1.31083E-18
 -1      1131 8.06936E-05 2.01739E-11-3.44170E-05-2.17083E-06 2.69793E-20-1.00652E-18
 -1      1132 8.06404E-05 1.97238E-11-3.43977E-05 8.17347E-08 2.86676E-20-7.03196E-19
 -1      1133 8.07012E-05 2.00814E-11-3.44210E-05 2.32898E-06 3.23395E-20-4.40477E-19
 -1      1134 8.08829E-05 2.13080E-11-3.44900E-05 4.66515E-06 3.36365E-20-1.11464E-19
 -1      1135 8.12054E-05 2.35041E-11-3.46135E-05 7.17099E-06 3.32063E-20 2.75378E-19
 -1      1136 8.17258E-05 2.70121E-11-3.48195E-05 9.98962E-06 3.91488E-20 7.90441E-19
 -1      1137 8.26106E-05 3.25666E-11-3.51808E-05 1.33192E-05 3.47813E-20 1.37831E-18
 -1      1138 8.43236E-05 4.26111E-11-3.58723E-05 1.74706E-05 3.28755E-20 2.16098E-18
 -1      1139 8.84403E-05 6.77552E-11-3.73343E-05 2.34839E-05 5.82335E-21 3.21507E-18
 -1      1140 1.06205E-04 1.64157E-10-4.05097E-05 3.57691E-05-8.51268E-20 4.42628E-18
 -1      1141 1.29539E-04-2.56728E-05-4.01317E-05-2.58184E-05-4.57927E-19-1.55261E-18
 -1      1142 9.74219E-05-2.88564E-05-3.15654E-05-6.35577E-07-1.53551E-19-2.71135E-18
 -1      1143 9.05937E-05-2.71616E-05-2.80179E-05 3.94977E-07-3.20284E-21-3.63773E-18
 -1      1144 8.91093E-05-2.68349E-05-2.69049E-05 2.56351E-07-5.60498E-20-4.51625E-18
 -1      1145 8.92340E-05-2.68534E-05-2.67987E-05 1.74068E-07-2.98529E-20-4.99715E-18
 -1      1146 9.01754E-05-2.71051E-05-2.70609E-05 1.30809E-07 5.81673E-21-4.85053E-18
 -1      1147 9.15661E-05-2.75006E-05-2.74757E-05 1.06242E-07-2.20857E-22-4.74440E-18
 -1      1148 9.32109E-05-2.79800E-05-2.79656E-05 9.18576E-08 1.22170E-20-4.55880E-18
 -1      1149 9.49753E-05-2.84990E-05-2.84880E-05 8.26463E-08-3.53718E-20-5.11699E-18
 -1      1150 9.67332E-05-2.90173E-05-2.90045E-05 7.47419E-08-4.33335E-20-5.97344E-18
 -1      1151 9.83353E-05-2.94885E-05-2.94689E-05 6.40708E-08 6.01542E-20-6.49895E-18
 -1      1152 9.95878E-05-2.98544E-05-2.98229E-05 4.58389E-08 1.12745E-20-6.12566E-18
 -1      1153 1.00248E-04-3.00426E-05-2.99952E-05 1.49149E-08 1.70962E-20-6.72307E-18
 -1      1154 1.00042E-04-2.99730E-05-2.99096E-05-3.25840E-08-2.94675E-20-6.25774E-18
 -1      1155 9.87252E-05-2.95752E-05-2.95023E-05-9.62858E-08 1.44409E-20-5.57954E-18
 -1      1156 9.61829E-05-2.88182E-05-2.87513E-05-1.67797E-07-2.00696E-19-5.43578E-18
 -1      1157 9.25541E-05-2.77463E-05-2.77082E-05-2.28480E-07-5.33722E-20-5.10626E-18
 -1      1158 8.83284E-05-2.65059E-05-2.65181E-05-2.52663E-07-3.35322E-20-5.38358E-18
 -1      1159 8.43255E-05-2.53368E-05-2.54088E-05-2.18505E-07 9.50877E-20-5.58324E-18
 -1      1160 8.15038E-05-2.45158E-05-2.46359E-05-1.22598E-07-2.12089E-20-6.41395E-18
 -1      1161 8.06316E-05-2.42631E-05-2.43997E-05 1.19328E-08 2.28533E-20-6.62634E-18
 -1      1162 8.19739E-05-2.46540E-05-2.47683E-05 1.42827E-07 3.39773E-20-5.64844E-18
 -1      1163 8.51769E-05-2.55880E-05-2.56511E-05 2.29744E-07 1.44702E-19-4.32667E-18
 -1      1164 8.94270E-05-2.68320E-05-2.68361E-05 2.54051E-07-2.37325E-19-4.82581E-18
 -1      1165 9.37815E-05-2.81131E-05-2.80707E-05 2.23390E-07-6.26523E-20-5.37501E-18
 -1      1166 9.74820E-05-2.92088E-05-2.91426E-05 1.61434E-07 8.53419E-20-2.76358E-18
 -1      1167 1.00114E-04-2.99948E-05-2.99267E-05 9.32160E-08 9.76569E-20-3.36865E-18
 -1      1168 1.01602E-04-3.04451E-05-3.03891E-05 3.57191E-08-1.05250E-20-5.28734E-18
 -1      1169 1.02100E-04-3.06026E-05-3.05643E-05-4.08045E-09-1.16824E-19-5.59350E-18
 -1      1170 1.01871E-04-3.05430E-05-3.05216E-05-2.65312E-08 2.24568E-19-4.89415E-18
 -1      1171 1.01188E-04-3.03462E-05-3.03378E-05-3.55565E-08-9.60187E-20-3.94935E-18
 -1      1172 1.00280E-04-3.00804E-05-3.00805E-05-3.58503E-08-1.95555E-20-5.38713E-18
 -1      1173 9.93157E-05-2.97958E-05-2.98005E-05-3.14048E-08-4.72637E-20-4.38378E-18
 -1      1174 9.84026E-05-2.95247E-05-2.95313E-05-2.50479E-08-9.51605E-20-5.10507E-18
 -1      1175 9.75997E-05-2.92854E-05-2.92921E-05-1.85138E-08-1.06087E-19-5.07226E-18
 -1      1176 9.69312E-05-2.90853E-05-2.90913E-05-1.27097E-08 1.53460E-19-5.52104E-18
 -1      1177 9.63985E-05-2.89253E-05-2.89303E-05-7.99799E-09 1.86380E-19-3.36896E-18
 -1      1178 9.59904E-05-2.88023E-05-2.88061E-05-4.42193E-09-9.99764E-20-1.58602E-18
 -1      1179 9.56894E-05-2.87113E-05-2.87141E-05-1.86219E-09-2.16056E-19-8.23113E-19
 -1      1180 9.54763E-05-2.86466E-05-2.86485E-05-1.34198E-10 7.73656E-20 1.12752E-19
 -1      1181 9.53324E-05-2.86027E-05-2.86039E-05 9.56381E-10-1.14949E-20-7.83889E-19
 -1      1182 9.52417E-05-2.85748E-05-2.85755E-05 1.58569E-09-2.44524E-19-1.99967E-18
 -1      1183 9.51903E-05-2.85588E-05-2.85592E-05 1.90029E-09-1.47836E-19-6.15093E-18
 -1      1184 9.51673E-05-2.85514E-05-2.85516E-05 2.01494E-09 8.36897E-20-5.19283E-18
 -1      1185 9.51639E-05-2.85501E-05-2.85501E-05 2.01434E-09 4.08217E-19-4.60491E-18
 -1      1186 9.51735E-05-2.85526E-05-2.85526E-05 1.95457E-09 1.40228E-19-1.27242E-18
 -1      1187 9.51907E-05-2.85575E-05-2.85573E-05 1.85638E-09 1.16474E-21-1.06332E-18
 -1      1188 9.52107E-05-2.85633E-05-2.85629E-05 1.64902E-09 6.86883E-19-4.69449E-19
 -1      1189 9.52284E-05-2.85685E-05-2.85677E-05 1.15626E-09 3.17544E-19-1.31096E-18
 -1      1190 9.52369E-05-2.85712E-05-2.85706E-05-6.64996E-12 4.26048E-19 1.00740E-18
 -1      1191 1.30241E-04-3.74720E-05-3.85087E-05 1.20701E-05-9.71441E-20 5.09617E-18
 -1      1192 9.64738E-05-2.81708E-05-3.12996E-05 7.86578E-07-3.47813E-20 5.46061E-18
 -1      1193 9.07552E-05-2.70527E-05-2.79851E-05 1.22487E-07-1.42143E-20 5.57551E-18
 -1      1194 8.91901E-05-2.67655E-05-2.69426E-05 2.03474E-08 3.92878E-20 5.74137E-18
 -1      1195 8.93675E-05-2.68509E-05-2.68606E-05-7.07891E-09-2.81407E-21 6.05247E-18
 -1      1196 9.04911E-05-2.71862E-05-2.71786E-05-9.84128E-09-1.88845E-20 6.16291E-18
 -1      1197 9.22561E-05-2.77126E-05-2.77139E-05-4.78580E-09-5.87795E-21 6.26708E-18
 -1      1198 9.45865E-05-2.84126E-05-2.84260E-05 2.87705E-09-8.75405E-21 6.22234E-18
 -1      1199 9.75363E-05-2.93015E-05-2.93308E-05 1.00953E-08 1.50514E-20 5.67464E-18
 -1      1200 1.01257E-04-3.04225E-05-3.04750E-05 1.24889E-08-1.84197E-20 5.56509E-18
 -1      1201 1.05976E-04-3.18403E-05-3.19264E-05 1.98157E-09 5.73418E-20 4.54198E-18
 -1      1202 1.11963E-04-3.36294E-05-3.37576E-05-3.58182E-08 5.99143E-20 3.39104E-18
 -1      1203 1.19430E-04-3.58432E-05-3.60065E-05-1.23113E-07 1.61118E-20 3.82165E-18
 -1      1204 1.28294E-04-3.84465E-05-3.85915E-05-2.83883E-07-2.36527E-19 5.06197E-18
 -1      1205 1.37716E-04-4.11860E-05-4.11681E-05-5.12391E-07-1.60284E-19 5.75368E-18
 -1      1206 1.45381E-04-4.34030E-05-4.29780E-05-6.93444E-07 1.14859E-19 4.46209E-18
 -1      1207 1.47006E-04-4.39092E-05-4.28948E-05-5.21648E-07-2.21565E-19 4.41664E-18
 -1      1208 1.37612E-04-4.13031E-05-4.00140E-05 3.50439E-07 2.08383E-19 4.45201E-18
 -1      1209 1.16326E-04-3.51929E-05-3.47662E-05 1.69987E-06-2.69472E-19 5.34478E-18
 -1      1210 9.24818E-05-2.78883E-05-2.95733E-05 2.29945E-06-1.57839E-19 6.52829E-18
 -1      1211 8.30992E-05-2.44664E-05-2.77686E-05 1.08325E-06-2.77059E-19 7.34494E-18
 -1      1212 9.50194E-05-2.79410E-05-3.03851E-05-9.41982E-07-4.74471E-20 6.71252E-18
 -1      1213 1.18567E-04-3.52108E-05-3.56979E-05-1.93210E-06-1.48545E-20 4.66376E-18
 -1      1214 1.39487E-04-4.19197E-05-4.08149E-05-1.68801E-06 5.14573E-20 2.78674E-18
 -1      1215 1.48079E-04-4.46383E-05-4.33528E-05-8.30399E-07-1.18201E-19 3.55902E-18
 -1      1216 1.45921E-04-4.39303E-05-4.31672E-05-1.26482E-07 2.55897E-20 2.95900E-18
 -1      1217 1.38188E-04-4.15150E-05-4.12755E-05 2.27828E-07 1.03848E-19 1.31925E-18
 -1      1218 1.29055E-04-3.87215E-05-3.87649E-05 3.25743E-07 2.96295E-19 1.50782E-18
 -1      1219 1.20698E-04-3.61953E-05-3.63379E-05 3.02358E-07-6.44139E-19 5.62896E-18
 -1      1220 1.13731E-04-3.41051E-05-3.42507E-05 2.44481E-07-1.01227E-19 7.39018E-18
 -1      1221 1.08394E-04-3.25098E-05-3.26283E-05 1.75436E-07 2.50255E-19 4.73912E-18
 -1      1222 1.04543E-04-3.13592E-05-3.14465E-05 1.25071E-07 4.10153E-19 1.47593E-18
 -1      1223 1.01730E-04-3.05185E-05-3.05804E-05 8.74176E-08-2.00229E-19 4.94789E-18
 -1      1224 9.97006E-05-2.99113E-05-2.99545E-05 6.03999E-08 1.62020E-19 3.92958E-18
 -1      1225 9.82494E-05-2.94767E-05-2.95066E-05 4.14211E-08-7.31757E-19 3.83829E-18
 -1      1226 9.72205E-05-2.91683E-05-2.91890E-05 2.82057E-08 1.60899E-20 3.53314E-18
 -1      1227 9.64987E-05-2.89516E-05-2.89660E-05 1.90318E-08-2.53360E-19 4.89011E-18
 -1      1228 9.59990E-05-2.88015E-05-2.88114E-05 1.26689E-08-1.17277E-19 4.87155E-18
 -1      1229 9.56596E-05-2.86994E-05-2.87063E-05 8.26008E-09 4.01968E-21 3.33747E-18
 -1      1230 9.54352E-05-2.86319E-05-2.86365E-05 5.21330E-09 6.01248E-19-3.00580E-18
 -1      1231 9.52929E-05-2.85889E-05-2.85921E-05 3.11844E-09 4.23883E-20-4.85278E-18
 -1      1232 9.52085E-05-2.85634E-05-2.85655E-05 1.68841E-09-1.39173E-20-3.13929E-18
 -1      1233 9.51645E-05-2.85500E-05-2.85514E-05 7.19243E-10-3.69503E-20 1.40471E-19
 -1      1234 9.51482E-05-2.85450E-05-2.85459E-05 6.29878E-11-4.34912E-19 1.97429E-18
 -1      1235 9.51504E-05-2.85455E-05-2.85460E-05-3.91593E-10 6.61322E-19 9.59326E-19
 -1      1236 9.51644E-05-2.85495E-05-2.85499E-05-7.32971E-10-5.27143E-19 1.61460E-18
 -1      1237 9.51849E-05-2.85556E-05-2.85557E-05-1.03176E-09 4.15648E-19 3.22265E-18
 -1      1238 9.52074E-05-2.85622E-05-2.85620E-05-1.32332E-09-4.86164E-20 2.59975E-18
 -1      1239 9.52271E-05-2.85679E-05-2.85673E-05-1.46233E-09-1.78667E-19 4.68096E-18
 -1      1240 9.52368E-05-2.85712E-05-2.85706E-05-1.03089E-10-2.24149E-19 6.01792E-18
 -1      1241 9.52371E-05-2.85714E-05-2.85707E-05-1.30765E-10 6.51196E-18 4.30202E-19
 -1      1242 9.52400E-05-2.85805E-05-2.85676E-05-1.03765E-09 6.96344E-18-6.09238E-19
 -1      1243 9.52451E-05-2.85978E-05-2.85631E-05-1.39325E-09 6.15011E-18-7.68316E-19
 -1      1244 9.52504E-05-2.86158E-05-2.85581E-05-1.15702E-09 2.12210E-18-4.40583E-20
 -1      1245 9.52548E-05-2.86303E-05-2.85539E-05-7.87970E-10 1.21370E-18-4.19028E-19
 -1      1246 9.52577E-05-2.86401E-05-2.85509E-05-4.46924E-10-5.12941E-18-1.34046E-18
 -1      1247 9.52594E-05-2.86457E-05-2.85491E-05-2.10455E-10-6.44472E-18 6.85287E-19
 -1      1248 9.52601E-05-2.86480E-05-2.85483E-05-4.83244E-11-3.10331E-18-9.08071E-20
 -1      1249 9.52601E-05-2.86479E-05-2.85483E-05 5.64048E-11 4.10964E-19-5.25764E-19
 -1      1250 9.52595E-05-2.86459E-05-2.85489E-05 1.49001E-10 1.19200E-18 3.75322E-20
 -1      1251 9.52584E-05-2.86420E-05-2.85501E-05 2.76906E-10 6.61968E-19-1.00897E-18
 -1      1252 9.52564E-05-2.86356E-05-2.85522E-05 4.73367E-10-3.87922E-18 3.88954E-19
 -1      1253 9.52535E-05-2.86258E-05-2.85551E-05 7.46843E-10-6.55975E-18-1.72092E-19
 -1      1254 9.52494E-05-2.86121E-05-2.85591E-05 1.08094E-09-4.82814E-18-2.19229E-19
 -1      1255 9.52445E-05-2.85954E-05-2.85637E-05 1.51864E-09 1.84352E-20 5.76283E-19
 -1      1256 9.52400E-05-2.85799E-05-2.85678E-05 1.23166E-09-1.20513E-18-3.89330E-19
 -1      1257 9.52370E-05-2.85715E-05-2.85707E-05 2.82009E-10-1.20148E-18 1.49215E-19
 -1      1258 3.73772E-05-1.16599E-04 2.00981E-05-1.52075E-05 4.83529E-18 7.86682E-20
 -1      1259 2.02716E-05-7.87750E-05 1.28371E-05-3.09596E-05 5.59465E-18 1.91938E-18
 -1      1260 6.92658E-06-2.35115E-05-1.84302E-06-1.33052E-05 7.80456E-18 4.88230E-18
 -1      1261 2.47715E-05 1.67097E-05-2.14027E-05 3.62864E-05 5.73950E-18 4.76033E-18
 -1      1262 9.19199E-05 1.61547E-05-4.32352E-05 9.17486E-05 2.13113E-18 2.50722E-18
 -1      1263 2.00778E-04-2.68797E-05-6.41214E-05 1.14204E-04-6.94567E-20-8.26704E-19
 -1      1264 3.04593E-04-8.15907E-05-7.89527E-05 7.82132E-05-4.62056E-19-3.32884E-18
 -1      1265 3.41985E-04-1.03448E-04-8.38290E-05-6.56112E-06 1.33937E-20-3.72038E-18
 -1      1266 2.92242E-04-7.50210E-05-7.73738E-05-8.87425E-05 7.22731E-19-2.89177E-18
 -1      1267 1.81622E-04-1.75529E-05-6.11143E-05-1.14918E-04 5.64124E-19-1.72287E-18
 -1      1268 7.68330E-05 1.94843E-05-3.94498E-05-8.37612E-05 4.81115E-19-3.82859E-19
 -1      1269 1.85194E-05 9.40524E-06-1.70842E-05-2.49825E-05 5.37019E-19-4.75185E-19
 -1      1270 9.08326E-06-3.88705E-05 2.81940E-06 2.06520E-05-1.76522E-18 7.07696E-19
 -1      1271 2.63749E-05-9.34725E-05 1.57609E-05 3.04658E-05-4.45539E-18 1.15101E-18
 -1      1272 3.87788E-05-1.19104E-04 2.06382E-05 8.20889E-06-5.11523E-18 3.21687E-19
 -1      1273 3.20966E-05-1.02051E-04 1.73509E-05-1.89121E-05-5.98090E-18-8.98067E-19
 -1      1274 1.33755E-05-4.94741E-05 6.05049E-06-2.10471E-05-3.22381E-18-5.64971E-19
 -1      1275 1.06979E-05 5.04998E-06-1.14563E-05 1.45876E-05-1.27055E-18-1.07827E-18
 -1      1276 4.68870E-05 2.84364E-05-3.14640E-05 6.86415E-05-2.25311E-18-2.37169E-18
 -1      1277 1.21357E-04 1.06585E-05-5.03422E-05 1.08756E-04-9.04631E-19-7.48777E-19
 -1      1278 2.14103E-04-3.50316E-05-6.60540E-05 1.11433E-04 1.02491E-19 7.58942E-19
 -1      1279 2.89075E-04-7.88798E-05-7.63401E-05 6.64341E-05 3.22296E-19 4.40288E-18
 -1      1280 3.14932E-04-9.49165E-05-7.94229E-05-9.37490E-06-1.20226E-19 5.80196E-18
 -1      1281 2.72881E-04-6.81831E-05-7.44109E-05-8.00171E-05-1.52889E-18 5.67258E-18
 -1      1282 1.89401E-04-2.13073E-05-6.21397E-05-1.14627E-04-2.84349E-18 6.12405E-18
 -1      1283 9.55176E-05 2.01553E-05-4.48941E-05-9.98637E-05-3.65410E-18 4.81454E-18
 -1      1284 3.03531E-05 2.66077E-05-2.53772E-05-5.18275E-05-1.15027E-18 1.95495E-18
 -1      1285 7.67977E-06-8.07669E-06-5.99306E-06-1.03460E-06 6.96261E-19-3.30343E-19
 -1      1286 1.79030E-05-6.48212E-05 9.53484E-06 2.38242E-05 4.36222E-18-1.08844E-18
 -1      1287 3.43030E-05-1.08317E-04 1.87016E-05 1.31283E-05 4.36645E-18-3.41195E-19
 -1      1288 1.04278E-04-2.19818E-05-3.78186E-05-1.69925E-05-1.95241E-19-2.54089E-18
 -1      1289 9.05434E-05-6.77401E-06-3.60646E-05-1.99003E-05-1.15196E-19-2.81533E-18
 -1      1290 9.28040E-05-6.85029E-06-3.72234E-05-2.52203E-05-2.95614E-19-2.91866E-18
 -1      1291 8.61822E-05-4.16298E-06-3.52167E-05-1.57581E-05 8.24269E-20-2.55394E-18
 -1      1292 8.74243E-05-4.16140E-06-3.56721E-05-1.82171E-05 4.16105E-20-2.72205E-18
 -1      1293 9.24223E-05-1.05860E-05-3.51589E-05-1.83931E-05-1.05085E-19-2.44401E-18
 -1      1294 8.43039E-05-3.20378E-06-3.47706E-05-1.21038E-05 2.59721E-19-2.19154E-18
 -1      1295 8.49522E-05-3.17888E-06-3.50009E-05-1.39273E-05 2.06755E-19-2.39160E-18
 -1      1296 8.81461E-05-7.45095E-06-3.46655E-05-1.46972E-05 2.02957E-19-2.23291E-18
 -1      1297 8.32652E-05-2.68193E-06-3.45275E-05-9.00575E-06 3.37000E-19-1.84521E-18
 -1      1298 8.36373E-05-2.66731E-06-3.46527E-05-1.05282E-05 3.37688E-19-2.03870E-18
 -1      1299 8.60245E-05-5.93873E-06-3.43891E-05-1.12313E-05 4.51303E-19-1.93351E-18
 -1      1300 8.26316E-05-2.35451E-06-3.43866E-05-6.33231E-06 4.40219E-19-1.50370E-18
 -1      1301 8.28629E-05-2.34882E-06-3.44595E-05-7.64672E-06 3.94009E-19-1.65412E-18
 -1      1302 8.48101E-05-5.06643E-06-3.42304E-05-8.27514E-06 5.68094E-19-1.60216E-18
 -1      1303 8.22283E-05-2.13835E-06-3.43020E-05-3.87386E-06 4.33817E-19-1.22313E-18
 -1      1304 8.23716E-05-2.13649E-06-3.43450E-05-5.08863E-06 4.34812E-19-1.39882E-18
 -1      1305 8.40499E-05-4.51011E-06-3.41354E-05-5.66550E-06 7.06411E-19-1.34228E-18
 -1      1306 8.20117E-05-2.01218E-06-3.42596E-05-1.57877E-06 4.95906E-19-9.11182E-19
 -1      1307 8.20806E-05-2.01174E-06-3.42795E-05-2.72226E-06 4.84344E-19-1.06197E-18
 -1      1308 8.35822E-05-4.16334E-06-3.40797E-05-3.27008E-06 7.19313E-19-9.87521E-19
 -1      1309 8.19630E-05-1.96699E-06-3.42541E-05 6.43720E-07 5.33576E-19-6.32403E-19
 -1      1310 8.19624E-05-1.96711E-06-3.42531E-05-4.74280E-07 5.16703E-19-7.89514E-19
 -1      1311 8.33552E-05-3.99101E-06-3.40545E-05-1.01495E-06 8.30394E-19-7.55686E-19
 -1      1312 8.20822E-05-2.00216E-06-3.42851E-05 2.88281E-06 5.49619E-19-3.38760E-19
 -1      1313 8.20106E-05-2.00271E-06-3.42631E-05 1.74458E-06 5.52717E-19-5.18834E-19
 -1      1314 8.33517E-05-3.98120E-06-3.40571E-05 1.18880E-06 8.76506E-19-4.67840E-19
 -1      1315 8.23833E-05-2.12384E-06-3.43561E-05 5.23293E-06 5.81071E-19-3.14196E-20
 -1      1316 8.22332E-05-2.12485E-06-3.43103E-05 4.02525E-06 5.60408E-19-2.01726E-19
 -1      1317 8.35774E-05-4.13920E-06-3.40877E-05 3.43025E-06 8.92749E-19-1.85738E-19
 -1      1318 8.28901E-05-2.33850E-06-3.44754E-05 7.75405E-06 5.40414E-19 3.59446E-19
 -1      1319 8.26487E-05-2.34401E-06-3.43997E-05 6.44502E-06 5.54462E-19 1.14376E-19
 -1      1320 8.40544E-05-4.48267E-06-3.41484E-05 5.78352E-06 9.24606E-19 7.81256E-20
 -1      1321 8.37059E-05-2.68086E-06-3.46749E-05 1.06621E-05 5.61887E-19 9.01415E-19
 -1      1322 8.33180E-05-2.69366E-06-3.45465E-05 9.13250E-06 5.28582E-19 6.17077E-19
 -1      1323 8.48462E-05-5.05987E-06-3.42479E-05 8.37530E-06 8.73542E-19 5.21693E-19
 -1      1324 8.50451E-05-3.21443E-06-3.50257E-05 1.41009E-05 5.63039E-19 1.50295E-18
 -1      1325 8.43931E-05-3.24576E-06-3.47938E-05 1.22559E-05 5.45833E-19 1.16404E-18
 -1      1326 8.61222E-05-5.98868E-06-3.44099E-05 1.13632E-05 8.73754E-19 1.02152E-18
 -1      1327 8.75520E-05-4.16606E-06-3.57032E-05 1.84173E-05 4.28175E-19 2.30070E-18
 -1      1328 8.62864E-05-4.22284E-06-3.52386E-05 1.59789E-05 4.42522E-19 1.83838E-18
 -1      1329 8.83024E-05-7.56248E-06-3.46850E-05 1.48901E-05 7.82235E-19 1.63906E-18
 -1      1330 9.35873E-05-6.89974E-06-3.71126E-05 2.45484E-05 1.95665E-19 3.35949E-18
 -1      1331 9.03776E-05-6.54054E-06-3.60900E-05 2.05415E-05 2.27905E-19 2.76344E-18
 -1      1332 9.26732E-05-1.08215E-05-3.51520E-05 1.89888E-05 4.85191E-19 2.39557E-18
 -1      1333 1.23139E-04-2.48532E-05-3.88978E-05 2.79736E-05-1.04503E-19 4.31987E-18
 -1      1334 1.00046E-04-1.44707E-05-3.73071E-05 2.35996E-05 7.41154E-22 3.74823E-18
 -1      1335 1.01800E-04-1.94383E-05-3.54070E-05 2.08307E-05 1.99013E-19 3.22847E-18
 -1      1336 1.02459E-04-2.77864E-05-3.46895E-05 7.08223E-06-8.67679E-20 4.54370E-18
 -1      1337 1.05138E-04-3.02420E-05-3.35100E-05-7.68849E-06-3.34684E-19-2.30414E-18
 -1      1338 9.84789E-05-2.79262E-05-3.08121E-05-4.76006E-06-2.63745E-19-2.73518E-18
 -1      1339 9.58656E-05-2.79605E-05-2.93590E-05-2.26575E-06-1.59825E-19-2.76556E-18
 -1      1340 9.38450E-05-2.77296E-05-2.83850E-05-1.82169E-06-1.46272E-19-3.09178E-18
 -1      1341 9.98297E-05-2.81709E-05-3.10783E-05-7.44339E-06-4.37598E-19-2.27889E-18
 -1      1342 9.23338E-05-2.74197E-05-2.78086E-05-6.01190E-07-2.05293E-19-3.04331E-18
 -1      1343 9.18423E-05-2.73895E-05-2.75748E-05-4.84393E-07-2.15292E-19-3.40859E-18
 -1      1344 9.53839E-05-2.79647E-05-2.90201E-05-2.66684E-06-3.42837E-19-2.24885E-18
 -1      1345 9.12997E-05-2.72652E-05-2.73967E-05 1.04617E-07-7.22261E-20-3.44356E-18
 -1      1346 9.14912E-05-2.73705E-05-2.74408E-05 1.72964E-07-3.26108E-20-3.57490E-18
 -1      1347 9.35595E-05-2.77933E-05-2.82185E-05-5.37554E-07-2.16860E-19-2.19972E-18
 -1      1348 9.14779E-05-2.73738E-05-2.74429E-05 4.90083E-07 9.64327E-21-3.43779E-18
 -1      1349 9.20103E-05-2.75600E-05-2.75988E-05 5.31359E-07-7.95748E-22-3.40965E-18
 -1      1350 9.30445E-05-2.77752E-05-2.79888E-05 5.45233E-07-4.70004E-20-2.22220E-18
 -1      1351 9.23050E-05-2.76481E-05-2.76947E-05 7.14321E-07 6.68958E-20-3.39550E-18
 -1      1352 9.30253E-05-2.78839E-05-2.79053E-05 7.39221E-07 1.21412E-19-3.30111E-18
 -1      1353 9.33188E-05-2.79181E-05-2.80410E-05 1.15236E-06-7.77715E-21-2.17096E-18
 -1      1354 9.35021E-05-2.80250E-05-2.80545E-05 8.40921E-07 4.79876E-20-3.26121E-18
 -1      1355 9.43225E-05-2.82884E-05-2.82935E-05 8.53739E-07-2.63192E-20-3.32840E-18
 -1      1356 9.40684E-05-2.81791E-05-2.82470E-05 1.50111E-06 9.56204E-20-2.19444E-18
 -1      1357 9.48984E-05-2.84602E-05-2.84707E-05 8.92982E-07-1.62228E-19-3.33178E-18
 -1      1358 9.57514E-05-2.87331E-05-2.87186E-05 8.94117E-07-1.85076E-19-3.73789E-18
 -1      1359 9.50966E-05-2.85167E-05-2.85392E-05 1.67684E-06-2.73436E-19-2.17300E-18
 -1      1360 9.63595E-05-2.89173E-05-2.89032E-05 8.71134E-07-1.49111E-19-3.66060E-18
 -1      1361 9.71757E-05-2.91801E-05-2.91396E-05 8.58118E-07-2.06715E-19-3.97497E-18
 -1      1362 9.62603E-05-2.88971E-05-2.88704E-05 1.70267E-06-2.69899E-19-2.14528E-18
 -1      1363 9.77491E-05-2.93585E-05-2.93104E-05 7.61396E-07-2.21253E-19-3.91637E-18
 -1      1364 9.84439E-05-2.95862E-05-2.95102E-05 7.29629E-07-1.88514E-21-4.07862E-18
 -1      1365 9.74302E-05-2.92877E-05-2.91991E-05 1.56539E-06-2.49950E-19-1.68292E-18
 -1      1366 9.89075E-05-2.97374E-05-2.96436E-05 5.41658E-07 2.21072E-20-4.38266E-18
 -1      1367 9.93740E-05-2.98969E-05-2.97756E-05 4.85660E-07-2.34400E-19-4.58957E-18
 -1      1368 9.84689E-05-2.96502E-05-2.94822E-05 1.23015E-06-1.25255E-19-2.32041E-18
 -1      1369 9.96418E-05-2.99951E-05-2.98455E-05 1.91242E-07-2.85900E-19-4.38411E-18
 -1      1370 9.97549E-05-3.00453E-05-2.98740E-05 1.07034E-07-1.26430E-19-4.58984E-18
 -1      1371 9.92183E-05-2.99359E-05-2.96728E-05 6.56939E-07-2.55586E-19-2.79384E-18
 -1      1372 9.97362E-05-3.00608E-05-2.98541E-05-2.94005E-07 1.12424E-19-4.67783E-18
 -1      1373 9.93705E-05-2.99579E-05-2.97444E-05-4.05049E-07-4.35957E-20-4.52263E-18
 -1      1374 9.95028E-05-3.00832E-05-2.97230E-05-1.74486E-07-9.20817E-21-3.13507E-18
 -1      1375 9.89875E-05-2.98618E-05-2.96145E-05-8.81545E-07 8.12192E-20-4.50179E-18
 -1      1376 9.80558E-05-2.95711E-05-2.93442E-05-1.00787E-06-2.82135E-20-4.28167E-18
 -1      1377 9.91505E-05-3.00218E-05-2.95913E-05-1.22974E-06-4.14252E-21-3.14061E-18
 -1      1378 9.72737E-05-2.93443E-05-2.90992E-05-1.48303E-06-2.43125E-20-3.98709E-18
 -1      1379 9.57813E-05-2.88598E-05-2.86735E-05-1.59932E-06-1.96326E-19-4.01922E-18
 -1      1380 9.80398E-05-2.96880E-05-2.92565E-05-2.38203E-06 1.84160E-19-2.93037E-18
 -1      1381 9.46458E-05-2.85072E-05-2.83329E-05-1.95037E-06-8.91618E-20-3.91851E-18
 -1      1382 9.27438E-05-2.78726E-05-2.77974E-05-2.01934E-06-2.09652E-19-4.02047E-18
 -1      1383 9.61689E-05-2.90539E-05-2.87338E-05-3.39210E-06-8.25030E-20-2.62126E-18
 -1      1384 9.14108E-05-2.74384E-05-2.74109E-05-2.10531E-06-1.16867E-19-3.86549E-18
 -1      1385 8.94159E-05-2.67585E-05-2.68554E-05-2.08929E-06 1.17648E-19-3.82306E-18
 -1      1386 9.37269E-05-2.81660E-05-2.80870E-05-3.93821E-06 3.33763E-20-2.86543E-18
 -1      1387 8.81472E-05-2.63301E-05-2.64974E-05-1.80986E-06 1.64980E-19-3.77246E-18
 -1      1388 8.64911E-05-2.57563E-05-2.60404E-05-1.69056E-06-1.04883E-19-3.95028E-18
 -1      1389 9.11278E-05-2.71731E-05-2.74272E-05-3.72013E-06 1.59457E-19-2.66443E-18
 -1      1390 8.55956E-05-2.54460E-05-2.57928E-05-1.05250E-06-1.65800E-19-4.07322E-18
 -1      1391 8.46988E-05-2.51315E-05-2.55470E-05-8.48388E-07-4.51108E-19-4.39437E-18
 -1      1392 8.89504E-05-2.63115E-05-2.68926E-05-2.61528E-06-4.98174E-19-2.34085E-18
 -1      1393 8.44265E-05-2.50349E-05-2.54732E-05 5.85301E-09 8.21093E-20-4.26986E-18
 -1      1394 8.45415E-05-2.50735E-05-2.55054E-05 2.39546E-07 8.59937E-20-4.09974E-18
 -1      1395 8.77700E-05-2.58323E-05-2.66103E-05-8.01468E-07-1.95982E-19-2.17536E-18
 -1      1396 8.49796E-05-2.52246E-05-2.56267E-05 1.07521E-06-1.50448E-20-3.81098E-18
 -1      1397 8.60846E-05-2.56079E-05-2.59314E-05 1.26928E-06 1.06564E-19-3.64478E-18
 -1      1398 8.79360E-05-2.58930E-05-2.66539E-05 1.25694E-06 2.88885E-19-2.22813E-18
 -1      1399 8.71177E-05-2.59612E-05-2.62197E-05 1.86091E-06 6.25812E-20-3.85376E-18
 -1      1400 8.89278E-05-2.65833E-05-2.67213E-05 1.96526E-06 1.01048E-20-3.67205E-18
 -1      1401 8.94187E-05-2.64791E-05-2.70175E-05 2.99005E-06 5.96629E-20-2.58849E-18
 -1      1402 9.02919E-05-2.70380E-05-2.71097E-05 2.19260E-06-8.45850E-20-3.87602E-18
 -1      1403 9.23793E-05-2.77436E-05-2.76935E-05 2.19577E-06-3.87816E-19-4.17757E-18
 -1      1404 9.18246E-05-2.74128E-05-2.76187E-05 3.97311E-06-2.63434E-19-2.89475E-18
 -1      1405 9.37715E-05-2.81906E-05-2.81010E-05 2.07436E-06 1.68124E-19-3.75003E-18
 -1      1406 9.57237E-05-2.88357E-05-2.86533E-05 1.99957E-06 6.13771E-19-3.08058E-18
 -1      1407 9.45709E-05-2.84404E-05-2.83283E-05 4.08393E-06 1.44330E-19-2.38039E-18
 -1      1408 9.69024E-05-2.91958E-05-2.90101E-05 1.64154E-06 3.93867E-19-3.08384E-18
 -1      1409 9.84360E-05-2.96881E-05-2.94500E-05 1.52753E-06-1.39089E-19-2.79771E-18
 -1      1410 9.71069E-05-2.93399E-05-2.90129E-05 3.48682E-06 5.50638E-19-2.04470E-18
 -1      1411 9.92691E-05-2.99259E-05-2.97130E-05 1.07343E-06-1.55897E-19-2.97496E-18
 -1      1412 1.00266E-04-3.02332E-05-3.00039E-05 9.55732E-07 4.79103E-21-3.44983E-18
 -1      1413 9.90643E-05-2.99834E-05-2.95708E-05 2.49484E-06-1.80789E-19-3.02719E-18
 -1      1414 1.00727E-04-3.03496E-05-3.01590E-05 5.20565E-07-2.36412E-19-3.40259E-18
 -1      1415 1.01207E-04-3.04860E-05-3.03031E-05 4.21895E-07-4.47829E-19-3.80978E-18
 -1      1416 1.00297E-04-3.03416E-05-2.99487E-05 1.41871E-06-4.52706E-19-2.58591E-18
 -1      1417 1.01342E-04-3.05031E-05-3.03593E-05 7.28698E-08-4.02440E-20-3.92866E-18
 -1      1418 1.01406E-04-3.05071E-05-3.03830E-05 2.45580E-09 3.40524E-19-3.83932E-18
 -1      1419 1.00836E-04-3.04525E-05-3.01399E-05 4.76152E-07-5.47395E-20-2.91128E-18
 -1      1420 1.01296E-04-3.04545E-05-3.03619E-05-2.37627E-07 2.15520E-19-3.46957E-18
 -1      1421 1.01073E-04-3.03708E-05-3.03011E-05-2.80075E-07 2.99097E-19-2.82284E-18
 -1      1422 1.00817E-04-3.03829E-05-3.01702E-05-2.27751E-07 2.77987E-19-2.41937E-18
 -1      1423 1.00805E-04-3.02766E-05-3.02283E-05-4.18053E-07 5.01445E-20-2.74036E-18
 -1      1424 1.00416E-04-3.01452E-05-3.01177E-05-4.37723E-07-3.12673E-19-2.86116E-18
 -1      1425 1.00411E-04-3.02017E-05-3.00813E-05-6.76624E-07 3.18934E-19-2.29307E-18
 -1      1426 1.00066E-04-3.00320E-05-3.00166E-05-4.94788E-07-4.89454E-19-3.14356E-18
 -1      1427 9.96087E-05-2.98832E-05-2.98843E-05-4.98294E-07 1.76755E-19-3.03760E-18
 -1      1428 9.97792E-05-2.99655E-05-2.99174E-05-9.05880E-07-7.82822E-19-1.69195E-18
 -1      1429 9.92347E-05-2.97671E-05-2.97732E-05-4.99042E-07 3.31725E-19-3.65581E-18
 -1      1430 9.87751E-05-2.96212E-05-2.96391E-05-4.92471E-07-5.47252E-19-3.68391E-18
 -1      1431 9.90518E-05-2.97153E-05-2.97167E-05-9.71267E-07-4.69640E-19-2.23520E-18
 -1      1432 9.84157E-05-2.95126E-05-2.95307E-05-4.58870E-07-1.18401E-19-3.30224E-18
 -1      1433 9.79948E-05-2.93812E-05-2.94072E-05-4.46992E-07 4.51615E-19-3.54750E-18
 -1      1434 9.83218E-05-2.94772E-05-2.95081E-05-9.28843E-07-1.38470E-20-2.59379E-18
 -1      1435 9.76728E-05-2.92856E-05-2.93090E-05-3.96013E-07-6.70339E-20-2.83236E-18
 -1      1436 9.73111E-05-2.91743E-05-2.92023E-05-3.82160E-07-4.40903E-19-3.47530E-18
 -1      1437 9.76474E-05-2.92654E-05-2.93109E-05-8.25213E-07 3.03515E-19-1.39234E-18
 -1      1438 9.70372E-05-2.90940E-05-2.91183E-05-3.25567E-07 7.22418E-20-3.18909E-18
 -1      1439 9.67412E-05-2.90040E-05-2.90306E-05-3.11840E-07 6.30211E-19-3.10673E-18
 -1      1440 9.70599E-05-2.90864E-05-2.91360E-05-6.94649E-07-1.53334E-20-1.23539E-18
 -1      1441 9.65176E-05-2.89392E-05-2.89617E-05-2.56983E-07 7.24751E-19-2.74206E-18
 -1      1442 9.62852E-05-2.88692E-05-2.88926E-05-2.44556E-07 4.01802E-19-1.83383E-18
 -1      1443 9.65705E-05-2.89409E-05-2.89884E-05-5.59887E-07 8.29368E-19-1.26256E-18
 -1      1444 9.61092E-05-2.88186E-05-2.88382E-05-1.95467E-07 3.92112E-19-2.37049E-18
 -1      1445 9.59335E-05-2.87663E-05-2.87858E-05-1.84870E-07 4.07978E-20-1.88376E-18
 -1      1446 9.61782E-05-2.88266E-05-2.88687E-05-4.34430E-07 5.46610E-19-1.64030E-18
 -1      1447 9.57996E-05-2.87281E-05-2.87442E-05-1.43292E-07-2.88003E-19-8.31153E-19
 -1      1448 9.56717E-05-2.86905E-05-2.87060E-05-1.34651E-07 3.68858E-19-1.13819E-18
 -1      1449 9.58741E-05-2.87397E-05-2.87751E-05-3.25101E-07-1.94330E-20-1.84939E-18
 -1      1450 9.55732E-05-2.86625E-05-2.86754E-05-1.00879E-07 7.44057E-19-1.35729E-18
 -1      1451 9.54841E-05-2.86366E-05-2.86486E-05-9.40818E-08-2.72866E-19-1.15572E-18
 -1      1452 9.56462E-05-2.86757E-05-2.87042E-05-2.34281E-07 2.83782E-19-1.09366E-18
 -1      1453 9.54143E-05-2.86170E-05-2.86269E-05-6.75820E-08-4.07749E-19-9.39200E-19
 -1      1454 9.53554E-05-2.86002E-05-2.86090E-05-6.24003E-08-5.30933E-19-1.29150E-18
 -1      1455 9.54813E-05-2.86303E-05-2.86525E-05-1.61641E-07-2.87839E-19-8.59454E-19
 -1      1456 9.53083E-05-2.85869E-05-2.85944E-05-4.22327E-08-1.26605E-18-2.35232E-18
 -1      1457 9.52723E-05-2.85770E-05-2.85834E-05-3.83966E-08-1.27967E-18-3.66404E-18
 -1      1458 9.53667E-05-2.85994E-05-2.86161E-05-1.05388E-07-1.92829E-18-1.82251E-18
 -1      1459 9.52424E-05-2.85687E-05-2.85741E-05-2.34928E-08-4.46182E-19-4.31089E-18
 -1      1460 9.52232E-05-2.85636E-05-2.85681E-05-2.07364E-08 3.06909E-20-4.93735E-18
 -1      1461 9.52911E-05-2.85796E-05-2.85918E-05-6.30971E-08-1.24241E-18-3.04720E-18
 -1      1462 9.52061E-05-2.85589E-05-2.85628E-05-1.00671E-08 4.53774E-19-3.83943E-18
 -1      1463 9.51989E-05-2.85574E-05-2.85604E-05-8.15458E-09 7.07830E-19-3.84761E-18
 -1      1464 9.52450E-05-2.85680E-05-2.85767E-05-3.22434E-08 7.09499E-19-3.07523E-18
 -1      1465 9.51910E-05-2.85553E-05-2.85579E-05-8.26359E-10 1.65969E-18-4.28547E-18
 -1      1466 9.51918E-05-2.85561E-05-2.85580E-05 4.34007E-10 1.38009E-18-2.48469E-18
 -1      1467 9.52203E-05-2.85624E-05-2.85683E-05-1.05121E-08 1.30418E-18-2.43748E-18
 -1      1468 9.51902E-05-2.85558E-05-2.85575E-05 5.12113E-09 9.48708E-19-1.68609E-18
 -1      1469 9.51963E-05-2.85581E-05-2.85591E-05 5.86833E-09 5.95054E-19-8.08742E-19
 -1      1470 9.52108E-05-2.85609E-05-2.85646E-05 4.01627E-09 1.82840E-18-1.39952E-18
 -1      1471 9.51985E-05-2.85589E-05-2.85597E-05 8.37810E-09 9.78635E-20-5.38156E-19
 -1      1472 9.52072E-05-2.85620E-05-2.85621E-05 8.68315E-09 5.11822E-19-7.60675E-19
 -1      1473 9.52112E-05-2.85622E-05-2.85641E-05 1.27536E-08 8.62553E-19-7.60596E-20
 -1      1474 9.52114E-05-2.85634E-05-2.85633E-05 9.17881E-09 5.88885E-19 2.06468E-19
 -1      1475 9.52204E-05-2.85666E-05-2.85658E-05 9.00764E-09 8.76548E-19 1.02205E-18
 -1      1476 9.52175E-05-2.85652E-05-2.85654E-05 1.64643E-08 7.34540E-19-2.47624E-19
 -1      1477 9.52249E-05-2.85682E-05-2.85670E-05 7.28560E-09 3.26170E-21 8.50210E-19
 -1      1478 9.52318E-05-2.85708E-05-2.85688E-05 6.67374E-09 1.30463E-19 6.86052E-19
 -1      1479 9.52261E-05-2.85691E-05-2.85672E-05 1.52121E-08 4.07043E-19 1.11188E-18
 -1      1480 9.52361E-05-2.85723E-05-2.85698E-05 1.32442E-09-8.02667E-19 4.78256E-19
 -1      1481 9.52353E-05-2.85740E-05-2.85689E-05 7.27381E-09-2.64222E-19 4.69926E-19
 -1      1482 9.68071E-05-2.84378E-05-2.98319E-05 2.78958E-06 8.48092E-20 4.34808E-18
 -1      1483 1.02520E-04-2.93956E-05-3.21471E-05 4.24234E-06 6.72862E-20 4.31415E-18
 -1      1484 1.02450E-04-2.67954E-05-3.27291E-05 1.23529E-05 4.34104E-20 3.43006E-18
 -1      1485 9.26810E-05-2.76201E-05-2.79562E-05 9.37712E-07 9.03943E-20 4.29785E-18
 -1      1486 9.44008E-05-2.77082E-05-2.87995E-05 1.26341E-06 1.61069E-20 4.21548E-18
 -1      1487 9.69582E-05-2.81760E-05-2.96744E-05 4.46154E-06 5.73865E-20 3.18642E-18
 -1      1488 9.13447E-05-2.73366E-05-2.74124E-05 6.85264E-08 4.41384E-20 4.28178E-18
 -1      1489 9.16973E-05-2.72736E-05-2.76037E-05 2.45083E-07 2.37235E-20 4.23943E-18
 -1      1490 9.39337E-05-2.78321E-05-2.83753E-05 1.39030E-06 6.95096E-20 3.02910E-18
 -1      1491 9.14720E-05-2.74043E-05-2.74350E-05-4.06982E-07 4.94323E-21 4.44827E-18
 -1      1492 9.11670E-05-2.72339E-05-2.73585E-05-2.93945E-07-9.20817E-21 4.28493E-18
 -1      1493 9.29088E-05-2.77037E-05-2.79592E-05-7.33401E-08-2.65558E-20 2.81652E-18
 -1      1494 9.24788E-05-2.77105E-05-2.77445E-05-7.27827E-07 2.26945E-20 4.52715E-18
 -1      1495 9.17804E-05-2.74527E-05-2.75366E-05-6.41220E-07-3.98635E-20 4.43583E-18
 -1      1496 9.30743E-05-2.78152E-05-2.79821E-05-9.31816E-07-5.41472E-20 2.88223E-18
 -1      1497 9.41358E-05-2.82030E-05-2.82508E-05-1.00004E-06-1.50481E-20 4.46233E-18
 -1      1498 9.31347E-05-2.78652E-05-2.79509E-05-9.19696E-07-1.30860E-20 4.45301E-18
 -1      1499 9.40319E-05-2.81199E-05-2.82656E-05-1.55266E-06-2.12188E-20 3.00104E-18
 -1      1500 9.63891E-05-2.88683E-05-2.89369E-05-1.28483E-06 1.18191E-19 4.50915E-18
 -1      1501 9.50902E-05-2.84435E-05-2.85476E-05-1.19648E-06 4.27901E-20 4.44597E-18
 -1      1502 9.56100E-05-2.85878E-05-2.87457E-05-2.11229E-06 4.16436E-20 2.91597E-18
 -1      1503 9.92944E-05-2.97233E-05-2.98214E-05-1.62699E-06 3.98205E-20 4.14711E-18
 -1      1504 9.76479E-05-2.91908E-05-2.93273E-05-1.51794E-06 2.01048E-19 4.31963E-18
 -1      1505 9.77703E-05-2.92136E-05-2.94093E-05-2.71940E-06 1.87009E-19 3.00098E-18
 -1      1506 1.02987E-04-3.08093E-05-3.09459E-05-2.06192E-06 2.72559E-19 3.83198E-18
 -1      1507 1.00900E-04-3.01358E-05-3.03195E-05-1.92015E-06 1.45058E-19 4.09571E-18
 -1      1508 1.00559E-04-3.00138E-05-3.02703E-05-3.45324E-06 2.25182E-19 2.61725E-18
 -1      1509 1.07650E-04-3.21855E-05-3.23643E-05-2.60976E-06 3.09190E-19 3.34210E-18
 -1      1510 1.05004E-04-3.13290E-05-3.15713E-05-2.42583E-06 2.37169E-19 3.57531E-18
 -1      1511 1.04079E-04-3.10235E-05-3.13576E-05-4.36806E-06 4.51813E-19 2.38642E-18
 -1      1512 1.13461E-04-3.39162E-05-3.41219E-05-3.25217E-06 6.85170E-20 2.79240E-18
 -1      1513 1.10141E-04-3.28364E-05-3.31335E-05-3.02644E-06 2.35806E-19 3.12915E-18
 -1      1514 1.08451E-04-3.22925E-05-3.27009E-05-5.46984E-06 4.25091E-19 2.40073E-18
 -1      1515 1.20459E-04-3.60406E-05-3.62090E-05-3.88077E-06-2.91801E-19 3.17269E-18
 -1      1516 1.16441E-04-3.47251E-05-3.50306E-05-3.64064E-06-2.29361E-19 2.75794E-18
 -1      1517 1.13758E-04-3.38784E-05-3.43038E-05-6.65352E-06-1.27055E-19 2.20959E-18
 -1      1518 1.28288E-04-3.85046E-05-3.84744E-05-4.20629E-06-1.99446E-19 3.85411E-18
 -1      1519 1.23807E-04-3.70274E-05-3.72005E-05-4.03915E-06-3.84994E-19 3.17955E-18
 -1      1520 1.19922E-04-3.58303E-05-3.60974E-05-7.58257E-06-4.39998E-19 2.30806E-18
 -1      1521 1.35790E-04-4.10317E-05-4.05058E-05-3.64911E-06 1.79942E-19 3.74211E-18
 -1      1522 1.31620E-04-3.96557E-05-3.93973E-05-3.74898E-06 5.74196E-20 3.78359E-18
 -1      1523 1.26521E-04-3.81435E-05-3.78737E-05-7.51787E-06-2.91763E-20 2.17158E-18
 -1      1524 1.40553E-04-4.29061E-05-4.15721E-05-1.36648E-06 6.00335E-20 3.47101E-18
 -1      1525 1.38307E-04-4.22148E-05-4.10951E-05-2.03895E-06 2.82538E-19 3.77332E-18
 -1      1526 1.32515E-04-4.06309E-05-3.92423E-05-5.22524E-06 2.19752E-19 2.58205E-18
 -1      1527 1.39059E-04-4.28187E-05-4.08486E-05 3.13634E-06-5.60206E-19 3.66554E-18
 -1      1528 1.41021E-04-4.37005E-05-4.15283E-05 1.68027E-06-4.00700E-19 3.35285E-18
 -1      1529 1.36014E-04-4.26131E-05-3.97175E-05 5.58735E-07-1.98841E-19 2.80912E-18
 -1      1530 1.28657E-04-3.93500E-05-3.81038E-05 8.51471E-06-1.32994E-19 3.85061E-18
 -1      1531 1.36335E-04-4.24525E-05-4.00746E-05 6.68378E-06-6.78685E-20 4.08058E-18
 -1      1532 1.34560E-04-4.26319E-05-3.90523E-05 9.37530E-06-4.88632E-19 2.73052E-18
 -1      1533 1.11800E-04-3.28341E-05-3.44025E-05 1.05108E-05-5.11343E-19 4.48716E-18
 -1      1534 1.23126E-04-3.73044E-05-3.69392E-05 9.70652E-06-3.44928E-19 3.79873E-18
 -1      1535 1.26940E-04-3.90557E-05-3.76358E-05 1.65605E-05-3.57633E-19 3.58973E-18
 -1      1536 9.89634E-05-2.75321E-05-3.18280E-05 4.87885E-06-4.90803E-19 5.23276E-18
 -1      1537 1.06874E-04-3.02594E-05-3.35076E-05 6.45519E-06-4.49033E-19 4.69256E-18
 -1      1538 1.16433E-04-3.26463E-05-3.63952E-05 1.41900E-05-6.99226E-19 3.75913E-18
 -1      1539 1.00992E-04-2.83949E-05-3.21645E-05-5.01764E-06 6.86732E-19 4.78076E-18
 -1      1540 9.90337E-05-2.69491E-05-3.17942E-05-2.23009E-06 3.40084E-19 4.96756E-18
 -1      1541 1.11324E-04-2.89057E-05-3.60689E-05 6.07794E-07-1.41878E-20 3.74641E-18
 -1      1542 1.14597E-04-3.39857E-05-3.48434E-05-1.04010E-05 3.33307E-19 3.23312E-18
 -1      1543 1.05501E-04-3.00432E-05-3.29144E-05-8.86522E-06 2.59986E-19 3.77004E-18
 -1      1544 1.16076E-04-3.19047E-05-3.66756E-05-1.32896E-05 1.01506E-18 1.88809E-18
 -1      1545 1.31511E-04-4.04281E-05-3.86434E-05-9.05381E-06 4.18533E-19 1.28283E-18
 -1      1546 1.20424E-04-3.64109E-05-3.60534E-05-9.26290E-06 7.29261E-19 2.67789E-18
 -1      1547 1.26203E-04-3.81691E-05-3.79557E-05-1.72115E-05 1.01374E-18 6.46286E-19
 -1      1548 1.41043E-04-4.34332E-05-4.13003E-05-3.65666E-06-1.73046E-19 1.40735E-18
 -1      1549 1.34644E-04-4.16209E-05-3.95782E-05-4.86219E-06-5.13328E-19 8.64291E-19
 -1      1550 1.34547E-04-4.27474E-05-3.93247E-05-1.12688E-05 4.89956E-20-2.26052E-20
 -1      1551 1.41657E-04-4.31655E-05-4.18846E-05 1.03616E-06 1.64642E-20 1.99339E-18
 -1      1552 1.40889E-04-4.33715E-05-4.15163E-05-3.46328E-08-2.18693E-19 1.91488E-18
 -1      1553 1.36744E-04-4.32318E-05-3.99774E-05-2.31841E-06-5.17855E-19 5.80304E-19
 -1      1554 1.36493E-04-4.11622E-05-4.07670E-05 3.46020E-06 6.86586E-19 1.50179E-18
 -1      1555 1.39351E-04-4.23986E-05-4.14229E-05 2.88401E-06 4.38935E-19 1.69821E-18
 -1      1556 1.33798E-04-4.13203E-05-3.95563E-05 4.13419E-06 4.24033E-19 1.32660E-18
 -1      1557 1.29058E-04-3.86756E-05-3.87730E-05 4.07421E-06-3.33544E-19 3.70100E-19
 -1      1558 1.33310E-04-4.01615E-05-3.99148E-05 3.89410E-06 1.37153E-19 4.73227E-19
 -1      1559 1.28164E-04-3.87654E-05-3.82777E-05 6.99830E-06 9.73347E-19 3.23170E-19
 -1      1560 1.21585E-04-3.63396E-05-3.66103E-05 3.74423E-06-1.16768E-18 2.80318E-18
 -1      1561 1.25834E-04-3.76916E-05-3.78191E-05 3.77160E-06-6.78778E-19 1.80640E-18
 -1      1562 1.21830E-04-3.64105E-05-3.65977E-05 7.35877E-06-1.24526E-18 4.81962E-19
 -1      1563 1.15086E-04-3.43791E-05-3.46627E-05 3.08173E-06-9.46738E-19 5.85469E-18
 -1      1564 1.18733E-04-3.54778E-05-3.57298E-05 3.18491E-06-1.31480E-18 3.48480E-18
 -1      1565 1.15917E-04-3.44753E-05-3.49040E-05 6.50440E-06-2.10443E-18 3.81538E-18
 -1      1566 1.09638E-04-3.27666E-05-3.29998E-05 2.35826E-06 1.21048E-18 4.50557E-18
 -1      1567 1.12632E-04-3.36399E-05-3.38916E-05 2.48456E-06 4.17385E-19 5.13625E-18
 -1      1568 1.10796E-04-3.29294E-05-3.33733E-05 5.24101E-06 1.97875E-19 3.08896E-18
 -1      1569 1.05675E-04-3.16067E-05-3.17820E-05 1.76678E-06 1.01647E-18 2.59823E-18
 -1      1570 1.07827E-04-3.22177E-05-3.24272E-05 1.87258E-06 1.10614E-18 3.97539E-18
 -1      1571 1.06700E-04-3.17473E-05-3.21268E-05 4.01538E-06 1.62522E-18 2.57546E-18
 -1      1572 1.02696E-04-3.07374E-05-3.08651E-05 1.30031E-06-6.27062E-19 2.38755E-18
 -1      1573 1.04285E-04-3.11819E-05-3.13435E-05 1.38589E-06-3.49169E-20 2.63753E-18
 -1      1574 1.03620E-04-3.08809E-05-3.11778E-05 3.01123E-06 3.84311E-19 1.83483E-18
 -1      1575 1.00495E-04-3.00967E-05-3.01880E-05 9.45246E-07-1.71044E-20 3.86814E-18
 -1      1576 1.01653E-04-3.04167E-05-3.05369E-05 1.01167E-06-4.34755E-19 3.54839E-18
 -1      1577 1.01285E-04-3.02313E-05-3.04550E-05 2.22046E-06-8.92680E-19 3.00140E-18
 -1      1578 9.88889E-05-2.96292E-05-2.96940E-05 6.80796E-07 3.55109E-19 3.29061E-18
 -1      1579 9.97232E-05-2.98577E-05-2.99456E-05 7.31170E-07 3.02535E-19 4.16275E-18
 -1      1580 9.95413E-05-2.97489E-05-2.99141E-05 1.61840E-06 2.09194E-19 3.90961E-18
 -1      1581 9.77270E-05-2.92912E-05-2.93371E-05 4.86058E-07-7.24771E-19 3.54294E-18
 -1      1582 9.83230E-05-2.94530E-05-2.95169E-05 5.23826E-07-6.45432E-19 3.27400E-18
 -1      1583 9.82546E-05-2.93937E-05-2.95145E-05 1.16851E-06-5.13823E-19 3.47158E-18
 -1      1584 9.68947E-05-2.90491E-05-2.90815E-05 3.43563E-07-5.75504E-19 3.44596E-18
 -1      1585 9.73164E-05-2.91626E-05-2.92089E-05 3.71713E-07 8.33724E-20 3.84426E-18
 -1      1586 9.73143E-05-2.91345E-05-2.92222E-05 8.35843E-07-1.78651E-19 3.57722E-18
 -1      1587 9.63051E-05-2.88777E-05-2.89006E-05 2.39737E-07-1.88857E-19 4.38127E-18
 -1      1588 9.66000E-05-2.89563E-05-2.89897E-05 2.60647E-07-2.63282E-19 3.96987E-18
 -1      1589 9.66344E-05-2.89472E-05-2.90107E-05 5.91411E-07-5.87844E-19 4.86000E-18
 -1      1590 9.58935E-05-2.87582E-05-2.87743E-05 1.64386E-07 5.18215E-19 3.48428E-18
 -1      1591 9.60964E-05-2.88115E-05-2.88357E-05 1.79875E-07 4.62511E-19 3.43046E-18
 -1      1592 9.61486E-05-2.88136E-05-2.88595E-05 4.12653E-07 6.19963E-19 4.08289E-18
 -1      1593 9.56115E-05-2.86765E-05-2.86877E-05 1.09969E-07 1.99728E-18 1.82791E-19
 -1      1594 9.57482E-05-2.87118E-05-2.87292E-05 1.21404E-07 1.25312E-18 2.01417E-18
 -1      1595 9.58066E-05-2.87198E-05-2.87528E-05 2.82532E-07 1.95512E-18 1.94615E-18
 -1      1596 9.54236E-05-2.86222E-05-2.86299E-05 7.09292E-08 2.22380E-19-2.90745E-18
 -1      1597 9.55127E-05-2.86446E-05-2.86571E-05 7.93351E-08 1.49751E-18-8.41153E-19
 -1      1598 9.55706E-05-2.86554E-05-2.86790E-05 1.88351E-07 2.73781E-18 1.21078E-19
 -1      1599 9.53034E-05-2.85876E-05-2.85929E-05 4.31703E-08 9.82569E-20-3.28163E-18
 -1      1600 9.53586E-05-2.86010E-05-2.86098E-05 4.93163E-08-2.95555E-19-3.42223E-18
 -1      1601 9.54121E-05-2.86125E-05-2.86292E-05 1.20687E-07 5.97088E-19-2.03329E-18
 -1      1602 9.52313E-05-2.85671E-05-2.85706E-05 2.36686E-08-1.60447E-18-1.58117E-18
 -1      1603 9.52627E-05-2.85741E-05-2.85803E-05 2.81328E-08-6.65329E-19-3.12170E-18
 -1      1604 9.53097E-05-2.85852E-05-2.85969E-05 7.25480E-08-8.35819E-19-2.78257E-18
 -1      1605 9.51931E-05-2.85564E-05-2.85586E-05 1.01936E-08-5.12531E-19 1.54302E-19
 -1      1606 9.52079E-05-2.85590E-05-2.85633E-05 1.34104E-08-4.85642E-19-6.27512E-19
 -1      1607 9.52476E-05-2.85691E-05-2.85771E-05 3.87494E-08-1.48931E-18-1.64726E-18
 -1      1608 9.51782E-05-2.85525E-05-2.85538E-05 1.11288E-09 1.14118E-19 1.12848E-18
 -1      1609 9.51818E-05-2.85522E-05-2.85551E-05 3.40567E-09-3.46916E-19 3.78464E-19
 -1      1610 9.52140E-05-2.85607E-05-2.85661E-05 1.54611E-08-2.30958E-19-1.07075E-18
 -1      1611 9.51788E-05-2.85531E-05-2.85538E-05-4.73979E-09-1.99853E-19 9.73869E-19
 -1      1612 9.51750E-05-2.85510E-05-2.85528E-05-3.13721E-09-2.51169E-19 1.72707E-18
 -1      1613 9.51999E-05-2.85578E-05-2.85613E-05-1.07848E-10 3.36408E-20 7.62060E-19
 -1      1614 9.51891E-05-2.85565E-05-2.85567E-05-8.13751E-09-3.82831E-19 2.56035E-18
 -1      1615 9.51809E-05-2.85533E-05-2.85544E-05-7.07363E-09-5.44269E-19 1.96061E-18
 -1      1616 9.51988E-05-2.85584E-05-2.85604E-05-9.91375E-09-1.33626E-18 2.84681E-18
 -1      1617 9.52044E-05-2.85614E-05-2.85611E-05-9.46416E-09-3.17451E-19 2.82108E-18
 -1      1618 9.51941E-05-2.85578E-05-2.85582E-05-8.88201E-09-4.07029E-19 2.98074E-18
 -1      1619 9.52057E-05-2.85613E-05-2.85621E-05-1.51697E-08-3.44095E-19 3.80593E-18
 -1      1620 9.52204E-05-2.85667E-05-2.85656E-05-8.66125E-09-3.54732E-19 2.90157E-18
 -1      1621 9.52104E-05-2.85633E-05-2.85628E-05-8.63606E-09 1.24656E-19 2.79768E-18
 -1      1622 9.52164E-05-2.85653E-05-2.85648E-05-1.63148E-08 1.04871E-19 3.02490E-18
 -1      1623 9.52326E-05-2.85709E-05-2.85690E-05-5.34659E-09-1.11967E-18 3.47916E-18
 -1      1624 9.52257E-05-2.85687E-05-2.85670E-05-5.99616E-09-8.83390E-19 1.84567E-18
 -1      1625 9.52274E-05-2.85698E-05-2.85674E-05-1.31085E-08-3.72456E-19 4.38988E-19
 -1      1626 9.52360E-05-2.85725E-05-2.85697E-05-1.66196E-09 3.01257E-18 2.89320E-18
 -1      1627 9.52404E-05-2.85843E-05-2.85668E-05-7.72321E-09 3.57056E-18 3.29195E-19
 -1      1628 9.52379E-05-2.85776E-05-2.85686E-05-6.79146E-09 2.99288E-18-4.07106E-19
 -1      1629 9.52453E-05-2.85978E-05-2.85633E-05-8.92739E-09 2.67795E-18-1.75191E-18
 -1      1630 9.52423E-05-2.85892E-05-2.85656E-05-8.95933E-09 4.28097E-18-5.83574E-19
 -1      1631 9.52400E-05-2.85840E-05-2.85668E-05-1.56063E-08 1.19007E-18-5.78557E-19
 -1      1632 9.52495E-05-2.86102E-05-2.85598E-05-7.78455E-09-2.29799E-19-5.53639E-19
 -1      1633 9.52469E-05-2.86025E-05-2.85619E-05-8.18963E-09 2.04085E-18-1.71751E-18
 -1      1634 9.52443E-05-2.85935E-05-2.85647E-05-1.60517E-08 7.39469E-19-2.05853E-18
 -1      1635 9.52524E-05-2.86198E-05-2.85569E-05-5.64222E-09-2.28787E-19-9.70171E-19
 -1      1636 9.52506E-05-2.86140E-05-2.85586E-05-6.13857E-09 3.27144E-19 1.17876E-18
 -1      1637 9.52473E-05-2.86017E-05-2.85626E-05-1.31152E-08-5.88854E-19 4.29085E-19
 -1      1638 9.52542E-05-2.86259E-05-2.85550E-05-3.44989E-09-3.67253E-18-2.21998E-18
 -1      1639 9.52531E-05-2.86223E-05-2.85561E-05-3.87669E-09 6.43585E-20-3.39663E-18
 -1      1640 9.52492E-05-2.86075E-05-2.85609E-05-8.97970E-09-6.11434E-19-2.92804E-18
 -1      1641 9.52550E-05-2.86291E-05-2.85540E-05-1.62567E-09-2.62293E-18 1.57355E-18
 -1      1642 9.52544E-05-2.86273E-05-2.85545E-05-1.94217E-09-3.79072E-18 5.40668E-19
 -1      1643 9.52500E-05-2.86109E-05-2.85597E-05-5.08212E-09 2.73391E-19-1.63173E-18
 -1      1644 9.52551E-05-2.86301E-05-2.85536E-05-3.25847E-10-1.15005E-18 1.43083E-19
 -1      1645 9.52550E-05-2.86296E-05-2.85538E-05-5.31852E-10-2.27426E-18 1.23114E-18
 -1      1646 9.52502E-05-2.86123E-05-2.85591E-05-2.02519E-09-1.16676E-18 1.91194E-18
 -1      1647 9.52549E-05-2.86295E-05-2.85537E-05 6.05681E-10-9.17335E-20 6.35549E-19
 -1      1648 9.52550E-05-2.86300E-05-2.85536E-05 4.56151E-10-7.59601E-19 1.41612E-18
 -1      1649 9.52500E-05-2.86125E-05-2.85590E-05 1.38385E-10-5.70096E-19 1.10727E-18
 -1      1650 9.52543E-05-2.86275E-05-2.85543E-05 1.46746E-09 1.14679E-18-2.60111E-20
 -1      1651 9.52547E-05-2.86289E-05-2.85539E-05 1.30367E-09 5.69696E-19 1.30363E-18
 -1      1652 9.52498E-05-2.86118E-05-2.85592E-05 1.81899E-09 5.07482E-19 1.16263E-18
 -1      1653 9.52534E-05-2.86240E-05-2.85554E-05 2.56493E-09 1.84566E-19-1.35806E-18
 -1      1654 9.52541E-05-2.86265E-05-2.85547E-05 2.32512E-09 2.35942E-18-1.02369E-18
 -1      1655 9.52495E-05-2.86104E-05-2.85596E-05 3.59719E-09 1.65520E-18 2.30374E-19
 -1      1656 9.52518E-05-2.86186E-05-2.85571E-05 4.04404E-09-3.11747E-18-7.99873E-19
 -1      1657 9.52530E-05-2.86224E-05-2.85560E-05 3.71561E-09-4.54615E-19-2.62318E-18
 -1      1658 9.52490E-05-2.86081E-05-2.85604E-05 5.93453E-09 5.37599E-19-3.76610E-18
 -1      1659 9.52494E-05-2.86104E-05-2.85596E-05 5.87159E-09-3.84233E-18-7.60390E-19
 -1      1660 9.52512E-05-2.86161E-05-2.85580E-05 5.46622E-09-3.11245E-18 4.81701E-19
 -1      1661 9.52480E-05-2.86043E-05-2.85617E-05 8.98192E-09-1.01155E-18-5.55817E-19
 -1      1662 9.52460E-05-2.85997E-05-2.85627E-05 7.61035E-09-1.47382E-18 1.67617E-18
 -1      1663 9.52484E-05-2.86069E-05-2.85607E-05 7.23277E-09-3.34078E-18 1.66296E-18
 -1      1664 9.52463E-05-2.85987E-05-2.85633E-05 1.23321E-08-1.03226E-18 1.02209E-18
 -1      1665 9.52420E-05-2.85878E-05-2.85661E-05 8.10121E-09-1.29104E-18-4.32572E-20
 -1      1666 9.52446E-05-2.85954E-05-2.85640E-05 8.03630E-09-1.45015E-18 9.28500E-19
 -1      1667 9.52434E-05-2.85911E-05-2.85653E-05 1.47668E-08-1.15960E-18 1.44454E-18
 -1      1668 9.52378E-05-2.85776E-05-2.85686E-05 8.18073E-09-1.44746E-18-3.55794E-19
 -1      1669 9.52400E-05-2.85835E-05-2.85671E-05 9.48025E-09-1.17403E-18-8.72133E-19
 -1      1670 9.52398E-05-2.85824E-05-2.85672E-05 1.58000E-08-1.78145E-18-2.10935E-19
 -1      1671 9.52338E-05-2.85745E-05-2.85681E-05 1.49087E-08-9.83729E-19 4.14328E-19
 -1      1672 2.15996E-05-7.42187E-05 1.60014E-05-1.08405E-05 3.56770E-18 8.06799E-19
 -1      1673 2.45183E-05-8.09794E-05 1.73939E-05-8.89584E-07 3.40208E-18 1.14985E-19
 -1      1674 2.02576E-05-4.74234E-05 6.65275E-06-2.55412E-06 4.66800E-18 2.15443E-18
 -1      1675 2.50547E-05-6.84241E-05 1.21834E-05-4.17687E-06 3.49782E-18 1.63488E-18
 -1      1676 3.08542E-05-1.97182E-05-8.03585E-06 1.79202E-05 5.32445E-18 3.11750E-18
 -1      1677 2.78117E-05-4.16471E-05 2.79982E-07 2.60783E-06 4.64174E-18 2.93836E-18
 -1      1678 6.89407E-05-6.48056E-06-2.72869E-05 5.10405E-05 3.45081E-18 2.40811E-18
 -1      1679 4.72319E-05-1.63047E-05-1.69878E-05 2.70820E-05 5.11693E-18 2.57329E-18
 -1      1680 1.34663E-04-1.72233E-05-4.76654E-05 7.46854E-05 1.66696E-18-5.59042E-20
 -1      1681 9.29406E-05-8.11494E-06-3.72352E-05 5.71618E-05 2.66561E-18 1.81265E-18
 -1      1682 2.13564E-04-4.61194E-05-6.60092E-05 6.60712E-05 2.38652E-19-1.14349E-18
 -1      1683 1.63002E-04-2.44634E-05-5.68515E-05 6.97655E-05 1.23667E-18-2.77827E-19
 -1      1684 2.67049E-04-6.77028E-05-7.75745E-05 3.08891E-05 2.60886E-19-2.16036E-18
 -1      1685 2.34547E-04-5.08154E-05-7.27766E-05 5.84232E-05-9.32795E-20-1.54753E-18
 -1      1686 2.70265E-04-6.72560E-05-7.92217E-05-2.34130E-05-1.43360E-19-2.18619E-18
 -1      1687 2.72646E-04-6.86985E-05-7.95838E-05 1.56015E-05 5.37866E-20-2.56609E-18
 -1      1688 2.26536E-04-4.68347E-05-7.12078E-05-6.55939E-05 1.08103E-19-1.01475E-18
 -1      1689 2.64519E-04-6.65597E-05-7.68071E-05-4.00488E-05-1.75971E-19-1.47892E-18
 -1      1690 1.51108E-04-2.08076E-05-5.38266E-05-6.94847E-05 1.79571E-19-4.82809E-19
 -1      1691 2.02409E-04-4.14086E-05-6.35338E-05-7.03287E-05 2.87144E-19-4.57398E-19
 -1      1692 8.27238E-05-7.48380E-06-3.35905E-05-5.26985E-05 4.03188E-19 2.37169E-20
 -1      1693 1.21643E-04-1.31967E-05-4.42482E-05-7.27298E-05-4.82809E-20-8.35174E-19
 -1      1694 4.49528E-05-2.38145E-05-1.29386E-05-2.18622E-05-4.76033E-19-2.68509E-19
 -1      1695 6.31705E-05-1.01823E-05-2.34867E-05-4.52800E-05 3.20178E-19 4.65868E-20
 -1      1696 2.96220E-05-5.11269E-05 3.77908E-06-3.17721E-06-2.35390E-18 2.09641E-20
 -1      1697 3.09397E-05-2.85186E-05-4.27920E-06-1.57946E-05-9.28348E-19-7.11508E-19
 -1      1698 2.47725E-05-7.53741E-05 1.46767E-05 5.98398E-06-3.18273E-18 5.69100E-19
 -1      1699 1.89823E-05-5.67543E-05 1.04653E-05 8.42811E-06-2.80114E-18 6.57298E-19
 -1      1700 2.45272E-05-8.12088E-05 1.74602E-05-7.73666E-07-3.61408E-18-3.91541E-19
 -1      1701 2.33601E-05-7.88439E-05 1.69946E-05 9.32206E-06-3.34303E-18 3.39448E-19
 -1      1702 2.02510E-05-6.24751E-05 1.24193E-05-4.43663E-06-3.25515E-18 1.09055E-20
 -1      1703 2.53417E-05-7.88030E-05 1.60302E-05 1.64689E-06-3.64944E-18-3.18484E-19
 -1      1704 2.20676E-05-3.00101E-05-6.66468E-08 1.07097E-05-1.45012E-18-4.78574E-20
 -1      1705 2.51322E-05-5.49068E-05 7.04018E-06 2.40057E-06-2.91464E-18 1.05667E-19
 -1      1706 4.76215E-05-8.59329E-06-1.75770E-05 4.04205E-05-1.16721E-18-1.72795E-18
 -1      1707 3.68647E-05-2.59534E-05-8.24869E-06 2.04092E-05-9.48677E-19-8.63974E-19
 -1      1708 8.82267E-05-3.45681E-07-3.60719E-05 6.85754E-05-1.30867E-18-7.46236E-19
 -1      1709 6.05710E-05-1.70742E-06-2.65350E-05 4.76100E-05-1.47214E-18-9.69853E-19
 -1      1710 1.50840E-04-1.83539E-05-5.30208E-05 7.97420E-05-5.02714E-19 8.52962E-19
 -1      1711 1.12035E-04-5.16510E-06-4.46165E-05 7.09602E-05-1.10030E-18-1.43149E-19
 -1      1712 2.12521E-04-4.35621E-05-6.68220E-05 6.75949E-05-2.47969E-19 1.40946E-18
 -1      1713 1.72665E-04-2.35081E-05-6.03561E-05 7.80072E-05-3.63377E-19 6.97955E-19
 -1      1714 2.50343E-04-6.19064E-05-7.45918E-05 2.74710E-05-5.43795E-19 3.42371E-18
 -1      1715 2.27488E-04-4.89043E-05-7.12929E-05 5.48151E-05-1.42513E-19 2.28191E-18
 -1      1716 2.51163E-04-6.12799E-05-7.55920E-05-2.30272E-05-6.07323E-19 3.91710E-18
 -1      1717 2.55185E-04-6.34093E-05-7.60327E-05 1.18308E-05-4.70103E-19 3.27886E-18
 -1      1718 2.09999E-04-4.08893E-05-6.83332E-05-5.73353E-05-9.84093E-19 3.82859E-18
 -1      1719 2.37958E-04-5.59434E-05-7.25779E-05-3.40974E-05-8.49574E-19 3.44361E-18
 -1      1720 1.54021E-04-1.67857E-05-5.61686E-05-7.68797E-05-1.95368E-18 3.36272E-18
 -1      1721 1.95682E-04-3.67578E-05-6.34302E-05-7.13227E-05-1.66209E-18 3.45928E-18
 -1      1722 9.27903E-05-1.87002E-07-3.93038E-05-6.65370E-05-1.39930E-18 2.61394E-18
 -1      1723 1.30659E-04-1.04123E-05-4.84092E-05-8.04240E-05-2.03203E-18 3.85231E-18
 -1      1724 4.91791E-05-5.39217E-06-2.08827E-05-3.85040E-05 4.64174E-19 7.93670E-19
 -1      1725 7.12594E-05 1.43926E-06-3.03548E-05-6.05935E-05-6.57298E-19 2.36492E-18
 -1      1726 3.07153E-05-3.27790E-05-3.38086E-06-1.35479E-05 1.79571E-18-4.01070E-19
 -1      1727 3.64181E-05-1.18856E-05-1.21876E-05-3.10368E-05 8.28398E-19 4.38340E-19
 -1      1728 2.43240E-05-6.13284E-05 9.86904E-06-5.73207E-07 3.25007E-18-6.63094E-19
 -1      1729 1.94755E-05-3.84132E-05 3.95608E-06-3.94393E-06 2.34374E-18-2.04770E-19
 -1      1730 2.41966E-05-7.71600E-05 1.63047E-05-4.85047E-06 3.10480E-18 5.92923E-20
 -1      1731 2.06359E-05-6.52701E-05 1.36026E-05 2.41879E-06 2.58049E-18-3.76083E-19
 -1      1732 1.13238E-04-3.78914E-05-3.22297E-05 4.20353E-05 2.33866E-18 4.06576E-20
 -1      1733 6.87035E-05-4.08680E-05-1.42042E-05 3.40861E-05 3.36272E-18 1.05964E-18
 -1      1734 9.52361E-05-2.85741E-05-2.85691E-05-5.61989E-09 2.39015E-18 2.28373E-19
 -1      1735 9.52349E-05-2.85754E-05-2.85682E-05-1.19815E-08-9.23545E-19-4.73029E-19
 -1      1736 1.78014E-05-5.15694E-05 1.00201E-05 9.42303E-06 2.70542E-18 1.40523E-18
 -1      1737 3.68719E-05-4.65181E-05 4.15603E-07 2.24255E-05 2.79860E-18 2.31444E-18
 -1      1738 1.19344E-05-5.21823E-05 1.26558E-05-5.65351E-06 1.78952E-18-6.14099E-20
 -1      1739 1.63590E-04-3.95681E-05-5.05112E-05 3.82868E-05 1.60957E-18-1.02999E-18
 -1      1740 2.03771E-04-3.98049E-05-6.54200E-05 2.38474E-05 1.10570E-18-9.84252E-19
 -1      1741 2.24411E-04-3.75215E-05-7.37424E-05 7.56956E-06 5.00173E-19-1.13714E-18
 -1      1742 2.25175E-04-3.89387E-05-7.34185E-05-1.23016E-05-6.03934E-19-4.36645E-19
 -1      1743 1.99644E-04-4.02074E-05-6.37384E-05-2.81481E-05-3.95194E-19-8.72444E-20
 -1      1744 1.55688E-04-3.94490E-05-4.76182E-05-3.98152E-05-1.83383E-19-3.17637E-19
 -1      1745 1.06137E-04-4.04983E-05-2.87279E-05-4.07315E-05-1.38066E-19-1.56701E-19
 -1      1746 6.61683E-05-4.58243E-05-1.10132E-05-3.44569E-05-9.26654E-19-6.96049E-19
 -1      1747 3.24011E-05-4.81683E-05 3.24635E-06-2.22470E-05-1.64790E-18-7.40095E-19
 -1      1748 1.48778E-05-5.44917E-05 1.19753E-05-4.70768E-06-1.99010E-18 1.24514E-19
 -1      1749 1.30634E-05-5.47176E-05 1.28624E-05 7.25164E-06-1.89439E-18-3.70153E-19
 -1      1750 2.40573E-05-4.80037E-05 6.36294E-06 2.07937E-05-1.49205E-18 1.05223E-18
 -1      1751 5.10239E-05-4.04299E-05-6.59435E-06 3.62747E-05-1.19262E-18-4.38551E-19
 -1      1752 8.48892E-05-3.37936E-05-2.25532E-05 4.45418E-05-5.15843E-19-4.96361E-19
 -1      1753 1.23766E-04-2.84022E-05-3.93715E-05 4.91918E-05-8.68209E-19 8.93620E-19
 -1      1754 1.64225E-04-2.98578E-05-5.43732E-05 4.45379E-05-6.92344E-19 7.35225E-19
 -1      1755 1.96475E-04-3.23042E-05-6.56661E-05 3.15000E-05-1.14604E-18 1.32222E-18
 -1      1756 2.11873E-04-3.33430E-05-7.12476E-05 8.91998E-06-9.78323E-19 1.51195E-18
 -1      1757 2.04187E-04-3.07725E-05-6.96926E-05-1.08759E-05-7.82658E-19 2.05130E-18
 -1      1758 1.84388E-04-2.94925E-05-6.23308E-05-3.03257E-05-7.75882E-19 1.79571E-18
 -1      1759 1.53257E-04-2.86472E-05-5.03696E-05-4.68331E-05-6.95838E-19 1.55007E-18
 -1      1760 1.10001E-04-2.75563E-05-3.43999E-05-4.96739E-05 6.47133E-19 1.98714E-18
 -1      1761 7.18901E-05-3.38086E-05-1.75134E-05-4.21927E-05 1.28495E-18 1.07870E-18
 -1      1762 4.06624E-05-4.12531E-05-2.49013E-06-3.16375E-05 1.76268E-18 2.41775E-19
 -1      1763 1.94007E-05-4.78514E-05 8.13120E-06-1.77056E-05 1.86940E-18-4.99326E-19
 -1      1764 1.06033E-04-2.32178E-05-3.55799E-05-1.64531E-05-3.65879E-19-2.34416E-18
 -1      1765 8.94205E-05-1.06105E-05-3.39022E-05-1.25508E-05 3.15609E-19-1.86813E-18
 -1      1766 9.08044E-05-1.17020E-05-3.40394E-05-1.43737E-05 1.42182E-19-1.96448E-18
 -1      1767 9.28396E-05-1.39988E-05-3.39504E-05-1.52979E-05 4.16882E-20-1.99910E-18
 -1      1768 9.45493E-05-1.59716E-05-3.41721E-05-1.69981E-05-1.90477E-19-2.16052E-18
 -1      1769 9.37752E-05-1.64320E-05-3.31601E-05-1.29911E-05 9.70432E-20-1.87549E-18
 -1      1770 8.60975E-05-7.41380E-06-3.37935E-05-7.16350E-06 6.68989E-19-1.35859E-18
 -1      1771 8.66016E-05-7.76639E-06-3.38426E-05-8.50796E-06 6.23396E-19-1.50933E-18
 -1      1772 8.52745E-05-6.63625E-06-3.37615E-05-4.76175E-06 7.98565E-19-1.06136E-18
 -1      1773 8.56020E-05-6.86330E-06-3.37915E-05-5.99074E-06 7.93013E-19-1.23998E-18
 -1      1774 8.73530E-05-9.45503E-06-3.34142E-05-6.21107E-06 7.26048E-19-1.28815E-18
 -1      1775 8.47797E-05-6.16660E-06-3.37428E-05-2.53074E-06 8.86672E-19-7.64275E-19
 -1      1776 8.49674E-05-6.29655E-06-3.37592E-05-3.66996E-06 8.44102E-19-9.31511E-19
 -1      1777 8.64937E-05-8.57686E-06-3.34221E-05-3.98803E-06 9.09153E-19-9.58921E-19
 -1      1778 8.45640E-05-5.95167E-06-3.37376E-05-4.01617E-07 9.97407E-19-5.50293E-19
 -1      1779 8.46279E-05-5.99744E-06-3.37420E-05-1.49431E-06 9.63827E-19-6.83198E-19
 -1      1780 8.59995E-05-8.07324E-06-3.34254E-05-1.89453E-06 9.66119E-19-7.17357E-19
 -1      1781 8.46175E-05-5.97811E-06-3.37465E-05 1.69954E-06 1.04334E-18-3.04773E-19
 -1      1782 8.45587E-05-5.94106E-06-3.37393E-05 6.11122E-07 1.01012E-18-4.31960E-19
 -1      1783 8.58293E-05-7.89475E-06-3.34284E-05 1.21538E-07 1.08351E-18-4.83821E-19
 -1      1784 8.49532E-05-6.25861E-06-3.37700E-05 3.85190E-06 1.05513E-18-1.00863E-19
 -1      1785 8.47635E-05-6.13141E-06-3.37508E-05 2.72370E-06 1.06112E-18-2.24053E-19
 -1      1786 8.59799E-05-8.03553E-06-3.34325E-05 2.12387E-06 1.09170E-18-2.57716E-19
 -1      1787 8.55931E-05-6.81807E-06-3.38079E-05 6.09968E-06 1.05216E-18 1.83250E-19
 -1      1788 8.52600E-05-6.59042E-06-3.37755E-05 4.90531E-06 1.04870E-18 1.00585E-20
 -1      1789 8.64683E-05-8.51593E-06-3.34361E-05 4.16257E-06 1.07642E-18-5.91997E-20
 -1      1790 8.66411E-05-7.76061E-06-3.38634E-05 8.60694E-06 1.05153E-18 6.93521E-19
 -1      1791 8.61067E-05-7.38377E-06-3.38121E-05 7.24942E-06 1.04985E-18 4.05080E-19
 -1      1792 8.73456E-05-9.40002E-06-3.34341E-05 6.31888E-06 1.11015E-18 2.85404E-19
 -1      1793 8.82843E-05-9.28187E-06-3.39430E-05 1.14139E-05 9.72467E-19 1.11189E-18
 -1      1794 8.74414E-05-8.65944E-06-3.38607E-05 9.84618E-06 9.86168E-19 8.80994E-19
 -1      1795 8.87383E-05-1.08350E-05-3.34151E-05 8.64669E-06 1.06165E-18 7.88177E-19
 -1      1796 9.09865E-05-1.18935E-05-3.40519E-05 1.44823E-05 8.05767E-19 1.62866E-18
 -1      1797 8.95495E-05-1.07385E-05-3.39176E-05 1.26772E-05 9.12460E-19 1.29720E-18
 -1      1798 9.08880E-05-1.31087E-05-3.33512E-05 1.10670E-05 9.56082E-19 1.19168E-18
 -1      1799 9.62158E-05-1.71687E-05-3.40759E-05 1.69842E-05 4.56207E-19 2.38202E-18
 -1      1800 9.32368E-05-1.44587E-05-3.39390E-05 1.54327E-05 6.34669E-19 1.93499E-18
 -1      1801 9.43451E-05-1.69412E-05-3.31616E-05 1.30475E-05 6.76845E-19 1.64624E-18
 -1      1802 1.02118E-04-2.51855E-05-3.33979E-05 1.38848E-05 1.84124E-19 3.03079E-18
 -1      1803 9.83737E-05-1.97529E-05-3.36946E-05 1.63332E-05 3.34710E-19 2.63740E-18
 -1      1804 9.77343E-05-2.19790E-05-3.25423E-05 1.25318E-05 3.72668E-19 2.33151E-18
 -1      1805 9.90963E-05-2.62520E-05-3.14332E-05 8.90510E-06 2.07894E-19 2.91610E-18
 -1      1806 1.00368E-04-1.96932E-05-3.42573E-05-1.83189E-05-4.09554E-19-2.20790E-18
 -1      1807 9.59794E-05-2.74568E-05-2.93927E-05 3.49287E-06 1.17963E-19 2.63775E-18
 -1      1808 9.82165E-05-2.75185E-05-3.03397E-05 5.85088E-06 1.27293E-19 2.71900E-18
 -1      1809 9.80756E-05-2.57548E-05-3.09892E-05 8.09103E-06 2.11705E-19 2.36191E-18
 -1      1810 1.00107E-04-2.26586E-05-3.29135E-05-1.38635E-05-2.97414E-19-2.08582E-18
 -1      1811 9.75178E-05-2.71238E-05-3.00533E-05-5.09746E-06-2.49478E-19-1.91708E-18
 -1      1812 9.58837E-05-2.72146E-05-2.93981E-05-3.26580E-06-1.38569E-19-1.88520E-18
 -1      1813 9.51952E-05-2.74400E-05-2.89403E-05-1.72942E-06-2.18243E-19-1.78797E-18
 -1      1814 9.46261E-05-2.75702E-05-2.86969E-05-8.25302E-07-8.43327E-20-1.78466E-18
 -1      1815 9.62335E-05-2.66927E-05-2.98273E-05-3.62595E-06-1.60169E-19-1.54294E-18
 -1      1816 9.42661E-05-2.76603E-05-2.84855E-05 8.09680E-08-3.60188E-20-1.77113E-18
 -1      1817 9.42058E-05-2.77896E-05-2.84350E-05 5.86021E-07-9.29089E-21-1.71755E-18
 -1      1818 9.53186E-05-2.74212E-05-2.91222E-05-8.25233E-07-1.35807E-19-1.52214E-18
 -1      1819 9.41312E-05-2.78726E-05-2.83645E-05 1.13415E-06-8.08751E-20-1.74948E-18
 -1      1820 9.43843E-05-2.80342E-05-2.84173E-05 1.43116E-06-6.80952E-20-1.77273E-18
 -1      1821 9.49810E-05-2.78157E-05-2.88045E-05 8.35285E-07-4.19099E-20-1.39320E-18
 -1      1822 9.45208E-05-2.81404E-05-2.84323E-05 1.76356E-06 2.62713E-21-1.72177E-18
 -1      1823 9.49625E-05-2.83329E-05-2.85444E-05 1.93329E-06-1.94594E-20-1.82241E-18
 -1      1824 9.51011E-05-2.81326E-05-2.87161E-05 1.84692E-06-4.57720E-20-1.47173E-18
 -1      1825 9.52458E-05-2.84681E-05-2.86112E-05 2.11721E-06-1.72596E-19-1.69737E-18
 -1      1826 9.57923E-05-2.86847E-05-2.87554E-05 2.19066E-06-1.40529E-19-1.61030E-18
 -1      1827 9.55593E-05-2.84607E-05-2.87677E-05 2.44559E-06-7.80011E-20-1.43823E-18
 -1      1828 9.61715E-05-2.88483E-05-2.88502E-05 2.24986E-06-2.15102E-20-1.56528E-18
 -1      1829 9.67552E-05-2.90803E-05-2.90051E-05 2.23068E-06 8.40790E-20-1.26857E-18
 -1      1830 9.62517E-05-2.88320E-05-2.89015E-05 2.73500E-06 4.08213E-20-1.08571E-18
 -1      1831 9.71862E-05-2.92689E-05-2.91084E-05 2.16127E-06-1.23314E-19-1.16000E-18
 -1      1832 9.77411E-05-2.95038E-05-2.92536E-05 2.03607E-06-5.07525E-20-1.02502E-18
 -1      1833 9.70900E-05-2.92585E-05-2.90745E-05 2.73942E-06 1.59344E-19-9.17349E-19
 -1      1834 9.81796E-05-2.97098E-05-2.93480E-05 1.81677E-06-4.87777E-19-1.18207E-18
 -1      1835 9.86321E-05-2.99276E-05-2.94621E-05 1.56346E-06-4.88149E-19-1.52837E-18
 -1      1836 9.79897E-05-2.97380E-05-2.92511E-05 2.43259E-06-5.22363E-19-8.38021E-19
 -1      1837 9.90270E-05-3.01349E-05-2.95316E-05 1.16718E-06-3.39439E-19-1.88696E-18
 -1      1838 9.92934E-05-3.03044E-05-2.95922E-05 7.66363E-07-1.66260E-19-1.97155E-18
 -1      1839 9.88569E-05-3.02486E-05-2.93998E-05 1.76161E-06-6.17713E-19-9.69337E-19
 -1      1840 9.95818E-05-3.04831E-05-2.96227E-05 1.77400E-07-2.02355E-19-2.35160E-18
 -1      1841 9.95739E-05-3.05596E-05-2.96090E-05-3.70508E-07-1.55427E-19-2.36993E-18
 -1      1842 9.95756E-05-3.07360E-05-2.94941E-05 6.78234E-07-3.88163E-19-1.42211E-18
 -1      1843 9.96806E-05-3.06624E-05-2.95909E-05-1.13171E-06-8.63378E-20-2.34662E-18
 -1      1844 9.93220E-05-3.05913E-05-2.94884E-05-1.78458E-06 2.22578E-20-2.18240E-18
 -1      1845 1.00002E-04-3.11010E-05-2.95149E-05-8.15281E-07-1.27058E-19-1.66241E-18
 -1      1846 9.91694E-05-3.05565E-05-2.94196E-05-2.63270E-06 3.42559E-19-2.33186E-18
 -1      1847 9.84244E-05-3.02868E-05-2.92271E-05-3.28702E-06 4.11757E-19-2.12113E-18
 -1      1848 9.99725E-05-3.11987E-05-2.94551E-05-2.60683E-06 1.91393E-19-1.61586E-18
 -1      1849 9.79578E-05-3.00562E-05-2.91159E-05-4.05218E-06 1.71534E-19-1.96219E-18
 -1      1850 9.68685E-05-2.95688E-05-2.88519E-05-4.54116E-06 1.62291E-19-1.79175E-18
 -1      1851 9.93411E-05-3.08666E-05-2.93241E-05-4.41864E-06 4.17260E-19-1.70746E-18
 -1      1852 9.61015E-05-2.91252E-05-2.87171E-05-4.98334E-06 1.36789E-19-1.80875E-18
 -1      1853 9.48171E-05-2.84689E-05-2.84221E-05-5.11230E-06 7.17076E-20-1.86594E-18
 -1      1854 9.80550E-05-2.99997E-05-2.91477E-05-5.79544E-06 2.43364E-19-1.29370E-18
 -1      1855 9.38783E-05-2.78802E-05-2.82901E-05-4.99439E-06 1.90311E-19-1.89621E-18
 -1      1856 9.26527E-05-2.71930E-05-2.80209E-05-4.62111E-06 1.60071E-19-1.89489E-18
 -1      1857 9.62562E-05-2.86601E-05-2.89631E-05-6.19493E-06 5.43751E-20-1.08986E-18
 -1      1858 9.17906E-05-2.66249E-05-2.79189E-05-3.83250E-06-2.05859E-19-1.96032E-18
 -1      1859 9.09242E-05-2.61069E-05-2.77354E-05-2.96156E-06-4.37893E-19-1.79861E-18
 -1      1860 9.43427E-05-2.71536E-05-2.88082E-05-5.20838E-06-1.15096E-19-1.32969E-18
 -1      1861 9.04303E-05-2.57691E-05-2.76849E-05-1.62564E-06-2.02381E-19-1.87846E-18
 -1      1862 9.01672E-05-2.56007E-05-2.76317E-05-4.52565E-07 2.02851E-19-1.76152E-18
 -1      1863 9.28942E-05-2.59713E-05-2.87124E-05-2.83346E-06-1.68308E-19-1.54448E-18
 -1      1864 9.02357E-05-2.56378E-05-2.76440E-05 1.07431E-06 2.07437E-19-1.70866E-18
 -1      1865 9.06607E-05-2.58847E-05-2.77362E-05 2.22134E-06 3.02020E-19-1.85491E-18
 -1      1866 9.24364E-05-2.55761E-05-2.86925E-05 3.90197E-07 4.91014E-21-1.82236E-18
 -1      1867 9.12736E-05-2.62823E-05-2.78107E-05 3.49423E-06 2.39690E-19-2.28393E-18
 -1      1868 9.22743E-05-2.68557E-05-2.80287E-05 4.30062E-06-2.28739E-19-2.28388E-18
 -1      1869 9.31605E-05-2.61362E-05-2.87532E-05 3.54100E-06 1.02663E-19-2.09004E-18
 -1      1870 9.32128E-05-2.74506E-05-2.81534E-05 4.99541E-06-4.19442E-19-2.03112E-18
 -1      1871 9.45314E-05-2.81600E-05-2.84502E-05 5.29706E-06 3.42122E-21-2.07435E-18
 -1      1872 9.48093E-05-2.74220E-05-2.88897E-05 5.73535E-06-1.14253E-19-2.12747E-18
 -1      1873 9.55047E-05-2.87433E-05-2.86028E-05 5.33507E-06 3.24271E-19-2.03437E-18
 -1      1874 9.68469E-05-2.93964E-05-2.89190E-05 5.15842E-06 5.47475E-19-1.63388E-18
 -1      1875 9.68306E-05-2.89451E-05-2.90850E-05 6.52408E-06 2.36386E-19-1.30036E-18
 -1      1876 9.76274E-05-2.98188E-05-2.90728E-05 4.68115E-06 6.04156E-20-1.65018E-18
 -1      1877 9.87592E-05-3.02946E-05-2.93548E-05 4.18398E-06-3.00230E-19-2.11310E-18
 -1      1878 9.86695E-05-3.02369E-05-2.93091E-05 5.99639E-06 1.32950E-19-1.76556E-18
 -1      1879 9.92425E-05-3.05066E-05-2.94849E-05 3.43538E-06-2.90493E-19-2.39646E-18
 -1      1880 1.00038E-04-3.07715E-05-2.96965E-05 2.81082E-06-3.12962E-19-2.49966E-18
 -1      1881 9.99772E-05-3.10377E-05-2.95244E-05 4.60155E-06-3.85850E-19-2.16103E-18
 -1      1882 1.00226E-04-3.08008E-05-2.97860E-05 2.02014E-06 2.43985E-20-2.33218E-18
 -1      1883 1.00661E-04-3.08828E-05-2.99132E-05 1.42396E-06-7.71429E-20-1.99163E-18
 -1      1884 1.00655E-04-3.13233E-05-2.96957E-05 2.87474E-06 5.52970E-20-1.67425E-18
 -1      1885 1.00616E-04-3.07903E-05-2.99556E-05 7.43844E-07-1.53220E-19-1.74599E-18
 -1      1886 1.00736E-04-3.07434E-05-3.00025E-05 2.66194E-07 2.85799E-19-1.64270E-18
 -1      1887 1.00778E-04-3.12166E-05-2.97995E-05 1.23848E-06 3.51070E-19-1.56021E-18
 -1      1888 1.00533E-04-3.05889E-05-3.00004E-05-2.34508E-07 3.55291E-20-1.10359E-18
 -1      1889 1.00418E-04-3.04671E-05-2.99825E-05-5.63241E-07 1.77960E-19-1.20616E-18
 -1      1890 1.00498E-04-3.08815E-05-2.98283E-05-6.73214E-08 2.16157E-19-8.09879E-19
 -1      1891 1.00127E-04-3.02949E-05-2.99449E-05-8.77922E-07 2.81538E-19-1.46079E-18
 -1      1892 9.98617E-05-3.01406E-05-2.98820E-05-1.06706E-06 2.36491E-20-1.37124E-18
 -1      1893 9.99712E-05-3.04568E-05-2.97885E-05-9.64293E-07-7.36340E-20-7.91538E-19
 -1      1894 9.95351E-05-2.99767E-05-2.98201E-05-1.22376E-06-5.39858E-19-1.60623E-18
 -1      1895 9.91914E-05-2.98183E-05-2.97314E-05-1.30189E-06-7.36516E-19-1.43658E-18
 -1      1896 9.93248E-05-3.00340E-05-2.96956E-05-1.47943E-06-1.35430E-19-7.76428E-19
 -1      1897 9.88651E-05-2.96755E-05-2.96563E-05-1.34141E-06-1.00231E-18-1.06284E-18
 -1      1898 9.84989E-05-2.95293E-05-2.95574E-05-1.34182E-06-6.78121E-19-1.06403E-18
 -1      1899 9.86501E-05-2.96610E-05-2.95681E-05-1.69038E-06-4.81961E-19-3.83814E-19
 -1      1900 9.81953E-05-2.94115E-05-2.94783E-05-1.30434E-06 1.47597E-19-6.50755E-19
 -1      1901 9.78436E-05-2.92854E-05-2.93805E-05-1.25696E-06 1.07120E-18 2.33835E-19
 -1      1902 9.80055E-05-2.93554E-05-2.94240E-05-1.68715E-06-6.91498E-20 1.28306E-18
 -1      1903 9.75748E-05-2.91918E-05-2.93040E-05-1.17571E-06 6.75934E-19-3.41066E-19
 -1      1904 9.72595E-05-2.90881E-05-2.92144E-05-1.10383E-06 1.92403E-19-2.56042E-19
 -1      1905 9.74246E-05-2.91173E-05-2.92776E-05-1.55095E-06 6.59627E-19 1.32818E-18
 -1      1906 9.70306E-05-2.90159E-05-2.91449E-05-1.00329E-06 1.04498E-20-2.49173E-19
 -1      1907 9.67619E-05-2.89337E-05-2.90672E-05-9.23218E-07 2.83768E-19-3.70224E-19
 -1      1908 9.69231E-05-2.89387E-05-2.91394E-05-1.34550E-06 3.36108E-20 2.76690E-19
 -1      1909 9.65731E-05-2.88794E-05-2.90070E-05-8.19752E-07 6.50484E-19-5.61615E-19
 -1      1910 9.63534E-05-2.88164E-05-2.89424E-05-7.41784E-07 8.66101E-19 6.70214E-20
 -1      1911 9.65046E-05-2.88087E-05-2.90156E-05-1.11592E-06 6.42187E-19 2.53036E-20
 -1      1912 9.62019E-05-2.87764E-05-2.88922E-05-6.45233E-07 3.69680E-19-4.89377E-19
 -1      1913 9.60285E-05-2.87297E-05-2.88405E-05-5.75111E-07-1.43127E-19-8.71063E-19
 -1      1914 9.61656E-05-2.87167E-05-2.89095E-05-8.91150E-07 2.67431E-19-2.44014E-19
 -1      1915 9.59101E-05-2.87008E-05-2.88000E-05-4.90547E-07-1.89900E-20-1.18855E-18
 -1      1916 9.57777E-05-2.86672E-05-2.87600E-05-4.30836E-07 2.01802E-19-4.49659E-19
 -1      1917 9.58982E-05-2.86533E-05-2.88217E-05-6.87668E-07 1.40825E-19 4.94147E-20
 -1      1918 9.56877E-05-2.86470E-05-2.87283E-05-3.60116E-07 2.13441E-19-4.74797E-19
 -1      1919 9.55900E-05-2.86237E-05-2.86984E-05-3.11341E-07 8.04131E-19-2.29931E-19
 -1      1920 9.56926E-05-2.86111E-05-2.87513E-05-5.13144E-07 1.42021E-19-3.41938E-19
 -1      1921 9.55233E-05-2.86099E-05-2.86744E-05-2.54328E-07 7.84833E-19-2.19618E-19
 -1      1922 9.54538E-05-2.85946E-05-2.86528E-05-2.15824E-07-7.93082E-19-3.00999E-19
 -1      1923 9.55388E-05-2.85841E-05-2.86966E-05-3.69479E-07 5.79814E-19-1.13128E-19
 -1      1924 9.54059E-05-2.85856E-05-2.86351E-05-1.71275E-07-2.22819E-18-4.55648E-19
 -1      1925 9.53586E-05-2.85761E-05-2.86202E-05-1.41784E-07-2.31877E-18-1.12862E-18
 -1      1926 9.54269E-05-2.85679E-05-2.86553E-05-2.55136E-07-1.86910E-18 2.27428E-19
 -1      1927 9.53256E-05-2.85706E-05-2.86076E-05-1.07959E-07-2.33796E-18-1.36318E-18
 -1      1928 9.52953E-05-2.85654E-05-2.85978E-05-8.60153E-08-1.37592E-18-1.37791E-18
 -1      1929 9.53483E-05-2.85591E-05-2.86251E-05-1.66795E-07-2.29227E-18 6.80573E-19
 -1      1930 9.52735E-05-2.85625E-05-2.85892E-05-6.10665E-08 6.67498E-19-1.95686E-18
 -1      1931 9.52559E-05-2.85603E-05-2.85833E-05-4.52408E-08 1.01883E-18-1.49514E-18
 -1      1932 9.52954E-05-2.85554E-05-2.86037E-05-1.00455E-07-1.11854E-18-4.47886E-19
 -1      1933 9.52426E-05-2.85591E-05-2.85778E-05-2.74488E-08 7.80710E-19-4.74164E-19
 -1      1934 9.52341E-05-2.85590E-05-2.85746E-05-1.64878E-08 1.84699E-18 4.43617E-19
 -1      1935 9.52618E-05-2.85550E-05-2.85892E-05-5.21372E-08 1.52519E-18 1.44308E-19
 -1      1936 9.52268E-05-2.85590E-05-2.85713E-05-4.39862E-09 2.18410E-18-4.20740E-19
 -1      1937 9.52246E-05-2.85603E-05-2.85701E-05 2.69199E-09 2.05430E-18 9.88303E-20
 -1      1938 9.52424E-05-2.85569E-05-2.85800E-05-1.82937E-08 1.89416E-18 7.26635E-19
 -1      1939 9.52215E-05-2.85612E-05-2.85683E-05 1.01883E-08 1.13470E-18-2.57191E-19
 -1      1940 9.52232E-05-2.85634E-05-2.85683E-05 1.40811E-08 5.98954E-19 7.68392E-19
 -1      1941 9.52331E-05-2.85603E-05-2.85743E-05 3.95503E-09 1.43680E-18 5.76779E-19
 -1      1942 9.52228E-05-2.85649E-05-2.85675E-05 1.78000E-08 2.97359E-19-6.63085E-20
 -1      1943 9.52266E-05-2.85677E-05-2.85680E-05 1.87603E-08 6.07065E-19-2.07779E-19
 -1      1944 9.52304E-05-2.85647E-05-2.85712E-05 1.67018E-08-3.67764E-20 4.32372E-19
 -1      1945 9.52274E-05-2.85694E-05-2.85676E-05 1.90519E-08 1.11962E-18 4.27643E-19
 -1      1946 9.52318E-05-2.85725E-05-2.85683E-05 1.71481E-08 7.10322E-19 7.58536E-19
 -1      1947 9.52349E-05-2.85757E-05-2.85683E-05 1.94380E-08-3.42728E-19 5.45301E-19
 -1      1948 9.52317E-05-2.85702E-05-2.85694E-05 2.13487E-08 1.26161E-18 5.89751E-19
 -1      1949 9.42961E-05-2.76212E-05-2.85413E-05 8.97091E-07 1.35929E-19 2.44333E-18
 -1      1950 9.52536E-05-2.76685E-05-2.89035E-05 2.03323E-06 1.27028E-19 2.53623E-18
 -1      1951 9.60458E-05-2.72249E-05-2.95029E-05 3.26079E-06 1.23270E-19 2.11085E-18
 -1      1952 9.37901E-05-2.77317E-05-2.82787E-05-5.88767E-07 1.20315E-19 2.22425E-18
 -1      1953 9.39772E-05-2.76856E-05-2.83560E-05 6.87735E-08 8.20629E-20 2.29971E-18
 -1      1954 9.48607E-05-2.76158E-05-2.88297E-05 5.67075E-07 1.35532E-19 1.99540E-18
 -1      1955 9.41430E-05-2.79409E-05-2.83466E-05-1.58078E-06 7.59782E-20 2.22776E-18
 -1      1956 9.38466E-05-2.78066E-05-2.82672E-05-1.12646E-06-1.88597E-20 2.22511E-18
 -1      1957 9.45831E-05-2.78338E-05-2.86212E-05-1.09095E-06 5.18477E-20 1.71231E-18
 -1      1958 9.51434E-05-2.82653E-05-2.86381E-05-2.37975E-06-1.01538E-19 2.14599E-18
 -1      1959 9.44984E-05-2.80556E-05-2.84517E-05-1.99931E-06-1.00254E-21 2.16467E-18
 -1      1960 9.50008E-05-2.80691E-05-2.87007E-05-2.27515E-06-4.64876E-21 1.53294E-18
 -1      1961 9.66947E-05-2.87039E-05-2.91135E-05-3.16040E-06 8.66257E-20 2.07316E-18
 -1      1962 9.57495E-05-2.84228E-05-2.88359E-05-2.77697E-06-1.21086E-19 1.97130E-18
 -1      1963 9.59697E-05-2.83664E-05-2.89882E-05-3.29149E-06-8.50970E-20 1.33967E-18
 -1      1964 9.87841E-05-2.92648E-05-2.97652E-05-4.04248E-06 8.71782E-20 2.19503E-18
 -1      1965 9.75345E-05-2.89055E-05-2.93956E-05-3.60039E-06 2.41381E-19 2.11958E-18
 -1      1966 9.74205E-05-2.87386E-05-2.94503E-05-4.32888E-06 1.88278E-19 1.22024E-18
 -1      1967 1.01457E-04-2.99721E-05-3.06039E-05-5.11334E-06 4.96040E-19 1.71737E-18
 -1      1968 9.98643E-05-2.95170E-05-3.01321E-05-4.56922E-06 2.77440E-19 1.94371E-18
 -1      1969 9.93426E-05-2.92004E-05-3.00771E-05-5.51801E-06 4.26402E-19 1.38210E-18
 -1      1970 1.04793E-04-3.08714E-05-3.16470E-05-6.41859E-06 3.58010E-19 1.93993E-18
 -1      1971 1.02801E-04-3.02915E-05-3.10593E-05-5.74699E-06 4.10636E-19 1.81823E-18
 -1      1972 1.01768E-04-2.97848E-05-3.08689E-05-6.94316E-06 4.42459E-19 1.41788E-18
 -1      1973 1.08878E-04-3.20400E-05-3.29020E-05-7.91629E-06 1.00542E-19 2.00444E-18
 -1      1974 1.06437E-04-3.12938E-05-3.21904E-05-7.13374E-06 4.53500E-19 1.99080E-18
 -1      1975 1.04761E-04-3.05614E-05-3.18237E-05-8.61564E-06 4.97268E-19 1.61356E-18
 -1      1976 1.13749E-04-3.36015E-05-3.43384E-05-9.37687E-06-3.10643E-19 1.63595E-18
 -1      1977 1.10862E-04-3.26362E-05-3.35185E-05-8.59518E-06-7.62263E-20 1.77198E-18
 -1      1978 1.08406E-04-3.16689E-05-3.29192E-05-1.03989E-05-4.33740E-20 1.19359E-18
 -1      1979 1.19322E-04-3.57355E-05-3.58459E-05-1.02139E-05 9.60704E-20 1.49143E-18
 -1      1980 1.16119E-04-3.44990E-05-3.49845E-05-9.73276E-06-1.22203E-19 1.48460E-18
 -1      1981 1.12807E-04-3.33601E-05-3.40909E-05-1.18694E-05 1.63435E-19 6.84277E-19
 -1      1982 1.25264E-04-3.86231E-05-3.71987E-05-9.29136E-06 3.53206E-19 1.51880E-18
 -1      1983 1.22117E-04-3.71196E-05-3.64417E-05-9.70704E-06-1.29953E-19 1.31591E-18
 -1      1984 1.18073E-04-3.60178E-05-3.52158E-05-1.21225E-05-3.59261E-20 6.54584E-19
 -1      1985 1.30827E-04-4.21509E-05-3.80948E-05-4.93625E-06-3.55224E-19 1.99746E-18
 -1      1986 1.28454E-04-4.06290E-05-3.76540E-05-7.14299E-06 4.73809E-21 1.59876E-18
 -1      1987 1.24230E-04-3.99897E-05-3.61472E-05-9.65082E-06 5.64600E-20 7.85451E-19
 -1      1988 1.34511E-04-4.50996E-05-3.83796E-05 4.06435E-06-4.54274E-19 2.13161E-18
 -1      1989 1.33986E-04-4.43905E-05-3.84071E-05-5.67667E-07-2.13770E-19 2.22495E-18
 -1      1990 1.30818E-04-4.48247E-05-3.68725E-05-2.66182E-06-4.22881E-19 9.01031E-19
 -1      1991 1.33915E-04-4.44070E-05-3.83979E-05 1.55499E-05-4.89539E-19 2.11319E-18
 -1      1992 1.36261E-04-4.59497E-05-3.87732E-05 9.70329E-06-5.86067E-19 2.18013E-18
 -1      1993 1.35881E-04-4.77399E-05-3.77740E-05 8.97666E-06-4.04101E-19 1.83101E-18
 -1      1994 1.27387E-04-3.72275E-05-3.88637E-05 2.12121E-05-6.47821E-19 2.76080E-18
 -1      1995 1.32489E-04-4.16661E-05-3.91810E-05 1.85184E-05-5.06579E-19 2.43908E-18
 -1      1996 1.36028E-04-4.43306E-05-3.95277E-05 2.04774E-05-4.66186E-19 1.60238E-18
 -1      1997 1.19383E-04-2.80333E-05-3.96947E-05 1.13907E-05-8.84938E-19 3.70288E-18
 -1      1998 1.24016E-04-3.20202E-05-3.97942E-05 1.63516E-05-8.08387E-19 3.34426E-18
 -1      1999 1.30716E-04-3.37594E-05-4.19226E-05 1.99757E-05-8.93408E-19 2.73200E-18
 -1      2000 1.19141E-04-2.74662E-05-3.99571E-05-8.89695E-06 1.27394E-18 2.96983E-18
 -1      2001 1.18856E-04-2.65261E-05-3.99395E-05 4.61856E-07 3.30343E-20 3.31886E-18
 -1      2002 1.26153E-04-2.54570E-05-4.36629E-05 2.69168E-06 4.95514E-20 2.91492E-18
 -1      2003 1.26739E-04-3.56092E-05-3.94686E-05-2.06148E-05 8.68262E-19 1.17380E-18
 -1      2004 1.22370E-04-3.14131E-05-3.93005E-05-1.53566E-05 1.61572E-18 2.15959E-18
 -1      2005 1.29040E-04-2.99763E-05-4.28558E-05-1.66706E-05 1.96130E-18 1.93219E-18
 -1      2006 1.35110E-04-4.42249E-05-3.89429E-05-1.81384E-05 8.32554E-19 5.49036E-19
 -1      2007 1.29801E-04-4.03473E-05-3.85492E-05-1.92345E-05 9.12360E-19 4.31828E-19
 -1      2008 1.35055E-04-4.09458E-05-4.05241E-05-2.22354E-05 1.36134E-18 1.44694E-18
 -1      2009 1.36986E-04-4.60461E-05-3.87726E-05-6.96711E-06-4.28446E-19 8.23425E-20
 -1      2010 1.34463E-04-4.51485E-05-3.84069E-05-1.15465E-05 2.24993E-21 6.00546E-19
 -1      2011 1.36973E-04-4.75799E-05-3.84369E-05-1.36163E-05 2.46728E-19 7.46633E-19
 -1      2012 1.33435E-04-4.33365E-05-3.84591E-05 3.04211E-06-2.96422E-19 5.70411E-19
 -1      2013 1.33924E-04-4.43316E-05-3.84694E-05-1.09313E-06-7.27363E-19 1.11371E-19
 -1      2014 1.33201E-04-4.64239E-05-3.73024E-05-1.19013E-06-6.36519E-19-1.50858E-19
 -1      2015 1.27517E-04-3.95767E-05-3.76466E-05 8.39217E-06 1.22553E-18 3.91395E-19
 -1      2016 1.29905E-04-4.11128E-05-3.80989E-05 6.12046E-06 6.51408E-19 6.06145E-19
 -1      2017 1.26980E-04-4.18538E-05-3.65886E-05 7.50941E-06 5.29210E-19-5.62109E-19
 -1      2018 1.21326E-04-3.64535E-05-3.63913E-05 9.86205E-06-1.59418E-19 1.99582E-19
 -1      2019 1.24445E-04-3.78725E-05-3.71275E-05 9.17226E-06 1.03629E-18 7.01582E-19
 -1      2020 1.20757E-04-3.74275E-05-3.57718E-05 1.12604E-05 8.82337E-19 2.71739E-19
 -1      2021 1.15728E-04-3.42058E-05-3.49723E-05 9.19963E-06-2.87344E-18 1.83372E-18
 -1      2022 1.18840E-04-3.53430E-05-3.57878E-05 9.40152E-06-2.05648E-18 5.08127E-19
 -1      2023 1.15398E-04-3.43501E-05-3.47551E-05 1.16393E-05-1.85499E-18 1.76298E-18
 -1      2024 1.10995E-04-3.26355E-05-3.36144E-05 7.70891E-06-9.76351E-19 2.44814E-18
 -1      2025 1.13743E-04-3.35058E-05-3.43752E-05 8.26944E-06-1.80315E-18 2.31307E-18
 -1      2026 1.10969E-04-3.24227E-05-3.36624E-05 1.03435E-05-1.99560E-18 1.43796E-18
 -1      2027 1.06988E-04-3.14778E-05-3.23838E-05 6.01321E-06 1.36103E-18 1.16940E-18
 -1      2028 1.09333E-04-3.21567E-05-3.30549E-05 6.67411E-06 4.54486E-19 1.70600E-18
 -1      2029 1.07295E-04-3.12123E-05-3.25968E-05 8.44426E-06 4.69501E-19 2.29933E-19
 -1      2030 1.04006E-04-3.06913E-05-3.14338E-05 4.58347E-06 1.73332E-18 2.70551E-18
 -1      2031 1.05757E-04-3.11702E-05-3.19433E-05 5.15016E-06 1.42992E-18 2.11526E-18
 -1      2032 1.04353E-04-3.04370E-05-3.16699E-05 6.57120E-06 1.18482E-18 7.76762E-19
 -1      2033 1.01691E-04-3.01089E-05-3.06859E-05 3.42501E-06-1.03442E-18 2.49679E-18
 -1      2034 1.03033E-04-3.04646E-05-3.10797E-05 3.89000E-06 6.44619E-19 2.79936E-18
 -1      2035 1.02092E-04-2.99236E-05-3.09231E-05 5.00488E-06 1.04124E-18 2.43824E-18
 -1      2036 9.99266E-05-2.96762E-05-3.01117E-05 2.52518E-06 9.20090E-20 2.58702E-18
 -1      2037 1.00937E-04-2.99388E-05-3.04096E-05 2.88903E-06-9.85298E-19 2.37766E-18
 -1      2038 1.00327E-04-2.95539E-05-3.03273E-05 3.74478E-06-7.29107E-19 2.74345E-18
 -1      2039 9.85980E-05-2.93545E-05-2.96780E-05 1.84287E-06-2.13348E-19 4.01219E-18
 -1      2040 9.93481E-05-2.95473E-05-2.99001E-05 2.12051E-06 1.46300E-19 3.38105E-18
 -1      2041 9.89660E-05-2.92799E-05-2.98635E-05 2.76717E-06-3.62404E-20 2.42266E-18
 -1      2042 9.76081E-05-2.91164E-05-2.93546E-05 1.33256E-06-4.21498E-19 3.45627E-18
 -1      2043 9.81594E-05-2.92568E-05-2.95183E-05 1.54144E-06-2.22879E-19 3.91163E-18
 -1      2044 9.79300E-05-2.90746E-05-2.95087E-05 2.02419E-06-5.83708E-19 3.98711E-18
 -1      2045 9.68783E-05-2.89415E-05-2.91160E-05 9.54025E-07-5.90793E-19 4.07202E-18
 -1      2046 9.72795E-05-2.90429E-05-2.92355E-05 1.10987E-06-6.46656E-19 3.44771E-18
 -1      2047 9.71502E-05-2.89208E-05-2.92412E-05 1.46642E-06-5.35225E-19 3.55908E-18
 -1      2048 9.63465E-05-2.88148E-05-2.89420E-05 6.74817E-07-7.26091E-20 4.85071E-18
 -1      2049 9.66351E-05-2.88871E-05-2.90282E-05 7.90448E-07-6.02272E-19 4.87178E-18
 -1      2050 9.65700E-05-2.88066E-05-2.90419E-05 1.05100E-06-8.58856E-19 3.88664E-18
 -1      2051 9.59640E-05-2.87243E-05-2.88167E-05 4.69880E-07 1.86657E-18 2.61385E-18
 -1      2052 9.61689E-05-2.87751E-05-2.88781E-05 5.55271E-07 1.09154E-18 3.68827E-18
 -1      2053 9.61439E-05-2.87233E-05-2.88952E-05 7.43426E-07 1.17598E-18 3.18636E-18
 -1      2054 9.56934E-05-2.86610E-05-2.87277E-05 3.20265E-07 3.30105E-18 1.22980E-18
 -1      2055 9.58364E-05-2.86959E-05-2.87708E-05 3.83009E-07 2.19549E-18 2.37466E-18
 -1      2056 9.58354E-05-2.86636E-05-2.87886E-05 5.16959E-07 2.49714E-18 1.54467E-18
 -1      2057 9.55060E-05-2.86181E-05-2.86658E-05 2.11767E-07 2.14765E-18 1.23583E-18
 -1      2058 9.56036E-05-2.86413E-05-2.86953E-05 2.57590E-07 2.87164E-18 1.71534E-18
 -1      2059 9.56159E-05-2.86220E-05-2.87123E-05 3.51238E-07 2.73340E-18 1.39106E-18
 -1      2060 9.53799E-05-2.85900E-05-2.86238E-05 1.33764E-07 4.22614E-19-1.01569E-18
 -1      2061 9.54444E-05-2.86049E-05-2.86435E-05 1.66973E-07 1.40365E-18 5.23040E-19
 -1      2062 9.54633E-05-2.85941E-05-2.86588E-05 2.30881E-07 1.63925E-18 1.15235E-18
 -1      2063 9.52985E-05-2.85727E-05-2.85964E-05 7.83146E-08-1.81252E-18-1.09224E-18
 -1      2064 9.53391E-05-2.85816E-05-2.86089E-05 1.02147E-07-6.72419E-19-1.02211E-18
 -1      2065 9.53602E-05-2.85763E-05-2.86221E-05 1.44307E-07-7.33719E-19 1.66140E-18
 -1      2066 9.52494E-05-2.85632E-05-2.85794E-05 3.95038E-08-8.34942E-19-8.90590E-19
 -1      2067 9.52729E-05-2.85678E-05-2.85869E-05 5.63838E-08-1.87031E-18-1.78109E-18
 -1      2068 9.52934E-05-2.85660E-05-2.85979E-05 8.28141E-08-1.44315E-18 4.34613E-19
 -1      2069 9.52230E-05-2.85592E-05-2.85699E-05 1.29574E-08-3.58498E-19-4.03215E-19
 -1      2070 9.52346E-05-2.85608E-05-2.85738E-05 2.46856E-08-6.28971E-19-9.26110E-19
 -1      2071 9.52530E-05-2.85609E-05-2.85827E-05 3.99055E-08-1.12670E-18-3.97456E-20
 -1      2072 9.52122E-05-2.85588E-05-2.85655E-05-4.48791E-09-6.27357E-19 1.55863E-18
 -1      2073 9.52158E-05-2.85585E-05-2.85669E-05 3.39139E-09 1.46184E-19 1.00785E-18
 -1      2074 9.52311E-05-2.85595E-05-2.85738E-05 1.07891E-08-1.07648E-18 1.37394E-20
 -1      2075 9.52117E-05-2.85609E-05-2.85645E-05-1.49972E-08-9.60736E-19 1.77196E-18
 -1      2076 9.52101E-05-2.85593E-05-2.85643E-05-1.00842E-08-1.47042E-18 1.31932E-18
 -1      2077 9.52219E-05-2.85607E-05-2.85693E-05-7.95818E-09-1.41279E-18 1.03965E-18
 -1      2078 9.52173E-05-2.85646E-05-2.85653E-05-1.98072E-08-9.28894E-19 1.60240E-18
 -1      2079 9.52128E-05-2.85623E-05-2.85643E-05-1.74000E-08-1.95302E-19 1.91755E-18
 -1      2080 9.52211E-05-2.85637E-05-2.85676E-05-1.86017E-08-6.70767E-19 3.95908E-19
 -1      2081 9.52254E-05-2.85693E-05-2.85669E-05-1.91094E-08 1.72452E-18 6.63173E-19
 -1      2082 9.52200E-05-2.85666E-05-2.85657E-05-1.93525E-08 4.37143E-19 1.14091E-18
 -1      2083 9.52250E-05-2.85680E-05-2.85674E-05-2.23690E-08 4.70140E-19-1.32898E-18
 -1      2084 9.52327E-05-2.85738E-05-2.85681E-05-1.45701E-08-6.21696E-19-4.05296E-19
 -1      2085 9.52276E-05-2.85709E-05-2.85671E-05-1.75263E-08 1.35408E-18 7.93294E-19
 -1      2086 9.52304E-05-2.85723E-05-2.85678E-05-2.09565E-08 1.18652E-18 3.43566E-20
 -1      2087 9.52354E-05-2.85771E-05-2.85678E-05-1.67290E-08 1.41166E-19 7.86590E-19
 -1      2088 9.52470E-05-2.85942E-05-2.85655E-05-1.41219E-08-6.28691E-19 1.88876E-18
 -1      2089 9.52456E-05-2.85906E-05-2.85663E-05-1.62888E-08-9.60085E-19 5.18806E-19
 -1      2090 9.52446E-05-2.85897E-05-2.85664E-05-1.86506E-08-8.82980E-19-2.47536E-18
 -1      2091 9.52422E-05-2.85852E-05-2.85672E-05-1.95625E-08-1.17505E-19-2.72796E-18
 -1      2092 9.52439E-05-2.85829E-05-2.85691E-05-2.00652E-08-9.99347E-19-4.99347E-19
 -1      2093 9.52407E-05-2.85842E-05-2.85670E-05-1.98677E-08 3.64436E-19-1.34906E-18
 -1      2094 9.52376E-05-2.85795E-05-2.85678E-05-1.83631E-08 1.81537E-19 1.79070E-19
 -1      2095 9.52358E-05-2.85772E-05-2.85680E-05-2.12766E-08 5.71407E-20 6.28683E-19
 -1      2096 9.52404E-05-2.85807E-05-2.85685E-05-2.30134E-08-1.15134E-19-3.07670E-18
 -1      2097 9.52475E-05-2.85963E-05-2.85648E-05-8.95703E-09-3.29872E-19-4.18378E-18
 -1      2098 9.52470E-05-2.85940E-05-2.85654E-05-1.12663E-08-6.30869E-19-9.31331E-19
 -1      2099 9.52453E-05-2.85837E-05-2.85693E-05-1.42818E-08-9.29124E-19-4.26743E-20
 -1      2100 9.52470E-05-2.85967E-05-2.85644E-05-4.41964E-09 1.84115E-18-6.65419E-19
 -1      2101 9.52470E-05-2.85955E-05-2.85648E-05-6.35815E-09 8.22948E-19-1.55412E-18
 -1      2102 9.52447E-05-2.85828E-05-2.85694E-05-8.29931E-09 8.89902E-19-1.65993E-18
 -1      2103 9.52461E-05-2.85961E-05-2.85643E-05-1.18628E-09 4.42369E-19 1.90531E-18
 -1      2104 9.52464E-05-2.85958E-05-2.85644E-05-2.55107E-09 9.02143E-19 9.14073E-19
 -1      2105 9.52432E-05-2.85809E-05-2.85695E-05-3.49427E-09 2.74345E-18-9.30687E-19
 -1      2106 9.52454E-05-2.85952E-05-2.85644E-05 9.19390E-10-4.38077E-19 3.99141E-19
 -1      2107 9.52456E-05-2.85954E-05-2.85643E-05-1.47330E-11-4.20516E-19 1.43651E-18
 -1      2108 9.52417E-05-2.85791E-05-2.85696E-05-3.21013E-10 7.77264E-19 9.52162E-19
 -1      2109 9.52451E-05-2.85944E-05-2.85645E-05 2.54415E-09-2.97236E-19 1.35482E-18
 -1      2110 9.52453E-05-2.85949E-05-2.85644E-05 1.72435E-09-1.17307E-18 1.48550E-18
 -1      2111 9.52408E-05-2.85780E-05-2.85697E-05 1.64556E-09-1.56229E-18 3.34100E-19
 -1      2112 9.52453E-05-2.85938E-05-2.85649E-05 4.47965E-09 1.61914E-19-3.76064E-19
 -1      2113 9.52454E-05-2.85947E-05-2.85646E-05 3.43500E-09-4.96276E-19 1.46597E-18
 -1      2114 9.52409E-05-2.85780E-05-2.85698E-05 3.30016E-09-1.93775E-18 1.48406E-18
 -1      2115 9.52456E-05-2.85929E-05-2.85653E-05 7.25915E-09 2.34191E-19-3.60210E-18
 -1      2116 9.52458E-05-2.85944E-05-2.85649E-05 5.81737E-09 6.54396E-19-2.50349E-18
 -1      2117 9.52418E-05-2.85789E-05-2.85698E-05 5.56887E-09-6.71785E-19-1.65484E-18
 -1      2118 9.52455E-05-2.85912E-05-2.85660E-05 1.10572E-08 1.05141E-18 7.78393E-19
 -1      2119 9.52461E-05-2.85935E-05-2.85654E-05 9.21833E-09 1.10409E-18-8.44783E-19
 -1      2120 9.52430E-05-2.85802E-05-2.85698E-05 9.05999E-09 2.13833E-18-1.70307E-18
 -1      2121 9.52443E-05-2.85881E-05-2.85669E-05 1.51187E-08 1.28595E-18 1.96082E-18
 -1      2122 9.52456E-05-2.85913E-05-2.85661E-05 1.33548E-08 1.04622E-18 2.06158E-19
 -1      2123 9.52436E-05-2.85810E-05-2.85697E-05 1.37150E-08 2.78616E-18 4.60731E-19
 -1      2124 9.52412E-05-2.85835E-05-2.85677E-05 1.81321E-08-9.65795E-19-3.13550E-19
 -1      2125 9.52438E-05-2.85875E-05-2.85669E-05 1.70377E-08-3.81723E-19 1.26845E-18
 -1      2126 9.52427E-05-2.85805E-05-2.85695E-05 1.83671E-08 2.87900E-19 2.03986E-19
 -1      2127 5.61463E-05-4.32660E-05-6.31242E-06 3.53988E-05 1.41709E-18 9.83935E-19
 -1      2128 4.14551E-05-4.29159E-05-6.69721E-07 2.89851E-05 1.10792E-18 1.93759E-18
 -1      2129 1.20813E-05-3.76680E-05 9.25528E-06-1.00266E-07 1.98984E-18 4.20552E-19
 -1      2130 1.14686E-05-3.39570E-05 8.33456E-06-9.70100E-06 1.57739E-18 2.02017E-19
 -1      2131 2.24388E-05-3.66600E-05 4.83655E-06 1.96416E-05 1.85161E-18 1.45944E-18
 -1      2132 1.59271E-05-3.95753E-05 8.26312E-06 9.10002E-06 2.07947E-18 4.13776E-19
 -1      2133 1.50381E-05-2.74781E-05 4.46154E-06 7.18854E-06 1.54859E-18 6.78473E-19
 -1      2134 9.13087E-05-4.73872E-05-1.92779E-05 3.97458E-05 2.05829E-18-6.48192E-19
 -1      2135 7.15380E-05-4.85714E-05-1.13552E-05 3.41805E-05 2.43861E-18-1.64113E-19
 -1      2136 7.63467E-05-5.01511E-05-1.16304E-05 3.92028E-05 7.08967E-19-6.33157E-20
 -1      2137 1.37254E-04-5.11319E-05-3.65975E-05 3.32510E-05 1.47468E-18-1.67289E-18
 -1      2138 1.14392E-04-5.17223E-05-2.78459E-05 3.18441E-05 1.48612E-18-4.62056E-19
 -1      2139 8.73466E-05-8.61146E-06-3.38402E-05-9.76696E-06 5.04349E-19-1.63132E-18
 -1      2140 8.81405E-05-9.18453E-06-3.39219E-05-1.13114E-05 4.21492E-19-1.75980E-18
 -1      2141 9.06998E-05-1.29959E-05-3.33503E-05-1.10405E-05 3.50149E-19-1.71723E-18
 -1      2142 8.86883E-05-1.08288E-05-3.33925E-05-8.59795E-06 5.58129E-19-1.50598E-18
 -1      2143 1.92772E-04-3.72962E-05-6.50643E-05 6.49089E-06 1.15154E-18-1.87618E-19
 -1      2144 1.78484E-04-3.88115E-05-5.91346E-05 9.90840E-06 1.40629E-18-3.82012E-19
 -1      2145 1.93159E-04-2.81443E-05-6.92517E-05-1.14603E-06 3.65071E-19-6.36545E-19
 -1      2146 1.91406E-04-3.03653E-05-6.75710E-05 2.40397E-06 1.05498E-18-3.98953E-19
 -1      2147 1.94425E-04-3.26917E-05-6.76144E-05-5.94468E-06-9.01667E-19-3.08320E-19
 -1      2148 1.95601E-04-2.95024E-05-6.96833E-05 1.02124E-07-7.84353E-19-7.35754E-19
 -1      2149 1.74747E-04-3.99270E-05-5.72323E-05-1.15399E-05-5.74924E-19 5.08220E-21
 -1      2150 1.92403E-04-3.90535E-05-6.39365E-05-9.56584E-06-5.90170E-19 5.88688E-20
 -1      2151 1.44884E-04-4.93938E-05-4.12556E-05-2.51981E-05-1.03338E-19-4.48080E-19
 -1      2152 1.66215E-04-4.88452E-05-4.96261E-05-2.08175E-05-3.89635E-20 3.99376E-19
 -1      2153 1.09432E-04-5.24488E-05-2.53756E-05-3.30830E-05-1.29596E-19-1.66865E-19
 -1      2154 1.31528E-04-5.05791E-05-3.43397E-05-3.50769E-05-7.45389E-20-6.67462E-19
 -1      2155 1.47759E-04-6.02127E-05-3.72297E-05-1.78369E-05-9.80441E-20-1.61783E-19
 -1      2156 7.11243E-05-4.94552E-05-1.01570E-05-3.61870E-05-1.13968E-18-9.85900E-19
 -1      2157 9.12153E-05-5.03342E-05-1.77085E-05-4.04104E-05-7.54706E-19-3.30766E-19
 -1      2158 3.06717E-05-4.08232E-05 2.83067E-06-2.35354E-05-9.18184E-19-4.88526E-19
 -1      2159 4.47532E-05-3.90643E-05-3.03217E-06-3.43217E-05-7.97482E-19-1.15747E-18
 -1      2160 1.41058E-05-3.63480E-05 8.10942E-06-7.03751E-06-1.32921E-18-2.05829E-19
 -1      2161 1.98251E-05-3.61952E-05 5.94115E-06-1.61032E-05-9.04843E-19-1.07997E-19
 -1      2162 3.05179E-05-3.05925E-05-3.61295E-07-2.60527E-05-3.49825E-19-6.88638E-19
 -1      2163 1.45943E-05-3.44502E-05 7.36083E-06 1.49230E-05-5.44642E-19 2.67662E-19
 -1      2164 1.19289E-05-3.51737E-05 8.61424E-06 5.58558E-06-9.83776E-19-3.01967E-19
 -1      2165 3.28794E-05-3.62351E-05 6.11767E-07 3.33489E-05-4.14199E-19 1.41095E-18
 -1      2166 2.29007E-05-3.93571E-05 5.42640E-06 2.40457E-05-4.41728E-19 1.21973E-18
 -1      2167 6.97558E-05-4.15301E-05-1.22735E-05 4.58346E-05-1.56278E-19-6.62750E-19
 -1      2168 5.22632E-05-4.26917E-05-5.20717E-06 3.85676E-05-6.01393E-19 1.36055E-19
 -1      2169 1.07275E-04-4.14682E-05-2.78676E-05 4.44569E-05-3.48131E-19 4.94667E-19
 -1      2170 8.99535E-05-4.51413E-05-1.98748E-05 4.12621E-05-1.77877E-19-2.30393E-19
 -1      2171 1.38476E-04-3.96452E-05-4.17257E-05 3.74173E-05-7.34378E-19 9.64347E-19
 -1      2172 1.19269E-04-4.07121E-05-3.40828E-05 3.80621E-05-8.11458E-19 1.07954E-18
 -1      2173 1.24636E-04-5.22077E-05-3.08051E-05 3.41106E-05-4.74762E-19 9.65829E-19
 -1      2174 1.65845E-04-3.42725E-05-5.52425E-05 2.53206E-05-7.43377E-19 6.30193E-19
 -1      2175 1.49465E-04-3.52634E-05-4.88064E-05 2.73516E-05-5.22513E-19 4.23516E-19
 -1      2176 1.79565E-04-2.81591E-05-6.38063E-05 1.25206E-05-1.42365E-18 1.21930E-18
 -1      2177 1.70227E-04-2.92476E-05-5.97197E-05 2.00521E-05-1.36902E-18 8.94467E-19
 -1      2178 1.59085E-04-3.06389E-05-5.40568E-05 6.81584E-06-1.23328E-18 7.41154E-19
 -1      2179 1.81928E-04-2.28536E-05-6.72990E-05 2.37344E-07-6.86944E-19 6.34534E-19
 -1      2180 1.79206E-04-2.26846E-05-6.61158E-05 7.01021E-06-1.21295E-18 5.14573E-19
 -1      2181 1.71387E-04-2.03486E-05-6.44051E-05-7.07208E-06-7.53436E-19 4.01494E-19
 -1      2182 1.81922E-04-2.27413E-05-6.70034E-05-2.10875E-06-8.51268E-19 6.17064E-19
 -1      2183 1.58936E-04-1.11026E-05-6.23995E-05 2.45083E-07-9.13949E-19 5.09014E-20
 -1      2184 1.60511E-04-3.10174E-05-5.53452E-05-1.60996E-05-1.81371E-19 7.52165E-19
 -1      2185 1.67284E-04-2.75654E-05-5.96317E-05-8.38337E-06-6.24687E-20 3.33731E-19
 -1      2186 1.42271E-04-3.76503E-05-4.49433E-05-2.83595E-05 3.63589E-19 5.50571E-20
 -1      2187 1.58304E-04-3.69767E-05-5.15661E-05-2.40442E-05-1.27055E-21 2.36322E-19
 -1      2188 1.52787E-04-3.50203E-05-4.97365E-05-3.53057E-06 7.55871E-19-5.88264E-19
 -1      2189 1.09049E-04-4.07314E-05-2.99208E-05-3.95450E-05 1.39633E-18 1.02660E-18
 -1      2190 1.29128E-04-3.94669E-05-3.79816E-05-4.08943E-05 5.95041E-19 7.96211E-19
 -1      2191 7.71130E-05-4.36572E-05-1.52072E-05-4.15905E-05 2.09895E-18 1.14138E-18
 -1      2192 9.43241E-05-4.04961E-05-2.29623E-05-4.57307E-05 1.34297E-18 1.65426E-18
 -1      2193 4.19504E-05-4.08232E-05-1.78183E-06-3.53022E-05 2.12690E-18-9.55030E-20
 -1      2194 5.68142E-05-3.85144E-05-8.19095E-06-4.33836E-05 2.04643E-18 5.21137E-19
 -1      2195 2.01164E-05-3.55932E-05 5.47649E-06-2.27269E-05 1.42640E-18-7.11508E-19
 -1      2196 2.87051E-05-3.58197E-05 2.15056E-06-3.06751E-05 1.58607E-18-5.68783E-19
 -1      2197 4.29828E-05-3.51446E-05-3.67259E-06-4.01961E-05 1.53271E-18-7.06425E-19
 -1      2198 1.71024E-04-4.74502E-05-5.21607E-05 1.86240E-05 1.37569E-18-6.40357E-19
 -1      2199 1.50568E-04-4.80795E-05-4.40812E-05 2.35119E-05 1.43276E-18-6.30193E-19
 -1      2200 9.76245E-05-2.44531E-05-3.14294E-05-9.39971E-06-2.17370E-19-2.07465E-18
 -1      2201 1.75545E-04-2.95451E-05-6.11769E-05 5.92616E-06-8.98702E-19-4.31140E-19
 -1      2202 1.70943E-04-4.54191E-05-5.28090E-05-3.34062E-07 1.38056E-18 7.49624E-20
 -1      2203 9.68223E-05-2.32308E-05-3.16078E-05-9.62758E-06-8.02034E-20-1.76590E-18
 -1      2204 3.86205E-05-3.64331E-05-1.51310E-06 3.03671E-05 7.89435E-19 1.28389E-18
 -1      2205 9.52396E-05-2.85800E-05-2.85684E-05 1.88012E-08-1.33263E-18-7.31127E-19
 -1      2206 1.16627E-04-6.00264E-05-2.43008E-05 3.28148E-05 1.51534E-18-1.41539E-18
 -1      2207 1.86902E-05-2.69807E-05 2.97119E-06-1.98899E-05 1.82536E-18 6.77626E-20
 -1      2208 1.51693E-04-5.93524E-05-3.91305E-05 1.46795E-05 1.38532E-18-8.94890E-19
 -1      2209 7.81220E-05-4.67741E-05-1.36148E-05-4.55076E-05 2.18196E-18 7.44171E-19
 -1      2210 1.42637E-04-4.73352E-05-4.02344E-05-2.18131E-05 1.07107E-18-4.32410E-19
 -1      2211 1.55992E-04-1.97357E-05-5.79860E-05 2.20876E-06-4.21399E-20-6.83132E-19
 -1      2212 1.62035E-04-1.77837E-05-6.07802E-05 1.31053E-06-1.34297E-18 4.31563E-19
 -1      2213 1.47292E-04-4.45495E-05-4.34367E-05 1.98454E-05-5.52054E-19 9.52912E-19
 -1      2214 9.13662E-05-5.07385E-05-1.75717E-05 4.43442E-05 2.20652E-19 2.16735E-19
 -1      2215 5.07978E-05-3.85585E-05-5.39495E-06 4.27687E-05 9.27501E-20 6.42898E-19
 -1      2216 1.53489E-05-2.43999E-05 3.32105E-06-2.09344E-06-2.56836E-19-1.73642E-19
 -1      2217 1.14546E-04-6.05381E-05-2.34412E-05-3.35040E-05-6.12405E-19-5.42101E-19
 -1      2218 1.68505E-04-4.80745E-05-5.08484E-05-1.24514E-06-4.23516E-19 4.49774E-19
 -1      2219 1.73793E-04-2.70720E-05-6.15454E-05-6.69942E-06 1.42556E-18 8.89385E-21
 -1      2220 1.73856E-04-2.04872E-05-6.44031E-05-4.51191E-08-1.13079E-19-6.41680E-19
 -1      2221 6.83278E-05-4.61648E-05-9.58638E-06-3.90478E-05-8.62703E-19-1.00977E-18
 -1      2222 2.20106E-05-2.80923E-05 1.99845E-06 2.42635E-05 3.04085E-19 1.02872E-18
 -1      2223 1.14853E-04-5.16591E-05-2.69456E-05-3.83947E-05 1.68644E-18 9.20937E-19
 -1      2224 9.60480E-05-2.64655E-05-2.98005E-05 3.16791E-06 1.81702E-19 1.68627E-18
 -1      2225 9.68424E-05-2.59386E-05-3.03135E-05 5.07269E-06 2.04532E-19 1.74740E-18
 -1      2226 8.75020E-05-1.04238E-05-3.30735E-05-3.09219E-06 9.32384E-19-8.16685E-19
 -1      2227 8.78463E-05-1.07688E-05-3.30668E-05-4.13168E-06 9.21825E-19-1.01510E-18
 -1      2228 8.83331E-05-1.13682E-05-3.30311E-05-5.05365E-06 8.51508E-19-1.09840E-18
 -1      2229 8.88742E-05-1.19320E-05-3.30165E-05-6.15731E-06 7.02686E-19-1.23089E-18
 -1      2230 8.93428E-05-1.30706E-05-3.26856E-05-4.10801E-06 8.51319E-19-9.61908E-19
 -1      2231 8.69256E-05-9.76016E-06-3.31043E-05 6.20475E-07 1.06230E-18-3.76288E-19
 -1      2232 8.69344E-05-9.76997E-06-3.31024E-05-3.47958E-07 1.02567E-18-5.14453E-19
 -1      2233 8.71692E-05-1.00085E-05-3.31018E-05 2.44651E-06 1.09396E-18-2.38301E-19
 -1      2234 8.70071E-05-9.85162E-06-3.31016E-05 1.47086E-06 1.07074E-18-3.13574E-19
 -1      2235 8.81048E-05-1.16145E-05-3.27808E-05 9.71905E-07 9.95369E-19-3.24420E-19
 -1      2236 8.77832E-05-1.06680E-05-3.30846E-05 4.28597E-06 1.03935E-18-7.25007E-20
 -1      2237 8.74426E-05-1.03313E-05-3.30878E-05 3.28992E-06 1.06129E-18-1.92382E-19
 -1      2238 8.84688E-05-1.20211E-05-3.27610E-05 2.59808E-06 9.76822E-19-2.25817E-19
 -1      2239 8.88407E-05-1.18451E-05-3.30409E-05 6.23678E-06 1.12513E-18 3.67096E-19
 -1      2240 8.82794E-05-1.12672E-05-3.30526E-05 5.16391E-06 1.09063E-18 1.30430E-19
 -1      2241 8.92531E-05-1.29234E-05-3.27081E-05 4.23969E-06 1.00500E-18 3.10491E-20
 -1      2242 9.04333E-05-1.37001E-05-3.29463E-05 8.24109E-06 9.83476E-19 8.38913E-19
 -1      2243 8.95966E-05-1.27817E-05-3.29772E-05 7.11725E-06 1.04039E-18 5.58565E-19
 -1      2244 9.05150E-05-1.44251E-05-3.26003E-05 5.89672E-06 9.79050E-19 4.09593E-19
 -1      2245 9.27283E-05-1.65253E-05-3.27551E-05 1.00947E-05 8.62827E-19 1.20346E-18
 -1      2246 9.15162E-05-1.50809E-05-3.28214E-05 9.02073E-06 9.46682E-19 9.74849E-19
 -1      2247 9.23009E-05-1.66678E-05-3.23919E-05 7.41966E-06 8.30859E-19 8.40680E-19
 -1      2248 9.54300E-05-2.72159E-05-2.92077E-05 4.25496E-07 2.07722E-19 1.47065E-18
 -1      2249 9.57914E-05-2.69693E-05-2.94233E-05 1.55691E-06 1.80478E-19 1.57871E-18
 -1      2250 9.60831E-05-2.58042E-05-3.01314E-05 3.05125E-06 2.59854E-19 1.24139E-18
 -1      2251 9.64799E-05-2.51499E-05-3.05229E-05-5.26041E-06-2.70587E-20-1.51842E-18
 -1      2252 9.59508E-05-2.59154E-05-3.00252E-05-3.26984E-06-5.61457E-20-1.42788E-18
 -1      2253 1.62344E-04-3.25134E-05-5.57212E-05 1.29998E-05-1.12317E-18-2.55592E-19
 -1      2254 1.61973E-04-2.58088E-05-5.87835E-05 1.04990E-05-1.18839E-18-3.55330E-19
 -1      2255 9.59220E-05-2.66055E-05-2.96499E-05-1.82886E-06-1.07047E-19-1.23193E-18
 -1      2256 9.56142E-05-2.70036E-05-2.94001E-05-6.69085E-07 9.06590E-22-1.25695E-18
 -1      2257 9.59356E-05-2.53387E-05-3.02647E-05-3.09630E-06 1.66545E-20-1.20513E-18
 -1      2258 9.55386E-05-2.73528E-05-2.91836E-05 3.09661E-07-5.36261E-21-1.14372E-18
 -1      2259 9.54808E-05-2.76181E-05-2.90776E-05 1.02352E-06-1.95190E-20-1.18877E-18
 -1      2260 9.58328E-05-2.66771E-05-2.96540E-05-4.71799E-07 2.91970E-20-1.00957E-18
 -1      2261 9.54903E-05-2.78444E-05-2.89674E-05 1.66868E-06-1.05665E-19-1.22107E-18
 -1      2262 9.56326E-05-2.80695E-05-2.89501E-05 2.11029E-06-1.71772E-20-1.18511E-18
 -1      2263 9.58066E-05-2.74677E-05-2.93039E-05 1.28952E-06-8.48245E-20-1.00781E-18
 -1      2264 9.57517E-05-2.82601E-05-2.89103E-05 2.52192E-06 8.11038E-20-1.23096E-18
 -1      2265 9.60379E-05-2.84861E-05-2.89475E-05 2.77510E-06 4.03399E-20-1.20537E-18
 -1      2266 9.59682E-05-2.80309E-05-2.91297E-05 2.44522E-06-3.99272E-20-1.04940E-18
 -1      2267 9.62644E-05-2.86861E-05-2.89524E-05 3.00523E-06-2.73300E-20-1.18596E-18
 -1      2268 9.66469E-05-2.89340E-05-2.90202E-05 3.10258E-06 2.01770E-19-9.92759E-19
 -1      2269 9.63396E-05-2.85338E-05-2.90710E-05 3.15673E-06 1.46746E-19-1.01405E-18
 -1      2270 9.69731E-05-2.91707E-05-2.90508E-05 3.16579E-06 1.86868E-19-1.04035E-18
 -1      2271 9.74095E-05-2.94516E-05-2.91302E-05 3.10691E-06 9.36962E-20-1.20924E-18
 -1      2272 9.69135E-05-2.90726E-05-2.90841E-05 3.49743E-06 1.35040E-19-1.10812E-18
 -1      2273 9.78258E-05-2.97418E-05-2.91724E-05 2.98926E-06-2.98930E-19-1.17162E-18
 -1      2274 9.82722E-05-3.00556E-05-2.92476E-05 2.75286E-06-6.35553E-19-1.05673E-18
 -1      2275 9.76754E-05-2.97081E-05-2.91368E-05 3.47158E-06-1.24518E-19-1.41797E-18
 -1      2276 9.87627E-05-3.04020E-05-2.92912E-05 2.42156E-06-8.02100E-19-9.11153E-19
 -1      2277 9.91674E-05-3.07314E-05-2.93489E-05 1.97860E-06-6.83159E-19-8.75463E-19
 -1      2278 9.86021E-05-3.04690E-05-2.92063E-05 3.03293E-06-7.26261E-19-1.36447E-18
 -1      2279 9.96991E-05-3.11127E-05-2.93885E-05 1.39670E-06-4.89583E-19-8.97949E-19
 -1      2280 9.99970E-05-3.14135E-05-2.94187E-05 7.29486E-07-2.89924E-19-1.04475E-18
 -1      2281 9.96464E-05-3.13362E-05-2.92798E-05 2.10902E-06-6.05917E-19-8.90196E-19
 -1      2282 1.00506E-04-3.17712E-05-2.94546E-05-1.19487E-07-3.32148E-19-8.09625E-19
 -1      2283 1.00618E-04-3.19636E-05-2.94527E-05-9.89782E-07-6.28012E-20-7.25293E-19
 -1      2284 1.00712E-04-3.22146E-05-2.93559E-05 6.40237E-07-1.96375E-19-3.97058E-19
 -1      2285 1.01000E-04-3.21922E-05-2.94912E-05-2.06448E-06 6.47219E-20-1.03272E-18
 -1      2286 1.00844E-04-3.21648E-05-2.94596E-05-3.04495E-06 2.51139E-19-1.14293E-18
 -1      2287 1.01627E-04-3.29042E-05-2.94458E-05-1.35728E-06-7.03302E-20-6.16324E-19
 -1      2288 1.00956E-04-3.21227E-05-2.95116E-05-4.20194E-06 3.51006E-19-1.33290E-18
 -1      2289 1.00474E-04-3.17618E-05-2.94607E-05-5.10299E-06 4.56506E-19-1.17673E-18
 -1      2290 1.02140E-04-3.31024E-05-2.95714E-05-3.70545E-06 2.78666E-19-6.44616E-19
 -1      2291 1.00186E-04-3.13201E-05-2.95366E-05-6.06628E-06 3.59261E-19-1.26268E-18
 -1      2292 9.93912E-05-3.05782E-05-2.94814E-05-6.61057E-06 1.92599E-19-9.72746E-19
 -1      2293 1.01963E-04-3.24735E-05-2.97566E-05-5.97976E-06 3.84932E-19-7.97153E-19
 -1      2294 9.86751E-05-2.97210E-05-2.95816E-05-7.00544E-06 6.40949E-20-1.08048E-18
 -1      2295 9.77023E-05-2.87033E-05-2.95366E-05-6.90632E-06-3.25562E-20-1.03583E-18
 -1      2296 1.00921E-04-3.08414E-05-3.00101E-05-7.49230E-06 3.69837E-20-9.86051E-19
 -1      2297 9.67371E-05-2.76249E-05-2.96453E-05-6.40415E-06-1.55874E-20-1.22575E-18
 -1      2298 9.58450E-05-2.66228E-05-2.96183E-05-5.51285E-06-3.08975E-19-1.30529E-18
 -1      2299 9.91630E-05-2.84251E-05-3.03052E-05-7.46649E-06-1.51597E-19-1.04730E-18
 -1      2300 9.50169E-05-2.57208E-05-2.97048E-05-4.05366E-06-3.43062E-19-1.01573E-18
 -1      2301 9.45059E-05-2.51157E-05-2.96965E-05-2.50424E-06-1.12493E-19-1.05999E-18
 -1      2302 9.72771E-05-2.59646E-05-3.05761E-05-5.43598E-06-1.57235E-19-1.15406E-18
 -1      2303 9.42204E-05-2.47995E-05-2.97296E-05-4.37479E-07 9.93278E-21-1.29726E-18
 -1      2304 9.42896E-05-2.48598E-05-2.97374E-05 1.34525E-06 1.78373E-20-1.21440E-18
 -1      2305 9.61008E-05-2.44536E-05-3.07387E-05-1.68296E-06-3.05066E-19-5.80792E-19
 -1      2306 9.47094E-05-2.52928E-05-2.97051E-05 3.35780E-06-8.87399E-21-1.03934E-18
 -1      2307 9.53422E-05-2.59923E-05-2.97300E-05 4.83078E-06 1.70201E-20-1.61913E-18
 -1      2308 9.62398E-05-2.45916E-05-3.07345E-05 2.68933E-06 8.69698E-20-4.96467E-19
 -1      2309 9.62470E-05-2.69535E-05-2.96501E-05 6.15830E-06 1.17077E-19-1.41886E-18
 -1      2310 9.72163E-05-2.79877E-05-2.96954E-05 6.93698E-06 2.21548E-19-1.33149E-18
 -1      2311 9.76359E-05-2.63206E-05-3.05718E-05 6.23445E-06 2.76401E-19-4.76483E-19
 -1      2312 9.81844E-05-2.90476E-05-2.95997E-05 7.30229E-06 3.09921E-19-1.40110E-18
 -1      2313 9.91904E-05-3.00379E-05-2.96643E-05 7.30913E-06 1.19820E-19-1.43770E-18
 -1      2314 9.95998E-05-2.88291E-05-3.03163E-05 7.96889E-06 2.46753E-19-7.64022E-19
 -1      2315 9.98670E-05-3.08284E-05-2.95826E-05 6.83401E-06 1.21288E-19-1.64774E-18
 -1      2316 1.00673E-04-3.15154E-05-2.96578E-05 6.25225E-06-1.00602E-19-1.91782E-18
 -1      2317 1.01314E-04-3.11347E-05-3.00517E-05 7.76315E-06-1.41323E-19-1.86552E-18
 -1      2318 1.00920E-04-3.18841E-05-2.96029E-05 5.28592E-06-2.10660E-19-1.70160E-18
 -1      2319 1.01416E-04-3.21955E-05-2.96740E-05 4.40731E-06-3.81926E-20-1.24413E-18
 -1      2320 1.02268E-04-3.25906E-05-2.98391E-05 6.16820E-06-1.33596E-19-1.51978E-18
 -1      2321 1.01288E-04-3.21862E-05-2.96423E-05 3.31083E-06-1.05886E-19-8.39408E-19
 -1      2322 1.01477E-04-3.21879E-05-2.96946E-05 2.39822E-06 7.07835E-20-9.81124E-19
 -1      2323 1.02384E-04-3.30596E-05-2.96962E-05 3.96163E-06 4.24848E-20-4.59345E-19
 -1      2324 1.01110E-04-3.19368E-05-2.96749E-05 1.42108E-06 6.32221E-19-1.11805E-18
 -1      2325 1.01057E-04-3.17459E-05-2.96991E-05 6.43652E-07 8.57732E-19-5.46272E-19
 -1      2326 1.01868E-04-3.27660E-05-2.96097E-05 1.78336E-06 2.11823E-19-2.95173E-20
 -1      2327 1.00585E-04-3.13915E-05-2.96798E-05-9.52993E-08 3.96761E-19-8.70086E-19
 -1      2328 1.00372E-04-3.11164E-05-2.96736E-05-6.63865E-07 1.01828E-19-1.14526E-18
 -1      2329 1.01005E-04-3.20483E-05-2.95533E-05 3.71626E-09 4.42534E-19-3.44510E-19
 -1      2330 9.98906E-05-3.07573E-05-2.96472E-05-1.14349E-06 3.91149E-20-8.10351E-19
 -1      2331 9.95889E-05-3.04729E-05-2.96142E-05-1.49851E-06 2.78312E-19-2.55205E-19
 -1      2332 1.00031E-04-3.11987E-05-2.95029E-05-1.24614E-06 3.37920E-19-5.79960E-19
 -1      2333 9.91505E-05-3.01623E-05-2.95781E-05-1.75214E-06-2.26344E-19 8.12928E-20
 -1      2334 9.88151E-05-2.99094E-05-2.95252E-05-1.92656E-06-1.98060E-19 3.04080E-20
 -1      2335 9.90942E-05-3.04031E-05-2.94436E-05-1.98868E-06 1.21922E-19 3.84833E-19
 -1      2336 9.84405E-05-2.96663E-05-2.94805E-05-2.00854E-06-2.26504E-19 3.47327E-19
 -1      2337 9.81080E-05-2.94608E-05-2.94159E-05-2.04894E-06 3.97471E-20 1.11382E-18
 -1      2338 9.82691E-05-2.97494E-05-2.93703E-05-2.31960E-06-4.01226E-20 1.37520E-18
 -1      2339 9.78003E-05-2.92840E-05-2.93656E-05-2.01468E-06 4.57259E-19 1.19473E-18
 -1      2340 9.74930E-05-2.91272E-05-2.92965E-05-1.96675E-06 5.31498E-19 2.00795E-18
 -1      2341 9.75787E-05-2.92589E-05-2.92842E-05-2.35427E-06 5.53730E-19 1.79436E-18
 -1      2342 9.72464E-05-2.90063E-05-2.92443E-05-1.86322E-06-9.23044E-20 1.85599E-18
 -1      2343 9.69759E-05-2.88923E-05-2.91765E-05-1.76485E-06-9.25675E-20 1.03688E-18
 -1      2344 9.70196E-05-2.89172E-05-2.91906E-05-2.19892E-06 9.22058E-20 1.42462E-18
 -1      2345 9.67815E-05-2.88144E-05-2.91256E-05-1.62756E-06-6.40633E-20 6.26548E-19
 -1      2346 9.65520E-05-2.87348E-05-2.90630E-05-1.50684E-06-3.39389E-19 5.70988E-19
 -1      2347 9.65763E-05-2.86951E-05-2.90953E-05-1.93866E-06-5.23796E-19 1.38219E-18
 -1      2348 9.64007E-05-2.86878E-05-2.90159E-05-1.36031E-06-3.64468E-19 1.36993E-19
 -1      2349 9.62120E-05-2.86345E-05-2.89608E-05-1.23615E-06 4.26904E-19-3.64927E-19
 -1      2350 9.62301E-05-2.85617E-05-2.90036E-05-1.63532E-06-5.89935E-19 3.36408E-19
 -1      2351 9.60955E-05-2.86086E-05-2.89189E-05-1.09576E-06 6.17443E-19-1.12102E-19
 -1      2352 9.59446E-05-2.85744E-05-2.88723E-05-9.79656E-07 1.98092E-19 4.83569E-19
 -1      2353 9.59630E-05-2.84898E-05-2.89195E-05-1.32994E-06 4.92264E-19 5.67779E-19
 -1      2354 9.58559E-05-2.85621E-05-2.88364E-05-8.53951E-07 8.13006E-20 8.14065E-19
 -1      2355 9.57383E-05-2.85414E-05-2.87982E-05-7.51919E-07-3.98012E-20 1.05639E-18
 -1      2356 9.57592E-05-2.84582E-05-2.88454E-05-1.04718E-06 4.25323E-19 1.69040E-18
 -1      2357 9.56715E-05-2.85374E-05-2.87684E-05-6.44663E-07-6.51286E-19-9.77804E-20
 -1      2358 9.55822E-05-2.85259E-05-2.87380E-05-5.58979E-07-9.78708E-20-5.18398E-19
 -1      2359 9.56055E-05-2.84513E-05-2.87821E-05-7.99709E-07-8.19291E-19 5.82418E-19
 -1      2360 9.55327E-05-2.85268E-05-2.87139E-05-4.70832E-07 1.07859E-18-1.03543E-18
 -1      2361 9.54666E-05-2.85214E-05-2.86905E-05-4.01430E-07 1.78288E-19-9.34230E-19
 -1      2362 9.54911E-05-2.84583E-05-2.87298E-05-5.92035E-07-1.97714E-19-6.17579E-19
 -1      2363 9.54305E-05-2.85247E-05-2.86716E-05-3.31217E-07-1.07115E-18-4.17011E-19
 -1      2364 9.53832E-05-2.85232E-05-2.86541E-05-2.76706E-07-1.66421E-18-1.85300E-19
 -1      2365 9.54073E-05-2.84721E-05-2.86877E-05-4.23570E-07 5.19740E-20-6.03756E-19
 -1      2366 9.53574E-05-2.85275E-05-2.86396E-05-2.22318E-07-2.37447E-18 5.11231E-19
 -1      2367 9.53247E-05-2.85284E-05-2.86268E-05-1.80697E-07-2.26526E-18 8.74590E-19
 -1      2368 9.53471E-05-2.84885E-05-2.86547E-05-2.90845E-07-9.46505E-19 1.00539E-19
 -1      2369 9.53069E-05-2.85330E-05-2.86160E-05-1.39686E-07-2.00562E-18 9.31687E-19
 -1      2370 9.52854E-05-2.85352E-05-2.86071E-05-1.08803E-07-5.96838E-19 8.94040E-19
 -1      2371 9.53050E-05-2.85049E-05-2.86294E-05-1.89067E-07-2.32422E-18 9.72591E-19
 -1      2372 9.52734E-05-2.85396E-05-2.85992E-05-7.87660E-08 1.15798E-18 7.65749E-19
 -1      2373 9.52602E-05-2.85426E-05-2.85932E-05-5.65980E-08 2.08643E-18 7.09301E-19
 -1      2374 9.52764E-05-2.85200E-05-2.86105E-05-1.13133E-07-1.02228E-19 1.39108E-18
 -1      2375 9.52527E-05-2.85466E-05-2.85876E-05-3.53882E-08 9.59552E-19 1.92050E-19
 -1      2376 9.52455E-05-2.85500E-05-2.85837E-05-2.02060E-08 1.31796E-18-6.86131E-20
 -1      2377 9.52579E-05-2.85334E-05-2.85967E-05-5.82537E-08 1.11597E-18 9.57553E-19
 -1      2378 9.52411E-05-2.85537E-05-2.85798E-05-6.06203E-09 2.84924E-18-1.81776E-19
 -1      2379 9.52382E-05-2.85573E-05-2.85775E-05 3.45911E-09 1.38661E-18 4.79671E-20
 -1      2380 9.52468E-05-2.85452E-05-2.85867E-05-2.02880E-08 1.71249E-18 7.73471E-19
 -1      2381 9.52361E-05-2.85611E-05-2.85747E-05 1.19234E-08-1.14224E-19 3.84783E-19
 -1      2382 9.52358E-05-2.85648E-05-2.85733E-05 1.66174E-08-2.86898E-19 6.40527E-19
 -1      2383 9.52409E-05-2.85558E-05-2.85796E-05 4.04914E-09 8.98340E-19-7.60190E-19
 -1      2384 9.56381E-05-2.78634E-05-2.90213E-05-2.83537E-06 4.08396E-20 1.03450E-18
 -1      2385 9.52992E-05-2.77055E-05-2.89427E-05-2.23294E-06 9.40769E-20 1.19034E-18
 -1      2386 9.63911E-05-2.80901E-05-2.92442E-05-4.08652E-06 2.86899E-20 9.30677E-19
 -1      2387 9.57984E-05-2.79253E-05-2.90737E-05-3.52181E-06 7.46779E-20 1.01180E-18
 -1      2388 9.58247E-05-2.75564E-05-2.92731E-05-3.52567E-06 1.30426E-19 7.01516E-19
 -1      2389 9.75095E-05-2.83115E-05-2.96243E-05-5.37076E-06 2.40599E-19 8.86809E-19
 -1      2390 9.66833E-05-2.81275E-05-2.93730E-05-4.76118E-06 8.87300E-20 7.79520E-19
 -1      2391 9.62808E-05-2.76628E-05-2.94196E-05-5.00514E-06 2.06128E-19 4.97147E-19
 -1      2392 9.89743E-05-2.85534E-05-3.01434E-05-6.82524E-06 4.34764E-19 9.05701E-19
 -1      2393 9.79102E-05-2.83332E-05-2.98151E-05-6.11300E-06 3.16082E-19 9.84978E-19
 -1      2394 9.69620E-05-2.76845E-05-2.96988E-05-6.53344E-06 2.29490E-19 4.61235E-19
 -1      2395 1.00795E-04-2.88640E-05-3.07866E-05-8.53384E-06 3.71014E-19 1.01806E-18
 -1      2396 9.94697E-05-2.85742E-05-3.03836E-05-7.68980E-06 5.25615E-19 9.80171E-19
 -1      2397 9.78353E-05-2.76618E-05-3.00799E-05-8.25160E-06 3.31764E-19 6.14357E-19
 -1      2398 1.03018E-04-2.93532E-05-3.15296E-05-1.04947E-05 4.44080E-19 1.30248E-18
 -1      2399 1.01392E-04-2.89244E-05-3.10599E-05-9.54233E-06 4.95051E-19 1.20528E-18
 -1      2400 9.88977E-05-2.76738E-05-3.05286E-05-1.02405E-05 3.36266E-19 6.81020E-19
 -1      2401 1.05754E-04-3.02562E-05-3.23239E-05-1.25422E-05 2.82442E-19 6.92413E-19
 -1      2402 1.03771E-04-2.95533E-05-3.18104E-05-1.16090E-05 4.61405E-19 1.08295E-18
 -1      2403 1.00214E-04-2.79053E-05-3.09960E-05-1.24879E-05 5.68923E-19 8.98659E-19
 -1      2404 1.09245E-04-3.20215E-05-3.30856E-05-1.42120E-05 3.11896E-19 2.36732E-19
 -1      2405 1.06826E-04-3.08085E-05-3.25749E-05-1.36113E-05 1.71089E-19 3.76599E-19
 -1      2406 1.02003E-04-2.87509E-05-3.14120E-05-1.48152E-05 4.75150E-19 4.26607E-19
 -1      2407 1.13947E-04-3.53573E-05-3.37089E-05-1.45584E-05 2.61786E-20 2.90364E-19
 -1      2408 1.10997E-04-3.33070E-05-3.32681E-05-1.48787E-05 2.15596E-19 2.96283E-19
 -1      2409 1.04786E-04-3.09423E-05-3.16951E-05-1.67495E-05 2.08646E-19 3.20595E-19
 -1      2410 1.20517E-04-4.09633E-05-3.41651E-05-1.20300E-05-1.74846E-19 3.92027E-19
 -1      2411 1.17001E-04-3.78701E-05-3.38311E-05-1.41166E-05-3.20284E-20 4.25442E-19
 -1      2412 1.09569E-04-3.55600E-05-3.18169E-05-1.73070E-05-1.36247E-19 1.99192E-19
 -1      2413 1.29160E-04-4.82897E-05-3.47625E-05-4.85870E-06-7.81441E-19 9.75203E-19
 -1      2414 1.25552E-04-4.48966E-05-3.44156E-05-9.37361E-06-4.57914E-19 6.76925E-19
 -1      2415 1.17608E-04-4.34164E-05-3.20005E-05-1.47148E-05-6.19366E-19 6.00440E-19
 -1      2416 1.38123E-04-5.30048E-05-3.65943E-05 7.96459E-06-3.38509E-19 1.31974E-18
 -1      2417 1.36221E-04-5.23937E-05-3.57703E-05 1.51961E-06-5.73719E-19 1.34526E-18
 -1      2418 1.30461E-04-5.35742E-05-3.32694E-05-6.71519E-06-8.96452E-19 9.03149E-19
 -1      2419 1.38046E-04-3.27680E-05-4.59009E-05-2.06313E-05 1.99307E-18 2.19223E-18
 -1      2420 1.34400E-04-2.50546E-05-4.72882E-05-1.42414E-05 2.17687E-18 1.90752E-18
 -1      2421 1.43136E-04-4.87381E-05-4.09009E-05-2.05989E-05 1.47775E-18 1.58210E-18
 -1      2422 1.39803E-04-4.05625E-05-4.27690E-05-2.24979E-05 1.53736E-18 2.12955E-18
 -1      2423 1.39204E-04-5.30505E-05-3.69595E-05-7.13827E-06 2.81236E-19 1.37595E-18
 -1      2424 1.39929E-04-5.17345E-05-3.79813E-05-1.35039E-05 8.00433E-19 2.00522E-18
 -1      2425 1.29896E-04-4.74352E-05-3.51884E-05 5.33598E-06-1.47913E-19-2.51933E-19
 -1      2426 1.32872E-04-5.00893E-05-3.56095E-05-6.30408E-09 1.12999E-19 7.07425E-19
 -1      2427 1.35348E-04-5.44790E-05-3.47398E-05 1.21911E-07 4.69521E-19 1.71801E-18
 -1      2428 1.20863E-04-4.00940E-05-3.45194E-05 1.20961E-05 8.83512E-19-4.31391E-20
 -1      2429 1.24276E-04-4.32927E-05-3.48091E-05 9.38653E-06-8.77473E-21-4.81419E-19
 -1      2430 1.23233E-04-4.65677E-05-3.30426E-05 1.10004E-05 2.28037E-19 1.56582E-19
 -1      2431 1.14245E-04-3.48945E-05-3.39659E-05 1.40350E-05-6.24445E-19 1.64919E-18
 -1      2432 1.17266E-04-3.72181E-05-3.43578E-05 1.33276E-05 5.83063E-19 9.91756E-19
 -1      2433 1.14033E-04-3.81663E-05-3.26337E-05 1.54348E-05-7.07405E-21 9.96926E-19
 -1      2434 1.09625E-04-3.18999E-05-3.33030E-05 1.32556E-05-2.25260E-18 1.79794E-18
 -1      2435 1.12119E-04-3.33238E-05-3.37770E-05 1.36768E-05-1.30725E-18 1.79435E-18
 -1      2436 1.08292E-04-3.27462E-05-3.24352E-05 1.59131E-05-1.20589E-18 1.90651E-18
 -1      2437 1.06313E-04-3.03613E-05-3.25549E-05 1.13339E-05-1.13568E-18 2.56352E-20
 -1      2438 1.08342E-04-3.11878E-05-3.30470E-05 1.22197E-05-2.29373E-18 8.59262E-19
 -1      2439 1.04845E-04-2.99335E-05-3.21258E-05 1.43414E-05-1.76055E-18 1.18852E-18
 -1      2440 1.03707E-04-2.95817E-05-3.17735E-05 9.05544E-06 8.69086E-19 1.05753E-19
 -1      2441 1.05399E-04-3.00776E-05-3.22490E-05 1.00738E-05-1.08665E-19-8.64073E-21
 -1      2442 1.02609E-04-2.87146E-05-3.16699E-05 1.19763E-05-7.61593E-19 3.27770E-19
 -1      2443 1.01784E-04-2.92209E-05-3.11016E-05 7.06163E-06 1.23595E-18 8.30009E-19
 -1      2444 1.03064E-04-2.95085E-05-3.14894E-05 7.93987E-06 8.71160E-19 4.51535E-19
 -1      2445 1.01018E-04-2.83115E-05-3.11579E-05 9.55553E-06 5.83298E-19 4.36956E-19
 -1      2446 1.00246E-04-2.90197E-05-3.05274E-05 5.38953E-06-2.06375E-19 2.32579E-18
 -1      2447 1.01252E-04-2.92069E-05-3.08448E-05 6.11879E-06 8.80216E-19 1.65167E-18
 -1      2448 9.98141E-05-2.82497E-05-3.06683E-05 7.45371E-06 2.09882E-19 2.41956E-19
 -1      2449 9.90238E-05-2.88920E-05-3.00570E-05 4.05211E-06 3.00283E-20 2.60400E-18
 -1      2450 9.98040E-05-2.90214E-05-3.03087E-05 4.62994E-06-2.06491E-19 3.05660E-18
 -1      2451 9.88299E-05-2.82952E-05-3.02286E-05 5.70489E-06-4.30938E-19 1.39866E-18
 -1      2452 9.80598E-05-2.88005E-05-2.96823E-05 3.01195E-06-1.05571E-19 2.76056E-18
 -1      2453 9.86578E-05-2.88932E-05-2.98777E-05 3.45793E-06 1.05929E-20 2.91438E-18
 -1      2454 9.80187E-05-2.83599E-05-2.98546E-05 4.30581E-06-3.67806E-20 2.29557E-18
 -1      2455 9.73086E-05-2.87304E-05-2.93900E-05 2.21661E-06-4.87348E-19 2.75458E-18
 -1      2456 9.77616E-05-2.87979E-05-2.95392E-05 2.55548E-06-3.58520E-19 2.58061E-18
 -1      2457 9.73555E-05-2.84144E-05-2.95480E-05 3.21348E-06-2.35419E-19 1.79161E-18
 -1      2458 9.67311E-05-2.86760E-05-2.91657E-05 1.61506E-06-1.05827E-18 3.12094E-18
 -1      2459 9.70703E-05-2.87250E-05-2.92780E-05 1.86999E-06-7.67180E-19 2.50135E-18
 -1      2460 9.68220E-05-2.84531E-05-2.93032E-05 2.37383E-06-3.94398E-19 1.08574E-18
 -1      2461 9.62932E-05-2.86343E-05-2.89958E-05 1.16355E-06-3.37465E-19 3.05854E-18
 -1      2462 9.65440E-05-2.86694E-05-2.90795E-05 1.35400E-06-6.03665E-19 3.50908E-18
 -1      2463 9.64002E-05-2.84788E-05-2.91115E-05 1.73523E-06-8.83981E-19 2.30340E-18
 -1      2464 9.59661E-05-2.86033E-05-2.88690E-05 8.26794E-07 2.40818E-18 5.95736E-19
 -1      2465 9.61492E-05-2.86279E-05-2.89304E-05 9.68232E-07 9.36261E-19 1.47318E-18
 -1      2466 9.60729E-05-2.84956E-05-2.89639E-05 1.25339E-06 1.18385E-18 1.43769E-18
 -1      2467 9.57258E-05-2.85815E-05-2.87755E-05 5.77183E-07 2.13942E-18 1.18657E-18
 -1      2468 9.58573E-05-2.85980E-05-2.88200E-05 6.81588E-07 2.38884E-18 1.27799E-18
 -1      2469 9.58235E-05-2.85071E-05-2.88518E-05 8.92326E-07 1.98425E-18-4.85906E-19
 -1      2470 9.55526E-05-2.85669E-05-2.87076E-05 3.93455E-07 2.59419E-18 1.31011E-18
 -1      2471 9.56452E-05-2.85775E-05-2.87393E-05 4.69984E-07 2.56984E-18 1.31195E-18
 -1      2472 9.56372E-05-2.85158E-05-2.87679E-05 6.23639E-07 2.04744E-18 9.02862E-19
 -1      2473 9.54307E-05-2.85581E-05-2.86592E-05 2.59350E-07 5.66909E-19 2.31652E-18
 -1      2474 9.54943E-05-2.85643E-05-2.86814E-05 3.14966E-07 2.40566E-18 1.98609E-18
 -1      2475 9.55009E-05-2.85231E-05-2.87061E-05 4.25228E-07 2.25457E-18 2.77197E-18
 -1      2476 9.53473E-05-2.85537E-05-2.86255E-05 1.62481E-07-1.00639E-18 2.17918E-18
 -1      2477 9.53895E-05-2.85567E-05-2.86405E-05 2.02461E-07-9.56937E-19 2.20644E-18
 -1      2478 9.54035E-05-2.85297E-05-2.86613E-05 2.80042E-07-2.04250E-19 2.64302E-18
 -1      2479 9.52926E-05-2.85525E-05-2.86026E-05 9.34554E-08-1.22407E-18 1.06285E-18
 -1      2480 9.53192E-05-2.85533E-05-2.86125E-05 1.21780E-07-1.06142E-18 2.09398E-18
 -1      2481 9.53359E-05-2.85360E-05-2.86294E-05 1.74992E-07-1.02226E-18 1.80471E-18
 -1      2482 9.52588E-05-2.85536E-05-2.85877E-05 4.52142E-08-7.00981E-19 6.06074E-19
 -1      2483 9.52742E-05-2.85528E-05-2.85938E-05 6.48558E-08-8.02854E-19 1.51261E-18
 -1      2484 9.52908E-05-2.85421E-05-2.86072E-05 1.00098E-07-1.32151E-18 1.73527E-18
 -1      2485 9.52399E-05-2.85563E-05-2.85785E-05 1.25199E-08-7.95822E-19 3.54913E-19
 -1      2486 9.52475E-05-2.85545E-05-2.85820E-05 2.56609E-08-1.30607E-18-2.86180E-21
 -1      2487 9.52622E-05-2.85481E-05-2.85922E-05 4.78341E-08-8.12281E-19 1.71833E-18
 -1      2488 9.52313E-05-2.85602E-05-2.85732E-05-8.35191E-09-1.42190E-18-4.27404E-19
 -1      2489 9.52336E-05-2.85577E-05-2.85749E-05-2.03099E-10-9.10308E-19-1.73255E-19
 -1      2490 9.52456E-05-2.85541E-05-2.85824E-05 1.26020E-08-8.38851E-19-3.42389E-19
 -1      2491 9.52294E-05-2.85650E-05-2.85704E-05-1.99161E-08-1.17433E-19-1.60090E-18
 -1      2492 9.52285E-05-2.85619E-05-2.85711E-05-1.58086E-08-1.36967E-18-8.21655E-19
 -1      2493 9.52373E-05-2.85600E-05-2.85762E-05-9.56798E-09-1.45467E-18-1.64113E-18
 -1      2494 9.52317E-05-2.85708E-05-2.85690E-05-2.35222E-08 4.32090E-19-1.71389E-18
 -1      2495 9.52289E-05-2.85673E-05-2.85691E-05-2.30274E-08-2.14460E-19-2.41416E-18
 -1      2496 9.52347E-05-2.85667E-05-2.85722E-05-2.14272E-08 5.14944E-19-3.42842E-18
 -1      2497 9.52334E-05-2.85743E-05-2.85681E-05-2.27017E-08 5.48427E-19-6.36868E-19
 -1      2498 9.52422E-05-2.85695E-05-2.85741E-05-4.70742E-09 1.60099E-18 1.90322E-19
 -1      2499 9.52431E-05-2.85702E-05-2.85740E-05-7.46154E-09 5.21775E-19-1.18152E-18
 -1      2500 9.52391E-05-2.85650E-05-2.85747E-05-5.96347E-10 2.76738E-18-5.81205E-19
 -1      2501 9.52403E-05-2.85660E-05-2.85746E-05-2.45491E-09 2.68669E-18 3.09010E-20
 -1      2502 9.52384E-05-2.85533E-05-2.85793E-05-1.39641E-09 1.64983E-18 9.63705E-19
 -1      2503 9.52447E-05-2.85764E-05-2.85721E-05-1.76159E-08-1.16451E-18 8.24574E-19
 -1      2504 9.52431E-05-2.85756E-05-2.85718E-05-2.02296E-08-1.06104E-18-1.54507E-18
 -1      2505 9.52446E-05-2.85737E-05-2.85733E-05-1.08193E-08-1.15916E-18-7.10095E-19
 -1      2506 9.52446E-05-2.85738E-05-2.85731E-05-1.39649E-08-1.38603E-18 1.75860E-18
 -1      2507 9.52439E-05-2.85666E-05-2.85760E-05-1.42875E-08-6.86875E-19 3.58580E-19
 -1      2508 9.52423E-05-2.85603E-05-2.85780E-05-6.96920E-09-1.28934E-19 5.86923E-19
 -1      2509 9.24979E-05-5.33251E-05-1.68368E-05 3.95800E-05 9.36607E-19-1.00707E-18
 -1      2510 7.59675E-05-4.64495E-05-1.23713E-05 3.87853E-05 7.49624E-20-1.25996E-19
 -1      2511 9.52366E-05-2.85617E-05-2.85750E-05 1.44160E-09 1.40171E-19 1.57946E-19
 -1      2512 9.52375E-05-2.85625E-05-2.85749E-05 4.21839E-10 1.66423E-18-4.43736E-19
 -1      2513 9.52343E-05-2.85471E-05-2.85801E-05 1.59145E-09 2.35499E-18-9.19358E-19
 -1      2514 9.52356E-05-2.85603E-05-2.85751E-05 2.18911E-09-1.34711E-18 5.82170E-19
 -1      2515 9.52358E-05-2.85606E-05-2.85751E-05 1.60362E-09-1.03498E-18-1.07962E-20
 -1      2516 9.52315E-05-2.85434E-05-2.85804E-05 2.30474E-09 2.56734E-19-8.99527E-19
 -1      2517 9.52363E-05-2.85612E-05-2.85750E-05 2.85964E-09-1.61670E-18 1.29650E-18
 -1      2518 9.52359E-05-2.85609E-05-2.85750E-05 2.15932E-09-1.52191E-18 1.43702E-18
 -1      2519 9.52309E-05-2.85429E-05-2.85804E-05 1.88997E-09-7.28644E-19 1.11030E-18
 -1      2520 9.52383E-05-2.85638E-05-2.85747E-05 4.57410E-09-5.62326E-19-8.85550E-19
 -1      2521 9.52375E-05-2.85632E-05-2.85748E-05 3.33077E-09-1.16065E-18 1.13322E-19
 -1      2522 9.52326E-05-2.85456E-05-2.85800E-05 1.82951E-09-1.70923E-18 9.61166E-19
 -1      2523 9.52408E-05-2.85676E-05-2.85742E-05 8.04639E-09 2.53013E-18-1.11291E-18
 -1      2524 9.52400E-05-2.85669E-05-2.85743E-05 6.03344E-09 1.95608E-18-1.99272E-18
 -1      2525 9.52359E-05-2.85509E-05-2.85792E-05 3.40619E-09 7.20138E-19 5.48882E-19
 -1      2526 9.52425E-05-2.85712E-05-2.85733E-05 1.30211E-08 1.99405E-18 6.76461E-19
 -1      2527 9.52424E-05-2.85710E-05-2.85735E-05 1.05089E-08 2.54837E-18-1.93263E-20
 -1      2528 9.52395E-05-2.85575E-05-2.85779E-05 7.29156E-09 2.25785E-18-6.60045E-19
 -1      2529 9.52416E-05-2.85733E-05-2.85721E-05 1.80323E-08-2.40874E-19-4.78762E-19
 -1      2530 9.52429E-05-2.85740E-05-2.85724E-05 1.59696E-08 9.66769E-19 5.11959E-19
 -1      2531 9.52417E-05-2.85641E-05-2.85762E-05 1.27444E-08 1.59247E-18 1.08925E-21
 -1      2532 9.52377E-05-2.85759E-05-2.85692E-05 2.11020E-08 4.14714E-19-3.18842E-19
 -1      2533 1.30461E-04-6.37007E-05-2.88975E-05 2.59727E-05 1.57103E-18-1.44250E-18
 -1      2534 1.09805E-04-5.96657E-05-2.15002E-05 3.28091E-05 1.46410E-18-1.16838E-18
 -1      2535 9.52969E-05-2.75992E-05-2.89883E-05-1.42523E-06 1.34873E-19 1.30020E-18
 -1      2536 9.52636E-05-2.74266E-05-2.90281E-05-6.62117E-07 1.48466E-19 1.31749E-18
 -1      2537 9.56375E-05-2.73175E-05-2.92976E-05-1.89604E-06 2.24465E-19 8.65271E-19
 -1      2538 2.17975E-05-2.12427E-05-8.60331E-08 1.49837E-05 1.28421E-18 4.16317E-19
 -1      2539 1.71124E-05-1.85969E-05 8.23295E-07 1.91289E-06 1.57304E-18-1.73218E-19
 -1      2540 1.87876E-05-1.85283E-05 1.72919E-07-1.16852E-05 2.06941E-18 2.04135E-19
 -1      2541 2.65744E-05-2.08287E-05-2.21685E-06-2.69441E-05 1.58512E-18 2.28064E-19
 -1      2542 1.56167E-04-5.99495E-05-4.16589E-05 3.49983E-06 9.00131E-19 4.27540E-19
 -1      2543 1.45612E-04-6.33304E-05-3.53280E-05 1.07320E-05 1.15334E-18-3.82859E-19
 -1      2544 7.39627E-05-4.44561E-05-1.24215E-05-4.53720E-05 1.33365E-18 9.43489E-19
 -1      2545 9.41120E-05-5.07927E-05-1.86145E-05-4.53292E-05 1.85754E-18 1.30664E-18
 -1      2546 1.07350E-04-5.44952E-05-2.26440E-05 4.12538E-05 1.47595E-19 2.96197E-19
 -1      2547 8.74957E-05-4.94103E-05-1.60758E-05 4.47216E-05 2.09005E-19-1.26817E-19
 -1      2548 1.10646E-04-5.94559E-05-2.19034E-05-3.33035E-05-6.20663E-19-5.32651E-19
 -1      2549 1.29654E-04-6.33876E-05-2.84912E-05-2.66183E-05-4.09964E-19-4.44904E-19
 -1      2550 1.58721E-04-5.32749E-05-4.53081E-05 4.35279E-06 3.22402E-20 5.17114E-19
 -1      2551 1.64175E-04-4.43956E-05-5.17784E-05 9.65661E-06-6.18122E-19 1.65171E-19
 -1      2552 8.70392E-05-9.90023E-06-3.30954E-05-1.21018E-06 1.00449E-18-6.37631E-19
 -1      2553 8.72129E-05-1.00711E-05-3.30920E-05-2.20146E-06 9.77038E-19-7.33583E-19
 -1      2554 8.85440E-05-1.21329E-05-3.27472E-05-2.36680E-06 9.05533E-19-7.03444E-19
 -1      2555 8.81331E-05-1.16550E-05-3.27763E-05-6.77308E-07 9.44752E-19-5.42756E-19
 -1      2556 1.57959E-04-1.99421E-05-5.93705E-05 5.33136E-06-4.05729E-19 9.53971E-20
 -1      2557 1.54640E-04-1.80058E-05-5.89880E-05-2.18762E-06 6.51368E-19 3.14937E-19
 -1      2558 6.07980E-05-3.83138E-05-9.28335E-06-3.70133E-05-3.82647E-19-9.29830E-19
 -1      2559 8.53692E-05-4.91306E-05-1.55049E-05-3.99215E-05-6.53062E-19-5.54807E-19
 -1      2560 1.63750E-04-4.14868E-05-5.28368E-05-1.19672E-05 1.49353E-18 6.78473E-19
 -1      2561 1.59625E-04-5.08175E-05-4.69042E-05-7.45652E-06 1.50084E-18 4.98902E-19
 -1      2562 1.54494E-04-2.37670E-05-5.67648E-05-1.18701E-05 1.84653E-18 4.04564E-19
 -1      2563 1.58110E-04-3.09445E-05-5.48223E-05-1.52524E-05 1.67713E-18 5.52689E-19
 -1      2564 1.41977E-04-6.37244E-05-3.36667E-05-1.49393E-05-2.46698E-19-4.38340E-20
 -1      2565 1.53282E-04-6.18637E-05-3.95951E-05-7.55999E-06-1.04820E-19 3.83071E-19
 -1      2566 3.25663E-05-2.50252E-05-3.01752E-06 3.28130E-05 6.70850E-19 1.57506E-18
 -1      2567 2.34556E-05-1.95318E-05-1.29040E-06 2.02989E-05 5.68677E-19 9.62229E-19
 -1      2568 2.93724E-05-2.32388E-05-2.28412E-06-2.11626E-05-1.30231E-19-8.30939E-19
 -1      2569 3.99783E-05-2.80399E-05-5.00248E-06-3.13894E-05-1.33196E-19-6.34428E-19
 -1      2570 1.11890E-04-5.50283E-05-2.43191E-05-3.68454E-05 1.80185E-18 6.99332E-19
 -1      2571 1.26062E-04-5.55538E-05-3.04149E-05-3.20602E-05 1.35843E-18-8.17810E-19
 -1      2572 1.86173E-05-1.67141E-05-4.87400E-07 5.05743E-06 5.53271E-19 1.81265E-19
 -1      2573 2.15717E-05-1.84458E-05-1.00275E-06-1.04476E-05 1.99900E-19-3.36272E-19
 -1      2574 6.45016E-05-3.88013E-05-1.08799E-05 4.53288E-05 3.16367E-19-3.07049E-21
 -1      2575 4.66250E-05-3.22993E-05-5.88736E-06 3.93642E-05 3.76506E-19 7.05578E-19
 -1      2576 4.73736E-05-2.63496E-05-8.43712E-06 3.61737E-05 6.82709E-19 6.32522E-19
 -1      2577 1.33230E-04-5.54691E-05-3.35134E-05 2.65459E-05-7.10131E-19 1.49544E-18
 -1      2578 1.22182E-04-5.65277E-05-2.81184E-05 3.15139E-05-1.39972E-19 8.95526E-19
 -1      2579 1.48263E-04-4.41585E-05-4.49674E-05 8.33044E-06-2.66445E-19 8.72020E-19
 -1      2580 1.40566E-04-5.04325E-05-3.87760E-05 1.61345E-05-5.64389E-19 1.19432E-18
 -1      2581 1.38690E-04-5.53603E-05-3.56493E-05 1.46436E-05-6.89167E-19 1.02364E-18
 -1      2582 1.50829E-04-2.77069E-05-5.31779E-05-1.68526E-06-1.48315E-18 9.48465E-19
 -1      2583 1.48501E-04-3.41877E-05-4.92908E-05 3.04349E-07-8.41210E-19 7.57883E-19
 -1      2584 1.46460E-04-1.22719E-05-5.80941E-05-3.82433E-06-8.70750E-19-3.81377E-19
 -1      2585 1.48881E-04-1.86402E-05-5.61191E-05-3.56172E-06-1.32772E-18 3.97682E-19
 -1      2586 1.40917E-04-2.14953E-05-5.13417E-05-8.32965E-06-9.73876E-19 5.85829E-19
 -1      2587 1.44031E-04-8.80565E-06-5.84626E-05 1.70942E-06-8.90232E-19-5.26802E-19
 -1      2588 1.44729E-04-8.82589E-06-5.87080E-05-1.02399E-06-7.12778E-19-3.09802E-19
 -1      2589 1.42735E-04-2.06946E-05-5.27566E-05 6.04670E-06 3.33096E-19-1.30041E-18
 -1      2590 1.45095E-04-1.32348E-05-5.69020E-05 4.45564E-06-4.53163E-19-1.17663E-18
 -1      2591 1.45603E-04-4.08774E-05-4.51297E-05-5.59475E-07 1.06938E-18-3.15096E-19
 -1      2592 1.44460E-04-3.33374E-05-4.82916E-05 4.26290E-06 1.99688E-19-1.19474E-18
 -1      2593 1.36489E-04-5.30503E-05-3.57833E-05-2.02704E-05 1.23053E-18-8.11881E-19
 -1      2594 1.44562E-04-4.84312E-05-4.16859E-05-1.00737E-05 1.52977E-18 4.99749E-20
 -1      2595 1.33712E-04-5.70428E-05-3.27017E-05-2.03489E-05 9.55983E-19-3.45589E-19
 -1      2596 4.09571E-05-2.89938E-05-4.72218E-06-3.74655E-05 5.74500E-19-1.16700E-18
 -1      2597 5.42683E-05-3.49560E-05-8.14110E-06-4.46296E-05 1.25551E-18-4.07423E-19
 -1      2598 9.54686E-05-2.00895E-05-3.23506E-05-1.09215E-05 1.09704E-19-1.74936E-18
 -1      2599 9.59700E-05-2.34277E-05-3.11123E-05-7.08852E-06 2.98116E-20-1.67889E-18
 -1      2600 9.55108E-05-2.25422E-05-3.12522E-05-6.63677E-06 1.46227E-19-1.43785E-18
 -1      2601 9.35559E-05-1.76303E-05-3.25580E-05-1.05139E-05 1.67565E-19-1.63827E-18
 -1      2602 9.69298E-05-2.52007E-05-3.07604E-05 6.76762E-06 3.31891E-19 1.91185E-18
 -1      2603 9.79156E-05-2.38809E-05-3.17484E-05 9.91792E-06 3.45034E-19 2.09544E-18
 -1      2604 9.63537E-05-2.13936E-05-3.21813E-05 1.10405E-05 4.50330E-19 1.83976E-18
 -1      2605 9.64553E-05-2.41861E-05-3.10068E-05 6.64811E-06 2.96184E-19 1.46874E-18
 -1      2606 5.16932E-05-3.46478E-05-7.26686E-06 3.64534E-05 6.62803E-20 7.08755E-19
 -1      2607 3.35584E-05-2.73287E-05-2.46569E-06 2.56183E-05 9.93146E-19 3.70365E-19
 -1      2608 1.44000E-04-2.17047E-05-5.27845E-05-8.89840E-06 1.35949E-18 8.37398E-19
 -1      2609 9.05604E-05-1.45360E-05-3.25725E-05-5.85573E-06 6.36497E-19-1.19313E-18
 -1      2610 8.96026E-05-1.28411E-05-3.29515E-05-7.06670E-06 6.29327E-19-1.36439E-18
 -1      2611 9.03683E-05-1.36518E-05-3.29368E-05-8.25941E-06 5.10049E-19-1.51344E-18
 -1      2612 9.57497E-05-2.68338E-05-2.95518E-05 1.63065E-07 2.48157E-19 1.04251E-18
 -1      2613 9.46712E-05-1.91080E-05-3.24291E-05 1.06789E-05 6.16647E-19 1.49644E-18
 -1      2614 6.90868E-05-3.91836E-05-1.23319E-05 3.66736E-05-8.21622E-20-8.91502E-20
 -1      2615 1.08042E-04-5.51734E-05-2.23948E-05-3.86574E-05 1.40163E-18 6.06634E-19
 -1      2616 3.15089E-05-1.74282E-05-5.42119E-06-1.50897E-05 5.12349E-19-3.67401E-19
 -1      2617 1.48731E-04-2.25731E-05-5.42577E-05 1.05444E-05-6.92026E-19 1.85288E-21
 -1      2618 1.18743E-04-5.81957E-05-2.57466E-05 3.29349E-05-9.55030E-20 5.91335E-19
 -1      2619 1.39185E-04-6.54378E-05-3.14101E-05-1.46674E-05-3.56389E-19-1.31290E-19
 -1      2620 1.08993E-04-5.78139E-05-2.16145E-05 3.25366E-05 3.27590E-19-1.42746E-18
 -1      2621 1.33961E-04-2.12770E-05-4.89770E-05-3.08206E-06 9.93993E-19 1.37904E-18
 -1      2622 1.46725E-04-3.80295E-05-4.69920E-05-2.16207E-05 1.87448E-18 1.87851E-18
 -1      2623 1.42382E-04-4.67687E-05-4.11636E-05 1.99043E-05-2.64804E-19 9.66120E-19
 -1      2624 1.43675E-04-5.24167E-05-3.93055E-05 1.57059E-05-5.04779E-20 1.14784E-18
 -1      2625 1.34121E-04-2.21526E-05-4.86851E-05 8.01990E-06-3.18273E-19 1.90707E-18
 -1      2626 1.43172E-04-5.70471E-05-3.71304E-05 7.79617E-06 1.14746E-19 3.45537E-19
 -1      2627 1.45734E-04-5.38270E-05-3.96010E-05-1.47747E-05 1.20014E-18 1.82414E-18
 -1      2628 9.52366E-05-2.85747E-05-2.85694E-05-2.42750E-08-1.12547E-19-1.60536E-18
 -1      2629 9.52417E-05-2.85762E-05-2.85710E-05-2.23633E-08-7.49567E-19-5.20259E-18
 -1      2630 9.52394E-05-2.85751E-05-2.85704E-05-2.29903E-08-1.04414E-19-3.92621E-18
 -1      2631 9.52379E-05-2.85701E-05-2.85718E-05-2.34244E-08 5.35124E-19-3.70392E-18
 -1      2632 9.52423E-05-2.85697E-05-2.85740E-05-2.02089E-08 4.54135E-20-2.86054E-18
 -1      2633 9.52361E-05-2.85707E-05-2.85709E-05 2.04402E-08 1.13094E-18 8.09866E-19
 -1      2634 9.52403E-05-2.85739E-05-2.85714E-05 2.03464E-08 3.16719E-19-4.46414E-19
 -1      2635 9.52406E-05-2.85671E-05-2.85742E-05 1.74616E-08 3.92471E-20 9.93363E-19
 -1      2636 9.52351E-05-2.85673E-05-2.85717E-05 1.96241E-08 1.71209E-19 6.60414E-19
 -1      2637 1.40147E-04-6.49250E-05-3.20570E-05 1.37218E-05 1.19315E-18-5.21561E-19
 -1      2638 9.50843E-05-2.05094E-05-3.19173E-05 8.62688E-06 5.42535E-19 1.27891E-18
 -1      2639 3.51874E-05-2.09824E-05-5.51625E-06 2.12330E-05 6.76673E-19 4.68833E-19
 -1      2640 1.55434E-04-5.84829E-05-4.14779E-05 5.39010E-06-9.91426E-20 4.90220E-19
 -1      2641 3.88166E-05-2.22557E-05-6.50867E-06-3.12595E-05 9.02302E-19 1.99900E-19
 -1      2642 1.02373E-04-5.50462E-05-1.99270E-05-3.53275E-05-6.51580E-19-5.78603E-19
 -1      2643 1.16197E-04-5.92558E-05-2.47684E-05-2.83703E-05-3.38707E-19-1.14795E-18
 -1      2644 9.29456E-05-4.73699E-05-1.90211E-05-3.57435E-05-2.30816E-19-4.32834E-19
 -1      2645 9.22954E-05-1.61629E-05-3.26706E-05-9.47962E-06 3.10687E-19-1.59267E-18
 -1      2646 1.41668E-04-4.64462E-05-4.08887E-05-1.76940E-06 1.22359E-18 4.79632E-20
 -1      2647 1.39696E-04-2.66451E-05-4.88769E-05 8.48202E-06 1.33408E-19-1.45478E-18
 -1      2648 1.30890E-04-1.95589E-05-4.83802E-05 1.14848E-05-1.03762E-19-1.76808E-18
 -1      2649 1.35236E-04-3.15394E-05-4.46744E-05 9.78955E-06-1.23561E-19-1.83192E-18
 -1      2650 1.35909E-04-9.04849E-06-5.46378E-05-3.73297E-06-9.00820E-19-7.30195E-19
 -1      2651 1.44662E-04-4.06683E-05-4.46832E-05-1.11918E-06-5.08908E-19 7.19766E-19
 -1      2652 8.10287E-05-4.52424E-05-1.49530E-05 4.44626E-05 2.47757E-19-4.89903E-19
 -1      2653 7.51189E-05-3.89833E-05-1.49183E-05 4.28323E-05 3.06308E-19-1.62736E-19
 -1      2654 9.54267E-05-5.02757E-05-1.95500E-05 4.12318E-05 8.08916E-20-7.10978E-20
 -1      2655 2.79681E-05-1.53272E-05-4.81578E-06 1.28216E-05 7.59259E-19 6.55815E-19
 -1      2656 7.15956E-05-4.05178E-05-1.29308E-05-4.43800E-05 1.13545E-18 6.38239E-19
 -1      2657 1.55555E-04-5.57089E-05-4.27773E-05-1.01129E-05 1.29713E-18 1.46240E-18
 -1      2658 2.48665E-05-1.45468E-05-3.83492E-06-5.18637E-06 1.51042E-18-1.61360E-19
 -1      2659 9.52391E-05-2.85647E-05-2.85749E-05 1.61371E-08-1.42560E-19 1.09042E-18
 -1      2660 1.56242E-04-3.94793E-05-5.01097E-05 1.75762E-05-1.06705E-18-1.28114E-19
 -1      2661 5.84053E-05-3.21869E-05-1.06449E-05-3.39577E-05 1.86347E-20-6.89908E-19
 -1      2662 1.34252E-04-9.75364E-06-5.37408E-05 5.00678E-06-3.21237E-19-1.54811E-18
 -1      2663 1.38513E-04-2.67228E-05-4.84044E-05 1.63694E-05-1.37579E-18 1.22132E-18
 -1      2664 8.95085E-05-1.38865E-05-3.24315E-05 2.64967E-06 9.25227E-19-2.49388E-19
 -1      2665 8.92307E-05-1.35629E-05-3.24505E-05 1.88871E-06 9.53236E-19-2.57817E-19
 -1      2666 8.90461E-05-1.33370E-05-3.24675E-05 1.26742E-06 9.92681E-19-2.80596E-19
 -1      2667 8.89678E-05-1.32447E-05-3.24717E-05 4.91262E-07 9.57523E-19-3.48395E-19
 -1      2668 9.00824E-05-1.50307E-05-3.21479E-05 1.36720E-06 8.64657E-19-2.89005E-19
 -1      2669 9.17736E-05-1.67513E-05-3.21873E-05 5.33084E-06 8.94245E-19 4.04362E-19
 -1      2670 9.10475E-05-1.58180E-05-3.22677E-05 4.59091E-06 9.72560E-19 2.41570E-19
 -1      2671 9.36212E-05-1.93173E-05-3.18842E-05 6.35122E-06 6.80717E-19 7.74759E-19
 -1      2672 9.26295E-05-1.79122E-05-3.20433E-05 5.79787E-06 7.97316E-19 6.22970E-19
 -1      2673 9.30927E-05-1.90085E-05-3.17253E-05 4.42202E-06 7.29424E-19 4.70871E-19
 -1      2674 9.58277E-05-2.51633E-05-3.02892E-05 2.47385E-06 3.81727E-19 8.96166E-19
 -1      2675 9.60481E-05-2.43620E-05-3.06909E-05 4.28592E-06 3.41457E-19 1.08795E-18
 -1      2676 4.53398E-05-2.05594E-05-1.02803E-05 2.57851E-05 8.18446E-20 5.83817E-19
 -1      2677 3.50565E-05-1.44910E-05-8.21708E-06 1.41504E-05 4.45857E-19 3.00697E-19
 -1      2678 9.57635E-05-2.62992E-05-2.97666E-05-2.05978E-07 2.52295E-19 7.52893E-19
 -1      2679 9.58786E-05-2.58576E-05-2.99743E-05 1.05882E-06 3.18943E-19 8.62949E-19
 -1      2680 9.56149E-05-2.45167E-05-3.04713E-05 2.08350E-06 3.73802E-19 5.70156E-19
 -1      2681 9.51213E-05-2.17598E-05-3.14442E-05 6.68590E-06 4.85198E-19 1.14617E-18
 -1      2682 9.58730E-05-2.57127E-05-3.00401E-05-1.21697E-06 4.09415E-20-1.04884E-18
 -1      2683 9.58274E-05-2.63098E-05-2.98014E-05-9.35608E-08 3.04535E-20-1.09598E-18
 -1      2684 9.59258E-05-2.68301E-05-2.95891E-05 8.18685E-07-4.94883E-20-9.86562E-19
 -1      2685 9.59501E-05-2.72300E-05-2.94544E-05 1.57545E-06-6.04367E-20-9.65093E-19
 -1      2686 9.58140E-05-2.59783E-05-2.99379E-05 2.20397E-07-4.15282E-20-9.34522E-19
 -1      2687 9.60375E-05-2.75843E-05-2.93200E-05 2.22201E-06-1.55399E-20-8.81225E-19
 -1      2688 9.61653E-05-2.79032E-05-2.92556E-05 2.71687E-06 4.93951E-20-7.85218E-19
 -1      2689 9.60094E-05-2.70274E-05-2.95743E-05 1.86418E-06-3.77111E-20-7.37164E-19
 -1      2690 9.63064E-05-2.81981E-05-2.91761E-05 3.15425E-06 2.43098E-21-6.89473E-19
 -1      2691 9.65394E-05-2.85058E-05-2.91574E-05 3.44548E-06 1.78253E-19-7.45542E-19
 -1      2692 9.62500E-05-2.78124E-05-2.93416E-05 3.01997E-06 4.28869E-20-6.32978E-19
 -1      2693 9.67743E-05-2.88122E-05-2.91149E-05 3.70367E-06 1.80874E-19-8.68147E-19
 -1      2694 9.71071E-05-2.91559E-05-2.91238E-05 3.81133E-06-2.17869E-21-8.79199E-19
 -1      2695 9.66362E-05-2.85295E-05-2.92002E-05 3.77692E-06 2.11690E-20-6.38170E-19
 -1      2696 9.74677E-05-2.95256E-05-2.91057E-05 3.89060E-06-2.29226E-19-1.05584E-18
 -1      2697 9.78919E-05-2.99365E-05-2.91291E-05 3.80452E-06-4.01871E-19-1.28661E-18
 -1      2698 9.72390E-05-2.93197E-05-2.91208E-05 4.16977E-06-7.11511E-20-9.27154E-19
 -1      2699 9.84040E-05-3.04038E-05-2.91284E-05 3.67706E-06-5.21535E-19-1.13566E-18
 -1      2700 9.89038E-05-3.08923E-05-2.91582E-05 3.36607E-06-6.17646E-19-8.94023E-19
 -1      2701 9.81172E-05-3.02848E-05-2.90849E-05 4.17485E-06-3.15924E-19-6.63887E-19
 -1      2702 9.95789E-05-3.14642E-05-2.91747E-05 2.98190E-06-6.75474E-19-6.07299E-19
 -1      2703 1.00120E-04-3.20060E-05-2.92085E-05 2.40776E-06-3.65347E-19-4.89656E-19
 -1      2704 9.93110E-05-3.14761E-05-2.90871E-05 3.71586E-06-3.96884E-19-3.72680E-19
 -1      2705 1.00936E-04-3.26419E-05-2.92500E-05 1.70896E-06-2.28463E-19-4.28337E-19
 -1      2706 1.01452E-04-3.31569E-05-2.92921E-05 8.49706E-07-1.26490E-19-4.16863E-19
 -1      2707 1.00814E-04-3.28595E-05-2.91378E-05 2.68111E-06-2.38785E-19-1.51922E-19
 -1      2708 1.02322E-04-3.37425E-05-2.93749E-05-1.99074E-07-1.41531E-19-4.69069E-19
 -1      2709 1.02704E-04-3.40782E-05-2.94367E-05-1.31163E-06-4.18950E-20-3.05269E-19
 -1      2710 1.02523E-04-3.42606E-05-2.92650E-05 9.64174E-07-1.63816E-19-6.70622E-20
 -1      2711 1.03454E-04-3.44099E-05-2.95833E-05-2.66671E-06 3.04727E-19-2.89482E-19
 -1      2712 1.03556E-04-3.43508E-05-2.96801E-05-3.89839E-06 3.81381E-19-5.19505E-19
 -1      2713 1.04179E-04-3.53106E-05-2.95137E-05-1.45207E-06 1.76595E-19 1.74150E-19
 -1      2714 1.03931E-04-3.41646E-05-2.99111E-05-5.36388E-06 1.90419E-19-2.90814E-19
 -1      2715 1.03619E-04-3.34977E-05-3.00552E-05-6.43913E-06 1.64228E-19-4.49429E-19
 -1      2716 1.05349E-04-3.54613E-05-2.99334E-05-4.35750E-06 2.42579E-19-3.56795E-19
 -1      2717 1.03360E-04-3.25722E-05-3.03738E-05-7.59459E-06 9.65493E-20-6.91731E-19
 -1      2718 1.02610E-04-3.12467E-05-3.05604E-05-8.10238E-06-5.31054E-20-6.10509E-19
 -1      2719 1.05493E-04-3.41157E-05-3.05543E-05-7.16045E-06-2.25097E-20-3.34073E-19
 -1      2720 1.01686E-04-2.96465E-05-3.09277E-05-8.37299E-06-1.16546E-19-7.94189E-19
 -1      2721 1.00686E-04-2.79443E-05-3.11257E-05-7.92507E-06-2.42689E-19-6.83522E-19
 -1      2722 1.04290E-04-3.10879E-05-3.13364E-05-8.80574E-06-1.84821E-19-2.23902E-19
 -1      2723 9.94448E-05-2.61541E-05-3.14608E-05-6.85844E-06-5.37630E-20-4.88352E-19
 -1      2724 9.85979E-05-2.47141E-05-3.16153E-05-5.33173E-06-9.10395E-20-6.47189E-19
 -1      2725 1.02039E-04-2.70025E-05-3.21434E-05-8.14886E-06 5.64609E-20 8.41334E-20
 -1      2726 9.77397E-05-2.35524E-05-3.18129E-05-3.03990E-06-2.99570E-19-5.85592E-19
 -1      2727 9.74383E-05-2.30355E-05-3.18683E-05-8.05451E-07-5.37469E-20-4.79699E-19
 -1      2728 9.98536E-05-2.34708E-05-3.27583E-05-4.70518E-06 1.34361E-19-4.93865E-19
 -1      2729 9.75408E-05-2.31524E-05-3.18511E-05 1.96039E-06 2.09804E-19-9.51225E-20
 -1      2730 9.79704E-05-2.38496E-05-3.17864E-05 4.12179E-06 1.45238E-19-1.46379E-19
 -1      2731 9.90406E-05-2.21868E-05-3.29655E-05 6.49904E-07-5.21736E-20-1.73394E-19
 -1      2732 9.89411E-05-2.51541E-05-3.15702E-05 6.26139E-06 5.45939E-22-6.33106E-19
 -1      2733 9.98710E-05-2.66846E-05-3.14165E-05 7.63234E-06 2.25452E-19-3.44680E-19
 -1      2734 1.00169E-04-2.39178E-05-3.26927E-05 5.79705E-06-2.40352E-19-1.46768E-19
 -1      2735 1.01096E-04-2.84729E-05-3.10789E-05 8.48197E-06 7.13195E-21-7.51402E-19
 -1      2736 1.02098E-04-3.01348E-05-3.08917E-05 8.78211E-06-1.96714E-19-1.22307E-18
 -1      2737 1.02461E-04-2.76323E-05-3.20506E-05 8.82712E-06-1.63245E-19-9.14461E-19
 -1      2738 1.02923E-04-3.16243E-05-3.05380E-05 8.36279E-06 1.24712E-19-9.94401E-19
 -1      2739 1.03632E-04-3.28365E-05-3.03710E-05 7.77336E-06-1.81210E-19-9.82088E-19
 -1      2740 1.04584E-04-3.15698E-05-3.12530E-05 9.09798E-06 1.37749E-19-1.16613E-18
 -1      2741 1.03771E-04-3.36113E-05-3.00770E-05 6.58223E-06-4.45460E-19-9.76785E-19
 -1      2742 1.04040E-04-3.41598E-05-2.99557E-05 5.51241E-06-1.65891E-21-4.29967E-19
 -1      2743 1.05559E-04-3.42920E-05-3.05114E-05 7.26709E-06-4.16904E-19-2.53088E-19
 -1      2744 1.03588E-04-3.42295E-05-2.97484E-05 4.10715E-06 3.91233E-19-2.12557E-19
 -1      2745 1.03468E-04-3.42078E-05-2.96726E-05 2.94440E-06 8.60239E-20 1.01081E-19
 -1      2746 1.05214E-04-3.53128E-05-2.99423E-05 4.50853E-06 2.66407E-19 2.08754E-19
 -1      2747 1.02685E-04-3.38084E-05-2.95452E-05 1.69903E-06 8.74975E-20 1.14548E-19
 -1      2748 1.02315E-04-3.34369E-05-2.95013E-05 6.90348E-07 8.56422E-19 3.26215E-19
 -1      2749 1.03937E-04-3.49502E-05-2.95668E-05 1.78561E-06 3.87337E-19 7.26869E-19
 -1      2750 1.01447E-04-3.28294E-05-2.94302E-05-2.32474E-07 6.53859E-19 2.57955E-19
 -1      2751 1.00967E-04-3.23183E-05-2.94016E-05-9.79166E-07 3.08344E-19 4.40835E-19
 -1      2752 1.02253E-04-3.37976E-05-2.93484E-05-3.86448E-07 9.90721E-19 9.67219E-19
 -1      2753 1.00170E-04-3.16947E-05-2.93629E-05-1.56233E-06 4.91773E-19 1.99204E-19
 -1      2754 9.96786E-05-3.11871E-05-2.93370E-05-2.03658E-06 6.05672E-19 4.96591E-19
 -1      2755 1.00570E-04-3.23906E-05-2.92330E-05-1.86037E-06 4.48624E-19 1.35863E-18
 -1      2756 9.90242E-05-3.06519E-05-2.93126E-05-2.33384E-06 6.82608E-20 5.82565E-19
 -1      2757 9.85765E-05-3.02214E-05-2.92826E-05-2.57564E-06-7.18286E-20 5.88879E-19
 -1      2758 9.91115E-05-3.10720E-05-2.91726E-05-2.69762E-06 2.71591E-19 1.46864E-18
 -1      2759 9.80767E-05-2.98125E-05-2.92612E-05-2.66181E-06 5.25888E-19 1.09813E-18
 -1      2760 9.76949E-05-2.94833E-05-2.92251E-05-2.72900E-06 7.06165E-19 2.03385E-18
 -1      2761 9.79567E-05-3.00027E-05-2.91337E-05-3.03948E-06 4.50453E-19 1.38493E-18
 -1      2762 9.73324E-05-2.91985E-05-2.92016E-05-2.67511E-06-2.52209E-20 1.99816E-18
 -1      2763 9.70196E-05-2.89665E-05-2.91604E-05-2.62484E-06 5.30677E-20 1.35976E-18
 -1      2764 9.70964E-05-2.92213E-05-2.90974E-05-3.03646E-06 2.78718E-19 1.58420E-18
 -1      2765 9.67663E-05-2.87856E-05-2.91335E-05-2.48863E-06 4.06483E-20 7.01300E-19
 -1      2766 9.65165E-05-2.86342E-05-2.90896E-05-2.36882E-06-2.47320E-19 6.75630E-19
 -1      2767 9.64833E-05-2.87006E-05-2.90556E-05-2.81788E-06-2.07874E-19 8.29830E-19
 -1      2768 9.63444E-05-2.85315E-05-2.90601E-05-2.19291E-06-6.78152E-19 5.38633E-19
 -1      2769 9.61483E-05-2.84410E-05-2.90163E-05-2.03973E-06-7.06230E-19 2.69693E-19
 -1      2770 9.60605E-05-2.83875E-05-2.90070E-05-2.48315E-06-6.93477E-19-1.75635E-19
 -1      2771 9.60337E-05-2.83926E-05-2.89858E-05-1.85318E-06-4.16284E-19 1.24224E-19
 -1      2772 9.58817E-05-2.83448E-05-2.89442E-05-1.69159E-06-2.65701E-19 6.78866E-19
 -1      2773 9.57760E-05-2.82250E-05-2.89535E-05-2.10264E-06-8.40653E-19-4.62700E-19
 -1      2774 9.58064E-05-2.83315E-05-2.89144E-05-1.51267E-06-1.40282E-19 1.07681E-18
 -1      2775 9.56899E-05-2.83118E-05-2.88767E-05-1.35844E-06 3.34154E-19 7.17723E-19
 -1      2776 9.55880E-05-2.81638E-05-2.88983E-05-1.72256E-06-1.96407E-19 5.38549E-19
 -1      2777 9.56408E-05-2.83191E-05-2.88488E-05-1.19740E-06 4.47331E-19 2.36645E-19
 -1      2778 9.55523E-05-2.83168E-05-2.88159E-05-1.05933E-06-2.30772E-20 3.47082E-19
 -1      2779 9.54653E-05-2.81652E-05-2.88445E-05-1.37062E-06-1.07294E-19-1.82691E-19
 -1      2780 9.55204E-05-2.83347E-05-2.87909E-05-9.20839E-07-5.37779E-19-6.36603E-19
 -1      2781 9.54541E-05-2.83421E-05-2.87630E-05-8.02819E-07-1.74472E-18-5.62833E-19
 -1      2782 9.53858E-05-2.82016E-05-2.87945E-05-1.06120E-06-7.44265E-19-9.33286E-19
 -1      2783 9.54333E-05-2.83642E-05-2.87413E-05-6.87886E-07-1.31284E-18-1.15302E-18
 -1      2784 9.53843E-05-2.83762E-05-2.87184E-05-5.90596E-07 6.35439E-20-1.16577E-18
 -1      2785 9.53345E-05-2.82539E-05-2.87497E-05-7.99596E-07-1.52807E-18-1.42475E-18
 -1      2786 9.53706E-05-2.83986E-05-2.87001E-05-4.97991E-07 3.62133E-19-1.33811E-18
 -1      2787 9.53350E-05-2.84121E-05-2.86818E-05-4.20191E-07-1.58969E-19-1.40525E-18
 -1      2788 9.53012E-05-2.83105E-05-2.87110E-05-5.85322E-07-3.41052E-19-1.75428E-18
 -1      2789 9.53259E-05-2.84326E-05-2.86668E-05-3.47504E-07 5.98142E-22-1.60541E-18
 -1      2790 9.53005E-05-2.84458E-05-2.86525E-05-2.86961E-07-1.23732E-18-1.01177E-18
 -1      2791 9.52795E-05-2.83644E-05-2.86785E-05-4.14530E-07-3.81731E-19-2.31184E-18
 -1      2792 9.52944E-05-2.84635E-05-2.86405E-05-2.31304E-07-1.86076E-18-2.61596E-19
 -1      2793 9.52769E-05-2.84755E-05-2.86295E-05-1.85418E-07-1.65292E-18-9.96859E-20
 -1      2794 9.52652E-05-2.84121E-05-2.86518E-05-2.81749E-07-1.04846E-18-2.92128E-18
 -1      2795 9.52727E-05-2.84901E-05-2.86201E-05-1.43874E-07-6.56742E-19 1.39151E-18
 -1      2796 9.52610E-05-2.85005E-05-2.86119E-05-1.10076E-07 1.16367E-18 1.55017E-18
 -1      2797 9.52558E-05-2.84525E-05-2.86304E-05-1.81027E-07-5.80745E-20 1.67671E-18
 -1      2798 9.52582E-05-2.85124E-05-2.86045E-05-7.99807E-08 1.79917E-18 1.29814E-18
 -1      2799 9.52508E-05-2.85213E-05-2.85986E-05-5.59686E-08 1.15455E-18 2.01722E-18
 -1      2800 9.52495E-05-2.84856E-05-2.86134E-05-1.06652E-07 1.61667E-18 2.29159E-18
 -1      2801 9.52489E-05-2.85309E-05-2.85929E-05-3.50209E-08 6.45239E-19 1.64137E-18
 -1      2802 9.52447E-05-2.85386E-05-2.85885E-05-1.88399E-08 1.09522E-18-4.40554E-20
 -1      2803 9.52454E-05-2.85123E-05-2.86001E-05-5.35610E-08 6.98832E-19 1.14611E-18
 -1      2804 9.52436E-05-2.85465E-05-2.85840E-05-5.29968E-09 1.27263E-18 3.10583E-19
 -1      2805 9.52416E-05-2.85532E-05-2.85808E-05 4.39335E-09 7.16363E-19 4.31134E-20
 -1      2806 9.52429E-05-2.85343E-05-2.85896E-05-1.74275E-08 1.34365E-18-2.57388E-19
 -1      2807 9.60028E-05-2.70603E-05-2.95285E-05-5.51191E-06 3.23245E-19 3.11520E-19
 -1      2808 9.57258E-05-2.70334E-05-2.94369E-05-4.74298E-06 3.71967E-19 5.26241E-19
 -1      2809 1.44193E-04-6.34396E-05-3.48476E-05 4.00317E-06 1.00405E-18 8.70750E-19
 -1      2810 1.32346E-04-6.30913E-05-2.94333E-05 1.66982E-05 1.18669E-18-6.74344E-19
 -1      2811 9.58079E-05-2.70663E-05-2.94468E-05-3.94337E-06 2.95479E-19 5.50638E-19
 -1      2812 9.56531E-05-2.69601E-05-2.94276E-05-3.14159E-06 2.86511E-19 6.32900E-19
 -1      2813 9.54061E-05-2.64550E-05-2.95560E-05-4.41904E-06 4.40984E-19 2.09555E-19
 -1      2814 9.65813E-05-2.66054E-05-2.99635E-05-8.93471E-06 2.01825E-19 7.29626E-19
 -1      2815 9.61134E-05-2.66569E-05-2.97794E-05-8.00698E-06 3.27836E-19 4.81731E-19
 -1      2816 9.69122E-05-2.63135E-05-3.02269E-05-1.09941E-05 3.72832E-19 6.41012E-19
 -1      2817 9.63431E-05-2.63220E-05-3.00274E-05-9.93741E-06 2.84842E-19 5.78224E-19
 -1      2818 9.46046E-05-2.52852E-05-2.96969E-05-9.66304E-06 3.04830E-19 4.90617E-19
 -1      2819 9.73445E-05-2.62526E-05-3.04346E-05-1.33136E-05 5.73694E-19 5.61255E-19
 -1      2820 9.66084E-05-2.60715E-05-3.02520E-05-1.21611E-05 4.78053E-19 5.74401E-19
 -1      2821 9.40705E-05-2.46842E-05-2.97212E-05-1.18116E-05 4.41202E-19 3.68657E-19
 -1      2822 9.81719E-05-2.69285E-05-3.04938E-05-1.57772E-05 5.13257E-19 5.76732E-19
 -1      2823 9.70845E-05-2.62623E-05-3.03711E-05-1.46552E-05 6.31677E-19 6.74635E-19
 -1      2824 9.34854E-05-2.43943E-05-2.95965E-05-1.42864E-05 4.45286E-19 4.49046E-19
 -1      2825 1.00113E-04-2.92673E-05-3.03093E-05-1.80718E-05 1.12358E-19 5.75566E-19
 -1      2826 9.82704E-05-2.75989E-05-3.02858E-05-1.72573E-05 4.31038E-19 6.18714E-19
 -1      2827 9.32275E-05-2.50818E-05-2.92075E-05-1.71097E-05 4.59104E-19 3.46174E-19
 -1      2828 1.04566E-04-3.46861E-05-2.98686E-05-1.94929E-05-3.42420E-19 3.48781E-19
 -1      2829 1.01280E-04-3.13113E-05-2.99258E-05-1.95474E-05-1.20719E-19 6.22141E-19
 -1      2830 9.42220E-05-2.79317E-05-2.84524E-05-2.02433E-05-9.65320E-21 7.32948E-19
 -1      2831 1.14114E-04-4.45746E-05-2.96141E-05-1.83445E-05-9.35601E-19 8.52830E-19
 -1      2832 1.08161E-04-3.90028E-05-2.94239E-05-2.04579E-05-5.85604E-19 6.12655E-19
 -1      2833 9.84067E-05-3.46983E-05-2.73644E-05-2.33479E-05-4.61183E-19 6.95328E-19
 -1      2834 1.25744E-04-5.72177E-05-2.91310E-05-1.66056E-05-2.23564E-19-1.45398E-19
 -1      2835 1.17401E-04-5.10468E-05-2.80884E-05-2.07568E-05-6.61586E-19 2.72705E-19
 -1      2836 1.45195E-04-4.39125E-05-4.37445E-05 2.16060E-05-4.46175E-19 8.00658E-19
 -1      2837 1.52440E-04-5.25611E-05-4.34478E-05 1.51123E-05 1.12020E-19 3.07049E-20
 -1      2838 1.41896E-04-3.51809E-05-4.64730E-05 2.08858E-05-1.18383E-18 9.11778E-19
 -1      2839 1.33561E-04-5.69466E-05-3.26712E-05 7.74816E-06 5.02317E-19 8.48978E-19
 -1      2840 1.39823E-04-5.99076E-05-3.43891E-05 1.09832E-06 1.03317E-18 1.09454E-18
 -1      2841 1.01056E-04-2.91175E-05-3.08055E-05 1.70359E-05-1.56843E-18 2.12083E-18
 -1      2842 1.03343E-04-3.12517E-05-3.08401E-05 1.75884E-05-1.10042E-18 2.11046E-18
 -1      2843 9.91789E-05-2.71189E-05-3.08916E-05 1.44855E-05-1.23455E-18 1.19159E-18
 -1      2844 1.00535E-04-2.80617E-05-3.10220E-05 1.55595E-05-1.30191E-18 2.09503E-18
 -1      2845 9.51602E-05-2.62943E-05-2.95284E-05 1.72270E-05-8.84036E-19 2.04268E-18
 -1      2846 9.82963E-05-2.65839E-05-3.07504E-05 1.17264E-05-1.40283E-19 8.53400E-19
 -1      2847 9.92108E-05-2.69070E-05-3.09561E-05 1.29867E-05-6.17093E-19 5.40022E-19
 -1      2848 9.48256E-05-2.49434E-05-2.99410E-05 1.41964E-05-3.18477E-19 1.24704E-18
 -1      2849 9.78374E-05-2.67236E-05-3.04930E-05 9.33300E-06 1.09121E-18-3.39231E-19
 -1      2850 9.84854E-05-2.67573E-05-3.07110E-05 1.04573E-05 2.37222E-19 4.55166E-20
 -1      2851 9.51152E-05-2.49464E-05-3.00577E-05 1.14388E-05 3.48102E-19-6.96265E-19
 -1      2852 9.74695E-05-2.70549E-05-3.01905E-05 7.28949E-06-1.00874E-18 4.86122E-19
 -1      2853 9.79908E-05-2.69930E-05-3.04009E-05 8.25604E-06 2.41151E-19-3.81856E-19
 -1      2854 9.54775E-05-2.54698E-05-2.99900E-05 9.10928E-06 3.08418E-19-8.75302E-19
 -1      2855 9.71240E-05-2.73998E-05-2.98914E-05 5.61064E-06-3.30421E-19 4.58571E-19
 -1      2856 9.75556E-05-2.73178E-05-3.00787E-05 6.40231E-06-8.31063E-19 2.73847E-19
 -1      2857 9.57318E-05-2.61027E-05-2.98317E-05 7.14805E-06-4.81582E-19-3.11359E-19
 -1      2858 9.67916E-05-2.76923E-05-2.96208E-05 4.26667E-06-4.58577E-19 1.43186E-18
 -1      2859 9.71488E-05-2.76182E-05-2.97794E-05 4.89592E-06-7.56553E-19 4.67184E-19
 -1      2860 9.58534E-05-2.66813E-05-2.96397E-05 5.53678E-06-5.79689E-19 1.13046E-19
 -1      2861 9.64829E-05-2.79196E-05-2.93890E-05 3.20992E-06-1.12736E-19 4.28774E-19
 -1      2862 9.67746E-05-2.78607E-05-2.95186E-05 3.70045E-06 3.32700E-20 6.46888E-19
 -1      2863 9.58707E-05-2.71542E-05-2.94474E-05 4.23866E-06 2.64414E-20-7.70714E-19
 -1      2864 9.62089E-05-2.80891E-05-2.91974E-05 2.38969E-06-1.29321E-18 1.69991E-18
 -1      2865 9.64428E-05-2.80446E-05-2.93008E-05 2.76708E-06-7.75236E-19 1.03370E-18
 -1      2866 9.58224E-05-2.75198E-05-2.92720E-05 3.20898E-06-6.04799E-19 5.03058E-19
 -1      2867 9.59756E-05-2.82130E-05-2.90432E-05 1.75930E-06 9.11278E-20 1.36065E-18
 -1      2868 9.61596E-05-2.81801E-05-2.91241E-05 2.04688E-06-3.66018E-19 1.65362E-18
 -1      2869 9.57409E-05-2.77945E-05-2.91204E-05 2.40240E-06-8.06695E-19 1.77186E-18
 -1      2870 9.57839E-05-2.83034E-05-2.89215E-05 1.27881E-06 2.32922E-18 3.46661E-19
 -1      2871 9.59258E-05-2.82789E-05-2.89838E-05 1.49625E-06 5.81516E-19 9.21312E-19
 -1      2872 9.56488E-05-2.79981E-05-2.89943E-05 1.77710E-06 1.17502E-18-6.23638E-19
 -1      2873 9.56312E-05-2.83698E-05-2.88272E-05 9.15403E-07 1.03259E-18 1.31809E-18
 -1      2874 9.57386E-05-2.83511E-05-2.88744E-05 1.07861E-06 1.93419E-18 8.24821E-19
 -1      2875 9.55598E-05-2.81482E-05-2.88920E-05 1.29679E-06 1.14363E-18 4.88812E-19
 -1      2876 9.55130E-05-2.84189E-05-2.87551E-05 6.42750E-07 1.74186E-18 2.51479E-18
 -1      2877 9.55927E-05-2.84044E-05-2.87905E-05 7.64314E-07 1.16975E-18 2.30523E-18
 -1      2878 9.54810E-05-2.82591E-05-2.88107E-05 9.31096E-07 5.58200E-19 2.89058E-18
 -1      2879 9.54240E-05-2.84559E-05-2.87009E-05 4.39989E-07 1.15515E-18 3.68473E-18
 -1      2880 9.54818E-05-2.84443E-05-2.87270E-05 5.29751E-07 2.07735E-18 3.44869E-18
 -1      2881 9.54154E-05-2.83412E-05-2.87473E-05 6.55205E-07 1.48994E-18 4.06078E-18
 -1      2882 9.53589E-05-2.84841E-05-2.86608E-05 2.90740E-07-2.65960E-19 3.31937E-18
 -1      2883 9.53998E-05-2.84747E-05-2.86796E-05 3.56339E-07 4.71315E-19 3.42517E-18
 -1      2884 9.53632E-05-2.84023E-05-2.86986E-05 4.49116E-07 9.14143E-19 2.77824E-18
 -1      2885 9.53127E-05-2.85059E-05-2.86316E-05 1.82233E-07-7.49988E-19 1.74266E-18
 -1      2886 9.53406E-05-2.84981E-05-2.86449E-05 2.29560E-07 2.79745E-19 2.43706E-18
 -1      2887 9.53232E-05-2.84479E-05-2.86617E-05 2.96891E-07 3.82182E-19 3.39865E-18
 -1      2888 9.52811E-05-2.85231E-05-2.86107E-05 1.04608E-07-1.02012E-18 1.51901E-18
 -1      2889 9.52995E-05-2.85164E-05-2.86199E-05 1.38159E-07-1.92521E-18 5.26481E-19
 -1      2890 9.52936E-05-2.84822E-05-2.86342E-05 1.85955E-07-4.59180E-19 9.09203E-19
 -1      2891 9.52606E-05-2.85368E-05-2.85960E-05 5.03799E-08-1.03154E-18 1.27004E-18
 -1      2892 9.52719E-05-2.85310E-05-2.86023E-05 7.35336E-08-7.24051E-19 1.54793E-18
 -1      2893 9.52726E-05-2.85082E-05-2.86139E-05 1.06531E-07-1.08785E-18-2.64481E-19
 -1      2894 9.52482E-05-2.85481E-05-2.85858E-05 1.38764E-08-5.91634E-19-3.46135E-19
 -1      2895 9.52545E-05-2.85430E-05-2.85900E-05 2.91530E-08-7.33316E-19 9.07542E-19
 -1      2896 9.52583E-05-2.85281E-05-2.85991E-05 5.11310E-08-6.36747E-19 1.28224E-18
 -1      2897 9.52417E-05-2.85579E-05-2.85788E-05-8.71102E-09-5.84008E-19-2.34717E-18
 -1      2898 9.52445E-05-2.85533E-05-2.85815E-05 2.41521E-10-1.77105E-19-1.14146E-18
 -1      2899 9.52493E-05-2.85439E-05-2.85883E-05 1.39977E-08 2.59135E-19-1.03543E-18
 -1      2900 9.52390E-05-2.85663E-05-2.85740E-05-1.97392E-08 1.58821E-18-4.08667E-18
 -1      2901 9.52396E-05-2.85619E-05-2.85759E-05-1.57085E-08 1.39343E-19-3.39442E-18
 -1      2902 9.52441E-05-2.85558E-05-2.85808E-05-7.36902E-09 6.62098E-19-3.19200E-18
 -1      2903 9.52416E-05-2.85659E-05-2.85754E-05-1.84358E-08 8.37907E-19-5.10776E-18
 -1      2904 9.52242E-05-2.85238E-05-2.85860E-05 3.39551E-09 5.38281E-19-1.37244E-18
 -1      2905 9.52253E-05-2.85250E-05-2.85859E-05 3.94182E-09 1.84524E-18-1.73935E-18
 -1      2906 9.52408E-05-2.85624E-05-2.85765E-05 1.36850E-08 7.94753E-19 1.13389E-18
 -1      2907 9.52416E-05-2.85611E-05-2.85774E-05 1.21848E-08 1.00209E-18 3.05050E-19
 -1      2908 9.52413E-05-2.85581E-05-2.85783E-05 1.00601E-08 7.94130E-19-4.96895E-20
 -1      2909 9.52334E-05-2.85364E-05-2.85846E-05 4.47664E-09 1.28445E-18 7.57493E-19
 -1      2910 9.52362E-05-2.85398E-05-2.85841E-05 2.63343E-09 6.38871E-19 1.05200E-18
 -1      2911 1.01997E-04-5.20552E-05-2.10376E-05-3.83118E-05 1.66167E-18 3.76347E-19
 -1      2912 1.16986E-04-5.72232E-05-2.58060E-05-3.20335E-05 1.42238E-18-5.41929E-19
 -1      2913 9.52243E-05-2.85241E-05-2.85858E-05 5.70102E-10-7.07376E-19 1.58893E-18
 -1      2914 9.52239E-05-2.85236E-05-2.85859E-05 1.31555E-09-4.69023E-19-4.53227E-20
 -1      2915 9.52177E-05-2.85035E-05-2.85915E-05 2.56459E-09 5.58523E-19-1.89678E-18
 -1      2916 9.52276E-05-2.85282E-05-2.85856E-05 5.25657E-09 7.94372E-19-1.33684E-18
 -1      2917 9.52299E-05-2.85308E-05-2.85853E-05 4.83539E-09 1.63638E-18-4.14635E-19
 -1      2918 9.52272E-05-2.85161E-05-2.85903E-05 8.98109E-09 7.63839E-20 6.11163E-19
 -1      2919 9.52207E-05-2.85071E-05-2.85913E-05 7.07630E-09 9.55697E-19-9.80262E-19
 -1      2920 9.52275E-05-2.85288E-05-2.85851E-05-1.29627E-09-1.01520E-18 4.13379E-19
 -1      2921 9.52258E-05-2.85268E-05-2.85854E-05-1.15260E-09-1.55894E-18 2.27438E-18
 -1      2922 9.52190E-05-2.85059E-05-2.85910E-05-2.34824E-09-2.90422E-19 1.38301E-18
 -1      2923 9.52329E-05-2.85371E-05-2.85838E-05-7.54973E-10 1.75362E-18 8.81719E-19
 -1      2924 9.52305E-05-2.85340E-05-2.85844E-05-1.77483E-09 1.34373E-19 1.98624E-18
 -1      2925 9.52240E-05-2.85139E-05-2.85899E-05-5.51212E-09 5.06446E-20 2.07171E-18
 -1      2926 9.52383E-05-2.85475E-05-2.85818E-05 2.95892E-09 2.84169E-18 1.17688E-19
 -1      2927 9.52364E-05-2.85438E-05-2.85827E-05 4.91973E-10 2.68304E-18-1.06515E-18
 -1      2928 9.52312E-05-2.85258E-05-2.85879E-05-5.30404E-09 1.87505E-18 7.24552E-19
 -1      2929 9.52416E-05-2.85578E-05-2.85787E-05 8.81960E-09 2.17481E-18-3.21572E-19
 -1      2930 9.57266E-05-2.68500E-05-2.95094E-05-2.25243E-06 2.72980E-19 7.76737E-19
 -1      2931 9.57114E-05-2.66223E-05-2.95859E-05-1.30051E-06 2.87324E-19 7.53631E-19
 -1      2932 9.56383E-05-2.57498E-05-2.99604E-05-5.56142E-07 2.63077E-19 6.10150E-19
 -1      2933 9.55412E-05-2.63193E-05-2.96753E-05-2.64867E-06 4.28506E-19 5.40510E-19
 -1      2934 1.51354E-04-3.65686E-05-4.92238E-05-1.90961E-05 1.77030E-18 1.27013E-18
 -1      2935 1.28081E-04-5.83939E-05-2.96905E-05-2.22910E-05 1.35239E-18-9.20937E-19
 -1      2936 1.35020E-04-5.61234E-05-3.42202E-05-1.29050E-05 1.54877E-18-4.63962E-19
 -1      2937 1.49224E-04-5.96845E-05-3.85534E-05 5.18548E-06 1.29464E-19 2.32511E-19
 -1      2938 3.31390E-05-1.28459E-05-8.14704E-06-9.21047E-06 7.57168E-19-6.43745E-20
 -1      2939 3.99916E-05-1.75192E-05-9.25309E-06-2.12454E-05 6.65291E-19-5.31301E-19
 -1      2940 3.49249E-05-1.45699E-05-8.30611E-06 2.01896E-05 7.88588E-19 1.03973E-18
 -1      2941 3.07139E-05-1.15613E-05-7.62136E-06 4.35188E-06 7.22039E-19 5.06102E-19
 -1      2942 1.19149E-04-6.01771E-05-2.54397E-05 2.76191E-05 5.84982E-19-1.18523E-18
 -1      2943 1.04042E-04-5.33132E-05-2.13386E-05 3.21175E-05 1.12020E-19-7.09496E-19
 -1      2944 1.05318E-04-3.39796E-05-3.04736E-05 1.88373E-05-5.92202E-19 1.51299E-18
 -1      2945 1.09259E-04-3.79651E-05-3.04831E-05 1.81418E-05-8.53386E-20 6.94680E-19
 -1      2946 9.72828E-05-3.03018E-05-2.87539E-05 2.03218E-05-1.14834E-18 1.56315E-18
 -1      2947 1.13909E-04-4.28892E-05-3.02075E-05 1.80749E-05-3.32361E-20 6.98835E-20
 -1      2948 1.19577E-04-4.87489E-05-3.03477E-05 1.55037E-05-4.85456E-20 5.39123E-19
 -1      2949 1.03726E-04-3.90591E-05-2.78233E-05 2.27784E-05-3.94320E-19 7.66141E-19
 -1      2950 9.62744E-05-2.68894E-05-2.97140E-05-7.13269E-06 2.94532E-19 3.29534E-19
 -1      2951 9.58961E-05-2.69174E-05-2.95676E-05-6.31269E-06 2.82204E-19 3.43111E-19
 -1      2952 9.52369E-05-2.62820E-05-2.95526E-05-6.07517E-06 3.16634E-19 2.24216E-19
 -1      2953 9.49875E-05-2.58676E-05-2.96175E-05-7.78088E-06 2.59983E-19 4.67872E-19
 -1      2954 9.55991E-05-2.38207E-05-3.07511E-05-4.08002E-06 2.75579E-19-1.23720E-18
 -1      2955 9.56320E-05-2.48305E-05-3.03583E-05-2.45507E-06 1.64357E-19-1.16692E-18
 -1      2956 9.54956E-05-2.43767E-05-3.04810E-05-2.02797E-06 1.53408E-19-1.17712E-18
 -1      2957 8.25651E-05-4.27807E-05-1.70543E-05 3.69967E-05-4.22246E-19-1.34466E-20
 -1      2958 6.17540E-05-3.09497E-05-1.26500E-05 3.34307E-05-5.25372E-19 6.64921E-20
 -1      2959 1.38595E-04-5.17086E-05-3.72888E-05-3.99660E-06 1.85283E-18 9.16913E-20
 -1      2960 1.37714E-04-4.44570E-05-4.04173E-05 3.62050E-06 1.22809E-18-7.98858E-19
 -1      2961 1.34053E-04-5.42931E-05-3.42503E-05-7.23380E-06 1.98964E-18-8.43698E-19
 -1      2962 5.22250E-05-2.41086E-05-1.14296E-05-2.88574E-05 5.06790E-19-6.86414E-19
 -1      2963 7.02932E-05-3.38664E-05-1.52733E-05-3.45526E-05 1.21443E-19-7.34060E-19
 -1      2964 9.04144E-05-1.49974E-05-3.23478E-05 4.02366E-06 1.00716E-18 1.94897E-19
 -1      2965 8.99137E-05-1.43955E-05-3.23895E-05 3.25018E-06 9.76374E-19-7.97303E-20
 -1      2966 9.06654E-05-1.57522E-05-3.20858E-05 2.49174E-06 8.84350E-19-1.34959E-19
 -1      2967 9.16829E-05-1.70594E-05-3.19583E-05 3.54221E-06 8.78271E-19 2.33542E-19
 -1      2968 9.30105E-05-1.78197E-05-3.22240E-05-7.81752E-06 3.19250E-19-1.48956E-18
 -1      2969 3.04798E-05-1.16709E-05-7.50070E-06 3.65067E-06 9.58550E-19-8.37292E-19
 -1      2970 3.10650E-05-1.13050E-05-7.96941E-06-1.06397E-05 1.03685E-18 1.43996E-20
 -1      2971 4.17122E-05-1.23881E-05-1.18909E-05 8.40717E-06 4.54724E-19-1.06144E-18
 -1      2972 3.67747E-05-1.64409E-05-8.11955E-06-2.46542E-05 7.36601E-19 5.17114E-19
 -1      2973 4.92872E-05-2.44954E-05-1.02986E-05-3.60364E-05 6.65556E-19 1.69618E-19
 -1      2974 6.87968E-05-3.55920E-05-1.37469E-05-4.18677E-05 1.14191E-18 8.45551E-19
 -1      2975 8.64458E-05-4.53053E-05-1.75028E-05-4.34551E-05 1.37357E-18 8.46609E-19
 -1      2976 9.85276E-05-4.84916E-05-2.11012E-05-3.69309E-05 1.49030E-18-3.07738E-19
 -1      2977 9.00701E-05-1.46039E-05-3.23659E-05-3.07541E-06 8.26712E-19-8.90415E-19
 -1      2978 9.05640E-05-1.52073E-05-3.23200E-05-3.90915E-06 7.64053E-19-9.52848E-19
 -1      2979 1.26526E-04-1.13175E-05-4.99943E-05 7.65410E-06-1.83806E-19-1.71942E-18
 -1      2980 1.26163E-04-7.42869E-06-5.14754E-05 2.79371E-06-5.68783E-19-1.70573E-18
 -1      2981 1.25275E-04-5.91947E-05-2.86147E-05 2.56636E-05-2.61098E-19 5.34478E-19
 -1      2982 1.13443E-04-5.63515E-05-2.40539E-05 3.29310E-05-1.95559E-19 4.06788E-19
 -1      2983 5.75879E-05-2.74003E-05-1.26253E-05 3.71699E-05 6.03617E-19-1.00585E-19
 -1      2984 4.56650E-05-2.02262E-05-1.02325E-05 2.97009E-05 9.16807E-19 3.68671E-19
 -1      2985 1.38671E-04-5.32437E-05-3.70929E-05 6.71795E-06-6.89094E-19 6.26804E-19
 -1      2986 1.33548E-04-5.72858E-05-3.26319E-05 1.48488E-05-7.67862E-19 8.16010E-19
 -1      2987 1.38889E-04-3.68405E-05-4.43704E-05-7.32791E-06-4.74127E-19 1.79783E-19
 -1      2988 1.40100E-04-4.59665E-05-4.05198E-05-1.59591E-06-2.41510E-19 4.64068E-19
 -1      2989 1.36364E-04-4.94336E-05-3.73257E-05-4.06205E-07-4.94230E-19 4.71162E-19
 -1      2990 1.30220E-04-1.76159E-05-4.89926E-05-1.00978E-05-7.42530E-19-2.72586E-19
 -1      2991 1.33789E-04-2.57771E-05-4.66701E-05-1.12945E-05-7.00496E-19 1.27055E-21
 -1      2992 1.26383E-04-7.19990E-06-5.17407E-05-2.34246E-06-6.30616E-19-7.73381E-19
 -1      2993 1.28420E-04-1.05537E-05-5.10928E-05-7.18289E-06-6.26169E-19-6.42369E-19
 -1      2994 1.43690E-04-6.27750E-05-3.49978E-05-3.21670E-06 1.84230E-20 2.72215E-19
 -1      2995 9.11794E-05-1.60206E-05-3.22357E-05-4.54537E-06 6.83747E-19-9.43770E-19
 -1      2996 9.18355E-05-1.69018E-05-3.21570E-05-5.36007E-06 5.43603E-19-1.21297E-18
 -1      2997 9.18602E-05-1.73410E-05-3.19259E-05-3.45767E-06 6.93002E-19-8.82064E-19
 -1      2998 8.99337E-05-1.48535E-05-3.21629E-05 1.97772E-07 8.81932E-19-3.29332E-19
 -1      2999 8.89959E-05-1.32850E-05-3.24689E-05-1.48009E-07 9.22174E-19-4.23444E-19
 -1      3000 8.91129E-05-1.34145E-05-3.24600E-05-9.40289E-07 9.29315E-19-5.75008E-19
 -1      3001 9.45954E-05-2.10864E-05-3.15116E-05 5.90406E-06 5.55413E-19 8.35919E-19
 -1      3002 6.02212E-05-2.43461E-05-1.49218E-05-3.31725E-05-3.63695E-20 2.65333E-19
 -1      3003 6.38625E-05-3.02078E-05-1.38866E-05-3.82513E-05 2.96673E-19 6.42263E-19
 -1      3004 7.69959E-05-3.54103E-05-1.78529E-05-3.76414E-05 3.93394E-19 5.83129E-19
 -1      3005 6.05721E-05-2.48244E-05-1.46261E-05 2.74062E-05-2.84444E-19 2.46698E-20
 -1      3006 9.52419E-05-2.85503E-05-2.85824E-05 2.53638E-09 1.53933E-18 3.81859E-20
 -1      3007 1.26540E-04-5.96943E-05-2.86246E-05 1.84129E-05 8.04046E-19 1.09055E-20
 -1      3008 1.52701E-04-4.88090E-05-4.52729E-05-1.92965E-05 1.31587E-18 2.06443E-18
 -1      3009 4.07180E-05-1.34049E-05-1.10692E-05-1.63705E-05 5.12799E-19 4.37175E-19
 -1      3010 1.04000E-04-4.59295E-05-2.49009E-05-2.77330E-05-4.26640E-19 1.21893E-19
 -1      3011 3.89787E-05-1.16880E-05-1.10165E-05-1.83256E-06 6.81577E-19 3.56071E-19
 -1      3012 1.47121E-04-6.13310E-05-3.69580E-05-4.17157E-06 9.67312E-19 1.51460E-18
 -1      3013 1.50750E-04-5.54124E-05-4.09652E-05-1.14297E-05 1.09601E-18 1.85278E-18
 -1      3014 4.66283E-05-1.65008E-05-1.23597E-05 2.24189E-05 8.37239E-19 7.68471E-19
 -1      3015 1.22624E-04-5.41892E-05-2.93260E-05 1.65319E-05 4.52819E-19 2.62938E-19
 -1      3016 9.52436E-05-2.85651E-05-2.85765E-05-1.60666E-08 2.55816E-19-2.60899E-18
 -1      3017 1.22345E-04-5.71143E-05-2.77662E-05-2.37080E-05 2.04765E-18-1.40578E-18
 -1      3018 9.52444E-05-2.85579E-05-2.85800E-05-7.62222E-09-6.16743E-19 4.88612E-19
 -1      3019 9.52444E-05-2.85605E-05-2.85788E-05-1.15466E-08 1.41298E-19-6.53829E-19
 -1      3020 9.52442E-05-2.85567E-05-2.85804E-05-9.98726E-09 1.78448E-19-2.36503E-18
 -1      3021 1.31423E-04-3.21759E-05-4.28160E-05-1.06003E-05-5.25637E-19 7.30566E-21
 -1      3022 9.52408E-05-2.85470E-05-2.85831E-05 1.86762E-09 1.09734E-18-1.24399E-18
 -1      3023 9.52399E-05-2.85492E-05-2.85819E-05 3.23132E-09 1.91863E-18-1.04230E-18
 -1      3024 9.52373E-05-2.85346E-05-2.85866E-05-4.37610E-09 1.81151E-18-1.21490E-18
 -1      3025 9.52412E-05-2.85399E-05-2.85859E-05-4.79682E-09 1.48566E-18-5.97069E-19
 -1      3026 6.96932E-05-3.30442E-05-1.51495E-05 3.84257E-05 5.29184E-19-3.54166E-19
 -1      3027 6.64735E-05-2.73999E-05-1.64264E-05 3.35044E-05 7.62436E-19-4.36116E-19
 -1      3028 8.15446E-05-3.87859E-05-1.84280E-05 3.78497E-05 5.35060E-19-2.20970E-19
 -1      3029 1.28745E-04-5.75847E-05-3.04520E-05 1.65217E-05-4.76456E-19 5.61371E-19
 -1      3030 9.47322E-05-2.19312E-05-3.11892E-05 4.23747E-06 4.90121E-19 6.67721E-19
 -1      3031 1.20568E-04-8.62091E-06-4.84056E-05 2.07373E-07-2.87144E-19-1.39452E-18
 -1      3032 8.34053E-05-3.87814E-05-1.86215E-05-3.40060E-05-3.87518E-20-2.22240E-19
 -1      3033 9.56435E-05-4.33366E-05-2.21997E-05-3.01755E-05-2.47492E-19-1.28802E-19
 -1      3034 9.39589E-05-3.69314E-05-2.43279E-05-2.72793E-05-4.35507E-19 5.71297E-19
 -1      3035 7.57737E-05-3.08473E-05-1.88715E-05-3.06564E-05-1.00903E-19-4.59833E-19
 -1      3036 1.35321E-04-3.84259E-05-4.17803E-05 8.66691E-06 2.00588E-19-1.71545E-18
 -1      3037 1.29042E-04-3.11110E-05-4.23902E-05 1.21900E-05 6.99332E-20-2.11282E-18
 -1      3038 1.32895E-04-4.35534E-05-3.84815E-05 5.90499E-06 1.43223E-18-1.43768E-18
 -1      3039 1.05855E-04-5.22873E-05-2.26444E-05 3.45900E-05-5.72806E-20 2.36732E-19
 -1      3040 9.60911E-05-4.58126E-05-2.10077E-05 3.12330E-05 1.56701E-19-1.84177E-19
 -1      3041 9.52399E-05-2.85467E-05-2.85829E-05 2.50850E-10 1.32004E-19 1.86559E-19
 -1      3042 9.52418E-05-2.85501E-05-2.85821E-05-2.99664E-09-5.55815E-19 6.05646E-19
 -1      3043 9.52354E-05-2.85288E-05-2.85884E-05 6.82877E-09 1.98729E-19 1.55832E-18
 -1      3044 8.93416E-05-1.37060E-05-3.24374E-05-1.59467E-06 8.76221E-19-5.86903E-19
 -1      3045 8.96466E-05-1.40606E-05-3.24134E-05-2.41141E-06 8.24499E-19-7.12897E-19
 -1      3046 9.08425E-05-1.60061E-05-3.20634E-05-2.24532E-06 7.63166E-19-8.05177E-19
 -1      3047 9.01910E-05-1.51802E-05-3.21365E-05-1.00852E-06 7.72545E-19-5.67923E-19
 -1      3048 5.34960E-05-2.00767E-05-1.36657E-05-2.34641E-05 6.41098E-19-5.97264E-19
 -1      3049 1.25462E-04-1.59646E-05-4.74731E-05 1.03100E-05-1.70465E-19-1.98179E-18
 -1      3050 1.18400E-04-1.24946E-05-4.57780E-05 8.60133E-06-2.03500E-19-2.46693E-18
 -1      3051 1.23298E-04-2.05021E-05-4.43746E-05 1.16837E-05-8.81973E-20-2.28667E-18
 -1      3052 9.28696E-05-1.82810E-05-3.19675E-05-5.94375E-06 4.44817E-19-1.41056E-18
 -1      3053 9.45120E-05-2.08054E-05-3.16224E-05-6.63861E-06 2.39724E-19-1.38308E-18
 -1      3054 9.50766E-05-2.26049E-05-3.10614E-05-4.87279E-06 3.04686E-19-1.32833E-18
 -1      3055 9.33886E-05-1.95189E-05-3.16402E-05-4.52850E-06 4.65269E-19-1.26425E-18
 -1      3056 1.23313E-04-1.52417E-05-4.66678E-05-9.77811E-06-4.79209E-19-2.00059E-19
 -1      3057 9.47631E-05-2.21092E-05-3.11229E-05-4.17812E-06 3.46043E-19-1.33288E-18
 -1      3058 9.39564E-05-2.09281E-05-3.13182E-05 3.45401E-06 5.35235E-19 5.46296E-19
 -1      3059 9.32204E-05-1.97899E-05-3.14778E-05 3.18279E-06 6.12996E-19 3.10023E-19
 -1      3060 9.55703E-05-2.50065E-05-3.02270E-05-3.32880E-07 1.15195E-19-1.03807E-18
 -1      3061 9.56820E-05-2.57043E-05-2.99998E-05 6.55844E-07 7.17850E-20-8.37887E-19
 -1      3062 9.58559E-05-2.63135E-05-2.97898E-05 1.46048E-06-6.63618E-20-6.14158E-19
 -1      3063 9.59526E-05-2.68096E-05-2.96372E-05 2.17830E-06 2.69812E-20-6.11166E-19
 -1      3064 9.55367E-05-2.54200E-05-3.00532E-05 1.00008E-06 1.56467E-19-6.25121E-19
 -1      3065 9.60810E-05-2.72563E-05-2.94840E-05 2.79116E-06 2.20946E-20-4.57091E-19
 -1      3066 9.62293E-05-2.76668E-05-2.93851E-05 3.29218E-06-5.72731E-20-5.51168E-19
 -1      3067 9.58349E-05-2.66051E-05-2.96767E-05 2.46882E-06 1.14217E-19-4.32880E-19
 -1      3068 9.63936E-05-2.80612E-05-2.92736E-05 3.74406E-06-5.73472E-20-5.44289E-19
 -1      3069 9.66351E-05-2.84732E-05-2.92119E-05 4.06109E-06 8.57290E-20-6.39690E-19
 -1      3070 9.61252E-05-2.75561E-05-2.93964E-05 3.58788E-06-4.20316E-20-4.48551E-19
 -1      3071 9.69059E-05-2.89040E-05-2.91308E-05 4.36564E-06 3.54922E-20-8.16512E-19
 -1      3072 9.72737E-05-2.93862E-05-2.90945E-05 4.50368E-06-1.40029E-19-7.40342E-19
 -1      3073 9.65559E-05-2.84827E-05-2.91872E-05 4.40446E-06-2.46374E-20-6.79413E-19
 -1      3074 9.77183E-05-2.99255E-05-2.90377E-05 4.64761E-06-1.88731E-19-5.92688E-19
 -1      3075 9.82391E-05-3.05274E-05-2.90213E-05 4.58362E-06-2.93447E-19-6.00756E-19
 -1      3076 9.72634E-05-2.95616E-05-2.90323E-05 4.92421E-06-8.04437E-20-6.09685E-19
 -1      3077 9.89196E-05-3.12251E-05-2.89903E-05 4.52165E-06-2.78275E-19-3.59715E-19
 -1      3078 9.96052E-05-3.19645E-05-2.89955E-05 4.20815E-06-2.11007E-19-3.47577E-20
 -1      3079 9.83782E-05-3.09317E-05-2.89279E-05 5.09469E-06-1.20606E-19-3.96818E-19
 -1      3080 1.00564E-04-3.28282E-05-2.90019E-05 3.86117E-06-2.94957E-19 1.99489E-19
 -1      3081 1.01391E-04-3.36641E-05-2.90397E-05 3.23671E-06-4.37994E-20 1.48132E-19
 -1      3082 1.00009E-04-3.26659E-05-2.88885E-05 4.79523E-06 3.39953E-20 1.31567E-19
 -1      3083 1.02616E-04-3.46236E-05-2.91074E-05 2.50058E-06-1.20591E-19 2.33211E-19
 -1      3084 1.03495E-04-3.54179E-05-2.91987E-05 1.51515E-06 2.18955E-21 4.16494E-19
 -1      3085 1.02196E-04-3.47079E-05-2.89529E-05 3.83719E-06-1.02663E-19 6.35041E-19
 -1      3086 1.04867E-04-3.62775E-05-2.93646E-05 2.96899E-07-1.65485E-19 3.48343E-19
 -1      3087 1.05618E-04-3.67602E-05-2.95385E-05-1.03511E-06-1.07370E-19 2.08299E-19
 -1      3088 1.04821E-04-3.67745E-05-2.91871E-05 2.00016E-06-2.40004E-20 6.42271E-19
 -1      3089 1.06849E-04-3.71656E-05-2.98475E-05-2.71993E-06 9.56634E-20-2.07406E-19
 -1      3090 1.07212E-04-3.69639E-05-3.01315E-05-4.23243E-06 2.25808E-19-3.10019E-19
 -1      3091 1.07483E-04-3.82406E-05-2.96811E-05-8.53142E-07-1.42450E-19-2.23361E-19
 -1      3092 1.07886E-04-3.64779E-05-3.06181E-05-6.15124E-06 8.30853E-20-2.34229E-19
 -1      3093 1.07583E-04-3.52045E-05-3.10219E-05-7.46779E-06-2.59623E-19-2.62419E-19
 -1      3094 1.09487E-04-3.82224E-05-3.05287E-05-4.52302E-06 5.04903E-20-3.15267E-19
 -1      3095 1.07201E-04-3.34472E-05-3.16710E-05-8.89484E-06-2.91560E-19 7.45352E-20
 -1      3096 1.06231E-04-3.11506E-05-3.21462E-05-9.35642E-06-2.42126E-19 1.05101E-19
 -1      3097 1.09818E-04-3.55942E-05-3.17649E-05-8.17647E-06-7.91843E-20-9.84395E-20
 -1      3098 1.04864E-04-2.84358E-05-3.28453E-05-9.43429E-06-2.05371E-19 1.46730E-19
 -1      3099 1.03558E-04-2.57361E-05-3.32894E-05-8.50458E-06-6.74351E-20 4.25758E-20
 -1      3100 1.08078E-04-3.04194E-05-3.32489E-05-1.00287E-05-2.29407E-19 2.38341E-19
 -1      3101 1.01912E-04-2.31779E-05-3.38474E-05-6.48332E-06 1.73602E-19-1.44968E-19
 -1      3102 1.00975E-04-2.13749E-05-3.41160E-05-4.22835E-06 1.97054E-19-3.18637E-19
 -1      3103 1.04865E-04-2.39289E-05-3.46510E-05-8.38053E-06 5.09742E-20-2.23754E-19
 -1      3104 1.00426E-04-2.04149E-05-3.42975E-05-6.62688E-07 2.62967E-19 1.70569E-19
 -1      3105 1.00512E-04-2.06356E-05-3.42671E-05 2.14263E-06 1.56658E-19 2.63510E-19
 -1      3106 1.02466E-04-1.98113E-05-3.54150E-05-2.74422E-06 6.05723E-19 3.12366E-19
 -1      3107 1.01365E-04-2.18901E-05-3.40139E-05 5.43953E-06-5.15744E-19 4.64999E-19
 -1      3108 1.02365E-04-2.38872E-05-3.37215E-05 7.58348E-06-6.13894E-19 8.23963E-20
 -1      3109 1.02742E-04-2.01243E-05-3.54199E-05 4.23672E-06-5.74345E-20 4.77109E-19
 -1      3110 1.04014E-04-2.65683E-05-3.31359E-05 9.21639E-06-6.17944E-19 2.82601E-19
 -1      3111 1.05286E-04-2.92263E-05-3.26855E-05 9.92825E-06-3.95712E-19-2.28226E-19
 -1      3112 1.05383E-04-2.49623E-05-3.44609E-05 9.26359E-06-8.28709E-19 9.71090E-19
 -1      3113 1.06516E-04-3.18153E-05-3.19884E-05 9.61972E-06 4.08804E-19-4.10599E-19
 -1      3114 1.07394E-04-3.39491E-05-3.15280E-05 8.99975E-06 5.77337E-19-9.23100E-20
 -1      3115 1.08374E-04-3.12081E-05-3.30252E-05 1.03326E-05-1.16302E-20 1.01213E-18
 -1      3116 1.07533E-04-3.54313E-05-3.09105E-05 7.45779E-06 4.36070E-19 1.94059E-19
 -1      3117 1.07701E-04-3.64760E-05-3.05358E-05 6.13773E-06 1.44597E-19 9.12406E-19
 -1      3118 1.09760E-04-3.60030E-05-3.15764E-05 8.08707E-06 7.88995E-19 7.33916E-19
 -1      3119 1.06899E-04-3.67704E-05-3.00825E-05 4.29247E-06 5.35087E-20 1.62182E-18
 -1      3120 1.06456E-04-3.68178E-05-2.98244E-05 2.84863E-06 3.61753E-19 1.67421E-18
 -1      3121 1.09017E-04-3.80046E-05-3.04134E-05 4.47285E-06 7.64606E-19 1.83611E-18
 -1      3122 1.05144E-04-3.62817E-05-2.95419E-05 1.29080E-06 2.40383E-19 1.51386E-18
 -1      3123 1.04358E-04-3.57133E-05-2.93877E-05 7.49495E-08 4.77931E-19 1.90523E-18
 -1      3124 1.06814E-04-3.76997E-05-2.96302E-05 1.00396E-06 3.61689E-19 2.51652E-18
 -1      3125 1.02964E-04-3.48015E-05-2.92351E-05-9.95241E-07 9.45611E-19 1.22124E-18
 -1      3126 1.02086E-04-3.39870E-05-2.91536E-05-1.85573E-06 9.18383E-19 1.46910E-18
 -1      3127 1.04053E-04-3.60333E-05-2.91764E-05-1.55746E-06 5.37191E-19 1.85395E-18
 -1      3128 1.00866E-04-3.30314E-05-2.90854E-05-2.46226E-06 3.80657E-19 1.66602E-18
 -1      3129 1.00058E-04-3.22220E-05-2.90466E-05-2.97900E-06 5.28883E-19 1.46831E-18
 -1      3130 1.01419E-04-3.39257E-05-2.89536E-05-3.11852E-06 6.63700E-19 1.41620E-18
 -1      3131 9.91084E-05-3.13994E-05-2.90245E-05-3.23191E-06 5.35484E-19 1.55454E-18
 -1      3132 9.84440E-05-3.07208E-05-2.90055E-05-3.47203E-06 2.62841E-19 1.82837E-18
 -1      3133 9.92529E-05-3.19473E-05-2.88696E-05-3.86299E-06 4.82363E-19 1.32996E-18
 -1      3134 9.77657E-05-3.00951E-05-2.90033E-05-3.48718E-06-2.04387E-19 2.06764E-18
 -1      3135 9.72582E-05-2.95866E-05-2.89899E-05-3.52919E-06 5.30623E-19 2.49358E-18
 -1      3136 9.76380E-05-3.03541E-05-2.88547E-05-4.03712E-06 5.41468E-19 1.78190E-18
 -1      3137 9.68077E-05-2.91562E-05-2.89923E-05-3.40065E-06 1.96123E-19 1.91264E-18
 -1      3138 9.64397E-05-2.88093E-05-2.89775E-05-3.31447E-06-3.79992E-19 1.48225E-18
 -1      3139 9.65239E-05-2.92034E-05-2.88650E-05-3.85480E-06-1.01034E-19 2.01726E-18
 -1      3140 9.61619E-05-2.85426E-05-2.89770E-05-3.11030E-06-7.81271E-19 1.31408E-18
 -1      3141 9.59051E-05-2.83281E-05-2.89582E-05-2.95097E-06-5.31897E-19 5.91728E-19
 -1      3142 9.58085E-05-2.84510E-05-2.88764E-05-3.47475E-06-7.52613E-19 8.25930E-19
 -1      3143 9.57485E-05-2.81849E-05-2.89524E-05-2.71711E-06-7.02911E-19 2.54114E-19
 -1      3144 9.55743E-05-2.80689E-05-2.89300E-05-2.52456E-06-1.69927E-18-6.06785E-19
 -1      3145 9.53838E-05-2.80140E-05-2.88784E-05-3.00567E-06-1.22456E-18-5.46605E-19
 -1      3146 9.54971E-05-2.80112E-05-2.89189E-05-2.29002E-06-9.54511E-19-3.57656E-19
 -1      3147 9.53815E-05-2.79628E-05-2.88942E-05-2.09114E-06-1.85994E-19-2.81995E-20
 -1      3148 9.51567E-05-2.78050E-05-2.88683E-05-2.51754E-06-9.43678E-19-3.54270E-19
 -1      3149 9.53529E-05-2.79597E-05-2.88794E-05-1.87285E-06-3.11408E-19 4.12506E-20
 -1      3150 9.52773E-05-2.79542E-05-2.88540E-05-1.68440E-06-6.97753E-19 1.72896E-19
 -1      3151 9.50554E-05-2.77480E-05-2.88479E-05-2.05227E-06-3.31133E-19-3.35474E-19
 -1      3152 9.52763E-05-2.79825E-05-2.88370E-05-1.49116E-06-9.23902E-19 3.92287E-19
 -1      3153 9.52273E-05-2.80018E-05-2.88125E-05-1.32248E-06-6.34998E-19 4.64273E-19
 -1      3154 9.50287E-05-2.77838E-05-2.88202E-05-1.63280E-06-1.08457E-18 4.96022E-19
 -1      3155 9.52399E-05-2.80454E-05-2.87949E-05-1.15767E-06-8.56557E-19-4.13703E-19
 -1      3156 9.52084E-05-2.80769E-05-2.87722E-05-1.01288E-06-1.51680E-18-1.17778E-18
 -1      3157 9.50421E-05-2.78697E-05-2.87887E-05-1.26953E-06-1.43477E-18 7.32861E-19
 -1      3158 9.52261E-05-2.81253E-05-2.87551E-05-8.76462E-07-1.63106E-18-1.38279E-18
 -1      3159 9.52057E-05-2.81609E-05-2.87349E-05-7.56232E-07-1.57960E-18-1.36917E-18
 -1      3160 9.50735E-05-2.79765E-05-2.87561E-05-9.64684E-07-1.73394E-18-1.32145E-18
 -1      3161 9.52237E-05-2.82077E-05-2.87191E-05-6.46153E-07-6.49185E-19-8.15057E-19
 -1      3162 9.52104E-05-2.82425E-05-2.87018E-05-5.49079E-07-3.04624E-19-1.51876E-18
 -1      3163 9.51100E-05-2.80861E-05-2.87246E-05-7.15490E-07-1.02851E-18-8.96271E-19
 -1      3164 9.52263E-05-2.82844E-05-2.86877E-05-4.62255E-07-5.72016E-20-1.85393E-18
 -1      3165 9.52176E-05-2.83158E-05-2.86732E-05-3.85816E-07-4.25728E-19-1.79121E-18
 -1      3166 9.51444E-05-2.81880E-05-2.86956E-05-5.16444E-07-4.38359E-19-5.71476E-19
 -1      3167 9.52304E-05-2.83515E-05-2.86611E-05-3.18800E-07-5.55421E-19-1.44759E-18
 -1      3168 9.52246E-05-2.83783E-05-2.86492E-05-2.60033E-07-5.41641E-19-2.74647E-19
 -1      3169 9.51735E-05-2.82770E-05-2.86700E-05-3.60828E-07 1.57945E-19 1.16041E-19
 -1      3170 9.52343E-05-2.84075E-05-2.86390E-05-2.09433E-07 4.02143E-20-8.02820E-20
 -1      3171 9.52304E-05-2.84297E-05-2.86295E-05-1.65362E-07 9.47386E-19 7.73845E-19
 -1      3172 9.51963E-05-2.83514E-05-2.86478E-05-2.41715E-07 3.75884E-19 1.29193E-18
 -1      3173 9.52372E-05-2.84530E-05-2.86210E-05-1.28080E-07 1.10861E-18 7.71431E-19
 -1      3174 9.52346E-05-2.84710E-05-2.86134E-05-9.59840E-08 1.37108E-18 1.46537E-19
 -1      3175 9.52130E-05-2.84118E-05-2.86291E-05-1.52563E-07 1.01230E-18-1.22688E-18
 -1      3176 9.52391E-05-2.84894E-05-2.86065E-05-6.94049E-08 4.71360E-19-7.34747E-20
 -1      3177 9.52375E-05-2.85038E-05-2.86005E-05-4.69588E-08-7.72135E-20-4.51690E-19
 -1      3178 9.52246E-05-2.84597E-05-2.86136E-05-8.76861E-08 8.42538E-19-2.05557E-18
 -1      3179 9.52405E-05-2.85174E-05-2.85951E-05-3.05630E-08 7.02654E-19 1.80645E-19
 -1      3180 9.52395E-05-2.85292E-05-2.85903E-05-1.56341E-08 2.09783E-18 8.44723E-19
 -1      3181 9.52373E-05-2.85255E-05-2.85910E-05-1.56782E-08 6.96586E-19-1.27607E-18
 -1      3182 9.52324E-05-2.84971E-05-2.86011E-05-4.40257E-08 6.45662E-19-6.73630E-19
 -1      3183 9.13660E-05-2.31252E-05-2.92305E-05-1.15917E-05 2.80287E-19 3.47207E-19
 -1      3184 9.16894E-05-2.34491E-05-2.92789E-05-1.05160E-05 4.80690E-19 3.79729E-19
 -1      3185 9.27029E-05-2.40327E-05-2.94189E-05-9.59546E-06 4.54240E-19 3.65730E-19
 -1      3186 9.29558E-05-2.43837E-05-2.94115E-05-8.64314E-06 3.01489E-19 4.50377E-19
 -1      3187 9.02213E-05-2.25203E-05-2.89829E-05-9.41386E-06 3.34768E-19 4.26536E-19
 -1      3188 8.83630E-05-2.28834E-05-2.80026E-05-1.67666E-05 1.57235E-19 8.08079E-19
 -1      3189 8.83006E-05-2.22847E-05-2.83401E-05-1.53581E-05 2.92465E-19 4.89385E-19
 -1      3190 8.79680E-05-2.54885E-05-2.66429E-05-2.04195E-05-1.38414E-19 8.67977E-19
 -1      3191 8.69223E-05-2.34734E-05-2.72224E-05-1.87643E-05 2.94763E-19 9.70753E-19
 -1      3192 8.21003E-05-2.04548E-05-2.63541E-05-1.68363E-05 4.48878E-20 8.09343E-19
 -1      3193 9.14670E-05-3.22730E-05-2.51523E-05-2.47277E-05-4.65577E-19 4.55836E-19
 -1      3194 8.82583E-05-2.78544E-05-2.58763E-05-2.29132E-05-4.21869E-19 5.24909E-19
 -1      3195 8.05651E-05-2.30881E-05-2.45986E-05-2.14777E-05-1.50110E-19 8.29722E-19
 -1      3196 8.33433E-05-3.00876E-05-2.27486E-05-2.71515E-05-3.00829E-19 5.68836E-20
 -1      3197 4.33165E-05-1.04507E-05-1.37875E-05 4.45579E-06 8.25910E-19 8.58786E-19
 -1      3198 4.54916E-05-1.15559E-05-1.42040E-05-8.61978E-06 6.92794E-19 1.31078E-19
 -1      3199 1.34849E-04-6.15072E-05-3.10080E-05-1.17586E-05-1.89682E-19 1.09161E-19
 -1      3200 5.43318E-05-1.76659E-05-1.55052E-05 2.32690E-05 7.07153E-19 2.60463E-19
 -1      3201 4.63518E-05-1.23528E-05-1.40522E-05 1.37587E-05 7.21176E-19 1.15324E-18
 -1      3202 5.20201E-05-1.20375E-05-1.67356E-05 6.88140E-06 6.73312E-19 8.77420E-19
 -1      3203 7.24824E-05-2.90831E-05-1.85148E-05 3.02670E-05-3.72165E-19-8.20987E-19
 -1      3204 5.78403E-05-1.86801E-05-1.63458E-05 2.21687E-05 6.12511E-20 2.75286E-21
 -1      3205 1.24784E-04-2.81981E-05-4.17880E-05-1.27649E-05-3.50566E-19 7.69212E-20
 -1      3206 1.30547E-04-3.79513E-05-3.98282E-05-1.01141E-05-3.96094E-19 1.59136E-19
 -1      3207 8.92583E-05-2.29236E-05-2.84719E-05 1.57664E-05-4.57009E-19 1.10399E-19
 -1      3208 8.97099E-05-2.39689E-05-2.81151E-05 1.72425E-05-8.79749E-19 3.84965E-19
 -1      3209 9.32333E-05-2.43629E-05-2.95436E-05 8.13602E-06-1.09649E-20-5.76034E-19
 -1      3210 9.30526E-05-2.39955E-05-2.95819E-05 9.15029E-06 9.16610E-19-6.69956E-19
 -1      3211 9.40614E-05-2.52753E-05-2.95009E-05 6.43442E-06 5.53949E-20-6.16885E-19
 -1      3212 9.39533E-05-2.49178E-05-2.95747E-05 7.28697E-06-3.74679E-19-5.01267E-19
 -1      3213 9.17056E-05-2.34983E-05-2.92058E-05 7.34337E-06-4.51250E-20-1.57121E-19
 -1      3214 9.46127E-05-2.60525E-05-2.93988E-05 5.03100E-06-2.82992E-19-5.50074E-19
 -1      3215 9.45707E-05-2.57486E-05-2.94845E-05 5.73214E-06 1.53659E-19-1.37840E-19
 -1      3216 9.29102E-05-2.46133E-05-2.92520E-05 5.87020E-06 9.49634E-21-2.81665E-19
 -1      3217 9.49550E-05-2.66738E-05-2.92752E-05 3.88834E-06 3.55620E-19-6.62381E-19
 -1      3218 9.49590E-05-2.64315E-05-2.93593E-05 4.45450E-06-7.26647E-20-8.15124E-19
 -1      3219 9.37468E-05-2.55420E-05-2.92186E-05 4.63806E-06-2.89122E-19-1.14692E-18
 -1      3220 9.51528E-05-2.71537E-05-2.91511E-05 2.97018E-06-1.93569E-18 8.35342E-19
 -1      3221 9.51833E-05-2.69670E-05-2.92271E-05 3.42046E-06-9.10910E-19 1.63927E-19
 -1      3222 9.43086E-05-2.62809E-05-2.91472E-05 3.61868E-06-4.76201E-19 9.34832E-19
 -1      3223 9.52568E-05-2.75173E-05-2.90375E-05 2.24138E-06 8.59970E-20-7.40688E-20
 -1      3224 9.52991E-05-2.73759E-05-2.91028E-05 2.59506E-06-1.38787E-18 1.12507E-19
 -1      3225 9.46753E-05-2.68532E-05-2.90621E-05 2.78692E-06-1.23880E-18 1.54223E-18
 -1      3226 9.53034E-05-2.77901E-05-2.89388E-05 1.66928E-06 1.38861E-18-1.04547E-19
 -1      3227 9.53482E-05-2.76838E-05-2.89930E-05 1.94413E-06 1.15831E-18 3.15625E-19
 -1      3228 9.49086E-05-2.72897E-05-2.89770E-05 2.11755E-06 5.08024E-19 1.96547E-19
 -1      3229 9.53174E-05-2.79940E-05-2.88561E-05 1.22490E-06 5.19663E-19 9.96253E-19
 -1      3230 9.53591E-05-2.79143E-05-2.89000E-05 1.43640E-06 1.28211E-18 3.94455E-19
 -1      3231 9.50535E-05-2.76197E-05-2.88989E-05 1.58584E-06 1.09782E-18 2.40585E-18
 -1      3232 9.53143E-05-2.81463E-05-2.87886E-05 8.83312E-07-2.66683E-19 2.13446E-18
 -1      3233 9.53502E-05-2.80864E-05-2.88234E-05 1.04449E-06-4.01323E-19 1.28692E-18
 -1      3234 9.51412E-05-2.78681E-05-2.88309E-05 1.16876E-06-2.75562E-20 1.79399E-18
 -1      3235 9.53035E-05-2.82600E-05-2.87345E-05 6.23533E-07 2.40400E-18 2.26301E-18
 -1      3236 9.53329E-05-2.82150E-05-2.87617E-05 7.45131E-07 1.42965E-18 2.31539E-18
 -1      3237 9.51928E-05-2.80546E-05-2.87735E-05 8.45568E-07 6.98645E-19 1.13600E-18
 -1      3238 9.52904E-05-2.83449E-05-2.86921E-05 4.28218E-07 7.88086E-19 2.01184E-18
 -1      3239 9.53135E-05-2.83109E-05-2.87129E-05 5.18955E-07 2.25912E-18 2.00552E-18
 -1      3240 9.52219E-05-2.81943E-05-2.87263E-05 5.98208E-07 2.15023E-18 2.11052E-18
 -1      3241 9.52778E-05-2.84083E-05-2.86591E-05 2.83219E-07 8.76625E-19 1.30982E-18
 -1      3242 9.52952E-05-2.83826E-05-2.86750E-05 3.50085E-07 4.79064E-19 1.79671E-18
 -1      3243 9.52374E-05-2.82987E-05-2.86883E-05 4.11306E-07 6.62056E-19 1.85201E-18
 -1      3244 9.52669E-05-2.84556E-05-2.86340E-05 1.77168E-07-9.33176E-19 4.42469E-19
 -1      3245 9.52796E-05-2.84362E-05-2.86458E-05 2.25691E-07 3.09421E-19 1.70254E-18
 -1      3246 9.52448E-05-2.83766E-05-2.86581E-05 2.72043E-07 5.76821E-19 1.32773E-18
 -1      3247 9.52583E-05-2.84911E-05-2.86149E-05 1.01096E-07-1.18977E-18 1.37172E-18
 -1      3248 9.52671E-05-2.84762E-05-2.86236E-05 1.35569E-07-1.13770E-18 7.45486E-19
 -1      3249 9.52475E-05-2.84345E-05-2.86344E-05 1.69937E-07-7.50380E-19 3.99239E-18
 -1      3250 9.52517E-05-2.85178E-05-2.86005E-05 4.81734E-08 1.80706E-19 5.63796E-19
 -1      3251 9.52577E-05-2.85064E-05-2.86069E-05 7.18996E-08-1.55975E-20 1.15706E-18
 -1      3252 9.52478E-05-2.84777E-05-2.86159E-05 9.67570E-08-3.68349E-19 2.35576E-18
 -1      3253 9.52472E-05-2.85387E-05-2.85896E-05 1.25955E-08 1.57631E-18-1.39436E-18
 -1      3254 9.52507E-05-2.85293E-05-2.85943E-05 2.82198E-08 1.20305E-18-3.93250E-19
 -1      3255 9.52466E-05-2.85101E-05-2.86016E-05 4.59969E-08 1.70648E-18-1.13885E-18
 -1      3256 9.52461E-05-2.85505E-05-2.85835E-05-2.17991E-09 4.25520E-19-1.81052E-18
 -1      3257 1.17166E-04-5.44529E-05-2.65222E-05-2.43738E-05 2.35724E-18-2.05752E-18
 -1      3258 1.25342E-04-5.64680E-05-2.97674E-05-1.67677E-05 2.41680E-18-1.75125E-18
 -1      3259 9.52106E-05-2.84856E-05-2.85965E-05-7.35439E-09 1.89679E-19 2.27758E-18
 -1      3260 9.52086E-05-2.84830E-05-2.85969E-05-4.43193E-09 1.04269E-18 7.22484E-19
 -1      3261 9.52289E-05-2.85139E-05-2.85922E-05-1.36522E-08 7.50648E-19-1.07551E-19
 -1      3262 9.52245E-05-2.85069E-05-2.85935E-05-1.46038E-08 4.81100E-19 2.09701E-18
 -1      3263 1.16164E-04-1.25995E-05-4.48219E-05-7.02309E-06-2.39922E-19-6.01407E-19
 -1      3264 1.18236E-04-1.84226E-05-4.31018E-05-1.08681E-05 3.10226E-20-1.84627E-19
 -1      3265 9.52074E-05-2.84809E-05-2.85972E-05 1.07975E-09 2.09718E-19-2.17673E-18
 -1      3266 9.52080E-05-2.84812E-05-2.85973E-05 4.46725E-09 1.09669E-18-2.66077E-18
 -1      3267 9.51989E-05-2.84580E-05-2.86028E-05-3.36892E-09 1.20423E-18-7.83204E-20
 -1      3268 9.49723E-05-2.30026E-05-3.08400E-05-2.65684E-06 2.88071E-19-1.20624E-18
 -1      3269 9.52389E-05-2.40771E-05-3.05106E-05-1.35612E-06 1.99400E-19-1.07268E-18
 -1      3270 9.50503E-05-2.37488E-05-3.05563E-05-8.72011E-07 2.24557E-19-9.37338E-19
 -1      3271 9.52186E-05-2.84972E-05-2.85948E-05-1.29374E-08 1.09350E-18 2.78336E-18
 -1      3272 9.52146E-05-2.84921E-05-2.85957E-05-1.14717E-08 1.96418E-19 2.78718E-18
 -1      3273 9.52047E-05-2.84667E-05-2.86016E-05-1.47190E-08 1.11887E-18 2.56990E-18
 -1      3274 9.52154E-05-2.84830E-05-2.85994E-05-2.17506E-08 4.81081E-21 2.17551E-18
 -1      3275 8.88090E-05-2.51375E-05-2.72821E-05 1.93754E-05-1.12898E-18 1.08804E-19
 -1      3276 9.06348E-05-2.79527E-05-2.67557E-05 2.09820E-05-8.02878E-19 2.45289E-19
 -1      3277 8.29783E-05-2.16256E-05-2.62142E-05 1.79515E-05-1.02071E-18-8.10295E-19
 -1      3278 5.12319E-05-1.53328E-05-1.49638E-05-1.77726E-05 5.41413E-19-2.64910E-19
 -1      3279 6.13684E-05-2.16127E-05-1.68386E-05-2.55574E-05 2.17793E-19-5.92711E-19
 -1      3280 9.20875E-05-2.34196E-05-2.94640E-05 1.01789E-05 1.39379E-18-8.51261E-19
 -1      3281 9.18788E-05-2.31627E-05-2.94303E-05 1.13546E-05 5.99580E-19 9.03327E-20
 -1      3282 9.00461E-05-2.22671E-05-2.90135E-05 9.10086E-06 1.08999E-18 4.33300E-19
 -1      3283 9.06489E-05-2.27089E-05-2.91591E-05 1.26608E-05-1.82768E-19 1.96502E-19
 -1      3284 9.05651E-05-2.28508E-05-2.89860E-05 1.40640E-05-2.37740E-19 5.28409E-19
 -1      3285 8.52670E-05-2.05445E-05-2.76933E-05 1.40708E-05-4.38111E-19-9.35511E-19
 -1      3286 8.78639E-05-2.11160E-05-2.85650E-05 1.12666E-05 1.93511E-19 5.59505E-20
 -1      3287 8.97923E-05-2.25093E-05-2.88080E-05-1.39294E-05 3.09120E-19 6.11759E-19
 -1      3288 9.00785E-05-2.25836E-05-2.89685E-05-1.27006E-05 1.78238E-19 4.93888E-19
 -1      3289 8.79497E-05-2.12961E-05-2.85233E-05-1.12809E-05 2.40399E-19 5.04964E-19
 -1      3290 8.51622E-05-2.03625E-05-2.77161E-05-1.36091E-05 2.05466E-19 6.83119E-19
 -1      3291 9.49149E-05-2.58230E-05-2.96066E-05-4.61455E-06 4.21334E-19 3.82991E-19
 -1      3292 9.49990E-05-2.58203E-05-2.96466E-05-3.76276E-06 4.75568E-19 4.63616E-19
 -1      3293 8.59345E-05-2.88547E-05-2.42857E-05 2.42344E-05-7.55474E-19-3.30211E-19
 -1      3294 9.01682E-05-3.44409E-05-2.35436E-05 2.59346E-05-3.05726E-19-3.19517E-19
 -1      3295 1.29571E-04-5.50097E-05-3.18796E-05-9.52922E-06 3.03686E-18-7.41789E-19
 -1      3296 1.31341E-04-5.14683E-05-3.45120E-05-2.10388E-06 2.47507E-18-9.61859E-19
 -1      3297 1.24924E-04-5.40040E-05-3.03635E-05-1.10847E-05 3.26527E-18-1.49201E-18
 -1      3298 1.14336E-04-1.01195E-05-4.51257E-05 3.07436E-06 3.93659E-19-1.75025E-18
 -1      3299 1.14556E-04-9.90152E-06-4.52646E-05-3.08538E-06 1.42513E-19-1.29298E-18
 -1      3300 1.11105E-04-1.38055E-05-4.18763E-05-4.54484E-06 6.22146E-19-1.07428E-18
 -1      3301 1.11276E-04-5.28316E-05-2.51436E-05 2.82589E-05 1.26261E-20 1.15673E-20
 -1      3302 9.72419E-05-4.64471E-05-2.12771E-05 3.52588E-05 3.53107E-19 1.13224E-19
 -1      3303 4.83916E-05-1.30937E-05-1.48888E-05 1.37655E-05 1.73139E-19-5.14043E-19
 -1      3304 4.43628E-05-1.01002E-05-1.42042E-05 2.95218E-06 6.83625E-19-1.43890E-18
 -1      3305 9.22722E-05-4.34301E-05-2.03970E-05-3.62998E-05 1.14011E-18-1.02216E-18
 -1      3306 1.04551E-04-5.04937E-05-2.34290E-05-3.26893E-05 1.90529E-18-1.24479E-18
 -1      3307 9.53148E-05-2.36162E-05-3.07315E-05 2.58439E-06 3.82715E-19 5.96323E-19
 -1      3308 9.45138E-05-2.19354E-05-3.10978E-05 3.15285E-06 4.99249E-19 6.85880E-19
 -1      3309 9.45668E-05-2.25135E-05-3.08768E-05 1.90524E-06 3.95459E-19 6.05896E-19
 -1      3310 9.53642E-05-2.44155E-05-3.04133E-05 1.07228E-06 2.92214E-19 6.04366E-19
 -1      3311 1.29936E-04-5.56995E-05-3.21433E-05 9.36690E-06-6.15925E-19 6.84747E-19
 -1      3312 1.23322E-04-5.59714E-05-2.87544E-05 1.79332E-05-1.58991E-19 4.73386E-19
 -1      3313 1.32475E-04-4.50234E-05-3.79394E-05-5.64605E-06-3.23408E-19 2.85344E-19
 -1      3314 1.32538E-04-5.06370E-05-3.50484E-05 4.60374E-07-4.80532E-19 6.57774E-19
 -1      3315 1.27801E-04-4.08188E-05-3.74214E-05-8.74051E-06-1.50481E-19 3.71212E-19
 -1      3316 9.39760E-05-2.08008E-05-3.13812E-05-3.97109E-06 4.16041E-19-1.23812E-18
 -1      3317 9.44890E-05-2.19379E-05-3.10923E-05-3.24514E-06 3.68832E-19-1.22564E-18
 -1      3318 9.31049E-05-1.93916E-05-3.15864E-05-3.60099E-06 5.59177E-19-8.96022E-19
 -1      3319 9.08219E-05-1.65534E-05-3.18458E-05 1.41670E-06 7.61925E-19-2.85630E-19
 -1      3320 9.06488E-05-1.63266E-05-3.18649E-05 8.95170E-07 7.92727E-19-2.85793E-19
 -1      3321 4.23279E-05-1.07073E-05-1.32408E-05-9.44267E-06 8.02398E-19 1.14773E-18
 -1      3322 4.79332E-05-1.55637E-05-1.34997E-05-2.29481E-05 2.14114E-19 1.29977E-18
 -1      3323 9.05926E-05-1.62557E-05-3.18737E-05 5.15976E-07 7.95792E-19-1.68256E-19
 -1      3324 9.06326E-05-1.62876E-05-3.18708E-05-2.59000E-08 7.63785E-19-3.18771E-19
 -1      3325 9.13360E-05-1.75974E-05-3.15805E-05 6.27431E-07 6.52763E-19-2.72941E-19
 -1      3326 8.57721E-05-3.80302E-05-2.01595E-05-3.43490E-05 8.79326E-19-1.02682E-18
 -1      3327 5.75696E-05-1.98133E-05-1.56863E-05-2.71475E-05 2.06438E-19 8.27022E-19
 -1      3328 6.78169E-05-2.50973E-05-1.84059E-05-2.94877E-05-1.20782E-19 4.89691E-19
 -1      3329 5.78930E-05-1.66798E-05-1.73566E-05-2.10727E-05 3.85135E-19 1.53588E-18
 -1      3330 1.19654E-04-5.25671E-05-2.87144E-05 1.46203E-05-3.01600E-19 7.85039E-19
 -1      3331 1.17334E-04-5.41474E-05-2.70103E-05 2.20433E-05-1.30390E-19 1.87813E-19
 -1      3332 1.08795E-04-4.90027E-05-2.55866E-05 2.42768E-05 1.32084E-20-9.91690E-20
 -1      3333 9.46896E-05-2.51139E-05-2.98161E-05-3.12667E-06 4.90973E-19 5.62734E-19
 -1      3334 9.52234E-05-2.57680E-05-2.97665E-05-2.92337E-06 5.47014E-19 4.49315E-19
 -1      3335 9.52854E-05-2.55598E-05-2.98748E-05-1.95446E-06 4.95194E-19 5.19410E-19
 -1      3336 9.19161E-05-1.77478E-05-3.17900E-05-2.60643E-06 6.67705E-19-8.18751E-19
 -1      3337 9.24652E-05-1.85413E-05-3.17008E-05-3.14008E-06 5.91806E-19-8.97792E-19
 -1      3338 9.31308E-05-1.97172E-05-3.14569E-05-2.69227E-06 5.18619E-19-8.54992E-19
 -1      3339 9.34625E-05-2.05435E-05-3.12262E-05 2.13376E-06 5.35081E-19 1.77192E-19
 -1      3340 9.25640E-05-1.88717E-05-3.16039E-05 2.96787E-06 7.38954E-19 1.56784E-19
 -1      3341 9.19779E-05-1.80640E-05-3.16917E-05 2.54068E-06 7.53753E-19 1.11094E-19
 -1      3342 9.19556E-05-2.36603E-05-2.92475E-05-7.78447E-06 2.10681E-19 1.28839E-19
 -1      3343 9.37133E-05-2.48800E-05-2.94908E-05-7.83054E-06 1.54012E-19 2.21768E-19
 -1      3344 9.38851E-05-2.51569E-05-2.94698E-05-6.96777E-06 1.10850E-19 9.55330E-20
 -1      3345 1.19238E-04-2.40192E-05-4.11459E-05-1.23998E-05-5.85247E-20-9.14266E-20
 -1      3346 1.19110E-04-2.91181E-05-3.86355E-05-1.22366E-05-3.42784E-20 3.12873E-20
 -1      3347 1.12854E-04-2.03224E-05-3.97644E-05-1.08082E-05 1.54742E-19-3.21158E-19
 -1      3348 6.19354E-05-2.15647E-05-1.68064E-05 2.72191E-05 6.90491E-19-5.79212E-19
 -1      3349 5.99953E-05-1.73539E-05-1.80911E-05 2.00735E-05 5.31725E-19 1.97994E-20
 -1      3350 7.02559E-05-2.66313E-05-1.87714E-05 2.92353E-05 5.79887E-19-3.67665E-19
 -1      3351 4.92163E-05-1.09758E-05-1.59824E-05-3.85684E-06 1.54081E-19 1.05456E-19
 -1      3352 9.38998E-05-4.04917E-05-2.25577E-05 2.93542E-05-4.12134E-20-1.13608E-19
 -1      3353 9.42339E-05-2.16585E-05-3.10962E-05-2.53894E-06 3.81546E-19-8.19472E-19
 -1      3354 7.27636E-05-2.59221E-05-1.96941E-05-2.59751E-05-1.15673E-20-3.80212E-19
 -1      3355 9.52453E-05-2.85376E-05-2.85890E-05 9.32680E-09 1.33201E-18-9.83429E-19
 -1      3356 1.11032E-04-5.09890E-05-2.55841E-05-2.54750E-05 2.38008E-18-2.30754E-18
 -1      3357 9.52180E-05-2.84941E-05-2.85963E-05 1.56981E-08-2.33264E-19 6.18507E-19
 -1      3358 9.52227E-05-2.84997E-05-2.85955E-05 1.63664E-08-3.62817E-19 1.41894E-18
 -1      3359 7.67776E-05-2.30436E-05-2.28084E-05 2.25661E-05-7.71885E-19-1.01504E-18
 -1      3360 9.53930E-05-2.53663E-05-3.00149E-05-1.12090E-06 3.25747E-19 5.60159E-19
 -1      3361 9.54207E-05-2.49057E-05-3.02118E-05 6.25365E-08 2.10436E-19 5.20250E-19
 -1      3362 9.50797E-05-2.40165E-05-3.04519E-05 4.95377E-07 2.72328E-19 6.58202E-19
 -1      3363 9.50076E-05-2.47750E-05-3.00991E-05-1.41005E-06 4.05969E-19 4.76399E-19
 -1      3364 9.52419E-05-2.85438E-05-2.85850E-05-5.50588E-10-1.07492E-20 8.58361E-19
 -1      3365 9.52101E-05-2.84838E-05-2.85972E-05 9.71869E-09 8.23331E-19-2.87446E-19
 -1      3366 9.52131E-05-2.84871E-05-2.85969E-05 1.22705E-08-1.71115E-19 7.65765E-19
 -1      3367 9.52080E-05-2.84684E-05-2.86023E-05 1.95840E-08-5.56468E-19 1.00208E-18
 -1      3368 9.52001E-05-2.84586E-05-2.86031E-05 9.20599E-09-7.21736E-20-1.39950E-18
 -1      3369 9.45423E-05-2.56567E-05-2.95288E-05-5.38436E-06 3.80358E-19 1.97033E-19
 -1      3370 9.41112E-05-2.50421E-05-2.95944E-05-4.75244E-06 4.40719E-19 3.83753E-19
 -1      3371 9.44294E-05-2.55048E-05-2.95319E-05-6.20731E-06 2.28647E-19 3.00555E-19
 -1      3372 9.09722E-05-4.08622E-05-2.11631E-05 3.30618E-05 6.57192E-19 1.36994E-19
 -1      3373 9.52343E-05-2.85207E-05-2.85917E-05-1.55025E-08-2.42092E-19-1.88117E-18
 -1      3374 9.52319E-05-2.85181E-05-2.85918E-05-1.46747E-08 9.99177E-19-4.99930E-19
 -1      3375 9.52253E-05-2.84971E-05-2.85976E-05-2.50368E-08-2.37245E-19 4.82481E-19
 -1      3376 9.52325E-05-2.85065E-05-2.85965E-05-2.74849E-08 3.82344E-20-8.14223E-19
 -1      3377 5.47296E-05-1.35529E-05-1.71997E-05-1.14254E-05 6.75032E-19 1.28643E-19
 -1      3378 6.00012E-05-1.65626E-05-1.83061E-05 1.70039E-05-1.24673E-19 1.95506E-19
 -1      3379 9.52289E-05-2.85098E-05-2.85943E-05 1.69579E-08 1.55811E-19 1.25828E-18
 -1      3380 9.52338E-05-2.85163E-05-2.85931E-05 1.54546E-08 3.32938E-19 1.79635E-18
 -1      3381 9.52204E-05-2.84855E-05-2.86004E-05 2.49799E-08-5.30542E-19 1.17914E-18
 -1      3382 1.27450E-04-4.91898E-05-3.36276E-05 3.25941E-07 2.36860E-18-5.37853E-19
 -1      3383 1.31031E-04-4.73937E-05-3.59359E-05 3.54222E-06 1.86943E-18-1.27388E-18
 -1      3384 1.27663E-04-4.14002E-05-3.71907E-05 8.30137E-06 1.43490E-18-1.24900E-18
 -1      3385 1.13407E-04-1.33233E-05-4.31767E-05 5.45881E-06 5.07426E-19-2.09634E-18
 -1      3386 9.14241E-05-1.71183E-05-3.18586E-05-2.10123E-06 7.00488E-19-8.44707E-19
 -1      3387 9.20702E-05-1.82268E-05-3.16418E-05-1.83664E-06 5.98795E-19-8.42506E-19
 -1      3388 9.10231E-05-1.65939E-05-3.19085E-05-1.51715E-06 7.16435E-19-7.26916E-19
 -1      3389 1.11917E-04-5.04009E-05-2.61453E-05 2.55145E-05 2.73645E-19-3.38284E-19
 -1      3390 1.24585E-04-2.63069E-05-4.24938E-05 1.27875E-05-1.72583E-20-1.73324E-18
 -1      3391 1.19045E-04-2.21051E-05-4.18156E-05 1.24807E-05-8.39621E-20-2.24855E-18
 -1      3392 1.24695E-04-3.19398E-05-3.99606E-05 1.19447E-05 3.43631E-19-1.84256E-18
 -1      3393 9.14829E-05-1.74152E-05-3.17633E-05 2.23705E-06 8.54605E-19 9.22286E-21
 -1      3394 9.10940E-05-1.69050E-05-3.18099E-05 1.75620E-06 8.35809E-19-1.21577E-19
 -1      3395 9.16510E-05-1.80055E-05-3.15352E-05 1.24231E-06 6.78314E-19-1.06241E-19
 -1      3396 9.24055E-05-1.90084E-05-3.14255E-05 1.76505E-06 6.98540E-19 1.67936E-20
 -1      3397 1.28523E-04-5.15318E-05-3.30469E-05 2.88924E-06-3.35409E-19 5.09834E-19
 -1      3398 5.56210E-05-1.20282E-05-1.85994E-05-6.89375E-06 5.61732E-19 5.33260E-19
 -1      3399 6.07809E-05-1.54316E-05-1.92727E-05-1.60586E-05 4.87355E-19-1.40131E-19
 -1      3400 9.55087E-05-2.58610E-05-2.98412E-05 2.10026E-06 2.76992E-19-5.23019E-19
 -1      3401 9.56426E-05-2.64103E-05-2.96735E-05 2.75852E-06 2.18025E-19-3.21208E-19
 -1      3402 9.57639E-05-2.69071E-05-2.95021E-05 3.34196E-06-4.17395E-20-3.55581E-19
 -1      3403 9.59333E-05-2.73895E-05-2.93746E-05 3.84636E-06-1.21849E-19-4.37634E-19
 -1      3404 9.53753E-05-2.62036E-05-2.96494E-05 3.02639E-06 8.49263E-20-2.89078E-19
 -1      3405 9.60944E-05-2.78607E-05-2.92338E-05 4.33659E-06-1.29951E-19-5.51580E-19
 -1      3406 9.63708E-05-2.83774E-05-2.91360E-05 4.70418E-06-5.66921E-20-5.99766E-19
 -1      3407 9.56445E-05-2.72444E-05-2.93235E-05 4.14471E-06-1.36774E-19-3.51419E-19
 -1      3408 9.66677E-05-2.89270E-05-2.90192E-05 5.10672E-06-9.71990E-20-6.17076E-19
 -1      3409 9.71192E-05-2.95668E-05-2.89457E-05 5.33067E-06-1.39977E-19-5.76011E-19
 -1      3410 9.60848E-05-2.83359E-05-2.90503E-05 5.10161E-06-1.49471E-19-5.69167E-19
 -1      3411 9.76536E-05-3.02869E-05-2.88529E-05 5.62293E-06-4.74606E-20-5.74716E-19
 -1      3412 9.83439E-05-3.11194E-05-2.88062E-05 5.66571E-06 1.77444E-19-4.05459E-19
 -1      3413 9.68919E-05-2.96913E-05-2.88231E-05 5.88867E-06 1.24061E-20-6.65613E-19
 -1      3414 9.92216E-05-3.20793E-05-2.87477E-05 5.78266E-06 2.18101E-19-2.79658E-19
 -1      3415 1.00194E-04-3.31328E-05-2.87412E-05 5.57000E-06 9.16911E-20-8.34869E-20
 -1      3416 9.82740E-05-3.14946E-05-2.86522E-05 6.43036E-06 2.62413E-19-3.84686E-19
 -1      3417 1.01504E-04-3.43473E-05-2.87426E-05 5.38707E-06-7.79163E-20 1.40585E-19
 -1      3418 1.02746E-04-3.55638E-05-2.88039E-05 4.81017E-06-8.02837E-20 3.35562E-19
 -1      3419 1.00433E-04-3.38596E-05-2.85745E-05 6.54720E-06 1.86808E-19-2.87341E-19
 -1      3420 1.04508E-04-3.69315E-05-2.89119E-05 4.13457E-06-2.34615E-19 2.80223E-19
 -1      3421 1.05896E-04-3.80972E-05-2.90832E-05 3.07627E-06-1.22842E-19 7.04663E-20
 -1      3422 1.03495E-04-3.67311E-05-2.86651E-05 5.91919E-06-1.13420E-19-1.61774E-19
 -1      3423 1.07956E-04-3.93122E-05-2.93663E-05 1.69192E-06-1.60421E-19-1.11383E-19
 -1      3424 1.09209E-04-3.99773E-05-2.97040E-05 1.12001E-07-2.71044E-19-1.70568E-19
 -1      3425 1.07339E-04-3.97156E-05-2.90478E-05 4.07082E-06-2.61876E-19 2.33976E-20
 -1      3426 1.11117E-04-4.04435E-05-3.02511E-05-2.04376E-06-1.66091E-19-2.70382E-19
 -1      3427 1.11748E-04-4.00406E-05-3.07998E-05-3.92203E-06 9.89771E-20-8.69863E-21
 -1      3428 1.11435E-04-4.15941E-05-2.99191E-05 4.65767E-07-2.35945E-20 5.35823E-20
 -1      3429 1.12960E-04-3.90155E-05-3.16708E-05-6.77090E-06 1.08341E-19-2.57475E-19
 -1      3430 1.12422E-04-3.67054E-05-3.24445E-05-8.34153E-06-1.83311E-19-1.48750E-19
 -1      3431 1.14728E-04-4.16166E-05-3.14195E-05-4.23795E-06-2.41047E-19-2.47823E-19
 -1      3432 1.11723E-04-3.35863E-05-3.35958E-05-1.03110E-05-3.64601E-19-3.74692E-19
 -1      3433 1.10200E-04-2.99331E-05-3.44205E-05-1.04133E-05-2.86416E-19-4.32152E-19
 -1      3434 1.15131E-04-3.68583E-05-3.35299E-05-9.20248E-06-1.66257E-19-9.22174E-19
 -1      3435 1.09888E-04-2.62821E-05-3.59513E-05-1.09177E-05-7.75995E-20-5.21972E-19
 -1      3436 1.07878E-04-2.22965E-05-3.66896E-05-8.91502E-06 6.00215E-19-5.11105E-19
 -1      3437 1.05714E-04-1.63010E-05-3.84453E-05-3.55146E-06 1.02430E-18-5.62602E-19
 -1      3438 1.05441E-04-1.56146E-05-3.86489E-05 2.56937E-07 6.36135E-19-5.10953E-19
 -1      3439 1.07025E-04-2.28287E-05-3.60686E-05 9.45959E-06-5.00848E-19 2.69658E-19
 -1      3440 1.08838E-04-2.67957E-05-3.53161E-05 1.09637E-05-4.20075E-19 4.57966E-19
 -1      3441 1.10680E-04-3.09790E-05-3.41254E-05 1.08518E-05-3.84920E-19 8.80193E-19
 -1      3442 1.12094E-04-3.46211E-05-3.32679E-05 1.02991E-05 2.42559E-19 6.51200E-19
 -1      3443 1.12936E-04-2.98735E-05-3.56143E-05 1.15309E-05-6.20187E-20-2.88679E-19
 -1      3444 1.12225E-04-3.72602E-05-3.21677E-05 8.01973E-06 9.99036E-19 9.85721E-19
 -1      3445 1.12414E-04-3.90819E-05-3.14428E-05 6.35960E-06 1.26783E-18 1.59538E-18
 -1      3446 1.15122E-04-3.77603E-05-3.31973E-05 8.83934E-06 9.25430E-19 4.01811E-19
 -1      3447 1.11200E-04-3.98501E-05-3.06177E-05 3.80819E-06 9.69954E-19 1.90766E-18
 -1      3448 1.10369E-04-4.00603E-05-3.01024E-05 1.90757E-06 9.48500E-19 2.09412E-18
 -1      3449 1.13892E-04-4.12593E-05-3.10854E-05 3.84564E-06 1.28128E-18 1.46733E-18
 -1      3450 1.08317E-04-3.93205E-05-2.96054E-05-5.40284E-08 9.81322E-20 2.08996E-18
 -1      3451 1.06991E-04-3.85142E-05-2.92965E-05-1.51143E-06 4.32872E-19 2.17097E-18
 -1      3452 1.10342E-04-4.10412E-05-2.97281E-05-8.41999E-07 5.60786E-19 2.30481E-18
 -1      3453 1.04897E-04-3.72039E-05-2.90365E-05-2.70706E-06 6.53932E-20 1.80405E-18
 -1      3454 1.03485E-04-3.59942E-05-2.88775E-05-3.62213E-06 2.71026E-20 1.18539E-18
 -1      3455 1.06131E-04-3.86793E-05-2.89569E-05-3.85082E-06-1.09180E-19 1.58323E-18
 -1      3456 1.01738E-04-3.46245E-05-2.87725E-05-4.14402E-06 1.98737E-19 1.31313E-18
 -1      3457 1.00501E-04-3.34319E-05-2.87081E-05-4.60451E-06 4.86365E-19 1.25805E-18
 -1      3458 1.02265E-04-3.56403E-05-2.86014E-05-5.32504E-06-3.55741E-20 1.20211E-18
 -1      3459 9.92079E-05-3.22670E-05-2.86890E-05-4.68785E-06 5.28476E-19 6.47959E-19
 -1      3460 9.82457E-05-3.12807E-05-2.86752E-05-4.82454E-06 2.87518E-19 1.11124E-18
 -1      3461 9.92431E-05-3.28495E-05-2.84936E-05-5.71617E-06 2.50147E-19 1.05765E-18
 -1      3462 9.73725E-05-3.04060E-05-2.86953E-05-4.65860E-06 7.18134E-19 1.26012E-18
 -1      3463 9.66857E-05-2.96786E-05-2.87028E-05-4.59038E-06 8.30134E-19 1.48003E-18
 -1      3464 9.71083E-05-3.06495E-05-2.85110E-05-5.47225E-06 4.44511E-19 1.34425E-18
 -1      3465 9.61473E-05-2.90849E-05-2.87349E-05-4.30391E-06-8.91405E-20 1.19275E-18
 -1      3466 9.56916E-05-2.85980E-05-2.87468E-05-4.11994E-06-5.77261E-19 7.33545E-19
 -1      3467 9.57283E-05-2.90924E-05-2.85775E-05-4.90954E-06 1.72215E-20 4.83157E-19
 -1      3468 9.53962E-05-2.82365E-05-2.87765E-05-3.79129E-06-9.78370E-19 5.82013E-19
 -1      3469 9.51153E-05-2.79443E-05-2.87846E-05-3.55244E-06-1.03675E-18 8.53157E-20
 -1      3470 9.49200E-05-2.80957E-05-2.86510E-05-4.22462E-06-9.65684E-19 6.16829E-19
 -1      3471 9.49838E-05-2.77569E-05-2.88059E-05-3.22628E-06-1.42893E-18-5.75362E-19
 -1      3472 9.48255E-05-2.76081E-05-2.88074E-05-2.97199E-06-1.39505E-18-7.02651E-19
 -1      3473 9.45115E-05-2.75345E-05-2.87114E-05-3.52855E-06-1.56986E-18-3.72806E-20
 -1      3474 9.47962E-05-2.75407E-05-2.88190E-05-2.67174E-06-3.12824E-19-6.09408E-19
 -1      3475 9.47182E-05-2.74893E-05-2.88139E-05-2.42581E-06 1.12004E-19-1.37852E-19
 -1      3476 9.43631E-05-2.72844E-05-2.87515E-05-2.88003E-06-6.94882E-19-1.13823E-19
 -1      3477 9.47469E-05-2.74980E-05-2.88169E-05-2.16161E-06-1.57752E-19-1.34214E-20
 -1      3478 9.47182E-05-2.75078E-05-2.88067E-05-1.93725E-06-6.71326E-19 1.35074E-19
 -1      3479 9.43700E-05-2.72394E-05-2.87717E-05-2.30525E-06 2.90058E-19-2.23574E-19
 -1      3480 9.47752E-05-2.75602E-05-2.88031E-05-1.71209E-06-5.59983E-19 3.91688E-19
 -1      3481 9.47743E-05-2.76044E-05-2.87896E-05-1.51574E-06-4.14242E-19 8.52809E-19
 -1      3482 9.44602E-05-2.73184E-05-2.87753E-05-1.81219E-06-3.71066E-19 3.55499E-19
 -1      3483 9.48409E-05-2.76778E-05-2.87815E-05-1.32871E-06-1.61036E-18 9.25846E-19
 -1      3484 9.48539E-05-2.77380E-05-2.87664E-05-1.16230E-06-1.62227E-18 1.23175E-19
 -1      3485 9.45862E-05-2.74632E-05-2.87666E-05-1.39987E-06-9.62932E-19 1.20146E-19
 -1      3486 9.49189E-05-2.78172E-05-2.87556E-05-1.01018E-06-1.69968E-18 3.37455E-19
 -1      3487 9.49370E-05-2.78814E-05-2.87403E-05-8.72819E-07-2.42592E-18 5.92397E-20
 -1      3488 9.47189E-05-2.76342E-05-2.87499E-05-1.06221E-06-1.83335E-18 8.88636E-19
 -1      3489 9.49946E-05-2.79575E-05-2.87284E-05-7.51399E-07-1.26469E-18-1.17131E-19
 -1      3490 9.50130E-05-2.80186E-05-2.87138E-05-6.40586E-07-3.51679E-19 4.43711E-19
 -1      3491 9.48419E-05-2.78063E-05-2.87288E-05-7.90631E-07-1.62992E-18 1.35210E-18
 -1      3492 9.50609E-05-2.80866E-05-2.87019E-05-5.45345E-07-3.49224E-19 7.60049E-19
 -1      3493 9.50772E-05-2.81409E-05-2.86885E-05-4.57818E-07 4.20212E-20 9.41839E-19
 -1      3494 9.49474E-05-2.79651E-05-2.87060E-05-5.75803E-07 5.63112E-20 7.49726E-19
 -1      3495 9.51150E-05-2.81988E-05-2.86773E-05-3.84378E-07 1.53724E-19 4.39251E-19
 -1      3496 9.51282E-05-2.82449E-05-2.86655E-05-3.16631E-07-8.19487E-20 7.85896E-19
 -1      3497 9.50330E-05-2.81035E-05-2.86835E-05-4.08600E-07-1.25888E-19 1.40047E-18
 -1      3498 9.51568E-05-2.82925E-05-2.86553E-05-2.61003E-07-2.38459E-19 5.46400E-19
 -1      3499 9.51667E-05-2.83303E-05-2.86451E-05-2.09666E-07 2.15499E-19-9.48314E-20
 -1      3500 9.50992E-05-2.82194E-05-2.86624E-05-2.80583E-07-2.03331E-19-7.25946E-19
 -1      3501 9.51875E-05-2.83682E-05-2.86361E-05-1.68379E-07 5.31446E-19 6.17102E-20
 -1      3502 9.51945E-05-2.83984E-05-2.86276E-05-1.30404E-07 8.93306E-19-7.51969E-20
 -1      3503 9.51484E-05-2.83134E-05-2.86433E-05-1.84345E-07 1.25889E-19-1.46085E-18
 -1      3504 9.52089E-05-2.84284E-05-2.86198E-05-1.00278E-07 8.37113E-19 2.53060E-19
 -1      3505 9.52141E-05-2.84522E-05-2.86126E-05-7.34503E-08 7.47830E-19 3.74299E-19
 -1      3506 9.51833E-05-2.83877E-05-2.86264E-05-1.13409E-07 1.07907E-18 1.56653E-18
 -1      3507 8.80151E-05-2.13291E-05-2.85874E-05-8.45746E-06 2.63703E-19 5.67625E-19
 -1      3508 8.90458E-05-2.19669E-05-2.87789E-05-7.70272E-06 2.96746E-19 4.36512E-19
 -1      3509 7.62991E-05-1.80246E-05-2.49412E-05-1.45030E-05-5.33366E-21 7.27079E-19
 -1      3510 7.79538E-05-1.78538E-05-2.58449E-05-1.28385E-05 4.80079E-20 7.08321E-19
 -1      3511 9.04081E-05-2.29543E-05-2.89358E-05 6.06720E-06 2.05647E-19 1.00614E-19
 -1      3512 8.96743E-05-2.23261E-05-2.88673E-05 6.78576E-06 6.63899E-19 9.01034E-19
 -1      3513 9.37188E-05-2.60107E-05-2.90292E-05 3.12819E-06-1.41459E-18 8.85971E-19
 -1      3514 9.34853E-05-2.56660E-05-2.90636E-05 3.56505E-06-7.83480E-19-6.66971E-20
 -1      3515 9.42290E-05-2.66372E-05-2.89766E-05 2.43510E-06-4.63991E-19 7.52953E-19
 -1      3516 9.40786E-05-2.63700E-05-2.90154E-05 2.79356E-06-4.56609E-19 1.18159E-18
 -1      3517 9.33330E-05-2.57797E-05-2.89412E-05 2.74405E-06-7.75963E-19-2.68273E-19
 -1      3518 9.45756E-05-2.71191E-05-2.89164E-05 1.86637E-06 6.06517E-19 6.06603E-19
 -1      3519 9.44812E-05-2.69141E-05-2.89545E-05 2.15594E-06-2.76808E-19 1.96010E-19
 -1      3520 9.39324E-05-2.64522E-05-2.89133E-05 2.15992E-06 7.75713E-20-2.89193E-19
 -1      3521 9.48091E-05-2.74873E-05-2.88571E-05 1.40727E-06 1.05643E-18 1.95834E-18
 -1      3522 9.47512E-05-2.73309E-05-2.88916E-05 1.63778E-06 8.09673E-19 2.03092E-18
 -1      3523 9.43520E-05-2.69735E-05-2.88720E-05 1.66988E-06 1.66289E-19 4.60373E-19
 -1      3524 9.49652E-05-2.77672E-05-2.88027E-05 1.04243E-06 4.84192E-19 1.63819E-18
 -1      3525 9.49306E-05-2.76484E-05-2.88327E-05 1.22341E-06 1.32460E-18 2.65662E-18
 -1      3526 9.46439E-05-2.73748E-05-2.88268E-05 1.26755E-06 1.03415E-18 1.98392E-18
 -1      3527 9.50686E-05-2.79792E-05-2.87552E-05 7.56780E-07 1.39573E-18 4.76366E-19
 -1      3528 9.50487E-05-2.78892E-05-2.87804E-05 8.96996E-07 4.05524E-19 7.49572E-19
 -1      3529 9.48458E-05-2.76820E-05-2.87827E-05 9.43635E-07 1.99427E-18 9.58389E-19
 -1      3530 9.51364E-05-2.81393E-05-2.87150E-05 5.36373E-07 1.71565E-18 1.10135E-18
 -1      3531 9.51255E-05-2.80712E-05-2.87357E-05 6.43565E-07 1.69930E-18 5.73819E-19
 -1      3532 9.49844E-05-2.79160E-05-2.87425E-05 6.87478E-07 1.25316E-18-2.34521E-19
 -1      3533 9.51802E-05-2.82595E-05-2.86817E-05 3.68824E-07 1.32902E-19 1.65476E-18
 -1      3534 9.51747E-05-2.82083E-05-2.86984E-05 4.49632E-07 1.31772E-18 1.93255E-18
 -1      3535 9.50786E-05-2.80933E-05-2.87073E-05 4.88330E-07 7.19808E-19 4.49940E-20
 -1      3536 9.52077E-05-2.83494E-05-2.86546E-05 2.43444E-07 1.09300E-19 2.87659E-18
 -1      3537 9.52054E-05-2.83109E-05-2.86679E-05 3.03444E-07 2.20555E-19 1.94750E-18
 -1      3538 9.51416E-05-2.82269E-05-2.86774E-05 3.36110E-07 4.11520E-19 6.51452E-19
 -1      3539 9.52245E-05-2.84163E-05-2.86328E-05 1.51328E-07-5.78129E-19 2.12071E-18
 -1      3540 9.52240E-05-2.83875E-05-2.86433E-05 1.95016E-07-5.04677E-19 2.67390E-18
 -1      3541 9.51830E-05-2.83270E-05-2.86524E-05 2.21705E-07 2.57275E-20 1.51104E-18
 -1      3542 9.52345E-05-2.84666E-05-2.86154E-05 8.55616E-08 1.31467E-18-6.83813E-19
 -1      3543 9.52348E-05-2.84450E-05-2.86235E-05 1.16091E-07 5.57524E-19 8.83469E-19
 -1      3544 9.52095E-05-2.84017E-05-2.86318E-05 1.37323E-07 1.06003E-18-1.27058E-18
 -1      3545 9.52399E-05-2.85033E-05-2.86014E-05 3.99554E-08 2.08754E-18-1.52208E-18
 -1      3546 9.52402E-05-2.84873E-05-2.86078E-05 6.05488E-08 1.73654E-18-1.50224E-18
 -1      3547 9.52251E-05-2.84564E-05-2.86149E-05 7.74112E-08 1.62918E-18-2.22613E-18
 -1      3548 1.04808E-04-4.63361E-05-2.46435E-05-2.62733E-05 2.27849E-18-2.46640E-18
 -1      3549 1.14008E-04-5.09420E-05-2.72709E-05-1.96257E-05 2.51788E-18-2.40690E-18
 -1      3550 7.72168E-05-1.78924E-05-2.55157E-05 1.38507E-05-9.31487E-19-1.09634E-18
 -1      3551 7.58736E-05-1.88184E-05-2.44760E-05 1.62325E-05-1.34455E-18-1.24897E-18
 -1      3552 7.17246E-05-1.79320E-05-2.30583E-05 1.62225E-05-1.22134E-18-9.59927E-19
 -1      3553 6.48383E-05-1.72777E-05-2.03660E-05 1.76223E-05-4.02397E-19-1.16255E-19
 -1      3554 5.74441E-05-1.20386E-05-1.90618E-05 9.29408E-06-3.60968E-19-8.60797E-19
 -1      3555 6.73152E-05-1.42247E-05-2.24951E-05 1.11098E-05-1.15256E-18-1.25741E-18
 -1      3556 9.44789E-05-2.25392E-05-3.08306E-05-1.30803E-06 2.36282E-19-6.74813E-19
 -1      3557 9.48248E-05-2.35883E-05-3.05387E-05-2.72027E-07 1.44064E-19-7.06103E-19
 -1      3558 7.04550E-05-2.13825E-05-2.08760E-05-2.26357E-05 7.81653E-20-1.23243E-19
 -1      3559 9.52424E-05-2.85289E-05-2.85916E-05 1.46918E-08 1.04786E-18 2.59518E-19
 -1      3560 8.83356E-05-2.15161E-05-2.86740E-05 7.37739E-06 5.14811E-19 3.77721E-19
 -1      3561 8.73485E-05-2.08458E-05-2.85056E-05 8.21712E-06 7.16999E-19-2.47531E-19
 -1      3562 8.73602E-05-2.09572E-05-2.84147E-05 5.98777E-06 3.98895E-19 1.22867E-19
 -1      3563 9.29764E-05-2.52062E-05-2.90596E-05 3.95832E-06 2.00778E-20-6.88897E-19
 -1      3564 9.26232E-05-2.47696E-05-2.90797E-05 4.48170E-06-5.22474E-19-7.05630E-19
 -1      3565 9.24831E-05-2.49215E-05-2.89399E-05 3.42430E-06-8.97018E-19-9.49453E-19
 -1      3566 1.20737E-04-5.20269E-05-2.92501E-05-1.21623E-05 2.49187E-18-6.15965E-19
 -1      3567 1.23284E-04-5.13407E-05-3.10204E-05-6.45563E-06 2.73778E-18-1.99958E-19
 -1      3568 9.35955E-05-2.06904E-05-3.12556E-05-2.28700E-06 4.17330E-19-8.13357E-19
 -1      3569 9.40906E-05-2.17027E-05-3.10224E-05-1.74328E-06 2.84971E-19-7.94666E-19
 -1      3570 9.38764E-05-2.15577E-05-3.09890E-05-1.12465E-06 3.41223E-19-5.48073E-19
 -1      3571 9.30309E-05-1.98242E-05-3.13712E-05-1.93332E-06 5.28487E-19-8.99444E-19
 -1      3572 9.06415E-05-1.62183E-05-3.19114E-05-4.39786E-07 7.38536E-19-5.09396E-19
 -1      3573 9.08682E-05-1.64841E-05-3.18874E-05-1.01382E-06 6.85945E-19-5.48637E-19
 -1      3574 9.14569E-05-1.74922E-05-3.16882E-05-8.96819E-07 6.46887E-19-6.09671E-19
 -1      3575 9.13102E-05-1.74749E-05-3.16279E-05-5.75788E-08 5.69472E-19-3.12593E-19
 -1      3576 9.60805E-05-4.23414E-05-2.31264E-05 2.94451E-05 3.36828E-19-5.47461E-19
 -1      3577 8.40891E-05-3.47914E-05-2.06528E-05 3.18467E-05 8.14250E-19-4.64928E-19
 -1      3578 5.41548E-05-1.09129E-05-1.84808E-05 1.42318E-06-6.17451E-19-6.85144E-19
 -1      3579 5.39305E-05-1.18440E-05-1.78020E-05-1.00672E-05-2.31028E-19 9.24695E-19
 -1      3580 9.19110E-05-2.41929E-05-2.90423E-05 4.93483E-06-2.76873E-19-3.00164E-19
 -1      3581 9.13925E-05-2.36557E-05-2.90316E-05 5.55144E-06 3.15386E-19-8.01700E-19
 -1      3582 8.96314E-05-2.25218E-05-2.87300E-05 5.05076E-06 9.36388E-19-2.84048E-19
 -1      3583 9.12894E-05-2.38438E-05-2.88833E-05 4.19612E-06 3.15280E-20-1.01565E-18
 -1      3584 8.00256E-05-3.23066E-05-1.99669E-05-3.19449E-05 3.40878E-19-1.16091E-18
 -1      3585 9.19809E-05-4.05349E-05-2.22900E-05-3.14627E-05 1.63448E-18-2.55153E-18
 -1      3586 9.47461E-05-2.32594E-05-3.06364E-05 9.12595E-07 3.51246E-19 5.14339E-19
 -1      3587 9.42478E-05-2.22895E-05-3.08426E-05 1.24561E-06 3.81915E-19 3.51172E-19
 -1      3588 9.47501E-05-2.37657E-05-3.04285E-05-1.34088E-07 3.97632E-19 3.87762E-19
 -1      3589 1.22868E-04-3.74507E-05-3.69491E-05-1.04991E-05-6.02452E-20 3.49825E-19
 -1      3590 1.25650E-04-4.29035E-05-3.53631E-05-7.48811E-06-5.59703E-20 5.70212E-19
 -1      3591 1.26068E-04-4.81610E-05-3.36549E-05-1.86965E-06-3.29820E-19 6.00560E-19
 -1      3592 1.24289E-04-5.14137E-05-3.12049E-05 5.55941E-06-4.89916E-19 5.14989E-19
 -1      3593 1.22838E-04-4.47054E-05-3.34662E-05-4.62890E-06-2.69244E-19 4.18818E-19
 -1      3594 9.51852E-05-2.84319E-05-2.86087E-05-9.85447E-09 2.70689E-18 1.13876E-18
 -1      3595 9.51837E-05-2.84298E-05-2.86091E-05-2.40206E-09 1.53020E-18 2.23414E-19
 -1      3596 5.66762E-05-1.31088E-05-1.85813E-05 9.93982E-06 3.69745E-19 8.44809E-19
 -1      3597 5.48125E-05-1.11636E-05-1.84198E-05 1.07101E-06 5.22965E-19 1.09802E-18
 -1      3598 9.51535E-05-2.44963E-05-3.02747E-05 5.59212E-07 1.75916E-19-6.82830E-19
 -1      3599 9.53329E-05-2.52246E-05-3.00534E-05 1.40148E-06 3.13214E-19-5.87683E-19
 -1      3600 9.46025E-05-2.33599E-05-3.05283E-05 1.69546E-07 2.99532E-19-5.08022E-19
 -1      3601 9.52366E-05-2.85084E-05-2.85977E-05 2.66288E-08 1.39461E-18 1.77562E-19
 -1      3602 5.87235E-05-1.42128E-05-1.88222E-05-1.44603E-05-9.90367E-20 1.55113E-18
 -1      3603 6.52435E-05-1.79536E-05-2.03520E-05-1.85297E-05 1.59477E-19 9.97064E-19
 -1      3604 6.28373E-05-1.37607E-05-2.08646E-05-9.31833E-06-2.44971E-19 5.06287E-19
 -1      3605 1.21281E-04-5.19599E-05-2.97461E-05 9.83757E-06-4.01255E-19 4.21670E-19
 -1      3606 1.15396E-04-4.92544E-05-2.82829E-05 1.35531E-05-3.02358E-19 2.74627E-19
 -1      3607 1.20259E-04-4.91724E-05-3.05690E-05 4.54467E-06-5.82084E-19 5.21117E-19
 -1      3608 9.41340E-05-2.45830E-05-2.98144E-05-3.17941E-06 4.28053E-19 2.62846E-19
 -1      3609 9.43635E-05-2.44611E-05-2.99573E-05-2.33139E-06 4.41827E-19 3.01034E-19
 -1      3610 1.07280E-04-1.88504E-05-3.81248E-05-7.64232E-06 8.34036E-19-2.57313E-19
 -1      3611 9.36599E-05-2.14157E-05-3.09736E-05 1.18255E-06 5.01300E-19 8.15174E-20
 -1      3612 1.14080E-04-2.93420E-05-3.64432E-05-1.17520E-05 9.29089E-20-7.63296E-19
 -1      3613 1.07739E-04-1.43188E-05-4.01957E-05 3.90987E-06 5.14467E-19-7.12381E-19
 -1      3614 1.03988E-04-1.79511E-05-3.68706E-05 3.65673E-06 7.71329E-20 4.54344E-19
 -1      3615 1.05015E-04-1.99944E-05-3.66050E-05 7.08331E-06-3.32699E-19 1.08430E-19
 -1      3616 8.85006E-05-2.15268E-05-2.86641E-05-6.29642E-06 1.53397E-20 2.75598E-19
 -1      3617 9.03715E-05-2.26918E-05-2.90116E-05-7.16518E-06 1.07280E-19 2.82078E-19
 -1      3618 9.11385E-05-2.32115E-05-2.91318E-05-6.45702E-06-4.17271E-21 1.27027E-19
 -1      3619 8.62448E-05-2.04795E-05-2.82316E-05-9.03444E-06 2.21962E-19 5.61543E-19
 -1      3620 8.54754E-05-1.99152E-05-2.80410E-05-7.19529E-06 2.12722E-19 2.57478E-19
 -1      3621 8.49154E-05-1.98187E-05-2.79040E-05-9.90087E-06 1.41689E-19 6.00648E-19
 -1      3622 9.52232E-05-2.84728E-05-2.86070E-05-5.72944E-08 1.28099E-18-2.89872E-19
 -1      3623 9.52268E-05-2.84904E-05-2.86014E-05-4.00310E-08 1.45357E-18 1.66620E-19
 -1      3624 9.52228E-05-2.84848E-05-2.86022E-05-3.89455E-08 8.24983E-19 2.41164E-19
 -1      3625 9.52073E-05-2.84437E-05-2.86129E-05-6.82478E-08 1.39168E-18 2.46790E-18
 -1      3626 7.62160E-05-1.62916E-05-2.55112E-05-9.75178E-06 8.44055E-20 5.74421E-19
 -1      3627 8.10234E-05-1.85505E-05-2.67730E-05-1.17283E-05 3.52680E-19 5.36394E-19
 -1      3628 8.26106E-05-1.89950E-05-2.73306E-05-1.06451E-05 4.14613E-19 7.39364E-19
 -1      3629 7.10674E-05-1.91928E-05-2.19910E-05-1.85338E-05 1.65158E-19 3.47231E-19
 -1      3630 7.11293E-05-1.73290E-05-2.30403E-05-1.59109E-05 2.62832E-19 6.06542E-19
 -1      3631 9.82031E-05-4.15481E-05-2.41944E-05-2.58614E-05 1.50044E-18-3.19181E-18
 -1      3632 7.81674E-05-2.91572E-05-2.07914E-05 2.71334E-05 4.88685E-19-4.68674E-19
 -1      3633 8.18712E-05-1.86144E-05-2.71866E-05 1.09663E-05-4.70461E-19-7.75254E-19
 -1      3634 8.04286E-05-1.84200E-05-2.65725E-05 1.23584E-05-3.69981E-19-7.44884E-19
 -1      3635 7.47357E-05-1.59938E-05-2.50849E-05 1.05168E-05-5.68402E-19-1.47871E-18
 -1      3636 1.20325E-04-4.83567E-05-3.08661E-05-3.35255E-06 2.19652E-18 1.86367E-19
 -1      3637 1.24352E-04-4.93471E-05-3.20926E-05-1.39362E-06 2.46280E-18-5.03985E-20
 -1      3638 1.23478E-04-4.63124E-05-3.32940E-05 3.23018E-06 2.08600E-18-5.92460E-20
 -1      3639 1.14818E-04-4.91352E-05-2.81201E-05-1.43419E-05 1.98073E-18-2.90754E-19
 -1      3640 6.01095E-05-1.21309E-05-2.04154E-05 3.09242E-06-3.52308E-19-2.80103E-19
 -1      3641 9.32237E-05-2.45342E-05-2.94250E-05-6.26576E-06 2.51584E-19 3.90557E-20
 -1      3642 6.04748E-05-1.50792E-05-1.91206E-05 1.39612E-05 1.91962E-19 4.90909E-19
 -1      3643 6.22208E-05-1.41190E-05-2.05864E-05 8.98732E-06 3.87650E-20 5.08246E-19
 -1      3644 6.50907E-05-1.85327E-05-2.00855E-05 1.85682E-05 1.89193E-19-1.77242E-19
 -1      3645 9.51843E-05-2.84298E-05-2.86093E-05 8.49171E-09-4.98237E-19 2.02449E-19
 -1      3646 9.51871E-05-2.84327E-05-2.86092E-05 1.57275E-08-1.07830E-18 3.81789E-20
 -1      3647 9.51705E-05-2.83998E-05-2.86154E-05 2.80400E-09 4.23050E-19 1.49123E-18
 -1      3648 9.33330E-05-2.43999E-05-2.95474E-05-4.61011E-06 5.96729E-19 3.14979E-19
 -1      3649 9.37107E-05-2.45305E-05-2.96522E-05-3.85359E-06 5.14841E-19 4.30851E-19
 -1      3650 9.34270E-05-2.39271E-05-2.97728E-05-3.07881E-06 3.54531E-19-5.90425E-20
 -1      3651 9.25328E-05-1.91609E-05-3.14549E-05-1.59186E-06 6.03726E-19-8.86699E-19
 -1      3652 9.30075E-05-2.00559E-05-3.12607E-05-1.22382E-06 5.41671E-19-8.78904E-19
 -1      3653 9.20901E-05-1.85444E-05-3.15222E-05-1.15891E-06 5.46834E-19-8.81425E-19
 -1      3654 7.59292E-05-2.77737E-05-2.04307E-05-2.77058E-05 7.17569E-19-9.54818E-19
 -1      3655 9.52079E-05-2.84594E-05-2.86071E-05 3.58188E-08-7.29271E-19 1.17075E-18
 -1      3656 9.52162E-05-2.84688E-05-2.86058E-05 3.78068E-08-6.03585E-19 1.35071E-18
 -1      3657 8.55366E-05-1.99769E-05-2.81484E-05 8.94024E-06 7.62564E-19-9.91110E-19
 -1      3658 8.42583E-05-1.93798E-05-2.78051E-05 9.98588E-06-2.75949E-19-1.23249E-18
 -1      3659 8.01683E-05-1.73872E-05-2.68100E-05 8.41026E-06-3.40947E-20-1.96050E-18
 -1      3660 8.42758E-05-1.91968E-05-2.78305E-05 7.05698E-06 1.90660E-19-1.92269E-18
 -1      3661 6.80302E-05-1.45981E-05-2.26633E-05-1.12723E-05 1.66442E-19 5.47637E-19
 -1      3662 9.52190E-05-2.84801E-05-2.86026E-05-3.71140E-08 2.97762E-19 1.88455E-18
 -1      3663 1.08833E-04-2.12823E-05-3.75620E-05 9.44951E-06-5.32307E-20-5.22249E-20
 -1      3664 1.17978E-04-3.25857E-05-3.66928E-05-1.12215E-05 8.75356E-20-9.99499E-20
 -1      3665 1.03408E-04-4.53384E-05-2.47247E-05 2.57554E-05 1.38199E-19-7.57956E-19
 -1      3666 9.63648E-05-4.00900E-05-2.41295E-05 2.55880E-05 1.55239E-19-7.67167E-19
 -1      3667 1.08199E-04-4.66084E-05-2.63506E-05 2.03320E-05-1.04059E-19-1.63233E-19
 -1      3668 9.51925E-05-2.84395E-05-2.86088E-05 2.51615E-08-1.01117E-18 4.75298E-19
 -1      3669 9.51990E-05-2.84465E-05-2.86082E-05 3.04706E-08-1.07273E-18 1.13657E-18
 -1      3670 9.51950E-05-2.84277E-05-2.86137E-05 4.32425E-08-1.11912E-18 1.26870E-18
 -1      3671 1.11672E-04-1.70524E-05-4.07745E-05 9.07317E-06 9.74088E-21-1.03611E-18
 -1      3672 9.21467E-05-1.92787E-05-3.12471E-05 1.03602E-06 6.32424E-19-7.39584E-20
 -1      3673 9.18896E-05-1.89221E-05-3.12838E-05 8.02905E-07 5.96915E-19-1.54275E-19
 -1      3674 9.17678E-05-1.87558E-05-3.13060E-05 7.12666E-07 5.79308E-19-2.38292E-19
 -1      3675 9.17356E-05-1.86835E-05-3.13153E-05 4.40171E-07 5.31029E-19-1.46671E-19
 -1      3676 9.22792E-05-1.98261E-05-3.10272E-05 5.73531E-07 5.13330E-19-8.75875E-20
 -1      3677 1.15144E-04-2.57275E-05-3.83940E-05 1.23997E-05-2.63057E-19-1.03361E-18
 -1      3678 1.13779E-04-2.09948E-05-3.99963E-05 1.10732E-05-2.58769E-19-1.22059E-18
 -1      3679 6.01074E-05-1.25649E-05-2.02622E-05-3.43713E-06 2.41236E-19 7.23790E-19
 -1      3680 9.51894E-05-2.84383E-05-2.86080E-05-1.95652E-08 2.38373E-18 8.61105E-19
 -1      3681 9.51748E-05-2.84065E-05-2.86144E-05-1.99072E-08 2.51181E-18 7.30142E-19
 -1      3682 9.51946E-05-2.84445E-05-2.86071E-05-2.55676E-08 1.49771E-18 2.10971E-18
 -1      3683 9.50898E-05-2.49857E-05-3.00442E-05 1.71446E-06 3.59225E-19-4.08224E-19
 -1      3684 9.52081E-05-2.84544E-05-2.86086E-05-4.86445E-08 1.01063E-18 2.16014E-18
 -1      3685 9.52119E-05-2.84695E-05-2.86038E-05-3.42560E-08-3.33677E-20 2.18106E-18
 -1      3686 9.52045E-05-2.84600E-05-2.86052E-05-3.19462E-08 4.18620E-19 2.34094E-18
 -1      3687 9.51987E-05-2.84328E-05-2.86141E-05-6.41599E-08 1.10657E-18 2.34236E-18
 -1      3688 9.51122E-05-2.65002E-05-2.94023E-05 3.83003E-06-6.23220E-20-3.42054E-19
 -1      3689 9.52762E-05-2.70187E-05-2.92473E-05 4.36705E-06-2.07134E-19-3.36707E-19
 -1      3690 9.53793E-05-2.75258E-05-2.90749E-05 4.94199E-06-5.36234E-20-1.35033E-19
 -1      3691 9.56799E-05-2.81243E-05-2.89421E-05 5.41420E-06-3.62253E-22-2.36749E-19
 -1      3692 9.47643E-05-2.67886E-05-2.91408E-05 4.65906E-06 2.52550E-20-1.65481E-20
 -1      3693 9.59472E-05-2.87591E-05-2.87853E-05 5.99034E-06 3.13277E-20-2.11103E-19
 -1      3694 9.64877E-05-2.95485E-05-2.86747E-05 6.38698E-06 5.61929E-20-1.20281E-19
 -1      3695 9.51042E-05-2.79539E-05-2.87955E-05 5.87597E-06 8.24614E-20 1.24465E-19
 -1      3696 9.70603E-05-3.04299E-05-2.85377E-05 6.94265E-06 1.47290E-19-3.83025E-20
 -1      3697 9.79492E-05-3.15093E-05-2.84597E-05 7.21204E-06 2.83395E-19-4.10836E-20
 -1      3698 9.59013E-05-2.95115E-05-2.84811E-05 7.12064E-06 2.22400E-19 1.43758E-19
 -1      3699 9.89901E-05-3.27387E-05-2.83611E-05 7.66586E-06 2.81071E-19 8.93810E-20
 -1      3700 1.00322E-04-3.41639E-05-2.83426E-05 7.69630E-06 2.17620E-19 9.01313E-20
 -1      3701 9.74581E-05-3.17145E-05-2.82190E-05 8.30998E-06 1.47870E-19 1.99429E-19
 -1      3702 1.02001E-04-3.57860E-05-2.83248E-05 7.87072E-06-8.07783E-20-1.17336E-19
 -1      3703 1.03809E-04-3.75060E-05-2.84161E-05 7.46979E-06-2.50416E-19-1.80583E-19
 -1      3704 1.00112E-04-3.47628E-05-2.80683E-05 9.21069E-06-1.12468E-19 2.50948E-19
 -1      3705 1.06255E-04-3.94021E-05-2.85582E-05 7.05825E-06-1.12564E-19-3.27944E-20
 -1      3706 1.08418E-04-4.11563E-05-2.88226E-05 5.95551E-06 6.24885E-20 3.27346E-19
 -1      3707 1.04158E-04-3.86756E-05-2.81506E-05 9.34001E-06 1.42350E-20 2.23746E-19
 -1      3708 1.13182E-04-4.46539E-05-2.93462E-05 5.30674E-06-2.84903E-19 4.84076E-19
 -1      3709 1.15742E-04-4.54959E-05-3.00604E-05 2.88678E-06-3.72886E-19 2.72357E-19
 -1      3710 1.17606E-04-4.51767E-05-3.10333E-05 5.60487E-08-6.64689E-19-2.33728E-20
 -1      3711 1.17805E-04-3.61982E-05-3.49464E-05-1.03481E-05-3.14726E-20-3.78419E-19
 -1      3712 1.18466E-04-4.09109E-05-3.32872E-05 6.81244E-06 1.26284E-18 3.99694E-20
 -1      3713 1.18015E-04-4.34039E-05-3.20028E-05 4.05092E-06 1.78345E-18 2.69704E-19
 -1      3714 1.16532E-04-4.43338E-05-3.09430E-05 9.55254E-07 1.55240E-18 8.07632E-19
 -1      3715 1.12007E-04-4.30472E-05-2.95829E-05-2.81450E-06 1.11747E-18 1.64195E-18
 -1      3716 1.09965E-04-4.18400E-05-2.91094E-05-4.48383E-06 5.78246E-19 1.58695E-18
 -1      3717 1.06899E-04-3.99389E-05-2.87224E-05-5.76033E-06 1.12221E-19 1.66979E-18
 -1      3718 1.04750E-04-3.81600E-05-2.84682E-05-6.65426E-06 1.52984E-19 1.86199E-18
 -1      3719 1.08011E-04-4.16194E-05-2.85352E-05-7.78202E-06 6.13761E-19 1.68430E-18
 -1      3720 1.02380E-04-3.62566E-05-2.83386E-05-6.90289E-06 3.04237E-21 1.93478E-18
 -1      3721 1.00603E-04-3.45785E-05-2.82486E-05-7.17020E-06 2.19302E-20 2.44635E-18
 -1      3722 1.02558E-04-3.72623E-05-2.80586E-05-8.81732E-06 2.11418E-19 1.65689E-18
 -1      3723 9.89673E-05-3.30244E-05-2.82506E-05-6.90335E-06-4.52330E-19 2.21060E-18
 -1      3724 9.76556E-05-3.16797E-05-2.82478E-05-6.79774E-06 2.29088E-20 1.74098E-18
 -1      3725 9.86185E-05-3.34930E-05-2.79683E-05-8.44388E-06-3.17958E-19 2.05051E-18
 -1      3726 9.66295E-05-3.05484E-05-2.83062E-05-6.30260E-06 2.26695E-19 9.68523E-19
 -1      3727 9.57468E-05-2.95847E-05-2.83410E-05-6.00837E-06 4.82613E-19 6.10114E-19
 -1      3728 9.60204E-05-3.06412E-05-2.80585E-05-7.44033E-06-1.96079E-19 1.03555E-18
 -1      3729 9.51727E-05-2.88396E-05-2.84147E-05-5.45698E-06 2.23138E-19 3.20998E-19
 -1      3730 9.46300E-05-2.82121E-05-2.84591E-05-5.09044E-06-5.94069E-19 1.91446E-19
 -1      3731 9.44755E-05-2.87025E-05-2.82127E-05-6.23983E-06-2.59987E-19-1.61121E-19
 -1      3732 9.43635E-05-2.77722E-05-2.85276E-05-4.56685E-06-8.65089E-19 6.01249E-20
 -1      3733 9.40662E-05-2.74078E-05-2.85673E-05-4.19185E-06-9.15062E-19 8.30459E-19
 -1      3734 9.36759E-05-2.75102E-05-2.83709E-05-5.07585E-06-5.64169E-19-1.01110E-18
 -1      3735 9.39969E-05-2.71919E-05-2.86216E-05-3.73035E-06-1.42976E-18 1.05872E-18
 -1      3736 9.38650E-05-2.70181E-05-2.86507E-05-3.38025E-06-1.69658E-18 9.05197E-19
 -1      3737 9.33677E-05-2.68724E-05-2.85052E-05-4.04323E-06-1.12958E-18-3.56772E-19
 -1      3738 9.39116E-05-2.69544E-05-2.86891E-05-2.99153E-06-1.76079E-18 9.61737E-19
 -1      3739 9.38824E-05-2.69078E-05-2.87068E-05-2.68139E-06-6.99308E-19 7.52676E-19
 -1      3740 9.33629E-05-2.66227E-05-2.86058E-05-3.17168E-06-1.60576E-18 1.07718E-18
 -1      3741 9.39884E-05-2.69385E-05-2.87306E-05-2.36218E-06 4.81453E-19 8.37732E-20
 -1      3742 9.40174E-05-2.69702E-05-2.87383E-05-2.09577E-06 2.65996E-19-1.30190E-19
 -1      3743 9.35259E-05-2.66218E-05-2.86737E-05-2.45845E-06-9.16038E-19 8.63349E-19
 -1      3744 9.41475E-05-2.70547E-05-2.87503E-05-1.83784E-06-2.69219E-20-5.92332E-19
 -1      3745 9.42051E-05-2.71301E-05-2.87502E-05-1.61459E-06-1.28116E-19-3.59624E-19
 -1      3746 9.37676E-05-2.67671E-05-2.87136E-05-1.88364E-06-1.56171E-19-6.34925E-19
 -1      3747 9.43370E-05-2.72395E-05-2.87533E-05-1.40939E-06-7.69283E-19-2.97521E-19
 -1      3748 9.44041E-05-2.73340E-05-2.87477E-05-1.22598E-06-1.40081E-18-8.23086E-19
 -1      3749 9.40324E-05-2.69882E-05-2.87316E-05-1.42686E-06-2.46142E-19-6.99392E-19
 -1      3750 9.45251E-05-2.74492E-05-2.87448E-05-1.06470E-06-1.11493E-18-3.34386E-20
 -1      3751 9.45907E-05-2.75472E-05-2.87358E-05-9.16529E-07-9.69960E-19 6.64763E-19
 -1      3752 9.42863E-05-2.72365E-05-2.87338E-05-1.06806E-06-5.44348E-19-1.06175E-18
 -1      3753 9.46948E-05-2.76568E-05-2.87291E-05-7.91079E-07-1.23834E-18 8.19413E-19
 -1      3754 9.47529E-05-2.77489E-05-2.87185E-05-6.73197E-07-1.08515E-18 1.14066E-18
 -1      3755 9.45113E-05-2.74813E-05-2.87255E-05-7.88744E-07-7.27621E-19 1.60528E-19
 -1      3756 9.48385E-05-2.78467E-05-2.87096E-05-5.76635E-07-6.80995E-19 1.16282E-18
 -1      3757 9.48868E-05-2.79282E-05-2.86985E-05-4.84250E-07 1.35676E-19 8.12995E-19
 -1      3758 9.47004E-05-2.77051E-05-2.87108E-05-5.73171E-07-3.48833E-19 1.27680E-18
 -1      3759 9.49543E-05-2.80115E-05-2.86889E-05-4.10766E-07-1.04684E-19 5.60781E-19
 -1      3760 9.49925E-05-2.80806E-05-2.86781E-05-3.39467E-07-5.75140E-19 4.01531E-19
 -1      3761 9.48527E-05-2.78997E-05-2.86929E-05-4.08348E-07-2.91816E-19 4.94422E-19
 -1      3762 9.50440E-05-2.81492E-05-2.86685E-05-2.84189E-07-7.47805E-19 4.53815E-19
 -1      3763 9.50729E-05-2.82058E-05-2.86585E-05-2.30024E-07-6.41363E-19 3.01020E-19
 -1      3764 9.49710E-05-2.80625E-05-2.86741E-05-2.83643E-07-7.52483E-19 1.18988E-18
 -1      3765 9.51108E-05-2.82609E-05-2.86495E-05-1.89116E-07 2.43036E-20-8.37379E-19
 -1      3766 9.51318E-05-2.83061E-05-2.86405E-05-1.48759E-07 7.30237E-19-2.07073E-19
 -1      3767 9.50597E-05-2.81949E-05-2.86556E-05-1.90438E-07-8.24532E-19 1.51048E-18
 -1      3768 9.51588E-05-2.83494E-05-2.86322E-05-1.19019E-07 2.20336E-18 2.32100E-19
 -1      3769 9.51740E-05-2.83849E-05-2.86243E-05-8.93683E-08 2.37043E-18 1.32076E-18
 -1      3770 9.51240E-05-2.83002E-05-2.86383E-05-1.21897E-07 1.76027E-18 7.76134E-19
 -1      3771 9.22546E-05-3.62049E-05-2.36642E-05-2.54556E-05 7.11389E-19-3.67854E-18
 -1      3772 1.01582E-04-4.23403E-05-2.56435E-05-2.17619E-05 1.36042E-18-2.59485E-18
 -1      3773 9.30289E-05-2.56935E-05-2.88671E-05 2.23047E-06-9.13819E-19-5.39165E-19
 -1      3774 9.26666E-05-2.53080E-05-2.88713E-05 2.51883E-06-1.01012E-18-4.46302E-19
 -1      3775 9.44990E-05-2.73155E-05-2.87972E-05 1.06345E-06 1.10116E-18 1.44872E-18
 -1      3776 9.43762E-05-2.71324E-05-2.88183E-05 1.23615E-06 6.97971E-19 1.25835E-18
 -1      3777 9.47384E-05-2.76347E-05-2.87620E-05 7.95698E-07 1.54889E-18 1.18265E-18
 -1      3778 9.46538E-05-2.74936E-05-2.87822E-05 9.34688E-07 1.91784E-18 1.05549E-18
 -1      3779 9.44124E-05-2.72612E-05-2.87755E-05 9.02872E-07 1.27533E-18 1.25017E-18
 -1      3780 9.49068E-05-2.78797E-05-2.87284E-05 5.81355E-07 1.79737E-18 1.19643E-18
 -1      3781 9.48490E-05-2.77716E-05-2.87466E-05 6.91112E-07 1.87395E-18 1.75518E-18
 -1      3782 9.46738E-05-2.75919E-05-2.87469E-05 6.79897E-07 1.25882E-18 2.31272E-18
 -1      3783 9.50240E-05-2.80665E-05-2.86980E-05 4.13244E-07 3.45553E-19 1.16245E-18
 -1      3784 9.49851E-05-2.79841E-05-2.87138E-05 4.98358E-07 8.79668E-19 7.04275E-19
 -1      3785 9.48601E-05-2.78471E-05-2.87182E-05 4.98900E-07 2.17377E-18 1.46123E-18
 -1      3786 9.51044E-05-2.82078E-05-2.86714E-05 2.83952E-07 1.99010E-19 5.51780E-19
 -1      3787 9.50787E-05-2.81456E-05-2.86848E-05 3.48799E-07 3.27012E-19 7.75335E-20
 -1      3788 9.49914E-05-2.80425E-05-2.86912E-05 3.55558E-07 9.57136E-19 1.18069E-18
 -1      3789 9.51584E-05-2.83140E-05-2.86486E-05 1.86198E-07 6.03227E-19-3.46422E-19
 -1      3790 9.51418E-05-2.82670E-05-2.86599E-05 2.35053E-07 3.56349E-19 4.08543E-19
 -1      3791 9.50824E-05-2.81911E-05-2.86670E-05 2.44705E-07 2.78505E-19-2.24823E-19
 -1      3792 9.51932E-05-2.83933E-05-2.86293E-05 1.13178E-07 1.99072E-18-9.03053E-19
 -1      3793 9.51833E-05-2.83580E-05-2.86387E-05 1.50240E-07 1.29628E-18-7.26110E-19
 -1      3794 9.51437E-05-2.83032E-05-2.86458E-05 1.60938E-07 1.93268E-18-1.61730E-18
 -1      3795 9.52288E-05-2.84886E-05-2.86034E-05 3.91669E-08 1.36054E-19-2.87484E-19
 -1      3796 8.44624E-05-3.19352E-05-2.25773E-05 2.58572E-05 2.09740E-19-4.52501E-19
 -1      3797 7.36296E-05-2.38914E-05-2.09843E-05 2.34464E-05 2.05538E-19-5.63740E-19
 -1      3798 9.40537E-05-2.23211E-05-3.07441E-05-1.72529E-07 4.03322E-19-5.80568E-19
 -1      3799 9.43867E-05-2.32975E-05-3.04732E-05 6.39877E-07 4.14164E-19-6.01822E-19
 -1      3800 9.45790E-05-2.43582E-05-3.01032E-05-1.74123E-06 4.27330E-19 3.61701E-19
 -1      3801 9.47015E-05-2.40939E-05-3.02574E-05-8.78558E-07 4.01186E-19 3.60359E-19
 -1      3802 9.43421E-05-2.33420E-05-3.04258E-05-4.92756E-07 4.37021E-19 1.05729E-19
 -1      3803 9.40533E-05-2.38106E-05-3.01001E-05-1.83409E-06 4.50338E-19 8.37669E-20
 -1      3804 6.81098E-05-1.38799E-05-2.31880E-05 6.36762E-06-8.48310E-19-1.37984E-18
 -1      3805 6.34129E-05-1.27083E-05-2.17688E-05 5.31755E-06-5.18053E-19-8.18816E-19
 -1      3806 6.20617E-05-1.20779E-05-2.13213E-05-2.10055E-06-1.59864E-19-3.44160E-19
 -1      3807 9.41615E-05-2.69024E-05-2.88308E-05 1.39061E-06 3.91997E-20 4.71016E-19
 -1      3808 9.39842E-05-2.66661E-05-2.88508E-05 1.60075E-06-2.25937E-19-1.70472E-19
 -1      3809 9.40490E-05-2.68360E-05-2.88004E-05 1.17008E-06-2.06092E-19 5.38021E-19
 -1      3810 9.36884E-05-2.63713E-05-2.88573E-05 1.78030E-06 9.17722E-20-3.80265E-19
 -1      3811 9.34342E-05-2.60683E-05-2.88725E-05 2.02994E-06-3.53623E-19-6.55680E-19
 -1      3812 9.35474E-05-2.62938E-05-2.88156E-05 1.47979E-06-5.80454E-19-3.63788E-19
 -1      3813 9.38945E-05-2.22674E-05-3.06808E-05 2.79391E-07 4.28897E-19-6.00496E-20
 -1      3814 9.31330E-05-2.07315E-05-3.10413E-05 1.09073E-06 5.31723E-19-3.45600E-20
 -1      3815 8.67796E-05-2.09003E-05-2.82610E-05 4.30996E-06-1.19078E-19-2.91798E-19
 -1      3816 8.54288E-05-2.00669E-05-2.80370E-05 4.67761E-06-4.29520E-19-1.00071E-18
 -1      3817 9.21138E-05-2.48361E-05-2.88450E-05 2.73240E-06-1.19128E-18-1.46726E-19
 -1      3818 9.16019E-05-2.43521E-05-2.88276E-05 3.05519E-06-7.35863E-19-5.31616E-19
 -1      3819 9.19208E-05-2.47493E-05-2.87727E-05 2.18282E-06-6.98512E-19-5.37133E-19
 -1      3820 1.17166E-04-3.13758E-05-3.69285E-05 1.18790E-05-2.49742E-20-1.06309E-18
 -1      3821 1.10438E-04-4.59808E-05-2.73536E-05-1.56495E-05 1.87223E-18-1.82205E-19
 -1      3822 1.15031E-04-4.76429E-05-2.89929E-05-9.59676E-06 2.03521E-18 3.95511E-19
 -1      3823 9.21089E-05-2.37505E-05-2.93016E-05-5.91118E-06 1.79187E-19 1.24855E-19
 -1      3824 9.26565E-05-2.40944E-05-2.93969E-05-5.20688E-06 4.40485E-19 3.53968E-19
 -1      3825 9.07448E-05-2.27875E-05-2.90956E-05-5.35226E-06 1.32752E-19 2.41560E-19
 -1      3826 6.56195E-05-1.35833E-05-2.23195E-05-3.95865E-06 2.29493E-19 6.97836E-19
 -1      3827 1.25381E-04-3.80441E-05-3.76505E-05 1.06723E-05 7.52245E-19-1.37166E-18
 -1      3828 1.21022E-04-3.30857E-05-3.78643E-05 1.20218E-05 1.74701E-19-1.37690E-18
 -1      3829 9.26675E-05-2.00853E-05-3.11170E-05 9.51467E-07 5.88591E-19-6.40585E-20
 -1      3830 9.49344E-05-2.54491E-05-2.97776E-05 2.63512E-06 3.15010E-19-5.36975E-19
 -1      3831 9.50585E-05-2.60032E-05-2.95941E-05 3.24801E-06 1.29864E-19-5.05791E-19
 -1      3832 9.46282E-05-2.57604E-05-2.95175E-05 3.46284E-06 1.25074E-19-3.45859E-19
 -1      3833 1.23739E-04-4.13441E-05-3.53532E-05 8.04712E-06 1.52834E-18-7.17199E-19
 -1      3834 9.28583E-05-2.07457E-05-3.08812E-05 4.65181E-07 4.27945E-19 3.85201E-20
 -1      3835 9.52163E-05-2.84595E-05-2.86102E-05 5.17501E-08 2.70429E-20 1.52191E-19
 -1      3836 9.46471E-05-2.41334E-05-3.02183E-05 1.31209E-06 4.52808E-19-5.76843E-19
 -1      3837 9.48250E-05-2.48415E-05-2.99966E-05 2.02364E-06 4.67999E-19-4.53108E-19
 -1      3838 9.44816E-05-2.46197E-05-2.99381E-05 2.25590E-06 3.24096E-19-6.67274E-19
 -1      3839 7.20133E-05-2.27124E-05-2.08574E-05-2.31927E-05 5.90035E-19-4.13974E-19
 -1      3840 8.12025E-05-2.98114E-05-2.22228E-05-2.59813E-05 6.27215E-19-2.59070E-18
 -1      3841 7.18545E-05-2.01954E-05-2.20022E-05-1.78202E-05 2.27137E-19-1.40753E-19
 -1      3842 1.18340E-04-4.05415E-05-3.35848E-05-7.72148E-06-1.92695E-19-1.50089E-19
 -1      3843 6.51826E-05-1.31796E-05-2.20247E-05 1.99815E-06 2.79786E-20 4.54976E-19
 -1      3844 7.07113E-05-1.47414E-05-2.40408E-05-5.04087E-06-3.50733E-20 5.53033E-19
 -1      3845 9.52106E-05-2.84352E-05-2.86177E-05 7.59568E-08 1.05012E-18-2.01308E-19
 -1      3846 9.51863E-05-2.83980E-05-2.86240E-05 8.45492E-08 7.99407E-19-2.42421E-19
 -1      3847 9.51773E-05-2.83976E-05-2.86197E-05-6.80443E-08 1.65148E-18 1.22916E-18
 -1      3848 6.69909E-05-1.48229E-05-2.23760E-05 6.23475E-06-1.03034E-19 5.33895E-19
 -1      3849 1.11169E-04-4.44639E-05-2.86544E-05 9.06485E-06-2.29493E-19 5.69034E-19
 -1      3850 7.40308E-05-1.56761E-05-2.50826E-05-4.50956E-06-1.84455E-19 5.42412E-19
 -1      3851 8.14904E-05-1.81082E-05-2.70711E-05-8.22360E-06 2.58180E-19 3.18196E-19
 -1      3852 8.69534E-05-2.08245E-05-2.83649E-05-4.97113E-06 1.19118E-19 3.51999E-19
 -1      3853 8.82888E-05-2.15318E-05-2.86304E-05-4.62596E-06 2.21552E-20 3.81207E-19
 -1      3854 1.15940E-04-4.56016E-05-3.01819E-05-3.10629E-06 1.92466E-18 5.00845E-19
 -1      3855 1.04210E-04-4.19866E-05-2.66875E-05-1.69176E-05 1.05190E-18-8.87246E-19
 -1      3856 8.70427E-05-3.13497E-05-2.37974E-05-2.24424E-05 3.57097E-19-2.81632E-18
 -1      3857 9.28596E-05-2.56084E-05-2.88114E-05 1.82344E-06-5.58659E-19 6.93423E-20
 -1      3858 8.34051E-05-1.91269E-05-2.75916E-05-5.28386E-06 2.43367E-19-4.85907E-20
 -1      3859 8.52175E-05-1.99930E-05-2.79869E-05-5.00973E-06 2.46080E-19 4.67721E-20
 -1      3860 8.54416E-05-2.00321E-05-2.79734E-05-3.26299E-06 3.32528E-19 6.48460E-20
 -1      3861 1.18099E-04-3.62379E-05-3.50607E-05 1.08859E-05 5.44258E-19-4.75371E-19
 -1      3862 6.43232E-05-1.32697E-05-2.17618E-05-5.83954E-06-4.06410E-19 4.87203E-19
 -1      3863 6.76918E-05-1.55158E-05-2.24519E-05-1.00216E-05-2.46636E-19 8.75521E-19
 -1      3864 6.75246E-05-1.37922E-05-2.29705E-05-3.35645E-06-5.75023E-19 2.55433E-19
 -1      3865 9.51678E-05-2.83761E-05-2.86253E-05 7.15871E-08-1.94607E-19-6.02863E-19
 -1      3866 9.51481E-05-2.83251E-05-2.86374E-05 1.10741E-07 1.64799E-18-1.37218E-18
 -1      3867 9.51557E-05-2.83622E-05-2.86264E-05 6.28383E-08-5.69889E-19-2.41537E-19
 -1      3868 9.13463E-05-3.54903E-05-2.37405E-05 2.46885E-05 1.57747E-19-9.08903E-19
 -1      3869 8.58686E-05-3.07261E-05-2.37317E-05 2.23382E-05-1.81232E-19-8.30251E-19
 -1      3870 9.71083E-05-3.84788E-05-2.50956E-05 2.18344E-05 6.66873E-20-8.22045E-19
 -1      3871 9.41275E-05-2.31284E-05-3.04192E-05 9.77006E-07 4.31952E-19-8.02722E-19
 -1      3872 7.23226E-05-2.14362E-05-2.17608E-05 1.85431E-05-1.11927E-19-4.02513E-19
 -1      3873 9.38161E-05-2.26730E-05-3.04993E-05-4.47126E-07 4.45306E-19-1.31589E-19
 -1      3874 9.51494E-05-2.83659E-05-2.86218E-05-3.70969E-09 1.74625E-18 3.16829E-18
 -1      3875 9.51500E-05-2.83668E-05-2.86220E-05 8.84506E-09-2.39891E-19 2.85260E-18
 -1      3876 8.81369E-05-2.17412E-05-2.84715E-05 4.16340E-06 1.00874E-18-1.97548E-19
 -1      3877 8.66178E-05-2.08622E-05-2.81396E-05 2.97432E-06 1.58261E-19-7.55792E-19
 -1      3878 8.91272E-05-2.24610E-05-2.85911E-05 3.80371E-06 8.71399E-19-3.13475E-19
 -1      3879 9.51778E-05-2.84071E-05-2.86152E-05 2.54080E-08-1.19358E-18 3.03753E-19
 -1      3880 9.23390E-05-2.36053E-05-2.94391E-05-4.30097E-06 4.50088E-19 3.55667E-19
 -1      3881 9.18646E-05-1.83563E-05-3.15119E-05-7.63095E-07 6.15726E-19-6.71808E-19
 -1      3882 9.23237E-05-1.92207E-05-3.13313E-05-5.63593E-07 5.46795E-19-7.13734E-19
 -1      3883 9.17171E-05-1.82694E-05-3.14909E-05-3.19366E-07 5.91490E-19-3.95883E-19
 -1      3884 8.35859E-05-1.90890E-05-2.76782E-05 4.75387E-06 3.66474E-20-1.63849E-18
 -1      3885 8.17395E-05-1.81634E-05-2.72789E-05 5.15979E-06 9.47618E-20-1.66118E-18
 -1      3886 8.35124E-05-1.90792E-05-2.75552E-05 2.95609E-06-5.95577E-19-1.47375E-18
 -1      3887 9.06471E-05-2.36881E-05-2.86755E-05 2.52832E-06-1.88256E-19-2.03323E-19
 -1      3888 9.08532E-05-2.37680E-05-2.87658E-05 3.26717E-06 3.89382E-19-7.27812E-19
 -1      3889 9.01371E-05-2.31710E-05-2.87103E-05 3.61451E-06 6.99412E-19-1.97431E-19
 -1      3890 9.33642E-05-2.08369E-05-3.10896E-05-9.13733E-07 5.35749E-19-9.09221E-19
 -1      3891 9.37431E-05-2.16252E-05-3.09072E-05-4.98265E-07 4.81450E-19-6.67294E-19
 -1      3892 9.35621E-05-2.15871E-05-3.08419E-05-2.49001E-08 4.30616E-19-7.92097E-19
 -1      3893 9.29079E-05-2.01603E-05-3.11703E-05-6.42299E-07 5.35042E-19-1.00802E-18
 -1      3894 9.27597E-05-2.34874E-05-2.97032E-05-2.84841E-06 2.79294E-19-8.86104E-20
 -1      3895 9.31916E-05-2.34840E-05-2.98827E-05-2.17897E-06 2.28736E-19-2.02666E-19
 -1      3896 7.13788E-05-1.44116E-05-2.44241E-05 5.43724E-06-2.87948E-19-1.08845E-18
 -1      3897 9.24504E-05-2.06928E-05-3.07694E-05 4.34350E-07 4.52840E-19-3.64332E-21
 -1      3898 9.23602E-05-2.05286E-05-3.07902E-05 4.44578E-07 3.61562E-19-1.08624E-19
 -1      3899 9.32150E-05-2.18330E-05-3.06026E-05-9.11290E-08 3.78499E-19-1.88614E-19
 -1      3900 9.27123E-05-2.10253E-05-3.07287E-05 1.69840E-07 4.75406E-19 7.28260E-20
 -1      3901 9.27891E-05-2.15655E-05-3.05018E-05-4.68101E-08 3.75091E-19 5.24563E-20
 -1      3902 9.36400E-05-2.27733E-05-3.03607E-05-7.81393E-07 4.43649E-19-5.85000E-20
 -1      3903 9.22619E-05-1.97737E-05-3.10466E-05 4.42253E-07 4.38699E-19-1.51726E-19
 -1      3904 9.18238E-05-1.87950E-05-3.13121E-05 2.83851E-07 5.12073E-19-1.96999E-19
 -1      3905 9.18655E-05-1.87200E-05-3.13498E-05-3.64883E-08 5.08485E-19-3.64780E-19
 -1      3906 1.19860E-04-4.42310E-05-3.22547E-05-3.78290E-06-4.48663E-19 3.63298E-21
 -1      3907 9.51900E-05-2.84287E-05-2.86117E-05-3.82387E-08 8.89030E-19 1.88377E-18
 -1      3908 9.51577E-05-2.83772E-05-2.86204E-05-3.34113E-08 2.21132E-18 7.45993E-19
 -1      3909 9.51523E-05-2.83707E-05-2.86212E-05-2.19584E-08 2.39590E-18 4.50600E-19
 -1      3910 9.51313E-05-2.83311E-05-2.86281E-05-1.65161E-08 1.56373E-18 2.51589E-18
 -1      3911 1.21627E-04-4.28357E-05-3.38238E-05 6.04290E-06 1.63499E-18-2.80765E-19
 -1      3912 9.34578E-05-2.30141E-05-3.01958E-05-1.34915E-06 4.30548E-19-1.49861E-19
 -1      3913 9.29198E-05-2.26193E-05-3.01258E-05-1.19819E-06 3.71848E-19-5.18419E-20
 -1      3914 9.48251E-05-2.78455E-05-2.87077E-05 3.93120E-07 1.90859E-18 1.48000E-18
 -1      3915 9.47464E-05-2.77304E-05-2.87212E-05 4.69615E-07 2.28818E-18 1.76791E-18
 -1      3916 9.40807E-05-2.59484E-05-2.92031E-05 4.18689E-06 2.02914E-19-3.49998E-19
 -1      3917 9.41851E-05-2.64500E-05-2.90173E-05 4.80109E-06 3.32409E-19-1.89625E-19
 -1      3918 9.41342E-05-2.69252E-05-2.88058E-05 5.51044E-06 2.34329E-19-7.19837E-20
 -1      3919 9.44023E-05-2.75513E-05-2.86321E-05 6.15981E-06 7.10328E-20-9.34297E-20
 -1      3920 9.33827E-05-2.60557E-05-2.88587E-05 5.03848E-06 3.35930E-19-5.16312E-19
 -1      3921 9.45245E-05-2.82020E-05-2.84218E-05 6.99583E-06 1.48523E-19-9.06091E-20
 -1      3922 9.51013E-05-2.90970E-05-2.82630E-05 7.67647E-06 2.57039E-19 4.84273E-20
 -1      3923 9.34141E-05-2.71350E-05-2.84197E-05 6.64308E-06 1.64074E-19-1.02469E-19
 -1      3924 9.55779E-05-3.00789E-05-2.80581E-05 8.63076E-06 1.80095E-19-1.59819E-19
 -1      3925 9.66289E-05-3.13851E-05-2.79313E-05 9.28339E-06 8.43823E-20-1.35355E-19
 -1      3926 9.39524E-05-2.87397E-05-2.79786E-05 8.55830E-06 1.26169E-19-1.87661E-19
 -1      3927 9.76892E-05-3.28496E-05-2.77561E-05 1.02791E-05 1.03604E-19-2.60731E-20
 -1      3928 9.93896E-05-3.46802E-05-2.77026E-05 1.07537E-05-4.54825E-20 1.78026E-20
 -1      3929 9.53986E-05-3.12026E-05-2.75599E-05 1.07274E-05 1.58001E-19-3.51065E-19
 -1      3930 1.01338E-04-3.67408E-05-2.76157E-05 1.15842E-05-1.38380E-19 8.47157E-20
 -1      3931 1.03818E-04-3.91198E-05-2.77125E-05 1.15711E-05 1.83611E-19 2.48299E-19
 -1      3932 9.82676E-05-3.48584E-05-2.72385E-05 1.29174E-05 1.15163E-19-6.92085E-20
 -1      3933 9.23217E-05-2.26928E-05-2.98273E-05-1.07205E-06 1.86980E-19 4.74756E-20
 -1      3934 9.25831E-05-2.22759E-05-3.01494E-05-4.16665E-07 3.76892E-19 1.08083E-19
 -1      3935 9.23808E-05-2.19520E-05-3.01845E-05 5.50603E-08 2.33193E-19 1.43956E-19
 -1      3936 8.83934E-05-2.14714E-05-2.86418E-05-3.25950E-06 1.12272E-19 4.08259E-19
 -1      3937 8.95861E-05-2.21893E-05-2.89036E-05-4.46675E-06-1.02194E-20 4.75513E-19
 -1      3938 9.05451E-05-2.26857E-05-2.90993E-05-4.03741E-06 1.87840E-19 2.70224E-19
 -1      3939 1.02085E-04-3.75492E-05-2.76340E-05-1.10192E-05 6.43513E-20 9.99762E-19
 -1      3940 9.96848E-05-3.52749E-05-2.75414E-05-1.08725E-05 1.72211E-19 6.74826E-19
 -1      3941 9.78070E-05-3.33116E-05-2.76145E-05-1.00057E-05-1.01749E-19 5.11331E-19
 -1      3942 9.61519E-05-3.15802E-05-2.76484E-05-9.46415E-06-4.02742E-19 9.28327E-19
 -1      3943 9.66667E-05-3.34258E-05-2.71673E-05-1.21826E-05-3.35700E-19-6.81167E-19
 -1      3944 9.51246E-05-3.02306E-05-2.77827E-05-8.44953E-06-8.40156E-19 8.51840E-19
 -1      3945 9.40872E-05-2.90480E-05-2.78650E-05-7.78455E-06-8.00993E-19 4.32753E-20
 -1      3946 9.38584E-05-2.99637E-05-2.74286E-05-9.89996E-06-1.02629E-18 1.33585E-19
 -1      3947 9.36075E-05-2.82056E-05-2.80053E-05-6.84640E-06-5.66220E-19-6.84423E-19
 -1      3948 9.30319E-05-2.74741E-05-2.80964E-05-6.19623E-06-5.18592E-19-8.69392E-19
 -1      3949 9.24393E-05-2.77756E-05-2.77372E-05-7.77069E-06-1.29854E-18-5.55340E-19
 -1      3950 9.28973E-05-2.70087E-05-2.82198E-05-5.40742E-06-7.91969E-19-1.82762E-18
 -1      3951 9.26304E-05-2.66065E-05-2.83009E-05-4.83173E-06-1.10502E-18-2.20634E-18
 -1      3952 9.18828E-05-2.65281E-05-2.80223E-05-5.94541E-06-1.15883E-18-1.45983E-18
 -1      3953 9.26987E-05-2.64050E-05-2.83982E-05-4.19494E-06-8.35287E-19-2.36120E-18
 -1      3954 9.26310E-05-2.62352E-05-2.84615E-05-3.71174E-06-8.96616E-19-1.85788E-18
 -1      3955 9.18495E-05-2.59238E-05-2.82576E-05-4.48031E-06-8.38964E-19-2.12372E-18
 -1      3956 9.28036E-05-2.62064E-05-2.85324E-05-3.21561E-06-1.02571E-18-1.19237E-18
 -1      3957 9.28523E-05-2.61880E-05-2.85770E-05-2.82198E-06-1.24550E-18-4.76291E-19
 -1      3958 9.21128E-05-2.57649E-05-2.84346E-05-3.33579E-06-3.78855E-19-2.36232E-18
 -1      3959 9.30691E-05-2.62627E-05-2.86252E-05-2.44359E-06-1.07791E-18-6.17852E-19
 -1      3960 9.31758E-05-2.63320E-05-2.86537E-05-2.12810E-06-1.01773E-18-7.78334E-19
 -1      3961 9.25136E-05-2.58713E-05-2.85591E-05-2.46580E-06-1.11055E-18-1.73492E-18
 -1      3962 9.34015E-05-2.64636E-05-2.86835E-05-1.83913E-06-9.40927E-19-1.88067E-19
 -1      3963 9.35324E-05-2.65816E-05-2.86988E-05-1.58972E-06-4.23492E-19-3.19554E-19
 -1      3964 9.29597E-05-2.61236E-05-2.86410E-05-1.81043E-06-6.73179E-19-1.56043E-18
 -1      3965 9.37443E-05-2.67373E-05-2.87146E-05-1.37294E-06-1.96938E-19-5.08071E-19
 -1      3966 9.38770E-05-2.68745E-05-2.87201E-05-1.17773E-06-1.48204E-19-4.26164E-19
 -1      3967 9.33992E-05-2.64503E-05-2.86890E-05-1.31985E-06-4.61527E-19-9.45721E-19
 -1      3968 9.40634E-05-2.70325E-05-2.87258E-05-1.01598E-06-6.69756E-19-7.63917E-19
 -1      3969 9.41851E-05-2.71702E-05-2.87245E-05-8.64285E-07-2.31218E-19-6.45085E-19
 -1      3970 9.37972E-05-2.67950E-05-2.87120E-05-9.56909E-07-4.40407E-19-1.03087E-18
 -1      3971 9.43418E-05-2.73178E-05-2.87235E-05-7.43941E-07-1.30928E-20-6.20332E-19
 -1      3972 9.44466E-05-2.74454E-05-2.87179E-05-6.26865E-07-4.03208E-19-2.25869E-19
 -1      3973 9.41391E-05-2.71245E-05-2.87177E-05-6.88695E-07-2.37037E-19-1.46583E-18
 -1      3974 9.45739E-05-2.75761E-05-2.87126E-05-5.37666E-07 1.32569E-19-4.46889E-19
 -1      3975 9.46599E-05-2.76883E-05-2.87045E-05-4.47965E-07 3.47234E-19 5.43596E-19
 -1      3976 9.44216E-05-2.74212E-05-2.87121E-05-4.90850E-07 3.88857E-20-1.70078E-18
 -1      3977 9.47601E-05-2.77994E-05-2.86970E-05-3.82140E-07-1.13740E-19 4.91341E-19
 -1      3978 9.48280E-05-2.78942E-05-2.86878E-05-3.13990E-07-8.20887E-20 2.55579E-19
 -1      3979 9.46475E-05-2.76772E-05-2.86997E-05-3.45253E-07 4.35609E-19-8.04129E-19
 -1      3980 9.49047E-05-2.79859E-05-2.86792E-05-2.65807E-07-3.33469E-19 1.08383E-18
 -1      3981 9.49565E-05-2.80633E-05-2.86699E-05-2.14636E-07-4.69579E-19 1.11096E-18
 -1      3982 9.48230E-05-2.78909E-05-2.86837E-05-2.38454E-07 2.54366E-19 9.52349E-19
 -1      3983 9.50134E-05-2.81372E-05-2.86611E-05-1.79113E-07-1.10174E-18 1.12258E-18
 -1      3984 9.50520E-05-2.81994E-05-2.86521E-05-1.41402E-07-1.07292E-18 1.11733E-18
 -1      3985 9.49551E-05-2.80639E-05-2.86664E-05-1.60683E-07-8.08061E-19 1.22791E-18
 -1      3986 9.50923E-05-2.82567E-05-2.86437E-05-1.16083E-07 6.35881E-19 5.71547E-19
 -1      3987 9.51196E-05-2.83053E-05-2.86354E-05-8.81930E-08 2.91590E-18 1.44767E-18
 -1      3988 9.50522E-05-2.82028E-05-2.86491E-05-1.03957E-07-4.68377E-20 1.95139E-18
 -1      3989 1.15388E-04-4.69242E-05-2.93054E-05-7.32226E-06 2.02393E-18 7.57989E-19
 -1      3990 9.43528E-05-2.72635E-05-2.87560E-05 7.04831E-07 1.69553E-19 1.70798E-18
 -1      3991 9.41975E-05-2.70730E-05-2.87687E-05 8.18349E-07 7.49447E-19 7.66623E-19
 -1      3992 9.49662E-05-2.80415E-05-2.86837E-05 2.80177E-07 8.96008E-19 1.03575E-18
 -1      3993 9.49112E-05-2.79531E-05-2.86962E-05 3.40497E-07 1.95552E-18 1.41214E-18
 -1      3994 9.48112E-05-2.78410E-05-2.86997E-05 3.11273E-07 2.06519E-18 1.71269E-18
 -1      3995 9.50648E-05-2.81903E-05-2.86616E-05 1.92444E-07 1.73079E-18-1.12720E-18
 -1      3996 9.50271E-05-2.81232E-05-2.86728E-05 2.38631E-07 9.36123E-19 3.12943E-19
 -1      3997 9.49561E-05-2.80382E-05-2.86779E-05 2.23207E-07 2.14900E-18 1.15220E-18
 -1      3998 9.51232E-05-2.82877E-05-2.86443E-05 1.32512E-07 2.43233E-18-1.91408E-18
 -1      3999 9.50971E-05-2.82361E-05-2.86542E-05 1.66734E-07 2.27766E-18-1.87637E-18
 -1      4000 9.50458E-05-2.81718E-05-2.86598E-05 1.58912E-07 2.63212E-18-6.78116E-19
 -1      4001 9.51016E-05-2.82625E-05-2.86455E-05 1.13801E-07 1.65928E-18-8.02203E-19
 -1      4002 9.40384E-05-2.38602E-05-3.00796E-05 1.80861E-06 3.96269E-19-7.44054E-19
 -1      4003 9.41404E-05-2.44868E-05-2.98527E-05 2.41594E-06 3.25316E-19-7.05266E-19
 -1      4004 9.51637E-05-2.83804E-05-2.86217E-05-5.93216E-08 2.50113E-18 1.52323E-18
 -1      4005 9.22354E-05-2.33155E-05-2.95409E-05-2.93894E-06 3.56688E-19-9.91583E-21
 -1      4006 9.21478E-05-2.29408E-05-2.96479E-05-2.07818E-06 1.74669E-19-1.41809E-19
 -1      4007 9.18187E-05-2.26578E-05-2.96544E-05-1.07940E-06 1.54321E-19-3.33275E-20
 -1      4008 9.15704E-05-2.30823E-05-2.93648E-05-3.43276E-06 2.53140E-19 1.78547E-19
 -1      4009 9.39768E-05-2.68460E-05-2.87746E-05 9.04282E-07 1.03724E-19-1.04875E-19
 -1      4010 9.37614E-05-2.66041E-05-2.87838E-05 1.03596E-06-1.21654E-18-4.38266E-19
 -1      4011 9.39532E-05-2.68458E-05-2.87553E-05 6.93018E-07-4.16596E-19-6.36813E-19
 -1      4012 9.34656E-05-2.63186E-05-2.87825E-05 1.12675E-06-1.23379E-18-4.84152E-20
 -1      4013 9.31691E-05-2.60145E-05-2.87843E-05 1.27274E-06-9.43928E-19-6.01782E-19
 -1      4014 9.34451E-05-2.63279E-05-2.87576E-05 8.44517E-07-8.79228E-19-7.31920E-20
 -1      4015 7.86570E-05-1.71191E-05-2.64257E-05-5.61650E-06-5.05639E-20 4.82837E-19
 -1      4016 8.10446E-05-1.80755E-05-2.70366E-05-5.20967E-06 1.89643E-19 1.76821E-19
 -1      4017 8.14288E-05-1.81783E-05-2.70212E-05-2.91816E-06 1.25041E-19 3.83534E-19
 -1      4018 9.46271E-05-2.75910E-05-2.87325E-05 5.34119E-07 2.18971E-18 1.49881E-18
 -1      4019 9.45159E-05-2.74423E-05-2.87463E-05 6.28642E-07 8.62986E-19 1.91820E-18
 -1      4020 9.43309E-05-2.72594E-05-2.87414E-05 5.48527E-07 3.74098E-19 1.36224E-18
 -1      4021 7.48292E-05-1.59569E-05-2.51897E-05-1.05616E-06-1.85977E-19 5.58651E-19
 -1      4022 8.30562E-05-2.68591E-05-2.38813E-05-1.98797E-05-3.03632E-19-2.25392E-18
 -1      4023 9.11837E-05-3.30635E-05-2.50545E-05-1.99360E-05-3.00076E-19-3.50887E-18
 -1      4024 7.92302E-05-1.71137E-05-2.66850E-05 5.18338E-06 2.25657E-19-1.65615E-18
 -1      4025 7.68613E-05-1.61677E-05-2.60444E-05 5.70094E-06 9.31141E-20-1.46030E-18
 -1      4026 7.92755E-05-1.70572E-05-2.65847E-05 2.64992E-06 2.95067E-19-1.40388E-18
 -1      4027 9.41095E-05-2.50046E-05-2.96230E-05 2.97932E-06 2.73898E-19-6.39894E-19
 -1      4028 9.41716E-05-2.55090E-05-2.94203E-05 3.57828E-06 1.20062E-19-4.57736E-19
 -1      4029 9.36585E-05-2.42002E-05-2.97560E-05 2.53656E-06 3.87168E-19-6.73836E-19
 -1      4030 7.16696E-05-1.43786E-05-2.44383E-05 1.82403E-06-1.64020E-19-1.24654E-18
 -1      4031 1.12461E-04-4.66176E-05-2.81835E-05 1.23434E-05-2.31591E-19 2.32044E-19
 -1      4032 1.10616E-04-4.72284E-05-2.72042E-05 1.72098E-05-1.13648E-19-6.79512E-20
 -1      4033 1.04981E-04-4.34044E-05-2.63900E-05 1.88888E-05 1.95562E-20-1.51428E-19
 -1      4034 1.07207E-04-4.22234E-05-2.77671E-05 1.20882E-05 7.94292E-20-1.80846E-20
 -1      4035 9.51458E-05-2.83560E-05-2.86246E-05 2.89004E-08-6.57066E-19 1.31715E-18
 -1      4036 9.51524E-05-2.83642E-05-2.86242E-05 4.06097E-08-1.24788E-18 1.06946E-18
 -1      4037 9.51219E-05-2.83018E-05-2.86363E-05 6.93332E-08-1.61689E-19 2.12140E-19
 -1      4038 9.51232E-05-2.83154E-05-2.86313E-05 2.38030E-08 5.72382E-19 3.26796E-18
 -1      4039 9.23989E-05-2.05772E-05-3.07988E-05 5.93373E-07 4.27819E-19-1.87899E-19
 -1      4040 9.25153E-05-2.06502E-05-3.07971E-05 5.42468E-07 4.66594E-19-3.22337E-19
 -1      4041 9.26068E-05-2.12742E-05-3.05468E-05 5.16160E-07 3.39557E-19-1.51815E-19
 -1      4042 9.27760E-05-2.56598E-05-2.87705E-05 1.35902E-06 1.20277E-20-5.62060E-19
 -1      4043 9.23702E-05-2.52813E-05-2.87587E-05 1.51077E-06-2.95279E-19-7.30889E-20
 -1      4044 9.27678E-05-2.56874E-05-2.87393E-05 9.85844E-07-4.70424E-19-3.41842E-19
 -1      4045 7.00955E-05-1.68636E-05-2.25793E-05 1.14552E-05-1.25723E-19-1.68187E-19
 -1      4046 7.19696E-05-1.62900E-05-2.38553E-05 5.46309E-06-1.58071E-19 1.96663E-19
 -1      4047 9.36511E-05-2.22755E-05-3.05926E-05 6.26837E-07 3.49316E-19-6.64049E-19
 -1      4048 9.38962E-05-2.31344E-05-3.03332E-05 1.29102E-06 4.09424E-19-6.54280E-19
 -1      4049 9.35939E-05-2.29936E-05-3.02444E-05 1.47541E-06 3.04358E-19-5.61789E-19
 -1      4050 7.62540E-05-2.20657E-05-2.32568E-05 1.62097E-05-2.40753E-19-7.89832E-19
 -1      4051 7.15407E-05-1.79806E-05-2.28317E-05-1.35112E-05-3.39144E-22 6.40211E-19
 -1      4052 7.66201E-05-2.25913E-05-2.32868E-05-1.79561E-05 3.35700E-19-9.19104E-19
 -1      4053 9.18525E-05-2.48461E-05-2.87245E-05 1.57522E-06-5.32421E-19-1.76150E-19
 -1      4054 9.12988E-05-2.43785E-05-2.86898E-05 1.71736E-06-4.12049E-19 4.80626E-19
 -1      4055 9.18735E-05-2.49071E-05-2.86870E-05 1.08707E-06-2.34433E-19 1.30183E-18
 -1      4056 1.03627E-04-4.04600E-05-2.71224E-05 1.49406E-05-1.32650E-19-2.69773E-19
 -1      4057 1.02336E-04-4.01326E-05-2.66123E-05 1.68727E-05-1.21941E-20-2.82903E-19
 -1      4058 9.96900E-05-3.94452E-05-2.58116E-05 1.99305E-05 8.65611E-20-6.65192E-19
 -1      4059 9.45038E-05-3.51666E-05-2.54702E-05 1.94395E-05 1.82345E-19-6.27059E-19
 -1      4060 9.88097E-05-3.65953E-05-2.66341E-05 1.56929E-05-5.24399E-20-3.09787E-19
 -1      4061 9.46090E-05-2.75859E-05-2.87216E-05 4.20084E-07 2.16246E-18 9.85348E-19
 -1      4062 9.22444E-05-2.25529E-05-2.98479E-05 3.91991E-07 1.76589E-19 3.29098E-20
 -1      4063 9.24397E-05-2.20582E-05-3.01923E-05 5.84583E-07 2.33387E-19-1.17719E-19
 -1      4064 9.25690E-05-2.20761E-05-3.02032E-05 8.51098E-07 1.98550E-19-2.17035E-19
 -1      4065 1.08141E-04-4.28166E-05-2.80803E-05-1.06922E-05 7.69003E-19 1.27876E-18
 -1      4066 1.05062E-04-4.01716E-05-2.77315E-05-1.14050E-05 4.77915E-19 1.29261E-18
 -1      4067 8.74930E-05-2.12504E-05-2.84232E-05-1.89289E-06 1.67102E-19 3.00693E-20
 -1      4068 8.87809E-05-2.18189E-05-2.87141E-05-1.89380E-06 1.72926E-19 1.80952E-19
 -1      4069 7.75510E-05-1.86714E-05-2.52547E-05 6.86008E-06-1.86595E-19-4.64462E-19
 -1      4070 7.52703E-05-1.66129E-05-2.51257E-05 2.42336E-06-1.74609E-19 2.47401E-19
 -1      4071 7.96428E-05-1.81281E-05-2.63821E-05 6.44825E-07-2.11652E-19 3.75664E-19
 -1      4072 1.01324E-04-3.81559E-05-2.71566E-05-1.36738E-05 9.96389E-20 3.86909E-19
 -1      4073 7.27146E-05-1.51933E-05-2.46857E-05-1.68948E-06 1.26936E-19 2.86317E-19
 -1      4074 8.42955E-05-1.98453E-05-2.76727E-05-1.34310E-06 3.62686E-19 2.07172E-19
 -1      4075 8.60742E-05-2.06202E-05-2.80658E-05-1.54104E-06 2.79398E-19 5.50423E-20
 -1      4076 8.68322E-05-2.09906E-05-2.81561E-05-1.92583E-07 1.90405E-19-1.87057E-19
 -1      4077 8.23237E-05-2.61008E-05-2.38956E-05 1.89256E-05-9.95677E-20-5.34425E-19
 -1      4078 7.88482E-05-2.19107E-05-2.44538E-05 1.32278E-05 1.96803E-20-5.11408E-19
 -1      4079 9.51402E-05-2.83386E-05-2.86288E-05-6.46805E-08 3.08243E-18 5.13179E-19
 -1      4080 9.06752E-05-2.24856E-05-2.91980E-05-2.63669E-06 1.64053E-19 4.25477E-20
 -1      4081 8.89287E-05-2.23992E-05-2.84830E-05 2.81163E-06 5.97509E-19-5.78774E-19
 -1      4082 9.35579E-05-2.51875E-05-2.92994E-05 3.69669E-06 3.27578E-19-6.53571E-19
 -1      4083 8.68209E-05-2.12685E-05-2.81078E-05 1.63164E-06 4.56240E-19-1.92035E-18
 -1      4084 8.54631E-05-2.04808E-05-2.78814E-05 1.57019E-06-5.91683E-19-1.79163E-18
 -1      4085 8.39398E-05-1.96514E-05-2.75685E-05 1.18599E-06-7.10380E-19-1.16879E-18
 -1      4086 8.20740E-05-1.87592E-05-2.71847E-05 9.67110E-07-3.22634E-20-9.93627E-19
 -1      4087 8.45708E-05-2.01381E-05-2.75685E-05-2.32540E-07-3.40135E-19-1.50586E-18
 -1      4088 9.06197E-05-2.38533E-05-2.86231E-05 1.73865E-06-8.41595E-19 7.57177E-19
 -1      4089 8.98717E-05-2.32884E-05-2.85504E-05 1.84702E-06-3.49214E-19 3.80827E-19
 -1      4090 9.06990E-05-2.39673E-05-2.85815E-05 1.09852E-06-3.66957E-19 4.52811E-19
 -1      4091 9.29852E-05-2.17380E-05-3.05317E-05 8.12911E-07 3.07610E-19-2.91438E-19
 -1      4092 9.28919E-05-2.11195E-05-3.07692E-05 6.08827E-07 4.01607E-19-4.58711E-19
 -1      4093 8.18745E-05-2.46316E-05-2.45090E-05-1.62070E-05-3.57289E-19-1.36146E-18
 -1      4094 9.51129E-05-2.83008E-05-2.86340E-05-5.74840E-08 2.18880E-18 1.79666E-18
 -1      4095 9.50960E-05-2.82770E-05-2.86366E-05 7.10321E-09 4.33973E-20 4.69622E-18
 -1      4096 9.50887E-05-2.82651E-05-2.86393E-05 2.93733E-08-3.95837E-19 3.16378E-18
 -1      4097 9.29904E-05-2.06596E-05-3.10016E-05-2.97401E-08 4.64817E-19-7.20382E-19
 -1      4098 9.28501E-05-2.07212E-05-3.09033E-05 3.24710E-07 4.52959E-19-5.03024E-19
 -1      4099 7.28387E-05-1.75686E-05-2.36343E-05-1.05803E-05-3.90244E-19 8.98583E-20
 -1      4100 8.75990E-05-2.96166E-05-2.48444E-05 1.84833E-05-4.52120E-20-6.46875E-19
 -1      4101 9.51028E-05-2.82878E-05-2.86351E-05-3.71199E-08 1.23525E-18 2.17790E-18
 -1      4102 9.50983E-05-2.82829E-05-2.86357E-05-1.56565E-08-1.19344E-20 4.69951E-18
 -1      4103 9.50650E-05-2.82284E-05-2.86438E-05-1.41219E-08-3.73325E-19 4.01000E-18
 -1      4104 9.50800E-05-2.82485E-05-2.86418E-05-5.93302E-08 1.14845E-18 3.14889E-18
 -1      4105 9.47906E-05-3.26782E-05-2.66406E-05-1.40268E-05-3.03270E-19-1.67909E-18
 -1      4106 9.29168E-05-3.04459E-05-2.67690E-05-1.26113E-05-4.86726E-19-1.82644E-18
 -1      4107 9.21930E-05-2.58983E-05-2.84313E-05 5.91851E-06 4.03341E-19-2.74054E-19
 -1      4108 9.23338E-05-2.64621E-05-2.82019E-05 6.79310E-06 2.78055E-19-5.02392E-20
 -1      4109 9.20932E-05-2.70051E-05-2.79133E-05 7.97372E-06-1.18518E-19-9.10726E-20
 -1      4110 9.25886E-05-2.79158E-05-2.76787E-05 9.04533E-06-1.48011E-19-3.50409E-19
 -1      4111 9.07956E-05-2.56472E-05-2.79105E-05 7.20363E-06-8.57373E-22-2.18487E-19
 -1      4112 9.27019E-05-2.88775E-05-2.73597E-05 1.05269E-05-4.43000E-20-5.15292E-19
 -1      4113 9.37321E-05-3.03051E-05-2.71379E-05 1.17438E-05 1.27281E-19-7.28621E-19
 -1      4114 9.06341E-05-2.70437E-05-2.72762E-05 9.93228E-06-2.53590E-19-2.33382E-19
 -1      4115 9.48244E-05-3.19957E-05-2.69133E-05 1.32239E-05 3.90771E-19-7.38314E-19
 -1      4116 9.66932E-05-3.41649E-05-2.67633E-05 1.43731E-05 1.50995E-19-4.84303E-19
 -1      4117 9.49160E-05-3.36165E-05-2.62987E-05 1.59980E-05 1.99374E-19-7.05738E-19
 -1      4118 9.17192E-05-2.95161E-05-2.66725E-05 1.31141E-05 1.86041E-19-7.03147E-19
 -1      4119 9.39695E-05-2.69159E-05-2.87408E-05 4.66058E-07-4.44028E-19 7.26563E-19
 -1      4120 9.37489E-05-2.66864E-05-2.87447E-05 5.27113E-07-6.99871E-19 2.24649E-19
 -1      4121 9.49559E-05-2.80578E-05-2.86717E-05 1.56521E-07 3.24665E-18 4.72653E-19
 -1      4122 9.48944E-05-2.79704E-05-2.86822E-05 1.91807E-07 2.26186E-18 5.12006E-19
 -1      4123 8.94847E-05-2.20546E-05-2.88631E-05-5.84502E-07 1.61774E-19 9.04137E-20
 -1      4124 9.00856E-05-2.23322E-05-2.90522E-05-1.75736E-06 2.06534E-19 6.76853E-20
 -1      4125 9.10654E-05-2.26332E-05-2.93410E-05-1.30692E-06 2.18667E-19 1.36675E-20
 -1      4126 1.01055E-04-3.94245E-05-2.62329E-05-1.80184E-05 4.32745E-19-1.45605E-18
 -1      4127 1.07705E-04-4.34432E-05-2.77104E-05-1.30121E-05 1.46092E-18 4.13696E-19
 -1      4128 1.11330E-04-4.41976E-05-2.85745E-05-8.80815E-06 1.52715E-18 1.31414E-18
 -1      4129 9.22630E-05-2.90570E-05-2.70464E-05-1.09402E-05-4.41180E-19-1.42707E-18
 -1      4130 9.12240E-05-2.77477E-05-2.72190E-05-9.74410E-06-7.63892E-19-1.05886E-18
 -1      4131 9.00490E-05-2.82279E-05-2.65199E-05-1.25998E-05 1.36772E-19-2.37956E-18
 -1      4132 9.11177E-05-2.69248E-05-2.74707E-05-8.30100E-06-1.87206E-18-2.68425E-19
 -1      4133 9.06299E-05-2.61771E-05-2.76352E-05-7.27922E-06-1.82039E-18-3.81411E-19
 -1      4134 8.92268E-05-2.60234E-05-2.71031E-05-9.26793E-06-8.15813E-19-1.07531E-18
 -1      4135 9.07946E-05-2.57761E-05-2.78398E-05-6.17932E-06-1.60585E-18-6.31468E-19
 -1      4136 9.06402E-05-2.54060E-05-2.79799E-05-5.35578E-06-1.37965E-18-1.15910E-18
 -1      4137 8.93614E-05-2.49845E-05-2.75912E-05-6.64522E-06-2.01407E-18-1.49491E-19
 -1      4138 9.09938E-05-2.53035E-05-2.81342E-05-4.49163E-06-1.41442E-18-1.16003E-18
 -1      4139 9.10674E-05-2.52000E-05-2.82415E-05-3.86439E-06-7.30121E-19-1.55013E-18
 -1      4140 8.98252E-05-2.45530E-05-2.79598E-05-4.69303E-06-1.04512E-18-3.66130E-19
 -1      4141 9.14326E-05-2.52505E-05-2.83530E-05-3.26395E-06-1.87686E-19-1.82633E-18
 -1      4142 9.16115E-05-2.52992E-05-2.84303E-05-2.78210E-06-5.56248E-19-1.53231E-18
 -1      4143 9.06032E-05-2.46713E-05-2.82409E-05-3.27252E-06-6.10824E-19-1.21379E-18
 -1      4144 9.19836E-05-2.54532E-05-2.85071E-05-2.34515E-06-1.06593E-18-7.57859E-19
 -1      4145 9.21945E-05-2.55862E-05-2.85598E-05-1.99013E-06-1.05179E-18-1.27138E-18
 -1      4146 9.13430E-05-2.49743E-05-2.84355E-05-2.25774E-06-2.64051E-19-7.56169E-19
 -1      4147 9.25531E-05-2.57857E-05-2.86098E-05-1.66699E-06-6.85052E-19-6.14780E-19
 -1      4148 9.27751E-05-2.59660E-05-2.86424E-05-1.40402E-06-2.25568E-19-2.97115E-19
 -1      4149 9.20501E-05-2.53629E-05-2.85627E-05-1.53287E-06-5.67449E-19-5.88324E-20
 -1      4150 9.30872E-05-2.61817E-05-2.86716E-05-1.18296E-06-5.59092E-19-5.25182E-19
 -1      4151 9.32978E-05-2.63741E-05-2.86891E-05-9.89794E-07-7.25285E-19-8.11071E-19
 -1      4152 9.27170E-05-2.58442E-05-2.86437E-05-1.03940E-06-9.15378E-19 3.84762E-19
 -1      4153 9.35599E-05-2.65820E-05-2.87038E-05-8.36322E-07-8.15644E-19-1.02298E-18
 -1      4154 9.37459E-05-2.67674E-05-2.87107E-05-6.94325E-07-4.16885E-19-1.11181E-18
 -1      4155 9.32828E-05-2.63124E-05-2.86887E-05-7.00922E-07-6.34687E-19-5.32699E-19
 -1      4156 9.39604E-05-2.69569E-05-2.87155E-05-5.88386E-07-4.36219E-19-1.42679E-18
 -1      4157 9.41174E-05-2.71249E-05-2.87152E-05-4.83940E-07-1.13660E-18-1.77009E-18
 -1      4158 9.37539E-05-2.67432E-05-2.87089E-05-4.69465E-07-9.55577E-19-1.81670E-18
 -1      4159 9.42886E-05-2.72905E-05-2.87136E-05-4.11256E-07-3.88060E-19-9.52460E-19
 -1      4160 9.44164E-05-2.74363E-05-2.87088E-05-3.34438E-07 5.16610E-19-5.97871E-19
 -1      4161 9.41360E-05-2.71225E-05-2.87125E-05-3.12438E-07-1.10370E-19-3.18636E-19
 -1      4162 9.45499E-05-2.75762E-05-2.87033E-05-2.84797E-07 1.07422E-18-6.33531E-19
 -1      4163 9.46507E-05-2.76985E-05-2.86960E-05-2.28309E-07 1.34815E-18-1.32927E-19
 -1      4164 9.44382E-05-2.74454E-05-2.87055E-05-2.06446E-07 1.20674E-18 4.58216E-19
 -1      4165 9.47523E-05-2.78134E-05-2.86884E-05-1.94462E-07 1.02607E-18-6.14975E-19
 -1      4166 9.48297E-05-2.79135E-05-2.86800E-05-1.52922E-07 7.35409E-19 2.08658E-19
 -1      4167 9.46714E-05-2.77127E-05-2.86925E-05-1.35223E-07 1.51467E-18 3.16475E-19
 -1      4168 9.49055E-05-2.80064E-05-2.86715E-05-1.29971E-07 1.07180E-19 1.51824E-18
 -1      4169 9.49644E-05-2.80859E-05-2.86628E-05-9.92323E-08-6.42294E-19 2.11577E-18
 -1      4170 9.48468E-05-2.79297E-05-2.86764E-05-8.78082E-08 1.42970E-18 8.69671E-19
 -1      4171 9.50394E-05-2.81899E-05-2.86502E-05-8.00963E-08-1.49013E-19 3.38406E-18
 -1      4172 9.43369E-05-2.73089E-05-2.87292E-05 3.76662E-07 7.29390E-19 3.85734E-19
 -1      4173 9.41744E-05-2.71253E-05-2.87375E-05 4.35580E-07-3.36077E-20 4.84892E-19
 -1      4174 9.40103E-05-2.69545E-05-2.87284E-05 2.89434E-07 2.63846E-19 1.32949E-18
 -1      4175 7.64966E-05-1.66217E-05-2.56599E-05-1.53745E-06 7.88006E-19 8.47434E-20
 -1      4176 7.33402E-05-1.61804E-05-2.44262E-05-6.02392E-06 1.25172E-19 2.99494E-19
 -1      4177 9.80050E-05-3.65939E-05-2.62109E-05-1.70481E-05-2.04159E-19-1.97358E-18
 -1      4178 9.48104E-05-2.78670E-05-2.86919E-05 2.17980E-07 1.25367E-18 1.11950E-18
 -1      4179 9.47250E-05-2.77536E-05-2.87027E-05 2.62730E-07 2.11149E-18 7.63730E-19
 -1      4180 9.48207E-05-2.78802E-05-2.86854E-05 1.49556E-07 2.42642E-18 2.92387E-19
 -1      4181 9.34812E-05-2.64284E-05-2.87410E-05 5.49262E-07-8.65704E-19-1.29643E-19
 -1      4182 9.31846E-05-2.61454E-05-2.87369E-05 6.04613E-07-1.14087E-18 1.82101E-19
 -1      4183 9.35451E-05-2.64861E-05-2.87265E-05 3.15967E-07-9.45821E-19 1.04999E-18
 -1      4184 9.31120E-05-2.25226E-05-3.02699E-05 1.30032E-06 2.58261E-19-3.48011E-19
 -1      4185 9.35419E-05-3.26085E-05-2.61235E-05-1.58665E-05-5.16055E-19-1.93791E-18
 -1      4186 9.30131E-05-2.44497E-05-2.93921E-05 3.00203E-06 3.77682E-19-6.01533E-19
 -1      4187 9.29199E-05-2.48372E-05-2.91672E-05 3.60677E-06 3.90257E-19-6.16537E-19
 -1      4188 9.26725E-05-1.99529E-05-3.11639E-05-3.27093E-07 4.92607E-19-7.33499E-19
 -1      4189 8.06053E-05-1.81179E-05-2.67951E-05 1.38039E-07 1.73700E-20-3.23065E-19
 -1      4190 7.80793E-05-1.70625E-05-2.61852E-05-3.41887E-07 5.47417E-19 1.59274E-19
 -1      4191 7.86121E-05-1.80092E-05-2.59603E-05-4.15268E-06 9.79920E-20 4.24273E-19
 -1      4192 8.16226E-05-1.88082E-05-2.68594E-05-1.73658E-06 3.31509E-20 2.86887E-20
 -1      4193 9.25978E-05-2.51499E-05-2.89192E-05 4.29722E-06 4.84618E-19-5.77663E-19
 -1      4194 9.25430E-05-2.55477E-05-2.86945E-05 5.00928E-06 4.44652E-19-4.49453E-19
 -1      4195 9.13706E-05-2.48608E-05-2.84835E-05 5.13592E-06 5.20253E-19-6.43618E-19
 -1      4196 9.50893E-05-2.82587E-05-2.86414E-05 5.79265E-08 7.17470E-19 9.99166E-19
 -1      4197 9.50912E-05-2.82574E-05-2.86438E-05 8.36644E-08 1.21049E-18 7.36103E-20
 -1      4198 9.50668E-05-2.82147E-05-2.86506E-05 1.03822E-07 2.96163E-18 1.99187E-20
 -1      4199 9.50589E-05-2.82158E-05-2.86468E-05 4.21607E-08 1.07576E-18 2.32909E-18
 -1      4200 7.62252E-05-1.86557E-05-2.47293E-05-9.46329E-06 1.28782E-19-6.94742E-19
 -1      4201 8.17579E-05-1.89166E-05-2.69365E-05 8.29497E-08 1.11107E-20 1.75089E-19
 -1      4202 9.28391E-05-2.58323E-05-2.87217E-05 6.06800E-07-9.90120E-19 7.63325E-19
 -1      4203 9.24437E-05-2.54882E-05-2.87041E-05 6.43301E-07-2.52486E-19 8.08107E-19
 -1      4204 9.29398E-05-2.59198E-05-2.87057E-05 3.02472E-07-7.70067E-19 1.22885E-18
 -1      4205 8.89848E-05-2.26661E-05-2.84334E-05 1.78595E-06-9.33899E-20-4.84257E-19
 -1      4206 8.79774E-05-2.19943E-05-2.83005E-05 1.82764E-06 3.01382E-19-7.86555E-19
 -1      4207 8.71748E-05-2.15866E-05-2.80767E-05 5.53987E-07-5.35409E-19-1.53572E-18
 -1      4208 8.91667E-05-2.28638E-05-2.83923E-05 9.57273E-07-6.68391E-19 5.88683E-19
 -1      4209 9.22535E-05-1.94953E-05-3.11770E-05 7.26932E-08 5.06824E-19-4.35679E-19
 -1      4210 9.20025E-05-2.51146E-05-2.86708E-05 6.08434E-07 1.43626E-19 1.15203E-18
 -1      4211 9.14819E-05-2.47054E-05-2.86315E-05 6.05475E-07-4.36135E-19 1.09801E-18
 -1      4212 9.21597E-05-2.52486E-05-2.86549E-05 2.13214E-07-2.74151E-19 4.76313E-19
 -1      4213 9.14448E-05-2.25135E-05-2.95216E-05-3.48875E-07 1.29202E-19 1.64013E-19
 -1      4214 9.29664E-05-2.31423E-05-2.99270E-05 1.54884E-06 1.92700E-19-3.43184E-19
 -1      4215 9.46101E-05-2.76216E-05-2.87118E-05 2.92167E-07 2.07276E-18 7.21540E-19
 -1      4216 9.44916E-05-2.74764E-05-2.87220E-05 3.44837E-07 1.93698E-18 3.26566E-19
 -1      4217 9.43634E-05-2.73354E-05-2.87191E-05 2.45113E-07 1.48495E-18-1.40119E-19
 -1      4218 9.46275E-05-2.76403E-05-2.87036E-05 1.96209E-07 1.59508E-18 8.28754E-19
 -1      4219 9.16102E-05-2.27724E-05-2.95231E-05 5.34157E-07 1.41951E-19 1.77044E-20
 -1      4220 9.18257E-05-2.28777E-05-2.95315E-05 1.15521E-06 8.72072E-20-2.79630E-19
 -1      4221 9.08649E-05-2.27255E-05-2.92046E-05 4.70416E-07 1.12696E-19-7.42959E-20
 -1      4222 8.77998E-05-2.22201E-05-2.81147E-05-3.49430E-07-1.01043E-18 4.22149E-19
 -1      4223 8.66579E-05-2.15951E-05-2.79162E-05-7.20177E-07-1.52117E-18-5.53605E-19
 -1      4224 8.65118E-05-2.16972E-05-2.77346E-05-2.20245E-06-1.33146E-18 7.51506E-19
 -1      4225 8.55940E-05-2.10261E-05-2.76700E-05-1.32735E-06-7.79461E-19-5.11658E-19
 -1      4226 8.41204E-05-2.03749E-05-2.73528E-05-1.96594E-06-5.29504E-19-3.48923E-19
 -1      4227 9.50320E-05-2.81665E-05-2.86573E-05 1.16446E-07 2.98355E-18-4.66491E-19
 -1      4228 9.49996E-05-2.81152E-05-2.86647E-05 1.41184E-07 3.03366E-18 3.91258E-19
 -1      4229 9.49482E-05-2.80519E-05-2.86690E-05 1.09542E-07 3.33283E-18-3.66215E-19
 -1      4230 9.50260E-05-2.81619E-05-2.86555E-05 8.37836E-08 2.59153E-18 5.42505E-19
 -1      4231 9.20602E-05-2.43318E-05-2.90084E-05 3.57761E-06 4.69631E-19-8.31984E-19
 -1      4232 8.30603E-05-1.97094E-05-2.70862E-05 1.88285E-06 3.55324E-20-2.56396E-19
 -1      4233 7.94183E-05-1.97041E-05-2.55743E-05-8.23496E-06 3.01931E-19-7.04456E-19
 -1      4234 7.94217E-05-2.10124E-05-2.49188E-05-1.21611E-05 1.35944E-19-6.93942E-19
 -1      4235 8.84645E-05-2.20476E-05-2.84911E-05 8.45017E-07 2.53612E-19-5.37217E-20
 -1      4236 8.97798E-05-2.25186E-05-2.88507E-05 7.66344E-07 2.15396E-19 9.97900E-21
 -1      4237 9.01890E-05-2.27988E-05-2.88516E-05 1.76261E-06 2.67798E-19-4.84562E-19
 -1      4238 8.25679E-05-2.35368E-05-2.53651E-05 1.25954E-05-1.63305E-19-5.12210E-19
 -1      4239 7.81664E-05-1.98298E-05-2.49455E-05 9.59982E-06-8.87466E-20-7.77603E-19
 -1      4240 9.11609E-05-2.44802E-05-2.85582E-05-9.73772E-09-3.22843E-19 4.19687E-19
 -1      4241 9.09283E-05-2.42687E-05-2.85715E-05 5.07385E-07-8.50961E-19 1.34255E-18
 -1      4242 9.02621E-05-2.37940E-05-2.84990E-05 4.42580E-07-5.91092E-19 6.25282E-19
 -1      4243 8.39745E-05-2.50139E-05-2.53480E-05-1.42559E-05-1.11501E-19-1.90609E-18
 -1      4244 9.28831E-05-2.36229E-05-2.96864E-05 2.06924E-06 2.15050E-19-4.00861E-19
 -1      4245 9.50268E-05-2.81746E-05-2.86508E-05 1.34335E-08 3.63556E-19 4.65612E-18
 -1      4246 9.50245E-05-2.81690E-05-2.86530E-05 4.61167E-08 1.70445E-18 1.86561E-18
 -1      4247 9.49899E-05-2.81171E-05-2.86595E-05 5.52627E-08 1.66888E-18 8.72926E-19
 -1      4248 8.10416E-05-2.02066E-05-2.60517E-05 6.51267E-06-1.17655E-19-5.95979E-19
 -1      4249 9.50019E-05-2.81375E-05-2.86554E-05-5.23238E-08 4.40255E-19 4.18770E-18
 -1      4250 8.92323E-05-2.91757E-05-2.56582E-05-1.61260E-05-2.50771E-19-2.99398E-18
 -1      4251 8.61213E-05-2.56161E-05-2.59140E-05-1.28703E-05 2.77855E-19-2.16978E-18
 -1      4252 9.25730E-05-3.25679E-05-2.56500E-05 1.77664E-05 1.72672E-19-7.60153E-19
 -1      4253 8.85306E-05-2.86284E-05-2.57358E-05 1.53420E-05 2.03070E-19-6.43549E-19
 -1      4254 8.59824E-05-2.13285E-05-2.77717E-05 2.16027E-06 3.41563E-19-4.72582E-19
 -1      4255 8.74191E-05-2.17992E-05-2.81441E-05 1.55051E-06 3.99908E-19-2.66971E-19
 -1      4256 8.80809E-05-2.23031E-05-2.81399E-05 3.00352E-06 4.90384E-19-6.25435E-19
 -1      4257 8.94669E-05-2.79694E-05-2.63527E-05 1.30935E-05 1.04770E-19-3.26991E-19
 -1      4258 8.53860E-05-2.52560E-05-2.56960E-05 1.33302E-05-1.77314E-19-3.40179E-19
 -1      4259 8.38104E-05-2.31612E-05-2.60566E-05 1.04665E-05-1.59191E-19-4.33411E-19
 -1      4260 8.84715E-05-2.64637E-05-2.66236E-05 1.14231E-05-5.43758E-20 1.06322E-20
 -1      4261 9.50311E-05-2.81819E-05-2.86499E-05-1.50043E-08 5.00248E-19 3.91109E-18
 -1      4262 9.49545E-05-2.80776E-05-2.86623E-05-2.75618E-08 1.74203E-18 2.96286E-18
 -1      4263 8.34097E-05-2.17040E-05-2.63837E-05 7.79769E-06-1.21265E-20-6.47165E-19
 -1      4264 8.25324E-05-2.05303E-05-2.66305E-05 5.19425E-06 2.13950E-20-7.62262E-19
 -1      4265 8.56736E-05-2.44043E-05-2.62806E-05-1.09034E-05 4.01023E-19-1.75946E-18
 -1      4266 8.78515E-05-2.39370E-05-2.73791E-05-6.55798E-06-1.70758E-18-3.65807E-19
 -1      4267 8.80202E-05-2.36784E-05-2.75949E-05-5.42980E-06-1.33341E-18 2.18564E-19
 -1      4268 8.82407E-05-2.32470E-05-2.78520E-05-3.65527E-06-1.32356E-18 2.47565E-19
 -1      4269 8.87079E-05-2.33701E-05-2.80208E-05-2.89329E-06-8.89938E-19 2.38347E-19
 -1      4270 9.07322E-05-2.45051E-05-2.83834E-05-1.97623E-06-1.38358E-19-7.36624E-19
 -1      4271 9.11203E-05-2.46983E-05-2.84619E-05-1.57518E-06 1.05458E-19-9.53230E-19
 -1      4272 9.15689E-05-2.49602E-05-2.85531E-05-8.58798E-07-4.08737E-20-6.72998E-20
 -1      4273 9.19456E-05-2.52418E-05-2.86048E-05-5.96796E-07-6.86190E-19 4.96716E-19
 -1      4274 9.23839E-05-2.55770E-05-2.86420E-05-4.92835E-07-9.86138E-19 1.11952E-18
 -1      4275 9.27096E-05-2.58399E-05-2.86723E-05-3.10063E-07-5.85723E-19 1.21916E-18
 -1      4276 9.30587E-05-2.61347E-05-2.86910E-05-2.62773E-07-9.98132E-19 9.61719E-19
 -1      4277 9.33319E-05-2.63742E-05-2.87064E-05-1.40123E-07-9.67358E-19 4.32664E-19
 -1      4278 9.36047E-05-2.66257E-05-2.87129E-05-1.26165E-07-7.14745E-19 4.10664E-19
 -1      4279 9.38270E-05-2.68354E-05-2.87181E-05-4.52764E-08-4.31402E-19 3.58726E-19
 -1      4280 9.40370E-05-2.70449E-05-2.87169E-05-4.94096E-08 4.85341E-19 1.45424E-19
 -1      4281 9.42136E-05-2.72230E-05-2.87155E-05 3.35250E-09 1.35458E-18 7.25295E-19
 -1      4282 9.43729E-05-2.73941E-05-2.87099E-05-9.40862E-09 1.39771E-18 9.56504E-19
 -1      4283 9.45099E-05-2.75413E-05-2.87045E-05 2.47116E-08 1.19501E-18 1.11511E-18
 -1      4284 9.46289E-05-2.76786E-05-2.86964E-05 9.09041E-09 1.10462E-18 1.49372E-18
 -1      4285 9.47333E-05-2.77979E-05-2.86890E-05 3.09981E-08 1.88384E-18 1.05239E-18
 -1      4286 9.48204E-05-2.79054E-05-2.86799E-05 1.61675E-08 2.82154E-18 4.12636E-19
 -1      4287 9.48977E-05-2.79998E-05-2.86715E-05 2.78897E-08 2.53139E-18 1.40205E-18
 -1      4288 8.00215E-05-1.93766E-05-2.59947E-05-6.47660E-06 4.36933E-19-5.40381E-19
 -1      4289 8.26417E-05-2.17047E-05-2.61402E-05-8.98532E-06 6.91969E-19-7.45566E-19
 -1      4290 8.15620E-05-1.97641E-05-2.64767E-05-5.06424E-06 5.30056E-19-1.95181E-19
 -1      4291 8.49134E-05-2.10624E-05-2.73618E-05 3.25485E-06 2.16979E-19-5.18608E-19
 -1      4292 9.02955E-05-2.36035E-05-2.86092E-05 3.33140E-06 4.77687E-19-7.59859E-19
 -1      4293 8.98688E-05-2.37754E-05-2.83276E-05 4.21046E-06 5.03597E-19-7.26469E-19
 -1      4294 9.22924E-05-2.33637E-05-2.95535E-05 1.92552E-06 1.88478E-19-4.50392E-19
 -1      4295 8.89026E-05-2.37028E-05-2.79833E-05 5.13877E-06 3.95156E-19-6.75914E-19
 -1      4296 8.95501E-05-2.32975E-05-2.83983E-05 2.04573E-07-4.26932E-19 3.08320E-19
 -1      4297 8.86757E-05-2.27447E-05-2.82749E-05 3.12335E-08-1.46898E-19 2.75605E-19
 -1      4298 8.99630E-05-2.36606E-05-2.83994E-05-4.26634E-07-7.03177E-19 3.64680E-19
 -1      4299 8.85703E-05-2.39873E-05-2.76672E-05 6.27604E-06-6.03599E-21-5.27018E-19
 -1      4300 9.17068E-05-2.35356E-05-2.92276E-05 2.19458E-06 2.05912E-19-5.54332E-19
 -1      4301 9.13210E-05-2.37553E-05-2.89707E-05 2.83527E-06 2.58254E-19-7.62176E-19
 -1      4302 8.61838E-05-2.39459E-05-2.66429E-05-9.23227E-06 9.14103E-19-1.81090E-18
 -1      4303 8.83955E-05-2.27148E-05-2.81410E-05-1.12889E-06-7.67703E-19 2.05545E-19
 -1      4304 8.69203E-05-2.23402E-05-2.76828E-05-3.38450E-06-1.53796E-18 7.42417E-19
 -1      4305 8.84263E-05-2.49379E-05-2.72352E-05 8.49972E-06-2.74062E-19-1.11410E-19
 -1      4306 8.84831E-05-2.56849E-05-2.68762E-05 1.00374E-05-6.26719E-20 9.12860E-20
 -1      4307 8.62580E-05-2.34144E-05-2.69519E-05-7.67803E-06-1.43778E-19-9.80622E-19
 -1      4308 8.50372E-05-2.20278E-05-2.69953E-05-6.20960E-06-2.15489E-20-4.97902E-19
 -1      4309 8.86166E-05-2.29609E-05-2.81198E-05-1.71170E-06-1.28052E-18 4.02235E-19
 -1      4310 8.98063E-05-2.40794E-05-2.81801E-05-2.87180E-06-1.27628E-18 3.28961E-20
 -1      4311 9.02314E-05-2.42373E-05-2.83010E-05-2.25599E-06-1.10165E-18-5.12024E-19
 -1      4312 9.49433E-05-2.80542E-05-2.86661E-05 6.62405E-08 2.87386E-18 9.30921E-19
 -1      4313 9.10457E-05-2.46006E-05-2.84894E-05-1.06255E-06-1.89657E-19-5.04256E-19
 -1      4314 8.62911E-05-2.41355E-05-2.65944E-05 9.80168E-06-6.38302E-20 3.00086E-19
 -1      4315 8.60057E-05-2.19354E-05-2.73792E-05 4.93257E-06 2.80821E-19-5.85995E-19
 -1      4316 9.01279E-05-2.39818E-05-2.83421E-05-1.50750E-06-9.56010E-19 7.50901E-19
 -1      4317 8.94739E-05-2.34746E-05-2.82779E-05-1.23246E-06-1.01429E-18 2.75763E-19
 -1      4318 8.54808E-05-2.33643E-05-2.66360E-05 8.77834E-06-2.10815E-20-3.60378E-19
 -1      4319 8.42369E-05-2.08658E-05-2.71345E-05-3.98215E-06-1.84960E-19-4.81600E-19
 -1      4320 8.28373E-05-1.98552E-05-2.69829E-05-2.92997E-06-6.82788E-20-5.94175E-19
 -1      4321 8.98979E-05-2.37491E-05-2.83584E-05-1.00869E-06-4.43158E-19 7.59540E-19
 -1      4322 8.59961E-05-2.19867E-05-2.74438E-05-4.19367E-06-4.32547E-19 3.50149E-19
 -1      4323 8.65070E-05-2.27687E-05-2.73247E-05 6.12369E-06 1.43394E-19-5.19569E-19
 -1      4324 8.42723E-05-2.12197E-05-2.70336E-05-4.92581E-06 1.40643E-19-4.49445E-19
 -1      4325 8.14635E-05-1.94546E-05-2.65999E-05-4.04007E-06 4.42667E-19-3.12083E-19
 -1      4326 9.05597E-05-2.41866E-05-2.84545E-05-7.35415E-07-3.16648E-19 3.10697E-20
 -1      4327 8.54116E-05-2.28321E-05-2.68997E-05 7.56213E-06 2.04045E-20-4.07824E-19
 -1      4328 8.29782E-05-2.08469E-05-2.66385E-05-6.18638E-06 7.40054E-19-5.83047E-19
 -3
    1PSTEP                         4           1           1          
  100CL  101 1.000000000        4328                     0    1           1
 -4  ERROR       1    1
 -5  STR(%)      1    1    0    0
 -1         1 4.05274E+01
 -1         2 2.51838E+01
 -1         3 8.13528E-04
 -1         4 6.74575E-04
 -1         5 1.39403E+01
 -1         6 1.30446E+01
 -1         7 1.30446E+01
 -1         8 3.59536E+00
 -1         9 1.80051E+00
 -1        10 1.29340E+00
 -1        11 1.04199E+00
 -1        12 8.82874E-01
 -1        13 7.76757E-01
 -1        14 7.04457E-01
 -1        15 7.02597E-01
 -1        16 7.74098E-01
 -1        17 8.76300E-01
 -1        18 1.04226E+00
 -1        19 1.30422E+00
 -1        20 1.80410E+00
 -1        21 3.42509E+00
 -1        22 8.49905E+00
 -1        23 1.30446E+01
 -1        24 4.30947E+00
 -1        25 3.29193E+00
 -1        26 2.04732E+00
 -1        27 1.39685E+00
 -1        28 1.05219E+00
 -1        29 7.95251E-01
 -1        30 5.80606E-01
 -1        31 4.12912E-01
 -1        32 4.01012E-01
 -1        33 4.01093E-01
 -1        34 4.02402E-01
 -1        35 4.43229E-01
 -1        36 5.10370E-01
 -1        37 7.75392E-01
 -1        38 1.04559E+00
 -1        39 1.63139E+00
 -1        40 2.18783E+00
 -1        41 2.46416E+00
 -1        42 2.46416E+00
 -1        43 2.45662E+00
 -1        44 2.45662E+00
 -1        45 2.12176E+00
 -1        46 1.53746E+00
 -1        47 9.82499E-01
 -1        48 7.80194E-01
 -1        49 5.25019E-01
 -1        50 5.12852E-01
 -1        51 4.33240E-01
 -1        52 4.32951E-01
 -1        53 3.90513E-01
 -1        54 3.21922E-01
 -1        55 2.48478E-01
 -1        56 2.03567E-01
 -1        57 1.80034E-01
 -1        58 1.50978E-01
 -1        59 1.21181E-01
 -1        60 9.35323E-02
 -1        61 6.95073E-02
 -1        62 5.78943E-02
 -1        63 4.83341E-02
 -1        64 3.89279E-02
 -1        65 3.02029E-02
 -1        66 2.23940E-02
 -1        67 1.60731E-02
 -1        68 1.25551E-02
 -1        69 8.71119E-03
 -1        70 4.72410E-03
 -1        71 3.60040E-03
 -1        72 1.39403E+01
 -1        73 3.42474E+00
 -1        74 2.42939E+00
 -1        75 1.68324E+00
 -1        76 1.30913E+00
 -1        77 1.14770E+00
 -1        78 1.04131E+00
 -1        79 9.76637E-01
 -1        80 9.90999E-01
 -1        81 1.18654E+00
 -1        82 1.38764E+00
 -1        83 1.54314E+00
 -1        84 1.60543E+00
 -1        85 2.23082E+00
 -1        86 2.76922E+00
 -1        87 2.99118E+00
 -1        88 3.18102E+00
 -1        89 4.41055E+00
 -1        90 7.35708E+00
 -1        91 8.62031E+00
 -1        92 8.62031E+00
 -1        93 8.48345E+00
 -1        94 4.69383E+00
 -1        95 2.68637E+00
 -1        96 3.26095E+00
 -1        97 3.26095E+00
 -1        98 3.13225E+00
 -1        99 2.61249E+00
 -1       100 2.12872E+00
 -1       101 1.69110E+00
 -1       102 1.20148E+00
 -1       103 8.63612E-01
 -1       104 6.04665E-01
 -1       105 4.39799E-01
 -1       106 3.22408E-01
 -1       107 2.33128E-01
 -1       108 1.66243E-01
 -1       109 1.16677E-01
 -1       110 8.02730E-02
 -1       111 5.37647E-02
 -1       112 4.18118E-02
 -1       113 3.35230E-02
 -1       114 2.62495E-02
 -1       115 1.99178E-02
 -1       116 1.59621E-02
 -1       117 1.32928E-02
 -1       118 1.00255E-02
 -1       119 6.25427E-03
 -1       120 3.84792E-03
 -1       121 1.86059E-03
 -1       122 9.50509E-04
 -1       123 5.42284E-04
 -1       124 6.80113E-04
 -1       125 6.80113E-04
 -1       126 6.15996E-04
 -1       127 4.62976E-04
 -1       128 3.24086E-04
 -1       129 2.66418E-04
 -1       130 3.58504E-04
 -1       131 4.83733E-04
 -1       132 5.59288E-04
 -1       133 5.59288E-04
 -1       134 4.64606E-04
 -1       135 1.12756E-03
 -1       136 2.20804E-03
 -1       137 2.55103E+01
 -1       138 2.83486E+01
 -1       139 2.87761E+01
 -1       140 2.71473E+01
 -1       141 1.29848E+01
 -1       142 1.31051E+01
 -1       143 1.31051E+01
 -1       144 1.27778E+01
 -1       145 1.26818E+01
 -1       146 1.39619E+01
 -1       147 3.48181E+01
 -1       148 3.48181E+01
 -1       149 2.52807E+01
 -1       150 2.45137E+01
 -1       151 2.39715E+01
 -1       152 2.39715E+01
 -1       153 4.05274E+01
 -1       154 1.50539E+01
 -1       155 1.17899E+01
 -1       156 1.22711E+01
 -1       157 1.22711E+01
 -1       158 1.33447E+01
 -1       159 1.33447E+01
 -1       160 1.22084E+01
 -1       161 1.95762E+01
 -1       162 4.65283E+01
 -1       163 4.65283E+01
 -1       164 2.51838E+01
 -1       165 5.96997E+00
 -1       166 2.27095E+00
 -1       167 1.51652E+00
 -1       168 1.16110E+00
 -1       169 9.63971E-01
 -1       170 8.38515E-01
 -1       171 7.53526E-01
 -1       172 6.97412E-01
 -1       173 7.51903E-01
 -1       174 8.35101E-01
 -1       175 9.66223E-01
 -1       176 1.17167E+00
 -1       177 1.53184E+00
 -1       178 2.25564E+00
 -1       179 3.85879E+00
 -1       180 1.39403E+01
 -1       181 4.30947E+00
 -1       182 3.29193E+00
 -1       183 2.04732E+00
 -1       184 1.39685E+00
 -1       185 1.05219E+00
 -1       186 7.95251E-01
 -1       187 5.80606E-01
 -1       188 4.12912E-01
 -1       189 4.01012E-01
 -1       190 3.62822E-01
 -1       191 4.01093E-01
 -1       192 4.02402E-01
 -1       193 4.43229E-01
 -1       194 5.13009E-01
 -1       195 8.24499E-01
 -1       196 1.17209E+00
 -1       197 1.63139E+00
 -1       198 2.18783E+00
 -1       199 2.46416E+00
 -1       200 2.40561E+00
 -1       201 2.45662E+00
 -1       202 2.12176E+00
 -1       203 1.54270E+00
 -1       204 1.09813E+00
 -1       205 7.80194E-01
 -1       206 5.25019E-01
 -1       207 5.12852E-01
 -1       208 4.33240E-01
 -1       209 4.32951E-01
 -1       210 3.90513E-01
 -1       211 3.21922E-01
 -1       212 2.61806E-01
 -1       213 2.19082E-01
 -1       214 1.80115E-01
 -1       215 1.50978E-01
 -1       216 1.21181E-01
 -1       217 9.47658E-02
 -1       218 7.37106E-02
 -1       219 5.78943E-02
 -1       220 4.83341E-02
 -1       221 3.89279E-02
 -1       222 3.02029E-02
 -1       223 2.23940E-02
 -1       224 1.61756E-02
 -1       225 1.25551E-02
 -1       226 8.71119E-03
 -1       227 5.26214E-03
 -1       228 3.60040E-03
 -1       229 3.42474E+00
 -1       230 2.42939E+00
 -1       231 1.68324E+00
 -1       232 1.30913E+00
 -1       233 1.14770E+00
 -1       234 1.04131E+00
 -1       235 9.76637E-01
 -1       236 9.41328E-01
 -1       237 9.90999E-01
 -1       238 1.18654E+00
 -1       239 1.38764E+00
 -1       240 1.54314E+00
 -1       241 1.90034E+00
 -1       242 2.23082E+00
 -1       243 2.76922E+00
 -1       244 2.99118E+00
 -1       245 3.18102E+00
 -1       246 4.41055E+00
 -1       247 7.35708E+00
 -1       248 8.62031E+00
 -1       249 8.48345E+00
 -1       250 4.69383E+00
 -1       251 2.29715E+00
 -1       252 2.76379E+00
 -1       253 3.26095E+00
 -1       254 3.13225E+00
 -1       255 2.61249E+00
 -1       256 2.12872E+00
 -1       257 1.73120E+00
 -1       258 1.28013E+00
 -1       259 9.43617E-01
 -1       260 6.77407E-01
 -1       261 4.79488E-01
 -1       262 3.36160E-01
 -1       263 2.33128E-01
 -1       264 1.67128E-01
 -1       265 1.19792E-01
 -1       266 8.44901E-02
 -1       267 5.83827E-02
 -1       268 4.18118E-02
 -1       269 3.35230E-02
 -1       270 2.62495E-02
 -1       271 1.99178E-02
 -1       272 1.59621E-02
 -1       273 1.32928E-02
 -1       274 1.00255E-02
 -1       275 6.25427E-03
 -1       276 3.84792E-03
 -1       277 1.23325E-03
 -1       278 8.99255E-04
 -1       279 1.19330E-03
 -1       280 1.19330E-03
 -1       281 1.16886E-03
 -1       282 9.83937E-04
 -1       283 6.86139E-04
 -1       284 4.30560E-04
 -1       285 5.08382E-04
 -1       286 7.43454E-04
 -1       287 9.32279E-04
 -1       288 9.65790E-04
 -1       289 1.04177E-03
 -1       290 1.04177E-03
 -1       291 1.92883E-03
 -1       292 2.88974E+01
 -1       293 3.23252E+01
 -1       294 3.23252E+01
 -1       295 2.87761E+01
 -1       296 1.29848E+01
 -1       297 1.25928E+01
 -1       298 1.31051E+01
 -1       299 1.27778E+01
 -1       300 1.26818E+01
 -1       301 1.22228E+01
 -1       302 1.39619E+01
 -1       303 3.48181E+01
 -1       304 3.14412E+01
 -1       305 2.76786E+01
 -1       306 2.95108E+01
 -1       307 2.95108E+01
 -1       308 3.64491E+01
 -1       309 4.05274E+01
 -1       310 1.50539E+01
 -1       311 1.05676E+01
 -1       312 1.17899E+01
 -1       313 1.22711E+01
 -1       314 1.19798E+01
 -1       315 1.33447E+01
 -1       316 1.22084E+01
 -1       317 1.09457E+01
 -1       318 2.06557E+01
 -1       319 4.65283E+01
 -1       320 2.79646E+01
 -1       321 2.88974E+01
 -1       322 1.04442E+00
 -1       323 2.42325E+00
 -1       324 7.95337E-01
 -1       325 6.86738E-01
 -1       326 6.11573E-01
 -1       327 5.54095E-01
 -1       328 5.52860E-01
 -1       329 6.08088E-01
 -1       330 6.88322E-01
 -1       331 7.95398E-01
 -1       332 9.39102E-01
 -1       333 1.15148E+00
 -1       334 1.30080E+00
 -1       335 2.13130E+00
 -1       336 1.81768E+00
 -1       337 1.66633E+00
 -1       338 1.17895E+00
 -1       339 7.90160E-01
 -1       340 6.35215E-01
 -1       341 5.03073E-01
 -1       342 3.71539E-01
 -1       343 2.83634E-01
 -1       344 2.80870E-01
 -1       345 2.46423E-01
 -1       346 2.27775E-01
 -1       347 2.68920E-01
 -1       348 4.08469E-01
 -1       349 6.26491E-01
 -1       350 9.29976E-01
 -1       351 1.20541E+00
 -1       352 1.48819E+00
 -1       353 1.68324E+00
 -1       354 1.67697E+00
 -1       355 1.70321E+00
 -1       356 1.67275E+00
 -1       357 1.44418E+00
 -1       358 1.15912E+00
 -1       359 8.61733E-01
 -1       360 5.51466E-01
 -1       361 3.04476E-01
 -1       362 2.35667E-01
 -1       363 2.71195E-01
 -1       364 3.03236E-01
 -1       365 2.91959E-01
 -1       366 2.57105E-01
 -1       367 2.27548E-01
 -1       368 1.98725E-01
 -1       369 1.65881E-01
 -1       370 1.31800E-01
 -1       371 1.00104E-01
 -1       372 7.37106E-02
 -1       373 5.53846E-02
 -1       374 4.01350E-02
 -1       375 2.90933E-02
 -1       376 2.37417E-02
 -1       377 1.89480E-02
 -1       378 1.43340E-02
 -1       379 1.00609E-02
 -1       380 7.06872E-03
 -1       381 4.79095E-03
 -1       382 2.75140E-03
 -1       383 1.11672E+00
 -1       384 7.87121E-01
 -1       385 6.86068E-01
 -1       386 6.70614E-01
 -1       387 6.51207E-01
 -1       388 6.68291E-01
 -1       389 1.00687E+00
 -1       390 1.41525E+00
 -1       391 1.84304E+00
 -1       392 2.21703E+00
 -1       393 2.49430E+00
 -1       394 2.73818E+00
 -1       395 3.09294E+00
 -1       396 3.14410E+00
 -1       397 3.21113E+00
 -1       398 4.85104E+00
 -1       399 7.00419E+00
 -1       400 5.72110E+00
 -1       401 4.42832E+00
 -1       402 2.88842E+00
 -1       403 2.82635E+00
 -1       404 2.78512E+00
 -1       405 2.50486E+00
 -1       406 2.45236E+00
 -1       407 2.20056E+00
 -1       408 1.94687E+00
 -1       409 1.63391E+00
 -1       410 1.22752E+00
 -1       411 9.20192E-01
 -1       412 6.71295E-01
 -1       413 4.79488E-01
 -1       414 3.36160E-01
 -1       415 2.31451E-01
 -1       416 1.67128E-01
 -1       417 1.19792E-01
 -1       418 8.44901E-02
 -1       419 5.83827E-02
 -1       420 3.92419E-02
 -1       421 2.59310E-02
 -1       422 1.90680E-02
 -1       423 1.49097E-02
 -1       424 1.10877E-02
 -1       425 7.66723E-03
 -1       426 6.24699E-03
 -1       427 4.34024E-03
 -1       428 2.67996E-03
 -1       429 1.75368E-03
 -1       430 1.75368E-03
 -1       431 2.27946E-03
 -1       432 1.51361E-03
 -1       433 1.36769E-03
 -1       434 9.46261E-04
 -1       435 5.39927E-04
 -1       436 3.64908E-04
 -1       437 6.23163E-04
 -1       438 1.02732E-03
 -1       439 1.21684E-03
 -1       440 1.43458E-03
 -1       441 1.99184E-03
 -1       442 3.23252E+01
 -1       443 3.39564E+01
 -1       444 3.39564E+01
 -1       445 1.93701E+01
 -1       446 1.15192E+01
 -1       447 9.28247E-01
 -1       448 9.17379E+00
 -1       449 1.08511E+01
 -1       450 1.02219E+01
 -1       451 9.08140E+00
 -1       452 6.85434E+00
 -1       453 1.27375E+01
 -1       454 2.10547E+01
 -1       455 2.30138E+01
 -1       456 3.85955E+01
 -1       457 3.85955E+01
 -1       458 2.81068E+01
 -1       459 2.34475E+01
 -1       460 1.31829E+01
 -1       461 7.40496E+00
 -1       462 7.59997E+00
 -1       463 9.65461E+00
 -1       464 1.07823E+01
 -1       465 1.07900E+01
 -1       466 9.39070E+00
 -1       467 6.96706E+00
 -1       468 9.61353E+00
 -1       469 1.58842E+01
 -1       470 2.79646E+01
 -1       471 2.86966E+01
 -1       472 6.69583E+00
 -1       473 9.70996E-01
 -1       474 4.81198E-01
 -1       475 5.18711E-01
 -1       476 3.94237E-01
 -1       477 4.27610E-01
 -1       478 4.72501E-01
 -1       479 5.12444E-01
 -1       480 5.23520E-01
 -1       481 6.56601E-01
 -1       482 7.74240E-01
 -1       483 7.26882E-01
 -1       484 7.00419E+00
 -1       485 5.92004E-01
 -1       486 4.45092E-01
 -1       487 3.50144E-01
 -1       488 2.88902E-01
 -1       489 2.17148E-01
 -1       490 1.88359E-01
 -1       491 2.11845E-01
 -1       492 2.79564E-01
 -1       493 3.50902E-01
 -1       494 4.29740E-01
 -1       495 6.28865E-01
 -1       496 8.19957E-01
 -1       497 1.02714E+00
 -1       498 1.17138E+00
 -1       499 1.27269E+00
 -1       500 1.27581E+00
 -1       501 1.18687E+00
 -1       502 1.28693E+00
 -1       503 1.25062E+00
 -1       504 1.14753E+00
 -1       505 9.66120E-01
 -1       506 7.37390E-01
 -1       507 5.27705E-01
 -1       508 4.00074E-01
 -1       509 3.37571E-01
 -1       510 2.76325E-01
 -1       511 2.82928E-01
 -1       512 2.66728E-01
 -1       513 2.41828E-01
 -1       514 2.13331E-01
 -1       515 1.83979E-01
 -1       516 1.51469E-01
 -1       517 1.19815E-01
 -1       518 9.13514E-02
 -1       519 6.71770E-02
 -1       520 4.75602E-02
 -1       521 3.22636E-02
 -1       522 2.07831E-02
 -1       523 1.41512E-02
 -1       524 1.05919E-02
 -1       525 8.43974E-03
 -1       526 6.17609E-03
 -1       527 4.04344E-03
 -1       528 4.68817E-01
 -1       529 3.72618E-01
 -1       530 5.04440E-01
 -1       531 8.04656E-01
 -1       532 1.16818E+00
 -1       533 1.59530E+00
 -1       534 2.06979E+00
 -1       535 2.54933E+00
 -1       536 2.95368E+00
 -1       537 3.63018E+00
 -1       538 4.91060E+00
 -1       539 8.44353E+00
 -1       540 7.85445E+00
 -1       541 2.89513E+00
 -1       542 3.83756E+00
 -1       543 5.59800E+00
 -1       544 3.79371E+00
 -1       545 3.07562E+00
 -1       546 2.69207E+00
 -1       547 2.28209E+00
 -1       548 1.84923E+00
 -1       549 1.40891E+00
 -1       550 1.06231E+00
 -1       551 7.84222E-01
 -1       552 5.69261E-01
 -1       553 4.07130E-01
 -1       554 2.86939E-01
 -1       555 1.99022E-01
 -1       556 1.35452E-01
 -1       557 9.00081E-02
 -1       558 5.79375E-02
 -1       559 3.87575E-02
 -1       560 2.77281E-02
 -1       561 1.93545E-02
 -1       562 1.49097E-02
 -1       563 1.10877E-02
 -1       564 7.73370E-03
 -1       565 5.64094E-03
 -1       566 3.74147E-03
 -1       567 1.78911E-03
 -1       568 1.30299E-03
 -1       569 2.27345E-03
 -1       570 2.27345E-03
 -1       571 1.52974E+01
 -1       572 1.18474E-03
 -1       573 1.18474E-03
 -1       574 1.09029E-03
 -1       575 1.10818E-03
 -1       576 1.33396E-03
 -1       577 1.85822E-03
 -1       578 1.51597E-03
 -1       579 1.00308E+01
 -1       580 5.43755E-01
 -1       581 3.39564E+01
 -1       582 2.86966E+01
 -1       583 7.15226E+00
 -1       584 1.33636E+01
 -1       585 1.16524E+01
 -1       586 1.01494E+01
 -1       587 4.85104E+00
 -1       588 4.37310E-01
 -1       589 8.71624E+00
 -1       590 1.67711E+01
 -1       591 4.86567E+00
 -1       592 5.89706E+00
 -1       593 2.81068E+01
 -1       594 2.30138E+01
 -1       595 8.55501E+00
 -1       596 3.85955E+01
 -1       597 1.76205E+01
 -1       598 7.05307E+00
 -1       599 4.10330E+00
 -1       600 5.44543E+00
 -1       601 7.11578E+00
 -1       602 7.76081E+00
 -1       603 6.56977E+00
 -1       604 3.96509E+00
 -1       605 5.25924E+00
 -1       606 1.80889E+01
 -1       607 8.44905E-01
 -1       608 1.25411E+00
 -1       609 2.46299E+01
 -1       610 7.69255E-01
 -1       611 3.21113E+00
 -1       612 2.74121E-03
 -1       613 2.67092E-03
 -1       614 9.51855E+00
 -1       615 5.44335E+00
 -1       616 1.06849E+01
 -1       617 3.28950E-01
 -1       618 2.95746E-01
 -1       619 3.62429E-01
 -1       620 3.62429E-01
 -1       621 4.70022E-01
 -1       622 1.64572E+01
 -1       623 3.48292E-01
 -1       624 2.68352E-01
 -1       625 2.20134E-01
 -1       626 1.68831E-01
 -1       627 1.42790E-01
 -1       628 1.54470E-01
 -1       629 2.11845E-01
 -1       630 2.79564E-01
 -1       631 3.88249E-01
 -1       632 5.26067E-01
 -1       633 6.51782E-01
 -1       634 8.19957E-01
 -1       635 1.08286E+00
 -1       636 1.13480E+00
 -1       637 1.28501E+00
 -1       638 1.55756E+00
 -1       639 1.52846E+00
 -1       640 1.49344E+00
 -1       641 1.51763E+00
 -1       642 1.22864E+00
 -1       643 1.14150E+00
 -1       644 9.81102E-01
 -1       645 7.37390E-01
 -1       646 6.46103E-01
 -1       647 5.17769E-01
 -1       648 3.81545E-01
 -1       649 3.59767E-01
 -1       650 3.18283E-01
 -1       651 2.74800E-01
 -1       652 2.37982E-01
 -1       653 2.02212E-01
 -1       654 1.66782E-01
 -1       655 1.33142E-01
 -1       656 1.03194E-01
 -1       657 7.77640E-02
 -1       658 5.69703E-02
 -1       659 4.05148E-02
 -1       660 2.78847E-02
 -1       661 1.84858E-02
 -1       662 1.17234E-02
 -1       663 7.04351E-03
 -1       664 4.42010E-03
 -1       665 3.50512E-03
 -1       666 3.42543E-01
 -1       667 5.85976E+00
 -1       668 2.06292E-01
 -1       669 8.28696E-01
 -1       670 1.19932E+00
 -1       671 1.69199E+00
 -1       672 2.35455E+00
 -1       673 3.31699E+00
 -1       674 4.34265E+00
 -1       675 5.00980E+00
 -1       676 3.81699E+00
 -1       677 2.70827E+00
 -1       678 1.98451E+00
 -1       679 1.45997E+00
 -1       680 1.08831E+00
 -1       681 8.10065E-01
 -1       682 6.00067E-01
 -1       683 4.41209E-01
 -1       684 3.21378E-01
 -1       685 2.31492E-01
 -1       686 1.64551E-01
 -1       687 1.15120E-01
 -1       688 7.89851E-02
 -1       689 5.28901E-02
 -1       690 3.43280E-02
 -1       691 2.13785E-02
 -1       692 1.30871E-02
 -1       693 9.72599E-03
 -1       694 7.73370E-03
 -1       695 5.64094E-03
 -1       696 3.74147E-03
 -1       697 2.56498E-03
 -1       698 2.63258E-03
 -1       699 2.16259E-03
 -1       700 7.08009E+00
 -1       701 2.46696E-03
 -1       702 2.56498E-03
 -1       703 2.46696E-03
 -1       704 2.11448E-03
 -1       705 1.85822E-03
 -1       706 2.23155E-01
 -1       707 5.10684E+00
 -1       708 1.47527E+01
 -1       709 1.41487E+01
 -1       710 9.32962E+00
 -1       711 7.45543E+00
 -1       712 9.12336E+00
 -1       713 5.53381E-01
 -1       714 3.50632E-01
 -1       715 1.29338E+01
 -1       716 3.04538E+00
 -1       717 1.30799E+01
 -1       718 3.57978E-01
 -1       719 1.50389E+01
 -1       720 1.56028E+01
 -1       721 1.13572E+01
 -1       722 3.70913E-01
 -1       723 5.14768E+00
 -1       724 8.28545E+00
 -1       725 1.22483E+01
 -1       726 4.34620E+00
 -1       727 2.54601E+00
 -1       728 4.75632E+00
 -1       729 5.60594E+00
 -1       730 4.52476E-01
 -1       731 3.11027E-01
 -1       732 1.02582E+01
 -1       733 3.85243E-03
 -1       734 2.10063E-03
 -1       735 8.09074E+00
 -1       736 8.01748E+00
 -1       737 2.70038E+00
 -1       738 3.85243E-03
 -1       739 3.45182E-01
 -1       740 4.48523E+00
 -1       741 4.89979E-01
 -1       742 2.54192E-01
 -1       743 1.60163E-01
 -1       744 1.23960E-01
 -1       745 1.27935E-01
 -1       746 1.62887E-01
 -1       747 2.30026E-01
 -1       748 3.16257E-01
 -1       749 4.10232E-01
 -1       750 5.26067E-01
 -1       751 7.48833E-01
 -1       752 9.62235E-01
 -1       753 1.10950E+00
 -1       754 1.48341E+00
 -1       755 1.37187E+00
 -1       756 1.95032E+00
 -1       757 3.52714E+00
 -1       758 2.65529E+00
 -1       759 2.14181E+00
 -1       760 1.51763E+00
 -1       761 1.53301E+00
 -1       762 1.29289E+00
 -1       763 1.09591E+00
 -1       764 9.62596E-01
 -1       765 7.36755E-01
 -1       766 5.68227E-01
 -1       767 4.91150E-01
 -1       768 4.04003E-01
 -1       769 3.29722E-01
 -1       770 2.77257E-01
 -1       771 2.29794E-01
 -1       772 1.84022E-01
 -1       773 1.43215E-01
 -1       774 1.08683E-01
 -1       775 8.17175E-02
 -1       776 6.02579E-02
 -1       777 4.35341E-02
 -1       778 3.07618E-02
 -1       779 2.12116E-02
 -1       780 1.42355E-02
 -1       781 9.28983E-03
 -1       782 5.86601E-03
 -1       783 3.22058E-03
 -1       784 1.63398E+00
 -1       785 1.13055E+00
 -1       786 3.33657E+00
 -1       787 5.71677E+00
 -1       788 7.26814E+00
 -1       789 9.44385E+00
 -1       790 9.44385E+00
 -1       791 1.06658E+01
 -1       792 2.54665E+00
 -1       793 3.87481E+00
 -1       794 1.38121E+00
 -1       795 9.97384E-01
 -1       796 7.14391E-01
 -1       797 5.07434E-01
 -1       798 3.56903E-01
 -1       799 2.48077E-01
 -1       800 1.72279E-01
 -1       801 1.19928E-01
 -1       802 8.60592E-02
 -1       803 6.06129E-02
 -1       804 4.17747E-02
 -1       805 2.80664E-02
 -1       806 1.82968E-02
 -1       807 1.15124E-02
 -1       808 6.96237E-03
 -1       809 4.79942E-03
 -1       810 5.52240E+00
 -1       811 4.42586E-03
 -1       812 3.06972E-03
 -1       813 3.75785E+00
 -1       814 4.60433E-03
 -1       815 2.38143E-01
 -1       816 4.42586E-03
 -1       817 6.74253E+00
 -1       818 9.02739E+00
 -1       819 1.91759E+00
 -1       820 2.67604E+00
 -1       821 2.32637E+00
 -1       822 3.42554E-01
 -1       823 2.68461E+00
 -1       824 4.40321E+00
 -1       825 7.33957E+00
 -1       826 9.21477E+00
 -1       827 7.65814E+00
 -1       828 2.51980E-01
 -1       829 3.15432E+00
 -1       830 2.36897E+00
 -1       831 3.00134E-01
 -1       832 2.34196E-01
 -1       833 9.12616E+00
 -1       834 2.06696E-01
 -1       835 7.13865E+00
 -1       836 4.20556E+00
 -1       837 2.49650E-01
 -1       838 2.44778E-01
 -1       839 2.58573E-01
 -1       840 7.54887E-01
 -1       841 2.95043E+00
 -1       842 7.28246E+00
 -1       843 4.48166E-03
 -1       844 2.09304E-01
 -1       845 4.60433E-03
 -1       846 4.95683E-01
 -1       847 2.21850E-03
 -1       848 4.79942E-03
 -1       849 2.43807E+00
 -1       850 1.98276E-01
 -1       851 2.53539E+00
 -1       852 2.58573E-01
 -1       853 6.70410E+00
 -1       854 1.63257E-01
 -1       855 2.03123E-01
 -1       856 2.56299E-01
 -1       857 3.47560E-01
 -1       858 4.70727E-01
 -1       859 6.39522E-01
 -1       860 8.16550E-01
 -1       861 1.02095E+00
 -1       862 1.88499E+00
 -1       863 1.48341E+00
 -1       864 1.71975E+00
 -1       865 1.95032E+00
 -1       866 2.53539E+00
 -1       867 1.81042E+00
 -1       868 1.53301E+00
 -1       869 2.25396E+00
 -1       870 1.38821E+00
 -1       871 9.96191E-01
 -1       872 8.55171E-01
 -1       873 6.83782E-01
 -1       874 5.23792E-01
 -1       875 4.26197E-01
 -1       876 3.37472E-01
 -1       877 2.65734E-01
 -1       878 2.09154E-01
 -1       879 1.66864E-01
 -1       880 1.34710E-01
 -1       881 1.05432E-01
 -1       882 7.99442E-02
 -1       883 5.87764E-02
 -1       884 4.18418E-02
 -1       885 2.90564E-02
 -1       886 1.97609E-02
 -1       887 1.28726E-02
 -1       888 7.89520E-03
 -1       889 1.34205E+00
 -1       890 6.21807E+00
 -1       891 1.15140E+00
 -1       892 4.34775E-01
 -1       893 3.12884E-01
 -1       894 2.23294E-01
 -1       895 1.57622E-01
 -1       896 1.09637E-01
 -1       897 7.55010E-02
 -1       898 5.16856E-02
 -1       899 3.44956E-02
 -1       900 2.24046E-02
 -1       901 1.39521E-02
 -1       902 8.80657E-03
 -1       903 6.98920E-03
 -1       904 5.52359E+00
 -1       905 4.96740E+00
 -1       906 6.74253E+00
 -1       907 1.94586E-01
 -1       908 1.62726E+00
 -1       909 6.00979E-01
 -1       910 3.27685E+00
 -1       911 2.38143E-01
 -1       912 1.89367E-01
 -1       913 7.28246E+00
 -1       914 6.83152E+00
 -1       915 8.29857E-01
 -1       916 6.56585E+00
 -1       917 2.11846E-01
 -1       918 2.01146E+00
 -1       919 2.01146E+00
 -1       920 7.24591E-03
 -1       921 6.21807E+00
 -1       922 1.60897E-01
 -1       923 6.83152E+00
 -1       924 2.77613E+00
 -1       925 3.08924E-01
 -1       926 3.45724E+00
 -1       927 9.13612E-01
 -1       928 1.93977E+00
 -1       929 4.31658E-03
 -1       930 3.72460E+00
 -1       931 4.39826E+00
 -1       932 2.25396E+00
 -1       933 5.45491E+00
 -1       934 1.02879E-02
 -1       935 4.08872E-01
 -1       936 2.00304E-01
 -1       937 1.24009E-02
 -1       938 2.32542E+00
 -1       939 3.64440E+00
 -1       940 1.24009E-02
 -1       941 1.83557E-01
 -1       942 1.30657E-01
 -1       943 7.24591E-03
 -1       944 6.72308E-03
 -1       945 2.87300E-01
 -1       946 3.72725E-01
 -1       947 5.31233E-01
 -1       948 7.19006E-01
 -1       949 9.29416E-01
 -1       950 1.26542E+00
 -1       951 2.15689E+00
 -1       952 2.25396E+00
 -1       953 1.59534E+00
 -1       954 1.26137E+00
 -1       955 9.32443E-01
 -1       956 7.51796E-01
 -1       957 5.71751E-01
 -1       958 4.18844E-01
 -1       959 3.26133E-01
 -1       960 2.56504E-01
 -1       961 2.09154E-01
 -1       962 1.66864E-01
 -1       963 1.29551E-01
 -1       964 9.81879E-02
 -1       965 7.27153E-02
 -1       966 5.25571E-02
 -1       967 3.69731E-02
 -1       968 2.51952E-02
 -1       969 1.69979E-02
 -1       970 1.11053E-02
 -1       971 4.93863E+00
 -1       972 3.30082E-01
 -1       973 1.30071E-01
 -1       974 9.27766E-02
 -1       975 6.49498E-02
 -1       976 4.46190E-02
 -1       977 3.05523E-02
 -1       978 2.03249E-02
 -1       979 1.54134E-02
 -1       980 5.45491E+00
 -1       981 2.46905E-01
 -1       982 2.32668E-01
 -1       983 4.59302E+00
 -1       984 1.79527E-01
 -1       985 2.44521E-01
 -1       986 2.06642E-01
 -1       987 1.08128E+00
 -1       988 4.42114E-01
 -1       989 3.84811E+00
 -1       990 6.15204E-01
 -1       991 2.04542E+00
 -1       992 2.25049E-01
 -1       993 1.86895E-01
 -1       994 4.93863E+00
 -1       995 4.09279E+00
 -1       996 9.29472E-01
 -1       997 1.39246E+00
 -1       998 4.59302E+00
 -1       999 1.54134E-02
 -1      1000 3.30853E+00
 -1      1001 1.05190E-02
 -1      1002 7.92071E-01
 -1      1003 2.46905E-01
 -1      1004 1.51349E+00
 -1      1005 5.90432E-01
 -1      1006 2.46905E-01
 -1      1007 3.28676E-01
 -1      1008 2.99807E-01
 -1      1009 3.28676E-01
 -1      1010 1.59214E-01
 -1      1011 1.05190E-02
 -1      1012 5.03995E-02
 -1      1013 4.01701E-01
 -1      1014 5.65869E-01
 -1      1015 7.56195E-01
 -1      1016 1.09862E+00
 -1      1017 1.39631E+00
 -1      1018 2.02316E+00
 -1      1019 4.22221E-01
 -1      1020 6.66335E-01
 -1      1021 2.90563E+00
 -1      1022 1.53589E+00
 -1      1023 1.07596E+00
 -1      1024 7.51564E-01
 -1      1025 5.81747E-01
 -1      1026 4.08507E-01
 -1      1027 3.26133E-01
 -1      1028 2.56504E-01
 -1      1029 1.98434E-01
 -1      1030 1.49939E-01
 -1      1031 1.11559E-01
 -1      1032 8.17956E-02
 -1      1033 5.89463E-02
 -1      1034 4.16392E-02
 -1      1035 2.87233E-02
 -1      1036 2.18915E-02
 -1      1037 1.24521E-02
 -1      1038 9.66783E-02
 -1      1039 3.51372E-02
 -1      1040 2.40743E-02
 -1      1041 1.70816E-02
 -1      1042 3.51554E-01
 -1      1043 5.08382E-01
 -1      1044 1.29904E-01
 -1      1045 1.71446E-01
 -1      1046 3.18088E+00
 -1      1047 7.05671E-02
 -1      1048 3.24915E+00
 -1      1049 3.68688E+00
 -1      1050 3.51554E-01
 -1      1051 2.57992E+00
 -1      1052 1.03874E-02
 -1      1053 2.36354E-01
 -1      1054 2.26716E-01
 -1      1055 3.40953E+00
 -1      1056 2.05351E-01
 -1      1057 3.65321E+00
 -1      1058 3.13489E-01
 -1      1059 2.46520E+00
 -1      1060 3.80931E-01
 -1      1061 2.17577E+00
 -1      1062 7.58456E-01
 -1      1063 3.18088E+00
 -1      1064 1.47333E+00
 -1      1065 3.21355E+00
 -1      1066 8.45371E-01
 -1      1067 1.01763E+00
 -1      1068 4.36007E-01
 -1      1069 1.19087E-02
 -1      1070 2.22691E-02
 -1      1071 2.36462E+00
 -1      1072 1.01604E+00
 -1      1073 1.08407E+00
 -1      1074 1.50620E+00
 -1      1075 2.33408E+00
 -1      1076 1.08630E-01
 -1      1077 3.50727E-02
 -1      1078 6.66335E-01
 -1      1079 1.99830E+00
 -1      1080 1.38671E+00
 -1      1081 7.32539E-01
 -1      1082 7.32539E-01
 -1      1083 3.94176E-01
 -1      1084 2.98453E-01
 -1      1085 2.33277E-01
 -1      1086 1.63514E-01
 -1      1087 1.18213E-01
 -1      1088 9.12241E-02
 -1      1089 6.88279E-02
 -1      1090 5.07320E-02
 -1      1091 3.64053E-02
 -1      1092 2.51851E-02
 -1      1093 8.71030E-02
 -1      1094 2.66328E+00
 -1      1095 4.99890E-02
 -1      1096 1.43419E-01
 -1      1097 4.01701E-01
 -1      1098 1.80544E+00
 -1      1099 7.01813E-01
 -1      1100 1.31767E-02
 -1      1101 1.93219E-01
 -1      1102 6.01241E-01
 -1      1103 2.61909E-01
 -1      1104 6.72125E-02
 -1      1105 5.78703E-01
 -1      1106 7.32539E-01
 -1      1107 9.80895E-01
 -1      1108 1.63417E-02
 -1      1109 2.36462E+00
 -1      1110 8.25877E-01
 -1      1111 2.19323E+00
 -1      1112 3.57353E-01
 -1      1113 2.22691E-02
 -1      1114 1.08407E+00
 -1      1115 1.80563E+00
 -1      1116 1.47333E+00
 -1      1117 1.32064E+00
 -1      1118 3.57353E-01
 -1      1119 1.80544E+00
 -1      1120 5.53824E-01
 -1      1121 1.08407E+00
 -1      1122 5.53824E-01
 -1      1123 9.55424E-01
 -1      1124 1.30446E+01
 -1      1125 8.31999E+00
 -1      1126 2.69794E+00
 -1      1127 1.54696E+00
 -1      1128 1.16769E+00
 -1      1129 9.62430E-01
 -1      1130 8.29816E-01
 -1      1131 7.40607E-01
 -1      1132 7.03527E-01
 -1      1133 7.38348E-01
 -1      1134 8.25199E-01
 -1      1135 9.59278E-01
 -1      1136 1.17324E+00
 -1      1137 1.55416E+00
 -1      1138 2.61459E+00
 -1      1139 5.96207E+00
 -1      1140 1.12197E+01
 -1      1141 1.30446E+01
 -1      1142 8.67704E+00
 -1      1143 3.80070E+00
 -1      1144 2.66962E+00
 -1      1145 1.72209E+00
 -1      1146 1.22452E+00
 -1      1147 9.23718E-01
 -1      1148 6.87929E-01
 -1      1149 4.96759E-01
 -1      1150 4.06962E-01
 -1      1151 4.01053E-01
 -1      1152 4.01747E-01
 -1      1153 4.22815E-01
 -1      1154 4.76799E-01
 -1      1155 6.42881E-01
 -1      1156 9.10490E-01
 -1      1157 1.33849E+00
 -1      1158 1.90961E+00
 -1      1159 2.32599E+00
 -1      1160 2.46416E+00
 -1      1161 2.46039E+00
 -1      1162 2.45662E+00
 -1      1163 2.28919E+00
 -1      1164 1.82961E+00
 -1      1165 1.25998E+00
 -1      1166 8.81347E-01
 -1      1167 6.52606E-01
 -1      1168 5.18936E-01
 -1      1169 4.73046E-01
 -1      1170 4.33095E-01
 -1      1171 4.11732E-01
 -1      1172 3.56218E-01
 -1      1173 2.85200E-01
 -1      1174 2.26023E-01
 -1      1175 1.91801E-01
 -1      1176 1.65506E-01
 -1      1177 1.36079E-01
 -1      1178 1.07357E-01
 -1      1179 8.15198E-02
 -1      1180 6.37008E-02
 -1      1181 5.31142E-02
 -1      1182 4.36310E-02
 -1      1183 3.45654E-02
 -1      1184 2.62985E-02
 -1      1185 1.92336E-02
 -1      1186 1.43141E-02
 -1      1187 1.06332E-02
 -1      1188 6.71765E-03
 -1      1189 4.16225E-03
 -1      1190 2.13749E-03
 -1      1191 1.39403E+01
 -1      1192 8.68254E+00
 -1      1193 2.92707E+00
 -1      1194 2.05632E+00
 -1      1195 1.49619E+00
 -1      1196 1.22842E+00
 -1      1197 1.09451E+00
 -1      1198 1.00897E+00
 -1      1199 9.83818E-01
 -1      1200 1.08877E+00
 -1      1201 1.28709E+00
 -1      1202 1.46539E+00
 -1      1203 1.57428E+00
 -1      1204 1.91813E+00
 -1      1205 2.50002E+00
 -1      1206 2.88020E+00
 -1      1207 3.08610E+00
 -1      1208 3.79579E+00
 -1      1209 5.88381E+00
 -1      1210 7.98869E+00
 -1      1211 8.62031E+00
 -1      1212 8.55188E+00
 -1      1213 6.58864E+00
 -1      1214 3.69010E+00
 -1      1215 2.97366E+00
 -1      1216 3.26095E+00
 -1      1217 3.19660E+00
 -1      1218 2.87237E+00
 -1      1219 2.37061E+00
 -1      1220 1.90991E+00
 -1      1221 1.44629E+00
 -1      1222 1.03255E+00
 -1      1223 7.34138E-01
 -1      1224 5.22232E-01
 -1      1225 3.81104E-01
 -1      1226 2.77768E-01
 -1      1227 1.99685E-01
 -1      1228 1.41460E-01
 -1      1229 9.84751E-02
 -1      1230 6.70189E-02
 -1      1231 4.77882E-02
 -1      1232 3.76674E-02
 -1      1233 2.98862E-02
 -1      1234 2.30836E-02
 -1      1235 1.79399E-02
 -1      1236 1.46274E-02
 -1      1237 1.16591E-02
 -1      1238 8.13987E-03
 -1      1239 5.05109E-03
 -1      1240 2.33072E-03
 -1      1241 1.33706E-03
 -1      1242 1.40555E-03
 -1      1243 7.46397E-04
 -1      1244 6.11198E-04
 -1      1245 6.80113E-04
 -1      1246 6.48054E-04
 -1      1247 5.39486E-04
 -1      1248 3.93531E-04
 -1      1249 2.95252E-04
 -1      1250 3.12461E-04
 -1      1251 4.21119E-04
 -1      1252 5.21511E-04
 -1      1253 5.59288E-04
 -1      1254 5.11947E-04
 -1      1255 7.96084E-04
 -1      1256 1.66780E-03
 -1      1257 1.44131E-03
 -1      1258 2.53470E+01
 -1      1259 2.69294E+01
 -1      1260 2.85623E+01
 -1      1261 2.79617E+01
 -1      1262 2.00660E+01
 -1      1263 1.30449E+01
 -1      1264 1.31051E+01
 -1      1265 1.29414E+01
 -1      1266 1.27298E+01
 -1      1267 1.33219E+01
 -1      1268 2.43900E+01
 -1      1269 3.48181E+01
 -1      1270 3.00494E+01
 -1      1271 2.48972E+01
 -1      1272 2.42426E+01
 -1      1273 2.39715E+01
 -1      1274 3.22494E+01
 -1      1275 4.05274E+01
 -1      1276 2.77906E+01
 -1      1277 1.34219E+01
 -1      1278 1.20305E+01
 -1      1279 1.22711E+01
 -1      1280 1.28079E+01
 -1      1281 1.33447E+01
 -1      1282 1.27766E+01
 -1      1283 1.58923E+01
 -1      1284 3.30523E+01
 -1      1285 4.65283E+01
 -1      1286 3.58560E+01
 -1      1287 2.51838E+01
 -1      1288 1.30446E+01
 -1      1289 4.78267E+00
 -1      1290 9.50729E+00
 -1      1291 2.03573E+00
 -1      1292 2.93315E+00
 -1      1293 4.12046E+00
 -1      1294 1.40496E+00
 -1      1295 1.65852E+00
 -1      1296 1.89373E+00
 -1      1297 1.10154E+00
 -1      1298 1.22725E+00
 -1      1299 1.33881E+00
 -1      1300 9.23423E-01
 -1      1301 1.00298E+00
 -1      1302 1.06254E+00
 -1      1303 8.07636E-01
 -1      1304 8.60695E-01
 -1      1305 9.01243E-01
 -1      1306 7.28991E-01
 -1      1307 7.65141E-01
 -1      1308 7.96020E-01
 -1      1309 7.00004E-01
 -1      1310 7.00934E-01
 -1      1311 7.25469E-01
 -1      1312 7.63001E-01
 -1      1313 7.27250E-01
 -1      1314 7.24657E-01
 -1      1315 8.55701E-01
 -1      1316 8.04600E-01
 -1      1317 7.93502E-01
 -1      1318 1.00424E+00
 -1      1319 9.21262E-01
 -1      1320 9.00662E-01
 -1      1321 1.23795E+00
 -1      1322 1.10696E+00
 -1      1323 1.06895E+00
 -1      1324 1.66797E+00
 -1      1325 1.41803E+00
 -1      1326 1.35175E+00
 -1      1327 2.84036E+00
 -1      1328 2.02987E+00
 -1      1329 1.89374E+00
 -1      1330 6.17892E+00
 -1      1331 3.64194E+00
 -1      1332 3.05722E+00
 -1      1333 1.39403E+01
 -1      1334 1.12197E+01
 -1      1335 8.89957E+00
 -1      1336 1.39403E+01
 -1      1337 8.67704E+00
 -1      1338 4.30947E+00
 -1      1339 3.80070E+00
 -1      1340 3.29193E+00
 -1      1341 3.80070E+00
 -1      1342 2.66962E+00
 -1      1343 2.04732E+00
 -1      1344 2.66962E+00
 -1      1345 1.72209E+00
 -1      1346 1.39685E+00
 -1      1347 1.72209E+00
 -1      1348 1.22452E+00
 -1      1349 1.05219E+00
 -1      1350 1.22452E+00
 -1      1351 9.23718E-01
 -1      1352 7.95251E-01
 -1      1353 9.23718E-01
 -1      1354 6.87929E-01
 -1      1355 5.80606E-01
 -1      1356 6.87929E-01
 -1      1357 4.96759E-01
 -1      1358 4.12912E-01
 -1      1359 4.96759E-01
 -1      1360 4.06962E-01
 -1      1361 4.01012E-01
 -1      1362 4.06962E-01
 -1      1363 3.81917E-01
 -1      1364 3.81958E-01
 -1      1365 3.81917E-01
 -1      1366 4.01093E-01
 -1      1367 4.01747E-01
 -1      1368 3.81958E-01
 -1      1369 4.02402E-01
 -1      1370 4.22815E-01
 -1      1371 4.01747E-01
 -1      1372 4.43229E-01
 -1      1373 4.76799E-01
 -1      1374 4.22815E-01
 -1      1375 5.11689E-01
 -1      1376 6.44201E-01
 -1      1377 4.78119E-01
 -1      1378 7.99946E-01
 -1      1379 9.35043E-01
 -1      1380 6.68754E-01
 -1      1381 1.10884E+00
 -1      1382 1.40174E+00
 -1      1383 9.98294E-01
 -1      1384 1.63139E+00
 -1      1385 1.90961E+00
 -1      1386 1.40174E+00
 -1      1387 2.18783E+00
 -1      1388 2.32599E+00
 -1      1389 1.90961E+00
 -1      1390 2.46416E+00
 -1      1391 2.46416E+00
 -1      1392 2.32599E+00
 -1      1393 2.43488E+00
 -1      1394 2.43111E+00
 -1      1395 2.43488E+00
 -1      1396 2.45662E+00
 -1      1397 2.45662E+00
 -1      1398 2.43111E+00
 -1      1399 2.28919E+00
 -1      1400 2.12176E+00
 -1      1401 2.28919E+00
 -1      1402 1.83223E+00
 -1      1403 1.54008E+00
 -1      1404 1.83223E+00
 -1      1405 1.31779E+00
 -1      1406 1.04031E+00
 -1      1407 1.32041E+00
 -1      1408 8.81347E-01
 -1      1409 7.80194E-01
 -1      1410 9.39161E-01
 -1      1411 6.52606E-01
 -1      1412 5.25019E-01
 -1      1413 6.52606E-01
 -1      1414 5.18936E-01
 -1      1415 5.12852E-01
 -1      1416 5.18936E-01
 -1      1417 4.73046E-01
 -1      1418 4.33240E-01
 -1      1419 4.73046E-01
 -1      1420 4.33095E-01
 -1      1421 4.32951E-01
 -1      1422 4.33095E-01
 -1      1423 4.11732E-01
 -1      1424 3.90513E-01
 -1      1425 4.11732E-01
 -1      1426 3.56218E-01
 -1      1427 3.21922E-01
 -1      1428 3.56218E-01
 -1      1429 2.91864E-01
 -1      1430 2.55142E-01
 -1      1431 2.91864E-01
 -1      1432 2.33780E-01
 -1      1433 2.11325E-01
 -1      1434 2.40444E-01
 -1      1435 1.91841E-01
 -1      1436 1.80074E-01
 -1      1437 1.99599E-01
 -1      1438 1.65506E-01
 -1      1439 1.50978E-01
 -1      1440 1.65546E-01
 -1      1441 1.36079E-01
 -1      1442 1.21181E-01
 -1      1443 1.36079E-01
 -1      1444 1.07973E-01
 -1      1445 9.41491E-02
 -1      1446 1.07973E-01
 -1      1447 8.36215E-02
 -1      1448 7.16089E-02
 -1      1449 8.42382E-02
 -1      1450 6.37008E-02
 -1      1451 5.78943E-02
 -1      1452 6.58025E-02
 -1      1453 5.31142E-02
 -1      1454 4.83341E-02
 -1      1455 5.31142E-02
 -1      1456 4.36310E-02
 -1      1457 3.89279E-02
 -1      1458 4.36310E-02
 -1      1459 3.45654E-02
 -1      1460 3.02029E-02
 -1      1461 3.45654E-02
 -1      1462 2.62985E-02
 -1      1463 2.23940E-02
 -1      1464 2.62985E-02
 -1      1465 1.92848E-02
 -1      1466 1.61243E-02
 -1      1467 1.92848E-02
 -1      1468 1.43141E-02
 -1      1469 1.25551E-02
 -1      1470 1.43653E-02
 -1      1471 1.06332E-02
 -1      1472 8.71119E-03
 -1      1473 1.06332E-02
 -1      1474 6.98666E-03
 -1      1475 4.99312E-03
 -1      1476 6.98666E-03
 -1      1477 4.16225E-03
 -1      1478 3.60040E-03
 -1      1479 4.43127E-03
 -1      1480 2.90422E-03
 -1      1481 2.90422E-03
 -1      1482 3.42474E+00
 -1      1483 8.68254E+00
 -1      1484 8.68254E+00
 -1      1485 2.42939E+00
 -1      1486 2.92707E+00
 -1      1487 2.92707E+00
 -1      1488 1.68324E+00
 -1      1489 2.05632E+00
 -1      1490 2.05632E+00
 -1      1491 1.30913E+00
 -1      1492 1.49619E+00
 -1      1493 1.49619E+00
 -1      1494 1.14770E+00
 -1      1495 1.22842E+00
 -1      1496 1.22842E+00
 -1      1497 1.04131E+00
 -1      1498 1.09451E+00
 -1      1499 1.09451E+00
 -1      1500 9.76637E-01
 -1      1501 1.00897E+00
 -1      1502 1.00897E+00
 -1      1503 9.66164E-01
 -1      1504 9.58982E-01
 -1      1505 9.58982E-01
 -1      1506 1.08877E+00
 -1      1507 9.90999E-01
 -1      1508 9.66164E-01
 -1      1509 1.28709E+00
 -1      1510 1.18654E+00
 -1      1511 1.08877E+00
 -1      1512 1.46539E+00
 -1      1513 1.38764E+00
 -1      1514 1.28709E+00
 -1      1515 1.57428E+00
 -1      1516 1.54314E+00
 -1      1517 1.46539E+00
 -1      1518 2.06558E+00
 -1      1519 1.75289E+00
 -1      1520 1.72174E+00
 -1      1521 2.50002E+00
 -1      1522 2.23082E+00
 -1      1523 2.06558E+00
 -1      1524 2.88020E+00
 -1      1525 2.76922E+00
 -1      1526 2.50002E+00
 -1      1527 3.08610E+00
 -1      1528 2.99118E+00
 -1      1529 2.88020E+00
 -1      1530 3.79579E+00
 -1      1531 3.18102E+00
 -1      1532 3.08610E+00
 -1      1533 5.88381E+00
 -1      1534 4.41055E+00
 -1      1535 3.79579E+00
 -1      1536 7.98869E+00
 -1      1537 7.35708E+00
 -1      1538 5.88381E+00
 -1      1539 8.62031E+00
 -1      1540 8.62031E+00
 -1      1541 7.98869E+00
 -1      1542 8.48345E+00
 -1      1543 8.55188E+00
 -1      1544 8.55188E+00
 -1      1545 4.69383E+00
 -1      1546 6.58864E+00
 -1      1547 6.58864E+00
 -1      1548 2.49176E+00
 -1      1549 3.49549E+00
 -1      1550 3.49549E+00
 -1      1551 3.01237E+00
 -1      1552 2.72508E+00
 -1      1553 2.53047E+00
 -1      1554 3.26095E+00
 -1      1555 3.26095E+00
 -1      1556 3.01237E+00
 -1      1557 3.13225E+00
 -1      1558 3.19660E+00
 -1      1559 3.19660E+00
 -1      1560 2.61249E+00
 -1      1561 2.87237E+00
 -1      1562 2.87237E+00
 -1      1563 2.12872E+00
 -1      1564 2.37061E+00
 -1      1565 2.37061E+00
 -1      1566 1.71115E+00
 -1      1567 1.92996E+00
 -1      1568 1.92996E+00
 -1      1569 1.24080E+00
 -1      1570 1.48561E+00
 -1      1571 1.50566E+00
 -1      1572 9.03614E-01
 -1      1573 1.07255E+00
 -1      1574 1.11187E+00
 -1      1575 6.41036E-01
 -1      1576 7.70509E-01
 -1      1577 8.10512E-01
 -1      1578 4.59643E-01
 -1      1579 5.42076E-01
 -1      1580 5.78447E-01
 -1      1581 3.29284E-01
 -1      1582 3.87980E-01
 -1      1583 4.07824E-01
 -1      1584 2.33128E-01
 -1      1585 2.77768E-01
 -1      1586 2.84644E-01
 -1      1587 1.66685E-01
 -1      1588 2.00128E-01
 -1      1589 2.00128E-01
 -1      1590 1.18235E-01
 -1      1591 1.43018E-01
 -1      1592 1.43460E-01
 -1      1593 8.23816E-02
 -1      1594 1.00584E-01
 -1      1595 1.02141E-01
 -1      1596 5.60737E-02
 -1      1597 6.93278E-02
 -1      1598 7.14364E-02
 -1      1599 4.18118E-02
 -1      1600 4.77882E-02
 -1      1601 5.00972E-02
 -1      1602 3.35230E-02
 -1      1603 3.76674E-02
 -1      1604 3.76674E-02
 -1      1605 2.62495E-02
 -1      1606 2.98862E-02
 -1      1607 2.98862E-02
 -1      1608 1.99178E-02
 -1      1609 2.30836E-02
 -1      1610 2.30836E-02
 -1      1611 1.59621E-02
 -1      1612 1.79399E-02
 -1      1613 1.79399E-02
 -1      1614 1.32928E-02
 -1      1615 1.46274E-02
 -1      1616 1.46274E-02
 -1      1617 1.00255E-02
 -1      1618 1.16591E-02
 -1      1619 1.16591E-02
 -1      1620 6.25427E-03
 -1      1621 8.13987E-03
 -1      1622 8.13987E-03
 -1      1623 3.84792E-03
 -1      1624 5.05109E-03
 -1      1625 5.05109E-03
 -1      1626 2.85426E-03
 -1      1627 1.09188E-03
 -1      1628 1.54692E-03
 -1      1629 7.20770E-04
 -1      1630 9.24882E-04
 -1      1631 1.06625E-03
 -1      1632 9.36705E-04
 -1      1633 8.67790E-04
 -1      1634 1.04628E-03
 -1      1635 9.36705E-04
 -1      1636 9.36705E-04
 -1      1637 1.19330E-03
 -1      1638 8.92427E-04
 -1      1639 9.24486E-04
 -1      1640 1.18108E-03
 -1      1641 7.23456E-04
 -1      1642 7.99966E-04
 -1      1643 1.07640E-03
 -1      1644 5.05112E-04
 -1      1645 5.74557E-04
 -1      1646 8.35038E-04
 -1      1647 3.48489E-04
 -1      1648 3.77323E-04
 -1      1649 5.58349E-04
 -1      1650 4.33443E-04
 -1      1651 3.87400E-04
 -1      1652 4.69471E-04
 -1      1653 6.13594E-04
 -1      1654 5.50979E-04
 -1      1655 6.25918E-04
 -1      1656 7.45784E-04
 -1      1657 7.08006E-04
 -1      1658 8.37866E-04
 -1      1659 7.62539E-04
 -1      1660 7.62539E-04
 -1      1661 9.49034E-04
 -1      1662 7.53190E-04
 -1      1663 8.00531E-04
 -1      1664 1.00378E-03
 -1      1665 1.08467E-03
 -1      1666 7.53190E-04
 -1      1667 1.04177E-03
 -1      1668 2.06844E-03
 -1      1669 1.52820E-03
 -1      1670 1.48530E-03
 -1      1671 2.76462E-03
 -1      1672 2.72038E+01
 -1      1673 2.70406E+01
 -1      1674 3.03369E+01
 -1      1675 2.89177E+01
 -1      1676 3.05506E+01
 -1      1677 3.03369E+01
 -1      1678 2.79617E+01
 -1      1679 2.87761E+01
 -1      1680 1.29848E+01
 -1      1681 2.00660E+01
 -1      1682 1.28489E+01
 -1      1683 1.27888E+01
 -1      1684 1.31051E+01
 -1      1685 1.31051E+01
 -1      1686 1.27778E+01
 -1      1687 1.29414E+01
 -1      1688 1.26818E+01
 -1      1689 1.27298E+01
 -1      1690 1.30924E+01
 -1      1691 1.24523E+01
 -1      1692 2.43900E+01
 -1      1693 1.39619E+01
 -1      1694 3.48181E+01
 -1      1695 3.48181E+01
 -1      1696 2.83609E+01
 -1      1697 3.31296E+01
 -1      1698 2.60962E+01
 -1      1699 2.64796E+01
 -1      1700 2.67412E+01
 -1      1701 2.70123E+01
 -1      1702 2.67412E+01
 -1      1703 2.67412E+01
 -1      1704 3.84882E+01
 -1      1705 3.02103E+01
 -1      1706 4.05274E+01
 -1      1707 4.05274E+01
 -1      1708 1.50539E+01
 -1      1709 2.77906E+01
 -1      1710 1.11787E+01
 -1      1711 1.28107E+01
 -1      1712 1.20305E+01
 -1      1713 1.17899E+01
 -1      1714 1.22711E+01
 -1      1715 1.22711E+01
 -1      1716 1.26622E+01
 -1      1717 1.21254E+01
 -1      1718 1.33447E+01
 -1      1719 1.33447E+01
 -1      1720 1.22084E+01
 -1      1721 1.27766E+01
 -1      1722 1.52610E+01
 -1      1723 1.15771E+01
 -1      1724 3.35920E+01
 -1      1725 2.01160E+01
 -1      1726 4.65283E+01
 -1      1727 4.65283E+01
 -1      1728 2.65742E+01
 -1      1729 3.72464E+01
 -1      1730 2.70406E+01
 -1      1731 2.70406E+01
 -1      1732 2.08804E+01
 -1      1733 3.05506E+01
 -1      1734 2.85426E-03
 -1      1735 2.54058E-03
 -1      1736 3.06113E+01
 -1      1737 3.23252E+01
 -1      1738 2.88974E+01
 -1      1739 1.27888E+01
 -1      1740 1.28489E+01
 -1      1741 1.29414E+01
 -1      1742 1.27298E+01
 -1      1743 1.24523E+01
 -1      1744 1.30924E+01
 -1      1745 2.43900E+01
 -1      1746 3.31296E+01
 -1      1747 2.95599E+01
 -1      1748 2.85947E+01
 -1      1749 2.95108E+01
 -1      1750 3.29800E+01
 -1      1751 3.84882E+01
 -1      1752 2.77906E+01
 -1      1753 1.28107E+01
 -1      1754 1.11787E+01
 -1      1755 1.20305E+01
 -1      1756 1.21254E+01
 -1      1757 1.26622E+01
 -1      1758 1.27766E+01
 -1      1759 1.15771E+01
 -1      1760 1.58007E+01
 -1      1761 3.35920E+01
 -1      1762 3.72464E+01
 -1      1763 2.84310E+01
 -1      1764 9.50729E+00
 -1      1765 1.28047E+00
 -1      1766 1.65768E+00
 -1      1767 2.34710E+00
 -1      1768 4.19661E+00
 -1      1769 1.73383E+00
 -1      1770 8.79654E-01
 -1      1771 9.78219E-01
 -1      1772 7.62626E-01
 -1      1773 8.25355E-01
 -1      1774 7.41037E-01
 -1      1775 6.82549E-01
 -1      1776 7.25044E-01
 -1      1777 6.49155E-01
 -1      1778 6.25754E-01
 -1      1779 6.53810E-01
 -1      1780 5.82834E-01
 -1      1781 6.52381E-01
 -1      1782 6.25136E-01
 -1      1783 5.53478E-01
 -1      1784 7.21595E-01
 -1      1785 6.79996E-01
 -1      1786 5.80474E-01
 -1      1787 8.27273E-01
 -1      1788 7.61712E-01
 -1      1789 6.48205E-01
 -1      1790 9.83534E-01
 -1      1791 8.80810E-01
 -1      1792 7.41860E-01
 -1      1793 1.23547E+00
 -1      1794 1.05539E+00
 -1      1795 8.67250E-01
 -1      1796 1.70356E+00
 -1      1797 1.34166E+00
 -1      1798 1.04529E+00
 -1      1799 2.57979E+00
 -1      1800 1.77822E+00
 -1      1801 1.22614E+00
 -1      1802 8.03583E+00
 -1      1803 2.99505E+00
 -1      1804 1.71605E+00
 -1      1805 2.77802E+00
 -1      1806 5.13972E+00
 -1      1807 2.12353E+00
 -1      1808 2.62121E+00
 -1      1809 1.97449E+00
 -1      1810 3.36636E+00
 -1      1811 2.47913E+00
 -1      1812 1.85683E+00
 -1      1813 1.61314E+00
 -1      1814 1.28790E+00
 -1      1815 1.42264E+00
 -1      1816 1.09351E+00
 -1      1817 9.21173E-01
 -1      1818 9.84556E-01
 -1      1819 8.43700E-01
 -1      1820 7.15233E-01
 -1      1821 7.12688E-01
 -1      1822 6.49162E-01
 -1      1823 5.41840E-01
 -1      1824 5.69144E-01
 -1      1825 4.76073E-01
 -1      1826 3.92225E-01
 -1      1827 4.37306E-01
 -1      1828 3.48273E-01
 -1      1829 3.42323E-01
 -1      1830 3.27586E-01
 -1      1831 3.40941E-01
 -1      1832 3.21846E-01
 -1      1833 2.82252E-01
 -1      1834 3.04623E-01
 -1      1835 3.23758E-01
 -1      1836 2.63646E-01
 -1      1837 3.14434E-01
 -1      1838 3.15089E-01
 -1      1839 2.37099E-01
 -1      1840 3.35661E-01
 -1      1841 3.56074E-01
 -1      1842 2.48348E-01
 -1      1843 4.25849E-01
 -1      1844 4.60739E-01
 -1      1845 3.38694E-01
 -1      1846 5.69750E-01
 -1      1847 7.25495E-01
 -1      1848 5.17480E-01
 -1      1849 8.77237E-01
 -1      1850 1.05103E+00
 -1      1851 7.78233E-01
 -1      1852 1.18875E+00
 -1      1853 1.41840E+00
 -1      1854 1.06769E+00
 -1      1855 1.55979E+00
 -1      1856 1.83801E+00
 -1      1857 1.34680E+00
 -1      1858 1.93553E+00
 -1      1859 2.07370E+00
 -1      1860 1.58572E+00
 -1      1861 2.07056E+00
 -1      1862 2.04129E+00
 -1      1863 1.68010E+00
 -1      1864 2.05441E+00
 -1      1865 2.07992E+00
 -1      1866 1.69009E+00
 -1      1867 2.06469E+00
 -1      1868 1.89726E+00
 -1      1869 1.68798E+00
 -1      1870 1.78297E+00
 -1      1871 1.49344E+00
 -1      1872 1.55847E+00
 -1      1873 1.35091E+00
 -1      1874 1.12862E+00
 -1      1875 1.30165E+00
 -1      1876 9.79930E-01
 -1      1877 8.20963E-01
 -1      1878 1.01043E+00
 -1      1879 6.65830E-01
 -1      1880 5.38243E-01
 -1      1881 7.06599E-01
 -1      1882 4.14748E-01
 -1      1883 4.08664E-01
 -1      1884 4.27971E-01
 -1      1885 3.74260E-01
 -1      1886 3.34453E-01
 -1      1887 2.70072E-01
 -1      1888 3.52217E-01
 -1      1889 3.52073E-01
 -1      1890 2.53431E-01
 -1      1891 3.68093E-01
 -1      1892 3.46875E-01
 -1      1893 2.87216E-01
 -1      1894 3.41236E-01
 -1      1895 3.06941E-01
 -1      1896 2.97598E-01
 -1      1897 2.89514E-01
 -1      1898 2.59456E-01
 -1      1899 2.74532E-01
 -1      1900 2.44677E-01
 -1      1901 2.23315E-01
 -1      1902 2.42327E-01
 -1      1903 2.08904E-01
 -1      1904 1.89420E-01
 -1      1905 2.13137E-01
 -1      1906 1.72998E-01
 -1      1907 1.58430E-01
 -1      1908 1.82303E-01
 -1      1909 1.41389E-01
 -1      1910 1.26491E-01
 -1      1911 1.48841E-01
 -1      1912 1.10643E-01
 -1      1913 9.74350E-02
 -1      1914 1.15952E-01
 -1      1915 8.42382E-02
 -1      1916 7.37106E-02
 -1      1917 8.69074E-02
 -1      1918 6.45476E-02
 -1      1919 5.66395E-02
 -1      1920 6.45476E-02
 -1      1921 4.90147E-02
 -1      1922 4.42346E-02
 -1      1923 4.77598E-02
 -1      1924 3.87137E-02
 -1      1925 3.40106E-02
 -1      1926 3.46142E-02
 -1      1927 3.13348E-02
 -1      1928 2.69723E-02
 -1      1929 2.64175E-02
 -1      1930 2.45755E-02
 -1      1931 2.06710E-02
 -1      1932 2.13449E-02
 -1      1933 1.83640E-02
 -1      1934 1.52548E-02
 -1      1935 1.66410E-02
 -1      1936 1.31183E-02
 -1      1937 1.13080E-02
 -1      1938 1.21975E-02
 -1      1939 9.81192E-03
 -1      1940 7.88996E-03
 -1      1941 8.56483E-03
 -1      1942 6.75107E-03
 -1      1943 5.02654E-03
 -1      1944 5.92984E-03
 -1      1945 4.00677E-03
 -1      1946 3.17590E-03
 -1      1947 2.34012E-03
 -1      1948 3.77118E-03
 -1      1949 1.39998E+00
 -1      1950 1.77306E+00
 -1      1951 1.46720E+00
 -1      1952 1.04813E+00
 -1      1953 1.23518E+00
 -1      1954 9.51922E-01
 -1      1955 9.16886E-01
 -1      1956 9.97600E-01
 -1      1957 7.36594E-01
 -1      1958 8.55962E-01
 -1      1959 9.09159E-01
 -1      1960 6.78341E-01
 -1      1961 8.13922E-01
 -1      1962 8.46258E-01
 -1      1963 6.60911E-01
 -1      1964 8.04809E-01
 -1      1965 8.22464E-01
 -1      1966 6.59749E-01
 -1      1967 9.98932E-01
 -1      1968 9.74097E-01
 -1      1969 8.37578E-01
 -1      1970 1.30090E+00
 -1      1971 1.20313E+00
 -1      1972 1.21106E+00
 -1      1973 1.61534E+00
 -1      1974 1.51479E+00
 -1      1975 1.62915E+00
 -1      1976 1.88008E+00
 -1      1977 1.80233E+00
 -1      1978 2.03003E+00
 -1      1979 2.19732E+00
 -1      1980 2.01872E+00
 -1      1981 2.35567E+00
 -1      1982 2.48450E+00
 -1      1983 2.31926E+00
 -1      1984 2.61624E+00
 -1      1985 2.93108E+00
 -1      1986 2.66188E+00
 -1      1987 2.91556E+00
 -1      1988 3.06764E+00
 -1      1989 2.95666E+00
 -1      1990 3.11852E+00
 -1      1991 3.19608E+00
 -1      1992 3.10115E+00
 -1      1993 3.17762E+00
 -1      1994 4.63079E+00
 -1      1995 4.01603E+00
 -1      1996 4.03108E+00
 -1      1997 7.18063E+00
 -1      1998 5.70737E+00
 -1      1999 5.92761E+00
 -1      2000 7.17070E+00
 -1      2001 6.53909E+00
 -1      2002 6.36264E+00
 -1      2003 6.45589E+00
 -1      2004 6.52432E+00
 -1      2005 5.07471E+00
 -1      2006 3.79112E+00
 -1      2007 5.68593E+00
 -1      2008 3.65837E+00
 -1      2009 2.56175E+00
 -1      2010 3.76009E+00
 -1      2011 2.85738E+00
 -1      2012 2.77446E+00
 -1      2013 2.54114E+00
 -1      2014 2.80574E+00
 -1      2015 2.88291E+00
 -1      2016 2.63433E+00
 -1      2017 2.64499E+00
 -1      2018 2.79231E+00
 -1      2019 2.85666E+00
 -1      2020 2.47861E+00
 -1      2021 2.40653E+00
 -1      2022 2.66641E+00
 -1      2023 2.32646E+00
 -1      2024 2.03779E+00
 -1      2025 2.27968E+00
 -1      2026 2.07371E+00
 -1      2027 1.68256E+00
 -1      2028 1.88131E+00
 -1      2029 1.79039E+00
 -1      2030 1.25382E+00
 -1      2031 1.47936E+00
 -1      2032 1.43072E+00
 -1      2033 9.31904E-01
 -1      2034 1.10016E+00
 -1      2035 1.07386E+00
 -1      2036 6.74351E-01
 -1      2037 8.07456E-01
 -1      2038 7.95743E-01
 -1      2039 4.79488E-01
 -1      2040 5.78447E-01
 -1      2041 5.75391E-01
 -1      2042 3.36160E-01
 -1      2043 4.07824E-01
 -1      2044 4.07824E-01
 -1      2045 2.32289E-01
 -1      2046 2.83805E-01
 -1      2047 2.83805E-01
 -1      2048 1.67128E-01
 -1      2049 2.00128E-01
 -1      2050 1.99289E-01
 -1      2051 1.19792E-01
 -1      2052 1.43460E-01
 -1      2053 1.43460E-01
 -1      2054 8.44901E-02
 -1      2055 1.02141E-01
 -1      2056 1.02141E-01
 -1      2057 5.83827E-02
 -1      2058 7.14364E-02
 -1      2059 7.14364E-02
 -1      2060 4.05268E-02
 -1      2061 4.88123E-02
 -1      2062 4.88123E-02
 -1      2063 2.97270E-02
 -1      2064 3.38714E-02
 -1      2065 3.25864E-02
 -1      2066 2.26588E-02
 -1      2067 2.62955E-02
 -1      2068 2.24995E-02
 -1      2069 1.74137E-02
 -1      2070 2.05796E-02
 -1      2071 1.69889E-02
 -1      2072 1.35249E-02
 -1      2073 1.55028E-02
 -1      2074 1.29987E-02
 -1      2075 1.04800E-02
 -1      2076 1.18146E-02
 -1      2077 9.37747E-03
 -1      2078 8.13623E-03
 -1      2079 9.76989E-03
 -1      2080 6.95711E-03
 -1      2081 5.29725E-03
 -1      2082 7.18285E-03
 -1      2083 5.29361E-03
 -1      2084 3.26394E-03
 -1      2085 4.46711E-03
 -1      2086 3.51010E-03
 -1      2087 1.95660E-03
 -1      2088 1.47349E-03
 -1      2089 1.47349E-03
 -1      2090 1.47349E-03
 -1      2091 1.32647E-03
 -1      2092 1.75368E-03
 -1      2093 1.58936E-03
 -1      2094 1.75635E-03
 -1      2095 2.47971E-03
 -1      2096 2.01657E-03
 -1      2097 1.34123E-03
 -1      2098 1.35345E-03
 -1      2099 1.63364E-03
 -1      2100 1.17582E-03
 -1      2101 1.26828E-03
 -1      2102 1.44065E-03
 -1      2103 8.16200E-04
 -1      2104 9.65099E-04
 -1      2105 1.15698E-03
 -1      2106 4.85243E-04
 -1      2107 6.13033E-04
 -1      2108 7.43094E-04
 -1      2109 4.36645E-04
 -1      2110 3.97734E-04
 -1      2111 4.52417E-04
 -1      2112 6.83308E-04
 -1      2113 5.65772E-04
 -1      2114 4.94035E-04
 -1      2115 9.79800E-04
 -1      2116 8.85388E-04
 -1      2117 8.25242E-04
 -1      2118 1.09131E-03
 -1      2119 1.07456E-03
 -1      2120 1.12208E-03
 -1      2121 1.23817E-03
 -1      2122 1.20018E-03
 -1      2123 1.32571E-03
 -1      2124 1.51681E-03
 -1      2125 1.51681E-03
 -1      2126 1.71321E-03
 -1      2127 3.23252E+01
 -1      2128 3.23252E+01
 -1      2129 3.14269E+01
 -1      2130 3.14269E+01
 -1      2131 3.31408E+01
 -1      2132 3.14269E+01
 -1      2133 3.39564E+01
 -1      2134 2.40731E+01
 -1      2135 2.58477E+01
 -1      2136 2.58477E+01
 -1      2137 1.22520E+01
 -1      2138 2.01476E+01
 -1      2139 1.04467E+00
 -1      2140 1.22238E+00
 -1      2141 9.86334E-01
 -1      2142 8.61792E-01
 -1      2143 1.11394E+01
 -1      2144 1.08833E+01
 -1      2145 1.18144E+01
 -1      2146 1.19781E+01
 -1      2147 1.14518E+01
 -1      2148 1.14998E+01
 -1      2149 1.06521E+01
 -1      2150 1.08816E+01
 -1      2151 1.04081E+01
 -1      2152 9.53856E+00
 -1      2153 2.37778E+01
 -1      2154 1.33497E+01
 -1      2155 9.79590E+00
 -1      2156 2.62480E+01
 -1      2157 2.79364E+01
 -1      2158 2.53462E+01
 -1      2159 2.72275E+01
 -1      2160 3.40532E+01
 -1      2161 3.31370E+01
 -1      2162 3.08046E+01
 -1      2163 3.40532E+01
 -1      2164 3.40532E+01
 -1      2165 3.22780E+01
 -1      2166 2.88088E+01
 -1      2167 3.19874E+01
 -1      2168 2.99483E+01
 -1      2169 1.41184E+01
 -1      2170 2.68551E+01
 -1      2171 8.98630E+00
 -1      2172 1.12294E+01
 -1      2173 1.02939E+01
 -1      2174 9.69491E+00
 -1      2175 9.08380E+00
 -1      2176 1.09629E+01
 -1      2177 1.07222E+01
 -1      2178 8.62729E+00
 -1      2179 1.13811E+01
 -1      2180 1.15267E+01
 -1      2181 1.20674E+01
 -1      2182 1.13849E+01
 -1      2183 1.07862E+01
 -1      2184 1.07996E+01
 -1      2185 1.13677E+01
 -1      2186 8.95638E+00
 -1      2187 9.58775E+00
 -1      2188 8.17888E+00
 -1      2189 1.51346E+01
 -1      2190 1.02796E+01
 -1      2191 3.12063E+01
 -1      2192 1.82700E+01
 -1      2193 2.79646E+01
 -1      2194 3.72464E+01
 -1      2195 2.87970E+01
 -1      2196 2.83306E+01
 -1      2197 2.83306E+01
 -1      2198 9.64430E+00
 -1      2199 9.84031E+00
 -1      2200 2.85759E+00
 -1      2201 9.65164E+00
 -1      2202 7.93481E+00
 -1      2203 2.04479E+00
 -1      2204 3.31408E+01
 -1      2205 1.96034E-03
 -1      2206 1.54447E+01
 -1      2207 3.13265E+01
 -1      2208 9.10750E+00
 -1      2209 2.19244E+01
 -1      2210 8.29030E+00
 -1      2211 1.00904E+01
 -1      2212 1.02185E+01
 -1      2213 7.50247E+00
 -1      2214 1.83152E+01
 -1      2215 2.57772E+01
 -1      2216 3.85955E+01
 -1      2217 1.68961E+01
 -1      2218 7.96787E+00
 -1      2219 1.00124E+01
 -1      2220 1.05365E+01
 -1      2221 2.20342E+01
 -1      2222 3.33512E+01
 -1      2223 1.27489E+01
 -1      2224 1.04386E+00
 -1      2225 1.39434E+00
 -1      2226 5.46386E-01
 -1      2227 5.83968E-01
 -1      2228 6.02724E-01
 -1      2229 6.57024E-01
 -1      2230 4.99955E-01
 -1      2231 4.73548E-01
 -1      2232 4.74166E-01
 -1      2233 5.17849E-01
 -1      2234 4.90235E-01
 -1      2235 4.10923E-01
 -1      2236 5.80412E-01
 -1      2237 5.40294E-01
 -1      2238 4.50055E-01
 -1      2239 6.53921E-01
 -1      2240 6.00383E-01
 -1      2241 4.92472E-01
 -1      2242 7.31311E-01
 -1      2243 6.59459E-01
 -1      2244 5.17982E-01
 -1      2245 9.04043E-01
 -1      2246 7.97852E-01
 -1      2247 5.90061E-01
 -1      2248 7.80681E-01
 -1      2249 9.45482E-01
 -1      2250 8.72618E-01
 -1      2251 1.19661E+00
 -1      2252 9.52917E-01
 -1      2253 8.04280E+00
 -1      2254 8.61303E+00
 -1      2255 8.85478E-01
 -1      2256 6.91082E-01
 -1      2257 6.59443E-01
 -1      2258 6.17626E-01
 -1      2259 5.40153E-01
 -1      2260 5.18548E-01
 -1      2261 4.92680E-01
 -1      2262 4.26609E-01
 -1      2263 3.97618E-01
 -1      2264 3.95988E-01
 -1      2265 3.30221E-01
 -1      2266 3.19523E-01
 -1      2267 2.94343E-01
 -1      2268 2.50391E-01
 -1      2269 2.53025E-01
 -1      2270 2.35996E-01
 -1      2271 2.34614E-01
 -1      2272 2.02753E-01
 -1      2273 2.46357E-01
 -1      2274 2.29134E-01
 -1      2275 2.00102E-01
 -1      2276 2.62993E-01
 -1      2277 2.53670E-01
 -1      2278 2.45704E-01
 -1      2279 2.89339E-01
 -1      2280 3.09911E-01
 -1      2281 3.15233E-01
 -1      2282 3.49330E-01
 -1      2283 4.19105E-01
 -1      2284 3.90321E-01
 -1      2285 5.18667E-01
 -1      2286 6.27678E-01
 -1      2287 5.29302E-01
 -1      2288 7.23224E-01
 -1      2289 8.74966E-01
 -1      2290 7.24411E-01
 -1      2291 9.78556E-01
 -1      2292 1.11628E+00
 -1      2293 9.23547E-01
 -1      2294 1.18840E+00
 -1      2295 1.32979E+00
 -1      2296 1.09926E+00
 -1      2297 1.38044E+00
 -1      2298 1.47796E+00
 -1      2299 1.22204E+00
 -1      2300 1.47952E+00
 -1      2301 1.47639E+00
 -1      2302 1.27425E+00
 -1      2303 1.43192E+00
 -1      2304 1.44504E+00
 -1      2305 1.23134E+00
 -1      2306 1.49507E+00
 -1      2307 1.47984E+00
 -1      2308 1.23690E+00
 -1      2309 1.46169E+00
 -1      2310 1.34740E+00
 -1      2311 1.26878E+00
 -1      2312 1.29585E+00
 -1      2313 1.15332E+00
 -1      2314 1.19907E+00
 -1      2315 1.06262E+00
 -1      2316 9.13926E-01
 -1      2317 1.05682E+00
 -1      2318 7.99561E-01
 -1      2319 6.44428E-01
 -1      2320 8.51755E-01
 -1      2321 5.39586E-01
 -1      2322 4.16091E-01
 -1      2323 6.32547E-01
 -1      2324 3.52275E-01
 -1      2325 3.17870E-01
 -1      2326 4.63889E-01
 -1      2327 2.86619E-01
 -1      2328 3.04383E-01
 -1      2329 3.68822E-01
 -1      2330 2.73760E-01
 -1      2331 2.89781E-01
 -1      2332 3.06948E-01
 -1      2333 2.93082E-01
 -1      2334 2.87443E-01
 -1      2335 2.79626E-01
 -1      2336 2.79344E-01
 -1      2337 2.61917E-01
 -1      2338 2.74828E-01
 -1      2339 2.49466E-01
 -1      2340 2.34688E-01
 -1      2341 2.54278E-01
 -1      2342 2.20439E-01
 -1      2343 2.06028E-01
 -1      2344 2.27579E-01
 -1      2345 1.91352E-01
 -1      2346 1.74930E-01
 -1      2347 1.98655E-01
 -1      2348 1.58675E-01
 -1      2349 1.41635E-01
 -1      2350 1.67724E-01
 -1      2351 1.25808E-01
 -1      2352 1.09960E-01
 -1      2353 1.35642E-01
 -1      2354 9.57278E-02
 -1      2355 8.25310E-02
 -1      2356 1.05583E-01
 -1      2357 7.04438E-02
 -1      2358 6.12808E-02
 -1      2359 7.92642E-02
 -1      2360 5.14724E-02
 -1      2361 4.38476E-02
 -1      2362 5.73686E-02
 -1      2363 3.61993E-02
 -1      2364 3.06785E-02
 -1      2365 3.99119E-02
 -1      2366 2.49382E-02
 -1      2367 2.22624E-02
 -1      2368 2.65233E-02
 -1      2369 1.89465E-02
 -1      2370 1.65496E-02
 -1      2371 1.74671E-02
 -1      2372 1.47699E-02
 -1      2373 1.24629E-02
 -1      2374 1.23715E-02
 -1      2375 1.13869E-02
 -1      2376 9.25034E-03
 -1      2377 9.51580E-03
 -1      2378 8.11852E-03
 -1      2379 6.62241E-03
 -1      2380 7.30792E-03
 -1      2381 5.55608E-03
 -1      2382 4.41720E-03
 -1      2383 5.10977E-03
 -1      2384 5.69715E-01
 -1      2385 5.77442E-01
 -1      2386 5.11912E-01
 -1      2387 5.21616E-01
 -1      2388 4.20717E-01
 -1      2389 5.86366E-01
 -1      2390 5.77824E-01
 -1      2391 4.38529E-01
 -1      2392 9.05761E-01
 -1      2393 7.36473E-01
 -1      2394 6.54548E-01
 -1      2395 1.29172E+00
 -1      2396 1.08752E+00
 -1      2397 9.86417E-01
 -1      2398 1.71917E+00
 -1      2399 1.50528E+00
 -1      2400 1.38174E+00
 -1      2401 2.14341E+00
 -1      2402 1.95641E+00
 -1      2403 1.83255E+00
 -1      2404 2.52182E+00
 -1      2405 2.38318E+00
 -1      2406 2.30956E+00
 -1      2407 2.84593E+00
 -1      2408 2.72399E+00
 -1      2409 2.75150E+00
 -1      2410 3.36156E+00
 -1      2411 3.18418E+00
 -1      2412 3.29193E+00
 -1      2413 4.02735E+00
 -1      2414 4.00177E+00
 -1      2415 4.27039E+00
 -1      2416 5.82733E+00
 -1      2417 5.79382E+00
 -1      2418 6.67707E+00
 -1      2419 6.14138E+00
 -1      2420 6.78777E+00
 -1      2421 2.89177E+00
 -1      2422 3.66173E+00
 -1      2423 3.33196E+00
 -1      2424 3.36299E+00
 -1      2425 4.19156E+00
 -1      2426 4.21217E+00
 -1      2427 4.71778E+00
 -1      2428 3.14928E+00
 -1      2429 3.28941E+00
 -1      2430 4.69585E+00
 -1      2431 2.76399E+00
 -1      2432 2.79024E+00
 -1      2433 3.43466E+00
 -1      2434 2.44631E+00
 -1      2435 2.57222E+00
 -1      2436 2.88384E+00
 -1      2437 2.11448E+00
 -1      2438 2.24133E+00
 -1      2439 2.48708E+00
 -1      2440 1.74157E+00
 -1      2441 1.89805E+00
 -1      2442 2.06566E+00
 -1      2443 1.31821E+00
 -1      2444 1.52141E+00
 -1      2445 1.62907E+00
 -1      2446 9.91252E-01
 -1      2447 1.14492E+00
 -1      2448 1.23561E+00
 -1      2449 7.27759E-01
 -1      2450 8.52207E-01
 -1      2451 9.23268E-01
 -1      2452 5.24374E-01
 -1      2453 6.20278E-01
 -1      2454 6.76742E-01
 -1      2455 3.71645E-01
 -1      2456 4.43309E-01
 -1      2457 4.88196E-01
 -1      2458 2.59195E-01
 -1      2459 3.11550E-01
 -1      2460 3.47035E-01
 -1      2461 1.83075E-01
 -1      2462 2.15236E-01
 -1      2463 2.42981E-01
 -1      2464 1.27622E-01
 -1      2465 1.51290E-01
 -1      2466 1.67237E-01
 -1      2467 8.72491E-02
 -1      2468 1.04900E-01
 -1      2469 1.12730E-01
 -1      2470 5.81601E-02
 -1      2471 7.12138E-02
 -1      2472 7.39728E-02
 -1      2473 3.89997E-02
 -1      2474 4.85701E-02
 -1      2475 4.83475E-02
 -1      2476 2.68296E-02
 -1      2477 3.34850E-02
 -1      2478 3.32428E-02
 -1      2479 1.92113E-02
 -1      2480 2.26427E-02
 -1      2481 2.35413E-02
 -1      2482 1.49097E-02
 -1      2483 1.69889E-02
 -1      2484 1.71321E-02
 -1      2485 1.10877E-02
 -1      2486 1.29987E-02
 -1      2487 1.29987E-02
 -1      2488 7.70046E-03
 -1      2489 9.41071E-03
 -1      2490 9.41071E-03
 -1      2491 5.94396E-03
 -1      2492 6.65408E-03
 -1      2493 6.68732E-03
 -1      2494 4.04085E-03
 -1      2495 4.99423E-03
 -1      2496 4.69120E-03
 -1      2497 3.30985E-03
 -1      2498 1.57840E-03
 -1      2499 1.65136E-03
 -1      2500 1.12463E-03
 -1      2501 1.33534E-03
 -1      2502 1.54605E-03
 -1      2503 2.01356E-03
 -1      2504 2.01356E-03
 -1      2505 1.89353E-03
 -1      2506 2.01356E-03
 -1      2507 2.27345E-03
 -1      2508 2.03128E-03
 -1      2509 1.73338E+01
 -1      2510 2.38113E+01
 -1      2511 8.62331E-04
 -1      2512 1.06550E-03
 -1      2513 1.24386E-03
 -1      2514 7.74822E-04
 -1      2515 8.62331E-04
 -1      2516 1.18474E-03
 -1      2517 8.56726E-04
 -1      2518 7.27599E-04
 -1      2519 1.13751E-03
 -1      2520 1.06775E-03
 -1      2521 8.65672E-04
 -1      2522 1.09924E-03
 -1      2523 1.27540E-03
 -1      2524 1.18064E-03
 -1      2525 1.22107E-03
 -1      2526 1.64640E-03
 -1      2527 1.53753E-03
 -1      2528 1.59609E-03
 -1      2529 1.75391E-03
 -1      2530 1.47527E-03
 -1      2531 1.68709E-03
 -1      2532 2.37162E-03
 -1      2533 1.07750E+01
 -1      2534 1.47004E+01
 -1      2535 6.14912E-01
 -1      2536 6.65438E-01
 -1      2537 5.06286E-01
 -1      2538 3.39564E+01
 -1      2539 3.39564E+01
 -1      2540 3.13265E+01
 -1      2541 2.86966E+01
 -1      2542 6.92404E+00
 -1      2543 9.33572E+00
 -1      2544 2.06641E+01
 -1      2545 1.46239E+01
 -1      2546 1.24177E+01
 -1      2547 1.75500E+01
 -1      2548 1.56021E+01
 -1      2549 1.14435E+01
 -1      2550 5.85269E+00
 -1      2551 6.96622E+00
 -1      2552 4.95703E-01
 -1      2553 5.24442E-01
 -1      2554 4.59254E-01
 -1      2555 4.15774E-01
 -1      2556 9.46906E+00
 -1      2557 9.78366E+00
 -1      2558 1.98924E+01
 -1      2559 1.89129E+01
 -1      2560 7.01973E+00
 -1      2561 5.78075E+00
 -1      2562 9.35277E+00
 -1      2563 8.51412E+00
 -1      2564 9.31726E+00
 -1      2565 6.37570E+00
 -1      2566 2.81068E+01
 -1      2567 3.33512E+01
 -1      2568 3.08046E+01
 -1      2569 2.30138E+01
 -1      2570 1.22196E+01
 -1      2571 9.08427E+00
 -1      2572 3.85955E+01
 -1      2573 3.85955E+01
 -1      2574 2.05340E+01
 -1      2575 2.28637E+01
 -1      2576 2.28637E+01
 -1      2577 7.22902E+00
 -1      2578 1.01180E+01
 -1      2579 5.85164E+00
 -1      2580 5.75413E+00
 -1      2581 5.57818E+00
 -1      2582 7.55002E+00
 -1      2583 6.52270E+00
 -1      2584 8.94906E+00
 -1      2585 8.38520E+00
 -1      2586 6.28061E+00
 -1      2587 9.27542E+00
 -1      2588 9.27157E+00
 -1      2589 7.98023E+00
 -1      2590 8.67990E+00
 -1      2591 5.46608E+00
 -1      2592 6.67790E+00
 -1      2593 7.43638E+00
 -1      2594 6.11315E+00
 -1      2595 6.90713E+00
 -1      2596 2.33928E+01
 -1      2597 2.30267E+01
 -1      2598 1.63408E+00
 -1      2599 1.25562E+00
 -1      2600 7.85893E-01
 -1      2601 9.44662E-01
 -1      2602 1.53589E+00
 -1      2603 1.69271E+00
 -1      2604 1.27745E+00
 -1      2605 1.11255E+00
 -1      2606 2.84776E+01
 -1      2607 2.92932E+01
 -1      2608 8.28534E+00
 -1      2609 6.43983E-01
 -1      2610 7.82296E-01
 -1      2611 8.48751E-01
 -1      2612 6.58998E-01
 -1      2613 1.20280E+00
 -1      2614 1.99637E+01
 -1      2615 1.09593E+01
 -1      2616 3.08046E+01
 -1      2617 7.86021E+00
 -1      2618 9.35274E+00
 -1      2619 8.02325E+00
 -1      2620 1.26641E+01
 -1      2621 7.21867E+00
 -1      2622 5.37479E+00
 -1      2623 4.03108E+00
 -1      2624 3.21113E+00
 -1      2625 7.86021E+00
 -1      2626 5.82733E+00
 -1      2627 3.36635E+00
 -1      2628 3.01047E-03
 -1      2629 2.24744E-03
 -1      2630 2.51034E-03
 -1      2631 3.24134E-03
 -1      2632 2.50733E-03
 -1      2633 2.71116E-03
 -1      2634 2.33138E-03
 -1      2635 2.09345E-03
 -1      2636 3.73094E-03
 -1      2637 8.59151E+00
 -1      2638 9.55356E-01
 -1      2639 2.92932E+01
 -1      2640 5.37405E+00
 -1      2641 2.33928E+01
 -1      2642 1.52866E+01
 -1      2643 9.83400E+00
 -1      2644 1.31448E+01
 -1      2645 8.86576E-01
 -1      2646 4.61217E+00
 -1      2647 7.41703E+00
 -1      2648 6.00656E+00
 -1      2649 4.70422E+00
 -1      2650 7.43830E+00
 -1      2651 4.77436E+00
 -1      2652 1.70662E+01
 -1      2653 1.41527E+01
 -1      2654 1.11687E+01
 -1      2655 3.33512E+01
 -1      2656 1.57263E+01
 -1      2657 6.00896E+00
 -1      2658 3.13265E+01
 -1      2659 3.35718E-03
 -1      2660 5.92761E+00
 -1      2661 1.98924E+01
 -1      2662 7.16529E+00
 -1      2663 7.00419E+00
 -1      2664 4.00725E-01
 -1      2665 3.78280E-01
 -1      2666 3.61678E-01
 -1      2667 3.44991E-01
 -1      2668 3.12348E-01
 -1      2669 4.42975E-01
 -1      2670 4.37436E-01
 -1      2671 5.09515E-01
 -1      2672 4.42975E-01
 -1      2673 3.62429E-01
 -1      2674 6.22131E-01
 -1      2675 7.20509E-01
 -1      2676 2.05436E+01
 -1      2677 2.52068E+01
 -1      2678 4.46024E-01
 -1      2679 5.61266E-01
 -1      2680 4.09157E-01
 -1      2681 8.13799E-01
 -1      2682 4.30178E-01
 -1      2683 3.56722E-01
 -1      2684 3.32613E-01
 -1      2685 2.85139E-01
 -1      2686 2.44243E-01
 -1      2687 2.59488E-01
 -1      2688 2.28867E-01
 -1      2689 1.94483E-01
 -1      2690 2.15846E-01
 -1      2691 1.79969E-01
 -1      2692 1.55811E-01
 -1      2693 1.85809E-01
 -1      2694 1.71414E-01
 -1      2695 1.48630E-01
 -1      2696 2.00102E-01
 -1      2697 2.11845E-01
 -1      2698 1.83157E-01
 -1      2699 2.45704E-01
 -1      2700 2.79564E-01
 -1      2701 2.45704E-01
 -1      2702 3.33906E-01
 -1      2703 3.69575E-01
 -1      2704 3.33906E-01
 -1      2705 4.38485E-01
 -1      2706 4.77904E-01
 -1      2707 4.57158E-01
 -1      2708 5.40761E-01
 -1      2709 6.40323E-01
 -1      2710 5.88925E-01
 -1      2711 7.24411E-01
 -1      2712 8.19957E-01
 -1      2713 7.35869E-01
 -1      2714 9.51407E-01
 -1      2715 1.05500E+00
 -1      2716 9.51407E-01
 -1      2717 1.08097E+00
 -1      2718 1.15309E+00
 -1      2719 1.10883E+00
 -1      2720 1.22820E+00
 -1      2721 1.27885E+00
 -1      2722 1.20991E+00
 -1      2723 1.41512E+00
 -1      2724 1.41668E+00
 -1      2725 1.42129E+00
 -1      2726 1.40213E+00
 -1      2727 1.35766E+00
 -1      2728 1.54301E+00
 -1      2729 1.34015E+00
 -1      2730 1.39018E+00
 -1      2731 1.51095E+00
 -1      2732 1.40228E+00
 -1      2733 1.38413E+00
 -1      2734 1.50553E+00
 -1      2735 1.23963E+00
 -1      2736 1.18808E+00
 -1      2737 1.37314E+00
 -1      2738 1.14451E+00
 -1      2739 1.05381E+00
 -1      2740 1.18507E+00
 -1      2741 9.73611E-01
 -1      2742 8.59246E-01
 -1      2743 1.06130E+00
 -1      2744 7.37390E-01
 -1      2745 6.32547E-01
 -1      2746 8.59246E-01
 -1      2747 5.86904E-01
 -1      2748 5.23089E-01
 -1      2749 6.91747E-01
 -1      2750 4.58921E-01
 -1      2751 4.27670E-01
 -1      2752 5.81936E-01
 -1      2753 3.59558E-01
 -1      2754 3.28935E-01
 -1      2755 4.49657E-01
 -1      2756 3.18046E-01
 -1      2757 3.21347E-01
 -1      2758 3.70656E-01
 -1      2759 3.00605E-01
 -1      2760 2.92505E-01
 -1      2761 3.39025E-01
 -1      2762 2.70764E-01
 -1      2763 2.58314E-01
 -1      2764 2.96541E-01
 -1      2765 2.39905E-01
 -1      2766 2.25656E-01
 -1      2767 2.56391E-01
 -1      2768 2.07771E-01
 -1      2769 1.93095E-01
 -1      2770 2.20097E-01
 -1      2771 1.75380E-01
 -1      2772 1.59125E-01
 -1      2773 1.84497E-01
 -1      2774 1.42305E-01
 -1      2775 1.26478E-01
 -1      2776 1.49962E-01
 -1      2777 1.11505E-01
 -1      2778 9.72729E-02
 -1      2779 1.18168E-01
 -1      2780 8.45577E-02
 -1      2781 7.24705E-02
 -1      2782 9.04792E-02
 -1      2783 6.20737E-02
 -1      2784 5.22652E-02
 -1      2785 6.73671E-02
 -1      2786 4.40375E-02
 -1      2787 3.63892E-02
 -1      2788 4.87425E-02
 -1      2789 3.00742E-02
 -1      2790 2.43339E-02
 -1      2791 3.41997E-02
 -1      2792 1.96344E-02
 -1      2793 1.63185E-02
 -1      2794 2.31852E-02
 -1      2795 1.29373E-02
 -1      2796 1.11576E-02
 -1      2797 1.51046E-02
 -1      2798 8.81768E-03
 -1      2799 7.74163E-03
 -1      2800 9.38347E-03
 -1      2801 6.42992E-03
 -1      2802 5.29810E-03
 -1      2803 5.73181E-03
 -1      2804 4.84061E-03
 -1      2805 3.77428E-03
 -1      2806 3.96261E-03
 -1      2807 4.23492E-01
 -1      2808 3.57580E-01
 -1      2809 6.50601E+00
 -1      2810 7.94526E+00
 -1      2811 2.89455E-01
 -1      2812 3.37554E-01
 -1      2813 2.74417E-01
 -1      2814 9.98436E-01
 -1      2815 8.16676E-01
 -1      2816 1.39731E+00
 -1      2817 1.18375E+00
 -1      2818 1.01401E+00
 -1      2819 1.88089E+00
 -1      2820 1.64365E+00
 -1      2821 1.44565E+00
 -1      2822 2.45194E+00
 -1      2823 2.21217E+00
 -1      2824 2.02327E+00
 -1      2825 3.13533E+00
 -1      2826 2.93316E+00
 -1      2827 2.83577E+00
 -1      2828 3.98642E+00
 -1      2829 3.64817E+00
 -1      2830 3.82982E+00
 -1      2831 4.96020E+00
 -1      2832 4.31999E+00
 -1      2833 4.67623E+00
 -1      2834 8.98104E+00
 -1      2835 7.21457E+00
 -1      2836 4.85104E+00
 -1      2837 4.03108E+00
 -1      2838 5.92761E+00
 -1      2839 5.72888E+00
 -1      2840 4.84866E+00
 -1      2841 3.25453E+00
 -1      2842 3.44631E+00
 -1      2843 2.49518E+00
 -1      2844 2.70017E+00
 -1      2845 3.26263E+00
 -1      2846 1.91687E+00
 -1      2847 2.13330E+00
 -1      2848 2.34639E+00
 -1      2849 1.43444E+00
 -1      2850 1.65460E+00
 -1      2851 1.72224E+00
 -1      2852 1.07531E+00
 -1      2853 1.24861E+00
 -1      2854 1.27414E+00
 -1      2855 7.97144E-01
 -1      2856 9.36189E-01
 -1      2857 9.49188E-01
 -1      2858 5.84664E-01
 -1      2859 6.92144E-01
 -1      2860 7.05066E-01
 -1      2861 4.24170E-01
 -1      2862 5.05235E-01
 -1      2863 5.20638E-01
 -1      2864 3.04159E-01
 -1      2865 3.64254E-01
 -1      2866 3.81294E-01
 -1      2867 2.15257E-01
 -1      2868 2.59216E-01
 -1      2869 2.76435E-01
 -1      2870 1.50001E-01
 -1      2871 1.81787E-01
 -1      2872 1.98022E-01
 -1      2873 1.02564E-01
 -1      2874 1.25286E-01
 -1      2875 1.39836E-01
 -1      2876 6.84613E-02
 -1      2877 8.44966E-02
 -1      2878 9.70526E-02
 -1      2879 4.58238E-02
 -1      2880 5.54138E-02
 -1      2881 6.59376E-02
 -1      2882 3.10280E-02
 -1      2883 3.65427E-02
 -1      2884 4.36090E-02
 -1      2885 2.03665E-02
 -1      2886 2.45533E-02
 -1      2887 2.78532E-02
 -1      2888 1.39984E-02
 -1      2889 1.62208E-02
 -1      2890 1.72328E-02
 -1      2891 1.04069E-02
 -1      2892 1.23178E-02
 -1      2893 1.14066E-02
 -1      2894 7.73370E-03
 -1      2895 9.41071E-03
 -1      2896 8.72984E-03
 -1      2897 5.64094E-03
 -1      2898 6.68732E-03
 -1      2899 6.68732E-03
 -1      2900 3.74147E-03
 -1      2901 4.69120E-03
 -1      2902 4.69120E-03
 -1      2903 3.24134E-03
 -1      2904 1.87486E-03
 -1      2905 1.87486E-03
 -1      2906 2.65175E-03
 -1      2907 2.07428E-03
 -1      2908 3.33801E-03
 -1      2909 1.73279E-03
 -1      2910 1.97585E-03
 -1      2911 1.02219E+01
 -1      2912 7.81755E+00
 -1      2913 1.77863E-03
 -1      2914 1.82585E-03
 -1      2915 2.51597E-03
 -1      2916 1.87486E-03
 -1      2917 1.93398E-03
 -1      2918 2.36378E-03
 -1      2919 2.56498E-03
 -1      2920 1.78757E-03
 -1      2921 1.77863E-03
 -1      2922 2.46696E-03
 -1      2923 1.72422E-03
 -1      2924 1.61133E-03
 -1      2925 2.29072E-03
 -1      2926 1.85822E-03
 -1      2927 1.59609E-03
 -1      2928 1.98635E-03
 -1      2929 2.24540E-03
 -1      2930 3.45986E-01
 -1      2931 3.83455E-01
 -1      2932 2.85724E-01
 -1      2933 2.14724E-01
 -1      2934 6.36006E+00
 -1      2935 6.83093E+00
 -1      2936 5.18304E+00
 -1      2937 4.55409E+00
 -1      2938 2.66741E+01
 -1      2939 1.88832E+01
 -1      2940 2.11278E+01
 -1      2941 2.63721E+01
 -1      2942 9.68019E+00
 -1      2943 1.23135E+01
 -1      2944 5.26552E+00
 -1      2945 5.62457E+00
 -1      2946 5.63621E+00
 -1      2947 6.45853E+00
 -1      2948 7.36068E+00
 -1      2949 8.28939E+00
 -1      2950 6.79019E-01
 -1      2951 5.28911E-01
 -1      2952 4.47962E-01
 -1      2953 6.91039E-01
 -1      2954 5.38757E-01
 -1      2955 4.71318E-01
 -1      2956 3.09492E-01
 -1      2957 1.41156E+01
 -1      2958 1.87819E+01
 -1      2959 4.15231E+00
 -1      2960 3.50523E+00
 -1      2961 4.07611E+00
 -1      2962 1.80468E+01
 -1      2963 1.49255E+01
 -1      2964 4.35211E-01
 -1      2965 4.15240E-01
 -1      2966 3.43464E-01
 -1      2967 3.60204E-01
 -1      2968 8.07080E-01
 -1      2969 2.44976E+01
 -1      2970 2.18677E+01
 -1      2971 1.57481E+01
 -1      2972 2.21497E+01
 -1      2973 1.68459E+01
 -1      2974 1.47231E+01
 -1      2975 1.23604E+01
 -1      2976 9.21866E+00
 -1      2977 4.26055E-01
 -1      2978 4.44812E-01
 -1      2979 5.85872E+00
 -1      2980 6.45425E+00
 -1      2981 7.66926E+00
 -1      2982 9.96893E+00
 -1      2983 1.49344E+01
 -1      2984 2.01776E+01
 -1      2985 4.22475E+00
 -1      2986 5.69963E+00
 -1      2987 3.99572E+00
 -1      2988 3.32466E+00
 -1      2989 3.44611E+00
 -1      2990 5.93605E+00
 -1      2991 5.10087E+00
 -1      2992 6.68338E+00
 -1      2993 6.36086E+00
 -1      2994 7.17030E+00
 -1      2995 4.85594E-01
 -1      2996 6.10866E-01
 -1      2997 4.11695E-01
 -1      2998 3.03386E-01
 -1      2999 3.52632E-01
 -1      3000 3.74169E-01
 -1      3001 5.63312E-01
 -1      3002 1.29305E+01
 -1      3003 1.41735E+01
 -1      3004 1.08077E+01
 -1      3005 1.46955E+01
 -1      3006 3.06885E-03
 -1      3007 7.59469E+00
 -1      3008 3.88040E+00
 -1      3009 1.53208E+01
 -1      3010 7.26417E+00
 -1      3011 1.44507E+01
 -1      3012 5.49491E+00
 -1      3013 5.02369E+00
 -1      3014 1.31985E+01
 -1      3015 7.49156E+00
 -1      3016 3.00746E-03
 -1      3017 6.09347E+00
 -1      3018 3.06294E-03
 -1      3019 3.06294E-03
 -1      3020 3.79695E-03
 -1      3021 3.65117E+00
 -1      3022 2.36660E-03
 -1      3023 1.97942E-03
 -1      3024 1.97942E-03
 -1      3025 2.80288E-03
 -1      3026 1.28556E+01
 -1      3027 1.01695E+01
 -1      3028 9.38784E+00
 -1      3029 6.31582E+00
 -1      3030 4.16225E-01
 -1      3031 5.37681E+00
 -1      3032 1.23943E+01
 -1      3033 8.76801E+00
 -1      3034 6.51364E+00
 -1      3035 1.05487E+01
 -1      3036 3.33273E+00
 -1      3037 4.07186E+00
 -1      3038 2.87288E+00
 -1      3039 9.48520E+00
 -1      3040 1.11317E+01
 -1      3041 2.82077E-03
 -1      3042 3.06294E-03
 -1      3043 3.00751E-03
 -1      3044 3.91246E-01
 -1      3045 4.13190E-01
 -1      3046 3.58047E-01
 -1      3047 3.28104E-01
 -1      3048 1.39163E+01
 -1      3049 5.52750E+00
 -1      3050 4.81645E+00
 -1      3051 4.96429E+00
 -1      3052 6.29617E-01
 -1      3053 6.67442E-01
 -1      3054 6.08431E-01
 -1      3055 4.71228E-01
 -1      3056 5.18113E+00
 -1      3057 4.20306E-01
 -1      3058 3.08310E-01
 -1      3059 3.08310E-01
 -1      3060 2.14258E-01
 -1      3061 1.90148E-01
 -1      3062 1.72047E-01
 -1      3063 1.46396E-01
 -1      3064 1.42062E-01
 -1      3065 1.48383E-01
 -1      3066 1.35362E-01
 -1      3067 1.25948E-01
 -1      3068 1.52839E-01
 -1      3069 1.58679E-01
 -1      3070 1.45411E-01
 -1      3071 1.92248E-01
 -1      3072 2.20935E-01
 -1      3073 1.96457E-01
 -1      3074 2.64051E-01
 -1      3075 2.97910E-01
 -1      3076 2.73141E-01
 -1      3077 3.44898E-01
 -1      3078 3.99241E-01
 -1      3079 3.63245E-01
 -1      3080 4.57158E-01
 -1      3081 5.26067E-01
 -1      3082 4.68150E-01
 -1      3083 6.37450E-01
 -1      3084 7.00307E-01
 -1      3085 6.37450E-01
 -1      3086 8.07008E-01
 -1      3087 8.91096E-01
 -1      3088 8.55534E-01
 -1      3089 9.64726E-01
 -1      3090 1.09618E+00
 -1      3091 1.03587E+00
 -1      3092 1.28313E+00
 -1      3093 1.30910E+00
 -1      3094 1.29645E+00
 -1      3095 1.25333E+00
 -1      3096 1.32844E+00
 -1      3097 1.42764E+00
 -1      3098 1.61767E+00
 -1      3099 1.75394E+00
 -1      3100 1.66110E+00
 -1      3101 2.54235E+00
 -1      3102 2.52780E+00
 -1      3103 2.73873E+00
 -1      3104 2.09187E+00
 -1      3105 2.07436E+00
 -1      3106 3.09121E+00
 -1      3107 1.81762E+00
 -1      3108 1.82972E+00
 -1      3109 2.39855E+00
 -1      3110 1.51763E+00
 -1      3111 1.37314E+00
 -1      3112 1.82972E+00
 -1      3113 1.38083E+00
 -1      3114 1.33725E+00
 -1      3115 1.52532E+00
 -1      3116 1.21720E+00
 -1      3117 1.13700E+00
 -1      3118 1.41295E+00
 -1      3119 1.03850E+00
 -1      3120 9.16649E-01
 -1      3121 1.19440E+00
 -1      3122 8.49993E-01
 -1      3123 8.04350E-01
 -1      3124 1.02925E+00
 -1      3125 6.91429E-01
 -1      3126 6.27262E-01
 -1      3127 8.49676E-01
 -1      3128 5.42998E-01
 -1      3129 4.74886E-01
 -1      3130 6.52491E-01
 -1      3131 4.36347E-01
 -1      3132 4.25458E-01
 -1      3133 5.29688E-01
 -1      3134 3.81885E-01
 -1      3135 3.61143E-01
 -1      3136 4.47576E-01
 -1      3137 3.24002E-01
 -1      3138 3.02261E-01
 -1      3139 3.66863E-01
 -1      3140 2.76028E-01
 -1      3141 2.57619E-01
 -1      3142 3.03489E-01
 -1      3143 2.33888E-01
 -1      3144 2.16003E-01
 -1      3145 2.53525E-01
 -1      3146 1.93117E-01
 -1      3147 1.75402E-01
 -1      3148 2.06908E-01
 -1      3149 1.54998E-01
 -1      3150 1.38178E-01
 -1      3151 1.63618E-01
 -1      3152 1.20912E-01
 -1      3153 1.05939E-01
 -1      3154 1.25949E-01
 -1      3155 9.24560E-02
 -1      3156 7.97408E-02
 -1      3157 9.52004E-02
 -1      3158 6.90110E-02
 -1      3159 5.86141E-02
 -1      3160 7.09877E-02
 -1      3161 5.02522E-02
 -1      3162 4.20245E-02
 -1      3163 5.18960E-02
 -1      3164 3.56383E-02
 -1      3165 2.93232E-02
 -1      3166 3.71480E-02
 -1      3167 2.45482E-02
 -1      3168 1.98487E-02
 -1      3169 2.59867E-02
 -1      3170 1.63606E-02
 -1      3171 1.29794E-02
 -1      3172 1.77235E-02
 -1      3173 1.05066E-02
 -1      3174 8.16667E-03
 -1      3175 1.17626E-02
 -1      3176 6.45476E-03
 -1      3177 5.14306E-03
 -1      3178 7.57792E-03
 -1      3179 3.82034E-03
 -1      3180 3.36285E-03
 -1      3181 2.66060E-03
 -1      3182 4.54330E-03
 -1      3183 1.66299E+00
 -1      3184 1.41665E+00
 -1      3185 1.16493E+00
 -1      3186 9.79621E-01
 -1      3187 1.38226E+00
 -1      3188 3.32678E+00
 -1      3189 2.84556E+00
 -1      3190 5.02971E+00
 -1      3191 4.51688E+00
 -1      3192 4.52667E+00
 -1      3193 6.13897E+00
 -1      3194 5.80539E+00
 -1      3195 6.49245E+00
 -1      3196 7.64281E+00
 -1      3197 1.17963E+01
 -1      3198 1.20983E+01
 -1      3199 9.29649E+00
 -1      3200 1.08461E+01
 -1      3201 1.17963E+01
 -1      3202 9.44385E+00
 -1      3203 1.17998E+01
 -1      3204 1.35615E+01
 -1      3205 3.65148E+00
 -1      3206 2.54633E+00
 -1      3207 3.29154E+00
 -1      3208 3.84590E+00
 -1      3209 1.23476E+00
 -1      3210 1.42059E+00
 -1      3211 9.03725E-01
 -1      3212 1.04285E+00
 -1      3213 1.18930E+00
 -1      3214 6.57229E-01
 -1      3215 7.62228E-01
 -1      3216 8.55887E-01
 -1      3217 4.74321E-01
 -1      3218 5.53750E-01
 -1      3219 6.10912E-01
 -1      3220 3.39141E-01
 -1      3221 3.99056E-01
 -1      3222 4.32168E-01
 -1      3223 2.39785E-01
 -1      3224 2.84728E-01
 -1      3225 3.02490E-01
 -1      3226 1.68415E-01
 -1      3227 2.01886E-01
 -1      3228 2.10178E-01
 -1      3229 1.17524E-01
 -1      3230 1.42240E-01
 -1      3231 1.46104E-01
 -1      3232 8.25222E-02
 -1      3233 1.00590E-01
 -1      3234 1.02994E-01
 -1      3235 5.67515E-02
 -1      3236 6.97990E-02
 -1      3237 7.33360E-02
 -1      3238 3.80514E-02
 -1      3239 4.73324E-02
 -1      3240 5.11938E-02
 -1      3241 2.47225E-02
 -1      3242 3.11972E-02
 -1      3243 3.49206E-02
 -1      3244 1.56920E-02
 -1      3245 1.98377E-02
 -1      3246 2.31816E-02
 -1      3247 1.06192E-02
 -1      3248 1.22997E-02
 -1      3249 1.49046E-02
 -1      3250 7.34803E-03
 -1      3251 8.34418E-03
 -1      3252 9.23737E-03
 -1      3253 5.22018E-03
 -1      3254 6.26656E-03
 -1      3255 5.88089E-03
 -1      3256 4.74668E-03
 -1      3257 6.30124E+00
 -1      3258 5.31462E+00
 -1      3259 3.44641E-03
 -1      3260 3.44641E-03
 -1      3261 2.46397E-03
 -1      3262 2.59210E-03
 -1      3263 4.68190E+00
 -1      3264 4.25709E+00
 -1      3265 3.53565E-03
 -1      3266 3.58466E-03
 -1      3267 4.51510E-03
 -1      3268 2.94387E-01
 -1      3269 2.53248E-01
 -1      3270 1.99153E-01
 -1      3271 3.27017E-03
 -1      3272 3.44641E-03
 -1      3273 4.42586E-03
 -1      3274 3.74779E-03
 -1      3275 5.27976E+00
 -1      3276 7.09898E+00
 -1      3277 5.30867E+00
 -1      3278 1.18901E+01
 -1      3279 1.10536E+01
 -1      3280 1.68878E+00
 -1      3281 1.95105E+00
 -1      3282 1.64940E+00
 -1      3283 2.33027E+00
 -1      3284 2.69215E+00
 -1      3285 3.27542E+00
 -1      3286 2.29681E+00
 -1      3287 2.34046E+00
 -1      3288 2.00918E+00
 -1      3289 1.98018E+00
 -1      3290 2.83147E+00
 -1      3291 3.42549E-01
 -1      3292 2.74423E-01
 -1      3293 9.06060E+00
 -1      3294 9.89457E+00
 -1      3295 3.89573E+00
 -1      3296 2.86499E+00
 -1      3297 4.10350E+00
 -1      3298 4.77545E+00
 -1      3299 5.00458E+00
 -1      3300 4.08053E+00
 -1      3301 7.81251E+00
 -1      3302 9.01226E+00
 -1      3303 1.28360E+01
 -1      3304 1.21268E+01
 -1      3305 9.50768E+00
 -1      3306 7.36911E+00
 -1      3307 3.61001E-01
 -1      3308 3.07204E-01
 -1      3309 2.53086E-01
 -1      3310 3.00136E-01
 -1      3311 3.75026E+00
 -1      3312 5.71989E+00
 -1      3313 2.45749E+00
 -1      3314 3.35758E+00
 -1      3315 2.45781E+00
 -1      3316 3.95057E-01
 -1      3317 3.25383E-01
 -1      3318 3.76305E-01
 -1      3319 2.81573E-01
 -1      3320 2.64971E-01
 -1      3321 1.20825E+01
 -1      3322 1.23645E+01
 -1      3323 2.51221E-01
 -1      3324 2.58861E-01
 -1      3325 2.20446E-01
 -1      3326 8.95816E+00
 -1      3327 1.13707E+01
 -1      3328 8.69841E+00
 -1      3329 8.13241E+00
 -1      3330 3.67994E+00
 -1      3331 6.24550E+00
 -1      3332 5.77256E+00
 -1      3333 2.96102E-01
 -1      3334 2.27971E-01
 -1      3335 2.36403E-01
 -1      3336 3.07845E-01
 -1      3337 3.48627E-01
 -1      3338 2.72456E-01
 -1      3339 2.56382E-01
 -1      3340 3.10501E-01
 -1      3341 3.08276E-01
 -1      3342 9.42717E-01
 -1      3343 7.91791E-01
 -1      3344 6.54134E-01
 -1      3345 3.85338E+00
 -1      3346 2.74854E+00
 -1      3347 3.35414E+00
 -1      3348 9.76538E+00
 -1      3349 8.36316E+00
 -1      3350 7.68660E+00
 -1      3351 9.17047E+00
 -1      3352 1.10286E+01
 -1      3353 2.69138E-01
 -1      3354 8.52243E+00
 -1      3355 4.32593E-03
 -1      3356 6.59027E+00
 -1      3357 3.52332E-03
 -1      3358 3.32212E-03
 -1      3359 8.70415E+00
 -1      3360 2.16230E-01
 -1      3361 2.78798E-01
 -1      3362 2.30642E-01
 -1      3363 2.29477E-01
 -1      3364 3.85243E-03
 -1      3365 3.58466E-03
 -1      3366 3.58466E-03
 -1      3367 4.54300E-03
 -1      3368 4.60433E-03
 -1      3369 4.19113E-01
 -1      3370 4.19119E-01
 -1      3371 5.24532E-01
 -1      3372 7.71515E+00
 -1      3373 2.15956E-03
 -1      3374 2.03836E-03
 -1      3375 2.64411E-03
 -1      3376 2.71954E-03
 -1      3377 9.23562E+00
 -1      3378 9.94028E+00
 -1      3379 3.48100E-03
 -1      3380 4.32593E-03
 -1      3381 4.64054E-03
 -1      3382 2.56134E+00
 -1      3383 2.74172E+00
 -1      3384 2.56922E+00
 -1      3385 4.44422E+00
 -1      3386 2.84594E-01
 -1      3387 2.21527E-01
 -1      3388 2.71729E-01
 -1      3389 9.22649E+00
 -1      3390 3.98937E+00
 -1      3391 3.51031E+00
 -1      3392 2.61789E+00
 -1      3393 3.08276E-01
 -1      3394 2.93761E-01
 -1      3395 2.46384E-01
 -1      3396 2.58573E-01
 -1      3397 2.76165E+00
 -1      3398 8.07398E+00
 -1      3399 7.86575E+00
 -1      3400 1.43609E-01
 -1      3401 1.45596E-01
 -1      3402 1.65529E-01
 -1      3403 1.83005E-01
 -1      3404 1.83190E-01
 -1      3405 2.09593E-01
 -1      3406 2.43162E-01
 -1      3407 2.29711E-01
 -1      3408 2.88793E-01
 -1      3409 3.31908E-01
 -1      3410 3.01929E-01
 -1      3411 3.93492E-01
 -1      3412 4.40480E-01
 -1      3413 4.09144E-01
 -1      3414 5.24877E-01
 -1      3415 5.82795E-01
 -1      3416 5.55125E-01
 -1      3417 6.71309E-01
 -1      3418 7.82692E-01
 -1      3419 7.28036E-01
 -1      3420 8.84893E-01
 -1      3421 9.91594E-01
 -1      3422 9.18751E-01
 -1      3423 1.42361E+00
 -1      3424 1.49724E+00
 -1      3425 1.45297E+00
 -1      3426 1.29645E+00
 -1      3427 1.48341E+00
 -1      3428 1.68420E+00
 -1      3429 1.60158E+00
 -1      3430 1.54581E+00
 -1      3431 1.60158E+00
 -1      3432 1.66110E+00
 -1      3433 1.95032E+00
 -1      3434 1.83504E+00
 -1      3435 2.45038E+00
 -1      3436 3.23878E+00
 -1      3437 3.96517E+00
 -1      3438 3.52925E+00
 -1      3439 2.33860E+00
 -1      3440 2.02651E+00
 -1      3441 1.66402E+00
 -1      3442 1.67171E+00
 -1      3443 2.17291E+00
 -1      3444 1.53301E+00
 -1      3445 1.41295E+00
 -1      3446 1.67171E+00
 -1      3447 1.77342E+00
 -1      3448 1.67493E+00
 -1      3449 1.89348E+00
 -1      3450 1.24206E+00
 -1      3451 1.17540E+00
 -1      3452 1.82108E+00
 -1      3453 9.79394E-01
 -1      3454 8.66473E-01
 -1      3455 1.19220E+00
 -1      3456 7.95963E-01
 -1      3457 7.11699E-01
 -1      3458 9.25681E-01
 -1      3459 6.26004E-01
 -1      3460 5.87466E-01
 -1      3461 7.69476E-01
 -1      3462 5.07471E-01
 -1      3463 4.63898E-01
 -1      3464 6.03787E-01
 -1      3465 4.15100E-01
 -1      3466 3.77959E-01
 -1      3467 4.74994E-01
 -1      3468 3.33597E-01
 -1      3469 3.07364E-01
 -1      3470 3.81834E-01
 -1      3471 2.71495E-01
 -1      3472 2.47764E-01
 -1      3473 3.01603E-01
 -1      3474 2.19474E-01
 -1      3475 1.96588E-01
 -1      3476 2.37444E-01
 -1      3477 1.75443E-01
 -1      3478 1.55040E-01
 -1      3479 1.88009E-01
 -1      3480 1.38962E-01
 -1      3481 1.21697E-01
 -1      3482 1.50787E-01
 -1      3483 1.07058E-01
 -1      3484 9.35749E-02
 -1      3485 1.20071E-01
 -1      3486 8.08309E-02
 -1      3487 7.01011E-02
 -1      3488 9.26883E-02
 -1      3489 5.95172E-02
 -1      3490 5.11553E-02
 -1      3491 6.93603E-02
 -1      3492 4.26880E-02
 -1      3493 3.63018E-02
 -1      3494 5.03091E-02
 -1      3495 2.99091E-02
 -1      3496 2.51340E-02
 -1      3497 3.54491E-02
 -1      3498 2.04863E-02
 -1      3499 1.69982E-02
 -1      3500 2.44086E-02
 -1      3501 1.35540E-02
 -1      3502 1.10812E-02
 -1      3503 1.63167E-02
 -1      3504 8.59251E-03
 -1      3505 6.88061E-03
 -1      3506 1.03839E-02
 -1      3507 1.48801E+00
 -1      3508 1.23630E+00
 -1      3509 5.96742E+00
 -1      3510 4.77732E+00
 -1      3511 1.07439E+00
 -1      3512 1.26631E+00
 -1      3513 3.95839E-01
 -1      3514 4.71104E-01
 -1      3515 2.80480E-01
 -1      3516 3.34893E-01
 -1      3517 3.73829E-01
 -1      3518 1.97787E-01
 -1      3519 2.35686E-01
 -1      3520 2.68089E-01
 -1      3521 1.38775E-01
 -1      3522 1.64950E-01
 -1      3523 1.90458E-01
 -1      3524 9.78480E-02
 -1      3525 1.14783E-01
 -1      3526 1.33629E-01
 -1      3527 6.80569E-02
 -1      3528 8.07801E-02
 -1      3529 9.25689E-02
 -1      3530 4.67302E-02
 -1      3531 5.61492E-02
 -1      3532 6.35933E-02
 -1      3533 3.12810E-02
 -1      3534 3.81352E-02
 -1      3535 4.30906E-02
 -1      3536 2.03507E-02
 -1      3537 2.52355E-02
 -1      3538 2.84501E-02
 -1      3539 1.27322E-02
 -1      3540 1.61245E-02
 -1      3541 1.81784E-02
 -1      3542 7.88447E-03
 -1      3543 1.01595E-02
 -1      3544 1.13794E-02
 -1      3545 5.89431E-03
 -1      3546 6.97578E-03
 -1      3547 7.89788E-03
 -1      3548 6.59086E+00
 -1      3549 5.52299E+00
 -1      3550 4.42110E+00
 -1      3551 5.85496E+00
 -1      3552 6.74253E+00
 -1      3553 8.70415E+00
 -1      3554 7.97865E+00
 -1      3555 5.85496E+00
 -1      3556 2.16364E-01
 -1      3557 1.77374E-01
 -1      3558 8.14776E+00
 -1      3559 4.32593E-03
 -1      3560 1.50424E+00
 -1      3561 1.77243E+00
 -1      3562 1.38933E+00
 -1      3563 5.54206E-01
 -1      3564 6.57685E-01
 -1      3565 5.17877E-01
 -1      3566 4.39962E+00
 -1      3567 2.98073E+00
 -1      3568 2.69138E-01
 -1      3569 2.38143E-01
 -1      3570 2.16364E-01
 -1      3571 2.41460E-01
 -1      3572 2.50197E-01
 -1      3573 2.67274E-01
 -1      3574 1.93822E-01
 -1      3575 1.98031E-01
 -1      3576 7.31102E+00
 -1      3577 7.68660E+00
 -1      3578 8.02314E+00
 -1      3579 7.97884E+00
 -1      3580 7.72124E-01
 -1      3581 9.13620E-01
 -1      3582 9.90628E-01
 -1      3583 7.15418E-01
 -1      3584 8.41201E+00
 -1      3585 7.11199E+00
 -1      3586 2.31913E-01
 -1      3587 2.33019E-01
 -1      3588 2.10575E-01
 -1      3589 2.27905E+00
 -1      3590 2.19021E+00
 -1      3591 2.19021E+00
 -1      3592 2.58289E+00
 -1      3593 2.01146E+00
 -1      3594 5.83589E-03
 -1      3595 5.92512E-03
 -1      3596 7.83096E+00
 -1      3597 7.83096E+00
 -1      3598 1.60530E-01
 -1      3599 1.42429E-01
 -1      3600 1.77741E-01
 -1      3601 4.79942E-03
 -1      3602 7.97884E+00
 -1      3603 6.98508E+00
 -1      3604 6.83152E+00
 -1      3605 2.96523E+00
 -1      3606 3.49084E+00
 -1      3607 2.39379E+00
 -1      3608 3.25739E-01
 -1      3609 2.79287E-01
 -1      3610 3.64249E+00
 -1      3611 2.35209E-01
 -1      3612 2.45038E+00
 -1      3613 3.93023E+00
 -1      3614 3.05626E+00
 -1      3615 2.79953E+00
 -1      3616 1.12783E+00
 -1      3617 1.02208E+00
 -1      3618 8.34249E-01
 -1      3619 1.78688E+00
 -1      3620 1.64091E+00
 -1      3621 2.13307E+00
 -1      3622 5.09130E-03
 -1      3623 3.76858E-03
 -1      3624 3.26754E-03
 -1      3625 6.10589E-03
 -1      3626 4.97134E+00
 -1      3627 3.53058E+00
 -1      3628 3.02548E+00
 -1      3629 6.98612E+00
 -1      3630 6.21044E+00
 -1      3631 6.04472E+00
 -1      3632 7.28246E+00
 -1      3633 3.53715E+00
 -1      3634 4.13654E+00
 -1      3635 4.68283E+00
 -1      3636 2.76540E+00
 -1      3637 2.46928E+00
 -1      3638 2.34601E+00
 -1      3639 4.40022E+00
 -1      3640 6.78702E+00
 -1      3641 6.25285E-01
 -1      3642 7.44938E+00
 -1      3643 5.83649E+00
 -1      3644 6.36869E+00
 -1      3645 7.44610E-03
 -1      3646 7.44610E-03
 -1      3647 8.76689E-03
 -1      3648 4.52277E-01
 -1      3649 3.75713E-01
 -1      3650 3.58898E-01
 -1      3651 2.22541E-01
 -1      3652 2.19224E-01
 -1      3653 1.99290E-01
 -1      3654 6.85225E+00
 -1      3655 8.44127E-03
 -1      3656 8.60015E-03
 -1      3657 2.12150E+00
 -1      3658 2.50073E+00
 -1      3659 3.36184E+00
 -1      3660 1.97634E+00
 -1      3661 6.46109E+00
 -1      3662 3.69315E-03
 -1      3663 2.99632E+00
 -1      3664 2.48094E+00
 -1      3665 5.49198E+00
 -1      3666 5.46343E+00
 -1      3667 3.92498E+00
 -1      3668 8.50261E-03
 -1      3669 8.44127E-03
 -1      3670 1.24009E-02
 -1      3671 3.97123E+00
 -1      3672 2.21065E-01
 -1      3673 2.08876E-01
 -1      3674 1.82426E-01
 -1      3675 1.68676E-01
 -1      3676 1.57107E-01
 -1      3677 2.53539E+00
 -1      3678 3.51031E+00
 -1      3679 6.46109E+00
 -1      3680 5.83589E-03
 -1      3681 7.24591E-03
 -1      3682 5.83589E-03
 -1      3683 1.62077E-01
 -1      3684 5.51983E-03
 -1      3685 4.89640E-03
 -1      3686 5.57447E-03
 -1      3687 7.30914E-03
 -1      3688 2.45211E-01
 -1      3689 2.71799E-01
 -1      3690 3.14512E-01
 -1      3691 3.60143E-01
 -1      3692 3.30013E-01
 -1      3693 4.39397E-01
 -1      3694 5.00980E-01
 -1      3695 4.51979E-01
 -1      3696 5.94867E-01
 -1      3697 6.79264E-01
 -1      3698 6.25120E-01
 -1      3699 7.84469E-01
 -1      3700 8.72983E-01
 -1      3701 8.24211E-01
 -1      3702 1.04098E+00
 -1      3703 1.14318E+00
 -1      3704 1.09742E+00
 -1      3705 1.58892E+00
 -1      3706 2.02094E+00
 -1      3707 1.71115E+00
 -1      3708 2.33056E+00
 -1      3709 2.12977E+00
 -1      3710 2.24794E+00
 -1      3711 1.98089E+00
 -1      3712 2.03219E+00
 -1      3713 1.89348E+00
 -1      3714 2.25396E+00
 -1      3715 2.25396E+00
 -1      3716 1.82108E+00
 -1      3717 1.49177E+00
 -1      3718 1.29576E+00
 -1      3719 1.92465E+00
 -1      3720 1.12878E+00
 -1      3721 1.05827E+00
 -1      3722 1.42835E+00
 -1      3723 8.93807E-01
 -1      3724 8.08113E-01
 -1      3725 1.09691E+00
 -1      3726 7.17789E-01
 -1      3727 6.37794E-01
 -1      3728 8.42120E-01
 -1      3729 5.47772E-01
 -1      3730 4.98974E-01
 -1      3731 6.61774E-01
 -1      3732 4.22521E-01
 -1      3733 3.78158E-01
 -1      3734 4.95298E-01
 -1      3735 3.31803E-01
 -1      3736 2.95933E-01
 -1      3737 3.72489E-01
 -1      3738 2.61119E-01
 -1      3739 2.32829E-01
 -1      3740 2.91319E-01
 -1      3741 2.09154E-01
 -1      3742 1.88009E-01
 -1      3743 2.32829E-01
 -1      3744 1.66864E-01
 -1      3745 1.50787E-01
 -1      3746 1.88009E-01
 -1      3747 1.32130E-01
 -1      3748 1.17492E-01
 -1      3749 1.48208E-01
 -1      3750 1.01810E-01
 -1      3751 8.90660E-02
 -1      3752 1.13869E-01
 -1      3753 7.63298E-02
 -1      3754 6.57459E-02
 -1      3755 8.54516E-02
 -1      3756 5.56668E-02
 -1      3757 4.71995E-02
 -1      3758 6.26362E-02
 -1      3759 3.94075E-02
 -1      3760 3.30148E-02
 -1      3761 4.47651E-02
 -1      3762 2.71258E-02
 -1      3763 2.24780E-02
 -1      3764 3.10841E-02
 -1      3765 1.83794E-02
 -1      3766 1.49353E-02
 -1      3767 2.10966E-02
 -1      3768 1.19890E-02
 -1      3769 9.50026E-03
 -1      3770 1.40516E-02
 -1      3771 5.75224E+00
 -1      3772 5.23111E+00
 -1      3773 3.21483E-01
 -1      3774 3.82428E-01
 -1      3775 1.19854E-01
 -1      3776 1.43846E-01
 -1      3777 8.41388E-02
 -1      3778 1.01207E-01
 -1      3779 1.11424E-01
 -1      3780 5.83177E-02
 -1      3781 7.02254E-02
 -1      3782 7.88632E-02
 -1      3783 3.95573E-02
 -1      3784 4.81523E-02
 -1      3785 5.47844E-02
 -1      3786 2.64785E-02
 -1      3787 3.25240E-02
 -1      3788 3.75856E-02
 -1      3789 1.71385E-02
 -1      3790 2.13648E-02
 -1      3791 2.54386E-02
 -1      3792 1.21100E-02
 -1      3793 1.46828E-02
 -1      3794 1.78691E-02
 -1      3795 5.89431E-03
 -1      3796 6.36869E+00
 -1      3797 6.36869E+00
 -1      3798 2.20746E-01
 -1      3799 2.03901E-01
 -1      3800 2.41159E-01
 -1      3801 2.20986E-01
 -1      3802 2.22257E-01
 -1      3803 2.70796E-01
 -1      3804 4.78021E+00
 -1      3805 5.66778E+00
 -1      3806 5.71227E+00
 -1      3807 1.68575E-01
 -1      3808 2.01411E-01
 -1      3809 1.54799E-01
 -1      3810 2.33908E-01
 -1      3811 2.78703E-01
 -1      3812 2.12024E-01
 -1      3813 2.09244E-01
 -1      3814 2.32607E-01
 -1      3815 1.11634E+00
 -1      3816 1.35427E+00
 -1      3817 4.38445E-01
 -1      3818 5.21546E-01
 -1      3819 3.86098E-01
 -1      3820 2.17291E+00
 -1      3821 4.68585E+00
 -1      3822 3.56248E+00
 -1      3823 6.85046E-01
 -1      3824 5.55444E-01
 -1      3825 7.64408E-01
 -1      3826 6.21807E+00
 -1      3827 2.37290E+00
 -1      3828 2.29041E+00
 -1      3829 2.32607E-01
 -1      3830 1.94153E-01
 -1      3831 2.14086E-01
 -1      3832 2.56174E-01
 -1      3833 2.24175E+00
 -1      3834 1.95099E-01
 -1      3835 9.69504E-03
 -1      3836 1.73896E-01
 -1      3837 1.75076E-01
 -1      3838 2.05972E-01
 -1      3839 6.03864E+00
 -1      3840 5.75224E+00
 -1      3841 5.88507E+00
 -1      3842 1.86560E+00
 -1      3843 5.15543E+00
 -1      3844 5.15543E+00
 -1      3845 1.06037E-02
 -1      3846 1.39071E-02
 -1      3847 8.91420E-03
 -1      3848 4.77385E+00
 -1      3849 2.46651E+00
 -1      3850 3.90869E+00
 -1      3851 2.83219E+00
 -1      3852 1.13576E+00
 -1      3853 9.21542E-01
 -1      3854 2.25396E+00
 -1      3855 4.39337E+00
 -1      3856 4.93863E+00
 -1      3857 2.87301E-01
 -1      3858 1.66612E+00
 -1      3859 1.36726E+00
 -1      3860 1.16097E+00
 -1      3861 1.92792E+00
 -1      3862 5.71227E+00
 -1      3863 5.71227E+00
 -1      3864 4.59302E+00
 -1      3865 1.39071E-02
 -1      3866 1.54134E-02
 -1      3867 1.39071E-02
 -1      3868 5.29550E+00
 -1      3869 4.38172E+00
 -1      3870 3.47647E+00
 -1      3871 2.16900E-01
 -1      3872 5.45491E+00
 -1      3873 2.19655E-01
 -1      3874 8.88248E-03
 -1      3875 1.04035E-02
 -1      3876 9.71734E-01
 -1      3877 9.36675E-01
 -1      3878 8.10964E-01
 -1      3879 1.13444E-02
 -1      3880 5.12038E-01
 -1      3881 2.22591E-01
 -1      3882 2.23605E-01
 -1      3883 2.18136E-01
 -1      3884 1.57037E+00
 -1      3885 1.91945E+00
 -1      3886 1.29738E+00
 -1      3887 5.16273E-01
 -1      3888 5.95705E-01
 -1      3889 7.10145E-01
 -1      3890 2.42524E-01
 -1      3891 2.20746E-01
 -1      3892 2.46905E-01
 -1      3893 2.23605E-01
 -1      3894 3.68774E-01
 -1      3895 3.18800E-01
 -1      3896 4.49564E+00
 -1      3897 2.41682E-01
 -1      3898 2.15232E-01
 -1      3899 2.67659E-01
 -1      3900 2.56116E-01
 -1      3901 3.14241E-01
 -1      3902 2.80672E-01
 -1      3903 1.44936E-01
 -1      3904 1.82955E-01
 -1      3905 1.74290E-01
 -1      3906 1.86560E+00
 -1      3907 6.98449E-03
 -1      3908 8.88248E-03
 -1      3909 8.88248E-03
 -1      3910 1.05190E-02
 -1      3911 2.14969E+00
 -1      3912 3.18800E-01
 -1      3913 3.28676E-01
 -1      3914 4.75092E-02
 -1      3915 5.76746E-02
 -1      3916 3.44500E-01
 -1      3917 3.87213E-01
 -1      3918 4.69297E-01
 -1      3919 5.48551E-01
 -1      3920 4.83785E-01
 -1      3921 6.43714E-01
 -1      3922 7.37601E-01
 -1      3923 6.61032E-01
 -1      3924 9.08812E-01
 -1      3925 1.01402E+00
 -1      3926 9.27407E-01
 -1      3927 1.16286E+00
 -1      3928 1.33086E+00
 -1      3929 1.24746E+00
 -1      3930 1.64429E+00
 -1      3931 2.09003E+00
 -1      3932 1.70974E+00
 -1      3933 3.75448E-01
 -1      3934 3.75448E-01
 -1      3935 3.61014E-01
 -1      3936 7.97904E-01
 -1      3937 7.89973E-01
 -1      3938 6.40770E-01
 -1      3939 2.25048E+00
 -1      3940 2.08350E+00
 -1      3941 1.39863E+00
 -1      3942 1.23417E+00
 -1      3943 2.22076E+00
 -1      3944 1.00420E+00
 -1      3945 9.13880E-01
 -1      3946 1.30593E+00
 -1      3947 7.51680E-01
 -1      3948 6.61658E-01
 -1      3949 9.13764E-01
 -1      3950 5.76749E-01
 -1      3951 5.00296E-01
 -1      3952 6.66656E-01
 -1      3953 4.13676E-01
 -1      3954 3.67320E-01
 -1      3955 4.95127E-01
 -1      3956 3.26133E-01
 -1      3957 2.91319E-01
 -1      3958 3.67320E-01
 -1      3959 2.56504E-01
 -1      3960 2.32829E-01
 -1      3961 2.91319E-01
 -1      3962 2.03794E-01
 -1      3963 1.82649E-01
 -1      3964 2.27469E-01
 -1      3965 1.58402E-01
 -1      3966 1.39745E-01
 -1      3967 1.74187E-01
 -1      3968 1.20555E-01
 -1      3969 1.04874E-01
 -1      3970 1.30749E-01
 -1      3971 8.99917E-02
 -1      3972 7.72554E-02
 -1      3973 9.66775E-02
 -1      3974 6.58308E-02
 -1      3975 5.57517E-02
 -1      3976 7.03710E-02
 -1      3977 4.70982E-02
 -1      3978 3.93061E-02
 -1      3979 5.02928E-02
 -1      3980 3.28482E-02
 -1      3981 2.69592E-02
 -1      3982 3.51812E-02
 -1      3983 2.35433E-02
 -1      3984 1.94447E-02
 -1      3985 2.53074E-02
 -1      3986 1.47250E-02
 -1      3987 1.17787E-02
 -1      3988 1.71718E-02
 -1      3989 2.76540E+00
 -1      3990 9.47274E-02
 -1      3991 1.13375E-01
 -1      3992 3.28448E-02
 -1      3993 3.98781E-02
 -1      3994 4.27683E-02
 -1      3995 2.21996E-02
 -1      3996 2.73133E-02
 -1      3997 2.96058E-02
 -1      3998 1.62475E-02
 -1      3999 1.87032E-02
 -1      4000 2.05779E-02
 -1      4001 1.62475E-02
 -1      4002 2.69225E-01
 -1      4003 2.88301E-01
 -1      4004 9.17561E-03
 -1      4005 4.58627E-01
 -1      4006 4.18529E-01
 -1      4007 4.65301E-01
 -1      4008 5.61793E-01
 -1      4009 1.29988E-01
 -1      4010 1.54716E-01
 -1      4011 1.13291E-01
 -1      4012 1.75487E-01
 -1      4013 2.07984E-01
 -1      4014 1.50675E-01
 -1      4015 3.45274E+00
 -1      4016 2.56033E+00
 -1      4017 2.28667E+00
 -1      4018 6.77584E-02
 -1      4019 8.16719E-02
 -1      4020 8.36227E-02
 -1      4021 3.63684E+00
 -1      4022 4.09389E+00
 -1      4023 4.09389E+00
 -1      4024 3.00615E+00
 -1      4025 4.04257E+00
 -1      4026 2.60018E+00
 -1      4027 2.88301E-01
 -1      4028 3.19427E-01
 -1      4029 3.51554E-01
 -1      4030 4.13995E+00
 -1      4031 2.67803E+00
 -1      4032 3.39274E+00
 -1      4033 3.11216E+00
 -1      4034 2.36840E+00
 -1      4035 1.03376E-02
 -1      4036 1.13941E-02
 -1      4037 1.29004E-02
 -1      4038 1.04532E-02
 -1      4039 1.83506E-01
 -1      4040 1.97784E-01
 -1      4041 2.68081E-01
 -1      4042 2.35619E-01
 -1      4043 2.78399E-01
 -1      4044 1.99081E-01
 -1      4045 4.43222E+00
 -1      4046 3.75116E+00
 -1      4047 2.26128E-01
 -1      4048 1.96123E-01
 -1      4049 2.78452E-01
 -1      4050 4.43222E+00
 -1      4051 5.24236E+00
 -1      4052 4.29592E+00
 -1      4053 3.21785E-01
 -1      4054 3.77801E-01
 -1      4055 2.70102E-01
 -1      4056 2.30154E+00
 -1      4057 2.52256E+00
 -1      4058 3.05480E+00
 -1      4059 2.88687E+00
 -1      4060 2.24418E+00
 -1      4061 6.04833E-02
 -1      4062 4.01576E-01
 -1      4063 3.40369E-01
 -1      4064 3.08643E-01
 -1      4065 2.21486E+00
 -1      4066 1.88555E+00
 -1      4067 8.43964E-01
 -1      4068 7.12395E-01
 -1      4069 3.29521E+00
 -1      4070 3.63684E+00
 -1      4071 3.18088E+00
 -1      4072 2.54070E+00
 -1      4073 4.13995E+00
 -1      4074 1.43290E+00
 -1      4075 1.20140E+00
 -1      4076 1.11589E+00
 -1      4077 4.33423E+00
 -1      4078 3.31154E+00
 -1      4079 1.08122E-02
 -1      4080 5.87358E-01
 -1      4081 6.91251E-01
 -1      4082 3.76627E-01
 -1      4083 8.18721E-01
 -1      4084 9.63325E-01
 -1      4085 1.04946E+00
 -1      4086 1.26556E+00
 -1      4087 9.31502E-01
 -1      4088 4.39061E-01
 -1      4089 5.13220E-01
 -1      4090 3.74748E-01
 -1      4091 2.20853E-01
 -1      4092 1.82282E-01
 -1      4093 3.45118E+00
 -1      4094 1.14856E-02
 -1      4095 1.12139E-02
 -1      4096 1.11480E-02
 -1      4097 2.46905E-01
 -1      4098 2.26128E-01
 -1      4099 4.12312E+00
 -1      4100 3.26104E+00
 -1      4101 1.63941E-02
 -1      4102 1.63941E-02
 -1      4103 1.70889E-02
 -1      4104 1.73606E-02
 -1      4105 2.63513E+00
 -1      4106 1.95026E+00
 -1      4107 7.90956E-01
 -1      4108 8.86119E-01
 -1      4109 9.20132E-01
 -1      4110 1.09134E+00
 -1      4111 1.05006E+00
 -1      4112 1.30241E+00
 -1      4113 1.45125E+00
 -1      4114 1.29513E+00
 -1      4115 1.86519E+00
 -1      4116 2.17862E+00
 -1      4117 2.39964E+00
 -1      4118 1.92014E+00
 -1      4119 1.02654E-01
 -1      4120 1.19267E-01
 -1      4121 2.95735E-02
 -1      4122 3.51049E-02
 -1      4123 7.12395E-01
 -1      4124 6.66335E-01
 -1      4125 5.87358E-01
 -1      4126 3.55720E+00
 -1      4127 3.01194E+00
 -1      4128 3.05104E+00
 -1      4129 1.76710E+00
 -1      4130 1.53713E+00
 -1      4131 2.18146E+00
 -1      4132 1.23134E+00
 -1      4133 1.06914E+00
 -1      4134 1.69250E+00
 -1      4135 7.42052E-01
 -1      4136 6.57143E-01
 -1      4137 1.05962E+00
 -1      4138 6.57143E-01
 -1      4139 5.70523E-01
 -1      4140 7.32539E-01
 -1      4141 4.01342E-01
 -1      4142 3.60155E-01
 -1      4143 5.63358E-01
 -1      4144 3.12293E-01
 -1      4145 2.77478E-01
 -1      4146 3.46315E-01
 -1      4147 2.44890E-01
 -1      4148 2.15855E-01
 -1      4149 2.65865E-01
 -1      4150 1.80974E-01
 -1      4151 1.56727E-01
 -1      4152 1.98395E-01
 -1      4153 1.34076E-01
 -1      4154 1.14886E-01
 -1      4155 1.40863E-01
 -1      4156 1.01392E-01
 -1      4157 8.65099E-02
 -1      4158 1.04718E-01
 -1      4159 7.53117E-02
 -1      4160 6.38871E-02
 -1      4161 8.00260E-02
 -1      4162 5.48392E-02
 -1      4163 4.61856E-02
 -1      4164 5.97799E-02
 -1      4165 3.90222E-02
 -1      4166 3.25643E-02
 -1      4167 4.35686E-02
 -1      4168 2.69542E-02
 -1      4169 2.35383E-02
 -1      4170 3.07952E-02
 -1      4171 2.20803E-02
 -1      4172 7.88350E-02
 -1      4173 9.18906E-02
 -1      4174 9.78663E-02
 -1      4175 3.17508E+00
 -1      4176 3.62815E+00
 -1      4177 3.92213E+00
 -1      4178 4.25631E-02
 -1      4179 5.01942E-02
 -1      4180 4.25308E-02
 -1      4181 1.36662E-01
 -1      4182 1.57433E-01
 -1      4183 1.26024E-01
 -1      4184 2.93954E-01
 -1      4185 3.07739E+00
 -1      4186 3.76627E-01
 -1      4187 4.01701E-01
 -1      4188 2.46905E-01
 -1      4189 1.65947E+00
 -1      4190 2.74616E+00
 -1      4191 2.23436E+00
 -1      4192 1.41154E+00
 -1      4193 5.51757E-01
 -1      4194 6.33841E-01
 -1      4195 8.58928E-01
 -1      4196 1.17820E-02
 -1      4197 1.42950E-02
 -1      4198 1.51291E-02
 -1      4199 1.25427E-02
 -1      4200 3.15825E+00
 -1      4201 2.28667E+00
 -1      4202 1.82333E-01
 -1      4203 2.09968E-01
 -1      4204 1.68319E-01
 -1      4205 5.95837E-01
 -1      4206 6.96656E-01
 -1      4207 7.23306E-01
 -1      4208 5.18624E-01
 -1      4209 2.03060E-01
 -1      4210 2.44313E-01
 -1      4211 2.87699E-01
 -1      4212 2.27564E-01
 -1      4213 5.44278E-01
 -1      4214 3.66242E-01
 -1      4215 5.88060E-02
 -1      4216 6.88898E-02
 -1      4217 7.71577E-02
 -1      4218 5.86007E-02
 -1      4219 5.00462E-01
 -1      4220 4.79817E-01
 -1      4221 6.22519E-01
 -1      4222 6.66890E-01
 -1      4223 7.88955E-01
 -1      4224 8.56717E-01
 -1      4225 9.13133E-01
 -1      4226 9.99265E-01
 -1      4227 1.67116E-02
 -1      4228 2.02080E-02
 -1      4229 2.57072E-02
 -1      4230 1.47592E-02
 -1      4231 5.51757E-01
 -1      4232 2.32710E+00
 -1      4233 2.51395E+00
 -1      4234 3.00892E+00
 -1      4235 7.92166E-01
 -1      4236 7.46106E-01
 -1      4237 7.02290E-01
 -1      4238 2.70339E+00
 -1      4239 2.80138E+00
 -1      4240 3.09631E-01
 -1      4241 3.35421E-01
 -1      4242 3.96680E-01
 -1      4243 2.80689E+00
 -1      4244 3.66242E-01
 -1      4245 1.70889E-02
 -1      4246 1.77229E-02
 -1      4247 1.93054E-02
 -1      4248 2.68706E+00
 -1      4249 2.37271E-02
 -1      4250 2.80689E+00
 -1      4251 2.36462E+00
 -1      4252 2.82130E+00
 -1      4253 2.77381E+00
 -1      4254 1.27870E+00
 -1      4255 9.21262E-01
 -1      4256 9.54973E-01
 -1      4257 2.06985E+00
 -1      4258 2.50959E+00
 -1      4259 1.99943E+00
 -1      4260 1.65591E+00
 -1      4261 2.22691E-02
 -1      4262 2.37271E-02
 -1      4263 1.83328E+00
 -1      4264 2.32710E+00
 -1      4265 2.18146E+00
 -1      4266 1.35368E+00
 -1      4267 1.02659E+00
 -1      4268 7.32539E-01
 -1      4269 7.32539E-01
 -1      4270 3.75764E-01
 -1      4271 3.27903E-01
 -1      4272 2.80181E-01
 -1      4273 2.47593E-01
 -1      4274 2.13248E-01
 -1      4275 1.78367E-01
 -1      4276 1.53467E-01
 -1      4277 1.30816E-01
 -1      4278 1.13421E-01
 -1      4279 9.99268E-02
 -1      4280 8.91635E-02
 -1      4281 7.79654E-02
 -1      4282 6.80202E-02
 -1      4283 5.89722E-02
 -1      4284 5.03605E-02
 -1      4285 4.31971E-02
 -1      4286 3.57390E-02
 -1      4287 3.01289E-02
 -1      4288 2.23436E+00
 -1      4289 2.08503E+00
 -1      4290 1.80544E+00
 -1      4291 1.47333E+00
 -1      4292 7.63845E-01
 -1      4293 9.20960E-01
 -1      4294 3.91316E-01
 -1      4295 1.05006E+00
 -1      4296 4.94916E-01
 -1      4297 5.77533E-01
 -1      4298 4.55589E-01
 -1      4299 1.08407E+00
 -1      4300 4.90202E-01
 -1      4301 6.40258E-01
 -1      4302 1.90187E+00
 -1      4303 6.43182E-01
 -1      4304 1.02659E+00
 -1      4305 1.08407E+00
 -1      4306 1.29513E+00
 -1      4307 1.59608E+00
 -1      4308 1.56304E+00
 -1      4309 6.43182E-01
 -1      4310 6.43182E-01
 -1      4311 4.74000E-01
 -1      4312 2.86709E-02
 -1      4313 3.27903E-01
 -1      4314 1.44485E+00
 -1      4315 1.27870E+00
 -1      4316 4.55589E-01
 -1      4317 5.53824E-01
 -1      4318 1.63948E+00
 -1      4319 9.68160E-01
 -1      4320 9.86529E-01
 -1      4321 4.55589E-01
 -1      4322 1.15077E+00
 -1      4323 1.08407E+00
 -1      4324 1.39317E+00
 -1      4325 1.38043E+00
 -1      4326 3.57353E-01
 -1      4327 1.27870E+00
 -1      4328 1.38043E+00
 -3
 9999
