    1C
    1UUSER                                                              
    1UDATE              27.october.2022                                 
    1UTIME              00:11:47                                        
    1UHOST                                                              
    1UPGM               CalculiX                                        
    1UVERSION           Version 2.17                             
    1UCOMPILETIME       Thu Jul 23 21:43:50 CEST 2020                    
    1UDIR                                                               
    1UDBN                                                               
    1UMAT    1SOLIDMATERIAL                                             
    2C                          4387                                     1
 -1         1 6.45223E+01 4.54538E+01 0.00000E+00
 -1         2 7.21047E+01 3.84780E+01 0.00000E+00
 -1         3 1.50000E+02 0.00000E+00 0.00000E+00
 -1         4 1.50000E+02 5.00000E+01 0.00000E+00
 -1         5 0.00000E+00 0.00000E+00 0.00000E+00
 -1         6 0.00000E+00 5.00000E+01 0.00000E+00
 -1         7 0.00000E+00 4.70500E+01 0.00000E+00
 -1         8 0.00000E+00 4.41000E+01 0.00000E+00
 -1         9 0.00000E+00 4.11500E+01 0.00000E+00
 -1        10 0.00000E+00 3.82000E+01 0.00000E+00
 -1        11 0.00000E+00 3.52500E+01 0.00000E+00
 -1        12 0.00000E+00 3.23500E+01 0.00000E+00
 -1        13 0.00000E+00 2.94000E+01 0.00000E+00
 -1        14 0.00000E+00 2.64500E+01 0.00000E+00
 -1        15 0.00000E+00 2.35000E+01 0.00000E+00
 -1        16 0.00000E+00 2.05500E+01 0.00000E+00
 -1        17 0.00000E+00 1.76000E+01 0.00000E+00
 -1        18 0.00000E+00 1.47000E+01 0.00000E+00
 -1        19 0.00000E+00 1.17500E+01 0.00000E+00
 -1        20 0.00000E+00 8.80000E+00 0.00000E+00
 -1        21 0.00000E+00 5.85000E+00 0.00000E+00
 -1        22 0.00000E+00 2.90000E+00 0.00000E+00
 -1        23 3.00000E+00 5.00000E+01 0.00000E+00
 -1        24 6.00000E+00 5.00000E+01 0.00000E+00
 -1        25 9.00000E+00 5.00000E+01 0.00000E+00
 -1        26 1.20000E+01 5.00000E+01 0.00000E+00
 -1        27 1.50000E+01 5.00000E+01 0.00000E+00
 -1        28 1.80000E+01 5.00000E+01 0.00000E+00
 -1        29 2.10000E+01 5.00000E+01 0.00000E+00
 -1        30 2.38500E+01 5.00000E+01 0.00000E+00
 -1        31 2.68500E+01 5.00000E+01 0.00000E+00
 -1        32 2.98500E+01 5.00000E+01 0.00000E+00
 -1        33 3.28500E+01 5.00000E+01 0.00000E+00
 -1        34 3.58500E+01 5.00000E+01 0.00000E+00
 -1        35 3.88500E+01 5.00000E+01 0.00000E+00
 -1        36 4.18500E+01 5.00000E+01 0.00000E+00
 -1        37 4.48500E+01 5.00000E+01 0.00000E+00
 -1        38 4.77000E+01 5.00000E+01 0.00000E+00
 -1        39 5.07000E+01 5.00000E+01 0.00000E+00
 -1        40 5.37000E+01 5.00000E+01 0.00000E+00
 -1        41 5.65500E+01 5.00000E+01 0.00000E+00
 -1        42 5.94000E+01 5.00000E+01 0.00000E+00
 -1        43 6.18000E+01 5.00000E+01 0.00000E+00
 -1        44 6.40500E+01 5.00000E+01 0.00000E+00
 -1        45 6.61500E+01 5.00000E+01 0.00000E+00
 -1        46 6.82500E+01 5.00000E+01 0.00000E+00
 -1        47 7.05000E+01 5.00000E+01 0.00000E+00
 -1        48 7.30500E+01 5.00000E+01 0.00000E+00
 -1        49 7.56000E+01 5.00000E+01 0.00000E+00
 -1        50 7.86000E+01 5.00000E+01 0.00000E+00
 -1        51 8.14500E+01 5.00000E+01 0.00000E+00
 -1        52 8.44500E+01 5.00000E+01 0.00000E+00
 -1        53 8.74500E+01 5.00000E+01 0.00000E+00
 -1        54 9.04500E+01 5.00000E+01 0.00000E+00
 -1        55 9.34500E+01 5.00000E+01 0.00000E+00
 -1        56 9.64500E+01 5.00000E+01 0.00000E+00
 -1        57 9.94500E+01 5.00000E+01 0.00000E+00
 -1        58 1.02450E+02 5.00000E+01 0.00000E+00
 -1        59 1.05300E+02 5.00000E+01 0.00000E+00
 -1        60 1.08300E+02 5.00000E+01 0.00000E+00
 -1        61 1.11300E+02 5.00000E+01 0.00000E+00
 -1        62 1.14300E+02 5.00000E+01 0.00000E+00
 -1        63 1.17300E+02 5.00000E+01 0.00000E+00
 -1        64 1.20300E+02 5.00000E+01 0.00000E+00
 -1        65 1.23300E+02 5.00000E+01 0.00000E+00
 -1        66 1.26300E+02 5.00000E+01 0.00000E+00
 -1        67 1.29150E+02 5.00000E+01 0.00000E+00
 -1        68 1.32150E+02 5.00000E+01 0.00000E+00
 -1        69 1.35150E+02 5.00000E+01 0.00000E+00
 -1        70 1.38150E+02 5.00000E+01 0.00000E+00
 -1        71 1.41150E+02 5.00000E+01 0.00000E+00
 -1        72 1.44150E+02 5.00000E+01 0.00000E+00
 -1        73 1.47150E+02 5.00000E+01 0.00000E+00
 -1        74 3.15000E+00 0.00000E+00 0.00000E+00
 -1        75 6.15000E+00 0.00000E+00 0.00000E+00
 -1        76 9.15000E+00 0.00000E+00 0.00000E+00
 -1        77 1.21500E+01 0.00000E+00 0.00000E+00
 -1        78 1.51500E+01 0.00000E+00 0.00000E+00
 -1        79 1.81500E+01 0.00000E+00 0.00000E+00
 -1        80 2.11500E+01 0.00000E+00 0.00000E+00
 -1        81 2.41500E+01 0.00000E+00 0.00000E+00
 -1        82 2.71500E+01 0.00000E+00 0.00000E+00
 -1        83 3.01500E+01 0.00000E+00 0.00000E+00
 -1        84 3.31500E+01 0.00000E+00 0.00000E+00
 -1        85 3.61500E+01 0.00000E+00 0.00000E+00
 -1        86 3.91500E+01 0.00000E+00 0.00000E+00
 -1        87 4.21500E+01 0.00000E+00 0.00000E+00
 -1        88 4.51500E+01 0.00000E+00 0.00000E+00
 -1        89 4.81500E+01 0.00000E+00 0.00000E+00
 -1        90 5.11500E+01 0.00000E+00 0.00000E+00
 -1        91 5.41500E+01 0.00000E+00 0.00000E+00
 -1        92 5.71500E+01 0.00000E+00 0.00000E+00
 -1        93 6.01500E+01 0.00000E+00 0.00000E+00
 -1        94 6.31500E+01 0.00000E+00 0.00000E+00
 -1        95 6.61500E+01 0.00000E+00 0.00000E+00
 -1        96 6.91500E+01 0.00000E+00 0.00000E+00
 -1        97 7.21500E+01 0.00000E+00 0.00000E+00
 -1        98 7.51500E+01 0.00000E+00 0.00000E+00
 -1        99 7.81500E+01 0.00000E+00 0.00000E+00
 -1       100 8.11500E+01 0.00000E+00 0.00000E+00
 -1       101 8.41500E+01 0.00000E+00 0.00000E+00
 -1       102 8.71500E+01 0.00000E+00 0.00000E+00
 -1       103 9.01500E+01 0.00000E+00 0.00000E+00
 -1       104 9.31500E+01 0.00000E+00 0.00000E+00
 -1       105 9.61500E+01 0.00000E+00 0.00000E+00
 -1       106 9.91500E+01 0.00000E+00 0.00000E+00
 -1       107 1.02150E+02 0.00000E+00 0.00000E+00
 -1       108 1.05150E+02 0.00000E+00 0.00000E+00
 -1       109 1.08150E+02 0.00000E+00 0.00000E+00
 -1       110 1.11150E+02 0.00000E+00 0.00000E+00
 -1       111 1.14150E+02 0.00000E+00 0.00000E+00
 -1       112 1.17150E+02 0.00000E+00 0.00000E+00
 -1       113 1.20150E+02 0.00000E+00 0.00000E+00
 -1       114 1.23150E+02 0.00000E+00 0.00000E+00
 -1       115 1.26150E+02 0.00000E+00 0.00000E+00
 -1       116 1.29150E+02 0.00000E+00 0.00000E+00
 -1       117 1.32150E+02 0.00000E+00 0.00000E+00
 -1       118 1.35150E+02 0.00000E+00 0.00000E+00
 -1       119 1.38150E+02 0.00000E+00 0.00000E+00
 -1       120 1.41150E+02 0.00000E+00 0.00000E+00
 -1       121 1.44150E+02 0.00000E+00 0.00000E+00
 -1       122 1.47150E+02 0.00000E+00 0.00000E+00
 -1       123 1.50000E+02 2.95000E+00 0.00000E+00
 -1       124 1.50000E+02 5.90000E+00 0.00000E+00
 -1       125 1.50000E+02 8.85000E+00 0.00000E+00
 -1       126 1.50000E+02 1.18000E+01 0.00000E+00
 -1       127 1.50000E+02 1.47500E+01 0.00000E+00
 -1       128 1.50000E+02 1.76500E+01 0.00000E+00
 -1       129 1.50000E+02 2.06000E+01 0.00000E+00
 -1       130 1.50000E+02 2.35500E+01 0.00000E+00
 -1       131 1.50000E+02 2.65000E+01 0.00000E+00
 -1       132 1.50000E+02 2.94500E+01 0.00000E+00
 -1       133 1.50000E+02 3.24000E+01 0.00000E+00
 -1       134 1.50000E+02 3.53000E+01 0.00000E+00
 -1       135 1.50000E+02 3.82500E+01 0.00000E+00
 -1       136 1.50000E+02 4.12000E+01 0.00000E+00
 -1       137 1.50000E+02 4.41500E+01 0.00000E+00
 -1       138 1.50000E+02 4.71000E+01 0.00000E+00
 -1       139 7.19347E+01 3.69447E+01 0.00000E+00
 -1       140 7.14419E+01 3.55046E+01 0.00000E+00
 -1       141 7.06992E+01 3.42707E+01 0.00000E+00
 -1       142 6.96256E+01 3.31337E+01 0.00000E+00
 -1       143 6.83717E+01 3.22872E+01 0.00000E+00
 -1       144 6.67428E+01 3.16724E+01 0.00000E+00
 -1       145 6.52747E+01 3.14801E+01 0.00000E+00
 -1       146 6.36400E+01 3.16330E+01 0.00000E+00
 -1       147 6.21484E+01 3.21330E+01 0.00000E+00
 -1       148 6.08879E+01 3.28908E+01 0.00000E+00
 -1       149 5.96948E+01 3.40359E+01 0.00000E+00
 -1       150 5.88658E+01 3.53037E+01 0.00000E+00
 -1       151 5.83544E+01 3.66252E+01 0.00000E+00
 -1       152 5.81136E+01 3.81259E+01 0.00000E+00
 -1       153 5.81964E+01 3.96072E+01 0.00000E+00
 -1       154 5.85883E+01 4.10347E+01 0.00000E+00
 -1       155 5.92875E+01 4.23715E+01 0.00000E+00
 -1       156 6.02302E+01 4.35019E+01 0.00000E+00
 -1       157 6.15423E+01 4.45037E+01 0.00000E+00
 -1       158 6.28644E+01 4.51099E+01 0.00000E+00
 -1       159 6.59516E+01 4.54266E+01 0.00000E+00
 -1       160 6.74035E+01 4.50898E+01 0.00000E+00
 -1       161 6.86485E+01 4.45148E+01 0.00000E+00
 -1       162 6.98746E+01 4.36013E+01 0.00000E+00
 -1       163 7.07821E+01 4.25728E+01 0.00000E+00
 -1       164 7.15305E+01 4.12547E+01 0.00000E+00
 -1       165 7.19534E+01 3.99256E+01 0.00000E+00
 -1       166 2.59800E+00 4.55750E+01 0.00000E+00
 -1       167 2.59800E+00 4.26250E+01 0.00000E+00
 -1       168 2.59800E+00 3.96750E+01 0.00000E+00
 -1       169 2.59800E+00 3.67250E+01 0.00000E+00
 -1       170 2.59800E+00 3.38250E+01 0.00000E+00
 -1       171 2.59800E+00 3.08750E+01 0.00000E+00
 -1       172 2.59800E+00 2.79250E+01 0.00000E+00
 -1       173 2.59800E+00 2.49750E+01 0.00000E+00
 -1       174 2.59800E+00 2.20250E+01 0.00000E+00
 -1       175 2.59800E+00 1.90750E+01 0.00000E+00
 -1       176 2.59800E+00 1.61750E+01 0.00000E+00
 -1       177 2.59800E+00 1.32250E+01 0.00000E+00
 -1       178 2.59800E+00 1.02750E+01 0.00000E+00
 -1       179 2.59800E+00 7.32500E+00 0.00000E+00
 -1       180 2.59800E+00 4.37500E+00 0.00000E+00
 -1       181 2.87400E+00 2.18750E+00 0.00000E+00
 -1       182 4.50000E+00 4.74020E+01 0.00000E+00
 -1       183 7.50000E+00 4.74020E+01 0.00000E+00
 -1       184 1.05000E+01 4.74020E+01 0.00000E+00
 -1       185 1.35000E+01 4.74020E+01 0.00000E+00
 -1       186 1.65000E+01 4.74020E+01 0.00000E+00
 -1       187 1.95000E+01 4.74020E+01 0.00000E+00
 -1       188 2.23500E+01 4.74020E+01 0.00000E+00
 -1       189 2.53500E+01 4.74020E+01 0.00000E+00
 -1       190 2.83500E+01 4.74020E+01 0.00000E+00
 -1       191 3.13500E+01 4.74020E+01 0.00000E+00
 -1       192 3.43500E+01 4.74020E+01 0.00000E+00
 -1       193 3.73500E+01 4.74020E+01 0.00000E+00
 -1       194 4.03500E+01 4.74020E+01 0.00000E+00
 -1       195 4.33500E+01 4.74020E+01 0.00000E+00
 -1       196 4.62000E+01 4.74020E+01 0.00000E+00
 -1       197 4.92000E+01 4.74020E+01 0.00000E+00
 -1       198 5.22000E+01 4.74020E+01 0.00000E+00
 -1       199 5.50500E+01 4.74020E+01 0.00000E+00
 -1       200 5.79000E+01 4.74020E+01 0.00000E+00
 -1       201 6.03000E+01 4.74020E+01 0.00000E+00
 -1       202 6.51000E+01 4.81173E+01 0.00000E+00
 -1       203 6.72000E+01 4.81173E+01 0.00000E+00
 -1       204 6.94500E+01 4.81173E+01 0.00000E+00
 -1       205 7.20000E+01 4.81173E+01 0.00000E+00
 -1       206 7.45500E+01 4.81173E+01 0.00000E+00
 -1       207 7.75500E+01 4.81173E+01 0.00000E+00
 -1       208 8.04000E+01 4.81173E+01 0.00000E+00
 -1       209 8.34000E+01 4.81173E+01 0.00000E+00
 -1       210 8.64000E+01 4.81173E+01 0.00000E+00
 -1       211 8.94000E+01 4.81173E+01 0.00000E+00
 -1       212 9.24000E+01 4.81173E+01 0.00000E+00
 -1       213 9.54000E+01 4.81173E+01 0.00000E+00
 -1       214 9.84000E+01 4.81173E+01 0.00000E+00
 -1       215 1.01400E+02 4.81173E+01 0.00000E+00
 -1       216 1.04250E+02 4.81173E+01 0.00000E+00
 -1       217 1.07250E+02 4.81173E+01 0.00000E+00
 -1       218 1.10250E+02 4.81173E+01 0.00000E+00
 -1       219 1.13250E+02 4.81173E+01 0.00000E+00
 -1       220 1.16250E+02 4.81173E+01 0.00000E+00
 -1       221 1.19250E+02 4.81173E+01 0.00000E+00
 -1       222 1.22250E+02 4.81173E+01 0.00000E+00
 -1       223 1.25250E+02 4.81173E+01 0.00000E+00
 -1       224 1.28100E+02 4.81173E+01 0.00000E+00
 -1       225 1.31100E+02 4.81173E+01 0.00000E+00
 -1       226 1.34100E+02 4.81173E+01 0.00000E+00
 -1       227 1.37100E+02 4.81173E+01 0.00000E+00
 -1       228 1.40100E+02 4.81173E+01 0.00000E+00
 -1       229 1.43100E+02 4.81173E+01 0.00000E+00
 -1       230 1.46100E+02 4.81173E+01 0.00000E+00
 -1       231 1.48050E+02 4.76087E+01 0.00000E+00
 -1       232 5.87400E+00 2.18750E+00 0.00000E+00
 -1       233 8.87400E+00 2.18750E+00 0.00000E+00
 -1       234 1.18740E+01 2.18750E+00 0.00000E+00
 -1       235 1.48740E+01 2.18750E+00 0.00000E+00
 -1       236 1.78740E+01 2.18750E+00 0.00000E+00
 -1       237 2.08740E+01 2.18750E+00 0.00000E+00
 -1       238 2.38740E+01 2.18750E+00 0.00000E+00
 -1       239 2.68740E+01 2.18750E+00 0.00000E+00
 -1       240 2.98740E+01 2.18750E+00 0.00000E+00
 -1       241 3.28740E+01 2.18750E+00 0.00000E+00
 -1       242 3.58740E+01 2.18750E+00 0.00000E+00
 -1       243 3.88740E+01 2.18750E+00 0.00000E+00
 -1       244 4.18740E+01 2.18750E+00 0.00000E+00
 -1       245 4.48740E+01 2.18750E+00 0.00000E+00
 -1       246 4.78740E+01 2.18750E+00 0.00000E+00
 -1       247 5.08740E+01 2.18750E+00 0.00000E+00
 -1       248 5.38740E+01 2.18750E+00 0.00000E+00
 -1       249 5.68740E+01 2.18750E+00 0.00000E+00
 -1       250 5.98740E+01 2.18750E+00 0.00000E+00
 -1       251 6.28740E+01 2.18750E+00 0.00000E+00
 -1       252 6.58740E+01 2.18750E+00 0.00000E+00
 -1       253 6.88740E+01 2.18750E+00 0.00000E+00
 -1       254 7.18740E+01 2.18750E+00 0.00000E+00
 -1       255 7.48740E+01 2.18750E+00 0.00000E+00
 -1       256 7.78740E+01 2.18750E+00 0.00000E+00
 -1       257 8.08740E+01 2.18750E+00 0.00000E+00
 -1       258 8.38740E+01 2.18750E+00 0.00000E+00
 -1       259 8.68740E+01 2.18750E+00 0.00000E+00
 -1       260 8.98740E+01 2.18750E+00 0.00000E+00
 -1       261 9.28740E+01 2.18750E+00 0.00000E+00
 -1       262 9.58740E+01 2.18750E+00 0.00000E+00
 -1       263 9.88740E+01 2.18750E+00 0.00000E+00
 -1       264 1.01874E+02 2.18750E+00 0.00000E+00
 -1       265 1.04874E+02 2.18750E+00 0.00000E+00
 -1       266 1.07874E+02 2.18750E+00 0.00000E+00
 -1       267 1.10874E+02 2.18750E+00 0.00000E+00
 -1       268 1.13874E+02 2.18750E+00 0.00000E+00
 -1       269 1.16874E+02 2.18750E+00 0.00000E+00
 -1       270 1.19874E+02 2.18750E+00 0.00000E+00
 -1       271 1.22874E+02 2.18750E+00 0.00000E+00
 -1       272 1.25874E+02 2.18750E+00 0.00000E+00
 -1       273 1.28874E+02 2.18750E+00 0.00000E+00
 -1       274 1.31874E+02 2.18750E+00 0.00000E+00
 -1       275 1.34874E+02 2.18750E+00 0.00000E+00
 -1       276 1.37874E+02 2.18750E+00 0.00000E+00
 -1       277 1.40874E+02 2.18750E+00 0.00000E+00
 -1       278 1.43874E+02 2.18750E+00 0.00000E+00
 -1       279 1.46874E+02 2.18750E+00 0.00000E+00
 -1       280 1.47402E+02 4.42500E+00 0.00000E+00
 -1       281 1.47402E+02 7.37500E+00 0.00000E+00
 -1       282 1.47402E+02 1.03250E+01 0.00000E+00
 -1       283 1.47402E+02 1.32750E+01 0.00000E+00
 -1       284 1.47402E+02 1.61750E+01 0.00000E+00
 -1       285 1.47402E+02 1.91250E+01 0.00000E+00
 -1       286 1.47402E+02 2.20750E+01 0.00000E+00
 -1       287 1.47402E+02 2.50250E+01 0.00000E+00
 -1       288 1.47402E+02 2.79750E+01 0.00000E+00
 -1       289 1.47402E+02 3.09250E+01 0.00000E+00
 -1       290 1.47402E+02 3.38250E+01 0.00000E+00
 -1       291 1.47402E+02 3.67750E+01 0.00000E+00
 -1       292 1.47402E+02 3.97250E+01 0.00000E+00
 -1       293 1.47402E+02 4.26750E+01 0.00000E+00
 -1       294 1.47726E+02 4.51418E+01 0.00000E+00
 -1       295 7.33913E+01 3.75593E+01 0.00000E+00
 -1       296 7.29939E+01 3.57778E+01 0.00000E+00
 -1       297 7.21093E+01 3.42625E+01 0.00000E+00
 -1       298 7.11658E+01 3.27548E+01 0.00000E+00
 -1       299 6.97239E+01 3.16362E+01 0.00000E+00
 -1       300 6.81629E+01 3.03751E+01 0.00000E+00
 -1       301 6.61662E+01 3.03741E+01 0.00000E+00
 -1       302 6.43288E+01 3.01826E+01 0.00000E+00
 -1       303 6.25089E+01 3.07334E+01 0.00000E+00
 -1       304 6.08935E+01 3.14728E+01 0.00000E+00
 -1       305 5.92197E+01 3.23469E+01 0.00000E+00
 -1       306 5.81955E+01 3.39605E+01 0.00000E+00
 -1       307 5.74795E+01 3.55269E+01 0.00000E+00
 -1       308 5.69542E+01 3.71702E+01 0.00000E+00
 -1       309 5.68608E+01 3.89388E+01 0.00000E+00
 -1       310 5.72232E+01 4.06419E+01 0.00000E+00
 -1       311 5.78635E+01 4.22649E+01 0.00000E+00
 -1       312 5.88278E+01 4.37132E+01 0.00000E+00
 -1       313 6.00488E+01 4.50996E+01 0.00000E+00
 -1       314 6.16981E+01 4.59089E+01 0.00000E+00
 -1       315 6.33961E+01 4.67151E+01 0.00000E+00
 -1       316 6.52616E+01 4.67361E+01 0.00000E+00
 -1       317 6.69894E+01 4.66025E+01 0.00000E+00
 -1       318 6.85344E+01 4.59030E+01 0.00000E+00
 -1       319 7.00859E+01 4.51647E+01 0.00000E+00
 -1       320 7.12375E+01 4.38892E+01 0.00000E+00
 -1       321 7.23564E+01 4.25951E+01 0.00000E+00
 -1       322 7.27793E+01 4.12660E+01 0.00000E+00
 -1       323 7.33183E+01 3.93366E+01 0.00000E+00
 -1       324 6.26804E+01 4.77596E+01 0.00000E+00
 -1       325 5.19600E+00 4.11500E+01 0.00000E+00
 -1       326 5.19600E+00 4.41000E+01 0.00000E+00
 -1       327 5.19600E+00 3.52750E+01 0.00000E+00
 -1       328 5.19600E+00 3.23250E+01 0.00000E+00
 -1       329 5.19600E+00 2.93750E+01 0.00000E+00
 -1       330 5.19600E+00 2.64250E+01 0.00000E+00
 -1       331 5.19600E+00 2.34750E+01 0.00000E+00
 -1       332 5.19600E+00 2.05250E+01 0.00000E+00
 -1       333 5.19600E+00 1.76250E+01 0.00000E+00
 -1       334 5.19600E+00 1.46750E+01 0.00000E+00
 -1       335 5.19600E+00 1.17250E+01 0.00000E+00
 -1       336 5.19600E+00 8.77500E+00 0.00000E+00
 -1       337 5.19600E+00 5.82500E+00 0.00000E+00
 -1       338 5.53500E+00 4.00625E+00 0.00000E+00
 -1       339 8.53500E+00 4.00625E+00 0.00000E+00
 -1       340 7.42972E+01 4.06500E+01 0.00000E+00
 -1       341 9.00000E+00 4.48040E+01 0.00000E+00
 -1       342 1.20000E+01 4.48040E+01 0.00000E+00
 -1       343 1.50000E+01 4.48040E+01 0.00000E+00
 -1       344 1.80000E+01 4.48040E+01 0.00000E+00
 -1       345 2.08500E+01 4.48040E+01 0.00000E+00
 -1       346 2.38500E+01 4.48040E+01 0.00000E+00
 -1       347 2.68500E+01 4.48040E+01 0.00000E+00
 -1       348 2.98500E+01 4.48040E+01 0.00000E+00
 -1       349 3.28500E+01 4.48040E+01 0.00000E+00
 -1       350 3.58500E+01 4.48040E+01 0.00000E+00
 -1       351 3.88500E+01 4.48040E+01 0.00000E+00
 -1       352 4.18500E+01 4.48040E+01 0.00000E+00
 -1       353 4.47000E+01 4.48040E+01 0.00000E+00
 -1       354 4.77000E+01 4.48040E+01 0.00000E+00
 -1       355 5.07000E+01 4.48040E+01 0.00000E+00
 -1       356 5.35500E+01 4.48040E+01 0.00000E+00
 -1       357 7.07250E+01 4.62346E+01 0.00000E+00
 -1       358 7.32750E+01 4.60671E+01 0.00000E+00
 -1       359 7.62750E+01 4.60671E+01 0.00000E+00
 -1       360 7.91250E+01 4.60671E+01 0.00000E+00
 -1       361 8.21250E+01 4.60671E+01 0.00000E+00
 -1       362 8.51250E+01 4.60671E+01 0.00000E+00
 -1       363 8.81250E+01 4.60671E+01 0.00000E+00
 -1       364 9.11250E+01 4.60671E+01 0.00000E+00
 -1       365 9.41250E+01 4.60671E+01 0.00000E+00
 -1       366 9.71250E+01 4.60671E+01 0.00000E+00
 -1       367 1.00125E+02 4.60671E+01 0.00000E+00
 -1       368 1.02975E+02 4.60671E+01 0.00000E+00
 -1       369 1.05975E+02 4.60671E+01 0.00000E+00
 -1       370 1.08975E+02 4.60671E+01 0.00000E+00
 -1       371 1.11975E+02 4.60671E+01 0.00000E+00
 -1       372 1.14975E+02 4.60671E+01 0.00000E+00
 -1       373 1.17975E+02 4.60671E+01 0.00000E+00
 -1       374 1.20975E+02 4.60671E+01 0.00000E+00
 -1       375 1.23975E+02 4.60671E+01 0.00000E+00
 -1       376 1.26825E+02 4.60671E+01 0.00000E+00
 -1       377 1.29825E+02 4.60671E+01 0.00000E+00
 -1       378 1.32825E+02 4.60671E+01 0.00000E+00
 -1       379 1.35825E+02 4.60671E+01 0.00000E+00
 -1       380 1.38825E+02 4.60671E+01 0.00000E+00
 -1       381 1.41825E+02 4.60671E+01 0.00000E+00
 -1       382 1.44825E+02 4.60671E+01 0.00000E+00
 -1       383 1.46275E+02 4.56045E+01 0.00000E+00
 -1       384 1.33740E+01 4.78550E+00 0.00000E+00
 -1       385 1.63740E+01 4.78550E+00 0.00000E+00
 -1       386 1.93740E+01 4.78550E+00 0.00000E+00
 -1       387 2.23740E+01 4.78550E+00 0.00000E+00
 -1       388 2.53740E+01 4.78550E+00 0.00000E+00
 -1       389 2.83740E+01 4.78550E+00 0.00000E+00
 -1       390 3.13740E+01 4.78550E+00 0.00000E+00
 -1       391 3.43740E+01 4.78550E+00 0.00000E+00
 -1       392 3.73740E+01 4.78550E+00 0.00000E+00
 -1       393 4.03740E+01 4.78550E+00 0.00000E+00
 -1       394 4.33740E+01 4.78550E+00 0.00000E+00
 -1       395 4.63740E+01 4.78550E+00 0.00000E+00
 -1       396 4.93740E+01 4.78550E+00 0.00000E+00
 -1       397 5.23740E+01 4.78550E+00 0.00000E+00
 -1       398 5.53740E+01 4.78550E+00 0.00000E+00
 -1       399 5.83740E+01 4.78550E+00 0.00000E+00
 -1       400 6.13740E+01 4.78550E+00 0.00000E+00
 -1       401 6.43740E+01 4.78550E+00 0.00000E+00
 -1       402 6.73740E+01 4.78550E+00 0.00000E+00
 -1       403 7.03740E+01 4.78550E+00 0.00000E+00
 -1       404 7.33740E+01 4.78550E+00 0.00000E+00
 -1       405 7.63740E+01 4.78550E+00 0.00000E+00
 -1       406 7.93740E+01 4.78550E+00 0.00000E+00
 -1       407 8.23740E+01 4.78550E+00 0.00000E+00
 -1       408 8.53740E+01 4.78550E+00 0.00000E+00
 -1       409 8.83740E+01 4.78550E+00 0.00000E+00
 -1       410 9.13740E+01 4.78550E+00 0.00000E+00
 -1       411 9.43740E+01 4.78550E+00 0.00000E+00
 -1       412 9.73740E+01 4.78550E+00 0.00000E+00
 -1       413 1.00374E+02 4.78550E+00 0.00000E+00
 -1       414 1.03374E+02 4.78550E+00 0.00000E+00
 -1       415 1.06374E+02 4.78550E+00 0.00000E+00
 -1       416 1.09374E+02 4.78550E+00 0.00000E+00
 -1       417 1.12374E+02 4.78550E+00 0.00000E+00
 -1       418 1.15374E+02 4.78550E+00 0.00000E+00
 -1       419 1.18374E+02 4.78550E+00 0.00000E+00
 -1       420 1.21374E+02 4.78550E+00 0.00000E+00
 -1       421 1.24374E+02 4.78550E+00 0.00000E+00
 -1       422 1.27374E+02 4.78550E+00 0.00000E+00
 -1       423 1.30374E+02 4.78550E+00 0.00000E+00
 -1       424 1.33374E+02 4.78550E+00 0.00000E+00
 -1       425 1.36374E+02 4.78550E+00 0.00000E+00
 -1       426 1.39374E+02 4.78550E+00 0.00000E+00
 -1       427 1.42374E+02 4.78550E+00 0.00000E+00
 -1       428 1.44888E+02 4.60525E+00 0.00000E+00
 -1       429 1.44804E+02 1.18000E+01 0.00000E+00
 -1       430 1.44804E+02 8.85000E+00 0.00000E+00
 -1       431 1.44804E+02 1.47000E+01 0.00000E+00
 -1       432 1.44804E+02 1.76500E+01 0.00000E+00
 -1       433 1.44804E+02 2.06000E+01 0.00000E+00
 -1       434 1.44804E+02 2.35500E+01 0.00000E+00
 -1       435 1.44804E+02 2.65000E+01 0.00000E+00
 -1       436 1.44804E+02 2.94500E+01 0.00000E+00
 -1       437 1.44804E+02 3.23500E+01 0.00000E+00
 -1       438 1.44804E+02 3.53000E+01 0.00000E+00
 -1       439 1.44804E+02 3.82500E+01 0.00000E+00
 -1       440 1.44804E+02 4.12000E+01 0.00000E+00
 -1       441 1.09545E+01 4.39587E+00 0.00000E+00
 -1       442 7.38881E+01 3.42399E+01 0.00000E+00
 -1       443 7.12907E+01 3.11052E+01 0.00000E+00
 -1       444 7.47848E+01 3.63134E+01 0.00000E+00
 -1       445 7.38742E+01 4.19791E+01 0.00000E+00
 -1       446 7.29445E+01 3.27322E+01 0.00000E+00
 -1       447 5.19600E+00 3.82125E+01 0.00000E+00
 -1       448 6.99158E+01 2.98018E+01 0.00000E+00
 -1       449 6.71654E+01 2.87433E+01 0.00000E+00
 -1       450 6.53280E+01 2.85518E+01 0.00000E+00
 -1       451 6.29706E+01 2.89768E+01 0.00000E+00
 -1       452 6.11618E+01 2.99245E+01 0.00000E+00
 -1       453 5.93402E+01 3.05381E+01 0.00000E+00
 -1       454 5.76132E+01 3.24591E+01 0.00000E+00
 -1       455 5.65062E+01 3.41352E+01 0.00000E+00
 -1       456 5.59024E+01 3.59284E+01 0.00000E+00
 -1       457 5.56131E+01 3.79862E+01 0.00000E+00
 -1       458 5.54464E+01 4.01299E+01 0.00000E+00
 -1       459 5.62597E+01 4.19598E+01 0.00000E+00
 -1       460 5.72667E+01 4.37074E+01 0.00000E+00
 -1       461 5.84656E+01 4.52631E+01 0.00000E+00
 -1       462 7.18766E+01 4.49591E+01 0.00000E+00
 -1       463 7.29954E+01 4.36650E+01 0.00000E+00
 -1       464 7.48173E+01 3.85081E+01 0.00000E+00
 -1       465 5.64750E+01 4.51842E+01 0.00000E+00
 -1       466 5.77337E+01 3.06503E+01 0.00000E+00
 -1       467 6.89184E+01 2.81700E+01 0.00000E+00
 -1       468 7.79400E+00 3.08500E+01 0.00000E+00
 -1       469 7.79400E+00 3.38000E+01 0.00000E+00
 -1       470 7.79400E+00 2.49500E+01 0.00000E+00
 -1       471 7.79400E+00 2.20000E+01 0.00000E+00
 -1       472 7.79400E+00 1.91000E+01 0.00000E+00
 -1       473 7.79400E+00 1.61500E+01 0.00000E+00
 -1       474 7.79400E+00 1.32000E+01 0.00000E+00
 -1       475 7.79400E+00 1.02500E+01 0.00000E+00
 -1       476 7.79400E+00 7.30000E+00 0.00000E+00
 -1       477 8.16450E+00 5.65312E+00 0.00000E+00
 -1       478 7.48702E+01 3.25762E+01 0.00000E+00
 -1       479 7.59797E+01 3.99244E+01 0.00000E+00
 -1       480 1.35000E+01 4.22060E+01 0.00000E+00
 -1       481 1.65000E+01 4.22060E+01 0.00000E+00
 -1       482 1.93500E+01 4.22060E+01 0.00000E+00
 -1       483 2.23500E+01 4.22060E+01 0.00000E+00
 -1       484 2.53500E+01 4.22060E+01 0.00000E+00
 -1       485 2.83500E+01 4.22060E+01 0.00000E+00
 -1       486 3.13500E+01 4.22060E+01 0.00000E+00
 -1       487 3.43500E+01 4.22060E+01 0.00000E+00
 -1       488 3.73500E+01 4.22060E+01 0.00000E+00
 -1       489 4.03500E+01 4.22060E+01 0.00000E+00
 -1       490 4.32000E+01 4.22060E+01 0.00000E+00
 -1       491 4.62000E+01 4.22060E+01 0.00000E+00
 -1       492 4.92000E+01 4.22060E+01 0.00000E+00
 -1       493 5.20500E+01 4.22060E+01 0.00000E+00
 -1       494 9.00000E+00 4.18540E+01 0.00000E+00
 -1       495 7.77000E+01 4.38492E+01 0.00000E+00
 -1       496 8.07000E+01 4.38492E+01 0.00000E+00
 -1       497 8.37000E+01 4.38492E+01 0.00000E+00
 -1       498 8.67000E+01 4.38492E+01 0.00000E+00
 -1       499 8.97000E+01 4.38492E+01 0.00000E+00
 -1       500 9.27000E+01 4.38492E+01 0.00000E+00
 -1       501 9.57000E+01 4.38492E+01 0.00000E+00
 -1       502 9.87000E+01 4.38492E+01 0.00000E+00
 -1       503 1.01550E+02 4.38492E+01 0.00000E+00
 -1       504 1.04550E+02 4.38492E+01 0.00000E+00
 -1       505 1.07550E+02 4.38492E+01 0.00000E+00
 -1       506 1.10550E+02 4.38492E+01 0.00000E+00
 -1       507 1.13550E+02 4.38492E+01 0.00000E+00
 -1       508 1.16550E+02 4.38492E+01 0.00000E+00
 -1       509 1.19550E+02 4.38492E+01 0.00000E+00
 -1       510 1.22550E+02 4.38492E+01 0.00000E+00
 -1       511 1.25400E+02 4.38492E+01 0.00000E+00
 -1       512 1.28400E+02 4.38492E+01 0.00000E+00
 -1       513 1.31400E+02 4.38492E+01 0.00000E+00
 -1       514 1.34400E+02 4.38492E+01 0.00000E+00
 -1       515 1.37400E+02 4.38492E+01 0.00000E+00
 -1       516 1.40400E+02 4.38492E+01 0.00000E+00
 -1       517 1.43400E+02 4.38492E+01 0.00000E+00
 -1       518 7.55567E+01 4.12535E+01 0.00000E+00
 -1       519 1.78740E+01 7.38350E+00 0.00000E+00
 -1       520 1.48740E+01 7.38350E+00 0.00000E+00
 -1       521 2.38740E+01 7.38350E+00 0.00000E+00
 -1       522 2.68740E+01 7.38350E+00 0.00000E+00
 -1       523 2.98740E+01 7.38350E+00 0.00000E+00
 -1       524 3.28740E+01 7.38350E+00 0.00000E+00
 -1       525 3.58740E+01 7.38350E+00 0.00000E+00
 -1       526 3.88740E+01 7.38350E+00 0.00000E+00
 -1       527 4.18740E+01 7.38350E+00 0.00000E+00
 -1       528 4.48740E+01 7.38350E+00 0.00000E+00
 -1       529 4.78740E+01 7.38350E+00 0.00000E+00
 -1       530 5.08740E+01 7.38350E+00 0.00000E+00
 -1       531 5.38740E+01 7.38350E+00 0.00000E+00
 -1       532 5.68740E+01 7.38350E+00 0.00000E+00
 -1       533 5.98740E+01 7.38350E+00 0.00000E+00
 -1       534 6.28740E+01 7.38350E+00 0.00000E+00
 -1       535 6.58740E+01 7.38350E+00 0.00000E+00
 -1       536 6.88740E+01 7.38350E+00 0.00000E+00
 -1       537 7.18740E+01 7.38350E+00 0.00000E+00
 -1       538 7.48740E+01 7.38350E+00 0.00000E+00
 -1       539 7.78740E+01 7.38350E+00 0.00000E+00
 -1       540 8.08740E+01 7.38350E+00 0.00000E+00
 -1       541 8.38740E+01 7.38350E+00 0.00000E+00
 -1       542 8.68740E+01 7.38350E+00 0.00000E+00
 -1       543 8.98740E+01 7.38350E+00 0.00000E+00
 -1       544 9.28740E+01 7.38350E+00 0.00000E+00
 -1       545 9.58740E+01 7.38350E+00 0.00000E+00
 -1       546 9.88740E+01 7.38350E+00 0.00000E+00
 -1       547 1.01874E+02 7.38350E+00 0.00000E+00
 -1       548 1.04874E+02 7.38350E+00 0.00000E+00
 -1       549 1.07874E+02 7.38350E+00 0.00000E+00
 -1       550 1.10874E+02 7.38350E+00 0.00000E+00
 -1       551 1.13874E+02 7.38350E+00 0.00000E+00
 -1       552 1.16874E+02 7.38350E+00 0.00000E+00
 -1       553 1.19874E+02 7.38350E+00 0.00000E+00
 -1       554 1.22874E+02 7.38350E+00 0.00000E+00
 -1       555 1.25874E+02 7.38350E+00 0.00000E+00
 -1       556 1.28874E+02 7.38350E+00 0.00000E+00
 -1       557 1.31874E+02 7.38350E+00 0.00000E+00
 -1       558 1.34874E+02 7.38350E+00 0.00000E+00
 -1       559 1.37874E+02 7.38350E+00 0.00000E+00
 -1       560 1.40874E+02 7.38350E+00 0.00000E+00
 -1       561 1.42206E+02 1.61750E+01 0.00000E+00
 -1       562 1.42206E+02 1.32750E+01 0.00000E+00
 -1       563 1.42206E+02 1.03250E+01 0.00000E+00
 -1       564 7.16680E+01 2.93304E+01 0.00000E+00
 -1       565 1.42206E+02 1.91250E+01 0.00000E+00
 -1       566 1.42206E+02 2.20750E+01 0.00000E+00
 -1       567 1.42206E+02 2.50250E+01 0.00000E+00
 -1       568 1.42206E+02 2.79750E+01 0.00000E+00
 -1       569 1.42206E+02 3.08750E+01 0.00000E+00
 -1       570 1.42206E+02 3.38250E+01 0.00000E+00
 -1       571 1.42206E+02 3.67750E+01 0.00000E+00
 -1       572 1.42206E+02 3.97250E+01 0.00000E+00
 -1       573 1.44820E+02 4.41968E+01 0.00000E+00
 -1       574 2.08740E+01 7.38350E+00 0.00000E+00
 -1       575 7.49557E+01 4.36148E+01 0.00000E+00
 -1       576 1.12500E+01 4.20300E+01 0.00000E+00
 -1       577 7.79400E+00 2.79000E+01 0.00000E+00
 -1       578 7.65160E+01 3.73853E+01 0.00000E+00
 -1       579 5.54680E+01 4.34366E+01 0.00000E+00
 -1       580 7.32691E+01 3.09533E+01 0.00000E+00
 -1       581 6.12702E+01 2.79314E+01 0.00000E+00
 -1       582 6.64419E+01 2.67750E+01 0.00000E+00
 -1       583 6.38598E+01 2.71588E+01 0.00000E+00
 -1       584 5.94486E+01 2.85450E+01 0.00000E+00
 -1       585 5.58383E+01 3.24904E+01 0.00000E+00
 -1       586 5.42612E+01 3.43775E+01 0.00000E+00
 -1       587 5.40593E+01 3.67186E+01 0.00000E+00
 -1       588 5.38926E+01 3.88623E+01 0.00000E+00
 -1       589 5.43623E+01 4.17074E+01 0.00000E+00
 -1       590 7.59107E+01 3.45959E+01 0.00000E+00
 -1       591 7.79400E+00 3.67375E+01 0.00000E+00
 -1       592 5.59588E+01 3.06816E+01 0.00000E+00
 -1       593 1.05840E+01 6.04275E+00 0.00000E+00
 -1       594 8.39700E+00 3.92957E+01 0.00000E+00
 -1       595 7.06705E+01 2.76985E+01 0.00000E+00
 -1       596 1.27290E+01 6.71313E+00 0.00000E+00
 -1       597 5.28085E+01 4.04398E+01 0.00000E+00
 -1       598 5.78422E+01 2.86572E+01 0.00000E+00
 -1       599 6.81949E+01 2.62017E+01 0.00000E+00
 -1       600 1.03920E+01 2.05500E+01 0.00000E+00
 -1       601 1.03920E+01 2.35000E+01 0.00000E+00
 -1       602 1.03920E+01 1.46750E+01 0.00000E+00
 -1       603 1.03920E+01 1.17250E+01 0.00000E+00
 -1       604 1.02135E+01 7.68962E+00 0.00000E+00
 -1       605 2.23740E+01 9.98150E+00 0.00000E+00
 -1       606 1.79250E+01 3.96080E+01 0.00000E+00
 -1       607 2.09250E+01 3.96080E+01 0.00000E+00
 -1       608 2.39250E+01 3.96080E+01 0.00000E+00
 -1       609 2.69250E+01 3.96080E+01 0.00000E+00
 -1       610 2.99250E+01 3.96080E+01 0.00000E+00
 -1       611 3.29250E+01 3.96080E+01 0.00000E+00
 -1       612 3.59250E+01 3.96080E+01 0.00000E+00
 -1       613 3.89250E+01 3.96080E+01 0.00000E+00
 -1       614 4.17750E+01 3.96080E+01 0.00000E+00
 -1       615 4.47750E+01 3.96080E+01 0.00000E+00
 -1       616 4.77750E+01 3.96080E+01 0.00000E+00
 -1       617 7.92000E+01 4.12963E+01 0.00000E+00
 -1       618 1.03920E+01 3.23250E+01 0.00000E+00
 -1       619 8.22000E+01 4.12963E+01 0.00000E+00
 -1       620 8.52000E+01 4.12963E+01 0.00000E+00
 -1       621 8.82000E+01 4.12963E+01 0.00000E+00
 -1       622 9.12000E+01 4.12963E+01 0.00000E+00
 -1       623 9.42000E+01 4.12963E+01 0.00000E+00
 -1       624 9.72000E+01 4.12963E+01 0.00000E+00
 -1       625 1.00050E+02 4.12963E+01 0.00000E+00
 -1       626 1.03050E+02 4.12963E+01 0.00000E+00
 -1       627 1.06050E+02 4.12963E+01 0.00000E+00
 -1       628 1.09050E+02 4.12963E+01 0.00000E+00
 -1       629 1.12050E+02 4.12963E+01 0.00000E+00
 -1       630 1.15050E+02 4.12963E+01 0.00000E+00
 -1       631 1.18050E+02 4.12963E+01 0.00000E+00
 -1       632 1.21050E+02 4.12963E+01 0.00000E+00
 -1       633 1.23900E+02 4.12963E+01 0.00000E+00
 -1       634 1.26900E+02 4.12963E+01 0.00000E+00
 -1       635 1.29900E+02 4.12963E+01 0.00000E+00
 -1       636 1.32900E+02 4.12963E+01 0.00000E+00
 -1       637 1.35900E+02 4.12963E+01 0.00000E+00
 -1       638 1.38900E+02 4.12963E+01 0.00000E+00
 -1       639 7.72428E+01 4.10583E+01 0.00000E+00
 -1       640 2.83740E+01 9.98150E+00 0.00000E+00
 -1       641 2.53740E+01 9.98150E+00 0.00000E+00
 -1       642 3.43740E+01 9.98150E+00 0.00000E+00
 -1       643 3.73740E+01 9.98150E+00 0.00000E+00
 -1       644 4.03740E+01 9.98150E+00 0.00000E+00
 -1       645 4.33740E+01 9.98150E+00 0.00000E+00
 -1       646 4.63740E+01 9.98150E+00 0.00000E+00
 -1       647 4.93740E+01 9.98150E+00 0.00000E+00
 -1       648 5.23740E+01 9.98150E+00 0.00000E+00
 -1       649 5.53740E+01 9.98150E+00 0.00000E+00
 -1       650 5.83740E+01 9.98150E+00 0.00000E+00
 -1       651 6.13740E+01 9.98150E+00 0.00000E+00
 -1       652 6.43740E+01 9.98150E+00 0.00000E+00
 -1       653 6.73740E+01 9.98150E+00 0.00000E+00
 -1       654 7.03740E+01 9.98150E+00 0.00000E+00
 -1       655 7.33740E+01 9.98150E+00 0.00000E+00
 -1       656 7.63740E+01 9.98150E+00 0.00000E+00
 -1       657 7.93740E+01 9.98150E+00 0.00000E+00
 -1       658 8.23740E+01 9.98150E+00 0.00000E+00
 -1       659 8.53740E+01 9.98150E+00 0.00000E+00
 -1       660 8.83740E+01 9.98150E+00 0.00000E+00
 -1       661 9.13740E+01 9.98150E+00 0.00000E+00
 -1       662 9.43740E+01 9.98150E+00 0.00000E+00
 -1       663 9.73740E+01 9.98150E+00 0.00000E+00
 -1       664 1.00374E+02 9.98150E+00 0.00000E+00
 -1       665 1.03374E+02 9.98150E+00 0.00000E+00
 -1       666 1.06374E+02 9.98150E+00 0.00000E+00
 -1       667 1.09374E+02 9.98150E+00 0.00000E+00
 -1       668 1.12374E+02 9.98150E+00 0.00000E+00
 -1       669 1.15374E+02 9.98150E+00 0.00000E+00
 -1       670 1.18374E+02 9.98150E+00 0.00000E+00
 -1       671 1.21374E+02 9.98150E+00 0.00000E+00
 -1       672 1.24374E+02 9.98150E+00 0.00000E+00
 -1       673 1.27374E+02 9.98150E+00 0.00000E+00
 -1       674 1.30374E+02 9.98150E+00 0.00000E+00
 -1       675 1.33374E+02 9.98150E+00 0.00000E+00
 -1       676 1.36374E+02 9.98150E+00 0.00000E+00
 -1       677 1.39290E+02 1.01532E+01 0.00000E+00
 -1       678 1.39608E+02 1.47250E+01 0.00000E+00
 -1       679 1.39608E+02 2.06000E+01 0.00000E+00
 -1       680 1.39449E+02 1.24391E+01 0.00000E+00
 -1       681 7.78894E+01 3.56269E+01 0.00000E+00
 -1       682 1.39608E+02 1.76625E+01 0.00000E+00
 -1       683 1.39608E+02 2.65000E+01 0.00000E+00
 -1       684 1.39608E+02 2.94000E+01 0.00000E+00
 -1       685 1.39608E+02 3.23500E+01 0.00000E+00
 -1       686 1.39608E+02 3.53000E+01 0.00000E+00
 -1       687 1.39608E+02 3.82500E+01 0.00000E+00
 -1       688 1.42222E+02 4.27218E+01 0.00000E+00
 -1       689 1.93740E+01 9.98150E+00 0.00000E+00
 -1       690 7.77792E+01 3.85191E+01 0.00000E+00
 -1       691 6.20747E+01 2.59016E+01 0.00000E+00
 -1       692 5.24515E+01 3.54007E+01 0.00000E+00
 -1       693 5.37980E+01 3.23879E+01 0.00000E+00
 -1       694 1.39608E+02 2.35500E+01 0.00000E+00
 -1       695 3.13740E+01 9.98150E+00 0.00000E+00
 -1       696 5.97584E+01 2.64540E+01 0.00000E+00
 -1       697 7.72130E+01 3.26471E+01 0.00000E+00
 -1       698 5.22848E+01 3.75444E+01 0.00000E+00
 -1       699 6.48494E+01 2.49390E+01 0.00000E+00
 -1       700 1.63740E+01 9.98150E+00 0.00000E+00
 -1       701 1.03920E+01 1.76125E+01 0.00000E+00
 -1       702 1.49250E+01 3.96080E+01 0.00000E+00
 -1       703 5.39185E+01 3.05791E+01 0.00000E+00
 -1       704 1.03920E+01 2.64500E+01 0.00000E+00
 -1       705 5.12007E+01 3.91219E+01 0.00000E+00
 -1       706 1.03920E+01 2.93875E+01 0.00000E+00
 -1       707 6.99470E+01 2.57302E+01 0.00000E+00
 -1       708 1.03920E+01 3.52625E+01 0.00000E+00
 -1       709 5.81519E+01 2.65662E+01 0.00000E+00
 -1       710 1.30265E+01 9.52803E+00 0.00000E+00
 -1       711 7.91526E+01 3.67607E+01 0.00000E+00
 -1       712 6.66024E+01 2.43656E+01 0.00000E+00
 -1       713 1.06470E+01 3.94717E+01 0.00000E+00
 -1       714 5.19883E+01 3.34110E+01 0.00000E+00
 -1       715 5.60672E+01 2.86885E+01 0.00000E+00
 -1       716 1.27860E+01 3.95399E+01 0.00000E+00
 -1       717 7.36895E+01 2.89373E+01 0.00000E+00
 -1       718 7.26920E+01 2.73055E+01 0.00000E+00
 -1       719 7.61036E+01 3.05623E+01 0.00000E+00
 -1       720 1.29900E+01 1.32000E+01 0.00000E+00
 -1       721 5.03293E+01 3.73617E+01 0.00000E+00
 -1       722 3.88740E+01 1.25795E+01 0.00000E+00
 -1       723 2.08740E+01 1.25795E+01 0.00000E+00
 -1       724 1.05195E+01 3.73671E+01 0.00000E+00
 -1       725 7.95506E+01 3.36831E+01 0.00000E+00
 -1       726 2.24250E+01 3.70100E+01 0.00000E+00
 -1       727 2.54250E+01 3.70100E+01 0.00000E+00
 -1       728 2.84250E+01 3.70100E+01 0.00000E+00
 -1       729 3.14250E+01 3.70100E+01 0.00000E+00
 -1       730 3.44250E+01 3.70100E+01 0.00000E+00
 -1       731 3.74250E+01 3.70100E+01 0.00000E+00
 -1       732 4.02750E+01 3.70100E+01 0.00000E+00
 -1       733 4.32750E+01 3.70100E+01 0.00000E+00
 -1       734 4.62750E+01 3.70100E+01 0.00000E+00
 -1       735 8.37000E+01 3.89109E+01 0.00000E+00
 -1       736 8.67000E+01 3.89109E+01 0.00000E+00
 -1       737 8.97000E+01 3.89109E+01 0.00000E+00
 -1       738 9.27000E+01 3.89109E+01 0.00000E+00
 -1       739 9.57000E+01 3.89109E+01 0.00000E+00
 -1       740 9.85500E+01 3.89109E+01 0.00000E+00
 -1       741 1.01550E+02 3.89109E+01 0.00000E+00
 -1       742 1.04550E+02 3.89109E+01 0.00000E+00
 -1       743 1.07550E+02 3.89109E+01 0.00000E+00
 -1       744 1.10550E+02 3.89109E+01 0.00000E+00
 -1       745 1.13550E+02 3.89109E+01 0.00000E+00
 -1       746 1.16550E+02 3.89109E+01 0.00000E+00
 -1       747 1.19550E+02 3.89109E+01 0.00000E+00
 -1       748 1.22400E+02 3.89109E+01 0.00000E+00
 -1       749 1.25400E+02 3.89109E+01 0.00000E+00
 -1       750 1.28400E+02 3.89109E+01 0.00000E+00
 -1       751 1.31400E+02 3.89109E+01 0.00000E+00
 -1       752 1.34400E+02 3.89109E+01 0.00000E+00
 -1       753 1.37004E+02 3.85804E+01 0.00000E+00
 -1       754 4.18740E+01 1.25795E+01 0.00000E+00
 -1       755 3.58740E+01 1.25795E+01 0.00000E+00
 -1       756 4.48740E+01 1.25795E+01 0.00000E+00
 -1       757 4.78740E+01 1.25795E+01 0.00000E+00
 -1       758 5.08740E+01 1.25795E+01 0.00000E+00
 -1       759 5.38740E+01 1.25795E+01 0.00000E+00
 -1       760 5.68740E+01 1.25795E+01 0.00000E+00
 -1       761 5.98740E+01 1.25795E+01 0.00000E+00
 -1       762 6.28740E+01 1.25795E+01 0.00000E+00
 -1       763 6.58740E+01 1.25795E+01 0.00000E+00
 -1       764 6.88740E+01 1.25795E+01 0.00000E+00
 -1       765 7.18740E+01 1.25795E+01 0.00000E+00
 -1       766 7.48740E+01 1.25795E+01 0.00000E+00
 -1       767 7.78740E+01 1.25795E+01 0.00000E+00
 -1       768 8.08740E+01 1.25795E+01 0.00000E+00
 -1       769 8.38740E+01 1.25795E+01 0.00000E+00
 -1       770 8.68740E+01 1.25795E+01 0.00000E+00
 -1       771 8.98740E+01 1.25795E+01 0.00000E+00
 -1       772 9.28740E+01 1.25795E+01 0.00000E+00
 -1       773 9.58740E+01 1.25795E+01 0.00000E+00
 -1       774 9.88740E+01 1.25795E+01 0.00000E+00
 -1       775 1.01874E+02 1.25795E+01 0.00000E+00
 -1       776 1.04874E+02 1.25795E+01 0.00000E+00
 -1       777 1.07874E+02 1.25795E+01 0.00000E+00
 -1       778 1.10874E+02 1.25795E+01 0.00000E+00
 -1       779 1.13874E+02 1.25795E+01 0.00000E+00
 -1       780 1.16874E+02 1.25795E+01 0.00000E+00
 -1       781 1.19874E+02 1.25795E+01 0.00000E+00
 -1       782 1.22874E+02 1.25795E+01 0.00000E+00
 -1       783 1.25874E+02 1.25795E+01 0.00000E+00
 -1       784 1.28874E+02 1.25795E+01 0.00000E+00
 -1       785 1.31874E+02 1.25795E+01 0.00000E+00
 -1       786 1.34874E+02 1.25795E+01 0.00000E+00
 -1       787 1.37161E+02 1.25093E+01 0.00000E+00
 -1       788 1.37010E+02 3.08750E+01 0.00000E+00
 -1       789 8.07000E+01 3.90785E+01 0.00000E+00
 -1       790 1.37010E+02 3.38250E+01 0.00000E+00
 -1       791 1.37010E+02 2.79750E+01 0.00000E+00
 -1       792 1.37007E+02 3.62027E+01 0.00000E+00
 -1       793 7.70807E+01 4.28985E+01 0.00000E+00
 -1       794 1.94250E+01 3.70100E+01 0.00000E+00
 -1       795 6.28449E+01 2.36416E+01 0.00000E+00
 -1       796 1.78740E+01 1.25795E+01 0.00000E+00
 -1       797 1.37010E+02 2.50250E+01 0.00000E+00
 -1       798 1.43515E+01 1.23293E+01 0.00000E+00
 -1       799 1.37010E+02 2.20750E+01 0.00000E+00
 -1       800 1.29900E+01 2.20250E+01 0.00000E+00
 -1       801 6.05287E+01 2.41940E+01 0.00000E+00
 -1       802 7.89518E+01 3.03842E+01 0.00000E+00
 -1       803 1.64250E+01 3.70100E+01 0.00000E+00
 -1       804 7.62286E+01 2.77710E+01 0.00000E+00
 -1       805 1.29900E+01 2.49750E+01 0.00000E+00
 -1       806 6.48701E+01 2.27098E+01 0.00000E+00
 -1       807 5.21088E+01 3.16022E+01 0.00000E+00
 -1       808 1.37320E+02 1.47952E+01 0.00000E+00
 -1       809 2.68740E+01 1.25795E+01 0.00000E+00
 -1       810 7.19685E+01 2.53371E+01 0.00000E+00
 -1       811 6.83545E+01 2.38942E+01 0.00000E+00
 -1       812 1.29900E+01 3.37938E+01 0.00000E+00
 -1       813 5.63770E+01 2.65976E+01 0.00000E+00
 -1       814 1.42860E+01 3.69419E+01 0.00000E+00
 -1       815 5.89222E+01 2.43062E+01 0.00000E+00
 -1       816 2.38740E+01 1.25795E+01 0.00000E+00
 -1       817 7.52311E+01 2.61391E+01 0.00000E+00
 -1       818 2.98740E+01 1.25795E+01 0.00000E+00
 -1       819 1.37010E+02 1.91375E+01 0.00000E+00
 -1       820 5.40269E+01 2.85860E+01 0.00000E+00
 -1       821 1.29900E+01 1.90875E+01 0.00000E+00
 -1       822 1.29900E+01 1.61375E+01 0.00000E+00
 -1       823 1.29900E+01 3.08563E+01 0.00000E+00
 -1       824 3.28740E+01 1.25795E+01 0.00000E+00
 -1       825 4.83973E+01 3.50490E+01 0.00000E+00
 -1       826 8.08138E+01 3.48170E+01 0.00000E+00
 -1       827 6.30005E+01 2.13131E+01 0.00000E+00
 -1       828 4.33740E+01 1.51775E+01 0.00000E+00
 -1       829 8.20857E+01 3.69476E+01 0.00000E+00
 -1       830 1.29900E+01 2.79188E+01 0.00000E+00
 -1       831 2.69250E+01 3.44120E+01 0.00000E+00
 -1       832 2.99250E+01 3.44120E+01 0.00000E+00
 -1       833 3.29250E+01 3.44120E+01 0.00000E+00
 -1       834 3.59250E+01 3.44120E+01 0.00000E+00
 -1       835 3.87750E+01 3.44120E+01 0.00000E+00
 -1       836 4.17750E+01 3.44120E+01 0.00000E+00
 -1       837 4.47750E+01 3.44120E+01 0.00000E+00
 -1       838 8.52000E+01 3.65255E+01 0.00000E+00
 -1       839 4.03740E+01 1.51775E+01 0.00000E+00
 -1       840 8.82000E+01 3.65255E+01 0.00000E+00
 -1       841 9.12000E+01 3.65255E+01 0.00000E+00
 -1       842 9.42000E+01 3.65255E+01 0.00000E+00
 -1       843 9.70500E+01 3.65255E+01 0.00000E+00
 -1       844 1.00050E+02 3.65255E+01 0.00000E+00
 -1       845 1.03050E+02 3.65255E+01 0.00000E+00
 -1       846 1.06050E+02 3.65255E+01 0.00000E+00
 -1       847 1.09050E+02 3.65255E+01 0.00000E+00
 -1       848 1.12050E+02 3.65255E+01 0.00000E+00
 -1       849 1.15050E+02 3.65255E+01 0.00000E+00
 -1       850 1.18050E+02 3.65255E+01 0.00000E+00
 -1       851 1.20900E+02 3.65255E+01 0.00000E+00
 -1       852 1.23900E+02 3.65255E+01 0.00000E+00
 -1       853 1.26900E+02 3.65255E+01 0.00000E+00
 -1       854 1.29900E+02 3.65255E+01 0.00000E+00
 -1       855 1.32900E+02 3.65255E+01 0.00000E+00
 -1       856 1.34954E+02 3.63641E+01 0.00000E+00
 -1       857 2.39250E+01 3.44120E+01 0.00000E+00
 -1       858 3.73740E+01 1.51775E+01 0.00000E+00
 -1       859 4.93740E+01 1.51775E+01 0.00000E+00
 -1       860 5.23740E+01 1.51775E+01 0.00000E+00
 -1       861 5.53740E+01 1.51775E+01 0.00000E+00
 -1       862 5.83740E+01 1.51775E+01 0.00000E+00
 -1       863 6.13740E+01 1.51775E+01 0.00000E+00
 -1       864 6.43740E+01 1.51775E+01 0.00000E+00
 -1       865 6.73740E+01 1.51775E+01 0.00000E+00
 -1       866 7.03740E+01 1.51775E+01 0.00000E+00
 -1       867 7.33740E+01 1.51775E+01 0.00000E+00
 -1       868 7.63740E+01 1.51775E+01 0.00000E+00
 -1       869 7.93740E+01 1.51775E+01 0.00000E+00
 -1       870 8.23740E+01 1.51775E+01 0.00000E+00
 -1       871 8.53740E+01 1.51775E+01 0.00000E+00
 -1       872 8.83740E+01 1.51775E+01 0.00000E+00
 -1       873 9.13740E+01 1.51775E+01 0.00000E+00
 -1       874 9.43740E+01 1.51775E+01 0.00000E+00
 -1       875 9.73740E+01 1.51775E+01 0.00000E+00
 -1       876 1.00374E+02 1.51775E+01 0.00000E+00
 -1       877 1.03374E+02 1.51775E+01 0.00000E+00
 -1       878 1.06374E+02 1.51775E+01 0.00000E+00
 -1       879 1.09374E+02 1.51775E+01 0.00000E+00
 -1       880 1.12374E+02 1.51775E+01 0.00000E+00
 -1       881 1.15374E+02 1.51775E+01 0.00000E+00
 -1       882 1.18374E+02 1.51775E+01 0.00000E+00
 -1       883 1.21374E+02 1.51775E+01 0.00000E+00
 -1       884 1.24374E+02 1.51775E+01 0.00000E+00
 -1       885 1.27374E+02 1.51775E+01 0.00000E+00
 -1       886 1.30374E+02 1.51775E+01 0.00000E+00
 -1       887 1.33374E+02 1.51775E+01 0.00000E+00
 -1       888 1.34412E+02 3.23500E+01 0.00000E+00
 -1       889 1.34412E+02 2.94500E+01 0.00000E+00
 -1       890 4.63740E+01 1.51775E+01 0.00000E+00
 -1       891 1.93740E+01 1.51775E+01 0.00000E+00
 -1       892 2.09250E+01 3.44120E+01 0.00000E+00
 -1       893 1.24028E+01 3.71545E+01 0.00000E+00
 -1       894 8.15982E+01 3.16076E+01 0.00000E+00
 -1       895 1.34412E+02 2.65000E+01 0.00000E+00
 -1       896 1.34412E+02 2.35500E+01 0.00000E+00
 -1       897 6.66223E+01 2.22383E+01 0.00000E+00
 -1       898 7.93890E+01 2.72031E+01 0.00000E+00
 -1       899 1.79250E+01 3.44120E+01 0.00000E+00
 -1       900 6.06843E+01 2.18656E+01 0.00000E+00
 -1       901 4.93419E+01 3.23646E+01 0.00000E+00
 -1       902 3.43740E+01 1.51775E+01 0.00000E+00
 -1       903 5.22172E+01 2.96092E+01 0.00000E+00
 -1       904 5.43367E+01 2.64950E+01 0.00000E+00
 -1       905 8.20354E+01 2.84265E+01 0.00000E+00
 -1       906 7.03760E+01 2.35011E+01 0.00000E+00
 -1       907 5.71473E+01 2.43376E+01 0.00000E+00
 -1       908 2.53740E+01 1.51775E+01 0.00000E+00
 -1       909 7.83915E+01 2.55712E+01 0.00000E+00
 -1       910 1.34412E+02 2.06125E+01 0.00000E+00
 -1       911 1.34683E+02 3.43571E+01 0.00000E+00
 -1       912 2.23740E+01 1.51775E+01 0.00000E+00
 -1       913 1.55880E+01 2.05562E+01 0.00000E+00
 -1       914 1.59286E+01 1.50458E+01 0.00000E+00
 -1       915 2.83740E+01 1.51775E+01 0.00000E+00
 -1       916 4.57197E+01 3.17277E+01 0.00000E+00
 -1       917 5.90778E+01 2.19777E+01 0.00000E+00
 -1       918 1.57860E+01 3.43439E+01 0.00000E+00
 -1       919 1.55880E+01 2.35063E+01 0.00000E+00
 -1       920 6.47526E+01 2.08417E+01 0.00000E+00
 -1       921 1.44593E+01 1.55917E+01 0.00000E+00
 -1       922 1.57860E+01 3.14064E+01 0.00000E+00
 -1       923 1.57860E+01 2.84689E+01 0.00000E+00
 -1       924 6.89051E+01 2.15842E+01 0.00000E+00
 -1       925 7.42200E+01 2.32152E+01 0.00000E+00
 -1       926 2.54250E+01 3.18140E+01 0.00000E+00
 -1       927 3.14250E+01 3.18140E+01 0.00000E+00
 -1       928 3.44250E+01 3.18140E+01 0.00000E+00
 -1       929 3.72750E+01 3.18140E+01 0.00000E+00
 -1       930 4.02750E+01 3.18140E+01 0.00000E+00
 -1       931 4.29973E+01 3.17708E+01 0.00000E+00
 -1       932 3.13740E+01 1.51775E+01 0.00000E+00
 -1       933 4.18740E+01 1.77755E+01 0.00000E+00
 -1       934 8.67000E+01 3.39275E+01 0.00000E+00
 -1       935 8.97000E+01 3.39275E+01 0.00000E+00
 -1       936 9.27000E+01 3.39275E+01 0.00000E+00
 -1       937 9.55500E+01 3.39275E+01 0.00000E+00
 -1       938 9.85500E+01 3.39275E+01 0.00000E+00
 -1       939 1.01550E+02 3.39275E+01 0.00000E+00
 -1       940 1.04550E+02 3.39275E+01 0.00000E+00
 -1       941 1.07550E+02 3.39275E+01 0.00000E+00
 -1       942 1.10550E+02 3.39275E+01 0.00000E+00
 -1       943 1.13550E+02 3.39275E+01 0.00000E+00
 -1       944 1.16550E+02 3.39275E+01 0.00000E+00
 -1       945 1.19400E+02 3.39275E+01 0.00000E+00
 -1       946 1.22400E+02 3.39275E+01 0.00000E+00
 -1       947 1.25400E+02 3.39275E+01 0.00000E+00
 -1       948 1.28400E+02 3.39275E+01 0.00000E+00
 -1       949 1.31400E+02 3.39275E+01 0.00000E+00
 -1       950 5.68740E+01 1.77755E+01 0.00000E+00
 -1       951 3.88740E+01 1.77755E+01 0.00000E+00
 -1       952 8.33991E+01 3.40666E+01 0.00000E+00
 -1       953 5.38740E+01 1.77755E+01 0.00000E+00
 -1       954 5.08740E+01 1.77755E+01 0.00000E+00
 -1       955 5.98740E+01 1.77755E+01 0.00000E+00
 -1       956 6.28740E+01 1.77755E+01 0.00000E+00
 -1       957 6.58740E+01 1.77755E+01 0.00000E+00
 -1       958 6.88740E+01 1.77755E+01 0.00000E+00
 -1       959 7.18740E+01 1.77755E+01 0.00000E+00
 -1       960 7.48740E+01 1.77755E+01 0.00000E+00
 -1       961 7.78740E+01 1.77755E+01 0.00000E+00
 -1       962 8.08740E+01 1.77755E+01 0.00000E+00
 -1       963 8.38740E+01 1.77755E+01 0.00000E+00
 -1       964 8.68740E+01 1.77755E+01 0.00000E+00
 -1       965 8.98740E+01 1.77755E+01 0.00000E+00
 -1       966 9.28740E+01 1.77755E+01 0.00000E+00
 -1       967 9.58740E+01 1.77755E+01 0.00000E+00
 -1       968 9.88740E+01 1.77755E+01 0.00000E+00
 -1       969 1.01874E+02 1.77755E+01 0.00000E+00
 -1       970 1.04874E+02 1.77755E+01 0.00000E+00
 -1       971 1.07874E+02 1.77755E+01 0.00000E+00
 -1       972 1.10874E+02 1.77755E+01 0.00000E+00
 -1       973 1.13874E+02 1.77755E+01 0.00000E+00
 -1       974 1.16874E+02 1.77755E+01 0.00000E+00
 -1       975 1.19874E+02 1.77755E+01 0.00000E+00
 -1       976 1.22874E+02 1.77755E+01 0.00000E+00
 -1       977 1.25874E+02 1.77755E+01 0.00000E+00
 -1       978 1.28874E+02 1.77755E+01 0.00000E+00
 -1       979 1.31874E+02 1.77755E+01 0.00000E+00
 -1       980 1.31814E+02 3.09000E+01 0.00000E+00
 -1       981 4.78740E+01 1.77755E+01 0.00000E+00
 -1       982 4.94504E+01 3.03716E+01 0.00000E+00
 -1       983 2.84250E+01 3.18140E+01 0.00000E+00
 -1       984 4.48740E+01 1.77755E+01 0.00000E+00
 -1       985 1.31814E+02 2.79500E+01 0.00000E+00
 -1       986 1.31814E+02 2.50000E+01 0.00000E+00
 -1       987 1.56870E+01 2.59876E+01 0.00000E+00
 -1       988 1.94250E+01 3.18140E+01 0.00000E+00
 -1       989 1.50237E+01 1.80740E+01 0.00000E+00
 -1       990 2.24250E+01 3.18140E+01 0.00000E+00
 -1       991 2.08740E+01 1.77755E+01 0.00000E+00
 -1       992 3.58740E+01 1.77755E+01 0.00000E+00
 -1       993 5.25270E+01 2.75182E+01 0.00000E+00
 -1       994 7.73804E+01 2.26473E+01 0.00000E+00
 -1       995 8.18024E+01 2.54566E+01 0.00000E+00
 -1       996 5.51070E+01 2.42350E+01 0.00000E+00
 -1       997 5.73029E+01 2.20091E+01 0.00000E+00
 -1       998 2.38740E+01 1.77755E+01 0.00000E+00
 -1       999 8.48991E+01 3.14686E+01 0.00000E+00
 -1      1000 1.31814E+02 2.20625E+01 0.00000E+00
 -1      1001 2.68740E+01 1.77755E+01 0.00000E+00
 -1      1002 6.12890E+01 1.92690E+01 0.00000E+00
 -1      1003 1.81860E+01 2.20313E+01 0.00000E+00
 -1      1004 6.70355E+01 2.01876E+01 0.00000E+00
 -1      1005 1.64930E+01 1.75281E+01 0.00000E+00
 -1      1006 1.73395E+01 1.97797E+01 0.00000E+00
 -1      1007 5.97032E+01 1.93749E+01 0.00000E+00
 -1      1008 2.39250E+01 2.92160E+01 0.00000E+00
 -1      1009 7.27490E+01 2.12983E+01 0.00000E+00
 -1      1010 3.58500E+01 2.92160E+01 0.00000E+00
 -1      1011 3.88500E+01 2.92160E+01 0.00000E+00
 -1      1012 8.82000E+01 3.13295E+01 0.00000E+00
 -1      1013 4.97602E+01 2.82806E+01 0.00000E+00
 -1      1014 9.12000E+01 3.13295E+01 0.00000E+00
 -1      1015 9.40500E+01 3.13295E+01 0.00000E+00
 -1      1016 9.70500E+01 3.13295E+01 0.00000E+00
 -1      1017 1.00050E+02 3.13295E+01 0.00000E+00
 -1      1018 1.03050E+02 3.13295E+01 0.00000E+00
 -1      1019 1.06050E+02 3.13295E+01 0.00000E+00
 -1      1020 1.09050E+02 3.13295E+01 0.00000E+00
 -1      1021 1.12050E+02 3.13295E+01 0.00000E+00
 -1      1022 1.15050E+02 3.13295E+01 0.00000E+00
 -1      1023 1.17900E+02 3.13295E+01 0.00000E+00
 -1      1024 1.20900E+02 3.13295E+01 0.00000E+00
 -1      1025 1.23900E+02 3.13295E+01 0.00000E+00
 -1      1026 1.26900E+02 3.13295E+01 0.00000E+00
 -1      1027 1.29357E+02 3.11148E+01 0.00000E+00
 -1      1028 4.63740E+01 2.03735E+01 0.00000E+00
 -1      1029 2.09250E+01 2.92160E+01 0.00000E+00
 -1      1030 4.03740E+01 2.03735E+01 0.00000E+00
 -1      1031 4.93740E+01 2.03735E+01 0.00000E+00
 -1      1032 5.23740E+01 2.03735E+01 0.00000E+00
 -1      1033 8.23740E+01 2.03735E+01 0.00000E+00
 -1      1034 8.53740E+01 2.03735E+01 0.00000E+00
 -1      1035 8.83740E+01 2.03735E+01 0.00000E+00
 -1      1036 9.13740E+01 2.03735E+01 0.00000E+00
 -1      1037 9.43740E+01 2.03735E+01 0.00000E+00
 -1      1038 9.73740E+01 2.03735E+01 0.00000E+00
 -1      1039 1.00374E+02 2.03735E+01 0.00000E+00
 -1      1040 1.03374E+02 2.03735E+01 0.00000E+00
 -1      1041 1.06374E+02 2.03735E+01 0.00000E+00
 -1      1042 1.09374E+02 2.03735E+01 0.00000E+00
 -1      1043 1.12374E+02 2.03735E+01 0.00000E+00
 -1      1044 1.15374E+02 2.03735E+01 0.00000E+00
 -1      1045 1.18374E+02 2.03735E+01 0.00000E+00
 -1      1046 1.21374E+02 2.03735E+01 0.00000E+00
 -1      1047 1.24374E+02 2.03735E+01 0.00000E+00
 -1      1048 1.27374E+02 2.03735E+01 0.00000E+00
 -1      1049 1.83555E+01 2.88424E+01 0.00000E+00
 -1      1050 4.33740E+01 2.03735E+01 0.00000E+00
 -1      1051 8.45089E+01 2.67383E+01 0.00000E+00
 -1      1052 2.99250E+01 2.92160E+01 0.00000E+00
 -1      1053 2.23740E+01 2.03735E+01 0.00000E+00
 -1      1054 2.69250E+01 2.92160E+01 0.00000E+00
 -1      1055 1.82850E+01 2.45126E+01 0.00000E+00
 -1      1056 1.29357E+02 2.81648E+01 0.00000E+00
 -1      1057 1.29357E+02 2.52148E+01 0.00000E+00
 -1      1058 3.28875E+01 2.92160E+01 0.00000E+00
 -1      1059 4.67129E+01 2.86502E+01 0.00000E+00
 -1      1060 3.28740E+01 1.77755E+01 0.00000E+00
 -1      1061 5.21754E+01 2.47842E+01 0.00000E+00
 -1      1062 4.39905E+01 2.86934E+01 0.00000E+00
 -1      1063 2.98740E+01 1.77755E+01 0.00000E+00
 -1      1064 4.14203E+01 2.89547E+01 0.00000E+00
 -1      1065 5.52626E+01 2.19065E+01 0.00000E+00
 -1      1066 8.42676E+01 2.37494E+01 0.00000E+00
 -1      1067 8.15559E+01 2.24671E+01 0.00000E+00
 -1      1068 7.93740E+01 2.03735E+01 0.00000E+00
 -1      1069 2.53740E+01 2.03735E+01 0.00000E+00
 -1      1070 2.02800E+01 2.12024E+01 0.00000E+00
 -1      1071 2.03790E+01 2.36837E+01 0.00000E+00
 -1      1072 8.78098E+01 2.65992E+01 0.00000E+00
 -1      1073 3.73740E+01 2.03735E+01 0.00000E+00
 -1      1074 4.94085E+01 2.55466E+01 0.00000E+00
 -1      1075 3.73500E+01 2.66180E+01 0.00000E+00
 -1      1076 5.22747E+01 2.25789E+01 0.00000E+00
 -1      1077 2.83740E+01 2.03735E+01 0.00000E+00
 -1      1078 9.08098E+01 2.65992E+01 0.00000E+00
 -1      1079 2.24730E+01 2.28548E+01 0.00000E+00
 -1      1080 9.55500E+01 2.87315E+01 0.00000E+00
 -1      1081 9.85500E+01 2.87315E+01 0.00000E+00
 -1      1082 1.01550E+02 2.87315E+01 0.00000E+00
 -1      1083 1.04550E+02 2.87315E+01 0.00000E+00
 -1      1084 1.07550E+02 2.87315E+01 0.00000E+00
 -1      1085 1.10550E+02 2.87315E+01 0.00000E+00
 -1      1086 1.13550E+02 2.87315E+01 0.00000E+00
 -1      1087 1.16400E+02 2.87315E+01 0.00000E+00
 -1      1088 1.19400E+02 2.87315E+01 0.00000E+00
 -1      1089 1.22400E+02 2.87315E+01 0.00000E+00
 -1      1090 1.25400E+02 2.87315E+01 0.00000E+00
 -1      1091 1.27379E+02 2.84481E+01 0.00000E+00
 -1      1092 2.24250E+01 2.66180E+01 0.00000E+00
 -1      1093 4.78740E+01 2.29715E+01 0.00000E+00
 -1      1094 9.28740E+01 2.29715E+01 0.00000E+00
 -1      1095 9.58740E+01 2.29715E+01 0.00000E+00
 -1      1096 9.88740E+01 2.29715E+01 0.00000E+00
 -1      1097 1.01874E+02 2.29715E+01 0.00000E+00
 -1      1098 1.04874E+02 2.29715E+01 0.00000E+00
 -1      1099 1.07874E+02 2.29715E+01 0.00000E+00
 -1      1100 1.10874E+02 2.29715E+01 0.00000E+00
 -1      1101 1.13874E+02 2.29715E+01 0.00000E+00
 -1      1102 1.16874E+02 2.29715E+01 0.00000E+00
 -1      1103 1.19874E+02 2.29715E+01 0.00000E+00
 -1      1104 1.22874E+02 2.29715E+01 0.00000E+00
 -1      1105 1.26116E+02 2.40931E+01 0.00000E+00
 -1      1106 8.75685E+01 2.36103E+01 0.00000E+00
 -1      1107 2.54250E+01 2.66180E+01 0.00000E+00
 -1      1108 1.26747E+02 2.62706E+01 0.00000E+00
 -1      1109 2.84250E+01 2.66180E+01 0.00000E+00
 -1      1110 2.06520E+01 2.64498E+01 0.00000E+00
 -1      1111 3.43740E+01 2.03735E+01 0.00000E+00
 -1      1112 3.13740E+01 2.03735E+01 0.00000E+00
 -1      1113 3.43875E+01 2.66180E+01 0.00000E+00
 -1      1114 4.48740E+01 2.29715E+01 0.00000E+00
 -1      1115 3.99203E+01 2.63567E+01 0.00000E+00
 -1      1116 9.26250E+01 2.87315E+01 0.00000E+00
 -1      1117 3.13875E+01 2.66180E+01 0.00000E+00
 -1      1118 4.53105E+01 2.60742E+01 0.00000E+00
 -1      1119 8.98740E+01 2.29715E+01 0.00000E+00
 -1      1120 4.18740E+01 2.29715E+01 0.00000E+00
 -1      1121 3.88740E+01 2.29715E+01 0.00000E+00
 -1      1122 2.24490E+01 2.47364E+01 0.00000E+00
 -1      1123 9.70500E+01 2.61335E+01 0.00000E+00
 -1      1124 9.42120E+01 2.58515E+01 0.00000E+00
 -1      1125 1.00050E+02 2.61335E+01 0.00000E+00
 -1      1126 1.03050E+02 2.61335E+01 0.00000E+00
 -1      1127 1.06050E+02 2.61335E+01 0.00000E+00
 -1      1128 1.09050E+02 2.61335E+01 0.00000E+00
 -1      1129 1.12050E+02 2.61335E+01 0.00000E+00
 -1      1130 1.14900E+02 2.61335E+01 0.00000E+00
 -1      1131 1.17900E+02 2.61335E+01 0.00000E+00
 -1      1132 1.20900E+02 2.61335E+01 0.00000E+00
 -1      1133 4.27402E+01 2.63354E+01 0.00000E+00
 -1      1134 2.56122E+01 2.35885E+01 0.00000E+00
 -1      1135 1.23824E+02 2.62021E+01 0.00000E+00
 -1      1136 2.98995E+01 2.34958E+01 0.00000E+00
 -1      1137 3.58740E+01 2.29715E+01 0.00000E+00
 -1      1138 3.28807E+01 2.34958E+01 0.00000E+00
 -1      1139 0.00000E+00 4.85250E+01 0.00000E+00
 -1      1140 0.00000E+00 4.55750E+01 0.00000E+00
 -1      1141 0.00000E+00 4.26250E+01 0.00000E+00
 -1      1142 0.00000E+00 3.96750E+01 0.00000E+00
 -1      1143 0.00000E+00 3.67250E+01 0.00000E+00
 -1      1144 0.00000E+00 3.38000E+01 0.00000E+00
 -1      1145 0.00000E+00 3.08750E+01 0.00000E+00
 -1      1146 0.00000E+00 2.79250E+01 0.00000E+00
 -1      1147 0.00000E+00 2.49750E+01 0.00000E+00
 -1      1148 0.00000E+00 2.20250E+01 0.00000E+00
 -1      1149 0.00000E+00 1.90750E+01 0.00000E+00
 -1      1150 0.00000E+00 1.61500E+01 0.00000E+00
 -1      1151 0.00000E+00 1.32250E+01 0.00000E+00
 -1      1152 0.00000E+00 1.02750E+01 0.00000E+00
 -1      1153 0.00000E+00 7.32500E+00 0.00000E+00
 -1      1154 0.00000E+00 4.37500E+00 0.00000E+00
 -1      1155 0.00000E+00 1.45000E+00 0.00000E+00
 -1      1156 1.50000E+00 5.00000E+01 0.00000E+00
 -1      1157 4.50000E+00 5.00000E+01 0.00000E+00
 -1      1158 7.50000E+00 5.00000E+01 0.00000E+00
 -1      1159 1.05000E+01 5.00000E+01 0.00000E+00
 -1      1160 1.35000E+01 5.00000E+01 0.00000E+00
 -1      1161 1.65000E+01 5.00000E+01 0.00000E+00
 -1      1162 1.95000E+01 5.00000E+01 0.00000E+00
 -1      1163 2.24250E+01 5.00000E+01 0.00000E+00
 -1      1164 2.53500E+01 5.00000E+01 0.00000E+00
 -1      1165 2.83500E+01 5.00000E+01 0.00000E+00
 -1      1166 3.13500E+01 5.00000E+01 0.00000E+00
 -1      1167 3.43500E+01 5.00000E+01 0.00000E+00
 -1      1168 3.73500E+01 5.00000E+01 0.00000E+00
 -1      1169 4.03500E+01 5.00000E+01 0.00000E+00
 -1      1170 4.33500E+01 5.00000E+01 0.00000E+00
 -1      1171 4.62750E+01 5.00000E+01 0.00000E+00
 -1      1172 4.92000E+01 5.00000E+01 0.00000E+00
 -1      1173 5.22000E+01 5.00000E+01 0.00000E+00
 -1      1174 5.51250E+01 5.00000E+01 0.00000E+00
 -1      1175 5.79750E+01 5.00000E+01 0.00000E+00
 -1      1176 6.06000E+01 5.00000E+01 0.00000E+00
 -1      1177 6.29250E+01 5.00000E+01 0.00000E+00
 -1      1178 6.51000E+01 5.00000E+01 0.00000E+00
 -1      1179 6.72000E+01 5.00000E+01 0.00000E+00
 -1      1180 6.93750E+01 5.00000E+01 0.00000E+00
 -1      1181 7.17750E+01 5.00000E+01 0.00000E+00
 -1      1182 7.43250E+01 5.00000E+01 0.00000E+00
 -1      1183 7.71000E+01 5.00000E+01 0.00000E+00
 -1      1184 8.00250E+01 5.00000E+01 0.00000E+00
 -1      1185 8.29500E+01 5.00000E+01 0.00000E+00
 -1      1186 8.59500E+01 5.00000E+01 0.00000E+00
 -1      1187 8.89500E+01 5.00000E+01 0.00000E+00
 -1      1188 9.19500E+01 5.00000E+01 0.00000E+00
 -1      1189 9.49500E+01 5.00000E+01 0.00000E+00
 -1      1190 9.79500E+01 5.00000E+01 0.00000E+00
 -1      1191 1.00950E+02 5.00000E+01 0.00000E+00
 -1      1192 1.03875E+02 5.00000E+01 0.00000E+00
 -1      1193 1.06800E+02 5.00000E+01 0.00000E+00
 -1      1194 1.09800E+02 5.00000E+01 0.00000E+00
 -1      1195 1.12800E+02 5.00000E+01 0.00000E+00
 -1      1196 1.15800E+02 5.00000E+01 0.00000E+00
 -1      1197 1.18800E+02 5.00000E+01 0.00000E+00
 -1      1198 1.21800E+02 5.00000E+01 0.00000E+00
 -1      1199 1.24800E+02 5.00000E+01 0.00000E+00
 -1      1200 1.27725E+02 5.00000E+01 0.00000E+00
 -1      1201 1.30650E+02 5.00000E+01 0.00000E+00
 -1      1202 1.33650E+02 5.00000E+01 0.00000E+00
 -1      1203 1.36650E+02 5.00000E+01 0.00000E+00
 -1      1204 1.39650E+02 5.00000E+01 0.00000E+00
 -1      1205 1.42650E+02 5.00000E+01 0.00000E+00
 -1      1206 1.45650E+02 5.00000E+01 0.00000E+00
 -1      1207 1.48575E+02 5.00000E+01 0.00000E+00
 -1      1208 1.57500E+00 0.00000E+00 0.00000E+00
 -1      1209 4.65000E+00 0.00000E+00 0.00000E+00
 -1      1210 7.65000E+00 0.00000E+00 0.00000E+00
 -1      1211 1.06500E+01 0.00000E+00 0.00000E+00
 -1      1212 1.36500E+01 0.00000E+00 0.00000E+00
 -1      1213 1.66500E+01 0.00000E+00 0.00000E+00
 -1      1214 1.96500E+01 0.00000E+00 0.00000E+00
 -1      1215 2.26500E+01 0.00000E+00 0.00000E+00
 -1      1216 2.56500E+01 0.00000E+00 0.00000E+00
 -1      1217 2.86500E+01 0.00000E+00 0.00000E+00
 -1      1218 3.16500E+01 0.00000E+00 0.00000E+00
 -1      1219 3.46500E+01 0.00000E+00 0.00000E+00
 -1      1220 3.76500E+01 0.00000E+00 0.00000E+00
 -1      1221 4.06500E+01 0.00000E+00 0.00000E+00
 -1      1222 4.36500E+01 0.00000E+00 0.00000E+00
 -1      1223 4.66500E+01 0.00000E+00 0.00000E+00
 -1      1224 4.96500E+01 0.00000E+00 0.00000E+00
 -1      1225 5.26500E+01 0.00000E+00 0.00000E+00
 -1      1226 5.56500E+01 0.00000E+00 0.00000E+00
 -1      1227 5.86500E+01 0.00000E+00 0.00000E+00
 -1      1228 6.16500E+01 0.00000E+00 0.00000E+00
 -1      1229 6.46500E+01 0.00000E+00 0.00000E+00
 -1      1230 6.76500E+01 0.00000E+00 0.00000E+00
 -1      1231 7.06500E+01 0.00000E+00 0.00000E+00
 -1      1232 7.36500E+01 0.00000E+00 0.00000E+00
 -1      1233 7.66500E+01 0.00000E+00 0.00000E+00
 -1      1234 7.96500E+01 0.00000E+00 0.00000E+00
 -1      1235 8.26500E+01 0.00000E+00 0.00000E+00
 -1      1236 8.56500E+01 0.00000E+00 0.00000E+00
 -1      1237 8.86500E+01 0.00000E+00 0.00000E+00
 -1      1238 9.16500E+01 0.00000E+00 0.00000E+00
 -1      1239 9.46500E+01 0.00000E+00 0.00000E+00
 -1      1240 9.76500E+01 0.00000E+00 0.00000E+00
 -1      1241 1.00650E+02 0.00000E+00 0.00000E+00
 -1      1242 1.03650E+02 0.00000E+00 0.00000E+00
 -1      1243 1.06650E+02 0.00000E+00 0.00000E+00
 -1      1244 1.09650E+02 0.00000E+00 0.00000E+00
 -1      1245 1.12650E+02 0.00000E+00 0.00000E+00
 -1      1246 1.15650E+02 0.00000E+00 0.00000E+00
 -1      1247 1.18650E+02 0.00000E+00 0.00000E+00
 -1      1248 1.21650E+02 0.00000E+00 0.00000E+00
 -1      1249 1.24650E+02 0.00000E+00 0.00000E+00
 -1      1250 1.27650E+02 0.00000E+00 0.00000E+00
 -1      1251 1.30650E+02 0.00000E+00 0.00000E+00
 -1      1252 1.33650E+02 0.00000E+00 0.00000E+00
 -1      1253 1.36650E+02 0.00000E+00 0.00000E+00
 -1      1254 1.39650E+02 0.00000E+00 0.00000E+00
 -1      1255 1.42650E+02 0.00000E+00 0.00000E+00
 -1      1256 1.45650E+02 0.00000E+00 0.00000E+00
 -1      1257 1.48575E+02 0.00000E+00 0.00000E+00
 -1      1258 1.50000E+02 1.47500E+00 0.00000E+00
 -1      1259 1.50000E+02 4.42500E+00 0.00000E+00
 -1      1260 1.50000E+02 7.37500E+00 0.00000E+00
 -1      1261 1.50000E+02 1.03250E+01 0.00000E+00
 -1      1262 1.50000E+02 1.32750E+01 0.00000E+00
 -1      1263 1.50000E+02 1.62000E+01 0.00000E+00
 -1      1264 1.50000E+02 1.91250E+01 0.00000E+00
 -1      1265 1.50000E+02 2.20750E+01 0.00000E+00
 -1      1266 1.50000E+02 2.50250E+01 0.00000E+00
 -1      1267 1.50000E+02 2.79750E+01 0.00000E+00
 -1      1268 1.50000E+02 3.09250E+01 0.00000E+00
 -1      1269 1.50000E+02 3.38500E+01 0.00000E+00
 -1      1270 1.50000E+02 3.67750E+01 0.00000E+00
 -1      1271 1.50000E+02 3.97250E+01 0.00000E+00
 -1      1272 1.50000E+02 4.26750E+01 0.00000E+00
 -1      1273 1.50000E+02 4.56250E+01 0.00000E+00
 -1      1274 1.50000E+02 4.85500E+01 0.00000E+00
 -1      1275 7.20621E+01 3.77067E+01 0.00000E+00
 -1      1276 7.17276E+01 3.62112E+01 0.00000E+00
 -1      1277 7.11024E+01 3.48685E+01 0.00000E+00
 -1      1278 7.01943E+01 3.36721E+01 0.00000E+00
 -1      1279 6.90216E+01 3.26765E+01 0.00000E+00
 -1      1280 6.75764E+01 3.19289E+01 0.00000E+00
 -1      1281 6.60138E+01 3.15373E+01 0.00000E+00
 -1      1282 6.44529E+01 3.15085E+01 0.00000E+00
 -1      1283 6.28801E+01 3.18409E+01 0.00000E+00
 -1      1284 6.14982E+01 3.24787E+01 0.00000E+00
 -1      1285 6.02574E+01 3.34280E+01 0.00000E+00
 -1      1286 5.92459E+01 3.46473E+01 0.00000E+00
 -1      1287 5.85766E+01 3.59515E+01 0.00000E+00
 -1      1288 5.81932E+01 3.73690E+01 0.00000E+00
 -1      1289 5.81157E+01 3.88687E+01 0.00000E+00
 -1      1290 5.83545E+01 4.03313E+01 0.00000E+00
 -1      1291 5.89018E+01 4.17220E+01 0.00000E+00
 -1      1292 5.97290E+01 4.29615E+01 0.00000E+00
 -1      1293 6.08566E+01 4.40416E+01 0.00000E+00
 -1      1294 6.21876E+01 4.48412E+01 0.00000E+00
 -1      1295 6.36830E+01 4.53321E+01 0.00000E+00
 -1      1296 6.52377E+01 4.54768E+01 0.00000E+00
 -1      1297 6.66866E+01 4.52970E+01 0.00000E+00
 -1      1298 6.80401E+01 4.48329E+01 0.00000E+00
 -1      1299 6.92866E+01 4.40916E+01 0.00000E+00
 -1      1300 7.03536E+01 4.31094E+01 0.00000E+00
 -1      1301 7.11921E+01 4.19341E+01 0.00000E+00
 -1      1302 7.17751E+01 4.06007E+01 0.00000E+00
 -1      1303 7.20668E+01 3.92058E+01 0.00000E+00
 -1      1304 1.50000E+00 4.85250E+01 0.00000E+00
 -1      1305 1.29900E+00 4.48375E+01 0.00000E+00
 -1      1306 1.29900E+00 4.63125E+01 0.00000E+00
 -1      1307 1.29900E+00 4.18875E+01 0.00000E+00
 -1      1308 1.29900E+00 4.33625E+01 0.00000E+00
 -1      1309 2.59800E+00 4.41000E+01 0.00000E+00
 -1      1310 1.29900E+00 3.89375E+01 0.00000E+00
 -1      1311 1.29900E+00 4.04125E+01 0.00000E+00
 -1      1312 2.59800E+00 4.11500E+01 0.00000E+00
 -1      1313 1.29900E+00 3.59875E+01 0.00000E+00
 -1      1314 1.29900E+00 3.74625E+01 0.00000E+00
 -1      1315 2.59800E+00 3.82000E+01 0.00000E+00
 -1      1316 1.29900E+00 3.30875E+01 0.00000E+00
 -1      1317 1.29900E+00 3.45375E+01 0.00000E+00
 -1      1318 2.59800E+00 3.52750E+01 0.00000E+00
 -1      1319 1.29900E+00 3.01375E+01 0.00000E+00
 -1      1320 1.29900E+00 3.16125E+01 0.00000E+00
 -1      1321 2.59800E+00 3.23500E+01 0.00000E+00
 -1      1322 1.29900E+00 2.71875E+01 0.00000E+00
 -1      1323 1.29900E+00 2.86625E+01 0.00000E+00
 -1      1324 2.59800E+00 2.94000E+01 0.00000E+00
 -1      1325 1.29900E+00 2.42375E+01 0.00000E+00
 -1      1326 1.29900E+00 2.57125E+01 0.00000E+00
 -1      1327 2.59800E+00 2.64500E+01 0.00000E+00
 -1      1328 1.29900E+00 2.12875E+01 0.00000E+00
 -1      1329 1.29900E+00 2.27625E+01 0.00000E+00
 -1      1330 2.59800E+00 2.35000E+01 0.00000E+00
 -1      1331 1.29900E+00 1.83375E+01 0.00000E+00
 -1      1332 1.29900E+00 1.98125E+01 0.00000E+00
 -1      1333 2.59800E+00 2.05500E+01 0.00000E+00
 -1      1334 1.29900E+00 1.54375E+01 0.00000E+00
 -1      1335 1.29900E+00 1.68875E+01 0.00000E+00
 -1      1336 2.59800E+00 1.76250E+01 0.00000E+00
 -1      1337 1.29900E+00 1.24875E+01 0.00000E+00
 -1      1338 1.29900E+00 1.39625E+01 0.00000E+00
 -1      1339 2.59800E+00 1.47000E+01 0.00000E+00
 -1      1340 1.29900E+00 9.53750E+00 0.00000E+00
 -1      1341 1.29900E+00 1.10125E+01 0.00000E+00
 -1      1342 2.59800E+00 1.17500E+01 0.00000E+00
 -1      1343 1.29900E+00 6.58750E+00 0.00000E+00
 -1      1344 1.29900E+00 8.06250E+00 0.00000E+00
 -1      1345 2.59800E+00 8.80000E+00 0.00000E+00
 -1      1346 1.29900E+00 3.63750E+00 0.00000E+00
 -1      1347 1.29900E+00 5.11250E+00 0.00000E+00
 -1      1348 2.59800E+00 5.85000E+00 0.00000E+00
 -1      1349 1.43700E+00 1.09375E+00 0.00000E+00
 -1      1350 1.43700E+00 2.54375E+00 0.00000E+00
 -1      1351 2.73600E+00 3.28125E+00 0.00000E+00
 -1      1352 3.01200E+00 1.09375E+00 0.00000E+00
 -1      1353 3.75000E+00 4.87010E+01 0.00000E+00
 -1      1354 5.25000E+00 4.87010E+01 0.00000E+00
 -1      1355 6.75000E+00 4.87010E+01 0.00000E+00
 -1      1356 8.25000E+00 4.87010E+01 0.00000E+00
 -1      1357 6.00000E+00 4.74020E+01 0.00000E+00
 -1      1358 9.75000E+00 4.87010E+01 0.00000E+00
 -1      1359 1.12500E+01 4.87010E+01 0.00000E+00
 -1      1360 9.00000E+00 4.74020E+01 0.00000E+00
 -1      1361 1.27500E+01 4.87010E+01 0.00000E+00
 -1      1362 1.42500E+01 4.87010E+01 0.00000E+00
 -1      1363 1.20000E+01 4.74020E+01 0.00000E+00
 -1      1364 1.57500E+01 4.87010E+01 0.00000E+00
 -1      1365 1.72500E+01 4.87010E+01 0.00000E+00
 -1      1366 1.50000E+01 4.74020E+01 0.00000E+00
 -1      1367 1.87500E+01 4.87010E+01 0.00000E+00
 -1      1368 2.02500E+01 4.87010E+01 0.00000E+00
 -1      1369 1.80000E+01 4.74020E+01 0.00000E+00
 -1      1370 2.16750E+01 4.87010E+01 0.00000E+00
 -1      1371 2.31000E+01 4.87010E+01 0.00000E+00
 -1      1372 2.09250E+01 4.74020E+01 0.00000E+00
 -1      1373 2.46000E+01 4.87010E+01 0.00000E+00
 -1      1374 2.61000E+01 4.87010E+01 0.00000E+00
 -1      1375 2.38500E+01 4.74020E+01 0.00000E+00
 -1      1376 2.76000E+01 4.87010E+01 0.00000E+00
 -1      1377 2.91000E+01 4.87010E+01 0.00000E+00
 -1      1378 2.68500E+01 4.74020E+01 0.00000E+00
 -1      1379 3.06000E+01 4.87010E+01 0.00000E+00
 -1      1380 3.21000E+01 4.87010E+01 0.00000E+00
 -1      1381 2.98500E+01 4.74020E+01 0.00000E+00
 -1      1382 3.36000E+01 4.87010E+01 0.00000E+00
 -1      1383 3.51000E+01 4.87010E+01 0.00000E+00
 -1      1384 3.28500E+01 4.74020E+01 0.00000E+00
 -1      1385 3.66000E+01 4.87010E+01 0.00000E+00
 -1      1386 3.81000E+01 4.87010E+01 0.00000E+00
 -1      1387 3.58500E+01 4.74020E+01 0.00000E+00
 -1      1388 3.96000E+01 4.87010E+01 0.00000E+00
 -1      1389 4.11000E+01 4.87010E+01 0.00000E+00
 -1      1390 3.88500E+01 4.74020E+01 0.00000E+00
 -1      1391 4.26000E+01 4.87010E+01 0.00000E+00
 -1      1392 4.41000E+01 4.87010E+01 0.00000E+00
 -1      1393 4.18500E+01 4.74020E+01 0.00000E+00
 -1      1394 4.55250E+01 4.87010E+01 0.00000E+00
 -1      1395 4.69500E+01 4.87010E+01 0.00000E+00
 -1      1396 4.47750E+01 4.74020E+01 0.00000E+00
 -1      1397 4.84500E+01 4.87010E+01 0.00000E+00
 -1      1398 4.99500E+01 4.87010E+01 0.00000E+00
 -1      1399 4.77000E+01 4.74020E+01 0.00000E+00
 -1      1400 5.14500E+01 4.87010E+01 0.00000E+00
 -1      1401 5.29500E+01 4.87010E+01 0.00000E+00
 -1      1402 5.07000E+01 4.74020E+01 0.00000E+00
 -1      1403 5.43750E+01 4.87010E+01 0.00000E+00
 -1      1404 5.58000E+01 4.87010E+01 0.00000E+00
 -1      1405 5.36250E+01 4.74020E+01 0.00000E+00
 -1      1406 5.72250E+01 4.87010E+01 0.00000E+00
 -1      1407 5.86500E+01 4.87010E+01 0.00000E+00
 -1      1408 5.64750E+01 4.74020E+01 0.00000E+00
 -1      1409 5.98500E+01 4.87010E+01 0.00000E+00
 -1      1410 6.10500E+01 4.87010E+01 0.00000E+00
 -1      1411 5.91000E+01 4.74020E+01 0.00000E+00
 -1      1412 6.45750E+01 4.90587E+01 0.00000E+00
 -1      1413 6.56250E+01 4.90587E+01 0.00000E+00
 -1      1414 6.66750E+01 4.90587E+01 0.00000E+00
 -1      1415 6.77250E+01 4.90587E+01 0.00000E+00
 -1      1416 6.61500E+01 4.81173E+01 0.00000E+00
 -1      1417 6.88500E+01 4.90587E+01 0.00000E+00
 -1      1418 6.99750E+01 4.90587E+01 0.00000E+00
 -1      1419 6.83250E+01 4.81173E+01 0.00000E+00
 -1      1420 7.12500E+01 4.90587E+01 0.00000E+00
 -1      1421 7.25250E+01 4.90587E+01 0.00000E+00
 -1      1422 7.07250E+01 4.81173E+01 0.00000E+00
 -1      1423 7.38000E+01 4.90587E+01 0.00000E+00
 -1      1424 7.50750E+01 4.90587E+01 0.00000E+00
 -1      1425 7.32750E+01 4.81173E+01 0.00000E+00
 -1      1426 7.65750E+01 4.90587E+01 0.00000E+00
 -1      1427 7.80750E+01 4.90587E+01 0.00000E+00
 -1      1428 7.60500E+01 4.81173E+01 0.00000E+00
 -1      1429 7.95000E+01 4.90587E+01 0.00000E+00
 -1      1430 8.09250E+01 4.90587E+01 0.00000E+00
 -1      1431 7.89750E+01 4.81173E+01 0.00000E+00
 -1      1432 8.24250E+01 4.90587E+01 0.00000E+00
 -1      1433 8.39250E+01 4.90587E+01 0.00000E+00
 -1      1434 8.19000E+01 4.81173E+01 0.00000E+00
 -1      1435 8.54250E+01 4.90587E+01 0.00000E+00
 -1      1436 8.69250E+01 4.90587E+01 0.00000E+00
 -1      1437 8.49000E+01 4.81173E+01 0.00000E+00
 -1      1438 8.84250E+01 4.90587E+01 0.00000E+00
 -1      1439 8.99250E+01 4.90587E+01 0.00000E+00
 -1      1440 8.79000E+01 4.81173E+01 0.00000E+00
 -1      1441 9.14250E+01 4.90587E+01 0.00000E+00
 -1      1442 9.29250E+01 4.90587E+01 0.00000E+00
 -1      1443 9.09000E+01 4.81173E+01 0.00000E+00
 -1      1444 9.44250E+01 4.90587E+01 0.00000E+00
 -1      1445 9.59250E+01 4.90587E+01 0.00000E+00
 -1      1446 9.39000E+01 4.81173E+01 0.00000E+00
 -1      1447 9.74250E+01 4.90587E+01 0.00000E+00
 -1      1448 9.89250E+01 4.90587E+01 0.00000E+00
 -1      1449 9.69000E+01 4.81173E+01 0.00000E+00
 -1      1450 1.00425E+02 4.90587E+01 0.00000E+00
 -1      1451 1.01925E+02 4.90587E+01 0.00000E+00
 -1      1452 9.99000E+01 4.81173E+01 0.00000E+00
 -1      1453 1.03350E+02 4.90587E+01 0.00000E+00
 -1      1454 1.04775E+02 4.90587E+01 0.00000E+00
 -1      1455 1.02825E+02 4.81173E+01 0.00000E+00
 -1      1456 1.06275E+02 4.90587E+01 0.00000E+00
 -1      1457 1.07775E+02 4.90587E+01 0.00000E+00
 -1      1458 1.05750E+02 4.81173E+01 0.00000E+00
 -1      1459 1.09275E+02 4.90587E+01 0.00000E+00
 -1      1460 1.10775E+02 4.90587E+01 0.00000E+00
 -1      1461 1.08750E+02 4.81173E+01 0.00000E+00
 -1      1462 1.12275E+02 4.90587E+01 0.00000E+00
 -1      1463 1.13775E+02 4.90587E+01 0.00000E+00
 -1      1464 1.11750E+02 4.81173E+01 0.00000E+00
 -1      1465 1.15275E+02 4.90587E+01 0.00000E+00
 -1      1466 1.16775E+02 4.90587E+01 0.00000E+00
 -1      1467 1.14750E+02 4.81173E+01 0.00000E+00
 -1      1468 1.18275E+02 4.90587E+01 0.00000E+00
 -1      1469 1.19775E+02 4.90587E+01 0.00000E+00
 -1      1470 1.17750E+02 4.81173E+01 0.00000E+00
 -1      1471 1.21275E+02 4.90587E+01 0.00000E+00
 -1      1472 1.22775E+02 4.90587E+01 0.00000E+00
 -1      1473 1.20750E+02 4.81173E+01 0.00000E+00
 -1      1474 1.24275E+02 4.90587E+01 0.00000E+00
 -1      1475 1.25775E+02 4.90587E+01 0.00000E+00
 -1      1476 1.23750E+02 4.81173E+01 0.00000E+00
 -1      1477 1.27200E+02 4.90587E+01 0.00000E+00
 -1      1478 1.28625E+02 4.90587E+01 0.00000E+00
 -1      1479 1.26675E+02 4.81173E+01 0.00000E+00
 -1      1480 1.30125E+02 4.90587E+01 0.00000E+00
 -1      1481 1.31625E+02 4.90587E+01 0.00000E+00
 -1      1482 1.29600E+02 4.81173E+01 0.00000E+00
 -1      1483 1.33125E+02 4.90587E+01 0.00000E+00
 -1      1484 1.34625E+02 4.90587E+01 0.00000E+00
 -1      1485 1.32600E+02 4.81173E+01 0.00000E+00
 -1      1486 1.36125E+02 4.90587E+01 0.00000E+00
 -1      1487 1.37625E+02 4.90587E+01 0.00000E+00
 -1      1488 1.35600E+02 4.81173E+01 0.00000E+00
 -1      1489 1.39125E+02 4.90587E+01 0.00000E+00
 -1      1490 1.40625E+02 4.90587E+01 0.00000E+00
 -1      1491 1.38600E+02 4.81173E+01 0.00000E+00
 -1      1492 1.42125E+02 4.90587E+01 0.00000E+00
 -1      1493 1.43625E+02 4.90587E+01 0.00000E+00
 -1      1494 1.41600E+02 4.81173E+01 0.00000E+00
 -1      1495 1.45125E+02 4.90587E+01 0.00000E+00
 -1      1496 1.46625E+02 4.90587E+01 0.00000E+00
 -1      1497 1.44600E+02 4.81173E+01 0.00000E+00
 -1      1498 1.47600E+02 4.88043E+01 0.00000E+00
 -1      1499 1.49025E+02 4.88043E+01 0.00000E+00
 -1      1500 1.49025E+02 4.73543E+01 0.00000E+00
 -1      1501 1.47075E+02 4.78630E+01 0.00000E+00
 -1      1502 6.01200E+00 1.09375E+00 0.00000E+00
 -1      1503 4.51200E+00 1.09375E+00 0.00000E+00
 -1      1504 4.37400E+00 2.18750E+00 0.00000E+00
 -1      1505 9.01200E+00 1.09375E+00 0.00000E+00
 -1      1506 7.51200E+00 1.09375E+00 0.00000E+00
 -1      1507 7.37400E+00 2.18750E+00 0.00000E+00
 -1      1508 1.20120E+01 1.09375E+00 0.00000E+00
 -1      1509 1.05120E+01 1.09375E+00 0.00000E+00
 -1      1510 1.03740E+01 2.18750E+00 0.00000E+00
 -1      1511 1.50120E+01 1.09375E+00 0.00000E+00
 -1      1512 1.35120E+01 1.09375E+00 0.00000E+00
 -1      1513 1.33740E+01 2.18750E+00 0.00000E+00
 -1      1514 1.80120E+01 1.09375E+00 0.00000E+00
 -1      1515 1.65120E+01 1.09375E+00 0.00000E+00
 -1      1516 1.63740E+01 2.18750E+00 0.00000E+00
 -1      1517 2.10120E+01 1.09375E+00 0.00000E+00
 -1      1518 1.95120E+01 1.09375E+00 0.00000E+00
 -1      1519 1.93740E+01 2.18750E+00 0.00000E+00
 -1      1520 2.40120E+01 1.09375E+00 0.00000E+00
 -1      1521 2.25120E+01 1.09375E+00 0.00000E+00
 -1      1522 2.23740E+01 2.18750E+00 0.00000E+00
 -1      1523 2.70120E+01 1.09375E+00 0.00000E+00
 -1      1524 2.55120E+01 1.09375E+00 0.00000E+00
 -1      1525 2.53740E+01 2.18750E+00 0.00000E+00
 -1      1526 3.00120E+01 1.09375E+00 0.00000E+00
 -1      1527 2.85120E+01 1.09375E+00 0.00000E+00
 -1      1528 2.83740E+01 2.18750E+00 0.00000E+00
 -1      1529 3.30120E+01 1.09375E+00 0.00000E+00
 -1      1530 3.15120E+01 1.09375E+00 0.00000E+00
 -1      1531 3.13740E+01 2.18750E+00 0.00000E+00
 -1      1532 3.60120E+01 1.09375E+00 0.00000E+00
 -1      1533 3.45120E+01 1.09375E+00 0.00000E+00
 -1      1534 3.43740E+01 2.18750E+00 0.00000E+00
 -1      1535 3.90120E+01 1.09375E+00 0.00000E+00
 -1      1536 3.75120E+01 1.09375E+00 0.00000E+00
 -1      1537 3.73740E+01 2.18750E+00 0.00000E+00
 -1      1538 4.20120E+01 1.09375E+00 0.00000E+00
 -1      1539 4.05120E+01 1.09375E+00 0.00000E+00
 -1      1540 4.03740E+01 2.18750E+00 0.00000E+00
 -1      1541 4.50120E+01 1.09375E+00 0.00000E+00
 -1      1542 4.35120E+01 1.09375E+00 0.00000E+00
 -1      1543 4.33740E+01 2.18750E+00 0.00000E+00
 -1      1544 4.80120E+01 1.09375E+00 0.00000E+00
 -1      1545 4.65120E+01 1.09375E+00 0.00000E+00
 -1      1546 4.63740E+01 2.18750E+00 0.00000E+00
 -1      1547 5.10120E+01 1.09375E+00 0.00000E+00
 -1      1548 4.95120E+01 1.09375E+00 0.00000E+00
 -1      1549 4.93740E+01 2.18750E+00 0.00000E+00
 -1      1550 5.40120E+01 1.09375E+00 0.00000E+00
 -1      1551 5.25120E+01 1.09375E+00 0.00000E+00
 -1      1552 5.23740E+01 2.18750E+00 0.00000E+00
 -1      1553 5.70120E+01 1.09375E+00 0.00000E+00
 -1      1554 5.55120E+01 1.09375E+00 0.00000E+00
 -1      1555 5.53740E+01 2.18750E+00 0.00000E+00
 -1      1556 6.00120E+01 1.09375E+00 0.00000E+00
 -1      1557 5.85120E+01 1.09375E+00 0.00000E+00
 -1      1558 5.83740E+01 2.18750E+00 0.00000E+00
 -1      1559 6.30120E+01 1.09375E+00 0.00000E+00
 -1      1560 6.15120E+01 1.09375E+00 0.00000E+00
 -1      1561 6.13740E+01 2.18750E+00 0.00000E+00
 -1      1562 6.60120E+01 1.09375E+00 0.00000E+00
 -1      1563 6.45120E+01 1.09375E+00 0.00000E+00
 -1      1564 6.43740E+01 2.18750E+00 0.00000E+00
 -1      1565 6.90120E+01 1.09375E+00 0.00000E+00
 -1      1566 6.75120E+01 1.09375E+00 0.00000E+00
 -1      1567 6.73740E+01 2.18750E+00 0.00000E+00
 -1      1568 7.20120E+01 1.09375E+00 0.00000E+00
 -1      1569 7.05120E+01 1.09375E+00 0.00000E+00
 -1      1570 7.03740E+01 2.18750E+00 0.00000E+00
 -1      1571 7.50120E+01 1.09375E+00 0.00000E+00
 -1      1572 7.35120E+01 1.09375E+00 0.00000E+00
 -1      1573 7.33740E+01 2.18750E+00 0.00000E+00
 -1      1574 7.80120E+01 1.09375E+00 0.00000E+00
 -1      1575 7.65120E+01 1.09375E+00 0.00000E+00
 -1      1576 7.63740E+01 2.18750E+00 0.00000E+00
 -1      1577 8.10120E+01 1.09375E+00 0.00000E+00
 -1      1578 7.95120E+01 1.09375E+00 0.00000E+00
 -1      1579 7.93740E+01 2.18750E+00 0.00000E+00
 -1      1580 8.40120E+01 1.09375E+00 0.00000E+00
 -1      1581 8.25120E+01 1.09375E+00 0.00000E+00
 -1      1582 8.23740E+01 2.18750E+00 0.00000E+00
 -1      1583 8.70120E+01 1.09375E+00 0.00000E+00
 -1      1584 8.55120E+01 1.09375E+00 0.00000E+00
 -1      1585 8.53740E+01 2.18750E+00 0.00000E+00
 -1      1586 9.00120E+01 1.09375E+00 0.00000E+00
 -1      1587 8.85120E+01 1.09375E+00 0.00000E+00
 -1      1588 8.83740E+01 2.18750E+00 0.00000E+00
 -1      1589 9.30120E+01 1.09375E+00 0.00000E+00
 -1      1590 9.15120E+01 1.09375E+00 0.00000E+00
 -1      1591 9.13740E+01 2.18750E+00 0.00000E+00
 -1      1592 9.60120E+01 1.09375E+00 0.00000E+00
 -1      1593 9.45120E+01 1.09375E+00 0.00000E+00
 -1      1594 9.43740E+01 2.18750E+00 0.00000E+00
 -1      1595 9.90120E+01 1.09375E+00 0.00000E+00
 -1      1596 9.75120E+01 1.09375E+00 0.00000E+00
 -1      1597 9.73740E+01 2.18750E+00 0.00000E+00
 -1      1598 1.02012E+02 1.09375E+00 0.00000E+00
 -1      1599 1.00512E+02 1.09375E+00 0.00000E+00
 -1      1600 1.00374E+02 2.18750E+00 0.00000E+00
 -1      1601 1.05012E+02 1.09375E+00 0.00000E+00
 -1      1602 1.03512E+02 1.09375E+00 0.00000E+00
 -1      1603 1.03374E+02 2.18750E+00 0.00000E+00
 -1      1604 1.08012E+02 1.09375E+00 0.00000E+00
 -1      1605 1.06512E+02 1.09375E+00 0.00000E+00
 -1      1606 1.06374E+02 2.18750E+00 0.00000E+00
 -1      1607 1.11012E+02 1.09375E+00 0.00000E+00
 -1      1608 1.09512E+02 1.09375E+00 0.00000E+00
 -1      1609 1.09374E+02 2.18750E+00 0.00000E+00
 -1      1610 1.14012E+02 1.09375E+00 0.00000E+00
 -1      1611 1.12512E+02 1.09375E+00 0.00000E+00
 -1      1612 1.12374E+02 2.18750E+00 0.00000E+00
 -1      1613 1.17012E+02 1.09375E+00 0.00000E+00
 -1      1614 1.15512E+02 1.09375E+00 0.00000E+00
 -1      1615 1.15374E+02 2.18750E+00 0.00000E+00
 -1      1616 1.20012E+02 1.09375E+00 0.00000E+00
 -1      1617 1.18512E+02 1.09375E+00 0.00000E+00
 -1      1618 1.18374E+02 2.18750E+00 0.00000E+00
 -1      1619 1.23012E+02 1.09375E+00 0.00000E+00
 -1      1620 1.21512E+02 1.09375E+00 0.00000E+00
 -1      1621 1.21374E+02 2.18750E+00 0.00000E+00
 -1      1622 1.26012E+02 1.09375E+00 0.00000E+00
 -1      1623 1.24512E+02 1.09375E+00 0.00000E+00
 -1      1624 1.24374E+02 2.18750E+00 0.00000E+00
 -1      1625 1.29012E+02 1.09375E+00 0.00000E+00
 -1      1626 1.27512E+02 1.09375E+00 0.00000E+00
 -1      1627 1.27374E+02 2.18750E+00 0.00000E+00
 -1      1628 1.32012E+02 1.09375E+00 0.00000E+00
 -1      1629 1.30512E+02 1.09375E+00 0.00000E+00
 -1      1630 1.30374E+02 2.18750E+00 0.00000E+00
 -1      1631 1.35012E+02 1.09375E+00 0.00000E+00
 -1      1632 1.33512E+02 1.09375E+00 0.00000E+00
 -1      1633 1.33374E+02 2.18750E+00 0.00000E+00
 -1      1634 1.38012E+02 1.09375E+00 0.00000E+00
 -1      1635 1.36512E+02 1.09375E+00 0.00000E+00
 -1      1636 1.36374E+02 2.18750E+00 0.00000E+00
 -1      1637 1.41012E+02 1.09375E+00 0.00000E+00
 -1      1638 1.39512E+02 1.09375E+00 0.00000E+00
 -1      1639 1.39374E+02 2.18750E+00 0.00000E+00
 -1      1640 1.44012E+02 1.09375E+00 0.00000E+00
 -1      1641 1.42512E+02 1.09375E+00 0.00000E+00
 -1      1642 1.42374E+02 2.18750E+00 0.00000E+00
 -1      1643 1.47012E+02 1.09375E+00 0.00000E+00
 -1      1644 1.45512E+02 1.09375E+00 0.00000E+00
 -1      1645 1.45374E+02 2.18750E+00 0.00000E+00
 -1      1646 1.48575E+02 1.47500E+00 0.00000E+00
 -1      1647 1.48701E+02 5.16250E+00 0.00000E+00
 -1      1648 1.48701E+02 3.68750E+00 0.00000E+00
 -1      1649 1.48701E+02 8.11250E+00 0.00000E+00
 -1      1650 1.48701E+02 6.63750E+00 0.00000E+00
 -1      1651 1.47402E+02 5.90000E+00 0.00000E+00
 -1      1652 1.48701E+02 1.10625E+01 0.00000E+00
 -1      1653 1.48701E+02 9.58750E+00 0.00000E+00
 -1      1654 1.47402E+02 8.85000E+00 0.00000E+00
 -1      1655 1.48701E+02 1.40125E+01 0.00000E+00
 -1      1656 1.48701E+02 1.25375E+01 0.00000E+00
 -1      1657 1.47402E+02 1.18000E+01 0.00000E+00
 -1      1658 1.48701E+02 1.69125E+01 0.00000E+00
 -1      1659 1.48701E+02 1.54625E+01 0.00000E+00
 -1      1660 1.47402E+02 1.47250E+01 0.00000E+00
 -1      1661 1.48701E+02 1.98625E+01 0.00000E+00
 -1      1662 1.48701E+02 1.83875E+01 0.00000E+00
 -1      1663 1.47402E+02 1.76500E+01 0.00000E+00
 -1      1664 1.48701E+02 2.28125E+01 0.00000E+00
 -1      1665 1.48701E+02 2.13375E+01 0.00000E+00
 -1      1666 1.47402E+02 2.06000E+01 0.00000E+00
 -1      1667 1.48701E+02 2.57625E+01 0.00000E+00
 -1      1668 1.48701E+02 2.42875E+01 0.00000E+00
 -1      1669 1.47402E+02 2.35500E+01 0.00000E+00
 -1      1670 1.48701E+02 2.87125E+01 0.00000E+00
 -1      1671 1.48701E+02 2.72375E+01 0.00000E+00
 -1      1672 1.47402E+02 2.65000E+01 0.00000E+00
 -1      1673 1.48701E+02 3.16625E+01 0.00000E+00
 -1      1674 1.48701E+02 3.01875E+01 0.00000E+00
 -1      1675 1.47402E+02 2.94500E+01 0.00000E+00
 -1      1676 1.48701E+02 3.45625E+01 0.00000E+00
 -1      1677 1.48701E+02 3.31125E+01 0.00000E+00
 -1      1678 1.47402E+02 3.23750E+01 0.00000E+00
 -1      1679 1.48701E+02 3.75125E+01 0.00000E+00
 -1      1680 1.48701E+02 3.60375E+01 0.00000E+00
 -1      1681 1.47402E+02 3.53000E+01 0.00000E+00
 -1      1682 1.48701E+02 4.04625E+01 0.00000E+00
 -1      1683 1.48701E+02 3.89875E+01 0.00000E+00
 -1      1684 1.47402E+02 3.82500E+01 0.00000E+00
 -1      1685 1.48701E+02 4.34125E+01 0.00000E+00
 -1      1686 1.48701E+02 4.19375E+01 0.00000E+00
 -1      1687 1.47402E+02 4.12000E+01 0.00000E+00
 -1      1688 1.48863E+02 4.61209E+01 0.00000E+00
 -1      1689 1.48863E+02 4.46459E+01 0.00000E+00
 -1      1690 1.47564E+02 4.39084E+01 0.00000E+00
 -1      1691 1.47888E+02 4.63752E+01 0.00000E+00
 -1      1692 7.26630E+01 3.72520E+01 0.00000E+00
 -1      1693 7.27480E+01 3.80187E+01 0.00000E+00
 -1      1694 7.22179E+01 3.56412E+01 0.00000E+00
 -1      1695 7.24643E+01 3.63612E+01 0.00000E+00
 -1      1696 7.14043E+01 3.42666E+01 0.00000E+00
 -1      1697 7.17756E+01 3.48836E+01 0.00000E+00
 -1      1698 7.03957E+01 3.29442E+01 0.00000E+00
 -1      1699 7.09325E+01 3.35127E+01 0.00000E+00
 -1      1700 6.90478E+01 3.19617E+01 0.00000E+00
 -1      1701 6.96748E+01 3.23849E+01 0.00000E+00
 -1      1702 6.74528E+01 3.10238E+01 0.00000E+00
 -1      1703 6.82673E+01 3.13312E+01 0.00000E+00
 -1      1704 6.57204E+01 3.09271E+01 0.00000E+00
 -1      1705 6.64545E+01 3.10233E+01 0.00000E+00
 -1      1706 6.39845E+01 3.09078E+01 0.00000E+00
 -1      1707 6.48018E+01 3.08313E+01 0.00000E+00
 -1      1708 6.23286E+01 3.14332E+01 0.00000E+00
 -1      1709 6.30745E+01 3.11832E+01 0.00000E+00
 -1      1710 6.08907E+01 3.21818E+01 0.00000E+00
 -1      1711 6.15209E+01 3.18029E+01 0.00000E+00
 -1      1712 5.94572E+01 3.31914E+01 0.00000E+00
 -1      1713 6.00538E+01 3.26188E+01 0.00000E+00
 -1      1714 5.85306E+01 3.46321E+01 0.00000E+00
 -1      1715 5.89451E+01 3.39982E+01 0.00000E+00
 -1      1716 5.79169E+01 3.60761E+01 0.00000E+00
 -1      1717 5.81726E+01 3.54153E+01 0.00000E+00
 -1      1718 5.75339E+01 3.76480E+01 0.00000E+00
 -1      1719 5.76543E+01 3.68977E+01 0.00000E+00
 -1      1720 5.75286E+01 3.92730E+01 0.00000E+00
 -1      1721 5.74872E+01 3.85323E+01 0.00000E+00
 -1      1722 5.79058E+01 4.08383E+01 0.00000E+00
 -1      1723 5.77098E+01 4.01245E+01 0.00000E+00
 -1      1724 5.85755E+01 4.23182E+01 0.00000E+00
 -1      1725 5.82259E+01 4.16498E+01 0.00000E+00
 -1      1726 5.95290E+01 4.36076E+01 0.00000E+00
 -1      1727 5.90576E+01 4.30424E+01 0.00000E+00
 -1      1728 6.07956E+01 4.48017E+01 0.00000E+00
 -1      1729 6.01395E+01 4.43007E+01 0.00000E+00
 -1      1730 6.22813E+01 4.55094E+01 0.00000E+00
 -1      1731 6.16202E+01 4.52063E+01 0.00000E+00
 -1      1732 6.39592E+01 4.60844E+01 0.00000E+00
 -1      1733 6.31303E+01 4.59125E+01 0.00000E+00
 -1      1734 6.56066E+01 4.60814E+01 0.00000E+00
 -1      1735 6.48920E+01 4.60950E+01 0.00000E+00
 -1      1736 6.71964E+01 4.58462E+01 0.00000E+00
 -1      1737 6.64705E+01 4.60146E+01 0.00000E+00
 -1      1738 6.85914E+01 4.52089E+01 0.00000E+00
 -1      1739 6.79689E+01 4.54964E+01 0.00000E+00
 -1      1740 6.99803E+01 4.43830E+01 0.00000E+00
 -1      1741 6.93672E+01 4.48397E+01 0.00000E+00
 -1      1742 7.10098E+01 4.32310E+01 0.00000E+00
 -1      1743 7.05561E+01 4.37453E+01 0.00000E+00
 -1      1744 7.19434E+01 4.19249E+01 0.00000E+00
 -1      1745 7.15693E+01 4.25839E+01 0.00000E+00
 -1      1746 7.23664E+01 4.05958E+01 0.00000E+00
 -1      1747 7.21549E+01 4.12603E+01 0.00000E+00
 -1      1748 7.25678E+01 4.19305E+01 0.00000E+00
 -1      1749 7.27115E+01 3.89073E+01 0.00000E+00
 -1      1750 7.26358E+01 3.96311E+01 0.00000E+00
 -1      1751 6.14902E+01 4.75808E+01 0.00000E+00
 -1      1752 6.22402E+01 4.88798E+01 0.00000E+00
 -1      1753 6.33652E+01 4.88798E+01 0.00000E+00
 -1      1754 6.38902E+01 4.79385E+01 0.00000E+00
 -1      1755 7.33548E+01 3.84479E+01 0.00000E+00
 -1      1756 7.16376E+01 3.35086E+01 0.00000E+00
 -1      1757 1.48437E+02 2.56875E+00 0.00000E+00
 -1      1758 1.47138E+02 3.30625E+00 0.00000E+00
 -1      1759 7.31926E+01 3.66685E+01 0.00000E+00
 -1      1760 7.25516E+01 3.50201E+01 0.00000E+00
 -1      1761 7.04449E+01 3.21955E+01 0.00000E+00
 -1      1762 6.89434E+01 3.10057E+01 0.00000E+00
 -1      1763 6.71645E+01 3.03746E+01 0.00000E+00
 -1      1764 6.52475E+01 3.02783E+01 0.00000E+00
 -1      1765 6.34189E+01 3.04580E+01 0.00000E+00
 -1      1766 6.17012E+01 3.11031E+01 0.00000E+00
 -1      1767 6.00566E+01 3.19098E+01 0.00000E+00
 -1      1768 5.87076E+01 3.31537E+01 0.00000E+00
 -1      1769 5.78375E+01 3.47437E+01 0.00000E+00
 -1      1770 5.72168E+01 3.63485E+01 0.00000E+00
 -1      1771 5.69075E+01 3.80545E+01 0.00000E+00
 -1      1772 5.70420E+01 3.97904E+01 0.00000E+00
 -1      1773 5.75434E+01 4.14534E+01 0.00000E+00
 -1      1774 5.83457E+01 4.29891E+01 0.00000E+00
 -1      1775 5.94383E+01 4.44064E+01 0.00000E+00
 -1      1776 6.08735E+01 4.55043E+01 0.00000E+00
 -1      1777 6.25471E+01 4.63120E+01 0.00000E+00
 -1      1778 6.43288E+01 4.67256E+01 0.00000E+00
 -1      1779 6.61255E+01 4.66693E+01 0.00000E+00
 -1      1780 6.77619E+01 4.62527E+01 0.00000E+00
 -1      1781 6.93102E+01 4.55338E+01 0.00000E+00
 -1      1782 7.06617E+01 4.45270E+01 0.00000E+00
 -1      1783 7.17969E+01 4.32421E+01 0.00000E+00
 -1      1784 2.79900E+00 4.77875E+01 0.00000E+00
 -1      1785 7.30488E+01 4.03013E+01 0.00000E+00
 -1      1786 3.89700E+00 4.04125E+01 0.00000E+00
 -1      1787 3.89700E+00 4.18875E+01 0.00000E+00
 -1      1788 3.89700E+00 4.33625E+01 0.00000E+00
 -1      1789 3.89700E+00 4.48375E+01 0.00000E+00
 -1      1790 5.19600E+00 4.26250E+01 0.00000E+00
 -1      1791 3.89700E+00 3.45500E+01 0.00000E+00
 -1      1792 3.89700E+00 3.60000E+01 0.00000E+00
 -1      1793 3.89700E+00 3.16000E+01 0.00000E+00
 -1      1794 3.89700E+00 3.30750E+01 0.00000E+00
 -1      1795 5.19600E+00 3.38000E+01 0.00000E+00
 -1      1796 3.89700E+00 2.86500E+01 0.00000E+00
 -1      1797 3.89700E+00 3.01250E+01 0.00000E+00
 -1      1798 5.19600E+00 3.08500E+01 0.00000E+00
 -1      1799 3.89700E+00 2.57000E+01 0.00000E+00
 -1      1800 3.89700E+00 2.71750E+01 0.00000E+00
 -1      1801 5.19600E+00 2.79000E+01 0.00000E+00
 -1      1802 3.89700E+00 2.27500E+01 0.00000E+00
 -1      1803 3.89700E+00 2.42250E+01 0.00000E+00
 -1      1804 5.19600E+00 2.49500E+01 0.00000E+00
 -1      1805 3.89700E+00 1.98000E+01 0.00000E+00
 -1      1806 3.89700E+00 2.12750E+01 0.00000E+00
 -1      1807 5.19600E+00 2.20000E+01 0.00000E+00
 -1      1808 3.89700E+00 1.69000E+01 0.00000E+00
 -1      1809 3.89700E+00 1.83500E+01 0.00000E+00
 -1      1810 5.19600E+00 1.90750E+01 0.00000E+00
 -1      1811 3.89700E+00 1.39500E+01 0.00000E+00
 -1      1812 3.89700E+00 1.54250E+01 0.00000E+00
 -1      1813 5.19600E+00 1.61500E+01 0.00000E+00
 -1      1814 3.89700E+00 1.10000E+01 0.00000E+00
 -1      1815 3.89700E+00 1.24750E+01 0.00000E+00
 -1      1816 5.19600E+00 1.32000E+01 0.00000E+00
 -1      1817 3.89700E+00 8.05000E+00 0.00000E+00
 -1      1818 3.89700E+00 9.52500E+00 0.00000E+00
 -1      1819 5.19600E+00 1.02500E+01 0.00000E+00
 -1      1820 3.89700E+00 5.10000E+00 0.00000E+00
 -1      1821 3.89700E+00 6.57500E+00 0.00000E+00
 -1      1822 5.19600E+00 7.30000E+00 0.00000E+00
 -1      1823 4.20450E+00 3.09687E+00 0.00000E+00
 -1      1824 4.06650E+00 4.19063E+00 0.00000E+00
 -1      1825 5.36550E+00 4.91563E+00 0.00000E+00
 -1      1826 5.70450E+00 3.09687E+00 0.00000E+00
 -1      1827 3.54900E+00 4.64885E+01 0.00000E+00
 -1      1828 8.70450E+00 3.09687E+00 0.00000E+00
 -1      1829 7.20450E+00 3.09687E+00 0.00000E+00
 -1      1830 7.03500E+00 4.00625E+00 0.00000E+00
 -1      1831 7.38077E+01 3.99933E+01 0.00000E+00
 -1      1832 7.35382E+01 4.09580E+01 0.00000E+00
 -1      1833 6.30383E+01 4.72373E+01 0.00000E+00
 -1      1834 6.42480E+01 4.74162E+01 0.00000E+00
 -1      1835 8.25000E+00 4.61030E+01 0.00000E+00
 -1      1836 9.75000E+00 4.61030E+01 0.00000E+00
 -1      1837 1.12500E+01 4.61030E+01 0.00000E+00
 -1      1838 1.27500E+01 4.61030E+01 0.00000E+00
 -1      1839 1.05000E+01 4.48040E+01 0.00000E+00
 -1      1840 1.42500E+01 4.61030E+01 0.00000E+00
 -1      1841 1.57500E+01 4.61030E+01 0.00000E+00
 -1      1842 1.35000E+01 4.48040E+01 0.00000E+00
 -1      1843 1.72500E+01 4.61030E+01 0.00000E+00
 -1      1844 1.87500E+01 4.61030E+01 0.00000E+00
 -1      1845 1.65000E+01 4.48040E+01 0.00000E+00
 -1      1846 2.01750E+01 4.61030E+01 0.00000E+00
 -1      1847 2.16000E+01 4.61030E+01 0.00000E+00
 -1      1848 1.94250E+01 4.48040E+01 0.00000E+00
 -1      1849 2.31000E+01 4.61030E+01 0.00000E+00
 -1      1850 2.46000E+01 4.61030E+01 0.00000E+00
 -1      1851 2.23500E+01 4.48040E+01 0.00000E+00
 -1      1852 2.61000E+01 4.61030E+01 0.00000E+00
 -1      1853 2.76000E+01 4.61030E+01 0.00000E+00
 -1      1854 2.53500E+01 4.48040E+01 0.00000E+00
 -1      1855 2.91000E+01 4.61030E+01 0.00000E+00
 -1      1856 3.06000E+01 4.61030E+01 0.00000E+00
 -1      1857 2.83500E+01 4.48040E+01 0.00000E+00
 -1      1858 3.21000E+01 4.61030E+01 0.00000E+00
 -1      1859 3.36000E+01 4.61030E+01 0.00000E+00
 -1      1860 3.13500E+01 4.48040E+01 0.00000E+00
 -1      1861 3.51000E+01 4.61030E+01 0.00000E+00
 -1      1862 3.66000E+01 4.61030E+01 0.00000E+00
 -1      1863 3.43500E+01 4.48040E+01 0.00000E+00
 -1      1864 3.81000E+01 4.61030E+01 0.00000E+00
 -1      1865 3.96000E+01 4.61030E+01 0.00000E+00
 -1      1866 3.73500E+01 4.48040E+01 0.00000E+00
 -1      1867 4.11000E+01 4.61030E+01 0.00000E+00
 -1      1868 4.26000E+01 4.61030E+01 0.00000E+00
 -1      1869 4.03500E+01 4.48040E+01 0.00000E+00
 -1      1870 4.40250E+01 4.61030E+01 0.00000E+00
 -1      1871 4.54500E+01 4.61030E+01 0.00000E+00
 -1      1872 4.32750E+01 4.48040E+01 0.00000E+00
 -1      1873 4.69500E+01 4.61030E+01 0.00000E+00
 -1      1874 4.84500E+01 4.61030E+01 0.00000E+00
 -1      1875 4.62000E+01 4.48040E+01 0.00000E+00
 -1      1876 4.99500E+01 4.61030E+01 0.00000E+00
 -1      1877 5.14500E+01 4.61030E+01 0.00000E+00
 -1      1878 4.92000E+01 4.48040E+01 0.00000E+00
 -1      1879 5.28750E+01 4.61030E+01 0.00000E+00
 -1      1880 5.43000E+01 4.61030E+01 0.00000E+00
 -1      1881 5.21250E+01 4.48040E+01 0.00000E+00
 -1      1882 7.00875E+01 4.71760E+01 0.00000E+00
 -1      1883 7.13625E+01 4.71760E+01 0.00000E+00
 -1      1884 7.26375E+01 4.70922E+01 0.00000E+00
 -1      1885 7.39125E+01 4.70922E+01 0.00000E+00
 -1      1886 7.54125E+01 4.70922E+01 0.00000E+00
 -1      1887 7.69125E+01 4.70922E+01 0.00000E+00
 -1      1888 7.47750E+01 4.60671E+01 0.00000E+00
 -1      1889 7.83375E+01 4.70922E+01 0.00000E+00
 -1      1890 7.97625E+01 4.70922E+01 0.00000E+00
 -1      1891 7.77000E+01 4.60671E+01 0.00000E+00
 -1      1892 8.12625E+01 4.70922E+01 0.00000E+00
 -1      1893 8.27625E+01 4.70922E+01 0.00000E+00
 -1      1894 8.06250E+01 4.60671E+01 0.00000E+00
 -1      1895 8.42625E+01 4.70922E+01 0.00000E+00
 -1      1896 8.57625E+01 4.70922E+01 0.00000E+00
 -1      1897 8.36250E+01 4.60671E+01 0.00000E+00
 -1      1898 8.72625E+01 4.70922E+01 0.00000E+00
 -1      1899 8.87625E+01 4.70922E+01 0.00000E+00
 -1      1900 8.66250E+01 4.60671E+01 0.00000E+00
 -1      1901 9.02625E+01 4.70922E+01 0.00000E+00
 -1      1902 9.17625E+01 4.70922E+01 0.00000E+00
 -1      1903 8.96250E+01 4.60671E+01 0.00000E+00
 -1      1904 9.32625E+01 4.70922E+01 0.00000E+00
 -1      1905 9.47625E+01 4.70922E+01 0.00000E+00
 -1      1906 9.26250E+01 4.60671E+01 0.00000E+00
 -1      1907 9.62625E+01 4.70922E+01 0.00000E+00
 -1      1908 9.77625E+01 4.70922E+01 0.00000E+00
 -1      1909 9.56250E+01 4.60671E+01 0.00000E+00
 -1      1910 9.92625E+01 4.70922E+01 0.00000E+00
 -1      1911 1.00762E+02 4.70922E+01 0.00000E+00
 -1      1912 9.86250E+01 4.60671E+01 0.00000E+00
 -1      1913 1.02188E+02 4.70922E+01 0.00000E+00
 -1      1914 1.03613E+02 4.70922E+01 0.00000E+00
 -1      1915 1.01550E+02 4.60671E+01 0.00000E+00
 -1      1916 1.05113E+02 4.70922E+01 0.00000E+00
 -1      1917 1.06613E+02 4.70922E+01 0.00000E+00
 -1      1918 1.04475E+02 4.60671E+01 0.00000E+00
 -1      1919 1.08113E+02 4.70922E+01 0.00000E+00
 -1      1920 1.09613E+02 4.70922E+01 0.00000E+00
 -1      1921 1.07475E+02 4.60671E+01 0.00000E+00
 -1      1922 1.11113E+02 4.70922E+01 0.00000E+00
 -1      1923 1.12613E+02 4.70922E+01 0.00000E+00
 -1      1924 1.10475E+02 4.60671E+01 0.00000E+00
 -1      1925 1.14113E+02 4.70922E+01 0.00000E+00
 -1      1926 1.15613E+02 4.70922E+01 0.00000E+00
 -1      1927 1.13475E+02 4.60671E+01 0.00000E+00
 -1      1928 1.17113E+02 4.70922E+01 0.00000E+00
 -1      1929 1.18613E+02 4.70922E+01 0.00000E+00
 -1      1930 1.16475E+02 4.60671E+01 0.00000E+00
 -1      1931 1.20113E+02 4.70922E+01 0.00000E+00
 -1      1932 1.21613E+02 4.70922E+01 0.00000E+00
 -1      1933 1.19475E+02 4.60671E+01 0.00000E+00
 -1      1934 1.23113E+02 4.70922E+01 0.00000E+00
 -1      1935 1.24613E+02 4.70922E+01 0.00000E+00
 -1      1936 1.22475E+02 4.60671E+01 0.00000E+00
 -1      1937 1.26037E+02 4.70922E+01 0.00000E+00
 -1      1938 1.27463E+02 4.70922E+01 0.00000E+00
 -1      1939 1.25400E+02 4.60671E+01 0.00000E+00
 -1      1940 1.28962E+02 4.70922E+01 0.00000E+00
 -1      1941 1.30462E+02 4.70922E+01 0.00000E+00
 -1      1942 1.28325E+02 4.60671E+01 0.00000E+00
 -1      1943 1.31962E+02 4.70922E+01 0.00000E+00
 -1      1944 1.33462E+02 4.70922E+01 0.00000E+00
 -1      1945 1.31325E+02 4.60671E+01 0.00000E+00
 -1      1946 1.34962E+02 4.70922E+01 0.00000E+00
 -1      1947 1.36462E+02 4.70922E+01 0.00000E+00
 -1      1948 1.34325E+02 4.60671E+01 0.00000E+00
 -1      1949 1.37962E+02 4.70922E+01 0.00000E+00
 -1      1950 1.39462E+02 4.70922E+01 0.00000E+00
 -1      1951 1.37325E+02 4.60671E+01 0.00000E+00
 -1      1952 1.40962E+02 4.70922E+01 0.00000E+00
 -1      1953 1.42462E+02 4.70922E+01 0.00000E+00
 -1      1954 1.40325E+02 4.60671E+01 0.00000E+00
 -1      1955 1.43962E+02 4.70922E+01 0.00000E+00
 -1      1956 1.45462E+02 4.70922E+01 0.00000E+00
 -1      1957 1.43325E+02 4.60671E+01 0.00000E+00
 -1      1958 1.46188E+02 4.68609E+01 0.00000E+00
 -1      1959 1.47163E+02 4.66066E+01 0.00000E+00
 -1      1960 1.47001E+02 4.53731E+01 0.00000E+00
 -1      1961 1.45550E+02 4.58358E+01 0.00000E+00
 -1      1962 4.84800E+00 4.57510E+01 0.00000E+00
 -1      1963 1.41240E+01 3.48650E+00 0.00000E+00
 -1      1964 1.26240E+01 3.48650E+00 0.00000E+00
 -1      1965 1.71240E+01 3.48650E+00 0.00000E+00
 -1      1966 1.56240E+01 3.48650E+00 0.00000E+00
 -1      1967 1.48740E+01 4.78550E+00 0.00000E+00
 -1      1968 2.01240E+01 3.48650E+00 0.00000E+00
 -1      1969 1.86240E+01 3.48650E+00 0.00000E+00
 -1      1970 1.78740E+01 4.78550E+00 0.00000E+00
 -1      1971 2.31240E+01 3.48650E+00 0.00000E+00
 -1      1972 2.16240E+01 3.48650E+00 0.00000E+00
 -1      1973 2.08740E+01 4.78550E+00 0.00000E+00
 -1      1974 2.61240E+01 3.48650E+00 0.00000E+00
 -1      1975 2.46240E+01 3.48650E+00 0.00000E+00
 -1      1976 2.38740E+01 4.78550E+00 0.00000E+00
 -1      1977 2.91240E+01 3.48650E+00 0.00000E+00
 -1      1978 2.76240E+01 3.48650E+00 0.00000E+00
 -1      1979 2.68740E+01 4.78550E+00 0.00000E+00
 -1      1980 3.21240E+01 3.48650E+00 0.00000E+00
 -1      1981 3.06240E+01 3.48650E+00 0.00000E+00
 -1      1982 2.98740E+01 4.78550E+00 0.00000E+00
 -1      1983 3.51240E+01 3.48650E+00 0.00000E+00
 -1      1984 3.36240E+01 3.48650E+00 0.00000E+00
 -1      1985 3.28740E+01 4.78550E+00 0.00000E+00
 -1      1986 3.81240E+01 3.48650E+00 0.00000E+00
 -1      1987 3.66240E+01 3.48650E+00 0.00000E+00
 -1      1988 3.58740E+01 4.78550E+00 0.00000E+00
 -1      1989 4.11240E+01 3.48650E+00 0.00000E+00
 -1      1990 3.96240E+01 3.48650E+00 0.00000E+00
 -1      1991 3.88740E+01 4.78550E+00 0.00000E+00
 -1      1992 4.41240E+01 3.48650E+00 0.00000E+00
 -1      1993 4.26240E+01 3.48650E+00 0.00000E+00
 -1      1994 4.18740E+01 4.78550E+00 0.00000E+00
 -1      1995 4.71240E+01 3.48650E+00 0.00000E+00
 -1      1996 4.56240E+01 3.48650E+00 0.00000E+00
 -1      1997 4.48740E+01 4.78550E+00 0.00000E+00
 -1      1998 5.01240E+01 3.48650E+00 0.00000E+00
 -1      1999 4.86240E+01 3.48650E+00 0.00000E+00
 -1      2000 4.78740E+01 4.78550E+00 0.00000E+00
 -1      2001 5.31240E+01 3.48650E+00 0.00000E+00
 -1      2002 5.16240E+01 3.48650E+00 0.00000E+00
 -1      2003 5.08740E+01 4.78550E+00 0.00000E+00
 -1      2004 5.61240E+01 3.48650E+00 0.00000E+00
 -1      2005 5.46240E+01 3.48650E+00 0.00000E+00
 -1      2006 5.38740E+01 4.78550E+00 0.00000E+00
 -1      2007 5.91240E+01 3.48650E+00 0.00000E+00
 -1      2008 5.76240E+01 3.48650E+00 0.00000E+00
 -1      2009 5.68740E+01 4.78550E+00 0.00000E+00
 -1      2010 6.21240E+01 3.48650E+00 0.00000E+00
 -1      2011 6.06240E+01 3.48650E+00 0.00000E+00
 -1      2012 5.98740E+01 4.78550E+00 0.00000E+00
 -1      2013 6.51240E+01 3.48650E+00 0.00000E+00
 -1      2014 6.36240E+01 3.48650E+00 0.00000E+00
 -1      2015 6.28740E+01 4.78550E+00 0.00000E+00
 -1      2016 6.81240E+01 3.48650E+00 0.00000E+00
 -1      2017 6.66240E+01 3.48650E+00 0.00000E+00
 -1      2018 6.58740E+01 4.78550E+00 0.00000E+00
 -1      2019 7.11240E+01 3.48650E+00 0.00000E+00
 -1      2020 6.96240E+01 3.48650E+00 0.00000E+00
 -1      2021 6.88740E+01 4.78550E+00 0.00000E+00
 -1      2022 7.41240E+01 3.48650E+00 0.00000E+00
 -1      2023 7.26240E+01 3.48650E+00 0.00000E+00
 -1      2024 7.18740E+01 4.78550E+00 0.00000E+00
 -1      2025 7.71240E+01 3.48650E+00 0.00000E+00
 -1      2026 7.56240E+01 3.48650E+00 0.00000E+00
 -1      2027 7.48740E+01 4.78550E+00 0.00000E+00
 -1      2028 8.01240E+01 3.48650E+00 0.00000E+00
 -1      2029 7.86240E+01 3.48650E+00 0.00000E+00
 -1      2030 7.78740E+01 4.78550E+00 0.00000E+00
 -1      2031 8.31240E+01 3.48650E+00 0.00000E+00
 -1      2032 8.16240E+01 3.48650E+00 0.00000E+00
 -1      2033 8.08740E+01 4.78550E+00 0.00000E+00
 -1      2034 8.61240E+01 3.48650E+00 0.00000E+00
 -1      2035 8.46240E+01 3.48650E+00 0.00000E+00
 -1      2036 8.38740E+01 4.78550E+00 0.00000E+00
 -1      2037 8.91240E+01 3.48650E+00 0.00000E+00
 -1      2038 8.76240E+01 3.48650E+00 0.00000E+00
 -1      2039 8.68740E+01 4.78550E+00 0.00000E+00
 -1      2040 9.21240E+01 3.48650E+00 0.00000E+00
 -1      2041 9.06240E+01 3.48650E+00 0.00000E+00
 -1      2042 8.98740E+01 4.78550E+00 0.00000E+00
 -1      2043 9.51240E+01 3.48650E+00 0.00000E+00
 -1      2044 9.36240E+01 3.48650E+00 0.00000E+00
 -1      2045 9.28740E+01 4.78550E+00 0.00000E+00
 -1      2046 9.81240E+01 3.48650E+00 0.00000E+00
 -1      2047 9.66240E+01 3.48650E+00 0.00000E+00
 -1      2048 9.58740E+01 4.78550E+00 0.00000E+00
 -1      2049 1.01124E+02 3.48650E+00 0.00000E+00
 -1      2050 9.96240E+01 3.48650E+00 0.00000E+00
 -1      2051 9.88740E+01 4.78550E+00 0.00000E+00
 -1      2052 1.04124E+02 3.48650E+00 0.00000E+00
 -1      2053 1.02624E+02 3.48650E+00 0.00000E+00
 -1      2054 1.01874E+02 4.78550E+00 0.00000E+00
 -1      2055 1.07124E+02 3.48650E+00 0.00000E+00
 -1      2056 1.05624E+02 3.48650E+00 0.00000E+00
 -1      2057 1.04874E+02 4.78550E+00 0.00000E+00
 -1      2058 1.10124E+02 3.48650E+00 0.00000E+00
 -1      2059 1.08624E+02 3.48650E+00 0.00000E+00
 -1      2060 1.07874E+02 4.78550E+00 0.00000E+00
 -1      2061 1.13124E+02 3.48650E+00 0.00000E+00
 -1      2062 1.11624E+02 3.48650E+00 0.00000E+00
 -1      2063 1.10874E+02 4.78550E+00 0.00000E+00
 -1      2064 1.16124E+02 3.48650E+00 0.00000E+00
 -1      2065 1.14624E+02 3.48650E+00 0.00000E+00
 -1      2066 1.13874E+02 4.78550E+00 0.00000E+00
 -1      2067 1.19124E+02 3.48650E+00 0.00000E+00
 -1      2068 1.17624E+02 3.48650E+00 0.00000E+00
 -1      2069 1.16874E+02 4.78550E+00 0.00000E+00
 -1      2070 1.22124E+02 3.48650E+00 0.00000E+00
 -1      2071 1.20624E+02 3.48650E+00 0.00000E+00
 -1      2072 1.19874E+02 4.78550E+00 0.00000E+00
 -1      2073 1.25124E+02 3.48650E+00 0.00000E+00
 -1      2074 1.23624E+02 3.48650E+00 0.00000E+00
 -1      2075 1.22874E+02 4.78550E+00 0.00000E+00
 -1      2076 1.28124E+02 3.48650E+00 0.00000E+00
 -1      2077 1.26624E+02 3.48650E+00 0.00000E+00
 -1      2078 1.25874E+02 4.78550E+00 0.00000E+00
 -1      2079 1.31124E+02 3.48650E+00 0.00000E+00
 -1      2080 1.29624E+02 3.48650E+00 0.00000E+00
 -1      2081 1.28874E+02 4.78550E+00 0.00000E+00
 -1      2082 1.34124E+02 3.48650E+00 0.00000E+00
 -1      2083 1.32624E+02 3.48650E+00 0.00000E+00
 -1      2084 1.31874E+02 4.78550E+00 0.00000E+00
 -1      2085 1.37124E+02 3.48650E+00 0.00000E+00
 -1      2086 1.35624E+02 3.48650E+00 0.00000E+00
 -1      2087 1.34874E+02 4.78550E+00 0.00000E+00
 -1      2088 1.40124E+02 3.48650E+00 0.00000E+00
 -1      2089 1.38624E+02 3.48650E+00 0.00000E+00
 -1      2090 1.37874E+02 4.78550E+00 0.00000E+00
 -1      2091 1.43124E+02 3.48650E+00 0.00000E+00
 -1      2092 1.41624E+02 3.48650E+00 0.00000E+00
 -1      2093 1.40874E+02 4.78550E+00 0.00000E+00
 -1      2094 1.45881E+02 3.39637E+00 0.00000E+00
 -1      2095 1.44381E+02 3.39637E+00 0.00000E+00
 -1      2096 1.43631E+02 4.69537E+00 0.00000E+00
 -1      2097 1.46145E+02 4.51512E+00 0.00000E+00
 -1      2098 1.46103E+02 1.25375E+01 0.00000E+00
 -1      2099 1.46103E+02 1.10625E+01 0.00000E+00
 -1      2100 1.46103E+02 9.58750E+00 0.00000E+00
 -1      2101 1.46103E+02 8.11250E+00 0.00000E+00
 -1      2102 1.44804E+02 1.03250E+01 0.00000E+00
 -1      2103 1.46145E+02 5.99013E+00 0.00000E+00
 -1      2104 1.46103E+02 1.54375E+01 0.00000E+00
 -1      2105 1.46103E+02 1.39875E+01 0.00000E+00
 -1      2106 1.44804E+02 1.32500E+01 0.00000E+00
 -1      2107 1.46103E+02 1.83875E+01 0.00000E+00
 -1      2108 1.46103E+02 1.69125E+01 0.00000E+00
 -1      2109 1.44804E+02 1.61750E+01 0.00000E+00
 -1      2110 1.46103E+02 2.13375E+01 0.00000E+00
 -1      2111 1.46103E+02 1.98625E+01 0.00000E+00
 -1      2112 1.44804E+02 1.91250E+01 0.00000E+00
 -1      2113 1.46103E+02 2.42875E+01 0.00000E+00
 -1      2114 1.46103E+02 2.28125E+01 0.00000E+00
 -1      2115 1.44804E+02 2.20750E+01 0.00000E+00
 -1      2116 1.46103E+02 2.72375E+01 0.00000E+00
 -1      2117 1.46103E+02 2.57625E+01 0.00000E+00
 -1      2118 1.44804E+02 2.50250E+01 0.00000E+00
 -1      2119 1.46103E+02 3.01875E+01 0.00000E+00
 -1      2120 1.46103E+02 2.87125E+01 0.00000E+00
 -1      2121 1.44804E+02 2.79750E+01 0.00000E+00
 -1      2122 1.46103E+02 3.30875E+01 0.00000E+00
 -1      2123 1.46103E+02 3.16375E+01 0.00000E+00
 -1      2124 1.44804E+02 3.09000E+01 0.00000E+00
 -1      2125 1.46103E+02 3.60375E+01 0.00000E+00
 -1      2126 1.46103E+02 3.45625E+01 0.00000E+00
 -1      2127 1.44804E+02 3.38250E+01 0.00000E+00
 -1      2128 1.46103E+02 3.89875E+01 0.00000E+00
 -1      2129 1.46103E+02 3.75125E+01 0.00000E+00
 -1      2130 1.44804E+02 3.67750E+01 0.00000E+00
 -1      2131 1.46103E+02 4.19375E+01 0.00000E+00
 -1      2132 1.46103E+02 4.04625E+01 0.00000E+00
 -1      2133 1.44804E+02 3.97250E+01 0.00000E+00
 -1      2134 1.14143E+01 3.29169E+00 0.00000E+00
 -1      2135 9.91425E+00 3.29169E+00 0.00000E+00
 -1      2136 9.74475E+00 4.20106E+00 0.00000E+00
 -1      2137 1.21643E+01 4.59069E+00 0.00000E+00
 -1      2138 7.29987E+01 3.42512E+01 0.00000E+00
 -1      2139 7.34410E+01 3.50089E+01 0.00000E+00
 -1      2140 7.05073E+01 3.13707E+01 0.00000E+00
 -1      2141 7.12283E+01 3.19300E+01 0.00000E+00
 -1      2142 7.38894E+01 3.60456E+01 0.00000E+00
 -1      2143 7.40881E+01 3.69363E+01 0.00000E+00
 -1      2144 7.33268E+01 4.16225E+01 0.00000E+00
 -1      2145 7.31153E+01 4.22871E+01 0.00000E+00
 -1      2146 7.40857E+01 4.13145E+01 0.00000E+00
 -1      2147 7.20552E+01 3.27435E+01 0.00000E+00
 -1      2148 7.25269E+01 3.34974E+01 0.00000E+00
 -1      2149 7.34163E+01 3.34861E+01 0.00000E+00
 -1      2150 3.89700E+00 3.74688E+01 0.00000E+00
 -1      2151 3.89700E+00 3.89437E+01 0.00000E+00
 -1      2152 5.19600E+00 3.96813E+01 0.00000E+00
 -1      2153 5.19600E+00 3.67438E+01 0.00000E+00
 -1      2154 6.60447E+01 4.73599E+01 0.00000E+00
 -1      2155 6.70947E+01 4.73599E+01 0.00000E+00
 -1      2156 6.90394E+01 3.00885E+01 0.00000E+00
 -1      2157 6.98199E+01 3.07190E+01 0.00000E+00
 -1      2158 6.66658E+01 2.95587E+01 0.00000E+00
 -1      2159 6.76641E+01 2.95592E+01 0.00000E+00
 -1      2160 6.48284E+01 2.93672E+01 0.00000E+00
 -1      2161 6.57471E+01 2.94629E+01 0.00000E+00
 -1      2162 6.62467E+01 2.86475E+01 0.00000E+00
 -1      2163 6.27397E+01 2.98551E+01 0.00000E+00
 -1      2164 6.36497E+01 2.95797E+01 0.00000E+00
 -1      2165 6.10276E+01 3.06986E+01 0.00000E+00
 -1      2166 6.18353E+01 3.03290E+01 0.00000E+00
 -1      2167 5.92799E+01 3.14425E+01 0.00000E+00
 -1      2168 6.01168E+01 3.10054E+01 0.00000E+00
 -1      2169 5.79043E+01 3.32098E+01 0.00000E+00
 -1      2170 5.84165E+01 3.24030E+01 0.00000E+00
 -1      2171 5.69928E+01 3.48310E+01 0.00000E+00
 -1      2172 5.73508E+01 3.40478E+01 0.00000E+00
 -1      2173 5.64283E+01 3.65493E+01 0.00000E+00
 -1      2174 5.66909E+01 3.57276E+01 0.00000E+00
 -1      2175 5.62370E+01 3.84625E+01 0.00000E+00
 -1      2176 5.62837E+01 3.75782E+01 0.00000E+00
 -1      2177 5.63348E+01 4.03859E+01 0.00000E+00
 -1      2178 5.61536E+01 3.95344E+01 0.00000E+00
 -1      2179 5.70616E+01 4.21124E+01 0.00000E+00
 -1      2180 5.67415E+01 4.13009E+01 0.00000E+00
 -1      2181 5.80472E+01 4.37103E+01 0.00000E+00
 -1      2182 5.75651E+01 4.29862E+01 0.00000E+00
 -1      2183 5.92572E+01 4.51814E+01 0.00000E+00
 -1      2184 5.86467E+01 4.44882E+01 0.00000E+00
 -1      2185 6.09991E+01 4.66555E+01 0.00000E+00
 -1      2186 6.01744E+01 4.62508E+01 0.00000E+00
 -1      2187 6.21893E+01 4.68343E+01 0.00000E+00
 -1      2188 7.04055E+01 4.56997E+01 0.00000E+00
 -1      2189 6.96297E+01 4.60688E+01 0.00000E+00
 -1      2190 7.15570E+01 4.44242E+01 0.00000E+00
 -1      2191 7.09812E+01 4.50619E+01 0.00000E+00
 -1      2192 7.13008E+01 4.55969E+01 0.00000E+00
 -1      2193 7.26759E+01 4.31300E+01 0.00000E+00
 -1      2194 7.21165E+01 4.37771E+01 0.00000E+00
 -1      2195 7.24360E+01 4.43121E+01 0.00000E+00
 -1      2196 7.41043E+01 3.80337E+01 0.00000E+00
 -1      2197 7.40678E+01 3.89223E+01 0.00000E+00
 -1      2198 7.43364E+01 3.52767E+01 0.00000E+00
 -1      2199 6.89922E+01 4.70101E+01 0.00000E+00
 -1      2200 6.34800E+00 4.57510E+01 0.00000E+00
 -1      2201 7.09800E+00 4.44520E+01 0.00000E+00
 -1      2202 7.45572E+01 3.95790E+01 0.00000E+00
 -1      2203 6.51808E+01 4.74267E+01 0.00000E+00
 -1      2204 7.20000E+01 4.61509E+01 0.00000E+00
 -1      2205 5.57625E+01 4.62931E+01 0.00000E+00
 -1      2206 5.71875E+01 4.62931E+01 0.00000E+00
 -1      2207 5.81828E+01 4.63326E+01 0.00000E+00
 -1      2208 5.93828E+01 4.63326E+01 0.00000E+00
 -1      2209 6.78672E+01 4.70101E+01 0.00000E+00
 -1      2210 1.44846E+02 6.72762E+00 0.00000E+00
 -1      2211 7.06033E+01 3.04535E+01 0.00000E+00
 -1      2212 7.21176E+01 3.19187E+01 0.00000E+00
 -1      2213 7.48010E+01 3.74107E+01 0.00000E+00
 -1      2214 7.34348E+01 4.28220E+01 0.00000E+00
 -1      2215 5.78661E+01 4.44853E+01 0.00000E+00
 -1      2216 5.67632E+01 4.28336E+01 0.00000E+00
 -1      2217 5.58531E+01 4.10449E+01 0.00000E+00
 -1      2218 5.55298E+01 3.90580E+01 0.00000E+00
 -1      2219 5.57578E+01 3.69573E+01 0.00000E+00
 -1      2220 5.62043E+01 3.50318E+01 0.00000E+00
 -1      2221 5.70597E+01 3.32971E+01 0.00000E+00
 -1      2222 5.84767E+01 3.14986E+01 0.00000E+00
 -1      2223 5.85370E+01 3.05942E+01 0.00000E+00
 -1      2224 5.76735E+01 3.15547E+01 0.00000E+00
 -1      2225 6.02510E+01 3.02313E+01 0.00000E+00
 -1      2226 6.41493E+01 2.87643E+01 0.00000E+00
 -1      2227 5.74703E+01 4.52237E+01 0.00000E+00
 -1      2228 6.85406E+01 2.92726E+01 0.00000E+00
 -1      2229 6.94171E+01 2.89859E+01 0.00000E+00
 -1      2230 6.80419E+01 2.84566E+01 0.00000E+00
 -1      2231 6.20662E+01 2.94507E+01 0.00000E+00
 -1      2232 5.50125E+01 4.49941E+01 0.00000E+00
 -1      2233 6.49500E+00 3.01125E+01 0.00000E+00
 -1      2234 6.49500E+00 3.15875E+01 0.00000E+00
 -1      2235 6.49500E+00 3.30625E+01 0.00000E+00
 -1      2236 6.49500E+00 3.45375E+01 0.00000E+00
 -1      2237 7.79400E+00 3.23250E+01 0.00000E+00
 -1      2238 6.49500E+00 2.42125E+01 0.00000E+00
 -1      2239 6.49500E+00 2.56875E+01 0.00000E+00
 -1      2240 6.49500E+00 2.12625E+01 0.00000E+00
 -1      2241 6.49500E+00 2.27375E+01 0.00000E+00
 -1      2242 7.79400E+00 2.34750E+01 0.00000E+00
 -1      2243 6.49500E+00 1.83625E+01 0.00000E+00
 -1      2244 6.49500E+00 1.98125E+01 0.00000E+00
 -1      2245 7.79400E+00 2.05500E+01 0.00000E+00
 -1      2246 6.49500E+00 1.54125E+01 0.00000E+00
 -1      2247 6.49500E+00 1.68875E+01 0.00000E+00
 -1      2248 7.79400E+00 1.76250E+01 0.00000E+00
 -1      2249 6.49500E+00 1.24625E+01 0.00000E+00
 -1      2250 6.49500E+00 1.39375E+01 0.00000E+00
 -1      2251 7.79400E+00 1.46750E+01 0.00000E+00
 -1      2252 6.49500E+00 9.51250E+00 0.00000E+00
 -1      2253 6.49500E+00 1.09875E+01 0.00000E+00
 -1      2254 7.79400E+00 1.17250E+01 0.00000E+00
 -1      2255 6.49500E+00 6.56250E+00 0.00000E+00
 -1      2256 6.49500E+00 8.03750E+00 0.00000E+00
 -1      2257 7.79400E+00 8.77500E+00 0.00000E+00
 -1      2258 6.84975E+00 4.82969E+00 0.00000E+00
 -1      2259 6.68025E+00 5.73906E+00 0.00000E+00
 -1      2260 7.97925E+00 6.47656E+00 0.00000E+00
 -1      2261 8.34975E+00 4.82969E+00 0.00000E+00
 -1      2262 7.39074E+01 3.26542E+01 0.00000E+00
 -1      2263 7.43791E+01 3.34081E+01 0.00000E+00
 -1      2264 7.53985E+01 3.92162E+01 0.00000E+00
 -1      2265 7.51384E+01 4.02872E+01 0.00000E+00
 -1      2266 1.27500E+01 4.35050E+01 0.00000E+00
 -1      2267 1.42500E+01 4.35050E+01 0.00000E+00
 -1      2268 1.57500E+01 4.35050E+01 0.00000E+00
 -1      2269 1.72500E+01 4.35050E+01 0.00000E+00
 -1      2270 1.50000E+01 4.22060E+01 0.00000E+00
 -1      2271 1.86750E+01 4.35050E+01 0.00000E+00
 -1      2272 2.01000E+01 4.35050E+01 0.00000E+00
 -1      2273 1.79250E+01 4.22060E+01 0.00000E+00
 -1      2274 2.16000E+01 4.35050E+01 0.00000E+00
 -1      2275 2.31000E+01 4.35050E+01 0.00000E+00
 -1      2276 2.08500E+01 4.22060E+01 0.00000E+00
 -1      2277 2.46000E+01 4.35050E+01 0.00000E+00
 -1      2278 2.61000E+01 4.35050E+01 0.00000E+00
 -1      2279 2.38500E+01 4.22060E+01 0.00000E+00
 -1      2280 2.76000E+01 4.35050E+01 0.00000E+00
 -1      2281 2.91000E+01 4.35050E+01 0.00000E+00
 -1      2282 2.68500E+01 4.22060E+01 0.00000E+00
 -1      2283 3.06000E+01 4.35050E+01 0.00000E+00
 -1      2284 3.21000E+01 4.35050E+01 0.00000E+00
 -1      2285 2.98500E+01 4.22060E+01 0.00000E+00
 -1      2286 3.36000E+01 4.35050E+01 0.00000E+00
 -1      2287 3.51000E+01 4.35050E+01 0.00000E+00
 -1      2288 3.28500E+01 4.22060E+01 0.00000E+00
 -1      2289 3.66000E+01 4.35050E+01 0.00000E+00
 -1      2290 3.81000E+01 4.35050E+01 0.00000E+00
 -1      2291 3.58500E+01 4.22060E+01 0.00000E+00
 -1      2292 3.96000E+01 4.35050E+01 0.00000E+00
 -1      2293 4.11000E+01 4.35050E+01 0.00000E+00
 -1      2294 3.88500E+01 4.22060E+01 0.00000E+00
 -1      2295 4.25250E+01 4.35050E+01 0.00000E+00
 -1      2296 4.39500E+01 4.35050E+01 0.00000E+00
 -1      2297 4.17750E+01 4.22060E+01 0.00000E+00
 -1      2298 4.54500E+01 4.35050E+01 0.00000E+00
 -1      2299 4.69500E+01 4.35050E+01 0.00000E+00
 -1      2300 4.47000E+01 4.22060E+01 0.00000E+00
 -1      2301 4.84500E+01 4.35050E+01 0.00000E+00
 -1      2302 4.99500E+01 4.35050E+01 0.00000E+00
 -1      2303 4.77000E+01 4.22060E+01 0.00000E+00
 -1      2304 5.13750E+01 4.35050E+01 0.00000E+00
 -1      2305 5.28000E+01 4.35050E+01 0.00000E+00
 -1      2306 5.06250E+01 4.22060E+01 0.00000E+00
 -1      2307 7.09800E+00 4.29770E+01 0.00000E+00
 -1      2308 9.00000E+00 4.33290E+01 0.00000E+00
 -1      2309 7.09800E+00 4.15020E+01 0.00000E+00
 -1      2310 5.68709E+01 4.44458E+01 0.00000E+00
 -1      2311 7.69875E+01 4.49582E+01 0.00000E+00
 -1      2312 7.84125E+01 4.49582E+01 0.00000E+00
 -1      2313 7.99125E+01 4.49582E+01 0.00000E+00
 -1      2314 8.14125E+01 4.49582E+01 0.00000E+00
 -1      2315 7.92000E+01 4.38492E+01 0.00000E+00
 -1      2316 8.29125E+01 4.49582E+01 0.00000E+00
 -1      2317 8.44125E+01 4.49582E+01 0.00000E+00
 -1      2318 8.22000E+01 4.38492E+01 0.00000E+00
 -1      2319 8.59125E+01 4.49582E+01 0.00000E+00
 -1      2320 8.74125E+01 4.49582E+01 0.00000E+00
 -1      2321 8.52000E+01 4.38492E+01 0.00000E+00
 -1      2322 8.89125E+01 4.49582E+01 0.00000E+00
 -1      2323 9.04125E+01 4.49582E+01 0.00000E+00
 -1      2324 8.82000E+01 4.38492E+01 0.00000E+00
 -1      2325 9.19125E+01 4.49582E+01 0.00000E+00
 -1      2326 9.34125E+01 4.49582E+01 0.00000E+00
 -1      2327 9.12000E+01 4.38492E+01 0.00000E+00
 -1      2328 9.49125E+01 4.49582E+01 0.00000E+00
 -1      2329 9.64125E+01 4.49582E+01 0.00000E+00
 -1      2330 9.42000E+01 4.38492E+01 0.00000E+00
 -1      2331 9.79125E+01 4.49582E+01 0.00000E+00
 -1      2332 9.94125E+01 4.49582E+01 0.00000E+00
 -1      2333 9.72000E+01 4.38492E+01 0.00000E+00
 -1      2334 1.00838E+02 4.49582E+01 0.00000E+00
 -1      2335 1.02262E+02 4.49582E+01 0.00000E+00
 -1      2336 1.00125E+02 4.38492E+01 0.00000E+00
 -1      2337 1.03762E+02 4.49582E+01 0.00000E+00
 -1      2338 1.05262E+02 4.49582E+01 0.00000E+00
 -1      2339 1.03050E+02 4.38492E+01 0.00000E+00
 -1      2340 1.06762E+02 4.49582E+01 0.00000E+00
 -1      2341 1.08262E+02 4.49582E+01 0.00000E+00
 -1      2342 1.06050E+02 4.38492E+01 0.00000E+00
 -1      2343 1.09762E+02 4.49582E+01 0.00000E+00
 -1      2344 1.11262E+02 4.49582E+01 0.00000E+00
 -1      2345 1.09050E+02 4.38492E+01 0.00000E+00
 -1      2346 1.12762E+02 4.49582E+01 0.00000E+00
 -1      2347 1.14262E+02 4.49582E+01 0.00000E+00
 -1      2348 1.12050E+02 4.38492E+01 0.00000E+00
 -1      2349 1.15762E+02 4.49582E+01 0.00000E+00
 -1      2350 1.17262E+02 4.49582E+01 0.00000E+00
 -1      2351 1.15050E+02 4.38492E+01 0.00000E+00
 -1      2352 1.18762E+02 4.49582E+01 0.00000E+00
 -1      2353 1.20262E+02 4.49582E+01 0.00000E+00
 -1      2354 1.18050E+02 4.38492E+01 0.00000E+00
 -1      2355 1.21762E+02 4.49582E+01 0.00000E+00
 -1      2356 1.23262E+02 4.49582E+01 0.00000E+00
 -1      2357 1.21050E+02 4.38492E+01 0.00000E+00
 -1      2358 1.24688E+02 4.49582E+01 0.00000E+00
 -1      2359 1.26113E+02 4.49582E+01 0.00000E+00
 -1      2360 1.23975E+02 4.38492E+01 0.00000E+00
 -1      2361 1.27613E+02 4.49582E+01 0.00000E+00
 -1      2362 1.29113E+02 4.49582E+01 0.00000E+00
 -1      2363 1.26900E+02 4.38492E+01 0.00000E+00
 -1      2364 1.30613E+02 4.49582E+01 0.00000E+00
 -1      2365 1.32113E+02 4.49582E+01 0.00000E+00
 -1      2366 1.29900E+02 4.38492E+01 0.00000E+00
 -1      2367 1.33613E+02 4.49582E+01 0.00000E+00
 -1      2368 1.35113E+02 4.49582E+01 0.00000E+00
 -1      2369 1.32900E+02 4.38492E+01 0.00000E+00
 -1      2370 1.36613E+02 4.49582E+01 0.00000E+00
 -1      2371 1.38113E+02 4.49582E+01 0.00000E+00
 -1      2372 1.35900E+02 4.38492E+01 0.00000E+00
 -1      2373 1.39613E+02 4.49582E+01 0.00000E+00
 -1      2374 1.41113E+02 4.49582E+01 0.00000E+00
 -1      2375 1.38900E+02 4.38492E+01 0.00000E+00
 -1      2376 1.42613E+02 4.49582E+01 0.00000E+00
 -1      2377 1.44113E+02 4.49582E+01 0.00000E+00
 -1      2378 1.41900E+02 4.38492E+01 0.00000E+00
 -1      2379 7.49269E+01 4.09518E+01 0.00000E+00
 -1      2380 7.47155E+01 4.16163E+01 0.00000E+00
 -1      2381 7.57682E+01 4.05890E+01 0.00000E+00
 -1      2382 1.86240E+01 6.08450E+00 0.00000E+00
 -1      2383 1.71240E+01 6.08450E+00 0.00000E+00
 -1      2384 1.56240E+01 6.08450E+00 0.00000E+00
 -1      2385 1.41240E+01 6.08450E+00 0.00000E+00
 -1      2386 1.63740E+01 7.38350E+00 0.00000E+00
 -1      2387 2.46240E+01 6.08450E+00 0.00000E+00
 -1      2388 2.31240E+01 6.08450E+00 0.00000E+00
 -1      2389 2.76240E+01 6.08450E+00 0.00000E+00
 -1      2390 2.61240E+01 6.08450E+00 0.00000E+00
 -1      2391 2.53740E+01 7.38350E+00 0.00000E+00
 -1      2392 3.06240E+01 6.08450E+00 0.00000E+00
 -1      2393 2.91240E+01 6.08450E+00 0.00000E+00
 -1      2394 2.83740E+01 7.38350E+00 0.00000E+00
 -1      2395 3.36240E+01 6.08450E+00 0.00000E+00
 -1      2396 3.21240E+01 6.08450E+00 0.00000E+00
 -1      2397 3.13740E+01 7.38350E+00 0.00000E+00
 -1      2398 3.66240E+01 6.08450E+00 0.00000E+00
 -1      2399 3.51240E+01 6.08450E+00 0.00000E+00
 -1      2400 3.43740E+01 7.38350E+00 0.00000E+00
 -1      2401 3.96240E+01 6.08450E+00 0.00000E+00
 -1      2402 3.81240E+01 6.08450E+00 0.00000E+00
 -1      2403 3.73740E+01 7.38350E+00 0.00000E+00
 -1      2404 4.26240E+01 6.08450E+00 0.00000E+00
 -1      2405 4.11240E+01 6.08450E+00 0.00000E+00
 -1      2406 4.03740E+01 7.38350E+00 0.00000E+00
 -1      2407 4.56240E+01 6.08450E+00 0.00000E+00
 -1      2408 4.41240E+01 6.08450E+00 0.00000E+00
 -1      2409 4.33740E+01 7.38350E+00 0.00000E+00
 -1      2410 4.86240E+01 6.08450E+00 0.00000E+00
 -1      2411 4.71240E+01 6.08450E+00 0.00000E+00
 -1      2412 4.63740E+01 7.38350E+00 0.00000E+00
 -1      2413 5.16240E+01 6.08450E+00 0.00000E+00
 -1      2414 5.01240E+01 6.08450E+00 0.00000E+00
 -1      2415 4.93740E+01 7.38350E+00 0.00000E+00
 -1      2416 5.46240E+01 6.08450E+00 0.00000E+00
 -1      2417 5.31240E+01 6.08450E+00 0.00000E+00
 -1      2418 5.23740E+01 7.38350E+00 0.00000E+00
 -1      2419 5.76240E+01 6.08450E+00 0.00000E+00
 -1      2420 5.61240E+01 6.08450E+00 0.00000E+00
 -1      2421 5.53740E+01 7.38350E+00 0.00000E+00
 -1      2422 6.06240E+01 6.08450E+00 0.00000E+00
 -1      2423 5.91240E+01 6.08450E+00 0.00000E+00
 -1      2424 5.83740E+01 7.38350E+00 0.00000E+00
 -1      2425 6.36240E+01 6.08450E+00 0.00000E+00
 -1      2426 6.21240E+01 6.08450E+00 0.00000E+00
 -1      2427 6.13740E+01 7.38350E+00 0.00000E+00
 -1      2428 6.66240E+01 6.08450E+00 0.00000E+00
 -1      2429 6.51240E+01 6.08450E+00 0.00000E+00
 -1      2430 6.43740E+01 7.38350E+00 0.00000E+00
 -1      2431 6.96240E+01 6.08450E+00 0.00000E+00
 -1      2432 6.81240E+01 6.08450E+00 0.00000E+00
 -1      2433 6.73740E+01 7.38350E+00 0.00000E+00
 -1      2434 7.26240E+01 6.08450E+00 0.00000E+00
 -1      2435 7.11240E+01 6.08450E+00 0.00000E+00
 -1      2436 7.03740E+01 7.38350E+00 0.00000E+00
 -1      2437 7.56240E+01 6.08450E+00 0.00000E+00
 -1      2438 7.41240E+01 6.08450E+00 0.00000E+00
 -1      2439 7.33740E+01 7.38350E+00 0.00000E+00
 -1      2440 7.86240E+01 6.08450E+00 0.00000E+00
 -1      2441 7.71240E+01 6.08450E+00 0.00000E+00
 -1      2442 7.63740E+01 7.38350E+00 0.00000E+00
 -1      2443 8.16240E+01 6.08450E+00 0.00000E+00
 -1      2444 8.01240E+01 6.08450E+00 0.00000E+00
 -1      2445 7.93740E+01 7.38350E+00 0.00000E+00
 -1      2446 8.46240E+01 6.08450E+00 0.00000E+00
 -1      2447 8.31240E+01 6.08450E+00 0.00000E+00
 -1      2448 8.23740E+01 7.38350E+00 0.00000E+00
 -1      2449 8.76240E+01 6.08450E+00 0.00000E+00
 -1      2450 8.61240E+01 6.08450E+00 0.00000E+00
 -1      2451 8.53740E+01 7.38350E+00 0.00000E+00
 -1      2452 9.06240E+01 6.08450E+00 0.00000E+00
 -1      2453 8.91240E+01 6.08450E+00 0.00000E+00
 -1      2454 8.83740E+01 7.38350E+00 0.00000E+00
 -1      2455 9.36240E+01 6.08450E+00 0.00000E+00
 -1      2456 9.21240E+01 6.08450E+00 0.00000E+00
 -1      2457 9.13740E+01 7.38350E+00 0.00000E+00
 -1      2458 9.66240E+01 6.08450E+00 0.00000E+00
 -1      2459 9.51240E+01 6.08450E+00 0.00000E+00
 -1      2460 9.43740E+01 7.38350E+00 0.00000E+00
 -1      2461 9.96240E+01 6.08450E+00 0.00000E+00
 -1      2462 9.81240E+01 6.08450E+00 0.00000E+00
 -1      2463 9.73740E+01 7.38350E+00 0.00000E+00
 -1      2464 1.02624E+02 6.08450E+00 0.00000E+00
 -1      2465 1.01124E+02 6.08450E+00 0.00000E+00
 -1      2466 1.00374E+02 7.38350E+00 0.00000E+00
 -1      2467 1.05624E+02 6.08450E+00 0.00000E+00
 -1      2468 1.04124E+02 6.08450E+00 0.00000E+00
 -1      2469 1.03374E+02 7.38350E+00 0.00000E+00
 -1      2470 1.08624E+02 6.08450E+00 0.00000E+00
 -1      2471 1.07124E+02 6.08450E+00 0.00000E+00
 -1      2472 1.06374E+02 7.38350E+00 0.00000E+00
 -1      2473 1.11624E+02 6.08450E+00 0.00000E+00
 -1      2474 1.10124E+02 6.08450E+00 0.00000E+00
 -1      2475 1.09374E+02 7.38350E+00 0.00000E+00
 -1      2476 1.14624E+02 6.08450E+00 0.00000E+00
 -1      2477 1.13124E+02 6.08450E+00 0.00000E+00
 -1      2478 1.12374E+02 7.38350E+00 0.00000E+00
 -1      2479 1.17624E+02 6.08450E+00 0.00000E+00
 -1      2480 1.16124E+02 6.08450E+00 0.00000E+00
 -1      2481 1.15374E+02 7.38350E+00 0.00000E+00
 -1      2482 1.20624E+02 6.08450E+00 0.00000E+00
 -1      2483 1.19124E+02 6.08450E+00 0.00000E+00
 -1      2484 1.18374E+02 7.38350E+00 0.00000E+00
 -1      2485 1.23624E+02 6.08450E+00 0.00000E+00
 -1      2486 1.22124E+02 6.08450E+00 0.00000E+00
 -1      2487 1.21374E+02 7.38350E+00 0.00000E+00
 -1      2488 1.26624E+02 6.08450E+00 0.00000E+00
 -1      2489 1.25124E+02 6.08450E+00 0.00000E+00
 -1      2490 1.24374E+02 7.38350E+00 0.00000E+00
 -1      2491 1.29624E+02 6.08450E+00 0.00000E+00
 -1      2492 1.28124E+02 6.08450E+00 0.00000E+00
 -1      2493 1.27374E+02 7.38350E+00 0.00000E+00
 -1      2494 1.32624E+02 6.08450E+00 0.00000E+00
 -1      2495 1.31124E+02 6.08450E+00 0.00000E+00
 -1      2496 1.30374E+02 7.38350E+00 0.00000E+00
 -1      2497 1.35624E+02 6.08450E+00 0.00000E+00
 -1      2498 1.34124E+02 6.08450E+00 0.00000E+00
 -1      2499 1.33374E+02 7.38350E+00 0.00000E+00
 -1      2500 1.38624E+02 6.08450E+00 0.00000E+00
 -1      2501 1.37124E+02 6.08450E+00 0.00000E+00
 -1      2502 1.36374E+02 7.38350E+00 0.00000E+00
 -1      2503 1.41624E+02 6.08450E+00 0.00000E+00
 -1      2504 1.40124E+02 6.08450E+00 0.00000E+00
 -1      2505 1.39374E+02 7.38350E+00 0.00000E+00
 -1      2506 1.43589E+02 6.81775E+00 0.00000E+00
 -1      2507 1.43505E+02 1.69125E+01 0.00000E+00
 -1      2508 1.43505E+02 1.54375E+01 0.00000E+00
 -1      2509 1.43505E+02 1.39875E+01 0.00000E+00
 -1      2510 1.43505E+02 1.25375E+01 0.00000E+00
 -1      2511 1.42206E+02 1.47250E+01 0.00000E+00
 -1      2512 1.43505E+02 1.10625E+01 0.00000E+00
 -1      2513 1.43505E+02 9.58750E+00 0.00000E+00
 -1      2514 1.42206E+02 1.18000E+01 0.00000E+00
 -1      2515 7.07919E+01 2.95661E+01 0.00000E+00
 -1      2516 7.14794E+01 3.02178E+01 0.00000E+00
 -1      2517 1.43505E+02 1.98625E+01 0.00000E+00
 -1      2518 1.43505E+02 1.83875E+01 0.00000E+00
 -1      2519 1.42206E+02 1.76500E+01 0.00000E+00
 -1      2520 1.43505E+02 2.28125E+01 0.00000E+00
 -1      2521 1.43505E+02 2.13375E+01 0.00000E+00
 -1      2522 1.42206E+02 2.06000E+01 0.00000E+00
 -1      2523 1.43505E+02 2.57625E+01 0.00000E+00
 -1      2524 1.43505E+02 2.42875E+01 0.00000E+00
 -1      2525 1.42206E+02 2.35500E+01 0.00000E+00
 -1      2526 1.43505E+02 2.87125E+01 0.00000E+00
 -1      2527 1.43505E+02 2.72375E+01 0.00000E+00
 -1      2528 1.42206E+02 2.65000E+01 0.00000E+00
 -1      2529 1.43505E+02 3.16125E+01 0.00000E+00
 -1      2530 1.43505E+02 3.01625E+01 0.00000E+00
 -1      2531 1.42206E+02 2.94250E+01 0.00000E+00
 -1      2532 1.43505E+02 3.45625E+01 0.00000E+00
 -1      2533 1.43505E+02 3.30875E+01 0.00000E+00
 -1      2534 1.42206E+02 3.23500E+01 0.00000E+00
 -1      2535 1.43505E+02 3.75125E+01 0.00000E+00
 -1      2536 1.43505E+02 3.60375E+01 0.00000E+00
 -1      2537 1.42206E+02 3.53000E+01 0.00000E+00
 -1      2538 1.43505E+02 4.04625E+01 0.00000E+00
 -1      2539 1.43505E+02 3.89875E+01 0.00000E+00
 -1      2540 1.42206E+02 3.82500E+01 0.00000E+00
 -1      2541 1.46111E+02 4.34359E+01 0.00000E+00
 -1      2542 1.44812E+02 4.26984E+01 0.00000E+00
 -1      2543 1.46273E+02 4.46693E+01 0.00000E+00
 -1      2544 2.16240E+01 6.08450E+00 0.00000E+00
 -1      2545 2.01240E+01 6.08450E+00 0.00000E+00
 -1      2546 1.93740E+01 7.38350E+00 0.00000E+00
 -1      2547 7.44150E+01 4.27970E+01 0.00000E+00
 -1      2548 7.39756E+01 4.36399E+01 0.00000E+00
 -1      2549 7.41154E+01 4.48409E+01 0.00000E+00
 -1      2550 7.56154E+01 4.48409E+01 0.00000E+00
 -1      2551 1.01250E+01 4.34170E+01 0.00000E+00
 -1      2552 1.16250E+01 4.34170E+01 0.00000E+00
 -1      2553 1.23750E+01 4.21180E+01 0.00000E+00
 -1      2554 1.01250E+01 4.19420E+01 0.00000E+00
 -1      2555 6.49500E+00 2.71625E+01 0.00000E+00
 -1      2556 6.49500E+00 2.86375E+01 0.00000E+00
 -1      2557 7.79400E+00 2.93750E+01 0.00000E+00
 -1      2558 7.79400E+00 2.64250E+01 0.00000E+00
 -1      2559 7.56504E+01 3.68493E+01 0.00000E+00
 -1      2560 7.56666E+01 3.79467E+01 0.00000E+00
 -1      2561 5.59715E+01 4.43104E+01 0.00000E+00
 -1      2562 5.63674E+01 4.35720E+01 0.00000E+00
 -1      2563 5.58639E+01 4.26982E+01 0.00000E+00
 -1      2564 7.22799E+01 3.10292E+01 0.00000E+00
 -1      2565 7.31068E+01 3.18428E+01 0.00000E+00
 -1      2566 7.40696E+01 3.17648E+01 0.00000E+00
 -1      2567 7.24685E+01 3.01418E+01 0.00000E+00
 -1      2568 6.12160E+01 2.89280E+01 0.00000E+00
 -1      2569 6.21204E+01 2.84541E+01 0.00000E+00
 -1      2570 6.58850E+01 2.76634E+01 0.00000E+00
 -1      2571 6.68036E+01 2.77591E+01 0.00000E+00
 -1      2572 6.34152E+01 2.80678E+01 0.00000E+00
 -1      2573 6.45939E+01 2.78553E+01 0.00000E+00
 -1      2574 5.93944E+01 2.95415E+01 0.00000E+00
 -1      2575 6.03052E+01 2.92348E+01 0.00000E+00
 -1      2576 6.03594E+01 2.82382E+01 0.00000E+00
 -1      2577 5.61722E+01 3.33128E+01 0.00000E+00
 -1      2578 5.67258E+01 3.24747E+01 0.00000E+00
 -1      2579 5.50818E+01 3.51530E+01 0.00000E+00
 -1      2580 5.53837E+01 3.42564E+01 0.00000E+00
 -1      2581 5.48362E+01 3.73524E+01 0.00000E+00
 -1      2582 5.49809E+01 3.63235E+01 0.00000E+00
 -1      2583 5.46695E+01 3.94961E+01 0.00000E+00
 -1      2584 5.47529E+01 3.84242E+01 0.00000E+00
 -1      2585 5.39760E+01 3.77904E+01 0.00000E+00
 -1      2586 5.53110E+01 4.18336E+01 0.00000E+00
 -1      2587 5.49044E+01 4.09186E+01 0.00000E+00
 -1      2588 7.25758E+01 4.55131E+01 0.00000E+00
 -1      2589 5.45090E+01 4.41203E+01 0.00000E+00
 -1      2590 7.48994E+01 3.44179E+01 0.00000E+00
 -1      2591 7.53477E+01 3.54546E+01 0.00000E+00
 -1      2592 1.42839E+02 8.11675E+00 0.00000E+00
 -1      2593 7.31352E+01 4.48660E+01 0.00000E+00
 -1      2594 7.79400E+00 3.52687E+01 0.00000E+00
 -1      2595 6.49500E+00 3.60062E+01 0.00000E+00
 -1      2596 6.49500E+00 3.74750E+01 0.00000E+00
 -1      2597 5.58986E+01 3.15860E+01 0.00000E+00
 -1      2598 5.67860E+01 3.15703E+01 0.00000E+00
 -1      2599 5.68463E+01 3.06659E+01 0.00000E+00
 -1      2600 9.55950E+00 5.02450E+00 0.00000E+00
 -1      2601 9.37425E+00 5.84794E+00 0.00000E+00
 -1      2602 1.07692E+01 5.21931E+00 0.00000E+00
 -1      2603 7.62478E+01 3.86549E+01 0.00000E+00
 -1      2604 2.23740E+01 7.38350E+00 0.00000E+00
 -1      2605 6.79650E+00 3.87541E+01 0.00000E+00
 -1      2606 6.79650E+00 4.02229E+01 0.00000E+00
 -1      2607 8.69850E+00 4.05749E+01 0.00000E+00
 -1      2608 8.09550E+00 3.80166E+01 0.00000E+00
 -1      2609 6.97944E+01 2.79342E+01 0.00000E+00
 -1      2610 7.02932E+01 2.87502E+01 0.00000E+00
 -1      2611 7.11692E+01 2.85144E+01 0.00000E+00
 -1      2612 7.62133E+01 3.59906E+01 0.00000E+00
 -1      2613 7.63279E+01 4.37320E+01 0.00000E+00
 -1      2614 7.52562E+01 4.24342E+01 0.00000E+00
 -1      2615 6.25650E+01 2.75451E+01 0.00000E+00
 -1      2616 1.41540E+02 8.85425E+00 0.00000E+00
 -1      2617 1.30515E+01 5.74931E+00 0.00000E+00
 -1      2618 1.18418E+01 5.55450E+00 0.00000E+00
 -1      2619 1.16565E+01 6.37794E+00 0.00000E+00
 -1      2620 1.38015E+01 7.04831E+00 0.00000E+00
 -1      2621 5.41275E+01 4.02848E+01 0.00000E+00
 -1      2622 5.33506E+01 3.96510E+01 0.00000E+00
 -1      2623 5.35854E+01 4.10736E+01 0.00000E+00
 -1      2624 5.41603E+01 3.55480E+01 0.00000E+00
 -1      2625 5.85912E+01 2.95976E+01 0.00000E+00
 -1      2626 5.86454E+01 2.86011E+01 0.00000E+00
 -1      2627 5.77879E+01 2.96537E+01 0.00000E+00
 -1      2628 6.76801E+01 2.74725E+01 0.00000E+00
 -1      2629 6.85566E+01 2.71858E+01 0.00000E+00
 -1      2630 6.73184E+01 2.64883E+01 0.00000E+00
 -1      2631 5.49152E+01 4.25720E+01 0.00000E+00
 -1      2632 6.51509E+01 2.69669E+01 0.00000E+00
 -1      2633 5.50498E+01 3.34340E+01 0.00000E+00
 -1      2634 7.53904E+01 3.35860E+01 0.00000E+00
 -1      2635 9.09300E+00 1.98250E+01 0.00000E+00
 -1      2636 9.09300E+00 2.12750E+01 0.00000E+00
 -1      2637 9.09300E+00 2.27500E+01 0.00000E+00
 -1      2638 9.09300E+00 2.42250E+01 0.00000E+00
 -1      2639 1.03920E+01 2.20250E+01 0.00000E+00
 -1      2640 9.09300E+00 1.39375E+01 0.00000E+00
 -1      2641 9.09300E+00 1.54125E+01 0.00000E+00
 -1      2642 9.09300E+00 1.09875E+01 0.00000E+00
 -1      2643 9.09300E+00 1.24625E+01 0.00000E+00
 -1      2644 1.03920E+01 1.32000E+01 0.00000E+00
 -1      2645 9.18900E+00 6.67137E+00 0.00000E+00
 -1      2646 9.00375E+00 7.49481E+00 0.00000E+00
 -1      2647 1.03988E+01 6.86619E+00 0.00000E+00
 -1      2648 2.31240E+01 8.68250E+00 0.00000E+00
 -1      2649 2.16240E+01 8.68250E+00 0.00000E+00
 -1      2650 5.32062E+01 4.19567E+01 0.00000E+00
 -1      2651 5.39562E+01 4.32557E+01 0.00000E+00
 -1      2652 1.72125E+01 4.09070E+01 0.00000E+00
 -1      2653 1.86375E+01 4.09070E+01 0.00000E+00
 -1      2654 2.01375E+01 4.09070E+01 0.00000E+00
 -1      2655 2.16375E+01 4.09070E+01 0.00000E+00
 -1      2656 1.94250E+01 3.96080E+01 0.00000E+00
 -1      2657 2.31375E+01 4.09070E+01 0.00000E+00
 -1      2658 2.46375E+01 4.09070E+01 0.00000E+00
 -1      2659 2.24250E+01 3.96080E+01 0.00000E+00
 -1      2660 2.61375E+01 4.09070E+01 0.00000E+00
 -1      2661 2.76375E+01 4.09070E+01 0.00000E+00
 -1      2662 2.54250E+01 3.96080E+01 0.00000E+00
 -1      2663 2.91375E+01 4.09070E+01 0.00000E+00
 -1      2664 3.06375E+01 4.09070E+01 0.00000E+00
 -1      2665 2.84250E+01 3.96080E+01 0.00000E+00
 -1      2666 3.21375E+01 4.09070E+01 0.00000E+00
 -1      2667 3.36375E+01 4.09070E+01 0.00000E+00
 -1      2668 3.14250E+01 3.96080E+01 0.00000E+00
 -1      2669 3.51375E+01 4.09070E+01 0.00000E+00
 -1      2670 3.66375E+01 4.09070E+01 0.00000E+00
 -1      2671 3.44250E+01 3.96080E+01 0.00000E+00
 -1      2672 3.81375E+01 4.09070E+01 0.00000E+00
 -1      2673 3.96375E+01 4.09070E+01 0.00000E+00
 -1      2674 3.74250E+01 3.96080E+01 0.00000E+00
 -1      2675 4.10625E+01 4.09070E+01 0.00000E+00
 -1      2676 4.24875E+01 4.09070E+01 0.00000E+00
 -1      2677 4.03500E+01 3.96080E+01 0.00000E+00
 -1      2678 4.39875E+01 4.09070E+01 0.00000E+00
 -1      2679 4.54875E+01 4.09070E+01 0.00000E+00
 -1      2680 4.32750E+01 3.96080E+01 0.00000E+00
 -1      2681 4.69875E+01 4.09070E+01 0.00000E+00
 -1      2682 4.84875E+01 4.09070E+01 0.00000E+00
 -1      2683 4.62750E+01 3.96080E+01 0.00000E+00
 -1      2684 7.84500E+01 4.25728E+01 0.00000E+00
 -1      2685 7.99500E+01 4.25728E+01 0.00000E+00
 -1      2686 9.09300E+00 3.15875E+01 0.00000E+00
 -1      2687 9.09300E+00 3.30625E+01 0.00000E+00
 -1      2688 8.14500E+01 4.25728E+01 0.00000E+00
 -1      2689 8.29500E+01 4.25728E+01 0.00000E+00
 -1      2690 8.07000E+01 4.12963E+01 0.00000E+00
 -1      2691 8.44500E+01 4.25728E+01 0.00000E+00
 -1      2692 8.59500E+01 4.25728E+01 0.00000E+00
 -1      2693 8.37000E+01 4.12963E+01 0.00000E+00
 -1      2694 8.74500E+01 4.25728E+01 0.00000E+00
 -1      2695 8.89500E+01 4.25728E+01 0.00000E+00
 -1      2696 8.67000E+01 4.12963E+01 0.00000E+00
 -1      2697 9.04500E+01 4.25728E+01 0.00000E+00
 -1      2698 9.19500E+01 4.25728E+01 0.00000E+00
 -1      2699 8.97000E+01 4.12963E+01 0.00000E+00
 -1      2700 9.34500E+01 4.25728E+01 0.00000E+00
 -1      2701 9.49500E+01 4.25728E+01 0.00000E+00
 -1      2702 9.27000E+01 4.12963E+01 0.00000E+00
 -1      2703 9.64500E+01 4.25728E+01 0.00000E+00
 -1      2704 9.79500E+01 4.25728E+01 0.00000E+00
 -1      2705 9.57000E+01 4.12963E+01 0.00000E+00
 -1      2706 9.93750E+01 4.25728E+01 0.00000E+00
 -1      2707 1.00800E+02 4.25728E+01 0.00000E+00
 -1      2708 9.86250E+01 4.12963E+01 0.00000E+00
 -1      2709 1.02300E+02 4.25728E+01 0.00000E+00
 -1      2710 1.03800E+02 4.25728E+01 0.00000E+00
 -1      2711 1.01550E+02 4.12963E+01 0.00000E+00
 -1      2712 1.05300E+02 4.25728E+01 0.00000E+00
 -1      2713 1.06800E+02 4.25728E+01 0.00000E+00
 -1      2714 1.04550E+02 4.12963E+01 0.00000E+00
 -1      2715 1.08300E+02 4.25728E+01 0.00000E+00
 -1      2716 1.09800E+02 4.25728E+01 0.00000E+00
 -1      2717 1.07550E+02 4.12963E+01 0.00000E+00
 -1      2718 1.11300E+02 4.25728E+01 0.00000E+00
 -1      2719 1.12800E+02 4.25728E+01 0.00000E+00
 -1      2720 1.10550E+02 4.12963E+01 0.00000E+00
 -1      2721 1.14300E+02 4.25728E+01 0.00000E+00
 -1      2722 1.15800E+02 4.25728E+01 0.00000E+00
 -1      2723 1.13550E+02 4.12963E+01 0.00000E+00
 -1      2724 1.17300E+02 4.25728E+01 0.00000E+00
 -1      2725 1.18800E+02 4.25728E+01 0.00000E+00
 -1      2726 1.16550E+02 4.12963E+01 0.00000E+00
 -1      2727 1.20300E+02 4.25728E+01 0.00000E+00
 -1      2728 1.21800E+02 4.25728E+01 0.00000E+00
 -1      2729 1.19550E+02 4.12963E+01 0.00000E+00
 -1      2730 1.23225E+02 4.25728E+01 0.00000E+00
 -1      2731 1.24650E+02 4.25728E+01 0.00000E+00
 -1      2732 1.22475E+02 4.12963E+01 0.00000E+00
 -1      2733 1.26150E+02 4.25728E+01 0.00000E+00
 -1      2734 1.27650E+02 4.25728E+01 0.00000E+00
 -1      2735 1.25400E+02 4.12963E+01 0.00000E+00
 -1      2736 1.29150E+02 4.25728E+01 0.00000E+00
 -1      2737 1.30650E+02 4.25728E+01 0.00000E+00
 -1      2738 1.28400E+02 4.12963E+01 0.00000E+00
 -1      2739 1.32150E+02 4.25728E+01 0.00000E+00
 -1      2740 1.33650E+02 4.25728E+01 0.00000E+00
 -1      2741 1.31400E+02 4.12963E+01 0.00000E+00
 -1      2742 1.35150E+02 4.25728E+01 0.00000E+00
 -1      2743 1.36650E+02 4.25728E+01 0.00000E+00
 -1      2744 1.34400E+02 4.12963E+01 0.00000E+00
 -1      2745 1.38150E+02 4.25728E+01 0.00000E+00
 -1      2746 1.39650E+02 4.25728E+01 0.00000E+00
 -1      2747 1.37400E+02 4.12963E+01 0.00000E+00
 -1      2748 7.66112E+01 4.04913E+01 0.00000E+00
 -1      2749 7.63998E+01 4.11559E+01 0.00000E+00
 -1      2750 1.44823E+02 4.51319E+01 0.00000E+00
 -1      2751 1.45548E+02 4.49006E+01 0.00000E+00
 -1      2752 2.91240E+01 8.68250E+00 0.00000E+00
 -1      2753 2.76240E+01 8.68250E+00 0.00000E+00
 -1      2754 2.61240E+01 8.68250E+00 0.00000E+00
 -1      2755 2.46240E+01 8.68250E+00 0.00000E+00
 -1      2756 2.38740E+01 9.98150E+00 0.00000E+00
 -1      2757 2.68740E+01 9.98150E+00 0.00000E+00
 -1      2758 3.51240E+01 8.68250E+00 0.00000E+00
 -1      2759 3.36240E+01 8.68250E+00 0.00000E+00
 -1      2760 3.81240E+01 8.68250E+00 0.00000E+00
 -1      2761 3.66240E+01 8.68250E+00 0.00000E+00
 -1      2762 3.58740E+01 9.98150E+00 0.00000E+00
 -1      2763 4.11240E+01 8.68250E+00 0.00000E+00
 -1      2764 3.96240E+01 8.68250E+00 0.00000E+00
 -1      2765 3.88740E+01 9.98150E+00 0.00000E+00
 -1      2766 4.41240E+01 8.68250E+00 0.00000E+00
 -1      2767 4.26240E+01 8.68250E+00 0.00000E+00
 -1      2768 4.18740E+01 9.98150E+00 0.00000E+00
 -1      2769 4.71240E+01 8.68250E+00 0.00000E+00
 -1      2770 4.56240E+01 8.68250E+00 0.00000E+00
 -1      2771 4.48740E+01 9.98150E+00 0.00000E+00
 -1      2772 5.01240E+01 8.68250E+00 0.00000E+00
 -1      2773 4.86240E+01 8.68250E+00 0.00000E+00
 -1      2774 4.78740E+01 9.98150E+00 0.00000E+00
 -1      2775 5.31240E+01 8.68250E+00 0.00000E+00
 -1      2776 5.16240E+01 8.68250E+00 0.00000E+00
 -1      2777 5.08740E+01 9.98150E+00 0.00000E+00
 -1      2778 5.61240E+01 8.68250E+00 0.00000E+00
 -1      2779 5.46240E+01 8.68250E+00 0.00000E+00
 -1      2780 5.38740E+01 9.98150E+00 0.00000E+00
 -1      2781 5.91240E+01 8.68250E+00 0.00000E+00
 -1      2782 5.76240E+01 8.68250E+00 0.00000E+00
 -1      2783 5.68740E+01 9.98150E+00 0.00000E+00
 -1      2784 6.21240E+01 8.68250E+00 0.00000E+00
 -1      2785 6.06240E+01 8.68250E+00 0.00000E+00
 -1      2786 5.98740E+01 9.98150E+00 0.00000E+00
 -1      2787 6.51240E+01 8.68250E+00 0.00000E+00
 -1      2788 6.36240E+01 8.68250E+00 0.00000E+00
 -1      2789 6.28740E+01 9.98150E+00 0.00000E+00
 -1      2790 6.81240E+01 8.68250E+00 0.00000E+00
 -1      2791 6.66240E+01 8.68250E+00 0.00000E+00
 -1      2792 6.58740E+01 9.98150E+00 0.00000E+00
 -1      2793 7.11240E+01 8.68250E+00 0.00000E+00
 -1      2794 6.96240E+01 8.68250E+00 0.00000E+00
 -1      2795 6.88740E+01 9.98150E+00 0.00000E+00
 -1      2796 7.41240E+01 8.68250E+00 0.00000E+00
 -1      2797 7.26240E+01 8.68250E+00 0.00000E+00
 -1      2798 7.18740E+01 9.98150E+00 0.00000E+00
 -1      2799 7.71240E+01 8.68250E+00 0.00000E+00
 -1      2800 7.56240E+01 8.68250E+00 0.00000E+00
 -1      2801 7.48740E+01 9.98150E+00 0.00000E+00
 -1      2802 8.01240E+01 8.68250E+00 0.00000E+00
 -1      2803 7.86240E+01 8.68250E+00 0.00000E+00
 -1      2804 7.78740E+01 9.98150E+00 0.00000E+00
 -1      2805 8.31240E+01 8.68250E+00 0.00000E+00
 -1      2806 8.16240E+01 8.68250E+00 0.00000E+00
 -1      2807 8.08740E+01 9.98150E+00 0.00000E+00
 -1      2808 8.61240E+01 8.68250E+00 0.00000E+00
 -1      2809 8.46240E+01 8.68250E+00 0.00000E+00
 -1      2810 8.38740E+01 9.98150E+00 0.00000E+00
 -1      2811 8.91240E+01 8.68250E+00 0.00000E+00
 -1      2812 8.76240E+01 8.68250E+00 0.00000E+00
 -1      2813 8.68740E+01 9.98150E+00 0.00000E+00
 -1      2814 9.21240E+01 8.68250E+00 0.00000E+00
 -1      2815 9.06240E+01 8.68250E+00 0.00000E+00
 -1      2816 8.98740E+01 9.98150E+00 0.00000E+00
 -1      2817 9.51240E+01 8.68250E+00 0.00000E+00
 -1      2818 9.36240E+01 8.68250E+00 0.00000E+00
 -1      2819 9.28740E+01 9.98150E+00 0.00000E+00
 -1      2820 9.81240E+01 8.68250E+00 0.00000E+00
 -1      2821 9.66240E+01 8.68250E+00 0.00000E+00
 -1      2822 9.58740E+01 9.98150E+00 0.00000E+00
 -1      2823 1.01124E+02 8.68250E+00 0.00000E+00
 -1      2824 9.96240E+01 8.68250E+00 0.00000E+00
 -1      2825 9.88740E+01 9.98150E+00 0.00000E+00
 -1      2826 1.04124E+02 8.68250E+00 0.00000E+00
 -1      2827 1.02624E+02 8.68250E+00 0.00000E+00
 -1      2828 1.01874E+02 9.98150E+00 0.00000E+00
 -1      2829 1.07124E+02 8.68250E+00 0.00000E+00
 -1      2830 1.05624E+02 8.68250E+00 0.00000E+00
 -1      2831 1.04874E+02 9.98150E+00 0.00000E+00
 -1      2832 1.10124E+02 8.68250E+00 0.00000E+00
 -1      2833 1.08624E+02 8.68250E+00 0.00000E+00
 -1      2834 1.07874E+02 9.98150E+00 0.00000E+00
 -1      2835 1.13124E+02 8.68250E+00 0.00000E+00
 -1      2836 1.11624E+02 8.68250E+00 0.00000E+00
 -1      2837 1.10874E+02 9.98150E+00 0.00000E+00
 -1      2838 1.16124E+02 8.68250E+00 0.00000E+00
 -1      2839 1.14624E+02 8.68250E+00 0.00000E+00
 -1      2840 1.13874E+02 9.98150E+00 0.00000E+00
 -1      2841 1.19124E+02 8.68250E+00 0.00000E+00
 -1      2842 1.17624E+02 8.68250E+00 0.00000E+00
 -1      2843 1.16874E+02 9.98150E+00 0.00000E+00
 -1      2844 1.22124E+02 8.68250E+00 0.00000E+00
 -1      2845 1.20624E+02 8.68250E+00 0.00000E+00
 -1      2846 1.19874E+02 9.98150E+00 0.00000E+00
 -1      2847 1.25124E+02 8.68250E+00 0.00000E+00
 -1      2848 1.23624E+02 8.68250E+00 0.00000E+00
 -1      2849 1.22874E+02 9.98150E+00 0.00000E+00
 -1      2850 1.28124E+02 8.68250E+00 0.00000E+00
 -1      2851 1.26624E+02 8.68250E+00 0.00000E+00
 -1      2852 1.25874E+02 9.98150E+00 0.00000E+00
 -1      2853 1.31124E+02 8.68250E+00 0.00000E+00
 -1      2854 1.29624E+02 8.68250E+00 0.00000E+00
 -1      2855 1.28874E+02 9.98150E+00 0.00000E+00
 -1      2856 1.34124E+02 8.68250E+00 0.00000E+00
 -1      2857 1.32624E+02 8.68250E+00 0.00000E+00
 -1      2858 1.31874E+02 9.98150E+00 0.00000E+00
 -1      2859 1.37124E+02 8.68250E+00 0.00000E+00
 -1      2860 1.35624E+02 8.68250E+00 0.00000E+00
 -1      2861 1.34874E+02 9.98150E+00 0.00000E+00
 -1      2862 1.40082E+02 8.76838E+00 0.00000E+00
 -1      2863 1.38582E+02 8.76838E+00 0.00000E+00
 -1      2864 1.37832E+02 1.00674E+01 0.00000E+00
 -1      2865 1.40748E+02 1.02391E+01 0.00000E+00
 -1      2866 1.40907E+02 1.54500E+01 0.00000E+00
 -1      2867 1.40907E+02 1.40000E+01 0.00000E+00
 -1      2868 1.40907E+02 2.13375E+01 0.00000E+00
 -1      2869 1.40907E+02 1.98625E+01 0.00000E+00
 -1      2870 1.40827E+02 1.28571E+01 0.00000E+00
 -1      2871 1.40827E+02 1.13821E+01 0.00000E+00
 -1      2872 1.39370E+02 1.12962E+01 0.00000E+00
 -1      2873 1.39529E+02 1.35821E+01 0.00000E+00
 -1      2874 7.69000E+01 3.51114E+01 0.00000E+00
 -1      2875 7.72027E+01 3.65061E+01 0.00000E+00
 -1      2876 1.40907E+02 1.83937E+01 0.00000E+00
 -1      2877 1.40907E+02 1.69188E+01 0.00000E+00
 -1      2878 1.39608E+02 1.61938E+01 0.00000E+00
 -1      2879 1.39608E+02 1.91313E+01 0.00000E+00
 -1      2880 1.40907E+02 2.72375E+01 0.00000E+00
 -1      2881 1.40907E+02 2.57625E+01 0.00000E+00
 -1      2882 1.40907E+02 3.01375E+01 0.00000E+00
 -1      2883 1.40907E+02 2.86875E+01 0.00000E+00
 -1      2884 1.39608E+02 2.79500E+01 0.00000E+00
 -1      2885 1.40907E+02 3.30875E+01 0.00000E+00
 -1      2886 1.40907E+02 3.16125E+01 0.00000E+00
 -1      2887 1.39608E+02 3.08750E+01 0.00000E+00
 -1      2888 1.40907E+02 3.60375E+01 0.00000E+00
 -1      2889 1.40907E+02 3.45625E+01 0.00000E+00
 -1      2890 1.39608E+02 3.38250E+01 0.00000E+00
 -1      2891 1.40907E+02 3.89875E+01 0.00000E+00
 -1      2892 1.40907E+02 3.75125E+01 0.00000E+00
 -1      2893 1.39608E+02 3.67750E+01 0.00000E+00
 -1      2894 1.44110E+02 4.40230E+01 0.00000E+00
 -1      2895 1.44102E+02 4.25246E+01 0.00000E+00
 -1      2896 1.43513E+02 4.19609E+01 0.00000E+00
 -1      2897 1.42214E+02 4.12234E+01 0.00000E+00
 -1      2898 2.01240E+01 8.68250E+00 0.00000E+00
 -1      2899 1.86240E+01 8.68250E+00 0.00000E+00
 -1      2900 2.08740E+01 9.98150E+00 0.00000E+00
 -1      2901 7.71476E+01 3.79522E+01 0.00000E+00
 -1      2902 7.68794E+01 3.92218E+01 0.00000E+00
 -1      2903 7.75110E+01 3.97887E+01 0.00000E+00
 -1      2904 6.16724E+01 2.69165E+01 0.00000E+00
 -1      2905 6.29673E+01 2.65302E+01 0.00000E+00
 -1      2906 5.32554E+01 3.60596E+01 0.00000E+00
 -1      2907 5.33564E+01 3.48891E+01 0.00000E+00
 -1      2908 5.24293E+01 4.13229E+01 0.00000E+00
 -1      2909 5.40296E+01 3.33827E+01 0.00000E+00
 -1      2910 5.48182E+01 3.24391E+01 0.00000E+00
 -1      2911 1.40907E+02 2.42875E+01 0.00000E+00
 -1      2912 1.40907E+02 2.28125E+01 0.00000E+00
 -1      2913 1.39608E+02 2.50250E+01 0.00000E+00
 -1      2914 3.21240E+01 8.68250E+00 0.00000E+00
 -1      2915 3.06240E+01 8.68250E+00 0.00000E+00
 -1      2916 2.98740E+01 9.98150E+00 0.00000E+00
 -1      2917 3.28740E+01 9.98150E+00 0.00000E+00
 -1      2918 5.96035E+01 2.74995E+01 0.00000E+00
 -1      2919 6.05143E+01 2.71927E+01 0.00000E+00
 -1      2920 7.60416E+01 3.26117E+01 0.00000E+00
 -1      2921 7.65618E+01 3.36215E+01 0.00000E+00
 -1      2922 5.30887E+01 3.82033E+01 0.00000E+00
 -1      2923 5.31721E+01 3.71315E+01 0.00000E+00
 -1      2924 5.23682E+01 3.64725E+01 0.00000E+00
 -1      2925 6.43546E+01 2.60489E+01 0.00000E+00
 -1      2926 6.56456E+01 2.58570E+01 0.00000E+00
 -1      2927 1.71240E+01 8.68250E+00 0.00000E+00
 -1      2928 1.56240E+01 8.68250E+00 0.00000E+00
 -1      2929 1.78740E+01 9.98150E+00 0.00000E+00
 -1      2930 9.09300E+00 1.68813E+01 0.00000E+00
 -1      2931 9.09300E+00 1.83563E+01 0.00000E+00
 -1      2932 1.03920E+01 1.90812E+01 0.00000E+00
 -1      2933 1.03920E+01 1.61437E+01 0.00000E+00
 -1      2934 1.42125E+01 4.09070E+01 0.00000E+00
 -1      2935 1.57125E+01 4.09070E+01 0.00000E+00
 -1      2936 1.64250E+01 3.96080E+01 0.00000E+00
 -1      2937 1.42811E+02 4.32855E+01 0.00000E+00
 -1      2938 5.48784E+01 3.15347E+01 0.00000E+00
 -1      2939 5.49387E+01 3.06303E+01 0.00000E+00
 -1      2940 5.38583E+01 3.14835E+01 0.00000E+00
 -1      2941 1.03920E+01 2.49750E+01 0.00000E+00
 -1      2942 9.09300E+00 2.57000E+01 0.00000E+00
 -1      2943 9.09300E+00 2.71750E+01 0.00000E+00
 -1      2944 9.00375E+00 8.96981E+00 0.00000E+00
 -1      2945 5.25467E+01 3.89921E+01 0.00000E+00
 -1      2946 5.17428E+01 3.83331E+01 0.00000E+00
 -1      2947 5.20046E+01 3.97808E+01 0.00000E+00
 -1      2948 1.03027E+01 9.70731E+00 0.00000E+00
 -1      2949 9.09300E+00 2.86437E+01 0.00000E+00
 -1      2950 9.09300E+00 3.01187E+01 0.00000E+00
 -1      2951 1.03920E+01 3.08563E+01 0.00000E+00
 -1      2952 1.03920E+01 2.79188E+01 0.00000E+00
 -1      2953 4.94879E+01 3.93649E+01 0.00000E+00
 -1      2954 5.02004E+01 4.06639E+01 0.00000E+00
 -1      2955 7.74714E+01 4.24538E+01 0.00000E+00
 -1      2956 7.82214E+01 4.11773E+01 0.00000E+00
 -1      2957 5.16254E+01 4.06639E+01 0.00000E+00
 -1      2958 6.94327E+01 2.69501E+01 0.00000E+00
 -1      2959 7.03087E+01 2.67144E+01 0.00000E+00
 -1      2960 6.90710E+01 2.59659E+01 0.00000E+00
 -1      2961 1.03920E+01 3.37938E+01 0.00000E+00
 -1      2962 9.09300E+00 3.45313E+01 0.00000E+00
 -1      2963 9.09300E+00 3.60000E+01 0.00000E+00
 -1      2964 5.88003E+01 2.75556E+01 0.00000E+00
 -1      2965 5.89552E+01 2.65101E+01 0.00000E+00
 -1      2966 5.79970E+01 2.76117E+01 0.00000E+00
 -1      2967 6.09165E+01 2.61778E+01 0.00000E+00
 -1      2968 1.41311E+02 4.32855E+01 0.00000E+00
 -1      2969 6.34620E+01 2.54203E+01 0.00000E+00
 -1      2970 1.40561E+02 4.20090E+01 0.00000E+00
 -1      2971 7.75512E+01 3.41370E+01 0.00000E+00
 -1      2972 1.39608E+02 2.20750E+01 0.00000E+00
 -1      2973 1.39503E+01 8.45577E+00 0.00000E+00
 -1      2974 1.28778E+01 8.12058E+00 0.00000E+00
 -1      2975 1.40553E+02 4.05106E+01 0.00000E+00
 -1      2976 1.39254E+02 3.97731E+01 0.00000E+00
 -1      2977 7.78343E+01 3.70730E+01 0.00000E+00
 -1      2978 7.84659E+01 3.76399E+01 0.00000E+00
 -1      2979 7.85210E+01 3.61938E+01 0.00000E+00
 -1      2980 6.57259E+01 2.46523E+01 0.00000E+00
 -1      2981 6.65221E+01 2.55703E+01 0.00000E+00
 -1      2982 6.73986E+01 2.52836E+01 0.00000E+00
 -1      2983 9.52200E+00 3.93838E+01 0.00000E+00
 -1      2984 9.82350E+00 4.06629E+01 0.00000E+00
 -1      2985 1.09485E+01 4.07509E+01 0.00000E+00
 -1      2986 5.22199E+01 3.44059E+01 0.00000E+00
 -1      2987 5.31248E+01 3.38943E+01 0.00000E+00
 -1      2988 5.28932E+01 3.28994E+01 0.00000E+00
 -1      2989 5.69005E+01 2.96694E+01 0.00000E+00
 -1      2990 5.69547E+01 2.86729E+01 0.00000E+00
 -1      2991 5.60130E+01 2.96851E+01 0.00000E+00
 -1      2992 1.20180E+01 4.07849E+01 0.00000E+00
 -1      2993 1.31430E+01 4.08729E+01 0.00000E+00
 -1      2994 1.38555E+01 3.95739E+01 0.00000E+00
 -1      2995 1.17165E+01 3.95058E+01 0.00000E+00
 -1      2996 7.26787E+01 2.91338E+01 0.00000E+00
 -1      2997 7.34793E+01 2.99453E+01 0.00000E+00
 -1      2998 7.16812E+01 2.75020E+01 0.00000E+00
 -1      2999 7.21800E+01 2.83179E+01 0.00000E+00
 -1      3000 7.31907E+01 2.81214E+01 0.00000E+00
 -1      3001 7.54869E+01 3.15693E+01 0.00000E+00
 -1      3002 7.66583E+01 3.16047E+01 0.00000E+00
 -1      3003 1.47003E+01 9.75477E+00 0.00000E+00
 -1      3004 7.46863E+01 3.07578E+01 0.00000E+00
 -1      3005 1.16910E+01 1.24625E+01 0.00000E+00
 -1      3006 1.16910E+01 1.39375E+01 0.00000E+00
 -1      3007 1.14712E+01 7.20138E+00 0.00000E+00
 -1      3008 5.07650E+01 3.82418E+01 0.00000E+00
 -1      3009 5.13070E+01 3.74531E+01 0.00000E+00
 -1      3010 3.96240E+01 1.12805E+01 0.00000E+00
 -1      3011 3.81240E+01 1.12805E+01 0.00000E+00
 -1      3012 2.16240E+01 1.12805E+01 0.00000E+00
 -1      3013 2.01240E+01 1.12805E+01 0.00000E+00
 -1      3014 9.15675E+00 3.70523E+01 0.00000E+00
 -1      3015 9.45825E+00 3.83314E+01 0.00000E+00
 -1      3016 1.05833E+01 3.84194E+01 0.00000E+00
 -1      3017 1.04558E+01 3.63148E+01 0.00000E+00
 -1      3018 7.83818E+01 3.31651E+01 0.00000E+00
 -1      3019 7.87200E+01 3.46550E+01 0.00000E+00
 -1      3020 2.16750E+01 3.83090E+01 0.00000E+00
 -1      3021 2.31750E+01 3.83090E+01 0.00000E+00
 -1      3022 2.46750E+01 3.83090E+01 0.00000E+00
 -1      3023 2.61750E+01 3.83090E+01 0.00000E+00
 -1      3024 2.39250E+01 3.70100E+01 0.00000E+00
 -1      3025 2.76750E+01 3.83090E+01 0.00000E+00
 -1      3026 2.91750E+01 3.83090E+01 0.00000E+00
 -1      3027 2.69250E+01 3.70100E+01 0.00000E+00
 -1      3028 3.06750E+01 3.83090E+01 0.00000E+00
 -1      3029 3.21750E+01 3.83090E+01 0.00000E+00
 -1      3030 2.99250E+01 3.70100E+01 0.00000E+00
 -1      3031 3.36750E+01 3.83090E+01 0.00000E+00
 -1      3032 3.51750E+01 3.83090E+01 0.00000E+00
 -1      3033 3.29250E+01 3.70100E+01 0.00000E+00
 -1      3034 3.66750E+01 3.83090E+01 0.00000E+00
 -1      3035 3.81750E+01 3.83090E+01 0.00000E+00
 -1      3036 3.59250E+01 3.70100E+01 0.00000E+00
 -1      3037 3.96000E+01 3.83090E+01 0.00000E+00
 -1      3038 4.10250E+01 3.83090E+01 0.00000E+00
 -1      3039 3.88500E+01 3.70100E+01 0.00000E+00
 -1      3040 4.25250E+01 3.83090E+01 0.00000E+00
 -1      3041 4.40250E+01 3.83090E+01 0.00000E+00
 -1      3042 4.17750E+01 3.70100E+01 0.00000E+00
 -1      3043 4.55250E+01 3.83090E+01 0.00000E+00
 -1      3044 4.70250E+01 3.83090E+01 0.00000E+00
 -1      3045 4.47750E+01 3.70100E+01 0.00000E+00
 -1      3046 8.29500E+01 4.01036E+01 0.00000E+00
 -1      3047 8.44500E+01 4.01036E+01 0.00000E+00
 -1      3048 8.59500E+01 4.01036E+01 0.00000E+00
 -1      3049 8.74500E+01 4.01036E+01 0.00000E+00
 -1      3050 8.52000E+01 3.89109E+01 0.00000E+00
 -1      3051 8.89500E+01 4.01036E+01 0.00000E+00
 -1      3052 9.04500E+01 4.01036E+01 0.00000E+00
 -1      3053 8.82000E+01 3.89109E+01 0.00000E+00
 -1      3054 9.19500E+01 4.01036E+01 0.00000E+00
 -1      3055 9.34500E+01 4.01036E+01 0.00000E+00
 -1      3056 9.12000E+01 3.89109E+01 0.00000E+00
 -1      3057 9.49500E+01 4.01036E+01 0.00000E+00
 -1      3058 9.64500E+01 4.01036E+01 0.00000E+00
 -1      3059 9.42000E+01 3.89109E+01 0.00000E+00
 -1      3060 9.78750E+01 4.01036E+01 0.00000E+00
 -1      3061 9.93000E+01 4.01036E+01 0.00000E+00
 -1      3062 9.71250E+01 3.89109E+01 0.00000E+00
 -1      3063 1.00800E+02 4.01036E+01 0.00000E+00
 -1      3064 1.02300E+02 4.01036E+01 0.00000E+00
 -1      3065 1.00050E+02 3.89109E+01 0.00000E+00
 -1      3066 1.03800E+02 4.01036E+01 0.00000E+00
 -1      3067 1.05300E+02 4.01036E+01 0.00000E+00
 -1      3068 1.03050E+02 3.89109E+01 0.00000E+00
 -1      3069 1.06800E+02 4.01036E+01 0.00000E+00
 -1      3070 1.08300E+02 4.01036E+01 0.00000E+00
 -1      3071 1.06050E+02 3.89109E+01 0.00000E+00
 -1      3072 1.09800E+02 4.01036E+01 0.00000E+00
 -1      3073 1.11300E+02 4.01036E+01 0.00000E+00
 -1      3074 1.09050E+02 3.89109E+01 0.00000E+00
 -1      3075 1.12800E+02 4.01036E+01 0.00000E+00
 -1      3076 1.14300E+02 4.01036E+01 0.00000E+00
 -1      3077 1.12050E+02 3.89109E+01 0.00000E+00
 -1      3078 1.15800E+02 4.01036E+01 0.00000E+00
 -1      3079 1.17300E+02 4.01036E+01 0.00000E+00
 -1      3080 1.15050E+02 3.89109E+01 0.00000E+00
 -1      3081 1.18800E+02 4.01036E+01 0.00000E+00
 -1      3082 1.20300E+02 4.01036E+01 0.00000E+00
 -1      3083 1.18050E+02 3.89109E+01 0.00000E+00
 -1      3084 1.21725E+02 4.01036E+01 0.00000E+00
 -1      3085 1.23150E+02 4.01036E+01 0.00000E+00
 -1      3086 1.20975E+02 3.89109E+01 0.00000E+00
 -1      3087 1.24650E+02 4.01036E+01 0.00000E+00
 -1      3088 1.26150E+02 4.01036E+01 0.00000E+00
 -1      3089 1.23900E+02 3.89109E+01 0.00000E+00
 -1      3090 1.27650E+02 4.01036E+01 0.00000E+00
 -1      3091 1.29150E+02 4.01036E+01 0.00000E+00
 -1      3092 1.26900E+02 3.89109E+01 0.00000E+00
 -1      3093 1.30650E+02 4.01036E+01 0.00000E+00
 -1      3094 1.32150E+02 4.01036E+01 0.00000E+00
 -1      3095 1.29900E+02 3.89109E+01 0.00000E+00
 -1      3096 1.33650E+02 4.01036E+01 0.00000E+00
 -1      3097 1.35150E+02 4.01036E+01 0.00000E+00
 -1      3098 1.32900E+02 3.89109E+01 0.00000E+00
 -1      3099 1.36452E+02 3.99384E+01 0.00000E+00
 -1      3100 1.37952E+02 3.99384E+01 0.00000E+00
 -1      3101 1.38306E+02 3.84152E+01 0.00000E+00
 -1      3102 1.35702E+02 3.87457E+01 0.00000E+00
 -1      3103 4.26240E+01 1.12805E+01 0.00000E+00
 -1      3104 4.11240E+01 1.12805E+01 0.00000E+00
 -1      3105 4.03740E+01 1.25795E+01 0.00000E+00
 -1      3106 3.66240E+01 1.12805E+01 0.00000E+00
 -1      3107 3.51240E+01 1.12805E+01 0.00000E+00
 -1      3108 3.73740E+01 1.25795E+01 0.00000E+00
 -1      3109 4.56240E+01 1.12805E+01 0.00000E+00
 -1      3110 4.41240E+01 1.12805E+01 0.00000E+00
 -1      3111 4.33740E+01 1.25795E+01 0.00000E+00
 -1      3112 4.86240E+01 1.12805E+01 0.00000E+00
 -1      3113 4.71240E+01 1.12805E+01 0.00000E+00
 -1      3114 4.63740E+01 1.25795E+01 0.00000E+00
 -1      3115 5.16240E+01 1.12805E+01 0.00000E+00
 -1      3116 5.01240E+01 1.12805E+01 0.00000E+00
 -1      3117 4.93740E+01 1.25795E+01 0.00000E+00
 -1      3118 5.46240E+01 1.12805E+01 0.00000E+00
 -1      3119 5.31240E+01 1.12805E+01 0.00000E+00
 -1      3120 5.23740E+01 1.25795E+01 0.00000E+00
 -1      3121 5.76240E+01 1.12805E+01 0.00000E+00
 -1      3122 5.61240E+01 1.12805E+01 0.00000E+00
 -1      3123 5.53740E+01 1.25795E+01 0.00000E+00
 -1      3124 6.06240E+01 1.12805E+01 0.00000E+00
 -1      3125 5.91240E+01 1.12805E+01 0.00000E+00
 -1      3126 5.83740E+01 1.25795E+01 0.00000E+00
 -1      3127 6.36240E+01 1.12805E+01 0.00000E+00
 -1      3128 6.21240E+01 1.12805E+01 0.00000E+00
 -1      3129 6.13740E+01 1.25795E+01 0.00000E+00
 -1      3130 6.66240E+01 1.12805E+01 0.00000E+00
 -1      3131 6.51240E+01 1.12805E+01 0.00000E+00
 -1      3132 6.43740E+01 1.25795E+01 0.00000E+00
 -1      3133 6.96240E+01 1.12805E+01 0.00000E+00
 -1      3134 6.81240E+01 1.12805E+01 0.00000E+00
 -1      3135 6.73740E+01 1.25795E+01 0.00000E+00
 -1      3136 7.26240E+01 1.12805E+01 0.00000E+00
 -1      3137 7.11240E+01 1.12805E+01 0.00000E+00
 -1      3138 7.03740E+01 1.25795E+01 0.00000E+00
 -1      3139 7.56240E+01 1.12805E+01 0.00000E+00
 -1      3140 7.41240E+01 1.12805E+01 0.00000E+00
 -1      3141 7.33740E+01 1.25795E+01 0.00000E+00
 -1      3142 7.86240E+01 1.12805E+01 0.00000E+00
 -1      3143 7.71240E+01 1.12805E+01 0.00000E+00
 -1      3144 7.63740E+01 1.25795E+01 0.00000E+00
 -1      3145 8.16240E+01 1.12805E+01 0.00000E+00
 -1      3146 8.01240E+01 1.12805E+01 0.00000E+00
 -1      3147 7.93740E+01 1.25795E+01 0.00000E+00
 -1      3148 8.46240E+01 1.12805E+01 0.00000E+00
 -1      3149 8.31240E+01 1.12805E+01 0.00000E+00
 -1      3150 8.23740E+01 1.25795E+01 0.00000E+00
 -1      3151 8.76240E+01 1.12805E+01 0.00000E+00
 -1      3152 8.61240E+01 1.12805E+01 0.00000E+00
 -1      3153 8.53740E+01 1.25795E+01 0.00000E+00
 -1      3154 9.06240E+01 1.12805E+01 0.00000E+00
 -1      3155 8.91240E+01 1.12805E+01 0.00000E+00
 -1      3156 8.83740E+01 1.25795E+01 0.00000E+00
 -1      3157 9.36240E+01 1.12805E+01 0.00000E+00
 -1      3158 9.21240E+01 1.12805E+01 0.00000E+00
 -1      3159 9.13740E+01 1.25795E+01 0.00000E+00
 -1      3160 9.66240E+01 1.12805E+01 0.00000E+00
 -1      3161 9.51240E+01 1.12805E+01 0.00000E+00
 -1      3162 9.43740E+01 1.25795E+01 0.00000E+00
 -1      3163 9.96240E+01 1.12805E+01 0.00000E+00
 -1      3164 9.81240E+01 1.12805E+01 0.00000E+00
 -1      3165 9.73740E+01 1.25795E+01 0.00000E+00
 -1      3166 1.02624E+02 1.12805E+01 0.00000E+00
 -1      3167 1.01124E+02 1.12805E+01 0.00000E+00
 -1      3168 1.00374E+02 1.25795E+01 0.00000E+00
 -1      3169 1.05624E+02 1.12805E+01 0.00000E+00
 -1      3170 1.04124E+02 1.12805E+01 0.00000E+00
 -1      3171 1.03374E+02 1.25795E+01 0.00000E+00
 -1      3172 1.08624E+02 1.12805E+01 0.00000E+00
 -1      3173 1.07124E+02 1.12805E+01 0.00000E+00
 -1      3174 1.06374E+02 1.25795E+01 0.00000E+00
 -1      3175 1.11624E+02 1.12805E+01 0.00000E+00
 -1      3176 1.10124E+02 1.12805E+01 0.00000E+00
 -1      3177 1.09374E+02 1.25795E+01 0.00000E+00
 -1      3178 1.14624E+02 1.12805E+01 0.00000E+00
 -1      3179 1.13124E+02 1.12805E+01 0.00000E+00
 -1      3180 1.12374E+02 1.25795E+01 0.00000E+00
 -1      3181 1.17624E+02 1.12805E+01 0.00000E+00
 -1      3182 1.16124E+02 1.12805E+01 0.00000E+00
 -1      3183 1.15374E+02 1.25795E+01 0.00000E+00
 -1      3184 1.20624E+02 1.12805E+01 0.00000E+00
 -1      3185 1.19124E+02 1.12805E+01 0.00000E+00
 -1      3186 1.18374E+02 1.25795E+01 0.00000E+00
 -1      3187 1.23624E+02 1.12805E+01 0.00000E+00
 -1      3188 1.22124E+02 1.12805E+01 0.00000E+00
 -1      3189 1.21374E+02 1.25795E+01 0.00000E+00
 -1      3190 1.26624E+02 1.12805E+01 0.00000E+00
 -1      3191 1.25124E+02 1.12805E+01 0.00000E+00
 -1      3192 1.24374E+02 1.25795E+01 0.00000E+00
 -1      3193 1.29624E+02 1.12805E+01 0.00000E+00
 -1      3194 1.28124E+02 1.12805E+01 0.00000E+00
 -1      3195 1.27374E+02 1.25795E+01 0.00000E+00
 -1      3196 1.32624E+02 1.12805E+01 0.00000E+00
 -1      3197 1.31124E+02 1.12805E+01 0.00000E+00
 -1      3198 1.30374E+02 1.25795E+01 0.00000E+00
 -1      3199 1.35624E+02 1.12805E+01 0.00000E+00
 -1      3200 1.34124E+02 1.12805E+01 0.00000E+00
 -1      3201 1.33374E+02 1.25795E+01 0.00000E+00
 -1      3202 1.38226E+02 1.13313E+01 0.00000E+00
 -1      3203 1.36768E+02 1.12454E+01 0.00000E+00
 -1      3204 1.36018E+02 1.25444E+01 0.00000E+00
 -1      3205 1.38305E+02 1.24742E+01 0.00000E+00
 -1      3206 1.38309E+02 3.16125E+01 0.00000E+00
 -1      3207 1.38309E+02 3.01375E+01 0.00000E+00
 -1      3208 7.48965E+01 2.97498E+01 0.00000E+00
 -1      3209 7.99500E+01 4.01874E+01 0.00000E+00
 -1      3210 8.14500E+01 4.01874E+01 0.00000E+00
 -1      3211 1.38309E+02 3.45625E+01 0.00000E+00
 -1      3212 1.38309E+02 3.30875E+01 0.00000E+00
 -1      3213 1.37010E+02 3.23500E+01 0.00000E+00
 -1      3214 1.38309E+02 2.86875E+01 0.00000E+00
 -1      3215 1.38309E+02 2.72375E+01 0.00000E+00
 -1      3216 1.37010E+02 2.94250E+01 0.00000E+00
 -1      3217 1.38307E+02 3.72264E+01 0.00000E+00
 -1      3218 1.38307E+02 3.57514E+01 0.00000E+00
 -1      3219 1.37008E+02 3.50139E+01 0.00000E+00
 -1      3220 1.37005E+02 3.73916E+01 0.00000E+00
 -1      3221 4.90521E+01 3.84849E+01 0.00000E+00
 -1      3222 7.63187E+01 4.20760E+01 0.00000E+00
 -1      3223 7.60182E+01 4.32567E+01 0.00000E+00
 -1      3224 1.86750E+01 3.83090E+01 0.00000E+00
 -1      3225 2.01750E+01 3.83090E+01 0.00000E+00
 -1      3226 2.09250E+01 3.70100E+01 0.00000E+00
 -1      3227 6.24598E+01 2.47716E+01 0.00000E+00
 -1      3228 6.38472E+01 2.42903E+01 0.00000E+00
 -1      3229 1.86240E+01 1.12805E+01 0.00000E+00
 -1      3230 1.71240E+01 1.12805E+01 0.00000E+00
 -1      3231 1.93740E+01 1.25795E+01 0.00000E+00
 -1      3232 1.38309E+02 2.57625E+01 0.00000E+00
 -1      3233 1.38309E+02 2.42875E+01 0.00000E+00
 -1      3234 1.37010E+02 2.65000E+01 0.00000E+00
 -1      3235 1.16200E+01 8.60883E+00 0.00000E+00
 -1      3236 1.53628E+01 1.11554E+01 0.00000E+00
 -1      3237 1.36890E+01 1.09286E+01 0.00000E+00
 -1      3238 1.38309E+02 2.28125E+01 0.00000E+00
 -1      3239 1.38309E+02 2.13375E+01 0.00000E+00
 -1      3240 1.37010E+02 2.35500E+01 0.00000E+00
 -1      3241 1.16910E+01 2.12875E+01 0.00000E+00
 -1      3242 1.16910E+01 2.27625E+01 0.00000E+00
 -1      3243 5.13904E+01 3.63812E+01 0.00000E+00
 -1      3244 6.01435E+01 2.53240E+01 0.00000E+00
 -1      3245 6.13017E+01 2.50478E+01 0.00000E+00
 -1      3246 6.16868E+01 2.39178E+01 0.00000E+00
 -1      3247 7.75277E+01 3.04733E+01 0.00000E+00
 -1      3248 7.80824E+01 3.15157E+01 0.00000E+00
 -1      3249 1.56750E+01 3.83090E+01 0.00000E+00
 -1      3250 1.71750E+01 3.83090E+01 0.00000E+00
 -1      3251 1.79250E+01 3.70100E+01 0.00000E+00
 -1      3252 1.17093E+01 1.06265E+01 0.00000E+00
 -1      3253 7.49590E+01 2.83541E+01 0.00000E+00
 -1      3254 7.61661E+01 2.91667E+01 0.00000E+00
 -1      3255 1.16910E+01 2.42375E+01 0.00000E+00
 -1      3256 1.16910E+01 2.57125E+01 0.00000E+00
 -1      3257 1.29900E+01 2.35000E+01 0.00000E+00
 -1      3258 8.22000E+01 3.89947E+01 0.00000E+00
 -1      3259 6.38575E+01 2.31757E+01 0.00000E+00
 -1      3260 6.48598E+01 2.38244E+01 0.00000E+00
 -1      3261 5.29534E+01 3.19950E+01 0.00000E+00
 -1      3262 5.30137E+01 3.10906E+01 0.00000E+00
 -1      3263 5.20485E+01 3.25066E+01 0.00000E+00
 -1      3264 1.38464E+02 1.47601E+01 0.00000E+00
 -1      3265 1.38385E+02 1.36172E+01 0.00000E+00
 -1      3266 1.37241E+02 1.36523E+01 0.00000E+00
 -1      3267 2.76240E+01 1.12805E+01 0.00000E+00
 -1      3268 2.61240E+01 1.12805E+01 0.00000E+00
 -1      3269 7.09578E+01 2.55337E+01 0.00000E+00
 -1      3270 7.13195E+01 2.65178E+01 0.00000E+00
 -1      3271 7.23302E+01 2.63213E+01 0.00000E+00
 -1      3272 7.84896E+01 3.99077E+01 0.00000E+00
 -1      3273 4.83021E+01 3.71859E+01 0.00000E+00
 -1      3274 6.82747E+01 2.50479E+01 0.00000E+00
 -1      3275 6.91507E+01 2.48122E+01 0.00000E+00
 -1      3276 6.74784E+01 2.41299E+01 0.00000E+00
 -1      3277 1.16910E+01 3.30594E+01 0.00000E+00
 -1      3278 1.16910E+01 3.45281E+01 0.00000E+00
 -1      3279 5.71096E+01 2.76274E+01 0.00000E+00
 -1      3280 5.72645E+01 2.65819E+01 0.00000E+00
 -1      3281 5.62221E+01 2.76431E+01 0.00000E+00
 -1      3282 1.46055E+01 3.82749E+01 0.00000E+00
 -1      3283 1.53555E+01 3.69759E+01 0.00000E+00
 -1      3284 1.35360E+01 3.82409E+01 0.00000E+00
 -1      3285 5.85371E+01 2.54362E+01 0.00000E+00
 -1      3286 5.93403E+01 2.53801E+01 0.00000E+00
 -1      3287 5.97254E+01 2.42501E+01 0.00000E+00
 -1      3288 7.75902E+01 2.90776E+01 0.00000E+00
 -1      3289 2.46240E+01 1.12805E+01 0.00000E+00
 -1      3290 2.31240E+01 1.12805E+01 0.00000E+00
 -1      3291 2.23740E+01 1.25795E+01 0.00000E+00
 -1      3292 2.53740E+01 1.25795E+01 0.00000E+00
 -1      3293 7.44603E+01 2.75382E+01 0.00000E+00
 -1      3294 7.57298E+01 2.69551E+01 0.00000E+00
 -1      3295 7.39615E+01 2.67223E+01 0.00000E+00
 -1      3296 1.30083E+01 1.13640E+01 0.00000E+00
 -1      3297 7.99263E+01 3.79196E+01 0.00000E+00
 -1      3298 7.92396E+01 3.87988E+01 0.00000E+00
 -1      3299 3.06240E+01 1.12805E+01 0.00000E+00
 -1      3300 2.91240E+01 1.12805E+01 0.00000E+00
 -1      3301 2.83740E+01 1.25795E+01 0.00000E+00
 -1      3302 1.38309E+02 1.98687E+01 0.00000E+00
 -1      3303 1.38309E+02 1.84000E+01 0.00000E+00
 -1      3304 1.37010E+02 2.06063E+01 0.00000E+00
 -1      3305 1.38464E+02 1.62288E+01 0.00000E+00
 -1      3306 5.39727E+01 2.95825E+01 0.00000E+00
 -1      3307 5.49929E+01 2.96338E+01 0.00000E+00
 -1      3308 5.50471E+01 2.86373E+01 0.00000E+00
 -1      3309 1.16910E+01 1.83500E+01 0.00000E+00
 -1      3310 1.16910E+01 1.98188E+01 0.00000E+00
 -1      3311 1.29900E+01 2.05562E+01 0.00000E+00
 -1      3312 6.57363E+01 2.35377E+01 0.00000E+00
 -1      3313 7.92512E+01 3.20337E+01 0.00000E+00
 -1      3314 1.61128E+01 1.24544E+01 0.00000E+00
 -1      3315 1.29900E+01 1.46687E+01 0.00000E+00
 -1      3316 1.16910E+01 1.54063E+01 0.00000E+00
 -1      3317 1.16910E+01 1.68750E+01 0.00000E+00
 -1      3318 1.16910E+01 3.01219E+01 0.00000E+00
 -1      3319 1.16910E+01 3.15906E+01 0.00000E+00
 -1      3320 1.29900E+01 3.23250E+01 0.00000E+00
 -1      3321 3.36240E+01 1.12805E+01 0.00000E+00
 -1      3322 3.21240E+01 1.12805E+01 0.00000E+00
 -1      3323 3.13740E+01 1.25795E+01 0.00000E+00
 -1      3324 3.43740E+01 1.25795E+01 0.00000E+00
 -1      3325 4.93633E+01 3.62053E+01 0.00000E+00
 -1      3326 5.04244E+01 3.52248E+01 0.00000E+00
 -1      3327 4.73361E+01 3.60295E+01 0.00000E+00
 -1      3328 8.01822E+01 3.42501E+01 0.00000E+00
 -1      3329 7.93516E+01 3.52219E+01 0.00000E+00
 -1      3330 7.99832E+01 3.57888E+01 0.00000E+00
 -1      3331 6.29227E+01 2.24774E+01 0.00000E+00
 -1      3332 6.39353E+01 2.20114E+01 0.00000E+00
 -1      3333 4.41240E+01 1.38785E+01 0.00000E+00
 -1      3334 4.26240E+01 1.38785E+01 0.00000E+00
 -1      3335 8.13928E+01 3.80130E+01 0.00000E+00
 -1      3336 8.28928E+01 3.79293E+01 0.00000E+00
 -1      3337 1.16910E+01 2.71844E+01 0.00000E+00
 -1      3338 1.16910E+01 2.86531E+01 0.00000E+00
 -1      3339 1.29900E+01 2.93875E+01 0.00000E+00
 -1      3340 2.61750E+01 3.57110E+01 0.00000E+00
 -1      3341 2.76750E+01 3.57110E+01 0.00000E+00
 -1      3342 2.91750E+01 3.57110E+01 0.00000E+00
 -1      3343 3.06750E+01 3.57110E+01 0.00000E+00
 -1      3344 2.84250E+01 3.44120E+01 0.00000E+00
 -1      3345 3.21750E+01 3.57110E+01 0.00000E+00
 -1      3346 3.36750E+01 3.57110E+01 0.00000E+00
 -1      3347 3.14250E+01 3.44120E+01 0.00000E+00
 -1      3348 3.51750E+01 3.57110E+01 0.00000E+00
 -1      3349 3.66750E+01 3.57110E+01 0.00000E+00
 -1      3350 3.44250E+01 3.44120E+01 0.00000E+00
 -1      3351 3.81000E+01 3.57110E+01 0.00000E+00
 -1      3352 3.95250E+01 3.57110E+01 0.00000E+00
 -1      3353 3.73500E+01 3.44120E+01 0.00000E+00
 -1      3354 4.10250E+01 3.57110E+01 0.00000E+00
 -1      3355 4.25250E+01 3.57110E+01 0.00000E+00
 -1      3356 4.02750E+01 3.44120E+01 0.00000E+00
 -1      3357 4.40250E+01 3.57110E+01 0.00000E+00
 -1      3358 4.55250E+01 3.57110E+01 0.00000E+00
 -1      3359 4.32750E+01 3.44120E+01 0.00000E+00
 -1      3360 8.44500E+01 3.77182E+01 0.00000E+00
 -1      3361 8.59500E+01 3.77182E+01 0.00000E+00
 -1      3362 7.71618E+01 4.19784E+01 0.00000E+00
 -1      3363 4.11240E+01 1.38785E+01 0.00000E+00
 -1      3364 3.96240E+01 1.38785E+01 0.00000E+00
 -1      3365 4.18740E+01 1.51775E+01 0.00000E+00
 -1      3366 8.74500E+01 3.77182E+01 0.00000E+00
 -1      3367 8.89500E+01 3.77182E+01 0.00000E+00
 -1      3368 8.67000E+01 3.65255E+01 0.00000E+00
 -1      3369 9.04500E+01 3.77182E+01 0.00000E+00
 -1      3370 9.19500E+01 3.77182E+01 0.00000E+00
 -1      3371 8.97000E+01 3.65255E+01 0.00000E+00
 -1      3372 9.34500E+01 3.77182E+01 0.00000E+00
 -1      3373 9.49500E+01 3.77182E+01 0.00000E+00
 -1      3374 9.27000E+01 3.65255E+01 0.00000E+00
 -1      3375 9.63750E+01 3.77182E+01 0.00000E+00
 -1      3376 9.78000E+01 3.77182E+01 0.00000E+00
 -1      3377 9.56250E+01 3.65255E+01 0.00000E+00
 -1      3378 9.93000E+01 3.77182E+01 0.00000E+00
 -1      3379 1.00800E+02 3.77182E+01 0.00000E+00
 -1      3380 9.85500E+01 3.65255E+01 0.00000E+00
 -1      3381 1.02300E+02 3.77182E+01 0.00000E+00
 -1      3382 1.03800E+02 3.77182E+01 0.00000E+00
 -1      3383 1.01550E+02 3.65255E+01 0.00000E+00
 -1      3384 1.05300E+02 3.77182E+01 0.00000E+00
 -1      3385 1.06800E+02 3.77182E+01 0.00000E+00
 -1      3386 1.04550E+02 3.65255E+01 0.00000E+00
 -1      3387 1.08300E+02 3.77182E+01 0.00000E+00
 -1      3388 1.09800E+02 3.77182E+01 0.00000E+00
 -1      3389 1.07550E+02 3.65255E+01 0.00000E+00
 -1      3390 1.11300E+02 3.77182E+01 0.00000E+00
 -1      3391 1.12800E+02 3.77182E+01 0.00000E+00
 -1      3392 1.10550E+02 3.65255E+01 0.00000E+00
 -1      3393 1.14300E+02 3.77182E+01 0.00000E+00
 -1      3394 1.15800E+02 3.77182E+01 0.00000E+00
 -1      3395 1.13550E+02 3.65255E+01 0.00000E+00
 -1      3396 1.17300E+02 3.77182E+01 0.00000E+00
 -1      3397 1.18800E+02 3.77182E+01 0.00000E+00
 -1      3398 1.16550E+02 3.65255E+01 0.00000E+00
 -1      3399 1.20225E+02 3.77182E+01 0.00000E+00
 -1      3400 1.21650E+02 3.77182E+01 0.00000E+00
 -1      3401 1.19475E+02 3.65255E+01 0.00000E+00
 -1      3402 1.23150E+02 3.77182E+01 0.00000E+00
 -1      3403 1.24650E+02 3.77182E+01 0.00000E+00
 -1      3404 1.22400E+02 3.65255E+01 0.00000E+00
 -1      3405 1.26150E+02 3.77182E+01 0.00000E+00
 -1      3406 1.27650E+02 3.77182E+01 0.00000E+00
 -1      3407 1.25400E+02 3.65255E+01 0.00000E+00
 -1      3408 1.29150E+02 3.77182E+01 0.00000E+00
 -1      3409 1.30650E+02 3.77182E+01 0.00000E+00
 -1      3410 1.28400E+02 3.65255E+01 0.00000E+00
 -1      3411 1.32150E+02 3.77182E+01 0.00000E+00
 -1      3412 1.33650E+02 3.77182E+01 0.00000E+00
 -1      3413 1.31400E+02 3.65255E+01 0.00000E+00
 -1      3414 1.34677E+02 3.76375E+01 0.00000E+00
 -1      3415 1.35979E+02 3.74723E+01 0.00000E+00
 -1      3416 1.35980E+02 3.62834E+01 0.00000E+00
 -1      3417 1.33927E+02 3.64448E+01 0.00000E+00
 -1      3418 2.31750E+01 3.57110E+01 0.00000E+00
 -1      3419 2.46750E+01 3.57110E+01 0.00000E+00
 -1      3420 2.54250E+01 3.44120E+01 0.00000E+00
 -1      3421 3.81240E+01 1.38785E+01 0.00000E+00
 -1      3422 3.66240E+01 1.38785E+01 0.00000E+00
 -1      3423 3.88740E+01 1.51775E+01 0.00000E+00
 -1      3424 5.01240E+01 1.38785E+01 0.00000E+00
 -1      3425 4.86240E+01 1.38785E+01 0.00000E+00
 -1      3426 5.31240E+01 1.38785E+01 0.00000E+00
 -1      3427 5.16240E+01 1.38785E+01 0.00000E+00
 -1      3428 5.08740E+01 1.51775E+01 0.00000E+00
 -1      3429 5.61240E+01 1.38785E+01 0.00000E+00
 -1      3430 5.46240E+01 1.38785E+01 0.00000E+00
 -1      3431 5.38740E+01 1.51775E+01 0.00000E+00
 -1      3432 5.91240E+01 1.38785E+01 0.00000E+00
 -1      3433 5.76240E+01 1.38785E+01 0.00000E+00
 -1      3434 5.68740E+01 1.51775E+01 0.00000E+00
 -1      3435 6.21240E+01 1.38785E+01 0.00000E+00
 -1      3436 6.06240E+01 1.38785E+01 0.00000E+00
 -1      3437 5.98740E+01 1.51775E+01 0.00000E+00
 -1      3438 6.51240E+01 1.38785E+01 0.00000E+00
 -1      3439 6.36240E+01 1.38785E+01 0.00000E+00
 -1      3440 6.28740E+01 1.51775E+01 0.00000E+00
 -1      3441 6.81240E+01 1.38785E+01 0.00000E+00
 -1      3442 6.66240E+01 1.38785E+01 0.00000E+00
 -1      3443 6.58740E+01 1.51775E+01 0.00000E+00
 -1      3444 7.11240E+01 1.38785E+01 0.00000E+00
 -1      3445 6.96240E+01 1.38785E+01 0.00000E+00
 -1      3446 6.88740E+01 1.51775E+01 0.00000E+00
 -1      3447 7.41240E+01 1.38785E+01 0.00000E+00
 -1      3448 7.26240E+01 1.38785E+01 0.00000E+00
 -1      3449 7.18740E+01 1.51775E+01 0.00000E+00
 -1      3450 7.71240E+01 1.38785E+01 0.00000E+00
 -1      3451 7.56240E+01 1.38785E+01 0.00000E+00
 -1      3452 7.48740E+01 1.51775E+01 0.00000E+00
 -1      3453 8.01240E+01 1.38785E+01 0.00000E+00
 -1      3454 7.86240E+01 1.38785E+01 0.00000E+00
 -1      3455 7.78740E+01 1.51775E+01 0.00000E+00
 -1      3456 8.31240E+01 1.38785E+01 0.00000E+00
 -1      3457 8.16240E+01 1.38785E+01 0.00000E+00
 -1      3458 8.08740E+01 1.51775E+01 0.00000E+00
 -1      3459 8.61240E+01 1.38785E+01 0.00000E+00
 -1      3460 8.46240E+01 1.38785E+01 0.00000E+00
 -1      3461 8.38740E+01 1.51775E+01 0.00000E+00
 -1      3462 8.91240E+01 1.38785E+01 0.00000E+00
 -1      3463 8.76240E+01 1.38785E+01 0.00000E+00
 -1      3464 8.68740E+01 1.51775E+01 0.00000E+00
 -1      3465 9.21240E+01 1.38785E+01 0.00000E+00
 -1      3466 9.06240E+01 1.38785E+01 0.00000E+00
 -1      3467 8.98740E+01 1.51775E+01 0.00000E+00
 -1      3468 9.51240E+01 1.38785E+01 0.00000E+00
 -1      3469 9.36240E+01 1.38785E+01 0.00000E+00
 -1      3470 9.28740E+01 1.51775E+01 0.00000E+00
 -1      3471 9.81240E+01 1.38785E+01 0.00000E+00
 -1      3472 9.66240E+01 1.38785E+01 0.00000E+00
 -1      3473 9.58740E+01 1.51775E+01 0.00000E+00
 -1      3474 1.01124E+02 1.38785E+01 0.00000E+00
 -1      3475 9.96240E+01 1.38785E+01 0.00000E+00
 -1      3476 9.88740E+01 1.51775E+01 0.00000E+00
 -1      3477 1.04124E+02 1.38785E+01 0.00000E+00
 -1      3478 1.02624E+02 1.38785E+01 0.00000E+00
 -1      3479 1.01874E+02 1.51775E+01 0.00000E+00
 -1      3480 1.07124E+02 1.38785E+01 0.00000E+00
 -1      3481 1.05624E+02 1.38785E+01 0.00000E+00
 -1      3482 1.04874E+02 1.51775E+01 0.00000E+00
 -1      3483 1.10124E+02 1.38785E+01 0.00000E+00
 -1      3484 1.08624E+02 1.38785E+01 0.00000E+00
 -1      3485 1.07874E+02 1.51775E+01 0.00000E+00
 -1      3486 1.13124E+02 1.38785E+01 0.00000E+00
 -1      3487 1.11624E+02 1.38785E+01 0.00000E+00
 -1      3488 1.10874E+02 1.51775E+01 0.00000E+00
 -1      3489 1.16124E+02 1.38785E+01 0.00000E+00
 -1      3490 1.14624E+02 1.38785E+01 0.00000E+00
 -1      3491 1.13874E+02 1.51775E+01 0.00000E+00
 -1      3492 1.19124E+02 1.38785E+01 0.00000E+00
 -1      3493 1.17624E+02 1.38785E+01 0.00000E+00
 -1      3494 1.16874E+02 1.51775E+01 0.00000E+00
 -1      3495 1.22124E+02 1.38785E+01 0.00000E+00
 -1      3496 1.20624E+02 1.38785E+01 0.00000E+00
 -1      3497 1.19874E+02 1.51775E+01 0.00000E+00
 -1      3498 1.25124E+02 1.38785E+01 0.00000E+00
 -1      3499 1.23624E+02 1.38785E+01 0.00000E+00
 -1      3500 1.22874E+02 1.51775E+01 0.00000E+00
 -1      3501 1.28124E+02 1.38785E+01 0.00000E+00
 -1      3502 1.26624E+02 1.38785E+01 0.00000E+00
 -1      3503 1.25874E+02 1.51775E+01 0.00000E+00
 -1      3504 1.31124E+02 1.38785E+01 0.00000E+00
 -1      3505 1.29624E+02 1.38785E+01 0.00000E+00
 -1      3506 1.28874E+02 1.51775E+01 0.00000E+00
 -1      3507 1.34124E+02 1.38785E+01 0.00000E+00
 -1      3508 1.32624E+02 1.38785E+01 0.00000E+00
 -1      3509 1.31874E+02 1.51775E+01 0.00000E+00
 -1      3510 8.06191E+01 3.68542E+01 0.00000E+00
 -1      3511 1.35711E+02 3.30875E+01 0.00000E+00
 -1      3512 1.35711E+02 3.16125E+01 0.00000E+00
 -1      3513 1.35711E+02 3.01625E+01 0.00000E+00
 -1      3514 1.35711E+02 2.87125E+01 0.00000E+00
 -1      3515 1.34412E+02 3.09000E+01 0.00000E+00
 -1      3516 4.71240E+01 1.38785E+01 0.00000E+00
 -1      3517 4.56240E+01 1.38785E+01 0.00000E+00
 -1      3518 4.78740E+01 1.51775E+01 0.00000E+00
 -1      3519 2.01240E+01 1.38785E+01 0.00000E+00
 -1      3520 1.86240E+01 1.38785E+01 0.00000E+00
 -1      3521 5.01928E+01 3.42300E+01 0.00000E+00
 -1      3522 2.01750E+01 3.57110E+01 0.00000E+00
 -1      3523 2.16750E+01 3.57110E+01 0.00000E+00
 -1      3524 2.24250E+01 3.44120E+01 0.00000E+00
 -1      3525 1.15249E+01 3.83131E+01 0.00000E+00
 -1      3526 1.25944E+01 3.83472E+01 0.00000E+00
 -1      3527 1.33444E+01 3.70482E+01 0.00000E+00
 -1      3528 1.14611E+01 3.72608E+01 0.00000E+00
 -1      3529 8.02750E+01 3.09959E+01 0.00000E+00
 -1      3530 8.05744E+01 3.26454E+01 0.00000E+00
 -1      3531 4.65861E+01 3.47305E+01 0.00000E+00
 -1      3532 1.35711E+02 2.72375E+01 0.00000E+00
 -1      3533 1.35711E+02 2.57625E+01 0.00000E+00
 -1      3534 1.34412E+02 2.79750E+01 0.00000E+00
 -1      3535 1.35711E+02 2.42875E+01 0.00000E+00
 -1      3536 1.35711E+02 2.28125E+01 0.00000E+00
 -1      3537 1.34412E+02 2.50250E+01 0.00000E+00
 -1      3538 1.37165E+02 1.69663E+01 0.00000E+00
 -1      3539 6.57462E+01 2.24740E+01 0.00000E+00
 -1      3540 6.66123E+01 2.33020E+01 0.00000E+00
 -1      3541 6.74884E+01 2.30662E+01 0.00000E+00
 -1      3542 7.78088E+01 2.74870E+01 0.00000E+00
 -1      3543 7.91704E+01 2.87936E+01 0.00000E+00
 -1      3544 1.71750E+01 3.57110E+01 0.00000E+00
 -1      3545 1.86750E+01 3.57110E+01 0.00000E+00
 -1      3546 1.94250E+01 3.44120E+01 0.00000E+00
 -1      3547 6.06065E+01 2.30298E+01 0.00000E+00
 -1      3548 6.17646E+01 2.27536E+01 0.00000E+00
 -1      3549 6.18424E+01 2.15893E+01 0.00000E+00
 -1      3550 4.88696E+01 3.37068E+01 0.00000E+00
 -1      3551 5.06651E+01 3.28878E+01 0.00000E+00
 -1      3552 5.07254E+01 3.19834E+01 0.00000E+00
 -1      3553 1.36708E+01 1.27646E+01 0.00000E+00
 -1      3554 8.36428E+01 3.67366E+01 0.00000E+00
 -1      3555 3.58740E+01 1.51775E+01 0.00000E+00
 -1      3556 3.51240E+01 1.38785E+01 0.00000E+00
 -1      3557 3.36240E+01 1.38785E+01 0.00000E+00
 -1      3558 5.21630E+01 3.06057E+01 0.00000E+00
 -1      3559 5.30679E+01 3.00941E+01 0.00000E+00
 -1      3560 5.31221E+01 2.90976E+01 0.00000E+00
 -1      3561 5.41818E+01 2.75405E+01 0.00000E+00
 -1      3562 5.52020E+01 2.75918E+01 0.00000E+00
 -1      3563 5.53569E+01 2.65463E+01 0.00000E+00
 -1      3564 7.35998E+01 2.57381E+01 0.00000E+00
 -1      3565 8.07122E+01 2.78148E+01 0.00000E+00
 -1      3566 8.04936E+01 2.94054E+01 0.00000E+00
 -1      3567 8.18168E+01 3.00171E+01 0.00000E+00
 -1      3568 7.01615E+01 2.46157E+01 0.00000E+00
 -1      3569 7.11723E+01 2.44191E+01 0.00000E+00
 -1      3570 6.93652E+01 2.36976E+01 0.00000E+00
 -1      3571 5.67622E+01 2.54676E+01 0.00000E+00
 -1      3572 5.76496E+01 2.54519E+01 0.00000E+00
 -1      3573 5.80347E+01 2.43219E+01 0.00000E+00
 -1      3574 2.61240E+01 1.38785E+01 0.00000E+00
 -1      3575 2.46240E+01 1.38785E+01 0.00000E+00
 -1      3576 8.14497E+01 3.58823E+01 0.00000E+00
 -1      3577 1.36097E+02 1.36873E+01 0.00000E+00
 -1      3578 7.68113E+01 2.58552E+01 0.00000E+00
 -1      3579 7.73100E+01 2.66711E+01 0.00000E+00
 -1      3580 7.88902E+01 2.63871E+01 0.00000E+00
 -1      3581 1.29900E+01 2.64469E+01 0.00000E+00
 -1      3582 1.35711E+02 2.13438E+01 0.00000E+00
 -1      3583 1.35711E+02 1.98750E+01 0.00000E+00
 -1      3584 1.34412E+02 2.20812E+01 0.00000E+00
 -1      3585 1.35845E+02 3.52799E+01 0.00000E+00
 -1      3586 1.35846E+02 3.40910E+01 0.00000E+00
 -1      3587 1.34547E+02 3.33535E+01 0.00000E+00
 -1      3588 1.34818E+02 3.53606E+01 0.00000E+00
 -1      3589 2.16240E+01 1.38785E+01 0.00000E+00
 -1      3590 2.08740E+01 1.51775E+01 0.00000E+00
 -1      3591 2.31240E+01 1.38785E+01 0.00000E+00
 -1      3592 1.29900E+01 1.76125E+01 0.00000E+00
 -1      3593 1.13974E+01 3.62085E+01 0.00000E+00
 -1      3594 4.48740E+01 1.51775E+01 0.00000E+00
 -1      3595 1.42890E+01 1.98219E+01 0.00000E+00
 -1      3596 1.42890E+01 2.12906E+01 0.00000E+00
 -1      3597 1.69013E+01 1.38127E+01 0.00000E+00
 -1      3598 1.51401E+01 1.36875E+01 0.00000E+00
 -1      3599 1.35347E+02 1.49863E+01 0.00000E+00
 -1      3600 2.76240E+01 1.38785E+01 0.00000E+00
 -1      3601 2.68740E+01 1.51775E+01 0.00000E+00
 -1      3602 2.91240E+01 1.38785E+01 0.00000E+00
 -1      3603 1.76513E+01 1.51117E+01 0.00000E+00
 -1      3604 1.35192E+02 1.71575E+01 0.00000E+00
 -1      3605 4.52473E+01 3.30698E+01 0.00000E+00
 -1      3606 4.70585E+01 3.33883E+01 0.00000E+00
 -1      3607 4.75308E+01 3.20461E+01 0.00000E+00
 -1      3608 1.26964E+01 3.54741E+01 0.00000E+00
 -1      3609 7.73904E+01 4.33739E+01 0.00000E+00
 -1      3610 5.90000E+01 2.31420E+01 0.00000E+00
 -1      3611 5.98032E+01 2.30859E+01 0.00000E+00
 -1      3612 5.98810E+01 2.19216E+01 0.00000E+00
 -1      3613 1.61055E+01 3.56769E+01 0.00000E+00
 -1      3614 1.68555E+01 3.43779E+01 0.00000E+00
 -1      3615 1.50360E+01 3.56429E+01 0.00000E+00
 -1      3616 1.55880E+01 2.20313E+01 0.00000E+00
 -1      3617 1.42890E+01 2.27656E+01 0.00000E+00
 -1      3618 1.42890E+01 2.42406E+01 0.00000E+00
 -1      3619 6.48114E+01 2.17757E+01 0.00000E+00
 -1      3620 6.56874E+01 2.15400E+01 0.00000E+00
 -1      3621 6.38766E+01 2.10774E+01 0.00000E+00
 -1      3622 8.12060E+01 3.32123E+01 0.00000E+00
 -1      3623 1.44054E+01 1.39605E+01 0.00000E+00
 -1      3624 1.37247E+01 1.43958E+01 0.00000E+00
 -1      3625 1.37247E+01 1.58646E+01 0.00000E+00
 -1      3626 1.51940E+01 1.53188E+01 0.00000E+00
 -1      3627 1.36380E+01 3.53678E+01 0.00000E+00
 -1      3628 1.43880E+01 3.40688E+01 0.00000E+00
 -1      3629 1.43880E+01 3.26001E+01 0.00000E+00
 -1      3630 1.57860E+01 3.28751E+01 0.00000E+00
 -1      3631 1.43880E+01 3.11313E+01 0.00000E+00
 -1      3632 1.43880E+01 2.81938E+01 0.00000E+00
 -1      3633 1.43880E+01 2.96626E+01 0.00000E+00
 -1      3634 1.57860E+01 2.99376E+01 0.00000E+00
 -1      3635 6.77637E+01 2.19113E+01 0.00000E+00
 -1      3636 6.86298E+01 2.27392E+01 0.00000E+00
 -1      3637 7.30942E+01 2.42762E+01 0.00000E+00
 -1      3638 7.47255E+01 2.46772E+01 0.00000E+00
 -1      3639 2.46750E+01 3.31130E+01 0.00000E+00
 -1      3640 2.61750E+01 3.31130E+01 0.00000E+00
 -1      3641 3.06750E+01 3.31130E+01 0.00000E+00
 -1      3642 3.21750E+01 3.31130E+01 0.00000E+00
 -1      3643 3.36750E+01 3.31130E+01 0.00000E+00
 -1      3644 3.51750E+01 3.31130E+01 0.00000E+00
 -1      3645 3.29250E+01 3.18140E+01 0.00000E+00
 -1      3646 3.66000E+01 3.31130E+01 0.00000E+00
 -1      3647 3.80250E+01 3.31130E+01 0.00000E+00
 -1      3648 3.58500E+01 3.18140E+01 0.00000E+00
 -1      3649 3.95250E+01 3.31130E+01 0.00000E+00
 -1      3650 4.10250E+01 3.31130E+01 0.00000E+00
 -1      3651 3.87750E+01 3.18140E+01 0.00000E+00
 -1      3652 4.23862E+01 3.30914E+01 0.00000E+00
 -1      3653 4.38862E+01 3.30914E+01 0.00000E+00
 -1      3654 4.43585E+01 3.17492E+01 0.00000E+00
 -1      3655 4.16362E+01 3.17924E+01 0.00000E+00
 -1      3656 3.21240E+01 1.38785E+01 0.00000E+00
 -1      3657 3.06240E+01 1.38785E+01 0.00000E+00
 -1      3658 2.98740E+01 1.51775E+01 0.00000E+00
 -1      3659 3.28740E+01 1.51775E+01 0.00000E+00
 -1      3660 4.26240E+01 1.64765E+01 0.00000E+00
 -1      3661 4.11240E+01 1.64765E+01 0.00000E+00
 -1      3662 8.59500E+01 3.52265E+01 0.00000E+00
 -1      3663 8.74500E+01 3.52265E+01 0.00000E+00
 -1      3664 8.89500E+01 3.52265E+01 0.00000E+00
 -1      3665 9.04500E+01 3.52265E+01 0.00000E+00
 -1      3666 8.82000E+01 3.39275E+01 0.00000E+00
 -1      3667 9.19500E+01 3.52265E+01 0.00000E+00
 -1      3668 9.34500E+01 3.52265E+01 0.00000E+00
 -1      3669 9.12000E+01 3.39275E+01 0.00000E+00
 -1      3670 9.48750E+01 3.52265E+01 0.00000E+00
 -1      3671 9.63000E+01 3.52265E+01 0.00000E+00
 -1      3672 9.41250E+01 3.39275E+01 0.00000E+00
 -1      3673 9.78000E+01 3.52265E+01 0.00000E+00
 -1      3674 9.93000E+01 3.52265E+01 0.00000E+00
 -1      3675 9.70500E+01 3.39275E+01 0.00000E+00
 -1      3676 1.00800E+02 3.52265E+01 0.00000E+00
 -1      3677 1.02300E+02 3.52265E+01 0.00000E+00
 -1      3678 1.00050E+02 3.39275E+01 0.00000E+00
 -1      3679 1.03800E+02 3.52265E+01 0.00000E+00
 -1      3680 1.05300E+02 3.52265E+01 0.00000E+00
 -1      3681 1.03050E+02 3.39275E+01 0.00000E+00
 -1      3682 1.06800E+02 3.52265E+01 0.00000E+00
 -1      3683 1.08300E+02 3.52265E+01 0.00000E+00
 -1      3684 1.06050E+02 3.39275E+01 0.00000E+00
 -1      3685 1.09800E+02 3.52265E+01 0.00000E+00
 -1      3686 1.11300E+02 3.52265E+01 0.00000E+00
 -1      3687 1.09050E+02 3.39275E+01 0.00000E+00
 -1      3688 1.12800E+02 3.52265E+01 0.00000E+00
 -1      3689 1.14300E+02 3.52265E+01 0.00000E+00
 -1      3690 1.12050E+02 3.39275E+01 0.00000E+00
 -1      3691 1.15800E+02 3.52265E+01 0.00000E+00
 -1      3692 1.17300E+02 3.52265E+01 0.00000E+00
 -1      3693 1.15050E+02 3.39275E+01 0.00000E+00
 -1      3694 1.18725E+02 3.52265E+01 0.00000E+00
 -1      3695 1.20150E+02 3.52265E+01 0.00000E+00
 -1      3696 1.17975E+02 3.39275E+01 0.00000E+00
 -1      3697 1.21650E+02 3.52265E+01 0.00000E+00
 -1      3698 1.23150E+02 3.52265E+01 0.00000E+00
 -1      3699 1.20900E+02 3.39275E+01 0.00000E+00
 -1      3700 1.24650E+02 3.52265E+01 0.00000E+00
 -1      3701 1.26150E+02 3.52265E+01 0.00000E+00
 -1      3702 1.23900E+02 3.39275E+01 0.00000E+00
 -1      3703 1.27650E+02 3.52265E+01 0.00000E+00
 -1      3704 1.29150E+02 3.52265E+01 0.00000E+00
 -1      3705 1.26900E+02 3.39275E+01 0.00000E+00
 -1      3706 1.30650E+02 3.52265E+01 0.00000E+00
 -1      3707 1.32150E+02 3.52265E+01 0.00000E+00
 -1      3708 1.29900E+02 3.39275E+01 0.00000E+00
 -1      3709 5.76240E+01 1.64765E+01 0.00000E+00
 -1      3710 5.61240E+01 1.64765E+01 0.00000E+00
 -1      3711 2.38740E+01 1.51775E+01 0.00000E+00
 -1      3712 3.96240E+01 1.64765E+01 0.00000E+00
 -1      3713 3.81240E+01 1.64765E+01 0.00000E+00
 -1      3714 4.03740E+01 1.77755E+01 0.00000E+00
 -1      3715 8.21065E+01 3.44418E+01 0.00000E+00
 -1      3716 8.27424E+01 3.55071E+01 0.00000E+00
 -1      3717 8.42996E+01 3.52960E+01 0.00000E+00
 -1      3718 8.24987E+01 3.28371E+01 0.00000E+00
 -1      3719 5.46240E+01 1.64765E+01 0.00000E+00
 -1      3720 5.31240E+01 1.64765E+01 0.00000E+00
 -1      3721 5.53740E+01 1.77755E+01 0.00000E+00
 -1      3722 5.16240E+01 1.64765E+01 0.00000E+00
 -1      3723 5.01240E+01 1.64765E+01 0.00000E+00
 -1      3724 5.23740E+01 1.77755E+01 0.00000E+00
 -1      3725 6.06240E+01 1.64765E+01 0.00000E+00
 -1      3726 5.91240E+01 1.64765E+01 0.00000E+00
 -1      3727 5.83740E+01 1.77755E+01 0.00000E+00
 -1      3728 6.36240E+01 1.64765E+01 0.00000E+00
 -1      3729 6.21240E+01 1.64765E+01 0.00000E+00
 -1      3730 6.13740E+01 1.77755E+01 0.00000E+00
 -1      3731 6.66240E+01 1.64765E+01 0.00000E+00
 -1      3732 6.51240E+01 1.64765E+01 0.00000E+00
 -1      3733 6.43740E+01 1.77755E+01 0.00000E+00
 -1      3734 6.96240E+01 1.64765E+01 0.00000E+00
 -1      3735 6.81240E+01 1.64765E+01 0.00000E+00
 -1      3736 6.73740E+01 1.77755E+01 0.00000E+00
 -1      3737 7.26240E+01 1.64765E+01 0.00000E+00
 -1      3738 7.11240E+01 1.64765E+01 0.00000E+00
 -1      3739 7.03740E+01 1.77755E+01 0.00000E+00
 -1      3740 7.56240E+01 1.64765E+01 0.00000E+00
 -1      3741 7.41240E+01 1.64765E+01 0.00000E+00
 -1      3742 7.33740E+01 1.77755E+01 0.00000E+00
 -1      3743 7.86240E+01 1.64765E+01 0.00000E+00
 -1      3744 7.71240E+01 1.64765E+01 0.00000E+00
 -1      3745 7.63740E+01 1.77755E+01 0.00000E+00
 -1      3746 8.16240E+01 1.64765E+01 0.00000E+00
 -1      3747 8.01240E+01 1.64765E+01 0.00000E+00
 -1      3748 7.93740E+01 1.77755E+01 0.00000E+00
 -1      3749 8.46240E+01 1.64765E+01 0.00000E+00
 -1      3750 8.31240E+01 1.64765E+01 0.00000E+00
 -1      3751 8.23740E+01 1.77755E+01 0.00000E+00
 -1      3752 8.76240E+01 1.64765E+01 0.00000E+00
 -1      3753 8.61240E+01 1.64765E+01 0.00000E+00
 -1      3754 8.53740E+01 1.77755E+01 0.00000E+00
 -1      3755 9.06240E+01 1.64765E+01 0.00000E+00
 -1      3756 8.91240E+01 1.64765E+01 0.00000E+00
 -1      3757 8.83740E+01 1.77755E+01 0.00000E+00
 -1      3758 9.36240E+01 1.64765E+01 0.00000E+00
 -1      3759 9.21240E+01 1.64765E+01 0.00000E+00
 -1      3760 9.13740E+01 1.77755E+01 0.00000E+00
 -1      3761 9.66240E+01 1.64765E+01 0.00000E+00
 -1      3762 9.51240E+01 1.64765E+01 0.00000E+00
 -1      3763 9.43740E+01 1.77755E+01 0.00000E+00
 -1      3764 9.96240E+01 1.64765E+01 0.00000E+00
 -1      3765 9.81240E+01 1.64765E+01 0.00000E+00
 -1      3766 9.73740E+01 1.77755E+01 0.00000E+00
 -1      3767 1.02624E+02 1.64765E+01 0.00000E+00
 -1      3768 1.01124E+02 1.64765E+01 0.00000E+00
 -1      3769 1.00374E+02 1.77755E+01 0.00000E+00
 -1      3770 1.05624E+02 1.64765E+01 0.00000E+00
 -1      3771 1.04124E+02 1.64765E+01 0.00000E+00
 -1      3772 1.03374E+02 1.77755E+01 0.00000E+00
 -1      3773 1.08624E+02 1.64765E+01 0.00000E+00
 -1      3774 1.07124E+02 1.64765E+01 0.00000E+00
 -1      3775 1.06374E+02 1.77755E+01 0.00000E+00
 -1      3776 1.11624E+02 1.64765E+01 0.00000E+00
 -1      3777 1.10124E+02 1.64765E+01 0.00000E+00
 -1      3778 1.09374E+02 1.77755E+01 0.00000E+00
 -1      3779 1.14624E+02 1.64765E+01 0.00000E+00
 -1      3780 1.13124E+02 1.64765E+01 0.00000E+00
 -1      3781 1.12374E+02 1.77755E+01 0.00000E+00
 -1      3782 1.17624E+02 1.64765E+01 0.00000E+00
 -1      3783 1.16124E+02 1.64765E+01 0.00000E+00
 -1      3784 1.15374E+02 1.77755E+01 0.00000E+00
 -1      3785 1.20624E+02 1.64765E+01 0.00000E+00
 -1      3786 1.19124E+02 1.64765E+01 0.00000E+00
 -1      3787 1.18374E+02 1.77755E+01 0.00000E+00
 -1      3788 1.23624E+02 1.64765E+01 0.00000E+00
 -1      3789 1.22124E+02 1.64765E+01 0.00000E+00
 -1      3790 1.21374E+02 1.77755E+01 0.00000E+00
 -1      3791 1.26624E+02 1.64765E+01 0.00000E+00
 -1      3792 1.25124E+02 1.64765E+01 0.00000E+00
 -1      3793 1.24374E+02 1.77755E+01 0.00000E+00
 -1      3794 1.29624E+02 1.64765E+01 0.00000E+00
 -1      3795 1.28124E+02 1.64765E+01 0.00000E+00
 -1      3796 1.27374E+02 1.77755E+01 0.00000E+00
 -1      3797 1.32624E+02 1.64765E+01 0.00000E+00
 -1      3798 1.31124E+02 1.64765E+01 0.00000E+00
 -1      3799 1.30374E+02 1.77755E+01 0.00000E+00
 -1      3800 1.33113E+02 3.16250E+01 0.00000E+00
 -1      3801 1.33113E+02 3.01750E+01 0.00000E+00
 -1      3802 4.86240E+01 1.64765E+01 0.00000E+00
 -1      3803 4.71240E+01 1.64765E+01 0.00000E+00
 -1      3804 4.93740E+01 1.77755E+01 0.00000E+00
 -1      3805 4.93962E+01 3.13681E+01 0.00000E+00
 -1      3806 5.07796E+01 3.09869E+01 0.00000E+00
 -1      3807 5.08338E+01 2.99904E+01 0.00000E+00
 -1      3808 2.76750E+01 3.31130E+01 0.00000E+00
 -1      3809 2.91750E+01 3.31130E+01 0.00000E+00
 -1      3810 2.69250E+01 3.18140E+01 0.00000E+00
 -1      3811 1.34442E+02 1.84565E+01 0.00000E+00
 -1      3812 4.56240E+01 1.64765E+01 0.00000E+00
 -1      3813 4.41240E+01 1.64765E+01 0.00000E+00
 -1      3814 4.33740E+01 1.77755E+01 0.00000E+00
 -1      3815 1.33113E+02 2.87000E+01 0.00000E+00
 -1      3816 1.33113E+02 2.72250E+01 0.00000E+00
 -1      3817 1.31814E+02 2.94250E+01 0.00000E+00
 -1      3818 1.33113E+02 2.57500E+01 0.00000E+00
 -1      3819 1.33113E+02 2.42750E+01 0.00000E+00
 -1      3820 1.31814E+02 2.64750E+01 0.00000E+00
 -1      3821 1.43385E+01 2.54813E+01 0.00000E+00
 -1      3822 1.43385E+01 2.69532E+01 0.00000E+00
 -1      3823 1.57365E+01 2.72282E+01 0.00000E+00
 -1      3824 1.56375E+01 2.47469E+01 0.00000E+00
 -1      3825 1.86750E+01 3.31130E+01 0.00000E+00
 -1      3826 2.01750E+01 3.31130E+01 0.00000E+00
 -1      3827 1.40068E+01 1.71057E+01 0.00000E+00
 -1      3828 1.40068E+01 1.85807E+01 0.00000E+00
 -1      3829 1.53058E+01 1.93151E+01 0.00000E+00
 -1      3830 1.47415E+01 1.68328E+01 0.00000E+00
 -1      3831 2.16750E+01 3.31130E+01 0.00000E+00
 -1      3832 2.31750E+01 3.31130E+01 0.00000E+00
 -1      3833 2.39250E+01 3.18140E+01 0.00000E+00
 -1      3834 1.68555E+01 3.29092E+01 0.00000E+00
 -1      3835 2.16240E+01 1.64765E+01 0.00000E+00
 -1      3836 2.01240E+01 1.64765E+01 0.00000E+00
 -1      3837 3.66240E+01 1.64765E+01 0.00000E+00
 -1      3838 3.51240E+01 1.64765E+01 0.00000E+00
 -1      3839 3.73740E+01 1.77755E+01 0.00000E+00
 -1      3840 2.99250E+01 3.18140E+01 0.00000E+00
 -1      3841 5.32770E+01 2.80521E+01 0.00000E+00
 -1      3842 5.34319E+01 2.70066E+01 0.00000E+00
 -1      3843 5.23721E+01 2.85637E+01 0.00000E+00
 -1      3844 7.22980E+01 2.33582E+01 0.00000E+00
 -1      3845 7.58002E+01 2.29313E+01 0.00000E+00
 -1      3846 7.63057E+01 2.43932E+01 0.00000E+00
 -1      3847 7.78859E+01 2.41093E+01 0.00000E+00
 -1      3848 8.05957E+01 2.63298E+01 0.00000E+00
 -1      3849 8.19189E+01 2.69415E+01 0.00000E+00
 -1      3850 6.96405E+01 2.25426E+01 0.00000E+00
 -1      3851 5.57420E+01 2.54163E+01 0.00000E+00
 -1      3852 5.61271E+01 2.42863E+01 0.00000E+00
 -1      3853 5.47219E+01 2.53650E+01 0.00000E+00
 -1      3854 8.50496E+01 3.39970E+01 0.00000E+00
 -1      3855 5.72251E+01 2.31733E+01 0.00000E+00
 -1      3856 5.81125E+01 2.31576E+01 0.00000E+00
 -1      3857 5.81903E+01 2.19934E+01 0.00000E+00
 -1      3858 1.33791E+02 3.54413E+01 0.00000E+00
 -1      3859 2.46240E+01 1.64765E+01 0.00000E+00
 -1      3860 2.31240E+01 1.64765E+01 0.00000E+00
 -1      3861 2.23740E+01 1.77755E+01 0.00000E+00
 -1      3862 8.32487E+01 3.15381E+01 0.00000E+00
 -1      3863 8.41491E+01 3.27676E+01 0.00000E+00
 -1      3864 8.57996E+01 3.26980E+01 0.00000E+00
 -1      3865 1.31814E+02 2.35313E+01 0.00000E+00
 -1      3866 1.33113E+02 2.28062E+01 0.00000E+00
 -1      3867 1.33113E+02 2.13375E+01 0.00000E+00
 -1      3868 1.32906E+02 3.31388E+01 0.00000E+00
 -1      3869 1.31607E+02 3.24138E+01 0.00000E+00
 -1      3870 2.76240E+01 1.64765E+01 0.00000E+00
 -1      3871 2.61240E+01 1.64765E+01 0.00000E+00
 -1      3872 2.53740E+01 1.77755E+01 0.00000E+00
 -1      3873 4.63740E+01 1.77755E+01 0.00000E+00
 -1      3874 1.33041E+02 3.41423E+01 0.00000E+00
 -1      3875 1.76055E+01 3.16102E+01 0.00000E+00
 -1      3876 8.34673E+01 2.99475E+01 0.00000E+00
 -1      3877 2.09250E+01 3.18140E+01 0.00000E+00
 -1      3878 6.09866E+01 2.05673E+01 0.00000E+00
 -1      3879 6.21448E+01 2.02911E+01 0.00000E+00
 -1      3880 8.00969E+01 2.55139E+01 0.00000E+00
 -1      3881 1.68870E+01 2.12938E+01 0.00000E+00
 -1      3882 1.68870E+01 2.27687E+01 0.00000E+00
 -1      3883 6.68289E+01 2.12129E+01 0.00000E+00
 -1      3884 6.79703E+01 2.08859E+01 0.00000E+00
 -1      3885 6.58941E+01 2.05146E+01 0.00000E+00
 -1      3886 1.62108E+01 1.62870E+01 0.00000E+00
 -1      3887 1.54762E+01 1.65599E+01 0.00000E+00
 -1      3888 1.57583E+01 1.78010E+01 0.00000E+00
 -1      3889 1.61816E+01 1.89268E+01 0.00000E+00
 -1      3890 1.64637E+01 2.01680E+01 0.00000E+00
 -1      3891 1.77627E+01 2.09055E+01 0.00000E+00
 -1      3892 1.69162E+01 1.86539E+01 0.00000E+00
 -1      3893 1.79335E+01 1.63528E+01 0.00000E+00
 -1      3894 1.86835E+01 1.76518E+01 0.00000E+00
 -1      3895 5.93905E+01 2.06763E+01 0.00000E+00
 -1      3896 6.01937E+01 2.06202E+01 0.00000E+00
 -1      3897 2.31750E+01 3.05150E+01 0.00000E+00
 -1      3898 2.46750E+01 3.05150E+01 0.00000E+00
 -1      3899 7.08271E+01 2.14413E+01 0.00000E+00
 -1      3900 7.15625E+01 2.23997E+01 0.00000E+00
 -1      3901 7.34845E+01 2.22568E+01 0.00000E+00
 -1      3902 1.33143E+02 1.91940E+01 0.00000E+00
 -1      3903 3.51375E+01 3.05150E+01 0.00000E+00
 -1      3904 3.65625E+01 3.05150E+01 0.00000E+00
 -1      3905 3.80625E+01 3.05150E+01 0.00000E+00
 -1      3906 3.95625E+01 3.05150E+01 0.00000E+00
 -1      3907 3.73500E+01 2.92160E+01 0.00000E+00
 -1      3908 8.74500E+01 3.26285E+01 0.00000E+00
 -1      3909 8.89500E+01 3.26285E+01 0.00000E+00
 -1      3910 4.96053E+01 2.93261E+01 0.00000E+00
 -1      3911 5.09887E+01 2.89449E+01 0.00000E+00
 -1      3912 5.11436E+01 2.78994E+01 0.00000E+00
 -1      3913 9.04500E+01 3.26285E+01 0.00000E+00
 -1      3914 9.19500E+01 3.26285E+01 0.00000E+00
 -1      3915 8.97000E+01 3.13295E+01 0.00000E+00
 -1      3916 9.33750E+01 3.26285E+01 0.00000E+00
 -1      3917 9.48000E+01 3.26285E+01 0.00000E+00
 -1      3918 9.26250E+01 3.13295E+01 0.00000E+00
 -1      3919 9.63000E+01 3.26285E+01 0.00000E+00
 -1      3920 9.78000E+01 3.26285E+01 0.00000E+00
 -1      3921 9.55500E+01 3.13295E+01 0.00000E+00
 -1      3922 9.93000E+01 3.26285E+01 0.00000E+00
 -1      3923 1.00800E+02 3.26285E+01 0.00000E+00
 -1      3924 9.85500E+01 3.13295E+01 0.00000E+00
 -1      3925 1.02300E+02 3.26285E+01 0.00000E+00
 -1      3926 1.03800E+02 3.26285E+01 0.00000E+00
 -1      3927 1.01550E+02 3.13295E+01 0.00000E+00
 -1      3928 1.05300E+02 3.26285E+01 0.00000E+00
 -1      3929 1.06800E+02 3.26285E+01 0.00000E+00
 -1      3930 1.04550E+02 3.13295E+01 0.00000E+00
 -1      3931 1.08300E+02 3.26285E+01 0.00000E+00
 -1      3932 1.09800E+02 3.26285E+01 0.00000E+00
 -1      3933 1.07550E+02 3.13295E+01 0.00000E+00
 -1      3934 1.11300E+02 3.26285E+01 0.00000E+00
 -1      3935 1.12800E+02 3.26285E+01 0.00000E+00
 -1      3936 1.10550E+02 3.13295E+01 0.00000E+00
 -1      3937 1.14300E+02 3.26285E+01 0.00000E+00
 -1      3938 1.15800E+02 3.26285E+01 0.00000E+00
 -1      3939 1.13550E+02 3.13295E+01 0.00000E+00
 -1      3940 1.17225E+02 3.26285E+01 0.00000E+00
 -1      3941 1.18650E+02 3.26285E+01 0.00000E+00
 -1      3942 1.16475E+02 3.13295E+01 0.00000E+00
 -1      3943 1.20150E+02 3.26285E+01 0.00000E+00
 -1      3944 1.21650E+02 3.26285E+01 0.00000E+00
 -1      3945 1.19400E+02 3.13295E+01 0.00000E+00
 -1      3946 1.23150E+02 3.26285E+01 0.00000E+00
 -1      3947 1.24650E+02 3.26285E+01 0.00000E+00
 -1      3948 1.22400E+02 3.13295E+01 0.00000E+00
 -1      3949 1.26150E+02 3.26285E+01 0.00000E+00
 -1      3950 1.27650E+02 3.26285E+01 0.00000E+00
 -1      3951 1.25400E+02 3.13295E+01 0.00000E+00
 -1      3952 1.28878E+02 3.25211E+01 0.00000E+00
 -1      3953 1.30378E+02 3.25211E+01 0.00000E+00
 -1      3954 1.30585E+02 3.10074E+01 0.00000E+00
 -1      3955 1.28128E+02 3.12221E+01 0.00000E+00
 -1      3956 6.20815E+01 1.85223E+01 0.00000E+00
 -1      3957 6.05815E+01 1.85223E+01 0.00000E+00
 -1      3958 4.71240E+01 1.90745E+01 0.00000E+00
 -1      3959 4.56240E+01 1.90745E+01 0.00000E+00
 -1      3960 2.01750E+01 3.05150E+01 0.00000E+00
 -1      3961 2.16750E+01 3.05150E+01 0.00000E+00
 -1      3962 2.24250E+01 2.92160E+01 0.00000E+00
 -1      3963 4.11240E+01 1.90745E+01 0.00000E+00
 -1      3964 3.96240E+01 1.90745E+01 0.00000E+00
 -1      3965 5.01240E+01 1.90745E+01 0.00000E+00
 -1      3966 4.86240E+01 1.90745E+01 0.00000E+00
 -1      3967 4.78740E+01 2.03735E+01 0.00000E+00
 -1      3968 5.31240E+01 1.90745E+01 0.00000E+00
 -1      3969 5.16240E+01 1.90745E+01 0.00000E+00
 -1      3970 5.08740E+01 2.03735E+01 0.00000E+00
 -1      3971 6.53133E+01 1.93086E+01 0.00000E+00
 -1      3972 6.38133E+01 1.93086E+01 0.00000E+00
 -1      3973 7.38115E+01 1.95369E+01 0.00000E+00
 -1      3974 7.23115E+01 1.95369E+01 0.00000E+00
 -1      3975 7.76272E+01 2.02114E+01 0.00000E+00
 -1      3976 7.61272E+01 2.02114E+01 0.00000E+00
 -1      3977 8.31240E+01 1.90745E+01 0.00000E+00
 -1      3978 8.16240E+01 1.90745E+01 0.00000E+00
 -1      3979 8.61240E+01 1.90745E+01 0.00000E+00
 -1      3980 8.46240E+01 1.90745E+01 0.00000E+00
 -1      3981 8.38740E+01 2.03735E+01 0.00000E+00
 -1      3982 8.91240E+01 1.90745E+01 0.00000E+00
 -1      3983 8.76240E+01 1.90745E+01 0.00000E+00
 -1      3984 8.68740E+01 2.03735E+01 0.00000E+00
 -1      3985 9.21240E+01 1.90745E+01 0.00000E+00
 -1      3986 9.06240E+01 1.90745E+01 0.00000E+00
 -1      3987 8.98740E+01 2.03735E+01 0.00000E+00
 -1      3988 9.51240E+01 1.90745E+01 0.00000E+00
 -1      3989 9.36240E+01 1.90745E+01 0.00000E+00
 -1      3990 9.28740E+01 2.03735E+01 0.00000E+00
 -1      3991 9.81240E+01 1.90745E+01 0.00000E+00
 -1      3992 9.66240E+01 1.90745E+01 0.00000E+00
 -1      3993 9.58740E+01 2.03735E+01 0.00000E+00
 -1      3994 1.01124E+02 1.90745E+01 0.00000E+00
 -1      3995 9.96240E+01 1.90745E+01 0.00000E+00
 -1      3996 9.88740E+01 2.03735E+01 0.00000E+00
 -1      3997 1.04124E+02 1.90745E+01 0.00000E+00
 -1      3998 1.02624E+02 1.90745E+01 0.00000E+00
 -1      3999 1.01874E+02 2.03735E+01 0.00000E+00
 -1      4000 1.07124E+02 1.90745E+01 0.00000E+00
 -1      4001 1.05624E+02 1.90745E+01 0.00000E+00
 -1      4002 1.04874E+02 2.03735E+01 0.00000E+00
 -1      4003 1.10124E+02 1.90745E+01 0.00000E+00
 -1      4004 1.08624E+02 1.90745E+01 0.00000E+00
 -1      4005 1.07874E+02 2.03735E+01 0.00000E+00
 -1      4006 1.13124E+02 1.90745E+01 0.00000E+00
 -1      4007 1.11624E+02 1.90745E+01 0.00000E+00
 -1      4008 1.10874E+02 2.03735E+01 0.00000E+00
 -1      4009 1.16124E+02 1.90745E+01 0.00000E+00
 -1      4010 1.14624E+02 1.90745E+01 0.00000E+00
 -1      4011 1.13874E+02 2.03735E+01 0.00000E+00
 -1      4012 1.19124E+02 1.90745E+01 0.00000E+00
 -1      4013 1.17624E+02 1.90745E+01 0.00000E+00
 -1      4014 1.16874E+02 2.03735E+01 0.00000E+00
 -1      4015 1.22124E+02 1.90745E+01 0.00000E+00
 -1      4016 1.20624E+02 1.90745E+01 0.00000E+00
 -1      4017 1.19874E+02 2.03735E+01 0.00000E+00
 -1      4018 1.25124E+02 1.90745E+01 0.00000E+00
 -1      4019 1.23624E+02 1.90745E+01 0.00000E+00
 -1      4020 1.22874E+02 2.03735E+01 0.00000E+00
 -1      4021 1.28124E+02 1.90745E+01 0.00000E+00
 -1      4022 1.26624E+02 1.90745E+01 0.00000E+00
 -1      4023 1.25874E+02 2.03735E+01 0.00000E+00
 -1      4024 1.70707E+01 3.01244E+01 0.00000E+00
 -1      4025 1.88902E+01 3.03282E+01 0.00000E+00
 -1      4026 1.96402E+01 2.90292E+01 0.00000E+00
 -1      4027 1.70707E+01 2.86557E+01 0.00000E+00
 -1      4028 4.41240E+01 1.90745E+01 0.00000E+00
 -1      4029 4.26240E+01 1.90745E+01 0.00000E+00
 -1      4030 4.18740E+01 2.03735E+01 0.00000E+00
 -1      4031 4.48740E+01 2.03735E+01 0.00000E+00
 -1      4032 8.31557E+01 2.60974E+01 0.00000E+00
 -1      4033 8.32722E+01 2.75824E+01 0.00000E+00
 -1      4034 2.91750E+01 3.05150E+01 0.00000E+00
 -1      4035 3.06750E+01 3.05150E+01 0.00000E+00
 -1      4036 6.30208E+01 2.00554E+01 0.00000E+00
 -1      4037 2.31240E+01 1.90745E+01 0.00000E+00
 -1      4038 2.16240E+01 1.90745E+01 0.00000E+00
 -1      4039 4.75850E+01 3.10496E+01 0.00000E+00
 -1      4040 2.61750E+01 3.05150E+01 0.00000E+00
 -1      4041 2.76750E+01 3.05150E+01 0.00000E+00
 -1      4042 2.54250E+01 2.92160E+01 0.00000E+00
 -1      4043 6.04961E+01 1.93220E+01 0.00000E+00
 -1      4044 1.82355E+01 2.32719E+01 0.00000E+00
 -1      4045 1.69365E+01 2.40094E+01 0.00000E+00
 -1      4046 1.69860E+01 2.52501E+01 0.00000E+00
 -1      4047 8.47040E+01 2.91034E+01 0.00000E+00
 -1      4048 1.30585E+02 2.95324E+01 0.00000E+00
 -1      4049 1.30585E+02 2.80574E+01 0.00000E+00
 -1      4050 1.29357E+02 2.96398E+01 0.00000E+00
 -1      4051 1.30585E+02 2.65824E+01 0.00000E+00
 -1      4052 1.30585E+02 2.51074E+01 0.00000E+00
 -1      4053 1.29357E+02 2.66898E+01 0.00000E+00
 -1      4054 1.31844E+02 1.99190E+01 0.00000E+00
 -1      4055 1.91067E+01 1.87776E+01 0.00000E+00
 -1      4056 8.65496E+01 3.13990E+01 0.00000E+00
 -1      4057 3.21563E+01 3.05150E+01 0.00000E+00
 -1      4058 3.36563E+01 3.05150E+01 0.00000E+00
 -1      4059 3.43688E+01 2.92160E+01 0.00000E+00
 -1      4060 3.14063E+01 2.92160E+01 0.00000E+00
 -1      4061 5.97886E+01 1.85752E+01 0.00000E+00
 -1      4062 6.64547E+01 1.89815E+01 0.00000E+00
 -1      4063 4.62163E+01 3.01889E+01 0.00000E+00
 -1      4064 4.80816E+01 2.95109E+01 0.00000E+00
 -1      4065 3.43740E+01 1.77755E+01 0.00000E+00
 -1      4066 3.36240E+01 1.64765E+01 0.00000E+00
 -1      4067 3.21240E+01 1.64765E+01 0.00000E+00
 -1      4068 6.79547E+01 1.89815E+01 0.00000E+00
 -1      4069 5.23512E+01 2.61512E+01 0.00000E+00
 -1      4070 5.32561E+01 2.56396E+01 0.00000E+00
 -1      4071 5.36412E+01 2.45096E+01 0.00000E+00
 -1      4072 4.34939E+01 3.02321E+01 0.00000E+00
 -1      4073 4.48551E+01 3.02105E+01 0.00000E+00
 -1      4074 4.53517E+01 2.86718E+01 0.00000E+00
 -1      4075 3.06240E+01 1.64765E+01 0.00000E+00
 -1      4076 2.91240E+01 1.64765E+01 0.00000E+00
 -1      4077 3.13740E+01 1.77755E+01 0.00000E+00
 -1      4078 4.08476E+01 3.03844E+01 0.00000E+00
 -1      4079 4.22088E+01 3.03628E+01 0.00000E+00
 -1      4080 4.27054E+01 2.88241E+01 0.00000E+00
 -1      4081 4.01351E+01 2.90854E+01 0.00000E+00
 -1      4082 5.62049E+01 2.31221E+01 0.00000E+00
 -1      4083 5.62827E+01 2.19578E+01 0.00000E+00
 -1      4084 5.51848E+01 2.30708E+01 0.00000E+00
 -1      4085 2.83740E+01 1.77755E+01 0.00000E+00
 -1      4086 7.03895E+01 1.96798E+01 0.00000E+00
 -1      4087 1.30344E+02 1.99190E+01 0.00000E+00
 -1      4088 8.30350E+01 2.46030E+01 0.00000E+00
 -1      4089 8.43883E+01 2.52439E+01 0.00000E+00
 -1      4090 1.30585E+02 2.36386E+01 0.00000E+00
 -1      4091 5.45683E+01 1.98410E+01 0.00000E+00
 -1      4092 5.38183E+01 2.11400E+01 0.00000E+00
 -1      4093 8.16791E+01 2.39619E+01 0.00000E+00
 -1      4094 8.29117E+01 2.31083E+01 0.00000E+00
 -1      4095 5.60683E+01 1.98410E+01 0.00000E+00
 -1      4096 6.88895E+01 1.96798E+01 0.00000E+00
 -1      4097 1.29594E+02 2.12180E+01 0.00000E+00
 -1      4098 8.01240E+01 1.90745E+01 0.00000E+00
 -1      4099 7.86240E+01 1.90745E+01 0.00000E+00
 -1      4100 1.70212E+01 2.74150E+01 0.00000E+00
 -1      4101 2.84250E+01 2.92160E+01 0.00000E+00
 -1      4102 2.61240E+01 1.90745E+01 0.00000E+00
 -1      4103 2.46240E+01 1.90745E+01 0.00000E+00
 -1      4104 2.38740E+01 2.03735E+01 0.00000E+00
 -1      4105 5.82886E+01 1.85752E+01 0.00000E+00
 -1      4106 7.99737E+01 2.40192E+01 0.00000E+00
 -1      4107 8.08740E+01 2.03735E+01 0.00000E+00
 -1      4108 5.85030E+01 2.06920E+01 0.00000E+00
 -1      4109 5.70884E+01 1.98923E+01 0.00000E+00
 -1      4110 2.05770E+01 1.94889E+01 0.00000E+00
 -1      4111 1.88097E+01 2.04910E+01 0.00000E+00
 -1      4112 1.92330E+01 2.16168E+01 0.00000E+00
 -1      4113 2.13270E+01 2.07879E+01 0.00000E+00
 -1      4114 1.92825E+01 2.28575E+01 0.00000E+00
 -1      4115 1.93320E+01 2.40981E+01 0.00000E+00
 -1      4116 2.03295E+01 2.24430E+01 0.00000E+00
 -1      4117 7.94681E+01 2.25572E+01 0.00000E+00
 -1      4118 4.82365E+01 2.84654E+01 0.00000E+00
 -1      4119 8.61594E+01 2.66688E+01 0.00000E+00
 -1      4120 8.63545E+01 2.90339E+01 0.00000E+00
 -1      4121 8.80049E+01 2.89644E+01 0.00000E+00
 -1      4122 3.81240E+01 1.90745E+01 0.00000E+00
 -1      4123 3.66240E+01 1.90745E+01 0.00000E+00
 -1      4124 3.88740E+01 2.03735E+01 0.00000E+00
 -1      4125 5.09678E+01 2.65324E+01 0.00000E+00
 -1      4126 5.07920E+01 2.51654E+01 0.00000E+00
 -1      4127 4.95844E+01 2.69136E+01 0.00000E+00
 -1      4128 7.45470E+01 2.04954E+01 0.00000E+00
 -1      4129 3.66000E+01 2.79170E+01 0.00000E+00
 -1      4130 3.81000E+01 2.79170E+01 0.00000E+00
 -1      4131 5.36908E+01 2.34069E+01 0.00000E+00
 -1      4132 5.37686E+01 2.22427E+01 0.00000E+00
 -1      4133 5.23243E+01 2.14762E+01 0.00000E+00
 -1      4134 5.22251E+01 2.36816E+01 0.00000E+00
 -1      4135 2.91240E+01 1.90745E+01 0.00000E+00
 -1      4136 2.76240E+01 1.90745E+01 0.00000E+00
 -1      4137 2.68740E+01 2.03735E+01 0.00000E+00
 -1      4138 4.80607E+01 2.70984E+01 0.00000E+00
 -1      4139 8.95049E+01 2.89644E+01 0.00000E+00
 -1      4140 9.10049E+01 2.89644E+01 0.00000E+00
 -1      4141 8.93098E+01 2.65992E+01 0.00000E+00
 -1      4142 2.24235E+01 2.16142E+01 0.00000E+00
 -1      4143 2.13765E+01 2.20286E+01 0.00000E+00
 -1      4144 2.14260E+01 2.32693E+01 0.00000E+00
 -1      4145 9.48000E+01 3.00305E+01 0.00000E+00
 -1      4146 9.63000E+01 3.00305E+01 0.00000E+00
 -1      4147 9.78000E+01 3.00305E+01 0.00000E+00
 -1      4148 9.93000E+01 3.00305E+01 0.00000E+00
 -1      4149 9.70500E+01 2.87315E+01 0.00000E+00
 -1      4150 1.00800E+02 3.00305E+01 0.00000E+00
 -1      4151 1.02300E+02 3.00305E+01 0.00000E+00
 -1      4152 1.00050E+02 2.87315E+01 0.00000E+00
 -1      4153 1.03800E+02 3.00305E+01 0.00000E+00
 -1      4154 1.05300E+02 3.00305E+01 0.00000E+00
 -1      4155 1.03050E+02 2.87315E+01 0.00000E+00
 -1      4156 1.06800E+02 3.00305E+01 0.00000E+00
 -1      4157 1.08300E+02 3.00305E+01 0.00000E+00
 -1      4158 1.06050E+02 2.87315E+01 0.00000E+00
 -1      4159 1.09800E+02 3.00305E+01 0.00000E+00
 -1      4160 1.11300E+02 3.00305E+01 0.00000E+00
 -1      4161 1.09050E+02 2.87315E+01 0.00000E+00
 -1      4162 1.12800E+02 3.00305E+01 0.00000E+00
 -1      4163 1.14300E+02 3.00305E+01 0.00000E+00
 -1      4164 1.12050E+02 2.87315E+01 0.00000E+00
 -1      4165 1.15725E+02 3.00305E+01 0.00000E+00
 -1      4166 1.17150E+02 3.00305E+01 0.00000E+00
 -1      4167 1.14975E+02 2.87315E+01 0.00000E+00
 -1      4168 1.18650E+02 3.00305E+01 0.00000E+00
 -1      4169 1.20150E+02 3.00305E+01 0.00000E+00
 -1      4170 1.17900E+02 2.87315E+01 0.00000E+00
 -1      4171 1.21650E+02 3.00305E+01 0.00000E+00
 -1      4172 1.23150E+02 3.00305E+01 0.00000E+00
 -1      4173 1.20900E+02 2.87315E+01 0.00000E+00
 -1      4174 1.24650E+02 3.00305E+01 0.00000E+00
 -1      4175 1.26150E+02 3.00305E+01 0.00000E+00
 -1      4176 1.23900E+02 2.87315E+01 0.00000E+00
 -1      4177 1.27139E+02 2.98888E+01 0.00000E+00
 -1      4178 1.28368E+02 2.97814E+01 0.00000E+00
 -1      4179 1.28368E+02 2.83064E+01 0.00000E+00
 -1      4180 1.26389E+02 2.85898E+01 0.00000E+00
 -1      4181 5.08243E+01 2.14762E+01 0.00000E+00
 -1      4182 2.16750E+01 2.79170E+01 0.00000E+00
 -1      4183 2.31750E+01 2.79170E+01 0.00000E+00
 -1      4184 1.28365E+02 2.27941E+01 0.00000E+00
 -1      4185 4.86240E+01 2.16725E+01 0.00000E+00
 -1      4186 4.71240E+01 2.16725E+01 0.00000E+00
 -1      4187 1.83202E+01 2.66775E+01 0.00000E+00
 -1      4188 9.36240E+01 2.16725E+01 0.00000E+00
 -1      4189 9.21240E+01 2.16725E+01 0.00000E+00
 -1      4190 9.66240E+01 2.16725E+01 0.00000E+00
 -1      4191 9.51240E+01 2.16725E+01 0.00000E+00
 -1      4192 9.43740E+01 2.29715E+01 0.00000E+00
 -1      4193 9.96240E+01 2.16725E+01 0.00000E+00
 -1      4194 9.81240E+01 2.16725E+01 0.00000E+00
 -1      4195 9.73740E+01 2.29715E+01 0.00000E+00
 -1      4196 1.02624E+02 2.16725E+01 0.00000E+00
 -1      4197 1.01124E+02 2.16725E+01 0.00000E+00
 -1      4198 1.00374E+02 2.29715E+01 0.00000E+00
 -1      4199 1.05624E+02 2.16725E+01 0.00000E+00
 -1      4200 1.04124E+02 2.16725E+01 0.00000E+00
 -1      4201 1.03374E+02 2.29715E+01 0.00000E+00
 -1      4202 1.08624E+02 2.16725E+01 0.00000E+00
 -1      4203 1.07124E+02 2.16725E+01 0.00000E+00
 -1      4204 1.06374E+02 2.29715E+01 0.00000E+00
 -1      4205 1.11624E+02 2.16725E+01 0.00000E+00
 -1      4206 1.10124E+02 2.16725E+01 0.00000E+00
 -1      4207 1.09374E+02 2.29715E+01 0.00000E+00
 -1      4208 1.14624E+02 2.16725E+01 0.00000E+00
 -1      4209 1.13124E+02 2.16725E+01 0.00000E+00
 -1      4210 1.12374E+02 2.29715E+01 0.00000E+00
 -1      4211 1.17624E+02 2.16725E+01 0.00000E+00
 -1      4212 1.16124E+02 2.16725E+01 0.00000E+00
 -1      4213 1.15374E+02 2.29715E+01 0.00000E+00
 -1      4214 1.20624E+02 2.16725E+01 0.00000E+00
 -1      4215 1.19124E+02 2.16725E+01 0.00000E+00
 -1      4216 1.18374E+02 2.29715E+01 0.00000E+00
 -1      4217 1.23624E+02 2.16725E+01 0.00000E+00
 -1      4218 1.22124E+02 2.16725E+01 0.00000E+00
 -1      4219 1.21374E+02 2.29715E+01 0.00000E+00
 -1      4220 1.26745E+02 2.22333E+01 0.00000E+00
 -1      4221 1.25245E+02 2.22333E+01 0.00000E+00
 -1      4222 1.24495E+02 2.35323E+01 0.00000E+00
 -1      4223 1.27736E+02 2.46539E+01 0.00000E+00
 -1      4224 7.83772E+01 2.15104E+01 0.00000E+00
 -1      4225 8.59180E+01 2.36799E+01 0.00000E+00
 -1      4226 8.60387E+01 2.51743E+01 0.00000E+00
 -1      4227 8.76892E+01 2.51048E+01 0.00000E+00
 -1      4228 8.04650E+01 2.14203E+01 0.00000E+00
 -1      4229 8.79712E+01 2.19919E+01 0.00000E+00
 -1      4230 8.64712E+01 2.19919E+01 0.00000E+00
 -1      4231 2.46750E+01 2.79170E+01 0.00000E+00
 -1      4232 2.61750E+01 2.79170E+01 0.00000E+00
 -1      4233 2.39250E+01 2.66180E+01 0.00000E+00
 -1      4234 8.19650E+01 2.14203E+01 0.00000E+00
 -1      4235 1.28052E+02 2.72177E+01 0.00000E+00
 -1      4236 1.28052E+02 2.57427E+01 0.00000E+00
 -1      4237 1.26431E+02 2.51819E+01 0.00000E+00
 -1      4238 1.27063E+02 2.73594E+01 0.00000E+00
 -1      4239 2.76750E+01 2.79170E+01 0.00000E+00
 -1      4240 2.91750E+01 2.79170E+01 0.00000E+00
 -1      4241 2.69250E+01 2.66180E+01 0.00000E+00
 -1      4242 8.33208E+01 2.20615E+01 0.00000E+00
 -1      4243 1.94685E+01 2.54812E+01 0.00000E+00
 -1      4244 1.95037E+01 2.76461E+01 0.00000E+00
 -1      4245 2.07885E+01 2.78329E+01 0.00000E+00
 -1      4246 2.05155E+01 2.50668E+01 0.00000E+00
 -1      4247 8.48208E+01 2.20615E+01 0.00000E+00
 -1      4248 3.51240E+01 1.90745E+01 0.00000E+00
 -1      4249 3.36240E+01 1.90745E+01 0.00000E+00
 -1      4250 3.58740E+01 2.03735E+01 0.00000E+00
 -1      4251 3.06240E+01 1.90745E+01 0.00000E+00
 -1      4252 2.98740E+01 2.03735E+01 0.00000E+00
 -1      4253 3.21240E+01 1.90745E+01 0.00000E+00
 -1      4254 3.51188E+01 2.79170E+01 0.00000E+00
 -1      4255 3.58688E+01 2.66180E+01 0.00000E+00
 -1      4256 3.36375E+01 2.79170E+01 0.00000E+00
 -1      4257 4.56240E+01 2.16725E+01 0.00000E+00
 -1      4258 4.41240E+01 2.16725E+01 0.00000E+00
 -1      4259 4.63740E+01 2.29715E+01 0.00000E+00
 -1      4260 3.93851E+01 2.77864E+01 0.00000E+00
 -1      4261 4.06703E+01 2.76557E+01 0.00000E+00
 -1      4262 3.86351E+01 2.64874E+01 0.00000E+00
 -1      4263 2.39235E+01 2.16142E+01 0.00000E+00
 -1      4264 9.19125E+01 3.00305E+01 0.00000E+00
 -1      4265 9.33375E+01 3.00305E+01 0.00000E+00
 -1      4266 2.99063E+01 2.66180E+01 0.00000E+00
 -1      4267 3.06563E+01 2.79170E+01 0.00000E+00
 -1      4268 3.21375E+01 2.79170E+01 0.00000E+00
 -1      4269 5.00743E+01 2.27752E+01 0.00000E+00
 -1      4270 2.15385E+01 2.65339E+01 0.00000E+00
 -1      4271 4.46505E+01 2.73838E+01 0.00000E+00
 -1      4272 4.60117E+01 2.73622E+01 0.00000E+00
 -1      4273 4.73595E+01 2.58104E+01 0.00000E+00
 -1      4274 9.06240E+01 2.16725E+01 0.00000E+00
 -1      4275 8.91240E+01 2.16725E+01 0.00000E+00
 -1      4276 8.87212E+01 2.32909E+01 0.00000E+00
 -1      4277 9.13740E+01 2.29715E+01 0.00000E+00
 -1      4278 9.40875E+01 2.87315E+01 0.00000E+00
 -1      4279 4.26240E+01 2.16725E+01 0.00000E+00
 -1      4280 4.11240E+01 2.16725E+01 0.00000E+00
 -1      4281 4.33740E+01 2.29715E+01 0.00000E+00
 -1      4282 3.96240E+01 2.16725E+01 0.00000E+00
 -1      4283 3.81240E+01 2.16725E+01 0.00000E+00
 -1      4284 4.03740E+01 2.29715E+01 0.00000E+00
 -1      4285 5.00247E+01 2.38779E+01 0.00000E+00
 -1      4286 2.14140E+01 2.42100E+01 0.00000E+00
 -1      4287 2.15505E+01 2.55931E+01 0.00000E+00
 -1      4288 2.24370E+01 2.56772E+01 0.00000E+00
 -1      4289 2.24610E+01 2.37956E+01 0.00000E+00
 -1      4290 9.63000E+01 2.74325E+01 0.00000E+00
 -1      4291 9.78000E+01 2.74325E+01 0.00000E+00
 -1      4292 9.17174E+01 2.76654E+01 0.00000E+00
 -1      4293 8.88419E+01 2.47854E+01 0.00000E+00
 -1      4294 9.03419E+01 2.47854E+01 0.00000E+00
 -1      4295 9.18419E+01 2.47854E+01 0.00000E+00
 -1      4296 9.25109E+01 2.62254E+01 0.00000E+00
 -1      4297 9.34185E+01 2.72915E+01 0.00000E+00
 -1      4298 9.48810E+01 2.72915E+01 0.00000E+00
 -1      4299 9.35430E+01 2.44115E+01 0.00000E+00
 -1      4300 4.86413E+01 2.42591E+01 0.00000E+00
 -1      4301 9.93000E+01 2.74325E+01 0.00000E+00
 -1      4302 1.00800E+02 2.74325E+01 0.00000E+00
 -1      4303 9.85500E+01 2.61335E+01 0.00000E+00
 -1      4304 1.02300E+02 2.74325E+01 0.00000E+00
 -1      4305 1.03800E+02 2.74325E+01 0.00000E+00
 -1      4306 1.01550E+02 2.61335E+01 0.00000E+00
 -1      4307 1.05300E+02 2.74325E+01 0.00000E+00
 -1      4308 1.06800E+02 2.74325E+01 0.00000E+00
 -1      4309 1.04550E+02 2.61335E+01 0.00000E+00
 -1      4310 1.08300E+02 2.74325E+01 0.00000E+00
 -1      4311 1.09800E+02 2.74325E+01 0.00000E+00
 -1      4312 1.07550E+02 2.61335E+01 0.00000E+00
 -1      4313 1.11300E+02 2.74325E+01 0.00000E+00
 -1      4314 1.12800E+02 2.74325E+01 0.00000E+00
 -1      4315 1.10550E+02 2.61335E+01 0.00000E+00
 -1      4316 1.14225E+02 2.74325E+01 0.00000E+00
 -1      4317 1.15650E+02 2.74325E+01 0.00000E+00
 -1      4318 1.13475E+02 2.61335E+01 0.00000E+00
 -1      4319 1.17150E+02 2.74325E+01 0.00000E+00
 -1      4320 1.18650E+02 2.74325E+01 0.00000E+00
 -1      4321 1.16400E+02 2.61335E+01 0.00000E+00
 -1      4322 1.20150E+02 2.74325E+01 0.00000E+00
 -1      4323 1.21650E+02 2.74325E+01 0.00000E+00
 -1      4324 1.19400E+02 2.61335E+01 0.00000E+00
 -1      4325 1.26074E+02 2.75011E+01 0.00000E+00
 -1      4326 1.00962E+02 2.45525E+01 0.00000E+00
 -1      4327 9.94620E+01 2.45525E+01 0.00000E+00
 -1      4328 4.33654E+01 2.75144E+01 0.00000E+00
 -1      4329 4.40254E+01 2.62048E+01 0.00000E+00
 -1      4330 4.20802E+01 2.76451E+01 0.00000E+00
 -1      4331 4.65922E+01 2.45228E+01 0.00000E+00
 -1      4332 2.54931E+01 2.19810E+01 0.00000E+00
 -1      4333 2.40426E+01 2.32216E+01 0.00000E+00
 -1      4334 9.79620E+01 2.45525E+01 0.00000E+00
 -1      4335 9.64620E+01 2.45525E+01 0.00000E+00
 -1      4336 9.50430E+01 2.44115E+01 0.00000E+00
 -1      4337 1.03962E+02 2.45525E+01 0.00000E+00
 -1      4338 1.02462E+02 2.45525E+01 0.00000E+00
 -1      4339 1.06962E+02 2.45525E+01 0.00000E+00
 -1      4340 1.05462E+02 2.45525E+01 0.00000E+00
 -1      4341 1.09962E+02 2.45525E+01 0.00000E+00
 -1      4342 1.08462E+02 2.45525E+01 0.00000E+00
 -1      4343 1.12962E+02 2.45525E+01 0.00000E+00
 -1      4344 1.11462E+02 2.45525E+01 0.00000E+00
 -1      4345 1.15887E+02 2.45525E+01 0.00000E+00
 -1      4346 1.14387E+02 2.45525E+01 0.00000E+00
 -1      4347 1.18887E+02 2.45525E+01 0.00000E+00
 -1      4348 1.17387E+02 2.45525E+01 0.00000E+00
 -1      4349 1.21887E+02 2.45525E+01 0.00000E+00
 -1      4350 1.20387E+02 2.45525E+01 0.00000E+00
 -1      4351 1.24969E+02 2.51476E+01 0.00000E+00
 -1      4352 1.23349E+02 2.45868E+01 0.00000E+00
 -1      4353 1.22362E+02 2.61678E+01 0.00000E+00
 -1      4354 1.25285E+02 2.62363E+01 0.00000E+00
 -1      4355 2.55186E+01 2.51032E+01 0.00000E+00
 -1      4356 2.70186E+01 2.51032E+01 0.00000E+00
 -1      4357 2.40186E+01 2.51032E+01 0.00000E+00
 -1      4358 4.50922E+01 2.45228E+01 0.00000E+00
 -1      4359 2.69931E+01 2.19810E+01 0.00000E+00
 -1      4360 3.28740E+01 2.03735E+01 0.00000E+00
 -1      4361 3.28875E+01 2.66180E+01 0.00000E+00
 -1      4362 2.91367E+01 2.19346E+01 0.00000E+00
 -1      4363 2.77558E+01 2.35421E+01 0.00000E+00
 -1      4364 2.91623E+01 2.50569E+01 0.00000E+00
 -1      4365 3.06367E+01 2.19346E+01 0.00000E+00
 -1      4366 3.81120E+01 2.47948E+01 0.00000E+00
 -1      4367 3.93971E+01 2.46641E+01 0.00000E+00
 -1      4368 3.06435E+01 2.50569E+01 0.00000E+00
 -1      4369 3.73740E+01 2.29715E+01 0.00000E+00
 -1      4370 3.66240E+01 2.16725E+01 0.00000E+00
 -1      4371 3.51240E+01 2.16725E+01 0.00000E+00
 -1      4372 4.13302E+01 2.63461E+01 0.00000E+00
 -1      4373 1.23112E+02 2.74668E+01 0.00000E+00
 -1      4374 1.24612E+02 2.74668E+01 0.00000E+00
 -1      4375 4.38071E+01 2.46535E+01 0.00000E+00
 -1      4376 9.56310E+01 2.59925E+01 0.00000E+00
 -1      4377 3.66120E+01 2.47948E+01 0.00000E+00
 -1      4378 4.23071E+01 2.46535E+01 0.00000E+00
 -1      4379 3.51307E+01 2.47948E+01 0.00000E+00
 -1      4380 4.08971E+01 2.46641E+01 0.00000E+00
 -1      4381 2.40306E+01 2.41624E+01 0.00000E+00
 -1      4382 3.21274E+01 2.19346E+01 0.00000E+00
 -1      4383 3.13901E+01 2.34958E+01 0.00000E+00
 -1      4384 3.21341E+01 2.50569E+01 0.00000E+00
 -1      4385 3.36274E+01 2.19346E+01 0.00000E+00
 -1      4386 3.43774E+01 2.32336E+01 0.00000E+00
 -1      4387 3.36341E+01 2.50569E+01 0.00000E+00
 -3
    3C                          2111                                     1
 -1       166    8    0    1
 -2         6         7        23      1139      1304      1156
 -1       167    8    0    1
 -2         7         8       166      1140      1305      1306
 -1       168    8    0    1
 -2         8         9       167      1141      1307      1308
 -1       169    8    0    1
 -2         8       167       166      1308      1309      1305
 -1       170    8    0    1
 -2         9        10       168      1142      1310      1311
 -1       171    8    0    1
 -2         9       168       167      1311      1312      1307
 -1       172    8    0    1
 -2        10        11       169      1143      1313      1314
 -1       173    8    0    1
 -2        10       169       168      1314      1315      1310
 -1       174    8    0    1
 -2        11        12       170      1144      1316      1317
 -1       175    8    0    1
 -2        11       170       169      1317      1318      1313
 -1       176    8    0    1
 -2        12        13       171      1145      1319      1320
 -1       177    8    0    1
 -2        12       171       170      1320      1321      1316
 -1       178    8    0    1
 -2        13        14       172      1146      1322      1323
 -1       179    8    0    1
 -2        13       172       171      1323      1324      1319
 -1       180    8    0    1
 -2        14        15       173      1147      1325      1326
 -1       181    8    0    1
 -2        14       173       172      1326      1327      1322
 -1       182    8    0    1
 -2        15        16       174      1148      1328      1329
 -1       183    8    0    1
 -2        15       174       173      1329      1330      1325
 -1       184    8    0    1
 -2        16        17       175      1149      1331      1332
 -1       185    8    0    1
 -2        16       175       174      1332      1333      1328
 -1       186    8    0    1
 -2        17        18       176      1150      1334      1335
 -1       187    8    0    1
 -2        17       176       175      1335      1336      1331
 -1       188    8    0    1
 -2        18        19       177      1151      1337      1338
 -1       189    8    0    1
 -2        18       177       176      1338      1339      1334
 -1       190    8    0    1
 -2        19        20       178      1152      1340      1341
 -1       191    8    0    1
 -2        19       178       177      1341      1342      1337
 -1       192    8    0    1
 -2        20        21       179      1153      1343      1344
 -1       193    8    0    1
 -2        20       179       178      1344      1345      1340
 -1       194    8    0    1
 -2        21        22       180      1154      1346      1347
 -1       195    8    0    1
 -2        21       180       179      1347      1348      1343
 -1       196    8    0    1
 -2        22         5       181      1155      1349      1350
 -1       197    8    0    1
 -2       180        22       181      1346      1350      1351
 -1       198    8    0    1
 -2         5        74       181      1208      1352      1349
 -1       199    8    0    1
 -2        24        23       182      1157      1353      1354
 -1       200    8    0    1
 -2        25        24       183      1158      1355      1356
 -1       201    8    0    1
 -2        24       182       183      1354      1357      1355
 -1       202    8    0    1
 -2        26        25       184      1159      1358      1359
 -1       203    8    0    1
 -2        25       183       184      1356      1360      1358
 -1       204    8    0    1
 -2        27        26       185      1160      1361      1362
 -1       205    8    0    1
 -2        26       184       185      1359      1363      1361
 -1       206    8    0    1
 -2        28        27       186      1161      1364      1365
 -1       207    8    0    1
 -2        27       185       186      1362      1366      1364
 -1       208    8    0    1
 -2        29        28       187      1162      1367      1368
 -1       209    8    0    1
 -2        28       186       187      1365      1369      1367
 -1       210    8    0    1
 -2        30        29       188      1163      1370      1371
 -1       211    8    0    1
 -2        29       187       188      1368      1372      1370
 -1       212    8    0    1
 -2        31        30       189      1164      1373      1374
 -1       213    8    0    1
 -2        30       188       189      1371      1375      1373
 -1       214    8    0    1
 -2        32        31       190      1165      1376      1377
 -1       215    8    0    1
 -2        31       189       190      1374      1378      1376
 -1       216    8    0    1
 -2        33        32       191      1166      1379      1380
 -1       217    8    0    1
 -2        32       190       191      1377      1381      1379
 -1       218    8    0    1
 -2        34        33       192      1167      1382      1383
 -1       219    8    0    1
 -2        33       191       192      1380      1384      1382
 -1       220    8    0    1
 -2        35        34       193      1168      1385      1386
 -1       221    8    0    1
 -2        34       192       193      1383      1387      1385
 -1       222    8    0    1
 -2        36        35       194      1169      1388      1389
 -1       223    8    0    1
 -2        35       193       194      1386      1390      1388
 -1       224    8    0    1
 -2        37        36       195      1170      1391      1392
 -1       225    8    0    1
 -2        36       194       195      1389      1393      1391
 -1       226    8    0    1
 -2        38        37       196      1171      1394      1395
 -1       227    8    0    1
 -2        37       195       196      1392      1396      1394
 -1       228    8    0    1
 -2        39        38       197      1172      1397      1398
 -1       229    8    0    1
 -2        38       196       197      1395      1399      1397
 -1       230    8    0    1
 -2        40        39       198      1173      1400      1401
 -1       231    8    0    1
 -2        39       197       198      1398      1402      1400
 -1       232    8    0    1
 -2        41        40       199      1174      1403      1404
 -1       233    8    0    1
 -2        40       198       199      1401      1405      1403
 -1       234    8    0    1
 -2        42        41       200      1175      1406      1407
 -1       235    8    0    1
 -2        41       199       200      1404      1408      1406
 -1       236    8    0    1
 -2        43        42       201      1176      1409      1410
 -1       237    8    0    1
 -2        42       200       201      1407      1411      1409
 -1       238    8    0    1
 -2        45        44       202      1178      1412      1413
 -1       239    8    0    1
 -2        46        45       203      1179      1414      1415
 -1       240    8    0    1
 -2        45       202       203      1413      1416      1414
 -1       241    8    0    1
 -2        47        46       204      1180      1417      1418
 -1       242    8    0    1
 -2        46       203       204      1415      1419      1417
 -1       243    8    0    1
 -2        48        47       205      1181      1420      1421
 -1       244    8    0    1
 -2        47       204       205      1418      1422      1420
 -1       245    8    0    1
 -2        49        48       206      1182      1423      1424
 -1       246    8    0    1
 -2        48       205       206      1421      1425      1423
 -1       247    8    0    1
 -2        50        49       207      1183      1426      1427
 -1       248    8    0    1
 -2        49       206       207      1424      1428      1426
 -1       249    8    0    1
 -2        51        50       208      1184      1429      1430
 -1       250    8    0    1
 -2        50       207       208      1427      1431      1429
 -1       251    8    0    1
 -2        52        51       209      1185      1432      1433
 -1       252    8    0    1
 -2        51       208       209      1430      1434      1432
 -1       253    8    0    1
 -2        53        52       210      1186      1435      1436
 -1       254    8    0    1
 -2        52       209       210      1433      1437      1435
 -1       255    8    0    1
 -2        54        53       211      1187      1438      1439
 -1       256    8    0    1
 -2        53       210       211      1436      1440      1438
 -1       257    8    0    1
 -2        55        54       212      1188      1441      1442
 -1       258    8    0    1
 -2        54       211       212      1439      1443      1441
 -1       259    8    0    1
 -2        56        55       213      1189      1444      1445
 -1       260    8    0    1
 -2        55       212       213      1442      1446      1444
 -1       261    8    0    1
 -2        57        56       214      1190      1447      1448
 -1       262    8    0    1
 -2        56       213       214      1445      1449      1447
 -1       263    8    0    1
 -2        58        57       215      1191      1450      1451
 -1       264    8    0    1
 -2        57       214       215      1448      1452      1450
 -1       265    8    0    1
 -2        59        58       216      1192      1453      1454
 -1       266    8    0    1
 -2        58       215       216      1451      1455      1453
 -1       267    8    0    1
 -2        60        59       217      1193      1456      1457
 -1       268    8    0    1
 -2        59       216       217      1454      1458      1456
 -1       269    8    0    1
 -2        61        60       218      1194      1459      1460
 -1       270    8    0    1
 -2        60       217       218      1457      1461      1459
 -1       271    8    0    1
 -2        62        61       219      1195      1462      1463
 -1       272    8    0    1
 -2        61       218       219      1460      1464      1462
 -1       273    8    0    1
 -2        63        62       220      1196      1465      1466
 -1       274    8    0    1
 -2        62       219       220      1463      1467      1465
 -1       275    8    0    1
 -2        64        63       221      1197      1468      1469
 -1       276    8    0    1
 -2        63       220       221      1466      1470      1468
 -1       277    8    0    1
 -2        65        64       222      1198      1471      1472
 -1       278    8    0    1
 -2        64       221       222      1469      1473      1471
 -1       279    8    0    1
 -2        66        65       223      1199      1474      1475
 -1       280    8    0    1
 -2        65       222       223      1472      1476      1474
 -1       281    8    0    1
 -2        67        66       224      1200      1477      1478
 -1       282    8    0    1
 -2        66       223       224      1475      1479      1477
 -1       283    8    0    1
 -2        68        67       225      1201      1480      1481
 -1       284    8    0    1
 -2        67       224       225      1478      1482      1480
 -1       285    8    0    1
 -2        69        68       226      1202      1483      1484
 -1       286    8    0    1
 -2        68       225       226      1481      1485      1483
 -1       287    8    0    1
 -2        70        69       227      1203      1486      1487
 -1       288    8    0    1
 -2        69       226       227      1484      1488      1486
 -1       289    8    0    1
 -2        71        70       228      1204      1489      1490
 -1       290    8    0    1
 -2        70       227       228      1487      1491      1489
 -1       291    8    0    1
 -2        72        71       229      1205      1492      1493
 -1       292    8    0    1
 -2        71       228       229      1490      1494      1492
 -1       293    8    0    1
 -2        73        72       230      1206      1495      1496
 -1       294    8    0    1
 -2        72       229       230      1493      1497      1495
 -1       295    8    0    1
 -2         4        73       231      1207      1498      1499
 -1       296    8    0    1
 -2       138         4       231      1274      1499      1500
 -1       297    8    0    1
 -2        73       230       231      1496      1501      1498
 -1       298    8    0    1
 -2        74        75       232      1209      1502      1503
 -1       299    8    0    1
 -2        74       232       181      1503      1504      1352
 -1       300    8    0    1
 -2        75        76       233      1210      1505      1506
 -1       301    8    0    1
 -2        75       233       232      1506      1507      1502
 -1       302    8    0    1
 -2        76        77       234      1211      1508      1509
 -1       303    8    0    1
 -2        76       234       233      1509      1510      1505
 -1       304    8    0    1
 -2        77        78       235      1212      1511      1512
 -1       305    8    0    1
 -2        77       235       234      1512      1513      1508
 -1       306    8    0    1
 -2        78        79       236      1213      1514      1515
 -1       307    8    0    1
 -2        78       236       235      1515      1516      1511
 -1       308    8    0    1
 -2        79        80       237      1214      1517      1518
 -1       309    8    0    1
 -2        79       237       236      1518      1519      1514
 -1       310    8    0    1
 -2        80        81       238      1215      1520      1521
 -1       311    8    0    1
 -2        80       238       237      1521      1522      1517
 -1       312    8    0    1
 -2        81        82       239      1216      1523      1524
 -1       313    8    0    1
 -2        81       239       238      1524      1525      1520
 -1       314    8    0    1
 -2        82        83       240      1217      1526      1527
 -1       315    8    0    1
 -2        82       240       239      1527      1528      1523
 -1       316    8    0    1
 -2        83        84       241      1218      1529      1530
 -1       317    8    0    1
 -2        83       241       240      1530      1531      1526
 -1       318    8    0    1
 -2        84        85       242      1219      1532      1533
 -1       319    8    0    1
 -2        84       242       241      1533      1534      1529
 -1       320    8    0    1
 -2        85        86       243      1220      1535      1536
 -1       321    8    0    1
 -2        85       243       242      1536      1537      1532
 -1       322    8    0    1
 -2        86        87       244      1221      1538      1539
 -1       323    8    0    1
 -2        86       244       243      1539      1540      1535
 -1       324    8    0    1
 -2        87        88       245      1222      1541      1542
 -1       325    8    0    1
 -2        87       245       244      1542      1543      1538
 -1       326    8    0    1
 -2        88        89       246      1223      1544      1545
 -1       327    8    0    1
 -2        88       246       245      1545      1546      1541
 -1       328    8    0    1
 -2        89        90       247      1224      1547      1548
 -1       329    8    0    1
 -2        89       247       246      1548      1549      1544
 -1       330    8    0    1
 -2        90        91       248      1225      1550      1551
 -1       331    8    0    1
 -2        90       248       247      1551      1552      1547
 -1       332    8    0    1
 -2        91        92       249      1226      1553      1554
 -1       333    8    0    1
 -2        91       249       248      1554      1555      1550
 -1       334    8    0    1
 -2        92        93       250      1227      1556      1557
 -1       335    8    0    1
 -2        92       250       249      1557      1558      1553
 -1       336    8    0    1
 -2        93        94       251      1228      1559      1560
 -1       337    8    0    1
 -2        93       251       250      1560      1561      1556
 -1       338    8    0    1
 -2        94        95       252      1229      1562      1563
 -1       339    8    0    1
 -2        94       252       251      1563      1564      1559
 -1       340    8    0    1
 -2        95        96       253      1230      1565      1566
 -1       341    8    0    1
 -2        95       253       252      1566      1567      1562
 -1       342    8    0    1
 -2        96        97       254      1231      1568      1569
 -1       343    8    0    1
 -2        96       254       253      1569      1570      1565
 -1       344    8    0    1
 -2        97        98       255      1232      1571      1572
 -1       345    8    0    1
 -2        97       255       254      1572      1573      1568
 -1       346    8    0    1
 -2        98        99       256      1233      1574      1575
 -1       347    8    0    1
 -2        98       256       255      1575      1576      1571
 -1       348    8    0    1
 -2        99       100       257      1234      1577      1578
 -1       349    8    0    1
 -2        99       257       256      1578      1579      1574
 -1       350    8    0    1
 -2       100       101       258      1235      1580      1581
 -1       351    8    0    1
 -2       100       258       257      1581      1582      1577
 -1       352    8    0    1
 -2       101       102       259      1236      1583      1584
 -1       353    8    0    1
 -2       101       259       258      1584      1585      1580
 -1       354    8    0    1
 -2       102       103       260      1237      1586      1587
 -1       355    8    0    1
 -2       102       260       259      1587      1588      1583
 -1       356    8    0    1
 -2       103       104       261      1238      1589      1590
 -1       357    8    0    1
 -2       103       261       260      1590      1591      1586
 -1       358    8    0    1
 -2       104       105       262      1239      1592      1593
 -1       359    8    0    1
 -2       104       262       261      1593      1594      1589
 -1       360    8    0    1
 -2       105       106       263      1240      1595      1596
 -1       361    8    0    1
 -2       105       263       262      1596      1597      1592
 -1       362    8    0    1
 -2       106       107       264      1241      1598      1599
 -1       363    8    0    1
 -2       106       264       263      1599      1600      1595
 -1       364    8    0    1
 -2       107       108       265      1242      1601      1602
 -1       365    8    0    1
 -2       107       265       264      1602      1603      1598
 -1       366    8    0    1
 -2       108       109       266      1243      1604      1605
 -1       367    8    0    1
 -2       108       266       265      1605      1606      1601
 -1       368    8    0    1
 -2       109       110       267      1244      1607      1608
 -1       369    8    0    1
 -2       109       267       266      1608      1609      1604
 -1       370    8    0    1
 -2       110       111       268      1245      1610      1611
 -1       371    8    0    1
 -2       110       268       267      1611      1612      1607
 -1       372    8    0    1
 -2       111       112       269      1246      1613      1614
 -1       373    8    0    1
 -2       111       269       268      1614      1615      1610
 -1       374    8    0    1
 -2       112       113       270      1247      1616      1617
 -1       375    8    0    1
 -2       112       270       269      1617      1618      1613
 -1       376    8    0    1
 -2       113       114       271      1248      1619      1620
 -1       377    8    0    1
 -2       113       271       270      1620      1621      1616
 -1       378    8    0    1
 -2       114       115       272      1249      1622      1623
 -1       379    8    0    1
 -2       114       272       271      1623      1624      1619
 -1       380    8    0    1
 -2       115       116       273      1250      1625      1626
 -1       381    8    0    1
 -2       115       273       272      1626      1627      1622
 -1       382    8    0    1
 -2       116       117       274      1251      1628      1629
 -1       383    8    0    1
 -2       116       274       273      1629      1630      1625
 -1       384    8    0    1
 -2       117       118       275      1252      1631      1632
 -1       385    8    0    1
 -2       117       275       274      1632      1633      1628
 -1       386    8    0    1
 -2       118       119       276      1253      1634      1635
 -1       387    8    0    1
 -2       118       276       275      1635      1636      1631
 -1       388    8    0    1
 -2       119       120       277      1254      1637      1638
 -1       389    8    0    1
 -2       119       277       276      1638      1639      1634
 -1       390    8    0    1
 -2       120       121       278      1255      1640      1641
 -1       391    8    0    1
 -2       120       278       277      1641      1642      1637
 -1       392    8    0    1
 -2       121       122       279      1256      1643      1644
 -1       393    8    0    1
 -2       121       279       278      1644      1645      1640
 -1       394    8    0    1
 -2       122         3       123      1257      1258      1646
 -1       395    8    0    1
 -2       123       124       280      1259      1647      1648
 -1       396    8    0    1
 -2       124       125       281      1260      1649      1650
 -1       397    8    0    1
 -2       124       281       280      1650      1651      1647
 -1       398    8    0    1
 -2       125       126       282      1261      1652      1653
 -1       399    8    0    1
 -2       125       282       281      1653      1654      1649
 -1       400    8    0    1
 -2       126       127       283      1262      1655      1656
 -1       401    8    0    1
 -2       126       283       282      1656      1657      1652
 -1       402    8    0    1
 -2       127       128       284      1263      1658      1659
 -1       403    8    0    1
 -2       127       284       283      1659      1660      1655
 -1       404    8    0    1
 -2       128       129       285      1264      1661      1662
 -1       405    8    0    1
 -2       128       285       284      1662      1663      1658
 -1       406    8    0    1
 -2       129       130       286      1265      1664      1665
 -1       407    8    0    1
 -2       129       286       285      1665      1666      1661
 -1       408    8    0    1
 -2       130       131       287      1266      1667      1668
 -1       409    8    0    1
 -2       130       287       286      1668      1669      1664
 -1       410    8    0    1
 -2       131       132       288      1267      1670      1671
 -1       411    8    0    1
 -2       131       288       287      1671      1672      1667
 -1       412    8    0    1
 -2       132       133       289      1268      1673      1674
 -1       413    8    0    1
 -2       132       289       288      1674      1675      1670
 -1       414    8    0    1
 -2       133       134       290      1269      1676      1677
 -1       415    8    0    1
 -2       133       290       289      1677      1678      1673
 -1       416    8    0    1
 -2       134       135       291      1270      1679      1680
 -1       417    8    0    1
 -2       134       291       290      1680      1681      1676
 -1       418    8    0    1
 -2       135       136       292      1271      1682      1683
 -1       419    8    0    1
 -2       135       292       291      1683      1684      1679
 -1       420    8    0    1
 -2       136       137       293      1272      1685      1686
 -1       421    8    0    1
 -2       136       293       292      1686      1687      1682
 -1       422    8    0    1
 -2       137       138       294      1273      1688      1689
 -1       423    8    0    1
 -2       293       137       294      1685      1689      1690
 -1       424    8    0    1
 -2       138       231       294      1500      1691      1688
 -1       425    8    0    1
 -2         2       139       295      1275      1692      1693
 -1       426    8    0    1
 -2       139       140       296      1276      1694      1695
 -1       427    8    0    1
 -2       140       141       297      1277      1696      1697
 -1       428    8    0    1
 -2       141       142       298      1278      1698      1699
 -1       429    8    0    1
 -2       142       143       299      1279      1700      1701
 -1       430    8    0    1
 -2       143       144       300      1280      1702      1703
 -1       431    8    0    1
 -2       144       145       301      1281      1704      1705
 -1       432    8    0    1
 -2       145       146       302      1282      1706      1707
 -1       433    8    0    1
 -2       146       147       303      1283      1708      1709
 -1       434    8    0    1
 -2       147       148       304      1284      1710      1711
 -1       435    8    0    1
 -2       148       149       305      1285      1712      1713
 -1       436    8    0    1
 -2       149       150       306      1286      1714      1715
 -1       437    8    0    1
 -2       150       151       307      1287      1716      1717
 -1       438    8    0    1
 -2       151       152       308      1288      1718      1719
 -1       439    8    0    1
 -2       152       153       309      1289      1720      1721
 -1       440    8    0    1
 -2       153       154       310      1290      1722      1723
 -1       441    8    0    1
 -2       154       155       311      1291      1724      1725
 -1       442    8    0    1
 -2       155       156       312      1292      1726      1727
 -1       443    8    0    1
 -2       156       157       313      1293      1728      1729
 -1       444    8    0    1
 -2       157       158       314      1294      1730      1731
 -1       445    8    0    1
 -2       158         1       315      1295      1732      1733
 -1       446    8    0    1
 -2         1       159       316      1296      1734      1735
 -1       447    8    0    1
 -2       159       160       317      1297      1736      1737
 -1       448    8    0    1
 -2       160       161       318      1298      1738      1739
 -1       449    8    0    1
 -2       161       162       319      1299      1740      1741
 -1       450    8    0    1
 -2       162       163       320      1300      1742      1743
 -1       451    8    0    1
 -2       163       164       321      1301      1744      1745
 -1       452    8    0    1
 -2       164       165       322      1302      1746      1747
 -1       453    8    0    1
 -2       164       322       321      1747      1748      1744
 -1       454    8    0    1
 -2       165         2       323      1303      1749      1750
 -1       455    8    0    1
 -2        43       201       324      1410      1751      1752
 -1       456    8    0    1
 -2       202        44       324      1412      1753      1754
 -1       457    8    0    1
 -2        44        43       324      1177      1752      1753
 -1       458    8    0    1
 -2         2       295       323      1693      1755      1749
 -1       459    8    0    1
 -2       297       141       298      1696      1699      1756
 -1       460    8    0    1
 -2       122       123       279      1646      1757      1643
 -1       461    8    0    1
 -2       123       280       279      1648      1758      1757
 -1       462    8    0    1
 -2       295       139       296      1692      1695      1759
 -1       463    8    0    1
 -2       296       140       297      1694      1697      1760
 -1       464    8    0    1
 -2       142       299       298      1701      1761      1698
 -1       465    8    0    1
 -2       143       300       299      1703      1762      1700
 -1       466    8    0    1
 -2       144       301       300      1705      1763      1702
 -1       467    8    0    1
 -2       145       302       301      1707      1764      1704
 -1       468    8    0    1
 -2       146       303       302      1709      1765      1706
 -1       469    8    0    1
 -2       147       304       303      1711      1766      1708
 -1       470    8    0    1
 -2       148       305       304      1713      1767      1710
 -1       471    8    0    1
 -2       149       306       305      1715      1768      1712
 -1       472    8    0    1
 -2       150       307       306      1717      1769      1714
 -1       473    8    0    1
 -2       151       308       307      1719      1770      1716
 -1       474    8    0    1
 -2       152       309       308      1721      1771      1718
 -1       475    8    0    1
 -2       153       310       309      1723      1772      1720
 -1       476    8    0    1
 -2       154       311       310      1725      1773      1722
 -1       477    8    0    1
 -2       155       312       311      1727      1774      1724
 -1       478    8    0    1
 -2       156       313       312      1729      1775      1726
 -1       479    8    0    1
 -2       157       314       313      1731      1776      1728
 -1       480    8    0    1
 -2       158       315       314      1733      1777      1730
 -1       481    8    0    1
 -2         1       316       315      1735      1778      1732
 -1       482    8    0    1
 -2       159       317       316      1737      1779      1734
 -1       483    8    0    1
 -2       160       318       317      1739      1780      1736
 -1       484    8    0    1
 -2       161       319       318      1741      1781      1738
 -1       485    8    0    1
 -2       162       320       319      1743      1782      1740
 -1       486    8    0    1
 -2       163       321       320      1745      1783      1742
 -1       487    8    0    1
 -2        23         7       166      1304      1306      1784
 -1       488    8    0    1
 -2       165       323       322      1750      1785      1746
 -1       489    8    0    1
 -2       167       168       325      1312      1786      1787
 -1       490    8    0    1
 -2       166       167       326      1309      1788      1789
 -1       491    8    0    1
 -2       167       325       326      1787      1790      1788
 -1       492    8    0    1
 -2       169       170       327      1318      1791      1792
 -1       493    8    0    1
 -2       170       171       328      1321      1793      1794
 -1       494    8    0    1
 -2       170       328       327      1794      1795      1791
 -1       495    8    0    1
 -2       171       172       329      1324      1796      1797
 -1       496    8    0    1
 -2       171       329       328      1797      1798      1793
 -1       497    8    0    1
 -2       172       173       330      1327      1799      1800
 -1       498    8    0    1
 -2       172       330       329      1800      1801      1796
 -1       499    8    0    1
 -2       173       174       331      1330      1802      1803
 -1       500    8    0    1
 -2       173       331       330      1803      1804      1799
 -1       501    8    0    1
 -2       174       175       332      1333      1805      1806
 -1       502    8    0    1
 -2       174       332       331      1806      1807      1802
 -1       503    8    0    1
 -2       175       176       333      1336      1808      1809
 -1       504    8    0    1
 -2       175       333       332      1809      1810      1805
 -1       505    8    0    1
 -2       176       177       334      1339      1811      1812
 -1       506    8    0    1
 -2       176       334       333      1812      1813      1808
 -1       507    8    0    1
 -2       177       178       335      1342      1814      1815
 -1       508    8    0    1
 -2       177       335       334      1815      1816      1811
 -1       509    8    0    1
 -2       178       179       336      1345      1817      1818
 -1       510    8    0    1
 -2       178       336       335      1818      1819      1814
 -1       511    8    0    1
 -2       179       180       337      1348      1820      1821
 -1       512    8    0    1
 -2       179       337       336      1821      1822      1817
 -1       513    8    0    1
 -2       180       181       338      1351      1823      1824
 -1       514    8    0    1
 -2       337       180       338      1820      1824      1825
 -1       515    8    0    1
 -2       181       232       338      1504      1826      1823
 -1       516    8    0    1
 -2       182        23       166      1353      1784      1827
 -1       517    8    0    1
 -2       232       233       339      1507      1828      1829
 -1       518    8    0    1
 -2       232       339       338      1829      1830      1826
 -1       519    8    0    1
 -2       322       323       340      1785      1831      1832
 -1       520    8    0    1
 -2       202       324       315      1754      1833      1834
 -1       521    8    0    1
 -2       184       183       341      1360      1835      1836
 -1       522    8    0    1
 -2       185       184       342      1363      1837      1838
 -1       523    8    0    1
 -2       184       341       342      1836      1839      1837
 -1       524    8    0    1
 -2       186       185       343      1366      1840      1841
 -1       525    8    0    1
 -2       185       342       343      1838      1842      1840
 -1       526    8    0    1
 -2       187       186       344      1369      1843      1844
 -1       527    8    0    1
 -2       186       343       344      1841      1845      1843
 -1       528    8    0    1
 -2       188       187       345      1372      1846      1847
 -1       529    8    0    1
 -2       187       344       345      1844      1848      1846
 -1       530    8    0    1
 -2       189       188       346      1375      1849      1850
 -1       531    8    0    1
 -2       188       345       346      1847      1851      1849
 -1       532    8    0    1
 -2       190       189       347      1378      1852      1853
 -1       533    8    0    1
 -2       189       346       347      1850      1854      1852
 -1       534    8    0    1
 -2       191       190       348      1381      1855      1856
 -1       535    8    0    1
 -2       190       347       348      1853      1857      1855
 -1       536    8    0    1
 -2       192       191       349      1384      1858      1859
 -1       537    8    0    1
 -2       191       348       349      1856      1860      1858
 -1       538    8    0    1
 -2       193       192       350      1387      1861      1862
 -1       539    8    0    1
 -2       192       349       350      1859      1863      1861
 -1       540    8    0    1
 -2       194       193       351      1390      1864      1865
 -1       541    8    0    1
 -2       193       350       351      1862      1866      1864
 -1       542    8    0    1
 -2       195       194       352      1393      1867      1868
 -1       543    8    0    1
 -2       194       351       352      1865      1869      1867
 -1       544    8    0    1
 -2       196       195       353      1396      1870      1871
 -1       545    8    0    1
 -2       195       352       353      1868      1872      1870
 -1       546    8    0    1
 -2       197       196       354      1399      1873      1874
 -1       547    8    0    1
 -2       196       353       354      1871      1875      1873
 -1       548    8    0    1
 -2       198       197       355      1402      1876      1877
 -1       549    8    0    1
 -2       197       354       355      1874      1878      1876
 -1       550    8    0    1
 -2       199       198       356      1405      1879      1880
 -1       551    8    0    1
 -2       198       355       356      1877      1881      1879
 -1       552    8    0    1
 -2       205       204       357      1422      1882      1883
 -1       553    8    0    1
 -2       206       205       358      1425      1884      1885
 -1       554    8    0    1
 -2       207       206       359      1428      1886      1887
 -1       555    8    0    1
 -2       206       358       359      1885      1888      1886
 -1       556    8    0    1
 -2       208       207       360      1431      1889      1890
 -1       557    8    0    1
 -2       207       359       360      1887      1891      1889
 -1       558    8    0    1
 -2       209       208       361      1434      1892      1893
 -1       559    8    0    1
 -2       208       360       361      1890      1894      1892
 -1       560    8    0    1
 -2       210       209       362      1437      1895      1896
 -1       561    8    0    1
 -2       209       361       362      1893      1897      1895
 -1       562    8    0    1
 -2       211       210       363      1440      1898      1899
 -1       563    8    0    1
 -2       210       362       363      1896      1900      1898
 -1       564    8    0    1
 -2       212       211       364      1443      1901      1902
 -1       565    8    0    1
 -2       211       363       364      1899      1903      1901
 -1       566    8    0    1
 -2       213       212       365      1446      1904      1905
 -1       567    8    0    1
 -2       212       364       365      1902      1906      1904
 -1       568    8    0    1
 -2       214       213       366      1449      1907      1908
 -1       569    8    0    1
 -2       213       365       366      1905      1909      1907
 -1       570    8    0    1
 -2       215       214       367      1452      1910      1911
 -1       571    8    0    1
 -2       214       366       367      1908      1912      1910
 -1       572    8    0    1
 -2       216       215       368      1455      1913      1914
 -1       573    8    0    1
 -2       215       367       368      1911      1915      1913
 -1       574    8    0    1
 -2       217       216       369      1458      1916      1917
 -1       575    8    0    1
 -2       216       368       369      1914      1918      1916
 -1       576    8    0    1
 -2       218       217       370      1461      1919      1920
 -1       577    8    0    1
 -2       217       369       370      1917      1921      1919
 -1       578    8    0    1
 -2       219       218       371      1464      1922      1923
 -1       579    8    0    1
 -2       218       370       371      1920      1924      1922
 -1       580    8    0    1
 -2       220       219       372      1467      1925      1926
 -1       581    8    0    1
 -2       219       371       372      1923      1927      1925
 -1       582    8    0    1
 -2       221       220       373      1470      1928      1929
 -1       583    8    0    1
 -2       220       372       373      1926      1930      1928
 -1       584    8    0    1
 -2       222       221       374      1473      1931      1932
 -1       585    8    0    1
 -2       221       373       374      1929      1933      1931
 -1       586    8    0    1
 -2       223       222       375      1476      1934      1935
 -1       587    8    0    1
 -2       222       374       375      1932      1936      1934
 -1       588    8    0    1
 -2       224       223       376      1479      1937      1938
 -1       589    8    0    1
 -2       223       375       376      1935      1939      1937
 -1       590    8    0    1
 -2       225       224       377      1482      1940      1941
 -1       591    8    0    1
 -2       224       376       377      1938      1942      1940
 -1       592    8    0    1
 -2       226       225       378      1485      1943      1944
 -1       593    8    0    1
 -2       225       377       378      1941      1945      1943
 -1       594    8    0    1
 -2       227       226       379      1488      1946      1947
 -1       595    8    0    1
 -2       226       378       379      1944      1948      1946
 -1       596    8    0    1
 -2       228       227       380      1491      1949      1950
 -1       597    8    0    1
 -2       227       379       380      1947      1951      1949
 -1       598    8    0    1
 -2       229       228       381      1494      1952      1953
 -1       599    8    0    1
 -2       228       380       381      1950      1954      1952
 -1       600    8    0    1
 -2       230       229       382      1497      1955      1956
 -1       601    8    0    1
 -2       229       381       382      1953      1957      1955
 -1       602    8    0    1
 -2       231       230       383      1501      1958      1959
 -1       603    8    0    1
 -2       294       231       383      1691      1959      1960
 -1       604    8    0    1
 -2       230       382       383      1956      1961      1958
 -1       605    8    0    1
 -2       182       166       326      1827      1789      1962
 -1       606    8    0    1
 -2       234       235       384      1513      1963      1964
 -1       607    8    0    1
 -2       235       236       385      1516      1965      1966
 -1       608    8    0    1
 -2       235       385       384      1966      1967      1963
 -1       609    8    0    1
 -2       236       237       386      1519      1968      1969
 -1       610    8    0    1
 -2       236       386       385      1969      1970      1965
 -1       611    8    0    1
 -2       237       238       387      1522      1971      1972
 -1       612    8    0    1
 -2       237       387       386      1972      1973      1968
 -1       613    8    0    1
 -2       238       239       388      1525      1974      1975
 -1       614    8    0    1
 -2       238       388       387      1975      1976      1971
 -1       615    8    0    1
 -2       239       240       389      1528      1977      1978
 -1       616    8    0    1
 -2       239       389       388      1978      1979      1974
 -1       617    8    0    1
 -2       240       241       390      1531      1980      1981
 -1       618    8    0    1
 -2       240       390       389      1981      1982      1977
 -1       619    8    0    1
 -2       241       242       391      1534      1983      1984
 -1       620    8    0    1
 -2       241       391       390      1984      1985      1980
 -1       621    8    0    1
 -2       242       243       392      1537      1986      1987
 -1       622    8    0    1
 -2       242       392       391      1987      1988      1983
 -1       623    8    0    1
 -2       243       244       393      1540      1989      1990
 -1       624    8    0    1
 -2       243       393       392      1990      1991      1986
 -1       625    8    0    1
 -2       244       245       394      1543      1992      1993
 -1       626    8    0    1
 -2       244       394       393      1993      1994      1989
 -1       627    8    0    1
 -2       245       246       395      1546      1995      1996
 -1       628    8    0    1
 -2       245       395       394      1996      1997      1992
 -1       629    8    0    1
 -2       246       247       396      1549      1998      1999
 -1       630    8    0    1
 -2       246       396       395      1999      2000      1995
 -1       631    8    0    1
 -2       247       248       397      1552      2001      2002
 -1       632    8    0    1
 -2       247       397       396      2002      2003      1998
 -1       633    8    0    1
 -2       248       249       398      1555      2004      2005
 -1       634    8    0    1
 -2       248       398       397      2005      2006      2001
 -1       635    8    0    1
 -2       249       250       399      1558      2007      2008
 -1       636    8    0    1
 -2       249       399       398      2008      2009      2004
 -1       637    8    0    1
 -2       250       251       400      1561      2010      2011
 -1       638    8    0    1
 -2       250       400       399      2011      2012      2007
 -1       639    8    0    1
 -2       251       252       401      1564      2013      2014
 -1       640    8    0    1
 -2       251       401       400      2014      2015      2010
 -1       641    8    0    1
 -2       252       253       402      1567      2016      2017
 -1       642    8    0    1
 -2       252       402       401      2017      2018      2013
 -1       643    8    0    1
 -2       253       254       403      1570      2019      2020
 -1       644    8    0    1
 -2       253       403       402      2020      2021      2016
 -1       645    8    0    1
 -2       254       255       404      1573      2022      2023
 -1       646    8    0    1
 -2       254       404       403      2023      2024      2019
 -1       647    8    0    1
 -2       255       256       405      1576      2025      2026
 -1       648    8    0    1
 -2       255       405       404      2026      2027      2022
 -1       649    8    0    1
 -2       256       257       406      1579      2028      2029
 -1       650    8    0    1
 -2       256       406       405      2029      2030      2025
 -1       651    8    0    1
 -2       257       258       407      1582      2031      2032
 -1       652    8    0    1
 -2       257       407       406      2032      2033      2028
 -1       653    8    0    1
 -2       258       259       408      1585      2034      2035
 -1       654    8    0    1
 -2       258       408       407      2035      2036      2031
 -1       655    8    0    1
 -2       259       260       409      1588      2037      2038
 -1       656    8    0    1
 -2       259       409       408      2038      2039      2034
 -1       657    8    0    1
 -2       260       261       410      1591      2040      2041
 -1       658    8    0    1
 -2       260       410       409      2041      2042      2037
 -1       659    8    0    1
 -2       261       262       411      1594      2043      2044
 -1       660    8    0    1
 -2       261       411       410      2044      2045      2040
 -1       661    8    0    1
 -2       262       263       412      1597      2046      2047
 -1       662    8    0    1
 -2       262       412       411      2047      2048      2043
 -1       663    8    0    1
 -2       263       264       413      1600      2049      2050
 -1       664    8    0    1
 -2       263       413       412      2050      2051      2046
 -1       665    8    0    1
 -2       264       265       414      1603      2052      2053
 -1       666    8    0    1
 -2       264       414       413      2053      2054      2049
 -1       667    8    0    1
 -2       265       266       415      1606      2055      2056
 -1       668    8    0    1
 -2       265       415       414      2056      2057      2052
 -1       669    8    0    1
 -2       266       267       416      1609      2058      2059
 -1       670    8    0    1
 -2       266       416       415      2059      2060      2055
 -1       671    8    0    1
 -2       267       268       417      1612      2061      2062
 -1       672    8    0    1
 -2       267       417       416      2062      2063      2058
 -1       673    8    0    1
 -2       268       269       418      1615      2064      2065
 -1       674    8    0    1
 -2       268       418       417      2065      2066      2061
 -1       675    8    0    1
 -2       269       270       419      1618      2067      2068
 -1       676    8    0    1
 -2       269       419       418      2068      2069      2064
 -1       677    8    0    1
 -2       270       271       420      1621      2070      2071
 -1       678    8    0    1
 -2       270       420       419      2071      2072      2067
 -1       679    8    0    1
 -2       271       272       421      1624      2073      2074
 -1       680    8    0    1
 -2       271       421       420      2074      2075      2070
 -1       681    8    0    1
 -2       272       273       422      1627      2076      2077
 -1       682    8    0    1
 -2       272       422       421      2077      2078      2073
 -1       683    8    0    1
 -2       273       274       423      1630      2079      2080
 -1       684    8    0    1
 -2       273       423       422      2080      2081      2076
 -1       685    8    0    1
 -2       274       275       424      1633      2082      2083
 -1       686    8    0    1
 -2       274       424       423      2083      2084      2079
 -1       687    8    0    1
 -2       275       276       425      1636      2085      2086
 -1       688    8    0    1
 -2       275       425       424      2086      2087      2082
 -1       689    8    0    1
 -2       276       277       426      1639      2088      2089
 -1       690    8    0    1
 -2       276       426       425      2089      2090      2085
 -1       691    8    0    1
 -2       277       278       427      1642      2091      2092
 -1       692    8    0    1
 -2       277       427       426      2092      2093      2088
 -1       693    8    0    1
 -2       278       279       428      1645      2094      2095
 -1       694    8    0    1
 -2       427       278       428      2091      2095      2096
 -1       695    8    0    1
 -2       279       280       428      1758      2097      2094
 -1       696    8    0    1
 -2       282       283       429      1657      2098      2099
 -1       697    8    0    1
 -2       281       282       430      1654      2100      2101
 -1       698    8    0    1
 -2       282       429       430      2099      2102      2100
 -1       699    8    0    1
 -2       280       281       428      1651      2103      2097
 -1       700    8    0    1
 -2       283       284       431      1660      2104      2105
 -1       701    8    0    1
 -2       283       431       429      2105      2106      2098
 -1       702    8    0    1
 -2       284       285       432      1663      2107      2108
 -1       703    8    0    1
 -2       284       432       431      2108      2109      2104
 -1       704    8    0    1
 -2       285       286       433      1666      2110      2111
 -1       705    8    0    1
 -2       285       433       432      2111      2112      2107
 -1       706    8    0    1
 -2       286       287       434      1669      2113      2114
 -1       707    8    0    1
 -2       286       434       433      2114      2115      2110
 -1       708    8    0    1
 -2       287       288       435      1672      2116      2117
 -1       709    8    0    1
 -2       287       435       434      2117      2118      2113
 -1       710    8    0    1
 -2       288       289       436      1675      2119      2120
 -1       711    8    0    1
 -2       288       436       435      2120      2121      2116
 -1       712    8    0    1
 -2       289       290       437      1678      2122      2123
 -1       713    8    0    1
 -2       289       437       436      2123      2124      2119
 -1       714    8    0    1
 -2       290       291       438      1681      2125      2126
 -1       715    8    0    1
 -2       290       438       437      2126      2127      2122
 -1       716    8    0    1
 -2       291       292       439      1684      2128      2129
 -1       717    8    0    1
 -2       291       439       438      2129      2130      2125
 -1       718    8    0    1
 -2       292       293       440      1687      2131      2132
 -1       719    8    0    1
 -2       292       440       439      2132      2133      2128
 -1       720    8    0    1
 -2       233       234       441      1510      2134      2135
 -1       721    8    0    1
 -2       339       233       441      1828      2135      2136
 -1       722    8    0    1
 -2       234       384       441      1964      2137      2134
 -1       723    8    0    1
 -2       296       297       442      1760      2138      2139
 -1       724    8    0    1
 -2       298       299       443      1761      2140      2141
 -1       725    8    0    1
 -2       295       296       444      1759      2142      2143
 -1       726    8    0    1
 -2       321       322       445      1748      2144      2145
 -1       727    8    0    1
 -2       322       340       445      1832      2146      2144
 -1       728    8    0    1
 -2       297       298       446      1756      2147      2148
 -1       729    8    0    1
 -2       297       446       442      2148      2149      2138
 -1       730    8    0    1
 -2       168       169       447      1315      2150      2151
 -1       731    8    0    1
 -2       325       168       447      1786      2151      2152
 -1       732    8    0    1
 -2       169       327       447      1792      2153      2150
 -1       733    8    0    1
 -2       203       202       317      1416      2154      2155
 -1       734    8    0    1
 -2       299       300       448      1762      2156      2157
 -1       735    8    0    1
 -2       300       301       449      1763      2158      2159
 -1       736    8    0    1
 -2       301       302       450      1764      2160      2161
 -1       737    8    0    1
 -2       301       450       449      2161      2162      2158
 -1       738    8    0    1
 -2       302       303       451      1765      2163      2164
 -1       739    8    0    1
 -2       303       304       452      1766      2165      2166
 -1       740    8    0    1
 -2       304       305       453      1767      2167      2168
 -1       741    8    0    1
 -2       305       306       454      1768      2169      2170
 -1       742    8    0    1
 -2       306       307       455      1769      2171      2172
 -1       743    8    0    1
 -2       307       308       456      1770      2173      2174
 -1       744    8    0    1
 -2       308       309       457      1771      2175      2176
 -1       745    8    0    1
 -2       309       310       458      1772      2177      2178
 -1       746    8    0    1
 -2       310       311       459      1773      2179      2180
 -1       747    8    0    1
 -2       311       312       460      1774      2181      2182
 -1       748    8    0    1
 -2       312       313       461      1775      2183      2184
 -1       749    8    0    1
 -2       313       314       201      1776      2185      2186
 -1       750    8    0    1
 -2       314       315       324      1777      1833      2187
 -1       751    8    0    1
 -2       318       319       357      1781      2188      2189
 -1       752    8    0    1
 -2       319       320       462      1782      2190      2191
 -1       753    8    0    1
 -2       319       462       357      2191      2192      2188
 -1       754    8    0    1
 -2       320       321       463      1783      2193      2194
 -1       755    8    0    1
 -2       320       463       462      2194      2195      2190
 -1       756    8    0    1
 -2       324       201       314      1751      2185      2187
 -1       757    8    0    1
 -2       323       295       464      1755      2196      2197
 -1       758    8    0    1
 -2       296       442       444      2139      2198      2142
 -1       759    8    0    1
 -2       318       357       204      2189      1882      2199
 -1       760    8    0    1
 -2       341       183       326      1835      2200      2201
 -1       761    8    0    1
 -2       340       323       464      1831      2197      2202
 -1       762    8    0    1
 -2       183       182       326      1357      1962      2200
 -1       763    8    0    1
 -2       202       315       316      1834      1778      2203
 -1       764    8    0    1
 -2       205       357       358      1883      2204      1884
 -1       765    8    0    1
 -2       200       199       465      1408      2205      2206
 -1       766    8    0    1
 -2       201       200       461      1411      2207      2208
 -1       767    8    0    1
 -2       204       203       318      1419      2209      2199
 -1       768    8    0    1
 -2       428       281       430      2103      2101      2210
 -1       769    8    0    1
 -2       443       299       448      2140      2157      2211
 -1       770    8    0    1
 -2       298       443       446      2141      2212      2147
 -1       771    8    0    1
 -2       295       444       464      2143      2213      2196
 -1       772    8    0    1
 -2       321       445       463      2145      2214      2193
 -1       773    8    0    1
 -2       461       313       201      2183      2186      2208
 -1       774    8    0    1
 -2       460       312       461      2181      2184      2215
 -1       775    8    0    1
 -2       459       311       460      2179      2182      2216
 -1       776    8    0    1
 -2       458       310       459      2177      2180      2217
 -1       777    8    0    1
 -2       457       309       458      2175      2178      2218
 -1       778    8    0    1
 -2       456       308       457      2173      2176      2219
 -1       779    8    0    1
 -2       455       307       456      2171      2174      2220
 -1       780    8    0    1
 -2       454       306       455      2169      2172      2221
 -1       781    8    0    1
 -2       453       305       466      2167      2222      2223
 -1       782    8    0    1
 -2       305       454       466      2170      2224      2222
 -1       783    8    0    1
 -2       452       304       453      2165      2168      2225
 -1       784    8    0    1
 -2       450       302       451      2160      2164      2226
 -1       785    8    0    1
 -2       200       465       461      2206      2227      2207
 -1       786    8    0    1
 -2       448       300       467      2156      2228      2229
 -1       787    8    0    1
 -2       300       449       467      2159      2230      2228
 -1       788    8    0    1
 -2       451       303       452      2163      2166      2231
 -1       789    8    0    1
 -2       316       317       202      1779      2154      2203
 -1       790    8    0    1
 -2       317       318       203      1780      2209      2155
 -1       791    8    0    1
 -2       465       199       356      2205      1880      2232
 -1       792    8    0    1
 -2       328       329       468      1798      2233      2234
 -1       793    8    0    1
 -2       327       328       469      1795      2235      2236
 -1       794    8    0    1
 -2       328       468       469      2234      2237      2235
 -1       795    8    0    1
 -2       330       331       470      1804      2238      2239
 -1       796    8    0    1
 -2       331       332       471      1807      2240      2241
 -1       797    8    0    1
 -2       331       471       470      2241      2242      2238
 -1       798    8    0    1
 -2       332       333       472      1810      2243      2244
 -1       799    8    0    1
 -2       332       472       471      2244      2245      2240
 -1       800    8    0    1
 -2       333       334       473      1813      2246      2247
 -1       801    8    0    1
 -2       333       473       472      2247      2248      2243
 -1       802    8    0    1
 -2       334       335       474      1816      2249      2250
 -1       803    8    0    1
 -2       334       474       473      2250      2251      2246
 -1       804    8    0    1
 -2       335       336       475      1819      2252      2253
 -1       805    8    0    1
 -2       335       475       474      2253      2254      2249
 -1       806    8    0    1
 -2       336       337       476      1822      2255      2256
 -1       807    8    0    1
 -2       336       476       475      2256      2257      2252
 -1       808    8    0    1
 -2       337       338       477      1825      2258      2259
 -1       809    8    0    1
 -2       476       337       477      2255      2259      2260
 -1       810    8    0    1
 -2       338       339       477      1830      2261      2258
 -1       811    8    0    1
 -2       442       446       478      2149      2262      2263
 -1       812    8    0    1
 -2       340       464       479      2202      2264      2265
 -1       813    8    0    1
 -2       343       342       480      1842      2266      2267
 -1       814    8    0    1
 -2       344       343       481      1845      2268      2269
 -1       815    8    0    1
 -2       343       480       481      2267      2270      2268
 -1       816    8    0    1
 -2       345       344       482      1848      2271      2272
 -1       817    8    0    1
 -2       344       481       482      2269      2273      2271
 -1       818    8    0    1
 -2       346       345       483      1851      2274      2275
 -1       819    8    0    1
 -2       345       482       483      2272      2276      2274
 -1       820    8    0    1
 -2       347       346       484      1854      2277      2278
 -1       821    8    0    1
 -2       346       483       484      2275      2279      2277
 -1       822    8    0    1
 -2       348       347       485      1857      2280      2281
 -1       823    8    0    1
 -2       347       484       485      2278      2282      2280
 -1       824    8    0    1
 -2       349       348       486      1860      2283      2284
 -1       825    8    0    1
 -2       348       485       486      2281      2285      2283
 -1       826    8    0    1
 -2       350       349       487      1863      2286      2287
 -1       827    8    0    1
 -2       349       486       487      2284      2288      2286
 -1       828    8    0    1
 -2       351       350       488      1866      2289      2290
 -1       829    8    0    1
 -2       350       487       488      2287      2291      2289
 -1       830    8    0    1
 -2       352       351       489      1869      2292      2293
 -1       831    8    0    1
 -2       351       488       489      2290      2294      2292
 -1       832    8    0    1
 -2       353       352       490      1872      2295      2296
 -1       833    8    0    1
 -2       352       489       490      2293      2297      2295
 -1       834    8    0    1
 -2       354       353       491      1875      2298      2299
 -1       835    8    0    1
 -2       353       490       491      2296      2300      2298
 -1       836    8    0    1
 -2       355       354       492      1878      2301      2302
 -1       837    8    0    1
 -2       354       491       492      2299      2303      2301
 -1       838    8    0    1
 -2       356       355       493      1881      2304      2305
 -1       839    8    0    1
 -2       355       492       493      2302      2306      2304
 -1       840    8    0    1
 -2       341       326       494      2201      2307      2308
 -1       841    8    0    1
 -2       326       325       494      1790      2309      2307
 -1       842    8    0    1
 -2       460       461       465      2215      2227      2310
 -1       843    8    0    1
 -2       360       359       495      1891      2311      2312
 -1       844    8    0    1
 -2       361       360       496      1894      2313      2314
 -1       845    8    0    1
 -2       360       495       496      2312      2315      2313
 -1       846    8    0    1
 -2       362       361       497      1897      2316      2317
 -1       847    8    0    1
 -2       361       496       497      2314      2318      2316
 -1       848    8    0    1
 -2       363       362       498      1900      2319      2320
 -1       849    8    0    1
 -2       362       497       498      2317      2321      2319
 -1       850    8    0    1
 -2       364       363       499      1903      2322      2323
 -1       851    8    0    1
 -2       363       498       499      2320      2324      2322
 -1       852    8    0    1
 -2       365       364       500      1906      2325      2326
 -1       853    8    0    1
 -2       364       499       500      2323      2327      2325
 -1       854    8    0    1
 -2       366       365       501      1909      2328      2329
 -1       855    8    0    1
 -2       365       500       501      2326      2330      2328
 -1       856    8    0    1
 -2       367       366       502      1912      2331      2332
 -1       857    8    0    1
 -2       366       501       502      2329      2333      2331
 -1       858    8    0    1
 -2       368       367       503      1915      2334      2335
 -1       859    8    0    1
 -2       367       502       503      2332      2336      2334
 -1       860    8    0    1
 -2       369       368       504      1918      2337      2338
 -1       861    8    0    1
 -2       368       503       504      2335      2339      2337
 -1       862    8    0    1
 -2       370       369       505      1921      2340      2341
 -1       863    8    0    1
 -2       369       504       505      2338      2342      2340
 -1       864    8    0    1
 -2       371       370       506      1924      2343      2344
 -1       865    8    0    1
 -2       370       505       506      2341      2345      2343
 -1       866    8    0    1
 -2       372       371       507      1927      2346      2347
 -1       867    8    0    1
 -2       371       506       507      2344      2348      2346
 -1       868    8    0    1
 -2       373       372       508      1930      2349      2350
 -1       869    8    0    1
 -2       372       507       508      2347      2351      2349
 -1       870    8    0    1
 -2       374       373       509      1933      2352      2353
 -1       871    8    0    1
 -2       373       508       509      2350      2354      2352
 -1       872    8    0    1
 -2       375       374       510      1936      2355      2356
 -1       873    8    0    1
 -2       374       509       510      2353      2357      2355
 -1       874    8    0    1
 -2       376       375       511      1939      2358      2359
 -1       875    8    0    1
 -2       375       510       511      2356      2360      2358
 -1       876    8    0    1
 -2       377       376       512      1942      2361      2362
 -1       877    8    0    1
 -2       376       511       512      2359      2363      2361
 -1       878    8    0    1
 -2       378       377       513      1945      2364      2365
 -1       879    8    0    1
 -2       377       512       513      2362      2366      2364
 -1       880    8    0    1
 -2       379       378       514      1948      2367      2368
 -1       881    8    0    1
 -2       378       513       514      2365      2369      2367
 -1       882    8    0    1
 -2       380       379       515      1951      2370      2371
 -1       883    8    0    1
 -2       379       514       515      2368      2372      2370
 -1       884    8    0    1
 -2       381       380       516      1954      2373      2374
 -1       885    8    0    1
 -2       380       515       516      2371      2375      2373
 -1       886    8    0    1
 -2       382       381       517      1957      2376      2377
 -1       887    8    0    1
 -2       381       516       517      2374      2378      2376
 -1       888    8    0    1
 -2       445       340       518      2146      2379      2380
 -1       889    8    0    1
 -2       340       479       518      2265      2381      2379
 -1       890    8    0    1
 -2       385       386       519      1970      2382      2383
 -1       891    8    0    1
 -2       384       385       520      1967      2384      2385
 -1       892    8    0    1
 -2       385       519       520      2383      2386      2384
 -1       893    8    0    1
 -2       387       388       521      1976      2387      2388
 -1       894    8    0    1
 -2       388       389       522      1979      2389      2390
 -1       895    8    0    1
 -2       388       522       521      2390      2391      2387
 -1       896    8    0    1
 -2       389       390       523      1982      2392      2393
 -1       897    8    0    1
 -2       389       523       522      2393      2394      2389
 -1       898    8    0    1
 -2       390       391       524      1985      2395      2396
 -1       899    8    0    1
 -2       390       524       523      2396      2397      2392
 -1       900    8    0    1
 -2       391       392       525      1988      2398      2399
 -1       901    8    0    1
 -2       391       525       524      2399      2400      2395
 -1       902    8    0    1
 -2       392       393       526      1991      2401      2402
 -1       903    8    0    1
 -2       392       526       525      2402      2403      2398
 -1       904    8    0    1
 -2       393       394       527      1994      2404      2405
 -1       905    8    0    1
 -2       393       527       526      2405      2406      2401
 -1       906    8    0    1
 -2       394       395       528      1997      2407      2408
 -1       907    8    0    1
 -2       394       528       527      2408      2409      2404
 -1       908    8    0    1
 -2       395       396       529      2000      2410      2411
 -1       909    8    0    1
 -2       395       529       528      2411      2412      2407
 -1       910    8    0    1
 -2       396       397       530      2003      2413      2414
 -1       911    8    0    1
 -2       396       530       529      2414      2415      2410
 -1       912    8    0    1
 -2       397       398       531      2006      2416      2417
 -1       913    8    0    1
 -2       397       531       530      2417      2418      2413
 -1       914    8    0    1
 -2       398       399       532      2009      2419      2420
 -1       915    8    0    1
 -2       398       532       531      2420      2421      2416
 -1       916    8    0    1
 -2       399       400       533      2012      2422      2423
 -1       917    8    0    1
 -2       399       533       532      2423      2424      2419
 -1       918    8    0    1
 -2       400       401       534      2015      2425      2426
 -1       919    8    0    1
 -2       400       534       533      2426      2427      2422
 -1       920    8    0    1
 -2       401       402       535      2018      2428      2429
 -1       921    8    0    1
 -2       401       535       534      2429      2430      2425
 -1       922    8    0    1
 -2       402       403       536      2021      2431      2432
 -1       923    8    0    1
 -2       402       536       535      2432      2433      2428
 -1       924    8    0    1
 -2       403       404       537      2024      2434      2435
 -1       925    8    0    1
 -2       403       537       536      2435      2436      2431
 -1       926    8    0    1
 -2       404       405       538      2027      2437      2438
 -1       927    8    0    1
 -2       404       538       537      2438      2439      2434
 -1       928    8    0    1
 -2       405       406       539      2030      2440      2441
 -1       929    8    0    1
 -2       405       539       538      2441      2442      2437
 -1       930    8    0    1
 -2       406       407       540      2033      2443      2444
 -1       931    8    0    1
 -2       406       540       539      2444      2445      2440
 -1       932    8    0    1
 -2       407       408       541      2036      2446      2447
 -1       933    8    0    1
 -2       407       541       540      2447      2448      2443
 -1       934    8    0    1
 -2       408       409       542      2039      2449      2450
 -1       935    8    0    1
 -2       408       542       541      2450      2451      2446
 -1       936    8    0    1
 -2       409       410       543      2042      2452      2453
 -1       937    8    0    1
 -2       409       543       542      2453      2454      2449
 -1       938    8    0    1
 -2       410       411       544      2045      2455      2456
 -1       939    8    0    1
 -2       410       544       543      2456      2457      2452
 -1       940    8    0    1
 -2       411       412       545      2048      2458      2459
 -1       941    8    0    1
 -2       411       545       544      2459      2460      2455
 -1       942    8    0    1
 -2       412       413       546      2051      2461      2462
 -1       943    8    0    1
 -2       412       546       545      2462      2463      2458
 -1       944    8    0    1
 -2       413       414       547      2054      2464      2465
 -1       945    8    0    1
 -2       413       547       546      2465      2466      2461
 -1       946    8    0    1
 -2       414       415       548      2057      2467      2468
 -1       947    8    0    1
 -2       414       548       547      2468      2469      2464
 -1       948    8    0    1
 -2       415       416       549      2060      2470      2471
 -1       949    8    0    1
 -2       415       549       548      2471      2472      2467
 -1       950    8    0    1
 -2       416       417       550      2063      2473      2474
 -1       951    8    0    1
 -2       416       550       549      2474      2475      2470
 -1       952    8    0    1
 -2       417       418       551      2066      2476      2477
 -1       953    8    0    1
 -2       417       551       550      2477      2478      2473
 -1       954    8    0    1
 -2       418       419       552      2069      2479      2480
 -1       955    8    0    1
 -2       418       552       551      2480      2481      2476
 -1       956    8    0    1
 -2       419       420       553      2072      2482      2483
 -1       957    8    0    1
 -2       419       553       552      2483      2484      2479
 -1       958    8    0    1
 -2       420       421       554      2075      2485      2486
 -1       959    8    0    1
 -2       420       554       553      2486      2487      2482
 -1       960    8    0    1
 -2       421       422       555      2078      2488      2489
 -1       961    8    0    1
 -2       421       555       554      2489      2490      2485
 -1       962    8    0    1
 -2       422       423       556      2081      2491      2492
 -1       963    8    0    1
 -2       422       556       555      2492      2493      2488
 -1       964    8    0    1
 -2       423       424       557      2084      2494      2495
 -1       965    8    0    1
 -2       423       557       556      2495      2496      2491
 -1       966    8    0    1
 -2       424       425       558      2087      2497      2498
 -1       967    8    0    1
 -2       424       558       557      2498      2499      2494
 -1       968    8    0    1
 -2       425       426       559      2090      2500      2501
 -1       969    8    0    1
 -2       425       559       558      2501      2502      2497
 -1       970    8    0    1
 -2       426       427       560      2093      2503      2504
 -1       971    8    0    1
 -2       426       560       559      2504      2505      2500
 -1       972    8    0    1
 -2       427       428       430      2096      2210      2506
 -1       973    8    0    1
 -2       431       432       561      2109      2507      2508
 -1       974    8    0    1
 -2       429       431       562      2106      2509      2510
 -1       975    8    0    1
 -2       431       561       562      2508      2511      2509
 -1       976    8    0    1
 -2       430       429       563      2102      2512      2513
 -1       977    8    0    1
 -2       429       562       563      2510      2514      2512
 -1       978    8    0    1
 -2       443       448       564      2211      2515      2516
 -1       979    8    0    1
 -2       432       433       565      2112      2517      2518
 -1       980    8    0    1
 -2       432       565       561      2518      2519      2507
 -1       981    8    0    1
 -2       433       434       566      2115      2520      2521
 -1       982    8    0    1
 -2       433       566       565      2521      2522      2517
 -1       983    8    0    1
 -2       434       435       567      2118      2523      2524
 -1       984    8    0    1
 -2       434       567       566      2524      2525      2520
 -1       985    8    0    1
 -2       435       436       568      2121      2526      2527
 -1       986    8    0    1
 -2       435       568       567      2527      2528      2523
 -1       987    8    0    1
 -2       436       437       569      2124      2529      2530
 -1       988    8    0    1
 -2       436       569       568      2530      2531      2526
 -1       989    8    0    1
 -2       437       438       570      2127      2532      2533
 -1       990    8    0    1
 -2       437       570       569      2533      2534      2529
 -1       991    8    0    1
 -2       438       439       571      2130      2535      2536
 -1       992    8    0    1
 -2       438       571       570      2536      2537      2532
 -1       993    8    0    1
 -2       439       440       572      2133      2538      2539
 -1       994    8    0    1
 -2       439       572       571      2539      2540      2535
 -1       995    8    0    1
 -2       440       293       573      2131      2541      2542
 -1       996    8    0    1
 -2       293       294       573      1690      2543      2541
 -1       997    8    0    1
 -2       386       387       574      1973      2544      2545
 -1       998    8    0    1
 -2       386       574       519      2545      2546      2382
 -1       999    8    0    1
 -2       463       445       575      2214      2547      2548
 -1      1000    8    0    1
 -2       359       358       575      1888      2549      2550
 -1      1001    8    0    1
 -2       342       341       576      1839      2551      2552
 -1      1002    8    0    1
 -2       480       342       576      2266      2552      2553
 -1      1003    8    0    1
 -2       341       494       576      2308      2554      2551
 -1      1004    8    0    1
 -2       329       330       577      1801      2555      2556
 -1      1005    8    0    1
 -2       468       329       577      2233      2556      2557
 -1      1006    8    0    1
 -2       330       470       577      2239      2558      2555
 -1      1007    8    0    1
 -2       464       444       578      2213      2559      2560
 -1      1008    8    0    1
 -2       460       465       579      2310      2561      2562
 -1      1009    8    0    1
 -2       460       579       459      2562      2563      2216
 -1      1010    8    0    1
 -2       446       443       580      2212      2564      2565
 -1      1011    8    0    1
 -2       478       446       580      2262      2565      2566
 -1      1012    8    0    1
 -2       443       564       580      2516      2567      2564
 -1      1013    8    0    1
 -2       451       452       581      2231      2568      2569
 -1      1014    8    0    1
 -2       449       450       582      2162      2570      2571
 -1      1015    8    0    1
 -2       450       451       583      2226      2572      2573
 -1      1016    8    0    1
 -2       452       453       584      2225      2574      2575
 -1      1017    8    0    1
 -2       452       584       581      2575      2576      2568
 -1      1018    8    0    1
 -2       454       455       585      2221      2577      2578
 -1      1019    8    0    1
 -2       455       456       586      2220      2579      2580
 -1      1020    8    0    1
 -2       456       457       587      2219      2581      2582
 -1      1021    8    0    1
 -2       457       458       588      2218      2583      2584
 -1      1022    8    0    1
 -2       457       588       587      2584      2585      2581
 -1      1023    8    0    1
 -2       458       459       589      2217      2586      2587
 -1      1024    8    0    1
 -2       358       357       462      2204      2192      2588
 -1      1025    8    0    1
 -2       465       356       579      2232      2589      2561
 -1      1026    8    0    1
 -2       444       442       590      2198      2590      2591
 -1      1027    8    0    1
 -2       427       430       560      2506      2592      2503
 -1      1028    8    0    1
 -2       358       462       463      2588      2195      2593
 -1      1029    8    0    1
 -2       358       463       575      2593      2548      2549
 -1      1030    8    0    1
 -2       327       469       591      2236      2594      2595
 -1      1031    8    0    1
 -2       327       591       447      2595      2596      2153
 -1      1032    8    0    1
 -2       454       585       592      2578      2597      2598
 -1      1033    8    0    1
 -2       454       592       466      2598      2599      2224
 -1      1034    8    0    1
 -2       477       339       593      2261      2600      2601
 -1      1035    8    0    1
 -2       339       441       593      2136      2602      2600
 -1      1036    8    0    1
 -2       479       464       578      2264      2560      2603
 -1      1037    8    0    1
 -2       387       521       574      2388      2604      2544
 -1      1038    8    0    1
 -2       325       447       594      2152      2605      2606
 -1      1039    8    0    1
 -2       494       325       594      2309      2606      2607
 -1      1040    8    0    1
 -2       447       591       594      2596      2608      2605
 -1      1041    8    0    1
 -2       448       467       595      2229      2609      2610
 -1      1042    8    0    1
 -2       448       595       564      2610      2611      2515
 -1      1043    8    0    1
 -2       578       444       590      2559      2591      2612
 -1      1044    8    0    1
 -2       495       359       575      2311      2550      2613
 -1      1045    8    0    1
 -2       445       518       575      2380      2614      2547
 -1      1046    8    0    1
 -2       451       581       583      2569      2615      2572
 -1      1047    8    0    1
 -2       430       563       560      2513      2616      2592
 -1      1048    8    0    1
 -2       441       384       596      2137      2617      2618
 -1      1049    8    0    1
 -2       593       441       596      2602      2618      2619
 -1      1050    8    0    1
 -2       384       520       596      2385      2620      2617
 -1      1051    8    0    1
 -2       588       458       597      2583      2621      2622
 -1      1052    8    0    1
 -2       458       589       597      2587      2623      2621
 -1      1053    8    0    1
 -2       586       456       587      2579      2582      2624
 -1      1054    8    0    1
 -2       584       453       598      2574      2625      2626
 -1      1055    8    0    1
 -2       453       466       598      2223      2627      2625
 -1      1056    8    0    1
 -2       467       449       599      2230      2628      2629
 -1      1057    8    0    1
 -2       449       582       599      2571      2630      2628
 -1      1058    8    0    1
 -2       459       579       589      2563      2631      2586
 -1      1059    8    0    1
 -2       582       450       583      2570      2573      2632
 -1      1060    8    0    1
 -2       585       455       586      2577      2580      2633
 -1      1061    8    0    1
 -2       442       478       590      2263      2634      2590
 -1      1062    8    0    1
 -2       471       472       600      2245      2635      2636
 -1      1063    8    0    1
 -2       470       471       601      2242      2637      2638
 -1      1064    8    0    1
 -2       471       600       601      2636      2639      2637
 -1      1065    8    0    1
 -2       473       474       602      2251      2640      2641
 -1      1066    8    0    1
 -2       474       475       603      2254      2642      2643
 -1      1067    8    0    1
 -2       474       603       602      2643      2644      2640
 -1      1068    8    0    1
 -2       476       477       604      2260      2645      2646
 -1      1069    8    0    1
 -2       477       593       604      2601      2647      2645
 -1      1070    8    0    1
 -2       574       521       605      2604      2648      2649
 -1      1071    8    0    1
 -2       356       493       589      2305      2650      2651
 -1      1072    8    0    1
 -2       482       481       606      2273      2652      2653
 -1      1073    8    0    1
 -2       483       482       607      2276      2654      2655
 -1      1074    8    0    1
 -2       482       606       607      2653      2656      2654
 -1      1075    8    0    1
 -2       484       483       608      2279      2657      2658
 -1      1076    8    0    1
 -2       483       607       608      2655      2659      2657
 -1      1077    8    0    1
 -2       485       484       609      2282      2660      2661
 -1      1078    8    0    1
 -2       484       608       609      2658      2662      2660
 -1      1079    8    0    1
 -2       486       485       610      2285      2663      2664
 -1      1080    8    0    1
 -2       485       609       610      2661      2665      2663
 -1      1081    8    0    1
 -2       487       486       611      2288      2666      2667
 -1      1082    8    0    1
 -2       486       610       611      2664      2668      2666
 -1      1083    8    0    1
 -2       488       487       612      2291      2669      2670
 -1      1084    8    0    1
 -2       487       611       612      2667      2671      2669
 -1      1085    8    0    1
 -2       489       488       613      2294      2672      2673
 -1      1086    8    0    1
 -2       488       612       613      2670      2674      2672
 -1      1087    8    0    1
 -2       490       489       614      2297      2675      2676
 -1      1088    8    0    1
 -2       489       613       614      2673      2677      2675
 -1      1089    8    0    1
 -2       491       490       615      2300      2678      2679
 -1      1090    8    0    1
 -2       490       614       615      2676      2680      2678
 -1      1091    8    0    1
 -2       492       491       616      2303      2681      2682
 -1      1092    8    0    1
 -2       491       615       616      2679      2683      2681
 -1      1093    8    0    1
 -2       496       495       617      2315      2684      2685
 -1      1094    8    0    1
 -2       469       468       618      2237      2686      2687
 -1      1095    8    0    1
 -2       497       496       619      2318      2688      2689
 -1      1096    8    0    1
 -2       496       617       619      2685      2690      2688
 -1      1097    8    0    1
 -2       498       497       620      2321      2691      2692
 -1      1098    8    0    1
 -2       497       619       620      2689      2693      2691
 -1      1099    8    0    1
 -2       499       498       621      2324      2694      2695
 -1      1100    8    0    1
 -2       498       620       621      2692      2696      2694
 -1      1101    8    0    1
 -2       500       499       622      2327      2697      2698
 -1      1102    8    0    1
 -2       499       621       622      2695      2699      2697
 -1      1103    8    0    1
 -2       501       500       623      2330      2700      2701
 -1      1104    8    0    1
 -2       500       622       623      2698      2702      2700
 -1      1105    8    0    1
 -2       502       501       624      2333      2703      2704
 -1      1106    8    0    1
 -2       501       623       624      2701      2705      2703
 -1      1107    8    0    1
 -2       503       502       625      2336      2706      2707
 -1      1108    8    0    1
 -2       502       624       625      2704      2708      2706
 -1      1109    8    0    1
 -2       504       503       626      2339      2709      2710
 -1      1110    8    0    1
 -2       503       625       626      2707      2711      2709
 -1      1111    8    0    1
 -2       505       504       627      2342      2712      2713
 -1      1112    8    0    1
 -2       504       626       627      2710      2714      2712
 -1      1113    8    0    1
 -2       506       505       628      2345      2715      2716
 -1      1114    8    0    1
 -2       505       627       628      2713      2717      2715
 -1      1115    8    0    1
 -2       507       506       629      2348      2718      2719
 -1      1116    8    0    1
 -2       506       628       629      2716      2720      2718
 -1      1117    8    0    1
 -2       508       507       630      2351      2721      2722
 -1      1118    8    0    1
 -2       507       629       630      2719      2723      2721
 -1      1119    8    0    1
 -2       509       508       631      2354      2724      2725
 -1      1120    8    0    1
 -2       508       630       631      2722      2726      2724
 -1      1121    8    0    1
 -2       510       509       632      2357      2727      2728
 -1      1122    8    0    1
 -2       509       631       632      2725      2729      2727
 -1      1123    8    0    1
 -2       511       510       633      2360      2730      2731
 -1      1124    8    0    1
 -2       510       632       633      2728      2732      2730
 -1      1125    8    0    1
 -2       512       511       634      2363      2733      2734
 -1      1126    8    0    1
 -2       511       633       634      2731      2735      2733
 -1      1127    8    0    1
 -2       513       512       635      2366      2736      2737
 -1      1128    8    0    1
 -2       512       634       635      2734      2738      2736
 -1      1129    8    0    1
 -2       514       513       636      2369      2739      2740
 -1      1130    8    0    1
 -2       513       635       636      2737      2741      2739
 -1      1131    8    0    1
 -2       515       514       637      2372      2742      2743
 -1      1132    8    0    1
 -2       514       636       637      2740      2744      2742
 -1      1133    8    0    1
 -2       516       515       638      2375      2745      2746
 -1      1134    8    0    1
 -2       515       637       638      2743      2747      2745
 -1      1135    8    0    1
 -2       518       479       639      2381      2748      2749
 -1      1136    8    0    1
 -2       383       382       573      1961      2750      2751
 -1      1137    8    0    1
 -2       522       523       640      2394      2752      2753
 -1      1138    8    0    1
 -2       521       522       641      2391      2754      2755
 -1      1139    8    0    1
 -2       605       521       641      2648      2755      2756
 -1      1140    8    0    1
 -2       522       640       641      2753      2757      2754
 -1      1141    8    0    1
 -2       524       525       642      2400      2758      2759
 -1      1142    8    0    1
 -2       525       526       643      2403      2760      2761
 -1      1143    8    0    1
 -2       525       643       642      2761      2762      2758
 -1      1144    8    0    1
 -2       526       527       644      2406      2763      2764
 -1      1145    8    0    1
 -2       526       644       643      2764      2765      2760
 -1      1146    8    0    1
 -2       527       528       645      2409      2766      2767
 -1      1147    8    0    1
 -2       527       645       644      2767      2768      2763
 -1      1148    8    0    1
 -2       528       529       646      2412      2769      2770
 -1      1149    8    0    1
 -2       528       646       645      2770      2771      2766
 -1      1150    8    0    1
 -2       529       530       647      2415      2772      2773
 -1      1151    8    0    1
 -2       529       647       646      2773      2774      2769
 -1      1152    8    0    1
 -2       530       531       648      2418      2775      2776
 -1      1153    8    0    1
 -2       530       648       647      2776      2777      2772
 -1      1154    8    0    1
 -2       531       532       649      2421      2778      2779
 -1      1155    8    0    1
 -2       531       649       648      2779      2780      2775
 -1      1156    8    0    1
 -2       532       533       650      2424      2781      2782
 -1      1157    8    0    1
 -2       532       650       649      2782      2783      2778
 -1      1158    8    0    1
 -2       533       534       651      2427      2784      2785
 -1      1159    8    0    1
 -2       533       651       650      2785      2786      2781
 -1      1160    8    0    1
 -2       534       535       652      2430      2787      2788
 -1      1161    8    0    1
 -2       534       652       651      2788      2789      2784
 -1      1162    8    0    1
 -2       535       536       653      2433      2790      2791
 -1      1163    8    0    1
 -2       535       653       652      2791      2792      2787
 -1      1164    8    0    1
 -2       536       537       654      2436      2793      2794
 -1      1165    8    0    1
 -2       536       654       653      2794      2795      2790
 -1      1166    8    0    1
 -2       537       538       655      2439      2796      2797
 -1      1167    8    0    1
 -2       537       655       654      2797      2798      2793
 -1      1168    8    0    1
 -2       538       539       656      2442      2799      2800
 -1      1169    8    0    1
 -2       538       656       655      2800      2801      2796
 -1      1170    8    0    1
 -2       539       540       657      2445      2802      2803
 -1      1171    8    0    1
 -2       539       657       656      2803      2804      2799
 -1      1172    8    0    1
 -2       540       541       658      2448      2805      2806
 -1      1173    8    0    1
 -2       540       658       657      2806      2807      2802
 -1      1174    8    0    1
 -2       541       542       659      2451      2808      2809
 -1      1175    8    0    1
 -2       541       659       658      2809      2810      2805
 -1      1176    8    0    1
 -2       542       543       660      2454      2811      2812
 -1      1177    8    0    1
 -2       542       660       659      2812      2813      2808
 -1      1178    8    0    1
 -2       543       544       661      2457      2814      2815
 -1      1179    8    0    1
 -2       543       661       660      2815      2816      2811
 -1      1180    8    0    1
 -2       544       545       662      2460      2817      2818
 -1      1181    8    0    1
 -2       544       662       661      2818      2819      2814
 -1      1182    8    0    1
 -2       545       546       663      2463      2820      2821
 -1      1183    8    0    1
 -2       545       663       662      2821      2822      2817
 -1      1184    8    0    1
 -2       546       547       664      2466      2823      2824
 -1      1185    8    0    1
 -2       546       664       663      2824      2825      2820
 -1      1186    8    0    1
 -2       547       548       665      2469      2826      2827
 -1      1187    8    0    1
 -2       547       665       664      2827      2828      2823
 -1      1188    8    0    1
 -2       548       549       666      2472      2829      2830
 -1      1189    8    0    1
 -2       548       666       665      2830      2831      2826
 -1      1190    8    0    1
 -2       549       550       667      2475      2832      2833
 -1      1191    8    0    1
 -2       549       667       666      2833      2834      2829
 -1      1192    8    0    1
 -2       550       551       668      2478      2835      2836
 -1      1193    8    0    1
 -2       550       668       667      2836      2837      2832
 -1      1194    8    0    1
 -2       551       552       669      2481      2838      2839
 -1      1195    8    0    1
 -2       551       669       668      2839      2840      2835
 -1      1196    8    0    1
 -2       552       553       670      2484      2841      2842
 -1      1197    8    0    1
 -2       552       670       669      2842      2843      2838
 -1      1198    8    0    1
 -2       553       554       671      2487      2844      2845
 -1      1199    8    0    1
 -2       553       671       670      2845      2846      2841
 -1      1200    8    0    1
 -2       554       555       672      2490      2847      2848
 -1      1201    8    0    1
 -2       554       672       671      2848      2849      2844
 -1      1202    8    0    1
 -2       555       556       673      2493      2850      2851
 -1      1203    8    0    1
 -2       555       673       672      2851      2852      2847
 -1      1204    8    0    1
 -2       556       557       674      2496      2853      2854
 -1      1205    8    0    1
 -2       556       674       673      2854      2855      2850
 -1      1206    8    0    1
 -2       557       558       675      2499      2856      2857
 -1      1207    8    0    1
 -2       557       675       674      2857      2858      2853
 -1      1208    8    0    1
 -2       558       559       676      2502      2859      2860
 -1      1209    8    0    1
 -2       558       676       675      2860      2861      2856
 -1      1210    8    0    1
 -2       559       560       677      2505      2862      2863
 -1      1211    8    0    1
 -2       676       559       677      2859      2863      2864
 -1      1212    8    0    1
 -2       560       563       677      2616      2865      2862
 -1      1213    8    0    1
 -2       562       561       678      2511      2866      2867
 -1      1214    8    0    1
 -2       565       566       679      2522      2868      2869
 -1      1215    8    0    1
 -2       563       562       680      2514      2870      2871
 -1      1216    8    0    1
 -2       677       563       680      2865      2871      2872
 -1      1217    8    0    1
 -2       562       678       680      2867      2873      2870
 -1      1218    8    0    1
 -2       578       590       681      2612      2874      2875
 -1      1219    8    0    1
 -2       561       565       682      2519      2876      2877
 -1      1220    8    0    1
 -2       678       561       682      2866      2877      2878
 -1      1221    8    0    1
 -2       565       679       682      2869      2879      2876
 -1      1222    8    0    1
 -2       567       568       683      2528      2880      2881
 -1      1223    8    0    1
 -2       568       569       684      2531      2882      2883
 -1      1224    8    0    1
 -2       568       684       683      2883      2884      2880
 -1      1225    8    0    1
 -2       569       570       685      2534      2885      2886
 -1      1226    8    0    1
 -2       569       685       684      2886      2887      2882
 -1      1227    8    0    1
 -2       570       571       686      2537      2888      2889
 -1      1228    8    0    1
 -2       570       686       685      2889      2890      2885
 -1      1229    8    0    1
 -2       571       572       687      2540      2891      2892
 -1      1230    8    0    1
 -2       571       687       686      2892      2893      2888
 -1      1231    8    0    1
 -2       440       573       517      2542      2894      2895
 -1      1232    8    0    1
 -2       572       440       688      2538      2896      2897
 -1      1233    8    0    1
 -2       519       574       689      2546      2898      2899
 -1      1234    8    0    1
 -2       574       605       689      2649      2900      2898
 -1      1235    8    0    1
 -2       479       578       690      2603      2901      2902
 -1      1236    8    0    1
 -2       479       690       639      2902      2903      2748
 -1      1237    8    0    1
 -2       573       294       383      2543      1960      2751
 -1      1238    8    0    1
 -2       583       581       691      2615      2904      2905
 -1      1239    8    0    1
 -2       586       587       692      2624      2906      2907
 -1      1240    8    0    1
 -2       382       517       573      2377      2894      2750
 -1      1241    8    0    1
 -2       589       493       597      2650      2908      2623
 -1      1242    8    0    1
 -2       589       579       356      2631      2589      2651
 -1      1243    8    0    1
 -2       585       586       693      2633      2909      2910
 -1      1244    8    0    1
 -2       566       567       694      2525      2911      2912
 -1      1245    8    0    1
 -2       567       683       694      2881      2913      2911
 -1      1246    8    0    1
 -2       523       524       695      2397      2914      2915
 -1      1247    8    0    1
 -2       640       523       695      2752      2915      2916
 -1      1248    8    0    1
 -2       524       642       695      2759      2917      2914
 -1      1249    8    0    1
 -2       581       584       696      2576      2918      2919
 -1      1250    8    0    1
 -2       590       478       697      2634      2920      2921
 -1      1251    8    0    1
 -2       587       588       698      2585      2922      2923
 -1      1252    8    0    1
 -2       587       698       692      2923      2924      2906
 -1      1253    8    0    1
 -2       582       583       699      2632      2925      2926
 -1      1254    8    0    1
 -2       520       519       700      2386      2927      2928
 -1      1255    8    0    1
 -2       519       689       700      2899      2929      2927
 -1      1256    8    0    1
 -2       472       473       701      2248      2930      2931
 -1      1257    8    0    1
 -2       600       472       701      2635      2931      2932
 -1      1258    8    0    1
 -2       473       602       701      2641      2933      2930
 -1      1259    8    0    1
 -2       481       480       702      2270      2934      2935
 -1      1260    8    0    1
 -2       481       702       606      2935      2936      2652
 -1      1261    8    0    1
 -2       688       440       517      2896      2895      2937
 -1      1262    8    0    1
 -2       592       585       703      2597      2938      2939
 -1      1263    8    0    1
 -2       585       693       703      2910      2940      2938
 -1      1264    8    0    1
 -2       470       601       704      2638      2941      2942
 -1      1265    8    0    1
 -2       470       704       577      2942      2943      2558
 -1      1266    8    0    1
 -2       476       604       475      2646      2944      2257
 -1      1267    8    0    1
 -2       698       588       705      2922      2945      2946
 -1      1268    8    0    1
 -2       588       597       705      2622      2947      2945
 -1      1269    8    0    1
 -2       475       604       603      2944      2948      2642
 -1      1270    8    0    1
 -2       468       577       706      2557      2949      2950
 -1      1271    8    0    1
 -2       618       468       706      2686      2950      2951
 -1      1272    8    0    1
 -2       577       704       706      2943      2952      2949
 -1      1273    8    0    1
 -2       492       616       705      2682      2953      2954
 -1      1274    8    0    1
 -2       617       495       639      2684      2955      2956
 -1      1275    8    0    1
 -2       493       492       705      2306      2954      2957
 -1      1276    8    0    1
 -2       595       467       707      2609      2958      2959
 -1      1277    8    0    1
 -2       467       599       707      2629      2960      2958
 -1      1278    8    0    1
 -2       469       618       708      2687      2961      2962
 -1      1279    8    0    1
 -2       469       708       591      2962      2963      2594
 -1      1280    8    0    1
 -2       696       584       709      2918      2964      2965
 -1      1281    8    0    1
 -2       584       598       709      2626      2966      2964
 -1      1282    8    0    1
 -2       691       581       696      2904      2919      2967
 -1      1283    8    0    1
 -2       517       516       688      2378      2968      2937
 -1      1284    8    0    1
 -2       583       691       699      2905      2969      2925
 -1      1285    8    0    1
 -2       688       516       638      2968      2746      2970
 -1      1286    8    0    1
 -2       681       590       697      2874      2921      2971
 -1      1287    8    0    1
 -2       679       566       694      2868      2912      2972
 -1      1288    8    0    1
 -2       596       520       710      2620      2973      2974
 -1      1289    8    0    1
 -2       687       572       638      2891      2975      2976
 -1      1290    8    0    1
 -2       572       688       638      2897      2970      2975
 -1      1291    8    0    1
 -2       690       578       711      2901      2977      2978
 -1      1292    8    0    1
 -2       578       681       711      2875      2979      2977
 -1      1293    8    0    1
 -2       582       699       712      2926      2980      2981
 -1      1294    8    0    1
 -2       582       712       599      2981      2982      2630
 -1      1295    8    0    1
 -2       494       594       713      2607      2983      2984
 -1      1296    8    0    1
 -2       494       713       576      2984      2985      2554
 -1      1297    8    0    1
 -2       586       692       714      2907      2986      2987
 -1      1298    8    0    1
 -2       586       714       693      2987      2988      2909
 -1      1299    8    0    1
 -2       598       466       715      2627      2989      2990
 -1      1300    8    0    1
 -2       466       592       715      2599      2991      2989
 -1      1301    8    0    1
 -2       480       576       716      2553      2992      2993
 -1      1302    8    0    1
 -2       702       480       716      2934      2993      2994
 -1      1303    8    0    1
 -2       576       713       716      2985      2995      2992
 -1      1304    8    0    1
 -2       580       564       717      2567      2996      2997
 -1      1305    8    0    1
 -2       564       595       718      2611      2998      2999
 -1      1306    8    0    1
 -2       564       718       717      2999      3000      2996
 -1      1307    8    0    1
 -2       697       478       719      2920      3001      3002
 -1      1308    8    0    1
 -2       520       700       710      2928      3003      2973
 -1      1309    8    0    1
 -2       478       580       719      2566      3004      3001
 -1      1310    8    0    1
 -2       602       603       720      2644      3005      3006
 -1      1311    8    0    1
 -2       604       593       596      2647      2619      3007
 -1      1312    8    0    1
 -2       698       705       721      2946      3008      3009
 -1      1313    8    0    1
 -2       643       644       722      2765      3010      3011
 -1      1314    8    0    1
 -2       689       605       723      2900      3012      3013
 -1      1315    8    0    1
 -2       594       591       724      2608      3014      3015
 -1      1316    8    0    1
 -2       713       594       724      2983      3015      3016
 -1      1317    8    0    1
 -2       591       708       724      2963      3017      3014
 -1      1318    8    0    1
 -2       681       697       725      2971      3018      3019
 -1      1319    8    0    1
 -2       608       607       726      2659      3020      3021
 -1      1320    8    0    1
 -2       609       608       727      2662      3022      3023
 -1      1321    8    0    1
 -2       608       726       727      3021      3024      3022
 -1      1322    8    0    1
 -2       610       609       728      2665      3025      3026
 -1      1323    8    0    1
 -2       609       727       728      3023      3027      3025
 -1      1324    8    0    1
 -2       611       610       729      2668      3028      3029
 -1      1325    8    0    1
 -2       610       728       729      3026      3030      3028
 -1      1326    8    0    1
 -2       612       611       730      2671      3031      3032
 -1      1327    8    0    1
 -2       611       729       730      3029      3033      3031
 -1      1328    8    0    1
 -2       613       612       731      2674      3034      3035
 -1      1329    8    0    1
 -2       612       730       731      3032      3036      3034
 -1      1330    8    0    1
 -2       614       613       732      2677      3037      3038
 -1      1331    8    0    1
 -2       613       731       732      3035      3039      3037
 -1      1332    8    0    1
 -2       615       614       733      2680      3040      3041
 -1      1333    8    0    1
 -2       614       732       733      3038      3042      3040
 -1      1334    8    0    1
 -2       616       615       734      2683      3043      3044
 -1      1335    8    0    1
 -2       615       733       734      3041      3045      3043
 -1      1336    8    0    1
 -2       493       705       597      2957      2947      2908
 -1      1337    8    0    1
 -2       620       619       735      2693      3046      3047
 -1      1338    8    0    1
 -2       621       620       736      2696      3048      3049
 -1      1339    8    0    1
 -2       620       735       736      3047      3050      3048
 -1      1340    8    0    1
 -2       622       621       737      2699      3051      3052
 -1      1341    8    0    1
 -2       621       736       737      3049      3053      3051
 -1      1342    8    0    1
 -2       623       622       738      2702      3054      3055
 -1      1343    8    0    1
 -2       622       737       738      3052      3056      3054
 -1      1344    8    0    1
 -2       624       623       739      2705      3057      3058
 -1      1345    8    0    1
 -2       623       738       739      3055      3059      3057
 -1      1346    8    0    1
 -2       625       624       740      2708      3060      3061
 -1      1347    8    0    1
 -2       624       739       740      3058      3062      3060
 -1      1348    8    0    1
 -2       626       625       741      2711      3063      3064
 -1      1349    8    0    1
 -2       625       740       741      3061      3065      3063
 -1      1350    8    0    1
 -2       627       626       742      2714      3066      3067
 -1      1351    8    0    1
 -2       626       741       742      3064      3068      3066
 -1      1352    8    0    1
 -2       628       627       743      2717      3069      3070
 -1      1353    8    0    1
 -2       627       742       743      3067      3071      3069
 -1      1354    8    0    1
 -2       629       628       744      2720      3072      3073
 -1      1355    8    0    1
 -2       628       743       744      3070      3074      3072
 -1      1356    8    0    1
 -2       630       629       745      2723      3075      3076
 -1      1357    8    0    1
 -2       629       744       745      3073      3077      3075
 -1      1358    8    0    1
 -2       631       630       746      2726      3078      3079
 -1      1359    8    0    1
 -2       630       745       746      3076      3080      3078
 -1      1360    8    0    1
 -2       632       631       747      2729      3081      3082
 -1      1361    8    0    1
 -2       631       746       747      3079      3083      3081
 -1      1362    8    0    1
 -2       633       632       748      2732      3084      3085
 -1      1363    8    0    1
 -2       632       747       748      3082      3086      3084
 -1      1364    8    0    1
 -2       634       633       749      2735      3087      3088
 -1      1365    8    0    1
 -2       633       748       749      3085      3089      3087
 -1      1366    8    0    1
 -2       635       634       750      2738      3090      3091
 -1      1367    8    0    1
 -2       634       749       750      3088      3092      3090
 -1      1368    8    0    1
 -2       636       635       751      2741      3093      3094
 -1      1369    8    0    1
 -2       635       750       751      3091      3095      3093
 -1      1370    8    0    1
 -2       637       636       752      2744      3096      3097
 -1      1371    8    0    1
 -2       636       751       752      3094      3098      3096
 -1      1372    8    0    1
 -2       638       637       753      2747      3099      3100
 -1      1373    8    0    1
 -2       687       638       753      2976      3100      3101
 -1      1374    8    0    1
 -2       637       752       753      3097      3102      3099
 -1      1375    8    0    1
 -2       644       645       754      2768      3103      3104
 -1      1376    8    0    1
 -2       644       754       722      3104      3105      3010
 -1      1377    8    0    1
 -2       642       643       755      2762      3106      3107
 -1      1378    8    0    1
 -2       643       722       755      3011      3108      3106
 -1      1379    8    0    1
 -2       645       646       756      2771      3109      3110
 -1      1380    8    0    1
 -2       645       756       754      3110      3111      3103
 -1      1381    8    0    1
 -2       646       647       757      2774      3112      3113
 -1      1382    8    0    1
 -2       646       757       756      3113      3114      3109
 -1      1383    8    0    1
 -2       647       648       758      2777      3115      3116
 -1      1384    8    0    1
 -2       647       758       757      3116      3117      3112
 -1      1385    8    0    1
 -2       648       649       759      2780      3118      3119
 -1      1386    8    0    1
 -2       648       759       758      3119      3120      3115
 -1      1387    8    0    1
 -2       649       650       760      2783      3121      3122
 -1      1388    8    0    1
 -2       649       760       759      3122      3123      3118
 -1      1389    8    0    1
 -2       650       651       761      2786      3124      3125
 -1      1390    8    0    1
 -2       650       761       760      3125      3126      3121
 -1      1391    8    0    1
 -2       651       652       762      2789      3127      3128
 -1      1392    8    0    1
 -2       651       762       761      3128      3129      3124
 -1      1393    8    0    1
 -2       652       653       763      2792      3130      3131
 -1      1394    8    0    1
 -2       652       763       762      3131      3132      3127
 -1      1395    8    0    1
 -2       653       654       764      2795      3133      3134
 -1      1396    8    0    1
 -2       653       764       763      3134      3135      3130
 -1      1397    8    0    1
 -2       654       655       765      2798      3136      3137
 -1      1398    8    0    1
 -2       654       765       764      3137      3138      3133
 -1      1399    8    0    1
 -2       655       656       766      2801      3139      3140
 -1      1400    8    0    1
 -2       655       766       765      3140      3141      3136
 -1      1401    8    0    1
 -2       656       657       767      2804      3142      3143
 -1      1402    8    0    1
 -2       656       767       766      3143      3144      3139
 -1      1403    8    0    1
 -2       657       658       768      2807      3145      3146
 -1      1404    8    0    1
 -2       657       768       767      3146      3147      3142
 -1      1405    8    0    1
 -2       658       659       769      2810      3148      3149
 -1      1406    8    0    1
 -2       658       769       768      3149      3150      3145
 -1      1407    8    0    1
 -2       659       660       770      2813      3151      3152
 -1      1408    8    0    1
 -2       659       770       769      3152      3153      3148
 -1      1409    8    0    1
 -2       660       661       771      2816      3154      3155
 -1      1410    8    0    1
 -2       660       771       770      3155      3156      3151
 -1      1411    8    0    1
 -2       661       662       772      2819      3157      3158
 -1      1412    8    0    1
 -2       661       772       771      3158      3159      3154
 -1      1413    8    0    1
 -2       662       663       773      2822      3160      3161
 -1      1414    8    0    1
 -2       662       773       772      3161      3162      3157
 -1      1415    8    0    1
 -2       663       664       774      2825      3163      3164
 -1      1416    8    0    1
 -2       663       774       773      3164      3165      3160
 -1      1417    8    0    1
 -2       664       665       775      2828      3166      3167
 -1      1418    8    0    1
 -2       664       775       774      3167      3168      3163
 -1      1419    8    0    1
 -2       665       666       776      2831      3169      3170
 -1      1420    8    0    1
 -2       665       776       775      3170      3171      3166
 -1      1421    8    0    1
 -2       666       667       777      2834      3172      3173
 -1      1422    8    0    1
 -2       666       777       776      3173      3174      3169
 -1      1423    8    0    1
 -2       667       668       778      2837      3175      3176
 -1      1424    8    0    1
 -2       667       778       777      3176      3177      3172
 -1      1425    8    0    1
 -2       668       669       779      2840      3178      3179
 -1      1426    8    0    1
 -2       668       779       778      3179      3180      3175
 -1      1427    8    0    1
 -2       669       670       780      2843      3181      3182
 -1      1428    8    0    1
 -2       669       780       779      3182      3183      3178
 -1      1429    8    0    1
 -2       670       671       781      2846      3184      3185
 -1      1430    8    0    1
 -2       670       781       780      3185      3186      3181
 -1      1431    8    0    1
 -2       671       672       782      2849      3187      3188
 -1      1432    8    0    1
 -2       671       782       781      3188      3189      3184
 -1      1433    8    0    1
 -2       672       673       783      2852      3190      3191
 -1      1434    8    0    1
 -2       672       783       782      3191      3192      3187
 -1      1435    8    0    1
 -2       673       674       784      2855      3193      3194
 -1      1436    8    0    1
 -2       673       784       783      3194      3195      3190
 -1      1437    8    0    1
 -2       674       675       785      2858      3196      3197
 -1      1438    8    0    1
 -2       674       785       784      3197      3198      3193
 -1      1439    8    0    1
 -2       675       676       786      2861      3199      3200
 -1      1440    8    0    1
 -2       675       786       785      3200      3201      3196
 -1      1441    8    0    1
 -2       676       677       787      2864      3202      3203
 -1      1442    8    0    1
 -2       786       676       787      3199      3203      3204
 -1      1443    8    0    1
 -2       677       680       787      2872      3205      3202
 -1      1444    8    0    1
 -2       684       685       788      2887      3206      3207
 -1      1445    8    0    1
 -2       719       580       717      3004      2997      3208
 -1      1446    8    0    1
 -2       619       617       789      2690      3209      3210
 -1      1447    8    0    1
 -2       685       686       790      2890      3211      3212
 -1      1448    8    0    1
 -2       685       790       788      3212      3213      3206
 -1      1449    8    0    1
 -2       683       684       791      2884      3214      3215
 -1      1450    8    0    1
 -2       684       788       791      3207      3216      3214
 -1      1451    8    0    1
 -2       686       687       792      2893      3217      3218
 -1      1452    8    0    1
 -2       790       686       792      3211      3218      3219
 -1      1453    8    0    1
 -2       687       753       792      3101      3220      3217
 -1      1454    8    0    1
 -2       705       616       721      2953      3221      3008
 -1      1455    8    0    1
 -2       575       518       793      2614      3222      3223
 -1      1456    8    0    1
 -2       607       606       794      2656      3224      3225
 -1      1457    8    0    1
 -2       607       794       726      3225      3226      3020
 -1      1458    8    0    1
 -2       699       691       795      2969      3227      3228
 -1      1459    8    0    1
 -2       700       689       796      2929      3229      3230
 -1      1460    8    0    1
 -2       689       723       796      3013      3231      3229
 -1      1461    8    0    1
 -2       694       683       797      2913      3232      3233
 -1      1462    8    0    1
 -2       683       791       797      3215      3234      3232
 -1      1463    8    0    1
 -2       596       710       604      2974      3235      3007
 -1      1464    8    0    1
 -2       710       700       798      3003      3236      3237
 -1      1465    8    0    1
 -2       679       694       799      2972      3238      3239
 -1      1466    8    0    1
 -2       694       797       799      3233      3240      3238
 -1      1467    8    0    1
 -2       601       600       800      2639      3241      3242
 -1      1468    8    0    1
 -2       692       698       721      2924      3009      3243
 -1      1469    8    0    1
 -2       691       696       801      2967      3244      3245
 -1      1470    8    0    1
 -2       691       801       795      3245      3246      3227
 -1      1471    8    0    1
 -2       697       719       802      3002      3247      3248
 -1      1472    8    0    1
 -2       606       702       803      2936      3249      3250
 -1      1473    8    0    1
 -2       606       803       794      3250      3251      3224
 -1      1474    8    0    1
 -2       604       710       603      3235      3252      2948
 -1      1475    8    0    1
 -2       719       717       804      3208      3253      3254
 -1      1476    8    0    1
 -2       704       601       805      2941      3255      3256
 -1      1477    8    0    1
 -2       601       800       805      3242      3257      3255
 -1      1478    8    0    1
 -2       735       619       789      3046      3210      3258
 -1      1479    8    0    1
 -2       699       795       806      3228      3259      3260
 -1      1480    8    0    1
 -2       703       693       807      2940      3261      3262
 -1      1481    8    0    1
 -2       693       714       807      2988      3263      3261
 -1      1482    8    0    1
 -2       680       678       808      2873      3264      3265
 -1      1483    8    0    1
 -2       680       808       787      3265      3266      3205
 -1      1484    8    0    1
 -2       641       640       809      2757      3267      3268
 -1      1485    8    0    1
 -2       595       707       810      2959      3269      3270
 -1      1486    8    0    1
 -2       595       810       718      3270      3271      2998
 -1      1487    8    0    1
 -2       617       639       690      2956      2903      3272
 -1      1488    8    0    1
 -2       616       734       721      3044      3273      3221
 -1      1489    8    0    1
 -2       707       599       811      2960      3274      3275
 -1      1490    8    0    1
 -2       599       712       811      2982      3276      3274
 -1      1491    8    0    1
 -2       708       618       812      2961      3277      3278
 -1      1492    8    0    1
 -2       709       598       813      2966      3279      3280
 -1      1493    8    0    1
 -2       598       715       813      2990      3281      3279
 -1      1494    8    0    1
 -2       803       702       814      3249      3282      3283
 -1      1495    8    0    1
 -2       702       716       814      2994      3284      3282
 -1      1496    8    0    1
 -2       696       709       815      2965      3285      3286
 -1      1497    8    0    1
 -2       696       815       801      3286      3287      3244
 -1      1498    8    0    1
 -2       719       804       802      3254      3288      3247
 -1      1499    8    0    1
 -2       605       641       816      2756      3289      3290
 -1      1500    8    0    1
 -2       723       605       816      3012      3290      3291
 -1      1501    8    0    1
 -2       641       809       816      3268      3292      3289
 -1      1502    8    0    1
 -2       804       717       817      3253      3293      3294
 -1      1503    8    0    1
 -2       717       718       817      3000      3295      3293
 -1      1504    8    0    1
 -2       603       710       720      3252      3296      3005
 -1      1505    8    0    1
 -2       690       711       789      2978      3297      3298
 -1      1506    8    0    1
 -2       789       617       690      3209      3272      3298
 -1      1507    8    0    1
 -2       640       695       818      2916      3299      3300
 -1      1508    8    0    1
 -2       640       818       809      3300      3301      3267
 -1      1509    8    0    1
 -2       682       679       819      2879      3302      3303
 -1      1510    8    0    1
 -2       679       799       819      3239      3304      3302
 -1      1511    8    0    1
 -2       678       682       808      2878      3305      3264
 -1      1512    8    0    1
 -2       592       703       820      2939      3306      3307
 -1      1513    8    0    1
 -2       592       820       715      3307      3308      2991
 -1      1514    8    0    1
 -2       600       701       821      2932      3309      3310
 -1      1515    8    0    1
 -2       600       821       800      3310      3311      3241
 -1      1516    8    0    1
 -2       712       699       806      2980      3260      3312
 -1      1517    8    0    1
 -2       725       697       802      3018      3248      3313
 -1      1518    8    0    1
 -2       700       796       798      3230      3314      3236
 -1      1519    8    0    1
 -2       602       720       822      3006      3315      3316
 -1      1520    8    0    1
 -2       602       822       701      3316      3317      2933
 -1      1521    8    0    1
 -2       618       706       823      2951      3318      3319
 -1      1522    8    0    1
 -2       618       823       812      3319      3320      3277
 -1      1523    8    0    1
 -2       695       642       824      2917      3321      3322
 -1      1524    8    0    1
 -2       818       695       824      3299      3322      3323
 -1      1525    8    0    1
 -2       642       755       824      3107      3324      3321
 -1      1526    8    0    1
 -2       692       721       825      3243      3325      3326
 -1      1527    8    0    1
 -2       721       734       825      3273      3327      3325
 -1      1528    8    0    1
 -2       681       725       826      3019      3328      3329
 -1      1529    8    0    1
 -2       681       826       711      3329      3330      2979
 -1      1530    8    0    1
 -2       806       795       827      3259      3331      3332
 -1      1531    8    0    1
 -2       754       756       828      3111      3333      3334
 -1      1532    8    0    1
 -2       735       789       829      3258      3335      3336
 -1      1533    8    0    1
 -2       706       704       830      2952      3337      3338
 -1      1534    8    0    1
 -2       706       830       823      3338      3339      3318
 -1      1535    8    0    1
 -2       728       727       831      3027      3340      3341
 -1      1536    8    0    1
 -2       729       728       832      3030      3342      3343
 -1      1537    8    0    1
 -2       728       831       832      3341      3344      3342
 -1      1538    8    0    1
 -2       730       729       833      3033      3345      3346
 -1      1539    8    0    1
 -2       729       832       833      3343      3347      3345
 -1      1540    8    0    1
 -2       731       730       834      3036      3348      3349
 -1      1541    8    0    1
 -2       730       833       834      3346      3350      3348
 -1      1542    8    0    1
 -2       732       731       835      3039      3351      3352
 -1      1543    8    0    1
 -2       731       834       835      3349      3353      3351
 -1      1544    8    0    1
 -2       733       732       836      3042      3354      3355
 -1      1545    8    0    1
 -2       732       835       836      3352      3356      3354
 -1      1546    8    0    1
 -2       734       733       837      3045      3357      3358
 -1      1547    8    0    1
 -2       733       836       837      3355      3359      3357
 -1      1548    8    0    1
 -2       736       735       838      3050      3360      3361
 -1      1549    8    0    1
 -2       518       639       793      2749      3362      3222
 -1      1550    8    0    1
 -2       722       754       839      3105      3363      3364
 -1      1551    8    0    1
 -2       754       828       839      3334      3365      3363
 -1      1552    8    0    1
 -2       737       736       840      3053      3366      3367
 -1      1553    8    0    1
 -2       736       838       840      3361      3368      3366
 -1      1554    8    0    1
 -2       738       737       841      3056      3369      3370
 -1      1555    8    0    1
 -2       737       840       841      3367      3371      3369
 -1      1556    8    0    1
 -2       739       738       842      3059      3372      3373
 -1      1557    8    0    1
 -2       738       841       842      3370      3374      3372
 -1      1558    8    0    1
 -2       740       739       843      3062      3375      3376
 -1      1559    8    0    1
 -2       739       842       843      3373      3377      3375
 -1      1560    8    0    1
 -2       741       740       844      3065      3378      3379
 -1      1561    8    0    1
 -2       740       843       844      3376      3380      3378
 -1      1562    8    0    1
 -2       742       741       845      3068      3381      3382
 -1      1563    8    0    1
 -2       741       844       845      3379      3383      3381
 -1      1564    8    0    1
 -2       743       742       846      3071      3384      3385
 -1      1565    8    0    1
 -2       742       845       846      3382      3386      3384
 -1      1566    8    0    1
 -2       744       743       847      3074      3387      3388
 -1      1567    8    0    1
 -2       743       846       847      3385      3389      3387
 -1      1568    8    0    1
 -2       745       744       848      3077      3390      3391
 -1      1569    8    0    1
 -2       744       847       848      3388      3392      3390
 -1      1570    8    0    1
 -2       746       745       849      3080      3393      3394
 -1      1571    8    0    1
 -2       745       848       849      3391      3395      3393
 -1      1572    8    0    1
 -2       747       746       850      3083      3396      3397
 -1      1573    8    0    1
 -2       746       849       850      3394      3398      3396
 -1      1574    8    0    1
 -2       748       747       851      3086      3399      3400
 -1      1575    8    0    1
 -2       747       850       851      3397      3401      3399
 -1      1576    8    0    1
 -2       749       748       852      3089      3402      3403
 -1      1577    8    0    1
 -2       748       851       852      3400      3404      3402
 -1      1578    8    0    1
 -2       750       749       853      3092      3405      3406
 -1      1579    8    0    1
 -2       749       852       853      3403      3407      3405
 -1      1580    8    0    1
 -2       751       750       854      3095      3408      3409
 -1      1581    8    0    1
 -2       750       853       854      3406      3410      3408
 -1      1582    8    0    1
 -2       752       751       855      3098      3411      3412
 -1      1583    8    0    1
 -2       751       854       855      3409      3413      3411
 -1      1584    8    0    1
 -2       753       752       856      3102      3414      3415
 -1      1585    8    0    1
 -2       792       753       856      3220      3415      3416
 -1      1586    8    0    1
 -2       752       855       856      3412      3417      3414
 -1      1587    8    0    1
 -2       727       726       857      3024      3418      3419
 -1      1588    8    0    1
 -2       727       857       831      3419      3420      3340
 -1      1589    8    0    1
 -2       755       722       858      3108      3421      3422
 -1      1590    8    0    1
 -2       722       839       858      3364      3423      3421
 -1      1591    8    0    1
 -2       757       758       859      3117      3424      3425
 -1      1592    8    0    1
 -2       758       759       860      3120      3426      3427
 -1      1593    8    0    1
 -2       758       860       859      3427      3428      3424
 -1      1594    8    0    1
 -2       759       760       861      3123      3429      3430
 -1      1595    8    0    1
 -2       759       861       860      3430      3431      3426
 -1      1596    8    0    1
 -2       760       761       862      3126      3432      3433
 -1      1597    8    0    1
 -2       760       862       861      3433      3434      3429
 -1      1598    8    0    1
 -2       761       762       863      3129      3435      3436
 -1      1599    8    0    1
 -2       761       863       862      3436      3437      3432
 -1      1600    8    0    1
 -2       762       763       864      3132      3438      3439
 -1      1601    8    0    1
 -2       762       864       863      3439      3440      3435
 -1      1602    8    0    1
 -2       763       764       865      3135      3441      3442
 -1      1603    8    0    1
 -2       763       865       864      3442      3443      3438
 -1      1604    8    0    1
 -2       764       765       866      3138      3444      3445
 -1      1605    8    0    1
 -2       764       866       865      3445      3446      3441
 -1      1606    8    0    1
 -2       765       766       867      3141      3447      3448
 -1      1607    8    0    1
 -2       765       867       866      3448      3449      3444
 -1      1608    8    0    1
 -2       766       767       868      3144      3450      3451
 -1      1609    8    0    1
 -2       766       868       867      3451      3452      3447
 -1      1610    8    0    1
 -2       767       768       869      3147      3453      3454
 -1      1611    8    0    1
 -2       767       869       868      3454      3455      3450
 -1      1612    8    0    1
 -2       768       769       870      3150      3456      3457
 -1      1613    8    0    1
 -2       768       870       869      3457      3458      3453
 -1      1614    8    0    1
 -2       769       770       871      3153      3459      3460
 -1      1615    8    0    1
 -2       769       871       870      3460      3461      3456
 -1      1616    8    0    1
 -2       770       771       872      3156      3462      3463
 -1      1617    8    0    1
 -2       770       872       871      3463      3464      3459
 -1      1618    8    0    1
 -2       771       772       873      3159      3465      3466
 -1      1619    8    0    1
 -2       771       873       872      3466      3467      3462
 -1      1620    8    0    1
 -2       772       773       874      3162      3468      3469
 -1      1621    8    0    1
 -2       772       874       873      3469      3470      3465
 -1      1622    8    0    1
 -2       773       774       875      3165      3471      3472
 -1      1623    8    0    1
 -2       773       875       874      3472      3473      3468
 -1      1624    8    0    1
 -2       774       775       876      3168      3474      3475
 -1      1625    8    0    1
 -2       774       876       875      3475      3476      3471
 -1      1626    8    0    1
 -2       775       776       877      3171      3477      3478
 -1      1627    8    0    1
 -2       775       877       876      3478      3479      3474
 -1      1628    8    0    1
 -2       776       777       878      3174      3480      3481
 -1      1629    8    0    1
 -2       776       878       877      3481      3482      3477
 -1      1630    8    0    1
 -2       777       778       879      3177      3483      3484
 -1      1631    8    0    1
 -2       777       879       878      3484      3485      3480
 -1      1632    8    0    1
 -2       778       779       880      3180      3486      3487
 -1      1633    8    0    1
 -2       778       880       879      3487      3488      3483
 -1      1634    8    0    1
 -2       779       780       881      3183      3489      3490
 -1      1635    8    0    1
 -2       779       881       880      3490      3491      3486
 -1      1636    8    0    1
 -2       780       781       882      3186      3492      3493
 -1      1637    8    0    1
 -2       780       882       881      3493      3494      3489
 -1      1638    8    0    1
 -2       781       782       883      3189      3495      3496
 -1      1639    8    0    1
 -2       781       883       882      3496      3497      3492
 -1      1640    8    0    1
 -2       782       783       884      3192      3498      3499
 -1      1641    8    0    1
 -2       782       884       883      3499      3500      3495
 -1      1642    8    0    1
 -2       783       784       885      3195      3501      3502
 -1      1643    8    0    1
 -2       783       885       884      3502      3503      3498
 -1      1644    8    0    1
 -2       784       785       886      3198      3504      3505
 -1      1645    8    0    1
 -2       784       886       885      3505      3506      3501
 -1      1646    8    0    1
 -2       785       786       887      3201      3507      3508
 -1      1647    8    0    1
 -2       785       887       886      3508      3509      3504
 -1      1648    8    0    1
 -2       789       711       829      3297      3510      3335
 -1      1649    8    0    1
 -2       788       790       888      3213      3511      3512
 -1      1650    8    0    1
 -2       791       788       889      3216      3513      3514
 -1      1651    8    0    1
 -2       788       888       889      3512      3515      3513
 -1      1652    8    0    1
 -2       756       757       890      3114      3516      3517
 -1      1653    8    0    1
 -2       757       859       890      3425      3518      3516
 -1      1654    8    0    1
 -2       796       723       891      3231      3519      3520
 -1      1655    8    0    1
 -2       714       692       825      2986      3326      3521
 -1      1656    8    0    1
 -2       726       794       892      3226      3522      3523
 -1      1657    8    0    1
 -2       726       892       857      3523      3524      3418
 -1      1658    8    0    1
 -2       716       713       893      2995      3525      3526
 -1      1659    8    0    1
 -2       814       716       893      3284      3526      3527
 -1      1660    8    0    1
 -2       713       724       893      3016      3528      3525
 -1      1661    8    0    1
 -2       725       802       894      3313      3529      3530
 -1      1662    8    0    1
 -2       825       734       837      3327      3358      3531
 -1      1663    8    0    1
 -2       797       791       895      3234      3532      3533
 -1      1664    8    0    1
 -2       791       889       895      3514      3534      3532
 -1      1665    8    0    1
 -2       799       797       896      3240      3535      3536
 -1      1666    8    0    1
 -2       797       895       896      3533      3537      3535
 -1      1667    8    0    1
 -2       808       682       819      3305      3303      3538
 -1      1668    8    0    1
 -2       712       806       897      3312      3539      3540
 -1      1669    8    0    1
 -2       712       897       811      3540      3541      3276
 -1      1670    8    0    1
 -2       802       804       898      3288      3542      3543
 -1      1671    8    0    1
 -2       794       803       899      3251      3544      3545
 -1      1672    8    0    1
 -2       794       899       892      3545      3546      3522
 -1      1673    8    0    1
 -2       795       801       900      3246      3547      3548
 -1      1674    8    0    1
 -2       795       900       827      3548      3549      3331
 -1      1675    8    0    1
 -2       714       825       901      3521      3550      3551
 -1      1676    8    0    1
 -2       807       714       901      3263      3551      3552
 -1      1677    8    0    1
 -2       710       798       720      3237      3553      3296
 -1      1678    8    0    1
 -2       735       829       838      3336      3554      3360
 -1      1679    8    0    1
 -2       755       858       902      3422      3555      3556
 -1      1680    8    0    1
 -2       755       902       824      3556      3557      3324
 -1      1681    8    0    1
 -2       703       807       903      3262      3558      3559
 -1      1682    8    0    1
 -2       703       903       820      3559      3560      3306
 -1      1683    8    0    1
 -2       715       820       904      3308      3561      3562
 -1      1684    8    0    1
 -2       715       904       813      3562      3563      3281
 -1      1685    8    0    1
 -2       718       810       817      3271      3564      3295
 -1      1686    8    0    1
 -2       802       898       905      3543      3565      3566
 -1      1687    8    0    1
 -2       802       905       894      3566      3567      3529
 -1      1688    8    0    1
 -2       810       707       906      3269      3568      3569
 -1      1689    8    0    1
 -2       707       811       906      3275      3570      3568
 -1      1690    8    0    1
 -2       709       813       907      3280      3571      3572
 -1      1691    8    0    1
 -2       709       907       815      3572      3573      3285
 -1      1692    8    0    1
 -2       816       809       908      3292      3574      3575
 -1      1693    8    0    1
 -2       829       711       826      3510      3330      3576
 -1      1694    8    0    1
 -2       786       787       808      3204      3266      3577
 -1      1695    8    0    1
 -2       804       817       909      3294      3578      3579
 -1      1696    8    0    1
 -2       804       909       898      3579      3580      3542
 -1      1697    8    0    1
 -2       704       805       830      3256      3581      3337
 -1      1698    8    0    1
 -2       819       799       910      3304      3582      3583
 -1      1699    8    0    1
 -2       799       896       910      3536      3584      3582
 -1      1700    8    0    1
 -2       790       792       911      3219      3585      3586
 -1      1701    8    0    1
 -2       888       790       911      3511      3586      3587
 -1      1702    8    0    1
 -2       792       856       911      3416      3588      3585
 -1      1703    8    0    1
 -2       891       723       912      3519      3589      3590
 -1      1704    8    0    1
 -2       723       816       912      3291      3591      3589
 -1      1705    8    0    1
 -2       821       701       822      3309      3317      3592
 -1      1706    8    0    1
 -2       724       708       893      3017      3593      3528
 -1      1707    8    0    1
 -2       756       890       828      3517      3594      3333
 -1      1708    8    0    1
 -2       800       821       913      3311      3595      3596
 -1      1709    8    0    1
 -2       798       796       914      3314      3597      3598
 -1      1710    8    0    1
 -2       786       808       887      3577      3599      3507
 -1      1711    8    0    1
 -2       908       809       915      3574      3600      3601
 -1      1712    8    0    1
 -2       809       818       915      3301      3602      3600
 -1      1713    8    0    1
 -2       914       796       891      3597      3520      3603
 -1      1714    8    0    1
 -2       887       808       819      3599      3538      3604
 -1      1715    8    0    1
 -2       825       837       916      3531      3605      3606
 -1      1716    8    0    1
 -2       825       916       901      3606      3607      3550
 -1      1717    8    0    1
 -2       708       812       893      3278      3608      3593
 -1      1718    8    0    1
 -2       495       575       793      2613      3223      3609
 -1      1719    8    0    1
 -2       801       815       917      3287      3610      3611
 -1      1720    8    0    1
 -2       801       917       900      3611      3612      3547
 -1      1721    8    0    1
 -2       899       803       918      3544      3613      3614
 -1      1722    8    0    1
 -2       803       814       918      3283      3615      3613
 -1      1723    8    0    1
 -2       800       913       919      3596      3616      3617
 -1      1724    8    0    1
 -2       800       919       805      3617      3618      3257
 -1      1725    8    0    1
 -2       897       806       920      3539      3619      3620
 -1      1726    8    0    1
 -2       806       827       920      3332      3621      3619
 -1      1727    8    0    1
 -2       826       725       894      3328      3530      3622
 -1      1728    8    0    1
 -2       720       798       921      3553      3623      3624
 -1      1729    8    0    1
 -2       822       720       921      3315      3624      3625
 -1      1730    8    0    1
 -2       798       914       921      3598      3626      3623
 -1      1731    8    0    1
 -2       893       812       814      3608      3627      3527
 -1      1732    8    0    1
 -2       814       812       918      3627      3628      3615
 -1      1733    8    0    1
 -2       918       812       922      3628      3629      3630
 -1      1734    8    0    1
 -2       812       823       922      3320      3631      3629
 -1      1735    8    0    1
 -2       823       830       923      3339      3632      3633
 -1      1736    8    0    1
 -2       823       923       922      3633      3634      3631
 -1      1737    8    0    1
 -2       639       495       793      2955      3609      3362
 -1      1738    8    0    1
 -2       811       897       924      3541      3635      3636
 -1      1739    8    0    1
 -2       817       810       925      3564      3637      3638
 -1      1740    8    0    1
 -2       831       857       926      3420      3639      3640
 -1      1741    8    0    1
 -2       833       832       927      3347      3641      3642
 -1      1742    8    0    1
 -2       834       833       928      3350      3643      3644
 -1      1743    8    0    1
 -2       833       927       928      3642      3645      3643
 -1      1744    8    0    1
 -2       835       834       929      3353      3646      3647
 -1      1745    8    0    1
 -2       834       928       929      3644      3648      3646
 -1      1746    8    0    1
 -2       836       835       930      3356      3649      3650
 -1      1747    8    0    1
 -2       835       929       930      3647      3651      3649
 -1      1748    8    0    1
 -2       837       836       931      3359      3652      3653
 -1      1749    8    0    1
 -2       916       837       931      3605      3653      3654
 -1      1750    8    0    1
 -2       836       930       931      3650      3655      3652
 -1      1751    8    0    1
 -2       818       824       932      3323      3656      3657
 -1      1752    8    0    1
 -2       915       818       932      3602      3657      3658
 -1      1753    8    0    1
 -2       824       902       932      3557      3659      3656
 -1      1754    8    0    1
 -2       839       828       933      3365      3660      3661
 -1      1755    8    0    1
 -2       840       838       934      3368      3662      3663
 -1      1756    8    0    1
 -2       841       840       935      3371      3664      3665
 -1      1757    8    0    1
 -2       840       934       935      3663      3666      3664
 -1      1758    8    0    1
 -2       842       841       936      3374      3667      3668
 -1      1759    8    0    1
 -2       841       935       936      3665      3669      3667
 -1      1760    8    0    1
 -2       843       842       937      3377      3670      3671
 -1      1761    8    0    1
 -2       842       936       937      3668      3672      3670
 -1      1762    8    0    1
 -2       844       843       938      3380      3673      3674
 -1      1763    8    0    1
 -2       843       937       938      3671      3675      3673
 -1      1764    8    0    1
 -2       845       844       939      3383      3676      3677
 -1      1765    8    0    1
 -2       844       938       939      3674      3678      3676
 -1      1766    8    0    1
 -2       846       845       940      3386      3679      3680
 -1      1767    8    0    1
 -2       845       939       940      3677      3681      3679
 -1      1768    8    0    1
 -2       847       846       941      3389      3682      3683
 -1      1769    8    0    1
 -2       846       940       941      3680      3684      3682
 -1      1770    8    0    1
 -2       848       847       942      3392      3685      3686
 -1      1771    8    0    1
 -2       847       941       942      3683      3687      3685
 -1      1772    8    0    1
 -2       849       848       943      3395      3688      3689
 -1      1773    8    0    1
 -2       848       942       943      3686      3690      3688
 -1      1774    8    0    1
 -2       850       849       944      3398      3691      3692
 -1      1775    8    0    1
 -2       849       943       944      3689      3693      3691
 -1      1776    8    0    1
 -2       851       850       945      3401      3694      3695
 -1      1777    8    0    1
 -2       850       944       945      3692      3696      3694
 -1      1778    8    0    1
 -2       852       851       946      3404      3697      3698
 -1      1779    8    0    1
 -2       851       945       946      3695      3699      3697
 -1      1780    8    0    1
 -2       853       852       947      3407      3700      3701
 -1      1781    8    0    1
 -2       852       946       947      3698      3702      3700
 -1      1782    8    0    1
 -2       854       853       948      3410      3703      3704
 -1      1783    8    0    1
 -2       853       947       948      3701      3705      3703
 -1      1784    8    0    1
 -2       855       854       949      3413      3706      3707
 -1      1785    8    0    1
 -2       854       948       949      3704      3708      3706
 -1      1786    8    0    1
 -2       861       862       950      3434      3709      3710
 -1      1787    8    0    1
 -2       816       908       912      3575      3711      3591
 -1      1788    8    0    1
 -2       858       839       951      3423      3712      3713
 -1      1789    8    0    1
 -2       839       933       951      3661      3714      3712
 -1      1790    8    0    1
 -2       829       826       952      3576      3715      3716
 -1      1791    8    0    1
 -2       838       829       952      3554      3716      3717
 -1      1792    8    0    1
 -2       826       894       952      3622      3718      3715
 -1      1793    8    0    1
 -2       860       861       953      3431      3719      3720
 -1      1794    8    0    1
 -2       861       950       953      3710      3721      3719
 -1      1795    8    0    1
 -2       859       860       954      3428      3722      3723
 -1      1796    8    0    1
 -2       860       953       954      3720      3724      3722
 -1      1797    8    0    1
 -2       862       863       955      3437      3725      3726
 -1      1798    8    0    1
 -2       862       955       950      3726      3727      3709
 -1      1799    8    0    1
 -2       863       864       956      3440      3728      3729
 -1      1800    8    0    1
 -2       863       956       955      3729      3730      3725
 -1      1801    8    0    1
 -2       864       865       957      3443      3731      3732
 -1      1802    8    0    1
 -2       864       957       956      3732      3733      3728
 -1      1803    8    0    1
 -2       865       866       958      3446      3734      3735
 -1      1804    8    0    1
 -2       865       958       957      3735      3736      3731
 -1      1805    8    0    1
 -2       866       867       959      3449      3737      3738
 -1      1806    8    0    1
 -2       866       959       958      3738      3739      3734
 -1      1807    8    0    1
 -2       867       868       960      3452      3740      3741
 -1      1808    8    0    1
 -2       867       960       959      3741      3742      3737
 -1      1809    8    0    1
 -2       868       869       961      3455      3743      3744
 -1      1810    8    0    1
 -2       868       961       960      3744      3745      3740
 -1      1811    8    0    1
 -2       869       870       962      3458      3746      3747
 -1      1812    8    0    1
 -2       869       962       961      3747      3748      3743
 -1      1813    8    0    1
 -2       870       871       963      3461      3749      3750
 -1      1814    8    0    1
 -2       870       963       962      3750      3751      3746
 -1      1815    8    0    1
 -2       871       872       964      3464      3752      3753
 -1      1816    8    0    1
 -2       871       964       963      3753      3754      3749
 -1      1817    8    0    1
 -2       872       873       965      3467      3755      3756
 -1      1818    8    0    1
 -2       872       965       964      3756      3757      3752
 -1      1819    8    0    1
 -2       873       874       966      3470      3758      3759
 -1      1820    8    0    1
 -2       873       966       965      3759      3760      3755
 -1      1821    8    0    1
 -2       874       875       967      3473      3761      3762
 -1      1822    8    0    1
 -2       874       967       966      3762      3763      3758
 -1      1823    8    0    1
 -2       875       876       968      3476      3764      3765
 -1      1824    8    0    1
 -2       875       968       967      3765      3766      3761
 -1      1825    8    0    1
 -2       876       877       969      3479      3767      3768
 -1      1826    8    0    1
 -2       876       969       968      3768      3769      3764
 -1      1827    8    0    1
 -2       877       878       970      3482      3770      3771
 -1      1828    8    0    1
 -2       877       970       969      3771      3772      3767
 -1      1829    8    0    1
 -2       878       879       971      3485      3773      3774
 -1      1830    8    0    1
 -2       878       971       970      3774      3775      3770
 -1      1831    8    0    1
 -2       879       880       972      3488      3776      3777
 -1      1832    8    0    1
 -2       879       972       971      3777      3778      3773
 -1      1833    8    0    1
 -2       880       881       973      3491      3779      3780
 -1      1834    8    0    1
 -2       880       973       972      3780      3781      3776
 -1      1835    8    0    1
 -2       881       882       974      3494      3782      3783
 -1      1836    8    0    1
 -2       881       974       973      3783      3784      3779
 -1      1837    8    0    1
 -2       882       883       975      3497      3785      3786
 -1      1838    8    0    1
 -2       882       975       974      3786      3787      3782
 -1      1839    8    0    1
 -2       883       884       976      3500      3788      3789
 -1      1840    8    0    1
 -2       883       976       975      3789      3790      3785
 -1      1841    8    0    1
 -2       884       885       977      3503      3791      3792
 -1      1842    8    0    1
 -2       884       977       976      3792      3793      3788
 -1      1843    8    0    1
 -2       885       886       978      3506      3794      3795
 -1      1844    8    0    1
 -2       885       978       977      3795      3796      3791
 -1      1845    8    0    1
 -2       886       887       979      3509      3797      3798
 -1      1846    8    0    1
 -2       886       979       978      3798      3799      3794
 -1      1847    8    0    1
 -2       889       888       980      3515      3800      3801
 -1      1848    8    0    1
 -2       890       859       981      3518      3802      3803
 -1      1849    8    0    1
 -2       859       954       981      3723      3804      3802
 -1      1850    8    0    1
 -2       807       901       982      3552      3805      3806
 -1      1851    8    0    1
 -2       807       982       903      3806      3807      3558
 -1      1852    8    0    1
 -2       832       831       983      3344      3808      3809
 -1      1853    8    0    1
 -2       831       926       983      3640      3810      3808
 -1      1854    8    0    1
 -2       887       819       979      3604      3811      3797
 -1      1855    8    0    1
 -2       828       890       984      3594      3812      3813
 -1      1856    8    0    1
 -2       828       984       933      3813      3814      3660
 -1      1857    8    0    1
 -2       895       889       985      3534      3815      3816
 -1      1858    8    0    1
 -2       889       980       985      3801      3817      3815
 -1      1859    8    0    1
 -2       896       895       986      3537      3818      3819
 -1      1860    8    0    1
 -2       895       985       986      3816      3820      3818
 -1      1861    8    0    1
 -2       830       805       987      3581      3821      3822
 -1      1862    8    0    1
 -2       923       830       987      3632      3822      3823
 -1      1863    8    0    1
 -2       805       919       987      3618      3824      3821
 -1      1864    8    0    1
 -2       892       899       988      3546      3825      3826
 -1      1865    8    0    1
 -2       821       822       989      3592      3827      3828
 -1      1866    8    0    1
 -2       913       821       989      3595      3828      3829
 -1      1867    8    0    1
 -2       822       921       989      3625      3830      3827
 -1      1868    8    0    1
 -2       857       892       990      3524      3831      3832
 -1      1869    8    0    1
 -2       857       990       926      3832      3833      3639
 -1      1870    8    0    1
 -2       899       918       922      3614      3630      3834
 -1      1871    8    0    1
 -2       891       912       991      3590      3835      3836
 -1      1872    8    0    1
 -2       902       858       992      3555      3837      3838
 -1      1873    8    0    1
 -2       858       951       992      3713      3839      3837
 -1      1874    8    0    1
 -2       927       832       983      3641      3809      3840
 -1      1875    8    0    1
 -2       904       820       993      3561      3841      3842
 -1      1876    8    0    1
 -2       820       903       993      3560      3843      3841
 -1      1877    8    0    1
 -2       925       810       906      3637      3569      3844
 -1      1878    8    0    1
 -2       817       925       994      3638      3845      3846
 -1      1879    8    0    1
 -2       817       994       909      3846      3847      3578
 -1      1880    8    0    1
 -2       905       898       995      3565      3848      3849
 -1      1881    8    0    1
 -2       906       811       924      3570      3636      3850
 -1      1882    8    0    1
 -2       907       813       996      3571      3851      3852
 -1      1883    8    0    1
 -2       813       904       996      3563      3853      3851
 -1      1884    8    0    1
 -2       838       952       934      3717      3854      3662
 -1      1885    8    0    1
 -2       815       907       997      3573      3855      3856
 -1      1886    8    0    1
 -2       815       997       917      3856      3857      3610
 -1      1887    8    0    1
 -2       856       855       911      3417      3858      3588
 -1      1888    8    0    1
 -2       912       908       998      3711      3859      3860
 -1      1889    8    0    1
 -2       912       998       991      3860      3861      3835
 -1      1890    8    0    1
 -2       952       894       999      3718      3862      3863
 -1      1891    8    0    1
 -2       952       999       934      3863      3864      3854
 -1      1892    8    0    1
 -2       896       986      1000      3819      3865      3866
 -1      1893    8    0    1
 -2       896      1000       910      3866      3867      3584
 -1      1894    8    0    1
 -2       980       888       949      3800      3868      3869
 -1      1895    8    0    1
 -2       908       915      1001      3601      3870      3871
 -1      1896    8    0    1
 -2       908      1001       998      3871      3872      3859
 -1      1897    8    0    1
 -2       890       981       984      3803      3873      3812
 -1      1898    8    0    1
 -2       888       911       949      3587      3874      3868
 -1      1899    8    0    1
 -2       988       899       922      3825      3834      3875
 -1      1900    8    0    1
 -2       894       905       999      3567      3876      3862
 -1      1901    8    0    1
 -2       990       892       988      3831      3826      3877
 -1      1902    8    0    1
 -2       827       900      1002      3549      3878      3879
 -1      1903    8    0    1
 -2       898       909       995      3580      3880      3848
 -1      1904    8    0    1
 -2       911       855       949      3858      3707      3874
 -1      1905    8    0    1
 -2       919       913      1003      3616      3881      3882
 -1      1906    8    0    1
 -2       924       897      1004      3635      3883      3884
 -1      1907    8    0    1
 -2       897       920      1004      3620      3885      3883
 -1      1908    8    0    1
 -2       921       914      1005      3626      3886      3887
 -1      1909    8    0    1
 -2       921      1005       989      3887      3888      3830
 -1      1910    8    0    1
 -2       913       989      1006      3829      3889      3890
 -1      1911    8    0    1
 -2      1003       913      1006      3881      3890      3891
 -1      1912    8    0    1
 -2       989      1005      1006      3888      3892      3889
 -1      1913    8    0    1
 -2       914       891      1005      3603      3893      3886
 -1      1914    8    0    1
 -2      1005       891       991      3893      3836      3894
 -1      1915    8    0    1
 -2       900       917      1007      3612      3895      3896
 -1      1916    8    0    1
 -2       926       990      1008      3833      3897      3898
 -1      1917    8    0    1
 -2       906       924      1009      3850      3899      3900
 -1      1918    8    0    1
 -2       906      1009       925      3900      3901      3844
 -1      1919    8    0    1
 -2       979       819       910      3811      3583      3902
 -1      1920    8    0    1
 -2       929       928      1010      3648      3903      3904
 -1      1921    8    0    1
 -2       930       929      1011      3651      3905      3906
 -1      1922    8    0    1
 -2       929      1010      1011      3904      3907      3905
 -1      1923    8    0    1
 -2       935       934      1012      3666      3908      3909
 -1      1924    8    0    1
 -2       903       982      1013      3807      3910      3911
 -1      1925    8    0    1
 -2       903      1013       993      3911      3912      3843
 -1      1926    8    0    1
 -2       936       935      1014      3669      3913      3914
 -1      1927    8    0    1
 -2       935      1012      1014      3909      3915      3913
 -1      1928    8    0    1
 -2       937       936      1015      3672      3916      3917
 -1      1929    8    0    1
 -2       936      1014      1015      3914      3918      3916
 -1      1930    8    0    1
 -2       938       937      1016      3675      3919      3920
 -1      1931    8    0    1
 -2       937      1015      1016      3917      3921      3919
 -1      1932    8    0    1
 -2       939       938      1017      3678      3922      3923
 -1      1933    8    0    1
 -2       938      1016      1017      3920      3924      3922
 -1      1934    8    0    1
 -2       940       939      1018      3681      3925      3926
 -1      1935    8    0    1
 -2       939      1017      1018      3923      3927      3925
 -1      1936    8    0    1
 -2       941       940      1019      3684      3928      3929
 -1      1937    8    0    1
 -2       940      1018      1019      3926      3930      3928
 -1      1938    8    0    1
 -2       942       941      1020      3687      3931      3932
 -1      1939    8    0    1
 -2       941      1019      1020      3929      3933      3931
 -1      1940    8    0    1
 -2       943       942      1021      3690      3934      3935
 -1      1941    8    0    1
 -2       942      1020      1021      3932      3936      3934
 -1      1942    8    0    1
 -2       944       943      1022      3693      3937      3938
 -1      1943    8    0    1
 -2       943      1021      1022      3935      3939      3937
 -1      1944    8    0    1
 -2       945       944      1023      3696      3940      3941
 -1      1945    8    0    1
 -2       944      1022      1023      3938      3942      3940
 -1      1946    8    0    1
 -2       946       945      1024      3699      3943      3944
 -1      1947    8    0    1
 -2       945      1023      1024      3941      3945      3943
 -1      1948    8    0    1
 -2       947       946      1025      3702      3946      3947
 -1      1949    8    0    1
 -2       946      1024      1025      3944      3948      3946
 -1      1950    8    0    1
 -2       948       947      1026      3705      3949      3950
 -1      1951    8    0    1
 -2       947      1025      1026      3947      3951      3949
 -1      1952    8    0    1
 -2       949       948      1027      3708      3952      3953
 -1      1953    8    0    1
 -2       980       949      1027      3869      3953      3954
 -1      1954    8    0    1
 -2       948      1026      1027      3950      3955      3952
 -1      1955    8    0    1
 -2       955       956      1002      3730      3956      3957
 -1      1956    8    0    1
 -2       984       981      1028      3873      3958      3959
 -1      1957    8    0    1
 -2       990       988      1029      3877      3960      3961
 -1      1958    8    0    1
 -2       990      1029      1008      3961      3962      3897
 -1      1959    8    0    1
 -2       951       933      1030      3714      3963      3964
 -1      1960    8    0    1
 -2       981       954      1031      3804      3965      3966
 -1      1961    8    0    1
 -2       981      1031      1028      3966      3967      3958
 -1      1962    8    0    1
 -2       954       953      1032      3724      3968      3969
 -1      1963    8    0    1
 -2       954      1032      1031      3969      3970      3965
 -1      1964    8    0    1
 -2       956       957       920      3733      3971      3972
 -1      1965    8    0    1
 -2       959       960      1009      3742      3973      3974
 -1      1966    8    0    1
 -2       960       961       994      3745      3975      3976
 -1      1967    8    0    1
 -2       962       963      1033      3751      3977      3978
 -1      1968    8    0    1
 -2       963       964      1034      3754      3979      3980
 -1      1969    8    0    1
 -2       963      1034      1033      3980      3981      3977
 -1      1970    8    0    1
 -2       964       965      1035      3757      3982      3983
 -1      1971    8    0    1
 -2       964      1035      1034      3983      3984      3979
 -1      1972    8    0    1
 -2       965       966      1036      3760      3985      3986
 -1      1973    8    0    1
 -2       965      1036      1035      3986      3987      3982
 -1      1974    8    0    1
 -2       966       967      1037      3763      3988      3989
 -1      1975    8    0    1
 -2       966      1037      1036      3989      3990      3985
 -1      1976    8    0    1
 -2       967       968      1038      3766      3991      3992
 -1      1977    8    0    1
 -2       967      1038      1037      3992      3993      3988
 -1      1978    8    0    1
 -2       968       969      1039      3769      3994      3995
 -1      1979    8    0    1
 -2       968      1039      1038      3995      3996      3991
 -1      1980    8    0    1
 -2       969       970      1040      3772      3997      3998
 -1      1981    8    0    1
 -2       969      1040      1039      3998      3999      3994
 -1      1982    8    0    1
 -2       970       971      1041      3775      4000      4001
 -1      1983    8    0    1
 -2       970      1041      1040      4001      4002      3997
 -1      1984    8    0    1
 -2       971       972      1042      3778      4003      4004
 -1      1985    8    0    1
 -2       971      1042      1041      4004      4005      4000
 -1      1986    8    0    1
 -2       972       973      1043      3781      4006      4007
 -1      1987    8    0    1
 -2       972      1043      1042      4007      4008      4003
 -1      1988    8    0    1
 -2       973       974      1044      3784      4009      4010
 -1      1989    8    0    1
 -2       973      1044      1043      4010      4011      4006
 -1      1990    8    0    1
 -2       974       975      1045      3787      4012      4013
 -1      1991    8    0    1
 -2       974      1045      1044      4013      4014      4009
 -1      1992    8    0    1
 -2       975       976      1046      3790      4015      4016
 -1      1993    8    0    1
 -2       975      1046      1045      4016      4017      4012
 -1      1994    8    0    1
 -2       976       977      1047      3793      4018      4019
 -1      1995    8    0    1
 -2       976      1047      1046      4019      4020      4015
 -1      1996    8    0    1
 -2       977       978      1048      3796      4021      4022
 -1      1997    8    0    1
 -2       977      1048      1047      4022      4023      4018
 -1      1998    8    0    1
 -2       988       922      1049      3875      4024      4025
 -1      1999    8    0    1
 -2      1029       988      1049      3960      4025      4026
 -1      2000    8    0    1
 -2       922       923      1049      3634      4027      4024
 -1      2001    8    0    1
 -2       933       984      1050      3814      4028      4029
 -1      2002    8    0    1
 -2      1030       933      1050      3963      4029      4030
 -1      2003    8    0    1
 -2       984      1028      1050      3959      4031      4028
 -1      2004    8    0    1
 -2       905       995      1051      3849      4032      4033
 -1      2005    8    0    1
 -2       927       983      1052      3840      4034      4035
 -1      2006    8    0    1
 -2      1002       956       920      3956      3972      4036
 -1      2007    8    0    1
 -2       991       998      1053      3861      4037      4038
 -1      2008    8    0    1
 -2       982       901       916      3805      3607      4039
 -1      2009    8    0    1
 -2       983       926      1054      3810      4040      4041
 -1      2010    8    0    1
 -2       926      1008      1054      3898      4042      4040
 -1      2011    8    0    1
 -2      1002       900      1007      3878      3896      4043
 -1      2012    8    0    1
 -2       919      1003      1055      3882      4044      4045
 -1      2013    8    0    1
 -2       919      1055       987      4045      4046      3824
 -1      2014    8    0    1
 -2       999       905      1051      3876      4033      4047
 -1      2015    8    0    1
 -2       985       980      1056      3817      4048      4049
 -1      2016    8    0    1
 -2       980      1027      1056      3954      4050      4048
 -1      2017    8    0    1
 -2       986       985      1057      3820      4051      4052
 -1      2018    8    0    1
 -2       985      1056      1057      4049      4053      4051
 -1      2019    8    0    1
 -2       979       910      1000      3902      3867      4054
 -1      2020    8    0    1
 -2      1005       991      1006      3894      4055      3892
 -1      2021    8    0    1
 -2       934       999      1012      3864      4056      3908
 -1      2022    8    0    1
 -2       928       927      1058      3645      4057      4058
 -1      2023    8    0    1
 -2      1010       928      1058      3903      4058      4059
 -1      2024    8    0    1
 -2       927      1052      1058      4035      4060      4057
 -1      2025    8    0    1
 -2      1002      1007       955      4043      4061      3957
 -1      2026    8    0    1
 -2       920       957      1004      3971      4062      3885
 -1      2027    8    0    1
 -2       982       916      1059      4039      4063      4064
 -1      2028    8    0    1
 -2       902       992      1060      3838      4065      4066
 -1      2029    8    0    1
 -2       902      1060       932      4066      4067      3659
 -1      2030    8    0    1
 -2      1004       957       958      4062      3736      4068
 -1      2031    8    0    1
 -2       904       993      1061      3842      4069      4070
 -1      2032    8    0    1
 -2       996       904      1061      3853      4070      4071
 -1      2033    8    0    1
 -2       916       931      1062      3654      4072      4073
 -1      2034    8    0    1
 -2       916      1062      1059      4073      4074      4063
 -1      2035    8    0    1
 -2       915       932      1063      3658      4075      4076
 -1      2036    8    0    1
 -2       932      1060      1063      4067      4077      4075
 -1      2037    8    0    1
 -2       931       930      1064      3655      4078      4079
 -1      2038    8    0    1
 -2      1062       931      1064      4072      4079      4080
 -1      2039    8    0    1
 -2       930      1011      1064      3906      4081      4078
 -1      2040    8    0    1
 -2       997       907      1065      3855      4082      4083
 -1      2041    8    0    1
 -2       907       996      1065      3852      4084      4082
 -1      2042    8    0    1
 -2      1001       915      1063      3870      4076      4085
 -1      2043    8    0    1
 -2      1009       924       959      3899      4086      3974
 -1      2044    8    0    1
 -2       979      1000       978      4054      4087      3799
 -1      2045    8    0    1
 -2      1051       995      1066      4032      4088      4089
 -1      2046    8    0    1
 -2      1000       986      1057      3865      4052      4090
 -1      2047    8    0    1
 -2      1032       953      1065      3968      4091      4092
 -1      2048    8    0    1
 -2      1066       995      1067      4088      4093      4094
 -1      2049    8    0    1
 -2      1065       953       950      4091      3721      4095
 -1      2050    8    0    1
 -2       959       924       958      4086      4096      3739
 -1      2051    8    0    1
 -2       978      1000      1048      4087      4097      4021
 -1      2052    8    0    1
 -2       961       962      1068      3748      4098      4099
 -1      2053    8    0    1
 -2      1049       923       987      4027      3823      4100
 -1      2054    8    0    1
 -2      1052       983      1054      4034      4041      4101
 -1      2055    8    0    1
 -2       998      1001      1069      3872      4102      4103
 -1      2056    8    0    1
 -2       998      1069      1053      4103      4104      4037
 -1      2057    8    0    1
 -2       955      1007       950      4061      4105      3727
 -1      2058    8    0    1
 -2       958       924      1004      4096      3884      4068
 -1      2059    8    0    1
 -2      1067       995       909      4093      3880      4106
 -1      2060    8    0    1
 -2      1068       962      1033      4098      3978      4107
 -1      2061    8    0    1
 -2       950      1007       997      4105      4108      4109
 -1      2062    8    0    1
 -2      1006       991      1070      4055      4110      4111
 -1      2063    8    0    1
 -2      1003      1006      1070      3891      4111      4112
 -1      2064    8    0    1
 -2       991      1053      1070      4038      4113      4110
 -1      2065    8    0    1
 -2      1055      1003      1071      4044      4114      4115
 -1      2066    8    0    1
 -2      1003      1070      1071      4112      4116      4114
 -1      2067    8    0    1
 -2      1067       909       994      4106      3847      4117
 -1      2068    8    0    1
 -2       982      1059      1013      4064      4118      3910
 -1      2069    8    0    1
 -2       999      1051      1072      4047      4119      4120
 -1      2070    8    0    1
 -2       999      1072      1012      4120      4121      4056
 -1      2071    8    0    1
 -2       920       827      1002      3621      3879      4036
 -1      2072    8    0    1
 -2       992       951      1073      3839      4122      4123
 -1      2073    8    0    1
 -2       951      1030      1073      3964      4124      4122
 -1      2074    8    0    1
 -2      1007       917       997      3895      3857      4108
 -1      2075    8    0    1
 -2      1061       993      1074      4069      4125      4126
 -1      2076    8    0    1
 -2       993      1013      1074      3912      4127      4125
 -1      2077    8    0    1
 -2       994       925       960      3845      4128      3976
 -1      2078    8    0    1
 -2      1011      1010      1075      3907      4129      4130
 -1      2079    8    0    1
 -2      1065       996      1076      4084      4131      4132
 -1      2080    8    0    1
 -2      1032      1065      1076      4092      4132      4133
 -1      2081    8    0    1
 -2       996      1061      1076      4071      4134      4131
 -1      2082    8    0    1
 -2       960       925      1009      4128      3901      3973
 -1      2083    8    0    1
 -2      1001      1063      1077      4085      4135      4136
 -1      2084    8    0    1
 -2      1001      1077      1069      4136      4137      4102
 -1      2085    8    0    1
 -2      1013      1059      1074      4118      4138      4127
 -1      2086    8    0    1
 -2      1014      1012      1078      3915      4139      4140
 -1      2087    8    0    1
 -2      1012      1072      1078      4121      4141      4139
 -1      2088    8    0    1
 -2      1070      1053      1079      4113      4142      4143
 -1      2089    8    0    1
 -2      1070      1079      1071      4143      4144      4116
 -1      2090    8    0    1
 -2      1016      1015      1080      3921      4145      4146
 -1      2091    8    0    1
 -2      1017      1016      1081      3924      4147      4148
 -1      2092    8    0    1
 -2      1016      1080      1081      4146      4149      4147
 -1      2093    8    0    1
 -2      1018      1017      1082      3927      4150      4151
 -1      2094    8    0    1
 -2      1017      1081      1082      4148      4152      4150
 -1      2095    8    0    1
 -2      1019      1018      1083      3930      4153      4154
 -1      2096    8    0    1
 -2      1018      1082      1083      4151      4155      4153
 -1      2097    8    0    1
 -2      1020      1019      1084      3933      4156      4157
 -1      2098    8    0    1
 -2      1019      1083      1084      4154      4158      4156
 -1      2099    8    0    1
 -2      1021      1020      1085      3936      4159      4160
 -1      2100    8    0    1
 -2      1020      1084      1085      4157      4161      4159
 -1      2101    8    0    1
 -2      1022      1021      1086      3939      4162      4163
 -1      2102    8    0    1
 -2      1021      1085      1086      4160      4164      4162
 -1      2103    8    0    1
 -2      1023      1022      1087      3942      4165      4166
 -1      2104    8    0    1
 -2      1022      1086      1087      4163      4167      4165
 -1      2105    8    0    1
 -2      1024      1023      1088      3945      4168      4169
 -1      2106    8    0    1
 -2      1023      1087      1088      4166      4170      4168
 -1      2107    8    0    1
 -2      1025      1024      1089      3948      4171      4172
 -1      2108    8    0    1
 -2      1024      1088      1089      4169      4173      4171
 -1      2109    8    0    1
 -2      1026      1025      1090      3951      4174      4175
 -1      2110    8    0    1
 -2      1025      1089      1090      4172      4176      4174
 -1      2111    8    0    1
 -2      1027      1026      1091      3955      4177      4178
 -1      2112    8    0    1
 -2      1056      1027      1091      4050      4178      4179
 -1      2113    8    0    1
 -2      1026      1090      1091      4175      4180      4177
 -1      2114    8    0    1
 -2      1031      1032      1076      3970      4133      4181
 -1      2115    8    0    1
 -2      1065       950       997      4095      4109      4083
 -1      2116    8    0    1
 -2      1008      1029      1092      3962      4182      4183
 -1      2117    8    0    1
 -2      1000      1057      1048      4090      4184      4097
 -1      2118    8    0    1
 -2      1028      1031      1093      3967      4185      4186
 -1      2119    8    0    1
 -2      1049       987      1055      4100      4046      4187
 -1      2120    8    0    1
 -2      1036      1037      1094      3990      4188      4189
 -1      2121    8    0    1
 -2      1037      1038      1095      3993      4190      4191
 -1      2122    8    0    1
 -2      1037      1095      1094      4191      4192      4188
 -1      2123    8    0    1
 -2      1038      1039      1096      3996      4193      4194
 -1      2124    8    0    1
 -2      1038      1096      1095      4194      4195      4190
 -1      2125    8    0    1
 -2      1039      1040      1097      3999      4196      4197
 -1      2126    8    0    1
 -2      1039      1097      1096      4197      4198      4193
 -1      2127    8    0    1
 -2      1040      1041      1098      4002      4199      4200
 -1      2128    8    0    1
 -2      1040      1098      1097      4200      4201      4196
 -1      2129    8    0    1
 -2      1041      1042      1099      4005      4202      4203
 -1      2130    8    0    1
 -2      1041      1099      1098      4203      4204      4199
 -1      2131    8    0    1
 -2      1042      1043      1100      4008      4205      4206
 -1      2132    8    0    1
 -2      1042      1100      1099      4206      4207      4202
 -1      2133    8    0    1
 -2      1043      1044      1101      4011      4208      4209
 -1      2134    8    0    1
 -2      1043      1101      1100      4209      4210      4205
 -1      2135    8    0    1
 -2      1044      1045      1102      4014      4211      4212
 -1      2136    8    0    1
 -2      1044      1102      1101      4212      4213      4208
 -1      2137    8    0    1
 -2      1045      1046      1103      4017      4214      4215
 -1      2138    8    0    1
 -2      1045      1103      1102      4215      4216      4211
 -1      2139    8    0    1
 -2      1046      1047      1104      4020      4217      4218
 -1      2140    8    0    1
 -2      1046      1104      1103      4218      4219      4214
 -1      2141    8    0    1
 -2      1047      1048      1105      4023      4220      4221
 -1      2142    8    0    1
 -2      1104      1047      1105      4217      4221      4222
 -1      2143    8    0    1
 -2      1048      1057      1105      4184      4223      4220
 -1      2144    8    0    1
 -2       961      1068       994      4099      4224      3975
 -1      2145    8    0    1
 -2      1051      1066      1106      4089      4225      4226
 -1      2146    8    0    1
 -2      1051      1106      1072      4226      4227      4119
 -1      2147    8    0    1
 -2      1067       994      1068      4117      4224      4228
 -1      2148    8    0    1
 -2      1034      1035      1106      3984      4229      4230
 -1      2149    8    0    1
 -2      1054      1008      1107      4042      4231      4232
 -1      2150    8    0    1
 -2      1008      1092      1107      4183      4233      4231
 -1      2151    8    0    1
 -2      1068      1033      1067      4107      4234      4228
 -1      2152    8    0    1
 -2      1057      1056      1108      4053      4235      4236
 -1      2153    8    0    1
 -2      1105      1057      1108      4223      4236      4237
 -1      2154    8    0    1
 -2      1056      1091      1108      4179      4238      4235
 -1      2155    8    0    1
 -2      1052      1054      1109      4101      4239      4240
 -1      2156    8    0    1
 -2      1054      1107      1109      4232      4241      4239
 -1      2157    8    0    1
 -2      1067      1033      1066      4234      4242      4094
 -1      2158    8    0    1
 -2      1049      1055      1110      4187      4243      4244
 -1      2159    8    0    1
 -2      1029      1049      1110      4026      4244      4245
 -1      2160    8    0    1
 -2      1055      1071      1110      4115      4246      4243
 -1      2161    8    0    1
 -2      1066      1033      1034      4242      3981      4247
 -1      2162    8    0    1
 -2      1066      1034      1106      4247      4230      4225
 -1      2163    8    0    1
 -2      1060       992      1111      4065      4248      4249
 -1      2164    8    0    1
 -2       992      1073      1111      4123      4250      4248
 -1      2165    8    0    1
 -2      1077      1063      1112      4135      4251      4252
 -1      2166    8    0    1
 -2      1063      1060      1112      4077      4253      4251
 -1      2167    8    0    1
 -2      1075      1010      1113      4129      4254      4255
 -1      2168    8    0    1
 -2      1010      1058      1113      4059      4256      4254
 -1      2169    8    0    1
 -2      1050      1028      1114      4031      4257      4258
 -1      2170    8    0    1
 -2      1028      1093      1114      4186      4259      4257
 -1      2171    8    0    1
 -2      1064      1011      1115      4081      4260      4261
 -1      2172    8    0    1
 -2      1011      1075      1115      4130      4262      4260
 -1      2173    8    0    1
 -2      1079      1053      1069      4142      4104      4263
 -1      2174    8    0    1
 -2      1015      1014      1116      3918      4264      4265
 -1      2175    8    0    1
 -2      1052      1109      1117      4240      4266      4267
 -1      2176    8    0    1
 -2      1052      1117      1058      4267      4268      4060
 -1      2177    8    0    1
 -2      1093      1031      1076      4185      4181      4269
 -1      2178    8    0    1
 -2      1029      1110      1092      4245      4270      4182
 -1      2179    8    0    1
 -2      1059      1062      1118      4074      4271      4272
 -1      2180    8    0    1
 -2      1059      1118      1074      4272      4273      4138
 -1      2181    8    0    1
 -2      1035      1036      1119      3987      4274      4275
 -1      2182    8    0    1
 -2      1106      1035      1119      4229      4275      4276
 -1      2183    8    0    1
 -2      1036      1094      1119      4189      4277      4274
 -1      2184    8    0    1
 -2      1015      1116      1080      4265      4278      4145
 -1      2185    8    0    1
 -2      1030      1050      1120      4030      4279      4280
 -1      2186    8    0    1
 -2      1050      1114      1120      4258      4281      4279
 -1      2187    8    0    1
 -2      1073      1030      1121      4124      4282      4283
 -1      2188    8    0    1
 -2      1030      1120      1121      4280      4284      4282
 -1      2189    8    0    1
 -2      1076      1061      1093      4134      4285      4269
 -1      2190    8    0    1
 -2      1110      1071      1122      4246      4286      4287
 -1      2191    8    0    1
 -2      1092      1110      1122      4270      4287      4288
 -1      2192    8    0    1
 -2      1071      1079      1122      4144      4289      4286
 -1      2193    8    0    1
 -2      1081      1080      1123      4149      4290      4291
 -1      2194    8    0    1
 -2      1014      1078      1116      4140      4292      4264
 -1      2195    8    0    1
 -2      1078      1072      1119      4141      4293      4294
 -1      2196    8    0    1
 -2      1078      1119      1094      4294      4277      4295
 -1      2197    8    0    1
 -2      1116      1078      1124      4292      4296      4297
 -1      2198    8    0    1
 -2      1080      1116      1124      4278      4297      4298
 -1      2199    8    0    1
 -2      1078      1094      1124      4295      4299      4296
 -1      2200    8    0    1
 -2      1093      1061      1074      4285      4126      4300
 -1      2201    8    0    1
 -2      1082      1081      1125      4152      4301      4302
 -1      2202    8    0    1
 -2      1081      1123      1125      4291      4303      4301
 -1      2203    8    0    1
 -2      1083      1082      1126      4155      4304      4305
 -1      2204    8    0    1
 -2      1082      1125      1126      4302      4306      4304
 -1      2205    8    0    1
 -2      1084      1083      1127      4158      4307      4308
 -1      2206    8    0    1
 -2      1083      1126      1127      4305      4309      4307
 -1      2207    8    0    1
 -2      1085      1084      1128      4161      4310      4311
 -1      2208    8    0    1
 -2      1084      1127      1128      4308      4312      4310
 -1      2209    8    0    1
 -2      1086      1085      1129      4164      4313      4314
 -1      2210    8    0    1
 -2      1085      1128      1129      4311      4315      4313
 -1      2211    8    0    1
 -2      1087      1086      1130      4167      4316      4317
 -1      2212    8    0    1
 -2      1086      1129      1130      4314      4318      4316
 -1      2213    8    0    1
 -2      1088      1087      1131      4170      4319      4320
 -1      2214    8    0    1
 -2      1087      1130      1131      4317      4321      4319
 -1      2215    8    0    1
 -2      1089      1088      1132      4173      4322      4323
 -1      2216    8    0    1
 -2      1088      1131      1132      4320      4324      4322
 -1      2217    8    0    1
 -2      1091      1090      1108      4180      4325      4238
 -1      2218    8    0    1
 -2      1096      1097      1125      4198      4326      4327
 -1      2219    8    0    1
 -2      1118      1062      1133      4271      4328      4329
 -1      2220    8    0    1
 -2      1062      1064      1133      4080      4330      4328
 -1      2221    8    0    1
 -2      1074      1118      1093      4273      4331      4300
 -1      2222    8    0    1
 -2      1079      1069      1134      4263      4332      4333
 -1      2223    8    0    1
 -2      1095      1096      1123      4195      4334      4335
 -1      2224    8    0    1
 -2      1094      1095      1124      4192      4336      4299
 -1      2225    8    0    1
 -2      1097      1098      1126      4201      4337      4338
 -1      2226    8    0    1
 -2      1098      1099      1127      4204      4339      4340
 -1      2227    8    0    1
 -2      1099      1100      1128      4207      4341      4342
 -1      2228    8    0    1
 -2      1100      1101      1129      4210      4343      4344
 -1      2229    8    0    1
 -2      1101      1102      1130      4213      4345      4346
 -1      2230    8    0    1
 -2      1102      1103      1131      4216      4347      4348
 -1      2231    8    0    1
 -2      1103      1104      1132      4219      4349      4350
 -1      2232    8    0    1
 -2      1104      1105      1135      4222      4351      4352
 -1      2233    8    0    1
 -2      1132      1104      1135      4349      4352      4353
 -1      2234    8    0    1
 -2      1105      1108      1135      4237      4354      4351
 -1      2235    8    0    1
 -2      1109      1107      1134      4241      4355      4356
 -1      2236    8    0    1
 -2      1107      1092      1134      4233      4357      4355
 -1      2237    8    0    1
 -2      1093      1118      1114      4331      4358      4259
 -1      2238    8    0    1
 -2      1069      1077      1134      4137      4359      4332
 -1      2239    8    0    1
 -2      1112      1060      1111      4253      4249      4360
 -1      2240    8    0    1
 -2      1113      1058      1117      4256      4268      4361
 -1      2241    8    0    1
 -2      1134      1077      1136      4359      4362      4363
 -1      2242    8    0    1
 -2      1109      1134      1136      4356      4363      4364
 -1      2243    8    0    1
 -2      1077      1112      1136      4252      4365      4362
 -1      2244    8    0    1
 -2      1115      1075      1121      4262      4366      4367
 -1      2245    8    0    1
 -2      1117      1109      1136      4266      4364      4368
 -1      2246    8    0    1
 -2      1129      1101      1130      4343      4346      4318
 -1      2247    8    0    1
 -2      1073      1121      1137      4283      4369      4370
 -1      2248    8    0    1
 -2      1073      1137      1111      4370      4371      4250
 -1      2249    8    0    1
 -2      1128      1100      1129      4341      4344      4315
 -1      2250    8    0    1
 -2      1119      1072      1106      4293      4227      4276
 -1      2251    8    0    1
 -2      1097      1126      1125      4338      4306      4326
 -1      2252    8    0    1
 -2      1133      1064      1115      4330      4261      4372
 -1      2253    8    0    1
 -2      1090      1089      1135      4176      4373      4374
 -1      2254    8    0    1
 -2      1118      1133      1114      4329      4375      4358
 -1      2255    8    0    1
 -2      1123      1096      1125      4334      4327      4303
 -1      2256    8    0    1
 -2      1108      1090      1135      4325      4374      4354
 -1      2257    8    0    1
 -2      1095      1123      1124      4335      4376      4336
 -1      2258    8    0    1
 -2      1127      1099      1128      4339      4342      4312
 -1      2259    8    0    1
 -2      1126      1098      1127      4337      4340      4309
 -1      2260    8    0    1
 -2      1102      1131      1130      4348      4321      4345
 -1      2261    8    0    1
 -2      1103      1132      1131      4350      4324      4347
 -1      2262    8    0    1
 -2      1080      1124      1123      4298      4376      4290
 -1      2263    8    0    1
 -2      1121      1075      1137      4366      4377      4369
 -1      2264    8    0    1
 -2      1120      1114      1133      4281      4375      4378
 -1      2265    8    0    1
 -2      1137      1075      1113      4377      4255      4379
 -1      2266    8    0    1
 -2      1089      1132      1135      4323      4353      4373
 -1      2267    8    0    1
 -2      1121      1120      1115      4284      4380      4367
 -1      2268    8    0    1
 -2      1115      1120      1133      4380      4378      4372
 -1      2269    8    0    1
 -2      1122      1079      1134      4289      4333      4381
 -1      2270    8    0    1
 -2      1136      1112      1138      4365      4382      4383
 -1      2271    8    0    1
 -2      1117      1136      1138      4368      4383      4384
 -1      2272    8    0    1
 -2      1112      1111      1138      4360      4385      4382
 -1      2273    8    0    1
 -2      1111      1137      1138      4371      4386      4385
 -1      2274    8    0    1
 -2      1137      1113      1138      4379      4387      4386
 -1      2275    8    0    1
 -2      1113      1117      1138      4361      4384      4387
 -1      2276    8    0    1
 -2      1134      1092      1122      4357      4288      4381
 -3
    1PSTEP                         1           1           1          
  100CL  101 1.000000000        4387                     0    1           1
 -4  DISP        4    1
 -5  D1          1    2    1    0
 -5  D2          1    2    2    0
 -5  D3          1    2    3    0
 -5  ALL         1    2    0    0    1ALL
 -1         1 7.25824E-03-2.71226E-03-2.38189E-14
 -1         2 9.90315E-03-1.26669E-03-2.92663E-14
 -1         3 1.34660E-02-5.88019E-03-1.11764E-13
 -1         4 1.73530E-02-7.30885E-03-1.26850E-13
 -1         5 0.00000E+00 0.00000E+00 0.00000E+00
 -1         6 0.00000E+00 0.00000E+00 0.00000E+00
 -1         7 0.00000E+00 0.00000E+00 0.00000E+00
 -1         8 0.00000E+00 0.00000E+00 0.00000E+00
 -1         9 0.00000E+00 0.00000E+00 0.00000E+00
 -1        10 0.00000E+00 0.00000E+00 0.00000E+00
 -1        11 0.00000E+00 0.00000E+00 0.00000E+00
 -1        12 0.00000E+00 0.00000E+00 0.00000E+00
 -1        13 0.00000E+00 0.00000E+00 0.00000E+00
 -1        14 0.00000E+00 0.00000E+00 0.00000E+00
 -1        15 0.00000E+00 0.00000E+00 0.00000E+00
 -1        16 0.00000E+00 0.00000E+00 0.00000E+00
 -1        17 0.00000E+00 0.00000E+00 0.00000E+00
 -1        18 0.00000E+00 0.00000E+00 0.00000E+00
 -1        19 0.00000E+00 0.00000E+00 0.00000E+00
 -1        20 0.00000E+00 0.00000E+00 0.00000E+00
 -1        21 0.00000E+00 0.00000E+00 0.00000E+00
 -1        22 0.00000E+00 0.00000E+00 0.00000E+00
 -1        23 3.94957E-04-2.51753E-04 6.45100E-18
 -1        24 6.89242E-04-3.94445E-04-1.12232E-16
 -1        25 9.59862E-04-4.93008E-04-3.53887E-16
 -1        26 1.22463E-03-5.62218E-04-7.14682E-16
 -1        27 1.48843E-03-6.11404E-04-1.19128E-15
 -1        28 1.75351E-03-6.45987E-04-1.78135E-15
 -1        29 2.02104E-03-6.69620E-04-2.48023E-15
 -1        30 2.27804E-03-6.84300E-04-3.24254E-15
 -1        31 2.55207E-03-6.93358E-04-4.15049E-15
 -1        32 2.83034E-03-6.97194E-04-5.16668E-15
 -1        33 3.11396E-03-6.96829E-04-6.28591E-15
 -1        34 3.40495E-03-6.93202E-04-7.50648E-15
 -1        35 3.70697E-03-6.87641E-04-8.82066E-15
 -1        36 4.02640E-03-6.82873E-04-1.02261E-14
 -1        37 4.37400E-03-6.85123E-04-1.17216E-14
 -1        38 4.74582E-03-7.06781E-04-1.32289E-14
 -1        39 5.20372E-03-7.78937E-04-1.49128E-14
 -1        40 5.75336E-03-9.58741E-04-1.66921E-14
 -1        41 6.35831E-03-1.30955E-03-1.84756E-14
 -1        42 6.97234E-03-1.89226E-03-2.03690E-14
 -1        43 7.38475E-03-2.48215E-03-2.20675E-14
 -1        44 7.62549E-03-2.90211E-03-2.37617E-14
 -1        45 7.78212E-03-2.98315E-03-2.54353E-14
 -1        46 8.00138E-03-2.75911E-03-2.71984E-14
 -1        47 8.37613E-03-2.37750E-03-2.91699E-14
 -1        48 8.91833E-03-2.02246E-03-3.14742E-14
 -1        49 9.47323E-03-1.85331E-03-3.38283E-14
 -1        50 1.00535E-02-1.85721E-03-3.66700E-14
 -1        51 1.05161E-02-1.98415E-03-3.94419E-14
 -1        52 1.09290E-02-2.18176E-03-4.24551E-14
 -1        53 1.12910E-02-2.40800E-03-4.55726E-14
 -1        54 1.16215E-02-2.64492E-03-4.87788E-14
 -1        55 1.19332E-02-2.88476E-03-5.20721E-14
 -1        56 1.22339E-02-3.12450E-03-5.54780E-14
 -1        57 1.25282E-02-3.36317E-03-5.89763E-14
 -1        58 1.28188E-02-3.60062E-03-6.25536E-14
 -1        59 1.30928E-02-3.82521E-03-6.60002E-14
 -1        60 1.33801E-02-4.06079E-03-6.96862E-14
 -1        61 1.36667E-02-4.29572E-03-7.34397E-14
 -1        62 1.39529E-02-4.53018E-03-7.72635E-14
 -1        63 1.42388E-02-4.76429E-03-8.11336E-14
 -1        64 1.45246E-02-4.99816E-03-8.50864E-14
 -1        65 1.48104E-02-5.23186E-03-8.91103E-14
 -1        66 1.50961E-02-5.46542E-03-9.31881E-14
 -1        67 1.53675E-02-5.68723E-03-9.71177E-14
 -1        68 1.56531E-02-5.92064E-03-1.01309E-13
 -1        69 1.59388E-02-6.15400E-03-1.05557E-13
 -1        70 1.62245E-02-6.38733E-03-1.09836E-13
 -1        71 1.65102E-02-6.62064E-03-1.14144E-13
 -1        72 1.67959E-02-6.85393E-03-1.18485E-13
 -1        73 1.70816E-02-7.08722E-03-1.22787E-13
 -1        74 4.13748E-04 2.61166E-04 9.43730E-17
 -1        75 7.03225E-04 4.03122E-04 1.31009E-16
 -1        76 9.74238E-04 4.99307E-04 1.01651E-16
 -1        77 1.23938E-03 5.67805E-04-2.61225E-18
 -1        78 1.50353E-03 6.17076E-04-1.88688E-16
 -1        79 1.76887E-03 6.52500E-04-4.62239E-16
 -1        80 2.03634E-03 6.77878E-04-8.25800E-16
 -1        81 2.30624E-03 6.96044E-04-1.28274E-15
 -1        82 2.57846E-03 7.09185E-04-1.83297E-15
 -1        83 2.85254E-03 7.18999E-04-2.48643E-15
 -1        84 3.12776E-03 7.26770E-04-3.24207E-15
 -1        85 3.40305E-03 7.33361E-04-4.09653E-15
 -1        86 3.67704E-03 7.39146E-04-5.05072E-15
 -1        87 3.94802E-03 7.43875E-04-6.10751E-15
 -1        88 4.21402E-03 7.46491E-04-7.26675E-15
 -1        89 4.47296E-03 7.44942E-04-8.53131E-15
 -1        90 4.72293E-03 7.36068E-04-9.90054E-15
 -1        91 4.96265E-03 7.15655E-04-1.13755E-14
 -1        92 5.19187E-03 6.78772E-04-1.29574E-14
 -1        93 5.41175E-03 6.20407E-04-1.46582E-14
 -1        94 5.62498E-03 5.36324E-04-1.64824E-14
 -1        95 5.83541E-03 4.23925E-04-1.84281E-14
 -1        96 6.04747E-03 2.82830E-04-2.04969E-14
 -1        97 6.26531E-03 1.14969E-04-2.26793E-14
 -1        98 6.49208E-03-7.58599E-05-2.49739E-14
 -1        99 6.72950E-03-2.84777E-04-2.73834E-14
 -1       100 6.97787E-03-5.06705E-04-2.99146E-14
 -1       101 7.23631E-03-7.37072E-04-3.25496E-14
 -1       102 7.50325E-03-9.72232E-04-3.52957E-14
 -1       103 7.77684E-03-1.20958E-03-3.81558E-14
 -1       104 8.05529E-03-1.44745E-03-4.11207E-14
 -1       105 8.33707E-03-1.68493E-03-4.41979E-14
 -1       106 8.62097E-03-1.92161E-03-4.73740E-14
 -1       107 8.90614E-03-2.15741E-03-5.06386E-14
 -1       108 9.19197E-03-2.39240E-03-5.39871E-14
 -1       109 9.47811E-03-2.62675E-03-5.74366E-14
 -1       110 9.76433E-03-2.86061E-03-6.09716E-14
 -1       111 1.00505E-02-3.09414E-03-6.45771E-14
 -1       112 1.03366E-02-3.32745E-03-6.82538E-14
 -1       113 1.06226E-02-3.56063E-03-7.20211E-14
 -1       114 1.09086E-02-3.79375E-03-7.58629E-14
 -1       115 1.11944E-02-4.02683E-03-7.97641E-14
 -1       116 1.14802E-02-4.25992E-03-8.37206E-14
 -1       117 1.17660E-02-4.49301E-03-8.77315E-14
 -1       118 1.20517E-02-4.72612E-03-9.17684E-14
 -1       119 1.23374E-02-4.95924E-03-9.58121E-14
 -1       120 1.26232E-02-5.19238E-03-9.98534E-14
 -1       121 1.29089E-02-5.42553E-03-1.03895E-13
 -1       122 1.31946E-02-5.65869E-03-1.07935E-13
 -1       123 1.36953E-02-5.96448E-03-1.12736E-13
 -1       124 1.39246E-02-6.04877E-03-1.13740E-13
 -1       125 1.41538E-02-6.13306E-03-1.14749E-13
 -1       126 1.43831E-02-6.21734E-03-1.15766E-13
 -1       127 1.46124E-02-6.30163E-03-1.16762E-13
 -1       128 1.48378E-02-6.38448E-03-1.17756E-13
 -1       129 1.50671E-02-6.46877E-03-1.18760E-13
 -1       130 1.52965E-02-6.55305E-03-1.19723E-13
 -1       131 1.55258E-02-6.63734E-03-1.20659E-13
 -1       132 1.57551E-02-6.72163E-03-1.21545E-13
 -1       133 1.59845E-02-6.80593E-03-1.22377E-13
 -1       134 1.62099E-02-6.88880E-03-1.23173E-13
 -1       135 1.64393E-02-6.97310E-03-1.23951E-13
 -1       136 1.66687E-02-7.05741E-03-1.24706E-13
 -1       137 1.68981E-02-7.14170E-03-1.25433E-13
 -1       138 1.71275E-02-7.22599E-03-1.26137E-13
 -1       139 9.72225E-03-1.06242E-03-2.89245E-14
 -1       140 9.44278E-03-8.66611E-04-2.83276E-14
 -1       141 9.09798E-03-6.88706E-04-2.75653E-14
 -1       142 8.65106E-03-5.10586E-04-2.65644E-14
 -1       143 8.16230E-03-3.60693E-04-2.54745E-14
 -1       144 7.56616E-03-2.22186E-04-2.41600E-14
 -1       145 7.04068E-03-1.42806E-04-2.30471E-14
 -1       146 6.47562E-03-9.87962E-05-2.18779E-14
 -1       147 5.96702E-03-1.02500E-04-2.08762E-14
 -1       148 5.54283E-03-1.46116E-04-2.00791E-14
 -1       149 5.14571E-03-2.38978E-04-1.93812E-14
 -1       150 4.86884E-03-3.60472E-04-1.89428E-14
 -1       151 4.69689E-03-5.03783E-04-1.87188E-14
 -1       152 4.61340E-03-6.86357E-04-1.86818E-14
 -1       153 4.63819E-03-8.94347E-04-1.88481E-14
 -1       154 4.77092E-03-1.13558E-03-1.92160E-14
 -1       155 5.02043E-03-1.42095E-03-1.97909E-14
 -1       156 5.37809E-03-1.74090E-03-2.05242E-14
 -1       157 5.91415E-03-2.13194E-03-2.15279E-14
 -1       158 6.49646E-03-2.45809E-03-2.25382E-14
 -1       159 7.92229E-03-2.75001E-03-2.49338E-14
 -1       160 8.56219E-03-2.62045E-03-2.60657E-14
 -1       161 9.06568E-03-2.40560E-03-2.70339E-14
 -1       162 9.49676E-03-2.13591E-03-2.79699E-14
 -1       163 9.76307E-03-1.90236E-03-2.86298E-14
 -1       164 9.92881E-03-1.66724E-03-2.91240E-14
 -1       165 9.96952E-03-1.46576E-03-2.93205E-14
 -1       166 2.40391E-04-1.25252E-04-3.65376E-17
 -1       167 2.25363E-04-9.43211E-05-4.81216E-17
 -1       168 2.19621E-04-7.24653E-05-5.25431E-17
 -1       169 2.16773E-04-5.48037E-05-5.35765E-17
 -1       170 2.15232E-04-3.97204E-05-5.25703E-17
 -1       171 2.14353E-04-2.57530E-05-5.02358E-17
 -1       172 2.13901E-04-1.25824E-05-4.73966E-17
 -1       173 2.13762E-04 2.31200E-07-4.41846E-17
 -1       174 2.13902E-04 1.30666E-05-4.04170E-17
 -1       175 2.14357E-04 2.63014E-05-3.56398E-17
 -1       176 2.15225E-04 4.01279E-05-2.94327E-17
 -1       177 2.16806E-04 5.56148E-05-2.13215E-17
 -1       178 2.19703E-04 7.35070E-05-1.04117E-17
 -1       179 2.25497E-04 9.57258E-05 4.88907E-18
 -1       180 2.39402E-04 1.27329E-04 2.74168E-17
 -1       181 2.97756E-04 1.85236E-04 5.40373E-17
 -1       182 4.53497E-04-2.56072E-04-8.93112E-17
 -1       183 7.52405E-04-3.76152E-04-2.85406E-16
 -1       184 1.03691E-03-4.59888E-04-5.94187E-16
 -1       185 1.31482E-03-5.18838E-04-1.01459E-15
 -1       186 1.59002E-03-5.60166E-04-1.54521E-15
 -1       187 1.86474E-03-5.88530E-04-2.18393E-15
 -1       188 2.12653E-03-6.06400E-04-2.88797E-15
 -1       189 2.40382E-03-6.17813E-04-3.73236E-15
 -1       190 2.68363E-03-6.23207E-04-4.68287E-15
 -1       191 2.96680E-03-6.23671E-04-5.73672E-15
 -1       192 3.25450E-03-6.19977E-04-6.89055E-15
 -1       193 3.54852E-03-6.12888E-04-8.14200E-15
 -1       194 3.85165E-03-6.03781E-04-9.48641E-15
 -1       195 4.16808E-03-5.96024E-04-1.09217E-14
 -1       196 4.48654E-03-5.97522E-04-1.23698E-14
 -1       197 4.84822E-03-6.26750E-04-1.39868E-14
 -1       198 5.24665E-03-7.24611E-04-1.57004E-14
 -1       199 5.66948E-03-9.49628E-04-1.74195E-14
 -1       200 6.14386E-03-1.39192E-03-1.92359E-14
 -1       201 6.58848E-03-1.95710E-03-2.08575E-14
 -1       202 7.63066E-03-2.93003E-03-2.44678E-14
 -1       203 8.01862E-03-2.82854E-03-2.61703E-14
 -1       204 8.44210E-03-2.45639E-03-2.80830E-14
 -1       205 8.92193E-03-2.02904E-03-3.03374E-14
 -1       206 9.38310E-03-1.78677E-03-3.26543E-14
 -1       207 9.87829E-03-1.73902E-03-3.54575E-14
 -1       208 1.02953E-02-1.84494E-03-3.81952E-14
 -1       209 1.06860E-02-2.03589E-03-4.11635E-14
 -1       210 1.10398E-02-2.26204E-03-4.42295E-14
 -1       211 1.13683E-02-2.50091E-03-4.73910E-14
 -1       212 1.16805E-02-2.74294E-03-5.06436E-14
 -1       213 1.19824E-02-2.98452E-03-5.39913E-14
 -1       214 1.22780E-02-3.22459E-03-5.74351E-14
 -1       215 1.25696E-02-3.46304E-03-6.09675E-14
 -1       216 1.28444E-02-3.68829E-03-6.43830E-14
 -1       217 1.31323E-02-3.92435E-03-6.80344E-14
 -1       218 1.34193E-02-4.15961E-03-7.17495E-14
 -1       219 1.37058E-02-4.39428E-03-7.55326E-14
 -1       220 1.39919E-02-4.62855E-03-7.93813E-14
 -1       221 1.42779E-02-4.86252E-03-8.32949E-14
 -1       222 1.45637E-02-5.09628E-03-8.72868E-14
 -1       223 1.48495E-02-5.32989E-03-9.13418E-14
 -1       224 1.51210E-02-5.55173E-03-9.52409E-14
 -1       225 1.54067E-02-5.78516E-03-9.94066E-14
 -1       226 1.56924E-02-6.01854E-03-1.03626E-13
 -1       227 1.59781E-02-6.25188E-03-1.07884E-13
 -1       228 1.62638E-02-6.48520E-03-1.12180E-13
 -1       229 1.65495E-02-6.71849E-03-1.16493E-13
 -1       230 1.68352E-02-6.95178E-03-1.20811E-13
 -1       231 1.69814E-02-7.08889E-03-1.23474E-13
 -1       232 6.04729E-04 3.30465E-04 6.50555E-17
 -1       233 8.94020E-04 4.31814E-04 1.32171E-17
 -1       234 1.17317E-03 5.03334E-04-1.11368E-16
 -1       235 1.44788E-03 5.54341E-04-3.16638E-16
 -1       236 1.72110E-03 5.90712E-04-6.07387E-16
 -1       237 1.99443E-03 6.16555E-04-9.87417E-16
 -1       238 2.26863E-03 6.34895E-04-1.45963E-15
 -1       239 2.54395E-03 6.48056E-04-2.02660E-15
 -1       240 2.82026E-03 6.57844E-04-2.69199E-15
 -1       241 3.09714E-03 6.65642E-04-3.45906E-15
 -1       242 3.37391E-03 6.72420E-04-4.32553E-15
 -1       243 3.64958E-03 6.78666E-04-5.28942E-15
 -1       244 3.92297E-03 6.84259E-04-6.35480E-15
 -1       245 4.19268E-03 6.88269E-04-7.52342E-15
 -1       246 4.45723E-03 6.88746E-04-8.79536E-15
 -1       247 4.71530E-03 6.82568E-04-1.01723E-14
 -1       248 4.96598E-03 6.65461E-04-1.16545E-14
 -1       249 5.20909E-03 6.32299E-04-1.32451E-14
 -1       250 5.44541E-03 5.77747E-04-1.49516E-14
 -1       251 5.67679E-03 4.97176E-04-1.67823E-14
 -1       252 5.90594E-03 3.87611E-04-1.87345E-14
 -1       253 6.13598E-03 2.48414E-04-2.08054E-14
 -1       254 6.36993E-03 8.14372E-05-2.29902E-14
 -1       255 6.61013E-03-1.09411E-04-2.52900E-14
 -1       256 6.85796E-03-3.19020E-04-2.77059E-14
 -1       257 7.11378E-03-5.42030E-04-3.02389E-14
 -1       258 7.37712E-03-7.73616E-04-3.28804E-14
 -1       259 7.64695E-03-1.00994E-03-3.56289E-14
 -1       260 7.92199E-03-1.24829E-03-3.84902E-14
 -1       261 8.20095E-03-1.48696E-03-4.14596E-14
 -1       262 8.48270E-03-1.72503E-03-4.45334E-14
 -1       263 8.76632E-03-1.96213E-03-4.77095E-14
 -1       264 9.05111E-03-2.19819E-03-5.09731E-14
 -1       265 9.33659E-03-2.43335E-03-5.43256E-14
 -1       266 9.62242E-03-2.66779E-03-5.77686E-14
 -1       267 9.90841E-03-2.90170E-03-6.12932E-14
 -1       268 1.01944E-02-3.13525E-03-6.48992E-14
 -1       269 1.04804E-02-3.36856E-03-6.85845E-14
 -1       270 1.07664E-02-3.60173E-03-7.23462E-14
 -1       271 1.10523E-02-3.83484E-03-7.61816E-14
 -1       272 1.13381E-02-4.06791E-03-8.00810E-14
 -1       273 1.16239E-02-4.30099E-03-8.40362E-14
 -1       274 1.19097E-02-4.53407E-03-8.80356E-14
 -1       275 1.21954E-02-4.76717E-03-9.20646E-14
 -1       276 1.24812E-02-5.00029E-03-9.61086E-14
 -1       277 1.27669E-02-5.23343E-03-1.00169E-13
 -1       278 1.30526E-02-5.46658E-03-1.04228E-13
 -1       279 1.33383E-02-5.69974E-03-1.08278E-13
 -1       280 1.35625E-02-5.80470E-03-1.09726E-13
 -1       281 1.37918E-02-5.88899E-03-1.10703E-13
 -1       282 1.40211E-02-5.97327E-03-1.11685E-13
 -1       283 1.42503E-02-6.05755E-03-1.12669E-13
 -1       284 1.44758E-02-6.14040E-03-1.13630E-13
 -1       285 1.47051E-02-6.22468E-03-1.14600E-13
 -1       286 1.49344E-02-6.30895E-03-1.15544E-13
 -1       287 1.51637E-02-6.39323E-03-1.16468E-13
 -1       288 1.53930E-02-6.47751E-03-1.17362E-13
 -1       289 1.56224E-02-6.56179E-03-1.18220E-13
 -1       290 1.58478E-02-6.64465E-03-1.19028E-13
 -1       291 1.60772E-02-6.72894E-03-1.19818E-13
 -1       292 1.63066E-02-6.81324E-03-1.20575E-13
 -1       293 1.65360E-02-6.89753E-03-1.21316E-13
 -1       294 1.67587E-02-6.99321E-03-1.22395E-13
 -1       295 9.83958E-03-1.30116E-03-3.03108E-14
 -1       296 9.53869E-03-1.17129E-03-2.97272E-14
 -1       297 9.15132E-03-9.79541E-04-2.87667E-14
 -1       298 8.66996E-03-7.80124E-04-2.77852E-14
 -1       299 8.18044E-03-5.27294E-04-2.64712E-14
 -1       300 7.62491E-03-2.88460E-04-2.50894E-14
 -1       301 7.19610E-03-1.11512E-04-2.35771E-14
 -1       302 6.75200E-03-2.59352E-05-2.22191E-14
 -1       303 6.30917E-03-5.08271E-05-2.10019E-14
 -1       304 5.89036E-03-1.41746E-04-1.99808E-14
 -1       305 5.49164E-03-2.88590E-04-1.89727E-14
 -1       306 5.09042E-03-4.24483E-04-1.84541E-14
 -1       307 4.80283E-03-5.38702E-04-1.81296E-14
 -1       308 4.62440E-03-6.43547E-04-1.79313E-14
 -1       309 4.58245E-03-7.44683E-04-1.80029E-14
 -1       310 4.69681E-03-8.77261E-04-1.83491E-14
 -1       311 4.96601E-03-1.06737E-03-1.88729E-14
 -1       312 5.37436E-03-1.34535E-03-1.96082E-14
 -1       313 5.94214E-03-1.73030E-03-2.05319E-14
 -1       314 6.50509E-03-2.22630E-03-2.17473E-14
 -1       315 7.11695E-03-2.66984E-03-2.30540E-14
 -1       316 7.62260E-03-2.86933E-03-2.44922E-14
 -1       317 8.09809E-03-2.77188E-03-2.58701E-14
 -1       318 8.59356E-03-2.48047E-03-2.70897E-14
 -1       319 9.06363E-03-2.13312E-03-2.83425E-14
 -1       320 9.50070E-03-1.85565E-03-2.92035E-14
 -1       321 9.80154E-03-1.63653E-03-3.00397E-14
 -1       322 9.95187E-03-1.52793E-03-3.02478E-14
 -1       323 9.98543E-03-1.39834E-03-3.04773E-14
 -1       324 7.12705E-03-2.58096E-03-2.25907E-14
 -1       325 4.55504E-04-1.64039E-04-1.78514E-16
 -1       326 4.74456E-04-2.12499E-04-1.62803E-16
 -1       327 4.40481E-04-9.34848E-05-1.83308E-16
 -1       328 4.37408E-04-6.45327E-05-1.78666E-16
 -1       329 4.35699E-04-3.77199E-05-1.71500E-16
 -1       330 4.34938E-04-1.20358E-05-1.62715E-16
 -1       331 4.34959E-04 1.33279E-05-1.52263E-16
 -1       332 4.35762E-04 3.91162E-05-1.39699E-16
 -1       333 4.37481E-04 6.56585E-05-1.24368E-16
 -1       334 4.40607E-04 9.48610E-05-1.04653E-16
 -1       335 4.46073E-04 1.27738E-04-7.99938E-17
 -1       336 4.56080E-04 1.66722E-04-4.77998E-17
 -1       337 4.76029E-04 2.16413E-04-5.17707E-18
 -1       338 5.32160E-04 2.69382E-04 2.44657E-17
 -1       339 8.24806E-04 3.72595E-04-4.26329E-17
 -1       340 1.00090E-02-1.46252E-03-3.15386E-14
 -1       341 8.49273E-04-3.52102E-04-4.71232E-16
 -1       342 1.13607E-03-4.21152E-04-8.40372E-16
 -1       343 1.41937E-03-4.70205E-04-1.31580E-15
 -1       344 1.70071E-03-5.04284E-04-1.89647E-15
 -1       345 1.96730E-03-5.26202E-04-2.54456E-15
 -1       346 2.24803E-03-5.40841E-04-3.32814E-15
 -1       347 2.52952E-03-5.48746E-04-4.21497E-15
 -1       348 2.81222E-03-5.51272E-04-5.20426E-15
 -1       349 3.09647E-03-5.49373E-04-6.29408E-15
 -1       350 3.38251E-03-5.43835E-04-7.48102E-15
 -1       351 3.67040E-03-5.35703E-04-8.76424E-15
 -1       352 3.95985E-03-5.27153E-04-1.01387E-14
 -1       353 4.23547E-03-5.23183E-04-1.15288E-14
 -1       354 4.52483E-03-5.33965E-04-1.30839E-14
 -1       355 4.81268E-03-5.82809E-04-1.47328E-14
 -1       356 5.09041E-03-7.05533E-04-1.63870E-14
 -1       357 8.95486E-03-2.09032E-03-2.90162E-14
 -1       358 9.39017E-03-1.75242E-03-3.12733E-14
 -1       359 9.79516E-03-1.63778E-03-3.40257E-14
 -1       360 1.01361E-02-1.70832E-03-3.67162E-14
 -1       361 1.04715E-02-1.88103E-03-3.96333E-14
 -1       362 1.07924E-02-2.09999E-03-4.26439E-14
 -1       363 1.11031E-02-2.33703E-03-4.57527E-14
 -1       364 1.14061E-02-2.57946E-03-4.89499E-14
 -1       365 1.17037E-02-2.82214E-03-5.22415E-14
 -1       366 1.19972E-02-3.06335E-03-5.56257E-14
 -1       367 1.22881E-02-3.30276E-03-5.91011E-14
 -1       368 1.25627E-02-3.52872E-03-6.24715E-14
 -1       369 1.28506E-02-3.76533E-03-6.60832E-14
 -1       370 1.31378E-02-4.00098E-03-6.97550E-14
 -1       371 1.34244E-02-4.23594E-03-7.34974E-14
 -1       372 1.37107E-02-4.47040E-03-7.73098E-14
 -1       373 1.39967E-02-4.70450E-03-8.11838E-14
 -1       374 1.42826E-02-4.93836E-03-8.51331E-14
 -1       375 1.45685E-02-5.17204E-03-8.91520E-14
 -1       376 1.48400E-02-5.39391E-03-9.30225E-14
 -1       377 1.51257E-02-5.62738E-03-9.71558E-14
 -1       378 1.54115E-02-5.86079E-03-1.01348E-13
 -1       379 1.56972E-02-6.09414E-03-1.05583E-13
 -1       380 1.59829E-02-6.32747E-03-1.09854E-13
 -1       381 1.62686E-02-6.56077E-03-1.14153E-13
 -1       382 1.65543E-02-6.79406E-03-1.18464E-13
 -1       383 1.66565E-02-6.89363E-03-1.20431E-13
 -1       384 1.27231E-03 4.59953E-04-3.45447E-16
 -1       385 1.55349E-03 5.02828E-04-6.23315E-16
 -1       386 1.83316E-03 5.33238E-04-9.88138E-16
 -1       387 2.11232E-03 5.54670E-04-1.44253E-15
 -1       388 2.39156E-03 5.69810E-04-1.98997E-15
 -1       389 2.67115E-03 5.80754E-04-2.63288E-15
 -1       390 2.95108E-03 5.89141E-04-3.37424E-15
 -1       391 3.23112E-03 5.96206E-04-4.21490E-15
 -1       392 3.51084E-03 6.02756E-04-5.15373E-15
 -1       393 3.78961E-03 6.09080E-04-6.19218E-15
 -1       394 4.06658E-03 6.14770E-04-7.33096E-15
 -1       395 4.34077E-03 6.18493E-04-8.57097E-15
 -1       396 4.61110E-03 6.17763E-04-9.91552E-15
 -1       397 4.87659E-03 6.08807E-04-1.13650E-14
 -1       398 5.13662E-03 5.86672E-04-1.29214E-14
 -1       399 5.39118E-03 5.45692E-04-1.45903E-14
 -1       400 5.64112E-03 4.80339E-04-1.63796E-14
 -1       401 5.88818E-03 3.86317E-04-1.82897E-14
 -1       402 6.13469E-03 2.61565E-04-2.03205E-14
 -1       403 6.38314E-03 1.06776E-04-2.24661E-14
 -1       404 6.63564E-03-7.47850E-05-2.47271E-14
 -1       405 6.89351E-03-2.78073E-04-2.71013E-14
 -1       406 7.15721E-03-4.97352E-04-2.95926E-14
 -1       407 7.42645E-03-7.27186E-04-3.21999E-14
 -1       408 7.70047E-03-9.63095E-04-3.49120E-14
 -1       409 7.97831E-03-1.20180E-03-3.77333E-14
 -1       410 8.25900E-03-1.44120E-03-4.06652E-14
 -1       411 8.54171E-03-1.68008E-03-4.36998E-14
 -1       412 8.82578E-03-1.91792E-03-4.68361E-14
 -1       413 9.11072E-03-2.15461E-03-5.00670E-14
 -1       414 9.39617E-03-2.39024E-03-5.33828E-14
 -1       415 9.68190E-03-2.62502E-03-5.67882E-14
 -1       416 9.96777E-03-2.85915E-03-6.02756E-14
 -1       417 1.02537E-02-3.09284E-03-6.38473E-14
 -1       418 1.05396E-02-3.32623E-03-6.75037E-14
 -1       419 1.08255E-02-3.55944E-03-7.12359E-14
 -1       420 1.11113E-02-3.79256E-03-7.50418E-14
 -1       421 1.13972E-02-4.02563E-03-7.89155E-14
 -1       422 1.16830E-02-4.25869E-03-8.28451E-14
 -1       423 1.19687E-02-4.49176E-03-8.68240E-14
 -1       424 1.22545E-02-4.72485E-03-9.08391E-14
 -1       425 1.25402E-02-4.95796E-03-9.48827E-14
 -1       426 1.28259E-02-5.19109E-03-9.89479E-14
 -1       427 1.31116E-02-5.42423E-03-1.03024E-13
 -1       428 1.33371E-02-5.61447E-03-1.06381E-13
 -1       429 1.38883E-02-5.81349E-03-1.08598E-13
 -1       430 1.36590E-02-5.72921E-03-1.07639E-13
 -1       431 1.41137E-02-5.89633E-03-1.09534E-13
 -1       432 1.43430E-02-5.98060E-03-1.10473E-13
 -1       433 1.45723E-02-6.06486E-03-1.11398E-13
 -1       434 1.48016E-02-6.14913E-03-1.12310E-13
 -1       435 1.50309E-02-6.23340E-03-1.13202E-13
 -1       436 1.52603E-02-6.31767E-03-1.14066E-13
 -1       437 1.54857E-02-6.40051E-03-1.14889E-13
 -1       438 1.57151E-02-6.48479E-03-1.15688E-13
 -1       439 1.59444E-02-6.56908E-03-1.16461E-13
 -1       440 1.61738E-02-6.65336E-03-1.17211E-13
 -1       441 1.04941E-03 4.23643E-04-1.65087E-16
 -1       442 9.26640E-03-1.21244E-03-3.03125E-14
 -1       443 8.28943E-03-7.33293E-04-2.76817E-14
 -1       444 9.69383E-03-1.36439E-03-3.13953E-14
 -1       445 9.93218E-03-1.51198E-03-3.13291E-14
 -1       446 8.85499E-03-1.03505E-03-2.92899E-14
 -1       447 4.45816E-04-1.25834E-04-1.84003E-16
 -1       448 7.83438E-03-4.87977E-04-2.63976E-14
 -1       449 7.23343E-03-1.46903E-04-2.41333E-14
 -1       450 6.90756E-03-2.21522E-05-2.27556E-14
 -1       451 6.50192E-03 6.54222E-06-2.11421E-14
 -1       452 6.13547E-03-7.71628E-05-2.00206E-14
 -1       453 5.77776E-03-2.04577E-04-1.88995E-14
 -1       454 5.28502E-03-4.01674E-04-1.79884E-14
 -1       455 4.94020E-03-5.27834E-04-1.74507E-14
 -1       456 4.69756E-03-6.08653E-04-1.72233E-14
 -1       457 4.56933E-03-6.67957E-04-1.71980E-14
 -1       458 4.62315E-03-7.13055E-04-1.72460E-14
 -1       459 4.85032E-03-8.31711E-04-1.78587E-14
 -1       460 5.24360E-03-1.04062E-03-1.86036E-14
 -1       461 5.75556E-03-1.35727E-03-1.94821E-14
 -1       462 9.36150E-03-1.82631E-03-2.98958E-14
 -1       463 9.69044E-03-1.63408E-03-3.07465E-14
 -1       464 9.95249E-03-1.42050E-03-3.17241E-14
 -1       465 5.47491E-03-1.00558E-03-1.81969E-14
 -1       466 5.52861E-03-2.96328E-04-1.79089E-14
 -1       467 7.46225E-03-3.11971E-04-2.54047E-14
 -1       468 6.65559E-04-7.47591E-05-3.74036E-16
 -1       469 6.69692E-04-1.15222E-04-3.85156E-16
 -1       470 6.62749E-04 8.64115E-07-3.40121E-16
 -1       471 6.63502E-04 3.82780E-05-3.17797E-16
 -1       472 6.65722E-04 7.61512E-05-2.91478E-16
 -1       473 6.69927E-04 1.16944E-04-2.58901E-16
 -1       474 6.77060E-04 1.61501E-04-2.18921E-16
 -1       475 6.89041E-04 2.11856E-04-1.69590E-16
 -1       476 7.09983E-04 2.70915E-04-1.07929E-16
 -1       477 7.63780E-04 3.19637E-04-8.01903E-17
 -1       478 9.02444E-03-1.22621E-03-3.09448E-14
 -1       479 1.00378E-02-1.48399E-03-3.29777E-14
 -1       480 1.24865E-03-3.78710E-04-1.09403E-15
 -1       481 1.53396E-03-4.18086E-04-1.61975E-15
 -1       482 1.80419E-03-4.44192E-04-2.21319E-15
 -1       483 2.08802E-03-4.62469E-04-2.93733E-15
 -1       484 2.37144E-03-4.73480E-04-3.76249E-15
 -1       485 2.65452E-03-4.78897E-04-4.68915E-15
 -1       486 2.93700E-03-4.80004E-04-5.71471E-15
 -1       487 3.21822E-03-4.77909E-04-6.83828E-15
 -1       488 3.49677E-03-4.73866E-04-8.05852E-15
 -1       489 3.77016E-03-4.69858E-04-9.37198E-15
 -1       490 4.02125E-03-4.69364E-04-1.07047E-14
 -1       491 4.27022E-03-4.78857E-04-1.21996E-14
 -1       492 4.49505E-03-5.10455E-04-1.37877E-14
 -1       493 4.67695E-03-5.80550E-04-1.53812E-14
 -1       494 8.16594E-04-2.81563E-04-5.00051E-16
 -1       495 1.00578E-02-1.59309E-03-3.50886E-14
 -1       496 1.03071E-02-1.73909E-03-3.79484E-14
 -1       497 1.05695E-02-1.94092E-03-4.09007E-14
 -1       498 1.08436E-02-2.16834E-03-4.39493E-14
 -1       499 1.11249E-02-2.40607E-03-4.70869E-14
 -1       500 1.14099E-02-2.64680E-03-5.03167E-14
 -1       501 1.16965E-02-2.88744E-03-5.36418E-14
 -1       502 1.19836E-02-3.12689E-03-5.70531E-14
 -1       503 1.22563E-02-3.35310E-03-6.03678E-14
 -1       504 1.25431E-02-3.59001E-03-6.39268E-14
 -1       505 1.28297E-02-3.82594E-03-6.75534E-14
 -1       506 1.31161E-02-4.06112E-03-7.12504E-14
 -1       507 1.34023E-02-4.29575E-03-7.50212E-14
 -1       508 1.36884E-02-4.52999E-03-7.88563E-14
 -1       509 1.39743E-02-4.76394E-03-8.27571E-14
 -1       510 1.42602E-02-4.99769E-03-8.67337E-14
 -1       511 1.45317E-02-5.21962E-03-9.05697E-14
 -1       512 1.48175E-02-5.45313E-03-9.46658E-14
 -1       513 1.51032E-02-5.68656E-03-9.88256E-14
 -1       514 1.53890E-02-5.91994E-03-1.03038E-13
 -1       515 1.56747E-02-6.15328E-03-1.07287E-13
 -1       516 1.59604E-02-6.38659E-03-1.11567E-13
 -1       517 1.62461E-02-6.61988E-03-1.15859E-13
 -1       518 1.00266E-02-1.49048E-03-3.27682E-14
 -1       519 1.66838E-03 4.47704E-04-9.61650E-16
 -1       520 1.38400E-03 4.12748E-04-6.11283E-16
 -1       521 2.23521E-03 4.89823E-04-1.92799E-15
 -1       522 2.51843E-03 5.02074E-04-2.55006E-15
 -1       523 2.80185E-03 5.11032E-04-3.26802E-15
 -1       524 3.08560E-03 5.18133E-04-4.08295E-15
 -1       525 3.36965E-03 5.24442E-04-4.99562E-15
 -1       526 3.65385E-03 5.30611E-04-6.00734E-15
 -1       527 3.93785E-03 5.36746E-04-7.11968E-15
 -1       528 4.22106E-03 5.42198E-04-8.32993E-15
 -1       529 4.50263E-03 5.45281E-04-9.64143E-15
 -1       530 4.78151E-03 5.42995E-04-1.10579E-14
 -1       531 5.05662E-03 5.30884E-04-1.25803E-14
 -1       532 5.32717E-03 5.03208E-04-1.42135E-14
 -1       533 5.59308E-03 4.53614E-04-1.59623E-14
 -1       534 5.85529E-03 3.76306E-04-1.78316E-14
 -1       535 6.11573E-03 2.67432E-04-1.98211E-14
 -1       536 6.37685E-03 1.26156E-04-2.19270E-14
 -1       537 6.64092E-03-4.51039E-05-2.41482E-14
 -1       538 6.90941E-03-2.41371E-04-2.64841E-14
 -1       539 7.18274E-03-4.56405E-04-2.89336E-14
 -1       540 7.46048E-03-6.84021E-04-3.14995E-14
 -1       541 7.74167E-03-9.19015E-04-3.41795E-14
 -1       542 8.02524E-03-1.15755E-03-3.69644E-14
 -1       543 8.31028E-03-1.39714E-03-3.98572E-14
 -1       544 8.59610E-03-1.63636E-03-4.28559E-14
 -1       545 8.88226E-03-1.87456E-03-4.59556E-14
 -1       546 9.16852E-03-2.11156E-03-4.91492E-14
 -1       547 9.45475E-03-2.34745E-03-5.24323E-14
 -1       548 9.74090E-03-2.58241E-03-5.58004E-14
 -1       549 1.00270E-02-2.81668E-03-5.92529E-14
 -1       550 1.03129E-02-3.05045E-03-6.27896E-14
 -1       551 1.05988E-02-3.28389E-03-6.64141E-14
 -1       552 1.08847E-02-3.51713E-03-7.01152E-14
 -1       553 1.11705E-02-3.75026E-03-7.38948E-14
 -1       554 1.14563E-02-3.98333E-03-7.77451E-14
 -1       555 1.17421E-02-4.21639E-03-8.16528E-14
 -1       556 1.20278E-02-4.44945E-03-8.56138E-14
 -1       557 1.23135E-02-4.68252E-03-8.96146E-14
 -1       558 1.25993E-02-4.91562E-03-9.36528E-14
 -1       559 1.28850E-02-5.14874E-03-9.77172E-14
 -1       560 1.31707E-02-5.38188E-03-1.01803E-13
 -1       561 1.39809E-02-5.73653E-03-1.06387E-13
 -1       562 1.37555E-02-5.65370E-03-1.05482E-13
 -1       563 1.35262E-02-5.56943E-03-1.04550E-13
 -1       564 8.03488E-03-6.92169E-04-2.77598E-14
 -1       565 1.42102E-02-5.82079E-03-1.07292E-13
 -1       566 1.44395E-02-5.90504E-03-1.08190E-13
 -1       567 1.46689E-02-5.98929E-03-1.09075E-13
 -1       568 1.48982E-02-6.07355E-03-1.09938E-13
 -1       569 1.51236E-02-6.15638E-03-1.10764E-13
 -1       570 1.53530E-02-6.24064E-03-1.11572E-13
 -1       571 1.55823E-02-6.32492E-03-1.12355E-13
 -1       572 1.58117E-02-6.40920E-03-1.13117E-13
 -1       573 1.64084E-02-6.74025E-03-1.17986E-13
 -1       574 1.95198E-03 4.72459E-04-1.39940E-15
 -1       575 9.85416E-03-1.54956E-03-3.25190E-14
 -1       576 1.03242E-03-3.34839E-04-7.68330E-16
 -1       577 6.63390E-04-3.64641E-05-3.58891E-16
 -1       578 9.88279E-03-1.48333E-03-3.31159E-14
 -1       579 5.04787E-03-8.07085E-04-1.74702E-14
 -1       580 8.53483E-03-9.75258E-04-2.93255E-14
 -1       581 6.24817E-03-1.29183E-05-1.98900E-14
 -1       582 6.98755E-03-7.02652E-05-2.33570E-14
 -1       583 6.63457E-03 2.90762E-05-2.15553E-14
 -1       584 5.94789E-03-1.07369E-04-1.87777E-14
 -1       585 5.08640E-03-4.63073E-04-1.69252E-14
 -1       586 4.75435E-03-5.50452E-04-1.61514E-14
 -1       587 4.57901E-03-6.05555E-04-1.62036E-14
 -1       588 4.54270E-03-6.25131E-04-1.62501E-14
 -1       589 4.74176E-03-6.78600E-04-1.67025E-14
 -1       590 9.46960E-03-1.39036E-03-3.21634E-14
 -1       591 6.76706E-04-1.59174E-04-3.90770E-16
 -1       592 5.28647E-03-3.58501E-04-1.68400E-14
 -1       593 9.90824E-04 3.71823E-04-2.08865E-16
 -1       594 7.42595E-04-2.15263E-04-4.48019E-16
 -1       595 7.67788E-03-4.97665E-04-2.67280E-14
 -1       596 1.18726E-03 3.97108E-04-3.84570E-16
 -1       597 4.57894E-03-5.94150E-04-1.57200E-14
 -1       598 5.70094E-03-1.81005E-04-1.77850E-14
 -1       599 7.19453E-03-1.99648E-04-2.45940E-14
 -1       600 8.99248E-04 7.32395E-05-5.34573E-16
 -1       601 8.97041E-04 2.45670E-05-5.73279E-16
 -1       602 9.11664E-04 1.77120E-04-4.33461E-16
 -1       603 9.24212E-04 2.35620E-04-3.67053E-16
 -1       604 9.36921E-04 3.22454E-04-2.42360E-16
 -1       605 2.07663E-03 4.08756E-04-1.84172E-15
 -1       606 1.64823E-03-3.62482E-04-1.91087E-15
 -1       607 1.93407E-03-3.83722E-04-2.57931E-15
 -1       608 2.21928E-03-3.97581E-04-3.34741E-15
 -1       609 2.50346E-03-4.05893E-04-4.21391E-15
 -1       610 2.78598E-03-4.10215E-04-5.17894E-15
 -1       611 3.06577E-03-4.11995E-04-6.24159E-15
 -1       612 3.34100E-03-4.12831E-04-7.40118E-15
 -1       613 3.60866E-03-4.14901E-04-8.65439E-15
 -1       614 3.85160E-03-4.21005E-04-9.93161E-15
 -1       615 4.08853E-03-4.36805E-04-1.13682E-14
 -1       616 4.29589E-03-4.69651E-04-1.28988E-14
 -1       617 1.01822E-02-1.62714E-03-3.61663E-14
 -1       618 9.03437E-04-1.21553E-04-6.53896E-16
 -1       619 1.03667E-02-1.80313E-03-3.90548E-14
 -1       620 1.05886E-02-2.01012E-03-4.20373E-14
 -1       621 1.08361E-02-2.23414E-03-4.51102E-14
 -1       622 1.11000E-02-2.46655E-03-4.82756E-14
 -1       623 1.13736E-02-2.70245E-03-5.15362E-14
 -1       624 1.16528E-02-2.93934E-03-5.48838E-14
 -1       625 1.19211E-02-3.16428E-03-5.81362E-14
 -1       626 1.22051E-02-3.40054E-03-6.16376E-14
 -1       627 1.24902E-02-3.63618E-03-6.52102E-14
 -1       628 1.27756E-02-3.87127E-03-6.88559E-14
 -1       629 1.30614E-02-4.10590E-03-7.25777E-14
 -1       630 1.33471E-02-4.34016E-03-7.63708E-14
 -1       631 1.36330E-02-4.57416E-03-8.02252E-14
 -1       632 1.39188E-02-4.80796E-03-8.41516E-14
 -1       633 1.41903E-02-5.02993E-03-8.79466E-14
 -1       634 1.44761E-02-5.26347E-03-9.20065E-14
 -1       635 1.47618E-02-5.49693E-03-9.61283E-14
 -1       636 1.50476E-02-5.73032E-03-1.00309E-13
 -1       637 1.53333E-02-5.96367E-03-1.04536E-13
 -1       638 1.56190E-02-6.19699E-03-1.08793E-13
 -1       639 1.00896E-02-1.53763E-03-3.42972E-14
 -1       640 2.64955E-03 4.31636E-04-3.13947E-15
 -1       641 2.36295E-03 4.22211E-04-2.44343E-15
 -1       642 3.22459E-03 4.44162E-04-4.81830E-15
 -1       643 3.51352E-03 4.49394E-04-5.80281E-15
 -1       644 3.80358E-03 4.54792E-04-6.88706E-15
 -1       645 4.09465E-03 4.60383E-04-8.07044E-15
 -1       646 4.38623E-03 4.65406E-04-9.35101E-15
 -1       647 4.67737E-03 4.67926E-04-1.07341E-14
 -1       648 4.96666E-03 4.64433E-04-1.22233E-14
 -1       649 5.25250E-03 4.49593E-04-1.38220E-14
 -1       650 5.53373E-03 4.16501E-04-1.55331E-14
 -1       651 5.81022E-03 3.57699E-04-1.73607E-14
 -1       652 6.08337E-03 2.66936E-04-1.93096E-14
 -1       653 6.35579E-03 1.41086E-04-2.13759E-14
 -1       654 6.63039E-03-1.87757E-05-2.35556E-14
 -1       655 6.90923E-03-2.07772E-04-2.58505E-14
 -1       656 7.19294E-03-4.18819E-04-2.82611E-14
 -1       657 7.48080E-03-6.44545E-04-3.07868E-14
 -1       658 7.77134E-03-8.78727E-04-3.34282E-14
 -1       659 8.06303E-03-1.11688E-03-3.61808E-14
 -1       660 8.35467E-03-1.35620E-03-3.90403E-14
 -1       661 8.64556E-03-1.59515E-03-4.20029E-14
 -1       662 8.93539E-03-1.83309E-03-4.50656E-14
 -1       663 9.22415E-03-2.06986E-03-4.82247E-14
 -1       664 9.51201E-03-2.30556E-03-5.14727E-14
 -1       665 9.79915E-03-2.54038E-03-5.48062E-14
 -1       666 1.00858E-02-2.77455E-03-5.82277E-14
 -1       667 1.03720E-02-3.00825E-03-6.17310E-14
 -1       668 1.06581E-02-3.24165E-03-6.53174E-14
 -1       669 1.09439E-02-3.47486E-03-6.89904E-14
 -1       670 1.12297E-02-3.70796E-03-7.27405E-14
 -1       671 1.15155E-02-3.94102E-03-7.65650E-14
 -1       672 1.18012E-02-4.17406E-03-8.04558E-14
 -1       673 1.20869E-02-4.40712E-03-8.43971E-14
 -1       674 1.23727E-02-4.64019E-03-8.83853E-14
 -1       675 1.26584E-02-4.87328E-03-9.24150E-14
 -1       676 1.29441E-02-5.10639E-03-9.64741E-14
 -1       677 1.32351E-02-5.33790E-03-1.00502E-13
 -1       678 1.36208E-02-5.49320E-03-1.02341E-13
 -1       679 1.40775E-02-5.66097E-03-1.04111E-13
 -1       680 1.34280E-02-5.41555E-03-1.01425E-13
 -1       681 9.73412E-03-1.52865E-03-3.41207E-14
 -1       682 1.38491E-02-5.57709E-03-1.03231E-13
 -1       683 1.45361E-02-5.82944E-03-1.05844E-13
 -1       684 1.47615E-02-5.91225E-03-1.06667E-13
 -1       685 1.49909E-02-5.99650E-03-1.07479E-13
 -1       686 1.52202E-02-6.08076E-03-1.08269E-13
 -1       687 1.54496E-02-6.16503E-03-1.09034E-13
 -1       688 1.60463E-02-6.49608E-03-1.13892E-13
 -1       689 1.79038E-03 3.89422E-04-1.33147E-15
 -1       690 1.00172E-02-1.54990E-03-3.44436E-14
 -1       691 6.36542E-03 4.43602E-05-2.01941E-14
 -1       692 4.57308E-03-5.42239E-04-1.51919E-14
 -1       693 4.89029E-03-4.66898E-04-1.57260E-14
 -1       694 1.43068E-02-5.74520E-03-1.04984E-13
 -1       695 2.93668E-03 4.38547E-04-3.93043E-15
 -1       696 6.04837E-03-1.62402E-05-1.87505E-14
 -1       697 9.25982E-03-1.40434E-03-3.30479E-14
 -1       698 4.49451E-03-5.64614E-04-1.52435E-14
 -1       699 6.69730E-03 1.71913E-05-2.19792E-14
 -1       700 1.50412E-03 3.62000E-04-9.09680E-16
 -1       701 9.03861E-04 1.23586E-04-4.88484E-16
 -1       702 1.36219E-03-3.31722E-04-1.34167E-15
 -1       703 5.04533E-03-3.76966E-04-1.56387E-14
 -1       704 8.96942E-04-2.34057E-05-6.05791E-16
 -1       705 4.46407E-03-5.39565E-04-1.47312E-14
 -1       706 8.98961E-04-7.16369E-05-6.32903E-16
 -1       707 7.39878E-03-3.55266E-04-2.58842E-14
 -1       708 9.11115E-04-1.74550E-04-6.68068E-16
 -1       709 5.82116E-03-6.90047E-05-1.77564E-14
 -1       710 1.18854E-03 3.30022E-04-5.23534E-16
 -1       711 9.92337E-03-1.60676E-03-3.54660E-14
 -1       712 6.88822E-03-6.21381E-05-2.31655E-14
 -1       713 9.54810E-04-2.63792E-04-7.02509E-16
 -1       714 4.65722E-03-4.81888E-04-1.47837E-14
 -1       715 5.44621E-03-2.39411E-04-1.67138E-14
 -1       716 1.15805E-03-3.01031E-04-9.96829E-16
 -1       717 8.27204E-03-9.03587E-04-2.93948E-14
 -1       718 7.92790E-03-7.08621E-04-2.83224E-14
 -1       719 8.82366E-03-1.22387E-03-3.17330E-14
 -1       720 1.16151E-03 2.42245E-04-6.44175E-16
 -1       721 4.41096E-03-5.09630E-04-1.41432E-14
 -1       722 3.66243E-03 3.70132E-04-6.63553E-15
 -1       723 1.91793E-03 3.27958E-04-1.73323E-15
 -1       724 9.31277E-04-2.17359E-04-6.88285E-16
 -1       725 9.59639E-03-1.57611E-03-3.53585E-14
 -1       726 2.06093E-03-3.21075E-04-2.92671E-15
 -1       727 2.34647E-03-3.31792E-04-3.73253E-15
 -1       728 2.63029E-03-3.38898E-04-4.63544E-15
 -1       729 2.91125E-03-3.44021E-04-5.63489E-15
 -1       730 3.18768E-03-3.48962E-04-6.73089E-15
 -1       731 3.45706E-03-3.55993E-04-7.92204E-15
 -1       732 3.70314E-03-3.67430E-04-9.13982E-15
 -1       733 3.94685E-03-3.88656E-04-1.05143E-14
 -1       734 4.16781E-03-4.24695E-04-1.19845E-14
 -1       735 1.03470E-02-1.88134E-03-4.01711E-14
 -1       736 1.05652E-02-2.08536E-03-4.31806E-14
 -1       737 1.08088E-02-2.30382E-03-4.62824E-14
 -1       738 1.10688E-02-2.53069E-03-4.94822E-14
 -1       739 1.13391E-02-2.76202E-03-5.27688E-14
 -1       740 1.16019E-02-2.98375E-03-5.59659E-14
 -1       741 1.18823E-02-3.21803E-03-5.94064E-14
 -1       742 1.21651E-02-3.45254E-03-6.29222E-14
 -1       743 1.24492E-02-3.68701E-03-6.65184E-14
 -1       744 1.27341E-02-3.92130E-03-7.01890E-14
 -1       745 1.30194E-02-4.15541E-03-7.39361E-14
 -1       746 1.33049E-02-4.38933E-03-7.77477E-14
 -1       747 1.35906E-02-4.62310E-03-8.16283E-14
 -1       748 1.38620E-02-4.84507E-03-8.53800E-14
 -1       749 1.41477E-02-5.07862E-03-8.94016E-14
 -1       750 1.44335E-02-5.31209E-03-9.34859E-14
 -1       751 1.47192E-02-5.54550E-03-9.76324E-14
 -1       752 1.50049E-02-5.77887E-03-1.01832E-13
 -1       753 1.52273E-02-5.97196E-03-1.05424E-13
 -1       754 3.95947E-03 3.74267E-04-7.79015E-15
 -1       755 3.36791E-03 3.66508E-04-5.58021E-15
 -1       756 4.25913E-03 3.79056E-04-9.04240E-15
 -1       757 4.56086E-03 3.83841E-04-1.03953E-14
 -1       758 4.86331E-03 3.86578E-04-1.18503E-14
 -1       759 5.16435E-03 3.83122E-04-1.34129E-14
 -1       760 5.46154E-03 3.66767E-04-1.50884E-14
 -1       761 5.75319E-03 3.28633E-04-1.68768E-14
 -1       762 6.03948E-03 2.59422E-04-1.87822E-14
 -1       763 6.32290E-03 1.52380E-04-2.08082E-14
 -1       764 6.60730E-03 6.01260E-06-2.29491E-14
 -1       765 6.89600E-03-1.75303E-04-2.52020E-14
 -1       766 7.19035E-03-3.83199E-04-2.75727E-14
 -1       767 7.48947E-03-6.08276E-04-3.00609E-14
 -1       768 7.79114E-03-8.42589E-04-3.26658E-14
 -1       769 8.09294E-03-1.08071E-03-3.53799E-14
 -1       770 8.39312E-03-1.31955E-03-3.82049E-14
 -1       771 8.69072E-03-1.55767E-03-4.11353E-14
 -1       772 8.98554E-03-1.79460E-03-4.41660E-14
 -1       773 9.27782E-03-2.03040E-03-4.72919E-14
 -1       774 9.56802E-03-2.26525E-03-5.05077E-14
 -1       775 9.85665E-03-2.49941E-03-5.38074E-14
 -1       776 1.01442E-02-2.73309E-03-5.71953E-14
 -1       777 1.04309E-02-2.96645E-03-6.06663E-14
 -1       778 1.07172E-02-3.19963E-03-6.42184E-14
 -1       779 1.10032E-02-3.43269E-03-6.78569E-14
 -1       780 1.12890E-02-3.66571E-03-7.15825E-14
 -1       781 1.15747E-02-3.89872E-03-7.53797E-14
 -1       782 1.18604E-02-4.13173E-03-7.92475E-14
 -1       783 1.21461E-02-4.36477E-03-8.31716E-14
 -1       784 1.24318E-02-4.59783E-03-8.71471E-14
 -1       785 1.27175E-02-4.83092E-03-9.11665E-14
 -1       786 1.30032E-02-5.06403E-03-9.52206E-14
 -1       787 1.32156E-02-5.23978E-03-9.83131E-14
 -1       788 1.46288E-02-5.75237E-03-1.03413E-13
 -1       789 1.01759E-02-1.70043E-03-3.72791E-14
 -1       790 1.48581E-02-5.83660E-03-1.04205E-13
 -1       791 1.44034E-02-5.66957E-03-1.02616E-13
 -1       792 1.50427E-02-5.90427E-03-1.04824E-13
 -1       793 1.00474E-02-1.55445E-03-3.43893E-14
 -1       794 1.77458E-03-3.05101E-04-2.21799E-15
 -1       795 6.41210E-03 7.22576E-05-2.04339E-14
 -1       796 1.63028E-03 3.07562E-04-1.24120E-15
 -1       797 1.41740E-02-5.58535E-03-1.01786E-13
 -1       798 1.29536E-03 2.79325E-04-7.65040E-16
 -1       799 1.39447E-02-5.50113E-03-1.00937E-13
 -1       800 1.13743E-03 5.79117E-05-8.56398E-16
 -1       801 6.14042E-03 6.17514E-05-1.89778E-14
 -1       802 9.11324E-03-1.42436E-03-3.42680E-14
 -1       803 1.48826E-03-2.82151E-04-1.60687E-15
 -1       804 8.46210E-03-1.08303E-03-3.14058E-14
 -1       805 1.13589E-03 4.24595E-07-9.06830E-16
 -1       806 6.61594E-03 3.26345E-05-2.17029E-14
 -1       807 4.78236E-03-4.16510E-04-1.47047E-14
 -1       808 1.34084E-02-5.31742E-03-9.92185E-14
 -1       809 2.49510E-03 3.51741E-04-2.98962E-15
 -1       810 7.63970E-03-5.46239E-04-2.74421E-14
 -1       811 7.07753E-03-1.76577E-04-2.44025E-14
 -1       812 1.14865E-03-1.75056E-04-1.01049E-15
 -1       813 5.57411E-03-1.18838E-04-1.66796E-14
 -1       814 1.28440E-03-2.58924E-04-1.23014E-15
 -1       815 5.93697E-03 3.48559E-05-1.79730E-14
 -1       816 2.20623E-03 3.42126E-04-2.31549E-15
 -1       817 8.15120E-03-9.06442E-04-3.02840E-14
 -1       818 2.78475E-03 3.58234E-04-3.75841E-15
 -1       819 1.37164E-02-5.41727E-03-1.00080E-13
 -1       820 5.18117E-03-2.67523E-04-1.55124E-14
 -1       821 1.14178E-03 1.16470E-04-7.97356E-16
 -1       822 1.14950E-03 1.77705E-04-7.26731E-16
 -1       823 1.14114E-03-1.14797E-04-9.84550E-16
 -1       824 3.07552E-03 3.62818E-04-4.62191E-15
 -1       825 4.33154E-03-4.38648E-04-1.29579E-14
 -1       826 9.81890E-03-1.66889E-03-3.67267E-14
 -1       827 6.35760E-03 9.91541E-05-2.02296E-14
 -1       828 4.11984E-03 2.88197E-04-8.71689E-15
 -1       829 1.01029E-02-1.76650E-03-3.82847E-14
 -1       830 1.13707E-03-5.67569E-05-9.49598E-16
 -1       831 2.47709E-03-2.65924E-04-4.11235E-15
 -1       832 2.76043E-03-2.73171E-04-5.04900E-15
 -1       833 3.04027E-03-2.80664E-04-6.08188E-15
 -1       834 3.31489E-03-2.90550E-04-7.20903E-15
 -1       835 3.56898E-03-3.04635E-04-8.36774E-15
 -1       836 3.82670E-03-3.27763E-04-9.67964E-15
 -1       837 4.07170E-03-3.63414E-04-1.10876E-14
 -1       838 1.02807E-02-1.95204E-03-4.12741E-14
 -1       839 3.81499E-03 2.85851E-04-7.49282E-15
 -1       840 1.05128E-02-2.15365E-03-4.43131E-14
 -1       841 1.07632E-02-2.36824E-03-4.74506E-14
 -1       842 1.10263E-02-2.59122E-03-5.06782E-14
 -1       843 1.12840E-02-2.80773E-03-5.38221E-14
 -1       844 1.15608E-02-3.03848E-03-5.72054E-14
 -1       845 1.18411E-02-3.27081E-03-6.06659E-14
 -1       846 1.21236E-02-3.50396E-03-6.42039E-14
 -1       847 1.24074E-02-3.73747E-03-6.78224E-14
 -1       848 1.26921E-02-3.97112E-03-7.15221E-14
 -1       849 1.29772E-02-4.20479E-03-7.52880E-14
 -1       850 1.32626E-02-4.43843E-03-7.91237E-14
 -1       851 1.35339E-02-4.66032E-03-8.28346E-14
 -1       852 1.38195E-02-4.89384E-03-8.68118E-14
 -1       853 1.41052E-02-5.12730E-03-9.08567E-14
 -1       854 1.43909E-02-5.36070E-03-9.49705E-14
 -1       855 1.46766E-02-5.59407E-03-9.91363E-14
 -1       856 1.48597E-02-5.74918E-03-1.01971E-13
 -1       857 2.19158E-03-2.57154E-04-3.27163E-15
 -1       858 3.51449E-03 2.84521E-04-6.36787E-15
 -1       859 4.74284E-03 2.97436E-04-1.14649E-14
 -1       860 5.05832E-03 3.02104E-04-1.29919E-14
 -1       861 5.37244E-03 3.01004E-04-1.46292E-14
 -1       862 5.68151E-03 2.85024E-04-1.63787E-14
 -1       863 5.98338E-03 2.41801E-04-1.82429E-14
 -1       864 6.27924E-03 1.59205E-04-2.02250E-14
 -1       865 6.57365E-03 3.06503E-05-2.23254E-14
 -1       866 6.87198E-03-1.41493E-04-2.45396E-14
 -1       867 7.17723E-03-3.47265E-04-2.68702E-14
 -1       868 7.48873E-03-5.73936E-04-2.93205E-14
 -1       869 7.80326E-03-8.10370E-04-3.18882E-14
 -1       870 8.11709E-03-1.04960E-03-3.45669E-14
 -1       871 8.42751E-03-1.28815E-03-3.73528E-14
 -1       872 8.73318E-03-1.52494E-03-4.02514E-14
 -1       873 9.03396E-03-1.76005E-03-4.32534E-14
 -1       874 9.33040E-03-1.99396E-03-4.63509E-14
 -1       875 9.62338E-03-2.22714E-03-4.95353E-14
 -1       876 9.91377E-03-2.45995E-03-5.28041E-14
 -1       877 1.02024E-02-2.69261E-03-5.61598E-14
 -1       878 1.04897E-02-2.92526E-03-5.96003E-14
 -1       879 1.07763E-02-3.15795E-03-6.31184E-14
 -1       880 1.10624E-02-3.39071E-03-6.67207E-14
 -1       881 1.13483E-02-3.62354E-03-7.04137E-14
 -1       882 1.16340E-02-3.85644E-03-7.41885E-14
 -1       883 1.19197E-02-4.08939E-03-7.80319E-14
 -1       884 1.22053E-02-4.32240E-03-8.19383E-14
 -1       885 1.24910E-02-4.55545E-03-8.59019E-14
 -1       886 1.27766E-02-4.78853E-03-8.99073E-14
 -1       887 1.30623E-02-5.02164E-03-9.39556E-14
 -1       888 1.44960E-02-5.59245E-03-1.00176E-13
 -1       889 1.42706E-02-5.50967E-03-9.94014E-14
 -1       890 4.42934E-03 2.92132E-04-1.00410E-14
 -1       891 1.76110E-03 2.49223E-04-1.60516E-15
 -1       892 1.90501E-03-2.45277E-04-2.52609E-15
 -1       893 1.10726E-03-2.40614E-04-9.40572E-16
 -1       894 9.51783E-03-1.63535E-03-3.69404E-14
 -1       895 1.40413E-02-5.42548E-03-9.85954E-14
 -1       896 1.38120E-02-5.34129E-03-9.77752E-14
 -1       897 6.79478E-03-4.23023E-05-2.28884E-14
 -1       898 8.78226E-03-1.31004E-03-3.41318E-14
 -1       899 1.61850E-03-2.28799E-04-1.87567E-15
 -1       900 6.11155E-03 1.13295E-04-1.87818E-14
 -1       901 4.49035E-03-3.97296E-04-1.32630E-14
 -1       902 3.21756E-03 2.83385E-04-5.34005E-15
 -1       903 4.90986E-03-3.25705E-04-1.45900E-14
 -1       904 5.30415E-03-1.51114E-04-1.54744E-14
 -1       905 9.20601E-03-1.55095E-03-3.67979E-14
 -1       906 7.30265E-03-3.36364E-04-2.59015E-14
 -1       907 5.70728E-03 5.20240E-07-1.68856E-14
 -1       908 2.33993E-03 2.72452E-04-2.82011E-15
 -1       909 8.49263E-03-1.15368E-03-3.29548E-14
 -1       910 1.35837E-02-5.25745E-03-9.69421E-14
 -1       911 1.46778E-02-5.67081E-03-1.01077E-13
 -1       912 2.04995E-03 2.63167E-04-2.16731E-15
 -1       913 1.38328E-03 9.81780E-05-1.18689E-15
 -1       914 1.43189E-03 2.29050E-04-1.06457E-15
 -1       915 2.63095E-03 2.78247E-04-3.56523E-15
 -1       916 4.19444E-03-3.17101E-04-1.13690E-14
 -1       917 5.92552E-03 1.05611E-04-1.77790E-14
 -1       918 1.41464E-03-2.11865E-04-1.47012E-15
 -1       919 1.37975E-03 3.24382E-05-1.25867E-15
 -1       920 6.53211E-03 5.67464E-05-2.13632E-14
 -1       921 1.29006E-03 2.03471E-04-8.88040E-16
 -1       922 1.40516E-03-1.43732E-04-1.43613E-15
 -1       923 1.39976E-03-7.75749E-05-1.39058E-15
 -1       924 7.02222E-03-1.77704E-04-2.44845E-14
 -1       925 7.76263E-03-6.78851E-04-2.89638E-14
 -1       926 2.32628E-03-1.92008E-04-3.61279E-15
 -1       927 2.89582E-03-2.08245E-04-5.45429E-15
 -1       928 3.17641E-03-2.18871E-04-6.51809E-15
 -1       929 3.43917E-03-2.33061E-04-7.61658E-15
 -1       930 3.71097E-03-2.54751E-04-8.86470E-15
 -1       931 3.95381E-03-2.81498E-04-1.00772E-14
 -1       932 2.92331E-03 2.81583E-04-4.40610E-15
 -1       933 3.96874E-03 1.95887E-04-8.37591E-15
 -1       934 1.01787E-02-2.00565E-03-4.23268E-14
 -1       935 1.04303E-02-2.20775E-03-4.54010E-14
 -1       936 1.06918E-02-2.42098E-03-4.85688E-14
 -1       937 1.09475E-02-2.63074E-03-5.16618E-14
 -1       938 1.12221E-02-2.85653E-03-5.49908E-14
 -1       939 1.15006E-02-3.08555E-03-5.83942E-14
 -1       940 1.17817E-02-3.31655E-03-6.18755E-14
 -1       941 1.20646E-02-3.54871E-03-6.54387E-14
 -1       942 1.23486E-02-3.78151E-03-6.90823E-14
 -1       943 1.26332E-02-4.01466E-03-7.28030E-14
 -1       944 1.29183E-02-4.24798E-03-7.65947E-14
 -1       945 1.31894E-02-4.46970E-03-8.02619E-14
 -1       946 1.34749E-02-4.70311E-03-8.41930E-14
 -1       947 1.37605E-02-4.93651E-03-8.81940E-14
 -1       948 1.40461E-02-5.16988E-03-9.22698E-14
 -1       949 1.43318E-02-5.40323E-03-9.63961E-14
 -1       950 5.58888E-03 2.21066E-04-1.58702E-14
 -1       951 3.66233E-03 1.97703E-04-7.18088E-15
 -1       952 9.92916E-03-1.80272E-03-3.90847E-14
 -1       953 5.26000E-03 2.16081E-04-1.41577E-14
 -1       954 4.92930E-03 2.06462E-04-1.25582E-14
 -1       955 5.91090E-03 2.07699E-04-1.76925E-14
 -1       956 6.22327E-03 1.57666E-04-1.96309E-14
 -1       957 6.52997E-03 5.50043E-05-2.16863E-14
 -1       958 6.83848E-03-1.03733E-04-2.38608E-14
 -1       959 7.15535E-03-3.07797E-04-2.61539E-14
 -1       960 7.48089E-03-5.39315E-04-2.85658E-14
 -1       961 7.81038E-03-7.81184E-04-3.10978E-14
 -1       962 8.13839E-03-1.02386E-03-3.37406E-14
 -1       963 8.46079E-03-1.26281E-03-3.64909E-14
 -1       964 8.77556E-03-1.49788E-03-3.93538E-14
 -1       965 9.08278E-03-1.73023E-03-4.23248E-14
 -1       966 9.38353E-03-1.96117E-03-4.53952E-14
 -1       967 9.67925E-03-2.19169E-03-4.85559E-14
 -1       968 9.97131E-03-2.42233E-03-5.17945E-14
 -1       969 1.02608E-02-2.65336E-03-5.51182E-14
 -1       970 1.05487E-02-2.88483E-03-5.85265E-14
 -1       971 1.08356E-02-3.11673E-03-6.20151E-14
 -1       972 1.11218E-02-3.34898E-03-6.55855E-14
 -1       973 1.14077E-02-3.58149E-03-6.92411E-14
 -1       974 1.16934E-02-3.81420E-03-7.29866E-14
 -1       975 1.19790E-02-4.04706E-03-7.68049E-14
 -1       976 1.22646E-02-4.28001E-03-8.06947E-14
 -1       977 1.25502E-02-4.51304E-03-8.46379E-14
 -1       978 1.28358E-02-4.74612E-03-8.86355E-14
 -1       979 1.31214E-02-4.97923E-03-9.26752E-14
 -1       980 1.41359E-02-5.34903E-03-9.61932E-14
 -1       981 4.60226E-03 1.99148E-04-1.10638E-14
 -1       982 4.58145E-03-3.31901E-04-1.31594E-14
 -1       983 2.61211E-03-1.99894E-04-4.48618E-15
 -1       984 4.28182E-03 1.95872E-04-9.67093E-15
 -1       985 1.39066E-02-5.26486E-03-9.54100E-14
 -1       986 1.36773E-02-5.18070E-03-9.46122E-14
 -1       987 1.38857E-03-2.23275E-05-1.32739E-15
 -1       988 1.75243E-03-1.71706E-04-2.14712E-15
 -1       989 1.33541E-03 1.51297E-04-1.03703E-15
 -1       990 2.03936E-03-1.83057E-04-2.83302E-15
 -1       991 1.89567E-03 1.86832E-04-2.00116E-15
 -1       992 3.36123E-03 1.99934E-04-6.08360E-15
 -1       993 5.04083E-03-2.19981E-04-1.45613E-14
 -1       994 8.10593E-03-9.33628E-04-3.15569E-14
 -1       995 8.87688E-03-1.41175E-03-3.60447E-14
 -1       996 5.44487E-03-2.92002E-05-1.56663E-14
 -1       997 5.71336E-03 8.91427E-05-1.66942E-14
 -1       998 2.18556E-03 1.94994E-04-2.63277E-15
 -1       999 9.79638E-03-1.83475E-03-4.00966E-14
 -1      1000 1.34490E-02-5.09690E-03-9.38035E-14
 -1      1001 2.47683E-03 1.99701E-04-3.35487E-15
 -1      1002 6.10620E-03 1.60210E-04-1.88119E-14
 -1      1003 1.62791E-03 7.06771E-05-1.65815E-15
 -1      1004 6.75127E-03-3.82717E-05-2.28898E-14
 -1      1005 1.47650E-03 1.73043E-04-1.23319E-15
 -1      1006 1.55117E-03 1.22917E-04-1.44116E-15
 -1      1007 5.93705E-03 1.71775E-04-1.78166E-14
 -1      1008 2.17781E-03-1.18351E-04-3.13622E-15
 -1      1009 7.45221E-03-4.78381E-04-2.74455E-14
 -1      1010 3.31523E-03-1.55546E-04-6.91503E-15
 -1      1011 3.59798E-03-1.73927E-04-8.10111E-15
 -1      1012 1.00762E-02-2.04586E-03-4.33755E-14
 -1      1013 4.69270E-03-2.49073E-04-1.31392E-14
 -1      1014 1.03451E-02-2.25196E-03-4.64808E-14
 -1      1015 1.06037E-02-2.45577E-03-4.95213E-14
 -1      1016 1.08794E-02-2.67660E-03-5.27981E-14
 -1      1017 1.11581E-02-2.90201E-03-5.61474E-14
 -1      1018 1.14389E-02-3.13048E-03-5.95753E-14
 -1      1019 1.17214E-02-3.36092E-03-6.30785E-14
 -1      1020 1.20049E-02-3.59260E-03-6.66666E-14
 -1      1021 1.22893E-02-3.82502E-03-7.03380E-14
 -1      1022 1.25741E-02-4.05787E-03-7.40825E-14
 -1      1023 1.28450E-02-4.27932E-03-7.77037E-14
 -1      1024 1.31304E-02-4.51254E-03-8.15913E-14
 -1      1025 1.34158E-02-4.74583E-03-8.55543E-14
 -1      1026 1.37014E-02-4.97913E-03-8.95816E-14
 -1      1027 1.39187E-02-5.16409E-03-9.28706E-14
 -1      1028 4.44116E-03 9.66035E-05-1.06489E-14
 -1      1029 1.89013E-03-1.10891E-04-2.41772E-15
 -1      1030 3.80843E-03 1.05788E-04-8.02027E-15
 -1      1031 4.77341E-03 9.95048E-05-1.21112E-14
 -1      1032 5.11607E-03 1.11396E-04-1.36749E-14
 -1      1033 8.49723E-03-1.24431E-03-3.56164E-14
 -1      1034 8.82175E-03-1.47726E-03-3.84443E-14
 -1      1035 9.13523E-03-1.70577E-03-4.13820E-14
 -1      1036 9.43962E-03-1.93243E-03-4.44236E-14
 -1      1037 9.73737E-03-2.15912E-03-4.75593E-14
 -1      1038 1.00304E-02-2.38666E-03-5.07758E-14
 -1      1039 1.03204E-02-2.61536E-03-5.40695E-14
 -1      1040 1.06084E-02-2.84519E-03-5.74459E-14
 -1      1041 1.08952E-02-3.07597E-03-6.09098E-14
 -1      1042 1.11814E-02-3.30749E-03-6.44465E-14
 -1      1043 1.14672E-02-3.53956E-03-6.80681E-14
 -1      1044 1.17528E-02-3.77201E-03-7.17795E-14
 -1      1045 1.20383E-02-4.00472E-03-7.55708E-14
 -1      1046 1.23238E-02-4.23760E-03-7.94361E-14
 -1      1047 1.26094E-02-4.47060E-03-8.33649E-14
 -1      1048 1.28950E-02-4.70367E-03-8.73498E-14
 -1      1049 1.64406E-03-9.42968E-05-1.86820E-15
 -1      1050 4.11997E-03 9.97101E-05-9.28529E-15
 -1      1051 9.29036E-03-1.65608E-03-3.88524E-14
 -1      1052 2.75257E-03-1.32992E-04-4.85179E-15
 -1      1053 2.03338E-03 1.20535E-04-2.42910E-15
 -1      1054 2.46557E-03-1.25337E-04-3.94778E-15
 -1      1055 1.63516E-03 1.05176E-05-1.74848E-15
 -1      1056 1.36894E-02-5.07996E-03-9.21105E-14
 -1      1057 1.34601E-02-4.99584E-03-9.13282E-14
 -1      1058 3.03467E-03-1.42525E-04-5.83744E-15
 -1      1059 4.36241E-03-2.33648E-04-1.16171E-14
 -1      1060 3.06403E-03 2.01516E-04-5.08119E-15
 -1      1061 5.07010E-03-8.52361E-05-1.40806E-14
 -1      1062 4.09292E-03-2.04770E-04-1.03165E-14
 -1      1063 2.76951E-03 2.01658E-04-4.17160E-15
 -1      1064 3.84308E-03-1.87298E-04-9.17469E-15
 -1      1065 5.46586E-03 7.17647E-05-1.54766E-14
 -1      1066 8.98812E-03-1.52423E-03-3.80517E-14
 -1      1067 8.57772E-03-1.26583E-03-3.52624E-14
 -1      1068 8.16133E-03-1.00393E-03-3.28988E-14
 -1      1069 2.32397E-03 1.23600E-04-3.12912E-15
 -1      1070 1.82989E-03 9.51978E-05-2.02671E-15
 -1      1071 1.83607E-03 3.14472E-05-2.13486E-15
 -1      1072 9.61048E-03-1.88076E-03-4.20781E-14
 -1      1073 3.50423E-03 1.12420E-04-6.85400E-15
 -1      1074 4.72765E-03-1.25287E-04-1.26924E-14
 -1      1075 3.47114E-03-8.80922E-05-7.32773E-15
 -1      1076 5.10514E-03 1.73123E-05-1.38849E-14
 -1      1077 2.61595E-03 1.24052E-04-3.92031E-15
 -1      1078 9.90329E-03-2.09249E-03-4.51412E-14
 -1      1079 2.03851E-03 5.37414E-05-2.55660E-15
 -1      1080 1.05307E-02-2.49625E-03-5.06228E-14
 -1      1081 1.08119E-02-2.71878E-03-5.39206E-14
 -1      1082 1.10940E-02-2.94495E-03-5.72951E-14
 -1      1083 1.13770E-02-3.17370E-03-6.07440E-14
 -1      1084 1.16607E-02-3.40417E-03-6.42732E-14
 -1      1085 1.19450E-02-3.63576E-03-6.78891E-14
 -1      1086 1.22298E-02-3.86806E-03-7.15840E-14
 -1      1087 1.25006E-02-4.08915E-03-7.51630E-14
 -1      1088 1.27858E-02-4.32213E-03-7.90027E-14
 -1      1089 1.30712E-02-4.55526E-03-8.29201E-14
 -1      1090 1.33567E-02-4.78847E-03-8.69075E-14
 -1      1091 1.35231E-02-4.93421E-03-8.94991E-14
 -1      1092 2.03176E-03-4.63261E-05-2.68479E-15
 -1      1093 4.59157E-03-1.02361E-05-1.16520E-14
 -1      1094 9.80006E-03-2.12922E-03-4.65445E-14
 -1      1095 1.00927E-02-2.35269E-03-4.97406E-14
 -1      1096 1.03820E-02-2.57838E-03-5.30119E-14
 -1      1097 1.06694E-02-2.80612E-03-5.63608E-14
 -1      1098 1.09557E-02-3.03551E-03-5.97912E-14
 -1      1099 1.12414E-02-3.26614E-03-6.33019E-14
 -1      1100 1.15269E-02-3.49767E-03-6.68929E-14
 -1      1101 1.18123E-02-3.72980E-03-7.05686E-14
 -1      1102 1.20977E-02-3.96234E-03-7.43286E-14
 -1      1103 1.23831E-02-4.19515E-03-7.81659E-14
 -1      1104 1.26686E-02-4.42812E-03-8.20778E-14
 -1      1105 1.30643E-02-4.71193E-03-8.66689E-14
 -1      1106 9.32220E-03-1.76090E-03-4.12458E-14
 -1      1107 2.32059E-03-5.09334E-05-3.43327E-15
 -1      1108 1.32937E-02-4.82306E-03-8.80853E-14
 -1      1109 2.60983E-03-5.65593E-05-4.27369E-15
 -1      1110 1.86148E-03-3.94762E-05-2.28078E-15
 -1      1111 3.20516E-03 1.18137E-04-5.78268E-15
 -1      1112 2.90945E-03 1.22147E-04-4.80530E-15
 -1      1113 3.18470E-03-7.42175E-05-6.22129E-15
 -1      1114 4.26334E-03-3.07423E-06-1.02200E-14
 -1      1115 3.72374E-03-9.53806E-05-8.34362E-15
 -1      1116 1.02569E-02-2.28402E-03-4.74781E-14
 -1      1117 2.89543E-03-6.39263E-05-5.19519E-15
 -1      1118 4.27075E-03-1.24751E-04-1.07155E-14
 -1      1119 9.50196E-03-1.90776E-03-4.34378E-14
 -1      1120 3.94867E-03 8.84179E-06-8.88600E-15
 -1      1121 3.64350E-03 2.11899E-05-7.65039E-15
 -1      1122 2.03441E-03 3.50894E-06-2.62388E-15
 -1      1123 1.04613E-02-2.53394E-03-5.17097E-14
 -1      1124 1.01674E-02-2.31619E-03-4.85770E-14
 -1      1125 1.07463E-02-2.75877E-03-5.50304E-14
 -1      1126 1.10309E-02-2.98630E-03-5.84284E-14
 -1      1127 1.13155E-02-3.21579E-03-6.19005E-14
 -1      1128 1.16002E-02-3.44664E-03-6.54608E-14
 -1      1129 1.18852E-02-3.67841E-03-6.91044E-14
 -1      1130 1.21560E-02-3.89914E-03-7.26375E-14
 -1      1131 1.24412E-02-4.13186E-03-7.64282E-14
 -1      1132 1.27266E-02-4.36480E-03-8.03019E-14
 -1      1133 4.00390E-03-1.14748E-04-9.55679E-15
 -1      1134 2.34106E-03 3.28948E-05-3.35063E-15
 -1      1135 1.30101E-02-4.59389E-03-8.41658E-14
 -1      1136 2.75745E-03 3.05379E-05-4.55195E-15
 -1      1137 3.34448E-03 3.19314E-05-6.51055E-15
 -1      1138 3.04829E-03 2.42805E-05-5.50223E-15
 -1      1139 0.00000E+00 0.00000E+00 0.00000E+00
 -1      1140 0.00000E+00 0.00000E+00 0.00000E+00
 -1      1141 0.00000E+00 0.00000E+00 0.00000E+00
 -1      1142 0.00000E+00 0.00000E+00 0.00000E+00
 -1      1143 0.00000E+00 0.00000E+00 0.00000E+00
 -1      1144 0.00000E+00 0.00000E+00 0.00000E+00
 -1      1145 0.00000E+00 0.00000E+00 0.00000E+00
 -1      1146 0.00000E+00 0.00000E+00 0.00000E+00
 -1      1147 0.00000E+00 0.00000E+00 0.00000E+00
 -1      1148 0.00000E+00 0.00000E+00 0.00000E+00
 -1      1149 0.00000E+00 0.00000E+00 0.00000E+00
 -1      1150 0.00000E+00 0.00000E+00 0.00000E+00
 -1      1151 0.00000E+00 0.00000E+00 0.00000E+00
 -1      1152 0.00000E+00 0.00000E+00 0.00000E+00
 -1      1153 0.00000E+00 0.00000E+00 0.00000E+00
 -1      1154 0.00000E+00 0.00000E+00 0.00000E+00
 -1      1155 0.00000E+00 0.00000E+00 0.00000E+00
 -1      1156 2.02622E-04-1.42926E-04-1.76183E-19
 -1      1157 5.36744E-04-3.29799E-04-6.99853E-17
 -1      1158 8.19532E-04-4.53126E-04-2.47320E-16
 -1      1159 1.08953E-03-5.35687E-04-5.49392E-16
 -1      1160 1.35526E-03-5.93139E-04-9.68179E-16
 -1      1161 1.62047E-03-6.33530E-04-1.50128E-15
 -1      1162 1.88718E-03-6.61507E-04-2.14658E-15
 -1      1163 2.14973E-03-6.79735E-04-2.87890E-15
 -1      1164 2.41540E-03-6.91033E-04-3.71201E-15
 -1      1165 2.69176E-03-6.96902E-04-4.67363E-15
 -1      1166 2.97298E-03-6.98045E-04-5.74135E-15
 -1      1167 3.26068E-03-6.95243E-04-6.91058E-15
 -1      1168 3.55770E-03-6.89252E-04-8.17776E-15
 -1      1169 3.86903E-03-6.81386E-04-9.53793E-15
 -1      1170 4.20296E-03-6.74859E-04-1.09885E-14
 -1      1171 4.56297E-03-6.77671E-04-1.24911E-14
 -1      1172 4.97530E-03-7.08025E-04-1.40865E-14
 -1      1173 5.47616E-03-8.11414E-04-1.58199E-14
 -1      1174 6.05599E-03-1.06119E-03-1.76033E-14
 -1      1175 6.68014E-03-1.53996E-03-1.94440E-14
 -1      1176 7.20814E-03-2.19028E-03-2.12458E-14
 -1      1177 7.53160E-03-2.76630E-03-2.29447E-14
 -1      1178 7.70318E-03-3.04469E-03-2.46310E-14
 -1      1179 7.86558E-03-2.94440E-03-2.63490E-14
 -1      1180 8.15729E-03-2.57867E-03-2.82116E-14
 -1      1181 8.62864E-03-2.15012E-03-3.03447E-14
 -1      1182 9.19197E-03-1.86806E-03-3.26712E-14
 -1      1183 9.76677E-03-1.79031E-03-3.52641E-14
 -1      1184 1.02851E-02-1.88023E-03-3.80688E-14
 -1      1185 1.07214E-02-2.05990E-03-4.09581E-14
 -1      1186 1.11078E-02-2.28351E-03-4.40275E-14
 -1      1187 1.14541E-02-2.52131E-03-4.71917E-14
 -1      1188 1.17757E-02-2.76274E-03-5.04392E-14
 -1      1189 1.20824E-02-3.00393E-03-5.37883E-14
 -1      1190 1.23803E-02-3.24374E-03-5.72404E-14
 -1      1191 1.26730E-02-3.48203E-03-6.07784E-14
 -1      1192 1.29555E-02-3.71310E-03-6.42871E-14
 -1      1193 1.32363E-02-3.94319E-03-6.78470E-14
 -1      1194 1.35233E-02-4.17841E-03-7.15700E-14
 -1      1195 1.38097E-02-4.41307E-03-7.53636E-14
 -1      1196 1.40958E-02-4.64733E-03-7.92141E-14
 -1      1197 1.43817E-02-4.88130E-03-8.31190E-14
 -1      1198 1.46675E-02-5.11506E-03-8.71059E-14
 -1      1199 1.49532E-02-5.34868E-03-9.11551E-14
 -1      1200 1.52317E-02-5.57635E-03-9.51648E-14
 -1      1201 1.55103E-02-5.80395E-03-9.92219E-14
 -1      1202 1.57960E-02-6.03734E-03-1.03438E-13
 -1      1203 1.60817E-02-6.27068E-03-1.07706E-13
 -1      1204 1.63673E-02-6.50399E-03-1.11995E-13
 -1      1205 1.66530E-02-6.73729E-03-1.16312E-13
 -1      1206 1.69387E-02-6.97058E-03-1.20640E-13
 -1      1207 1.72173E-02-7.19804E-03-1.24817E-13
 -1      1208 2.28362E-04 1.60579E-04 4.66478E-17
 -1      1209 5.53784E-04 3.41718E-04 1.06049E-16
 -1      1210 8.34537E-04 4.60460E-04 1.08149E-16
 -1      1211 1.10437E-03 5.41403E-04 3.94514E-17
 -1      1212 1.37021E-03 5.98490E-04-1.07173E-16
 -1      1213 1.63560E-03 6.39319E-04-3.37702E-16
 -1      1214 1.90234E-03 6.68541E-04-6.57148E-16
 -1      1215 2.17119E-03 6.89403E-04-1.06799E-15
 -1      1216 2.44232E-03 7.04351E-04-1.57224E-15
 -1      1217 2.71547E-03 7.15298E-04-2.17389E-15
 -1      1218 2.99007E-03 7.23728E-04-2.87825E-15
 -1      1219 3.26523E-03 7.30732E-04-3.68310E-15
 -1      1220 3.53977E-03 7.36965E-04-4.58782E-15
 -1      1221 3.81213E-03 7.42542E-04-5.59515E-15
 -1      1222 4.08051E-03 7.46864E-04-6.70324E-15
 -1      1223 4.34290E-03 7.48415E-04-7.91508E-15
 -1      1224 4.59732E-03 7.44577E-04-9.23122E-15
 -1      1225 4.84219E-03 7.31579E-04-1.06532E-14
 -1      1226 5.07674E-03 7.04673E-04-1.21835E-14
 -1      1227 5.30143E-03 6.58633E-04-1.38264E-14
 -1      1228 5.51816E-03 5.88558E-04-1.55886E-14
 -1      1229 5.73018E-03 4.90800E-04-1.74724E-14
 -1      1230 5.94162E-03 3.63768E-04-1.94780E-14
 -1      1231 6.15676E-03 2.08294E-04-2.16045E-14
 -1      1232 6.37922E-03 2.74398E-05-2.38452E-14
 -1      1233 6.61142E-03-1.74184E-04-2.61960E-14
 -1      1234 6.85437E-03-3.91335E-04-2.86633E-14
 -1      1235 7.10777E-03-6.18994E-04-3.12457E-14
 -1      1236 7.37041E-03-8.52948E-04-3.39387E-14
 -1      1237 7.64059E-03-1.09005E-03-3.67434E-14
 -1      1238 7.91651E-03-1.32822E-03-3.96526E-14
 -1      1239 8.19652E-03-1.56621E-03-4.26740E-14
 -1      1240 8.47926E-03-1.80344E-03-4.58003E-14
 -1      1241 8.76372E-03-2.03973E-03-4.90189E-14
 -1      1242 9.04916E-03-2.27512E-03-5.23223E-14
 -1      1243 9.33511E-03-2.50976E-03-5.57211E-14
 -1      1244 9.62126E-03-2.74382E-03-5.92139E-14
 -1      1245 9.90744E-03-2.97747E-03-6.27860E-14
 -1      1246 1.01936E-02-3.21086E-03-6.64251E-14
 -1      1247 1.04796E-02-3.44408E-03-7.01453E-14
 -1      1248 1.07656E-02-3.67721E-03-7.39501E-14
 -1      1249 1.10515E-02-3.91030E-03-7.78231E-14
 -1      1250 1.13373E-02-4.14338E-03-8.17464E-14
 -1      1251 1.16231E-02-4.37646E-03-8.57274E-14
 -1      1252 1.19089E-02-4.60956E-03-8.97546E-14
 -1      1253 1.21946E-02-4.84267E-03-9.37953E-14
 -1      1254 1.24803E-02-5.07581E-03-9.78356E-14
 -1      1255 1.27660E-02-5.30895E-03-1.01872E-13
 -1      1256 1.30517E-02-5.54211E-03-1.05910E-13
 -1      1257 1.33303E-02-5.76944E-03-1.09855E-13
 -1      1258 1.35806E-02-5.92234E-03-1.12246E-13
 -1      1259 1.38099E-02-6.00662E-03-1.13239E-13
 -1      1260 1.40392E-02-6.09091E-03-1.14247E-13
 -1      1261 1.42685E-02-6.17520E-03-1.15257E-13
 -1      1262 1.44978E-02-6.25949E-03-1.16263E-13
 -1      1263 1.47251E-02-6.34306E-03-1.17253E-13
 -1      1264 1.49525E-02-6.42662E-03-1.18256E-13
 -1      1265 1.51818E-02-6.51091E-03-1.19242E-13
 -1      1266 1.54111E-02-6.59519E-03-1.20192E-13
 -1      1267 1.56404E-02-6.67948E-03-1.21106E-13
 -1      1268 1.58698E-02-6.76378E-03-1.21957E-13
 -1      1269 1.60972E-02-6.84736E-03-1.22770E-13
 -1      1270 1.63246E-02-6.93095E-03-1.23558E-13
 -1      1271 1.65540E-02-7.01525E-03-1.24323E-13
 -1      1272 1.67834E-02-7.09955E-03-1.25069E-13
 -1      1273 1.70128E-02-7.18385E-03-1.25782E-13
 -1      1274 1.72403E-02-7.26742E-03-1.26497E-13
 -1      1275 9.87234E-03-1.18320E-03-2.91326E-14
 -1      1276 9.61668E-03-1.00497E-03-2.86660E-14
 -1      1277 9.27269E-03-8.22432E-04-2.79935E-14
 -1      1278 8.84949E-03-6.30608E-04-2.71211E-14
 -1      1279 8.36549E-03-4.38974E-04-2.60763E-14
 -1      1280 7.82640E-03-2.64015E-04-2.48769E-14
 -1      1281 7.28493E-03-1.33894E-04-2.36585E-14
 -1      1282 6.76741E-03-7.05320E-05-2.25020E-14
 -1      1283 6.25360E-03-6.71194E-05-2.14015E-14
 -1      1284 5.79557E-03-1.19323E-04-2.04871E-14
 -1      1285 5.37080E-03-2.15970E-04-1.97198E-14
 -1      1286 5.00786E-03-3.40681E-04-1.91453E-14
 -1      1287 4.75382E-03-4.72301E-04-1.88098E-14
 -1      1288 4.59908E-03-6.16259E-04-1.86751E-14
 -1      1289 4.55784E-03-7.81202E-04-1.87427E-14
 -1      1290 4.64164E-03-9.73248E-04-1.90150E-14
 -1      1291 4.85375E-03-1.21301E-03-1.94986E-14
 -1      1292 5.18831E-03-1.51411E-03-2.01672E-14
 -1      1293 5.66085E-03-1.89892E-03-2.10460E-14
 -1      1294 6.23528E-03-2.31355E-03-2.20721E-14
 -1      1295 6.89701E-03-2.66487E-03-2.32271E-14
 -1      1296 7.58986E-03-2.82854E-03-2.44353E-14
 -1      1297 8.22217E-03-2.75799E-03-2.55568E-14
 -1      1298 8.78534E-03-2.53118E-03-2.65960E-14
 -1      1299 9.26591E-03-2.23686E-03-2.75422E-14
 -1      1300 9.63667E-03-1.95717E-03-2.83251E-14
 -1      1301 9.88577E-03-1.72074E-03-2.89079E-14
 -1      1302 1.00090E-02-1.52282E-03-2.92506E-14
 -1      1303 1.00039E-02-1.35318E-03-2.93248E-14
 -1      1304 1.58678E-04-1.05018E-04-1.53144E-17
 -1      1305 1.12536E-04-5.68296E-05-3.05338E-17
 -1      1306 1.17563E-04-6.73856E-05-2.63190E-17
 -1      1307 1.08460E-04-4.33464E-05-3.70797E-17
 -1      1308 1.10316E-04-4.94623E-05-3.53450E-17
 -1      1309 2.26377E-04-1.07352E-04-8.37682E-17
 -1      1310 1.06893E-04-3.34624E-05-3.94785E-17
 -1      1311 1.07739E-04-3.81904E-05-3.89229E-17
 -1      1312 2.19196E-04-8.21677E-05-9.42714E-17
 -1      1313 1.06099E-04-2.51974E-05-3.99664E-17
 -1      1314 1.06541E-04-2.92219E-05-4.00071E-17
 -1      1315 2.15968E-04-6.29660E-05-9.80254E-17
 -1      1316 1.05670E-04-1.79677E-05-3.94650E-17
 -1      1317 1.05910E-04-2.15185E-05-3.98444E-17
 -1      1318 2.14258E-04-4.69013E-05-9.82829E-17
 -1      1319 1.05431E-04-1.11598E-05-3.80555E-17
 -1      1320 1.05563E-04-1.45213E-05-3.85840E-17
 -1      1321 2.13292E-04-3.25364E-05-9.61552E-17
 -1      1322 1.05317E-04-4.66250E-06-3.62937E-17
 -1      1323 1.05375E-04-7.88932E-06-3.68764E-17
 -1      1324 2.12757E-04-1.90674E-05-9.24824E-17
 -1      1325 1.05298E-04 1.71568E-06-3.40168E-17
 -1      1326 1.05298E-04-1.47197E-06-3.47351E-17
 -1      1327 2.12516E-04-6.14307E-06-8.79152E-17
 -1      1328 1.05370E-04 8.14882E-06-3.13334E-17
 -1      1329 1.05312E-04 4.91128E-06-3.20924E-17
 -1      1330 2.12514E-04 6.62297E-06-8.22909E-17
 -1      1331 1.05554E-04 1.48171E-05-2.79724E-17
 -1      1332 1.05422E-04 1.14342E-05-2.90702E-17
 -1      1333 2.12751E-04 1.95896E-05-7.54469E-17
 -1      1334 1.05898E-04 2.18089E-05-2.35407E-17
 -1      1335 1.05657E-04 1.82290E-05-2.49909E-17
 -1      1336 2.13281E-04 3.30239E-05-6.68004E-17
 -1      1337 1.06536E-04 2.96596E-05-1.79842E-17
 -1      1338 1.06089E-04 2.55887E-05-1.99087E-17
 -1      1339 2.14248E-04 4.75061E-05-5.59584E-17
 -1      1340 1.07749E-04 3.87556E-05-1.09369E-17
 -1      1341 1.06889E-04 3.39597E-05-1.36338E-17
 -1      1342 2.15991E-04 6.38929E-05-4.25685E-17
 -1      1343 1.10297E-04 5.02048E-05-1.07065E-18
 -1      1344 1.08458E-04 4.40148E-05-5.31259E-18
 -1      1345 2.19267E-04 8.34027E-05-2.52890E-17
 -1      1346 1.16959E-04 6.74964E-05 1.27394E-17
 -1      1347 1.12212E-04 5.76381E-05 6.27482E-18
 -1      1348 2.26377E-04 1.09164E-04-2.18196E-18
 -1      1349 1.57575E-04 1.09747E-04 3.21330E-17
 -1      1350 1.35687E-04 8.59675E-05 2.14401E-17
 -1      1351 2.56102E-04 1.51825E-04 2.45301E-17
 -1      1352 3.35097E-04 2.20467E-04 5.87095E-17
 -1      1353 4.05997E-04-2.53236E-04-7.24112E-17
 -1      1354 5.59615E-04-3.29591E-04-1.33601E-16
 -1      1355 7.07282E-04-3.91115E-04-2.27479E-16
 -1      1356 8.50857E-04-4.41074E-04-3.51471E-16
 -1      1357 5.97267E-04-3.24247E-04-2.04928E-16
 -1      1358 9.91203E-04-4.82571E-04-5.03734E-16
 -1      1359 1.12932E-03-5.16805E-04-6.84931E-16
 -1      1360 8.91210E-04-4.26143E-04-4.56652E-16
 -1      1361 1.26606E-03-5.45681E-04-8.94494E-16
 -1      1362 1.40196E-03-5.69679E-04-1.13242E-15
 -1      1363 1.17425E-03-4.96067E-04-8.20985E-16
 -1      1364 1.53748E-03-5.89870E-04-1.39835E-15
 -1      1365 1.67291E-03-6.06594E-04-1.69172E-15
 -1      1366 1.45179E-03-5.44753E-04-1.29637E-15
 -1      1367 1.80850E-03-6.20463E-04-2.01221E-15
 -1      1368 1.94441E-03-6.31772E-04-2.36029E-15
 -1      1369 1.72724E-03-5.78416E-04-1.88093E-15
 -1      1370 2.07397E-03-6.40474E-04-2.71519E-15
 -1      1371 2.20403E-03-6.47414E-04-3.09392E-15
 -1      1372 1.99579E-03-6.00520E-04-2.55358E-15
 -1      1373 2.34161E-03-6.53016E-04-3.51825E-15
 -1      1374 2.47993E-03-6.57090E-04-3.96886E-15
 -1      1375 2.26550E-03-6.14549E-04-3.32692E-15
 -1      1376 2.61914E-03-6.59738E-04-4.44664E-15
 -1      1377 2.75933E-03-6.61165E-04-4.95110E-15
 -1      1378 2.54424E-03-6.22345E-04-4.22369E-15
 -1      1379 2.90066E-03-6.61371E-04-5.48163E-15
 -1      1380 3.04332E-03-6.60572E-04-6.03696E-15
 -1      1381 2.82597E-03-6.24704E-04-5.22562E-15
 -1      1382 3.18753E-03-6.58671E-04-6.61747E-15
 -1      1383 3.33364E-03-6.55946E-04-7.22264E-15
 -1      1384 3.11175E-03-6.22418E-04-6.32899E-15
 -1      1385 3.48199E-03-6.52223E-04-7.85209E-15
 -1      1386 3.63314E-03-6.47932E-04-8.50534E-15
 -1      1387 3.40313E-03-6.16000E-04-7.53117E-15
 -1      1388 3.78767E-03-6.42893E-04-9.18050E-15
 -1      1389 3.94645E-03-6.37853E-04-9.87953E-15
 -1      1390 3.70243E-03-6.06046E-04-8.82860E-15
 -1      1391 4.11035E-03-6.32868E-04-1.06014E-14
 -1      1392 4.28071E-03-6.29325E-04-1.13451E-14
 -1      1393 4.01310E-03-5.94061E-04-1.02180E-14
 -1      1394 4.44962E-03-6.28116E-04-1.20742E-14
 -1      1395 4.62709E-03-6.31247E-04-1.28243E-14
 -1      1396 4.33156E-03-5.84598E-04-1.16617E-14
 -1      1397 4.82448E-03-6.42327E-04-1.36377E-14
 -1      1398 5.03491E-03-6.66493E-04-1.44756E-14
 -1      1399 4.67124E-03-5.87980E-04-1.31938E-14
 -1      1400 5.25989E-03-7.11031E-04-1.53372E-14
 -1      1401 5.50125E-03-7.86761E-04-1.62234E-14
 -1      1402 5.04946E-03-6.32026E-04-1.48604E-14
 -1      1403 5.74640E-03-8.98999E-04-1.70876E-14
 -1      1404 6.00562E-03-1.06595E-03-1.79769E-14
 -1      1405 5.45792E-03-7.70548E-04-1.65790E-14
 -1      1406 6.27811E-03-1.29651E-03-1.88932E-14
 -1      1407 6.55501E-03-1.60150E-03-1.98391E-14
 -1      1408 5.90829E-03-1.08864E-03-1.83479E-14
 -1      1409 6.78947E-03-1.90758E-03-2.06599E-14
 -1      1410 7.01143E-03-2.23958E-03-2.15024E-14
 -1      1411 6.37921E-03-1.62340E-03-2.00743E-14
 -1      1412 7.60123E-03-2.99941E-03-2.41639E-14
 -1      1413 7.73321E-03-3.04070E-03-2.49961E-14
 -1      1414 7.86956E-03-2.97912E-03-2.58492E-14
 -1      1415 8.02027E-03-2.84012E-03-2.67263E-14
 -1      1416 7.81587E-03-2.98594E-03-2.53551E-14
 -1      1417 8.20266E-03-2.63083E-03-2.76807E-14
 -1      1418 8.40324E-03-2.40691E-03-2.86549E-14
 -1      1419 8.21217E-03-2.68295E-03-2.71544E-14
 -1      1420 8.64902E-03-2.17000E-03-2.97824E-14
 -1      1421 8.90331E-03-1.97761E-03-3.09288E-14
 -1      1422 8.66873E-03-2.20365E-03-2.92284E-14
 -1      1423 9.15749E-03-1.84418E-03-3.20904E-14
 -1      1424 9.40562E-03-1.76528E-03-3.32656E-14
 -1      1425 9.14877E-03-1.83476E-03-3.15132E-14
 -1      1426 9.68234E-03-1.73524E-03-3.46668E-14
 -1      1427 9.94193E-03-1.75594E-03-3.60863E-14
 -1      1428 9.63119E-03-1.68942E-03-3.40698E-14
 -1      1429 1.01712E-02-1.81031E-03-3.74546E-14
 -1      1430 1.03850E-02-1.88787E-03-3.88404E-14
 -1      1431 1.00842E-02-1.74455E-03-3.68411E-14
 -1      1432 1.05952E-02-1.98553E-03-4.03238E-14
 -1      1433 1.07920E-02-2.09424E-03-4.18328E-14
 -1      1434 1.04869E-02-1.91244E-03-3.96914E-14
 -1      1435 1.09780E-02-2.20906E-03-4.33656E-14
 -1      1436 1.11548E-02-2.32771E-03-4.49260E-14
 -1      1437 1.08588E-02-2.13460E-03-4.27090E-14
 -1      1438 1.13244E-02-2.44816E-03-4.65079E-14
 -1      1439 1.14881E-02-2.56949E-03-4.81107E-14
 -1      1440 1.12008E-02-2.37463E-03-4.58251E-14
 -1      1441 1.16472E-02-2.69103E-03-4.97349E-14
 -1      1442 1.18026E-02-2.81238E-03-5.13826E-14
 -1      1443 1.15221E-02-2.61891E-03-4.90318E-14
 -1      1444 1.19552E-02-2.93341E-03-5.30572E-14
 -1      1445 1.21056E-02-3.05397E-03-5.47577E-14
 -1      1446 1.18299E-02-2.86256E-03-5.23297E-14
 -1      1447 1.22542E-02-3.17410E-03-5.64813E-14
 -1      1448 1.24015E-02-3.29375E-03-5.82271E-14
 -1      1449 1.21292E-02-3.10423E-03-5.57258E-14
 -1      1450 1.25478E-02-3.41301E-03-5.99926E-14
 -1      1451 1.26933E-02-3.53187E-03-6.17763E-14
 -1      1452 1.24232E-02-3.34383E-03-5.92123E-14
 -1      1453 1.28309E-02-3.64450E-03-6.34847E-14
 -1      1454 1.29681E-02-3.75685E-03-6.52040E-14
 -1      1455 1.27066E-02-3.57579E-03-6.26831E-14
 -1      1456 1.31121E-02-3.87487E-03-6.70308E-14
 -1      1457 1.32559E-02-3.99267E-03-6.88733E-14
 -1      1458 1.29881E-02-3.80648E-03-6.62156E-14
 -1      1459 1.33994E-02-4.11030E-03-7.07346E-14
 -1      1460 1.35428E-02-4.22776E-03-7.26122E-14
 -1      1461 1.32757E-02-4.04213E-03-6.99002E-14
 -1      1462 1.36861E-02-4.34509E-03-7.45051E-14
 -1      1463 1.38292E-02-4.46231E-03-7.64158E-14
 -1      1464 1.35625E-02-4.27707E-03-7.36517E-14
 -1      1465 1.39723E-02-4.57943E-03-7.83402E-14
 -1      1466 1.41153E-02-4.69648E-03-8.02779E-14
 -1      1467 1.38488E-02-4.51151E-03-7.74697E-14
 -1      1468 1.42583E-02-4.81346E-03-8.22346E-14
 -1      1469 1.44012E-02-4.93038E-03-8.42093E-14
 -1      1470 1.41349E-02-4.74561E-03-8.13488E-14
 -1      1471 1.45441E-02-5.04726E-03-8.62018E-14
 -1      1472 1.46870E-02-5.16410E-03-8.82100E-14
 -1      1473 1.44208E-02-4.97945E-03-8.53003E-14
 -1      1474 1.48299E-02-5.28091E-03-9.02364E-14
 -1      1475 1.49728E-02-5.39768E-03-9.22772E-14
 -1      1476 1.47066E-02-5.21313E-03-8.93201E-14
 -1      1477 1.51085E-02-5.50860E-03-9.42315E-14
 -1      1478 1.52442E-02-5.61950E-03-9.61979E-14
 -1      1479 1.49852E-02-5.44084E-03-9.32997E-14
 -1      1480 1.53871E-02-5.73621E-03-9.82775E-14
 -1      1481 1.55299E-02-5.85292E-03-1.00370E-13
 -1      1482 1.52638E-02-5.66847E-03-9.73327E-14
 -1      1483 1.56728E-02-5.96961E-03-1.02480E-13
 -1      1484 1.58156E-02-6.08628E-03-1.04602E-13
 -1      1485 1.55495E-02-5.90187E-03-1.01524E-13
 -1      1486 1.59584E-02-6.20295E-03-1.06732E-13
 -1      1487 1.61013E-02-6.31962E-03-1.08875E-13
 -1      1488 1.58352E-02-6.13523E-03-1.05764E-13
 -1      1489 1.62441E-02-6.43627E-03-1.11018E-13
 -1      1490 1.63870E-02-6.55292E-03-1.13164E-13
 -1      1491 1.61209E-02-6.36855E-03-1.10038E-13
 -1      1492 1.65298E-02-6.66957E-03-1.15325E-13
 -1      1493 1.66727E-02-6.78622E-03-1.17488E-13
 -1      1494 1.64066E-02-6.60185E-03-1.14339E-13
 -1      1495 1.68155E-02-6.90286E-03-1.19642E-13
 -1      1496 1.69584E-02-7.01950E-03-1.21794E-13
 -1      1497 1.66923E-02-6.83514E-03-1.18653E-13
 -1      1498 1.70315E-02-7.08805E-03-1.23128E-13
 -1      1499 1.71672E-02-7.19887E-03-1.25164E-13
 -1      1500 1.70544E-02-7.15744E-03-1.24806E-13
 -1      1501 1.69083E-02-7.02033E-03-1.22138E-13
 -1      1502 6.43200E-04 3.71430E-04 8.00954E-17
 -1      1503 4.93005E-04 3.03259E-04 7.67073E-17
 -1      1504 4.44981E-04 2.65460E-04 5.13641E-17
 -1      1505 9.28999E-04 4.71123E-04 3.62124E-17
 -1      1506 7.88028E-04 4.25763E-04 6.70172E-17
 -1      1507 7.45003E-04 3.89974E-04 3.01950E-17
 -1      1508 1.20419E-03 5.40295E-04-8.05698E-17
 -1      1509 1.06736E-03 5.08714E-04-1.23192E-17
 -1      1510 1.03126E-03 4.75128E-04-5.95498E-17
 -1      1511 1.47515E-03 5.89401E-04-2.78125E-16
 -1      1512 1.33988E-03 5.66955E-04-1.68946E-16
 -1      1513 1.30948E-03 5.34751E-04-2.25731E-16
 -1      1514 1.74516E-03 6.24422E-04-5.61332E-16
 -1      1515 1.61010E-03 6.08420E-04-4.08568E-16
 -1      1516 1.58409E-03 5.77040E-04-4.74637E-16
 -1      1517 2.01588E-03 6.49332E-04-9.34149E-16
 -1      1518 1.88035E-03 6.37959E-04-7.36200E-16
 -1      1519 1.85767E-03 6.07027E-04-8.10617E-16
 -1      1520 2.28801E-03 6.67034E-04-1.39920E-15
 -1      1521 2.15173E-03 6.58946E-04-1.15500E-15
 -1      1522 2.13157E-03 6.28232E-04-1.23713E-15
 -1      1523 2.56168E-03 6.79761E-04-1.95964E-15
 -1      1524 2.42465E-03 6.73915E-04-1.66726E-15
 -1      1525 2.40636E-03 6.43286E-04-1.75732E-15
 -1      1526 2.83666E-03 6.89260E-04-2.61961E-15
 -1      1527 2.69903E-03 6.84838E-04-2.27704E-15
 -1      1528 2.68214E-03 6.54228E-04-2.37432E-15
 -1      1529 3.11238E-03 6.96869E-04-3.37957E-15
 -1      1530 2.97447E-03 6.93254E-04-2.98686E-15
 -1      1531 2.95867E-03 6.62651E-04-3.09049E-15
 -1      1532 3.38796E-03 7.03525E-04-4.23930E-15
 -1      1533 3.25025E-03 7.00303E-04-3.79692E-15
 -1      1534 3.23537E-03 6.69745E-04-3.90607E-15
 -1      1535 3.66227E-03 7.09690E-04-5.20054E-15
 -1      1536 3.52535E-03 7.06697E-04-4.70710E-15
 -1      1537 3.51145E-03 6.76275E-04-4.82145E-15
 -1      1538 3.93387E-03 7.15210E-04-6.26231E-15
 -1      1539 3.79850E-03 7.12610E-04-5.71843E-15
 -1      1540 3.78582E-03 6.82474E-04-5.83730E-15
 -1      1541 4.20114E-03 7.19121E-04-7.42642E-15
 -1      1542 4.06815E-03 7.17509E-04-6.83130E-15
 -1      1543 4.05721E-03 6.87871E-04-6.95449E-15
 -1      1544 4.46240E-03 7.19425E-04-8.69480E-15
 -1      1545 4.33263E-03 7.19934E-04-8.04776E-15
 -1      1546 4.32420E-03 6.91066E-04-8.17507E-15
 -1      1547 4.71615E-03 7.12944E-04-1.00675E-14
 -1      1548 4.59030E-03 7.17307E-04-9.36810E-15
 -1      1549 4.58543E-03 6.89525E-04-9.49954E-15
 -1      1550 4.96140E-03 6.95343E-04-1.15473E-14
 -1      1551 4.83988E-03 7.05852E-04-1.07938E-14
 -1      1552 4.83981E-03 6.79476E-04-1.09297E-14
 -1      1553 5.19802E-03 6.61451E-04-1.31369E-14
 -1      1554 5.08077E-03 6.80756E-04-1.23279E-14
 -1      1555 5.08678E-03 6.56059E-04-1.24671E-14
 -1      1556 5.42698E-03 6.05920E-04-1.48429E-14
 -1      1557 5.31336E-03 6.36663E-04-1.39742E-14
 -1      1558 5.32667E-03 6.13803E-04-1.41172E-14
 -1      1559 5.65045E-03 5.24153E-04-1.66678E-14
 -1      1560 5.53924E-03 5.68483E-04-1.57402E-14
 -1      1561 5.56076E-03 5.47448E-04-1.58857E-14
 -1      1562 5.87154E-03 4.13255E-04-1.86169E-14
 -1      1563 5.76108E-03 4.72366E-04-1.76273E-14
 -1      1564 5.79131E-03 4.52953E-04-1.77764E-14
 -1      1565 6.09380E-03 2.72699E-04-2.06834E-14
 -1      1566 5.98229E-03 3.46551E-04-1.96354E-14
 -1      1567 6.02120E-03 3.28391E-04-1.97871E-14
 -1      1568 6.32061E-03 1.04454E-04-2.28690E-14
 -1      1569 6.20643E-03 1.91777E-04-2.17618E-14
 -1      1570 6.25347E-03 1.74407E-04-2.19150E-14
 -1      1571 6.55462E-03-8.74798E-05-2.51675E-14
 -1      1572 6.43658E-03 1.11142E-05-2.40042E-14
 -1      1573 6.49076E-03-5.93709E-06-2.41583E-14
 -1      1574 6.79736E-03-2.97933E-04-2.75790E-14
 -1      1575 6.67483E-03-1.90739E-04-2.63585E-14
 -1      1576 6.73491E-03-2.07870E-04-2.65154E-14
 -1      1577 7.04922E-03-5.21533E-04-3.01060E-14
 -1      1578 6.92215E-03-4.08401E-04-2.88289E-14
 -1      1579 6.98679E-03-4.25892E-04-2.89881E-14
 -1      1580 7.30964E-03-7.53476E-04-3.27459E-14
 -1      1581 7.17842E-03-6.36707E-04-3.14131E-14
 -1      1582 7.24635E-03-6.54710E-04-3.15753E-14
 -1      1583 7.57746E-03-9.89972E-04-3.54970E-14
 -1      1584 7.44272E-03-8.71327E-04-3.41070E-14
 -1      1585 7.51284E-03-8.89884E-04-3.42711E-14
 -1      1586 7.85120E-03-1.22836E-03-3.83553E-14
 -1      1587 7.71368E-03-1.10904E-03-3.69125E-14
 -1      1588 7.78514E-03-1.12811E-03-3.70768E-14
 -1      1589 8.12939E-03-1.46698E-03-4.13206E-14
 -1      1590 7.98983E-03-1.34769E-03-3.98253E-14
 -1      1591 8.06199E-03-1.36721E-03-3.99914E-14
 -1      1592 8.41074E-03-1.70496E-03-4.43966E-14
 -1      1593 8.26975E-03-1.58607E-03-4.28445E-14
 -1      1594 8.34221E-03-1.60593E-03-4.30123E-14
 -1      1595 8.69419E-03-1.94194E-03-4.75686E-14
 -1      1596 8.55226E-03-1.82358E-03-4.59708E-14
 -1      1597 8.62478E-03-1.84369E-03-4.61364E-14
 -1      1598 8.97894E-03-2.17791E-03-5.08305E-14
 -1      1599 8.83644E-03-2.06005E-03-4.91891E-14
 -1      1600 8.90890E-03-2.08035E-03-4.93552E-14
 -1      1601 9.26445E-03-2.41299E-03-5.41821E-14
 -1      1602 9.12163E-03-2.29555E-03-5.24948E-14
 -1      1603 9.19396E-03-2.31597E-03-5.26616E-14
 -1      1604 9.55034E-03-2.64737E-03-5.76242E-14
 -1      1605 9.40736E-03-2.53026E-03-5.58913E-14
 -1      1606 9.47957E-03-2.55074E-03-5.60581E-14
 -1      1607 9.83639E-03-2.88124E-03-6.11546E-14
 -1      1608 9.69335E-03-2.76436E-03-5.93798E-14
 -1      1609 9.76544E-03-2.78488E-03-5.95417E-14
 -1      1610 1.01225E-02-3.11475E-03-6.47618E-14
 -1      1611 9.97943E-03-2.99803E-03-6.29485E-14
 -1      1612 1.00514E-02-3.01857E-03-6.31085E-14
 -1      1613 1.04085E-02-3.34804E-03-6.84393E-14
 -1      1614 1.02655E-02-3.23142E-03-6.65911E-14
 -1      1615 1.03374E-02-3.25197E-03-6.67523E-14
 -1      1616 1.06945E-02-3.58121E-03-7.22031E-14
 -1      1617 1.05515E-02-3.46464E-03-7.03114E-14
 -1      1618 1.06234E-02-3.48519E-03-7.04740E-14
 -1      1619 1.09804E-02-3.81431E-03-7.60422E-14
 -1      1620 1.08374E-02-3.69776E-03-7.41146E-14
 -1      1621 1.09093E-02-3.71831E-03-7.42741E-14
 -1      1622 1.12662E-02-4.04738E-03-7.99372E-14
 -1      1623 1.11233E-02-3.93084E-03-7.79829E-14
 -1      1624 1.11952E-02-3.95139E-03-7.81417E-14
 -1      1625 1.15521E-02-4.28045E-03-8.38890E-14
 -1      1626 1.14092E-02-4.16392E-03-8.19061E-14
 -1      1627 1.14810E-02-4.18445E-03-8.20637E-14
 -1      1628 1.18378E-02-4.51354E-03-8.78906E-14
 -1      1629 1.16949E-02-4.39699E-03-8.58851E-14
 -1      1630 1.17668E-02-4.41753E-03-8.60394E-14
 -1      1631 1.21236E-02-4.74664E-03-9.19256E-14
 -1      1632 1.19807E-02-4.63009E-03-8.99064E-14
 -1      1633 1.20525E-02-4.65062E-03-9.00562E-14
 -1      1634 1.24093E-02-4.97976E-03-9.59659E-14
 -1      1635 1.22664E-02-4.86320E-03-9.39439E-14
 -1      1636 1.23383E-02-4.88373E-03-9.40945E-14
 -1      1637 1.26950E-02-5.21290E-03-1.00012E-13
 -1      1638 1.25522E-02-5.09633E-03-9.79887E-14
 -1      1639 1.26240E-02-5.11686E-03-9.81425E-14
 -1      1640 1.29807E-02-5.44605E-03-1.04056E-13
 -1      1641 1.28379E-02-5.32948E-03-1.02034E-13
 -1      1642 1.29097E-02-5.35000E-03-1.02196E-13
 -1      1643 1.32664E-02-5.67921E-03-1.08101E-13
 -1      1644 1.31236E-02-5.56263E-03-1.06078E-13
 -1      1645 1.31954E-02-5.58316E-03-1.06248E-13
 -1      1646 1.34449E-02-5.81158E-03-1.10333E-13
 -1      1647 1.37435E-02-5.92673E-03-1.11731E-13
 -1      1648 1.36289E-02-5.88459E-03-1.11235E-13
 -1      1649 1.39728E-02-6.01102E-03-1.12722E-13
 -1      1650 1.38582E-02-5.96888E-03-1.12227E-13
 -1      1651 1.36771E-02-5.84685E-03-1.10213E-13
 -1      1652 1.42021E-02-6.09531E-03-1.13721E-13
 -1      1653 1.40874E-02-6.05316E-03-1.13221E-13
 -1      1654 1.39064E-02-5.93113E-03-1.11192E-13
 -1      1655 1.44314E-02-6.17959E-03-1.14710E-13
 -1      1656 1.43167E-02-6.13745E-03-1.14219E-13
 -1      1657 1.41357E-02-6.01541E-03-1.12176E-13
 -1      1658 1.46568E-02-6.26244E-03-1.15683E-13
 -1      1659 1.45441E-02-6.22102E-03-1.15195E-13
 -1      1660 1.43631E-02-6.09898E-03-1.13146E-13
 -1      1661 1.48861E-02-6.34672E-03-1.16667E-13
 -1      1662 1.47715E-02-6.30458E-03-1.16176E-13
 -1      1663 1.45904E-02-6.18254E-03-1.14109E-13
 -1      1664 1.51154E-02-6.43100E-03-1.17627E-13
 -1      1665 1.50008E-02-6.38886E-03-1.17150E-13
 -1      1666 1.48197E-02-6.26682E-03-1.15068E-13
 -1      1667 1.53447E-02-6.51528E-03-1.18556E-13
 -1      1668 1.52301E-02-6.47314E-03-1.18095E-13
 -1      1669 1.50490E-02-6.35109E-03-1.16005E-13
 -1      1670 1.55741E-02-6.59957E-03-1.19446E-13
 -1      1671 1.54594E-02-6.55743E-03-1.19008E-13
 -1      1672 1.52784E-02-6.43537E-03-1.16916E-13
 -1      1673 1.58034E-02-6.68386E-03-1.20291E-13
 -1      1674 1.56887E-02-6.64171E-03-1.19871E-13
 -1      1675 1.55077E-02-6.51965E-03-1.17789E-13
 -1      1676 1.60289E-02-6.76673E-03-1.21091E-13
 -1      1677 1.59161E-02-6.72529E-03-1.20696E-13
 -1      1678 1.57351E-02-6.60322E-03-1.18619E-13
 -1      1679 1.62582E-02-6.85102E-03-1.21874E-13
 -1      1680 1.61436E-02-6.80887E-03-1.21487E-13
 -1      1681 1.59625E-02-6.68680E-03-1.19417E-13
 -1      1682 1.64876E-02-6.93532E-03-1.22637E-13
 -1      1683 1.63729E-02-6.89317E-03-1.22262E-13
 -1      1684 1.61919E-02-6.77109E-03-1.20196E-13
 -1      1685 1.67170E-02-7.01961E-03-1.23378E-13
 -1      1686 1.66023E-02-6.97747E-03-1.23007E-13
 -1      1687 1.64213E-02-6.85538E-03-1.20951E-13
 -1      1688 1.69431E-02-7.10960E-03-1.24272E-13
 -1      1689 1.68284E-02-7.06745E-03-1.23913E-13
 -1      1690 1.66473E-02-6.94537E-03-1.21860E-13
 -1      1691 1.68700E-02-7.04105E-03-1.22935E-13
 -1      1692 9.82510E-03-1.23353E-03-2.96211E-14
 -1      1693 9.92977E-03-1.28804E-03-2.97930E-14
 -1      1694 9.50007E-03-1.08861E-03-2.90398E-14
 -1      1695 9.66407E-03-1.15931E-03-2.93362E-14
 -1      1696 9.10082E-03-8.94527E-04-2.81925E-14
 -1      1697 9.29420E-03-9.81535E-04-2.85739E-14
 -1      1698 8.60821E-03-6.80810E-04-2.72107E-14
 -1      1699 8.83918E-03-7.91050E-04-2.77152E-14
 -1      1700 8.11786E-03-4.37754E-04-2.60180E-14
 -1      1701 8.34381E-03-5.46155E-04-2.65626E-14
 -1      1702 7.56294E-03-2.08060E-04-2.46768E-14
 -1      1703 7.80240E-03-3.14674E-04-2.53351E-14
 -1      1704 7.12605E-03-6.78588E-05-2.33670E-14
 -1      1705 7.32793E-03-1.19653E-04-2.39254E-14
 -1      1706 6.66585E-03-1.27401E-05-2.20989E-14
 -1      1707 6.87801E-03-2.42389E-05-2.26822E-14
 -1      1708 6.21108E-03-5.79447E-05-2.09796E-14
 -1      1709 6.41688E-03-2.81606E-05-2.14797E-14
 -1      1710 5.78999E-03-1.61684E-04-2.00589E-14
 -1      1711 5.98022E-03-1.08098E-04-2.04559E-14
 -1      1712 5.37475E-03-3.19229E-04-1.91960E-14
 -1      1713 5.57532E-03-2.45425E-04-1.95411E-14
 -1      1714 4.98971E-03-4.53131E-04-1.87090E-14
 -1      1715 5.14879E-03-3.90070E-04-1.89263E-14
 -1      1716 4.72204E-03-5.67619E-04-1.84271E-14
 -1      1717 4.83100E-03-5.16207E-04-1.85391E-14
 -1      1718 4.56393E-03-6.78059E-04-1.83093E-14
 -1      1719 4.62245E-03-6.29097E-04-1.83269E-14
 -1      1720 4.54918E-03-7.89825E-04-1.84290E-14
 -1      1721 4.53710E-03-7.37138E-04-1.83474E-14
 -1      1722 4.68810E-03-9.39480E-04-1.87916E-14
 -1      1723 4.60506E-03-8.65964E-04-1.86084E-14
 -1      1724 4.98049E-03-1.15520E-03-1.93518E-14
 -1      1725 4.82630E-03-1.04482E-03-1.90654E-14
 -1      1726 5.40157E-03-1.46156E-03-2.00947E-14
 -1      1727 5.19337E-03-1.30725E-03-1.97307E-14
 -1      1728 5.98485E-03-1.89363E-03-2.10690E-14
 -1      1729 5.70527E-03-1.66787E-03-2.05687E-14
 -1      1730 6.54720E-03-2.37514E-03-2.21916E-14
 -1      1731 6.28670E-03-2.16526E-03-2.16883E-14
 -1      1732 7.18498E-03-2.78723E-03-2.34922E-14
 -1      1733 6.89958E-03-2.61453E-03-2.28503E-14
 -1      1734 7.72054E-03-2.90669E-03-2.47700E-14
 -1      1735 7.48453E-03-2.89082E-03-2.42131E-14
 -1      1736 8.24095E-03-2.74309E-03-2.60172E-14
 -1      1737 7.99968E-03-2.85021E-03-2.54497E-14
 -1      1738 8.75315E-03-2.42767E-03-2.70940E-14
 -1      1739 8.52871E-03-2.58063E-03-2.66124E-14
 -1      1740 9.23137E-03-2.06916E-03-2.81717E-14
 -1      1741 9.00697E-03-2.23248E-03-2.77047E-14
 -1      1742 9.62885E-03-1.80366E-03-2.89191E-14
 -1      1743 9.46899E-03-1.91799E-03-2.85900E-14
 -1      1744 9.90270E-03-1.58908E-03-2.95826E-14
 -1      1745 9.78627E-03-1.67598E-03-2.93325E-14
 -1      1746 1.00234E-02-1.47012E-03-2.97858E-14
 -1      1747 9.98014E-03-1.52803E-03-2.96848E-14
 -1      1748 9.91862E-03-1.52373E-03-3.01463E-14
 -1      1749 1.00075E-02-1.34565E-03-2.98742E-14
 -1      1750 1.00366E-02-1.39419E-03-2.99004E-14
 -1      1751 6.88243E-03-2.29656E-03-2.17551E-14
 -1      1752 7.24908E-03-2.57284E-03-2.23773E-14
 -1      1753 7.42085E-03-2.82074E-03-2.32194E-14
 -1      1754 7.40084E-03-2.87237E-03-2.35620E-14
 -1      1755 9.97775E-03-1.35313E-03-3.03990E-14
 -1      1756 8.89424E-03-9.23922E-04-2.83068E-14
 -1      1757 1.35168E-02-5.83211E-03-1.10507E-13
 -1      1758 1.34504E-02-5.75222E-03-1.08997E-13
 -1      1759 9.73620E-03-1.27075E-03-3.00266E-14
 -1      1760 9.36111E-03-1.12555E-03-2.92631E-14
 -1      1761 8.38670E-03-6.74895E-04-2.71649E-14
 -1      1762 7.84833E-03-3.97826E-04-2.58226E-14
 -1      1763 7.39058E-03-1.55952E-04-2.43785E-14
 -1      1764 6.96746E-03-1.62335E-05-2.29440E-14
 -1      1765 6.56141E-03 4.44652E-06-2.16500E-14
 -1      1766 6.14375E-03-7.84991E-05-2.05214E-14
 -1      1767 5.73016E-03-2.28602E-04-1.94944E-14
 -1      1768 5.31303E-03-3.97211E-04-1.87262E-14
 -1      1769 4.93614E-03-5.30496E-04-1.82980E-14
 -1      1770 4.67240E-03-6.30698E-04-1.80333E-14
 -1      1771 4.54059E-03-7.05598E-04-1.79711E-14
 -1      1772 4.57292E-03-7.86144E-04-1.81830E-14
 -1      1773 4.77741E-03-9.17281E-04-1.86254E-14
 -1      1774 5.14331E-03-1.13357E-03-1.92642E-14
 -1      1775 5.66362E-03-1.47311E-03-2.01015E-14
 -1      1776 6.25434E-03-1.95718E-03-2.11767E-14
 -1      1777 6.85618E-03-2.49689E-03-2.24449E-14
 -1      1778 7.37849E-03-2.87758E-03-2.38199E-14
 -1      1779 7.84412E-03-2.92112E-03-2.52269E-14
 -1      1780 8.30151E-03-2.66901E-03-2.65166E-14
 -1      1781 8.79723E-03-2.28551E-03-2.77368E-14
 -1      1782 9.27234E-03-1.93288E-03-2.87820E-14
 -1      1783 9.67166E-03-1.67128E-03-2.96239E-14
 -1      1784 2.77572E-04-1.71844E-04-6.12710E-17
 -1      1785 1.00400E-02-1.42734E-03-3.03658E-14
 -1      1786 3.32305E-04-1.16293E-04-1.46801E-16
 -1      1787 3.36402E-04-1.32518E-04-1.42342E-16
 -1      1788 3.42347E-04-1.51601E-04-1.35810E-16
 -1      1789 3.51872E-04-1.73644E-04-1.25063E-16
 -1      1790 4.58572E-04-1.87468E-04-2.07774E-16
 -1      1791 3.24592E-04-6.49818E-05-1.49566E-16
 -1      1792 3.25778E-04-7.62315E-05-1.50433E-16
 -1      1793 3.23032E-04-4.36086E-05-1.45541E-16
 -1      1794 3.23719E-04-5.40327E-05-1.47980E-16
 -1      1795 4.36499E-04-7.88065E-05-2.19293E-16
 -1      1796 3.22192E-04-2.36407E-05-1.39645E-16
 -1      1797 3.22549E-04-3.34764E-05-1.42830E-16
 -1      1798 4.34405E-04-5.10119E-05-2.12856E-16
 -1      1799 3.21867E-04-4.36505E-06-1.32286E-16
 -1      1800 3.21976E-04-1.39382E-05-1.36271E-16
 -1      1801 4.33316E-04-2.48251E-05-2.03857E-16
 -1      1802 3.21983E-04 1.48051E-05-1.23409E-16
 -1      1803 3.21869E-04 5.21415E-06-1.28275E-16
 -1      1804 4.32987E-04 6.49227E-07-1.92920E-16
 -1      1805 3.22566E-04 3.44312E-05-1.12676E-16
 -1      1806 3.22203E-04 2.45429E-05-1.18422E-16
 -1      1807 4.33349E-04 2.61759E-05-1.79598E-16
 -1      1808 3.23729E-04 5.47790E-05-9.91909E-17
 -1      1809 3.23047E-04 4.44570E-05-1.06536E-16
 -1      1810 4.34461E-04 5.22869E-05-1.63443E-16
 -1      1811 3.25830E-04 7.73724E-05-8.22503E-17
 -1      1812 3.24610E-04 6.58163E-05-9.13847E-17
 -1      1813 4.36573E-04 8.00654E-05-1.43467E-16
 -1      1814 3.29576E-04 1.03181E-04-6.12032E-17
 -1      1815 3.27394E-04 8.98444E-05-7.27093E-17
 -1      1816 4.40287E-04 1.10979E-04-1.18761E-16
 -1      1817 3.36711E-04 1.34672E-04-3.36780E-17
 -1      1818 3.32515E-04 1.18136E-04-4.87484E-17
 -1      1819 4.46873E-04 1.46731E-04-8.77391E-17
 -1      1820 3.52373E-04 1.77148E-04 2.62919E-18
 -1      1821 3.42890E-04 1.54289E-04-1.72117E-17
 -1      1822 4.59415E-04 1.90836E-04-4.77456E-17
 -1      1823 4.07792E-04 2.33249E-04 3.34070E-17
 -1      1824 3.78188E-04 2.02232E-04 1.52601E-17
 -1      1825 4.96014E-04 2.43422E-04-9.31059E-18
 -1      1826 5.58707E-04 3.01909E-04 2.66443E-17
 -1      1827 3.32520E-04-1.86893E-04-9.58706E-17
 -1      1828 8.53952E-04 4.06203E-04-3.56838E-17
 -1      1829 7.07425E-04 3.58595E-04 4.10642E-18
 -1      1830 6.73673E-04 3.28036E-04-1.90413E-17
 -1      1831 1.00511E-02-1.41633E-03-3.10149E-14
 -1      1832 1.00247E-02-1.44045E-03-3.08975E-14
 -1      1833 7.14614E-03-2.67966E-03-2.28729E-14
 -1      1834 7.42836E-03-2.90071E-03-2.38044E-14
 -1      1835 7.93016E-04-3.68398E-04-4.08446E-16
 -1      1836 9.38562E-04-4.10015E-04-5.64422E-16
 -1      1837 1.08166E-03-4.44931E-04-7.47395E-16
 -1      1838 1.22363E-03-4.73910E-04-9.57920E-16
 -1      1839 9.90150E-04-3.92791E-04-6.74442E-16
 -1      1840 1.36434E-03-4.98327E-04-1.19551E-15
 -1      1841 1.50437E-03-5.18505E-04-1.46003E-15
 -1      1842 1.27632E-03-4.50878E-04-1.09593E-15
 -1      1843 1.64391E-03-5.35348E-04-1.75111E-15
 -1      1844 1.78320E-03-5.49092E-04-2.06859E-15
 -1      1845 1.55934E-03-4.91421E-04-1.62351E-15
 -1      1846 1.91549E-03-5.59808E-04-2.39498E-15
 -1      1847 2.04782E-03-5.68417E-04-2.74509E-15
 -1      1848 1.83372E-03-5.18429E-04-2.23913E-15
 -1      1849 2.18733E-03-5.75562E-04-3.13858E-15
 -1      1850 2.32714E-03-5.80904E-04-3.55826E-15
 -1      1851 2.10766E-03-5.36099E-04-2.95341E-15
 -1      1852 2.46734E-03-5.84674E-04-4.00395E-15
 -1      1853 2.60803E-03-5.87017E-04-4.47569E-15
 -1      1854 2.38901E-03-5.46735E-04-3.78789E-15
 -1      1855 2.74928E-03-5.88048E-04-4.97345E-15
 -1      1856 2.89124E-03-5.87894E-04-5.49674E-15
 -1      1857 2.67133E-03-5.51362E-04-4.72545E-15
 -1      1858 3.03388E-03-5.86585E-04-6.04509E-15
 -1      1859 3.17755E-03-5.84243E-04-6.61755E-15
 -1      1860 2.95507E-03-5.51035E-04-5.76497E-15
 -1      1861 3.32204E-03-5.80857E-04-7.21402E-15
 -1      1862 3.46796E-03-5.76563E-04-7.83558E-15
 -1      1863 3.24054E-03-5.46448E-04-6.90215E-15
 -1      1864 3.61486E-03-5.71409E-04-8.48037E-15
 -1      1865 3.76377E-03-5.65582E-04-9.14782E-15
 -1      1866 3.52790E-03-5.38207E-04-8.13615E-15
 -1      1867 3.91376E-03-5.59426E-04-9.83932E-15
 -1      1868 4.06651E-03-5.53268E-04-1.05533E-14
 -1      1869 3.81695E-03-5.27374E-04-9.46484E-15
 -1      1870 4.21262E-03-5.48477E-04-1.12537E-14
 -1      1871 4.36204E-03-5.45236E-04-1.19742E-14
 -1      1872 4.09958E-03-5.16895E-04-1.08495E-14
 -1      1873 4.52038E-03-5.46287E-04-1.27553E-14
 -1      1874 4.68327E-03-5.53658E-04-1.35607E-14
 -1      1875 4.38126E-03-5.12591E-04-1.23220E-14
 -1      1876 4.84804E-03-5.73146E-04-1.43896E-14
 -1      1877 5.01892E-03-6.10064E-04-1.52419E-14
 -1      1878 4.66721E-03-5.29302E-04-1.39245E-14
 -1      1879 5.18643E-03-6.69565E-04-1.60744E-14
 -1      1880 5.36290E-03-7.65026E-04-1.69291E-14
 -1      1881 4.94532E-03-5.96290E-04-1.55771E-14
 -1      1882 8.66301E-03-2.25237E-03-2.85763E-14
 -1      1883 8.90603E-03-2.01574E-03-2.96956E-14
 -1      1884 9.15189E-03-1.83261E-03-3.08277E-14
 -1      1885 9.36420E-03-1.71243E-03-3.19833E-14
 -1      1886 9.60069E-03-1.64775E-03-3.33626E-14
 -1      1887 9.81745E-03-1.64065E-03-3.47619E-14
 -1      1888 9.59640E-03-1.61257E-03-3.26588E-14
 -1      1889 1.00124E-02-1.67764E-03-3.61114E-14
 -1      1890 1.01977E-02-1.74348E-03-3.74772E-14
 -1      1891 9.96845E-03-1.61834E-03-3.53839E-14
 -1      1892 1.03839E-02-1.83367E-03-3.89388E-14
 -1      1893 1.05638E-02-1.93851E-03-4.04225E-14
 -1      1894 1.03034E-02-1.76074E-03-3.81882E-14
 -1      1895 1.07365E-02-2.05150E-03-4.19296E-14
 -1      1896 1.09049E-02-2.16995E-03-4.34617E-14
 -1      1897 1.06295E-02-1.97196E-03-4.11536E-14
 -1      1898 1.10680E-02-2.29086E-03-4.50160E-14
 -1      1899 1.12281E-02-2.41318E-03-4.65950E-14
 -1      1900 1.09451E-02-2.20897E-03-4.42134E-14
 -1      1901 1.13843E-02-2.53580E-03-4.81976E-14
 -1      1902 1.15384E-02-2.65831E-03-4.98209E-14
 -1      1903 1.12524E-02-2.45362E-03-4.73650E-14
 -1      1904 1.16899E-02-2.78042E-03-5.14687E-14
 -1      1905 1.18399E-02-2.90197E-03-5.31397E-14
 -1      1906 1.15533E-02-2.69871E-03-5.06109E-14
 -1      1907 1.19883E-02-3.02297E-03-5.48342E-14
 -1      1908 1.21357E-02-3.14337E-03-5.65524E-14
 -1      1909 1.18494E-02-2.94190E-03-5.39486E-14
 -1      1910 1.22820E-02-3.26328E-03-5.82917E-14
 -1      1911 1.24277E-02-3.38268E-03-6.00503E-14
 -1      1912 1.21420E-02-3.18279E-03-5.73767E-14
 -1      1913 1.25655E-02-3.49574E-03-6.17376E-14
 -1      1914 1.27029E-02-3.60845E-03-6.34403E-14
 -1      1915 1.24249E-02-3.41571E-03-6.07964E-14
 -1      1916 1.28471E-02-3.72680E-03-6.52478E-14
 -1      1917 1.29910E-02-3.84486E-03-6.70711E-14
 -1      1918 1.27064E-02-3.64711E-03-6.42841E-14
 -1      1919 1.31347E-02-3.96271E-03-6.89128E-14
 -1      1920 1.32783E-02-4.08034E-03-7.07705E-14
 -1      1921 1.29940E-02-3.88327E-03-6.79274E-14
 -1      1922 1.34217E-02-4.19783E-03-7.26431E-14
 -1      1923 1.35649E-02-4.31516E-03-7.45330E-14
 -1      1924 1.32810E-02-4.11857E-03-7.16375E-14
 -1      1925 1.37081E-02-4.43239E-03-7.64391E-14
 -1      1926 1.38512E-02-4.54952E-03-7.83618E-14
 -1      1927 1.35674E-02-4.35326E-03-7.54146E-14
 -1      1928 1.39942E-02-4.66657E-03-8.03035E-14
 -1      1929 1.41372E-02-4.78355E-03-8.22609E-14
 -1      1930 1.38536E-02-4.58752E-03-7.92577E-14
 -1      1931 1.42802E-02-4.90047E-03-8.42368E-14
 -1      1932 1.44232E-02-5.01735E-03-8.62264E-14
 -1      1933 1.41397E-02-4.82148E-03-8.31726E-14
 -1      1934 1.45661E-02-5.13419E-03-8.82320E-14
 -1      1935 1.47090E-02-5.25099E-03-9.02572E-14
 -1      1936 1.44255E-02-5.05524E-03-8.71518E-14
 -1      1937 1.48447E-02-5.36193E-03-9.21970E-14
 -1      1938 1.49805E-02-5.47284E-03-9.41503E-14
 -1      1939 1.47042E-02-5.28301E-03-9.10960E-14
 -1      1940 1.51233E-02-5.58957E-03-9.62147E-14
 -1      1941 1.52662E-02-5.70629E-03-9.82940E-14
 -1      1942 1.49829E-02-5.51067E-03-9.50982E-14
 -1      1943 1.54091E-02-5.82299E-03-1.00391E-13
 -1      1944 1.55519E-02-5.93968E-03-1.02499E-13
 -1      1945 1.52686E-02-5.74410E-03-9.92588E-14
 -1      1946 1.56948E-02-6.05635E-03-1.04618E-13
 -1      1947 1.58376E-02-6.17302E-03-1.06747E-13
 -1      1948 1.55543E-02-5.97748E-03-1.03473E-13
 -1      1949 1.59805E-02-6.28968E-03-1.08880E-13
 -1      1950 1.61233E-02-6.40634E-03-1.11022E-13
 -1      1951 1.58400E-02-6.21081E-03-1.07724E-13
 -1      1952 1.62662E-02-6.52299E-03-1.13172E-13
 -1      1953 1.64091E-02-6.63963E-03-1.15326E-13
 -1      1954 1.61258E-02-6.44412E-03-1.12006E-13
 -1      1955 1.65519E-02-6.75628E-03-1.17481E-13
 -1      1956 1.66948E-02-6.87292E-03-1.19632E-13
 -1      1957 1.64115E-02-6.67741E-03-1.16308E-13
 -1      1958 1.67458E-02-6.92271E-03-1.20613E-13
 -1      1959 1.68189E-02-6.99126E-03-1.21950E-13
 -1      1960 1.67076E-02-6.94342E-03-1.21411E-13
 -1      1961 1.66054E-02-6.84384E-03-1.19444E-13
 -1      1962 4.51716E-04-2.32999E-04-1.61167E-16
 -1      1963 1.35919E-03 5.10856E-04-3.57529E-16
 -1      1964 1.21901E-03 4.85853E-04-2.46209E-16
 -1      1965 1.63737E-03 5.49777E-04-6.43054E-16
 -1      1966 1.49853E-03 5.32068E-04-4.89653E-16
 -1      1967 1.41188E-03 4.86050E-04-4.97066E-16
 -1      1968 1.91432E-03 5.77254E-04-1.01610E-15
 -1      1969 1.77593E-03 5.64761E-04-8.18383E-16
 -1      1970 1.69279E-03 5.21665E-04-8.19074E-16
 -1      1971 2.19115E-03 5.96595E-04-1.47976E-15
 -1      1972 2.05272E-03 5.87797E-04-1.23630E-15
 -1      1973 1.97246E-03 5.46717E-04-1.22897E-15
 -1      1974 2.46840E-03 6.10314E-04-2.03802E-15
 -1      1975 2.32973E-03 6.04044E-04-1.74696E-15
 -1      1976 2.25180E-03 5.64296E-04-1.73014E-15
 -1      1977 2.74620E-03 6.20371E-04-2.69332E-15
 -1      1978 2.60726E-03 6.15712E-04-2.35346E-15
 -1      1979 2.53126E-03 5.76781E-04-2.32617E-15
 -1      1980 3.02437E-03 6.28290E-04-3.44660E-15
 -1      1981 2.88528E-03 6.24531E-04-3.05786E-15
 -1      1982 2.81101E-03 5.86035E-04-3.01877E-15
 -1      1983 3.30248E-03 6.35193E-04-4.29911E-15
 -1      1984 3.16350E-03 6.31825E-04-3.86071E-15
 -1      1985 3.09094E-03 5.93506E-04-3.80949E-15
 -1      1986 3.57985E-03 6.41761E-04-5.25164E-15
 -1      1987 3.44134E-03 6.38505E-04-4.76271E-15
 -1      1988 3.37075E-03 6.00241E-04-4.69888E-15
 -1      1989 3.85561E-03 6.48109E-04-6.30405E-15
 -1      1990 3.71803E-03 6.44987E-04-5.76522E-15
 -1      1991 3.64991E-03 6.06830E-04-5.68752E-15
 -1      1992 4.12867E-03 6.53593E-04-7.45740E-15
 -1      1993 3.99259E-03 6.51035E-04-6.86787E-15
 -1      1994 3.92771E-03 6.13264E-04-6.77675E-15
 -1      1995 4.39787E-03 6.56572E-04-8.71446E-15
 -1      1996 4.26386E-03 6.55535E-04-8.07324E-15
 -1      1997 4.20324E-03 6.18725E-04-7.96655E-15
 -1      1998 4.66206E-03 6.54199E-04-1.00753E-14
 -1      1999 4.53069E-03 6.56266E-04-9.38190E-15
 -1      2000 4.47550E-03 6.21328E-04-9.25971E-15
 -1      2001 4.92038E-03 6.42356E-04-1.15415E-14
 -1      2002 4.79201E-03 6.49740E-04-1.07952E-14
 -1      2003 4.74346E-03 6.17918E-04-1.06563E-14
 -1      2004 5.17244E-03 6.15855E-04-1.31185E-14
 -1      2005 5.04718E-03 6.31260E-04-1.23164E-14
 -1      2006 5.00631E-03 6.04025E-04-1.21608E-14
 -1      2007 5.41862E-03 5.69023E-04-1.48079E-14
 -1      2008 5.29617E-03 5.95301E-04-1.39481E-14
 -1      2009 5.26371E-03 5.74139E-04-1.37752E-14
 -1      2010 5.66022E-03 4.96624E-04-1.66168E-14
 -1      2011 5.53982E-03 5.36278E-04-1.56976E-14
 -1      2012 5.51606E-03 5.22396E-04-1.55049E-14
 -1      2013 5.89931E-03 3.94925E-04-1.85482E-14
 -1      2014 5.77984E-03 4.49575E-04-1.75670E-14
 -1      2015 5.76463E-03 4.43612E-04-1.73543E-14
 -1      2016 6.13850E-03 2.62568E-04-2.05963E-14
 -1      2017 6.01865E-03 3.32563E-04-1.95581E-14
 -1      2018 6.01146E-03 3.34414E-04-1.93244E-14
 -1      2019 6.38039E-03 1.00898E-04-2.27615E-14
 -1      2020 6.25889E-03 1.85230E-04-2.16640E-14
 -1      2021 6.25901E-03 1.94075E-04-2.14110E-14
 -1      2022 6.62709E-03-8.63633E-05-2.50421E-14
 -1      2023 6.50299E-03 1.01889E-05-2.38865E-14
 -1      2024 6.50957E-03 2.46956E-05-2.36128E-14
 -1      2025 6.87994E-03-2.93982E-04-2.74370E-14
 -1      2026 6.75268E-03-1.87956E-04-2.62260E-14
 -1      2027 6.76487E-03-1.69327E-04-2.59314E-14
 -1      2028 7.13940E-03-5.16270E-04-2.99475E-14
 -1      2029 7.00885E-03-4.03614E-04-2.86779E-14
 -1      2030 7.02577E-03-3.82326E-04-2.83636E-14
 -1      2031 7.40516E-03-7.47994E-04-3.25709E-14
 -1      2032 7.27155E-03-6.31226E-04-3.12452E-14
 -1      2033 7.29232E-03-6.08483E-04-3.09122E-14
 -1      2034 7.67646E-03-9.84940E-04-3.53040E-14
 -1      2035 7.54021E-03-8.66021E-04-3.39235E-14
 -1      2036 7.56399E-03-8.42691E-04-3.35725E-14
 -1      2037 7.95225E-03-1.22410E-03-3.81445E-14
 -1      2038 7.81389E-03-1.10438E-03-3.67107E-14
 -1      2039 7.83990E-03-1.08102E-03-3.63410E-14
 -1      2040 8.23150E-03-1.46357E-03-4.10933E-14
 -1      2041 8.09154E-03-1.34388E-03-3.96054E-14
 -1      2042 8.11911E-03-1.32078E-03-3.92166E-14
 -1      2043 8.51326E-03-1.70233E-03-4.41457E-14
 -1      2044 8.37214E-03-1.58308E-03-4.26062E-14
 -1      2045 8.40073E-03-1.56036E-03-4.21989E-14
 -1      2046 8.79673E-03-1.93996E-03-4.73001E-14
 -1      2047 8.65484E-03-1.82130E-03-4.57105E-14
 -1      2048 8.68404E-03-1.79898E-03-4.52835E-14
 -1      2049 9.08133E-03-2.17643E-03-5.05457E-14
 -1      2050 8.93893E-03-2.05834E-03-4.89116E-14
 -1      2051 8.96847E-03-2.03637E-03-4.84653E-14
 -1      2052 9.36661E-03-2.41186E-03-5.38788E-14
 -1      2053 9.22391E-03-2.29427E-03-5.22007E-14
 -1      2054 9.25359E-03-2.27258E-03-5.17386E-14
 -1      2055 9.65227E-03-2.64648E-03-5.73006E-14
 -1      2056 9.50941E-03-2.52927E-03-5.55803E-14
 -1      2057 9.53913E-03-2.50778E-03-5.50981E-14
 -1      2058 9.93813E-03-2.88049E-03-6.08080E-14
 -1      2059 9.79519E-03-2.76355E-03-5.90436E-14
 -1      2060 9.82490E-03-2.74221E-03-5.85455E-14
 -1      2061 1.02241E-02-3.11410E-03-6.43976E-14
 -1      2062 1.00811E-02-2.99734E-03-6.25921E-14
 -1      2063 1.01108E-02-2.97609E-03-6.20753E-14
 -1      2064 1.05100E-02-3.34743E-03-6.80651E-14
 -1      2065 1.03670E-02-3.23079E-03-6.62217E-14
 -1      2066 1.03967E-02-3.20960E-03-6.56884E-14
 -1      2067 1.07959E-02-3.58061E-03-7.18109E-14
 -1      2068 1.06530E-02-3.46404E-03-6.99286E-14
 -1      2069 1.06826E-02-3.44288E-03-6.93802E-14
 -1      2070 1.10818E-02-3.81371E-03-7.56312E-14
 -1      2071 1.09389E-02-3.69717E-03-7.37112E-14
 -1      2072 1.09684E-02-3.67602E-03-7.31478E-14
 -1      2073 1.13676E-02-4.04678E-03-7.95126E-14
 -1      2074 1.12247E-02-3.93025E-03-7.75655E-14
 -1      2075 1.12543E-02-3.90911E-03-7.69870E-14
 -1      2076 1.16534E-02-4.27984E-03-8.34509E-14
 -1      2077 1.15105E-02-4.16331E-03-8.14757E-14
 -1      2078 1.15401E-02-4.14217E-03-8.08862E-14
 -1      2079 1.19392E-02-4.51292E-03-8.74361E-14
 -1      2080 1.17963E-02-4.39638E-03-8.54386E-14
 -1      2081 1.18258E-02-4.37523E-03-8.48388E-14
 -1      2082 1.22249E-02-4.74601E-03-9.14625E-14
 -1      2083 1.20821E-02-4.62946E-03-8.94455E-14
 -1      2084 1.21116E-02-4.60830E-03-8.88364E-14
 -1      2085 1.25107E-02-4.97912E-03-9.55035E-14
 -1      2086 1.23678E-02-4.86256E-03-9.34814E-14
 -1      2087 1.23973E-02-4.84140E-03-9.28667E-14
 -1      2088 1.27964E-02-5.21226E-03-9.95622E-14
 -1      2089 1.26535E-02-5.09569E-03-9.75310E-14
 -1      2090 1.26831E-02-5.07452E-03-9.69186E-14
 -1      2091 1.30821E-02-5.44540E-03-1.03624E-13
 -1      2092 1.29393E-02-5.32883E-03-1.01594E-13
 -1      2093 1.29688E-02-5.30766E-03-1.00985E-13
 -1      2094 1.33377E-02-5.65710E-03-1.07328E-13
 -1      2095 1.31948E-02-5.54052E-03-1.05298E-13
 -1      2096 1.32244E-02-5.51935E-03-1.04700E-13
 -1      2097 1.34498E-02-5.70958E-03-1.08052E-13
 -1      2098 1.40693E-02-5.93552E-03-1.10629E-13
 -1      2099 1.39547E-02-5.89338E-03-1.10144E-13
 -1      2100 1.38400E-02-5.85124E-03-1.09659E-13
 -1      2101 1.37254E-02-5.80910E-03-1.09175E-13
 -1      2102 1.37736E-02-5.77135E-03-1.08119E-13
 -1      2103 1.35644E-02-5.75173E-03-1.08534E-13
 -1      2104 1.42947E-02-6.01836E-03-1.11574E-13
 -1      2105 1.41820E-02-5.97694E-03-1.11102E-13
 -1      2106 1.40010E-02-5.85491E-03-1.09066E-13
 -1      2107 1.45240E-02-6.10264E-03-1.12528E-13
 -1      2108 1.44094E-02-6.06050E-03-1.12054E-13
 -1      2109 1.42283E-02-5.93846E-03-1.10004E-13
 -1      2110 1.47533E-02-6.18691E-03-1.13468E-13
 -1      2111 1.46387E-02-6.14477E-03-1.13000E-13
 -1      2112 1.44576E-02-6.02273E-03-1.10940E-13
 -1      2113 1.49827E-02-6.27118E-03-1.14386E-13
 -1      2114 1.48680E-02-6.22904E-03-1.13928E-13
 -1      2115 1.46870E-02-6.10700E-03-1.11860E-13
 -1      2116 1.52120E-02-6.35545E-03-1.15280E-13
 -1      2117 1.50973E-02-6.31332E-03-1.14837E-13
 -1      2118 1.49163E-02-6.19126E-03-1.12763E-13
 -1      2119 1.54413E-02-6.43973E-03-1.16138E-13
 -1      2120 1.53266E-02-6.39759E-03-1.15714E-13
 -1      2121 1.51456E-02-6.27553E-03-1.13641E-13
 -1      2122 1.56668E-02-6.52258E-03-1.16952E-13
 -1      2123 1.55540E-02-6.48116E-03-1.16547E-13
 -1      2124 1.53730E-02-6.35909E-03-1.14481E-13
 -1      2125 1.58961E-02-6.60687E-03-1.17747E-13
 -1      2126 1.57814E-02-6.56472E-03-1.17354E-13
 -1      2127 1.56004E-02-6.44265E-03-1.15289E-13
 -1      2128 1.61255E-02-6.69116E-03-1.18519E-13
 -1      2129 1.60108E-02-6.64901E-03-1.18134E-13
 -1      2130 1.58298E-02-6.52693E-03-1.16077E-13
 -1      2131 1.63549E-02-6.77544E-03-1.19266E-13
 -1      2132 1.62402E-02-6.73330E-03-1.18895E-13
 -1      2133 1.60591E-02-6.61122E-03-1.16841E-13
 -1      2134 1.10856E-03 4.67512E-04-1.62278E-16
 -1      2135 9.66071E-04 4.33250E-04-8.84573E-17
 -1      2136 9.33806E-04 4.03797E-04-1.17297E-16
 -1      2137 1.15877E-03 4.46724E-04-2.69722E-16
 -1      2138 9.20091E-03-1.15769E-03-2.95628E-14
 -1      2139 9.40916E-03-1.24006E-03-3.00417E-14
 -1      2140 8.18625E-03-6.49085E-04-2.71157E-14
 -1      2141 8.42560E-03-7.91842E-04-2.77761E-14
 -1      2142 9.64105E-03-1.31993E-03-3.05734E-14
 -1      2143 9.80203E-03-1.35746E-03-3.08672E-14
 -1      2144 9.97489E-03-1.46754E-03-3.07926E-14
 -1      2145 9.89512E-03-1.50051E-03-3.06867E-14
 -1      2146 1.00154E-02-1.44438E-03-3.14420E-14
 -1      2147 8.73162E-03-9.56033E-04-2.85695E-14
 -1      2148 8.97533E-03-1.06151E-03-2.90624E-14
 -1      2149 9.05753E-03-1.16896E-03-2.98290E-14
 -1      2150 3.27313E-04-8.84945E-05-1.50433E-16
 -1      2151 3.29449E-04-1.01651E-04-1.49335E-16
 -1      2152 4.46541E-04-1.44424E-04-2.19117E-16
 -1      2153 4.40140E-04-1.09336E-04-2.21909E-16
 -1      2154 7.80007E-03-2.95896E-03-2.52136E-14
 -1      2155 8.02436E-03-2.85499E-03-2.60681E-14
 -1      2156 7.69107E-03-3.74787E-04-2.57869E-14
 -1      2157 7.93655E-03-5.15807E-04-2.64806E-14
 -1      2158 7.19972E-03-8.52123E-05-2.39054E-14
 -1      2159 7.37595E-03-1.87308E-04-2.46575E-14
 -1      2160 6.85170E-03 2.31024E-05-2.25354E-14
 -1      2161 7.02127E-03-1.79663E-05-2.32152E-14
 -1      2162 7.05636E-03-4.12548E-05-2.34835E-14
 -1      2163 6.46184E-03 9.18598E-06-2.11154E-14
 -1      2164 6.63571E-03 3.37574E-05-2.17214E-14
 -1      2165 6.07947E-03-1.07071E-04-2.00338E-14
 -1      2166 6.26144E-03-4.18992E-05-2.05433E-14
 -1      2167 5.69305E-03-2.72776E-04-1.89599E-14
 -1      2168 5.88740E-03-1.84266E-04-1.94626E-14
 -1      2169 5.21894E-03-4.63849E-04-1.82361E-14
 -1      2170 5.42083E-03-3.85895E-04-1.84926E-14
 -1      2171 4.87021E-03-5.84908E-04-1.77990E-14
 -1      2172 5.02487E-03-5.35166E-04-1.79609E-14
 -1      2173 4.62874E-03-6.57463E-04-1.75845E-14
 -1      2174 4.73077E-03-6.28623E-04-1.76823E-14
 -1      2175 4.52656E-03-7.03169E-04-1.76075E-14
 -1      2176 4.55269E-03-6.86081E-04-1.75718E-14
 -1      2177 4.61424E-03-7.51184E-04-1.78073E-14
 -1      2178 4.55050E-03-7.24017E-04-1.76358E-14
 -1      2179 4.88123E-03-8.76684E-04-1.83838E-14
 -1      2180 4.73182E-03-8.13630E-04-1.81222E-14
 -1      2181 5.31204E-03-1.11044E-03-1.91306E-14
 -1      2182 5.09095E-03-9.87679E-04-1.87658E-14
 -1      2183 5.87729E-03-1.48101E-03-2.00381E-14
 -1      2184 5.58800E-03-1.28238E-03-1.95796E-14
 -1      2185 6.59476E-03-2.08568E-03-2.13464E-14
 -1      2186 6.32557E-03-1.80877E-03-2.07391E-14
 -1      2187 6.88853E-03-2.43733E-03-2.22163E-14
 -1      2188 8.96484E-03-2.06635E-03-2.86965E-14
 -1      2189 8.74440E-03-2.26187E-03-2.80696E-14
 -1      2190 9.40843E-03-1.77235E-03-2.95583E-14
 -1      2191 9.19309E-03-1.91331E-03-2.91281E-14
 -1      2192 9.14128E-03-1.90102E-03-2.94703E-14
 -1      2193 9.75439E-03-1.56777E-03-3.03979E-14
 -1      2194 9.59424E-03-1.65957E-03-2.99777E-14
 -1      2195 9.53302E-03-1.65864E-03-3.03306E-14
 -1      2196 9.94361E-03-1.38438E-03-3.10260E-14
 -1      2197 1.00186E-02-1.39756E-03-3.11107E-14
 -1      2198 9.51202E-03-1.33134E-03-3.08745E-14
 -1      2199 8.46098E-03-2.46864E-03-2.76201E-14
 -1      2200 6.00731E-04-2.94640E-04-2.55723E-16
 -1      2201 6.56739E-04-2.88952E-04-3.30167E-16
 -1      2202 1.00467E-02-1.42315E-03-3.16445E-14
 -1      2203 7.62091E-03-2.98295E-03-2.45341E-14
 -1      2204 9.16437E-03-1.84486E-03-3.01542E-14
 -1      2205 5.59474E-03-9.20161E-04-1.78392E-14
 -1      2206 5.80728E-03-1.13274E-03-1.87453E-14
 -1      2207 5.98225E-03-1.32191E-03-1.93974E-14
 -1      2208 6.19306E-03-1.60888E-03-2.02002E-14
 -1      2209 8.22350E-03-2.69822E-03-2.66728E-14
 -1      2210 1.34980E-02-5.67184E-03-1.07008E-13
 -1      2211 8.01527E-03-6.18340E-04-2.70781E-14
 -1      2212 8.54601E-03-9.17894E-04-2.85169E-14
 -1      2213 9.87807E-03-1.40980E-03-3.15781E-14
 -1      2214 9.84657E-03-1.50757E-03-3.10455E-14
 -1      2215 5.49169E-03-1.12690E-03-1.90698E-14
 -1      2216 5.00885E-03-8.69559E-04-1.82530E-14
 -1      2217 4.68066E-03-7.29947E-04-1.75688E-14
 -1      2218 4.53195E-03-6.87431E-04-1.72357E-14
 -1      2219 4.58275E-03-6.64166E-04-1.72219E-14
 -1      2220 4.79679E-03-6.11317E-04-1.73486E-14
 -1      2221 5.11805E-03-5.09936E-04-1.77317E-14
 -1      2222 5.56792E-03-3.31646E-04-1.84595E-14
 -1      2223 5.68736E-03-2.71476E-04-1.84218E-14
 -1      2224 5.44496E-03-3.80749E-04-1.79680E-14
 -1      2225 5.99746E-03-1.39165E-04-1.94824E-14
 -1      2226 6.72103E-03 4.22393E-05-2.19822E-14
 -1      2227 5.62052E-03-1.10633E-03-1.88633E-14
 -1      2228 7.49019E-03-2.82251E-04-2.52969E-14
 -1      2229 7.59880E-03-3.86705E-04-2.59428E-14
 -1      2230 7.32470E-03-2.03099E-04-2.48092E-14
 -1      2231 6.36091E-03-6.08650E-06-2.06139E-14
 -1      2232 5.26880E-03-7.77804E-04-1.73071E-14
 -1      2233 5.47581E-04-5.50121E-05-2.99714E-16
 -1      2234 5.48675E-04-7.16026E-05-3.05108E-16
 -1      2235 5.50164E-04-8.88118E-05-3.09418E-16
 -1      2236 5.52104E-04-1.06688E-04-3.12738E-16
 -1      2237 6.65102E-04-9.49462E-05-4.16510E-16
 -1      2238 5.46098E-04 8.63665E-06-2.70752E-16
 -1      2239 5.46082E-04-7.08136E-06-2.79182E-16
 -1      2240 5.46881E-04 4.04409E-05-2.51603E-16
 -1      2241 5.46361E-04 2.44636E-05-2.61713E-16
 -1      2242 6.60934E-04 1.95655E-05-3.62693E-16
 -1      2243 5.48772E-04 7.29099E-05-2.28902E-16
 -1      2244 5.47673E-04 5.64871E-05-2.40977E-16
 -1      2245 6.62317E-04 5.71989E-05-3.36889E-16
 -1      2246 5.52255E-04 1.08281E-04-2.00442E-16
 -1      2247 5.50284E-04 9.02496E-05-2.15553E-16
 -1      2248 6.65278E-04 9.65105E-05-3.05677E-16
 -1      2249 5.58233E-04 1.47567E-04-1.65571E-16
 -1      2250 5.54868E-04 1.27358E-04-1.83962E-16
 -1      2251 6.70496E-04 1.39184E-04-2.67391E-16
 -1      2252 5.68700E-04 1.93136E-04-1.22054E-16
 -1      2253 5.62753E-04 1.69440E-04-1.45202E-16
 -1      2254 6.79261E-04 1.86689E-04-2.20527E-16
 -1      2255 5.88220E-04 2.48768E-04-6.71934E-17
 -1      2256 5.77042E-04 2.19496E-04-9.64940E-17
 -1      2257 6.94387E-04 2.41611E-04-1.63078E-16
 -1      2258 6.42396E-04 3.00551E-04-3.64970E-17
 -1      2259 6.14649E-04 2.73057E-04-5.41695E-17
 -1      2260 7.31779E-04 2.96913E-04-1.15983E-16
 -1      2261 7.88913E-04 3.48787E-04-8.25484E-17
 -1      2262 8.92627E-03-1.17467E-03-3.01446E-14
 -1      2263 9.13424E-03-1.25970E-03-3.06582E-14
 -1      2264 1.00399E-02-1.45007E-03-3.23652E-14
 -1      2265 1.00630E-02-1.44275E-03-3.22689E-14
 -1      2266 1.18903E-03-4.03144E-04-9.97764E-16
 -1      2267 1.33205E-03-4.26945E-04-1.23519E-15
 -1      2268 1.47447E-03-4.46960E-04-1.49826E-15
 -1      2269 1.61651E-03-4.63473E-04-1.78706E-15
 -1      2270 1.38991E-03-4.02290E-04-1.37541E-15
 -1      2271 1.75114E-03-4.76508E-04-2.08567E-15
 -1      2272 1.88559E-03-4.87139E-04-2.40781E-15
 -1      2273 1.66825E-03-4.34237E-04-1.93561E-15
 -1      2274 2.02698E-03-4.96185E-04-2.77126E-15
 -1      2275 2.16832E-03-5.03193E-04-3.16088E-15
 -1      2276 1.94569E-03-4.55908E-04-2.59268E-15
 -1      2277 2.30965E-03-5.08491E-04-3.57596E-15
 -1      2278 2.45104E-03-5.12212E-04-4.01599E-15
 -1      2279 2.22963E-03-4.69943E-04-3.36721E-15
 -1      2280 2.59248E-03-5.14575E-04-4.48186E-15
 -1      2281 2.73406E-03-5.15680E-04-4.97300E-15
 -1      2282 2.51315E-03-4.77582E-04-4.24233E-15
 -1      2283 2.87566E-03-5.15677E-04-5.48899E-15
 -1      2284 3.01742E-03-5.14630E-04-6.02998E-15
 -1      2285 2.79617E-03-4.80244E-04-5.21787E-15
 -1      2286 3.15907E-03-5.12682E-04-6.59488E-15
 -1      2287 3.30082E-03-5.09854E-04-7.18411E-15
 -1      2288 3.07827E-03-4.79014E-04-6.29167E-15
 -1      2289 3.44213E-03-5.06381E-04-7.79727E-15
 -1      2290 3.58336E-03-5.02231E-04-8.43400E-15
 -1      2291 3.35839E-03-4.74890E-04-7.46304E-15
 -1      2292 3.72353E-03-4.97933E-04-9.09463E-15
 -1      2293 3.86319E-03-4.93372E-04-9.77822E-15
 -1      2294 3.63448E-03-4.69187E-04-8.72891E-15
 -1      2295 3.99386E-03-4.89931E-04-1.04494E-14
 -1      2296 4.12340E-03-4.87094E-04-1.11418E-14
 -1      2297 3.89634E-03-4.64368E-04-1.00537E-14
 -1      2298 4.25601E-03-4.87172E-04-1.18925E-14
 -1      2299 4.38622E-03-4.90105E-04-1.26668E-14
 -1      2300 4.14536E-03-4.64520E-04-1.14670E-14
 -1      2301 4.51050E-03-5.00392E-04-1.34634E-14
 -1      2302 4.63155E-03-5.18413E-04-1.42843E-14
 -1      2303 4.37912E-03-4.78016E-04-1.30078E-14
 -1      2304 4.73941E-03-5.49819E-04-1.50853E-14
 -1      2305 4.84632E-03-5.96762E-04-1.59073E-14
 -1      2306 4.57588E-03-5.18756E-04-1.45993E-14
 -1      2307 6.40982E-04-2.55787E-04-3.44248E-16
 -1      2308 8.27174E-04-3.18076E-04-5.21339E-16
 -1      2309 6.30367E-04-2.26243E-04-3.54209E-16
 -1      2310 5.36523E-03-9.60409E-04-1.84299E-14
 -1      2311 9.94848E-03-1.56394E-03-3.45807E-14
 -1      2312 1.00907E-02-1.61331E-03-3.59230E-14
 -1      2313 1.02357E-02-1.69034E-03-3.73585E-14
 -1      2314 1.03819E-02-1.78556E-03-3.88156E-14
 -1      2315 1.01895E-02-1.62911E-03-3.65318E-14
 -1      2316 1.05267E-02-1.89149E-03-4.02940E-14
 -1      2317 1.06736E-02-2.00546E-03-4.17974E-14
 -1      2318 1.04400E-02-1.81866E-03-3.94393E-14
 -1      2319 1.08198E-02-2.12325E-03-4.33233E-14
 -1      2320 1.09673E-02-2.24398E-03-4.48716E-14
 -1      2321 1.07058E-02-2.04275E-03-4.24377E-14
 -1      2322 1.11139E-02-2.36564E-03-4.64451E-14
 -1      2323 1.12610E-02-2.48791E-03-4.80416E-14
 -1      2324 1.09828E-02-2.28087E-03-4.55303E-14
 -1      2325 1.14073E-02-2.61002E-03-4.96608E-14
 -1      2326 1.15537E-02-2.73185E-03-5.13032E-14
 -1      2327 1.12660E-02-2.52320E-03-4.87154E-14
 -1      2328 1.16993E-02-2.85320E-03-5.29669E-14
 -1      2329 1.18448E-02-2.97402E-03-5.46547E-14
 -1      2330 1.15521E-02-2.76556E-03-5.19918E-14
 -1      2331 1.19897E-02-3.09434E-03-5.63651E-14
 -1      2332 1.21345E-02-3.21414E-03-5.80945E-14
 -1      2333 1.18393E-02-3.00647E-03-5.53583E-14
 -1      2334 1.22716E-02-3.32755E-03-5.97557E-14
 -1      2335 1.24086E-02-3.44057E-03-6.14333E-14
 -1      2336 1.21194E-02-3.23971E-03-5.87209E-14
 -1      2337 1.25526E-02-3.55921E-03-6.32196E-14
 -1      2338 1.26963E-02-3.67752E-03-6.50194E-14
 -1      2339 1.23994E-02-3.47148E-03-6.21579E-14
 -1      2340 1.28399E-02-3.79559E-03-6.68349E-14
 -1      2341 1.29834E-02-3.91341E-03-6.86719E-14
 -1      2342 1.26862E-02-3.70799E-03-6.57514E-14
 -1      2343 1.31268E-02-4.03105E-03-7.05234E-14
 -1      2344 1.32700E-02-4.14852E-03-7.23930E-14
 -1      2345 1.29728E-02-3.94358E-03-6.94123E-14
 -1      2346 1.34132E-02-4.26586E-03-7.42773E-14
 -1      2347 1.35563E-02-4.38309E-03-7.61795E-14
 -1      2348 1.32591E-02-4.17849E-03-7.31450E-14
 -1      2349 1.36994E-02-4.50022E-03-7.81012E-14
 -1      2350 1.38425E-02-4.61726E-03-8.00401E-14
 -1      2351 1.35453E-02-4.41292E-03-7.69477E-14
 -1      2352 1.39855E-02-4.73425E-03-8.19941E-14
 -1      2353 1.41284E-02-4.85117E-03-8.39661E-14
 -1      2354 1.38313E-02-4.64701E-03-8.08187E-14
 -1      2355 1.42714E-02-4.96805E-03-8.59536E-14
 -1      2356 1.44143E-02-5.08488E-03-8.79558E-14
 -1      2357 1.41172E-02-4.88085E-03-8.47558E-14
 -1      2358 1.45501E-02-5.19585E-03-8.98775E-14
 -1      2359 1.46858E-02-5.30678E-03-9.18144E-14
 -1      2360 1.43959E-02-5.10869E-03-8.86644E-14
 -1      2361 1.48287E-02-5.42354E-03-9.38625E-14
 -1      2362 1.49716E-02-5.54027E-03-9.59260E-14
 -1      2363 1.46746E-02-5.33640E-03-9.26281E-14
 -1      2364 1.51145E-02-5.65699E-03-9.80051E-14
 -1      2365 1.52573E-02-5.77368E-03-1.00098E-13
 -1      2366 1.49604E-02-5.56986E-03-9.67550E-14
 -1      2367 1.54002E-02-5.89037E-03-1.02204E-13
 -1      2368 1.55431E-02-6.00705E-03-1.04321E-13
 -1      2369 1.52461E-02-5.80326E-03-1.00938E-13
 -1      2370 1.56859E-02-6.12372E-03-1.06445E-13
 -1      2371 1.58288E-02-6.24038E-03-1.08575E-13
 -1      2372 1.55318E-02-6.03662E-03-1.05167E-13
 -1      2373 1.59717E-02-6.35703E-03-1.10715E-13
 -1      2374 1.61145E-02-6.47368E-03-1.12861E-13
 -1      2375 1.58176E-02-6.26994E-03-1.09427E-13
 -1      2376 1.62574E-02-6.59032E-03-1.15013E-13
 -1      2377 1.64002E-02-6.70697E-03-1.17164E-13
 -1      2378 1.61033E-02-6.50324E-03-1.13716E-13
 -1      2379 1.00513E-02-1.44450E-03-3.21630E-14
 -1      2380 1.00155E-02-1.44966E-03-3.20565E-14
 -1      2381 1.00732E-02-1.46227E-03-3.28879E-14
 -1      2382 1.75025E-03 4.92644E-04-1.00317E-15
 -1      2383 1.60900E-03 4.77930E-04-8.13111E-16
 -1      2384 1.46740E-03 4.60285E-04-6.44965E-16
 -1      2385 1.32528E-03 4.39450E-04-4.97811E-16
 -1      2386 1.52506E-03 4.33795E-04-8.00453E-16
 -1      2387 2.31357E-03 5.31263E-04-1.98851E-15
 -1      2388 2.17287E-03 5.24035E-04-1.70724E-15
 -1      2389 2.59506E-03 5.42587E-04-2.62205E-15
 -1      2390 2.45432E-03 5.37397E-04-2.29298E-15
 -1      2391 2.37649E-03 4.97616E-04-2.25404E-15
 -1      2392 2.87672E-03 5.51084E-04-3.35131E-15
 -1      2393 2.73589E-03 5.47109E-04-2.97435E-15
 -1      2394 2.65988E-03 5.07800E-04-2.92427E-15
 -1      2395 3.15856E-03 5.58116E-04-4.17888E-15
 -1      2396 3.01765E-03 5.54723E-04-3.75320E-15
 -1      2397 2.94348E-03 5.15536E-04-3.69075E-15
 -1      2398 3.44036E-03 5.64653E-04-5.10479E-15
 -1      2399 3.29951E-03 5.61409E-04-4.62937E-15
 -1      2400 3.22738E-03 5.22095E-04-4.55475E-15
 -1      2401 3.72177E-03 5.71197E-04-6.13035E-15
 -1      2402 3.58118E-03 5.67917E-04-5.60473E-15
 -1      2403 3.51149E-03 5.28369E-04-5.51707E-15
 -1      2404 4.00222E-03 5.77628E-04-7.25512E-15
 -1      2405 3.86220E-03 5.74463E-04-6.68012E-15
 -1      2406 3.79560E-03 5.34784E-04-6.57845E-15
 -1      2407 4.28093E-03 5.82967E-04-8.48078E-15
 -1      2408 4.14189E-03 5.80530E-04-7.85494E-15
 -1      2409 4.07926E-03 5.41123E-04-7.73921E-15
 -1      2410 4.55697E-03 5.85106E-04-9.81040E-15
 -1      2411 4.41938E-03 5.84610E-04-9.13331E-15
 -1      2412 4.36178E-03 5.46270E-04-9.00106E-15
 -1      2413 4.82932E-03 5.80585E-04-1.12427E-14
 -1      2414 4.69369E-03 5.83938E-04-1.05131E-14
 -1      2415 4.64219E-03 5.47904E-04-1.03659E-14
 -1      2416 5.09713E-03 5.64571E-04-1.27856E-14
 -1      2417 4.96383E-03 5.74352E-04-1.20005E-14
 -1      2418 4.91938E-03 5.42256E-04-1.18365E-14
 -1      2419 5.35999E-03 5.31194E-04-1.44380E-14
 -1      2420 5.22915E-03 5.50430E-04-1.35975E-14
 -1      2421 5.19236E-03 5.24086E-04-1.34158E-14
 -1      2422 5.61830E-03 4.74356E-04-1.62081E-14
 -1      2423 5.48960E-03 5.06060E-04-1.53081E-14
 -1      2424 5.46062E-03 4.87106E-04-1.51078E-14
 -1      2425 5.87335E-03 3.88907E-04-1.80970E-14
 -1      2426 5.74603E-03 4.35454E-04-1.71373E-14
 -1      2427 5.72454E-03 4.24928E-04-1.69168E-14
 -1      2428 6.12726E-03 2.71873E-04-2.01053E-14
 -1      2429 6.00020E-03 3.34412E-04-1.90868E-14
 -1      2430 5.98560E-03 3.32443E-04-1.88455E-14
 -1      2431 6.38244E-03 1.23246E-04-2.22304E-14
 -1      2432 6.25446E-03 2.01391E-04-2.11543E-14
 -1      2433 6.24609E-03 2.07155E-04-2.08929E-14
 -1      2434 6.64102E-03-5.40190E-05-2.44706E-14
 -1      2435 6.51114E-03 3.79167E-05-2.33362E-14
 -1      2436 6.50848E-03 4.99099E-05-2.30556E-14
 -1      2437 6.90433E-03-2.54786E-04-2.68263E-14
 -1      2438 6.77200E-03-1.51828E-04-2.56338E-14
 -1      2439 6.77471E-03-1.35370E-04-2.53336E-14
 -1      2440 7.17279E-03-4.72952E-04-2.92967E-14
 -1      2441 7.03792E-03-3.62067E-04-2.80475E-14
 -1      2442 7.04572E-03-3.42767E-04-2.77259E-14
 -1      2443 7.44605E-03-7.02623E-04-3.18818E-14
 -1      2444 7.30888E-03-5.86673E-04-3.05756E-14
 -1      2445 7.32145E-03-5.65783E-04-3.02351E-14
 -1      2446 7.72330E-03-9.38901E-04-3.45780E-14
 -1      2447 7.58427E-03-8.20182E-04-3.32152E-14
 -1      2448 7.60111E-03-7.98539E-04-3.28564E-14
 -1      2449 8.00360E-03-1.17820E-03-3.73814E-14
 -1      2450 7.86316E-03-1.05834E-03-3.59660E-14
 -1      2451 7.88365E-03-1.03643E-03-3.55876E-14
 -1      2452 8.28605E-03-1.41821E-03-4.02926E-14
 -1      2453 8.14464E-03-1.29821E-03-3.88241E-14
 -1      2454 8.16804E-03-1.27630E-03-3.84276E-14
 -1      2455 8.56995E-03-1.65764E-03-4.33076E-14
 -1      2456 8.42789E-03-1.53804E-03-4.17868E-14
 -1      2457 8.45349E-03-1.51624E-03-4.13726E-14
 -1      2458 8.85475E-03-1.89592E-03-4.64236E-14
 -1      2459 8.71229E-03-1.77694E-03-4.48537E-14
 -1      2460 8.73947E-03-1.75527E-03-4.44206E-14
 -1      2461 9.14011E-03-2.13293E-03-4.96329E-14
 -1      2462 8.99740E-03-2.01458E-03-4.80168E-14
 -1      2463 9.02564E-03-1.99305E-03-4.75662E-14
 -1      2464 9.42577E-03-2.36879E-03-5.29332E-14
 -1      2465 9.28292E-03-2.25099E-03-5.12726E-14
 -1      2466 9.31183E-03-2.22958E-03-5.08041E-14
 -1      2467 9.71158E-03-2.60371E-03-5.63181E-14
 -1      2468 9.56867E-03-2.48636E-03-5.46138E-14
 -1      2469 9.59797E-03-2.46503E-03-5.41289E-14
 -1      2470 9.99746E-03-2.83794E-03-5.97884E-14
 -1      2471 9.85452E-03-2.72090E-03-5.80427E-14
 -1      2472 9.88402E-03-2.69965E-03-5.75396E-14
 -1      2473 1.02834E-02-3.07167E-03-6.33454E-14
 -1      2474 1.01404E-02-2.95486E-03-6.15570E-14
 -1      2475 1.01700E-02-2.93365E-03-6.10360E-14
 -1      2476 1.05692E-02-3.30509E-03-6.69816E-14
 -1      2477 1.04263E-02-3.18841E-03-6.51525E-14
 -1      2478 1.04559E-02-3.16724E-03-6.46159E-14
 -1      2479 1.08551E-02-3.53831E-03-7.06966E-14
 -1      2480 1.07122E-02-3.42172E-03-6.88303E-14
 -1      2481 1.07418E-02-3.40056E-03-6.82776E-14
 -1      2482 1.11409E-02-3.77142E-03-7.44884E-14
 -1      2483 1.09980E-02-3.65488E-03-7.25832E-14
 -1      2484 1.10276E-02-3.63372E-03-7.20163E-14
 -1      2485 1.14267E-02-4.00449E-03-7.83458E-14
 -1      2486 1.12838E-02-3.88796E-03-7.64081E-14
 -1      2487 1.13134E-02-3.86681E-03-7.58292E-14
 -1      2488 1.17125E-02-4.23754E-03-8.22614E-14
 -1      2489 1.15696E-02-4.12102E-03-8.02963E-14
 -1      2490 1.15992E-02-4.09986E-03-7.97054E-14
 -1      2491 1.19983E-02-4.47061E-03-8.62279E-14
 -1      2492 1.18554E-02-4.35407E-03-8.42411E-14
 -1      2493 1.18849E-02-4.33292E-03-8.36395E-14
 -1      2494 1.22840E-02-4.70369E-03-9.02400E-14
 -1      2495 1.21411E-02-4.58715E-03-8.82291E-14
 -1      2496 1.21707E-02-4.56598E-03-8.76215E-14
 -1      2497 1.25697E-02-4.93679E-03-9.42764E-14
 -1      2498 1.24269E-02-4.82024E-03-9.22543E-14
 -1      2499 1.24564E-02-4.79907E-03-9.16408E-14
 -1      2500 1.28555E-02-5.16991E-03-9.83391E-14
 -1      2501 1.27126E-02-5.05335E-03-9.63052E-14
 -1      2502 1.27421E-02-5.03218E-03-9.56891E-14
 -1      2503 1.31412E-02-5.40306E-03-1.02413E-13
 -1      2504 1.29983E-02-5.28648E-03-1.00376E-13
 -1      2505 1.30279E-02-5.26531E-03-9.97618E-14
 -1      2506 1.33853E-02-5.57672E-03-1.05324E-13
 -1      2507 1.41620E-02-5.85856E-03-1.08426E-13
 -1      2508 1.40473E-02-5.81643E-03-1.07962E-13
 -1      2509 1.39346E-02-5.77501E-03-1.07504E-13
 -1      2510 1.38219E-02-5.73359E-03-1.07043E-13
 -1      2511 1.38682E-02-5.69512E-03-1.05937E-13
 -1      2512 1.37072E-02-5.69146E-03-1.06571E-13
 -1      2513 1.35926E-02-5.64932E-03-1.06099E-13
 -1      2514 1.36408E-02-5.61157E-03-1.05018E-13
 -1      2515 7.89872E-03-5.96471E-04-2.71166E-14
 -1      2516 8.11188E-03-7.29329E-04-2.77632E-14
 -1      2517 1.43913E-02-5.94282E-03-1.09345E-13
 -1      2518 1.42766E-02-5.90069E-03-1.08886E-13
 -1      2519 1.40956E-02-5.77866E-03-1.06844E-13
 -1      2520 1.46206E-02-6.02708E-03-1.10251E-13
 -1      2521 1.45059E-02-5.98495E-03-1.09801E-13
 -1      2522 1.43249E-02-5.86291E-03-1.07749E-13
 -1      2523 1.48499E-02-6.11134E-03-1.11139E-13
 -1      2524 1.47352E-02-6.06921E-03-1.10696E-13
 -1      2525 1.45542E-02-5.94717E-03-1.08642E-13
 -1      2526 1.50792E-02-6.19561E-03-1.12000E-13
 -1      2527 1.49645E-02-6.15347E-03-1.11572E-13
 -1      2528 1.47835E-02-6.03142E-03-1.09513E-13
 -1      2529 1.53047E-02-6.27845E-03-1.12822E-13
 -1      2530 1.51919E-02-6.23703E-03-1.12415E-13
 -1      2531 1.50109E-02-6.11496E-03-1.10356E-13
 -1      2532 1.55340E-02-6.36272E-03-1.13629E-13
 -1      2533 1.54193E-02-6.32058E-03-1.13230E-13
 -1      2534 1.52383E-02-6.19851E-03-1.11175E-13
 -1      2535 1.57634E-02-6.44700E-03-1.14410E-13
 -1      2536 1.56487E-02-6.40486E-03-1.14022E-13
 -1      2537 1.54676E-02-6.28278E-03-1.11971E-13
 -1      2538 1.59928E-02-6.53128E-03-1.15166E-13
 -1      2539 1.58781E-02-6.48914E-03-1.14786E-13
 -1      2540 1.56970E-02-6.36706E-03-1.12741E-13
 -1      2541 1.64722E-02-6.81889E-03-1.19653E-13
 -1      2542 1.62911E-02-6.69681E-03-1.17603E-13
 -1      2543 1.65835E-02-6.86673E-03-1.20196E-13
 -1      2544 2.03210E-03 5.15356E-04-1.44980E-15
 -1      2545 1.89127E-03 5.05048E-04-1.21546E-15
 -1      2546 1.80946E-03 4.62934E-04-1.19506E-15
 -1      2547 9.91138E-03-1.47897E-03-3.19334E-14
 -1      2548 9.78386E-03-1.51927E-03-3.16384E-14
 -1      2549 9.65173E-03-1.57488E-03-3.19131E-14
 -1      2550 9.81678E-03-1.54205E-03-3.32876E-14
 -1      2551 9.36307E-04-3.47860E-04-6.46659E-16
 -1      2552 1.08046E-03-3.79963E-04-8.38007E-16
 -1      2553 1.13832E-03-3.60140E-04-9.56158E-16
 -1      2554 9.21328E-04-3.11454E-04-6.60184E-16
 -1      2555 5.46314E-04-2.28743E-05-2.86609E-16
 -1      2556 5.46804E-04-3.87843E-05-2.93534E-16
 -1      2557 6.62187E-04-5.55810E-05-4.02551E-16
 -1      2558 6.60883E-04-1.77878E-05-3.84512E-16
 -1      2559 9.82322E-03-1.44976E-03-3.22705E-14
 -1      2560 9.95296E-03-1.45591E-03-3.24366E-14
 -1      2561 5.24188E-03-8.43503E-04-1.78585E-14
 -1      2562 5.13136E-03-8.52294E-04-1.80581E-14
 -1      2563 4.92820E-03-7.69182E-04-1.76895E-14
 -1      2564 8.38151E-03-8.84471E-04-2.85371E-14
 -1      2565 8.66157E-03-1.03999E-03-2.93462E-14
 -1      2566 8.76928E-03-1.13555E-03-3.01630E-14
 -1      2567 8.25270E-03-8.51541E-04-2.85749E-14
 -1      2568 6.24413E-03-2.97632E-05-1.99910E-14
 -1      2569 6.39809E-03 2.24090E-05-2.05474E-14
 -1      2570 6.94767E-03-1.06299E-05-2.30996E-14
 -1      2571 7.08299E-03-7.55807E-05-2.37875E-14
 -1      2572 6.59899E-03 5.21624E-05-2.13921E-14
 -1      2573 6.76641E-03 4.23254E-05-2.21950E-14
 -1      2574 5.91568E-03-1.60756E-04-1.88660E-14
 -1      2575 6.08177E-03-8.94311E-05-1.94236E-14
 -1      2576 6.13101E-03-4.70427E-05-1.93581E-14
 -1      2577 5.02601E-03-5.36431E-04-1.72024E-14
 -1      2578 5.20154E-03-4.75490E-04-1.74678E-14
 -1      2579 4.71705E-03-6.14451E-04-1.66997E-14
 -1      2580 4.83987E-03-5.86013E-04-1.68105E-14
 -1      2581 4.54130E-03-6.48941E-04-1.67128E-14
 -1      2582 4.60865E-03-6.41176E-04-1.67252E-14
 -1      2583 4.53924E-03-6.50446E-04-1.67621E-14
 -1      2584 4.51752E-03-6.54500E-04-1.67379E-14
 -1      2585 4.51377E-03-6.24192E-04-1.62462E-14
 -1      2586 4.76772E-03-7.03515E-04-1.72986E-14
 -1      2587 4.64495E-03-6.69648E-04-1.69942E-14
 -1      2588 9.35492E-03-1.72394E-03-3.05971E-14
 -1      2589 5.06889E-03-7.03357E-04-1.69536E-14
 -1      2590 9.37784E-03-1.34604E-03-3.12582E-14
 -1      2591 9.59843E-03-1.40711E-03-3.18029E-14
 -1      2592 1.34148E-02-5.55554E-03-1.04718E-13
 -1      2593 9.53162E-03-1.62959E-03-3.10257E-14
 -1      2594 6.70225E-04-1.37166E-04-4.25075E-16
 -1      2595 5.54661E-04-1.25521E-04-3.14663E-16
 -1      2596 5.57937E-04-1.45449E-04-3.15137E-16
 -1      2597 5.20611E-03-4.40354E-04-1.69011E-14
 -1      2598 5.32336E-03-4.18245E-04-1.74307E-14
 -1      2599 5.42935E-03-3.55256E-04-1.73897E-14
 -1      2600 9.02992E-04 3.76921E-04-1.39239E-16
 -1      2601 8.73815E-04 3.50538E-04-1.58578E-16
 -1      2602 1.01668E-03 4.00660E-04-2.09780E-16
 -1      2603 1.00168E-02-1.48059E-03-3.30670E-14
 -1      2604 2.09313E-03 4.83347E-04-1.67852E-15
 -1      2605 5.89273E-04-1.71097E-04-3.38163E-16
 -1      2606 5.95094E-04-1.94978E-04-3.34436E-16
 -1      2607 7.74995E-04-2.48558E-04-5.09480E-16
 -1      2608 7.05891E-04-1.86900E-04-4.55406E-16
 -1      2609 7.54265E-03-3.94423E-04-2.61043E-14
 -1      2610 7.70805E-03-4.91476E-04-2.66083E-14
 -1      2611 7.81686E-03-5.93233E-04-2.72826E-14
 -1      2612 9.72089E-03-1.46429E-03-3.26613E-14
 -1      2613 9.96666E-03-1.51425E-03-3.38122E-14
 -1      2614 9.98569E-03-1.47146E-03-3.26586E-14
 -1      2615 6.46762E-03 4.72094E-05-2.07488E-14
 -1      2616 1.33485E-02-5.47566E-03-1.03175E-13
 -1      2617 1.22746E-03 4.31218E-04-3.89581E-16
 -1      2618 1.11463E-03 4.14228E-04-2.91162E-16
 -1      2619 1.08648E-03 3.88501E-04-3.12819E-16
 -1      2620 1.28374E-03 4.08389E-04-5.15064E-16
 -1      2621 4.57517E-03-6.28426E-04-1.64958E-14
 -1      2622 4.52520E-03-6.00007E-04-1.60063E-14
 -1      2623 4.62509E-03-6.05211E-04-1.62304E-14
 -1      2624 4.63524E-03-6.05441E-04-1.61960E-14
 -1      2625 5.78551E-03-2.08670E-04-1.83652E-14
 -1      2626 5.85355E-03-1.48642E-04-1.83021E-14
 -1      2627 5.65594E-03-2.52475E-04-1.78710E-14
 -1      2628 7.19111E-03-1.48894E-04-2.44100E-14
 -1      2629 7.29454E-03-2.33541E-04-2.50413E-14
 -1      2630 7.07983E-03-1.06737E-04-2.40113E-14
 -1      2631 4.85784E-03-6.91815E-04-1.71079E-14
 -1      2632 6.81462E-03 2.44746E-05-2.24849E-14
 -1      2633 4.90691E-03-5.47463E-04-1.65524E-14
 -1      2634 9.25923E-03-1.34516E-03-3.15779E-14
 -1      2635 7.79790E-04 7.65658E-05-4.34182E-16
 -1      2636 7.78475E-04 5.48058E-05-4.51828E-16
 -1      2637 7.77587E-04 3.30187E-05-4.68037E-16
 -1      2638 7.77138E-04 1.14995E-05-4.83175E-16
 -1      2639 8.95901E-04 4.89289E-05-5.86323E-16
 -1      2640 7.91427E-04 1.72131E-04-3.43462E-16
 -1      2641 7.87338E-04 1.46753E-04-3.69699E-16
 -1      2642 8.03430E-04 2.27307E-04-2.83099E-16
 -1      2643 7.96754E-04 1.98918E-04-3.14893E-16
 -1      2644 9.14760E-04 2.06663E-04-4.28355E-16
 -1      2645 8.46055E-04 3.25113E-04-1.75573E-16
 -1      2646 8.19833E-04 3.00541E-04-1.90372E-16
 -1      2647 9.60274E-04 3.49286E-04-2.49001E-16
 -1      2648 2.15553E-03 4.50604E-04-1.91450E-15
 -1      2649 2.01298E-03 4.42375E-04-1.64315E-15
 -1      2650 4.69357E-03-5.93480E-04-1.60604E-14
 -1      2651 4.89584E-03-6.48491E-04-1.65747E-14
 -1      2652 1.58926E-03-3.92334E-04-1.79622E-15
 -1      2653 1.72509E-03-4.04827E-04-2.09156E-15
 -1      2654 1.86786E-03-4.15698E-04-2.42657E-15
 -1      2655 2.01048E-03-4.24403E-04-2.78685E-15
 -1      2656 1.79029E-03-3.75500E-04-2.26338E-15
 -1      2657 2.15290E-03-4.31313E-04-3.17201E-15
 -1      2658 2.29515E-03-4.36569E-04-3.58234E-15
 -1      2659 2.07621E-03-3.92533E-04-2.98055E-15
 -1      2660 2.43715E-03-4.40461E-04-4.01841E-15
 -1      2661 2.57893E-03-4.43095E-04-4.47870E-15
 -1      2662 2.36121E-03-4.03104E-04-3.79735E-15
 -1      2663 2.72034E-03-4.44714E-04-4.96329E-15
 -1      2664 2.86137E-03-4.45382E-04-5.47269E-15
 -1      2665 2.64483E-03-4.08885E-04-4.71277E-15
 -1      2666 3.00178E-03-4.45354E-04-6.00717E-15
 -1      2667 3.14153E-03-4.44646E-04-6.56536E-15
 -1      2668 2.92621E-03-4.11322E-04-5.72609E-15
 -1      2669 3.28015E-03-4.43614E-04-7.14804E-15
 -1      2670 3.41758E-03-4.42204E-04-7.75402E-15
 -1      2671 3.20389E-03-4.11841E-04-6.83672E-15
 -1      2672 3.55304E-03-4.41040E-04-8.38385E-15
 -1      2673 3.68639E-03-4.39941E-04-9.03716E-15
 -1      2674 3.47536E-03-4.12183E-04-8.04294E-15
 -1      2675 3.80997E-03-4.40063E-04-9.67905E-15
 -1      2676 3.93032E-03-4.40900E-04-1.03429E-14
 -1      2677 3.73018E-03-4.14809E-04-9.30878E-15
 -1      2678 4.05173E-03-4.44637E-04-1.10641E-14
 -1      2679 4.16732E-03-4.50440E-04-1.18086E-14
 -1      2680 3.96924E-03-4.23519E-04-1.06643E-14
 -1      2681 4.27449E-03-4.62005E-04-1.25769E-14
 -1      2682 4.37265E-03-4.77463E-04-1.33672E-14
 -1      2683 4.18889E-03-4.44983E-04-1.21480E-14
 -1      2684 1.01568E-02-1.57619E-03-3.56506E-14
 -1      2685 1.02538E-02-1.65861E-03-3.70790E-14
 -1      2686 7.81407E-04-9.74441E-05-5.39824E-16
 -1      2687 7.83822E-04-1.20615E-04-5.47048E-16
 -1      2688 1.03574E-02-1.75146E-03-3.85295E-14
 -1      2689 1.04707E-02-1.85538E-03-4.00009E-14
 -1      2690 1.02825E-02-1.69590E-03-3.76222E-14
 -1      2691 1.05896E-02-1.96411E-03-4.14951E-14
 -1      2692 1.07153E-02-2.07843E-03-4.30130E-14
 -1      2693 1.04803E-02-1.89471E-03-4.05572E-14
 -1      2694 1.08449E-02-2.19468E-03-4.45560E-14
 -1      2695 1.09787E-02-2.31337E-03-4.61211E-14
 -1      2696 1.07126E-02-2.11495E-03-4.35861E-14
 -1      2697 1.11146E-02-2.43259E-03-4.77090E-14
 -1      2698 1.12530E-02-2.55261E-03-4.93205E-14
 -1      2699 1.09674E-02-2.34620E-03-4.67058E-14
 -1      2700 1.13925E-02-2.67255E-03-5.09530E-14
 -1      2701 1.15334E-02-2.79256E-03-5.26089E-14
 -1      2702 1.12359E-02-2.58220E-03-4.99189E-14
 -1      2703 1.16748E-02-2.91226E-03-5.42880E-14
 -1      2704 1.18170E-02-3.03174E-03-5.59865E-14
 -1      2705 1.15125E-02-2.81968E-03-5.32219E-14
 -1      2706 1.19522E-02-3.14495E-03-5.76195E-14
 -1      2707 1.20878E-02-3.25789E-03-5.92692E-14
 -1      2708 1.17864E-02-3.05118E-03-5.65229E-14
 -1      2709 1.22306E-02-3.37650E-03-6.10264E-14
 -1      2710 1.23735E-02-3.49484E-03-6.28013E-14
 -1      2711 1.20627E-02-3.28211E-03-5.99017E-14
 -1      2712 1.25165E-02-3.61294E-03-6.45913E-14
 -1      2713 1.26595E-02-3.73083E-03-6.63995E-14
 -1      2714 1.23474E-02-3.51824E-03-6.34371E-14
 -1      2715 1.28026E-02-3.84854E-03-6.82259E-14
 -1      2716 1.29456E-02-3.96607E-03-7.00726E-14
 -1      2717 1.26327E-02-3.75369E-03-6.70458E-14
 -1      2718 1.30886E-02-4.08348E-03-7.19360E-14
 -1      2719 1.32316E-02-4.20077E-03-7.38156E-14
 -1      2720 1.29184E-02-3.98859E-03-7.07292E-14
 -1      2721 1.33746E-02-4.31795E-03-7.57132E-14
 -1      2722 1.35176E-02-4.43505E-03-7.76303E-14
 -1      2723 1.32042E-02-4.22305E-03-7.44856E-14
 -1      2724 1.36606E-02-4.55208E-03-7.95621E-14
 -1      2725 1.38036E-02-4.66905E-03-8.15111E-14
 -1      2726 1.34900E-02-4.45719E-03-7.83087E-14
 -1      2727 1.39465E-02-4.78596E-03-8.34792E-14
 -1      2728 1.40894E-02-4.90283E-03-8.54618E-14
 -1      2729 1.37758E-02-4.69109E-03-8.22024E-14
 -1      2730 1.42252E-02-5.01382E-03-8.73611E-14
 -1      2731 1.43610E-02-5.12478E-03-8.92774E-14
 -1      2732 1.40545E-02-4.91896E-03-8.60648E-14
 -1      2733 1.45039E-02-5.24156E-03-9.13082E-14
 -1      2734 1.46467E-02-5.35831E-03-9.33533E-14
 -1      2735 1.43332E-02-5.14672E-03-8.99899E-14
 -1      2736 1.47896E-02-5.47504E-03-9.54158E-14
 -1      2737 1.49325E-02-5.59175E-03-9.74923E-14
 -1      2738 1.46189E-02-5.38021E-03-9.40786E-14
 -1      2739 1.50754E-02-5.70845E-03-9.95808E-14
 -1      2740 1.52183E-02-5.82514E-03-1.01685E-13
 -1      2741 1.49047E-02-5.61364E-03-9.82284E-14
 -1      2742 1.53611E-02-5.94181E-03-1.03795E-13
 -1      2743 1.55040E-02-6.05848E-03-1.05916E-13
 -1      2744 1.51904E-02-5.84701E-03-1.02427E-13
 -1      2745 1.56469E-02-6.17514E-03-1.08046E-13
 -1      2746 1.57897E-02-6.29179E-03-1.10182E-13
 -1      2747 1.54762E-02-6.08034E-03-1.06665E-13
 -1      2748 1.00932E-02-1.49190E-03-3.36532E-14
 -1      2749 1.00855E-02-1.48350E-03-3.35460E-14
 -1      2750 1.64814E-02-6.76716E-03-1.18228E-13
 -1      2751 1.65325E-02-6.81694E-03-1.19209E-13
 -1      2752 2.72577E-03 4.72301E-04-3.23357E-15
 -1      2753 2.58315E-03 4.68144E-04-2.86857E-15
 -1      2754 2.44058E-03 4.63261E-04-2.52673E-15
 -1      2755 2.29807E-03 4.57512E-04-2.20872E-15
 -1      2756 2.21918E-03 4.17213E-04-2.15808E-15
 -1      2757 2.50578E-03 4.28257E-04-2.80697E-15
 -1      2758 3.29743E-03 4.85249E-04-4.93733E-15
 -1      2759 3.15433E-03 4.82303E-04-4.47518E-15
 -1      2760 3.58413E-03 4.91157E-04-5.93536E-15
 -1      2761 3.44073E-03 4.88181E-04-5.42380E-15
 -1      2762 3.36876E-03 4.47548E-04-5.32636E-15
 -1      2763 3.87134E-03 4.97331E-04-7.03270E-15
 -1      2764 3.72772E-03 4.94206E-04-6.47147E-15
 -1      2765 3.65833E-03 4.52971E-04-6.35981E-15
 -1      2766 4.15872E-03 5.03492E-04-8.22886E-15
 -1      2767 4.01508E-03 5.00457E-04-7.61844E-15
 -1      2768 3.94903E-03 4.58800E-04-7.49302E-15
 -1      2769 4.44558E-03 5.08425E-04-9.52730E-15
 -1      2770 4.30231E-03 5.06229E-04-8.86555E-15
 -1      2771 4.24058E-03 4.64737E-04-8.72518E-15
 -1      2772 4.73088E-03 5.09620E-04-1.09273E-14
 -1      2773 4.58854E-03 5.09704E-04-1.02145E-14
 -1      2774 4.53227E-03 4.69502E-04-1.00586E-14
 -1      2775 5.01331E-03 5.02984E-04-1.24359E-14
 -1      2776 4.87255E-03 5.07607E-04-1.16681E-14
 -1      2777 4.82287E-03 4.70413E-04-1.14960E-14
 -1      2778 5.29162E-03 4.82805E-04-1.40532E-14
 -1      2779 5.15303E-03 4.95009E-04-1.32307E-14
 -1      2780 5.11077E-03 4.62999E-04-1.30414E-14
 -1      2781 5.56519E-03 4.42254E-04-1.57837E-14
 -1      2782 5.42896E-03 4.65535E-04-1.49037E-14
 -1      2783 5.39443E-03 4.40954E-04-1.46965E-14
 -1      2784 5.83444E-03 3.74552E-04-1.76321E-14
 -1      2785 5.70020E-03 4.12188E-04-1.66934E-14
 -1      2786 5.67309E-03 3.96756E-04-1.64654E-14
 -1      2787 6.10112E-03 2.74605E-04-1.96003E-14
 -1      2788 5.96786E-03 3.28822E-04-1.86011E-14
 -1      2789 5.94736E-03 3.23136E-04-1.83533E-14
 -1      2790 6.36783E-03 1.40507E-04-2.16847E-14
 -1      2791 6.23421E-03 2.11787E-04-2.06274E-14
 -1      2792 6.21941E-03 2.15075E-04-2.03600E-14
 -1      2793 6.63717E-03-2.58462E-05-2.38840E-14
 -1      2794 6.50196E-03 6.10932E-05-2.27698E-14
 -1      2795 6.49225E-03 7.14761E-05-2.24809E-14
 -1      2796 6.91088E-03-2.19396E-04-2.62012E-14
 -1      2797 6.77338E-03-1.19642E-04-2.50295E-14
 -1      2798 6.76859E-03-1.04468E-04-2.47193E-14
 -1      2799 7.18943E-03-4.33368E-04-2.86320E-14
 -1      2800 7.04955E-03-3.24284E-04-2.74015E-14
 -1      2801 7.04984E-03-3.06392E-04-2.70741E-14
 -1      2802 7.47218E-03-6.60918E-04-3.11767E-14
 -1      2803 7.33036E-03-5.45843E-04-2.98896E-14
 -1      2804 7.33588E-03-5.26672E-04-2.95415E-14
 -1      2805 7.75793E-03-8.96297E-04-3.38360E-14
 -1      2806 7.61480E-03-7.77926E-04-3.24935E-14
 -1      2807 7.62545E-03-7.58250E-04-3.21255E-14
 -1      2808 8.04538E-03-1.13532E-03-3.66039E-14
 -1      2809 7.90155E-03-1.01555E-03-3.52058E-14
 -1      2810 7.91693E-03-9.95669E-04-3.48219E-14
 -1      2811 8.33351E-03-1.37533E-03-3.94799E-14
 -1      2812 8.18945E-03-1.25531E-03-3.80284E-14
 -1      2813 8.20887E-03-1.23529E-03-3.76257E-14
 -1      2814 8.62165E-03-1.61485E-03-4.24569E-14
 -1      2815 8.47764E-03-1.49520E-03-4.09560E-14
 -1      2816 8.50029E-03-1.47500E-03-4.05355E-14
 -1      2817 8.90944E-03-1.85324E-03-4.55383E-14
 -1      2818 8.76562E-03-1.73420E-03-4.39859E-14
 -1      2819 8.79072E-03-1.71381E-03-4.35474E-14
 -1      2820 9.19678E-03-2.09036E-03-4.87118E-14
 -1      2821 9.05319E-03-1.97195E-03-4.71137E-14
 -1      2822 9.08002E-03-1.95137E-03-4.66590E-14
 -1      2823 9.48368E-03-2.32630E-03-5.19769E-14
 -1      2824 9.34030E-03-2.20846E-03-5.03333E-14
 -1      2825 9.36830E-03-2.18771E-03-4.98613E-14
 -1      2826 9.77022E-03-2.56130E-03-5.53277E-14
 -1      2827 9.62700E-03-2.44391E-03-5.36425E-14
 -1      2828 9.65576E-03-2.42302E-03-5.31530E-14
 -1      2829 1.00565E-02-2.79557E-03-5.87639E-14
 -1      2830 9.91339E-03-2.67851E-03-5.70351E-14
 -1      2831 9.94259E-03-2.65753E-03-5.65294E-14
 -1      2832 1.03425E-02-3.02934E-03-6.22882E-14
 -1      2833 1.01995E-02-2.91251E-03-6.05147E-14
 -1      2834 1.02290E-02-2.89146E-03-5.99928E-14
 -1      2835 1.06285E-02-3.26278E-03-6.58898E-14
 -1      2836 1.04855E-02-3.14609E-03-6.40791E-14
 -1      2837 1.05151E-02-3.12500E-03-6.35392E-14
 -1      2838 1.09143E-02-3.49601E-03-6.95757E-14
 -1      2839 1.07714E-02-3.37941E-03-6.77236E-14
 -1      2840 1.08010E-02-3.35829E-03-6.71685E-14
 -1      2841 1.12001E-02-3.72912E-03-7.33402E-14
 -1      2842 1.10572E-02-3.61258E-03-7.14488E-14
 -1      2843 1.10869E-02-3.59144E-03-7.08786E-14
 -1      2844 1.14859E-02-3.96218E-03-7.71719E-14
 -1      2845 1.13430E-02-3.84566E-03-7.52472E-14
 -1      2846 1.13726E-02-3.82451E-03-7.46639E-14
 -1      2847 1.17716E-02-4.19523E-03-8.10674E-14
 -1      2848 1.16288E-02-4.07871E-03-7.91136E-14
 -1      2849 1.16584E-02-4.05755E-03-7.85186E-14
 -1      2850 1.20574E-02-4.42829E-03-8.50173E-14
 -1      2851 1.19145E-02-4.31176E-03-8.30363E-14
 -1      2852 1.19441E-02-4.29059E-03-8.24321E-14
 -1      2853 1.23431E-02-4.66136E-03-8.90140E-14
 -1      2854 1.22002E-02-4.54482E-03-8.70109E-14
 -1      2855 1.22298E-02-4.52365E-03-8.63982E-14
 -1      2856 1.26288E-02-4.89445E-03-9.30418E-14
 -1      2857 1.24860E-02-4.77790E-03-9.10236E-14
 -1      2858 1.25155E-02-4.75673E-03-9.04055E-14
 -1      2859 1.29145E-02-5.12757E-03-9.71051E-14
 -1      2860 1.27717E-02-5.01101E-03-9.50715E-14
 -1      2861 1.28012E-02-4.98983E-03-9.44488E-14
 -1      2862 1.32029E-02-5.35989E-03-1.01156E-13
 -1      2863 1.30601E-02-5.24332E-03-9.91127E-14
 -1      2864 1.30896E-02-5.22215E-03-9.84913E-14
 -1      2865 1.33807E-02-5.45366E-03-1.02526E-13
 -1      2866 1.38009E-02-5.61486E-03-1.04364E-13
 -1      2867 1.36881E-02-5.57345E-03-1.03916E-13
 -1      2868 1.42585E-02-5.78300E-03-1.06154E-13
 -1      2869 1.41438E-02-5.74088E-03-1.05709E-13
 -1      2870 1.35917E-02-5.53462E-03-1.03452E-13
 -1      2871 1.34771E-02-5.49249E-03-1.02992E-13
 -1      2872 1.33315E-02-5.37673E-03-1.00967E-13
 -1      2873 1.35244E-02-5.45437E-03-1.01889E-13
 -1      2874 9.62334E-03-1.48533E-03-3.31604E-14
 -1      2875 9.83109E-03-1.51843E-03-3.36406E-14
 -1      2876 1.40297E-02-5.69893E-03-1.05263E-13
 -1      2877 1.39150E-02-5.65681E-03-1.04813E-13
 -1      2878 1.37350E-02-5.53514E-03-1.02794E-13
 -1      2879 1.39633E-02-5.61903E-03-1.03680E-13
 -1      2880 1.47171E-02-5.95149E-03-1.07891E-13
 -1      2881 1.46025E-02-5.90937E-03-1.07465E-13
 -1      2882 1.49426E-02-6.03431E-03-1.08714E-13
 -1      2883 1.48298E-02-5.99290E-03-1.08305E-13
 -1      2884 1.46488E-02-5.87085E-03-1.06264E-13
 -1      2885 1.51719E-02-6.11857E-03-1.09526E-13
 -1      2886 1.50572E-02-6.07644E-03-1.09122E-13
 -1      2887 1.48762E-02-5.95438E-03-1.07078E-13
 -1      2888 1.54013E-02-6.20284E-03-1.10312E-13
 -1      2889 1.52866E-02-6.16070E-03-1.09920E-13
 -1      2890 1.51055E-02-6.03863E-03-1.07878E-13
 -1      2891 1.56306E-02-6.28711E-03-1.11072E-13
 -1      2892 1.55160E-02-6.24498E-03-1.10696E-13
 -1      2893 1.53349E-02-6.12289E-03-1.08654E-13
 -1      2894 1.63273E-02-6.68007E-03-1.16928E-13
 -1      2895 1.62100E-02-6.63662E-03-1.16542E-13
 -1      2896 1.61101E-02-6.57473E-03-1.15555E-13
 -1      2897 1.59290E-02-6.45264E-03-1.13507E-13
 -1      2898 1.87035E-03 4.32452E-04-1.39430E-15
 -1      2899 1.72761E-03 4.20645E-04-1.16801E-15
 -1      2900 1.93266E-03 4.01289E-04-1.60158E-15
 -1      2901 9.98163E-03-1.52179E-03-3.37977E-14
 -1      2902 1.00617E-02-1.50459E-03-3.37272E-14
 -1      2903 1.00994E-02-1.52985E-03-3.43926E-14
 -1      2904 6.33957E-03 3.86309E-05-2.00787E-14
 -1      2905 6.50939E-03 6.40392E-05-2.09085E-14
 -1      2906 4.55897E-03-5.89926E-04-1.57139E-14
 -1      2907 4.64290E-03-5.72522E-04-1.56871E-14
 -1      2908 4.60203E-03-5.64706E-04-1.55758E-14
 -1      2909 4.82104E-03-5.36366E-04-1.59583E-14
 -1      2910 4.99252E-03-4.98836E-04-1.63381E-14
 -1      2911 1.44878E-02-5.86725E-03-1.07032E-13
 -1      2912 1.43732E-02-5.82512E-03-1.06595E-13
 -1      2913 1.44214E-02-5.78732E-03-1.05424E-13
 -1      2914 3.01133E-03 4.79238E-04-4.03703E-15
 -1      2915 2.86851E-03 4.75960E-04-3.62301E-15
 -1      2916 2.79273E-03 4.36120E-04-3.55049E-15
 -1      2917 3.08029E-03 4.42187E-04-4.39042E-15
 -1      2918 6.03636E-03-5.33788E-05-1.87926E-14
 -1      2919 6.17360E-03-3.77151E-06-1.93466E-14
 -1      2920 9.14354E-03-1.34744E-03-3.20185E-14
 -1      2921 9.36471E-03-1.42322E-03-3.26339E-14
 -1      2922 4.48919E-03-5.93280E-04-1.57636E-14
 -1      2923 4.50972E-03-5.97069E-04-1.57399E-14
 -1      2924 4.50367E-03-5.65893E-04-1.52400E-14
 -1      2925 6.67819E-03 5.22573E-05-2.18122E-14
 -1      2926 6.83134E-03 5.10869E-06-2.27049E-14
 -1      2927 1.58475E-03 4.06487E-04-9.64018E-16
 -1      2928 1.44168E-03 3.89760E-04-7.81452E-16
 -1      2929 1.64602E-03 3.78421E-04-1.13554E-15
 -1      2930 7.84116E-04 1.22545E-04-3.93037E-16
 -1      2931 7.81658E-04 9.91729E-05-4.14640E-16
 -1      2932 8.99157E-04 9.84799E-05-5.42792E-16
 -1      2933 9.05071E-04 1.50495E-04-4.90723E-16
 -1      2934 1.30288E-03-3.57549E-04-1.24922E-15
 -1      2935 1.44616E-03-3.76453E-04-1.51006E-15
 -1      2936 1.50382E-03-3.49983E-04-1.64539E-15
 -1      2937 1.61462E-02-6.55798E-03-1.14879E-13
 -1      2938 5.08783E-03-4.49320E-04-1.62972E-14
 -1      2939 5.17603E-03-3.93521E-04-1.62543E-14
 -1      2940 4.97549E-03-4.44736E-04-1.57047E-14
 -1      2941 8.94798E-04 5.82189E-07-6.23145E-16
 -1      2942 7.77103E-04-9.95344E-06-4.97012E-16
 -1      2943 7.77483E-04-3.14218E-05-5.09629E-16
 -1      2944 8.07685E-04 2.67318E-04-2.29715E-16
 -1      2945 4.48320E-03-5.74033E-04-1.55044E-14
 -1      2946 4.45081E-03-5.51165E-04-1.50096E-14
 -1      2947 4.49284E-03-5.52658E-04-1.52451E-14
 -1      2948 9.25484E-04 2.79176E-04-3.31766E-16
 -1      2949 7.78302E-04-5.30171E-05-5.20756E-16
 -1      2950 7.79582E-04-7.50111E-05-5.31056E-16
 -1      2951 8.98817E-04-9.66477E-05-6.78616E-16
 -1      2952 8.95716E-04-4.75416E-05-6.53882E-16
 -1      2953 4.37324E-03-4.92078E-04-1.38259E-14
 -1      2954 4.45783E-03-5.07892E-04-1.42850E-14
 -1      2955 1.01025E-02-1.53301E-03-3.47161E-14
 -1      2956 1.01539E-02-1.55981E-03-3.52472E-14
 -1      2957 4.52464E-03-5.39543E-04-1.50816E-14
 -1      2958 7.40036E-03-3.21786E-04-2.56882E-14
 -1      2959 7.50574E-03-4.13671E-04-2.63456E-14
 -1      2960 7.27950E-03-2.59945E-04-2.52740E-14
 -1      2961 9.04618E-04-1.48166E-04-6.96790E-16
 -1      2962 7.86991E-04-1.44595E-04-5.52767E-16
 -1      2963 7.90997E-04-1.69619E-04-5.56440E-16
 -1      2964 5.91635E-03-8.90870E-05-1.82915E-14
 -1      2965 5.95677E-03-3.66636E-05-1.82752E-14
 -1      2966 5.79504E-03-1.24850E-04-1.77972E-14
 -1      2967 6.22952E-03 3.56174E-05-1.94956E-14
 -1      2968 1.60034E-02-6.44134E-03-1.12732E-13
 -1      2969 6.54619E-03 6.81935E-05-2.11142E-14
 -1      2970 1.58327E-02-6.34654E-03-1.11343E-13
 -1      2971 9.51953E-03-1.49311E-03-3.36113E-14
 -1      2972 1.41921E-02-5.70309E-03-1.04557E-13
 -1      2973 1.28396E-03 3.73286E-04-5.93126E-16
 -1      2974 1.18465E-03 3.65300E-04-4.79299E-16
 -1      2975 1.57154E-02-6.30310E-03-1.10955E-13
 -1      2976 1.55343E-02-6.18101E-03-1.08917E-13
 -1      2977 9.91922E-03-1.55178E-03-3.43062E-14
 -1      2978 9.99505E-03-1.58050E-03-3.49772E-14
 -1      2979 9.85027E-03-1.57854E-03-3.48150E-14
 -1      2980 6.79168E-03 4.50457E-06-2.26081E-14
 -1      2981 6.92850E-03-4.27581E-05-2.33039E-14
 -1      2982 7.02250E-03-1.03386E-04-2.39143E-14
 -1      2983 8.45460E-04-2.41656E-04-6.02315E-16
 -1      2984 8.82139E-04-2.75450E-04-6.32212E-16
 -1      2985 9.89943E-04-3.00186E-04-7.69336E-16
 -1      2986 4.60253E-03-5.30019E-04-1.50102E-14
 -1      2987 4.70337E-03-5.39835E-04-1.54809E-14
 -1      2988 4.76436E-03-4.98745E-04-1.52728E-14
 -1      2989 5.52335E-03-2.89174E-04-1.73319E-14
 -1      2990 5.59506E-03-2.22987E-04-1.72690E-14
 -1      2991 5.39332E-03-3.15833E-04-1.68009E-14
 -1      2992 1.09219E-03-3.20499E-04-9.13291E-16
 -1      2993 1.20044E-03-3.41082E-04-1.07859E-15
 -1      2994 1.25818E-03-3.18762E-04-1.19494E-15
 -1      2995 1.05392E-03-2.84789E-04-8.76049E-16
 -1      2996 8.12863E-03-8.13545E-04-2.86117E-14
 -1      2997 8.36934E-03-9.58469E-04-2.94006E-14
 -1      2998 7.77944E-03-6.04335E-04-2.75596E-14
 -1      2999 7.94543E-03-7.07351E-04-2.80826E-14
 -1      3000 8.07274E-03-8.12337E-04-2.88949E-14
 -1      3001 8.90536E-03-1.25162E-03-3.13709E-14
 -1      3002 9.04208E-03-1.33939E-03-3.24178E-14
 -1      3003 1.34445E-03 3.49807E-04-7.27445E-16
 -1      3004 8.66637E-03-1.13224E-03-3.05536E-14
 -1      3005 1.04026E-03 2.42013E-04-5.21677E-16
 -1      3006 1.03351E-03 2.10264E-04-5.61766E-16
 -1      3007 1.05943E-03 3.63288E-04-3.31901E-16
 -1      3008 4.41321E-03-5.22489E-04-1.44597E-14
 -1      3009 4.43613E-03-5.38983E-04-1.47107E-14
 -1      3010 3.73391E-03 4.13598E-04-6.79109E-15
 -1      3011 3.58738E-03 4.11135E-04-6.24400E-15
 -1      3012 1.99632E-03 3.69364E-04-1.81735E-15
 -1      3013 1.85254E-03 3.60354E-04-1.55492E-15
 -1      3014 8.00519E-04-1.89476E-04-5.64463E-16
 -1      3015 8.33936E-04-2.19209E-04-5.97206E-16
 -1      3016 9.40031E-04-2.41326E-04-7.29858E-16
 -1      3017 9.18474E-04-1.96417E-04-7.13297E-16
 -1      3018 9.44088E-03-1.51074E-03-3.42233E-14
 -1      3019 9.67178E-03-1.56625E-03-3.47651E-14
 -1      3020 1.99628E-03-3.53603E-04-2.78343E-15
 -1      3021 2.13929E-03-3.60207E-04-3.16419E-15
 -1      3022 2.28200E-03-3.65487E-04-3.56995E-15
 -1      3023 2.42437E-03-3.69563E-04-4.00039E-15
 -1      3024 2.20320E-03-3.27708E-04-3.34735E-15
 -1      3025 2.56625E-03-3.72725E-04-4.45497E-15
 -1      3026 2.70756E-03-3.75060E-04-4.93331E-15
 -1      3027 2.48817E-03-3.36170E-04-4.20151E-15
 -1      3028 2.84809E-03-3.76882E-04-5.43638E-15
 -1      3029 2.98769E-03-3.78237E-04-5.96433E-15
 -1      3030 2.77079E-03-3.41788E-04-5.15217E-15
 -1      3031 3.12604E-03-3.79537E-04-6.51534E-15
 -1      3032 3.26289E-03-3.80781E-04-7.09086E-15
 -1      3033 3.04964E-03-3.46237E-04-6.19916E-15
 -1      3034 3.39773E-03-3.82593E-04-7.69007E-15
 -1      3035 3.53015E-03-3.84888E-04-8.31235E-15
 -1      3036 3.32256E-03-3.51502E-04-7.34193E-15
 -1      3037 3.65305E-03-3.88478E-04-8.92641E-15
 -1      3038 3.77250E-03-3.93180E-04-9.56052E-15
 -1      3039 3.57990E-03-3.59967E-04-8.54767E-15
 -1      3040 3.89361E-03-4.00958E-04-1.02513E-14
 -1      3041 4.00883E-03-4.11071E-04-1.09662E-14
 -1      3042 3.82417E-03-3.75261E-04-9.84294E-15
 -1      3043 4.11705E-03-4.26193E-04-1.17043E-14
 -1      3044 4.21636E-03-4.45109E-04-1.24665E-14
 -1      3045 4.05476E-03-4.03179E-04-1.12649E-14
 -1      3046 1.03734E-02-1.83454E-03-3.96403E-14
 -1      3047 1.04753E-02-1.93704E-03-4.11249E-14
 -1      3048 1.05858E-02-2.04295E-03-4.26344E-14
 -1      3049 1.07037E-02-2.15355E-03-4.41676E-14
 -1      3050 1.04583E-02-1.97718E-03-4.16900E-14
 -1      3051 1.08271E-02-2.26603E-03-4.57235E-14
 -1      3052 1.09552E-02-2.38099E-03-4.73036E-14
 -1      3053 1.06874E-02-2.19036E-03-4.47473E-14
 -1      3054 1.10867E-02-2.49684E-03-4.89050E-14
 -1      3055 1.12211E-02-2.61385E-03-5.05298E-14
 -1      3056 1.09385E-02-2.41456E-03-4.78964E-14
 -1      3057 1.13574E-02-2.73119E-03-5.21769E-14
 -1      3058 1.14956E-02-2.84897E-03-5.38461E-14
 -1      3059 1.12034E-02-2.64472E-03-5.11388E-14
 -1      3060 1.16278E-02-2.96090E-03-5.54494E-14
 -1      3061 1.17610E-02-3.07295E-03-5.70700E-14
 -1      3062 1.14701E-02-2.87195E-03-5.43821E-14
 -1      3063 1.19019E-02-3.19081E-03-5.87976E-14
 -1      3064 1.20433E-02-3.30864E-03-6.05435E-14
 -1      3065 1.17417E-02-3.10035E-03-5.77009E-14
 -1      3066 1.21852E-02-3.42635E-03-6.23065E-14
 -1      3067 1.23273E-02-3.54398E-03-6.40871E-14
 -1      3068 1.20234E-02-3.33499E-03-6.11809E-14
 -1      3069 1.24697E-02-3.66150E-03-6.58884E-14
 -1      3070 1.26122E-02-3.77892E-03-6.77083E-14
 -1      3071 1.23069E-02-3.56963E-03-6.47367E-14
 -1      3072 1.27548E-02-3.89624E-03-6.95473E-14
 -1      3073 1.28975E-02-4.01348E-03-7.14050E-14
 -1      3074 1.25915E-02-3.80409E-03-6.83697E-14
 -1      3075 1.30403E-02-4.13063E-03-7.32794E-14
 -1      3076 1.31831E-02-4.24772E-03-7.51708E-14
 -1      3077 1.28766E-02-4.03833E-03-7.20784E-14
 -1      3078 1.33260E-02-4.36474E-03-7.70789E-14
 -1      3079 1.34689E-02-4.48171E-03-7.90057E-14
 -1      3080 1.31621E-02-4.27237E-03-7.58561E-14
 -1      3081 1.36117E-02-4.59864E-03-8.09506E-14
 -1      3082 1.37546E-02-4.71552E-03-8.29128E-14
 -1      3083 1.34477E-02-4.50623E-03-7.97022E-14
 -1      3084 1.38904E-02-4.82652E-03-8.47907E-14
 -1      3085 1.40261E-02-4.93749E-03-8.66843E-14
 -1      3086 1.37263E-02-4.73410E-03-8.35207E-14
 -1      3087 1.41690E-02-5.05428E-03-8.86956E-14
 -1      3088 1.43119E-02-5.17104E-03-9.07228E-14
 -1      3089 1.40049E-02-4.96186E-03-8.74056E-14
 -1      3090 1.44548E-02-5.28779E-03-9.27659E-14
 -1      3091 1.45976E-02-5.40451E-03-9.48254E-14
 -1      3092 1.42906E-02-5.19537E-03-9.14560E-14
 -1      3093 1.47405E-02-5.52122E-03-9.68995E-14
 -1      3094 1.48834E-02-5.63792E-03-9.89843E-14
 -1      3095 1.45763E-02-5.42881E-03-9.55716E-14
 -1      3096 1.50262E-02-5.75460E-03-1.01081E-13
 -1      3097 1.51691E-02-5.87127E-03-1.03189E-13
 -1      3098 1.48621E-02-5.66219E-03-9.97391E-14
 -1      3099 1.52803E-02-5.96782E-03-1.04984E-13
 -1      3100 1.54231E-02-6.08448E-03-1.07110E-13
 -1      3101 1.53384E-02-6.06850E-03-1.07227E-13
 -1      3102 1.51161E-02-5.87542E-03-1.03629E-13
 -1      3103 4.02842E-03 4.18964E-04-7.95911E-15
 -1      3104 3.88097E-03 4.16197E-04-7.36297E-15
 -1      3105 3.81082E-03 3.73005E-04-7.22855E-15
 -1      3106 3.44126E-03 4.08808E-04-5.72169E-15
 -1      3107 3.29561E-03 4.06530E-04-5.22438E-15
 -1      3108 3.51487E-03 3.68996E-04-6.12355E-15
 -1      3109 4.32457E-03 4.24645E-04-9.22760E-15
 -1      3110 4.17637E-03 4.21807E-04-8.58076E-15
 -1      3111 4.10945E-03 3.77822E-04-8.43229E-15
 -1      3112 4.62155E-03 4.29357E-04-1.05957E-14
 -1      3113 4.47308E-03 4.27255E-04-9.89858E-15
 -1      3114 4.41059E-03 3.83292E-04-9.73505E-15
 -1      3115 4.91787E-03 4.30260E-04-1.20696E-14
 -1      3116 4.76995E-03 4.30552E-04-1.13194E-14
 -1      3117 4.71327E-03 3.88185E-04-1.11396E-14
 -1      3118 5.21153E-03 4.22450E-04-1.36529E-14
 -1      3119 5.06519E-03 4.27872E-04-1.28474E-14
 -1      3120 5.01565E-03 3.89494E-04-1.26496E-14
 -1      3121 5.50061E-03 3.98859E-04-1.53455E-14
 -1      3122 5.35672E-03 4.13187E-04-1.44849E-14
 -1      3123 5.31520E-03 3.81743E-04-1.42693E-14
 -1      3124 5.78420E-03 3.51042E-04-1.71542E-14
 -1      3125 5.64302E-03 3.78564E-04-1.62352E-14
 -1      3126 5.60960E-03 3.56842E-04-1.60010E-14
 -1      3127 6.06323E-03 2.71081E-04-1.90809E-14
 -1      3128 5.92405E-03 3.15515E-04-1.81027E-14
 -1      3129 5.89790E-03 3.05150E-04-1.78483E-14
 -1      3130 6.34047E-03 1.54095E-04-2.11247E-14
 -1      3131 6.20174E-03 2.17341E-04-2.00883E-14
 -1      3132 6.18155E-03 2.18016E-04-1.98127E-14
 -1      3133 6.61946E-03 9.24484E-08-2.32844E-14
 -1      3134 6.47943E-03 8.14828E-05-2.21907E-14
 -1      3135 6.46412E-03 9.09544E-05-2.18955E-14
 -1      3136 6.90299E-03-1.86075E-04-2.55610E-14
 -1      3137 6.76049E-03-8.94673E-05-2.44081E-14
 -1      3138 6.74970E-03-7.44531E-05-2.40939E-14
 -1      3139 7.19196E-03-3.96530E-04-2.79517E-14
 -1      3140 7.04679E-03-2.88856E-04-2.67418E-14
 -1      3141 7.04090E-03-2.71305E-04-2.64061E-14
 -1      3142 7.48548E-03-6.22813E-04-3.04587E-14
 -1      3143 7.33827E-03-5.08214E-04-2.91911E-14
 -1      3144 7.33788E-03-4.90112E-04-2.88358E-14
 -1      3145 7.78164E-03-8.57843E-04-3.30788E-14
 -1      3146 7.63340E-03-7.39613E-04-3.17540E-14
 -1      3147 7.63884E-03-7.21765E-04-3.13811E-14
 -1      3148 8.07841E-03-1.09664E-03-3.58132E-14
 -1      3149 7.93010E-03-9.76993E-04-3.44339E-14
 -1      3150 7.94119E-03-9.59420E-04-3.40400E-14
 -1      3151 8.37432E-03-1.33628E-03-3.86537E-14
 -1      3152 8.22658E-03-1.21647E-03-3.72191E-14
 -1      3153 8.24269E-03-1.19885E-03-3.68097E-14
 -1      3154 8.66853E-03-1.57526E-03-4.15990E-14
 -1      3155 8.52169E-03-1.45589E-03-4.01141E-14
 -1      3156 8.54191E-03-1.43792E-03-3.96860E-14
 -1      3157 8.96080E-03-1.81306E-03-4.46440E-14
 -1      3158 8.81493E-03-1.69431E-03-4.31083E-14
 -1      3159 8.83831E-03-1.67578E-03-4.26670E-14
 -1      3160 9.25126E-03-2.04961E-03-4.77843E-14
 -1      3161 9.10625E-03-1.93147E-03-4.62027E-14
 -1      3162 9.13193E-03-1.91234E-03-4.57440E-14
 -1      3163 9.54022E-03-2.28508E-03-5.10144E-14
 -1      3164 9.39592E-03-2.16746E-03-4.93883E-14
 -1      3165 9.42317E-03-2.14777E-03-4.89139E-14
 -1      3166 9.82805E-03-2.51970E-03-5.43323E-14
 -1      3167 9.68426E-03-2.40248E-03-5.26623E-14
 -1      3168 9.71255E-03-2.38233E-03-5.21714E-14
 -1      3169 1.01151E-02-2.75371E-03-5.77356E-14
 -1      3170 9.97165E-03-2.63677E-03-5.60229E-14
 -1      3171 1.00006E-02-2.61627E-03-5.55154E-14
 -1      3172 1.04015E-02-2.98730E-03-6.12235E-14
 -1      3173 1.02584E-02-2.87055E-03-5.94681E-14
 -1      3174 1.02877E-02-2.84979E-03-5.89456E-14
 -1      3175 1.06877E-02-3.22061E-03-6.47945E-14
 -1      3176 1.05446E-02-3.10398E-03-6.30000E-14
 -1      3177 1.05741E-02-3.08306E-03-6.24569E-14
 -1      3178 1.09736E-02-3.45377E-03-6.84487E-14
 -1      3179 1.08306E-02-3.33721E-03-6.66101E-14
 -1      3180 1.08602E-02-3.31618E-03-6.60526E-14
 -1      3181 1.12594E-02-3.68684E-03-7.21841E-14
 -1      3182 1.11165E-02-3.57031E-03-7.03064E-14
 -1      3183 1.11461E-02-3.54921E-03-6.97327E-14
 -1      3184 1.15451E-02-3.91987E-03-7.59903E-14
 -1      3185 1.14023E-02-3.80336E-03-7.40786E-14
 -1      3186 1.14319E-02-3.78222E-03-7.34914E-14
 -1      3187 1.18308E-02-4.15290E-03-7.98673E-14
 -1      3188 1.16880E-02-4.03639E-03-7.79219E-14
 -1      3189 1.17176E-02-4.01523E-03-7.73235E-14
 -1      3190 1.21165E-02-4.38595E-03-8.37970E-14
 -1      3191 1.19737E-02-4.26942E-03-8.18246E-14
 -1      3192 1.20033E-02-4.24825E-03-8.12173E-14
 -1      3193 1.24022E-02-4.61901E-03-8.77787E-14
 -1      3194 1.22594E-02-4.50248E-03-8.57810E-14
 -1      3195 1.22890E-02-4.48130E-03-8.51652E-14
 -1      3196 1.26879E-02-4.85210E-03-9.18002E-14
 -1      3197 1.25451E-02-4.73555E-03-8.97867E-14
 -1      3198 1.25746E-02-4.71437E-03-8.91611E-14
 -1      3199 1.29736E-02-5.08521E-03-9.58582E-14
 -1      3200 1.28308E-02-4.96865E-03-9.38246E-14
 -1      3201 1.28603E-02-4.94747E-03-9.31987E-14
 -1      3202 1.32254E-02-5.28884E-03-9.94140E-14
 -1      3203 1.30798E-02-5.17309E-03-9.74022E-14
 -1      3204 1.31094E-02-5.15190E-03-9.67725E-14
 -1      3205 1.33218E-02-5.32767E-03-9.98726E-14
 -1      3206 1.48098E-02-5.87443E-03-1.05446E-13
 -1      3207 1.46952E-02-5.83231E-03-1.05042E-13
 -1      3208 8.53741E-03-1.08803E-03-3.05865E-14
 -1      3209 1.02076E-02-1.65061E-03-3.67462E-14
 -1      3210 1.02863E-02-1.74023E-03-3.81885E-14
 -1      3211 1.50392E-02-5.95868E-03-1.06237E-13
 -1      3212 1.49245E-02-5.91655E-03-1.05845E-13
 -1      3213 1.47434E-02-5.79448E-03-1.03817E-13
 -1      3214 1.45824E-02-5.79091E-03-1.04643E-13
 -1      3215 1.44697E-02-5.74951E-03-1.04237E-13
 -1      3216 1.45161E-02-5.71097E-03-1.03024E-13
 -1      3217 1.52461E-02-6.03465E-03-1.06927E-13
 -1      3218 1.51314E-02-5.99252E-03-1.06546E-13
 -1      3219 1.49504E-02-5.87044E-03-1.04519E-13
 -1      3220 1.51350E-02-5.93812E-03-1.05126E-13
 -1      3221 4.33589E-03-4.83408E-04-1.35414E-14
 -1      3222 1.00568E-02-1.48779E-03-3.35929E-14
 -1      3223 9.97510E-03-1.49755E-03-3.34652E-14
 -1      3224 1.70976E-03-3.35349E-04-2.09584E-15
 -1      3225 1.85310E-03-3.45367E-04-2.42756E-15
 -1      3226 1.91689E-03-3.14783E-04-2.59099E-15
 -1      3227 6.40579E-03 7.92604E-05-2.03532E-14
 -1      3228 6.55624E-03 6.94535E-05-2.12384E-14
 -1      3229 1.70883E-03 3.49519E-04-1.31491E-15
 -1      3230 1.56516E-03 3.36684E-04-1.09747E-15
 -1      3231 1.77286E-03 3.19788E-04-1.50306E-15
 -1      3232 1.43551E-02-5.70739E-03-1.03818E-13
 -1      3233 1.42404E-02-5.66528E-03-1.03394E-13
 -1      3234 1.42887E-02-5.62746E-03-1.02214E-13
 -1      3235 1.05981E-03 3.30663E-04-3.94284E-16
 -1      3236 1.39753E-03 3.21755E-04-8.64068E-16
 -1      3237 1.23923E-03 3.06620E-04-6.66473E-16
 -1      3238 1.41258E-02-5.62317E-03-1.02964E-13
 -1      3239 1.40111E-02-5.58105E-03-1.02531E-13
 -1      3240 1.40594E-02-5.54324E-03-1.01375E-13
 -1      3241 1.01589E-03 6.72118E-05-7.16685E-16
 -1      3242 1.01464E-03 4.03727E-05-7.40510E-16
 -1      3243 4.46318E-03-5.37266E-04-1.46871E-14
 -1      3244 6.12066E-03 3.83478E-05-1.88936E-14
 -1      3245 6.26648E-03 6.77895E-05-1.96158E-14
 -1      3246 6.28959E-03 8.90813E-05-1.97307E-14
 -1      3247 8.96760E-03-1.34401E-03-3.30222E-14
 -1      3248 9.17800E-03-1.43065E-03-3.36904E-14
 -1      3249 1.42311E-03-3.08768E-04-1.50547E-15
 -1      3250 1.56643E-03-3.23215E-04-1.78819E-15
 -1      3251 1.63009E-03-2.95686E-04-1.93194E-15
 -1      3252 1.05277E-03 2.83814E-04-4.68660E-16
 -1      3253 8.35183E-03-1.00938E-03-3.04316E-14
 -1      3254 8.62204E-03-1.16733E-03-3.16044E-14
 -1      3255 1.01398E-03 1.37755E-05-7.62519E-16
 -1      3256 1.01391E-03-1.26920E-05-7.82902E-16
 -1      3257 1.13453E-03 2.91961E-05-9.14511E-16
 -1      3258 1.02677E-02-1.78250E-03-3.87386E-14
 -1      3259 6.52042E-03 7.61719E-05-2.11001E-14
 -1      3260 6.65785E-03 4.42987E-05-2.18841E-14
 -1      3261 4.83952E-03-4.61857E-04-1.52329E-14
 -1      3262 4.91250E-03-4.18290E-04-1.51907E-14
 -1      3263 4.71556E-03-4.67297E-04-1.47679E-14
 -1      3264 1.35146E-02-5.40531E-03-1.00785E-13
 -1      3265 1.34182E-02-5.36649E-03-1.00329E-13
 -1      3266 1.33120E-02-5.27860E-03-9.87743E-14
 -1      3267 2.57207E-03 3.92506E-04-3.09488E-15
 -1      3268 2.42801E-03 3.88246E-04-2.74010E-15
 -1      3269 7.50192E-03-4.42578E-04-2.66946E-14
 -1      3270 7.63139E-03-5.19327E-04-2.71264E-14
 -1      3271 7.75691E-03-6.23234E-04-2.79187E-14
 -1      3272 1.01355E-02-1.57723E-03-3.53239E-14
 -1      3273 4.28740E-03-4.62226E-04-1.30675E-14
 -1      3274 7.11929E-03-1.70512E-04-2.45403E-14
 -1      3275 7.21623E-03-2.44819E-04-2.51760E-14
 -1      3276 6.97519E-03-9.77544E-05-2.38171E-14
 -1      3277 1.02319E-03-1.48228E-04-8.56506E-16
 -1      3278 1.02743E-03-1.77193E-04-8.65478E-16
 -1      3279 5.66537E-03-1.57140E-04-1.72577E-14
 -1      3280 5.71612E-03-9.56445E-05-1.72401E-14
 -1      3281 5.53616E-03-1.84423E-04-1.67255E-14
 -1      3282 1.32086E-03-2.96043E-04-1.31889E-15
 -1      3283 1.38459E-03-2.72236E-04-1.44435E-15
 -1      3284 1.21873E-03-2.81964E-04-1.14480E-15
 -1      3285 5.90529E-03-7.59191E-06-1.78926E-14
 -1      3286 6.01403E-03 1.69391E-05-1.83891E-14
 -1      3287 6.05350E-03 6.02068E-05-1.84996E-14
 -1      3288 8.78647E-03-1.27469E-03-3.28556E-14
 -1      3289 2.28403E-03 3.83088E-04-2.40923E-15
 -1      3290 2.14015E-03 3.76887E-04-2.10178E-15
 -1      3291 2.06115E-03 3.36708E-04-2.04050E-15
 -1      3292 2.34996E-03 3.48264E-04-2.66825E-15
 -1      3293 8.18361E-03-9.13306E-04-2.98802E-14
 -1      3294 8.29140E-03-1.00106E-03-3.08779E-14
 -1      3295 8.02403E-03-8.15432E-04-2.93337E-14
 -1      3296 1.17147E-03 2.86521E-04-6.13157E-16
 -1      3297 1.00768E-02-1.65350E-03-3.63931E-14
 -1      3298 1.01100E-02-1.61726E-03-3.58726E-14
 -1      3299 2.86071E-03 3.99137E-04-3.87475E-15
 -1      3300 2.71631E-03 3.96093E-04-3.47288E-15
 -1      3301 2.63936E-03 3.56035E-04-3.38980E-15
 -1      3302 1.38969E-02-5.53912E-03-1.02101E-13
 -1      3303 1.37828E-02-5.49718E-03-1.01664E-13
 -1      3304 1.38306E-02-5.45920E-03-1.00521E-13
 -1      3305 1.36288E-02-5.44725E-03-1.01227E-13
 -1      3306 5.12815E-03-3.37844E-04-1.56014E-14
 -1      3307 5.25830E-03-3.32474E-04-1.61955E-14
 -1      3308 5.32614E-03-2.68969E-04-1.61326E-14
 -1      3309 1.02036E-03 1.22055E-04-6.62542E-16
 -1      3310 1.01778E-03 9.43634E-05-6.90772E-16
 -1      3311 1.13740E-03 8.72976E-05-8.58661E-16
 -1      3312 6.74594E-03 9.10007E-06-2.24667E-14
 -1      3313 9.36158E-03-1.52015E-03-3.48441E-14
 -1      3314 1.46100E-03 2.96400E-04-1.01400E-15
 -1      3315 1.15285E-03 2.10372E-04-7.14964E-16
 -1      3316 1.02806E-03 1.79901E-04-5.97965E-16
 -1      3317 1.02377E-03 1.50599E-04-6.31602E-16
 -1      3318 1.01736E-03-9.26774E-05-8.32721E-16
 -1      3319 1.01985E-03-1.20108E-04-8.45800E-16
 -1      3320 1.14253E-03-1.45123E-04-1.03184E-15
 -1      3321 3.15031E-03 4.04234E-04-4.75011E-15
 -1      3322 3.00538E-03 4.01810E-04-4.30003E-15
 -1      3323 2.92966E-03 3.61357E-04-4.20550E-15
 -1      3324 3.22132E-03 3.65361E-04-5.11666E-15
 -1      3325 4.35884E-03-4.78799E-04-1.35703E-14
 -1      3326 4.44793E-03-4.97889E-04-1.40774E-14
 -1      3327 4.23593E-03-4.32580E-04-1.24946E-14
 -1      3328 9.71971E-03-1.63277E-03-3.60664E-14
 -1      3329 9.78210E-03-1.60796E-03-3.54410E-14
 -1      3330 9.88318E-03-1.64521E-03-3.61213E-14
 -1      3331 6.39169E-03 1.00608E-04-2.03694E-14
 -1      3332 6.48745E-03 8.44168E-05-2.09960E-14
 -1      3333 4.19172E-03 3.35168E-04-8.91130E-15
 -1      3334 4.03979E-03 3.32912E-04-8.27904E-15
 -1      3335 1.01574E-02-1.73157E-03-3.78080E-14
 -1      3336 1.02380E-02-1.82025E-03-3.92501E-14
 -1      3337 1.01444E-03-3.91571E-05-8.01063E-16
 -1      3338 1.01556E-03-6.57385E-05-8.17759E-16
 -1      3339 1.13689E-03-8.58815E-05-1.00118E-15
 -1      3340 2.41069E-03-2.99350E-04-3.95306E-15
 -1      3341 2.55284E-03-3.02944E-04-4.40093E-15
 -1      3342 2.69431E-03-3.06149E-04-4.87259E-15
 -1      3343 2.83494E-03-3.09058E-04-5.36845E-15
 -1      3344 2.61847E-03-2.69916E-04-4.59837E-15
 -1      3345 2.97450E-03-3.12055E-04-5.88803E-15
 -1      3346 3.11276E-03-3.15215E-04-6.43156E-15
 -1      3347 2.90022E-03-2.76864E-04-5.58220E-15
 -1      3348 3.24943E-03-3.19071E-04-6.99941E-15
 -1      3349 3.38411E-03-3.23669E-04-7.59043E-15
 -1      3350 3.17749E-03-2.85091E-04-6.66172E-15
 -1      3351 3.50993E-03-3.29457E-04-8.17380E-15
 -1      3352 3.63308E-03-3.36587E-04-8.77929E-15
 -1      3353 3.44158E-03-2.96704E-04-7.80588E-15
 -1      3354 3.75959E-03-3.46665E-04-9.43894E-15
 -1      3355 3.88187E-03-3.59234E-04-1.01225E-14
 -1      3356 3.69706E-03-3.14888E-04-9.03977E-15
 -1      3357 3.99983E-03-3.75947E-04-1.08298E-14
 -1      3358 4.11179E-03-3.96343E-04-1.15610E-14
 -1      3359 3.94722E-03-3.44324E-04-1.03994E-14
 -1      3360 1.03245E-02-1.91567E-03-4.07510E-14
 -1      3361 1.04311E-02-2.01532E-03-4.22507E-14
 -1      3362 1.00980E-02-1.51591E-03-3.43636E-14
 -1      3363 3.88870E-03 3.31010E-04-7.67175E-15
 -1      3364 3.73860E-03 3.29358E-04-7.08986E-15
 -1      3365 3.96741E-03 2.87584E-04-8.12199E-15
 -1      3366 1.05451E-02-2.11839E-03-4.37745E-14
 -1      3367 1.06648E-02-2.22567E-03-4.53236E-14
 -1      3368 1.03985E-02-2.04993E-03-4.28095E-14
 -1      3369 1.07894E-02-2.33515E-03-4.68943E-14
 -1      3370 1.09178E-02-2.44711E-03-4.84880E-14
 -1      3371 1.06384E-02-2.25851E-03-4.58970E-14
 -1      3372 1.10493E-02-2.56033E-03-5.01046E-14
 -1      3373 1.11834E-02-2.67493E-03-5.17429E-14
 -1      3374 1.08946E-02-2.47799E-03-4.90774E-14
 -1      3375 1.13126E-02-2.78443E-03-5.33205E-14
 -1      3376 1.14432E-02-2.89458E-03-5.49146E-14
 -1      3377 1.11549E-02-2.69836E-03-5.22650E-14
 -1      3378 1.15818E-02-3.01085E-03-5.66099E-14
 -1      3379 1.17215E-02-3.12748E-03-5.83271E-14
 -1      3380 1.14221E-02-2.92236E-03-5.55281E-14
 -1      3381 1.18619E-02-3.24426E-03-6.00636E-14
 -1      3382 1.20030E-02-3.36118E-03-6.18168E-14
 -1      3383 1.17006E-02-3.15419E-03-5.89512E-14
 -1      3384 1.21444E-02-3.47815E-03-6.35891E-14
 -1      3385 1.22863E-02-3.59517E-03-6.53828E-14
 -1      3386 1.19821E-02-3.38711E-03-6.24501E-14
 -1      3387 1.24283E-02-3.71219E-03-6.71959E-14
 -1      3388 1.25706E-02-3.82920E-03-6.90296E-14
 -1      3389 1.22653E-02-3.62056E-03-6.60293E-14
 -1      3390 1.27131E-02-3.94619E-03-7.08814E-14
 -1      3391 1.28556E-02-4.06315E-03-7.27496E-14
 -1      3392 1.25496E-02-3.85421E-03-6.96885E-14
 -1      3393 1.29983E-02-4.18009E-03-7.46359E-14
 -1      3394 1.31410E-02-4.29700E-03-7.65376E-14
 -1      3395 1.28346E-02-4.08792E-03-7.34204E-14
 -1      3396 1.32838E-02-4.41388E-03-7.84586E-14
 -1      3397 1.34265E-02-4.53073E-03-8.03993E-14
 -1      3398 1.31199E-02-4.32159E-03-7.72217E-14
 -1      3399 1.35622E-02-4.64171E-03-8.22558E-14
 -1      3400 1.36979E-02-4.75268E-03-8.41286E-14
 -1      3401 1.33982E-02-4.54937E-03-8.09974E-14
 -1      3402 1.38407E-02-4.86946E-03-8.61200E-14
 -1      3403 1.39836E-02-4.98622E-03-8.81257E-14
 -1      3404 1.36767E-02-4.77708E-03-8.48389E-14
 -1      3405 1.41265E-02-5.10296E-03-9.01516E-14
 -1      3406 1.42693E-02-5.21969E-03-9.21936E-14
 -1      3407 1.39623E-02-5.01057E-03-8.88507E-14
 -1      3408 1.44122E-02-5.33640E-03-9.42468E-14
 -1      3409 1.45550E-02-5.45310E-03-9.63178E-14
 -1      3410 1.42480E-02-5.24401E-03-9.29290E-14
 -1      3411 1.46979E-02-5.56979E-03-9.84004E-14
 -1      3412 1.48408E-02-5.68647E-03-1.00492E-13
 -1      3413 1.45338E-02-5.47739E-03-9.70617E-14
 -1      3414 1.49323E-02-5.76402E-03-1.01911E-13
 -1      3415 1.50435E-02-5.86057E-03-1.03701E-13
 -1      3416 1.49512E-02-5.82673E-03-1.03400E-13
 -1      3417 1.47681E-02-5.67163E-03-1.00561E-13
 -1      3418 2.12498E-03-2.89952E-04-3.12967E-15
 -1      3419 2.26804E-03-2.95056E-04-3.52928E-15
 -1      3420 2.33380E-03-2.62290E-04-3.71006E-15
 -1      3421 3.58932E-03 3.27961E-04-6.53213E-15
 -1      3422 3.44088E-03 3.26673E-04-5.99928E-15
 -1      3423 3.66446E-03 2.85666E-04-6.94724E-15
 -1      3424 4.80707E-03 3.45846E-04-1.16895E-14
 -1      3425 4.65253E-03 3.43301E-04-1.09562E-14
 -1      3426 5.11595E-03 3.48101E-04-1.32366E-14
 -1      3427 4.96174E-03 3.47708E-04-1.24495E-14
 -1      3428 4.90273E-03 3.02692E-04-1.22463E-14
 -1      3429 5.42174E-03 3.41067E-04-1.48929E-14
 -1      3430 5.26946E-03 3.46349E-04-1.40508E-14
 -1      3431 5.21847E-03 3.06655E-04-1.38290E-14
 -1      3432 5.72153E-03 3.15286E-04-1.66623E-14
 -1      3433 5.57247E-03 3.31314E-04-1.57630E-14
 -1      3434 5.53060E-03 3.01046E-04-1.55227E-14
 -1      3435 6.01439E-03 2.59541E-04-1.85476E-14
 -1      3436 5.86866E-03 2.91944E-04-1.75905E-14
 -1      3437 5.83566E-03 2.74571E-04-1.73289E-14
 -1      3438 6.30254E-03 1.64241E-04-2.05503E-14
 -1      3439 6.15864E-03 2.17264E-04-1.95345E-14
 -1      3440 6.13299E-03 2.13948E-04-1.92521E-14
 -1      3441 6.59060E-03 2.57196E-05-2.26704E-14
 -1      3442 6.44610E-03 1.00312E-04-2.15960E-14
 -1      3443 6.42590E-03 1.08887E-04-2.12932E-14
 -1      3444 6.88328E-03-1.52387E-04-2.49060E-14
 -1      3445 6.73604E-03-5.90199E-05-2.37731E-14
 -1      3446 6.72027E-03-4.29931E-05-2.34500E-14
 -1      3447 7.18275E-03-3.60441E-04-2.72585E-14
 -1      3448 7.03214E-03-2.53450E-04-2.60684E-14
 -1      3449 7.02110E-03-2.34806E-04-2.57247E-14
 -1      3450 7.48804E-03-5.87327E-04-2.97263E-14
 -1      3451 7.33483E-03-4.72267E-04-2.84770E-14
 -1      3452 7.32958E-03-4.54105E-04-2.81159E-14
 -1      3453 7.79633E-03-8.23590E-04-3.23096E-14
 -1      3454 7.64208E-03-7.04816E-04-3.10043E-14
 -1      3455 7.64339E-03-6.88284E-04-3.06226E-14
 -1      3456 8.10438E-03-1.06292E-03-3.50059E-14
 -1      3457 7.95061E-03-9.43127E-04-3.36431E-14
 -1      3458 7.95854E-03-9.27907E-04-3.32456E-14
 -1      3459 8.40990E-03-1.30216E-03-3.78120E-14
 -1      3460 8.25761E-03-1.18266E-03-3.63972E-14
 -1      3461 8.27150E-03-1.16783E-03-3.59778E-14
 -1      3462 8.71171E-03-1.54006E-03-4.07255E-14
 -1      3463 8.56134E-03-1.42128E-03-3.92551E-14
 -1      3464 8.58012E-03-1.40604E-03-3.88223E-14
 -1      3465 9.00964E-03-1.77643E-03-4.37383E-14
 -1      3466 8.86117E-03-1.65840E-03-4.22189E-14
 -1      3467 8.88367E-03-1.64225E-03-4.17682E-14
 -1      3468 9.30408E-03-2.01156E-03-4.68466E-14
 -1      3469 9.15727E-03-1.89411E-03-4.52804E-14
 -1      3470 9.18242E-03-1.87688E-03-4.48143E-14
 -1      3471 9.59572E-03-2.24578E-03-5.00459E-14
 -1      3472 9.45022E-03-2.12875E-03-4.84366E-14
 -1      3473 9.47717E-03-2.11047E-03-4.79558E-14
 -1      3474 9.88525E-03-2.47941E-03-5.33307E-14
 -1      3475 9.74071E-03-2.36265E-03-5.16781E-14
 -1      3476 9.76883E-03-2.34350E-03-5.11825E-14
 -1      3477 1.01733E-02-2.71269E-03-5.67028E-14
 -1      3478 1.00294E-02-2.59608E-03-5.50063E-14
 -1      3479 1.00583E-02-2.57625E-03-5.44956E-14
 -1      3480 1.04604E-02-2.94576E-03-6.01566E-14
 -1      3481 1.03169E-02-2.82924E-03-5.84198E-14
 -1      3482 1.03462E-02-2.80892E-03-5.78918E-14
 -1      3483 1.07468E-02-3.17874E-03-6.36944E-14
 -1      3484 1.06036E-02-3.06226E-03-6.19142E-14
 -1      3485 1.06331E-02-3.04159E-03-6.13724E-14
 -1      3486 1.10328E-02-3.41168E-03-6.73155E-14
 -1      3487 1.08898E-02-3.29521E-03-6.54959E-14
 -1      3488 1.09194E-02-3.27432E-03-6.49351E-14
 -1      3489 1.13187E-02-3.64462E-03-7.10212E-14
 -1      3490 1.11758E-02-3.52815E-03-6.91579E-14
 -1      3491 1.12054E-02-3.50712E-03-6.85824E-14
 -1      3492 1.16044E-02-3.87758E-03-7.48050E-14
 -1      3493 1.14615E-02-3.76109E-03-7.29050E-14
 -1      3494 1.14912E-02-3.73998E-03-7.23138E-14
 -1      3495 1.18901E-02-4.11056E-03-7.86587E-14
 -1      3496 1.17472E-02-3.99407E-03-7.67240E-14
 -1      3497 1.17769E-02-3.97291E-03-7.61218E-14
 -1      3498 1.21757E-02-4.34359E-03-8.25693E-14
 -1      3499 1.20329E-02-4.22707E-03-8.06067E-14
 -1      3500 1.20625E-02-4.20589E-03-7.99946E-14
 -1      3501 1.24614E-02-4.57664E-03-8.65345E-14
 -1      3502 1.23186E-02-4.46011E-03-8.45465E-14
 -1      3503 1.23482E-02-4.43892E-03-8.39249E-14
 -1      3504 1.27471E-02-4.80973E-03-9.05466E-14
 -1      3505 1.26042E-02-4.69318E-03-8.85341E-14
 -1      3506 1.26338E-02-4.67198E-03-8.79072E-14
 -1      3507 1.30327E-02-5.04284E-03-9.45974E-14
 -1      3508 1.28899E-02-4.92628E-03-9.25679E-14
 -1      3509 1.29195E-02-4.90508E-03-9.19333E-14
 -1      3510 1.00228E-02-1.68644E-03-3.68890E-14
 -1      3511 1.46771E-02-5.71453E-03-1.02191E-13
 -1      3512 1.45624E-02-5.67241E-03-1.01799E-13
 -1      3513 1.44497E-02-5.63102E-03-1.01409E-13
 -1      3514 1.43370E-02-5.58962E-03-1.01016E-13
 -1      3515 1.43833E-02-5.55106E-03-9.97995E-14
 -1      3516 4.49822E-03 3.40482E-04-1.02487E-14
 -1      3517 4.34463E-03 3.37704E-04-9.56751E-15
 -1      3518 4.58729E-03 2.96365E-04-1.07697E-14
 -1      3519 1.83807E-03 2.89176E-04-1.69938E-15
 -1      3520 1.69389E-03 2.79924E-04-1.44639E-15
 -1      3521 4.47378E-03-4.73965E-04-1.38820E-14
 -1      3522 1.83825E-03-2.76341E-04-2.40336E-15
 -1      3523 1.98169E-03-2.83757E-04-2.75414E-15
 -1      3524 2.04743E-03-2.52313E-04-2.91745E-15
 -1      3525 1.02831E-03-2.54595E-04-8.51831E-16
 -1      3526 1.12991E-03-2.71551E-04-1.00209E-15
 -1      3527 1.19375E-03-2.51475E-04-1.11327E-15
 -1      3528 1.01681E-03-2.30687E-04-8.43170E-16
 -1      3529 9.32369E-03-1.54392E-03-3.56244E-14
 -1      3530 9.55567E-03-1.61548E-03-3.61763E-14
 -1      3531 4.20012E-03-4.00549E-04-1.20303E-14
 -1      3532 1.42223E-02-5.54752E-03-1.00611E-13
 -1      3533 1.41077E-02-5.50541E-03-1.00201E-13
 -1      3534 1.41559E-02-5.46757E-03-9.90119E-14
 -1      3535 1.39930E-02-5.46331E-03-9.97851E-14
 -1      3536 1.38784E-02-5.42121E-03-9.93645E-14
 -1      3537 1.39266E-02-5.38338E-03-9.81970E-14
 -1      3538 1.35624E-02-5.36735E-03-9.96634E-14
 -1      3539 6.70447E-03 1.56885E-05-2.23289E-14
 -1      3540 6.83593E-03-3.48301E-05-2.30670E-14
 -1      3541 6.92511E-03-8.78311E-05-2.36767E-14
 -1      3542 8.61808E-03-1.20867E-03-3.27906E-14
 -1      3543 8.93553E-03-1.37692E-03-3.42362E-14
 -1      3544 1.55150E-03-2.56885E-04-1.77255E-15
 -1      3545 1.69483E-03-2.67432E-04-2.07611E-15
 -1      3546 1.76048E-03-2.38433E-04-2.22016E-15
 -1      3547 6.13965E-03 1.00271E-04-1.89108E-14
 -1      3548 6.26755E-03 1.07522E-04-1.96331E-14
 -1      3549 6.24243E-03 1.24600E-04-1.95275E-14
 -1      3550 4.39553E-03-4.29761E-04-1.31390E-14
 -1      3551 4.57283E-03-4.51193E-04-1.40382E-14
 -1      3552 4.62726E-03-4.22281E-04-1.39996E-14
 -1      3553 1.22630E-03 2.61933E-04-7.30183E-16
 -1      3554 1.01954E-02-1.85648E-03-3.97944E-14
 -1      3555 3.36559E-03 2.84474E-04-5.86997E-15
 -1      3556 3.29312E-03 3.25450E-04-5.48998E-15
 -1      3557 3.14603E-03 3.24147E-04-5.00460E-15
 -1      3558 4.85047E-03-3.86440E-04-1.46723E-14
 -1      3559 4.98563E-03-3.67422E-04-1.51330E-14
 -1      3560 5.05043E-03-3.12023E-04-1.50733E-14
 -1      3561 5.25973E-03-2.16917E-04-1.55231E-14
 -1      3562 5.39643E-03-2.04592E-04-1.61175E-14
 -1      3563 5.45175E-03-1.41516E-04-1.60995E-14
 -1      3564 7.87974E-03-7.27729E-04-2.88797E-14
 -1      3565 8.99536E-03-1.44004E-03-3.54866E-14
 -1      3566 9.15346E-03-1.49513E-03-3.55588E-14
 -1      3567 9.35919E-03-1.60273E-03-3.69035E-14
 -1      3568 7.33234E-03-3.34905E-04-2.59320E-14
 -1      3569 7.44996E-03-4.28513E-04-2.67019E-14
 -1      3570 7.17893E-03-2.41025E-04-2.51814E-14
 -1      3571 5.66358E-03-5.53862E-05-1.68147E-14
 -1      3572 5.78504E-03-3.18765E-05-1.73492E-14
 -1      3573 5.83642E-03 2.37382E-05-1.74538E-14
 -1      3574 2.41688E-03 3.12678E-04-2.93499E-15
 -1      3575 2.27189E-03 3.08475E-04-2.59158E-15
 -1      3576 9.97864E-03-1.72253E-03-3.75296E-14
 -1      3577 1.32058E-02-5.19072E-03-9.72240E-14
 -1      3578 8.31613E-03-1.03857E-03-3.16408E-14
 -1      3579 8.46489E-03-1.12499E-03-3.22131E-14
 -1      3580 8.63016E-03-1.23798E-03-3.35750E-14
 -1      3581 1.13434E-03-2.82004E-05-9.61687E-16
 -1      3582 1.37642E-02-5.37929E-03-9.89435E-14
 -1      3583 1.36500E-02-5.33736E-03-9.85205E-14
 -1      3584 1.36978E-02-5.29937E-03-9.73682E-14
 -1      3585 1.48602E-02-5.78754E-03-1.02952E-13
 -1      3586 1.47680E-02-5.75371E-03-1.02647E-13
 -1      3587 1.45869E-02-5.63163E-03-1.00636E-13
 -1      3588 1.47687E-02-5.70999E-03-1.01534E-13
 -1      3589 1.98247E-03 2.96908E-04-1.97387E-15
 -1      3590 1.90428E-03 2.57677E-04-1.90282E-15
 -1      3591 2.12709E-03 3.03263E-04-2.27113E-15
 -1      3592 1.14325E-03 1.47300E-04-7.92796E-16
 -1      3593 1.00615E-03-2.07687E-04-8.32803E-16
 -1      3594 4.27506E-03 2.91034E-04-9.39585E-15
 -1      3595 1.26037E-03 1.08990E-04-1.01163E-15
 -1      3596 1.25801E-03 7.76073E-05-1.04631E-15
 -1      3597 1.52906E-03 2.68784E-04-1.18019E-15
 -1      3598 1.36140E-03 2.55975E-04-9.36453E-16
 -1      3599 1.32354E-02-5.16953E-03-9.65888E-14
 -1      3600 2.56209E-03 3.16067E-04-3.30210E-15
 -1      3601 2.48468E-03 2.76349E-04-3.20948E-15
 -1      3602 2.70754E-03 3.18766E-04-3.69252E-15
 -1      3603 1.59475E-03 2.41161E-04-1.34754E-15
 -1      3604 1.33893E-02-5.21945E-03-9.70179E-14
 -1      3605 4.12435E-03-3.45275E-04-1.12581E-14
 -1      3606 4.26364E-03-3.84291E-04-1.21794E-14
 -1      3607 4.34097E-03-3.61868E-04-1.23236E-14
 -1      3608 1.12520E-03-2.08567E-04-1.01034E-15
 -1      3609 1.00664E-02-1.53934E-03-3.47589E-14
 -1      3610 5.94682E-03 8.00772E-05-1.79065E-14
 -1      3611 6.04395E-03 9.22302E-05-1.84059E-14
 -1      3612 6.02767E-03 1.20864E-04-1.83042E-14
 -1      3613 1.44935E-03-2.47420E-04-1.57108E-15
 -1      3614 1.51498E-03-2.21482E-04-1.69871E-15
 -1      3615 1.34739E-03-2.36982E-04-1.38191E-15
 -1      3616 1.37950E-03 6.53994E-05-1.25450E-15
 -1      3617 1.25641E-03 4.64751E-05-1.07866E-15
 -1      3618 1.25555E-03 1.56077E-05-1.10841E-15
 -1      3619 6.57459E-03 5.96796E-05-2.15712E-14
 -1      3620 6.65988E-03 2.62502E-05-2.21547E-14
 -1      3621 6.44788E-03 9.50886E-05-2.08247E-14
 -1      3622 9.67467E-03-1.66424E-03-3.68656E-14
 -1      3623 1.29012E-03 2.41940E-04-8.55408E-16
 -1      3624 1.22349E-03 2.24568E-04-7.89353E-16
 -1      3625 1.21773E-03 1.91372E-04-8.33548E-16
 -1      3626 1.35914E-03 2.17169E-04-1.00156E-15
 -1      3627 1.21364E-03-2.16632E-04-1.15179E-15
 -1      3628 1.27947E-03-1.94591E-04-1.26243E-15
 -1      3629 1.27465E-03-1.61859E-04-1.24897E-15
 -1      3630 1.40777E-03-1.78127E-04-1.48720E-15
 -1      3631 1.27093E-03-1.29814E-04-1.23268E-15
 -1      3632 1.26620E-03-6.72150E-05-1.19224E-15
 -1      3633 1.26812E-03-9.83216E-05-1.21395E-15
 -1      3634 1.40040E-03-1.10830E-04-1.44755E-15
 -1      3635 6.90352E-03-9.19162E-05-2.37148E-14
 -1      3636 7.04076E-03-1.64336E-04-2.44827E-14
 -1      3637 7.68838E-03-6.11847E-04-2.82356E-14
 -1      3638 7.93510E-03-7.88793E-04-2.96575E-14
 -1      3639 2.25756E-03-2.25181E-04-3.47256E-15
 -1      3640 2.40064E-03-2.29367E-04-3.88947E-15
 -1      3641 2.82667E-03-2.40855E-04-5.28211E-15
 -1      3642 2.96709E-03-2.44988E-04-5.79366E-15
 -1      3643 3.10647E-03-2.49799E-04-6.32960E-15
 -1      3644 3.24452E-03-2.55414E-04-6.88941E-15
 -1      3645 3.03579E-03-2.13297E-04-6.00330E-15
 -1      3646 3.37438E-03-2.61995E-04-7.44244E-15
 -1      3647 3.50259E-03-2.69892E-04-8.01711E-15
 -1      3648 3.30732E-03-2.25550E-04-7.08491E-15
 -1      3649 3.63588E-03-2.80310E-04-8.64529E-15
 -1      3650 3.76681E-03-2.92998E-04-9.29758E-15
 -1      3651 3.57436E-03-2.43375E-04-8.25627E-15
 -1      3652 3.88419E-03-3.06731E-04-9.90820E-15
 -1      3653 4.01059E-03-3.25381E-04-1.06057E-14
 -1      3654 4.07171E-03-3.00916E-04-1.07403E-14
 -1      3655 3.83091E-03-2.68232E-04-9.48842E-15
 -1      3656 2.99943E-03 3.22685E-04-4.54334E-15
 -1      3657 2.85331E-03 3.20930E-04-4.10593E-15
 -1      3658 2.77650E-03 2.80712E-04-4.00189E-15
 -1      3659 3.06990E-03 2.83118E-04-4.88833E-15
 -1      3660 4.04640E-03 2.42574E-04-8.57787E-15
 -1      3661 3.89246E-03 2.42072E-04-7.96036E-15
 -1      3662 1.02355E-02-1.98087E-03-4.18321E-14
 -1      3663 1.03529E-02-2.07950E-03-4.33480E-14
 -1      3664 1.04751E-02-2.18149E-03-4.48867E-14
 -1      3665 1.06007E-02-2.28706E-03-4.64509E-14
 -1      3666 1.03058E-02-2.10547E-03-4.38826E-14
 -1      3667 1.07297E-02-2.39490E-03-4.80379E-14
 -1      3668 1.08612E-02-2.50505E-03-4.96463E-14
 -1      3669 1.05615E-02-2.31301E-03-4.70018E-14
 -1      3670 1.09882E-02-2.61105E-03-5.11941E-14
 -1      3671 1.11169E-02-2.71834E-03-5.27625E-14
 -1      3672 1.08198E-02-2.52483E-03-5.01315E-14
 -1      3673 1.12538E-02-2.83213E-03-5.44322E-14
 -1      3674 1.13919E-02-2.94680E-03-5.61184E-14
 -1      3675 1.10846E-02-2.74281E-03-5.33398E-14
 -1      3676 1.15311E-02-3.06199E-03-5.78247E-14
 -1      3677 1.16710E-02-3.17768E-03-5.95522E-14
 -1      3678 1.13611E-02-2.97047E-03-5.67065E-14
 -1      3679 1.18116E-02-3.29365E-03-6.12984E-14
 -1      3680 1.19527E-02-3.40990E-03-6.30620E-14
 -1      3681 1.16410E-02-3.20067E-03-6.01515E-14
 -1      3682 1.20942E-02-3.52631E-03-6.48481E-14
 -1      3683 1.22360E-02-3.64285E-03-6.66552E-14
 -1      3684 1.19230E-02-3.43239E-03-6.36736E-14
 -1      3685 1.23780E-02-3.75947E-03-6.84792E-14
 -1      3686 1.25203E-02-3.87616E-03-7.03238E-14
 -1      3687 1.22065E-02-3.66496E-03-6.72760E-14
 -1      3688 1.26627E-02-3.99288E-03-7.21876E-14
 -1      3689 1.28052E-02-4.10963E-03-7.40671E-14
 -1      3690 1.24908E-02-3.89800E-03-7.09593E-14
 -1      3691 1.29478E-02-4.22638E-03-7.59632E-14
 -1      3692 1.30904E-02-4.34314E-03-7.78806E-14
 -1      3693 1.27757E-02-4.13127E-03-7.47137E-14
 -1      3694 1.32260E-02-4.45406E-03-7.97188E-14
 -1      3695 1.33616E-02-4.56497E-03-8.15708E-14
 -1      3696 1.30538E-02-4.35882E-03-7.84429E-14
 -1      3697 1.35044E-02-4.68172E-03-8.35373E-14
 -1      3698 1.36472E-02-4.79845E-03-8.55236E-14
 -1      3699 1.33321E-02-4.58639E-03-8.22420E-14
 -1      3700 1.37900E-02-4.91518E-03-8.75276E-14
 -1      3701 1.39328E-02-5.03189E-03-8.95493E-14
 -1      3702 1.36177E-02-4.81981E-03-8.62093E-14
 -1      3703 1.40757E-02-5.14859E-03-9.15879E-14
 -1      3704 1.42185E-02-5.26529E-03-9.36374E-14
 -1      3705 1.39033E-02-5.05320E-03-9.02468E-14
 -1      3706 1.43614E-02-5.38197E-03-9.56987E-14
 -1      3707 1.45042E-02-5.49865E-03-9.77764E-14
 -1      3708 1.41890E-02-5.28656E-03-9.43431E-14
 -1      3709 5.64201E-03 2.61865E-04-1.61574E-14
 -1      3710 5.48345E-03 2.65609E-04-1.52782E-14
 -1      3711 2.19398E-03 2.69042E-04-2.51014E-15
 -1      3712 3.73986E-03 2.42005E-04-7.36764E-15
 -1      3713 3.58858E-03 2.42115E-04-6.79982E-15
 -1      3714 3.81527E-03 1.96929E-04-7.79501E-15
 -1      3715 9.87816E-03-1.73945E-03-3.79267E-14
 -1      3716 1.00275E-02-1.78955E-03-3.87151E-14
 -1      3717 1.01175E-02-1.87930E-03-4.02030E-14
 -1      3718 9.73624E-03-1.72836E-03-3.80362E-14
 -1      3719 5.32304E-03 2.65050E-04-1.44279E-14
 -1      3720 5.16173E-03 2.62433E-04-1.36047E-14
 -1      3721 5.42926E-03 2.24235E-04-1.50316E-14
 -1      3722 4.99981E-03 2.58517E-04-1.28087E-14
 -1      3723 4.83825E-03 2.54468E-04-1.20393E-14
 -1      3724 5.09804E-03 2.13872E-04-1.33762E-14
 -1      3725 5.95253E-03 2.35130E-04-1.80021E-14
 -1      3726 5.79842E-03 2.52678E-04-1.70661E-14
 -1      3727 5.75520E-03 2.24413E-04-1.67992E-14
 -1      3728 6.25434E-03 1.68835E-04-1.99622E-14
 -1      3729 6.10417E-03 2.07962E-04-1.89669E-14
 -1      3730 6.07118E-03 1.97196E-04-1.86793E-14
 -1      3731 6.55214E-03 5.21025E-05-2.20394E-14
 -1      3732 6.40294E-03 1.17086E-04-2.09862E-14
 -1      3733 6.37761E-03 1.23357E-04-2.06759E-14
 -1      3734 6.85372E-03-1.15315E-04-2.42347E-14
 -1      3735 6.70190E-03-2.58990E-05-2.31224E-14
 -1      3736 6.68170E-03-8.07265E-06-2.27912E-14
 -1      3737 7.16365E-03-3.22264E-04-2.65494E-14
 -1      3738 7.00737E-03-2.15088E-04-2.53767E-14
 -1      3739 6.99204E-03-1.93423E-04-2.50266E-14
 -1      3740 7.48198E-03-5.52598E-04-2.89791E-14
 -1      3741 7.32206E-03-4.35482E-04-2.77497E-14
 -1      3742 7.31274E-03-4.15776E-04-2.73790E-14
 -1      3743 7.80438E-03-7.93008E-04-3.15266E-14
 -1      3744 7.64318E-03-6.72410E-04-3.02384E-14
 -1      3745 7.64164E-03-6.56397E-04-2.98506E-14
 -1      3746 8.12572E-03-1.03460E-03-3.41853E-14
 -1      3747 7.96548E-03-9.13986E-04-3.28427E-14
 -1      3748 7.97176E-03-9.01003E-04-3.24360E-14
 -1      3749 8.44263E-03-1.27391E-03-3.69574E-14
 -1      3750 8.28497E-03-1.15462E-03-3.55574E-14
 -1      3751 8.29824E-03-1.14292E-03-3.51334E-14
 -1      3752 8.75330E-03-1.51025E-03-3.98367E-14
 -1      3753 8.59883E-03-1.39238E-03-3.83842E-14
 -1      3754 8.61771E-03-1.38035E-03-3.79417E-14
 -1      3755 9.05766E-03-1.74429E-03-4.28195E-14
 -1      3756 8.90626E-03-1.62746E-03-4.13160E-14
 -1      3757 8.92920E-03-1.61413E-03-4.08587E-14
 -1      3758 9.35653E-03-1.97696E-03-4.58980E-14
 -1      3759 9.20773E-03-1.86072E-03-4.43461E-14
 -1      3760 9.23341E-03-1.84573E-03-4.38759E-14
 -1      3761 9.65106E-03-2.20900E-03-4.90685E-14
 -1      3762 9.50427E-03-2.09300E-03-4.74718E-14
 -1      3763 9.53170E-03-2.07641E-03-4.69869E-14
 -1      3764 9.94241E-03-2.44086E-03-5.23246E-14
 -1      3765 9.79707E-03-2.32491E-03-5.06873E-14
 -1      3766 9.82557E-03-2.30695E-03-5.01871E-14
 -1      3767 1.02315E-02-2.67280E-03-5.56647E-14
 -1      3768 1.00872E-02-2.55680E-03-5.39841E-14
 -1      3769 1.01163E-02-2.53777E-03-5.34713E-14
 -1      3770 1.05192E-02-2.90494E-03-5.90864E-14
 -1      3771 1.03755E-02-2.78884E-03-5.73639E-14
 -1      3772 1.04050E-02-2.76902E-03-5.68352E-14
 -1      3773 1.08059E-02-3.13728E-03-6.25913E-14
 -1      3774 1.06627E-02-3.02108E-03-6.08285E-14
 -1      3775 1.06923E-02-3.00072E-03-6.02843E-14
 -1      3776 1.10921E-02-3.36981E-03-6.61815E-14
 -1      3777 1.09491E-02-3.25352E-03-6.43765E-14
 -1      3778 1.09788E-02-3.23281E-03-6.38151E-14
 -1      3779 1.13780E-02-3.60250E-03-6.98543E-14
 -1      3780 1.12351E-02-3.48614E-03-6.80074E-14
 -1      3781 1.12648E-02-3.46520E-03-6.74302E-14
 -1      3782 1.16637E-02-3.83531E-03-7.36101E-14
 -1      3783 1.15209E-02-3.71889E-03-7.17218E-14
 -1      3784 1.15505E-02-3.69782E-03-7.11296E-14
 -1      3785 1.19493E-02-4.06822E-03-7.74386E-14
 -1      3786 1.18065E-02-3.95176E-03-7.55144E-14
 -1      3787 1.18362E-02-3.93061E-03-7.49079E-14
 -1      3788 1.22350E-02-4.30121E-03-8.13327E-14
 -1      3789 1.20921E-02-4.18471E-03-7.93795E-14
 -1      3790 1.21218E-02-4.16352E-03-7.87595E-14
 -1      3791 1.25206E-02-4.53425E-03-8.52844E-14
 -1      3792 1.23778E-02-4.41772E-03-8.33024E-14
 -1      3793 1.24074E-02-4.39652E-03-8.26750E-14
 -1      3794 1.28062E-02-4.76733E-03-8.92828E-14
 -1      3795 1.26634E-02-4.65078E-03-8.72772E-14
 -1      3796 1.26930E-02-4.62957E-03-8.66447E-14
 -1      3797 1.30919E-02-5.00044E-03-9.33244E-14
 -1      3798 1.29490E-02-4.88388E-03-9.12972E-14
 -1      3799 1.29786E-02-4.86267E-03-9.06595E-14
 -1      3800 1.43160E-02-5.47074E-03-9.81851E-14
 -1      3801 1.42033E-02-5.42936E-03-9.78037E-14
 -1      3802 4.67722E-03 2.50704E-04-1.12956E-14
 -1      3803 4.51744E-03 2.47573E-04-1.05784E-14
 -1      3804 4.76776E-03 2.03741E-04-1.18281E-14
 -1      3805 4.53299E-03-3.75089E-04-1.32395E-14
 -1      3806 4.68489E-03-3.85684E-04-1.39467E-14
 -1      3807 4.74130E-03-3.43200E-04-1.38909E-14
 -1      3808 2.54328E-03-2.33265E-04-4.32968E-15
 -1      3809 2.68534E-03-2.36986E-04-4.79379E-15
 -1      3810 2.46861E-03-1.96275E-04-4.06719E-15
 -1      3811 1.34189E-02-5.19824E-03-9.63712E-14
 -1      3812 4.35887E-03 2.45206E-04-9.88628E-15
 -1      3813 4.20192E-03 2.43533E-04-9.21951E-15
 -1      3814 4.12541E-03 1.95939E-04-9.03966E-15
 -1      3815 1.40886E-02-5.38726E-03-9.74104E-14
 -1      3816 1.39740E-02-5.34517E-03-9.70118E-14
 -1      3817 1.40213E-02-5.30695E-03-9.58122E-14
 -1      3818 1.38593E-02-5.30308E-03-9.66097E-14
 -1      3819 1.37447E-02-5.26100E-03-9.62017E-14
 -1      3820 1.37920E-02-5.22278E-03-9.50240E-14
 -1      3821 1.26003E-03-1.02877E-05-1.13924E-15
 -1      3822 1.26053E-03-4.10305E-05-1.16470E-15
 -1      3823 1.39229E-03-4.99970E-05-1.39239E-15
 -1      3824 1.38229E-03 5.12308E-06-1.32557E-15
 -1      3825 1.68371E-03-2.01357E-04-2.04283E-15
 -1      3826 1.82713E-03-2.08703E-04-2.36478E-15
 -1      3827 1.24034E-03 1.66308E-04-9.03466E-16
 -1      3828 1.23643E-03 1.34119E-04-9.42971E-16
 -1      3829 1.35740E-03 1.25356E-04-1.14080E-15
 -1      3830 1.31067E-03 1.78172E-04-9.90432E-16
 -1      3831 1.97066E-03-2.15022E-04-2.71033E-15
 -1      3832 2.11420E-03-2.20438E-04-3.07964E-15
 -1      3833 2.18196E-03-1.88130E-04-3.24110E-15
 -1      3834 1.50951E-03-1.85888E-04-1.68167E-15
 -1      3835 1.97144E-03 2.25263E-04-2.11453E-15
 -1      3836 1.82677E-03 2.19269E-04-1.82772E-15
 -1      3837 3.43840E-03 2.42366E-04-6.25609E-15
 -1      3838 3.28922E-03 2.42546E-04-5.73567E-15
 -1      3839 3.51132E-03 1.99095E-04-6.64822E-15
 -1      3840 2.75356E-03-2.04100E-04-4.98767E-15
 -1      3841 5.12113E-03-2.53873E-04-1.50595E-14
 -1      3842 5.18125E-03-1.94162E-04-1.50415E-14
 -1      3843 4.98494E-03-2.83509E-04-1.46025E-14
 -1      3844 7.52144E-03-5.00085E-04-2.74438E-14
 -1      3845 7.92762E-03-8.07225E-04-3.02802E-14
 -1      3846 8.11287E-03-9.21145E-04-3.09600E-14
 -1      3847 8.28547E-03-1.04453E-03-3.22879E-14
 -1      3848 8.82400E-03-1.36523E-03-3.51202E-14
 -1      3849 9.03565E-03-1.48717E-03-3.64585E-14
 -1      3850 7.14842E-03-2.41355E-04-2.52233E-14
 -1      3851 5.52722E-03-7.53350E-05-1.62018E-14
 -1      3852 5.58754E-03-1.35990E-05-1.63004E-14
 -1      3853 5.39177E-03-9.08431E-05-1.56022E-14
 -1      3854 1.00564E-02-1.90387E-03-4.07220E-14
 -1      3855 5.72588E-03 5.14904E-05-1.68231E-14
 -1      3856 5.83706E-03 6.67909E-05-1.73594E-14
 -1      3857 5.82912E-03 1.05286E-04-1.72612E-14
 -1      3858 1.46772E-02-5.63244E-03-1.00118E-13
 -1      3859 2.26174E-03 2.34022E-04-2.75683E-15
 -1      3860 2.11644E-03 2.30149E-04-2.42402E-15
 -1      3861 2.03941E-03 1.91953E-04-2.33406E-15
 -1      3862 9.66011E-03-1.73935E-03-3.85362E-14
 -1      3863 9.86514E-03-1.82372E-03-3.96236E-14
 -1      3864 9.99541E-03-1.92379E-03-4.12397E-14
 -1      3865 1.35632E-02-5.13880E-03-9.42214E-14
 -1      3866 1.36305E-02-5.21909E-03-9.57935E-14
 -1      3867 1.35163E-02-5.17717E-03-9.53807E-14
 -1      3868 1.44139E-02-5.49785E-03-9.82937E-14
 -1      3869 1.42339E-02-5.37613E-03-9.63070E-14
 -1      3870 2.55323E-03 2.39249E-04-3.49106E-15
 -1      3871 2.40734E-03 2.37022E-04-3.11218E-15
 -1      3872 2.33024E-03 1.98228E-04-3.01106E-15
 -1      3873 4.44290E-03 1.97742E-04-1.03837E-14
 -1      3874 1.45048E-02-5.53702E-03-9.87406E-14
 -1      3875 1.57697E-03-1.58708E-04-1.80560E-15
 -1      3876 9.51062E-03-1.70360E-03-3.84674E-14
 -1      3877 1.89469E-03-1.78218E-04-2.50905E-15
 -1      3878 6.11750E-03 1.48600E-04-1.88291E-14
 -1      3879 6.23454E-03 1.41751E-04-1.95484E-14
 -1      3880 8.68392E-03-1.28956E-03-3.45186E-14
 -1      3881 1.50372E-03 8.57233E-05-1.44203E-15
 -1      3882 1.50183E-03 5.11158E-05-1.48338E-15
 -1      3883 6.76988E-03-2.70792E-05-2.29283E-14
 -1      3884 6.87925E-03-9.11922E-05-2.37158E-14
 -1      3885 6.64107E-03 2.74589E-05-2.21533E-14
 -1      3886 1.45227E-03 2.01870E-04-1.17621E-15
 -1      3887 1.38132E-03 1.90028E-04-1.08155E-15
 -1      3888 1.40419E-03 1.62758E-04-1.16129E-15
 -1      3889 1.44140E-03 1.38689E-04-1.25927E-15
 -1      3890 1.46547E-03 1.10808E-04-1.34051E-15
 -1      3891 1.58786E-03 9.74245E-05-1.57815E-15
 -1      3892 1.51207E-03 1.48773E-04-1.36458E-15
 -1      3893 1.61675E-03 2.11278E-04-1.44353E-15
 -1      3894 1.68413E-03 1.82019E-04-1.62113E-15
 -1      3895 5.94200E-03 1.49386E-04-1.78310E-14
 -1      3896 6.03092E-03 1.51048E-04-1.83292E-14
 -1      3897 2.10706E-03-1.51350E-04-3.01498E-15
 -1      3898 2.25084E-03-1.55339E-04-3.40094E-15
 -1      3899 7.22785E-03-3.12988E-04-2.59761E-14
 -1      3900 7.36887E-03-4.01663E-04-2.67054E-14
 -1      3901 7.59374E-03-5.70958E-04-2.82347E-14
 -1      3902 1.33525E-02-5.11834E-03-9.48110E-14
 -1      3903 3.24374E-03-1.87839E-04-6.74675E-15
 -1      3904 3.37655E-03-1.95259E-04-7.29134E-15
 -1      3905 3.51573E-03-2.04666E-04-7.88768E-15
 -1      3906 3.65403E-03-2.15911E-04-8.50813E-15
 -1      3907 3.45591E-03-1.64540E-04-7.52408E-15
 -1      3908 1.01293E-02-2.02810E-03-4.28846E-14
 -1      3909 1.02581E-02-2.12819E-03-4.44160E-14
 -1      3910 4.63896E-03-2.99775E-04-1.31775E-14
 -1      3911 4.80649E-03-2.96841E-04-1.38804E-14
 -1      3912 4.86686E-03-2.46197E-04-1.38667E-14
 -1      3913 1.03891E-02-2.23107E-03-4.59706E-14
 -1      3914 1.05214E-02-2.33672E-03-4.75509E-14
 -1      3915 1.02118E-02-2.14843E-03-4.49477E-14
 -1      3916 1.06488E-02-2.43904E-03-4.90719E-14
 -1      3917 1.07774E-02-2.54311E-03-5.06118E-14
 -1      3918 1.04749E-02-2.35325E-03-4.80184E-14
 -1      3919 1.09140E-02-2.65401E-03-5.22525E-14
 -1      3920 1.10517E-02-2.76625E-03-5.39150E-14
 -1      3921 1.07417E-02-2.56547E-03-5.11729E-14
 -1      3922 1.11904E-02-2.87943E-03-5.55933E-14
 -1      3923 1.13299E-02-2.99346E-03-5.72917E-14
 -1      3924 1.10187E-02-2.78872E-03-5.44852E-14
 -1      3925 1.14700E-02-3.10809E-03-5.90093E-14
 -1      3926 1.16106E-02-3.22325E-03-6.07467E-14
 -1      3927 1.12984E-02-3.01581E-03-5.78742E-14
 -1      3928 1.17517E-02-3.33877E-03-6.25050E-14
 -1      3929 1.18931E-02-3.45461E-03-6.42823E-14
 -1      3930 1.15801E-02-3.24540E-03-6.13409E-14
 -1      3931 1.20348E-02-3.57066E-03-6.60802E-14
 -1      3932 1.21768E-02-3.68690E-03-6.78980E-14
 -1      3933 1.18631E-02-3.47655E-03-6.48893E-14
 -1      3934 1.23190E-02-3.80326E-03-6.97342E-14
 -1      3935 1.24613E-02-3.91973E-03-7.15918E-14
 -1      3936 1.21470E-02-3.70867E-03-6.85171E-14
 -1      3937 1.26037E-02-4.03627E-03-7.34657E-14
 -1      3938 1.27462E-02-4.15285E-03-7.53563E-14
 -1      3939 1.24316E-02-3.94136E-03-7.22215E-14
 -1      3940 1.28817E-02-4.26365E-03-7.71740E-14
 -1      3941 1.30172E-02-4.37446E-03-7.90057E-14
 -1      3942 1.27095E-02-4.16854E-03-7.59072E-14
 -1      3943 1.31599E-02-4.49112E-03-8.09522E-14
 -1      3944 1.33026E-02-4.60779E-03-8.29155E-14
 -1      3945 1.29876E-02-4.39590E-03-7.96642E-14
 -1      3946 1.34454E-02-4.72447E-03-8.48944E-14
 -1      3947 1.35881E-02-4.84115E-03-8.68947E-14
 -1      3948 1.32731E-02-4.62917E-03-8.35874E-14
 -1      3949 1.37309E-02-4.95782E-03-8.89107E-14
 -1      3950 1.38738E-02-5.07450E-03-9.09433E-14
 -1      3951 1.35586E-02-4.86247E-03-8.75784E-14
 -1      3952 1.39824E-02-5.16699E-03-9.25886E-14
 -1      3953 1.41252E-02-5.28365E-03-9.46419E-14
 -1      3954 1.40273E-02-5.25656E-03-9.45376E-14
 -1      3955 1.38100E-02-5.07161E-03-9.12376E-14
 -1      3956 6.16964E-03 1.71388E-04-1.92503E-14
 -1      3957 6.01194E-03 1.92846E-04-1.82807E-14
 -1      3958 4.52625E-03 1.48365E-04-1.08866E-14
 -1      3959 4.36385E-03 1.47280E-04-1.01849E-14
 -1      3960 1.81960E-03-1.42133E-04-2.31363E-15
 -1      3961 1.96327E-03-1.46987E-04-2.65269E-15
 -1      3962 2.03283E-03-1.14985E-04-2.79545E-15
 -1      3963 3.89007E-03 1.50397E-04-8.22893E-15
 -1      3964 3.73619E-03 1.52427E-04-7.62570E-15
 -1      3965 4.85812E-03 1.55145E-04-1.23667E-14
 -1      3966 4.69121E-03 1.50874E-04-1.16138E-14
 -1      3967 4.60863E-03 9.72132E-05-1.13966E-14
 -1      3968 5.19708E-03 1.68275E-04-1.39506E-14
 -1      3969 5.02720E-03 1.60977E-04-1.31454E-14
 -1      3970 4.94806E-03 1.05189E-04-1.29112E-14
 -1      3971 6.53261E-03 6.74508E-05-2.15625E-14
 -1      3972 6.37676E-03 1.19170E-04-2.05268E-14
 -1      3973 7.46049E-03-5.05059E-04-2.80432E-14
 -1      3974 7.29139E-03-3.82936E-04-2.68360E-14
 -1      3975 7.94413E-03-8.51892E-04-3.13704E-14
 -1      3976 7.77052E-03-7.25189E-04-3.00869E-14
 -1      3977 8.47600E-03-1.25242E-03-3.60884E-14
 -1      3978 8.31218E-03-1.13310E-03-3.47063E-14
 -1      3979 8.79650E-03-1.48675E-03-3.89345E-14
 -1      3980 8.63759E-03-1.37013E-03-3.74973E-14
 -1      3981 8.65879E-03-1.36187E-03-3.70500E-14
 -1      3982 9.10753E-03-1.71740E-03-4.18872E-14
 -1      3983 8.95316E-03-1.60235E-03-4.03970E-14
 -1      3984 8.97849E-03-1.59225E-03-3.99326E-14
 -1      3985 9.41064E-03-1.94637E-03-4.49361E-14
 -1      3986 9.25997E-03-1.83194E-03-4.34006E-14
 -1      3987 9.28771E-03-1.81943E-03-4.29202E-14
 -1      3988 9.70773E-03-2.17509E-03-4.80798E-14
 -1      3989 9.55982E-03-2.06068E-03-4.64980E-14
 -1      3990 9.58887E-03-2.04588E-03-4.60042E-14
 -1      3991 1.00005E-02-2.40427E-03-5.13102E-14
 -1      3992 9.85457E-03-2.28958E-03-4.96840E-14
 -1      3993 9.88425E-03-2.27284E-03-4.91790E-14
 -1      3994 1.02904E-02-2.63420E-03-5.46202E-14
 -1      3995 1.01458E-02-2.51913E-03-5.29556E-14
 -1      3996 1.01757E-02-2.50089E-03-5.24361E-14
 -1      3997 1.05785E-02-2.86491E-03-5.80102E-14
 -1      3998 1.04346E-02-2.74946E-03-5.63047E-14
 -1      3999 1.04646E-02-2.73014E-03-5.57715E-14
 -1      4000 1.08654E-02-3.09629E-03-6.14858E-14
 -1      4001 1.07220E-02-2.98052E-03-5.97388E-14
 -1      4002 1.07520E-02-2.96046E-03-5.91907E-14
 -1      4003 1.11516E-02-3.32820E-03-6.50431E-14
 -1      4004 1.10085E-02-3.21218E-03-6.32535E-14
 -1      4005 1.10384E-02-3.19163E-03-6.26921E-14
 -1      4006 1.14374E-02-3.56050E-03-6.86836E-14
 -1      4007 1.12945E-02-3.44431E-03-6.68539E-14
 -1      4008 1.13243E-02-3.42345E-03-6.62739E-14
 -1      4009 1.17231E-02-3.79309E-03-7.24072E-14
 -1      4010 1.15803E-02-3.67677E-03-7.05343E-14
 -1      4011 1.16100E-02-3.65573E-03-6.99395E-14
 -1      4012 1.20086E-02-4.02588E-03-7.62086E-14
 -1      4013 1.18659E-02-3.90947E-03-7.42998E-14
 -1      4014 1.18956E-02-3.88832E-03-7.36878E-14
 -1      4015 1.22942E-02-4.25881E-03-8.00835E-14
 -1      4016 1.21514E-02-4.14233E-03-7.81364E-14
 -1      4017 1.21811E-02-4.12113E-03-7.75126E-14
 -1      4018 1.25798E-02-4.49182E-03-8.40166E-14
 -1      4019 1.24370E-02-4.37530E-03-8.20421E-14
 -1      4020 1.24666E-02-4.35408E-03-8.14071E-14
 -1      4021 1.28654E-02-4.72490E-03-8.80053E-14
 -1      4022 1.27226E-02-4.60835E-03-8.60067E-14
 -1      4023 1.27522E-02-4.58713E-03-8.53623E-14
 -1      4024 1.52256E-03-1.20709E-04-1.67992E-15
 -1      4025 1.69637E-03-1.32836E-04-2.03827E-15
 -1      4026 1.76567E-03-1.02864E-04-2.16533E-15
 -1      4027 1.52012E-03-8.61703E-05-1.65299E-15
 -1      4028 4.20367E-03 1.47551E-04-9.50895E-15
 -1      4029 4.04587E-03 1.48616E-04-8.85692E-15
 -1      4030 3.96391E-03 1.02327E-04-8.66962E-15
 -1      4031 4.28080E-03 9.73229E-05-9.98340E-15
 -1      4032 9.08464E-03-1.53943E-03-3.74709E-14
 -1      4033 9.24553E-03-1.60637E-03-3.78527E-14
 -1      4034 2.68087E-03-1.66819E-04-4.69938E-15
 -1      4035 2.82338E-03-1.71036E-04-5.17918E-15
 -1      4036 6.31984E-03 1.28727E-04-2.00986E-14
 -1      4037 2.10815E-03 1.57767E-04-2.56140E-15
 -1      4038 1.96307E-03 1.54623E-04-2.24025E-15
 -1      4039 4.37793E-03-3.33038E-04-1.22752E-14
 -1      4040 2.39449E-03-1.59152E-04-3.81037E-15
 -1      4041 2.53786E-03-1.62898E-04-4.24294E-15
 -1      4042 2.32084E-03-1.22039E-04-3.55942E-15
 -1      4043 6.02714E-03 1.76862E-04-1.83408E-14
 -1      4044 1.62984E-03 4.07245E-05-1.73509E-15
 -1      4045 1.50559E-03 2.22331E-05-1.52435E-15
 -1      4046 1.50994E-03-6.63818E-06-1.56361E-15
 -1      4047 9.54388E-03-1.75486E-03-3.95127E-14
 -1      4048 1.39126E-02-5.21448E-03-9.41538E-14
 -1      4049 1.37980E-02-5.17241E-03-9.37664E-14
 -1      4050 1.38040E-02-5.12202E-03-9.25043E-14
 -1      4051 1.36834E-02-5.13034E-03-9.33741E-14
 -1      4052 1.35687E-02-5.08827E-03-9.29784E-14
 -1      4053 1.35747E-02-5.03789E-03-9.17314E-14
 -1      4054 1.32852E-02-5.03807E-03-9.32529E-14
 -1      4055 1.72143E-03 1.54930E-04-1.74062E-15
 -1      4056 9.93803E-03-1.94065E-03-4.17552E-14
 -1      4057 2.96359E-03-1.75778E-04-5.67629E-15
 -1      4058 3.10486E-03-1.81311E-04-6.20333E-15
 -1      4059 3.17440E-03-1.48784E-04-6.39323E-15
 -1      4060 2.89308E-03-1.37607E-04-5.36206E-15
 -1      4061 5.92924E-03 1.98168E-04-1.77879E-14
 -1      4062 6.63705E-03 2.06440E-05-2.23217E-14
 -1      4063 4.27391E-03-2.83844E-04-1.15237E-14
 -1      4064 4.47512E-03-2.87618E-04-1.24037E-14
 -1      4065 3.21205E-03 2.01152E-04-5.59770E-15
 -1      4066 3.14084E-03 2.42608E-04-5.23941E-15
 -1      4067 2.99318E-03 2.42394E-04-4.76680E-15
 -1      4068 6.79340E-03-6.01998E-05-2.34100E-14
 -1      4069 5.06946E-03-1.56659E-04-1.43509E-14
 -1      4070 5.19682E-03-1.23257E-04-1.47999E-14
 -1      4071 5.26485E-03-6.16183E-05-1.48918E-14
 -1      4072 4.01925E-03-2.48127E-04-1.02275E-14
 -1      4073 4.14569E-03-2.65233E-04-1.08656E-14
 -1      4074 4.22587E-03-2.22445E-04-1.09832E-14
 -1      4075 2.84608E-03 2.41837E-04-4.31823E-15
 -1      4076 2.69946E-03 2.40819E-04-3.89302E-15
 -1      4077 2.91610E-03 2.02161E-04-4.64184E-15
 -1      4078 3.77348E-03-2.23727E-04-9.05061E-15
 -1      4079 3.89876E-03-2.37016E-04-9.65101E-15
 -1      4080 3.96636E-03-1.97605E-04-9.76407E-15
 -1      4081 3.71928E-03-1.81140E-04-8.65704E-15
 -1      4082 5.59758E-03 3.76723E-05-1.62081E-14
 -1      4083 5.59835E-03 8.45832E-05-1.61100E-14
 -1      4084 5.46885E-03 2.46043E-05-1.56052E-14
 -1      4085 2.62239E-03 2.01403E-04-3.77968E-15
 -1      4086 7.08625E-03-2.36735E-04-2.53557E-14
 -1      4087 1.31424E-02-4.92150E-03-9.12240E-14
 -1      4088 8.92954E-03-1.46964E-03-3.70788E-14
 -1      4089 9.13558E-03-1.59331E-03-3.84873E-14
 -1      4090 1.34545E-02-5.04637E-03-9.25783E-14
 -1      4091 5.37155E-03 1.48053E-04-1.48510E-14
 -1      4092 5.29558E-03 9.17495E-05-1.45944E-14
 -1      4093 8.71959E-03-1.34094E-03-3.56921E-14
 -1      4094 8.78145E-03-1.39811E-03-3.66785E-14
 -1      4095 5.54441E-03 1.57784E-04-1.57110E-14
 -1      4096 6.92328E-03-1.30915E-04-2.42141E-14
 -1      4097 1.31720E-02-4.90027E-03-9.05736E-14
 -1      4098 8.14574E-03-1.01207E-03-3.33533E-14
 -1      4099 7.97766E-03-8.89347E-04-3.20279E-14
 -1      4100 1.51411E-03-5.70586E-05-1.61865E-15
 -1      4101 2.60843E-03-1.29177E-04-4.41689E-15
 -1      4102 2.39939E-03 1.61679E-04-3.27219E-15
 -1      4103 2.25360E-03 1.60101E-04-2.90507E-15
 -1      4104 2.17753E-03 1.22741E-04-2.79609E-15
 -1      4105 5.76675E-03 2.03625E-04-1.68605E-14
 -1      4106 8.52779E-03-1.21130E-03-3.41379E-14
 -1      4107 8.32714E-03-1.12491E-03-3.42773E-14
 -1      4108 5.84073E-03 1.45614E-04-1.72832E-14
 -1      4109 5.66265E-03 1.62488E-04-1.63190E-14
 -1      4110 1.86097E-03 1.40953E-04-2.04753E-15
 -1      4111 1.68882E-03 1.10515E-04-1.75053E-15
 -1      4112 1.72737E-03 8.30949E-05-1.86855E-15
 -1      4113 1.93032E-03 1.08123E-04-2.25338E-15
 -1      4114 1.73042E-03 5.19333E-05-1.91925E-15
 -1      4115 1.73410E-03 2.08650E-05-1.96842E-15
 -1      4116 1.83144E-03 6.34839E-05-2.11246E-15
 -1      4117 8.34087E-03-1.10384E-03-3.34183E-14
 -1      4118 4.52482E-03-2.48392E-04-1.23923E-14
 -1      4119 9.45158E-03-1.77048E-03-4.04836E-14
 -1      4120 9.69541E-03-1.86145E-03-4.11239E-14
 -1      4121 9.84471E-03-1.96954E-03-4.27651E-14
 -1      4122 3.58389E-03 1.54667E-04-7.04759E-15
 -1      4123 3.43299E-03 1.56789E-04-6.49334E-15
 -1      4124 3.65581E-03 1.09041E-04-7.45346E-15
 -1      4125 4.89052E-03-1.78685E-04-1.36381E-14
 -1      4126 4.90168E-03-1.11484E-04-1.34056E-14
 -1      4127 4.71770E-03-1.92714E-04-1.29447E-14
 -1      4128 7.60432E-03-6.00626E-04-2.88131E-14
 -1      4129 3.39138E-03-1.23034E-04-7.15086E-15
 -1      4130 3.53483E-03-1.32018E-04-7.73890E-15
 -1      4131 5.28139E-03-8.56482E-06-1.47940E-14
 -1      4132 5.29309E-03 4.46993E-05-1.47003E-14
 -1      4133 5.11901E-03 6.58850E-05-1.38142E-14
 -1      4134 5.09761E-03-3.47058E-05-1.40153E-14
 -1      4135 2.69201E-03 1.62835E-04-4.07576E-15
 -1      4136 2.54552E-03 1.62570E-04-3.66260E-15
 -1      4137 2.46904E-03 1.24421E-04-3.54096E-15
 -1      4138 4.54364E-03-1.89744E-04-1.21809E-14
 -1      4139 9.98572E-03-2.07201E-03-4.42951E-14
 -1      4140 1.01257E-02-2.17629E-03-4.58477E-14
 -1      4141 9.75764E-03-1.98741E-03-4.36315E-14
 -1      4142 2.03460E-03 8.73355E-05-2.52414E-15
 -1      4143 1.93284E-03 7.53056E-05-2.31420E-15
 -1      4144 1.93596E-03 4.26149E-05-2.37206E-15
 -1      4145 1.05673E-02-2.47661E-03-5.00955E-14
 -1      4146 1.07062E-02-2.58669E-03-5.17287E-14
 -1      4147 1.08458E-02-2.69801E-03-5.33823E-14
 -1      4148 1.09857E-02-2.81041E-03-5.50538E-14
 -1      4149 1.06715E-02-2.60706E-03-5.22826E-14
 -1      4150 1.11261E-02-2.92365E-03-5.67457E-14
 -1      4151 1.12669E-02-3.03763E-03-5.84553E-14
 -1      4152 1.09530E-02-2.83146E-03-5.56209E-14
 -1      4153 1.14080E-02-3.15217E-03-6.01834E-14
 -1      4154 1.15494E-02-3.26720E-03-6.19339E-14
 -1      4155 1.12355E-02-3.05900E-03-5.90329E-14
 -1      4156 1.16911E-02-3.38258E-03-6.37045E-14
 -1      4157 1.18330E-02-3.49828E-03-6.54954E-14
 -1      4158 1.15188E-02-3.28869E-03-6.25229E-14
 -1      4159 1.19750E-02-3.61419E-03-6.73043E-14
 -1      4160 1.21172E-02-3.73030E-03-6.91336E-14
 -1      4161 1.18029E-02-3.51980E-03-6.60964E-14
 -1      4162 1.22595E-02-3.84654E-03-7.09841E-14
 -1      4163 1.24020E-02-3.96290E-03-7.28515E-14
 -1      4164 1.20874E-02-3.75180E-03-6.97495E-14
 -1      4165 1.25373E-02-4.07351E-03-7.46443E-14
 -1      4166 1.26728E-02-4.18418E-03-7.64563E-14
 -1      4167 1.23652E-02-3.97854E-03-7.33878E-14
 -1      4168 1.28154E-02-4.30072E-03-7.83791E-14
 -1      4169 1.29581E-02-4.41730E-03-8.03208E-14
 -1      4170 1.26432E-02-4.20559E-03-7.70974E-14
 -1      4171 1.31008E-02-4.53390E-03-8.22813E-14
 -1      4172 1.32435E-02-4.65052E-03-8.42581E-14
 -1      4173 1.29285E-02-4.43867E-03-8.09765E-14
 -1      4174 1.33863E-02-4.76715E-03-8.62492E-14
 -1      4175 1.35291E-02-4.88378E-03-8.82604E-14
 -1      4176 1.32140E-02-4.67185E-03-8.49268E-14
 -1      4177 1.36122E-02-4.95667E-03-8.95591E-14
 -1      4178 1.37208E-02-5.04914E-03-9.11947E-14
 -1      4179 1.36062E-02-5.00708E-03-9.08146E-14
 -1      4180 1.34399E-02-4.86133E-03-8.82153E-14
 -1      4181 4.94277E-03 5.79663E-05-1.30151E-14
 -1      4182 1.95932E-03-7.92285E-05-2.58228E-15
 -1      4183 2.10345E-03-8.21999E-05-2.93694E-15
 -1      4184 1.31776E-02-4.84975E-03-8.93486E-14
 -1      4185 4.68851E-03 4.38617E-05-1.19118E-14
 -1      4186 4.52038E-03 4.33218E-05-1.11748E-14
 -1      4187 1.63723E-03-4.19251E-05-1.84318E-15
 -1      4188 9.76778E-03-2.14412E-03-4.70773E-14
 -1      4189 9.61934E-03-2.03189E-03-4.55071E-14
 -1      4190 1.00610E-02-2.36961E-03-5.02809E-14
 -1      4191 9.91491E-03-2.25663E-03-4.86681E-14
 -1      4192 9.94678E-03-2.24096E-03-4.81552E-14
 -1      4193 1.03509E-02-2.59682E-03-5.35648E-14
 -1      4194 1.02063E-02-2.48299E-03-5.19122E-14
 -1      4195 1.02376E-02-2.46539E-03-5.13874E-14
 -1      4196 1.06387E-02-2.82561E-03-5.69276E-14
 -1      4197 1.04950E-02-2.71102E-03-5.52372E-14
 -1      4198 1.05259E-02-2.69206E-03-5.46979E-14
 -1      4199 1.09254E-02-3.05570E-03-6.03741E-14
 -1      4200 1.07822E-02-2.94051E-03-5.86411E-14
 -1      4201 1.08127E-02-2.92063E-03-5.80901E-14
 -1      4202 1.12114E-02-3.28679E-03-6.39000E-14
 -1      4203 1.10684E-02-3.17114E-03-6.21268E-14
 -1      4204 1.10986E-02-3.15068E-03-6.15607E-14
 -1      4205 1.14970E-02-3.51860E-03-6.75102E-14
 -1      4206 1.13542E-02-3.40262E-03-6.56939E-14
 -1      4207 1.13842E-02-3.38179E-03-6.51135E-14
 -1      4208 1.17825E-02-3.75089E-03-7.12002E-14
 -1      4209 1.16398E-02-3.63469E-03-6.93460E-14
 -1      4210 1.16696E-02-3.61365E-03-6.87497E-14
 -1      4211 1.20680E-02-3.98352E-03-7.49736E-14
 -1      4212 1.19253E-02-3.86718E-03-7.30773E-14
 -1      4213 1.19550E-02-3.84602E-03-7.24665E-14
 -1      4214 1.23535E-02-4.21637E-03-7.88218E-14
 -1      4215 1.22108E-02-4.09993E-03-7.68885E-14
 -1      4216 1.22404E-02-4.07871E-03-7.62626E-14
 -1      4217 1.26390E-02-4.44936E-03-8.27375E-14
 -1      4218 1.24963E-02-4.33285E-03-8.07715E-14
 -1      4219 1.25259E-02-4.31161E-03-8.01325E-14
 -1      4220 1.29797E-02-4.70781E-03-8.70239E-14
 -1      4221 1.28369E-02-4.59125E-03-8.50261E-14
 -1      4222 1.28665E-02-4.57000E-03-8.43770E-14
 -1      4223 1.32622E-02-4.85387E-03-8.89993E-14
 -1      4224 8.12824E-03-9.68102E-04-3.22606E-14
 -1      4225 9.15582E-03-1.64413E-03-3.96668E-14
 -1      4226 9.30201E-03-1.70854E-03-4.00762E-14
 -1      4227 9.46455E-03-1.82323E-03-4.16977E-14
 -1      4228 8.36349E-03-1.13560E-03-3.41059E-14
 -1      4229 9.22553E-03-1.73365E-03-4.13486E-14
 -1      4230 9.06941E-03-1.62174E-03-3.98697E-14
 -1      4231 2.24772E-03-8.51399E-05-3.31503E-15
 -1      4232 2.39202E-03-8.81476E-05-3.71631E-15
 -1      4233 2.17510E-03-4.86076E-05-3.07710E-15
 -1      4234 8.53316E-03-1.25506E-03-3.54750E-14
 -1      4235 1.34915E-02-4.95149E-03-9.01016E-14
 -1      4236 1.33769E-02-4.90945E-03-8.97143E-14
 -1      4237 1.31790E-02-4.76749E-03-8.73868E-14
 -1      4238 1.34084E-02-4.87863E-03-8.88040E-14
 -1      4239 2.53628E-03-9.13880E-05-4.14051E-15
 -1      4240 2.68039E-03-9.49439E-05-4.58848E-15
 -1      4241 2.46435E-03-5.36149E-05-3.87094E-15
 -1      4242 8.73697E-03-1.38644E-03-3.68607E-14
 -1      4243 1.74669E-03-1.37563E-05-2.03661E-15
 -1      4244 1.75096E-03-6.79068E-05-2.10303E-15
 -1      4245 1.87418E-03-7.52608E-05-2.38123E-15
 -1      4246 1.84715E-03-3.94408E-06-2.23968E-15
 -1      4247 8.89991E-03-1.50065E-03-3.82869E-14
 -1      4248 3.28322E-03 1.58774E-04-5.96246E-15
 -1      4249 3.13441E-03 1.60420E-04-5.45510E-15
 -1      4250 3.35407E-03 1.15479E-04-6.33406E-15
 -1      4251 2.83893E-03 1.62523E-04-4.51260E-15
 -1      4252 2.76193E-03 1.23593E-04-4.37888E-15
 -1      4253 2.98636E-03 1.61709E-04-4.97208E-15
 -1      4254 3.24972E-03-1.15483E-04-6.59360E-15
 -1      4255 3.32721E-03-8.10413E-05-6.79086E-15
 -1      4256 3.10811E-03-1.09083E-04-6.05942E-15
 -1      4257 4.35561E-03 4.51803E-05-1.04641E-14
 -1      4258 4.19430E-03 4.84186E-05-9.77861E-15
 -1      4259 4.42757E-03-9.06262E-06-1.09513E-14
 -1      4260 3.65917E-03-1.36897E-04-8.25327E-15
 -1      4261 3.78433E-03-1.42783E-04-8.78410E-15
 -1      4262 3.59652E-03-9.21732E-05-7.85522E-15
 -1      4263 2.17973E-03 8.83197E-05-2.86785E-15
 -1      4264 1.03008E-02-2.26916E-03-4.70077E-14
 -1      4265 1.04321E-02-2.37075E-03-4.85226E-14
 -1      4266 2.75192E-03-6.00559E-05-4.75122E-15
 -1      4267 2.82257E-03-9.89513E-05-5.05360E-15
 -1      4268 2.96451E-03-1.03570E-04-5.54174E-15
 -1      4269 4.84878E-03-1.79002E-06-1.27717E-14
 -1      4270 1.94541E-03-4.29253E-05-2.50907E-15
 -1      4271 4.18094E-03-1.69698E-04-1.05451E-14
 -1      4272 4.32041E-03-1.82371E-04-1.11915E-14
 -1      4273 4.49593E-03-1.31182E-04-1.17095E-14
 -1      4274 9.46930E-03-1.92004E-03-4.39596E-14
 -1      4275 9.31730E-03-1.80814E-03-4.24372E-14
 -1      4276 9.41184E-03-1.83488E-03-4.23655E-14
 -1      4277 9.65152E-03-2.01882E-03-4.50064E-14
 -1      4278 1.03942E-02-2.38980E-03-4.90638E-14
 -1      4279 4.03591E-03 5.27885E-05-9.11669E-15
 -1      4280 3.88011E-03 5.74387E-05-8.47888E-15
 -1      4281 4.10557E-03 1.63186E-06-9.56918E-15
 -1      4282 3.72647E-03 6.23437E-05-7.86547E-15
 -1      4283 3.57461E-03 6.69844E-05-7.27673E-15
 -1      4284 3.79545E-03 1.45191E-05-8.28413E-15
 -1      4285 4.83173E-03-5.22607E-05-1.28658E-14
 -1      4286 1.93395E-03 1.79176E-05-2.40354E-15
 -1      4287 1.94650E-03-1.83748E-05-2.48152E-15
 -1      4288 2.03181E-03-2.14672E-05-2.68551E-15
 -1      4289 2.03520E-03 2.86812E-05-2.62180E-15
 -1      4290 1.04957E-02-2.51548E-03-5.11891E-14
 -1      4291 1.06373E-02-2.62676E-03-5.28348E-14
 -1      4292 1.00816E-02-2.18965E-03-4.63339E-14
 -1      4293 9.55262E-03-1.89487E-03-4.27907E-14
 -1      4294 9.70181E-03-2.00261E-03-4.43214E-14
 -1      4295 9.84926E-03-2.11131E-03-4.58750E-14
 -1      4296 1.00354E-02-2.20400E-03-4.68746E-14
 -1      4297 1.02115E-02-2.30083E-03-4.80527E-14
 -1      4298 1.03500E-02-2.40719E-03-4.96199E-14
 -1      4299 9.98391E-03-2.22397E-03-4.75816E-14
 -1      4300 4.66564E-03-6.92278E-05-1.21964E-14
 -1      4301 1.07790E-02-2.73898E-03-5.44988E-14
 -1      4302 1.09206E-02-2.85202E-03-5.61830E-14
 -1      4303 1.06040E-02-2.64604E-03-5.33823E-14
 -1      4304 1.10624E-02-2.96573E-03-5.78854E-14
 -1      4305 1.12043E-02-3.08003E-03-5.96055E-14
 -1      4306 1.08887E-02-2.87224E-03-5.67405E-14
 -1      4307 1.13462E-02-3.19480E-03-6.13490E-14
 -1      4308 1.14883E-02-3.30996E-03-6.31125E-14
 -1      4309 1.11733E-02-3.10080E-03-6.01786E-14
 -1      4310 1.16305E-02-3.42543E-03-6.48928E-14
 -1      4311 1.17727E-02-3.54116E-03-6.66949E-14
 -1      4312 1.14579E-02-3.33104E-03-6.36958E-14
 -1      4313 1.19151E-02-3.65709E-03-6.85216E-14
 -1      4314 1.20575E-02-3.77319E-03-7.03659E-14
 -1      4315 1.17427E-02-3.56240E-03-6.72958E-14
 -1      4316 1.21929E-02-3.88360E-03-7.21349E-14
 -1      4317 1.23283E-02-3.99411E-03-7.39208E-14
 -1      4318 1.20206E-02-3.78869E-03-7.08873E-14
 -1      4319 1.24709E-02-4.11050E-03-7.58211E-14
 -1      4320 1.26135E-02-4.22696E-03-7.77410E-14
 -1      4321 1.22986E-02-4.01544E-03-7.45490E-14
 -1      4322 1.27562E-02-4.34347E-03-7.96776E-14
 -1      4323 1.28989E-02-4.46001E-03-8.16346E-14
 -1      4324 1.25839E-02-4.24829E-03-7.83826E-14
 -1      4325 1.33252E-02-4.80576E-03-8.75109E-14
 -1      4326 1.07075E-02-2.78253E-03-5.57195E-14
 -1      4327 1.05644E-02-2.66909E-03-5.40416E-14
 -1      4328 4.05000E-03-1.62007E-04-9.96131E-15
 -1      4329 4.13637E-03-1.22041E-04-1.01548E-14
 -1      4330 3.92176E-03-1.54359E-04-9.39518E-15
 -1      4331 4.43289E-03-7.35437E-05-1.12103E-14
 -1      4332 2.33127E-03 7.83488E-05-3.27037E-15
 -1      4333 2.18867E-03 4.39434E-05-2.96932E-15
 -1      4334 1.04211E-02-2.55631E-03-5.23852E-14
 -1      4335 1.02773E-02-2.44419E-03-5.07461E-14
 -1      4336 1.01292E-02-2.33464E-03-4.91816E-14
 -1      4337 1.09931E-02-3.01095E-03-5.91330E-14
 -1      4338 1.08504E-02-2.89650E-03-5.74168E-14
 -1      4339 1.12784E-02-3.24099E-03-6.26290E-14
 -1      4340 1.11358E-02-3.12580E-03-6.08724E-14
 -1      4341 1.15635E-02-3.47217E-03-6.62035E-14
 -1      4342 1.14210E-02-3.35647E-03-6.44032E-14
 -1      4343 1.18487E-02-3.70412E-03-6.98650E-14
 -1      4344 1.17061E-02-3.58807E-03-6.80245E-14
 -1      4345 1.21268E-02-3.93075E-03-7.35054E-14
 -1      4346 1.19842E-02-3.81448E-03-7.16293E-14
 -1      4347 1.24122E-02-4.16351E-03-7.73220E-14
 -1      4348 1.22695E-02-4.04710E-03-7.54054E-14
 -1      4349 1.26976E-02-4.39646E-03-8.12108E-14
 -1      4350 1.25549E-02-4.27997E-03-7.92586E-14
 -1      4351 1.30372E-02-4.65291E-03-8.54289E-14
 -1      4352 1.28394E-02-4.51100E-03-8.31375E-14
 -1      4353 1.28684E-02-4.47932E-03-8.22451E-14
 -1      4354 1.31519E-02-4.70846E-03-8.61319E-14
 -1      4355 2.32948E-03-9.23173E-06-3.42327E-15
 -1      4356 2.47457E-03-1.12251E-05-3.82799E-15
 -1      4357 2.18454E-03-7.59402E-06-3.04162E-15
 -1      4358 4.27112E-03-6.59520E-05-1.04981E-14
 -1      4359 2.47704E-03 7.79164E-05-3.66295E-15
 -1      4360 3.05662E-03 1.20511E-04-5.30945E-15
 -1      4361 3.03941E-03-6.88504E-05-5.72471E-15
 -1      4362 2.68598E-03 7.76761E-05-4.26100E-15
 -1      4363 2.54825E-03 3.22918E-05-3.95605E-15
 -1      4364 2.68225E-03-1.35767E-05-4.44387E-15
 -1      4365 2.83254E-03 7.58809E-05-4.70945E-15
 -1      4366 3.55653E-03-3.56611E-05-7.52203E-15
 -1      4367 3.68504E-03-3.80912E-05-8.02517E-15
 -1      4368 2.82586E-03-1.67541E-05-4.89871E-15
 -1      4369 3.49333E-03 2.65192E-05-7.09617E-15
 -1      4370 3.42421E-03 7.13882E-05-6.71244E-15
 -1      4371 3.27495E-03 7.52772E-05-6.17076E-15
 -1      4372 3.86286E-03-1.05998E-04-8.96646E-15
 -1      4373 1.30407E-02-4.57458E-03-8.35629E-14
 -1      4374 1.31834E-02-4.69116E-03-8.55504E-14
 -1      4375 4.13416E-03-6.33352E-05-9.91846E-15
 -1      4376 1.03148E-02-2.42491E-03-5.01564E-14
 -1      4377 3.40861E-03-2.86997E-05-6.94533E-15
 -1      4378 3.97908E-03-5.44374E-05-9.25035E-15
 -1      4379 3.26345E-03-2.26012E-05-6.39907E-15
 -1      4380 3.83568E-03-4.63755E-05-8.64639E-15
 -1      4381 2.18643E-03 1.81122E-05-3.00659E-15
 -1      4382 2.97860E-03 7.34844E-05-5.17862E-15
 -1      4383 2.90215E-03 2.77077E-05-5.04342E-15
 -1      4384 2.97059E-03-2.06075E-05-5.37977E-15
 -1      4385 3.12613E-03 7.05061E-05-5.67326E-15
 -1      4386 3.19556E-03 2.81319E-05-6.02364E-15
 -1      4387 3.11644E-03-2.52286E-05-5.88716E-15
 -3
    1PSTEP                         2           1           1          
  100CL  101 1.000000000        4387                     0    1           1
 -4  STRESS      6    1
 -5  SXX         1    4    1    1
 -5  SYY         1    4    2    2
 -5  SZZ         1    4    3    3
 -5  SXY         1    4    1    2
 -5  SYZ         1    4    2    3
 -5  SZX         1    4    3    1
 -1         1 9.55853E+01 2.57302E+00 8.77728E+00 7.59748E+00 2.78874E-14-1.08025E-13
 -1         2-7.62106E-01-2.80732E+01-3.45704E+00 1.53102E-01 9.59705E-13-4.64281E-14
 -1         3 1.99998E+01 6.80148E-06 5.23583E-05 5.92887E-06-5.44110E-13-6.32381E-13
 -1         4 1.99998E+01 3.52608E-05 3.18028E-05-4.19568E-05-4.73851E-13 1.29636E-13
 -1         5 3.27559E+01 6.14063E+00 2.73918E+00 6.22039E+00-4.50681E-14 2.92071E-12
 -1         6 3.59128E+01 1.23377E+01 5.21256E+00-8.74996E+00-1.59039E-13 1.67823E-12
 -1         7 2.07202E+01 6.10490E+00-1.45155E-01-4.69098E+00-2.33008E-14-3.29528E-14
 -1         8 1.96773E+01 5.93789E+00 5.11569E-02-3.26481E+00-2.13510E-14-4.49888E-13
 -1         9 1.91449E+01 5.77440E+00 4.92163E-02-2.51729E+00-1.37685E-14-6.40794E-13
 -1        10 1.89035E+01 5.69438E+00 5.13728E-02-1.94134E+00-3.35149E-15-6.95893E-13
 -1        11 1.87787E+01 5.65266E+00 5.02956E-02-1.44684E+00 4.82470E-15-6.89003E-13
 -1        12 1.87118E+01 5.62999E+00 4.84571E-02-1.00800E+00 7.24963E-15-6.52553E-13
 -1        13 1.86752E+01 5.61766E+00 4.69674E-02-5.91171E-01 1.17762E-14-5.98191E-13
 -1        14 1.86590E+01 5.61221E+00 4.61994E-02-1.90408E-01 1.46649E-14-5.42633E-13
 -1        15 1.86584E+01 5.61209E+00 4.62706E-02 2.05658E-01 1.80026E-14-4.74242E-13
 -1        16 1.86737E+01 5.61731E+00 4.71739E-02 6.07715E-01 2.06958E-14-4.05806E-13
 -1        17 1.87096E+01 5.62938E+00 4.88005E-02 1.02721E+00 2.55867E-14-3.02253E-13
 -1        18 1.87763E+01 5.65196E+00 5.06515E-02 1.46977E+00 2.88472E-14-1.53827E-13
 -1        19 1.89020E+01 5.69413E+00 5.16463E-02 1.97007E+00 3.79080E-14 4.15241E-14
 -1        20 1.91465E+01 5.77555E+00 4.93172E-02 2.55411E+00 3.80980E-14 3.26904E-13
 -1        21 1.96715E+01 5.95071E+00 4.62594E-02 3.30020E+00 3.78794E-14 8.04337E-13
 -1        22 2.12042E+01 6.38187E+00 1.39997E-01 4.51649E+00 7.49401E-16 1.57834E-12
 -1        23 2.32569E+01-1.30547E+00-9.17789E-01-8.32131E-01-1.19373E-13 1.15652E-12
 -1        24 1.94276E+01-1.08725E-01-3.29537E-01 6.52447E-02-3.23968E-14 7.04707E-13
 -1        25 1.87029E+01-5.85227E-02-7.48943E-02 6.15779E-02-1.17035E-14 2.63432E-13
 -1        26 1.84929E+01-2.33631E-02-8.27747E-03 3.33932E-02-4.83912E-15-2.44978E-14
 -1        27 1.85098E+01-1.28440E-02 9.78716E-04 2.25074E-02 4.96695E-15-2.40178E-13
 -1        28 1.86411E+01-7.64778E-03 9.72238E-04 1.58705E-02 2.90523E-15-3.95896E-13
 -1        29 1.88338E+01-4.95386E-03 2.40617E-04 1.17565E-02-1.07587E-14-4.83488E-13
 -1        30 1.90555E+01-4.45408E-03-7.11976E-04 8.39570E-03 1.34037E-14-5.13251E-13
 -1        31 1.93265E+01-5.26518E-03-2.71676E-03 6.30202E-03-2.62354E-14-6.13119E-13
 -1        32 1.96572E+01-7.78140E-03-6.60125E-03 5.20570E-03-6.57195E-15-7.78321E-13
 -1        33 2.00931E+01-1.24871E-02-1.39285E-02 5.94795E-03 1.60320E-14-7.43606E-13
 -1        34 2.07197E+01-2.01540E-02-2.75176E-02 1.03291E-02-3.24693E-14-8.39630E-13
 -1        35 2.16836E+01-3.15921E-02-5.21250E-02 2.23625E-02 2.66634E-14-8.61183E-13
 -1        36 2.32256E+01-4.76995E-02-9.36750E-02 4.98719E-02 3.62306E-14-7.15716E-13
 -1        37 2.57118E+01-5.86862E-02-1.48103E-01 1.15731E-01-1.06252E-14-6.19650E-13
 -1        38 2.94099E+01-6.29566E-02-1.81422E-01 2.14109E-01-3.45943E-14-7.25614E-13
 -1        39 3.50501E+01-1.87220E-02-6.39644E-02 3.85172E-01 3.52457E-14-7.60780E-13
 -1        40 4.18947E+01 8.57380E-02 4.11142E-01 4.71384E-01 3.44902E-14-4.94285E-13
 -1        41 4.63575E+01 1.89423E-01 1.05546E+00 1.85183E-02 2.17361E-14-1.68428E-13
 -1        42 4.22433E+01 7.58213E-02 5.93879E-01-1.61684E+00-2.76029E-14-5.25691E-14
 -1        43 2.89895E+01 6.43660E-02-1.72787E+00-2.39156E+00-8.25243E-14-5.24025E-13
 -1        44 1.58953E+01-8.29410E-02-4.39348E+00-9.50223E-01-2.16493E-14-1.29680E-12
 -1        45 1.57584E+01-1.98486E-01-4.39630E+00 8.71425E-01-8.75550E-14-1.89648E-12
 -1        46 2.77138E+01-1.08727E-01-1.94235E+00 1.63873E+00 3.65888E-14-2.34890E-12
 -1        47 4.12335E+01 6.63806E-02 5.11781E-01 1.07448E+00 1.23668E-14-2.23149E-12
 -1        48 4.68014E+01 1.21754E-01 1.16680E+00 1.20643E-01 6.46982E-14-1.44680E-12
 -1        49 4.39406E+01 6.54472E-02 6.27590E-01-2.41266E-01-3.07237E-14-9.84088E-13
 -1        50 3.70961E+01 1.78879E-03 2.51418E-02-2.70349E-01 7.53282E-14-5.08579E-13
 -1        51 3.11716E+01-3.40919E-02-1.80061E-01-1.72699E-01 9.51756E-15-5.92373E-13
 -1        52 2.67925E+01-3.55381E-02-1.73072E-01-9.04236E-02-7.49236E-14-1.03955E-12
 -1        53 2.40219E+01-2.84737E-02-1.14808E-01-4.36572E-02 9.74930E-14-9.09578E-13
 -1        54 2.23490E+01-1.98952E-02-6.65985E-02-2.00514E-02-3.24448E-15-5.62663E-13
 -1        55 2.13607E+01-1.30173E-02-3.67807E-02-8.74341E-03-1.26079E-13-9.59943E-13
 -1        56 2.07833E+01-8.22886E-03-2.00796E-02-3.50690E-03 6.36307E-14-1.35392E-12
 -1        57 2.04479E+01-5.10627E-03-1.09765E-02-1.15939E-03-1.31721E-14-1.30251E-12
 -1        58 2.02545E+01-3.08959E-03-5.95418E-03 3.35487E-05 1.22622E-13-1.04852E-12
 -1        59 2.01468E+01-1.98383E-03-3.45335E-03 1.01917E-04 3.13048E-15-4.52333E-13
 -1        60 2.00809E+01-1.17735E-03-1.87173E-03 2.93290E-04-8.65887E-14-1.03452E-12
 -1        61 2.00433E+01-7.12422E-04-1.01337E-03 2.87551E-04 1.76187E-15-1.27984E-12
 -1        62 2.00220E+01-4.29683E-04-5.45161E-04 2.40623E-04 7.25645E-14-8.82477E-13
 -1        63 2.00101E+01-2.59333E-04-2.90295E-04 1.87559E-04-6.34318E-14 3.93836E-14
 -1        64 2.00035E+01-1.56996E-04-1.52737E-04 1.40876E-04 2.67436E-14-2.59276E-13
 -1        65 2.00000E+01-9.58852E-05-7.93491E-05 1.04100E-04 1.65528E-13-7.44807E-13
 -1        66 1.99982E+01-5.76379E-05-4.07970E-05 8.00562E-05-4.57447E-14-6.13317E-13
 -1        67 1.99975E+01-3.72840E-05-2.19737E-05 5.57580E-05 1.33278E-13-6.96909E-13
 -1        68 1.99973E+01-2.31298E-05-1.18589E-05 4.36879E-05-8.98346E-14-7.63020E-13
 -1        69 1.99976E+01-1.43139E-05-6.90088E-06 3.46864E-05-3.13903E-14-1.01579E-12
 -1        70 1.99980E+01-8.17601E-06-3.68149E-06 2.94836E-05-1.01372E-14-4.92956E-13
 -1        71 1.99986E+01-2.99731E-06 1.93253E-06 2.74818E-05-4.69835E-14-6.78804E-13
 -1        72 1.99992E+01 4.08405E-06 1.70060E-05 2.84114E-05 6.69065E-14-8.75753E-13
 -1        73 1.99997E+01 1.49567E-06 3.20488E-05 1.92721E-05 2.28926E-13 4.71718E-13
 -1        74 2.10446E+01-4.05033E-01-9.80553E-01-3.12077E-01 4.66641E-15 2.93111E-12
 -1        75 1.93433E+01-6.65556E-02-2.90641E-01-5.40473E-02 5.91627E-15 2.62193E-12
 -1        76 1.87079E+01-2.12000E-02-6.36999E-02-2.12187E-02 1.78750E-14 2.37625E-12
 -1        77 1.85144E+01-1.03956E-02-9.11013E-03-1.63797E-02 2.14325E-15 2.19992E-12
 -1        78 1.85338E+01-5.19342E-03 6.00266E-04-1.32093E-02 2.77035E-15 2.06539E-12
 -1        79 1.86542E+01-2.24370E-03 1.87041E-03-1.09794E-02 7.83978E-15 1.95368E-12
 -1        80 1.88163E+01-3.99421E-04 2.44134E-03-9.49997E-03 1.28921E-14 1.89548E-12
 -1        81 1.89840E+01 9.24317E-04 3.26004E-03-8.46600E-03 7.85434E-15 1.88749E-12
 -1        82 1.91317E+01 2.01579E-03 4.34050E-03-7.69381E-03-9.62021E-15 1.79180E-12
 -1        83 1.92381E+01 3.02073E-03 5.70510E-03-7.01437E-03 7.30111E-15 1.70811E-12
 -1        84 1.92819E+01 3.98180E-03 7.39409E-03-6.20352E-03 1.76970E-14 1.62520E-12
 -1        85 1.92409E+01 4.83929E-03 9.35100E-03-4.94689E-03-4.68836E-16 1.43696E-12
 -1        86 1.90914E+01 5.42298E-03 1.13143E-02-2.85110E-03 2.73861E-14 1.39900E-12
 -1        87 1.88115E+01 5.46097E-03 1.27427E-02 4.77005E-04-2.08423E-14 1.44964E-12
 -1        88 1.83868E+01 4.63239E-03 1.28230E-02 5.26371E-03 5.53285E-15 1.50796E-12
 -1        89 1.78190E+01 2.68241E-03 1.06322E-02 1.13292E-02-4.78595E-14 1.51501E-12
 -1        90 1.71350E+01-4.12655E-04 5.49986E-03 1.78631E-02-1.93359E-15 1.45174E-12
 -1        91 1.63937E+01-4.29470E-03-2.49964E-03 2.33815E-02 7.60990E-15 1.22736E-12
 -1        92 1.56838E+01-8.19571E-03-1.21615E-02 2.60391E-02-4.05324E-14 1.18167E-12
 -1        93 1.51115E+01-1.11214E-02-2.12122E-02 2.43232E-02-8.78811E-15 1.20112E-12
 -1        94 1.47755E+01-1.22193E-02-2.70120E-02 1.78598E-02 4.91342E-14 1.10168E-12
 -1        95 1.47396E+01-1.11528E-02-2.76781E-02 7.83372E-03-1.75348E-15 1.15054E-12
 -1        96 1.50127E+01-8.25527E-03-2.29975E-02-3.34530E-03 5.75907E-15 8.72975E-13
 -1        97 1.55466E+01-4.37100E-03-1.45326E-02-1.30079E-02-2.12633E-14 8.42978E-13
 -1        98 1.62513E+01-4.91288E-04-4.85760E-03-1.92588E-02 4.66264E-15 1.17400E-12
 -1        99 1.70223E+01 2.60497E-03 3.56348E-03-2.15181E-02-1.95822E-14 1.00234E-12
 -1       100 1.77666E+01 4.54037E-03 9.23028E-03-2.03976E-02-1.66314E-14 8.26225E-13
 -1       101 1.84190E+01 5.32346E-03 1.18255E-02-1.71445E-02 3.46113E-14 5.16530E-13
 -1       102 1.89469E+01 5.20990E-03 1.19029E-02-1.30481E-02-2.40560E-14 5.46878E-13
 -1       103 1.93448E+01 4.54238E-03 1.03914E-02-9.07465E-03 1.42768E-14 6.18139E-13
 -1       104 1.96257E+01 3.63253E-03 8.18079E-03-5.76364E-03-5.11405E-14 5.65725E-13
 -1       105 1.98113E+01 2.70505E-03 5.91656E-03-3.29558E-03 3.29942E-14 3.65160E-13
 -1       106 1.99255E+01 1.88978E-03 3.96125E-03-1.62229E-03 2.62928E-14 5.72847E-13
 -1       107 1.99898E+01 1.24050E-03 2.45165E-03-5.88547E-04-3.19267E-14 8.24769E-13
 -1       108 2.00215E+01 7.61289E-04 1.38327E-03-1.54014E-05-6.16303E-15 5.57693E-13
 -1       109 2.00335E+01 4.29968E-04 6.83184E-04 2.55479E-04-1.34938E-14 1.65533E-13
 -1       110 2.00344E+01 2.14705E-04 2.58798E-04 3.45423E-04 2.28674E-14-5.77436E-14
 -1       111 2.00301E+01 8.38340E-05 2.42784E-05 3.38343E-04-1.01587E-13 1.67212E-13
 -1       112 2.00238E+01 1.05160E-05-8.88041E-05 2.87388E-04 9.84048E-14 2.97301E-13
 -1       113 2.00175E+01-2.58525E-05-1.29876E-04 2.23332E-04-2.49602E-14-4.27143E-14
 -1       114 2.00119E+01-3.99767E-05-1.31998E-04 1.62101E-04-1.23654E-14 7.14405E-14
 -1       115 2.00076E+01-4.17280E-05-1.15811E-04 1.10536E-04-8.63478E-14 2.06503E-13
 -1       116 2.00043E+01-3.73586E-05-9.33087E-05 7.03831E-05 9.30927E-14-3.92878E-13
 -1       117 2.00021E+01-3.05857E-05-7.09035E-05 4.08270E-05-2.45903E-14-1.05689E-12
 -1       118 2.00007E+01-2.34213E-05-5.16280E-05 1.99372E-05-4.87818E-14-7.59589E-13
 -1       119 1.99999E+01-1.67417E-05-3.64823E-05 5.37310E-06-1.38090E-13-4.79726E-13
 -1       120 1.99996E+01-1.05798E-05-2.47265E-05-5.33613E-06-3.70313E-14-2.96445E-13
 -1       121 1.99996E+01-3.50999E-06-1.09932E-05-1.59609E-05 2.49906E-13-8.11456E-13
 -1       122 1.99997E+01 5.65281E-06 1.48005E-05-2.69677E-05 3.04590E-13-1.49476E-12
 -1       123 1.99998E+01-9.51501E-05 1.14698E-05-3.13710E-05-1.58446E-12 3.72066E-14
 -1       124 1.99998E+01-2.27114E-04-1.20840E-05-1.61767E-05-1.58432E-12-1.62235E-14
 -1       125 1.99998E+01-2.05148E-04-1.35397E-05-2.30535E-06-1.44025E-12-9.33511E-14
 -1       126 1.99998E+01-5.95568E-05-4.65990E-06 3.82288E-06-1.69672E-12-2.60766E-13
 -1       127 1.99998E+01 1.18571E-04 4.81164E-06 4.28000E-06-1.49744E-12-1.32179E-13
 -1       128 1.99998E+01 2.33543E-04 1.15425E-05 7.56239E-07-2.13059E-12-8.36073E-14
 -1       129 1.99998E+01 2.20341E-04 1.41665E-05-5.18746E-06-2.18194E-12 1.60069E-13
 -1       130 1.99998E+01 4.81126E-05 1.22662E-05-1.11507E-05-1.71638E-12-1.46648E-13
 -1       131 1.99998E+01-2.63612E-04 6.14466E-06-1.51127E-05-1.27881E-12 4.18937E-13
 -1       132 1.99998E+01-6.50666E-04-3.11528E-06-1.52748E-05 1.26115E-13-6.31536E-14
 -1       133 1.99998E+01-1.01577E-03-1.35299E-05-1.01706E-05 1.04086E-13-2.17240E-13
 -1       134 1.99998E+01-1.24855E-03-2.24876E-05-3.63393E-07-7.72952E-14 1.46954E-13
 -1       135 1.99998E+01-1.26647E-03-2.63151E-05 1.42821E-05-4.37944E-13 6.52862E-14
 -1       136 1.99998E+01-1.02509E-03-2.00345E-05 2.99074E-05-3.74293E-13 1.34702E-13
 -1       137 1.99998E+01-5.81715E-04 1.90083E-06 3.85673E-05 4.81044E-13-1.54926E-13
 -1       138 1.99998E+01-1.25929E-04 2.95015E-05 1.40061E-05 5.05853E-14-3.04878E-13
 -1       139-1.34138E+00-1.90114E+01-2.85486E+00-3.50470E+00 1.76537E-12 4.71866E-13
 -1       140-5.73888E-01-4.83906E+00-1.87825E+00-1.21952E+00 2.78244E-12 1.35864E-12
 -1       141 5.61226E+00 7.57764E+00-6.23683E-01 6.68927E+00 2.77178E-12 1.98863E-12
 -1       142 2.10614E+01 1.35727E+01 8.21930E-01 1.66781E+01 1.85602E-12 2.14595E-12
 -1       143 4.29523E+01 1.10540E+01 2.19676E+00 2.09102E+01 9.93788E-13 1.86368E-12
 -1       144 6.45425E+01 4.62785E+00 3.27155E+00 1.53389E+01 2.67064E-13 3.57325E-13
 -1       145 7.35284E+01 8.80850E-01 3.67533E+00 1.45835E+00 2.64129E-14-1.53916E-12
 -1       146 6.67549E+01 3.61403E+00 3.39803E+00-1.35692E+01 6.17045E-13-2.94198E-12
 -1       147 4.73971E+01 1.00730E+01 2.45204E+00-2.12255E+01 1.66572E-12-3.50392E-12
 -1       148 2.59249E+01 1.36345E+01 1.17418E+00-1.85179E+01 2.23416E-12-2.96635E-12
 -1       149 7.97445E+00 9.12044E+00-3.57930E-01-8.61355E+00 2.16949E-12-1.86318E-12
 -1       150-2.01287E-01-2.69351E+00-1.70845E+00 4.68784E-01 1.71896E-12-8.91842E-13
 -1       151-1.39956E+00-1.64817E+01-2.69219E+00 3.75667E+00 4.76674E-13-2.01367E-13
 -1       152-7.75036E-01-2.69615E+01-3.36583E+00 1.03079E+00-5.48561E-13 3.26267E-14
 -1       153-1.46492E+00-2.87475E+01-3.68667E+00-4.52930E+00-1.58729E-12-2.98841E-13
 -1       154-3.74851E+00-2.15523E+01-3.72585E+00-7.96138E+00-2.65937E-12-1.01850E-12
 -1       155-3.63146E+00-8.88297E+00-3.40629E+00-5.01836E+00-2.55507E-12-1.60816E-12
 -1       156 5.32340E+00 3.03575E+00-2.25697E+00 4.63589E+00-2.02338E-12-2.17526E-12
 -1       157 3.13558E+01 9.11193E+00 6.85510E-01 1.68662E+01-1.23962E-12-1.91847E-12
 -1       158 6.65207E+01 6.97235E+00 5.02828E+00 1.95662E+01-4.83641E-13-1.24445E-12
 -1       159 9.28606E+01 2.88200E+00 8.35898E+00-1.02001E+01-3.17742E-13 1.58901E-12
 -1       160 6.46953E+01 7.10743E+00 4.77152E+00-1.99604E+01-8.85347E-13 2.70128E-12
 -1       161 3.17976E+01 9.05292E+00 7.60551E-01-1.67797E+01-1.48326E-12 2.42273E-12
 -1       162 6.87514E+00 3.78029E+00-2.09914E+00-5.66500E+00-1.70630E-12 1.83265E-12
 -1       163-2.77032E+00-7.07191E+00-3.32318E+00 3.78943E+00-1.39855E-12 1.01824E-12
 -1       164-4.09329E+00-1.94526E+01-3.62690E+00 8.05367E+00-9.01945E-13 2.35659E-13
 -1       165-2.06594E+00-2.79294E+01-3.77878E+00 5.74616E+00-5.13506E-13 2.85327E-13
 -1       166 2.10161E+01 3.69984E+00-5.18565E-02-3.61462E+00-2.93753E-13-2.07258E-13
 -1       167 1.99987E+01 4.20954E+00-4.57296E-02-2.79958E+00-2.12028E-13-4.50341E-13
 -1       168 1.95193E+01 4.47805E+00-3.13773E-02-2.18558E+00-1.25142E-13-5.45338E-13
 -1       169 1.92734E+01 4.61939E+00-2.33542E-02-1.66452E+00-3.79737E-14-5.80308E-13
 -1       170 1.91384E+01 4.70243E+00-1.94283E-02-1.21083E+00 2.53802E-14-5.56609E-13
 -1       171 1.90607E+01 4.75388E+00-1.73481E-02-7.86652E-01 8.36569E-14-5.04530E-13
 -1       172 1.90206E+01 4.78160E+00-1.63362E-02-3.84852E-01 1.48405E-13-4.52517E-13
 -1       173 1.90082E+01 4.78944E+00-1.60515E-02 6.84435E-03 2.02861E-13-4.06706E-13
 -1       174 1.90207E+01 4.77860E+00-1.63968E-02 3.99243E-01 2.47163E-13-3.49634E-13
 -1       175 1.90612E+01 4.74795E+00-1.74656E-02 8.03045E-01 2.77215E-13-2.69961E-13
 -1       176 1.91378E+01 4.69458E+00-1.96476E-02 1.22288E+00 3.15869E-13-1.53253E-13
 -1       177 1.92760E+01 4.60680E+00-2.39635E-02 1.68852E+00 3.67952E-13-2.11463E-15
 -1       178 1.95264E+01 4.46020E+00-3.25971E-02 2.21564E+00 3.94683E-13 2.09907E-13
 -1       179 2.00176E+01 4.18375E+00-4.71181E-02 2.83818E+00 3.63809E-13 5.48415E-13
 -1       180 2.11408E+01 3.46234E+00-5.99674E-02 3.52765E+00 2.79556E-13 1.06674E-12
 -1       181 2.24242E+01 1.14248E+00-3.36380E-01 3.00827E+00 1.35793E-13 1.67018E-12
 -1       182 2.20358E+01 9.23455E-01-5.50408E-04-2.02892E+00-2.69545E-13 1.62009E-13
 -1       183 2.05043E+01 2.05347E-01-1.16293E-02-7.95960E-01-2.52021E-13 5.92165E-14
 -1       184 1.97120E+01 1.07588E-01 1.31249E-02-2.93047E-01-1.74375E-13-2.81398E-14
 -1       185 1.93713E+01 5.07194E-02 1.03983E-02-6.36882E-02-1.09013E-13-1.00280E-13
 -1       186 1.92525E+01 2.66526E-02 5.65425E-03 5.42750E-02-1.02098E-13-1.92121E-13
 -1       187 1.92640E+01 1.56609E-02 3.07070E-03 1.21164E-01-5.59305E-14-2.15572E-13
 -1       188 1.93509E+01 1.20645E-02 2.05670E-03 1.63307E-01-3.99911E-14-2.45298E-13
 -1       189 1.95013E+01 1.43415E-02 1.95180E-03 2.03350E-01-2.78730E-14-2.29938E-13
 -1       190 1.97092E+01 2.32450E-02 2.44034E-03 2.55993E-01-6.30162E-14-1.63104E-13
 -1       191 1.99897E+01 4.13050E-02 3.51328E-03 3.41149E-01-1.53714E-14-1.96210E-13
 -1       192 2.03769E+01 7.32259E-02 5.12164E-03 4.86890E-01-7.36607E-14-2.44231E-13
 -1       193 2.09288E+01 1.26593E-01 6.92088E-03 7.34585E-01-5.47739E-15-2.12062E-13
 -1       194 2.17313E+01 2.11537E-01 7.90358E-03 1.14359E+00 3.26709E-14-2.48727E-13
 -1       195 2.28956E+01 3.34505E-01 6.19093E-03 1.78950E+00 1.41345E-14-3.35730E-13
 -1       196 2.44516E+01 4.70342E-01 2.47686E-03 2.67507E+00-2.56626E-14-2.92504E-13
 -1       197 2.66526E+01 5.24530E-01 8.67711E-03 3.79439E+00 7.11579E-14-1.72083E-13
 -1       198 2.94119E+01 1.41192E-01 5.16705E-02 4.58242E+00 1.66209E-13-2.83541E-14
 -1       199 3.25722E+01-1.22989E+00 1.34323E-01 3.66772E+00 2.52819E-13 1.91772E-13
 -1       200 3.62755E+01-3.24733E+00 9.56055E-02-4.08411E-01 3.75533E-14 2.89529E-13
 -1       201 4.08399E+01-3.11026E+00 6.39727E-02-5.26633E+00-3.38250E-13 3.15969E-13
 -1       202 3.95843E+01 4.26724E+00-4.22065E-01-1.61292E-02-5.36293E-13-7.01563E-13
 -1       203 3.97368E+01 1.80383E+00-4.04000E-01 6.34127E+00-3.09974E-13-9.68510E-13
 -1       204 3.96281E+01-1.59979E+00-1.25735E-01 6.55170E+00 1.32935E-13-8.78621E-13
 -1       205 3.86977E+01-2.18541E+00 2.07148E-01 1.69456E+00 4.54959E-13-7.73485E-13
 -1       206 3.63507E+01-9.97161E-01 2.30797E-01-2.25715E+00 3.27578E-13-5.14878E-13
 -1       207 3.25339E+01 4.14749E-03 7.25374E-02-3.64851E+00 1.51441E-13-2.09440E-13
 -1       208 2.89805E+01 2.84512E-01-1.33467E-02-3.17888E+00-5.43905E-14-3.61409E-13
 -1       209 2.59650E+01 2.80356E-01-2.71261E-02-2.24635E+00-8.18772E-14-4.56513E-13
 -1       210 2.38204E+01 1.99184E-01-1.50685E-02-1.44573E+00 1.96212E-13-3.82180E-13
 -1       211 2.23883E+01 1.26919E-01-4.72911E-03-8.89542E-01 2.75821E-14-2.26552E-13
 -1       212 2.14704E+01 7.70143E-02 4.26078E-05-5.35153E-01-2.09673E-13-2.72143E-13
 -1       213 2.08961E+01 4.56860E-02 1.43741E-03-3.18159E-01 1.64938E-14 3.56166E-14
 -1       214 2.05422E+01 2.68113E-02 1.48136E-03-1.87871E-01 7.39688E-14 8.11686E-14
 -1       215 2.03265E+01 1.56202E-02 1.19735E-03-1.10413E-01 3.89466E-14-3.75106E-14
 -1       216 2.02004E+01 9.33269E-03 7.82991E-04-6.63933E-02 1.68842E-13-4.92651E-13
 -1       217 2.01190E+01 5.41358E-03 5.60972E-04-3.87894E-02-2.67258E-13-4.74525E-13
 -1       218 2.00701E+01 3.13014E-03 3.70216E-04-2.25630E-02-2.77905E-14-6.02884E-13
 -1       219 2.00407E+01 1.80468E-03 2.40594E-04-1.30715E-02 3.59002E-13-3.83763E-13
 -1       220 2.00230E+01 1.03888E-03 1.54789E-04-7.52423E-03 3.66338E-13-3.04366E-13
 -1       221 2.00125E+01 5.98272E-04 9.90720E-05-4.28136E-03 8.11672E-14-1.42806E-13
 -1       222 2.00063E+01 3.45491E-04 6.33797E-05-2.38105E-03-1.02138E-13-3.33170E-13
 -1       223 2.00026E+01 2.00723E-04 4.07506E-05-1.26034E-03 1.71469E-15-6.09903E-13
 -1       224 2.00006E+01 1.21434E-04 2.56491E-05-6.20909E-04 6.74710E-14-4.74489E-13
 -1       225 1.99995E+01 7.22853E-05 1.65698E-05-2.10665E-04-2.57176E-14-4.32998E-13
 -1       226 1.99990E+01 4.42596E-05 1.02384E-05 4.04660E-05-7.46849E-15-2.54978E-13
 -1       227 1.99989E+01 2.67110E-05 5.92291E-06 1.93650E-04 2.58419E-13 4.47585E-14
 -1       228 1.99991E+01 1.32580E-05 3.36217E-06 2.80368E-04-2.34482E-13 1.14137E-13
 -1       229 1.99993E+01-3.60349E-06 3.52246E-06 3.06465E-04-1.75783E-14 2.38340E-13
 -1       230 1.99996E+01-4.00941E-05 6.42937E-06 2.44444E-04 2.98163E-13-3.20985E-13
 -1       231 1.99997E+01-1.07522E-04 9.11221E-06 1.67033E-04 1.80968E-15-5.81859E-13
 -1       232 2.09739E+01 2.77810E-01-5.07519E-02 1.15962E+00 1.70950E-13 1.50403E-12
 -1       233 1.98900E+01 1.30621E-01 1.00140E-02 4.41650E-01 1.35784E-13 1.33310E-12
 -1       234 1.93906E+01 5.63867E-02 1.33874E-02 1.43507E-01 9.93216E-14 1.18794E-12
 -1       235 1.91833E+01 2.24485E-02 7.26811E-03 2.03963E-03 7.13526E-14 1.09630E-12
 -1       236 1.91339E+01 9.24748E-03 3.46895E-03-6.48365E-02 6.45971E-14 1.04573E-12
 -1       237 1.91669E+01 1.64102E-03 1.56401E-03-9.24013E-02 4.61825E-14 9.57695E-13
 -1       238 1.92356E+01-3.62197E-03 6.37076E-04-9.54775E-02 2.58276E-14 8.57643E-13
 -1       239 1.93090E+01-7.99282E-03 1.25405E-04-8.06300E-02 3.80844E-14 8.54268E-13
 -1       240 1.93634E+01-1.22556E-02-1.94717E-04-5.03886E-02 2.57875E-14 9.04836E-13
 -1       241 1.93787E+01-1.68181E-02-3.97324E-04-5.10675E-03 9.21140E-14 8.84319E-13
 -1       242 1.93360E+01-2.16990E-02-4.99343E-04 5.56752E-02 1.16008E-13 8.01898E-13
 -1       243 1.92174E+01-2.64109E-02-5.00207E-04 1.31751E-01 4.15680E-14 6.76644E-13
 -1       244 1.90074E+01-2.98422E-02-4.03082E-04 2.20467E-01-7.05427E-14 7.23986E-13
 -1       245 1.86970E+01-3.02738E-02-2.29357E-04 3.14830E-01-1.51944E-14 7.42359E-13
 -1       246 1.82884E+01-2.56953E-02-2.43253E-05 4.02163E-01 2.46895E-15 8.22749E-13
 -1       247 1.78011E+01-1.45416E-02 1.52931E-04 4.64385E-01 7.38480E-14 7.27998E-13
 -1       248 1.72756E+01 3.24935E-03 2.59445E-04 4.81022E-01 1.05216E-13 6.88656E-13
 -1       249 1.67718E+01 2.53102E-02 3.01396E-04 4.35245E-01 3.51108E-14 6.37941E-13
 -1       250 1.63612E+01 4.67841E-02 3.44088E-04 3.21405E-01-2.14694E-14 6.32402E-13
 -1       251 1.61113E+01 6.16718E-02 4.70263E-04 1.50637E-01 9.03422E-14 6.56125E-13
 -1       252 1.60675E+01 6.52920E-02 7.13118E-04-4.93529E-02-1.80936E-14 5.83328E-13
 -1       253 1.62396E+01 5.65189E-02 1.00485E-03-2.41752E-01 9.16654E-14 5.94916E-13
 -1       254 1.65989E+01 3.83362E-02 1.20794E-03-3.92469E-01 2.67869E-14 6.36376E-13
 -1       255 1.70877E+01 1.63497E-02 1.19986E-03-4.80602E-01-1.43799E-13 5.76595E-13
 -1       256 1.76360E+01-3.72199E-03 9.44182E-04-5.02777E-01 1.71770E-13 5.22816E-13
 -1       257 1.81787E+01-1.80931E-02 5.11675E-04-4.70466E-01 6.34651E-14 2.84419E-13
 -1       258 1.86676E+01-2.56087E-02 3.12626E-05-4.03001E-01 1.04454E-13 2.14847E-13
 -1       259 1.90754E+01-2.71860E-02-3.76720E-04-3.20315E-01-8.77477E-14 2.28206E-13
 -1       260 1.93935E+01-2.47398E-02-6.41398E-04-2.38130E-01-1.14558E-13 3.03009E-13
 -1       261 1.96271E+01-2.02553E-02-7.52597E-04-1.66204E-01 1.60300E-14 4.52600E-13
 -1       262 1.97890E+01-1.52657E-02-7.39199E-04-1.08831E-01 1.54565E-13 4.74090E-13
 -1       263 1.98947E+01-1.07111E-02-6.46795E-04-6.63878E-02-6.18432E-14 3.12799E-13
 -1       264 1.99593E+01-7.02126E-03-5.18844E-04-3.70263E-02-9.18446E-14 4.06106E-13
 -1       265 1.99955E+01-4.28134E-03-3.87356E-04-1.80030E-02 1.04108E-13 3.64692E-13
 -1       266 2.00133E+01-2.38874E-03-2.71159E-04-6.53067E-03 2.54271E-13 3.31561E-13
 -1       267 2.00200E+01-1.16665E-03-1.78248E-04-2.12889E-04 7.91963E-14 2.29900E-13
 -1       268 2.00204E+01-4.31819E-04-1.09445E-04 2.80740E-03-1.21111E-13 1.26253E-13
 -1       269 2.00179E+01-2.71730E-05-6.17368E-05 3.86191E-03 7.27684E-15-2.36829E-14
 -1       270 2.00142E+01 1.67803E-04-3.06609E-05 3.84504E-03 2.30005E-14 4.24692E-14
 -1       271 2.00105E+01 2.38533E-04-1.17288E-05 3.32093E-03-4.23309E-14 9.07767E-14
 -1       272 2.00072E+01 2.41741E-04-1.11400E-06 2.62190E-03-6.49721E-14-5.19391E-14
 -1       273 2.00046E+01 2.12844E-04 4.12955E-06 1.92724E-03 2.70587E-13-1.16219E-13
 -1       274 2.00027E+01 1.72562E-04 6.09667E-06 1.32114E-03 3.96617E-13-6.62352E-14
 -1       275 2.00014E+01 1.32072E-04 6.15438E-06 8.32339E-04-6.45309E-14-3.22758E-13
 -1       276 2.00006E+01 9.65264E-05 5.10662E-06 4.60178E-04-2.86045E-13-2.79938E-13
 -1       277 2.00001E+01 6.68752E-05 3.55104E-06 1.91569E-04 5.21842E-14-3.32342E-13
 -1       278 1.99999E+01 4.18899E-05 3.14087E-06 1.19779E-05 5.40210E-13-6.24729E-13
 -1       279 1.99998E+01 3.18398E-06 6.44369E-06-7.37723E-05-1.18692E-13-7.87655E-13
 -1       280 1.99998E+01 2.19741E-05 2.02294E-06-3.88947E-05-3.47927E-13-3.59575E-14
 -1       281 1.99998E+01 1.19866E-04-2.03597E-07 6.13255E-05-4.95816E-13-1.13033E-13
 -1       282 1.99998E+01 2.80658E-04-4.57719E-07 1.39417E-04-5.50837E-13-9.18501E-14
 -1       283 1.99998E+01 4.69713E-04-6.13277E-07 1.57078E-04-6.50055E-13 1.54608E-14
 -1       284 1.99998E+01 6.26922E-04-1.06264E-06 1.05978E-04-6.49391E-13-3.87328E-13
 -1       285 1.99998E+01 7.08060E-04-1.38516E-06 2.38885E-06-5.35722E-13-4.90961E-14
 -1       286 1.99998E+01 6.77570E-04-1.42949E-06-1.22939E-04-4.92799E-13 1.98451E-13
 -1       287 1.99998E+01 5.30474E-04-1.10152E-06-2.34535E-04-1.55596E-13 4.22149E-13
 -1       288 1.99998E+01 2.91188E-04-4.69035E-07-2.98749E-04-4.20518E-13 5.37506E-13
 -1       289 1.99998E+01 9.61535E-06 2.58522E-07-2.90814E-04-3.96853E-13 8.41684E-14
 -1       290 1.99999E+01-2.45711E-04 8.32978E-07-2.04237E-04 8.72819E-15-1.28280E-13
 -1       291 1.99999E+01-4.21549E-04 9.25074E-07-4.93319E-05 2.43099E-13-8.24696E-14
 -1       292 1.99999E+01-4.70687E-04 5.05466E-07 1.34402E-04 5.01816E-13-1.43102E-13
 -1       293 1.99998E+01-3.90490E-04 2.19233E-07 2.79492E-04-3.87817E-13 2.58918E-13
 -1       294 1.99998E+01-2.82323E-04 2.13834E-06 2.86503E-04-1.95873E-13-1.51402E-13
 -1       295-4.77541E-01-1.04811E+01-7.53197E-01 3.58377E+00 5.79536E-13 4.68264E-13
 -1       296 4.69162E+00-7.49105E+00-5.66091E-01 5.87150E+00 5.49921E-13 7.03347E-13
 -1       297 1.18455E+01-3.18099E+00-3.63001E-01 7.46358E+00 9.46576E-13 6.54865E-13
 -1       298 2.29145E+01 5.16718E-01 2.36174E-02 8.96455E+00 7.92810E-13 5.02320E-13
 -1       299 3.39774E+01 4.29480E+00 3.95015E-01 9.07536E+00 7.65901E-13 5.93636E-13
 -1       300 4.20436E+01 6.26169E+00 4.06188E-01 4.37878E+00 9.07274E-13-1.54848E-13
 -1       301 5.11699E+01 7.57647E+00 9.88412E-01 2.94502E+00 8.34735E-13-3.88245E-13
 -1       302 5.02882E+01 7.97403E+00 9.05065E-01-1.80036E+00 8.11545E-13-8.44644E-13
 -1       303 4.64392E+01 6.88351E+00 9.03477E-01-6.92077E+00 8.06112E-13-1.38706E-12
 -1       304 3.64756E+01 5.20170E+00 5.31074E-01-9.21538E+00 9.08190E-13-1.49725E-12
 -1       305 2.61867E+01 3.06253E-01 9.16407E-02-8.50366E+00 5.78315E-13-1.21481E-12
 -1       306 1.38766E+01-2.66540E+00-2.71418E-01-7.93419E+00 5.85254E-13-1.05226E-12
 -1       307 5.25626E+00-7.15281E+00-6.49696E-01-5.55213E+00 2.70062E-13-7.99293E-13
 -1       308 1.89303E-01-1.06484E+01-8.21145E-01-3.72196E+00-2.85327E-14-4.96075E-13
 -1       309-2.02876E+00-1.24160E+01-9.58743E-01-1.80960E+00-3.18634E-13-4.75675E-13
 -1       310-9.24529E-01-1.25789E+01-1.14904E+00-7.23433E-02-6.34534E-13-6.85008E-13
 -1       311 4.14444E+00-9.94112E+00-1.17267E+00 2.06357E+00-9.48908E-13-5.88991E-13
 -1       312 1.44406E+01-6.56586E+00-9.63443E-01 4.33677E+00-8.78742E-13-7.48651E-13
 -1       313 3.14372E+01-4.12246E+00-2.78074E-01 4.18138E+00-7.02466E-13-5.50338E-13
 -1       314 4.74686E+01 3.28945E-01 9.76280E-01 2.13324E+00-7.12916E-13-4.65128E-13
 -1       315 5.53576E+01 4.89195E+00 1.75706E+00-1.80313E+00-5.95135E-13-1.30840E-13
 -1       316 5.98905E+01 6.91039E+00 2.39139E+00 1.16613E-01-7.00884E-13 1.71002E-13
 -1       317 5.58950E+01 4.58703E+00 1.89370E+00 1.67034E+00-5.33795E-13 2.66509E-13
 -1       318 4.70644E+01 1.38325E-01 9.16438E-01-1.71718E+00-2.58522E-13 6.26776E-13
 -1       319 3.20879E+01-4.22067E+00-2.66783E-01-3.92550E+00-3.71647E-13 5.12979E-13
 -1       320 1.60976E+01-6.26792E+00-9.23778E-01-4.43463E+00-3.46445E-13 5.58248E-13
 -1       321 6.42397E+00-9.01142E+00-9.94288E-01-3.16706E+00-7.66887E-14 5.14810E-13
 -1       322 4.58265E-01-1.17398E+01-1.14462E+00-4.99889E-01 5.06539E-14 1.33837E-13
 -1       323-2.05742E+00-1.24807E+01-9.75126E-01 1.41414E+00 2.96208E-13 7.49456E-13
 -1       324 4.28183E+01 1.66755E+00 5.53881E-02-6.55754E+00-5.70322E-13 2.34951E-14
 -1       325 2.01570E+01 2.99032E+00-2.06519E-02-2.08841E+00-2.05019E-13-3.55872E-13
 -1       326 2.07630E+01 2.19280E+00-1.93368E-02-2.34678E+00-2.81436E-13-2.38904E-13
 -1       327 1.95850E+01 3.70070E+00-1.55251E-02-1.30672E+00-1.48434E-14-4.22342E-13
 -1       328 1.94567E+01 3.86012E+00-1.36286E-02-9.15825E-01 5.52067E-14-3.98355E-13
 -1       329 1.93836E+01 3.95169E+00-1.26336E-02-5.40208E-01 1.36939E-13-3.54572E-13
 -1       330 1.93509E+01 3.99223E+00-1.22134E-02-1.73889E-01 2.12642E-13-3.03150E-13
 -1       331 1.93520E+01 3.98880E+00-1.22380E-02 1.89946E-01 2.74351E-13-2.67851E-13
 -1       332 1.93867E+01 3.94157E+00-1.26974E-02 5.57979E-01 3.19603E-13-2.14604E-13
 -1       333 1.94600E+01 3.84597E+00-1.37231E-02 9.29983E-01 3.55351E-13-1.31161E-13
 -1       334 1.95902E+01 3.68152E+00-1.56530E-02 1.32309E+00 3.94729E-13-3.37751E-15
 -1       335 1.98085E+01 3.41140E+00-1.90540E-02 1.72869E+00 4.26873E-13 1.57321E-13
 -1       336 2.01795E+01 2.95125E+00-2.32834E-02 2.11303E+00 4.13299E-13 3.67006E-13
 -1       337 2.07664E+01 2.10558E+00-2.94742E-02 2.29732E+00 3.44281E-13 7.21584E-13
 -1       338 2.11014E+01 1.18566E+00-2.40951E-02 1.90628E+00 2.70830E-13 1.02218E-12
 -1       339 2.03939E+01 4.93629E-01 7.80845E-03 9.17057E-01 2.17574E-13 8.82971E-13
 -1       340 1.69798E+00-5.19309E+00-1.14372E-01-2.07221E+00 1.95718E-13 3.15192E-13
 -1       341 2.04869E+01 7.14024E-01 1.34723E-02-1.04605E+00-2.49883E-13-1.53035E-13
 -1       342 2.00752E+01 3.59976E-01 8.20163E-03-4.61143E-01-1.83288E-13-1.56495E-13
 -1       343 1.98271E+01 1.93272E-01 4.37230E-03-1.30862E-01-1.58623E-13-1.80557E-13
 -1       344 1.97049E+01 1.12583E-01 2.26618E-03 6.24419E-02-1.07998E-13-1.79538E-13
 -1       345 1.96719E+01 7.61069E-02 1.30800E-03 1.79437E-01-6.03611E-14-1.68272E-13
 -1       346 1.96996E+01 6.61899E-02 1.12672E-03 2.70623E-01 1.72314E-14-1.22827E-13
 -1       347 1.97742E+01 8.22228E-02 1.38229E-03 3.58758E-01-5.11396E-15-1.55332E-13
 -1       348 1.98866E+01 1.27948E-01 2.11744E-03 4.72380E-01-5.36988E-14-1.20057E-13
 -1       349 2.00325E+01 2.13662E-01 3.41370E-03 6.44584E-01-5.12139E-14-9.80749E-14
 -1       350 2.02077E+01 3.56843E-01 5.36645E-03 9.17996E-01-4.01964E-14-4.29655E-14
 -1       351 2.03998E+01 5.81172E-01 7.92519E-03 1.34841E+00-2.60323E-14-1.61497E-13
 -1       352 2.05754E+01 9.06782E-01 1.10680E-02 2.00297E+00-3.80347E-14-1.89383E-13
 -1       353 2.06705E+01 1.29561E+00 1.42861E-02 2.89130E+00 2.76393E-14-1.67365E-13
 -1       354 2.06219E+01 1.63534E+00 2.47142E-02 4.11277E+00 1.21515E-13-7.06017E-14
 -1       355 2.04514E+01 1.37252E+00 6.03836E-02 5.48233E+00 2.66186E-13 3.82108E-14
 -1       356 2.06906E+01-4.36527E-01 1.56825E-01 6.49752E+00 4.19095E-13 1.80550E-13
 -1       357 3.58864E+01-5.37967E+00-1.03427E-01 4.58484E-01 1.54876E-13-2.76695E-13
 -1       358 2.97391E+01-4.54447E+00 1.00619E-01-3.67597E+00 6.28039E-13-2.39373E-13
 -1       359 2.60271E+01-8.71666E-01 1.11047E-01-5.65317E+00 3.67949E-13-1.28828E-13
 -1       360 2.43079E+01 7.92552E-01 4.98376E-02-5.25561E+00-7.41672E-14-1.72425E-13
 -1       361 2.31882E+01 1.10069E+00 1.79153E-02-3.99952E+00-1.30138E-13-1.63405E-13
 -1       362 2.23325E+01 8.94269E-01 1.16925E-02-2.74866E+00 8.72306E-14 4.39319E-15
 -1       363 2.16498E+01 6.15489E-01 1.05418E-02-1.78784E+00 6.54156E-14-1.77327E-13
 -1       364 2.11302E+01 3.93950E-01 8.69273E-03-1.12695E+00-1.34510E-13-2.00255E-13
 -1       365 2.07553E+01 2.43315E-01 6.30348E-03-6.97343E-01-8.13130E-15-8.81347E-14
 -1       366 2.04958E+01 1.47525E-01 4.19186E-03-4.26658E-01 2.69229E-13 2.78846E-13
 -1       367 2.03216E+01 8.84946E-02 2.69400E-03-2.59231E-01-7.97033E-14 2.49161E-13
 -1       368 2.02111E+01 5.42209E-02 1.64615E-03-1.60663E-01-2.16400E-14 2.31269E-13
 -1       369 2.01344E+01 3.21858E-02 1.02465E-03-9.67518E-02-3.11622E-13-1.44596E-13
 -1       370 2.00851E+01 1.90525E-02 6.19215E-04-5.81301E-02-3.93467E-13-2.67873E-13
 -1       371 2.00535E+01 1.12540E-02 3.71587E-04-3.48543E-02 3.52373E-13-3.95572E-14
 -1       372 2.00333E+01 6.64222E-03 2.22649E-04-2.08488E-02 3.70947E-13-2.98957E-13
 -1       373 2.00204E+01 3.92404E-03 1.33366E-04-1.24192E-02 1.84126E-13-4.51718E-13
 -1       374 2.00122E+01 2.32583E-03 8.01401E-05-7.33351E-03-2.05664E-13-3.53535E-13
 -1       375 2.00071E+01 1.38673E-03 4.88308E-05-4.24980E-03-6.65593E-14-5.21146E-13
 -1       376 2.00040E+01 8.56640E-04 2.92331E-05-2.43985E-03-7.86215E-14-6.68791E-13
 -1       377 2.00019E+01 5.22127E-04 1.82132E-05-1.24876E-03 6.81925E-14-5.49196E-13
 -1       378 2.00007E+01 3.22036E-04 1.10167E-05-5.06224E-04 1.73218E-13-4.02498E-13
 -1       379 2.00001E+01 1.98127E-04 6.49651E-06-4.20940E-05 3.49173E-13-3.15687E-15
 -1       380 1.99998E+01 1.12744E-04 3.26008E-06 2.39629E-04-5.69268E-14-2.00426E-13
 -1       381 1.99997E+01 3.60985E-05 1.33778E-06 3.84334E-04 6.85449E-14 1.80698E-13
 -1       382 1.99997E+01-6.93925E-05 9.79462E-07 3.97018E-04-2.80748E-13 5.85491E-13
 -1       383 1.99997E+01-1.57740E-04 1.24698E-06 3.51338E-04-2.08088E-13 8.96221E-15
 -1       384 1.98568E+01 2.23955E-01 6.78831E-03 2.67085E-01 1.59178E-13 6.01156E-13
 -1       385 1.96644E+01 1.09851E-01 3.20473E-03 4.20638E-02 1.14372E-13 5.29455E-13
 -1       386 1.95739E+01 4.85461E-02 1.33220E-03-7.38378E-02 1.09824E-13 4.91560E-13
 -1       387 1.95470E+01 9.07457E-03 3.44955E-04-1.23371E-01 9.53690E-14 4.43301E-13
 -1       388 1.95532E+01-1.99282E-02-2.36411E-04-1.27483E-01 3.14269E-14 3.97158E-13
 -1       389 1.95700E+01-4.46261E-02-6.59229E-04-9.63853E-02 1.24732E-15 3.94701E-13
 -1       390 1.95792E+01-6.84185E-02-1.01993E-03-3.43108E-02 8.17671E-14 4.30361E-13
 -1       391 1.95657E+01-9.26194E-02-1.34216E-03 5.75984E-02 1.66966E-13 4.09418E-13
 -1       392 1.95153E+01-1.16271E-01-1.60624E-03 1.78697E-01 1.39576E-13 3.63246E-13
 -1       393 1.94150E+01-1.35683E-01-1.75800E-03 3.25897E-01-4.81197E-14 3.12137E-13
 -1       394 1.92540E+01-1.44249E-01-1.71980E-03 4.90336E-01-1.13301E-13 2.75640E-13
 -1       395 1.90260E+01-1.33248E-01-1.41020E-03 6.54312E-01-3.35861E-14 2.68537E-13
 -1       396 1.87332E+01-9.43086E-02-7.78049E-04 7.89981E-01 6.16975E-14 2.41682E-13
 -1       397 1.83912E+01-2.36559E-02 1.53576E-04 8.61896E-01 1.08289E-13 2.56397E-13
 -1       398 1.80321E+01 7.31068E-02 1.26493E-03 8.35000E-01 1.10850E-13 3.28426E-13
 -1       399 1.77034E+01 1.78483E-01 2.35065E-03 6.87412E-01-1.34023E-14 3.18430E-13
 -1       400 1.74599E+01 2.66059E-01 3.18210E-03 4.23515E-01 2.36898E-15 3.00738E-13
 -1       401 1.73491E+01 3.09803E-01 3.56736E-03 7.98934E-02 3.69143E-14 3.81308E-13
 -1       402 1.73953E+01 2.95778E-01 3.42691E-03-2.81936E-01 9.39416E-14 4.64874E-13
 -1       403 1.75906E+01 2.29018E-01 2.78715E-03-5.94867E-01 1.76509E-14 4.73372E-13
 -1       404 1.78985E+01 1.30924E-01 1.80185E-03-8.08305E-01-6.77338E-14 2.52876E-13
 -1       405 1.82668E+01 2.91311E-02 6.88810E-04-9.01932E-01 1.17233E-13-1.00549E-14
 -1       406 1.86439E+01-5.36294E-02-3.23489E-04-8.85976E-01 1.29826E-13 1.23870E-13
 -1       407 1.89905E+01-1.05955E-01-1.07297E-03-7.90720E-01 1.32689E-13 1.30534E-13
 -1       408 1.92839E+01-1.27690E-01-1.49692E-03-6.52597E-01 1.83013E-15 1.86258E-13
 -1       409 1.95161E+01-1.25764E-01-1.61472E-03-5.03438E-01-1.05904E-13 2.36823E-13
 -1       410 1.96899E+01-1.09444E-01-1.51155E-03-3.65265E-01-1.20853E-13 1.79001E-13
 -1       411 1.98133E+01-8.70032E-02-1.28036E-03-2.49808E-01-6.89901E-14 2.89308E-13
 -1       412 1.98968E+01-6.42547E-02-1.00234E-03-1.60674E-01 9.56994E-14 4.69512E-13
 -1       413 1.99504E+01-4.44436E-02-7.33347E-04-9.63079E-02-2.05429E-15 4.26164E-13
 -1       414 1.99826E+01-2.88329E-02-5.03836E-04-5.25979E-02 2.30872E-14 3.18430E-13
 -1       415 2.00005E+01-1.74406E-02-3.24801E-04-2.47056E-02 2.67004E-13 3.32322E-13
 -1       416 2.00092E+01-9.65763E-03-1.94881E-04-8.12197E-03 1.48728E-13 4.63122E-13
 -1       417 2.00123E+01-4.66668E-03-1.06496E-04 8.58140E-04 1.72322E-13 3.14492E-13
 -1       418 2.00122E+01-1.67865E-03-5.00839E-05 5.02914E-03 6.56416E-14 1.21274E-13
 -1       419 2.00107E+01-3.84518E-05-1.65494E-05 6.36131E-03 1.96204E-13-1.62590E-13
 -1       420 2.00085E+01 7.48473E-04 1.62586E-06 6.16368E-03-7.72786E-14-2.14753E-13
 -1       421 2.00064E+01 1.02991E-03 1.01138E-05 5.25622E-03 9.75117E-14-2.91613E-13
 -1       422 2.00045E+01 1.03613E-03 1.28990E-05 4.11959E-03 1.35159E-14-4.07421E-13
 -1       423 2.00030E+01 9.10926E-04 1.26124E-05 3.01201E-03 2.97862E-13-4.13352E-13
 -1       424 2.00019E+01 7.38569E-04 1.08876E-05 2.05399E-03 1.02509E-13-2.10128E-13
 -1       425 2.00010E+01 5.64253E-04 8.63988E-06 1.28614E-03-1.00751E-13-7.37136E-14
 -1       426 2.00005E+01 4.07582E-04 6.38046E-06 7.08420E-04-2.29640E-13-2.76904E-13
 -1       427 2.00001E+01 2.71765E-04 3.33396E-06 3.07469E-04 4.39805E-13-4.22857E-13
 -1       428 1.99999E+01 1.50159E-04 2.12842E-06 7.64788E-05 3.92331E-13-2.09793E-13
 -1       429 1.99998E+01 8.06186E-04-3.62337E-09 3.65515E-04-3.24356E-14-2.85942E-13
 -1       430 1.99999E+01 5.15838E-04 8.56190E-07 3.03237E-04 7.77700E-14-1.34444E-13
 -1       431 1.99997E+01 1.07671E-03-6.94289E-07 3.16309E-04-1.79710E-13-3.40815E-13
 -1       432 1.99996E+01 1.28225E-03-1.26407E-06 1.61688E-04-1.20626E-13 8.94878E-14
 -1       433 1.99996E+01 1.38253E-03-1.53442E-06-5.64767E-05 1.09025E-13 1.68990E-13
 -1       434 1.99996E+01 1.35884E-03-1.35660E-06-2.85061E-04-1.92480E-13 1.95879E-13
 -1       435 1.99997E+01 1.21265E-03-7.16524E-07-4.65994E-04-4.55206E-13 1.82787E-13
 -1       436 1.99998E+01 9.68231E-04 2.22784E-07-5.48844E-04-5.09733E-13 2.49601E-13
 -1       437 1.99999E+01 6.74005E-04 1.21389E-06-5.05064E-04-3.48715E-13 3.11365E-13
 -1       438 2.00000E+01 3.72679E-04 1.90535E-06-3.32967E-04-8.74569E-14 4.92969E-13
 -1       439 2.00001E+01 1.22831E-04 1.92391E-06-6.95548E-05 1.15627E-13 3.76462E-13
 -1       440 2.00000E+01-3.34468E-05 1.42510E-06 2.05727E-04 2.36210E-13-7.88517E-13
 -1       441 2.00541E+01 3.29112E-01 1.05625E-02 5.28467E-01 1.95101E-13 7.41468E-13
 -1       442 1.37314E+01-4.99132E+00 3.97063E-02 9.03751E+00-3.89688E-14 5.48967E-13
 -1       443 3.05070E+01-1.49786E+00 3.00263E-02 5.39588E+00 3.40741E-13 3.77615E-14
 -1       444 5.37744E+00-3.85596E+00 7.51532E-02 7.22672E+00 4.75592E-14 4.02539E-13
 -1       445 5.97101E+00-5.83860E+00-2.04073E-01-4.51683E+00 1.99840E-13 2.77514E-13
 -1       446 2.15240E+01-4.64020E+00-1.68160E-02 8.22421E+00 2.56531E-13 1.00760E-13
 -1       447 1.97988E+01 3.43805E+00-1.81423E-02-1.71062E+00-1.15039E-13-4.07730E-13
 -1       448 3.49403E+01 1.94296E+00-3.41598E-02 1.93067E+00 5.14110E-13-4.50723E-13
 -1       449 3.74164E+01 8.07450E+00-7.47915E-02-1.84777E-01 9.22748E-13-5.98480E-13
 -1       450 3.80625E+01 9.70814E+00-6.14297E-02-5.60095E-03 9.26148E-13-3.32145E-13
 -1       451 3.86448E+01 7.95339E+00 4.77735E-03-1.52440E-01 6.53588E-13-2.13135E-13
 -1       452 3.73773E+01 4.12552E+00 6.42524E-02-2.37395E+00 4.64760E-13-3.50664E-13
 -1       453 3.24229E+01-6.08305E-01-2.07238E-02-3.78645E+00 1.85164E-13-4.98615E-13
 -1       454 2.31514E+01-4.20165E+00 2.56858E-03-7.82929E+00 5.22637E-14-7.61016E-13
 -1       455 1.41806E+01-5.19584E+00-4.01899E-03-8.94393E+00-6.01186E-14-8.45986E-13
 -1       456 6.19006E+00-4.95372E+00-1.86437E-02-7.57882E+00 9.61731E-15-6.81941E-13
 -1       457 8.04965E-01-4.69582E+00-5.23798E-02-3.78456E+00 6.71060E-14-4.93300E-13
 -1       458 1.50688E+00-3.52054E+00 4.13230E-02 1.25067E+00 5.62120E-14-5.86781E-13
 -1       459 6.02278E+00-5.55582E+00-1.43895E-01 4.64521E+00-1.11716E-14-3.67456E-13
 -1       460 1.57928E+01-6.66259E+00-2.31596E-01 5.79958E+00-1.64729E-13-1.16310E-13
 -1       461 2.85057E+01-6.63386E+00-1.89897E-01 3.55360E+00-1.49991E-13-9.76996E-15
 -1       462 2.58254E+01-6.82817E+00-2.31236E-01-4.03492E+00 3.42060E-13-1.90126E-14
 -1       463 1.54475E+01-6.65495E+00-2.40687E-01-5.84392E+00 3.93852E-13 1.87142E-14
 -1       464 6.64318E-01-3.76402E+00 2.03488E-02 2.69752E+00 7.44751E-14 6.87811E-13
 -1       465 2.45675E+01-4.60175E+00 4.91424E-02 5.37137E+00 2.31259E-13 2.02671E-13
 -1       466 2.90244E+01-3.78627E+00-1.48061E-02-4.56307E+00-2.44107E-13-3.48770E-13
 -1       467 3.37448E+01 4.54431E+00-1.57836E-01-1.12358E+00 7.16503E-13-7.10973E-13
 -1       468 1.97226E+01 3.12336E+00-5.38688E-03-6.27587E-01 8.90982E-14-3.12065E-13
 -1       469 1.98240E+01 2.94854E+00-6.02083E-03-9.38291E-01 2.81090E-14-3.54105E-13
 -1       470 1.96513E+01 3.24252E+00-4.99134E-03 3.91286E-03 2.17991E-13-2.22944E-13
 -1       471 1.96714E+01 3.20573E+00-5.07467E-03 3.21663E-01 2.78299E-13-2.12813E-13
 -1       472 1.97282E+01 3.10509E+00-5.39061E-03 6.34756E-01 3.18734E-13-1.47144E-13
 -1       473 1.98305E+01 2.92397E+00-5.91458E-03 9.49155E-01 3.61848E-13-4.03245E-14
 -1       474 1.99905E+01 2.63563E+00-6.52287E-03 1.24397E+00 3.80127E-13 7.44506E-14
 -1       475 2.02255E+01 2.19450E+00-5.75124E-03 1.47781E+00 3.77999E-13 2.20983E-13
 -1       476 2.04847E+01 1.54613E+00-3.28563E-03 1.53138E+00 3.34202E-13 4.57792E-13
 -1       477 2.05428E+01 9.90518E-01 3.21976E-03 1.28789E+00 2.82325E-13 6.59612E-13
 -1       478 2.01813E+01-4.82340E+00 8.02328E-02 8.14393E+00-1.53662E-13 5.41919E-14
 -1       479 3.79506E+00-3.04279E-01 1.80187E-01-8.11511E-01 8.99229E-14 5.86850E-13
 -1       480 2.02005E+01 5.81605E-01 2.28405E-03-4.56773E-01-1.77352E-13-2.00783E-13
 -1       481 2.00579E+01 3.43114E-01 1.08019E-03-1.30764E-01-1.27230E-13-1.63671E-13
 -1       482 1.99657E+01 2.22486E-01 6.15079E-04 7.24473E-02-5.49760E-14-1.67114E-13
 -1       483 1.99100E+01 1.62950E-01 4.44045E-04 2.20415E-01-1.43105E-14-1.34729E-13
 -1       484 1.98826E+01 1.57802E-01 4.65281E-04 3.36309E-01-4.77744E-14-1.92071E-13
 -1       485 1.98665E+01 2.05033E-01 6.77361E-04 4.50428E-01 5.17334E-15-1.62861E-13
 -1       486 1.98389E+01 3.13703E-01 1.09436E-03 5.91457E-01-3.65041E-14-1.10937E-13
 -1       487 1.97658E+01 5.02935E-01 1.75745E-03 7.89253E-01-2.17111E-16-6.39295E-14
 -1       488 1.95910E+01 8.00504E-01 2.68225E-03 1.07581E+00-5.62902E-14-5.05755E-14
 -1       489 1.92188E+01 1.23531E+00 4.34102E-03 1.48196E+00-3.52188E-14-6.72704E-14
 -1       490 1.85462E+01 1.77983E+00 6.62501E-03 2.00382E+00 4.20540E-15-5.75828E-14
 -1       491 1.73030E+01 2.39856E+00 1.77525E-02 2.71015E+00 9.71579E-14 1.84018E-14
 -1       492 1.52421E+01 2.75376E+00 6.27377E-02 3.59567E+00 2.10765E-13-4.12656E-14
 -1       493 1.25430E+01 1.80115E+00 1.59534E-01 4.56390E+00 4.15067E-13-1.16150E-13
 -1       494 2.04045E+01 1.40349E+00-1.74718E-03-1.25869E+00-1.97376E-13-2.49650E-13
 -1       495 1.72000E+01 8.88982E-01 1.56560E-01-6.00064E+00-4.39614E-14-3.00329E-13
 -1       496 1.83639E+01 2.08350E+00 5.09799E-02-4.63412E+00-2.59133E-14-6.57443E-14
 -1       497 1.93400E+01 1.93843E+00 1.98109E-02-3.35529E+00-1.85392E-14 1.85160E-13
 -1       498 1.98964E+01 1.44665E+00 1.09389E-02-2.32061E+00 7.01329E-14 7.59222E-14
 -1       499 2.01441E+01 9.80683E-01 7.67133E-03-1.55049E+00-1.85597E-13-4.69321E-14
 -1       500 2.02181E+01 6.32864E-01 5.36257E-03-1.01062E+00-2.01467E-13-4.15735E-13
 -1       501 2.02116E+01 3.97454E-01 3.53037E-03-6.47339E-01 3.20064E-13-3.10284E-13
 -1       502 2.01764E+01 2.45642E-01 2.25024E-03-4.09856E-01 5.37103E-14-5.04578E-13
 -1       503 2.01377E+01 1.54153E-01 1.37716E-03-2.63185E-01-7.89778E-14-5.10180E-13
 -1       504 2.01014E+01 9.36672E-02 8.42391E-04-1.64121E-01-2.93068E-13-5.91297E-13
 -1       505 2.00725E+01 5.66782E-02 5.03485E-04-1.02012E-01-3.59861E-13-3.11457E-13
 -1       506 2.00508E+01 3.41915E-02 2.98514E-04-6.32626E-02 2.49998E-13-2.43628E-13
 -1       507 2.00349E+01 2.05983E-02 1.76136E-04-3.91764E-02 2.03785E-13-2.49457E-13
 -1       508 2.00236E+01 1.24160E-02 1.03807E-04-2.42229E-02 9.31481E-14-4.88385E-13
 -1       509 2.00157E+01 7.50519E-03 6.12837E-05-1.49278E-02 3.47185E-14-3.03157E-13
 -1       510 2.00103E+01 4.56017E-03 3.68807E-05-9.12929E-03-1.47925E-13-1.86303E-13
 -1       511 2.00067E+01 2.86382E-03 2.11965E-05-5.63161E-03-1.99801E-14-1.91669E-13
 -1       512 2.00041E+01 1.77148E-03 1.31587E-05-3.27197E-03-8.68022E-14-2.96147E-14
 -1       513 2.00024E+01 1.10784E-03 7.82329E-06-1.76765E-03 2.99345E-13-1.92293E-13
 -1       514 2.00013E+01 6.95511E-04 4.67744E-06-8.03513E-04 3.52649E-13-1.99287E-13
 -1       515 2.00006E+01 4.24379E-04 2.41921E-06-1.91080E-04 8.01670E-14-2.08816E-13
 -1       516 2.00002E+01 2.23699E-04 2.23633E-06 1.76510E-04 3.28963E-13-2.30952E-13
 -1       517 1.99999E+01 2.47800E-05-9.19392E-07 3.46319E-04 1.31476E-13-4.16267E-14
 -1       518 6.12137E+00-1.29257E+00 1.76277E-01-3.75834E+00 4.42771E-14 9.52016E-15
 -1       519 1.99473E+01 2.01282E-01 9.08116E-04 6.14715E-02 1.53487E-13 2.78397E-13
 -1       520 2.00778E+01 3.82409E-01 1.16136E-03 2.96045E-01 1.75304E-13 2.93251E-13
 -1       521 1.98284E+01 5.87215E-03-9.80977E-06-1.20563E-01 9.64935E-14 2.48014E-13
 -1       522 1.98153E+01-5.70630E-02-2.16757E-04-1.20015E-01 4.45691E-14 2.39612E-13
 -1       523 1.98168E+01-1.13023E-01-3.87796E-04-7.43103E-02 3.61783E-14 1.47737E-13
 -1       524 1.98227E+01-1.67570E-01-5.45883E-04 1.25142E-02 8.91899E-14 2.17720E-13
 -1       525 1.98235E+01-2.21734E-01-6.90426E-04 1.39290E-01 1.67761E-13 3.23694E-13
 -1       526 1.98090E+01-2.71200E-01-8.02680E-04 3.04530E-01 9.11345E-14 3.65171E-13
 -1       527 1.97675E+01-3.05380E-01-8.46647E-04 5.02438E-01-9.57266E-15 3.40662E-13
 -1       528 1.96860E+01-3.07648E-01-7.79839E-04 7.18274E-01 1.40897E-15 1.46536E-13
 -1       529 1.95525E+01-2.58361E-01-5.61199E-04 9.24191E-01 4.20356E-14 8.13835E-14
 -1       530 1.93611E+01-1.41974E-01-1.71072E-04 1.07804E+00 6.58542E-14 1.06187E-13
 -1       531 1.91192E+01 4.23047E-02 3.44379E-04 1.12861E+00 1.30521E-13 1.11248E-13
 -1       532 1.88549E+01 2.70613E-01 8.80960E-04 1.02976E+00 2.99068E-14 1.91535E-13
 -1       533 1.86163E+01 4.92860E-01 1.31014E-03 7.61325E-01-7.17388E-14 1.63452E-13
 -1       534 1.84602E+01 6.46165E-01 1.57025E-03 3.47678E-01 9.43971E-15 1.33614E-13
 -1       535 1.84300E+01 6.81155E-01 1.61684E-03-1.39783E-01 6.74509E-15 1.22011E-13
 -1       536 1.85358E+01 5.86768E-01 1.47887E-03-6.03561E-01-1.23437E-14 2.94535E-13
 -1       537 1.87492E+01 3.95804E-01 1.15881E-03-9.55738E-01 1.39710E-13 3.42871E-13
 -1       538 1.90180E+01 1.67748E-01 6.82635E-04-1.14761E+00 1.74034E-13 9.92564E-14
 -1       539 1.92881E+01-3.83253E-02 1.69616E-04-1.17867E+00 3.02511E-14 7.13514E-14
 -1       540 1.95212E+01-1.84855E-01-2.79112E-04-1.08490E+00 1.54814E-13 3.17418E-14
 -1       541 1.97005E+01-2.61655E-01-5.93657E-04-9.17094E-01 1.98107E-14 1.28521E-13
 -1       542 1.98263E+01-2.78839E-01-7.24583E-04-7.22475E-01-8.99284E-14 2.03654E-14
 -1       543 1.99080E+01-2.55722E-01-7.26159E-04-5.35135E-01-2.09074E-13 1.39826E-13
 -1       544 1.99577E+01-2.11862E-01-6.41548E-04-3.74376E-01-8.31157E-14 1.15132E-13
 -1       545 1.99860E+01-1.62304E-01-5.17758E-04-2.47440E-01 4.15476E-15-7.66993E-15
 -1       546 2.00010E+01-1.16354E-01-3.88480E-04-1.53704E-01 2.53483E-14 2.14675E-13
 -1       547 2.00082E+01-7.84395E-02-2.73143E-04-8.84559E-02 2.82827E-13 1.10329E-13
 -1       548 2.00109E+01-4.96604E-02-1.80339E-04-4.55612E-02 2.20668E-13-5.72138E-14
 -1       549 2.00112E+01-2.92455E-02-1.11293E-04-1.90431E-02 9.82869E-14-1.33497E-13
 -1       550 2.00103E+01-1.56218E-02-6.32499E-05-3.83808E-03 2.04302E-13 4.11916E-14
 -1       551 2.00089E+01-7.07275E-03-3.18704E-05 3.97620E-03 1.88538E-13 1.04413E-13
 -1       552 2.00073E+01-2.07335E-03-1.27009E-05 7.24052E-03 2.67594E-13 9.70953E-14
 -1       553 2.00057E+01 5.85229E-04-1.90449E-06 7.89903E-03-9.37327E-14 7.44421E-14
 -1       554 2.00044E+01 1.78875E-03 3.49527E-06 7.21305E-03 2.63620E-14 1.72925E-13
 -1       555 2.00032E+01 2.14698E-03 5.63859E-06 5.95601E-03 6.47834E-14 1.50525E-14
 -1       556 2.00022E+01 2.05693E-03 5.95818E-06 4.57096E-03 1.88489E-13-3.51391E-13
 -1       557 2.00015E+01 1.76238E-03 5.36512E-06 3.28858E-03 1.01216E-13-2.11738E-13
 -1       558 2.00009E+01 1.40380E-03 4.45841E-06 2.21104E-03-5.82383E-14-2.56307E-13
 -1       559 2.00005E+01 1.05312E-03 3.36505E-06 1.36616E-03-1.23077E-14-2.47728E-13
 -1       560 2.00002E+01 7.41801E-04 2.50172E-06 7.45156E-04 2.00314E-13-4.86020E-13
 -1       561 1.99995E+01 1.86460E-03-7.92140E-07 4.84106E-04 4.69026E-13 6.20866E-14
 -1       562 1.99997E+01 1.48882E-03-7.46638E-07 6.56709E-04 1.67974E-13-3.40672E-13
 -1       563 1.99999E+01 1.05031E-03 2.39317E-07 6.75776E-04 1.15829E-13-2.13094E-13
 -1       564 3.14316E+01-1.70486E+00-6.74980E-02 1.74897E+00 3.20929E-13-4.77528E-13
 -1       565 1.99994E+01 2.13118E-03-4.84895E-07 1.88295E-04 3.34976E-13 1.53862E-13
 -1       566 1.99993E+01 2.25386E-03-6.73581E-07-1.65598E-04-8.50648E-14-2.52485E-13
 -1       567 1.99994E+01 2.21270E-03-4.91887E-07-5.03182E-04-4.24402E-13-8.11618E-14
 -1       568 1.99996E+01 2.01233E-03-1.32701E-07-7.48495E-04-4.60794E-13 4.91435E-13
 -1       569 1.99999E+01 1.68668E-03 3.00236E-07-8.41393E-04-2.43316E-13 3.97533E-13
 -1       570 2.00001E+01 1.27277E-03 8.18124E-07-7.56023E-04 8.69607E-14 2.75610E-13
 -1       571 2.00003E+01 8.38026E-04 1.21567E-06-5.01645E-04-1.70083E-13 3.23404E-13
 -1       572 2.00004E+01 4.51971E-04 7.72618E-07-1.42608E-04-2.91404E-13-1.70197E-13
 -1       573 1.99998E+01-8.83660E-05-1.79479E-06 3.85924E-04-4.26591E-13 2.28656E-13
 -1       574 1.98680E+01 8.61320E-02 3.03287E-04-6.62450E-02 1.56038E-13 2.69213E-13
 -1       575 1.55668E+01-2.81298E+00 1.50326E-01-6.59186E+00 5.54348E-13-2.06342E-13
 -1       576 2.03243E+01 9.13070E-01 2.21932E-03-8.16580E-01-1.86308E-13-2.08901E-13
 -1       577 1.96674E+01 3.21665E+00-5.07952E-03-3.12537E-01 1.67472E-13-2.87181E-13
 -1       578 5.69586E+00-1.26502E-01 2.28201E-01 4.73757E+00-2.04003E-13 4.95201E-13
 -1       579 1.46124E+01-3.33440E+00 1.04205E-01 6.33490E+00 3.08684E-13 1.96093E-14
 -1       580 2.69111E+01-4.56696E+00 5.79781E-03 5.58318E+00 4.83641E-14-8.08381E-14
 -1       581 3.32861E+01 4.56506E+00-1.69532E-01 1.32552E+00 2.31051E-13 3.23977E-14
 -1       582 3.14125E+01 8.21858E+00-2.25447E-01-9.63438E-01 7.35551E-13-1.63970E-13
 -1       583 3.25997E+01 8.59270E+00-1.92291E-01 9.18772E-01 6.92404E-13 4.10019E-14
 -1       584 3.22632E+01 4.12098E-01-1.25279E-01 6.65991E-02 1.17698E-13 9.66033E-14
 -1       585 2.09362E+01-5.02285E+00 8.19894E-02-8.01854E+00-3.48908E-13-5.41026E-13
 -1       586 1.34511E+01-3.09816E+00 1.57575E-01-8.42507E+00-1.33032E-13-6.09443E-13
 -1       587 6.35707E+00-1.12770E+00 1.94526E-01-6.00859E+00 9.45147E-14-5.34156E-13
 -1       588 4.06614E+00 1.67451E-01 2.24432E-01-1.51596E+00 2.21703E-13-5.64548E-13
 -1       589 8.03092E+00-7.42110E-01 1.83933E-01 4.69566E+00 3.26385E-13-2.58210E-13
 -1       590 1.25771E+01-2.88453E+00 1.57311E-01 8.46239E+00-2.95507E-13 3.44676E-13
 -1       591 1.99821E+01 2.66542E+00-7.00509E-03-1.22709E+00-6.26197E-14-3.45611E-13
 -1       592 2.59219E+01-4.87652E+00 1.57415E-02-5.42516E+00-5.25767E-13-1.58736E-13
 -1       593 2.02773E+01 6.54322E-01 6.35975E-03 7.86504E-01 2.44902E-13 5.23517E-13
 -1       594 2.02133E+01 2.09990E+00-5.08900E-03-1.33116E+00-1.36327E-13-2.96932E-13
 -1       595 3.14543E+01 1.09936E+00-1.18621E-01-9.92427E-01 5.25219E-13-6.42139E-13
 -1       596 2.01496E+01 4.98585E-01 3.42462E-03 5.05913E-01 2.23294E-13 3.90867E-13
 -1       597 7.54216E+00 1.73827E+00 1.78386E-01 2.05676E+00 3.17385E-13-4.94160E-13
 -1       598 3.03424E+01-2.34191E+00-6.61293E-02-1.17079E+00-2.14283E-13 9.31581E-14
 -1       599 3.00087E+01 5.79511E+00-1.64355E-01-1.92602E+00 6.72559E-13-2.45231E-13
 -1       600 1.99475E+01 2.46088E+00-1.58642E-03 3.79732E-01 2.63547E-13-1.31440E-13
 -1       601 1.99116E+01 2.54206E+00-1.51300E-03 1.24376E-01 2.14930E-13-1.91505E-13
 -1       602 2.01163E+01 2.04900E+00-1.72961E-03 8.35969E-01 3.27328E-13 4.10855E-14
 -1       603 2.02432E+01 1.68450E+00-1.67000E-03 9.89414E-01 3.44768E-13 1.33243E-13
 -1       604 2.03713E+01 1.02505E+00 3.37780E-03 9.99411E-01 3.03903E-13 3.65237E-13
 -1       605 2.00751E+01 1.00704E-01 2.24624E-05-6.54446E-02 1.43363E-13 1.46581E-13
 -1       606 2.01742E+01 4.68490E-01 2.18804E-04-9.73463E-02-9.46345E-14-1.37645E-13
 -1       607 2.00957E+01 3.18528E-01 1.03054E-04 9.71211E-02-4.46696E-14-1.24344E-13
 -1       608 2.00178E+01 2.56329E-01 8.82831E-05 2.35025E-01-2.77156E-14-1.64167E-13
 -1       609 1.99293E+01 2.69365E-01 1.24639E-04 3.41878E-01 8.80683E-15-8.10768E-14
 -1       610 1.98067E+01 3.58938E-01 1.98720E-04 4.38495E-01-2.70775E-15-8.39635E-14
 -1       611 1.96117E+01 5.37347E-01 3.05160E-04 5.40379E-01-7.72491E-15-1.14759E-13
 -1       612 1.92824E+01 8.25337E-01 4.13899E-04 6.55497E-01-1.03194E-14-9.62389E-14
 -1       613 1.87200E+01 1.24575E+00 8.27420E-04 7.77760E-01-4.07736E-14-1.07700E-13
 -1       614 1.78329E+01 1.77502E+00 1.26232E-03 8.79850E-01-3.24272E-14-1.24925E-13
 -1       615 1.63230E+01 2.42095E+00 8.52401E-03 9.19663E-01 3.84924E-14-2.19186E-13
 -1       616 1.39312E+01 3.01787E+00 4.60609E-02 8.47304E-01 5.45491E-14-2.84489E-13
 -1       617 1.17896E+01 2.75698E+00 1.40472E-01-3.02886E+00 1.76300E-13-4.36318E-14
 -1       618 2.00049E+01 2.33379E+00-1.61845E-03-6.18640E-01 4.56945E-14-2.81614E-13
 -1       619 1.50886E+01 2.92386E+00 3.58838E-02-2.37027E+00 1.94106E-13 1.50461E-14
 -1       620 1.71931E+01 2.37830E+00 1.01185E-02-1.83377E+00-1.19622E-13-8.73573E-14
 -1       621 1.84709E+01 1.72389E+00 3.82356E-03-1.36791E+00-2.00427E-13-5.31555E-13
 -1       622 1.92076E+01 1.17486E+00 2.20504E-03-9.82391E-01-3.14254E-13-3.45234E-13
 -1       623 1.96138E+01 7.72118E-01 1.45604E-03-6.83580E-01 7.67277E-14-2.78685E-13
 -1       624 1.98288E+01 4.96055E-01 9.57015E-04-4.64559E-01 7.57609E-14-3.86263E-13
 -1       625 1.99339E+01 3.21183E-01 6.23231E-04-3.16263E-01-1.19977E-13-4.66408E-13
 -1       626 1.99874E+01 2.01016E-01 3.72286E-04-2.08275E-01-2.05169E-13-3.76444E-13
 -1       627 2.00103E+01 1.24942E-01 2.26415E-04-1.36088E-01-3.27819E-13-4.03495E-13
 -1       628 2.00179E+01 7.72778E-02 1.34734E-04-8.84272E-02 1.08115E-14-1.86230E-13
 -1       629 2.00185E+01 4.76706E-02 7.98318E-05-5.72677E-02 3.88773E-13-3.17188E-13
 -1       630 2.00161E+01 2.93944E-02 4.71627E-05-3.70082E-02 7.79432E-14-3.32465E-13
 -1       631 2.00129E+01 1.81611E-02 2.78081E-05-2.38613E-02 1.86049E-13-2.50877E-13
 -1       632 2.00098E+01 1.12723E-02 1.71385E-05-1.53263E-02-4.06504E-14-1.95059E-13
 -1       633 2.00073E+01 7.21208E-03 9.50221E-06-9.97839E-03 1.57932E-14 3.88895E-14
 -1       634 2.00051E+01 4.54332E-03 6.19600E-06-6.24514E-03 9.25463E-15 2.31197E-13
 -1       635 2.00035E+01 2.88998E-03 3.58139E-06-3.78618E-03 1.15462E-13 3.99647E-13
 -1       636 2.00023E+01 1.84968E-03 2.27483E-06-2.16022E-03 2.91645E-13 4.08183E-13
 -1       637 2.00014E+01 1.17499E-03 1.88754E-06-1.08909E-03 4.70625E-14 1.84553E-13
 -1       638 2.00008E+01 6.98471E-04 3.17421E-08-3.90637E-04-2.54405E-14-1.39227E-13
 -1       639 8.51530E+00 1.33929E+00 1.82477E-01-3.15724E+00 8.68507E-14 2.58016E-13
 -1       640 2.00439E+01-1.19969E-01-1.06515E-04-1.05273E-01 6.52706E-14 8.47378E-14
 -1       641 2.00479E+01-1.96669E-02-5.00597E-05-1.12830E-01 1.13674E-13 1.29705E-13
 -1       642 2.00973E+01-3.05135E-01-2.15121E-04 5.19182E-02 4.80841E-14 1.59850E-13
 -1       643 2.01475E+01-3.95084E-01-2.66911E-04 2.00144E-01 9.81044E-14 2.52282E-13
 -1       644 2.02033E+01-4.72222E-01-3.03698E-04 3.94756E-01 5.58417E-14 1.68705E-13
 -1       645 2.02502E+01-5.14871E-01-2.99050E-04 6.29599E-01 6.85281E-14 1.19757E-13
 -1       646 2.02669E+01-4.91543E-01-2.40692E-04 8.85936E-01 7.41581E-14 8.05455E-14
 -1       647 2.02283E+01-3.68035E-01-1.08767E-04 1.12589E+00 3.72844E-14 7.95525E-14
 -1       648 2.01150E+01-1.22656E-01 1.30311E-04 1.29023E+00 1.03328E-13 1.59067E-13
 -1       649 1.99278E+01 2.32676E-01 3.97210E-04 1.30718E+00 8.21562E-14 1.70268E-13
 -1       650 1.97004E+01 6.36348E-01 5.61756E-04 1.11684E+00-7.26404E-16 2.44577E-13
 -1       651 1.94988E+01 9.82409E-01 5.52159E-04 7.06161E-01 1.28507E-14 1.72262E-13
 -1       652 1.93963E+01 1.15839E+00 5.44544E-04 1.35053E-01-2.29425E-14 1.98263E-13
 -1       653 1.94346E+01 1.10174E+00 4.83007E-04-4.72801E-01-1.02806E-13 1.92410E-13
 -1       654 1.95986E+01 8.35555E-01 5.62081E-04-9.79145E-01-2.02236E-15 8.46202E-15
 -1       655 1.98262E+01 4.53699E-01 5.06591E-04-1.28945E+00 2.39636E-13 3.55784E-14
 -1       656 2.00440E+01 7.10157E-02 3.46859E-04-1.38159E+00 1.78648E-13 1.02718E-13
 -1       657 2.02005E+01-2.25602E-01 1.07915E-04-1.29627E+00 8.41551E-15 7.89888E-14
 -1       658 2.02795E+01-4.01100E-01-1.59493E-04-1.10348E+00 1.17699E-13 1.28909E-13
 -1       659 2.02926E+01-4.64106E-01-2.46742E-04-8.69955E-01 4.16653E-14 2.15151E-13
 -1       660 2.02627E+01-4.45817E-01-2.75773E-04-6.43158E-01-1.69063E-13-3.46522E-14
 -1       661 2.02129E+01-3.81562E-01-2.51105E-04-4.49051E-01-8.49610E-14-1.98007E-13
 -1       662 2.01598E+01-3.00222E-01-2.04507E-04-2.96703E-01-4.03546E-14-1.47382E-13
 -1       663 2.01128E+01-2.20653E-01-1.54281E-04-1.84812E-01-1.25235E-13-1.96973E-13
 -1       664 2.00757E+01-1.52636E-01-1.08840E-04-1.07151E-01 1.94564E-13-2.14732E-13
 -1       665 2.00487E+01-9.95223E-02-7.22448E-05-5.60557E-02 1.81372E-13-1.42364E-14
 -1       666 2.00301E+01-6.08459E-02-4.49832E-05-2.42875E-02 1.80768E-13 1.96148E-13
 -1       667 2.00180E+01-3.43303E-02-2.59711E-05-5.84210E-03 2.47273E-13-3.27859E-14
 -1       668 2.00105E+01-1.71728E-02-1.35045E-05 3.87082E-03 2.35695E-13-1.57443E-13
 -1       669 2.00061E+01-6.74163E-03-5.82805E-06 8.15587E-03 2.07836E-13-3.38933E-13
 -1       670 2.00035E+01-8.72052E-04-1.44019E-06 9.27582E-03 2.20590E-14-1.33916E-13
 -1       671 2.00020E+01 2.07047E-03 8.27868E-07 8.70905E-03 1.79302E-14-1.44518E-13
 -1       672 2.00012E+01 3.24302E-03 1.81618E-06 7.37513E-03 1.42135E-13-1.42832E-13
 -1       673 2.00007E+01 3.42079E-03 2.08050E-06 5.81379E-03 2.86693E-13-4.34706E-14
 -1       674 2.00004E+01 3.09720E-03 1.93154E-06 4.31677E-03 1.54251E-13 2.49955E-13
 -1       675 2.00003E+01 2.56464E-03 1.55920E-06 3.02298E-03 5.70837E-14 8.23044E-14
 -1       676 2.00001E+01 1.99253E-03 1.82664E-06 1.98452E-03 9.99820E-14-1.01204E-13
 -1       677 2.00000E+01 1.50141E-03 1.52339E-06 1.22076E-03-1.16875E-14-5.01786E-14
 -1       678 1.99994E+01 2.38881E-03 1.20258E-06 9.98405E-04 2.05459E-13-1.74390E-14
 -1       679 1.99990E+01 3.19923E-03 1.20957E-08 1.67606E-04 1.71416E-13-9.27590E-14
 -1       680 1.99997E+01 1.96617E-03 7.05436E-08 1.17194E-03 2.44096E-13-1.31693E-13
 -1       681 1.10979E+01-7.22625E-02 1.31195E-01 6.17524E+00-4.50178E-13 1.80168E-13
 -1       682 1.99991E+01 2.88176E-03-1.99070E-07 6.41468E-04 1.79714E-13 1.01325E-13
 -1       683 1.99992E+01 3.21699E-03-1.19366E-07-8.24614E-04-2.29440E-13 9.64030E-14
 -1       684 1.99996E+01 2.90461E-03-1.13137E-07-1.14284E-03-2.45052E-13 4.43651E-13
 -1       685 2.00001E+01 2.40767E-03-1.56316E-07-1.25233E-03-1.88460E-13 5.16080E-13
 -1       686 2.00005E+01 1.79720E-03-5.12313E-07-1.11516E-03-1.67015E-13 1.41431E-13
 -1       687 2.00007E+01 1.16881E-03-1.04282E-06-7.62248E-04-4.97552E-14 1.32744E-13
 -1       688 2.00002E+01 1.70831E-04 2.03668E-06 1.99930E-04 1.69116E-13-5.46787E-13
 -1       689 2.01266E+01 2.61392E-01 2.13628E-04 5.00768E-02 1.77875E-13 1.38559E-13
 -1       690 6.91792E+00 1.84089E+00 1.72199E-01 1.72507E+00-1.08892E-13 4.27297E-13
 -1       691 2.96281E+01 5.81023E+00-1.52988E-01 1.96259E+00 4.10796E-13 3.61045E-13
 -1       692 1.13650E+01-3.78342E-01 1.22311E-01-6.32236E+00-3.55757E-14-4.10866E-13
 -1       693 1.92696E+01-3.73719E+00 8.93172E-02-7.45322E+00-4.50501E-13-2.31124E-13
 -1       694 1.99990E+01 3.31966E-03-1.67741E-07-3.56457E-04 1.54178E-14-4.62059E-13
 -1       695 2.00613E+01-2.13030E-01-1.60342E-04-4.96880E-02-3.27395E-17 1.50464E-13
 -1       696 2.99993E+01 1.98832E+00-1.21745E-01 1.85141E+00-6.34735E-14 3.57100E-13
 -1       697 1.82085E+01-2.97106E+00 9.05965E-02 7.32621E+00-4.30472E-13 6.13329E-14
 -1       698 8.00648E+00 1.35132E+00 1.84485E-01-3.40150E+00 1.33313E-13-4.21489E-13
 -1       699 2.79806E+01 7.45415E+00-1.55858E-01 2.44449E-01 4.69798E-13 4.40084E-13
 -1       700 2.01981E+01 4.93222E-01 6.22311E-04 2.53472E-01 1.66952E-13 1.59107E-13
 -1       701 2.00160E+01 2.30106E+00-1.68908E-03 6.22686E-01 2.83911E-13-6.24217E-14
 -1       702 2.02506E+01 7.39934E-01 4.49516E-04-3.77631E-01-1.33903E-13-1.67672E-13
 -1       703 2.33176E+01-4.32039E+00 2.98137E-02-5.65879E+00-5.44471E-13-3.76715E-14
 -1       704 1.99082E+01 2.54974E+00-1.52647E-03-1.32339E-01 1.65167E-13-2.21012E-13
 -1       705 9.20788E+00 2.72087E+00 1.50496E-01-2.29118E-01 1.76082E-13-4.38691E-13
 -1       706 1.99387E+01 2.48283E+00-1.58589E-03-3.82499E-01 9.26025E-14-2.17138E-13
 -1       707 2.91632E+01 3.02278E+00-9.93581E-02-2.15643E+00 4.95007E-13-2.18183E-13
 -1       708 2.01082E+01 2.08831E+00-1.02659E-03-8.25669E-01-2.71506E-14-2.82015E-13
 -1       709 2.93592E+01-4.63829E-01-6.86328E-02 1.02675E+00-1.45665E-13 5.21026E-13
 -1       710 2.02785E+01 8.44895E-01 1.56101E-03 6.06604E-01 2.58343E-13 1.93174E-13
 -1       711 1.06579E+01 1.66545E+00 1.10190E-01 3.86219E+00-3.69024E-13 1.58182E-13
 -1       712 2.72657E+01 6.53990E+00-1.17269E-01-1.05970E+00 4.09926E-13 3.69887E-13
 -1       713 2.02922E+01 1.47523E+00 1.35175E-04-9.62864E-01-1.40694E-13-2.31965E-13
 -1       714 1.61154E+01-1.67070E+00 7.52620E-02-6.70886E+00-2.24432E-13-2.07362E-13
 -1       715 2.80536E+01-3.84850E+00-2.33434E-02-2.47289E+00-5.72679E-13 5.32768E-14
 -1       716 2.02890E+01 1.04904E+00 5.49272E-04-6.43418E-01-1.34914E-13-1.95608E-13
 -1       717 2.85218E+01-3.73617E+00-2.52723E-02 2.54576E+00 3.52121E-14-4.01248E-13
 -1       718 2.93689E+01-1.64533E+00-6.46130E-02 1.94851E-03 2.73760E-13-5.53384E-13
 -1       719 2.35652E+01-4.43038E+00 3.13847E-02 5.75309E+00-3.07174E-13-1.41744E-13
 -1       720 2.02647E+01 1.30834E+00-1.01064E-03 6.17828E-01 2.76247E-13 1.13932E-13
 -1       721 1.09802E+01 2.28829E+00 1.15141E-01-2.54027E+00 6.95983E-14-3.04274E-13
 -1       722 2.05260E+01-6.01602E-01-1.06389E-04 2.05345E-01 1.09345E-13 1.39682E-13
 -1       723 2.02527E+01 2.80485E-01 2.56779E-05 1.70416E-02 1.64463E-13 6.85894E-14
 -1       724 2.02014E+01 1.81337E+00-2.89530E-04-9.21902E-01-7.83473E-14-2.59757E-13
 -1       725 1.57137E+01-5.96256E-01 4.48075E-02 5.78667E+00-4.13288E-13 1.28363E-13
 -1       726 2.01503E+01 3.91497E-01-8.08427E-06 9.70375E-02-3.47540E-14-2.66950E-14
 -1       727 2.00439E+01 3.34736E-01-1.45046E-05 1.96530E-01 3.93277E-15-2.79371E-14
 -1       728 1.98946E+01 3.65312E-01-1.92840E-05 2.56789E-01-8.23938E-15-6.74477E-14
 -1       729 1.96746E+01 4.83788E-01-3.22065E-05 2.82325E-01-3.98597E-14-6.34370E-14
 -1       730 1.93386E+01 6.97228E-01-8.33374E-05 2.65772E-01-2.74897E-14-5.99296E-14
 -1       731 1.88164E+01 1.01272E+00-3.33570E-05 1.80065E-01-7.83333E-14-1.96349E-13
 -1       732 1.80569E+01 1.40192E+00-2.66528E-04-1.30945E-02-7.09047E-14-1.88880E-13
 -1       733 1.68477E+01 1.86380E+00 1.90019E-03-4.23220E-01-4.83091E-14-1.33288E-13
 -1       734 1.50783E+01 2.24479E+00 1.04918E-02-1.16250E+00-2.47862E-14-2.22275E-13
 -1       735 1.48587E+01 2.76846E+00 1.97138E-02-1.80252E-01 3.39035E-14-3.31365E-13
 -1       736 1.68818E+01 2.18538E+00 4.53251E-03-4.10366E-01-4.19320E-13-4.27784E-13
 -1       737 1.81555E+01 1.59122E+00 8.09247E-04-4.57961E-01-1.46330E-13-7.17366E-13
 -1       738 1.89347E+01 1.10423E+00 2.63453E-04-4.12022E-01 4.32510E-14-4.66617E-13
 -1       739 1.93999E+01 7.42466E-01 1.64686E-04-3.33070E-01 7.42217E-14-4.91443E-13
 -1       740 1.96621E+01 4.98614E-01 1.86682E-04-2.56173E-01 1.50716E-14-4.15592E-13
 -1       741 1.98222E+01 3.22599E-01 8.98402E-05-1.86635E-01-7.10852E-15-2.00089E-13
 -1       742 1.99116E+01 2.06489E-01 6.22397E-05-1.32578E-01-3.82240E-13-7.83921E-14
 -1       743 1.99599E+01 1.31149E-01 3.83613E-05-9.25237E-02-1.05195E-13-7.98553E-14
 -1       744 1.99850E+01 8.29045E-02 2.34074E-05-6.38188E-02 1.02434E-13-1.99945E-13
 -1       745 1.99973E+01 5.23030E-02 1.42440E-05-4.36661E-02 1.43985E-13-2.78541E-13
 -1       746 2.00027E+01 3.30205E-02 8.37935E-06-2.96907E-02 8.20005E-14-1.87186E-13
 -1       747 2.00045E+01 2.09228E-02 5.77443E-06-2.00716E-02 2.09827E-13-1.69581E-13
 -1       748 2.00047E+01 1.36353E-02 3.10975E-06-1.37232E-02 5.66637E-14-1.12239E-13
 -1       749 2.00041E+01 8.74501E-03 2.19075E-06-9.07929E-03-3.96773E-14-1.83814E-13
 -1       750 2.00033E+01 5.65887E-03 1.32287E-06-5.88920E-03 7.56296E-14-7.15776E-14
 -1       751 2.00024E+01 3.68588E-03 8.70733E-07-3.69561E-03 4.86950E-13-1.08678E-13
 -1       752 2.00017E+01 2.40531E-03 2.51043E-06-2.19773E-03 1.47115E-13-2.70175E-14
 -1       753 2.00012E+01 1.71706E-03 1.54266E-06-1.35296E-03 8.70234E-14 8.99103E-14
 -1       754 2.06812E+01-7.07489E-01-1.27518E-04 4.17323E-01 1.28268E-13 3.17140E-14
 -1       755 2.03983E+01-4.71763E-01-7.75774E-05 5.05833E-02 4.22907E-14 1.67091E-13
 -1       756 2.08425E+01-7.51582E-01-9.46474E-05 6.84195E-01 4.45868E-14 4.88194E-14
 -1       757 2.09735E+01-6.80835E-01-5.78788E-05 9.85754E-01-2.14555E-14 1.03078E-13
 -1       758 2.10283E+01-4.40558E-01-6.13442E-06 1.27179E+00-3.95922E-15 1.42450E-13
 -1       759 2.09692E+01-4.10182E-03 2.70494E-04 1.45648E+00 1.06492E-13 1.81305E-13
 -1       760 2.07939E+01 5.88028E-01 5.10939E-04 1.43409E+00 1.12417E-14 2.94570E-13
 -1       761 2.05589E+01 1.20427E+00 4.46274E-04 1.12399E+00-1.52467E-14 2.69909E-13
 -1       762 2.03699E+01 1.64812E+00 1.50405E-04 5.33285E-01-2.91012E-14 2.56303E-13
 -1       763 2.03261E+01 1.74969E+00 1.81338E-04-2.09059E-01 2.40140E-14 2.27518E-13
 -1       764 2.04508E+01 1.47023E+00 2.06721E-04-8.99378E-01 7.37620E-14 8.30279E-14
 -1       765 2.06747E+01 9.26304E-01 3.97078E-04-1.36255E+00 1.12533E-13 7.91524E-14
 -1       766 2.08878E+01 3.11345E-01 6.87569E-04-1.53218E+00 8.99627E-14 2.07358E-13
 -1       767 2.10044E+01-2.02823E-01 4.76259E-04-1.44975E+00 9.71216E-14 2.92908E-13
 -1       768 2.09979E+01-5.29686E-01-8.43200E-05-1.21780E+00-1.66442E-14 2.48948E-13
 -1       769 2.08936E+01-6.69836E-01-9.11072E-05-9.34733E-01 7.15821E-14 2.90704E-13
 -1       770 2.07348E+01-6.69550E-01-1.24869E-04-6.66899E-01 1.72782E-13 1.19880E-13
 -1       771 2.05628E+01-5.86456E-01-1.05971E-04-4.46729E-01 1.59467E-14-4.63669E-14
 -1       772 2.04058E+01-4.69141E-01-7.80592E-05-2.81813E-01-1.70241E-13 1.17914E-14
 -1       773 2.02772E+01-3.49840E-01-5.44861E-05-1.66403E-01-6.73196E-14 1.62095E-14
 -1       774 2.01800E+01-2.45611E-01-3.47751E-05-9.00664E-02 1.95504E-14-1.77915E-13
 -1       775 2.01111E+01-1.62888E-01-2.12106E-05-4.22194E-02 1.22697E-13-8.84044E-14
 -1       776 2.00649E+01-1.01757E-01-1.22465E-05-1.39487E-02 2.97224E-14-9.71266E-14
 -1       777 2.00355E+01-5.91929E-02-6.53083E-06 1.51273E-03 2.70644E-13-8.16768E-14
 -1       778 2.00178E+01-3.11463E-02-3.09891E-06 8.96747E-03 2.78754E-13-9.61541E-14
 -1       779 2.00077E+01-1.36961E-02-1.15470E-06 1.16649E-02 2.57049E-13 2.61925E-14
 -1       780 2.00024E+01-3.55279E-03-1.35356E-07 1.17181E-02 1.50450E-13 1.47229E-14
 -1       781 1.99999E+01 1.80980E-03 3.34660E-07 1.04499E-02-1.14190E-14-3.64057E-13
 -1       782 1.99990E+01 4.20947E-03 5.36968E-07 8.65344E-03-1.43345E-13-2.00379E-13
 -1       783 1.99988E+01 4.88612E-03 6.41355E-07 6.77831E-03-7.84589E-14 2.65984E-13
 -1       784 1.99989E+01 4.64335E-03 5.65860E-07 5.06051E-03-3.16875E-14 3.54620E-13
 -1       785 1.99992E+01 3.98393E-03 6.79601E-07 3.59811E-03 4.08037E-13 1.44412E-13
 -1       786 1.99994E+01 3.17735E-03-7.11077E-07 2.43191E-03 1.88456E-13 1.22547E-13
 -1       787 1.99996E+01 2.55122E-03 1.47570E-06 1.72435E-03 1.94386E-14 1.01946E-13
 -1       788 1.99997E+01 3.88374E-03-3.14357E-07-1.72740E-03-1.37257E-13 5.48639E-13
 -1       789 1.17382E+01 3.04636E+00 8.54484E-02 1.00659E-01 2.09316E-14 4.00339E-14
 -1       790 2.00004E+01 3.13448E-03-1.80266E-06-1.84833E-03-3.50631E-13 5.91954E-13
 -1       791 1.99990E+01 4.38287E-03-6.04896E-08-1.31257E-03-3.97304E-14 2.92185E-13
 -1       792 2.00009E+01 2.42960E-03-7.89685E-07-1.70002E-03-1.57990E-14 4.64090E-13
 -1       793 1.36151E+01 7.20532E-01 2.00323E-01-5.38446E+00 8.82627E-14-5.06380E-13
 -1       794 2.02268E+01 5.44926E-01-9.63671E-06-5.36979E-02-6.39551E-14-7.35477E-14
 -1       795 2.65220E+01 5.61139E+00-8.66686E-02 1.47595E+00 4.21385E-13 3.08606E-13
 -1       796 2.02800E+01 5.41834E-01 1.03422E-05 1.81064E-01 1.72845E-13 5.58543E-14
 -1       797 1.99986E+01 4.59518E-03-1.37294E-07-6.76466E-04 1.72975E-13-5.32677E-13
 -1       798 2.02905E+01 9.77284E-01 8.67390E-04 4.83202E-01 2.26026E-13 1.03792E-13
 -1       799 1.99984E+01 4.49995E-03-5.73035E-07 5.62235E-05 3.47009E-14-3.14294E-13
 -1       800 2.01218E+01 1.90440E+00-3.42064E-04 1.78717E-01 2.14822E-13-1.19032E-13
 -1       801 2.73443E+01 3.37046E+00-8.20681E-02 2.20972E+00 1.23412E-13 4.51710E-13
 -1       802 2.12631E+01-2.83590E+00 2.34250E-02 5.16026E+00-4.32002E-13 7.21457E-15
 -1       803 2.02715E+01 8.19893E-01 6.71120E-05-2.70104E-01-9.05394E-14-1.32123E-13
 -1       804 2.60202E+01-3.69788E+00 6.20661E-03 2.62012E+00-7.52783E-14-3.02989E-13
 -1       805 2.01031E+01 1.95264E+00-5.04663E-04-1.26130E-02 1.63071E-13-1.26498E-13
 -1       806 2.54589E+01 5.84834E+00-7.15056E-02 1.68184E-01 4.74999E-13 2.57925E-13
 -1       807 1.98778E+01-2.92354E+00 4.75380E-02-6.14347E+00-3.47423E-13-1.68910E-14
 -1       808 1.99991E+01 3.10565E-03 5.04600E-08 1.47422E-03 1.14003E-13 9.55520E-14
 -1       809 2.02286E+01-6.91679E-02-2.44081E-05-1.16893E-01 8.40246E-14 1.38345E-13
 -1       810 2.83223E+01 2.58095E-01-4.86598E-02-1.63278E+00 3.05325E-13-4.32470E-13
 -1       811 2.69165E+01 4.86177E+00-7.88265E-02-1.91402E+00 4.73111E-13 1.21653E-13
 -1       812 2.01978E+01 1.63464E+00-3.58013E-04-5.13700E-01-2.07521E-14-1.98582E-13
 -1       813 2.81757E+01-2.27827E+00-3.06612E-02-1.17233E-01-4.04773E-13 3.81245E-13
 -1       814 2.02754E+01 1.11659E+00-9.70447E-05-4.70848E-01-7.45574E-14-1.66936E-13
 -1       815 2.74533E+01 1.42059E+00-5.31656E-02 2.06412E+00-1.38407E-13 4.37969E-13
 -1       816 2.02317E+01 8.58015E-02-1.63281E-05-7.82872E-02 1.34953E-13 8.01183E-14
 -1       817 2.69341E+01-2.74864E+00-2.92625E-02 5.50355E-01 1.27700E-13-3.06191E-13
 -1       818 2.02515E+01-2.05808E-01-3.66751E-05-1.07054E-01 1.91636E-14 1.14283E-13
 -1       819 1.99985E+01 4.16329E-03 4.96646E-07 7.48160E-04 4.63389E-14 2.24711E-15
 -1       820 2.56874E+01-4.03636E+00 5.64988E-04-3.35274E+00-5.41847E-13-2.39288E-14
 -1       821 2.01597E+01 1.78346E+00-5.21130E-04 3.59622E-01 2.59056E-13-9.06631E-14
 -1       822 2.02127E+01 1.58541E+00-5.94185E-04 5.14540E-01 2.49352E-13 1.74920E-14
 -1       823 2.01421E+01 1.82298E+00-3.37683E-04-3.69320E-01 4.03052E-14-2.21392E-13
 -1       824 2.03067E+01-3.38087E-01-5.42298E-05-5.18298E-02 1.83212E-14 1.18692E-13
 -1       825 1.47847E+01 1.27531E+00 3.59061E-02-3.55518E+00-5.18432E-14-1.32744E-13
 -1       826 1.45610E+01 8.36612E-01 4.67393E-02 4.44303E+00-2.34359E-13 2.15470E-14
 -1       827 2.45011E+01 4.54573E+00-3.16332E-02 1.09182E+00 2.80172E-13 3.63999E-13
 -1       828 2.12240E+01-9.71778E-01-1.12554E-04 3.43927E-01 4.64442E-14 3.17765E-13
 -1       829 1.35812E+01 2.33083E+00 3.54978E-02 2.06354E+00-1.39432E-13-6.63532E-15
 -1       830 2.01103E+01 1.92644E+00-4.33609E-04-1.98476E-01 8.52388E-14-1.80505E-13
 -1       831 2.00374E+01 3.70125E-01-2.85855E-05 9.63961E-02 7.14810E-15-1.74434E-15
 -1       832 1.98485E+01 4.02409E-01-3.66535E-05 7.79058E-02-3.71290E-14 2.76492E-14
 -1       833 1.95774E+01 5.12730E-01-4.87871E-05-1.01163E-02-4.94175E-14-8.50916E-15
 -1       834 1.91888E+01 6.91881E-01-1.17878E-05-1.99561E-01-1.14936E-13-1.85656E-14
 -1       835 1.86702E+01 9.05130E-01-1.97753E-04-5.22752E-01-8.75113E-14 1.17691E-14
 -1       836 1.79243E+01 1.11805E+00-3.86902E-04-1.09877E+00-3.76293E-14-1.07222E-14
 -1       837 1.69631E+01 1.20496E+00 4.47289E-03-2.04357E+00-4.22670E-14-1.53946E-14
 -1       838 1.59756E+01 2.04532E+00 9.51556E-03 1.21267E+00-2.89513E-13-1.79205E-13
 -1       839 2.09396E+01-8.31385E-01-8.97657E-05 1.23751E-01 8.56597E-14 1.79680E-13
 -1       840 1.74153E+01 1.66243E+00 1.29676E-03 5.46220E-01-3.50655E-13-1.63695E-13
 -1       841 1.83789E+01 1.25124E+00-1.29791E-04 1.87983E-01 1.60029E-14-1.61576E-13
 -1       842 1.90045E+01 8.96890E-01-2.28873E-04 1.55820E-02 1.89232E-13-4.76386E-13
 -1       843 1.93871E+01 6.32472E-01-4.97277E-06-5.34287E-02 2.84599E-14-3.28621E-13
 -1       844 1.96403E+01 4.27181E-01-3.88227E-05-7.56845E-02 7.48998E-14-2.92494E-13
 -1       845 1.97939E+01 2.83654E-01-8.97512E-06-7.42687E-02 4.20582E-14-2.72561E-13
 -1       846 1.98853E+01 1.86074E-01-1.74498E-06-6.36036E-02-1.75044E-13-2.70865E-14
 -1       847 1.99386E+01 1.21092E-01 9.26522E-07-5.08203E-02-6.51474E-14-1.22557E-13
 -1       848 1.99688E+01 7.84579E-02 1.73300E-06-3.89580E-02 1.92618E-13-1.26325E-13
 -1       849 1.99855E+01 5.07767E-02 1.15033E-06-2.90486E-02 2.46489E-13-4.92331E-14
 -1       850 1.99944E+01 3.29352E-02 1.46981E-06-2.12286E-02 1.85650E-13 4.47898E-14
 -1       851 1.99986E+01 2.19146E-02 1.49501E-06-1.54862E-02 6.35819E-14 3.27088E-14
 -1       852 2.00007E+01 1.43479E-02 9.34794E-07-1.09118E-02 1.60156E-13-7.95332E-14
 -1       853 2.00015E+01 9.46748E-03 7.53654E-07-7.53560E-03 3.04511E-13 4.03288E-13
 -1       854 2.00016E+01 6.28060E-03 2.73214E-07-5.06774E-03 2.43620E-13 7.62690E-13
 -1       855 2.00014E+01 4.17564E-03-5.50259E-07-3.29068E-03 2.43265E-13 6.55244E-13
 -1       856 2.00011E+01 3.22090E-03-8.41356E-07-2.39211E-03 1.42548E-13 6.24301E-13
 -1       857 2.01673E+01 4.22997E-01-2.34109E-05 5.91849E-02-6.40697E-16-3.51348E-14
 -1       858 2.07097E+01-6.55316E-01-4.73249E-05-2.08147E-02 4.95183E-14 3.89151E-14
 -1       859 2.18015E+01-8.75726E-01-6.10136E-05 1.01694E+00-7.07944E-15 1.83701E-13
 -1       860 2.19553E+01-4.64916E-01-4.52076E-04 1.38236E+00 1.02618E-14 1.23093E-13
 -1       861 2.19312E+01 2.44641E-01-1.60216E-04 1.61019E+00-3.28345E-14 2.28114E-13
 -1       862 2.17271E+01 1.16055E+00-5.65748E-05 1.53430E+00-7.89681E-14 2.44716E-13
 -1       863 2.14557E+01 2.01598E+00-2.50895E-04 1.04751E+00 1.41227E-14 2.80747E-13
 -1       864 2.12877E+01 2.47270E+00-1.00644E-03 2.14071E-01-1.27195E-14 2.74188E-13
 -1       865 2.13451E+01 2.32055E+00 1.17072E-03-6.99109E-01 1.67534E-13 1.39697E-13
 -1       866 2.15786E+01 1.63664E+00-7.79564E-04-1.38037E+00 4.96296E-14 1.54844E-13
 -1       867 2.18284E+01 7.26649E-01 7.77262E-04-1.66373E+00 1.28140E-13 2.82908E-13
 -1       868 2.19416E+01-1.01882E-01 8.02797E-04-1.57591E+00 1.03610E-14 3.12452E-13
 -1       869 2.18535E+01-6.44753E-01-8.98851E-04-1.27355E+00 6.05123E-15 3.05059E-13
 -1       870 2.16198E+01-8.98239E-01-1.36989E-04-9.10651E-01 1.38815E-13 5.42026E-14
 -1       871 2.13063E+01-9.25805E-01-1.23889E-04-5.86630E-01 1.53048E-13-1.43739E-13
 -1       872 2.09854E+01-8.20356E-01-9.18344E-05-3.42122E-01 8.81254E-14 2.01676E-13
 -1       873 2.07018E+01-6.59029E-01-4.56034E-05-1.77558E-01-2.40498E-14 1.93295E-13
 -1       874 2.04749E+01-4.92708E-01-2.97566E-05-7.64951E-02-9.51251E-14-6.83613E-14
 -1       875 2.03060E+01-3.46924E-01-1.13060E-05-1.95000E-02 7.08367E-14-2.20314E-13
 -1       876 2.01875E+01-2.31088E-01-3.31834E-06 9.37132E-03-1.14433E-13-1.25711E-13
 -1       877 2.01085E+01-1.45396E-01-4.71219E-07 2.16640E-02 2.02631E-14-7.37278E-14
 -1       878 2.00584E+01-8.55634E-02 7.03124E-07 2.49279E-02 1.55326E-13-8.41188E-14
 -1       879 2.00282E+01-4.59237E-02 9.71145E-07 2.37109E-02 2.01510E-13-5.69547E-14
 -1       880 2.00112E+01-2.10380E-02 8.53006E-07 2.05862E-02 2.40850E-13-5.58997E-14
 -1       881 2.00022E+01-6.36516E-03 6.20940E-07 1.69210E-02 2.75053E-13-2.09217E-13
 -1       882 1.99981E+01 1.57799E-03 3.94929E-07 1.33855E-02 1.98163E-13-1.57459E-13
 -1       883 1.99967E+01 5.30414E-03 2.12195E-07 1.02678E-02-6.37231E-14-1.70978E-14
 -1       884 1.99966E+01 6.53616E-03 2.14152E-07 7.65787E-03-3.86311E-13-6.71088E-14
 -1       885 1.99971E+01 6.40486E-03 3.20782E-07 5.54425E-03-5.69743E-15-6.46055E-14
 -1       886 1.99978E+01 5.61335E-03 1.09129E-06 3.89549E-03-1.18367E-15-4.95980E-14
 -1       887 1.99984E+01 4.57979E-03-2.00898E-06 2.60065E-03 3.24361E-13 1.61799E-13
 -1       888 1.99998E+01 4.98171E-03 1.30477E-06-2.56839E-03-2.18150E-13 3.96930E-13
 -1       889 1.99988E+01 5.75569E-03-4.30416E-07-2.04291E-03 2.85086E-15 3.09428E-13
 -1       890 2.15310E+01-1.01518E+00 2.49018E-05 6.47756E-01 2.61688E-14 3.21728E-13
 -1       891 2.03443E+01 5.36440E-01-3.32970E-04 9.75576E-02 1.72148E-13-2.11625E-14
 -1       892 2.02499E+01 5.71998E-01-3.95147E-06-3.09925E-02-2.25275E-14-8.61141E-14
 -1       893 2.02524E+01 1.42392E+00-6.22141E-04-6.82856E-01-8.65831E-14-2.14748E-13
 -1       894 1.86210E+01-8.77107E-01 2.07578E-02 4.50325E+00-2.79465E-13 2.23111E-14
 -1       895 1.99981E+01 6.13556E-03-6.62030E-07-1.18605E-03 2.54457E-14-1.92830E-13
 -1       896 1.99977E+01 6.09349E-03-1.73084E-07-1.71350E-04 3.33369E-14-5.18124E-13
 -1       897 2.51296E+01 5.28497E+00-4.98577E-02-8.98029E-01 3.16285E-13 1.49083E-13
 -1       898 2.35201E+01-2.87461E+00-2.22263E-03 2.78675E+00-1.15413E-13-1.20762E-13
 -1       899 2.02865E+01 8.33434E-01-3.57576E-04-1.78637E-01-3.16458E-14-1.16688E-13
 -1       900 2.51838E+01 3.21424E+00-3.87193E-02 1.96567E+00 1.53497E-13 5.12097E-13
 -1       901 1.78324E+01-8.35383E-01 4.29024E-02-4.85414E+00-1.53090E-13-2.17572E-15
 -1       902 2.05434E+01-4.76338E-01-2.09269E-05-1.05628E-01 5.94770E-14-3.40263E-14
 -1       903 2.28911E+01-3.51438E+00 1.60942E-02-4.64279E+00-4.51129E-13-7.83399E-14
 -1       904 2.65480E+01-3.14474E+00-7.83159E-03-1.21631E+00-4.27938E-13 1.62450E-13
 -1       905 2.13872E+01-1.87559E+00 9.53737E-03 3.27937E+00-3.63912E-13 1.91525E-13
 -1       906 2.67213E+01 2.58240E+00-4.15323E-02-2.23403E+00 2.35289E-13-6.66229E-14
 -1       907 2.71461E+01-4.18544E-01-2.97988E-02 1.44626E+00-1.45039E-13 3.53352E-13
 -1       908 2.03530E+01 4.60521E-02-1.08432E-05-1.07945E-01 7.76056E-14 5.41185E-14
 -1       909 2.46332E+01-2.80079E+00-4.20945E-03 1.46950E+00-5.46687E-14-1.95471E-13
 -1       910 1.99977E+01 5.69234E-03 6.28643E-07 8.36767E-04 1.49107E-13-4.92767E-14
 -1       911 2.00005E+01 4.11932E-03 3.42741E-06-2.59408E-03-1.16776E-13 8.88565E-13
 -1       912 2.03477E+01 2.62000E-01 1.61798E-05-3.00523E-02 1.12982E-13 1.92015E-14
 -1       913 2.02716E+01 1.34602E+00-6.49501E-05 1.65146E-01 2.31882E-13-7.35405E-14
 -1       914 2.03112E+01 9.72235E-01 1.50003E-04 3.15793E-01 2.22847E-13 4.69607E-14
 -1       915 2.03776E+01-1.35587E-01-4.95005E-06-1.44782E-01 6.21767E-14 5.80706E-14
 -1       916 1.84573E+01-1.92511E-02 7.99471E-03-3.04847E+00-8.68845E-14 7.46265E-14
 -1       917 2.54626E+01 1.90239E+00-8.83236E-03 2.10436E+00-7.96307E-14 3.29342E-13
 -1       918 2.02756E+01 1.11628E+00 8.43476E-04-3.16318E-01-4.42025E-14-1.65763E-13
 -1       919 2.02515E+01 1.42834E+00 1.28250E-04 3.97137E-02 1.81951E-13-9.67451E-14
 -1       920 2.40376E+01 4.77046E+00-2.87832E-02 2.19794E-01 3.27733E-13 2.67706E-13
 -1       921 2.02750E+01 1.26271E+00 3.03414E-04 4.16534E-01 2.45377E-13 4.64523E-14
 -1       922 2.02621E+01 1.28137E+00 1.82664E-05-2.55871E-01 1.55681E-14-1.66641E-13
 -1       923 2.02492E+01 1.38784E+00 1.20196E-03-1.63134E-01 5.59317E-14-1.23314E-13
 -1       924 2.48799E+01 3.64564E+00-2.75353E-02-1.81329E+00 3.30865E-13 1.26839E-13
 -1       925 2.60318E+01-7.37446E-01-1.06420E-02-1.38216E+00 2.33137E-13-3.27698E-13
 -1       926 2.01817E+01 3.98681E-01-1.22091E-05-2.02872E-02 5.49888E-14-2.63420E-16
 -1       927 1.98635E+01 3.40966E-01 1.07705E-05-1.68402E-01-3.76142E-14 5.35618E-14
 -1       928 1.96196E+01 3.90515E-01 1.27505E-04-3.80446E-01-3.56685E-14 1.11931E-13
 -1       929 1.93295E+01 4.49054E-01 2.86015E-04-7.14703E-01-3.35892E-14 1.94123E-13
 -1       930 1.89721E+01 4.65800E-01 6.01335E-04-1.26828E+00-5.75265E-14 1.94765E-13
 -1       931 1.86629E+01 3.41573E-01 2.12198E-03-2.01984E+00-7.40864E-14 1.41279E-13
 -1       932 2.04364E+01-3.04780E-01-1.02624E-05-1.44393E-01 3.93655E-14 7.18727E-14
 -1       933 2.13596E+01-1.07674E+00-1.29228E-04-7.70508E-02 2.96461E-14 1.62189E-13
 -1       934 1.75022E+01 1.12540E+00 2.83730E-03 1.84782E+00-2.25439E-13 1.95071E-13
 -1       935 1.82615E+01 1.02402E+00 3.96934E-04 1.05623E+00-3.47729E-13 2.30268E-13
 -1       936 1.88337E+01 8.28432E-01-4.43259E-04 5.74525E-01-1.05304E-13 6.00729E-14
 -1       937 1.92244E+01 6.35764E-01-1.14692E-04 3.05894E-01 3.68474E-14-2.72039E-13
 -1       938 1.95081E+01 4.59535E-01-7.52082E-05 1.43656E-01 2.29110E-13-1.02415E-13
 -1       939 1.96945E+01 3.22585E-01-2.89761E-05 5.63638E-02 1.57813E-13-2.37843E-14
 -1       940 1.98142E+01 2.21829E-01-1.58120E-05 1.22761E-02-3.09642E-14-8.95564E-14
 -1       941 1.98895E+01 1.50436E-01-9.10330E-06-8.00647E-03-9.82514E-16-1.44602E-13
 -1       942 1.99358E+01 1.01148E-01-5.21021E-06-1.56817E-02 9.51650E-15 1.06336E-13
 -1       943 1.99637E+01 6.77246E-02-3.58809E-06-1.70450E-02 1.92045E-13 1.93844E-13
 -1       944 1.99802E+01 4.53440E-02-1.97859E-06-1.55470E-02 2.06155E-13 2.20687E-13
 -1       945 1.99894E+01 3.10327E-02 1.60983E-07-1.31023E-02 8.52133E-14-3.40619E-15
 -1       946 1.99949E+01 2.08920E-02-6.76139E-07-1.03447E-02 2.55924E-13 3.36234E-15
 -1       947 1.99979E+01 1.41471E-02-3.84309E-07-7.82866E-03 4.14848E-13 1.23598E-13
 -1       948 1.99994E+01 9.62840E-03-2.87460E-07-5.71416E-03 4.07465E-13 2.69781E-13
 -1       949 2.00002E+01 6.54420E-03-8.20044E-07-4.00981E-03 3.75181E-13 7.78742E-13
 -1       950 2.30244E+01 6.95216E-01-6.72045E-03 1.80278E+00-9.61667E-14 5.12036E-13
 -1       951 2.10032E+01-8.41243E-01-6.17942E-05-1.90051E-01 1.34275E-15 1.01929E-13
 -1       952 1.63711E+01 1.00121E+00 2.35502E-02 3.19844E+00-2.79147E-13-6.93289E-14
 -1       953 2.30567E+01-4.33936E-01 1.05758E-03 1.48867E+00-3.82071E-14 5.09711E-13
 -1       954 2.27703E+01-1.09229E+00 5.20522E-05 9.76722E-01 3.46480E-14 4.28463E-13
 -1       955 2.27817E+01 2.02930E+00-4.96103E-03 1.60873E+00-7.91752E-14 4.45095E-13
 -1       956 2.24700E+01 3.12523E+00-8.84803E-04 8.33139E-01 3.87208E-14 4.07322E-13
 -1       957 2.23708E+01 3.36489E+00-3.92542E-03-3.05580E-01 1.90152E-13 2.68090E-13
 -1       958 2.25761E+01 2.65139E+00-2.69941E-03-1.33651E+00 1.19945E-13 2.30507E-13
 -1       959 2.28844E+01 1.38093E+00-2.88506E-04-1.80817E+00 1.32210E-14 1.98908E-13
 -1       960 2.30347E+01 1.44972E-01-1.89197E-03-1.75730E+00-1.48288E-14 2.35603E-13
 -1       961 2.28926E+01-7.25934E-01 2.61144E-03-1.31630E+00 7.79693E-14 1.22181E-13
 -1       962 2.24844E+01-1.17285E+00 1.03636E-04-7.88432E-01 2.91801E-13-4.76529E-14
 -1       963 2.19626E+01-1.22667E+00-2.72913E-04-3.76261E-01 1.98567E-13-2.44049E-14
 -1       964 2.14521E+01-1.08207E+00-1.07017E-04-1.06616E-01 2.67050E-14-3.05156E-14
 -1       965 2.10151E+01-8.59520E-01 7.07920E-06 4.26022E-02-4.56383E-14 2.19629E-14
 -1       966 2.06752E+01-6.34488E-01-2.94771E-05 1.05760E-01-3.52471E-14 7.24831E-14
 -1       967 2.04284E+01-4.41605E-01 3.22879E-06 1.20078E-01 7.28203E-14-1.23367E-13
 -1       968 2.02584E+01-2.90904E-01 1.06458E-05 1.09806E-01-1.47574E-13-1.06721E-13
 -1       969 2.01472E+01-1.81225E-01 7.44359E-06 9.01964E-02-2.78185E-14-7.18819E-14
 -1       970 2.00776E+01-1.05645E-01 5.07769E-06 6.95573E-02 6.75211E-14-1.72662E-14
 -1       971 2.00362E+01-5.60750E-02 3.31011E-06 5.14983E-02 2.36369E-13-6.78668E-14
 -1       972 2.00130E+01-2.51838E-02 2.06401E-06 3.71020E-02 2.51066E-13-2.79643E-16
 -1       973 2.00011E+01-7.06719E-03 1.21089E-06 2.62382E-02 2.83828E-13 2.80825E-13
 -1       974 1.99958E+01 2.69867E-03 6.87070E-07 1.83158E-02 2.27507E-13 2.97331E-13
 -1       975 1.99941E+01 7.25349E-03 3.55473E-07 1.26567E-02 1.65114E-13 1.38715E-13
 -1       976 1.99942E+01 8.73310E-03 4.03182E-08 8.65947E-03-1.69896E-13-1.08812E-13
 -1       977 1.99951E+01 8.52389E-03 9.64249E-07 5.85661E-03-2.54233E-13 5.01663E-14
 -1       978 1.99962E+01 7.51467E-03-6.44578E-06 3.88699E-03 3.81899E-14 9.23351E-14
 -1       979 1.99973E+01 6.17816E-03 5.53043E-06 2.47820E-03 1.44097E-13-1.00073E-13
 -1       980 1.99987E+01 7.43363E-03-6.71325E-07-3.12987E-03 2.95864E-13 2.99981E-13
 -1       981 2.23119E+01-1.32041E+00 6.54181E-04 4.95879E-01 4.32403E-14 2.51456E-13
 -1       982 2.02284E+01-1.87970E+00 1.24654E-02-4.40799E+00-1.79506E-13 2.89501E-14
 -1       983 2.00484E+01 3.36740E-01 1.35937E-06-5.75180E-02 2.14203E-14 6.76984E-14
 -1       984 2.18105E+01-1.26882E+00-1.59337E-04 1.42274E-01-4.08950E-15 1.86683E-13
 -1       985 1.99975E+01 8.05232E-03-1.37177E-06-1.96789E-03 1.26537E-13 2.29725E-13
 -1       986 1.99968E+01 8.06682E-03 7.98400E-06-5.59664E-04 2.17926E-13-6.77637E-13
 -1       987 2.02469E+01 1.42909E+00 2.08538E-04-6.86550E-02 1.12367E-13-7.46399E-14
 -1       988 2.03024E+01 7.93156E-01 1.00347E-04-1.16192E-01 5.47825E-15-1.05059E-13
 -1       989 2.02697E+01 1.32764E+00-2.25679E-04 2.91330E-01 2.54770E-13-6.19107E-14
 -1       990 2.02666E+01 5.44813E-01-6.27934E-05-4.20981E-02 3.26862E-14-5.71726E-14
 -1       991 2.03956E+01 4.92663E-01-1.39308E-04 1.27130E-02 1.38678E-13-1.72071E-14
 -1       992 2.07487E+01-6.10868E-01-3.63115E-06-2.32715E-01-2.93818E-14 4.42911E-14
 -1       993 2.47820E+01-3.45645E+00 6.75798E-04-2.74899E+00-4.64276E-13-3.76847E-15
 -1       994 2.47876E+01-1.81053E+00-2.08594E-03-4.06695E-01 1.44167E-13-4.63481E-13
 -1       995 2.27555E+01-2.16181E+00 5.28912E-03 1.86585E+00-1.83735E-13-1.92776E-13
 -1       996 2.63506E+01-1.77829E+00-9.24971E-03 5.57473E-01-2.78989E-13 2.14109E-13
 -1       997 2.54866E+01 4.86791E-01-7.10359E-03 1.89148E+00-1.41428E-13 4.07461E-13
 -1       998 2.04145E+01 2.18543E-01-5.09298E-05-8.54546E-02 1.07416E-13-3.34426E-14
 -1       999 1.85898E+01 2.81980E-04 3.76601E-03 2.98707E+00-1.06441E-13 1.27595E-14
 -1      1000 1.99965E+01 7.61348E-03 9.08303E-07 8.23659E-04 1.34926E-13-2.32555E-13
 -1      1001 2.04388E+01-5.89639E-03 3.83040E-06-1.56638E-01 8.52159E-14-1.91967E-14
 -1      1002 2.33722E+01 3.00318E+00-2.26705E-02 1.49943E+00 5.92712E-15 5.18779E-13
 -1      1003 2.03506E+01 9.78968E-01 3.55483E-04 3.26340E-02 1.59171E-13-7.53523E-14
 -1      1004 2.37120E+01 4.11757E+00-2.57943E-02-9.11472E-01 2.72663E-13 2.73334E-13
 -1      1005 2.03237E+01 1.04483E+00 2.88377E-04 2.23502E-01 2.43978E-13-6.05431E-14
 -1      1006 2.03387E+01 1.02749E+00 8.68715E-04 1.21861E-01 1.93375E-13-4.56238E-14
 -1      1007 2.36446E+01 2.18797E+00-1.51916E-02 1.81594E+00-1.38774E-14 8.15549E-13
 -1      1008 2.02943E+01 4.61853E-01-8.63378E-05-8.53271E-02 7.44732E-14-3.63187E-14
 -1      1009 2.49566E+01 7.04365E-01-3.02850E-02-1.91789E+00 7.76993E-14-6.75631E-15
 -1      1010 1.98643E+01 1.07492E-01 3.66668E-04-7.13487E-01 1.54870E-14 1.29601E-13
 -1      1011 1.97654E+01-6.52774E-03 8.13232E-05-1.15472E+00-6.98759E-14 1.19437E-13
 -1      1012 1.88411E+01 3.60895E-01-5.57067E-04 1.86234E+00-1.34817E-13 2.17148E-13
 -1      1013 2.22583E+01-2.55697E+00 1.54969E-04-3.42369E+00-2.49211E-13 1.01648E-14
 -1      1014 1.90646E+01 4.71662E-01-2.39716E-03 1.16988E+00-2.34439E-13 4.63395E-13
 -1      1015 1.93100E+01 4.44733E-01 4.02189E-04 7.19131E-01-1.99982E-13 5.29258E-13
 -1      1016 1.95155E+01 3.68495E-01-6.36995E-05 4.16305E-01-3.07053E-14 3.16661E-13
 -1      1017 1.96718E+01 2.85970E-01-1.58527E-05 2.32950E-01 1.64345E-13-1.21186E-13
 -1      1018 1.97838E+01 2.12445E-01-6.86011E-06 1.23678E-01 2.13748E-13-1.06919E-13
 -1      1019 1.98608E+01 1.53500E-01-5.73270E-06 6.05557E-02 1.60120E-15 9.35697E-14
 -1      1020 1.99121E+01 1.08978E-01-4.54496E-06 2.54858E-02 1.26840E-13 1.09950E-13
 -1      1021 1.99455E+01 7.65727E-02-3.81082E-06 7.02478E-03 1.88246E-13 1.52938E-13
 -1      1022 1.99668E+01 5.35593E-02-2.73770E-06-1.90149E-03 1.96539E-13 6.52587E-14
 -1      1023 1.99797E+01 3.80757E-02 1.61977E-07-5.44112E-03 4.19909E-14 1.82061E-13
 -1      1024 1.99881E+01 2.65955E-02-1.35985E-06-6.40696E-03-8.19215E-14 2.00740E-13
 -1      1025 1.99933E+01 1.86271E-02-1.12753E-06-5.99022E-03 2.67449E-13 3.19919E-14
 -1      1026 1.99964E+01 1.30861E-02-2.20148E-06-5.03054E-03 4.90943E-13 3.67606E-13
 -1      1027 1.99978E+01 9.87639E-03 1.25544E-08-4.03923E-03 6.17172E-13 5.46196E-13
 -1      1028 2.24121E+01-1.61220E+00 1.63784E-04-2.30813E-01-8.90797E-15 1.95940E-13
 -1      1029 2.03257E+01 7.00828E-01 6.72458E-05-9.14109E-02 5.17075E-14-3.98841E-14
 -1      1030 2.12336E+01-1.01089E+00 2.31017E-05-4.85752E-01-1.10917E-13 3.70966E-14
 -1      1031 2.31785E+01-1.71461E+00 4.01129E-04 1.79095E-01-1.48048E-13 2.79856E-13
 -1      1032 2.38857E+01-1.34862E+00-8.37509E-04 8.28514E-01-1.52579E-13 4.85542E-13
 -1      1033 2.26890E+01-1.59355E+00 1.98110E-03 1.67434E-02 2.12422E-13-1.28611E-13
 -1      1034 2.19270E+01-1.37814E+00-9.78447E-05 3.04194E-01 7.09674E-14-1.26362E-13
 -1      1035 2.12982E+01-1.05785E+00 1.80647E-04 4.07688E-01-2.24139E-14-1.14708E-13
 -1      1036 2.08334E+01-7.55893E-01 1.84914E-04 3.99589E-01 2.99225E-14-1.32578E-13
 -1      1037 2.05096E+01-5.09658E-01 3.92296E-05 3.40655E-01 1.09284E-13-3.18403E-13
 -1      1038 2.02953E+01-3.24291E-01 3.12461E-05 2.65844E-01 1.72683E-14-1.95243E-13
 -1      1039 2.01607E+01-1.94873E-01 2.09389E-05 1.95146E-01-1.27975E-13-4.24126E-13
 -1      1040 2.00795E+01-1.08740E-01 8.46735E-06 1.37190E-01 2.80232E-14-3.05630E-13
 -1      1041 2.00330E+01-5.40569E-02 3.54253E-06 9.32428E-02 1.21804E-13-4.28118E-13
 -1      1042 2.00080E+01-2.10606E-02 1.25484E-06 6.16930E-02-1.38082E-13-1.95720E-14
 -1      1043 1.99959E+01-2.39372E-03 3.68738E-07 3.99350E-02-3.94165E-15 2.35156E-13
 -1      1044 1.99912E+01 7.17146E-03-6.77010E-07 2.53901E-02 2.38704E-13 5.02432E-13
 -1      1045 1.99903E+01 1.12226E-02-8.06486E-07 1.58959E-02 3.83900E-13 4.24099E-13
 -1      1046 1.99912E+01 1.20989E-02-8.60515E-08 9.81760E-03 1.28335E-13 5.49122E-13
 -1      1047 1.99928E+01 1.13291E-02-3.82216E-06 5.97873E-03-1.00238E-13 1.55400E-13
 -1      1048 1.99945E+01 9.80455E-03-9.53069E-07 3.55619E-03 1.06857E-14-1.39132E-13
 -1      1049 2.03144E+01 9.92913E-01-4.67494E-04-1.24404E-01 2.88691E-14-5.57936E-14
 -1      1050 2.17413E+01-1.33100E+00-6.48111E-05-4.37317E-01-6.21316E-14 1.57020E-13
 -1      1051 2.12812E+01-1.41063E+00 2.81160E-03 2.18817E+00-1.32655E-13 1.59615E-13
 -1      1052 2.01160E+01 2.20228E-01 2.66972E-05-2.34325E-01 3.99238E-14-4.93104E-14
 -1      1053 2.04224E+01 4.32748E-01 1.81444E-04-6.04074E-02 1.26176E-13-4.60040E-15
 -1      1054 2.02212E+01 3.09878E-01-4.57395E-05-1.28707E-01 3.84992E-14-7.20660E-14
 -1      1055 2.03368E+01 1.01460E+00-1.74148E-04-3.42420E-02 1.25380E-13-2.15296E-14
 -1      1056 1.99962E+01 1.04579E-02-3.09217E-06-2.32496E-03 4.08230E-13 3.52909E-13
 -1      1057 1.99953E+01 1.02826E-02-5.04138E-06-3.69551E-04 3.34132E-13-5.08653E-13
 -1      1058 1.99918E+01 1.64646E-01 6.61185E-05-4.19877E-01 7.28980E-15 3.87567E-14
 -1      1059 2.07533E+01-1.42884E+00 3.18591E-04-2.97474E+00-9.59984E-14 8.68838E-14
 -1      1060 2.05837E+01-4.00483E-01 7.68347E-06-2.32441E-01 5.17216E-14 1.91450E-14
 -1      1061 2.49283E+01-2.69129E+00-7.95823E-03-9.11651E-01-3.79272E-13 1.05361E-13
 -1      1062 2.01608E+01-7.28230E-01-2.31917E-03-2.27137E+00-1.29996E-13 8.59228E-14
 -1      1063 2.04880E+01-2.04697E-01 8.64245E-06-2.05200E-01 5.11508E-14-5.91765E-15
 -1      1064 1.98505E+01-2.69656E-01-1.01092E-04-1.66698E+00-1.35158E-13 1.11042E-13
 -1      1065 2.51718E+01-7.89527E-01-4.11489E-03 1.34029E+00-1.73123E-13 4.71208E-13
 -1      1066 2.21188E+01-1.66755E+00-2.63889E-03 1.20987E+00-1.61063E-14 2.21279E-13
 -1      1067 2.31366E+01-1.94291E+00 2.21775E-03 5.51957E-01 1.17052E-13-5.11403E-14
 -1      1068 2.34784E+01-1.53104E+00-3.36950E-03-4.99217E-01 2.43196E-13-1.32847E-13
 -1      1069 2.04462E+01 1.66703E-01-2.03329E-04-1.44741E-01 3.70939E-14 1.70406E-14
 -1      1070 2.03955E+01 6.81557E-01-4.03775E-04-1.18239E-02 1.64936E-13-2.80597E-14
 -1      1071 2.03825E+01 7.30906E-01-1.76272E-04-5.07221E-02 8.72391E-14-6.71886E-15
 -1      1072 2.05902E+01-7.73438E-01 2.30994E-03 1.65250E+00-2.02264E-14 1.29058E-13
 -1      1073 2.08847E+01-7.18710E-01 1.11143E-04-4.52098E-01-4.00941E-14-2.63663E-14
 -1      1074 2.33453E+01-2.51238E+00 8.94573E-03-1.89226E+00-2.58577E-13-3.61907E-15
 -1      1075 2.02850E+01-2.92662E-01-6.81761E-04-9.16232E-01-4.32367E-15-3.41398E-15
 -1      1076 2.45905E+01-2.01863E+00-2.41855E-03 1.48880E-01-2.61651E-13 1.43438E-13
 -1      1077 2.04775E+01-5.34266E-02-3.07071E-04-2.24490E-01 4.04656E-14 5.16080E-14
 -1      1078 2.01891E+01-3.86963E-01-1.57120E-03 1.20937E+00 5.83985E-14 2.53143E-13
 -1      1079 2.04134E+01 4.87149E-01 3.19334E-04-8.59549E-02 8.02423E-14 5.67411E-14
 -1      1080 1.97006E+01 1.44706E-01-1.15558E-05 6.56726E-01-3.22674E-13 4.04078E-13
 -1      1081 1.97605E+01 1.57912E-01 9.40751E-05 4.08054E-01-7.07868E-14 4.86832E-13
 -1      1082 1.98203E+01 1.42682E-01 1.40395E-05 2.44482E-01 1.17493E-13 4.28450E-13
 -1      1083 1.98712E+01 1.17977E-01-9.19630E-07 1.41020E-01 1.08701E-13 2.62625E-13
 -1      1084 1.99104E+01 9.28243E-02-5.21955E-06 7.75553E-02-2.84091E-14 2.89626E-13
 -1      1085 1.99392E+01 7.09099E-02-5.59328E-06 3.98910E-02 3.35919E-14 2.64302E-13
 -1      1086 1.99594E+01 5.32263E-02-5.46876E-06 1.83836E-02 1.91529E-13 1.22806E-13
 -1      1087 1.99728E+01 4.01088E-02-2.09409E-06 7.10534E-03 1.82325E-13-1.34363E-14
 -1      1088 1.99824E+01 2.95659E-02-3.11193E-06 9.67581E-04 7.53094E-14-6.60105E-14
 -1      1089 1.99889E+01 2.17039E-02-2.56564E-06-1.79054E-03 8.90912E-14 3.66549E-13
 -1      1090 1.99931E+01 1.58756E-02-1.25758E-06-2.70672E-03 6.64320E-13 5.56633E-13
 -1      1091 1.99949E+01 1.29197E-02 1.14258E-05-2.56010E-03 6.19822E-13 3.92412E-13
 -1      1092 2.03614E+01 5.58389E-01-5.44250E-05-9.75623E-02 1.58353E-14 5.53193E-14
 -1      1093 2.29568E+01-2.04444E+00 2.98112E-03-8.91747E-01-1.16256E-13 4.53767E-14
 -1      1094 2.04992E+01-5.25147E-01-5.01846E-04 6.46557E-01 1.30310E-13 6.95891E-14
 -1      1095 2.02606E+01-3.07819E-01 1.91883E-04 4.76849E-01 2.63524E-14 1.29001E-14
 -1      1096 2.01239E+01-1.68915E-01 8.78341E-05 3.33530E-01 4.15656E-14-6.86377E-15
 -1      1097 2.00474E+01-8.21023E-02 4.98251E-05 2.24436E-01-1.59380E-13-5.76378E-14
 -1      1098 2.00079E+01-3.10118E-02 3.27503E-05 1.46059E-01 9.88306E-14 4.10298E-14
 -1      1099 1.99896E+01-2.74449E-03 2.08798E-05 9.22156E-02-3.76824E-15-1.00993E-14
 -1      1100 1.99829E+01 1.14733E-02 1.35175E-05 5.65578E-02-1.44243E-13-3.45888E-13
 -1      1101 1.99822E+01 1.73730E-02 1.10327E-05 3.36808E-02-2.00384E-13-5.42282E-14
 -1      1102 1.99842E+01 1.86120E-02 5.95684E-06 1.94309E-02 1.27218E-13 2.22300E-13
 -1      1103 1.99872E+01 1.74431E-02 3.93929E-06 1.08140E-02 3.05240E-13 5.33622E-13
 -1      1104 1.99902E+01 1.51882E-02 1.59358E-06 5.74525E-03 2.10319E-13 2.13740E-13
 -1      1105 1.99928E+01 1.30895E-02 3.49418E-06 1.74696E-03 2.46518E-13-1.08133E-13
 -1      1106 2.12421E+01-1.11330E+00-1.98675E-03 1.07166E+00-1.09582E-13 2.03407E-13
 -1      1107 2.03397E+01 3.30134E-01 1.43143E-05-1.46670E-01 1.26809E-14-7.83200E-15
 -1      1108 1.99936E+01 1.33692E-02 6.48874E-06-5.26235E-04 5.65412E-13-1.08022E-13
 -1      1109 2.03005E+01 1.59473E-01-1.55108E-04-2.39262E-01 8.03637E-14 2.57642E-14
 -1      1110 2.03591E+01 7.34546E-01 7.34676E-05-8.37114E-02 6.72185E-14 5.10873E-14
 -1      1111 2.06660E+01-4.70868E-01 1.03562E-04-3.83244E-01 5.74977E-15 1.07671E-14
 -1      1112 2.05414E+01-2.56109E-01 2.25989E-06-3.03704E-01 3.62009E-14 2.98446E-14
 -1      1113 2.02368E+01-1.08256E-01-2.28494E-04-6.09684E-01 5.76627E-14 5.59908E-14
 -1      1114 2.20118E+01-1.58798E+00 3.82624E-04-1.02507E+00-1.14708E-13 6.16464E-15
 -1      1115 2.04816E+01-5.66142E-01-9.90892E-04-1.23659E+00-6.15986E-14 2.80529E-14
 -1      1116 1.96792E+01 6.82773E-02 1.68101E-03 1.00644E+00-1.73132E-13 4.69844E-13
 -1      1117 2.02563E+01 2.85284E-02-3.78594E-05-3.86820E-01 7.45711E-14 4.19375E-14
 -1      1118 2.15100E+01-1.52120E+00-4.11448E-05-1.94760E+00-1.22132E-13-3.49061E-14
 -1      1119 2.08911E+01-8.40269E-01-2.10913E-03 8.25238E-01-3.90736E-15 7.11796E-14
 -1      1120 2.13346E+01-1.14081E+00 3.45493E-04-9.44110E-01-1.38070E-13-4.79753E-14
 -1      1121 2.08984E+01-7.71275E-01 6.47506E-04-7.80561E-01-9.85521E-14 2.70639E-15
 -1      1122 2.03909E+01 5.30832E-01 5.80336E-04-9.48554E-02 5.02239E-14-2.28614E-15
 -1      1123 1.99625E+01-5.04147E-02-4.11097E-05 5.24521E-01-1.28705E-13 6.56389E-13
 -1      1124 2.00772E+01-1.92692E-01 7.28941E-04 7.59785E-01-1.31444E-13 2.87450E-13
 -1      1125 1.99334E+01 1.28959E-02 8.90416E-06 3.38427E-01-8.88538E-14 6.67369E-13
 -1      1126 1.99309E+01 3.99664E-02-1.76820E-05 2.11358E-01-4.00311E-14 6.01653E-13
 -1      1127 1.99394E+01 4.79216E-02-1.82831E-05 1.27624E-01 1.74307E-13 4.74841E-13
 -1      1128 1.99512E+01 4.64498E-02-1.34757E-05 7.42527E-02 2.96456E-15 5.57834E-13
 -1      1129 1.99627E+01 4.09563E-02-8.46369E-06 4.13398E-02-1.21329E-14 4.26765E-13
 -1      1130 1.99721E+01 3.45667E-02-5.69354E-06 2.24120E-02-1.41654E-13 9.41329E-14
 -1      1131 1.99800E+01 2.79907E-02-3.54309E-06 1.07800E-02-5.57745E-14-9.97623E-14
 -1      1132 1.99860E+01 2.21333E-02-2.16280E-08 4.39644E-03 3.65955E-13 1.27984E-13
 -1      1133 2.08481E+01-9.72768E-01-1.41378E-03-1.64631E+00-1.61283E-13 2.22300E-14
 -1      1134 2.04159E+01 2.34458E-01-1.05321E-04-1.66260E-01 6.41919E-14 1.16727E-13
 -1      1135 1.99904E+01 1.73506E-02-1.19676E-06 1.06004E-03 3.58037E-13 3.14397E-13
 -1      1136 2.04313E+01-4.98520E-02 3.36913E-04-3.12573E-01 8.31844E-14 5.13764E-14
 -1      1137 2.06422E+01-4.87507E-01 1.34803E-04-5.99891E-01 2.49687E-15-1.21613E-14
 -1      1138 2.04790E+01-2.37376E-01-2.29816E-05-4.52831E-01 4.95138E-14 3.12115E-14
 -1      1139 2.79138E+01 9.07112E+00 2.32308E+00-6.70876E+00-4.54081E-14 7.96613E-13
 -1      1140 2.05420E+01 6.22508E+00 2.08249E-01-3.89012E+00-2.08167E-14-1.84998E-13
 -1      1141 1.94408E+01 5.85483E+00 7.52169E-02-2.87884E+00-1.25316E-14-5.31962E-13
 -1      1142 1.90338E+01 5.72830E+00 6.05075E-02-2.22575E+00-5.19723E-15-6.55405E-13
 -1      1143 1.88465E+01 5.67134E+00 5.79050E-02-1.69190E+00-9.07260E-16-6.77180E-13
 -1      1144 1.87493E+01 5.64140E+00 5.53610E-02-1.22599E+00 1.04257E-15-6.60054E-13
 -1      1145 1.86972E+01 5.62517E+00 5.33711E-02-7.98706E-01 2.67147E-15-6.14866E-13
 -1      1146 1.86705E+01 5.61677E+00 5.20162E-02-3.90379E-01 5.50254E-15-5.58357E-13
 -1      1147 1.86621E+01 5.61411E+00 5.15945E-02 7.59645E-03 6.55931E-15-4.97987E-13
 -1      1148 1.86695E+01 5.61651E+00 5.21544E-02 4.06219E-01 7.57749E-15-4.28628E-13
 -1      1149 1.86953E+01 5.62468E+00 5.36399E-02 8.16490E-01 9.65894E-15-3.42619E-13
 -1      1150 1.87474E+01 5.64103E+00 5.59679E-02 1.24704E+00 1.20182E-14-2.19397E-13
 -1      1151 1.88448E+01 5.67096E+00 5.83720E-02 1.71768E+00 1.52014E-14-4.29023E-14
 -1      1152 1.90341E+01 5.72847E+00 6.07749E-02 2.25848E+00 1.59664E-14 1.93897E-13
 -1      1153 1.94354E+01 5.85158E+00 6.98232E-02 2.91956E+00 1.79856E-14 5.76395E-13
 -1      1154 2.04570E+01 6.18319E+00 1.53584E-01 3.87104E+00 1.28231E-14 1.19968E-12
 -1      1155 2.52148E+01 7.99333E+00 1.42951E+00 5.84075E+00 6.66134E-15 2.22583E-12
 -1      1156 2.90971E+01 3.74203E+00 1.36637E+00-4.36444E+00-1.84047E-13 1.42014E-12
 -1      1157 2.03849E+01-1.70890E-01-6.24035E-01-1.48356E-01-6.70158E-14 1.02049E-12
 -1      1158 1.88669E+01-9.75542E-02-2.49500E-01 6.27390E-02-2.73739E-14 4.81034E-13
 -1      1159 1.85164E+01-5.04880E-02-6.46060E-02 4.09698E-02-1.33366E-14 1.11335E-13
 -1      1160 1.84614E+01-2.61679E-02-1.72059E-02 2.69098E-02-8.37047E-15-1.33778E-13
 -1      1161 1.85542E+01-1.48884E-02-6.64791E-03 1.88589E-02 2.15062E-15-3.36994E-13
 -1      1162 1.87251E+01-8.97753E-03-3.94963E-03 1.36926E-02-7.80723E-15-4.70651E-13
 -1      1163 1.89355E+01-7.09341E-03-3.66481E-03 1.02526E-02 1.78362E-15-5.00950E-13
 -1      1164 1.91799E+01-7.16348E-03-5.43773E-03 7.79460E-03-7.01013E-15-5.64150E-13
 -1      1165 1.94752E+01-9.87792E-03-9.97360E-03 6.35317E-03-3.32549E-14-7.23607E-13
 -1      1166 1.98466E+01-1.57725E-02-1.90014E-02 6.51594E-03 4.66641E-15-7.70477E-13
 -1      1167 2.03572E+01-2.60074E-02-3.54123E-02 9.59636E-03 2.94252E-15-8.02301E-13
 -1      1168 2.11184E+01-4.22927E-02-6.40929E-02 1.85557E-02-1.54820E-14-8.96446E-13
 -1      1169 2.23192E+01-6.63609E-02-1.11447E-01 3.95629E-02 3.61143E-14-8.00561E-13
 -1      1170 2.42642E+01-9.47442E-02-1.78638E-01 8.49652E-02 2.89959E-15-6.45081E-13
 -1      1171 2.72980E+01-1.29860E-01-2.42506E-01 1.68864E-01-2.00083E-14-6.93001E-13
 -1      1172 3.19533E+01-1.28656E-01-2.08747E-01 3.02067E-01-3.15199E-15-7.86260E-13
 -1      1173 3.84996E+01-2.80700E-02 1.52821E-01 4.34636E-01 3.06057E-14-6.62803E-13
 -1      1174 4.49199E+01 2.40347E-01 9.25943E-01 2.66026E-01-1.90820E-15-3.08767E-13
 -1      1175 4.58137E+01 4.85266E-01 1.27356E+00-7.49049E-01-5.29264E-15-7.86038E-14
 -1      1176 3.61540E+01 4.42566E-01-3.32950E-01-2.05870E+00-1.60844E-14-2.48912E-13
 -1      1177 2.13332E+01-1.45529E-01-3.34534E+00-1.75569E+00-3.69982E-14-9.44578E-13
 -1      1178 1.37216E+01-7.93235E-01-5.11043E+00-2.33461E-02-1.74583E-14-1.55057E-12
 -1      1179 2.06374E+01-4.51020E-01-3.54000E+00 1.34304E+00-4.45477E-14-2.28628E-12
 -1      1180 3.48860E+01 1.59226E-01-5.66334E-01 1.40928E+00 2.33494E-14-2.21689E-12
 -1      1181 4.51718E+01 3.89883E-01 1.18629E+00 6.29741E-01 6.11230E-14-1.97420E-12
 -1      1182 4.60960E+01 2.06789E-01 1.08129E+00-4.75397E-02 1.77514E-14-1.12066E-12
 -1      1183 4.06981E+01-3.96140E-02 3.28926E-01-2.37309E-01 2.90809E-14-7.79099E-13
 -1      1184 3.40176E+01-7.67634E-02-1.24554E-01-2.23106E-01 3.39403E-14-3.89300E-13
 -1      1185 2.88312E+01-6.97189E-02-2.16394E-01-1.51566E-01-3.66712E-14-8.47239E-13
 -1      1186 2.52854E+01-5.03195E-02-1.72526E-01-8.59081E-02-1.96241E-15-1.10623E-12
 -1      1187 2.31036E+01-3.32391E-02-1.09290E-01-4.58778E-02 3.15793E-14-8.01095E-13
 -1      1188 2.18032E+01-2.11346E-02-6.34672E-02-2.36330E-02-2.44531E-14-4.87724E-13
 -1      1189 2.10404E+01-1.31686E-02-3.57744E-02-1.18633E-02-3.42348E-14-1.35355E-12
 -1      1190 2.05965E+01-8.10042E-03-2.00526E-02-5.79547E-03 2.10863E-14-1.21852E-12
 -1      1191 2.03396E+01-4.83490E-03-1.11972E-02-2.70734E-03-1.47768E-14-1.29042E-12
 -1      1192 2.01939E+01-3.32183E-03-6.54789E-03-9.57036E-04 7.51648E-14-5.87902E-13
 -1      1193 2.01096E+01-1.85908E-03-3.69753E-03-4.85595E-04-3.39447E-14-7.35433E-13
 -1      1194 2.00596E+01-1.12173E-03-2.06918E-03-1.28959E-04-4.36268E-15-1.15537E-12
 -1      1195 2.00312E+01-6.75598E-04-1.15697E-03 2.11929E-05 1.88947E-14-1.26317E-12
 -1      1196 2.00152E+01-4.07236E-04-6.45729E-04 7.45894E-05 1.84744E-14-2.68201E-13
 -1      1197 2.00063E+01-2.46307E-04-3.59734E-04 8.45567E-05-3.61270E-14-1.70768E-13
 -1      1198 2.00014E+01-1.49674E-04-2.00396E-04 7.72621E-05 6.40144E-14-5.12413E-13
 -1      1199 1.99989E+01-8.83564E-05-1.10890E-04 6.43775E-05 2.72922E-14-6.56629E-13
 -1      1200 1.99977E+01-6.29247E-05-6.58985E-05 5.62696E-05 3.07920E-14-7.48826E-13
 -1      1201 1.99973E+01-3.72018E-05-3.88741E-05 4.28990E-05-2.20992E-14-6.64734E-13
 -1      1202 1.99974E+01-2.35504E-05-2.35661E-05 3.49645E-05-6.58780E-14-1.04766E-12
 -1      1203 1.99978E+01-1.46583E-05-1.46773E-05 2.99935E-05 1.46842E-15-7.69912E-13
 -1      1204 1.99983E+01-7.74804E-06-6.72048E-06 2.76117E-05 7.55968E-15-4.08817E-13
 -1      1205 1.99989E+01-2.51948E-07 7.13530E-06 2.73944E-05 8.49606E-15-1.04308E-12
 -1      1206 1.99995E+01 1.14309E-05 3.31395E-05 2.64241E-05 1.58287E-13-1.51403E-13
 -1      1207 1.99998E+01 2.02284E-05 4.16616E-05-8.81158E-06-1.72857E-13 5.29701E-13
 -1      1208 2.77855E+01 5.25340E-01 3.74958E-01 1.96532E+00-4.33126E-14 2.99744E-12
 -1      1209 2.00922E+01-6.67130E-02-5.73606E-01 1.29193E-01-1.80411E-15 2.81286E-12
 -1      1210 1.89229E+01-4.20142E-02-1.93182E-01 1.91478E-02 3.73399E-15 2.51056E-12
 -1      1211 1.85523E+01-2.26507E-02-5.05091E-02 9.64300E-04 5.58234E-15 2.31118E-12
 -1      1212 1.84900E+01-1.35827E-02-1.37444E-02-4.73741E-03 3.03425E-15 2.16647E-12
 -1      1213 1.85734E+01-7.52160E-03-4.72712E-03-6.23225E-03-2.33017E-15 2.01368E-12
 -1      1214 1.87231E+01-3.60863E-03-1.34722E-03-6.73478E-03 1.44658E-14 1.93539E-12
 -1      1215 1.88939E+01-7.35332E-04 1.18213E-03-6.93524E-03 6.13412E-15 1.90956E-12
 -1      1216 1.90565E+01 1.67467E-03 3.66391E-03-7.08235E-03-4.32074E-15 1.89244E-12
 -1      1217 1.91881E+01 3.95988E-03 6.34148E-03-7.23934E-03 3.91684E-15 1.74989E-12
 -1      1218 1.92680E+01 6.29615E-03 9.38627E-03-7.35442E-03 8.25994E-15 1.68915E-12
 -1      1219 1.92747E+01 8.68820E-03 1.28430E-02-7.25029E-03 9.31015E-15 1.53885E-12
 -1      1220 1.91850E+01 1.09283E-02 1.64909E-02-6.61177E-03-8.97828E-16 1.41023E-12
 -1      1221 1.89758E+01 1.25621E-02 1.97194E-02-5.00998E-03 6.61320E-15 1.41804E-12
 -1      1222 1.86277E+01 1.29153E-02 2.14822E-02-1.99854E-03-2.50212E-15 1.52012E-12
 -1      1223 1.81327E+01 1.12379E-02 2.04287E-02 2.69541E-03-1.93430E-14 1.50549E-12
 -1      1224 1.75036E+01 6.99659E-03 1.53022E-02 8.90857E-03-1.53816E-14 1.51603E-12
 -1      1225 1.67820E+01 2.58050E-04 5.58820E-03 1.58119E-02 3.33227E-15 1.31124E-12
 -1      1226 1.60422E+01-8.02136E-03-7.81762E-03 2.18901E-02-6.15122E-15 1.21527E-12
 -1      1227 1.53840E+01-1.60454E-02-2.23540E-02 2.52917E-02-1.43691E-14 1.21286E-12
 -1      1228 1.49135E+01-2.17136E-02-3.43516E-02 2.45259E-02 8.21587E-15 1.18485E-12
 -1      1229 1.47161E+01-2.34677E-02-4.03811E-02 1.92102E-02-5.76362E-16 1.14442E-12
 -1      1230 1.48311E+01-2.09895E-02-3.87633E-02 1.04026E-02 1.78386E-14 1.04670E-12
 -1      1231 1.52388E+01-1.52980E-02-3.03241E-02 2.56294E-04 7.55038E-15 8.28601E-13
 -1      1232 1.58681E+01-8.21785E-03-1.79307E-02-8.84215E-03-3.28595E-14 1.02799E-12
 -1      1233 1.66183E+01-1.57809E-03-5.14739E-03-1.51553E-02 6.93694E-15 1.12445E-12
 -1      1234 1.73875E+01 3.40492E-03 5.16912E-03-1.80520E-02-1.79672E-14 9.01446E-13
 -1      1235 1.80946E+01 6.31675E-03 1.16331E-02-1.79190E-02-2.52890E-15 7.30513E-13
 -1      1236 1.86900E+01 7.37201E-03 1.42811E-02-1.57228E-02 2.40305E-14 4.82014E-13
 -1      1237 1.91552E+01 7.10164E-03 1.40304E-02-1.25313E-02 2.39424E-15 5.44433E-13
 -1      1238 1.94946E+01 6.08247E-03 1.20660E-02-9.20016E-03-6.06373E-15 6.95602E-13
 -1      1239 1.97267E+01 4.78163E-03 9.41930E-03-6.25858E-03-9.06604E-15 3.51315E-13
 -1      1240 1.98749E+01 3.50543E-03 6.79250E-03-3.93808E-03 2.91351E-14 4.89096E-13
 -1      1241 1.99625E+01 2.41418E-03 4.55831E-03-2.26303E-03-6.45941E-14 6.90618E-13
 -1      1242 2.00090E+01 1.56334E-03 2.84412E-03-1.14556E-03-2.09971E-14 7.60694E-13
 -1      1243 2.00297E+01 9.45774E-04 1.63058E-03-4.56876E-04-1.40748E-14 3.38747E-13
 -1      1244 2.00353E+01 5.24523E-04 8.30449E-04-7.00348E-05 2.92531E-14-2.40084E-14
 -1      1245 2.00330E+01 2.53933E-04 3.39208E-04 1.20186E-04 2.58385E-14 6.55797E-14
 -1      1246 2.00273E+01 9.11576E-05 6.16495E-05 1.91971E-04-5.48020E-14 3.61662E-13
 -1      1247 2.00208E+01 1.05275E-06-7.78024E-05 1.98769E-04 1.57646E-14-1.23745E-15
 -1      1248 2.00147E+01-4.28095E-05-1.33915E-04 1.74503E-04-9.70345E-15-2.54609E-14
 -1      1249 2.00097E+01-5.90357E-05-1.43659E-04 1.39125E-04-5.94491E-14 2.26502E-13
 -1      1250 2.00059E+01-6.00085E-05-1.30471E-04 1.03313E-04 1.21953E-14-5.94263E-14
 -1      1251 2.00031E+01-5.35336E-05-1.08299E-04 7.20024E-05 4.85336E-14-7.17192E-13
 -1      1252 2.00013E+01-4.42411E-05-8.48766E-05 4.67885E-05-1.06653E-13-1.01589E-12
 -1      1253 2.00002E+01-3.45758E-05-6.39909E-05 2.74131E-05-2.13439E-15-5.92074E-13
 -1      1254 1.99997E+01-2.54025E-05-4.66406E-05 1.26098E-05-4.65818E-14-3.68871E-13
 -1      1255 1.99995E+01-1.55559E-05-2.98714E-05-1.90759E-07 8.75254E-14-4.91061E-13
 -1      1256 1.99996E+01 4.39197E-07-2.38131E-06-1.43500E-05 2.16979E-13-1.17894E-12
 -1      1257 1.99998E+01 1.11093E-05 3.56239E-05-1.13441E-05 7.95315E-14-1.16520E-12
 -1      1258 1.99998E+01-3.44884E-05 3.29179E-05-1.25267E-05-1.19723E-12-9.97230E-14
 -1      1259 1.99998E+01-1.81351E-04-5.69230E-06-2.19366E-05-1.81326E-12 5.98574E-14
 -1      1260 1.99998E+01-2.41683E-04-2.12335E-05-9.42331E-06-1.47570E-12-1.37565E-13
 -1      1261 1.99998E+01-1.45746E-04-1.30060E-05 2.65412E-07-1.72983E-12-2.21936E-13
 -1      1262 1.99998E+01 3.36706E-05 1.75778E-06 3.62099E-06-1.31031E-12-8.70194E-14
 -1      1263 1.99998E+01 1.95895E-04 1.48612E-05 2.01661E-06-1.85929E-12-1.24399E-13
 -1      1264 1.99998E+01 2.56492E-04 2.25369E-05-2.53445E-06-2.31750E-12 1.98019E-14
 -1      1265 1.99998E+01 1.64743E-04 2.32662E-05-8.30511E-06-1.93888E-12-7.40176E-14
 -1      1266 1.99998E+01-8.52277E-05 1.67871E-05-1.30814E-05-1.56187E-12 3.58635E-14
 -1      1267 1.99998E+01-4.50201E-04 4.22409E-06-1.49642E-05-5.64951E-13 2.97942E-13
 -1      1268 1.99998E+01-8.46350E-04-1.19071E-05-1.24182E-05 2.60965E-13-2.58065E-13
 -1      1269 1.99998E+01-1.16419E-03-2.77243E-05-4.72225E-06-4.06528E-14 3.00703E-14
 -1      1270 1.99998E+01-1.30255E-03-3.82164E-05 7.32809E-06-1.53217E-13-1.02745E-13
 -1      1271 1.99998E+01-1.19000E-03-3.71264E-05 2.24264E-05-5.24429E-13 9.93581E-14
 -1      1272 1.99998E+01-8.27794E-04-1.81934E-05 3.40533E-05-1.00252E-13 8.27631E-14
 -1      1273 1.99998E+01-3.34596E-04 1.85311E-05 2.56930E-05 6.50182E-13-2.78021E-13
 -1      1274 1.99998E+01-1.05878E-05 3.76444E-05-1.41228E-05-2.55246E-13-1.48057E-13
 -1      1275-1.16136E+00-2.53403E+01-3.66876E+00-2.09147E+00 1.31994E-12 1.77892E-13
 -1      1276-1.39516E+00-1.28689E+01-2.74554E+00-3.06156E+00 2.33258E-12 9.13380E-13
 -1      1277 1.95136E+00 1.38018E+00-1.39853E+00 2.20941E+00 2.89391E-12 1.81188E-12
 -1      1278 1.29815E+01 1.13688E+01 2.33223E-01 1.17845E+01 2.48535E-12 2.13296E-12
 -1      1279 3.27056E+01 1.34182E+01 2.03758E+00 1.97764E+01 1.39522E-12 2.06080E-12
 -1      1280 5.53040E+01 8.64262E+00 3.36216E+00 1.90073E+01 6.43707E-13 1.28586E-12
 -1      1281 7.20383E+01 2.74402E+00 4.31557E+00 8.97486E+00 6.92849E-14-6.10401E-13
 -1      1282 7.26505E+01 2.44054E+00 4.26931E+00-6.34715E+00 3.05502E-13-2.34757E-12
 -1      1283 5.88973E+01 7.24319E+00 3.54050E+00-1.83880E+01 1.16346E-12-3.30735E-12
 -1      1284 3.72600E+01 1.26614E+01 2.19814E+00-2.07421E+01 2.02605E-12-3.46789E-12
 -1      1285 1.66866E+01 1.22580E+01 5.79671E-01-1.37946E+01 2.26441E-12-2.46492E-12
 -1      1286 3.34134E+00 3.48666E+00-1.08153E+00-3.65237E+00 2.02904E-12-1.38223E-12
 -1      1287-1.19222E+00-1.03130E+01-2.50688E+00 2.79202E+00 1.13620E-12-6.09179E-13
 -1      1288-1.21478E+00-2.32545E+01-3.47544E+00 2.89159E+00-8.14904E-14-7.24837E-14
 -1      1289-1.15991E+00-2.97277E+01-4.04561E+00-1.79514E+00-1.00397E-12-9.71306E-14
 -1      1290-2.74785E+00-2.68600E+01-4.20535E+00-6.84460E+00-2.22439E-12-6.91835E-13
 -1      1291-4.27278E+00-1.62720E+01-3.99575E+00-7.41080E+00-2.76379E-12-1.39821E-12
 -1      1292-2.51493E-01-3.24424E+00-3.19521E+00-1.07062E+00-2.33036E-12-1.99951E-12
 -1      1293 1.72250E+01 6.66904E+00-9.12358E-01 1.06812E+01-1.71885E-12-2.13829E-12
 -1      1294 4.96651E+01 8.91078E+00 3.32471E+00 1.95156E+01-8.43992E-13-1.67866E-12
 -1      1295 8.53000E+01 5.41286E+00 8.21908E+00 1.48930E+01-2.18270E-13-7.16982E-13
 -1      1296 1.00301E+02 3.15974E+00 1.03978E+01-1.53696E+00-1.50463E-13 7.09433E-13
 -1      1297 8.22364E+01 5.78760E+00 7.74166E+00-1.63586E+01-6.63414E-13 2.33924E-12
 -1      1298 4.90527E+01 8.93772E+00 3.24815E+00-1.94429E+01-1.30762E-12 2.68274E-12
 -1      1299 1.82922E+01 6.98574E+00-7.85759E-01-1.12265E+01-1.58695E-12 2.22888E-12
 -1      1300 8.77712E-01-1.92889E+00-3.10781E+00-1.12422E-01-1.73839E-12 1.52878E-12
 -1      1301-4.19046E+00-1.43517E+01-3.95352E+00 6.81022E+00-9.13047E-13 5.20028E-13
 -1      1302-3.60712E+00-2.53144E+01-4.29890E+00 7.81756E+00-8.86846E-13 3.32900E-13
 -1      1303-1.42775E+00-2.99228E+01-4.15191E+00 3.08346E+00 2.50133E-13 1.05360E-13
 -1      1304 2.23288E+01 1.89161E+00-7.17061E-01-2.84837E+00-7.22755E-14 5.39901E-13
 -1      1305 2.03643E+01 4.69607E+00-4.70763E-02-3.30284E+00-1.43149E-13-3.51261E-13
 -1      1306 2.08588E+01 4.85101E+00-9.79256E-02-4.16006E+00-2.04670E-13-1.68483E-13
 -1      1307 1.95394E+01 4.99558E+00-1.95255E-02-2.64561E+00-1.12237E-13-5.95090E-13
 -1      1308 1.98376E+01 5.09318E+00 1.05253E-03-3.03636E+00-1.36578E-13-5.01529E-13
 -1      1309 2.05350E+01 3.95365E+00-2.46552E-02-3.06947E+00-2.28297E-13-3.04132E-13
 -1      1310 1.91930E+01 5.08601E+00-3.43954E-03-2.06085E+00-5.88592E-14-6.69083E-13
 -1      1311 1.93416E+01 5.14147E+00 1.06564E-02-2.35440E+00-8.38947E-14-6.39658E-13
 -1      1312 1.97639E+01 4.36831E+00-2.37568E-02-2.48137E+00-1.68726E-13-4.91496E-13
 -1      1313 1.90142E+01 5.13365E+00 3.40032E-03-1.55505E+00-1.05827E-14-6.81330E-13
 -1      1314 1.90940E+01 5.16382E+00 1.29973E-02-1.80454E+00-2.88138E-14-6.84647E-13
 -1      1315 1.94006E+01 4.55853E+00-1.92237E-02-1.92103E+00-7.58490E-14-5.58886E-13
 -1      1316 1.89169E+01 5.16355E+00 6.42310E-03-1.10945E+00 2.30232E-14-6.50870E-13
 -1      1317 1.89612E+01 5.18044E+00 1.28293E-02-1.32983E+00 1.46029E-14-6.69256E-13
 -1      1318 1.92091E+01 4.66652E+00-1.58660E-02-1.43549E+00-4.54107E-15-5.61055E-13
 -1      1319 1.88621E+01 5.18322E+00 8.02531E-03-6.89066E-01 5.63111E-14-5.94500E-13
 -1      1320 1.88867E+01 5.19254E+00 1.19487E-02-8.97795E-01 4.65227E-14-6.26475E-13
 -1      1321 1.91022E+01 4.73261E+00-1.38717E-02-9.97443E-01 4.91540E-14-5.29972E-13
 -1      1322 1.88357E+01 5.19480E+00 9.13785E-03-2.87746E-01 9.19354E-14-5.40937E-13
 -1      1323 1.88467E+01 5.19892E+00 1.09377E-02-4.88191E-01 8.37078E-14-5.70511E-13
 -1      1324 1.90431E+01 4.77169E+00-1.28236E-02-5.85063E-01 1.09177E-13-4.68670E-13
 -1      1325 1.88308E+01 5.19928E+00 1.01064E-02 1.06268E-01 1.20828E-13-4.81577E-13
 -1      1326 1.88309E+01 5.19924E+00 9.97575E-03-9.17736E-02 1.10645E-13-5.18157E-13
 -1      1327 1.90167E+01 4.78922E+00-1.24001E-02-1.88809E-01 1.64969E-13-4.25226E-13
 -1      1328 1.88462E+01 5.19733E+00 1.10889E-02 5.03699E-01 1.48672E-13-4.16471E-13
 -1      1329 1.88354E+01 5.19312E+00 9.04042E-03 3.02568E-01 1.39400E-13-4.57126E-13
 -1      1330 1.90167E+01 4.78767E+00-1.24456E-02 2.02781E-01 2.13337E-13-3.75588E-13
 -1      1331 1.88859E+01 5.18926E+00 1.20657E-02 9.15608E-01 1.67307E-13-3.21517E-13
 -1      1332 1.88614E+01 5.17999E+00 7.96590E-03 7.05508E-01 1.59573E-13-3.79367E-13
 -1      1333 1.90432E+01 4.76714E+00-1.29562E-02 6.00391E-01 2.51241E-13-3.05145E-13
 -1      1334 1.89597E+01 5.17605E+00 1.28994E-02 1.34724E+00 1.91415E-13-1.84363E-13
 -1      1335 1.89154E+01 5.15897E+00 6.31841E-03 1.12505E+00 1.80708E-13-2.63399E-13
 -1      1336 1.91023E+01 4.72568E+00-1.39948E-02 1.01165E+00 2.78448E-13-2.06224E-13
 -1      1337 1.90950E+01 5.15762E+00 1.29466E-02 1.83094E+00 2.28061E-13-6.65787E-15
 -1      1338 1.90141E+01 5.12683E+00 3.05479E-03 1.57852E+00 2.08975E-13-1.09732E-13
 -1      1339 1.92102E+01 4.65652E+00-1.61510E-02 1.45344E+00 3.22817E-13-7.19425E-14
 -1      1340 1.93472E+01 5.13397E+00 1.05599E-02 2.38781E+00 2.45262E-13 2.48350E-13
 -1      1341 1.91952E+01 5.07675E+00-4.22558E-03 2.09043E+00 2.29552E-13 9.85462E-14
 -1      1342 1.94058E+01 4.54343E+00-1.99034E-02 1.94814E+00 3.59776E-13 1.10297E-13
 -1      1343 1.98593E+01 5.09977E+00 6.24902E-03 3.07516E+00 2.26152E-13 6.54150E-13
 -1      1344 1.95475E+01 4.98474E+00-2.02098E-02 2.68748E+00 2.15120E-13 4.12635E-13
 -1      1345 1.97775E+01 4.34595E+00-2.47278E-02 2.51845E+00 3.63432E-13 3.88627E-13
 -1      1346 2.11071E+01 4.90589E+00 8.21345E-03 4.04630E+00 1.54488E-13 1.29886E-12
 -1      1347 2.03386E+01 4.73363E+00-4.79368E-02 3.40772E+00 1.65062E-13 9.20999E-13
 -1      1348 2.05682E+01 3.91536E+00-2.27460E-02 3.16974E+00 3.05301E-13 8.16763E-13
 -1      1349 2.71996E+01 3.20388E+00 9.27712E-01 4.57722E+00 2.70617E-14 2.26613E-12
 -1      1350 2.20231E+01 3.52149E+00-1.81944E-01 3.87876E+00 4.68792E-14 1.62789E-12
 -1      1351 2.21181E+01 2.56076E+00-3.23631E-02 3.44915E+00 2.20516E-13 1.38514E-12
 -1      1352 2.14304E+01 3.59208E-01-7.63399E-01 1.18019E+00 8.05953E-14 2.28073E-12
 -1      1353 2.21228E+01 1.95666E-01-4.01796E-01-1.36519E+00-1.83381E-13 6.44207E-13
 -1      1354 2.07417E+01 3.28751E-01-1.78251E-01-8.44108E-01-1.56583E-13 4.24945E-13
 -1      1355 2.01469E+01 1.60343E-01-8.01225E-02-4.17447E-01-1.36814E-13 3.59823E-13
 -1      1356 1.96564E+01 9.35549E-02-1.84225E-02-3.43635E-01-1.29900E-13 1.61867E-13
 -1      1357 2.10379E+01 4.14281E-01-1.03149E-01-1.32825E+00-2.77209E-13 1.14554E-13
 -1      1358 1.92886E+01 6.80688E-02 1.32560E-03-1.39672E-01-9.80292E-14 1.12320E-13
 -1      1359 1.91291E+01 4.37041E-02 1.27427E-02-1.20729E-01-8.53952E-14-1.93526E-14
 -1      1360 1.99675E+01 1.40024E-01-3.77730E-02-5.24122E-01-2.23186E-13 1.98886E-14
 -1      1361 1.89680E+01 3.33762E-02 1.32204E-02-2.61993E-02-5.73530E-14-5.91402E-14
 -1      1362 1.89510E+01 2.11685E-02 1.14857E-02-1.60850E-02-5.35119E-14-1.59352E-13
 -1      1363 1.94812E+01 5.92650E-02-9.37526E-03-1.71498E-01-1.37657E-13-6.22020E-14
 -1      1364 1.89002E+01 1.79248E-02 9.20743E-03 3.19502E-02-4.50443E-14-2.10571E-13
 -1      1365 1.89516E+01 1.13783E-02 7.06068E-03 3.74766E-02-4.14486E-14-2.77950E-13
 -1      1366 1.92770E+01 2.72502E-02-4.00678E-03-1.68525E-03-1.16595E-13-1.48155E-13
 -1      1367 1.89639E+01 1.03559E-02 5.09968E-03 6.45393E-02-2.20954E-14-2.99002E-13
 -1      1368 1.90518E+01 7.09888E-03 4.40635E-03 6.77719E-02-3.24719E-14-3.34714E-13
 -1      1369 1.92372E+01 1.43212E-02-2.79191E-03 8.92568E-02-7.88805E-14-2.25672E-13
 -1      1370 1.90998E+01 7.40454E-03 2.96695E-03 8.50154E-02-2.01552E-14-3.52779E-13
 -1      1371 1.92060E+01 6.09530E-03 3.34735E-03 8.72855E-02-5.97406E-15-3.70679E-13
 -1      1372 1.92939E+01 8.80121E-03-2.26632E-03 1.42906E-01-4.96604E-14-2.28054E-13
 -1      1373 1.92852E+01 7.46771E-03 2.08720E-03 1.03625E-01-1.01437E-14-3.62295E-13
 -1      1374 1.94191E+01 7.63900E-03 2.99323E-03 1.06765E-01-2.48592E-14-4.12464E-13
 -1      1375 1.94142E+01 9.37066E-03-2.01669E-03 1.83344E-01-3.56835E-14-2.47165E-13
 -1      1376 1.95263E+01 1.07406E-02 1.67054E-03 1.28548E-01-5.27122E-14-3.99226E-13
 -1      1377 1.96927E+01 1.27261E-02 3.11447E-03 1.33752E-01-3.90766E-14-4.65594E-13
 -1      1378 1.95922E+01 1.43590E-02-2.32553E-03 2.28956E-01-4.91313E-14-2.17729E-13
 -1      1379 1.98363E+01 1.80173E-02 1.31029E-03 1.69406E-01-8.84319E-15-4.63963E-13
 -1      1380 2.00585E+01 2.24143E-02 3.36638E-03 1.78876E-01 2.40563E-15-4.55742E-13
 -1      1381 1.98314E+01 2.60596E-02-3.35463E-03 2.96865E-01-4.11416E-14-1.79295E-13
 -1      1382 2.02566E+01 3.13233E-02 4.29227E-04 2.40303E-01-2.48460E-14-4.78446E-13
 -1      1383 2.05775E+01 3.89545E-02 3.08231E-03 2.57393E-01-4.93936E-14-5.43439E-13
 -1      1384 2.01558E+01 4.75900E-02-5.46232E-03 4.10899E-01-3.77155E-14-2.18016E-13
 -1      1385 2.08613E+01 5.38817E-02-2.23028E-03 3.62282E-01-3.19033E-14-5.13348E-13
 -1      1386 2.13536E+01 6.56778E-02 7.32730E-04 3.92367E-01 3.24393E-15-5.07910E-13
 -1      1387 2.06104E+01 8.45722E-02-9.28338E-03 6.05496E-01-4.17591E-14-2.76292E-13
 -1      1388 2.17700E+01 9.02185E-02-9.16922E-03 5.66332E-01 3.82316E-14-5.12155E-13
 -1      1389 2.25503E+01 1.06491E-01-6.13140E-03 6.17675E-01 2.81580E-14-4.73187E-13
 -1      1390 2.12667E+01 1.45216E-01-1.58693E-02 9.30898E-01 2.14290E-14-2.21710E-13
 -1      1391 2.31624E+01 1.41995E-01-2.46155E-02 8.92821E-01 3.25261E-14-4.98504E-13
 -1      1392 2.43976E+01 1.63453E-01-1.95556E-02 9.77738E-01 8.92168E-15-4.65322E-13
 -1      1393 2.22254E+01 2.38312E-01-2.61022E-02 1.45480E+00 1.52395E-14-2.79433E-13
 -1      1394 2.52268E+01 2.06587E-01-4.69474E-02 1.36092E+00-1.40894E-14-4.46101E-13
 -1      1395 2.70220E+01 2.10114E-01-3.05273E-02 1.47503E+00-3.00766E-14-4.81892E-13
 -1      1396 2.35721E+01 3.55474E-01-3.65329E-02 2.21952E+00-5.68989E-15-3.28862E-13
 -1      1397 2.82106E+01 2.52175E-01-5.66917E-02 1.95519E+00 4.25007E-15-4.27297E-13
 -1      1398 3.08580E+01 1.88637E-01 5.53013E-04 2.10586E+00 3.67224E-14-4.29046E-13
 -1      1399 2.54423E+01 4.45092E-01-3.93723E-02 3.23101E+00 2.15088E-14-2.60250E-13
 -1      1400 3.23617E+01 1.43656E-01 9.23222E-03 2.43885E+00 9.46881E-14-3.79585E-13
 -1      1401 3.54261E+01-7.93542E-02 1.47001E-01 2.49120E+00 9.53473E-14-2.84106E-13
 -1      1402 2.79716E+01 3.04165E-01 2.54185E-03 4.23326E+00 1.15980E-13-8.04634E-14
 -1      1403 3.70689E+01-3.62314E-01 2.34022E-01 2.05132E+00 1.72348E-13-1.20418E-13
 -1      1404 3.89552E+01-7.53662E-01 3.55466E-01 1.71058E+00 1.28175E-13 9.71445E-17
 -1      1405 3.10226E+01-5.23745E-01 1.10879E-01 4.27674E+00 2.02130E-13 8.37490E-14
 -1      1406 4.06767E+01-1.26229E+00 4.74581E-01-1.74329E-01 7.17620E-14 6.85008E-14
 -1      1407 3.90634E+01-1.56202E+00 1.73580E-01-1.20108E+00-5.64548E-14 1.06970E-13
 -1      1408 3.44229E+01-2.11489E+00 1.97364E-01 1.83181E+00 1.75859E-13 2.49686E-13
 -1      1409 4.05909E+01-1.38178E+00 2.32095E-01-3.65211E+00-1.75776E-13 1.49214E-13
 -1      1410 3.54479E+01-8.36479E-01-6.57034E-01-4.21588E+00-2.49883E-13-8.29337E-14
 -1      1411 3.80553E+01-3.22950E+00 2.64158E-02-2.71642E+00-1.79065E-13 3.03604E-13
 -1      1412 2.82288E+01 1.62917E+00-2.19569E+00-6.19067E-01-2.16938E-13-9.91374E-13
 -1      1413 2.82272E+01 1.67035E+00-2.14131E+00 6.32941E-01-2.64344E-13-1.23865E-12
 -1      1414 2.84004E+01 1.13702E+00-2.05595E+00 3.35470E+00-2.33591E-13-1.45295E-12
 -1      1415 3.35281E+01 3.91418E-01-1.11963E+00 3.96325E+00-8.17124E-14-1.59650E-12
 -1      1416 3.93415E+01 2.94504E+00-5.40744E-01 3.55981E+00-5.10814E-13-8.98601E-13
 -1      1417 3.39439E+01-2.65695E-01-8.74629E-01 3.92824E+00 5.27078E-14-1.56564E-12
 -1      1418 3.97209E+01-8.15341E-01 9.56676E-02 3.59359E+00 6.22141E-14-1.47760E-12
 -1      1419 3.92950E+01-2.64913E-01-4.73402E-01 6.90355E+00-2.62013E-14-9.26675E-13
 -1      1420 3.98720E+01-8.81689E-01 2.78102E-01 1.49433E+00 2.06987E-13-1.47782E-12
 -1      1421 4.23225E+01-8.34005E-01 6.30816E-01 7.58918E-01 3.01495E-13-1.10587E-12
 -1      1422 3.90050E+01-1.95508E+00 1.56358E-02 4.23147E+00 2.59417E-13-7.96335E-13
 -1      1423 4.11985E+01-6.04750E-01 5.08048E-01-9.31659E-01 1.36238E-13-9.39721E-13
 -1      1424 4.00155E+01-2.46865E-01 4.31172E-01-1.30848E+00 9.27314E-14-7.29528E-13
 -1      1425 3.76618E+01-1.45964E+00 3.02211E-01-4.17274E-01 4.02539E-13-6.77361E-13
 -1      1426 3.79701E+01-1.74865E-01 2.32328E-01-1.87586E+00 8.64239E-14-6.19393E-13
 -1      1427 3.48601E+01 1.29654E-01 7.34290E-02-1.93938E+00 1.47538E-13-3.82416E-13
 -1      1428 3.45549E+01-4.88702E-01 1.81092E-01-3.09933E+00 2.28650E-13-3.57117E-13
 -1      1429 3.29532E+01 3.70449E-02-1.25499E-02-1.70657E+00 4.69659E-14-4.32987E-13
 -1      1430 3.01648E+01 1.68090E-01-7.90500E-02-1.62800E+00-2.10235E-14-4.63574E-13
 -1      1431 3.07599E+01 1.23210E-01 2.40709E-02-3.46279E+00 5.72563E-14-2.63262E-13
 -1      1432 2.85731E+01 9.83693E-02-7.83023E-02-1.22413E+00-4.96825E-15-5.79897E-13
 -1      1433 2.64495E+01 1.32254E-01-8.99858E-02-1.12703E+00-4.79131E-14-6.51743E-13
 -1      1434 2.74168E+01 2.47621E-01-4.30460E-02-2.72285E+00-7.31602E-14-4.40134E-13
 -1      1435 2.53427E+01 8.88212E-02-6.27948E-02-7.88326E-01-1.12774E-14-7.20313E-13
 -1      1436 2.39702E+01 8.39588E-02-5.92182E-02-7.14951E-01 1.37799E-13-6.57641E-13
 -1      1437 2.48255E+01 2.09833E-01-4.61593E-02-1.84403E+00-3.02050E-14-4.06879E-13
 -1      1438 2.32408E+01 6.46342E-02-3.51108E-02-4.84330E-01 8.39329E-14-5.60510E-13
 -1      1439 2.23997E+01 4.99692E-02-3.23095E-02-4.35567E-01-2.47805E-14-4.18398E-13
 -1      1440 2.30458E+01 1.41161E-01-3.08799E-02-1.16401E+00 2.13773E-13-3.64524E-13
 -1      1441 2.19365E+01 4.26758E-02-1.65724E-02-2.90627E-01-5.95617E-14-4.07403E-13
 -1      1442 2.14344E+01 2.89215E-02-1.63010E-02-2.60070E-01-1.37974E-13-6.62047E-13
 -1      1443 2.18859E+01 8.70175E-02-1.76276E-02-7.09639E-01-1.08781E-13-1.73386E-13
 -1      1444 2.11466E+01 2.69271E-02-7.04241E-03-1.72291E-01-8.61880E-14-5.82035E-13
 -1      1445 2.08509E+01 1.65357E-02-8.01439E-03-1.53660E-01 9.71805E-14-7.45029E-13
 -1      1446 2.11535E+01 5.15447E-02-9.59768E-03-4.24919E-01-1.64453E-13-1.09668E-13
 -1      1447 2.06745E+01 1.66039E-02-2.72841E-03-1.01448E-01 2.77222E-14-6.27467E-13
 -1      1448 2.05017E+01 9.41003E-03-3.91490E-03-9.02381E-02 1.86747E-14-5.92297E-13
 -1      1449 2.06996E+01 2.99722E-02-5.24543E-03-2.51956E-01 1.11458E-13-2.41081E-14
 -1      1450 2.03945E+01 1.00377E-02-9.27237E-04-5.94532E-02 3.31078E-14-7.25935E-13
 -1      1451 2.02943E+01 5.41882E-03-1.80006E-03-5.28006E-02 1.04145E-13-5.90243E-13
 -1      1452 2.04218E+01 1.73389E-02-2.89432E-03-1.48497E-01 5.82295E-14 2.55366E-14
 -1      1453 2.02323E+01 6.20617E-03-1.91225E-04-3.53956E-02 1.62529E-13-7.30721E-13
 -1      1454 2.01760E+01 3.25032E-03-9.24144E-04-3.16373E-02 1.04894E-13-4.66952E-13
 -1      1455 2.02557E+01 9.62415E-03-1.85810E-03-8.79798E-02 7.85051E-14-2.66755E-13
 -1      1456 2.01358E+01 3.71608E-03 3.18988E-05-2.07804E-02-9.03202E-14-5.21617E-13
 -1      1457 2.01013E+01 1.73247E-03-4.48378E-04-1.83337E-02-1.89528E-13-7.54829E-13
 -1      1458 2.01546E+01 5.88588E-03-9.64035E-04-5.23639E-02-2.13525E-14-5.12762E-13
 -1      1459 2.00773E+01 2.27366E-03 1.46527E-04-1.20465E-02-7.48986E-14-8.73572E-13
 -1      1460 2.00575E+01 9.62347E-04-1.93193E-04-1.06024E-02 2.92336E-14-8.68919E-13
 -1      1461 2.00915E+01 3.29902E-03-5.71925E-04-3.05323E-02-2.39768E-13-5.73124E-13
 -1      1462 2.00431E+01 1.36579E-03 1.50923E-04-6.95679E-03 9.26203E-14-8.47145E-13
 -1      1463 2.00318E+01 5.31449E-04-7.26147E-05-6.10078E-03 1.84166E-13-6.12007E-13
 -1      1464 2.00535E+01 1.86575E-03-3.32263E-04-1.77331E-02 1.36544E-13-5.25517E-13
 -1      1465 2.00232E+01 8.20655E-04 1.26244E-04-3.99136E-03 3.00328E-13-5.37507E-13
 -1      1466 2.00168E+01 2.90802E-04-1.81054E-05-3.48321E-03 1.54323E-13-9.08284E-14
 -1      1467 2.00307E+01 1.05028E-03-1.93969E-04-1.02471E-02 4.73490E-13-3.21173E-13
 -1      1468 2.00117E+01 4.94677E-04 9.69073E-05-2.26383E-03-3.17868E-14-1.30903E-13
 -1      1469 2.00081E+01 1.57435E-04 4.34265E-06-1.96102E-03 7.82406E-14-1.75661E-13
 -1      1470 2.00170E+01 5.88664E-04-1.14068E-04-5.87201E-03 1.22311E-13-2.27799E-13
 -1      1471 2.00051E+01 2.99961E-04 7.09398E-05-1.25551E-03-9.36305E-14-2.84761E-13
 -1      1472 2.00032E+01 8.45366E-05 1.20395E-05-1.07389E-03 6.25536E-14-4.95526E-13
 -1      1473 2.00089E+01 3.29076E-04-6.76951E-05-3.31229E-03-5.12571E-14-2.08410E-13
 -1      1474 2.00015E+01 1.80963E-04 4.94454E-05-6.63332E-04 1.47787E-13-6.81164E-13
 -1      1475 2.00005E+01 4.69977E-05 1.38424E-05-5.55263E-04 5.85817E-14-5.12332E-13
 -1      1476 2.00042E+01 1.86500E-04-3.99362E-05-1.80944E-03-1.09893E-14-5.43744E-13
 -1      1477 1.99995E+01 1.13977E-04 3.40367E-05-3.22620E-04 2.54979E-14-5.73591E-13
 -1      1478 1.99991E+01 2.82469E-05 1.18727E-05-2.59750E-04 1.38733E-13-4.76333E-13
 -1      1479 2.00015E+01 9.62041E-05-2.76240E-05-9.32080E-04 2.68040E-14-6.36236E-13
 -1      1480 1.99986E+01 7.23373E-05 2.37116E-05-1.12840E-04 3.00828E-15-5.54381E-13
 -1      1481 1.99984E+01 1.09309E-05 8.02418E-06-6.85573E-05-4.31446E-14-5.57561E-13
 -1      1482 2.00000E+01 6.17526E-05-1.61038E-05-4.11195E-04-5.58385E-15-3.96661E-13
 -1      1483 1.99982E+01 4.89357E-05 1.64652E-05 1.75099E-05-4.37127E-14-6.04533E-13
 -1      1484 1.99983E+01 3.97720E-06 5.35083E-06 4.65209E-05 1.47766E-14-6.61813E-13
 -1      1485 1.99992E+01 3.40743E-05-1.11008E-05-8.15361E-05-6.78783E-14-3.33727E-13
 -1      1486 1.99983E+01 3.29137E-05 1.07304E-05 9.71096E-05 1.09779E-13-4.54394E-13
 -1      1487 1.99985E+01-6.23713E-07 3.26371E-06 1.16573E-04 2.52703E-14-2.69808E-13
 -1      1488 1.99989E+01 1.96079E-05-7.75914E-06 1.19657E-04 2.81597E-13-1.93566E-13
 -1      1489 1.99986E+01 2.18371E-05 7.16156E-06 1.42890E-04-6.10066E-14-2.26759E-13
 -1      1490 1.99988E+01-5.02032E-06 3.05576E-06 1.55498E-04-2.04033E-14-2.49986E-13
 -1      1491 1.99990E+01 9.89383E-06-5.25010E-06 2.39498E-04-5.15744E-14 5.52763E-14
 -1      1492 1.99990E+01 1.10843E-05 6.99103E-06 1.58990E-04-5.89125E-14-2.68813E-13
 -1      1493 1.99992E+01-1.17870E-05 7.49831E-06 1.64254E-04 6.02496E-14-3.50317E-13
 -1      1494 1.99992E+01-3.14251E-07-1.64120E-06 2.96662E-04-1.23318E-13 1.86940E-13
 -1      1495 1.99994E+01-5.64768E-06 1.24723E-05 1.34293E-04 2.26197E-13-4.49993E-13
 -1      1496 1.99996E+01-2.71771E-05 1.33854E-05 1.24149E-04 3.43488E-13-4.61228E-14
 -1      1497 1.99994E+01-1.72923E-05 6.17909E-06 2.81918E-04 1.74255E-13-6.30088E-14
 -1      1498 1.99997E+01-4.19809E-05 1.82773E-05 9.31052E-05 1.19155E-13-1.43432E-13
 -1      1499 1.99998E+01-4.57178E-05 1.42885E-05 5.62405E-05-2.59284E-13-2.60153E-13
 -1      1500 1.99998E+01-1.23163E-04 2.07442E-05 9.11895E-05-2.27201E-14-3.83625E-13
 -1      1501 1.99997E+01-6.01594E-05 1.64176E-05 2.06529E-04 1.03703E-13-4.80327E-13
 -1      1502 2.02698E+01 7.57635E-02-1.51615E-01 4.80780E-01 9.69884E-14 2.05080E-12
 -1      1503 2.15361E+01 2.16086E-01-2.29184E-01 7.18092E-01 8.39467E-14 2.17769E-12
 -1      1504 2.17353E+01 8.81459E-01-8.53890E-02 2.05942E+00 1.58033E-13 1.61288E-12
 -1      1505 1.93467E+01 3.41540E-02-2.07504E-02 1.82628E-01 8.23473E-14 1.83491E-12
 -1      1506 1.97658E+01 1.14171E-01-6.18955E-02 2.36363E-01 6.71789E-14 1.93405E-12
 -1      1507 2.03153E+01 1.86123E-01-5.55274E-02 7.82986E-01 1.45182E-13 1.43000E-12
 -1      1508 1.89730E+01 1.66028E-02 6.04820E-03 4.98831E-02 5.70525E-14 1.67655E-12
 -1      1509 1.91094E+01 5.14372E-02 1.68536E-03 7.73727E-02 5.97378E-14 1.75690E-12
 -1      1510 1.95721E+01 6.67890E-02-1.53867E-02 2.92197E-01 1.18548E-13 1.28490E-12
 -1      1511 1.88694E+01 8.40281E-03 7.12288E-03-1.14030E-02 4.27046E-14 1.57851E-12
 -1      1512 1.88822E+01 2.53296E-02 1.14777E-02 3.63644E-03 3.55957E-14 1.62050E-12
 -1      1513 1.92423E+01 2.10407E-02-6.93979E-03 7.17014E-02 8.52304E-14 1.14912E-12
 -1      1514 1.89003E+01 3.42836E-03 4.76094E-03-4.09135E-02 3.94530E-14 1.48519E-12
 -1      1515 1.88544E+01 1.32106E-02 8.44321E-03-3.27713E-02 3.21626E-14 1.53088E-12
 -1      1516 1.91302E+01 6.58659E-03-4.66335E-03-3.17258E-02 6.30771E-14 1.09071E-12
 -1      1517 1.89951E+01 3.97307E-04 3.27021E-03-5.22736E-02 3.29324E-14 1.40663E-12
 -1      1518 1.89239E+01 6.37216E-03 5.17497E-03-4.82805E-02 2.97770E-14 1.43472E-12
 -1      1519 1.91341E+01-6.48711E-06-3.09834E-03-7.87341E-02 6.11128E-14 1.01947E-12
 -1      1520 1.91111E+01-1.71342E-03 2.55213E-03-5.20904E-02 2.26123E-14 1.34574E-12
 -1      1521 1.90348E+01 1.85021E-03 3.22170E-03-5.09847E-02 2.00283E-14 1.35593E-12
 -1      1522 1.91929E+01-3.91293E-03-1.76352E-03-9.41142E-02 3.80132E-14 9.25761E-13
 -1      1523 1.92197E+01-3.44895E-03 2.24569E-03-4.32749E-02 1.70151E-14 1.30561E-12
 -1      1524 1.91519E+01-1.69105E-03 2.09669E-03-4.44840E-02 1.73773E-14 1.34090E-12
 -1      1525 1.92696E+01-6.87045E-03-5.48225E-04-8.83976E-02 2.69312E-14 8.61581E-13
 -1      1526 1.92982E+01-5.10647E-03 2.18607E-03-2.68542E-02 2.38623E-14 1.28436E-12
 -1      1527 1.92500E+01-4.92271E-03 1.41010E-03-3.02281E-02 1.36204E-14 1.30656E-12
 -1      1528 1.93381E+01-9.64452E-03 5.94083E-04-6.61090E-02 2.96278E-14 9.01459E-13
 -1      1529 1.93258E+01-6.83026E-03 2.32275E-03-2.81879E-03 6.24835E-14 1.25557E-12
 -1      1530 1.93079E+01-8.22623E-03 9.75491E-04-8.47623E-03 4.36654E-14 1.28337E-12
 -1      1531 1.93771E+01-1.26158E-02 1.74859E-03-2.86705E-02 5.40715E-14 9.11301E-13
 -1      1532 1.92817E+01-8.60575E-03 2.62281E-03 2.92147E-02 6.07444E-14 1.11261E-12
 -1      1533 1.93052E+01-1.17416E-02 7.15683E-04 2.10341E-02 6.33217E-14 1.20168E-12
 -1      1534 1.93675E+01-1.58732E-02 2.98621E-03 2.40060E-02 1.09220E-13 8.59331E-13
 -1      1535 1.91455E+01-1.02184E-02 3.00683E-03 6.92424E-02 4.17535E-14 1.02577E-12
 -1      1536 1.92216E+01-1.53170E-02 5.86810E-04 5.83764E-02 2.08403E-14 1.04316E-12
 -1      1537 1.92907E+01-1.91555E-02 4.31121E-03 9.21165E-02 6.66212E-14 7.66461E-13
 -1      1538 1.88988E+01-1.12186E-02 3.30695E-03 1.15928E-01-3.62223E-14 1.06666E-12
 -1      1539 1.90377E+01-1.84311E-02 5.34315E-04 1.02564E-01-8.77250E-15 1.06612E-12
 -1      1540 1.91298E+01-2.17633E-02 5.61568E-03 1.74341E-01-1.07987E-14 7.18275E-13
 -1      1541 1.85306E+01-1.09432E-02 3.25349E-03 1.65589E-01-3.66959E-15 1.13032E-12
 -1      1542 1.87383E+01-2.01651E-02 4.68547E-04 1.50583E-01-2.06432E-14 1.09978E-12
 -1      1543 1.88719E+01-2.25404E-02 6.64632E-03 2.65998E-01-4.98828E-14 7.35493E-13
 -1      1544 1.80432E+01-8.65733E-03 2.51616E-03 2.11471E-01-3.19120E-14 1.16412E-12
 -1      1545 1.83181E+01-1.93198E-02 2.61964E-04 1.96611E-01 1.05230E-14 1.14501E-12
 -1      1546 1.85126E+01-2.00412E-02 7.00966E-03 3.57376E-01 2.13544E-15 7.99358E-13
 -1      1547 1.74605E+01-3.85054E-03 8.24909E-04 2.43908E-01 2.93926E-14 1.10430E-12
 -1      1548 1.77888E+01-1.47657E-02-2.19757E-04 2.31939E-01-1.56125E-17 1.10699E-12
 -1      1549 1.80616E+01-1.29806E-02 6.25269E-03 4.33134E-01 2.27392E-14 7.80745E-13
 -1      1550 1.68319E+01 3.36106E-03-1.84199E-03 2.51981E-01 4.77126E-14 9.56820E-13
 -1      1551 1.71852E+01-6.01565E-03-1.04574E-03 2.46179E-01 5.62147E-14 1.03907E-12
 -1      1552 1.75483E+01-9.44902E-04 4.04152E-03 4.73855E-01 1.11664E-13 7.30920E-13
 -1      1553 1.62313E+01 1.19141E-02-5.08704E-03 2.26806E-01-1.45587E-14 8.78500E-13
 -1      1554 1.65674E+01 6.17214E-03-2.13084E-03 2.30037E-01 2.48063E-14 9.06235E-13
 -1      1555 1.70233E+01 1.48923E-02 4.03093E-04 4.60555E-01 7.61390E-14 6.75062E-13
 -1      1556 1.57461E+01 1.98391E-02-8.08010E-03 1.65608E-01 2.78237E-14 8.63342E-13
 -1      1557 1.60156E+01 1.95428E-02-3.18839E-03 1.79108E-01-1.96293E-14 8.77114E-13
 -1      1558 1.65537E+01 3.15088E-02-4.09437E-03 3.81548E-01-2.61432E-14 6.47575E-13
 -1      1559 1.54578E+01 2.48434E-02-9.81085E-03 7.46728E-02 7.68018E-14 8.41599E-13
 -1      1560 1.56152E+01 3.08112E-02-3.79616E-03 9.71097E-02 3.27403E-14 9.16649E-13
 -1      1561 1.62118E+01 4.46694E-02-8.38847E-03 2.39233E-01 4.57551E-14 6.76224E-13
 -1      1562 1.54200E+01 2.52808E-02-9.54439E-03-3.09260E-02-3.15433E-14 8.58654E-13
 -1      1563 1.54359E+01 3.68530E-02-3.58320E-03-3.44381E-03-6.07370E-15 8.21326E-13
 -1      1564 1.60568E+01 5.04363E-02-1.12827E-02 5.30065E-02 2.96161E-14 6.04331E-13
 -1      1565 1.56419E+01 2.09605E-02-7.22577E-03-1.31497E-01 4.92995E-14 7.43329E-13
 -1      1566 1.55122E+01 3.60585E-02-2.45026E-03-1.04270E-01 5.21514E-14 8.60603E-13
 -1      1567 1.61184E+01 4.68973E-02-1.19715E-02-1.44531E-01 3.95968E-14 5.98112E-13
 -1      1568 1.60854E+01 1.32600E-02-3.54258E-03-2.09140E-01 2.62984E-14 7.08263E-13
 -1      1569 1.58324E+01 2.90365E-02-6.63269E-04-1.87083E-01 3.68247E-14 7.51793E-13
 -1      1570 1.63876E+01 3.50816E-02-1.04167E-02-3.17398E-01 6.87419E-14 6.48743E-13
 -1      1571 1.66780E+01 4.45981E-03 4.03310E-04-2.53246E-01-3.89825E-14 8.44907E-13
 -1      1572 1.63431E+01 1.82358E-02 1.25582E-03-2.39370E-01-1.01821E-13 7.00320E-13
 -1      1573 1.68196E+01 1.85220E-02-7.30752E-03-4.37670E-01-9.83610E-14 5.67706E-13
 -1      1574 1.73333E+01-3.25120E-03 3.59111E-03-2.62609E-01 6.70964E-14 7.60420E-13
 -1      1575 1.69653E+01 6.77918E-03 2.77247E-03-2.57451E-01 8.47525E-14 8.33571E-13
 -1      1576 1.73482E+01 1.68683E-03-3.68537E-03-4.93062E-01 3.88832E-14 5.78308E-13
 -1      1577 1.79733E+01-8.52452E-03 5.45744E-03-2.43771E-01 3.86302E-14 5.78442E-13
 -1      1578 1.76161E+01-2.76557E-03 3.56231E-03-2.45837E-01 7.83152E-15 6.60381E-13
 -1      1579 1.79033E+01-1.17525E-02-4.79302E-04-4.87750E-01 9.91251E-14 4.01455E-13
 -1      1580 1.85417E+01-1.10518E-02 5.97330E-03-2.07185E-01 7.06247E-14 3.71619E-13
 -1      1581 1.82263E+01-9.07086E-03 3.59683E-03-2.13960E-01 5.82119E-14 5.02973E-13
 -1      1582 1.84266E+01-1.99563E-02 1.78193E-03-4.37393E-01 1.01905E-13 2.47941E-13
 -1      1583 1.90082E+01-1.12951E-02 5.47592E-03-1.63367E-01-3.47602E-14 3.93331E-13
 -1      1584 1.87511E+01-1.20398E-02 3.07391E-03-1.72292E-01-1.96739E-14 3.54375E-13
 -1      1585 1.88796E+01-2.29545E-02 2.99482E-03-3.61852E-01-2.99934E-15 2.07143E-13
 -1      1586 1.93659E+01-1.00523E-02 4.42793E-03-1.20432E-01-4.50232E-14 4.90660E-13
 -1      1587 1.91704E+01-1.23668E-02 2.27735E-03-1.29517E-01-6.00615E-14 4.67195E-13
 -1      1588 1.92446E+01-2.19839E-02 3.34284E-03-2.79078E-01-8.32849E-14 2.62435E-13
 -1      1589 1.96233E+01-8.10637E-03 3.22938E-03-8.32798E-02-1.55789E-14 5.32787E-13
 -1      1590 1.94840E+01-1.10274E-02 1.45731E-03-9.13015E-02-2.00577E-15 5.23612E-13
 -1      1591 1.95206E+01-1.86811E-02 3.11907E-03-2.01842E-01-6.74964E-14 3.45442E-13
 -1      1592 1.97976E+01-6.04056E-03 2.14075E-03-5.39450E-02 8.46185E-14 3.58812E-13
 -1      1593 1.97045E+01-8.91476E-03 7.69983E-04-6.03621E-02 4.97477E-14 4.57417E-13
 -1      1594 1.97172E+01-1.44907E-02 2.60330E-03-1.37141E-01 1.45959E-13 4.93967E-13
 -1      1595 1.99081E+01-4.19934E-03 1.28258E-03-3.24584E-02-1.75858E-14 3.99415E-13
 -1      1596 1.98500E+01-6.67108E-03 2.77160E-04-3.72071E-02-4.20366E-14 3.41057E-13
 -1      1597 1.98493E+01-1.04067E-02 2.00242E-03-8.72623E-02 8.36354E-15 3.68937E-13
 -1      1598 1.99731E+01-2.72997E-03 6.75470E-04-1.77475E-02-2.20772E-14 6.09497E-13
 -1      1599 1.99398E+01-4.66804E-03-2.67618E-05-2.10303E-02-2.28383E-14 5.36041E-13
 -1      1600 1.99326E+01-6.95829E-03 1.44060E-03-5.14269E-02-9.47008E-14 3.88049E-13
 -1      1601 2.00076E+01-1.65054E-03 2.85650E-04-8.32745E-03 5.06308E-14 4.81531E-13
 -1      1602 1.99906E+01-3.06339E-03-1.81284E-04-1.04523E-02 6.08428E-14 5.61385E-13
 -1      1603 1.99814E+01-4.32200E-03 9.75706E-04-2.73089E-02 4.58294E-14 3.69863E-13
 -1      1604 2.00228E+01-9.11238E-04 5.97681E-05-2.72911E-03 7.50561E-14 2.56826E-13
 -1      1605 2.00159E+01-1.87714E-03-2.34342E-04-4.00931E-03 1.06808E-13 4.28742E-13
 -1      1606 2.00071E+01-2.46070E-03 6.22051E-04-1.21271E-02 1.62480E-13 3.73346E-13
 -1      1607 2.00268E+01-4.37466E-04-5.46339E-05 2.89439E-04 4.69934E-14 4.41800E-14
 -1      1608 2.00256E+01-1.05731E-03-2.28006E-04-4.14953E-04 6.95302E-14 1.86742E-13
 -1      1609 2.00183E+01-1.23756E-03 3.70270E-04-3.28360E-03 1.79072E-13 2.94275E-13
 -1      1610 2.00250E+01-1.54827E-04-1.00031E-04 1.67793E-03-5.57470E-14 1.41183E-13
 -1      1611 2.00267E+01-5.25360E-04-1.93145E-04 1.34163E-03-1.19250E-14 4.16862E-14
 -1      1612 2.00212E+01-4.90614E-04 2.01187E-04 1.34880E-03-1.99883E-14 1.16283E-13
 -1      1613 2.00207E+01-7.49649E-07-1.06875E-04 2.10943E-03 9.28136E-14 1.44347E-13
 -1      1614 2.00235E+01-2.02479E-04-1.49448E-04 1.99261E-03-7.90299E-14 8.35410E-14
 -1      1615 2.00197E+01-7.24979E-05 9.40034E-05 3.36204E-03-1.03842E-13 8.40501E-14
 -1      1616 2.00158E+01 7.22279E-05-9.50131E-05 2.03070E-03 1.12532E-14-2.05123E-14
 -1      1617 2.00187E+01-2.18728E-05-1.07772E-04 2.03372E-03 7.41127E-14 1.37818E-13
 -1      1618 2.00163E+01 1.33798E-04 3.03203E-05 3.86605E-03 4.94077E-14 5.20468E-14
 -1      1619 2.00112E+01 9.74813E-05-7.62759E-05 1.71996E-03-2.36000E-14 8.78587E-14
 -1      1620 2.00138E+01 6.76062E-05-7.29724E-05 1.77998E-03-3.77524E-14 1.02077E-13
 -1      1621 2.00124E+01 2.13065E-04-4.43189E-06 3.58718E-03-2.66767E-14 5.61825E-14
 -1      1622 2.00074E+01 9.70319E-05-5.70333E-05 1.33852E-03-7.97524E-14 1.01712E-13
 -1      1623 2.00095E+01 1.02348E-04-4.63107E-05 1.41849E-03-6.63865E-14 9.30199E-14
 -1      1624 2.00088E+01 2.22450E-04-2.09600E-05 2.97134E-03-4.76225E-14 3.69611E-14
 -1      1625 2.00045E+01 8.45502E-05-4.02473E-05 9.71433E-04 2.07557E-13-2.78298E-13
 -1      1626 2.00061E+01 1.06714E-04-2.71957E-05 1.05130E-03 8.56912E-14-2.68214E-14
 -1      1627 2.00059E+01 1.98019E-04-2.66893E-05 2.27269E-03 7.66861E-14-1.47488E-13
 -1      1628 2.00025E+01 6.79778E-05-2.69443E-05 6.56972E-04 1.61541E-13-5.48892E-13
 -1      1629 2.00036E+01 9.61199E-05-1.42889E-05 7.27270E-04 2.58037E-13-2.15301E-13
 -1      1630 2.00036E+01 1.61032E-04-2.65174E-05 1.62186E-03 3.55444E-13 3.22155E-14
 -1      1631 2.00011E+01 5.15480E-05-1.71824E-05 4.06551E-04-1.67153E-13-6.18862E-13
 -1      1632 2.00018E+01 7.97628E-05-6.14502E-06 4.64034E-04-9.71069E-14-6.88423E-13
 -1      1633 2.00020E+01 1.23035E-04-2.35360E-05 1.07466E-03 1.30723E-13-2.31630E-13
 -1      1634 2.00003E+01 3.71479E-05-1.05780E-05 2.17631E-04-1.53533E-13-3.33903E-13
 -1      1635 2.00007E+01 6.26872E-05-1.51725E-06 2.62421E-04-6.57427E-14-4.49526E-13
 -1      1636 2.00009E+01 8.94741E-05-1.96181E-05 6.44698E-04-1.93653E-13-3.33414E-13
 -1      1637 1.99999E+01 2.51717E-05-6.19303E-06 8.21879E-05-4.02623E-14-3.95292E-13
 -1      1638 2.00000E+01 4.70598E-05 6.39720E-07 1.15778E-04-5.32192E-14-4.47154E-13
 -1      1639 2.00003E+01 6.19372E-05-1.57349E-05 3.24726E-04-2.14591E-14-3.49499E-13
 -1      1640 1.99997E+01 1.44379E-05-1.38175E-06-8.03213E-06 3.71104E-13-7.69129E-13
 -1      1641 1.99998E+01 3.28011E-05 1.64334E-06 1.62833E-05 2.20679E-13-5.31978E-13
 -1      1642 1.99999E+01 4.04398E-05-1.13518E-05 1.01286E-04 2.47713E-13-4.96183E-13
 -1      1643 1.99998E+01 2.69532E-07 1.00901E-05-4.88658E-05-1.28272E-14-1.08809E-12
 -1      1644 1.99997E+01 1.38288E-05 4.96059E-06-3.60946E-05 1.17569E-13-8.12700E-13
 -1      1645 1.99998E+01 1.42207E-05-4.82797E-06-3.31395E-05 2.64605E-13-7.31621E-13
 -1      1646 1.99998E+01-2.66029E-05 1.75395E-05-3.02796E-05-5.85277E-13-6.59109E-13
 -1      1647 1.99998E+01-9.09834E-05-2.46338E-06-2.33520E-05-1.00604E-12 5.43530E-14
 -1      1648 1.99998E+01-4.61073E-05 6.16135E-06-3.16613E-05-9.42879E-13-5.48262E-14
 -1      1649 1.99998E+01-3.20727E-05-4.19175E-06 3.23277E-05-1.01912E-12-1.00333E-13
 -1      1650 1.99998E+01-4.72988E-05-2.02019E-06 1.78790E-05-9.80333E-13-1.12760E-13
 -1      1651 1.99998E+01 5.64956E-05-4.56231E-06 8.45869E-06-4.51093E-13-7.47144E-14
 -1      1652 1.99998E+01 1.13046E-04-3.09795E-06 7.20194E-05-1.14536E-12-2.90883E-13
 -1      1653 1.99998E+01 4.68032E-05-2.60943E-06 6.53113E-05-9.42385E-13-1.07899E-13
 -1      1654 1.99998E+01 1.90496E-04-4.86590E-06 1.01996E-04-5.49499E-13-9.21496E-14
 -1      1655 1.99998E+01 2.87688E-04-1.34126E-06 7.81677E-05-1.00860E-12 5.23516E-14
 -1      1656 1.99998E+01 2.07752E-04-7.60452E-07 7.98689E-05-1.03781E-12-6.57347E-15
 -1      1657 1.99998E+01 3.75495E-04-6.21107E-07 1.52021E-04-6.24096E-13-7.49461E-14
 -1      1658 1.99998E+01 4.17906E-04-2.36305E-07 4.88068E-05-1.29254E-12-2.14523E-13
 -1      1659 1.99998E+01 3.67064E-04 4.81359E-07 5.72273E-05-1.07007E-12-3.04820E-13
 -1      1660 1.99998E+01 5.59795E-04 3.66534E-06 1.34468E-04-6.59003E-13-2.34533E-13
 -1      1661 1.99998E+01 4.50149E-04 2.72361E-07-6.63541E-06-1.33236E-12 7.48154E-14
 -1      1662 1.99998E+01 4.58296E-04 1.08904E-06 6.08402E-06-1.35989E-12-6.20401E-14
 -1      1663 1.99998E+01 6.88241E-04 6.91601E-06 5.59471E-05-6.54136E-13-1.70479E-13
 -1      1664 1.99998E+01 3.51507E-04 2.57365E-07-7.14949E-05-1.12012E-12 2.97058E-14
 -1      1665 1.99998E+01 4.32821E-04 1.05820E-06-5.83653E-05-1.34090E-12 1.51518E-13
 -1      1666 1.99998E+01 7.17655E-04 8.38272E-06-6.02384E-05-5.25151E-13 7.89669E-14
 -1      1667 1.99998E+01 1.28657E-04-1.54340E-07-1.27179E-04-6.42766E-13 3.41960E-13
 -1      1668 1.99998E+01 2.74001E-04 5.12788E-07-1.17398E-04-8.92780E-13 1.36299E-13
 -1      1669 1.99998E+01 6.26861E-04 7.76047E-06-1.80451E-04-3.86417E-13 2.80641E-13
 -1      1670 1.99998E+01-1.75594E-04-9.02608E-07-1.56400E-04-2.32595E-13 3.89564E-13
 -1      1671 1.99998E+01 3.88545E-06-4.96846E-07-1.53227E-04-7.79369E-13 5.50957E-13
 -1      1672 1.99998E+01 4.25705E-04 5.12664E-06-2.69835E-04-2.29607E-13 4.25849E-13
 -1      1673 1.99998E+01-4.90015E-04-1.92169E-06-1.46866E-04-1.50930E-13-1.11331E-13
 -1      1674 1.99998E+01-3.21341E-04-1.90117E-06-1.52346E-04-1.95665E-13 6.96564E-15
 -1      1675 1.99998E+01 1.52945E-04 9.48485E-07-2.98826E-04-4.79763E-13 3.67161E-13
 -1      1676 1.99998E+01-7.27665E-04-3.03086E-06-9.62423E-05-2.01265E-14 6.73003E-14
 -1      1677 1.99998E+01-6.20544E-04-3.52217E-06-1.09835E-04 4.17887E-14-2.11214E-13
 -1      1678 1.99998E+01-1.29135E-04-3.83656E-06-2.51251E-04-1.96494E-13-1.20286E-13
 -1      1679 1.99998E+01-8.24036E-04-3.91646E-06-1.07726E-05 1.99187E-14-1.47646E-13
 -1      1680 1.99998E+01-8.15165E-04-5.13540E-06-3.08986E-05 7.45495E-14-1.79902E-14
 -1      1681 1.99999E+01-3.56290E-04-8.16210E-06-1.29390E-04 7.39428E-15 9.27168E-14
 -1      1682 1.99998E+01-7.35609E-04-3.26214E-06 8.70529E-05-4.45600E-14 2.42813E-14
 -1      1683 1.99998E+01-8.43047E-04-5.86690E-06 6.64022E-05-5.08243E-14 7.60680E-14
 -1      1684 1.99999E+01-4.73448E-04-1.04472E-05 4.26732E-05 4.65365E-13-1.76834E-13
 -1      1685 1.99998E+01-4.91218E-04 1.23306E-06 1.59945E-04-1.38924E-13 1.63827E-13
 -1      1686 1.99998E+01-6.84248E-04-3.79236E-06 1.48606E-04-3.56059E-13 1.97798E-13
 -1      1687 1.99998E+01-4.52869E-04-9.13619E-06 2.12203E-04 2.23529E-14-7.71905E-14
 -1      1688 1.99998E+01-2.24906E-04 8.95916E-06 1.44141E-04-3.88858E-14-3.23520E-13
 -1      1689 1.99998E+01-4.25757E-04 3.95729E-06 1.58219E-04 2.01044E-13-1.42982E-13
 -1      1690 1.99998E+01-3.48366E-04-3.20578E-06 2.90116E-04-3.11425E-13 3.02794E-13
 -1      1691 1.99998E+01-1.97233E-04 5.75790E-06 2.30621E-04-1.22139E-14-4.16031E-13
 -1      1692-2.61287E-01-1.42502E+01-1.42131E+00 3.91838E-01 1.15441E-12 4.40925E-13
 -1      1693-5.55993E-01-1.82919E+01-1.80814E+00 1.62815E+00 7.73270E-13 1.43968E-13
 -1      1694 2.82790E+00-6.04881E+00-9.03755E-01 2.39601E+00 1.64002E-12 9.68586E-13
 -1      1695 1.53057E+00-1.23013E+01-1.51328E+00 1.26890E+00 1.19704E-12 5.90659E-13
 -1      1696 9.03040E+00 2.30642E+00-3.19184E-01 6.75173E+00 1.87916E-12 1.21070E-12
 -1      1697 5.28342E+00-3.50778E+00-1.12000E+00 3.37782E+00 1.83809E-12 1.03262E-12
 -1      1698 2.18468E+01 6.96129E+00 4.22289E-01 1.22672E+01 1.38090E-12 1.29308E-12
 -1      1699 1.42158E+01 3.80466E+00-4.54013E-01 8.30195E+00 1.65934E-12 1.27176E-12
 -1      1700 3.72825E+01 7.76688E+00 1.02221E+00 1.46102E+01 9.47797E-13 1.16351E-12
 -1      1701 2.72102E+01 8.29478E+00 2.74773E-01 1.30537E+01 1.26521E-12 1.37224E-12
 -1      1702 5.17502E+01 5.56937E+00 1.44753E+00 9.68018E+00 6.57797E-13 9.25926E-14
 -1      1703 4.24386E+01 7.52908E+00 8.60165E-01 1.22801E+01 8.74939E-13 8.23563E-13
 -1      1704 6.12076E+01 4.01539E+00 1.92689E+00 2.70504E+00 3.88994E-13-9.49130E-13
 -1      1705 5.70185E+01 5.29689E+00 1.61769E+00 8.80469E+00 4.71817E-13-1.09579E-13
 -1      1706 5.77887E+01 5.04930E+00 1.68254E+00-7.08438E+00 6.67355E-13-1.81427E-12
 -1      1707 6.07493E+01 4.09020E+00 1.84143E+00-6.99248E-01 4.58522E-13-1.23471E-12
 -1      1708 4.65716E+01 7.59671E+00 1.27325E+00-1.38843E+01 1.16737E-12-2.40197E-12
 -1      1709 5.52678E+01 5.30735E+00 1.79714E+00-1.04502E+01 7.40966E-13-2.15528E-12
 -1      1710 3.09495E+01 8.77185E+00 5.32752E-01-1.40216E+01 1.52467E-12-2.23199E-12
 -1      1711 4.11023E+01 7.97073E+00 1.37947E+00-1.49704E+01 1.34814E-12-2.46581E-12
 -1      1712 1.71672E+01 4.41203E+00-2.77170E-01-9.10757E+00 1.31350E-12-1.54010E-12
 -1      1713 2.57487E+01 6.91044E+00 6.02845E-01-1.28539E+01 1.39366E-12-1.98641E-12
 -1      1714 6.52653E+00-2.38182E+00-1.04231E+00-4.08531E+00 1.13687E-12-9.74332E-13
 -1      1715 1.11110E+01 3.14976E+00-2.19582E-01-7.87591E+00 1.37290E-12-1.38178E-12
 -1      1716 1.68813E+00-1.10570E+01-1.55234E+00-9.79695E-01 4.26548E-13-5.16198E-13
 -1      1717 3.14207E+00-4.78813E+00-9.09045E-01-2.49696E+00 9.69669E-13-8.13238E-13
 -1      1718-2.80433E-01-1.78441E+01-1.82590E+00-1.15706E+00-2.72227E-13-2.30149E-13
 -1      1719 3.64129E-02-1.32028E+01-1.41845E+00-2.70027E-01 2.08167E-13-3.52204E-13
 -1      1720-1.35599E+00-1.97957E+01-1.97453E+00-2.73571E+00-9.05817E-13-3.65763E-13
 -1      1721-9.98673E-01-1.89590E+01-1.80683E+00-7.25247E-01-4.41647E-13-2.20324E-13
 -1      1722-1.57239E+00-1.65963E+01-2.04857E+00-3.70391E+00-1.58773E-12-7.62473E-13
 -1      1723-1.14288E+00-1.97316E+01-2.12676E+00-2.50808E+00-1.14400E-12-5.08649E-13
 -1      1724 1.20168E+00-9.12732E+00-1.87868E+00-1.41118E+00-1.74749E-12-1.03184E-12
 -1      1725-4.62709E-03-1.48672E+01-2.27158E+00-2.79791E+00-1.76226E-12-8.32001E-13
 -1      1726 1.05063E+01-1.56378E+00-1.29173E+00 4.18658E+00-1.44595E-12-1.40510E-12
 -1      1727 5.13717E+00-7.17151E+00-2.14025E+00 1.78632E-01-1.66511E-12-1.15863E-12
 -1      1728 3.11240E+01 2.55990E+00 2.74906E-01 9.92840E+00-9.98090E-13-1.21814E-12
 -1      1729 1.85938E+01-7.07003E-01-1.31904E+00 5.24475E+00-1.30385E-12-1.32472E-12
 -1      1730 5.48625E+01 3.75456E+00 2.50607E+00 1.07675E+01-5.99742E-13-8.78186E-13
 -1      1731 3.89721E+01 4.05037E+00 4.41323E-01 9.86555E+00-8.96172E-13-1.18172E-12
 -1      1732 7.24162E+01 3.36192E+00 4.29364E+00 3.29729E+00-2.91434E-13-1.83187E-13
 -1      1733 6.03824E+01 4.76657E+00 2.76370E+00 8.06651E+00-5.54085E-13-5.94191E-13
 -1      1734 7.42701E+01 4.28046E+00 4.52357E+00-4.18203E+00-4.69624E-13 7.99583E-13
 -1      1735 7.54424E+01 4.26991E+00 4.72951E+00 2.92984E+00-3.45501E-13 1.34892E-13
 -1      1736 5.93598E+01 4.76117E+00 2.65724E+00-8.57205E+00-6.21558E-13 1.38467E-12
 -1      1737 7.14185E+01 3.47568E+00 4.24698E+00-4.48482E+00-4.65905E-13 8.97060E-13
 -1      1738 3.92788E+01 3.97323E+00 5.36676E-01-9.85800E+00-8.50320E-13 1.55254E-12
 -1      1739 5.39201E+01 3.70139E+00 2.37582E+00-1.08644E+01-5.72153E-13 1.67777E-12
 -1      1740 1.99734E+01-4.31399E-01-1.20632E+00-5.58626E+00-9.72999E-13 1.18350E-12
 -1      1741 3.18116E+01 2.47732E+00 3.07469E-01-9.79717E+00-8.84404E-13 1.38400E-12
 -1      1742 6.55904E+00-6.06356E+00-2.03287E+00-9.30019E-01-8.95284E-13 8.36331E-13
 -1      1743 1.20427E+01-9.59081E-01-1.21030E+00-4.79236E+00-1.02496E-12 1.10822E-12
 -1      1744 1.24095E+00-1.32993E+01-2.04607E+00 1.97635E+00-4.03566E-13 3.78642E-13
 -1      1745 2.81218E+00-7.82166E+00-1.73785E+00 2.05120E-01-6.31051E-13 7.06935E-13
 -1      1746-8.54574E-01-1.88003E+01-2.15326E+00 2.77077E+00-2.20435E-13 2.23960E-13
 -1      1747-1.15970E+00-1.49210E+01-2.00046E+00 3.43849E+00-4.55080E-13 1.33088E-13
 -1      1748 2.77691E+00-1.09823E+01-1.47418E+00-1.80819E+00-3.19744E-14 2.64011E-13
 -1      1749-1.06176E+00-1.93785E+01-1.84254E+00 1.11055E+00 6.31661E-13 3.63209E-13
 -1      1750-1.61515E+00-1.94944E+01-2.02865E+00 3.11420E+00-7.58282E-14 4.92273E-13
 -1      1751 4.18033E+01-6.85323E-01 7.65450E-02-6.49780E+00-4.87110E-13 1.09357E-13
 -1      1752 3.56127E+01 3.33797E-01-8.38680E-01-4.43744E+00-3.33622E-13-3.02314E-13
 -1      1753 3.03654E+01 1.22095E+00-1.76122E+00-3.66910E+00-3.23963E-13-6.28747E-13
 -1      1754 4.15638E+01 3.13430E+00-1.03097E-01-3.77975E+00-4.97824E-13-3.22936E-13
 -1      1755-1.80241E+00-1.24589E+01-1.28095E+00 2.48657E+00 4.80838E-13 5.43121E-13
 -1      1756 1.74395E+01-1.20861E+00-1.29939E-01 8.39192E+00 9.00391E-13 6.45706E-13
 -1      1757 1.99998E+01-4.30907E-05 7.58869E-06-5.62567E-05-7.44837E-13-4.49413E-13
 -1      1758 1.99998E+01 1.78953E-05 6.51166E-06-5.93266E-05-2.30762E-13-4.14568E-13
 -1      1759 1.63454E+00-9.82463E+00-1.01141E+00 4.67069E+00 5.83200E-13 6.48204E-13
 -1      1760 7.92307E+00-5.96392E+00-7.10440E-01 6.47503E+00 7.43738E-13 7.92394E-13
 -1      1761 2.88139E+01 2.78659E+00 4.41715E-01 9.10774E+00 8.60090E-13 6.08402E-13
 -1      1762 3.94776E+01 5.85510E+00 9.16976E-01 7.12896E+00 8.04412E-13 2.55573E-13
 -1      1763 4.74692E+01 7.68349E+00 1.15364E+00 3.85676E+00 9.12492E-13-2.44138E-13
 -1      1764 5.23695E+01 8.57455E+00 1.61701E+00 5.19379E-01 8.31446E-13-6.64677E-13
 -1      1765 4.99002E+01 8.12781E+00 1.50783E+00-4.45006E+00 7.94087E-13-1.14181E-12
 -1      1766 4.24421E+01 6.59315E+00 1.13625E+00-8.36541E+00 9.32442E-13-1.49170E-12
 -1      1767 3.12991E+01 2.96120E+00 3.91475E-01-8.70836E+00 7.54230E-13-1.40110E-12
 -1      1768 2.02248E+01-8.55583E-01 3.68481E-02-8.56423E+00 6.35492E-13-1.15885E-12
 -1      1769 9.29853E+00-5.14754E+00-5.94059E-01-6.71460E+00 4.32654E-13-9.39554E-13
 -1      1770 2.31981E+00-9.69808E+00-1.04948E+00-4.52050E+00 1.44440E-13-6.88921E-13
 -1      1771-1.40910E+00-1.25411E+01-1.29001E+00-2.75162E+00-1.85685E-13-4.54636E-13
 -1      1772-2.06899E+00-1.35187E+01-1.48889E+00-1.03602E+00-5.23526E-13-6.55365E-13
 -1      1773 1.00157E+00-1.21762E+01-1.56376E+00 7.85763E-01-8.17013E-13-6.75737E-13
 -1      1774 8.69651E+00-8.77545E+00-1.35538E+00 3.04657E+00-9.85989E-13-6.97775E-13
 -1      1775 2.28522E+01-5.48600E+00-6.82400E-01 4.56630E+00-7.83928E-13-7.27640E-13
 -1      1776 3.96704E+01-1.79498E+00 4.96805E-01 2.94383E+00-7.19369E-13-5.58442E-13
 -1      1777 5.36988E+01 3.27910E+00 2.13400E+00 6.30690E-02-6.75460E-13-2.64899E-13
 -1      1778 5.93811E+01 7.23871E+00 2.96661E+00-9.70299E-01-6.25611E-13 3.22520E-14
 -1      1779 5.96795E+01 6.78800E+00 2.96720E+00 1.04594E+00-6.65468E-13 1.79745E-13
 -1      1780 5.31337E+01 2.89207E+00 1.94679E+00-3.04301E-03-3.72369E-13 5.60885E-13
 -1      1781 3.97939E+01-1.66397E+00 5.58198E-01-3.30969E+00-3.64708E-13 5.87530E-13
 -1      1782 2.39969E+01-5.19891E+00-6.54196E-01-4.46434E+00-4.49751E-13 5.65770E-13
 -1      1783 1.07155E+01-8.26421E+00-1.25109E+00-3.57995E+00-1.82521E-13 6.57557E-13
 -1      1784 2.29188E+01 2.00677E+00-2.67077E-02-2.77447E+00-2.15120E-13 4.18693E-13
 -1      1785-1.41541E+00-1.32516E+01-1.47251E+00 6.73614E-01 1.35697E-13 4.77229E-13
 -1      1786 1.98316E+01 3.72022E+00-3.49996E-02-2.14286E+00-1.61458E-13-4.05443E-13
 -1      1787 2.00615E+01 3.55887E+00-4.36376E-02-2.42864E+00-2.14773E-13-3.63858E-13
 -1      1788 2.03741E+01 3.17802E+00-4.59303E-02-2.57979E+00-2.35184E-13-2.86916E-13
 -1      1789 2.05889E+01 2.81642E+00-1.38921E-01-2.85604E+00-2.83260E-13-1.85262E-13
 -1      1790 2.04613E+01 2.68677E+00 4.88059E-03-2.21598E+00-2.46597E-13-2.93775E-13
 -1      1791 1.93559E+01 4.19634E+00-2.01998E-02-1.26110E+00 5.70008E-15-4.42885E-13
 -1      1792 1.94316E+01 4.15604E+00-1.70504E-02-1.48441E+00-3.00354E-14-4.52190E-13
 -1      1793 1.92549E+01 4.30336E+00-1.68061E-02-8.53070E-01 7.15753E-14-4.07081E-13
 -1      1794 1.92998E+01 4.27933E+00-1.42168E-02-1.06233E+00 3.64155E-14-4.35131E-13
 -1      1795 1.95258E+01 3.79361E+00-9.05107E-03-1.11024E+00 1.62807E-14-4.15688E-13
 -1      1796 1.91999E+01 4.36412E+00-1.47592E-02-4.63941E-01 1.43826E-13-3.57029E-13
 -1      1797 1.92234E+01 4.35135E+00-1.32607E-02-6.62483E-01 1.10807E-13-3.85199E-13
 -1      1798 1.94239E+01 3.91543E+00-9.04355E-03-7.27406E-01 9.55640E-14-3.74504E-13
 -1      1799 1.91788E+01 4.38906E+00-1.35805E-02-8.46486E-02 2.10774E-13-3.12007E-13
 -1      1800 1.91859E+01 4.38542E+00-1.31827E-02-2.78343E-01 1.79134E-13-3.39010E-13
 -1      1801 1.93705E+01 3.97977E+00-9.01894E-03-3.56770E-01 1.68624E-13-3.29143E-13
 -1      1802 1.91868E+01 4.38239E+00-1.30581E-02 2.93661E-01 2.62917E-13-2.65453E-13
 -1      1803 1.91790E+01 4.38726E+00-1.37349E-02 9.95835E-02 2.40168E-13-2.97781E-13
 -1      1804 1.93544E+01 3.99777E+00-9.04563E-03 7.98268E-03 2.36935E-13-2.87135E-13
 -1      1805 1.92254E+01 4.34351E+00-1.32143E-02 6.79696E-01 3.02112E-13-2.03381E-13
 -1      1806 1.92013E+01 4.35764E+00-1.49097E-02 4.80076E-01 2.86779E-13-2.48166E-13
 -1      1807 1.93724E+01 3.97290E+00-9.13383E-03 3.73624E-01 2.91445E-13-2.43038E-13
 -1      1808 1.93013E+01 4.26850E+00-1.43004E-02 1.07554E+00 3.37010E-13-1.12828E-13
 -1      1809 1.92566E+01 4.29332E+00-1.69731E-02 8.68358E-01 3.17369E-13-1.69607E-13
 -1      1810 1.94271E+01 3.90304E+00-9.17683E-03 7.43334E-01 3.32374E-13-1.69460E-13
 -1      1811 1.94359E+01 4.13991E+00-1.73400E-02 1.50456E+00 3.83806E-13 2.70409E-14
 -1      1812 1.93579E+01 4.18273E+00-2.05091E-02 1.27547E+00 3.53924E-13-4.81143E-14
 -1      1813 1.95298E+01 3.77690E+00-9.25245E-03 1.12561E+00 3.60503E-13-6.51354E-14
 -1      1814 1.96676E+01 3.92256E+00-2.52687E-02 1.96920E+00 4.13503E-13 2.01384E-13
 -1      1815 1.95337E+01 3.99952E+00-2.69298E-02 1.71206E+00 3.95052E-13 9.92401E-14
 -1      1816 1.97063E+01 3.56796E+00-8.85654E-03 1.52480E+00 4.01099E-13 8.12111E-14
 -1      1817 2.00835E+01 3.52249E+00-4.42446E-02 2.46573E+00 3.93630E-13 4.74121E-13
 -1      1818 1.98441E+01 3.68420E+00-3.79795E-02 2.17067E+00 3.99823E-13 3.03941E-13
 -1      1819 2.00049E+01 3.22247E+00-6.29327E-03 1.92091E+00 4.12930E-13 2.63900E-13
 -1      1820 2.09254E+01 2.66883E+00-6.20306E-02 2.84614E+00 3.17592E-13 8.94368E-13
 -1      1821 2.04184E+01 3.09982E+00-4.96629E-02 2.60356E+00 3.49581E-13 6.49363E-13
 -1      1822 2.05038E+01 2.60860E+00-6.83924E-04 2.22820E+00 3.73968E-13 5.51989E-13
 -1      1823 2.17362E+01 1.21080E+00-1.23303E-01 2.32141E+00 2.17916E-13 1.34898E-12
 -1      1824 2.12840E+01 2.27156E+00 3.27683E-03 2.73317E+00 2.66698E-13 1.05878E-12
 -1      1825 2.09664E+01 1.68851E+00-1.36727E-02 2.13623E+00 3.11917E-13 8.80136E-13
 -1      1826 2.09688E+01 7.78308E-01-6.05127E-02 1.51635E+00 2.30149E-13 1.27256E-12
 -1      1827 2.18247E+01 2.48880E+00 9.18450E-02-3.07883E+00-2.68834E-13 2.99205E-14
 -1      1828 2.01335E+01 2.99533E-01-4.89259E-03 6.55944E-01 1.82299E-13 1.12005E-12
 -1      1829 2.06613E+01 4.38184E-01-1.42796E-02 1.02628E+00 1.89120E-13 1.19306E-12
 -1      1830 2.07581E+01 8.46712E-01 5.37566E-03 1.40047E+00 2.37775E-13 9.59280E-13
 -1      1831-3.27882E-01-8.49828E+00-4.85773E-01-1.74973E-01 2.79762E-13 5.92637E-13
 -1      1832 1.41120E+00-8.46868E+00-5.24932E-01-1.57696E+00 1.10245E-13 1.99840E-13
 -1      1833 4.86572E+01 2.74037E+00 6.71311E-01-3.67009E+00-5.47340E-13-5.71765E-14
 -1      1834 4.72300E+01 5.09434E+00 6.42248E-01-1.34778E+00-5.42233E-13-3.68483E-13
 -1      1835 2.05594E+01 5.23450E-01 2.87527E-02-9.54902E-01-2.38278E-13-4.32169E-14
 -1      1836 2.01305E+01 3.73879E-01 8.80874E-03-6.43821E-01-2.04337E-13-9.93424E-14
 -1      1837 1.99351E+01 2.68766E-01 2.69050E-02-3.95878E-01-1.74653E-13-9.33654E-14
 -1      1838 1.97456E+01 1.88227E-01 1.09940E-02-2.51100E-01-1.36596E-13-1.43551E-13
 -1      1839 2.02386E+01 5.10654E-01-4.42115E-03-7.33483E-01-2.23676E-13-1.45875E-13
 -1      1840 1.96258E+01 1.43026E-01 1.72566E-02-1.09381E-01-1.35434E-13-1.41596E-13
 -1      1841 1.95535E+01 1.04310E-01 7.95811E-03-3.20117E-02-1.28999E-13-1.83165E-13
 -1      1842 1.99145E+01 2.59897E-01-6.00675E-03-2.87639E-01-1.72269E-13-1.76736E-13
 -1      1843 1.94946E+01 8.09097E-02 9.16442E-03 5.12636E-02-1.12365E-13-1.83453E-13
 -1      1844 1.94936E+01 6.25890E-02 5.64684E-03 9.59261E-02-8.24154E-14-2.00050E-13
 -1      1845 1.97401E+01 1.43946E-01-4.99923E-03-3.01068E-02-1.36930E-13-1.78092E-13
 -1      1846 1.94779E+01 5.17817E-02 4.79958E-03 1.46129E-01-5.21226E-14-1.96636E-13
 -1      1847 1.95186E+01 4.50414E-02 4.78951E-03 1.74538E-01-5.20586E-14-2.11452E-13
 -1      1848 1.96711E+01 8.77078E-02-4.08415E-03 1.22943E-01-7.59764E-14-1.76540E-13
 -1      1849 1.95323E+01 4.13329E-02 2.55127E-03 2.13885E-01-2.20448E-14-1.95559E-13
 -1      1850 1.96073E+01 4.34572E-02 5.10791E-03 2.40161E-01 6.52603E-15-1.68802E-13
 -1      1851 1.96728E+01 6.67919E-02-2.90148E-03 2.25786E-01-3.64405E-14-1.57607E-13
 -1      1852 1.96432E+01 4.76062E-02 1.46723E-03 2.78593E-01-1.88619E-14-1.84509E-13
 -1      1853 1.97499E+01 5.89789E-02 6.63075E-03 3.11158E-01-2.16463E-14-1.52228E-13
 -1      1854 1.97265E+01 7.05551E-02-2.07273E-03 3.14236E-01 5.86629E-15-1.31371E-13
 -1      1855 1.98033E+01 7.17484E-02 9.23878E-04 3.61686E-01-6.89297E-14-1.25880E-13
 -1      1856 1.99492E+01 9.52771E-02 9.62704E-03 4.12009E-01-3.76901E-14-1.62480E-13
 -1      1857 1.98207E+01 1.01569E-01-1.33755E-03 4.13808E-01-3.14388E-14-1.47573E-13
 -1      1858 2.00173E+01 1.19646E-01 5.84341E-04 4.89819E-01-2.73271E-14-1.57721E-13
 -1      1859 2.02204E+01 1.60495E-01 1.44524E-02 5.73396E-01-5.26081E-14-1.58437E-13
 -1      1860 1.99495E+01 1.66880E-01-4.80541E-04 5.55079E-01-4.91441E-14-1.25973E-13
 -1      1861 2.02999E+01 2.01664E-01-8.95253E-05 6.98464E-01-7.36806E-14-1.37260E-13
 -1      1862 2.05899E+01 2.67751E-01 2.13841E-02 8.37334E-01-2.52177E-14-1.47039E-13
 -1      1863 2.01097E+01 2.80624E-01 9.02528E-04 7.75655E-01-4.50009E-14-6.63983E-14
 -1      1864 2.06732E+01 3.32917E-01-2.07147E-03 1.03652E+00-1.52690E-14-1.87254E-13
 -1      1865 2.10933E+01 4.33655E-01 3.01128E-02 1.26107E+00 1.39107E-14-2.16712E-13
 -1      1866 2.02950E+01 4.63926E-01 3.42965E-03 1.12458E+00-3.95161E-14-1.08531E-13
 -1      1867 2.11626E+01 5.28942E-01-6.86696E-03 1.56783E+00 4.49293E-15-2.42944E-13
 -1      1868 2.17632E+01 6.68706E-01 3.85035E-02 1.91429E+00-1.52326E-14-2.64897E-13
 -1      1869 2.04873E+01 7.39733E-01 8.00609E-03 1.66364E+00-1.79882E-14-1.90180E-13
 -1      1870 2.17807E+01 7.79336E-01-1.55853E-02 2.34009E+00 6.57287E-15-2.82463E-13
 -1      1871 2.25876E+01 9.28381E-01 4.53660E-02 2.79642E+00 9.79425E-15-2.43609E-13
 -1      1872 2.06439E+01 1.10611E+00 1.86734E-02 2.43249E+00-1.87697E-14-1.85883E-13
 -1      1873 2.25383E+01 1.02593E+00-1.90291E-02 3.39252E+00 6.16469E-14-1.90811E-13
 -1      1874 2.36580E+01 1.08914E+00 5.79296E-02 3.95895E+00 1.27244E-13-1.46097E-13
 -1      1875 2.06965E+01 1.47961E+00 3.16161E-02 3.48638E+00 8.00401E-14-1.20925E-13
 -1      1876 2.35775E+01 9.83201E-01 1.11155E-02 4.63639E+00 1.78189E-13-9.04068E-14
 -1      1877 2.49644E+01 6.53575E-01 8.61860E-02 5.02042E+00 2.15671E-13-1.90386E-14
 -1      1878 2.06077E+01 1.55119E+00 6.03700E-02 4.79721E+00 2.03844E-13-1.46237E-14
 -1      1879 2.51707E+01-4.03119E-03 1.22185E-01 5.46791E+00 2.81775E-13 2.82344E-14
 -1      1880 2.66848E+01-1.20394E+00 1.09105E-01 5.09566E+00 3.07421E-13 1.10689E-13
 -1      1881 2.06341E+01 5.24463E-01 1.21847E-01 6.00527E+00 3.02217E-13 9.89833E-14
 -1      1882 3.86974E+01-3.18475E+00 7.48145E-02 3.39375E+00 1.48118E-13-5.39013E-13
 -1      1883 3.78265E+01-4.00717E+00 1.69258E-01 1.15281E+00 3.42670E-13-5.56610E-13
 -1      1884 3.43930E+01-3.52829E+00 1.11152E-01-9.42169E-01 4.47531E-13-6.03538E-13
 -1      1885 3.31937E+01-2.47066E+00 2.57831E-01-2.84625E+00 5.00211E-13-3.84769E-13
 -1      1886 3.11864E+01-1.26183E+00 1.16493E-01-3.97083E+00 4.24771E-13-3.62994E-13
 -1      1887 2.93913E+01-1.96669E-01 1.52392E-01-4.63010E+00 2.30288E-13-1.45939E-13
 -1      1888 2.76217E+01-2.68222E+00 7.15764E-02-4.86866E+00 5.34850E-13-1.86212E-13
 -1      1889 2.84132E+01 2.35903E-01 5.48622E-02-4.44368E+00 2.27318E-14-2.56038E-13
 -1      1890 2.66892E+01 6.22728E-01 2.41192E-02-4.20651E+00-5.83839E-14-2.60680E-13
 -1      1891 2.51195E+01-1.88070E-02 6.13953E-02-5.52119E+00 1.06803E-13-1.33206E-13
 -1      1892 2.60971E+01 6.57333E-01 2.62742E-02-3.59454E+00-7.60260E-14-2.83773E-13
 -1      1893 2.45985E+01 6.99218E-01-1.80889E-02-3.10762E+00-9.96824E-14-3.25240E-13
 -1      1894 2.37591E+01 9.52837E-01 3.13417E-02-4.64273E+00-9.11944E-14-1.88901E-13
 -1      1895 2.41864E+01 6.04070E-01 2.32278E-02-2.50984E+00-8.98032E-14-3.26281E-13
 -1      1896 2.30913E+01 5.30327E-01-1.65580E-02-2.08061E+00 1.20225E-13-2.30429E-13
 -1      1897 2.27626E+01 9.94880E-01 1.23506E-02-3.36745E+00-6.82787E-14-1.08746E-13
 -1      1898 2.27726E+01 4.36297E-01 2.36609E-02-1.63117E+00 2.64708E-13-2.55960E-13
 -1      1899 2.20303E+01 3.52663E-01-7.92556E-03-1.32459E+00 6.66932E-14-2.60003E-13
 -1      1900 2.19785E+01 7.48171E-01 5.81175E-03-2.25796E+00 1.42391E-13 1.12440E-14
 -1      1901 2.17893E+01 2.86039E-01 2.07082E-02-1.02056E+00-9.51704E-14-2.19214E-13
 -1      1902 2.13087E+01 2.21231E-01-2.37077E-03-8.20554E-01-2.14061E-13-1.69259E-13
 -1      1903 2.13715E+01 4.97581E-01 3.30430E-03-1.44881E+00-4.55087E-14-3.06107E-13
 -1      1904 2.11343E+01 1.79055E-01 1.57567E-02-6.25410E-01-1.33231E-13-9.28378E-14
 -1      1905 2.08316E+01 1.34877E-01-2.16396E-05-5.00482E-01-1.58901E-15 7.19065E-14
 -1      1906 2.09251E+01 3.12608E-01 1.78958E-03-9.06121E-01-1.03755E-13-7.94391E-14
 -1      1907 2.07105E+01 1.09478E-01 1.09422E-02-3.78751E-01 1.16464E-13 2.50209E-13
 -1      1908 2.05230E+01 8.10505E-02 6.81887E-04-3.02431E-01 1.96858E-13 2.41385E-13
 -1      1909 2.06113E+01 1.90851E-01 7.56774E-04-5.58075E-01 1.24580E-13 1.08567E-13
 -1      1910 2.04412E+01 6.60326E-02 7.17200E-03-2.27719E-01 4.98000E-14 2.40751E-13
 -1      1911 2.03268E+01 4.84740E-02 8.94082E-04-1.81698E-01-6.01429E-15 1.06381E-13
 -1      1912 2.03980E+01 1.14797E-01 1.65031E-04-3.40416E-01 1.05359E-13 3.09629E-13
 -1      1913 2.02753E+01 4.02967E-02 4.62847E-03-1.38294E-01-3.17088E-14 9.00138E-14
 -1      1914 2.02077E+01 2.95902E-02 7.13058E-04-1.11580E-01 9.08642E-14-4.75920E-14
 -1      1915 2.02589E+01 6.86426E-02-3.84703E-04-2.08464E-01-8.09671E-14 1.45777E-13
 -1      1916 2.01712E+01 2.41439E-02 2.88984E-03-8.33706E-02-5.53474E-14-2.31143E-13
 -1      1917 2.01279E+01 1.73833E-02 4.72121E-04-6.64812E-02-2.02965E-13-2.58789E-13
 -1      1918 2.01676E+01 4.17246E-02-1.92681E-04-1.27727E-01-1.51928E-13 1.35003E-13
 -1      1919 2.01045E+01 1.44004E-02 1.81102E-03-4.95920E-02-3.41829E-13-3.34615E-13
 -1      1920 2.00783E+01 1.02321E-02 3.34662E-04-3.95360E-02-1.81598E-13-3.58988E-13
 -1      1921 2.01065E+01 2.46048E-02-2.12093E-04-7.68626E-02-3.31683E-13-3.07684E-13
 -1      1922 2.00633E+01 8.53949E-03 1.11265E-03-2.94225E-02 1.47560E-13-3.44923E-13
 -1      1923 2.00476E+01 6.01646E-03 2.32725E-04-2.34555E-02 3.91522E-13-1.87475E-13
 -1      1924 2.00671E+01 1.44840E-02-1.83140E-04-4.61443E-02 7.48045E-16-1.67991E-13
 -1      1925 2.00379E+01 5.05725E-03 6.79891E-04-1.74080E-02 4.58498E-13-2.99680E-13
 -1      1926 2.00285E+01 3.53572E-03 1.59484E-04-1.38690E-02 3.28264E-13-3.17446E-13
 -1      1927 2.00420E+01 8.51166E-03-1.43966E-04-2.76422E-02 3.83154E-13-1.26747E-13
 -1      1928 2.00223E+01 2.99671E-03 4.14356E-04-1.02526E-02 1.75113E-13-4.19606E-13
 -1      1929 2.00167E+01 2.08056E-03 1.08532E-04-8.15119E-03 1.83085E-13-3.49104E-13
 -1      1930 2.00259E+01 4.99896E-03-1.07835E-04-1.65082E-02 1.91586E-13-3.85523E-13
 -1      1931 2.00127E+01 1.78069E-03 2.52317E-04-5.98388E-03-3.93941E-14-2.00606E-13
 -1      1932 2.00094E+01 1.22949E-03 7.40944E-05-4.73189E-03-1.30293E-13-2.75692E-13
 -1      1933 2.00157E+01 2.93990E-03-7.84949E-05-9.80060E-03 5.62329E-14-4.46799E-13
 -1      1934 2.00069E+01 1.06069E-03 1.52572E-04-3.42597E-03-5.77782E-14-4.12330E-13
 -1      1935 2.00049E+01 7.35433E-04 5.28434E-05-2.67775E-03-1.03507E-13-5.07896E-13
 -1      1936 2.00093E+01 1.73866E-03-5.53220E-05-5.74584E-03-1.54752E-13-4.42038E-13
 -1      1937 2.00034E+01 6.50372E-04 9.36498E-05-1.91844E-03-1.05523E-13-6.69687E-13
 -1      1938 2.00024E+01 4.56045E-04 3.68319E-05-1.48048E-03 1.55879E-14-6.31643E-13
 -1      1939 2.00053E+01 1.03007E-03-4.45240E-05-3.31721E-03-1.17628E-13-6.29133E-13
 -1      1940 2.00014E+01 3.99019E-04 5.79177E-05-9.81234E-04 4.37602E-14-5.41338E-13
 -1      1941 2.00008E+01 2.73837E-04 2.40801E-05-6.95844E-04 4.14937E-14-5.47958E-13
 -1      1942 2.00028E+01 6.37955E-04-2.82144E-05-1.82644E-03 2.51387E-14-6.15033E-13
 -1      1943 2.00002E+01 2.48821E-04 3.61550E-05-3.88617E-04 1.40964E-13-4.74997E-13
 -1      1944 1.99999E+01 1.67470E-04 1.61208E-05-2.10824E-04 3.25023E-14-1.89885E-13
 -1      1945 2.00012E+01 3.86394E-04-2.01575E-05-8.66419E-04 1.42740E-13-4.93710E-13
 -1      1946 1.99996E+01 1.55580E-04 2.20053E-05-2.05792E-05 1.94409E-13-8.53909E-14
 -1      1947 1.99995E+01 1.00647E-04 1.03459E-05 8.98976E-05 4.02460E-13-1.44718E-14
 -1      1948 2.00003E+01 2.36314E-04-1.41518E-05-2.66935E-04 1.86806E-13-1.22688E-13
 -1      1949 1.99994E+01 9.39522E-05 1.28900E-05 2.03873E-04 4.52946E-14 8.08786E-14
 -1      1950 1.99994E+01 5.16005E-05 5.57561E-06 2.68214E-04-2.72353E-13 6.83477E-14
 -1      1951 1.99999E+01 1.40095E-04-9.78466E-06 1.04035E-04 1.84470E-13-1.67697E-13
 -1      1952 1.99994E+01 4.40326E-05 7.44864E-06 3.24680E-04-1.64266E-13 2.05245E-13
 -1      1953 1.99995E+01 2.36860E-06 1.93966E-06 3.48363E-04 9.42433E-14 2.54960E-13
 -1      1954 1.99997E+01 6.57616E-05-6.34059E-06 3.17057E-04-6.67473E-14-6.28819E-14
 -1      1955 1.99995E+01-1.93045E-05 4.38887E-06 3.49311E-04-1.80010E-13 3.02490E-13
 -1      1956 1.99996E+01-6.84979E-05 1.23376E-07 3.17882E-04-1.28680E-14 7.74142E-14
 -1      1957 1.99997E+01-1.37210E-05-1.66150E-06 3.97898E-04-4.19148E-14 3.11744E-13
 -1      1958 1.99997E+01-9.77508E-05 2.83996E-06 3.04854E-04-5.68669E-15-1.79486E-13
 -1      1959 1.99997E+01-1.35315E-04 3.62418E-06 2.59822E-04-5.30951E-14-2.41478E-13
 -1      1960 1.99998E+01-2.08788E-04 6.74690E-06 3.17308E-04-2.26494E-13-4.87346E-14
 -1      1961 1.99997E+01-1.13984E-04 3.21146E-06 3.72259E-04-1.97364E-13 2.90805E-13
 -1      1962 2.15400E+01 1.77367E+00 8.00802E-02-2.36015E+00-2.73091E-13-4.19664E-14
 -1      1963 1.95343E+01 1.11560E-01 9.47638E-03 1.20959E-01 1.12718E-13 8.44315E-13
 -1      1964 1.96479E+01 1.58525E-01 1.71029E-02 2.14227E-01 1.21002E-13 8.87799E-13
 -1      1965 1.94063E+01 5.53171E-02 5.78700E-03-1.78340E-02 8.51324E-14 7.78365E-13
 -1      1966 1.94412E+01 8.11356E-02 1.18512E-02 2.76954E-02 8.71976E-14 8.05124E-13
 -1      1967 1.97328E+01 1.52291E-01-4.65264E-03 1.47322E-01 1.34812E-13 5.69197E-13
 -1      1968 1.93732E+01 2.24471E-02 3.08263E-03-8.66844E-02 7.55990E-14 7.25826E-13
 -1      1969 1.93632E+01 3.80526E-02 6.05644E-03-6.62248E-02 8.58031E-14 7.62525E-13
 -1      1970 1.96000E+01 7.26387E-02-3.95460E-03-1.93609E-02 1.12612E-13 5.13320E-13
 -1      1971 1.93910E+01 4.96892E-04 1.25562E-03-1.10964E-01 6.59440E-14 6.65785E-13
 -1      1972 1.93609E+01 1.10924E-02 2.67381E-03-1.06293E-01 6.85388E-14 7.03995E-13
 -1      1973 1.95497E+01 2.51041E-02-2.67275E-03-1.00842E-01 1.02172E-13 4.84274E-13
 -1      1974 1.94285E+01-1.63607E-02-1.66309E-04-1.03983E-01 3.39596E-14 6.38323E-13
 -1      1975 1.93949E+01-8.00889E-03 7.52800E-04-1.10877E-01 1.80833E-14 6.42149E-13
 -1      1976 1.95453E+01-7.00223E-03-1.48445E-03-1.27080E-01 6.59079E-14 4.21228E-13
 -1      1977 1.94621E+01-3.13400E-02-1.44367E-03-7.18824E-02 1.21628E-14 6.54408E-13
 -1      1978 1.94374E+01-2.36860E-02-4.22070E-04-8.86047E-02 2.95104E-14 6.42246E-13
 -1      1979 1.95612E+01-3.22138E-02-4.74942E-04-1.13321E-01 2.23471E-14 4.07923E-13
 -1      1980 1.94727E+01-4.61659E-02-2.67234E-03-1.68253E-02 8.41844E-14 6.52645E-13
 -1      1981 1.94672E+01-3.84053E-02-1.20042E-03-4.29855E-02 5.34631E-14 6.75001E-13
 -1      1982 1.95778E+01-5.50855E-02 3.87905E-04-6.66516E-02 3.59708E-14 4.17725E-13
 -1      1983 1.94431E+01-6.12911E-02-3.83402E-03 6.08813E-02 1.39835E-13 5.86959E-13
 -1      1984 1.94665E+01-5.33103E-02-1.74794E-03 2.51619E-02 1.31225E-13 6.28248E-13
 -1      1985 1.95788E+01-7.78367E-02 1.16901E-03 1.03486E-02 1.28357E-13 4.25217E-13
 -1      1986 1.93576E+01-7.56951E-02-4.80799E-03 1.60736E-01 9.27791E-14 5.11677E-13
 -1      1987 1.94185E+01-6.81984E-02-2.13672E-03 1.15710E-01 1.35887E-13 5.62741E-13
 -1      1988 1.95496E+01-1.00591E-01 1.91573E-03 1.16902E-01 1.50957E-13 3.91276E-13
 -1      1989 1.92024E+01-8.66009E-02-5.37794E-03 2.79663E-01-7.77165E-14 5.17511E-13
 -1      1990 1.93080E+01-8.12454E-02-2.38090E-03 2.27013E-01-5.68404E-15 4.83771E-13
 -1      1991 1.94766E+01-1.21061E-01 2.62919E-03 2.51285E-01 6.29898E-14 3.48395E-13
 -1      1992 1.89679E+01-8.94780E-02-5.26718E-03 4.09409E-01-6.59702E-14 5.04828E-13
 -1      1993 1.91221E+01-8.88091E-02-2.44860E-03 3.53353E-01-9.82339E-14 5.08570E-13
 -1      1994 1.93475E+01-1.34252E-01 3.23788E-03 4.07679E-01-8.51784E-14 2.89718E-13
 -1      1995 1.86527E+01-7.87790E-02-4.22412E-03 5.34391E-01-1.33060E-14 5.27283E-13
 -1      1996 1.88537E+01-8.57255E-02-2.26366E-03 4.82472E-01-1.15739E-14 5.14108E-13
 -1      1997 1.91530E+01-1.32783E-01 3.57479E-03 5.72926E-01-6.68818E-14 3.11249E-13
 -1      1998 1.82677E+01-4.97790E-02-2.15799E-03 6.31327E-01 6.38077E-14 4.82728E-13
 -1      1999 1.85054E+01-6.65479E-02-1.70954E-03 5.94242E-01 2.67679E-14 5.12630E-13
 -1      2000 1.88904E+01-1.08493E-01 3.38106E-03 7.24259E-01 8.23864E-15 2.28825E-13
 -1      2001 1.78404E+01-1.39712E-03 7.21747E-04 6.72210E-01 1.01492E-13 4.91560E-13
 -1      2002 1.80949E+01-2.79281E-02-6.53275E-04 6.62047E-01 1.01051E-13 4.88882E-13
 -1      2003 1.85681E+01-5.56880E-02 2.36793E-03 8.29804E-01 9.34421E-14 2.65270E-13
 -1      2004 1.74158E+01 6.10382E-02 3.85652E-03 6.31524E-01 7.84707E-14 5.05526E-13
 -1      2005 1.76585E+01 2.83868E-02 9.95645E-04 6.58210E-01 9.87142E-14 4.68301E-13
 -1      2006 1.82098E+01 2.45558E-02 3.67737E-04 8.53805E-01 1.09177E-13 2.89317E-13
 -1      2007 1.70515E+01 1.24986E-01 6.47105E-03 4.96436E-01-4.11177E-14 4.89137E-13
 -1      2008 1.72490E+01 9.34580E-02 3.17960E-03 5.63285E-01 2.08986E-14 5.18594E-13
 -1      2009 1.78561E+01 1.21029E-01-2.45165E-03 7.67110E-01 5.01617E-14 3.82864E-13
 -1      2010 1.68071E+01 1.73602E-01 7.88091E-03 2.75890E-01 5.55072E-14 4.96886E-13
 -1      2011 1.69282E+01 1.52013E-01 5.58717E-03 3.76295E-01-3.41303E-14 4.95777E-13
 -1      2012 1.75604E+01 2.12774E-01-5.45307E-03 5.60419E-01-2.52615E-14 2.69155E-13
 -1      2013 1.67282E+01 1.92159E-01 7.81286E-03 2.96451E-03 3.06465E-14 4.61339E-13
 -1      2014 1.67519E+01 1.87286E-01 7.62734E-03 1.20546E-01 7.21376E-14 5.16832E-13
 -1      2015 1.73765E+01 2.75025E-01-7.66445E-03 2.54193E-01 2.95913E-14 3.53304E-13
 -1      2016 1.68323E+01 1.74858E-01 6.51492E-03-2.72955E-01 7.06765E-14 5.38993E-13
 -1      2017 1.67534E+01 1.88202E-01 8.60828E-03-1.59877E-01 4.79798E-14 5.38023E-13
 -1      2018 1.73425E+01 2.89030E-01-8.24471E-03-1.01823E-01 6.93499E-14 4.02500E-13
 -1      2019 1.71027E+01 1.27668E-01 4.56827E-03-5.01845E-01 8.05042E-15 5.70684E-13
 -1      2020 1.69336E+01 1.54723E-01 8.04869E-03-4.13218E-01 6.08294E-14 5.40627E-13
 -1      2021 1.74672E+01 2.50643E-01-6.98415E-03-4.42194E-01 6.12540E-14 5.01773E-13
 -1      2022 1.74940E+01 6.53349E-02 2.58476E-03-6.48981E-01-1.12060E-13 4.14150E-13
 -1      2023 1.72606E+01 9.78157E-02 5.97364E-03-5.96899E-01-4.29370E-14 4.79157E-13
 -1      2024 1.77269E+01 1.72260E-01-4.43622E-03-7.07115E-01-3.64992E-14 3.63881E-13
 -1      2025 1.79467E+01 4.62574E-03 9.62659E-04-7.03502E-01 1.52957E-13 2.61545E-13
 -1      2026 1.76814E+01 3.41428E-02 2.92635E-03-6.89786E-01-2.37690E-14 3.24410E-13
 -1      2027 1.80747E+01 7.69888E-02-1.54857E-03-8.60798E-01 2.26380E-14 1.15404E-13
 -1      2028 1.84030E+01-4.20127E-02-1.58989E-04-6.76863E-01 1.00790E-13 1.90722E-13
 -1      2029 1.81371E+01-2.09920E-02-2.83083E-04-6.94755E-01 1.85021E-13 2.83624E-13
 -1      2030 1.84561E+01-1.12624E-02 8.44851E-04-8.98522E-01 1.31034E-13 2.86930E-14
 -1      2031 1.88193E+01-6.93954E-02-8.21900E-04-5.94031E-01 7.73043E-14 1.97904E-13
 -1      2032 1.85766E+01-5.85572E-02-2.92700E-03-6.32320E-01 8.61067E-14 1.55339E-13
 -1      2033 1.88243E+01-7.61127E-02 2.33711E-03-8.41217E-01 1.46662E-13 1.58137E-13
 -1      2034 1.91700E+01-7.87607E-02-1.13757E-03-4.83049E-01-6.40399E-14 2.10749E-13
 -1      2035 1.89650E+01-7.67635E-02-4.60317E-03-5.30261E-01 3.89014E-14 2.01369E-13
 -1      2036 1.91477E+01-1.11845E-01 2.94503E-03-7.22867E-01 5.46561E-14 1.43806E-13
 -1      2037 1.94464E+01-7.49543E-02-1.21422E-03-3.67430E-01-1.25995E-13 2.15499E-13
 -1      2038 1.92844E+01-7.89844E-02-5.26713E-03-4.14535E-01-1.29508E-13 2.42194E-13
 -1      2039 1.94115E+01-1.21539E-01 2.92065E-03-5.77968E-01-6.44975E-14 2.53259E-13
 -1      2040 1.96517E+01-6.36596E-02-1.14442E-03-2.62795E-01-9.47723E-14 2.90915E-13
 -1      2041 1.95312E+01-7.07783E-02-5.12280E-03-3.04178E-01-1.53503E-13 1.60012E-13
 -1      2042 1.96138E+01-1.12897E-01 2.54357E-03-4.33549E-01-9.68592E-14 2.12741E-13
 -1      2043 1.97960E+01-4.96311E-02-9.93821E-04-1.76945E-01 5.07910E-14 4.28684E-13
 -1      2044 1.97115E+01-5.75415E-02-4.47019E-03-2.10105E-01-1.65703E-14 3.65064E-13
 -1      2045 1.97609E+01-9.43257E-02 2.03449E-03-3.06415E-01-1.17627E-13 1.88279E-13
 -1      2046 1.98921E+01-3.60337E-02-8.09532E-04-1.11734E-01 2.58821E-14 3.86729E-13
 -1      2047 1.98361E+01-4.33035E-02-3.59125E-03-1.36401E-01 1.09456E-13 4.64394E-13
 -1      2048 1.98625E+01-7.26179E-02 1.52974E-03-2.04101E-01 4.41458E-14 3.99259E-13
 -1      2049 1.99524E+01-2.45196E-02-6.23576E-04-6.53813E-02-1.12228E-13 3.72464E-13
 -1      2050 1.99176E+01-3.04724E-02-2.69370E-03-8.25635E-02 1.53758E-14 3.70763E-13
 -1      2051 1.99291E+01-5.21544E-02 1.09447E-03-1.27497E-01 6.85465E-14 4.21886E-13
 -1      2052 1.99875E+01-1.56343E-02-4.55706E-04-3.44288E-02 6.96162E-14 3.49826E-13
 -1      2053 1.99676E+01-2.01153E-02-1.90001E-03-4.56592E-02-4.16528E-14 3.52622E-13
 -1      2054 1.99704E+01-3.51214E-02 7.49104E-04-7.36676E-02-2.81029E-14 4.18271E-13
 -1      2055 2.00060E+01-9.26292E-03-3.15854E-04-1.50597E-02 2.30802E-13 3.65158E-13
 -1      2056 1.99958E+01-1.24101E-02-1.26270E-03-2.19123E-02 1.40102E-13 3.74200E-13
 -1      2057 1.99943E+01-2.21430E-02 4.90557E-04-3.80766E-02 1.50939E-13 3.08155E-13
 -1      2058 2.00141E+01-4.98095E-03-2.06694E-04-3.83256E-03 1.05734E-13 4.36176E-13
 -1      2059 2.00099E+01-7.05513E-03-7.87678E-04-7.67208E-03 2.32541E-13 3.99176E-13
 -1      2060 2.00066E+01-1.29356E-02 3.05659E-04-1.60188E-02 2.06580E-13 4.04350E-13
 -1      2061 2.00161E+01-2.28169E-03-1.26243E-04 2.01630E-03-1.26026E-14 1.88034E-13
 -1      2062 2.00154E+01-3.56224E-03-4.55471E-04 1.23947E-04 1.17427E-13 3.09623E-13
 -1      2063 2.00118E+01-6.81086E-03 1.78683E-04-3.37668E-03 1.87742E-13 4.12439E-13
 -1      2064 2.00150E+01-6.98365E-04-7.00963E-05 4.53207E-03 3.91484E-14 1.31752E-14
 -1      2065 2.00160E+01-1.43037E-03-2.36680E-04 3.81599E-03-2.89422E-14 1.50437E-13
 -1      2066 2.00128E+01-2.99298E-03 9.49474E-05 3.09808E-03 7.93955E-14 2.15650E-13
 -1      2067 2.00124E+01 1.45942E-04-3.30489E-05 5.13135E-03 7.84564E-14-7.82779E-14
 -1      2068 2.00141E+01-2.29566E-04-1.01380E-04 5.06885E-03 6.93716E-14-8.08930E-14
 -1      2069 2.00117E+01-7.84959E-04 4.21925E-05 5.78137E-03 1.28187E-13-1.65446E-14
 -1      2070 2.00096E+01 5.30137E-04-1.01196E-05 4.73817E-03-6.77277E-14-1.11233E-13
 -1      2071 2.00114E+01 3.72101E-04-2.37749E-05 4.99576E-03-3.04948E-14-1.48664E-13
 -1      2072 2.00097E+01 3.67515E-04 1.08272E-05 6.30499E-03 4.97534E-14-1.98371E-13
 -1      2073 2.00069E+01 6.47145E-04 2.93317E-06 3.91928E-03 4.22663E-14-2.06588E-13
 -1      2074 2.00085E+01 6.12186E-04 1.62331E-05 4.29760E-03 6.86345E-14-1.61455E-13
 -1      2075 2.00075E+01 8.70017E-04-6.31053E-06 5.72625E-03 6.09125E-15-2.48107E-13
 -1      2076 2.00046E+01 6.22747E-04 9.43334E-06 2.99806E-03 1.64521E-13-3.29167E-13
 -1      2077 2.00060E+01 6.50414E-04 3.31898E-05 3.38723E-03 6.87791E-14-2.25714E-13
 -1      2078 2.00054E+01 1.00038E-03-1.43662E-05 4.68966E-03 6.25142E-14-3.18333E-13
 -1      2079 2.00029E+01 5.34254E-04 1.18188E-05 2.14128E-03 3.72596E-13-3.09216E-13
 -1      2080 2.00039E+01 5.88111E-04 3.69939E-05 2.48772E-03 2.86286E-13-1.59189E-13
 -1      2081 2.00037E+01 9.37970E-04-1.69156E-05 3.56037E-03 9.69710E-14-3.65435E-13
 -1      2082 2.00017E+01 4.26107E-04 1.17546E-05 1.42076E-03 8.87857E-14-1.92108E-13
 -1      2083 2.00024E+01 4.85738E-04 3.39951E-05 1.70419E-03 2.94832E-13-1.68136E-13
 -1      2084 2.00024E+01 7.91900E-04-1.63246E-05 2.52475E-03 1.72776E-13-4.50569E-13
 -1      2085 2.00008E+01 3.21237E-04 1.02084E-05 8.54812E-04-2.83232E-13-1.96266E-13
 -1      2086 2.00013E+01 3.76674E-04 2.80002E-05 1.07304E-03 3.84231E-14-1.83533E-13
 -1      2087 2.00014E+01 6.23850E-04-1.41323E-05 1.66142E-03 8.12281E-15-7.25634E-14
 -1      2088 2.00003E+01 2.28749E-04 7.83706E-06 4.35797E-04 3.36046E-15-2.28322E-13
 -1      2089 2.00006E+01 2.76734E-04 2.11274E-05 5.94634E-04-2.85786E-13-3.31350E-13
 -1      2090 2.00007E+01 4.64269E-04-1.13406E-05 9.89143E-04-2.20377E-13-2.21266E-13
 -1      2091 2.00000E+01 1.48347E-04 5.30007E-06 1.49227E-04 4.90200E-13-4.16530E-13
 -1      2092 2.00001E+01 1.88058E-04 1.38313E-05 2.54188E-04 2.61459E-13-2.89328E-13
 -1      2093 2.00003E+01 3.21999E-04-9.47851E-06 4.99277E-04 1.61161E-13-3.25045E-13
 -1      2094 1.99999E+01 6.56608E-05 4.58355E-06-4.26776E-06 7.78700E-14-4.31631E-13
 -1      2095 1.99999E+01 1.08234E-04 8.97231E-06 4.52755E-05 4.74525E-13-3.88098E-13
 -1      2096 2.00000E+01 2.07516E-04-2.85277E-06 1.85229E-04 4.04900E-13-4.31727E-13
 -1      2097 1.99999E+01 8.70484E-05 1.05101E-06 1.34160E-05 2.96748E-14-6.48863E-14
 -1      2098 1.99998E+01 6.31510E-04-5.96201E-06 2.58233E-04-3.38976E-13-2.15990E-13
 -1      2099 1.99998E+01 5.47263E-04 4.36068E-06 2.51098E-04-4.08211E-13-1.54744E-13
 -1      2100 1.99999E+01 3.94735E-04-2.99402E-06 2.20760E-04-2.18093E-13-9.54066E-14
 -1      2101 1.99999E+01 3.17515E-04 3.04395E-06 1.78050E-04-2.19683E-13-1.27186E-13
 -1      2102 1.99999E+01 6.63422E-04 1.68237E-06 3.37757E-04-2.40899E-14-2.49071E-13
 -1      2103 1.99999E+01 1.45144E-04 1.96852E-06 7.63650E-05-1.61855E-15-1.12006E-13
 -1      2104 1.99997E+01 8.41509E-04-7.25483E-06 2.05583E-04-4.78621E-13-3.07217E-13
 -1      2105 1.99998E+01 7.72552E-04 2.17694E-06 2.37423E-04-5.06216E-13-1.76276E-13
 -1      2106 1.99998E+01 9.50855E-04 3.18586E-06 3.46638E-04-9.72478E-14-2.80198E-13
 -1      2107 1.99997E+01 9.82895E-04-7.50910E-06 7.52854E-05-2.35802E-13-4.53294E-14
 -1      2108 1.99997E+01 9.48865E-04-8.59225E-07 1.37660E-04-4.03731E-13-1.04405E-13
 -1      2109 1.99997E+01 1.19660E-03 5.70639E-06 2.43079E-04-2.14537E-13-1.08469E-13
 -1      2110 1.99997E+01 1.01843E-03-6.40876E-06-9.64032E-05-1.19888E-13 2.17894E-13
 -1      2111 1.99997E+01 1.03554E-03-3.54137E-06-2.11737E-05-2.24709E-13 6.11437E-14
 -1      2112 1.99996E+01 1.35476E-03 7.45343E-06 5.43493E-05-2.11041E-14 6.32667E-14
 -1      2113 1.99997E+01 9.36182E-04-3.94585E-06-2.64940E-04-2.16204E-13 2.78221E-13
 -1      2114 1.99997E+01 1.00650E-03-5.29093E-06-1.97161E-04-3.37656E-13 1.69546E-13
 -1      2115 1.99996E+01 1.39500E-03 8.21665E-06-1.71730E-04-3.42634E-14 1.58772E-13
 -1      2116 1.99997E+01 7.48568E-04-4.50374E-07-3.84753E-04-3.75042E-13 1.92813E-13
 -1      2117 1.99997E+01 8.60404E-04-5.82332E-06-3.43967E-04-3.83368E-13 3.60334E-13
 -1      2118 1.99997E+01 1.30767E-03 7.64248E-06-3.79175E-04-3.98957E-13 3.24145E-13
 -1      2119 1.99998E+01 4.91420E-04 3.30006E-06-4.18805E-04-4.86564E-13 1.62167E-13
 -1      2120 1.99998E+01 6.21570E-04-5.07134E-06-4.19499E-04-5.37606E-13 3.52656E-13
 -1      2121 1.99998E+01 1.10605E-03 5.80807E-06-5.13096E-04-3.88349E-13 1.51172E-13
 -1      2122 1.99999E+01 2.21942E-04 6.45418E-06-3.50560E-04-1.73340E-13 2.63596E-14
 -1      2123 1.99999E+01 3.38349E-04-3.33564E-06-3.96349E-04-4.23983E-13 2.44046E-13
 -1      2124 1.99999E+01 8.27681E-04 3.18576E-06-5.33206E-04-5.23922E-13 2.70938E-13
 -1      2125 2.00000E+01-1.36941E-05 7.94514E-06-1.84940E-04 1.47303E-14 3.26279E-13
 -1      2126 1.99999E+01 6.53418E-05-1.08832E-06-2.70547E-04-5.63638E-14 1.92524E-13
 -1      2127 2.00000E+01 5.20172E-04-1.88108E-07-4.24740E-04-1.67300E-13 3.20864E-13
 -1      2128 2.00000E+01-1.64319E-04 6.51729E-06 3.83911E-05 4.58209E-13 2.72198E-14
 -1      2129 2.00000E+01-1.42556E-04 1.27919E-06-6.42814E-05 2.28290E-13 1.30867E-13
 -1      2130 2.00001E+01 2.36513E-04-3.28104E-06-2.04158E-04-1.68602E-14 5.20649E-13
 -1      2131 1.99999E+01-2.08011E-04 2.93511E-06 2.46053E-04-7.15550E-15-4.41417E-13
 -1      2132 2.00000E+01-2.43038E-04 3.41867E-06 1.63723E-04 4.27104E-13-5.36844E-13
 -1      2133 2.00001E+01 2.96838E-05-4.99164E-06 7.03337E-05 1.70657E-13-2.05769E-13
 -1      2134 1.97428E+01 1.78547E-01 1.25694E-02 3.20019E-01 1.51060E-13 9.68049E-13
 -1      2135 1.99950E+01 2.56159E-01 1.69669E-02 4.98186E-01 1.66455E-13 1.04045E-12
 -1      2136 2.01908E+01 4.15238E-01-3.74114E-04 7.23783E-01 2.05811E-13 8.18697E-13
 -1      2137 1.99228E+01 2.63502E-01-3.65409E-03 3.94442E-01 1.80420E-13 6.80560E-13
 -1      2138 1.31137E+01-4.12364E+00-3.89730E-02 8.38902E+00 3.99236E-13 5.99187E-13
 -1      2139 9.18532E+00-5.95859E+00-2.54527E-01 7.45571E+00 1.64757E-13 6.12163E-13
 -1      2140 3.18994E+01 1.33188E+00 1.58504E-01 7.19194E+00 5.32796E-13 3.12528E-13
 -1      2141 2.65904E+01-6.67984E-01-1.16397E-01 7.06408E+00 5.16698E-13 2.51466E-13
 -1      2142 5.23942E+00-5.48400E+00-1.10962E-01 6.79882E+00 3.03424E-13 4.55608E-13
 -1      2143 2.54194E+00-6.79519E+00-2.71900E-01 5.28582E+00 2.70450E-13 4.49862E-13
 -1      2144 3.35143E+00-8.59783E+00-6.42062E-01-2.43237E+00 1.52989E-13 2.70783E-13
 -1      2145 6.38846E+00-7.30624E+00-4.78630E-01-3.89861E+00 2.97540E-14 3.25268E-13
 -1      2146 3.74977E+00-5.89226E+00-3.00828E-01-3.34531E+00 1.57541E-13 2.06557E-13
 -1      2147 2.21219E+01-2.05176E+00 4.60073E-02 8.57950E+00 5.15754E-13 2.27929E-13
 -1      2148 1.67881E+01-4.01798E+00-2.61236E-01 7.90099E+00 5.19806E-13 3.31790E-13
 -1      2149 1.76704E+01-4.94285E+00-1.05870E-02 8.63341E+00 1.48770E-13 3.70495E-13
 -1      2150 1.95281E+01 4.02218E+00-2.54096E-02-1.68909E+00-7.44326E-14-4.51979E-13
 -1      2151 1.96585E+01 3.94590E+00-2.45533E-02-1.94314E+00-1.23276E-13-4.30777E-13
 -1      2152 1.99893E+01 3.26296E+00-3.21482E-03-1.90116E+00-1.59667E-13-3.77908E-13
 -1      2153 1.96983E+01 3.59380E+00-7.91145E-03-1.50759E+00-6.54984E-14-4.17603E-13
 -1      2154 4.78638E+01 4.86485E+00 7.27867E-01 1.27515E+00-5.79314E-13-2.18547E-13
 -1      2155 4.80552E+01 3.03303E+00 7.46377E-01 3.80597E+00-4.37650E-13-3.34066E-13
 -1      2156 3.77412E+01 4.00692E+00 8.44223E-04 3.23661E+00 7.16233E-13-2.80109E-13
 -1      2157 3.47642E+01 2.74005E+00 1.12405E-01 5.20514E+00 5.72917E-13 5.27356E-14
 -1      2158 4.39933E+01 7.94349E+00 4.39221E-01 1.60470E+00 9.08051E-13-3.38118E-13
 -1      2159 3.95281E+01 7.00025E+00 7.25299E-03 1.99461E+00 8.88067E-13-3.35010E-13
 -1      2160 4.34318E+01 8.69168E+00 1.79503E-01-5.11874E-01 8.56759E-13-5.09537E-13
 -1      2161 4.40461E+01 8.36462E+00 2.37490E-01 9.42758E-01 9.02889E-13-3.45168E-13
 -1      2162 3.84345E+01 9.34500E+00 2.41427E-01-1.17559E-01 9.18321E-13-4.15792E-13
 -1      2163 4.23157E+01 7.04971E+00 2.76289E-01-3.01424E+00 6.72296E-13-7.50122E-13
 -1      2164 4.36198E+01 7.83524E+00 2.09146E-01-1.22646E+00 7.38187E-13-4.93106E-13
 -1      2165 3.67855E+01 4.25724E+00 9.33989E-02-5.63694E+00 6.51805E-13-9.01057E-13
 -1      2166 4.13407E+01 5.54730E+00 3.74187E-01-4.73383E+00 6.81372E-13-8.59757E-13
 -1      2167 2.94476E+01-1.48578E-01 1.75597E-04-6.22906E+00 3.90854E-13-8.67750E-13
 -1      2168 3.45149E+01 2.42177E+00 3.80267E-01-6.52475E+00 5.25413E-13-9.88098E-13
 -1      2169 1.85167E+01-3.55026E+00-2.22141E-01-7.80817E+00 2.89546E-13-9.30811E-13
 -1      2170 2.41653E+01-2.01457E+00-5.92512E-02-8.03782E+00 3.40505E-13-9.47353E-13
 -1      2171 9.70133E+00-6.05797E+00-3.68894E-01-7.25926E+00 7.76046E-14-8.01046E-13
 -1      2172 1.41582E+01-3.95277E+00-5.06578E-02-8.48014E+00 2.54685E-13-9.23289E-13
 -1      2173 3.17612E+00-7.50300E+00-3.84866E-01-5.51305E+00-1.34337E-14-6.02629E-13
 -1      2174 5.98513E+00-5.93905E+00-1.97886E-01-6.77058E+00 1.35003E-13-7.75852E-13
 -1      2175-5.07749E-01-8.22810E+00-4.10683E-01-2.56140E+00-1.07414E-13-4.26548E-13
 -1      2176 6.41962E-01-7.40757E+00-3.12674E-01-3.99009E+00 2.22600E-14-4.47309E-13
 -1      2177 6.44555E-01-7.71338E+00-3.66845E-01 9.32552E-01-2.88408E-13-6.25777E-13
 -1      2178-2.61988E-01-7.47799E+00-3.21076E-01-4.92590E-01-1.41213E-13-5.43343E-13
 -1      2179 5.56250E+00-7.55366E+00-4.50898E-01 3.58413E+00-5.07927E-13-4.64517E-13
 -1      2180 2.44587E+00-8.58377E+00-5.75122E-01 2.25199E+00-3.12750E-13-5.32574E-13
 -1      2181 1.54796E+01-6.57479E+00-4.44432E-01 5.11219E+00-5.39457E-13-4.38871E-13
 -1      2182 9.78748E+00-8.05021E+00-7.38171E-01 3.98466E+00-5.26579E-13-3.39589E-13
 -1      2183 2.96130E+01-5.41715E+00-3.04166E-01 3.86930E+00-4.35429E-13-2.55906E-13
 -1      2184 2.13613E+01-6.59667E+00-6.52039E-01 3.86196E+00-4.77063E-13-3.75477E-13
 -1      2185 4.39492E+01-2.18204E+00 4.13253E-01-1.62652E+00-5.32213E-13-9.14824E-14
 -1      2186 3.68306E+01-3.78375E+00-1.26739E-01-7.54378E-01-4.68486E-13-5.46230E-14
 -1      2187 4.54071E+01 1.22189E+00 4.36012E-01-2.53673E+00-6.36935E-13-1.63203E-13
 -1      2188 3.36707E+01-5.13365E+00-3.60463E-01-1.14854E+00-9.62008E-14 1.37335E-13
 -1      2189 4.01329E+01-3.13371E+00 9.11079E-02-3.69651E-01-6.59472E-14 1.23013E-13
 -1      2190 2.08815E+01-6.77191E+00-7.06852E-01-3.95541E+00-1.99840E-15 2.36589E-13
 -1      2191 2.83447E+01-5.43795E+00-3.09910E-01-3.92447E+00-6.99441E-14 2.26930E-13
 -1      2192 3.11888E+01-5.73861E+00 2.43670E-02-2.19801E+00 1.53544E-13-1.31950E-13
 -1      2193 1.08481E+01-7.77358E+00-6.58082E-01-4.28104E+00 1.19127E-13 3.38805E-13
 -1      2194 1.58884E+01-6.59187E+00-5.02532E-01-5.07828E+00 3.78586E-14 2.59959E-13
 -1      2195 2.06605E+01-6.71834E+00-2.17399E-01-4.90436E+00 4.31655E-13 1.95538E-14
 -1      2196 1.94896E-01-6.79062E+00-2.47749E-01 3.35492E+00 3.62599E-13 5.39457E-13
 -1      2197-5.11344E-01-7.80531E+00-3.78959E-01 1.78629E+00 1.63987E-13 6.93223E-13
 -1      2198 9.41246E+00-4.82088E+00-4.59179E-02 8.16464E+00-1.09912E-14 4.38066E-13
 -1      2199 4.37478E+01-1.45237E+00 3.70243E-01 3.40193E+00 3.67761E-15-2.30482E-13
 -1      2200 2.07644E+01 1.12091E+00-2.17546E-02-1.62265E+00-2.66499E-13-9.57637E-14
 -1      2201 2.06387E+01 1.33375E+00-2.41203E-02-1.67706E+00-2.65770E-13-1.79620E-13
 -1      2202 7.35397E-01-4.88065E+00-2.17624E-01 3.63610E-01 1.55244E-13 5.77760E-13
 -1      2203 4.97193E+01 5.26100E+00 8.62410E-01 1.13221E-01-6.56253E-13-2.65905E-13
 -1      2204 3.24017E+01-5.18098E+00-7.51155E-02-1.59793E+00 3.54494E-13-3.55826E-13
 -1      2205 2.89981E+01-2.67816E+00 2.44837E-01 4.45875E+00 2.55518E-13 2.09443E-13
 -1      2206 3.09568E+01-4.25247E+00 1.07278E-01 2.60835E+00 1.39500E-13 2.28675E-13
 -1      2207 3.32978E+01-5.03062E+00 1.42542E-01 1.37350E+00-4.70179E-14 1.63286E-13
 -1      2208 3.57472E+01-4.92268E+00 5.84124E-02-3.77083E-01-2.07945E-13 1.58207E-13
 -1      2209 4.49182E+01 1.39837E+00 4.29031E-01 2.99706E+00-2.63789E-13-1.94067E-13
 -1      2210 1.99999E+01 3.19191E-04-1.36233E-06 1.96274E-04 1.80922E-13-2.26842E-13
 -1      2211 3.33071E+01 5.40928E-01 2.20007E-01 3.71122E+00 4.55400E-13-1.82410E-13
 -1      2212 2.62169E+01-3.09928E+00 7.04772E-02 6.90212E+00 2.94154E-13 1.22513E-13
 -1      2213 2.81389E+00-4.13329E+00-7.39581E-02 5.05878E+00 1.17101E-13 5.51559E-13
 -1      2214 1.06290E+01-6.49283E+00-2.69148E-01-5.14597E+00 2.39142E-13 2.31176E-13
 -1      2215 2.20710E+01-6.70835E+00-2.04564E-01 4.80035E+00-1.90403E-13-1.34184E-13
 -1      2216 1.05589E+01-6.46838E+00-3.38478E-01 5.22686E+00-1.12854E-13-2.33286E-13
 -1      2217 3.36880E+00-5.03967E+00-2.54926E-01 2.88836E+00 2.57572E-14-5.07927E-13
 -1      2218 7.53049E-01-4.61833E+00-1.88936E-01-1.27875E+00 2.58300E-14-5.83311E-13
 -1      2219 3.20881E+00-5.22812E+00-1.84561E-01-5.73615E+00 1.47660E-14-5.79536E-13
 -1      2220 1.01152E+01-5.31559E+00-9.18647E-02-8.32293E+00-1.12133E-14-7.93754E-13
 -1      2221 1.87637E+01-4.76188E+00 3.70855E-02-8.42407E+00-5.49560E-15-8.65613E-13
 -1      2222 2.80069E+01-1.93924E+00 9.86657E-02-6.41025E+00 1.56264E-13-8.00970E-13
 -1      2223 3.03645E+01-2.54530E+00-1.94493E-01-4.10064E+00-3.65680E-14-4.24272E-13
 -1      2224 2.66047E+01-3.72135E+00 1.73297E-01-6.33733E+00-6.03406E-14-5.70183E-13
 -1      2225 3.51097E+01 1.87674E+00 1.28899E-01-3.07231E+00 3.39770E-13-4.55191E-13
 -1      2226 3.92187E+01 9.23976E+00 2.68938E-01-1.00738E-01 8.26783E-13-2.83745E-13
 -1      2227 2.60508E+01-5.87688E+00-2.04096E-01 4.52337E+00 1.46549E-14 6.64815E-14
 -1      2228 3.77103E+01 5.34386E+00 1.22674E-01 1.36871E+00 8.03413E-13-4.29434E-13
 -1      2229 3.46978E+01 3.46076E+00 2.68442E-02 4.46805E-01 6.34659E-13-5.54695E-13
 -1      2230 3.55174E+01 6.18841E+00-1.60054E-01-7.32117E-01 8.14349E-13-7.27252E-13
 -1      2231 3.88294E+01 6.42191E+00 3.34794E-01-1.31652E+00 5.48173E-13-3.54605E-13
 -1      2232 2.22548E+01-2.50007E+00 3.76774E-02 6.03782E+00 3.60212E-13 2.00770E-13
 -1      2233 1.95508E+01 3.53179E+00-1.11415E-02-5.86613E-01 1.16474E-13-3.33202E-13
 -1      2234 1.95884E+01 3.48551E+00-1.05411E-02-7.68780E-01 7.29691E-14-3.57268E-13
 -1      2235 1.96377E+01 3.39643E+00-1.29354E-02-9.30493E-01 4.29806E-14-3.78407E-13
 -1      2236 1.97014E+01 3.31429E+00-1.30264E-02-1.11829E+00 2.38980E-15-3.90387E-13
 -1      2237 1.97794E+01 3.05229E+00 3.40303E-04-7.83031E-01 5.84781E-14-3.32263E-13
 -1      2238 1.95007E+01 3.61143E+00-9.51399E-03 9.48072E-02 2.51653E-13-2.48350E-13
 -1      2239 1.94998E+01 3.61300E+00-9.66435E-03-8.27857E-02 2.16882E-13-2.65937E-13
 -1      2240 1.95283E+01 3.56902E+00-9.59913E-03 4.37564E-01 3.06165E-13-2.13298E-13
 -1      2241 1.95099E+01 3.59258E+00-1.01707E-02 2.58121E-01 2.78717E-13-2.46816E-13
 -1      2242 1.96656E+01 3.23532E+00-8.58691E-04 1.62709E-01 2.44909E-13-2.22238E-13
 -1      2243 1.95930E+01 3.46943E+00-1.05012E-02 7.79496E-01 3.43689E-13-1.40574E-13
 -1      2244 1.95551E+01 3.51746E+00-1.12265E-02 5.98911E-01 3.20740E-13-1.83646E-13
 -1      2245 1.97047E+01 3.16786E+00-5.20694E-04 4.78139E-01 2.97083E-13-1.76005E-13
 -1      2246 1.97073E+01 3.29291E+00-1.28535E-02 1.13178E+00 3.82538E-13-2.99283E-14
 -1      2247 1.96427E+01 3.37722E+00-1.28862E-02 9.42921E-01 3.54646E-13-9.01744E-14
 -1      2248 1.97851E+01 3.03059E+00 2.24387E-04 7.92168E-01 3.33266E-13-9.53179E-14
 -1      2249 1.98905E+01 3.00518E+00-1.80792E-02 1.47843E+00 4.08993E-13 1.22975E-13
 -1      2250 1.97888E+01 3.14696E+00-1.52533E-02 1.28834E+00 3.85912E-13 3.24732E-14
 -1      2251 1.99186E+01 2.80251E+00 1.97330E-03 1.09768E+00 3.60318E-13 1.68212E-14
 -1      2252 2.01709E+01 2.53774E+00-2.86844E-02 1.77513E+00 4.01529E-13 2.89957E-13
 -1      2253 2.00161E+01 2.78462E+00-1.81088E-02 1.61047E+00 4.01129E-13 1.90891E-13
 -1      2254 2.01180E+01 2.44954E+00 5.87859E-03 1.36551E+00 3.72968E-13 1.57691E-13
 -1      2255 2.05917E+01 1.79482E+00-2.65495E-02 1.88048E+00 3.32829E-13 5.85792E-13
 -1      2256 2.03690E+01 2.22530E+00-1.08273E-02 1.84228E+00 3.67544E-13 4.14061E-13
 -1      2257 2.03929E+01 1.91216E+00 1.40696E-02 1.52090E+00 3.52691E-13 3.39419E-13
 -1      2258 2.08006E+01 1.06676E+00-1.78078E-02 1.58166E+00 2.75995E-13 8.36841E-13
 -1      2259 2.06862E+01 1.53540E+00 8.38567E-04 1.78210E+00 3.06838E-13 6.92365E-13
 -1      2260 2.05120E+01 1.27986E+00 4.60565E-04 1.41011E+00 3.13577E-13 5.58872E-13
 -1      2261 2.04599E+01 7.43297E-01-1.85097E-03 1.10240E+00 2.53467E-13 7.76098E-13
 -1      2262 2.06942E+01-4.79840E+00-5.38472E-03 8.29188E+00 6.29496E-14 1.05079E-13
 -1      2263 1.71236E+01-4.76481E+00 8.79789E-02 8.48248E+00-7.13873E-14 3.02626E-13
 -1      2264 2.04608E+00-1.94664E+00 7.88904E-02 9.31373E-01 4.65288E-14 6.58862E-13
 -1      2265 2.95229E+00-2.65175E+00 9.45647E-02-1.52409E+00 1.26191E-13 4.47142E-13
 -1      2266 2.01546E+01 4.92751E-01 1.36206E-02-4.71093E-01-1.72686E-13-1.68357E-13
 -1      2267 2.00208E+01 3.71290E-01 8.16932E-04-2.86968E-01-1.68172E-13-2.00128E-13
 -1      2268 1.99593E+01 2.86852E-01 1.07561E-02-1.39616E-01-1.41033E-13-1.72737E-13
 -1      2269 1.98882E+01 2.20682E-01 1.79514E-03-3.05748E-02-1.09682E-13-1.85130E-13
 -1      2270 2.01111E+01 4.51400E-01-3.98712E-03-2.85878E-01-1.60711E-13-1.83553E-13
 -1      2271 1.98472E+01 1.78716E-01 6.29690E-03 6.16421E-02-7.96466E-14-1.73527E-13
 -1      2272 1.98248E+01 1.46176E-01 2.28974E-03 1.28585E-01-5.81337E-14-1.66386E-13
 -1      2273 1.99965E+01 2.76960E-01-3.92451E-03-2.55065E-02-9.34030E-14-1.59338E-13
 -1      2274 1.97987E+01 1.25172E-01 3.17858E-03 1.96037E-01-3.96159E-14-1.32038E-13
 -1      2275 1.98098E+01 1.14642E-01 2.87284E-03 2.47903E-01 2.68806E-15-1.28822E-13
 -1      2276 1.99263E+01 1.88621E-01-2.81701E-03 1.48444E-01-2.76934E-14-1.47223E-13
 -1      2277 1.97956E+01 1.13453E-01 1.04289E-03 3.00965E-01-1.74892E-14-1.35045E-13
 -1      2278 1.98331E+01 1.23262E-01 3.92008E-03 3.49712E-01-2.53495E-14-1.64902E-13
 -1      2279 1.98885E+01 1.57546E-01-1.74590E-03 2.78969E-01-4.20361E-14-1.59862E-13
 -1      2280 1.98219E+01 1.40891E-01-8.18618E-04 4.03189E-01-3.65116E-15-1.65496E-13
 -1      2281 1.98811E+01 1.73237E-01 5.54487E-03 4.63550E-01-7.99198E-15-1.31310E-13
 -1      2282 1.98705E+01 1.79794E-01-3.97260E-04 3.92736E-01-2.11833E-14-1.92912E-13
 -1      2283 1.98611E+01 2.13394E-01-2.81407E-03 5.31603E-01-3.88693E-14-1.13264E-13
 -1      2284 1.99398E+01 2.74557E-01 7.86544E-03 6.20042E-01-5.38931E-14-9.91049E-14
 -1      2285 1.98531E+01 2.59136E-01 1.48642E-03 5.19059E-01-1.13651E-14-1.29649E-13
 -1      2286 1.98929E+01 3.44971E-01-5.48790E-03 7.18107E-01-2.60631E-14-6.58419E-14
 -1      2287 1.99889E+01 4.45557E-01 1.08832E-02 8.54903E-01-4.23706E-16-5.88918E-14
 -1      2288 1.98097E+01 4.10207E-01 4.48015E-03 6.87097E-01-1.88135E-14-7.26478E-14
 -1      2289 1.98855E+01 5.57678E-01-9.54467E-03 1.00071E+00-4.35364E-14-4.41848E-14
 -1      2290 1.99922E+01 7.11259E-01 1.42238E-02 1.21099E+00-4.35329E-14-9.90097E-14
 -1      2291 1.96982E+01 6.57389E-01 9.52540E-03 9.27759E-01-3.95270E-14-6.37050E-14
 -1      2292 1.97836E+01 8.78141E-01-1.55221E-02 1.42424E+00-4.06524E-14-1.22249E-13
 -1      2293 1.98801E+01 1.09444E+00 1.68632E-02 1.73615E+00-3.25026E-14-1.18666E-13
 -1      2294 1.94480E+01 1.02997E+00 1.79813E-02 1.27301E+00-4.63995E-14-6.09762E-14
 -1      2295 1.95091E+01 1.30183E+00-2.45905E-02 2.02178E+00-2.67356E-14-1.27265E-13
 -1      2296 1.95734E+01 1.55824E+00 1.93259E-02 2.42802E+00 7.58942E-15-9.25900E-14
 -1      2297 1.89630E+01 1.53629E+00 3.41387E-02 1.73554E+00-4.10002E-15-9.57949E-14
 -1      2298 1.89166E+01 1.79562E+00-3.03507E-02 2.83149E+00 5.96090E-14-7.67867E-14
 -1      2299 1.88986E+01 2.02827E+00 3.01022E-02 3.37148E+00 1.09343E-13-3.15616E-14
 -1      2300 1.80656E+01 2.13585E+00 5.73943E-02 2.34949E+00 2.75051E-14-2.28133E-14
 -1      2301 1.78526E+01 2.11987E+00-1.81247E-02 3.89172E+00 1.56550E-13-2.58578E-14
 -1      2302 1.77376E+01 2.03136E+00 6.19451E-02 4.46618E+00 2.67657E-13 1.22818E-15
 -1      2303 1.65260E+01 2.64560E+00 1.13111E-01 3.14603E+00 1.57893E-13 3.34628E-14
 -1      2304 1.63239E+01 1.59884E+00 3.74433E-02 5.09933E+00 3.25247E-13-1.05749E-14
 -1      2305 1.63350E+01 5.94085E-01 1.21431E-01 5.56774E+00 3.96252E-13 5.68434E-14
 -1      2306 1.41223E+01 2.42667E+00 1.83674E-01 4.09299E+00 3.16185E-13-1.26718E-13
 -1      2307 2.05456E+01 1.73155E+00-2.08684E-02-1.73547E+00-2.35032E-13-2.49833E-13
 -1      2308 2.04198E+01 1.09755E+00 5.57436E-03-1.16327E+00-2.34319E-13-2.04842E-13
 -1      2309 2.03176E+01 2.14128E+00-1.01870E-02-1.68199E+00-1.93744E-13-2.98933E-13
 -1      2310 2.03937E+01-5.49224E+00-2.90383E-02 5.41035E+00 2.74225E-14 3.62280E-14
 -1      2311 2.16192E+01-1.48465E-01 1.16618E-01-5.78871E+00 1.33421E-13-1.18239E-13
 -1      2312 2.08058E+01 9.05954E-01 8.75875E-02-5.59867E+00-1.04125E-13-1.21285E-13
 -1      2313 2.13282E+01 1.38162E+00 6.65893E-02-4.90859E+00-8.59642E-14-1.30082E-13
 -1      2314 2.07680E+01 1.57917E+00 4.75104E-03-4.33385E+00-9.25544E-14-8.33639E-14
 -1      2315 1.79189E+01 1.56212E+00 1.29241E-01-5.30882E+00-7.05408E-14-1.94456E-13
 -1      2316 2.12621E+01 1.52004E+00 3.88917E-02-3.65202E+00-1.10320E-13 5.51685E-15
 -1      2317 2.08152E+01 1.38018E+00-1.59880E-02-3.06408E+00 6.56662E-14 1.05705E-13
 -1      2318 1.89801E+01 2.06206E+00 7.33052E-02-3.98553E+00-2.11337E-14 9.69363E-14
 -1      2319 2.11214E+01 1.19110E+00 3.00509E-02-2.52429E+00 1.34106E-13 1.53967E-13
 -1      2320 2.07581E+01 9.95202E-01-1.36142E-02-2.05843E+00-1.89848E-14 4.60148E-14
 -1      2321 1.97000E+01 1.72155E+00 4.19537E-02-2.82855E+00 7.63304E-14 9.10548E-14
 -1      2322 2.09091E+01 8.22237E-01 2.48734E-02-1.66738E+00-1.03749E-13-1.10987E-13
 -1      2323 2.06289E+01 6.59518E-01-8.13562E-03-1.33868E+00-7.35106E-14-1.69950E-13
 -1      2324 2.00629E+01 1.22777E+00 2.41167E-02-1.92627E+00-1.05249E-13 3.35415E-14
 -1      2325 2.06868E+01 5.34161E-01 1.91627E-02-1.07053E+00-1.84451E-13-3.26038E-13
 -1      2326 2.04828E+01 4.18771E-01-4.35142E-03-8.52374E-01-1.17122E-13-4.01214E-13
 -1      2327 2.01993E+01 8.12705E-01 1.34781E-02-1.27299E+00-1.99144E-13-2.29391E-13
 -1      2328 2.04943E+01 3.36051E-01 1.36653E-02-6.75009E-01 1.21886E-13-2.43998E-13
 -1      2329 2.03522E+01 2.59817E-01-2.25254E-03-5.35128E-01 2.89913E-13-1.39663E-13
 -1      2330 2.02205E+01 5.17052E-01 7.11409E-03-8.23433E-01 6.99666E-14-3.61449E-13
 -1      2331 2.03442E+01 2.07639E-01 9.23831E-03-4.20637E-01 1.98769E-13-1.90531E-13
 -1      2332 2.02488E+01 1.59357E-01-9.40396E-04-3.32844E-01-4.45533E-14-1.34436E-13
 -1      2333 2.01939E+01 3.21567E-01 3.45032E-03-5.24642E-01 2.16724E-13-4.22326E-13
 -1      2334 2.02361E+01 1.28799E-01 6.10804E-03-2.63437E-01-1.09759E-13-1.48880E-13
 -1      2335 2.01748E+01 9.93012E-02-4.32170E-04-2.10745E-01-4.49905E-14-1.57742E-13
 -1      2336 2.01546E+01 1.98986E-01 1.25248E-03-3.34094E-01-5.53353E-14-5.05166E-13
 -1      2337 2.01603E+01 7.88797E-02 3.89460E-03-1.63846E-01-1.42730E-13-2.25527E-13
 -1      2338 2.01182E+01 5.98174E-02-2.64182E-04-1.29542E-01-3.62758E-13-4.07914E-13
 -1      2339 2.01172E+01 1.23241E-01 6.33495E-04-2.11914E-01-1.50811E-13-5.17577E-13
 -1      2340 2.01062E+01 4.76731E-02 2.46964E-03-1.00435E-01-4.30655E-13-3.22297E-13
 -1      2341 2.00791E+01 3.59753E-02-1.11754E-04-7.94448E-02-3.99198E-13-3.89584E-13
 -1      2342 2.00849E+01 7.45597E-02 1.62660E-04-1.31998E-01-3.80074E-13-4.09267E-13
 -1      2343 2.00698E+01 2.86968E-02 1.54068E-03-6.14207E-02-1.01960E-13-1.98038E-13
 -1      2344 2.00523E+01 2.15873E-02-3.51121E-05-4.86314E-02 2.99246E-13-1.13755E-13
 -1      2345 2.00600E+01 4.49323E-02-3.71400E-05-8.19646E-02-8.01486E-15-3.17623E-13
 -1      2346 2.00454E+01 1.72424E-02 9.53618E-04-3.75047E-02 2.26392E-13-5.87219E-14
 -1      2347 2.00343E+01 1.29431E-02 3.82336E-07-2.97253E-02 2.53846E-13-2.41677E-13
 -1      2348 2.00416E+01 2.70107E-02-1.06200E-04-5.07994E-02 2.18344E-13-2.69608E-13
 -1      2349 2.00292E+01 1.03598E-02 5.87952E-04-2.28631E-02 2.41610E-13-4.62928E-13
 -1      2350 2.00222E+01 7.76870E-03 1.49988E-05-1.81292E-02 1.96495E-13-4.64383E-13
 -1      2351 2.00284E+01 1.62245E-02-1.16514E-04-3.14388E-02 1.24499E-13-4.09503E-13
 -1      2352 2.00186E+01 6.23762E-03 3.61755E-04-1.38910E-02 1.28334E-13-4.31916E-13
 -1      2353 2.00141E+01 4.67960E-03 1.96555E-05-1.10028E-02-7.72761E-14-4.40643E-13
 -1      2354 2.00191E+01 9.75705E-03-1.03658E-04-1.94136E-02 1.03206E-13-3.85387E-13
 -1      2355 2.00116E+01 3.76912E-03 2.21277E-04-8.37376E-03-1.81174E-13-3.47162E-13
 -1      2356 2.00088E+01 2.84222E-03 2.31689E-05-6.60621E-03-5.77408E-14-3.53958E-13
 -1      2357 2.00126E+01 5.89067E-03-8.38677E-05-1.19267E-02-3.68949E-14-2.45007E-13
 -1      2358 2.00071E+01 2.33234E-03 1.37644E-04-5.03703E-03-2.30490E-14-4.62636E-13
 -1      2359 2.00054E+01 1.78444E-03 2.01173E-05-3.98074E-03-5.67473E-14-4.08745E-13
 -1      2360 2.00082E+01 3.59398E-03-7.33326E-05-7.31986E-03-1.21899E-13-1.97881E-13
 -1      2361 2.00042E+01 1.44580E-03 8.53088E-05-2.92059E-03-5.22813E-14-2.81979E-13
 -1      2362 2.00031E+01 1.09753E-03 1.39665E-05-2.22204E-03 1.92079E-15-3.25127E-13
 -1      2363 2.00052E+01 2.24757E-03-4.87926E-05-4.41066E-03 2.35232E-14-4.72036E-14
 -1      2364 2.00023E+01 9.02178E-04 5.36823E-05-1.55203E-03 1.59093E-13-3.83358E-13
 -1      2365 2.00016E+01 6.84477E-04 1.06516E-05-1.11178E-03 2.35539E-13-3.54847E-13
 -1      2366 2.00031E+01 1.38937E-03-3.59933E-05-2.49442E-03 4.36551E-14-1.84644E-13
 -1      2367 2.00011E+01 5.66084E-04 3.32980E-05-6.84346E-04 2.43500E-13-3.79508E-13
 -1      2368 2.00007E+01 4.26777E-04 7.70799E-06-4.06627E-04 3.81456E-13-1.05086E-13
 -1      2369 2.00018E+01 8.67051E-04-2.57812E-05-1.26924E-03 3.04435E-13-2.56879E-13
 -1      2370 2.00004E+01 3.50278E-04 2.05473E-05-1.36284E-04 2.19598E-13-6.39662E-14
 -1      2371 2.00002E+01 2.52698E-04 4.29228E-06 3.37840E-05 7.77720E-14-2.39047E-13
 -1      2372 2.00009E+01 5.36503E-04-1.80891E-05-4.86279E-04 2.39285E-13-1.78050E-13
 -1      2373 2.00000E+01 1.94769E-04 1.24951E-05 1.94397E-04 1.54449E-13-2.68493E-13
 -1      2374 1.99999E+01 1.13143E-04 6.78422E-07 2.83041E-04 1.69504E-13 7.65857E-14
 -1      2375 2.00004E+01 3.07293E-04-1.18659E-05 2.47302E-06 1.38515E-13-2.82824E-13
 -1      2376 1.99998E+01 4.96511E-05 7.14788E-06 3.62713E-04 1.08955E-13 1.10646E-13
 -1      2377 1.99998E+01-3.91273E-05-1.56852E-06 3.77579E-04-7.82709E-14 3.76508E-13
 -1      2378 2.00001E+01 1.29483E-04-1.89272E-06 2.65205E-04 2.39816E-13-4.70767E-14
 -1      2379 4.13206E+00-3.03393E+00 1.01587E-01-2.76701E+00 8.89844E-14 1.18017E-13
 -1      2380 5.95778E+00-3.47525E+00-3.66698E-03-4.23333E+00 1.51212E-13 5.15699E-14
 -1      2381 5.04439E+00-1.03068E+00 1.25613E-01-2.23025E+00 6.34215E-14 2.97318E-13
 -1      2382 1.97653E+01 1.17369E-01 8.03162E-04-8.69484E-03 1.28558E-13 3.74287E-13
 -1      2383 1.98202E+01 1.71702E-01 8.87011E-03 5.89722E-02 1.28879E-13 4.01058E-13
 -1      2384 1.98773E+01 2.36157E-01 1.55145E-03 1.63733E-01 1.48553E-13 4.17991E-13
 -1      2385 1.99805E+01 3.22706E-01 1.10189E-02 2.92128E-01 1.68576E-13 4.46675E-13
 -1      2386 1.99947E+01 2.85104E-01-4.10101E-03 1.71323E-01 1.63738E-13 2.92711E-13
 -1      2387 1.96916E+01-1.14560E-02-5.30296E-04-1.24331E-01 6.76336E-14 3.04113E-13
 -1      2388 1.96936E+01 1.48598E-02 2.85183E-03-1.19190E-01 8.75917E-14 3.26992E-13
 -1      2389 1.96917E+01-5.51530E-02-1.35945E-03-1.07714E-01 1.80674E-14 3.04675E-13
 -1      2390 1.96876E+01-3.30585E-02 1.50764E-03-1.22239E-01 4.14075E-14 3.07438E-13
 -1      2391 1.98170E+01-2.73143E-02-1.66814E-03-1.22351E-01 6.90297E-14 2.43336E-13
 -1      2392 1.96956E+01-9.53687E-02-2.29743E-03-5.31292E-02 4.10603E-14 2.89720E-13
 -1      2393 1.96949E+01-7.44584E-02 7.20050E-04-8.47578E-02-7.23949E-15 2.77326E-13
 -1      2394 1.98139E+01-8.57113E-02-9.50582E-04-9.89670E-02 4.41199E-14 2.20687E-13
 -1      2395 1.96905E+01-1.35243E-01-3.29323E-03 3.68578E-02 1.28627E-13 3.40748E-13
 -1      2396 1.97011E+01-1.14223E-01 2.56532E-04-1.10268E-02 8.72328E-14 3.19532E-13
 -1      2397 1.98199E+01-1.40100E-01-3.47099E-04-3.26295E-02 5.73738E-14 1.50793E-13
 -1      2398 1.96645E+01-1.74444E-01-4.22506E-03 1.61321E-01 1.45389E-13 3.40716E-13
 -1      2399 1.96936E+01-1.53916E-01-5.32806E-05 9.76881E-02 1.83904E-13 3.65496E-13
 -1      2400 1.98253E+01-1.93686E-01 2.10438E-04 7.41830E-02 1.38955E-13 3.00885E-13
 -1      2401 1.96064E+01-2.08490E-01-4.87632E-03 3.17898E-01 3.62157E-14 3.28640E-13
 -1      2402 1.96601E+01-1.91335E-01-3.56670E-04 2.40235E-01 1.17834E-13 3.56326E-13
 -1      2403 1.98202E+01-2.44754E-01 7.97910E-04 2.20296E-01 1.37021E-13 3.43038E-13
 -1      2404 1.95051E+01-2.28232E-01-4.93798E-03 4.99128E-01-7.18329E-14 2.71481E-13
 -1      2405 1.95882E+01-2.19803E-01-7.80594E-04 4.12120E-01-3.42051E-14 3.20116E-13
 -1      2406 1.97939E+01-2.85815E-01 1.46755E-03 4.02266E-01 3.63858E-14 3.67960E-13
 -1      2407 1.93514E+01-2.20533E-01-4.06771E-03 6.88607E-01-2.44044E-14 1.91234E-13
 -1      2408 1.94658E+01-2.28078E-01-1.40111E-03 6.01555E-01-5.04318E-14 2.01664E-13
 -1      2409 1.97339E+01-3.03307E-01 2.19792E-03 6.10045E-01 7.02129E-16 2.45534E-13
 -1      2410 1.91408E+01-1.71325E-01-2.02901E-03 8.58298E-01 6.04274E-14 1.69907E-13
 -1      2411 1.92840E+01-2.02024E-01-2.17204E-03 7.85893E-01 1.28116E-14 1.42727E-13
 -1      2412 1.96272E+01-2.79282E-01 2.82686E-03 8.22504E-01 2.23092E-14 9.36192E-14
 -1      2413 1.88780E+01-7.16663E-02 1.09446E-03 9.69307E-01 7.70746E-14 1.54296E-13
 -1      2414 1.90414E+01-1.29100E-01-2.84716E-03 9.30422E-01 6.14771E-14 1.71263E-13
 -1      2415 1.94641E+01-1.96519E-01 3.01652E-03 1.00461E+00 5.29499E-14 1.15165E-13
 -1      2416 1.85823E+01 7.43433E-02 4.71172E-03 9.78657E-01 1.32789E-13 1.90266E-13
 -1      2417 1.87503E+01-5.63018E-03-2.97525E-03 9.92213E-01 1.28901E-13 1.53190E-13
 -1      2418 1.92444E+01-4.73476E-02 2.31315E-03 1.10927E+00 9.87718E-14 1.13430E-13
 -1      2419 1.82903E+01 2.43710E-01 7.76013E-03 8.52875E-01 1.61156E-14 2.46683E-13
 -1      2420 1.84411E+01 1.55613E-01-2.03214E-03 9.31001E-01 6.87616E-14 2.77707E-13
 -1      2421 1.89856E+01 1.56343E-01 3.90268E-04 1.08694E+00 6.72596E-14 1.66155E-13
 -1      2422 1.80518E+01 3.96314E-01 9.10815E-03 5.84950E-01-1.90330E-14 2.07832E-13
 -1      2423 1.81618E+01 3.22498E-01 2.56811E-04 7.25725E-01-2.21802E-14 2.16893E-13
 -1      2424 1.87265E+01 3.77838E-01-2.54884E-03 9.03397E-01 5.81729E-15 1.89546E-13
 -1      2425 1.79178E+01 4.87616E-01 8.19596E-03 2.06180E-01 1.56767E-14 2.75636E-13
 -1      2426 1.79672E+01 4.50537E-01 3.57220E-03 3.90102E-01 1.03836E-14 2.48875E-13
 -1      2427 1.85219E+01 5.61812E-01-5.53524E-03 5.60058E-01-5.28820E-14 1.47478E-13
 -1      2428 1.79224E+01 4.88212E-01 5.44923E-03-2.16754E-01 5.73651E-14 2.50453E-13
 -1      2429 1.79012E+01 4.99994E-01 6.86834E-03-2.29861E-02 3.41819E-14 2.77833E-13
 -1      2430 1.84248E+01 6.53891E-01-7.17142E-03 1.05210E-01 3.46177E-14 1.45036E-13
 -1      2431 1.80678E+01 3.98606E-01 2.05407E-03-6.02200E-01 3.64376E-14 3.95180E-13
 -1      2432 1.79793E+01 4.54869E-01 8.84437E-03-4.34974E-01 7.02949E-14 4.02520E-13
 -1      2433 1.84639E+01 6.24889E-01-6.61367E-03-3.75150E-01-2.82569E-14 1.89145E-13
 -1      2434 1.83237E+01 2.48774E-01-7.45923E-04-8.82000E-01 3.66189E-14 2.78791E-13
 -1      2435 1.81826E+01 3.30997E-01 8.63618E-03-7.68537E-01 7.48275E-14 3.94871E-13
 -1      2436 1.86293E+01 4.85322E-01-4.14574E-03-7.86522E-01 5.70993E-14 3.29627E-13
 -1      2437 1.86388E+01 8.31947E-02-2.27142E-03-1.02255E+00 1.23532E-13 3.09094E-14
 -1      2438 1.84673E+01 1.67747E-01 6.34201E-03-9.73449E-01 5.06093E-14 1.11330E-13
 -1      2439 1.88781E+01 2.79722E-01-1.05335E-03-1.05962E+00 2.04315E-13 1.98382E-13
 -1      2440 1.89609E+01-5.82750E-02-2.52936E-03-1.02908E+00 3.13614E-14 1.21742E-13
 -1      2441 1.87817E+01 9.55480E-03 2.87625E-03-1.03839E+00 7.18340E-14 4.42181E-14
 -1      2442 1.91544E+01 6.59073E-02 1.44142E-03-1.17000E+00 7.06921E-14 8.91860E-14
 -1      2443 1.92508E+01-1.53132E-01-1.98820E-03-9.34500E-01 1.83462E-13 6.79069E-14
 -1      2444 1.90823E+01-1.11163E-01-5.97369E-04-9.85720E-01 1.42933E-13 7.63985E-14
 -1      2445 1.94102E+01-1.08569E-01 2.72618E-03-1.13638E+00 1.07558E-13 4.31861E-14
 -1      2446 1.94879E+01-1.97963E-01-1.17979E-03-7.82014E-01 1.13754E-15 8.88170E-14
 -1      2447 1.93421E+01-1.81485E-01-3.22366E-03-8.55646E-01 8.25714E-14 1.00749E-13
 -1      2448 1.96181E+01-2.19718E-01 2.89994E-03-1.00319E+00 8.99325E-14 1.12480E-13
 -1      2449 1.96680E+01-2.02262E-01-4.45092E-04-6.10781E-01-8.61643E-14 1.03043E-13
 -1      2450 1.95499E+01-2.05173E-01-4.67557E-03-6.89997E-01-2.61079E-14 1.10362E-13
 -1      2451 1.97706E+01-2.66964E-01 2.45358E-03-8.20085E-01-1.69589E-14 5.19567E-14
 -1      2452 1.97967E+01-1.80569E-01 5.07648E-05-4.48644E-01-1.07577E-13 2.04079E-13
 -1      2453 1.97064E+01-1.95055E-01-5.06644E-03-5.21906E-01-1.30090E-13 1.92639E-13
 -1      2454 1.98733E+01-2.64602E-01 1.79922E-03-6.27928E-01-1.78594E-13 6.35897E-14
 -1      2455 1.98840E+01-1.46595E-01 3.05757E-04-3.11029E-01-9.37197E-14 2.07594E-13
 -1      2456 1.98185E+01-1.65824E-01-4.71541E-03-3.72241E-01-5.85806E-14 2.05005E-13
 -1      2457 1.99377E+01-2.31759E-01 1.19446E-03-4.53337E-01-1.13481E-13 1.65865E-13
 -1      2458 1.99405E+01-1.10394E-01 3.83366E-04-2.03353E-01 3.45167E-14 2.84831E-13
 -1      2459 1.98952E+01-1.29646E-01-3.96526E-03-2.50666E-01-1.38831E-14 1.75106E-13
 -1      2460 1.99755E+01-1.85607E-01 7.41910E-04-3.09392E-01-3.78125E-14-1.58025E-14
 -1      2461 1.99751E+01-7.78859E-02 3.58444E-04-1.24552E-01 2.75049E-14 3.34059E-13
 -1      2462 1.99453E+01-9.45664E-02-3.08828E-03-1.58800E-01 7.77073E-14 3.87360E-13
 -1      2463 1.99962E+01-1.38288E-01 4.42778E-04-1.99211E-01 2.81833E-14 1.55794E-13
 -1      2464 1.99950E+01-5.16544E-02 2.89432E-04-7.02414E-02 1.46983E-13 1.86758E-13
 -1      2465 1.99766E+01-6.47817E-02-2.25678E-03-9.35821E-02 1.31142E-13 3.25982E-13
 -1      2466 2.00065E+01-9.66813E-02 2.59868E-04-1.19979E-01 1.28601E-13 1.77146E-13
 -1      2467 2.00055E+01-3.20996E-02 2.12377E-04-3.49601E-02 2.28007E-13 5.13131E-14
 -1      2468 1.99949E+01-4.16928E-02-1.55682E-03-4.99292E-02 1.17248E-13 1.05016E-13
 -1      2469 2.00108E+01-6.35713E-02 1.52797E-04-6.61834E-02 2.70784E-13 6.16339E-14
 -1      2470 2.00100E+01-1.84539E-02 1.45118E-04-1.34828E-02 1.44944E-13 1.94449E-13
 -1      2471 2.00046E+01-2.50313E-02-1.01459E-03-2.24461E-02 2.68196E-13 9.76726E-14
 -1      2472 2.00119E+01-3.91434E-02 9.05696E-05-3.17209E-02 1.76515E-13-1.02165E-13
 -1      2473 2.00112E+01-9.49727E-03 9.36478E-05-1.43789E-03 2.52497E-13 1.79820E-13
 -1      2474 2.00089E+01-1.37399E-02-6.21316E-04-6.34414E-03 1.99505E-13 2.47146E-13
 -1      2475 2.00113E+01-2.22429E-02 5.32860E-05-1.10538E-02 1.13872E-13-4.31443E-14
 -1      2476 2.00105E+01-3.98106E-03 5.76304E-05 4.52477E-03 8.87587E-14 1.19526E-13
 -1      2477 2.00101E+01-6.54345E-03-3.52120E-04 2.20023E-03 1.99676E-13 1.96865E-13
 -1      2478 2.00099E+01-1.12382E-02 2.97269E-05 3.12089E-04 2.20017E-13 1.15866E-13
 -1      2479 2.00090E+01-8.32173E-04 3.41262E-05 6.80500E-03 2.80954E-13-3.13656E-14
 -1      2480 2.00095E+01-2.25792E-03-1.77917E-04 6.01709E-03 1.84999E-13 8.98928E-14
 -1      2481 2.00083E+01-4.51842E-03 1.41313E-05 5.75118E-03 2.45274E-13 1.12092E-13
 -1      2482 2.00071E+01 7.81159E-04 1.96756E-05 7.02543E-03-1.28322E-13-2.95739E-14
 -1      2483 2.00081E+01 8.03816E-05-7.18567E-05 7.07584E-03 6.55425E-14-6.10979E-14
 -1      2484 2.00066E+01-7.24122E-04 3.66283E-06 7.64645E-03 1.12857E-13 5.34019E-14
 -1      2485 2.00054E+01 1.45760E-03 1.12557E-05 6.22392E-03 4.59243E-14-5.81643E-14
 -1      2486 2.00064E+01 1.19083E-03-1.20021E-05 6.67207E-03-7.85481E-15 1.54240E-14
 -1      2487 2.00051E+01 1.18619E-03-3.14340E-06 7.59140E-03-7.49694E-14 1.40509E-13
 -1      2488 2.00039E+01 1.60270E-03 6.58384E-06 5.02560E-03 2.48329E-14-2.15651E-13
 -1      2489 2.00048E+01 1.57596E-03 1.81733E-05 5.61074E-03 1.37604E-13-1.00293E-13
 -1      2490 2.00038E+01 1.95589E-03-7.18237E-06 6.59564E-03 9.31427E-14 1.75579E-13
 -1      2491 2.00026E+01 1.47612E-03 4.05677E-06 3.77973E-03 2.21349E-13-2.99389E-13
 -1      2492 2.00034E+01 1.56725E-03 3.03624E-05 4.35985E-03 5.17333E-14-3.37103E-13
 -1      2493 2.00027E+01 2.08515E-03-9.11691E-06 5.26153E-03 1.04541E-13-1.94427E-13
 -1      2494 2.00017E+01 1.23451E-03 2.65663E-06 2.66113E-03 4.99450E-14-2.23797E-13
 -1      2495 2.00023E+01 1.37114E-03 3.24110E-05 3.16819E-03 2.28784E-13-3.24549E-13
 -1      2496 2.00018E+01 1.89185E-03-9.56832E-06 3.92163E-03 1.65419E-13-3.12312E-13
 -1      2497 2.00010E+01 9.65921E-04 1.78913E-06 1.74044E-03-8.59436E-14-6.89098E-14
 -1      2498 2.00014E+01 1.10850E-03 2.93196E-05 2.14983E-03-3.05324E-14-1.80911E-13
 -1      2499 2.00012E+01 1.56685E-03-8.85631E-06 2.73948E-03-4.48825E-14-1.98980E-13
 -1      2500 2.00005E+01 7.12469E-04 9.77094E-07 1.03082E-03-1.98098E-13-2.54090E-13
 -1      2501 2.00008E+01 8.43668E-04 2.41836E-05 1.34065E-03-6.11895E-14-1.70253E-13
 -1      2502 2.00007E+01 1.21442E-03-7.87146E-06 1.77829E-03 5.46808E-14-2.13617E-13
 -1      2503 2.00002E+01 4.93623E-04 1.99337E-06 5.22489E-04 3.31832E-13-5.14553E-13
 -1      2504 2.00004E+01 6.05245E-04 1.99925E-05 7.37271E-04-3.30442E-14-4.07058E-13
 -1      2505 2.00003E+01 8.82615E-04-7.50305E-06 1.04633E-03 2.21537E-14-3.71635E-13
 -1      2506 2.00000E+01 4.21979E-04 8.81070E-06 3.21524E-04 2.15575E-13-3.18595E-13
 -1      2507 1.99995E+01 1.55929E-03-9.68884E-06 3.15614E-04 1.99739E-13 1.39652E-13
 -1      2508 1.99996E+01 1.46843E-03 2.58950E-06 4.02129E-04 1.36111E-13-2.15929E-13
 -1      2509 1.99997E+01 1.27105E-03-9.85038E-06 4.81723E-04 8.52293E-14-3.80032E-13
 -1      2510 1.99998E+01 1.14978E-03 5.26702E-06 5.12289E-04 1.51872E-13-2.52508E-13
 -1      2511 1.99996E+01 1.69269E-03 4.86706E-06 5.77509E-04 2.42497E-13-2.42705E-13
 -1      2512 1.99999E+01 9.17249E-04-8.74920E-06 5.18052E-04 6.75760E-14-3.26580E-13
 -1      2513 1.99999E+01 7.80175E-04 3.52974E-06 4.84470E-04 1.58010E-13-1.63949E-13
 -1      2514 1.99998E+01 1.28501E-03 6.63101E-06 6.74863E-04 5.09907E-14-2.69588E-13
 -1      2515 3.27414E+01 2.20967E-03-1.73660E-01 1.90044E+00 4.30302E-13-5.39929E-13
 -1      2516 3.11670E+01-1.61340E+00 2.51709E-03 3.38336E+00 3.80196E-13-2.78000E-13
 -1      2517 1.99995E+01 1.74313E-03-8.18616E-06 5.88344E-05 2.86647E-13 1.34330E-13
 -1      2518 1.99995E+01 1.69961E-03-9.34924E-07 1.79164E-04 1.40041E-13 1.54953E-13
 -1      2519 1.99994E+01 2.01912E-03 7.95971E-06 3.39828E-04 4.81476E-13 1.10941E-13
 -1      2520 1.99995E+01 1.79503E-03-5.43878E-06-2.31451E-04-1.06604E-13 5.74022E-14
 -1      2521 1.99995E+01 1.80682E-03-4.53995E-06-1.04375E-04-2.45672E-14-3.87052E-14
 -1      2522 1.99994E+01 2.21895E-03 1.01734E-05 1.23838E-05 3.75852E-14-1.73209E-13
 -1      2523 1.99996E+01 1.70537E-03-1.60447E-06-4.88868E-04-4.43660E-13 1.13155E-13
 -1      2524 1.99995E+01 1.77127E-03-7.48084E-06-3.86155E-04-3.05622E-13 1.73207E-13
 -1      2525 1.99994E+01 2.26161E-03 1.08482E-05-3.37115E-04-2.25647E-13-2.28411E-14
 -1      2526 1.99997E+01 1.48773E-03 2.48024E-06-6.50511E-04-4.00856E-13 2.96587E-13
 -1      2527 1.99996E+01 1.59711E-03-9.03669E-06-5.99150E-04-4.41131E-13 2.40942E-13
 -1      2528 1.99995E+01 2.13942E-03 1.03007E-05-6.31777E-04-4.24962E-13 1.64310E-13
 -1      2529 1.99999E+01 1.18268E-03 6.12813E-06-6.72731E-04-3.10412E-13 3.71848E-13
 -1      2530 1.99998E+01 1.31330E-03-9.07836E-06-6.88014E-04-4.52156E-13 2.61617E-13
 -1      2531 1.99998E+01 1.87129E-03 8.66001E-06-8.02824E-04-3.79059E-13 3.42773E-13
 -1      2532 2.00001E+01 8.28712E-04 8.46832E-06-5.42131E-04 1.33530E-14 3.41116E-13
 -1      2533 2.00000E+01 9.63093E-04-7.36566E-06-6.26051E-04-8.98652E-14 3.83929E-13
 -1      2534 2.00000E+01 1.49395E-03 5.38648E-06-8.07352E-04-4.98872E-14 5.17744E-13
 -1      2535 2.00002E+01 4.87579E-04 8.08535E-06-2.82561E-04-1.04048E-13 4.52537E-13
 -1      2536 2.00002E+01 6.00985E-04-4.05108E-06-4.16317E-04-1.82315E-13 5.30878E-13
 -1      2537 2.00002E+01 1.06071E-03 1.90214E-06-6.36008E-04-4.99428E-14 2.62957E-13
 -1      2538 2.00002E+01 2.11824E-04 3.33472E-06 3.45345E-05-1.02309E-13-5.40406E-13
 -1      2539 2.00002E+01 2.90140E-04 1.31669E-07-1.09582E-04-1.88004E-13 8.45867E-14
 -1      2540 2.00004E+01 6.43111E-04-1.18200E-06-3.25235E-04-1.99392E-13 1.06368E-13
 -1      2541 1.99999E+01-2.24452E-04 4.60527E-06 3.28930E-04-4.24357E-13 2.97835E-13
 -1      2542 2.00000E+01-7.53565E-05-3.66189E-06 3.01709E-04 5.47829E-15-2.75740E-13
 -1      2543 1.99998E+01-1.76404E-04 2.16052E-06 3.39218E-04-3.32514E-13 1.00382E-13
 -1      2544 1.97101E+01 4.22617E-02 1.84852E-04-9.60711E-02 1.20662E-13 3.46819E-13
 -1      2545 1.97305E+01 7.80611E-02 5.12583E-03-6.54555E-02 1.32096E-13 3.71551E-13
 -1      2546 1.98947E+01 1.38928E-01-3.41617E-03-6.10099E-03 1.56184E-13 2.73395E-13
 -1      2547 1.08506E+01-4.06421E+00 3.77706E-02-5.52442E+00 3.71370E-13 5.97855E-14
 -1      2548 1.55497E+01-4.78281E+00-3.71059E-02-6.33677E+00 4.43923E-13-1.64591E-13
 -1      2549 2.25982E+01-3.97303E+00 8.49989E-02-5.42327E+00 5.93081E-13-1.18877E-13
 -1      2550 2.10293E+01-1.68303E+00 1.80209E-01-6.11078E+00 4.59022E-13-1.65840E-13
 -1      2551 2.03964E+01 8.29188E-01 8.17345E-03-9.38014E-01-2.13690E-13-1.80423E-13
 -1      2552 2.01988E+01 6.23469E-01-1.48778E-03-6.35425E-01-1.85608E-13-1.78338E-13
 -1      2553 2.02528E+01 7.45763E-01 2.48843E-04-6.32807E-01-1.84980E-13-2.02254E-13
 -1      2554 2.03618E+01 1.18490E+00 5.77373E-03-1.04340E+00-1.88796E-13-2.14450E-13
 -1      2555 1.95076E+01 3.59981E+00-1.00391E-02-2.45490E-01 1.92982E-13-2.98604E-13
 -1      2556 1.95246E+01 3.57942E+00-9.69922E-03-4.24003E-01 1.52231E-13-3.27622E-13
 -1      2557 1.96999E+01 3.18288E+00-4.28314E-04-4.70077E-01 1.27131E-13-2.97546E-13
 -1      2558 1.96637E+01 3.24086E+00-8.07349E-04-1.54358E-01 1.85636E-13-2.58916E-13
 -1      2559 5.26348E+00-1.98813E+00 9.29467E-02 6.03899E+00-3.79141E-14 4.87055E-13
 -1      2560 3.41881E+00-1.80164E+00 1.92524E-01 3.61202E+00-8.48904E-14 5.96245E-13
 -1      2561 1.96010E+01-4.13693E+00 6.17871E-02 6.03135E+00 2.56406E-13 8.73468E-14
 -1      2562 1.51571E+01-5.03272E+00-6.22452E-02 6.18443E+00 6.37823E-14-2.26763E-14
 -1      2563 1.02095E+01-4.28332E+00-4.19345E-02 5.45307E+00 1.69420E-13-1.34837E-13
 -1      2564 2.83915E+01-3.20656E+00-6.89857E-02 5.54578E+00 1.98674E-13-6.73905E-14
 -1      2565 2.43315E+01-4.45367E+00 1.91492E-02 6.81236E+00 1.75693E-13 6.70020E-14
 -1      2566 2.36477E+01-4.83879E+00 5.48595E-02 6.90862E+00-3.65263E-14 2.47649E-14
 -1      2567 2.94969E+01-3.12387E+00 4.30300E-02 3.68682E+00 2.27984E-13-2.65260E-13
 -1      2568 3.53327E+01 4.22611E+00-9.03524E-02-3.03562E-01 3.17191E-13-1.41887E-13
 -1      2569 3.55605E+01 6.10914E+00-2.03184E-01 4.94674E-01 4.39981E-13-1.00309E-13
 -1      2570 3.45399E+01 8.88128E+00-1.87859E-01-3.29718E-01 8.18290E-13-2.68160E-13
 -1      2571 3.42260E+01 8.04293E+00-2.22484E-01-7.58736E-01 8.22398E-13-4.27033E-13
 -1      2572 3.55565E+01 8.24192E+00-1.15596E-01 5.76156E-01 6.87672E-13-1.36280E-13
 -1      2573 3.51342E+01 9.05456E+00-1.99728E-01 3.31997E-01 8.05911E-13-1.82392E-13
 -1      2574 3.23564E+01-1.01641E-01-1.13282E-01-1.79193E+00 1.58373E-13-1.47715E-13
 -1      2575 3.46208E+01 2.13602E+00-5.45560E-02-1.17927E+00 3.02453E-13-7.64944E-14
 -1      2576 3.30580E+01 2.56271E+00-4.01837E-02 7.16328E-01 1.92818E-13 3.60545E-14
 -1      2577 1.76000E+01-5.00824E+00 4.45775E-02-8.39893E+00-1.74194E-13-7.23267E-13
 -1      2578 2.17468E+01-4.76634E+00-4.60903E-02-7.92199E+00-1.49492E-13-6.51521E-13
 -1      2579 1.00717E+01-3.80182E+00 1.28891E-01-7.97103E+00-3.72757E-14-6.27803E-13
 -1      2580 1.36783E+01-4.16408E+00 6.67329E-02-8.80832E+00-1.12799E-13-7.26197E-13
 -1      2581 3.69131E+00-2.70186E+00 1.13977E-01-4.81649E+00 8.06855E-14-5.09259E-13
 -1      2582 6.15046E+00-2.98704E+00 8.37518E-02-6.87879E+00 4.66016E-14-5.41789E-13
 -1      2583 2.73505E+00-1.56369E+00 1.45881E-01-1.31480E-01 1.63741E-13-5.55944E-13
 -1      2584 2.40860E+00-2.15182E+00 1.07648E-01-2.76233E+00 1.35336E-13-5.43676E-13
 -1      2585 5.02787E+00-6.77904E-01 1.57241E-01-3.77804E+00 1.29452E-13-5.59219E-13
 -1      2586 7.31944E+00-3.06384E+00 1.17615E-01 4.77055E+00 1.69975E-13-3.04978E-13
 -1      2587 4.78278E+00-2.01211E+00 1.25742E-01 2.94843E+00 1.60122E-13-4.38094E-13
 -1      2588 2.81791E+01-5.76395E+00 1.81208E-02-3.79456E+00 5.22749E-13-1.56403E-13
 -1      2589 1.81338E+01-1.61945E+00 2.92714E-01 6.35976E+00 3.95989E-13 1.27356E-13
 -1      2590 1.29992E+01-4.02170E+00 4.98252E-02 8.82192E+00-1.04972E-13 4.70235E-13
 -1      2591 9.15821E+00-3.20704E+00 1.68099E-01 7.76924E+00-1.15852E-13 4.22717E-13
 -1      2592 2.00000E+01 6.32682E-04-6.04840E-06 5.11951E-04 1.75524E-13-3.01948E-13
 -1      2593 2.29637E+01-5.43446E+00-1.63865E-03-4.90885E+00 5.69378E-13-9.97535E-14
 -1      2594 1.99109E+01 2.82970E+00 1.38618E-03-1.08355E+00-1.94046E-14-3.47764E-13
 -1      2595 1.97841E+01 3.17010E+00-1.53000E-02-1.27241E+00-3.34252E-14-3.87957E-13
 -1      2596 1.98818E+01 3.02664E+00-1.97055E-02-1.46456E+00-9.06939E-14-3.83744E-13
 -1      2597 2.37423E+01-4.83858E+00 1.36444E-01-6.81776E+00-4.06841E-13-3.29545E-13
 -1      2598 2.49126E+01-4.57485E+00 7.76835E-02-6.62995E+00-2.30371E-13-4.24494E-13
 -1      2599 2.70348E+01-4.56199E+00-1.61211E-01-4.90063E+00-3.92769E-13-2.39045E-13
 -1      2600 2.03431E+01 5.89844E-01 9.15212E-03 8.62390E-01 2.26938E-13 6.99355E-13
 -1      2601 2.04031E+01 8.35748E-01 6.90234E-03 1.03774E+00 2.57478E-13 5.96343E-13
 -1      2602 2.01738E+01 4.88657E-01 7.95761E-03 6.53650E-01 2.18571E-13 6.37938E-13
 -1      2603 4.49972E+00-2.65344E-01 1.91093E-01 1.99395E+00-4.05162E-14 5.95690E-13
 -1      2604 1.98397E+01 4.29371E-02-2.52518E-03-9.60315E-02 1.25595E-13 2.69423E-13
 -1      2605 2.00198E+01 2.74025E+00-1.49504E-02-1.53151E+00-1.17188E-13-3.49724E-13
 -1      2606 2.01658E+01 2.49592E+00-2.50079E-02-1.69552E+00-1.71950E-13-3.33809E-13
 -1      2607 2.03312E+01 1.78541E+00 7.94340E-03-1.30727E+00-1.75435E-13-2.83216E-13
 -1      2608 2.01126E+01 2.41106E+00 4.03633E-03-1.28465E+00-9.81569E-14-3.20659E-13
 -1      2609 3.23711E+01 2.71034E+00-2.29838E-01-1.09449E+00 6.56836E-13-7.38853E-13
 -1      2610 3.33140E+01 1.49394E+00-3.61529E-02 4.04558E-01 5.57179E-13-5.83866E-13
 -1      2611 3.16689E+01-1.59157E-01-2.17292E-02 4.00286E-01 4.00603E-13-5.43982E-13
 -1      2612 8.87047E+00-1.63379E+00 1.56915E-01 6.76905E+00-2.31093E-13 3.54161E-13
 -1      2613 1.64647E+01-9.03326E-01 1.26458E-01-6.26541E+00 2.68646E-13-2.63511E-13
 -1      2614 1.05557E+01-2.16100E+00 1.28286E-01-5.29207E+00 3.18301E-13-5.88418E-14
 -1      2615 3.33331E+01 6.78198E+00-7.54051E-02 1.15849E+00 4.60798E-13 1.13798E-15
 -1      2616 2.00001E+01 9.22826E-04 1.02550E-05 7.19815E-04 2.08234E-13-2.71840E-13
 -1      2617 2.00151E+01 3.62408E-01 7.69517E-03 3.84490E-01 1.95327E-13 4.97960E-13
 -1      2618 2.01095E+01 4.32282E-01 1.17664E-02 5.26135E-01 2.02942E-13 5.70655E-13
 -1      2619 2.01962E+01 5.65478E-01-2.60815E-03 6.42990E-01 2.37517E-13 4.62538E-13
 -1      2620 2.00948E+01 4.30821E-01-6.14638E-03 3.97934E-01 1.96625E-13 3.35688E-13
 -1      2621 4.91144E+00-6.27874E-01 1.83240E-01 1.64509E+00 2.16945E-13-5.26634E-13
 -1      2622 5.84234E+00 9.07341E-01 1.89189E-01 4.39753E-01 2.74943E-13-5.23026E-13
 -1      2623 7.64662E+00 5.30850E-01 1.48362E-01 3.12296E+00 3.17323E-13-4.03455E-13
 -1      2624 9.84603E+00-2.19916E+00 1.52711E-01-7.34870E+00-5.49560E-15-6.01075E-13
 -1      2625 3.15049E+01-1.59904E+00-1.52690E-02-2.40514E+00-1.02002E-14-1.49686E-13
 -1      2626 3.12799E+01-1.04319E+00-1.13224E-01-5.29556E-01-7.28861E-14 8.35998E-14
 -1      2627 2.98050E+01-2.88017E+00 1.46224E-02-2.94012E+00-2.19033E-13-1.00697E-13
 -1      2628 3.35187E+01 6.78151E+00-1.34388E-01-1.15711E+00 7.88425E-13-5.10605E-13
 -1      2629 3.17852E+01 5.22185E+00-1.80454E-01-1.47209E+00 6.58168E-13-4.57093E-13
 -1      2630 3.08449E+01 7.08722E+00-1.21239E-01-1.49999E+00 6.85785E-13-1.97314E-13
 -1      2631 1.09291E+01-2.17571E+00 3.15330E-02 5.53149E+00 3.29348E-13-1.03306E-13
 -1      2632 3.22967E+01 8.63639E+00-1.12035E-01-8.85022E-02 7.35523E-13-5.02879E-14
 -1      2633 1.71090E+01-4.28514E+00 1.06619E-01-8.30171E+00-2.61180E-13-6.34118E-13
 -1      2634 1.64861E+01-3.97339E+00 1.28629E-01 8.35120E+00-2.20463E-13 2.51327E-13
 -1      2635 1.98344E+01 2.77508E+00-6.14958E-03 5.03647E-01 2.94825E-13-1.36990E-13
 -1      2636 1.98076E+01 2.82650E+00-5.77725E-03 3.53813E-01 2.68068E-13-1.70833E-13
 -1      2637 1.97891E+01 2.86737E+00-5.47483E-03 2.19869E-01 2.45670E-13-2.06168E-13
 -1      2638 1.97792E+01 2.88585E+00-5.55738E-03 6.71364E-02 2.15556E-13-2.03844E-13
 -1      2639 1.99349E+01 2.51553E+00 3.58164E-03 2.52244E-01 2.37933E-13-1.68649E-13
 -1      2640 2.00415E+01 2.32637E+00-1.07357E-02 1.03240E+00 3.57783E-13 4.66007E-14
 -1      2641 1.99748E+01 2.47694E+00-6.34316E-03 8.97010E-01 3.43153E-13-1.51355E-15
 -1      2642 2.02079E+01 1.91531E+00-1.63781E-02 1.22127E+00 3.59657E-13 1.72922E-13
 -1      2643 2.01236E+01 2.14782E+00-5.06587E-03 1.11971E+00 3.56698E-13 1.07956E-13
 -1      2644 2.01893E+01 1.89164E+00 7.69319E-03 9.13916E-01 3.33862E-13 9.70580E-14
 -1      2645 2.04519E+01 1.01254E+00 2.10900E-03 1.14331E+00 2.87126E-13 5.09755E-13
 -1      2646 2.04068E+01 1.27462E+00-7.42475E-03 1.25554E+00 3.21617E-13 4.11966E-13
 -1      2647 2.03231E+01 8.45725E-01 6.22029E-03 8.88461E-01 2.76919E-13 4.52201E-13
 -1      2648 1.99530E+01 4.70709E-02-1.12563E-03-9.37855E-02 1.23992E-13 2.08092E-13
 -1      2649 1.99793E+01 1.03684E-01 4.30805E-03-6.20168E-02 1.49873E-13 2.30065E-13
 -1      2650 1.06828E+01 6.53556E-01 2.65789E-01 4.57850E+00 3.82167E-13-1.83381E-13
 -1      2651 1.43063E+01-6.93947E-01 1.19283E-01 5.82843E+00 4.00041E-13 2.16216E-14
 -1      2652 2.01262E+01 4.19685E-01 6.15589E-03-1.19640E-01-1.02083E-13-1.50830E-13
 -1      2653 2.00723E+01 3.38273E-01-1.06938E-03-1.09712E-02-7.15235E-14-1.51754E-13
 -1      2654 2.00381E+01 2.79123E-01 3.63451E-03 8.08861E-02-4.29427E-14-1.45222E-13
 -1      2655 2.00050E+01 2.36992E-01 5.46542E-05 1.60213E-01-2.00341E-14-1.48414E-13
 -1      2656 2.01278E+01 3.90629E-01-1.52299E-03 2.84746E-03-7.36676E-14-1.10122E-13
 -1      2657 1.99683E+01 2.14030E-01 1.49464E-03 2.25239E-01-2.03223E-14-1.55505E-13
 -1      2658 1.99519E+01 2.06157E-01 9.55276E-04 2.86676E-01-2.93510E-14-1.91205E-13
 -1      2659 2.00520E+01 2.85579E-01-8.83149E-04 1.67839E-01-3.61802E-14-1.59644E-13
 -1      2660 1.99072E+01 2.13873E-01-6.08833E-04 3.38154E-01-2.19481E-14-1.57853E-13
 -1      2661 1.98984E+01 2.38598E-01 1.63033E-03 3.96493E-01 5.15180E-15-1.29649E-13
 -1      2662 1.99726E+01 2.62313E-01 3.68230E-04 2.89213E-01-1.66642E-14-1.27336E-13
 -1      2663 1.98338E+01 2.78187E-01-2.91689E-03 4.45315E-01 2.54996E-15-1.23278E-13
 -1      2664 1.98208E+01 3.39427E-01 2.01134E-03 5.14141E-01-1.33808E-14-1.13890E-13
 -1      2665 1.98727E+01 3.15484E-01 2.34646E-03 3.90141E-01 6.38859E-15-6.37362E-14
 -1      2666 1.97169E+01 4.17316E-01-5.80445E-03 5.69229E-01-1.15123E-14-1.06944E-13
 -1      2667 1.96817E+01 5.23956E-01 1.82135E-03 6.61740E-01 1.06252E-15-8.47451E-14
 -1      2668 1.97226E+01 4.52337E-01 5.45788E-03 4.88825E-01-8.65855E-15-1.04221E-13
 -1      2669 1.95071E+01 6.51002E-01-9.74298E-03 7.29478E-01-1.65080E-14-1.07665E-13
 -1      2670 1.94202E+01 8.15371E-01 3.94759E-04 8.58256E-01-3.30324E-14-7.59586E-14
 -1      2671 1.94746E+01 6.90179E-01 1.04219E-02 5.97124E-01-1.27069E-14-1.32438E-13
 -1      2672 1.91254E+01 1.00526E+00-1.49785E-02 9.40695E-01-4.85208E-14-8.30403E-14
 -1      2673 1.89351E+01 1.23815E+00-3.08816E-03 1.11528E+00-5.06817E-14-7.65240E-14
 -1      2674 1.90524E+01 1.05155E+00 1.82473E-02 7.16768E-01-2.71725E-14-7.36915E-14
 -1      2675 1.84700E+01 1.47992E+00-2.29303E-02 1.20314E+00-3.55142E-14-9.52315E-14
 -1      2676 1.81279E+01 1.76451E+00-9.25759E-03 1.41326E+00 4.01588E-16-9.57182E-14
 -1      2677 1.83625E+01 1.54137E+00 3.17742E-02 8.29167E-01-5.22416E-14-1.15030E-13
 -1      2678 1.73478E+01 2.06853E+00-2.99778E-02 1.50198E+00 2.83213E-14-1.14819E-13
 -1      2679 1.67033E+01 2.38602E+00-1.02634E-02 1.76251E+00 5.86597E-14-7.73045E-14
 -1      2680 1.72247E+01 2.14520E+00 5.26911E-02 9.05896E-01 1.78030E-14-1.78402E-13
 -1      2681 1.54361E+01 2.63855E+00-3.39125E-02 1.83561E+00 7.86558E-14-1.08708E-13
 -1      2682 1.43540E+01 2.81784E+00-2.94978E-03 2.12789E+00 1.21335E-13-1.59199E-13
 -1      2683 1.53454E+01 2.78883E+00 1.00532E-01 8.78999E-01 4.83316E-14-2.45007E-13
 -1      2684 1.41660E+01 1.74193E+00 9.26089E-02-4.45954E+00 9.49241E-14-2.32397E-13
 -1      2685 1.49586E+01 2.36059E+00 2.25870E-02-3.91477E+00 8.59243E-14-1.15886E-13
 -1      2686 1.98627E+01 2.72048E+00-6.19012E-03-6.26952E-01 7.28686E-14-2.95444E-13
 -1      2687 1.99086E+01 2.63044E+00-7.69351E-03-7.73155E-01 3.47509E-14-3.20466E-13
 -1      2688 1.65864E+01 2.49182E+00 3.33700E-02-3.45343E+00 8.94402E-14-3.03889E-14
 -1      2689 1.71054E+01 2.38480E+00-2.33123E-02-2.93018E+00 6.63566E-14 8.34333E-14
 -1      2690 1.37812E+01 2.91849E+00 1.61881E-01-2.69372E+00 1.79145E-13-7.77156E-15
 -1      2691 1.81817E+01 2.15799E+00 9.13367E-03-2.56405E+00-1.29584E-14 1.36132E-13
 -1      2692 1.84756E+01 1.87347E+00-2.65671E-02-2.11699E+00 2.82893E-14-4.77283E-14
 -1      2693 1.63344E+01 2.71802E+00 8.30755E-02-2.09784E+00 6.42225E-14 2.98403E-14
 -1      2694 1.91364E+01 1.59245E+00 5.94147E-03-1.82959E+00-6.47486E-14-1.99059E-13
 -1      2695 1.92669E+01 1.32167E+00-1.94253E-02-1.48203E+00-2.51022E-13-2.62430E-13
 -1      2696 1.79537E+01 2.09066E+00 4.66585E-02-1.59811E+00-1.72515E-13-3.32811E-13
 -1      2697 1.96529E+01 1.08872E+00 6.76692E-03-1.26091E+00-3.06822E-13-2.12034E-13
 -1      2698 1.96903E+01 8.81169E-01-1.25686E-02-1.00915E+00-2.49265E-13-2.58451E-13
 -1      2699 1.89092E+01 1.47150E+00 2.67127E-02-1.17148E+00-2.79902E-13-5.03013E-13
 -1      2700 1.99066E+01 7.13472E-01 6.56410E-03-8.46019E-01-7.04410E-14-2.22121E-13
 -1      2701 1.99008E+01 5.68715E-01-7.79310E-03-6.72236E-01 1.91285E-13-2.35675E-13
 -1      2702 1.94487E+01 9.85259E-01 1.51886E-02-8.29440E-01-1.35433E-13-2.60632E-13
 -1      2703 2.00177E+01 4.56121E-01 5.54804E-03-5.56516E-01 2.14541E-13-3.32897E-13
 -1      2704 1.99969E+01 3.60240E-01-4.53106E-03-4.40569E-01 5.44750E-14-4.01412E-13
 -1      2705 1.97410E+01 6.39722E-01 8.31883E-03-5.70913E-01 1.02962E-13-3.83604E-13
 -1      2706 2.00560E+01 2.90598E-01 4.26559E-03-3.64805E-01-6.10097E-14-4.66478E-13
 -1      2707 2.00334E+01 2.30498E-01-2.70737E-03-2.91625E-01-1.24317E-13-4.90690E-13
 -1      2708 1.98903E+01 4.11529E-01 4.28612E-03-3.88268E-01-4.48022E-14-3.93678E-13
 -1      2709 2.00638E+01 1.82771E-01 3.02396E-03-2.36835E-01-1.03837E-13-5.62348E-13
 -1      2710 2.00432E+01 1.42616E-01-1.69382E-03-1.87122E-01-1.85922E-13-4.88458E-13
 -1      2711 1.99653E+01 2.62280E-01 2.36190E-03-2.60532E-01-1.73653E-13-4.68435E-13
 -1      2712 2.00573E+01 1.12903E-01 2.07924E-03-1.51093E-01-3.05532E-13-4.49067E-13
 -1      2713 2.00410E+01 8.78104E-02-9.82974E-04-1.19465E-01-3.06319E-13-2.20531E-13
 -1      2714 2.00008E+01 1.63477E-01 1.17341E-03-1.71033E-01-2.25909E-13-3.29217E-13
 -1      2715 2.00465E+01 6.94102E-02 1.39898E-03-9.59695E-02-1.59845E-13-2.07284E-13
 -1      2716 2.00343E+01 5.38571E-02-5.61060E-04-7.60088E-02 1.45631E-13-2.24251E-13
 -1      2717 2.00147E+01 1.01220E-01 5.31944E-04-1.11482E-01-1.62523E-13-2.87071E-13
 -1      2718 2.00356E+01 4.25455E-02 9.25084E-04-6.08086E-02 2.93390E-13-2.73933E-13
 -1      2719 2.00268E+01 3.29710E-02-3.13965E-04-4.82658E-02 2.89866E-13-2.92325E-13
 -1      2720 2.00182E+01 6.24206E-02 2.06709E-04-7.23356E-02 2.18268E-13-2.48462E-13
 -1      2721 2.00263E+01 2.60549E-02 6.04812E-04-3.84752E-02 2.01605E-13-2.96597E-13
 -1      2722 2.00200E+01 2.01898E-02-1.71225E-04-3.06061E-02 3.85754E-14-3.40988E-13
 -1      2723 2.00171E+01 3.84228E-02 5.07143E-05-4.68047E-02 2.31896E-13-3.62817E-13
 -1      2724 2.00188E+01 1.59773E-02 3.92764E-04-2.43070E-02 1.02458E-13-2.87647E-13
 -1      2725 2.00145E+01 1.23958E-02-9.00337E-05-1.93648E-02 1.15791E-13-2.31190E-13
 -1      2726 2.00142E+01 2.36607E-02-1.78463E-05-3.02194E-02 1.24629E-13-2.24362E-13
 -1      2727 2.00132E+01 9.83294E-03 2.53863E-04-1.53046E-02 3.45796E-14-1.41933E-13
 -1      2728 2.00102E+01 7.66078E-03-3.89179E-05-1.21938E-02-1.00491E-13-1.24736E-13
 -1      2729 2.00111E+01 1.46107E-02-4.34069E-05-1.94514E-02 1.19653E-13-2.21964E-13
 -1      2730 2.00091E+01 6.17623E-03 1.66256E-04-9.68310E-03-1.66864E-13-7.76261E-14
 -1      2731 2.00071E+01 4.88145E-03-1.59471E-05-7.77729E-03-1.14017E-13-3.77983E-14
 -1      2732 2.00083E+01 9.14208E-03-5.81574E-05-1.25664E-02-5.34574E-14-1.02354E-13
 -1      2733 2.00061E+01 3.89177E-03 1.07331E-04-6.02179E-03 8.38187E-14 9.78254E-14
 -1      2734 2.00047E+01 3.05593E-03-7.77045E-06-4.73272E-03 1.28458E-14 1.14138E-13
 -1      2735 2.00060E+01 5.81139E-03-4.25960E-05-8.05085E-03 5.97824E-14 1.93321E-13
 -1      2736 2.00039E+01 2.45651E-03 7.02935E-05-3.58668E-03-1.11559E-13 1.82455E-13
 -1      2737 2.00030E+01 1.93541E-03-1.87272E-06-2.75672E-03 1.73501E-13 2.29335E-13
 -1      2738 2.00042E+01 3.66588E-03-3.53388E-05-4.97710E-03-1.97529E-16 2.52898E-13
 -1      2739 2.00024E+01 1.56220E-03 4.56135E-05-2.00264E-03 3.26032E-13 2.11902E-13
 -1      2740 2.00018E+01 1.23237E-03 9.78810E-07-1.46683E-03 3.11203E-13 2.09546E-13
 -1      2741 2.00028E+01 2.33263E-03-2.76176E-05-2.94767E-03 2.45391E-13 4.58618E-13
 -1      2742 2.00014E+01 9.91786E-04 2.95400E-05-9.70689E-04 1.76603E-13 1.41952E-13
 -1      2743 2.00010E+01 7.71307E-04 1.14725E-06-6.27495E-04 9.85711E-14-4.58374E-14
 -1      2744 2.00018E+01 1.48624E-03-2.09205E-05-1.60791E-03 1.50697E-13 3.28358E-13
 -1      2745 2.00007E+01 6.05813E-04 1.94541E-05-3.12886E-04-1.15997E-14-1.39338E-13
 -1      2746 2.00005E+01 4.30464E-04-4.77438E-06-9.55553E-05 1.26580E-13-2.45454E-13
 -1      2747 2.00010E+01 9.11843E-04-1.77216E-05-7.27901E-04 3.43792E-14 8.07585E-16
 -1      2748 6.20076E+00 5.78669E-01 1.77496E-01-1.85474E+00 1.00524E-13 4.74121E-13
 -1      2749 7.52854E+00 9.42660E-02 2.11068E-01-3.51214E+00 3.20854E-14 1.92651E-13
 -1      2750 1.99998E+01-7.46336E-05 2.73476E-06 3.88473E-04-3.78537E-13 4.44843E-13
 -1      2751 1.99998E+01-1.36799E-04-4.98636E-06 3.68230E-04-3.83202E-13 2.10485E-13
 -1      2752 1.99300E+01-1.21445E-01-1.53236E-03-8.97382E-02 6.93683E-14 1.20633E-13
 -1      2753 1.99339E+01-8.20327E-02 2.39470E-03-1.10627E-01 6.15311E-14 1.74810E-13
 -1      2754 1.99321E+01-4.35799E-02-1.17813E-03-1.16763E-01 7.33841E-14 1.71059E-13
 -1      2755 1.99439E+01 9.79070E-04 3.08977E-03-1.13930E-01 1.10862E-13 2.06827E-13
 -1      2756 2.00545E+01 3.79092E-02-2.17012E-03-9.16961E-02 1.39844E-13 1.45633E-13
 -1      2757 2.00404E+01-7.18803E-02-1.87324E-03-1.11180E-01 8.40668E-14 8.95175E-14
 -1      2758 1.99584E+01-2.68932E-01-2.81689E-03 9.63403E-02 9.22494E-14 2.67155E-13
 -1      2759 1.99627E+01-2.30790E-01 2.00596E-03 3.33545E-02 6.57079E-14 2.06473E-13
 -1      2760 1.99754E+01-3.38694E-01-3.50719E-03 2.53370E-01 8.06385E-14 3.23026E-13
 -1      2761 1.99875E+01-3.03168E-01 1.95957E-03 1.70498E-01 1.24978E-13 2.93022E-13
 -1      2762 2.01198E+01-3.51152E-01-1.09599E-03 1.24002E-01 8.22380E-14 2.11279E-13
 -1      2763 1.99819E+01-3.93505E-01-3.93031E-03 4.49868E-01 3.22989E-14 2.76982E-13
 -1      2764 2.00073E+01-3.67438E-01 1.70794E-03 3.49917E-01 6.06291E-14 2.81699E-13
 -1      2765 2.01741E+01-4.34223E-01-5.66829E-04 2.95480E-01 6.58182E-14 2.03788E-13
 -1      2766 1.99646E+01-4.13479E-01-3.72524E-03 6.75293E-01 2.14122E-14 1.87377E-13
 -1      2767 2.00085E+01-4.08161E-01 9.91108E-04 5.65473E-01 2.59246E-14 2.67959E-13
 -1      2768 2.02274E+01-4.93316E-01 3.32766E-04 5.10653E-01 7.22619E-14 1.45451E-13
 -1      2769 1.99072E+01-3.72443E-01-2.48926E-03 9.06177E-01 3.66103E-14 1.04032E-13
 -1      2770 1.99739E+01-4.01884E-01-3.95333E-04 8.00336E-01 4.26380E-14 1.35369E-13
 -1      2771 2.02619E+01-5.01751E-01 1.63396E-03 7.57407E-01 7.70409E-14 9.29414E-14
 -1      2772 1.97946E+01-2.45539E-01 3.20347E-05 1.10225E+00 6.32408E-14 1.21227E-13
 -1      2773 1.98850E+01-3.21760E-01-2.41624E-03 1.02177E+00 2.91565E-14 1.00113E-13
 -1      2774 2.02538E+01-4.26852E-01 3.08896E-03 1.00772E+00 5.12090E-14 7.47360E-14
 -1      2775 1.96209E+01-2.28349E-02 3.60326E-03 1.20809E+00 1.22186E-13 1.47539E-13
 -1      2776 1.97302E+01-1.48164E-01-4.59149E-03 1.17957E+00 9.46015E-14 1.19458E-13
 -1      2777 2.01797E+01-2.41289E-01 4.08325E-03 1.21301E+00 6.60192E-14 1.00916E-13
 -1      2778 1.93997E+01 2.74926E-01 7.20709E-03 1.16489E+00 2.92525E-14 1.77052E-13
 -1      2779 1.95147E+01 1.15770E-01-5.99719E-03 1.21303E+00 7.33484E-14 1.61302E-13
 -1      2780 2.00285E+01 5.88710E-02 3.74565E-03 1.30706E+00 9.75015E-14 1.83908E-13
 -1      2781 1.91701E+01 5.88321E-01 9.22623E-03 9.33352E-01-4.51570E-14 2.32579E-13
 -1      2782 1.92709E+01 4.30627E-01-5.54310E-03 1.06987E+00 1.88958E-14 2.26508E-13
 -1      2783 1.98163E+01 4.36034E-01 1.41896E-03 1.22255E+00 3.44542E-14 2.10000E-13
 -1      2784 1.89913E+01 8.30809E-01 8.34306E-03 5.20396E-01 4.67909E-15 1.26442E-13
 -1      2785 1.90558E+01 7.20806E-01-2.66251E-03 7.33501E-01-6.09216E-14 1.60199E-13
 -1      2786 1.95941E+01 8.06768E-01-2.44971E-03 9.21198E-01 6.18411E-15 2.22990E-13
 -1      2787 1.89211E+01 9.23085E-01 4.63945E-03-7.43047E-03-1.46974E-14 1.80371E-13
 -1      2788 1.89331E+01 8.97936E-01 2.03999E-03 2.44870E-01-5.13912E-15 1.42991E-13
 -1      2789 1.94353E+01 1.06393E+00-5.91659E-03 4.25711E-01-1.21754E-14 1.94169E-13
 -1      2790 1.89869E+01 8.33458E-01-2.64756E-04-5.39897E-01-8.22826E-14 2.30596E-13
 -1      2791 1.89425E+01 9.01523E-01 6.57993E-03-3.00267E-01-5.35954E-14 1.90943E-13
 -1      2792 1.94017E+01 1.12269E+00-6.75304E-03-1.70595E-01-4.36144E-14 2.04500E-13
 -1      2793 1.91696E+01 5.95391E-01-4.13994E-03-9.65551E-01 7.91026E-14 2.18519E-13
 -1      2794 1.90793E+01 7.31821E-01 8.98916E-03-7.85039E-01-1.53699E-14 2.07978E-13
 -1      2795 1.95074E+01 9.63920E-01-4.40405E-03-7.33653E-01-7.26397E-14 1.05487E-13
 -1      2796 1.94142E+01 2.88115E-01-5.75176E-03-1.21428E+00 2.28296E-13 1.52247E-13
 -1      2797 1.92979E+01 4.48687E-01 8.33816E-03-1.11787E+00 1.96361E-13 1.60839E-13
 -1      2798 1.97108E+01 6.44160E-01-4.43315E-04-1.14469E+00 1.36906E-13-6.12554E-14
 -1      2799 1.96578E+01-2.32254E-03-5.07503E-03-1.27536E+00 8.53794E-14 6.79557E-14
 -1      2800 1.95370E+01 1.39747E-01 5.35509E-03-1.26220E+00 1.54951E-13 1.57202E-13
 -1      2801 1.99401E+01 2.65303E-01 2.85320E-03-1.34511E+00 2.34053E-13 1.30874E-13
 -1      2802 1.98544E+01-2.16913E-01-3.10037E-03-1.18674E+00 7.87931E-14 5.28356E-14
 -1      2803 1.97459E+01-1.18952E-01 1.59449E-03-1.23704E+00 6.67353E-14 7.52799E-14
 -1      2804 2.01302E+01-7.31146E-02 4.21552E-03-1.34546E+00 6.95650E-14 1.02457E-13
 -1      2805 1.99863E+01-3.36164E-01-9.55119E-04-1.00789E+00 8.26615E-14 2.10104E-13
 -1      2806 1.98988E+01-2.87602E-01-1.56031E-03-1.09495E+00 1.19031E-13 1.76254E-13
 -1      2807 2.02473E+01-3.09864E-01 3.69991E-03-1.20300E+00 6.39259E-14 1.06738E-13
 -1      2808 2.00582E+01-3.71106E-01 7.52736E-04-7.95152E-01-1.68319E-14 1.38735E-13
 -1      2809 1.99933E+01-3.63317E-01-3.44802E-03-8.94794E-01 4.56865E-14 2.18708E-13
 -1      2810 2.02910E+01-4.30402E-01 2.40195E-03-9.87214E-01 9.57594E-14 1.45526E-13
 -1      2811 2.00858E+01-3.47411E-01 1.72800E-03-5.88998E-01-2.51849E-13 3.80704E-14
 -1      2812 2.00408E+01-3.66197E-01-4.13908E-03-6.84165E-01-1.61759E-13 3.94015E-14
 -1      2813 2.02799E+01-4.54088E-01 1.04217E-03-7.55474E-01-5.70026E-14 8.09939E-14
 -1      2814 2.00866E+01-2.92170E-01 2.06277E-03-4.12049E-01-8.44151E-14-4.22927E-14
 -1      2815 2.00570E+01-3.23911E-01-3.99856E-03-4.93307E-01-1.50451E-13-1.73248E-14
 -1      2816 2.02380E+01-4.13709E-01 3.73752E-05-5.44342E-01-1.76116E-13-1.45251E-13
 -1      2817 2.00744E+01-2.26724E-01 1.96584E-03-2.72572E-01-3.49639E-14-1.14747E-13
 -1      2818 2.00559E+01-2.61352E-01-3.41403E-03-3.36551E-01-5.10569E-14-4.78091E-14
 -1      2819 2.01855E+01-3.41358E-01-5.15350E-04-3.71029E-01-1.12976E-14-1.71035E-13
 -1      2820 2.00583E+01-1.64584E-01 1.64890E-03-1.69743E-01-6.87398E-14 3.29972E-14
 -1      2821 2.00472E+01-1.96110E-01-2.68323E-03-2.16933E-01-6.17265E-14-9.54158E-14
 -1      2822 2.01351E+01-2.61023E-01-7.08494E-04-2.39129E-01-7.88348E-14-2.28054E-13
 -1      2823 2.00430E+01-1.12457E-01 1.26607E-03-9.81958E-02 2.20254E-13-8.65030E-14
 -1      2824 2.00367E+01-1.38183E-01-1.98035E-03-1.31050E-01 1.05779E-13-4.75939E-14
 -1      2825 2.00931E+01-1.87178E-01-6.84750E-04-1.44683E-01 3.40306E-14-1.57744E-13
 -1      2826 2.00306E+01-7.23332E-02 9.06825E-04-5.10916E-02 2.24275E-13 1.76714E-14
 -1      2827 2.00272E+01-9.17258E-02-1.38579E-03-7.27214E-02 2.64483E-13-7.38071E-17
 -1      2828 2.00612E+01-1.26492E-01-5.61149E-04-8.06389E-02 1.83545E-13-1.52268E-13
 -1      2829 2.00212E+01-4.34850E-02 6.11592E-04-2.18531E-02 1.50875E-13 1.20747E-13
 -1      2830 2.00197E+01-5.71842E-02-9.22684E-04-3.52611E-02 2.29837E-13 8.70620E-14
 -1      2831 2.00387E+01-8.04710E-02-4.13310E-04-3.94947E-02 1.60836E-13 6.35948E-14
 -1      2832 2.00145E+01-2.39546E-02 3.89541E-04-4.95597E-03 1.41491E-13-7.57450E-14
 -1      2833 2.00141E+01-3.30775E-02-5.83427E-04-1.26770E-02 6.83445E-14-1.69103E-13
 -1      2834 2.00237E+01-4.77712E-02-2.80884E-04-1.46133E-02 2.54010E-13 1.29508E-13
 -1      2835 2.00099E+01-1.14908E-02 2.33560E-04 3.85656E-03 1.82642E-13-6.77345E-14
 -1      2836 2.00101E+01-1.72135E-02-3.47236E-04-1.39160E-04 1.87293E-13-7.30096E-14
 -1      2837 2.00140E+01-2.58603E-02-1.78531E-04-6.99532E-04 2.15881E-13-2.94716E-14
 -1      2838 2.00068E+01-4.04158E-03 1.30268E-04 7.66198E-03 1.89706E-13-1.30631E-13
 -1      2839 2.00072E+01-7.39213E-03-1.90383E-04 5.96897E-03 2.16732E-13-1.85299E-13
 -1      2840 2.00082E+01-1.20180E-02-1.06911E-04 6.18435E-03 2.65621E-13-3.05002E-13
 -1      2841 2.00046E+01 4.99830E-05 6.56393E-05 8.56912E-03-2.45187E-14-2.56043E-15
 -1      2842 2.00053E+01-1.73707E-03-9.11987E-05 8.20272E-03 1.09006E-13-2.23456E-14
 -1      2843 2.00047E+01-3.83926E-03-6.06023E-05 8.81041E-03 1.11664E-13-3.20949E-13
 -1      2844 2.00032E+01 2.01699E-03 2.76000E-05 7.95242E-03-3.81324E-14-1.52286E-14
 -1      2845 2.00038E+01 1.20311E-03-3.19718E-05 8.27685E-03-4.86525E-14 3.34177E-14
 -1      2846 2.00027E+01 5.82013E-04-3.27026E-05 9.03858E-03-2.23657E-15-1.00757E-14
 -1      2847 2.00022E+01 2.72118E-03 6.82436E-06 6.66173E-03 6.46441E-14-4.28211E-14
 -1      2848 2.00027E+01 2.47450E-03 7.78175E-07 7.28502E-03 9.60854E-14 8.85997E-15
 -1      2849 2.00016E+01 2.64692E-03-1.70078E-05 8.05920E-03 5.91761E-14-2.11856E-13
 -1      2850 2.00015E+01 2.73270E-03-3.32000E-06 5.19075E-03 2.51278E-13-2.33955E-13
 -1      2851 2.00020E+01 2.78852E-03 1.67651E-05 5.88656E-03 1.63689E-13-7.13522E-14
 -1      2852 2.00009E+01 3.32518E-03-8.79254E-06 6.59527E-03 2.34057E-13-1.12861E-13
 -1      2853 2.00010E+01 2.40844E-03-7.49902E-06 3.80183E-03 1.54344E-13-2.21777E-14
 -1      2854 2.00014E+01 2.60403E-03 2.26770E-05 4.45118E-03 1.71142E-13-1.52616E-13
 -1      2855 2.00006E+01 3.25367E-03-4.72943E-06 5.05810E-03 1.45745E-13 7.64881E-14
 -1      2856 2.00006E+01 1.95812E-03-8.23731E-06 2.61706E-03-3.39649E-14-1.37779E-13
 -1      2857 2.00009E+01 2.19900E-03 2.29484E-05 3.16552E-03 3.87618E-14-8.25620E-14
 -1      2858 2.00003E+01 2.82577E-03-3.11471E-06 3.65902E-03 1.34762E-13 2.20090E-13
 -1      2859 2.00003E+01 1.49823E-03-6.55720E-06 1.67373E-03 5.81782E-14-1.97348E-13
 -1      2860 2.00006E+01 1.73475E-03 2.07197E-05 2.10643E-03 8.78485E-14-2.95114E-13
 -1      2861 2.00002E+01 2.27610E-03-1.80445E-06 2.49300E-03 1.09249E-13-3.88914E-14
 -1      2862 2.00001E+01 1.10001E-03-4.51275E-06 9.85787E-04 7.97677E-14-2.27460E-13
 -1      2863 2.00003E+01 1.31348E-03 1.73939E-05 1.30508E-03-1.34165E-14-1.14585E-13
 -1      2864 2.00001E+01 1.73570E-03-6.97840E-06 1.59118E-03-1.48756E-14 2.33936E-14
 -1      2865 2.00000E+01 1.25628E-03-9.79093E-06 9.35904E-04 7.99573E-14-1.99356E-13
 -1      2866 1.99994E+01 2.10889E-03-1.21602E-05 7.38780E-04 3.11405E-13 8.95000E-14
 -1      2867 1.99996E+01 1.93084E-03 2.93483E-06 8.24896E-04 2.27637E-13-2.52202E-13
 -1      2868 1.99991E+01 2.71050E-03-8.20558E-06-7.07441E-06 5.49060E-14-2.47374E-13
 -1      2869 1.99992E+01 2.65553E-03-1.44910E-06 1.84129E-04 1.67496E-13-4.31215E-14
 -1      2870 1.99997E+01 1.71171E-03-1.07360E-05 9.04906E-04 1.74532E-13-2.24876E-13
 -1      2871 1.99998E+01 1.49677E-03 1.29301E-06 9.19669E-04 1.26129E-13-1.96830E-13
 -1      2872 1.99999E+01 1.75720E-03 1.51038E-05 1.20221E-03 1.09785E-13-1.76159E-13
 -1      2873 1.99996E+01 2.19662E-03 8.97889E-06 1.08875E-03 2.54703E-13-8.95365E-14
 -1      2874 1.14851E+01-1.55829E+00 5.83949E-02 7.37310E+00-3.95337E-13 2.13773E-13
 -1      2875 8.56216E+00-1.79141E-02 2.24831E-01 5.44617E+00-3.36176E-13 2.95736E-13
 -1      2876 1.99992E+01 2.48497E-03-1.00435E-05 4.06823E-04 2.49435E-13 8.87190E-14
 -1      2877 1.99993E+01 2.36874E-03 3.53939E-06 5.62079E-04 4.08196E-13 6.76968E-14
 -1      2878 1.99992E+01 2.64543E-03-3.01566E-06 8.27760E-04 1.83710E-13 6.84260E-14
 -1      2879 1.99990E+01 3.06376E-03 1.24220E-05 4.10455E-04 1.00303E-13-1.01969E-13
 -1      2880 1.99994E+01 2.60618E-03-3.93213E-08-7.91477E-04-3.25430E-13 4.18717E-13
 -1      2881 1.99993E+01 2.69439E-03-1.06996E-05-6.53145E-04-2.99281E-13-5.03826E-14
 -1      2882 1.99998E+01 2.29243E-03 4.42866E-06-9.94937E-04-2.14703E-13 4.12077E-13
 -1      2883 1.99996E+01 2.43570E-03-1.33333E-05-9.34257E-04-3.64426E-13 5.59259E-13
 -1      2884 1.99994E+01 3.09703E-03 1.44166E-05-9.92001E-04-2.51062E-13 3.53567E-13
 -1      2885 2.00001E+01 1.84192E-03 7.91874E-06-1.00452E-03-5.95035E-14 3.74338E-13
 -1      2886 1.99999E+01 2.02589E-03-1.39386E-05-1.03624E-03-1.65222E-13 4.76394E-13
 -1      2887 1.99999E+01 2.68803E-03 1.16930E-05-1.20868E-03-1.93445E-13 5.09508E-13
 -1      2888 2.00004E+01 1.32377E-03 9.42377E-06-8.09165E-04-1.21270E-13 1.55429E-13
 -1      2889 2.00003E+01 1.51984E-03-1.19164E-05-9.28221E-04-3.60861E-14 1.77853E-13
 -1      2890 2.00003E+01 2.12646E-03 7.31822E-06-1.19436E-03-1.65288E-13 3.46805E-13
 -1      2891 2.00006E+01 8.18645E-04 7.35559E-06-4.56274E-04-1.95135E-13 8.27314E-14
 -1      2892 2.00005E+01 9.95373E-04-8.28605E-06-6.28134E-04-7.26716E-14 1.48503E-13
 -1      2893 2.00006E+01 1.50268E-03 7.36643E-06-9.48098E-04-8.40365E-14 8.02558E-14
 -1      2894 1.99999E+01-3.67214E-05-2.26658E-06 3.62962E-04-6.23762E-14-6.55362E-14
 -1      2895 2.00000E+01 1.14962E-05 4.40643E-06 2.69533E-04 1.75376E-13-4.28516E-13
 -1      2896 2.00001E+01 7.31887E-05 1.17110E-06 1.99783E-04 1.37669E-13-6.82447E-13
 -1      2897 2.00003E+01 3.04367E-04-3.79599E-06 3.78035E-05 1.13610E-14-4.34117E-13
 -1      2898 1.99988E+01 1.65539E-01-1.46826E-03-9.31772E-03 1.65364E-13 2.07312E-13
 -1      2899 2.00472E+01 2.45310E-01 6.28143E-03 6.08765E-02 1.64194E-13 2.21878E-13
 -1      2900 2.00923E+01 1.77716E-01-2.42554E-03-1.09342E-02 1.56535E-13 1.45332E-13
 -1      2901 6.24603E+00 8.34129E-01 1.65482E-01 3.19540E+00-1.40055E-13 5.00933E-13
 -1      2902 5.44585E+00 8.57674E-01 2.25311E-01 4.84913E-01-1.50791E-15 4.82558E-13
 -1      2903 7.42729E+00 1.55049E+00 1.47701E-01-5.91225E-01 1.87003E-15 3.91298E-13
 -1      2904 3.15016E+01 5.27371E+00-1.38076E-01 1.72229E+00 3.18134E-13 1.61982E-13
 -1      2905 3.09599E+01 7.13627E+00-2.16571E-01 1.39714E+00 5.50948E-13 2.07181E-13
 -1      2906 9.10037E+00-6.75206E-01 2.13514E-01-6.12922E+00 2.53825E-14-4.84335E-13
 -1      2907 1.21751E+01-1.75664E+00 9.07898E-02-7.33972E+00-7.91728E-14-5.02931E-13
 -1      2908 9.85927E+00 1.65100E+00 1.00419E-01 3.32186E+00 3.67532E-13-2.93432E-13
 -1      2909 1.64232E+01-3.41826E+00 1.16411E-01-7.92762E+00-3.00746E-13-4.46809E-13
 -1      2910 2.00035E+01-4.47884E+00 5.49793E-02-7.76511E+00-4.19498E-13-3.80626E-13
 -1      2911 1.99992E+01 2.75335E-03-4.37658E-06-4.36616E-04-2.71624E-13-1.93629E-13
 -1      2912 1.99992E+01 2.77064E-03-6.72572E-06-2.52315E-04 4.50891E-14-3.15732E-13
 -1      2913 1.99991E+01 3.30528E-03 1.49000E-05-5.95437E-04-1.45751E-13-1.72378E-13
 -1      2914 1.99408E+01-1.95449E-01-2.10905E-03-1.81778E-02 3.64527E-14 1.55094E-13
 -1      2915 1.99424E+01-1.57199E-01 2.08670E-03-6.04922E-02 4.08254E-14 1.44250E-13
 -1      2916 2.00482E+01-1.68156E-01-1.62478E-03-7.94415E-02 3.38150E-14 1.27739E-13
 -1      2917 2.00758E+01-2.60436E-01-1.39939E-03-8.51228E-04 1.80647E-14 1.32527E-13
 -1      2918 3.11282E+01 1.25711E+00-1.30124E-01 1.00547E+00 3.26406E-14 2.15356E-13
 -1      2919 3.14907E+01 3.11822E+00-1.88807E-01 1.48246E+00 9.68531E-14 1.49242E-13
 -1      2920 1.89060E+01-3.96979E+00-4.22292E-03 7.77453E+00-2.54477E-13 9.32587E-15
 -1      2921 1.57005E+01-2.77902E+00 2.03945E-01 7.79827E+00-3.65263E-13 1.97162E-13
 -1      2922 6.05498E+00 7.97413E-01 2.00243E-01-2.46742E+00 1.76331E-13-5.01044E-13
 -1      2923 7.06572E+00 8.88774E-02 1.45453E-01-4.74734E+00 1.32463E-13-4.73593E-13
 -1      2924 9.55820E+00 3.52409E-01 1.09421E-01-4.97995E+00 5.49005E-14-4.07702E-13
 -1      2925 3.01925E+01 7.99660E+00-1.80447E-01 6.40281E-01 5.69739E-13 2.95083E-13
 -1      2926 2.96271E+01 7.87260E+00-2.03670E-01-3.84825E-01 5.96939E-13 1.46314E-13
 -1      2927 2.00742E+01 3.36324E-01-2.27968E-03 1.56546E-01 1.65996E-13 2.19510E-13
 -1      2928 2.01508E+01 4.55857E-01 8.83740E-03 2.80163E-01 1.73061E-13 2.34939E-13
 -1      2929 2.01523E+01 3.74120E-01-2.38483E-03 1.47483E-01 1.76475E-13 1.48987E-13
 -1      2930 1.99171E+01 2.60177E+00-7.74440E-03 7.80929E-01 3.34926E-13-4.72406E-14
 -1      2931 1.98711E+01 2.69534E+00-6.15506E-03 6.32397E-01 3.01387E-13-1.07680E-13
 -1      2932 1.99879E+01 2.39692E+00 4.16903E-03 5.01922E-01 2.67397E-13-9.98996E-14
 -1      2933 2.00738E+01 2.19460E+00 5.33758E-03 7.31008E-01 3.03815E-13-8.66386E-16
 -1      2934 2.02331E+01 6.74479E-01 6.38362E-03-4.22911E-01-1.52317E-13-1.84682E-13
 -1      2935 2.01557E+01 5.28684E-01-2.42217E-03-2.51729E-01-1.34818E-13-1.68815E-13
 -1      2936 2.02053E+01 5.97259E-01-1.74819E-03-2.32137E-01-1.15769E-13-1.61739E-13
 -1      2937 2.00001E+01 8.65493E-05-4.54376E-06 2.70068E-04 9.36820E-14-2.62284E-13
 -1      2938 2.23731E+01-4.63166E+00 8.43067E-02-6.75559E+00-4.83336E-13-2.05190E-13
 -1      2939 2.43453E+01-4.67952E+00-5.86201E-02-5.50171E+00-5.56319E-13-7.42002E-14
 -1      2940 2.14327E+01-4.08588E+00 6.69878E-02-6.59531E+00-4.84904E-13-9.91360E-14
 -1      2941 1.99151E+01 2.55944E+00 3.45502E-03-4.13532E-03 1.92469E-13-1.96418E-13
 -1      2942 1.97778E+01 2.88988E+00-5.39068E-03-6.72559E-02 1.94040E-13-2.19418E-13
 -1      2943 1.97851E+01 2.87634E+00-5.68675E-03-2.19251E-01 1.63708E-13-2.56302E-13
 -1      2944 2.03285E+01 1.60339E+00 1.55728E-03 1.25905E+00 3.39430E-13 2.94138E-13
 -1      2945 6.99255E+00 1.51729E+00 2.29149E-01-9.14710E-01 2.30036E-13-5.02487E-13
 -1      2946 8.58352E+00 1.97829E+00 1.40299E-01-1.75288E+00 1.58895E-13-4.05814E-13
 -1      2947 8.36248E+00 2.27533E+00 1.96700E-01 8.36475E-01 2.48770E-13-4.93522E-13
 -1      2948 2.03243E+01 1.39191E+00 1.00811E-02 1.01314E+00 3.23609E-13 2.38542E-13
 -1      2949 1.98014E+01 2.84297E+00-5.68999E-03-3.50737E-01 1.34752E-13-2.44437E-13
 -1      2950 1.98269E+01 2.79489E+00-6.33912E-03-5.01182E-01 8.81194E-14-2.66120E-13
 -1      2951 1.99782E+01 2.42485E+00 4.45014E-03-5.01447E-01 6.93462E-14-2.49151E-13
 -1      2952 1.99290E+01 2.53059E+00 3.70371E-03-2.57803E-01 1.23675E-13-2.23870E-13
 -1      2953 1.19636E+01 2.99199E+00 1.88383E-01 3.98362E-01 8.14565E-14-3.37050E-13
 -1      2954 1.19954E+01 2.75993E+00 5.29308E-02 1.90463E+00 1.79193E-13-2.73212E-13
 -1      2955 1.26136E+01 1.01699E+00 1.07611E-01-4.74376E+00 5.39568E-14-1.76748E-13
 -1      2956 1.04231E+01 2.23357E+00 2.88220E-01-3.08997E+00 1.29473E-13 7.76879E-14
 -1      2957 1.04504E+01 2.21964E+00 1.11593E-01 2.14965E+00 3.06975E-13-3.41782E-13
 -1      2958 3.13778E+01 3.72288E+00-1.19448E-01-1.61098E+00 6.08069E-13-3.95975E-13
 -1      2959 3.03205E+01 2.15398E+00-9.22723E-02-1.52348E+00 5.00516E-13-3.96960E-13
 -1      2960 2.96512E+01 4.40443E+00-1.15868E-01-2.08584E+00 5.92831E-13-2.37671E-13
 -1      2961 2.00642E+01 2.23012E+00 5.51679E-03-7.24220E-01 3.62530E-16-2.83710E-13
 -1      2962 1.99665E+01 2.50866E+00-6.41139E-03-8.87965E-01 8.42158E-15-3.24400E-13
 -1      2963 2.00346E+01 2.36297E+00-9.37543E-03-1.01813E+00-4.21860E-14-3.13127E-13
 -1      2964 3.07996E+01-1.13598E-01-9.91179E-02 5.17083E-01 6.45317E-16 2.90268E-13
 -1      2965 2.97471E+01 7.78463E-01-6.40453E-02 1.46018E+00-1.05228E-13 5.05346E-13
 -1      2966 2.98474E+01-1.32923E+00-6.96382E-02-8.42615E-02-1.54252E-13 2.84578E-13
 -1      2967 3.00158E+01 3.91509E+00-8.90608E-02 1.98069E+00 1.54043E-13 2.83468E-13
 -1      2968 2.00002E+01 2.22529E-04 1.25824E-05 1.81527E-04 2.33004E-13-3.36043E-13
 -1      2969 2.89243E+01 6.78902E+00-1.24651E-01 1.09885E+00 4.61770E-13 4.07827E-13
 -1      2970 2.00004E+01 4.27557E-04-3.75287E-07-8.05450E-05 1.01439E-13-2.97610E-13
 -1      2971 1.45561E+01-1.59234E+00 1.09775E-01 6.97338E+00-4.42382E-13 1.55015E-13
 -1      2972 1.99990E+01 3.29318E-03 1.38046E-05-9.50152E-05 1.71612E-13-2.33693E-13
 -1      2973 2.01831E+01 6.06114E-01 1.37190E-03 4.49027E-01 2.18121E-13 2.41653E-13
 -1      2974 2.02178E+01 6.89451E-01 7.39905E-03 5.61251E-01 2.45262E-13 2.97769E-13
 -1      2975 2.00006E+01 5.84175E-04-6.78402E-07-2.62504E-04-1.28903E-13-1.58914E-13
 -1      2976 2.00008E+01 9.65107E-04 9.16446E-06-5.89449E-04-6.85595E-14-4.91232E-14
 -1      2977 8.51105E+00 8.09136E-01 1.89692E-01 4.30112E+00-3.28758E-13 2.75308E-13
 -1      2978 8.75851E+00 1.70942E+00 9.48412E-02 2.95991E+00-2.65642E-13 2.50688E-13
 -1      2979 1.08200E+01 7.85259E-01 9.75325E-02 4.88668E+00-3.90202E-13 2.03865E-13
 -1      2980 2.77091E+01 7.05155E+00-9.36931E-02-4.85324E-01 4.27061E-13 3.82569E-13
 -1      2981 2.93132E+01 7.22890E+00-1.77578E-01-9.77010E-01 5.78509E-13 1.00579E-13
 -1      2982 2.86173E+01 6.23108E+00-1.56746E-01-1.46827E+00 5.72209E-13 6.28837E-14
 -1      2983 2.02572E+01 1.79833E+00 2.28895E-03-1.15226E+00-1.38013E-13-2.60361E-13
 -1      2984 2.03391E+01 1.44336E+00-5.83968E-03-1.11201E+00-1.69544E-13-2.43187E-13
 -1      2985 2.03051E+01 1.19291E+00-2.04236E-03-8.92303E-01-1.72557E-13-2.26216E-13
 -1      2986 1.36967E+01-1.04827E+00 6.55797E-02-6.64538E+00-1.24636E-13-3.30500E-13
 -1      2987 1.50728E+01-2.30999E+00 1.75686E-01-7.47243E+00-1.83742E-13-4.00430E-13
 -1      2988 1.76349E+01-2.77023E+00 6.74457E-02-7.04091E+00-3.48138E-13-2.47947E-13
 -1      2989 2.86105E+01-3.79682E+00 1.35147E-02-3.48097E+00-4.17825E-13-1.27662E-13
 -1      2990 2.90412E+01-3.20817E+00-1.06019E-01-1.77985E+00-3.93540E-13 5.99937E-14
 -1      2991 2.71366E+01-4.24859E+00 5.13755E-02-4.02703E+00-5.42913E-13-1.05936E-13
 -1      2992 2.03084E+01 9.87493E-01 3.19189E-03-7.31732E-01-1.60191E-13-2.14320E-13
 -1      2993 2.02430E+01 8.09837E-01-2.35558E-03-5.51828E-01-1.58200E-13-2.09274E-13
 -1      2994 2.02664E+01 8.96073E-01 8.49122E-04-5.09033E-01-1.41968E-13-1.72902E-13
 -1      2995 2.02929E+01 1.26369E+00 2.71867E-03-8.01329E-01-1.35813E-13-2.05833E-13
 -1      2996 2.97031E+01-2.85204E+00-1.34105E-01 2.21262E+00 1.82393E-13-4.03053E-13
 -1      2997 2.78975E+01-4.03235E+00 3.85647E-02 3.96664E+00 8.47933E-15-2.84953E-13
 -1      2998 3.02598E+01-3.23742E-01-1.32248E-01-5.28205E-01 3.71904E-13-5.95107E-13
 -1      2999 3.05065E+01-1.64954E+00-2.40950E-02 7.97976E-01 2.71966E-13-5.48686E-13
 -1      3000 2.91056E+01-2.66246E+00-1.27979E-02 1.30393E+00 2.08146E-13-4.71650E-13
 -1      3001 2.20449E+01-4.45295E+00 1.12681E-01 6.82596E+00-2.51424E-13-7.31082E-14
 -1      3002 2.10545E+01-3.76551E+00 8.37030E-02 6.55977E+00-3.52829E-13-1.37196E-13
 -1      3003 2.02215E+01 6.60350E-01-3.30555E-03 4.19992E-01 2.09546E-13 1.84343E-13
 -1      3004 2.49250E+01-4.69283E+00-6.73083E-02 5.77792E+00-1.85130E-13-8.71022E-14
 -1      3005 2.02361E+01 1.47697E+00-1.01585E-02 7.94232E-01 3.17213E-13 1.14721E-13
 -1      3006 2.01991E+01 1.66637E+00-1.48719E-03 7.29362E-01 2.99925E-13 8.00155E-14
 -1      3007 2.02676E+01 7.54290E-01 6.93466E-03 7.43325E-01 2.68618E-13 3.80891E-13
 -1      3008 9.94479E+00 2.32736E+00 4.55766E-02-1.52063E+00 1.18787E-13-3.58269E-13
 -1      3009 9.71950E+00 1.91866E+00 2.49075E-01-2.93851E+00 9.07330E-14-3.55382E-13
 -1      3010 2.03637E+01-5.42727E-01-3.03924E-03 2.99807E-01 6.91137E-14 1.40253E-13
 -1      3011 2.03418E+01-4.90939E-01 3.70260E-03 2.05138E-01 1.02960E-13 2.08270E-13
 -1      3012 2.01642E+01 1.83254E-01-1.99019E-03-2.47639E-02 1.45649E-13 9.99601E-14
 -1      3013 2.01969E+01 2.82063E-01 4.55880E-03 3.72988E-02 1.68404E-13 1.05782E-13
 -1      3014 2.01004E+01 2.23176E+00-2.65920E-03-1.08026E+00-6.76367E-14-3.01220E-13
 -1      3015 2.01931E+01 1.94515E+00-9.65683E-03-1.11872E+00-9.97226E-14-2.81629E-13
 -1      3016 2.02406E+01 1.65287E+00-1.31678E-04-9.40633E-01-1.04611E-13-2.51880E-13
 -1      3017 2.01652E+01 1.96485E+00 5.78182E-03-8.76943E-01-5.64312E-14-2.65075E-13
 -1      3018 1.66360E+01-1.88472E+00-2.69679E-02 6.61090E+00-4.47996E-13 1.67907E-13
 -1      3019 1.36267E+01-2.49129E-01 1.47971E-01 5.97968E+00-4.49182E-13 1.52323E-13
 -1      3020 2.01266E+01 3.61752E-01 2.01155E-03 9.49133E-02-5.22803E-14-7.74281E-14
 -1      3021 2.00827E+01 3.18979E-01-1.49555E-03 1.65858E-01-3.77767E-14-1.09417E-13
 -1      3022 2.00318E+01 2.99311E-01 3.97237E-04 2.14805E-01-2.12148E-14-8.43476E-14
 -1      3023 1.99838E+01 2.98460E-01-1.26674E-03 2.68277E-01 1.38128E-14-5.65993E-14
 -1      3024 2.00982E+01 3.63344E-01 1.07134E-03 1.48631E-01-1.79079E-14-2.93506E-14
 -1      3025 1.99093E+01 3.18467E-01-1.36609E-03 2.99884E-01 1.41558E-14-6.99420E-14
 -1      3026 1.98448E+01 3.58594E-01-1.80860E-03 3.45259E-01-4.53831E-15-6.21213E-14
 -1      3027 1.99747E+01 3.51856E-01 2.54460E-03 2.28083E-01 5.09404E-15-4.98658E-14
 -1      3028 1.97332E+01 4.20316E-01-3.36077E-03 3.63023E-01-2.31442E-14-7.35963E-14
 -1      3029 1.96316E+01 5.05164E-01-3.48332E-03 4.06371E-01-3.20127E-14-8.18457E-14
 -1      3030 1.97972E+01 4.28909E-01 4.98900E-03 2.70955E-01-2.78880E-14-6.08993E-14
 -1      3031 1.94607E+01 6.14827E-01-5.70949E-03 4.08685E-01-3.29043E-14-8.95870E-14
 -1      3032 1.92892E+01 7.50897E-01-6.98094E-03 4.51147E-01-1.28374E-14-7.67213E-14
 -1      3033 1.95303E+01 5.98788E-01 8.77864E-03 2.76028E-01-4.76386E-14-5.38126E-14
 -1      3034 1.90250E+01 9.17011E-01-8.30744E-03 4.28552E-01-4.10236E-14-1.11076E-13
 -1      3035 1.87313E+01 1.10970E+00-1.28898E-02 4.62586E-01-5.31946E-14-1.32962E-13
 -1      3036 1.91184E+01 8.69008E-01 1.43639E-02 2.26881E-01-4.38702E-14-1.21475E-13
 -1      3037 1.83465E+01 1.32162E+00-1.20165E-02 3.97606E-01-5.66728E-14-1.48200E-13
 -1      3038 1.78833E+01 1.55335E+00-2.28329E-02 4.05527E-01-6.65657E-14-1.40563E-13
 -1      3039 1.85003E+01 1.23059E+00 2.26473E-02 8.88779E-02-8.57435E-14-1.95893E-13
 -1      3040 1.72774E+01 1.82202E+00-1.43174E-02 2.57755E-01-5.07775E-14-1.46018E-13
 -1      3041 1.64848E+01 2.08455E+00-3.29580E-02 2.01632E-01-1.60115E-14-1.98400E-13
 -1      3042 1.75563E+01 1.66748E+00 3.51402E-02-2.05298E-01-5.36242E-14-1.55399E-13
 -1      3043 1.55720E+01 2.32711E+00-1.47836E-02-7.89226E-02-4.13905E-15-2.48986E-13
 -1      3044 1.43718E+01 2.53678E+00-2.59256E-02-2.64613E-01 2.41526E-14-2.61112E-13
 -1      3045 1.60944E+01 2.11281E+00 5.93119E-02-7.77707E-01-3.06729E-14-1.79982E-13
 -1      3046 1.48552E+01 2.79872E+00-3.31108E-03-1.19871E+00 1.36627E-13-1.51212E-13
 -1      3047 1.59181E+01 2.54972E+00-2.12157E-02-1.06211E+00-4.94058E-14-2.62765E-13
 -1      3048 1.69581E+01 2.24769E+00-1.61344E-02-1.07555E+00-3.00232E-13-2.93152E-13
 -1      3049 1.76137E+01 1.93778E+00-1.99722E-02-9.18740E-01-2.60002E-13-5.18115E-13
 -1      3050 1.60297E+01 2.53591E+00 6.50843E-02-3.05215E-01-2.08420E-13-3.39988E-13
 -1      3051 1.82664E+01 1.63901E+00-1.10739E-02-8.86303E-01-1.56030E-13-6.40674E-13
 -1      3052 1.86434E+01 1.36943E+00-1.49607E-02-7.37226E-01-1.86412E-13-5.91633E-13
 -1      3053 1.76239E+01 1.92265E+00 3.75521E-02-4.39912E-01-3.18506E-13-5.59129E-13
 -1      3054 1.90453E+01 1.13206E+00-5.18443E-03-6.82601E-01-1.23402E-13-4.00382E-13
 -1      3055 1.92510E+01 9.26941E-01-1.04116E-02-5.57472E-01 9.09326E-14-3.77701E-13
 -1      3056 1.86085E+01 1.36882E+00 2.24133E-02-4.37263E-01-4.03916E-14-6.64108E-13
 -1      3057 1.94937E+01 7.56031E-01-1.51626E-03-5.00533E-01 1.06477E-13-3.89753E-13
 -1      3058 1.96005E+01 6.10554E-01-6.93773E-03-4.03967E-01 6.76514E-14-4.45830E-13
 -1      3059 1.92049E+01 9.35272E-01 1.33947E-02-3.72848E-01 6.28587E-14-3.87763E-13
 -1      3060 1.97390E+01 4.98763E-01 1.23436E-04-3.57187E-01 2.29656E-14-3.56375E-13
 -1      3061 1.97898E+01 4.03250E-01-4.58506E-03-2.89201E-01-1.54871E-14-4.66614E-13
 -1      3062 1.95517E+01 6.28515E-01 8.12071E-03-2.94334E-01-6.26813E-15-4.26458E-13
 -1      3063 1.98749E+01 3.24015E-01 6.90460E-04-2.49431E-01-6.49250E-14-3.55061E-13
 -1      3064 1.98999E+01 2.57158E-01-3.02009E-03-1.99139E-01-1.85639E-13-2.46410E-13
 -1      3065 1.97548E+01 4.14484E-01 4.78035E-03-2.20746E-01 3.13148E-14-3.61751E-13
 -1      3066 1.99483E+01 2.05745E-01 7.62989E-04-1.69623E-01-3.64627E-13-1.19405E-13
 -1      3067 1.99581E+01 1.62550E-01-1.90402E-03-1.35210E-01-3.94660E-13-3.04213E-13
 -1      3068 1.98738E+01 2.66860E-01 2.76244E-03-1.59023E-01-2.10611E-13-5.64316E-14
 -1      3069 1.99848E+01 1.29715E-01 6.91237E-04-1.14029E-01-2.03531E-13-2.55210E-13
 -1      3070 1.99873E+01 1.02104E-01-1.18622E-03-9.09181E-02 5.43595E-15-1.62459E-13
 -1      3071 1.99394E+01 1.70060E-01 1.54248E-03-1.12053E-01-2.18559E-13-1.34276E-13
 -1      3072 2.00016E+01 8.13775E-02 5.55596E-04-7.60892E-02 5.27589E-14-2.15217E-13
 -1      3073 2.00009E+01 6.39074E-02-7.28709E-04-6.07530E-02 3.23948E-13-2.40206E-13
 -1      3074 1.99744E+01 1.07664E-01 8.35766E-04-7.77921E-02-5.98981E-14-1.76475E-13
 -1      3075 2.00081E+01 5.09302E-02 4.19115E-04-5.05313E-02 2.54759E-13-3.88803E-13
 -1      3076 2.00062E+01 3.99580E-02-4.42044E-04-4.04255E-02 1.10781E-13-3.74212E-13
 -1      3077 1.99921E+01 6.79102E-02 4.36007E-04-5.34673E-02 1.38542E-13-2.33924E-13
 -1      3078 2.00096E+01 3.18791E-02 3.04622E-04-3.34428E-02 9.42594E-14-3.10579E-13
 -1      3079 2.00076E+01 2.50206E-02-2.65487E-04-2.68031E-02 1.05805E-13-3.06607E-13
 -1      3080 2.00004E+01 4.27921E-02 2.14609E-04-3.64846E-02 1.53519E-13-1.71839E-13
 -1      3081 2.00089E+01 2.00112E-02 2.17751E-04-2.20535E-02 2.29563E-13-2.84454E-13
 -1      3082 2.00071E+01 1.57463E-02-1.50894E-04-1.76946E-02 1.08580E-13-2.33305E-13
 -1      3083 2.00037E+01 2.70042E-02 9.34662E-05-2.47415E-02 9.25718E-14-1.52365E-13
 -1      3084 2.00074E+01 1.27840E-02 1.54616E-04-1.46177E-02-8.23389E-14-1.62975E-13
 -1      3085 2.00059E+01 1.01966E-02-8.84066E-05-1.18422E-02 5.50508E-14-5.21456E-14
 -1      3086 2.00046E+01 1.72732E-02 2.33937E-05-1.68084E-02 8.55786E-14-5.63240E-14
 -1      3087 2.00058E+01 8.20297E-03 1.06283E-04-9.58982E-03 1.46855E-13-1.02294E-13
 -1      3088 2.00046E+01 6.49484E-03-5.46461E-05-7.64795E-03 3.45405E-14-3.81692E-14
 -1      3089 2.00043E+01 1.11692E-02 5.38848E-06-1.13345E-02 4.81772E-14-1.20093E-13
 -1      3090 2.00043E+01 5.25796E-03 7.39229E-05-6.11708E-03-4.88385E-14-6.91390E-14
 -1      3091 2.00034E+01 4.17766E-03-3.19288E-05-4.82425E-03 1.60881E-13 4.13878E-14
 -1      3092 2.00036E+01 7.17931E-03-7.61201E-06-7.44010E-03-3.13685E-14-1.36603E-13
 -1      3093 2.00031E+01 3.39645E-03 5.07375E-05-3.77845E-03 3.12458E-13 2.41925E-14
 -1      3094 2.00024E+01 2.70509E-03-1.79168E-05-2.91717E-03 3.59607E-13 5.07997E-14
 -1      3095 2.00028E+01 4.65102E-03-1.19306E-05-4.76159E-03 2.68258E-13-8.40490E-14
 -1      3096 2.00021E+01 2.19921E-03 3.45048E-05-2.20232E-03 1.48571E-13 1.36404E-13
 -1      3097 2.00016E+01 1.75214E-03-5.36848E-06-1.63570E-03 4.46301E-14 8.12566E-14
 -1      3098 2.00020E+01 3.02810E-03-1.19163E-05-2.92417E-03 3.31771E-13-1.80441E-14
 -1      3099 2.00013E+01 1.49988E-03 2.37612E-05-1.24373E-03 4.54773E-14 5.15728E-14
 -1      3100 2.00010E+01 1.18343E-03 1.21090E-07-8.67881E-04 4.61734E-14-9.49213E-14
 -1      3101 2.00009E+01 1.40649E-03-2.03242E-05-1.04092E-03 5.34124E-14 1.13040E-13
 -1      3102 2.00014E+01 2.02961E-03-2.17189E-05-1.75745E-03 1.15992E-13 3.10138E-14
 -1      3103 2.04638E+01-6.16231E-01-3.61366E-03 5.23596E-01 1.04115E-13 2.93636E-14
 -1      3104 2.04464E+01-5.83228E-01 3.49261E-03 4.07976E-01 9.00478E-14 9.99324E-14
 -1      3105 2.05969E+01-6.57547E-01-2.25818E-03 3.08769E-01 1.19700E-13 1.08283E-13
 -1      3106 2.02728E+01-4.38941E-01-2.28072E-03 1.24897E-01 6.87542E-14 2.09592E-13
 -1      3107 2.02530E+01-3.81231E-01 3.47613E-03 5.37194E-02 4.67717E-14 1.55976E-13
 -1      3108 2.04544E+01-5.39978E-01-2.80157E-03 1.25585E-01 8.17895E-14 1.63743E-13
 -1      3109 2.05521E+01-6.23667E-01-3.50200E-03 7.85660E-01 7.15160E-14 3.57624E-14
 -1      3110 2.05482E+01-6.29434E-01 2.41613E-03 6.57662E-01 8.39013E-14 4.35563E-14
 -1      3111 2.07579E+01-7.31434E-01-8.82890E-04 5.48497E-01 8.49430E-14 3.79612E-14
 -1      3112 2.05987E+01-5.20323E-01-2.08031E-03 1.05671E+00 9.60168E-15 9.89551E-14
 -1      3113 2.06181E+01-5.88370E-01 6.68950E-05 9.34499E-01 2.77213E-14 9.48166E-14
 -1      3114 2.09091E+01-7.15904E-01 1.42992E-03 8.34076E-01 4.32185E-15 7.47688E-14
 -1      3115 2.05719E+01-2.67959E-01 1.10449E-03 1.28149E+00 5.15794E-14 1.41724E-13
 -1      3116 2.06211E+01-4.15852E-01-3.51733E-03 1.19462E+00 2.38009E-14 1.02272E-13
 -1      3117 2.10084E+01-5.57263E-01 4.23448E-03 1.13090E+00-3.26833E-16 1.34048E-13
 -1      3118 2.04531E+01 1.38488E-01 5.66247E-03 1.38071E+00 1.41532E-13 1.51872E-13
 -1      3119 2.05300E+01-8.59598E-02-7.36170E-03 1.36648E+00 1.13913E-13 1.73820E-13
 -1      3120 2.10114E+01-2.16151E-01 6.36843E-03 1.37095E+00 3.86212E-14 1.66811E-13
 -1      3121 2.02568E+01 6.42872E-01 9.70284E-03 1.27173E+00 2.68188E-15 2.36891E-13
 -1      3122 2.03466E+01 3.79435E-01-9.77867E-03 1.36282E+00 6.63087E-14 2.22746E-13
 -1      3123 2.08947E+01 2.98874E-01 6.29695E-03 1.45719E+00 6.73378E-14 2.17669E-13
 -1      3124 2.00408E+01 1.12060E+00 1.04926E-02 9.09106E-01-1.69695E-14 2.10792E-13
 -1      3125 2.01183E+01 8.89576E-01-8.87572E-03 1.11475E+00-1.76561E-14 2.44028E-13
 -1      3126 2.06837E+01 8.99890E-01 2.70070E-03 1.29355E+00-3.99675E-15 2.92150E-13
 -1      3127 1.98921E+01 1.41541E+00 6.65961E-03 3.28543E-01-2.74631E-14 2.49304E-13
 -1      3128 1.99306E+01 1.29655E+00-3.97529E-03 6.18938E-01 2.05082E-15 2.14995E-13
 -1      3129 2.04619E+01 1.42427E+00-2.95931E-03 8.40136E-01-2.56657E-14 2.50732E-13
 -1      3130 1.98814E+01 1.41688E+00-3.07264E-04-3.42828E-01-4.07820E-14 2.03432E-13
 -1      3131 1.98666E+01 1.45563E+00 3.26811E-03-3.29619E-02 2.00640E-14 2.13736E-13
 -1      3132 2.03391E+01 1.69272E+00-6.75600E-03 1.64740E-01 9.02598E-18 2.73023E-13
 -1      3133 2.00170E+01 1.12729E+00-6.68964E-03-9.35804E-01 3.20764E-15 4.92672E-15
 -1      3134 1.99537E+01 1.30661E+00 8.85403E-03-6.79961E-01-3.05282E-14 1.60455E-13
 -1      3135 2.03819E+01 1.60562E+00-5.23442E-03-5.61789E-01 2.79123E-14 1.62660E-13
 -1      3136 2.02371E+01 6.58309E-01-9.62842E-03-1.31895E+00 1.69006E-13 2.05518E-14
 -1      3137 2.01478E+01 9.10855E-01 1.03571E-02-1.16591E+00 6.10293E-14-2.08513E-14
 -1      3138 2.05654E+01 1.19904E+00-2.60313E-04-1.14448E+00 1.26176E-13 3.29464E-14
 -1      3139 2.04524E+01 1.64043E-01-8.49448E-03-1.44921E+00 1.51879E-13 1.42869E-13
 -1      3140 2.03640E+01 4.10368E-01 7.78020E-03-1.40849E+00 1.71825E-13 1.32346E-13
 -1      3141 2.07924E+01 6.24727E-01 5.05679E-03-1.46100E+00 9.10626E-14 1.49713E-13
 -1      3142 2.05928E+01-2.30772E-01-5.01571E-03-1.36746E+00 4.45598E-14 1.96185E-13
 -1      3143 2.05261E+01-4.73517E-02 3.19075E-03-1.41566E+00 1.58493E-13 1.96117E-13
 -1      3144 2.09602E+01 6.17637E-02 7.35091E-03-1.50033E+00 9.67611E-14 2.49375E-13
 -1      3145 2.06343E+01-4.71516E-01-1.37476E-03-1.15792E+00 3.93704E-14 1.23201E-13
 -1      3146 2.05977E+01-3.69612E-01-9.57532E-04-1.25788E+00 6.70370E-15 1.32916E-13
 -1      3147 2.10116E+01-3.61651E-01 5.53855E-03-1.33785E+00 5.66053E-14 2.64157E-13
 -1      3148 2.05931E+01-5.65570E-01 1.59948E-03-9.02092E-01 6.54069E-14 2.49936E-13
 -1      3149 2.05837E+01-5.35258E-01-3.27245E-03-1.02000E+00 8.75165E-14 1.57103E-13
 -1      3150 2.09504E+01-5.97699E-01 2.94250E-03-1.07658E+00 8.43732E-15 2.26635E-13
 -1      3151 2.05016E+01-5.52220E-01 3.20443E-03-6.56297E-01 7.11999E-15 2.76367E-14
 -1      3152 2.05110E+01-5.70983E-01-3.97107E-03-7.68940E-01 6.23492E-14 1.36744E-13
 -1      3153 2.08132E+01-6.70396E-01 3.62228E-04-7.99040E-01 1.37221E-13 2.09987E-13
 -1      3154 2.03920E+01-4.77234E-01 3.68257E-03-4.49790E-01-8.49361E-14-1.45638E-13
 -1      3155 2.04109E+01-5.21832E-01-3.66372E-03-5.45060E-01-4.69429E-14-7.71497E-14
 -1      3156 2.06442E+01-6.30202E-01-1.37913E-03-5.54350E-01 1.07955E-13 3.21670E-14
 -1      3157 2.02870E+01-3.78254E-01 3.43013E-03-2.91174E-01-1.27408E-13-6.85838E-14
 -1      3158 2.03083E+01-4.30885E-01-2.92156E-03-3.65300E-01-1.03899E-13-1.13022E-13
 -1      3159 2.04782E+01-5.30524E-01-2.19269E-03-3.61923E-01-8.20176E-14-1.26936E-14
 -1      3160 2.01986E+01-2.79909E-01 2.83348E-03-1.77233E-01-7.87901E-14-1.04140E-13
 -1      3161 2.02180E+01-3.29648E-01-2.13001E-03-2.31335E-01-2.25114E-14-5.24697E-14
 -1      3162 2.03355E+01-4.12060E-01-2.30148E-03-2.22204E-01-9.07296E-14 9.25270E-15
 -1      3163 2.01307E+01-1.95055E-01 2.15560E-03-9.98499E-02 8.66221E-14-1.70055E-13
 -1      3164 2.01463E+01-2.36660E-01-1.46100E-03-1.37229E-01-7.53072E-14-1.20013E-13
 -1      3165 2.02236E+01-2.99841E-01-2.02507E-03-1.26818E-01-4.57279E-14-6.28046E-14
 -1      3166 2.00819E+01-1.28296E-01 1.53679E-03-5.00123E-02 1.20732E-13-7.17989E-14
 -1      3167 2.00934E+01-1.60296E-01-9.54773E-04-7.45261E-02 1.87243E-13-1.29521E-13
 -1      3168 2.01417E+01-2.05838E-01-1.59939E-03-6.51538E-02 9.73850E-14-1.59612E-13
 -1      3169 2.00489E+01-7.93308E-02 1.03600E-03-1.96947E-02 7.38905E-14-4.74165E-14
 -1      3170 2.00568E+01-1.02371E-01-5.97776E-04-3.49011E-02 8.22361E-14-3.54774E-14
 -1      3171 2.00852E+01-1.33430E-01-1.16651E-03-2.74277E-02 2.64792E-14-7.69386E-14
 -1      3172 2.00277E+01-4.54910E-02 6.62275E-04-2.52178E-03 3.10908E-13-2.89609E-14
 -1      3173 2.00329E+01-6.11510E-02-3.58070E-04-1.13339E-02 1.97610E-13-7.23689E-15
 -1      3174 2.00484E+01-8.12010E-02-7.97686E-04-5.80129E-03 1.50175E-13-1.47186E-13
 -1      3175 2.00147E+01-2.33823E-02 4.00154E-04 6.21207E-03 2.34692E-13-9.53883E-14
 -1      3176 2.00180E+01-3.34445E-02-2.02807E-04 1.58428E-03 3.10414E-13 1.66950E-15
 -1      3177 2.00255E+01-4.56183E-02-5.15178E-04 5.49270E-03 3.25189E-13-3.66080E-14
 -1      3178 2.00072E+01-9.77252E-03 2.25884E-04 9.79946E-03 2.89634E-13-1.40986E-13
 -1      3179 2.00092E+01-1.58509E-02-1.05328E-04 7.77173E-03 3.49291E-13-9.89744E-14
 -1      3180 2.00121E+01-2.26823E-02-3.14765E-04 1.04607E-02 2.24465E-13-6.75948E-14
 -1      3181 2.00031E+01-1.97807E-03 1.15827E-04 1.04440E-02 4.82318E-14-9.53798E-14
 -1      3182 2.00043E+01-5.37356E-03-4.61472E-05 9.93334E-03 1.57393E-13-1.13108E-13
 -1      3183 2.00047E+01-8.76608E-03-1.81224E-04 1.17674E-02 2.33824E-13 1.54586E-14
 -1      3184 2.00010E+01 2.04512E-03 5.00686E-05 9.55915E-03 2.61749E-14-2.25631E-13
 -1      3185 2.00017E+01 3.62273E-04-1.17735E-05 9.85783E-03-7.87907E-15-1.42120E-13
 -1      3186 2.00010E+01-9.41520E-04-9.71804E-05 1.11180E-02 2.49387E-14-1.10704E-13
 -1      3187 2.00001E+01 3.75681E-03 1.33839E-05 8.01081E-03-1.27169E-14-1.08120E-13
 -1      3188 2.00005E+01 3.10524E-03 6.89300E-06 8.67787E-03 1.75174E-14-1.91871E-13
 -1      3189 1.99994E+01 2.97972E-03-4.72476E-05 9.56134E-03-3.24072E-14-3.24322E-13
 -1      3190 1.99997E+01 4.14432E-03-5.24125E-06 6.30011E-03 1.17795E-13 1.57503E-13
 -1      3191 2.00000E+01 4.07018E-03 1.58684E-05 7.07600E-03 9.67241E-14 1.08192E-13
 -1      3192 1.99988E+01 4.53864E-03-1.93766E-05 7.71242E-03-1.43787E-13 4.20176E-14
 -1      3193 1.99997E+01 3.84375E-03-1.29993E-05 4.69549E-03 3.94664E-14 3.17914E-13
 -1      3194 1.99998E+01 4.05810E-03 1.89752E-05 5.43859E-03 1.26441E-13 2.58295E-13
 -1      3195 1.99988E+01 4.76481E-03-5.15335E-06 5.90910E-03-4.19036E-14 3.66835E-13
 -1      3196 1.99997E+01 3.23995E-03-1.52545E-05 3.31755E-03 2.33622E-13 1.10380E-13
 -1      3197 1.99998E+01 3.57359E-03 1.87421E-05 3.96137E-03 2.73652E-13 2.38407E-13
 -1      3198 1.99991E+01 4.31697E-03 1.39993E-06 4.31811E-03 1.61781E-13 1.73232E-13
 -1      3199 1.99998E+01 2.55657E-03-1.10154E-05 2.21968E-03 1.51888E-13-1.10539E-14
 -1      3200 1.99999E+01 2.90052E-03 1.49529E-05 2.72962E-03 1.68794E-13 7.74160E-14
 -1      3201 1.99993E+01 3.58635E-03 4.54119E-06 2.99862E-03 3.28303E-13 1.41643E-13
 -1      3202 1.99998E+01 2.00536E-03-4.24760E-06 1.47428E-03-2.22806E-15 6.90279E-14
 -1      3203 1.99999E+01 2.30089E-03 1.46119E-05 1.85956E-03 4.53541E-14 8.09969E-14
 -1      3204 1.99995E+01 2.87773E-03 4.63322E-06 2.07138E-03 5.36572E-14 9.18981E-14
 -1      3205 1.99996E+01 2.23259E-03-1.06625E-05 1.44459E-03 1.67321E-13-2.62746E-14
 -1      3206 1.99999E+01 3.14114E-03 6.12058E-06-1.49377E-03-1.88425E-13 5.93081E-13
 -1      3207 1.99996E+01 3.36237E-03-1.90449E-05-1.41885E-03-1.21523E-13 4.36624E-13
 -1      3208 2.62331E+01-4.19230E+00 6.09988E-02 4.17312E+00-1.69614E-13-2.36790E-13
 -1      3209 1.15347E+01 2.84387E+00 4.75443E-02-1.35582E+00 1.29929E-13 7.16510E-14
 -1      3210 1.32458E+01 2.94789E+00 2.42890E-03-1.20817E+00 1.37253E-13 4.71706E-14
 -1      3211 2.00005E+01 2.46193E-03 7.16316E-06-1.47900E-03-2.59872E-13 3.39269E-13
 -1      3212 2.00002E+01 2.74380E-03-1.91692E-05-1.53594E-03-2.79569E-13 5.21633E-13
 -1      3213 2.00000E+01 3.55583E-03 1.44702E-05-1.80397E-03-3.20591E-13 5.14479E-13
 -1      3214 1.99993E+01 3.63285E-03 1.15916E-06-1.23387E-03-1.54586E-13 3.24351E-13
 -1      3215 1.99991E+01 3.77090E-03-1.54407E-05-1.05328E-03-1.70107E-13 2.13809E-13
 -1      3216 1.99994E+01 4.18368E-03 1.96862E-05-1.53194E-03-1.77609E-14 4.20849E-13
 -1      3217 2.00008E+01 1.78623E-03 5.43488E-06-1.22427E-03 5.57826E-14 2.82734E-13
 -1      3218 2.00006E+01 2.08484E-03-1.82516E-05-1.39203E-03-1.42358E-13 2.81055E-13
 -1      3219 2.00006E+01 2.82643E-03 1.60255E-05-1.78787E-03-2.14139E-13 4.37191E-13
 -1      3220 2.00011E+01 2.12051E-03 2.32020E-05-1.54377E-03 9.15005E-14 3.94320E-13
 -1      3221 1.23709E+01 2.68459E+00 5.17944E-02-7.06069E-01 6.06598E-14-3.19966E-13
 -1      3222 9.85883E+00-2.19896E-01 1.69754E-01-4.59892E+00 5.87447E-14-2.20129E-13
 -1      3223 1.44862E+01-1.01637E+00 1.71763E-01-5.95847E+00 3.54106E-13-3.51830E-13
 -1      3224 2.02057E+01 5.16145E-01 3.33048E-03-7.85157E-02-8.38826E-14-1.01079E-13
 -1      3225 2.01602E+01 4.24615E-01-2.30632E-03 2.18483E-02-5.96966E-14-9.06221E-14
 -1      3226 2.01872E+01 4.67581E-01 3.87759E-04 2.42641E-02-5.62066E-14-3.46892E-14
 -1      3227 2.80460E+01 5.73374E+00-1.16071E-01 1.73383E+00 4.26034E-13 3.53474E-13
 -1      3228 2.72355E+01 6.56171E+00-1.24769E-01 8.79374E-01 4.73427E-13 3.86122E-13
 -1      3229 2.02026E+01 3.92202E-01-3.21218E-03 1.15929E-01 1.84289E-13 1.00511E-13
 -1      3230 2.02484E+01 5.33210E-01 6.52851E-03 2.21118E-01 1.71022E-13 1.08486E-13
 -1      3231 2.02602E+01 4.09997E-01-1.31286E-03 9.63232E-02 1.67575E-13 6.49999E-14
 -1      3232 1.99989E+01 3.89043E-03-4.27227E-06-7.59435E-04-8.88567E-14-2.43724E-13
 -1      3233 1.99988E+01 3.93502E-03-9.90625E-06-5.04288E-04 7.35939E-14-4.94026E-13
 -1      3234 1.99988E+01 4.53998E-03 2.05923E-05-1.00199E-03 4.34203E-14-1.32443E-13
 -1      3235 2.02965E+01 9.21779E-01-7.93496E-03 7.89840E-01 2.92601E-13 2.75447E-13
 -1      3236 2.02442E+01 7.17989E-01-3.57995E-03 3.65591E-01 1.97257E-13 1.14530E-13
 -1      3237 2.02828E+01 9.19865E-01 1.82288E-03 5.47564E-01 2.39955E-13 1.34927E-13
 -1      3238 1.99987E+01 3.89174E-03-9.03643E-06-1.59273E-04 7.13134E-15-4.79887E-13
 -1      3239 1.99987E+01 3.83604E-03-4.22176E-06 1.20240E-04 1.53367E-13-7.43556E-14
 -1      3240 1.99985E+01 4.59282E-03 1.86871E-05-3.11439E-04 8.21773E-14-5.33890E-13
 -1      3241 2.00306E+01 2.17455E+00-4.06594E-03 2.75457E-01 2.45208E-13-1.27783E-13
 -1      3242 2.00144E+01 2.21598E+00-3.52902E-03 1.54996E-01 2.09772E-13-1.65193E-13
 -1      3243 1.10139E+01 9.67173E-01 1.18931E-01-4.36396E+00 1.49845E-14-3.21132E-13
 -1      3244 2.86818E+01 2.77854E+00-9.08806E-02 2.06830E+00 3.64014E-14 4.12559E-13
 -1      3245 2.83912E+01 4.47505E+00-1.47417E-01 2.04427E+00 2.68757E-13 4.40391E-13
 -1      3246 2.70279E+01 4.49286E+00-7.31513E-02 1.87232E+00 2.71574E-13 3.09648E-13
 -1      3247 2.21240E+01-3.73399E+00-7.66330E-02 5.51766E+00-3.03563E-13-1.03865E-13
 -1      3248 2.00127E+01-2.73231E+00 1.49941E-01 6.10245E+00-4.91607E-13-4.36283E-14
 -1      3249 2.02648E+01 7.88033E-01 2.95857E-03-3.26467E-01-1.01690E-13-1.37615E-13
 -1      3250 2.02217E+01 6.34365E-01-3.07714E-03-1.83390E-01-9.55542E-14-1.35399E-13
 -1      3251 2.02483E+01 6.79071E-01 2.87738E-04-1.58119E-01-7.99857E-14-1.09457E-13
 -1      3252 2.02823E+01 1.25674E+00 3.39568E-03 8.07908E-01 3.06018E-13 1.59986E-13
 -1      3253 2.70809E+01-3.84427E+00-7.69261E-02 2.62265E+00-2.36842E-14-2.97477E-13
 -1      3254 2.49524E+01-3.96089E+00 5.67689E-02 4.09672E+00-1.85629E-13-2.04079E-13
 -1      3255 2.00052E+01 2.24046E+00-3.36517E-03 5.25023E-02 1.93255E-13-1.54549E-13
 -1      3256 2.00024E+01 2.24364E+00-3.90720E-03-6.90656E-02 1.60400E-13-1.65585E-13
 -1      3257 2.01179E+01 1.94308E+00 4.77429E-03 8.30843E-02 1.86664E-13-1.32707E-13
 -1      3258 1.35535E+01 2.97294E+00 1.19730E-01-4.81699E-02 1.76530E-14-1.46966E-13
 -1      3259 2.60224E+01 5.79614E+00-6.33913E-02 7.70404E-01 4.82545E-13 3.17080E-13
 -1      3260 2.66944E+01 6.49805E+00-1.35551E-01 2.17288E-01 4.79394E-13 3.82974E-13
 -1      3261 1.97133E+01-3.28327E+00 1.18685E-01-6.76649E+00-3.91631E-13-1.24303E-13
 -1      3262 2.15124E+01-3.66048E+00 2.95603E-02-5.89834E+00-4.45456E-13-4.81767E-14
 -1      3263 1.79646E+01-2.44465E+00 1.03504E-02-6.50659E+00-2.73101E-13-1.18280E-13
 -1      3264 1.99993E+01 2.74536E-03 5.86329E-06 1.23537E-03 1.34145E-13-2.55890E-14
 -1      3265 1.99994E+01 2.52064E-03-2.15694E-06 1.33157E-03 1.55910E-13-5.24520E-14
 -1      3266 1.99993E+01 2.83240E-03-1.91277E-06 1.60282E-03 6.87474E-14 3.10313E-14
 -1      3267 2.01371E+01-9.94507E-02-1.12639E-03-1.11728E-01 7.75421E-14 9.55511E-14
 -1      3268 2.01439E+01-3.68622E-02 3.17744E-03-1.12135E-01 1.04931E-13 1.20686E-13
 -1      3269 2.86946E+01 1.68682E+00-7.27501E-02-1.91617E+00 3.88439E-13-3.22423E-13
 -1      3270 2.98137E+01 6.26157E-01-9.35826E-02-1.28500E+00 3.69982E-13-4.81767E-13
 -1      3271 2.88982E+01-5.83871E-01-2.39774E-02-8.43631E-01 2.60965E-13-4.66432E-13
 -1      3272 9.13797E+00 2.29754E+00 1.26455E-01-8.21691E-01 2.29747E-14 2.60986E-13
 -1      3273 1.33284E+01 2.35591E+00 1.13902E-01-1.81248E+00 2.09303E-14-2.65048E-13
 -1      3274 2.84708E+01 5.23158E+00-1.37721E-01-1.89257E+00 5.78135E-13-4.84335E-14
 -1      3275 2.80489E+01 4.01538E+00-9.40519E-02-2.01569E+00 4.82905E-13-9.51565E-14
 -1      3276 2.71552E+01 5.77365E+00-6.49751E-02-1.53171E+00 4.44714E-13 2.64552E-13
 -1      3277 2.01024E+01 1.97611E+00-2.62945E-03-5.70271E-01 1.12698E-14-2.38301E-13
 -1      3278 2.01442E+01 1.85362E+00-4.63931E-03-6.63623E-01-3.19553E-14-2.36305E-13
 -1      3279 2.92570E+01-2.31634E+00-3.71475E-02-6.44500E-01-3.30161E-13 2.62804E-13
 -1      3280 2.87656E+01-1.39577E+00-4.89410E-02 4.75864E-01-2.80845E-13 4.43992E-13
 -1      3281 2.81426E+01-3.00789E+00-2.00772E-02-1.32349E+00-4.92219E-13 2.31429E-13
 -1      3282 2.02601E+01 9.25795E-01-2.45583E-03-4.25816E-01-1.10862E-13-1.65241E-13
 -1      3283 2.02732E+01 9.72167E-01 1.96987E-03-3.70101E-01-8.14737E-14-1.38883E-13
 -1      3284 2.02831E+01 1.08634E+00 1.23004E-03-5.57631E-01-1.07989E-13-1.76287E-13
 -1      3285 2.84033E+01 5.39977E-01-6.86236E-02 1.55861E+00-1.75547E-13 4.75477E-13
 -1      3286 2.86842E+01 1.63747E+00-1.06229E-01 1.91822E+00-1.10301E-13 4.18235E-13
 -1      3287 2.74683E+01 2.42548E+00-4.28807E-02 2.17383E+00-4.15640E-15 4.54737E-13
 -1      3288 2.37614E+01-3.38234E+00 4.07438E-02 3.98187E+00-2.29164E-13-1.29063E-13
 -1      3289 2.01406E+01 2.73175E-02-1.36268E-03-9.62163E-02 1.28446E-13 1.06623E-13
 -1      3290 2.01598E+01 1.02216E-01 3.67135E-03-6.87292E-02 1.41736E-13 1.03896E-13
 -1      3291 2.02359E+01 1.80752E-01-1.73364E-03-3.32514E-02 1.48566E-13 6.42857E-14
 -1      3292 2.02236E+01 5.79287E-03-2.07127E-03-9.97715E-02 1.14976E-13 1.08405E-13
 -1      3293 2.77442E+01-3.09749E+00 2.73162E-03 1.46171E+00 6.72483E-14-3.73694E-13
 -1      3294 2.65224E+01-3.18608E+00 7.83624E-04 1.60700E+00 2.34847E-14-2.53740E-13
 -1      3295 2.79780E+01-2.36225E+00-1.20037E-01 3.28313E-01 1.73287E-13-3.92235E-13
 -1      3296 2.02870E+01 1.09353E+00 6.12268E-03 6.23366E-01 2.65582E-13 1.46841E-13
 -1      3297 1.10697E+01 2.36735E+00 9.66064E-02 1.87485E+00-1.94077E-13 7.47180E-14
 -1      3298 9.68566E+00 2.60800E+00 2.24767E-01 9.02611E-01-5.90326E-14 2.45443E-13
 -1      3299 2.01571E+01-2.14095E-01-1.23117E-03-7.89883E-02-6.57976E-15 1.38433E-13
 -1      3300 2.01529E+01-1.55984E-01 3.02872E-03-1.03668E-01 3.01196E-14 9.77017E-14
 -1      3301 2.02332E+01-1.40140E-01-2.34108E-03-1.13907E-01 5.39679E-14 1.23490E-13
 -1      3302 1.99987E+01 3.65053E-03-1.14989E-05 4.60690E-04 9.06290E-14-1.22352E-13
 -1      3303 1.99988E+01 3.52501E-03 1.17530E-05 7.13840E-04 2.98521E-14 9.69636E-14
 -1      3304 1.99985E+01 4.36047E-03 1.77425E-05 4.11362E-04 8.33968E-14-5.82692E-14
 -1      3305 1.99991E+01 2.98434E-03-1.39907E-05 1.06878E-03 1.77878E-13 1.50550E-13
 -1      3306 2.45898E+01-4.15980E+00 3.38384E-02-4.55560E+00-5.10328E-13-9.48417E-14
 -1      3307 2.58649E+01-4.41147E+00 2.78064E-02-4.32163E+00-5.53453E-13-9.92262E-14
 -1      3308 2.67043E+01-3.99145E+00-5.58486E-02-2.88943E+00-5.72848E-13 5.54105E-14
 -1      3309 2.00821E+01 2.03245E+00-4.95509E-03 4.87294E-01 2.70269E-13-7.98916E-14
 -1      3310 2.00539E+01 2.11418E+00-3.14295E-03 3.73679E-01 2.56758E-13-1.09295E-13
 -1      3311 2.01470E+01 1.85760E+00 4.72607E-03 2.69870E-01 2.35041E-13-9.85456E-14
 -1      3312 2.63493E+01 6.24435E+00-8.79716E-02-4.14703E-01 3.97585E-13 3.50917E-13
 -1      3313 1.85253E+01-1.77618E+00 3.66429E-02 5.61891E+00-4.67952E-13 4.05960E-14
 -1      3314 2.02809E+01 7.48338E-01-1.49924E-03 3.24369E-01 2.03502E-13 7.38233E-14
 -1      3315 2.02453E+01 1.45810E+00 3.62717E-03 5.67862E-01 2.67373E-13 7.34334E-14
 -1      3316 2.01557E+01 1.80402E+00-6.44737E-03 6.70220E-01 2.91834E-13 3.35469E-14
 -1      3317 2.01179E+01 1.93362E+00-2.63179E-03 5.72607E-01 2.59122E-13-2.15659E-14
 -1      3318 2.00407E+01 2.14569E+00-2.86667E-03-3.80314E-01 7.01895E-14-2.23130E-13
 -1      3319 2.00671E+01 2.06772E+00-5.36208E-03-4.90424E-01 4.95427E-14-2.58071E-13
 -1      3320 2.01751E+01 1.74417E+00 5.05027E-03-4.41596E-01 6.96768E-15-2.11104E-13
 -1      3321 2.02024E+01-3.26588E-01-1.63442E-03-5.27565E-04 4.40911E-14 1.17813E-13
 -1      3322 2.01891E+01-2.68676E-01 3.17201E-03-4.83181E-02 1.32143E-14 1.39934E-13
 -1      3323 2.02717E+01-2.74833E-01-2.61444E-03-8.13543E-02 1.07712E-14 1.08675E-13
 -1      3324 2.03447E+01-4.08085E-01-2.82792E-03-2.71547E-03 3.70558E-14 1.56032E-13
 -1      3325 1.28240E+01 1.69909E+00 1.60753E-02-3.17235E+00 1.27572E-14-2.07681E-13
 -1      3326 1.33534E+01 6.08140E-01 1.52866E-01-4.85518E+00-4.02942E-14-2.63657E-13
 -1      3327 1.48928E+01 1.77770E+00 2.13133E-02-2.27331E+00-4.21633E-14-1.73974E-13
 -1      3328 1.50367E+01 9.80312E-02 7.27651E-03 5.06054E+00-3.14159E-13 8.48349E-14
 -1      3329 1.30436E+01 4.21339E-01 1.08573E-01 5.27641E+00-3.58935E-13 1.30430E-13
 -1      3330 1.25682E+01 1.22080E+00 4.69983E-02 4.20002E+00-3.23873E-13 1.77802E-13
 -1      3331 2.54877E+01 5.01584E+00-6.78301E-02 1.28366E+00 3.34989E-13 3.60996E-13
 -1      3332 2.49815E+01 5.25534E+00-3.52121E-02 6.49080E-01 3.91159E-13 2.83794E-13
 -1      3333 2.10323E+01-8.68608E-01-4.15193E-03 5.13255E-01 4.41012E-14 2.06621E-13
 -1      3334 2.09602E+01-8.29310E-01 5.48385E-03 3.84568E-01 1.00339E-13 1.78508E-13
 -1      3335 1.25332E+01 2.59539E+00 5.09489E-03 1.15164E+00-7.53529E-14-6.10900E-14
 -1      3336 1.41246E+01 2.56033E+00 6.53525E-03 8.69442E-01-3.93500E-14-1.71314E-13
 -1      3337 2.00082E+01 2.23141E+00-3.05439E-03-1.69168E-01 1.26900E-13-2.00765E-13
 -1      3338 2.00199E+01 2.19581E+00-4.53362E-03-2.87408E-01 8.50988E-14-2.01616E-13
 -1      3339 2.01309E+01 1.88987E+00 4.68103E-03-2.84473E-01 5.34726E-14-1.94192E-13
 -1      3340 2.00398E+01 3.56967E-01 2.95089E-04 1.46550E-01 6.22115E-16-2.39152E-14
 -1      3341 1.99596E+01 3.60451E-01-3.56938E-03 1.73960E-01-8.56821E-15-4.08368E-14
 -1      3342 1.98678E+01 3.87899E-01-5.87993E-04 1.68818E-01-2.67894E-14-1.12403E-14
 -1      3343 1.97509E+01 4.33143E-01-5.34344E-03 1.75458E-01-3.39394E-14-1.74465E-14
 -1      3344 1.99519E+01 3.89492E-01 3.69139E-03 8.96112E-02-1.57798E-14 1.18369E-14
 -1      3345 1.96184E+01 5.03117E-01-1.28610E-03 1.39487E-01-4.00377E-14-4.32815E-14
 -1      3346 1.94403E+01 5.89401E-01-8.70872E-03 1.19822E-01-2.32023E-14-4.27521E-14
 -1      3347 1.97284E+01 4.63218E-01 5.86027E-03 3.72338E-02-5.22086E-14 2.01495E-14
 -1      3348 1.92511E+01 7.02615E-01-1.45644E-03 3.96132E-02-8.44102E-14-5.72426E-14
 -1      3349 1.89751E+01 8.27686E-01-1.38042E-02-2.24525E-02-1.09261E-13-1.10737E-13
 -1      3350 1.94078E+01 6.11477E-01 8.88231E-03-9.94286E-02-7.71098E-14-2.32852E-14
 -1      3351 1.87237E+01 9.71022E-01-1.23895E-03-1.63581E-01-8.06176E-14-1.27643E-13
 -1      3352 1.83211E+01 1.11399E+00-2.22915E-02-2.87364E-01-6.35514E-14-1.09039E-13
 -1      3353 1.89646E+01 8.11438E-01 1.23232E-02-3.54242E-01-1.04168E-13 1.07067E-14
 -1      3354 1.79628E+01 1.28659E+00 1.71362E-03-5.40654E-01-4.20597E-14-1.22303E-13
 -1      3355 1.73202E+01 1.42847E+00-3.43403E-02-7.89709E-01-3.78005E-14-8.56871E-14
 -1      3356 1.83472E+01 1.03257E+00 1.69922E-02-7.97507E-01-4.83791E-14 2.52602E-14
 -1      3357 1.68502E+01 1.57542E+00 8.44959E-03-1.21776E+00-3.50319E-14-8.24593E-14
 -1      3358 1.59122E+01 1.63928E+00-4.15403E-02-1.65602E+00-1.75901E-14-1.28903E-13
 -1      3359 1.74986E+01 1.18604E+00 2.25183E-02-1.55160E+00-5.58815E-14-2.00222E-14
 -1      3360 1.53330E+01 2.33000E+00-2.68617E-02 5.82905E-01-9.94396E-14-2.57480E-13
 -1      3361 1.63697E+01 2.12032E+00-4.23441E-03 3.65192E-01-3.13493E-13-2.61984E-13
 -1      3362 1.08682E+01 8.57930E-01 9.90215E-02-4.36925E+00 6.49758E-14-1.31534E-13
 -1      3363 2.08114E+01-7.76353E-01-2.99254E-03 2.68961E-01 1.30184E-13 1.29227E-13
 -1      3364 2.07414E+01-7.06186E-01 5.49045E-03 1.68860E-01 1.05561E-13 1.41514E-13
 -1      3365 2.10685E+01-9.07542E-01-4.48138E-03 2.30169E-01 7.67559E-14 2.55138E-13
 -1      3366 1.70779E+01 1.87148E+00-2.85246E-02 1.02765E-01-4.17468E-13-3.92957E-13
 -1      3367 1.77486E+01 1.63389E+00-6.59335E-03 2.12816E-02-2.75940E-13-4.16172E-13
 -1      3368 1.68091E+01 1.89280E+00 4.28570E-02 8.61358E-01-3.37534E-13-2.20653E-13
 -1      3369 1.82236E+01 1.38940E+00-1.87716E-02-1.13563E-01-1.74145E-14-4.75155E-13
 -1      3370 1.86333E+01 1.17964E+00-6.27654E-03-1.25808E-01 8.89443E-14-4.17900E-13
 -1      3371 1.79726E+01 1.48274E+00 2.59458E-02 3.56422E-01-1.83433E-13-1.15215E-13
 -1      3372 1.89442E+01 9.83121E-01-1.06825E-02-1.85359E-01 8.78503E-14-4.56578E-13
 -1      3373 1.91871E+01 8.18232E-01-5.25567E-03-1.66823E-01 1.53642E-13-5.16667E-13
 -1      3374 1.87411E+01 1.09040E+00 1.67366E-02 9.60742E-02 1.12096E-13-3.11400E-13
 -1      3375 1.93783E+01 6.78727E-01-5.79225E-03-1.86289E-01 5.97263E-14-4.67641E-13
 -1      3376 1.95148E+01 5.62881E-01-3.97934E-03-1.59696E-01 2.11632E-14-4.02013E-13
 -1      3377 1.92264E+01 7.77121E-01 1.14526E-02-2.17112E-02 8.48159E-14-4.13329E-13
 -1      3378 1.96426E+01 4.58731E-01-2.94353E-03-1.61412E-01 4.17203E-14-3.06095E-13
 -1      3379 1.97251E+01 3.72503E-01-2.82295E-03-1.34193E-01 7.02595E-14-3.02574E-13
 -1      3380 1.95337E+01 5.36321E-01 7.11421E-03-6.59476E-02 4.67404E-14-2.43064E-13
 -1      3381 1.98034E+01 3.01277E-01-1.47663E-03-1.28021E-01 5.48281E-16-2.74785E-13
 -1      3382 1.98489E+01 2.43058E-01-1.93710E-03-1.05166E-01-1.81080E-13-1.65892E-13
 -1      3383 1.97291E+01 3.59634E-01 4.47570E-03-7.55769E-02 9.01258E-14-3.48979E-13
 -1      3384 1.98960E+01 1.95708E-01-6.32690E-04-9.67853E-02-2.75829E-13-7.17304E-14
 -1      3385 1.99203E+01 1.57040E-01-1.30486E-03-7.90512E-02-1.55791E-13-7.18231E-14
 -1      3386 1.98468E+01 2.37380E-01 2.72919E-03-6.91105E-02-1.25900E-13-1.05715E-13
 -1      3387 1.99480E+01 1.26127E-01-2.10985E-04-7.10031E-02-1.44774E-13-1.10268E-13
 -1      3388 1.99604E+01 1.00843E-01-8.58988E-04-5.78663E-02-5.53573E-14-2.17381E-13
 -1      3389 1.99161E+01 1.55050E-01 1.62733E-03-5.72084E-02-6.75217E-14-1.28117E-13
 -1      3390 1.99764E+01 8.09105E-02-1.62994E-05-5.10674E-02 1.22207E-13-2.20037E-13
 -1      3391 1.99823E+01 6.45625E-02-5.55365E-04-4.16055E-02 1.92146E-13-2.09387E-13
 -1      3392 1.99560E+01 1.00610E-01 9.49682E-04-4.48186E-02-2.25734E-15-1.72209E-13
 -1      3393 1.99912E+01 5.18230E-02 6.26655E-05-3.62206E-02 1.44227E-13-1.24140E-13
 -1      3394 1.99936E+01 4.13315E-02-3.55308E-04-2.95198E-02 1.43704E-13-1.03048E-13
 -1      3395 1.99784E+01 6.50776E-02 5.40707E-04-3.39180E-02 2.07149E-13-7.90751E-14
 -1      3396 1.99985E+01 3.32461E-02 8.94395E-05-2.54109E-02 9.45595E-14-5.84990E-16
 -1      3397 1.99992E+01 2.65506E-02-2.19216E-04-2.07156E-02 1.69380E-13-7.38983E-14
 -1      3398 1.99906E+01 4.20815E-02 2.94974E-04-2.50533E-02 2.43022E-13-6.58111E-15
 -1      3399 2.00016E+01 2.16533E-02 8.77307E-05-1.78000E-02 1.25292E-13-7.08004E-14
 -1      3400 2.00015E+01 1.75120E-02-1.38586E-04-1.46377E-02 9.02895E-14-1.37406E-13
 -1      3401 1.99968E+01 2.75614E-02 1.52569E-04-1.82915E-02 1.34793E-13 1.38598E-13
 -1      3402 2.00028E+01 1.41699E-02 7.32559E-05-1.23314E-02 1.68036E-13-2.03095E-13
 -1      3403 2.00023E+01 1.13680E-02-8.94401E-05-1.00070E-02 2.05176E-14-1.79678E-13
 -1      3404 1.99998E+01 1.81790E-02 8.18117E-05-1.31434E-02 1.15297E-13-1.53775E-13
 -1      3405 2.00028E+01 9.24398E-03 5.85030E-05-8.33161E-03 2.28579E-14 1.64619E-14
 -1      3406 2.00023E+01 7.44188E-03-5.61600E-05-6.71285E-03 2.22438E-13 2.04336E-13
 -1      3407 2.00012E+01 1.19290E-02 3.86940E-05-9.18281E-03 2.17033E-13 1.86468E-13
 -1      3408 2.00025E+01 6.07525E-03 4.53989E-05-5.50157E-03 1.81539E-13 3.90144E-13
 -1      3409 2.00020E+01 4.90308E-03-3.46931E-05-4.37914E-03 4.00018E-13 3.27845E-13
 -1      3410 2.00015E+01 7.87635E-03 1.41864E-05-6.26818E-03 2.82861E-13 5.92794E-13
 -1      3411 2.00020E+01 4.00261E-03 3.16709E-05-3.50857E-03 4.70857E-13 2.84564E-13
 -1      3412 2.00016E+01 3.25095E-03-1.13679E-05-2.74928E-03 2.53436E-13 2.39701E-13
 -1      3413 2.00015E+01 5.23058E-03 3.65504E-06-4.15166E-03 2.90319E-13 6.03864E-13
 -1      3414 2.00015E+01 2.86363E-03 2.29942E-05-2.31812E-03 2.21979E-13 3.02542E-13
 -1      3415 2.00012E+01 2.44092E-03 1.53905E-07-1.87408E-03 1.11538E-13 3.56550E-13
 -1      3416 2.00009E+01 2.77765E-03-2.38989E-05-2.03456E-03 5.41116E-14 5.72013E-13
 -1      3417 2.00012E+01 3.70381E-03-4.61564E-06-2.83634E-03 1.64829E-13 6.83325E-13
 -1      3418 2.01600E+01 4.12997E-01 1.19452E-03 7.72215E-02-1.23307E-14-4.16996E-14
 -1      3419 2.01015E+01 3.72314E-01-2.91077E-03 1.26353E-01 2.17602E-15-4.73446E-14
 -1      3420 2.01070E+01 3.98238E-01 2.32551E-03 7.99844E-02 5.34792E-15-1.81545E-14
 -1      3421 2.06200E+01-6.34138E-01-1.78598E-03 9.04188E-02 7.13076E-14 8.16598E-14
 -1      3422 2.05621E+01-5.54510E-01 4.83309E-03 1.88894E-02 4.52017E-14 8.90529E-14
 -1      3423 2.08106E+01-7.49354E-01-5.02914E-03 4.85503E-02 4.92414E-14 1.10621E-13
 -1      3424 2.14114E+01-6.53296E-01-2.91311E-03 1.14594E+00-3.40173E-14 1.65871E-13
 -1      3425 2.13854E+01-7.79399E-01 4.61269E-04 1.00008E+00-3.57576E-14 1.27772E-13
 -1      3426 2.14615E+01-2.15560E-01 1.47411E-03 1.42096E+00 2.96041E-14 1.68106E-13
 -1      3427 2.14813E+01-4.68379E-01-5.47757E-03 1.32071E+00-1.10810E-14 1.46562E-13
 -1      3428 2.18898E+01-6.65581E-01 6.15885E-03 1.20196E+00-1.12436E-14 1.53491E-13
 -1      3429 2.13671E+01 4.51569E-01 8.05132E-03 1.52170E+00-6.24669E-15 2.72214E-13
 -1      3430 2.14310E+01 8.84742E-02-1.15418E-02 1.52218E+00 3.86377E-14 2.07507E-13
 -1      3431 2.19633E+01-1.00288E-01 9.25779E-03 1.50529E+00-2.30046E-15 1.46660E-13
 -1      3432 2.11541E+01 1.22353E+00 1.27332E-02 1.32520E+00-1.50270E-14 2.79630E-13
 -1      3433 2.12390E+01 8.30256E-01-1.48636E-02 1.47208E+00-2.60196E-14 3.37892E-13
 -1      3434 2.18502E+01 7.12742E-01 8.29840E-03 1.59042E+00-5.54392E-14 2.84179E-13
 -1      3435 2.09239E+01 1.86169E+00 1.11240E-02 7.83826E-01 3.41990E-15 2.36569E-13
 -1      3436 2.09910E+01 1.57093E+00-1.20868E-02 1.07802E+00 3.10594E-14 2.85826E-13
 -1      3437 2.16036E+01 1.59418E+00 2.52561E-03 1.31085E+00-3.63934E-14 2.14204E-13
 -1      3438 2.08105E+01 2.11104E+00 2.44135E-03-9.57530E-04 1.84423E-16 2.05276E-13
 -1      3439 2.08257E+01 2.04433E+00-3.27911E-03 3.74089E-01-3.05509E-14 2.46408E-13
 -1      3440 2.13708E+01 2.24215E+00-5.80215E-03 6.43175E-01-2.21337E-14 3.12849E-13
 -1      3441 2.08876E+01 1.86539E+00-7.65345E-03-7.95837E-01 9.48243E-14 8.07180E-14
 -1      3442 2.08435E+01 2.05066E+00 7.87867E-03-4.48028E-01 9.83211E-14 1.43372E-13
 -1      3443 2.13131E+01 2.39288E+00-6.39031E-03-2.46602E-01 1.07163E-13 2.01754E-13
 -1      3444 2.11070E+01 1.23735E+00-1.45727E-02-1.36106E+00 7.26591E-14 1.24171E-13
 -1      3445 2.10273E+01 1.59003E+00 1.24185E-02-1.13452E+00 9.31445E-14 9.17601E-14
 -1      3446 2.14685E+01 1.98008E+00-7.23296E-04-1.05725E+00 1.07358E-13 1.32718E-13
 -1      3447 2.13362E+01 4.79401E-01-1.33421E-02-1.58566E+00 9.98789E-14 2.63817E-13
 -1      3448 2.12601E+01 8.65654E-01 1.10943E-02-1.51104E+00 1.06302E-13 2.13963E-13
 -1      3449 2.17227E+01 1.18930E+00 5.99366E-03-1.54258E+00 7.95863E-14 2.04739E-13
 -1      3450 2.14574E+01-1.74170E-01-7.57833E-03-1.50405E+00 2.86880E-14 2.71063E-13
 -1      3451 2.14150E+01 1.33256E-01 5.10280E-03-1.55598E+00 6.32904E-14 2.30653E-13
 -1      3452 2.19070E+01 3.27221E-01 1.17693E-02-1.63534E+00 9.82174E-14 2.83137E-13
 -1      3453 2.14197E+01-5.94388E-01-2.34870E-03-1.24160E+00 7.99754E-15 3.28457E-13
 -1      3454 2.14258E+01-4.13127E-01-1.53688E-03-1.36297E+00 6.10514E-14 3.07445E-13
 -1      3455 2.19115E+01-3.69075E-01 6.57657E-03-1.42841E+00-1.79858E-15 3.25316E-13
 -1      3456 2.12580E+01-7.80231E-01 2.61378E-03-9.23232E-01 7.02961E-14 2.22796E-13
 -1      3457 2.13050E+01-7.14486E-01-4.36048E-03-1.06547E+00 3.09798E-14 2.13813E-13
 -1      3458 2.17426E+01-7.68547E-01 3.81356E-03-1.09158E+00 7.71035E-14 1.53194E-13
 -1      3459 2.10264E+01-7.88547E-01 4.99404E-03-6.29815E-01 1.90794E-13 5.73260E-14
 -1      3460 2.10974E+01-8.04045E-01-4.85251E-03-7.60663E-01 1.42533E-13 1.54942E-13
 -1      3461 2.14589E+01-9.14709E-01-4.53796E-04-7.45220E-01 1.58432E-13-5.72256E-14
 -1      3462 2.07817E+01-6.93240E-01 5.52953E-03-3.98281E-01 2.82981E-14 1.45332E-13
 -1      3463 2.08595E+01-7.52269E-01-3.92919E-03-5.03542E-01 1.42158E-13 1.59543E-13
 -1      3464 2.11354E+01-8.78039E-01-3.28654E-03-4.60573E-01 1.20444E-13-2.23080E-14
 -1      3465 2.05612E+01-5.55216E-01 4.96332E-03-2.33336E-01-1.20520E-13 1.68379E-13
 -1      3466 2.06333E+01-6.29021E-01-2.62344E-03-3.10687E-01 1.36529E-14 1.23642E-13
 -1      3467 2.08311E+01-7.45256E-01-4.43707E-03-2.56616E-01 5.42877E-14 2.24373E-13
 -1      3468 2.03823E+01-4.14425E-01 3.95708E-03-1.24426E-01-8.86309E-14 6.73253E-15
 -1      3469 2.04421E+01-4.85472E-01-1.49267E-03-1.77673E-01-1.01891E-13 2.66609E-14
 -1      3470 2.05766E+01-5.80857E-01-4.37448E-03-1.24766E-01-7.77455E-14 7.47656E-14
 -1      3471 2.02478E+01-2.91376E-01 2.92130E-03-5.70040E-02 7.71160E-14-1.81069E-13
 -1      3472 2.02935E+01-3.51381E-01-7.22086E-04-9.16682E-02-2.19478E-14-5.99793E-14
 -1      3473 2.03808E+01-4.23822E-01-3.72344E-03-4.65304E-02 2.57817E-15-1.77406E-13
 -1      3474 2.01527E+01-1.93705E-01 2.02733E-03-1.79668E-02 1.84615E-14-6.39940E-14
 -1      3475 2.01854E+01-2.40185E-01-2.62906E-04-3.93446E-02-1.65625E-15-1.72425E-13
 -1      3476 2.02394E+01-2.91987E-01-2.88961E-03-4.18205E-03-1.67393E-14-1.83966E-13
 -1      3477 2.00890E+01-1.21484E-01 1.33469E-03 2.84897E-03 8.56409E-15-7.12018E-14
 -1      3478 2.01111E+01-1.55189E-01-2.56905E-05-9.55803E-03 2.32889E-14-8.69067E-14
 -1      3479 2.01427E+01-1.90313E-01-2.08846E-03 1.60059E-02-4.75136E-14-1.22504E-13
 -1      3480 2.00484E+01-7.11083E-02 8.36183E-04 1.25970E-02 2.15914E-13-2.98198E-14
 -1      3481 2.00626E+01-9.42181E-02 7.43415E-05 5.97181E-03 1.31344E-13-1.20068E-13
 -1      3482 2.00799E+01-1.16844E-01-1.42565E-03 2.35455E-02 1.00464E-13-1.75350E-13
 -1      3483 2.00239E+01-3.78061E-02 4.96526E-04 1.59767E-02 2.86194E-13-1.99789E-14
 -1      3484 2.00325E+01-5.28292E-02 1.01758E-04 1.29154E-02 2.27002E-13-2.94645E-14
 -1      3485 2.00411E+01-6.65973E-02-9.24677E-04 2.44325E-02 1.50253E-13-5.54641E-14
 -1      3486 2.00099E+01-1.69790E-02 2.75768E-04 1.59300E-02 1.75479E-13 4.54473E-15
 -1      3487 2.00149E+01-2.62025E-02 9.63333E-05 1.49566E-02 2.90779E-13-1.03275E-13
 -1      3488 2.00184E+01-3.39871E-02-5.70351E-04 2.21881E-02 2.91104E-13-1.92385E-14
 -1      3489 2.00026E+01-4.77665E-03 1.38748E-04 1.42251E-02 2.79534E-13-1.26977E-13
 -1      3490 2.00052E+01-1.00553E-02 7.96167E-05 1.43925E-02 2.40443E-13-6.43653E-14
 -1      3491 2.00059E+01-1.39834E-02-3.33013E-04 1.87562E-02 2.01364E-13-1.49865E-13
 -1      3492 1.99991E+01 1.75792E-03 5.79387E-05 1.18809E-02 6.19628E-14-2.82685E-13
 -1      3493 2.00004E+01-9.68941E-04 6.17275E-05 1.26028E-02 1.78970E-13-1.48387E-13
 -1      3494 1.99998E+01-2.53763E-03-1.81788E-04 1.51390E-02 2.43651E-13-2.21179E-13
 -1      3495 1.99979E+01 4.75709E-03 1.32687E-05 9.45423E-03-1.27653E-13-1.36397E-13
 -1      3496 1.99984E+01 3.59501E-03 4.65196E-05 1.03824E-02 2.71635E-14-2.95107E-13
 -1      3497 1.99972E+01 3.37709E-03-9.01390E-05 1.18062E-02 8.48138E-14-6.75879E-14
 -1      3498 1.99977E+01 5.68098E-03-8.96163E-06 7.22591E-03-2.79366E-13 3.59423E-14
 -1      3499 1.99978E+01 5.41780E-03 3.48989E-05 8.16493E-03-2.87471E-13-1.54169E-13
 -1      3500 1.99966E+01 5.89933E-03-3.77267E-05 8.94130E-03-2.34129E-13 6.80705E-15
 -1      3501 1.99980E+01 5.47924E-03-1.86936E-05 5.31567E-03-3.94862E-14 1.56478E-13
 -1      3502 1.99980E+01 5.68967E-03 2.64491E-05 6.16532E-03-8.13345E-14 5.80335E-14
 -1      3503 1.99969E+01 6.47054E-03-9.60845E-06 6.58238E-03-2.43022E-13-1.49289E-13
 -1      3504 1.99985E+01 4.75716E-03-2.04775E-05 3.75928E-03 2.61724E-13 9.60104E-14
 -1      3505 1.99984E+01 5.16944E-03 2.03406E-05 4.47777E-03-3.97403E-15 8.82904E-14
 -1      3506 1.99975E+01 6.01827E-03 5.02236E-06 4.69992E-03-9.23361E-15-2.45796E-14
 -1      3507 1.99989E+01 3.82760E-03-2.29035E-05 2.53989E-03 2.51128E-13 2.62120E-13
 -1      3508 1.99988E+01 4.30888E-03 1.46188E-05 3.10611E-03 3.86989E-13 2.01768E-13
 -1      3509 1.99981E+01 5.11127E-03 1.36090E-05 3.23272E-03 1.43904E-13-4.47902E-15
 -1      3510 1.22638E+01 2.10212E+00 1.30069E-01 2.93360E+00-2.39895E-13 6.42403E-14
 -1      3511 2.00001E+01 4.04672E-03 3.49178E-06-2.21253E-03-2.70889E-13 6.17810E-13
 -1      3512 1.99997E+01 4.39272E-03-2.45614E-05-2.12875E-03-2.07528E-13 4.36359E-13
 -1      3513 1.99993E+01 4.80513E-03 2.26753E-06-1.89436E-03-8.39990E-14 4.94833E-13
 -1      3514 1.99989E+01 5.02864E-03-2.17700E-05-1.65617E-03 4.01852E-14 3.01595E-13
 -1      3515 1.99994E+01 5.44101E-03 2.69977E-05-2.32671E-03-1.63243E-13 3.02458E-13
 -1      3516 2.12493E+01-8.51798E-01-4.48484E-03 8.17108E-01-1.00484E-14 1.81761E-13
 -1      3517 2.11910E+01-8.76178E-01 4.11311E-03 6.68238E-01 2.05690E-14 1.89090E-13
 -1      3518 2.16657E+01-9.46160E-01 1.49631E-03 8.30011E-01 1.08311E-14 2.50719E-13
 -1      3519 2.02968E+01 4.03141E-01-2.70883E-03 5.75675E-02 1.69449E-13 3.13603E-14
 -1      3520 2.03189E+01 5.52343E-01 4.70630E-03 1.42741E-01 1.59261E-13 1.14809E-14
 -1      3521 1.51687E+01-1.10094E-01 3.05171E-02-5.07532E+00-1.34013E-13-1.69503E-13
 -1      3522 2.02408E+01 5.65606E-01 1.97217E-03-4.36656E-02-4.31366E-14-8.27972E-14
 -1      3523 2.01968E+01 4.74635E-01-3.02859E-03 3.20100E-02-1.93396E-14-4.60586E-14
 -1      3524 2.02111E+01 4.98289E-01 1.67944E-03 1.63925E-02-1.33104E-14-5.30750E-14
 -1      3525 2.02686E+01 1.44879E+00-1.05944E-03-8.18508E-01-1.02823E-13-2.23257E-13
 -1      3526 2.02645E+01 1.23705E+00-2.33205E-03-6.62075E-01-1.02767E-13-2.04511E-13
 -1      3527 2.02628E+01 1.27556E+00 1.36041E-03-5.73792E-01-8.17717E-14-1.86431E-13
 -1      3528 2.02252E+01 1.61404E+00-1.76489E-03-8.00254E-01-8.40758E-14-2.33582E-13
 -1      3529 1.96983E+01-1.85123E+00-2.77509E-02 4.83149E+00-4.30111E-13 1.02869E-14
 -1      3530 1.74460E+01-6.50391E-01 1.15675E-01 5.12953E+00-3.37803E-13 1.86240E-14
 -1      3531 1.60244E+01 1.23808E+00 4.20709E-02-2.75526E+00-4.07877E-14-9.38264E-14
 -1      3532 1.99986E+01 5.23750E-03-4.91634E-06-1.26160E-03 1.97479E-14 6.84995E-14
 -1      3533 1.99983E+01 5.33273E-03-1.47820E-05-9.13830E-04 1.56758E-13-4.03263E-13
 -1      3534 1.99985E+01 6.01412E-03 2.71775E-05-1.62520E-03 2.89062E-14 1.54158E-13
 -1      3535 1.99981E+01 5.31844E-03-1.11431E-05-4.35384E-04 9.84225E-14-5.27698E-13
 -1      3536 1.99980E+01 5.27322E-03-7.34734E-06-4.46213E-05-1.78002E-14-5.20471E-13
 -1      3537 1.99979E+01 6.17363E-03 2.34261E-05-6.81424E-04 7.02484E-14-3.82080E-13
 -1      3538 1.99988E+01 3.62617E-03-1.23698E-05 1.14484E-03 8.82864E-14 1.19621E-13
 -1      3539 2.53482E+01 5.63150E+00-3.25594E-02-3.96371E-01 3.81785E-13 1.86765E-13
 -1      3540 2.61625E+01 5.79109E+00-1.14638E-01-9.47552E-01 3.62210E-13 2.73694E-13
 -1      3541 2.60104E+01 5.13420E+00-5.90691E-02-1.37841E+00 4.26784E-13 1.69485E-13
 -1      3542 2.46377E+01-3.34983E+00-3.02060E-02 2.74625E+00-8.87328E-14-2.47167E-13
 -1      3543 2.25124E+01-2.87217E+00 1.61670E-02 3.91950E+00-2.60972E-13-1.37459E-14
 -1      3544 2.02805E+01 8.32629E-01 1.44139E-03-2.24998E-01-6.88201E-14-1.36698E-13
 -1      3545 2.02528E+01 6.82620E-01-3.32332E-03-1.16802E-01-4.40577E-14-1.06884E-13
 -1      3546 2.02697E+01 7.04452E-01 1.84913E-03-1.01571E-01-3.04151E-14-1.07309E-13
 -1      3547 2.62650E+01 3.30217E+00-5.28724E-02 2.09618E+00 1.12389E-13 3.77889E-13
 -1      3548 2.58220E+01 4.36604E+00-7.07274E-02 1.73510E+00 2.69562E-13 3.67310E-13
 -1      3549 2.48784E+01 3.87052E+00-3.97772E-02 1.53768E+00 2.21417E-13 4.86762E-13
 -1      3550 1.62371E+01 1.22179E-01 2.07768E-02-4.29585E+00-9.64923E-14-7.53460E-14
 -1      3551 1.70856E+01-1.13018E+00 1.10742E-01-5.70323E+00-1.96105E-13-7.51760E-14
 -1      3552 1.87128E+01-1.80817E+00 3.60945E-02-5.49069E+00-2.60047E-13 8.24341E-15
 -1      3553 2.02782E+01 1.15347E+00 2.37986E-03 5.57020E-01 2.52087E-13 1.24992E-13
 -1      3554 1.49624E+01 2.25800E+00 7.96286E-02 1.61371E+00-2.04748E-13-1.01139E-13
 -1      3555 2.06136E+01-5.71141E-01-4.68691E-03-6.54077E-02 6.87388E-14-8.36665E-15
 -1      3556 2.04734E+01-4.78485E-01-9.41709E-04-2.93095E-02 4.74321E-14 8.00516E-14
 -1      3557 2.04322E+01-3.99542E-01 4.04189E-03-7.52357E-02 2.72324E-14 5.93281E-14
 -1      3558 2.13695E+01-3.29434E+00-3.85975E-03-5.43542E+00-3.96030E-13-4.22995E-14
 -1      3559 2.31337E+01-3.86718E+00 4.96464E-02-5.16278E+00-4.81247E-13-8.65991E-14
 -1      3560 2.42760E+01-3.80417E+00 8.04283E-03-3.98986E+00-5.01262E-13-7.44543E-14
 -1      3561 2.61471E+01-3.56727E+00 2.61487E-04-2.30658E+00-4.98927E-13 1.10729E-13
 -1      3562 2.72963E+01-3.46924E+00-6.26970E-03-1.80888E+00-5.14512E-13 1.50911E-13
 -1      3563 2.73038E+01-2.71390E+00-2.40966E-02-6.60364E-01-4.29525E-13 2.70100E-13
 -1      3564 2.77719E+01-1.36820E+00-2.44999E-02-5.72171E-01 2.27028E-13-3.77719E-13
 -1      3565 2.24621E+01-2.32932E+00 2.28176E-02 3.00357E+00-2.67208E-13 4.86939E-14
 -1      3566 2.14145E+01-2.30682E+00 3.70409E-02 4.12293E+00-4.12637E-13 1.22100E-13
 -1      3567 1.99055E+01-1.44594E+00-3.91893E-02 3.90369E+00-3.61107E-13 9.92496E-14
 -1      3568 2.79114E+01 2.75842E+00-9.23958E-02-2.17163E+00 3.47306E-13-1.74562E-13
 -1      3569 2.75315E+01 1.56249E+00-2.38788E-02-1.92933E+00 2.45734E-13-2.76185E-13
 -1      3570 2.68301E+01 3.79443E+00-4.22617E-02-2.09786E+00 3.60212E-13 2.27596E-14
 -1      3571 2.76759E+01-1.31710E+00-3.88642E-02 6.74321E-01-2.52250E-13 3.31655E-13
 -1      3572 2.82364E+01-4.54006E-01-5.34176E-02 1.23290E+00-1.82142E-13 4.39093E-13
 -1      3573 2.73430E+01 5.05931E-01-2.84611E-02 1.78048E+00-1.53356E-13 4.38264E-13
 -1      3574 2.02921E+01-1.59188E-02-9.24464E-04-1.13333E-01 7.08342E-14 1.05767E-13
 -1      3575 2.02978E+01 7.31084E-02 3.05435E-03-9.04249E-02 1.00120E-13 8.59558E-14
 -1      3576 1.39503E+01 1.59568E+00 3.30348E-02 3.19465E+00-1.80520E-13 5.40054E-14
 -1      3577 1.99993E+01 3.17188E-03 5.33417E-06 1.93155E-03 1.36340E-13 9.74246E-14
 -1      3578 2.56662E+01-2.77284E+00-3.12426E-02 1.05181E+00 6.59386E-14-2.53742E-13
 -1      3579 2.53352E+01-3.13985E+00 3.28537E-02 1.97029E+00-2.07568E-14-2.40612E-13
 -1      3580 2.40830E+01-2.90430E+00-2.01412E-02 2.16608E+00-2.60434E-14-1.37721E-13
 -1      3581 2.01120E+01 1.95445E+00 4.80477E-03-1.05599E-01 1.23369E-13-1.49836E-13
 -1      3582 1.99980E+01 5.05141E-03-1.80999E-05 4.40812E-04 1.18334E-13-1.29185E-13
 -1      3583 1.99981E+01 4.87385E-03-1.93689E-05 7.87616E-04 1.23341E-13 1.17467E-13
 -1      3584 1.99977E+01 5.93436E-03 2.23397E-05 3.40862E-04 3.72705E-14-3.82769E-13
 -1      3585 2.00007E+01 3.25081E-03-1.62588E-06-2.14461E-03-1.68585E-14 6.15502E-13
 -1      3586 2.00004E+01 3.57556E-03-2.44074E-05-2.20696E-03-2.02674E-13 8.21392E-13
 -1      3587 2.00002E+01 4.59219E-03 1.89472E-05-2.59732E-03-2.35995E-13 6.92402E-13
 -1      3588 2.00008E+01 3.69844E-03 7.74579E-06-2.49770E-03 5.05489E-14 7.63667E-13
 -1      3589 2.03056E+01 2.79672E-01 3.36808E-03-3.86598E-03 1.43148E-13 4.27458E-14
 -1      3590 2.03413E+01 4.00888E-01-5.01397E-04 3.12173E-02 1.49475E-13-1.29528E-15
 -1      3591 2.02900E+01 1.68276E-01-1.63427E-03-5.46649E-02 1.18524E-13 5.99111E-14
 -1      3592 2.01920E+01 1.69780E+00 4.17414E-03 4.38108E-01 2.48061E-13-3.85373E-14
 -1      3593 2.01839E+01 1.74935E+00-2.24243E-03-7.59222E-01-6.39126E-14-2.43248E-13
 -1      3594 2.13684E+01-9.97905E-01-2.37417E-03 4.92047E-01 4.80013E-14 3.43766E-13
 -1      3595 2.02118E+01 1.55868E+00-2.64355E-03 2.58869E-01 2.49329E-13-8.69710E-14
 -1      3596 2.01961E+01 1.61848E+00-2.14274E-03 1.76372E-01 2.24051E-13-9.38989E-14
 -1      3597 2.02926E+01 7.44398E-01-4.32847E-03 2.46779E-01 2.00027E-13 5.03298E-14
 -1      3598 2.03006E+01 9.84089E-01 2.52626E-03 3.99897E-01 2.19058E-13 7.69770E-14
 -1      3599 1.99988E+01 3.87529E-03 1.80402E-05 2.01719E-03 2.18579E-13 2.68522E-13
 -1      3600 2.03088E+01-9.56919E-02 3.10074E-03-1.28055E-01 6.82785E-14 1.19262E-13
 -1      3601 2.03581E+01-4.75212E-02-2.32201E-03-1.27986E-01 7.11212E-14 5.04210E-14
 -1      3602 2.03166E+01-1.74402E-01-5.53574E-04-1.27157E-01 6.01164E-14 1.02675E-13
 -1      3603 2.03255E+01 7.44467E-01-2.06759E-03 2.01156E-01 1.97778E-13 1.41284E-14
 -1      3604 1.99984E+01 4.43305E-03 2.35683E-06 1.64575E-03 2.49815E-13 5.45165E-14
 -1      3605 1.77474E+01 6.12223E-01 2.68467E-02-2.54253E+00-5.07643E-14 7.06071E-14
 -1      3606 1.67206E+01 5.71861E-01 1.17768E-02-3.35669E+00-5.66940E-14-6.29011E-15
 -1      3607 1.81796E+01-4.15299E-01 2.85131E-02-3.92117E+00-9.60456E-14 1.31366E-14
 -1      3608 2.02279E+01 1.54478E+00 3.19566E-03-6.03589E-01-5.59231E-14-2.03806E-13
 -1      3609 1.56390E+01 9.29929E-01 2.80297E-01-5.76571E+00 3.44169E-14-4.70513E-13
 -1      3610 2.64146E+01 1.70371E+00-2.83096E-02 2.07248E+00-7.33788E-14 3.50968E-13
 -1      3611 2.63470E+01 2.56221E+00-5.94640E-02 2.11316E+00 1.90820E-15 3.93994E-13
 -1      3612 2.53830E+01 2.53723E+00-1.39192E-02 2.04541E+00 1.15567E-14 4.10245E-13
 -1      3613 2.02685E+01 9.65934E-01-2.59133E-03-2.92670E-01-7.24491E-14-1.63002E-13
 -1      3614 2.02816E+01 9.74373E-01 5.82714E-04-2.45331E-01-4.11112E-14-1.32094E-13
 -1      3615 2.02734E+01 1.11600E+00-6.08714E-04-3.94134E-01-5.24832E-14-1.78149E-13
 -1      3616 2.02665E+01 1.39991E+00 4.40692E-03 1.02952E-01 2.09153E-13-7.82345E-14
 -1      3617 2.01838E+01 1.65932E+00-2.71708E-03 1.05465E-01 2.02173E-13-1.05971E-13
 -1      3618 2.01744E+01 1.68240E+00-3.12024E-03 1.68669E-02 1.68617E-13-1.19139E-13
 -1      3619 2.47266E+01 5.18813E+00-8.68937E-02 2.08320E-01 4.15987E-13 2.48392E-13
 -1      3620 2.45998E+01 5.07783E+00-2.81836E-02-3.31003E-01 2.98980E-13 2.16903E-13
 -1      3621 2.43057E+01 4.75414E+00-1.96913E-04 6.49050E-01 3.47767E-13 3.08438E-13
 -1      3622 1.66345E+01-1.12404E-01 1.89726E-02 4.56735E+00-2.24432E-13-5.90500E-15
 -1      3623 2.02821E+01 1.12742E+00 6.97129E-04 4.52274E-01 2.35059E-13 8.69881E-14
 -1      3624 2.02617E+01 1.28247E+00-3.93333E-03 5.14104E-01 2.58646E-13 8.20911E-14
 -1      3625 2.02450E+01 1.42435E+00 5.18713E-04 4.68190E-01 2.44733E-13 3.71143E-14
 -1      3626 2.02929E+01 1.11874E+00 3.77418E-04 3.69533E-01 2.34054E-13 4.36268E-14
 -1      3627 2.02386E+01 1.37556E+00-1.14710E-03-4.98671E-01-3.77784E-14-1.94092E-13
 -1      3628 2.02411E+01 1.36915E+00 8.52434E-04-4.15656E-01-2.86498E-14-1.79623E-13
 -1      3629 2.02222E+01 1.45107E+00-3.69465E-03-3.75533E-01-1.04618E-14-1.87749E-13
 -1      3630 2.02701E+01 1.20893E+00 2.97633E-03-2.89869E-01-1.27170E-14-1.64938E-13
 -1      3631 2.02036E+01 1.54767E+00-3.46301E-04-3.14259E-01 2.98069E-14-1.93337E-13
 -1      3632 2.01821E+01 1.64853E+00-7.78749E-04-1.82751E-01 7.21885E-14-1.57210E-13
 -1      3633 2.01893E+01 1.59550E+00-4.01547E-03-2.60339E-01 4.73149E-14-1.71106E-13
 -1      3634 2.02541E+01 1.34573E+00 2.55740E-03-2.07524E-01 3.80497E-14-1.44840E-13
 -1      3635 2.50352E+01 4.52006E+00-2.62868E-02-1.38177E+00 3.27977E-13 1.51769E-13
 -1      3636 2.58561E+01 4.14468E+00-8.77924E-02-1.82989E+00 3.89636E-13 9.53231E-14
 -1      3637 2.70900E+01-4.05912E-01-8.04114E-02-1.44025E+00 2.90939E-13-3.85015E-13
 -1      3638 2.65371E+01-1.66945E+00-1.23806E-02-3.92364E-01 2.11681E-13-3.42386E-13
 -1      3639 2.01747E+01 4.16775E-01 1.22045E-03 1.91802E-02 3.11670E-14-4.95188E-15
 -1      3640 2.01038E+01 3.76015E-01-4.01231E-03 3.57117E-02 3.98374E-14 1.21806E-14
 -1      3641 1.98540E+01 3.80215E-01 1.65043E-03-4.40982E-02-4.25110E-14 3.48298E-14
 -1      3642 1.97083E+01 4.11452E-01-7.67349E-03-9.47237E-02-5.97536E-14 3.67608E-14
 -1      3643 1.95953E+01 4.63849E-01 2.82598E-03-1.92933E-01-5.35312E-14 3.46438E-14
 -1      3644 1.93873E+01 5.19112E-01-1.09068E-02-2.98280E-01-6.70814E-14 4.76389E-14
 -1      3645 1.97523E+01 3.69906E-01 4.03002E-03-2.69187E-01-3.37537E-14 7.33475E-14
 -1      3646 1.92554E+01 5.87628E-01 5.03493E-03-4.55191E-01-5.49971E-14 6.38769E-14
 -1      3647 1.89764E+01 6.44966E-01-1.58868E-02-6.30151E-01-6.53493E-14 9.54546E-14
 -1      3648 1.94876E+01 4.24875E-01 4.75673E-03-5.40910E-01-4.36025E-14 1.62883E-13
 -1      3649 1.88174E+01 7.15211E-01 9.78717E-03-8.88690E-01-7.50339E-14 1.11369E-13
 -1      3650 1.84200E+01 7.48424E-01-2.08313E-02-1.19758E+00-5.08544E-14 1.18921E-13
 -1      3651 1.91639E+01 4.65892E-01 5.02449E-03-9.79652E-01-4.24075E-14 2.22605E-13
 -1      3652 1.82967E+01 7.70071E-01 1.81412E-02-1.55298E+00-7.27808E-14 9.41298E-14
 -1      3653 1.77838E+01 7.24566E-01-1.93147E-02-2.03947E+00-7.95765E-14 8.83597E-14
 -1      3654 1.85351E+01 1.31672E-01-1.00776E-02-2.51339E+00-8.94895E-14 7.49262E-14
 -1      3655 1.88146E+01 4.02598E-01-1.26499E-03-1.62951E+00-7.18064E-14 1.81648E-13
 -1      3656 2.03740E+01-3.25155E-01-5.42743E-04-9.96590E-02 6.39309E-15 9.15066E-14
 -1      3657 2.03502E+01-2.48467E-01 3.42339E-03-1.22678E-01 2.72438E-14 1.13285E-13
 -1      3658 2.03980E+01-2.23688E-01-3.12239E-03-1.46111E-01 5.08110E-14 8.18496E-14
 -1      3659 2.04789E+01-3.94954E-01-3.95387E-03-1.26709E-01 4.34561E-14 1.56580E-14
 -1      3660 2.12949E+01-1.03367E+00-3.31587E-03 1.30217E-01 2.58074E-14 2.21670E-13
 -1      3661 2.11628E+01-9.39362E-01 7.80006E-03 3.02573E-02 5.61355E-14 1.65627E-13
 -1      3662 1.66505E+01 1.51064E+00-3.89411E-02 1.56758E+00-3.37411E-13-4.96651E-15
 -1      3663 1.74254E+01 1.42801E+00 8.08843E-03 1.18450E+00-2.69562E-13 7.40272E-15
 -1      3664 1.77843E+01 1.29192E+00-2.78846E-02 8.25260E-01-2.89461E-13 1.23577E-13
 -1      3665 1.82981E+01 1.15930E+00 2.35601E-03 6.11526E-01-1.76395E-13 2.77041E-14
 -1      3666 1.79333E+01 1.09378E+00 1.85687E-02 1.43434E+00-2.85517E-13 2.75660E-13
 -1      3667 1.85704E+01 1.00748E+00-1.85923E-02 3.97312E-01-1.13032E-13-7.24518E-15
 -1      3668 1.89026E+01 8.74205E-01-8.79043E-04 2.87743E-01 4.46111E-14-2.33242E-13
 -1      3669 1.85884E+01 9.39379E-01 1.30730E-02 8.04577E-01-2.34538E-13 1.21460E-13
 -1      3670 1.90900E+01 7.46954E-01-1.17487E-02 1.71050E-01 1.28942E-13-3.60387E-13
 -1      3671 1.92941E+01 6.39533E-01-1.55373E-03 1.21289E-01 6.45859E-14-2.83129E-13
 -1      3672 1.90586E+01 7.45975E-01 1.09995E-02 4.33927E-01-4.44760E-14-1.22447E-13
 -1      3673 1.94324E+01 5.34444E-01-7.09652E-03 5.18119E-02 1.32388E-13-1.90232E-13
 -1      3674 1.95666E+01 4.46177E-01-1.41502E-03 3.05463E-02 1.30823E-13-1.64341E-13
 -1      3675 1.93879E+01 5.55030E-01 7.43326E-03 2.20740E-01 1.71948E-13-2.73160E-13
 -1      3676 1.96579E+01 3.68085E-01-4.29465E-03-5.66103E-03 9.02159E-14-1.60878E-13
 -1      3677 1.97393E+01 3.04232E-01-1.21156E-03-1.11500E-02 1.73138E-13-1.45897E-13
 -1      3678 1.96155E+01 3.96266E-01 5.13317E-03 9.76799E-02 1.33781E-13 6.10277E-14
 -1      3679 1.97984E+01 2.49018E-01-2.45842E-03-2.86409E-02 3.46200E-14-1.39535E-13
 -1      3680 1.98466E+01 2.04196E-01-9.61090E-04-2.70475E-02-1.14297E-13 1.72384E-14
 -1      3681 1.97635E+01 2.75566E-01 3.39818E-03 3.30540E-02 1.09615E-13-1.43917E-13
 -1      3682 1.98840E+01 1.66306E-01-1.36392E-03-3.44582E-02-6.34329E-14-1.22857E-13
 -1      3683 1.99120E+01 1.35639E-01-7.12696E-04-3.02672E-02 4.77627E-14-8.89581E-14
 -1      3684 1.98576E+01 1.88242E-01 2.18408E-03 1.46119E-03-7.81595E-14-1.60799E-13
 -1      3685 1.99352E+01 1.10160E-01-7.28873E-04-3.25034E-02-4.49881E-14 3.49393E-14
 -1      3686 1.99511E+01 8.95554E-02-5.05746E-04-2.78364E-02 7.78007E-14 9.93855E-14
 -1      3687 1.99162E+01 1.27086E-01 1.37003E-03-1.21849E-02 6.05098E-14-1.50375E-14
 -1      3688 1.99652E+01 7.26653E-02-3.69115E-04-2.76024E-02 1.82303E-13 2.91629E-14
 -1      3689 1.99739E+01 5.89886E-02-3.50177E-04-2.33530E-02 2.34487E-13 9.24429E-14
 -1      3690 1.99518E+01 8.52116E-02 8.40279E-04-1.65236E-02 5.50396E-14 1.49050E-13
 -1      3691 1.99823E+01 4.79172E-02-1.64540E-04-2.20925E-02 3.55655E-13 1.19619E-13
 -1      3692 1.99868E+01 3.89068E-02-2.36123E-04-1.85588E-02 2.61688E-13 1.31819E-13
 -1      3693 1.99732E+01 5.69616E-02 4.99685E-04-1.63562E-02 2.40042E-13 2.61771E-13
 -1      3694 1.99916E+01 3.19910E-02-6.09827E-05-1.70962E-02 2.08370E-13-2.84954E-14
 -1      3695 1.99937E+01 2.62781E-02-1.59587E-04-1.43978E-02 1.02914E-13 1.35467E-13
 -1      3696 1.99855E+01 3.84904E-02 2.99664E-04-1.43341E-02 1.35965E-13 7.41989E-14
 -1      3697 1.99966E+01 2.14497E-02-1.19761E-05-1.28732E-02 1.16818E-13-2.65786E-14
 -1      3698 1.99977E+01 1.74741E-02-1.06596E-04-1.06874E-02 1.90918E-13 2.98165E-14
 -1      3699 1.99925E+01 2.60925E-02 1.72383E-04-1.17163E-02 1.19632E-13 1.18903E-14
 -1      3700 1.99993E+01 1.43125E-02 1.01612E-05-9.36295E-03 2.81340E-13 2.50536E-13
 -1      3701 1.99996E+01 1.16949E-02-7.12047E-05-7.71319E-03 3.50120E-13 3.70368E-13
 -1      3702 1.99966E+01 1.75976E-02 9.75424E-05-9.07115E-03 3.59078E-13 1.15838E-13
 -1      3703 2.00005E+01 9.62212E-03 2.33071E-05-6.62960E-03 3.89881E-13 4.31071E-13
 -1      3704 2.00005E+01 7.87041E-03-4.88538E-05-5.39745E-03 3.87997E-13 6.89834E-13
 -1      3705 1.99988E+01 1.19133E-02 4.90906E-05-6.75052E-03 3.78534E-13 1.42469E-13
 -1      3706 2.00009E+01 6.47919E-03 2.34072E-05-4.55331E-03 3.19327E-13 8.96296E-13
 -1      3707 2.00008E+01 5.31905E-03-2.04496E-05-3.65446E-03 2.58305E-13 8.69436E-13
 -1      3708 1.99998E+01 8.08554E-03 1.40598E-05-4.84467E-03 4.49872E-13 5.54547E-13
 -1      3709 2.23865E+01 9.74527E-01 1.01193E-02 1.65244E+00-1.11530E-13 3.41807E-13
 -1      3710 2.24574E+01 4.19023E-01-1.75952E-02 1.67985E+00-9.44557E-14 3.13695E-13
 -1      3711 2.03449E+01 1.51876E-01-1.52640E-03-7.08178E-02 9.56218E-14 3.95385E-14
 -1      3712 2.09764E+01-8.42549E-01-1.22090E-03-3.67053E-02 2.86152E-14 1.40402E-13
 -1      3713 2.08681E+01-7.36921E-01 6.33826E-03-9.95141E-02 2.43490E-14 9.07256E-14
 -1      3714 2.11589E+01-9.68557E-01-8.10278E-03-1.37293E-01 2.70273E-14 1.17463E-13
 -1      3715 1.55851E+01 1.00154E+00 9.16308E-02 3.80673E+00-1.95143E-13-1.20784E-13
 -1      3716 1.48940E+01 1.57360E+00-1.62275E-02 2.72600E+00-2.02928E-13 4.22596E-14
 -1      3717 1.60876E+01 1.55878E+00 1.29465E-02 2.18566E+00-3.15573E-13-7.26728E-14
 -1      3718 1.74342E+01 6.45313E-02 2.29429E-02 3.84534E+00-2.21383E-13 1.49360E-15
 -1      3719 2.24842E+01-6.68676E-02 6.76510E-04 1.54670E+00-4.41574E-14 3.30294E-13
 -1      3720 2.24872E+01-4.68511E-01-7.57760E-03 1.42301E+00 7.86787E-15 2.58012E-13
 -1      3721 2.30727E+01 1.47429E-01 1.07195E-02 1.66605E+00-6.79747E-14 5.01232E-13
 -1      3722 2.23554E+01-7.74594E-01-5.74620E-03 1.18155E+00 1.40955E-14 2.64255E-13
 -1      3723 2.22833E+01-9.82308E-01 1.31774E-03 9.95464E-01 2.61855E-14 2.79534E-13
 -1      3724 2.29267E+01-7.65323E-01 6.17751E-03 1.23421E+00-1.47853E-15 4.62131E-13
 -1      3725 2.21225E+01 2.08275E+00 1.34510E-02 1.32410E+00-5.37723E-14 3.75483E-13
 -1      3726 2.22269E+01 1.53804E+00-2.02529E-02 1.55946E+00-1.01048E-13 2.98752E-13
 -1      3727 2.29387E+01 1.34042E+00-2.09227E-04 1.71180E+00-6.52603E-14 4.48726E-13
 -1      3728 2.18795E+01 2.82276E+00 6.79171E-03 5.17409E-01-7.13969E-15 3.81532E-13
 -1      3729 2.19419E+01 2.52456E+00-1.45482E-02 9.34401E-01-1.54654E-14 3.67397E-13
 -1      3730 2.26346E+01 2.60568E+00-1.79046E-03 1.24584E+00-4.92748E-14 4.30681E-13
 -1      3731 2.18528E+01 2.82218E+00-5.59675E-03-5.00230E-01 1.81004E-13 2.61620E-13
 -1      3732 2.18299E+01 2.91986E+00-7.98867E-04-4.49787E-02 1.09883E-13 2.74588E-13
 -1      3733 2.24173E+01 3.24067E+00-1.11781E-02 2.66229E-01 1.23947E-13 3.23611E-13
 -1      3734 2.20585E+01 2.08818E+00-2.08873E-02-1.34030E+00 6.79699E-14 1.92420E-13
 -1      3735 2.19755E+01 2.53491E+00 1.30697E-02-1.00769E+00 1.48425E-13 1.98393E-13
 -1      3736 2.24904E+01 3.03621E+00-2.87039E-03-8.35434E-01 1.73123E-13 2.69565E-13
 -1      3737 2.23323E+01 9.98122E-01-2.31988E-02-1.71565E+00 6.49658E-14 2.07565E-13
 -1      3738 2.22539E+01 1.57190E+00 1.42643E-02-1.58664E+00 4.51540E-14 1.58361E-13
 -1      3739 2.27670E+01 1.98859E+00 9.70723E-04-1.58850E+00 6.39714E-14 1.81072E-13
 -1      3740 2.24796E+01-2.59623E-02-9.02339E-03-1.63097E+00-3.51542E-15 3.26814E-13
 -1      3741 2.24479E+01 4.68289E-01 1.19482E-02-1.68641E+00 8.89258E-14 2.79216E-13
 -1      3742 2.30261E+01 7.73807E-01 2.19657E-02-1.79939E+00 1.69541E-14 2.22705E-13
 -1      3743 2.23523E+01-6.97252E-01-2.74427E-03-1.27474E+00-2.34231E-15 2.12545E-13
 -1      3744 2.23933E+01-4.09958E-01-5.01594E-03-1.42270E+00 1.30035E-14 2.23756E-13
 -1      3745 2.29752E+01-3.12550E-01-5.47239E-03-1.53790E+00 3.94895E-14 1.82264E-13
 -1      3746 2.20536E+01-1.02448E+00 4.74846E-03-8.51252E-01 2.50981E-13-3.54751E-14
 -1      3747 2.21600E+01-9.10961E-01-7.63153E-03-1.03255E+00 1.42063E-13 1.13192E-13
 -1      3748 2.26756E+01-9.66632E-01-1.82375E-03-1.04980E+00 1.76041E-13 4.06515E-14
 -1      3749 2.16450E+01-1.05996E+00 7.99042E-03-4.87177E-01 1.48140E-13-1.58054E-13
 -1      3750 2.17876E+01-1.07360E+00-7.22728E-03-6.42891E-01 2.07515E-13-8.41373E-14
 -1      3751 2.22112E+01-1.20686E+00-2.91660E-03-5.74785E-01 2.45183E-13-6.23864E-14
 -1      3752 2.12314E+01-9.35584E-01 8.18207E-03-2.30822E-01 3.56506E-14 3.58947E-14
 -1      3753 2.13800E+01-1.01464E+00-4.80779E-03-3.44117E-01 7.21904E-14-1.46867E-13
 -1      3754 2.16875E+01-1.16406E+00-6.68254E-03-2.35026E-01 1.26696E-13-3.78418E-14
 -1      3755 2.08699E+01-7.46881E-01 6.87946E-03-7.34474E-02-5.22956E-14 7.16010E-14
 -1      3756 2.10038E+01-8.47870E-01-2.42504E-03-1.46587E-01 3.97505E-14 6.16131E-14
 -1      3757 2.12121E+01-9.80523E-01-7.67701E-03-2.73669E-02-6.30580E-15-2.25465E-14
 -1      3758 2.05844E+01-5.55065E-01 5.13032E-03 1.00330E-02-6.45524E-14 9.01205E-15
 -1      3759 2.06932E+01-6.51273E-01-6.36236E-04-3.28480E-02 1.71168E-14 8.64665E-14
 -1      3760 2.08257E+01-7.54815E-01-7.06241E-03 7.68899E-02-5.17508E-14 9.01157E-14
 -1      3761 2.03741E+01-3.88768E-01 3.56588E-03 4.69861E-02 6.00344E-14-1.61103E-13
 -1      3762 2.04562E+01-4.69233E-01 3.36354E-04 2.43983E-02-2.59669E-14-1.08978E-13
 -1      3763 2.05364E+01-5.44287E-01-5.79566E-03 1.14317E-01 1.70890E-14-1.95708E-14
 -1      3764 2.02277E+01-2.57746E-01 2.32483E-03 5.73653E-02-1.37227E-13-9.29249E-14
 -1      3765 2.02861E+01-3.19518E-01 7.57562E-04 4.71954E-02-4.39815E-14-1.57121E-13
 -1      3766 2.03320E+01-3.70777E-01-4.36372E-03 1.15551E-01-1.94254E-14-1.03011E-13
 -1      3767 2.01309E+01-1.61532E-01 1.43331E-03 5.45199E-02-5.78720E-15-1.44025E-15
 -1      3768 2.01703E+01-2.05971E-01 8.36706E-04 5.12614E-02-1.02570E-13-1.04407E-13
 -1      3769 2.01949E+01-2.39127E-01-3.07283E-03 1.00125E-01-1.35687E-13-8.19287E-14
 -1      3770 2.00699E+01-9.47164E-02 8.38385E-04 4.63933E-02 9.60247E-14-8.91674E-15
 -1      3771 2.00952E+01-1.25030E-01 7.37247E-04 4.66217E-02 7.02977E-14 3.47876E-14
 -1      3772 2.01072E+01-1.45425E-01-2.06027E-03 7.97900E-02 9.41588E-15-6.00962E-14
 -1      3773 2.00333E+01-5.06185E-02 4.60918E-04 3.71224E-02 2.25376E-13-1.34414E-13
 -1      3774 2.00488E+01-7.02807E-02 5.78889E-04 3.88705E-02 2.31444E-13-6.74997E-15
 -1      3775 2.00536E+01-8.20942E-02-1.31953E-03 6.03683E-02 1.76186E-13 4.75448E-14
 -1      3776 2.00127E+01-2.29998E-02 2.31897E-04 2.85905E-02 2.24775E-13-1.27716E-14
 -1      3777 2.00216E+01-3.50815E-02 4.21527E-04 3.08131E-02 2.12967E-13-7.25555E-14
 -1      3778 2.00227E+01-4.13585E-02-8.07345E-04 4.41369E-02 2.14199E-13-1.12865E-13
 -1      3779 2.00020E+01-6.73654E-03 9.92793E-05 2.14617E-02 2.85225E-13 8.37581E-15
 -1      3780 2.00067E+01-1.36811E-02 2.90526E-04 2.36511E-02 2.90426E-13 7.34005E-14
 -1      3781 2.00060E+01-1.65319E-02-4.69450E-04 3.15308E-02 2.29474E-13 1.71917E-13
 -1      3782 1.99971E+01 2.06267E-03 2.67358E-05 1.58083E-02 2.18508E-13 4.95941E-14
 -1      3783 1.99993E+01-1.55903E-03 1.91841E-04 1.77503E-02 2.37982E-13 2.72913E-15
 -1      3784 1.99978E+01-2.39272E-03-2.55646E-04 2.21687E-02 2.89778E-13 2.84497E-13
 -1      3785 1.99954E+01 6.18778E-03-9.69005E-06 1.14592E-02 2.75799E-14 2.05818E-14
 -1      3786 1.99963E+01 4.61077E-03 1.22450E-04 1.30883E-02 2.24075E-13 4.85090E-14
 -1      3787 1.99946E+01 4.88236E-03-1.26698E-04 1.54060E-02 1.54125E-13 2.76614E-13
 -1      3788 1.99954E+01 7.54539E-03-2.55897E-05 8.17323E-03-2.41494E-13-1.67647E-14
 -1      3789 1.99956E+01 7.15390E-03 7.60984E-05 9.49436E-03-1.32032E-13-5.71762E-14
 -1      3790 1.99940E+01 7.96275E-03-5.24733E-05 1.06015E-02-4.39090E-15-1.41544E-13
 -1      3791 1.99961E+01 7.38764E-03-3.06612E-05 5.72076E-03-9.70914E-14-9.36516E-14
 -1      3792 1.99959E+01 7.62432E-03 4.70546E-05 6.76746E-03-2.73925E-13-5.55127E-14
 -1      3793 1.99946E+01 8.62835E-03-1.25788E-05 7.21604E-03-1.88976E-13 4.55760E-14
 -1      3794 1.99970E+01 6.47106E-03-4.04696E-05 3.92861E-03-3.89354E-14-1.41226E-14
 -1      3795 1.99967E+01 7.00133E-03 2.70349E-05 4.71994E-03 4.05495E-14 3.34508E-14
 -1      3796 1.99957E+01 8.01664E-03 1.07949E-05 4.83462E-03-1.06106E-13 1.05163E-13
 -1      3797 1.99978E+01 5.32277E-03-2.82892E-05 2.54224E-03 2.43674E-13-7.05257E-14
 -1      3798 1.99975E+01 5.95791E-03 2.42746E-05 3.18396E-03 2.22923E-14-5.15740E-14
 -1      3799 1.99968E+01 6.92139E-03 2.60456E-05 3.17447E-03 6.05410E-14-2.13035E-15
 -1      3800 1.99993E+01 6.16718E-03-2.68401E-06-2.84790E-03 4.20997E-14 3.43790E-13
 -1      3801 1.99987E+01 6.54051E-03-2.63459E-05-2.55086E-03 8.80809E-14 2.30625E-13
 -1      3802 2.20524E+01-1.10635E+00-6.67562E-03 7.57002E-01 7.49526E-14 2.46165E-13
 -1      3803 2.19294E+01-1.15427E+00 7.05001E-03 5.76698E-01 4.96390E-14 2.78953E-13
 -1      3804 2.25382E+01-1.20695E+00 2.53123E-03 7.31788E-01 4.80523E-14 3.40101E-13
 -1      3805 1.89202E+01-1.41758E+00-2.26104E-02-4.68420E+00-1.72364E-13 2.60772E-14
 -1      3806 2.01672E+01-2.28942E+00 8.16356E-02-5.21913E+00-2.76180E-13 4.17253E-14
 -1      3807 2.14881E+01-2.67865E+00 1.68510E-02-4.53803E+00-3.13831E-13-1.91288E-14
 -1      3808 2.00422E+01 3.59985E-01 1.23003E-03 1.97578E-02 1.73457E-14 3.61007E-14
 -1      3809 1.99403E+01 3.58719E-01-5.30893E-03 6.64818E-03-3.70816E-15 4.02446E-14
 -1      3810 2.01203E+01 3.69746E-01 2.45763E-03-3.62417E-02 3.69915E-14 4.05250E-14
 -1      3811 1.99979E+01 5.17589E-03 1.16141E-05 1.56385E-03 1.44851E-13-4.00223E-14
 -1      3812 2.16705E+01-1.15309E+00-5.53180E-03 3.93237E-01 1.48797E-14 2.46378E-13
 -1      3813 2.15299E+01-1.10375E+00 8.40438E-03 2.49929E-01 7.04878E-15 2.31633E-13
 -1      3814 2.15625E+01-1.18300E+00-7.78100E-03 2.69852E-02 6.24799E-16 1.91059E-13
 -1      3815 1.99982E+01 6.85751E-03-8.47908E-06-2.00899E-03 7.31529E-15 2.78330E-13
 -1      3816 1.99977E+01 7.05078E-03-1.53582E-05-1.55152E-03 2.54509E-14-3.58705E-15
 -1      3817 1.99981E+01 7.81943E-03 2.71418E-05-2.55926E-03 7.63257E-14 2.86986E-13
 -1      3818 1.99974E+01 7.05754E-03-1.46977E-05-8.81029E-04 7.56406E-14-4.75115E-13
 -1      3819 1.99972E+01 7.04014E-03-8.33520E-06-3.55714E-04 1.95013E-13-4.74673E-13
 -1      3820 1.99971E+01 8.11321E-03 1.17409E-05-1.26819E-03 1.88080E-13-3.21659E-13
 -1      3821 2.01727E+01 1.68387E+00-2.33365E-03-4.30597E-02 1.43618E-13-9.83649E-14
 -1      3822 2.01725E+01 1.66933E+00-3.99953E-03-1.27684E-01 1.02927E-13-1.32809E-13
 -1      3823 2.02521E+01 1.41805E+00 4.27413E-03-1.17684E-01 7.87876E-14-1.01745E-13
 -1      3824 2.02557E+01 1.44165E+00 5.55058E-03-1.46398E-02 1.41957E-13-7.62867E-14
 -1      3825 2.02950E+01 8.17992E-01 1.06097E-03-1.47303E-01-4.92615E-15-1.11193E-13
 -1      3826 2.02716E+01 6.75485E-01-3.56108E-03-7.44964E-02 3.33430E-15-9.31563E-14
 -1      3827 2.02355E+01 1.45319E+00-2.94008E-03 3.99099E-01 2.48180E-13-3.38646E-14
 -1      3828 2.02149E+01 1.55033E+00-1.69545E-03 3.28589E-01 2.55963E-13-7.65663E-14
 -1      3829 2.02757E+01 1.34725E+00 3.99060E-03 2.28023E-01 2.40655E-13-5.86392E-14
 -1      3830 2.02730E+01 1.30273E+00 2.28324E-03 3.53171E-01 2.51050E-13-1.28352E-14
 -1      3831 2.02588E+01 5.64088E-01 1.19445E-03-3.71497E-02 8.45493E-15-6.40072E-14
 -1      3832 2.02124E+01 4.76488E-01-3.53791E-03 6.82755E-03 1.89444E-14-2.51936E-14
 -1      3833 2.02280E+01 4.73200E-01 2.06949E-03-2.88657E-02 4.21707E-14-3.52149E-14
 -1      3834 2.02753E+01 1.05212E+00-1.91495E-03-2.24681E-01-7.01305E-15-1.34830E-13
 -1      3835 2.03703E+01 3.73594E-01-2.04409E-03-8.58105E-03 1.28005E-13 1.64419E-15
 -1      3836 2.03756E+01 5.25450E-01 4.08433E-03 5.62274E-02 1.54989E-13-1.71821E-14
 -1      3837 2.07346E+01-6.36695E-01 6.63303E-05-1.30054E-01 2.27255E-14 3.66806E-14
 -1      3838 2.06555E+01-5.35219E-01 4.82939E-03-1.64441E-01 2.90849E-14-1.50775E-14
 -1      3839 2.08564E+01-7.33958E-01-7.08959E-03-2.13626E-01-2.58418E-14 7.98315E-14
 -1      3840 1.99636E+01 3.41892E-01 3.17291E-03-1.09434E-01-1.15687E-14 5.99361E-14
 -1      3841 2.52048E+01-3.72612E+00 4.08844E-04-3.06762E+00-5.13502E-13 9.78211E-15
 -1      3842 2.57182E+01-3.30224E+00 1.34798E-02-1.96233E+00-4.56572E-13 7.58525E-14
 -1      3843 2.38308E+01-3.53872E+00-1.93256E-02-3.70790E+00-4.56135E-13-3.65289E-14
 -1      3844 2.64326E+01 7.72368E-01-3.56768E-02-1.86816E+00 2.50945E-13-1.83232E-13
 -1      3845 2.53728E+01-1.27560E+00-1.30076E-02-8.69284E-01 1.55043E-13-4.41271E-13
 -1      3846 2.58751E+01-2.23576E+00 2.46948E-03 6.35660E-02 1.14892E-13-3.92830E-13
 -1      3847 2.47500E+01-2.35654E+00-1.57698E-02 5.59628E-01 2.04893E-15-3.63614E-13
 -1      3848 2.31813E+01-2.45045E+00 3.47176E-02 2.30621E+00-1.43848E-13-1.55379E-13
 -1      3849 2.20535E+01-2.08788E+00-2.45597E-02 2.58220E+00-2.44577E-13 5.91805E-14
 -1      3850 2.58141E+01 3.28168E+00 7.85967E-04-2.01810E+00 3.02133E-13 2.95736E-14
 -1      3851 2.72581E+01-2.00914E+00-1.75251E-02 2.43744E-01-3.30002E-13 2.62679E-13
 -1      3852 2.67528E+01-1.08718E+00-1.25359E-02 1.01980E+00-2.21356E-13 2.70371E-13
 -1      3853 2.64619E+01-2.43771E+00-1.19181E-02-3.30611E-01-3.33222E-13 1.77185E-13
 -1      3854 1.70237E+01 1.09553E+00 3.76557E-02 2.48819E+00-2.84227E-13 6.45009E-14
 -1      3855 2.62690E+01 6.72211E-02-2.08965E-02 1.64907E+00-1.16625E-13 3.52750E-13
 -1      3856 2.64186E+01 8.84756E-01-4.01687E-02 1.92619E+00-1.23904E-13 4.19887E-13
 -1      3857 2.55177E+01 1.19793E+00 3.79473E-04 2.00930E+00-1.19705E-13 3.34566E-13
 -1      3858 2.00009E+01 4.16790E-03 3.14934E-06-2.94836E-03-4.56705E-16 9.22383E-13
 -1      3859 2.03849E+01 1.29048E-01-7.88024E-04-9.74292E-02 8.95081E-14 1.02929E-14
 -1      3860 2.03850E+01 2.45792E-01 2.20551E-03-5.56081E-02 1.06934E-13-5.56561E-15
 -1      3861 2.04006E+01 3.55630E-01-9.29723E-04-3.74429E-02 1.26572E-13-2.92937E-14
 -1      3862 1.85650E+01-3.72251E-01 2.36898E-02 3.71417E+00-1.77811E-13 1.07275E-14
 -1      3863 1.74027E+01 4.53032E-01-2.76416E-02 3.08028E+00-2.27966E-13 6.14786E-15
 -1      3864 1.80484E+01 6.39812E-01 3.46167E-02 2.39425E+00-1.54649E-13 1.54202E-13
 -1      3865 1.99967E+01 7.87714E-03 2.22476E-05 1.48145E-04 2.24547E-13-3.52404E-13
 -1      3866 1.99971E+01 6.81549E-03-1.60041E-05 3.21570E-04 6.37851E-14-3.25227E-13
 -1      3867 1.99971E+01 6.65396E-03 1.18858E-05 8.52187E-04 7.65633E-14-2.07442E-13
 -1      3868 1.99999E+01 5.72683E-03-1.80571E-05-3.23571E-03 5.04605E-14 5.65170E-13
 -1      3869 1.99994E+01 7.08024E-03 2.87704E-05-3.59370E-03 3.80117E-13 4.07018E-13
 -1      3870 2.04107E+01-7.29953E-02-4.51046E-06-1.52140E-01 7.50439E-14-9.49650E-15
 -1      3871 2.04007E+01 2.53034E-02 2.42553E-03-1.29896E-01 9.35922E-14 1.16658E-14
 -1      3872 2.04210E+01 1.04250E-01-1.65906E-03-1.22088E-01 1.07892E-13-7.46870E-15
 -1      3873 2.20443E+01-1.30265E+00-4.51652E-03 3.12612E-01 1.54420E-14 1.87997E-13
 -1      3874 2.00004E+01 5.29583E-03 3.97089E-06-3.27347E-03 5.32081E-14 9.02425E-13
 -1      3875 2.02887E+01 1.03200E+00 1.86629E-03-1.85165E-01 8.13726E-15-1.32173E-13
 -1      3876 1.98890E+01-9.45402E-01-5.41525E-04 3.20463E+00-2.26738E-13 2.00777E-14
 -1      3877 2.02882E+01 6.69883E-01 2.07557E-03-7.68460E-02 1.82461E-14-7.72857E-14
 -1      3878 2.42658E+01 3.15426E+00-2.02601E-02 1.71187E+00 1.04727E-13 5.65974E-13
 -1      3879 2.38900E+01 3.69441E+00-5.99118E-02 1.31379E+00 1.51341E-13 3.84979E-13
 -1      3880 2.36317E+01-2.46273E+00-7.16561E-05 1.67912E+00-1.25796E-13-2.31776E-13
 -1      3881 2.03089E+01 1.15818E+00-1.44438E-03 9.55842E-02 2.00161E-13-7.09993E-14
 -1      3882 2.02984E+01 1.19783E+00-1.97666E-03 3.96196E-02 1.73151E-13-8.12024E-14
 -1      3883 2.44027E+01 4.62373E+00-5.96740E-02-8.98545E-01 2.83284E-13 1.80842E-13
 -1      3884 2.43059E+01 3.94263E+00-1.99897E-02-1.32645E+00 3.25550E-13 2.27286E-13
 -1      3885 2.38972E+01 4.47239E+00-2.22039E-02-3.97451E-01 2.64387E-13 2.74872E-13
 -1      3886 2.03217E+01 1.02078E+00 4.30172E-03 2.71163E-01 2.30617E-13-6.55842E-15
 -1      3887 2.02948E+01 1.15477E+00-7.83171E-04 3.17201E-01 2.54138E-13-1.73871E-14
 -1      3888 2.02927E+01 1.18181E+00-2.74979E-03 2.59293E-01 2.54584E-13-6.60102E-14
 -1      3889 2.03006E+01 1.17707E+00-9.29708E-04 2.02204E-01 2.28257E-13-4.86045E-14
 -1      3890 2.02999E+01 1.18192E+00-2.69739E-03 1.44197E-01 2.12357E-13-6.23495E-14
 -1      3891 2.03482E+01 1.01474E+00 4.58697E-03 7.70660E-02 1.74271E-13-5.97366E-14
 -1      3892 2.03365E+01 1.04513E+00 4.48832E-03 1.72336E-01 2.15892E-13-3.77295E-14
 -1      3893 2.03332E+01 7.76506E-01-3.64475E-03 1.61815E-01 2.11670E-13-3.96595E-14
 -1      3894 2.03582E+01 7.56498E-01-1.40856E-03 1.13866E-01 1.82413E-13-2.85572E-14
 -1      3895 2.45435E+01 2.07554E+00-1.55974E-02 1.95337E+00-4.41105E-14 6.36438E-13
 -1      3896 2.43780E+01 2.64963E+00-3.90658E-02 1.84127E+00 8.08641E-14 6.78246E-13
 -1      3897 2.02809E+01 5.08688E-01 1.16703E-03-6.40096E-02 5.13818E-14-3.08781E-14
 -1      3898 2.02334E+01 4.22698E-01-3.67401E-03-5.45875E-02 6.03812E-14-2.71420E-14
 -1      3899 2.49932E+01 2.14686E+00-2.10607E-02-1.96374E+00 2.10186E-13 6.26461E-14
 -1      3900 2.58126E+01 1.47565E+00-6.77835E-02-2.05575E+00 1.90387E-13-3.59365E-14
 -1      3901 2.56014E+01 7.71292E-02 2.88273E-02-1.68674E+00 1.40266E-13-1.45812E-13
 -1      3902 1.99975E+01 5.95919E-03 4.18224E-06 1.64679E-03 1.80972E-13-3.81202E-14
 -1      3903 1.97465E+01 2.66038E-01 7.23746E-03-5.48280E-01-5.17866E-15 1.24782E-13
 -1      3904 1.95867E+01 2.56559E-01-9.35357E-03-7.18905E-01-1.96854E-14 1.61044E-13
 -1      3905 1.95558E+01 2.46233E-01 1.13937E-02-9.34341E-01-5.06286E-14 1.71096E-13
 -1      3906 1.93676E+01 2.06284E-01-7.91049E-03-1.21589E+00-6.89980E-14 1.55634E-13
 -1      3907 1.98070E+01 5.20067E-02-2.12624E-03-9.26024E-01-2.37458E-14 1.19342E-13
 -1      3908 1.81129E+01 6.92038E-01-2.92349E-02 1.85027E+00-1.11688E-13 1.93439E-13
 -1      3909 1.85480E+01 7.45029E-01 2.04710E-02 1.44571E+00-2.36201E-13 2.34929E-13
 -1      3910 2.12505E+01-2.31510E+00-2.39460E-02-3.96745E+00-1.95411E-13 2.30978E-15
 -1      3911 2.26219E+01-2.96718E+00 3.97421E-02-4.00597E+00-3.40426E-13-4.28889E-14
 -1      3912 2.35144E+01-2.98281E+00 2.22916E-02-3.08853E+00-3.76332E-13-8.70918E-15
 -1      3913 1.86328E+01 7.07364E-01-2.11469E-02 1.11086E+00-3.43908E-13 2.98595E-13
 -1      3914 1.89404E+01 6.74359E-01 5.40960E-03 8.56970E-01-1.35494E-13 3.00637E-13
 -1      3915 1.89398E+01 4.02617E-01-1.05519E-02 1.50233E+00-2.29374E-13 3.75475E-13
 -1      3916 1.90497E+01 6.12105E-01-1.32057E-02 6.56207E-01-1.11610E-13 2.60122E-13
 -1      3917 1.92612E+01 5.55429E-01 3.87261E-03 5.09138E-01-1.02351E-13 1.75806E-13
 -1      3918 1.91858E+01 4.66711E-01-3.12712E-04 9.35443E-01-1.57963E-13 4.33849E-13
 -1      3919 1.93548E+01 4.83638E-01-9.63560E-03 3.67988E-01 3.01467E-14-4.54940E-14
 -1      3920 1.95082E+01 4.23338E-01 2.02971E-03 2.77920E-01 1.90400E-13 5.11283E-14
 -1      3921 1.94245E+01 4.10192E-01 3.81216E-03 5.60756E-01-1.37579E-13 4.36786E-13
 -1      3922 1.95797E+01 3.60809E-01-6.24687E-03 1.93002E-01 2.09722E-13-2.87280E-14
 -1      3923 1.96804E+01 3.09642E-01 8.71574E-04 1.43095E-01 1.70746E-13-4.37812E-14
 -1      3924 1.96034E+01 3.31285E-01 3.49290E-03 3.20787E-01 9.24143E-14 1.61628E-13
 -1      3925 1.97324E+01 2.60131E-01-3.93511E-03 9.30973E-02 1.48540E-13-1.02945E-13
 -1      3926 1.97969E+01 2.20109E-01 2.56055E-04 6.68786E-02 1.30032E-13-6.28305E-14
 -1      3927 1.97353E+01 2.52141E-01 2.72591E-03 1.75929E-01 1.28833E-13-1.49337E-13
 -1      3928 1.98332E+01 1.83215E-01-2.42119E-03 3.83590E-02-2.68792E-14 5.28710E-14
 -1      3929 1.98736E+01 1.53551E-01-1.96021E-05 2.55350E-02-3.58202E-14 4.54896E-14
 -1      3930 1.98276E+01 1.85011E-01 1.97167E-03 9.06638E-02 1.67270E-13 2.25116E-15
 -1      3931 1.98981E+01 1.27095E-01-1.45266E-03 9.93478E-03 5.26530E-14 4.06806E-14
 -1      3932 1.99229E+01 1.05861E-01-1.21681E-04 4.41921E-03 1.04156E-13 5.65276E-14
 -1      3933 1.98901E+01 1.32603E-01 1.35941E-03 4.21588E-02 5.60348E-14 1.50223E-13
 -1      3934 1.99390E+01 8.73714E-02-8.47872E-04-3.61268E-03 7.31111E-14 1.14378E-13
 -1      3935 1.99539E+01 7.25121E-02-1.44700E-04-5.31819E-03 1.96152E-13 2.08467E-13
 -1      3936 1.99312E+01 9.36611E-02 9.05340E-04 1.57565E-02 1.26222E-13 1.34729E-13
 -1      3937 1.99643E+01 5.98330E-02-4.70884E-04-9.05671E-03 2.34869E-13 1.53731E-13
 -1      3938 1.99730E+01 4.95667E-02-1.39381E-04-8.91164E-03 1.59486E-13 1.31308E-13
 -1      3939 1.99577E+01 6.55977E-02 5.83243E-04 2.28248E-03 2.18639E-13 1.20254E-13
 -1      3940 1.99793E+01 4.13167E-02-2.54670E-04-1.02756E-02 4.64736E-14 1.39216E-13
 -1      3941 1.99842E+01 3.45568E-02-1.15897E-04-9.38920E-03 3.99118E-14 8.24182E-14
 -1      3942 1.99741E+01 4.62402E-02 3.89915E-04-3.80406E-03 1.05365E-13 1.09472E-13
 -1      3943 1.99884E+01 2.86104E-02-1.32031E-04-9.61865E-03-9.19989E-15 6.36720E-14
 -1      3944 1.99913E+01 2.37160E-02-8.58337E-05-8.45084E-03 1.69455E-13 9.19384E-14
 -1      3945 1.99845E+01 3.25297E-02 2.34753E-04-6.00260E-03-1.13875E-14 2.09108E-13
 -1      3946 1.99939E+01 1.96740E-02-6.40299E-05-8.09985E-03 3.30756E-13 5.53340E-15
 -1      3947 1.99955E+01 1.63354E-02-6.60637E-05-6.95369E-03 4.05287E-13-2.91158E-14
 -1      3948 1.99911E+01 2.27421E-02 1.45779E-04-6.23354E-03 7.87493E-14 1.22319E-13
 -1      3949 1.99971E+01 1.36065E-02-1.61903E-05-6.39280E-03 4.74139E-13 7.26046E-14
 -1      3950 1.99978E+01 1.12924E-02-5.35423E-05-5.38494E-03 4.00267E-13 1.88203E-13
 -1      3951 1.99950E+01 1.59027E-02 8.16729E-05-5.51845E-03 4.07317E-13 1.91760E-13
 -1      3952 1.99986E+01 9.80763E-03 1.82652E-05-4.87539E-03 4.32859E-13 2.34784E-13
 -1      3953 1.99989E+01 8.15126E-03-3.33487E-05-4.05909E-03 5.30858E-13 4.33119E-13
 -1      3954 1.99982E+01 8.61859E-03-4.49854E-06-3.55939E-03 5.32613E-13 4.10979E-13
 -1      3955 1.99971E+01 1.15130E-02 3.34546E-05-4.50990E-03 5.18447E-13 5.45792E-13
 -1      3956 2.29508E+01 3.13064E+00 1.13141E-02 1.17125E+00 4.35606E-14 4.74227E-13
 -1      3957 2.30667E+01 2.45662E+00-3.29808E-02 1.53064E+00-5.84784E-14 5.47737E-13
 -1      3958 2.23630E+01-1.48216E+00-6.54474E-03 1.29310E-01-4.71628E-16 1.91305E-13
 -1      3959 2.21316E+01-1.41350E+00 1.32007E-02-3.37524E-02 2.27633E-14 1.91877E-13
 -1      3960 2.03120E+01 7.49398E-01-3.64324E-04-1.04694E-01 2.17559E-14-7.28871E-14
 -1      3961 2.02924E+01 6.16472E-01-3.01656E-03-6.81826E-02 4.51625E-14-5.58735E-14
 -1      3962 2.03136E+01 5.80885E-01 1.63486E-03-8.61235E-02 6.50324E-14-2.05684E-14
 -1      3963 2.13058E+01-1.05094E+00-2.08335E-04-2.87352E-01-2.76376E-14 1.12429E-13
 -1      3964 2.11347E+01-9.11772E-01 8.15930E-03-3.29459E-01-3.39520E-14 6.69338E-14
 -1      3965 2.29823E+01-1.41369E+00-6.79973E-03 5.86537E-01-4.67638E-14 3.80539E-13
 -1      3966 2.27610E+01-1.49204E+00 1.04697E-02 3.47700E-01-7.10953E-14 2.75516E-13
 -1      3967 2.27643E+01-1.66671E+00-7.89664E-03-3.60285E-02-8.34468E-14 2.19427E-13
 -1      3968 2.34808E+01-9.09754E-01-8.80761E-03 1.15606E+00-1.07742E-13 5.30089E-13
 -1      3969 2.33381E+01-1.21739E+00 2.82566E-03 9.03080E-01-5.42365E-14 4.70700E-13
 -1      3970 2.35441E+01-1.52598E+00 9.41971E-03 5.12196E-01-1.54586E-13 3.73676E-13
 -1      3971 2.31749E+01 4.04966E+00-1.43606E-02-5.14287E-02 2.17932E-13 2.64642E-13
 -1      3972 2.32144E+01 3.88810E+00-2.69108E-02 5.38960E-01 2.08675E-13 2.90610E-13
 -1      3973 2.38699E+01 4.05641E-01-4.23914E-02-1.77538E+00 1.15008E-14 1.03924E-13
 -1      3974 2.38954E+01 1.15365E+00 3.68343E-03-1.88692E+00 3.59764E-14 1.41445E-13
 -1      3975 2.38551E+01-1.20106E+00 4.60404E-03-9.10432E-01 1.81785E-13-9.62227E-14
 -1      3976 2.39921E+01-7.91288E-01-4.73859E-03-1.18628E+00 8.07204E-14-1.08935E-13
 -1      3977 2.23459E+01-1.37897E+00 1.57187E-02-1.96978E-01 1.80100E-13-4.72849E-14
 -1      3978 2.25830E+01-1.39952E+00-7.89678E-03-3.87167E-01 2.50915E-13-4.95870E-14
 -1      3979 2.17075E+01-1.20085E+00 1.35327E-02 8.58257E-02 8.70976E-14-4.95306E-14
 -1      3980 2.19443E+01-1.31614E+00-5.79009E-03-2.97485E-02 1.31781E-13 1.65619E-15
 -1      3981 2.22666E+01-1.51125E+00-1.56312E-02 1.72263E-01 8.96138E-14-1.81021E-13
 -1      3982 2.11711E+01-9.42185E-01 8.83613E-03 2.17941E-01-4.68651E-14-3.32624E-14
 -1      3983 2.13824E+01-1.08180E+00-1.96253E-03 1.58252E-01 1.14204E-14-9.90411E-15
 -1      3984 2.15713E+01-1.24093E+00-1.58549E-02 3.63336E-01 7.58978E-14-9.71445E-14
 -1      3985 2.07669E+01-6.84718E-01 6.42054E-03 2.46307E-01-4.07339E-14-4.66290E-14
 -1      3986 2.09331E+01-8.11116E-01 1.18548E-03 2.26073E-01 1.95807E-14 3.59903E-14
 -1      3987 2.10321E+01-9.16649E-01-1.10889E-02 4.06098E-01 2.73425E-15-6.81013E-14
 -1      3988 2.04779E+01-4.69790E-01 4.03558E-03 2.25958E-01 1.07035E-13-2.14225E-13
 -1      3989 2.06002E+01-5.72462E-01 1.89927E-03 2.27482E-01 2.88470E-14-1.36934E-13
 -1      3990 2.06489E+01-6.41891E-01-8.41338E-03 3.71415E-01 4.71989E-14-3.04656E-13
 -1      3991 2.02828E+01-3.05016E-01 2.32907E-03 1.85008E-01-6.80631E-14-2.07801E-13
 -1      3992 2.03685E+01-3.81621E-01 2.23333E-03 1.96224E-01 1.44554E-14-1.80467E-13
 -1      3993 2.03866E+01-4.23065E-01-5.99965E-03 3.03417E-01 7.83677E-14-2.50459E-13
 -1      3994 2.01575E+01-1.87191E-01 1.22810E-03 1.41010E-01-6.53615E-14-3.33489E-13
 -1      3995 2.02146E+01-2.40748E-01 2.06053E-03 1.54788E-01-1.57996E-13-3.36245E-13
 -1      3996 2.02176E+01-2.63533E-01-4.01397E-03 2.29935E-01-1.47283E-14-2.86646E-13
 -1      3997 2.00806E+01-1.07196E-01 5.80392E-04 1.02437E-01 3.06834E-14-2.72920E-13
 -1      3998 2.01169E+01-1.42874E-01 1.65079E-03 1.15269E-01 4.12961E-14-2.47236E-13
 -1      3999 2.01135E+01-1.54277E-01-2.59297E-03 1.65528E-01-7.77442E-14-3.44822E-13
 -1      4000 2.00357E+01-5.54231E-02 2.24747E-04 7.18793E-02 1.00873E-13-2.68400E-13
 -1      4001 2.00577E+01-7.80779E-02 1.22661E-03 8.24266E-02 2.55909E-14-2.86017E-13
 -1      4002 2.00522E+01-8.28760E-02-1.60515E-03 1.14623E-01 8.75668E-14-3.76607E-13
 -1      4003 2.00111E+01-2.35682E-02 4.41814E-05 4.91660E-02 1.20320E-13 1.63767E-14
 -1      4004 2.00237E+01-3.72105E-02 8.60007E-04 5.72368E-02 5.58636E-15-7.08075E-14
 -1      4005 2.00181E+01-3.84035E-02-9.51734E-04 7.69895E-02-2.15808E-14-2.17941E-13
 -1      4006 1.99987E+01-5.14525E-03-3.78905E-05 3.29983E-02 8.26990E-14 2.92712E-13
 -1      4007 2.00054E+01-1.28134E-02 5.75372E-04 3.89013E-02 1.74266E-13 1.66779E-13
 -1      4008 2.00007E+01-1.21807E-02-5.36268E-04 5.04575E-02-2.09994E-14 1.62923E-13
 -1      4009 1.99935E+01 4.59580E-03-6.74189E-05 2.18393E-02 2.71334E-13 4.71558E-13
 -1      4010 1.99967E+01 7.21421E-04 3.69373E-04 2.60301E-02 1.99364E-13 4.65953E-13
 -1      4011 1.99929E+01 2.16562E-03-2.82901E-04 3.24099E-02 4.61608E-14 3.67058E-13
 -1      4012 1.99921E+01 8.97717E-03-7.15163E-05 1.42971E-02 2.83597E-13 3.41100E-13
 -1      4013 1.99933E+01 7.40273E-03 2.28124E-04 1.72206E-02 3.09108E-13 4.10875E-13
 -1      4014 1.99904E+01 9.10324E-03-1.34860E-04 2.04728E-02 3.51710E-13 4.23603E-13
 -1      4015 1.99926E+01 1.02251E-02-6.46598E-05 9.27192E-03-2.69637E-14 2.21366E-13
 -1      4016 1.99928E+01 9.96072E-03 1.35898E-04 1.12915E-02 2.05657E-13 3.80735E-13
 -1      4017 1.99906E+01 1.16377E-02-5.09280E-05 1.27437E-02 2.57287E-13 4.68980E-13
 -1      4018 1.99939E+01 9.76953E-03-6.09600E-05 5.95712E-03-1.40303E-13 1.26121E-13
 -1      4019 1.99936E+01 1.01945E-02 7.78477E-05 7.34194E-03-8.86216E-14 8.91711E-14
 -1      4020 1.99920E+01 1.17103E-02-4.80278E-06 7.82489E-03-1.97722E-14 3.99037E-13
 -1      4021 1.99953E+01 8.53532E-03-6.34218E-05 3.72938E-03 7.08868E-14 2.97190E-14
 -1      4022 1.99949E+01 9.27219E-03 5.45999E-05 4.70571E-03-1.36114E-13 2.53365E-14
 -1      4023 1.99938E+01 1.06012E-02 2.79487E-05 4.72371E-03-6.19560E-14-4.56786E-14
 -1      4024 2.02858E+01 1.13356E+00-1.71527E-03-1.83806E-01 3.27791E-14-1.13739E-13
 -1      4025 2.03061E+01 8.93623E-01-9.96426E-04-1.21001E-01 1.33311E-14-9.32181E-14
 -1      4026 2.03227E+01 8.50403E-01 2.31000E-03-1.07191E-01 3.64857E-14-4.43844E-14
 -1      4027 2.02826E+01 1.18525E+00-2.91673E-04-1.45524E-01 4.35065E-14-9.00402E-14
 -1      4028 2.17822E+01-1.31396E+00-3.85639E-03-1.53342E-01-2.22257E-14 2.05135E-13
 -1      4029 2.15705E+01-1.18244E+00 1.11653E-02-2.46377E-01-1.68912E-14 1.86906E-13
 -1      4030 2.14527E+01-1.18525E+00-1.24565E-02-4.66244E-01-9.91699E-14 1.08333E-13
 -1      4031 2.20392E+01-1.48967E+00-1.32155E-02-3.44091E-01-1.57977E-14 1.83463E-13
 -1      4032 2.19707E+01-1.77986E+00-2.42051E-03 2.02683E+00-1.61967E-13-3.73052E-15
 -1      4033 2.13812E+01-1.57104E+00 4.13048E-02 2.74848E+00-2.49638E-13 1.70640E-13
 -1      4034 2.00836E+01 2.87522E-01 2.89192E-03-1.46256E-01 2.26404E-14 3.71116E-15
 -1      4035 1.99828E+01 2.68119E-01-5.67542E-03-2.04590E-01 2.04074E-16 1.80921E-14
 -1      4036 2.37165E+01 3.92796E+00-1.88565E-02 9.10792E-01 2.02820E-13 3.18504E-13
 -1      4037 2.04191E+01 3.23085E-01-6.31363E-04-7.40407E-02 1.12912E-13-3.23682E-14
 -1      4038 2.04102E+01 4.66491E-01 4.00863E-04-2.26721E-02 1.34841E-13-3.24601E-14
 -1      4039 1.91885E+01-9.37626E-01-1.26841E-02-3.72315E+00-1.25220E-13 3.47587E-14
 -1      4040 2.02024E+01 3.61167E-01 1.90694E-03-7.48138E-02 5.21580E-14-2.35237E-14
 -1      4041 2.01292E+01 3.13987E-01-4.40035E-03-9.54970E-02 3.95732E-14-3.46199E-16
 -1      4042 2.02602E+01 3.86652E-01 1.35732E-03-1.04588E-01 5.43154E-14-6.41564E-14
 -1      4043 2.35560E+01 2.57358E+00-9.09882E-03 1.64171E+00-8.84536E-15 6.92312E-13
 -1      4044 2.03485E+01 1.00531E+00 3.73241E-03-4.32466E-04 1.30413E-13-5.02333E-14
 -1      4045 2.02926E+01 1.21397E+00-1.88896E-03 1.31391E-03 1.51731E-13-6.13992E-14
 -1      4046 2.02893E+01 1.21530E+00-2.47790E-03-4.78443E-02 1.16190E-13-4.06838E-14
 -1      4047 2.00248E+01-7.83827E-01 6.60013E-03 2.68239E+00-1.09139E-13 9.16485E-14
 -1      4048 1.99974E+01 8.91685E-03-2.72204E-05-2.76610E-03 3.28540E-13 4.20549E-13
 -1      4049 1.99969E+01 9.23897E-03 1.98758E-06-2.13195E-03 2.61624E-13 3.94450E-13
 -1      4050 1.99970E+01 1.02555E-02 2.58799E-05-3.19863E-03 5.62082E-13 5.22474E-13
 -1      4051 1.99964E+01 9.14052E-03-1.88113E-05-1.20611E-03 3.86511E-13-2.56283E-13
 -1      4052 1.99961E+01 9.11165E-03 8.05103E-06-4.57521E-04 3.00414E-13-6.66804E-13
 -1      4053 1.99958E+01 1.04126E-02 1.51128E-05-1.33134E-03 4.12659E-13-1.45649E-13
 -1      4054 1.99968E+01 6.84883E-03-2.65936E-05 1.70054E-03 1.14263E-13-1.69087E-13
 -1      4055 2.03670E+01 7.46367E-01-2.37597E-03 6.99859E-02 1.62574E-13-2.41033E-14
 -1      4056 1.86747E+01 1.60585E-01-2.10234E-02 2.37960E+00-8.61663E-14 9.12733E-14
 -1      4057 1.99303E+01 2.65276E-01 4.59684E-03-2.94621E-01-2.66852E-15 4.36371E-14
 -1      4058 1.97973E+01 2.60864E-01-7.35856E-03-4.04210E-01-8.92399E-15 9.12934E-14
 -1      4059 1.99274E+01 1.35764E-01-2.39276E-04-5.61220E-01 1.00593E-14 1.07789E-13
 -1      4060 2.00554E+01 1.93319E-01 7.71377E-04-3.23058E-01 2.85461E-14-5.13905E-15
 -1      4061 2.32520E+01 2.11823E+00 8.30549E-03 1.71951E+00-2.02251E-14 6.24125E-13
 -1      4062 2.30405E+01 3.77497E+00-8.93140E-04-6.20783E-01 2.21251E-13 2.45185E-13
 -1      4063 1.96038E+01-7.36910E-01 9.62023E-03-3.06359E+00-1.13446E-13 4.84440E-14
 -1      4064 2.05879E+01-1.56685E+00 4.83104E-02-3.63111E+00-1.29253E-13 2.31373E-14
 -1      4065 2.06507E+01-5.11868E-01-5.64231E-03-2.33946E-01 2.16426E-14 2.94802E-14
 -1      4066 2.05685E+01-4.40576E-01 5.74858E-04-1.71769E-01 5.81764E-14-2.78507E-14
 -1      4067 2.05176E+01-3.46325E-01 3.62334E-03-1.84732E-01 5.73273E-14 1.49982E-14
 -1      4068 2.31177E+01 3.38503E+00-1.24391E-02-1.11969E+00 1.97558E-13 2.96580E-13
 -1      4069 2.48746E+01-3.04276E+00-9.97074E-03-1.79304E+00-3.93419E-13 5.80291E-14
 -1      4070 2.56898E+01-2.93825E+00-2.53487E-02-1.07405E+00-3.87160E-13 1.26478E-13
 -1      4071 2.56996E+01-2.27591E+00 6.25192E-03-1.77693E-01-3.42784E-13 1.78404E-13
 -1      4072 1.94574E+01-1.67187E-01 2.42439E-02-2.16557E+00-7.38734E-14 8.28622E-14
 -1      4073 1.93674E+01-3.76632E-01 1.31845E-02-2.64642E+00-1.21510E-13 6.83878E-14
 -1      4074 2.03667E+01-1.13673E+00-4.50995E-02-2.62870E+00-1.25335E-13 9.43833E-14
 -1      4075 2.04661E+01-2.56476E-01 4.93080E-04-1.76886E-01 5.00061E-14 2.53258E-14
 -1      4076 2.04387E+01-1.64740E-01 2.84609E-03-1.72096E-01 3.79890E-14 1.63754E-14
 -1      4077 2.05241E+01-3.07228E-01-4.18214E-03-2.19665E-01 5.84922E-14 7.53979E-15
 -1      4078 1.94357E+01 1.25586E-01 1.80309E-02-1.47764E+00-9.79725E-14 1.26803E-13
 -1      4079 1.92795E+01 1.81427E-02-8.65224E-04-1.84575E+00-9.98043E-14 1.20060E-13
 -1      4080 1.99447E+01-5.19764E-01-2.36612E-02-1.96266E+00-1.29021E-13 6.68671E-14
 -1      4081 1.97799E+01-1.50432E-01-1.15796E-02-1.40408E+00-1.03783E-13 1.33780E-13
 -1      4082 2.61172E+01-6.59421E-01-2.76509E-02 1.34947E+00-1.51319E-13 3.25823E-13
 -1      4083 2.53488E+01-1.21032E-01 9.18456E-03 1.63023E+00-1.40508E-13 4.45817E-13
 -1      4084 2.57544E+01-1.23083E+00 2.49427E-03 9.44612E-01-2.25605E-13 2.83824E-13
 -1      4085 2.04549E+01-1.08460E-01-2.82233E-03-1.81802E-01 5.10301E-14-2.07390E-14
 -1      4086 2.37959E+01 2.37318E+00-4.03352E-02-1.80331E+00 1.68033E-13 2.01694E-13
 -1      4087 1.99963E+01 7.71251E-03 2.74720E-05 2.31592E-03 1.22654E-13-9.08200E-14
 -1      4088 2.24575E+01-1.88234E+00 1.63522E-02 1.53810E+00-1.16897E-13 3.53541E-14
 -1      4089 2.16933E+01-1.55133E+00-6.79595E-03 1.69488E+00-8.19865E-14 1.82825E-13
 -1      4090 1.99959E+01 8.83926E-03-3.98643E-05 2.91786E-04 2.30423E-13-3.51063E-13
 -1      4091 2.40694E+01-5.85014E-01-5.99866E-03 1.43139E+00-1.03978E-13 6.05564E-13
 -1      4092 2.45025E+01-1.11019E+00-8.28846E-03 1.06704E+00-1.68858E-13 4.95841E-13
 -1      4093 2.29346E+01-2.07720E+00-1.62892E-02 1.21087E+00-4.79929E-14-1.71458E-13
 -1      4094 2.26112E+01-1.81594E+00-7.92711E-03 8.89232E-01 9.61470E-14 1.44855E-13
 -1      4095 2.41004E+01 3.54859E-02-6.83331E-03 1.62080E+00-1.13708E-13 6.06762E-13
 -1      4096 2.36800E+01 3.15363E+00-6.77368E-03-1.56088E+00 2.42956E-13 1.95281E-13
 -1      4097 1.99956E+01 8.78206E-03 2.45878E-05 2.09632E-03 1.09114E-13-2.29381E-13
 -1      4098 2.30114E+01-1.33026E+00 1.32945E-02-6.52415E-01 2.53853E-13-7.76293E-14
 -1      4099 2.32322E+01-1.12051E+00 6.58038E-03-9.37063E-01 1.44523E-13 1.45777E-14
 -1      4100 2.02831E+01 1.20783E+00-6.27576E-04-1.05320E-01 6.88057E-14-6.89640E-14
 -1      4101 2.01707E+01 2.66101E-01 1.18084E-03-1.78530E-01 4.01193E-14-6.49361E-14
 -1      4102 2.04450E+01 8.02827E-02 3.66108E-04-1.52105E-01 6.16486E-14 1.07472E-14
 -1      4103 2.04343E+01 1.95996E-01 1.47920E-03-1.13512E-01 8.27025E-14-3.30154E-14
 -1      4104 2.04315E+01 2.96495E-01-9.81222E-04-1.04034E-01 8.87941E-14 8.99756E-15
 -1      4105 2.33278E+01 1.41761E+00-1.02431E-02 1.81807E+00-4.47212E-14 6.55498E-13
 -1      4106 2.39031E+01-2.32414E+00 1.54551E-02 9.81696E-01-5.19114E-14-2.02853E-13
 -1      4107 2.30450E+01-1.58231E+00-1.21281E-02-2.28030E-01 2.57446E-13-9.83536E-14
 -1      4108 2.45848E+01 1.38700E+00-1.70081E-02 1.88890E+00-1.14244E-13 6.32635E-13
 -1      4109 2.42263E+01 6.11047E-01-1.11848E-02 1.86563E+00-1.11512E-13 5.88397E-13
 -1      4110 2.03999E+01 5.96006E-01 2.26932E-03 2.36850E-03 1.55740E-13-2.64301E-14
 -1      4111 2.03664E+01 8.46304E-01-1.72892E-03 5.37062E-02 1.72552E-13-5.46492E-14
 -1      4112 2.03703E+01 8.23080E-01-2.51901E-03 1.15804E-02 1.59653E-13-6.13191E-14
 -1      4113 2.04076E+01 5.58022E-01-2.74875E-04-3.32964E-02 1.46872E-13-1.06284E-14
 -1      4114 2.03653E+01 8.50745E-01-1.42117E-03-1.09537E-02 1.27606E-13-4.36414E-14
 -1      4115 2.03568E+01 8.66841E-01-2.36615E-03-4.08272E-02 1.01613E-13-2.49899E-14
 -1      4116 2.03923E+01 7.13568E-01 2.41761E-03-3.17302E-02 1.36355E-13-9.62435E-15
 -1      4117 2.39182E+01-1.92734E+00-4.33750E-03 1.19338E-01 1.05698E-13-2.94318E-13
 -1      4118 2.13972E+01-2.03377E+00-3.93857E-02-3.22227E+00-1.52489E-13 7.04176E-14
 -1      4119 2.08437E+01-1.13713E+00-3.57747E-02 1.92438E+00-6.75139E-14 1.47517E-13
 -1      4120 1.97378E+01-4.07289E-01 1.73344E-02 2.30534E+00-4.02569E-14 1.04551E-13
 -1      4121 1.98106E+01-1.91615E-01 3.20800E-02 1.80461E+00-9.87205E-14 1.52880E-13
 -1      4122 2.09533E+01-7.82366E-01 1.68269E-03-3.26225E-01-3.51271E-14 5.57416E-14
 -1      4123 2.08289E+01-6.55856E-01 5.60295E-03-3.36188E-01-5.62670E-14 3.24213E-14
 -1      4124 2.10313E+01-8.76002E-01-1.01133E-02-4.71001E-01-7.25092E-14-6.43425E-15
 -1      4125 2.40331E+01-2.99111E+00-5.29583E-03-2.30455E+00-3.70632E-13 4.35784E-15
 -1      4126 2.41529E+01-2.60590E+00 8.15338E-03-1.38835E+00-3.27764E-13 4.36695E-14
 -1      4127 2.28679E+01-2.52167E+00 1.66795E-02-2.63826E+00-2.64975E-13 2.05975E-14
 -1      4128 2.45162E+01-2.02983E-01 7.58641E-03-1.61623E+00 5.21232E-14-5.57504E-14
 -1      4129 2.00874E+01-7.15458E-02 1.09088E-02-8.16335E-01 4.10273E-15 6.37790E-14
 -1      4130 2.00305E+01-1.56683E-01-1.92317E-03-1.03238E+00-3.52711E-14 4.39628E-14
 -1      4131 2.54110E+01-1.96934E+00-3.00876E-02 3.12668E-01-2.80286E-13 1.60603E-13
 -1      4132 2.49525E+01-1.45741E+00 3.41447E-03 7.44040E-01-2.18973E-13 2.88009E-13
 -1      4133 2.42427E+01-1.64618E+00 3.16512E-03 5.05418E-01-1.75386E-13 3.36134E-13
 -1      4134 2.47515E+01-2.30671E+00 2.40105E-03-3.64855E-01-3.40672E-13 1.02738E-13
 -1      4135 2.04872E+01-1.27694E-01 1.43552E-03-2.16845E-01 5.32290E-14 4.07262E-14
 -1      4136 2.04625E+01-2.59134E-02 1.72973E-03-1.88194E-01 5.06507E-14 4.03552E-14
 -1      4137 2.04558E+01 5.61205E-02-1.71236E-03-1.85982E-01 3.76145E-14 4.67789E-14
 -1      4138 2.20654E+01-2.01771E+00 5.22101E-03-2.51873E+00-1.57731E-13 7.66223E-14
 -1      4139 1.95960E+01-2.71475E-02 9.99374E-03 1.55355E+00-9.20232E-14 2.86849E-13
 -1      4140 1.96727E+01 5.17507E-02 1.48984E-02 1.22116E+00-6.71446E-14 4.14768E-13
 -1      4141 2.03003E+01-6.24549E-01-3.47482E-02 1.42302E+00-7.77416E-15 2.08248E-13
 -1      4142 2.04198E+01 4.64707E-01 1.81550E-03-7.27979E-02 1.09126E-13 3.31485E-14
 -1      4143 2.04034E+01 5.83614E-01-6.44031E-04-5.00953E-02 1.19760E-13 1.33326E-14
 -1      4144 2.03946E+01 6.06184E-01-1.55848E-03-6.64383E-02 8.40674E-14 1.98277E-14
 -1      4145 1.95015E+01 2.75624E-01-6.93536E-03 6.91456E-01-2.88054E-13 4.91939E-13
 -1      4146 1.96130E+01 2.70808E-01 6.15013E-03 5.36610E-01-2.08065E-13 3.75510E-13
 -1      4147 1.96309E+01 2.49732E-01-6.05907E-03 4.15890E-01-1.27183E-13 4.38145E-13
 -1      4148 1.97175E+01 2.31320E-01 3.51485E-03 3.20378E-01 6.53721E-14 1.30673E-13
 -1      4149 1.97310E+01 1.52590E-01 6.44572E-05 5.28153E-01-1.93805E-13 4.48010E-13
 -1      4150 1.97401E+01 2.04905E-01-4.42150E-03 2.41491E-01 1.26196E-13 9.47941E-14
 -1      4151 1.98023E+01 1.83497E-01 1.96492E-03 1.83814E-01 1.67079E-13 8.99974E-14
 -1      4152 1.97927E+01 1.51412E-01 7.64169E-04 3.23134E-01 5.36020E-14 4.48787E-13
 -1      4153 1.98232E+01 1.58977E-01-2.99683E-03 1.34307E-01 1.86897E-13 2.71156E-14
 -1      4154 1.98658E+01 1.39383E-01 1.06214E-03 1.00500E-01 1.11967E-13 7.54539E-14
 -1      4155 1.98483E+01 1.31429E-01 8.91735E-04 1.90694E-01 8.99485E-14 3.60130E-13
 -1      4156 1.98827E+01 1.19162E-01-1.95999E-03 7.03790E-02-3.60992E-14 1.18133E-13
 -1      4157 1.99110E+01 1.03078E-01 5.46643E-04 5.12754E-02 6.12835E-14 1.44452E-13
 -1      4158 1.98930E+01 1.06293E-01 7.93585E-04 1.07953E-01 7.99183E-14 2.63284E-13
 -1      4159 1.99237E+01 8.74488E-02-1.24260E-03 3.35523E-02 9.84325E-14 2.03669E-13
 -1      4160 1.99420E+01 7.49985E-02 2.58263E-04 2.32689E-02 1.18815E-13 1.51529E-13
 -1      4161 1.99265E+01 8.25368E-02 6.27225E-04 5.78822E-02-2.62860E-14 3.04514E-13
 -1      4162 1.99512E+01 6.33964E-02-7.57222E-04 1.32449E-02 1.30606E-13 9.89378E-14
 -1      4163 1.99628E+01 5.40532E-02 8.78694E-05 8.10194E-03 1.55651E-13-1.42804E-14
 -1      4164 1.99505E+01 6.25152E-02 4.59569E-04 2.86173E-02 1.07963E-13 1.85360E-13
 -1      4165 1.99690E+01 4.59864E-02-4.53775E-04 2.93986E-03 1.98850E-13-4.92612E-14
 -1      4166 1.99760E+01 3.94340E-02 1.26642E-05 7.37750E-04 1.58383E-13 4.45464E-14
 -1      4167 1.99670E+01 4.70905E-02 3.57116E-04 1.24657E-02 1.83166E-13 4.69665E-14
 -1      4168 1.99806E+01 3.33115E-02-2.66428E-04-2.02807E-03 7.01993E-14 8.12802E-14
 -1      4169 1.99851E+01 2.82665E-02-1.00733E-05-2.78976E-03-1.86424E-14 9.55115E-14
 -1      4170 1.99782E+01 3.50364E-02 2.25594E-04 3.84887E-03 1.21496E-13-7.11048E-14
 -1      4171 1.99882E+01 2.38668E-02-1.53458E-04-3.97341E-03-3.06853E-14 3.23645E-13
 -1      4172 1.99910E+01 2.02436E-02-2.47840E-05-3.93800E-03 1.32942E-13 3.00253E-13
 -1      4173 1.99861E+01 2.57803E-02 1.53045E-04-5.10888E-04 1.13990E-13 1.07950E-13
 -1      4174 1.99930E+01 1.71211E-02-7.43278E-05-4.27591E-03 3.88523E-13 4.21952E-13
 -1      4175 1.99946E+01 1.44775E-02-3.77200E-05-3.90262E-03 5.76339E-13 5.02317E-13
 -1      4176 1.99912E+01 1.88752E-02 1.00280E-04-2.30548E-03 2.78822E-13 6.29209E-13
 -1      4177 1.99956E+01 1.30309E-02-6.39656E-06-3.79265E-03 5.68491E-13 4.57139E-13
 -1      4178 1.99963E+01 1.13449E-02-3.92554E-05-3.33476E-03 5.74221E-13 5.79200E-13
 -1      4179 1.99956E+01 1.16420E-02-7.28934E-07-2.43237E-03 4.89920E-13 3.01784E-13
 -1      4180 1.99941E+01 1.44557E-02 5.14204E-05-2.62169E-03 7.09233E-13 4.05964E-13
 -1      4181 2.38750E+01-1.86478E+00 3.21050E-03 1.47807E-01-2.04569E-13 2.09399E-13
 -1      4182 2.03430E+01 6.32216E-01 7.89809E-05-9.47044E-02 4.00114E-14 8.52262E-15
 -1      4183 2.03263E+01 5.05455E-01-2.14544E-03-9.33005E-02 5.05825E-14-3.48045E-15
 -1      4184 1.99949E+01 1.02448E-02 3.49785E-05 1.59927E-03 1.36193E-13-3.16497E-13
 -1      4185 2.30751E+01-1.88663E+00-4.23587E-03-3.53853E-01-1.34725E-13 1.73232E-13
 -1      4186 2.27288E+01-1.76856E+00 2.36832E-02-5.19649E-01-8.48239E-14 1.43586E-13
 -1      4187 2.03267E+01 1.01892E+00 2.55377E-03-8.22963E-02 7.68948E-14-2.05960E-14
 -1      4188 2.05128E+01-5.09810E-01 4.21959E-03 4.89613E-01 9.43408E-14-1.18785E-13
 -1      4189 2.06789E+01-6.35337E-01 5.50469E-03 5.32470E-01 1.15072E-13-3.28933E-14
 -1      4190 2.02838E+01-3.14848E-01 1.85678E-03 3.67636E-01 4.03439E-14-5.24114E-14
 -1      4191 2.03943E+01-4.03840E-01 4.44928E-03 4.13303E-01 7.06985E-14-7.40393E-14
 -1      4192 2.03528E+01-4.24435E-01-9.62345E-03 5.60459E-01 6.35342E-14 4.90797E-14
 -1      4193 2.01449E+01-1.82310E-01 5.53308E-04 2.62352E-01 1.48111E-14-2.04658E-13
 -1      4194 2.02164E+01-2.40901E-01 3.85806E-03 3.02858E-01 6.20847E-14-8.60008E-14
 -1      4195 2.01782E+01-2.44906E-01-5.73752E-03 4.03328E-01 4.72010E-14-2.83184E-14
 -1      4196 2.00646E+01-9.66623E-02-6.37048E-05 1.79752E-01-1.01014E-13-1.96503E-13
 -1      4197 2.01089E+01-1.33653E-01 2.95405E-03 2.11910E-01-1.61383E-13-1.79074E-13
 -1      4198 2.00766E+01-1.29248E-01-3.63104E-03 2.77231E-01-8.94918E-14 1.17907E-14
 -1      4199 2.00208E+01-4.39091E-02-3.01071E-04 1.19123E-01 1.85175E-13-1.56543E-13
 -1      4200 2.00469E+01-6.61334E-02 2.11851E-03 1.42958E-01 7.04678E-14-1.15941E-13
 -1      4201 2.00225E+01-5.87450E-02-2.12958E-03 1.83820E-01-3.27014E-14-1.09559E-13
 -1      4202 1.99988E+01-1.31143E-02-3.48287E-04 7.67234E-02-1.43755E-13-8.25746E-14
 -1      4203 2.00134E+01-2.56881E-02 1.44802E-03 9.35414E-02 1.06972E-13-1.54982E-13
 -1      4204 1.99959E+01-1.80955E-02-1.19383E-03 1.18070E-01 6.11056E-14 1.03990E-13
 -1      4205 1.99893E+01 3.58595E-03-3.11436E-04 4.81736E-02-2.70042E-14-7.20974E-14
 -1      4206 1.99968E+01-2.92175E-03 9.50379E-04 5.96008E-02-1.22910E-13-1.42733E-13
 -1      4207 1.99848E+01 3.72564E-03-6.32130E-04 7.36299E-02-7.07921E-14-1.79874E-13
 -1      4208 1.99865E+01 1.15724E-02-2.48157E-04 2.95271E-02 5.51296E-14 2.04741E-13
 -1      4209 1.99899E+01 8.74052E-03 6.00251E-04 3.70686E-02-6.72130E-14 9.71359E-14
 -1      4210 1.99819E+01 1.41402E-02-3.05023E-04 4.46092E-02-1.98478E-13-1.91097E-13
 -1      4211 1.99871E+01 1.44405E-02-1.84220E-04 1.76931E-02 2.67046E-13 3.46655E-13
 -1      4212 1.99881E+01 1.37013E-02 3.66542E-04 2.25603E-02 2.27857E-13 2.95571E-13
 -1      4213 1.99830E+01 1.78078E-02-1.55035E-04 2.62266E-02-2.51925E-15 5.63259E-15
 -1      4214 1.99890E+01 1.44450E-02-1.32053E-04 1.03523E-02 1.68360E-13 4.35860E-13
 -1      4215 1.99890E+01 1.48319E-02 2.14436E-04 1.34253E-02 3.29753E-13 4.72816E-13
 -1      4216 1.99856E+01 1.79613E-02-5.28345E-05 1.49096E-02 2.51892E-13 4.44918E-13
 -1      4217 1.99914E+01 1.30538E-02-9.41770E-05 5.88636E-03 8.32031E-15 2.08833E-13
 -1      4218 1.99908E+01 1.39418E-02 1.21741E-04 7.79665E-03 1.62838E-13 3.65873E-13
 -1      4219 1.99887E+01 1.62990E-02-6.41660E-06 8.15224E-03 2.02689E-13 3.79337E-13
 -1      4220 1.99935E+01 1.12732E-02-7.97348E-05 2.76504E-03 1.36740E-13-1.81632E-13
 -1      4221 1.99928E+01 1.24383E-02 4.84223E-05 3.90905E-03 5.04629E-14 5.62342E-15
 -1      4222 1.99915E+01 1.42034E-02 4.59596E-06 3.65039E-03 2.65005E-13 3.42449E-14
 -1      4223 1.99942E+01 1.17417E-02 2.96642E-05 5.96320E-04 2.37011E-13-2.22128E-13
 -1      4224 2.40796E+01-1.63810E+00 5.29770E-04-4.24118E-01 2.18684E-13-2.91116E-13
 -1      4225 2.16087E+01-1.39787E+00-2.17856E-02 1.15220E+00-3.72215E-14 1.70016E-13
 -1      4226 2.12952E+01-1.22932E+00 1.38593E-02 1.56667E+00-7.89824E-14 1.80945E-13
 -1      4227 2.09491E+01-9.23109E-01 1.72881E-02 1.36113E+00-5.87163E-14 1.65838E-13
 -1      4228 2.32951E+01-1.77716E+00-1.40653E-02 4.59889E-02 1.99496E-13-7.78765E-14
 -1      4229 2.13029E+01-1.07321E+00 1.05662E-02 7.30584E-01-6.43183E-14 3.17084E-14
 -1      4230 2.16164E+01-1.25510E+00 6.36005E-03 7.05027E-01-2.12196E-14 3.59075E-14
 -1      4231 2.03184E+01 4.00750E-01 1.47031E-03-1.16776E-01 4.76076E-14-4.37524E-14
 -1      4232 2.02777E+01 3.12085E-01-3.30385E-03-1.38120E-01 2.34611E-14-6.11539E-14
 -1      4233 2.03529E+01 4.43538E-01 1.02764E-03-1.21690E-01 5.02455E-15 1.98621E-14
 -1      4234 2.29610E+01-1.72200E+00 2.59128E-02 2.82609E-01 2.06685E-13-6.07481E-14
 -1      4235 1.99949E+01 1.18827E-02-2.64488E-05-1.43832E-03 4.62327E-13-2.54292E-14
 -1      4236 1.99944E+01 1.17318E-02-3.39546E-05-4.34883E-04 4.29327E-13-2.36767E-13
 -1      4237 1.99934E+01 1.33072E-02 7.51877E-05 5.55515E-04 3.57242E-13-4.10816E-14
 -1      4238 1.99942E+01 1.32091E-02 1.66182E-05-1.51742E-03 6.06560E-13 7.08832E-14
 -1      4239 2.02639E+01 2.43765E-01 3.32465E-03-1.85591E-01 5.37836E-14-3.28001E-14
 -1      4240 2.02039E+01 1.82727E-01-3.62339E-03-2.37647E-01 6.33931E-14-3.65704E-14
 -1      4241 2.03188E+01 2.40240E-01-1.38356E-03-1.90229E-01 4.08825E-14 1.99100E-14
 -1      4242 2.24479E+01-1.66350E+00-1.74493E-03 6.08422E-01 1.01496E-13 3.93648E-14
 -1      4243 2.03504E+01 8.72930E-01 1.70669E-04-6.32755E-02 1.06073E-13 7.24335E-15
 -1      4244 2.03325E+01 8.62243E-01-2.04251E-03-9.92363E-02 4.41553E-14 4.28670E-15
 -1      4245 2.03405E+01 7.20216E-01-2.53726E-04-8.78343E-02 6.09251E-14 1.33718E-14
 -1      4246 2.03746E+01 7.39068E-01 2.44155E-03-6.87356E-02 6.38908E-14 1.53348E-15
 -1      4247 2.20731E+01-1.49236E+00 1.73833E-02 7.27799E-01-1.28402E-15 1.05297E-14
 -1      4248 2.07146E+01-5.40347E-01 2.18028E-03-3.11436E-01-7.59700E-15 6.78581E-14
 -1      4249 2.06334E+01-4.29996E-01 3.73267E-03-3.02627E-01 3.08479E-14 3.82978E-14
 -1      4250 2.07531E+01-6.02595E-01-7.86234E-03-4.18285E-01-1.92852E-14-3.41247E-15
 -1      4251 2.05200E+01-2.26588E-01 2.30357E-03-2.51029E-01 5.70394E-14 2.79692E-14
 -1      4252 2.04977E+01-1.59023E-01-4.28256E-03-2.63605E-01 4.95121E-14 3.33758E-14
 -1      4253 2.05684E+01-3.26951E-01 2.11092E-03-2.71105E-01 3.08115E-14 5.96339E-14
 -1      4254 2.00470E+01-1.28039E-02-5.00518E-03-6.59590E-01 3.84467E-14 7.08949E-14
 -1      4255 2.02398E+01-2.08298E-01-8.60623E-03-7.57527E-01 2.39565E-14 2.94075E-14
 -1      4256 2.01211E+01 4.35961E-02 7.00995E-03-5.15559E-01 3.24438E-14 2.80977E-14
 -1      4257 2.22216E+01-1.62222E+00-4.68497E-03-6.35663E-01-7.62136E-14 1.07865E-13
 -1      4258 2.19032E+01-1.42591E+00 1.57979E-02-7.08926E-01-7.95052E-14 5.37073E-14
 -1      4259 2.24188E+01-1.85850E+00-3.03087E-02-9.67284E-01-1.13622E-13 5.52813E-14
 -1      4260 2.01458E+01-2.66456E-01 1.32545E-02-1.20443E+00-5.75302E-14 8.07226E-14
 -1      4261 2.01797E+01-4.16751E-01 1.76267E-03-1.44161E+00-9.33423E-14 9.43906E-14
 -1      4262 2.03447E+01-4.48067E-01-1.70053E-02-1.07404E+00-2.61115E-14-1.10034E-14
 -1      4263 2.04296E+01 3.23664E-01-6.06665E-04-1.14027E-01 5.77882E-14 5.54502E-14
 -1      4264 1.94033E+01 2.68181E-01 6.77558E-03 1.10825E+00-1.66710E-13 4.47450E-13
 -1      4265 1.95150E+01 2.73702E-01 1.27506E-02 8.65607E-01-1.73380E-13 4.66121E-13
 -1      4266 2.02731E+01 9.27920E-02-1.72059E-03-3.09571E-01 8.19269E-14 2.11106E-14
 -1      4267 2.01910E+01 1.35215E-01 4.72418E-03-3.11718E-01 6.25532E-14-2.24196E-14
 -1      4268 2.01198E+01 8.60749E-02-4.52197E-03-4.03667E-01 3.80296E-14 2.23932E-14
 -1      4269 2.37667E+01-2.06628E+00 4.15082E-03-4.03626E-01-2.11840E-13 7.86045E-14
 -1      4270 2.03594E+01 6.49745E-01 9.01093E-04-9.19917E-02 5.28659E-14 7.66704E-14
 -1      4271 2.08839E+01-1.11114E+00 1.68950E-02-2.11399E+00-1.40087E-13 5.63586E-14
 -1      4272 2.12054E+01-1.43241E+00 2.84276E-02-2.42727E+00-1.16847E-13 4.60890E-14
 -1      4273 2.22879E+01-2.05797E+00-3.40973E-02-1.97310E+00-1.71161E-13-2.41300E-14
 -1      4274 2.08765E+01-7.83145E-01 7.79033E-03 6.03937E-01 1.85130E-14-5.40007E-14
 -1      4275 2.11198E+01-9.39298E-01 9.58250E-03 6.21033E-01 4.80377E-15-4.86319E-16
 -1      4276 2.10133E+01-1.00791E+00-2.63740E-02 9.44955E-01-9.99601E-14 2.25760E-13
 -1      4277 2.06543E+01-6.99232E-01-1.63102E-02 7.36614E-01 7.63299E-14 5.55921E-14
 -1      4278 1.96832E+01 1.03524E-01-2.33718E-03 8.24336E-01-2.71994E-13 4.14723E-13
 -1      4279 2.15525E+01-1.24061E+00 2.77535E-03-6.97374E-01-1.08293E-13 3.32359E-14
 -1      4280 2.13021E+01-1.05628E+00 9.94784E-03-7.00853E-01-1.30211E-13-3.16923E-15
 -1      4281 2.16095E+01-1.38833E+00-2.26500E-02-9.89160E-01-1.19218E-13-2.10630E-14
 -1      4282 2.10788E+01-8.89464E-01 4.74013E-03-6.38111E-01-1.18619E-13 6.29545E-15
 -1      4283 2.09032E+01-7.35901E-01 5.66288E-03-6.06208E-01-5.29473E-14-3.02598E-14
 -1      4284 2.10678E+01-9.72383E-01-1.67837E-02-8.64163E-01-1.16960E-13-4.18654E-15
 -1      4285 2.38566E+01-2.39011E+00-1.55563E-02-9.55363E-01-2.57043E-13 2.28242E-14
 -1      4286 2.03876E+01 6.29361E-01 1.20874E-04-7.49186E-02 6.85565E-14-1.40329E-14
 -1      4287 2.03727E+01 6.29802E-01-1.21798E-03-8.80665E-02 5.52198E-14 1.09807E-14
 -1      4288 2.03746E+01 5.46479E-01 1.78528E-04-9.51693E-02 3.55610E-14 2.90404E-14
 -1      4289 2.04040E+01 5.13717E-01 2.28143E-03-9.08244E-02 6.49276E-14 2.78808E-14
 -1      4290 1.98293E+01 3.86230E-02-3.47377E-03 5.91282E-01-2.65570E-13 5.57964E-13
 -1      4291 1.98670E+01 6.56527E-02 5.65444E-03 4.67655E-01-8.44418E-14 6.02448E-13
 -1      4292 1.98976E+01-1.61246E-01-7.71663E-03 1.11294E+00-2.52155E-14 4.17753E-13
 -1      4293 2.07592E+01-7.89845E-01 8.99693E-03 1.21310E+00-3.54075E-14 9.89954E-14
 -1      4294 2.05753E+01-5.97069E-01 1.37880E-02 1.03109E+00 3.26606E-14 4.61814E-14
 -1      4295 2.03675E+01-4.48212E-01 5.67494E-03 9.15711E-01 2.30418E-14 6.15746E-14
 -1      4296 2.01068E+01-2.88153E-01-7.00830E-03 9.70900E-01-3.87754E-14 2.55598E-13
 -1      4297 1.98617E+01-7.28407E-02-7.09485E-03 8.81505E-01-2.00618E-13 4.58799E-13
 -1      4298 1.98930E+01-9.03720E-03 7.15281E-03 7.15175E-01-2.90752E-13 4.25721E-13
 -1      4299 2.03126E+01-3.49812E-01 9.84148E-03 7.05362E-01 1.43146E-14 8.81820E-14
 -1      4300 2.31731E+01-2.20030E+00 3.00823E-02-1.34454E+00-1.75524E-13-2.91807E-14
 -1      4301 1.98433E+01 7.71023E-02-3.54201E-03 3.73910E-01-7.72378E-14 6.24504E-13
 -1      4302 1.98800E+01 8.63853E-02 3.73199E-03 2.92233E-01 2.37103E-15 5.56003E-13
 -1      4303 1.99404E+01-2.14637E-02-3.14265E-03 4.27959E-01-7.18579E-14 7.31066E-13
 -1      4304 1.98723E+01 8.50618E-02-2.80912E-03 2.28742E-01 5.27443E-14 5.54356E-13
 -1      4305 1.99027E+01 8.47597E-02 2.32881E-03 1.76528E-01 5.10978E-14 5.00632E-13
 -1      4306 1.99288E+01 2.49593E-02-1.53999E-03 2.72473E-01-7.37646E-14 5.35459E-13
 -1      4307 1.99027E+01 7.85086E-02-2.04301E-03 1.35031E-01 6.07592E-14 3.80945E-13
 -1      4308 1.99258E+01 7.41285E-02 1.41061E-03 1.02701E-01 7.40587E-14 4.30802E-13
 -1      4309 1.99338E+01 4.32694E-02-6.95555E-04 1.67787E-01 3.06865E-14 5.23336E-13
 -1      4310 1.99289E+01 6.66216E-02-1.41216E-03 7.64527E-02-2.50705E-14 4.88774E-13
 -1      4311 1.99456E+01 6.10384E-02 8.27237E-04 5.70777E-02 1.12150E-15 4.72954E-13
 -1      4312 1.99450E+01 4.69214E-02-2.51356E-04 9.97835E-02 1.11366E-13 4.95858E-13
 -1      4313 1.99496E+01 5.39828E-02-9.29643E-04 4.09994E-02 1.96936E-14 3.72114E-13
 -1      4314 1.99612E+01 4.84733E-02 4.41497E-04 2.98370E-02 1.69974E-13 3.57550E-13
 -1      4315 1.99571E+01 4.36386E-02-3.52125E-05 5.70200E-02-6.29054E-15 4.87250E-13
 -1      4316 1.99648E+01 4.27126E-02-5.94473E-04 2.06844E-02 1.42788E-13 2.02198E-13
 -1      4317 1.99725E+01 3.81743E-02 2.33088E-04 1.47280E-02 8.86960E-14 1.65536E-13
 -1      4318 1.99677E+01 3.77911E-02 5.43533E-05 3.14324E-02-7.50884E-14 2.91081E-13
 -1      4319 1.99758E+01 3.32795E-02-3.76480E-04 9.11518E-03 5.82423E-14-6.77344E-14
 -1      4320 1.99812E+01 2.92824E-02 1.28944E-04 5.83189E-03-1.63668E-14-7.71318E-14
 -1      4321 1.99763E+01 3.12920E-02 6.15756E-05 1.62905E-02-9.47451E-14-7.56870E-15
 -1      4322 1.99839E+01 2.53821E-02-2.33059E-04 2.80149E-03 2.47317E-13-7.37402E-14
 -1      4323 1.99874E+01 2.21925E-02 5.79427E-05 1.26613E-03 2.66608E-13 8.69286E-14
 -1      4324 1.99833E+01 2.51081E-02 7.33854E-05 7.40974E-03 1.38628E-13 1.17982E-14
 -1      4325 1.99932E+01 1.45068E-02-5.40909E-05-1.55542E-03 6.80361E-13 1.30436E-13
 -1      4326 1.99944E+01-3.87922E-02-2.96716E-04 2.82071E-01-1.11296E-13 2.60220E-13
 -1      4327 2.00376E+01-7.12896E-02 4.77821E-03 3.39431E-01-4.97138E-14 3.60726E-13
 -1      4328 2.05341E+01-8.29606E-01 1.09415E-02-1.93992E+00-1.58736E-13 6.60703E-14
 -1      4329 2.10991E+01-1.28728E+00-3.62852E-02-1.79556E+00-1.44889E-13-3.27711E-15
 -1      4330 2.03774E+01-5.95737E-01 1.71980E-02-1.66493E+00-1.38731E-13 9.29327E-14
 -1      4331 2.22701E+01-1.82214E+00-1.67347E-04-1.45283E+00-1.04825E-13-1.53003E-14
 -1      4332 2.04339E+01 2.05210E-01 1.13190E-03-1.55698E-01 4.75832E-14 6.16701E-14
 -1      4333 2.04132E+01 3.56954E-01-8.30012E-04-1.26959E-01 7.76731E-14 9.73542E-14
 -1      4334 2.00508E+01-1.13733E-01 4.41740E-04 4.28791E-01-3.14100E-14 2.83989E-13
 -1      4335 2.01245E+01-1.71640E-01 6.26265E-03 5.06061E-01-5.76392E-14 2.46870E-13
 -1      4336 2.01820E+01-2.52862E-01 2.65758E-03 6.14733E-01-5.44167E-14 5.51900E-14
 -1      4337 1.99712E+01 9.79624E-04-5.73312E-04 1.79528E-01-3.90323E-14 2.87521E-13
 -1      4338 1.99946E+01-1.59391E-02 3.21345E-03 2.20077E-01-8.85789E-14 2.61138E-13
 -1      4339 1.99652E+01 1.99150E-02-5.88471E-04 1.10678E-01 1.53214E-13 2.74470E-13
 -1      4340 1.99768E+01 1.21416E-02 2.08933E-03 1.38199E-01 1.51440E-13 2.66912E-13
 -1      4341 1.99672E+01 2.70376E-02-4.99507E-04 6.60176E-02-7.64680E-14 9.85315E-14
 -1      4342 1.99722E+01 2.43856E-02 1.31419E-03 8.40508E-02 4.11143E-14 2.06974E-13
 -1      4343 1.99724E+01 2.78767E-02-3.63344E-04 3.79878E-02-2.04805E-13 1.72767E-13
 -1      4344 1.99738E+01 2.78651E-02 7.92700E-04 4.94069E-02-1.46877E-13-4.77915E-14
 -1      4345 1.99780E+01 2.57298E-02-2.49741E-04 2.12360E-02-1.12438E-13 8.15919E-14
 -1      4346 1.99777E+01 2.69856E-02 4.72383E-04 2.83168E-02-2.70927E-13-9.67134E-14
 -1      4347 1.99834E+01 2.21574E-02-1.79179E-04 1.10312E-02 1.70308E-13 2.82383E-13
 -1      4348 1.99824E+01 2.39509E-02 2.78885E-04 1.52399E-02 2.77691E-14 8.06461E-14
 -1      4349 1.99879E+01 1.82984E-02-1.21592E-04 5.25224E-03 2.65456E-13 2.55197E-13
 -1      4350 1.99867E+01 2.01823E-02 1.53727E-04 7.66599E-03 3.21767E-13 3.95998E-13
 -1      4351 1.99915E+01 1.50075E-02-7.11290E-05 1.46709E-03 2.88275E-13 1.22602E-13
 -1      4352 1.99903E+01 1.65157E-02 9.26074E-05 3.41408E-03 2.89167E-13 1.80648E-13
 -1      4353 1.99884E+01 1.97876E-02 6.40494E-05 2.62569E-03 3.35416E-13 2.21288E-13
 -1      4354 1.99921E+01 1.53375E-02 3.15541E-05 2.30753E-04 4.56842E-13 2.46190E-13
 -1      4355 2.03823E+01 2.88239E-01 2.18365E-03-1.57800E-01 3.54888E-14 6.90106E-14
 -1      4356 2.03622E+01 1.90978E-01-1.03421E-03-2.03112E-01 6.91244E-14 9.95190E-14
 -1      4357 2.03873E+01 3.96896E-01-2.64228E-04-1.28228E-01 2.64109E-14 7.67193E-14
 -1      4358 2.18368E+01-1.51962E+00 2.65087E-02-1.46771E+00-1.30065E-13-1.93777E-14
 -1      4359 2.04503E+01 9.35997E-02 1.84192E-03-1.98001E-01 4.55119E-14 5.20042E-14
 -1      4360 2.05880E+01-3.70719E-01-6.00674E-03-3.43487E-01 1.82009E-14 2.17000E-14
 -1      4361 2.02352E+01-4.33404E-02-4.20008E-03-4.94092E-01 6.35897E-14 6.28894E-14
 -1      4362 2.04587E+01-5.27147E-02 4.09259E-04-2.66106E-01 5.41694E-14 1.93107E-14
 -1      4363 2.04146E+01 8.82357E-02-2.40285E-03-2.37105E-01 6.42436E-14 9.43567E-14
 -1      4364 2.03728E+01 6.24894E-02 4.25194E-03-2.78597E-01 9.19707E-14 5.99977E-14
 -1      4365 2.04961E+01-1.47484E-01 4.29934E-03-3.11939E-01 6.26561E-14 9.16151E-18
 -1      4366 2.06209E+01-5.21266E-01 1.16064E-02-8.63345E-01-5.62697E-14-9.83285E-15
 -1      4367 2.07246E+01-6.67964E-01 7.64325E-03-1.00549E+00-7.97265E-14-2.00577E-16
 -1      4368 2.03480E+01-1.66661E-02-1.11739E-03-3.50425E-01 8.80379E-14 6.79925E-14
 -1      4369 2.07366E+01-6.42904E-01-1.24401E-02-6.88496E-01-4.56195E-14 3.03793E-15
 -1      4370 2.07757E+01-5.97663E-01 5.56596E-03-5.30346E-01-9.14091E-15-3.28285E-14
 -1      4371 2.06644E+01-4.73300E-01 4.36192E-03-4.86143E-01-9.79600E-15-3.30077E-14
 -1      4372 2.06048E+01-7.89931E-01-2.38733E-02-1.43927E+00-1.17427E-13 5.38246E-14
 -1      4373 1.99894E+01 1.92705E-02-1.35200E-04-2.86065E-04 2.08719E-13 2.01304E-13
 -1      4374 1.99917E+01 1.67319E-02 1.52718E-05-8.55594E-04 5.20892E-13 4.29981E-13
 -1      4375 2.14782E+01-1.27751E+00 1.51144E-02-1.35542E+00-1.45088E-13-2.02781E-14
 -1      4376 2.00049E+01-1.27129E-01-5.45467E-03 6.39625E-01-1.71576E-13 4.67402E-13
 -1      4377 2.04867E+01-3.93963E-01 3.16948E-03-7.57524E-01-2.27826E-15 2.55102E-14
 -1      4378 2.11401E+01-1.05007E+00 1.16367E-02-1.28535E+00-1.51806E-13-2.29158E-14
 -1      4379 2.04583E+01-2.87654E-01 8.33247E-03-6.15532E-01 3.44238E-14 5.26132E-14
 -1      4380 2.09463E+01-8.42624E-01 1.46704E-02-1.10667E+00-1.06561E-13-1.43905E-14
 -1      4381 2.03996E+01 3.79961E-01-8.90253E-04-1.28261E-01 5.25454E-14 6.94020E-14
 -1      4382 2.05186E+01-2.46143E-01 1.79504E-03-3.75438E-01 4.65192E-14-4.84145E-15
 -1      4383 2.04412E+01-1.49160E-01-5.12605E-03-3.80646E-01 7.16228E-14 4.53770E-14
 -1      4384 2.03794E+01-9.43945E-02 6.32337E-03-4.23919E-01 6.64586E-14 5.71111E-14
 -1      4385 2.05823E+01-3.49950E-01 4.09391E-03-4.24251E-01 2.64763E-14-1.27827E-14
 -1      4386 2.05349E+01-3.70752E-01-8.89318E-03-5.25991E-01 2.23080E-14 5.85903E-15
 -1      4387 2.03706E+01-1.76543E-01 1.56131E-03-5.31624E-01 4.67644E-14 8.16524E-14
 -3
    1PSTEP                         3           1           1          
  100CL  101 1.000000000        4387                     0    1           1
 -4  TOSTRAIN    6    1
 -5  EXX         1    4    1    1
 -5  EYY         1    4    2    2
 -5  EZZ         1    4    3    3
 -5  EXY         1    4    1    2
 -5  EYZ         1    4    2    3
 -5  EZX         1    4    3    1
 -1         1 4.38953E-04-1.36837E-04-9.84296E-05 4.70320E-05 1.72636E-19-6.68309E-19
 -1         2 4.14142E-05-1.27655E-04 2.47313E-05 9.47771E-07 5.94067E-18-2.87568E-19
 -1         3 9.52371E-05-2.85712E-05-2.85709E-05 3.67025E-11-3.36830E-18-3.91474E-18
 -1         4 9.52372E-05-2.85711E-05-2.85711E-05-2.59732E-10-2.93337E-18 8.02506E-19
 -1         5 1.43295E-04-2.14662E-05-4.25228E-05 3.85072E-05-2.78939E-19 1.80804E-17
 -1         6 1.45942E-04 2.57002E-10-4.41076E-05-5.41664E-05-9.84676E-19 1.03884E-17
 -1         7 9.01538E-05-3.22015E-07-3.90128E-05-2.90394E-05-1.44843E-19-2.04148E-19
 -1         8 8.51455E-05 9.22057E-08-3.63495E-05-2.02107E-05-1.32375E-19-2.78503E-18
 -1         9 8.28469E-05 7.69230E-08-3.53647E-05-1.55832E-05-8.52327E-20-3.96684E-18
 -1        10 8.18085E-05 3.76864E-08-3.48952E-05-1.20178E-05-2.07920E-20-4.30792E-18
 -1        11 8.12752E-05 1.89096E-08-3.46624E-05-8.95665E-06 2.98546E-20-4.26526E-18
 -1        12 8.09915E-05 9.14945E-09-3.45432E-05-6.23998E-06 4.48745E-20-4.03960E-18
 -1        13 8.08372E-05 4.82747E-09-3.44804E-05-3.65963E-06 7.29019E-20-3.70308E-18
 -1        14 8.07687E-05 3.15459E-09-3.44531E-05-1.17872E-06 9.07827E-20-3.35914E-18
 -1        15 8.07663E-05 3.22507E-09-3.44518E-05 1.27312E-06 1.11445E-19-2.93579E-18
 -1        16 8.08303E-05 5.00199E-09-3.44768E-05 3.76204E-06 1.28121E-19-2.51213E-18
 -1        17 8.09818E-05 8.80678E-09-3.45376E-05 6.35893E-06 1.58394E-19-1.87109E-18
 -1        18 8.12643E-05 1.84692E-08-3.46563E-05 9.09855E-06 1.78585E-19-9.52267E-19
 -1        19 8.18014E-05 3.82560E-08-3.48914E-05 1.21957E-05 2.34668E-19 2.57033E-19
 -1        20 8.28526E-05 8.00074E-08-3.53681E-05 1.58112E-05 2.35793E-19 2.02371E-18
 -1        21 8.51065E-05 1.68558E-07-3.63828E-05 2.04298E-05 2.34522E-19 4.97924E-18
 -1        22 9.16554E-05-1.01844E-07-3.87420E-05 2.79592E-05 4.97632E-21 9.77066E-18
 -1        23 1.13923E-04-3.81295E-05-3.57296E-05-5.15129E-06-7.38983E-19 7.15955E-18
 -1        24 9.31386E-05-2.78007E-05-2.91677E-05 4.03896E-07-2.00595E-19 4.36247E-18
 -1        25 8.92522E-05-2.68902E-05-2.69915E-05 3.81197E-07-7.24379E-20 1.63079E-18
 -1        26 8.81064E-05-2.65178E-05-2.64244E-05 2.06720E-07-2.99530E-20-1.51685E-19
 -1        27 8.81587E-05-2.65051E-05-2.64195E-05 1.39331E-07 3.07467E-20-1.48681E-18
 -1        28 8.87767E-05-2.66680E-05-2.66146E-05 9.82457E-08 1.79862E-20-2.45081E-18
 -1        29 8.96916E-05-2.69294E-05-2.68972E-05 7.27782E-08-6.66023E-20-2.99303E-18
 -1        30 9.07477E-05-2.72423E-05-2.72191E-05 5.19734E-08 8.29747E-20-3.17726E-18
 -1        31 9.20426E-05-2.76305E-05-2.76148E-05 3.90125E-08-1.62410E-19-3.79551E-18
 -1        32 9.36260E-05-2.81093E-05-2.81020E-05 3.22258E-08-4.06857E-20-4.81818E-18
 -1        33 9.57191E-05-2.87440E-05-2.87529E-05 3.68206E-08 9.92460E-20-4.60328E-18
 -1        34 9.87333E-05-2.96562E-05-2.97018E-05 6.39419E-08-2.01001E-19-5.19771E-18
 -1        35 1.03375E-04-3.10525E-05-3.11796E-05 1.38434E-07 1.65044E-19-5.33112E-18
 -1        36 1.10800E-04-3.32728E-05-3.35574E-05 3.08731E-07 2.24282E-19-4.43059E-18
 -1        37 1.22732E-04-3.67990E-05-3.73525E-05 7.16433E-07-6.57873E-20-3.83595E-18
 -1        38 1.40396E-04-4.20547E-05-4.27881E-05 1.32544E-06-2.14170E-19-4.49208E-18
 -1        39 1.67023E-04-5.00693E-05-5.03494E-05 2.38440E-06 2.18184E-19-4.71003E-18
 -1        40 1.98789E-04-6.00287E-05-5.80143E-05 2.91809E-06 2.13509E-19-3.05991E-18
 -1        41 2.18972E-04-6.68308E-05-6.14696E-05 1.14637E-07 1.34572E-19-1.04270E-18
 -1        42 2.00202E-04-6.08349E-05-5.76278E-05-1.00090E-05-1.70889E-19-3.24202E-19
 -1        43 1.40422E-04-3.86387E-05-4.97335E-05-1.48049E-05-5.10761E-19-3.24541E-18
 -1        44 8.20867E-05-1.68261E-05-4.35104E-05-5.88233E-06-1.33619E-19-8.02797E-18
 -1        45 8.16041E-05-1.71768E-05-4.31632E-05 5.39454E-06-5.41889E-19-1.17407E-17
 -1        46 1.34900E-04-3.73340E-05-4.86851E-05 1.01445E-05 2.26555E-19-1.45410E-17
 -1        47 1.95524E-04-5.93200E-05-5.65628E-05 6.65157E-06 7.64778E-20-1.38147E-17
 -1        48 2.21023E-04-6.79462E-05-6.14768E-05 7.46838E-07 4.00580E-19-8.95610E-18
 -1        49 2.08251E-04-6.33573E-05-5.98773E-05-1.49355E-06-1.90182E-19-6.09213E-18
 -1        50 1.76610E-04-5.30219E-05-5.28773E-05-1.67359E-06 4.66311E-19-3.14800E-18
 -1        51 1.48742E-04-4.44359E-05-4.53395E-05-1.06909E-06 5.89135E-20-3.66765E-18
 -1        52 1.27881E-04-3.81969E-05-3.90483E-05-5.59765E-07-4.63820E-19-6.43533E-18
 -1        53 1.14595E-04-3.42886E-05-3.48230E-05-2.70259E-07 6.03532E-19-5.63073E-18
 -1        54 1.06548E-04-3.19268E-05-3.22159E-05-1.24128E-07-2.00889E-20-3.48315E-18
 -1        55 1.01789E-04-3.05248E-05-3.06719E-05-5.41259E-08-7.80481E-19-5.94252E-18
 -1        56 9.90084E-05-2.97009E-05-2.97742E-05-2.17094E-08 3.93904E-19-8.38138E-18
 -1        57 9.73940E-05-2.92200E-05-2.92563E-05-7.17718E-09-8.15410E-20-8.06316E-18
 -1        58 9.64627E-05-2.89412E-05-2.89589E-05 2.07683E-10 7.59086E-19-6.49082E-18
 -1        59 9.59451E-05-2.87857E-05-2.87948E-05 6.30912E-10 1.93792E-20-2.80016E-18
 -1        60 9.56276E-05-2.86899E-05-2.86942E-05 1.81561E-09-5.36025E-19-6.40416E-18
 -1        61 9.54469E-05-2.86353E-05-2.86371E-05 1.78008E-09 1.09069E-20-7.92283E-18
 -1        62 9.53444E-05-2.86042E-05-2.86049E-05 1.48957E-09 4.49209E-19-5.46295E-18
 -1        63 9.52869E-05-2.85867E-05-2.85868E-05 1.16108E-09-3.92673E-19 2.43802E-19
 -1        64 9.52551E-05-2.85769E-05-2.85769E-05 8.72089E-10 1.65556E-19-1.60504E-18
 -1        65 9.52381E-05-2.85717E-05-2.85716E-05 6.44431E-10 1.02470E-18-4.61071E-18
 -1        66 9.52297E-05-2.85691E-05-2.85690E-05 4.95586E-10-2.83182E-19-3.79673E-18
 -1        67 9.52262E-05-2.85680E-05-2.85679E-05 3.45169E-10 8.25052E-19-4.31420E-18
 -1        68 9.52255E-05-2.85677E-05-2.85677E-05 2.70449E-10-5.56119E-19-4.72346E-18
 -1        69 9.52265E-05-2.85680E-05-2.85680E-05 2.14725E-10-1.94321E-19-6.28820E-18
 -1        70 9.52286E-05-2.85686E-05-2.85686E-05 1.82518E-10-6.27539E-20-3.05163E-18
 -1        71 9.52313E-05-2.85694E-05-2.85694E-05 1.70126E-10-2.90850E-19-4.20212E-18
 -1        72 9.52342E-05-2.85703E-05-2.85702E-05 1.75880E-10 4.14183E-19-5.42133E-18
 -1        73 9.52365E-05-2.85710E-05-2.85708E-05 1.19304E-10 1.41716E-18 2.92016E-18
 -1        74 1.02192E-04-3.05916E-05-3.41544E-05-1.93191E-06 2.88521E-20 1.81448E-17
 -1        75 9.26212E-05-2.75350E-05-2.89222E-05-3.34579E-07 3.66408E-20 1.62310E-17
 -1        76 8.92064E-05-2.67355E-05-2.69986E-05-1.31354E-07 1.10655E-19 1.47101E-17
 -1        77 8.81915E-05-2.64856E-05-2.64776E-05-1.01398E-07 1.32651E-20 1.36186E-17
 -1        78 8.82629E-05-2.65025E-05-2.64666E-05-8.17721E-08 1.71487E-20 1.27857E-17
 -1        79 8.88300E-05-2.66622E-05-2.66367E-05-6.79680E-08 4.85313E-20 1.20942E-17
 -1        80 8.95985E-05-2.68858E-05-2.68682E-05-5.88094E-08 7.98082E-20 1.17339E-17
 -1        81 9.03939E-05-2.71202E-05-2.71058E-05-5.24086E-08 4.86221E-20 1.16845E-17
 -1        82 9.10943E-05-2.73276E-05-2.73132E-05-4.76283E-08-5.95543E-20 1.10921E-17
 -1        83 9.15974E-05-2.74767E-05-2.74601E-05-4.34223E-08 4.51976E-20 1.05740E-17
 -1        84 9.18025E-05-2.75372E-05-2.75161E-05-3.84028E-08 1.09553E-19 1.00607E-17
 -1        85 9.16031E-05-2.74773E-05-2.74494E-05-3.06236E-08-2.90402E-21 8.89550E-18
 -1        86 9.08875E-05-2.72638E-05-2.72273E-05-1.76497E-08 1.69532E-19 8.66050E-18
 -1        87 8.95525E-05-2.68658E-05-2.68207E-05 2.95289E-09-1.29022E-19 8.97396E-18
 -1        88 8.75313E-05-2.62631E-05-2.62124E-05 3.25849E-08 3.42507E-20 9.33497E-18
 -1        89 8.48334E-05-2.54581E-05-2.54089E-05 7.01330E-08-2.96272E-19 9.37860E-18
 -1        90 8.15881E-05-2.44884E-05-2.44518E-05 1.10581E-07-1.19696E-20 8.98695E-18
 -1        91 7.80747E-05-2.34364E-05-2.34253E-05 1.44742E-07 4.71086E-20 7.59792E-18
 -1        92 7.47141E-05-2.24272E-05-2.24517E-05 1.61194E-07-2.50913E-19 7.31512E-18
 -1        93 7.20059E-05-2.16106E-05-2.16730E-05 1.50572E-07-5.44004E-20 7.43545E-18
 -1        94 7.04156E-05-2.11275E-05-2.12190E-05 1.10560E-07 3.04162E-19 6.81991E-18
 -1        95 7.02439E-05-2.10701E-05-2.11724E-05 4.84945E-08-1.08551E-20 7.12240E-18
 -1        96 7.15339E-05-2.14532E-05-2.15445E-05-2.07090E-08 3.56478E-20 5.40413E-18
 -1        97 7.40584E-05-2.22095E-05-2.22724E-05-8.05251E-08-1.31631E-19 5.21846E-18
 -1        98 7.73946E-05-2.32115E-05-2.32385E-05-1.19221E-07 2.88638E-20 7.26762E-18
 -1        99 8.10496E-05-2.43102E-05-2.43043E-05-1.33207E-07-1.21223E-19 6.20496E-18
 -1       100 8.45829E-05-2.53724E-05-2.53433E-05-1.26271E-07-1.02956E-19 5.11472E-18
 -1       101 8.76851E-05-2.63044E-05-2.62642E-05-1.06133E-07 2.14261E-19 3.19758E-18
 -1       102 9.01989E-05-2.70592E-05-2.70178E-05-8.07740E-08-1.48917E-19 3.38544E-18
 -1       103 9.20969E-05-2.76287E-05-2.75925E-05-5.61764E-08 8.83801E-20 3.82659E-18
 -1       104 9.34387E-05-2.80311E-05-2.80029E-05-3.56797E-08-3.16584E-19 3.50211E-18
 -1       105 9.43272E-05-2.82974E-05-2.82775E-05-2.04012E-08 2.04250E-19 2.26051E-18
 -1       106 9.48750E-05-2.84617E-05-2.84488E-05-1.00427E-08 1.62765E-19 3.54620E-18
 -1       107 9.51843E-05-2.85545E-05-2.85470E-05-3.64339E-09-1.97642E-19 5.10571E-18
 -1       108 9.53376E-05-2.86006E-05-2.85967E-05-9.53420E-11-3.81518E-20 3.45239E-18
 -1       109 9.53959E-05-2.86182E-05-2.86166E-05 1.58154E-09-8.35331E-20 1.02473E-18
 -1       110 9.54014E-05-2.86200E-05-2.86197E-05 2.13833E-09 1.41560E-19-3.57460E-19
 -1       111 9.53811E-05-2.86140E-05-2.86144E-05 2.09450E-09-6.28873E-19 1.03512E-18
 -1       112 9.53515E-05-2.86052E-05-2.86059E-05 1.77907E-09 6.09172E-19 1.84043E-18
 -1       113 9.53214E-05-2.85963E-05-2.85969E-05 1.38253E-09-1.54516E-19-2.64422E-19
 -1       114 9.52952E-05-2.85885E-05-2.85891E-05 1.00348E-09-7.65477E-20 4.42250E-19
 -1       115 9.52744E-05-2.85823E-05-2.85827E-05 6.84271E-10-5.34534E-19 1.27835E-18
 -1       116 9.52590E-05-2.85777E-05-2.85780E-05 4.35705E-10 5.76288E-19-2.43210E-18
 -1       117 9.52483E-05-2.85745E-05-2.85748E-05 2.52739E-10-1.52226E-19-6.54267E-18
 -1       118 9.52416E-05-2.85725E-05-2.85727E-05 1.23421E-10-3.01983E-19-4.70222E-18
 -1       119 9.52378E-05-2.85713E-05-2.85715E-05 3.32621E-11-8.54845E-19-2.96973E-18
 -1       120 9.52362E-05-2.85709E-05-2.85709E-05-3.30332E-11-2.29241E-19-1.83513E-18
 -1       121 9.52360E-05-2.85708E-05-2.85708E-05-9.88053E-11 1.54704E-18-5.02330E-18
 -1       122 9.52367E-05-2.85710E-05-2.85710E-05-1.66943E-10 1.88556E-18-9.25326E-18
 -1       123 9.52373E-05-2.85716E-05-2.85710E-05-1.94201E-10-9.80858E-18 2.30327E-19
 -1       124 9.52375E-05-2.85722E-05-2.85709E-05-1.00141E-10-9.80768E-18-1.00431E-19
 -1       125 9.52374E-05-2.85721E-05-2.85709E-05-1.42712E-11-8.91583E-18-5.77888E-19
 -1       126 9.52372E-05-2.85714E-05-2.85711E-05 2.36655E-11-1.05035E-17-1.61427E-18
 -1       127 9.52370E-05-2.85706E-05-2.85713E-05 2.64953E-11-9.26986E-18-8.18250E-19
 -1       128 9.52368E-05-2.85701E-05-2.85714E-05 4.68148E-12-1.31894E-17-5.17569E-19
 -1       129 9.52369E-05-2.85701E-05-2.85714E-05-3.21129E-11-1.35072E-17 9.90902E-19
 -1       130 9.52371E-05-2.85709E-05-2.85712E-05-6.90281E-11-1.06252E-17-9.07823E-19
 -1       131 9.52375E-05-2.85724E-05-2.85707E-05-9.35548E-11-7.91647E-18 2.59342E-18
 -1       132 9.52381E-05-2.85742E-05-2.85702E-05-9.45583E-11 7.80713E-19-3.90951E-19
 -1       133 9.52386E-05-2.85760E-05-2.85697E-05-6.29609E-11 6.44342E-19-1.34482E-18
 -1       134 9.52389E-05-2.85770E-05-2.85695E-05-2.24957E-12-4.78494E-19 9.09717E-19
 -1       135 9.52389E-05-2.85771E-05-2.85694E-05 8.84130E-11-2.71108E-18 4.04152E-19
 -1       136 9.52386E-05-2.85760E-05-2.85698E-05 1.85141E-10-2.31705E-18 8.33870E-19
 -1       137 9.52380E-05-2.85739E-05-2.85703E-05 2.38750E-10 2.97789E-18-9.59063E-19
 -1       138 9.52373E-05-2.85718E-05-2.85708E-05 8.67045E-11 3.13147E-19-1.88734E-18
 -1       139 2.48500E-05-8.45359E-05 1.54809E-05-2.16958E-05 1.09276E-17 2.92120E-18
 -1       140 6.86336E-06-1.95401E-05-1.21127E-06-7.54939E-06 1.72231E-17 8.41061E-18
 -1       141 1.67908E-05 2.89575E-05-2.18126E-05 4.14097E-05 1.71605E-17 1.23091E-17
 -1       142 7.97287E-05 3.33701E-05-4.55634E-05 1.03245E-04 1.14904E-17 1.32844E-17
 -1       143 1.85605E-04-1.18609E-05-6.66911E-05 1.29444E-04 6.15200E-18 1.15383E-17
 -1       144 2.96061E-04-7.48399E-05-8.32360E-05 9.49553E-05 1.65333E-18 2.21287E-18
 -1       145 3.43626E-04-1.06097E-04-8.87974E-05 9.02790E-06 1.63583E-19-9.52814E-18
 -1       146 3.07863E-04-8.30088E-05-8.43459E-05-8.39997E-05 3.81970E-18-1.82127E-17
 -1       147 2.07807E-04-2.32462E-05-7.04238E-05-1.31396E-04 1.03116E-17-2.16917E-17
 -1       148 1.02297E-04 2.62133E-05-5.09221E-05-1.14635E-04 1.38312E-17-1.83633E-17
 -1       149 2.54557E-05 3.25499E-05-2.61257E-05-5.33220E-05 1.34289E-17-1.15328E-17
 -1       150 5.33001E-06-1.00981E-05-4.00004E-06 2.90199E-06 1.06400E-17-5.52096E-18
 -1       151 2.07268E-05-7.26392E-05 1.27248E-05 2.32556E-05 2.95191E-18-1.24694E-18
 -1       152 3.96341E-05-1.22473E-04 2.35959E-05 6.38110E-06-3.39533E-18 2.01832E-19
 -1       153 3.93587E-05-1.29533E-04 2.56050E-05-2.80385E-05-9.82607E-18-1.84989E-18
 -1       154 1.82616E-05-9.19522E-05 1.84018E-05-4.92847E-05-1.64634E-17-6.30500E-18
 -1       155 2.63439E-07-3.22459E-05 1.65730E-06-3.10661E-05-1.58171E-17-9.95454E-18
 -1       156 2.42370E-05 1.00753E-05-2.26891E-05 2.86984E-05-1.25247E-17-1.34657E-17
 -1       157 1.35317E-04-2.38323E-06-5.45468E-05 1.04410E-04-7.67666E-18-1.18762E-17
 -1       158 2.99622E-04-6.90112E-05-8.10459E-05 1.21124E-04-2.99553E-18-7.70800E-18
 -1       159 4.26135E-04-1.30876E-04-9.69705E-05-6.31437E-05-1.96670E-18 9.83490E-18
 -1       160 2.91103E-04-6.53934E-05-7.98538E-05-1.23565E-04-5.48030E-18 1.67221E-17
 -1       161 1.37398E-04-3.40247E-06-5.47362E-05-1.03874E-04-9.18268E-18 1.49984E-17
 -1       162 3.03371E-05 1.11786E-05-2.52180E-05-3.50690E-05-1.05633E-17 1.13464E-17
 -1       163 1.65816E-06-2.49708E-05-1.76436E-06 2.34584E-05-8.65922E-18 6.30320E-18
 -1       164 1.34788E-05-8.16026E-05 1.63660E-05 4.98560E-05-5.58322E-18 1.45891E-18
 -1       165 3.54596E-05-1.24648E-04 2.48563E-05 3.55715E-05-3.17870E-18 1.76617E-18
 -1       166 9.48650E-05-1.23306E-05-3.55554E-05-2.23762E-05-1.81846E-18-1.28302E-18
 -1       167 8.92837E-05-8.45883E-06-3.48010E-05-1.73307E-05-1.31256E-18-2.78784E-18
 -1       168 8.65969E-05-6.51589E-06-3.44314E-05-1.35298E-05-7.74691E-19-3.37593E-18
 -1       169 8.52121E-05-5.50292E-06-3.42437E-05-1.03042E-05-2.35076E-19-3.59237E-18
 -1       170 8.44453E-05-4.92034E-06-3.41509E-05-7.49559E-06 1.57113E-19-3.44566E-18
 -1       171 8.39987E-05-4.56724E-06-3.41034E-05-4.86975E-06 5.17875E-19-3.12330E-18
 -1       172 8.37666E-05-4.37935E-06-3.40809E-05-2.38242E-06 9.18697E-19-2.80133E-18
 -1       173 8.36960E-05-4.32477E-06-3.40730E-05 4.23698E-08 1.25580E-18-2.51770E-18
 -1       174 8.37717E-05-4.39380E-06-3.40771E-05 2.47151E-06 1.53006E-18-2.16440E-18
 -1       175 8.40096E-05-4.59597E-06-3.40962E-05 4.97123E-06 1.71610E-18-1.67119E-18
 -1       176 8.44540E-05-4.95655E-06-3.41398E-05 7.57019E-06 1.95538E-18-9.48710E-19
 -1       177 8.52438E-05-5.56584E-06-3.42324E-05 1.04527E-05 2.27780E-18-1.31092E-20
 -1       178 8.66578E-05-6.60928E-06-3.44218E-05 1.37159E-05 2.44327E-18 1.29945E-18
 -1       179 8.94123E-05-8.60658E-06-3.47977E-05 1.75697E-05 2.25214E-18 3.39487E-18
 -1       180 9.58099E-05-1.36281E-05-3.54329E-05 2.18378E-05 1.73059E-18 6.60376E-18
 -1       181 1.05630E-04-2.61137E-05-3.52685E-05 1.86226E-05 8.40621E-19 1.03395E-17
 -1       182 1.03614E-04-2.70815E-05-3.28015E-05-1.25600E-05-1.66863E-18 1.00286E-18
 -1       183 9.73630E-05-2.82975E-05-2.96406E-05-4.92737E-06-1.56013E-18 3.66560E-19
 -1       184 9.36942E-05-2.76664E-05-2.82512E-05-1.81410E-06-1.07944E-18-1.74198E-19
 -1       185 9.21571E-05-2.74467E-05-2.76963E-05-3.94260E-07-6.74852E-19-6.20783E-19
 -1       186 9.16323E-05-2.73847E-05-2.75147E-05 3.35988E-07-6.32034E-19-1.18932E-18
 -1       187 9.17068E-05-2.74499E-05-2.75278E-05 7.50061E-07-3.46236E-19-1.33449E-18
 -1       188 9.21269E-05-2.75896E-05-2.76516E-05 1.01095E-06-2.47565E-19-1.51851E-18
 -1       189 9.28400E-05-2.77935E-05-2.78702E-05 1.25883E-06-1.72545E-19-1.42343E-18
 -1       190 9.38168E-05-2.80488E-05-2.81776E-05 1.58472E-06-3.90101E-19-1.00969E-18
 -1       191 9.51249E-05-2.83650E-05-2.85990E-05 2.11187E-06-9.51555E-20-1.21464E-18
 -1       192 9.69208E-05-2.87684E-05-2.91900E-05 3.01408E-06-4.55997E-19-1.51191E-18
 -1       193 9.94700E-05-2.93053E-05-3.00461E-05 4.54743E-06-3.39045E-20-1.31277E-18
 -1       194 1.03169E-04-3.00486E-05-3.13092E-05 7.07937E-06 2.02246E-19-1.53974E-18
 -1       195 1.08540E-04-3.11239E-05-3.31563E-05 1.10778E-05 8.75223E-20-2.07833E-18
 -1       196 1.15761E-04-3.26947E-05-3.55910E-05 1.65599E-05-1.58865E-19-1.81073E-18
 -1       197 1.26156E-04-3.55898E-05-3.87832E-05 2.34891E-05 4.40497E-19-1.06530E-18
 -1       198 1.39781E-04-4.14185E-05-4.19727E-05 2.83673E-05 1.02892E-18-1.75534E-19
 -1       199 1.56671E-04-5.25802E-05-4.41351E-05 2.27050E-05 1.56503E-18 1.18720E-18
 -1       200 1.77243E-04-6.74222E-05-4.67278E-05-2.52826E-06 2.32563E-19 1.79235E-18
 -1       201 1.98827E-04-7.32448E-05-5.35948E-05-3.26011E-05-2.09413E-18 1.95559E-18
 -1       202 1.83004E-04-3.56259E-05-6.46550E-05-9.98473E-08-3.31995E-18-4.34295E-18
 -1       203 1.87223E-04-4.76000E-05-6.12676E-05 3.92555E-05-1.92022E-18-5.99551E-18
 -1       204 1.91170E-04-6.40501E-05-5.49250E-05 4.05582E-05 8.22998E-19-5.43918E-18
 -1       205 1.87101E-04-6.59851E-05-5.11740E-05 1.04902E-05 2.81636E-18-4.78833E-18
 -1       206 1.74193E-04-5.70076E-05-4.94060E-05-1.39728E-05 2.02796E-18-3.18730E-18
 -1       207 1.54814E-04-4.65608E-05-4.61375E-05-2.25860E-05 9.37467E-19-1.29657E-18
 -1       208 1.37615E-04-4.00269E-05-4.18708E-05-1.96788E-05-3.36714E-19-2.23733E-18
 -1       209 1.23281E-04-3.57190E-05-3.76225E-05-1.39060E-05-5.06863E-19-2.82603E-18
 -1       210 1.13167E-04-3.30591E-05-3.43854E-05-8.94977E-06 1.21464E-18-2.36590E-18
 -1       211 1.06437E-04-3.13722E-05-3.21872E-05-5.50669E-06 1.70757E-19-1.40247E-18
 -1       212 1.02130E-04-3.03053E-05-3.07818E-05-3.31285E-06-1.29798E-18-1.68470E-18
 -1       213 9.94380E-05-2.96361E-05-2.99100E-05-1.96955E-06 1.02109E-19 2.20480E-19
 -1       214 9.77797E-05-2.92205E-05-2.93773E-05-1.16301E-06 4.57900E-19 5.02471E-19
 -1       215 9.67690E-05-2.89652E-05-2.90545E-05-6.83507E-07 2.41099E-19-2.32209E-19
 -1       216 9.61780E-05-2.88144E-05-2.88673E-05-4.11006E-07 1.04521E-18-3.04974E-18
 -1       217 9.57964E-05-2.87165E-05-2.87465E-05-2.40125E-07-1.65445E-18-2.93754E-18
 -1       218 9.55669E-05-2.86572E-05-2.86743E-05-1.39676E-07-1.72036E-19-3.73214E-18
 -1       219 9.54289E-05-2.86213E-05-2.86310E-05-8.09186E-08 2.22239E-18-2.37568E-18
 -1       220 9.53461E-05-2.85996E-05-2.86051E-05-4.65785E-08 2.26781E-18-1.88417E-18
 -1       221 9.52966E-05-2.85866E-05-2.85897E-05-2.65036E-08 5.02464E-19-8.84037E-19
 -1       222 9.52673E-05-2.85788E-05-2.85806E-05-1.47398E-08-6.32280E-19-2.06248E-18
 -1       223 9.52502E-05-2.85743E-05-2.85753E-05-7.80208E-09 1.06147E-20-3.77559E-18
 -1       224 9.52409E-05-2.85718E-05-2.85724E-05-3.84372E-09 4.17678E-19-2.93731E-18
 -1       225 9.52357E-05-2.85704E-05-2.85708E-05-1.30412E-09-1.59204E-19-2.68047E-18
 -1       226 9.52334E-05-2.85698E-05-2.85701E-05 2.50504E-10-4.62335E-20-1.57843E-18
 -1       227 9.52329E-05-2.85698E-05-2.85699E-05 1.19879E-09 1.59974E-18 2.77077E-19
 -1       228 9.52336E-05-2.85700E-05-2.85701E-05 1.73561E-09-1.45156E-18 7.06563E-19
 -1       229 9.52348E-05-2.85705E-05-2.85704E-05 1.89716E-09-1.08818E-19 1.47544E-18
 -1       230 9.52361E-05-2.85710E-05-2.85707E-05 1.51323E-09 1.84577E-18-1.98705E-18
 -1       231 9.52369E-05-2.85716E-05-2.85708E-05 1.03401E-09 1.12028E-20-3.60199E-18
 -1       232 9.95515E-05-2.85674E-05-3.06013E-05 7.17860E-06 1.05833E-18 9.31067E-18
 -1       233 9.45133E-05-2.78066E-05-2.85532E-05 2.73402E-06 8.40554E-19 8.25254E-18
 -1       234 9.22367E-05-2.74515E-05-2.77177E-05 8.88379E-07 6.14860E-19 7.35389E-18
 -1       235 9.13067E-05-2.73082E-05-2.74022E-05 1.26263E-08 4.41701E-19 6.78661E-18
 -1       236 9.10956E-05-2.72951E-05-2.73308E-05-4.01369E-07 3.99888E-19 6.47357E-18
 -1       237 9.12662E-05-2.73757E-05-2.73761E-05-5.72008E-07 2.85891E-19 5.92859E-18
 -1       238 9.16024E-05-2.74976E-05-2.74712E-05-5.91051E-07 1.59885E-19 5.30922E-18
 -1       239 9.19586E-05-2.76225E-05-2.75722E-05-4.99138E-07 2.35760E-19 5.28833E-18
 -1       240 9.22244E-05-2.77201E-05-2.76454E-05-3.11930E-07 1.59639E-19 5.60137E-18
 -1       241 9.23043E-05-2.77634E-05-2.76618E-05-3.16132E-08 5.70232E-19 5.47435E-18
 -1       242 9.21081E-05-2.77255E-05-2.75943E-05 3.44656E-07 7.18147E-19 4.96413E-18
 -1       243 9.15498E-05-2.75784E-05-2.74180E-05 8.15602E-07 2.57324E-19 4.18875E-18
 -1       244 9.05546E-05-2.72949E-05-2.71127E-05 1.36479E-06-4.36692E-19 4.48182E-18
 -1       245 8.90767E-05-2.68538E-05-2.66678E-05 1.94895E-06-9.40604E-20 4.59556E-18
 -1       246 8.71244E-05-2.62486E-05-2.60897E-05 2.48958E-06 1.52838E-20 5.09321E-18
 -1       247 8.47879E-05-2.54997E-05-2.54087E-05 2.87476E-06 4.57154E-19 4.50665E-18
 -1       248 8.22596E-05-2.46643E-05-2.46828E-05 2.97776E-06 6.51340E-19 4.26311E-18
 -1       249 7.98289E-05-2.38396E-05-2.39944E-05 2.69437E-06 2.17352E-19 3.94916E-18
 -1       250 7.78431E-05-2.31508E-05-2.34383E-05 1.98965E-06-1.32903E-19 3.91487E-18
 -1       251 7.66318E-05-2.27232E-05-2.31020E-05 9.32517E-07 5.59268E-19 4.06173E-18
 -1       252 7.64177E-05-2.26437E-05-2.30435E-05-3.05518E-07-1.12004E-19 3.61108E-18
 -1       253 7.72492E-05-2.29317E-05-2.32754E-05-1.49656E-06 5.67456E-19 3.68281E-18
 -1       254 7.89859E-05-2.35319E-05-2.37617E-05-2.42957E-06 1.65823E-19 3.93947E-18
 -1       255 8.13450E-05-2.43349E-05-2.44287E-05-2.97515E-06-8.90189E-19 3.56940E-18
 -1       256 8.39849E-05-2.52134E-05-2.51845E-05-3.11243E-06 1.06334E-18 3.23648E-18
 -1       257 8.65905E-05-2.60565E-05-2.59413E-05-2.91241E-06 3.92878E-19 1.76069E-18
 -1       258 8.89300E-05-2.67900E-05-2.66313E-05-2.49477E-06 6.46615E-19 1.33000E-18
 -1       259 9.08744E-05-2.73794E-05-2.72135E-05-1.98290E-06-5.43202E-19 1.41271E-18
 -1       260 9.23861E-05-2.78218E-05-2.76727E-05-1.47414E-06-7.09170E-19 1.87577E-18
 -1       261 9.34924E-05-2.81341E-05-2.80134E-05-1.02888E-06 9.92327E-20 2.80181E-18
 -1       262 9.42562E-05-2.83417E-05-2.82517E-05-6.73714E-07 9.56835E-19 2.93484E-18
 -1       263 9.47531E-05-2.84711E-05-2.84088E-05-4.10972E-07-3.82839E-19 1.93637E-18
 -1       264 9.50551E-05-2.85460E-05-2.85057E-05-2.29210E-07-5.68561E-19 2.51399E-18
 -1       265 9.52233E-05-2.85848E-05-2.85607E-05-1.11447E-07 6.44480E-19 2.25762E-18
 -1       266 9.53052E-05-2.86014E-05-2.85883E-05-4.04279E-08 1.57406E-18 2.05252E-18
 -1       267 9.53351E-05-2.86052E-05-2.85991E-05-1.31788E-09 4.90263E-19 1.42319E-18
 -1       268 9.53361E-05-2.86025E-05-2.86005E-05 1.73791E-08-7.49737E-19 7.81565E-19
 -1       269 9.53232E-05-2.85970E-05-2.85972E-05 2.39071E-08 4.50471E-20-1.46608E-19
 -1       270 9.53054E-05-2.85908E-05-2.85921E-05 2.38026E-08 1.42384E-19 2.62904E-19
 -1       271 9.52876E-05-2.85852E-05-2.85868E-05 2.05582E-08-2.62049E-19 5.61951E-19
 -1       272 9.52722E-05-2.85806E-05-2.85821E-05 1.62308E-08-4.02208E-19-3.21528E-19
 -1       273 9.52599E-05-2.85770E-05-2.85783E-05 1.19305E-08 1.67506E-18-7.19453E-19
 -1       274 9.52508E-05-2.85745E-05-2.85755E-05 8.17847E-09 2.45525E-18-4.10028E-19
 -1       275 9.52446E-05-2.85728E-05-2.85736E-05 5.15257E-09-3.99477E-19-1.99802E-18
 -1       276 9.52406E-05-2.85718E-05-2.85723E-05 2.84872E-09-1.77075E-18-1.73295E-18
 -1       277 9.52384E-05-2.85712E-05-2.85716E-05 1.18590E-09 3.23045E-19-2.05736E-18
 -1       278 9.52374E-05-2.85710E-05-2.85713E-05 7.41490E-11 3.34416E-18-3.86737E-18
 -1       279 9.52371E-05-2.85711E-05-2.85711E-05-4.56686E-10-7.34761E-19-4.87596E-18
 -1       280 9.52373E-05-2.85711E-05-2.85712E-05-2.40777E-10-2.15383E-18-2.22594E-19
 -1       281 9.52372E-05-2.85706E-05-2.85714E-05 3.79634E-10-3.06934E-18-6.99731E-19
 -1       282 9.52369E-05-2.85698E-05-2.85716E-05 8.63060E-10-3.40995E-18-5.68596E-19
 -1       283 9.52364E-05-2.85689E-05-2.85718E-05 9.72390E-10-4.02415E-18 9.57097E-20
 -1       284 9.52361E-05-2.85681E-05-2.85720E-05 6.56056E-10-4.02004E-18-2.39775E-18
 -1       285 9.52359E-05-2.85677E-05-2.85721E-05 1.47881E-11-3.31637E-18-3.03928E-19
 -1       286 9.52359E-05-2.85678E-05-2.85720E-05-7.61054E-10-3.05066E-18 1.22850E-18
 -1       287 9.52362E-05-2.85686E-05-2.85719E-05-1.45189E-09-9.63214E-19 2.61330E-18
 -1       288 9.52367E-05-2.85697E-05-2.85715E-05-1.84940E-09-2.60320E-18 3.32742E-18
 -1       289 9.52372E-05-2.85711E-05-2.85712E-05-1.80027E-09-2.45671E-18 5.21043E-19
 -1       290 9.52378E-05-2.85724E-05-2.85709E-05-1.26432E-09 5.40317E-20-7.94113E-19
 -1       291 9.52381E-05-2.85733E-05-2.85706E-05-3.05388E-10 1.50490E-18-5.10526E-19
 -1       292 9.52382E-05-2.85735E-05-2.85706E-05 8.32010E-10 3.10648E-18-8.85868E-19
 -1       293 9.52379E-05-2.85731E-05-2.85706E-05 1.73019E-09-2.40077E-18 1.60282E-18
 -1       294 9.52375E-05-2.85725E-05-2.85707E-05 1.77359E-09-1.21254E-18-9.37249E-19
 -1       295 1.37750E-05-4.81519E-05 1.20686E-05 2.21853E-05 3.58729E-18 2.89876E-18
 -1       296 3.38512E-05-4.15653E-05 1.30351E-06 3.63474E-05 3.40401E-18 4.35396E-18
 -1       297 6.14700E-05-3.15512E-05-1.41065E-05 4.62031E-05 5.85872E-18 4.05422E-18
 -1       298 1.08345E-04-3.03082E-05-3.33607E-05 5.54948E-05 4.90792E-18 3.10988E-18
 -1       299 1.55098E-04-2.86521E-05-5.27936E-05 5.61808E-05 4.74169E-18 3.67358E-18
 -1       300 1.90682E-04-3.08249E-05-6.70733E-05 2.71067E-05 5.61673E-18-9.58841E-19
 -1       301 2.31431E-04-3.84334E-05-7.92166E-05 1.82310E-05 5.16754E-18-2.40324E-18
 -1       302 2.26783E-04-3.51616E-05-7.89219E-05-1.11451E-05 5.02375E-18-5.22863E-18
 -1       303 2.10015E-04-3.48537E-05-7.18730E-05-4.28429E-05 4.99029E-18-8.58637E-18
 -1       304 1.65504E-04-2.80967E-05-5.70101E-05-5.70476E-05 5.62186E-18-9.26760E-18
 -1       305 1.24130E-04-3.60821E-05-3.74107E-05-5.26417E-05 3.57935E-18-7.52017E-18
 -1       306 7.02743E-05-3.21283E-05-1.73084E-05-4.91164E-05 3.62340E-18-6.51432E-18
 -1       307 3.61762E-05-4.06418E-05-3.84425E-07-3.43703E-05 1.67098E-18-4.94794E-18
 -1       308 1.72865E-05-4.98042E-05 1.10314E-05-2.30407E-05-1.76606E-19-3.07060E-18
 -1       309 9.44600E-06-5.48559E-05 1.60699E-05-1.12023E-05-1.97269E-18-2.94513E-18
 -1       310 1.52088E-05-5.69373E-05 1.38190E-05-4.47840E-07-3.92801E-18-4.24088E-18
 -1       311 3.56123E-05-5.15841E-05 2.69683E-06 1.27745E-05-5.87375E-18-3.64616E-18
 -1       312 7.95210E-05-5.05191E-05-1.58375E-05 2.68467E-05-5.43965E-18-4.63475E-18
 -1       313 1.55987E-04-6.41437E-05-4.03452E-05 2.58847E-05-4.34909E-18-3.40677E-18
 -1       314 2.24176E-04-6.76406E-05-6.36333E-05 1.32058E-05-4.41294E-18-2.87991E-18
 -1       315 2.54109E-04-5.82974E-05-7.77039E-05-1.11622E-05-3.68481E-18-8.10399E-19
 -1       316 2.71905E-04-5.60676E-05-8.40423E-05 7.21892E-07-4.33893E-18 1.05861E-18
 -1       317 2.56909E-04-6.07123E-05-7.73853E-05 1.03402E-05-3.30406E-18 1.65044E-18
 -1       318 2.22610E-04-6.78854E-05-6.30685E-05-1.06301E-05-1.60042E-18 3.87941E-18
 -1       319 1.59210E-04-6.55571E-05-4.10807E-05-2.43007E-05-2.30097E-18 3.17510E-18
 -1       320 8.69293E-05-5.15242E-05-1.84414E-05-2.74525E-05-2.14596E-18 3.45568E-18
 -1       321 4.48842E-05-5.06682E-05-1.03834E-06-1.96056E-05-4.75397E-19 3.18688E-18
 -1       322 2.05885E-05-5.49231E-05 1.06659E-05-3.09455E-06 3.13190E-19 8.28822E-19
 -1       323 9.42542E-06-5.50999E-05 1.61253E-05 8.75419E-06 1.83374E-18 4.63941E-18
 -1       324 2.01435E-04-5.33074E-05-6.32874E-05-4.05943E-05-3.53065E-18 1.45160E-19
 -1       325 9.17434E-05-1.45266E-05-3.31660E-05-1.29282E-05-1.26917E-18-2.20300E-18
 -1       326 9.57663E-05-1.91918E-05-3.28860E-05-1.45277E-05-1.74222E-18-1.47892E-18
 -1       327 8.79976E-05-1.03341E-05-3.33393E-05-8.08920E-06-9.18886E-20-2.61450E-18
 -1       328 8.71559E-05-9.39429E-06-3.33746E-05-5.66939E-06 3.41755E-19-2.46601E-18
 -1       329 8.66758E-05-8.85532E-06-3.33963E-05-3.34414E-06 8.47717E-19-2.19498E-18
 -1       330 8.64615E-05-8.61609E-06-3.34055E-05-1.07646E-06 1.31635E-18-1.87665E-18
 -1       331 8.64714E-05-8.63392E-06-3.34022E-05 1.17585E-06 1.69836E-18-1.65812E-18
 -1       332 8.67051E-05-8.90779E-06-3.33866E-05 3.45416E-06 1.97850E-18-1.32850E-18
 -1       333 8.71922E-05-9.46631E-06-3.33596E-05 5.75704E-06 2.19979E-18-8.11960E-19
 -1       334 8.80496E-05-1.04325E-05-3.33198E-05 8.19054E-06 2.44356E-18-2.09078E-20
 -1       335 8.94801E-05-1.20259E-05-3.32621E-05 1.07014E-05 2.64255E-18 9.73889E-19
 -1       336 9.19099E-05-1.47410E-05-3.31547E-05 1.30806E-05 2.55851E-18 2.27193E-18
 -1       337 9.59219E-05-1.95977E-05-3.28147E-05 1.42215E-05 2.13125E-18 4.46694E-18
 -1       338 9.88236E-05-2.44645E-05-3.19534E-05 1.18008E-05 1.67654E-18 6.32777E-18
 -1       339 9.63975E-05-2.67947E-05-2.98022E-05 5.67702E-06 1.34688E-18 5.46601E-18
 -1       340 1.56677E-05-2.69913E-05 4.44838E-06-1.28279E-05 1.21179E-18 1.95135E-18
 -1       341 9.65173E-05-2.58861E-05-3.02229E-05-6.47556E-06-1.54689E-18-9.47361E-19
 -1       342 9.50702E-05-2.69764E-05-2.91540E-05-2.85469E-06-1.13464E-18-9.68782E-19
 -1       343 9.41325E-05-2.74104E-05-2.85798E-05-8.10098E-07-9.81951E-19-1.11774E-18
 -1       344 9.36689E-05-2.76170E-05-2.82999E-05 3.86545E-07-6.68560E-19-1.11142E-18
 -1       345 9.35653E-05-2.77422E-05-2.82053E-05 1.11080E-06-3.73664E-19-1.04169E-18
 -1       346 9.37115E-05-2.78287E-05-2.82315E-05 1.67529E-06 1.06670E-19-7.60357E-19
 -1       347 9.40432E-05-2.78592E-05-2.83597E-05 2.22088E-06-3.16583E-20-9.61581E-19
 -1       348 9.45123E-05-2.78032E-05-2.85821E-05 2.92426E-06-3.32422E-19-7.43208E-19
 -1       349 9.50830E-05-2.76054E-05-2.89069E-05 3.99028E-06-3.17034E-19-6.07129E-19
 -1       350 9.57096E-05-2.71765E-05-2.93523E-05 5.68283E-06-2.48838E-19-2.65977E-19
 -1       351 9.63003E-05-2.63864E-05-2.99351E-05 8.34731E-06-1.61145E-19-9.99740E-19
 -1       352 9.66668E-05-2.50912E-05-3.06361E-05 1.23993E-05-2.35459E-19-1.17237E-18
 -1       353 9.65594E-05-2.33801E-05-3.13121E-05 1.78985E-05 1.71101E-19-1.03607E-18
 -1       354 9.58280E-05-2.17078E-05-3.16784E-05 2.54600E-05 7.52241E-19-4.37054E-19
 -1       355 9.53407E-05-2.27668E-05-3.08895E-05 3.39383E-05 1.64782E-18 2.36494E-19
 -1       356 9.89260E-05-3.18607E-05-2.81875E-05 4.02227E-05 2.59444E-18 1.11771E-18
 -1       357 1.78721E-04-7.67360E-05-4.40735E-05 2.83824E-06 9.58524E-19-1.71302E-18
 -1       358 1.47963E-04-6.42685E-05-3.55132E-05-2.27560E-05 3.88799E-18-1.48177E-18
 -1       359 1.25025E-04-4.14910E-05-3.54075E-05-3.49958E-05 2.27772E-18-7.97482E-19
 -1       360 1.14548E-04-3.10226E-05-3.56204E-05-3.25347E-05-4.59098E-19-1.06739E-18
 -1       361 1.08822E-04-2.79102E-05-3.46131E-05-2.47590E-05-8.05611E-19-1.01155E-18
 -1       362 1.05051E-04-2.76619E-05-3.31254E-05-1.70155E-05 5.39993E-19 2.71944E-20
 -1       363 1.02200E-04-2.80125E-05-3.17574E-05-1.10676E-05 4.04958E-19-1.09774E-18
 -1       364 1.00045E-04-2.83225E-05-3.07074E-05-6.97633E-06-8.32686E-19-1.23967E-18
 -1       365 9.84782E-05-2.85008E-05-2.99680E-05-4.31689E-06-5.03389E-20-5.45595E-19
 -1       366 9.73821E-05-2.85831E-05-2.94704E-05-2.64121E-06 1.66666E-18 1.72619E-18
 -1       367 9.66393E-05-2.86133E-05-2.91445E-05-1.60476E-06-4.93400E-19 1.54243E-18
 -1       368 9.61634E-05-2.86171E-05-2.89426E-05-9.94582E-07-1.33963E-19 1.43167E-18
 -1       369 9.58308E-05-2.86117E-05-2.88046E-05-5.98940E-07-1.92909E-18-8.95117E-19
 -1       370 9.56153E-05-2.86032E-05-2.87173E-05-3.59853E-07-2.43575E-18-1.65826E-18
 -1       371 9.54762E-05-2.85948E-05-2.86622E-05-2.15765E-07 2.18136E-18-2.44878E-19
 -1       372 9.53868E-05-2.85877E-05-2.86274E-05-1.29064E-07 2.29634E-18-1.85069E-18
 -1       373 9.53295E-05-2.85821E-05-2.86056E-05-7.68809E-08 1.13983E-18-2.79635E-18
 -1       374 9.52929E-05-2.85779E-05-2.85918E-05-4.53979E-08-1.27316E-18-2.18855E-18
 -1       375 9.52697E-05-2.85750E-05-2.85833E-05-2.63083E-08-4.12034E-19-3.22614E-18
 -1       376 9.52557E-05-2.85731E-05-2.85782E-05-1.51039E-08-4.86705E-19-4.14013E-18
 -1       377 9.52465E-05-2.85717E-05-2.85749E-05-7.73040E-09 4.22144E-19-3.39979E-18
 -1       378 9.52411E-05-2.85710E-05-2.85729E-05-3.13377E-09 1.07230E-18-2.49166E-18
 -1       379 9.52382E-05-2.85706E-05-2.85718E-05-2.60582E-10 2.16155E-18-1.95425E-20
 -1       380 9.52368E-05-2.85706E-05-2.85712E-05 1.48342E-09-3.52404E-19-1.24074E-18
 -1       381 9.52364E-05-2.85708E-05-2.85710E-05 2.37921E-09 4.24326E-19 1.11861E-18
 -1       382 9.52367E-05-2.85713E-05-2.85709E-05 2.45773E-09-1.73796E-18 3.62447E-18
 -1       383 9.52371E-05-2.85718E-05-2.85708E-05 2.17495E-09-1.28817E-18 5.54803E-20
 -1       384 9.42263E-05-2.73100E-05-2.86544E-05 1.65338E-06 9.85386E-19 3.72144E-18
 -1       385 9.34783E-05-2.75734E-05-2.82336E-05 2.60395E-07 7.08017E-19 3.27758E-18
 -1       386 9.31380E-05-2.77335E-05-2.80258E-05-4.57091E-07 6.79864E-19 3.04299E-18
 -1       387 9.30676E-05-2.78816E-05-2.79356E-05-7.63724E-07 5.90379E-19 2.74425E-18
 -1       388 9.31395E-05-2.80278E-05-2.79059E-05-7.89182E-07 1.94547E-19 2.45860E-18
 -1       389 9.32550E-05-2.81687E-05-2.78965E-05-5.96671E-07 7.72090E-21 2.44339E-18
 -1       390 9.33337E-05-2.82947E-05-2.78775E-05-2.12400E-07 5.06176E-19 2.66414E-18
 -1       391 9.33043E-05-2.83901E-05-2.78251E-05 3.56562E-07 1.03360E-18 2.53449E-18
 -1       392 9.30984E-05-2.84304E-05-2.77205E-05 1.10622E-06 8.64044E-19 2.24867E-18
 -1       393 9.26489E-05-2.83794E-05-2.75503E-05 2.01746E-06-2.97883E-19 1.93228E-18
 -1       394 9.18943E-05-2.81902E-05-2.73079E-05 3.03541E-06-7.01385E-19 1.70634E-18
 -1       395 9.07922E-05-2.78124E-05-2.69963E-05 4.05050E-06-2.07914E-19 1.66237E-18
 -1       396 8.93415E-05-2.72097E-05-2.66307E-05 4.89036E-06 3.81936E-19 1.49613E-18
 -1       397 8.76108E-05-2.63860E-05-2.62386E-05 5.33554E-06 6.70357E-19 1.58722E-18
 -1       398 8.57610E-05-2.54138E-05-2.58586E-05 5.16905E-06 6.86215E-19 2.03311E-18
 -1       399 8.40435E-05-2.44440E-05-2.55343E-05 4.25541E-06-8.29650E-20 1.97123E-18
 -1       400 8.27577E-05-2.36803E-05-2.53076E-05 2.62176E-06 1.46667E-20 1.86171E-18
 -1       401 8.21670E-05-2.33142E-05-2.52100E-05 4.94578E-07 2.28515E-19 2.36048E-18
 -1       402 8.24071E-05-2.34468E-05-2.52566E-05-1.74532E-06 5.81541E-19 2.87779E-18
 -1       403 8.34336E-05-2.40428E-05-2.54433E-05-3.68251E-06 1.09268E-19 2.93040E-18
 -1       404 8.50414E-05-2.49484E-05-2.57477E-05-5.00379E-06-4.19304E-19 1.56542E-18
 -1       405 8.69423E-05-2.59577E-05-2.61338E-05-5.58339E-06 7.25725E-19-6.22445E-20
 -1       406 8.88577E-05-2.68891E-05-2.65591E-05-5.48461E-06 8.03687E-19 7.66814E-19
 -1       407 9.05840E-05-2.76323E-05-2.69831E-05-4.89493E-06 8.21409E-19 8.08069E-19
 -1       408 9.20125E-05-2.81543E-05-2.73731E-05-4.03989E-06 1.13291E-20 1.15302E-18
 -1       409 9.31159E-05-2.84768E-05-2.77082E-05-3.11652E-06-6.55600E-19 1.46604E-18
 -1       410 9.39198E-05-2.86474E-05-2.79792E-05-2.26116E-06-7.48139E-19 1.10810E-18
 -1       411 9.44754E-05-2.87172E-05-2.81866E-05-1.54643E-06-4.27082E-19 1.79095E-18
 -1       412 9.48400E-05-2.87286E-05-2.83370E-05-9.94649E-07 5.92425E-19 2.90650E-18
 -1       413 9.50663E-05-2.87111E-05-2.84405E-05-5.96192E-07-1.27173E-20 2.63816E-18
 -1       414 9.51973E-05-2.86832E-05-2.85078E-05-3.25606E-07 1.42920E-19 1.97124E-18
 -1       415 9.52660E-05-2.86548E-05-2.85488E-05-1.52940E-07 1.65288E-18 2.05723E-18
 -1       416 9.52959E-05-2.86303E-05-2.85717E-05-5.02789E-08 9.20700E-19 2.86694E-18
 -1       417 9.53033E-05-2.86110E-05-2.85828E-05 5.31229E-09 1.06676E-18 1.94685E-18
 -1       418 9.52988E-05-2.85968E-05-2.85867E-05 3.11328E-08 4.06353E-19 7.50742E-19
 -1       419 9.52890E-05-2.85868E-05-2.85867E-05 3.93795E-08 1.21459E-18-1.00651E-18
 -1       420 9.52777E-05-2.85801E-05-2.85847E-05 3.81561E-08-4.78392E-19-1.32943E-18
 -1       421 9.52671E-05-2.85757E-05-2.85820E-05 3.25385E-08 6.03644E-19-1.80522E-18
 -1       422 9.52582E-05-2.85730E-05-2.85793E-05 2.55022E-08 8.36697E-20-2.52213E-18
 -1       423 9.52511E-05-2.85714E-05-2.85770E-05 1.86458E-08 1.84391E-18-2.55884E-18
 -1       424 9.52458E-05-2.85706E-05-2.85751E-05 1.27152E-08 6.34583E-19-1.30079E-18
 -1       425 9.52422E-05-2.85702E-05-2.85737E-05 7.96184E-09-6.23698E-19-4.56323E-19
 -1       426 9.52398E-05-2.85702E-05-2.85727E-05 4.38546E-09-1.42158E-18-1.71417E-18
 -1       427 9.52383E-05-2.85703E-05-2.85720E-05 1.90338E-09 2.72260E-18-2.61769E-18
 -1       428 9.52376E-05-2.85706E-05-2.85716E-05 4.73440E-10 2.42871E-18-1.29872E-18
 -1       429 9.52361E-05-2.85673E-05-2.85723E-05 2.26271E-09-2.00792E-19-1.77012E-18
 -1       430 9.52370E-05-2.85689E-05-2.85721E-05 1.87718E-09 4.81433E-19-8.32274E-19
 -1       431 9.52352E-05-2.85659E-05-2.85726E-05 1.95811E-09-1.11249E-18-2.10981E-18
 -1       432 9.52345E-05-2.85648E-05-2.85727E-05 1.00093E-09-7.46732E-19 5.53972E-19
 -1       433 9.52342E-05-2.85643E-05-2.85728E-05-3.49618E-10 6.74919E-19 1.04613E-18
 -1       434 9.52343E-05-2.85644E-05-2.85728E-05-1.76466E-09-1.19155E-18 1.21258E-18
 -1       435 9.52349E-05-2.85652E-05-2.85727E-05-2.88473E-09-2.81794E-18 1.13154E-18
 -1       436 9.52358E-05-2.85665E-05-2.85725E-05-3.39761E-09-3.15549E-18 1.54515E-18
 -1       437 9.52368E-05-2.85681E-05-2.85723E-05-3.12659E-09-2.15871E-18 1.92749E-18
 -1       438 9.52377E-05-2.85697E-05-2.85720E-05-2.06122E-09-5.41400E-19 3.05172E-18
 -1       439 9.52383E-05-2.85710E-05-2.85717E-05-4.30577E-10 7.15785E-19 2.33048E-18
 -1       440 9.52384E-05-2.85717E-05-2.85714E-05 1.27355E-09 1.46225E-18-4.88130E-18
 -1       441 9.50106E-05-2.70967E-05-2.90686E-05 3.27146E-06 1.20776E-18 4.59003E-18
 -1       442 7.24612E-05-4.34411E-05-1.22967E-05 5.59465E-05-2.40981E-19 3.39840E-18
 -1       443 1.47368E-04-5.07570E-05-4.12987E-05 3.34031E-05 2.10943E-18 2.33993E-19
 -1       444 3.10080E-05-2.61511E-05-1.81567E-06 4.47368E-05 2.94026E-19 2.49229E-18
 -1       445 3.70658E-05-3.60414E-05-1.16093E-06-2.79613E-05 1.23667E-18 1.71768E-18
 -1       446 1.09148E-04-5.28208E-05-2.41998E-05 5.09118E-05 1.58808E-18 6.23946E-19
 -1       447 8.93943E-05-1.18864E-05-3.32818E-05-1.05895E-05-7.12146E-19-2.52405E-18
 -1       448 1.63656E-04-4.06138E-05-5.28531E-05 1.19518E-05 3.18273E-18-2.78981E-18
 -1       449 1.66745E-04-1.48952E-05-6.53432E-05-1.14386E-06 5.71218E-18-3.70482E-18
 -1       450 1.67469E-04-8.05799E-06-6.85363E-05-3.46725E-08 5.73282E-18-2.05612E-18
 -1       451 1.72654E-04-1.73403E-05-6.65460E-05-9.43674E-07 4.04628E-18-1.31957E-18
 -1       452 1.72002E-04-3.38426E-05-5.89838E-05-1.46959E-05 2.87721E-18-2.17105E-18
 -1       453 1.55294E-04-4.91856E-05-4.55482E-05-2.34399E-05 1.14627E-18-3.08680E-18
 -1       454 1.16244E-04-5.30850E-05-2.70588E-05-4.84670E-05 3.23778E-19-4.71093E-18
 -1       455 7.49553E-05-4.49944E-05-1.28546E-05-5.53672E-05-3.72271E-19-5.23705E-18
 -1       456 3.65798E-05-3.24054E-05-1.85498E-06-4.69165E-05 5.92923E-20-4.22140E-18
 -1       457 1.06163E-05-2.34362E-05 5.30894E-06-2.34282E-05 4.15258E-19-3.05366E-18
 -1       458 1.21460E-05-1.89762E-05 3.07343E-06 7.74226E-06 3.47945E-19-3.63292E-18
 -1       459 3.68223E-05-3.48547E-05-1.35230E-06 2.87560E-05-6.89273E-20-2.27502E-18
 -1       460 8.50526E-05-5.39569E-05-1.41460E-05 3.59022E-05-1.02004E-18-7.20031E-19
 -1       461 1.45490E-04-7.20410E-05-3.21498E-05 2.19985E-05-9.28560E-19-5.99276E-20
 -1       462 1.33063E-04-6.90782E-05-2.82400E-05-2.49781E-05 2.11674E-18-1.17420E-19
 -1       463 8.34104E-05-5.34142E-05-1.37069E-05-3.61766E-05 2.43797E-18 1.15805E-19
 -1       464 8.51152E-06-1.89020E-05 4.52504E-06 1.66989E-05 4.61051E-19 4.25751E-18
 -1       465 1.23492E-04-5.70798E-05-2.82885E-05 3.32513E-05 1.43149E-18 1.25467E-18
 -1       466 1.43642E-04-5.94721E-05-3.61250E-05-2.82476E-05-1.51116E-18-2.15903E-18
 -1       467 1.54423E-04-2.63418E-05-5.54503E-05-6.95548E-06 4.43549E-18-4.40129E-18
 -1       468 8.94628E-05-1.32943E-05-3.26627E-05-3.88506E-06 5.51560E-19-1.93183E-18
 -1       469 9.01966E-05-1.42708E-05-3.25609E-05-5.80847E-06 1.74008E-19-2.19208E-18
 -1       470 8.89526E-05-1.26256E-05-3.27292E-05 2.42225E-08 1.34947E-18-1.38013E-18
 -1       471 8.91011E-05-1.28294E-05-3.27058E-05 1.99124E-06 1.72280E-18-1.31741E-18
 -1       472 8.95156E-05-1.33893E-05-3.26446E-05 3.92944E-06 1.97312E-18-9.10893E-19
 -1       473 9.02624E-05-1.43972E-05-3.25346E-05 5.87572E-06 2.24001E-18-2.49631E-19
 -1       474 9.14372E-05-1.59980E-05-3.23542E-05 7.70076E-06 2.35317E-18 4.60890E-19
 -1       475 9.31852E-05-1.84354E-05-3.20560E-05 9.14833E-06 2.33999E-18 1.36799E-18
 -1       476 9.53424E-05-2.18967E-05-3.14883E-05 9.48000E-06 2.06886E-18 2.83395E-18
 -1       477 9.64031E-05-2.46347E-05-3.07465E-05 7.97265E-06 1.74774E-18 4.08331E-18
 -1       478 1.02877E-04-5.19135E-05-2.15577E-05 5.04148E-05-9.51112E-19 3.35501E-19
 -1       479 1.82490E-05-7.12787E-06-4.12879E-06-5.02364E-06 5.56686E-19 3.63261E-18
 -1       480 9.53587E-05-2.60916E-05-2.96778E-05-2.82764E-06-1.09790E-18-1.24294E-18
 -1       481 9.50219E-05-2.70218E-05-2.91391E-05-8.09491E-07-7.87612E-19-1.01320E-18
 -1       482 9.47560E-05-2.74638E-05-2.88373E-05 4.48483E-07-3.40329E-19-1.03452E-18
 -1       483 9.45759E-05-2.76675E-05-2.86735E-05 1.36447E-06-8.85885E-20-8.34036E-19
 -1       484 9.44532E-05-2.76530E-05-2.86270E-05 2.08191E-06-2.95746E-19-1.18901E-18
 -1       485 9.43086E-05-2.74053E-05-2.86704E-05 2.78836E-06 3.20253E-20-1.00819E-18
 -1       486 9.40211E-05-2.68490E-05-2.87842E-05 3.66140E-06-2.25978E-19-6.86754E-19
 -1       487 9.34016E-05-2.58444E-05-2.89469E-05 4.88585E-06-1.34479E-21-3.95754E-19
 -1       488 9.21428E-05-2.41790E-05-2.91179E-05 6.65976E-06-3.48463E-19-3.13087E-19
 -1       489 8.97474E-05-2.15793E-05-2.91995E-05 9.17403E-06-2.18022E-19-4.16436E-19
 -1       490 8.57631E-05-1.80286E-05-2.90056E-05 1.24046E-05 2.60314E-20-3.56469E-19
 -1       491 7.89433E-05-1.33222E-05-2.80605E-05 1.67771E-05 6.01448E-19 1.13915E-19
 -1       492 6.85578E-05-8.75089E-06-2.54096E-05 2.22589E-05 1.30475E-18-2.55440E-19
 -1       493 5.69275E-05-9.56955E-06-1.97319E-05 2.82527E-05 2.56942E-18-7.18946E-19
 -1       494 9.51618E-05-2.24635E-05-3.11626E-05-7.79190E-06-1.22185E-18-1.54545E-18
 -1       495 8.04110E-05-2.05618E-05-2.50958E-05-3.71468E-05-2.72136E-19-1.85913E-18
 -1       496 8.43977E-05-1.63855E-05-2.89678E-05-2.86874E-05-1.60423E-19-4.06986E-19
 -1       497 8.92976E-05-1.84262E-05-3.03034E-05-2.07709E-05-1.14769E-19 1.14621E-18
 -1       498 9.26625E-05-2.15502E-05-3.04380E-05-1.43657E-05 4.34156E-19 4.70003E-19
 -1       499 9.45125E-05-2.41184E-05-3.01418E-05-9.59825E-06-1.14894E-18-2.90531E-19
 -1       500 9.53649E-05-2.58770E-05-2.97615E-05-6.25622E-06-1.24718E-18-2.57359E-18
 -1       501 9.56730E-05-2.69862E-05-2.94247E-05-4.00734E-06 1.98134E-18-1.92081E-18
 -1       502 9.57239E-05-2.76569E-05-2.91636E-05-2.53720E-06 3.32492E-19-3.12358E-18
 -1       503 9.56717E-05-2.80361E-05-2.89818E-05-1.62924E-06-4.88912E-19-3.15826E-18
 -1       504 9.55861E-05-2.82715E-05-2.88461E-05-1.01599E-06-1.81423E-18-3.66041E-18
 -1       505 9.55018E-05-2.84059E-05-2.87536E-05-6.31502E-07-2.22771E-18-1.92807E-18
 -1       506 9.54305E-05-2.84816E-05-2.86914E-05-3.91626E-07 1.54761E-18-1.50818E-18
 -1       507 9.53747E-05-2.85235E-05-2.86499E-05-2.42521E-07 1.26153E-18-1.54426E-18
 -1       508 9.53328E-05-2.85462E-05-2.86224E-05-1.49951E-07 5.76631E-19-3.02334E-18
 -1       509 9.53022E-05-2.85583E-05-2.86043E-05-9.24100E-08 2.14924E-19-1.87669E-18
 -1       510 9.52805E-05-2.85645E-05-2.85925E-05-5.65146E-08-9.15726E-19-1.15331E-18
 -1       511 9.52659E-05-2.85674E-05-2.85850E-05-3.48623E-08-1.23687E-19-1.18652E-18
 -1       512 9.52552E-05-2.85689E-05-2.85798E-05-2.02551E-08-5.37347E-19-1.83329E-19
 -1       513 9.52480E-05-2.85696E-05-2.85764E-05-1.09426E-08 1.85309E-18-1.19039E-18
 -1       514 9.52434E-05-2.85700E-05-2.85743E-05-4.97413E-09 2.18307E-18-1.23368E-18
 -1       515 9.52404E-05-2.85703E-05-2.85729E-05-1.18288E-09 4.96272E-19-1.29267E-18
 -1       516 9.52387E-05-2.85706E-05-2.85720E-05 1.09268E-09 2.03644E-18-1.42970E-18
 -1       517 9.52378E-05-2.85712E-05-2.85714E-05 2.14388E-09 8.13897E-19-2.57689E-19
 -1       518 3.07441E-05-1.51517E-05-6.05887E-06-2.32659E-05 2.74121E-19 5.92923E-20
 -1       519 9.46981E-05-2.75389E-05-2.87793E-05 3.80538E-07 9.50155E-19 1.72341E-18
 -1       520 9.50606E-05-2.68632E-05-2.92233E-05 1.83266E-06 1.08521E-18 1.81536E-18
 -1       521 9.44128E-05-2.82984E-05-2.83348E-05-7.46340E-07 5.97341E-19 1.53533E-18
 -1       522 9.44404E-05-2.85790E-05-2.82271E-05-7.42949E-07 2.75904E-19 1.48331E-18
 -1       523 9.45276E-05-2.88473E-05-2.81501E-05-4.60016E-07 2.23960E-19 9.14561E-19
 -1       524 9.46340E-05-2.91153E-05-2.80814E-05 7.74690E-08 5.52128E-19 1.34779E-18
 -1       525 9.47154E-05-2.93742E-05-2.80058E-05 8.62274E-07 1.03852E-18 2.00382E-18
 -1       526 9.47172E-05-2.95889E-05-2.79150E-05 1.88518E-06 5.64165E-19 2.26058E-18
 -1       527 9.45685E-05-2.96923E-05-2.78071E-05 3.11033E-06-5.92592E-20 2.10886E-18
 -1       528 9.41836E-05-2.95868E-05-2.76871E-05 4.44646E-06 8.72179E-21 9.07126E-19
 -1       529 9.34772E-05-2.91617E-05-2.75658E-05 5.72118E-06 2.60221E-19 5.03803E-19
 -1       530 9.23985E-05-2.83345E-05-2.74566E-05 6.67358E-06 4.07669E-19 6.57350E-19
 -1       531 9.09829E-05-2.71122E-05-2.73719E-05 6.98663E-06 8.07985E-19 6.88675E-19
 -1       532 8.93974E-05-2.56482E-05-2.73180E-05 6.37468E-06 1.85138E-19 1.18570E-18
 -1       533 8.79432E-05-2.42497E-05-2.72926E-05 4.71296E-06-4.44098E-19 1.01185E-18
 -1       534 8.69805E-05-2.32970E-05-2.72874E-05 2.15229E-06 5.84358E-20 8.27133E-19
 -1       535 8.67867E-05-2.30873E-05-2.72940E-05-8.65324E-07 4.17548E-20 7.55306E-19
 -1       536 8.74252E-05-2.36877E-05-2.73109E-05-3.73633E-06-7.64129E-20 1.82331E-18
 -1       537 8.87148E-05-2.49014E-05-2.73445E-05-5.91647E-06 8.64870E-19 2.12253E-18
 -1       538 9.03213E-05-2.63708E-05-2.74050E-05-7.10425E-06 1.07735E-18 6.14445E-19
 -1       539 9.19025E-05-2.77371E-05-2.74988E-05-7.29655E-06 1.87269E-19 4.41699E-19
 -1       540 9.32224E-05-2.87672E-05-2.76246E-05-6.71604E-06 9.58374E-19 1.96497E-19
 -1       541 9.41863E-05-2.93886E-05-2.77725E-05-5.67725E-06 1.22638E-19 7.95607E-19
 -1       542 9.48102E-05-2.96500E-05-2.79284E-05-4.47246E-06-5.56700E-19 1.26072E-19
 -1       543 9.51664E-05-2.96567E-05-2.80782E-05-3.31274E-06-1.29427E-18 8.65588E-19
 -1       544 9.53401E-05-2.95189E-05-2.82114E-05-2.31756E-06-5.14525E-19 7.12724E-19
 -1       545 9.54039E-05-2.93235E-05-2.83220E-05-1.53177E-06 2.57201E-20-4.74804E-20
 -1       546 9.54096E-05-2.91264E-05-2.84085E-05-9.51501E-07 1.56918E-19 1.32894E-18
 -1       547 9.53894E-05-2.89562E-05-2.84723E-05-5.47584E-07 1.75083E-18 6.82987E-19
 -1       548 9.53611E-05-2.88232E-05-2.85169E-05-2.82046E-07 1.36604E-18-3.54180E-19
 -1       549 9.53334E-05-2.87265E-05-2.85462E-05-1.17886E-07 6.08443E-19-8.26407E-19
 -1       550 9.53096E-05-2.86604E-05-2.85641E-05-2.37595E-08 1.26473E-18 2.54995E-19
 -1       551 9.52905E-05-2.86177E-05-2.85741E-05 2.46146E-08 1.16714E-18 6.46365E-19
 -1       552 9.52757E-05-2.85917E-05-2.85789E-05 4.48223E-08 1.65654E-18 6.01066E-19
 -1       553 9.52646E-05-2.85768E-05-2.85805E-05 4.88988E-08-5.80250E-19 4.60832E-19
 -1       554 9.52563E-05-2.85691E-05-2.85802E-05 4.46522E-08 1.63193E-19 1.07049E-18
 -1       555 9.52502E-05-2.85658E-05-2.85790E-05 3.68705E-08 4.01040E-19 9.31819E-20
 -1       556 9.52458E-05-2.85648E-05-2.85775E-05 2.82964E-08 1.16684E-18-2.17528E-18
 -1       557 9.52426E-05-2.85652E-05-2.85760E-05 2.03579E-08 6.26574E-19-1.31076E-18
 -1       558 9.52405E-05-2.85661E-05-2.85747E-05 1.36874E-08-3.60523E-19-1.58666E-18
 -1       559 9.52390E-05-2.85671E-05-2.85736E-05 8.45719E-09-7.61907E-20-1.53355E-18
 -1       560 9.52381E-05-2.85682E-05-2.85728E-05 4.61287E-09 1.24004E-18-3.00869E-18
 -1       561 9.52330E-05-2.85618E-05-2.85734E-05 2.99685E-09 2.90349E-18 3.84345E-19
 -1       562 9.52345E-05-2.85639E-05-2.85731E-05 4.06534E-09 1.03984E-18-2.10892E-18
 -1       563 9.52363E-05-2.85663E-05-2.85728E-05 4.18337E-09 7.17035E-19-1.31915E-18
 -1       564 1.52206E-04-5.29243E-05-4.27882E-05 1.08270E-05 1.98671E-18-2.95583E-18
 -1       565 9.52320E-05-2.85604E-05-2.85736E-05 1.16563E-09 2.07366E-18 9.52482E-19
 -1       566 9.52317E-05-2.85598E-05-2.85737E-05-1.02513E-09-5.26592E-19-1.56300E-18
 -1       567 9.52322E-05-2.85601E-05-2.85738E-05-3.11493E-09-2.62725E-18-5.02430E-19
 -1       568 9.52335E-05-2.85613E-05-2.85738E-05-4.63354E-09-2.85254E-18 3.04222E-18
 -1       569 9.52351E-05-2.85632E-05-2.85737E-05-5.20863E-09-1.50624E-18 2.46092E-18
 -1       570 9.52370E-05-2.85656E-05-2.85734E-05-4.68014E-09 5.38328E-19 1.70616E-18
 -1       571 9.52385E-05-2.85679E-05-2.85731E-05-3.10542E-09-1.05290E-18 2.00203E-18
 -1       572 9.52392E-05-2.85698E-05-2.85726E-05-8.82811E-10-1.80393E-18-1.05360E-18
 -1       573 9.52375E-05-2.85716E-05-2.85711E-05 2.38906E-09-2.64080E-18 1.41549E-18
 -1       574 9.44858E-05-2.79731E-05-2.85044E-05-4.10088E-07 9.65951E-19 1.66656E-18
 -1       575 7.79315E-05-3.58482E-05-1.75039E-05-4.08068E-05 3.43154E-18-1.27743E-18
 -1       576 9.54749E-05-2.46900E-05-3.03286E-05-5.05502E-06-1.15334E-18-1.29320E-18
 -1       577 8.90665E-05-1.27717E-05-3.27157E-05-1.93475E-06 1.03673E-18-1.77778E-18
 -1       578 2.69778E-05-9.06533E-06-6.86955E-06 2.93278E-05-1.26287E-18 3.06552E-18
 -1       579 7.41972E-05-3.69018E-05-1.56152E-05 3.92160E-05 1.91101E-18 1.21496E-19
 -1       580 1.34664E-04-6.02001E-05-3.18926E-05 3.45625E-05 2.99373E-19-5.00358E-19
 -1       581 1.52226E-04-2.55710E-05-5.48803E-05 8.20561E-06 1.43032E-18 2.00588E-19
 -1       582 1.38165E-04-5.41693E-06-5.76894E-05-5.96414E-06 4.55328E-18-1.01506E-18
 -1       583 1.43236E-04-5.37864E-06-5.97619E-05 5.68764E-06 4.28652E-18 2.53766E-19
 -1       584 1.53224E-04-4.39489E-05-4.72755E-05 4.12280E-07 7.28581E-19 5.98111E-19
 -1       585 1.06755E-04-5.39443E-05-2.23429E-05-4.96386E-05-2.15978E-18-3.34917E-18
 -1       586 6.82536E-05-3.41941E-05-1.40395E-05-5.21552E-05-8.23581E-19-3.77290E-18
 -1       587 3.16049E-05-1.47294E-05-6.54422E-06-3.71961E-05 5.84982E-19-3.30671E-18
 -1       588 1.88027E-05-5.33200E-06-4.97926E-06-9.38451E-06 1.37248E-18-3.49507E-18
 -1       589 3.90399E-05-1.52694E-05-9.53671E-06 2.90683E-05 2.02033E-18-1.59793E-18
 -1       590 6.37868E-05-3.19278E-05-1.30974E-05 5.23862E-05-1.82922E-18 2.13352E-18
 -1       591 9.13552E-05-1.58434E-05-3.23870E-05-7.59626E-06-3.87645E-19-2.13950E-18
 -1       592 1.30382E-04-6.02753E-05-2.99899E-05-3.35843E-05-3.25472E-18-9.82611E-19
 -1       593 9.56146E-05-2.58608E-05-2.98720E-05 4.86883E-06 1.51606E-18 3.24082E-18
 -1       594 9.32614E-05-1.88694E-05-3.19003E-05-8.24052E-06-8.43929E-19-1.83815E-18
 -1       595 1.48381E-04-3.95301E-05-4.70700E-05-6.14360E-06 3.25144E-18-3.97523E-18
 -1       596 9.52333E-05-2.64158E-05-2.94811E-05 3.13184E-06 1.38229E-18 2.41965E-18
 -1       597 3.31769E-05-2.75188E-06-1.24083E-05 1.27323E-05 1.96475E-18-3.05885E-18
 -1       598 1.47928E-04-5.44038E-05-4.03156E-05-7.24772E-06-1.32651E-18 5.76776E-19
 -1       599 1.34855E-04-1.50390E-05-5.19310E-05-1.19230E-05 4.16348E-18-1.51809E-18
 -1       600 9.14750E-05-1.67758E-05-3.20196E-05 2.35072E-06 1.63148E-18-8.13674E-19
 -1       601 9.11878E-05-1.63379E-05-3.20839E-05 7.69948E-07 1.33052E-18-1.18551E-18
 -1       602 9.28671E-05-1.89779E-05-3.16729E-05 5.17504E-06 2.02632E-18 2.54337E-19
 -1       603 9.39919E-05-2.08950E-05-3.13332E-05 6.12494E-06 2.13427E-18 8.24835E-19
 -1       604 9.55368E-05-2.42254E-05-3.05501E-05 6.18683E-06 1.88130E-18 2.26099E-18
 -1       605 9.54518E-05-2.81992E-05-2.88225E-05-4.05134E-07 8.87484E-19 9.07403E-19
 -1       606 9.53982E-05-2.65898E-05-2.94886E-05-6.02620E-07-5.85832E-19-8.52088E-19
 -1       607 9.52386E-05-2.71915E-05-2.91627E-05 6.01226E-07-2.76526E-19-7.69750E-19
 -1       608 9.49566E-05-2.73764E-05-2.89626E-05 1.45492E-06-1.71573E-19-1.01627E-18
 -1       609 9.45163E-05-2.71879E-05-2.88546E-05 2.11639E-06 5.45186E-20-5.01904E-19
 -1       610 9.38047E-05-2.65864E-05-2.88071E-05 2.71449E-06-1.67625E-20-5.19774E-19
 -1       611 9.26210E-05-2.54584E-05-2.87829E-05 3.34520E-06-4.78206E-20-7.10412E-19
 -1       612 9.06413E-05-2.36167E-05-2.87234E-05 4.05784E-06-6.38839E-20-5.95765E-19
 -1       613 8.73622E-05-2.08120E-05-2.85186E-05 4.81471E-06-2.52409E-19-6.66714E-19
 -1       614 8.23812E-05-1.70249E-05-2.80053E-05 5.44669E-06-2.00747E-19-7.73345E-19
 -1       615 7.42579E-05-1.18024E-05-2.67365E-05 5.69315E-06 2.38279E-19-1.35686E-18
 -1       616 6.19622E-05-5.59676E-06-2.39937E-05 5.24522E-06 3.37677E-19-1.76114E-18
 -1       617 5.20016E-05-3.91443E-06-2.01119E-05-1.87501E-05 1.09134E-18-2.70071E-19
 -1       618 9.19296E-05-1.74628E-05-3.19201E-05-3.82968E-06 2.82871E-19-1.74333E-18
 -1       619 6.76221E-05-7.68323E-06-2.55612E-05-1.46731E-05 1.20160E-18 9.31571E-20
 -1       620 7.84599E-05-1.32508E-05-2.79110E-05-1.13519E-05-7.40509E-19-5.40793E-19
 -1       621 8.54885E-05-1.81835E-05-2.88315E-05-8.46802E-06-1.24074E-18-3.29058E-18
 -1       622 8.97831E-05-2.18480E-05-2.91073E-05-6.08147E-06-1.94539E-18-2.13716E-18
 -1       623 9.22937E-05-2.43450E-05-2.91157E-05-4.23168E-06 4.74981E-19-1.72520E-18
 -1       624 9.37129E-05-2.59661E-05-2.90310E-05-2.87584E-06 4.68997E-19-2.39115E-18
 -1       625 9.44636E-05-2.69484E-05-2.89329E-05-1.95782E-06-7.42715E-19-2.88729E-18
 -1       626 9.48905E-05-2.75968E-05-2.88389E-05-1.28932E-06-1.27009E-18-2.33037E-18
 -1       627 9.51084E-05-2.79915E-05-2.87636E-05-8.42451E-07-2.02936E-18-2.49783E-18
 -1       628 9.52129E-05-2.82293E-05-2.87068E-05-5.47407E-07 6.69283E-20-1.15286E-18
 -1       629 9.52579E-05-2.83709E-05-2.86655E-05-3.54515E-07 2.40669E-18-1.96355E-18
 -1       630 9.52728E-05-2.84546E-05-2.86362E-05-2.29099E-07 4.82506E-19-2.05812E-18
 -1       631 9.52737E-05-2.85035E-05-2.86157E-05-1.47713E-07 1.15173E-18-1.55305E-18
 -1       632 9.52688E-05-2.85318E-05-2.86015E-05-9.48770E-08-2.51645E-19-1.20751E-18
 -1       633 9.52625E-05-2.85475E-05-2.85921E-05-6.17710E-08 9.77674E-20 2.40745E-19
 -1       634 9.52561E-05-2.85572E-05-2.85852E-05-3.86604E-08 5.72906E-20 1.43122E-18
 -1       635 9.52507E-05-2.85627E-05-2.85805E-05-2.34382E-08 7.14763E-19 2.47400E-18
 -1       636 9.52464E-05-2.85659E-05-2.85773E-05-1.33728E-08 1.80542E-18 2.52685E-18
 -1       637 9.52431E-05-2.85679E-05-2.85751E-05-6.74199E-09 2.91339E-19 1.14247E-18
 -1       638 9.52408E-05-2.85692E-05-2.85735E-05-2.41823E-09-1.57489E-19-8.61883E-19
 -1       639 3.83751E-05-6.04783E-06-1.32091E-05-1.95448E-05 5.37681E-19 1.59713E-18
 -1       640 9.56188E-05-2.92053E-05-2.84633E-05-6.51687E-07 4.04056E-19 5.24567E-19
 -1       641 9.54943E-05-2.87334E-05-2.86120E-05-6.98471E-07 7.03699E-19 8.02934E-19
 -1       642 9.61377E-05-3.01632E-05-2.82756E-05 3.21398E-07 2.97664E-19 9.89550E-19
 -1       643 9.65051E-05-3.06630E-05-2.82189E-05 1.23898E-06 6.07313E-19 1.56175E-18
 -1       644 9.68811E-05-3.11101E-05-2.81887E-05 2.44373E-06 3.45687E-19 1.04437E-18
 -1       645 9.71655E-05-3.13802E-05-2.81948E-05 3.89752E-06 4.24222E-19 7.41354E-19
 -1       646 9.72116E-05-3.12930E-05-2.82516E-05 5.48436E-06 4.59074E-19 4.98615E-19
 -1       647 9.68512E-05-3.06500E-05-2.83723E-05 6.96979E-06 2.30808E-19 4.92468E-19
 -1       648 9.59608E-05-2.93200E-05-2.85599E-05 7.98716E-06 6.39650E-19 9.84699E-19
 -1       649 9.45612E-05-2.73608E-05-2.87987E-05 8.09210E-06 5.08587E-19 1.05404E-18
 -1       650 9.29017E-05-2.51140E-05-2.90499E-05 6.91374E-06-4.49659E-21 1.51405E-18
 -1       651 9.14471E-05-2.31780E-05-2.92562E-05 4.37147E-06 7.95519E-20 1.06638E-18
 -1       652 9.07077E-05-2.21937E-05-2.93612E-05 8.36044E-07-1.42025E-19 1.22734E-18
 -1       653 9.09712E-05-2.25180E-05-2.93354E-05-2.92686E-06-6.36418E-19 1.19111E-18
 -1       654 9.21324E-05-2.40200E-05-2.91890E-05-6.06138E-06-1.25194E-20 5.23848E-20
 -1       655 9.37615E-05-2.61634E-05-2.89688E-05-7.98229E-06 1.48346E-18 2.20247E-19
 -1       656 9.53457E-05-2.82966E-05-2.87341E-05-8.55270E-06 1.10592E-18 6.35875E-19
 -1       657 9.65150E-05-2.99323E-05-2.85350E-05-8.02450E-06 5.20958E-20 4.88978E-19
 -1       658 9.71425E-05-3.08805E-05-2.83985E-05-6.83104E-06 7.28614E-19 7.98011E-19
 -1       659 9.72948E-05-3.11991E-05-2.83276E-05-5.38543E-06 2.57928E-19 1.33189E-18
 -1       660 9.71265E-05-3.10693E-05-2.83112E-05-3.98145E-06-1.04658E-18-2.14514E-19
 -1       661 9.67974E-05-3.06922E-05-2.83317E-05-2.77984E-06-5.25949E-19-1.22576E-18
 -1       662 9.64282E-05-3.02290E-05-2.83718E-05-1.83674E-06-2.49814E-19-9.12362E-19
 -1       663 9.60908E-05-2.97831E-05-2.84181E-05-1.14407E-06-7.75263E-19-1.21936E-18
 -1       664 9.58169E-05-2.94063E-05-2.84621E-05-6.63317E-07 1.20444E-18-1.32929E-18
 -1       665 9.56121E-05-2.91148E-05-2.84991E-05-3.47011E-07 1.12278E-18-8.81302E-20
 -1       666 9.54685E-05-2.89041E-05-2.85277E-05-1.50351E-07 1.11904E-18 1.21425E-18
 -1       667 9.53731E-05-2.87607E-05-2.85483E-05-3.61654E-08 1.53074E-18-2.02960E-19
 -1       668 9.53129E-05-2.86682E-05-2.85620E-05 2.39622E-08 1.45907E-18-9.74649E-19
 -1       669 9.52766E-05-2.86122E-05-2.85705E-05 5.04887E-08 1.28661E-18-2.09816E-18
 -1       670 9.52558E-05-2.85805E-05-2.85751E-05 5.74217E-08 1.36556E-19-8.29006E-19
 -1       671 9.52446E-05-2.85644E-05-2.85772E-05 5.39132E-08 1.10997E-19-8.94634E-19
 -1       672 9.52390E-05-2.85577E-05-2.85777E-05 4.56556E-08 8.79882E-19-8.84200E-19
 -1       673 9.52366E-05-2.85562E-05-2.85773E-05 3.59901E-08 1.77477E-18-2.69104E-19
 -1       674 9.52358E-05-2.85573E-05-2.85765E-05 2.67228E-08 9.54890E-19 1.54734E-18
 -1       675 9.52357E-05-2.85596E-05-2.85755E-05 1.87137E-08 3.53375E-19 5.09504E-19
 -1       676 9.52359E-05-2.85621E-05-2.85745E-05 1.22851E-08 6.18936E-19-6.26503E-19
 -1       677 9.52361E-05-2.85643E-05-2.85736E-05 7.55708E-09-7.23510E-20-3.10629E-19
 -1       678 9.52318E-05-2.85592E-05-2.85740E-05 6.18060E-09 1.27189E-18-1.07956E-19
 -1       679 9.52285E-05-2.85547E-05-2.85745E-05 1.03756E-09 1.06115E-18-5.74222E-19
 -1       680 9.52339E-05-2.85616E-05-2.85738E-05 7.25488E-09 1.51107E-18-8.15240E-19
 -1       681 5.27631E-05-1.63857E-05-1.51262E-05 3.82277E-05-2.78676E-18 1.11533E-18
 -1       682 9.52296E-05-2.85564E-05-2.85742E-05 3.97099E-09 1.11252E-18 6.27249E-19
 -1       683 9.52299E-05-2.85550E-05-2.85749E-05-5.10475E-09-1.42034E-18 5.96781E-19
 -1       684 9.52321E-05-2.85570E-05-2.85750E-05-7.07475E-09-1.51699E-18 2.74641E-18
 -1       685 9.52350E-05-2.85601E-05-2.85750E-05-7.75251E-09-1.16666E-18 3.19478E-18
 -1       686 9.52378E-05-2.85636E-05-2.85747E-05-6.90336E-09-1.03390E-18 8.75525E-19
 -1       687 9.52399E-05-2.85669E-05-2.85741E-05-4.71868E-09-3.08008E-19 8.21750E-19
 -1       688 9.52387E-05-2.85709E-05-2.85719E-05 1.23766E-09 1.04691E-18-3.38487E-18
 -1       689 9.54671E-05-2.75078E-05-2.91247E-05 3.09999E-07 1.10113E-18 8.57749E-19
 -1       690 3.00666E-05-1.36261E-06-1.16926E-05 1.06790E-05-6.74106E-19 2.64513E-18
 -1       691 1.33005E-04-1.44396E-05-5.13547E-05 1.21494E-05 2.54300E-18 2.23506E-18
 -1       692 5.44848E-05-1.82121E-05-1.51128E-05-3.91384E-05-2.20282E-19-2.54332E-18
 -1       693 9.69714E-05-4.54518E-05-2.17639E-05-4.61389E-05-2.78883E-18-1.43072E-18
 -1       694 9.52286E-05-2.85542E-05-2.85747E-05-2.20664E-09 9.54435E-20-2.86036E-18
 -1       695 9.58345E-05-2.96732E-05-2.83554E-05-3.07592E-07-2.02646E-22 9.31445E-19
 -1       696 1.40187E-04-3.32141E-05-4.62764E-05 1.14611E-05-3.92917E-19 2.21065E-18
 -1       697 9.08220E-05-4.02894E-05-2.13363E-05 4.53527E-05-2.66487E-18 3.79683E-19
 -1       698 3.59321E-05-5.26653E-06-1.24898E-05-2.10569E-05 8.25341E-19-2.60886E-18
 -1       699 1.22815E-04-4.25363E-06-5.13632E-05 1.51325E-06 2.90813E-18 2.72433E-18
 -1       700 9.54759E-05-2.65066E-05-2.95561E-05 1.56911E-06 1.03351E-18 9.84947E-19
 -1       701 9.20294E-05-1.76344E-05-3.18896E-05 3.85472E-06 1.75754E-18-3.86421E-19
 -1       702 9.53739E-05-2.54066E-05-2.99844E-05-2.33771E-06-8.28926E-19-1.03797E-18
 -1       703 1.17166E-04-5.39268E-05-2.69969E-05-3.50306E-05-3.37057E-18-2.33202E-19
 -1       704 9.11607E-05-1.62965E-05-3.20901E-05-8.19239E-07 1.02246E-18-1.36817E-18
 -1       705 3.97451E-05-4.12571E-07-1.63244E-05-1.41835E-06 1.09005E-18-2.71572E-18
 -1       706 9.14016E-05-1.66586E-05-3.20383E-05-2.36785E-06 5.73254E-19-1.34419E-18
 -1       707 1.34696E-04-2.71256E-05-4.64531E-05-1.33493E-05 3.06438E-18-1.35061E-18
 -1       708 9.27715E-05-1.87802E-05-3.17142E-05-5.11128E-06-1.68076E-19-1.74581E-18
 -1       709 1.40566E-04-4.40524E-05-4.16060E-05 6.35605E-06-9.01720E-19 3.22542E-18
 -1       710 9.53549E-05-2.49482E-05-3.01688E-05 3.75517E-06 1.59927E-18 1.19584E-18
 -1       711 4.82153E-05-7.45228E-06-1.70801E-05 2.39088E-05-2.28443E-18 9.79276E-19
 -1       712 1.20662E-04-7.64109E-06-4.88522E-05-6.56005E-06 2.53763E-18 2.28978E-18
 -1       713 9.45219E-05-2.19641E-05-3.10957E-05-5.96059E-06-8.70962E-19-1.43597E-18
 -1       714 7.90191E-05-3.10852E-05-2.02769E-05-4.15310E-05-1.38932E-18-1.28367E-18
 -1       715 1.39120E-04-5.83694E-05-3.46899E-05-1.53083E-05-3.54515E-18 3.29747E-19
 -1       716 9.51148E-05-2.39896E-05-3.04803E-05-3.98306E-06-8.35180E-19-1.21091E-18
 -1       717 1.41191E-04-5.85006E-05-3.55283E-05 1.57595E-05 2.17972E-19-2.48384E-18
 -1       718 1.42295E-04-4.96982E-05-3.99128E-05 1.20622E-08 1.69469E-18-3.42569E-18
 -1       719 1.18499E-04-5.48064E-05-2.71860E-05 3.56143E-05-1.90158E-18-8.77450E-19
 -1       720 9.46309E-05-2.27179E-05-3.08234E-05 3.82465E-06 1.71010E-18 7.05293E-19
 -1       721 4.88533E-05-4.95387E-06-1.84067E-05-1.57255E-05 4.30866E-19-1.88364E-18
 -1       722 9.86025E-05-3.21875E-05-2.84640E-05 1.27118E-06 6.76900E-19 8.64698E-19
 -1       723 9.60406E-05-2.75968E-05-2.93330E-05 1.05496E-07 1.01811E-18 4.24601E-19
 -1       724 9.36070E-05-2.02236E-05-3.14510E-05-5.70701E-06-4.85007E-19-1.60802E-18
 -1       725 7.56148E-05-2.53514E-05-2.13829E-05 3.58222E-05-2.55844E-18 7.94623E-19
 -1       726 9.53944E-05-2.69218E-05-2.93454E-05 6.00708E-07-2.15144E-19-1.65255E-19
 -1       727 9.49689E-05-2.70401E-05-2.91124E-05 1.21662E-06 2.43460E-20-1.72944E-19
 -1       728 9.42141E-05-2.66812E-05-2.89428E-05 1.58965E-06-5.10055E-20-4.17533E-19
 -1       729 9.29977E-05-2.58028E-05-2.87979E-05 1.74772E-06-2.46750E-19-3.92706E-19
 -1       730 9.10924E-05-2.43063E-05-2.86229E-05 1.64525E-06-1.70174E-19-3.70993E-19
 -1       731 8.81554E-05-2.20581E-05-2.83275E-05 1.11469E-06-4.84920E-19-1.21549E-18
 -1       732 8.39828E-05-1.91194E-05-2.77996E-05-8.10613E-08-4.38936E-19-1.16926E-18
 -1       733 7.75619E-05-1.51956E-05-2.67217E-05-2.61993E-06-2.99053E-19-8.25118E-19
 -1       734 6.85797E-05-1.08660E-05-2.46974E-05-7.19640E-06-1.53447E-19-1.37598E-18
 -1       735 6.67725E-05-8.07170E-06-2.50878E-05-1.11585E-06 2.09875E-19-2.05132E-18
 -1       736 7.72611E-05-1.37168E-05-2.72173E-05-2.54036E-06-2.59580E-18-2.64819E-18
 -1       737 8.41807E-05-1.83604E-05-2.82058E-05-2.83500E-06-9.05858E-19-4.44083E-18
 -1       738 8.85872E-05-2.17917E-05-2.86257E-05-2.55061E-06 2.67744E-19-2.88858E-18
 -1       739 9.13194E-05-2.41788E-05-2.87740E-05-2.06186E-06 4.59467E-19-3.04227E-18
 -1       740 9.29162E-05-2.57146E-05-2.88001E-05-1.58583E-06 9.33010E-20-2.57271E-18
 -1       741 9.39306E-05-2.67814E-05-2.87779E-05-1.15536E-06-4.40049E-20-1.23865E-18
 -1       742 9.45218E-05-2.74619E-05-2.87398E-05-8.20723E-07-2.36624E-18-4.85285E-19
 -1       743 9.48597E-05-2.78897E-05-2.87013E-05-5.72766E-07-6.51204E-19-4.94342E-19
 -1       744 9.50483E-05-2.81553E-05-2.86684E-05-3.95068E-07 6.34113E-19-1.23776E-18
 -1       745 9.51505E-05-2.83185E-05-2.86422E-05-2.70314E-07 8.91337E-19-1.72430E-18
 -1       746 9.52037E-05-2.84180E-05-2.86224E-05-1.83799E-07 5.07622E-19-1.15877E-18
 -1       747 9.52298E-05-2.84783E-05-2.86078E-05-1.24253E-07 1.29893E-18-1.04979E-18
 -1       748 9.52409E-05-2.85132E-05-2.85976E-05-8.49533E-08 3.50776E-19-6.94813E-19
 -1       749 9.52451E-05-2.85356E-05-2.85898E-05-5.62051E-08-2.45622E-19-1.13789E-18
 -1       750 9.52456E-05-2.85492E-05-2.85842E-05-3.64569E-08 4.68183E-19-4.43100E-19
 -1       751 9.52445E-05-2.85574E-05-2.85802E-05-2.28776E-08 3.01445E-18-6.72770E-19
 -1       752 9.52429E-05-2.85624E-05-2.85773E-05-1.36050E-08 9.10714E-19-1.67251E-19
 -1       753 9.52412E-05-2.85649E-05-2.85756E-05-8.37549E-09 5.38716E-19 5.56588E-19
 -1       754 9.94928E-05-3.29134E-05-2.85345E-05 2.58343E-06 7.94042E-19 1.96325E-19
 -1       755 9.78087E-05-3.13868E-05-2.84668E-05 3.13134E-07 2.61799E-19 1.03437E-18
 -1       756 1.00324E-04-3.33538E-05-2.87017E-05 4.23549E-06 2.76013E-19 3.02215E-19
 -1       757 1.00846E-04-3.32041E-05-2.89898E-05 6.10229E-06-1.32820E-19 6.38104E-19
 -1       758 1.00764E-04-3.21384E-05-2.94111E-05 7.87300E-06-2.45094E-20 8.81835E-19
 -1       759 9.98587E-05-2.99759E-05-2.99488E-05 9.01629E-06 6.59233E-19 1.12237E-18
 -1       760 9.81778E-05-2.69062E-05-3.05432E-05 8.87772E-06 6.95911E-20 1.82353E-18
 -1       761 9.61785E-05-2.36359E-05-3.10881E-05 6.95804E-06-9.43855E-20 1.67086E-18
 -1       762 9.46450E-05-2.12519E-05-3.14536E-05 3.30129E-06-1.80150E-19 1.58664E-18
 -1       763 9.42913E-05-2.07058E-05-3.15360E-05-1.29417E-06 1.48658E-19 1.40844E-18
 -1       764 9.52842E-05-2.22147E-05-3.13148E-05-5.56758E-06 4.56622E-19 5.13982E-19
 -1       765 9.71271E-05-2.51249E-05-3.08567E-05-8.43482E-06 6.96635E-19 4.89992E-19
 -1       766 9.90200E-05-2.83581E-05-3.02812E-05-9.48492E-06 5.56912E-19 1.28365E-18
 -1       767 1.00310E-04-3.09728E-05-2.97143E-05-8.97465E-06 6.01229E-19 1.81324E-18
 -1       768 1.00747E-04-3.25192E-05-2.92407E-05-7.53876E-06-1.03035E-19 1.54111E-18
 -1       769 1.00450E-04-3.30376E-05-2.88915E-05-5.78644E-06 4.43127E-19 1.79959E-18
 -1       770 9.96936E-05-3.28092E-05-2.86652E-05-4.12842E-06 1.06961E-18 7.42114E-19
 -1       771 9.87561E-05-3.21679E-05-2.85382E-05-2.76546E-06 9.87176E-20-2.87033E-19
 -1       772 9.78407E-05-3.13850E-05-2.84813E-05-1.74456E-06-1.05387E-18 7.29939E-20
 -1       773 9.70580E-05-3.06333E-05-2.84679E-05-1.03012E-06-4.16741E-19 1.00344E-19
 -1       774 9.64463E-05-2.99981E-05-2.84779E-05-5.57554E-07 1.21027E-19-1.10138E-18
 -1       775 9.59999E-05-2.95058E-05-2.84976E-05-2.61358E-07 7.59554E-19-5.47265E-19
 -1       776 9.56926E-05-2.91487E-05-2.85188E-05-8.63489E-08 1.83996E-19-6.01260E-19
 -1       777 9.54918E-05-2.89040E-05-2.85376E-05 9.36449E-09 1.67542E-18-5.05619E-19
 -1       778 9.53674E-05-2.87452E-05-2.85524E-05 5.55129E-08 1.72562E-18-5.95240E-19
 -1       779 9.52945E-05-2.86477E-05-2.85629E-05 7.22110E-08 1.59125E-18 1.62144E-19
 -1       780 9.52547E-05-2.85918E-05-2.85698E-05 7.25404E-08 9.31358E-19 9.11417E-20
 -1       781 9.52352E-05-2.85627E-05-2.85739E-05 6.46897E-08-7.06893E-20-2.25368E-18
 -1       782 9.52271E-05-2.85499E-05-2.85760E-05 5.35689E-08-8.87374E-19-1.24044E-18
 -1       783 9.52253E-05-2.85464E-05-2.85767E-05 4.19610E-08-4.85698E-19 1.64657E-18
 -1       784 9.52263E-05-2.85478E-05-2.85765E-05 3.13269E-08-1.96161E-19 2.19527E-18
 -1       785 9.52285E-05-2.85513E-05-2.85759E-05 2.22740E-08 2.52594E-18 8.93980E-19
 -1       786 9.52308E-05-2.85555E-05-2.85751E-05 1.50547E-08 1.16663E-18 7.58625E-19
 -1       787 9.52325E-05-2.85587E-05-2.85745E-05 1.06746E-08 1.20334E-19 6.31097E-19
 -1       788 9.52310E-05-2.85525E-05-2.85765E-05-1.06934E-08-8.49685E-19 3.39634E-18
 -1       789 5.14222E-05-2.38446E-06-2.07139E-05 6.23126E-07 1.29571E-19 2.47837E-19
 -1       790 9.52354E-05-2.85570E-05-2.85764E-05-1.14420E-08-2.17057E-18 3.66448E-18
 -1       791 9.52272E-05-2.85492E-05-2.85763E-05-8.12543E-09-2.45950E-19 1.80876E-18
 -1       792 9.52387E-05-2.85611E-05-2.85761E-05-1.05239E-08-9.78036E-20 2.87294E-18
 -1       793 6.35184E-05-1.63052E-05-1.95256E-05-3.33324E-05 5.46522E-19-3.13487E-18
 -1       794 9.55395E-05-2.63005E-05-2.96739E-05-3.32415E-07-3.95912E-19-4.55296E-19
 -1       795 1.18403E-04-1.10439E-05-4.63176E-05 9.13686E-06 2.60865E-18 1.91040E-18
 -1       796 9.57973E-05-2.63913E-05-2.97454E-05 1.12087E-06 1.07000E-18 3.45764E-19
 -1       797 9.52248E-05-2.85475E-05-2.85760E-05-4.18765E-09 1.07080E-18-3.29753E-18
 -1       798 9.52239E-05-2.43339E-05-3.03784E-05 2.99125E-06 1.39921E-18 6.42524E-19
 -1       799 9.52240E-05-2.85477E-05-2.85756E-05 3.48051E-10 2.14815E-19-1.94563E-18
 -1       800 9.30981E-05-1.96764E-05-3.14677E-05 1.10634E-06 1.32985E-18-7.36863E-19
 -1       801 1.25513E-04-2.28963E-05-4.42691E-05 1.36792E-05 7.64010E-19 2.79631E-18
 -1       802 1.05271E-04-4.39136E-05-2.62130E-05 3.19445E-05-2.67432E-18 4.46696E-20
 -1       803 9.53594E-05-2.50551E-05-3.01302E-05-1.67207E-06-5.60482E-19-8.17906E-19
 -1       804 1.29180E-04-5.47896E-05-3.18595E-05 1.62198E-05-4.66020E-19-1.87565E-18
 -1       805 9.29402E-05-1.94197E-05-3.15106E-05-7.80802E-08 1.00949E-18-7.83085E-19
 -1       806 1.12980E-04-8.41851E-06-4.50652E-05 1.04114E-06 2.94049E-18 1.59668E-18
 -1       807 9.87646E-05-4.23863E-05-2.39940E-05-3.80310E-05-2.15071E-18-1.04562E-19
 -1       808 9.52296E-05-2.85554E-05-2.85746E-05 9.12614E-09 7.05730E-19 5.91512E-19
 -1       809 9.64254E-05-2.92273E-05-2.87993E-05-7.23623E-07 5.20152E-19 8.56419E-19
 -1       810 1.34569E-04-3.91620E-05-4.10609E-05-1.01077E-05 1.89011E-18-2.67723E-18
 -1       811 1.21341E-04-1.51882E-05-4.57728E-05-1.18487E-05 2.92878E-18 7.53092E-19
 -1       812 9.38453E-05-2.10695E-05-3.11909E-05-3.18005E-06-1.28466E-19-1.22932E-18
 -1       813 1.37468E-04-5.10560E-05-3.71423E-05-7.25728E-07-2.50574E-18 2.36007E-18
 -1       814 9.49543E-05-2.36476E-05-3.05604E-05-2.91477E-06-4.61546E-19-1.03341E-18
 -1       815 1.28776E-04-3.23783E-05-4.15015E-05 1.27779E-05-8.56820E-19 2.71122E-18
 -1       816 9.62190E-05-2.84939E-05-2.90251E-05-4.84635E-07 8.35425E-19 4.95970E-19
 -1       817 1.32226E-04-5.15242E-05-3.46900E-05 3.40696E-06 7.90537E-19-1.89549E-18
 -1       818 9.67296E-05-2.99106E-05-2.86368E-05-6.62718E-07 1.18632E-19 7.07466E-19
 -1       819 9.52249E-05-2.85494E-05-2.85752E-05 4.63147E-09 2.86860E-19 1.39107E-20
 -1       820 1.28086E-04-5.59178E-05-3.09273E-05-2.07550E-05-3.35429E-18-1.48125E-19
 -1       821 9.34514E-05-2.03061E-05-3.13498E-05 2.22623E-06 1.60368E-18-5.61248E-19
 -1       822 9.39870E-05-2.13249E-05-3.11430E-05 3.18525E-06 1.54361E-18 1.08284E-19
 -1       823 9.33110E-05-2.00931E-05-3.13803E-05-2.28627E-06 2.49509E-19-1.37052E-18
 -1       824 9.71814E-05-3.06194E-05-2.85268E-05-3.20851E-07 1.13417E-19 7.34762E-19
 -1       825 6.85303E-05-1.50994E-05-2.27719E-05-2.20082E-05-3.20925E-19-8.21754E-19
 -1       826 6.80760E-05-1.68843E-05-2.17740E-05 2.75044E-05-1.45079E-18 1.33394E-19
 -1       827 1.10223E-04-1.33100E-05-4.16461E-05 6.75890E-06 1.73439E-18 2.25333E-18
 -1       828 1.02455E-04-3.49473E-05-2.89322E-05 2.12907E-06 2.87512E-19 1.96712E-18
 -1       829 6.12921E-05-8.35329E-06-2.25625E-05 1.27743E-05-8.63163E-19-4.10811E-20
 -1       830 9.30117E-05-1.95548E-05-3.14830E-05-1.22866E-06 5.27668E-19-1.11741E-18
 -1       831 9.48875E-05-2.68623E-05-2.91538E-05 5.96738E-07 4.42502E-20-1.07982E-20
 -1       832 9.39420E-05-2.64388E-05-2.89301E-05 4.82274E-07-2.29846E-19 1.71162E-19
 -1       833 9.24932E-05-2.55261E-05-2.87004E-05-6.26246E-08-3.05918E-19-5.26747E-20
 -1       834 9.03870E-05-2.41179E-05-2.84011E-05-1.23538E-06-7.11508E-19-1.14928E-19
 -1       835 8.76132E-05-2.23614E-05-2.79658E-05-3.23608E-06-5.41736E-19 7.28572E-20
 -1       836 8.37573E-05-2.02816E-05-2.72052E-05-6.80191E-06-2.32941E-19-6.63734E-20
 -1       837 7.90488E-05-1.85015E-05-2.59330E-05-1.26507E-05-2.61655E-19-9.53036E-20
 -1       838 7.31389E-05-1.30963E-05-2.56989E-05 7.50702E-06-1.79223E-18-1.10936E-18
 -1       839 1.00900E-04-3.38726E-05-2.87265E-05 7.66076E-07 5.30274E-19 1.11231E-18
 -1       840 8.05534E-05-1.69646E-05-2.72478E-05 3.38136E-06-2.17072E-18-1.01335E-18
 -1       841 8.57311E-05-2.02971E-05-2.80436E-05 1.16371E-06 9.90650E-20-1.00023E-18
 -1       842 8.92167E-05-2.28780E-05-2.84316E-05 9.64599E-08 1.17143E-18-2.94906E-18
 -1       843 9.14161E-05-2.46841E-05-2.85995E-05-3.30749E-07 1.76180E-19-2.03432E-18
 -1       844 9.29149E-05-2.60233E-05-2.86680E-05-4.68523E-07 4.63665E-19-1.81068E-18
 -1       845 9.38516E-05-2.69263E-05-2.86823E-05-4.59759E-07 2.60360E-19-1.68728E-18
 -1       846 9.44262E-05-2.75215E-05-2.86734E-05-3.93736E-07-1.08360E-18-1.67678E-19
 -1       847 9.47725E-05-2.79070E-05-2.86566E-05-3.14602E-07-4.03293E-19-7.58684E-19
 -1       848 9.49775E-05-2.81533E-05-2.86389E-05-2.41168E-07 1.19240E-18-7.82010E-19
 -1       849 9.50965E-05-2.83089E-05-2.86232E-05-1.79824E-07 1.52588E-18-3.04776E-19
 -1       850 9.51641E-05-2.84065E-05-2.86104E-05-1.31415E-07 1.14926E-18 2.77270E-19
 -1       851 9.52003E-05-2.84651E-05-2.86008E-05-9.58668E-08 3.93602E-19 2.02483E-19
 -1       852 9.52210E-05-2.85041E-05-2.85929E-05-6.75495E-08 9.91441E-19-4.92349E-19
 -1       853 9.52316E-05-2.85285E-05-2.85871E-05-4.66489E-08 1.88507E-18 2.49654E-18
 -1       854 9.52367E-05-2.85438E-05-2.85827E-05-3.13718E-08 1.50812E-18 4.72141E-18
 -1       855 9.52387E-05-2.85535E-05-2.85794E-05-2.03709E-08 1.50592E-18 4.05627E-18
 -1       856 9.52388E-05-2.85577E-05-2.85776E-05-1.48083E-08 8.82443E-19 3.86472E-18
 -1       857 9.54304E-05-2.67961E-05-2.94148E-05 3.66382E-07-3.96623E-21-2.17501E-19
 -1       858 9.95536E-05-3.27057E-05-2.86493E-05-1.28853E-07 3.06542E-19 2.40903E-19
 -1       859 1.05068E-04-3.53150E-05-2.98942E-05 6.29535E-06-4.38248E-20 1.13719E-18
 -1       860 1.05214E-04-3.35780E-05-3.07027E-05 8.55746E-06 6.35261E-20 7.62001E-19
 -1       861 1.04085E-04-3.01651E-05-3.16806E-05 9.96783E-06-2.03264E-19 1.41214E-18
 -1       862 1.01805E-04-2.55123E-05-3.26970E-05 9.49806E-06-4.88850E-19 1.51491E-18
 -1       863 9.92906E-05-2.10508E-05-3.35322E-05 6.48461E-06 8.74265E-20 1.73796E-18
 -1       864 9.78392E-05-1.86348E-05-3.39483E-05 1.32520E-06-7.87393E-20 1.69736E-18
 -1       865 9.83264E-05-1.94444E-05-3.38024E-05-4.32782E-06 1.03712E-18 8.64793E-19
 -1       866 1.00418E-04-2.30319E-05-3.31683E-05-8.54517E-06 3.07229E-19 9.58556E-19
 -1       867 1.02906E-04-2.77243E-05-3.22178E-05-1.02993E-05 7.93249E-19 1.75133E-18
 -1       868 1.04628E-04-3.18315E-05-3.11958E-05-9.75560E-06 6.41396E-20 1.93423E-18
 -1       869 1.04987E-04-3.42883E-05-3.03025E-05-7.88388E-06 3.74595E-20 1.88846E-18
 -1       870 1.04235E-04-3.51626E-05-2.96029E-05-5.63736E-06 8.59333E-19 3.35540E-19
 -1       871 1.02781E-04-3.48460E-05-2.91156E-05-3.63152E-06 9.47443E-19-8.89811E-19
 -1       872 1.01103E-04-3.38855E-05-2.88077E-05-2.11790E-06 5.45538E-19 1.24847E-18
 -1       873 9.95215E-05-3.27122E-05-2.86328E-05-1.09917E-06-1.48879E-19 1.19659E-18
 -1       874 9.82036E-05-3.15961E-05-2.85462E-05-4.73541E-07-5.88869E-19-4.23189E-19
 -1       875 9.71911E-05-3.06606E-05-2.85131E-05-1.20714E-07 4.38513E-19-1.36385E-18
 -1       876 9.64610E-05-2.99397E-05-2.85091E-05 5.80129E-08-7.08397E-19-7.78212E-19
 -1       877 9.59623E-05-2.94188E-05-2.85187E-05 1.34110E-07 1.25438E-19-4.56410E-19
 -1       878 9.56384E-05-2.90623E-05-2.85326E-05 1.54316E-07 9.61544E-19-5.20735E-19
 -1       879 9.54382E-05-2.88305E-05-2.85462E-05 1.46782E-07 1.24744E-18-3.52577E-19
 -1       880 9.53213E-05-2.86876E-05-2.85573E-05 1.27439E-07 1.49097E-18-3.46046E-19
 -1       881 9.52579E-05-2.86049E-05-2.85655E-05 1.04749E-07 1.70271E-18-1.29515E-18
 -1       882 9.52270E-05-2.85612E-05-2.85710E-05 8.28628E-08 1.22673E-18-9.74746E-19
 -1       883 9.52148E-05-2.85415E-05-2.85743E-05 6.35627E-08-3.94476E-19-1.05843E-19
 -1       884 9.52127E-05-2.85355E-05-2.85759E-05 4.74058E-08-2.39145E-18-4.15436E-19
 -1       885 9.52152E-05-2.85368E-05-2.85765E-05 3.43216E-08-3.52698E-20-3.99939E-19
 -1       886 9.52196E-05-2.85416E-05-2.85763E-05 2.41149E-08-7.32749E-21-3.07035E-19
 -1       887 9.52240E-05-2.85474E-05-2.85757E-05 1.60993E-08 2.00795E-18 1.00161E-18
 -1       888 9.52302E-05-2.85475E-05-2.85783E-05-1.58995E-08-1.35045E-18 2.45719E-18
 -1       889 9.52243E-05-2.85424E-05-2.85780E-05-1.26466E-08 1.76482E-20 1.91551E-18
 -1       890 1.03979E-04-3.55927E-05-2.93081E-05 4.00992E-06 1.61998E-19 1.99165E-18
 -1       891 9.61119E-05-2.65084E-05-2.98312E-05 6.03928E-07 1.06568E-18-1.31006E-19
 -1       892 9.56108E-05-2.62046E-05-2.97455E-05-1.91858E-07-1.39456E-19-5.33087E-19
 -1       893 9.44065E-05-2.21505E-05-3.09691E-05-4.22720E-06-5.35990E-19-1.32939E-18
 -1       894 8.98946E-05-3.08077E-05-2.52495E-05 2.78773E-05-1.73001E-18 1.38119E-19
 -1       895 9.52202E-05-2.85395E-05-2.85774E-05-7.34220E-09 1.57521E-19-1.19371E-18
 -1       896 9.52183E-05-2.85391E-05-2.85768E-05-1.06074E-09 2.06371E-19-3.20743E-18
 -1       897 1.12186E-04-1.06616E-05-4.36868E-05-5.55923E-06 1.95794E-18 9.22886E-19
 -1       898 1.16110E-04-4.72857E-05-2.95042E-05 1.72513E-05-7.14463E-19-7.47579E-19
 -1       899 9.54123E-05-2.50115E-05-3.01730E-05-1.10585E-06-1.95902E-19-7.22355E-19
 -1       900 1.15386E-04-2.06156E-05-4.07530E-05 1.21685E-05 9.50225E-19 3.17011E-18
 -1       901 8.60482E-05-2.95141E-05-2.40771E-05-3.00494E-05-9.47694E-19-1.34735E-20
 -1       902 9.85061E-05-3.16159E-05-2.86673E-05-6.53887E-07 3.68191E-19-2.10639E-19
 -1       903 1.14003E-04-4.94597E-05-2.76044E-05-2.87411E-05-2.79270E-18-4.84956E-19
 -1       904 1.30923E-04-5.28894E-05-3.34705E-05-7.52951E-06-2.64914E-18 1.00564E-18
 -1       905 1.04510E-04-3.94982E-05-2.78283E-05 2.03009E-05-2.25278E-18 1.18563E-18
 -1       906 1.23614E-04-2.58167E-05-4.20601E-05-1.38297E-05 1.45651E-18-4.12426E-19
 -1       907 1.29908E-04-4.07306E-05-3.83241E-05 8.95303E-06-8.97852E-19 2.18744E-18
 -1       908 9.68533E-05-2.88564E-05-2.91416E-05-6.68231E-07 4.80416E-19 3.35019E-19
 -1       909 1.21308E-04-4.85214E-05-3.12092E-05 9.09692E-06-3.38425E-19-1.21006E-18
 -1       910 9.52188E-05-2.85410E-05-2.85762E-05 5.17999E-09 9.23040E-19-3.05046E-19
 -1       911 9.52348E-05-2.85526E-05-2.85781E-05-1.60586E-08-7.22897E-19 5.50064E-18
 -1       912 9.65194E-05-2.78205E-05-2.94423E-05-1.86038E-07 6.99415E-19 1.18867E-19
 -1       913 9.46086E-05-2.25497E-05-3.08826E-05 1.02233E-06 1.43546E-18-4.55251E-19
 -1       914 9.53310E-05-2.43866E-05-3.04042E-05 1.95491E-06 1.37953E-18 2.90709E-19
 -1       915 9.72298E-05-2.97565E-05-2.89172E-05-8.96272E-07 3.84904E-19 3.59485E-19
 -1       916 8.79081E-05-2.64707E-05-2.63020E-05-1.88715E-05-5.37858E-19 4.61972E-19
 -1       917 1.18546E-04-2.73036E-05-3.91349E-05 1.30270E-05-4.92973E-19 2.03879E-18
 -1       918 9.49546E-05-2.36507E-05-3.05558E-05-1.95816E-06-2.73634E-19-1.02615E-18
 -1       919 9.43948E-05-2.21292E-05-3.09705E-05 2.45847E-07 1.12636E-18-5.98898E-19
 -1       920 1.07691E-04-1.15818E-05-4.12914E-05 1.36063E-06 2.02882E-18 1.65723E-18
 -1       921 9.47431E-05-2.29517E-05-3.07667E-05 2.57854E-06 1.51900E-18 2.87562E-19
 -1       922 9.46556E-05-2.28441E-05-3.07763E-05-1.58396E-06 9.63740E-20-1.03159E-18
 -1       923 9.44403E-05-2.23203E-05-3.09043E-05-1.00987E-06 3.46244E-19-7.63371E-19
 -1       924 1.13307E-04-1.81433E-05-4.08820E-05-1.12251E-05 2.04819E-18 7.85190E-19
 -1       925 1.25029E-04-4.06847E-05-3.61854E-05-8.55625E-06 1.44324E-18-2.02862E-18
 -1       926 9.55337E-05-2.69325E-05-2.94006E-05-1.25587E-07 3.40407E-19-1.63077E-21
 -1       927 9.41010E-05-2.67528E-05-2.88635E-05-1.04249E-06-2.32849E-19 3.31573E-19
 -1       928 9.28687E-05-2.61686E-05-2.85853E-05-2.35514E-06-2.20805E-19 6.92906E-19
 -1       929 9.14033E-05-2.54756E-05-2.82537E-05-4.42435E-06-2.07933E-19 1.20171E-18
 -1       930 8.96769E-05-2.48857E-05-2.77655E-05-7.85127E-06-3.56115E-19 1.20569E-18
 -1       931 8.83802E-05-2.50378E-05-2.71392E-05-1.25038E-05-4.58632E-19 8.74586E-19
 -1       932 9.77517E-05-3.06462E-05-2.87595E-05-8.93859E-07 2.43691E-19 4.44926E-19
 -1       933 1.03251E-04-3.56409E-05-2.89761E-05-4.76981E-07 1.83524E-19 1.00403E-18
 -1       934 8.17321E-05-1.96482E-05-2.65974E-05 1.14389E-05-1.39557E-18 1.20759E-18
 -1       935 8.54962E-05-2.12122E-05-2.75489E-05 6.53854E-06-2.15261E-18 1.42547E-18
 -1       936 8.85013E-05-2.29597E-05-2.80908E-05 3.55658E-06-6.51884E-19 3.71880E-19
 -1       937 9.06368E-05-2.44358E-05-2.83722E-05 1.89363E-06 2.28104E-19-1.68405E-18
 -1       938 9.22393E-05-2.56803E-05-2.85255E-05 8.89299E-07 1.41830E-18-6.33997E-19
 -1       939 9.33226E-05-2.65989E-05-2.85960E-05 3.48919E-07 9.76940E-19-1.47236E-19
 -1       940 9.40367E-05-2.72497E-05-2.86230E-05 7.59949E-08-1.91683E-19-5.54397E-19
 -1       941 9.44968E-05-2.76971E-05-2.86285E-05-4.95639E-08-6.08222E-21-8.95156E-19
 -1       942 9.47877E-05-2.79980E-05-2.86242E-05-9.70774E-08 5.89117E-20 6.58269E-19
 -1       943 9.49684E-05-2.81970E-05-2.86163E-05-1.05517E-07 1.18885E-18 1.19998E-18
 -1       944 9.50789E-05-2.83272E-05-2.86079E-05-9.62435E-08 1.27620E-18 1.36616E-18
 -1       945 9.51431E-05-2.84084E-05-2.86006E-05-8.11097E-08 5.27511E-19-2.10859E-20
 -1       946 9.51839E-05-2.84646E-05-2.85940E-05-6.40386E-08 1.58429E-18 2.08145E-20
 -1       947 9.52078E-05-2.85010E-05-2.85886E-05-4.84631E-08 2.56811E-18 7.65133E-19
 -1       948 9.52216E-05-2.85248E-05-2.85844E-05-3.53734E-08 2.52240E-18 1.67007E-18
 -1       949 9.52295E-05-2.85405E-05-2.85810E-05-2.48226E-08 2.32255E-18 4.82078E-18
 -1       950 1.08656E-04-2.95718E-05-3.39172E-05 1.11601E-05-5.95319E-19 3.16975E-18
 -1       951 1.01217E-04-3.40103E-05-2.88030E-05-1.17650E-06 8.31280E-21 6.30987E-19
 -1       952 7.64936E-05-1.86532E-05-2.47054E-05 1.97999E-05-1.72804E-18-4.29179E-19
 -1       953 1.10412E-04-3.50060E-05-3.23132E-05 9.21556E-06-2.36522E-19 3.15536E-18
 -1       954 1.09990E-04-3.77304E-05-3.09683E-05 6.04638E-06 2.14486E-19 2.65239E-18
 -1       955 1.05593E-04-2.28749E-05-3.54679E-05 9.95879E-06-4.90134E-19 2.75535E-18
 -1       956 1.02537E-04-1.72167E-05-3.65688E-05 5.15752E-06 2.39705E-19 2.52152E-18
 -1       957 1.01726E-04-1.59294E-05-3.67840E-05-1.89169E-06 1.17713E-18 1.65960E-18
 -1       958 1.03721E-04-1.96220E-05-3.60521E-05-8.27364E-06 7.42514E-19 1.42695E-18
 -1       959 1.07001E-04-2.61158E-05-3.46662E-05-1.11935E-05 8.18454E-20 1.23134E-18
 -1       960 1.09485E-04-3.22137E-05-3.31228E-05-1.08785E-05-9.17955E-20 1.45849E-18
 -1       961 1.10045E-04-3.61642E-05-3.16542E-05-8.14851E-06 4.82670E-19 7.56361E-19
 -1       962 1.08744E-04-3.77057E-05-3.04445E-05-4.88077E-06 1.80638E-18-2.94995E-19
 -1       963 1.06336E-04-3.72160E-05-2.96240E-05-2.32923E-06 1.22922E-18-1.51078E-19
 -1       964 1.03699E-04-3.57985E-05-2.91006E-05-6.60002E-07 1.65316E-19-1.88906E-19
 -1       965 1.01300E-04-3.41145E-05-2.87936E-05 2.63728E-07-2.82523E-19 1.35961E-19
 -1       966 9.93596E-05-3.25573E-05-2.86297E-05 6.54704E-07-2.18196E-19 4.48705E-19
 -1       967 9.79089E-05-3.12863E-05-2.85525E-05 7.43339E-07 4.50792E-19-7.63699E-19
 -1       968 9.68843E-05-3.03259E-05-2.85250E-05 6.79752E-07-9.13553E-19-6.60655E-19
 -1       969 9.61977E-05-2.96446E-05-2.85227E-05 5.58359E-07-1.72210E-19-4.44983E-19
 -1       970 9.57585E-05-2.91854E-05-2.85313E-05 4.30593E-07 4.17988E-19-1.06886E-19
 -1       971 9.54906E-05-2.88902E-05-2.85430E-05 3.18799E-07 1.46324E-18-4.20128E-19
 -1       972 9.53361E-05-2.87100E-05-2.85541E-05 2.29679E-07 1.55422E-18-1.73113E-21
 -1       973 9.52534E-05-2.86067E-05-2.85629E-05 1.62427E-07 1.75703E-18 1.73844E-18
 -1       974 9.52141E-05-2.85525E-05-2.85692E-05 1.13384E-07 1.40838E-18 1.84062E-18
 -1       975 9.51995E-05-2.85284E-05-2.85733E-05 7.83511E-08 1.02214E-18 8.58715E-19
 -1       976 9.51980E-05-2.85216E-05-2.85756E-05 5.36063E-08-1.05174E-18-6.73600E-19
 -1       977 9.52027E-05-2.85239E-05-2.85766E-05 3.62552E-08-1.57382E-18 3.10554E-19
 -1       978 9.52093E-05-2.85302E-05-2.85768E-05 2.40623E-08 2.36414E-19 5.71599E-19
 -1       979 9.52164E-05-2.85382E-05-2.85764E-05 1.53412E-08 8.92030E-19-6.19497E-19
 -1       980 9.52211E-05-2.85341E-05-2.85801E-05-1.93754E-08 1.83154E-18 1.85703E-18
 -1       981 1.08133E-04-3.81628E-05-2.99848E-05 3.06973E-06 2.67678E-19 1.55663E-18
 -1       982 9.89930E-05-3.78664E-05-2.61530E-05-2.72876E-05-1.11123E-18 1.79214E-19
 -1       983 9.49877E-05-2.70371E-05-2.91217E-05-3.56064E-07 1.32601E-19 4.19085E-19
 -1       984 1.05672E-04-3.71996E-05-2.93460E-05 8.80743E-07-2.53163E-20 1.15566E-18
 -1       985 9.52145E-05-2.85294E-05-2.85793E-05-1.21822E-08 7.83324E-19 1.42211E-18
 -1       986 9.52112E-05-2.85284E-05-2.85783E-05-3.46458E-09 1.34906E-18-4.19489E-18
 -1       987 9.43719E-05-2.21192E-05-3.09647E-05-4.25007E-07 6.95606E-19-4.62056E-19
 -1       988 9.55448E-05-2.52266E-05-3.01360E-05-7.19283E-07 3.39130E-20-6.50364E-19
 -1       989 9.46260E-05-2.26343E-05-3.08544E-05 1.80347E-06 1.57715E-18-3.83257E-19
 -1       990 9.57293E-05-2.63578E-05-2.97309E-05-2.60608E-07 2.02343E-19-3.53926E-19
 -1       991 9.64183E-05-2.67903E-05-2.98410E-05 7.86994E-08 8.58486E-19-1.06520E-19
 -1       992 9.96760E-05-3.25499E-05-2.87684E-05-1.44061E-06-1.81887E-19 2.74183E-19
 -1       993 1.22946E-04-5.18631E-05-3.04618E-05-1.70176E-05-2.87408E-18-2.33298E-20
 -1       994 1.20626E-04-4.40294E-05-3.28343E-05-2.51763E-06 8.92461E-19-2.86917E-18
 -1       995 1.11440E-04-4.28097E-05-2.93943E-05 1.15505E-05-1.13740E-18-1.19338E-18
 -1       996 1.28033E-04-4.60986E-05-3.51474E-05 3.45103E-06-1.72707E-18 1.32543E-18
 -1       997 1.20679E-04-3.40812E-05-3.71386E-05 1.17092E-05-8.75506E-19 2.52238E-18
 -1       998 9.68999E-05-2.81228E-05-2.94761E-05-5.29005E-07 6.64959E-19-2.07026E-19
 -1       999 8.85172E-05-2.65609E-05-2.65394E-05 1.84914E-05-6.58922E-19 7.89900E-20
 -1      1000 9.52107E-05-2.85302E-05-2.85774E-05 5.09884E-09 8.35255E-19-1.43963E-18
 -1      1001 9.73359E-05-2.92263E-05-2.91898E-05-9.69663E-07 5.27527E-19-1.18837E-19
 -1      1002 1.07038E-04-1.90556E-05-3.77871E-05 9.28219E-06 3.66871E-20 3.21149E-18
 -1      1003 9.55084E-05-2.44110E-05-3.04691E-05 2.02020E-07 9.85344E-19-4.66467E-19
 -1      1004 1.07069E-04-1.42300E-05-3.98794E-05-5.64245E-06 1.68791E-18 1.69207E-18
 -1      1005 9.52865E-05-2.40589E-05-3.05251E-05 1.38358E-06 1.51034E-18-3.74791E-19
 -1      1006 9.53821E-05-2.41638E-05-3.05191E-05 7.54380E-07 1.19709E-18-2.82433E-19
 -1      1007 1.09489E-04-2.33374E-05-3.69760E-05 1.12415E-05-8.59085E-20 5.04864E-18
 -1      1008 9.59798E-05-2.67924E-05-2.96520E-05-5.28216E-07 4.61025E-19-2.24830E-19
 -1      1009 1.17878E-04-3.22549E-05-3.68027E-05-1.18726E-05 4.80987E-19-4.18256E-20
 -1      1010 9.44378E-05-2.78662E-05-2.85294E-05-4.41682E-06 9.58720E-20 8.02293E-19
 -1      1011 9.41302E-05-2.82675E-05-2.82266E-05-7.14827E-06-4.32565E-19 7.39372E-19
 -1      1012 8.92048E-05-2.51965E-05-2.74341E-05 1.15288E-05-8.34576E-19 1.34425E-18
 -1      1013 1.09645E-04-4.39739E-05-2.81441E-05-2.11943E-05-1.54273E-18 6.29220E-20
 -1      1014 9.01134E-05-2.49857E-05-2.79203E-05 7.24213E-06-1.45129E-18 2.86863E-18
 -1      1015 9.13163E-05-2.54685E-05-2.82191E-05 4.45176E-06-1.23798E-18 3.27636E-18
 -1      1016 9.24046E-05-2.61244E-05-2.84060E-05 2.57713E-06-1.90079E-19 1.96028E-18
 -1      1017 9.32666E-05-2.67407E-05-2.85111E-05 1.44207E-06 1.01738E-18-7.50196E-19
 -1      1018 9.39051E-05-2.72509E-05-2.85661E-05 7.65625E-07 1.32320E-18-6.61882E-19
 -1      1019 9.43559E-05-2.76416E-05-2.85919E-05 3.74869E-07 9.91247E-21 5.79241E-19
 -1      1020 9.46639E-05-2.79269E-05-2.86016E-05 1.57769E-07 7.85200E-19 6.80645E-19
 -1      1021 9.48692E-05-2.81289E-05-2.86030E-05 4.34867E-08 1.16533E-18 9.46760E-19
 -1      1022 9.50035E-05-2.82689E-05-2.86005E-05-1.17711E-08 1.21667E-18 4.03982E-19
 -1      1023 9.50868E-05-2.83610E-05-2.85968E-05-3.36831E-08 2.59944E-19 1.12705E-18
 -1      1024 9.51436E-05-2.84278E-05-2.85925E-05-3.96621E-08-5.07133E-19 1.24267E-18
 -1      1025 9.51795E-05-2.84731E-05-2.85885E-05-3.70823E-08 1.65563E-18 1.98045E-19
 -1      1026 9.52021E-05-2.85039E-05-2.85849E-05-3.11415E-08 3.03917E-18 2.27566E-18
 -1      1027 9.52134E-05-2.85212E-05-2.85824E-05-2.50048E-08 3.82059E-18 3.38121E-18
 -1      1028 1.09027E-04-3.96947E-05-2.97134E-05-1.42884E-06-5.51436E-20 1.21296E-18
 -1      1029 9.57879E-05-2.56996E-05-3.00376E-05-5.65877E-07 3.20094E-19-2.46902E-19
 -1      1030 1.02556E-04-3.51475E-05-2.88895E-05-3.00704E-06-6.86630E-19 2.29645E-19
 -1      1031 1.12822E-04-4.12775E-05-3.06607E-05 1.10869E-06-9.16493E-19 1.73244E-18
 -1      1032 1.15669E-04-4.05432E-05-3.21998E-05 5.12889E-06-9.44534E-19 3.00574E-18
 -1      1033 1.10316E-04-4.00040E-05-3.01269E-05 1.03650E-07 1.31499E-18-7.96165E-19
 -1      1034 1.06383E-04-3.78867E-05-2.93560E-05 1.88311E-06 4.39323E-19-7.82239E-19
 -1      1035 1.02931E-04-3.54636E-05-2.89139E-05 2.52378E-06-1.38752E-19-7.10096E-19
 -1      1036 1.00286E-04-3.33618E-05-2.86813E-05 2.47365E-06 1.85235E-19-8.20720E-19
 -1      1037 9.83929E-05-3.17265E-05-2.85712E-05 2.10882E-06 6.76521E-19-1.97107E-18
 -1      1038 9.71075E-05-3.05376E-05-2.85299E-05 1.64570E-06 1.06899E-19-1.20865E-18
 -1      1039 9.62817E-05-2.97290E-05-2.85225E-05 1.20805E-06-7.92226E-19-2.62554E-18
 -1      1040 9.57719E-05-2.92028E-05-2.85296E-05 8.49270E-07 1.73477E-19-1.89200E-18
 -1      1041 9.54722E-05-2.88759E-05-2.85413E-05 5.77218E-07 7.54024E-19-2.65025E-18
 -1      1042 9.53063E-05-2.86831E-05-2.85528E-05 3.81909E-07-8.54795E-19-1.21160E-19
 -1      1043 9.52221E-05-2.85770E-05-2.85622E-05 2.47217E-07-2.44007E-20 1.45573E-18
 -1      1044 9.51857E-05-2.85246E-05-2.85690E-05 1.57177E-07 1.47769E-18 3.11029E-18
 -1      1045 9.51757E-05-2.85041E-05-2.85735E-05 9.84034E-08 2.37653E-18 2.62537E-18
 -1      1046 9.51790E-05-2.85013E-05-2.85762E-05 6.07756E-08 7.94453E-19 3.39932E-18
 -1      1047 9.51877E-05-2.85072E-05-2.85774E-05 3.70112E-08-6.20521E-19 9.62001E-19
 -1      1048 9.51980E-05-2.85169E-05-2.85776E-05 2.20145E-08 6.61496E-20-8.61291E-19
 -1      1049 9.53177E-05-2.42918E-05-3.04413E-05-7.70120E-07 1.78714E-19-3.45389E-19
 -1      1050 1.05432E-04-3.73971E-05-2.91579E-05-2.70720E-06-3.84624E-19 9.72031E-19
 -1      1051 1.03350E-04-3.71230E-05-2.83732E-05 1.35458E-05-8.21199E-19 9.88095E-19
 -1      1052 9.54760E-05-2.76885E-05-2.90517E-05-1.45058E-06 2.47147E-19-3.05255E-19
 -1      1053 9.66310E-05-2.71144E-05-2.97922E-05-3.73950E-07 7.81093E-19-2.84786E-20
 -1      1054 9.58487E-05-2.74117E-05-2.93303E-05-7.96756E-07 2.38329E-19-4.46123E-19
 -1      1055 9.53929E-05-2.42209E-05-3.05029E-05-2.11975E-07 7.76159E-19-1.33279E-19
 -1      1056 9.52052E-05-2.85162E-05-2.85810E-05-1.43926E-08 2.52714E-18 2.18468E-18
 -1      1057 9.52012E-05-2.85158E-05-2.85795E-05-2.28770E-09 2.06844E-18-3.14880E-18
 -1      1058 9.49637E-05-2.77758E-05-2.87946E-05-2.59924E-06 4.51275E-20 2.39922E-19
 -1      1059 1.00866E-04-3.64521E-05-2.76049E-05-1.84151E-05-5.94287E-19 5.37853E-19
 -1      1060 9.85897E-05-3.13123E-05-2.88331E-05-1.43892E-06 3.20181E-19 1.18517E-19
 -1      1061 1.22562E-04-4.84161E-05-3.18050E-05-5.64355E-06-2.34787E-18 6.52237E-19
 -1      1062 9.70475E-05-3.22656E-05-2.77719E-05-1.40609E-05-8.04733E-19 5.31903E-19
 -1      1063 9.78542E-05-3.02433E-05-2.89761E-05-1.27028E-06 3.16648E-19-3.66331E-20
 -1      1064 9.49117E-05-2.96418E-05-2.79732E-05-1.03194E-05-8.36690E-19 6.87404E-19
 -1      1065 1.21000E-04-3.97136E-05-3.48515E-05 8.29703E-06-1.07172E-18 2.91701E-18
 -1      1066 1.07713E-04-3.95352E-05-2.92286E-05 7.48968E-06-9.97075E-20 1.36982E-18
 -1      1067 1.12947E-04-4.23074E-05-3.02662E-05 3.41688E-06 7.24605E-19-3.16584E-19
 -1      1068 1.13994E-04-4.08264E-05-3.13694E-05-3.09039E-06 1.50549E-18-8.22387E-19
 -1      1069 9.71252E-05-2.84148E-05-2.94480E-05-8.96016E-07 2.29629E-19 1.05489E-19
 -1      1070 9.61484E-05-2.58904E-05-3.01120E-05-7.31958E-08 1.02104E-18-1.73703E-19
 -1      1071 9.60154E-05-2.56370E-05-3.01628E-05-3.13994E-07 5.40051E-19-4.15930E-20
 -1      1072 9.91501E-05-3.31009E-05-2.82986E-05 1.02298E-05-1.25212E-19 7.98929E-19
 -1      1073 1.00478E-04-3.32579E-05-2.88080E-05-2.79870E-06-2.48201E-19-1.63220E-19
 -1      1074 1.14745E-04-4.53270E-05-2.97188E-05-1.17140E-05-1.60072E-18-2.24050E-20
 -1      1075 9.70144E-05-3.03713E-05-2.85638E-05-5.67191E-06-2.67658E-20-2.11344E-20
 -1      1076 1.19985E-04-4.47383E-05-3.22570E-05 9.21636E-07-1.61975E-18 8.87952E-19
 -1      1077 9.75889E-05-2.95076E-05-2.91788E-05-1.38970E-06 2.50501E-19 3.19478E-19
 -1      1078 9.66934E-05-3.06819E-05-2.82962E-05 7.48660E-06 3.61515E-19 1.56708E-18
 -1      1079 9.65104E-05-2.68427E-05-2.98565E-05-5.32102E-07 4.96738E-19 3.51254E-19
 -1      1080 9.36058E-05-2.74547E-05-2.83505E-05 4.06545E-06-1.99750E-18 2.50144E-18
 -1      1081 9.38719E-05-2.74775E-05-2.84544E-05 2.52605E-06-4.38204E-19 3.01372E-18
 -1      1082 9.41787E-05-2.76353E-05-2.85185E-05 1.51346E-06 7.27337E-19 2.65231E-18
 -1      1083 9.44560E-05-2.78256E-05-2.85559E-05 8.72979E-07 6.72914E-19 1.62577E-18
 -1      1084 9.46790E-05-2.80014E-05-2.85761E-05 4.80104E-07-1.75866E-19 1.79292E-18
 -1      1085 9.48470E-05-2.81468E-05-2.85858E-05 2.46944E-07 2.07950E-19 1.63616E-18
 -1      1086 9.49688E-05-2.82600E-05-2.85895E-05 1.13803E-07 1.18566E-18 7.60230E-19
 -1      1087 9.50513E-05-2.83416E-05-2.85899E-05 4.39854E-08 1.12868E-18-8.31774E-20
 -1      1088 9.51123E-05-2.84056E-05-2.85886E-05 5.98979E-09 4.66201E-19-4.08636E-19
 -1      1089 9.51541E-05-2.84522E-05-2.85865E-05-1.10843E-08 5.51517E-19 2.26911E-18
 -1      1090 9.51824E-05-2.84859E-05-2.85842E-05-1.67559E-08 4.11246E-18 3.44583E-18
 -1      1091 9.51953E-05-2.85026E-05-2.85825E-05-1.58483E-08 3.83699E-18 2.42922E-18
 -1      1092 9.61614E-05-2.64286E-05-2.98857E-05-6.03957E-07 9.80282E-20 3.42453E-19
 -1      1093 1.12235E-04-4.25352E-05-2.98606E-05-5.52034E-06-7.19680E-19 2.80902E-19
 -1      1094 9.83661E-05-3.17845E-05-2.85367E-05 4.00249E-06 8.06682E-19 4.30789E-19
 -1      1095 9.69183E-05-3.04097E-05-2.85030E-05 2.95192E-06 1.63134E-19 7.98580E-20
 -1      1096 9.60695E-05-2.95530E-05-2.85068E-05 2.06471E-06 2.57311E-19-4.24901E-20
 -1      1097 9.55812E-05-2.90302E-05-2.85217E-05 1.38936E-06-9.86636E-19-3.56805E-19
 -1      1098 9.53200E-05-2.87305E-05-2.85383E-05 9.04177E-07 6.11809E-19 2.53994E-19
 -1      1099 9.51925E-05-2.85697E-05-2.85526E-05 5.70859E-07-2.33271E-20-6.25196E-20
 -1      1100 9.51405E-05-2.84924E-05-2.85634E-05 3.50120E-07-8.92932E-19-2.14121E-18
 -1      1101 9.51287E-05-2.84633E-05-2.85708E-05 2.08500E-07-1.24047E-18-3.35698E-19
 -1      1102 9.51364E-05-2.84603E-05-2.85755E-05 1.20286E-07 7.87542E-19 1.37614E-18
 -1      1103 9.51521E-05-2.84700E-05-2.85780E-05 6.69438E-08 1.88958E-18 3.30337E-18
 -1      1104 9.51695E-05-2.84850E-05-2.85791E-05 3.55658E-08 1.30198E-18 1.32315E-18
 -1      1105 9.51853E-05-2.84989E-05-2.85799E-05 1.08145E-08 1.52607E-18-6.69397E-19
 -1      1106 1.02746E-04-3.56445E-05-2.87649E-05 6.63410E-06-6.78368E-19 1.25918E-18
 -1      1107 9.63843E-05-2.74847E-05-2.95283E-05-9.07955E-07 7.85008E-20-4.84838E-20
 -1      1108 9.51884E-05-2.84986E-05-2.85813E-05-3.25765E-09 3.50017E-18-6.68707E-19
 -1      1109 9.64413E-05-2.82411E-05-2.92292E-05-1.48115E-06 4.97490E-19 1.59493E-19
 -1      1110 9.58986E-05-2.55867E-05-3.01334E-05-5.18214E-07 4.16115E-19 3.16255E-19
 -1      1111 9.90819E-05-3.17652E-05-2.88497E-05-2.37246E-06 3.55939E-20 6.66532E-20
 -1      1112 9.81819E-05-3.05644E-05-2.89789E-05-1.88007E-06 2.24101E-19 1.84752E-19
 -1      1113 9.65205E-05-2.94248E-05-2.87561E-05-3.77424E-06 3.56960E-19 3.46609E-19
 -1      1114 1.07086E-04-3.90077E-05-2.91750E-05-6.34566E-06-7.10098E-19 3.81636E-20
 -1      1115 9.83417E-05-3.19540E-05-2.84554E-05-7.65510E-06-3.81325E-19 1.73661E-19
 -1      1116 9.36105E-05-2.77904E-05-2.82027E-05 6.23033E-06-1.07177E-18 2.90856E-18
 -1      1117 9.64177E-05-2.88016E-05-2.89784E-05-2.39460E-06 4.61630E-19 2.59613E-19
 -1      1118 1.04602E-04-3.79723E-05-2.85556E-05-1.20566E-05-7.56056E-19-2.16092E-19
 -1      1119 1.00685E-04-3.38427E-05-2.86541E-05 5.10862E-06-2.41899E-20 4.40637E-19
 -1      1120 1.03223E-04-3.59109E-05-2.88467E-05-5.84449E-06-8.54721E-19-2.96991E-19
 -1      1121 1.00617E-04-3.35286E-05-2.87500E-05-4.83204E-06-6.10083E-19 1.67543E-20
 -1      1122 9.63405E-05-2.66029E-05-2.98855E-05-5.87200E-07 3.10910E-19-1.41524E-20
 -1      1123 9.51316E-05-2.87579E-05-2.84460E-05 3.24703E-06-7.96747E-19 4.06336E-18
 -1      1124 9.58799E-05-2.96003E-05-2.84029E-05 4.70343E-06-8.13700E-19 1.77946E-18
 -1      1125 9.49027E-05-2.84149E-05-2.84947E-05 2.09502E-06-5.50047E-19 4.13133E-18
 -1      1126 9.48518E-05-2.82823E-05-2.85298E-05 1.30841E-06-2.47812E-19 3.72452E-18
 -1      1127 9.48809E-05-2.82566E-05-2.85534E-05 7.90050E-07 1.07904E-18 2.93949E-18
 -1      1128 9.49393E-05-2.82805E-05-2.85681E-05 4.59660E-07 1.83520E-20 3.45326E-18
 -1      1129 9.50019E-05-2.83231E-05-2.85767E-05 2.55913E-07-7.51082E-20 2.64188E-18
 -1      1130 9.50558E-05-2.83669E-05-2.85810E-05 1.38741E-07-8.76904E-19 5.82727E-19
 -1      1131 9.51028E-05-2.84095E-05-2.85828E-05 6.67336E-08-3.45271E-19-6.17576E-19
 -1      1132 9.51399E-05-2.84461E-05-2.85831E-05 2.72161E-08 2.26544E-18 7.92281E-19
 -1      1133 1.00668E-04-3.44132E-05-2.84001E-05-1.01915E-05-9.98414E-19 1.37613E-19
 -1      1134 9.68838E-05-2.80490E-05-2.95010E-05-1.02923E-06 3.97379E-19 7.22597E-19
 -1      1135 9.51675E-05-2.84750E-05-2.85825E-05 6.56218E-09 2.21642E-18 1.94626E-18
 -1      1136 9.73626E-05-2.94254E-05-2.91147E-05-1.93498E-06 5.14951E-19 3.18044E-19
 -1      1137 9.89925E-05-3.18105E-05-2.87918E-05-3.71361E-06 1.54567E-20-7.52842E-20
 -1      1138 9.78580E-05-3.03860E-05-2.89166E-05-2.80324E-06 3.06514E-19 1.93215E-19
 -1      1139 1.16645E-04 2.57002E-10-4.17733E-05-4.15304E-05-2.81215E-19 4.93100E-18
 -1      1140 8.86284E-05 7.15662E-11-3.72470E-05-2.40817E-05-1.28855E-19-1.14532E-18
 -1      1141 8.41040E-05 4.14638E-11-3.57785E-05-1.78214E-05-7.77153E-20-3.29309E-18
 -1      1142 8.23674E-05 3.20542E-11-3.50863E-05-1.37784E-05-3.21343E-20-4.05729E-18
 -1      1143 8.15608E-05 2.72849E-11-3.47498E-05-1.04736E-05-5.65130E-21-4.19208E-18
 -1      1144 8.11441E-05 2.44882E-11-3.45802E-05-7.58945E-06 6.45201E-21-4.08605E-18
 -1      1145 8.09219E-05 2.27901E-11-3.44920E-05-4.94437E-06 1.65337E-20-3.80630E-18
 -1      1146 8.08091E-05 2.18768E-11-3.44485E-05-2.41663E-06 3.40616E-20-3.45649E-18
 -1      1147 8.07732E-05 2.16112E-11-3.44346E-05 4.70256E-08 4.06063E-20-3.08276E-18
 -1      1148 8.08044E-05 2.19494E-11-3.44460E-05 2.51469E-06 4.69127E-20-2.65341E-18
 -1      1149 8.09132E-05 2.29347E-11-3.44874E-05 5.05446E-06 5.97985E-20-2.12098E-18
 -1      1150 8.11350E-05 2.46890E-11-3.45742E-05 7.71979E-06 7.43801E-20-1.35819E-18
 -1      1151 8.15524E-05 2.75995E-11-3.47446E-05 1.06333E-05 9.41265E-20-2.65585E-19
 -1      1152 8.23682E-05 3.25146E-11-3.50857E-05 1.39811E-05 9.87058E-20 1.20029E-18
 -1      1153 8.40904E-05 4.19659E-11-3.57918E-05 1.80734E-05 1.11332E-19 3.56818E-18
 -1      1154 8.83618E-05 6.68360E-11-3.73261E-05 2.39636E-05 7.94093E-20 7.42668E-18
 -1      1155 1.06609E-04 1.63998E-10-4.06330E-05 3.61570E-05 4.19281E-20 1.37788E-17
 -1      1156 1.31260E-04-2.57001E-05-4.04065E-05-2.70180E-05-1.13947E-18 8.79135E-18
 -1      1157 9.82068E-05-2.90436E-05-3.18488E-05-9.18396E-07-4.14834E-19 6.31738E-18
 -1      1158 9.03380E-05-2.70608E-05-2.80014E-05 3.88384E-07-1.69446E-19 2.97780E-18
 -1      1159 8.83377E-05-2.66001E-05-2.66875E-05 2.53623E-07-8.25592E-20 6.89220E-19
 -1      1160 8.79733E-05-2.64734E-05-2.64180E-05 1.66584E-07-5.18162E-20-8.28107E-19
 -1      1161 8.83842E-05-2.65674E-05-2.65164E-05 1.16746E-07 1.33176E-20-2.08616E-18
 -1      1162 8.91855E-05-2.67872E-05-2.67561E-05 8.47640E-08-4.83313E-20-2.91357E-18
 -1      1163 9.01844E-05-2.70792E-05-2.70580E-05 6.34686E-08 1.10400E-20-3.10112E-18
 -1      1164 9.13510E-05-2.74263E-05-2.74156E-05 4.82523E-08-4.33960E-20-3.49236E-18
 -1      1165 9.27674E-05-2.78545E-05-2.78551E-05 3.93291E-08-2.05866E-19-4.47947E-18
 -1      1166 9.45574E-05-2.84003E-05-2.84203E-05 4.03368E-08 2.88851E-20-4.76962E-18
 -1      1167 9.70266E-05-2.91549E-05-2.92131E-05 5.94060E-08 1.82178E-20-4.96663E-18
 -1      1168 1.00716E-04-3.02790E-05-3.04139E-05 1.14868E-07-9.58504E-20-5.54944E-18
 -1      1169 1.06536E-04-3.20414E-05-3.23205E-05 2.44913E-07 2.23564E-19-4.95588E-18
 -1      1170 1.15934E-04-3.48591E-05-3.53785E-05 5.25975E-07 1.79333E-20-3.99334E-18
 -1      1171 1.30522E-04-3.92691E-05-3.99664E-05 1.04535E-06-1.23892E-19-4.29001E-18
 -1      1172 1.52640E-04-4.59619E-05-4.64578E-05 1.86994E-06-1.95215E-20-4.86747E-18
 -1      1173 1.83153E-04-5.53514E-05-5.42316E-05 2.69060E-06 1.89464E-19-4.10324E-18
 -1      1174 2.12238E-04-6.43496E-05-6.01055E-05 1.64683E-06-1.18320E-20-1.91154E-18
 -1      1175 2.15648E-04-6.49567E-05-6.00768E-05-4.63697E-06-3.27828E-20-4.85350E-19
 -1      1176 1.72005E-04-4.90655E-05-5.38663E-05-1.27443E-05-9.96323E-20-1.54075E-18
 -1      1177 1.06574E-04-2.63900E-05-4.61983E-05-1.08685E-05-2.28911E-19-5.84876E-18
 -1      1178 7.37747E-05-1.60789E-05-4.28045E-05-1.44523E-07-1.07785E-19-9.59900E-18
 -1      1179 1.03975E-04-2.65726E-05-4.56949E-05 8.31405E-06-2.75603E-19-1.41548E-17
 -1      1180 1.66705E-04-4.82699E-05-5.27615E-05 8.72412E-06 1.44472E-19-1.37245E-17
 -1      1181 2.12852E-04-6.43692E-05-5.94391E-05 3.89839E-06 3.78379E-19-1.22218E-17
 -1      1182 2.17664E-04-6.64113E-05-6.09978E-05-2.94293E-07 1.09903E-19-6.93731E-18
 -1      1183 1.93387E-04-5.87986E-05-5.65172E-05-1.46906E-06 1.80021E-19-4.82301E-18
 -1      1184 1.62276E-04-4.87842E-05-4.90800E-05-1.38113E-06 2.10097E-19-2.41044E-18
 -1      1185 1.37700E-04-4.12102E-05-4.21182E-05-9.38263E-07-2.27018E-19-5.24483E-18
 -1      1186 1.20725E-04-3.61152E-05-3.68717E-05-5.31812E-07-1.21496E-20-6.84816E-18
 -1      1187 1.10221E-04-3.30072E-05-3.34780E-05-2.84006E-07 1.95489E-19-4.95917E-18
 -1      1188 1.03946E-04-3.11574E-05-3.14195E-05-1.46300E-07-1.51376E-19-3.01925E-18
 -1      1189 1.00262E-04-3.00693E-05-3.02092E-05-7.34398E-08-2.11926E-19-8.37914E-18
 -1      1190 9.81188E-05-2.94335E-05-2.95075E-05-3.58767E-08 1.30533E-19-7.54323E-18
 -1      1191 9.68782E-05-2.90636E-05-2.91030E-05-1.67597E-08-9.14754E-20-7.98833E-18
 -1      1192 9.61756E-05-2.88549E-05-2.88749E-05-5.92451E-09 4.65305E-19-3.63940E-18
 -1      1193 9.57681E-05-2.87316E-05-2.87430E-05-3.00606E-09-2.10134E-19-4.55268E-18
 -1      1194 9.55267E-05-2.86590E-05-2.86649E-05-7.98320E-10-2.70068E-20-7.15227E-18
 -1      1195 9.53894E-05-2.86176E-05-2.86206E-05 1.31194E-10 1.16967E-19-7.81963E-18
 -1      1196 9.53120E-05-2.85941E-05-2.85956E-05 4.61744E-10 1.14365E-19-1.66029E-18
 -1      1197 9.52688E-05-2.85810E-05-2.85817E-05 5.23446E-10-2.23643E-19-1.05714E-18
 -1      1198 9.52453E-05-2.85739E-05-2.85742E-05 4.78289E-10 3.96279E-19-3.17208E-18
 -1      1199 9.52331E-05-2.85701E-05-2.85702E-05 3.98527E-10 1.68952E-19-4.06484E-18
 -1      1200 9.52275E-05-2.85684E-05-2.85684E-05 3.48336E-10 1.90617E-19-4.63559E-18
 -1      1201 9.52255E-05-2.85677E-05-2.85678E-05 2.65565E-10-1.36804E-19-4.11502E-18
 -1      1202 9.52258E-05-2.85678E-05-2.85678E-05 2.16447E-10-4.07817E-19-6.48549E-18
 -1      1203 9.52274E-05-2.85683E-05-2.85683E-05 1.85674E-10 9.09022E-21-4.76612E-18
 -1      1204 9.52299E-05-2.85690E-05-2.85690E-05 1.70929E-10 4.67980E-20-2.53077E-18
 -1      1205 9.52328E-05-2.85698E-05-2.85698E-05 1.69584E-10 5.25946E-20-6.45713E-18
 -1      1206 9.52355E-05-2.85707E-05-2.85705E-05 1.63578E-10 9.79870E-19-9.37255E-19
 -1      1207 9.52370E-05-2.85711E-05-2.85710E-05-5.45479E-11-1.07007E-18 3.27910E-18
 -1      1208 1.31026E-04-3.77275E-05-3.86585E-05 1.21663E-05-2.68059E-19 1.85555E-17
 -1      1209 9.65920E-05-2.82014E-05-3.13393E-05 7.99767E-07-1.11438E-20 1.74130E-17
 -1      1210 9.04449E-05-2.69568E-05-2.78926E-05 1.18534E-07 2.31214E-20 1.55416E-17
 -1      1211 8.84488E-05-2.65390E-05-2.67115E-05 5.96947E-09 3.45580E-20 1.43073E-17
 -1      1212 8.80866E-05-2.64593E-05-2.64603E-05-2.93268E-08 1.87836E-20 1.34114E-17
 -1      1213 8.84625E-05-2.65626E-05-2.65453E-05-3.85806E-08-1.44260E-20 1.24657E-17
 -1      1214 8.91647E-05-2.67625E-05-2.67486E-05-4.16915E-08 8.95506E-20 1.19810E-17
 -1      1215 8.99705E-05-2.69965E-05-2.69847E-05-4.29325E-08 3.79728E-20 1.18211E-17
 -1      1216 9.07376E-05-2.72208E-05-2.72085E-05-4.38431E-08-2.67472E-20 1.17151E-17
 -1      1217 9.13571E-05-2.74018E-05-2.73870E-05-4.48149E-08 2.42459E-20 1.08326E-17
 -1      1218 9.17299E-05-2.75091E-05-2.74900E-05-4.55274E-08 5.11334E-20 1.04567E-17
 -1      1219 9.17534E-05-2.75122E-05-2.74865E-05-4.48828E-08 5.76330E-20 9.52621E-18
 -1      1220 9.13182E-05-2.73787E-05-2.73443E-05-4.09300E-08-5.56031E-21 8.72998E-18
 -1      1221 9.03149E-05-2.70766E-05-2.70323E-05-3.10142E-08 4.09388E-20 8.77832E-18
 -1      1222 8.86541E-05-2.65802E-05-2.65271E-05-1.23719E-08-1.54881E-20 9.41027E-18
 -1      1223 8.63011E-05-2.58796E-05-2.58227E-05 1.66859E-08-1.19742E-19 9.31972E-18
 -1      1224 8.33184E-05-2.49936E-05-2.49422E-05 5.51483E-08-9.52176E-20 9.38497E-18
 -1      1225 7.99058E-05-2.39810E-05-2.39480E-05 9.78830E-08 2.06282E-20 8.11717E-18
 -1      1226 7.64141E-05-2.29445E-05-2.29432E-05 1.35510E-07-3.80793E-20 7.52311E-18
 -1      1227 7.33118E-05-2.20216E-05-2.20606E-05 1.56568E-07-8.89517E-20 7.50818E-18
 -1      1228 7.10966E-05-2.13593E-05-2.14375E-05 1.51827E-07 5.08650E-20 7.33479E-18
 -1      1229 7.01679E-05-2.10771E-05-2.11818E-05 1.18920E-07-3.57011E-21 7.08451E-18
 -1      1230 7.07094E-05-2.12318E-05-2.13418E-05 6.43971E-08 1.10429E-19 6.47958E-18
 -1      1231 7.26309E-05-2.17992E-05-2.18923E-05 1.58658E-09 4.67374E-20 5.12945E-18
 -1      1232 7.55996E-05-2.26822E-05-2.27423E-05-5.47371E-08-2.03418E-19 6.36373E-18
 -1      1233 7.91442E-05-2.37405E-05-2.37626E-05-9.38185E-08 4.29431E-20 6.96089E-18
 -1      1234 8.27851E-05-2.48304E-05-2.48195E-05-1.11750E-07-1.11225E-19 5.58036E-18
 -1      1235 8.61389E-05-2.58359E-05-2.58030E-05-1.10927E-07-1.56552E-20 4.52220E-18
 -1      1236 8.89692E-05-2.66853E-05-2.66426E-05-9.73317E-08 1.48760E-19 2.98391E-18
 -1      1237 9.11849E-05-2.73508E-05-2.73079E-05-7.75746E-08 1.48198E-20 3.37030E-18
 -1      1238 9.28056E-05-2.78377E-05-2.78007E-05-5.69534E-08-3.75354E-20 4.30610E-18
 -1      1239 9.39164E-05-2.81717E-05-2.81430E-05-3.87436E-08-5.61230E-20 2.17481E-18
 -1      1240 9.46279E-05-2.83858E-05-2.83654E-05-2.43786E-08 1.80359E-19 3.02774E-18
 -1      1241 9.50495E-05-2.85129E-05-2.84996E-05-1.40093E-08-3.99868E-19 4.27525E-18
 -1      1242 9.52748E-05-2.85809E-05-2.85730E-05-7.09156E-09-1.29982E-19 4.70906E-18
 -1      1243 9.53758E-05-2.86117E-05-2.86074E-05-2.82828E-09-8.71298E-20 2.09701E-18
 -1      1244 9.54041E-05-2.86205E-05-2.86186E-05-4.33549E-10 1.81091E-19-1.48623E-19
 -1      1245 9.53943E-05-2.86178E-05-2.86173E-05 7.44006E-10 1.59953E-19 4.05970E-19
 -1      1246 9.53678E-05-2.86101E-05-2.86102E-05 1.18839E-09-3.39251E-19 2.23886E-18
 -1      1247 9.53370E-05-2.86010E-05-2.86014E-05 1.23047E-09 9.75904E-20-7.66052E-21
 -1      1248 9.53083E-05-2.85924E-05-2.85930E-05 1.08025E-09-6.00690E-20-1.57615E-19
 -1      1249 9.52845E-05-2.85853E-05-2.85859E-05 8.61248E-10-3.68018E-19 1.40215E-18
 -1      1250 9.52663E-05-2.85799E-05-2.85803E-05 6.39558E-10 7.54949E-20-3.67877E-19
 -1      1251 9.52533E-05-2.85760E-05-2.85764E-05 4.45729E-10 3.00446E-19-4.43976E-18
 -1      1252 9.52446E-05-2.85734E-05-2.85737E-05 2.89643E-10-6.60231E-19-6.28882E-18
 -1      1253 9.52394E-05-2.85719E-05-2.85720E-05 1.69700E-10-1.32129E-20-3.66522E-18
 -1      1254 9.52368E-05-2.85710E-05-2.85712E-05 7.80605E-11-2.88364E-19-2.28349E-18
 -1      1255 9.52359E-05-2.85708E-05-2.85709E-05-1.18089E-12 5.41824E-19-3.03990E-18
 -1      1256 9.52363E-05-2.85709E-05-2.85709E-05-8.88335E-11 1.34321E-18-7.29818E-18
 -1      1257 9.52369E-05-2.85711E-05-2.85709E-05-7.02252E-11 4.92338E-19-7.21311E-18
 -1      1258 9.52372E-05-2.85714E-05-2.85710E-05-7.75461E-11-7.41140E-18-6.17333E-19
 -1      1259 9.52374E-05-2.85720E-05-2.85709E-05-1.35798E-10-1.12249E-17 3.70546E-19
 -1      1260 9.52375E-05-2.85722E-05-2.85709E-05-5.83348E-11-9.13531E-18-8.51591E-19
 -1      1261 9.52373E-05-2.85718E-05-2.85710E-05 1.64303E-12-1.07085E-17-1.37389E-18
 -1      1262 9.52371E-05-2.85710E-05-2.85712E-05 2.24156E-11-8.11143E-18-5.38691E-19
 -1      1263 9.52369E-05-2.85702E-05-2.85714E-05 1.24838E-11-1.15099E-17-7.70090E-19
 -1      1264 9.52368E-05-2.85700E-05-2.85714E-05-1.56895E-11-1.43464E-17 1.22583E-19
 -1      1265 9.52370E-05-2.85704E-05-2.85713E-05-5.14126E-11-1.20026E-17-4.58204E-19
 -1      1266 9.52373E-05-2.85716E-05-2.85710E-05-8.09799E-11-9.66871E-18 2.22012E-19
 -1      1267 9.52378E-05-2.85733E-05-2.85705E-05-9.26354E-11-3.49731E-18 1.84440E-18
 -1      1268 9.52383E-05-2.85751E-05-2.85700E-05-7.68747E-11 1.61550E-18-1.59755E-18
 -1      1269 9.52388E-05-2.85766E-05-2.85696E-05-2.92330E-11-2.51660E-19 1.86149E-19
 -1      1270 9.52389E-05-2.85773E-05-2.85694E-05 4.53644E-11-9.48483E-19-6.36039E-19
 -1      1271 9.52388E-05-2.85767E-05-2.85696E-05 1.38830E-10-3.24647E-18 6.15074E-19
 -1      1272 9.52383E-05-2.85750E-05-2.85700E-05 2.10806E-10-6.20610E-19 5.12343E-19
 -1      1273 9.52376E-05-2.85728E-05-2.85706E-05 1.59052E-10 4.02494E-18-1.72108E-18
 -1      1274 9.52372E-05-2.85713E-05-2.85710E-05-8.74266E-11-1.58010E-18-9.16543E-19
 -1      1275 3.59112E-05-1.13768E-04 2.03893E-05-1.29472E-05 8.17048E-18 1.10109E-18
 -1      1276 1.56628E-05-5.53653E-05 7.30326E-06-1.89525E-05 1.44368E-17 5.65479E-18
 -1      1277 9.31841E-06 5.78253E-06-1.14190E-05 1.36773E-05 1.79147E-17 1.12156E-17
 -1      1278 4.52423E-05 3.52591E-05-3.36756E-05 7.29518E-05 1.53889E-17 1.32019E-17
 -1      1279 1.33661E-04 1.42629E-05-5.61884E-05 1.22425E-04 8.63889E-18 1.27580E-17
 -1      1280 2.46203E-04-4.26534E-05-7.53420E-05 1.17664E-04 3.98444E-18 7.95957E-18
 -1      1281 3.32954E-04-9.60102E-05-8.62816E-05 5.55586E-05 4.28969E-19-3.77819E-18
 -1      1282 3.36369E-04-9.82638E-05-8.69428E-05-3.92919E-05 1.89124E-18-1.45325E-17
 -1      1283 2.65058E-04-5.47055E-05-7.76270E-05-1.13830E-04 7.20232E-18-2.04745E-17
 -1      1284 1.56201E-04 3.92346E-06-6.08489E-05-1.28404E-04 1.25420E-17-2.14672E-17
 -1      1285 6.11204E-05 3.37054E-05-3.85891E-05-8.53953E-05 1.40201E-17-1.52585E-17
 -1      1286 1.24753E-05 1.33749E-05-1.49045E-05-2.26099E-05 1.25581E-17-8.55588E-18
 -1      1287 1.26369E-05-4.38251E-05 4.49852E-06 1.72839E-05 7.03376E-18-3.77141E-18
 -1      1288 3.24010E-05-1.04035E-04 1.84064E-05 1.79003E-05-5.03138E-19-4.48822E-19
 -1      1289 4.27242E-05-1.34124E-04 2.48603E-05-1.11128E-05-6.21468E-18-6.01446E-19
 -1      1290 3.12941E-05-1.17972E-04 2.22714E-05-4.23713E-05-1.37702E-17-4.28292E-18
 -1      1291 8.60741E-06-6.56737E-05 1.03223E-05-4.58764E-05-1.71092E-17-8.65541E-18
 -1      1292 8.00163E-06-1.05249E-05-1.02214E-05-6.62765E-06-1.44250E-17-1.23785E-17
 -1      1293 7.37998E-05 8.45361E-06-3.84788E-05 6.61218E-05-1.06387E-17-1.32425E-17
 -1      1294 2.19021E-04-3.32675E-05-6.78479E-05 1.20811E-04-5.22789E-18-1.03948E-17
 -1      1295 3.86716E-04-1.07823E-04-9.04513E-05 9.21947E-05-1.35102E-18-4.44184E-18
 -1      1296 4.58254E-04-1.43094E-04-9.82872E-05-9.51451E-06-9.31524E-19 4.39356E-18
 -1      1297 3.72274E-04-1.00980E-04-8.88835E-05-1.01268E-04-4.10642E-18 1.44809E-17
 -1      1298 2.16176E-04-3.21549E-05-6.73761E-05-1.20361E-04-8.09425E-18 1.66052E-17
 -1      1299 7.82488E-05 8.25615E-06-3.98531E-05-6.94973E-05-9.82219E-18 1.37999E-17
 -1      1300 1.13749E-05-5.99933E-06-1.32974E-05-6.95943E-07-1.07624E-17 9.46305E-18
 -1      1301 6.19573E-06-5.67071E-05 7.66251E-06 4.21585E-05-5.65140E-18 3.21873E-18
 -1      1302 2.51280E-05-1.09251E-04 2.08455E-05 4.83944E-05-5.49047E-18 2.06051E-18
 -1      1303 4.18793E-05-1.34519E-04 2.50155E-05 1.90881E-05 1.54816E-18 6.52427E-19
 -1      1304 1.04650E-04-2.18663E-05-3.80152E-05-1.76328E-05-4.47869E-19 3.34218E-18
 -1      1305 9.03315E-05-6.66238E-06-3.60247E-05-2.04461E-05-8.86261E-19-2.17449E-18
 -1      1306 9.25373E-05-6.55826E-06-3.71946E-05-2.57527E-05-1.26716E-18-1.04307E-18
 -1      1307 8.59362E-05-4.09708E-06-3.51430E-05-1.63776E-05-6.94805E-19-3.68388E-18
 -1      1308 8.71871E-05-4.08763E-06-3.56104E-05-1.87965E-05-8.45445E-19-3.10469E-18
 -1      1309 9.21727E-05-1.04735E-05-3.51011E-05-1.90015E-05-1.41327E-18-1.88274E-18
 -1      1310 8.41343E-05-3.19452E-06-3.47006E-05-1.27576E-05-3.64357E-19-4.14198E-18
 -1      1311 8.47426E-05-3.16288E-06-3.49251E-05-1.45749E-05-5.19337E-19-3.95980E-18
 -1      1312 8.79075E-05-7.39881E-06-3.45878E-05-1.53609E-05-1.04448E-18-3.04257E-18
 -1      1313 8.32054E-05-2.72211E-06-3.44808E-05-9.62648E-06-6.55127E-20-4.21772E-18
 -1      1314 8.35285E-05-2.70613E-06-3.45922E-05-1.11710E-05-1.78380E-19-4.23834E-18
 -1      1315 8.58990E-05-5.98038E-06-3.43189E-05-1.18921E-05-4.69541E-19-3.45984E-18
 -1      1316 8.26948E-05-2.44501E-06-3.43701E-05-6.86801E-06 1.42520E-19-4.02919E-18
 -1      1317 8.28722E-05-2.43691E-06-3.44269E-05-8.23231E-06 9.03877E-20-4.14300E-18
 -1      1318 8.48282E-05-5.19741E-06-3.41836E-05-8.88640E-06-2.81175E-20-3.47315E-18
 -1      1319 8.24034E-05-2.27533E-06-3.43122E-05-4.26564E-06 3.48595E-19-3.68024E-18
 -1      1320 8.25015E-05-2.27165E-06-3.43420E-05-5.55778E-06 2.87995E-19-3.87817E-18
 -1      1321 8.42220E-05-4.73288E-06-3.41158E-05-6.17465E-06 3.04285E-19-3.28080E-18
 -1      1322 8.22596E-05-2.18405E-06-3.42858E-05-1.78129E-06 5.69123E-19-3.34867E-18
 -1      1323 8.23034E-05-2.18266E-06-3.42988E-05-3.02214E-06 5.18191E-19-3.53173E-18
 -1      1324 8.38829E-05-4.46373E-06-3.40821E-05-3.62182E-06 6.75858E-19-2.90130E-18
 -1      1325 8.22284E-05-2.15707E-06-3.42805E-05 6.57849E-07 7.47983E-19-2.98119E-18
 -1      1326 8.22290E-05-2.15720E-06-3.42812E-05-5.68123E-07 6.84947E-19-3.20761E-18
 -1      1327 8.37315E-05-4.34312E-06-3.40674E-05-1.16882E-06 1.02124E-18-2.63237E-18
 -1      1328 8.23031E-05-2.18977E-06-3.42951E-05 3.11814E-06 9.20358E-19-2.57817E-18
 -1      1329 8.22605E-05-2.19140E-06-3.42833E-05 1.87304E-06 8.62951E-19-2.82983E-18
 -1      1330 8.37340E-05-4.35051E-06-3.40655E-05 1.25531E-06 1.32066E-18-2.32509E-18
 -1      1331 8.25026E-05-2.28638E-06-3.43357E-05 5.66805E-06 1.03570E-18-1.99034E-18
 -1      1332 8.24050E-05-2.28968E-06-3.43069E-05 4.36743E-06 9.87836E-19-2.34845E-18
 -1      1333 8.38904E-05-4.48546E-06-3.40765E-05 3.71670E-06 1.55530E-18-1.88899E-18
 -1      1334 8.28717E-05-2.45593E-06-3.44183E-05 8.34006E-06 1.18495E-18-1.14132E-18
 -1      1335 8.26945E-05-2.46453E-06-3.43619E-05 6.96459E-06 1.11866E-18-1.63056E-18
 -1      1336 8.42326E-05-4.76583E-06-3.41067E-05 6.26261E-06 1.72372E-18-1.27658E-18
 -1      1337 8.35420E-05-2.73697E-06-3.45849E-05 1.13344E-05 1.41182E-18-4.12532E-20
 -1      1338 8.32149E-05-2.75387E-06-3.44725E-05 9.77178E-06 1.29366E-18-6.79294E-19
 -1      1339 8.48479E-05-5.24611E-06-3.41722E-05 8.99750E-06 1.99839E-18-4.45354E-19
 -1      1340 8.47801E-05-3.20640E-06-3.49228E-05 1.47817E-05 1.51825E-18 1.53739E-18
 -1      1341 8.41595E-05-3.24076E-06-3.46944E-05 1.29408E-05 1.42103E-18 6.10049E-19
 -1      1342 8.59464E-05-6.05876E-06-3.43080E-05 1.20599E-05 2.22718E-18 6.82788E-19
 -1      1343 8.72738E-05-4.09473E-06-3.56261E-05 1.90367E-05 1.39993E-18 4.04948E-18
 -1      1344 8.59912E-05-4.15928E-06-3.51423E-05 1.66368E-05 1.33169E-18 2.55436E-18
 -1      1345 8.80054E-05-7.52327E-06-3.45798E-05 1.55904E-05 2.24984E-18 2.40568E-18
 -1      1346 9.34900E-05-6.80341E-06-3.71223E-05 2.50485E-05 9.56300E-19 8.04067E-18
 -1      1347 9.01567E-05-6.44561E-06-3.60458E-05 2.10954E-05 1.02184E-18 5.70148E-18
 -1      1348 9.23828E-05-1.07060E-05-3.50848E-05 1.96222E-05 1.88994E-18 5.05615E-18
 -1      1349 1.23620E-04-2.49253E-05-3.90158E-05 2.83352E-05 1.67501E-19 1.40281E-17
 -1      1350 1.00101E-04-1.44326E-05-3.73586E-05 2.40114E-05 2.90426E-19 1.00775E-17
 -1      1351 1.01712E-04-1.93570E-05-3.54097E-05 2.13519E-05 1.36514E-18 8.57494E-18
 -1      1352 1.02627E-04-2.78138E-05-3.47633E-05 7.30594E-06 4.98876E-19 1.41188E-17
 -1      1353 1.05641E-04-3.00982E-05-3.37968E-05-8.45116E-06-1.13524E-18 3.98783E-18
 -1      1354 9.85551E-05-2.78109E-05-3.09495E-05-5.22543E-06-9.69376E-19 2.63062E-18
 -1      1355 9.58229E-05-2.79032E-05-2.93918E-05-2.58420E-06-8.46927E-19 2.22747E-18
 -1      1356 9.34945E-05-2.76087E-05-2.83019E-05-2.12727E-06-8.04099E-19 1.00207E-18
 -1      1357 9.97362E-05-2.79341E-05-3.11372E-05-8.22252E-06-1.71604E-18 7.09125E-19
 -1      1358 9.17513E-05-2.72329E-05-2.76460E-05-8.64637E-07-6.06859E-19 6.95335E-19
 -1      1359 9.10105E-05-2.71374E-05-2.73291E-05-7.47369E-07-5.28641E-19-1.19802E-19
 -1      1360 9.49373E-05-2.78043E-05-2.89049E-05-3.24456E-06-1.38156E-18 1.23124E-19
 -1      1361 9.02572E-05-2.69571E-05-2.70819E-05-1.62186E-07-3.55046E-19-3.66104E-19
 -1      1362 9.01963E-05-2.69885E-05-2.70484E-05-9.95737E-08-3.31263E-19-9.86449E-19
 -1      1363 9.26962E-05-2.75346E-05-2.79595E-05-1.06165E-06-8.52148E-19-3.85056E-19
 -1      1364 8.99622E-05-2.69281E-05-2.69821E-05 1.97787E-07-2.78843E-19-1.30356E-18
 -1      1365 9.02195E-05-2.70297E-05-2.70564E-05 2.31998E-07-2.56588E-19-1.72064E-18
 -1      1366 9.17620E-05-2.74031E-05-2.75966E-05-1.04325E-08-7.21785E-19-9.17145E-19
 -1      1367 9.02822E-05-2.70492E-05-2.70818E-05 3.99529E-07-1.36780E-19-1.85099E-18
 -1      1368 9.07066E-05-2.71894E-05-2.72061E-05 4.19541E-07-2.01020E-19-2.07204E-18
 -1      1369 9.15893E-05-2.74095E-05-2.75155E-05 5.52542E-07-4.88308E-19-1.39702E-18
 -1      1370 9.09368E-05-2.72545E-05-2.72819E-05 5.26286E-07-1.24772E-19-2.18388E-18
 -1      1371 9.14435E-05-2.74129E-05-2.74299E-05 5.40339E-07-3.69832E-20-2.29468E-18
 -1      1372 9.18663E-05-2.75176E-05-2.75861E-05 8.84655E-07-3.07423E-19-1.41176E-18
 -1      1373 9.18207E-05-2.75177E-05-2.75510E-05 6.41487E-07-6.27929E-20-2.24277E-18
 -1      1374 9.24565E-05-2.77094E-05-2.77382E-05 6.60928E-07-1.53889E-19-2.55335E-18
 -1      1375 9.24381E-05-2.76871E-05-2.77576E-05 1.13499E-06-2.20899E-19-1.53007E-18
 -1      1376 9.29646E-05-2.78459E-05-2.79021E-05 7.95771E-07-3.26313E-19-2.47140E-18
 -1      1377 9.37522E-05-2.80763E-05-2.81358E-05 8.27987E-07-2.41904E-19-2.88225E-18
 -1      1378 9.32789E-05-2.79171E-05-2.80204E-05 1.41735E-06-3.04146E-19-1.34785E-18
 -1      1379 9.44308E-05-2.82536E-05-2.83570E-05 1.04870E-06-5.47461E-20-2.87215E-18
 -1      1380 9.54799E-05-2.85531E-05-2.86710E-05 1.10733E-06 1.48926E-20-2.82126E-18
 -1      1381 9.44027E-05-2.82017E-05-2.83838E-05 1.83774E-06-2.54682E-19-1.10992E-18
 -1      1382 9.64147E-05-2.87895E-05-2.89807E-05 1.48759E-06-1.53809E-19-2.96181E-18
 -1      1383 9.79282E-05-2.92154E-05-2.94374E-05 1.59338E-06-3.05769E-19-3.36416E-18
 -1      1384 9.59197E-05-2.85595E-05-2.88879E-05 2.54366E-06-2.33480E-19-1.34962E-18
 -1      1385 9.92659E-05-2.95421E-05-2.98895E-05 2.24270E-06-1.97491E-19-3.17787E-18
 -1      1386 1.01589E-04-3.01934E-05-3.05955E-05 2.42894E-06 2.00839E-20-3.14421E-18
 -1      1387 9.80373E-05-2.90275E-05-2.96085E-05 3.74831E-06-2.58504E-19-1.71038E-18
 -1      1388 1.03551E-04-3.06574E-05-3.12726E-05 3.50587E-06 2.36666E-19-3.17047E-18
 -1      1389 1.07239E-04-3.16989E-05-3.23960E-05 3.82371E-06 1.74303E-19-2.92928E-18
 -1      1390 1.01085E-04-2.96668E-05-3.06640E-05 5.76270E-06 1.32653E-19-1.37248E-18
 -1      1391 1.10130E-04-3.23779E-05-3.34093E-05 5.52699E-06 2.01356E-19-3.08590E-18
 -1      1392 1.15973E-04-3.40474E-05-3.51803E-05 6.05266E-06 5.52292E-20-2.88055E-18
 -1      1393 1.05532E-04-3.05785E-05-3.22154E-05 9.00593E-06 9.43648E-20-1.72983E-18
 -1      1394 1.19899E-04-3.49874E-05-3.65569E-05 8.42475E-06-8.71915E-20-2.76154E-18
 -1      1395 1.28420E-04-3.75587E-05-3.90484E-05 9.13111E-06-1.86175E-19-2.98325E-18
 -1      1396 1.11793E-04-3.19296E-05-3.43563E-05 1.37399E-05-3.52313E-20-2.03582E-18
 -1      1397 1.34057E-04-3.90190E-05-4.09311E-05 1.21036E-05 2.63110E-20-2.64528E-18
 -1      1398 1.46672E-04-4.31853E-05-4.43496E-05 1.30363E-05 2.27322E-19-2.65630E-18
 -1      1399 1.20574E-04-3.41703E-05-3.71694E-05 2.00015E-05 1.33156E-19-1.61106E-18
 -1      1400 1.53885E-04-4.55601E-05-4.63922E-05 1.50976E-05 5.86187E-19-2.35009E-18
 -1      1401 1.68599E-04-5.11966E-05-4.97953E-05 1.54217E-05 5.90276E-19-1.75855E-18
 -1      1402 1.32760E-04-3.85147E-05-4.03819E-05 2.62059E-05 7.17966E-19-4.98135E-19
 -1      1403 1.76702E-04-5.50152E-05-5.13236E-05 1.26987E-05 1.06689E-18-7.45495E-19
 -1      1404 1.86070E-04-5.97470E-05-5.28810E-05 1.05893E-05 7.93458E-19 5.29396E-22
 -1      1405 1.48317E-04-4.69705E-05-4.30418E-05 2.64751E-05 1.25128E-18 5.18470E-19
 -1      1406 1.94824E-04-6.47984E-05-5.40464E-05-1.07918E-06 4.44216E-19 4.24152E-19
 -1      1407 1.88000E-04-6.34911E-05-5.27469E-05-7.43524E-06-3.49507E-19 6.63227E-19
 -1      1408 1.66658E-04-5.95284E-05-4.52145E-05 1.13398E-05 1.08875E-18 1.54573E-18
 -1      1409 1.94932E-04-6.48985E-05-5.49078E-05-2.26083E-05-1.08812E-18 9.23689E-19
 -1      1410 1.70933E-04-5.36845E-05-5.25737E-05-2.60983E-05-1.54689E-18-5.14149E-19
 -1      1411 1.85791E-04-6.97810E-05-4.96253E-05-1.68159E-05-1.10847E-18 1.87904E-18
 -1      1412 1.35232E-04-2.94322E-05-5.31099E-05-3.83232E-06-1.34170E-18-6.13718E-18
 -1      1413 1.35088E-04-2.93115E-05-5.29075E-05 3.91821E-06-1.63562E-18-7.66777E-18
 -1      1414 1.36553E-04-3.22205E-05-5.19866E-05 2.07672E-05-1.44673E-18-8.99507E-18
 -1      1415 1.60698E-04-4.44339E-05-5.37881E-05 2.45344E-05-5.06102E-19-9.88403E-18
 -1      1416 1.83906E-04-4.14057E-05-6.29844E-05 2.20369E-05-3.16282E-18-5.56278E-18
 -1      1417 1.63266E-04-4.85070E-05-5.22766E-05 2.43177E-05 3.26531E-19-9.69217E-18
 -1      1418 1.90175E-04-6.07634E-05-5.51238E-05 2.22460E-05 3.85294E-19-9.14753E-18
 -1      1419 1.88174E-04-5.67209E-05-5.80116E-05 4.27362E-05-1.63054E-19-5.73664E-18
 -1      1420 1.90729E-04-6.15558E-05-5.43761E-05 9.25060E-06 1.28124E-18-9.14880E-18
 -1      1421 2.01826E-04-6.53333E-05-5.62654E-05 4.69806E-06 1.86644E-18-6.84551E-18
 -1      1422 1.88509E-04-6.50537E-05-5.28540E-05 2.61948E-05 1.60597E-18-4.92973E-18
 -1      1423 1.96322E-04-6.24606E-05-5.55718E-05-5.76741E-06 8.43433E-19-5.81710E-18
 -1      1424 1.90287E-04-5.89565E-05-5.47591E-05-8.10011E-06 5.73971E-19-4.51617E-18
 -1      1425 1.80995E-04-6.11850E-05-5.02783E-05-2.58313E-06 2.49197E-18-4.19324E-18
 -1      1426 1.80728E-04-5.54077E-05-5.28869E-05-1.16124E-05 5.35007E-19-3.83462E-18
 -1      1427 1.65710E-04-4.92876E-05-4.96357E-05-1.20057E-05 9.13313E-19-2.36746E-18
 -1      1428 1.64987E-04-5.19500E-05-4.78036E-05-1.91863E-05 1.41560E-18-2.21086E-18
 -1      1429 1.56885E-04-4.68817E-05-4.71887E-05-1.05645E-05 2.90731E-19-2.68022E-18
 -1      1430 1.43515E-04-4.21792E-05-4.37091E-05-1.00781E-05-1.30149E-19-2.87017E-18
 -1      1431 1.46265E-04-4.33904E-05-4.40041E-05-2.14363E-05 3.54444E-19-1.62969E-18
 -1      1432 1.36034E-04-4.02385E-05-4.13322E-05-7.57792E-06-3.07711E-20-3.58983E-18
 -1      1433 1.25890E-04-3.70267E-05-3.84025E-05-6.97687E-06-2.96620E-19-4.03452E-18
 -1      1434 1.30264E-04-3.79262E-05-3.97256E-05-1.68558E-05-4.52911E-19-2.72453E-18
 -1      1435 1.20643E-04-3.56912E-05-3.66298E-05-4.88011E-06-6.98273E-20-4.45899E-18
 -1      1436 1.14108E-04-3.37587E-05-3.46450E-05-4.42589E-06 8.53042E-19-4.07105E-18
 -1      1437 1.17983E-04-3.43999E-05-3.59846E-05-1.14154E-05-1.86983E-19-2.51884E-18
 -1      1438 1.10628E-04-3.28432E-05-3.34606E-05-2.99824E-06 5.19589E-19-3.46976E-18
 -1      1439 1.06640E-04-3.17155E-05-3.22248E-05-2.69637E-06-1.53406E-19-2.59009E-18
 -1      1440 1.09584E-04-3.22063E-05-3.32713E-05-7.20581E-06 1.32338E-18-2.25658E-18
 -1      1441 1.04422E-04-3.11109E-05-3.14777E-05-1.79912E-06-3.68711E-19-2.52204E-18
 -1      1442 1.02051E-04-3.04596E-05-3.07395E-05-1.60996E-06-8.54127E-19-4.09840E-18
 -1      1443 1.04120E-04-3.08260E-05-3.14738E-05-4.39300E-06-6.73391E-19-1.07334E-18
 -1      1444 1.00670E-04-3.00711E-05-3.02814E-05-1.06657E-06-5.33545E-19-3.60308E-18
 -1      1445 9.92779E-05-2.96968E-05-2.98488E-05-9.51230E-07 6.01599E-19-4.61209E-18
 -1      1446 1.00671E-04-2.99601E-05-3.03386E-05-2.63045E-06-1.01803E-18-6.78899E-19
 -1      1447 9.84302E-05-2.94521E-05-2.95717E-05-6.28008E-07 1.71612E-19-3.88432E-18
 -1      1448 9.76193E-05-2.92377E-05-2.93202E-05-5.58617E-07 1.15603E-19-3.66660E-18
 -1      1449 9.85344E-05-2.94207E-05-2.96387E-05-1.55973E-06 6.89981E-19-1.49240E-19
 -1      1450 9.71036E-05-2.90858E-05-2.91537E-05-3.68044E-07 2.04954E-19-4.49388E-18
 -1      1451 9.66346E-05-2.89636E-05-2.90082E-05-3.26861E-07 6.44710E-19-3.65389E-18
 -1      1452 9.72258E-05-2.90872E-05-2.92125E-05-9.19265E-07 3.60465E-19 1.58084E-19
 -1      1453 9.63356E-05-2.88734E-05-2.89130E-05-2.19116E-07 1.00613E-18-4.52351E-18
 -1      1454 9.60728E-05-2.88060E-05-2.88319E-05-1.95850E-07 6.49345E-19-2.89066E-18
 -1      1455 9.64446E-05-2.88882E-05-2.89593E-05-5.44637E-07 4.85988E-19-1.65134E-18
 -1      1456 9.58794E-05-2.87478E-05-2.87706E-05-1.28641E-07-5.59124E-19-3.22906E-18
 -1      1457 9.57187E-05-2.87073E-05-2.87208E-05-1.13494E-07-1.17327E-18-4.67275E-18
 -1      1458 9.59674E-05-2.87629E-05-2.88053E-05-3.24158E-07-1.32181E-19-3.17424E-18
 -1      1459 9.56028E-05-2.86713E-05-2.86844E-05-7.45735E-08-4.63658E-19-5.40783E-18
 -1      1460 9.55108E-05-2.86487E-05-2.86559E-05-6.56339E-08 1.80970E-19-5.37902E-18
 -1      1461 9.56697E-05-2.86856E-05-2.87095E-05-1.89009E-07-1.48428E-18-3.54791E-18
 -1      1462 9.54413E-05-2.86268E-05-2.86343E-05-4.30658E-08 5.73364E-19-5.24423E-18
 -1      1463 9.53889E-05-2.86142E-05-2.86180E-05-3.77667E-08 1.14007E-18-3.78862E-18
 -1      1464 9.54905E-05-2.86385E-05-2.86521E-05-1.09776E-07 8.45274E-19-3.25320E-18
 -1      1465 9.53474E-05-2.86009E-05-2.86052E-05-2.47084E-08 1.85917E-18-3.32742E-18
 -1      1466 9.53178E-05-2.85941E-05-2.85960E-05-2.15627E-08 9.55330E-19-5.62271E-19
 -1      1467 9.53830E-05-2.86100E-05-2.86177E-05-6.34344E-08 2.93113E-18-1.98821E-18
 -1      1468 9.52931E-05-2.85860E-05-2.85884E-05-1.40142E-08-1.96775E-19-8.10352E-19
 -1      1469 9.52766E-05-2.85823E-05-2.85833E-05-1.21396E-08 4.84347E-19-1.08742E-18
 -1      1470 9.53186E-05-2.85928E-05-2.85972E-05-3.63505E-08 7.57165E-19-1.41018E-18
 -1      1471 9.52620E-05-2.85774E-05-2.85789E-05-7.77221E-09-5.79617E-19-1.76281E-18
 -1      1472 9.52532E-05-2.85756E-05-2.85761E-05-6.64792E-09 3.87237E-19-3.06754E-18
 -1      1473 9.52803E-05-2.85825E-05-2.85850E-05-2.05047E-08-3.17306E-19-1.29015E-18
 -1      1474 9.52447E-05-2.85727E-05-2.85735E-05-4.10634E-09 9.14871E-19-4.21673E-18
 -1      1475 9.52402E-05-2.85719E-05-2.85721E-05-3.43734E-09 3.62648E-19-3.17158E-18
 -1      1476 9.52577E-05-2.85764E-05-2.85778E-05-1.12013E-08-6.80287E-20-3.36603E-18
 -1      1477 9.52356E-05-2.85703E-05-2.85707E-05-1.99717E-09 1.57844E-19-3.55080E-18
 -1      1478 9.52337E-05-2.85700E-05-2.85701E-05-1.60797E-09 8.58824E-19-2.94873E-18
 -1      1479 9.52449E-05-2.85730E-05-2.85738E-05-5.77002E-09 1.65930E-19-3.93861E-18
 -1      1480 9.52312E-05-2.85691E-05-2.85694E-05-6.98535E-10 1.86227E-20-3.43188E-18
 -1      1481 9.52307E-05-2.85692E-05-2.85692E-05-4.24402E-10-2.67085E-19-3.45157E-18
 -1      1482 9.52378E-05-2.85711E-05-2.85715E-05-2.54549E-09-3.45667E-20-2.45552E-18
 -1      1483 9.52296E-05-2.85687E-05-2.85689E-05 1.08394E-10-2.70603E-19-3.74235E-18
 -1      1484 9.52300E-05-2.85690E-05-2.85690E-05 2.87986E-10 9.14742E-20-4.09694E-18
 -1      1485 9.52342E-05-2.85701E-05-2.85704E-05-5.04747E-10-4.20199E-19-2.06593E-18
 -1      1486 9.52298E-05-2.85688E-05-2.85690E-05 6.01155E-10 6.79583E-19-2.81292E-18
 -1      1487 9.52308E-05-2.85693E-05-2.85692E-05 7.21639E-10 1.56435E-19-1.67024E-18
 -1      1488 9.52330E-05-2.85698E-05-2.85700E-05 7.40734E-10 1.74322E-18-1.19826E-18
 -1      1489 9.52312E-05-2.85693E-05-2.85694E-05 8.84557E-10-3.77660E-19-1.40374E-18
 -1      1490 9.52325E-05-2.85698E-05-2.85697E-05 9.62609E-10-1.26306E-19-1.54753E-18
 -1      1491 9.52331E-05-2.85699E-05-2.85700E-05 1.48261E-09-3.19270E-19 3.42187E-19
 -1      1492 9.52331E-05-2.85699E-05-2.85699E-05 9.84224E-10-3.64696E-19-1.66408E-18
 -1      1493 9.52345E-05-2.85704E-05-2.85703E-05 1.01681E-09 3.72974E-19-2.16863E-18
 -1      1494 9.52341E-05-2.85702E-05-2.85702E-05 1.83648E-09-7.63400E-19 1.15725E-18
 -1      1495 9.52352E-05-2.85706E-05-2.85705E-05 8.31338E-10 1.40027E-18-2.78567E-18
 -1      1496 9.52363E-05-2.85710E-05-2.85708E-05 7.68544E-10 2.12636E-18-2.85522E-19
 -1      1497 9.52355E-05-2.85707E-05-2.85706E-05 1.74521E-09 1.07872E-18-3.90055E-19
 -1      1498 9.52367E-05-2.85712E-05-2.85708E-05 5.76365E-10 7.37627E-19-8.87909E-19
 -1      1499 9.52370E-05-2.85713E-05-2.85710E-05 3.48155E-10-1.60509E-18-1.61047E-18
 -1      1500 9.52372E-05-2.85717E-05-2.85708E-05 5.64507E-10-1.40648E-19-2.37482E-18
 -1      1501 9.52366E-05-2.85713E-05-2.85708E-05 1.27851E-09 6.41972E-19-2.97345E-18
 -1      1502 9.66313E-05-2.83795E-05-2.97871E-05 2.97626E-06 6.00467E-19 1.26954E-17
 -1      1503 1.02571E-04-2.94094E-05-3.21659E-05 4.44533E-06 5.19655E-19 1.34810E-17
 -1      1504 1.02364E-04-2.67310E-05-3.27162E-05 1.27488E-05 9.78323E-19 9.98440E-18
 -1      1505 9.21082E-05-2.74459E-05-2.77858E-05 1.13056E-06 5.09755E-19 1.13590E-17
 -1      1506 9.40482E-05-2.76048E-05-2.86947E-05 1.46320E-06 4.15853E-19 1.19727E-17
 -1      1507 9.65530E-05-2.80562E-05-2.95522E-05 4.84705E-06 8.98755E-19 8.85240E-18
 -1      1508 9.03152E-05-2.70338E-05-2.70992E-05 3.08800E-07 3.53173E-19 1.03786E-17
 -1      1509 9.09211E-05-2.70566E-05-2.73645E-05 4.78974E-07 3.69809E-19 1.08760E-17
 -1      1510 9.31271E-05-2.76201E-05-2.81288E-05 1.80884E-06 7.33848E-19 7.95412E-18
 -1      1511 8.98319E-05-2.69264E-05-2.69343E-05-7.05897E-08 2.64360E-19 9.77172E-18
 -1      1512 8.98628E-05-2.68704E-05-2.69562E-05 2.25113E-08 2.20353E-19 1.00316E-17
 -1      1513 9.16100E-05-2.73789E-05-2.75522E-05 4.43866E-07 5.27609E-19 7.11355E-18
 -1      1514 8.99899E-05-2.69910E-05-2.69827E-05-2.53274E-07 2.44233E-19 9.19401E-18
 -1      1515 8.97518E-05-2.68840E-05-2.69135E-05-2.02870E-07 1.99103E-19 9.47687E-18
 -1      1516 9.10933E-05-2.72908E-05-2.73604E-05-1.96398E-07 3.90476E-19 6.75202E-18
 -1      1517 9.04474E-05-2.71386E-05-2.71208E-05-3.23599E-07 2.03868E-19 8.70770E-18
 -1      1518 9.00975E-05-2.70112E-05-2.70186E-05-2.98879E-07 1.84334E-19 8.88158E-18
 -1      1519 9.11193E-05-2.73301E-05-2.73492E-05-4.87401E-07 3.78314E-19 6.31103E-18
 -1      1520 9.10040E-05-2.73134E-05-2.72870E-05-3.22464E-07 1.39980E-19 8.33079E-18
 -1      1521 9.06346E-05-2.71883E-05-2.71799E-05-3.15620E-07 1.23985E-19 8.39383E-18
 -1      1522 9.14028E-05-2.74345E-05-2.74212E-05-5.82612E-07 2.35320E-19 5.73090E-18
 -1      1523 9.15242E-05-2.74764E-05-2.74411E-05-2.67892E-07 1.05332E-19 8.08233E-18
 -1      1524 9.11988E-05-2.73709E-05-2.73474E-05-2.75377E-07 1.07573E-19 8.30083E-18
 -1      1525 9.17706E-05-2.75599E-05-2.75208E-05-5.47224E-07 1.66717E-19 5.33359E-18
 -1      1526 9.19004E-05-2.75963E-05-2.75512E-05-1.66240E-07 1.47720E-19 7.95080E-18
 -1      1527 9.16717E-05-2.75255E-05-2.74862E-05-1.87127E-07 8.43162E-20 8.08824E-18
 -1      1528 9.20989E-05-2.76726E-05-2.76092E-05-4.09246E-07 1.83411E-19 5.58046E-18
 -1      1529 9.20339E-05-2.76441E-05-2.75874E-05-1.74496E-08 3.86804E-19 7.77256E-18
 -1      1530 9.19526E-05-2.76233E-05-2.75663E-05-5.24719E-08 2.70311E-19 7.94467E-18
 -1      1531 9.22874E-05-2.77441E-05-2.76552E-05-1.77484E-07 3.34732E-19 5.64139E-18
 -1      1532 9.18263E-05-2.75901E-05-2.75205E-05 1.80853E-07 3.76035E-19 6.88761E-18
 -1      1533 9.19453E-05-2.76358E-05-2.75587E-05 1.30211E-07 3.91991E-19 7.43899E-18
 -1      1534 9.22444E-05-2.77476E-05-2.76309E-05 1.48609E-07 6.76128E-19 5.31967E-18
 -1      1535 9.11794E-05-2.74037E-05-2.73218E-05 4.28644E-07 2.58472E-19 6.34999E-18
 -1      1536 9.15526E-05-2.75332E-05-2.74348E-05 3.61378E-07 1.29009E-19 6.45766E-18
 -1      1537 9.18816E-05-2.76555E-05-2.75102E-05 5.70245E-07 4.12414E-19 4.74476E-18
 -1      1538 9.00058E-05-2.70565E-05-2.69666E-05 7.17651E-07-2.24232E-19 6.60315E-18
 -1      1539 9.06813E-05-2.72852E-05-2.71678E-05 6.34921E-07-5.43061E-20 6.59978E-18
 -1      1540 9.11174E-05-2.74400E-05-2.72705E-05 1.07926E-06-6.68494E-20 4.44647E-18
 -1      1541 8.82518E-05-2.65290E-05-2.64411E-05 1.02508E-06-2.27144E-20 6.99723E-18
 -1      1542 8.92582E-05-2.68657E-05-2.67380E-05 9.32182E-07-1.27791E-19 6.80814E-18
 -1      1543 8.98889E-05-2.70767E-05-2.68960E-05 1.64665E-06-3.08800E-19 4.55305E-18
 -1      1544 8.59289E-05-2.58209E-05-2.57517E-05 1.30910E-06-1.97551E-19 7.20648E-18
 -1      1545 8.72565E-05-2.62612E-05-2.61399E-05 1.21712E-06 6.51405E-20 7.08818E-18
 -1      1546 8.81737E-05-2.65520E-05-2.63845E-05 2.21233E-06 1.32183E-20 4.94840E-18
 -1      1547 8.31496E-05-2.49631E-05-2.49342E-05 1.50991E-06 1.81954E-19 6.83616E-18
 -1      1548 8.47301E-05-2.54826E-05-2.53926E-05 1.43581E-06-9.59530E-23 6.85279E-18
 -1      1549 8.60173E-05-2.58731E-05-2.57540E-05 2.68130E-06 1.40766E-19 4.83319E-18
 -1      1550 8.01499E-05-2.40270E-05-2.40592E-05 1.55988E-06 2.95364E-19 5.92317E-18
 -1      1551 8.18442E-05-2.45774E-05-2.45466E-05 1.52396E-06 3.47996E-19 6.43229E-18
 -1      1552 8.35591E-05-2.50793E-05-2.50485E-05 2.93339E-06 6.91251E-19 4.52473E-18
 -1      1553 7.72822E-05-2.31236E-05-2.32288E-05 1.40404E-06-9.01197E-20 5.43832E-18
 -1      1554 7.88866E-05-2.36353E-05-2.36867E-05 1.42404E-06 1.53561E-19 5.61001E-18
 -1      1555 8.10414E-05-2.42486E-05-2.43383E-05 2.85105E-06 4.71337E-19 4.17896E-18
 -1      1556 7.49644E-05-2.23883E-05-2.25612E-05 1.02519E-06 1.72245E-19 5.34449E-18
 -1      1557 7.62414E-05-2.27818E-05-2.29225E-05 1.10877E-06-1.21513E-19 5.42977E-18
 -1      1558 7.87881E-05-2.34923E-05-2.37127E-05 2.36196E-06-1.61833E-19 4.00880E-18
 -1      1559 7.35871E-05-2.19503E-05-2.21648E-05 4.62260E-07 4.75440E-19 5.20991E-18
 -1      1560 7.43194E-05-2.21553E-05-2.23695E-05 6.01155E-07 2.02682E-19 5.67449E-18
 -1      1561 7.71472E-05-2.29350E-05-2.32635E-05 1.48097E-06 2.83246E-19 4.18615E-18
 -1      1562 7.34063E-05-2.18946E-05-2.21102E-05-1.91447E-07-1.95268E-19 5.31548E-18
 -1      1563 7.34569E-05-2.18707E-05-2.21210E-05-2.13188E-08-3.76003E-20 5.08440E-18
 -1      1564 7.64051E-05-2.26820E-05-2.30641E-05 3.28136E-07 1.83350E-19 3.74110E-18
 -1      1565 7.44656E-05-2.22354E-05-2.24099E-05-8.14031E-07 3.05190E-19 4.60155E-18
 -1      1566 7.38195E-05-2.19851E-05-2.22234E-05-6.45478E-07 3.22845E-19 5.32754E-18
 -1      1567 7.67046E-05-2.27859E-05-2.31503E-05-8.94715E-07 2.45130E-19 3.70260E-18
 -1      1568 7.65834E-05-2.29110E-05-2.30150E-05-1.29468E-06 1.62799E-19 4.38451E-18
 -1      1569 7.53518E-05-2.24785E-05-2.26623E-05-1.15813E-06 2.27961E-19 4.65394E-18
 -1      1570 7.80009E-05-2.32289E-05-2.35106E-05-1.96485E-06 4.25545E-19 4.01603E-18
 -1      1571 7.94119E-05-2.38050E-05-2.38301E-05-1.56772E-06-2.41322E-19 5.23038E-18
 -1      1572 7.77964E-05-2.32622E-05-2.33674E-05-1.48182E-06-6.30322E-19 4.33533E-18
 -1      1573 8.00775E-05-2.39294E-05-2.40893E-05-2.70939E-06-6.08901E-19 3.51438E-18
 -1      1574 8.25392E-05-2.47825E-05-2.47402E-05-1.62568E-06 4.15359E-19 4.70736E-18
 -1      1575 8.07737E-05-2.42079E-05-2.42327E-05-1.59374E-06 5.24658E-19 5.16019E-18
 -1      1576 8.26134E-05-2.47699E-05-2.48031E-05-3.05229E-06 2.40705E-19 3.58001E-18
 -1      1577 8.55918E-05-2.57246E-05-2.56380E-05-1.50906E-06 2.39139E-19 3.58085E-18
 -1      1578 8.38848E-05-2.51841E-05-2.51449E-05-1.52185E-06 4.84811E-20 4.08807E-18
 -1      1579 8.52715E-05-2.56315E-05-2.55617E-05-3.01941E-06 6.13632E-19 2.48520E-18
 -1      1580 8.83009E-05-2.65493E-05-2.64439E-05-1.28257E-06 4.37200E-19 2.30048E-18
 -1      1581 8.67998E-05-2.60859E-05-2.60075E-05-1.32451E-06 3.60360E-19 3.11364E-18
 -1      1582 8.77719E-05-2.64214E-05-2.62868E-05-2.70767E-06 6.30843E-19 1.53486E-18
 -1      1583 9.05237E-05-2.72162E-05-2.71124E-05-1.01132E-06-2.15184E-19 2.43490E-18
 -1      1584 8.93039E-05-2.68491E-05-2.67555E-05-1.06657E-06-1.21791E-19 2.19376E-18
 -1      1585 8.99316E-05-2.70845E-05-2.69239E-05-2.24003E-06-1.85702E-20 1.28232E-18
 -1      1586 9.22266E-05-2.77198E-05-2.76301E-05-7.45529E-07-2.78714E-19 3.03742E-18
 -1      1587 9.13021E-05-2.74485E-05-2.73578E-05-8.01769E-07-3.71809E-19 2.89215E-18
 -1      1588 9.16677E-05-2.76018E-05-2.74450E-05-1.72762E-06-5.15577E-19 1.62460E-18
 -1      1589 9.34514E-05-2.80766E-05-2.80064E-05-5.15542E-07-9.64410E-20 3.29820E-18
 -1      1590 9.27948E-05-2.78889E-05-2.78116E-05-5.65200E-07-1.24143E-20 3.24140E-18
 -1      1591 9.29773E-05-2.79799E-05-2.78450E-05-1.24950E-06-4.17837E-19 2.13845E-18
 -1      1592 9.42798E-05-2.83141E-05-2.82635E-05-3.33945E-07 5.23829E-19 2.22121E-18
 -1      1593 9.38425E-05-2.81928E-05-2.81328E-05-3.73670E-07 3.07963E-19 2.83163E-18
 -1      1594 9.39083E-05-2.82401E-05-2.81343E-05-8.48967E-07 9.03556E-19 3.05789E-18
 -1      1595 9.48049E-05-2.84620E-05-2.84281E-05-2.00933E-07-1.08864E-19 2.47257E-18
 -1      1596 9.45331E-05-2.83894E-05-2.83463E-05-2.30330E-07-2.60226E-19 2.11130E-18
 -1      1597 9.45324E-05-2.84085E-05-2.83317E-05-5.40195E-07 5.17749E-20 2.28389E-18
 -1      1598 9.51131E-05-2.85470E-05-2.85259E-05-1.09866E-07-1.36669E-19 3.77307E-18
 -1      1599 9.49580E-05-2.85076E-05-2.84788E-05-1.30188E-07-1.41379E-19 3.31835E-18
 -1      1600 9.49251E-05-2.85104E-05-2.84584E-05-3.18357E-07-5.86243E-19 2.40221E-18
 -1      1601 9.52760E-05-2.85905E-05-2.85785E-05-5.15509E-08 3.13429E-19 2.98091E-18
 -1      1602 9.51977E-05-2.85723E-05-2.85544E-05-6.47046E-08 3.76646E-19 3.47524E-18
 -1      1603 9.51543E-05-2.85668E-05-2.85340E-05-1.69055E-07 2.83705E-19 2.28963E-18
 -1      1604 9.53478E-05-2.86084E-05-2.86024E-05-1.68945E-08 4.64633E-19 1.58988E-18
 -1      1605 9.53166E-05-2.86027E-05-2.85925E-05-2.48195E-08 6.61190E-19 2.65412E-18
 -1      1606 9.52744E-05-2.85941E-05-2.85751E-05-7.50728E-08 1.00583E-18 2.31119E-18
 -1      1607 9.53666E-05-2.86118E-05-2.86094E-05 1.79176E-09 2.90912E-19 2.73494E-19
 -1      1608 9.53620E-05-2.86128E-05-2.86076E-05-2.56876E-09 4.30425E-19 1.15602E-18
 -1      1609 9.53266E-05-2.86040E-05-2.85941E-05-2.03270E-08 1.10854E-18 1.82170E-18
 -1      1610 9.53577E-05-2.86078E-05-2.86075E-05 1.03872E-08-3.45101E-19 8.73992E-19
 -1      1611 9.53663E-05-2.86118E-05-2.86098E-05 8.30530E-09-7.38216E-20 2.58058E-19
 -1      1612 9.53394E-05-2.86043E-05-2.86000E-05 8.34969E-09-1.23737E-19 7.19844E-19
 -1      1613 9.53370E-05-2.86009E-05-2.86016E-05 1.30584E-08 5.74561E-19 8.93580E-19
 -1      1614 9.53506E-05-2.86058E-05-2.86055E-05 1.23352E-08-4.89233E-19 5.17158E-19
 -1      1615 9.53317E-05-2.86000E-05-2.85990E-05 2.08126E-08-6.42834E-19 5.20310E-19
 -1      1616 9.53133E-05-2.85935E-05-2.85945E-05 1.25710E-08 6.96627E-20-1.26981E-19
 -1      1617 9.53275E-05-2.85982E-05-2.85987E-05 1.25897E-08 4.58793E-19 8.53157E-19
 -1      1618 9.53152E-05-2.85940E-05-2.85947E-05 2.39327E-08 3.05857E-19 3.22195E-19
 -1      1619 9.52915E-05-2.85869E-05-2.85879E-05 1.06474E-08-1.46095E-19 5.43887E-19
 -1      1620 9.53040E-05-2.85908E-05-2.85916E-05 1.10189E-08-2.33705E-19 6.31908E-19
 -1      1621 9.52968E-05-2.85881E-05-2.85894E-05 2.22063E-08-1.65141E-19 3.47797E-19
 -1      1622 9.52734E-05-2.85815E-05-2.85824E-05 8.28607E-09-4.93705E-19 6.29645E-19
 -1      1623 9.52834E-05-2.85845E-05-2.85854E-05 8.78111E-09-4.10964E-19 5.75837E-19
 -1      1624 9.52798E-05-2.85829E-05-2.85844E-05 1.83940E-08-2.94806E-19 2.28807E-19
 -1      1625 9.52596E-05-2.85774E-05-2.85782E-05 6.01363E-09 1.28488E-18-1.72280E-18
 -1      1626 9.52670E-05-2.85796E-05-2.85804E-05 6.50804E-09 5.30470E-19-1.66037E-19
 -1      1627 9.52658E-05-2.85788E-05-2.85802E-05 1.40690E-08 4.74724E-19-9.13024E-19
 -1      1628 9.52497E-05-2.85746E-05-2.85752E-05 4.06697E-09 1.00002E-18-3.39790E-18
 -1      1629 9.52549E-05-2.85760E-05-2.85767E-05 4.50215E-09 1.59737E-18-1.33282E-18
 -1      1630 9.52550E-05-2.85758E-05-2.85769E-05 1.00401E-08 2.20037E-18 1.99429E-19
 -1      1631 9.52432E-05-2.85727E-05-2.85731E-05 2.51674E-09-1.03476E-18-3.83105E-18
 -1      1632 9.52465E-05-2.85736E-05-2.85741E-05 2.87259E-09-6.01138E-19-4.26167E-18
 -1      1633 9.52474E-05-2.85736E-05-2.85745E-05 6.65263E-09 8.09236E-19-1.43390E-18
 -1      1634 9.52393E-05-2.85716E-05-2.85719E-05 1.34724E-09-9.50444E-19-2.06702E-18
 -1      1635 9.52412E-05-2.85721E-05-2.85725E-05 1.62451E-09-4.06979E-19-2.78278E-18
 -1      1636 9.52423E-05-2.85723E-05-2.85729E-05 3.99099E-09-1.19880E-18-2.06399E-18
 -1      1637 9.52374E-05-2.85711E-05-2.85713E-05 5.08782E-10-2.49243E-19-2.44705E-18
 -1      1638 9.52382E-05-2.85713E-05-2.85715E-05 7.16720E-10-3.29452E-19-2.76809E-18
 -1      1639 9.52393E-05-2.85715E-05-2.85720E-05 2.01021E-09-1.32842E-19-2.16357E-18
 -1      1640 9.52367E-05-2.85710E-05-2.85711E-05-4.97227E-11 2.29731E-18-4.76127E-18
 -1      1641 9.52369E-05-2.85709E-05-2.85711E-05 1.00801E-10 1.36611E-18-3.29320E-18
 -1      1642 9.52377E-05-2.85711E-05-2.85714E-05 6.27009E-10 1.53346E-18-3.07161E-18
 -1      1643 9.52369E-05-2.85711E-05-2.85710E-05-3.02502E-10-7.94065E-20-6.73579E-18
 -1      1644 9.52366E-05-2.85709E-05-2.85710E-05-2.23443E-10 7.27810E-19-5.03100E-18
 -1      1645 9.52371E-05-2.85711E-05-2.85712E-05-2.05149E-10 1.63803E-18-4.52908E-18
 -1      1646 9.52370E-05-2.85713E-05-2.85710E-05-1.87445E-10-3.62314E-18-4.08020E-18
 -1      1647 9.52374E-05-2.85716E-05-2.85711E-05-1.44560E-10-6.22786E-18 3.36471E-19
 -1      1648 9.52373E-05-2.85714E-05-2.85711E-05-1.95999E-10-5.83687E-18-3.39400E-19
 -1      1649 9.52373E-05-2.85713E-05-2.85711E-05 2.00124E-10-6.30887E-18-6.21110E-19
 -1      1650 9.52373E-05-2.85714E-05-2.85711E-05 1.10680E-10-6.06873E-18-6.98037E-19
 -1      1651 9.52373E-05-2.85709E-05-2.85713E-05 5.23633E-11-2.79248E-18-4.62518E-19
 -1      1652 9.52370E-05-2.85706E-05-2.85713E-05 4.45835E-10-7.09033E-18-1.80071E-18
 -1      1653 9.52371E-05-2.85709E-05-2.85712E-05 4.04308E-10-5.83381E-18-6.67945E-19
 -1      1654 9.52370E-05-2.85703E-05-2.85715E-05 6.31401E-10-3.40166E-18-5.70450E-19
 -1      1655 9.52367E-05-2.85698E-05-2.85716E-05 4.83895E-10-6.24371E-18 3.24082E-19
 -1      1656 9.52369E-05-2.85702E-05-2.85714E-05 4.94426E-10-6.42456E-18-4.06929E-20
 -1      1657 9.52366E-05-2.85694E-05-2.85717E-05 9.41080E-10-3.86345E-18-4.63952E-19
 -1      1658 9.52365E-05-2.85691E-05-2.85717E-05 3.02138E-10-8.00146E-18-1.32800E-18
 -1      1659 9.52366E-05-2.85694E-05-2.85716E-05 3.54265E-10-6.62422E-18-1.88698E-18
 -1      1660 9.52363E-05-2.85685E-05-2.85719E-05 8.32424E-10-4.07954E-18-1.45187E-18
 -1      1661 9.52364E-05-2.85690E-05-2.85718E-05-4.10763E-11-8.24797E-18 4.63143E-19
 -1      1662 9.52364E-05-2.85689E-05-2.85718E-05 3.76630E-11-8.41836E-18-3.84058E-19
 -1      1663 9.52360E-05-2.85678E-05-2.85720E-05 3.46339E-10-4.04941E-18-1.05534E-18
 -1      1664 9.52365E-05-2.85694E-05-2.85716E-05-4.42588E-10-6.93407E-18 1.83893E-19
 -1      1665 9.52364E-05-2.85690E-05-2.85717E-05-3.61309E-10-8.30080E-18 9.37966E-19
 -1      1666 9.52359E-05-2.85677E-05-2.85721E-05-3.72904E-10-3.25094E-18 4.88843E-19
 -1      1667 9.52369E-05-2.85705E-05-2.85713E-05-7.87301E-10-3.97903E-18 2.11690E-18
 -1      1668 9.52367E-05-2.85698E-05-2.85715E-05-7.26749E-10-5.52673E-18 8.43758E-19
 -1      1669 9.52361E-05-2.85681E-05-2.85720E-05-1.11708E-09-2.39211E-18 1.73730E-18
 -1      1670 9.52374E-05-2.85720E-05-2.85709E-05-9.68191E-10-1.43988E-18 2.41158E-18
 -1      1671 9.52371E-05-2.85711E-05-2.85711E-05-9.48547E-10-4.82466E-18 3.41069E-18
 -1      1672 9.52364E-05-2.85691E-05-2.85717E-05-1.67040E-09-1.42138E-18 2.63621E-18
 -1      1673 9.52379E-05-2.85735E-05-2.85705E-05-9.09169E-10-9.34328E-19-6.89191E-19
 -1      1674 9.52376E-05-2.85727E-05-2.85707E-05-9.43097E-10-1.21126E-18 4.31206E-20
 -1      1675 9.52370E-05-2.85704E-05-2.85714E-05-1.84988E-09-2.96996E-18 2.27290E-18
 -1      1676 9.52383E-05-2.85746E-05-2.85702E-05-5.95786E-10-1.24593E-19 4.16621E-19
 -1      1677 9.52381E-05-2.85741E-05-2.85703E-05-6.79932E-10 2.58692E-19-1.30752E-18
 -1      1678 9.52375E-05-2.85718E-05-2.85710E-05-1.55536E-09-1.21639E-18-7.44627E-19
 -1      1679 9.52385E-05-2.85751E-05-2.85700E-05-6.66874E-11 1.23306E-19-9.13998E-19
 -1      1680 9.52385E-05-2.85751E-05-2.85701E-05-1.91277E-10 4.61497E-19-1.11368E-19
 -1      1681 9.52379E-05-2.85729E-05-2.85708E-05-8.00988E-10 4.57741E-20 5.73961E-19
 -1      1682 9.52383E-05-2.85747E-05-2.85702E-05 5.38899E-10-2.75848E-19 1.50313E-19
 -1      1683 9.52385E-05-2.85752E-05-2.85700E-05 4.11061E-10-3.14627E-19 4.70897E-19
 -1      1684 9.52381E-05-2.85735E-05-2.85706E-05 2.64168E-10 2.88083E-18-1.09469E-18
 -1      1685 9.52379E-05-2.85735E-05-2.85705E-05 9.90138E-10-8.60003E-19 1.01417E-18
 -1      1686 9.52383E-05-2.85744E-05-2.85702E-05 9.19945E-10-2.20417E-18 1.22446E-18
 -1      1687 9.52380E-05-2.85734E-05-2.85706E-05 1.31364E-09 1.38375E-19-4.77846E-19
 -1      1688 9.52374E-05-2.85722E-05-2.85708E-05 8.92301E-10-2.40721E-19-2.00274E-18
 -1      1689 9.52378E-05-2.85732E-05-2.85705E-05 9.79449E-10 1.24456E-18-8.85125E-19
 -1      1690 9.52377E-05-2.85728E-05-2.85707E-05 1.79596E-09-1.92787E-18 1.87444E-18
 -1      1691 9.52372E-05-2.85720E-05-2.85708E-05 1.42766E-09-7.56099E-20-2.57543E-18
 -1      1692 2.11437E-05-6.54545E-05 1.39626E-05 2.42566E-06 7.14726E-18 2.72935E-18
 -1      1693 2.60667E-05-8.37269E-05 1.83154E-05 1.00791E-05 4.78658E-18 8.91290E-19
 -1      1694 2.33984E-05-3.15526E-05 2.97712E-07 1.48324E-05 1.01517E-17 5.99593E-18
 -1      1695 2.70236E-05-5.86025E-05 8.18070E-06 7.85511E-06 7.40900E-18 3.65669E-18
 -1      1696 4.01630E-05-1.46162E-06-1.77154E-05 4.17964E-05 1.16323E-17 7.49455E-18
 -1      1697 3.17703E-05-2.26515E-05-7.86994E-06 2.09103E-05 1.13782E-17 6.39213E-18
 -1      1698 9.34844E-05 1.33605E-06-3.91435E-05 7.59399E-05 8.54826E-18 8.00446E-18
 -1      1699 6.29076E-05-1.54225E-06-2.79055E-05 5.13930E-05 1.02737E-17 7.87232E-18
 -1      1700 1.64980E-04-1.77358E-05-5.94886E-05 9.04440E-05 5.86740E-18 7.20486E-18
 -1      1701 1.17330E-04 2.34719E-07-4.94129E-05 8.08089E-05 7.83251E-18 8.49405E-18
 -1      1702 2.36406E-04-4.94760E-05-7.49922E-05 5.99249E-05 4.07211E-18 5.73441E-19
 -1      1703 1.90104E-04-2.60026E-05-6.72863E-05 7.60196E-05 5.41635E-18 5.09914E-18
 -1      1704 2.82976E-04-7.10712E-05-8.40000E-05 1.67455E-05 2.40811E-18-5.87587E-18
 -1      1705 2.61639E-04-5.85427E-05-8.13187E-05 5.45052E-05 2.92078E-18-6.77626E-19
 -1      1706 2.65568E-04-6.09147E-05-8.17565E-05-4.38557E-05 4.13098E-18-1.12317E-17
 -1      1707 2.80809E-04-6.99382E-05-8.38592E-05-4.32868E-06 2.83841E-18-7.64320E-18
 -1      1708 2.09098E-04-3.21750E-05-7.13202E-05-8.59504E-05 7.22667E-18-1.48688E-17
 -1      1709 2.53031E-04-5.62482E-05-7.79781E-05-6.46919E-05 4.58697E-18-1.33416E-17
 -1      1710 1.34086E-04-3.20396E-06-5.42079E-05-8.68006E-05 9.43849E-18-1.38168E-17
 -1      1711 1.82368E-04-2.27324E-05-6.35354E-05-9.26742E-05 8.34582E-18-1.52627E-17
 -1      1712 7.58415E-05-3.11890E-06-3.21473E-05-5.63802E-05 8.13152E-18-9.53336E-18
 -1      1713 1.11880E-04-4.73823E-06-4.37853E-05-7.95716E-05 8.62872E-18-1.22955E-17
 -1      1714 3.59703E-05-1.91766E-05-1.08844E-05-2.52900E-05 7.03715E-18-6.03215E-18
 -1      1715 4.87234E-05-5.60271E-07-2.14181E-05-4.87556E-05 8.49743E-18-8.55334E-18
 -1      1716 2.60521E-05-5.28465E-05 5.99204E-06-6.06478E-06 2.63935E-18-3.19543E-18
 -1      1717 2.31011E-05-2.59907E-05-1.97728E-06-1.54573E-05 6.00292E-18-5.03434E-18
 -1      1718 2.67647E-05-8.19630E-05 1.71975E-05-7.16274E-06-1.68517E-18-1.42429E-18
 -1      1719 2.10609E-05-6.08961E-05 1.20546E-05-1.67160E-06 1.28918E-18-2.18042E-18
 -1      1720 2.46433E-05-8.95075E-05 2.08142E-05-1.69354E-05-5.60757E-18-2.26391E-18
 -1      1721 2.49098E-05-8.62730E-05 1.99070E-05-4.48962E-06-2.73422E-18-1.36351E-18
 -1      1722 1.91480E-05-7.38574E-05 1.62002E-05-2.29290E-05-9.82897E-18-4.72030E-18
 -1      1723 2.57840E-05-8.92892E-05 1.96933E-05-1.55262E-05-7.08225E-18-3.14863E-18
 -1      1724 2.14451E-05-4.24963E-05 2.37626E-06-8.73588E-06-1.08192E-17-6.38748E-18
 -1      1725 2.44619E-05-6.75443E-05 1.04284E-05-1.73204E-05-1.09081E-17-5.15038E-18
 -1      1726 5.41093E-05-2.06102E-05-1.89261E-05 2.59169E-05-8.95144E-18-8.69733E-18
 -1      1727 3.77652E-05-3.84313E-05-7.28546E-06 1.10582E-06-1.03050E-17-7.17183E-18
 -1      1728 1.44160E-04-3.26656E-05-4.68108E-05 6.14615E-05-6.17826E-18-7.54198E-18
 -1      1729 9.14363E-05-2.80449E-05-3.18337E-05 3.24675E-05-8.07053E-18-8.20097E-18
 -1      1730 2.52306E-04-6.40763E-05-7.18051E-05 6.66560E-05-3.71339E-18-5.43795E-18
 -1      1731 1.79165E-04-3.70174E-05-5.93591E-05 6.10725E-05-5.54807E-18-7.31836E-18
 -1      1732 3.33903E-04-9.35763E-05-8.78086E-05 2.04118E-05-1.80460E-18-1.13418E-18
 -1      1733 2.76778E-04-6.75108E-05-7.99094E-05 4.99356E-05-3.43080E-18-3.67951E-18
 -1      1734 3.41090E-04-9.21792E-05-9.06742E-05-2.58888E-05-2.90659E-18 4.95006E-18
 -1      1735 3.46393E-04-9.41984E-05-9.13532E-05 1.81371E-05-2.13833E-18 8.34751E-19
 -1      1736 2.72068E-04-6.59236E-05-7.89479E-05-5.30651E-05-3.84744E-18 8.57197E-18
 -1      1737 3.29056E-04-9.15427E-05-8.67680E-05-2.77632E-05-2.88457E-18 5.55400E-18
 -1      1738 1.80599E-04-3.79591E-05-5.92330E-05-6.10257E-05-5.26346E-18 9.60874E-18
 -1      1739 2.48080E-04-6.27970E-05-7.10029E-05-6.72560E-05-3.54187E-18 1.03863E-17
 -1      1740 9.74510E-05-2.88644E-05-3.36615E-05-3.45816E-05-6.02240E-18 7.32853E-18
 -1      1741 1.47505E-04-3.40876E-05-4.75200E-05-6.06492E-05-5.47437E-18 8.56689E-18
 -1      1742 4.27999E-05-3.53401E-05-1.03881E-05-5.75726E-06-5.54298E-18 5.17791E-18
 -1      1743 6.04452E-05-2.00419E-05-2.15970E-05-2.96670E-05-6.34597E-18 6.86097E-18
 -1      1744 2.78312E-05-6.21798E-05 7.48300E-06 1.22346E-05-2.49875E-18 2.34385E-18
 -1      1745 2.70478E-05-3.87807E-05-1.11908E-06 1.26979E-06-3.90652E-18 4.37620E-18
 -1      1746 2.58642E-05-8.52282E-05 1.78247E-05 1.71524E-05-1.36499E-18 1.38638E-18
 -1      1747 1.86511E-05-6.65378E-05 1.34464E-05 2.12859E-05-2.81808E-18 8.24004E-19
 -1      1748 3.10184E-05-5.41577E-05 4.70203E-06-1.11936E-05-1.97359E-19 1.63424E-18
 -1      1749 2.52598E-05-8.81297E-05 2.04264E-05 6.87481E-06 3.91033E-18 2.24845E-18
 -1      1750 2.30560E-05-8.76249E-05 2.04962E-05 1.92784E-05-4.69468E-19 3.04741E-18
 -1      1751 1.99933E-04-6.30918E-05-5.83755E-05-4.02245E-05-3.01544E-18 6.76356E-19
 -1      1752 1.70305E-04-4.80876E-05-5.53458E-05-2.74699E-05-2.06507E-18-1.87279E-18
 -1      1753 1.45369E-04-3.50490E-05-5.35101E-05-2.27135E-05-2.00408E-18-3.89212E-18
 -1      1754 1.93593E-04-4.43044E-05-6.43454E-05-2.33985E-05-3.08151E-18-1.99900E-18
 -1      1755 1.10454E-05-5.49233E-05 1.42735E-05 1.53930E-05 2.97626E-18 3.36187E-18
 -1      1756 8.49575E-05-3.04832E-05-2.38057E-05 5.19500E-05 5.57432E-18 3.99757E-18
 -1      1757 9.52372E-05-2.85714E-05-2.85710E-05-3.48256E-10-4.61090E-18-2.78208E-18
 -1      1758 9.52372E-05-2.85711E-05-2.85712E-05-3.67260E-10-1.42852E-18-2.56637E-18
 -1      1759 2.32636E-05-4.76742E-05 6.88390E-06 2.89138E-05 3.60921E-18 4.01261E-18
 -1      1760 4.72637E-05-3.87034E-05-6.18183E-06 4.00835E-05 4.60447E-18 4.90559E-18
 -1      1761 1.32597E-04-2.85243E-05-4.30402E-05 5.63812E-05 5.32445E-18 3.76421E-18
 -1      1762 1.78314E-04-2.98251E-05-6.03944E-05 4.41317E-05 4.97944E-18 1.58310E-18
 -1      1763 2.13419E-04-3.28732E-05-7.32960E-05 2.38752E-05 5.64865E-18-1.51153E-18
 -1      1764 2.34819E-04-3.62924E-05-7.93629E-05 3.21520E-06 5.14657E-18-4.11452E-18
 -1      1765 2.23855E-04-3.47362E-05-7.57170E-05-2.75480E-05 4.91554E-18-7.06849E-18
 -1      1766 1.91063E-04-3.08589E-05-6.46397E-05-5.17859E-05 5.77221E-18-9.23435E-18
 -1      1767 1.44254E-04-3.11713E-05-4.70792E-05-5.39089E-05 4.66842E-18-8.67277E-18
 -1      1768 9.74784E-05-3.30195E-05-2.74949E-05-5.30167E-05 3.93447E-18-7.17352E-18
 -1      1769 5.24810E-05-3.69471E-05-8.75884E-06-4.15666E-05 2.67747E-18-5.81658E-18
 -1      1770 2.64004E-05-4.79961E-05 5.54285E-06-2.79841E-05 8.94467E-19-4.26439E-18
 -1      1771 1.30487E-05-5.58636E-05 1.37859E-05-1.70338E-05-1.14985E-18-2.81427E-18
 -1      1772 1.15870E-05-5.92920E-05 1.51782E-05-6.41343E-06-3.24096E-18-4.05729E-18
 -1      1773 2.43979E-05-5.71786E-05 8.51723E-06 4.86425E-06-5.05806E-18-4.18328E-18
 -1      1774 5.58845E-05-5.22752E-05-6.34141E-06 1.88597E-05-6.10287E-18-4.31987E-18
 -1      1775 1.17632E-04-5.77950E-05-2.80584E-05 2.82676E-05-4.85435E-18-4.50367E-18
 -1      1776 1.90761E-04-6.59292E-05-5.17420E-05 1.82237E-05-4.45412E-18-3.45759E-18
 -1      1777 2.47976E-04-6.41464E-05-7.12351E-05 3.90427E-07-4.18180E-18-1.63901E-18
 -1      1778 2.68188E-04-5.45981E-05-8.10445E-05-6.00661E-06-3.87263E-18 1.99476E-19
 -1      1779 2.70252E-04-5.71715E-05-8.08241E-05 6.47484E-06-4.11997E-18 1.11300E-18
 -1      1780 2.46105E-04-6.49146E-05-7.07664E-05-1.88377E-08-2.30456E-18 3.47114E-18
 -1      1781 1.91075E-04-6.55696E-05-5.18133E-05-2.04886E-05-2.25734E-18 3.63631E-18
 -1      1782 1.22633E-04-5.81035E-05-2.99695E-05-2.76364E-05-2.78504E-18 3.50163E-18
 -1      1783 6.46196E-05-5.28740E-05-9.45944E-06-2.21616E-05-1.12994E-18 4.07084E-18
 -1      1784 1.06309E-04-2.31470E-05-3.57351E-05-1.71753E-05-1.33171E-18 2.59192E-18
 -1      1785 1.42945E-05-5.89774E-05 1.39409E-05 4.16999E-06 8.39833E-19 2.95403E-18
 -1      1786 8.91716E-05-1.05655E-05-3.38121E-05-1.32653E-05-9.99509E-19-2.50992E-18
 -1      1787 9.05091E-05-1.16499E-05-3.39512E-05-1.50344E-05-1.32955E-18-2.25245E-18
 -1      1788 9.25451E-05-1.39068E-05-3.38646E-05-1.59702E-05-1.45589E-18-1.77615E-18
 -1      1789 9.42174E-05-1.58027E-05-3.40977E-05-1.76803E-05-1.75349E-18-1.14694E-18
 -1      1790 9.35895E-05-1.64432E-05-3.30454E-05-1.37180E-05-1.52655E-18-1.81858E-18
 -1      1791 8.62049E-05-7.63982E-06-3.37422E-05-7.80680E-06 3.52842E-20-2.74167E-18
 -1      1792 8.66186E-05-7.94438E-06-3.37778E-05-9.18918E-06-1.85934E-19-2.79926E-18
 -1      1793 8.55662E-05-6.99074E-06-3.37346E-05-5.28091E-06 4.43085E-19-2.52003E-18
 -1      1794 8.58108E-05-7.17309E-06-3.37522E-05-6.57630E-06 2.25427E-19-2.69368E-18
 -1      1795 8.75737E-05-9.81630E-06-3.33566E-05-6.87292E-06 1.00785E-19-2.57330E-18
 -1      1796 8.52149E-05-6.62590E-06-3.37332E-05-2.87202E-06 8.90354E-19-2.21019E-18
 -1      1797 8.53428E-05-6.72236E-06-3.37414E-05-4.10108E-06 6.85950E-19-2.38456E-18
 -1      1798 8.69143E-05-9.09063E-06-3.33850E-05-4.50299E-06 5.91587E-19-2.31836E-18
 -1      1799 8.50768E-05-6.47857E-06-3.37330E-05-5.24015E-07 1.30479E-18-1.93147E-18
 -1      1800 8.51152E-05-6.50659E-06-3.37360E-05-1.72308E-06 1.10893E-18-2.09866E-18
 -1      1801 8.65678E-05-8.70791E-06-3.34004E-05-2.20858E-06 1.04386E-18-2.03756E-18
 -1      1802 8.51236E-05-6.52250E-06-3.37324E-05 1.81790E-06 1.62758E-18-1.64327E-18
 -1      1803 8.50806E-05-6.48724E-06-3.37315E-05 6.16469E-07 1.48675E-18-1.84341E-18
 -1      1804 8.64657E-05-8.59922E-06-3.34033E-05 4.94166E-08 1.46674E-18-1.77750E-18
 -1      1805 8.53634E-05-6.76260E-06-3.37328E-05 4.20764E-06 1.87022E-18-1.25901E-18
 -1      1806 8.52310E-05-6.65848E-06-3.37267E-05 2.97190E-06 1.77530E-18-1.53624E-18
 -1      1807 8.65869E-05-8.74321E-06-3.33939E-05 2.31291E-06 1.80418E-18-1.50452E-18
 -1      1808 8.58336E-05-7.22671E-06-3.37393E-05 6.65809E-06 2.08625E-18-6.98445E-19
 -1      1809 8.55891E-05-7.04081E-06-3.37236E-05 5.37555E-06 1.96467E-18-1.04992E-18
 -1      1810 8.69475E-05-9.15404E-06-3.33725E-05 4.60159E-06 2.05756E-18-1.04904E-18
 -1      1811 8.66625E-05-8.02695E-06-3.37623E-05 9.31396E-06 2.37594E-18 1.67421E-19
 -1      1812 8.62344E-05-7.70706E-06-3.37271E-05 7.89579E-06 2.19096E-18-2.97851E-19
 -1      1813 8.76165E-05-9.90120E-06-3.33393E-05 6.96804E-06 2.23168E-18-4.03241E-19
 -1      1814 8.80879E-05-9.38167E-06-3.38206E-05 1.21903E-05 2.55977E-18 1.24670E-18
 -1      1815 8.73426E-05-8.82152E-06-3.37472E-05 1.05984E-05 2.44556E-18 6.14337E-19
 -1      1816 8.87550E-05-1.11489E-05-3.32911E-05 9.43924E-06 2.48300E-18 5.02714E-19
 -1      1817 9.06669E-05-1.18538E-05-3.39336E-05 1.52640E-05 2.43675E-18 2.93502E-18
 -1      1818 8.92869E-05-1.07507E-05-3.37927E-05 1.34375E-05 2.47508E-18 1.88152E-18
 -1      1819 9.06671E-05-1.32244E-05-3.32120E-05 1.18914E-05 2.55623E-18 1.63365E-18
 -1      1820 9.59206E-05-1.70961E-05-3.40014E-05 1.76190E-05 1.96604E-18 5.53658E-18
 -1      1821 9.28733E-05-1.43372E-05-3.38340E-05 1.61173E-05 2.16407E-18 4.01983E-18
 -1      1822 9.39118E-05-1.68683E-05-3.30210E-05 1.37936E-05 2.31504E-18 3.41706E-18
 -1      1823 1.01952E-04-2.51098E-05-3.33685E-05 1.43707E-05 1.34890E-18 8.35079E-18
 -1      1824 9.81026E-05-1.95934E-05-3.36352E-05 1.69196E-05 1.65097E-18 6.55434E-18
 -1      1825 9.74475E-05-2.18920E-05-3.24293E-05 1.32243E-05 1.93092E-18 5.44846E-18
 -1      1826 9.88260E-05-2.61627E-05-3.13554E-05 9.38695E-06 1.42471E-18 7.87776E-18
 -1      1827 1.00241E-04-1.94580E-05-3.42963E-05-1.90594E-05-1.66429E-18 1.85077E-19
 -1      1828 9.54529E-05-2.73288E-05-2.92133E-05 4.06061E-06 1.12854E-18 6.93361E-18
 -1      1829 9.77816E-05-2.74092E-05-3.02101E-05 6.35316E-06 1.17071E-18 7.38564E-18
 -1      1830 9.76311E-05-2.56302E-05-3.08385E-05 8.66958E-06 1.47193E-18 5.93840E-18
 -1      1831 1.12730E-05-3.93056E-05 1.02956E-05-1.08317E-06 1.73186E-18 3.66723E-18
 -1      1832 1.95680E-05-4.15931E-05 7.58244E-06-9.76212E-06 6.83132E-19 1.23709E-18
 -1      1833 2.26827E-04-5.74199E-05-7.02284E-05-2.27196E-05-3.38898E-18-3.54060E-19
 -1      1834 2.16710E-04-4.41301E-05-7.16907E-05-8.34338E-06-3.35510E-18-2.28064E-18
 -1      1835 9.71129E-05-2.69190E-05-2.99814E-05-5.91130E-06-1.47503E-18-2.67532E-19
 -1      1836 9.53127E-05-2.69900E-05-2.92500E-05-3.98556E-06-1.26494E-18-6.14972E-19
 -1      1837 9.45065E-05-2.72373E-05-2.87345E-05-2.45068E-06-1.08118E-18-5.77974E-19
 -1      1838 9.37419E-05-2.73273E-05-2.84245E-05-1.55443E-06-8.45610E-19-8.88647E-19
 -1      1839 9.56513E-05-2.64743E-05-2.96629E-05-4.54061E-06-1.38467E-18-9.03040E-19
 -1      1840 9.32270E-05-2.73804E-05-2.81589E-05-6.77119E-07-8.38404E-19-8.76553E-19
 -1      1841 9.29515E-05-2.74482E-05-2.80447E-05-1.98168E-07-7.98560E-19-1.13388E-18
 -1      1842 9.44684E-05-2.72031E-05-2.88492E-05-1.78062E-06-1.06642E-18-1.09409E-18
 -1      1843 9.27030E-05-2.74773E-05-2.79214E-05 3.17346E-07-6.95589E-19-1.13566E-18
 -1      1844 9.27291E-05-2.75580E-05-2.79105E-05 5.93828E-07-5.10190E-19-1.23840E-18
 -1      1845 9.38018E-05-2.75075E-05-2.84295E-05-1.86376E-07-8.47663E-19-1.10247E-18
 -1      1846 9.26710E-05-2.75858E-05-2.78767E-05 9.04608E-07-3.22664E-19-1.21727E-18
 -1      1847 9.28745E-05-2.76761E-05-2.79252E-05 1.08047E-06-3.22268E-19-1.30899E-18
 -1      1848 9.35525E-05-2.76781E-05-2.82463E-05 7.61076E-07-4.70330E-19-1.09287E-18
 -1      1849 9.29480E-05-2.77100E-05-2.79501E-05 1.32405E-06-1.36467E-19-1.21061E-18
 -1      1850 9.32989E-05-2.78109E-05-2.80483E-05 1.48671E-06 4.03995E-20-1.04496E-18
 -1      1851 9.35886E-05-2.77818E-05-2.82132E-05 1.39772E-06-2.25585E-19-9.75664E-19
 -1      1852 9.34690E-05-2.78371E-05-2.81228E-05 1.72463E-06-1.16763E-19-1.14220E-18
 -1      1853 9.39533E-05-2.79427E-05-2.82668E-05 1.92622E-06-1.34002E-19-9.42366E-19
 -1      1854 9.38377E-05-2.78417E-05-2.82913E-05 1.94527E-06 3.63149E-20-8.13247E-19
 -1      1855 9.41975E-05-2.79500E-05-2.83885E-05 2.23901E-06-4.26709E-19-7.79255E-19
 -1      1856 9.48465E-05-2.80590E-05-2.85892E-05 2.55053E-06-2.33318E-19-1.00583E-18
 -1      1857 9.42411E-05-2.78297E-05-2.84668E-05 2.56167E-06-1.94622E-19-9.13550E-19
 -1      1858 9.51488E-05-2.80273E-05-2.87643E-05 3.03221E-06-1.69162E-19-9.76369E-19
 -1      1859 9.60376E-05-2.81426E-05-2.90467E-05 3.54959E-06-3.25671E-19-9.80800E-19
 -1      1860 9.47600E-05-2.77040E-05-2.87400E-05 3.43620E-06-3.04227E-19-7.79834E-19
 -1      1861 9.63784E-05-2.80395E-05-2.92884E-05 4.32383E-06-4.56121E-19-8.49706E-19
 -1      1862 9.76339E-05-2.81696E-05-2.96948E-05 5.18350E-06-1.56125E-19-9.10246E-19
 -1      1863 9.53582E-05-2.73931E-05-2.91247E-05 4.80168E-06-2.78581E-19-4.11037E-19
 -1      1864 9.79714E-05-2.79449E-05-3.00187E-05 6.41658E-06-9.45236E-20-1.15919E-18
 -1      1865 9.97817E-05-2.81113E-05-3.06094E-05 7.80664E-06 8.61128E-20-1.34155E-18
 -1      1866 9.59753E-05-2.67886E-05-2.96393E-05 6.96168E-06-2.44624E-19-6.71859E-19
 -1      1867 1.00029E-04-2.77038E-05-3.10207E-05 9.70560E-06 2.78065E-20-1.50394E-18
 -1      1868 1.02624E-04-2.79610E-05-3.18622E-05 1.18504E-05-9.42854E-20-1.63983E-18
 -1      1869 9.64906E-05-2.57565E-05-3.02863E-05 1.02987E-05-1.11345E-19-1.17730E-18
 -1      1870 1.02626E-04-2.73819E-05-3.23028E-05 1.44863E-05 4.07105E-20-1.74858E-18
 -1      1871 1.06169E-04-2.79120E-05-3.33783E-05 1.73112E-05 6.06026E-20-1.50806E-18
 -1      1872 9.66976E-05-2.42508E-05-3.09826E-05 1.50583E-05-1.16182E-19-1.15070E-18
 -1      1873 1.05887E-04-2.72851E-05-3.37539E-05 2.10013E-05 3.81621E-19-1.18122E-18
 -1      1874 1.11018E-04-2.86935E-05-3.50772E-05 2.45078E-05 7.87701E-19-9.04446E-19
 -1      1875 9.63957E-05-2.25658E-05-3.15295E-05 2.15823E-05 4.95481E-19-7.48585E-19
 -1      1876 1.10853E-04-2.90161E-05-3.50338E-05 2.87014E-05 1.10308E-18-5.59684E-19
 -1      1877 1.17821E-04-3.26743E-05-3.61867E-05 3.10788E-05 1.33508E-18-1.17883E-19
 -1      1878 9.58298E-05-2.21392E-05-3.13681E-05 2.96970E-05 1.26189E-18-9.05399E-20
 -1      1879 1.19691E-04-3.61518E-05-3.53705E-05 3.38489E-05 1.74441E-18 1.74753E-19
 -1      1880 1.28635E-04-4.40101E-05-3.58818E-05 3.15446E-05 1.90307E-18 6.85250E-19
 -1      1881 9.73345E-05-2.71540E-05-2.96463E-05 3.71755E-05 1.87083E-18 6.12617E-19
 -1      1882 1.88716E-04-7.05544E-05-5.03762E-05 2.10090E-05 9.16860E-19-3.33710E-18
 -1      1883 1.85609E-04-7.33615E-05-4.75074E-05 7.13644E-06 2.12139E-18-3.44573E-18
 -1      1884 1.68658E-04-6.60930E-05-4.35631E-05-5.83247E-06 2.77043E-18-3.73621E-18
 -1      1885 1.61226E-04-5.95530E-05-4.26623E-05-1.76196E-05 3.09686E-18-2.38194E-18
 -1      1886 1.50143E-04-5.07272E-05-4.21947E-05-2.45813E-05 2.62961E-18-2.24711E-18
 -1      1887 1.40022E-04-4.31418E-05-4.09809E-05-2.86625E-05 1.42545E-18-9.03440E-19
 -1      1888 1.35261E-04-5.23343E-05-3.52870E-05-3.01393E-05 3.31105E-18-1.15276E-18
 -1      1889 1.34886E-04-3.95454E-05-4.06661E-05-2.75085E-05 1.40766E-19-1.58496E-18
 -1      1890 1.26168E-04-3.51966E-05-3.89022E-05-2.60403E-05-3.61405E-19-1.61376E-18
 -1      1891 1.19556E-04-3.60622E-05-3.55657E-05-3.41788E-05 6.61109E-19-8.24560E-19
 -1      1892 1.23295E-04-3.41889E-05-3.80955E-05-2.22519E-05-4.70659E-19-1.75675E-18
 -1      1893 1.16163E-04-3.17853E-05-3.62258E-05-1.92377E-05-6.17103E-19-2.01340E-18
 -1      1894 1.11733E-04-2.94490E-05-3.51535E-05-2.87407E-05-5.64541E-19-1.16940E-18
 -1      1895 1.14277E-04-3.17087E-05-3.53044E-05-1.55371E-05-5.55918E-19-2.01994E-18
 -1      1896 1.09225E-04-3.04386E-05-3.38241E-05-1.28799E-05 7.44251E-19-1.42647E-18
 -1      1897 1.06954E-04-2.77981E-05-3.38804E-05-2.08461E-05-4.22669E-19-6.73193E-19
 -1      1898 1.07784E-04-3.04885E-05-3.30429E-05-1.00977E-05 1.63869E-18-1.58452E-18
 -1      1899 1.04414E-04-2.97812E-05-3.20134E-05-8.19982E-06 4.12849E-19-1.60953E-18
 -1      1900 1.03582E-04-2.78434E-05-3.24390E-05-1.39779E-05 8.81483E-19 6.96072E-20
 -1      1901 1.03320E-04-2.97950E-05-3.14375E-05-6.31773E-06-5.89138E-19-1.35703E-18
 -1      1902 1.01157E-04-2.93841E-05-3.07683E-05-5.07962E-06-1.32515E-18-1.04780E-18
 -1      1903 1.01054E-04-2.81660E-05-3.12258E-05-8.96880E-06-2.81744E-19-1.89495E-18
 -1      1904 1.00361E-04-2.93618E-05-3.03727E-05-3.87159E-06-8.24759E-19-5.74709E-19
 -1      1905 9.90057E-05-2.91172E-05-2.99523E-05-3.09822E-06-9.83352E-21 4.45132E-19
 -1      1906 9.91941E-05-2.84069E-05-3.03310E-05-5.60932E-06-6.42302E-19-4.91762E-19
 -1      1907 9.84493E-05-2.90807E-05-2.96907E-05-2.34465E-06 7.20961E-19 1.54891E-18
 -1      1908 9.76120E-05-2.89336E-05-2.94312E-05-1.87219E-06 1.21865E-18 1.49429E-18
 -1      1909 9.78754E-05-2.85370E-05-2.97138E-05-3.45475E-06 7.71220E-19 6.72083E-19
 -1      1910 9.72346E-05-2.88975E-05-2.92619E-05-1.40969E-06 3.08290E-19 1.49036E-18
 -1      1911 9.67239E-05-2.88088E-05-2.91033E-05-1.12480E-06-3.72314E-20 6.58549E-19
 -1      1912 9.69693E-05-2.85937E-05-2.93033E-05-2.10734E-06 6.52229E-19 1.91675E-18
 -1      1913 9.64847E-05-2.87794E-05-2.90002E-05-8.56107E-07-1.96293E-19 5.57229E-19
 -1      1914 9.61839E-05-2.87283E-05-2.89070E-05-6.90734E-07 5.62491E-19-2.94615E-19
 -1      1915 9.63733E-05-2.86138E-05-2.90411E-05-1.29049E-06-5.01225E-19 9.02430E-19
 -1      1916 9.60149E-05-2.87052E-05-2.88368E-05-5.16104E-07-3.42626E-19-1.43089E-18
 -1      1917 9.58216E-05-2.86720E-05-2.87767E-05-4.11551E-07-1.25645E-18-1.60202E-18
 -1      1918 9.59771E-05-2.86120E-05-2.88714E-05-7.90691E-07-9.40506E-19 8.35733E-19
 -1      1919 9.57127E-05-2.86548E-05-2.87327E-05-3.06998E-07-2.11609E-18-2.07143E-18
 -1      1920 9.55961E-05-2.86351E-05-2.86964E-05-2.44746E-07-1.12418E-18-2.22230E-18
 -1      1921 9.57102E-05-2.86060E-05-2.87597E-05-4.75816E-07-2.05328E-18-1.90471E-18
 -1      1922 9.55259E-05-2.86228E-05-2.86688E-05-1.82140E-07 9.13470E-19-2.13523E-18
 -1      1923 9.54556E-05-2.86111E-05-2.86469E-05-1.45201E-07 2.42371E-18-1.16056E-18
 -1      1924 9.55373E-05-2.85981E-05-2.86889E-05-2.85655E-07 4.63097E-21-1.03994E-18
 -1      1925 9.54105E-05-2.86025E-05-2.86296E-05-1.07764E-07 2.83832E-18-1.85516E-18
 -1      1926 9.53684E-05-2.85955E-05-2.86164E-05-8.58559E-08 2.03211E-18-1.96514E-18
 -1      1927 9.54261E-05-2.85907E-05-2.86443E-05-1.71118E-07 2.37191E-18-7.84626E-19
 -1      1928 9.53395E-05-2.85896E-05-2.86056E-05-6.34684E-08 1.08403E-18-2.59756E-18
 -1      1929 9.53143E-05-2.85855E-05-2.85977E-05-5.04598E-08 1.13338E-18-2.16112E-18
 -1      1930 9.53546E-05-2.85845E-05-2.86161E-05-1.02194E-07 1.18601E-18-2.38657E-18
 -1      1931 9.52958E-05-2.85815E-05-2.85910E-05-3.70431E-08-2.43869E-19-1.24185E-18
 -1      1932 9.52808E-05-2.85791E-05-2.85862E-05-2.92926E-08-8.06577E-19-1.70666E-18
 -1      1933 9.53089E-05-2.85798E-05-2.85985E-05-6.06704E-08 3.48109E-19-2.76590E-18
 -1      1934 9.52692E-05-2.85764E-05-2.85821E-05-2.12084E-08-3.57675E-19-2.55252E-18
 -1      1935 9.52604E-05-2.85750E-05-2.85793E-05-1.65765E-08-6.40758E-19-3.14412E-18
 -1      1936 9.52798E-05-2.85763E-05-2.85874E-05-3.55695E-08-9.57990E-19-2.73643E-18
 -1      1937 9.52534E-05-2.85734E-05-2.85768E-05-1.18761E-08-6.53235E-19-4.14568E-18
 -1      1938 9.52486E-05-2.85727E-05-2.85753E-05-9.16487E-09 9.64964E-20-3.91017E-18
 -1      1939 9.52618E-05-2.85740E-05-2.85806E-05-2.05351E-08-7.28174E-19-3.89463E-18
 -1      1940 9.52440E-05-2.85716E-05-2.85737E-05-6.07431E-09 2.70897E-19-3.35114E-18
 -1      1941 9.52413E-05-2.85712E-05-2.85728E-05-4.30761E-09 2.56866E-19-3.39212E-18
 -1      1942 9.52505E-05-2.85723E-05-2.85764E-05-1.13065E-08 1.55621E-19-3.80735E-18
 -1      1943 9.52386E-05-2.85706E-05-2.85719E-05-2.40572E-09 8.72636E-19-2.94046E-18
 -1      1944 9.52374E-05-2.85705E-05-2.85715E-05-1.30510E-09 2.01205E-19-1.17548E-18
 -1      1945 9.52434E-05-2.85713E-05-2.85738E-05-5.36354E-09 8.83631E-19-3.05630E-18
 -1      1946 9.52359E-05-2.85701E-05-2.85710E-05-1.27395E-10 1.20349E-18-5.28610E-19
 -1      1947 9.52356E-05-2.85703E-05-2.85708E-05 5.56509E-10 2.49142E-18-8.95872E-20
 -1      1948 9.52394E-05-2.85708E-05-2.85723E-05-1.65245E-09 1.15642E-18-7.59496E-19
 -1      1949 9.52349E-05-2.85701E-05-2.85706E-05 1.26207E-09 2.80395E-19 5.00677E-19
 -1      1950 9.52352E-05-2.85704E-05-2.85706E-05 1.66037E-09-1.68600E-18 4.23105E-19
 -1      1951 9.52373E-05-2.85706E-05-2.85715E-05 6.44025E-10 1.14195E-18-1.03813E-18
 -1      1952 9.52350E-05-2.85703E-05-2.85706E-05 2.00992E-09-1.01689E-18 1.27056E-18
 -1      1953 9.52356E-05-2.85707E-05-2.85707E-05 2.15653E-09 5.83411E-19 1.57832E-18
 -1      1954 9.52365E-05-2.85707E-05-2.85711E-05 1.96273E-09-4.13198E-19-3.89269E-19
 -1      1955 9.52358E-05-2.85708E-05-2.85707E-05 2.16240E-09-1.11435E-18 1.87256E-18
 -1      1956 9.52364E-05-2.85712E-05-2.85708E-05 1.96784E-09-7.96592E-20 4.79231E-19
 -1      1957 9.52365E-05-2.85710E-05-2.85709E-05 2.46318E-09-2.59473E-19 1.92984E-18
 -1      1958 9.52366E-05-2.85714E-05-2.85708E-05 1.88719E-09-3.52033E-20-1.11110E-18
 -1      1959 9.52370E-05-2.85717E-05-2.85708E-05 1.60842E-09-3.28684E-19-1.49487E-18
 -1      1960 9.52373E-05-2.85721E-05-2.85708E-05 1.96429E-09-1.40211E-18-3.01691E-19
 -1      1961 9.52369E-05-2.85716E-05-2.85709E-05 2.30446E-09-1.22177E-18 1.80022E-18
 -1      1962 9.99234E-05-2.24398E-05-3.29240E-05-1.46105E-05-1.69057E-18-2.59827E-19
 -1      1963 9.28476E-05-2.73884E-05-2.80204E-05 7.48797E-07 6.97783E-19 5.22671E-18
 -1      1964 9.33106E-05-2.73380E-05-2.82135E-05 1.32616E-06 7.49055E-19 5.49589E-18
 -1      1965 9.23239E-05-2.74682E-05-2.77748E-05-1.10401E-07 5.27008E-19 4.81845E-18
 -1      1966 9.24444E-05-2.74038E-05-2.78327E-05 1.71448E-07 5.39795E-19 4.98410E-18
 -1      1967 9.37550E-05-2.74579E-05-2.84295E-05 9.11994E-07 8.34552E-19 3.52360E-18
 -1      1968 9.22167E-05-2.75735E-05-2.76933E-05-5.36618E-07 4.67995E-19 4.49321E-18
 -1      1969 9.21428E-05-2.74892E-05-2.76873E-05-4.09963E-07 5.31162E-19 4.72039E-18
 -1      1970 9.32352E-05-2.76485E-05-2.81226E-05-1.19853E-07 6.97121E-19 3.17770E-18
 -1      1971 9.23357E-05-2.77009E-05-2.76962E-05-6.86918E-07 4.08225E-19 4.12153E-18
 -1      1972 9.21751E-05-2.76094E-05-2.76616E-05-6.58006E-07 4.24288E-19 4.35807E-18
 -1      1973 9.30617E-05-2.78048E-05-2.79767E-05-6.24260E-07 6.32490E-19 2.99789E-18
 -1      1974 9.25403E-05-2.78327E-05-2.77324E-05-6.43704E-07 2.10227E-19 3.95153E-18
 -1      1975 9.23670E-05-2.77462E-05-2.76920E-05-6.86379E-07 1.11944E-19 3.97521E-18
 -1      1976 9.30848E-05-2.79530E-05-2.79189E-05-7.86684E-07 4.08001E-19 2.60760E-18
 -1      1977 9.27237E-05-2.79502E-05-2.77652E-05-4.44986E-07 7.52941E-20 4.05110E-18
 -1      1978 9.25934E-05-2.78799E-05-2.77359E-05-5.48505E-07 1.82683E-19 3.97581E-18
 -1      1979 9.31953E-05-2.80973E-05-2.79008E-05-7.01514E-07 1.38339E-19 2.52524E-18
 -1      1980 9.27970E-05-2.80342E-05-2.77649E-05-1.04157E-07 5.21141E-19 4.04018E-18
 -1      1981 9.27578E-05-2.79915E-05-2.77612E-05-2.66101E-07 3.30962E-19 4.17858E-18
 -1      1982 9.33059E-05-2.82312E-05-2.78878E-05-4.12605E-07 2.22675E-19 2.58591E-18
 -1      1983 9.26794E-05-2.80623E-05-2.77066E-05 3.76884E-07 8.65649E-19 3.63356E-18
 -1      1984 9.27761E-05-2.80606E-05-2.77414E-05 1.55764E-07 8.12348E-19 3.88915E-18
 -1      1985 9.33420E-05-2.83421E-05-2.78530E-05 6.40625E-08 7.94588E-19 2.63230E-18
 -1      1986 9.22940E-05-2.80073E-05-2.75685E-05 9.95031E-07 5.74348E-19 3.16752E-18
 -1      1987 9.25694E-05-2.80624E-05-2.76534E-05 7.16302E-07 8.41205E-19 3.48364E-18
 -1      1988 9.32344E-05-2.84098E-05-2.77752E-05 7.23680E-07 9.34497E-19 2.42219E-18
 -1      1989 9.15712E-05-2.78366E-05-2.73338E-05 1.73125E-06-4.81100E-19 3.20364E-18
 -1      1990 9.20622E-05-2.79663E-05-2.74781E-05 1.40532E-06-3.51883E-20 2.99477E-18
 -1      1991 9.29149E-05-2.84040E-05-2.76383E-05 1.55557E-06 3.89940E-19 2.15673E-18
 -1      1992 9.04586E-05-2.75155E-05-2.69942E-05 2.53444E-06-4.08387E-19 3.12513E-18
 -1      1993 9.11881E-05-2.77367E-05-2.72021E-05 2.18742E-06-6.08113E-19 3.14829E-18
 -1      1994 9.23179E-05-2.82831E-05-2.74320E-05 2.52373E-06-5.27296E-19 1.79349E-18
 -1      1995 8.89408E-05-2.70158E-05-2.65542E-05 3.30814E-06-8.23706E-20 3.26413E-18
 -1      1996 8.99051E-05-2.73388E-05-2.68221E-05 2.98673E-06-7.16471E-20 3.18257E-18
 -1      1997 9.13892E-05-2.79988E-05-2.71547E-05 3.54669E-06-4.14032E-19 1.92678E-18
 -1      1998 8.70632E-05-2.63307E-05-2.60359E-05 3.90821E-06 3.94998E-19 2.98832E-18
 -1      1999 8.82182E-05-2.67507E-05-2.63493E-05 3.67864E-06 1.65707E-19 3.17343E-18
 -1      2000 9.01047E-05-2.75078E-05-2.68153E-05 4.48351E-06 5.10006E-20 1.41653E-18
 -1      2001 8.49554E-05-2.54940E-05-2.54809E-05 4.16130E-06 6.28283E-19 3.04299E-18
 -1      2002 8.62072E-05-2.59820E-05-2.58131E-05 4.09839E-06 6.25552E-19 3.02641E-18
 -1      2003 8.84959E-05-2.67945E-05-2.64351E-05 5.13688E-06 5.78451E-19 1.64215E-18
 -1      2004 8.28395E-05-2.45945E-05-2.49485E-05 3.90944E-06 4.85770E-19 3.12945E-18
 -1      2005 8.40460E-05-2.50926E-05-2.52622E-05 4.07463E-06 6.11087E-19 2.89900E-18
 -1      2006 8.66776E-05-2.58976E-05-2.60473E-05 5.28546E-06 6.75860E-19 1.79101E-18
 -1      2007 8.10098E-05-2.37733E-05-2.45070E-05 3.07318E-06-2.54533E-19 3.02799E-18
 -1      2008 8.20000E-05-2.42009E-05-2.47598E-05 3.48700E-06 1.29374E-19 3.21034E-18
 -1      2009 8.48597E-05-2.49289E-05-2.56933E-05 4.74878E-06 3.10525E-19 2.37011E-18
 -1      2010 7.97745E-05-2.31947E-05-2.42206E-05 1.70789E-06 3.43617E-19 3.07596E-18
 -1      2011 8.03854E-05-2.34673E-05-2.43737E-05 2.32945E-06-2.11285E-19 3.06909E-18
 -1      2012 8.33247E-05-2.40652E-05-2.54162E-05 3.46926E-06-1.56380E-19 1.66620E-18
 -1      2013 7.93725E-05-2.29936E-05-2.41348E-05 1.83517E-08 1.89722E-19 2.85590E-18
 -1      2014 7.94923E-05-2.30503E-05-2.41624E-05 7.46235E-07 4.46562E-19 3.19944E-18
 -1      2015 8.23632E-05-2.35029E-05-2.52529E-05 1.57357E-06 1.83177E-19 2.18712E-18
 -1      2016 7.98948E-05-2.32228E-05-2.42649E-05-1.68972E-06 4.37519E-19 3.33663E-18
 -1      2017 7.94970E-05-2.30495E-05-2.41613E-05-9.89717E-07 2.97017E-19 3.33062E-18
 -1      2018 8.21822E-05-2.33869E-05-2.52272E-05-6.30335E-07 4.29303E-19 2.49167E-18
 -1      2019 8.12525E-05-2.38310E-05-2.45931E-05-3.10666E-06 4.98327E-20 3.53281E-18
 -1      2020 8.04034E-05-2.34655E-05-2.43735E-05-2.55802E-06 3.76562E-19 3.34674E-18
 -1      2021 8.28290E-05-2.37496E-05-2.53444E-05-2.73739E-06 3.79193E-19 3.10621E-18
 -1      2022 8.32078E-05-2.46840E-05-2.50725E-05-4.01750E-06-6.93703E-19 2.56379E-18
 -1      2023 8.20452E-05-2.42008E-05-2.47693E-05-3.69509E-06-2.65800E-19 2.96621E-18
 -1      2024 8.41741E-05-2.44975E-05-2.55914E-05-4.37738E-06-2.25949E-19 2.25260E-18
 -1      2025 8.54523E-05-2.56174E-05-2.56401E-05-4.35501E-06 9.46879E-19 1.61909E-18
 -1      2026 8.41444E-05-2.51008E-05-2.52940E-05-4.27010E-06-1.47142E-19 2.00825E-18
 -1      2027 8.59622E-05-2.54522E-05-2.59383E-05-5.32875E-06 1.40141E-19 7.14407E-19
 -1      2028 8.76937E-05-2.64899E-05-2.62308E-05-4.19010E-06 6.23935E-19 1.18066E-18
 -1      2029 8.63974E-05-2.60097E-05-2.58815E-05-4.30086E-06 1.14537E-18 1.75577E-18
 -1      2030 8.79013E-05-2.64207E-05-2.63458E-05-5.56228E-06 8.11159E-19 1.77621E-19
 -1      2031 8.97161E-05-2.72140E-05-2.67895E-05-3.67733E-06 4.78550E-19 1.22512E-18
 -1      2032 8.85479E-05-2.68127E-05-2.64683E-05-3.91436E-06 5.33040E-19 9.61621E-19
 -1      2033 8.97447E-05-2.72576E-05-2.67719E-05-5.20754E-06 9.07909E-19 9.78946E-19
 -1      2034 9.14000E-05-2.77592E-05-2.72786E-05-2.99030E-06-3.96438E-19 1.30463E-18
 -1      2035 9.04258E-05-2.74518E-05-2.70051E-05-3.28257E-06 2.40819E-19 1.24657E-18
 -1      2036 9.13349E-05-2.78906E-05-2.71800E-05-4.47489E-06 3.38348E-19 8.90226E-19
 -1      2037 9.27106E-05-2.81357E-05-2.76792E-05-2.27457E-06-7.79968E-19 1.33404E-18
 -1      2038 9.19509E-05-2.79177E-05-2.74614E-05-2.56617E-06-8.01720E-19 1.49930E-18
 -1      2039 9.26051E-05-2.83136E-05-2.75432E-05-3.57790E-06-3.99270E-19 1.56779E-18
 -1      2040 9.36720E-05-2.83753E-05-2.79883E-05-1.62683E-06-5.86689E-19 1.80090E-18
 -1      2041 9.31143E-05-2.82315E-05-2.78250E-05-1.88301E-06-9.50255E-19 9.90548E-19
 -1      2042 9.35569E-05-2.85610E-05-2.78464E-05-2.68387E-06-5.99606E-19 1.31697E-18
 -1      2043 9.43391E-05-2.85150E-05-2.82139E-05-1.09538E-06 3.14420E-19 2.65376E-18
 -1      2044 9.39528E-05-2.84269E-05-2.80983E-05-1.30065E-06-1.02582E-19 2.25992E-18
 -1      2045 9.42313E-05-2.86819E-05-2.80854E-05-1.89686E-06-7.28166E-19 1.16554E-18
 -1      2046 9.47770E-05-2.85877E-05-2.83697E-05-6.91685E-07 1.60221E-19 2.39404E-18
 -1      2047 9.45248E-05-2.85384E-05-2.82926E-05-8.44385E-07 6.77583E-19 2.87482E-18
 -1      2048 9.46847E-05-2.87229E-05-2.82639E-05-1.26348E-06 2.73284E-19 2.47160E-18
 -1      2049 9.50472E-05-2.86192E-05-2.84713E-05-4.04742E-07-6.94746E-19 2.30573E-18
 -1      2050 9.48932E-05-2.85950E-05-2.84230E-05-5.11108E-07 9.51837E-20 2.29520E-18
 -1      2051 9.49736E-05-2.87201E-05-2.83905E-05-7.89265E-07 4.24336E-19 2.61168E-18
 -1      2052 9.52016E-05-2.86274E-05-2.85334E-05-2.13131E-07 4.30957E-19 2.16559E-18
 -1      2053 9.51152E-05-2.86182E-05-2.85054E-05-2.82652E-07-2.57851E-19 2.18290E-18
 -1      2054 9.51465E-05-2.86975E-05-2.84755E-05-4.56037E-07-1.73971E-19 2.58930E-18
 -1      2055 9.52803E-05-2.86236E-05-2.85683E-05-9.32266E-08 1.42877E-18 2.26050E-18
 -1      2056 9.52378E-05-2.86228E-05-2.85538E-05-1.35648E-07 8.67300E-19 2.31647E-18
 -1      2057 9.52417E-05-2.86694E-05-2.85292E-05-2.35712E-07 9.34382E-19 1.90762E-18
 -1      2058 9.53125E-05-2.86150E-05-2.85854E-05-2.37254E-08 6.54546E-19 2.70014E-18
 -1      2059 9.52966E-05-2.86181E-05-2.85793E-05-4.74938E-08 1.43954E-18 2.47109E-18
 -1      2060 9.52874E-05-2.86428E-05-2.85609E-05-9.91637E-08 1.27883E-18 2.50312E-18
 -1      2061 9.53182E-05-2.86051E-05-2.85918E-05 1.24818E-08-7.80161E-20 1.16402E-18
 -1      2062 9.53171E-05-2.86097E-05-2.85905E-05 7.67292E-10 7.26927E-19 1.91671E-18
 -1      2063 9.53035E-05-2.86209E-05-2.85776E-05-2.09032E-08 1.16221E-18 2.55319E-18
 -1      2064 9.53105E-05-2.85960E-05-2.85921E-05 2.80556E-08 2.42347E-19 8.15605E-20
 -1      2065 9.53165E-05-2.86007E-05-2.85933E-05 2.36228E-08-1.79166E-19 9.31279E-19
 -1      2066 9.53032E-05-2.86041E-05-2.85850E-05 1.91786E-08 4.91496E-19 1.33498E-18
 -1      2067 9.52972E-05-2.85885E-05-2.85896E-05 3.17655E-08 4.85682E-19-4.84577E-19
 -1      2068 9.53059E-05-2.85926E-05-2.85918E-05 3.13786E-08 4.29443E-19-5.00766E-19
 -1      2069 9.52949E-05-2.85920E-05-2.85868E-05 3.57894E-08 7.93541E-19-1.02419E-19
 -1      2070 9.52829E-05-2.85825E-05-2.85859E-05 2.93315E-08-4.19267E-19-6.88585E-19
 -1      2071 9.52917E-05-2.85859E-05-2.85883E-05 3.09261E-08-1.88778E-19-9.20298E-19
 -1      2072 9.52837E-05-2.85835E-05-2.85858E-05 3.90309E-08 3.07997E-19-1.22801E-18
 -1      2073 9.52699E-05-2.85782E-05-2.85822E-05 2.42622E-08 2.61648E-19-1.27888E-18
 -1      2074 9.52776E-05-2.85807E-05-2.85844E-05 2.66042E-08 4.24880E-19-9.99483E-19
 -1      2075 9.52724E-05-2.85779E-05-2.85834E-05 3.54482E-08 3.77077E-20-1.53590E-18
 -1      2076 9.52593E-05-2.85751E-05-2.85789E-05 1.85594E-08 1.01846E-18-2.03770E-18
 -1      2077 9.52655E-05-2.85769E-05-2.85807E-05 2.09685E-08 4.25775E-19-1.39728E-18
 -1      2078 9.52624E-05-2.85744E-05-2.85807E-05 2.90313E-08 3.86993E-19-1.97063E-18
 -1      2079 9.52512E-05-2.85731E-05-2.85763E-05 1.32556E-08 2.30654E-18-1.91420E-18
 -1      2080 9.52558E-05-2.85742E-05-2.85777E-05 1.54002E-08 1.77224E-18-9.85456E-19
 -1      2081 9.52544E-05-2.85722E-05-2.85781E-05 2.20404E-08 6.00297E-19-2.26222E-18
 -1      2082 9.52454E-05-2.85718E-05-2.85744E-05 8.79519E-09 5.49626E-19-1.18924E-18
 -1      2083 9.52486E-05-2.85725E-05-2.85753E-05 1.05498E-08 1.82515E-18-1.04084E-18
 -1      2084 9.52482E-05-2.85710E-05-2.85760E-05 1.56294E-08 1.06957E-18-2.78924E-18
 -1      2085 9.52416E-05-2.85711E-05-2.85730E-05 5.29170E-09-1.75334E-18-1.21498E-18
 -1      2086 9.52436E-05-2.85715E-05-2.85736E-05 6.64264E-09 2.37857E-19-1.13616E-18
 -1      2087 9.52438E-05-2.85704E-05-2.85744E-05 1.02850E-08 5.02840E-20-4.49202E-19
 -1      2088 9.52392E-05-2.85708E-05-2.85721E-05 2.69779E-09 2.08029E-20-1.41342E-18
 -1      2089 9.52403E-05-2.85709E-05-2.85725E-05 3.68107E-09-1.76915E-18-2.05121E-18
 -1      2090 9.52408E-05-2.85702E-05-2.85732E-05 6.12327E-09-1.36424E-18-1.36974E-18
 -1      2091 9.52379E-05-2.85707E-05-2.85716E-05 9.23788E-10 3.03457E-18-2.57852E-18
 -1      2092 9.52384E-05-2.85707E-05-2.85718E-05 1.57354E-09 1.61855E-18-1.79108E-18
 -1      2093 9.52389E-05-2.85703E-05-2.85723E-05 3.09076E-09 9.97663E-19-2.01219E-18
 -1      2094 9.52374E-05-2.85709E-05-2.85713E-05-2.64195E-11 4.82052E-19-2.67200E-18
 -1      2095 9.52375E-05-2.85708E-05-2.85714E-05 2.80277E-10 2.93754E-18-2.40251E-18
 -1      2096 9.52379E-05-2.85705E-05-2.85718E-05 1.14666E-09 2.50653E-18-2.67259E-18
 -1      2097 9.52374E-05-2.85708E-05-2.85714E-05 8.30515E-11 1.83701E-19-4.01677E-19
 -1      2098 9.52362E-05-2.85681E-05-2.85721E-05 1.59858E-09-2.09842E-18-1.33708E-18
 -1      2099 9.52365E-05-2.85686E-05-2.85720E-05 1.55441E-09-2.52702E-18-9.57938E-19
 -1      2100 9.52369E-05-2.85694E-05-2.85718E-05 1.36661E-09-1.35010E-18-5.90612E-19
 -1      2101 9.52371E-05-2.85698E-05-2.85717E-05 1.10221E-09-1.35994E-18-7.87343E-19
 -1      2102 9.52365E-05-2.85681E-05-2.85722E-05 2.09088E-09-1.49128E-19-1.54187E-18
 -1      2103 9.52374E-05-2.85706E-05-2.85715E-05 4.72736E-10-1.00196E-20-6.93370E-19
 -1      2104 9.52356E-05-2.85670E-05-2.85723E-05 1.27266E-09-2.96289E-18-1.90182E-18
 -1      2105 9.52359E-05-2.85674E-05-2.85722E-05 1.46976E-09-3.13372E-18-1.09123E-18
 -1      2106 9.52356E-05-2.85666E-05-2.85724E-05 2.14585E-09-6.02010E-19-1.73456E-18
 -1      2107 9.52352E-05-2.85663E-05-2.85724E-05 4.66052E-10-1.45973E-18-2.80611E-19
 -1      2108 9.52353E-05-2.85665E-05-2.85724E-05 8.52183E-10-2.49929E-18-6.46315E-19
 -1      2109 9.52348E-05-2.85653E-05-2.85726E-05 1.50477E-09-1.32809E-18-6.71474E-19
 -1      2110 9.52351E-05-2.85661E-05-2.85724E-05-5.96782E-10-7.42161E-19 1.34887E-18
 -1      2111 9.52351E-05-2.85660E-05-2.85725E-05-1.31075E-10-1.39106E-18 3.78508E-19
 -1      2112 9.52343E-05-2.85644E-05-2.85728E-05 3.36448E-10-1.30644E-19 3.91651E-19
 -1      2113 9.52353E-05-2.85665E-05-2.85723E-05-1.64011E-09-1.33841E-18 1.72232E-18
 -1      2114 9.52351E-05-2.85662E-05-2.85724E-05-1.22052E-09-2.09025E-18 1.04957E-18
 -1      2115 9.52343E-05-2.85642E-05-2.85728E-05-1.06309E-09-2.12107E-19 9.82872E-19
 -1      2116 9.52358E-05-2.85675E-05-2.85721E-05-2.38180E-09-2.32169E-18 1.19361E-18
 -1      2117 9.52355E-05-2.85669E-05-2.85723E-05-2.12932E-09-2.37323E-18 2.23064E-18
 -1      2118 9.52346E-05-2.85647E-05-2.85728E-05-2.34727E-09-2.46973E-18 2.00661E-18
 -1      2119 9.52366E-05-2.85688E-05-2.85719E-05-2.59260E-09-3.01206E-18 1.00389E-18
 -1      2120 9.52362E-05-2.85681E-05-2.85720E-05-2.59690E-09-3.32804E-18 2.18311E-18
 -1      2121 9.52353E-05-2.85658E-05-2.85726E-05-3.17631E-09-2.40406E-18 9.35827E-19
 -1      2122 9.52373E-05-2.85702E-05-2.85716E-05-2.17013E-09-1.07306E-18 1.63179E-19
 -1      2123 9.52370E-05-2.85696E-05-2.85717E-05-2.45359E-09-2.62466E-18 1.51076E-18
 -1      2124 9.52363E-05-2.85673E-05-2.85724E-05-3.30080E-09-3.24333E-18 1.67724E-18
 -1      2125 9.52379E-05-2.85715E-05-2.85713E-05-1.14487E-09 9.11878E-20 2.01982E-18
 -1      2126 9.52377E-05-2.85710E-05-2.85714E-05-1.67482E-09-3.48919E-19 1.19182E-18
 -1      2127 9.52373E-05-2.85689E-05-2.85721E-05-2.62935E-09-1.03567E-18 1.98630E-18
 -1      2128 9.52382E-05-2.85722E-05-2.85711E-05 2.37659E-10 2.83653E-18 1.68503E-19
 -1      2129 9.52382E-05-2.85721E-05-2.85712E-05-3.97933E-10 1.41323E-18 8.10128E-19
 -1      2130 9.52380E-05-2.85704E-05-2.85719E-05-1.26384E-09-1.04373E-19 3.22307E-18
 -1      2131 9.52381E-05-2.85723E-05-2.85710E-05 1.52319E-09-4.42959E-20-2.73258E-18
 -1      2132 9.52383E-05-2.85725E-05-2.85710E-05 1.01352E-09 2.64398E-18-3.32332E-18
 -1      2133 9.52383E-05-2.85714E-05-2.85716E-05 4.35399E-10 1.05645E-18-1.27381E-18
 -1      2134 9.37405E-05-2.73718E-05-2.83993E-05 1.98107E-06 9.35124E-19 5.99266E-18
 -1      2135 9.48243E-05-2.73688E-05-2.88495E-05 3.08401E-06 1.03044E-18 6.44088E-18
 -1      2136 9.55538E-05-2.68661E-05-2.94389E-05 4.48056E-06 1.27407E-18 5.06812E-18
 -1      2137 9.44991E-05-2.72011E-05-2.88549E-05 2.44179E-06 1.11688E-18 4.21299E-18
 -1      2138 6.83927E-05-3.83146E-05-1.30285E-05 5.19320E-05 2.47164E-18 3.70947E-18
 -1      2139 5.26155E-05-4.11325E-05-5.82165E-06 4.61544E-05 1.01983E-18 3.78963E-18
 -1      2140 1.49773E-04-3.94548E-05-4.67185E-05 4.45215E-05 3.29856E-18 1.93462E-18
 -1      2141 1.27741E-04-4.10008E-05-3.75862E-05 4.37300E-05 3.19840E-18 1.55685E-18
 -1      2142 3.29424E-05-3.34406E-05-1.78989E-07 4.20880E-05 1.87830E-18 2.82041E-18
 -1      2143 2.22003E-05-3.56009E-05 4.78131E-06 3.27218E-05 1.67416E-18 2.78547E-18
 -1      2144 2.91590E-05-4.48126E-05 4.43742E-06-1.50575E-05 9.46136E-19 1.67628E-18
 -1      2145 4.15425E-05-4.32342E-05-9.68080E-07-2.41343E-05 1.84230E-19 2.01340E-18
 -1      2146 2.67033E-05-3.29854E-05 1.62818E-06-2.07091E-05 9.75358E-19 1.27860E-18
 -1      2147 1.08208E-04-4.14387E-05-2.84525E-05 5.31112E-05 3.19331E-18 1.41200E-18
 -1      2148 8.60567E-05-4.27431E-05-1.94871E-05 4.89109E-05 3.21745E-18 2.05427E-18
 -1      2149 9.12212E-05-4.87657E-05-1.82327E-05 5.34449E-05 9.21148E-19 2.29366E-18
 -1      2150 8.72814E-05-8.70780E-06-3.37643E-05-1.04563E-05-4.60773E-19-2.79795E-18
 -1      2151 8.80098E-05-9.25843E-06-3.38375E-05-1.20289E-05-7.63130E-19-2.66672E-18
 -1      2152 9.05304E-05-1.30137E-05-3.32328E-05-1.17691E-05-9.88410E-19-2.33943E-18
 -1      2153 8.86786E-05-1.10158E-05-3.33121E-05-9.33270E-06-4.05466E-19-2.58517E-18
 -1      2154 2.19933E-04-4.62508E-05-7.18607E-05 7.89380E-06-3.58464E-18-1.35271E-18
 -1      2155 2.23435E-04-5.52735E-05-6.94289E-05 2.35608E-05-2.71051E-18-2.06803E-18
 -1      2156 1.73995E-04-3.48367E-05-5.96362E-05 2.00361E-05 4.43401E-18-1.73472E-18
 -1      2157 1.61469E-04-3.67759E-05-5.30422E-05 3.22223E-05 3.54663E-18 3.26531E-19
 -1      2158 1.97517E-04-2.56489E-05-7.21039E-05 9.93384E-06 5.62176E-18-2.09281E-18
 -1      2159 1.78218E-04-2.31446E-05-6.64346E-05 1.23476E-05 5.49788E-18-2.07481E-18
 -1      2160 1.94145E-04-2.09129E-05-7.36074E-05-3.16875E-06 5.30285E-18-3.15424E-18
 -1      2161 1.97454E-04-2.34307E-05-7.37415E-05 5.83612E-06 5.58915E-18-2.13664E-18
 -1      2162 1.69327E-04-1.07514E-05-6.71068E-05-7.27749E-07 5.68444E-18-2.57392E-18
 -1      2163 1.91037E-04-2.72756E-05-6.92063E-05-1.86596E-05 4.16147E-18-4.64428E-18
 -1      2164 1.96221E-04-2.53020E-05-7.25112E-05-7.59234E-06 4.56890E-18-3.05249E-18
 -1      2165 1.68954E-04-3.24116E-05-5.81878E-05-3.48953E-05 4.03497E-18-5.57771E-18
 -1      2166 1.88401E-04-3.31770E-05-6.52010E-05-2.93047E-05 4.21801E-18-5.32191E-18
 -1      2167 1.40439E-04-4.27757E-05-4.18549E-05-3.85609E-05 2.41934E-18-5.37188E-18
 -1      2168 1.60354E-04-3.83180E-05-5.09559E-05-4.03913E-05 3.25239E-18-6.11642E-18
 -1      2169 9.35638E-05-4.30411E-05-2.24384E-05-4.83363E-05 1.79275E-18-5.76194E-18
 -1      2170 1.18036E-04-4.40304E-05-3.19261E-05-4.97579E-05 2.10742E-18-5.86528E-18
 -1      2171 5.53781E-05-4.21795E-05-6.96144E-06-4.49383E-05 4.81115E-19-4.95889E-18
 -1      2172 7.31393E-05-3.89764E-05-1.48205E-05-5.24961E-05 1.57718E-18-5.71578E-18
 -1      2173 2.63928E-05-3.97161E-05 4.34856E-06-3.41284E-05-8.34327E-20-3.73097E-18
 -1      2174 3.72677E-05-3.65487E-05-1.00814E-06-4.19131E-05 8.36022E-19-4.80289E-18
 -1      2175 9.92327E-06-3.78694E-05 1.05242E-05-1.58563E-05-6.65027E-19-2.64063E-18
 -1      2176 1.40859E-05-3.57445E-05 8.17623E-06-2.47006E-05 1.38066E-19-2.76895E-18
 -1      2177 1.46125E-05-3.71271E-05 8.35144E-06 5.77294E-06-1.78555E-18-3.87391E-18
 -1      2178 9.89396E-06-3.47765E-05 9.52817E-06-3.04937E-06-8.74164E-19-3.36399E-18
 -1      2179 3.79232E-05-4.32721E-05 6.97373E-07 2.21875E-05-3.14334E-18-2.87589E-18
 -1      2180 2.47311E-05-4.35476E-05 6.02976E-06 1.39409E-05-1.93632E-18-3.29665E-18
 -1      2181 8.37397E-05-5.27873E-05-1.48375E-05 3.16469E-05-3.33900E-18-2.71686E-18
 -1      2182 5.91619E-05-5.12619E-05-5.99692E-06 2.46669E-05-3.25896E-18-2.10218E-18
 -1      2183 1.49188E-04-6.76658E-05-3.60139E-05 2.39528E-05-2.69526E-18-1.58395E-18
 -1      2184 1.12076E-04-6.09974E-05-2.41973E-05 2.39074E-05-2.95276E-18-2.32426E-18
 -1      2185 2.11809E-04-7.37656E-05-5.76995E-05-1.00689E-05-3.29464E-18-5.67512E-19
 -1      2186 1.80970E-04-7.04519E-05-4.78133E-05-4.66996E-06-2.90045E-18-3.37119E-19
 -1      2187 2.13856E-04-5.96716E-05-6.45366E-05-1.57036E-05-3.94251E-18-1.01136E-18
 -1      2188 1.68185E-04-7.20320E-05-4.24837E-05-7.10999E-06-5.96311E-19 8.51268E-19
 -1      2189 1.95456E-04-7.23853E-05-5.24221E-05-2.28832E-06-4.08270E-19 7.61483E-19
 -1      2190 1.10120E-04-6.10681E-05-2.35225E-05-2.44859E-05-1.35525E-20 1.46452E-18
 -1      2191 1.43186E-04-6.59448E-05-3.41997E-05-2.42943E-05-4.32834E-19 1.40565E-18
 -1      2192 1.56681E-04-7.19170E-05-3.62414E-05-1.36067E-05 9.50371E-19-8.16540E-19
 -1      2193 6.37030E-05-5.15743E-05-7.52594E-06-2.65017E-05 7.36919E-19 2.09736E-18
 -1      2194 8.57941E-05-5.33697E-05-1.56738E-05-3.14370E-05 2.33781E-19 1.60915E-18
 -1      2195 1.08291E-04-6.11965E-05-2.09526E-05-3.03603E-05 2.67154E-18 1.21443E-19
 -1      2196 1.09829E-05-3.22608E-05 8.24271E-06 2.07686E-05 2.24485E-18 3.33985E-18
 -1      2197 9.25684E-06-3.58963E-05 1.00764E-05 1.10580E-05 1.01506E-18 4.29149E-18
 -1      2198 5.17738E-05-3.63373E-05-6.77806E-06 5.05430E-05-6.81862E-20 2.71178E-18
 -1      2199 2.09869E-04-6.99418E-05-5.86590E-05 2.10596E-05 2.24464E-20-1.42810E-18
 -1      2200 9.73081E-05-2.42947E-05-3.13684E-05-1.00450E-05-1.64981E-18-5.92857E-19
 -1      2201 9.64085E-05-2.30982E-05-3.15040E-05-1.03818E-05-1.64524E-18-1.11192E-18
 -1      2202 1.07851E-05-2.39809E-05 4.88548E-06 2.25092E-06 9.61065E-19 3.57702E-18
 -1      2203 2.28011E-04-4.72072E-05-7.44366E-05 7.00891E-07-4.06322E-18-1.64610E-18
 -1      2204 1.61803E-04-7.08522E-05-3.92445E-05-9.89194E-06 2.19445E-18-2.20260E-18
 -1      2205 1.41562E-04-5.45287E-05-3.64340E-05 2.76018E-05 1.58183E-18 1.29658E-18
 -1      2206 1.53335E-04-6.46272E-05-3.76382E-05 1.61469E-05 8.63974E-19 1.41568E-18
 -1      2207 1.65544E-04-7.17272E-05-3.97029E-05 8.50259E-06-2.90956E-19 1.01093E-18
 -1      2208 1.77174E-04-7.45922E-05-4.37569E-05-2.33432E-06-1.28728E-18 9.79170E-19
 -1      2209 2.11285E-04-5.81228E-05-6.41235E-05 1.85532E-05-1.63350E-18-1.20025E-18
 -1      2210 9.52374E-05-2.85698E-05-2.85718E-05 1.21503E-09 1.11999E-18-1.40426E-18
 -1      2211 1.57518E-04-4.53201E-05-4.73067E-05 2.29742E-05 2.81919E-18-1.12909E-18
 -1      2212 1.29169E-04-5.23119E-05-3.26896E-05 4.27274E-05 1.82112E-18 7.59153E-19
 -1      2213 1.94098E-05-2.35965E-05 1.53267E-06 3.13163E-05 7.25060E-19 3.41481E-18
 -1      2214 6.02741E-05-4.57180E-05-7.19043E-06-3.18560E-05 1.48019E-18 1.43085E-18
 -1      2215 1.14976E-04-6.31823E-05-2.29207E-05 2.97165E-05-1.17822E-18-8.30516E-19
 -1      2216 6.00045E-05-4.54024E-05-7.45538E-06 3.23568E-05-6.98802E-19-1.44419E-18
 -1      2217 2.36056E-05-2.84468E-05 1.17302E-06 1.78803E-05 1.59242E-19-3.14419E-18
 -1      2218 1.04535E-05-2.27979E-05 4.62213E-06-7.91605E-06 1.59930E-19-3.60963E-18
 -1      2219 2.30125E-05-2.92162E-05 2.00587E-06-3.55095E-05 9.10560E-20-3.58803E-18
 -1      2220 5.58927E-05-3.96314E-05-7.29406E-06-5.15229E-05-6.90332E-20-4.91385E-18
 -1      2221 9.61007E-05-4.95339E-05-1.98260E-05-5.21490E-05-3.38813E-20-5.35854E-18
 -1      2222 1.35995E-04-4.93852E-05-3.67696E-05-3.96825E-05 9.67100E-19-4.95853E-18
 -1      2223 1.48507E-04-5.52205E-05-4.06679E-05-2.53849E-05-2.26370E-19-2.62644E-18
 -1      2224 1.31758E-04-5.59751E-05-3.18653E-05-3.92311E-05-3.73542E-19-3.52959E-18
 -1      2225 1.64324E-04-4.14040E-05-5.22240E-05-1.90191E-05 2.10334E-18-2.81723E-18
 -1      2226 1.73172E-04-1.24120E-05-6.79457E-05-6.23614E-07 5.11777E-18-1.75664E-18
 -1      2227 1.32739E-04-6.49091E-05-2.97918E-05 2.80018E-05 9.06325E-20 4.11764E-19
 -1      2228 1.71763E-04-2.86001E-05-6.09217E-05 8.47299E-06 4.97357E-18-2.65841E-18
 -1      2229 1.60245E-04-3.31268E-05-5.43844E-05 2.76593E-06 3.92875E-18-3.43430E-18
 -1      2230 1.60518E-04-2.10418E-05-6.03418E-05-4.53215E-06 5.04112E-18-4.50177E-18
 -1      2231 1.75249E-04-2.53683E-05-6.30504E-05-8.14986E-06 3.39321E-18-2.19551E-18
 -1      2232 1.09493E-04-4.37515E-05-2.80416E-05 3.73770E-05 2.22981E-18 1.24281E-18
 -1      2233 8.80696E-05-1.10958E-05-3.30282E-05-3.63141E-06 7.21030E-19-2.06268E-18
 -1      2234 8.83140E-05-1.13707E-05-3.30130E-05-4.75912E-06 4.51713E-19-2.21166E-18
 -1      2235 8.86791E-05-1.18618E-05-3.29674E-05-5.76020E-06 2.66070E-19-2.34252E-18
 -1      2236 8.91003E-05-1.23440E-05-3.29416E-05-6.92275E-06 1.47941E-20-2.41668E-18
 -1      2237 8.98265E-05-1.37220E-05-3.26150E-05-4.84733E-06 3.62006E-19-2.05686E-18
 -1      2238 8.77148E-05-1.06473E-05-3.30626E-05 5.86901E-07 1.55785E-18-1.53740E-18
 -1      2239 8.77088E-05-1.06384E-05-3.30644E-05-5.12483E-07 1.34260E-18-1.64627E-18
 -1      2240 8.79072E-05-1.08886E-05-3.30419E-05 2.70873E-06 1.89531E-18-1.32043E-18
 -1      2241 8.77865E-05-1.07492E-05-3.30520E-05 1.59789E-06 1.72539E-18-1.52791E-18
 -1      2242 8.90251E-05-1.26862E-05-3.27197E-05 1.00725E-06 1.51610E-18-1.37576E-18
 -1      2243 8.83585E-05-1.14539E-05-3.29963E-05 4.82545E-06 2.12760E-18-8.70220E-19
 -1      2244 8.81107E-05-1.11701E-05-3.30143E-05 3.70754E-06 1.98553E-18-1.13684E-18
 -1      2245 8.93071E-05-1.30638E-05-3.26776E-05 2.95991E-06 1.83908E-18-1.08956E-18
 -1      2246 8.91583E-05-1.24543E-05-3.29186E-05 7.00624E-06 2.36809E-18-1.85269E-19
 -1      2247 8.87303E-05-1.19605E-05-3.29469E-05 5.83713E-06 2.19543E-18-5.58234E-19
 -1      2248 8.98852E-05-1.38334E-05-3.25928E-05 4.90390E-06 2.06307E-18-5.90064E-19
 -1      2249 9.04493E-05-1.40788E-05-3.27942E-05 9.15220E-06 2.53186E-18 7.61284E-19
 -1      2250 8.97586E-05-1.32624E-05-3.28380E-05 7.97543E-06 2.38898E-18 2.01025E-19
 -1      2251 9.08441E-05-1.51127E-05-3.24493E-05 6.79515E-06 2.23054E-18 1.04132E-19
 -1      2252 9.24677E-05-1.66901E-05-3.25775E-05 1.09889E-05 2.48565E-18 1.79496E-18
 -1      2253 9.13628E-05-1.53085E-05-3.26587E-05 9.96957E-06 2.48318E-18 1.18171E-18
 -1      2254 9.22923E-05-1.70839E-05-3.22114E-05 8.45314E-06 2.30885E-18 9.76182E-19
 -1      2255 9.55294E-05-2.08319E-05-3.21071E-05 1.16411E-05 2.06035E-18 3.62633E-18
 -1      2256 9.38319E-05-1.84865E-05-3.23292E-05 1.14046E-05 2.27527E-18 2.56321E-18
 -1      2257 9.43575E-05-2.00473E-05-3.17974E-05 9.41508E-06 2.18332E-18 2.10116E-18
 -1      2258 9.75522E-05-2.46100E-05-3.13239E-05 9.79121E-06 1.70854E-18 5.18044E-18
 -1      2259 9.63111E-05-2.22415E-05-3.17412E-05 1.10320E-05 1.89947E-18 4.28607E-18
 -1      2260 9.58470E-05-2.32089E-05-3.11290E-05 8.72924E-06 1.94118E-18 3.45969E-18
 -1      2261 9.63687E-05-2.56862E-05-3.02990E-05 6.82438E-06 1.56905E-18 4.80442E-18
 -1      2262 1.05406E-04-5.24050E-05-2.27340E-05 5.13307E-05 3.89635E-19 6.50601E-19
 -1      2263 8.82222E-05-4.72775E-05-1.72365E-05 5.25106E-05-4.41728E-19 1.87343E-18
 -1      2264 1.24115E-05-1.23054E-05 2.33608E-07 5.76564E-06 2.88044E-19 4.07846E-18
 -1      2265 1.77117E-05-1.69800E-05 2.09554E-08-9.43487E-06 7.81176E-19 2.76853E-18
 -1      2266 9.52509E-05-2.64653E-05-2.94314E-05-2.91629E-06-1.06900E-18-1.04221E-18
 -1      2267 9.48055E-05-2.68343E-05-2.91277E-05-1.77647E-06-1.04106E-18-1.23889E-18
 -1      2268 9.46191E-05-2.71627E-05-2.88718E-05-8.64288E-07-8.73062E-19-1.06932E-18
 -1      2269 9.43879E-05-2.73634E-05-2.87184E-05-1.89273E-07-6.78983E-19-1.14604E-18
 -1      2270 9.51281E-05-2.65750E-05-2.93940E-05-1.76972E-06-9.94877E-19-1.13628E-18
 -1      2271 9.42459E-05-2.75110E-05-2.85784E-05 3.81594E-07-4.93051E-19-1.07422E-18
 -1      2272 9.41919E-05-2.76284E-05-2.85191E-05 7.96004E-07-3.59875E-19-1.03001E-18
 -1      2273 9.48313E-05-2.72419E-05-2.89807E-05-1.57897E-07-5.78211E-19-9.86376E-19
 -1      2274 9.40962E-05-2.76924E-05-2.84475E-05 1.21356E-06-2.45241E-19-8.17377E-19
 -1      2275 9.41647E-05-2.77580E-05-2.84499E-05 1.53464E-06 1.66400E-20-7.97471E-19
 -1      2276 9.46218E-05-2.75640E-05-2.87491E-05 9.18936E-07-1.71436E-19-9.11380E-19
 -1      2277 9.41011E-05-2.77407E-05-2.84365E-05 1.86312E-06-1.08266E-19-8.35994E-19
 -1      2278 9.42616E-05-2.77516E-05-2.84904E-05 2.16488E-06-1.56926E-19-1.02082E-18
 -1      2279 9.44848E-05-2.76595E-05-2.86456E-05 1.72695E-06-2.60224E-19-9.89619E-19
 -1      2280 9.41900E-05-2.76450E-05-2.85222E-05 2.49593E-06-2.26031E-20-1.02450E-18
 -1      2281 9.44165E-05-2.75846E-05-2.86226E-05 2.86960E-06-4.94737E-20-8.12868E-19
 -1      2282 9.43650E-05-2.75296E-05-2.86451E-05 2.43122E-06-1.31135E-19-1.19422E-18
 -1      2283 9.42760E-05-2.73529E-05-2.86913E-05 3.29088E-06-2.40619E-19-7.01160E-19
 -1      2284 9.45479E-05-2.71892E-05-2.88402E-05 3.83836E-06-3.33622E-19-6.13504E-19
 -1      2285 9.41660E-05-2.71296E-05-2.87246E-05 3.21322E-06-7.03554E-20-8.02592E-19
 -1      2286 9.42433E-05-2.67679E-05-2.89374E-05 4.44542E-06-1.61343E-19-4.07591E-19
 -1      2287 9.45332E-05-2.64494E-05-2.91403E-05 5.29226E-06-2.62382E-21-3.64568E-19
 -1      2288 9.37395E-05-2.63526E-05-2.88642E-05 4.25346E-06-1.16465E-19-4.49724E-19
 -1      2289 9.39100E-05-2.57387E-05-2.92500E-05 6.19487E-06-2.69512E-19-2.73524E-19
 -1      2290 9.41647E-05-2.51937E-05-2.95087E-05 7.49663E-06-2.69492E-19-6.12914E-19
 -1      2291 9.28482E-05-2.50235E-05-2.90340E-05 5.74327E-06-2.44693E-19-3.94364E-19
 -1      2292 9.29754E-05-2.40585E-05-2.95907E-05 8.81673E-06-2.51652E-19-7.56773E-19
 -1      2293 9.30797E-05-2.32127E-05-2.98833E-05 1.07476E-05-2.01210E-19-7.34597E-19
 -1      2294 9.11123E-05-2.29039E-05-2.91686E-05 7.88053E-06-2.87232E-19-3.77472E-19
 -1      2295 9.10760E-05-2.16359E-05-2.98471E-05 1.25158E-05-1.65512E-19-7.87827E-19
 -1      2296 9.09530E-05-2.05694E-05-3.00960E-05 1.50306E-05 4.69839E-20-5.73175E-19
 -1      2297 8.80566E-05-1.98231E-05-2.91221E-05 1.07438E-05-2.53878E-20-5.93019E-19
 -1      2298 8.75574E-05-1.84298E-05-2.97334E-05 1.75283E-05 3.69014E-19-4.75338E-19
 -1      2299 8.70530E-05-1.73826E-05-2.97522E-05 2.08711E-05 6.76892E-19-1.95373E-19
 -1      2300 8.28934E-05-1.57193E-05-2.85859E-05 1.45445E-05 1.70270E-19-1.41230E-19
 -1      2301 8.20101E-05-1.53833E-05-2.86185E-05 2.40916E-05 9.69125E-19-1.60036E-19
 -1      2302 8.14744E-05-1.57548E-05-2.79464E-05 2.76478E-05 1.65694E-18 7.62330E-21
 -1      2303 7.47544E-05-1.11721E-05-2.68494E-05 1.94754E-05 9.77423E-19 2.07172E-19
 -1      2304 7.53954E-05-1.57599E-05-2.54256E-05 3.15673E-05 2.01340E-18-6.53804E-20
 -1      2305 7.67638E-05-2.06803E-05-2.36062E-05 3.44670E-05 2.45290E-18 3.52048E-19
 -1      2306 6.35202E-05-8.88161E-06-2.27668E-05 2.53376E-05 1.95739E-18-7.84564E-19
 -1      2307 9.53922E-05-2.10755E-05-3.19238E-05-1.07434E-05-1.45498E-18-1.54656E-18
 -1      2308 9.56612E-05-2.39527E-05-3.07125E-05-7.20119E-06-1.45055E-18-1.26807E-18
 -1      2309 9.37059E-05-1.88140E-05-3.21326E-05-1.04123E-05-1.19939E-18-1.85052E-18
 -1      2310 1.05001E-04-5.52459E-05-2.14261E-05 3.34927E-05 1.69407E-19 2.24252E-19
 -1      2311 1.02994E-04-3.17582E-05-3.01172E-05-3.58349E-05 8.25857E-19-7.31836E-19
 -1      2312 9.76560E-05-2.55337E-05-3.05997E-05-3.46584E-05-6.44539E-19-7.50789E-19
 -1      2313 9.94940E-05-2.39849E-05-3.21255E-05-3.03865E-05-5.32148E-19-8.05290E-19
 -1      2314 9.66326E-05-2.21555E-05-3.19019E-05-2.68286E-05-5.72971E-19-5.16055E-19
 -1      2315 8.29118E-05-1.83444E-05-2.72146E-05-3.28641E-05-4.36645E-19-1.20369E-18
 -1      2316 9.90210E-05-2.31917E-05-3.23607E-05-2.26077E-05-6.82907E-19 3.41510E-20
 -1      2317 9.71710E-05-2.31408E-05-3.17838E-05-1.89681E-05 4.06483E-19 6.54356E-19
 -1      2318 8.73308E-05-1.73998E-05-2.97111E-05-2.46723E-05-1.30837E-19 6.00063E-19
 -1      2319 9.88334E-05-2.45444E-05-3.17318E-05-1.56265E-05 8.30172E-19 9.53123E-19
 -1      2320 9.74459E-05-2.48960E-05-3.11410E-05-1.27427E-05-1.17513E-19 2.84853E-19
 -1      2321 9.12903E-05-2.00050E-05-3.04025E-05-1.75101E-05 4.72519E-19 5.63671E-19
 -1      2322 9.83570E-05-2.59903E-05-3.09263E-05-1.03219E-05-6.42249E-19-6.87060E-19
 -1      2323 9.73023E-05-2.63177E-05-3.04508E-05-8.28705E-06-4.55068E-19-1.05207E-18
 -1      2324 9.37493E-05-2.28492E-05-3.03004E-05-1.19245E-05-6.51547E-19 2.07639E-19
 -1      2325 9.77183E-05-2.70364E-05-3.02245E-05-6.62710E-06-1.14185E-18-2.01833E-18
 -1      2326 9.69453E-05-2.72608E-05-2.98802E-05-5.27660E-06-7.25044E-19-2.48370E-18
 -1      2327 9.50071E-05-2.50054E-05-2.99530E-05-7.88039E-06-1.23280E-18-1.42004E-18
 -1      2328 9.70921E-05-2.76968E-05-2.96925E-05-4.17863E-06 7.54541E-19-1.51046E-18
 -1      2329 9.65472E-05-2.78341E-05-2.94564E-05-3.31269E-06 1.79470E-18-8.64581E-19
 -1      2330 9.55393E-05-2.64344E-05-2.95912E-05-5.09744E-06 4.33125E-19-2.23754E-18
 -1      2331 9.65672E-05-2.80876E-05-2.93157E-05-2.60394E-06 1.23048E-18-1.17948E-18
 -1      2332 9.61963E-05-2.81666E-05-2.91589E-05-2.06046E-06-2.75807E-19-8.32223E-19
 -1      2333 9.56970E-05-2.73221E-05-2.92914E-05-3.24778E-06 1.34163E-18-2.61440E-18
 -1      2334 9.61696E-05-2.83041E-05-2.90636E-05-1.63080E-06-6.79461E-19-9.21637E-19
 -1      2335 9.59291E-05-2.83476E-05-2.89650E-05-1.30461E-06-2.78513E-19-9.76498E-19
 -1      2336 9.56883E-05-2.78465E-05-2.90706E-05-2.06820E-06-3.42550E-19-3.12722E-18
 -1      2337 9.58830E-05-2.84303E-05-2.88945E-05-1.01428E-06-8.83567E-19-1.39612E-18
 -1      2338 9.57157E-05-2.84550E-05-2.88269E-05-8.01926E-07-2.24564E-18-2.52518E-18
 -1      2339 9.56192E-05-2.81529E-05-2.89119E-05-1.31185E-06-9.33595E-19-3.20405E-18
 -1      2340 9.56724E-05-2.84997E-05-2.87796E-05-6.21740E-07-2.66596E-18-1.99517E-18
 -1      2341 9.55634E-05-2.85129E-05-2.87363E-05-4.91801E-07-2.47122E-18-2.41171E-18
 -1      2342 9.55357E-05-2.83379E-05-2.87985E-05-8.17128E-07-2.35284E-18-2.53356E-18
 -1      2343 9.55271E-05-2.85366E-05-2.87047E-05-3.80224E-07-6.31178E-19-1.22595E-18
 -1      2344 9.54566E-05-2.85434E-05-2.86772E-05-3.01051E-07 1.85248E-18-7.04195E-19
 -1      2345 9.54596E-05-2.84431E-05-2.87215E-05-5.07400E-07-4.96159E-20-1.96624E-18
 -1      2346 9.54282E-05-2.85555E-05-2.86564E-05-2.32172E-07 1.40147E-18-3.63517E-19
 -1      2347 9.53828E-05-2.85588E-05-2.86389E-05-1.84013E-07 1.57143E-18-1.49609E-18
 -1      2348 9.53977E-05-2.85021E-05-2.86699E-05-3.14472E-07 1.35165E-18-1.66900E-18
 -1      2349 9.53616E-05-2.85647E-05-2.86252E-05-1.41533E-07 1.49568E-18-2.86575E-18
 -1      2350 9.53325E-05-2.85661E-05-2.86141E-05-1.12228E-07 1.21640E-18-2.87475E-18
 -1      2351 9.53502E-05-2.85345E-05-2.86357E-05-1.94621E-07 7.70705E-19-2.53502E-18
 -1      2352 9.53171E-05-2.85688E-05-2.86051E-05-8.59921E-08 7.94447E-19-2.67376E-18
 -1      2353 9.52984E-05-2.85693E-05-2.85981E-05-6.81127E-08-4.78376E-19-2.72779E-18
 -1      2354 9.53150E-05-2.85520E-05-2.86131E-05-1.20179E-07 6.38894E-19-2.38573E-18
 -1      2355 9.52875E-05-2.85703E-05-2.85923E-05-5.18376E-08-1.12156E-18-2.14910E-18
 -1      2356 9.52757E-05-2.85704E-05-2.85879E-05-4.08956E-08-3.57443E-19-2.19117E-18
 -1      2357 9.52896E-05-2.85612E-05-2.85982E-05-7.38320E-08-2.28397E-19-1.51671E-18
 -1      2358 9.52683E-05-2.85707E-05-2.85842E-05-3.11816E-08-1.42684E-19-2.86394E-18
 -1      2359 9.52612E-05-2.85707E-05-2.85816E-05-2.46427E-08-3.51293E-19-2.53032E-18
 -1      2360 9.52720E-05-2.85659E-05-2.85886E-05-4.53134E-08-7.54614E-19-1.22498E-18
 -1      2361 9.52558E-05-2.85706E-05-2.85791E-05-1.80799E-08-3.23646E-19-1.74558E-18
 -1      2362 9.52511E-05-2.85706E-05-2.85773E-05-1.37555E-08 1.18906E-20-2.01269E-18
 -1      2363 9.52597E-05-2.85681E-05-2.85823E-05-2.73041E-08 1.45620E-19-2.92213E-19
 -1      2364 9.52475E-05-2.85704E-05-2.85757E-05-9.60783E-09 9.84862E-19-2.37317E-18
 -1      2365 9.52447E-05-2.85705E-05-2.85746E-05-6.88245E-09 1.45810E-18-2.19667E-18
 -1      2366 9.52511E-05-2.85692E-05-2.85781E-05-1.54417E-08 2.70246E-19-1.14303E-18
 -1      2367 9.52424E-05-2.85703E-05-2.85736E-05-4.23643E-09 1.50738E-18-2.34934E-18
 -1      2368 9.52409E-05-2.85704E-05-2.85730E-05-2.51722E-09 2.36139E-18-6.50531E-19
 -1      2369 9.52453E-05-2.85698E-05-2.85753E-05-7.85718E-09 1.88460E-18-1.59020E-18
 -1      2370 9.52394E-05-2.85703E-05-2.85724E-05-8.43662E-10 1.35941E-18-3.95981E-19
 -1      2371 9.52387E-05-2.85705E-05-2.85721E-05 2.09139E-10 4.81445E-19-1.47981E-18
 -1      2372 9.52417E-05-2.85701E-05-2.85736E-05-3.01030E-09 1.48129E-18-1.10222E-18
 -1      2373 9.52378E-05-2.85705E-05-2.85717E-05 1.20341E-09 9.56111E-19-1.66210E-18
 -1      2374 9.52376E-05-2.85708E-05-2.85715E-05 1.75216E-09 1.04931E-18 4.74102E-19
 -1      2375 9.52394E-05-2.85705E-05-2.85724E-05 1.53092E-11 8.57473E-19-1.75082E-18
 -1      2376 9.52372E-05-2.85710E-05-2.85712E-05 2.24536E-09 6.74486E-19 6.84951E-19
 -1      2377 9.52373E-05-2.85713E-05-2.85711E-05 2.33740E-09-4.84534E-19 2.33077E-18
 -1      2378 9.52382E-05-2.85709E-05-2.85717E-05 1.64174E-09 1.48457E-18-2.91427E-19
 -1      2379 2.38656E-05-2.04954E-05-1.08501E-06-1.71291E-05 5.50995E-19 7.30142E-19
 -1      2380 3.33402E-05-2.50547E-05-3.56393E-06-2.62063E-05 9.35760E-19 3.19331E-19
 -1      2381 2.53139E-05-1.22937E-05-5.13572E-06-1.38063E-05 3.92600E-19 1.84018E-18
 -1      2382 9.39516E-05-2.76784E-05-2.84000E-05-5.38252E-08 7.95834E-19 2.31701E-18
 -1      2383 9.41240E-05-2.75096E-05-2.85176E-05 3.65066E-07 7.97821E-19 2.48274E-18
 -1      2384 9.43144E-05-2.72739E-05-2.87262E-05 1.01359E-06 9.19610E-19 2.58756E-18
 -1      2385 9.46686E-05-2.70226E-05-2.89521E-05 1.80841E-06 1.04357E-18 2.76513E-18
 -1      2386 9.48116E-05-2.72004E-05-2.89907E-05 1.06057E-06 1.01362E-18 1.81202E-18
 -1      2387 9.37866E-05-2.81846E-05-2.81170E-05-7.69669E-07 4.18685E-19 1.88260E-18
 -1      2388 9.37538E-05-2.80670E-05-2.81414E-05-7.37843E-07 5.42234E-19 2.02424E-18
 -1      2389 9.38509E-05-2.83917E-05-2.80587E-05-6.66801E-07 1.11846E-19 1.88608E-18
 -1      2390 9.37954E-05-2.82847E-05-2.80707E-05-7.56718E-07 2.56333E-19 1.90319E-18
 -1      2391 9.44079E-05-2.84376E-05-2.82789E-05-7.57408E-07 4.27327E-19 1.50637E-18
 -1      2392 9.39282E-05-2.85875E-05-2.80113E-05-3.28895E-07 2.54181E-19 1.79350E-18
 -1      2393 9.38904E-05-2.84911E-05-2.80257E-05-5.24691E-07-4.48154E-20 1.71678E-18
 -1      2394 9.44758E-05-2.87124E-05-2.81877E-05-6.12653E-07 2.73123E-19 1.36616E-18
 -1      2395 9.39621E-05-2.87686E-05-2.79517E-05 2.28167E-07 7.96262E-19 2.10939E-18
 -1      2396 9.39776E-05-2.86887E-05-2.79800E-05-6.82613E-08 5.40012E-19 1.97805E-18
 -1      2397 9.45812E-05-2.89808E-05-2.81157E-05-2.01992E-07 3.55171E-19 9.33478E-19
 -1      2398 9.38958E-05-2.89168E-05-2.78631E-05 9.98651E-07 9.00030E-19 2.10919E-18
 -1      2399 9.39992E-05-2.88666E-05-2.79142E-05 6.04736E-07 1.13845E-18 2.26260E-18
 -1      2400 9.46824E-05-2.92444E-05-2.80441E-05 4.59228E-07 8.60196E-19 1.86262E-18
 -1      2401 9.36686E-05-2.89950E-05-2.77345E-05 1.96794E-06 2.24194E-19 2.03444E-18
 -1      2402 9.38936E-05-2.89965E-05-2.78143E-05 1.48717E-06 7.29450E-19 2.20583E-18
 -1      2403 9.47306E-05-2.94812E-05-2.79612E-05 1.36374E-06 8.48226E-19 2.12357E-18
 -1      2404 9.32145E-05-2.89442E-05-2.75619E-05 3.08984E-06-4.44681E-19 1.68060E-18
 -1      2405 9.35922E-05-2.90287E-05-2.76728E-05 2.55122E-06-2.11746E-19 1.98167E-18
 -1      2406 9.46631E-05-2.96402E-05-2.78618E-05 2.49022E-06 2.25246E-19 2.27785E-18
 -1      2407 9.24703E-05-2.86892E-05-2.73492E-05 4.26280E-06-1.51075E-19 1.18383E-18
 -1      2408 9.30221E-05-2.88924E-05-2.74891E-05 3.72391E-06-3.12196E-19 1.24840E-18
 -1      2409 9.44013E-05-2.96388E-05-2.77476E-05 3.77647E-06 4.34518E-21 1.51997E-18
 -1      2410 9.13941E-05-2.81569E-05-2.71088E-05 5.31328E-06 3.74073E-19 1.05180E-18
 -1      2411 9.21203E-05-2.85075E-05-2.72703E-05 4.86505E-06 7.93109E-20 8.83545E-19
 -1      2412 9.38580E-05-2.93729E-05-2.76265E-05 5.09169E-06 1.38105E-19 5.79547E-19
 -1      2413 8.99959E-05-2.73114E-05-2.68609E-05 6.00047E-06 4.77128E-19 9.55167E-19
 -1      2414 9.08620E-05-2.78127E-05-2.70312E-05 5.75975E-06 3.80573E-19 1.06020E-18
 -1      2415 9.29625E-05-2.87459E-05-2.75107E-05 6.21902E-06 3.27785E-19 7.12926E-19
 -1      2416 8.83744E-05-2.61989E-05-2.66300E-05 6.05835E-06 8.22025E-19 1.17784E-18
 -1      2417 8.92994E-05-2.68087E-05-2.67923E-05 6.14227E-06 7.97957E-19 9.48319E-19
 -1      2418 9.17044E-05-2.77208E-05-2.74134E-05 6.86691E-06 6.11444E-19 7.02186E-19
 -1      2419 8.67373E-05-2.49795E-05-2.64402E-05 5.27970E-06 9.97621E-20 1.52709E-18
 -1      2420 8.75954E-05-2.56005E-05-2.65764E-05 5.76334E-06 4.25667E-19 1.71914E-18
 -1      2421 9.01837E-05-2.63783E-05-2.73438E-05 6.72869E-06 4.16370E-19 1.02858E-18
 -1      2422 8.53816E-05-2.39140E-05-2.63110E-05 3.62112E-06-1.17822E-19 1.28658E-18
 -1      2423 8.60236E-05-2.44101E-05-2.64049E-05 4.49258E-06-1.37305E-19 1.34267E-18
 -1      2424 8.86376E-05-2.49493E-05-2.73040E-05 5.59246E-06 3.60109E-20 1.17338E-18
 -1      2425 8.46145E-05-2.32866E-05-2.62544E-05 1.27635E-06 9.70448E-20 1.70632E-18
 -1      2426 8.49095E-05-2.35272E-05-2.62941E-05 2.41492E-06 6.42786E-20 1.54066E-18
 -1      2427 8.74047E-05-2.37766E-05-2.72888E-05 3.46703E-06-3.27363E-19 9.12961E-19
 -1      2428 8.46393E-05-2.32863E-05-2.62749E-05-1.34181E-06 3.55119E-19 1.55043E-18
 -1      2429 8.45199E-05-2.32021E-05-2.62548E-05-1.42295E-07 2.11599E-19 1.71992E-18
 -1      2430 8.68135E-05-2.31972E-05-2.72895E-05 6.51300E-07 2.14301E-19 8.97842E-19
 -1      2431 8.54650E-05-2.39160E-05-2.63709E-05-3.72790E-06 2.25566E-19 2.44635E-18
 -1      2432 8.49532E-05-2.35313E-05-2.62924E-05-2.69270E-06 4.35163E-19 2.49179E-18
 -1      2433 8.70402E-05-2.33919E-05-2.73012E-05-2.32236E-06-1.74923E-19 1.17090E-18
 -1      2434 8.69012E-05-2.49909E-05-2.65356E-05-5.46000E-06 2.26691E-19 1.72585E-18
 -1      2435 8.60986E-05-2.44113E-05-2.64069E-05-4.75761E-06 4.63219E-19 2.44444E-18
 -1      2436 8.80236E-05-2.42963E-05-2.73264E-05-4.86895E-06 3.53472E-19 2.04054E-18
 -1      2437 8.86408E-05-2.62275E-05-2.67566E-05-6.33010E-06 7.64723E-19 1.91343E-19
 -1      2438 8.76909E-05-2.55921E-05-2.65913E-05-6.02611E-06 3.13296E-19 6.89184E-19
 -1      2439 8.94978E-05-2.56352E-05-2.73734E-05-6.55955E-06 1.26481E-18 1.22808E-18
 -1      2440 9.03770E-05-2.73609E-05-2.70158E-05-6.37050E-06 1.94142E-19 7.53641E-19
 -1      2441 8.94189E-05-2.67896E-05-2.68310E-05-6.42816E-06 4.44686E-19 2.73731E-19
 -1      2442 9.11151E-05-2.70516E-05-2.74507E-05-7.24288E-06 4.37619E-19 5.52104E-19
 -1      2443 9.18919E-05-2.82275E-05-2.72918E-05-5.78500E-06 1.13572E-18 4.20376E-19
 -1      2444 9.10279E-05-2.77890E-05-2.71045E-05-6.10208E-06 8.84824E-19 4.72944E-19
 -1      2445 9.25810E-05-2.82498E-05-2.75608E-05-7.03471E-06 6.65833E-19 2.67342E-19
 -1      2446 9.30841E-05-2.87809E-05-2.75627E-05-4.84104E-06 7.04262E-21 5.49819E-19
 -1      2447 9.23689E-05-2.84911E-05-2.73876E-05-5.29686E-06 5.11158E-19 6.23685E-19
 -1      2448 9.37294E-05-2.90763E-05-2.76982E-05-6.21019E-06 5.56724E-19 6.96303E-19
 -1      2449 9.39468E-05-2.90597E-05-2.78103E-05-3.78103E-06-5.33397E-19 6.37885E-19
 -1      2450 9.33946E-05-2.88988E-05-2.76576E-05-4.27141E-06-1.61621E-19 6.83190E-19
 -1      2451 9.45234E-05-2.95184E-05-2.78506E-05-5.07672E-06-1.04984E-19 3.21637E-19
 -1      2452 9.45280E-05-2.91410E-05-2.80228E-05-2.77732E-06-6.65954E-19 1.26334E-18
 -1      2453 9.41260E-05-2.90736E-05-2.78975E-05-3.23085E-06-8.05320E-19 1.19253E-18
 -1      2454 9.50103E-05-2.96530E-05-2.80039E-05-3.88717E-06-1.10558E-18 3.93650E-19
 -1      2455 9.48949E-05-2.91043E-05-2.81949E-05-1.92542E-06-5.80170E-19 1.28511E-18
 -1      2456 9.46173E-05-2.90950E-05-2.80977E-05-2.30435E-06-3.62643E-19 1.26908E-18
 -1      2457 9.52709E-05-2.95878E-05-2.81457E-05-2.80637E-06-7.02503E-19 1.02679E-18
 -1      2458 9.51117E-05-2.90126E-05-2.83268E-05-1.25886E-06 2.13675E-19 1.76324E-18
 -1      2459 9.49297E-05-2.90334E-05-2.82553E-05-1.55174E-06-8.59432E-20 1.08399E-18
 -1      2460 9.53855E-05-2.94213E-05-2.82677E-05-1.91529E-06-2.34076E-19-9.78249E-20
 -1      2461 9.52302E-05-2.89072E-05-2.84229E-05-7.71036E-07 1.70268E-19 2.06799E-18
 -1      2462 9.51173E-05-2.89393E-05-2.83730E-05-9.83046E-07 4.81045E-19 2.39794E-18
 -1      2463 9.54167E-05-2.92251E-05-2.83663E-05-1.23321E-06 1.74469E-19 9.64439E-19
 -1      2464 9.52878E-05-2.88107E-05-2.84891E-05-4.34828E-07 9.09894E-19 1.15612E-18
 -1      2465 9.52224E-05-2.88433E-05-2.84562E-05-5.79318E-07 8.11834E-19 2.01798E-18
 -1      2466 9.54066E-05-2.90414E-05-2.84413E-05-7.42728E-07 7.96100E-19 1.09662E-18
 -1      2467 9.53097E-05-2.87324E-05-2.85324E-05-2.16419E-07 1.41147E-18 3.17653E-19
 -1      2468 9.52755E-05-2.87604E-05-2.85120E-05-3.09086E-07 7.25821E-19 6.50100E-19
 -1      2469 9.53802E-05-2.88898E-05-2.84954E-05-4.09707E-07 1.67628E-18 3.81543E-19
 -1      2470 9.53121E-05-2.86739E-05-2.85587E-05-8.34653E-08 8.97270E-19 1.20373E-18
 -1      2471 9.52972E-05-2.86957E-05-2.85471E-05-1.38952E-07 1.66026E-18 6.04640E-19
 -1      2472 9.53506E-05-2.87750E-05-2.85321E-05-1.96368E-07 1.09271E-18-6.32450E-19
 -1      2473 9.53049E-05-2.86328E-05-2.85734E-05-8.90124E-09 1.56308E-18 1.11317E-18
 -1      2474 9.53012E-05-2.86487E-05-2.85675E-05-3.92732E-08 1.23503E-18 1.52995E-18
 -1      2475 9.53237E-05-2.86936E-05-2.85556E-05-6.84281E-08 7.04924E-19-2.67084E-19
 -1      2476 9.52937E-05-2.86055E-05-2.85805E-05 2.80105E-08 5.49459E-19 7.39920E-19
 -1      2477 9.52960E-05-2.86165E-05-2.85782E-05 1.36205E-08 1.23609E-18 1.21869E-18
 -1      2478 9.53014E-05-2.86392E-05-2.85694E-05 1.93198E-09 1.36201E-18 7.17268E-19
 -1      2479 9.52819E-05-2.85882E-05-2.85829E-05 4.21262E-08 1.73924E-18-1.94168E-19
 -1      2480 9.52867E-05-2.85955E-05-2.85826E-05 3.72487E-08 1.14523E-18 5.56480E-19
 -1      2481 9.52839E-05-2.86048E-05-2.85767E-05 3.56025E-08 1.51836E-18 6.93903E-19
 -1      2482 9.52710E-05-2.85779E-05-2.85827E-05 4.34908E-08-7.94373E-19-1.83077E-19
 -1      2483 9.52765E-05-2.85825E-05-2.85834E-05 4.38028E-08 4.05739E-19-3.78225E-19
 -1      2484 9.52705E-05-2.85843E-05-2.85798E-05 4.73352E-08 6.98642E-19 3.30583E-19
 -1      2485 9.52617E-05-2.85722E-05-2.85812E-05 3.85291E-08 2.84293E-19-3.60065E-19
 -1      2486 9.52669E-05-2.85749E-05-2.85823E-05 4.13033E-08-4.86250E-20 9.54818E-20
 -1      2487 9.52606E-05-2.85730E-05-2.85804E-05 4.69944E-08-4.64096E-19 8.69818E-19
 -1      2488 9.52542E-05-2.85693E-05-2.85792E-05 3.11109E-08 1.53727E-19-1.33498E-18
 -1      2489 9.52587E-05-2.85708E-05-2.85805E-05 3.47331E-08 8.51833E-19-6.20861E-19
 -1      2490 9.52532E-05-2.85675E-05-2.85796E-05 4.08301E-08 5.76598E-19 1.08692E-18
 -1      2491 9.52485E-05-2.85682E-05-2.85773E-05 2.33983E-08 1.37026E-18-1.85336E-18
 -1      2492 9.52520E-05-2.85689E-05-2.85784E-05 2.69895E-08 3.20254E-19-2.08683E-18
 -1      2493 9.52479E-05-2.85653E-05-2.85783E-05 3.25714E-08 6.47158E-19-1.20359E-18
 -1      2494 9.52443E-05-2.85680E-05-2.85756E-05 1.64737E-08 3.09184E-19-1.38541E-18
 -1      2495 9.52469E-05-2.85682E-05-2.85765E-05 1.96126E-08 1.41628E-18-2.00911E-18
 -1      2496 9.52441E-05-2.85650E-05-2.85768E-05 2.42768E-08 1.02402E-18-1.93336E-18
 -1      2497 9.52414E-05-2.85682E-05-2.85742E-05 1.07741E-08-5.32032E-19-4.26584E-19
 -1      2498 9.52432E-05-2.85682E-05-2.85749E-05 1.33085E-08-1.89010E-19-1.11993E-18
 -1      2499 9.52414E-05-2.85656E-05-2.85754E-05 1.69587E-08-2.77844E-19-1.23178E-18
 -1      2500 9.52395E-05-2.85688E-05-2.85732E-05 6.38129E-09-1.22632E-18-1.57294E-18
 -1      2501 9.52407E-05-2.85686E-05-2.85737E-05 8.29927E-09-3.78792E-19-1.05395E-18
 -1      2502 9.52396E-05-2.85666E-05-2.85742E-05 1.10085E-08 3.38500E-19-1.32239E-18
 -1      2503 9.52383E-05-2.85693E-05-2.85724E-05 3.23445E-09 2.05420E-18-3.18533E-18
 -1      2504 9.52390E-05-2.85691E-05-2.85727E-05 4.56406E-09-2.04560E-19-2.51988E-18
 -1      2505 9.52385E-05-2.85677E-05-2.85732E-05 6.47727E-09 1.37142E-19-2.30060E-18
 -1      2506 9.52377E-05-2.85695E-05-2.85721E-05 1.99039E-09 1.33451E-18-1.97226E-18
 -1      2507 9.52337E-05-2.85633E-05-2.85730E-05 1.95380E-09 1.23648E-18 8.64512E-19
 -1      2508 9.52341E-05-2.85639E-05-2.85730E-05 2.48937E-09 8.42590E-19-1.33671E-18
 -1      2509 9.52348E-05-2.85649E-05-2.85728E-05 2.98210E-09 5.27610E-19-2.35258E-18
 -1      2510 9.52354E-05-2.85656E-05-2.85727E-05 3.17131E-09 9.40162E-19-1.56315E-18
 -1      2511 9.52338E-05-2.85628E-05-2.85732E-05 3.57506E-09 1.50117E-18-1.50246E-18
 -1      2512 9.52361E-05-2.85668E-05-2.85726E-05 3.20699E-09 4.18327E-19-2.02169E-18
 -1      2513 9.52367E-05-2.85676E-05-2.85724E-05 2.99910E-09 9.78155E-19-1.01492E-18
 -1      2514 9.52354E-05-2.85651E-05-2.85730E-05 4.17772E-09 3.15657E-19-1.66888E-18
 -1      2515 1.56157E-04-4.65149E-05-4.76036E-05 1.17647E-05 2.66376E-18-3.34218E-18
 -1      2516 1.50716E-04-5.22108E-05-4.22075E-05 2.09446E-05 2.35364E-18-1.72054E-18
 -1      2517 9.52331E-05-2.85624E-05-2.85732E-05 3.64213E-10 1.77448E-18 8.31567E-19
 -1      2518 9.52333E-05-2.85626E-05-2.85731E-05 1.10911E-09 8.66923E-19 9.59235E-19
 -1      2519 9.52325E-05-2.85610E-05-2.85735E-05 2.10370E-09 2.98057E-18 6.86779E-19
 -1      2520 9.52330E-05-2.85621E-05-2.85733E-05-1.43279E-09-6.59930E-19 3.55347E-19
 -1      2521 9.52330E-05-2.85620E-05-2.85733E-05-6.46129E-10-1.52083E-19-2.39603E-19
 -1      2522 9.52319E-05-2.85600E-05-2.85736E-05 7.66618E-11 2.32671E-19-1.07224E-18
 -1      2523 9.52336E-05-2.85627E-05-2.85733E-05-3.02633E-09-2.74647E-18 7.00484E-19
 -1      2524 9.52332E-05-2.85623E-05-2.85733E-05-2.39048E-09-1.89194E-18 1.07223E-18
 -1      2525 9.52320E-05-2.85598E-05-2.85737E-05-2.08690E-09-1.39686E-18-1.41397E-19
 -1      2526 9.52347E-05-2.85640E-05-2.85732E-05-4.02697E-09-2.48149E-18 1.83601E-18
 -1      2527 9.52341E-05-2.85633E-05-2.85732E-05-3.70902E-09-2.73081E-18 1.49155E-18
 -1      2528 9.52328E-05-2.85606E-05-2.85738E-05-3.91100E-09-2.63072E-18 1.01715E-18
 -1      2529 9.52360E-05-2.85657E-05-2.85730E-05-4.16453E-09-1.92160E-18 2.30191E-18
 -1      2530 9.52354E-05-2.85649E-05-2.85731E-05-4.25913E-09-2.79906E-18 1.61953E-18
 -1      2531 9.52343E-05-2.85622E-05-2.85737E-05-4.96986E-09-2.34656E-18 2.12193E-18
 -1      2532 9.52374E-05-2.85676E-05-2.85727E-05-3.35605E-09 8.26614E-20 2.11167E-18
 -1      2533 9.52368E-05-2.85669E-05-2.85729E-05-3.87555E-09-5.56308E-19 2.37670E-18
 -1      2534 9.52360E-05-2.85644E-05-2.85736E-05-4.99790E-09-3.08826E-19 3.20508E-18
 -1      2535 9.52384E-05-2.85694E-05-2.85724E-05-1.74919E-09-6.44107E-19 2.80142E-18
 -1      2536 9.52381E-05-2.85688E-05-2.85726E-05-2.57720E-09-1.12862E-18 3.28639E-18
 -1      2537 9.52377E-05-2.85667E-05-2.85733E-05-3.93719E-09-3.09170E-19 1.62783E-18
 -1      2538 9.52387E-05-2.85707E-05-2.85720E-05 2.13785E-10-6.33342E-19-3.34537E-18
 -1      2539 9.52388E-05-2.85704E-05-2.85722E-05-6.78368E-10-1.16384E-18 5.23632E-19
 -1      2540 9.52388E-05-2.85689E-05-2.85729E-05-2.01336E-09-1.23433E-18 6.58471E-19
 -1      2541 9.52378E-05-2.85723E-05-2.85709E-05 2.03623E-09-2.62697E-18 1.84374E-18
 -1      2542 9.52380E-05-2.85717E-05-2.85713E-05 1.86772E-09 3.39132E-20-1.70696E-18
 -1      2543 9.52374E-05-2.85720E-05-2.85709E-05 2.09992E-09-2.05842E-18 6.21415E-19
 -1      2544 9.37970E-05-2.79563E-05-2.82168E-05-5.94726E-07 7.46957E-19 2.14698E-18
 -1      2545 9.38357E-05-2.78220E-05-2.82735E-05-4.05200E-07 8.17738E-19 2.30008E-18
 -1      2546 9.45432E-05-2.77546E-05-2.86358E-05-3.77680E-08 9.66855E-19 1.69244E-18
 -1      2547 5.74215E-05-3.49081E-05-9.51495E-06-3.41988E-05 2.29885E-18 3.70153E-19
 -1      2548 8.09318E-05-4.49361E-05-1.55580E-05-3.92276E-05 2.74820E-18-1.01877E-18
 -1      2549 1.13165E-04-5.13238E-05-2.62027E-05-3.35726E-05 3.67168E-18-7.36072E-19
 -1      2550 1.02286E-04-3.83138E-05-2.67794E-05-3.78286E-05 2.84158E-18-1.02660E-18
 -1      2551 9.59296E-05-2.52009E-05-3.02834E-05-5.80675E-06-1.32285E-18-1.11690E-18
 -1      2552 9.52964E-05-2.58845E-05-2.97532E-05-3.93358E-06-1.14900E-18-1.10400E-18
 -1      2553 9.53762E-05-2.53817E-05-2.99968E-05-3.91738E-06-1.14511E-18-1.25205E-18
 -1      2554 9.52601E-05-2.34542E-05-3.07535E-05-6.45913E-06-1.16874E-18-1.32755E-18
 -1      2555 8.77651E-05-1.07117E-05-3.30584E-05-1.51970E-06 1.19465E-18-1.84849E-18
 -1      2556 8.78747E-05-1.08336E-05-3.30519E-05-2.62478E-06 9.42382E-19-2.02813E-18
 -1      2557 8.92626E-05-1.29855E-05-3.26917E-05-2.91000E-06 7.87005E-19-1.84196E-18
 -1      2558 8.90081E-05-1.26572E-05-3.27247E-05-9.55547E-07 1.14918E-18-1.60281E-18
 -1      2559 2.77716E-05-1.71193E-05-4.23648E-06 3.73842E-05-2.35052E-19 3.01501E-18
 -1      2560 1.85788E-05-1.37383E-05-1.39345E-06 2.23601E-05-5.25584E-19 3.69137E-18
 -1      2561 9.91596E-05-4.77893E-05-2.17973E-05 3.73369E-05 1.58734E-18 5.40831E-19
 -1      2562 7.94553E-05-4.55294E-05-1.47598E-05 3.82846E-05 3.94294E-19-1.40396E-19
 -1      2563 5.47954E-05-3.49218E-05-8.66560E-06 3.37571E-05 1.04884E-18-8.34963E-19
 -1      2564 1.39877E-04-5.57301E-05-3.63070E-05 3.43310E-05 1.22989E-18-4.16952E-19
 -1      2565 1.22199E-04-5.59946E-05-2.83057E-05 4.21717E-05 1.08759E-18 4.15046E-19
 -1      2566 1.19442E-04-5.69027E-05-2.66087E-05 4.27677E-05-2.26158E-19 1.53366E-19
 -1      2567 1.44862E-04-5.70754E-05-3.74708E-05 2.28232E-05 1.41116E-18-1.64197E-18
 -1      2568 1.62343E-04-3.02219E-05-5.69429E-05-1.87919E-06 1.96342E-18-8.78797E-19
 -1      2569 1.60899E-04-2.14193E-05-6.04956E-05 3.06227E-06 2.72363E-18-6.20663E-19
 -1      2570 1.52056E-04-6.78248E-06-6.29248E-05-2.04111E-06 5.06526E-18-1.66003E-18
 -1      2571 1.51809E-04-1.02768E-05-6.14436E-05-4.69694E-06 5.09109E-18-2.64391E-18
 -1      2572 1.57707E-04-1.13826E-05-6.31196E-05 3.56668E-06 4.25761E-18-8.43433E-19
 -1      2573 1.54656E-04-6.78940E-06-6.40778E-05 2.05522E-06 4.98860E-18-1.12909E-18
 -1      2574 1.54385E-04-4.65455E-05-4.66176E-05-1.10929E-05 9.80441E-19-9.14372E-19
 -1      2575 1.61888E-04-3.92089E-05-5.27696E-05-7.30026E-06 1.87237E-18-4.73280E-19
 -1      2576 1.53815E-04-3.49649E-05-5.10781E-05 4.43441E-06 1.19368E-18 2.23405E-19
 -1      2577 9.09005E-05-4.90553E-05-1.77760E-05-5.19934E-05-1.07827E-18-4.47733E-18
 -1      2578 1.10431E-04-5.36978E-05-2.44772E-05-4.90409E-05-9.24960E-19-4.03315E-18
 -1      2579 5.32073E-05-3.26761E-05-8.34314E-06-4.93445E-05-2.30816E-19-3.88619E-18
 -1      2580 7.09880E-05-3.94647E-05-1.32739E-05-5.45277E-05-6.97955E-19-4.49542E-18
 -1      2581 2.12747E-05-1.83021E-05-8.70764E-07-2.98164E-05 4.99326E-19-3.15223E-18
 -1      2582 3.34355E-05-2.31300E-05-4.12036E-06-4.25830E-05 2.87991E-19-3.35362E-18
 -1      2583 1.50495E-05-1.15618E-05-9.78694E-07-8.13921E-07 1.01361E-18-3.44149E-18
 -1      2584 1.43897E-05-1.38414E-05 1.45787E-07-1.71001E-05 8.37821E-19-3.36526E-18
 -1      2585 2.46861E-05-1.06354E-05-5.46548E-06-2.33878E-05 8.01293E-19-3.46140E-18
 -1      2586 3.90634E-05-2.52141E-05-5.51936E-06 2.95319E-05 1.05244E-18-1.88804E-18
 -1      2587 2.54699E-05-1.65937E-05-3.35932E-06 1.82522E-05 9.91240E-19-2.71262E-18
 -1      2588 1.42395E-04-6.77292E-05-3.19354E-05-2.34901E-05 3.23567E-18-9.67947E-19
 -1      2589 8.82467E-05-3.40353E-05-2.21980E-05 3.93699E-05 2.45153E-18 7.88482E-19
 -1      2590 6.75750E-05-3.77924E-05-1.25877E-05 5.46119E-05-6.49463E-19 2.91083E-18
 -1      2591 4.79518E-05-2.85949E-05-7.70120E-06 4.80953E-05-7.17437E-19 2.61670E-18
 -1      2592 9.52374E-05-2.85685E-05-2.85724E-05 3.16922E-09 1.08658E-18-1.86920E-18
 -1      2593 1.17117E-04-5.86813E-05-2.50495E-05-3.03881E-05 3.52450E-18-6.17487E-19
 -1      2594 9.07692E-05-1.49713E-05-3.24799E-05-6.70769E-06-1.20125E-19-2.15283E-18
 -1      2595 8.97031E-05-1.31454E-05-3.28646E-05-7.87680E-06-2.06918E-19-2.40164E-18
 -1      2596 9.03796E-05-1.39619E-05-3.28202E-05-9.06630E-06-5.61439E-19-2.37557E-18
 -1      2597 1.19776E-04-5.71533E-05-2.63556E-05-4.22052E-05-2.51865E-18-2.04000E-18
 -1      2598 1.25056E-04-5.74854E-05-2.86840E-05-4.10425E-05-1.42598E-18-2.62771E-18
 -1      2599 1.35485E-04-6.01146E-05-3.28717E-05-3.03372E-05-2.43130E-18-1.47987E-18
 -1      2600 9.60162E-05-2.62659E-05-2.98606E-05 5.33860E-06 1.40484E-18 4.32934E-18
 -1      2601 9.59536E-05-2.51773E-05-3.03083E-05 6.42409E-06 1.59389E-18 3.69165E-18
 -1      2602 9.53564E-05-2.65042E-05-2.94799E-05 4.04641E-06 1.35306E-18 3.94914E-18
 -1      2603 2.15333E-05-7.96471E-06-5.13915E-06 1.23435E-05-2.50828E-19 3.68692E-18
 -1      2604 9.44172E-05-2.81344E-05-2.84159E-05-5.94481E-07 7.77494E-19 1.66786E-18
 -1      2605 9.14393E-05-1.55296E-05-3.25856E-05-9.48075E-06-7.25450E-19-2.16496E-18
 -1      2606 9.24978E-05-1.68872E-05-3.24930E-05-1.04961E-05-1.06445E-18-2.06643E-18
 -1      2607 9.42533E-05-2.05540E-05-3.15573E-05-8.09261E-06-1.08602E-18-1.75324E-18
 -1      2608 9.23243E-05-1.72569E-05-3.21575E-05-7.95257E-06-6.07639E-19-1.98503E-18
 -1      2609 1.50604E-04-3.30096E-05-5.12107E-05-6.77541E-06 4.06597E-18-4.57398E-18
 -1      2610 1.56555E-04-4.04257E-05-4.98978E-05 2.50440E-06 3.44912E-18-3.61450E-18
 -1      2611 1.51063E-04-4.59682E-05-4.51175E-05 2.47796E-06 2.48001E-18-3.36759E-18
 -1      2612 4.43501E-05-2.06762E-05-9.59090E-06 4.19037E-05-1.43043E-18 2.19233E-18
 -1      2613 7.95130E-05-2.80032E-05-2.16283E-05-3.87858E-05 1.66315E-18-1.63107E-18
 -1      2614 5.31692E-05-2.55533E-05-1.13816E-05-3.27604E-05 1.96999E-18-3.64224E-19
 -1      2615 1.49148E-04-1.52158E-05-5.76663E-05 7.17161E-06 2.85281E-18 7.09390E-21
 -1      2616 9.52372E-05-2.85672E-05-2.85728E-05 4.45600E-09 1.28907E-18-1.68282E-18
 -1      2617 9.47813E-05-2.68783E-05-2.90741E-05 2.38018E-06 1.20917E-18 3.08261E-18
 -1      2618 9.51251E-05-2.66862E-05-2.92894E-05 3.25702E-06 1.25630E-18 3.53263E-18
 -1      2619 9.53682E-05-2.61552E-05-2.96719E-05 3.98041E-06 1.47034E-18 2.86333E-18
 -1      2620 9.50828E-05-2.66465E-05-2.93516E-05 2.46340E-06 1.21720E-18 2.07807E-18
 -1      2621 2.40230E-05-1.02680E-05-5.24681E-06 1.01839E-05 1.34297E-18-3.26044E-18
 -1      2622 2.62542E-05-4.29580E-06-8.74150E-06 2.72228E-06 1.70203E-18-3.23800E-18
 -1      2623 3.54422E-05-8.60783E-06-1.09756E-05 1.93326E-05 1.96443E-18-2.49769E-18
 -1      2624 4.98094E-05-2.47561E-05-1.01969E-05-4.54920E-05-3.43048E-20-3.72102E-18
 -1      2625 1.52330E-04-5.25997E-05-4.27954E-05-1.48889E-05-6.31569E-20-9.26654E-19
 -1      2626 1.50604E-04-4.94913E-05-4.37344E-05-3.27821E-06-4.51151E-19 5.17431E-19
 -1      2627 1.46022E-04-5.63146E-05-3.83944E-05-1.82008E-05-1.35599E-18-6.23416E-19
 -1      2628 1.50117E-04-1.53989E-05-5.82116E-05-7.16306E-06 4.88082E-18-3.16081E-18
 -1      2629 1.44156E-04-2.02836E-05-5.37264E-05-9.11293E-06 4.07423E-18-2.82973E-18
 -1      2630 1.36929E-04-1.01423E-05-5.47661E-05-9.28563E-06 4.24575E-18-1.22153E-18
 -1      2631 5.51063E-05-2.60185E-05-1.23546E-05 3.42425E-05 2.03881E-18-6.39086E-19
 -1      2632 1.41616E-04-4.85242E-06-5.90093E-05-5.47871E-07 4.55301E-18-3.11205E-19
 -1      2633 8.74407E-05-4.49992E-05-1.78121E-05-5.13916E-05-1.61656E-18-3.92547E-18
 -1      2634 8.39979E-05-4.26563E-05-1.72628E-05 5.16979E-05-1.36457E-18 1.55579E-18
 -1      2635 9.04939E-05-1.51114E-05-3.23285E-05 3.11782E-06 1.82511E-18-8.48029E-19
 -1      2636 9.02923E-05-1.48288E-05-3.23619E-05 2.19027E-06 1.65947E-18-1.05754E-18
 -1      2637 9.01452E-05-1.46081E-05-3.23924E-05 1.36109E-06 1.52082E-18-1.27627E-18
 -1      2638 9.00719E-05-1.45059E-05-3.24051E-05 4.15606E-07 1.33439E-18-1.26189E-18
 -1      2639 9.13294E-05-1.65049E-05-3.20550E-05 1.56151E-06 1.47292E-18-1.04402E-18
 -1      2640 9.21278E-05-1.75375E-05-3.20053E-05 6.39107E-06 2.21485E-18 2.88481E-19
 -1      2641 9.15887E-05-1.67314E-05-3.21041E-05 5.55292E-06 2.12428E-18-9.37030E-21
 -1      2642 9.35151E-05-1.97245E-05-3.16825E-05 7.56022E-06 2.22645E-18 1.07047E-18
 -1      2643 9.27654E-05-1.85130E-05-3.18404E-05 6.93157E-06 2.20813E-18 6.68296E-19
 -1      2644 9.34262E-05-1.98450E-05-3.15076E-05 5.65758E-06 2.06676E-18 6.00833E-19
 -1      2645 9.59403E-05-2.43983E-05-3.06534E-05 7.07761E-06 1.77745E-18 3.15562E-18
 -1      2646 9.53648E-05-2.30723E-05-3.10088E-05 7.77237E-06 1.99097E-18 2.55027E-18
 -1      2647 9.55597E-05-2.50146E-05-3.02116E-05 5.50000E-06 1.71425E-18 2.79933E-18
 -1      2648 9.49484E-05-2.82785E-05-2.85768E-05-5.80577E-07 7.67568E-19 1.28819E-18
 -1      2649 9.49852E-05-2.80543E-05-2.86695E-05-3.83914E-07 9.27788E-19 1.42421E-18
 -1      2650 4.95571E-05-1.25287E-05-1.49291E-05 2.83431E-05 2.36576E-18-1.13502E-18
 -1      2651 6.89464E-05-2.39125E-05-1.88783E-05 3.60808E-05 2.47641E-18 1.34255E-19
 -1      2652 9.52307E-05-2.67620E-05-2.93219E-05-7.40626E-07-6.31945E-19-9.33711E-19
 -1      2653 9.51007E-05-2.70624E-05-2.91631E-05-6.79169E-08-4.42765E-19-9.39428E-19
 -1      2654 9.50156E-05-2.73019E-05-2.90073E-05 5.00724E-07-2.65836E-19-8.98993E-19
 -1      2655 9.49233E-05-2.74501E-05-2.89169E-05 9.91795E-07-1.24021E-19-9.18753E-19
 -1      2656 9.52907E-05-2.68917E-05-2.93193E-05 1.76271E-08-4.56037E-19-6.81705E-19
 -1      2657 9.47795E-05-2.75092E-05-2.88249E-05 1.39434E-06-1.25805E-19-9.62647E-19
 -1      2658 9.47134E-05-2.75224E-05-2.87927E-05 1.77466E-06-1.81697E-19-1.18365E-18
 -1      2659 9.50790E-05-2.72846E-05-2.90579E-05 1.03901E-06-2.23973E-19-9.88271E-19
 -1      2660 9.44914E-05-2.74195E-05-2.87472E-05 2.09333E-06-1.35869E-19-9.77184E-19
 -1      2661 9.44110E-05-2.72924E-05-2.87593E-05 2.45448E-06 3.18917E-20-8.02588E-19
 -1      2662 9.47325E-05-2.72837E-05-2.89053E-05 1.79036E-06-1.03160E-19-7.88268E-19
 -1      2663 9.40535E-05-2.70052E-05-2.87453E-05 2.75671E-06 1.57855E-20-7.63150E-19
 -1      2664 9.38968E-05-2.67019E-05-2.87907E-05 3.18278E-06-8.28339E-20-7.05034E-19
 -1      2665 9.41779E-05-2.68906E-05-2.88291E-05 2.41516E-06 3.95484E-20-3.94557E-19
 -1      2666 9.33020E-05-2.61715E-05-2.87908E-05 3.52380E-06-7.12664E-20-6.62031E-19
 -1      2667 9.29713E-05-2.56243E-05-2.88565E-05 4.09648E-06 6.57691E-21-5.24612E-19
 -1      2668 9.32633E-05-2.60290E-05-2.87954E-05 3.02606E-06-5.36005E-20-6.45177E-19
 -1      2669 9.19747E-05-2.47533E-05-2.88436E-05 4.51582E-06-1.02192E-19-6.66495E-19
 -1      2670 9.13115E-05-2.38609E-05-2.89060E-05 5.31302E-06-2.04491E-19-4.70219E-19
 -1      2671 9.17353E-05-2.45492E-05-2.87572E-05 3.69648E-06-7.86616E-20-8.19853E-19
 -1      2672 8.96585E-05-2.25136E-05-2.88294E-05 5.82335E-06-3.00368E-19-5.14059E-19
 -1      2673 8.84025E-05-2.11497E-05-2.88336E-05 6.90414E-06-3.13743E-19-4.73723E-19
 -1      2674 8.91977E-05-2.22365E-05-2.86331E-05 4.43714E-06-1.68212E-19-4.56185E-19
 -1      2675 8.58709E-05-1.93057E-05-2.86091E-05 7.44801E-06-2.19848E-19-5.89528E-19
 -1      2676 8.38161E-05-1.74814E-05-2.84619E-05 8.74877E-06 2.47162E-21-5.92542E-19
 -1      2677 8.51932E-05-1.89377E-05-2.82828E-05 5.13294E-06-3.23400E-19-7.12090E-19
 -1      2678 7.96964E-05-1.48896E-05-2.78804E-05 9.29799E-06 1.75324E-19-7.10786E-19
 -1      2679 7.61457E-05-1.24852E-05-2.73194E-05 1.09108E-05 3.63112E-19-4.78560E-19
 -1      2680 7.88823E-05-1.44667E-05-2.74203E-05 5.60793E-06 1.10202E-19-1.10441E-18
 -1      2681 6.97844E-05-9.43862E-06-2.59825E-05 1.13633E-05 4.86918E-19-6.72968E-19
 -1      2682 6.43312E-05-7.08325E-06-2.45453E-05 1.31727E-05 7.51120E-19-9.85470E-19
 -1      2683 6.89458E-05-8.78554E-06-2.54274E-05 5.44143E-06 2.99195E-19-1.51672E-18
 -1      2684 6.48362E-05-1.20745E-05-2.22846E-05-2.76067E-05 5.87629E-19-1.43869E-18
 -1      2685 6.78269E-05-1.01608E-05-2.46341E-05-2.42343E-05 5.31857E-19-7.17331E-19
 -1      2686 9.07066E-05-1.54117E-05-3.22911E-05-3.88113E-06 4.51091E-19-1.82893E-18
 -1      2687 9.10560E-05-1.59040E-05-3.22352E-05-4.78620E-06 2.15125E-19-1.98383E-18
 -1      2688 7.53756E-05-1.18768E-05-2.70957E-05-2.13784E-05 5.53683E-19-1.88147E-19
 -1      2689 7.80809E-05-1.30469E-05-2.79542E-05-1.81392E-05 4.10778E-19 5.16465E-19
 -1      2690 6.12244E-05-6.02117E-06-2.30859E-05-1.66754E-05 1.10896E-18-4.82279E-20
 -1      2691 8.34836E-05-1.57108E-05-2.90132E-05-1.58727E-05-8.02167E-20 8.42685E-19
 -1      2692 8.53406E-05-1.74344E-05-2.91966E-05-1.31052E-05 1.75125E-19-2.95449E-19
 -1      2693 7.37813E-05-1.05106E-05-2.68222E-05-1.29866E-05 3.97581E-19 1.84719E-19
 -1      2694 8.88421E-05-1.97630E-05-2.95843E-05-1.13260E-05-4.00825E-19-1.23225E-18
 -1      2695 8.98868E-05-2.12027E-05-2.95048E-05-9.17449E-06-1.55394E-18-1.62457E-18
 -1      2696 8.24404E-05-1.57592E-05-2.84126E-05-9.89308E-06-1.06795E-18-2.06026E-18
 -1      2697 9.20203E-05-2.29009E-05-2.95987E-05-7.80563E-06-1.89938E-18-1.31259E-18
 -1      2698 9.25225E-05-2.39150E-05-2.94477E-05-6.24713E-06-1.54307E-18-1.59993E-18
 -1      2699 8.79034E-05-2.00441E-05-2.89880E-05-7.25202E-06-1.73273E-18-3.11389E-18
 -1      2700 9.37647E-05-2.50499E-05-2.94260E-05-5.23726E-06-4.36063E-19-1.37504E-18
 -1      2701 9.39646E-05-2.57105E-05-2.92793E-05-4.16146E-06 1.18415E-18-1.45894E-18
 -1      2702 9.11837E-05-2.31139E-05-2.91190E-05-5.13463E-06-8.38395E-19-1.61344E-18
 -1      2703 9.46630E-05-2.64327E-05-2.92220E-05-3.44510E-06 1.32811E-18-2.06079E-18
 -1      2704 9.47151E-05-2.68451E-05-2.91032E-05-2.72733E-06 3.37227E-19-2.48493E-18
 -1      2705 9.30791E-05-2.51670E-05-2.90757E-05-3.53422E-06 6.37384E-19-2.37469E-18
 -1      2706 9.50836E-05-2.72737E-05-2.90463E-05-2.25832E-06-3.77680E-19-2.88772E-18
 -1      2707 9.50715E-05-2.75176E-05-2.89613E-05-1.80530E-06-7.69579E-19-3.03760E-18
 -1      2708 9.41216E-05-2.64611E-05-2.89822E-05-2.40356E-06-2.77347E-19-2.43706E-18
 -1      2709 9.52764E-05-2.77965E-05-2.89093E-05-1.46612E-06-6.42804E-19-3.48120E-18
 -1      2710 9.52424E-05-2.79516E-05-2.88449E-05-1.15837E-06-1.15094E-18-3.02379E-18
 -1      2711 9.46946E-05-2.72762E-05-2.88852E-05-1.61282E-06-1.07499E-18-2.89984E-18
 -1      2712 9.53467E-05-2.81186E-05-2.88047E-05-9.35338E-07-1.89139E-18-2.77994E-18
 -1      2713 9.53092E-05-2.82104E-05-2.87601E-05-7.39543E-07-1.89626E-18-1.36519E-18
 -1      2714 9.50066E-05-2.77957E-05-2.88005E-05-1.05878E-06-1.39849E-18-2.03801E-18
 -1      2715 9.53584E-05-2.83093E-05-2.87304E-05-5.94097E-07-9.89519E-19-1.28319E-18
 -1      2716 9.53251E-05-2.83631E-05-2.87000E-05-4.70530E-07 9.01525E-19-1.38822E-18
 -1      2717 9.51628E-05-2.81112E-05-2.87345E-05-6.90124E-07-1.00609E-18-1.77711E-18
 -1      2718 9.53456E-05-2.84210E-05-2.86787E-05-3.76434E-07 1.81622E-18-1.69578E-18
 -1      2719 9.53189E-05-2.84522E-05-2.86583E-05-2.98788E-07 1.79441E-18-1.80963E-18
 -1      2720 9.52353E-05-2.83005E-05-2.86856E-05-4.47792E-07 1.35119E-18-1.53810E-18
 -1      2721 9.53251E-05-2.84857E-05-2.86433E-05-2.38180E-07 1.24803E-18-1.83608E-18
 -1      2722 9.53047E-05-2.85036E-05-2.86297E-05-1.89466E-07 2.38800E-19-2.11088E-18
 -1      2723 9.52644E-05-2.84129E-05-2.86505E-05-2.89743E-07 1.43555E-18-2.24601E-18
 -1      2724 9.53043E-05-2.85228E-05-2.86193E-05-1.50472E-07 6.34264E-19-1.78067E-18
 -1      2725 9.52893E-05-2.85329E-05-2.86102E-05-1.19877E-07 7.16804E-19-1.43117E-18
 -1      2726 9.52721E-05-2.84791E-05-2.86257E-05-1.87073E-07 7.71512E-19-1.38890E-18
 -1      2727 9.52864E-05-2.85438E-05-2.86031E-05-9.47429E-08 2.14064E-19-8.78630E-19
 -1      2728 9.52756E-05-2.85494E-05-2.85971E-05-7.54853E-08-6.22087E-19-7.72177E-19
 -1      2729 9.52702E-05-2.85177E-05-2.86084E-05-1.20413E-07 7.40708E-19-1.37406E-18
 -1      2730 9.52722E-05-2.85552E-05-2.85924E-05-5.99430E-08-1.03297E-18-4.80543E-19
 -1      2731 9.52649E-05-2.85583E-05-2.85886E-05-4.81451E-08-7.05819E-19-2.33989E-19
 -1      2732 9.52648E-05-2.85397E-05-2.85967E-05-7.77919E-08-3.30927E-19-6.33618E-19
 -1      2733 9.52615E-05-2.85618E-05-2.85852E-05-3.72778E-08 5.18877E-19 6.05586E-19
 -1      2734 9.52561E-05-2.85636E-05-2.85825E-05-2.92978E-08 7.95213E-20 7.06568E-19
 -1      2735 9.52586E-05-2.85523E-05-2.85886E-05-4.98386E-08 3.70081E-19 1.19675E-18
 -1      2736 9.52533E-05-2.85655E-05-2.85802E-05-2.22033E-08-6.90602E-19 1.12949E-18
 -1      2737 9.52497E-05-2.85665E-05-2.85785E-05-1.70654E-08 1.07405E-18 1.41969E-18
 -1      2738 9.52529E-05-2.85599E-05-2.85828E-05-3.08106E-08-1.22280E-21 1.56556E-18
 -1      2739 9.52475E-05-2.85676E-05-2.85769E-05-1.23973E-08 2.01829E-18 1.31177E-18
 -1      2740 9.52451E-05-2.85682E-05-2.85758E-05-9.08036E-09 1.92650E-18 1.29719E-18
 -1      2741 9.52481E-05-2.85643E-05-2.85789E-05-1.82475E-08 1.51909E-18 2.83906E-18
 -1      2742 9.52434E-05-2.85688E-05-2.85747E-05-6.00903E-09 1.09326E-18 8.78750E-19
 -1      2743 9.52419E-05-2.85692E-05-2.85740E-05-3.88449E-09 6.10202E-19-2.83755E-19
 -1      2744 9.52445E-05-2.85669E-05-2.85762E-05-9.95372E-09 9.32886E-19 2.03269E-18
 -1      2745 9.52407E-05-2.85696E-05-2.85733E-05-1.93692E-09-7.18078E-20-8.62570E-19
 -1      2746 9.52398E-05-2.85701E-05-2.85728E-05-5.91532E-10 7.83588E-19-1.51948E-18
 -1      2747 9.52418E-05-2.85686E-05-2.85743E-05-4.50605E-09 2.12823E-19 4.99933E-21
 -1      2748 2.84472E-05-6.35623E-06-8.83968E-06-1.14817E-05 6.22252E-19 2.93476E-18
 -1      2749 3.54140E-05-1.06077E-05-9.88464E-06-2.17418E-05 1.98735E-19 1.19305E-18
 -1      2750 9.52371E-05-2.85715E-05-2.85710E-05 2.40483E-09-2.34333E-18 2.75379E-18
 -1      2751 9.52373E-05-2.85718E-05-2.85709E-05 2.27952E-09-2.37220E-18 1.30301E-18
 -1      2752 9.50804E-05-2.90475E-05-2.83052E-05-5.55522E-07 4.29423E-19 7.46776E-19
 -1      2753 9.50372E-05-2.88711E-05-2.83484E-05-6.84835E-07 3.80907E-19 1.08216E-18
 -1      2754 9.49785E-05-2.86802E-05-2.84177E-05-7.22820E-07 4.54283E-19 1.05893E-18
 -1      2755 9.49653E-05-2.84911E-05-2.84780E-05-7.05282E-07 6.86286E-19 1.28036E-18
 -1      2756 9.54468E-05-2.84657E-05-2.87138E-05-5.67642E-07 8.65701E-19 9.01540E-19
 -1      2757 9.55358E-05-2.89687E-05-2.85354E-05-6.88257E-07 5.20413E-19 5.54156E-19
 -1      2758 9.54280E-05-2.97886E-05-2.81412E-05 5.96392E-07 5.71068E-19 1.65382E-18
 -1      2759 9.53872E-05-2.96200E-05-2.81789E-05 2.06480E-07 4.06763E-19 1.27817E-18
 -1      2760 9.56097E-05-3.01441E-05-2.80691E-05 1.56848E-06 4.99191E-19 1.99969E-18
 -1      2761 9.56090E-05-3.00001E-05-2.81112E-05 1.05546E-06 7.73672E-19 1.81395E-18
 -1      2762 9.63118E-05-3.04132E-05-2.82462E-05 7.67632E-07 5.09092E-19 1.30792E-18
 -1      2763 9.57199E-05-3.04139E-05-2.80022E-05 2.78490E-06 1.99944E-19 1.71465E-18
 -1      2764 9.57952E-05-3.03340E-05-2.80488E-05 2.16615E-06 3.75323E-19 1.74385E-18
 -1      2765 9.66881E-05-3.08870E-05-2.82025E-05 1.82916E-06 4.07446E-19 1.26154E-18
 -1      2766 9.56657E-05-3.04845E-05-2.79480E-05 4.18039E-06 1.32551E-19 1.15995E-18
 -1      2767 9.58602E-05-3.05286E-05-2.79958E-05 3.50055E-06 1.60485E-19 1.65880E-18
 -1      2768 9.70252E-05-3.12459E-05-2.81899E-05 3.16119E-06 4.47336E-19 9.00409E-19
 -1      2769 9.53317E-05-3.02088E-05-2.79186E-05 5.60967E-06 2.26635E-19 6.44009E-19
 -1      2770 9.56883E-05-3.04472E-05-2.79618E-05 4.95446E-06 2.63949E-19 8.37997E-19
 -1      2771 9.71996E-05-3.13372E-05-2.82210E-05 4.68871E-06 4.76920E-19 5.75352E-19
 -1      2772 9.46106E-05-2.94472E-05-2.79270E-05 6.82345E-06 3.91491E-19 7.50455E-19
 -1      2773 9.51538E-05-2.99359E-05-2.79591E-05 6.32523E-06 1.80492E-19 6.19750E-19
 -1      2774 9.70522E-05-3.09711E-05-2.83096E-05 6.23826E-06 3.17008E-19 4.62651E-19
 -1      2775 9.34604E-05-2.81438E-05-2.79801E-05 7.47866E-06 7.56391E-19 9.13339E-19
 -1      2776 9.41714E-05-2.88850E-05-2.79962E-05 7.30207E-06 5.85628E-19 7.39501E-19
 -1      2777 9.64329E-05-2.99830E-05-2.84641E-05 7.50909E-06 4.08690E-19 6.24717E-19
 -1      2778 9.19764E-05-2.64150E-05-2.80723E-05 7.21122E-06 1.81087E-19 1.09604E-18
 -1      2779 9.27705E-05-2.73184E-05-2.80722E-05 7.50923E-06 4.54062E-19 9.98539E-19
 -1      2780 9.52843E-05-2.83371E-05-2.86784E-05 8.09134E-06 6.03581E-19 1.13848E-18
 -1      2781 9.04323E-05-2.45974E-05-2.81823E-05 5.77790E-06-2.79544E-19 1.43977E-18
 -1      2782 9.11589E-05-2.54713E-05-2.81714E-05 6.62301E-06 1.16974E-19 1.40219E-18
 -1      2783 9.37383E-05-2.62347E-05-2.89251E-05 7.56814E-06 2.13289E-19 1.30000E-18
 -1      2784 8.92360E-05-2.31861E-05-2.82776E-05 3.22150E-06 2.89646E-20 7.82739E-19
 -1      2785 8.97161E-05-2.37864E-05-2.82650E-05 4.54072E-06-3.77133E-19 9.91706E-19
 -1      2786 9.21563E-05-2.41463E-05-2.91558E-05 5.70265E-06 3.82827E-20 1.38041E-18
 -1      2787 8.87754E-05-2.26412E-05-2.83268E-05-4.59981E-08-9.09849E-20 1.11658E-18
 -1      2788 8.88719E-05-2.27743E-05-2.83203E-05 1.51586E-06-3.18134E-20 8.85184E-19
 -1      2789 9.10378E-05-2.26900E-05-2.93128E-05 2.63535E-06-7.53721E-20 1.20200E-18
 -1      2790 8.92235E-05-2.31549E-05-2.83161E-05-3.34222E-06-5.09366E-19 1.42750E-18
 -1      2791 8.89053E-05-2.27772E-05-2.83173E-05-1.85880E-06-3.31780E-19 1.18203E-18
 -1      2792 9.07948E-05-2.23609E-05-2.93527E-05-1.05606E-06-2.69994E-19 1.26595E-18
 -1      2793 9.04391E-05-2.45440E-05-2.82554E-05-5.97722E-06 4.89683E-19 1.35274E-18
 -1      2794 8.97955E-05-2.37841E-05-2.82588E-05-4.85976E-06-9.51473E-20 1.28748E-18
 -1      2795 9.15217E-05-2.32713E-05-2.92657E-05-4.54166E-06-4.49674E-19 6.53016E-19
 -1      2796 9.20454E-05-2.63544E-05-2.81736E-05-7.51695E-06 1.41326E-18 9.42483E-19
 -1      2797 9.12418E-05-2.54437E-05-2.81697E-05-6.92013E-06 1.21557E-18 9.95672E-19
 -1      2798 9.29416E-05-2.50903E-05-2.90807E-05-7.08620E-06 8.47511E-19-3.79200E-19
 -1      2799 9.36191E-05-2.80864E-05-2.81034E-05-7.89509E-06 5.28539E-19 4.20678E-19
 -1      2800 9.28262E-05-2.72522E-05-2.80842E-05-7.81361E-06 9.59223E-19 9.73153E-19
 -1      2801 9.45700E-05-2.72266E-05-2.88513E-05-8.32690E-06 1.44890E-18 8.10172E-19
 -1      2802 9.48593E-05-2.93920E-05-2.80684E-05-7.34647E-06 4.87767E-19 3.27077E-19
 -1      2803 9.41957E-05-2.87771E-05-2.80309E-05-7.65784E-06 4.13123E-19 4.66018E-19
 -1      2804 9.59566E-05-2.91116E-05-2.86329E-05-8.32904E-06 4.30641E-19 6.34260E-19
 -1      2805 9.56545E-05-3.01513E-05-2.80762E-05-6.23933E-06 5.11714E-19 1.30064E-18
 -1      2806 9.51692E-05-2.97941E-05-2.80234E-05-6.77824E-06 7.36860E-19 1.09110E-18
 -1      2807 9.68533E-05-3.04056E-05-2.84645E-05-7.44713E-06 3.95732E-19 6.60757E-19
 -1      2808 9.60443E-05-3.04228E-05-2.81208E-05-4.92237E-06-1.04198E-19 8.58833E-19
 -1      2809 9.57300E-05-3.02870E-05-2.80592E-05-5.53920E-06 2.82821E-19 1.35391E-18
 -1      2810 9.72350E-05-3.10400E-05-2.83608E-05-6.11132E-06 5.92796E-19 9.00874E-19
 -1      2811 9.61405E-05-3.03508E-05-2.81895E-05-3.64618E-06-1.55907E-18 2.35674E-19
 -1      2812 9.59614E-05-3.03676E-05-2.81263E-05-4.23531E-06-1.00137E-18 2.43914E-19
 -1      2813 9.72181E-05-3.11351E-05-2.83176E-05-4.67674E-06-3.52873E-19 5.01391E-19
 -1      2814 9.60647E-05-3.00893E-05-2.82679E-05-2.55078E-06-5.22569E-19-2.61812E-19
 -1      2815 9.59780E-05-3.01896E-05-2.82092E-05-3.05381E-06-9.31362E-19-1.07249E-19
 -1      2816 9.69625E-05-3.08816E-05-2.83203E-05-3.36974E-06-1.09024E-18-8.99170E-19
 -1      2817 9.59134E-05-2.97601E-05-2.83444E-05-1.68735E-06-2.16444E-19-7.10338E-19
 -1      2818 9.58823E-05-2.98909E-05-2.82941E-05-2.08341E-06-3.16066E-19-2.95961E-19
 -1      2819 9.66096E-05-3.04611E-05-2.83512E-05-2.29685E-06-6.99374E-20-1.05879E-18
 -1      2820 9.57484E-05-2.94408E-05-2.84117E-05-1.05079E-06-4.25532E-19 2.04268E-19
 -1      2821 9.57467E-05-2.95688E-05-2.83714E-05-1.34292E-06-3.82116E-19-5.90669E-19
 -1      2822 9.62551E-05-3.00063E-05-2.83948E-05-1.48032E-06-4.88025E-19-1.41176E-18
 -1      2823 9.56019E-05-2.91702E-05-2.84662E-05-6.07879E-07 1.36348E-18-5.35495E-19
 -1      2824 9.56131E-05-2.92790E-05-2.84359E-05-8.11264E-07 6.54823E-19-2.94629E-19
 -1      2825 9.59497E-05-2.95947E-05-2.84403E-05-8.95657E-07 2.10665E-19-9.76509E-19
 -1      2826 9.54857E-05-2.89608E-05-2.85074E-05-3.16281E-07 1.38837E-18 1.09394E-19
 -1      2827 9.55007E-05-2.90451E-05-2.84859E-05-4.50180E-07 1.63728E-18-4.56836E-22
 -1      2828 9.57112E-05-2.92605E-05-2.84809E-05-4.99193E-07 1.13623E-18-9.42612E-19
 -1      2829 9.54002E-05-2.88096E-05-2.85367E-05-1.35281E-07 9.33987E-19 7.47484E-19
 -1      2830 9.54147E-05-2.88705E-05-2.85222E-05-2.18283E-07 1.42280E-18 5.38955E-19
 -1      2831 9.55380E-05-2.90093E-05-2.85138E-05-2.44491E-07 9.95649E-19 3.93682E-19
 -1      2832 9.53408E-05-2.87068E-05-2.85561E-05-3.06798E-08 8.75895E-19-4.68898E-19
 -1      2833 9.53532E-05-2.87482E-05-2.85471E-05-7.84765E-08 4.23085E-19-1.04683E-18
 -1      2834 9.54194E-05-2.88323E-05-2.85383E-05-9.04636E-08 1.57244E-18 8.01717E-19
 -1      2835 9.53013E-05-2.86406E-05-2.85680E-05 2.38740E-08 1.13064E-18-4.19309E-19
 -1      2836 9.53111E-05-2.86673E-05-2.85629E-05-8.61464E-10 1.15943E-18-4.51964E-19
 -1      2837 9.53422E-05-2.87144E-05-2.85554E-05-4.33044E-09 1.33641E-18-1.82443E-19
 -1      2838 9.52759E-05-2.86005E-05-2.85747E-05 4.74313E-08 1.17437E-18-8.08669E-19
 -1      2839 9.52835E-05-2.86167E-05-2.85721E-05 3.69508E-08 1.34167E-18-1.14709E-18
 -1      2840 9.52943E-05-2.86402E-05-2.85664E-05 3.82841E-08 1.64432E-18-1.88811E-18
 -1      2841 9.52601E-05-2.85779E-05-2.85778E-05 5.30469E-08-1.51782E-19-1.58503E-20
 -1      2842 9.52657E-05-2.85871E-05-2.85769E-05 5.07787E-08 6.74796E-19-1.38330E-19
 -1      2843 9.52660E-05-2.85963E-05-2.85729E-05 5.45406E-08 6.91256E-19-1.98683E-18
 -1      2844 9.52504E-05-2.85664E-05-2.85787E-05 4.92292E-08-2.36058E-19-9.42724E-20
 -1      2845 9.52546E-05-2.85711E-05-2.85787E-05 5.12377E-08-3.01182E-19 2.06872E-19
 -1      2846 9.52501E-05-2.85725E-05-2.85763E-05 5.59531E-08-1.38455E-20-6.23733E-20
 -1      2847 9.52446E-05-2.85616E-05-2.85784E-05 4.12393E-08 4.00178E-19-2.65083E-19
 -1      2848 9.52476E-05-2.85636E-05-2.85789E-05 4.50978E-08 5.94814E-19 5.48474E-20
 -1      2849 9.52418E-05-2.85610E-05-2.85775E-05 4.98903E-08 3.66328E-19-1.31149E-18
 -1      2850 9.52412E-05-2.85605E-05-2.85774E-05 3.21332E-08 1.55553E-18-1.44829E-18
 -1      2851 9.52434E-05-2.85610E-05-2.85781E-05 3.64406E-08 1.01331E-18-4.41704E-19
 -1      2852 9.52378E-05-2.85569E-05-2.85776E-05 4.08279E-08 1.44892E-18-6.98664E-19
 -1      2853 9.52392E-05-2.85613E-05-2.85763E-05 2.35351E-08 9.55462E-19-1.37290E-19
 -1      2854 9.52408E-05-2.85610E-05-2.85770E-05 2.75549E-08 1.05945E-18-9.44763E-19
 -1      2855 9.52361E-05-2.85567E-05-2.85769E-05 3.13120E-08 9.02232E-19 4.73498E-19
 -1      2856 9.52381E-05-2.85629E-05-2.85751E-05 1.62008E-08-2.10259E-19-8.52917E-19
 -1      2857 9.52392E-05-2.85623E-05-2.85757E-05 1.95961E-08 2.39954E-19-5.11098E-19
 -1      2858 9.52357E-05-2.85585E-05-2.85760E-05 2.26511E-08 8.34240E-19 1.36246E-18
 -1      2859 9.52375E-05-2.85647E-05-2.85741E-05 1.03612E-08 3.60151E-19-1.22168E-18
 -1      2860 9.52382E-05-2.85640E-05-2.85746E-05 1.30398E-08 5.43824E-19-1.82690E-18
 -1      2861 9.52358E-05-2.85609E-05-2.85750E-05 1.54329E-08 6.76305E-19-2.40756E-19
 -1      2862 9.52371E-05-2.85664E-05-2.85732E-05 6.10249E-09 4.93800E-19-1.40808E-18
 -1      2863 9.52376E-05-2.85656E-05-2.85736E-05 8.07906E-09-8.30546E-20-7.09338E-19
 -1      2864 9.52359E-05-2.85632E-05-2.85740E-05 9.85015E-09-9.20868E-20 1.44818E-19
 -1      2865 9.52361E-05-2.85654E-05-2.85732E-05 5.79369E-09 4.94974E-19-1.23411E-18
 -1      2866 9.52323E-05-2.85605E-05-2.85737E-05 4.57340E-09 1.92774E-18 5.54048E-19
 -1      2867 9.52333E-05-2.85616E-05-2.85735E-05 5.10650E-09 1.40918E-18-1.56125E-18
 -1      2868 9.52301E-05-2.85573E-05-2.85741E-05-4.37940E-11 3.39894E-19-1.53136E-18
 -1      2869 9.52303E-05-2.85576E-05-2.85740E-05 1.13985E-09 1.03688E-18-2.66943E-19
 -1      2870 9.52341E-05-2.85628E-05-2.85735E-05 5.60180E-09 1.08044E-18-1.39209E-18
 -1      2871 9.52351E-05-2.85641E-05-2.85733E-05 5.69319E-09 7.80797E-19-1.21847E-18
 -1      2872 9.52350E-05-2.85629E-05-2.85737E-05 7.44224E-09 6.79620E-19-1.09051E-18
 -1      2873 9.52328E-05-2.85604E-05-2.85739E-05 6.73988E-09 1.57673E-18-5.54273E-19
 -1      2874 5.68334E-05-2.39111E-05-1.39030E-05 4.56430E-05-2.44729E-18 1.32349E-18
 -1      2875 4.04766E-05-1.26381E-05-1.11354E-05 3.37144E-05-2.08111E-18 1.83086E-18
 -1      2876 9.52308E-05-2.85585E-05-2.85739E-05 2.51843E-09 1.54412E-18 5.49213E-19
 -1      2877 9.52314E-05-2.85592E-05-2.85738E-05 3.47954E-09 2.52693E-18 4.19075E-19
 -1      2878 9.52306E-05-2.85577E-05-2.85741E-05 5.12423E-09 1.13725E-18 4.23589E-19
 -1      2879 9.52291E-05-2.85555E-05-2.85744E-05 2.54091E-09 6.20922E-19-6.31238E-19
 -1      2880 9.52317E-05-2.85582E-05-2.85744E-05-4.89962E-09-2.01457E-18 2.59206E-18
 -1      2881 9.52310E-05-2.85576E-05-2.85743E-05-4.04328E-09-1.85269E-18-3.11892E-19
 -1      2882 9.52337E-05-2.85602E-05-2.85743E-05-6.15913E-09-1.32911E-18 2.55095E-18
 -1      2883 9.52327E-05-2.85592E-05-2.85744E-05-5.78349E-09-2.25597E-18 3.46208E-18
 -1      2884 9.52310E-05-2.85559E-05-2.85750E-05-6.14096E-09-1.55420E-18 2.18875E-18
 -1      2885 9.52361E-05-2.85629E-05-2.85742E-05-6.21845E-09-3.68355E-19 2.31733E-18
 -1      2886 9.52350E-05-2.85617E-05-2.85743E-05-6.41480E-09-1.02280E-18 2.94911E-18
 -1      2887 9.52335E-05-2.85584E-05-2.85750E-05-7.48227E-09-1.19751E-18 3.15410E-18
 -1      2888 9.52382E-05-2.85657E-05-2.85739E-05-5.00911E-09-7.50720E-19 9.62177E-19
 -1      2889 9.52373E-05-2.85646E-05-2.85741E-05-5.74613E-09-2.23390E-19 1.10100E-18
 -1      2890 9.52364E-05-2.85617E-05-2.85748E-05-7.39363E-09-1.02321E-18 2.14689E-18
 -1      2891 9.52396E-05-2.85683E-05-2.85734E-05-2.82455E-09-1.20798E-18 5.12147E-19
 -1      2892 9.52391E-05-2.85674E-05-2.85736E-05-3.88845E-09-4.49872E-19 9.19302E-19
 -1      2893 9.52389E-05-2.85652E-05-2.85744E-05-5.86918E-09-5.20226E-19 4.96822E-19
 -1      2894 9.52377E-05-2.85715E-05-2.85712E-05 2.24691E-09-3.86139E-19-4.05700E-19
 -1      2895 9.52381E-05-2.85714E-05-2.85714E-05 1.66854E-09 1.08566E-18-2.65272E-18
 -1      2896 9.52386E-05-2.85713E-05-2.85717E-05 1.23675E-09 8.52237E-19-4.22467E-18
 -1      2897 9.52389E-05-2.85704E-05-2.85723E-05 2.34022E-10 7.03301E-20-2.68739E-18
 -1      2898 9.49981E-05-2.77794E-05-2.88132E-05-5.76811E-08 1.02369E-18 1.28336E-18
 -1      2899 9.51033E-05-2.74797E-05-2.89594E-05 3.76855E-07 1.01644E-18 1.37353E-18
 -1      2900 9.54270E-05-2.78535E-05-2.89687E-05-6.76878E-08 9.69024E-19 8.99677E-19
 -1      2901 2.83150E-05-5.18725E-06-9.32650E-06 1.97810E-05-8.67044E-19 3.10056E-18
 -1      2902 2.43855E-05-4.01749E-06-7.93212E-06 3.00184E-06-9.32398E-21 2.98685E-18
 -1      2903 3.29421E-05-3.43814E-06-1.21221E-05-3.65996E-06 1.15673E-20 2.42188E-18
 -1      2904 1.42671E-04-1.96921E-05-5.31937E-05 1.06618E-05 1.96956E-18 1.00268E-18
 -1      2905 1.37543E-04-9.93682E-06-5.54544E-05 8.64894E-06 3.41058E-18 1.28262E-18
 -1      2906 4.39946E-05-1.65208E-05-1.10192E-05-3.79428E-05 1.57019E-19-2.99828E-18
 -1      2907 6.03565E-05-2.58877E-05-1.44512E-05-4.54364E-05-4.90220E-19-3.11348E-18
 -1      2908 4.44469E-05-6.36621E-06-1.59651E-05 2.05639E-05 2.27518E-18-1.81646E-18
 -1      2909 8.29224E-05-3.99054E-05-1.80241E-05-4.90757E-05-1.86188E-18-2.76599E-18
 -1      2910 1.01575E-04-4.99828E-05-2.19163E-05-4.80697E-05-2.59690E-18-2.35613E-18
 -1      2911 9.52305E-05-2.85572E-05-2.85743E-05-2.70286E-09-1.68148E-18-1.19865E-18
 -1      2912 9.52301E-05-2.85570E-05-2.85742E-05-1.56195E-09 2.79123E-19-1.95453E-18
 -1      2913 9.52292E-05-2.85545E-05-2.85748E-05-3.68604E-09-9.02267E-19-1.06710E-18
 -1      2914 9.52384E-05-2.94146E-05-2.82177E-05-1.12529E-07 2.25660E-19 9.60106E-19
 -1      2915 9.51853E-05-2.92407E-05-2.82546E-05-3.74475E-07 2.52729E-19 8.92979E-19
 -1      2916 9.57102E-05-2.94387E-05-2.84078E-05-4.91781E-07 2.09331E-19 7.90764E-19
 -1      2917 9.59731E-05-2.99179E-05-2.83143E-05-5.26950E-09 1.11829E-19 8.20408E-19
 -1      2918 1.46619E-04-3.82967E-05-4.68843E-05 6.22433E-06 2.02017E-19 1.33302E-18
 -1      2919 1.45771E-04-2.98684E-05-5.03404E-05 9.17714E-06 5.99488E-19 9.23901E-19
 -1      2920 9.57055E-05-4.59063E-05-2.13575E-05 4.81280E-05-1.57527E-18 5.77041E-20
 -1      2921 7.84429E-05-3.59540E-05-1.74881E-05 4.82750E-05-2.26105E-18 1.22042E-18
 -1      2922 2.74080E-05-5.13883E-06-8.83559E-06-1.52745E-05 1.09161E-18-3.10183E-18
 -1      2923 3.33115E-05-9.87845E-06-9.52821E-06-2.93883E-05 8.19928E-19-2.93158E-18
 -1      2924 4.48555E-05-1.21327E-05-1.36370E-05-3.08282E-05 3.39766E-19-2.52363E-18
 -1      2925 1.32608E-04-4.79532E-06-5.54152E-05 3.96364E-06 3.52683E-18 1.82671E-18
 -1      2926 1.30126E-04-4.54483E-06-5.45408E-05-2.38225E-06 3.69518E-18 9.05769E-19
 -1      2927 9.51143E-05-2.70727E-05-2.91688E-05 9.69094E-07 1.02760E-18 1.35887E-18
 -1      2928 9.52925E-05-2.66288E-05-2.93961E-05 1.73434E-06 1.07133E-18 1.45438E-18
 -1      2929 9.54322E-05-2.70040E-05-2.93348E-05 9.12990E-07 1.09246E-18 9.22299E-19
 -1      2930 9.11375E-05-1.60525E-05-3.22067E-05 4.83432E-06 2.07335E-18-2.92445E-19
 -1      2931 9.07824E-05-1.55435E-05-3.22670E-05 3.91484E-06 1.86573E-18-6.66592E-19
 -1      2932 9.17505E-05-1.71462E-05-3.19585E-05 3.10714E-06 1.65532E-18-6.18427E-19
 -1      2933 9.24467E-05-1.82340E-05-3.17866E-05 4.52528E-06 1.88076E-18-5.36427E-21
 -1      2934 9.53752E-05-2.57017E-05-2.98375E-05-2.61802E-06-9.42916E-19-1.14327E-18
 -1      2935 9.52279E-05-2.62729E-05-2.95607E-05-1.55832E-06-8.34585E-19-1.04505E-18
 -1      2936 9.53648E-05-2.60181E-05-2.97262E-05-1.43704E-06-7.16664E-19-1.00124E-18
 -1      2937 9.52382E-05-2.85711E-05-2.85717E-05 1.67185E-09 5.79936E-19-1.62366E-18
 -1      2938 1.13035E-04-5.41376E-05-2.49435E-05-4.18203E-05-2.99214E-18-1.27021E-18
 -1      2939 1.22699E-04-5.69787E-05-2.83731E-05-3.40582E-05-3.44382E-18-4.59317E-19
 -1      2940 1.07802E-04-5.01705E-05-2.44622E-05-4.08281E-05-3.00178E-18-6.13675E-19
 -1      2941 9.11726E-05-1.62673E-05-3.20900E-05-2.55996E-08 1.19147E-18-1.21592E-18
 -1      2942 9.00594E-05-1.44850E-05-3.24081E-05-4.16346E-07 1.20120E-18-1.35830E-18
 -1      2943 9.01139E-05-1.45595E-05-3.24006E-05-1.35727E-06 1.01343E-18-1.58663E-18
 -1      2944 9.45097E-05-2.14078E-05-3.13239E-05 7.79409E-06 2.10123E-18 1.82085E-18
 -1      2945 3.08029E-05-3.09151E-06-1.10657E-05-5.66249E-06 1.42405E-18-3.11052E-18
 -1      2946 3.78473E-05-3.04218E-06-1.44202E-05-1.08511E-05 9.83670E-19-2.51209E-18
 -1      2947 3.62899E-05-1.39249E-06-1.42602E-05 5.17818E-06 1.53997E-18-3.05525E-18
 -1      2948 9.47797E-05-2.24210E-05-3.09752E-05 6.27185E-06 2.00329E-18 1.47669E-18
 -1      2949 9.02391E-05-1.47416E-05-3.23762E-05-2.17123E-06 8.34182E-19-1.51318E-18
 -1      2950 9.04301E-05-1.50061E-05-3.23470E-05-3.10256E-06 5.45501E-19-1.64741E-18
 -1      2951 9.16638E-05-1.69997E-05-3.19832E-05-3.10420E-06 4.29286E-19-1.54237E-18
 -1      2952 9.12795E-05-1.64248E-05-3.20675E-05-1.59592E-06 7.65610E-19-1.38586E-18
 -1      2953 5.24261E-05-3.11238E-06-2.04681E-05 2.46605E-06 5.04249E-19-2.08651E-18
 -1      2954 5.31024E-05-4.06936E-06-2.08269E-05 1.17906E-05 1.10935E-18-1.69137E-18
 -1      2955 5.84582E-05-1.33304E-05-1.89598E-05-2.93662E-05 3.34154E-19-1.09415E-18
 -1      2956 4.60313E-05-4.66583E-06-1.67085E-05-1.91284E-05 8.01505E-19 4.81009E-19
 -1      2957 4.64337E-05-4.51888E-06-1.75687E-05 1.33074E-05 1.90036E-18-2.11578E-18
 -1      2958 1.44270E-04-2.69268E-05-5.07126E-05-9.97275E-06 3.76421E-18-2.45131E-18
 -1      2959 1.41438E-04-3.29261E-05-4.68314E-05-9.43110E-06 3.09855E-18-2.45751E-18
 -1      2960 1.35070E-04-2.12199E-05-4.92027E-05-1.29124E-05 3.66977E-18-1.47124E-18
 -1      2961 9.23499E-05-1.80514E-05-3.18227E-05-4.48326E-06 2.24435E-21-1.75630E-18
 -1      2962 9.15041E-05-1.65685E-05-3.21380E-05-5.49692E-06 5.21331E-20-2.00819E-18
 -1      2963 9.20404E-05-1.73552E-05-3.20411E-05-6.30271E-06-2.61152E-19-1.93841E-18
 -1      2964 1.46969E-04-4.43988E-05-4.43091E-05 3.20099E-06 3.91753E-21 1.79677E-18
 -1      2965 1.40632E-04-3.86974E-05-4.39129E-05 9.03918E-06-6.51474E-19 3.12820E-18
 -1      2966 1.44129E-04-4.88694E-05-4.10719E-05-5.21619E-07-9.54818E-19 1.76172E-18
 -1      2967 1.37467E-04-2.41092E-05-4.88968E-05 1.22614E-05 9.53759E-19 1.75484E-18
 -1      2968 9.52387E-05-2.85707E-05-2.85720E-05 1.12374E-09 1.44241E-18-2.08027E-18
 -1      2969 1.28214E-04-8.81371E-06-5.16126E-05 6.80239E-06 2.85863E-18 2.52469E-18
 -1      2970 9.52396E-05-2.85700E-05-2.85727E-05-4.98612E-10 6.27955E-19-1.84235E-18
 -1      2971 7.14326E-05-2.85338E-05-1.79969E-05 4.31686E-05-2.73867E-18 9.59582E-19
 -1      2972 9.52286E-05-2.85543E-05-2.85746E-05-5.88189E-10 1.06236E-18-1.44667E-18
 -1      2973 9.52421E-05-2.59487E-05-2.96923E-05 2.77969E-06 1.35028E-18 1.49595E-18
 -1      2974 9.52799E-05-2.56101E-05-2.98323E-05 3.47441E-06 1.51829E-18 1.84333E-18
 -1      2975 9.52400E-05-2.85695E-05-2.85731E-05-1.62503E-09-7.97970E-19-9.83753E-19
 -1      2976 9.52404E-05-2.85680E-05-2.85739E-05-3.64897E-09-4.24416E-19-3.04096E-19
 -1      2977 3.91019E-05-8.57660E-06-1.24113E-05 2.66260E-05-2.03510E-18 1.70455E-18
 -1      2978 3.91297E-05-4.50755E-06-1.45026E-05 1.83233E-05-1.64449E-18 1.55176E-18
 -1      2979 5.02625E-05-1.18571E-05-1.61144E-05 3.02509E-05-2.41558E-18 1.26197E-18
 -1      2980 1.22008E-04-5.87170E-06-5.01042E-05-3.00438E-06 2.64348E-18 2.36828E-18
 -1      2981 1.29514E-04-7.19907E-06-5.30487E-05-6.04815E-06 3.58168E-18 6.22675E-19
 -1      2982 1.27595E-04-1.09861E-05-5.05298E-05-9.08930E-06 3.54240E-18 3.89370E-19
 -1      2983 9.38905E-05-2.03786E-05-3.14970E-05-7.13305E-06-8.54364E-19-1.61176E-18
 -1      2984 9.47990E-05-2.21743E-05-3.11455E-05-6.88389E-06-1.04956E-18-1.50544E-18
 -1      2985 9.49899E-05-2.33239E-05-3.07212E-05-5.52378E-06-1.06821E-18-1.40039E-18
 -1      2986 6.66261E-05-2.46521E-05-1.77569E-05-4.11380E-05-7.71594E-19-2.04601E-18
 -1      2987 7.48241E-05-3.27835E-05-1.73959E-05-4.62579E-05-1.13735E-18-2.47879E-18
 -1      2988 8.78367E-05-3.84806E-05-2.09140E-05-4.35866E-05-2.15517E-18-1.53498E-18
 -1      2989 1.41645E-04-5.89716E-05-3.53838E-05-2.15489E-05-2.58663E-18-7.90493E-19
 -1      2990 1.43026E-04-5.66130E-05-3.74092E-05-1.10181E-05-2.43621E-18 3.71318E-19
 -1      2991 1.35218E-04-5.90713E-05-3.24524E-05-2.49292E-05-3.36092E-18-6.55789E-19
 -1      2992 9.52913E-05-2.43142E-05-3.04075E-05-4.52977E-06-9.91661E-19-1.32674E-18
 -1      2993 9.52417E-05-2.50588E-05-3.00867E-05-3.41608E-06-9.79336E-19-1.29551E-18
 -1      2994 9.52253E-05-2.46862E-05-3.02281E-05-3.15116E-06-8.78852E-19-1.07034E-18
 -1      2995 9.48235E-05-2.29761E-05-3.07821E-05-4.96061E-06-8.40746E-19-1.27421E-18
 -1      2996 1.45709E-04-5.58225E-05-3.89972E-05 1.36972E-05 1.12911E-18-2.49494E-18
 -1      2997 1.38551E-04-5.91103E-05-3.39094E-05 2.45554E-05 5.25425E-20-1.76395E-18
 -1      2998 1.44746E-04-4.45809E-05-4.33955E-05-3.26984E-06 2.30229E-18-3.68396E-18
 -1      2999 1.47660E-04-5.14013E-05-4.13390E-05 4.93985E-06 1.68362E-18-3.39639E-18
 -1      3000 1.42420E-04-5.42395E-05-3.78368E-05 8.07196E-06 1.28853E-18-2.91972E-18
 -1      3001 1.11176E-04-5.28582E-05-2.45948E-05 4.22559E-05-1.55637E-18-4.52567E-19
 -1      3002 1.05519E-04-4.81285E-05-2.43000E-05 4.06081E-05-2.18429E-18-8.49296E-19
 -1      3003 9.53543E-05-2.57386E-05-2.98470E-05 2.59995E-06 1.29719E-18 1.14117E-18
 -1      3004 1.25491E-04-5.78578E-05-2.92236E-05 3.57681E-05-1.14604E-18-5.39216E-19
 -1      3005 9.42670E-05-2.18610E-05-3.10671E-05 4.91667E-06 1.96370E-18 7.10180E-19
 -1      3006 9.38079E-05-2.09187E-05-3.12435E-05 4.51510E-06 1.85668E-18 4.95334E-19
 -1      3007 9.54250E-05-2.53718E-05-2.99983E-05 4.60154E-06 1.66287E-18 2.35790E-18
 -1      3008 4.39662E-05-3.18929E-06-1.73146E-05-9.41342E-06 7.35383E-19-2.21774E-18
 -1      3009 4.31866E-05-5.10434E-06-1.54399E-05-1.81907E-05 5.61768E-19-2.19974E-18
 -1      3010 9.77497E-05-3.16711E-05-2.83302E-05 1.85595E-06 4.27847E-19 8.68232E-19
 -1      3011 9.75617E-05-3.14028E-05-2.83407E-05 1.26990E-06 6.37371E-19 1.28929E-18
 -1      3012 9.57609E-05-2.79305E-05-2.90772E-05-1.53301E-07 9.01639E-19 6.18801E-19
 -1      3013 9.57664E-05-2.75161E-05-2.92340E-05 2.30897E-07 1.04250E-18 6.54840E-19
 -1      3014 9.25317E-05-1.80836E-05-3.19157E-05-6.68735E-06-4.18702E-19-1.86469E-18
 -1      3015 9.33925E-05-1.95708E-05-3.16720E-05-6.92540E-06-6.17329E-19-1.74342E-18
 -1      3016 9.40227E-05-2.10441E-05-3.12770E-05-5.82297E-06-6.47591E-19-1.55926E-18
 -1      3017 9.32097E-05-1.94593E-05-3.15869E-05-5.42869E-06-3.49336E-19-1.64094E-18
 -1      3018 8.19500E-05-3.27020E-05-2.12017E-05 4.09246E-05-2.77329E-18 1.03947E-18
 -1      3019 6.50336E-05-2.08644E-05-1.84062E-05 3.70171E-05-2.78060E-18 9.42959E-19
 -1      3020 9.53212E-05-2.70325E-05-2.92595E-05 5.87559E-07-3.23640E-19-4.79317E-19
 -1      3021 9.51784E-05-2.71685E-05-2.91524E-05 1.02674E-06-2.33856E-19-6.77341E-19
 -1      3022 9.49614E-05-2.71921E-05-2.90426E-05 1.32975E-06-1.31330E-19-5.22152E-19
 -1      3023 9.47364E-05-2.71252E-05-2.89807E-05 1.66076E-06 8.55077E-20-3.50377E-19
 -1      3024 9.51849E-05-2.69830E-05-2.92256E-05 9.20095E-07-1.10858E-19-1.81694E-19
 -1      3025 9.43532E-05-2.69234E-05-2.89033E-05 1.85642E-06 8.76311E-20-4.32974E-19
 -1      3026 9.39891E-05-2.66395E-05-2.88705E-05 2.13732E-06-2.80946E-20-3.84560E-19
 -1      3027 9.46115E-05-2.68635E-05-2.90259E-05 1.41194E-06 3.15348E-20-3.08693E-19
 -1      3028 9.33721E-05-2.61840E-05-2.88068E-05 2.24729E-06-1.43274E-19-4.55597E-19
 -1      3029 9.27673E-05-2.56347E-05-2.87834E-05 2.51563E-06-1.98174E-19-5.06664E-19
 -1      3030 9.36527E-05-2.62465E-05-2.88707E-05 1.67734E-06-1.72640E-19-3.76995E-19
 -1      3031 9.17998E-05-2.48651E-05-2.87065E-05 2.52996E-06-2.03693E-19-5.54586E-19
 -1      3032 9.07908E-05-2.39704E-05-2.86620E-05 2.79281E-06-7.94689E-20-4.74942E-19
 -1      3033 9.21335E-05-2.50616E-05-2.87141E-05 1.70875E-06-2.94906E-19-3.33125E-19
 -1      3034 8.92970E-05-2.28000E-05-2.85281E-05 2.65294E-06-2.53956E-19-6.87614E-19
 -1      3035 8.76298E-05-2.14563E-05-2.84057E-05 2.86362E-06-3.29299E-19-8.23098E-19
 -1      3036 8.97778E-05-2.31943E-05-2.84850E-05 1.40450E-06-2.71577E-19-7.51987E-19
 -1      3037 8.54934E-05-1.98987E-05-2.81545E-05 2.46137E-06-3.50831E-19-9.17427E-19
 -1      3038 8.29722E-05-1.81181E-05-2.78754E-05 2.51041E-06-4.12075E-19-8.70150E-19
 -1      3039 8.63064E-05-2.06014E-05-2.80792E-05 5.50196E-07-5.30792E-19-1.21267E-18
 -1      3040 7.96907E-05-1.59852E-05-2.73530E-05 1.59563E-06-3.14340E-19-9.03921E-19
 -1      3041 7.55683E-05-1.35763E-05-2.66846E-05 1.24820E-06-9.91293E-20-1.22819E-18
 -1      3042 8.11690E-05-1.71902E-05-2.72952E-05-1.27089E-06-3.31963E-19-9.61995E-19
 -1      3043 7.08490E-05-1.11431E-05-2.56405E-05-4.88569E-07-2.56261E-20-1.54132E-18
 -1      3044 6.48503E-05-8.41425E-06-2.42786E-05-1.63808E-06 1.49501E-19-1.61640E-18
 -1      3045 7.35368E-05-1.30157E-05-2.57278E-05-4.81438E-06-1.89874E-19-1.11418E-18
 -1      3046 6.67457E-05-7.88979E-06-2.52357E-05-7.42056E-06 8.45782E-19-9.36077E-19
 -1      3047 7.21881E-05-1.05682E-05-2.64836E-05-6.57494E-06-3.05838E-19-1.62666E-18
 -1      3048 7.75649E-05-1.34995E-05-2.75137E-05-6.65820E-06-1.85859E-18-1.81476E-18
 -1      3049 8.11349E-05-1.59063E-05-2.80258E-05-5.68744E-06-1.60954E-18-3.20738E-18
 -1      3050 7.26161E-05-1.09168E-05-2.62124E-05-1.88942E-06-1.29022E-18-2.10470E-18
 -1      3051 8.46572E-05-1.82742E-05-2.84890E-05-5.48664E-06-9.65909E-19-3.96607E-18
 -1      3052 8.68430E-05-2.00909E-05-2.86609E-05-4.56378E-06-1.15398E-18-3.66249E-18
 -1      3053 8.11230E-05-1.60752E-05-2.77448E-05-2.72327E-06-1.97170E-18-3.46127E-18
 -1      3054 8.90820E-05-2.18094E-05-2.88495E-05-4.22563E-06-7.63918E-19-2.47855E-18
 -1      3055 9.03620E-05-2.30725E-05-2.88752E-05-3.45102E-06 5.62915E-19-2.33815E-18
 -1      3056 8.66245E-05-2.00974E-05-2.84323E-05-2.70687E-06-2.50045E-19-4.11114E-18
 -1      3057 9.17490E-05-2.42458E-05-2.89353E-05-3.09854E-06 6.59146E-19-2.41275E-18
 -1      3058 9.24735E-05-2.50834E-05-2.89060E-05-2.50075E-06 4.18795E-19-2.75990E-18
 -1      3059 9.00965E-05-2.30010E-05-2.87078E-05-2.30811E-06 3.89124E-19-2.40044E-18
 -1      3060 9.32828E-05-2.58237E-05-2.89106E-05-2.21116E-06 1.42168E-19-2.20613E-18
 -1      3061 9.36677E-05-2.63444E-05-2.88691E-05-1.79029E-06-9.58722E-20-2.88856E-18
 -1      3062 9.21939E-05-2.49497E-05-2.87902E-05-1.82207E-06-3.88022E-20-2.63998E-18
 -1      3063 9.41787E-05-2.68508E-05-2.88524E-05-1.54410E-06-4.01916E-19-2.19800E-18
 -1      3064 9.43983E-05-2.71995E-05-2.88102E-05-1.23277E-06-1.14919E-18-1.52540E-18
 -1      3065 9.34713E-05-2.62542E-05-2.87904E-05-1.36652E-06 1.93853E-19-2.23941E-18
 -1      3066 9.46968E-05-2.75189E-05-2.87878E-05-1.05005E-06-2.25722E-18-7.39172E-19
 -1      3067 9.48091E-05-2.77348E-05-2.87528E-05-8.37015E-07-2.44313E-18-1.88323E-18
 -1      3068 9.42520E-05-2.71243E-05-2.87592E-05-9.84427E-07-1.30378E-18-3.49339E-19
 -1      3069 9.49794E-05-2.79330E-05-2.87317E-05-7.05896E-07-1.25995E-18-1.57987E-18
 -1      3070 9.50335E-05-2.80654E-05-2.87048E-05-5.62826E-07 3.36511E-20-1.00570E-18
 -1      3071 9.47045E-05-2.76773E-05-2.87205E-05-6.93664E-07-1.35298E-18-8.31235E-19
 -1      3072 9.51285E-05-2.81869E-05-2.86873E-05-4.71028E-07 3.26603E-19-1.33230E-18
 -1      3073 9.51520E-05-2.82673E-05-2.86674E-05-3.76090E-07 2.00539E-18-1.48699E-18
 -1      3074 9.49610E-05-2.80233E-05-2.86846E-05-4.81570E-07-3.70798E-19-1.09247E-18
 -1      3075 9.52033E-05-2.83411E-05-2.86538E-05-3.12813E-07 1.57708E-18-2.40688E-18
 -1      3076 9.52114E-05-2.83894E-05-2.86395E-05-2.50253E-07 6.85787E-19-2.31655E-18
 -1      3077 9.51028E-05-2.82374E-05-2.86551E-05-3.30988E-07 8.57642E-19-1.44810E-18
 -1      3078 9.52380E-05-2.84338E-05-2.86293E-05-2.07027E-07 5.83511E-19-1.92263E-18
 -1      3079 9.52387E-05-2.84627E-05-2.86192E-05-1.65924E-07 6.54985E-19-1.89804E-18
 -1      3080 9.51785E-05-2.83685E-05-2.86321E-05-2.25857E-07 9.50359E-19-1.06377E-18
 -1      3081 9.52518E-05-2.84892E-05-2.86117E-05-1.36522E-07 1.42110E-18-1.76091E-18
 -1      3082 9.52495E-05-2.85063E-05-2.86047E-05-1.09538E-07 6.72163E-19-1.44427E-18
 -1      3083 9.52172E-05-2.84483E-05-2.86149E-05-1.53162E-07 5.73064E-19-9.43209E-19
 -1      3084 9.52550E-05-2.85214E-05-2.85996E-05-9.04906E-08-5.09717E-19-1.00889E-18
 -1      3085 9.52519E-05-2.85312E-05-2.85949E-05-7.33088E-08 3.40791E-19-3.22806E-19
 -1      3086 9.52352E-05-2.84958E-05-2.86025E-05-1.04052E-07 5.29772E-19-3.48672E-19
 -1      3087 9.52540E-05-2.85408E-05-2.85910E-05-5.93655E-08 9.09101E-19-6.33250E-19
 -1      3088 9.52508E-05-2.85470E-05-2.85875E-05-4.73444E-08 2.13822E-19-2.36286E-19
 -1      3089 9.52428E-05-2.85244E-05-2.85936E-05-7.01657E-08 2.98240E-19-7.43435E-19
 -1      3090 9.52510E-05-2.85527E-05-2.85847E-05-3.78676E-08-3.02334E-19-4.28003E-19
 -1      3091 9.52483E-05-2.85563E-05-2.85824E-05-2.98644E-08 9.95931E-19 2.56210E-19
 -1      3092 9.52451E-05-2.85424E-05-2.85869E-05-4.60577E-08-1.94186E-19-8.45636E-19
 -1      3093 9.52477E-05-2.85597E-05-2.85804E-05-2.33904E-08 1.93427E-18 1.49763E-19
 -1      3094 9.52456E-05-2.85619E-05-2.85788E-05-1.80587E-08 2.22614E-18 3.14474E-19
 -1      3095 9.52448E-05-2.85533E-05-2.85821E-05-2.94765E-08 1.66064E-18-5.20304E-19
 -1      3096 9.52447E-05-2.85639E-05-2.85773E-05-1.36334E-08 9.19723E-19 8.44407E-19
 -1      3097 9.52431E-05-2.85653E-05-2.85762E-05-1.01257E-08 2.76281E-19 5.03017E-19
 -1      3098 9.52435E-05-2.85599E-05-2.85787E-05-1.81020E-08 2.05382E-18-1.11702E-19
 -1      3099 9.52423E-05-2.85662E-05-2.85754E-05-7.69930E-09 2.81526E-19 3.19260E-19
 -1      3100 9.52412E-05-2.85672E-05-2.85745E-05-5.37259E-09 2.85835E-19-5.87608E-19
 -1      3101 9.52404E-05-2.85660E-05-2.85748E-05-6.44382E-09 3.30648E-19 6.99768E-19
 -1      3102 9.52418E-05-2.85637E-05-2.85764E-05-1.08795E-08 7.18047E-19 1.91990E-19
 -1      3103 9.83323E-05-3.21633E-05-2.83709E-05 3.24131E-06 6.44521E-19 1.81775E-19
 -1      3104 9.81918E-05-3.19913E-05-2.83593E-05 2.52557E-06 5.57439E-19 6.18630E-19
 -1      3105 9.90229E-05-3.25520E-05-2.84955E-05 1.91143E-06 7.40998E-19 6.70323E-19
 -1      3106 9.71672E-05-3.10480E-05-2.83449E-05 7.73173E-07 4.25621E-19 1.29747E-18
 -1      3107 9.69826E-05-3.07532E-05-2.83717E-05 3.32549E-07 2.89539E-19 9.65565E-19
 -1      3108 9.81771E-05-3.17878E-05-2.84624E-05 7.77429E-07 5.06316E-19 1.01365E-18
 -1      3109 9.87632E-05-3.23250E-05-2.84859E-05 4.86361E-06 4.42718E-19 2.21386E-19
 -1      3110 9.87443E-05-3.23553E-05-2.84439E-05 4.07124E-06 5.19389E-19 2.69634E-19
 -1      3111 9.98935E-05-3.31360E-05-2.86135E-05 3.39546E-06 5.25838E-19 2.34998E-19
 -1      3112 9.88355E-05-3.19015E-05-2.86934E-05 6.54153E-06 5.94390E-20 6.12579E-19
 -1      3113 9.90220E-05-3.22563E-05-2.86136E-05 5.78499E-06 1.71608E-19 5.86960E-19
 -1      3114 1.00588E-04-3.32812E-05-2.88406E-05 5.16333E-06 2.67544E-20 4.62854E-19
 -1      3115 9.83426E-05-3.06660E-05-2.90003E-05 7.93301E-06 3.19301E-19 8.77342E-19
 -1      3116 9.87948E-05-3.14339E-05-2.88814E-05 7.39528E-06 1.47339E-19 6.33115E-19
 -1      3117 1.00830E-04-3.26716E-05-2.91957E-05 7.00081E-06-2.02339E-21 8.29821E-19
 -1      3118 9.71897E-05-2.85673E-05-2.93896E-05 8.54728E-06 8.76148E-19 9.40161E-19
 -1      3119 9.78951E-05-2.97274E-05-2.92408E-05 8.45914E-06 7.05176E-19 1.07603E-18
 -1      3120 1.00354E-04-3.10546E-05-2.96771E-05 8.48686E-06 2.39084E-19 1.03264E-18
 -1      3121 9.55285E-05-2.58908E-05-2.98104E-05 7.87261E-06 1.66021E-20 1.46647E-18
 -1      3122 9.63605E-05-2.72458E-05-2.96552E-05 8.43650E-06 4.10483E-19 1.37890E-18
 -1      3123 9.90628E-05-2.84354E-05-3.02466E-05 9.02072E-06 4.16852E-19 1.34747E-18
 -1      3124 9.38166E-05-2.33085E-05-3.01806E-05 5.62780E-06-1.05049E-19 1.30490E-18
 -1      3125 9.45433E-05-2.44917E-05-3.00535E-05 6.90084E-06-1.09300E-19 1.51065E-18
 -1      3126 9.72042E-05-2.52668E-05-3.08208E-05 8.00770E-06-2.47418E-20 1.80855E-18
 -1      3127 9.26929E-05-2.16868E-05-3.04076E-05 2.03384E-06-1.70009E-19 1.54331E-18
 -1      3128 9.30611E-05-2.22926E-05-3.03434E-05 3.83152E-06 1.26962E-20 1.33092E-18
 -1      3129 9.54071E-05-2.24448E-05-3.12800E-05 5.20084E-06-1.58884E-19 1.55215E-18
 -1      3130 9.26494E-05-2.16545E-05-3.04275E-05-2.12227E-06-2.52460E-19 1.25934E-18
 -1      3131 9.25187E-05-2.14540E-05-3.04448E-05-2.04050E-07 1.24206E-19 1.32313E-18
 -1      3132 9.44446E-05-2.09857E-05-3.15063E-05 1.01982E-06 5.62483E-23 1.69014E-18
 -1      3133 9.37180E-05-2.32180E-05-3.02379E-05-5.79307E-06 1.98569E-20 3.05006E-20
 -1      3134 9.31383E-05-2.22959E-05-3.03297E-05-4.20928E-06-1.88983E-19 9.93291E-19
 -1      3135 9.47705E-05-2.14638E-05-3.14357E-05-3.47774E-06 1.72790E-19 1.00695E-18
 -1      3136 9.54404E-05-2.57616E-05-2.98964E-05-8.16492E-06 1.04622E-18 1.27225E-19
 -1      3137 9.46260E-05-2.44600E-05-3.00345E-05-7.21753E-06 3.77801E-19-1.29078E-19
 -1      3138 9.62178E-05-2.36690E-05-3.10933E-05-7.08490E-06 7.81091E-19 2.03954E-19
 -1      3139 9.71701E-05-2.84244E-05-2.94925E-05-8.97128E-06 9.40202E-19 8.84425E-19
 -1      3140 9.63741E-05-2.71484E-05-2.96406E-05-8.71921E-06 1.06368E-18 8.19287E-19
 -1      3141 9.81117E-05-2.67357E-05-3.05718E-05-9.04432E-06 5.63720E-19 9.26794E-19
 -1      3142 9.83977E-05-3.05100E-05-2.91125E-05-8.46524E-06 2.75847E-19 1.21448E-18
 -1      3143 9.78062E-05-2.95530E-05-2.92401E-05-8.76358E-06 9.81149E-19 1.21406E-18
 -1      3144 9.97115E-05-2.96595E-05-2.99963E-05-9.28773E-06 5.98997E-19 1.54375E-18
 -1      3145 9.89339E-05-3.17209E-05-2.88105E-05-7.16810E-06 2.43722E-19 7.62672E-19
 -1      3146 9.86137E-05-3.11840E-05-2.89018E-05-7.78690E-06 4.14987E-20 8.22812E-19
 -1      3147 1.00564E-04-3.17467E-05-2.94736E-05-8.28190E-06 3.50414E-19 1.63526E-18
 -1      3148 9.88682E-05-3.21142E-05-2.86032E-05-5.58438E-06 4.04900E-19 1.54723E-18
 -1      3149 9.87871E-05-3.19495E-05-2.86563E-05-6.31430E-06 5.41769E-19 9.72542E-19
 -1      3150 1.00613E-04-3.27795E-05-2.90612E-05-6.66453E-06 5.22312E-20 1.40298E-18
 -1      3151 9.84111E-05-3.19222E-05-2.84839E-05-4.06279E-06 4.40761E-20 1.71084E-19
 -1      3152 9.84928E-05-3.20147E-05-2.85047E-05-4.76011E-06 3.85972E-19 8.46507E-19
 -1      3153 1.00068E-04-3.29261E-05-2.87738E-05-4.94644E-06 8.49461E-19 1.29992E-18
 -1      3154 9.77811E-05-3.14092E-05-2.84321E-05-2.78441E-06-5.25795E-19-9.01570E-19
 -1      3155 9.79455E-05-3.16381E-05-2.84304E-05-3.37418E-06-2.90598E-19-4.77594E-19
 -1      3156 9.92080E-05-3.24907E-05-2.85980E-05-3.43169E-06 6.68290E-19 1.99129E-19
 -1      3157 9.71401E-05-3.07875E-05-2.84247E-05-1.80250E-06-7.88719E-19-4.24567E-19
 -1      3158 9.73258E-05-3.10595E-05-2.84102E-05-2.26138E-06-6.43185E-19-6.99659E-19
 -1      3159 9.82764E-05-3.17778E-05-2.85072E-05-2.24048E-06-5.07728E-19-7.85795E-20
 -1      3160 9.65798E-05-3.01922E-05-2.84418E-05-1.09716E-06-4.87748E-19-6.44674E-19
 -1      3161 9.67503E-05-3.04496E-05-2.84221E-05-1.43207E-06-1.39356E-19-3.24813E-19
 -1      3162 9.74278E-05-3.10096E-05-2.84730E-05-1.37555E-06-5.61660E-19 5.72785E-20
 -1      3163 9.61360E-05-2.96900E-05-2.84692E-05-6.18119E-07 5.36232E-19-1.05272E-18
 -1      3164 9.62748E-05-2.99053E-05-2.84493E-05-8.49516E-07-4.66188E-19-7.42940E-19
 -1      3165 9.67339E-05-3.03157E-05-2.84721E-05-7.85065E-07-2.83077E-19-3.88790E-19
 -1      3166 9.58093E-05-2.93016E-05-2.84979E-05-3.09600E-07 7.47389E-19-4.44470E-19
 -1      3167 9.59133E-05-2.94668E-05-2.84804E-05-4.61352E-07 1.15912E-18-8.01794E-19
 -1      3168 9.62091E-05-2.97517E-05-2.84874E-05-4.03333E-07 6.02859E-19-9.88076E-19
 -1      3169 9.55827E-05-2.90205E-05-2.85230E-05-1.21920E-07 4.57417E-19-2.93531E-19
 -1      3170 9.56558E-05-2.91392E-05-2.85092E-05-2.16054E-07 5.09081E-19-2.19622E-19
 -1      3171 9.58363E-05-2.93269E-05-2.85081E-05-1.69791E-07 1.63919E-19-4.76286E-19
 -1      3172 9.54338E-05-2.88285E-05-2.85428E-05-1.56110E-08 1.92467E-18-1.79282E-19
 -1      3173 9.54824E-05-2.89091E-05-2.85327E-05-7.01623E-08 1.22330E-18-4.47998E-20
 -1      3174 9.55856E-05-2.90261E-05-2.85283E-05-3.59128E-08 9.29655E-19-9.11154E-19
 -1      3175 9.53409E-05-2.87043E-05-2.85571E-05 3.84556E-08 1.45286E-18-5.90499E-19
 -1      3176 9.53717E-05-2.87560E-05-2.85503E-05 9.80744E-09 1.92161E-18 1.03350E-20
 -1      3177 9.54255E-05-2.88244E-05-2.85451E-05 3.40024E-08 2.01307E-18-2.26621E-19
 -1      3178 9.52860E-05-2.86286E-05-2.85667E-05 6.06633E-08 1.79297E-18-8.72773E-19
 -1      3179 9.53045E-05-2.86598E-05-2.85624E-05 4.81107E-08 2.16228E-18-6.12698E-19
 -1      3180 9.53285E-05-2.86963E-05-2.85578E-05 6.47568E-08 1.38955E-18-4.18444E-19
 -1      3181 9.52555E-05-2.85854E-05-2.85725E-05 6.46533E-08 2.98578E-19-5.90447E-19
 -1      3182 9.52661E-05-2.86030E-05-2.85700E-05 6.14921E-08 9.74337E-19-7.00192E-19
 -1      3183 9.52733E-05-2.86196E-05-2.85665E-05 7.28459E-08 1.44748E-18 9.56961E-20
 -1      3184 9.52400E-05-2.85632E-05-2.85756E-05 5.91757E-08 1.62035E-19-1.39677E-18
 -1      3185 9.52457E-05-2.85721E-05-2.85744E-05 6.10247E-08-4.87752E-20-8.79793E-19
 -1      3186 9.52443E-05-2.85772E-05-2.85720E-05 6.88259E-08 1.54382E-19-6.85308E-19
 -1      3187 9.52331E-05-2.85537E-05-2.85769E-05 4.95907E-08-7.87238E-20-6.69315E-19
 -1      3188 9.52360E-05-2.85573E-05-2.85765E-05 5.37202E-08 1.08441E-19-1.18777E-18
 -1      3189 9.52309E-05-2.85563E-05-2.85750E-05 5.91893E-08-2.00616E-19-2.00771E-18
 -1      3190 9.52309E-05-2.85513E-05-2.85770E-05 3.90007E-08 7.29204E-19 9.75020E-19
 -1      3191 9.52322E-05-2.85520E-05-2.85771E-05 4.38038E-08 5.98768E-19 6.69761E-19
 -1      3192 9.52261E-05-2.85481E-05-2.85764E-05 4.77435E-08-8.90113E-19 2.60109E-19
 -1      3193 9.52310E-05-2.85526E-05-2.85765E-05 2.90673E-08 2.44316E-19 1.96804E-18
 -1      3194 9.52315E-05-2.85519E-05-2.85769E-05 3.36675E-08 7.82733E-19 1.59897E-18
 -1      3195 9.52258E-05-2.85471E-05-2.85766E-05 3.65802E-08-2.59404E-19 2.27088E-18
 -1      3196 9.52321E-05-2.85556E-05-2.85757E-05 2.05372E-08 1.44623E-18 6.83305E-19
 -1      3197 9.52321E-05-2.85542E-05-2.85762E-05 2.45228E-08 1.69403E-18 1.47585E-18
 -1      3198 9.52274E-05-2.85495E-05-2.85762E-05 2.67312E-08 1.00150E-18 1.07239E-18
 -1      3199 9.52334E-05-2.85589E-05-2.85748E-05 1.37409E-08 9.40262E-19-6.84290E-20
 -1      3200 9.52332E-05-2.85574E-05-2.85753E-05 1.68976E-08 1.04492E-18 4.79242E-19
 -1      3201 9.52297E-05-2.85534E-05-2.85755E-05 1.85629E-08 2.03235E-18 8.76840E-19
 -1      3202 9.52343E-05-2.85616E-05-2.85740E-05 9.12647E-09-1.37928E-20 4.27315E-19
 -1      3203 9.52342E-05-2.85603E-05-2.85745E-05 1.15115E-08 2.80764E-19 5.01409E-19
 -1      3204 9.52316E-05-2.85570E-05-2.85748E-05 1.28228E-08 3.32163E-19 5.68893E-19
 -1      3205 9.52332E-05-2.85603E-05-2.85741E-05 8.94269E-09 1.03580E-18-1.62653E-19
 -1      3206 9.52331E-05-2.85563E-05-2.85757E-05-9.24713E-09-1.16644E-18 3.67146E-18
 -1      3207 9.52314E-05-2.85548E-05-2.85758E-05-8.78337E-09-7.52288E-19 2.70291E-18
 -1      3208 1.30821E-04-5.75263E-05-3.11964E-05 2.58336E-05-1.05000E-18-1.46579E-18
 -1      3209 5.07965E-05-3.00379E-06-2.03144E-05-8.39317E-06 8.04279E-19 4.43528E-19
 -1      3210 5.88607E-05-4.88851E-06-2.31223E-05-7.47915E-06 8.49627E-19 2.92015E-19
 -1      3211 9.52367E-05-2.85604E-05-2.85756E-05-9.15574E-09-1.60873E-18 2.10024E-18
 -1      3212 9.52351E-05-2.85586E-05-2.85757E-05-9.50819E-09-1.73067E-18 3.22916E-18
 -1      3213 9.52332E-05-2.85546E-05-2.85765E-05-1.11674E-08-1.98461E-18 3.18487E-18
 -1      3214 9.52298E-05-2.85532E-05-2.85757E-05-7.63824E-09-9.56962E-19 2.00789E-18
 -1      3215 9.52285E-05-2.85522E-05-2.85756E-05-6.52030E-09-1.05304E-18 1.32358E-18
 -1      3216 9.52291E-05-2.85506E-05-2.85764E-05-9.48343E-09-1.09948E-19 2.60526E-18
 -1      3217 9.52394E-05-2.85641E-05-2.85751E-05-7.57879E-09 3.45321E-19 1.75026E-18
 -1      3218 9.52382E-05-2.85624E-05-2.85754E-05-8.61731E-09-8.81266E-19 1.73986E-18
 -1      3219 9.52371E-05-2.85589E-05-2.85763E-05-1.10677E-08-1.32562E-18 2.70642E-18
 -1      3220 9.52401E-05-2.85629E-05-2.85759E-05-9.55667E-09 5.66432E-19 2.44103E-18
 -1      3221 5.49997E-05-4.96289E-06-2.12611E-05-4.37091E-06 3.75514E-19-1.98068E-18
 -1      3222 4.70185E-05-1.53737E-05-1.29616E-05-2.84695E-05 3.63589E-19-1.36245E-18
 -1      3223 7.01885E-05-2.57798E-05-1.84247E-05-3.68858E-05 2.19223E-18-2.17815E-18
 -1      3224 9.54757E-05-2.64123E-05-2.95868E-05-4.86050E-07-5.19273E-19-6.25724E-19
 -1      3225 9.53974E-05-2.67749E-05-2.94178E-05 1.35251E-07-3.69550E-19-5.60994E-19
 -1      3226 9.54611E-05-2.66129E-05-2.95050E-05 1.50207E-07-3.47946E-19-2.14743E-19
 -1      3227 1.25527E-04-1.25964E-05-4.88095E-05 1.07332E-05 2.63724E-18 2.18823E-18
 -1      3228 1.20497E-04-7.48329E-06-4.88758E-05 5.44374E-06 2.93063E-18 2.39027E-18
 -1      3229 9.56473E-05-2.69887E-05-2.94365E-05 7.17659E-07 1.14084E-18 6.22211E-19
 -1      3230 9.56497E-05-2.63965E-05-2.96569E-05 1.36883E-06 1.05871E-18 6.71578E-19
 -1      3231 9.58931E-05-2.69888E-05-2.95350E-05 5.96287E-07 1.03737E-18 4.02381E-19
 -1      3232 9.52274E-05-2.85513E-05-2.85755E-05-4.70126E-09-5.50065E-19-1.50877E-18
 -1      3233 9.52266E-05-2.85509E-05-2.85753E-05-3.12178E-09 4.55581E-19-3.05825E-18
 -1      3234 9.52260E-05-2.85482E-05-2.85761E-05-6.20278E-09 2.68793E-19-8.19884E-19
 -1      3235 9.53447E-05-2.45943E-05-3.03497E-05 4.88948E-06 1.81134E-18 1.70515E-18
 -1      3236 9.53803E-05-2.54962E-05-2.99630E-05 2.26318E-06 1.22112E-18 7.08999E-19
 -1      3237 9.52681E-05-2.45977E-05-3.02809E-05 3.38968E-06 1.48543E-18 8.35263E-19
 -1      3238 9.52263E-05-2.85510E-05-2.85752E-05-9.85978E-10 4.41464E-20-2.97073E-18
 -1      3239 9.52263E-05-2.85513E-05-2.85750E-05 7.44341E-10 9.49413E-19-4.60296E-19
 -1      3240 9.52244E-05-2.85475E-05-2.85758E-05-1.92795E-09 5.08717E-19-3.30503E-18
 -1      3241 9.22830E-05-1.82543E-05-3.17410E-05 1.70521E-06 1.51795E-18-7.91038E-19
 -1      3242 9.21462E-05-1.80347E-05-3.17745E-05 9.59499E-07 1.29859E-18-1.02263E-18
 -1      3243 5.08956E-05-1.12985E-05-1.65495E-05-2.70150E-05 9.27369E-20-1.98799E-18
 -1      3244 1.32740E-04-2.76130E-05-4.53761E-05 1.28037E-05 2.25417E-19 2.55402E-18
 -1      3245 1.29014E-04-1.90385E-05-4.76538E-05 1.26550E-05 1.66378E-18 2.72625E-18
 -1      3246 1.22390E-04-1.71122E-05-4.53779E-05 1.15905E-05 1.68125E-18 1.91686E-18
 -1      3247 1.10796E-04-4.92772E-05-2.66364E-05 3.41569E-05-1.87920E-18-6.42977E-19
 -1      3248 9.89876E-05-4.18148E-05-2.39723E-05 3.77771E-05-3.04328E-18-2.70058E-19
 -1      3249 9.53689E-05-2.52014E-05-3.00614E-05-2.02099E-06-6.29508E-19-8.51905E-19
 -1      3250 9.53922E-05-2.58630E-05-2.98091E-05-1.13527E-06-5.91526E-19-8.38183E-19
 -1      3251 9.54501E-05-2.56929E-05-2.98949E-05-9.78834E-07-4.95150E-19-6.77592E-19
 -1      3252 9.47821E-05-2.29951E-05-3.07539E-05 5.00134E-06 1.89439E-18 9.90390E-19
 -1      3253 1.34558E-04-5.68832E-05-3.35615E-05 1.62355E-05-1.46629E-19-1.84150E-18
 -1      3254 1.24398E-04-5.45888E-05-2.97176E-05 2.53606E-05-1.14911E-18-1.26332E-18
 -1      3255 9.20671E-05-1.79052E-05-3.17956E-05 3.25014E-07 1.19634E-18-9.56734E-19
 -1      3256 9.20501E-05-1.78854E-05-3.17987E-05-4.27549E-07 9.92951E-19-1.02505E-18
 -1      3257 9.30167E-05-1.94939E-05-3.14929E-05 5.14331E-07 1.15554E-18-8.21520E-19
 -1      3258 6.01226E-05-5.37638E-06-2.30391E-05-2.98195E-07 1.09267E-19-9.09766E-19
 -1      3259 1.15726E-04-9.48361E-06-4.57569E-05 4.76917E-06 2.98711E-18 1.96287E-18
 -1      3260 1.18027E-04-6.99807E-06-4.80632E-05 1.34511E-06 2.96763E-18 2.37078E-18
 -1      3261 9.83935E-05-4.39660E-05-2.29063E-05-4.18878E-05-2.42431E-18-7.69476E-19
 -1      3262 1.07627E-04-4.82051E-05-2.53620E-05-3.65135E-05-2.75765E-18-2.98235E-19
 -1      3263 8.90233E-05-3.73197E-05-2.21221E-05-4.02789E-05-1.69057E-18-7.32260E-19
 -1      3264 9.52308E-05-2.85573E-05-2.85743E-05 7.64756E-09 8.30424E-19-1.58408E-19
 -1      3265 9.52318E-05-2.85586E-05-2.85742E-05 8.24303E-09 9.65155E-19-3.24703E-19
 -1      3266 9.52309E-05-2.85570E-05-2.85746E-05 9.92219E-09 4.25579E-19 1.92098E-19
 -1      3267 9.60347E-05-2.92393E-05-2.86306E-05-6.91649E-07 4.80023E-19 5.91507E-19
 -1      3268 9.59714E-05-2.89571E-05-2.87092E-05-6.94169E-07 6.49571E-19 7.47104E-19
 -1      3269 1.34335E-04-3.28559E-05-4.37485E-05-1.18620E-05 2.40467E-18-1.99593E-18
 -1      3270 1.41209E-04-3.94755E-05-4.39311E-05-7.95477E-06 2.29048E-18-2.98240E-18
 -1      3271 1.38479E-04-4.40292E-05-4.05632E-05-5.22248E-06 1.61545E-18-2.88748E-18
 -1      3272 4.00513E-05-2.29424E-06-1.57343E-05-5.08666E-06 1.42196E-19 1.61572E-18
 -1      3273 5.99401E-05-7.98462E-06-2.18637E-05-1.12201E-05 1.29570E-19-1.64076E-18
 -1      3274 1.28298E-04-1.55635E-05-4.88020E-05-1.17159E-05 3.57882E-18-2.99823E-19
 -1      3275 1.27964E-04-2.08146E-05-4.62540E-05-1.24781E-05 2.98939E-18-5.89085E-19
 -1      3276 1.21155E-04-1.12068E-05-4.73507E-05-9.48199E-06 2.75307E-18 1.63771E-18
 -1      3277 9.29063E-05-1.93039E-05-3.15532E-05-3.53025E-06 6.97651E-20-1.47520E-18
 -1      3278 9.32834E-05-1.99440E-05-3.14475E-05-4.10814E-06-1.97819E-19-1.46284E-18
 -1      3279 1.42681E-04-5.27728E-05-3.86635E-05-3.98976E-06-2.04386E-18 1.62694E-18
 -1      3280 1.39043E-04-4.76703E-05-3.93328E-05 2.94582E-06-1.73856E-18 2.74852E-18
 -1      3281 1.38338E-04-5.44984E-05-3.60024E-05-8.19301E-06-3.04707E-18 1.43268E-18
 -1      3282 9.51578E-05-2.45310E-05-3.02773E-05-2.63600E-06-6.86291E-19-1.02292E-18
 -1      3283 9.51474E-05-2.43352E-05-3.03411E-05-2.29110E-06-5.04362E-19-8.59751E-19
 -1      3284 9.50326E-05-2.38046E-05-3.05219E-05-3.45200E-06-6.68503E-19-1.09130E-18
 -1      3285 1.34580E-04-3.79068E-05-4.16743E-05 9.64852E-06-1.08674E-18 2.94347E-18
 -1      3286 1.34404E-04-3.30281E-05-4.38225E-05 1.18747E-05-6.82814E-19 2.58906E-18
 -1      3287 1.27398E-04-2.76293E-05-4.29097E-05 1.34570E-05-2.57022E-20 2.81503E-18
 -1      3288 1.17923E-04-5.01095E-05-2.89190E-05 2.46497E-05-1.41870E-18-7.98964E-19
 -1      3289 9.58704E-05-2.86402E-05-2.88178E-05-5.95625E-07 7.95143E-19 6.60044E-19
 -1      3290 9.58478E-05-2.83182E-05-2.89282E-05-4.25467E-07 8.77416E-19 6.43165E-19
 -1      3291 9.61058E-05-2.80453E-05-2.91749E-05-2.05842E-07 9.19695E-19 3.97959E-19
 -1      3292 9.62976E-05-2.88603E-05-2.89090E-05-6.17633E-07 7.11753E-19 6.71076E-19
 -1      3293 1.36536E-04-5.43884E-05-3.51966E-05 9.04866E-06 4.16290E-19-2.31330E-18
 -1      3294 1.30848E-04-5.30621E-05-3.33339E-05 9.94808E-06 1.45385E-19-1.57077E-18
 -1      3295 1.36775E-04-5.10458E-05-3.71655E-05 2.03241E-06 1.07273E-18-2.42813E-18
 -1      3296 9.50339E-05-2.37829E-05-3.05145E-05 3.85893E-06 1.64408E-18 9.09018E-19
 -1      3297 4.91929E-05-4.67877E-06-1.87358E-05 1.16062E-05-1.20142E-18 4.62427E-19
 -1      3298 4.20754E-05-1.73872E-06-1.64920E-05 5.58759E-06-3.65488E-19 1.51937E-18
 -1      3299 9.62940E-05-2.98136E-05-2.84959E-05-4.88975E-07-4.07319E-20 8.56967E-19
 -1      3300 9.61849E-05-2.95370E-05-2.85527E-05-6.41752E-07 1.86455E-19 6.04820E-19
 -1      3301 9.65519E-05-2.95685E-05-2.87155E-05-7.05136E-07 3.34087E-19 7.64462E-19
 -1      3302 9.52267E-05-2.85522E-05-2.85749E-05 2.85189E-09 5.61036E-19-7.57417E-19
 -1      3303 9.52274E-05-2.85530E-05-2.85747E-05 4.41901E-09 1.84799E-19 6.00251E-19
 -1      3304 9.52245E-05-2.85485E-05-2.85754E-05 2.54653E-09 5.16266E-19-3.60714E-19
 -1      3305 9.52294E-05-2.85559E-05-2.85744E-05 6.61623E-09 1.10115E-18 9.31975E-19
 -1      3306 1.22988E-04-5.49852E-05-2.90245E-05-2.82013E-05-3.15917E-18-5.87120E-19
 -1      3307 1.29429E-04-5.79966E-05-3.05154E-05-2.67530E-05-3.42609E-18-6.14205E-19
 -1      3308 1.32945E-04-5.70761E-05-3.27129E-05-1.78869E-05-3.54620E-18 3.42969E-19
 -1      3309 9.27324E-05-1.90032E-05-3.16158E-05 3.01658E-06 1.67310E-18-4.94568E-19
 -1      3310 9.24791E-05-1.85765E-05-3.16837E-05 2.31325E-06 1.58945E-18-6.76586E-19
 -1      3311 9.32776E-05-1.99425E-05-3.14126E-05 1.67062E-06 1.45502E-18-6.10045E-19
 -1      3312 1.16678E-04-7.78120E-06-4.69813E-05-2.56721E-06 2.46132E-18 2.17234E-18
 -1      3313 9.07007E-05-3.49751E-05-2.37528E-05 3.47838E-05-2.89685E-18 2.51304E-19
 -1      3314 9.55086E-05-2.54070E-05-3.00488E-05 2.00800E-06 1.25977E-18 4.57001E-19
 -1      3315 9.43179E-05-2.19837E-05-3.09876E-05 3.51533E-06 1.65516E-18 4.54588E-19
 -1      3316 9.34116E-05-2.01941E-05-3.14017E-05 4.14898E-06 1.80659E-18 2.07671E-19
 -1      3317 9.30408E-05-1.95283E-05-3.15146E-05 3.54471E-06 1.60409E-18-1.33504E-19
 -1      3318 9.23708E-05-1.84079E-05-3.17085E-05-2.35432E-06 4.34506E-19-1.38128E-18
 -1      3319 9.26116E-05-1.88134E-05-3.16468E-05-3.03596E-06 3.06693E-19-1.59758E-18
 -1      3320 9.35731E-05-2.05232E-05-3.12892E-05-2.73369E-06 4.31335E-20-1.30684E-18
 -1      3321 9.66709E-05-3.04135E-05-2.84018E-05-3.26588E-09 2.72945E-19 7.29317E-19
 -1      3322 9.65181E-05-3.01256E-05-2.84427E-05-2.99112E-07 8.18032E-20 8.66257E-19
 -1      3323 9.69285E-05-3.02646E-05-2.85795E-05-5.03622E-07 6.66788E-20 6.72752E-19
 -1      3324 9.74666E-05-3.10031E-05-2.84944E-05-1.68101E-08 2.29393E-19 9.65909E-19
 -1      3325 5.86165E-05-1.02521E-05-2.06707E-05-1.96384E-05 7.89594E-20-1.28574E-18
 -1      3326 6.25003E-05-1.63987E-05-1.92171E-05-3.00559E-05-2.49451E-19-1.63213E-18
 -1      3327 6.83479E-05-1.28406E-05-2.37135E-05-1.40729E-05-2.61012E-19-1.07700E-18
 -1      3328 7.14530E-05-2.10246E-05-2.15864E-05 3.13271E-05-1.94480E-18 5.25107E-19
 -1      3329 6.13556E-05-1.67825E-05-1.87187E-05 3.26635E-05-2.22195E-18 8.07381E-19
 -1      3330 5.80374E-05-1.22084E-05-1.94747E-05 2.60001E-05-2.00494E-18 1.10077E-18
 -1      3331 1.14302E-04-1.24292E-05-4.38995E-05 7.94645E-06 2.07375E-18 2.23474E-18
 -1      3332 1.11502E-04-1.06122E-05-4.33632E-05 4.01811E-06 2.42146E-18 1.75684E-18
 -1      3333 1.01401E-04-3.41764E-05-2.88250E-05 3.17730E-06 2.73007E-19 1.27908E-18
 -1      3334 1.00987E-04-3.39001E-05-2.87323E-05 2.38066E-06 6.21145E-19 1.10505E-18
 -1      3335 5.59670E-05-5.55289E-06-2.15880E-05 7.12922E-06-4.66464E-19-3.78200E-19
 -1      3336 6.35933E-05-7.99537E-06-2.38046E-05 5.38226E-06-2.43598E-19-1.06054E-18
 -1      3337 9.20939E-05-1.79530E-05-3.17855E-05-1.04723E-06 7.85573E-19-1.24283E-18
 -1      3338 9.22027E-05-1.81372E-05-3.17584E-05-1.77919E-06 5.26802E-19-1.24810E-18
 -1      3339 9.31550E-05-1.97658E-05-3.14360E-05-1.76102E-06 3.31021E-19-1.20214E-18
 -1      3340 9.49172E-05-2.69289E-05-2.91368E-05 9.07212E-07 3.85156E-21-1.48047E-19
 -1      3341 9.45358E-05-2.67921E-05-2.90456E-05 1.07689E-06-5.30415E-20-2.52799E-19
 -1      3342 9.40553E-05-2.65346E-05-2.89395E-05 1.04506E-06-1.65839E-19-6.95831E-20
 -1      3343 9.34408E-05-2.61454E-05-2.88598E-05 1.08617E-06-2.10102E-19-1.08002E-19
 -1      3344 9.44472E-05-2.66532E-05-2.90415E-05 5.54736E-07-9.76849E-20 7.32762E-20
 -1      3345 9.27040E-05-2.56286E-05-2.87511E-05 8.63490E-07-2.47852E-19-2.67933E-19
 -1      3346 9.17433E-05-2.49528E-05-2.86553E-05 7.41755E-07-1.43634E-19-2.64655E-19
 -1      3347 9.32744E-05-2.59859E-05-2.88172E-05 2.30495E-07-3.23197E-19 1.24734E-19
 -1      3348 9.06703E-05-2.41537E-05-2.85122E-05 2.45224E-07-5.22540E-19-3.54359E-19
 -1      3349 8.91951E-05-2.31462E-05-2.83555E-05-1.38992E-07-6.76379E-19-6.85514E-19
 -1      3350 9.15317E-05-2.48263E-05-2.85566E-05-6.15510E-07-4.77347E-19-1.44144E-19
 -1      3351 8.77750E-05-2.21224E-05-2.81412E-05-1.01265E-06-4.99060E-19-7.90173E-19
 -1      3352 8.56839E-05-2.08365E-05-2.78706E-05-1.77892E-06-3.93412E-19-6.75004E-19
 -1      3353 8.91307E-05-2.32459E-05-2.81928E-05-2.19293E-06-6.44851E-19 6.62820E-20
 -1      3354 8.36968E-05-1.95370E-05-2.74910E-05-3.34690E-06-2.60370E-19-7.57112E-19
 -1      3355 8.04858E-05-1.78919E-05-2.69474E-05-4.88867E-06-2.34003E-19-5.30442E-19
 -1      3356 8.58684E-05-2.13176E-05-2.76045E-05-4.93695E-06-2.99487E-19 1.56374E-19
 -1      3357 7.79763E-05-1.65818E-05-2.62821E-05-7.53851E-06-2.16863E-19-5.10461E-19
 -1      3358 7.34897E-05-1.48662E-05-2.52713E-05-1.02516E-05-1.08883E-19-7.97984E-19
 -1      3359 8.16001E-05-1.93823E-05-2.65851E-05-9.60514E-06-3.45932E-19-1.23945E-19
 -1      3360 6.97240E-05-1.07706E-05-2.53607E-05 3.60846E-06-6.15575E-19-1.59394E-18
 -1      3361 7.49281E-05-1.32825E-05-2.64345E-05 2.26071E-06-1.94067E-18-1.62181E-18
 -1      3362 5.03862E-05-1.15821E-05-1.62801E-05-2.70477E-05 4.02447E-19-8.14422E-19
 -1      3363 1.00215E-04-3.34232E-05-2.86357E-05 1.66500E-06 8.05903E-19 7.99978E-19
 -1      3364 9.97693E-05-3.30011E-05-2.85955E-05 1.04533E-06 6.53471E-19 8.76037E-19
 -1      3365 1.01629E-04-3.44131E-05-2.88227E-05 1.42485E-06 4.75155E-19 1.57942E-18
 -1      3366 7.86904E-05-1.54444E-05-2.72063E-05 6.36161E-07-2.58432E-18-2.43259E-18
 -1      3367 8.21923E-05-1.75653E-05-2.77206E-05 1.31743E-07-1.70820E-18-2.57631E-18
 -1      3368 7.72779E-05-1.50608E-05-2.65129E-05 5.33222E-06-2.08949E-18-1.36595E-18
 -1      3369 8.48212E-05-1.93907E-05-2.81080E-05-7.03011E-07-1.07806E-19-2.94143E-18
 -1      3370 8.70536E-05-2.09927E-05-2.83340E-05-7.78812E-07 5.50608E-19-2.58700E-18
 -1      3371 8.34286E-05-1.86515E-05-2.76698E-05 2.20642E-06-1.13554E-18-7.13235E-19
 -1      3372 8.88213E-05-2.23664E-05-2.85185E-05-1.14746E-06 5.43834E-19-2.82644E-18
 -1      3373 9.02056E-05-2.35062E-05-2.86040E-05-1.03271E-06 9.51118E-19-3.19842E-18
 -1      3374 8.76617E-05-2.16046E-05-2.82510E-05 5.94745E-07 6.93928E-19-1.92771E-18
 -1      3375 9.13163E-05-2.44430E-05-2.86805E-05-1.15322E-06 3.69734E-19-2.89492E-18
 -1      3376 9.21290E-05-2.51921E-05-2.87013E-05-9.88593E-07 1.31011E-19-2.48865E-18
 -1      3377 9.04278E-05-2.37821E-05-2.85219E-05-1.34403E-07 5.25051E-19-2.55870E-18
 -1      3378 9.28852E-05-2.58723E-05-2.87302E-05-9.99216E-07 2.58269E-19-1.89487E-18
 -1      3379 9.34008E-05-2.64008E-05-2.87243E-05-8.30721E-07 4.34940E-19-1.87308E-18
 -1      3380 9.22413E-05-2.53615E-05-2.86376E-05-4.08247E-07 2.89346E-19-1.50468E-18
 -1      3381 9.38734E-05-2.68537E-05-2.87279E-05-7.92512E-07 3.39392E-21-1.70105E-18
 -1      3382 9.41743E-05-2.71954E-05-2.87121E-05-6.51028E-07-1.12097E-18-1.02695E-18
 -1      3383 9.34280E-05-2.64783E-05-2.86769E-05-4.67857E-07 5.57922E-19-2.16035E-18
 -1      3384 9.44640E-05-2.74899E-05-2.87054E-05-5.99147E-07-1.70751E-18-4.44045E-19
 -1      3385 9.46361E-05-2.77079E-05-2.86881E-05-4.89365E-07-9.64418E-19-4.44620E-19
 -1      3386 9.41653E-05-2.72260E-05-2.86786E-05-4.27827E-07-7.79378E-19-6.54424E-19
 -1      3387 9.48106E-05-2.78962E-05-2.86783E-05-4.39543E-07-8.96223E-19-6.82609E-19
 -1      3388 9.49068E-05-2.80334E-05-2.86630E-05-3.58220E-07-3.42688E-19-1.34569E-18
 -1      3389 9.46146E-05-2.77155E-05-2.86653E-05-3.54147E-07-4.17991E-19-7.93105E-19
 -1      3390 9.50100E-05-2.81523E-05-2.86533E-05-3.16131E-07 7.56516E-19-1.36213E-18
 -1      3391 9.50621E-05-2.82378E-05-2.86409E-05-2.57558E-07 1.18948E-18-1.29621E-18
 -1      3392 9.48836E-05-2.80309E-05-2.86478E-05-2.77448E-07-1.39741E-20-1.06606E-18
 -1      3393 9.51220E-05-2.83122E-05-2.86326E-05-2.24223E-07 8.92834E-19-7.68484E-19
 -1      3394 9.51492E-05-2.83650E-05-2.86231E-05-1.82741E-07 8.89598E-19-6.37919E-19
 -1      3395 9.50417E-05-2.82315E-05-2.86310E-05-2.09968E-07 1.28235E-18-4.89513E-19
 -1      3396 9.51832E-05-2.84111E-05-2.86163E-05-1.57305E-07 5.85368E-19-3.62138E-21
 -1      3397 9.51966E-05-2.84435E-05-2.86092E-05-1.28240E-07 1.04854E-18-4.57466E-19
 -1      3398 9.51328E-05-2.83580E-05-2.86167E-05-1.55092E-07 1.50442E-18-4.07402E-20
 -1      3399 9.52148E-05-2.84708E-05-2.86043E-05-1.10191E-07 7.75615E-19-4.38288E-19
 -1      3400 9.52205E-05-2.84900E-05-2.85993E-05-9.06142E-08 5.58935E-19-8.50612E-19
 -1      3401 9.51833E-05-2.84358E-05-2.86055E-05-1.13233E-07 8.34435E-19 8.57985E-19
 -1      3402 9.52308E-05-2.85080E-05-2.85953E-05-7.63372E-08 1.04022E-18-1.25725E-18
 -1      3403 9.52331E-05-2.85205E-05-2.85914E-05-6.19479E-08 1.27014E-19-1.11229E-18
 -1      3404 9.52112E-05-2.84847E-05-2.85968E-05-8.13636E-08 7.13741E-19-9.51943E-19
 -1      3405 9.52384E-05-2.85316E-05-2.85884E-05-5.15766E-08 1.41501E-19 1.01907E-19
 -1      3406 9.52387E-05-2.85392E-05-2.85857E-05-4.15558E-08 1.37700E-18 1.26494E-18
 -1      3407 9.52265E-05-2.85163E-05-2.85899E-05-5.68459E-08 1.34354E-18 1.15433E-18
 -1      3408 9.52412E-05-2.85461E-05-2.85834E-05-3.40573E-08 1.12381E-18 2.41518E-18
 -1      3409 9.52406E-05-2.85509E-05-2.85814E-05-2.71090E-08 2.47630E-18 2.02951E-18
 -1      3410 9.52342E-05-2.85361E-05-2.85848E-05-3.88030E-08 1.75104E-18 3.66968E-18
 -1      3411 9.52417E-05-2.85552E-05-2.85798E-05-2.17197E-08 2.91483E-18 1.76159E-18
 -1      3412 9.52409E-05-2.85582E-05-2.85784E-05-1.70194E-08 1.56889E-18 1.48386E-18
 -1      3413 9.52376E-05-2.85486E-05-2.85810E-05-2.57007E-08 1.79721E-18 3.73820E-18
 -1      3414 9.52409E-05-2.85599E-05-2.85775E-05-1.43503E-08 1.37416E-18 1.87288E-18
 -1      3415 9.52402E-05-2.85615E-05-2.85766E-05-1.16015E-08 6.90473E-19 2.20721E-18
 -1      3416 9.52387E-05-2.85595E-05-2.85769E-05-1.25949E-08 3.34976E-19 3.54103E-18
 -1      3417 9.52386E-05-2.85555E-05-2.85785E-05-1.75583E-08 1.02037E-18 4.23011E-18
 -1      3418 9.54081E-05-2.68350E-05-2.93842E-05 4.78038E-07-7.63331E-20-2.58140E-19
 -1      3419 9.51935E-05-2.69393E-05-2.92621E-05 7.82184E-07 1.34706E-20-2.93086E-19
 -1      3420 9.51756E-05-2.68313E-05-2.92822E-05 4.95141E-07 3.31064E-20-1.12385E-19
 -1      3421 9.90989E-05-3.24743E-05-2.85597E-05 5.59735E-07 4.41428E-19 5.05513E-19
 -1      3422 9.86998E-05-3.20218E-05-2.85592E-05 1.16934E-07 2.79820E-19 5.51280E-19
 -1      3423 1.00176E-04-3.32905E-05-2.86828E-05 3.00549E-07 3.04829E-19 6.84797E-19
 -1      3424 1.02896E-04-3.36945E-05-2.96683E-05 7.09390E-06-2.10583E-19 1.02682E-18
 -1      3425 1.02948E-04-3.42627E-05-2.94350E-05 6.19097E-06-2.21357E-19 7.90968E-19
 -1      3426 1.02503E-04-3.16878E-05-3.03443E-05 8.79644E-06 1.83264E-19 1.04066E-18
 -1      3427 1.02969E-04-3.29102E-05-3.00446E-05 8.17584E-06-6.85966E-20 9.07291E-19
 -1      3428 1.05179E-04-3.44493E-05-3.02910E-05 7.44070E-06-6.96029E-20 9.50185E-19
 -1      3429 1.01091E-04-2.83856E-05-3.11312E-05 9.42003E-06-3.86711E-20 1.68514E-18
 -1      3430 1.01943E-04-3.01779E-05-3.07971E-05 9.42303E-06 2.39186E-19 1.28457E-18
 -1      3431 1.04717E-04-3.18669E-05-3.11888E-05 9.31844E-06-1.42399E-20 9.07894E-19
 -1      3432 9.89679E-05-2.44120E-05-3.19075E-05 8.20364E-06-9.30247E-20 1.73104E-18
 -1      3433 9.99733E-05-2.63666E-05-3.15983E-05 9.11289E-06-1.61072E-19 2.09171E-18
 -1      3434 1.03019E-04-2.78325E-05-3.21933E-05 9.84546E-06-3.43197E-19 1.75921E-18
 -1      3435 9.69622E-05-2.10420E-05-3.24979E-05 4.85226E-06 2.11717E-20 1.46448E-18
 -1      3436 9.77304E-05-2.24893E-05-3.22889E-05 6.67347E-06 1.92271E-19 1.76940E-18
 -1      3437 1.00593E-04-2.32745E-05-3.31277E-05 8.11477E-06-2.25289E-19 1.32603E-18
 -1      3438 9.60783E-05-1.96802E-05-3.27334E-05-5.92757E-09 1.14151E-21 1.27076E-18
 -1      3439 9.62540E-05-2.00113E-05-3.26870E-05 2.31579E-06-1.89124E-19 1.52538E-18
 -1      3440 9.85710E-05-1.98445E-05-3.37604E-05 3.98156E-06-1.37017E-19 1.93669E-18
 -1      3441 9.68109E-05-2.09457E-05-3.25407E-05-4.92661E-06 5.87010E-19 4.99681E-19
 -1      3442 9.63140E-05-2.00226E-05-3.26684E-05-2.77351E-06 6.08655E-19 8.87542E-19
 -1      3443 9.80818E-05-1.90435E-05-3.38961E-05-1.52659E-06 6.63391E-19 1.24895E-18
 -1      3444 9.87628E-05-2.42399E-05-3.19899E-05-8.42563E-06 4.49794E-19 7.68678E-19
 -1      3445 9.78405E-05-2.24851E-05-3.22513E-05-7.02323E-06 5.76606E-19 5.68040E-19
 -1      3446 9.94032E-05-2.12393E-05-3.35014E-05-6.54486E-06 6.64596E-19 8.21588E-19
 -1      3447 1.00935E-04-2.81784E-05-3.12287E-05-9.81601E-06 6.18299E-19 1.63315E-18
 -1      3448 9.99860E-05-2.62652E-05-3.15554E-05-9.35403E-06 6.58059E-19 1.32453E-18
 -1      3449 1.01734E-04-2.53777E-05-3.27029E-05-9.54928E-06 4.92678E-19 1.26743E-18
 -1      3450 1.02438E-04-3.14720E-05-3.04407E-05-9.31081E-06 1.77591E-19 1.67801E-18
 -1      3451 1.01779E-04-2.99657E-05-3.07590E-05-9.63229E-06 3.91799E-19 1.42785E-18
 -1      3452 1.03835E-04-2.97543E-05-3.17071E-05-1.01236E-05 6.08014E-19 1.75275E-18
 -1      3453 1.02851E-04-3.34266E-05-2.97616E-05-7.68612E-06 4.95086E-20 2.03330E-18
 -1      3454 1.02620E-04-3.25734E-05-3.00255E-05-8.43741E-06 3.77937E-19 1.90323E-18
 -1      3455 1.04858E-04-3.30690E-05-3.07435E-05-8.84255E-06-1.11347E-20 2.01386E-18
 -1      3456 1.02340E-04-3.40878E-05-2.92416E-05-5.71525E-06 4.35166E-19 1.37922E-18
 -1      3457 1.02479E-04-3.38317E-05-2.94357E-05-6.59578E-06 1.91780E-19 1.32360E-18
 -1      3458 1.04629E-04-3.47261E-05-2.99448E-05-6.75740E-06 4.77307E-19 9.48341E-19
 -1      3459 1.01245E-04-3.37998E-05-2.88874E-05-3.89885E-06 1.18111E-18 3.54875E-19
 -1      3460 1.01619E-04-3.39610E-05-2.90136E-05-4.70886E-06 8.82346E-19 9.59165E-19
 -1      3461 1.03493E-04-3.50107E-05-2.93510E-05-4.61327E-06 9.80773E-19-3.54254E-19
 -1      3462 9.99430E-05-3.29972E-05-2.86715E-05-2.46555E-06 1.75179E-19 8.99673E-19
 -1      3463 1.00411E-04-3.33760E-05-2.87434E-05-3.11716E-06 8.80025E-19 9.87648E-19
 -1      3464 1.01904E-04-3.43699E-05-2.89548E-05-2.85117E-06 7.45608E-19-1.38097E-19
 -1      3465 9.86964E-05-3.20241E-05-2.85563E-05-1.44446E-06-7.46076E-19 1.04234E-18
 -1      3466 9.91561E-05-3.24677E-05-2.85900E-05-1.92330E-06 8.45180E-20 7.65405E-19
 -1      3467 1.00267E-04-3.33012E-05-2.87152E-05-1.58857E-06 3.36067E-19 1.38897E-18
 -1      3468 9.76449E-05-3.10967E-05-2.85067E-05-7.70257E-07-5.48667E-19 4.16775E-20
 -1      3469 9.80391E-05-3.15127E-05-2.85166E-05-1.09988E-06-6.30754E-19 1.65043E-19
 -1      3470 9.88198E-05-3.21549E-05-2.85862E-05-7.72363E-07-4.81281E-19 4.62834E-19
 -1      3471 9.68301E-05-3.03171E-05-2.84952E-05-3.52882E-07 4.77385E-19-1.12090E-18
 -1      3472 9.71389E-05-3.06630E-05-2.84922E-05-5.67470E-07-1.35867E-19-3.71300E-19
 -1      3473 9.76620E-05-3.11282E-05-2.85276E-05-2.88045E-07 1.59598E-20-1.09823E-18
 -1      3474 9.62389E-05-2.97148E-05-2.85032E-05-1.11223E-07 1.14286E-19-3.96153E-19
 -1      3475 9.64646E-05-2.99797E-05-2.84945E-05-2.43562E-07-1.02529E-20-1.06739E-18
 -1      3476 9.67992E-05-3.02997E-05-2.85100E-05-2.58889E-08-1.03624E-19-1.13884E-18
 -1      3477 9.58333E-05-2.92789E-05-2.85186E-05 1.76365E-08 5.30158E-20-4.40773E-19
 -1      3478 9.59890E-05-2.94691E-05-2.85086E-05-5.91687E-08 1.44169E-19-5.37993E-19
 -1      3479 9.61926E-05-2.96786E-05-2.85134E-05 9.90841E-08-2.94132E-19-7.58355E-19
 -1      3480 9.55689E-05-2.89804E-05-2.85350E-05 7.79817E-08 1.33661E-18-1.84599E-19
 -1      3481 9.56708E-05-2.91096E-05-2.85259E-05 3.69684E-08 8.13082E-19-7.43281E-19
 -1      3482 9.57876E-05-2.92400E-05-2.85255E-05 1.45758E-07 6.21922E-19-1.08550E-18
 -1      3483 9.54052E-05-2.87863E-05-2.85492E-05 9.89032E-08 1.77168E-18-1.23679E-19
 -1      3484 9.54684E-05-2.88696E-05-2.85420E-05 7.99524E-08 1.40525E-18-1.82399E-19
 -1      3485 9.55302E-05-2.89459E-05-2.85394E-05 1.51249E-07 9.30140E-19-3.43349E-19
 -1      3486 9.53093E-05-2.86669E-05-2.85601E-05 9.86141E-08 1.08630E-18 2.81341E-20
 -1      3487 9.53464E-05-2.87176E-05-2.85548E-05 9.25884E-08 1.80006E-18-6.39318E-19
 -1      3488 9.53749E-05-2.87587E-05-2.85518E-05 1.37355E-07 1.80207E-18-1.19095E-19
 -1      3489 9.52570E-05-2.85981E-05-2.85676E-05 8.80602E-08 1.73045E-18-7.86049E-19
 -1      3490 9.52773E-05-2.86269E-05-2.85642E-05 8.90963E-08 1.48846E-18-3.98452E-19
 -1      3491 9.52868E-05-2.86460E-05-2.85615E-05 1.16110E-07 1.24654E-18-9.27737E-19
 -1      3492 9.52314E-05-2.85619E-05-2.85724E-05 7.35487E-08 3.83580E-19-1.74996E-18
 -1      3493 9.52414E-05-2.85767E-05-2.85704E-05 7.80171E-08 1.10791E-18-9.18587E-19
 -1      3494 9.52410E-05-2.85830E-05-2.85684E-05 9.37175E-08 1.50832E-18-1.36920E-18
 -1      3495 9.52211E-05-2.85457E-05-2.85751E-05 5.85262E-08-7.90230E-19-8.44360E-19
 -1      3496 9.52253E-05-2.85521E-05-2.85740E-05 6.42721E-08 1.68155E-19-1.82685E-18
 -1      3497 9.52202E-05-2.85513E-05-2.85727E-05 7.30862E-08 5.25038E-19-4.18401E-19
 -1      3498 9.52190E-05-2.85411E-05-2.85763E-05 4.47318E-08-1.72941E-18 2.22500E-19
 -1      3499 9.52200E-05-2.85426E-05-2.85759E-05 5.05448E-08-1.77958E-18-9.54379E-19
 -1      3500 9.52135E-05-2.85384E-05-2.85752E-05 5.53509E-08-1.44937E-18 4.21389E-20
 -1      3501 9.52208E-05-2.85425E-05-2.85765E-05 3.29065E-08-2.44438E-19 9.68670E-19
 -1      3502 9.52203E-05-2.85415E-05-2.85765E-05 3.81663E-08-5.03499E-19 3.59255E-19
 -1      3503 9.52139E-05-2.85361E-05-2.85762E-05 4.07481E-08-1.50442E-18-9.24171E-19
 -1      3504 9.52240E-05-2.85465E-05-2.85761E-05 2.32718E-08 1.62019E-18 5.94350E-19
 -1      3505 9.52229E-05-2.85445E-05-2.85764E-05 2.77195E-08-2.46011E-20 5.46559E-19
 -1      3506 9.52175E-05-2.85392E-05-2.85764E-05 2.90948E-08-5.71604E-20-1.52160E-19
 -1      3507 9.52274E-05-2.85516E-05-2.85754E-05 1.57231E-08 1.55460E-18 1.62265E-18
 -1      3508 9.52263E-05-2.85492E-05-2.85758E-05 1.92283E-08 2.39565E-18 1.24904E-18
 -1      3509 9.52220E-05-2.85445E-05-2.85760E-05 2.00121E-08 8.90837E-19-2.77272E-20
 -1      3510 5.52102E-05-7.69543E-06-1.99034E-05 1.81604E-05-1.48506E-18 3.97682E-19
 -1      3511 9.52329E-05-2.85523E-05-2.85774E-05-1.36966E-08-1.67693E-18 3.82454E-18
 -1      3512 9.52304E-05-2.85500E-05-2.85774E-05-1.31780E-08-1.28470E-18 2.70127E-18
 -1      3513 9.52278E-05-2.85475E-05-2.85773E-05-1.17270E-08-5.19994E-19 3.06325E-18
 -1      3514 9.52257E-05-2.85459E-05-2.85771E-05-1.02525E-08 2.48765E-19 1.86702E-18
 -1      3515 9.52273E-05-2.85446E-05-2.85782E-05-1.44034E-08-1.01055E-18 1.87236E-18
 -1      3516 1.02410E-04-3.44059E-05-2.91606E-05 5.05829E-06-6.22040E-20 1.12519E-18
 -1      3517 1.02155E-04-3.44511E-05-2.90016E-05 4.13671E-06 1.27332E-19 1.17056E-18
 -1      3518 1.04520E-04-3.54587E-05-2.95922E-05 5.13816E-06 6.70499E-20 1.55207E-18
 -1      3519 9.60794E-05-2.70718E-05-2.95842E-05 3.56370E-07 1.04897E-18 1.94136E-19
 -1      3520 9.59611E-05-2.64036E-05-2.97937E-05 8.83637E-07 9.85903E-19 7.10722E-20
 -1      3521 7.23454E-05-2.22374E-05-2.13669E-05-3.14187E-05-8.29570E-19-1.04926E-18
 -1      3522 9.55738E-05-2.62248E-05-2.97140E-05-2.70311E-07-2.67036E-19-5.12554E-19
 -1      3523 9.55015E-05-2.65881E-05-2.95450E-05 1.98157E-07-1.19721E-19-2.85125E-19
 -1      3524 9.55290E-05-2.65026E-05-2.95768E-05 1.01478E-07-8.23971E-20-3.28559E-19
 -1      3525 9.44487E-05-2.20545E-05-3.10298E-05-5.06695E-06-6.36522E-19-1.38207E-18
 -1      3526 9.47338E-05-2.30553E-05-3.07276E-05-4.09856E-06-6.36176E-19-1.26602E-18
 -1      3527 9.46654E-05-2.28747E-05-3.07626E-05-3.55205E-06-5.06206E-19-1.15410E-18
 -1      3528 9.40074E-05-2.12048E-05-3.12074E-05-4.95395E-06-5.20469E-19-1.44598E-18
 -1      3529 9.64857E-05-3.69162E-05-2.56280E-05 2.99092E-05-2.66258E-18 6.36863E-20
 -1      3530 8.38402E-05-2.81852E-05-2.34429E-05 3.17542E-05-2.09115E-18 1.15302E-19
 -1      3531 7.44781E-05-1.70566E-05-2.44604E-05-1.70564E-05-2.52495E-19-5.80833E-19
 -1      3532 9.52238E-05-2.85444E-05-2.85769E-05-7.80989E-09 1.22249E-19 4.24044E-19
 -1      3533 9.52224E-05-2.85436E-05-2.85767E-05-5.65704E-09 9.70407E-19-2.49639E-18
 -1      3534 9.52223E-05-2.85407E-05-2.85777E-05-1.00608E-08 1.78943E-19 9.54310E-19
 -1      3535 9.52216E-05-2.85434E-05-2.85764E-05-2.69523E-09 6.09282E-19-3.26670E-18
 -1      3536 9.52212E-05-2.85435E-05-2.85762E-05-2.76227E-10-1.10192E-19-3.22196E-18
 -1      3537 9.52192E-05-2.85391E-05-2.85771E-05-4.21834E-09 4.34871E-19-2.36525E-18
 -1      3538 9.52271E-05-2.85524E-05-2.85749E-05 7.08710E-09 5.46535E-19 7.40512E-19
 -1      3539 1.12707E-04-9.34853E-06-4.44118E-05-2.45373E-06 2.36354E-18 1.15617E-18
 -1      3540 1.16474E-04-9.63469E-06-4.61939E-05-5.86580E-06 2.24220E-18 1.69429E-18
 -1      3541 1.16609E-04-1.26247E-05-4.47735E-05-8.53304E-06 2.64195E-18 1.04920E-18
 -1      3542 1.22151E-04-5.11052E-05-3.05551E-05 1.70006E-05-5.49314E-19-1.53010E-18
 -1      3543 1.11282E-04-4.58606E-05-2.79805E-05 2.42636E-05-1.61553E-18-8.51070E-20
 -1      3544 9.53825E-05-2.50094E-05-3.01548E-05-1.39284E-06-4.26029E-19-8.46225E-19
 -1      3545 9.54713E-05-2.56772E-05-2.99235E-05-7.23059E-07-2.72738E-19-6.61662E-19
 -1      3546 9.55136E-05-2.56049E-05-2.99543E-05-6.28774E-07-1.88284E-19-6.64295E-19
 -1      3547 1.20429E-04-2.17212E-05-4.24906E-05 1.29763E-05 6.95732E-19 2.33929E-18
 -1      3548 1.16826E-04-1.59969E-05-4.34626E-05 1.07411E-05 1.66881E-18 2.27381E-18
 -1      3549 1.12996E-04-1.70527E-05-4.12592E-05 9.51898E-06 1.37070E-18 3.01327E-18
 -1      3550 7.71154E-05-2.26438E-05-2.32715E-05-2.65934E-05-5.97330E-19-4.66450E-19
 -1      3551 8.28164E-05-2.99480E-05-2.22661E-05-3.53057E-05-1.21398E-18-4.65365E-19
 -1      3552 9.16403E-05-3.53945E-05-2.39776E-05-3.39900E-05-1.60980E-18 5.10867E-20
 -1      3553 9.49114E-05-2.34795E-05-3.06053E-05 3.44822E-06 1.56054E-18 7.73759E-19
 -1      3554 6.79103E-05-1.07363E-05-2.42215E-05 9.98963E-06-1.26750E-18-6.26090E-19
 -1      3555 9.89826E-05-3.21610E-05-2.86544E-05-4.04905E-07 4.25526E-19-5.17936E-20
 -1      3556 9.81774E-05-3.15249E-05-2.85687E-05-1.81440E-07 2.93628E-19 4.95557E-19
 -1      3557 9.78611E-05-3.10972E-05-2.85988E-05-4.65745E-07 1.68581E-19 3.67269E-19
 -1      3558 1.06471E-04-4.62097E-05-2.58401E-05-3.36478E-05-2.45163E-18-2.61839E-19
 -1      3559 1.15614E-04-5.15341E-05-2.72871E-05-3.19601E-05-2.97920E-18-5.36084E-19
 -1      3560 1.21023E-04-5.28066E-05-2.92072E-05-2.46992E-05-3.10305E-18-4.60898E-19
 -1      3561 1.29606E-04-5.43404E-05-3.22557E-05-1.42788E-05-3.08857E-18 6.85461E-19
 -1      3562 1.34947E-04-5.55059E-05-3.40685E-05-1.11979E-05-3.18506E-18 9.34171E-19
 -1      3563 1.33930E-04-5.18944E-05-3.52432E-05-4.08797E-06-2.65896E-18 1.67204E-18
 -1      3564 1.34237E-04-4.61544E-05-3.78363E-05-3.54201E-06 1.40545E-18-2.33834E-18
 -1      3565 1.10258E-04-4.32133E-05-2.86525E-05 1.85935E-05-1.65414E-18 3.01435E-19
 -1      3566 1.05217E-04-4.16300E-05-2.71203E-05 2.55229E-05-2.55441E-18 7.55864E-19
 -1      3567 9.69097E-05-3.52659E-05-2.65574E-05 2.41657E-05-2.23543E-18 6.14397E-19
 -1      3568 1.29103E-04-2.66061E-05-4.42540E-05-1.34434E-05 2.14998E-18-1.08060E-18
 -1      3569 1.28904E-04-3.18562E-05-4.16765E-05-1.19435E-05 1.52119E-18-1.70974E-18
 -1      3570 1.22402E-04-2.01996E-05-4.39505E-05-1.29868E-05 2.22987E-18 1.40872E-19
 -1      3571 1.33727E-04-4.57533E-05-3.78404E-05 4.17437E-06-1.56153E-18 2.05309E-18
 -1      3572 1.35184E-04-4.24233E-05-3.99435E-05 7.63226E-06-1.12753E-18 2.71823E-18
 -1      3573 1.29523E-04-3.66116E-05-3.99197E-05 1.10220E-05-9.49365E-19 2.71307E-18
 -1      3574 9.66532E-05-2.90632E-05-2.89704E-05-7.01584E-07 4.38497E-19 6.54749E-19
 -1      3575 9.65475E-05-2.86531E-05-2.90868E-05-5.59773E-07 6.19790E-19 5.32107E-19
 -1      3576 6.41032E-05-1.23777E-05-2.20512E-05 1.97764E-05-1.11750E-18 3.34340E-19
 -1      3577 9.52301E-05-2.85553E-05-2.85749E-05 1.19572E-08 8.44010E-19 6.03105E-19
 -1      3578 1.26226E-04-4.98254E-05-3.28536E-05 6.51124E-06 4.08204E-19-1.57077E-18
 -1      3579 1.25083E-04-5.11918E-05-3.15513E-05 1.21971E-05-1.28494E-19-1.48951E-18
 -1      3580 1.18859E-04-4.82055E-05-3.03512E-05 1.34091E-05-1.61227E-19-8.52565E-19
 -1      3581 9.29727E-05-1.94314E-05-3.15007E-05-6.53706E-07 7.63712E-19-9.27552E-19
 -1      3582 9.52215E-05-2.85445E-05-2.85759E-05 2.72883E-09 7.32543E-19-7.99719E-19
 -1      3583 9.52219E-05-2.85454E-05-2.85757E-05 4.87572E-09 7.63537E-19 7.27179E-19
 -1      3584 9.52186E-05-2.85399E-05-2.85765E-05 2.11010E-09 2.30722E-19-2.36952E-18
 -1      3585 9.52369E-05-2.85570E-05-2.85771E-05-1.32762E-08-1.04362E-19 3.81025E-18
 -1      3586 9.52350E-05-2.85550E-05-2.85773E-05-1.36621E-08-1.25465E-18 5.08481E-18
 -1      3587 9.52325E-05-2.85499E-05-2.85782E-05-1.60787E-08-1.46092E-18 4.28630E-18
 -1      3588 9.52367E-05-2.85550E-05-2.85779E-05-1.54620E-08 3.12922E-19 4.72746E-18
 -1      3589 9.62892E-05-2.76811E-05-2.93916E-05-2.39323E-08 8.86156E-19 2.64618E-19
 -1      3590 9.62914E-05-2.71493E-05-2.96341E-05 1.93250E-07 9.25322E-19-8.01843E-21
 -1      3591 9.63808E-05-2.81820E-05-2.92338E-05-3.38402E-07 7.33723E-19 3.70879E-19
 -1      3592 9.37208E-05-2.07669E-05-3.12512E-05 2.71210E-06 1.53561E-18-2.38564E-19
 -1      3593 9.36179E-05-2.05007E-05-3.13439E-05-4.69994E-06-3.95650E-19-1.50582E-18
 -1      3594 1.03183E-04-3.52749E-05-2.91121E-05 3.04600E-06 2.97152E-19 2.12808E-18
 -1      3595 9.40238E-05-2.14480E-05-3.11133E-05 1.60252E-06 1.54347E-18-5.38392E-19
 -1      3596 9.38627E-05-2.11414E-05-3.11739E-05 1.09183E-06 1.38698E-18-5.81279E-19
 -1      3597 9.55742E-05-2.54385E-05-3.00735E-05 1.52768E-06 1.23826E-18 3.11566E-19
 -1      3598 9.52599E-05-2.43183E-05-3.03946E-05 2.47555E-06 1.35607E-18 4.76524E-19
 -1      3599 9.52269E-05-2.85513E-05-2.85752E-05 1.24874E-08 1.35311E-18 1.66228E-18
 -1      3600 9.68410E-05-2.94727E-05-2.88611E-05-7.92723E-07 4.22677E-19 7.38286E-19
 -1      3601 9.70147E-05-2.93060E-05-2.90262E-05-7.92295E-07 4.40274E-19 3.12130E-19
 -1      3602 9.69955E-05-2.98534E-05-2.87771E-05-7.87159E-07 3.72149E-19 6.35610E-19
 -1      3603 9.57274E-05-2.54883E-05-3.01097E-05 1.24525E-06 1.22434E-18 8.74616E-20
 -1      3604 9.52242E-05-2.85480E-05-2.85755E-05 1.01880E-08 1.54647E-18 3.37483E-19
 -1      3605 8.35986E-05-2.24765E-05-2.61002E-05-1.57395E-05-3.14254E-19 4.37091E-19
 -1      3606 7.87880E-05-2.11802E-05-2.46474E-05-2.07795E-05-3.50961E-19-3.89370E-20
 -1      3607 8.71220E-05-2.79892E-05-2.52418E-05-2.42739E-05-5.94564E-19 8.13218E-20
 -1      3608 9.41119E-05-2.15455E-05-3.10886E-05-3.73650E-06-3.46191E-19-1.26166E-18
 -1      3609 7.27425E-05-1.83136E-05-2.23351E-05-3.56925E-05 2.13241E-19-2.91263E-18
 -1      3610 1.23391E-04-2.95819E-05-4.03039E-05 1.28296E-05-4.54248E-19 2.17267E-18
 -1      3611 1.21887E-04-2.53527E-05-4.15821E-05 1.30815E-05 1.18320E-20 2.43899E-18
 -1      3612 1.17267E-04-2.41594E-05-3.99523E-05 1.26621E-05 7.15213E-20 2.53960E-18
 -1      3613 9.51402E-05-2.43515E-05-3.03472E-05-1.81177E-06-4.48495E-19-1.00906E-18
 -1      3614 9.51863E-05-2.43347E-05-3.03629E-05-1.51872E-06-2.54498E-19-8.17722E-19
 -1      3615 9.49467E-05-2.36469E-05-3.05592E-05-2.43988E-06-3.24896E-19-1.10283E-18
 -1      3616 9.45011E-05-2.22922E-05-3.09311E-05 6.37320E-07 1.29476E-18-4.84309E-19
 -1      3617 9.37466E-05-2.09285E-05-3.12173E-05 6.52882E-07 1.25155E-18-6.56012E-19
 -1      3618 9.36695E-05-2.08046E-05-3.12388E-05 1.04414E-07 1.04382E-18-7.37525E-19
 -1      3619 1.10458E-04-1.04942E-05-4.31491E-05 1.28960E-06 2.57517E-18 1.53768E-18
 -1      3620 1.09928E-04-1.09222E-05-4.25308E-05-2.04907E-06 1.85082E-18 1.34274E-18
 -1      3621 1.08950E-04-1.20834E-05-4.15150E-05 4.01793E-06 2.15284E-18 1.90938E-18
 -1      3622 7.93455E-05-2.43260E-05-2.35127E-05 2.82741E-05-1.38932E-18-3.65680E-20
 -1      3623 9.49700E-05-2.36068E-05-3.05818E-05 2.79979E-06 1.45513E-18 5.38498E-19
 -1      3624 9.46578E-05-2.28326E-05-3.07961E-05 3.18255E-06 1.60114E-18 5.08183E-19
 -1      3625 9.43693E-05-2.21395E-05-3.09538E-05 2.89832E-06 1.51502E-18 2.29755E-19
 -1      3626 9.50340E-05-2.36630E-05-3.05862E-05 2.28759E-06 1.44891E-18 2.70070E-19
 -1      3627 9.44108E-05-2.23604E-05-3.08828E-05-3.08701E-06-2.33866E-19-1.20152E-18
 -1      3628 9.44289E-05-2.23973E-05-3.08677E-05-2.57311E-06-1.77356E-19-1.11195E-18
 -1      3629 9.42287E-05-2.19738E-05-3.09795E-05-2.32473E-06-6.47637E-20-1.16226E-18
 -1      3630 9.47930E-05-2.32048E-05-3.06702E-05-1.79443E-06-7.87246E-20-1.02105E-18
 -1      3631 9.39969E-05-2.14919E-05-3.10748E-05-1.94541E-06 1.84519E-19-1.19685E-18
 -1      3632 9.37514E-05-2.09804E-05-3.11903E-05-1.13132E-06 4.46881E-19-9.73206E-19
 -1      3633 9.38659E-05-2.12385E-05-3.11402E-05-1.61162E-06 2.92902E-19-1.05923E-18
 -1      3634 9.45218E-05-2.25298E-05-3.08447E-05-1.28467E-06 2.35546E-19-8.96630E-19
 -1      3635 1.12795E-04-1.42029E-05-4.23469E-05-8.55383E-06 2.03034E-18 9.39532E-19
 -1      3636 1.17329E-04-1.70752E-05-4.32762E-05-1.13279E-05 2.41203E-18 5.90091E-19
 -1      3637 1.29695E-04-4.05181E-05-3.85031E-05-8.91582E-06 1.80107E-18-2.38343E-18
 -1      3638 1.28770E-04-4.58422E-05-3.55842E-05-2.42892E-06 1.31044E-18-2.11954E-18
 -1      3639 9.54731E-05-2.68382E-05-2.94106E-05 1.18735E-07 1.92938E-19-3.06544E-20
 -1      3640 9.52010E-05-2.69234E-05-2.92760E-05 2.21073E-07 2.46613E-19 7.54040E-20
 -1      3641 9.39971E-05-2.65546E-05-2.88981E-05-2.72989E-07-2.63163E-19 2.15612E-19
 -1      3642 9.32720E-05-2.61844E-05-2.87790E-05-5.86385E-07-3.69902E-19 2.27567E-19
 -1      3643 9.26442E-05-2.57885E-05-2.86424E-05-1.19434E-06-3.31384E-19 2.14462E-19
 -1      3644 9.15946E-05-2.52086E-05-2.84897E-05-1.84649E-06-4.15267E-19 2.94908E-19
 -1      3645 9.35243E-05-2.64618E-05-2.87268E-05-1.66639E-06-2.08950E-19 4.54056E-19
 -1      3646 9.08458E-05-2.47167E-05-2.83232E-05-2.81785E-06-3.40458E-19 3.95430E-19
 -1      3647 8.94653E-05-2.40152E-05-2.81062E-05-3.90093E-06-4.04543E-19 5.90909E-19
 -1      3648 9.21843E-05-2.58230E-05-2.84237E-05-3.34849E-06-2.69921E-19 1.00832E-18
 -1      3649 8.85710E-05-2.34902E-05-2.78571E-05-5.50141E-06-4.64496E-19 6.89430E-19
 -1      3650 8.66751E-05-2.27207E-05-2.74827E-05-7.41361E-06-3.14812E-19 7.36177E-19
 -1      3651 9.05841E-05-2.51657E-05-2.80187E-05-6.06451E-06-2.62522E-19 1.37803E-18
 -1      3652 8.60013E-05-2.24971E-05-2.71519E-05-9.61368E-06-4.50548E-19 5.82709E-19
 -1      3653 8.36773E-05-2.19275E-05-2.65325E-05-1.26253E-05-4.92619E-19 5.46985E-19
 -1      3654 8.80887E-05-2.58373E-05-2.67148E-05-1.55591E-05-5.53984E-19 4.63833E-19
 -1      3655 8.90199E-05-2.49590E-05-2.74591E-05-1.00875E-05-4.44514E-19 1.12449E-18
 -1      3656 9.74845E-05-3.06534E-05-2.86438E-05-6.16937E-07 3.95764E-20 5.66469E-19
 -1      3657 9.72560E-05-3.02598E-05-2.87005E-05-7.59434E-07 1.68652E-19 7.01287E-19
 -1      3658 9.74575E-05-3.02008E-05-2.88354E-05-9.04497E-07 3.14544E-19 5.06688E-19
 -1      3659 9.80885E-05-3.11307E-05-2.87102E-05-7.84391E-07 2.69014E-19 9.69303E-20
 -1      3660 1.02886E-04-3.53388E-05-2.89604E-05 8.06107E-07 1.59760E-19 1.37224E-18
 -1      3661 1.02106E-04-3.47169E-05-2.88535E-05 1.87307E-07 3.47505E-19 1.02531E-18
 -1      3662 7.71856E-05-1.65372E-05-2.61299E-05 9.70405E-06-2.08874E-18-3.07380E-20
 -1      3663 8.09268E-05-1.81050E-05-2.68950E-05 7.33263E-06-1.66872E-18 4.58316E-20
 -1      3664 8.28812E-05-1.92143E-05-2.73845E-05 5.10875E-06-1.79190E-18 7.64996E-19
 -1      3665 8.54743E-05-2.06230E-05-2.77851E-05 3.78564E-06-1.09197E-18 1.71501E-19
 -1      3666 8.38074E-05-2.04370E-05-2.70931E-05 8.87922E-06-1.76749E-18 1.70647E-18
 -1      3667 8.70180E-05-2.17051E-05-2.80570E-05 2.45955E-06-6.99725E-19-4.48501E-20
 -1      3668 8.87648E-05-2.28396E-05-2.82568E-05 1.78127E-06 2.76164E-19-1.44388E-18
 -1      3669 8.71554E-05-2.21003E-05-2.78345E-05 4.98072E-06-1.45191E-18 7.51893E-19
 -1      3670 8.98544E-05-2.36977E-05-2.83944E-05 1.05888E-06 7.98211E-19-2.23097E-18
 -1      3671 9.09655E-05-2.45154E-05-2.84841E-05 7.50836E-07 3.99817E-19-1.75270E-18
 -1      3672 8.96738E-05-2.36900E-05-2.82399E-05 2.68622E-06-2.75326E-19-7.58003E-19
 -1      3673 9.17818E-05-2.52054E-05-2.85578E-05 3.20741E-07 8.19542E-19-1.17762E-18
 -1      3674 9.25388E-05-2.58256E-05-2.85964E-05 1.89096E-07 8.09855E-19-1.01735E-18
 -1      3675 9.15199E-05-2.50646E-05-2.84545E-05 1.36649E-06 1.06444E-18-1.69099E-18
 -1      3676 9.30893E-05-2.63238E-05-2.86290E-05-3.50445E-08 5.58480E-19-9.95911E-19
 -1      3677 9.35637E-05-2.67485E-05-2.86394E-05-6.90235E-08 1.07181E-18-9.03169E-19
 -1      3678 9.28335E-05-2.61424E-05-2.85637E-05 6.04685E-07 8.28167E-19 3.77791E-19
 -1      3679 9.39257E-05-2.70941E-05-2.86508E-05-1.77301E-07 2.14314E-19-8.63789E-19
 -1      3680 9.42175E-05-2.73786E-05-2.86486E-05-1.67437E-07-7.07553E-19 1.06714E-19
 -1      3681 9.37135E-05-2.69262E-05-2.86111E-05 2.04620E-07 6.78571E-19-8.90917E-19
 -1      3682 9.44503E-05-2.76119E-05-2.86499E-05-2.13313E-07-3.92680E-19-7.60542E-19
 -1      3683 9.46265E-05-2.77989E-05-2.86429E-05-1.87368E-07 2.95674E-19-5.50693E-19
 -1      3684 9.42881E-05-2.74748E-05-2.86265E-05 9.04547E-09-4.83845E-19-9.95424E-19
 -1      3685 9.47734E-05-2.79533E-05-2.86398E-05-2.01211E-07-2.78498E-19 2.16291E-19
 -1      3686 9.48779E-05-2.80744E-05-2.86319E-05-1.72320E-07 4.81623E-19 6.15244E-19
 -1      3687 9.46553E-05-2.78484E-05-2.86267E-05-7.54306E-08 3.74585E-19-9.30895E-20
 -1      3688 9.49691E-05-2.81752E-05-2.86273E-05-1.70872E-07 1.12854E-18 1.80532E-19
 -1      3689 9.50299E-05-2.82527E-05-2.86200E-05-1.44566E-07 1.45159E-18 5.72266E-19
 -1      3690 9.48859E-05-2.80981E-05-2.86204E-05-1.02289E-07 3.40721E-19 9.22688E-19
 -1      3691 9.50856E-05-2.83177E-05-2.86154E-05-1.36763E-07 2.20168E-18 7.40500E-19
 -1      3692 9.51202E-05-2.83670E-05-2.86093E-05-1.14888E-07 1.61997E-18 8.16024E-19
 -1      3693 9.50283E-05-2.82626E-05-2.86121E-05-1.01252E-07 1.48598E-18 1.62049E-18
 -1      3694 9.51524E-05-2.84070E-05-2.86054E-05-1.05834E-07 1.28991E-18-1.76400E-19
 -1      3695 9.51710E-05-2.84371E-05-2.86008E-05-8.91291E-08 6.37089E-19 8.38606E-19
 -1      3696 9.51134E-05-2.83678E-05-2.86042E-05-8.87351E-08 8.41689E-19 4.59326E-19
 -1      3697 9.51914E-05-2.84645E-05-2.85973E-05-7.96912E-08 7.23161E-19-1.64534E-19
 -1      3698 9.52021E-05-2.84847E-05-2.85936E-05-6.61600E-08 1.18187E-18 1.84578E-19
 -1      3699 9.51650E-05-2.84368E-05-2.85972E-05-7.25295E-08 7.40577E-19 7.36066E-20
 -1      3700 9.52141E-05-2.85022E-05-2.85908E-05-5.79611E-08 1.74163E-18 1.55093E-18
 -1      3701 9.52196E-05-2.85151E-05-2.85879E-05-4.77483E-08 2.16741E-18 2.29275E-18
 -1      3702 9.51967E-05-2.84829E-05-2.85913E-05-5.61547E-08 2.22286E-18 7.17090E-19
 -1      3703 9.52265E-05-2.85263E-05-2.85857E-05-4.10404E-08 2.41355E-18 2.66853E-18
 -1      3704 9.52291E-05-2.85345E-05-2.85836E-05-3.34128E-08 2.40189E-18 4.27040E-18
 -1      3705 9.52151E-05-2.85130E-05-2.85865E-05-4.17889E-08 2.34331E-18 8.81953E-19
 -1      3706 9.52330E-05-2.85419E-05-2.85818E-05-2.81871E-08 1.97678E-18 5.54850E-18
 -1      3707 9.52341E-05-2.85471E-05-2.85802E-05-2.26229E-08 1.59903E-18 5.38222E-18
 -1      3708 9.52257E-05-2.85327E-05-2.85827E-05-2.99908E-08 2.78492E-18 3.43291E-18
 -1      3709 1.05196E-04-2.73546E-05-3.33247E-05 1.02294E-05-6.90423E-19 2.11595E-18
 -1      3710 1.06366E-04-3.00615E-05-3.27644E-05 1.03991E-05-5.84729E-19 1.94192E-18
 -1      3711 9.66655E-05-2.83387E-05-2.92883E-05-4.38396E-07 5.91945E-19 2.44762E-19
 -1      3712 1.01093E-04-3.39767E-05-2.87685E-05-2.27223E-07 1.77142E-19 8.69155E-19
 -1      3713 1.00415E-04-3.33297E-05-2.87286E-05-6.16040E-07 1.50733E-19 5.61635E-19
 -1      3714 1.02152E-04-3.48275E-05-2.88819E-05-8.49912E-07 1.67313E-19 7.27153E-19
 -1      3715 7.26532E-05-1.76261E-05-2.32589E-05 2.35655E-05-1.20801E-18-7.47692E-19
 -1      3716 6.86990E-05-1.37606E-05-2.36024E-05 1.68752E-05-1.25622E-18 2.61601E-19
 -1      3717 7.43624E-05-1.55780E-05-2.51475E-05 1.35303E-05-1.95356E-18-4.49880E-19
 -1      3718 8.28952E-05-2.46315E-05-2.48890E-05 2.38045E-05-1.37046E-18 9.25119E-21
 -1      3719 1.07162E-04-3.24397E-05-3.20216E-05 9.57478E-06-2.73355E-19 2.04468E-18
 -1      3720 1.07762E-04-3.43448E-05-3.14914E-05 8.80912E-06 4.87074E-20 1.59722E-18
 -1      3721 1.09644E-04-3.22743E-05-3.31206E-05 1.03137E-05-4.20798E-19 3.10287E-18
 -1      3722 1.07569E-04-3.56167E-05-3.08571E-05 7.31434E-06 8.72572E-20 1.63586E-18
 -1      3723 1.07512E-04-3.65128E-05-3.04237E-05 6.16240E-06 1.62101E-19 1.73045E-18
 -1      3724 1.10259E-04-3.64057E-05-3.16297E-05 7.64032E-06-9.15358E-21 2.86081E-18
 -1      3725 1.02351E-04-2.17049E-05-3.45149E-05 8.19682E-06-3.32876E-19 2.32442E-18
 -1      3726 1.03674E-04-2.43998E-05-3.40463E-05 9.65378E-06-6.25534E-19 1.84942E-18
 -1      3727 1.07317E-04-2.63863E-05-3.46854E-05 1.05969E-05-4.03995E-19 2.77783E-18
 -1      3728 1.00146E-04-1.78244E-05-3.52565E-05 3.20301E-06-4.41946E-20 2.36186E-18
 -1      3729 1.00900E-04-1.93031E-05-3.50214E-05 5.78439E-06-9.57371E-20 2.27436E-18
 -1      3730 1.04064E-04-1.99246E-05-3.60661E-05 7.71234E-06-3.05028E-19 2.66612E-18
 -1      3731 1.00037E-04-1.77713E-05-3.52766E-05-3.09666E-06 1.12050E-18 1.61955E-18
 -1      3732 9.97820E-05-1.72804E-05-3.53607E-05-2.78440E-07 6.80229E-19 1.69983E-18
 -1      3733 1.02135E-04-1.65770E-05-3.67074E-05 1.64808E-06 7.67291E-19 2.00331E-18
 -1      3734 1.02087E-04-2.15386E-05-3.45947E-05-8.29708E-06 4.20762E-19 1.19117E-18
 -1      3735 1.01005E-04-1.93413E-05-3.49526E-05-6.23810E-06 9.18821E-19 1.22814E-18
 -1      3736 1.02764E-04-1.76669E-05-3.64802E-05-5.17174E-06 1.07172E-18 1.66873E-18
 -1      3737 1.04952E-04-2.71172E-05-3.34397E-05-1.06207E-05 4.02172E-19 1.28493E-18
 -1      3738 1.03705E-04-2.43265E-05-3.39690E-05-9.82204E-06 2.79521E-19 9.80331E-19
 -1      3739 1.05572E-04-2.30562E-05-3.53605E-05-9.83359E-06 3.96008E-19 1.12092E-18
 -1      3740 1.07096E-04-3.22245E-05-3.21196E-05-1.00965E-05-2.17582E-20 2.02313E-18
 -1      3741 1.06209E-04-2.98556E-05-3.26805E-05-1.04397E-05 5.50492E-19 1.72848E-18
 -1      3742 1.08511E-04-2.92410E-05-3.38952E-05-1.11391E-05 1.04958E-19 1.37865E-18
 -1      3743 1.07440E-04-3.52482E-05-3.09489E-05-7.89126E-06-1.45021E-20 1.31575E-18
 -1      3744 1.07227E-04-3.39354E-05-3.14286E-05-8.80720E-06 8.04987E-20 1.38516E-18
 -1      3745 1.09860E-04-3.43022E-05-3.24013E-05-9.52035E-06 2.44467E-19 1.12830E-18
 -1      3746 1.06474E-04-3.63904E-05-3.00190E-05-5.26966E-06 1.55369E-18-2.19607E-19
 -1      3747 1.06836E-04-3.59842E-05-3.03922E-05-6.39196E-06 8.79439E-19 7.00710E-19
 -1      3748 1.09363E-04-3.69942E-05-3.10216E-05-6.49878E-06 1.08978E-18 2.51652E-19
 -1      3749 1.04574E-04-3.59803E-05-2.93692E-05-3.01586E-06 9.17055E-19-9.78428E-19
 -1      3750 1.05294E-04-3.62271E-05-2.96258E-05-3.97980E-06 1.28462E-18-5.20850E-19
 -1      3751 1.07496E-04-3.74730E-05-3.00201E-05-3.55819E-06 1.51780E-18-3.86202E-19
 -1      3752 1.02427E-04-3.47974E-05-2.89550E-05-1.42890E-06 2.20694E-19 2.22206E-19
 -1      3753 1.03266E-04-3.53676E-05-2.91163E-05-2.13025E-06 4.46893E-19-9.09176E-19
 -1      3754 1.04946E-04-3.65157E-05-2.93510E-05-1.45492E-06 7.84308E-19-2.34260E-19
 -1      3755 1.00438E-04-3.33806E-05-2.87144E-05-4.54674E-07-3.23734E-19 4.43245E-19
 -1      3756 1.01233E-04-3.40394E-05-2.88057E-05-9.07444E-07 2.46075E-19 3.81415E-19
 -1      3757 1.02422E-04-3.49612E-05-2.89388E-05-1.69414E-07-3.90369E-20-1.39573E-19
 -1      3758 9.88064E-05-3.20567E-05-2.85889E-05 6.21093E-08-3.99610E-19 5.57891E-20
 -1      3759 9.94702E-05-3.26621E-05-2.86343E-05-2.03345E-07 1.05961E-19 5.35270E-19
 -1      3760 1.00259E-04-3.33353E-05-2.87064E-05 4.75985E-07-3.20362E-19 5.57859E-19
 -1      3761 9.75696E-05-3.09622E-05-2.85334E-05 2.90866E-07 3.71641E-19-9.97306E-19
 -1      3762 9.80803E-05-3.14581E-05-2.85512E-05 1.51037E-07-1.60748E-19-6.74628E-19
 -1      3763 9.85784E-05-3.19213E-05-2.85878E-05 7.07677E-07 1.05789E-19-1.21152E-19
 -1      3764 9.66871E-05-3.01274E-05-2.85174E-05 3.55119E-07-8.49503E-19-5.75249E-19
 -1      3765 9.70559E-05-3.05028E-05-2.85201E-05 2.92162E-07-2.72267E-19-9.72652E-19
 -1      3766 9.73552E-05-3.08051E-05-2.85369E-05 7.15315E-07-1.20252E-19-6.37685E-19
 -1      3767 9.60901E-05-2.95297E-05-2.85208E-05 3.37504E-07-3.58255E-20-8.91584E-21
 -1      3768 9.63422E-05-2.97968E-05-2.85165E-05 3.17333E-07-6.34954E-19-6.46331E-19
 -1      3769 9.65122E-05-2.99842E-05-2.85229E-05 6.19822E-07-8.39970E-19-5.07177E-19
 -1      3770 9.57050E-05-2.91235E-05-2.85320E-05 2.87196E-07 5.94438E-19-5.51988E-20
 -1      3771 9.58690E-05-2.93039E-05-2.85253E-05 2.88611E-07 4.35176E-19 2.15352E-19
 -1      3772 9.59591E-05-2.94141E-05-2.85266E-05 4.93938E-07 5.82890E-20-3.72024E-19
 -1      3773 9.54685E-05-2.88608E-05-2.85446E-05 2.29805E-07 1.39518E-18-8.32085E-19
 -1      3774 9.55700E-05-2.89766E-05-2.85380E-05 2.40627E-07 1.43275E-18-4.17855E-20
 -1      3775 9.56126E-05-2.90371E-05-2.85370E-05 3.73709E-07 1.09067E-18 2.94325E-19
 -1      3776 9.53312E-05-2.86994E-05-2.85556E-05 1.76989E-07 1.39147E-18-7.90622E-20
 -1      3777 9.53905E-05-2.87699E-05-2.85502E-05 1.90748E-07 1.31837E-18-4.49153E-19
 -1      3778 9.54062E-05-2.87996E-05-2.85486E-05 2.73228E-07 1.32599E-18-6.98688E-19
 -1      3779 9.52570E-05-2.86065E-05-2.85642E-05 1.32858E-07 1.76568E-18 5.18502E-20
 -1      3780 9.52893E-05-2.86466E-05-2.85601E-05 1.46411E-07 1.79787E-18 4.54384E-19
 -1      3781 9.52907E-05-2.86580E-05-2.85586E-05 1.95191E-07 1.42055E-18 1.06425E-18
 -1      3782 9.52212E-05-2.85575E-05-2.85701E-05 9.78611E-08 1.35267E-18 3.07011E-19
 -1      3783 9.52370E-05-2.85782E-05-2.85674E-05 1.09883E-07 1.47322E-18 1.68946E-20
 -1      3784 9.52316E-05-2.85794E-05-2.85661E-05 1.37235E-07 1.79387E-18 1.76117E-18
 -1      3785 9.52074E-05-2.85354E-05-2.85738E-05 7.09378E-08 1.70732E-19 1.27411E-19
 -1      3786 9.52137E-05-2.85444E-05-2.85721E-05 8.10228E-08 1.38713E-18 3.00294E-19
 -1      3787 9.52058E-05-2.85403E-05-2.85713E-05 9.53708E-08 9.54106E-19 1.71237E-18
 -1      3788 9.52054E-05-2.85289E-05-2.85758E-05 5.05962E-08-1.49496E-18-1.03782E-19
 -1      3789 9.52066E-05-2.85311E-05-2.85749E-05 5.87746E-08-8.17342E-19-3.53948E-19
 -1      3790 9.51984E-05-2.85249E-05-2.85745E-05 6.56282E-08-2.71817E-20-8.76222E-19
 -1      3791 9.52089E-05-2.85306E-05-2.85765E-05 3.54142E-08-6.01042E-19-5.79748E-19
 -1      3792 9.52077E-05-2.85294E-05-2.85763E-05 4.18938E-08-1.69573E-18-3.43650E-19
 -1      3793 9.52003E-05-2.85227E-05-2.85762E-05 4.46707E-08-1.16985E-18 2.82137E-19
 -1      3794 9.52144E-05-2.85362E-05-2.85765E-05 2.43200E-08-2.41028E-19-8.74259E-20
 -1      3795 9.52124E-05-2.85334E-05-2.85766E-05 2.92187E-08 2.51021E-19 2.07076E-19
 -1      3796 9.52063E-05-2.85272E-05-2.85767E-05 2.99286E-08-6.56848E-19 6.51009E-19
 -1      3797 9.52201E-05-2.85429E-05-2.85760E-05 1.57377E-08 1.50846E-18-4.36588E-19
 -1      3798 9.52179E-05-2.85396E-05-2.85763E-05 1.97102E-08 1.38000E-19-3.19268E-19
 -1      3799 9.52128E-05-2.85339E-05-2.85766E-05 1.96515E-08 3.74778E-19-1.31879E-20
 -1      3800 9.52258E-05-2.85410E-05-2.85792E-05-1.76298E-08 2.60617E-19 2.12822E-18
 -1      3801 9.52226E-05-2.85384E-05-2.85790E-05-1.57910E-08 5.45263E-19 1.42768E-18
 -1      3802 1.06601E-04-3.67622E-05-2.99547E-05 4.68620E-06 4.63992E-19 1.52388E-18
 -1      3803 1.06064E-04-3.68343E-05-2.96451E-05 3.57003E-06 3.07289E-19 1.72685E-18
 -1      3804 1.09046E-04-3.79485E-05-3.04612E-05 4.53011E-06 2.97467E-19 2.10538E-18
 -1      3805 9.21536E-05-3.37470E-05-2.51114E-05-2.89974E-05-1.06704E-18 1.61433E-19
 -1      3806 9.91884E-05-3.98289E-05-2.51510E-05-3.23089E-05-1.70968E-18 2.58279E-19
 -1      3807 1.06127E-04-4.34769E-05-2.67904E-05-2.80926E-05-1.94276E-18-1.18399E-19
 -1      3808 9.49229E-05-2.69192E-05-2.91401E-05 1.22310E-07 1.07378E-19 2.23480E-19
 -1      3809 9.44488E-05-2.67703E-05-2.90238E-05 4.11554E-08-2.29557E-20 2.49133E-19
 -1      3810 9.52792E-05-2.69861E-05-2.92598E-05-2.24353E-07 2.28995E-19 2.50869E-19
 -1      3811 9.52209E-05-2.85438E-05-2.85758E-05 9.68101E-09 8.96695E-19-2.47757E-19
 -1      3812 1.04848E-04-3.64409E-05-2.93369E-05 2.43432E-06 9.21124E-20 1.52519E-18
 -1      3813 1.04088E-04-3.60250E-05-2.91402E-05 1.54718E-06 4.36354E-20 1.43392E-18
 -1      3814 1.04379E-04-3.64257E-05-2.91506E-05 1.67051E-07 3.86872E-21 1.18275E-18
 -1      3815 9.52196E-05-2.85361E-05-2.85787E-05-1.24366E-08 4.52851E-20 1.72300E-18
 -1      3816 9.52173E-05-2.85346E-05-2.85783E-05-9.60465E-09 1.57553E-19-2.22055E-20
 -1      3817 9.52178E-05-2.85315E-05-2.85797E-05-1.58431E-08 4.72493E-19 1.77658E-18
 -1      3818 9.52157E-05-2.85341E-05-2.85779E-05-5.45399E-09 4.68252E-19-2.94119E-18
 -1      3819 9.52148E-05-2.85339E-05-2.85775E-05-2.20204E-09 1.20722E-18-2.93845E-18
 -1      3820 9.52126E-05-2.85287E-05-2.85788E-05-7.85070E-09 1.16431E-18-1.99123E-18
 -1      3821 9.36584E-05-2.07964E-05-3.12348E-05-2.66560E-07 8.89061E-19-6.08925E-19
 -1      3822 9.36805E-05-2.08630E-05-3.12217E-05-7.90427E-07 6.37166E-19-8.22153E-19
 -1      3823 9.44068E-05-2.21851E-05-3.09370E-05-7.28520E-07 4.87733E-19-6.29847E-19
 -1      3824 9.43883E-05-2.20797E-05-3.09698E-05-9.06276E-08 8.78784E-19-4.72251E-19
 -1      3825 9.54729E-05-2.50992E-05-3.01564E-05-9.11877E-07-3.04955E-20-6.88337E-19
 -1      3826 9.55716E-05-2.57378E-05-2.99414E-05-4.61168E-07 2.06411E-20-5.76682E-19
 -1      3827 9.42877E-05-2.19837E-05-3.09978E-05 2.47061E-06 1.53635E-18-2.09638E-19
 -1      3828 9.40490E-05-2.14934E-05-3.11012E-05 2.03412E-06 1.58453E-18-4.73982E-19
 -1      3829 9.46205E-05-2.25555E-05-3.08709E-05 1.41157E-06 1.48977E-18-3.63004E-19
 -1      3830 9.46739E-05-2.27612E-05-3.08116E-05 2.18630E-06 1.55412E-18-7.94563E-20
 -1      3831 9.56632E-05-2.62568E-05-2.97414E-05-2.29975E-07 5.23403E-20-3.96235E-19
 -1      3832 9.55741E-05-2.66009E-05-2.95725E-05 4.22658E-08 1.17274E-19-1.55960E-19
 -1      3833 9.56446E-05-2.66467E-05-2.95632E-05-1.78692E-07 2.61057E-19-2.17997E-19
 -1      3834 9.50489E-05-2.39519E-05-3.04769E-05-1.39088E-06-4.34146E-20-8.34663E-19
 -1      3835 9.64707E-05-2.73185E-05-2.96439E-05-5.31208E-08 7.92410E-19 1.01786E-20
 -1      3836 9.62702E-05-2.66117E-05-2.98392E-05 3.48074E-07 9.59458E-19-1.06365E-19
 -1      3837 9.96457E-05-3.26528E-05-2.87110E-05-8.05094E-07 1.40682E-19 2.27070E-19
 -1      3838 9.91173E-05-3.20634E-05-2.87203E-05-1.01797E-06 1.80049E-19-9.33369E-20
 -1      3839 1.00375E-04-3.32798E-05-2.87802E-05-1.32245E-06-1.59973E-19 4.94195E-19
 -1      3840 9.45720E-05-2.68960E-05-2.89928E-05-6.77446E-07-7.16164E-20 3.71033E-19
 -1      3841 1.25345E-04-5.37508E-05-3.06818E-05-1.89900E-05-3.17884E-18 6.05496E-20
 -1      3842 1.27166E-04-5.24845E-05-3.19587E-05-1.21477E-05-2.82638E-18 4.69561E-19
 -1      3843 1.18563E-04-5.08675E-05-2.90808E-05-2.29537E-05-2.82369E-18-2.26134E-19
 -1      3844 1.24817E-04-3.40320E-05-3.90342E-05-1.15648E-05 1.55346E-18-1.13428E-18
 -1      3845 1.22664E-04-4.23025E-05-3.44865E-05-5.38128E-06 9.59794E-19-2.73167E-18
 -1      3846 1.26405E-04-4.76144E-05-3.37587E-05 3.93504E-07 7.11236E-19-2.43179E-18
 -1      3847 1.21246E-04-4.65563E-05-3.20658E-05 3.46437E-06 1.26856E-20-2.25094E-18
 -1      3848 1.13838E-04-4.48346E-05-2.94502E-05 1.42765E-05-8.90493E-19-9.61872E-19
 -1      3849 1.08034E-04-4.14122E-05-2.86392E-05 1.59850E-05-1.51405E-18 3.66353E-19
 -1      3850 1.18235E-04-2.12513E-05-4.15616E-05-1.24930E-05 1.87035E-18 1.83052E-19
 -1      3851 1.32696E-04-4.84824E-05-3.61534E-05 1.50889E-06-2.04286E-18 1.62609E-18
 -1      3852 1.28965E-04-4.33775E-05-3.67249E-05 6.31305E-06-1.37029E-18 1.67372E-18
 -1      3853 1.29508E-04-4.93938E-05-3.43770E-05-2.04664E-06-2.06280E-18 1.09685E-18
 -1      3854 7.94465E-05-1.91566E-05-2.57053E-05 1.54031E-05-1.75949E-18 3.99293E-19
 -1      3855 1.25024E-04-3.71772E-05-3.77227E-05 1.02086E-05-7.21990E-19 2.18371E-18
 -1      3856 1.24596E-04-3.34704E-05-3.91961E-05 1.19241E-05-7.67028E-19 2.59929E-18
 -1      3857 1.19801E-04-3.07500E-05-3.81634E-05 1.24385E-05-7.41035E-19 2.07113E-18
 -1      3858 9.52367E-05-2.85529E-05-2.85787E-05-1.82517E-08-2.82722E-21 5.70999E-18
 -1      3859 9.68875E-05-2.85056E-05-2.93093E-05-6.03133E-07 5.54098E-19 6.37180E-20
 -1      3860 9.67174E-05-2.79542E-05-2.94621E-05-3.44241E-07 6.61974E-19-3.44538E-20
 -1      3861 9.66391E-05-2.74489E-05-2.96562E-05-2.31789E-07 7.83539E-19-1.81342E-19
 -1      3862 8.89027E-05-2.83279E-05-2.58768E-05 2.29925E-05-1.10073E-18 6.63994E-20
 -1      3863 8.22623E-05-2.26642E-05-2.56398E-05 1.90684E-05-1.41122E-18 3.80702E-20
 -1      3864 8.49814E-05-2.27862E-05-2.65326E-05 1.48216E-05-9.57352E-19 9.54590E-19
 -1      3865 9.52109E-05-2.85292E-05-2.85778E-05 9.17091E-10 1.39005E-18-2.18155E-18
 -1      3866 9.52146E-05-2.85348E-05-2.85771E-05 1.99067E-09 3.94860E-19-2.01331E-18
 -1      3867 9.52149E-05-2.85357E-05-2.85768E-05 5.27544E-09 4.73963E-19-1.28417E-18
 -1      3868 9.52296E-05-2.85440E-05-2.85796E-05-2.00306E-08 3.12374E-19 3.49867E-18
 -1      3869 9.52252E-05-2.85369E-05-2.85806E-05-2.22467E-08 2.35310E-18 2.51963E-18
 -1      3870 9.72983E-05-2.95058E-05-2.90539E-05-9.41816E-07 4.64557E-19-5.87880E-20
 -1      3871 9.71068E-05-2.90269E-05-2.91685E-05-8.04121E-07 5.79381E-19 7.22171E-20
 -1      3872 9.70962E-05-2.86740E-05-2.93296E-05-7.55780E-07 6.67901E-19-4.62347E-20
 -1      3873 1.06840E-04-3.76885E-05-2.96524E-05 1.93522E-06 9.55929E-20 1.16379E-18
 -1      3874 9.52323E-05-2.85467E-05-2.85795E-05-2.02644E-08 3.29384E-19 5.58644E-18
 -1      3875 9.51359E-05-2.40722E-05-3.04493E-05-1.14626E-06 5.03735E-20-8.18216E-19
 -1      3876 9.60609E-05-3.29140E-05-2.70649E-05 1.98382E-05-1.40362E-18 1.24289E-19
 -1      3877 9.56504E-05-2.57962E-05-2.99302E-05-4.75713E-07 1.12952E-19-4.78435E-19
 -1      3878 1.11074E-04-1.96163E-05-3.92680E-05 1.05973E-05 6.48311E-19 3.50364E-18
 -1      3879 1.08570E-04-1.64505E-05-3.96915E-05 8.13302E-06 9.36871E-19 2.38321E-18
 -1      3880 1.16050E-04-4.54867E-05-3.02417E-05 1.03945E-05-7.78738E-19-1.43480E-18
 -1      3881 9.50567E-05-2.34956E-05-3.06742E-05 5.91711E-07 1.23909E-18-4.39519E-19
 -1      3882 9.49508E-05-2.32910E-05-3.07184E-05 2.45264E-07 1.07189E-18-5.02682E-19
 -1      3883 1.09683E-04-1.27580E-05-4.17506E-05-5.56242E-06 1.75365E-18 1.11950E-18
 -1      3884 1.10139E-04-1.59198E-05-4.04503E-05-8.21135E-06 2.01530E-18 1.40701E-18
 -1      3885 1.07439E-04-1.28100E-05-4.06337E-05-2.46041E-06 1.63671E-18 1.70159E-18
 -1      3886 9.53055E-05-2.41763E-05-3.04687E-05 1.67863E-06 1.42763E-18-4.06004E-20
 -1      3887 9.49931E-05-2.34925E-05-3.06459E-05 1.96362E-06 1.57324E-18-1.07635E-19
 -1      3888 9.49473E-05-2.33579E-05-3.06909E-05 1.60515E-06 1.57600E-18-4.08635E-19
 -1      3889 9.49892E-05-2.33944E-05-3.06868E-05 1.25174E-06 1.41302E-18-3.00885E-19
 -1      3890 9.49815E-05-2.33678E-05-3.07011E-05 8.92648E-07 1.31459E-18-3.85973E-19
 -1      3891 9.54400E-05-2.42433E-05-3.04966E-05 4.77075E-07 1.07882E-18-3.69798E-19
 -1      3892 9.53413E-05-2.40818E-05-3.05239E-05 1.06684E-06 1.33647E-18-2.33564E-19
 -1      3893 9.57206E-05-2.53445E-05-3.01740E-05 1.00171E-06 1.31034E-18-2.45511E-19
 -1      3894 9.58653E-05-2.54788E-05-3.01706E-05 7.04882E-07 1.12922E-18-1.76783E-19
 -1      3895 1.13931E-04-2.51563E-05-3.81015E-05 1.20923E-05-2.73089E-19 3.93986E-18
 -1      3896 1.12356E-04-2.21526E-05-3.87969E-05 1.13984E-05 5.00590E-19 4.19866E-18
 -1      3897 9.58472E-05-2.65520E-05-2.96938E-05-3.96250E-07 3.18078E-19-1.91150E-19
 -1      3898 9.57511E-05-2.68868E-05-2.95263E-05-3.37922E-07 3.73788E-19-1.68022E-19
 -1      3899 1.15979E-04-2.54514E-05-3.88719E-05-1.21565E-05 1.30112E-18 3.87809E-19
 -1      3900 1.20906E-04-2.97514E-05-3.93060E-05-1.27261E-05 1.17856E-18-2.22465E-19
 -1      3901 1.21760E-04-3.62474E-05-3.65464E-05-1.04417E-05 8.68315E-19-9.02659E-19
 -1      3902 9.52175E-05-2.85394E-05-2.85763E-05 1.01944E-08 1.12030E-18-2.35982E-19
 -1      3903 9.36405E-05-2.69528E-05-2.85549E-05-3.39412E-06-3.20588E-20 7.72459E-19
 -1      3904 9.29167E-05-2.67459E-05-2.83920E-05-4.45036E-06-1.21862E-19 9.96940E-19
 -1      3905 9.27549E-05-2.67806E-05-2.82344E-05-5.78401E-06-3.13415E-19 1.05916E-18
 -1      3906 9.19432E-05-2.66744E-05-2.80003E-05-7.52695E-06-4.27130E-19 9.63451E-19
 -1      3907 9.42477E-05-2.80450E-05-2.83801E-05-5.73253E-06-1.46997E-19 7.38784E-19
 -1      3908 8.53052E-05-2.25384E-05-2.70035E-05 1.14540E-05-6.91402E-19 1.19748E-18
 -1      3909 8.72303E-05-2.29787E-05-2.74640E-05 8.94961E-06-1.46220E-18 1.45432E-18
 -1      3910 1.04534E-04-4.13479E-05-2.71646E-05-2.45604E-05-1.20968E-18 1.42937E-20
 -1      3911 1.11905E-04-4.65032E-05-2.78889E-05-2.47989E-05-2.10739E-18-2.65497E-19
 -1      3912 1.16203E-04-4.78277E-05-2.92247E-05-1.91194E-05-2.32966E-18-5.39156E-20
 -1      3913 8.77471E-05-2.32196E-05-2.77294E-05 6.87673E-06-2.12896E-18 1.84844E-18
 -1      3914 8.92213E-05-2.38542E-05-2.79953E-05 5.30505E-06-8.38772E-19 1.86109E-18
 -1      3915 8.96294E-05-2.51245E-05-2.76823E-05 9.30016E-06-1.41993E-18 2.32437E-18
 -1      3916 8.98572E-05-2.42802E-05-2.81512E-05 4.06224E-06-6.90921E-19 1.61028E-18
 -1      3917 9.09209E-05-2.48766E-05-2.82910E-05 3.15181E-06-6.33598E-19 1.08832E-18
 -1      3918 9.06947E-05-2.51854E-05-2.80765E-05 5.79084E-06-9.77865E-19 2.68573E-18
 -1      3919 9.14888E-05-2.53330E-05-2.83866E-05 2.27802E-06 1.86624E-19-2.81629E-19
 -1      3920 9.22887E-05-2.58559E-05-2.84640E-05 1.72045E-06 1.17867E-18 3.16509E-19
 -1      3921 9.19064E-05-2.58015E-05-2.83172E-05 3.47135E-06-8.51678E-19 2.70391E-18
 -1      3922 9.27299E-05-2.62439E-05-2.85161E-05 1.19477E-06 1.29828E-18-1.77840E-19
 -1      3923 9.32724E-05-2.66415E-05-2.85530E-05 8.85827E-07 1.05700E-18-2.71026E-19
 -1      3924 9.28715E-05-2.64324E-05-2.84616E-05 1.98583E-06 5.72088E-19 1.00055E-18
 -1      3925 9.35976E-05-2.69447E-05-2.85794E-05 5.76316E-07 9.19532E-19-6.37281E-19
 -1      3926 9.39561E-05-2.72335E-05-2.85945E-05 4.14010E-07 8.04958E-19-3.88951E-19
 -1      3927 9.36134E-05-2.69965E-05-2.85405E-05 1.08909E-06 7.97536E-19-9.24470E-19
 -1      3928 9.41853E-05-2.74572E-05-2.86063E-05 2.37461E-07-1.66395E-19 3.27296E-19
 -1      3929 9.44169E-05-2.76596E-05-2.86103E-05 1.58074E-07-2.21744E-19 2.81602E-19
 -1      3930 9.41501E-05-2.74470E-05-2.85801E-05 5.61252E-07 1.03548E-18 1.39357E-20
 -1      3931 9.45732E-05-2.78185E-05-2.86143E-05 6.15010E-08 3.25947E-19 2.51832E-19
 -1      3932 9.47198E-05-2.79570E-05-2.86131E-05 2.73570E-08 6.44773E-19 3.49933E-19
 -1      3933 9.45232E-05-2.77849E-05-2.85973E-05 2.60983E-07 3.46882E-19 9.29953E-19
 -1      3934 9.48239E-05-2.80670E-05-2.86131E-05-2.23642E-08 4.52593E-19 7.08054E-19
 -1      3935 9.49151E-05-2.81601E-05-2.86098E-05-3.29221E-08 1.21427E-18 1.29051E-18
 -1      3936 9.47752E-05-2.80284E-05-2.86026E-05 9.75405E-08 7.81373E-19 8.34034E-19
 -1      3937 9.49832E-05-2.82348E-05-2.86081E-05-5.60654E-08 1.45395E-18 9.51668E-19
 -1      3938 9.50390E-05-2.82967E-05-2.86044E-05-5.51673E-08 9.87297E-19 8.12857E-19
 -1      3939 9.49420E-05-2.81994E-05-2.86019E-05 1.41296E-08 1.35348E-18 7.44431E-19
 -1      3940 9.50811E-05-2.83448E-05-2.86022E-05-6.36109E-08 2.87694E-19 8.61815E-19
 -1      3941 9.51137E-05-2.83841E-05-2.85988E-05-5.81236E-08 2.47073E-19 5.10208E-19
 -1      3942 9.50484E-05-2.83149E-05-2.85987E-05-2.35489E-08 6.52261E-19 6.77685E-19
 -1      3943 9.51423E-05-2.84185E-05-2.85964E-05-5.95441E-08-5.69517E-20 3.94160E-19
 -1      3944 9.51630E-05-2.84460E-05-2.85933E-05-5.23147E-08 1.04901E-18 5.69143E-19
 -1      3945 9.51175E-05-2.83947E-05-2.85946E-05-3.71590E-08-7.04938E-20 1.29448E-18
 -1      3946 9.51811E-05-2.84690E-05-2.85912E-05-5.01419E-08 2.04754E-18 3.42544E-20
 -1      3947 9.51933E-05-2.84871E-05-2.85886E-05-4.30466E-08 2.50892E-18-1.80241E-19
 -1      3948 9.51629E-05-2.84506E-05-2.85905E-05-3.85886E-08 4.87496E-19 7.57210E-19
 -1      3949 9.52047E-05-2.85024E-05-2.85867E-05-3.95745E-08 2.93515E-18 4.49457E-19
 -1      3950 9.52116E-05-2.85145E-05-2.85847E-05-3.33354E-08 2.47784E-18 1.16507E-18
 -1      3951 9.51916E-05-2.84887E-05-2.85867E-05-3.41618E-08 2.52149E-18 1.18709E-18
 -1      3952 9.52174E-05-2.85228E-05-2.85834E-05-3.01810E-08 2.67960E-18 1.45343E-18
 -1      3953 9.52215E-05-2.85311E-05-2.85817E-05-2.51277E-08 3.28626E-18 2.68122E-18
 -1      3954 9.52174E-05-2.85279E-05-2.85812E-05-2.20343E-08 3.29713E-18 2.54415E-18
 -1      3955 9.52079E-05-2.85126E-05-2.85836E-05-2.79184E-08 3.20943E-18 3.37871E-18
 -1      3956 1.04801E-04-1.78952E-05-3.72053E-05 7.25058E-06 2.69661E-19 2.93569E-18
 -1      3957 1.06379E-04-2.12072E-05-3.66189E-05 9.47542E-06-3.62011E-19 3.39075E-18
 -1      3958 1.08617E-04-3.89957E-05-2.98609E-05 8.00491E-07-2.91912E-21 1.18427E-18
 -1      3959 1.07389E-04-3.83664E-05-2.95344E-05-2.08944E-07 1.40915E-19 1.18781E-18
 -1      3960 9.56540E-05-2.54481E-05-3.00895E-05-6.48107E-07 1.34679E-19-4.51206E-19
 -1      3961 9.57541E-05-2.60493E-05-2.98842E-05-4.22083E-07 2.79577E-19-3.45884E-19
 -1      3962 9.58992E-05-2.62556E-05-2.98415E-05-5.33146E-07 4.02582E-19-1.27328E-19
 -1      3963 1.02958E-04-3.54411E-05-2.89366E-05-1.77885E-06-1.71090E-19 6.95990E-19
 -1      3964 1.01932E-04-3.45458E-05-2.88510E-05-2.03951E-06-2.10178E-19 4.14352E-19
 -1      3965 1.11469E-04-3.95540E-05-3.08446E-05 3.63094E-06-2.89490E-19 2.35572E-18
 -1      3966 1.10502E-04-3.96357E-05-3.03344E-05 2.15243E-06-4.40113E-19 1.70557E-18
 -1      3967 1.10794E-04-4.04458E-05-3.01770E-05-2.23034E-07-5.16578E-19 1.35836E-18
 -1      3968 1.13125E-04-3.78635E-05-3.22862E-05 7.15659E-06-6.66972E-19 3.28150E-18
 -1      3969 1.12869E-04-3.91413E-05-3.15876E-05 5.59050E-06-3.35751E-19 2.91386E-18
 -1      3970 1.14281E-04-4.09145E-05-3.14097E-05 3.17074E-06-9.56959E-19 2.31323E-18
 -1      3971 1.04592E-04-1.38024E-05-3.89606E-05-3.18368E-07 1.34911E-18 1.63826E-18
 -1      3972 1.05029E-04-1.46103E-05-3.88461E-05 3.33642E-06 1.29180E-18 1.79902E-18
 -1      3973 1.13147E-04-3.21077E-05-3.48812E-05-1.09905E-05 7.11971E-20 6.43335E-19
 -1      3974 1.12134E-04-2.86479E-05-3.57668E-05-1.16809E-05 2.22723E-19 8.75634E-19
 -1      3975 1.15305E-04-3.98047E-05-3.23411E-05-5.63601E-06 1.12535E-18-5.95656E-19
 -1      3976 1.15385E-04-3.80356E-05-3.31665E-05-7.34362E-06 4.99700E-19-6.74356E-19
 -1      3977 1.08356E-04-3.85116E-05-2.98779E-05-1.21939E-06 1.11491E-18-2.92715E-19
 -1      3978 1.09549E-04-3.89145E-05-3.02997E-05-2.39675E-06 1.55328E-18-3.06969E-19
 -1      3979 1.05065E-04-3.67484E-05-2.92308E-05 5.31302E-07 5.39175E-19-3.06618E-19
 -1      3980 1.06385E-04-3.76080E-05-2.94963E-05-1.84157E-07 8.15790E-19 1.02535E-20
 -1      3981 1.08213E-04-3.89835E-05-2.97249E-05 1.06639E-06 5.54754E-19-1.12061E-18
 -1      3982 1.02148E-04-3.47436E-05-2.88564E-05 1.34916E-06-2.90117E-19-2.05910E-19
 -1      3983 1.03369E-04-3.56949E-05-2.90101E-05 9.79653E-07 7.06979E-20-6.13101E-20
 -1      3984 1.04516E-04-3.67027E-05-2.91189E-05 2.24922E-06 4.69844E-19-6.01371E-19
 -1      3985 9.98591E-05-3.29368E-05-2.86583E-05 1.52476E-06-2.52162E-19-2.88656E-19
 -1      3986 1.00839E-04-3.37686E-05-2.87401E-05 1.39950E-06 1.21215E-19 2.22797E-19
 -1      3987 1.01478E-04-3.43949E-05-2.87891E-05 2.51394E-06 1.69266E-20-4.21579E-19
 -1      3988 9.81793E-05-3.14970E-05-2.85638E-05 1.39879E-06 6.62596E-19-1.32616E-18
 -1      3989 9.89113E-05-3.21576E-05-2.86020E-05 1.40822E-06 1.78577E-19-8.47685E-19
 -1      3990 9.92573E-05-3.25431E-05-2.86216E-05 2.29924E-06 2.92184E-19-1.88597E-18
 -1      3991 9.70170E-05-3.04312E-05-2.85286E-05 1.14529E-06-4.21343E-19-1.28639E-18
 -1      3992 9.75347E-05-3.09182E-05-2.85420E-05 1.21472E-06 8.94857E-20-1.11718E-18
 -1      3993 9.76920E-05-3.11297E-05-2.85479E-05 1.87830E-06 4.85134E-19-1.55046E-18
 -1      3994 9.62537E-05-2.96896E-05-2.85232E-05 8.72918E-07-4.04619E-19-2.06446E-18
 -1      3995 9.66008E-05-3.00273E-05-2.85242E-05 9.58210E-07-9.78070E-19-2.08152E-18
 -1      3996 9.66565E-05-3.01315E-05-2.85249E-05 1.42341E-06-9.11758E-20-1.77448E-18
 -1      3997 9.57742E-05-2.91978E-05-2.85307E-05 6.34135E-07 1.89945E-19-1.68951E-18
 -1      3998 9.59963E-05-2.94211E-05-2.85264E-05 7.13568E-07 2.55643E-19-1.53051E-18
 -1      3999 9.60025E-05-2.94645E-05-2.85255E-05 1.02469E-06-4.81274E-19-2.13461E-18
 -1      4000 9.54869E-05-2.88867E-05-2.85422E-05 4.44967E-07 6.24449E-19-1.66152E-18
 -1      4001 9.56225E-05-2.90274E-05-2.85364E-05 5.10260E-07 1.58420E-19-1.77058E-18
 -1      4002 9.56073E-05-2.90383E-05-2.85352E-05 7.09573E-07 5.42080E-19-2.33138E-18
 -1      4003 9.53244E-05-2.86995E-05-2.85534E-05 3.04361E-07 7.44841E-19 1.01380E-19
 -1      4004 9.54027E-05-2.87836E-05-2.85480E-05 3.54323E-07 3.45822E-20-4.38332E-19
 -1      4005 9.53807E-05-2.87788E-05-2.85470E-05 4.76602E-07-1.33595E-19-1.34916E-18
 -1      4006 9.52395E-05-2.85941E-05-2.85625E-05 2.04275E-07 5.11946E-19 1.81203E-18
 -1      4007 9.52815E-05-2.86410E-05-2.85582E-05 2.40817E-07 1.07879E-18 1.03244E-18
 -1      4008 9.52595E-05-2.86296E-05-2.85575E-05 3.12356E-07-1.29996E-19 1.00857E-18
 -1      4009 9.52008E-05-2.85402E-05-2.85691E-05 1.35196E-07 1.67969E-18 2.91917E-18
 -1      4010 9.52208E-05-2.85638E-05-2.85660E-05 1.61139E-07 1.23416E-18 2.88447E-18
 -1      4011 9.52015E-05-2.85505E-05-2.85657E-05 2.00633E-07 2.85757E-19 2.27227E-18
 -1      4012 9.51879E-05-2.85174E-05-2.85734E-05 8.85059E-08 1.75560E-18 2.11157E-18
 -1      4013 9.51954E-05-2.85270E-05-2.85714E-05 1.06604E-07 1.91352E-18 2.54351E-18
 -1      4014 9.51796E-05-2.85142E-05-2.85714E-05 1.26736E-07 2.17725E-18 2.62230E-18
 -1      4015 9.51886E-05-2.85121E-05-2.85758E-05 5.73976E-08-1.66918E-19 1.37036E-18
 -1      4016 9.51894E-05-2.85139E-05-2.85747E-05 6.98997E-08 1.27312E-18 2.35693E-18
 -1      4017 9.51770E-05-2.85026E-05-2.85749E-05 7.88894E-08 1.59273E-18 2.90321E-18
 -1      4018 9.51952E-05-2.85161E-05-2.85770E-05 3.68774E-08-8.68539E-19 7.80750E-19
 -1      4019 9.51930E-05-2.85139E-05-2.85765E-05 4.54501E-08-5.48610E-19 5.52012E-19
 -1      4020 9.51835E-05-2.85043E-05-2.85768E-05 4.84398E-08-1.22399E-19 2.47023E-18
 -1      4021 9.52035E-05-2.85239E-05-2.85772E-05 2.30867E-08 4.38823E-19 1.83975E-19
 -1      4022 9.52004E-05-2.85201E-05-2.85771E-05 2.91306E-08-8.42610E-19 1.56845E-19
 -1      4023 9.51932E-05-2.85121E-05-2.85775E-05 2.92420E-08-3.83537E-19-2.82772E-19
 -1      4024 9.49822E-05-2.35794E-05-3.06073E-05-1.13784E-06 2.02918E-19-7.04101E-19
 -1      4025 9.54205E-05-2.47519E-05-3.02900E-05-7.49053E-07 8.25261E-20-5.77064E-19
 -1      4026 9.55567E-05-2.49862E-05-3.02363E-05-6.63563E-07 2.25864E-19-2.74761E-19
 -1      4027 9.48911E-05-2.33307E-05-3.06698E-05-9.00864E-07 2.69326E-19-5.57392E-19
 -1      4028 1.05607E-04-3.73688E-05-2.92587E-05-9.49260E-07-1.37588E-19 1.26989E-18
 -1      4029 1.04390E-04-3.64616E-05-2.90726E-05-1.52519E-06-1.04564E-19 1.15704E-18
 -1      4030 1.03867E-04-3.62729E-05-2.90128E-05-2.88627E-06-6.13910E-19 6.70635E-19
 -1      4031 1.07095E-04-3.85593E-05-2.94194E-05-2.13009E-06-9.77959E-20 1.13572E-18
 -1      4032 1.07168E-04-3.98588E-05-2.88556E-05 1.25470E-05-1.00265E-18-2.30949E-20
 -1      4033 1.04000E-04-3.80847E-05-2.81035E-05 1.70144E-05-1.54537E-18 1.05634E-18
 -1      4034 9.52214E-05-2.73259E-05-2.90878E-05-9.05397E-07 1.40155E-19 2.29736E-20
 -1      4035 9.47811E-05-2.72619E-05-2.89568E-05-1.26651E-06 1.26352E-21 1.11999E-19
 -1      4036 1.07351E-04-1.51492E-05-3.95819E-05 5.63824E-06 1.25554E-18 1.97169E-18
 -1      4037 9.67734E-05-2.76308E-05-2.96348E-05-4.58347E-07 6.98976E-19-2.00374E-19
 -1      4038 9.65244E-05-2.69366E-05-2.98219E-05-1.40351E-07 8.34730E-19-2.00944E-19
 -1      4039 9.27312E-05-3.18588E-05-2.61330E-05-2.30480E-05-7.75177E-19 2.15173E-19
 -1      4040 9.56831E-05-2.71434E-05-2.93674E-05-4.63133E-07 3.22883E-19-1.45623E-19
 -1      4041 9.54112E-05-2.72546E-05-2.92256E-05-5.91172E-07 2.44977E-19-2.14343E-21
 -1      4042 9.59228E-05-2.71039E-05-2.94890E-05-6.47451E-07 3.36238E-19-3.97158E-19
 -1      4043 1.08508E-04-2.13834E-05-3.73713E-05 1.01630E-05-5.47527E-20 4.28574E-18
 -1      4044 9.54561E-05-2.42874E-05-3.04877E-05-2.67717E-09 8.07321E-19-3.10968E-19
 -1      4045 9.48997E-05-2.32059E-05-3.07326E-05 8.13375E-09 9.39285E-19-3.80090E-19
 -1      4046 9.48829E-05-2.31940E-05-3.07326E-05-2.96179E-07 7.19269E-19-2.51851E-19
 -1      4047 9.64665E-05-3.23488E-05-2.74557E-05 1.66052E-05-6.75621E-19 5.67343E-19
 -1      4048 9.52131E-05-2.85252E-05-2.85806E-05-1.71235E-08 2.03382E-18 2.60340E-18
 -1      4049 9.52100E-05-2.85230E-05-2.85801E-05-1.31978E-08 1.61958E-18 2.44183E-18
 -1      4050 9.52092E-05-2.85184E-05-2.85817E-05-1.98010E-08 3.47955E-18 3.23436E-18
 -1      4051 9.52079E-05-2.85227E-05-2.85794E-05-7.46642E-09 2.39269E-18-1.58651E-18
 -1      4052 9.52066E-05-2.85225E-05-2.85789E-05-2.83227E-09 1.85970E-18-4.12783E-18
 -1      4053 9.52032E-05-2.85159E-05-2.85802E-05-8.24160E-09 2.55456E-18-9.01637E-19
 -1      4054 9.52133E-05-2.85343E-05-2.85768E-05 1.05272E-08 7.07341E-19-1.04673E-18
 -1      4055 9.59230E-05-2.55382E-05-3.01733E-05 4.33246E-07 1.00641E-18-1.49211E-19
 -1      4056 8.87276E-05-2.58834E-05-2.70076E-05 1.47309E-05-5.33404E-19 5.65027E-19
 -1      4057 9.45206E-05-2.72152E-05-2.88289E-05-1.82385E-06-1.65198E-20 2.70134E-19
 -1      4058 9.39109E-05-2.70292E-05-2.86896E-05-2.50225E-06-5.52433E-20 5.65149E-19
 -1      4059 9.46990E-05-2.78209E-05-2.86629E-05-3.47422E-06 6.22720E-20 6.67264E-19
 -1      4060 9.52245E-05-2.77311E-05-2.89230E-05-1.99988E-06 1.76714E-19-3.18132E-20
 -1      4061 1.07686E-04-2.31422E-05-3.62036E-05 1.06446E-05-1.25205E-19 3.86363E-18
 -1      4062 1.04325E-04-1.49378E-05-3.83121E-05-3.84294E-06 1.36967E-18 1.51781E-18
 -1      4063 9.43905E-05-3.15283E-05-2.69069E-05-1.89651E-05-7.02283E-19 2.99889E-19
 -1      4064 1.00207E-04-3.69415E-05-2.69429E-05-2.24783E-05-8.00148E-19 1.43226E-19
 -1      4065 9.90759E-05-3.19304E-05-2.87966E-05-1.44824E-06 1.33978E-19 1.82496E-19
 -1      4066 9.85737E-05-3.14823E-05-2.87514E-05-1.06333E-06 3.60140E-19-1.72409E-19
 -1      4067 9.81923E-05-3.09652E-05-2.87988E-05-1.14358E-06 3.54883E-19 9.28458E-20
 -1      4068 1.05266E-04-1.68884E-05-3.79203E-05-6.93143E-06 1.22298E-18 1.83597E-18
 -1      4069 1.22811E-04-5.00102E-05-3.12358E-05-1.10998E-05-2.43545E-18 3.59231E-19
 -1      4070 1.26566E-04-5.06552E-05-3.26229E-05-6.64885E-06-2.39670E-18 7.82953E-19
 -1      4071 1.25621E-04-4.75603E-05-3.34326E-05-1.10001E-06-2.12199E-18 1.10441E-18
 -1      4072 9.28586E-05-2.86271E-05-2.74420E-05-1.34059E-05-4.57313E-19 5.12958E-19
 -1      4073 9.27449E-05-2.94800E-05-2.70669E-05-1.63826E-05-7.52207E-19 4.23351E-19
 -1      4074 9.86724E-05-3.44438E-05-2.76861E-05-1.62729E-05-7.75887E-19 5.84276E-19
 -1      4075 9.78231E-05-3.04592E-05-2.88685E-05-1.09501E-06 3.09561E-19 1.56779E-19
 -1      4076 9.75585E-05-2.99867E-05-2.89493E-05-1.06535E-06 2.35170E-19 1.01371E-19
 -1      4077 9.81787E-05-3.07772E-05-2.89012E-05-1.35983E-06 3.62095E-19 4.66750E-20
 -1      4078 9.23460E-05-2.71931E-05-2.78589E-05-9.14731E-06-6.06495E-19 7.84972E-19
 -1      4079 9.17827E-05-2.74546E-05-2.75723E-05-1.14260E-05-6.17837E-19 7.43234E-19
 -1      4080 9.57509E-05-3.09337E-05-2.78625E-05-1.21498E-05-7.98702E-19 4.13944E-19
 -1      4081 9.44213E-05-2.89568E-05-2.80972E-05-8.69195E-06-6.42469E-19 8.28162E-19
 -1      4082 1.25349E-04-4.04109E-05-3.65000E-05 8.35386E-06-9.36742E-19 2.01701E-18
 -1      4083 1.20868E-04-3.68020E-05-3.59959E-05 1.00919E-05-8.69817E-19 2.75983E-18
 -1      4084 1.24395E-04-4.26566E-05-3.50217E-05 5.84760E-06-1.39660E-18 1.75701E-18
 -1      4085 9.75632E-05-2.97337E-05-2.90798E-05-1.12544E-06 3.15900E-19-1.28384E-19
 -1      4086 1.09981E-04-2.26356E-05-3.75765E-05-1.11633E-05 1.04020E-18 1.24859E-18
 -1      4087 9.52097E-05-2.85295E-05-2.85771E-05 1.43366E-08 7.59288E-19-5.62219E-19
 -1      4088 1.09606E-04-4.10690E-05-2.93152E-05 9.52157E-06-7.23644E-19 2.18859E-19
 -1      4089 1.05527E-04-3.83680E-05-2.88066E-05 1.04921E-05-5.07537E-19 1.13177E-18
 -1      4090 9.52059E-05-2.85234E-05-2.85784E-05 1.80629E-09 1.42643E-18-2.17325E-18
 -1      4091 1.15460E-04-3.71620E-05-3.35776E-05 8.86096E-06-6.43673E-19 3.74873E-18
 -1      4092 1.18276E-04-4.02783E-05-3.34570E-05 6.60548E-06-1.04532E-18 3.06950E-18
 -1      4093 1.12203E-04-4.26319E-05-2.98739E-05 7.49584E-06-2.97099E-19-1.06141E-18
 -1      4094 1.10278E-04-4.09377E-05-2.97452E-05 5.50477E-06 5.95195E-19 8.96717E-19
 -1      4095 1.14723E-04-3.42505E-05-3.45124E-05 1.00335E-05-7.03917E-19 3.75615E-18
 -1      4096 1.08266E-04-1.88015E-05-3.83659E-05-9.66261E-06 1.50401E-18 1.20888E-18
 -1      4097 9.52046E-05-2.85234E-05-2.85776E-05 1.29772E-08 6.75470E-19-1.41998E-18
 -1      4098 1.11459E-04-3.92270E-05-3.09097E-05-4.03876E-06 1.57147E-18-4.80561E-19
 -1      4099 1.12221E-04-3.85340E-05-3.15568E-05-5.80086E-06 8.94660E-19 9.02553E-20
 -1      4100 9.48614E-05-2.32233E-05-3.07043E-05-6.51983E-07 4.25940E-19-4.26920E-19
 -1      4101 9.56693E-05-2.75499E-05-2.91899E-05-1.10518E-06 2.48357E-19-4.01985E-19
 -1      4102 9.72417E-05-2.88253E-05-2.93200E-05-9.41601E-07 3.81635E-19 6.65302E-20
 -1      4103 9.70243E-05-2.82607E-05-2.94649E-05-7.02692E-07 5.11968E-19-2.04381E-19
 -1      4104 9.68706E-05-2.77745E-05-2.96161E-05-6.44022E-07 5.49678E-19 5.56992E-20
 -1      4105 1.09074E-04-2.65603E-05-3.53993E-05 1.12547E-05-2.76842E-19 4.05784E-18
 -1      4106 1.17122E-04-4.52366E-05-3.07535E-05 6.07717E-06-3.21358E-19-1.25576E-18
 -1      4107 1.12016E-04-4.04389E-05-3.07187E-05-1.41162E-06 1.59371E-18-6.08858E-19
 -1      4108 1.15113E-04-2.84920E-05-3.71835E-05 1.16932E-05-7.07213E-19 3.91632E-18
 -1      4109 1.14507E-04-3.16833E-05-3.55352E-05 1.15491E-05-6.90315E-19 3.64246E-18
 -1      4110 9.62876E-05-2.63078E-05-2.99833E-05 1.46622E-08 9.64105E-19-1.63614E-19
 -1      4111 9.57762E-05-2.50623E-05-3.03121E-05 3.32467E-07 1.06818E-18-3.38304E-19
 -1      4112 9.58290E-05-2.51773E-05-3.02882E-05 7.16882E-08 9.88325E-19-3.79595E-19
 -1      4113 9.63821E-05-2.64960E-05-2.99522E-05-2.06120E-07 9.09206E-19-6.57947E-20
 -1      4114 9.57645E-05-2.50401E-05-3.03155E-05-6.78089E-08 7.89942E-19-2.70161E-19
 -1      4115 9.57021E-05-2.49499E-05-3.03307E-05-2.52740E-07 6.29031E-19-1.54699E-19
 -1      4116 9.60832E-05-2.57373E-05-3.01397E-05-1.96425E-07 8.44101E-19-5.95795E-20
 -1      4117 1.16656E-04-4.33404E-05-3.14361E-05 7.38758E-07 6.54320E-19-1.82197E-18
 -1      4118 1.04853E-04-4.01957E-05-2.78496E-05-1.99474E-05-9.43988E-19 4.35918E-19
 -1      4119 1.00931E-04-3.51405E-05-2.83226E-05 1.19128E-05-4.17949E-19 9.13201E-19
 -1      4120 9.45465E-05-3.01611E-05-2.75324E-05 1.42711E-05-2.49210E-19 6.47227E-19
 -1      4121 9.45643E-05-2.92592E-05-2.78744E-05 1.11714E-05-6.11128E-19 9.46400E-19
 -1      4122 1.00893E-04-3.36612E-05-2.88076E-05-2.01949E-06-2.17453E-19 3.45068E-19
 -1      4123 1.00114E-04-3.28867E-05-2.87920E-05-2.08116E-06-3.48319E-19 2.00703E-19
 -1      4124 1.01415E-04-3.42017E-05-2.88414E-05-2.91572E-06-4.48866E-19-3.98312E-20
 -1      4125 1.18724E-04-4.85688E-05-3.00852E-05-1.42663E-05-2.29439E-18 2.69777E-20
 -1      4126 1.18725E-04-4.69248E-05-3.07425E-05-8.59453E-06-2.02902E-18 2.70336E-19
 -1      4127 1.12473E-04-4.47002E-05-2.89866E-05-1.63321E-05-1.64032E-18 1.27503E-19
 -1      4128 1.17023E-04-3.60006E-05-3.46971E-05-1.00052E-05 3.22680E-19-3.45129E-19
 -1      4129 9.57408E-05-2.90525E-05-2.85421E-05-5.05350E-06 2.53984E-20 3.94822E-19
 -1      4130 9.56099E-05-2.93584E-05-2.84003E-05-6.39091E-06-2.18345E-19 2.72149E-19
 -1      4131 1.23861E-04-4.56363E-05-3.36314E-05 1.93557E-06-1.73510E-18 9.94208E-19
 -1      4132 1.20898E-04-4.25913E-05-3.35481E-05 4.60596E-06-1.35555E-18 1.78292E-18
 -1      4133 1.17788E-04-4.24758E-05-3.22656E-05 3.12878E-06-1.08571E-18 2.08083E-18
 -1      4134 1.21156E-04-4.63470E-05-3.20526E-05-2.25863E-06-2.10892E-18 6.36001E-19
 -1      4135 9.77383E-05-2.98775E-05-2.90781E-05-1.34238E-06 3.29513E-19 2.52114E-19
 -1      4136 9.74751E-05-2.93580E-05-2.91869E-05-1.16501E-06 3.13552E-19 2.49818E-19
 -1      4137 9.73309E-05-2.89529E-05-2.93109E-05-1.15132E-06 2.32851E-19 2.89584E-19
 -1      4138 1.07948E-04-4.11376E-05-2.86147E-05-1.55921E-05-9.76430E-19 4.74329E-19
 -1      4139 9.33387E-05-2.81378E-05-2.79079E-05 9.61720E-06-5.69666E-19 1.77573E-18
 -1      4140 9.35845E-05-2.78788E-05-2.81069E-05 7.55954E-06-4.15657E-19 2.56761E-18
 -1      4141 9.76098E-05-3.19248E-05-2.82736E-05 8.80919E-06-4.81254E-20 1.28916E-18
 -1      4142 9.65706E-05-2.69608E-05-2.98263E-05-4.50654E-07 6.75541E-19 2.05205E-19
 -1      4143 9.63264E-05-2.63677E-05-2.99846E-05-3.10114E-07 7.41372E-19 8.25352E-20
 -1      4144 9.62534E-05-2.62463E-05-3.00085E-05-4.11285E-07 5.20417E-19 1.22743E-19
 -1      4145 9.24803E-05-2.65369E-05-2.82860E-05 4.28044E-06-1.78319E-18 3.04534E-18
 -1      4146 9.29995E-05-2.67378E-05-2.83761E-05 3.32187E-06-1.28802E-18 2.32458E-18
 -1      4147 9.31322E-05-2.68462E-05-2.84297E-05 2.57456E-06-7.87322E-19 2.71233E-18
 -1      4148 9.35572E-05-2.70713E-05-2.84815E-05 1.98330E-06 4.04684E-19 8.08926E-19
 -1      4149 9.37389E-05-2.74606E-05-2.84048E-05 3.26952E-06-1.19975E-18 2.77340E-18
 -1      4150 9.37142E-05-2.72181E-05-2.85140E-05 1.49495E-06 7.81213E-19 5.86821E-19
 -1      4151 9.40318E-05-2.74180E-05-2.85418E-05 1.13789E-06 1.03430E-18 5.57126E-19
 -1      4152 9.40335E-05-2.75553E-05-2.84879E-05 2.00035E-06 3.31822E-19 2.77821E-18
 -1      4153 9.41733E-05-2.75575E-05-2.85602E-05 8.31426E-07 1.15698E-18 1.67859E-19
 -1      4154 9.43983E-05-2.77175E-05-2.85738E-05 6.22145E-07 6.93130E-19 4.67096E-19
 -1      4155 9.43267E-05-2.77301E-05-2.85382E-05 1.18048E-06 5.56824E-19 2.22938E-18
 -1      4156 9.45119E-05-2.78335E-05-2.85834E-05 4.35680E-07-2.23471E-19 7.31300E-19
 -1      4157 9.46660E-05-2.79542E-05-2.85889E-05 3.17419E-07 3.79374E-19 8.94229E-19
 -1      4158 9.45756E-05-2.79135E-05-2.85666E-05 6.68283E-07 4.94732E-19 1.62985E-18
 -1      4159 9.47515E-05-2.80442E-05-2.85932E-05 2.07705E-07 6.09344E-19 1.26081E-18
 -1      4160 9.48545E-05-2.81318E-05-2.85945E-05 1.44045E-07 7.35524E-19 9.38038E-19
 -1      4161 9.47693E-05-2.80743E-05-2.85814E-05 3.58319E-07-1.62723E-19 1.88509E-18
 -1      4162 9.49163E-05-2.81988E-05-2.85959E-05 8.19920E-08 8.08512E-19 6.12472E-19
 -1      4163 9.49837E-05-2.82611E-05-2.85951E-05 5.01549E-08 9.63553E-19-8.84024E-20
 -1      4164 9.49126E-05-2.82037E-05-2.85879E-05 1.77155E-07 6.68345E-19 1.14747E-18
 -1      4165 9.50254E-05-2.83075E-05-2.85950E-05 1.81991E-08 1.23098E-18-3.04950E-19
 -1      4166 9.50675E-05-2.83494E-05-2.85934E-05 4.56702E-09 9.80469E-19 2.75764E-19
 -1      4167 9.50130E-05-2.83005E-05-2.85898E-05 7.71684E-08 1.13389E-18 2.90745E-19
 -1      4168 9.50984E-05-2.83847E-05-2.85925E-05-1.25547E-08 4.34567E-19 5.03163E-19
 -1      4169 9.51270E-05-2.84156E-05-2.85906E-05-1.72700E-08-1.15405E-19 5.91261E-19
 -1      4170 9.50841E-05-2.83738E-05-2.85893E-05 2.38263E-08 7.52118E-19-4.40173E-19
 -1      4171 9.51481E-05-2.84407E-05-2.85894E-05-2.45973E-08-1.89956E-19 2.00351E-18
 -1      4172 9.51662E-05-2.84621E-05-2.85876E-05-2.43781E-08 8.22974E-19 1.85871E-18
 -1      4173 9.51346E-05-2.84290E-05-2.85876E-05-3.16264E-09 7.05655E-19 6.68262E-19
 -1      4174 9.51806E-05-2.84798E-05-2.85863E-05-2.64699E-08 2.40514E-18 2.61208E-18
 -1      4175 9.51919E-05-2.84948E-05-2.85846E-05-2.41591E-08 3.56782E-18 3.10958E-18
 -1      4176 9.51692E-05-2.84692E-05-2.85854E-05-1.42720E-08 1.72604E-18 3.89510E-18
 -1      4177 9.51983E-05-2.85030E-05-2.85837E-05-2.34783E-08 3.51923E-18 2.82991E-18
 -1      4178 9.52041E-05-2.85120E-05-2.85825E-05-2.06438E-08 3.55470E-18 3.58552E-18
 -1      4179 9.52004E-05-2.85097E-05-2.85818E-05-1.50575E-08 3.03284E-18 1.86819E-18
 -1      4180 9.51891E-05-2.84942E-05-2.85834E-05-1.62295E-08 4.39049E-18 2.51311E-18
 -1      4181 1.16350E-04-4.29916E-05-3.14279E-05 9.14994E-07-1.26638E-18 1.29628E-18
 -1      4182 9.59681E-05-2.60510E-05-2.99642E-05-5.86265E-07 2.47690E-19 5.27589E-20
 -1      4183 9.60729E-05-2.66276E-05-2.97699E-05-5.77575E-07 3.13130E-19-2.15458E-20
 -1      4184 9.51990E-05-2.85154E-05-2.85786E-05 9.90023E-09 8.43098E-19-1.95927E-18
 -1      4185 1.12582E-04-4.19423E-05-3.02894E-05-2.19052E-06-8.34020E-19 1.07239E-18
 -1      4186 1.10725E-04-4.09253E-05-2.98305E-05-3.21688E-06-5.25100E-19 8.88868E-19
 -1      4187 9.53345E-05-2.41897E-05-3.04816E-05-5.09453E-07 4.76016E-19-1.27499E-19
 -1      4188 9.84023E-05-3.17377E-05-2.85556E-05 3.03094E-06 5.84015E-19-7.35333E-19
 -1      4189 9.93709E-05-3.25746E-05-2.86075E-05 3.29624E-06 7.12353E-19-2.03626E-19
 -1      4190 9.70364E-05-3.04787E-05-2.85182E-05 2.27584E-06 2.49748E-19-3.24452E-19
 -1      4191 9.76864E-05-3.10642E-05-2.85367E-05 2.55854E-06 4.37658E-19-4.58338E-19
 -1      4192 9.75382E-05-3.10828E-05-2.85149E-05 3.46951E-06 3.93307E-19 3.03827E-19
 -1      4193 9.61878E-05-2.96474E-05-2.85154E-05 1.62408E-06 9.16877E-20-1.26693E-18
 -1      4194 9.66070E-05-3.00332E-05-2.85180E-05 1.87483E-06 3.84334E-19-5.32386E-19
 -1      4195 9.64447E-05-2.99840E-05-2.85034E-05 2.49679E-06 2.92196E-19-1.75304E-19
 -1      4196 9.56839E-05-2.91239E-05-2.85259E-05 1.11275E-06-6.25325E-19-1.21645E-18
 -1      4197 9.59432E-05-2.93676E-05-2.85219E-05 1.31182E-06-9.99039E-19-1.10855E-18
 -1      4198 9.57926E-05-2.92911E-05-2.85135E-05 1.71619E-06-5.53997E-19 7.29904E-20
 -1      4199 9.54003E-05-2.88098E-05-2.85398E-05 7.37428E-07 1.14632E-18-9.69074E-19
 -1      4200 9.55530E-05-2.89564E-05-2.85339E-05 8.84978E-07 4.36229E-19-7.17728E-19
 -1      4201 9.54321E-05-2.88802E-05-2.85298E-05 1.13793E-06-2.02437E-19-6.78225E-19
 -1      4202 9.52516E-05-2.86317E-05-2.85526E-05 4.74954E-07-8.89914E-19-5.11176E-19
 -1      4203 9.53364E-05-2.87149E-05-2.85469E-05 5.79066E-07 6.62210E-19-9.59415E-19
 -1      4204 9.52462E-05-2.86501E-05-2.85454E-05 7.30910E-07 3.78273E-19 6.43745E-19
 -1      4205 9.51823E-05-2.85386E-05-2.85627E-05 2.98218E-07-1.67169E-19-4.46317E-19
 -1      4206 9.52256E-05-2.85821E-05-2.85581E-05 3.68958E-07-7.60873E-19-8.83587E-19
 -1      4207 9.51614E-05-2.85311E-05-2.85581E-05 4.55804E-07-4.38237E-19-1.11350E-18
 -1      4208 9.51576E-05-2.84967E-05-2.85698E-05 1.82787E-07 3.41279E-19 1.26744E-18
 -1      4209 9.51764E-05-2.85162E-05-2.85666E-05 2.29472E-07-4.16080E-19 6.01318E-19
 -1      4210 9.51322E-05-2.84778E-05-2.85672E-05 2.76152E-07-1.22867E-18-1.18298E-18
 -1      4211 9.51561E-05-2.84839E-05-2.85744E-05 1.09528E-07 1.65314E-18 2.14596E-18
 -1      4212 9.51615E-05-2.84898E-05-2.85723E-05 1.39659E-07 1.41054E-18 1.82973E-18
 -1      4213 9.51317E-05-2.84620E-05-2.85732E-05 1.62355E-07-1.55954E-20 3.48684E-20
 -1      4214 9.51654E-05-2.84868E-05-2.85770E-05 6.40858E-08 1.04223E-18 2.69818E-18
 -1      4215 9.51640E-05-2.84853E-05-2.85758E-05 8.31090E-08 2.04133E-18 2.92696E-18
 -1      4216 9.51441E-05-2.84653E-05-2.85768E-05 9.22978E-08 1.55933E-18 2.75426E-18
 -1      4217 9.51784E-05-2.84968E-05-2.85782E-05 3.64394E-08 5.15067E-20 1.29278E-18
 -1      4218 9.51742E-05-2.84921E-05-2.85776E-05 4.82650E-08 1.00805E-18 2.26493E-18
 -1      4219 9.51610E-05-2.84776E-05-2.85786E-05 5.04662E-08 1.25474E-18 2.34828E-18
 -1      4220 9.51913E-05-2.85084E-05-2.85787E-05 1.71169E-08 8.46484E-19-1.12439E-18
 -1      4221 9.51858E-05-2.85019E-05-2.85786E-05 2.41989E-08 3.12389E-19 3.48116E-20
 -1      4222 9.51773E-05-2.84916E-05-2.85795E-05 2.25976E-08 1.64051E-18 2.11993E-19
 -1      4223 9.51935E-05-2.85072E-05-2.85797E-05 3.69151E-09 1.46721E-18-1.37508E-18
 -1      4224 1.17004E-04-4.22007E-05-3.20568E-05-2.62549E-06 1.35375E-18-1.80214E-18
 -1      4225 1.04927E-04-3.74950E-05-2.89764E-05 7.13264E-06-2.30420E-19 1.05248E-18
 -1      4226 1.03142E-04-3.62954E-05-2.85995E-05 9.69846E-06-4.88938E-19 1.12013E-18
 -1      4227 1.01052E-04-3.43477E-05-2.85262E-05 8.42607E-06-3.63485E-19 1.02661E-18
 -1      4228 1.13488E-04-4.17213E-05-3.08069E-05 2.84693E-07 1.23498E-18-4.82092E-19
 -1      4229 1.02960E-04-3.55583E-05-2.88492E-05 4.52266E-06-3.98160E-19 1.96289E-19
 -1      4230 1.04719E-04-3.68663E-05-2.90573E-05 4.36445E-06-1.31359E-19 2.22283E-19
 -1      4231 9.61798E-05-2.71201E-05-2.95918E-05-7.22902E-07 2.94713E-19-2.70848E-19
 -1      4232 9.61194E-05-2.74773E-05-2.94297E-05-8.55028E-07 1.45235E-19-3.78572E-19
 -1      4233 9.62834E-05-2.69649E-05-2.97043E-05-7.53322E-07 3.11043E-20 1.22956E-19
 -1      4234 1.11761E-04-4.10384E-05-3.02180E-05 1.74948E-06 1.27948E-18-3.76058E-19
 -1      4235 9.51967E-05-2.85075E-05-2.85812E-05-8.90387E-09 2.86202E-18-1.57419E-19
 -1      4236 9.51948E-05-2.85076E-05-2.85804E-05-2.69213E-09 2.65774E-18-1.46570E-18
 -1      4237 9.51874E-05-2.84987E-05-2.85806E-05 3.43890E-09 2.21150E-18-2.54315E-19
 -1      4238 9.51915E-05-2.85002E-05-2.85819E-05-9.39355E-09 3.75489E-18 4.38800E-19
 -1      4239 9.61415E-05-2.77923E-05-2.92808E-05-1.14890E-06 3.32946E-19-2.03049E-19
 -1      4240 9.59531E-05-2.79874E-05-2.91410E-05-1.47115E-06 3.92434E-19-2.26389E-19
 -1      4241 9.64149E-05-2.78809E-05-2.93766E-05-1.17761E-06 2.53082E-19 1.23253E-19
 -1      4242 1.09274E-04-3.99873E-05-2.97003E-05 3.76642E-06 6.28307E-19 2.43691E-19
 -1      4243 9.56595E-05-2.49155E-05-3.03183E-05-3.91706E-07 6.56644E-19 4.48398E-20
 -1      4244 9.55926E-05-2.49376E-05-3.02879E-05-6.14320E-07 2.73342E-19 2.65367E-20
 -1      4245 9.58309E-05-2.56279E-05-3.00879E-05-5.43736E-07 3.77155E-19 8.27776E-20
 -1      4246 9.59626E-05-2.55907E-05-3.01508E-05-4.25506E-07 3.95514E-19 9.49288E-21
 -1      4247 1.07217E-04-3.86644E-05-2.93183E-05 4.50542E-06-7.94838E-21 6.51851E-20
 -1      4248 9.94100E-05-3.21685E-05-2.88100E-05-1.92794E-06-4.70287E-20 4.20074E-19
 -1      4249 9.88633E-05-3.15292E-05-2.88442E-05-1.87341E-06 1.90963E-19 2.37081E-19
 -1      4250 9.96962E-05-3.25055E-05-2.88238E-05-2.58938E-06-1.19384E-19-2.11250E-20
 -1      4251 9.80346E-05-3.03965E-05-2.89796E-05-1.55399E-06 3.53101E-19 1.73142E-19
 -1      4252 9.78413E-05-3.00335E-05-2.90756E-05-1.63184E-06 3.06503E-19 2.06612E-19
 -1      4253 9.84088E-05-3.09433E-05-2.89063E-05-1.67827E-06 1.90738E-19 3.69162E-19
 -1      4254 9.54872E-05-2.86923E-05-2.86441E-05-4.08318E-06 2.38003E-19 4.38873E-19
 -1      4255 9.66898E-05-2.98936E-05-2.86574E-05-4.68946E-06 1.48301E-19 1.82046E-19
 -1      4256 9.57427E-05-2.85469E-05-2.87734E-05-3.19155E-06 2.00843E-19 1.73938E-19
 -1      4257 1.08141E-04-3.94633E-05-2.94500E-05-3.93506E-06-4.71799E-19 6.67732E-19
 -1      4258 1.06315E-04-3.81029E-05-2.91780E-05-4.38859E-06-4.92176E-19 3.32474E-19
 -1      4259 1.09455E-04-4.08336E-05-2.95162E-05-5.98795E-06-7.03372E-19 3.42220E-19
 -1      4260 9.62940E-05-3.00675E-05-2.83359E-05-7.45598E-06-3.56139E-19 4.99711E-19
 -1      4261 9.66867E-05-3.08152E-05-2.82244E-05-8.92425E-06-5.77832E-19 5.84322E-19
 -1      4262 9.75441E-05-3.11733E-05-2.85048E-05-6.64882E-06-1.61645E-19-6.81171E-20
 -1      4263 9.68222E-05-2.76430E-05-2.96504E-05-7.05880E-07 3.57737E-19 3.43263E-19
 -1      4264 9.20037E-05-2.64516E-05-2.80698E-05 6.86062E-06-1.03201E-18 2.76993E-18
 -1      4265 9.25195E-05-2.65935E-05-2.82089E-05 5.35852E-06-1.07330E-18 2.88551E-18
 -1      4266 9.64084E-05-2.85172E-05-2.91023E-05-1.91639E-06 5.07167E-19 1.30684E-19
 -1      4267 9.59476E-05-2.82071E-05-2.90149E-05-1.92968E-06 3.87234E-19-1.38788E-19
 -1      4268 9.56921E-05-2.83262E-05-2.88871E-05-2.49889E-06 2.35421E-19 1.38624E-19
 -1      4269 1.16121E-04-4.37978E-05-3.09808E-05-2.49864E-06-1.31139E-18 4.86599E-19
 -1      4270 9.60202E-05-2.59922E-05-3.00088E-05-5.69473E-07 3.27265E-19 4.74626E-19
 -1      4271 1.01010E-04-3.51494E-05-2.81664E-05-1.30866E-05-8.67206E-19 3.48885E-19
 -1      4272 1.02984E-04-3.71551E-05-2.81118E-05-1.50259E-05-7.23346E-19 2.85311E-19
 -1      4273 1.09122E-04-4.15911E-05-2.90623E-05-1.22144E-05-1.05957E-18-1.49382E-19
 -1      4274 1.00520E-04-3.35640E-05-2.86677E-05 3.73866E-06 1.14605E-19-3.34290E-19
 -1      4275 1.01899E-04-3.46577E-05-2.87837E-05 3.84449E-06 2.97388E-20-3.00970E-21
 -1      4276 1.01541E-04-3.47810E-05-2.87048E-05 5.84972E-06-6.18801E-19 1.39756E-18
 -1      4277 9.93758E-05-3.28125E-05-2.85848E-05 4.55999E-06 4.72519E-19 3.44142E-19
 -1      4278 9.35848E-05-2.76225E-05-2.82778E-05 5.10303E-06-1.68378E-18 2.56733E-18
 -1      4279 1.04399E-04-3.67009E-05-2.90037E-05-4.31708E-06-6.70385E-19 2.05746E-19
 -1      4280 1.02933E-04-3.54756E-05-2.88752E-05-4.33861E-06-8.06067E-19-1.96193E-20
 -1      4281 1.04918E-04-3.74495E-05-2.89953E-05-6.12337E-06-7.38019E-19-1.30390E-19
 -1      4282 1.01639E-04-3.43549E-05-2.88193E-05-3.95021E-06-7.34306E-19 3.89720E-20
 -1      4283 1.00582E-04-3.33741E-05-2.87834E-05-3.75271E-06-3.27768E-19-1.87322E-19
 -1      4284 1.01736E-04-3.47032E-05-2.87876E-05-5.34958E-06-7.24034E-19-2.59164E-20
 -1      4285 1.17039E-04-4.54401E-05-3.07404E-05-5.91415E-06-1.59122E-18 1.41296E-19
 -1      4286 9.61844E-05-2.61283E-05-3.00236E-05-4.63782E-07 4.24397E-19-8.68701E-20
 -1      4287 9.61150E-05-2.61031E-05-3.00094E-05-5.45174E-07 3.41837E-19 6.79756E-20
 -1      4288 9.62412E-05-2.65046E-05-2.98865E-05-5.89143E-07 2.20139E-19 1.79774E-19
 -1      4289 9.64246E-05-2.67055E-05-2.98715E-05-5.62246E-07 4.01933E-19 1.72595E-19
 -1      4290 9.43749E-05-2.81386E-05-2.83992E-05 3.66032E-06-1.64400E-18 3.45406E-18
 -1      4291 9.45031E-05-2.80769E-05-2.84483E-05 2.89501E-06-5.22735E-19 3.72944E-18
 -1      4292 9.49918E-05-2.91820E-05-2.82315E-05 6.88961E-06-1.56089E-19 2.58609E-18
 -1      4293 9.99690E-05-3.34301E-05-2.84849E-05 7.50966E-06-2.19193E-19 6.12828E-19
 -1      4294 9.88107E-05-3.22561E-05-2.84746E-05 6.38297E-06 2.02183E-19 2.85884E-19
 -1      4295 9.76201E-05-3.12388E-05-2.84291E-05 5.66869E-06 1.42640E-19 3.81176E-19
 -1      4296 9.61685E-05-3.00862E-05-2.83458E-05 6.01033E-06-2.40036E-19 1.58228E-18
 -1      4297 9.46939E-05-2.87106E-05-2.83036E-05 5.45694E-06-1.24192E-18 2.84018E-18
 -1      4298 9.47311E-05-2.84718E-05-2.83715E-05 4.42728E-06-1.79989E-18 2.63542E-18
 -1      4299 9.72123E-05-3.06978E-05-2.84714E-05 4.36653E-06 8.86138E-20 5.45888E-19
 -1      4300 1.13448E-04-4.36250E-05-2.98179E-05-8.32335E-06-1.08658E-18-1.80648E-19
 -1      4301 9.43868E-05-2.79753E-05-2.84746E-05 2.31468E-06-4.78139E-19 3.86598E-18
 -1      4302 9.45379E-05-2.79940E-05-2.85056E-05 1.80906E-06 1.46778E-20 3.44192E-18
 -1      4303 9.49896E-05-2.85841E-05-2.84706E-05 2.64927E-06-4.44835E-19 4.52564E-18
 -1      4304 9.45125E-05-2.79799E-05-2.85239E-05 1.41602E-06 3.26512E-19 3.43173E-18
 -1      4305 9.46505E-05-2.80322E-05-2.85425E-05 1.09279E-06 3.16320E-19 3.09915E-18
 -1      4306 9.48654E-05-2.83486E-05-2.85127E-05 1.68674E-06-4.56638E-19 3.31475E-18
 -1      4307 9.46654E-05-2.80556E-05-2.85543E-05 8.35908E-07 3.76128E-19 2.35823E-18
 -1      4308 9.47769E-05-2.81145E-05-2.85646E-05 6.35769E-07 4.58458E-19 2.66687E-18
 -1      4309 9.48620E-05-2.82698E-05-2.85420E-05 1.03868E-06 1.89964E-19 3.23970E-18
 -1      4310 9.48064E-05-2.81506E-05-2.85718E-05 4.73279E-07-1.55198E-19 3.02574E-18
 -1      4311 9.48908E-05-2.82043E-05-2.85770E-05 3.53338E-07 6.94259E-21 2.92781E-18
 -1      4312 9.49094E-05-2.82690E-05-2.85611E-05 6.17707E-07 6.89406E-19 3.06960E-18
 -1      4313 9.49223E-05-2.82411E-05-2.85810E-05 2.53806E-07 1.21913E-19 2.30356E-18
 -1      4314 9.49836E-05-2.82858E-05-2.85832E-05 1.84705E-07 1.05222E-18 2.21341E-18
 -1      4315 9.49715E-05-2.83023E-05-2.85726E-05 3.52981E-07-3.89414E-20 3.01631E-18
 -1      4316 9.50105E-05-2.83169E-05-2.85850E-05 1.28046E-07 8.83924E-19 1.25170E-18
 -1      4317 9.50521E-05-2.83506E-05-2.85855E-05 9.11730E-08 5.49070E-19 1.02475E-18
 -1      4318 9.50301E-05-2.83454E-05-2.85790E-05 1.94581E-07-4.64833E-19 1.80193E-18
 -1      4319 9.50759E-05-2.83779E-05-2.85862E-05 5.64273E-08 3.60548E-19-4.19308E-19
 -1      4320 9.51066E-05-2.84053E-05-2.85858E-05 3.61022E-08-1.01318E-19-4.77483E-19
 -1      4321 9.50806E-05-2.83887E-05-2.85820E-05 1.00846E-07-5.86517E-19-4.68538E-20
 -1      4322 9.51253E-05-2.84272E-05-2.85857E-05 1.73426E-08 1.53101E-18-4.56487E-19
 -1      4323 9.51464E-05-2.84479E-05-2.85849E-05 7.83795E-09 1.65043E-18 5.38129E-19
 -1      4324 9.51224E-05-2.84281E-05-2.85830E-05 4.58698E-08 8.58176E-19 7.30362E-20
 -1      4325 9.51851E-05-2.84926E-05-2.85827E-05-9.62879E-09 4.21176E-18 8.07463E-19
 -1      4326 9.52671E-05-2.87477E-05-2.85094E-05 1.74615E-06-6.88978E-19 1.61088E-18
 -1      4327 9.55123E-05-2.89715E-05-2.85006E-05 2.10124E-06-3.07752E-19 2.23307E-18
 -1      4328 9.89508E-05-3.33005E-05-2.80971E-05-1.20090E-05-9.82648E-19 4.09006E-19
 -1      4329 1.02363E-04-3.62197E-05-2.84754E-05-1.11154E-05-8.96930E-19-2.02858E-20
 -1      4330 9.78615E-05-3.19719E-05-2.81776E-05-1.03067E-05-8.58811E-19 5.75300E-19
 -1      4331 1.08651E-04-4.04911E-05-2.92122E-05-8.99373E-06-6.48917E-19-9.47238E-20
 -1      4332 9.70095E-05-2.82157E-05-2.94791E-05-9.63844E-07 2.94563E-19 3.81767E-19
 -1      4333 9.66971E-05-2.74608E-05-2.96757E-05-7.85936E-07 4.80834E-19 6.02669E-19
 -1      4334 9.56416E-05-2.91861E-05-2.84793E-05 2.65442E-06-1.94443E-19 1.75803E-18
 -1      4335 9.60672E-05-2.95756E-05-2.84743E-05 3.13276E-06-3.56814E-19 1.52824E-18
 -1      4336 9.64621E-05-3.00393E-05-2.84575E-05 3.80549E-06-3.36866E-19 3.41652E-19
 -1      4337 9.51003E-05-2.85248E-05-2.85344E-05 1.11136E-06-2.41629E-19 1.77989E-18
 -1      4338 9.52304E-05-2.86442E-05-2.85256E-05 1.36238E-06-5.48346E-19 1.61657E-18
 -1      4339 9.50446E-05-2.84260E-05-2.85529E-05 6.85149E-07 9.48470E-19 1.69910E-18
 -1      4340 9.51074E-05-2.84835E-05-2.85457E-05 8.55517E-07 9.37483E-19 1.65231E-18
 -1      4341 9.50439E-05-2.83951E-05-2.85655E-05 4.08680E-07-4.73373E-19 6.09957E-19
 -1      4342 9.50690E-05-2.84175E-05-2.85603E-05 5.20314E-07 2.54517E-19 1.28127E-18
 -1      4343 9.50673E-05-2.83987E-05-2.85735E-05 2.35162E-07-1.26784E-18 1.06951E-18
 -1      4344 9.50723E-05-2.84024E-05-2.85700E-05 3.05853E-07-9.09237E-19-2.95852E-19
 -1      4345 9.50971E-05-2.84172E-05-2.85780E-05 1.31461E-07-6.96043E-19 5.05093E-19
 -1      4346 9.50926E-05-2.84117E-05-2.85759E-05 1.75295E-07-1.67717E-18-5.98702E-19
 -1      4347 9.51278E-05-2.84420E-05-2.85803E-05 6.82882E-08 1.05429E-18 1.74809E-18
 -1      4348 9.51196E-05-2.84326E-05-2.85791E-05 9.43424E-08 1.71904E-19 4.99238E-19
 -1      4349 9.51547E-05-2.84669E-05-2.85809E-05 3.25139E-08 1.64330E-18 1.57979E-18
 -1      4350 9.51457E-05-2.84565E-05-2.85805E-05 4.74562E-08 1.99189E-18 2.45141E-18
 -1      4351 9.51765E-05-2.84878E-05-2.85811E-05 9.08196E-09 1.78456E-18 7.58962E-19
 -1      4352 9.51683E-05-2.84791E-05-2.85808E-05 2.11348E-08 1.79008E-18 1.11829E-18
 -1      4353 9.51545E-05-2.84607E-05-2.85828E-05 1.62543E-08 2.07638E-18 1.36988E-18
 -1      4354 9.51785E-05-2.84872E-05-2.85819E-05 1.42847E-09 2.82807E-18 1.52403E-18
 -1      4355 9.66435E-05-2.77481E-05-2.95189E-05-9.76860E-07 2.19693E-19 4.27209E-19
 -1      4356 9.66915E-05-2.81780E-05-2.93666E-05-1.25736E-06 4.27913E-19 6.16070E-19
 -1      4357 9.65156E-05-2.72343E-05-2.96929E-05-7.93791E-07 1.63496E-19 4.74929E-19
 -1      4358 1.06118E-04-3.84697E-05-2.88984E-05-9.08583E-06-8.05164E-19-1.19958E-19
 -1      4359 9.72460E-05-2.87716E-05-2.93397E-05-1.22572E-06 2.81740E-19 3.21931E-19
 -1      4360 9.85761E-05-3.11681E-05-2.89104E-05-2.12635E-06 1.12672E-19 1.34334E-19
 -1      4361 9.64260E-05-2.91078E-05-2.88655E-05-3.05866E-06 3.93650E-19 3.89315E-19
 -1      4362 9.74973E-05-2.94784E-05-2.91495E-05-1.64732E-06 3.35334E-19 1.19542E-19
 -1      4363 9.70898E-05-2.87401E-05-2.93012E-05-1.46779E-06 3.97698E-19 5.84113E-19
 -1      4364 9.69179E-05-2.88125E-05-2.91730E-05-1.72465E-06 5.69343E-19 3.71414E-19
 -1      4365 9.78050E-05-2.99886E-05-2.90490E-05-1.93105E-06 3.87872E-19 5.65585E-23
 -1      4366 9.89228E-05-3.19572E-05-2.86585E-05-5.34452E-06-3.48336E-19-6.08693E-20
 -1      4367 9.96320E-05-3.27983E-05-2.86160E-05-6.22448E-06-4.93545E-19-1.23994E-21
 -1      4368 9.69206E-05-2.91463E-05-2.90501E-05-2.16930E-06 5.44997E-19 4.20906E-19
 -1      4369 9.96821E-05-3.26674E-05-2.87646E-05-4.26212E-06-2.82406E-19 1.88068E-20
 -1      4370 9.97780E-05-3.25336E-05-2.87993E-05-3.28310E-06-5.65864E-20-2.03224E-19
 -1      4371 9.90716E-05-3.17806E-05-2.88236E-05-3.00946E-06-6.06419E-20-2.04334E-19
 -1      4372 9.92809E-05-3.31630E-05-2.84207E-05-8.90975E-06-7.26928E-19 3.33200E-19
 -1      4373 9.51602E-05-2.84643E-05-2.85844E-05-1.77088E-09 1.29207E-18 1.24617E-18
 -1      4374 9.51746E-05-2.84799E-05-2.85834E-05-5.29653E-09 3.22457E-18 2.66179E-18
 -1      4375 1.04080E-04-3.67881E-05-2.87861E-05-8.39072E-06-8.98159E-19-1.25530E-19
 -1      4376 9.54507E-05-2.91760E-05-2.84228E-05 3.95959E-06-1.06214E-18 2.89344E-18
 -1      4377 9.81139E-05-3.11472E-05-2.86888E-05-4.68943E-06-1.41036E-20 1.57920E-19
 -1      4378 1.02150E-04-3.52170E-05-2.86446E-05-7.95692E-06-9.39749E-19-1.41860E-19
 -1      4379 9.78196E-05-3.06079E-05-2.87756E-05-3.81044E-06 2.13100E-19 3.25701E-19
 -1      4380 1.00927E-04-3.39567E-05-2.86496E-05-6.85079E-06-6.59661E-19-8.90832E-20
 -1      4381 9.65994E-05-2.73317E-05-2.96893E-05-7.93994E-07 3.25281E-19 4.29632E-19
 -1      4382 9.80566E-05-3.04869E-05-2.89521E-05-2.32414E-06 2.87976E-19-2.99709E-20
 -1      4383 9.75595E-05-2.99047E-05-2.90130E-05-2.35638E-06 4.43379E-19 2.80905E-19
 -1      4384 9.71706E-05-2.95720E-05-2.89485E-05-2.62426E-06 4.11410E-19 3.53545E-19
 -1      4385 9.85050E-05-3.10755E-05-2.88838E-05-2.62632E-06 1.63901E-19-7.91311E-20
 -1      4386 9.83277E-05-3.10884E-05-2.88483E-05-3.25613E-06 1.38098E-19 3.62706E-20
 -1      4387 9.72529E-05-2.99438E-05-2.88412E-05-3.29101E-06 2.89494E-19 5.05467E-19
 -3
    1PSTEP                         4           1           1          
  100CL  101 1.000000000        4387                     0    1           1
 -4  ERROR       1    1
 -5  STR(%)      1    1    0    0
 -1         1 1.57458E+01
 -1         2 2.52855E+01
 -1         3 9.78373E-05
 -1         4 2.10544E-04
 -1         5 1.40291E+01
 -1         6 1.33662E+01
 -1         7 1.33662E+01
 -1         8 3.64822E+00
 -1         9 1.82321E+00
 -1        10 1.29048E+00
 -1        11 1.04230E+00
 -1        12 8.97769E-01
 -1        13 8.05537E-01
 -1        14 7.49518E-01
 -1        15 7.50768E-01
 -1        16 8.10917E-01
 -1        17 9.00111E-01
 -1        18 1.05354E+00
 -1        19 1.30794E+00
 -1        20 1.83228E+00
 -1        21 3.50593E+00
 -1        22 8.63141E+00
 -1        23 1.33662E+01
 -1        24 4.26439E+00
 -1        25 3.40549E+00
 -1        26 2.16426E+00
 -1        27 1.40249E+00
 -1        28 1.06810E+00
 -1        29 8.46558E-01
 -1        30 6.87180E-01
 -1        31 6.04017E-01
 -1        32 5.62353E-01
 -1        33 7.97747E-01
 -1        34 1.17556E+00
 -1        35 1.73384E+00
 -1        36 2.46541E+00
 -1        37 3.51459E+00
 -1        38 5.16463E+00
 -1        39 7.14498E+00
 -1        40 8.35262E+00
 -1        41 8.35262E+00
 -1        42 6.74916E+00
 -1        43 1.84041E+01
 -1        44 2.12644E+01
 -1        45 2.12644E+01
 -1        46 1.78950E+01
 -1        47 7.05597E+00
 -1        48 6.24493E+00
 -1        49 6.52314E+00
 -1        50 6.52314E+00
 -1        51 5.00756E+00
 -1        52 3.83597E+00
 -1        53 2.66005E+00
 -1        54 1.86226E+00
 -1        55 1.22030E+00
 -1        56 7.65194E-01
 -1        57 4.66540E-01
 -1        58 2.79343E-01
 -1        59 1.61022E-01
 -1        60 9.99617E-02
 -1        61 5.84093E-02
 -1        62 3.57642E-02
 -1        63 2.36271E-02
 -1        64 1.56976E-02
 -1        65 1.05092E-02
 -1        66 7.08977E-03
 -1        67 4.87652E-03
 -1        68 3.32595E-03
 -1        69 2.38027E-03
 -1        70 1.83422E-03
 -1        71 1.34573E-03
 -1        72 8.61515E-04
 -1        73 5.71444E-04
 -1        74 1.40291E+01
 -1        75 3.39313E+00
 -1        76 2.41135E+00
 -1        77 1.65783E+00
 -1        78 1.13322E+00
 -1        79 8.92930E-01
 -1        80 7.04321E-01
 -1        81 5.39303E-01
 -1        82 3.96553E-01
 -1        83 2.83851E-01
 -1        84 1.87054E-01
 -1        85 2.25553E-01
 -1        86 3.83359E-01
 -1        87 5.58058E-01
 -1        88 7.32377E-01
 -1        89 8.76675E-01
 -1        90 1.10743E+00
 -1        91 1.53125E+00
 -1        92 1.92372E+00
 -1        93 2.19550E+00
 -1        94 2.27265E+00
 -1        95 2.50367E+00
 -1        96 2.52684E+00
 -1        97 2.52684E+00
 -1        98 2.31102E+00
 -1        99 1.93725E+00
 -1       100 1.52829E+00
 -1       101 1.15810E+00
 -1       102 8.26223E-01
 -1       103 5.55157E-01
 -1       104 3.67137E-01
 -1       105 2.49916E-01
 -1       106 1.60223E-01
 -1       107 9.57644E-02
 -1       108 5.61966E-02
 -1       109 4.06929E-02
 -1       110 2.75862E-02
 -1       111 2.16703E-02
 -1       112 1.67081E-02
 -1       113 1.19693E-02
 -1       114 8.05419E-03
 -1       115 5.51435E-03
 -1       116 3.97087E-03
 -1       117 2.87391E-03
 -1       118 1.93322E-03
 -1       119 1.21736E-03
 -1       120 9.63353E-04
 -1       121 6.33575E-04
 -1       122 3.87001E-04
 -1       123 1.23279E-04
 -1       124 1.01668E-04
 -1       125 1.01668E-04
 -1       126 5.65950E-05
 -1       127 7.07960E-05
 -1       128 1.02116E-04
 -1       129 1.06805E-04
 -1       130 1.06805E-04
 -1       131 8.37314E-05
 -1       132 5.44304E-05
 -1       133 1.21826E-04
 -1       134 1.67221E-04
 -1       135 1.70947E-04
 -1       136 1.70947E-04
 -1       137 1.00268E-04
 -1       138 1.38406E-04
 -1       139 2.52855E+01
 -1       140 4.24337E+01
 -1       141 4.24337E+01
 -1       142 1.62260E+01
 -1       143 1.35918E+01
 -1       144 1.35918E+01
 -1       145 1.22002E+01
 -1       146 1.22002E+01
 -1       147 1.19002E+01
 -1       148 1.42278E+01
 -1       149 3.66822E+01
 -1       150 3.66822E+01
 -1       151 2.59573E+01
 -1       152 2.46545E+01
 -1       153 2.44079E+01
 -1       154 2.59988E+01
 -1       155 4.82582E+01
 -1       156 4.82582E+01
 -1       157 2.08702E+01
 -1       158 1.57458E+01
 -1       159 1.51659E+01
 -1       160 1.51659E+01
 -1       161 1.90684E+01
 -1       162 4.61008E+01
 -1       163 4.61008E+01
 -1       164 2.60462E+01
 -1       165 2.56851E+01
 -1       166 6.18143E+00
 -1       167 2.29561E+00
 -1       168 1.50657E+00
 -1       169 1.15834E+00
 -1       170 9.70836E-01
 -1       171 8.61886E-01
 -1       172 7.92338E-01
 -1       173 7.50768E-01
 -1       174 7.95890E-01
 -1       175 8.65274E-01
 -1       176 9.80785E-01
 -1       177 1.17279E+00
 -1       178 1.52918E+00
 -1       179 2.26096E+00
 -1       180 3.93033E+00
 -1       181 1.40291E+01
 -1       182 4.26439E+00
 -1       183 3.40549E+00
 -1       184 2.16426E+00
 -1       185 1.47076E+00
 -1       186 1.06810E+00
 -1       187 8.46558E-01
 -1       188 6.87180E-01
 -1       189 6.04017E-01
 -1       190 5.56265E-01
 -1       191 5.62353E-01
 -1       192 8.47467E-01
 -1       193 1.52158E+00
 -1       194 2.53158E+00
 -1       195 3.87231E+00
 -1       196 5.50592E+00
 -1       197 7.04868E+00
 -1       198 7.96814E+00
 -1       199 1.01054E+01
 -1       200 1.09289E+01
 -1       201 1.11123E+01
 -1       202 2.12644E+01
 -1       203 1.78950E+01
 -1       204 7.61497E+00
 -1       205 8.27188E+00
 -1       206 7.60403E+00
 -1       207 6.52314E+00
 -1       208 5.74873E+00
 -1       209 4.84350E+00
 -1       210 3.53410E+00
 -1       211 2.35709E+00
 -1       212 1.47220E+00
 -1       213 8.78138E-01
 -1       214 5.24864E-01
 -1       215 3.23442E-01
 -1       216 1.91636E-01
 -1       217 1.22276E-01
 -1       218 7.38320E-02
 -1       219 4.43310E-02
 -1       220 2.65525E-02
 -1       221 1.58556E-02
 -1       222 1.09717E-02
 -1       223 7.62060E-03
 -1       224 5.34026E-03
 -1       225 3.76051E-03
 -1       226 2.58879E-03
 -1       227 1.83422E-03
 -1       228 1.34573E-03
 -1       229 8.61515E-04
 -1       230 5.71444E-04
 -1       231 2.53046E-04
 -1       232 3.39313E+00
 -1       233 2.41135E+00
 -1       234 1.65783E+00
 -1       235 1.13322E+00
 -1       236 8.92930E-01
 -1       237 7.04321E-01
 -1       238 5.39303E-01
 -1       239 3.96553E-01
 -1       240 3.19502E-01
 -1       241 2.78376E-01
 -1       242 3.52075E-01
 -1       243 4.83452E-01
 -1       244 6.67960E-01
 -1       245 8.99854E-01
 -1       246 1.16301E+00
 -1       247 1.43996E+00
 -1       248 1.75026E+00
 -1       249 1.98260E+00
 -1       250 2.08727E+00
 -1       251 2.19550E+00
 -1       252 2.27265E+00
 -1       253 2.50367E+00
 -1       254 2.52684E+00
 -1       255 2.31102E+00
 -1       256 1.93725E+00
 -1       257 1.52829E+00
 -1       258 1.17230E+00
 -1       259 8.71681E-01
 -1       260 6.13016E-01
 -1       261 4.07232E-01
 -1       262 2.54010E-01
 -1       263 1.60223E-01
 -1       264 9.69793E-02
 -1       265 5.66673E-02
 -1       266 4.06929E-02
 -1       267 2.75862E-02
 -1       268 2.16703E-02
 -1       269 1.67081E-02
 -1       270 1.19693E-02
 -1       271 8.05419E-03
 -1       272 5.80947E-03
 -1       273 3.97087E-03
 -1       274 2.87391E-03
 -1       275 1.93322E-03
 -1       276 1.24834E-03
 -1       277 9.63353E-04
 -1       278 6.33575E-04
 -1       279 3.87001E-04
 -1       280 1.66135E-04
 -1       281 1.72803E-04
 -1       282 1.72803E-04
 -1       283 1.46614E-04
 -1       284 2.13451E-04
 -1       285 2.31984E-04
 -1       286 2.31984E-04
 -1       287 2.31436E-04
 -1       288 1.83322E-04
 -1       289 1.79553E-04
 -1       290 2.86404E-04
 -1       291 3.16454E-04
 -1       292 3.16454E-04
 -1       293 3.11755E-04
 -1       294 1.43833E-04
 -1       295 2.89254E+01
 -1       296 3.60913E+01
 -1       297 4.24337E+01
 -1       298 1.69628E+01
 -1       299 1.15176E+01
 -1       300 1.35918E+01
 -1       301 1.18299E+01
 -1       302 1.22002E+01
 -1       303 1.19002E+01
 -1       304 1.10380E+01
 -1       305 1.44363E+01
 -1       306 3.66822E+01
 -1       307 3.49430E+01
 -1       308 2.51043E+01
 -1       309 3.29004E+01
 -1       310 3.29004E+01
 -1       311 2.98859E+01
 -1       312 4.82582E+01
 -1       313 2.24746E+01
 -1       314 1.28428E+01
 -1       315 1.57458E+01
 -1       316 1.47038E+01
 -1       317 1.51659E+01
 -1       318 1.23629E+01
 -1       319 2.02423E+01
 -1       320 4.61008E+01
 -1       321 3.76087E+01
 -1       322 2.78363E+01
 -1       323 2.89254E+01
 -1       324 1.84041E+01
 -1       325 1.07811E+00
 -1       326 2.53268E+00
 -1       327 7.88015E-01
 -1       328 6.93566E-01
 -1       329 6.29640E-01
 -1       330 5.84641E-01
 -1       331 5.88113E-01
 -1       332 6.33245E-01
 -1       333 7.01269E-01
 -1       334 7.97583E-01
 -1       335 9.32553E-01
 -1       336 1.14694E+00
 -1       337 1.33091E+00
 -1       338 2.19052E+00
 -1       339 1.90508E+00
 -1       340 4.33802E+01
 -1       341 1.73920E+00
 -1       342 1.28501E+00
 -1       343 9.17364E-01
 -1       344 6.76202E-01
 -1       345 5.74722E-01
 -1       346 4.92226E-01
 -1       347 4.12176E-01
 -1       348 3.96029E-01
 -1       349 6.06988E-01
 -1       350 1.10886E+00
 -1       351 1.87723E+00
 -1       352 2.99437E+00
 -1       353 4.68865E+00
 -1       354 7.19649E+00
 -1       355 1.09293E+01
 -1       356 1.91016E+01
 -1       357 1.06189E+01
 -1       358 1.54970E+01
 -1       359 1.14687E+01
 -1       360 7.92932E+00
 -1       361 6.13504E+00
 -1       362 4.39745E+00
 -1       363 2.94740E+00
 -1       364 1.87877E+00
 -1       365 1.15674E+00
 -1       366 6.95080E-01
 -1       367 4.10135E-01
 -1       368 2.34407E-01
 -1       369 1.40660E-01
 -1       370 7.95901E-02
 -1       371 4.83149E-02
 -1       372 3.05218E-02
 -1       373 1.92500E-02
 -1       374 1.21190E-02
 -1       375 7.60267E-03
 -1       376 5.24745E-03
 -1       377 3.86831E-03
 -1       378 2.80253E-03
 -1       379 1.97497E-03
 -1       380 1.32031E-03
 -1       381 7.96053E-04
 -1       382 4.57392E-04
 -1       383 2.74738E-04
 -1       384 1.11969E+00
 -1       385 7.96999E-01
 -1       386 6.09807E-01
 -1       387 4.85878E-01
 -1       388 3.90952E-01
 -1       389 3.24917E-01
 -1       390 3.07239E-01
 -1       391 3.65096E-01
 -1       392 4.62665E-01
 -1       393 5.99898E-01
 -1       394 7.71586E-01
 -1       395 9.71710E-01
 -1       396 1.22210E+00
 -1       397 1.47014E+00
 -1       398 1.75026E+00
 -1       399 1.98260E+00
 -1       400 2.08727E+00
 -1       401 2.04159E+00
 -1       402 2.08630E+00
 -1       403 2.05897E+00
 -1       404 1.88848E+00
 -1       405 1.61162E+00
 -1       406 1.33949E+00
 -1       407 1.07180E+00
 -1       408 8.30673E-01
 -1       409 6.30913E-01
 -1       410 4.55903E-01
 -1       411 3.12996E-01
 -1       412 2.03368E-01
 -1       413 1.24023E-01
 -1       414 6.97795E-02
 -1       415 3.48395E-02
 -1       416 2.35048E-02
 -1       417 1.53841E-02
 -1       418 1.23599E-02
 -1       419 9.27862E-03
 -1       420 7.01958E-03
 -1       421 5.09599E-03
 -1       422 3.74794E-03
 -1       423 2.68294E-03
 -1       424 1.88829E-03
 -1       425 1.24834E-03
 -1       426 8.49839E-04
 -1       427 5.62039E-04
 -1       428 2.83618E-04
 -1       429 2.16515E-04
 -1       430 3.74279E-04
 -1       431 3.23772E-04
 -1       432 3.67745E-04
 -1       433 3.77292E-04
 -1       434 3.79217E-04
 -1       435 3.79217E-04
 -1       436 3.01966E-04
 -1       437 3.32619E-04
 -1       438 4.33243E-04
 -1       439 4.69842E-04
 -1       440 4.69842E-04
 -1       441 1.34867E+00
 -1       442 2.48024E+01
 -1       443 8.38433E+00
 -1       444 2.81402E+01
 -1       445 2.86173E+01
 -1       446 1.45816E+01
 -1       447 9.17375E-01
 -1       448 7.01932E+00
 -1       449 1.06968E+01
 -1       450 1.15552E+01
 -1       451 1.03151E+01
 -1       452 8.63758E+00
 -1       453 7.67126E+00
 -1       454 1.30533E+01
 -1       455 2.29066E+01
 -1       456 2.75882E+01
 -1       457 4.28201E+01
 -1       458 4.28201E+01
 -1       459 3.17789E+01
 -1       460 2.98859E+01
 -1       461 1.74319E+01
 -1       462 1.54970E+01
 -1       463 2.32009E+01
 -1       464 4.33802E+01
 -1       465 1.25584E+01
 -1       466 7.48865E+00
 -1       467 7.33969E+00
 -1       468 4.84945E-01
 -1       469 5.13698E-01
 -1       470 4.28892E-01
 -1       471 4.56548E-01
 -1       472 4.87641E-01
 -1       473 5.12582E-01
 -1       474 5.12582E-01
 -1       475 5.06368E-01
 -1       476 6.38603E-01
 -1       477 1.31051E+00
 -1       478 1.04869E+01
 -1       479 4.33802E+01
 -1       480 6.91214E-01
 -1       481 5.72646E-01
 -1       482 4.47268E-01
 -1       483 3.58639E-01
 -1       484 2.84034E-01
 -1       485 1.88749E-01
 -1       486 3.23973E-01
 -1       487 6.72662E-01
 -1       488 1.27451E+00
 -1       489 2.17351E+00
 -1       490 3.80449E+00
 -1       491 6.69742E+00
 -1       492 1.36086E+01
 -1       493 1.44549E+01
 -1       494 8.34201E-01
 -1       495 1.60586E+01
 -1       496 1.02469E+01
 -1       497 6.09639E+00
 -1       498 3.68748E+00
 -1       499 2.22245E+00
 -1       500 1.36551E+00
 -1       501 8.50183E-01
 -1       502 5.24462E-01
 -1       503 3.22071E-01
 -1       504 1.98868E-01
 -1       505 1.19217E-01
 -1       506 7.06459E-02
 -1       507 4.13412E-02
 -1       508 2.38096E-02
 -1       509 1.34174E-02
 -1       510 8.37093E-03
 -1       511 5.43725E-03
 -1       512 3.80976E-03
 -1       513 2.69521E-03
 -1       514 1.91094E-03
 -1       515 1.38423E-03
 -1       516 9.47340E-04
 -1       517 5.68705E-04
 -1       518 2.86173E+01
 -1       519 5.52640E-01
 -1       520 6.81105E-01
 -1       521 3.62854E-01
 -1       522 3.15816E-01
 -1       523 2.99142E-01
 -1       524 3.27842E-01
 -1       525 3.96990E-01
 -1       526 4.98656E-01
 -1       527 6.36559E-01
 -1       528 8.28140E-01
 -1       529 1.03906E+00
 -1       530 1.23859E+00
 -1       531 1.38778E+00
 -1       532 1.54243E+00
 -1       533 1.61623E+00
 -1       534 1.59601E+00
 -1       535 1.56385E+00
 -1       536 1.62157E+00
 -1       537 1.59216E+00
 -1       538 1.46836E+00
 -1       539 1.30664E+00
 -1       540 1.11820E+00
 -1       541 8.97018E-01
 -1       542 6.77656E-01
 -1       543 4.89383E-01
 -1       544 3.50019E-01
 -1       545 2.38783E-01
 -1       546 1.54818E-01
 -1       547 9.46907E-02
 -1       548 5.38178E-02
 -1       549 2.75014E-02
 -1       550 1.19652E-02
 -1       551 7.54278E-03
 -1       552 7.30537E-03
 -1       553 6.29531E-03
 -1       554 5.27429E-03
 -1       555 4.02784E-03
 -1       556 2.85508E-03
 -1       557 2.08710E-03
 -1       558 1.44971E-03
 -1       559 9.44525E-04
 -1       560 5.88233E-04
 -1       561 5.11664E-04
 -1       562 3.95274E-04
 -1       563 3.99858E-04
 -1       564 5.05982E+00
 -1       565 5.30722E-04
 -1       566 5.83714E-04
 -1       567 5.83714E-04
 -1       568 5.76524E-04
 -1       569 4.86592E-04
 -1       570 5.08881E-04
 -1       571 5.65331E-04
 -1       572 8.43679E-04
 -1       573 3.16607E-04
 -1       574 4.39137E-01
 -1       575 2.10229E+01
 -1       576 7.78691E-01
 -1       577 4.54597E-01
 -1       578 2.81402E+01
 -1       579 2.06082E+01
 -1       580 7.35291E+00
 -1       581 6.09767E+00
 -1       582 7.98578E+00
 -1       583 7.79768E+00
 -1       584 4.29039E+00
 -1       585 1.07343E+01
 -1       586 1.61441E+01
 -1       587 2.75882E+01
 -1       588 4.28201E+01
 -1       589 3.17789E+01
 -1       590 1.74456E+01
 -1       591 5.13698E-01
 -1       592 7.07093E+00
 -1       593 7.43593E-01
 -1       594 5.10179E-01
 -1       595 4.20076E+00
 -1       596 6.22696E-01
 -1       597 2.25871E+01
 -1       598 3.71480E+00
 -1       599 6.39532E+00
 -1       600 3.58591E-01
 -1       601 3.40991E-01
 -1       602 3.63151E-01
 -1       603 3.49674E-01
 -1       604 5.90965E-01
 -1       605 3.40235E-01
 -1       606 3.49823E-01
 -1       607 2.90384E-01
 -1       608 2.14079E-01
 -1       609 1.69631E-01
 -1       610 2.39914E-01
 -1       611 5.18783E-01
 -1       612 9.63877E-01
 -1       613 1.59632E+00
 -1       614 2.75900E+00
 -1       615 4.72111E+00
 -1       616 9.98554E+00
 -1       617 1.58613E+01
 -1       618 3.58286E-01
 -1       619 8.43754E+00
 -1       620 5.14983E+00
 -1       621 3.11193E+00
 -1       622 1.86828E+00
 -1       623 1.11463E+00
 -1       624 6.59196E-01
 -1       625 3.88895E-01
 -1       626 2.29504E-01
 -1       627 1.35640E-01
 -1       628 7.88826E-02
 -1       629 4.74550E-02
 -1       630 2.99754E-02
 -1       631 1.87198E-02
 -1       632 1.15402E-02
 -1       633 6.92437E-03
 -1       634 4.28120E-03
 -1       635 2.67912E-03
 -1       636 1.91698E-03
 -1       637 1.35927E-03
 -1       638 9.37528E-04
 -1       639 1.91525E+01
 -1       640 2.89612E-01
 -1       641 3.01700E-01
 -1       642 3.88976E-01
 -1       643 4.79368E-01
 -1       644 5.94927E-01
 -1       645 7.24475E-01
 -1       646 8.70328E-01
 -1       647 1.06749E+00
 -1       648 1.23101E+00
 -1       649 1.31553E+00
 -1       650 1.36405E+00
 -1       651 1.34995E+00
 -1       652 1.28895E+00
 -1       653 1.32617E+00
 -1       654 1.36342E+00
 -1       655 1.33395E+00
 -1       656 1.26829E+00
 -1       657 1.12911E+00
 -1       658 9.31947E-01
 -1       659 7.30819E-01
 -1       660 5.84427E-01
 -1       661 4.39785E-01
 -1       662 3.12644E-01
 -1       663 2.10290E-01
 -1       664 1.33584E-01
 -1       665 8.16327E-02
 -1       666 4.72322E-02
 -1       667 2.50371E-02
 -1       668 1.32603E-02
 -1       669 7.49083E-03
 -1       670 5.53768E-03
 -1       671 5.05174E-03
 -1       672 4.12250E-03
 -1       673 3.11434E-03
 -1       674 2.20898E-03
 -1       675 1.50001E-03
 -1       676 1.04846E-03
 -1       677 6.56554E-04
 -1       678 6.49825E-04
 -1       679 8.05386E-04
 -1       680 6.49825E-04
 -1       681 1.51690E+01
 -1       682 8.05386E-04
 -1       683 8.71357E-04
 -1       684 8.42983E-04
 -1       685 7.49580E-04
 -1       686 7.40781E-04
 -1       687 6.37871E-04
 -1       688 8.43679E-04
 -1       689 3.84557E-01
 -1       690 1.67407E+01
 -1       691 5.00991E+00
 -1       692 1.27100E+01
 -1       693 9.56416E+00
 -1       694 8.71357E-04
 -1       695 3.26705E-01
 -1       696 3.16763E+00
 -1       697 1.10033E+01
 -1       698 1.71952E+01
 -1       699 6.13376E+00
 -1       700 4.20968E-01
 -1       701 3.63151E-01
 -1       702 3.78612E-01
 -1       703 5.27617E+00
 -1       704 3.37353E-01
 -1       705 1.45534E+01
 -1       706 3.54147E-01
 -1       707 4.04828E+00
 -1       708 3.58286E-01
 -1       709 2.87582E+00
 -1       710 4.04755E-01
 -1       711 1.13040E+01
 -1       712 4.80448E+00
 -1       713 3.05538E-01
 -1       714 8.79083E+00
 -1       715 3.84314E+00
 -1       716 3.25594E-01
 -1       717 5.18060E+00
 -1       718 3.22369E+00
 -1       719 6.48002E+00
 -1       720 2.45005E-01
 -1       721 9.98554E+00
 -1       722 5.61596E-01
 -1       723 2.69469E-01
 -1       724 2.95268E-01
 -1       725 8.29514E+00
 -1       726 1.96661E-01
 -1       727 1.87743E-01
 -1       728 2.54939E-01
 -1       729 4.13012E-01
 -1       730 6.85874E-01
 -1       731 1.07181E+00
 -1       732 1.81065E+00
 -1       733 2.84862E+00
 -1       734 6.76918E+00
 -1       735 5.75515E+00
 -1       736 3.35268E+00
 -1       737 1.94495E+00
 -1       738 1.20717E+00
 -1       739 7.51016E-01
 -1       740 4.69189E-01
 -1       741 2.92193E-01
 -1       742 1.76961E-01
 -1       743 1.05774E-01
 -1       744 6.36610E-02
 -1       745 3.88223E-02
 -1       746 2.34071E-02
 -1       747 1.38483E-02
 -1       748 8.59737E-03
 -1       749 5.71242E-03
 -1       750 3.70598E-03
 -1       751 2.36209E-03
 -1       752 1.46713E-03
 -1       753 9.30937E-04
 -1       754 7.06188E-01
 -1       755 4.39136E-01
 -1       756 8.53793E-01
 -1       757 9.77035E-01
 -1       758 1.10546E+00
 -1       759 1.24835E+00
 -1       760 1.34020E+00
 -1       761 1.46483E+00
 -1       762 1.42109E+00
 -1       763 1.33612E+00
 -1       764 1.46402E+00
 -1       765 1.38863E+00
 -1       766 1.27042E+00
 -1       767 1.15575E+00
 -1       768 1.01778E+00
 -1       769 8.76164E-01
 -1       770 7.26051E-01
 -1       771 5.61880E-01
 -1       772 4.09858E-01
 -1       773 2.83137E-01
 -1       774 1.85554E-01
 -1       775 1.15048E-01
 -1       776 6.69145E-02
 -1       777 3.66939E-02
 -1       778 2.24854E-02
 -1       779 1.32603E-02
 -1       780 7.34937E-03
 -1       781 5.30902E-03
 -1       782 4.21669E-03
 -1       783 3.15836E-03
 -1       784 2.47700E-03
 -1       785 1.88150E-03
 -1       786 1.33059E-03
 -1       787 8.91282E-04
 -1       788 1.21439E-03
 -1       789 9.96459E+00
 -1       790 1.11607E-03
 -1       791 1.27647E-03
 -1       792 8.51615E-04
 -1       793 1.74505E+01
 -1       794 2.19854E-01
 -1       795 4.15338E+00
 -1       796 2.66288E-01
 -1       797 1.27647E-03
 -1       798 2.36932E-01
 -1       799 1.15776E-03
 -1       800 2.89435E-01
 -1       801 3.10603E+00
 -1       802 7.11368E+00
 -1       803 2.07104E-01
 -1       804 4.95492E+00
 -1       805 2.79119E-01
 -1       806 3.57113E+00
 -1       807 5.73851E+00
 -1       808 1.12069E-03
 -1       809 2.49675E-01
 -1       810 2.74468E+00
 -1       811 3.37820E+00
 -1       812 2.75078E-01
 -1       813 2.79397E+00
 -1       814 1.56347E-01
 -1       815 2.36896E+00
 -1       816 2.60320E-01
 -1       817 2.61713E+00
 -1       818 2.81751E-01
 -1       819 1.51082E-03
 -1       820 3.44924E+00
 -1       821 2.89435E-01
 -1       822 2.81985E-01
 -1       823 2.81099E-01
 -1       824 3.46109E-01
 -1       825 7.88828E+00
 -1       826 7.68650E+00
 -1       827 2.74955E+00
 -1       828 7.99646E-01
 -1       829 5.95158E+00
 -1       830 2.81099E-01
 -1       831 2.31010E-01
 -1       832 3.38653E-01
 -1       833 5.12996E-01
 -1       834 8.07991E-01
 -1       835 1.35372E+00
 -1       836 2.27669E+00
 -1       837 4.36281E+00
 -1       838 3.95574E+00
 -1       839 6.18730E-01
 -1       840 2.16859E+00
 -1       841 1.40276E+00
 -1       842 8.67661E-01
 -1       843 5.06530E-01
 -1       844 3.19173E-01
 -1       845 1.86867E-01
 -1       846 1.18917E-01
 -1       847 7.56029E-02
 -1       848 4.76764E-02
 -1       849 3.11666E-02
 -1       850 2.00381E-02
 -1       851 1.28952E-02
 -1       852 8.12097E-03
 -1       853 4.97542E-03
 -1       854 3.03319E-03
 -1       855 2.05818E-03
 -1       856 1.26245E-03
 -1       857 1.73996E-01
 -1       858 4.63672E-01
 -1       859 1.11552E+00
 -1       860 1.28474E+00
 -1       861 1.31983E+00
 -1       862 1.50322E+00
 -1       863 1.65939E+00
 -1       864 1.63456E+00
 -1       865 1.62313E+00
 -1       866 1.69391E+00
 -1       867 1.42397E+00
 -1       868 1.33682E+00
 -1       869 1.15965E+00
 -1       870 1.01778E+00
 -1       871 8.55159E-01
 -1       872 6.59694E-01
 -1       873 4.77635E-01
 -1       874 3.26735E-01
 -1       875 2.12219E-01
 -1       876 1.45847E-01
 -1       877 9.51075E-02
 -1       878 5.88622E-02
 -1       879 3.47494E-02
 -1       880 2.00851E-02
 -1       881 1.09055E-02
 -1       882 6.79274E-03
 -1       883 4.77431E-03
 -1       884 3.34593E-03
 -1       885 2.86814E-03
 -1       886 2.26371E-03
 -1       887 1.64931E-03
 -1       888 1.69137E-03
 -1       889 1.79092E-03
 -1       890 9.77035E-01
 -1       891 1.67501E-01
 -1       892 1.54044E-01
 -1       893 2.21881E-01
 -1       894 6.29753E+00
 -1       895 1.79092E-03
 -1       896 1.61225E-03
 -1       897 2.75654E+00
 -1       898 3.87723E+00
 -1       899 1.24219E-01
 -1       900 2.75921E+00
 -1       901 5.48324E+00
 -1       902 3.44562E-01
 -1       903 4.33719E+00
 -1       904 2.84722E+00
 -1       905 3.71011E+00
 -1       906 2.50353E+00
 -1       907 2.42930E+00
 -1       908 1.89777E-01
 -1       909 2.59806E+00
 -1       910 1.47589E-03
 -1       911 1.50838E-03
 -1       912 1.85523E-01
 -1       913 2.17985E-01
 -1       914 1.16887E-01
 -1       915 2.06173E-01
 -1       916 4.37984E+00
 -1       917 2.04961E+00
 -1       918 1.34130E-01
 -1       919 2.17985E-01
 -1       920 2.22412E+00
 -1       921 1.22547E-01
 -1       922 1.87075E-01
 -1       923 2.12750E-01
 -1       924 2.71130E+00
 -1       925 3.19204E+00
 -1       926 2.00496E-01
 -1       927 4.41236E-01
 -1       928 6.57572E-01
 -1       929 1.00198E+00
 -1       930 1.52199E+00
 -1       931 2.27669E+00
 -1       932 2.60881E-01
 -1       933 6.52186E-01
 -1       934 2.71313E+00
 -1       935 1.71274E+00
 -1       936 1.02082E+00
 -1       937 5.68425E-01
 -1       938 3.81573E-01
 -1       939 2.44675E-01
 -1       940 1.52503E-01
 -1       941 9.30127E-02
 -1       942 5.55573E-02
 -1       943 3.24677E-02
 -1       944 2.08161E-02
 -1       945 1.41265E-02
 -1       946 9.70404E-03
 -1       947 6.50292E-03
 -1       948 4.25238E-03
 -1       949 3.03890E-03
 -1       950 2.55665E+00
 -1       951 4.54950E-01
 -1       952 5.19298E+00
 -1       953 2.09324E+00
 -1       954 1.30050E+00
 -1       955 1.65939E+00
 -1       956 1.85182E+00
 -1       957 2.22412E+00
 -1       958 2.71130E+00
 -1       959 2.40355E+00
 -1       960 3.19204E+00
 -1       961 1.93356E+00
 -1       962 1.15965E+00
 -1       963 9.98196E-01
 -1       964 7.65169E-01
 -1       965 5.53239E-01
 -1       966 4.21395E-01
 -1       967 3.01379E-01
 -1       968 2.03964E-01
 -1       969 1.30751E-01
 -1       970 8.04416E-02
 -1       971 4.75895E-02
 -1       972 2.73149E-02
 -1       973 1.69248E-02
 -1       974 1.05301E-02
 -1       975 6.33084E-03
 -1       976 4.12066E-03
 -1       977 3.34593E-03
 -1       978 2.94004E-03
 -1       979 2.00146E-03
 -1       980 2.94762E-03
 -1       981 1.11552E+00
 -1       982 3.75239E+00
 -1       983 2.82718E-01
 -1       984 8.89933E-01
 -1       985 2.87671E-03
 -1       986 2.17668E-03
 -1       987 2.14368E-01
 -1       988 9.18269E-02
 -1       989 1.74775E-01
 -1       990 1.42148E-01
 -1       991 1.29414E-01
 -1       992 3.24915E-01
 -1       993 3.08302E+00
 -1       994 2.79741E+00
 -1       995 2.60211E+00
 -1       996 2.21442E+00
 -1       997 2.55665E+00
 -1       998 1.17140E-01
 -1       999 3.60488E+00
 -1      1000 2.94004E-03
 -1      1001 1.38171E-01
 -1      1002 2.32855E+00
 -1      1003 1.56664E-01
 -1      1004 2.71130E+00
 -1      1005 1.29414E-01
 -1      1006 1.36361E-01
 -1      1007 2.41388E+00
 -1      1008 1.53528E-01
 -1      1009 3.19204E+00
 -1      1010 6.57572E-01
 -1      1011 1.03147E+00
 -1      1012 2.45573E+00
 -1      1013 3.46448E+00
 -1      1014 1.77569E+00
 -1      1015 8.64110E-01
 -1      1016 4.96218E-01
 -1      1017 2.97923E-01
 -1      1018 1.73888E-01
 -1      1019 1.02740E-01
 -1      1020 6.67346E-02
 -1      1021 4.23137E-02
 -1      1022 2.62749E-02
 -1      1023 1.53769E-02
 -1      1024 1.00777E-02
 -1      1025 6.53186E-03
 -1      1026 4.68937E-03
 -1      1027 3.70773E-03
 -1      1028 1.16680E+00
 -1      1029 9.84632E-02
 -1      1030 6.25214E-01
 -1      1031 1.84539E+00
 -1      1032 2.09324E+00
 -1      1033 1.20148E+00
 -1      1034 1.03067E+00
 -1      1035 7.65169E-01
 -1      1036 5.52813E-01
 -1      1037 3.88276E-01
 -1      1038 2.55356E-01
 -1      1039 1.67189E-01
 -1      1040 1.12379E-01
 -1      1041 7.18369E-02
 -1      1042 4.40516E-02
 -1      1043 2.67180E-02
 -1      1044 1.54675E-02
 -1      1045 8.55112E-03
 -1      1046 5.76305E-03
 -1      1047 4.11593E-03
 -1      1048 3.10283E-03
 -1      1049 1.34986E-01
 -1      1050 8.36547E-01
 -1      1051 3.45723E+00
 -1      1052 3.17020E-01
 -1      1053 6.67527E-02
 -1      1054 2.23503E-01
 -1      1055 1.56664E-01
 -1      1056 3.19668E-03
 -1      1057 3.13643E-03
 -1      1058 4.59807E-01
 -1      1059 3.14351E+00
 -1      1060 2.21040E-01
 -1      1061 2.31824E+00
 -1      1062 2.25425E+00
 -1      1063 1.71442E-01
 -1      1064 1.58482E+00
 -1      1065 2.55665E+00
 -1      1066 1.87414E+00
 -1      1067 2.12001E+00
 -1      1068 1.94381E+00
 -1      1069 7.54578E-02
 -1      1070 1.11111E-01
 -1      1071 9.17698E-02
 -1      1072 2.45573E+00
 -1      1073 4.29115E-01
 -1      1074 3.04483E+00
 -1      1075 8.33796E-01
 -1      1076 2.03012E+00
 -1      1077 1.10005E-01
 -1      1078 1.77569E+00
 -1      1079 7.07354E-02
 -1      1080 4.96218E-01
 -1      1081 3.34776E-01
 -1      1082 2.18456E-01
 -1      1083 1.37013E-01
 -1      1084 8.26297E-02
 -1      1085 4.80295E-02
 -1      1086 2.73997E-02
 -1      1087 1.75430E-02
 -1      1088 1.21998E-02
 -1      1089 7.91608E-03
 -1      1090 5.10237E-03
 -1      1091 3.70773E-03
 -1      1092 1.02192E-01
 -1      1093 2.31824E+00
 -1      1094 5.95722E-01
 -1      1095 3.98950E-01
 -1      1096 2.90539E-01
 -1      1097 1.88575E-01
 -1      1098 1.17763E-01
 -1      1099 7.06890E-02
 -1      1100 4.23489E-02
 -1      1101 2.54652E-02
 -1      1102 1.54134E-02
 -1      1103 8.73185E-03
 -1      1104 5.60477E-03
 -1      1105 4.05119E-03
 -1      1106 1.03067E+00
 -1      1107 1.75096E-01
 -1      1108 4.05119E-03
 -1      1109 2.38205E-01
 -1      1110 8.92597E-02
 -1      1111 3.00012E-01
 -1      1112 1.84902E-01
 -1      1113 5.49600E-01
 -1      1114 1.52471E+00
 -1      1115 1.12922E+00
 -1      1116 1.04665E+00
 -1      1117 3.37041E-01
 -1      1118 2.13896E+00
 -1      1119 9.26176E-01
 -1      1120 1.12922E+00
 -1      1121 8.33796E-01
 -1      1122 8.28959E-02
 -1      1123 4.22856E-01
 -1      1124 6.47622E-01
 -1      1125 2.58262E-01
 -1      1126 1.62290E-01
 -1      1127 1.07775E-01
 -1      1128 6.87471E-02
 -1      1129 4.23489E-02
 -1      1130 2.54652E-02
 -1      1131 1.54134E-02
 -1      1132 8.73185E-03
 -1      1133 1.52471E+00
 -1      1134 1.75096E-01
 -1      1135 5.60477E-03
 -1      1136 2.38205E-01
 -1      1137 5.60389E-01
 -1      1138 3.76792E-01
 -1      1139 1.33662E+01
 -1      1140 8.50720E+00
 -1      1141 2.73571E+00
 -1      1142 1.55685E+00
 -1      1143 1.16639E+00
 -1      1144 9.70036E-01
 -1      1145 8.51653E-01
 -1      1146 7.77528E-01
 -1      1147 7.50143E-01
 -1      1148 7.80843E-01
 -1      1149 8.55514E-01
 -1      1150 9.76824E-01
 -1      1151 1.18074E+00
 -1      1152 1.57011E+00
 -1      1153 2.66911E+00
 -1      1154 6.06867E+00
 -1      1155 1.13303E+01
 -1      1156 1.33662E+01
 -1      1157 8.81528E+00
 -1      1158 3.83494E+00
 -1      1159 2.78488E+00
 -1      1160 1.78337E+00
 -1      1161 1.23530E+00
 -1      1162 9.57330E-01
 -1      1163 7.66869E-01
 -1      1164 6.45599E-01
 -1      1165 5.83185E-01
 -1      1166 6.80050E-01
 -1      1167 9.86653E-01
 -1      1168 1.45470E+00
 -1      1169 2.09963E+00
 -1      1170 2.99000E+00
 -1      1171 4.33961E+00
 -1      1172 6.15480E+00
 -1      1173 7.74880E+00
 -1      1174 8.35262E+00
 -1      1175 7.55089E+00
 -1      1176 1.25766E+01
 -1      1177 1.98343E+01
 -1      1178 2.12644E+01
 -1      1179 1.95797E+01
 -1      1180 1.24755E+01
 -1      1181 6.65045E+00
 -1      1182 6.38404E+00
 -1      1183 6.52314E+00
 -1      1184 5.76535E+00
 -1      1185 4.42176E+00
 -1      1186 3.24801E+00
 -1      1187 2.26116E+00
 -1      1188 1.54128E+00
 -1      1189 9.92746E-01
 -1      1190 6.15867E-01
 -1      1191 3.72942E-01
 -1      1192 2.20183E-01
 -1      1193 1.30492E-01
 -1      1194 7.91855E-02
 -1      1195 4.70867E-02
 -1      1196 2.96956E-02
 -1      1197 1.96624E-02
 -1      1198 1.31034E-02
 -1      1199 8.79947E-03
 -1      1200 5.98315E-03
 -1      1201 4.10123E-03
 -1      1202 2.85311E-03
 -1      1203 2.10724E-03
 -1      1204 1.58998E-03
 -1      1205 1.10362E-03
 -1      1206 7.16480E-04
 -1      1207 3.90994E-04
 -1      1208 1.40291E+01
 -1      1209 8.71112E+00
 -1      1210 2.90224E+00
 -1      1211 2.03459E+00
 -1      1212 1.39553E+00
 -1      1213 1.01308E+00
 -1      1214 7.98626E-01
 -1      1215 6.21812E-01
 -1      1216 4.67928E-01
 -1      1217 3.40202E-01
 -1      1218 2.35453E-01
 -1      1219 2.06304E-01
 -1      1220 3.04456E-01
 -1      1221 4.70708E-01
 -1      1222 6.45217E-01
 -1      1223 8.04526E-01
 -1      1224 9.92052E-01
 -1      1225 1.31934E+00
 -1      1226 1.72749E+00
 -1      1227 2.05961E+00
 -1      1228 2.23408E+00
 -1      1229 2.38816E+00
 -1      1230 2.51526E+00
 -1      1231 2.52684E+00
 -1      1232 2.41893E+00
 -1      1233 2.12413E+00
 -1      1234 1.73277E+00
 -1      1235 1.34319E+00
 -1      1236 9.92161E-01
 -1      1237 6.90690E-01
 -1      1238 4.61147E-01
 -1      1239 3.08527E-01
 -1      1240 2.05069E-01
 -1      1241 1.27994E-01
 -1      1242 7.59805E-02
 -1      1243 4.84447E-02
 -1      1244 3.41395E-02
 -1      1245 2.46282E-02
 -1      1246 1.91892E-02
 -1      1247 1.43387E-02
 -1      1248 1.00117E-02
 -1      1249 6.78427E-03
 -1      1250 4.74261E-03
 -1      1251 3.42239E-03
 -1      1252 2.40357E-03
 -1      1253 1.57529E-03
 -1      1254 1.09036E-03
 -1      1255 7.98464E-04
 -1      1256 5.10288E-04
 -1      1257 2.42419E-04
 -1      1258 1.10558E-04
 -1      1259 1.12473E-04
 -1      1260 1.01668E-04
 -1      1261 7.91313E-05
 -1      1262 6.36955E-05
 -1      1263 8.64561E-05
 -1      1264 1.04461E-04
 -1      1265 1.06805E-04
 -1      1266 9.52682E-05
 -1      1267 6.90809E-05
 -1      1268 8.81281E-05
 -1      1269 1.44523E-04
 -1      1270 1.69084E-04
 -1      1271 1.70947E-04
 -1      1272 1.35608E-04
 -1      1273 1.19337E-04
 -1      1274 1.74475E-04
 -1      1275 2.52855E+01
 -1      1276 3.38596E+01
 -1      1277 4.24337E+01
 -1      1278 2.93299E+01
 -1      1279 1.49089E+01
 -1      1280 1.35918E+01
 -1      1281 1.28960E+01
 -1      1282 1.22002E+01
 -1      1283 1.20502E+01
 -1      1284 1.30640E+01
 -1      1285 2.54550E+01
 -1      1286 3.66822E+01
 -1      1287 3.13198E+01
 -1      1288 2.53059E+01
 -1      1289 2.45312E+01
 -1      1290 2.52034E+01
 -1      1291 3.71285E+01
 -1      1292 4.82582E+01
 -1      1293 3.45642E+01
 -1      1294 1.83080E+01
 -1      1295 1.57458E+01
 -1      1296 1.54558E+01
 -1      1297 1.51659E+01
 -1      1298 1.71172E+01
 -1      1299 3.25846E+01
 -1      1300 4.61008E+01
 -1      1301 3.60735E+01
 -1      1302 2.58656E+01
 -1      1303 2.54853E+01
 -1      1304 1.33662E+01
 -1      1305 4.91482E+00
 -1      1306 9.77380E+00
 -1      1307 2.05941E+00
 -1      1308 2.97191E+00
 -1      1309 4.23852E+00
 -1      1310 1.39852E+00
 -1      1311 1.66489E+00
 -1      1312 1.90109E+00
 -1      1313 1.10032E+00
 -1      1314 1.22441E+00
 -1      1315 1.33245E+00
 -1      1316 9.34302E-01
 -1      1317 1.00657E+00
 -1      1318 1.06459E+00
 -1      1319 8.33712E-01
 -1      1320 8.79827E-01
 -1      1321 9.16361E-01
 -1      1322 7.70928E-01
 -1      1323 7.98937E-01
 -1      1324 8.27112E-01
 -1      1325 7.50768E-01
 -1      1326 7.50143E-01
 -1      1327 7.71553E-01
 -1      1328 8.03404E-01
 -1      1329 7.73329E-01
 -1      1330 7.73329E-01
 -1      1331 8.82693E-01
 -1      1332 8.38096E-01
 -1      1333 8.30582E-01
 -1      1334 1.01716E+00
 -1      1335 9.40448E-01
 -1      1336 9.23029E-01
 -1      1337 1.24036E+00
 -1      1338 1.11316E+00
 -1      1339 1.07678E+00
 -1      1340 1.68073E+00
 -1      1341 1.41856E+00
 -1      1342 1.35098E+00
 -1      1343 2.88345E+00
 -1      1344 2.04662E+00
 -1      1345 1.89507E+00
 -1      1346 6.28087E+00
 -1      1347 3.71813E+00
 -1      1348 3.09564E+00
 -1      1349 1.40291E+01
 -1      1350 1.13303E+01
 -1      1351 8.97972E+00
 -1      1352 1.40291E+01
 -1      1353 8.81528E+00
 -1      1354 4.26439E+00
 -1      1355 3.83494E+00
 -1      1356 3.40549E+00
 -1      1357 3.83494E+00
 -1      1358 2.78488E+00
 -1      1359 2.16426E+00
 -1      1360 2.78488E+00
 -1      1361 1.81751E+00
 -1      1362 1.43663E+00
 -1      1363 1.81751E+00
 -1      1364 1.23530E+00
 -1      1365 1.06810E+00
 -1      1366 1.26943E+00
 -1      1367 9.57330E-01
 -1      1368 8.46558E-01
 -1      1369 9.57330E-01
 -1      1370 7.66869E-01
 -1      1371 6.87180E-01
 -1      1372 7.66869E-01
 -1      1373 6.45599E-01
 -1      1374 6.04017E-01
 -1      1375 6.45599E-01
 -1      1376 5.80141E-01
 -1      1377 5.59309E-01
 -1      1378 5.80141E-01
 -1      1379 5.62353E-01
 -1      1380 6.80050E-01
 -1      1381 5.59309E-01
 -1      1382 8.22607E-01
 -1      1383 1.01151E+00
 -1      1384 7.04910E-01
 -1      1385 1.34857E+00
 -1      1386 1.62771E+00
 -1      1387 1.18452E+00
 -1      1388 2.13271E+00
 -1      1389 2.49850E+00
 -1      1390 2.02658E+00
 -1      1391 3.16886E+00
 -1      1392 3.69345E+00
 -1      1393 3.20194E+00
 -1      1394 4.51025E+00
 -1      1395 5.33527E+00
 -1      1396 4.68911E+00
 -1      1397 6.10665E+00
 -1      1398 7.09683E+00
 -1      1399 6.27730E+00
 -1      1400 7.55656E+00
 -1      1401 8.16038E+00
 -1      1402 7.50841E+00
 -1      1403 9.22901E+00
 -1      1404 9.22901E+00
 -1      1405 9.03677E+00
 -1      1406 9.64074E+00
 -1      1407 8.83901E+00
 -1      1408 1.05171E+01
 -1      1409 8.93074E+00
 -1      1410 1.47582E+01
 -1      1411 1.10206E+01
 -1      1412 2.12644E+01
 -1      1413 2.12644E+01
 -1      1414 1.95797E+01
 -1      1415 1.78950E+01
 -1      1416 1.95797E+01
 -1      1417 1.27550E+01
 -1      1418 7.33547E+00
 -1      1419 1.27550E+01
 -1      1420 7.66392E+00
 -1      1421 7.25841E+00
 -1      1422 7.94342E+00
 -1      1423 6.92448E+00
 -1      1424 7.06359E+00
 -1      1425 7.93796E+00
 -1      1426 6.52314E+00
 -1      1427 6.52314E+00
 -1      1428 7.06359E+00
 -1      1429 6.13593E+00
 -1      1430 5.37814E+00
 -1      1431 6.13593E+00
 -1      1432 4.92553E+00
 -1      1433 4.33973E+00
 -1      1434 5.29611E+00
 -1      1435 3.68504E+00
 -1      1436 3.09708E+00
 -1      1437 4.18880E+00
 -1      1438 2.50857E+00
 -1      1439 2.10968E+00
 -1      1440 2.94560E+00
 -1      1441 1.66723E+00
 -1      1442 1.34625E+00
 -1      1443 1.91464E+00
 -1      1444 1.04922E+00
 -1      1445 8.21666E-01
 -1      1446 1.17517E+00
 -1      1447 6.45029E-01
 -1      1448 4.95702E-01
 -1      1449 7.01501E-01
 -1      1450 3.94991E-01
 -1      1451 3.01392E-01
 -1      1452 4.24153E-01
 -1      1453 2.35490E-01
 -1      1454 1.76329E-01
 -1      1455 2.57539E-01
 -1      1456 1.41649E-01
 -1      1457 1.11119E-01
 -1      1458 1.56956E-01
 -1      1459 8.68969E-02
 -1      1460 6.61207E-02
 -1      1461 9.80539E-02
 -1      1462 5.13701E-02
 -1      1463 4.00476E-02
 -1      1464 5.90815E-02
 -1      1465 3.11583E-02
 -1      1466 2.50898E-02
 -1      1467 3.54417E-02
 -1      1468 1.97414E-02
 -1      1469 1.57766E-02
 -1      1470 2.12040E-02
 -1      1471 1.33347E-02
 -1      1472 1.07404E-02
 -1      1473 1.34136E-02
 -1      1474 9.06488E-03
 -1      1475 7.35519E-03
 -1      1476 9.29613E-03
 -1      1477 6.21502E-03
 -1      1478 5.10839E-03
 -1      1479 6.48043E-03
 -1      1480 4.31851E-03
 -1      1481 3.54323E-03
 -1      1482 4.55038E-03
 -1      1483 2.95737E-03
 -1      1484 2.48453E-03
 -1      1485 3.17465E-03
 -1      1486 2.10724E-03
 -1      1487 1.83422E-03
 -1      1488 2.21150E-03
 -1      1489 1.58998E-03
 -1      1490 1.34573E-03
 -1      1491 1.58998E-03
 -1      1492 1.10362E-03
 -1      1493 8.61515E-04
 -1      1494 1.10362E-03
 -1      1495 7.16480E-04
 -1      1496 5.71444E-04
 -1      1497 7.16480E-04
 -1      1498 4.12245E-04
 -1      1499 2.31795E-04
 -1      1500 1.95726E-04
 -1      1501 4.12245E-04
 -1      1502 3.39313E+00
 -1      1503 8.71112E+00
 -1      1504 8.71112E+00
 -1      1505 2.41135E+00
 -1      1506 2.90224E+00
 -1      1507 2.90224E+00
 -1      1508 1.65783E+00
 -1      1509 2.03459E+00
 -1      1510 2.03459E+00
 -1      1511 1.13322E+00
 -1      1512 1.39553E+00
 -1      1513 1.39553E+00
 -1      1514 8.92930E-01
 -1      1515 1.01308E+00
 -1      1516 1.01308E+00
 -1      1517 7.04321E-01
 -1      1518 7.98626E-01
 -1      1519 7.98626E-01
 -1      1520 5.39303E-01
 -1      1521 6.21812E-01
 -1      1522 6.21812E-01
 -1      1523 3.96553E-01
 -1      1524 4.67928E-01
 -1      1525 4.67928E-01
 -1      1526 3.01677E-01
 -1      1527 3.58028E-01
 -1      1528 3.58028E-01
 -1      1529 2.32715E-01
 -1      1530 2.81113E-01
 -1      1531 2.98939E-01
 -1      1532 2.88814E-01
 -1      1533 2.69565E-01
 -1      1534 3.15226E-01
 -1      1535 4.33406E-01
 -1      1536 3.54503E-01
 -1      1537 4.17764E-01
 -1      1538 6.13009E-01
 -1      1539 5.25659E-01
 -1      1540 5.75706E-01
 -1      1541 8.16115E-01
 -1      1542 7.28956E-01
 -1      1543 7.83907E-01
 -1      1544 1.01984E+00
 -1      1545 9.47692E-01
 -1      1546 1.03143E+00
 -1      1547 1.27369E+00
 -1      1548 1.15832E+00
 -1      1549 1.30148E+00
 -1      1550 1.64076E+00
 -1      1551 1.42884E+00
 -1      1552 1.59511E+00
 -1      1553 1.95316E+00
 -1      1554 1.75693E+00
 -1      1555 1.86643E+00
 -1      1556 2.14138E+00
 -1      1557 2.00550E+00
 -1      1558 2.03493E+00
 -1      1559 2.23408E+00
 -1      1560 2.19550E+00
 -1      1561 2.14138E+00
 -1      1562 2.38816E+00
 -1      1563 2.27265E+00
 -1      1564 2.23408E+00
 -1      1565 2.51526E+00
 -1      1566 2.50367E+00
 -1      1567 2.38816E+00
 -1      1568 2.52684E+00
 -1      1569 2.52684E+00
 -1      1570 2.51526E+00
 -1      1571 2.31102E+00
 -1      1572 2.41893E+00
 -1      1573 2.41893E+00
 -1      1574 1.93725E+00
 -1      1575 2.12413E+00
 -1      1576 2.12413E+00
 -1      1577 1.52829E+00
 -1      1578 1.73277E+00
 -1      1579 1.73277E+00
 -1      1580 1.16520E+00
 -1      1581 1.35029E+00
 -1      1582 1.35029E+00
 -1      1583 8.48952E-01
 -1      1584 1.01489E+00
 -1      1585 1.02199E+00
 -1      1586 5.84087E-01
 -1      1587 7.19620E-01
 -1      1588 7.42349E-01
 -1      1589 3.87184E-01
 -1      1590 4.81194E-01
 -1      1591 5.10124E-01
 -1      1592 2.51963E-01
 -1      1593 3.10574E-01
 -1      1594 3.30621E-01
 -1      1595 1.60223E-01
 -1      1596 2.05069E-01
 -1      1597 2.07116E-01
 -1      1598 9.63718E-02
 -1      1599 1.28601E-01
 -1      1600 1.28601E-01
 -1      1601 5.64319E-02
 -1      1602 7.62158E-02
 -1      1603 7.68233E-02
 -1      1604 4.06929E-02
 -1      1605 4.84447E-02
 -1      1606 4.86801E-02
 -1      1607 2.75862E-02
 -1      1608 3.41395E-02
 -1      1609 3.41395E-02
 -1      1610 2.16703E-02
 -1      1611 2.46282E-02
 -1      1612 2.46282E-02
 -1      1613 1.67081E-02
 -1      1614 1.91892E-02
 -1      1615 1.91892E-02
 -1      1616 1.19693E-02
 -1      1617 1.43387E-02
 -1      1618 1.43387E-02
 -1      1619 8.05419E-03
 -1      1620 1.00117E-02
 -1      1621 1.00117E-02
 -1      1622 5.66191E-03
 -1      1623 6.93183E-03
 -1      1624 6.93183E-03
 -1      1625 3.97087E-03
 -1      1626 4.74261E-03
 -1      1627 4.89017E-03
 -1      1628 2.87391E-03
 -1      1629 3.42239E-03
 -1      1630 3.42239E-03
 -1      1631 1.93322E-03
 -1      1632 2.40357E-03
 -1      1633 2.40357E-03
 -1      1634 1.23285E-03
 -1      1635 1.59078E-03
 -1      1636 1.59078E-03
 -1      1637 9.63353E-04
 -1      1638 1.09036E-03
 -1      1639 1.10585E-03
 -1      1640 6.33575E-04
 -1      1641 7.98464E-04
 -1      1642 7.98464E-04
 -1      1643 3.87001E-04
 -1      1644 5.10288E-04
 -1      1645 5.10288E-04
 -1      1646 2.55140E-04
 -1      1647 1.33901E-04
 -1      1648 1.44707E-04
 -1      1649 1.37235E-04
 -1      1650 1.37235E-04
 -1      1651 1.69469E-04
 -1      1652 1.14699E-04
 -1      1653 1.37235E-04
 -1      1654 1.72803E-04
 -1      1655 1.08705E-04
 -1      1656 1.01605E-04
 -1      1657 1.59709E-04
 -1      1658 1.57784E-04
 -1      1659 1.42124E-04
 -1      1660 1.80033E-04
 -1      1661 1.69395E-04
 -1      1662 1.67050E-04
 -1      1663 2.22718E-04
 -1      1664 1.69395E-04
 -1      1665 1.69395E-04
 -1      1666 2.31984E-04
 -1      1667 1.57584E-04
 -1      1668 1.69121E-04
 -1      1669 2.31710E-04
 -1      1670 1.18876E-04
 -1      1671 1.33526E-04
 -1      1672 2.07379E-04
 -1      1673 1.50689E-04
 -1      1674 1.16992E-04
 -1      1675 1.81437E-04
 -1      1676 2.26812E-04
 -1      1677 2.04115E-04
 -1      1678 2.32979E-04
 -1      1679 2.43701E-04
 -1      1680 2.41837E-04
 -1      1681 3.01429E-04
 -1      1682 2.43701E-04
 -1      1683 2.43701E-04
 -1      1684 3.16454E-04
 -1      1685 2.06012E-04
 -1      1686 2.41351E-04
 -1      1687 3.14105E-04
 -1      1688 1.41120E-04
 -1      1689 1.22051E-04
 -1      1690 2.27794E-04
 -1      1691 1.98440E-04
 -1      1692 2.71055E+01
 -1      1693 2.71055E+01
 -1      1694 3.92625E+01
 -1      1695 3.06884E+01
 -1      1696 4.24337E+01
 -1      1697 4.24337E+01
 -1      1698 1.65944E+01
 -1      1699 2.96982E+01
 -1      1700 1.25547E+01
 -1      1701 1.38718E+01
 -1      1702 1.35918E+01
 -1      1703 1.35918E+01
 -1      1704 1.20151E+01
 -1      1705 1.27109E+01
 -1      1706 1.22002E+01
 -1      1707 1.22002E+01
 -1      1708 1.19002E+01
 -1      1709 1.20502E+01
 -1      1710 1.26329E+01
 -1      1711 1.14691E+01
 -1      1712 2.55593E+01
 -1      1713 1.43321E+01
 -1      1714 3.66822E+01
 -1      1715 3.66822E+01
 -1      1716 3.04502E+01
 -1      1717 3.58126E+01
 -1      1718 2.48794E+01
 -1      1719 2.55308E+01
 -1      1720 2.86542E+01
 -1      1721 2.87775E+01
 -1      1722 2.94496E+01
 -1      1723 2.86542E+01
 -1      1724 3.90720E+01
 -1      1725 2.79423E+01
 -1      1726 4.82582E+01
 -1      1727 4.82582E+01
 -1      1728 2.16724E+01
 -1      1729 3.53664E+01
 -1      1730 1.42943E+01
 -1      1731 1.68565E+01
 -1      1732 1.57458E+01
 -1      1733 1.57458E+01
 -1      1734 1.49349E+01
 -1      1735 1.52248E+01
 -1      1736 1.51659E+01
 -1      1737 1.51659E+01
 -1      1738 1.57157E+01
 -1      1739 1.37644E+01
 -1      1740 3.31716E+01
 -1      1741 1.96554E+01
 -1      1742 4.61008E+01
 -1      1743 4.61008E+01
 -1      1744 3.18274E+01
 -1      1745 4.18547E+01
 -1      1746 2.67607E+01
 -1      1747 2.69412E+01
 -1      1748 3.27225E+01
 -1      1749 2.71055E+01
 -1      1750 2.73053E+01
 -1      1751 1.47582E+01
 -1      1752 1.84041E+01
 -1      1753 1.98343E+01
 -1      1754 1.98343E+01
 -1      1755 2.89254E+01
 -1      1756 2.96982E+01
 -1      1757 2.55140E-04
 -1      1758 2.76568E-04
 -1      1759 3.25083E+01
 -1      1760 3.92625E+01
 -1      1761 1.42402E+01
 -1      1762 1.25547E+01
 -1      1763 1.27109E+01
 -1      1764 1.20151E+01
 -1      1765 1.20502E+01
 -1      1766 1.14691E+01
 -1      1767 1.27371E+01
 -1      1768 2.55593E+01
 -1      1769 3.58126E+01
 -1      1770 3.00236E+01
 -1      1771 2.90023E+01
 -1      1772 3.29004E+01
 -1      1773 3.13931E+01
 -1      1774 3.90720E+01
 -1      1775 3.53664E+01
 -1      1776 1.76587E+01
 -1      1777 1.42943E+01
 -1      1778 1.52248E+01
 -1      1779 1.49349E+01
 -1      1780 1.37644E+01
 -1      1781 1.63026E+01
 -1      1782 3.31716E+01
 -1      1783 4.18547E+01
 -1      1784 9.77380E+00
 -1      1785 2.83809E+01
 -1      1786 1.29234E+00
 -1      1787 1.68686E+00
 -1      1788 2.41415E+00
 -1      1789 4.35705E+00
 -1      1790 1.80540E+00
 -1      1791 8.79425E-01
 -1      1792 9.73176E-01
 -1      1793 7.77726E-01
 -1      1794 8.32201E-01
 -1      1795 7.40790E-01
 -1      1796 7.10989E-01
 -1      1797 7.45763E-01
 -1      1798 6.61603E-01
 -1      1799 6.67705E-01
 -1      1800 6.88489E-01
 -1      1801 6.07140E-01
 -1      1802 6.92001E-01
 -1      1803 6.69440E-01
 -1      1804 5.86377E-01
 -1      1805 7.49260E-01
 -1      1806 7.14568E-01
 -1      1807 6.10679E-01
 -1      1808 8.41027E-01
 -1      1809 7.83271E-01
 -1      1810 6.67257E-01
 -1      1811 9.85184E-01
 -1      1812 8.89184E-01
 -1      1813 7.49426E-01
 -1      1814 1.23087E+00
 -1      1815 1.05267E+00
 -1      1816 8.65068E-01
 -1      1817 1.70395E+00
 -1      1818 1.33806E+00
 -1      1819 1.03975E+00
 -1      1820 2.63062E+00
 -1      1821 1.79593E+00
 -1      1822 1.23892E+00
 -1      1823 8.10981E+00
 -1      1824 3.06042E+00
 -1      1825 1.76071E+00
 -1      1826 2.79182E+00
 -1      1827 5.22291E+00
 -1      1828 2.15822E+00
 -1      1829 2.64911E+00
 -1      1830 2.04780E+00
 -1      1831 3.61528E+01
 -1      1832 3.56083E+01
 -1      1833 1.70750E+01
 -1      1834 1.85051E+01
 -1      1835 2.57234E+00
 -1      1836 1.95173E+00
 -1      1837 1.72463E+00
 -1      1838 1.37789E+00
 -1      1839 1.51210E+00
 -1      1840 1.19406E+00
 -1      1841 9.92733E-01
 -1      1842 1.10119E+00
 -1      1843 8.72152E-01
 -1      1844 7.61380E-01
 -1      1845 7.96783E-01
 -1      1846 7.10640E-01
 -1      1847 6.30951E-01
 -1      1848 6.25462E-01
 -1      1849 5.89703E-01
 -1      1850 5.48121E-01
 -1      1851 5.33474E-01
 -1      1852 5.08096E-01
 -1      1853 4.84221E-01
 -1      1854 4.52201E-01
 -1      1855 4.76147E-01
 -1      1856 4.79191E-01
 -1      1857 4.04102E-01
 -1      1858 5.84671E-01
 -1      1859 7.27228E-01
 -1      1860 5.01509E-01
 -1      1861 9.78166E-01
 -1      1862 1.31522E+00
 -1      1863 8.57926E-01
 -1      1864 1.69940E+00
 -1      1865 2.20441E+00
 -1      1866 1.49305E+00
 -1      1867 2.76298E+00
 -1      1868 3.43334E+00
 -1      1869 2.43580E+00
 -1      1870 4.28048E+00
 -1      1871 5.09728E+00
 -1      1872 3.84151E+00
 -1      1873 6.35120E+00
 -1      1874 7.12259E+00
 -1      1875 5.94257E+00
 -1      1876 8.98898E+00
 -1      1877 9.44871E+00
 -1      1878 9.06289E+00
 -1      1879 1.35349E+01
 -1      1880 1.46035E+01
 -1      1881 1.50155E+01
 -1      1882 9.11696E+00
 -1      1883 9.44541E+00
 -1      1884 1.18844E+01
 -1      1885 1.15505E+01
 -1      1886 9.53638E+00
 -1      1887 8.99594E+00
 -1      1888 1.34829E+01
 -1      1889 7.22623E+00
 -1      1890 6.83902E+00
 -1      1891 9.69902E+00
 -1      1892 5.94188E+00
 -1      1893 5.48927E+00
 -1      1894 7.03218E+00
 -1      1895 4.62047E+00
 -1      1896 3.96578E+00
 -1      1897 5.26624E+00
 -1      1898 3.24075E+00
 -1      1899 2.65224E+00
 -1      1900 3.67242E+00
 -1      1901 2.11793E+00
 -1      1902 1.67548E+00
 -1      1903 2.41308E+00
 -1      1904 1.31447E+00
 -1      1905 1.01744E+00
 -1      1906 1.51776E+00
 -1      1907 7.86609E-01
 -1      1908 6.09972E-01
 -1      1909 9.25912E-01
 -1      1910 4.67499E-01
 -1      1911 3.66788E-01
 -1      1912 5.52608E-01
 -1      1913 2.78924E-01
 -1      1914 2.13022E-01
 -1      1915 3.22271E-01
 -1      1916 1.66148E-01
 -1      1917 1.31468E-01
 -1      1918 1.87534E-01
 -1      1919 1.00933E-01
 -1      1920 7.67110E-02
 -1      1921 1.10125E-01
 -1      1922 6.10735E-02
 -1      1923 4.63229E-02
 -1      1924 6.39525E-02
 -1      1925 3.74264E-02
 -1      1926 2.85371E-02
 -1      1927 3.94183E-02
 -1      1928 2.29012E-02
 -1      1929 1.75528E-02
 -1      1930 2.48859E-02
 -1      1931 1.39873E-02
 -1      1932 1.15453E-02
 -1      1933 1.56845E-02
 -1      1934 9.28716E-03
 -1      1935 7.61164E-03
 -1      1936 9.86084E-03
 -1      1937 6.43403E-03
 -1      1938 5.29386E-03
 -1      1939 6.42506E-03
 -1      1940 4.60428E-03
 -1      1941 3.81441E-03
 -1      1942 4.55788E-03
 -1      1943 3.28152E-03
 -1      1944 2.69566E-03
 -1      1945 3.33542E-03
 -1      1946 2.28188E-03
 -1      1947 1.90459E-03
 -1      1948 2.38875E-03
 -1      1949 1.57727E-03
 -1      1950 1.33302E-03
 -1      1951 1.64764E-03
 -1      1952 1.07089E-03
 -1      1953 8.28784E-04
 -1      1954 1.05818E-03
 -1      1955 6.59453E-04
 -1      1956 5.14418E-04
 -1      1957 6.26723E-04
 -1      1958 4.23091E-04
 -1      1959 2.63892E-04
 -1      1960 2.09285E-04
 -1      1961 3.66065E-04
 -1      1962 3.39853E+00
 -1      1963 1.12645E+00
 -1      1964 1.38876E+00
 -1      1965 8.44964E-01
 -1      1966 9.65110E-01
 -1      1967 9.58342E-01
 -1      1968 6.57064E-01
 -1      1969 7.51369E-01
 -1      1970 7.03403E-01
 -1      1971 5.12591E-01
 -1      1972 5.95100E-01
 -1      1973 5.47843E-01
 -1      1974 3.93752E-01
 -1      1975 4.65127E-01
 -1      1976 4.38415E-01
 -1      1977 3.22209E-01
 -1      1978 3.60735E-01
 -1      1979 3.57934E-01
 -1      1980 2.92807E-01
 -1      1981 3.13371E-01
 -1      1982 3.16078E-01
 -1      1983 3.58585E-01
 -1      1984 3.21736E-01
 -1      1985 3.36167E-01
 -1      1986 4.73059E-01
 -1      1987 4.07370E-01
 -1      1988 4.13880E-01
 -1      1989 6.33929E-01
 -1      1990 5.41675E-01
 -1      1991 5.31281E-01
 -1      1992 8.35720E-01
 -1      1993 7.19773E-01
 -1      1994 6.85742E-01
 -1      1995 1.06736E+00
 -1      1996 9.35782E-01
 -1      1997 8.71648E-01
 -1      1998 1.33103E+00
 -1      1999 1.19255E+00
 -1      2000 1.09690E+00
 -1      2001 1.61020E+00
 -1      2002 1.45505E+00
 -1      2003 1.34612E+00
 -1      2004 1.86643E+00
 -1      2005 1.75026E+00
 -1      2006 1.61020E+00
 -1      2007 2.03493E+00
 -1      2008 1.98260E+00
 -1      2009 1.86643E+00
 -1      2010 2.14138E+00
 -1      2011 2.08727E+00
 -1      2012 2.03493E+00
 -1      2013 2.15712E+00
 -1      2014 2.11854E+00
 -1      2015 2.06443E+00
 -1      2016 2.29498E+00
 -1      2017 2.17947E+00
 -1      2018 2.06394E+00
 -1      2019 2.29291E+00
 -1      2020 2.28132E+00
 -1      2021 2.07264E+00
 -1      2022 2.09975E+00
 -1      2023 2.20766E+00
 -1      2024 1.97372E+00
 -1      2025 1.77444E+00
 -1      2026 1.96132E+00
 -1      2027 1.75005E+00
 -1      2028 1.43389E+00
 -1      2029 1.63837E+00
 -1      2030 1.47556E+00
 -1      2031 1.12205E+00
 -1      2032 1.30004E+00
 -1      2033 1.20564E+00
 -1      2034 8.51177E-01
 -1      2035 1.00149E+00
 -1      2036 9.51237E-01
 -1      2037 6.21965E-01
 -1      2038 7.51297E-01
 -1      2039 7.30793E-01
 -1      2040 4.31567E-01
 -1      2041 5.34460E-01
 -1      2042 5.43408E-01
 -1      2043 2.83503E-01
 -1      2044 3.60114E-01
 -1      2045 3.84449E-01
 -1      2046 1.81795E-01
 -1      2047 2.28689E-01
 -1      2048 2.58182E-01
 -1      2049 1.10501E-01
 -1      2050 1.42123E-01
 -1      2051 1.63695E-01
 -1      2052 6.32234E-02
 -1      2053 8.33794E-02
 -1      2054 9.69011E-02
 -1      2055 3.77662E-02
 -1      2056 4.57534E-02
 -1      2057 5.23095E-02
 -1      2058 2.55455E-02
 -1      2059 3.20989E-02
 -1      2060 2.91721E-02
 -1      2061 1.85272E-02
 -1      2062 2.14851E-02
 -1      2063 1.94445E-02
 -1      2064 1.45340E-02
 -1      2065 1.70151E-02
 -1      2066 1.38720E-02
 -1      2067 1.06239E-02
 -1      2068 1.29934E-02
 -1      2069 1.08193E-02
 -1      2070 7.53689E-03
 -1      2071 9.49442E-03
 -1      2072 8.14910E-03
 -1      2073 5.45273E-03
 -1      2074 6.57509E-03
 -1      2075 6.05779E-03
 -1      2076 3.85940E-03
 -1      2077 4.77870E-03
 -1      2078 4.42196E-03
 -1      2079 2.77842E-03
 -1      2080 3.32690E-03
 -1      2081 3.21544E-03
 -1      2082 1.91075E-03
 -1      2083 2.38110E-03
 -1      2084 2.28561E-03
 -1      2085 1.24834E-03
 -1      2086 1.59078E-03
 -1      2087 1.56831E-03
 -1      2088 9.06596E-04
 -1      2089 1.04909E-03
 -1      2090 1.04909E-03
 -1      2091 5.97807E-04
 -1      2092 7.62696E-04
 -1      2093 7.05939E-04
 -1      2094 3.35310E-04
 -1      2095 4.58596E-04
 -1      2096 4.22829E-04
 -1      2097 2.24876E-04
 -1      2098 1.81565E-04
 -1      2099 1.94659E-04
 -1      2100 2.73541E-04
 -1      2101 2.73541E-04
 -1      2102 2.95397E-04
 -1      2103 2.28210E-04
 -1      2104 2.68611E-04
 -1      2105 2.35193E-04
 -1      2106 2.70143E-04
 -1      2107 2.99865E-04
 -1      2108 2.90598E-04
 -1      2109 3.45758E-04
 -1      2110 3.04638E-04
 -1      2111 3.04638E-04
 -1      2112 3.72518E-04
 -1      2113 3.05326E-04
 -1      2114 3.05601E-04
 -1      2115 3.78254E-04
 -1      2116 2.81269E-04
 -1      2117 3.05326E-04
 -1      2118 3.79217E-04
 -1      2119 2.40759E-04
 -1      2120 2.42644E-04
 -1      2121 3.40591E-04
 -1      2122 3.09512E-04
 -1      2123 2.56086E-04
 -1      2124 3.17292E-04
 -1      2125 3.74849E-04
 -1      2126 3.59824E-04
 -1      2127 3.82931E-04
 -1      2128 3.93148E-04
 -1      2129 3.93148E-04
 -1      2130 4.51543E-04
 -1      2131 3.90799E-04
 -1      2132 3.93148E-04
 -1      2133 4.69842E-04
 -1      2134 1.50325E+00
 -1      2135 1.88001E+00
 -1      2136 1.62688E+00
 -1      2137 1.23418E+00
 -1      2138 3.36181E+01
 -1      2139 3.04469E+01
 -1      2140 9.95097E+00
 -1      2141 1.26735E+01
 -1      2142 3.21157E+01
 -1      2143 2.85328E+01
 -1      2144 2.82268E+01
 -1      2145 3.31130E+01
 -1      2146 3.59988E+01
 -1      2147 1.57722E+01
 -1      2148 2.85077E+01
 -1      2149 1.96920E+01
 -1      2150 1.03786E+00
 -1      2151 1.21197E+00
 -1      2152 9.97743E-01
 -1      2153 8.52695E-01
 -1      2154 1.82151E+01
 -1      2155 1.65305E+01
 -1      2156 1.03056E+01
 -1      2157 9.26847E+00
 -1      2158 1.12634E+01
 -1      2159 1.21443E+01
 -1      2160 1.18777E+01
 -1      2161 1.16926E+01
 -1      2162 1.11260E+01
 -1      2163 1.11076E+01
 -1      2164 1.12576E+01
 -1      2165 9.83777E+00
 -1      2166 1.02689E+01
 -1      2167 1.10538E+01
 -1      2168 9.35462E+00
 -1      2169 2.48678E+01
 -1      2170 1.37448E+01
 -1      2171 2.89248E+01
 -1      2172 2.97944E+01
 -1      2173 2.63462E+01
 -1      2174 3.12656E+01
 -1      2175 3.78603E+01
 -1      2176 3.39622E+01
 -1      2177 3.78603E+01
 -1      2178 3.78603E+01
 -1      2179 3.08324E+01
 -1      2180 3.23397E+01
 -1      2181 3.90720E+01
 -1      2182 2.98859E+01
 -1      2183 1.99533E+01
 -1      2184 3.28451E+01
 -1      2185 1.19776E+01
 -1      2186 1.67935E+01
 -1      2187 1.56235E+01
 -1      2188 1.54306E+01
 -1      2189 1.14909E+01
 -1      2190 3.07989E+01
 -1      2191 1.78697E+01
 -1      2192 1.30580E+01
 -1      2193 3.04048E+01
 -1      2194 3.46508E+01
 -1      2195 1.93490E+01
 -1      2196 3.61528E+01
 -1      2197 3.61528E+01
 -1      2198 2.64713E+01
 -1      2199 9.98895E+00
 -1      2200 2.96909E+00
 -1      2201 2.13594E+00
 -1      2202 4.33802E+01
 -1      2203 1.79841E+01
 -1      2204 1.30580E+01
 -1      2205 1.13319E+01
 -1      2206 1.17436E+01
 -1      2207 1.41804E+01
 -1      2208 1.42721E+01
 -1      2209 1.51290E+01
 -1      2210 3.28948E-04
 -1      2211 7.70182E+00
 -1      2212 1.14830E+01
 -1      2213 3.57602E+01
 -1      2214 2.59091E+01
 -1      2215 2.36589E+01
 -1      2216 3.08324E+01
 -1      2217 3.72995E+01
 -1      2218 4.28201E+01
 -1      2219 3.52042E+01
 -1      2220 2.52474E+01
 -1      2221 1.79800E+01
 -1      2222 1.09625E+01
 -1      2223 7.57996E+00
 -1      2224 1.02710E+01
 -1      2225 8.15442E+00
 -1      2226 1.09351E+01
 -1      2227 1.49952E+01
 -1      2228 1.04658E+01
 -1      2229 7.17951E+00
 -1      2230 9.01827E+00
 -1      2231 9.47634E+00
 -1      2232 1.58300E+01
 -1      2233 5.57293E-01
 -1      2234 5.89256E-01
 -1      2235 6.03632E-01
 -1      2236 6.50856E-01
 -1      2237 4.99322E-01
 -1      2238 5.08502E-01
 -1      2239 5.06767E-01
 -1      2240 5.44897E-01
 -1      2241 5.22330E-01
 -1      2242 4.42720E-01
 -1      2243 5.94455E-01
 -1      2244 5.60443E-01
 -1      2245 4.72095E-01
 -1      2246 6.55082E-01
 -1      2247 6.06925E-01
 -1      2248 5.00111E-01
 -1      2249 7.22567E-01
 -1      2250 6.55082E-01
 -1      2251 5.12582E-01
 -1      2252 8.26653E-01
 -1      2253 7.19460E-01
 -1      2254 5.09475E-01
 -1      2255 9.84754E-01
 -1      2256 8.92771E-01
 -1      2257 5.72485E-01
 -1      2258 1.75051E+00
 -1      2259 1.32071E+00
 -1      2260 9.74557E-01
 -1      2261 1.60780E+00
 -1      2262 1.25343E+01
 -1      2263 1.76447E+01
 -1      2264 4.33802E+01
 -1      2265 4.33802E+01
 -1      2266 9.88111E-01
 -1      2267 8.04289E-01
 -1      2268 7.45005E-01
 -1      2269 6.24424E-01
 -1      2270 6.31930E-01
 -1      2271 5.61735E-01
 -1      2272 5.10995E-01
 -1      2273 5.09957E-01
 -1      2274 4.66681E-01
 -1      2275 4.25433E-01
 -1      2276 4.02953E-01
 -1      2277 3.88130E-01
 -1      2278 3.48105E-01
 -1      2279 3.21336E-01
 -1      2280 3.00462E-01
 -1      2281 2.92389E-01
 -1      2282 2.36391E-01
 -1      2283 3.60001E-01
 -1      2284 4.65480E-01
 -1      2285 2.56361E-01
 -1      2286 6.39825E-01
 -1      2287 8.90763E-01
 -1      2288 4.98317E-01
 -1      2289 1.19168E+00
 -1      2290 1.57587E+00
 -1      2291 9.73584E-01
 -1      2292 2.02537E+00
 -1      2293 2.58394E+00
 -1      2294 1.72401E+00
 -1      2295 3.39943E+00
 -1      2296 4.24657E+00
 -1      2297 2.98900E+00
 -1      2298 5.69304E+00
 -1      2299 6.94696E+00
 -1      2300 5.25096E+00
 -1      2301 1.04025E+01
 -1      2302 1.22689E+01
 -1      2303 1.01530E+01
 -1      2304 1.26921E+01
 -1      2305 1.67783E+01
 -1      2306 1.40317E+01
 -1      2307 1.68344E+00
 -1      2308 1.28670E+00
 -1      2309 9.56156E-01
 -1      2310 2.12221E+01
 -1      2311 1.37637E+01
 -1      2312 1.19940E+01
 -1      2313 9.08812E+00
 -1      2314 8.19098E+00
 -1      2315 1.31528E+01
 -1      2316 6.11571E+00
 -1      2317 5.24692E+00
 -1      2318 8.17165E+00
 -1      2319 4.04247E+00
 -1      2320 3.31744E+00
 -1      2321 4.89194E+00
 -1      2322 2.58492E+00
 -1      2323 2.05061E+00
 -1      2324 2.95497E+00
 -1      2325 1.62214E+00
 -1      2326 1.26112E+00
 -1      2327 1.79398E+00
 -1      2328 1.00346E+00
 -1      2329 7.72632E-01
 -1      2330 1.10784E+00
 -1      2331 6.09771E-01
 -1      2332 4.67299E-01
 -1      2333 6.87323E-01
 -1      2334 3.66103E-01
 -1      2335 2.78239E-01
 -1      2336 4.23266E-01
 -1      2337 2.16638E-01
 -1      2338 1.69764E-01
 -1      2339 2.60469E-01
 -1      2340 1.29939E-01
 -1      2341 9.94035E-02
 -1      2342 1.59042E-01
 -1      2343 7.51180E-02
 -1      2344 5.94804E-02
 -1      2345 9.49314E-02
 -1      2346 4.48281E-02
 -1      2347 3.59315E-02
 -1      2348 5.59935E-02
 -1      2349 2.71657E-02
 -1      2350 2.15298E-02
 -1      2351 3.25754E-02
 -1      2352 1.63337E-02
 -1      2353 1.27682E-02
 -1      2354 1.86135E-02
 -1      2355 1.02450E-02
 -1      2356 7.98680E-03
 -1      2357 1.08942E-02
 -1      2358 6.51996E-03
 -1      2359 5.34235E-03
 -1      2360 6.90409E-03
 -1      2361 4.52860E-03
 -1      2362 3.83903E-03
 -1      2363 4.62350E-03
 -1      2364 3.28176E-03
 -1      2365 2.74887E-03
 -1      2366 3.25248E-03
 -1      2367 2.35673E-03
 -1      2368 1.94295E-03
 -1      2369 2.30307E-03
 -1      2370 1.67960E-03
 -1      2371 1.35227E-03
 -1      2372 1.64758E-03
 -1      2373 1.13383E-03
 -1      2374 8.71697E-04
 -1      2375 1.16578E-03
 -1      2376 6.82379E-04
 -1      2377 5.13048E-04
 -1      2378 7.58023E-04
 -1      2379 3.59988E+01
 -1      2380 2.86173E+01
 -1      2381 3.59988E+01
 -1      2382 5.81224E-01
 -1      2383 6.74819E-01
 -1      2384 7.39052E-01
 -1      2385 9.00395E-01
 -1      2386 6.16873E-01
 -1      2387 3.76903E-01
 -1      2388 4.24366E-01
 -1      2389 3.20366E-01
 -1      2390 3.53384E-01
 -1      2391 3.39335E-01
 -1      2392 3.03190E-01
 -1      2393 3.12029E-01
 -1      2394 3.07479E-01
 -1      2395 3.46469E-01
 -1      2396 3.17540E-01
 -1      2397 3.13492E-01
 -1      2398 4.29828E-01
 -1      2399 3.81043E-01
 -1      2400 3.62416E-01
 -1      2401 5.49277E-01
 -1      2402 4.80660E-01
 -1      2403 4.47823E-01
 -1      2404 7.04072E-01
 -1      2405 6.18228E-01
 -1      2406 5.67607E-01
 -1      2407 8.99925E-01
 -1      2408 7.99863E-01
 -1      2409 7.32350E-01
 -1      2410 1.13058E+00
 -1      2411 1.00538E+00
 -1      2412 9.33598E-01
 -1      2413 1.35436E+00
 -1      2414 1.23034E+00
 -1      2415 1.13882E+00
 -1      2416 1.56902E+00
 -1      2417 1.42896E+00
 -1      2418 1.31318E+00
 -1      2419 1.76251E+00
 -1      2420 1.64634E+00
 -1      2421 1.46510E+00
 -1      2422 1.85175E+00
 -1      2423 1.79942E+00
 -1      2424 1.57933E+00
 -1      2425 1.81880E+00
 -1      2426 1.84164E+00
 -1      2427 1.60612E+00
 -1      2428 1.82507E+00
 -1      2429 1.80272E+00
 -1      2430 1.57993E+00
 -1      2431 1.84027E+00
 -1      2432 1.85394E+00
 -1      2433 1.59271E+00
 -1      2434 1.74032E+00
 -1      2435 1.82557E+00
 -1      2436 1.60687E+00
 -1      2437 1.53999E+00
 -1      2438 1.67842E+00
 -1      2439 1.53026E+00
 -1      2440 1.32306E+00
 -1      2441 1.45913E+00
 -1      2442 1.38750E+00
 -1      2443 1.09500E+00
 -1      2444 1.22884E+00
 -1      2445 1.21242E+00
 -1      2446 8.63845E-01
 -1      2447 9.84409E-01
 -1      2448 1.00761E+00
 -1      2449 6.54285E-01
 -1      2450 7.54164E-01
 -1      2451 7.87337E-01
 -1      2452 4.72643E-01
 -1      2453 5.60148E-01
 -1      2454 5.83519E-01
 -1      2455 3.31508E-01
 -1      2456 4.02961E-01
 -1      2457 4.19701E-01
 -1      2458 2.21075E-01
 -1      2459 2.75889E-01
 -1      2460 2.94401E-01
 -1      2461 1.39420E-01
 -1      2462 1.79093E-01
 -1      2463 1.96800E-01
 -1      2464 8.22351E-02
 -1      2465 1.09357E-01
 -1      2466 1.24754E-01
 -1      2467 4.43287E-02
 -1      2468 6.17987E-02
 -1      2469 7.42543E-02
 -1      2470 2.55031E-02
 -1      2471 3.11704E-02
 -1      2472 4.06596E-02
 -1      2473 1.36746E-02
 -1      2474 1.77350E-02
 -1      2475 1.97333E-02
 -1      2476 9.95135E-03
 -1      2477 1.14634E-02
 -1      2478 9.75400E-03
 -1      2479 8.29200E-03
 -1      2480 9.83264E-03
 -1      2481 7.42408E-03
 -1      2482 6.65745E-03
 -1      2483 7.78697E-03
 -1      2484 6.80034E-03
 -1      2485 5.18514E-03
 -1      2486 6.14694E-03
 -1      2487 5.78480E-03
 -1      2488 3.88789E-03
 -1      2489 4.56191E-03
 -1      2490 4.65106E-03
 -1      2491 2.76901E-03
 -1      2492 3.30151E-03
 -1      2493 3.44146E-03
 -1      2494 1.98769E-03
 -1      2495 2.38502E-03
 -1      2496 2.47109E-03
 -1      2497 1.34902E-03
 -1      2498 1.66900E-03
 -1      2499 1.76840E-03
 -1      2500 8.97182E-04
 -1      2501 1.09643E-03
 -1      2502 1.19712E-03
 -1      2503 5.75136E-04
 -1      2504 7.19036E-04
 -1      2505 7.66379E-04
 -1      2506 4.68159E-04
 -1      2507 4.39704E-04
 -1      2508 4.17718E-04
 -1      2509 3.59523E-04
 -1      2510 3.05895E-04
 -1      2511 4.53469E-04
 -1      2512 3.08186E-04
 -1      2513 3.87068E-04
 -1      2514 3.97566E-04
 -1      2515 6.03957E+00
 -1      2516 6.72207E+00
 -1      2517 4.54007E-04
 -1      2518 4.49234E-04
 -1      2519 5.21193E-04
 -1      2520 4.81465E-04
 -1      2521 4.80503E-04
 -1      2522 5.57218E-04
 -1      2523 4.81465E-04
 -1      2524 4.81465E-04
 -1      2525 5.83714E-04
 -1      2526 4.39245E-04
 -1      2527 4.77871E-04
 -1      2528 5.80119E-04
 -1      2529 4.09606E-04
 -1      2530 3.94279E-04
 -1      2531 5.31558E-04
 -1      2532 4.71062E-04
 -1      2533 4.20750E-04
 -1      2534 4.97737E-04
 -1      2535 5.17587E-04
 -1      2536 4.99287E-04
 -1      2537 5.37106E-04
 -1      2538 6.56761E-04
 -1      2539 6.56761E-04
 -1      2540 7.04505E-04
 -1      2541 3.14181E-04
 -1      2542 3.93225E-04
 -1      2543 2.30220E-04
 -1      2544 4.62507E-01
 -1      2545 5.24472E-01
 -1      2546 4.95888E-01
 -1      2547 2.48201E+01
 -1      2548 2.21119E+01
 -1      2549 1.82599E+01
 -1      2550 1.62458E+01
 -1      2551 1.25894E+00
 -1      2552 1.03185E+00
 -1      2553 7.34952E-01
 -1      2554 8.06446E-01
 -1      2555 5.19619E-01
 -1      2556 5.42118E-01
 -1      2557 4.69771E-01
 -1      2558 4.41745E-01
 -1      2559 2.81402E+01
 -1      2560 3.57602E+01
 -1      2561 1.65833E+01
 -1      2562 2.52470E+01
 -1      2563 2.61936E+01
 -1      2564 7.86862E+00
 -1      2565 1.09673E+01
 -1      2566 8.91990E+00
 -1      2567 6.20636E+00
 -1      2568 7.36762E+00
 -1      2569 8.20639E+00
 -1      2570 9.77047E+00
 -1      2571 9.34131E+00
 -1      2572 9.05639E+00
 -1      2573 9.67642E+00
 -1      2574 5.98083E+00
 -1      2575 6.46398E+00
 -1      2576 5.19403E+00
 -1      2577 1.68205E+01
 -1      2578 1.18938E+01
 -1      2579 2.18661E+01
 -1      2580 1.95253E+01
 -1      2581 3.52042E+01
 -1      2582 2.75882E+01
 -1      2583 4.28201E+01
 -1      2584 4.28201E+01
 -1      2585 3.52042E+01
 -1      2586 3.17789E+01
 -1      2587 3.72995E+01
 -1      2588 1.54970E+01
 -1      2589 1.98549E+01
 -1      2590 2.11240E+01
 -1      2591 2.27929E+01
 -1      2592 4.81256E-04
 -1      2593 1.93490E+01
 -1      2594 5.13698E-01
 -1      2595 6.50856E-01
 -1      2596 7.15536E-01
 -1      2597 8.90262E+00
 -1      2598 1.00621E+01
 -1      2599 7.27979E+00
 -1      2600 1.32434E+00
 -1      2601 1.02705E+00
 -1      2602 1.04613E+00
 -1      2603 3.57602E+01
 -1      2604 4.00995E-01
 -1      2605 7.13777E-01
 -1      2606 7.94145E-01
 -1      2607 6.72190E-01
 -1      2608 5.11938E-01
 -1      2609 5.77023E+00
 -1      2610 5.61004E+00
 -1      2611 4.63029E+00
 -1      2612 2.27929E+01
 -1      2613 1.85407E+01
 -1      2614 2.48201E+01
 -1      2615 6.94768E+00
 -1      2616 4.94045E-04
 -1      2617 8.71190E-01
 -1      2618 9.85683E-01
 -1      2619 6.83144E-01
 -1      2620 6.51900E-01
 -1      2621 3.27036E+01
 -1      2622 3.27036E+01
 -1      2623 2.71830E+01
 -1      2624 2.18661E+01
 -1      2625 5.69303E+00
 -1      2626 4.00260E+00
 -1      2627 5.60173E+00
 -1      2628 8.54608E+00
 -1      2629 6.86750E+00
 -1      2630 7.19055E+00
 -1      2631 2.61936E+01
 -1      2632 7.89173E+00
 -1      2633 1.34392E+01
 -1      2634 1.39662E+01
 -1      2635 4.23116E-01
 -1      2636 4.07570E-01
 -1      2637 3.98770E-01
 -1      2638 3.84942E-01
 -1      2639 3.49791E-01
 -1      2640 4.37867E-01
 -1      2641 4.37867E-01
 -1      2642 4.28021E-01
 -1      2643 4.31128E-01
 -1      2644 3.56413E-01
 -1      2645 9.50737E-01
 -1      2646 6.14784E-01
 -1      2647 6.67279E-01
 -1      2648 3.51545E-01
 -1      2649 3.89686E-01
 -1      2650 2.31169E+01
 -1      2651 2.54403E+01
 -1      2652 4.61234E-01
 -1      2653 3.98545E-01
 -1      2654 3.68826E-01
 -1      2655 3.24511E-01
 -1      2656 3.20103E-01
 -1      2657 2.86359E-01
 -1      2658 2.49056E-01
 -1      2659 2.52231E-01
 -1      2660 2.26832E-01
 -1      2661 1.79190E-01
 -1      2662 1.91855E-01
 -1      2663 2.14331E-01
 -1      2664 2.81943E-01
 -1      2665 2.04773E-01
 -1      2666 4.21378E-01
 -1      2667 5.95722E-01
 -1      2668 3.79348E-01
 -1      2669 8.18270E-01
 -1      2670 1.11919E+00
 -1      2671 7.41330E-01
 -1      2672 1.43541E+00
 -1      2673 1.88492E+00
 -1      2674 1.28010E+00
 -1      2675 2.46626E+00
 -1      2676 3.28175E+00
 -1      2677 2.17766E+00
 -1      2678 4.26280E+00
 -1      2679 5.70926E+00
 -1      2680 3.74006E+00
 -1      2681 8.34148E+00
 -1      2682 1.17971E+01
 -1      2683 7.35332E+00
 -1      2684 1.59600E+01
 -1      2685 1.30541E+01
 -1      2686 4.21616E-01
 -1      2687 4.35992E-01
 -1      2688 9.34223E+00
 -1      2689 7.26696E+00
 -1      2690 1.21494E+01
 -1      2691 5.62311E+00
 -1      2692 4.41866E+00
 -1      2693 6.79368E+00
 -1      2694 3.39971E+00
 -1      2695 2.66719E+00
 -1      2696 4.13088E+00
 -1      2697 2.04536E+00
 -1      2698 1.61689E+00
 -1      2699 2.49010E+00
 -1      2700 1.24007E+00
 -1      2701 9.82408E-01
 -1      2702 1.49145E+00
 -1      2703 7.54689E-01
 -1      2704 5.91829E-01
 -1      2705 8.86914E-01
 -1      2706 4.56678E-01
 -1      2707 3.55483E-01
 -1      2708 5.24045E-01
 -1      2709 2.75788E-01
 -1      2710 2.14186E-01
 -1      2711 3.09200E-01
 -1      2712 1.67254E-01
 -1      2713 1.27428E-01
 -1      2714 1.82572E-01
 -1      2715 9.90497E-02
 -1      2716 7.47642E-02
 -1      2717 1.07261E-01
 -1      2718 5.90504E-02
 -1      2719 4.43981E-02
 -1      2720 6.31688E-02
 -1      2721 3.56583E-02
 -1      2722 2.68925E-02
 -1      2723 3.87152E-02
 -1      2724 2.12647E-02
 -1      2725 1.60686E-02
 -1      2726 2.43476E-02
 -1      2727 1.24788E-02
 -1      2728 9.95554E-03
 -1      2729 1.51300E-02
 -1      2730 7.64765E-03
 -1      2731 6.18081E-03
 -1      2732 9.23226E-03
 -1      2733 4.85922E-03
 -1      2734 4.04548E-03
 -1      2735 5.60278E-03
 -1      2736 3.24444E-03
 -1      2737 2.68716E-03
 -1      2738 3.48016E-03
 -1      2739 2.30609E-03
 -1      2740 1.91396E-03
 -1      2741 2.29805E-03
 -1      2742 1.63510E-03
 -1      2743 1.37175E-03
 -1      2744 1.63812E-03
 -1      2745 1.16088E-03
 -1      2746 9.42434E-04
 -1      2747 1.14840E-03
 -1      2748 3.12663E+01
 -1      2749 2.38849E+01
 -1      2750 3.87000E-04
 -1      2751 2.95672E-04
 -1      2752 2.94377E-01
 -1      2753 3.02714E-01
 -1      2754 3.08758E-01
 -1      2755 3.32277E-01
 -1      2756 3.20968E-01
 -1      2757 2.95656E-01
 -1      2758 3.92983E-01
 -1      2759 3.58409E-01
 -1      2760 4.89012E-01
 -1      2761 4.38179E-01
 -1      2762 4.34172E-01
 -1      2763 6.15743E-01
 -1      2764 5.46791E-01
 -1      2765 5.37148E-01
 -1      2766 7.76308E-01
 -1      2767 6.80517E-01
 -1      2768 6.59701E-01
 -1      2769 9.54692E-01
 -1      2770 8.49234E-01
 -1      2771 7.97401E-01
 -1      2772 1.15304E+00
 -1      2773 1.05327E+00
 -1      2774 9.68910E-01
 -1      2775 1.30939E+00
 -1      2776 1.23480E+00
 -1      2777 1.14925E+00
 -1      2778 1.42898E+00
 -1      2779 1.35166E+00
 -1      2780 1.27327E+00
 -1      2781 1.49014E+00
 -1      2782 1.45324E+00
 -1      2783 1.33979E+00
 -1      2784 1.47298E+00
 -1      2785 1.48309E+00
 -1      2786 1.35700E+00
 -1      2787 1.42640E+00
 -1      2788 1.44248E+00
 -1      2789 1.31945E+00
 -1      2790 1.47387E+00
 -1      2791 1.44501E+00
 -1      2792 1.30756E+00
 -1      2793 1.47779E+00
 -1      2794 1.49250E+00
 -1      2795 1.34479E+00
 -1      2796 1.40116E+00
 -1      2797 1.46306E+00
 -1      2798 1.34869E+00
 -1      2799 1.28746E+00
 -1      2800 1.36833E+00
 -1      2801 1.30112E+00
 -1      2802 1.12365E+00
 -1      2803 1.21787E+00
 -1      2804 1.19870E+00
 -1      2805 9.14482E-01
 -1      2806 1.02507E+00
 -1      2807 1.03053E+00
 -1      2808 7.04237E-01
 -1      2809 8.13918E-01
 -1      2810 8.31383E-01
 -1      2811 5.36905E-01
 -1      2812 6.31041E-01
 -1      2813 6.57623E-01
 -1      2814 3.94902E-01
 -1      2815 4.64584E-01
 -1      2816 5.12106E-01
 -1      2817 2.75713E-01
 -1      2818 3.31332E-01
 -1      2819 3.76215E-01
 -1      2820 1.82554E-01
 -1      2821 2.24536E-01
 -1      2822 2.61467E-01
 -1      2823 1.14137E-01
 -1      2824 1.44201E-01
 -1      2825 1.71937E-01
 -1      2826 6.77253E-02
 -1      2827 8.81617E-02
 -1      2828 1.07608E-01
 -1      2829 3.73668E-02
 -1      2830 5.05250E-02
 -1      2831 6.44325E-02
 -1      2832 1.85012E-02
 -1      2833 2.62693E-02
 -1      2834 3.61347E-02
 -1      2835 1.04015E-02
 -1      2836 1.26128E-02
 -1      2837 1.91487E-02
 -1      2838 7.39810E-03
 -1      2839 7.51680E-03
 -1      2840 1.03756E-02
 -1      2841 5.91650E-03
 -1      2842 6.42153E-03
 -1      2843 6.51425E-03
 -1      2844 5.16301E-03
 -1      2845 5.67353E-03
 -1      2846 5.29471E-03
 -1      2847 4.07517E-03
 -1      2848 4.69840E-03
 -1      2849 4.58712E-03
 -1      2850 2.98471E-03
 -1      2851 3.57109E-03
 -1      2852 3.61842E-03
 -1      2853 2.14804E-03
 -1      2854 2.53203E-03
 -1      2855 2.66166E-03
 -1      2856 1.47486E-03
 -1      2857 1.79355E-03
 -1      2858 1.85449E-03
 -1      2859 9.96492E-04
 -1      2860 1.24908E-03
 -1      2861 1.27423E-03
 -1      2862 6.22393E-04
 -1      2863 8.00539E-04
 -1      2864 8.52507E-04
 -1      2865 5.28206E-04
 -1      2866 5.80744E-04
 -1      2867 5.22549E-04
 -1      2868 6.94550E-04
 -1      2869 6.68054E-04
 -1      2870 5.22549E-04
 -1      2871 5.24841E-04
 -1      2872 6.53189E-04
 -1      2873 6.49825E-04
 -1      2874 1.63073E+01
 -1      2875 2.16546E+01
 -1      2876 6.68054E-04
 -1      2877 6.58525E-04
 -1      2878 7.27605E-04
 -1      2879 8.05386E-04
 -1      2880 7.23941E-04
 -1      2881 7.27536E-04
 -1      2882 6.64787E-04
 -1      2883 7.09754E-04
 -1      2884 8.57170E-04
 -1      2885 6.29231E-04
 -1      2886 6.18086E-04
 -1      2887 7.96281E-04
 -1      2888 6.53056E-04
 -1      2889 6.24831E-04
 -1      2890 7.45181E-04
 -1      2891 7.40775E-04
 -1      2892 6.01601E-04
 -1      2893 6.89326E-04
 -1      2894 4.42656E-04
 -1      2895 5.19274E-04
 -1      2896 6.56761E-04
 -1      2897 8.43679E-04
 -1      2898 4.11847E-01
 -1      2899 4.68599E-01
 -1      2900 3.62396E-01
 -1      2901 2.24405E+01
 -1      2902 3.00605E+01
 -1      2903 1.79466E+01
 -1      2904 5.55379E+00
 -1      2905 6.40380E+00
 -1      2906 2.01491E+01
 -1      2907 1.44271E+01
 -1      2908 1.85210E+01
 -1      2909 1.28541E+01
 -1      2910 1.01492E+01
 -1      2911 7.27536E-04
 -1      2912 7.27536E-04
 -1      2913 8.71357E-04
 -1      2914 3.27273E-01
 -1      2915 3.12923E-01
 -1      2916 3.08159E-01
 -1      2917 3.57841E-01
 -1      2918 3.72901E+00
 -1      2919 4.63265E+00
 -1      2920 1.07451E+01
 -1      2921 1.42245E+01
 -1      2922 3.00077E+01
 -1      2923 2.23917E+01
 -1      2924 1.49526E+01
 -1      2925 6.96572E+00
 -1      2926 7.05977E+00
 -1      2927 4.86804E-01
 -1      2928 5.51037E-01
 -1      2929 4.02762E-01
 -1      2930 4.37867E-01
 -1      2931 4.25396E-01
 -1      2932 3.60871E-01
 -1      2933 3.63151E-01
 -1      2934 5.34913E-01
 -1      2935 4.75629E-01
 -1      2936 3.64217E-01
 -1      2937 7.06192E-04
 -1      2938 8.00524E+00
 -1      2939 6.17355E+00
 -1      2940 7.42016E+00
 -1      2941 3.39172E-01
 -1      2942 3.83123E-01
 -1      2943 3.95975E-01
 -1      2944 5.48666E-01
 -1      2945 2.86868E+01
 -1      2946 1.58743E+01
 -1      2947 1.85702E+01
 -1      2948 4.70319E-01
 -1      2949 4.04372E-01
 -1      2950 4.19546E-01
 -1      2951 3.56217E-01
 -1      2952 3.45750E-01
 -1      2953 1.22694E+01
 -1      2954 1.40810E+01
 -1      2955 1.76056E+01
 -1      2956 1.75069E+01
 -1      2957 1.45041E+01
 -1      2958 5.69398E+00
 -1      2959 4.12452E+00
 -1      2960 5.22180E+00
 -1      2961 3.58286E-01
 -1      2962 4.35992E-01
 -1      2963 4.35992E-01
 -1      2964 3.58311E+00
 -1      2965 3.02173E+00
 -1      2966 3.29531E+00
 -1      2967 4.08877E+00
 -1      2968 8.95510E-04
 -1      2969 5.57184E+00
 -1      2970 8.90604E-04
 -1      2971 1.30862E+01
 -1      2972 8.38371E-04
 -1      2973 5.42930E-01
 -1      2974 5.13726E-01
 -1      2975 8.90604E-04
 -1      2976 7.87700E-04
 -1      2977 1.97221E+01
 -1      2978 1.40223E+01
 -1      2979 1.32365E+01
 -1      2980 5.46912E+00
 -1      2981 6.39513E+00
 -1      2982 5.59990E+00
 -1      2983 4.07858E-01
 -1      2984 5.69869E-01
 -1      2985 5.42114E-01
 -1      2986 1.07504E+01
 -1      2987 1.24674E+01
 -1      2988 9.17749E+00
 -1      2989 5.66590E+00
 -1      2990 3.77897E+00
 -1      2991 5.45704E+00
 -1      2992 5.52143E-01
 -1      2993 5.08404E-01
 -1      2994 3.52103E-01
 -1      2995 3.15566E-01
 -1      2996 5.12021E+00
 -1      2997 6.26676E+00
 -1      2998 3.71223E+00
 -1      2999 4.14175E+00
 -1      3000 4.20215E+00
 -1      3001 8.48346E+00
 -1      3002 8.74169E+00
 -1      3003 4.12862E-01
 -1      3004 6.91647E+00
 -1      3005 2.97340E-01
 -1      3006 3.04078E-01
 -1      3007 6.06830E-01
 -1      3008 1.22694E+01
 -1      3009 1.35904E+01
 -1      3010 5.78261E-01
 -1      3011 5.20482E-01
 -1      3012 3.04852E-01
 -1      3013 3.27013E-01
 -1      3014 4.04483E-01
 -1      3015 4.02723E-01
 -1      3016 3.00403E-01
 -1      3017 3.26777E-01
 -1      3018 9.64924E+00
 -1      3019 1.17321E+01
 -1      3020 2.43522E-01
 -1      3021 2.05370E-01
 -1      3022 2.00911E-01
 -1      3023 1.78687E-01
 -1      3024 1.92202E-01
 -1      3025 2.12285E-01
 -1      3026 2.47427E-01
 -1      3027 2.21341E-01
 -1      3028 3.26463E-01
 -1      3029 4.65897E-01
 -1      3030 3.33976E-01
 -1      3031 6.02328E-01
 -1      3032 8.24876E-01
 -1      3033 5.49443E-01
 -1      3034 1.01784E+00
 -1      3035 1.33406E+00
 -1      3036 8.78841E-01
 -1      3037 1.70348E+00
 -1      3038 2.28483E+00
 -1      3039 1.44123E+00
 -1      3040 2.80381E+00
 -1      3041 3.78486E+00
 -1      3042 2.32963E+00
 -1      3043 5.74514E+00
 -1      3044 8.37736E+00
 -1      3045 4.80890E+00
 -1      3046 7.09634E+00
 -1      3047 5.45249E+00
 -1      3048 4.25125E+00
 -1      3049 3.23231E+00
 -1      3050 4.55391E+00
 -1      3051 2.52844E+00
 -1      3052 1.90661E+00
 -1      3053 2.64881E+00
 -1      3054 1.53772E+00
 -1      3055 1.16090E+00
 -1      3056 1.57606E+00
 -1      3057 9.32824E-01
 -1      3058 7.05106E-01
 -1      3059 9.79091E-01
 -1      3060 5.64192E-01
 -1      3061 4.29042E-01
 -1      3062 6.10102E-01
 -1      3063 3.40544E-01
 -1      3064 2.60849E-01
 -1      3065 3.80691E-01
 -1      3066 2.03233E-01
 -1      3067 1.56301E-01
 -1      3068 2.34577E-01
 -1      3069 1.20707E-01
 -1      3070 9.23282E-02
 -1      3071 1.41368E-01
 -1      3072 7.12718E-02
 -1      3073 5.55580E-02
 -1      3074 8.47174E-02
 -1      3075 4.31386E-02
 -1      3076 3.43988E-02
 -1      3077 5.12417E-02
 -1      3078 2.66913E-02
 -1      3079 2.10635E-02
 -1      3080 3.11147E-02
 -1      3081 1.62840E-02
 -1      3082 1.26942E-02
 -1      3083 1.86277E-02
 -1      3084 1.00688E-02
 -1      3085 7.76087E-03
 -1      3086 1.12228E-02
 -1      3087 6.31839E-03
 -1      3088 4.99681E-03
 -1      3089 7.15489E-03
 -1      3090 3.99359E-03
 -1      3091 3.19255E-03
 -1      3092 4.70920E-03
 -1      3093 2.52060E-03
 -1      3094 2.13953E-03
 -1      3095 3.03403E-03
 -1      3096 1.69205E-03
 -1      3097 1.41320E-03
 -1      3098 1.91461E-03
 -1      3099 1.14510E-03
 -1      3100 9.34232E-04
 -1      3101 7.84404E-04
 -1      3102 1.19903E-03
 -1      3103 7.15332E-01
 -1      3104 6.50558E-01
 -1      3105 6.33892E-01
 -1      3106 4.59252E-01
 -1      3107 4.14056E-01
 -1      3108 5.00366E-01
 -1      3109 8.62060E-01
 -1      3110 7.89134E-01
 -1      3111 7.79991E-01
 -1      3112 1.02226E+00
 -1      3113 9.23681E-01
 -1      3114 9.15414E-01
 -1      3115 1.16823E+00
 -1      3116 1.08647E+00
 -1      3117 1.04125E+00
 -1      3118 1.28194E+00
 -1      3119 1.23968E+00
 -1      3120 1.17690E+00
 -1      3121 1.35213E+00
 -1      3122 1.32786E+00
 -1      3123 1.29427E+00
 -1      3124 1.40739E+00
 -1      3125 1.41444E+00
 -1      3126 1.40251E+00
 -1      3127 1.35502E+00
 -1      3128 1.38552E+00
 -1      3129 1.44296E+00
 -1      3130 1.33114E+00
 -1      3131 1.31253E+00
 -1      3132 1.37860E+00
 -1      3133 1.41372E+00
 -1      3134 1.39509E+00
 -1      3135 1.40007E+00
 -1      3136 1.36129E+00
 -1      3137 1.37603E+00
 -1      3138 1.42632E+00
 -1      3139 1.26936E+00
 -1      3140 1.30219E+00
 -1      3141 1.32953E+00
 -1      3142 1.14243E+00
 -1      3143 1.21202E+00
 -1      3144 1.21309E+00
 -1      3145 9.74864E-01
 -1      3146 1.07344E+00
 -1      3147 1.08677E+00
 -1      3148 8.03491E-01
 -1      3149 9.04055E-01
 -1      3150 9.46972E-01
 -1      3151 6.55239E-01
 -1      3152 7.28435E-01
 -1      3153 8.01107E-01
 -1      3154 5.00833E-01
 -1      3155 5.73154E-01
 -1      3156 6.43966E-01
 -1      3157 3.61251E-01
 -1      3158 4.24822E-01
 -1      3159 4.85869E-01
 -1      3160 2.46714E-01
 -1      3161 2.97890E-01
 -1      3162 3.46497E-01
 -1      3163 1.59569E-01
 -1      3164 1.97922E-01
 -1      3165 2.34345E-01
 -1      3166 9.83404E-02
 -1      3167 1.24316E-01
 -1      3168 1.50301E-01
 -1      3169 5.70734E-02
 -1      3170 7.42736E-02
 -1      3171 9.09813E-02
 -1      3172 3.08655E-02
 -1      3173 4.19631E-02
 -1      3174 5.18042E-02
 -1      3175 1.78728E-02
 -1      3176 2.37613E-02
 -1      3177 2.95896E-02
 -1      3178 1.03756E-02
 -1      3179 1.32603E-02
 -1      3180 1.78728E-02
 -1      3181 6.44353E-03
 -1      3182 7.42010E-03
 -1      3183 1.03048E-02
 -1      3184 5.18038E-03
 -1      3185 5.42335E-03
 -1      3186 6.32920E-03
 -1      3187 4.16960E-03
 -1      3188 4.63422E-03
 -1      3189 4.76286E-03
 -1      3190 3.13635E-03
 -1      3191 3.64043E-03
 -1      3192 3.68752E-03
 -1      3193 2.34299E-03
 -1      3194 2.79567E-03
 -1      3195 2.81768E-03
 -1      3196 1.69075E-03
 -1      3197 2.04524E-03
 -1      3198 2.17925E-03
 -1      3199 1.18953E-03
 -1      3200 1.41530E-03
 -1      3201 1.60605E-03
 -1      3202 7.73918E-04
 -1      3203 9.69871E-04
 -1      3204 1.11094E-03
 -1      3205 7.70553E-04
 -1      3206 9.81987E-04
 -1      3207 1.02869E-03
 -1      3208 5.83031E+00
 -1      3209 1.29129E+01
 -1      3210 9.20106E+00
 -1      3211 9.28427E-04
 -1      3212 9.32826E-04
 -1      3213 1.16523E-03
 -1      3214 1.05973E-03
 -1      3215 1.07391E-03
 -1      3216 1.24543E-03
 -1      3217 7.44743E-04
 -1      3218 7.96198E-04
 -1      3219 9.83844E-04
 -1      3220 8.91276E-04
 -1      3221 9.98554E+00
 -1      3222 2.30339E+01
 -1      3223 1.92367E+01
 -1      3224 2.84839E-01
 -1      3225 2.55119E-01
 -1      3226 2.08258E-01
 -1      3227 4.58165E+00
 -1      3228 5.14357E+00
 -1      3229 3.25423E-01
 -1      3230 3.43628E-01
 -1      3231 2.67878E-01
 -1      3232 1.07391E-03
 -1      3233 1.07391E-03
 -1      3234 1.27647E-03
 -1      3235 4.97860E-01
 -1      3236 3.28950E-01
 -1      3237 3.20844E-01
 -1      3238 1.01456E-03
 -1      3239 9.81573E-04
 -1      3240 1.21712E-03
 -1      3241 3.24013E-01
 -1      3242 3.15213E-01
 -1      3243 1.13478E+01
 -1      3244 3.13683E+00
 -1      3245 4.05797E+00
 -1      3246 3.62970E+00
 -1      3247 6.79685E+00
 -1      3248 9.05851E+00
 -1      3249 2.92858E-01
 -1      3250 2.78463E-01
 -1      3251 2.13479E-01
 -1      3252 3.77215E-01
 -1      3253 5.06776E+00
 -1      3254 5.71747E+00
 -1      3255 3.10055E-01
 -1      3256 3.08236E-01
 -1      3257 2.84277E-01
 -1      3258 7.85987E+00
 -1      3259 3.86225E+00
 -1      3260 4.85245E+00
 -1      3261 7.65133E+00
 -1      3262 5.50734E+00
 -1      3263 7.26467E+00
 -1      3264 8.85259E-04
 -1      3265 8.85259E-04
 -1      3266 1.00599E-03
 -1      3267 2.69644E-01
 -1      3268 2.75688E-01
 -1      3269 3.39648E+00
 -1      3270 3.47272E+00
 -1      3271 2.98418E+00
 -1      3272 1.63010E+01
 -1      3273 8.37736E+00
 -1      3274 4.88676E+00
 -1      3275 3.71324E+00
 -1      3276 4.09134E+00
 -1      3277 3.16682E-01
 -1      3278 3.16682E-01
 -1      3279 3.25439E+00
 -1      3280 2.83490E+00
 -1      3281 3.31856E+00
 -1      3282 2.67480E-01
 -1      3283 1.81726E-01
 -1      3284 2.40971E-01
 -1      3285 2.62239E+00
 -1      3286 2.76830E+00
 -1      3287 2.73750E+00
 -1      3288 6.03430E+00
 -1      3289 2.81010E-01
 -1      3290 3.00278E-01
 -1      3291 2.64894E-01
 -1      3292 2.54998E-01
 -1      3293 3.89887E+00
 -1      3294 3.78603E+00
 -1      3295 2.92041E+00
 -1      3296 3.24880E-01
 -1      3297 1.06343E+01
 -1      3298 1.33526E+01
 -1      3299 3.04228E-01
 -1      3300 2.85682E-01
 -1      3301 2.65713E-01
 -1      3302 1.15810E-03
 -1      3303 1.15810E-03
 -1      3304 1.33429E-03
 -1      3305 9.63040E-04
 -1      3306 4.36271E+00
 -1      3307 5.26009E+00
 -1      3308 3.64619E+00
 -1      3309 3.26293E-01
 -1      3310 3.24013E-01
 -1      3311 2.89435E-01
 -1      3312 4.18780E+00
 -1      3313 7.70441E+00
 -1      3314 2.51610E-01
 -1      3315 2.63495E-01
 -1      3316 3.22568E-01
 -1      3317 3.22568E-01
 -1      3318 3.17623E-01
 -1      3319 3.19693E-01
 -1      3320 2.78089E-01
 -1      3321 3.67543E-01
 -1      3322 3.36407E-01
 -1      3323 3.13930E-01
 -1      3324 3.92623E-01
 -1      3325 8.93691E+00
 -1      3326 1.02992E+01
 -1      3327 7.32873E+00
 -1      3328 7.99082E+00
 -1      3329 1.14278E+01
 -1      3330 9.49524E+00
 -1      3331 3.45146E+00
 -1      3332 3.16034E+00
 -1      3333 8.26719E-01
 -1      3334 7.52917E-01
 -1      3335 7.95809E+00
 -1      3336 5.85337E+00
 -1      3337 3.09226E-01
 -1      3338 3.17623E-01
 -1      3339 2.81099E-01
 -1      3340 2.09376E-01
 -1      3341 2.42974E-01
 -1      3342 2.96796E-01
 -1      3343 3.75832E-01
 -1      3344 2.84831E-01
 -1      3345 4.63004E-01
 -1      3346 5.99435E-01
 -1      3347 4.25825E-01
 -1      3348 7.46932E-01
 -1      3349 9.39899E-01
 -1      3350 6.60493E-01
 -1      3351 1.21276E+00
 -1      3352 1.58218E+00
 -1      3353 1.08085E+00
 -1      3354 2.04367E+00
 -1      3355 2.56265E+00
 -1      3356 1.81520E+00
 -1      3357 3.60571E+00
 -1      3358 5.56600E+00
 -1      3359 3.31975E+00
 -1      3360 4.85545E+00
 -1      3361 3.65421E+00
 -1      3362 1.83015E+01
 -1      3363 6.62459E-01
 -1      3364 5.90163E-01
 -1      3365 7.09188E-01
 -1      3366 2.76063E+00
 -1      3367 2.05677E+00
 -1      3368 3.06216E+00
 -1      3369 1.67386E+00
 -1      3370 1.30496E+00
 -1      3371 1.78567E+00
 -1      3372 1.03741E+00
 -1      3373 8.09339E-01
 -1      3374 1.13521E+00
 -1      3375 6.28773E-01
 -1      3376 4.87859E-01
 -1      3377 6.87096E-01
 -1      3378 3.94181E-01
 -1      3379 3.05683E-01
 -1      3380 4.12852E-01
 -1      3381 2.39530E-01
 -1      3382 1.81914E-01
 -1      3383 2.53020E-01
 -1      3384 1.47939E-01
 -1      3385 1.12346E-01
 -1      3386 1.52892E-01
 -1      3387 9.06883E-02
 -1      3388 6.96319E-02
 -1      3389 9.72601E-02
 -1      3390 5.56687E-02
 -1      3391 4.32493E-02
 -1      3392 6.16396E-02
 -1      3393 3.49944E-02
 -1      3394 2.72869E-02
 -1      3395 3.94215E-02
 -1      3396 2.17226E-02
 -1      3397 1.69432E-02
 -1      3398 2.56024E-02
 -1      3399 1.33717E-02
 -1      3400 1.07463E-02
 -1      3401 1.64667E-02
 -1      3402 8.35917E-03
 -1      3403 6.91669E-03
 -1      3404 1.05081E-02
 -1      3405 5.34392E-03
 -1      3406 4.34070E-03
 -1      3407 6.54819E-03
 -1      3408 3.36958E-03
 -1      3409 2.69764E-03
 -1      3410 4.00431E-03
 -1      3411 2.21013E-03
 -1      3412 1.76265E-03
 -1      3413 2.54568E-03
 -1      3414 1.36479E-03
 -1      3415 1.09669E-03
 -1      3416 1.05703E-03
 -1      3417 1.66031E-03
 -1      3418 1.85329E-01
 -1      3419 1.80870E-01
 -1      3420 2.02503E-01
 -1      3421 5.12634E-01
 -1      3422 4.51404E-01
 -1      3423 5.41201E-01
 -1      3424 1.11049E+00
 -1      3425 1.04628E+00
 -1      3426 1.26654E+00
 -1      3427 1.19510E+00
 -1      3428 1.20013E+00
 -1      3429 1.33001E+00
 -1      3430 1.28409E+00
 -1      3431 1.30228E+00
 -1      3432 1.48403E+00
 -1      3433 1.42171E+00
 -1      3434 1.41153E+00
 -1      3435 1.54024E+00
 -1      3436 1.56211E+00
 -1      3437 1.58130E+00
 -1      3438 1.48534E+00
 -1      3439 1.52782E+00
 -1      3440 1.64697E+00
 -1      3441 1.54357E+00
 -1      3442 1.47963E+00
 -1      3443 1.62885E+00
 -1      3444 1.54127E+00
 -1      3445 1.57896E+00
 -1      3446 1.65852E+00
 -1      3447 1.34720E+00
 -1      3448 1.40630E+00
 -1      3449 1.55894E+00
 -1      3450 1.24629E+00
 -1      3451 1.30362E+00
 -1      3452 1.38039E+00
 -1      3453 1.08871E+00
 -1      3454 1.15770E+00
 -1      3455 1.24823E+00
 -1      3456 9.46972E-01
 -1      3457 1.01778E+00
 -1      3458 1.08871E+00
 -1      3459 7.90605E-01
 -1      3460 8.65661E-01
 -1      3461 9.36470E-01
 -1      3462 6.10787E-01
 -1      3463 6.92873E-01
 -1      3464 7.57426E-01
 -1      3465 4.43746E-01
 -1      3466 5.19758E-01
 -1      3467 5.68665E-01
 -1      3468 3.04936E-01
 -1      3469 3.68297E-01
 -1      3470 4.02185E-01
 -1      3471 1.98886E-01
 -1      3472 2.47678E-01
 -1      3473 2.69477E-01
 -1      3474 1.30447E-01
 -1      3475 1.65700E-01
 -1      3476 1.79033E-01
 -1      3477 8.10110E-02
 -1      3478 1.05078E-01
 -1      3479 1.20477E-01
 -1      3480 4.77780E-02
 -1      3481 6.28883E-02
 -1      3482 7.69848E-02
 -1      3483 2.86174E-02
 -1      3484 3.57216E-02
 -1      3485 4.68058E-02
 -1      3486 1.66727E-02
 -1      3487 2.12852E-02
 -1      3488 2.74172E-02
 -1      3489 9.12741E-03
 -1      3490 1.20829E-02
 -1      3491 1.54953E-02
 -1      3492 6.05088E-03
 -1      3493 7.07105E-03
 -1      3494 8.84910E-03
 -1      3495 4.49550E-03
 -1      3496 5.04167E-03
 -1      3497 5.78352E-03
 -1      3498 3.25215E-03
 -1      3499 3.78131E-03
 -1      3500 4.06012E-03
 -1      3501 2.67257E-03
 -1      3502 3.01325E-03
 -1      3503 3.10704E-03
 -1      3504 2.07260E-03
 -1      3505 2.37035E-03
 -1      3506 2.56592E-03
 -1      3507 1.48995E-03
 -1      3508 1.76541E-03
 -1      3509 1.95651E-03
 -1      3510 8.62778E+00
 -1      3511 1.40372E-03
 -1      3512 1.45288E-03
 -1      3513 1.50266E-03
 -1      3514 1.53370E-03
 -1      3515 1.74114E-03
 -1      3516 9.77035E-01
 -1      3517 9.15414E-01
 -1      3518 1.04628E+00
 -1      3519 2.18485E-01
 -1      3520 2.16895E-01
 -1      3521 8.33956E+00
 -1      3522 1.86949E-01
 -1      3523 1.75352E-01
 -1      3524 1.64020E-01
 -1      3525 2.63710E-01
 -1      3526 2.73738E-01
 -1      3527 1.89114E-01
 -1      3528 2.58575E-01
 -1      3529 6.70561E+00
 -1      3530 7.29634E+00
 -1      3531 6.12555E+00
 -1      3532 1.53370E-03
 -1      3533 1.53370E-03
 -1      3534 1.79092E-03
 -1      3535 1.44436E-03
 -1      3536 1.38500E-03
 -1      3537 1.70158E-03
 -1      3538 1.31576E-03
 -1      3539 3.16383E+00
 -1      3540 3.78051E+00
 -1      3541 3.06737E+00
 -1      3542 4.41608E+00
 -1      3543 5.49546E+00
 -1      3544 1.65662E-01
 -1      3545 1.72037E-01
 -1      3546 1.39132E-01
 -1      3547 2.93262E+00
 -1      3548 3.45629E+00
 -1      3549 2.75438E+00
 -1      3550 6.68576E+00
 -1      3551 7.13704E+00
 -1      3552 5.61088E+00
 -1      3553 2.40968E-01
 -1      3554 4.95366E+00
 -1      3555 4.04117E-01
 -1      3556 3.91849E-01
 -1      3557 3.45335E-01
 -1      3558 5.03785E+00
 -1      3559 4.80668E+00
 -1      3560 3.89322E+00
 -1      3561 3.14823E+00
 -1      3562 3.34518E+00
 -1      3563 2.82060E+00
 -1      3564 2.68090E+00
 -1      3565 3.79367E+00
 -1      3566 5.41189E+00
 -1      3567 5.00382E+00
 -1      3568 3.27590E+00
 -1      3569 2.62410E+00
 -1      3570 2.94086E+00
 -1      3571 2.61163E+00
 -1      3572 2.65256E+00
 -1      3573 2.39913E+00
 -1      3574 2.19726E-01
 -1      3575 2.25048E-01
 -1      3576 6.81904E+00
 -1      3577 1.22564E-03
 -1      3578 2.60760E+00
 -1      3579 3.77649E+00
 -1      3580 3.23764E+00
 -1      3581 2.80109E-01
 -1      3582 1.31682E-03
 -1      3583 1.49336E-03
 -1      3584 1.54407E-03
 -1      3585 1.18000E-03
 -1      3586 1.31223E-03
 -1      3587 1.59987E-03
 -1      3588 1.38542E-03
 -1      3589 2.27496E-01
 -1      3590 1.76512E-01
 -1      3591 2.22922E-01
 -1      3592 2.85710E-01
 -1      3593 2.90084E-01
 -1      3594 8.88341E-01
 -1      3595 2.53710E-01
 -1      3596 2.53710E-01
 -1      3597 1.91588E-01
 -1      3598 1.76909E-01
 -1      3599 1.38500E-03
 -1      3600 2.27924E-01
 -1      3601 1.97975E-01
 -1      3602 2.43962E-01
 -1      3603 1.42194E-01
 -1      3604 1.58007E-03
 -1      3605 4.37133E+00
 -1      3606 6.13406E+00
 -1      3607 4.93154E+00
 -1      3608 2.48480E-01
 -1      3609 1.67546E+01
 -1      3610 2.20928E+00
 -1      3611 2.57782E+00
 -1      3612 2.40441E+00
 -1      3613 1.70617E-01
 -1      3614 1.29175E-01
 -1      3615 1.45239E-01
 -1      3616 2.17985E-01
 -1      3617 2.53710E-01
 -1      3618 2.48552E-01
 -1      3619 2.89762E+00
 -1      3620 2.49033E+00
 -1      3621 2.48683E+00
 -1      3622 6.99201E+00
 -1      3623 1.79739E-01
 -1      3624 1.83776E-01
 -1      3625 2.02266E-01
 -1      3626 1.19717E-01
 -1      3627 2.15713E-01
 -1      3628 2.04604E-01
 -1      3629 2.31076E-01
 -1      3630 1.60602E-01
 -1      3631 2.34087E-01
 -1      3632 2.46925E-01
 -1      3633 2.46925E-01
 -1      3634 1.99912E-01
 -1      3635 2.73392E+00
 -1      3636 3.04475E+00
 -1      3637 2.96836E+00
 -1      3638 2.90459E+00
 -1      3639 1.87246E-01
 -1      3640 2.15753E-01
 -1      3641 3.89944E-01
 -1      3642 4.77116E-01
 -1      3643 5.85284E-01
 -1      3644 7.32781E-01
 -1      3645 5.49404E-01
 -1      3646 9.04983E-01
 -1      3647 1.17785E+00
 -1      3648 8.29773E-01
 -1      3649 1.43785E+00
 -1      3650 1.89934E+00
 -1      3651 1.26198E+00
 -1      3652 2.27669E+00
 -1      3653 3.31975E+00
 -1      3654 3.32827E+00
 -1      3655 1.89934E+00
 -1      3656 3.03495E-01
 -1      3657 2.71316E-01
 -1      3658 2.33527E-01
 -1      3659 3.02722E-01
 -1      3660 7.25916E-01
 -1      3661 6.35458E-01
 -1      3662 3.33444E+00
 -1      3663 2.44086E+00
 -1      3664 1.94066E+00
 -1      3665 1.55775E+00
 -1      3666 2.21294E+00
 -1      3667 1.21179E+00
 -1      3668 9.44243E-01
 -1      3669 1.36678E+00
 -1      3670 7.18044E-01
 -1      3671 5.37478E-01
 -1      3672 7.94625E-01
 -1      3673 4.44051E-01
 -1      3674 3.50373E-01
 -1      3675 4.74999E-01
 -1      3676 2.81924E-01
 -1      3677 2.15771E-01
 -1      3678 3.13124E-01
 -1      3679 1.69685E-01
 -1      3680 1.35710E-01
 -1      3681 1.98589E-01
 -1      3682 1.05965E-01
 -1      3683 8.43078E-02
 -1      3684 1.22758E-01
 -1      3685 6.55801E-02
 -1      3686 5.16168E-02
 -1      3687 7.42850E-02
 -1      3688 4.00720E-02
 -1      3689 3.18171E-02
 -1      3690 4.40125E-02
 -1      3691 2.59913E-02
 -1      3692 2.04271E-02
 -1      3693 2.66419E-02
 -1      3694 1.70823E-02
 -1      3695 1.35109E-02
 -1      3696 1.74713E-02
 -1      3697 1.12996E-02
 -1      3698 8.91250E-03
 -1      3699 1.19153E-02
 -1      3700 7.31194E-03
 -1      3701 5.73917E-03
 -1      3702 8.10348E-03
 -1      3703 4.61390E-03
 -1      3704 3.64279E-03
 -1      3705 5.37765E-03
 -1      3706 3.03605E-03
 -1      3707 2.54854E-03
 -1      3708 3.64564E-03
 -1      3709 2.02993E+00
 -1      3710 1.93824E+00
 -1      3711 1.87650E-01
 -1      3712 5.36840E-01
 -1      3713 4.59311E-01
 -1      3714 5.53568E-01
 -1      3715 6.43974E+00
 -1      3716 5.57228E+00
 -1      3717 4.57436E+00
 -1      3718 5.74526E+00
 -1      3719 1.70653E+00
 -1      3720 1.68899E+00
 -1      3721 2.32494E+00
 -1      3722 1.29262E+00
 -1      3723 1.20801E+00
 -1      3724 1.69687E+00
 -1      3725 1.65939E+00
 -1      3726 1.58130E+00
 -1      3727 2.10802E+00
 -1      3728 1.74319E+00
 -1      3729 1.75561E+00
 -1      3730 1.75561E+00
 -1      3731 1.92362E+00
 -1      3732 1.92934E+00
 -1      3733 2.03797E+00
 -1      3734 2.20261E+00
 -1      3735 2.16722E+00
 -1      3736 2.46771E+00
 -1      3737 1.91376E+00
 -1      3738 2.04873E+00
 -1      3739 2.55743E+00
 -1      3740 2.26443E+00
 -1      3741 2.30800E+00
 -1      3742 2.79780E+00
 -1      3743 1.54660E+00
 -1      3744 1.63519E+00
 -1      3745 2.56280E+00
 -1      3746 1.08871E+00
 -1      3747 1.15965E+00
 -1      3748 1.54660E+00
 -1      3749 9.26677E-01
 -1      3750 1.00799E+00
 -1      3751 1.07892E+00
 -1      3752 7.12431E-01
 -1      3753 8.10164E-01
 -1      3754 8.81682E-01
 -1      3755 5.15437E-01
 -1      3756 6.06467E-01
 -1      3757 6.59204E-01
 -1      3758 3.74065E-01
 -1      3759 4.49515E-01
 -1      3760 4.87317E-01
 -1      3761 2.56799E-01
 -1      3762 3.14057E-01
 -1      3763 3.61387E-01
 -1      3764 1.74906E-01
 -1      3765 2.08091E-01
 -1      3766 2.52672E-01
 -1      3767 1.12929E-01
 -1      3768 1.38299E-01
 -1      3769 1.67358E-01
 -1      3770 6.96519E-02
 -1      3771 8.77746E-02
 -1      3772 1.05596E-01
 -1      3773 4.11694E-02
 -1      3774 5.32258E-02
 -1      3775 6.40156E-02
 -1      3776 2.37000E-02
 -1      3777 3.10321E-02
 -1      3778 3.74522E-02
 -1      3779 1.39151E-02
 -1      3780 1.85049E-02
 -1      3781 2.21198E-02
 -1      3782 8.66140E-03
 -1      3783 1.07178E-02
 -1      3784 1.37274E-02
 -1      3785 5.55257E-03
 -1      3786 6.56179E-03
 -1      3787 8.43045E-03
 -1      3788 3.73330E-03
 -1      3789 4.44748E-03
 -1      3790 5.22575E-03
 -1      3791 3.10704E-03
 -1      3792 3.34593E-03
 -1      3793 3.73330E-03
 -1      3794 2.60187E-03
 -1      3795 2.90409E-03
 -1      3796 3.14299E-03
 -1      3797 1.82539E-03
 -1      3798 2.13258E-03
 -1      3799 2.47075E-03
 -1      3800 2.31949E-03
 -1      3801 2.36927E-03
 -1      3802 1.11552E+00
 -1      3803 1.04628E+00
 -1      3804 1.20801E+00
 -1      3805 4.61782E+00
 -1      3806 4.74545E+00
 -1      3807 4.04479E+00
 -1      3808 2.56864E-01
 -1      3809 3.10686E-01
 -1      3810 2.41607E-01
 -1      3811 1.75614E-03
 -1      3812 9.33484E-01
 -1      3813 8.44790E-01
 -1      3814 7.71060E-01
 -1      3815 2.33381E-03
 -1      3816 2.33381E-03
 -1      3817 2.91216E-03
 -1      3818 1.98380E-03
 -1      3819 1.89447E-03
 -1      3820 2.52669E-03
 -1      3821 2.46743E-01
 -1      3822 2.47734E-01
 -1      3823 2.13559E-01
 -1      3824 2.16177E-01
 -1      3825 1.08023E-01
 -1      3826 1.22935E-01
 -1      3827 2.28380E-01
 -1      3828 2.32105E-01
 -1      3829 1.96380E-01
 -1      3830 1.48661E-01
 -1      3831 1.48096E-01
 -1      3832 1.58072E-01
 -1      3833 1.71322E-01
 -1      3834 1.55647E-01
 -1      3835 1.57469E-01
 -1      3836 1.48457E-01
 -1      3837 3.94293E-01
 -1      3838 3.34738E-01
 -1      3839 3.89933E-01
 -1      3840 3.61977E-01
 -1      3841 3.26613E+00
 -1      3842 2.96512E+00
 -1      3843 3.71010E+00
 -1      3844 2.84778E+00
 -1      3845 2.99472E+00
 -1      3846 2.70727E+00
 -1      3847 2.69773E+00
 -1      3848 3.23967E+00
 -1      3849 3.15611E+00
 -1      3850 2.60741E+00
 -1      3851 2.50420E+00
 -1      3852 2.32186E+00
 -1      3853 2.53082E+00
 -1      3854 3.95306E+00
 -1      3855 2.49297E+00
 -1      3856 2.46280E+00
 -1      3857 2.30313E+00
 -1      3858 1.78328E-03
 -1      3859 1.53458E-01
 -1      3860 1.51331E-01
 -1      3861 1.23277E-01
 -1      3862 4.95120E+00
 -1      3863 4.39893E+00
 -1      3864 3.15901E+00
 -1      3865 2.55836E-03
 -1      3866 2.27614E-03
 -1      3867 2.20796E-03
 -1      3868 2.36513E-03
 -1      3869 2.99326E-03
 -1      3870 1.72172E-01
 -1      3871 1.63974E-01
 -1      3872 1.27655E-01
 -1      3873 1.00273E+00
 -1      3874 2.27364E-03
 -1      3875 1.39451E-01
 -1      3876 3.65749E+00
 -1      3877 1.16988E-01
 -1      3878 2.54388E+00
 -1      3879 2.53905E+00
 -1      3880 2.60009E+00
 -1      3881 1.87325E-01
 -1      3882 1.87325E-01
 -1      3883 2.73392E+00
 -1      3884 2.71130E+00
 -1      3885 2.46771E+00
 -1      3886 1.23151E-01
 -1      3887 1.25980E-01
 -1      3888 1.52095E-01
 -1      3889 1.55568E-01
 -1      3890 1.77173E-01
 -1      3891 1.46512E-01
 -1      3892 1.32887E-01
 -1      3893 1.48457E-01
 -1      3894 1.29414E-01
 -1      3895 2.23175E+00
 -1      3896 2.58655E+00
 -1      3897 1.47838E-01
 -1      3898 1.77012E-01
 -1      3899 2.95167E+00
 -1      3900 2.84778E+00
 -1      3901 3.19204E+00
 -1      3902 1.73867E-03
 -1      3903 6.57572E-01
 -1      3904 8.29773E-01
 -1      3905 1.01672E+00
 -1      3906 1.27673E+00
 -1      3907 8.44522E-01
 -1      3908 2.58443E+00
 -1      3909 2.08423E+00
 -1      3910 3.60843E+00
 -1      3911 3.90083E+00
 -1      3912 3.27375E+00
 -1      3913 1.74421E+00
 -1      3914 1.39826E+00
 -1      3915 2.11571E+00
 -1      3916 9.42467E-01
 -1      3917 7.16268E-01
 -1      3918 1.31990E+00
 -1      3919 5.32322E-01
 -1      3920 4.38895E-01
 -1      3921 6.80164E-01
 -1      3922 3.39748E-01
 -1      3923 2.71299E-01
 -1      3924 3.97070E-01
 -1      3925 2.09282E-01
 -1      3926 1.63195E-01
 -1      3927 2.35906E-01
 -1      3928 1.27621E-01
 -1      3929 9.78764E-02
 -1      3930 1.38314E-01
 -1      3931 7.98736E-02
 -1      3932 6.11459E-02
 -1      3933 8.47373E-02
 -1      3934 4.89355E-02
 -1      3935 3.73907E-02
 -1      3936 5.45241E-02
 -1      3937 2.93713E-02
 -1      3938 2.35455E-02
 -1      3939 3.42943E-02
 -1      3940 1.80965E-02
 -1      3941 1.47517E-02
 -1      3942 2.08259E-02
 -1      3943 1.21021E-02
 -1      3944 9.89085E-03
 -1      3945 1.27273E-02
 -1      3946 8.11795E-03
 -1      3947 6.51739E-03
 -1      3948 8.30476E-03
 -1      3949 5.59614E-03
 -1      3950 4.47087E-03
 -1      3951 5.61061E-03
 -1      3952 3.98006E-03
 -1      3953 3.37332E-03
 -1      3954 3.32768E-03
 -1      3955 4.19855E-03
 -1      3956 2.09019E+00
 -1      3957 1.99397E+00
 -1      3958 1.14116E+00
 -1      3959 1.02836E+00
 -1      3960 9.51451E-02
 -1      3961 1.20306E-01
 -1      3962 1.25995E-01
 -1      3963 6.38700E-01
 -1      3964 5.40082E-01
 -1      3965 1.57295E+00
 -1      3966 1.48046E+00
 -1      3967 1.50609E+00
 -1      3968 2.09324E+00
 -1      3969 1.69687E+00
 -1      3970 1.96932E+00
 -1      3971 2.22412E+00
 -1      3972 2.03797E+00
 -1      3973 3.19204E+00
 -1      3974 2.79780E+00
 -1      3975 2.36548E+00
 -1      3976 2.99472E+00
 -1      3977 1.09984E+00
 -1      3978 1.18056E+00
 -1      3979 8.97921E-01
 -1      3980 1.01443E+00
 -1      3981 1.11608E+00
 -1      3982 6.59204E-01
 -1      3983 7.65169E-01
 -1      3984 8.97921E-01
 -1      3985 4.87104E-01
 -1      3986 5.53026E-01
 -1      3987 6.58991E-01
 -1      3988 3.44827E-01
 -1      3989 4.04835E-01
 -1      3990 4.70544E-01
 -1      3991 2.29660E-01
 -1      3992 2.78368E-01
 -1      3993 3.21816E-01
 -1      3994 1.48970E-01
 -1      3995 1.85577E-01
 -1      3996 2.11272E-01
 -1      3997 9.64104E-02
 -1      3998 1.21565E-01
 -1      3999 1.39784E-01
 -1      4000 5.97132E-02
 -1      4001 7.61393E-02
 -1      4002 9.21080E-02
 -1      4003 3.56833E-02
 -1      4004 4.58205E-02
 -1      4005 5.79442E-02
 -1      4006 2.18214E-02
 -1      4007 2.70165E-02
 -1      4008 3.53848E-02
 -1      4009 1.29988E-02
 -1      4010 1.61961E-02
 -1      4011 2.10928E-02
 -1      4012 7.44098E-03
 -1      4013 9.54059E-03
 -1      4014 1.20093E-02
 -1      4015 4.94186E-03
 -1      4016 6.04695E-03
 -1      4017 7.15709E-03
 -1      4018 3.73093E-03
 -1      4019 4.11830E-03
 -1      4020 4.93949E-03
 -1      4021 3.02143E-03
 -1      4022 3.22438E-03
 -1      4023 3.60938E-03
 -1      4024 1.61030E-01
 -1      4025 1.13406E-01
 -1      4026 1.16724E-01
 -1      4027 1.73868E-01
 -1      4028 8.63240E-01
 -1      4029 7.44367E-01
 -1      4030 7.30881E-01
 -1      4031 1.00167E+00
 -1      4032 3.02967E+00
 -1      4033 3.58367E+00
 -1      4034 2.99869E-01
 -1      4035 3.79128E-01
 -1      4036 2.27633E+00
 -1      4037 9.19462E-02
 -1      4038 9.80834E-02
 -1      4039 4.06612E+00
 -1      4040 2.11999E-01
 -1      4041 2.53111E-01
 -1      4042 1.88515E-01
 -1      4043 2.37122E+00
 -1      4044 1.56664E-01
 -1      4045 1.87325E-01
 -1      4046 1.85516E-01
 -1      4047 3.53105E+00
 -1      4048 3.07215E-03
 -1      4049 3.03669E-03
 -1      4050 3.45221E-03
 -1      4051 3.00657E-03
 -1      4052 2.65656E-03
 -1      4053 3.16656E-03
 -1      4054 2.47075E-03
 -1      4055 1.32887E-01
 -1      4056 3.03030E+00
 -1      4057 4.50521E-01
 -1      4058 5.58689E-01
 -1      4059 5.58689E-01
 -1      4060 3.88413E-01
 -1      4061 2.03664E+00
 -1      4062 2.46771E+00
 -1      4063 3.76168E+00
 -1      4064 3.44795E+00
 -1      4065 2.72978E-01
 -1      4066 2.82801E-01
 -1      4067 2.40961E-01
 -1      4068 2.71130E+00
 -1      4069 2.70063E+00
 -1      4070 2.58273E+00
 -1      4071 2.26633E+00
 -1      4072 2.26547E+00
 -1      4073 3.31705E+00
 -1      4074 2.69888E+00
 -1      4075 2.16161E-01
 -1      4076 1.88808E-01
 -1      4077 1.96241E-01
 -1      4078 1.55340E+00
 -1      4079 1.93076E+00
 -1      4080 1.91953E+00
 -1      4081 1.30815E+00
 -1      4082 2.49297E+00
 -1      4083 2.55665E+00
 -1      4084 2.38553E+00
 -1      4085 1.54806E-01
 -1      4086 2.55743E+00
 -1      4087 2.94004E-03
 -1      4088 2.23813E+00
 -1      4089 2.66569E+00
 -1      4090 3.03824E-03
 -1      4091 2.32494E+00
 -1      4092 2.32494E+00
 -1      4093 2.36106E+00
 -1      4094 1.99708E+00
 -1      4095 2.55665E+00
 -1      4096 2.71130E+00
 -1      4097 3.02143E-03
 -1      4098 1.55173E+00
 -1      4099 1.93868E+00
 -1      4100 1.74677E-01
 -1      4101 2.70261E-01
 -1      4102 1.06814E-01
 -1      4103 9.62988E-02
 -1      4104 7.11053E-02
 -1      4105 2.48527E+00
 -1      4106 2.35904E+00
 -1      4107 1.57265E+00
 -1      4108 2.48527E+00
 -1      4109 2.55665E+00
 -1      4110 1.20263E-01
 -1      4111 1.23736E-01
 -1      4112 1.33888E-01
 -1      4113 8.89319E-02
 -1      4114 1.24217E-01
 -1      4115 1.24217E-01
 -1      4116 1.01440E-01
 -1      4117 2.45871E+00
 -1      4118 3.30399E+00
 -1      4119 2.95648E+00
 -1      4120 3.03030E+00
 -1      4121 2.45573E+00
 -1      4122 4.42032E-01
 -1      4123 3.77015E-01
 -1      4124 5.27164E-01
 -1      4125 3.06392E+00
 -1      4126 2.68154E+00
 -1      4127 3.25465E+00
 -1      4128 3.19204E+00
 -1      4129 7.45684E-01
 -1      4130 9.32634E-01
 -1      4131 2.12227E+00
 -1      4132 2.29338E+00
 -1      4133 2.06168E+00
 -1      4134 2.17418E+00
 -1      4135 1.40723E-01
 -1      4136 1.24088E-01
 -1      4137 9.27313E-02
 -1      4138 3.09417E+00
 -1      4139 2.11571E+00
 -1      4140 1.77569E+00
 -1      4141 2.11571E+00
 -1      4142 6.87440E-02
 -1      4143 9.09232E-02
 -1      4144 8.12526E-02
 -1      4145 6.80164E-01
 -1      4146 4.96218E-01
 -1      4147 4.15497E-01
 -1      4148 3.16350E-01
 -1      4149 4.15497E-01
 -1      4150 2.58189E-01
 -1      4151 1.96172E-01
 -1      4152 2.76616E-01
 -1      4153 1.55450E-01
 -1      4154 1.19876E-01
 -1      4155 1.77734E-01
 -1      4156 9.26849E-02
 -1      4157 7.46821E-02
 -1      4158 1.09821E-01
 -1      4159 5.73820E-02
 -1      4160 4.51716E-02
 -1      4161 6.53296E-02
 -1      4162 3.48567E-02
 -1      4163 2.68373E-02
 -1      4164 3.77146E-02
 -1      4165 2.19090E-02
 -1      4166 1.64600E-02
 -1      4167 2.24714E-02
 -1      4168 1.37883E-02
 -1      4169 1.11387E-02
 -1      4170 1.48714E-02
 -1      4171 8.99687E-03
 -1      4172 7.22397E-03
 -1      4173 1.00579E-02
 -1      4174 5.81712E-03
 -1      4175 4.89587E-03
 -1      4176 6.50922E-03
 -1      4177 4.19855E-03
 -1      4178 3.70773E-03
 -1      4179 3.45221E-03
 -1      4180 4.40505E-03
 -1      4181 1.93776E+00
 -1      4182 1.00327E-01
 -1      4183 1.27860E-01
 -1      4184 3.11963E-03
 -1      4185 2.08182E+00
 -1      4186 1.74252E+00
 -1      4187 1.45825E-01
 -1      4188 4.91999E-01
 -1      4189 5.74267E-01
 -1      4190 3.27153E-01
 -1      4191 3.93613E-01
 -1      4192 4.97336E-01
 -1      4193 2.28864E-01
 -1      4194 2.72948E-01
 -1      4195 3.44745E-01
 -1      4196 1.50477E-01
 -1      4197 1.77882E-01
 -1      4198 2.39557E-01
 -1      4199 9.48001E-02
 -1      4200 1.15071E-01
 -1      4201 1.53169E-01
 -1      4202 5.73703E-02
 -1      4203 7.12629E-02
 -1      4204 9.42261E-02
 -1      4205 3.45334E-02
 -1      4206 4.32002E-02
 -1      4207 5.65189E-02
 -1      4208 2.04664E-02
 -1      4209 2.60916E-02
 -1      4210 3.39070E-02
 -1      4211 1.19823E-02
 -1      4212 1.54405E-02
 -1      4213 2.04393E-02
 -1      4214 7.24745E-03
 -1      4215 8.64148E-03
 -1      4216 1.20726E-02
 -1      4217 4.86035E-03
 -1      4218 5.68391E-03
 -1      4219 7.16831E-03
 -1      4220 3.57701E-03
 -1      4221 4.08356E-03
 -1      4222 4.82798E-03
 -1      4223 3.59381E-03
 -1      4224 2.37061E+00
 -1      4225 1.45241E+00
 -1      4226 2.24395E+00
 -1      4227 1.74320E+00
 -1      4228 2.03191E+00
 -1      4229 8.97921E-01
 -1      4230 1.03067E+00
 -1      4231 1.64312E-01
 -1      4232 1.99299E-01
 -1      4233 1.38644E-01
 -1      4234 1.66075E+00
 -1      4235 3.62394E-03
 -1      4236 3.59381E-03
 -1      4237 4.05119E-03
 -1      4238 3.87946E-03
 -1      4239 2.30854E-01
 -1      4240 2.77613E-01
 -1      4241 2.06651E-01
 -1      4242 1.53781E+00
 -1      4243 1.22962E-01
 -1      4244 1.12123E-01
 -1      4245 9.38615E-02
 -1      4246 9.05148E-02
 -1      4247 1.45241E+00
 -1      4248 3.12464E-01
 -1      4249 2.60526E-01
 -1      4250 3.64563E-01
 -1      4251 1.78172E-01
 -1      4252 1.47453E-01
 -1      4253 2.02971E-01
 -1      4254 6.03586E-01
 -1      4255 6.91698E-01
 -1      4256 5.04704E-01
 -1      4257 1.34575E+00
 -1      4258 1.18063E+00
 -1      4259 1.92148E+00
 -1      4260 1.08035E+00
 -1      4261 1.35702E+00
 -1      4262 9.81507E-01
 -1      4263 7.30966E-02
 -1      4264 1.41117E+00
 -1      4265 9.55380E-01
 -1      4266 2.87623E-01
 -1      4267 3.27031E-01
 -1      4268 3.98424E-01
 -1      4269 2.17418E+00
 -1      4270 9.57257E-02
 -1      4271 2.19661E+00
 -1      4272 2.64124E+00
 -1      4273 2.59190E+00
 -1      4274 7.39494E-01
 -1      4275 8.45672E-01
 -1      4276 9.78425E-01
 -1      4277 7.60949E-01
 -1      4278 7.71434E-01
 -1      4279 9.82883E-01
 -1      4280 8.77217E-01
 -1      4281 1.32697E+00
 -1      4282 7.29505E-01
 -1      4283 6.31455E-01
 -1      4284 9.81507E-01
 -1      4285 2.31824E+00
 -1      4286 8.73329E-02
 -1      4287 8.60778E-02
 -1      4288 9.25438E-02
 -1      4289 7.68156E-02
 -1      4290 4.59537E-01
 -1      4291 3.78816E-01
 -1      4292 1.41117E+00
 -1      4293 1.69095E+00
 -1      4294 1.35093E+00
 -1      4295 1.18570E+00
 -1      4296 1.21165E+00
 -1      4297 8.47136E-01
 -1      4298 5.71920E-01
 -1      4299 6.21672E-01
 -1      4300 2.68154E+00
 -1      4301 2.96519E-01
 -1      4302 2.38359E-01
 -1      4303 3.40559E-01
 -1      4304 1.90373E-01
 -1      4305 1.49651E-01
 -1      4306 2.10276E-01
 -1      4307 1.22394E-01
 -1      4308 9.52023E-02
 -1      4309 1.35032E-01
 -1      4310 7.56884E-02
 -1      4311 5.83883E-02
 -1      4312 8.82610E-02
 -1      4313 4.51892E-02
 -1      4314 3.48743E-02
 -1      4315 5.55480E-02
 -1      4316 2.64325E-02
 -1      4317 2.15041E-02
 -1      4318 3.39070E-02
 -1      4319 1.64782E-02
 -1      4320 1.38066E-02
 -1      4321 2.04393E-02
 -1      4322 1.04658E-02
 -1      4323 8.32396E-03
 -1      4324 1.20726E-02
 -1      4325 4.57678E-03
 -1      4326 2.23418E-01
 -1      4327 2.74401E-01
 -1      4328 1.88948E+00
 -1      4329 1.83184E+00
 -1      4330 1.55477E+00
 -1      4331 2.22860E+00
 -1      4332 1.25277E-01
 -1      4333 1.22916E-01
 -1      4334 3.56698E-01
 -1      4335 4.10903E-01
 -1      4336 5.23286E-01
 -1      4337 1.40026E-01
 -1      4338 1.75432E-01
 -1      4339 8.92319E-02
 -1      4340 1.12769E-01
 -1      4341 5.55480E-02
 -1      4342 6.97181E-02
 -1      4343 3.39070E-02
 -1      4344 4.23489E-02
 -1      4345 2.04393E-02
 -1      4346 2.54652E-02
 -1      4347 1.20726E-02
 -1      4348 1.54134E-02
 -1      4349 7.16831E-03
 -1      4350 8.73185E-03
 -1      4351 4.82798E-03
 -1      4352 5.60477E-03
 -1      4353 7.16831E-03
 -1      4354 4.82798E-03
 -1      4355 1.75096E-01
 -1      4356 2.06651E-01
 -1      4357 1.38644E-01
 -1      4358 1.83184E+00
 -1      4359 1.42550E-01
 -1      4360 2.42457E-01
 -1      4361 4.43321E-01
 -1      4362 1.74105E-01
 -1      4363 2.06651E-01
 -1      4364 2.38205E-01
 -1      4365 2.11554E-01
 -1      4366 8.33796E-01
 -1      4367 9.81507E-01
 -1      4368 2.87623E-01
 -1      4369 6.97092E-01
 -1      4370 4.94752E-01
 -1      4371 4.30200E-01
 -1      4372 1.32697E+00
 -1      4373 6.76042E-03
 -1      4374 5.35357E-03
 -1      4375 1.52471E+00
 -1      4376 5.35239E-01
 -1      4377 6.97092E-01
 -1      4378 1.32697E+00
 -1      4379 5.54994E-01
 -1      4380 1.12922E+00
 -1      4381 1.28996E-01
 -1      4382 2.80847E-01
 -1      4383 3.07498E-01
 -1      4384 3.56916E-01
 -1      4385 3.38402E-01
 -1      4386 4.68590E-01
 -1      4387 4.63196E-01
 -3
 9999
