    1C
    1UUSER                                                              
    1UDATE              27.october.2022                                 
    1UTIME              00:32:30                                        
    1UHOST                                                              
    1UPGM               CalculiX                                        
    1UVERSION           Version 2.17                             
    1UCOMPILETIME       Thu Jul 23 21:43:50 CEST 2020                    
    1UDIR                                                               
    1UDBN                                                               
    1UMAT    1SOLIDMATERIAL                                             
    2C                          4196                                     1
 -1         1 1.11546E+02 2.06064E+01 0.00000E+00
 -1         2 1.19773E+02 1.37148E+01 0.00000E+00
 -1         3 1.50000E+02 0.00000E+00 0.00000E+00
 -1         4 1.50000E+02 5.00000E+01 0.00000E+00
 -1         5 0.00000E+00 0.00000E+00 0.00000E+00
 -1         6 0.00000E+00 5.00000E+01 0.00000E+00
 -1         7 0.00000E+00 4.70500E+01 0.00000E+00
 -1         8 0.00000E+00 4.41000E+01 0.00000E+00
 -1         9 0.00000E+00 4.11500E+01 0.00000E+00
 -1        10 0.00000E+00 3.82000E+01 0.00000E+00
 -1        11 0.00000E+00 3.52500E+01 0.00000E+00
 -1        12 0.00000E+00 3.23500E+01 0.00000E+00
 -1        13 0.00000E+00 2.94000E+01 0.00000E+00
 -1        14 0.00000E+00 2.64500E+01 0.00000E+00
 -1        15 0.00000E+00 2.35000E+01 0.00000E+00
 -1        16 0.00000E+00 2.05500E+01 0.00000E+00
 -1        17 0.00000E+00 1.76000E+01 0.00000E+00
 -1        18 0.00000E+00 1.47000E+01 0.00000E+00
 -1        19 0.00000E+00 1.17500E+01 0.00000E+00
 -1        20 0.00000E+00 8.80000E+00 0.00000E+00
 -1        21 0.00000E+00 5.85000E+00 0.00000E+00
 -1        22 0.00000E+00 2.90000E+00 0.00000E+00
 -1        23 3.15000E+00 5.00000E+01 0.00000E+00
 -1        24 6.15000E+00 5.00000E+01 0.00000E+00
 -1        25 9.15000E+00 5.00000E+01 0.00000E+00
 -1        26 1.21500E+01 5.00000E+01 0.00000E+00
 -1        27 1.51500E+01 5.00000E+01 0.00000E+00
 -1        28 1.81500E+01 5.00000E+01 0.00000E+00
 -1        29 2.11500E+01 5.00000E+01 0.00000E+00
 -1        30 2.41500E+01 5.00000E+01 0.00000E+00
 -1        31 2.71500E+01 5.00000E+01 0.00000E+00
 -1        32 3.01500E+01 5.00000E+01 0.00000E+00
 -1        33 3.31500E+01 5.00000E+01 0.00000E+00
 -1        34 3.61500E+01 5.00000E+01 0.00000E+00
 -1        35 3.91500E+01 5.00000E+01 0.00000E+00
 -1        36 4.21500E+01 5.00000E+01 0.00000E+00
 -1        37 4.51500E+01 5.00000E+01 0.00000E+00
 -1        38 4.81500E+01 5.00000E+01 0.00000E+00
 -1        39 5.11500E+01 5.00000E+01 0.00000E+00
 -1        40 5.41500E+01 5.00000E+01 0.00000E+00
 -1        41 5.71500E+01 5.00000E+01 0.00000E+00
 -1        42 6.01500E+01 5.00000E+01 0.00000E+00
 -1        43 6.31500E+01 5.00000E+01 0.00000E+00
 -1        44 6.61500E+01 5.00000E+01 0.00000E+00
 -1        45 6.91500E+01 5.00000E+01 0.00000E+00
 -1        46 7.21500E+01 5.00000E+01 0.00000E+00
 -1        47 7.51500E+01 5.00000E+01 0.00000E+00
 -1        48 7.81500E+01 5.00000E+01 0.00000E+00
 -1        49 8.11500E+01 5.00000E+01 0.00000E+00
 -1        50 8.41500E+01 5.00000E+01 0.00000E+00
 -1        51 8.71500E+01 5.00000E+01 0.00000E+00
 -1        52 9.01500E+01 5.00000E+01 0.00000E+00
 -1        53 9.31500E+01 5.00000E+01 0.00000E+00
 -1        54 9.61500E+01 5.00000E+01 0.00000E+00
 -1        55 9.91500E+01 5.00000E+01 0.00000E+00
 -1        56 1.02150E+02 5.00000E+01 0.00000E+00
 -1        57 1.05150E+02 5.00000E+01 0.00000E+00
 -1        58 1.08150E+02 5.00000E+01 0.00000E+00
 -1        59 1.11150E+02 5.00000E+01 0.00000E+00
 -1        60 1.14150E+02 5.00000E+01 0.00000E+00
 -1        61 1.17150E+02 5.00000E+01 0.00000E+00
 -1        62 1.20150E+02 5.00000E+01 0.00000E+00
 -1        63 1.23150E+02 5.00000E+01 0.00000E+00
 -1        64 1.26150E+02 5.00000E+01 0.00000E+00
 -1        65 1.29150E+02 5.00000E+01 0.00000E+00
 -1        66 1.32150E+02 5.00000E+01 0.00000E+00
 -1        67 1.35150E+02 5.00000E+01 0.00000E+00
 -1        68 1.38150E+02 5.00000E+01 0.00000E+00
 -1        69 1.41150E+02 5.00000E+01 0.00000E+00
 -1        70 1.44150E+02 5.00000E+01 0.00000E+00
 -1        71 1.47150E+02 5.00000E+01 0.00000E+00
 -1        72 3.00000E+00 0.00000E+00 0.00000E+00
 -1        73 6.00000E+00 0.00000E+00 0.00000E+00
 -1        74 9.00000E+00 0.00000E+00 0.00000E+00
 -1        75 1.20000E+01 0.00000E+00 0.00000E+00
 -1        76 1.50000E+01 0.00000E+00 0.00000E+00
 -1        77 1.80000E+01 0.00000E+00 0.00000E+00
 -1        78 2.10000E+01 0.00000E+00 0.00000E+00
 -1        79 2.40000E+01 0.00000E+00 0.00000E+00
 -1        80 2.70000E+01 0.00000E+00 0.00000E+00
 -1        81 3.00000E+01 0.00000E+00 0.00000E+00
 -1        82 3.30000E+01 0.00000E+00 0.00000E+00
 -1        83 3.60000E+01 0.00000E+00 0.00000E+00
 -1        84 3.90000E+01 0.00000E+00 0.00000E+00
 -1        85 4.18500E+01 0.00000E+00 0.00000E+00
 -1        86 4.48500E+01 0.00000E+00 0.00000E+00
 -1        87 4.78500E+01 0.00000E+00 0.00000E+00
 -1        88 5.08500E+01 0.00000E+00 0.00000E+00
 -1        89 5.38500E+01 0.00000E+00 0.00000E+00
 -1        90 5.68500E+01 0.00000E+00 0.00000E+00
 -1        91 5.98500E+01 0.00000E+00 0.00000E+00
 -1        92 6.28500E+01 0.00000E+00 0.00000E+00
 -1        93 6.58500E+01 0.00000E+00 0.00000E+00
 -1        94 6.88500E+01 0.00000E+00 0.00000E+00
 -1        95 7.18500E+01 0.00000E+00 0.00000E+00
 -1        96 7.48500E+01 0.00000E+00 0.00000E+00
 -1        97 7.78500E+01 0.00000E+00 0.00000E+00
 -1        98 8.08500E+01 0.00000E+00 0.00000E+00
 -1        99 8.37000E+01 0.00000E+00 0.00000E+00
 -1       100 8.67000E+01 0.00000E+00 0.00000E+00
 -1       101 8.97000E+01 0.00000E+00 0.00000E+00
 -1       102 9.27000E+01 0.00000E+00 0.00000E+00
 -1       103 9.57000E+01 0.00000E+00 0.00000E+00
 -1       104 9.87000E+01 0.00000E+00 0.00000E+00
 -1       105 1.01700E+02 0.00000E+00 0.00000E+00
 -1       106 1.04700E+02 0.00000E+00 0.00000E+00
 -1       107 1.07700E+02 0.00000E+00 0.00000E+00
 -1       108 1.10250E+02 0.00000E+00 0.00000E+00
 -1       109 1.12950E+02 0.00000E+00 0.00000E+00
 -1       110 1.15350E+02 0.00000E+00 0.00000E+00
 -1       111 1.17450E+02 0.00000E+00 0.00000E+00
 -1       112 1.20300E+02 0.00000E+00 0.00000E+00
 -1       113 1.23150E+02 0.00000E+00 0.00000E+00
 -1       114 1.26150E+02 0.00000E+00 0.00000E+00
 -1       115 1.29150E+02 0.00000E+00 0.00000E+00
 -1       116 1.32150E+02 0.00000E+00 0.00000E+00
 -1       117 1.35150E+02 0.00000E+00 0.00000E+00
 -1       118 1.38150E+02 0.00000E+00 0.00000E+00
 -1       119 1.41150E+02 0.00000E+00 0.00000E+00
 -1       120 1.44150E+02 0.00000E+00 0.00000E+00
 -1       121 1.47150E+02 0.00000E+00 0.00000E+00
 -1       122 1.50000E+02 2.95000E+00 0.00000E+00
 -1       123 1.50000E+02 5.90000E+00 0.00000E+00
 -1       124 1.50000E+02 8.85000E+00 0.00000E+00
 -1       125 1.50000E+02 1.18000E+01 0.00000E+00
 -1       126 1.50000E+02 1.47500E+01 0.00000E+00
 -1       127 1.50000E+02 1.76500E+01 0.00000E+00
 -1       128 1.50000E+02 2.06000E+01 0.00000E+00
 -1       129 1.50000E+02 2.35500E+01 0.00000E+00
 -1       130 1.50000E+02 2.65000E+01 0.00000E+00
 -1       131 1.50000E+02 2.94500E+01 0.00000E+00
 -1       132 1.50000E+02 3.24000E+01 0.00000E+00
 -1       133 1.50000E+02 3.53000E+01 0.00000E+00
 -1       134 1.50000E+02 3.82500E+01 0.00000E+00
 -1       135 1.50000E+02 4.12000E+01 0.00000E+00
 -1       136 1.50000E+02 4.41500E+01 0.00000E+00
 -1       137 1.50000E+02 4.71000E+01 0.00000E+00
 -1       138 1.19615E+02 1.22339E+01 0.00000E+00
 -1       139 1.19156E+02 1.08415E+01 0.00000E+00
 -1       140 1.18415E+02 9.57160E+00 0.00000E+00
 -1       141 1.17305E+02 8.38024E+00 0.00000E+00
 -1       142 1.16077E+02 7.54381E+00 0.00000E+00
 -1       143 1.14737E+02 6.99611E+00 0.00000E+00
 -1       144 1.13316E+02 6.73589E+00 0.00000E+00
 -1       145 1.11811E+02 6.78131E+00 0.00000E+00
 -1       146 1.10422E+02 7.12134E+00 0.00000E+00
 -1       147 1.09050E+02 7.78701E+00 0.00000E+00
 -1       148 1.07794E+02 8.79456E+00 0.00000E+00
 -1       149 1.06814E+02 1.00427E+01 0.00000E+00
 -1       150 1.06159E+02 1.14238E+01 0.00000E+00
 -1       151 1.05813E+02 1.29720E+01 0.00000E+00
 -1       152 1.05813E+02 1.44574E+01 0.00000E+00
 -1       153 1.06114E+02 1.58717E+01 0.00000E+00
 -1       154 1.06708E+02 1.72093E+01 0.00000E+00
 -1       155 1.07641E+02 1.84756E+01 0.00000E+00
 -1       156 1.08739E+02 1.94354E+01 0.00000E+00
 -1       157 1.10149E+02 2.02045E+01 0.00000E+00
 -1       158 1.13049E+02 2.07094E+01 0.00000E+00
 -1       159 1.14637E+02 2.04620E+01 0.00000E+00
 -1       160 1.16010E+02 1.99217E+01 0.00000E+00
 -1       161 1.17326E+02 1.90321E+01 0.00000E+00
 -1       162 1.18339E+02 1.79597E+01 0.00000E+00
 -1       163 1.19165E+02 1.65694E+01 0.00000E+00
 -1       164 1.19620E+02 1.51690E+01 0.00000E+00
 -1       165 2.59800E+00 4.55750E+01 0.00000E+00
 -1       166 2.59800E+00 4.26250E+01 0.00000E+00
 -1       167 2.59800E+00 3.96750E+01 0.00000E+00
 -1       168 2.59800E+00 3.67250E+01 0.00000E+00
 -1       169 2.59800E+00 3.38250E+01 0.00000E+00
 -1       170 2.59800E+00 3.08750E+01 0.00000E+00
 -1       171 2.59800E+00 2.79250E+01 0.00000E+00
 -1       172 2.59800E+00 2.49750E+01 0.00000E+00
 -1       173 2.59800E+00 2.20250E+01 0.00000E+00
 -1       174 2.59800E+00 1.90750E+01 0.00000E+00
 -1       175 2.59800E+00 1.61750E+01 0.00000E+00
 -1       176 2.59800E+00 1.32250E+01 0.00000E+00
 -1       177 2.59800E+00 1.02750E+01 0.00000E+00
 -1       178 2.59800E+00 7.32500E+00 0.00000E+00
 -1       179 2.59800E+00 4.37500E+00 0.00000E+00
 -1       180 4.65000E+00 4.74020E+01 0.00000E+00
 -1       181 7.65000E+00 4.74020E+01 0.00000E+00
 -1       182 1.06500E+01 4.74020E+01 0.00000E+00
 -1       183 1.36500E+01 4.74020E+01 0.00000E+00
 -1       184 1.66500E+01 4.74020E+01 0.00000E+00
 -1       185 1.96500E+01 4.74020E+01 0.00000E+00
 -1       186 2.26500E+01 4.74020E+01 0.00000E+00
 -1       187 2.56500E+01 4.74020E+01 0.00000E+00
 -1       188 2.86500E+01 4.74020E+01 0.00000E+00
 -1       189 3.16500E+01 4.74020E+01 0.00000E+00
 -1       190 3.46500E+01 4.74020E+01 0.00000E+00
 -1       191 3.76500E+01 4.74020E+01 0.00000E+00
 -1       192 4.06500E+01 4.74020E+01 0.00000E+00
 -1       193 4.36500E+01 4.74020E+01 0.00000E+00
 -1       194 4.66500E+01 4.74020E+01 0.00000E+00
 -1       195 4.96500E+01 4.74020E+01 0.00000E+00
 -1       196 5.26500E+01 4.74020E+01 0.00000E+00
 -1       197 5.56500E+01 4.74020E+01 0.00000E+00
 -1       198 5.86500E+01 4.74020E+01 0.00000E+00
 -1       199 6.16500E+01 4.74020E+01 0.00000E+00
 -1       200 6.46500E+01 4.74020E+01 0.00000E+00
 -1       201 6.76500E+01 4.74020E+01 0.00000E+00
 -1       202 7.06500E+01 4.74020E+01 0.00000E+00
 -1       203 7.36500E+01 4.74020E+01 0.00000E+00
 -1       204 7.66500E+01 4.74020E+01 0.00000E+00
 -1       205 7.96500E+01 4.74020E+01 0.00000E+00
 -1       206 8.26500E+01 4.74020E+01 0.00000E+00
 -1       207 8.56500E+01 4.74020E+01 0.00000E+00
 -1       208 8.86500E+01 4.74020E+01 0.00000E+00
 -1       209 9.16500E+01 4.74020E+01 0.00000E+00
 -1       210 9.46500E+01 4.74020E+01 0.00000E+00
 -1       211 9.76500E+01 4.74020E+01 0.00000E+00
 -1       212 1.00650E+02 4.74020E+01 0.00000E+00
 -1       213 1.03650E+02 4.74020E+01 0.00000E+00
 -1       214 1.06650E+02 4.74020E+01 0.00000E+00
 -1       215 1.09650E+02 4.74020E+01 0.00000E+00
 -1       216 1.12650E+02 4.74020E+01 0.00000E+00
 -1       217 1.15650E+02 4.74020E+01 0.00000E+00
 -1       218 1.18650E+02 4.74020E+01 0.00000E+00
 -1       219 1.21650E+02 4.74020E+01 0.00000E+00
 -1       220 1.24650E+02 4.74020E+01 0.00000E+00
 -1       221 1.27650E+02 4.74020E+01 0.00000E+00
 -1       222 1.30650E+02 4.74020E+01 0.00000E+00
 -1       223 1.33650E+02 4.74020E+01 0.00000E+00
 -1       224 1.36650E+02 4.74020E+01 0.00000E+00
 -1       225 1.39650E+02 4.74020E+01 0.00000E+00
 -1       226 1.42650E+02 4.74020E+01 0.00000E+00
 -1       227 1.45650E+02 4.74020E+01 0.00000E+00
 -1       228 4.50000E+00 2.59800E+00 0.00000E+00
 -1       229 7.50000E+00 2.59800E+00 0.00000E+00
 -1       230 1.05000E+01 2.59800E+00 0.00000E+00
 -1       231 1.35000E+01 2.59800E+00 0.00000E+00
 -1       232 1.65000E+01 2.59800E+00 0.00000E+00
 -1       233 1.95000E+01 2.59800E+00 0.00000E+00
 -1       234 2.25000E+01 2.59800E+00 0.00000E+00
 -1       235 2.55000E+01 2.59800E+00 0.00000E+00
 -1       236 2.85000E+01 2.59800E+00 0.00000E+00
 -1       237 3.15000E+01 2.59800E+00 0.00000E+00
 -1       238 3.45000E+01 2.59800E+00 0.00000E+00
 -1       239 3.75000E+01 2.59800E+00 0.00000E+00
 -1       240 4.03500E+01 2.59800E+00 0.00000E+00
 -1       241 4.33500E+01 2.59800E+00 0.00000E+00
 -1       242 4.63500E+01 2.59800E+00 0.00000E+00
 -1       243 4.93500E+01 2.59800E+00 0.00000E+00
 -1       244 5.23500E+01 2.59800E+00 0.00000E+00
 -1       245 5.53500E+01 2.59800E+00 0.00000E+00
 -1       246 5.83500E+01 2.59800E+00 0.00000E+00
 -1       247 6.13500E+01 2.59800E+00 0.00000E+00
 -1       248 6.43500E+01 2.59800E+00 0.00000E+00
 -1       249 6.73500E+01 2.59800E+00 0.00000E+00
 -1       250 7.03500E+01 2.59800E+00 0.00000E+00
 -1       251 7.33500E+01 2.59800E+00 0.00000E+00
 -1       252 7.63500E+01 2.59800E+00 0.00000E+00
 -1       253 7.93500E+01 2.59800E+00 0.00000E+00
 -1       254 8.22000E+01 2.59800E+00 0.00000E+00
 -1       255 8.52000E+01 2.59800E+00 0.00000E+00
 -1       256 8.82000E+01 2.59800E+00 0.00000E+00
 -1       257 9.12000E+01 2.59800E+00 0.00000E+00
 -1       258 9.42000E+01 2.59800E+00 0.00000E+00
 -1       259 9.72000E+01 2.59800E+00 0.00000E+00
 -1       260 1.00200E+02 2.59800E+00 0.00000E+00
 -1       261 1.03200E+02 2.59800E+00 0.00000E+00
 -1       262 1.06200E+02 2.59800E+00 0.00000E+00
 -1       263 1.08750E+02 2.59800E+00 0.00000E+00
 -1       264 1.11450E+02 2.59800E+00 0.00000E+00
 -1       265 1.13850E+02 2.59800E+00 0.00000E+00
 -1       266 1.15950E+02 2.59800E+00 0.00000E+00
 -1       267 1.18800E+02 2.59800E+00 0.00000E+00
 -1       268 1.21650E+02 2.59800E+00 0.00000E+00
 -1       269 1.24650E+02 2.59800E+00 0.00000E+00
 -1       270 1.27650E+02 2.59800E+00 0.00000E+00
 -1       271 1.30650E+02 2.59800E+00 0.00000E+00
 -1       272 1.33650E+02 2.59800E+00 0.00000E+00
 -1       273 1.36650E+02 2.59800E+00 0.00000E+00
 -1       274 1.39650E+02 2.59800E+00 0.00000E+00
 -1       275 1.42650E+02 2.59800E+00 0.00000E+00
 -1       276 1.45650E+02 2.59800E+00 0.00000E+00
 -1       277 1.47402E+02 4.42500E+00 0.00000E+00
 -1       278 1.47402E+02 7.37500E+00 0.00000E+00
 -1       279 1.47402E+02 1.03250E+01 0.00000E+00
 -1       280 1.47402E+02 1.32750E+01 0.00000E+00
 -1       281 1.47402E+02 1.61750E+01 0.00000E+00
 -1       282 1.47402E+02 1.91250E+01 0.00000E+00
 -1       283 1.47402E+02 2.20750E+01 0.00000E+00
 -1       284 1.47402E+02 2.50250E+01 0.00000E+00
 -1       285 1.47402E+02 2.79750E+01 0.00000E+00
 -1       286 1.47402E+02 3.09250E+01 0.00000E+00
 -1       287 1.47402E+02 3.38250E+01 0.00000E+00
 -1       288 1.47402E+02 3.67750E+01 0.00000E+00
 -1       289 1.47402E+02 3.97250E+01 0.00000E+00
 -1       290 1.47402E+02 4.26750E+01 0.00000E+00
 -1       291 1.46526E+02 4.50385E+01 0.00000E+00
 -1       292 1.20983E+02 1.28365E+01 0.00000E+00
 -1       293 1.20617E+02 1.11323E+01 0.00000E+00
 -1       294 1.19833E+02 9.59552E+00 0.00000E+00
 -1       295 1.18931E+02 7.97820E+00 0.00000E+00
 -1       296 1.17421E+02 6.89073E+00 0.00000E+00
 -1       297 1.15866E+02 6.14770E+00 0.00000E+00
 -1       298 1.14260E+02 5.59100E+00 0.00000E+00
 -1       299 1.12522E+02 5.37926E+00 0.00000E+00
 -1       300 1.10828E+02 5.77373E+00 0.00000E+00
 -1       301 1.09170E+02 6.28795E+00 0.00000E+00
 -1       302 1.07454E+02 7.08364E+00 0.00000E+00
 -1       303 1.06153E+02 8.51440E+00 0.00000E+00
 -1       304 1.05239E+02 1.01419E+01 0.00000E+00
 -1       305 1.04557E+02 1.18787E+01 0.00000E+00
 -1       306 1.04516E+02 1.37147E+01 0.00000E+00
 -1       307 1.04777E+02 1.54170E+01 0.00000E+00
 -1       308 1.05303E+02 1.70326E+01 0.00000E+00
 -1       309 1.06064E+02 1.86614E+01 0.00000E+00
 -1       310 1.07392E+02 1.98682E+01 0.00000E+00
 -1       311 1.08703E+02 2.11786E+01 0.00000E+00
 -1       312 1.10489E+02 2.16511E+01 0.00000E+00
 -1       313 1.12215E+02 2.18675E+01 0.00000E+00
 -1       314 1.14056E+02 2.19492E+01 0.00000E+00
 -1       315 1.15768E+02 2.13199E+01 0.00000E+00
 -1       316 1.17394E+02 2.05508E+01 0.00000E+00
 -1       317 1.18714E+02 1.93286E+01 0.00000E+00
 -1       318 1.19938E+02 1.79690E+01 0.00000E+00
 -1       319 1.20545E+02 1.62444E+01 0.00000E+00
 -1       320 1.20902E+02 1.45685E+01 0.00000E+00
 -1       321 5.19600E+00 4.11500E+01 0.00000E+00
 -1       322 5.19600E+00 4.41000E+01 0.00000E+00
 -1       323 5.19600E+00 3.52750E+01 0.00000E+00
 -1       324 5.19600E+00 3.23250E+01 0.00000E+00
 -1       325 5.19600E+00 2.93750E+01 0.00000E+00
 -1       326 5.19600E+00 2.64250E+01 0.00000E+00
 -1       327 5.19600E+00 2.34750E+01 0.00000E+00
 -1       328 5.19600E+00 2.05250E+01 0.00000E+00
 -1       329 5.19600E+00 1.76250E+01 0.00000E+00
 -1       330 5.19600E+00 1.46750E+01 0.00000E+00
 -1       331 5.19600E+00 1.17250E+01 0.00000E+00
 -1       332 5.19600E+00 8.77500E+00 0.00000E+00
 -1       333 5.19600E+00 5.82500E+00 0.00000E+00
 -1       334 1.20880E+02 7.95181E+00 0.00000E+00
 -1       335 9.15000E+00 4.48040E+01 0.00000E+00
 -1       336 1.21500E+01 4.48040E+01 0.00000E+00
 -1       337 1.51500E+01 4.48040E+01 0.00000E+00
 -1       338 1.81500E+01 4.48040E+01 0.00000E+00
 -1       339 2.11500E+01 4.48040E+01 0.00000E+00
 -1       340 2.41500E+01 4.48040E+01 0.00000E+00
 -1       341 2.71500E+01 4.48040E+01 0.00000E+00
 -1       342 3.01500E+01 4.48040E+01 0.00000E+00
 -1       343 3.31500E+01 4.48040E+01 0.00000E+00
 -1       344 3.61500E+01 4.48040E+01 0.00000E+00
 -1       345 3.91500E+01 4.48040E+01 0.00000E+00
 -1       346 4.21500E+01 4.48040E+01 0.00000E+00
 -1       347 4.51500E+01 4.48040E+01 0.00000E+00
 -1       348 4.81500E+01 4.48040E+01 0.00000E+00
 -1       349 5.11500E+01 4.48040E+01 0.00000E+00
 -1       350 5.41500E+01 4.48040E+01 0.00000E+00
 -1       351 5.71500E+01 4.48040E+01 0.00000E+00
 -1       352 6.01500E+01 4.48040E+01 0.00000E+00
 -1       353 6.31500E+01 4.48040E+01 0.00000E+00
 -1       354 6.61500E+01 4.48040E+01 0.00000E+00
 -1       355 6.91500E+01 4.48040E+01 0.00000E+00
 -1       356 7.21500E+01 4.48040E+01 0.00000E+00
 -1       357 7.51500E+01 4.48040E+01 0.00000E+00
 -1       358 7.81500E+01 4.48040E+01 0.00000E+00
 -1       359 8.11500E+01 4.48040E+01 0.00000E+00
 -1       360 8.41500E+01 4.48040E+01 0.00000E+00
 -1       361 8.71500E+01 4.48040E+01 0.00000E+00
 -1       362 9.01500E+01 4.48040E+01 0.00000E+00
 -1       363 9.31500E+01 4.48040E+01 0.00000E+00
 -1       364 9.61500E+01 4.48040E+01 0.00000E+00
 -1       365 9.91500E+01 4.48040E+01 0.00000E+00
 -1       366 1.02150E+02 4.48040E+01 0.00000E+00
 -1       367 1.05150E+02 4.48040E+01 0.00000E+00
 -1       368 1.08150E+02 4.48040E+01 0.00000E+00
 -1       369 1.11150E+02 4.48040E+01 0.00000E+00
 -1       370 1.14150E+02 4.48040E+01 0.00000E+00
 -1       371 1.17150E+02 4.48040E+01 0.00000E+00
 -1       372 1.20150E+02 4.48040E+01 0.00000E+00
 -1       373 1.23150E+02 4.48040E+01 0.00000E+00
 -1       374 1.26150E+02 4.48040E+01 0.00000E+00
 -1       375 1.29150E+02 4.48040E+01 0.00000E+00
 -1       376 1.32150E+02 4.48040E+01 0.00000E+00
 -1       377 1.35150E+02 4.48040E+01 0.00000E+00
 -1       378 1.38150E+02 4.48040E+01 0.00000E+00
 -1       379 1.41150E+02 4.48040E+01 0.00000E+00
 -1       380 1.43838E+02 4.49212E+01 0.00000E+00
 -1       381 1.20000E+01 5.19600E+00 0.00000E+00
 -1       382 9.00000E+00 5.19600E+00 0.00000E+00
 -1       383 1.50000E+01 5.19600E+00 0.00000E+00
 -1       384 1.80000E+01 5.19600E+00 0.00000E+00
 -1       385 2.10000E+01 5.19600E+00 0.00000E+00
 -1       386 2.40000E+01 5.19600E+00 0.00000E+00
 -1       387 2.70000E+01 5.19600E+00 0.00000E+00
 -1       388 3.00000E+01 5.19600E+00 0.00000E+00
 -1       389 3.30000E+01 5.19600E+00 0.00000E+00
 -1       390 3.60000E+01 5.19600E+00 0.00000E+00
 -1       391 3.88500E+01 5.19600E+00 0.00000E+00
 -1       392 4.18500E+01 5.19600E+00 0.00000E+00
 -1       393 4.48500E+01 5.19600E+00 0.00000E+00
 -1       394 4.78500E+01 5.19600E+00 0.00000E+00
 -1       395 5.08500E+01 5.19600E+00 0.00000E+00
 -1       396 5.38500E+01 5.19600E+00 0.00000E+00
 -1       397 5.68500E+01 5.19600E+00 0.00000E+00
 -1       398 5.98500E+01 5.19600E+00 0.00000E+00
 -1       399 6.28500E+01 5.19600E+00 0.00000E+00
 -1       400 6.58500E+01 5.19600E+00 0.00000E+00
 -1       401 6.88500E+01 5.19600E+00 0.00000E+00
 -1       402 7.18500E+01 5.19600E+00 0.00000E+00
 -1       403 7.48500E+01 5.19600E+00 0.00000E+00
 -1       404 7.78500E+01 5.19600E+00 0.00000E+00
 -1       405 8.07000E+01 5.19600E+00 0.00000E+00
 -1       406 8.37000E+01 5.19600E+00 0.00000E+00
 -1       407 8.67000E+01 5.19600E+00 0.00000E+00
 -1       408 8.97000E+01 5.19600E+00 0.00000E+00
 -1       409 9.27000E+01 5.19600E+00 0.00000E+00
 -1       410 9.57000E+01 5.19600E+00 0.00000E+00
 -1       411 9.87000E+01 5.19600E+00 0.00000E+00
 -1       412 1.01700E+02 5.19600E+00 0.00000E+00
 -1       413 1.04700E+02 5.19600E+00 0.00000E+00
 -1       414 1.17375E+02 4.48068E+00 0.00000E+00
 -1       415 1.20225E+02 4.81582E+00 0.00000E+00
 -1       416 1.23225E+02 4.81582E+00 0.00000E+00
 -1       417 1.26225E+02 4.81582E+00 0.00000E+00
 -1       418 1.29225E+02 4.81582E+00 0.00000E+00
 -1       419 1.32225E+02 4.81582E+00 0.00000E+00
 -1       420 1.35225E+02 4.81582E+00 0.00000E+00
 -1       421 1.38225E+02 4.81582E+00 0.00000E+00
 -1       422 1.41225E+02 4.81582E+00 0.00000E+00
 -1       423 1.44225E+02 4.81582E+00 0.00000E+00
 -1       424 1.22231E+02 1.16770E+01 0.00000E+00
 -1       425 1.44804E+02 1.18000E+01 0.00000E+00
 -1       426 1.44804E+02 8.85000E+00 0.00000E+00
 -1       427 1.44804E+02 1.47000E+01 0.00000E+00
 -1       428 1.44804E+02 1.76500E+01 0.00000E+00
 -1       429 1.44804E+02 2.06000E+01 0.00000E+00
 -1       430 1.44804E+02 2.35500E+01 0.00000E+00
 -1       431 1.44804E+02 2.65000E+01 0.00000E+00
 -1       432 1.44804E+02 2.94500E+01 0.00000E+00
 -1       433 1.44804E+02 3.23500E+01 0.00000E+00
 -1       434 1.44804E+02 3.53000E+01 0.00000E+00
 -1       435 1.44804E+02 3.82500E+01 0.00000E+00
 -1       436 1.44804E+02 4.12000E+01 0.00000E+00
 -1       437 1.21664E+02 9.48862E+00 0.00000E+00
 -1       438 1.22237E+02 1.37625E+01 0.00000E+00
 -1       439 5.19600E+00 3.82125E+01 0.00000E+00
 -1       440 1.09590E+02 4.71284E+00 0.00000E+00
 -1       441 1.07661E+02 5.28173E+00 0.00000E+00
 -1       442 1.05534E+02 6.64519E+00 0.00000E+00
 -1       443 1.04346E+02 8.57073E+00 0.00000E+00
 -1       444 1.03380E+02 1.04139E+01 0.00000E+00
 -1       445 1.03157E+02 1.27661E+01 0.00000E+00
 -1       446 1.03366E+02 1.47622E+01 0.00000E+00
 -1       447 1.03728E+02 1.66516E+01 0.00000E+00
 -1       448 1.04357E+02 1.84667E+01 0.00000E+00
 -1       449 1.05856E+02 2.02241E+01 0.00000E+00
 -1       450 1.07167E+02 2.15346E+01 0.00000E+00
 -1       451 1.09157E+02 2.30729E+01 0.00000E+00
 -1       452 1.11180E+02 2.31285E+01 0.00000E+00
 -1       453 1.13067E+02 2.34544E+01 0.00000E+00
 -1       454 1.15446E+02 2.30871E+01 0.00000E+00
 -1       455 1.17071E+02 2.23179E+01 0.00000E+00
 -1       456 1.18991E+02 2.09523E+01 0.00000E+00
 -1       457 1.20600E+02 1.97968E+01 0.00000E+00
 -1       458 1.21702E+02 1.76204E+01 0.00000E+00
 -1       459 1.22074E+02 1.56941E+01 0.00000E+00
 -1       460 1.19032E+02 6.24660E+00 0.00000E+00
 -1       461 1.14900E+02 4.64825E+00 0.00000E+00
 -1       462 1.07622E+02 2.34289E+01 0.00000E+00
 -1       463 7.79400E+00 3.08500E+01 0.00000E+00
 -1       464 7.79400E+00 3.38000E+01 0.00000E+00
 -1       465 7.79400E+00 2.49500E+01 0.00000E+00
 -1       466 7.79400E+00 2.20000E+01 0.00000E+00
 -1       467 7.79400E+00 1.91000E+01 0.00000E+00
 -1       468 7.79400E+00 1.61500E+01 0.00000E+00
 -1       469 7.79400E+00 1.32000E+01 0.00000E+00
 -1       470 7.79400E+00 1.02500E+01 0.00000E+00
 -1       471 8.39700E+00 7.72300E+00 0.00000E+00
 -1       472 1.06500E+01 4.22060E+01 0.00000E+00
 -1       473 1.36500E+01 4.22060E+01 0.00000E+00
 -1       474 1.66500E+01 4.22060E+01 0.00000E+00
 -1       475 1.96500E+01 4.22060E+01 0.00000E+00
 -1       476 2.26500E+01 4.22060E+01 0.00000E+00
 -1       477 2.56500E+01 4.22060E+01 0.00000E+00
 -1       478 2.86500E+01 4.22060E+01 0.00000E+00
 -1       479 3.16500E+01 4.22060E+01 0.00000E+00
 -1       480 3.46500E+01 4.22060E+01 0.00000E+00
 -1       481 3.76500E+01 4.22060E+01 0.00000E+00
 -1       482 4.06500E+01 4.22060E+01 0.00000E+00
 -1       483 4.36500E+01 4.22060E+01 0.00000E+00
 -1       484 4.66500E+01 4.22060E+01 0.00000E+00
 -1       485 4.96500E+01 4.22060E+01 0.00000E+00
 -1       486 5.26500E+01 4.22060E+01 0.00000E+00
 -1       487 5.56500E+01 4.22060E+01 0.00000E+00
 -1       488 5.86500E+01 4.22060E+01 0.00000E+00
 -1       489 6.16500E+01 4.22060E+01 0.00000E+00
 -1       490 6.46500E+01 4.22060E+01 0.00000E+00
 -1       491 6.76500E+01 4.22060E+01 0.00000E+00
 -1       492 7.06500E+01 4.22060E+01 0.00000E+00
 -1       493 7.36500E+01 4.22060E+01 0.00000E+00
 -1       494 7.66500E+01 4.22060E+01 0.00000E+00
 -1       495 7.96500E+01 4.22060E+01 0.00000E+00
 -1       496 8.26500E+01 4.22060E+01 0.00000E+00
 -1       497 8.56500E+01 4.22060E+01 0.00000E+00
 -1       498 8.86500E+01 4.22060E+01 0.00000E+00
 -1       499 9.16500E+01 4.22060E+01 0.00000E+00
 -1       500 9.46500E+01 4.22060E+01 0.00000E+00
 -1       501 9.76500E+01 4.22060E+01 0.00000E+00
 -1       502 1.00650E+02 4.22060E+01 0.00000E+00
 -1       503 1.03650E+02 4.22060E+01 0.00000E+00
 -1       504 1.06650E+02 4.22060E+01 0.00000E+00
 -1       505 1.09650E+02 4.22060E+01 0.00000E+00
 -1       506 1.12650E+02 4.22060E+01 0.00000E+00
 -1       507 1.15650E+02 4.22060E+01 0.00000E+00
 -1       508 1.18650E+02 4.22060E+01 0.00000E+00
 -1       509 1.21650E+02 4.22060E+01 0.00000E+00
 -1       510 1.24650E+02 4.22060E+01 0.00000E+00
 -1       511 1.27650E+02 4.22060E+01 0.00000E+00
 -1       512 1.30650E+02 4.22060E+01 0.00000E+00
 -1       513 1.33650E+02 4.22060E+01 0.00000E+00
 -1       514 1.36650E+02 4.22060E+01 0.00000E+00
 -1       515 1.39650E+02 4.22060E+01 0.00000E+00
 -1       516 1.13970E+01 7.72300E+00 0.00000E+00
 -1       517 1.95000E+01 7.79400E+00 0.00000E+00
 -1       518 2.25000E+01 7.79400E+00 0.00000E+00
 -1       519 2.55000E+01 7.79400E+00 0.00000E+00
 -1       520 2.85000E+01 7.79400E+00 0.00000E+00
 -1       521 3.15000E+01 7.79400E+00 0.00000E+00
 -1       522 3.45000E+01 7.79400E+00 0.00000E+00
 -1       523 3.73500E+01 7.79400E+00 0.00000E+00
 -1       524 4.03500E+01 7.79400E+00 0.00000E+00
 -1       525 4.33500E+01 7.79400E+00 0.00000E+00
 -1       526 4.63500E+01 7.79400E+00 0.00000E+00
 -1       527 4.93500E+01 7.79400E+00 0.00000E+00
 -1       528 5.23500E+01 7.79400E+00 0.00000E+00
 -1       529 5.53500E+01 7.79400E+00 0.00000E+00
 -1       530 5.83500E+01 7.79400E+00 0.00000E+00
 -1       531 6.13500E+01 7.79400E+00 0.00000E+00
 -1       532 6.43500E+01 7.79400E+00 0.00000E+00
 -1       533 6.73500E+01 7.79400E+00 0.00000E+00
 -1       534 7.03500E+01 7.79400E+00 0.00000E+00
 -1       535 7.33500E+01 7.79400E+00 0.00000E+00
 -1       536 7.63500E+01 7.79400E+00 0.00000E+00
 -1       537 7.92000E+01 7.79400E+00 0.00000E+00
 -1       538 8.22000E+01 7.79400E+00 0.00000E+00
 -1       539 8.52000E+01 7.79400E+00 0.00000E+00
 -1       540 8.82000E+01 7.79400E+00 0.00000E+00
 -1       541 9.12000E+01 7.79400E+00 0.00000E+00
 -1       542 9.42000E+01 7.79400E+00 0.00000E+00
 -1       543 9.72000E+01 7.79400E+00 0.00000E+00
 -1       544 1.00200E+02 7.79400E+00 0.00000E+00
 -1       545 1.23949E+02 1.27142E+01 0.00000E+00
 -1       546 1.21725E+02 6.86608E+00 0.00000E+00
 -1       547 1.30725E+02 7.41382E+00 0.00000E+00
 -1       548 1.33725E+02 7.41382E+00 0.00000E+00
 -1       549 1.36725E+02 7.41382E+00 0.00000E+00
 -1       550 1.39725E+02 7.41382E+00 0.00000E+00
 -1       551 1.42264E+02 8.13191E+00 0.00000E+00
 -1       552 1.23770E+02 1.01107E+01 0.00000E+00
 -1       553 1.42206E+02 1.91250E+01 0.00000E+00
 -1       554 1.23697E+02 1.48590E+01 0.00000E+00
 -1       555 1.42206E+02 2.20750E+01 0.00000E+00
 -1       556 1.42206E+02 2.50250E+01 0.00000E+00
 -1       557 1.42206E+02 2.79750E+01 0.00000E+00
 -1       558 1.42206E+02 3.08750E+01 0.00000E+00
 -1       559 1.42206E+02 3.38250E+01 0.00000E+00
 -1       560 1.42206E+02 3.67750E+01 0.00000E+00
 -1       561 1.42206E+02 3.97250E+01 0.00000E+00
 -1       562 1.22986E+02 8.57391E+00 0.00000E+00
 -1       563 1.23325E+02 1.69347E+01 0.00000E+00
 -1       564 1.65000E+01 7.79400E+00 0.00000E+00
 -1       565 1.42206E+02 1.32500E+01 0.00000E+00
 -1       566 1.14518E+02 2.49658E+01 0.00000E+00
 -1       567 1.03929E+02 2.03497E+01 0.00000E+00
 -1       568 1.42235E+02 1.06910E+01 0.00000E+00
 -1       569 1.42206E+02 1.61875E+01 0.00000E+00
 -1       570 1.27725E+02 7.41382E+00 0.00000E+00
 -1       571 1.24725E+02 7.13995E+00 0.00000E+00
 -1       572 7.79400E+00 2.79000E+01 0.00000E+00
 -1       573 1.39485E+01 7.75850E+00 0.00000E+00
 -1       574 1.10126E+02 2.46477E+01 0.00000E+00
 -1       575 1.03512E+02 7.12154E+00 0.00000E+00
 -1       576 1.02493E+02 8.77354E+00 0.00000E+00
 -1       577 1.01561E+02 1.14284E+01 0.00000E+00
 -1       578 1.01722E+02 1.39249E+01 0.00000E+00
 -1       579 1.02084E+02 1.58143E+01 0.00000E+00
 -1       580 1.02501E+02 1.80936E+01 0.00000E+00
 -1       581 1.05062E+02 2.23295E+01 0.00000E+00
 -1       582 1.20894E+02 2.19038E+01 0.00000E+00
 -1       583 1.12013E+02 2.49735E+01 0.00000E+00
 -1       584 1.17135E+02 2.45558E+01 0.00000E+00
 -1       585 1.19015E+02 2.32298E+01 0.00000E+00
 -1       586 1.22681E+02 1.94830E+01 0.00000E+00
 -1       587 7.92300E+00 4.16780E+01 0.00000E+00
 -1       588 7.79400E+00 3.67375E+01 0.00000E+00
 -1       589 1.41678E+02 4.22645E+01 0.00000E+00
 -1       590 1.08591E+02 2.50036E+01 0.00000E+00
 -1       591 7.85850E+00 3.92077E+01 0.00000E+00
 -1       592 1.22975E+02 2.15900E+01 0.00000E+00
 -1       593 1.00674E+02 9.78801E+00 0.00000E+00
 -1       594 1.03920E+01 2.05500E+01 0.00000E+00
 -1       595 1.03920E+01 2.35000E+01 0.00000E+00
 -1       596 1.03920E+01 1.46750E+01 0.00000E+00
 -1       597 1.03920E+01 1.17250E+01 0.00000E+00
 -1       598 1.08945E+01 9.72400E+00 0.00000E+00
 -1       599 1.21500E+01 3.96080E+01 0.00000E+00
 -1       600 1.03920E+01 1.76125E+01 0.00000E+00
 -1       601 1.51500E+01 3.96080E+01 0.00000E+00
 -1       602 1.81500E+01 3.96080E+01 0.00000E+00
 -1       603 2.11500E+01 3.96080E+01 0.00000E+00
 -1       604 2.41500E+01 3.96080E+01 0.00000E+00
 -1       605 2.71500E+01 3.96080E+01 0.00000E+00
 -1       606 3.01500E+01 3.96080E+01 0.00000E+00
 -1       607 3.31500E+01 3.96080E+01 0.00000E+00
 -1       608 3.61500E+01 3.96080E+01 0.00000E+00
 -1       609 3.91500E+01 3.96080E+01 0.00000E+00
 -1       610 4.21500E+01 3.96080E+01 0.00000E+00
 -1       611 4.51500E+01 3.96080E+01 0.00000E+00
 -1       612 4.81500E+01 3.96080E+01 0.00000E+00
 -1       613 5.11500E+01 3.96080E+01 0.00000E+00
 -1       614 5.41500E+01 3.96080E+01 0.00000E+00
 -1       615 5.71500E+01 3.96080E+01 0.00000E+00
 -1       616 6.01500E+01 3.96080E+01 0.00000E+00
 -1       617 6.31500E+01 3.96080E+01 0.00000E+00
 -1       618 6.61500E+01 3.96080E+01 0.00000E+00
 -1       619 6.91500E+01 3.96080E+01 0.00000E+00
 -1       620 7.21500E+01 3.96080E+01 0.00000E+00
 -1       621 7.51500E+01 3.96080E+01 0.00000E+00
 -1       622 7.81500E+01 3.96080E+01 0.00000E+00
 -1       623 8.11500E+01 3.96080E+01 0.00000E+00
 -1       624 8.41500E+01 3.96080E+01 0.00000E+00
 -1       625 8.71500E+01 3.96080E+01 0.00000E+00
 -1       626 9.01500E+01 3.96080E+01 0.00000E+00
 -1       627 9.31500E+01 3.96080E+01 0.00000E+00
 -1       628 9.61500E+01 3.96080E+01 0.00000E+00
 -1       629 9.91500E+01 3.96080E+01 0.00000E+00
 -1       630 1.02150E+02 3.96080E+01 0.00000E+00
 -1       631 1.05150E+02 3.96080E+01 0.00000E+00
 -1       632 1.08150E+02 3.96080E+01 0.00000E+00
 -1       633 1.11150E+02 3.96080E+01 0.00000E+00
 -1       634 1.14150E+02 3.96080E+01 0.00000E+00
 -1       635 1.17150E+02 3.96080E+01 0.00000E+00
 -1       636 1.20150E+02 3.96080E+01 0.00000E+00
 -1       637 1.23150E+02 3.96080E+01 0.00000E+00
 -1       638 1.26150E+02 3.96080E+01 0.00000E+00
 -1       639 1.29150E+02 3.96080E+01 0.00000E+00
 -1       640 1.32150E+02 3.96080E+01 0.00000E+00
 -1       641 1.35150E+02 3.96080E+01 0.00000E+00
 -1       642 1.38150E+02 3.96080E+01 0.00000E+00
 -1       643 2.40000E+01 1.03920E+01 0.00000E+00
 -1       644 1.39608E+02 2.65000E+01 0.00000E+00
 -1       645 2.10000E+01 1.03920E+01 0.00000E+00
 -1       646 1.35225E+02 1.00118E+01 0.00000E+00
 -1       647 3.00000E+01 1.03920E+01 0.00000E+00
 -1       648 3.30000E+01 1.03920E+01 0.00000E+00
 -1       649 3.58500E+01 1.03920E+01 0.00000E+00
 -1       650 3.88500E+01 1.03920E+01 0.00000E+00
 -1       651 4.18500E+01 1.03920E+01 0.00000E+00
 -1       652 4.48500E+01 1.03920E+01 0.00000E+00
 -1       653 4.78500E+01 1.03920E+01 0.00000E+00
 -1       654 5.08500E+01 1.03920E+01 0.00000E+00
 -1       655 5.38500E+01 1.03920E+01 0.00000E+00
 -1       656 5.68500E+01 1.03920E+01 0.00000E+00
 -1       657 5.98500E+01 1.03920E+01 0.00000E+00
 -1       658 6.28500E+01 1.03920E+01 0.00000E+00
 -1       659 6.58500E+01 1.03920E+01 0.00000E+00
 -1       660 6.88500E+01 1.03920E+01 0.00000E+00
 -1       661 7.18500E+01 1.03920E+01 0.00000E+00
 -1       662 7.48500E+01 1.03920E+01 0.00000E+00
 -1       663 7.77000E+01 1.03920E+01 0.00000E+00
 -1       664 8.07000E+01 1.03920E+01 0.00000E+00
 -1       665 8.37000E+01 1.03920E+01 0.00000E+00
 -1       666 8.67000E+01 1.03920E+01 0.00000E+00
 -1       667 8.97000E+01 1.03920E+01 0.00000E+00
 -1       668 9.27000E+01 1.03920E+01 0.00000E+00
 -1       669 9.57000E+01 1.03920E+01 0.00000E+00
 -1       670 1.26072E+02 1.12601E+01 0.00000E+00
 -1       671 1.03920E+01 3.23250E+01 0.00000E+00
 -1       672 1.38225E+02 1.00118E+01 0.00000E+00
 -1       673 1.32225E+02 1.00118E+01 0.00000E+00
 -1       674 1.40230E+02 1.03514E+01 0.00000E+00
 -1       675 1.39608E+02 2.35500E+01 0.00000E+00
 -1       676 1.16144E+02 2.67864E+01 0.00000E+00
 -1       677 1.39608E+02 2.06000E+01 0.00000E+00
 -1       678 1.39608E+02 2.94000E+01 0.00000E+00
 -1       679 1.39608E+02 3.23500E+01 0.00000E+00
 -1       680 1.39608E+02 3.53000E+01 0.00000E+00
 -1       681 1.01837E+02 2.00942E+01 0.00000E+00
 -1       682 1.80000E+01 1.03920E+01 0.00000E+00
 -1       683 1.40178E+02 3.96665E+01 0.00000E+00
 -1       684 1.29225E+02 1.00118E+01 0.00000E+00
 -1       685 1.00014E+02 1.27818E+01 0.00000E+00
 -1       686 1.24828E+02 1.86698E+01 0.00000E+00
 -1       687 2.70000E+01 1.03920E+01 0.00000E+00
 -1       688 1.13272E+02 2.70199E+01 0.00000E+00
 -1       689 1.03007E+02 2.21916E+01 0.00000E+00
 -1       690 9.98896E+01 1.52554E+01 0.00000E+00
 -1       691 1.05467E+02 2.49169E+01 0.00000E+00
 -1       692 1.10792E+02 2.64181E+01 0.00000E+00
 -1       693 1.00306E+02 1.75348E+01 0.00000E+00
 -1       694 1.25034E+02 1.61703E+01 0.00000E+00
 -1       695 1.25286E+02 1.40255E+01 0.00000E+00
 -1       696 1.00042E+01 3.94079E+01 0.00000E+00
 -1       697 1.03920E+01 2.64500E+01 0.00000E+00
 -1       698 1.34460E+01 9.75950E+00 0.00000E+00
 -1       699 1.39608E+02 1.47188E+01 0.00000E+00
 -1       700 1.25747E+02 8.76227E+00 0.00000E+00
 -1       701 9.91265E+01 1.11414E+01 0.00000E+00
 -1       702 1.57230E+01 1.00758E+01 0.00000E+00
 -1       703 1.25122E+02 2.07769E+01 0.00000E+00
 -1       704 1.39608E+02 1.76563E+01 0.00000E+00
 -1       705 1.18513E+02 2.65039E+01 0.00000E+00
 -1       706 1.03920E+01 2.93875E+01 0.00000E+00
 -1       707 1.09256E+02 2.67740E+01 0.00000E+00
 -1       708 1.03412E+02 2.47791E+01 0.00000E+00
 -1       709 1.22240E+02 2.37743E+01 0.00000E+00
 -1       710 1.20361E+02 2.51003E+01 0.00000E+00
 -1       711 1.03920E+01 3.52625E+01 0.00000E+00
 -1       712 1.39919E+02 1.25351E+01 0.00000E+00
 -1       713 1.29435E+01 1.17605E+01 0.00000E+00
 -1       714 1.17591E+02 2.88474E+01 0.00000E+00
 -1       715 2.25000E+01 1.29900E+01 0.00000E+00
 -1       716 1.66500E+01 3.70100E+01 0.00000E+00
 -1       717 1.96500E+01 3.70100E+01 0.00000E+00
 -1       718 2.26500E+01 3.70100E+01 0.00000E+00
 -1       719 2.56500E+01 3.70100E+01 0.00000E+00
 -1       720 2.86500E+01 3.70100E+01 0.00000E+00
 -1       721 3.16500E+01 3.70100E+01 0.00000E+00
 -1       722 3.46500E+01 3.70100E+01 0.00000E+00
 -1       723 3.76500E+01 3.70100E+01 0.00000E+00
 -1       724 4.06500E+01 3.70100E+01 0.00000E+00
 -1       725 4.36500E+01 3.70100E+01 0.00000E+00
 -1       726 4.66500E+01 3.70100E+01 0.00000E+00
 -1       727 4.96500E+01 3.70100E+01 0.00000E+00
 -1       728 5.26500E+01 3.70100E+01 0.00000E+00
 -1       729 5.56500E+01 3.70100E+01 0.00000E+00
 -1       730 5.86500E+01 3.70100E+01 0.00000E+00
 -1       731 6.16500E+01 3.70100E+01 0.00000E+00
 -1       732 6.46500E+01 3.70100E+01 0.00000E+00
 -1       733 6.76500E+01 3.70100E+01 0.00000E+00
 -1       734 7.06500E+01 3.70100E+01 0.00000E+00
 -1       735 7.36500E+01 3.70100E+01 0.00000E+00
 -1       736 7.66500E+01 3.70100E+01 0.00000E+00
 -1       737 7.96500E+01 3.70100E+01 0.00000E+00
 -1       738 8.26500E+01 3.70100E+01 0.00000E+00
 -1       739 8.56500E+01 3.70100E+01 0.00000E+00
 -1       740 8.86500E+01 3.70100E+01 0.00000E+00
 -1       741 9.16500E+01 3.70100E+01 0.00000E+00
 -1       742 9.46500E+01 3.70100E+01 0.00000E+00
 -1       743 9.76500E+01 3.70100E+01 0.00000E+00
 -1       744 1.00650E+02 3.70100E+01 0.00000E+00
 -1       745 1.03650E+02 3.70100E+01 0.00000E+00
 -1       746 1.06650E+02 3.70100E+01 0.00000E+00
 -1       747 1.09650E+02 3.70100E+01 0.00000E+00
 -1       748 1.12650E+02 3.70100E+01 0.00000E+00
 -1       749 1.15650E+02 3.70100E+01 0.00000E+00
 -1       750 1.18650E+02 3.70100E+01 0.00000E+00
 -1       751 1.21650E+02 3.70100E+01 0.00000E+00
 -1       752 1.24650E+02 3.70100E+01 0.00000E+00
 -1       753 1.27650E+02 3.70100E+01 0.00000E+00
 -1       754 1.30650E+02 3.70100E+01 0.00000E+00
 -1       755 1.33650E+02 3.70100E+01 0.00000E+00
 -1       756 1.36650E+02 3.70100E+01 0.00000E+00
 -1       757 1.37010E+02 3.08750E+01 0.00000E+00
 -1       758 9.77948E+01 1.28237E+01 0.00000E+00
 -1       759 3.15000E+01 1.29900E+01 0.00000E+00
 -1       760 4.03500E+01 1.29900E+01 0.00000E+00
 -1       761 4.33500E+01 1.29900E+01 0.00000E+00
 -1       762 4.63500E+01 1.29900E+01 0.00000E+00
 -1       763 4.93500E+01 1.29900E+01 0.00000E+00
 -1       764 5.23500E+01 1.29900E+01 0.00000E+00
 -1       765 5.53500E+01 1.29900E+01 0.00000E+00
 -1       766 5.83500E+01 1.29900E+01 0.00000E+00
 -1       767 6.13500E+01 1.29900E+01 0.00000E+00
 -1       768 6.43500E+01 1.29900E+01 0.00000E+00
 -1       769 6.73500E+01 1.29900E+01 0.00000E+00
 -1       770 7.03500E+01 1.29900E+01 0.00000E+00
 -1       771 7.33500E+01 1.29900E+01 0.00000E+00
 -1       772 7.62000E+01 1.29900E+01 0.00000E+00
 -1       773 7.92000E+01 1.29900E+01 0.00000E+00
 -1       774 8.22000E+01 1.29900E+01 0.00000E+00
 -1       775 8.52000E+01 1.29900E+01 0.00000E+00
 -1       776 8.82000E+01 1.29900E+01 0.00000E+00
 -1       777 9.12000E+01 1.29900E+01 0.00000E+00
 -1       778 9.42000E+01 1.29900E+01 0.00000E+00
 -1       779 1.95000E+01 1.29900E+01 0.00000E+00
 -1       780 1.26975E+02 1.75884E+01 0.00000E+00
 -1       781 1.37010E+02 2.50250E+01 0.00000E+00
 -1       782 1.36725E+02 1.26098E+01 0.00000E+00
 -1       783 1.33725E+02 1.26098E+01 0.00000E+00
 -1       784 9.91682E+01 1.99527E+01 0.00000E+00
 -1       785 1.37010E+02 2.20750E+01 0.00000E+00
 -1       786 1.36500E+01 3.70100E+01 0.00000E+00
 -1       787 1.37010E+02 3.38250E+01 0.00000E+00
 -1       788 2.55000E+01 1.29900E+01 0.00000E+00
 -1       789 1.30725E+02 1.26098E+01 0.00000E+00
 -1       790 1.01981E+01 3.73352E+01 0.00000E+00
 -1       791 1.37010E+02 1.91313E+01 0.00000E+00
 -1       792 1.37010E+02 2.79500E+01 0.00000E+00
 -1       793 1.37010E+02 1.61938E+01 0.00000E+00
 -1       794 2.85000E+01 1.29900E+01 0.00000E+00
 -1       795 1.14719E+02 2.90809E+01 0.00000E+00
 -1       796 1.24709E+02 2.33893E+01 0.00000E+00
 -1       797 1.00339E+02 2.20501E+01 0.00000E+00
 -1       798 3.43500E+01 1.29900E+01 0.00000E+00
 -1       799 1.11509E+02 2.88743E+01 0.00000E+00
 -1       800 3.73500E+01 1.29900E+01 0.00000E+00
 -1       801 1.27490E+02 1.31576E+01 0.00000E+00
 -1       802 1.06132E+02 2.66874E+01 0.00000E+00
 -1       803 1.29900E+01 2.20250E+01 0.00000E+00
 -1       804 9.82461E+01 1.67338E+01 0.00000E+00
 -1       805 1.27238E+02 1.53024E+01 0.00000E+00
 -1       806 1.27268E+02 1.96954E+01 0.00000E+00
 -1       807 1.20116E+02 2.84877E+01 0.00000E+00
 -1       808 1.29900E+01 1.61437E+01 0.00000E+00
 -1       809 1.00743E+02 2.46375E+01 0.00000E+00
 -1       810 1.29900E+01 1.90812E+01 0.00000E+00
 -1       811 1.65001E+01 1.29900E+01 0.00000E+00
 -1       812 1.29900E+01 3.08563E+01 0.00000E+00
 -1       813 1.09973E+02 2.92302E+01 0.00000E+00
 -1       814 1.04077E+02 2.65495E+01 0.00000E+00
 -1       815 1.22676E+02 2.63863E+01 0.00000E+00
 -1       816 1.29900E+01 3.37938E+01 0.00000E+00
 -1       817 1.29900E+01 2.49750E+01 0.00000E+00
 -1       818 1.30473E+02 1.47546E+01 0.00000E+00
 -1       819 1.55880E+01 1.76125E+01 0.00000E+00
 -1       820 1.34010E+02 1.61938E+01 0.00000E+00
 -1       821 9.46513E+01 1.69001E+01 0.00000E+00
 -1       822 2.11500E+01 3.44120E+01 0.00000E+00
 -1       823 2.41500E+01 3.44120E+01 0.00000E+00
 -1       824 2.71500E+01 3.44120E+01 0.00000E+00
 -1       825 3.01500E+01 3.44120E+01 0.00000E+00
 -1       826 3.31500E+01 3.44120E+01 0.00000E+00
 -1       827 3.61500E+01 3.44120E+01 0.00000E+00
 -1       828 3.91500E+01 3.44120E+01 0.00000E+00
 -1       829 4.21500E+01 3.44120E+01 0.00000E+00
 -1       830 4.51500E+01 3.44120E+01 0.00000E+00
 -1       831 4.81500E+01 3.44120E+01 0.00000E+00
 -1       832 5.11500E+01 3.44120E+01 0.00000E+00
 -1       833 5.41500E+01 3.44120E+01 0.00000E+00
 -1       834 5.71500E+01 3.44120E+01 0.00000E+00
 -1       835 6.01500E+01 3.44120E+01 0.00000E+00
 -1       836 6.31500E+01 3.44120E+01 0.00000E+00
 -1       837 6.61500E+01 3.44120E+01 0.00000E+00
 -1       838 6.91500E+01 3.44120E+01 0.00000E+00
 -1       839 7.21500E+01 3.44120E+01 0.00000E+00
 -1       840 7.51500E+01 3.44120E+01 0.00000E+00
 -1       841 7.81500E+01 3.44120E+01 0.00000E+00
 -1       842 8.11500E+01 3.44120E+01 0.00000E+00
 -1       843 8.41500E+01 3.44120E+01 0.00000E+00
 -1       844 8.71500E+01 3.44120E+01 0.00000E+00
 -1       845 9.01500E+01 3.44120E+01 0.00000E+00
 -1       846 9.31500E+01 3.44120E+01 0.00000E+00
 -1       847 9.61500E+01 3.44120E+01 0.00000E+00
 -1       848 9.91500E+01 3.44120E+01 0.00000E+00
 -1       849 1.02150E+02 3.44120E+01 0.00000E+00
 -1       850 1.05150E+02 3.44120E+01 0.00000E+00
 -1       851 1.08150E+02 3.44120E+01 0.00000E+00
 -1       852 1.11150E+02 3.44120E+01 0.00000E+00
 -1       853 1.14150E+02 3.44120E+01 0.00000E+00
 -1       854 1.17150E+02 3.44120E+01 0.00000E+00
 -1       855 1.20150E+02 3.44120E+01 0.00000E+00
 -1       856 1.23150E+02 3.44120E+01 0.00000E+00
 -1       857 1.26150E+02 3.44120E+01 0.00000E+00
 -1       858 1.29150E+02 3.44120E+01 0.00000E+00
 -1       859 1.32150E+02 3.44120E+01 0.00000E+00
 -1       860 1.34580E+02 3.41185E+01 0.00000E+00
 -1       861 2.40000E+01 1.55880E+01 0.00000E+00
 -1       862 1.80001E+01 1.55880E+01 0.00000E+00
 -1       863 4.48500E+01 1.55880E+01 0.00000E+00
 -1       864 1.19220E+02 3.12396E+01 0.00000E+00
 -1       865 4.18500E+01 1.55880E+01 0.00000E+00
 -1       866 5.08500E+01 1.55880E+01 0.00000E+00
 -1       867 5.38500E+01 1.55880E+01 0.00000E+00
 -1       868 5.68500E+01 1.55880E+01 0.00000E+00
 -1       869 5.98500E+01 1.55880E+01 0.00000E+00
 -1       870 6.28500E+01 1.55880E+01 0.00000E+00
 -1       871 6.58500E+01 1.55880E+01 0.00000E+00
 -1       872 6.88500E+01 1.55880E+01 0.00000E+00
 -1       873 7.18500E+01 1.55880E+01 0.00000E+00
 -1       874 7.47000E+01 1.55880E+01 0.00000E+00
 -1       875 7.77000E+01 1.55880E+01 0.00000E+00
 -1       876 8.07000E+01 1.55880E+01 0.00000E+00
 -1       877 8.37000E+01 1.55880E+01 0.00000E+00
 -1       878 8.67000E+01 1.55880E+01 0.00000E+00
 -1       879 8.97000E+01 1.55880E+01 0.00000E+00
 -1       880 9.21756E+01 1.62441E+01 0.00000E+00
 -1       881 2.10000E+01 1.55880E+01 0.00000E+00
 -1       882 1.30210E+02 1.70406E+01 0.00000E+00
 -1       883 1.25842E+02 2.63467E+01 0.00000E+00
 -1       884 1.29900E+01 2.79188E+01 0.00000E+00
 -1       885 3.29250E+01 1.55880E+01 0.00000E+00
 -1       886 2.99250E+01 1.55880E+01 0.00000E+00
 -1       887 1.81500E+01 3.44120E+01 0.00000E+00
 -1       888 1.12960E+02 3.13580E+01 0.00000E+00
 -1       889 1.34412E+02 2.35500E+01 0.00000E+00
 -1       890 1.06849E+02 2.91435E+01 0.00000E+00
 -1       891 4.78500E+01 1.55880E+01 0.00000E+00
 -1       892 3.59250E+01 1.55880E+01 0.00000E+00
 -1       893 1.55880E+01 2.05562E+01 0.00000E+00
 -1       894 1.16347E+02 3.14731E+01 0.00000E+00
 -1       895 1.27106E+02 2.24290E+01 0.00000E+00
 -1       896 9.78168E+01 2.20822E+01 0.00000E+00
 -1       897 2.69625E+01 1.55880E+01 0.00000E+00
 -1       898 3.88875E+01 1.55880E+01 0.00000E+00
 -1       899 1.55700E+01 3.41029E+01 0.00000E+00
 -1       900 9.62340E+01 1.94912E+01 0.00000E+00
 -1       901 1.34580E+02 3.11685E+01 0.00000E+00
 -1       902 1.34412E+02 2.06063E+01 0.00000E+00
 -1       903 1.23016E+02 2.94103E+01 0.00000E+00
 -1       904 9.82211E+01 2.46696E+01 0.00000E+00
 -1       905 1.30503E+02 1.91477E+01 0.00000E+00
 -1       906 1.34412E+02 2.64750E+01 0.00000E+00
 -1       907 1.28239E+02 2.53864E+01 0.00000E+00
 -1       908 1.55880E+01 2.93875E+01 0.00000E+00
 -1       909 1.55880E+01 2.35063E+01 0.00000E+00
 -1       910 1.04794E+02 2.90057E+01 0.00000E+00
 -1       911 1.34496E+02 2.88218E+01 0.00000E+00
 -1       912 1.01408E+02 2.64079E+01 0.00000E+00
 -1       913 1.55790E+01 3.17452E+01 0.00000E+00
 -1       914 2.26500E+01 3.18140E+01 0.00000E+00
 -1       915 1.55880E+01 2.64469E+01 0.00000E+00
 -1       916 1.32150E+02 3.14620E+01 0.00000E+00
 -1       917 1.10030E+02 3.14044E+01 0.00000E+00
 -1       918 2.56500E+01 3.18140E+01 0.00000E+00
 -1       919 2.86500E+01 3.18140E+01 0.00000E+00
 -1       920 3.16500E+01 3.18140E+01 0.00000E+00
 -1       921 3.46500E+01 3.18140E+01 0.00000E+00
 -1       922 3.76500E+01 3.18140E+01 0.00000E+00
 -1       923 4.06500E+01 3.18140E+01 0.00000E+00
 -1       924 4.36500E+01 3.18140E+01 0.00000E+00
 -1       925 4.66500E+01 3.18140E+01 0.00000E+00
 -1       926 4.96500E+01 3.18140E+01 0.00000E+00
 -1       927 5.26500E+01 3.18140E+01 0.00000E+00
 -1       928 5.56500E+01 3.18140E+01 0.00000E+00
 -1       929 5.86500E+01 3.18140E+01 0.00000E+00
 -1       930 6.16500E+01 3.18140E+01 0.00000E+00
 -1       931 6.46500E+01 3.18140E+01 0.00000E+00
 -1       932 6.76500E+01 3.18140E+01 0.00000E+00
 -1       933 7.06500E+01 3.18140E+01 0.00000E+00
 -1       934 7.36500E+01 3.18140E+01 0.00000E+00
 -1       935 7.66500E+01 3.18140E+01 0.00000E+00
 -1       936 7.96500E+01 3.18140E+01 0.00000E+00
 -1       937 8.26500E+01 3.18140E+01 0.00000E+00
 -1       938 8.56500E+01 3.18140E+01 0.00000E+00
 -1       939 8.86500E+01 3.18140E+01 0.00000E+00
 -1       940 9.16500E+01 3.18140E+01 0.00000E+00
 -1       941 9.46500E+01 3.18140E+01 0.00000E+00
 -1       942 9.76500E+01 3.18140E+01 0.00000E+00
 -1       943 1.00650E+02 3.18140E+01 0.00000E+00
 -1       944 1.03650E+02 3.18140E+01 0.00000E+00
 -1       945 1.06650E+02 3.18140E+01 0.00000E+00
 -1       946 1.24650E+02 3.18140E+01 0.00000E+00
 -1       947 1.27650E+02 3.18140E+01 0.00000E+00
 -1       948 1.29900E+02 3.16380E+01 0.00000E+00
 -1       949 5.53500E+01 1.81860E+01 0.00000E+00
 -1       950 5.23500E+01 1.81860E+01 0.00000E+00
 -1       951 6.13500E+01 1.81860E+01 0.00000E+00
 -1       952 6.43500E+01 1.81860E+01 0.00000E+00
 -1       953 6.73500E+01 1.81860E+01 0.00000E+00
 -1       954 7.03500E+01 1.81860E+01 0.00000E+00
 -1       955 7.32000E+01 1.81860E+01 0.00000E+00
 -1       956 7.62000E+01 1.81860E+01 0.00000E+00
 -1       957 7.92000E+01 1.81860E+01 0.00000E+00
 -1       958 8.22000E+01 1.81860E+01 0.00000E+00
 -1       959 8.52000E+01 1.81860E+01 0.00000E+00
 -1       960 8.82000E+01 1.81860E+01 0.00000E+00
 -1       961 3.14250E+01 1.81860E+01 0.00000E+00
 -1       962 1.84642E+01 1.85902E+01 0.00000E+00
 -1       963 1.96500E+01 3.18140E+01 0.00000E+00
 -1       964 1.26338E+02 2.96403E+01 0.00000E+00
 -1       965 3.44250E+01 1.81860E+01 0.00000E+00
 -1       966 1.30341E+02 2.18813E+01 0.00000E+00
 -1       967 5.83500E+01 1.81860E+01 0.00000E+00
 -1       968 4.33500E+01 1.81860E+01 0.00000E+00
 -1       969 1.81860E+01 2.79172E+01 0.00000E+00
 -1       970 9.88866E+01 2.64401E+01 0.00000E+00
 -1       971 4.63500E+01 1.81860E+01 0.00000E+00
 -1       972 1.22178E+02 3.20947E+01 0.00000E+00
 -1       973 1.84642E+01 2.15402E+01 0.00000E+00
 -1       974 1.76145E+01 3.17796E+01 0.00000E+00
 -1       975 4.93500E+01 1.81860E+01 0.00000E+00
 -1       976 2.84625E+01 1.81860E+01 0.00000E+00
 -1       977 9.06756E+01 1.88421E+01 0.00000E+00
 -1       978 9.31513E+01 1.94981E+01 0.00000E+00
 -1       979 2.25000E+01 1.81860E+01 0.00000E+00
 -1       980 9.54966E+01 2.37700E+01 0.00000E+00
 -1       981 1.32066E+02 2.91152E+01 0.00000E+00
 -1       982 3.73875E+01 1.81860E+01 0.00000E+00
 -1       983 4.03688E+01 1.81860E+01 0.00000E+00
 -1       984 1.02125E+02 2.88641E+01 0.00000E+00
 -1       985 2.54813E+01 1.81860E+01 0.00000E+00
 -1       986 1.31326E+02 2.59307E+01 0.00000E+00
 -1       987 2.41500E+01 2.92160E+01 0.00000E+00
 -1       988 1.81860E+01 2.49766E+01 0.00000E+00
 -1       989 2.71500E+01 2.92160E+01 0.00000E+00
 -1       990 3.01500E+01 2.92160E+01 0.00000E+00
 -1       991 3.31500E+01 2.92160E+01 0.00000E+00
 -1       992 3.61500E+01 2.92160E+01 0.00000E+00
 -1       993 3.91500E+01 2.92160E+01 0.00000E+00
 -1       994 4.21500E+01 2.92160E+01 0.00000E+00
 -1       995 4.51500E+01 2.92160E+01 0.00000E+00
 -1       996 4.81500E+01 2.92160E+01 0.00000E+00
 -1       997 5.11500E+01 2.92160E+01 0.00000E+00
 -1       998 5.41500E+01 2.92160E+01 0.00000E+00
 -1       999 5.71500E+01 2.92160E+01 0.00000E+00
 -1      1000 6.01500E+01 2.92160E+01 0.00000E+00
 -1      1001 6.31500E+01 2.92160E+01 0.00000E+00
 -1      1002 6.61500E+01 2.92160E+01 0.00000E+00
 -1      1003 6.91500E+01 2.92160E+01 0.00000E+00
 -1      1004 7.21500E+01 2.92160E+01 0.00000E+00
 -1      1005 7.51500E+01 2.92160E+01 0.00000E+00
 -1      1006 7.81500E+01 2.92160E+01 0.00000E+00
 -1      1007 8.11500E+01 2.92160E+01 0.00000E+00
 -1      1008 8.41500E+01 2.92160E+01 0.00000E+00
 -1      1009 8.71500E+01 2.92160E+01 0.00000E+00
 -1      1010 9.01500E+01 2.92160E+01 0.00000E+00
 -1      1011 9.31500E+01 2.92160E+01 0.00000E+00
 -1      1012 9.61500E+01 2.92160E+01 0.00000E+00
 -1      1013 9.91500E+01 2.92160E+01 0.00000E+00
 -1      1014 6.88500E+01 2.07840E+01 0.00000E+00
 -1      1015 6.58500E+01 2.07840E+01 0.00000E+00
 -1      1016 6.28500E+01 2.07840E+01 0.00000E+00
 -1      1017 7.17000E+01 2.07840E+01 0.00000E+00
 -1      1018 7.47000E+01 2.07840E+01 0.00000E+00
 -1      1019 7.77000E+01 2.07840E+01 0.00000E+00
 -1      1020 8.07000E+01 2.07840E+01 0.00000E+00
 -1      1021 8.37000E+01 2.07840E+01 0.00000E+00
 -1      1022 8.67000E+01 2.07840E+01 0.00000E+00
 -1      1023 9.60442E+01 2.66868E+01 0.00000E+00
 -1      1024 3.29250E+01 2.07840E+01 0.00000E+00
 -1      1025 2.11500E+01 2.92160E+01 0.00000E+00
 -1      1026 1.28007E+02 2.82782E+01 0.00000E+00
 -1      1027 2.25000E+01 2.11360E+01 0.00000E+00
 -1      1028 5.38500E+01 2.07840E+01 0.00000E+00
 -1      1029 5.68500E+01 2.07840E+01 0.00000E+00
 -1      1030 5.98500E+01 2.07840E+01 0.00000E+00
 -1      1031 1.28953E+02 2.99581E+01 0.00000E+00
 -1      1032 9.20466E+01 2.28843E+01 0.00000E+00
 -1      1033 1.30140E+02 2.79444E+01 0.00000E+00
 -1      1034 2.07840E+01 2.64469E+01 0.00000E+00
 -1      1035 1.30510E+02 2.95367E+01 0.00000E+00
 -1      1036 9.25942E+01 2.58011E+01 0.00000E+00
 -1      1037 5.08500E+01 2.07840E+01 0.00000E+00
 -1      1038 2.99625E+01 2.07840E+01 0.00000E+00
 -1      1039 8.91756E+01 2.14401E+01 0.00000E+00
 -1      1040 4.18594E+01 2.07840E+01 0.00000E+00
 -1      1041 3.58875E+01 2.07840E+01 0.00000E+00
 -1      1042 4.48594E+01 2.07840E+01 0.00000E+00
 -1      1043 2.56500E+01 2.66180E+01 0.00000E+00
 -1      1044 2.86500E+01 2.66180E+01 0.00000E+00
 -1      1045 3.16500E+01 2.66180E+01 0.00000E+00
 -1      1046 3.46500E+01 2.66180E+01 0.00000E+00
 -1      1047 3.76500E+01 2.66180E+01 0.00000E+00
 -1      1048 4.06500E+01 2.66180E+01 0.00000E+00
 -1      1049 4.36500E+01 2.66180E+01 0.00000E+00
 -1      1050 4.66500E+01 2.66180E+01 0.00000E+00
 -1      1051 4.96500E+01 2.66180E+01 0.00000E+00
 -1      1052 5.26500E+01 2.66180E+01 0.00000E+00
 -1      1053 5.56500E+01 2.66180E+01 0.00000E+00
 -1      1054 5.86500E+01 2.66180E+01 0.00000E+00
 -1      1055 6.16500E+01 2.66180E+01 0.00000E+00
 -1      1056 6.46500E+01 2.66180E+01 0.00000E+00
 -1      1057 6.76500E+01 2.66180E+01 0.00000E+00
 -1      1058 7.06500E+01 2.66180E+01 0.00000E+00
 -1      1059 7.36500E+01 2.66180E+01 0.00000E+00
 -1      1060 7.66500E+01 2.66180E+01 0.00000E+00
 -1      1061 7.96500E+01 2.66180E+01 0.00000E+00
 -1      1062 8.26500E+01 2.66180E+01 0.00000E+00
 -1      1063 8.56500E+01 2.66180E+01 0.00000E+00
 -1      1064 8.86500E+01 2.66180E+01 0.00000E+00
 -1      1065 6.73500E+01 2.33820E+01 0.00000E+00
 -1      1066 7.32000E+01 2.33820E+01 0.00000E+00
 -1      1067 7.02750E+01 2.33820E+01 0.00000E+00
 -1      1068 6.43500E+01 2.33820E+01 0.00000E+00
 -1      1069 7.62000E+01 2.33820E+01 0.00000E+00
 -1      1070 7.92000E+01 2.33820E+01 0.00000E+00
 -1      1071 8.22000E+01 2.33820E+01 0.00000E+00
 -1      1072 8.52000E+01 2.33820E+01 0.00000E+00
 -1      1073 4.78547E+01 2.07840E+01 0.00000E+00
 -1      1074 2.32170E+01 2.65324E+01 0.00000E+00
 -1      1075 5.83500E+01 2.33820E+01 0.00000E+00
 -1      1076 3.88781E+01 2.07840E+01 0.00000E+00
 -1      1077 5.53500E+01 2.33820E+01 0.00000E+00
 -1      1078 2.69813E+01 2.07840E+01 0.00000E+00
 -1      1079 6.13500E+01 2.33820E+01 0.00000E+00
 -1      1080 2.16420E+01 2.37914E+01 0.00000E+00
 -1      1081 2.49441E+01 2.35500E+01 0.00000E+00
 -1      1082 5.23500E+01 2.33820E+01 0.00000E+00
 -1      1083 3.14438E+01 2.33820E+01 0.00000E+00
 -1      1084 8.86233E+01 2.31332E+01 0.00000E+00
 -1      1085 4.03688E+01 2.33820E+01 0.00000E+00
 -1      1086 3.44063E+01 2.33820E+01 0.00000E+00
 -1      1087 4.33688E+01 2.33820E+01 0.00000E+00
 -1      1088 2.71500E+01 2.40200E+01 0.00000E+00
 -1      1089 4.81500E+01 2.40200E+01 0.00000E+00
 -1      1090 3.73875E+01 2.33820E+01 0.00000E+00
 -1      1091 0.00000E+00 4.85250E+01 0.00000E+00
 -1      1092 0.00000E+00 4.55750E+01 0.00000E+00
 -1      1093 0.00000E+00 4.26250E+01 0.00000E+00
 -1      1094 0.00000E+00 3.96750E+01 0.00000E+00
 -1      1095 0.00000E+00 3.67250E+01 0.00000E+00
 -1      1096 0.00000E+00 3.38000E+01 0.00000E+00
 -1      1097 0.00000E+00 3.08750E+01 0.00000E+00
 -1      1098 0.00000E+00 2.79250E+01 0.00000E+00
 -1      1099 0.00000E+00 2.49750E+01 0.00000E+00
 -1      1100 0.00000E+00 2.20250E+01 0.00000E+00
 -1      1101 0.00000E+00 1.90750E+01 0.00000E+00
 -1      1102 0.00000E+00 1.61500E+01 0.00000E+00
 -1      1103 0.00000E+00 1.32250E+01 0.00000E+00
 -1      1104 0.00000E+00 1.02750E+01 0.00000E+00
 -1      1105 0.00000E+00 7.32500E+00 0.00000E+00
 -1      1106 0.00000E+00 4.37500E+00 0.00000E+00
 -1      1107 0.00000E+00 1.45000E+00 0.00000E+00
 -1      1108 1.57500E+00 5.00000E+01 0.00000E+00
 -1      1109 4.65000E+00 5.00000E+01 0.00000E+00
 -1      1110 7.65000E+00 5.00000E+01 0.00000E+00
 -1      1111 1.06500E+01 5.00000E+01 0.00000E+00
 -1      1112 1.36500E+01 5.00000E+01 0.00000E+00
 -1      1113 1.66500E+01 5.00000E+01 0.00000E+00
 -1      1114 1.96500E+01 5.00000E+01 0.00000E+00
 -1      1115 2.26500E+01 5.00000E+01 0.00000E+00
 -1      1116 2.56500E+01 5.00000E+01 0.00000E+00
 -1      1117 2.86500E+01 5.00000E+01 0.00000E+00
 -1      1118 3.16500E+01 5.00000E+01 0.00000E+00
 -1      1119 3.46500E+01 5.00000E+01 0.00000E+00
 -1      1120 3.76500E+01 5.00000E+01 0.00000E+00
 -1      1121 4.06500E+01 5.00000E+01 0.00000E+00
 -1      1122 4.36500E+01 5.00000E+01 0.00000E+00
 -1      1123 4.66500E+01 5.00000E+01 0.00000E+00
 -1      1124 4.96500E+01 5.00000E+01 0.00000E+00
 -1      1125 5.26500E+01 5.00000E+01 0.00000E+00
 -1      1126 5.56500E+01 5.00000E+01 0.00000E+00
 -1      1127 5.86500E+01 5.00000E+01 0.00000E+00
 -1      1128 6.16500E+01 5.00000E+01 0.00000E+00
 -1      1129 6.46500E+01 5.00000E+01 0.00000E+00
 -1      1130 6.76500E+01 5.00000E+01 0.00000E+00
 -1      1131 7.06500E+01 5.00000E+01 0.00000E+00
 -1      1132 7.36500E+01 5.00000E+01 0.00000E+00
 -1      1133 7.66500E+01 5.00000E+01 0.00000E+00
 -1      1134 7.96500E+01 5.00000E+01 0.00000E+00
 -1      1135 8.26500E+01 5.00000E+01 0.00000E+00
 -1      1136 8.56500E+01 5.00000E+01 0.00000E+00
 -1      1137 8.86500E+01 5.00000E+01 0.00000E+00
 -1      1138 9.16500E+01 5.00000E+01 0.00000E+00
 -1      1139 9.46500E+01 5.00000E+01 0.00000E+00
 -1      1140 9.76500E+01 5.00000E+01 0.00000E+00
 -1      1141 1.00650E+02 5.00000E+01 0.00000E+00
 -1      1142 1.03650E+02 5.00000E+01 0.00000E+00
 -1      1143 1.06650E+02 5.00000E+01 0.00000E+00
 -1      1144 1.09650E+02 5.00000E+01 0.00000E+00
 -1      1145 1.12650E+02 5.00000E+01 0.00000E+00
 -1      1146 1.15650E+02 5.00000E+01 0.00000E+00
 -1      1147 1.18650E+02 5.00000E+01 0.00000E+00
 -1      1148 1.21650E+02 5.00000E+01 0.00000E+00
 -1      1149 1.24650E+02 5.00000E+01 0.00000E+00
 -1      1150 1.27650E+02 5.00000E+01 0.00000E+00
 -1      1151 1.30650E+02 5.00000E+01 0.00000E+00
 -1      1152 1.33650E+02 5.00000E+01 0.00000E+00
 -1      1153 1.36650E+02 5.00000E+01 0.00000E+00
 -1      1154 1.39650E+02 5.00000E+01 0.00000E+00
 -1      1155 1.42650E+02 5.00000E+01 0.00000E+00
 -1      1156 1.45650E+02 5.00000E+01 0.00000E+00
 -1      1157 1.48575E+02 5.00000E+01 0.00000E+00
 -1      1158 1.50000E+00 0.00000E+00 0.00000E+00
 -1      1159 4.50000E+00 0.00000E+00 0.00000E+00
 -1      1160 7.50000E+00 0.00000E+00 0.00000E+00
 -1      1161 1.05000E+01 0.00000E+00 0.00000E+00
 -1      1162 1.35000E+01 0.00000E+00 0.00000E+00
 -1      1163 1.65000E+01 0.00000E+00 0.00000E+00
 -1      1164 1.95000E+01 0.00000E+00 0.00000E+00
 -1      1165 2.25000E+01 0.00000E+00 0.00000E+00
 -1      1166 2.55000E+01 0.00000E+00 0.00000E+00
 -1      1167 2.85000E+01 0.00000E+00 0.00000E+00
 -1      1168 3.15000E+01 0.00000E+00 0.00000E+00
 -1      1169 3.45000E+01 0.00000E+00 0.00000E+00
 -1      1170 3.75000E+01 0.00000E+00 0.00000E+00
 -1      1171 4.04250E+01 0.00000E+00 0.00000E+00
 -1      1172 4.33500E+01 0.00000E+00 0.00000E+00
 -1      1173 4.63500E+01 0.00000E+00 0.00000E+00
 -1      1174 4.93500E+01 0.00000E+00 0.00000E+00
 -1      1175 5.23500E+01 0.00000E+00 0.00000E+00
 -1      1176 5.53500E+01 0.00000E+00 0.00000E+00
 -1      1177 5.83500E+01 0.00000E+00 0.00000E+00
 -1      1178 6.13500E+01 0.00000E+00 0.00000E+00
 -1      1179 6.43500E+01 0.00000E+00 0.00000E+00
 -1      1180 6.73500E+01 0.00000E+00 0.00000E+00
 -1      1181 7.03500E+01 0.00000E+00 0.00000E+00
 -1      1182 7.33500E+01 0.00000E+00 0.00000E+00
 -1      1183 7.63500E+01 0.00000E+00 0.00000E+00
 -1      1184 7.93500E+01 0.00000E+00 0.00000E+00
 -1      1185 8.22750E+01 0.00000E+00 0.00000E+00
 -1      1186 8.52000E+01 0.00000E+00 0.00000E+00
 -1      1187 8.82000E+01 0.00000E+00 0.00000E+00
 -1      1188 9.12000E+01 0.00000E+00 0.00000E+00
 -1      1189 9.42000E+01 0.00000E+00 0.00000E+00
 -1      1190 9.72000E+01 0.00000E+00 0.00000E+00
 -1      1191 1.00200E+02 0.00000E+00 0.00000E+00
 -1      1192 1.03200E+02 0.00000E+00 0.00000E+00
 -1      1193 1.06200E+02 0.00000E+00 0.00000E+00
 -1      1194 1.08975E+02 0.00000E+00 0.00000E+00
 -1      1195 1.11600E+02 0.00000E+00 0.00000E+00
 -1      1196 1.14150E+02 0.00000E+00 0.00000E+00
 -1      1197 1.16400E+02 0.00000E+00 0.00000E+00
 -1      1198 1.18875E+02 0.00000E+00 0.00000E+00
 -1      1199 1.21725E+02 0.00000E+00 0.00000E+00
 -1      1200 1.24650E+02 0.00000E+00 0.00000E+00
 -1      1201 1.27650E+02 0.00000E+00 0.00000E+00
 -1      1202 1.30650E+02 0.00000E+00 0.00000E+00
 -1      1203 1.33650E+02 0.00000E+00 0.00000E+00
 -1      1204 1.36650E+02 0.00000E+00 0.00000E+00
 -1      1205 1.39650E+02 0.00000E+00 0.00000E+00
 -1      1206 1.42650E+02 0.00000E+00 0.00000E+00
 -1      1207 1.45650E+02 0.00000E+00 0.00000E+00
 -1      1208 1.48575E+02 0.00000E+00 0.00000E+00
 -1      1209 1.50000E+02 1.47500E+00 0.00000E+00
 -1      1210 1.50000E+02 4.42500E+00 0.00000E+00
 -1      1211 1.50000E+02 7.37500E+00 0.00000E+00
 -1      1212 1.50000E+02 1.03250E+01 0.00000E+00
 -1      1213 1.50000E+02 1.32750E+01 0.00000E+00
 -1      1214 1.50000E+02 1.62000E+01 0.00000E+00
 -1      1215 1.50000E+02 1.91250E+01 0.00000E+00
 -1      1216 1.50000E+02 2.20750E+01 0.00000E+00
 -1      1217 1.50000E+02 2.50250E+01 0.00000E+00
 -1      1218 1.50000E+02 2.79750E+01 0.00000E+00
 -1      1219 1.50000E+02 3.09250E+01 0.00000E+00
 -1      1220 1.50000E+02 3.38500E+01 0.00000E+00
 -1      1221 1.50000E+02 3.67750E+01 0.00000E+00
 -1      1222 1.50000E+02 3.97250E+01 0.00000E+00
 -1      1223 1.50000E+02 4.26750E+01 0.00000E+00
 -1      1224 1.50000E+02 4.56250E+01 0.00000E+00
 -1      1225 1.50000E+02 4.85500E+01 0.00000E+00
 -1      1226 1.19733E+02 1.29701E+01 0.00000E+00
 -1      1227 1.19422E+02 1.15257E+01 0.00000E+00
 -1      1228 1.18819E+02 1.01870E+01 0.00000E+00
 -1      1229 1.17895E+02 8.94354E+00 0.00000E+00
 -1      1230 1.16714E+02 7.92935E+00 0.00000E+00
 -1      1231 1.15422E+02 7.23524E+00 0.00000E+00
 -1      1232 1.14033E+02 6.82921E+00 0.00000E+00
 -1      1233 1.12562E+02 6.71801E+00 0.00000E+00
 -1      1234 1.11108E+02 6.91580E+00 0.00000E+00
 -1      1235 1.09718E+02 7.41669E+00 0.00000E+00
 -1      1236 1.08393E+02 8.25455E+00 0.00000E+00
 -1      1237 1.07268E+02 9.39073E+00 0.00000E+00
 -1      1238 1.06448E+02 1.07153E+01 0.00000E+00
 -1      1239 1.05942E+02 1.21881E+01 0.00000E+00
 -1      1240 1.05773E+02 1.37147E+01 0.00000E+00
 -1      1241 1.05926E+02 1.51723E+01 0.00000E+00
 -1      1242 1.06376E+02 1.65561E+01 0.00000E+00
 -1      1243 1.07139E+02 1.78688E+01 0.00000E+00
 -1      1244 1.08165E+02 1.89842E+01 0.00000E+00
 -1      1245 1.09422E+02 1.98605E+01 0.00000E+00
 -1      1246 1.10837E+02 2.04418E+01 0.00000E+00
 -1      1247 1.12295E+02 2.06985E+01 0.00000E+00
 -1      1248 1.13850E+02 2.06314E+01 0.00000E+00
 -1      1249 1.15338E+02 2.02281E+01 0.00000E+00
 -1      1250 1.16693E+02 1.95143E+01 0.00000E+00
 -1      1251 1.17861E+02 1.85227E+01 0.00000E+00
 -1      1252 1.18792E+02 1.72884E+01 0.00000E+00
 -1      1253 1.19429E+02 1.58812E+01 0.00000E+00
 -1      1254 1.19735E+02 1.44459E+01 0.00000E+00
 -1      1255 1.57500E+00 4.85250E+01 0.00000E+00
 -1      1256 1.29900E+00 4.48375E+01 0.00000E+00
 -1      1257 1.29900E+00 4.63125E+01 0.00000E+00
 -1      1258 1.29900E+00 4.18875E+01 0.00000E+00
 -1      1259 1.29900E+00 4.33625E+01 0.00000E+00
 -1      1260 2.59800E+00 4.41000E+01 0.00000E+00
 -1      1261 1.29900E+00 3.89375E+01 0.00000E+00
 -1      1262 1.29900E+00 4.04125E+01 0.00000E+00
 -1      1263 2.59800E+00 4.11500E+01 0.00000E+00
 -1      1264 1.29900E+00 3.59875E+01 0.00000E+00
 -1      1265 1.29900E+00 3.74625E+01 0.00000E+00
 -1      1266 2.59800E+00 3.82000E+01 0.00000E+00
 -1      1267 1.29900E+00 3.30875E+01 0.00000E+00
 -1      1268 1.29900E+00 3.45375E+01 0.00000E+00
 -1      1269 2.59800E+00 3.52750E+01 0.00000E+00
 -1      1270 1.29900E+00 3.01375E+01 0.00000E+00
 -1      1271 1.29900E+00 3.16125E+01 0.00000E+00
 -1      1272 2.59800E+00 3.23500E+01 0.00000E+00
 -1      1273 1.29900E+00 2.71875E+01 0.00000E+00
 -1      1274 1.29900E+00 2.86625E+01 0.00000E+00
 -1      1275 2.59800E+00 2.94000E+01 0.00000E+00
 -1      1276 1.29900E+00 2.42375E+01 0.00000E+00
 -1      1277 1.29900E+00 2.57125E+01 0.00000E+00
 -1      1278 2.59800E+00 2.64500E+01 0.00000E+00
 -1      1279 1.29900E+00 2.12875E+01 0.00000E+00
 -1      1280 1.29900E+00 2.27625E+01 0.00000E+00
 -1      1281 2.59800E+00 2.35000E+01 0.00000E+00
 -1      1282 1.29900E+00 1.83375E+01 0.00000E+00
 -1      1283 1.29900E+00 1.98125E+01 0.00000E+00
 -1      1284 2.59800E+00 2.05500E+01 0.00000E+00
 -1      1285 1.29900E+00 1.54375E+01 0.00000E+00
 -1      1286 1.29900E+00 1.68875E+01 0.00000E+00
 -1      1287 2.59800E+00 1.76250E+01 0.00000E+00
 -1      1288 1.29900E+00 1.24875E+01 0.00000E+00
 -1      1289 1.29900E+00 1.39625E+01 0.00000E+00
 -1      1290 2.59800E+00 1.47000E+01 0.00000E+00
 -1      1291 1.29900E+00 9.53750E+00 0.00000E+00
 -1      1292 1.29900E+00 1.10125E+01 0.00000E+00
 -1      1293 2.59800E+00 1.17500E+01 0.00000E+00
 -1      1294 1.29900E+00 6.58750E+00 0.00000E+00
 -1      1295 1.29900E+00 8.06250E+00 0.00000E+00
 -1      1296 2.59800E+00 8.80000E+00 0.00000E+00
 -1      1297 1.29900E+00 3.63750E+00 0.00000E+00
 -1      1298 1.29900E+00 5.11250E+00 0.00000E+00
 -1      1299 2.59800E+00 5.85000E+00 0.00000E+00
 -1      1300 1.50000E+00 1.45000E+00 0.00000E+00
 -1      1301 3.90000E+00 4.87010E+01 0.00000E+00
 -1      1302 5.40000E+00 4.87010E+01 0.00000E+00
 -1      1303 6.90000E+00 4.87010E+01 0.00000E+00
 -1      1304 8.40000E+00 4.87010E+01 0.00000E+00
 -1      1305 6.15000E+00 4.74020E+01 0.00000E+00
 -1      1306 9.90000E+00 4.87010E+01 0.00000E+00
 -1      1307 1.14000E+01 4.87010E+01 0.00000E+00
 -1      1308 9.15000E+00 4.74020E+01 0.00000E+00
 -1      1309 1.29000E+01 4.87010E+01 0.00000E+00
 -1      1310 1.44000E+01 4.87010E+01 0.00000E+00
 -1      1311 1.21500E+01 4.74020E+01 0.00000E+00
 -1      1312 1.59000E+01 4.87010E+01 0.00000E+00
 -1      1313 1.74000E+01 4.87010E+01 0.00000E+00
 -1      1314 1.51500E+01 4.74020E+01 0.00000E+00
 -1      1315 1.89000E+01 4.87010E+01 0.00000E+00
 -1      1316 2.04000E+01 4.87010E+01 0.00000E+00
 -1      1317 1.81500E+01 4.74020E+01 0.00000E+00
 -1      1318 2.19000E+01 4.87010E+01 0.00000E+00
 -1      1319 2.34000E+01 4.87010E+01 0.00000E+00
 -1      1320 2.11500E+01 4.74020E+01 0.00000E+00
 -1      1321 2.49000E+01 4.87010E+01 0.00000E+00
 -1      1322 2.64000E+01 4.87010E+01 0.00000E+00
 -1      1323 2.41500E+01 4.74020E+01 0.00000E+00
 -1      1324 2.79000E+01 4.87010E+01 0.00000E+00
 -1      1325 2.94000E+01 4.87010E+01 0.00000E+00
 -1      1326 2.71500E+01 4.74020E+01 0.00000E+00
 -1      1327 3.09000E+01 4.87010E+01 0.00000E+00
 -1      1328 3.24000E+01 4.87010E+01 0.00000E+00
 -1      1329 3.01500E+01 4.74020E+01 0.00000E+00
 -1      1330 3.39000E+01 4.87010E+01 0.00000E+00
 -1      1331 3.54000E+01 4.87010E+01 0.00000E+00
 -1      1332 3.31500E+01 4.74020E+01 0.00000E+00
 -1      1333 3.69000E+01 4.87010E+01 0.00000E+00
 -1      1334 3.84000E+01 4.87010E+01 0.00000E+00
 -1      1335 3.61500E+01 4.74020E+01 0.00000E+00
 -1      1336 3.99000E+01 4.87010E+01 0.00000E+00
 -1      1337 4.14000E+01 4.87010E+01 0.00000E+00
 -1      1338 3.91500E+01 4.74020E+01 0.00000E+00
 -1      1339 4.29000E+01 4.87010E+01 0.00000E+00
 -1      1340 4.44000E+01 4.87010E+01 0.00000E+00
 -1      1341 4.21500E+01 4.74020E+01 0.00000E+00
 -1      1342 4.59000E+01 4.87010E+01 0.00000E+00
 -1      1343 4.74000E+01 4.87010E+01 0.00000E+00
 -1      1344 4.51500E+01 4.74020E+01 0.00000E+00
 -1      1345 4.89000E+01 4.87010E+01 0.00000E+00
 -1      1346 5.04000E+01 4.87010E+01 0.00000E+00
 -1      1347 4.81500E+01 4.74020E+01 0.00000E+00
 -1      1348 5.19000E+01 4.87010E+01 0.00000E+00
 -1      1349 5.34000E+01 4.87010E+01 0.00000E+00
 -1      1350 5.11500E+01 4.74020E+01 0.00000E+00
 -1      1351 5.49000E+01 4.87010E+01 0.00000E+00
 -1      1352 5.64000E+01 4.87010E+01 0.00000E+00
 -1      1353 5.41500E+01 4.74020E+01 0.00000E+00
 -1      1354 5.79000E+01 4.87010E+01 0.00000E+00
 -1      1355 5.94000E+01 4.87010E+01 0.00000E+00
 -1      1356 5.71500E+01 4.74020E+01 0.00000E+00
 -1      1357 6.09000E+01 4.87010E+01 0.00000E+00
 -1      1358 6.24000E+01 4.87010E+01 0.00000E+00
 -1      1359 6.01500E+01 4.74020E+01 0.00000E+00
 -1      1360 6.39000E+01 4.87010E+01 0.00000E+00
 -1      1361 6.54000E+01 4.87010E+01 0.00000E+00
 -1      1362 6.31500E+01 4.74020E+01 0.00000E+00
 -1      1363 6.69000E+01 4.87010E+01 0.00000E+00
 -1      1364 6.84000E+01 4.87010E+01 0.00000E+00
 -1      1365 6.61500E+01 4.74020E+01 0.00000E+00
 -1      1366 6.99000E+01 4.87010E+01 0.00000E+00
 -1      1367 7.14000E+01 4.87010E+01 0.00000E+00
 -1      1368 6.91500E+01 4.74020E+01 0.00000E+00
 -1      1369 7.29000E+01 4.87010E+01 0.00000E+00
 -1      1370 7.44000E+01 4.87010E+01 0.00000E+00
 -1      1371 7.21500E+01 4.74020E+01 0.00000E+00
 -1      1372 7.59000E+01 4.87010E+01 0.00000E+00
 -1      1373 7.74000E+01 4.87010E+01 0.00000E+00
 -1      1374 7.51500E+01 4.74020E+01 0.00000E+00
 -1      1375 7.89000E+01 4.87010E+01 0.00000E+00
 -1      1376 8.04000E+01 4.87010E+01 0.00000E+00
 -1      1377 7.81500E+01 4.74020E+01 0.00000E+00
 -1      1378 8.19000E+01 4.87010E+01 0.00000E+00
 -1      1379 8.34000E+01 4.87010E+01 0.00000E+00
 -1      1380 8.11500E+01 4.74020E+01 0.00000E+00
 -1      1381 8.49000E+01 4.87010E+01 0.00000E+00
 -1      1382 8.64000E+01 4.87010E+01 0.00000E+00
 -1      1383 8.41500E+01 4.74020E+01 0.00000E+00
 -1      1384 8.79000E+01 4.87010E+01 0.00000E+00
 -1      1385 8.94000E+01 4.87010E+01 0.00000E+00
 -1      1386 8.71500E+01 4.74020E+01 0.00000E+00
 -1      1387 9.09000E+01 4.87010E+01 0.00000E+00
 -1      1388 9.24000E+01 4.87010E+01 0.00000E+00
 -1      1389 9.01500E+01 4.74020E+01 0.00000E+00
 -1      1390 9.39000E+01 4.87010E+01 0.00000E+00
 -1      1391 9.54000E+01 4.87010E+01 0.00000E+00
 -1      1392 9.31500E+01 4.74020E+01 0.00000E+00
 -1      1393 9.69000E+01 4.87010E+01 0.00000E+00
 -1      1394 9.84000E+01 4.87010E+01 0.00000E+00
 -1      1395 9.61500E+01 4.74020E+01 0.00000E+00
 -1      1396 9.99000E+01 4.87010E+01 0.00000E+00
 -1      1397 1.01400E+02 4.87010E+01 0.00000E+00
 -1      1398 9.91500E+01 4.74020E+01 0.00000E+00
 -1      1399 1.02900E+02 4.87010E+01 0.00000E+00
 -1      1400 1.04400E+02 4.87010E+01 0.00000E+00
 -1      1401 1.02150E+02 4.74020E+01 0.00000E+00
 -1      1402 1.05900E+02 4.87010E+01 0.00000E+00
 -1      1403 1.07400E+02 4.87010E+01 0.00000E+00
 -1      1404 1.05150E+02 4.74020E+01 0.00000E+00
 -1      1405 1.08900E+02 4.87010E+01 0.00000E+00
 -1      1406 1.10400E+02 4.87010E+01 0.00000E+00
 -1      1407 1.08150E+02 4.74020E+01 0.00000E+00
 -1      1408 1.11900E+02 4.87010E+01 0.00000E+00
 -1      1409 1.13400E+02 4.87010E+01 0.00000E+00
 -1      1410 1.11150E+02 4.74020E+01 0.00000E+00
 -1      1411 1.14900E+02 4.87010E+01 0.00000E+00
 -1      1412 1.16400E+02 4.87010E+01 0.00000E+00
 -1      1413 1.14150E+02 4.74020E+01 0.00000E+00
 -1      1414 1.17900E+02 4.87010E+01 0.00000E+00
 -1      1415 1.19400E+02 4.87010E+01 0.00000E+00
 -1      1416 1.17150E+02 4.74020E+01 0.00000E+00
 -1      1417 1.20900E+02 4.87010E+01 0.00000E+00
 -1      1418 1.22400E+02 4.87010E+01 0.00000E+00
 -1      1419 1.20150E+02 4.74020E+01 0.00000E+00
 -1      1420 1.23900E+02 4.87010E+01 0.00000E+00
 -1      1421 1.25400E+02 4.87010E+01 0.00000E+00
 -1      1422 1.23150E+02 4.74020E+01 0.00000E+00
 -1      1423 1.26900E+02 4.87010E+01 0.00000E+00
 -1      1424 1.28400E+02 4.87010E+01 0.00000E+00
 -1      1425 1.26150E+02 4.74020E+01 0.00000E+00
 -1      1426 1.29900E+02 4.87010E+01 0.00000E+00
 -1      1427 1.31400E+02 4.87010E+01 0.00000E+00
 -1      1428 1.29150E+02 4.74020E+01 0.00000E+00
 -1      1429 1.32900E+02 4.87010E+01 0.00000E+00
 -1      1430 1.34400E+02 4.87010E+01 0.00000E+00
 -1      1431 1.32150E+02 4.74020E+01 0.00000E+00
 -1      1432 1.35900E+02 4.87010E+01 0.00000E+00
 -1      1433 1.37400E+02 4.87010E+01 0.00000E+00
 -1      1434 1.35150E+02 4.74020E+01 0.00000E+00
 -1      1435 1.38900E+02 4.87010E+01 0.00000E+00
 -1      1436 1.40400E+02 4.87010E+01 0.00000E+00
 -1      1437 1.38150E+02 4.74020E+01 0.00000E+00
 -1      1438 1.41900E+02 4.87010E+01 0.00000E+00
 -1      1439 1.43400E+02 4.87010E+01 0.00000E+00
 -1      1440 1.41150E+02 4.74020E+01 0.00000E+00
 -1      1441 1.44900E+02 4.87010E+01 0.00000E+00
 -1      1442 1.46400E+02 4.87010E+01 0.00000E+00
 -1      1443 1.44150E+02 4.74020E+01 0.00000E+00
 -1      1444 1.48575E+02 4.85500E+01 0.00000E+00
 -1      1445 1.47825E+02 4.72510E+01 0.00000E+00
 -1      1446 5.25000E+00 1.29900E+00 0.00000E+00
 -1      1447 3.75000E+00 1.29900E+00 0.00000E+00
 -1      1448 8.25000E+00 1.29900E+00 0.00000E+00
 -1      1449 6.75000E+00 1.29900E+00 0.00000E+00
 -1      1450 6.00000E+00 2.59800E+00 0.00000E+00
 -1      1451 1.12500E+01 1.29900E+00 0.00000E+00
 -1      1452 9.75000E+00 1.29900E+00 0.00000E+00
 -1      1453 9.00000E+00 2.59800E+00 0.00000E+00
 -1      1454 1.42500E+01 1.29900E+00 0.00000E+00
 -1      1455 1.27500E+01 1.29900E+00 0.00000E+00
 -1      1456 1.20000E+01 2.59800E+00 0.00000E+00
 -1      1457 1.72500E+01 1.29900E+00 0.00000E+00
 -1      1458 1.57500E+01 1.29900E+00 0.00000E+00
 -1      1459 1.50000E+01 2.59800E+00 0.00000E+00
 -1      1460 2.02500E+01 1.29900E+00 0.00000E+00
 -1      1461 1.87500E+01 1.29900E+00 0.00000E+00
 -1      1462 1.80000E+01 2.59800E+00 0.00000E+00
 -1      1463 2.32500E+01 1.29900E+00 0.00000E+00
 -1      1464 2.17500E+01 1.29900E+00 0.00000E+00
 -1      1465 2.10000E+01 2.59800E+00 0.00000E+00
 -1      1466 2.62500E+01 1.29900E+00 0.00000E+00
 -1      1467 2.47500E+01 1.29900E+00 0.00000E+00
 -1      1468 2.40000E+01 2.59800E+00 0.00000E+00
 -1      1469 2.92500E+01 1.29900E+00 0.00000E+00
 -1      1470 2.77500E+01 1.29900E+00 0.00000E+00
 -1      1471 2.70000E+01 2.59800E+00 0.00000E+00
 -1      1472 3.22500E+01 1.29900E+00 0.00000E+00
 -1      1473 3.07500E+01 1.29900E+00 0.00000E+00
 -1      1474 3.00000E+01 2.59800E+00 0.00000E+00
 -1      1475 3.52500E+01 1.29900E+00 0.00000E+00
 -1      1476 3.37500E+01 1.29900E+00 0.00000E+00
 -1      1477 3.30000E+01 2.59800E+00 0.00000E+00
 -1      1478 3.82500E+01 1.29900E+00 0.00000E+00
 -1      1479 3.67500E+01 1.29900E+00 0.00000E+00
 -1      1480 3.60000E+01 2.59800E+00 0.00000E+00
 -1      1481 4.11000E+01 1.29900E+00 0.00000E+00
 -1      1482 3.96750E+01 1.29900E+00 0.00000E+00
 -1      1483 3.89250E+01 2.59800E+00 0.00000E+00
 -1      1484 4.41000E+01 1.29900E+00 0.00000E+00
 -1      1485 4.26000E+01 1.29900E+00 0.00000E+00
 -1      1486 4.18500E+01 2.59800E+00 0.00000E+00
 -1      1487 4.71000E+01 1.29900E+00 0.00000E+00
 -1      1488 4.56000E+01 1.29900E+00 0.00000E+00
 -1      1489 4.48500E+01 2.59800E+00 0.00000E+00
 -1      1490 5.01000E+01 1.29900E+00 0.00000E+00
 -1      1491 4.86000E+01 1.29900E+00 0.00000E+00
 -1      1492 4.78500E+01 2.59800E+00 0.00000E+00
 -1      1493 5.31000E+01 1.29900E+00 0.00000E+00
 -1      1494 5.16000E+01 1.29900E+00 0.00000E+00
 -1      1495 5.08500E+01 2.59800E+00 0.00000E+00
 -1      1496 5.61000E+01 1.29900E+00 0.00000E+00
 -1      1497 5.46000E+01 1.29900E+00 0.00000E+00
 -1      1498 5.38500E+01 2.59800E+00 0.00000E+00
 -1      1499 5.91000E+01 1.29900E+00 0.00000E+00
 -1      1500 5.76000E+01 1.29900E+00 0.00000E+00
 -1      1501 5.68500E+01 2.59800E+00 0.00000E+00
 -1      1502 6.21000E+01 1.29900E+00 0.00000E+00
 -1      1503 6.06000E+01 1.29900E+00 0.00000E+00
 -1      1504 5.98500E+01 2.59800E+00 0.00000E+00
 -1      1505 6.51000E+01 1.29900E+00 0.00000E+00
 -1      1506 6.36000E+01 1.29900E+00 0.00000E+00
 -1      1507 6.28500E+01 2.59800E+00 0.00000E+00
 -1      1508 6.81000E+01 1.29900E+00 0.00000E+00
 -1      1509 6.66000E+01 1.29900E+00 0.00000E+00
 -1      1510 6.58500E+01 2.59800E+00 0.00000E+00
 -1      1511 7.11000E+01 1.29900E+00 0.00000E+00
 -1      1512 6.96000E+01 1.29900E+00 0.00000E+00
 -1      1513 6.88500E+01 2.59800E+00 0.00000E+00
 -1      1514 7.41000E+01 1.29900E+00 0.00000E+00
 -1      1515 7.26000E+01 1.29900E+00 0.00000E+00
 -1      1516 7.18500E+01 2.59800E+00 0.00000E+00
 -1      1517 7.71000E+01 1.29900E+00 0.00000E+00
 -1      1518 7.56000E+01 1.29900E+00 0.00000E+00
 -1      1519 7.48500E+01 2.59800E+00 0.00000E+00
 -1      1520 8.01000E+01 1.29900E+00 0.00000E+00
 -1      1521 7.86000E+01 1.29900E+00 0.00000E+00
 -1      1522 7.78500E+01 2.59800E+00 0.00000E+00
 -1      1523 8.29500E+01 1.29900E+00 0.00000E+00
 -1      1524 8.15250E+01 1.29900E+00 0.00000E+00
 -1      1525 8.07750E+01 2.59800E+00 0.00000E+00
 -1      1526 8.59500E+01 1.29900E+00 0.00000E+00
 -1      1527 8.44500E+01 1.29900E+00 0.00000E+00
 -1      1528 8.37000E+01 2.59800E+00 0.00000E+00
 -1      1529 8.89500E+01 1.29900E+00 0.00000E+00
 -1      1530 8.74500E+01 1.29900E+00 0.00000E+00
 -1      1531 8.67000E+01 2.59800E+00 0.00000E+00
 -1      1532 9.19500E+01 1.29900E+00 0.00000E+00
 -1      1533 9.04500E+01 1.29900E+00 0.00000E+00
 -1      1534 8.97000E+01 2.59800E+00 0.00000E+00
 -1      1535 9.49500E+01 1.29900E+00 0.00000E+00
 -1      1536 9.34500E+01 1.29900E+00 0.00000E+00
 -1      1537 9.27000E+01 2.59800E+00 0.00000E+00
 -1      1538 9.79500E+01 1.29900E+00 0.00000E+00
 -1      1539 9.64500E+01 1.29900E+00 0.00000E+00
 -1      1540 9.57000E+01 2.59800E+00 0.00000E+00
 -1      1541 1.00950E+02 1.29900E+00 0.00000E+00
 -1      1542 9.94500E+01 1.29900E+00 0.00000E+00
 -1      1543 9.87000E+01 2.59800E+00 0.00000E+00
 -1      1544 1.03950E+02 1.29900E+00 0.00000E+00
 -1      1545 1.02450E+02 1.29900E+00 0.00000E+00
 -1      1546 1.01700E+02 2.59800E+00 0.00000E+00
 -1      1547 1.06950E+02 1.29900E+00 0.00000E+00
 -1      1548 1.05450E+02 1.29900E+00 0.00000E+00
 -1      1549 1.04700E+02 2.59800E+00 0.00000E+00
 -1      1550 1.09500E+02 1.29900E+00 0.00000E+00
 -1      1551 1.08225E+02 1.29900E+00 0.00000E+00
 -1      1552 1.07475E+02 2.59800E+00 0.00000E+00
 -1      1553 1.12200E+02 1.29900E+00 0.00000E+00
 -1      1554 1.10850E+02 1.29900E+00 0.00000E+00
 -1      1555 1.10100E+02 2.59800E+00 0.00000E+00
 -1      1556 1.14600E+02 1.29900E+00 0.00000E+00
 -1      1557 1.13400E+02 1.29900E+00 0.00000E+00
 -1      1558 1.12650E+02 2.59800E+00 0.00000E+00
 -1      1559 1.16700E+02 1.29900E+00 0.00000E+00
 -1      1560 1.15650E+02 1.29900E+00 0.00000E+00
 -1      1561 1.14900E+02 2.59800E+00 0.00000E+00
 -1      1562 1.19550E+02 1.29900E+00 0.00000E+00
 -1      1563 1.18125E+02 1.29900E+00 0.00000E+00
 -1      1564 1.17375E+02 2.59800E+00 0.00000E+00
 -1      1565 1.22400E+02 1.29900E+00 0.00000E+00
 -1      1566 1.20975E+02 1.29900E+00 0.00000E+00
 -1      1567 1.20225E+02 2.59800E+00 0.00000E+00
 -1      1568 1.25400E+02 1.29900E+00 0.00000E+00
 -1      1569 1.23900E+02 1.29900E+00 0.00000E+00
 -1      1570 1.23150E+02 2.59800E+00 0.00000E+00
 -1      1571 1.28400E+02 1.29900E+00 0.00000E+00
 -1      1572 1.26900E+02 1.29900E+00 0.00000E+00
 -1      1573 1.26150E+02 2.59800E+00 0.00000E+00
 -1      1574 1.31400E+02 1.29900E+00 0.00000E+00
 -1      1575 1.29900E+02 1.29900E+00 0.00000E+00
 -1      1576 1.29150E+02 2.59800E+00 0.00000E+00
 -1      1577 1.34400E+02 1.29900E+00 0.00000E+00
 -1      1578 1.32900E+02 1.29900E+00 0.00000E+00
 -1      1579 1.32150E+02 2.59800E+00 0.00000E+00
 -1      1580 1.37400E+02 1.29900E+00 0.00000E+00
 -1      1581 1.35900E+02 1.29900E+00 0.00000E+00
 -1      1582 1.35150E+02 2.59800E+00 0.00000E+00
 -1      1583 1.40400E+02 1.29900E+00 0.00000E+00
 -1      1584 1.38900E+02 1.29900E+00 0.00000E+00
 -1      1585 1.38150E+02 2.59800E+00 0.00000E+00
 -1      1586 1.43400E+02 1.29900E+00 0.00000E+00
 -1      1587 1.41900E+02 1.29900E+00 0.00000E+00
 -1      1588 1.41150E+02 2.59800E+00 0.00000E+00
 -1      1589 1.46400E+02 1.29900E+00 0.00000E+00
 -1      1590 1.44900E+02 1.29900E+00 0.00000E+00
 -1      1591 1.44150E+02 2.59800E+00 0.00000E+00
 -1      1592 1.48575E+02 1.47500E+00 0.00000E+00
 -1      1593 1.48701E+02 5.16250E+00 0.00000E+00
 -1      1594 1.48701E+02 3.68750E+00 0.00000E+00
 -1      1595 1.48701E+02 8.11250E+00 0.00000E+00
 -1      1596 1.48701E+02 6.63750E+00 0.00000E+00
 -1      1597 1.47402E+02 5.90000E+00 0.00000E+00
 -1      1598 1.48701E+02 1.10625E+01 0.00000E+00
 -1      1599 1.48701E+02 9.58750E+00 0.00000E+00
 -1      1600 1.47402E+02 8.85000E+00 0.00000E+00
 -1      1601 1.48701E+02 1.40125E+01 0.00000E+00
 -1      1602 1.48701E+02 1.25375E+01 0.00000E+00
 -1      1603 1.47402E+02 1.18000E+01 0.00000E+00
 -1      1604 1.48701E+02 1.69125E+01 0.00000E+00
 -1      1605 1.48701E+02 1.54625E+01 0.00000E+00
 -1      1606 1.47402E+02 1.47250E+01 0.00000E+00
 -1      1607 1.48701E+02 1.98625E+01 0.00000E+00
 -1      1608 1.48701E+02 1.83875E+01 0.00000E+00
 -1      1609 1.47402E+02 1.76500E+01 0.00000E+00
 -1      1610 1.48701E+02 2.28125E+01 0.00000E+00
 -1      1611 1.48701E+02 2.13375E+01 0.00000E+00
 -1      1612 1.47402E+02 2.06000E+01 0.00000E+00
 -1      1613 1.48701E+02 2.57625E+01 0.00000E+00
 -1      1614 1.48701E+02 2.42875E+01 0.00000E+00
 -1      1615 1.47402E+02 2.35500E+01 0.00000E+00
 -1      1616 1.48701E+02 2.87125E+01 0.00000E+00
 -1      1617 1.48701E+02 2.72375E+01 0.00000E+00
 -1      1618 1.47402E+02 2.65000E+01 0.00000E+00
 -1      1619 1.48701E+02 3.16625E+01 0.00000E+00
 -1      1620 1.48701E+02 3.01875E+01 0.00000E+00
 -1      1621 1.47402E+02 2.94500E+01 0.00000E+00
 -1      1622 1.48701E+02 3.45625E+01 0.00000E+00
 -1      1623 1.48701E+02 3.31125E+01 0.00000E+00
 -1      1624 1.47402E+02 3.23750E+01 0.00000E+00
 -1      1625 1.48701E+02 3.75125E+01 0.00000E+00
 -1      1626 1.48701E+02 3.60375E+01 0.00000E+00
 -1      1627 1.47402E+02 3.53000E+01 0.00000E+00
 -1      1628 1.48701E+02 4.04625E+01 0.00000E+00
 -1      1629 1.48701E+02 3.89875E+01 0.00000E+00
 -1      1630 1.47402E+02 3.82500E+01 0.00000E+00
 -1      1631 1.48701E+02 4.34125E+01 0.00000E+00
 -1      1632 1.48701E+02 4.19375E+01 0.00000E+00
 -1      1633 1.47402E+02 4.12000E+01 0.00000E+00
 -1      1634 1.48263E+02 4.60692E+01 0.00000E+00
 -1      1635 1.48263E+02 4.45942E+01 0.00000E+00
 -1      1636 1.46964E+02 4.38568E+01 0.00000E+00
 -1      1637 1.46088E+02 4.62202E+01 0.00000E+00
 -1      1638 1.20299E+02 1.25352E+01 0.00000E+00
 -1      1639 1.20378E+02 1.32757E+01 0.00000E+00
 -1      1640 1.19886E+02 1.09869E+01 0.00000E+00
 -1      1641 1.20116E+02 1.16831E+01 0.00000E+00
 -1      1642 1.19124E+02 9.58356E+00 0.00000E+00
 -1      1643 1.19495E+02 1.02185E+01 0.00000E+00
 -1      1644 1.18118E+02 8.17922E+00 0.00000E+00
 -1      1645 1.18673E+02 8.77490E+00 0.00000E+00
 -1      1646 1.16749E+02 7.21727E+00 0.00000E+00
 -1      1647 1.17363E+02 7.63548E+00 0.00000E+00
 -1      1648 1.15302E+02 6.57191E+00 0.00000E+00
 -1      1649 1.15972E+02 6.84576E+00 0.00000E+00
 -1      1650 1.13788E+02 6.16345E+00 0.00000E+00
 -1      1651 1.14499E+02 6.29356E+00 0.00000E+00
 -1      1652 1.12166E+02 6.08028E+00 0.00000E+00
 -1      1653 1.12919E+02 6.05757E+00 0.00000E+00
 -1      1654 1.10625E+02 6.44753E+00 0.00000E+00
 -1      1655 1.11319E+02 6.27752E+00 0.00000E+00
 -1      1656 1.09110E+02 7.03748E+00 0.00000E+00
 -1      1657 1.09796E+02 6.70464E+00 0.00000E+00
 -1      1658 1.07624E+02 7.93910E+00 0.00000E+00
 -1      1659 1.08252E+02 7.43533E+00 0.00000E+00
 -1      1660 1.06483E+02 9.27853E+00 0.00000E+00
 -1      1661 1.06973E+02 8.65448E+00 0.00000E+00
 -1      1662 1.05699E+02 1.07829E+01 0.00000E+00
 -1      1663 1.06026E+02 1.00923E+01 0.00000E+00
 -1      1664 1.05185E+02 1.24254E+01 0.00000E+00
 -1      1665 1.05358E+02 1.16513E+01 0.00000E+00
 -1      1666 1.05164E+02 1.40861E+01 0.00000E+00
 -1      1667 1.05164E+02 1.33434E+01 0.00000E+00
 -1      1668 1.05445E+02 1.56443E+01 0.00000E+00
 -1      1669 1.05295E+02 1.49372E+01 0.00000E+00
 -1      1670 1.06005E+02 1.71210E+01 0.00000E+00
 -1      1671 1.05708E+02 1.64522E+01 0.00000E+00
 -1      1672 1.06853E+02 1.85685E+01 0.00000E+00
 -1      1673 1.06386E+02 1.79354E+01 0.00000E+00
 -1      1674 1.08065E+02 1.96518E+01 0.00000E+00
 -1      1675 1.07517E+02 1.91719E+01 0.00000E+00
 -1      1676 1.09426E+02 2.06915E+01 0.00000E+00
 -1      1677 1.08721E+02 2.03070E+01 0.00000E+00
 -1      1678 1.11017E+02 2.11287E+01 0.00000E+00
 -1      1679 1.10319E+02 2.09278E+01 0.00000E+00
 -1      1680 1.12632E+02 2.12884E+01 0.00000E+00
 -1      1681 1.11880E+02 2.12369E+01 0.00000E+00
 -1      1682 1.14347E+02 2.12056E+01 0.00000E+00
 -1      1683 1.13552E+02 2.13293E+01 0.00000E+00
 -1      1684 1.15889E+02 2.06208E+01 0.00000E+00
 -1      1685 1.15203E+02 2.08910E+01 0.00000E+00
 -1      1686 1.17360E+02 1.97914E+01 0.00000E+00
 -1      1687 1.16702E+02 2.02362E+01 0.00000E+00
 -1      1688 1.18526E+02 1.86441E+01 0.00000E+00
 -1      1689 1.18020E+02 1.91803E+01 0.00000E+00
 -1      1690 1.19552E+02 1.72692E+01 0.00000E+00
 -1      1691 1.19139E+02 1.79643E+01 0.00000E+00
 -1      1692 1.20083E+02 1.57067E+01 0.00000E+00
 -1      1693 1.19855E+02 1.64069E+01 0.00000E+00
 -1      1694 1.20338E+02 1.41417E+01 0.00000E+00
 -1      1695 1.20261E+02 1.48688E+01 0.00000E+00
 -1      1696 2.79900E+00 2.18750E+00 0.00000E+00
 -1      1697 1.19382E+02 8.78686E+00 0.00000E+00
 -1      1698 1.47825E+02 2.77400E+00 0.00000E+00
 -1      1699 1.20800E+02 1.19844E+01 0.00000E+00
 -1      1700 1.20225E+02 1.03639E+01 0.00000E+00
 -1      1701 1.20943E+02 1.37025E+01 0.00000E+00
 -1      1702 1.18176E+02 7.43447E+00 0.00000E+00
 -1      1703 1.16644E+02 6.51921E+00 0.00000E+00
 -1      1704 1.15063E+02 5.86935E+00 0.00000E+00
 -1      1705 1.13391E+02 5.48513E+00 0.00000E+00
 -1      1706 1.11675E+02 5.57649E+00 0.00000E+00
 -1      1707 1.09999E+02 6.03084E+00 0.00000E+00
 -1      1708 1.08312E+02 6.68580E+00 0.00000E+00
 -1      1709 1.06803E+02 7.79902E+00 0.00000E+00
 -1      1710 1.05696E+02 9.32816E+00 0.00000E+00
 -1      1711 1.04898E+02 1.10103E+01 0.00000E+00
 -1      1712 1.04537E+02 1.27967E+01 0.00000E+00
 -1      1713 1.04647E+02 1.45658E+01 0.00000E+00
 -1      1714 1.05040E+02 1.62248E+01 0.00000E+00
 -1      1715 1.05683E+02 1.78470E+01 0.00000E+00
 -1      1716 1.06728E+02 1.92648E+01 0.00000E+00
 -1      1717 1.08048E+02 2.05234E+01 0.00000E+00
 -1      1718 1.09596E+02 2.14148E+01 0.00000E+00
 -1      1719 1.11352E+02 2.17593E+01 0.00000E+00
 -1      1720 1.13135E+02 2.19083E+01 0.00000E+00
 -1      1721 1.14912E+02 2.16346E+01 0.00000E+00
 -1      1722 1.16581E+02 2.09354E+01 0.00000E+00
 -1      1723 1.18054E+02 1.99397E+01 0.00000E+00
 -1      1724 1.19326E+02 1.86488E+01 0.00000E+00
 -1      1725 1.20242E+02 1.71067E+01 0.00000E+00
 -1      1726 1.20724E+02 1.54065E+01 0.00000E+00
 -1      1727 2.87400E+00 4.77875E+01 0.00000E+00
 -1      1728 3.89700E+00 4.04125E+01 0.00000E+00
 -1      1729 3.89700E+00 4.18875E+01 0.00000E+00
 -1      1730 3.89700E+00 4.33625E+01 0.00000E+00
 -1      1731 3.89700E+00 4.48375E+01 0.00000E+00
 -1      1732 5.19600E+00 4.26250E+01 0.00000E+00
 -1      1733 3.89700E+00 3.45500E+01 0.00000E+00
 -1      1734 3.89700E+00 3.60000E+01 0.00000E+00
 -1      1735 3.89700E+00 3.16000E+01 0.00000E+00
 -1      1736 3.89700E+00 3.30750E+01 0.00000E+00
 -1      1737 5.19600E+00 3.38000E+01 0.00000E+00
 -1      1738 3.89700E+00 2.86500E+01 0.00000E+00
 -1      1739 3.89700E+00 3.01250E+01 0.00000E+00
 -1      1740 5.19600E+00 3.08500E+01 0.00000E+00
 -1      1741 3.89700E+00 2.57000E+01 0.00000E+00
 -1      1742 3.89700E+00 2.71750E+01 0.00000E+00
 -1      1743 5.19600E+00 2.79000E+01 0.00000E+00
 -1      1744 3.89700E+00 2.27500E+01 0.00000E+00
 -1      1745 3.89700E+00 2.42250E+01 0.00000E+00
 -1      1746 5.19600E+00 2.49500E+01 0.00000E+00
 -1      1747 3.89700E+00 1.98000E+01 0.00000E+00
 -1      1748 3.89700E+00 2.12750E+01 0.00000E+00
 -1      1749 5.19600E+00 2.20000E+01 0.00000E+00
 -1      1750 3.89700E+00 1.69000E+01 0.00000E+00
 -1      1751 3.89700E+00 1.83500E+01 0.00000E+00
 -1      1752 5.19600E+00 1.90750E+01 0.00000E+00
 -1      1753 3.89700E+00 1.39500E+01 0.00000E+00
 -1      1754 3.89700E+00 1.54250E+01 0.00000E+00
 -1      1755 5.19600E+00 1.61500E+01 0.00000E+00
 -1      1756 3.89700E+00 1.10000E+01 0.00000E+00
 -1      1757 3.89700E+00 1.24750E+01 0.00000E+00
 -1      1758 5.19600E+00 1.32000E+01 0.00000E+00
 -1      1759 3.89700E+00 8.05000E+00 0.00000E+00
 -1      1760 3.89700E+00 9.52500E+00 0.00000E+00
 -1      1761 5.19600E+00 1.02500E+01 0.00000E+00
 -1      1762 3.89700E+00 5.10000E+00 0.00000E+00
 -1      1763 3.89700E+00 6.57500E+00 0.00000E+00
 -1      1764 5.19600E+00 7.30000E+00 0.00000E+00
 -1      1765 1.19906E+02 7.96501E+00 0.00000E+00
 -1      1766 1.20357E+02 8.77367E+00 0.00000E+00
 -1      1767 3.62400E+00 4.64885E+01 0.00000E+00
 -1      1768 3.54900E+00 3.48650E+00 0.00000E+00
 -1      1769 8.40000E+00 4.61030E+01 0.00000E+00
 -1      1770 9.90000E+00 4.61030E+01 0.00000E+00
 -1      1771 1.14000E+01 4.61030E+01 0.00000E+00
 -1      1772 1.29000E+01 4.61030E+01 0.00000E+00
 -1      1773 1.06500E+01 4.48040E+01 0.00000E+00
 -1      1774 1.44000E+01 4.61030E+01 0.00000E+00
 -1      1775 1.59000E+01 4.61030E+01 0.00000E+00
 -1      1776 1.36500E+01 4.48040E+01 0.00000E+00
 -1      1777 1.74000E+01 4.61030E+01 0.00000E+00
 -1      1778 1.89000E+01 4.61030E+01 0.00000E+00
 -1      1779 1.66500E+01 4.48040E+01 0.00000E+00
 -1      1780 2.04000E+01 4.61030E+01 0.00000E+00
 -1      1781 2.19000E+01 4.61030E+01 0.00000E+00
 -1      1782 1.96500E+01 4.48040E+01 0.00000E+00
 -1      1783 2.34000E+01 4.61030E+01 0.00000E+00
 -1      1784 2.49000E+01 4.61030E+01 0.00000E+00
 -1      1785 2.26500E+01 4.48040E+01 0.00000E+00
 -1      1786 2.64000E+01 4.61030E+01 0.00000E+00
 -1      1787 2.79000E+01 4.61030E+01 0.00000E+00
 -1      1788 2.56500E+01 4.48040E+01 0.00000E+00
 -1      1789 2.94000E+01 4.61030E+01 0.00000E+00
 -1      1790 3.09000E+01 4.61030E+01 0.00000E+00
 -1      1791 2.86500E+01 4.48040E+01 0.00000E+00
 -1      1792 3.24000E+01 4.61030E+01 0.00000E+00
 -1      1793 3.39000E+01 4.61030E+01 0.00000E+00
 -1      1794 3.16500E+01 4.48040E+01 0.00000E+00
 -1      1795 3.54000E+01 4.61030E+01 0.00000E+00
 -1      1796 3.69000E+01 4.61030E+01 0.00000E+00
 -1      1797 3.46500E+01 4.48040E+01 0.00000E+00
 -1      1798 3.84000E+01 4.61030E+01 0.00000E+00
 -1      1799 3.99000E+01 4.61030E+01 0.00000E+00
 -1      1800 3.76500E+01 4.48040E+01 0.00000E+00
 -1      1801 4.14000E+01 4.61030E+01 0.00000E+00
 -1      1802 4.29000E+01 4.61030E+01 0.00000E+00
 -1      1803 4.06500E+01 4.48040E+01 0.00000E+00
 -1      1804 4.44000E+01 4.61030E+01 0.00000E+00
 -1      1805 4.59000E+01 4.61030E+01 0.00000E+00
 -1      1806 4.36500E+01 4.48040E+01 0.00000E+00
 -1      1807 4.74000E+01 4.61030E+01 0.00000E+00
 -1      1808 4.89000E+01 4.61030E+01 0.00000E+00
 -1      1809 4.66500E+01 4.48040E+01 0.00000E+00
 -1      1810 5.04000E+01 4.61030E+01 0.00000E+00
 -1      1811 5.19000E+01 4.61030E+01 0.00000E+00
 -1      1812 4.96500E+01 4.48040E+01 0.00000E+00
 -1      1813 5.34000E+01 4.61030E+01 0.00000E+00
 -1      1814 5.49000E+01 4.61030E+01 0.00000E+00
 -1      1815 5.26500E+01 4.48040E+01 0.00000E+00
 -1      1816 5.64000E+01 4.61030E+01 0.00000E+00
 -1      1817 5.79000E+01 4.61030E+01 0.00000E+00
 -1      1818 5.56500E+01 4.48040E+01 0.00000E+00
 -1      1819 5.94000E+01 4.61030E+01 0.00000E+00
 -1      1820 6.09000E+01 4.61030E+01 0.00000E+00
 -1      1821 5.86500E+01 4.48040E+01 0.00000E+00
 -1      1822 6.24000E+01 4.61030E+01 0.00000E+00
 -1      1823 6.39000E+01 4.61030E+01 0.00000E+00
 -1      1824 6.16500E+01 4.48040E+01 0.00000E+00
 -1      1825 6.54000E+01 4.61030E+01 0.00000E+00
 -1      1826 6.69000E+01 4.61030E+01 0.00000E+00
 -1      1827 6.46500E+01 4.48040E+01 0.00000E+00
 -1      1828 6.84000E+01 4.61030E+01 0.00000E+00
 -1      1829 6.99000E+01 4.61030E+01 0.00000E+00
 -1      1830 6.76500E+01 4.48040E+01 0.00000E+00
 -1      1831 7.14000E+01 4.61030E+01 0.00000E+00
 -1      1832 7.29000E+01 4.61030E+01 0.00000E+00
 -1      1833 7.06500E+01 4.48040E+01 0.00000E+00
 -1      1834 7.44000E+01 4.61030E+01 0.00000E+00
 -1      1835 7.59000E+01 4.61030E+01 0.00000E+00
 -1      1836 7.36500E+01 4.48040E+01 0.00000E+00
 -1      1837 7.74000E+01 4.61030E+01 0.00000E+00
 -1      1838 7.89000E+01 4.61030E+01 0.00000E+00
 -1      1839 7.66500E+01 4.48040E+01 0.00000E+00
 -1      1840 8.04000E+01 4.61030E+01 0.00000E+00
 -1      1841 8.19000E+01 4.61030E+01 0.00000E+00
 -1      1842 7.96500E+01 4.48040E+01 0.00000E+00
 -1      1843 8.34000E+01 4.61030E+01 0.00000E+00
 -1      1844 8.49000E+01 4.61030E+01 0.00000E+00
 -1      1845 8.26500E+01 4.48040E+01 0.00000E+00
 -1      1846 8.64000E+01 4.61030E+01 0.00000E+00
 -1      1847 8.79000E+01 4.61030E+01 0.00000E+00
 -1      1848 8.56500E+01 4.48040E+01 0.00000E+00
 -1      1849 8.94000E+01 4.61030E+01 0.00000E+00
 -1      1850 9.09000E+01 4.61030E+01 0.00000E+00
 -1      1851 8.86500E+01 4.48040E+01 0.00000E+00
 -1      1852 9.24000E+01 4.61030E+01 0.00000E+00
 -1      1853 9.39000E+01 4.61030E+01 0.00000E+00
 -1      1854 9.16500E+01 4.48040E+01 0.00000E+00
 -1      1855 9.54000E+01 4.61030E+01 0.00000E+00
 -1      1856 9.69000E+01 4.61030E+01 0.00000E+00
 -1      1857 9.46500E+01 4.48040E+01 0.00000E+00
 -1      1858 9.84000E+01 4.61030E+01 0.00000E+00
 -1      1859 9.99000E+01 4.61030E+01 0.00000E+00
 -1      1860 9.76500E+01 4.48040E+01 0.00000E+00
 -1      1861 1.01400E+02 4.61030E+01 0.00000E+00
 -1      1862 1.02900E+02 4.61030E+01 0.00000E+00
 -1      1863 1.00650E+02 4.48040E+01 0.00000E+00
 -1      1864 1.04400E+02 4.61030E+01 0.00000E+00
 -1      1865 1.05900E+02 4.61030E+01 0.00000E+00
 -1      1866 1.03650E+02 4.48040E+01 0.00000E+00
 -1      1867 1.07400E+02 4.61030E+01 0.00000E+00
 -1      1868 1.08900E+02 4.61030E+01 0.00000E+00
 -1      1869 1.06650E+02 4.48040E+01 0.00000E+00
 -1      1870 1.10400E+02 4.61030E+01 0.00000E+00
 -1      1871 1.11900E+02 4.61030E+01 0.00000E+00
 -1      1872 1.09650E+02 4.48040E+01 0.00000E+00
 -1      1873 1.13400E+02 4.61030E+01 0.00000E+00
 -1      1874 1.14900E+02 4.61030E+01 0.00000E+00
 -1      1875 1.12650E+02 4.48040E+01 0.00000E+00
 -1      1876 1.16400E+02 4.61030E+01 0.00000E+00
 -1      1877 1.17900E+02 4.61030E+01 0.00000E+00
 -1      1878 1.15650E+02 4.48040E+01 0.00000E+00
 -1      1879 1.19400E+02 4.61030E+01 0.00000E+00
 -1      1880 1.20900E+02 4.61030E+01 0.00000E+00
 -1      1881 1.18650E+02 4.48040E+01 0.00000E+00
 -1      1882 1.22400E+02 4.61030E+01 0.00000E+00
 -1      1883 1.23900E+02 4.61030E+01 0.00000E+00
 -1      1884 1.21650E+02 4.48040E+01 0.00000E+00
 -1      1885 1.25400E+02 4.61030E+01 0.00000E+00
 -1      1886 1.26900E+02 4.61030E+01 0.00000E+00
 -1      1887 1.24650E+02 4.48040E+01 0.00000E+00
 -1      1888 1.28400E+02 4.61030E+01 0.00000E+00
 -1      1889 1.29900E+02 4.61030E+01 0.00000E+00
 -1      1890 1.27650E+02 4.48040E+01 0.00000E+00
 -1      1891 1.31400E+02 4.61030E+01 0.00000E+00
 -1      1892 1.32900E+02 4.61030E+01 0.00000E+00
 -1      1893 1.30650E+02 4.48040E+01 0.00000E+00
 -1      1894 1.34400E+02 4.61030E+01 0.00000E+00
 -1      1895 1.35900E+02 4.61030E+01 0.00000E+00
 -1      1896 1.33650E+02 4.48040E+01 0.00000E+00
 -1      1897 1.37400E+02 4.61030E+01 0.00000E+00
 -1      1898 1.38900E+02 4.61030E+01 0.00000E+00
 -1      1899 1.36650E+02 4.48040E+01 0.00000E+00
 -1      1900 1.40400E+02 4.61030E+01 0.00000E+00
 -1      1901 1.41900E+02 4.61030E+01 0.00000E+00
 -1      1902 1.39650E+02 4.48040E+01 0.00000E+00
 -1      1903 1.43244E+02 4.61616E+01 0.00000E+00
 -1      1904 1.44744E+02 4.61616E+01 0.00000E+00
 -1      1905 1.45182E+02 4.49799E+01 0.00000E+00
 -1      1906 1.42494E+02 4.48626E+01 0.00000E+00
 -1      1907 1.27500E+01 3.89700E+00 0.00000E+00
 -1      1908 1.12500E+01 3.89700E+00 0.00000E+00
 -1      1909 9.75000E+00 3.89700E+00 0.00000E+00
 -1      1910 8.25000E+00 3.89700E+00 0.00000E+00
 -1      1911 1.05000E+01 5.19600E+00 0.00000E+00
 -1      1912 1.57500E+01 3.89700E+00 0.00000E+00
 -1      1913 1.42500E+01 3.89700E+00 0.00000E+00
 -1      1914 1.35000E+01 5.19600E+00 0.00000E+00
 -1      1915 1.87500E+01 3.89700E+00 0.00000E+00
 -1      1916 1.72500E+01 3.89700E+00 0.00000E+00
 -1      1917 1.65000E+01 5.19600E+00 0.00000E+00
 -1      1918 2.17500E+01 3.89700E+00 0.00000E+00
 -1      1919 2.02500E+01 3.89700E+00 0.00000E+00
 -1      1920 1.95000E+01 5.19600E+00 0.00000E+00
 -1      1921 2.47500E+01 3.89700E+00 0.00000E+00
 -1      1922 2.32500E+01 3.89700E+00 0.00000E+00
 -1      1923 2.25000E+01 5.19600E+00 0.00000E+00
 -1      1924 2.77500E+01 3.89700E+00 0.00000E+00
 -1      1925 2.62500E+01 3.89700E+00 0.00000E+00
 -1      1926 2.55000E+01 5.19600E+00 0.00000E+00
 -1      1927 3.07500E+01 3.89700E+00 0.00000E+00
 -1      1928 2.92500E+01 3.89700E+00 0.00000E+00
 -1      1929 2.85000E+01 5.19600E+00 0.00000E+00
 -1      1930 3.37500E+01 3.89700E+00 0.00000E+00
 -1      1931 3.22500E+01 3.89700E+00 0.00000E+00
 -1      1932 3.15000E+01 5.19600E+00 0.00000E+00
 -1      1933 3.67500E+01 3.89700E+00 0.00000E+00
 -1      1934 3.52500E+01 3.89700E+00 0.00000E+00
 -1      1935 3.45000E+01 5.19600E+00 0.00000E+00
 -1      1936 3.96000E+01 3.89700E+00 0.00000E+00
 -1      1937 3.81750E+01 3.89700E+00 0.00000E+00
 -1      1938 3.74250E+01 5.19600E+00 0.00000E+00
 -1      1939 4.26000E+01 3.89700E+00 0.00000E+00
 -1      1940 4.11000E+01 3.89700E+00 0.00000E+00
 -1      1941 4.03500E+01 5.19600E+00 0.00000E+00
 -1      1942 4.56000E+01 3.89700E+00 0.00000E+00
 -1      1943 4.41000E+01 3.89700E+00 0.00000E+00
 -1      1944 4.33500E+01 5.19600E+00 0.00000E+00
 -1      1945 4.86000E+01 3.89700E+00 0.00000E+00
 -1      1946 4.71000E+01 3.89700E+00 0.00000E+00
 -1      1947 4.63500E+01 5.19600E+00 0.00000E+00
 -1      1948 5.16000E+01 3.89700E+00 0.00000E+00
 -1      1949 5.01000E+01 3.89700E+00 0.00000E+00
 -1      1950 4.93500E+01 5.19600E+00 0.00000E+00
 -1      1951 5.46000E+01 3.89700E+00 0.00000E+00
 -1      1952 5.31000E+01 3.89700E+00 0.00000E+00
 -1      1953 5.23500E+01 5.19600E+00 0.00000E+00
 -1      1954 5.76000E+01 3.89700E+00 0.00000E+00
 -1      1955 5.61000E+01 3.89700E+00 0.00000E+00
 -1      1956 5.53500E+01 5.19600E+00 0.00000E+00
 -1      1957 6.06000E+01 3.89700E+00 0.00000E+00
 -1      1958 5.91000E+01 3.89700E+00 0.00000E+00
 -1      1959 5.83500E+01 5.19600E+00 0.00000E+00
 -1      1960 6.36000E+01 3.89700E+00 0.00000E+00
 -1      1961 6.21000E+01 3.89700E+00 0.00000E+00
 -1      1962 6.13500E+01 5.19600E+00 0.00000E+00
 -1      1963 6.66000E+01 3.89700E+00 0.00000E+00
 -1      1964 6.51000E+01 3.89700E+00 0.00000E+00
 -1      1965 6.43500E+01 5.19600E+00 0.00000E+00
 -1      1966 6.96000E+01 3.89700E+00 0.00000E+00
 -1      1967 6.81000E+01 3.89700E+00 0.00000E+00
 -1      1968 6.73500E+01 5.19600E+00 0.00000E+00
 -1      1969 7.26000E+01 3.89700E+00 0.00000E+00
 -1      1970 7.11000E+01 3.89700E+00 0.00000E+00
 -1      1971 7.03500E+01 5.19600E+00 0.00000E+00
 -1      1972 7.56000E+01 3.89700E+00 0.00000E+00
 -1      1973 7.41000E+01 3.89700E+00 0.00000E+00
 -1      1974 7.33500E+01 5.19600E+00 0.00000E+00
 -1      1975 7.86000E+01 3.89700E+00 0.00000E+00
 -1      1976 7.71000E+01 3.89700E+00 0.00000E+00
 -1      1977 7.63500E+01 5.19600E+00 0.00000E+00
 -1      1978 8.14500E+01 3.89700E+00 0.00000E+00
 -1      1979 8.00250E+01 3.89700E+00 0.00000E+00
 -1      1980 7.92750E+01 5.19600E+00 0.00000E+00
 -1      1981 8.44500E+01 3.89700E+00 0.00000E+00
 -1      1982 8.29500E+01 3.89700E+00 0.00000E+00
 -1      1983 8.22000E+01 5.19600E+00 0.00000E+00
 -1      1984 8.74500E+01 3.89700E+00 0.00000E+00
 -1      1985 8.59500E+01 3.89700E+00 0.00000E+00
 -1      1986 8.52000E+01 5.19600E+00 0.00000E+00
 -1      1987 9.04500E+01 3.89700E+00 0.00000E+00
 -1      1988 8.89500E+01 3.89700E+00 0.00000E+00
 -1      1989 8.82000E+01 5.19600E+00 0.00000E+00
 -1      1990 9.34500E+01 3.89700E+00 0.00000E+00
 -1      1991 9.19500E+01 3.89700E+00 0.00000E+00
 -1      1992 9.12000E+01 5.19600E+00 0.00000E+00
 -1      1993 9.64500E+01 3.89700E+00 0.00000E+00
 -1      1994 9.49500E+01 3.89700E+00 0.00000E+00
 -1      1995 9.42000E+01 5.19600E+00 0.00000E+00
 -1      1996 9.94500E+01 3.89700E+00 0.00000E+00
 -1      1997 9.79500E+01 3.89700E+00 0.00000E+00
 -1      1998 9.72000E+01 5.19600E+00 0.00000E+00
 -1      1999 1.02450E+02 3.89700E+00 0.00000E+00
 -1      2000 1.00950E+02 3.89700E+00 0.00000E+00
 -1      2001 1.00200E+02 5.19600E+00 0.00000E+00
 -1      2002 1.05450E+02 3.89700E+00 0.00000E+00
 -1      2003 1.03950E+02 3.89700E+00 0.00000E+00
 -1      2004 1.03200E+02 5.19600E+00 0.00000E+00
 -1      2005 1.18088E+02 3.53934E+00 0.00000E+00
 -1      2006 1.16662E+02 3.53934E+00 0.00000E+00
 -1      2007 1.20938E+02 3.70691E+00 0.00000E+00
 -1      2008 1.19512E+02 3.70691E+00 0.00000E+00
 -1      2009 1.23938E+02 3.70691E+00 0.00000E+00
 -1      2010 1.22438E+02 3.70691E+00 0.00000E+00
 -1      2011 1.21725E+02 4.81582E+00 0.00000E+00
 -1      2012 1.26938E+02 3.70691E+00 0.00000E+00
 -1      2013 1.25438E+02 3.70691E+00 0.00000E+00
 -1      2014 1.24725E+02 4.81582E+00 0.00000E+00
 -1      2015 1.29938E+02 3.70691E+00 0.00000E+00
 -1      2016 1.28438E+02 3.70691E+00 0.00000E+00
 -1      2017 1.27725E+02 4.81582E+00 0.00000E+00
 -1      2018 1.32938E+02 3.70691E+00 0.00000E+00
 -1      2019 1.31438E+02 3.70691E+00 0.00000E+00
 -1      2020 1.30725E+02 4.81582E+00 0.00000E+00
 -1      2021 1.35938E+02 3.70691E+00 0.00000E+00
 -1      2022 1.34438E+02 3.70691E+00 0.00000E+00
 -1      2023 1.33725E+02 4.81582E+00 0.00000E+00
 -1      2024 1.38938E+02 3.70691E+00 0.00000E+00
 -1      2025 1.37438E+02 3.70691E+00 0.00000E+00
 -1      2026 1.36725E+02 4.81582E+00 0.00000E+00
 -1      2027 1.41938E+02 3.70691E+00 0.00000E+00
 -1      2028 1.40438E+02 3.70691E+00 0.00000E+00
 -1      2029 1.39725E+02 4.81582E+00 0.00000E+00
 -1      2030 1.44938E+02 3.70691E+00 0.00000E+00
 -1      2031 1.43438E+02 3.70691E+00 0.00000E+00
 -1      2032 1.42725E+02 4.81582E+00 0.00000E+00
 -1      2033 1.21424E+02 1.14046E+01 0.00000E+00
 -1      2034 1.21607E+02 1.22567E+01 0.00000E+00
 -1      2035 1.46103E+02 1.25375E+01 0.00000E+00
 -1      2036 1.46103E+02 1.10625E+01 0.00000E+00
 -1      2037 1.46103E+02 9.58750E+00 0.00000E+00
 -1      2038 1.46103E+02 8.11250E+00 0.00000E+00
 -1      2039 1.44804E+02 1.03250E+01 0.00000E+00
 -1      2040 1.46526E+02 3.51150E+00 0.00000E+00
 -1      2041 1.46103E+02 1.54375E+01 0.00000E+00
 -1      2042 1.46103E+02 1.39875E+01 0.00000E+00
 -1      2043 1.44804E+02 1.32500E+01 0.00000E+00
 -1      2044 1.46103E+02 1.83875E+01 0.00000E+00
 -1      2045 1.46103E+02 1.69125E+01 0.00000E+00
 -1      2046 1.44804E+02 1.61750E+01 0.00000E+00
 -1      2047 1.46103E+02 2.13375E+01 0.00000E+00
 -1      2048 1.46103E+02 1.98625E+01 0.00000E+00
 -1      2049 1.44804E+02 1.91250E+01 0.00000E+00
 -1      2050 1.46103E+02 2.42875E+01 0.00000E+00
 -1      2051 1.46103E+02 2.28125E+01 0.00000E+00
 -1      2052 1.44804E+02 2.20750E+01 0.00000E+00
 -1      2053 1.46103E+02 2.72375E+01 0.00000E+00
 -1      2054 1.46103E+02 2.57625E+01 0.00000E+00
 -1      2055 1.44804E+02 2.50250E+01 0.00000E+00
 -1      2056 1.46103E+02 3.01875E+01 0.00000E+00
 -1      2057 1.46103E+02 2.87125E+01 0.00000E+00
 -1      2058 1.44804E+02 2.79750E+01 0.00000E+00
 -1      2059 1.46103E+02 3.30875E+01 0.00000E+00
 -1      2060 1.46103E+02 3.16375E+01 0.00000E+00
 -1      2061 1.44804E+02 3.09000E+01 0.00000E+00
 -1      2062 1.46103E+02 3.60375E+01 0.00000E+00
 -1      2063 1.46103E+02 3.45625E+01 0.00000E+00
 -1      2064 1.44804E+02 3.38250E+01 0.00000E+00
 -1      2065 1.46103E+02 3.89875E+01 0.00000E+00
 -1      2066 1.46103E+02 3.75125E+01 0.00000E+00
 -1      2067 1.44804E+02 3.67750E+01 0.00000E+00
 -1      2068 1.46103E+02 4.19375E+01 0.00000E+00
 -1      2069 1.46103E+02 4.04625E+01 0.00000E+00
 -1      2070 1.44804E+02 3.97250E+01 0.00000E+00
 -1      2071 1.20748E+02 9.54207E+00 0.00000E+00
 -1      2072 1.21140E+02 1.03105E+01 0.00000E+00
 -1      2073 1.21272E+02 8.72022E+00 0.00000E+00
 -1      2074 1.21610E+02 1.32995E+01 0.00000E+00
 -1      2075 1.21570E+02 1.41655E+01 0.00000E+00
 -1      2076 3.89700E+00 3.74688E+01 0.00000E+00
 -1      2077 3.89700E+00 3.89437E+01 0.00000E+00
 -1      2078 5.19600E+00 3.96813E+01 0.00000E+00
 -1      2079 5.19600E+00 3.67438E+01 0.00000E+00
 -1      2080 1.16621E+02 5.31419E+00 0.00000E+00
 -1      2081 1.17398E+02 5.68571E+00 0.00000E+00
 -1      2082 1.09380E+02 5.50039E+00 0.00000E+00
 -1      2083 1.10209E+02 5.24328E+00 0.00000E+00
 -1      2084 1.07558E+02 6.18269E+00 0.00000E+00
 -1      2085 1.08416E+02 5.78484E+00 0.00000E+00
 -1      2086 1.05843E+02 7.57979E+00 0.00000E+00
 -1      2087 1.06494E+02 6.86442E+00 0.00000E+00
 -1      2088 1.04793E+02 9.35633E+00 0.00000E+00
 -1      2089 1.05250E+02 8.54256E+00 0.00000E+00
 -1      2090 1.03968E+02 1.11463E+01 0.00000E+00
 -1      2091 1.04310E+02 1.02779E+01 0.00000E+00
 -1      2092 1.03837E+02 1.32404E+01 0.00000E+00
 -1      2093 1.03857E+02 1.23224E+01 0.00000E+00
 -1      2094 1.04071E+02 1.50896E+01 0.00000E+00
 -1      2095 1.03941E+02 1.42384E+01 0.00000E+00
 -1      2096 1.04515E+02 1.68421E+01 0.00000E+00
 -1      2097 1.04252E+02 1.60343E+01 0.00000E+00
 -1      2098 1.05210E+02 1.85640E+01 0.00000E+00
 -1      2099 1.04830E+02 1.77497E+01 0.00000E+00
 -1      2100 1.06624E+02 2.00461E+01 0.00000E+00
 -1      2101 1.05960E+02 1.94427E+01 0.00000E+00
 -1      2102 1.07935E+02 2.13566E+01 0.00000E+00
 -1      2103 1.07280E+02 2.07014E+01 0.00000E+00
 -1      2104 1.06512E+02 2.08793E+01 0.00000E+00
 -1      2105 1.09823E+02 2.23620E+01 0.00000E+00
 -1      2106 1.08930E+02 2.21258E+01 0.00000E+00
 -1      2107 1.11697E+02 2.24980E+01 0.00000E+00
 -1      2108 1.10835E+02 2.23898E+01 0.00000E+00
 -1      2109 1.13561E+02 2.27018E+01 0.00000E+00
 -1      2110 1.12641E+02 2.26609E+01 0.00000E+00
 -1      2111 1.15607E+02 2.22035E+01 0.00000E+00
 -1      2112 1.14751E+02 2.25182E+01 0.00000E+00
 -1      2113 1.17232E+02 2.14344E+01 0.00000E+00
 -1      2114 1.16420E+02 2.18189E+01 0.00000E+00
 -1      2115 1.16258E+02 2.27025E+01 0.00000E+00
 -1      2116 1.18852E+02 2.01405E+01 0.00000E+00
 -1      2117 1.18192E+02 2.07515E+01 0.00000E+00
 -1      2118 1.20269E+02 1.88829E+01 0.00000E+00
 -1      2119 1.19657E+02 1.95627E+01 0.00000E+00
 -1      2120 1.21124E+02 1.69324E+01 0.00000E+00
 -1      2121 1.20820E+02 1.77947E+01 0.00000E+00
 -1      2122 1.21488E+02 1.51313E+01 0.00000E+00
 -1      2123 1.21309E+02 1.59692E+01 0.00000E+00
 -1      2124 4.84800E+00 4.21150E+00 0.00000E+00
 -1      2125 1.18226E+02 6.56867E+00 0.00000E+00
 -1      2126 1.18981E+02 7.11240E+00 0.00000E+00
 -1      2127 4.92300E+00 4.57510E+01 0.00000E+00
 -1      2128 1.45814E+02 4.62041E+00 0.00000E+00
 -1      2129 1.45814E+02 6.09541E+00 0.00000E+00
 -1      2130 1.22155E+02 1.47283E+01 0.00000E+00
 -1      2131 1.19956E+02 7.09921E+00 0.00000E+00
 -1      2132 6.42300E+00 4.57510E+01 0.00000E+00
 -1      2133 1.18203E+02 5.36364E+00 0.00000E+00
 -1      2134 7.17300E+00 4.44520E+01 0.00000E+00
 -1      2135 7.09800E+00 5.51050E+00 0.00000E+00
 -1      2136 6.34800E+00 4.21150E+00 0.00000E+00
 -1      2137 1.18800E+02 4.64825E+00 0.00000E+00
 -1      2138 1.08206E+02 3.93986E+00 0.00000E+00
 -1      2139 1.06931E+02 3.93986E+00 0.00000E+00
 -1      2140 1.10520E+02 3.65542E+00 0.00000E+00
 -1      2141 1.09170E+02 3.65542E+00 0.00000E+00
 -1      2142 1.13186E+02 3.98863E+00 0.00000E+00
 -1      2143 1.11986E+02 3.98863E+00 0.00000E+00
 -1      2144 1.15425E+02 3.62313E+00 0.00000E+00
 -1      2145 1.14375E+02 3.62313E+00 0.00000E+00
 -1      2146 1.06181E+02 5.23886E+00 0.00000E+00
 -1      2147 1.22234E+02 1.27197E+01 0.00000E+00
 -1      2148 1.44514E+02 6.83291E+00 0.00000E+00
 -1      2149 1.21947E+02 1.05828E+01 0.00000E+00
 -1      2150 1.45665E+02 4.31193E+01 0.00000E+00
 -1      2151 1.21888E+02 1.66572E+01 0.00000E+00
 -1      2152 1.21151E+02 1.87086E+01 0.00000E+00
 -1      2153 1.18031E+02 2.16351E+01 0.00000E+00
 -1      2154 1.14256E+02 2.32707E+01 0.00000E+00
 -1      2155 1.12123E+02 2.32914E+01 0.00000E+00
 -1      2156 1.08162E+02 2.23037E+01 0.00000E+00
 -1      2157 1.07395E+02 2.24817E+01 0.00000E+00
 -1      2158 1.08390E+02 2.32509E+01 0.00000E+00
 -1      2159 1.05107E+02 1.93454E+01 0.00000E+00
 -1      2160 1.04042E+02 1.75591E+01 0.00000E+00
 -1      2161 1.03547E+02 1.57069E+01 0.00000E+00
 -1      2162 1.03261E+02 1.37642E+01 0.00000E+00
 -1      2163 1.03268E+02 1.15900E+01 0.00000E+00
 -1      2164 1.03863E+02 9.49232E+00 0.00000E+00
 -1      2165 1.04940E+02 7.60796E+00 0.00000E+00
 -1      2166 1.06598E+02 5.96346E+00 0.00000E+00
 -1      2167 1.08626E+02 4.99728E+00 0.00000E+00
 -1      2168 1.14580E+02 5.11962E+00 0.00000E+00
 -1      2169 1.15383E+02 5.39798E+00 0.00000E+00
 -1      2170 1.14055E+02 4.09450E+00 0.00000E+00
 -1      2171 1.11139E+02 4.18586E+00 0.00000E+00
 -1      2172 1.16137E+02 4.56447E+00 0.00000E+00
 -1      2173 1.10169E+02 2.31007E+01 0.00000E+00
 -1      2174 1.19796E+02 2.03745E+01 0.00000E+00
 -1      2175 6.49500E+00 3.01125E+01 0.00000E+00
 -1      2176 6.49500E+00 3.15875E+01 0.00000E+00
 -1      2177 6.49500E+00 3.30625E+01 0.00000E+00
 -1      2178 6.49500E+00 3.45375E+01 0.00000E+00
 -1      2179 7.79400E+00 3.23250E+01 0.00000E+00
 -1      2180 6.49500E+00 2.42125E+01 0.00000E+00
 -1      2181 6.49500E+00 2.56875E+01 0.00000E+00
 -1      2182 6.49500E+00 2.12625E+01 0.00000E+00
 -1      2183 6.49500E+00 2.27375E+01 0.00000E+00
 -1      2184 7.79400E+00 2.34750E+01 0.00000E+00
 -1      2185 6.49500E+00 1.83625E+01 0.00000E+00
 -1      2186 6.49500E+00 1.98125E+01 0.00000E+00
 -1      2187 7.79400E+00 2.05500E+01 0.00000E+00
 -1      2188 6.49500E+00 1.54125E+01 0.00000E+00
 -1      2189 6.49500E+00 1.68875E+01 0.00000E+00
 -1      2190 7.79400E+00 1.76250E+01 0.00000E+00
 -1      2191 6.49500E+00 1.24625E+01 0.00000E+00
 -1      2192 6.49500E+00 1.39375E+01 0.00000E+00
 -1      2193 7.79400E+00 1.46750E+01 0.00000E+00
 -1      2194 6.49500E+00 9.51250E+00 0.00000E+00
 -1      2195 6.49500E+00 1.09875E+01 0.00000E+00
 -1      2196 7.79400E+00 1.17250E+01 0.00000E+00
 -1      2197 6.79650E+00 6.77400E+00 0.00000E+00
 -1      2198 6.79650E+00 8.24900E+00 0.00000E+00
 -1      2199 8.09550E+00 8.98650E+00 0.00000E+00
 -1      2200 8.69850E+00 6.45950E+00 0.00000E+00
 -1      2201 9.90000E+00 4.35050E+01 0.00000E+00
 -1      2202 1.14000E+01 4.35050E+01 0.00000E+00
 -1      2203 1.29000E+01 4.35050E+01 0.00000E+00
 -1      2204 1.44000E+01 4.35050E+01 0.00000E+00
 -1      2205 1.21500E+01 4.22060E+01 0.00000E+00
 -1      2206 1.59000E+01 4.35050E+01 0.00000E+00
 -1      2207 1.74000E+01 4.35050E+01 0.00000E+00
 -1      2208 1.51500E+01 4.22060E+01 0.00000E+00
 -1      2209 1.89000E+01 4.35050E+01 0.00000E+00
 -1      2210 2.04000E+01 4.35050E+01 0.00000E+00
 -1      2211 1.81500E+01 4.22060E+01 0.00000E+00
 -1      2212 2.19000E+01 4.35050E+01 0.00000E+00
 -1      2213 2.34000E+01 4.35050E+01 0.00000E+00
 -1      2214 2.11500E+01 4.22060E+01 0.00000E+00
 -1      2215 2.49000E+01 4.35050E+01 0.00000E+00
 -1      2216 2.64000E+01 4.35050E+01 0.00000E+00
 -1      2217 2.41500E+01 4.22060E+01 0.00000E+00
 -1      2218 2.79000E+01 4.35050E+01 0.00000E+00
 -1      2219 2.94000E+01 4.35050E+01 0.00000E+00
 -1      2220 2.71500E+01 4.22060E+01 0.00000E+00
 -1      2221 3.09000E+01 4.35050E+01 0.00000E+00
 -1      2222 3.24000E+01 4.35050E+01 0.00000E+00
 -1      2223 3.01500E+01 4.22060E+01 0.00000E+00
 -1      2224 3.39000E+01 4.35050E+01 0.00000E+00
 -1      2225 3.54000E+01 4.35050E+01 0.00000E+00
 -1      2226 3.31500E+01 4.22060E+01 0.00000E+00
 -1      2227 3.69000E+01 4.35050E+01 0.00000E+00
 -1      2228 3.84000E+01 4.35050E+01 0.00000E+00
 -1      2229 3.61500E+01 4.22060E+01 0.00000E+00
 -1      2230 3.99000E+01 4.35050E+01 0.00000E+00
 -1      2231 4.14000E+01 4.35050E+01 0.00000E+00
 -1      2232 3.91500E+01 4.22060E+01 0.00000E+00
 -1      2233 4.29000E+01 4.35050E+01 0.00000E+00
 -1      2234 4.44000E+01 4.35050E+01 0.00000E+00
 -1      2235 4.21500E+01 4.22060E+01 0.00000E+00
 -1      2236 4.59000E+01 4.35050E+01 0.00000E+00
 -1      2237 4.74000E+01 4.35050E+01 0.00000E+00
 -1      2238 4.51500E+01 4.22060E+01 0.00000E+00
 -1      2239 4.89000E+01 4.35050E+01 0.00000E+00
 -1      2240 5.04000E+01 4.35050E+01 0.00000E+00
 -1      2241 4.81500E+01 4.22060E+01 0.00000E+00
 -1      2242 5.19000E+01 4.35050E+01 0.00000E+00
 -1      2243 5.34000E+01 4.35050E+01 0.00000E+00
 -1      2244 5.11500E+01 4.22060E+01 0.00000E+00
 -1      2245 5.49000E+01 4.35050E+01 0.00000E+00
 -1      2246 5.64000E+01 4.35050E+01 0.00000E+00
 -1      2247 5.41500E+01 4.22060E+01 0.00000E+00
 -1      2248 5.79000E+01 4.35050E+01 0.00000E+00
 -1      2249 5.94000E+01 4.35050E+01 0.00000E+00
 -1      2250 5.71500E+01 4.22060E+01 0.00000E+00
 -1      2251 6.09000E+01 4.35050E+01 0.00000E+00
 -1      2252 6.24000E+01 4.35050E+01 0.00000E+00
 -1      2253 6.01500E+01 4.22060E+01 0.00000E+00
 -1      2254 6.39000E+01 4.35050E+01 0.00000E+00
 -1      2255 6.54000E+01 4.35050E+01 0.00000E+00
 -1      2256 6.31500E+01 4.22060E+01 0.00000E+00
 -1      2257 6.69000E+01 4.35050E+01 0.00000E+00
 -1      2258 6.84000E+01 4.35050E+01 0.00000E+00
 -1      2259 6.61500E+01 4.22060E+01 0.00000E+00
 -1      2260 6.99000E+01 4.35050E+01 0.00000E+00
 -1      2261 7.14000E+01 4.35050E+01 0.00000E+00
 -1      2262 6.91500E+01 4.22060E+01 0.00000E+00
 -1      2263 7.29000E+01 4.35050E+01 0.00000E+00
 -1      2264 7.44000E+01 4.35050E+01 0.00000E+00
 -1      2265 7.21500E+01 4.22060E+01 0.00000E+00
 -1      2266 7.59000E+01 4.35050E+01 0.00000E+00
 -1      2267 7.74000E+01 4.35050E+01 0.00000E+00
 -1      2268 7.51500E+01 4.22060E+01 0.00000E+00
 -1      2269 7.89000E+01 4.35050E+01 0.00000E+00
 -1      2270 8.04000E+01 4.35050E+01 0.00000E+00
 -1      2271 7.81500E+01 4.22060E+01 0.00000E+00
 -1      2272 8.19000E+01 4.35050E+01 0.00000E+00
 -1      2273 8.34000E+01 4.35050E+01 0.00000E+00
 -1      2274 8.11500E+01 4.22060E+01 0.00000E+00
 -1      2275 8.49000E+01 4.35050E+01 0.00000E+00
 -1      2276 8.64000E+01 4.35050E+01 0.00000E+00
 -1      2277 8.41500E+01 4.22060E+01 0.00000E+00
 -1      2278 8.79000E+01 4.35050E+01 0.00000E+00
 -1      2279 8.94000E+01 4.35050E+01 0.00000E+00
 -1      2280 8.71500E+01 4.22060E+01 0.00000E+00
 -1      2281 9.09000E+01 4.35050E+01 0.00000E+00
 -1      2282 9.24000E+01 4.35050E+01 0.00000E+00
 -1      2283 9.01500E+01 4.22060E+01 0.00000E+00
 -1      2284 9.39000E+01 4.35050E+01 0.00000E+00
 -1      2285 9.54000E+01 4.35050E+01 0.00000E+00
 -1      2286 9.31500E+01 4.22060E+01 0.00000E+00
 -1      2287 9.69000E+01 4.35050E+01 0.00000E+00
 -1      2288 9.84000E+01 4.35050E+01 0.00000E+00
 -1      2289 9.61500E+01 4.22060E+01 0.00000E+00
 -1      2290 9.99000E+01 4.35050E+01 0.00000E+00
 -1      2291 1.01400E+02 4.35050E+01 0.00000E+00
 -1      2292 9.91500E+01 4.22060E+01 0.00000E+00
 -1      2293 1.02900E+02 4.35050E+01 0.00000E+00
 -1      2294 1.04400E+02 4.35050E+01 0.00000E+00
 -1      2295 1.02150E+02 4.22060E+01 0.00000E+00
 -1      2296 1.05900E+02 4.35050E+01 0.00000E+00
 -1      2297 1.07400E+02 4.35050E+01 0.00000E+00
 -1      2298 1.05150E+02 4.22060E+01 0.00000E+00
 -1      2299 1.08900E+02 4.35050E+01 0.00000E+00
 -1      2300 1.10400E+02 4.35050E+01 0.00000E+00
 -1      2301 1.08150E+02 4.22060E+01 0.00000E+00
 -1      2302 1.11900E+02 4.35050E+01 0.00000E+00
 -1      2303 1.13400E+02 4.35050E+01 0.00000E+00
 -1      2304 1.11150E+02 4.22060E+01 0.00000E+00
 -1      2305 1.14900E+02 4.35050E+01 0.00000E+00
 -1      2306 1.16400E+02 4.35050E+01 0.00000E+00
 -1      2307 1.14150E+02 4.22060E+01 0.00000E+00
 -1      2308 1.17900E+02 4.35050E+01 0.00000E+00
 -1      2309 1.19400E+02 4.35050E+01 0.00000E+00
 -1      2310 1.17150E+02 4.22060E+01 0.00000E+00
 -1      2311 1.20900E+02 4.35050E+01 0.00000E+00
 -1      2312 1.22400E+02 4.35050E+01 0.00000E+00
 -1      2313 1.20150E+02 4.22060E+01 0.00000E+00
 -1      2314 1.23900E+02 4.35050E+01 0.00000E+00
 -1      2315 1.25400E+02 4.35050E+01 0.00000E+00
 -1      2316 1.23150E+02 4.22060E+01 0.00000E+00
 -1      2317 1.26900E+02 4.35050E+01 0.00000E+00
 -1      2318 1.28400E+02 4.35050E+01 0.00000E+00
 -1      2319 1.26150E+02 4.22060E+01 0.00000E+00
 -1      2320 1.29900E+02 4.35050E+01 0.00000E+00
 -1      2321 1.31400E+02 4.35050E+01 0.00000E+00
 -1      2322 1.29150E+02 4.22060E+01 0.00000E+00
 -1      2323 1.32900E+02 4.35050E+01 0.00000E+00
 -1      2324 1.34400E+02 4.35050E+01 0.00000E+00
 -1      2325 1.32150E+02 4.22060E+01 0.00000E+00
 -1      2326 1.35900E+02 4.35050E+01 0.00000E+00
 -1      2327 1.37400E+02 4.35050E+01 0.00000E+00
 -1      2328 1.35150E+02 4.22060E+01 0.00000E+00
 -1      2329 1.38900E+02 4.35050E+01 0.00000E+00
 -1      2330 1.40400E+02 4.35050E+01 0.00000E+00
 -1      2331 1.38150E+02 4.22060E+01 0.00000E+00
 -1      2332 1.16985E+01 6.45950E+00 0.00000E+00
 -1      2333 1.01985E+01 6.45950E+00 0.00000E+00
 -1      2334 9.89700E+00 7.72300E+00 0.00000E+00
 -1      2335 2.02500E+01 6.49500E+00 0.00000E+00
 -1      2336 1.87500E+01 6.49500E+00 0.00000E+00
 -1      2337 2.32500E+01 6.49500E+00 0.00000E+00
 -1      2338 2.17500E+01 6.49500E+00 0.00000E+00
 -1      2339 2.10000E+01 7.79400E+00 0.00000E+00
 -1      2340 2.62500E+01 6.49500E+00 0.00000E+00
 -1      2341 2.47500E+01 6.49500E+00 0.00000E+00
 -1      2342 2.40000E+01 7.79400E+00 0.00000E+00
 -1      2343 2.92500E+01 6.49500E+00 0.00000E+00
 -1      2344 2.77500E+01 6.49500E+00 0.00000E+00
 -1      2345 2.70000E+01 7.79400E+00 0.00000E+00
 -1      2346 3.22500E+01 6.49500E+00 0.00000E+00
 -1      2347 3.07500E+01 6.49500E+00 0.00000E+00
 -1      2348 3.00000E+01 7.79400E+00 0.00000E+00
 -1      2349 3.52500E+01 6.49500E+00 0.00000E+00
 -1      2350 3.37500E+01 6.49500E+00 0.00000E+00
 -1      2351 3.30000E+01 7.79400E+00 0.00000E+00
 -1      2352 3.81000E+01 6.49500E+00 0.00000E+00
 -1      2353 3.66750E+01 6.49500E+00 0.00000E+00
 -1      2354 3.59250E+01 7.79400E+00 0.00000E+00
 -1      2355 4.11000E+01 6.49500E+00 0.00000E+00
 -1      2356 3.96000E+01 6.49500E+00 0.00000E+00
 -1      2357 3.88500E+01 7.79400E+00 0.00000E+00
 -1      2358 4.41000E+01 6.49500E+00 0.00000E+00
 -1      2359 4.26000E+01 6.49500E+00 0.00000E+00
 -1      2360 4.18500E+01 7.79400E+00 0.00000E+00
 -1      2361 4.71000E+01 6.49500E+00 0.00000E+00
 -1      2362 4.56000E+01 6.49500E+00 0.00000E+00
 -1      2363 4.48500E+01 7.79400E+00 0.00000E+00
 -1      2364 5.01000E+01 6.49500E+00 0.00000E+00
 -1      2365 4.86000E+01 6.49500E+00 0.00000E+00
 -1      2366 4.78500E+01 7.79400E+00 0.00000E+00
 -1      2367 5.31000E+01 6.49500E+00 0.00000E+00
 -1      2368 5.16000E+01 6.49500E+00 0.00000E+00
 -1      2369 5.08500E+01 7.79400E+00 0.00000E+00
 -1      2370 5.61000E+01 6.49500E+00 0.00000E+00
 -1      2371 5.46000E+01 6.49500E+00 0.00000E+00
 -1      2372 5.38500E+01 7.79400E+00 0.00000E+00
 -1      2373 5.91000E+01 6.49500E+00 0.00000E+00
 -1      2374 5.76000E+01 6.49500E+00 0.00000E+00
 -1      2375 5.68500E+01 7.79400E+00 0.00000E+00
 -1      2376 6.21000E+01 6.49500E+00 0.00000E+00
 -1      2377 6.06000E+01 6.49500E+00 0.00000E+00
 -1      2378 5.98500E+01 7.79400E+00 0.00000E+00
 -1      2379 6.51000E+01 6.49500E+00 0.00000E+00
 -1      2380 6.36000E+01 6.49500E+00 0.00000E+00
 -1      2381 6.28500E+01 7.79400E+00 0.00000E+00
 -1      2382 6.81000E+01 6.49500E+00 0.00000E+00
 -1      2383 6.66000E+01 6.49500E+00 0.00000E+00
 -1      2384 6.58500E+01 7.79400E+00 0.00000E+00
 -1      2385 7.11000E+01 6.49500E+00 0.00000E+00
 -1      2386 6.96000E+01 6.49500E+00 0.00000E+00
 -1      2387 6.88500E+01 7.79400E+00 0.00000E+00
 -1      2388 7.41000E+01 6.49500E+00 0.00000E+00
 -1      2389 7.26000E+01 6.49500E+00 0.00000E+00
 -1      2390 7.18500E+01 7.79400E+00 0.00000E+00
 -1      2391 7.71000E+01 6.49500E+00 0.00000E+00
 -1      2392 7.56000E+01 6.49500E+00 0.00000E+00
 -1      2393 7.48500E+01 7.79400E+00 0.00000E+00
 -1      2394 7.99500E+01 6.49500E+00 0.00000E+00
 -1      2395 7.85250E+01 6.49500E+00 0.00000E+00
 -1      2396 7.77750E+01 7.79400E+00 0.00000E+00
 -1      2397 8.29500E+01 6.49500E+00 0.00000E+00
 -1      2398 8.14500E+01 6.49500E+00 0.00000E+00
 -1      2399 8.07000E+01 7.79400E+00 0.00000E+00
 -1      2400 8.59500E+01 6.49500E+00 0.00000E+00
 -1      2401 8.44500E+01 6.49500E+00 0.00000E+00
 -1      2402 8.37000E+01 7.79400E+00 0.00000E+00
 -1      2403 8.89500E+01 6.49500E+00 0.00000E+00
 -1      2404 8.74500E+01 6.49500E+00 0.00000E+00
 -1      2405 8.67000E+01 7.79400E+00 0.00000E+00
 -1      2406 9.19500E+01 6.49500E+00 0.00000E+00
 -1      2407 9.04500E+01 6.49500E+00 0.00000E+00
 -1      2408 8.97000E+01 7.79400E+00 0.00000E+00
 -1      2409 9.49500E+01 6.49500E+00 0.00000E+00
 -1      2410 9.34500E+01 6.49500E+00 0.00000E+00
 -1      2411 9.27000E+01 7.79400E+00 0.00000E+00
 -1      2412 9.79500E+01 6.49500E+00 0.00000E+00
 -1      2413 9.64500E+01 6.49500E+00 0.00000E+00
 -1      2414 9.57000E+01 7.79400E+00 0.00000E+00
 -1      2415 1.00950E+02 6.49500E+00 0.00000E+00
 -1      2416 9.94500E+01 6.49500E+00 0.00000E+00
 -1      2417 9.87000E+01 7.79400E+00 0.00000E+00
 -1      2418 1.23090E+02 1.21956E+01 0.00000E+00
 -1      2419 1.23093E+02 1.32383E+01 0.00000E+00
 -1      2420 1.05117E+02 5.92059E+00 0.00000E+00
 -1      2421 1.22475E+02 5.84095E+00 0.00000E+00
 -1      2422 1.20975E+02 5.84095E+00 0.00000E+00
 -1      2423 1.31475E+02 6.11482E+00 0.00000E+00
 -1      2424 1.29975E+02 6.11482E+00 0.00000E+00
 -1      2425 1.34475E+02 6.11482E+00 0.00000E+00
 -1      2426 1.32975E+02 6.11482E+00 0.00000E+00
 -1      2427 1.32225E+02 7.41382E+00 0.00000E+00
 -1      2428 1.37475E+02 6.11482E+00 0.00000E+00
 -1      2429 1.35975E+02 6.11482E+00 0.00000E+00
 -1      2430 1.35225E+02 7.41382E+00 0.00000E+00
 -1      2431 1.40475E+02 6.11482E+00 0.00000E+00
 -1      2432 1.38975E+02 6.11482E+00 0.00000E+00
 -1      2433 1.38225E+02 7.41382E+00 0.00000E+00
 -1      2434 1.43245E+02 6.47387E+00 0.00000E+00
 -1      2435 1.41745E+02 6.47387E+00 0.00000E+00
 -1      2436 1.40995E+02 7.77287E+00 0.00000E+00
 -1      2437 1.43534E+02 8.49096E+00 0.00000E+00
 -1      2438 1.22717E+02 9.79967E+00 0.00000E+00
 -1      2439 1.23000E+02 1.08938E+01 0.00000E+00
 -1      2440 1.43505E+02 1.98625E+01 0.00000E+00
 -1      2441 1.43505E+02 1.83875E+01 0.00000E+00
 -1      2442 1.22967E+02 1.43107E+01 0.00000E+00
 -1      2443 1.22886E+02 1.52766E+01 0.00000E+00
 -1      2444 1.43505E+02 2.28125E+01 0.00000E+00
 -1      2445 1.43505E+02 2.13375E+01 0.00000E+00
 -1      2446 1.42206E+02 2.06000E+01 0.00000E+00
 -1      2447 1.43505E+02 2.57625E+01 0.00000E+00
 -1      2448 1.43505E+02 2.42875E+01 0.00000E+00
 -1      2449 1.42206E+02 2.35500E+01 0.00000E+00
 -1      2450 1.43505E+02 2.87125E+01 0.00000E+00
 -1      2451 1.43505E+02 2.72375E+01 0.00000E+00
 -1      2452 1.42206E+02 2.65000E+01 0.00000E+00
 -1      2453 1.43505E+02 3.16125E+01 0.00000E+00
 -1      2454 1.43505E+02 3.01625E+01 0.00000E+00
 -1      2455 1.42206E+02 2.94250E+01 0.00000E+00
 -1      2456 1.43505E+02 3.45625E+01 0.00000E+00
 -1      2457 1.43505E+02 3.30875E+01 0.00000E+00
 -1      2458 1.42206E+02 3.23500E+01 0.00000E+00
 -1      2459 1.43505E+02 3.75125E+01 0.00000E+00
 -1      2460 1.43505E+02 3.60375E+01 0.00000E+00
 -1      2461 1.42206E+02 3.53000E+01 0.00000E+00
 -1      2462 1.43505E+02 4.04625E+01 0.00000E+00
 -1      2463 1.43505E+02 3.89875E+01 0.00000E+00
 -1      2464 1.42206E+02 3.82500E+01 0.00000E+00
 -1      2465 1.44321E+02 4.30606E+01 0.00000E+00
 -1      2466 1.21933E+02 8.26286E+00 0.00000E+00
 -1      2467 1.22325E+02 9.03127E+00 0.00000E+00
 -1      2468 1.23378E+02 9.34232E+00 0.00000E+00
 -1      2469 1.22699E+02 1.63144E+01 0.00000E+00
 -1      2470 1.22513E+02 1.72775E+01 0.00000E+00
 -1      2471 1.72500E+01 6.49500E+00 0.00000E+00
 -1      2472 1.57500E+01 6.49500E+00 0.00000E+00
 -1      2473 1.80000E+01 7.79400E+00 0.00000E+00
 -1      2474 1.43505E+02 1.39750E+01 0.00000E+00
 -1      2475 1.43505E+02 1.25250E+01 0.00000E+00
 -1      2476 1.14982E+02 2.40264E+01 0.00000E+00
 -1      2477 1.13792E+02 2.42101E+01 0.00000E+00
 -1      2478 1.04893E+02 2.02869E+01 0.00000E+00
 -1      2479 1.04143E+02 1.94082E+01 0.00000E+00
 -1      2480 1.43520E+02 1.12455E+01 0.00000E+00
 -1      2481 1.43520E+02 9.77048E+00 0.00000E+00
 -1      2482 1.42250E+02 9.41143E+00 0.00000E+00
 -1      2483 1.42221E+02 1.19705E+01 0.00000E+00
 -1      2484 1.43505E+02 1.69188E+01 0.00000E+00
 -1      2485 1.43505E+02 1.54438E+01 0.00000E+00
 -1      2486 1.42206E+02 1.47188E+01 0.00000E+00
 -1      2487 1.42206E+02 1.76563E+01 0.00000E+00
 -1      2488 1.28475E+02 6.11482E+00 0.00000E+00
 -1      2489 1.26975E+02 6.11482E+00 0.00000E+00
 -1      2490 1.29225E+02 7.41382E+00 0.00000E+00
 -1      2491 1.25475E+02 5.97789E+00 0.00000E+00
 -1      2492 1.23975E+02 5.97789E+00 0.00000E+00
 -1      2493 1.23225E+02 7.00301E+00 0.00000E+00
 -1      2494 1.26225E+02 7.27689E+00 0.00000E+00
 -1      2495 6.49500E+00 2.71625E+01 0.00000E+00
 -1      2496 6.49500E+00 2.86375E+01 0.00000E+00
 -1      2497 7.79400E+00 2.93750E+01 0.00000E+00
 -1      2498 7.79400E+00 2.64250E+01 0.00000E+00
 -1      2499 1.44742E+01 6.47725E+00 0.00000E+00
 -1      2500 1.29742E+01 6.47725E+00 0.00000E+00
 -1      2501 1.26728E+01 7.74075E+00 0.00000E+00
 -1      2502 1.52242E+01 7.77625E+00 0.00000E+00
 -1      2503 1.10653E+02 2.38881E+01 0.00000E+00
 -1      2504 1.09642E+02 2.38603E+01 0.00000E+00
 -1      2505 1.03929E+02 7.84613E+00 0.00000E+00
 -1      2506 1.04523E+02 6.88336E+00 0.00000E+00
 -1      2507 1.04106E+02 6.15877E+00 0.00000E+00
 -1      2508 1.02936E+02 9.59372E+00 0.00000E+00
 -1      2509 1.03420E+02 8.67213E+00 0.00000E+00
 -1      2510 1.02359E+02 1.20973E+01 0.00000E+00
 -1      2511 1.02470E+02 1.09211E+01 0.00000E+00
 -1      2512 1.02544E+02 1.43436E+01 0.00000E+00
 -1      2513 1.02440E+02 1.33455E+01 0.00000E+00
 -1      2514 1.02906E+02 1.62329E+01 0.00000E+00
 -1      2515 1.02725E+02 1.52882E+01 0.00000E+00
 -1      2516 1.01903E+02 1.48696E+01 0.00000E+00
 -1      2517 1.03429E+02 1.82802E+01 0.00000E+00
 -1      2518 1.03114E+02 1.73726E+01 0.00000E+00
 -1      2519 1.06115E+02 2.19320E+01 0.00000E+00
 -1      2520 1.05459E+02 2.12768E+01 0.00000E+00
 -1      2521 1.20747E+02 2.08503E+01 0.00000E+00
 -1      2522 1.19942E+02 2.14281E+01 0.00000E+00
 -1      2523 1.12540E+02 2.42139E+01 0.00000E+00
 -1      2524 1.11596E+02 2.40510E+01 0.00000E+00
 -1      2525 1.11069E+02 2.48106E+01 0.00000E+00
 -1      2526 1.17103E+02 2.34369E+01 0.00000E+00
 -1      2527 1.16290E+02 2.38215E+01 0.00000E+00
 -1      2528 1.19003E+02 2.20911E+01 0.00000E+00
 -1      2529 1.18043E+02 2.27739E+01 0.00000E+00
 -1      2530 1.18075E+02 2.38928E+01 0.00000E+00
 -1      2531 1.19954E+02 2.25668E+01 0.00000E+00
 -1      2532 1.22192E+02 1.85517E+01 0.00000E+00
 -1      2533 1.21641E+02 1.96399E+01 0.00000E+00
 -1      2534 1.19628E+02 5.53121E+00 0.00000E+00
 -1      2535 6.55950E+00 4.28890E+01 0.00000E+00
 -1      2536 8.53650E+00 4.32410E+01 0.00000E+00
 -1      2537 9.28650E+00 4.19420E+01 0.00000E+00
 -1      2538 6.55950E+00 4.14140E+01 0.00000E+00
 -1      2539 1.20378E+02 6.55634E+00 0.00000E+00
 -1      2540 7.79400E+00 3.52687E+01 0.00000E+00
 -1      2541 6.49500E+00 3.60062E+01 0.00000E+00
 -1      2542 6.49500E+00 3.74750E+01 0.00000E+00
 -1      2543 1.15826E+02 2.47608E+01 0.00000E+00
 -1      2544 1.23823E+02 1.37866E+01 0.00000E+00
 -1      2545 1.02096E+02 6.98477E+00 0.00000E+00
 -1      2546 1.01346E+02 8.28377E+00 0.00000E+00
 -1      2547 1.23859E+02 1.14125E+01 0.00000E+00
 -1      2548 1.02606E+02 6.15877E+00 0.00000E+00
 -1      2549 1.03002E+02 7.94754E+00 0.00000E+00
 -1      2550 1.23003E+02 1.82089E+01 0.00000E+00
 -1      2551 1.23511E+02 1.58969E+01 0.00000E+00
 -1      2552 1.42758E+02 4.35929E+01 0.00000E+00
 -1      2553 1.43241E+02 4.17323E+01 0.00000E+00
 -1      2554 1.41942E+02 4.09948E+01 0.00000E+00
 -1      2555 1.41414E+02 4.35342E+01 0.00000E+00
 -1      2556 1.21303E+02 7.40895E+00 0.00000E+00
 -1      2557 1.22356E+02 7.71999E+00 0.00000E+00
 -1      2558 1.09358E+02 2.48256E+01 0.00000E+00
 -1      2559 1.08874E+02 2.40383E+01 0.00000E+00
 -1      2560 1.08106E+02 2.42162E+01 0.00000E+00
 -1      2561 6.52725E+00 3.87101E+01 0.00000E+00
 -1      2562 6.52725E+00 4.01789E+01 0.00000E+00
 -1      2563 7.89075E+00 4.04429E+01 0.00000E+00
 -1      2564 7.82625E+00 3.79726E+01 0.00000E+00
 -1      2565 1.13265E+02 2.49696E+01 0.00000E+00
 -1      2566 1.03215E+02 1.92217E+01 0.00000E+00
 -1      2567 1.06342E+02 2.28792E+01 0.00000E+00
 -1      2568 1.02293E+02 1.69540E+01 0.00000E+00
 -1      2569 1.01642E+02 1.26767E+01 0.00000E+00
 -1      2570 1.21788E+02 2.06934E+01 0.00000E+00
 -1      2571 1.21934E+02 2.17469E+01 0.00000E+00
 -1      2572 1.22828E+02 2.05365E+01 0.00000E+00
 -1      2573 1.02027E+02 1.01010E+01 0.00000E+00
 -1      2574 1.01583E+02 9.28078E+00 0.00000E+00
 -1      2575 1.01117E+02 1.06082E+01 0.00000E+00
 -1      2576 1.04496E+02 2.13396E+01 0.00000E+00
 -1      2577 1.40664E+02 4.22352E+01 0.00000E+00
 -1      2578 9.09300E+00 1.98250E+01 0.00000E+00
 -1      2579 9.09300E+00 2.12750E+01 0.00000E+00
 -1      2580 9.09300E+00 2.27500E+01 0.00000E+00
 -1      2581 9.09300E+00 2.42250E+01 0.00000E+00
 -1      2582 1.03920E+01 2.20250E+01 0.00000E+00
 -1      2583 9.09300E+00 1.39375E+01 0.00000E+00
 -1      2584 9.09300E+00 1.54125E+01 0.00000E+00
 -1      2585 9.09300E+00 1.09875E+01 0.00000E+00
 -1      2586 9.09300E+00 1.24625E+01 0.00000E+00
 -1      2587 1.03920E+01 1.32000E+01 0.00000E+00
 -1      2588 9.64575E+00 8.72350E+00 0.00000E+00
 -1      2589 9.34425E+00 9.98700E+00 0.00000E+00
 -1      2590 1.06433E+01 1.07245E+01 0.00000E+00
 -1      2591 1.11458E+01 8.72350E+00 0.00000E+00
 -1      2592 1.14000E+01 4.09070E+01 0.00000E+00
 -1      2593 1.29000E+01 4.09070E+01 0.00000E+00
 -1      2594 9.09300E+00 1.68813E+01 0.00000E+00
 -1      2595 9.09300E+00 1.83563E+01 0.00000E+00
 -1      2596 1.03920E+01 1.90812E+01 0.00000E+00
 -1      2597 1.03920E+01 1.61437E+01 0.00000E+00
 -1      2598 1.44000E+01 4.09070E+01 0.00000E+00
 -1      2599 1.59000E+01 4.09070E+01 0.00000E+00
 -1      2600 1.36500E+01 3.96080E+01 0.00000E+00
 -1      2601 1.74000E+01 4.09070E+01 0.00000E+00
 -1      2602 1.89000E+01 4.09070E+01 0.00000E+00
 -1      2603 1.66500E+01 3.96080E+01 0.00000E+00
 -1      2604 2.04000E+01 4.09070E+01 0.00000E+00
 -1      2605 2.19000E+01 4.09070E+01 0.00000E+00
 -1      2606 1.96500E+01 3.96080E+01 0.00000E+00
 -1      2607 2.34000E+01 4.09070E+01 0.00000E+00
 -1      2608 2.49000E+01 4.09070E+01 0.00000E+00
 -1      2609 2.26500E+01 3.96080E+01 0.00000E+00
 -1      2610 2.64000E+01 4.09070E+01 0.00000E+00
 -1      2611 2.79000E+01 4.09070E+01 0.00000E+00
 -1      2612 2.56500E+01 3.96080E+01 0.00000E+00
 -1      2613 2.94000E+01 4.09070E+01 0.00000E+00
 -1      2614 3.09000E+01 4.09070E+01 0.00000E+00
 -1      2615 2.86500E+01 3.96080E+01 0.00000E+00
 -1      2616 3.24000E+01 4.09070E+01 0.00000E+00
 -1      2617 3.39000E+01 4.09070E+01 0.00000E+00
 -1      2618 3.16500E+01 3.96080E+01 0.00000E+00
 -1      2619 3.54000E+01 4.09070E+01 0.00000E+00
 -1      2620 3.69000E+01 4.09070E+01 0.00000E+00
 -1      2621 3.46500E+01 3.96080E+01 0.00000E+00
 -1      2622 3.84000E+01 4.09070E+01 0.00000E+00
 -1      2623 3.99000E+01 4.09070E+01 0.00000E+00
 -1      2624 3.76500E+01 3.96080E+01 0.00000E+00
 -1      2625 4.14000E+01 4.09070E+01 0.00000E+00
 -1      2626 4.29000E+01 4.09070E+01 0.00000E+00
 -1      2627 4.06500E+01 3.96080E+01 0.00000E+00
 -1      2628 4.44000E+01 4.09070E+01 0.00000E+00
 -1      2629 4.59000E+01 4.09070E+01 0.00000E+00
 -1      2630 4.36500E+01 3.96080E+01 0.00000E+00
 -1      2631 4.74000E+01 4.09070E+01 0.00000E+00
 -1      2632 4.89000E+01 4.09070E+01 0.00000E+00
 -1      2633 4.66500E+01 3.96080E+01 0.00000E+00
 -1      2634 5.04000E+01 4.09070E+01 0.00000E+00
 -1      2635 5.19000E+01 4.09070E+01 0.00000E+00
 -1      2636 4.96500E+01 3.96080E+01 0.00000E+00
 -1      2637 5.34000E+01 4.09070E+01 0.00000E+00
 -1      2638 5.49000E+01 4.09070E+01 0.00000E+00
 -1      2639 5.26500E+01 3.96080E+01 0.00000E+00
 -1      2640 5.64000E+01 4.09070E+01 0.00000E+00
 -1      2641 5.79000E+01 4.09070E+01 0.00000E+00
 -1      2642 5.56500E+01 3.96080E+01 0.00000E+00
 -1      2643 5.94000E+01 4.09070E+01 0.00000E+00
 -1      2644 6.09000E+01 4.09070E+01 0.00000E+00
 -1      2645 5.86500E+01 3.96080E+01 0.00000E+00
 -1      2646 6.24000E+01 4.09070E+01 0.00000E+00
 -1      2647 6.39000E+01 4.09070E+01 0.00000E+00
 -1      2648 6.16500E+01 3.96080E+01 0.00000E+00
 -1      2649 6.54000E+01 4.09070E+01 0.00000E+00
 -1      2650 6.69000E+01 4.09070E+01 0.00000E+00
 -1      2651 6.46500E+01 3.96080E+01 0.00000E+00
 -1      2652 6.84000E+01 4.09070E+01 0.00000E+00
 -1      2653 6.99000E+01 4.09070E+01 0.00000E+00
 -1      2654 6.76500E+01 3.96080E+01 0.00000E+00
 -1      2655 7.14000E+01 4.09070E+01 0.00000E+00
 -1      2656 7.29000E+01 4.09070E+01 0.00000E+00
 -1      2657 7.06500E+01 3.96080E+01 0.00000E+00
 -1      2658 7.44000E+01 4.09070E+01 0.00000E+00
 -1      2659 7.59000E+01 4.09070E+01 0.00000E+00
 -1      2660 7.36500E+01 3.96080E+01 0.00000E+00
 -1      2661 7.74000E+01 4.09070E+01 0.00000E+00
 -1      2662 7.89000E+01 4.09070E+01 0.00000E+00
 -1      2663 7.66500E+01 3.96080E+01 0.00000E+00
 -1      2664 8.04000E+01 4.09070E+01 0.00000E+00
 -1      2665 8.19000E+01 4.09070E+01 0.00000E+00
 -1      2666 7.96500E+01 3.96080E+01 0.00000E+00
 -1      2667 8.34000E+01 4.09070E+01 0.00000E+00
 -1      2668 8.49000E+01 4.09070E+01 0.00000E+00
 -1      2669 8.26500E+01 3.96080E+01 0.00000E+00
 -1      2670 8.64000E+01 4.09070E+01 0.00000E+00
 -1      2671 8.79000E+01 4.09070E+01 0.00000E+00
 -1      2672 8.56500E+01 3.96080E+01 0.00000E+00
 -1      2673 8.94000E+01 4.09070E+01 0.00000E+00
 -1      2674 9.09000E+01 4.09070E+01 0.00000E+00
 -1      2675 8.86500E+01 3.96080E+01 0.00000E+00
 -1      2676 9.24000E+01 4.09070E+01 0.00000E+00
 -1      2677 9.39000E+01 4.09070E+01 0.00000E+00
 -1      2678 9.16500E+01 3.96080E+01 0.00000E+00
 -1      2679 9.54000E+01 4.09070E+01 0.00000E+00
 -1      2680 9.69000E+01 4.09070E+01 0.00000E+00
 -1      2681 9.46500E+01 3.96080E+01 0.00000E+00
 -1      2682 9.84000E+01 4.09070E+01 0.00000E+00
 -1      2683 9.99000E+01 4.09070E+01 0.00000E+00
 -1      2684 9.76500E+01 3.96080E+01 0.00000E+00
 -1      2685 1.01400E+02 4.09070E+01 0.00000E+00
 -1      2686 1.02900E+02 4.09070E+01 0.00000E+00
 -1      2687 1.00650E+02 3.96080E+01 0.00000E+00
 -1      2688 1.04400E+02 4.09070E+01 0.00000E+00
 -1      2689 1.05900E+02 4.09070E+01 0.00000E+00
 -1      2690 1.03650E+02 3.96080E+01 0.00000E+00
 -1      2691 1.07400E+02 4.09070E+01 0.00000E+00
 -1      2692 1.08900E+02 4.09070E+01 0.00000E+00
 -1      2693 1.06650E+02 3.96080E+01 0.00000E+00
 -1      2694 1.10400E+02 4.09070E+01 0.00000E+00
 -1      2695 1.11900E+02 4.09070E+01 0.00000E+00
 -1      2696 1.09650E+02 3.96080E+01 0.00000E+00
 -1      2697 1.13400E+02 4.09070E+01 0.00000E+00
 -1      2698 1.14900E+02 4.09070E+01 0.00000E+00
 -1      2699 1.12650E+02 3.96080E+01 0.00000E+00
 -1      2700 1.16400E+02 4.09070E+01 0.00000E+00
 -1      2701 1.17900E+02 4.09070E+01 0.00000E+00
 -1      2702 1.15650E+02 3.96080E+01 0.00000E+00
 -1      2703 1.19400E+02 4.09070E+01 0.00000E+00
 -1      2704 1.20900E+02 4.09070E+01 0.00000E+00
 -1      2705 1.18650E+02 3.96080E+01 0.00000E+00
 -1      2706 1.22400E+02 4.09070E+01 0.00000E+00
 -1      2707 1.23900E+02 4.09070E+01 0.00000E+00
 -1      2708 1.21650E+02 3.96080E+01 0.00000E+00
 -1      2709 1.25400E+02 4.09070E+01 0.00000E+00
 -1      2710 1.26900E+02 4.09070E+01 0.00000E+00
 -1      2711 1.24650E+02 3.96080E+01 0.00000E+00
 -1      2712 1.28400E+02 4.09070E+01 0.00000E+00
 -1      2713 1.29900E+02 4.09070E+01 0.00000E+00
 -1      2714 1.27650E+02 3.96080E+01 0.00000E+00
 -1      2715 1.31400E+02 4.09070E+01 0.00000E+00
 -1      2716 1.32900E+02 4.09070E+01 0.00000E+00
 -1      2717 1.30650E+02 3.96080E+01 0.00000E+00
 -1      2718 1.34400E+02 4.09070E+01 0.00000E+00
 -1      2719 1.35900E+02 4.09070E+01 0.00000E+00
 -1      2720 1.33650E+02 3.96080E+01 0.00000E+00
 -1      2721 1.37400E+02 4.09070E+01 0.00000E+00
 -1      2722 1.38900E+02 4.09070E+01 0.00000E+00
 -1      2723 1.36650E+02 3.96080E+01 0.00000E+00
 -1      2724 1.23856E+02 7.85693E+00 0.00000E+00
 -1      2725 2.47500E+01 9.09300E+00 0.00000E+00
 -1      2726 2.32500E+01 9.09300E+00 0.00000E+00
 -1      2727 1.40907E+02 2.72375E+01 0.00000E+00
 -1      2728 1.40907E+02 2.57625E+01 0.00000E+00
 -1      2729 2.17500E+01 9.09300E+00 0.00000E+00
 -1      2730 2.02500E+01 9.09300E+00 0.00000E+00
 -1      2731 2.25000E+01 1.03920E+01 0.00000E+00
 -1      2732 1.35975E+02 8.71282E+00 0.00000E+00
 -1      2733 1.34475E+02 8.71282E+00 0.00000E+00
 -1      2734 3.07500E+01 9.09300E+00 0.00000E+00
 -1      2735 2.92500E+01 9.09300E+00 0.00000E+00
 -1      2736 3.37500E+01 9.09300E+00 0.00000E+00
 -1      2737 3.22500E+01 9.09300E+00 0.00000E+00
 -1      2738 3.15000E+01 1.03920E+01 0.00000E+00
 -1      2739 3.66000E+01 9.09300E+00 0.00000E+00
 -1      2740 3.51750E+01 9.09300E+00 0.00000E+00
 -1      2741 3.44250E+01 1.03920E+01 0.00000E+00
 -1      2742 3.96000E+01 9.09300E+00 0.00000E+00
 -1      2743 3.81000E+01 9.09300E+00 0.00000E+00
 -1      2744 3.73500E+01 1.03920E+01 0.00000E+00
 -1      2745 4.26000E+01 9.09300E+00 0.00000E+00
 -1      2746 4.11000E+01 9.09300E+00 0.00000E+00
 -1      2747 4.03500E+01 1.03920E+01 0.00000E+00
 -1      2748 4.56000E+01 9.09300E+00 0.00000E+00
 -1      2749 4.41000E+01 9.09300E+00 0.00000E+00
 -1      2750 4.33500E+01 1.03920E+01 0.00000E+00
 -1      2751 4.86000E+01 9.09300E+00 0.00000E+00
 -1      2752 4.71000E+01 9.09300E+00 0.00000E+00
 -1      2753 4.63500E+01 1.03920E+01 0.00000E+00
 -1      2754 5.16000E+01 9.09300E+00 0.00000E+00
 -1      2755 5.01000E+01 9.09300E+00 0.00000E+00
 -1      2756 4.93500E+01 1.03920E+01 0.00000E+00
 -1      2757 5.46000E+01 9.09300E+00 0.00000E+00
 -1      2758 5.31000E+01 9.09300E+00 0.00000E+00
 -1      2759 5.23500E+01 1.03920E+01 0.00000E+00
 -1      2760 5.76000E+01 9.09300E+00 0.00000E+00
 -1      2761 5.61000E+01 9.09300E+00 0.00000E+00
 -1      2762 5.53500E+01 1.03920E+01 0.00000E+00
 -1      2763 6.06000E+01 9.09300E+00 0.00000E+00
 -1      2764 5.91000E+01 9.09300E+00 0.00000E+00
 -1      2765 5.83500E+01 1.03920E+01 0.00000E+00
 -1      2766 6.36000E+01 9.09300E+00 0.00000E+00
 -1      2767 6.21000E+01 9.09300E+00 0.00000E+00
 -1      2768 6.13500E+01 1.03920E+01 0.00000E+00
 -1      2769 6.66000E+01 9.09300E+00 0.00000E+00
 -1      2770 6.51000E+01 9.09300E+00 0.00000E+00
 -1      2771 6.43500E+01 1.03920E+01 0.00000E+00
 -1      2772 6.96000E+01 9.09300E+00 0.00000E+00
 -1      2773 6.81000E+01 9.09300E+00 0.00000E+00
 -1      2774 6.73500E+01 1.03920E+01 0.00000E+00
 -1      2775 7.26000E+01 9.09300E+00 0.00000E+00
 -1      2776 7.11000E+01 9.09300E+00 0.00000E+00
 -1      2777 7.03500E+01 1.03920E+01 0.00000E+00
 -1      2778 7.56000E+01 9.09300E+00 0.00000E+00
 -1      2779 7.41000E+01 9.09300E+00 0.00000E+00
 -1      2780 7.33500E+01 1.03920E+01 0.00000E+00
 -1      2781 7.84500E+01 9.09300E+00 0.00000E+00
 -1      2782 7.70250E+01 9.09300E+00 0.00000E+00
 -1      2783 7.62750E+01 1.03920E+01 0.00000E+00
 -1      2784 8.14500E+01 9.09300E+00 0.00000E+00
 -1      2785 7.99500E+01 9.09300E+00 0.00000E+00
 -1      2786 7.92000E+01 1.03920E+01 0.00000E+00
 -1      2787 8.44500E+01 9.09300E+00 0.00000E+00
 -1      2788 8.29500E+01 9.09300E+00 0.00000E+00
 -1      2789 8.22000E+01 1.03920E+01 0.00000E+00
 -1      2790 8.74500E+01 9.09300E+00 0.00000E+00
 -1      2791 8.59500E+01 9.09300E+00 0.00000E+00
 -1      2792 8.52000E+01 1.03920E+01 0.00000E+00
 -1      2793 9.04500E+01 9.09300E+00 0.00000E+00
 -1      2794 8.89500E+01 9.09300E+00 0.00000E+00
 -1      2795 8.82000E+01 1.03920E+01 0.00000E+00
 -1      2796 9.34500E+01 9.09300E+00 0.00000E+00
 -1      2797 9.19500E+01 9.09300E+00 0.00000E+00
 -1      2798 9.12000E+01 1.03920E+01 0.00000E+00
 -1      2799 9.64500E+01 9.09300E+00 0.00000E+00
 -1      2800 9.49500E+01 9.09300E+00 0.00000E+00
 -1      2801 9.42000E+01 1.03920E+01 0.00000E+00
 -1      2802 1.24921E+02 1.06854E+01 0.00000E+00
 -1      2803 1.25011E+02 1.19872E+01 0.00000E+00
 -1      2804 1.00437E+02 8.79101E+00 0.00000E+00
 -1      2805 9.09300E+00 3.15875E+01 0.00000E+00
 -1      2806 9.09300E+00 3.30625E+01 0.00000E+00
 -1      2807 1.38975E+02 8.71282E+00 0.00000E+00
 -1      2808 1.37475E+02 8.71282E+00 0.00000E+00
 -1      2809 1.36725E+02 1.00118E+01 0.00000E+00
 -1      2810 1.32975E+02 8.71282E+00 0.00000E+00
 -1      2811 1.31475E+02 8.71282E+00 0.00000E+00
 -1      2812 1.33725E+02 1.00118E+01 0.00000E+00
 -1      2813 1.41247E+02 9.24165E+00 0.00000E+00
 -1      2814 1.39978E+02 8.88261E+00 0.00000E+00
 -1      2815 1.39228E+02 1.01816E+01 0.00000E+00
 -1      2816 1.41233E+02 1.05212E+01 0.00000E+00
 -1      2817 1.40907E+02 2.42875E+01 0.00000E+00
 -1      2818 1.40907E+02 2.28125E+01 0.00000E+00
 -1      2819 1.39608E+02 2.50250E+01 0.00000E+00
 -1      2820 1.16639E+02 2.56711E+01 0.00000E+00
 -1      2821 1.15331E+02 2.58761E+01 0.00000E+00
 -1      2822 1.40907E+02 2.13375E+01 0.00000E+00
 -1      2823 1.40907E+02 1.98625E+01 0.00000E+00
 -1      2824 1.39608E+02 2.20750E+01 0.00000E+00
 -1      2825 1.40907E+02 3.01375E+01 0.00000E+00
 -1      2826 1.40907E+02 2.86875E+01 0.00000E+00
 -1      2827 1.39608E+02 2.79500E+01 0.00000E+00
 -1      2828 1.40907E+02 3.30875E+01 0.00000E+00
 -1      2829 1.40907E+02 3.16125E+01 0.00000E+00
 -1      2830 1.39608E+02 3.08750E+01 0.00000E+00
 -1      2831 1.40907E+02 3.60375E+01 0.00000E+00
 -1      2832 1.40907E+02 3.45625E+01 0.00000E+00
 -1      2833 1.39608E+02 3.38250E+01 0.00000E+00
 -1      2834 1.02883E+02 2.02220E+01 0.00000E+00
 -1      2835 1.02169E+02 1.90939E+01 0.00000E+00
 -1      2836 1.87500E+01 9.09300E+00 0.00000E+00
 -1      2837 1.72500E+01 9.09300E+00 0.00000E+00
 -1      2838 1.95000E+01 1.03920E+01 0.00000E+00
 -1      2839 1.40928E+02 4.09655E+01 0.00000E+00
 -1      2840 1.41192E+02 3.96958E+01 0.00000E+00
 -1      2841 1.39914E+02 4.09362E+01 0.00000E+00
 -1      2842 1.29975E+02 8.71282E+00 0.00000E+00
 -1      2843 1.28475E+02 8.71282E+00 0.00000E+00
 -1      2844 1.30725E+02 1.00118E+01 0.00000E+00
 -1      2845 1.00868E+02 1.33534E+01 0.00000E+00
 -1      2846 1.00787E+02 1.21051E+01 0.00000E+00
 -1      2847 1.24077E+02 1.78023E+01 0.00000E+00
 -1      2848 1.23755E+02 1.90764E+01 0.00000E+00
 -1      2849 2.77500E+01 9.09300E+00 0.00000E+00
 -1      2850 2.62500E+01 9.09300E+00 0.00000E+00
 -1      2851 2.85000E+01 1.03920E+01 0.00000E+00
 -1      2852 1.13895E+02 2.59928E+01 0.00000E+00
 -1      2853 1.12642E+02 2.59967E+01 0.00000E+00
 -1      2854 1.04035E+02 2.22605E+01 0.00000E+00
 -1      2855 1.03468E+02 2.12707E+01 0.00000E+00
 -1      2856 1.00987E+02 1.55349E+01 0.00000E+00
 -1      2857 1.00806E+02 1.45902E+01 0.00000E+00
 -1      2858 1.06544E+02 2.41729E+01 0.00000E+00
 -1      2859 1.05265E+02 2.36232E+01 0.00000E+00
 -1      2860 1.11402E+02 2.56958E+01 0.00000E+00
 -1      2861 1.10459E+02 2.55329E+01 0.00000E+00
 -1      2862 1.01404E+02 1.78142E+01 0.00000E+00
 -1      2863 1.01195E+02 1.66745E+01 0.00000E+00
 -1      2864 1.00098E+02 1.63951E+01 0.00000E+00
 -1      2865 1.24366E+02 1.55147E+01 0.00000E+00
 -1      2866 1.24180E+02 1.65525E+01 0.00000E+00
 -1      2867 1.24618E+02 1.33699E+01 0.00000E+00
 -1      2868 1.24492E+02 1.44423E+01 0.00000E+00
 -1      2869 1.25160E+02 1.50979E+01 0.00000E+00
 -1      2870 8.96362E+00 4.05429E+01 0.00000E+00
 -1      2871 1.03271E+01 4.08069E+01 0.00000E+00
 -1      2872 1.10771E+01 3.95079E+01 0.00000E+00
 -1      2873 8.93137E+00 3.93078E+01 0.00000E+00
 -1      2874 1.03920E+01 2.49750E+01 0.00000E+00
 -1      2875 9.09300E+00 2.57000E+01 0.00000E+00
 -1      2876 9.09300E+00 2.71750E+01 0.00000E+00
 -1      2877 1.24215E+01 8.74125E+00 0.00000E+00
 -1      2878 1.21702E+01 9.74175E+00 0.00000E+00
 -1      2879 1.36973E+01 8.75900E+00 0.00000E+00
 -1      2880 1.40907E+02 1.54531E+01 0.00000E+00
 -1      2881 1.40907E+02 1.39844E+01 0.00000E+00
 -1      2882 1.25236E+02 7.95111E+00 0.00000E+00
 -1      2883 1.24367E+02 8.66809E+00 0.00000E+00
 -1      2884 1.24759E+02 9.43650E+00 0.00000E+00
 -1      2885 1.26736E+02 8.08805E+00 0.00000E+00
 -1      2886 1.39164E+02 3.96372E+01 0.00000E+00
 -1      2887 2.55000E+01 1.03920E+01 0.00000E+00
 -1      2888 1.14708E+02 2.69031E+01 0.00000E+00
 -1      2889 1.41192E+02 3.82207E+01 0.00000E+00
 -1      2890 9.95701E+01 1.19616E+01 0.00000E+00
 -1      2891 1.00344E+02 1.12849E+01 0.00000E+00
 -1      2892 9.99002E+01 1.04647E+01 0.00000E+00
 -1      2893 1.12032E+02 2.67190E+01 0.00000E+00
 -1      2894 9.81633E+01 9.46771E+00 0.00000E+00
 -1      2895 9.74133E+01 1.07667E+01 0.00000E+00
 -1      2896 1.24931E+02 1.74201E+01 0.00000E+00
 -1      2897 9.96633E+01 9.46771E+00 0.00000E+00
 -1      2898 1.61115E+01 8.93487E+00 0.00000E+00
 -1      2899 1.48357E+01 8.91712E+00 0.00000E+00
 -1      2900 1.45845E+01 9.91763E+00 0.00000E+00
 -1      2901 1.68615E+01 1.02339E+01 0.00000E+00
 -1      2902 1.23902E+02 2.01299E+01 0.00000E+00
 -1      2903 1.24048E+02 2.11835E+01 0.00000E+00
 -1      2904 1.24975E+02 1.97233E+01 0.00000E+00
 -1      2905 1.40907E+02 1.83906E+01 0.00000E+00
 -1      2906 1.40907E+02 1.69219E+01 0.00000E+00
 -1      2907 1.39608E+02 1.61875E+01 0.00000E+00
 -1      2908 1.17824E+02 2.55299E+01 0.00000E+00
 -1      2909 1.17328E+02 2.66452E+01 0.00000E+00
 -1      2910 9.09300E+00 2.86437E+01 0.00000E+00
 -1      2911 9.09300E+00 3.01187E+01 0.00000E+00
 -1      2912 1.03920E+01 3.08563E+01 0.00000E+00
 -1      2913 1.03920E+01 2.79188E+01 0.00000E+00
 -1      2914 1.39608E+02 1.91281E+01 0.00000E+00
 -1      2915 1.01072E+02 1.88145E+01 0.00000E+00
 -1      2916 1.39893E+02 3.74832E+01 0.00000E+00
 -1      2917 1.02422E+02 2.11429E+01 0.00000E+00
 -1      2918 1.09691E+02 2.57109E+01 0.00000E+00
 -1      2919 1.08923E+02 2.58888E+01 0.00000E+00
 -1      2920 1.10024E+02 2.65961E+01 0.00000E+00
 -1      2921 1.07029E+02 2.49603E+01 0.00000E+00
 -1      2922 9.99516E+01 1.40186E+01 0.00000E+00
 -1      2923 1.25910E+02 1.00112E+01 0.00000E+00
 -1      2924 1.04237E+02 2.35543E+01 0.00000E+00
 -1      2925 1.03210E+02 2.34853E+01 0.00000E+00
 -1      2926 1.04439E+02 2.48480E+01 0.00000E+00
 -1      2927 1.25679E+02 1.26428E+01 0.00000E+00
 -1      2928 1.22607E+02 2.26822E+01 0.00000E+00
 -1      2929 1.21567E+02 2.28390E+01 0.00000E+00
 -1      2930 1.20627E+02 2.35020E+01 0.00000E+00
 -1      2931 1.19688E+02 2.41651E+01 0.00000E+00
 -1      2932 1.21300E+02 2.44373E+01 0.00000E+00
 -1      2933 1.03920E+01 3.37938E+01 0.00000E+00
 -1      2934 9.09300E+00 3.45313E+01 0.00000E+00
 -1      2935 9.09300E+00 3.60000E+01 0.00000E+00
 -1      2936 1.41063E+02 1.28925E+01 0.00000E+00
 -1      2937 1.41077E+02 1.16130E+01 0.00000E+00
 -1      2938 1.40075E+02 1.14432E+01 0.00000E+00
 -1      2939 1.39764E+02 1.36269E+01 0.00000E+00
 -1      2940 1.18764E+02 2.48669E+01 0.00000E+00
 -1      2941 1.27486E+02 9.38705E+00 0.00000E+00
 -1      2942 1.19190E+01 1.07423E+01 0.00000E+00
 -1      2943 1.16678E+01 1.17428E+01 0.00000E+00
 -1      2944 1.31947E+01 1.07600E+01 0.00000E+00
 -1      2945 1.16678E+01 1.32177E+01 0.00000E+00
 -1      2946 1.18052E+02 2.76757E+01 0.00000E+00
 -1      2947 1.16867E+02 2.78169E+01 0.00000E+00
 -1      2948 2.32500E+01 1.16910E+01 0.00000E+00
 -1      2949 2.17500E+01 1.16910E+01 0.00000E+00
 -1      2950 1.59000E+01 3.83090E+01 0.00000E+00
 -1      2951 1.74000E+01 3.83090E+01 0.00000E+00
 -1      2952 1.89000E+01 3.83090E+01 0.00000E+00
 -1      2953 2.04000E+01 3.83090E+01 0.00000E+00
 -1      2954 1.81500E+01 3.70100E+01 0.00000E+00
 -1      2955 2.19000E+01 3.83090E+01 0.00000E+00
 -1      2956 2.34000E+01 3.83090E+01 0.00000E+00
 -1      2957 2.11500E+01 3.70100E+01 0.00000E+00
 -1      2958 2.49000E+01 3.83090E+01 0.00000E+00
 -1      2959 2.64000E+01 3.83090E+01 0.00000E+00
 -1      2960 2.41500E+01 3.70100E+01 0.00000E+00
 -1      2961 2.79000E+01 3.83090E+01 0.00000E+00
 -1      2962 2.94000E+01 3.83090E+01 0.00000E+00
 -1      2963 2.71500E+01 3.70100E+01 0.00000E+00
 -1      2964 3.09000E+01 3.83090E+01 0.00000E+00
 -1      2965 3.24000E+01 3.83090E+01 0.00000E+00
 -1      2966 3.01500E+01 3.70100E+01 0.00000E+00
 -1      2967 3.39000E+01 3.83090E+01 0.00000E+00
 -1      2968 3.54000E+01 3.83090E+01 0.00000E+00
 -1      2969 3.31500E+01 3.70100E+01 0.00000E+00
 -1      2970 3.69000E+01 3.83090E+01 0.00000E+00
 -1      2971 3.84000E+01 3.83090E+01 0.00000E+00
 -1      2972 3.61500E+01 3.70100E+01 0.00000E+00
 -1      2973 3.99000E+01 3.83090E+01 0.00000E+00
 -1      2974 4.14000E+01 3.83090E+01 0.00000E+00
 -1      2975 3.91500E+01 3.70100E+01 0.00000E+00
 -1      2976 4.29000E+01 3.83090E+01 0.00000E+00
 -1      2977 4.44000E+01 3.83090E+01 0.00000E+00
 -1      2978 4.21500E+01 3.70100E+01 0.00000E+00
 -1      2979 4.59000E+01 3.83090E+01 0.00000E+00
 -1      2980 4.74000E+01 3.83090E+01 0.00000E+00
 -1      2981 4.51500E+01 3.70100E+01 0.00000E+00
 -1      2982 4.89000E+01 3.83090E+01 0.00000E+00
 -1      2983 5.04000E+01 3.83090E+01 0.00000E+00
 -1      2984 4.81500E+01 3.70100E+01 0.00000E+00
 -1      2985 5.19000E+01 3.83090E+01 0.00000E+00
 -1      2986 5.34000E+01 3.83090E+01 0.00000E+00
 -1      2987 5.11500E+01 3.70100E+01 0.00000E+00
 -1      2988 5.49000E+01 3.83090E+01 0.00000E+00
 -1      2989 5.64000E+01 3.83090E+01 0.00000E+00
 -1      2990 5.41500E+01 3.70100E+01 0.00000E+00
 -1      2991 5.79000E+01 3.83090E+01 0.00000E+00
 -1      2992 5.94000E+01 3.83090E+01 0.00000E+00
 -1      2993 5.71500E+01 3.70100E+01 0.00000E+00
 -1      2994 6.09000E+01 3.83090E+01 0.00000E+00
 -1      2995 6.24000E+01 3.83090E+01 0.00000E+00
 -1      2996 6.01500E+01 3.70100E+01 0.00000E+00
 -1      2997 6.39000E+01 3.83090E+01 0.00000E+00
 -1      2998 6.54000E+01 3.83090E+01 0.00000E+00
 -1      2999 6.31500E+01 3.70100E+01 0.00000E+00
 -1      3000 6.69000E+01 3.83090E+01 0.00000E+00
 -1      3001 6.84000E+01 3.83090E+01 0.00000E+00
 -1      3002 6.61500E+01 3.70100E+01 0.00000E+00
 -1      3003 6.99000E+01 3.83090E+01 0.00000E+00
 -1      3004 7.14000E+01 3.83090E+01 0.00000E+00
 -1      3005 6.91500E+01 3.70100E+01 0.00000E+00
 -1      3006 7.29000E+01 3.83090E+01 0.00000E+00
 -1      3007 7.44000E+01 3.83090E+01 0.00000E+00
 -1      3008 7.21500E+01 3.70100E+01 0.00000E+00
 -1      3009 7.59000E+01 3.83090E+01 0.00000E+00
 -1      3010 7.74000E+01 3.83090E+01 0.00000E+00
 -1      3011 7.51500E+01 3.70100E+01 0.00000E+00
 -1      3012 7.89000E+01 3.83090E+01 0.00000E+00
 -1      3013 8.04000E+01 3.83090E+01 0.00000E+00
 -1      3014 7.81500E+01 3.70100E+01 0.00000E+00
 -1      3015 8.19000E+01 3.83090E+01 0.00000E+00
 -1      3016 8.34000E+01 3.83090E+01 0.00000E+00
 -1      3017 8.11500E+01 3.70100E+01 0.00000E+00
 -1      3018 8.49000E+01 3.83090E+01 0.00000E+00
 -1      3019 8.64000E+01 3.83090E+01 0.00000E+00
 -1      3020 8.41500E+01 3.70100E+01 0.00000E+00
 -1      3021 8.79000E+01 3.83090E+01 0.00000E+00
 -1      3022 8.94000E+01 3.83090E+01 0.00000E+00
 -1      3023 8.71500E+01 3.70100E+01 0.00000E+00
 -1      3024 9.09000E+01 3.83090E+01 0.00000E+00
 -1      3025 9.24000E+01 3.83090E+01 0.00000E+00
 -1      3026 9.01500E+01 3.70100E+01 0.00000E+00
 -1      3027 9.39000E+01 3.83090E+01 0.00000E+00
 -1      3028 9.54000E+01 3.83090E+01 0.00000E+00
 -1      3029 9.31500E+01 3.70100E+01 0.00000E+00
 -1      3030 9.69000E+01 3.83090E+01 0.00000E+00
 -1      3031 9.84000E+01 3.83090E+01 0.00000E+00
 -1      3032 9.61500E+01 3.70100E+01 0.00000E+00
 -1      3033 9.99000E+01 3.83090E+01 0.00000E+00
 -1      3034 1.01400E+02 3.83090E+01 0.00000E+00
 -1      3035 9.91500E+01 3.70100E+01 0.00000E+00
 -1      3036 1.02900E+02 3.83090E+01 0.00000E+00
 -1      3037 1.04400E+02 3.83090E+01 0.00000E+00
 -1      3038 1.02150E+02 3.70100E+01 0.00000E+00
 -1      3039 1.05900E+02 3.83090E+01 0.00000E+00
 -1      3040 1.07400E+02 3.83090E+01 0.00000E+00
 -1      3041 1.05150E+02 3.70100E+01 0.00000E+00
 -1      3042 1.08900E+02 3.83090E+01 0.00000E+00
 -1      3043 1.10400E+02 3.83090E+01 0.00000E+00
 -1      3044 1.08150E+02 3.70100E+01 0.00000E+00
 -1      3045 1.11900E+02 3.83090E+01 0.00000E+00
 -1      3046 1.13400E+02 3.83090E+01 0.00000E+00
 -1      3047 1.11150E+02 3.70100E+01 0.00000E+00
 -1      3048 1.14900E+02 3.83090E+01 0.00000E+00
 -1      3049 1.16400E+02 3.83090E+01 0.00000E+00
 -1      3050 1.14150E+02 3.70100E+01 0.00000E+00
 -1      3051 1.17900E+02 3.83090E+01 0.00000E+00
 -1      3052 1.19400E+02 3.83090E+01 0.00000E+00
 -1      3053 1.17150E+02 3.70100E+01 0.00000E+00
 -1      3054 1.20900E+02 3.83090E+01 0.00000E+00
 -1      3055 1.22400E+02 3.83090E+01 0.00000E+00
 -1      3056 1.20150E+02 3.70100E+01 0.00000E+00
 -1      3057 1.23900E+02 3.83090E+01 0.00000E+00
 -1      3058 1.25400E+02 3.83090E+01 0.00000E+00
 -1      3059 1.23150E+02 3.70100E+01 0.00000E+00
 -1      3060 1.26900E+02 3.83090E+01 0.00000E+00
 -1      3061 1.28400E+02 3.83090E+01 0.00000E+00
 -1      3062 1.26150E+02 3.70100E+01 0.00000E+00
 -1      3063 1.29900E+02 3.83090E+01 0.00000E+00
 -1      3064 1.31400E+02 3.83090E+01 0.00000E+00
 -1      3065 1.29150E+02 3.70100E+01 0.00000E+00
 -1      3066 1.32900E+02 3.83090E+01 0.00000E+00
 -1      3067 1.34400E+02 3.83090E+01 0.00000E+00
 -1      3068 1.32150E+02 3.70100E+01 0.00000E+00
 -1      3069 1.35900E+02 3.83090E+01 0.00000E+00
 -1      3070 1.37400E+02 3.83090E+01 0.00000E+00
 -1      3071 1.35150E+02 3.70100E+01 0.00000E+00
 -1      3072 1.38309E+02 3.16125E+01 0.00000E+00
 -1      3073 1.38309E+02 3.01375E+01 0.00000E+00
 -1      3074 9.89042E+01 1.28028E+01 0.00000E+00
 -1      3075 9.84607E+01 1.19826E+01 0.00000E+00
 -1      3076 9.67474E+01 1.16079E+01 0.00000E+00
 -1      3077 9.88422E+01 1.40396E+01 0.00000E+00
 -1      3078 3.22500E+01 1.16910E+01 0.00000E+00
 -1      3079 3.07500E+01 1.16910E+01 0.00000E+00
 -1      3080 4.11000E+01 1.16910E+01 0.00000E+00
 -1      3081 3.96000E+01 1.16910E+01 0.00000E+00
 -1      3082 4.41000E+01 1.16910E+01 0.00000E+00
 -1      3083 4.26000E+01 1.16910E+01 0.00000E+00
 -1      3084 4.18500E+01 1.29900E+01 0.00000E+00
 -1      3085 4.71000E+01 1.16910E+01 0.00000E+00
 -1      3086 4.56000E+01 1.16910E+01 0.00000E+00
 -1      3087 4.48500E+01 1.29900E+01 0.00000E+00
 -1      3088 5.01000E+01 1.16910E+01 0.00000E+00
 -1      3089 4.86000E+01 1.16910E+01 0.00000E+00
 -1      3090 4.78500E+01 1.29900E+01 0.00000E+00
 -1      3091 5.31000E+01 1.16910E+01 0.00000E+00
 -1      3092 5.16000E+01 1.16910E+01 0.00000E+00
 -1      3093 5.08500E+01 1.29900E+01 0.00000E+00
 -1      3094 5.61000E+01 1.16910E+01 0.00000E+00
 -1      3095 5.46000E+01 1.16910E+01 0.00000E+00
 -1      3096 5.38500E+01 1.29900E+01 0.00000E+00
 -1      3097 5.91000E+01 1.16910E+01 0.00000E+00
 -1      3098 5.76000E+01 1.16910E+01 0.00000E+00
 -1      3099 5.68500E+01 1.29900E+01 0.00000E+00
 -1      3100 6.21000E+01 1.16910E+01 0.00000E+00
 -1      3101 6.06000E+01 1.16910E+01 0.00000E+00
 -1      3102 5.98500E+01 1.29900E+01 0.00000E+00
 -1      3103 6.51000E+01 1.16910E+01 0.00000E+00
 -1      3104 6.36000E+01 1.16910E+01 0.00000E+00
 -1      3105 6.28500E+01 1.29900E+01 0.00000E+00
 -1      3106 6.81000E+01 1.16910E+01 0.00000E+00
 -1      3107 6.66000E+01 1.16910E+01 0.00000E+00
 -1      3108 6.58500E+01 1.29900E+01 0.00000E+00
 -1      3109 7.11000E+01 1.16910E+01 0.00000E+00
 -1      3110 6.96000E+01 1.16910E+01 0.00000E+00
 -1      3111 6.88500E+01 1.29900E+01 0.00000E+00
 -1      3112 7.41000E+01 1.16910E+01 0.00000E+00
 -1      3113 7.26000E+01 1.16910E+01 0.00000E+00
 -1      3114 7.18500E+01 1.29900E+01 0.00000E+00
 -1      3115 7.69500E+01 1.16910E+01 0.00000E+00
 -1      3116 7.55250E+01 1.16910E+01 0.00000E+00
 -1      3117 7.47750E+01 1.29900E+01 0.00000E+00
 -1      3118 7.99500E+01 1.16910E+01 0.00000E+00
 -1      3119 7.84500E+01 1.16910E+01 0.00000E+00
 -1      3120 7.77000E+01 1.29900E+01 0.00000E+00
 -1      3121 8.29500E+01 1.16910E+01 0.00000E+00
 -1      3122 8.14500E+01 1.16910E+01 0.00000E+00
 -1      3123 8.07000E+01 1.29900E+01 0.00000E+00
 -1      3124 8.59500E+01 1.16910E+01 0.00000E+00
 -1      3125 8.44500E+01 1.16910E+01 0.00000E+00
 -1      3126 8.37000E+01 1.29900E+01 0.00000E+00
 -1      3127 8.89500E+01 1.16910E+01 0.00000E+00
 -1      3128 8.74500E+01 1.16910E+01 0.00000E+00
 -1      3129 8.67000E+01 1.29900E+01 0.00000E+00
 -1      3130 9.19500E+01 1.16910E+01 0.00000E+00
 -1      3131 9.04500E+01 1.16910E+01 0.00000E+00
 -1      3132 8.97000E+01 1.29900E+01 0.00000E+00
 -1      3133 9.49500E+01 1.16910E+01 0.00000E+00
 -1      3134 9.34500E+01 1.16910E+01 0.00000E+00
 -1      3135 9.27000E+01 1.29900E+01 0.00000E+00
 -1      3136 2.02500E+01 1.16910E+01 0.00000E+00
 -1      3137 1.87500E+01 1.16910E+01 0.00000E+00
 -1      3138 2.10000E+01 1.29900E+01 0.00000E+00
 -1      3139 1.26005E+02 1.68793E+01 0.00000E+00
 -1      3140 1.25902E+02 1.81291E+01 0.00000E+00
 -1      3141 1.38309E+02 2.57625E+01 0.00000E+00
 -1      3142 1.38309E+02 2.42875E+01 0.00000E+00
 -1      3143 1.37475E+02 1.13108E+01 0.00000E+00
 -1      3144 1.35975E+02 1.13108E+01 0.00000E+00
 -1      3145 1.34475E+02 1.13108E+01 0.00000E+00
 -1      3146 1.32975E+02 1.13108E+01 0.00000E+00
 -1      3147 1.35225E+02 1.26098E+01 0.00000E+00
 -1      3148 1.00503E+02 2.00235E+01 0.00000E+00
 -1      3149 9.97373E+01 1.87437E+01 0.00000E+00
 -1      3150 1.38309E+02 2.28125E+01 0.00000E+00
 -1      3151 1.38309E+02 2.13375E+01 0.00000E+00
 -1      3152 1.37010E+02 2.35500E+01 0.00000E+00
 -1      3153 1.27649E+02 1.06360E+01 0.00000E+00
 -1      3154 1.29000E+01 3.83090E+01 0.00000E+00
 -1      3155 1.44000E+01 3.83090E+01 0.00000E+00
 -1      3156 1.51500E+01 3.70100E+01 0.00000E+00
 -1      3157 1.38309E+02 3.45625E+01 0.00000E+00
 -1      3158 1.38309E+02 3.30875E+01 0.00000E+00
 -1      3159 1.37010E+02 3.23500E+01 0.00000E+00
 -1      3160 2.62500E+01 1.16910E+01 0.00000E+00
 -1      3161 2.47500E+01 1.16910E+01 0.00000E+00
 -1      3162 2.40000E+01 1.29900E+01 0.00000E+00
 -1      3163 1.31475E+02 1.13108E+01 0.00000E+00
 -1      3164 1.29975E+02 1.13108E+01 0.00000E+00
 -1      3165 1.32225E+02 1.26098E+01 0.00000E+00
 -1      3166 8.99606E+00 3.70363E+01 0.00000E+00
 -1      3167 9.02831E+00 3.82715E+01 0.00000E+00
 -1      3168 1.01012E+01 3.83715E+01 0.00000E+00
 -1      3169 1.02951E+01 3.62988E+01 0.00000E+00
 -1      3170 1.38309E+02 1.98656E+01 0.00000E+00
 -1      3171 1.38309E+02 1.83937E+01 0.00000E+00
 -1      3172 1.37010E+02 2.06031E+01 0.00000E+00
 -1      3173 1.38309E+02 2.86750E+01 0.00000E+00
 -1      3174 1.38309E+02 2.72250E+01 0.00000E+00
 -1      3175 1.37010E+02 2.64875E+01 0.00000E+00
 -1      3176 1.37010E+02 2.94125E+01 0.00000E+00
 -1      3177 1.38309E+02 1.69250E+01 0.00000E+00
 -1      3178 1.38309E+02 1.54563E+01 0.00000E+00
 -1      3179 1.37010E+02 1.76625E+01 0.00000E+00
 -1      3180 2.92500E+01 1.16910E+01 0.00000E+00
 -1      3181 2.77500E+01 1.16910E+01 0.00000E+00
 -1      3182 2.70000E+01 1.29900E+01 0.00000E+00
 -1      3183 1.15431E+02 2.79336E+01 0.00000E+00
 -1      3184 1.13995E+02 2.80504E+01 0.00000E+00
 -1      3185 1.16155E+02 2.89641E+01 0.00000E+00
 -1      3186 1.23842E+02 2.24897E+01 0.00000E+00
 -1      3187 1.23475E+02 2.35818E+01 0.00000E+00
 -1      3188 1.01673E+02 2.21208E+01 0.00000E+00
 -1      3189 1.01088E+02 2.10722E+01 0.00000E+00
 -1      3190 9.97534E+01 2.10014E+01 0.00000E+00
 -1      3191 3.51000E+01 1.16910E+01 0.00000E+00
 -1      3192 3.36750E+01 1.16910E+01 0.00000E+00
 -1      3193 3.29250E+01 1.29900E+01 0.00000E+00
 -1      3194 1.12390E+02 2.79471E+01 0.00000E+00
 -1      3195 1.11150E+02 2.76462E+01 0.00000E+00
 -1      3196 1.19437E+02 2.58021E+01 0.00000E+00
 -1      3197 3.81000E+01 1.16910E+01 0.00000E+00
 -1      3198 3.66000E+01 1.16910E+01 0.00000E+00
 -1      3199 3.88500E+01 1.29900E+01 0.00000E+00
 -1      3200 1.26781E+02 1.22088E+01 0.00000E+00
 -1      3201 1.26388E+02 1.35915E+01 0.00000E+00
 -1      3202 1.07361E+02 2.58455E+01 0.00000E+00
 -1      3203 1.05799E+02 2.58022E+01 0.00000E+00
 -1      3204 1.07694E+02 2.67307E+01 0.00000E+00
 -1      3205 1.16910E+01 2.12875E+01 0.00000E+00
 -1      3206 1.16910E+01 2.27625E+01 0.00000E+00
 -1      3207 9.92763E+01 1.71343E+01 0.00000E+00
 -1      3208 9.90678E+01 1.59946E+01 0.00000E+00
 -1      3209 1.26262E+02 1.46639E+01 0.00000E+00
 -1      3210 1.26136E+02 1.57363E+01 0.00000E+00
 -1      3211 1.27364E+02 1.42300E+01 0.00000E+00
 -1      3212 1.28357E+02 1.15847E+01 0.00000E+00
 -1      3213 1.26048E+02 1.91826E+01 0.00000E+00
 -1      3214 1.26195E+02 2.02361E+01 0.00000E+00
 -1      3215 1.27121E+02 1.86419E+01 0.00000E+00
 -1      3216 1.29107E+02 1.28837E+01 0.00000E+00
 -1      3217 1.19314E+02 2.74958E+01 0.00000E+00
 -1      3218 1.18853E+02 2.86676E+01 0.00000E+00
 -1      3219 1.16910E+01 1.54094E+01 0.00000E+00
 -1      3220 1.16910E+01 1.68781E+01 0.00000E+00
 -1      3221 1.02077E+02 2.47083E+01 0.00000E+00
 -1      3222 1.01875E+02 2.34146E+01 0.00000E+00
 -1      3223 1.00541E+02 2.33438E+01 0.00000E+00
 -1      3224 1.16910E+01 1.83469E+01 0.00000E+00
 -1      3225 1.16910E+01 1.98156E+01 0.00000E+00
 -1      3226 1.29900E+01 1.76125E+01 0.00000E+00
 -1      3227 1.36867E+02 1.44018E+01 0.00000E+00
 -1      3228 1.38167E+02 1.36643E+01 0.00000E+00
 -1      3229 9.59974E+01 1.29069E+01 0.00000E+00
 -1      3230 1.80000E+01 1.29900E+01 0.00000E+00
 -1      3231 1.72500E+01 1.16910E+01 0.00000E+00
 -1      3232 1.61115E+01 1.15329E+01 0.00000E+00
 -1      3233 1.27107E+02 1.64454E+01 0.00000E+00
 -1      3234 9.87071E+01 1.83433E+01 0.00000E+00
 -1      3235 1.29668E+01 1.39521E+01 0.00000E+00
 -1      3236 1.39072E+02 1.12734E+01 0.00000E+00
 -1      3237 1.16910E+01 3.01219E+01 0.00000E+00
 -1      3238 1.16910E+01 3.15906E+01 0.00000E+00
 -1      3239 1.38129E+02 3.61550E+01 0.00000E+00
 -1      3240 1.36830E+02 3.54175E+01 0.00000E+00
 -1      3241 1.13114E+02 2.89776E+01 0.00000E+00
 -1      3242 1.10382E+02 2.78242E+01 0.00000E+00
 -1      3243 1.09614E+02 2.80021E+01 0.00000E+00
 -1      3244 1.10741E+02 2.90522E+01 0.00000E+00
 -1      3245 1.24916E+02 2.20831E+01 0.00000E+00
 -1      3246 1.04772E+02 2.57332E+01 0.00000E+00
 -1      3247 1.03744E+02 2.56643E+01 0.00000E+00
 -1      3248 1.05105E+02 2.66184E+01 0.00000E+00
 -1      3249 1.38414E+02 3.83382E+01 0.00000E+00
 -1      3250 3.00000E+01 1.29900E+01 0.00000E+00
 -1      3251 1.29900E+01 2.05531E+01 0.00000E+00
 -1      3252 1.22458E+02 2.50803E+01 0.00000E+00
 -1      3253 1.21518E+02 2.57433E+01 0.00000E+00
 -1      3254 3.58500E+01 1.29900E+01 0.00000E+00
 -1      3255 1.16910E+01 3.30594E+01 0.00000E+00
 -1      3256 1.16910E+01 3.45281E+01 0.00000E+00
 -1      3257 1.29900E+01 3.23250E+01 0.00000E+00
 -1      3258 1.20238E+02 2.67940E+01 0.00000E+00
 -1      3259 1.29900E+01 2.35000E+01 0.00000E+00
 -1      3260 1.16910E+01 2.42375E+01 0.00000E+00
 -1      3261 1.16910E+01 2.57125E+01 0.00000E+00
 -1      3262 9.80204E+01 1.47788E+01 0.00000E+00
 -1      3263 1.38322E+02 1.25724E+01 0.00000E+00
 -1      3264 1.11741E+01 3.84716E+01 0.00000E+00
 -1      3265 1.23693E+02 2.48878E+01 0.00000E+00
 -1      3266 1.19241E+01 3.71726E+01 0.00000E+00
 -1      3267 1.30599E+02 1.36822E+01 0.00000E+00
 -1      3268 1.28982E+02 1.39561E+01 0.00000E+00
 -1      3269 1.28856E+02 1.50285E+01 0.00000E+00
 -1      3270 1.42890E+01 1.68781E+01 0.00000E+00
 -1      3271 1.42890E+01 1.83469E+01 0.00000E+00
 -1      3272 1.35510E+02 1.61938E+01 0.00000E+00
 -1      3273 1.35367E+02 1.44018E+01 0.00000E+00
 -1      3274 1.33867E+02 1.44018E+01 0.00000E+00
 -1      3275 9.62230E+01 1.48619E+01 0.00000E+00
 -1      3276 9.44256E+01 1.49451E+01 0.00000E+00
 -1      3277 9.64487E+01 1.68170E+01 0.00000E+00
 -1      3278 2.04000E+01 3.57110E+01 0.00000E+00
 -1      3279 2.19000E+01 3.57110E+01 0.00000E+00
 -1      3280 2.34000E+01 3.57110E+01 0.00000E+00
 -1      3281 2.49000E+01 3.57110E+01 0.00000E+00
 -1      3282 2.26500E+01 3.44120E+01 0.00000E+00
 -1      3283 2.64000E+01 3.57110E+01 0.00000E+00
 -1      3284 2.79000E+01 3.57110E+01 0.00000E+00
 -1      3285 2.56500E+01 3.44120E+01 0.00000E+00
 -1      3286 2.94000E+01 3.57110E+01 0.00000E+00
 -1      3287 3.09000E+01 3.57110E+01 0.00000E+00
 -1      3288 2.86500E+01 3.44120E+01 0.00000E+00
 -1      3289 3.24000E+01 3.57110E+01 0.00000E+00
 -1      3290 3.39000E+01 3.57110E+01 0.00000E+00
 -1      3291 3.16500E+01 3.44120E+01 0.00000E+00
 -1      3292 3.54000E+01 3.57110E+01 0.00000E+00
 -1      3293 3.69000E+01 3.57110E+01 0.00000E+00
 -1      3294 3.46500E+01 3.44120E+01 0.00000E+00
 -1      3295 3.84000E+01 3.57110E+01 0.00000E+00
 -1      3296 3.99000E+01 3.57110E+01 0.00000E+00
 -1      3297 3.76500E+01 3.44120E+01 0.00000E+00
 -1      3298 4.14000E+01 3.57110E+01 0.00000E+00
 -1      3299 4.29000E+01 3.57110E+01 0.00000E+00
 -1      3300 4.06500E+01 3.44120E+01 0.00000E+00
 -1      3301 4.44000E+01 3.57110E+01 0.00000E+00
 -1      3302 4.59000E+01 3.57110E+01 0.00000E+00
 -1      3303 4.36500E+01 3.44120E+01 0.00000E+00
 -1      3304 4.74000E+01 3.57110E+01 0.00000E+00
 -1      3305 4.89000E+01 3.57110E+01 0.00000E+00
 -1      3306 4.66500E+01 3.44120E+01 0.00000E+00
 -1      3307 5.04000E+01 3.57110E+01 0.00000E+00
 -1      3308 5.19000E+01 3.57110E+01 0.00000E+00
 -1      3309 4.96500E+01 3.44120E+01 0.00000E+00
 -1      3310 5.34000E+01 3.57110E+01 0.00000E+00
 -1      3311 5.49000E+01 3.57110E+01 0.00000E+00
 -1      3312 5.26500E+01 3.44120E+01 0.00000E+00
 -1      3313 5.64000E+01 3.57110E+01 0.00000E+00
 -1      3314 5.79000E+01 3.57110E+01 0.00000E+00
 -1      3315 5.56500E+01 3.44120E+01 0.00000E+00
 -1      3316 5.94000E+01 3.57110E+01 0.00000E+00
 -1      3317 6.09000E+01 3.57110E+01 0.00000E+00
 -1      3318 5.86500E+01 3.44120E+01 0.00000E+00
 -1      3319 6.24000E+01 3.57110E+01 0.00000E+00
 -1      3320 6.39000E+01 3.57110E+01 0.00000E+00
 -1      3321 6.16500E+01 3.44120E+01 0.00000E+00
 -1      3322 6.54000E+01 3.57110E+01 0.00000E+00
 -1      3323 6.69000E+01 3.57110E+01 0.00000E+00
 -1      3324 6.46500E+01 3.44120E+01 0.00000E+00
 -1      3325 6.84000E+01 3.57110E+01 0.00000E+00
 -1      3326 6.99000E+01 3.57110E+01 0.00000E+00
 -1      3327 6.76500E+01 3.44120E+01 0.00000E+00
 -1      3328 7.14000E+01 3.57110E+01 0.00000E+00
 -1      3329 7.29000E+01 3.57110E+01 0.00000E+00
 -1      3330 7.06500E+01 3.44120E+01 0.00000E+00
 -1      3331 7.44000E+01 3.57110E+01 0.00000E+00
 -1      3332 7.59000E+01 3.57110E+01 0.00000E+00
 -1      3333 7.36500E+01 3.44120E+01 0.00000E+00
 -1      3334 7.74000E+01 3.57110E+01 0.00000E+00
 -1      3335 7.89000E+01 3.57110E+01 0.00000E+00
 -1      3336 7.66500E+01 3.44120E+01 0.00000E+00
 -1      3337 8.04000E+01 3.57110E+01 0.00000E+00
 -1      3338 8.19000E+01 3.57110E+01 0.00000E+00
 -1      3339 7.96500E+01 3.44120E+01 0.00000E+00
 -1      3340 8.34000E+01 3.57110E+01 0.00000E+00
 -1      3341 8.49000E+01 3.57110E+01 0.00000E+00
 -1      3342 8.26500E+01 3.44120E+01 0.00000E+00
 -1      3343 8.64000E+01 3.57110E+01 0.00000E+00
 -1      3344 8.79000E+01 3.57110E+01 0.00000E+00
 -1      3345 8.56500E+01 3.44120E+01 0.00000E+00
 -1      3346 8.94000E+01 3.57110E+01 0.00000E+00
 -1      3347 9.09000E+01 3.57110E+01 0.00000E+00
 -1      3348 8.86500E+01 3.44120E+01 0.00000E+00
 -1      3349 9.24000E+01 3.57110E+01 0.00000E+00
 -1      3350 9.39000E+01 3.57110E+01 0.00000E+00
 -1      3351 9.16500E+01 3.44120E+01 0.00000E+00
 -1      3352 9.54000E+01 3.57110E+01 0.00000E+00
 -1      3353 9.69000E+01 3.57110E+01 0.00000E+00
 -1      3354 9.46500E+01 3.44120E+01 0.00000E+00
 -1      3355 9.84000E+01 3.57110E+01 0.00000E+00
 -1      3356 9.99000E+01 3.57110E+01 0.00000E+00
 -1      3357 9.76500E+01 3.44120E+01 0.00000E+00
 -1      3358 1.01400E+02 3.57110E+01 0.00000E+00
 -1      3359 1.02900E+02 3.57110E+01 0.00000E+00
 -1      3360 1.00650E+02 3.44120E+01 0.00000E+00
 -1      3361 1.04400E+02 3.57110E+01 0.00000E+00
 -1      3362 1.05900E+02 3.57110E+01 0.00000E+00
 -1      3363 1.03650E+02 3.44120E+01 0.00000E+00
 -1      3364 1.07400E+02 3.57110E+01 0.00000E+00
 -1      3365 1.08900E+02 3.57110E+01 0.00000E+00
 -1      3366 1.06650E+02 3.44120E+01 0.00000E+00
 -1      3367 1.10400E+02 3.57110E+01 0.00000E+00
 -1      3368 1.11900E+02 3.57110E+01 0.00000E+00
 -1      3369 1.09650E+02 3.44120E+01 0.00000E+00
 -1      3370 1.13400E+02 3.57110E+01 0.00000E+00
 -1      3371 1.14900E+02 3.57110E+01 0.00000E+00
 -1      3372 1.12650E+02 3.44120E+01 0.00000E+00
 -1      3373 1.16400E+02 3.57110E+01 0.00000E+00
 -1      3374 1.17900E+02 3.57110E+01 0.00000E+00
 -1      3375 1.15650E+02 3.44120E+01 0.00000E+00
 -1      3376 1.19400E+02 3.57110E+01 0.00000E+00
 -1      3377 1.20900E+02 3.57110E+01 0.00000E+00
 -1      3378 1.18650E+02 3.44120E+01 0.00000E+00
 -1      3379 1.22400E+02 3.57110E+01 0.00000E+00
 -1      3380 1.23900E+02 3.57110E+01 0.00000E+00
 -1      3381 1.21650E+02 3.44120E+01 0.00000E+00
 -1      3382 1.25400E+02 3.57110E+01 0.00000E+00
 -1      3383 1.26900E+02 3.57110E+01 0.00000E+00
 -1      3384 1.24650E+02 3.44120E+01 0.00000E+00
 -1      3385 1.28400E+02 3.57110E+01 0.00000E+00
 -1      3386 1.29900E+02 3.57110E+01 0.00000E+00
 -1      3387 1.27650E+02 3.44120E+01 0.00000E+00
 -1      3388 1.31400E+02 3.57110E+01 0.00000E+00
 -1      3389 1.32900E+02 3.57110E+01 0.00000E+00
 -1      3390 1.30650E+02 3.44120E+01 0.00000E+00
 -1      3391 1.34115E+02 3.55643E+01 0.00000E+00
 -1      3392 1.35615E+02 3.55643E+01 0.00000E+00
 -1      3393 1.35795E+02 3.39717E+01 0.00000E+00
 -1      3394 1.33365E+02 3.42653E+01 0.00000E+00
 -1      3395 2.47500E+01 1.42890E+01 0.00000E+00
 -1      3396 2.32500E+01 1.42890E+01 0.00000E+00
 -1      3397 1.87500E+01 1.42890E+01 0.00000E+00
 -1      3398 1.72501E+01 1.42890E+01 0.00000E+00
 -1      3399 4.56000E+01 1.42890E+01 0.00000E+00
 -1      3400 4.41000E+01 1.42890E+01 0.00000E+00
 -1      3401 1.43333E+01 1.09181E+01 0.00000E+00
 -1      3402 1.19668E+02 2.98637E+01 0.00000E+00
 -1      3403 1.18405E+02 3.00435E+01 0.00000E+00
 -1      3404 4.26000E+01 1.42890E+01 0.00000E+00
 -1      3405 4.11000E+01 1.42890E+01 0.00000E+00
 -1      3406 4.33500E+01 1.55880E+01 0.00000E+00
 -1      3407 5.16000E+01 1.42890E+01 0.00000E+00
 -1      3408 5.01000E+01 1.42890E+01 0.00000E+00
 -1      3409 5.46000E+01 1.42890E+01 0.00000E+00
 -1      3410 5.31000E+01 1.42890E+01 0.00000E+00
 -1      3411 5.23500E+01 1.55880E+01 0.00000E+00
 -1      3412 5.76000E+01 1.42890E+01 0.00000E+00
 -1      3413 5.61000E+01 1.42890E+01 0.00000E+00
 -1      3414 5.53500E+01 1.55880E+01 0.00000E+00
 -1      3415 6.06000E+01 1.42890E+01 0.00000E+00
 -1      3416 5.91000E+01 1.42890E+01 0.00000E+00
 -1      3417 5.83500E+01 1.55880E+01 0.00000E+00
 -1      3418 6.36000E+01 1.42890E+01 0.00000E+00
 -1      3419 6.21000E+01 1.42890E+01 0.00000E+00
 -1      3420 6.13500E+01 1.55880E+01 0.00000E+00
 -1      3421 6.66000E+01 1.42890E+01 0.00000E+00
 -1      3422 6.51000E+01 1.42890E+01 0.00000E+00
 -1      3423 6.43500E+01 1.55880E+01 0.00000E+00
 -1      3424 6.96000E+01 1.42890E+01 0.00000E+00
 -1      3425 6.81000E+01 1.42890E+01 0.00000E+00
 -1      3426 6.73500E+01 1.55880E+01 0.00000E+00
 -1      3427 7.26000E+01 1.42890E+01 0.00000E+00
 -1      3428 7.11000E+01 1.42890E+01 0.00000E+00
 -1      3429 7.03500E+01 1.55880E+01 0.00000E+00
 -1      3430 7.54500E+01 1.42890E+01 0.00000E+00
 -1      3431 7.40250E+01 1.42890E+01 0.00000E+00
 -1      3432 7.32750E+01 1.55880E+01 0.00000E+00
 -1      3433 7.84500E+01 1.42890E+01 0.00000E+00
 -1      3434 7.69500E+01 1.42890E+01 0.00000E+00
 -1      3435 7.62000E+01 1.55880E+01 0.00000E+00
 -1      3436 8.14500E+01 1.42890E+01 0.00000E+00
 -1      3437 7.99500E+01 1.42890E+01 0.00000E+00
 -1      3438 7.92000E+01 1.55880E+01 0.00000E+00
 -1      3439 8.44500E+01 1.42890E+01 0.00000E+00
 -1      3440 8.29500E+01 1.42890E+01 0.00000E+00
 -1      3441 8.22000E+01 1.55880E+01 0.00000E+00
 -1      3442 8.74500E+01 1.42890E+01 0.00000E+00
 -1      3443 8.59500E+01 1.42890E+01 0.00000E+00
 -1      3444 8.52000E+01 1.55880E+01 0.00000E+00
 -1      3445 9.04500E+01 1.42890E+01 0.00000E+00
 -1      3446 8.89500E+01 1.42890E+01 0.00000E+00
 -1      3447 8.82000E+01 1.55880E+01 0.00000E+00
 -1      3448 9.31878E+01 1.46170E+01 0.00000E+00
 -1      3449 9.16878E+01 1.46170E+01 0.00000E+00
 -1      3450 9.09378E+01 1.59160E+01 0.00000E+00
 -1      3451 9.34135E+01 1.65721E+01 0.00000E+00
 -1      3452 1.47218E+01 1.23753E+01 0.00000E+00
 -1      3453 2.17500E+01 1.42890E+01 0.00000E+00
 -1      3454 2.02500E+01 1.42890E+01 0.00000E+00
 -1      3455 1.95000E+01 1.55880E+01 0.00000E+00
 -1      3456 2.25000E+01 1.55880E+01 0.00000E+00
 -1      3457 1.28724E+02 1.61715E+01 0.00000E+00
 -1      3458 1.28592E+02 1.73145E+01 0.00000E+00
 -1      3459 1.30342E+02 1.58976E+01 0.00000E+00
 -1      3460 1.25276E+02 2.48680E+01 0.00000E+00
 -1      3461 1.24259E+02 2.63665E+01 0.00000E+00
 -1      3462 1.16910E+01 2.71844E+01 0.00000E+00
 -1      3463 1.16910E+01 2.86531E+01 0.00000E+00
 -1      3464 1.29900E+01 2.93875E+01 0.00000E+00
 -1      3465 3.36375E+01 1.42890E+01 0.00000E+00
 -1      3466 3.22125E+01 1.42890E+01 0.00000E+00
 -1      3467 3.07125E+01 1.42890E+01 0.00000E+00
 -1      3468 2.92125E+01 1.42890E+01 0.00000E+00
 -1      3469 3.14250E+01 1.55880E+01 0.00000E+00
 -1      3470 1.74000E+01 3.57110E+01 0.00000E+00
 -1      3471 1.89000E+01 3.57110E+01 0.00000E+00
 -1      3472 1.96500E+01 3.44120E+01 0.00000E+00
 -1      3473 1.13840E+02 3.02195E+01 0.00000E+00
 -1      3474 1.12235E+02 3.01162E+01 0.00000E+00
 -1      3475 1.35711E+02 2.42875E+01 0.00000E+00
 -1      3476 1.35711E+02 2.28125E+01 0.00000E+00
 -1      3477 1.47450E+01 1.45669E+01 0.00000E+00
 -1      3478 1.20210E+01 3.61362E+01 0.00000E+00
 -1      3479 1.32367E+02 1.44018E+01 0.00000E+00
 -1      3480 1.35510E+02 1.76625E+01 0.00000E+00
 -1      3481 1.08053E+02 2.79588E+01 0.00000E+00
 -1      3482 1.06491E+02 2.79155E+01 0.00000E+00
 -1      3483 1.08411E+02 2.91869E+01 0.00000E+00
 -1      3484 4.86000E+01 1.42890E+01 0.00000E+00
 -1      3485 4.71000E+01 1.42890E+01 0.00000E+00
 -1      3486 4.63500E+01 1.55880E+01 0.00000E+00
 -1      3487 4.93500E+01 1.55880E+01 0.00000E+00
 -1      3488 1.33200E+01 3.54019E+01 0.00000E+00
 -1      3489 3.66375E+01 1.42890E+01 0.00000E+00
 -1      3490 3.51375E+01 1.42890E+01 0.00000E+00
 -1      3491 3.44250E+01 1.55880E+01 0.00000E+00
 -1      3492 1.42890E+01 1.98188E+01 0.00000E+00
 -1      3493 1.42890E+01 2.12906E+01 0.00000E+00
 -1      3494 1.55880E+01 1.90844E+01 0.00000E+00
 -1      3495 1.16969E+02 3.01603E+01 0.00000E+00
 -1      3496 1.15533E+02 3.02770E+01 0.00000E+00
 -1      3497 1.17784E+02 3.13564E+01 0.00000E+00
 -1      3498 1.26114E+02 2.16029E+01 0.00000E+00
 -1      3499 1.25908E+02 2.29092E+01 0.00000E+00
 -1      3500 9.90778E+01 2.20661E+01 0.00000E+00
 -1      3501 9.84925E+01 2.10174E+01 0.00000E+00
 -1      3502 2.77313E+01 1.42890E+01 0.00000E+00
 -1      3503 2.62313E+01 1.42890E+01 0.00000E+00
 -1      3504 2.54813E+01 1.55880E+01 0.00000E+00
 -1      3505 2.84438E+01 1.55880E+01 0.00000E+00
 -1      3506 3.96188E+01 1.42890E+01 0.00000E+00
 -1      3507 3.81188E+01 1.42890E+01 0.00000E+00
 -1      3508 3.74063E+01 1.55880E+01 0.00000E+00
 -1      3509 4.03688E+01 1.55880E+01 0.00000E+00
 -1      3510 1.46100E+01 3.55564E+01 0.00000E+00
 -1      3511 1.61100E+01 3.55564E+01 0.00000E+00
 -1      3512 1.68600E+01 3.42574E+01 0.00000E+00
 -1      3513 1.42800E+01 3.39483E+01 0.00000E+00
 -1      3514 1.21396E+02 2.74370E+01 0.00000E+00
 -1      3515 9.77011E+01 1.97219E+01 0.00000E+00
 -1      3516 9.72401E+01 1.81125E+01 0.00000E+00
 -1      3517 9.54427E+01 1.81956E+01 0.00000E+00
 -1      3518 9.70254E+01 2.07867E+01 0.00000E+00
 -1      3519 1.35795E+02 3.24967E+01 0.00000E+00
 -1      3520 1.35795E+02 3.10217E+01 0.00000E+00
 -1      3521 1.34580E+02 3.26435E+01 0.00000E+00
 -1      3522 1.35711E+02 2.13406E+01 0.00000E+00
 -1      3523 1.35711E+02 1.98687E+01 0.00000E+00
 -1      3524 1.34412E+02 2.20781E+01 0.00000E+00
 -1      3525 1.22846E+02 2.78983E+01 0.00000E+00
 -1      3526 1.21566E+02 2.89490E+01 0.00000E+00
 -1      3527 1.60440E+01 1.53013E+01 0.00000E+00
 -1      3528 1.29900E+01 2.64469E+01 0.00000E+00
 -1      3529 9.94820E+01 2.46536E+01 0.00000E+00
 -1      3530 9.92799E+01 2.33598E+01 0.00000E+00
 -1      3531 9.80189E+01 2.33759E+01 0.00000E+00
 -1      3532 1.34211E+02 1.84000E+01 0.00000E+00
 -1      3533 1.30356E+02 1.80942E+01 0.00000E+00
 -1      3534 1.28739E+02 1.83680E+01 0.00000E+00
 -1      3535 1.28886E+02 1.94215E+01 0.00000E+00
 -1      3536 1.67940E+01 1.66003E+01 0.00000E+00
 -1      3537 1.21118E+02 3.03249E+01 0.00000E+00
 -1      3538 1.35711E+02 2.57500E+01 0.00000E+00
 -1      3539 1.34412E+02 2.50125E+01 0.00000E+00
 -1      3540 1.35711E+02 2.72125E+01 0.00000E+00
 -1      3541 1.26474E+02 2.43879E+01 0.00000E+00
 -1      3542 1.27041E+02 2.58665E+01 0.00000E+00
 -1      3543 1.27673E+02 2.39077E+01 0.00000E+00
 -1      3544 1.42890E+01 2.86531E+01 0.00000E+00
 -1      3545 1.42890E+01 3.01219E+01 0.00000E+00
 -1      3546 1.55880E+01 2.20313E+01 0.00000E+00
 -1      3547 1.42890E+01 2.27656E+01 0.00000E+00
 -1      3548 1.42890E+01 2.42406E+01 0.00000E+00
 -1      3549 1.14654E+02 3.14156E+01 0.00000E+00
 -1      3550 1.24429E+02 2.78785E+01 0.00000E+00
 -1      3551 1.05463E+02 2.78465E+01 0.00000E+00
 -1      3552 1.04436E+02 2.77776E+01 0.00000E+00
 -1      3553 1.05822E+02 2.90746E+01 0.00000E+00
 -1      3554 1.35753E+02 2.98484E+01 0.00000E+00
 -1      3555 1.35753E+02 2.83859E+01 0.00000E+00
 -1      3556 1.34454E+02 2.76484E+01 0.00000E+00
 -1      3557 1.34538E+02 2.99951E+01 0.00000E+00
 -1      3558 1.27187E+02 2.10622E+01 0.00000E+00
 -1      3559 1.02743E+02 2.64787E+01 0.00000E+00
 -1      3560 1.02410E+02 2.55935E+01 0.00000E+00
 -1      3561 1.01076E+02 2.55227E+01 0.00000E+00
 -1      3562 1.42845E+01 3.13007E+01 0.00000E+00
 -1      3563 1.42845E+01 3.27695E+01 0.00000E+00
 -1      3564 1.55745E+01 3.29240E+01 0.00000E+00
 -1      3565 1.55835E+01 3.05663E+01 0.00000E+00
 -1      3566 2.19000E+01 3.31130E+01 0.00000E+00
 -1      3567 2.34000E+01 3.31130E+01 0.00000E+00
 -1      3568 1.42890E+01 2.57109E+01 0.00000E+00
 -1      3569 1.42890E+01 2.71828E+01 0.00000E+00
 -1      3570 1.55880E+01 2.79172E+01 0.00000E+00
 -1      3571 1.55880E+01 2.49766E+01 0.00000E+00
 -1      3572 1.33365E+02 3.27902E+01 0.00000E+00
 -1      3573 1.33365E+02 3.13153E+01 0.00000E+00
 -1      3574 1.32150E+02 3.29370E+01 0.00000E+00
 -1      3575 1.11495E+02 3.13812E+01 0.00000E+00
 -1      3576 1.10770E+02 3.01394E+01 0.00000E+00
 -1      3577 2.49000E+01 3.31130E+01 0.00000E+00
 -1      3578 2.64000E+01 3.31130E+01 0.00000E+00
 -1      3579 2.41500E+01 3.18140E+01 0.00000E+00
 -1      3580 2.79000E+01 3.31130E+01 0.00000E+00
 -1      3581 2.94000E+01 3.31130E+01 0.00000E+00
 -1      3582 2.71500E+01 3.18140E+01 0.00000E+00
 -1      3583 3.09000E+01 3.31130E+01 0.00000E+00
 -1      3584 3.24000E+01 3.31130E+01 0.00000E+00
 -1      3585 3.01500E+01 3.18140E+01 0.00000E+00
 -1      3586 3.39000E+01 3.31130E+01 0.00000E+00
 -1      3587 3.54000E+01 3.31130E+01 0.00000E+00
 -1      3588 3.31500E+01 3.18140E+01 0.00000E+00
 -1      3589 3.69000E+01 3.31130E+01 0.00000E+00
 -1      3590 3.84000E+01 3.31130E+01 0.00000E+00
 -1      3591 3.61500E+01 3.18140E+01 0.00000E+00
 -1      3592 3.99000E+01 3.31130E+01 0.00000E+00
 -1      3593 4.14000E+01 3.31130E+01 0.00000E+00
 -1      3594 3.91500E+01 3.18140E+01 0.00000E+00
 -1      3595 4.29000E+01 3.31130E+01 0.00000E+00
 -1      3596 4.44000E+01 3.31130E+01 0.00000E+00
 -1      3597 4.21500E+01 3.18140E+01 0.00000E+00
 -1      3598 4.59000E+01 3.31130E+01 0.00000E+00
 -1      3599 4.74000E+01 3.31130E+01 0.00000E+00
 -1      3600 4.51500E+01 3.18140E+01 0.00000E+00
 -1      3601 4.89000E+01 3.31130E+01 0.00000E+00
 -1      3602 5.04000E+01 3.31130E+01 0.00000E+00
 -1      3603 4.81500E+01 3.18140E+01 0.00000E+00
 -1      3604 5.19000E+01 3.31130E+01 0.00000E+00
 -1      3605 5.34000E+01 3.31130E+01 0.00000E+00
 -1      3606 5.11500E+01 3.18140E+01 0.00000E+00
 -1      3607 5.49000E+01 3.31130E+01 0.00000E+00
 -1      3608 5.64000E+01 3.31130E+01 0.00000E+00
 -1      3609 5.41500E+01 3.18140E+01 0.00000E+00
 -1      3610 5.79000E+01 3.31130E+01 0.00000E+00
 -1      3611 5.94000E+01 3.31130E+01 0.00000E+00
 -1      3612 5.71500E+01 3.18140E+01 0.00000E+00
 -1      3613 6.09000E+01 3.31130E+01 0.00000E+00
 -1      3614 6.24000E+01 3.31130E+01 0.00000E+00
 -1      3615 6.01500E+01 3.18140E+01 0.00000E+00
 -1      3616 6.39000E+01 3.31130E+01 0.00000E+00
 -1      3617 6.54000E+01 3.31130E+01 0.00000E+00
 -1      3618 6.31500E+01 3.18140E+01 0.00000E+00
 -1      3619 6.69000E+01 3.31130E+01 0.00000E+00
 -1      3620 6.84000E+01 3.31130E+01 0.00000E+00
 -1      3621 6.61500E+01 3.18140E+01 0.00000E+00
 -1      3622 6.99000E+01 3.31130E+01 0.00000E+00
 -1      3623 7.14000E+01 3.31130E+01 0.00000E+00
 -1      3624 6.91500E+01 3.18140E+01 0.00000E+00
 -1      3625 7.29000E+01 3.31130E+01 0.00000E+00
 -1      3626 7.44000E+01 3.31130E+01 0.00000E+00
 -1      3627 7.21500E+01 3.18140E+01 0.00000E+00
 -1      3628 7.59000E+01 3.31130E+01 0.00000E+00
 -1      3629 7.74000E+01 3.31130E+01 0.00000E+00
 -1      3630 7.51500E+01 3.18140E+01 0.00000E+00
 -1      3631 7.89000E+01 3.31130E+01 0.00000E+00
 -1      3632 8.04000E+01 3.31130E+01 0.00000E+00
 -1      3633 7.81500E+01 3.18140E+01 0.00000E+00
 -1      3634 8.19000E+01 3.31130E+01 0.00000E+00
 -1      3635 8.34000E+01 3.31130E+01 0.00000E+00
 -1      3636 8.11500E+01 3.18140E+01 0.00000E+00
 -1      3637 8.49000E+01 3.31130E+01 0.00000E+00
 -1      3638 8.64000E+01 3.31130E+01 0.00000E+00
 -1      3639 8.41500E+01 3.18140E+01 0.00000E+00
 -1      3640 8.79000E+01 3.31130E+01 0.00000E+00
 -1      3641 8.94000E+01 3.31130E+01 0.00000E+00
 -1      3642 8.71500E+01 3.18140E+01 0.00000E+00
 -1      3643 9.09000E+01 3.31130E+01 0.00000E+00
 -1      3644 9.24000E+01 3.31130E+01 0.00000E+00
 -1      3645 9.01500E+01 3.18140E+01 0.00000E+00
 -1      3646 9.39000E+01 3.31130E+01 0.00000E+00
 -1      3647 9.54000E+01 3.31130E+01 0.00000E+00
 -1      3648 9.31500E+01 3.18140E+01 0.00000E+00
 -1      3649 9.69000E+01 3.31130E+01 0.00000E+00
 -1      3650 9.84000E+01 3.31130E+01 0.00000E+00
 -1      3651 9.61500E+01 3.18140E+01 0.00000E+00
 -1      3652 9.99000E+01 3.31130E+01 0.00000E+00
 -1      3653 1.01400E+02 3.31130E+01 0.00000E+00
 -1      3654 9.91500E+01 3.18140E+01 0.00000E+00
 -1      3655 1.02900E+02 3.31130E+01 0.00000E+00
 -1      3656 1.04400E+02 3.31130E+01 0.00000E+00
 -1      3657 1.02150E+02 3.18140E+01 0.00000E+00
 -1      3658 1.05900E+02 3.31130E+01 0.00000E+00
 -1      3659 1.07400E+02 3.31130E+01 0.00000E+00
 -1      3660 1.05150E+02 3.18140E+01 0.00000E+00
 -1      3661 1.09090E+02 3.29082E+01 0.00000E+00
 -1      3662 1.10590E+02 3.29082E+01 0.00000E+00
 -1      3663 1.12055E+02 3.28850E+01 0.00000E+00
 -1      3664 1.13555E+02 3.28850E+01 0.00000E+00
 -1      3665 1.15249E+02 3.29426E+01 0.00000E+00
 -1      3666 1.16749E+02 3.29426E+01 0.00000E+00
 -1      3667 1.18185E+02 3.28258E+01 0.00000E+00
 -1      3668 1.19685E+02 3.28258E+01 0.00000E+00
 -1      3669 1.23900E+02 3.31130E+01 0.00000E+00
 -1      3670 1.25400E+02 3.31130E+01 0.00000E+00
 -1      3671 1.26900E+02 3.31130E+01 0.00000E+00
 -1      3672 1.28400E+02 3.31130E+01 0.00000E+00
 -1      3673 1.26150E+02 3.18140E+01 0.00000E+00
 -1      3674 1.29525E+02 3.30250E+01 0.00000E+00
 -1      3675 1.31025E+02 3.30250E+01 0.00000E+00
 -1      3676 1.31025E+02 3.15500E+01 0.00000E+00
 -1      3677 1.28775E+02 3.17260E+01 0.00000E+00
 -1      3678 1.08340E+02 3.16092E+01 0.00000E+00
 -1      3679 1.10002E+02 3.03173E+01 0.00000E+00
 -1      3680 5.61000E+01 1.68870E+01 0.00000E+00
 -1      3681 5.46000E+01 1.68870E+01 0.00000E+00
 -1      3682 5.31000E+01 1.68870E+01 0.00000E+00
 -1      3683 5.16000E+01 1.68870E+01 0.00000E+00
 -1      3684 5.38500E+01 1.81860E+01 0.00000E+00
 -1      3685 6.21000E+01 1.68870E+01 0.00000E+00
 -1      3686 6.06000E+01 1.68870E+01 0.00000E+00
 -1      3687 6.51000E+01 1.68870E+01 0.00000E+00
 -1      3688 6.36000E+01 1.68870E+01 0.00000E+00
 -1      3689 6.28500E+01 1.81860E+01 0.00000E+00
 -1      3690 6.81000E+01 1.68870E+01 0.00000E+00
 -1      3691 6.66000E+01 1.68870E+01 0.00000E+00
 -1      3692 6.58500E+01 1.81860E+01 0.00000E+00
 -1      3693 7.11000E+01 1.68870E+01 0.00000E+00
 -1      3694 6.96000E+01 1.68870E+01 0.00000E+00
 -1      3695 6.88500E+01 1.81860E+01 0.00000E+00
 -1      3696 7.39500E+01 1.68870E+01 0.00000E+00
 -1      3697 7.25250E+01 1.68870E+01 0.00000E+00
 -1      3698 7.17750E+01 1.81860E+01 0.00000E+00
 -1      3699 7.69500E+01 1.68870E+01 0.00000E+00
 -1      3700 7.54500E+01 1.68870E+01 0.00000E+00
 -1      3701 7.47000E+01 1.81860E+01 0.00000E+00
 -1      3702 7.99500E+01 1.68870E+01 0.00000E+00
 -1      3703 7.84500E+01 1.68870E+01 0.00000E+00
 -1      3704 7.77000E+01 1.81860E+01 0.00000E+00
 -1      3705 8.29500E+01 1.68870E+01 0.00000E+00
 -1      3706 8.14500E+01 1.68870E+01 0.00000E+00
 -1      3707 8.07000E+01 1.81860E+01 0.00000E+00
 -1      3708 8.59500E+01 1.68870E+01 0.00000E+00
 -1      3709 8.44500E+01 1.68870E+01 0.00000E+00
 -1      3710 8.37000E+01 1.81860E+01 0.00000E+00
 -1      3711 8.89500E+01 1.68870E+01 0.00000E+00
 -1      3712 8.74500E+01 1.68870E+01 0.00000E+00
 -1      3713 8.67000E+01 1.81860E+01 0.00000E+00
 -1      3714 3.21750E+01 1.68870E+01 0.00000E+00
 -1      3715 3.06750E+01 1.68870E+01 0.00000E+00
 -1      3716 1.82322E+01 1.70891E+01 0.00000E+00
 -1      3717 1.70261E+01 1.81014E+01 0.00000E+00
 -1      3718 1.89000E+01 3.31130E+01 0.00000E+00
 -1      3719 2.04000E+01 3.31130E+01 0.00000E+00
 -1      3720 2.11500E+01 3.18140E+01 0.00000E+00
 -1      3721 1.26090E+02 2.79935E+01 0.00000E+00
 -1      3722 1.24677E+02 2.95253E+01 0.00000E+00
 -1      3723 1.08311E+02 3.05221E+01 0.00000E+00
 -1      3724 1.06750E+02 3.04788E+01 0.00000E+00
 -1      3725 1.32458E+02 1.98770E+01 0.00000E+00
 -1      3726 1.32257E+02 1.76707E+01 0.00000E+00
 -1      3727 1.70261E+01 1.95732E+01 0.00000E+00
 -1      3728 3.51750E+01 1.68870E+01 0.00000E+00
 -1      3729 3.36750E+01 1.68870E+01 0.00000E+00
 -1      3730 3.29250E+01 1.81860E+01 0.00000E+00
 -1      3731 1.28805E+02 2.07883E+01 0.00000E+00
 -1      3732 1.28724E+02 2.21551E+01 0.00000E+00
 -1      3733 1.30422E+02 2.05145E+01 0.00000E+00
 -1      3734 5.91000E+01 1.68870E+01 0.00000E+00
 -1      3735 5.76000E+01 1.68870E+01 0.00000E+00
 -1      3736 5.98500E+01 1.81860E+01 0.00000E+00
 -1      3737 1.32377E+02 2.27156E+01 0.00000E+00
 -1      3738 1.32377E+02 2.12438E+01 0.00000E+00
 -1      3739 4.41000E+01 1.68870E+01 0.00000E+00
 -1      3740 4.26000E+01 1.68870E+01 0.00000E+00
 -1      3741 1.68870E+01 2.71820E+01 0.00000E+00
 -1      3742 1.68870E+01 2.86523E+01 0.00000E+00
 -1      3743 9.98148E+01 2.55388E+01 0.00000E+00
 -1      3744 9.85538E+01 2.55549E+01 0.00000E+00
 -1      3745 1.00148E+02 2.64240E+01 0.00000E+00
 -1      3746 1.32242E+02 1.54742E+01 0.00000E+00
 -1      3747 4.56000E+01 1.68870E+01 0.00000E+00
 -1      3748 4.48500E+01 1.81860E+01 0.00000E+00
 -1      3749 4.71000E+01 1.68870E+01 0.00000E+00
 -1      3750 1.20699E+02 3.16671E+01 0.00000E+00
 -1      3751 1.21164E+02 3.32533E+01 0.00000E+00
 -1      3752 1.22664E+02 3.32533E+01 0.00000E+00
 -1      3753 5.68500E+01 1.81860E+01 0.00000E+00
 -1      3754 1.32110E+02 1.66172E+01 0.00000E+00
 -1      3755 1.70261E+01 2.10482E+01 0.00000E+00
 -1      3756 1.70261E+01 2.25232E+01 0.00000E+00
 -1      3757 1.84642E+01 2.00652E+01 0.00000E+00
 -1      3758 1.22597E+02 3.07525E+01 0.00000E+00
 -1      3759 1.97321E+01 1.70891E+01 0.00000E+00
 -1      3760 1.23414E+02 3.19543E+01 0.00000E+00
 -1      3761 1.65923E+01 3.29412E+01 0.00000E+00
 -1      3762 1.78822E+01 3.30958E+01 0.00000E+00
 -1      3763 1.86322E+01 3.17968E+01 0.00000E+00
 -1      3764 1.65968E+01 3.17624E+01 0.00000E+00
 -1      3765 5.08500E+01 1.81860E+01 0.00000E+00
 -1      3766 5.01000E+01 1.68870E+01 0.00000E+00
 -1      3767 4.86000E+01 1.68870E+01 0.00000E+00
 -1      3768 2.99438E+01 1.81860E+01 0.00000E+00
 -1      3769 2.91938E+01 1.68870E+01 0.00000E+00
 -1      3770 2.77125E+01 1.68870E+01 0.00000E+00
 -1      3771 9.01878E+01 1.72150E+01 0.00000E+00
 -1      3772 8.94378E+01 1.85140E+01 0.00000E+00
 -1      3773 9.14256E+01 1.75431E+01 0.00000E+00
 -1      3774 1.29290E+02 2.36338E+01 0.00000E+00
 -1      3775 9.39013E+01 1.81991E+01 0.00000E+00
 -1      3776 9.26635E+01 1.78711E+01 0.00000E+00
 -1      3777 9.19135E+01 1.91701E+01 0.00000E+00
 -1      3778 2.32500E+01 1.68870E+01 0.00000E+00
 -1      3779 2.17500E+01 1.68870E+01 0.00000E+00
 -1      3780 9.68588E+01 2.42198E+01 0.00000E+00
 -1      3781 9.66567E+01 2.29261E+01 0.00000E+00
 -1      3782 1.32108E+02 3.02886E+01 0.00000E+00
 -1      3783 1.33323E+02 3.01419E+01 0.00000E+00
 -1      3784 1.33281E+02 2.89685E+01 0.00000E+00
 -1      3785 3.81375E+01 1.68870E+01 0.00000E+00
 -1      3786 3.66563E+01 1.68870E+01 0.00000E+00
 -1      3787 3.59063E+01 1.81860E+01 0.00000E+00
 -1      3788 1.05722E+02 3.04098E+01 0.00000E+00
 -1      3789 4.11094E+01 1.68870E+01 0.00000E+00
 -1      3790 3.96281E+01 1.68870E+01 0.00000E+00
 -1      3791 3.88781E+01 1.81860E+01 0.00000E+00
 -1      3792 4.18594E+01 1.81860E+01 0.00000E+00
 -1      3793 1.23833E+02 3.06121E+01 0.00000E+00
 -1      3794 1.25494E+02 3.07271E+01 0.00000E+00
 -1      3795 1.03101E+02 2.77068E+01 0.00000E+00
 -1      3796 1.01767E+02 2.76360E+01 0.00000E+00
 -1      3797 1.03460E+02 2.89349E+01 0.00000E+00
 -1      3798 1.66012E+01 3.05835E+01 0.00000E+00
 -1      3799 2.62219E+01 1.68870E+01 0.00000E+00
 -1      3800 2.47406E+01 1.68870E+01 0.00000E+00
 -1      3801 2.39906E+01 1.81860E+01 0.00000E+00
 -1      3802 2.69719E+01 1.81860E+01 0.00000E+00
 -1      3803 1.79002E+01 2.98484E+01 0.00000E+00
 -1      3804 9.46927E+01 1.94946E+01 0.00000E+00
 -1      3805 9.58653E+01 2.16306E+01 0.00000E+00
 -1      3806 1.32869E+02 2.47403E+01 0.00000E+00
 -1      3807 1.30833E+02 2.39060E+01 0.00000E+00
 -1      3808 1.29782E+02 2.56585E+01 0.00000E+00
 -1      3809 1.32869E+02 2.62028E+01 0.00000E+00
 -1      3810 2.34000E+01 3.05150E+01 0.00000E+00
 -1      3811 2.49000E+01 3.05150E+01 0.00000E+00
 -1      3812 1.68870E+01 2.57117E+01 0.00000E+00
 -1      3813 1.81860E+01 2.64469E+01 0.00000E+00
 -1      3814 1.68870E+01 2.42414E+01 0.00000E+00
 -1      3815 2.64000E+01 3.05150E+01 0.00000E+00
 -1      3816 2.79000E+01 3.05150E+01 0.00000E+00
 -1      3817 2.56500E+01 2.92160E+01 0.00000E+00
 -1      3818 2.94000E+01 3.05150E+01 0.00000E+00
 -1      3819 3.09000E+01 3.05150E+01 0.00000E+00
 -1      3820 2.86500E+01 2.92160E+01 0.00000E+00
 -1      3821 3.24000E+01 3.05150E+01 0.00000E+00
 -1      3822 3.39000E+01 3.05150E+01 0.00000E+00
 -1      3823 3.16500E+01 2.92160E+01 0.00000E+00
 -1      3824 3.54000E+01 3.05150E+01 0.00000E+00
 -1      3825 3.69000E+01 3.05150E+01 0.00000E+00
 -1      3826 3.46500E+01 2.92160E+01 0.00000E+00
 -1      3827 3.84000E+01 3.05150E+01 0.00000E+00
 -1      3828 3.99000E+01 3.05150E+01 0.00000E+00
 -1      3829 3.76500E+01 2.92160E+01 0.00000E+00
 -1      3830 4.14000E+01 3.05150E+01 0.00000E+00
 -1      3831 4.29000E+01 3.05150E+01 0.00000E+00
 -1      3832 4.06500E+01 2.92160E+01 0.00000E+00
 -1      3833 4.44000E+01 3.05150E+01 0.00000E+00
 -1      3834 4.59000E+01 3.05150E+01 0.00000E+00
 -1      3835 4.36500E+01 2.92160E+01 0.00000E+00
 -1      3836 4.74000E+01 3.05150E+01 0.00000E+00
 -1      3837 4.89000E+01 3.05150E+01 0.00000E+00
 -1      3838 4.66500E+01 2.92160E+01 0.00000E+00
 -1      3839 5.04000E+01 3.05150E+01 0.00000E+00
 -1      3840 5.19000E+01 3.05150E+01 0.00000E+00
 -1      3841 4.96500E+01 2.92160E+01 0.00000E+00
 -1      3842 5.34000E+01 3.05150E+01 0.00000E+00
 -1      3843 5.49000E+01 3.05150E+01 0.00000E+00
 -1      3844 5.26500E+01 2.92160E+01 0.00000E+00
 -1      3845 5.64000E+01 3.05150E+01 0.00000E+00
 -1      3846 5.79000E+01 3.05150E+01 0.00000E+00
 -1      3847 5.56500E+01 2.92160E+01 0.00000E+00
 -1      3848 5.94000E+01 3.05150E+01 0.00000E+00
 -1      3849 6.09000E+01 3.05150E+01 0.00000E+00
 -1      3850 5.86500E+01 2.92160E+01 0.00000E+00
 -1      3851 6.24000E+01 3.05150E+01 0.00000E+00
 -1      3852 6.39000E+01 3.05150E+01 0.00000E+00
 -1      3853 6.16500E+01 2.92160E+01 0.00000E+00
 -1      3854 6.54000E+01 3.05150E+01 0.00000E+00
 -1      3855 6.69000E+01 3.05150E+01 0.00000E+00
 -1      3856 6.46500E+01 2.92160E+01 0.00000E+00
 -1      3857 6.84000E+01 3.05150E+01 0.00000E+00
 -1      3858 6.99000E+01 3.05150E+01 0.00000E+00
 -1      3859 6.76500E+01 2.92160E+01 0.00000E+00
 -1      3860 7.14000E+01 3.05150E+01 0.00000E+00
 -1      3861 7.29000E+01 3.05150E+01 0.00000E+00
 -1      3862 7.06500E+01 2.92160E+01 0.00000E+00
 -1      3863 7.44000E+01 3.05150E+01 0.00000E+00
 -1      3864 7.59000E+01 3.05150E+01 0.00000E+00
 -1      3865 7.36500E+01 2.92160E+01 0.00000E+00
 -1      3866 7.74000E+01 3.05150E+01 0.00000E+00
 -1      3867 7.89000E+01 3.05150E+01 0.00000E+00
 -1      3868 7.66500E+01 2.92160E+01 0.00000E+00
 -1      3869 8.04000E+01 3.05150E+01 0.00000E+00
 -1      3870 8.19000E+01 3.05150E+01 0.00000E+00
 -1      3871 7.96500E+01 2.92160E+01 0.00000E+00
 -1      3872 8.34000E+01 3.05150E+01 0.00000E+00
 -1      3873 8.49000E+01 3.05150E+01 0.00000E+00
 -1      3874 8.26500E+01 2.92160E+01 0.00000E+00
 -1      3875 8.64000E+01 3.05150E+01 0.00000E+00
 -1      3876 8.79000E+01 3.05150E+01 0.00000E+00
 -1      3877 8.56500E+01 2.92160E+01 0.00000E+00
 -1      3878 8.94000E+01 3.05150E+01 0.00000E+00
 -1      3879 9.09000E+01 3.05150E+01 0.00000E+00
 -1      3880 8.86500E+01 2.92160E+01 0.00000E+00
 -1      3881 9.24000E+01 3.05150E+01 0.00000E+00
 -1      3882 9.39000E+01 3.05150E+01 0.00000E+00
 -1      3883 9.16500E+01 2.92160E+01 0.00000E+00
 -1      3884 9.54000E+01 3.05150E+01 0.00000E+00
 -1      3885 9.69000E+01 3.05150E+01 0.00000E+00
 -1      3886 9.46500E+01 2.92160E+01 0.00000E+00
 -1      3887 9.84000E+01 3.05150E+01 0.00000E+00
 -1      3888 9.99000E+01 3.05150E+01 0.00000E+00
 -1      3889 9.76500E+01 2.92160E+01 0.00000E+00
 -1      3890 1.01388E+02 3.03390E+01 0.00000E+00
 -1      3891 1.02888E+02 3.03390E+01 0.00000E+00
 -1      3892 1.04222E+02 3.04098E+01 0.00000E+00
 -1      3893 2.04821E+01 1.83881E+01 0.00000E+00
 -1      3894 6.96000E+01 1.94850E+01 0.00000E+00
 -1      3895 6.81000E+01 1.94850E+01 0.00000E+00
 -1      3896 6.66000E+01 1.94850E+01 0.00000E+00
 -1      3897 6.51000E+01 1.94850E+01 0.00000E+00
 -1      3898 6.73500E+01 2.07840E+01 0.00000E+00
 -1      3899 6.36000E+01 1.94850E+01 0.00000E+00
 -1      3900 6.21000E+01 1.94850E+01 0.00000E+00
 -1      3901 6.43500E+01 2.07840E+01 0.00000E+00
 -1      3902 7.24500E+01 1.94850E+01 0.00000E+00
 -1      3903 7.10250E+01 1.94850E+01 0.00000E+00
 -1      3904 7.02750E+01 2.07840E+01 0.00000E+00
 -1      3905 7.54500E+01 1.94850E+01 0.00000E+00
 -1      3906 7.39500E+01 1.94850E+01 0.00000E+00
 -1      3907 7.32000E+01 2.07840E+01 0.00000E+00
 -1      3908 7.84500E+01 1.94850E+01 0.00000E+00
 -1      3909 7.69500E+01 1.94850E+01 0.00000E+00
 -1      3910 7.62000E+01 2.07840E+01 0.00000E+00
 -1      3911 8.14500E+01 1.94850E+01 0.00000E+00
 -1      3912 7.99500E+01 1.94850E+01 0.00000E+00
 -1      3913 7.92000E+01 2.07840E+01 0.00000E+00
 -1      3914 8.44500E+01 1.94850E+01 0.00000E+00
 -1      3915 8.29500E+01 1.94850E+01 0.00000E+00
 -1      3916 8.22000E+01 2.07840E+01 0.00000E+00
 -1      3917 8.74500E+01 1.94850E+01 0.00000E+00
 -1      3918 8.59500E+01 1.94850E+01 0.00000E+00
 -1      3919 8.52000E+01 2.07840E+01 0.00000E+00
 -1      3920 9.71326E+01 2.56782E+01 0.00000E+00
 -1      3921 9.57704E+01 2.52284E+01 0.00000E+00
 -1      3922 3.36750E+01 1.94850E+01 0.00000E+00
 -1      3923 3.21750E+01 1.94850E+01 0.00000E+00
 -1      3924 2.04000E+01 3.05150E+01 0.00000E+00
 -1      3925 2.19000E+01 3.05150E+01 0.00000E+00
 -1      3926 2.26500E+01 2.92160E+01 0.00000E+00
 -1      3927 1.28123E+02 2.68323E+01 0.00000E+00
 -1      3928 1.26925E+02 2.73124E+01 0.00000E+00
 -1      3929 1.27173E+02 2.89592E+01 0.00000E+00
 -1      3930 1.26994E+02 3.07271E+01 0.00000E+00
 -1      3931 2.25000E+01 1.96610E+01 0.00000E+00
 -1      3932 2.04821E+01 1.98631E+01 0.00000E+00
 -1      3933 2.04821E+01 2.13381E+01 0.00000E+00
 -1      3934 5.46000E+01 1.94850E+01 0.00000E+00
 -1      3935 5.31000E+01 1.94850E+01 0.00000E+00
 -1      3936 5.76000E+01 1.94850E+01 0.00000E+00
 -1      3937 5.61000E+01 1.94850E+01 0.00000E+00
 -1      3938 5.53500E+01 2.07840E+01 0.00000E+00
 -1      3939 6.06000E+01 1.94850E+01 0.00000E+00
 -1      3940 5.91000E+01 1.94850E+01 0.00000E+00
 -1      3941 6.13500E+01 2.07840E+01 0.00000E+00
 -1      3942 1.33239E+02 2.77951E+01 0.00000E+00
 -1      3943 9.43239E+01 2.16341E+01 0.00000E+00
 -1      3944 1.27646E+02 2.97992E+01 0.00000E+00
 -1      3945 1.28302E+02 3.08860E+01 0.00000E+00
 -1      3946 1.29427E+02 3.07980E+01 0.00000E+00
 -1      3947 1.28480E+02 2.91181E+01 0.00000E+00
 -1      3948 9.37716E+01 2.33272E+01 0.00000E+00
 -1      3949 9.25989E+01 2.11912E+01 0.00000E+00
 -1      3950 1.29189E+02 2.66654E+01 0.00000E+00
 -1      3951 1.29073E+02 2.81113E+01 0.00000E+00
 -1      3952 1.29546E+02 2.89512E+01 0.00000E+00
 -1      3953 1.30733E+02 2.69375E+01 0.00000E+00
 -1      3954 9.74654E+01 2.65634E+01 0.00000E+00
 -1      3955 4.78500E+01 1.81860E+01 0.00000E+00
 -1      3956 1.94850E+01 2.57117E+01 0.00000E+00
 -1      3957 1.94850E+01 2.71820E+01 0.00000E+00
 -1      3958 1.00279E+02 2.78120E+01 0.00000E+00
 -1      3959 9.90183E+01 2.78280E+01 0.00000E+00
 -1      3960 1.00638E+02 2.90400E+01 0.00000E+00
 -1      3961 1.89180E+01 2.98656E+01 0.00000E+00
 -1      3962 1.30205E+02 3.05873E+01 0.00000E+00
 -1      3963 1.31330E+02 3.04993E+01 0.00000E+00
 -1      3964 1.31288E+02 2.93260E+01 0.00000E+00
 -1      3965 1.29732E+02 2.97474E+01 0.00000E+00
 -1      3966 9.40454E+01 2.47856E+01 0.00000E+00
 -1      3967 9.23204E+01 2.43427E+01 0.00000E+00
 -1      3968 9.43192E+01 2.62440E+01 0.00000E+00
 -1      3969 5.23500E+01 2.07840E+01 0.00000E+00
 -1      3970 5.16000E+01 1.94850E+01 0.00000E+00
 -1      3971 5.01000E+01 1.94850E+01 0.00000E+00
 -1      3972 2.39906E+01 1.96610E+01 0.00000E+00
 -1      3973 3.06938E+01 1.94850E+01 0.00000E+00
 -1      3974 2.92125E+01 1.94850E+01 0.00000E+00
 -1      3975 3.14438E+01 2.07840E+01 0.00000E+00
 -1      3976 8.86878E+01 1.98130E+01 0.00000E+00
 -1      3977 8.79378E+01 2.11120E+01 0.00000E+00
 -1      3978 8.99256E+01 2.01411E+01 0.00000E+00
 -1      3979 1.31696E+02 2.75230E+01 0.00000E+00
 -1      3980 9.13611E+01 2.08632E+01 0.00000E+00
 -1      3981 5.83500E+01 2.07840E+01 0.00000E+00
 -1      3982 4.26047E+01 1.94850E+01 0.00000E+00
 -1      3983 4.11141E+01 1.94850E+01 0.00000E+00
 -1      3984 3.66375E+01 1.94850E+01 0.00000E+00
 -1      3985 3.51563E+01 1.94850E+01 0.00000E+00
 -1      3986 3.44063E+01 2.07840E+01 0.00000E+00
 -1      3987 4.56047E+01 1.94850E+01 0.00000E+00
 -1      3988 4.41047E+01 1.94850E+01 0.00000E+00
 -1      3989 4.33594E+01 2.07840E+01 0.00000E+00
 -1      3990 1.96680E+01 2.85666E+01 0.00000E+00
 -1      3991 1.83251E+01 2.32584E+01 0.00000E+00
 -1      3992 2.09670E+01 2.78314E+01 0.00000E+00
 -1      3993 9.75183E+01 2.78280E+01 0.00000E+00
 -1      3994 9.60971E+01 2.79514E+01 0.00000E+00
 -1      3995 2.49000E+01 2.79170E+01 0.00000E+00
 -1      3996 2.64000E+01 2.79170E+01 0.00000E+00
 -1      3997 2.79000E+01 2.79170E+01 0.00000E+00
 -1      3998 2.94000E+01 2.79170E+01 0.00000E+00
 -1      3999 2.71500E+01 2.66180E+01 0.00000E+00
 -1      4000 3.09000E+01 2.79170E+01 0.00000E+00
 -1      4001 3.24000E+01 2.79170E+01 0.00000E+00
 -1      4002 3.01500E+01 2.66180E+01 0.00000E+00
 -1      4003 3.39000E+01 2.79170E+01 0.00000E+00
 -1      4004 3.54000E+01 2.79170E+01 0.00000E+00
 -1      4005 3.31500E+01 2.66180E+01 0.00000E+00
 -1      4006 3.69000E+01 2.79170E+01 0.00000E+00
 -1      4007 3.84000E+01 2.79170E+01 0.00000E+00
 -1      4008 3.61500E+01 2.66180E+01 0.00000E+00
 -1      4009 3.99000E+01 2.79170E+01 0.00000E+00
 -1      4010 4.14000E+01 2.79170E+01 0.00000E+00
 -1      4011 3.91500E+01 2.66180E+01 0.00000E+00
 -1      4012 4.29000E+01 2.79170E+01 0.00000E+00
 -1      4013 4.44000E+01 2.79170E+01 0.00000E+00
 -1      4014 4.21500E+01 2.66180E+01 0.00000E+00
 -1      4015 4.59000E+01 2.79170E+01 0.00000E+00
 -1      4016 4.74000E+01 2.79170E+01 0.00000E+00
 -1      4017 4.51500E+01 2.66180E+01 0.00000E+00
 -1      4018 4.89000E+01 2.79170E+01 0.00000E+00
 -1      4019 5.04000E+01 2.79170E+01 0.00000E+00
 -1      4020 4.81500E+01 2.66180E+01 0.00000E+00
 -1      4021 5.19000E+01 2.79170E+01 0.00000E+00
 -1      4022 5.34000E+01 2.79170E+01 0.00000E+00
 -1      4023 5.11500E+01 2.66180E+01 0.00000E+00
 -1      4024 5.49000E+01 2.79170E+01 0.00000E+00
 -1      4025 5.64000E+01 2.79170E+01 0.00000E+00
 -1      4026 5.41500E+01 2.66180E+01 0.00000E+00
 -1      4027 5.79000E+01 2.79170E+01 0.00000E+00
 -1      4028 5.94000E+01 2.79170E+01 0.00000E+00
 -1      4029 5.71500E+01 2.66180E+01 0.00000E+00
 -1      4030 6.09000E+01 2.79170E+01 0.00000E+00
 -1      4031 6.24000E+01 2.79170E+01 0.00000E+00
 -1      4032 6.01500E+01 2.66180E+01 0.00000E+00
 -1      4033 6.39000E+01 2.79170E+01 0.00000E+00
 -1      4034 6.54000E+01 2.79170E+01 0.00000E+00
 -1      4035 6.31500E+01 2.66180E+01 0.00000E+00
 -1      4036 6.69000E+01 2.79170E+01 0.00000E+00
 -1      4037 6.84000E+01 2.79170E+01 0.00000E+00
 -1      4038 6.61500E+01 2.66180E+01 0.00000E+00
 -1      4039 6.99000E+01 2.79170E+01 0.00000E+00
 -1      4040 7.14000E+01 2.79170E+01 0.00000E+00
 -1      4041 6.91500E+01 2.66180E+01 0.00000E+00
 -1      4042 7.29000E+01 2.79170E+01 0.00000E+00
 -1      4043 7.44000E+01 2.79170E+01 0.00000E+00
 -1      4044 7.21500E+01 2.66180E+01 0.00000E+00
 -1      4045 7.59000E+01 2.79170E+01 0.00000E+00
 -1      4046 7.74000E+01 2.79170E+01 0.00000E+00
 -1      4047 7.51500E+01 2.66180E+01 0.00000E+00
 -1      4048 7.89000E+01 2.79170E+01 0.00000E+00
 -1      4049 8.04000E+01 2.79170E+01 0.00000E+00
 -1      4050 7.81500E+01 2.66180E+01 0.00000E+00
 -1      4051 8.19000E+01 2.79170E+01 0.00000E+00
 -1      4052 8.34000E+01 2.79170E+01 0.00000E+00
 -1      4053 8.11500E+01 2.66180E+01 0.00000E+00
 -1      4054 8.49000E+01 2.79170E+01 0.00000E+00
 -1      4055 8.64000E+01 2.79170E+01 0.00000E+00
 -1      4056 8.41500E+01 2.66180E+01 0.00000E+00
 -1      4057 8.79000E+01 2.79170E+01 0.00000E+00
 -1      4058 8.94000E+01 2.79170E+01 0.00000E+00
 -1      4059 8.71500E+01 2.66180E+01 0.00000E+00
 -1      4060 9.13721E+01 2.75086E+01 0.00000E+00
 -1      4061 9.28721E+01 2.75086E+01 0.00000E+00
 -1      4062 9.45971E+01 2.79514E+01 0.00000E+00
 -1      4063 6.81000E+01 2.20830E+01 0.00000E+00
 -1      4064 6.66000E+01 2.20830E+01 0.00000E+00
 -1      4065 7.39500E+01 2.20830E+01 0.00000E+00
 -1      4066 7.24500E+01 2.20830E+01 0.00000E+00
 -1      4067 7.09875E+01 2.20830E+01 0.00000E+00
 -1      4068 6.95625E+01 2.20830E+01 0.00000E+00
 -1      4069 6.88125E+01 2.33820E+01 0.00000E+00
 -1      4070 7.17375E+01 2.33820E+01 0.00000E+00
 -1      4071 6.51000E+01 2.20830E+01 0.00000E+00
 -1      4072 6.36000E+01 2.20830E+01 0.00000E+00
 -1      4073 6.58500E+01 2.33820E+01 0.00000E+00
 -1      4074 7.69500E+01 2.20830E+01 0.00000E+00
 -1      4075 7.54500E+01 2.20830E+01 0.00000E+00
 -1      4076 7.47000E+01 2.33820E+01 0.00000E+00
 -1      4077 7.99500E+01 2.20830E+01 0.00000E+00
 -1      4078 7.84500E+01 2.20830E+01 0.00000E+00
 -1      4079 7.77000E+01 2.33820E+01 0.00000E+00
 -1      4080 8.29500E+01 2.20830E+01 0.00000E+00
 -1      4081 8.14500E+01 2.20830E+01 0.00000E+00
 -1      4082 8.07000E+01 2.33820E+01 0.00000E+00
 -1      4083 8.59500E+01 2.20830E+01 0.00000E+00
 -1      4084 8.44500E+01 2.20830E+01 0.00000E+00
 -1      4085 8.37000E+01 2.33820E+01 0.00000E+00
 -1      4086 4.86023E+01 1.94850E+01 0.00000E+00
 -1      4087 4.71023E+01 1.94850E+01 0.00000E+00
 -1      4088 4.63570E+01 2.07840E+01 0.00000E+00
 -1      4089 4.93523E+01 2.07840E+01 0.00000E+00
 -1      4090 2.21835E+01 2.78742E+01 0.00000E+00
 -1      4091 2.36835E+01 2.78742E+01 0.00000E+00
 -1      4092 2.44335E+01 2.65752E+01 0.00000E+00
 -1      4093 2.20005E+01 2.64897E+01 0.00000E+00
 -1      4094 5.91000E+01 2.20830E+01 0.00000E+00
 -1      4095 5.76000E+01 2.20830E+01 0.00000E+00
 -1      4096 3.96234E+01 1.94850E+01 0.00000E+00
 -1      4097 3.81328E+01 1.94850E+01 0.00000E+00
 -1      4098 4.03688E+01 2.07840E+01 0.00000E+00
 -1      4099 9.06111E+01 2.21622E+01 0.00000E+00
 -1      4100 5.61000E+01 2.20830E+01 0.00000E+00
 -1      4101 5.46000E+01 2.20830E+01 0.00000E+00
 -1      4102 5.68500E+01 2.33820E+01 0.00000E+00
 -1      4103 2.77219E+01 1.94850E+01 0.00000E+00
 -1      4104 2.62313E+01 1.94850E+01 0.00000E+00
 -1      4105 2.84719E+01 2.07840E+01 0.00000E+00
 -1      4106 6.21000E+01 2.20830E+01 0.00000E+00
 -1      4107 6.06000E+01 2.20830E+01 0.00000E+00
 -1      4108 6.28500E+01 2.33820E+01 0.00000E+00
 -1      4109 2.47406E+01 2.09600E+01 0.00000E+00
 -1      4110 2.00531E+01 2.26658E+01 0.00000E+00
 -1      4111 1.99140E+01 2.43840E+01 0.00000E+00
 -1      4112 2.12130E+01 2.51192E+01 0.00000E+00
 -1      4113 2.20710E+01 2.24637E+01 0.00000E+00
 -1      4114 5.98500E+01 2.33820E+01 0.00000E+00
 -1      4115 9.06221E+01 2.62096E+01 0.00000E+00
 -1      4116 2.59627E+01 2.21670E+01 0.00000E+00
 -1      4117 2.37221E+01 2.23430E+01 0.00000E+00
 -1      4118 1.30325E+02 2.87405E+01 0.00000E+00
 -1      4119 5.31000E+01 2.20830E+01 0.00000E+00
 -1      4120 5.16000E+01 2.20830E+01 0.00000E+00
 -1      4121 5.38500E+01 2.33820E+01 0.00000E+00
 -1      4122 3.21844E+01 2.20830E+01 0.00000E+00
 -1      4123 3.07031E+01 2.20830E+01 0.00000E+00
 -1      4124 8.88995E+01 2.22866E+01 0.00000E+00
 -1      4125 8.76616E+01 2.19586E+01 0.00000E+00
 -1      4126 8.69116E+01 2.32576E+01 0.00000E+00
 -1      4127 9.03349E+01 2.30088E+01 0.00000E+00
 -1      4128 4.11141E+01 2.20830E+01 0.00000E+00
 -1      4129 3.96234E+01 2.20830E+01 0.00000E+00
 -1      4130 3.73828E+01 2.07840E+01 0.00000E+00
 -1      4131 3.51469E+01 2.20830E+01 0.00000E+00
 -1      4132 3.36656E+01 2.20830E+01 0.00000E+00
 -1      4133 3.29250E+01 2.33820E+01 0.00000E+00
 -1      4134 2.24295E+01 2.51619E+01 0.00000E+00
 -1      4135 1.31103E+02 2.85298E+01 0.00000E+00
 -1      4136 9.03483E+01 2.47512E+01 0.00000E+00
 -1      4137 2.32931E+01 2.36707E+01 0.00000E+00
 -1      4138 4.41141E+01 2.20830E+01 0.00000E+00
 -1      4139 4.26141E+01 2.20830E+01 0.00000E+00
 -1      4140 4.18688E+01 2.33820E+01 0.00000E+00
 -1      4141 8.86366E+01 2.48756E+01 0.00000E+00
 -1      4142 2.64000E+01 2.53190E+01 0.00000E+00
 -1      4143 2.79000E+01 2.53190E+01 0.00000E+00
 -1      4144 2.70656E+01 2.24020E+01 0.00000E+00
 -1      4145 2.60470E+01 2.37850E+01 0.00000E+00
 -1      4146 3.00469E+01 2.50000E+01 0.00000E+00
 -1      4147 3.15469E+01 2.50000E+01 0.00000E+00
 -1      4148 3.30281E+01 2.50000E+01 0.00000E+00
 -1      4149 3.45281E+01 2.50000E+01 0.00000E+00
 -1      4150 3.60281E+01 2.50000E+01 0.00000E+00
 -1      4151 3.90094E+01 2.50000E+01 0.00000E+00
 -1      4152 4.05094E+01 2.50000E+01 0.00000E+00
 -1      4153 4.20094E+01 2.50000E+01 0.00000E+00
 -1      4154 4.35094E+01 2.50000E+01 0.00000E+00
 -1      4155 4.50094E+01 2.50000E+01 0.00000E+00
 -1      4156 4.74000E+01 2.53190E+01 0.00000E+00
 -1      4157 4.89000E+01 2.53190E+01 0.00000E+00
 -1      4158 5.10000E+01 2.50000E+01 0.00000E+00
 -1      4159 5.25000E+01 2.50000E+01 0.00000E+00
 -1      4160 5.40000E+01 2.50000E+01 0.00000E+00
 -1      4161 5.55000E+01 2.50000E+01 0.00000E+00
 -1      4162 5.70000E+01 2.50000E+01 0.00000E+00
 -1      4163 5.85000E+01 2.50000E+01 0.00000E+00
 -1      4164 6.00000E+01 2.50000E+01 0.00000E+00
 -1      4165 6.15000E+01 2.50000E+01 0.00000E+00
 -1      4166 6.30000E+01 2.50000E+01 0.00000E+00
 -1      4167 6.45000E+01 2.50000E+01 0.00000E+00
 -1      4168 6.60000E+01 2.50000E+01 0.00000E+00
 -1      4169 6.75000E+01 2.50000E+01 0.00000E+00
 -1      4170 6.89625E+01 2.50000E+01 0.00000E+00
 -1      4171 7.04625E+01 2.50000E+01 0.00000E+00
 -1      4172 7.19250E+01 2.50000E+01 0.00000E+00
 -1      4173 7.34250E+01 2.50000E+01 0.00000E+00
 -1      4174 7.49250E+01 2.50000E+01 0.00000E+00
 -1      4175 7.64250E+01 2.50000E+01 0.00000E+00
 -1      4176 7.79250E+01 2.50000E+01 0.00000E+00
 -1      4177 7.94250E+01 2.50000E+01 0.00000E+00
 -1      4178 8.09250E+01 2.50000E+01 0.00000E+00
 -1      4179 8.24250E+01 2.50000E+01 0.00000E+00
 -1      4180 8.39250E+01 2.50000E+01 0.00000E+00
 -1      4181 8.54250E+01 2.50000E+01 0.00000E+00
 -1      4182 8.71366E+01 2.48756E+01 0.00000E+00
 -1      4183 2.40805E+01 2.50412E+01 0.00000E+00
 -1      4184 2.52970E+01 2.50840E+01 0.00000E+00
 -1      4185 3.81328E+01 2.20830E+01 0.00000E+00
 -1      4186 3.66375E+01 2.20830E+01 0.00000E+00
 -1      4187 3.58969E+01 2.33820E+01 0.00000E+00
 -1      4188 3.88781E+01 2.33820E+01 0.00000E+00
 -1      4189 2.92969E+01 2.37010E+01 0.00000E+00
 -1      4190 2.85562E+01 2.24020E+01 0.00000E+00
 -1      4191 3.75187E+01 2.50000E+01 0.00000E+00
 -1      4192 5.02500E+01 2.37010E+01 0.00000E+00
 -1      4193 4.57594E+01 2.37010E+01 0.00000E+00
 -1      4194 4.80023E+01 2.24020E+01 0.00000E+00
 -1      4195 4.65047E+01 2.24020E+01 0.00000E+00
 -1      4196 4.95000E+01 2.24020E+01 0.00000E+00
 -3
    3C                          2016                                     1
 -1       165    8    0    1
 -2         6         7        23      1091      1255      1108
 -1       166    8    0    1
 -2         7         8       165      1092      1256      1257
 -1       167    8    0    1
 -2         8         9       166      1093      1258      1259
 -1       168    8    0    1
 -2         8       166       165      1259      1260      1256
 -1       169    8    0    1
 -2         9        10       167      1094      1261      1262
 -1       170    8    0    1
 -2         9       167       166      1262      1263      1258
 -1       171    8    0    1
 -2        10        11       168      1095      1264      1265
 -1       172    8    0    1
 -2        10       168       167      1265      1266      1261
 -1       173    8    0    1
 -2        11        12       169      1096      1267      1268
 -1       174    8    0    1
 -2        11       169       168      1268      1269      1264
 -1       175    8    0    1
 -2        12        13       170      1097      1270      1271
 -1       176    8    0    1
 -2        12       170       169      1271      1272      1267
 -1       177    8    0    1
 -2        13        14       171      1098      1273      1274
 -1       178    8    0    1
 -2        13       171       170      1274      1275      1270
 -1       179    8    0    1
 -2        14        15       172      1099      1276      1277
 -1       180    8    0    1
 -2        14       172       171      1277      1278      1273
 -1       181    8    0    1
 -2        15        16       173      1100      1279      1280
 -1       182    8    0    1
 -2        15       173       172      1280      1281      1276
 -1       183    8    0    1
 -2        16        17       174      1101      1282      1283
 -1       184    8    0    1
 -2        16       174       173      1283      1284      1279
 -1       185    8    0    1
 -2        17        18       175      1102      1285      1286
 -1       186    8    0    1
 -2        17       175       174      1286      1287      1282
 -1       187    8    0    1
 -2        18        19       176      1103      1288      1289
 -1       188    8    0    1
 -2        18       176       175      1289      1290      1285
 -1       189    8    0    1
 -2        19        20       177      1104      1291      1292
 -1       190    8    0    1
 -2        19       177       176      1292      1293      1288
 -1       191    8    0    1
 -2        20        21       178      1105      1294      1295
 -1       192    8    0    1
 -2        20       178       177      1295      1296      1291
 -1       193    8    0    1
 -2        21        22       179      1106      1297      1298
 -1       194    8    0    1
 -2        21       179       178      1298      1299      1294
 -1       195    8    0    1
 -2        22         5        72      1107      1158      1300
 -1       196    8    0    1
 -2        24        23       180      1109      1301      1302
 -1       197    8    0    1
 -2        25        24       181      1110      1303      1304
 -1       198    8    0    1
 -2        24       180       181      1302      1305      1303
 -1       199    8    0    1
 -2        26        25       182      1111      1306      1307
 -1       200    8    0    1
 -2        25       181       182      1304      1308      1306
 -1       201    8    0    1
 -2        27        26       183      1112      1309      1310
 -1       202    8    0    1
 -2        26       182       183      1307      1311      1309
 -1       203    8    0    1
 -2        28        27       184      1113      1312      1313
 -1       204    8    0    1
 -2        27       183       184      1310      1314      1312
 -1       205    8    0    1
 -2        29        28       185      1114      1315      1316
 -1       206    8    0    1
 -2        28       184       185      1313      1317      1315
 -1       207    8    0    1
 -2        30        29       186      1115      1318      1319
 -1       208    8    0    1
 -2        29       185       186      1316      1320      1318
 -1       209    8    0    1
 -2        31        30       187      1116      1321      1322
 -1       210    8    0    1
 -2        30       186       187      1319      1323      1321
 -1       211    8    0    1
 -2        32        31       188      1117      1324      1325
 -1       212    8    0    1
 -2        31       187       188      1322      1326      1324
 -1       213    8    0    1
 -2        33        32       189      1118      1327      1328
 -1       214    8    0    1
 -2        32       188       189      1325      1329      1327
 -1       215    8    0    1
 -2        34        33       190      1119      1330      1331
 -1       216    8    0    1
 -2        33       189       190      1328      1332      1330
 -1       217    8    0    1
 -2        35        34       191      1120      1333      1334
 -1       218    8    0    1
 -2        34       190       191      1331      1335      1333
 -1       219    8    0    1
 -2        36        35       192      1121      1336      1337
 -1       220    8    0    1
 -2        35       191       192      1334      1338      1336
 -1       221    8    0    1
 -2        37        36       193      1122      1339      1340
 -1       222    8    0    1
 -2        36       192       193      1337      1341      1339
 -1       223    8    0    1
 -2        38        37       194      1123      1342      1343
 -1       224    8    0    1
 -2        37       193       194      1340      1344      1342
 -1       225    8    0    1
 -2        39        38       195      1124      1345      1346
 -1       226    8    0    1
 -2        38       194       195      1343      1347      1345
 -1       227    8    0    1
 -2        40        39       196      1125      1348      1349
 -1       228    8    0    1
 -2        39       195       196      1346      1350      1348
 -1       229    8    0    1
 -2        41        40       197      1126      1351      1352
 -1       230    8    0    1
 -2        40       196       197      1349      1353      1351
 -1       231    8    0    1
 -2        42        41       198      1127      1354      1355
 -1       232    8    0    1
 -2        41       197       198      1352      1356      1354
 -1       233    8    0    1
 -2        43        42       199      1128      1357      1358
 -1       234    8    0    1
 -2        42       198       199      1355      1359      1357
 -1       235    8    0    1
 -2        44        43       200      1129      1360      1361
 -1       236    8    0    1
 -2        43       199       200      1358      1362      1360
 -1       237    8    0    1
 -2        45        44       201      1130      1363      1364
 -1       238    8    0    1
 -2        44       200       201      1361      1365      1363
 -1       239    8    0    1
 -2        46        45       202      1131      1366      1367
 -1       240    8    0    1
 -2        45       201       202      1364      1368      1366
 -1       241    8    0    1
 -2        47        46       203      1132      1369      1370
 -1       242    8    0    1
 -2        46       202       203      1367      1371      1369
 -1       243    8    0    1
 -2        48        47       204      1133      1372      1373
 -1       244    8    0    1
 -2        47       203       204      1370      1374      1372
 -1       245    8    0    1
 -2        49        48       205      1134      1375      1376
 -1       246    8    0    1
 -2        48       204       205      1373      1377      1375
 -1       247    8    0    1
 -2        50        49       206      1135      1378      1379
 -1       248    8    0    1
 -2        49       205       206      1376      1380      1378
 -1       249    8    0    1
 -2        51        50       207      1136      1381      1382
 -1       250    8    0    1
 -2        50       206       207      1379      1383      1381
 -1       251    8    0    1
 -2        52        51       208      1137      1384      1385
 -1       252    8    0    1
 -2        51       207       208      1382      1386      1384
 -1       253    8    0    1
 -2        53        52       209      1138      1387      1388
 -1       254    8    0    1
 -2        52       208       209      1385      1389      1387
 -1       255    8    0    1
 -2        54        53       210      1139      1390      1391
 -1       256    8    0    1
 -2        53       209       210      1388      1392      1390
 -1       257    8    0    1
 -2        55        54       211      1140      1393      1394
 -1       258    8    0    1
 -2        54       210       211      1391      1395      1393
 -1       259    8    0    1
 -2        56        55       212      1141      1396      1397
 -1       260    8    0    1
 -2        55       211       212      1394      1398      1396
 -1       261    8    0    1
 -2        57        56       213      1142      1399      1400
 -1       262    8    0    1
 -2        56       212       213      1397      1401      1399
 -1       263    8    0    1
 -2        58        57       214      1143      1402      1403
 -1       264    8    0    1
 -2        57       213       214      1400      1404      1402
 -1       265    8    0    1
 -2        59        58       215      1144      1405      1406
 -1       266    8    0    1
 -2        58       214       215      1403      1407      1405
 -1       267    8    0    1
 -2        60        59       216      1145      1408      1409
 -1       268    8    0    1
 -2        59       215       216      1406      1410      1408
 -1       269    8    0    1
 -2        61        60       217      1146      1411      1412
 -1       270    8    0    1
 -2        60       216       217      1409      1413      1411
 -1       271    8    0    1
 -2        62        61       218      1147      1414      1415
 -1       272    8    0    1
 -2        61       217       218      1412      1416      1414
 -1       273    8    0    1
 -2        63        62       219      1148      1417      1418
 -1       274    8    0    1
 -2        62       218       219      1415      1419      1417
 -1       275    8    0    1
 -2        64        63       220      1149      1420      1421
 -1       276    8    0    1
 -2        63       219       220      1418      1422      1420
 -1       277    8    0    1
 -2        65        64       221      1150      1423      1424
 -1       278    8    0    1
 -2        64       220       221      1421      1425      1423
 -1       279    8    0    1
 -2        66        65       222      1151      1426      1427
 -1       280    8    0    1
 -2        65       221       222      1424      1428      1426
 -1       281    8    0    1
 -2        67        66       223      1152      1429      1430
 -1       282    8    0    1
 -2        66       222       223      1427      1431      1429
 -1       283    8    0    1
 -2        68        67       224      1153      1432      1433
 -1       284    8    0    1
 -2        67       223       224      1430      1434      1432
 -1       285    8    0    1
 -2        69        68       225      1154      1435      1436
 -1       286    8    0    1
 -2        68       224       225      1433      1437      1435
 -1       287    8    0    1
 -2        70        69       226      1155      1438      1439
 -1       288    8    0    1
 -2        69       225       226      1436      1440      1438
 -1       289    8    0    1
 -2        71        70       227      1156      1441      1442
 -1       290    8    0    1
 -2        70       226       227      1439      1443      1441
 -1       291    8    0    1
 -2         4        71       137      1157      1444      1225
 -1       292    8    0    1
 -2       137        71       227      1444      1442      1445
 -1       293    8    0    1
 -2        72        73       228      1159      1446      1447
 -1       294    8    0    1
 -2        73        74       229      1160      1448      1449
 -1       295    8    0    1
 -2        73       229       228      1449      1450      1446
 -1       296    8    0    1
 -2        74        75       230      1161      1451      1452
 -1       297    8    0    1
 -2        74       230       229      1452      1453      1448
 -1       298    8    0    1
 -2        75        76       231      1162      1454      1455
 -1       299    8    0    1
 -2        75       231       230      1455      1456      1451
 -1       300    8    0    1
 -2        76        77       232      1163      1457      1458
 -1       301    8    0    1
 -2        76       232       231      1458      1459      1454
 -1       302    8    0    1
 -2        77        78       233      1164      1460      1461
 -1       303    8    0    1
 -2        77       233       232      1461      1462      1457
 -1       304    8    0    1
 -2        78        79       234      1165      1463      1464
 -1       305    8    0    1
 -2        78       234       233      1464      1465      1460
 -1       306    8    0    1
 -2        79        80       235      1166      1466      1467
 -1       307    8    0    1
 -2        79       235       234      1467      1468      1463
 -1       308    8    0    1
 -2        80        81       236      1167      1469      1470
 -1       309    8    0    1
 -2        80       236       235      1470      1471      1466
 -1       310    8    0    1
 -2        81        82       237      1168      1472      1473
 -1       311    8    0    1
 -2        81       237       236      1473      1474      1469
 -1       312    8    0    1
 -2        82        83       238      1169      1475      1476
 -1       313    8    0    1
 -2        82       238       237      1476      1477      1472
 -1       314    8    0    1
 -2        83        84       239      1170      1478      1479
 -1       315    8    0    1
 -2        83       239       238      1479      1480      1475
 -1       316    8    0    1
 -2        84        85       240      1171      1481      1482
 -1       317    8    0    1
 -2        84       240       239      1482      1483      1478
 -1       318    8    0    1
 -2        85        86       241      1172      1484      1485
 -1       319    8    0    1
 -2        85       241       240      1485      1486      1481
 -1       320    8    0    1
 -2        86        87       242      1173      1487      1488
 -1       321    8    0    1
 -2        86       242       241      1488      1489      1484
 -1       322    8    0    1
 -2        87        88       243      1174      1490      1491
 -1       323    8    0    1
 -2        87       243       242      1491      1492      1487
 -1       324    8    0    1
 -2        88        89       244      1175      1493      1494
 -1       325    8    0    1
 -2        88       244       243      1494      1495      1490
 -1       326    8    0    1
 -2        89        90       245      1176      1496      1497
 -1       327    8    0    1
 -2        89       245       244      1497      1498      1493
 -1       328    8    0    1
 -2        90        91       246      1177      1499      1500
 -1       329    8    0    1
 -2        90       246       245      1500      1501      1496
 -1       330    8    0    1
 -2        91        92       247      1178      1502      1503
 -1       331    8    0    1
 -2        91       247       246      1503      1504      1499
 -1       332    8    0    1
 -2        92        93       248      1179      1505      1506
 -1       333    8    0    1
 -2        92       248       247      1506      1507      1502
 -1       334    8    0    1
 -2        93        94       249      1180      1508      1509
 -1       335    8    0    1
 -2        93       249       248      1509      1510      1505
 -1       336    8    0    1
 -2        94        95       250      1181      1511      1512
 -1       337    8    0    1
 -2        94       250       249      1512      1513      1508
 -1       338    8    0    1
 -2        95        96       251      1182      1514      1515
 -1       339    8    0    1
 -2        95       251       250      1515      1516      1511
 -1       340    8    0    1
 -2        96        97       252      1183      1517      1518
 -1       341    8    0    1
 -2        96       252       251      1518      1519      1514
 -1       342    8    0    1
 -2        97        98       253      1184      1520      1521
 -1       343    8    0    1
 -2        97       253       252      1521      1522      1517
 -1       344    8    0    1
 -2        98        99       254      1185      1523      1524
 -1       345    8    0    1
 -2        98       254       253      1524      1525      1520
 -1       346    8    0    1
 -2        99       100       255      1186      1526      1527
 -1       347    8    0    1
 -2        99       255       254      1527      1528      1523
 -1       348    8    0    1
 -2       100       101       256      1187      1529      1530
 -1       349    8    0    1
 -2       100       256       255      1530      1531      1526
 -1       350    8    0    1
 -2       101       102       257      1188      1532      1533
 -1       351    8    0    1
 -2       101       257       256      1533      1534      1529
 -1       352    8    0    1
 -2       102       103       258      1189      1535      1536
 -1       353    8    0    1
 -2       102       258       257      1536      1537      1532
 -1       354    8    0    1
 -2       103       104       259      1190      1538      1539
 -1       355    8    0    1
 -2       103       259       258      1539      1540      1535
 -1       356    8    0    1
 -2       104       105       260      1191      1541      1542
 -1       357    8    0    1
 -2       104       260       259      1542      1543      1538
 -1       358    8    0    1
 -2       105       106       261      1192      1544      1545
 -1       359    8    0    1
 -2       105       261       260      1545      1546      1541
 -1       360    8    0    1
 -2       106       107       262      1193      1547      1548
 -1       361    8    0    1
 -2       106       262       261      1548      1549      1544
 -1       362    8    0    1
 -2       107       108       263      1194      1550      1551
 -1       363    8    0    1
 -2       107       263       262      1551      1552      1547
 -1       364    8    0    1
 -2       108       109       264      1195      1553      1554
 -1       365    8    0    1
 -2       108       264       263      1554      1555      1550
 -1       366    8    0    1
 -2       109       110       265      1196      1556      1557
 -1       367    8    0    1
 -2       109       265       264      1557      1558      1553
 -1       368    8    0    1
 -2       110       111       266      1197      1559      1560
 -1       369    8    0    1
 -2       110       266       265      1560      1561      1556
 -1       370    8    0    1
 -2       111       112       267      1198      1562      1563
 -1       371    8    0    1
 -2       111       267       266      1563      1564      1559
 -1       372    8    0    1
 -2       112       113       268      1199      1565      1566
 -1       373    8    0    1
 -2       112       268       267      1566      1567      1562
 -1       374    8    0    1
 -2       113       114       269      1200      1568      1569
 -1       375    8    0    1
 -2       113       269       268      1569      1570      1565
 -1       376    8    0    1
 -2       114       115       270      1201      1571      1572
 -1       377    8    0    1
 -2       114       270       269      1572      1573      1568
 -1       378    8    0    1
 -2       115       116       271      1202      1574      1575
 -1       379    8    0    1
 -2       115       271       270      1575      1576      1571
 -1       380    8    0    1
 -2       116       117       272      1203      1577      1578
 -1       381    8    0    1
 -2       116       272       271      1578      1579      1574
 -1       382    8    0    1
 -2       117       118       273      1204      1580      1581
 -1       383    8    0    1
 -2       117       273       272      1581      1582      1577
 -1       384    8    0    1
 -2       118       119       274      1205      1583      1584
 -1       385    8    0    1
 -2       118       274       273      1584      1585      1580
 -1       386    8    0    1
 -2       119       120       275      1206      1586      1587
 -1       387    8    0    1
 -2       119       275       274      1587      1588      1583
 -1       388    8    0    1
 -2       120       121       276      1207      1589      1590
 -1       389    8    0    1
 -2       120       276       275      1590      1591      1586
 -1       390    8    0    1
 -2       121         3       122      1208      1209      1592
 -1       391    8    0    1
 -2       122       123       277      1210      1593      1594
 -1       392    8    0    1
 -2       123       124       278      1211      1595      1596
 -1       393    8    0    1
 -2       123       278       277      1596      1597      1593
 -1       394    8    0    1
 -2       124       125       279      1212      1598      1599
 -1       395    8    0    1
 -2       124       279       278      1599      1600      1595
 -1       396    8    0    1
 -2       125       126       280      1213      1601      1602
 -1       397    8    0    1
 -2       125       280       279      1602      1603      1598
 -1       398    8    0    1
 -2       126       127       281      1214      1604      1605
 -1       399    8    0    1
 -2       126       281       280      1605      1606      1601
 -1       400    8    0    1
 -2       127       128       282      1215      1607      1608
 -1       401    8    0    1
 -2       127       282       281      1608      1609      1604
 -1       402    8    0    1
 -2       128       129       283      1216      1610      1611
 -1       403    8    0    1
 -2       128       283       282      1611      1612      1607
 -1       404    8    0    1
 -2       129       130       284      1217      1613      1614
 -1       405    8    0    1
 -2       129       284       283      1614      1615      1610
 -1       406    8    0    1
 -2       130       131       285      1218      1616      1617
 -1       407    8    0    1
 -2       130       285       284      1617      1618      1613
 -1       408    8    0    1
 -2       131       132       286      1219      1619      1620
 -1       409    8    0    1
 -2       131       286       285      1620      1621      1616
 -1       410    8    0    1
 -2       132       133       287      1220      1622      1623
 -1       411    8    0    1
 -2       132       287       286      1623      1624      1619
 -1       412    8    0    1
 -2       133       134       288      1221      1625      1626
 -1       413    8    0    1
 -2       133       288       287      1626      1627      1622
 -1       414    8    0    1
 -2       134       135       289      1222      1628      1629
 -1       415    8    0    1
 -2       134       289       288      1629      1630      1625
 -1       416    8    0    1
 -2       135       136       290      1223      1631      1632
 -1       417    8    0    1
 -2       135       290       289      1632      1633      1628
 -1       418    8    0    1
 -2       136       137       291      1224      1634      1635
 -1       419    8    0    1
 -2       290       136       291      1631      1635      1636
 -1       420    8    0    1
 -2       137       227       291      1445      1637      1634
 -1       421    8    0    1
 -2         2       138       292      1226      1638      1639
 -1       422    8    0    1
 -2       138       139       293      1227      1640      1641
 -1       423    8    0    1
 -2       139       140       294      1228      1642      1643
 -1       424    8    0    1
 -2       140       141       295      1229      1644      1645
 -1       425    8    0    1
 -2       141       142       296      1230      1646      1647
 -1       426    8    0    1
 -2       142       143       297      1231      1648      1649
 -1       427    8    0    1
 -2       143       144       298      1232      1650      1651
 -1       428    8    0    1
 -2       144       145       299      1233      1652      1653
 -1       429    8    0    1
 -2       145       146       300      1234      1654      1655
 -1       430    8    0    1
 -2       146       147       301      1235      1656      1657
 -1       431    8    0    1
 -2       147       148       302      1236      1658      1659
 -1       432    8    0    1
 -2       148       149       303      1237      1660      1661
 -1       433    8    0    1
 -2       149       150       304      1238      1662      1663
 -1       434    8    0    1
 -2       150       151       305      1239      1664      1665
 -1       435    8    0    1
 -2       151       152       306      1240      1666      1667
 -1       436    8    0    1
 -2       152       153       307      1241      1668      1669
 -1       437    8    0    1
 -2       153       154       308      1242      1670      1671
 -1       438    8    0    1
 -2       154       155       309      1243      1672      1673
 -1       439    8    0    1
 -2       155       156       310      1244      1674      1675
 -1       440    8    0    1
 -2       156       157       311      1245      1676      1677
 -1       441    8    0    1
 -2       157         1       312      1246      1678      1679
 -1       442    8    0    1
 -2         1       158       313      1247      1680      1681
 -1       443    8    0    1
 -2       158       159       314      1248      1682      1683
 -1       444    8    0    1
 -2       159       160       315      1249      1684      1685
 -1       445    8    0    1
 -2       160       161       316      1250      1686      1687
 -1       446    8    0    1
 -2       161       162       317      1251      1688      1689
 -1       447    8    0    1
 -2       162       163       318      1252      1690      1691
 -1       448    8    0    1
 -2       163       164       319      1253      1692      1693
 -1       449    8    0    1
 -2       164         2       320      1254      1694      1695
 -1       450    8    0    1
 -2        22        72       179      1300      1696      1297
 -1       451    8    0    1
 -2       294       140       295      1642      1645      1697
 -1       452    8    0    1
 -2       121       122       276      1592      1698      1589
 -1       453    8    0    1
 -2       292       138       293      1638      1641      1699
 -1       454    8    0    1
 -2       293       139       294      1640      1643      1700
 -1       455    8    0    1
 -2         2       292       320      1639      1701      1694
 -1       456    8    0    1
 -2       141       296       295      1647      1702      1644
 -1       457    8    0    1
 -2       142       297       296      1649      1703      1646
 -1       458    8    0    1
 -2       143       298       297      1651      1704      1648
 -1       459    8    0    1
 -2       144       299       298      1653      1705      1650
 -1       460    8    0    1
 -2       145       300       299      1655      1706      1652
 -1       461    8    0    1
 -2       146       301       300      1657      1707      1654
 -1       462    8    0    1
 -2       147       302       301      1659      1708      1656
 -1       463    8    0    1
 -2       148       303       302      1661      1709      1658
 -1       464    8    0    1
 -2       149       304       303      1663      1710      1660
 -1       465    8    0    1
 -2       150       305       304      1665      1711      1662
 -1       466    8    0    1
 -2       151       306       305      1667      1712      1664
 -1       467    8    0    1
 -2       152       307       306      1669      1713      1666
 -1       468    8    0    1
 -2       153       308       307      1671      1714      1668
 -1       469    8    0    1
 -2       154       309       308      1673      1715      1670
 -1       470    8    0    1
 -2       155       310       309      1675      1716      1672
 -1       471    8    0    1
 -2       156       311       310      1677      1717      1674
 -1       472    8    0    1
 -2       157       312       311      1679      1718      1676
 -1       473    8    0    1
 -2         1       313       312      1681      1719      1678
 -1       474    8    0    1
 -2       158       314       313      1683      1720      1680
 -1       475    8    0    1
 -2       159       315       314      1685      1721      1682
 -1       476    8    0    1
 -2       160       316       315      1687      1722      1684
 -1       477    8    0    1
 -2       161       317       316      1689      1723      1686
 -1       478    8    0    1
 -2       162       318       317      1691      1724      1688
 -1       479    8    0    1
 -2       163       319       318      1693      1725      1690
 -1       480    8    0    1
 -2       164       320       319      1695      1726      1692
 -1       481    8    0    1
 -2        23         7       165      1255      1257      1727
 -1       482    8    0    1
 -2       166       167       321      1263      1728      1729
 -1       483    8    0    1
 -2       165       166       322      1260      1730      1731
 -1       484    8    0    1
 -2       166       321       322      1729      1732      1730
 -1       485    8    0    1
 -2       168       169       323      1269      1733      1734
 -1       486    8    0    1
 -2       169       170       324      1272      1735      1736
 -1       487    8    0    1
 -2       169       324       323      1736      1737      1733
 -1       488    8    0    1
 -2       170       171       325      1275      1738      1739
 -1       489    8    0    1
 -2       170       325       324      1739      1740      1735
 -1       490    8    0    1
 -2       171       172       326      1278      1741      1742
 -1       491    8    0    1
 -2       171       326       325      1742      1743      1738
 -1       492    8    0    1
 -2       172       173       327      1281      1744      1745
 -1       493    8    0    1
 -2       172       327       326      1745      1746      1741
 -1       494    8    0    1
 -2       173       174       328      1284      1747      1748
 -1       495    8    0    1
 -2       173       328       327      1748      1749      1744
 -1       496    8    0    1
 -2       174       175       329      1287      1750      1751
 -1       497    8    0    1
 -2       174       329       328      1751      1752      1747
 -1       498    8    0    1
 -2       175       176       330      1290      1753      1754
 -1       499    8    0    1
 -2       175       330       329      1754      1755      1750
 -1       500    8    0    1
 -2       176       177       331      1293      1756      1757
 -1       501    8    0    1
 -2       176       331       330      1757      1758      1753
 -1       502    8    0    1
 -2       177       178       332      1296      1759      1760
 -1       503    8    0    1
 -2       177       332       331      1760      1761      1756
 -1       504    8    0    1
 -2       178       179       333      1299      1762      1763
 -1       505    8    0    1
 -2       178       333       332      1763      1764      1759
 -1       506    8    0    1
 -2       294       295       334      1697      1765      1766
 -1       507    8    0    1
 -2       180        23       165      1301      1727      1767
 -1       508    8    0    1
 -2        72       228       179      1447      1768      1696
 -1       509    8    0    1
 -2       182       181       335      1308      1769      1770
 -1       510    8    0    1
 -2       183       182       336      1311      1771      1772
 -1       511    8    0    1
 -2       182       335       336      1770      1773      1771
 -1       512    8    0    1
 -2       184       183       337      1314      1774      1775
 -1       513    8    0    1
 -2       183       336       337      1772      1776      1774
 -1       514    8    0    1
 -2       185       184       338      1317      1777      1778
 -1       515    8    0    1
 -2       184       337       338      1775      1779      1777
 -1       516    8    0    1
 -2       186       185       339      1320      1780      1781
 -1       517    8    0    1
 -2       185       338       339      1778      1782      1780
 -1       518    8    0    1
 -2       187       186       340      1323      1783      1784
 -1       519    8    0    1
 -2       186       339       340      1781      1785      1783
 -1       520    8    0    1
 -2       188       187       341      1326      1786      1787
 -1       521    8    0    1
 -2       187       340       341      1784      1788      1786
 -1       522    8    0    1
 -2       189       188       342      1329      1789      1790
 -1       523    8    0    1
 -2       188       341       342      1787      1791      1789
 -1       524    8    0    1
 -2       190       189       343      1332      1792      1793
 -1       525    8    0    1
 -2       189       342       343      1790      1794      1792
 -1       526    8    0    1
 -2       191       190       344      1335      1795      1796
 -1       527    8    0    1
 -2       190       343       344      1793      1797      1795
 -1       528    8    0    1
 -2       192       191       345      1338      1798      1799
 -1       529    8    0    1
 -2       191       344       345      1796      1800      1798
 -1       530    8    0    1
 -2       193       192       346      1341      1801      1802
 -1       531    8    0    1
 -2       192       345       346      1799      1803      1801
 -1       532    8    0    1
 -2       194       193       347      1344      1804      1805
 -1       533    8    0    1
 -2       193       346       347      1802      1806      1804
 -1       534    8    0    1
 -2       195       194       348      1347      1807      1808
 -1       535    8    0    1
 -2       194       347       348      1805      1809      1807
 -1       536    8    0    1
 -2       196       195       349      1350      1810      1811
 -1       537    8    0    1
 -2       195       348       349      1808      1812      1810
 -1       538    8    0    1
 -2       197       196       350      1353      1813      1814
 -1       539    8    0    1
 -2       196       349       350      1811      1815      1813
 -1       540    8    0    1
 -2       198       197       351      1356      1816      1817
 -1       541    8    0    1
 -2       197       350       351      1814      1818      1816
 -1       542    8    0    1
 -2       199       198       352      1359      1819      1820
 -1       543    8    0    1
 -2       198       351       352      1817      1821      1819
 -1       544    8    0    1
 -2       200       199       353      1362      1822      1823
 -1       545    8    0    1
 -2       199       352       353      1820      1824      1822
 -1       546    8    0    1
 -2       201       200       354      1365      1825      1826
 -1       547    8    0    1
 -2       200       353       354      1823      1827      1825
 -1       548    8    0    1
 -2       202       201       355      1368      1828      1829
 -1       549    8    0    1
 -2       201       354       355      1826      1830      1828
 -1       550    8    0    1
 -2       203       202       356      1371      1831      1832
 -1       551    8    0    1
 -2       202       355       356      1829      1833      1831
 -1       552    8    0    1
 -2       204       203       357      1374      1834      1835
 -1       553    8    0    1
 -2       203       356       357      1832      1836      1834
 -1       554    8    0    1
 -2       205       204       358      1377      1837      1838
 -1       555    8    0    1
 -2       204       357       358      1835      1839      1837
 -1       556    8    0    1
 -2       206       205       359      1380      1840      1841
 -1       557    8    0    1
 -2       205       358       359      1838      1842      1840
 -1       558    8    0    1
 -2       207       206       360      1383      1843      1844
 -1       559    8    0    1
 -2       206       359       360      1841      1845      1843
 -1       560    8    0    1
 -2       208       207       361      1386      1846      1847
 -1       561    8    0    1
 -2       207       360       361      1844      1848      1846
 -1       562    8    0    1
 -2       209       208       362      1389      1849      1850
 -1       563    8    0    1
 -2       208       361       362      1847      1851      1849
 -1       564    8    0    1
 -2       210       209       363      1392      1852      1853
 -1       565    8    0    1
 -2       209       362       363      1850      1854      1852
 -1       566    8    0    1
 -2       211       210       364      1395      1855      1856
 -1       567    8    0    1
 -2       210       363       364      1853      1857      1855
 -1       568    8    0    1
 -2       212       211       365      1398      1858      1859
 -1       569    8    0    1
 -2       211       364       365      1856      1860      1858
 -1       570    8    0    1
 -2       213       212       366      1401      1861      1862
 -1       571    8    0    1
 -2       212       365       366      1859      1863      1861
 -1       572    8    0    1
 -2       214       213       367      1404      1864      1865
 -1       573    8    0    1
 -2       213       366       367      1862      1866      1864
 -1       574    8    0    1
 -2       215       214       368      1407      1867      1868
 -1       575    8    0    1
 -2       214       367       368      1865      1869      1867
 -1       576    8    0    1
 -2       216       215       369      1410      1870      1871
 -1       577    8    0    1
 -2       215       368       369      1868      1872      1870
 -1       578    8    0    1
 -2       217       216       370      1413      1873      1874
 -1       579    8    0    1
 -2       216       369       370      1871      1875      1873
 -1       580    8    0    1
 -2       218       217       371      1416      1876      1877
 -1       581    8    0    1
 -2       217       370       371      1874      1878      1876
 -1       582    8    0    1
 -2       219       218       372      1419      1879      1880
 -1       583    8    0    1
 -2       218       371       372      1877      1881      1879
 -1       584    8    0    1
 -2       220       219       373      1422      1882      1883
 -1       585    8    0    1
 -2       219       372       373      1880      1884      1882
 -1       586    8    0    1
 -2       221       220       374      1425      1885      1886
 -1       587    8    0    1
 -2       220       373       374      1883      1887      1885
 -1       588    8    0    1
 -2       222       221       375      1428      1888      1889
 -1       589    8    0    1
 -2       221       374       375      1886      1890      1888
 -1       590    8    0    1
 -2       223       222       376      1431      1891      1892
 -1       591    8    0    1
 -2       222       375       376      1889      1893      1891
 -1       592    8    0    1
 -2       224       223       377      1434      1894      1895
 -1       593    8    0    1
 -2       223       376       377      1892      1896      1894
 -1       594    8    0    1
 -2       225       224       378      1437      1897      1898
 -1       595    8    0    1
 -2       224       377       378      1895      1899      1897
 -1       596    8    0    1
 -2       226       225       379      1440      1900      1901
 -1       597    8    0    1
 -2       225       378       379      1898      1902      1900
 -1       598    8    0    1
 -2       227       226       380      1443      1903      1904
 -1       599    8    0    1
 -2       291       227       380      1637      1904      1905
 -1       600    8    0    1
 -2       226       379       380      1901      1906      1903
 -1       601    8    0    1
 -2       230       231       381      1456      1907      1908
 -1       602    8    0    1
 -2       229       230       382      1453      1909      1910
 -1       603    8    0    1
 -2       230       381       382      1908      1911      1909
 -1       604    8    0    1
 -2       231       232       383      1459      1912      1913
 -1       605    8    0    1
 -2       231       383       381      1913      1914      1907
 -1       606    8    0    1
 -2       232       233       384      1462      1915      1916
 -1       607    8    0    1
 -2       232       384       383      1916      1917      1912
 -1       608    8    0    1
 -2       233       234       385      1465      1918      1919
 -1       609    8    0    1
 -2       233       385       384      1919      1920      1915
 -1       610    8    0    1
 -2       234       235       386      1468      1921      1922
 -1       611    8    0    1
 -2       234       386       385      1922      1923      1918
 -1       612    8    0    1
 -2       235       236       387      1471      1924      1925
 -1       613    8    0    1
 -2       235       387       386      1925      1926      1921
 -1       614    8    0    1
 -2       236       237       388      1474      1927      1928
 -1       615    8    0    1
 -2       236       388       387      1928      1929      1924
 -1       616    8    0    1
 -2       237       238       389      1477      1930      1931
 -1       617    8    0    1
 -2       237       389       388      1931      1932      1927
 -1       618    8    0    1
 -2       238       239       390      1480      1933      1934
 -1       619    8    0    1
 -2       238       390       389      1934      1935      1930
 -1       620    8    0    1
 -2       239       240       391      1483      1936      1937
 -1       621    8    0    1
 -2       239       391       390      1937      1938      1933
 -1       622    8    0    1
 -2       240       241       392      1486      1939      1940
 -1       623    8    0    1
 -2       240       392       391      1940      1941      1936
 -1       624    8    0    1
 -2       241       242       393      1489      1942      1943
 -1       625    8    0    1
 -2       241       393       392      1943      1944      1939
 -1       626    8    0    1
 -2       242       243       394      1492      1945      1946
 -1       627    8    0    1
 -2       242       394       393      1946      1947      1942
 -1       628    8    0    1
 -2       243       244       395      1495      1948      1949
 -1       629    8    0    1
 -2       243       395       394      1949      1950      1945
 -1       630    8    0    1
 -2       244       245       396      1498      1951      1952
 -1       631    8    0    1
 -2       244       396       395      1952      1953      1948
 -1       632    8    0    1
 -2       245       246       397      1501      1954      1955
 -1       633    8    0    1
 -2       245       397       396      1955      1956      1951
 -1       634    8    0    1
 -2       246       247       398      1504      1957      1958
 -1       635    8    0    1
 -2       246       398       397      1958      1959      1954
 -1       636    8    0    1
 -2       247       248       399      1507      1960      1961
 -1       637    8    0    1
 -2       247       399       398      1961      1962      1957
 -1       638    8    0    1
 -2       248       249       400      1510      1963      1964
 -1       639    8    0    1
 -2       248       400       399      1964      1965      1960
 -1       640    8    0    1
 -2       249       250       401      1513      1966      1967
 -1       641    8    0    1
 -2       249       401       400      1967      1968      1963
 -1       642    8    0    1
 -2       250       251       402      1516      1969      1970
 -1       643    8    0    1
 -2       250       402       401      1970      1971      1966
 -1       644    8    0    1
 -2       251       252       403      1519      1972      1973
 -1       645    8    0    1
 -2       251       403       402      1973      1974      1969
 -1       646    8    0    1
 -2       252       253       404      1522      1975      1976
 -1       647    8    0    1
 -2       252       404       403      1976      1977      1972
 -1       648    8    0    1
 -2       253       254       405      1525      1978      1979
 -1       649    8    0    1
 -2       253       405       404      1979      1980      1975
 -1       650    8    0    1
 -2       254       255       406      1528      1981      1982
 -1       651    8    0    1
 -2       254       406       405      1982      1983      1978
 -1       652    8    0    1
 -2       255       256       407      1531      1984      1985
 -1       653    8    0    1
 -2       255       407       406      1985      1986      1981
 -1       654    8    0    1
 -2       256       257       408      1534      1987      1988
 -1       655    8    0    1
 -2       256       408       407      1988      1989      1984
 -1       656    8    0    1
 -2       257       258       409      1537      1990      1991
 -1       657    8    0    1
 -2       257       409       408      1991      1992      1987
 -1       658    8    0    1
 -2       258       259       410      1540      1993      1994
 -1       659    8    0    1
 -2       258       410       409      1994      1995      1990
 -1       660    8    0    1
 -2       259       260       411      1543      1996      1997
 -1       661    8    0    1
 -2       259       411       410      1997      1998      1993
 -1       662    8    0    1
 -2       260       261       412      1546      1999      2000
 -1       663    8    0    1
 -2       260       412       411      2000      2001      1996
 -1       664    8    0    1
 -2       261       262       413      1549      2002      2003
 -1       665    8    0    1
 -2       261       413       412      2003      2004      1999
 -1       666    8    0    1
 -2       266       267       414      1564      2005      2006
 -1       667    8    0    1
 -2       267       268       415      1567      2007      2008
 -1       668    8    0    1
 -2       268       269       416      1570      2009      2010
 -1       669    8    0    1
 -2       268       416       415      2010      2011      2007
 -1       670    8    0    1
 -2       269       270       417      1573      2012      2013
 -1       671    8    0    1
 -2       269       417       416      2013      2014      2009
 -1       672    8    0    1
 -2       270       271       418      1576      2015      2016
 -1       673    8    0    1
 -2       270       418       417      2016      2017      2012
 -1       674    8    0    1
 -2       271       272       419      1579      2018      2019
 -1       675    8    0    1
 -2       271       419       418      2019      2020      2015
 -1       676    8    0    1
 -2       272       273       420      1582      2021      2022
 -1       677    8    0    1
 -2       272       420       419      2022      2023      2018
 -1       678    8    0    1
 -2       273       274       421      1585      2024      2025
 -1       679    8    0    1
 -2       273       421       420      2025      2026      2021
 -1       680    8    0    1
 -2       274       275       422      1588      2027      2028
 -1       681    8    0    1
 -2       274       422       421      2028      2029      2024
 -1       682    8    0    1
 -2       275       276       423      1591      2030      2031
 -1       683    8    0    1
 -2       275       423       422      2031      2032      2027
 -1       684    8    0    1
 -2       292       293       424      1699      2033      2034
 -1       685    8    0    1
 -2       279       280       425      1603      2035      2036
 -1       686    8    0    1
 -2       278       279       426      1600      2037      2038
 -1       687    8    0    1
 -2       279       425       426      2036      2039      2037
 -1       688    8    0    1
 -2       122       277       276      1594      2040      1698
 -1       689    8    0    1
 -2       280       281       427      1606      2041      2042
 -1       690    8    0    1
 -2       280       427       425      2042      2043      2035
 -1       691    8    0    1
 -2       281       282       428      1609      2044      2045
 -1       692    8    0    1
 -2       281       428       427      2045      2046      2041
 -1       693    8    0    1
 -2       282       283       429      1612      2047      2048
 -1       694    8    0    1
 -2       282       429       428      2048      2049      2044
 -1       695    8    0    1
 -2       283       284       430      1615      2050      2051
 -1       696    8    0    1
 -2       283       430       429      2051      2052      2047
 -1       697    8    0    1
 -2       284       285       431      1618      2053      2054
 -1       698    8    0    1
 -2       284       431       430      2054      2055      2050
 -1       699    8    0    1
 -2       285       286       432      1621      2056      2057
 -1       700    8    0    1
 -2       285       432       431      2057      2058      2053
 -1       701    8    0    1
 -2       286       287       433      1624      2059      2060
 -1       702    8    0    1
 -2       286       433       432      2060      2061      2056
 -1       703    8    0    1
 -2       287       288       434      1627      2062      2063
 -1       704    8    0    1
 -2       287       434       433      2063      2064      2059
 -1       705    8    0    1
 -2       288       289       435      1630      2065      2066
 -1       706    8    0    1
 -2       288       435       434      2066      2067      2062
 -1       707    8    0    1
 -2       289       290       436      1633      2068      2069
 -1       708    8    0    1
 -2       289       436       435      2069      2070      2065
 -1       709    8    0    1
 -2       293       294       437      1700      2071      2072
 -1       710    8    0    1
 -2       294       334       437      1766      2073      2071
 -1       711    8    0    1
 -2       320       292       438      1701      2074      2075
 -1       712    8    0    1
 -2       167       168       439      1266      2076      2077
 -1       713    8    0    1
 -2       321       167       439      1728      2077      2078
 -1       714    8    0    1
 -2       168       323       439      1734      2079      2076
 -1       715    8    0    1
 -2       296       297       414      1703      2080      2081
 -1       716    8    0    1
 -2       300       301       440      1707      2082      2083
 -1       717    8    0    1
 -2       301       302       441      1708      2084      2085
 -1       718    8    0    1
 -2       302       303       442      1709      2086      2087
 -1       719    8    0    1
 -2       303       304       443      1710      2088      2089
 -1       720    8    0    1
 -2       304       305       444      1711      2090      2091
 -1       721    8    0    1
 -2       305       306       445      1712      2092      2093
 -1       722    8    0    1
 -2       306       307       446      1713      2094      2095
 -1       723    8    0    1
 -2       307       308       447      1714      2096      2097
 -1       724    8    0    1
 -2       308       309       448      1715      2098      2099
 -1       725    8    0    1
 -2       309       310       449      1716      2100      2101
 -1       726    8    0    1
 -2       310       311       450      1717      2102      2103
 -1       727    8    0    1
 -2       310       450       449      2103      2104      2100
 -1       728    8    0    1
 -2       311       312       451      1718      2105      2106
 -1       729    8    0    1
 -2       312       313       452      1719      2107      2108
 -1       730    8    0    1
 -2       313       314       453      1720      2109      2110
 -1       731    8    0    1
 -2       314       315       454      1721      2111      2112
 -1       732    8    0    1
 -2       315       316       455      1722      2113      2114
 -1       733    8    0    1
 -2       315       455       454      2114      2115      2111
 -1       734    8    0    1
 -2       316       317       456      1723      2116      2117
 -1       735    8    0    1
 -2       317       318       457      1724      2118      2119
 -1       736    8    0    1
 -2       318       319       458      1725      2120      2121
 -1       737    8    0    1
 -2       319       320       459      1726      2122      2123
 -1       738    8    0    1
 -2       179       228       333      1768      2124      1762
 -1       739    8    0    1
 -2       295       296       460      1702      2125      2126
 -1       740    8    0    1
 -2       180       165       322      1767      1731      2127
 -1       741    8    0    1
 -2       276       277       423      2040      2128      2030
 -1       742    8    0    1
 -2       423       277       278      2128      1597      2129
 -1       743    8    0    1
 -2       320       438       459      2075      2130      2122
 -1       744    8    0    1
 -2       295       460       334      2126      2131      1765
 -1       745    8    0    1
 -2       181       180       322      1305      2127      2132
 -1       746    8    0    1
 -2       296       414       460      2081      2133      2125
 -1       747    8    0    1
 -2       335       181       322      1769      2132      2134
 -1       748    8    0    1
 -2       229       382       333      1910      2135      2136
 -1       749    8    0    1
 -2       228       229       333      1450      2136      2124
 -1       750    8    0    1
 -2       414       267       415      2005      2008      2137
 -1       751    8    0    1
 -2       262       263       441      1552      2138      2139
 -1       752    8    0    1
 -2       263       264       440      1555      2140      2141
 -1       753    8    0    1
 -2       264       265       299      1558      2142      2143
 -1       754    8    0    1
 -2       265       266       461      1561      2144      2145
 -1       755    8    0    1
 -2       262       441       413      2139      2146      2002
 -1       756    8    0    1
 -2       292       424       438      2034      2147      2074
 -1       757    8    0    1
 -2       423       278       426      2129      2038      2148
 -1       758    8    0    1
 -2       424       293       437      2033      2072      2149
 -1       759    8    0    1
 -2       436       290       291      2068      1636      2150
 -1       760    8    0    1
 -2       458       319       459      2120      2123      2151
 -1       761    8    0    1
 -2       457       318       458      2118      2121      2152
 -1       762    8    0    1
 -2       455       316       456      2113      2117      2153
 -1       763    8    0    1
 -2       453       314       454      2109      2112      2154
 -1       764    8    0    1
 -2       452       313       453      2107      2110      2155
 -1       765    8    0    1
 -2       450       311       462      2102      2156      2157
 -1       766    8    0    1
 -2       311       451       462      2106      2158      2156
 -1       767    8    0    1
 -2       448       309       449      2098      2101      2159
 -1       768    8    0    1
 -2       447       308       448      2096      2099      2160
 -1       769    8    0    1
 -2       446       307       447      2094      2097      2161
 -1       770    8    0    1
 -2       445       306       446      2092      2095      2162
 -1       771    8    0    1
 -2       444       305       445      2090      2093      2163
 -1       772    8    0    1
 -2       443       304       444      2088      2091      2164
 -1       773    8    0    1
 -2       442       303       443      2086      2089      2165
 -1       774    8    0    1
 -2       441       302       442      2084      2087      2166
 -1       775    8    0    1
 -2       440       301       441      2082      2085      2167
 -1       776    8    0    1
 -2       297       298       461      1704      2168      2169
 -1       777    8    0    1
 -2       298       299       265      1705      2142      2170
 -1       778    8    0    1
 -2       299       300       264      1706      2171      2143
 -1       779    8    0    1
 -2       297       461       414      2169      2172      2080
 -1       780    8    0    1
 -2       451       312       452      2105      2108      2173
 -1       781    8    0    1
 -2       456       317       457      2116      2119      2174
 -1       782    8    0    1
 -2       461       266       414      2144      2006      2172
 -1       783    8    0    1
 -2       264       300       440      2171      2083      2140
 -1       784    8    0    1
 -2       441       263       440      2138      2141      2167
 -1       785    8    0    1
 -2       324       325       463      1740      2175      2176
 -1       786    8    0    1
 -2       323       324       464      1737      2177      2178
 -1       787    8    0    1
 -2       324       463       464      2176      2179      2177
 -1       788    8    0    1
 -2       326       327       465      1746      2180      2181
 -1       789    8    0    1
 -2       327       328       466      1749      2182      2183
 -1       790    8    0    1
 -2       327       466       465      2183      2184      2180
 -1       791    8    0    1
 -2       328       329       467      1752      2185      2186
 -1       792    8    0    1
 -2       328       467       466      2186      2187      2182
 -1       793    8    0    1
 -2       329       330       468      1755      2188      2189
 -1       794    8    0    1
 -2       329       468       467      2189      2190      2185
 -1       795    8    0    1
 -2       330       331       469      1758      2191      2192
 -1       796    8    0    1
 -2       330       469       468      2192      2193      2188
 -1       797    8    0    1
 -2       331       332       470      1761      2194      2195
 -1       798    8    0    1
 -2       331       470       469      2195      2196      2191
 -1       799    8    0    1
 -2       332       333       471      1764      2197      2198
 -1       800    8    0    1
 -2       470       332       471      2194      2198      2199
 -1       801    8    0    1
 -2       333       382       471      2135      2200      2197
 -1       802    8    0    1
 -2       336       335       472      1773      2201      2202
 -1       803    8    0    1
 -2       337       336       473      1776      2203      2204
 -1       804    8    0    1
 -2       336       472       473      2202      2205      2203
 -1       805    8    0    1
 -2       338       337       474      1779      2206      2207
 -1       806    8    0    1
 -2       337       473       474      2204      2208      2206
 -1       807    8    0    1
 -2       339       338       475      1782      2209      2210
 -1       808    8    0    1
 -2       338       474       475      2207      2211      2209
 -1       809    8    0    1
 -2       340       339       476      1785      2212      2213
 -1       810    8    0    1
 -2       339       475       476      2210      2214      2212
 -1       811    8    0    1
 -2       341       340       477      1788      2215      2216
 -1       812    8    0    1
 -2       340       476       477      2213      2217      2215
 -1       813    8    0    1
 -2       342       341       478      1791      2218      2219
 -1       814    8    0    1
 -2       341       477       478      2216      2220      2218
 -1       815    8    0    1
 -2       343       342       479      1794      2221      2222
 -1       816    8    0    1
 -2       342       478       479      2219      2223      2221
 -1       817    8    0    1
 -2       344       343       480      1797      2224      2225
 -1       818    8    0    1
 -2       343       479       480      2222      2226      2224
 -1       819    8    0    1
 -2       345       344       481      1800      2227      2228
 -1       820    8    0    1
 -2       344       480       481      2225      2229      2227
 -1       821    8    0    1
 -2       346       345       482      1803      2230      2231
 -1       822    8    0    1
 -2       345       481       482      2228      2232      2230
 -1       823    8    0    1
 -2       347       346       483      1806      2233      2234
 -1       824    8    0    1
 -2       346       482       483      2231      2235      2233
 -1       825    8    0    1
 -2       348       347       484      1809      2236      2237
 -1       826    8    0    1
 -2       347       483       484      2234      2238      2236
 -1       827    8    0    1
 -2       349       348       485      1812      2239      2240
 -1       828    8    0    1
 -2       348       484       485      2237      2241      2239
 -1       829    8    0    1
 -2       350       349       486      1815      2242      2243
 -1       830    8    0    1
 -2       349       485       486      2240      2244      2242
 -1       831    8    0    1
 -2       351       350       487      1818      2245      2246
 -1       832    8    0    1
 -2       350       486       487      2243      2247      2245
 -1       833    8    0    1
 -2       352       351       488      1821      2248      2249
 -1       834    8    0    1
 -2       351       487       488      2246      2250      2248
 -1       835    8    0    1
 -2       353       352       489      1824      2251      2252
 -1       836    8    0    1
 -2       352       488       489      2249      2253      2251
 -1       837    8    0    1
 -2       354       353       490      1827      2254      2255
 -1       838    8    0    1
 -2       353       489       490      2252      2256      2254
 -1       839    8    0    1
 -2       355       354       491      1830      2257      2258
 -1       840    8    0    1
 -2       354       490       491      2255      2259      2257
 -1       841    8    0    1
 -2       356       355       492      1833      2260      2261
 -1       842    8    0    1
 -2       355       491       492      2258      2262      2260
 -1       843    8    0    1
 -2       357       356       493      1836      2263      2264
 -1       844    8    0    1
 -2       356       492       493      2261      2265      2263
 -1       845    8    0    1
 -2       358       357       494      1839      2266      2267
 -1       846    8    0    1
 -2       357       493       494      2264      2268      2266
 -1       847    8    0    1
 -2       359       358       495      1842      2269      2270
 -1       848    8    0    1
 -2       358       494       495      2267      2271      2269
 -1       849    8    0    1
 -2       360       359       496      1845      2272      2273
 -1       850    8    0    1
 -2       359       495       496      2270      2274      2272
 -1       851    8    0    1
 -2       361       360       497      1848      2275      2276
 -1       852    8    0    1
 -2       360       496       497      2273      2277      2275
 -1       853    8    0    1
 -2       362       361       498      1851      2278      2279
 -1       854    8    0    1
 -2       361       497       498      2276      2280      2278
 -1       855    8    0    1
 -2       363       362       499      1854      2281      2282
 -1       856    8    0    1
 -2       362       498       499      2279      2283      2281
 -1       857    8    0    1
 -2       364       363       500      1857      2284      2285
 -1       858    8    0    1
 -2       363       499       500      2282      2286      2284
 -1       859    8    0    1
 -2       365       364       501      1860      2287      2288
 -1       860    8    0    1
 -2       364       500       501      2285      2289      2287
 -1       861    8    0    1
 -2       366       365       502      1863      2290      2291
 -1       862    8    0    1
 -2       365       501       502      2288      2292      2290
 -1       863    8    0    1
 -2       367       366       503      1866      2293      2294
 -1       864    8    0    1
 -2       366       502       503      2291      2295      2293
 -1       865    8    0    1
 -2       368       367       504      1869      2296      2297
 -1       866    8    0    1
 -2       367       503       504      2294      2298      2296
 -1       867    8    0    1
 -2       369       368       505      1872      2299      2300
 -1       868    8    0    1
 -2       368       504       505      2297      2301      2299
 -1       869    8    0    1
 -2       370       369       506      1875      2302      2303
 -1       870    8    0    1
 -2       369       505       506      2300      2304      2302
 -1       871    8    0    1
 -2       371       370       507      1878      2305      2306
 -1       872    8    0    1
 -2       370       506       507      2303      2307      2305
 -1       873    8    0    1
 -2       372       371       508      1881      2308      2309
 -1       874    8    0    1
 -2       371       507       508      2306      2310      2308
 -1       875    8    0    1
 -2       373       372       509      1884      2311      2312
 -1       876    8    0    1
 -2       372       508       509      2309      2313      2311
 -1       877    8    0    1
 -2       374       373       510      1887      2314      2315
 -1       878    8    0    1
 -2       373       509       510      2312      2316      2314
 -1       879    8    0    1
 -2       375       374       511      1890      2317      2318
 -1       880    8    0    1
 -2       374       510       511      2315      2319      2317
 -1       881    8    0    1
 -2       376       375       512      1893      2320      2321
 -1       882    8    0    1
 -2       375       511       512      2318      2322      2320
 -1       883    8    0    1
 -2       377       376       513      1896      2323      2324
 -1       884    8    0    1
 -2       376       512       513      2321      2325      2323
 -1       885    8    0    1
 -2       378       377       514      1899      2326      2327
 -1       886    8    0    1
 -2       377       513       514      2324      2328      2326
 -1       887    8    0    1
 -2       379       378       515      1902      2329      2330
 -1       888    8    0    1
 -2       378       514       515      2327      2331      2329
 -1       889    8    0    1
 -2       382       381       516      1911      2332      2333
 -1       890    8    0    1
 -2       382       516       471      2333      2334      2200
 -1       891    8    0    1
 -2       384       385       517      1920      2335      2336
 -1       892    8    0    1
 -2       385       386       518      1923      2337      2338
 -1       893    8    0    1
 -2       385       518       517      2338      2339      2335
 -1       894    8    0    1
 -2       386       387       519      1926      2340      2341
 -1       895    8    0    1
 -2       386       519       518      2341      2342      2337
 -1       896    8    0    1
 -2       387       388       520      1929      2343      2344
 -1       897    8    0    1
 -2       387       520       519      2344      2345      2340
 -1       898    8    0    1
 -2       388       389       521      1932      2346      2347
 -1       899    8    0    1
 -2       388       521       520      2347      2348      2343
 -1       900    8    0    1
 -2       389       390       522      1935      2349      2350
 -1       901    8    0    1
 -2       389       522       521      2350      2351      2346
 -1       902    8    0    1
 -2       390       391       523      1938      2352      2353
 -1       903    8    0    1
 -2       390       523       522      2353      2354      2349
 -1       904    8    0    1
 -2       391       392       524      1941      2355      2356
 -1       905    8    0    1
 -2       391       524       523      2356      2357      2352
 -1       906    8    0    1
 -2       392       393       525      1944      2358      2359
 -1       907    8    0    1
 -2       392       525       524      2359      2360      2355
 -1       908    8    0    1
 -2       393       394       526      1947      2361      2362
 -1       909    8    0    1
 -2       393       526       525      2362      2363      2358
 -1       910    8    0    1
 -2       394       395       527      1950      2364      2365
 -1       911    8    0    1
 -2       394       527       526      2365      2366      2361
 -1       912    8    0    1
 -2       395       396       528      1953      2367      2368
 -1       913    8    0    1
 -2       395       528       527      2368      2369      2364
 -1       914    8    0    1
 -2       396       397       529      1956      2370      2371
 -1       915    8    0    1
 -2       396       529       528      2371      2372      2367
 -1       916    8    0    1
 -2       397       398       530      1959      2373      2374
 -1       917    8    0    1
 -2       397       530       529      2374      2375      2370
 -1       918    8    0    1
 -2       398       399       531      1962      2376      2377
 -1       919    8    0    1
 -2       398       531       530      2377      2378      2373
 -1       920    8    0    1
 -2       399       400       532      1965      2379      2380
 -1       921    8    0    1
 -2       399       532       531      2380      2381      2376
 -1       922    8    0    1
 -2       400       401       533      1968      2382      2383
 -1       923    8    0    1
 -2       400       533       532      2383      2384      2379
 -1       924    8    0    1
 -2       401       402       534      1971      2385      2386
 -1       925    8    0    1
 -2       401       534       533      2386      2387      2382
 -1       926    8    0    1
 -2       402       403       535      1974      2388      2389
 -1       927    8    0    1
 -2       402       535       534      2389      2390      2385
 -1       928    8    0    1
 -2       403       404       536      1977      2391      2392
 -1       929    8    0    1
 -2       403       536       535      2392      2393      2388
 -1       930    8    0    1
 -2       404       405       537      1980      2394      2395
 -1       931    8    0    1
 -2       404       537       536      2395      2396      2391
 -1       932    8    0    1
 -2       405       406       538      1983      2397      2398
 -1       933    8    0    1
 -2       405       538       537      2398      2399      2394
 -1       934    8    0    1
 -2       406       407       539      1986      2400      2401
 -1       935    8    0    1
 -2       406       539       538      2401      2402      2397
 -1       936    8    0    1
 -2       407       408       540      1989      2403      2404
 -1       937    8    0    1
 -2       407       540       539      2404      2405      2400
 -1       938    8    0    1
 -2       408       409       541      1992      2406      2407
 -1       939    8    0    1
 -2       408       541       540      2407      2408      2403
 -1       940    8    0    1
 -2       409       410       542      1995      2409      2410
 -1       941    8    0    1
 -2       409       542       541      2410      2411      2406
 -1       942    8    0    1
 -2       410       411       543      1998      2412      2413
 -1       943    8    0    1
 -2       410       543       542      2413      2414      2409
 -1       944    8    0    1
 -2       411       412       544      2001      2415      2416
 -1       945    8    0    1
 -2       411       544       543      2416      2417      2412
 -1       946    8    0    1
 -2       438       424       545      2147      2418      2419
 -1       947    8    0    1
 -2       413       441       442      2146      2166      2420
 -1       948    8    0    1
 -2       415       416       546      2011      2421      2422
 -1       949    8    0    1
 -2       418       419       547      2020      2423      2424
 -1       950    8    0    1
 -2       419       420       548      2023      2425      2426
 -1       951    8    0    1
 -2       419       548       547      2426      2427      2423
 -1       952    8    0    1
 -2       420       421       549      2026      2428      2429
 -1       953    8    0    1
 -2       420       549       548      2429      2430      2425
 -1       954    8    0    1
 -2       421       422       550      2029      2431      2432
 -1       955    8    0    1
 -2       421       550       549      2432      2433      2428
 -1       956    8    0    1
 -2       422       423       551      2032      2434      2435
 -1       957    8    0    1
 -2       550       422       551      2431      2435      2436
 -1       958    8    0    1
 -2       423       426       551      2148      2437      2434
 -1       959    8    0    1
 -2       424       437       552      2149      2438      2439
 -1       960    8    0    1
 -2       428       429       553      2049      2440      2441
 -1       961    8    0    1
 -2       459       438       554      2130      2442      2443
 -1       962    8    0    1
 -2       429       430       555      2052      2444      2445
 -1       963    8    0    1
 -2       429       555       553      2445      2446      2440
 -1       964    8    0    1
 -2       430       431       556      2055      2447      2448
 -1       965    8    0    1
 -2       430       556       555      2448      2449      2444
 -1       966    8    0    1
 -2       431       432       557      2058      2450      2451
 -1       967    8    0    1
 -2       431       557       556      2451      2452      2447
 -1       968    8    0    1
 -2       432       433       558      2061      2453      2454
 -1       969    8    0    1
 -2       432       558       557      2454      2455      2450
 -1       970    8    0    1
 -2       433       434       559      2064      2456      2457
 -1       971    8    0    1
 -2       433       559       558      2457      2458      2453
 -1       972    8    0    1
 -2       434       435       560      2067      2459      2460
 -1       973    8    0    1
 -2       434       560       559      2460      2461      2456
 -1       974    8    0    1
 -2       435       436       561      2070      2462      2463
 -1       975    8    0    1
 -2       435       561       560      2463      2464      2459
 -1       976    8    0    1
 -2       436       291       380      2150      1905      2465
 -1       977    8    0    1
 -2       437       334       562      2073      2466      2467
 -1       978    8    0    1
 -2       437       562       552      2467      2468      2438
 -1       979    8    0    1
 -2       458       459       563      2151      2469      2470
 -1       980    8    0    1
 -2       383       384       564      1917      2471      2472
 -1       981    8    0    1
 -2       384       517       564      2336      2473      2471
 -1       982    8    0    1
 -2       425       427       565      2043      2474      2475
 -1       983    8    0    1
 -2       453       454       566      2154      2476      2477
 -1       984    8    0    1
 -2       448       449       567      2159      2478      2479
 -1       985    8    0    1
 -2       426       425       568      2039      2480      2481
 -1       986    8    0    1
 -2       551       426       568      2437      2481      2482
 -1       987    8    0    1
 -2       425       565       568      2475      2483      2480
 -1       988    8    0    1
 -2       427       428       569      2046      2484      2485
 -1       989    8    0    1
 -2       565       427       569      2474      2485      2486
 -1       990    8    0    1
 -2       428       553       569      2441      2487      2484
 -1       991    8    0    1
 -2       417       418       570      2017      2488      2489
 -1       992    8    0    1
 -2       418       547       570      2424      2490      2488
 -1       993    8    0    1
 -2       416       417       571      2014      2491      2492
 -1       994    8    0    1
 -2       546       416       571      2421      2492      2493
 -1       995    8    0    1
 -2       417       570       571      2489      2494      2491
 -1       996    8    0    1
 -2       325       326       572      1743      2495      2496
 -1       997    8    0    1
 -2       463       325       572      2175      2496      2497
 -1       998    8    0    1
 -2       326       465       572      2181      2498      2495
 -1       999    8    0    1
 -2       381       383       573      1914      2499      2500
 -1      1000    8    0    1
 -2       516       381       573      2332      2500      2501
 -1      1001    8    0    1
 -2       383       564       573      2472      2502      2499
 -1      1002    8    0    1
 -2       451       452       574      2173      2503      2504
 -1      1003    8    0    1
 -2       442       443       575      2165      2505      2506
 -1      1004    8    0    1
 -2       442       575       413      2506      2507      2420
 -1      1005    8    0    1
 -2       443       444       576      2164      2508      2509
 -1      1006    8    0    1
 -2       444       445       577      2163      2510      2511
 -1      1007    8    0    1
 -2       445       446       578      2162      2512      2513
 -1      1008    8    0    1
 -2       446       447       579      2161      2514      2515
 -1      1009    8    0    1
 -2       446       579       578      2515      2516      2512
 -1      1010    8    0    1
 -2       447       448       580      2160      2517      2518
 -1      1011    8    0    1
 -2       449       450       581      2104      2519      2520
 -1      1012    8    0    1
 -2       456       457       582      2174      2521      2522
 -1      1013    8    0    1
 -2       452       453       583      2155      2523      2524
 -1      1014    8    0    1
 -2       452       583       574      2524      2525      2503
 -1      1015    8    0    1
 -2       454       455       584      2115      2526      2527
 -1      1016    8    0    1
 -2       455       456       585      2153      2528      2529
 -1      1017    8    0    1
 -2       584       455       585      2526      2529      2530
 -1      1018    8    0    1
 -2       456       582       585      2522      2531      2528
 -1      1019    8    0    1
 -2       457       458       586      2152      2532      2533
 -1      1020    8    0    1
 -2       414       415       460      2137      2534      2133
 -1      1021    8    0    1
 -2       335       322       587      2134      2535      2536
 -1      1022    8    0    1
 -2       472       335       587      2201      2536      2537
 -1      1023    8    0    1
 -2       322       321       587      1732      2538      2535
 -1      1024    8    0    1
 -2       460       415       546      2534      2422      2539
 -1      1025    8    0    1
 -2       323       464       588      2178      2540      2541
 -1      1026    8    0    1
 -2       323       588       439      2541      2542      2079
 -1      1027    8    0    1
 -2       454       584       566      2527      2543      2476
 -1      1028    8    0    1
 -2       438       545       554      2419      2544      2442
 -1      1029    8    0    1
 -2       544       412       576      2415      2545      2546
 -1      1030    8    0    1
 -2       545       424       552      2418      2439      2547
 -1      1031    8    0    1
 -2       412       413       575      2004      2507      2548
 -1      1032    8    0    1
 -2       443       576       575      2509      2549      2505
 -1      1033    8    0    1
 -2       458       563       586      2470      2550      2532
 -1      1034    8    0    1
 -2       459       554       563      2443      2551      2469
 -1      1035    8    0    1
 -2       436       380       589      2465      2552      2553
 -1      1036    8    0    1
 -2       561       436       589      2462      2553      2554
 -1      1037    8    0    1
 -2       380       379       589      1906      2555      2552
 -1      1038    8    0    1
 -2       562       334       546      2466      2556      2557
 -1      1039    8    0    1
 -2       451       574       590      2504      2558      2559
 -1      1040    8    0    1
 -2       451       590       462      2559      2560      2158
 -1      1041    8    0    1
 -2       321       439       591      2078      2561      2562
 -1      1042    8    0    1
 -2       587       321       591      2538      2562      2563
 -1      1043    8    0    1
 -2       439       588       591      2542      2564      2561
 -1      1044    8    0    1
 -2       453       566       583      2477      2565      2523
 -1      1045    8    0    1
 -2       334       460       546      2131      2539      2556
 -1      1046    8    0    1
 -2       448       567       580      2479      2566      2517
 -1      1047    8    0    1
 -2       581       450       462      2519      2157      2567
 -1      1048    8    0    1
 -2       579       447       580      2514      2518      2568
 -1      1049    8    0    1
 -2       577       445       578      2510      2513      2569
 -1      1050    8    0    1
 -2       298       265       461      2170      2145      2168
 -1      1051    8    0    1
 -2       582       457       592      2521      2570      2571
 -1      1052    8    0    1
 -2       457       586       592      2533      2572      2570
 -1      1053    8    0    1
 -2       576       444       593      2508      2573      2574
 -1      1054    8    0    1
 -2       444       577       593      2511      2575      2573
 -1      1055    8    0    1
 -2       449       581       567      2520      2576      2478
 -1      1056    8    0    1
 -2       589       379       515      2555      2330      2577
 -1      1057    8    0    1
 -2       466       467       594      2187      2578      2579
 -1      1058    8    0    1
 -2       465       466       595      2184      2580      2581
 -1      1059    8    0    1
 -2       466       594       595      2579      2582      2580
 -1      1060    8    0    1
 -2       468       469       596      2193      2583      2584
 -1      1061    8    0    1
 -2       469       470       597      2196      2585      2586
 -1      1062    8    0    1
 -2       469       597       596      2586      2587      2583
 -1      1063    8    0    1
 -2       470       471       598      2199      2588      2589
 -1      1064    8    0    1
 -2       597       470       598      2585      2589      2590
 -1      1065    8    0    1
 -2       471       516       598      2334      2591      2588
 -1      1066    8    0    1
 -2       473       472       599      2205      2592      2593
 -1      1067    8    0    1
 -2       467       468       600      2190      2594      2595
 -1      1068    8    0    1
 -2       594       467       600      2578      2595      2596
 -1      1069    8    0    1
 -2       468       596       600      2584      2597      2594
 -1      1070    8    0    1
 -2       474       473       601      2208      2598      2599
 -1      1071    8    0    1
 -2       473       599       601      2593      2600      2598
 -1      1072    8    0    1
 -2       475       474       602      2211      2601      2602
 -1      1073    8    0    1
 -2       474       601       602      2599      2603      2601
 -1      1074    8    0    1
 -2       476       475       603      2214      2604      2605
 -1      1075    8    0    1
 -2       475       602       603      2602      2606      2604
 -1      1076    8    0    1
 -2       477       476       604      2217      2607      2608
 -1      1077    8    0    1
 -2       476       603       604      2605      2609      2607
 -1      1078    8    0    1
 -2       478       477       605      2220      2610      2611
 -1      1079    8    0    1
 -2       477       604       605      2608      2612      2610
 -1      1080    8    0    1
 -2       479       478       606      2223      2613      2614
 -1      1081    8    0    1
 -2       478       605       606      2611      2615      2613
 -1      1082    8    0    1
 -2       480       479       607      2226      2616      2617
 -1      1083    8    0    1
 -2       479       606       607      2614      2618      2616
 -1      1084    8    0    1
 -2       481       480       608      2229      2619      2620
 -1      1085    8    0    1
 -2       480       607       608      2617      2621      2619
 -1      1086    8    0    1
 -2       482       481       609      2232      2622      2623
 -1      1087    8    0    1
 -2       481       608       609      2620      2624      2622
 -1      1088    8    0    1
 -2       483       482       610      2235      2625      2626
 -1      1089    8    0    1
 -2       482       609       610      2623      2627      2625
 -1      1090    8    0    1
 -2       484       483       611      2238      2628      2629
 -1      1091    8    0    1
 -2       483       610       611      2626      2630      2628
 -1      1092    8    0    1
 -2       485       484       612      2241      2631      2632
 -1      1093    8    0    1
 -2       484       611       612      2629      2633      2631
 -1      1094    8    0    1
 -2       486       485       613      2244      2634      2635
 -1      1095    8    0    1
 -2       485       612       613      2632      2636      2634
 -1      1096    8    0    1
 -2       487       486       614      2247      2637      2638
 -1      1097    8    0    1
 -2       486       613       614      2635      2639      2637
 -1      1098    8    0    1
 -2       488       487       615      2250      2640      2641
 -1      1099    8    0    1
 -2       487       614       615      2638      2642      2640
 -1      1100    8    0    1
 -2       489       488       616      2253      2643      2644
 -1      1101    8    0    1
 -2       488       615       616      2641      2645      2643
 -1      1102    8    0    1
 -2       490       489       617      2256      2646      2647
 -1      1103    8    0    1
 -2       489       616       617      2644      2648      2646
 -1      1104    8    0    1
 -2       491       490       618      2259      2649      2650
 -1      1105    8    0    1
 -2       490       617       618      2647      2651      2649
 -1      1106    8    0    1
 -2       492       491       619      2262      2652      2653
 -1      1107    8    0    1
 -2       491       618       619      2650      2654      2652
 -1      1108    8    0    1
 -2       493       492       620      2265      2655      2656
 -1      1109    8    0    1
 -2       492       619       620      2653      2657      2655
 -1      1110    8    0    1
 -2       494       493       621      2268      2658      2659
 -1      1111    8    0    1
 -2       493       620       621      2656      2660      2658
 -1      1112    8    0    1
 -2       495       494       622      2271      2661      2662
 -1      1113    8    0    1
 -2       494       621       622      2659      2663      2661
 -1      1114    8    0    1
 -2       496       495       623      2274      2664      2665
 -1      1115    8    0    1
 -2       495       622       623      2662      2666      2664
 -1      1116    8    0    1
 -2       497       496       624      2277      2667      2668
 -1      1117    8    0    1
 -2       496       623       624      2665      2669      2667
 -1      1118    8    0    1
 -2       498       497       625      2280      2670      2671
 -1      1119    8    0    1
 -2       497       624       625      2668      2672      2670
 -1      1120    8    0    1
 -2       499       498       626      2283      2673      2674
 -1      1121    8    0    1
 -2       498       625       626      2671      2675      2673
 -1      1122    8    0    1
 -2       500       499       627      2286      2676      2677
 -1      1123    8    0    1
 -2       499       626       627      2674      2678      2676
 -1      1124    8    0    1
 -2       501       500       628      2289      2679      2680
 -1      1125    8    0    1
 -2       500       627       628      2677      2681      2679
 -1      1126    8    0    1
 -2       502       501       629      2292      2682      2683
 -1      1127    8    0    1
 -2       501       628       629      2680      2684      2682
 -1      1128    8    0    1
 -2       503       502       630      2295      2685      2686
 -1      1129    8    0    1
 -2       502       629       630      2683      2687      2685
 -1      1130    8    0    1
 -2       504       503       631      2298      2688      2689
 -1      1131    8    0    1
 -2       503       630       631      2686      2690      2688
 -1      1132    8    0    1
 -2       505       504       632      2301      2691      2692
 -1      1133    8    0    1
 -2       504       631       632      2689      2693      2691
 -1      1134    8    0    1
 -2       506       505       633      2304      2694      2695
 -1      1135    8    0    1
 -2       505       632       633      2692      2696      2694
 -1      1136    8    0    1
 -2       507       506       634      2307      2697      2698
 -1      1137    8    0    1
 -2       506       633       634      2695      2699      2697
 -1      1138    8    0    1
 -2       508       507       635      2310      2700      2701
 -1      1139    8    0    1
 -2       507       634       635      2698      2702      2700
 -1      1140    8    0    1
 -2       509       508       636      2313      2703      2704
 -1      1141    8    0    1
 -2       508       635       636      2701      2705      2703
 -1      1142    8    0    1
 -2       510       509       637      2316      2706      2707
 -1      1143    8    0    1
 -2       509       636       637      2704      2708      2706
 -1      1144    8    0    1
 -2       511       510       638      2319      2709      2710
 -1      1145    8    0    1
 -2       510       637       638      2707      2711      2709
 -1      1146    8    0    1
 -2       512       511       639      2322      2712      2713
 -1      1147    8    0    1
 -2       511       638       639      2710      2714      2712
 -1      1148    8    0    1
 -2       513       512       640      2325      2715      2716
 -1      1149    8    0    1
 -2       512       639       640      2713      2717      2715
 -1      1150    8    0    1
 -2       514       513       641      2328      2718      2719
 -1      1151    8    0    1
 -2       513       640       641      2716      2720      2718
 -1      1152    8    0    1
 -2       515       514       642      2331      2721      2722
 -1      1153    8    0    1
 -2       514       641       642      2719      2723      2721
 -1      1154    8    0    1
 -2       562       546       571      2557      2493      2724
 -1      1155    8    0    1
 -2       518       519       643      2342      2725      2726
 -1      1156    8    0    1
 -2       556       557       644      2452      2727      2728
 -1      1157    8    0    1
 -2       517       518       645      2339      2729      2730
 -1      1158    8    0    1
 -2       518       643       645      2726      2731      2729
 -1      1159    8    0    1
 -2       548       549       646      2430      2732      2733
 -1      1160    8    0    1
 -2       520       521       647      2348      2734      2735
 -1      1161    8    0    1
 -2       521       522       648      2351      2736      2737
 -1      1162    8    0    1
 -2       521       648       647      2737      2738      2734
 -1      1163    8    0    1
 -2       522       523       649      2354      2739      2740
 -1      1164    8    0    1
 -2       522       649       648      2740      2741      2736
 -1      1165    8    0    1
 -2       523       524       650      2357      2742      2743
 -1      1166    8    0    1
 -2       523       650       649      2743      2744      2739
 -1      1167    8    0    1
 -2       524       525       651      2360      2745      2746
 -1      1168    8    0    1
 -2       524       651       650      2746      2747      2742
 -1      1169    8    0    1
 -2       525       526       652      2363      2748      2749
 -1      1170    8    0    1
 -2       525       652       651      2749      2750      2745
 -1      1171    8    0    1
 -2       526       527       653      2366      2751      2752
 -1      1172    8    0    1
 -2       526       653       652      2752      2753      2748
 -1      1173    8    0    1
 -2       527       528       654      2369      2754      2755
 -1      1174    8    0    1
 -2       527       654       653      2755      2756      2751
 -1      1175    8    0    1
 -2       528       529       655      2372      2757      2758
 -1      1176    8    0    1
 -2       528       655       654      2758      2759      2754
 -1      1177    8    0    1
 -2       529       530       656      2375      2760      2761
 -1      1178    8    0    1
 -2       529       656       655      2761      2762      2757
 -1      1179    8    0    1
 -2       530       531       657      2378      2763      2764
 -1      1180    8    0    1
 -2       530       657       656      2764      2765      2760
 -1      1181    8    0    1
 -2       531       532       658      2381      2766      2767
 -1      1182    8    0    1
 -2       531       658       657      2767      2768      2763
 -1      1183    8    0    1
 -2       532       533       659      2384      2769      2770
 -1      1184    8    0    1
 -2       532       659       658      2770      2771      2766
 -1      1185    8    0    1
 -2       533       534       660      2387      2772      2773
 -1      1186    8    0    1
 -2       533       660       659      2773      2774      2769
 -1      1187    8    0    1
 -2       534       535       661      2390      2775      2776
 -1      1188    8    0    1
 -2       534       661       660      2776      2777      2772
 -1      1189    8    0    1
 -2       535       536       662      2393      2778      2779
 -1      1190    8    0    1
 -2       535       662       661      2779      2780      2775
 -1      1191    8    0    1
 -2       536       537       663      2396      2781      2782
 -1      1192    8    0    1
 -2       536       663       662      2782      2783      2778
 -1      1193    8    0    1
 -2       537       538       664      2399      2784      2785
 -1      1194    8    0    1
 -2       537       664       663      2785      2786      2781
 -1      1195    8    0    1
 -2       538       539       665      2402      2787      2788
 -1      1196    8    0    1
 -2       538       665       664      2788      2789      2784
 -1      1197    8    0    1
 -2       539       540       666      2405      2790      2791
 -1      1198    8    0    1
 -2       539       666       665      2791      2792      2787
 -1      1199    8    0    1
 -2       540       541       667      2408      2793      2794
 -1      1200    8    0    1
 -2       540       667       666      2794      2795      2790
 -1      1201    8    0    1
 -2       541       542       668      2411      2796      2797
 -1      1202    8    0    1
 -2       541       668       667      2797      2798      2793
 -1      1203    8    0    1
 -2       542       543       669      2414      2799      2800
 -1      1204    8    0    1
 -2       542       669       668      2800      2801      2796
 -1      1205    8    0    1
 -2       576       412       575      2545      2548      2549
 -1      1206    8    0    1
 -2       545       552       670      2547      2802      2803
 -1      1207    8    0    1
 -2       544       576       593      2546      2574      2804
 -1      1208    8    0    1
 -2       464       463       671      2179      2805      2806
 -1      1209    8    0    1
 -2       549       550       672      2433      2807      2808
 -1      1210    8    0    1
 -2       549       672       646      2808      2809      2732
 -1      1211    8    0    1
 -2       547       548       673      2427      2810      2811
 -1      1212    8    0    1
 -2       548       646       673      2733      2812      2810
 -1      1213    8    0    1
 -2       550       551       674      2436      2813      2814
 -1      1214    8    0    1
 -2       672       550       674      2807      2814      2815
 -1      1215    8    0    1
 -2       551       568       674      2482      2816      2813
 -1      1216    8    0    1
 -2       555       556       675      2449      2817      2818
 -1      1217    8    0    1
 -2       556       644       675      2728      2819      2817
 -1      1218    8    0    1
 -2       566       584       676      2543      2820      2821
 -1      1219    8    0    1
 -2       553       555       677      2446      2822      2823
 -1      1220    8    0    1
 -2       555       675       677      2818      2824      2822
 -1      1221    8    0    1
 -2       557       558       678      2455      2825      2826
 -1      1222    8    0    1
 -2       557       678       644      2826      2827      2727
 -1      1223    8    0    1
 -2       558       559       679      2458      2828      2829
 -1      1224    8    0    1
 -2       558       679       678      2829      2830      2825
 -1      1225    8    0    1
 -2       559       560       680      2461      2831      2832
 -1      1226    8    0    1
 -2       559       680       679      2832      2833      2828
 -1      1227    8    0    1
 -2       580       567       681      2566      2834      2835
 -1      1228    8    0    1
 -2       564       517       682      2473      2836      2837
 -1      1229    8    0    1
 -2       517       645       682      2730      2838      2836
 -1      1230    8    0    1
 -2       561       589       683      2554      2839      2840
 -1      1231    8    0    1
 -2       589       515       683      2577      2841      2839
 -1      1232    8    0    1
 -2       570       547       684      2490      2842      2843
 -1      1233    8    0    1
 -2       547       673       684      2811      2844      2842
 -1      1234    8    0    1
 -2       577       578       685      2569      2845      2846
 -1      1235    8    0    1
 -2       586       563       686      2550      2847      2848
 -1      1236    8    0    1
 -2       519       520       687      2345      2849      2850
 -1      1237    8    0    1
 -2       520       647       687      2735      2851      2849
 -1      1238    8    0    1
 -2       583       566       688      2565      2852      2853
 -1      1239    8    0    1
 -2       567       581       689      2576      2854      2855
 -1      1240    8    0    1
 -2       578       579       690      2516      2856      2857
 -1      1241    8    0    1
 -2       581       462       691      2567      2858      2859
 -1      1242    8    0    1
 -2       574       583       692      2525      2860      2861
 -1      1243    8    0    1
 -2       579       580       693      2568      2862      2863
 -1      1244    8    0    1
 -2       579       693       690      2863      2864      2856
 -1      1245    8    0    1
 -2       563       554       694      2551      2865      2866
 -1      1246    8    0    1
 -2       554       545       695      2544      2867      2868
 -1      1247    8    0    1
 -2       554       695       694      2868      2869      2865
 -1      1248    8    0    1
 -2       472       587       696      2537      2870      2871
 -1      1249    8    0    1
 -2       599       472       696      2592      2871      2872
 -1      1250    8    0    1
 -2       587       591       696      2563      2873      2870
 -1      1251    8    0    1
 -2       465       595       697      2581      2874      2875
 -1      1252    8    0    1
 -2       465       697       572      2875      2876      2498
 -1      1253    8    0    1
 -2       598       516       698      2591      2877      2878
 -1      1254    8    0    1
 -2       516       573       698      2501      2879      2877
 -1      1255    8    0    1
 -2       565       569       699      2486      2880      2881
 -1      1256    8    0    1
 -2       562       571       700      2724      2882      2883
 -1      1257    8    0    1
 -2       552       562       700      2468      2883      2884
 -1      1258    8    0    1
 -2       571       570       700      2494      2885      2882
 -1      1259    8    0    1
 -2       515       642       683      2722      2886      2841
 -1      1260    8    0    1
 -2       643       519       687      2725      2850      2887
 -1      1261    8    0    1
 -2       566       676       688      2821      2888      2852
 -1      1262    8    0    1
 -2       561       683       560      2840      2889      2464
 -1      1263    8    0    1
 -2       577       685       701      2846      2890      2891
 -1      1264    8    0    1
 -2       577       701       593      2891      2892      2575
 -1      1265    8    0    1
 -2       583       688       692      2853      2893      2860
 -1      1266    8    0    1
 -2       669       543       701      2799      2894      2895
 -1      1267    8    0    1
 -2       686       563       694      2847      2866      2896
 -1      1268    8    0    1
 -2       543       544       701      2417      2897      2894
 -1      1269    8    0    1
 -2       573       564       702      2502      2898      2899
 -1      1270    8    0    1
 -2       698       573       702      2879      2899      2900
 -1      1271    8    0    1
 -2       564       682       702      2837      2901      2898
 -1      1272    8    0    1
 -2       592       586       703      2572      2902      2903
 -1      1273    8    0    1
 -2       586       686       703      2848      2904      2902
 -1      1274    8    0    1
 -2       569       553       704      2487      2905      2906
 -1      1275    8    0    1
 -2       569       704       699      2906      2907      2880
 -1      1276    8    0    1
 -2       676       584       705      2820      2908      2909
 -1      1277    8    0    1
 -2       463       572       706      2497      2910      2911
 -1      1278    8    0    1
 -2       671       463       706      2805      2911      2912
 -1      1279    8    0    1
 -2       572       697       706      2876      2913      2910
 -1      1280    8    0    1
 -2       553       677       704      2823      2914      2905
 -1      1281    8    0    1
 -2       580       681       693      2835      2915      2862
 -1      1282    8    0    1
 -2       680       560       683      2831      2889      2916
 -1      1283    8    0    1
 -2       681       567       689      2834      2855      2917
 -1      1284    8    0    1
 -2       590       574       707      2558      2918      2919
 -1      1285    8    0    1
 -2       574       692       707      2861      2920      2918
 -1      1286    8    0    1
 -2       462       590       691      2560      2921      2858
 -1      1287    8    0    1
 -2       685       578       690      2845      2857      2922
 -1      1288    8    0    1
 -2       670       552       700      2802      2884      2923
 -1      1289    8    0    1
 -2       689       581       708      2854      2924      2925
 -1      1290    8    0    1
 -2       581       691       708      2859      2926      2924
 -1      1291    8    0    1
 -2       545       670       695      2803      2927      2867
 -1      1292    8    0    1
 -2       582       592       709      2571      2928      2929
 -1      1293    8    0    1
 -2       585       582       710      2531      2930      2931
 -1      1294    8    0    1
 -2       582       709       710      2929      2932      2930
 -1      1295    8    0    1
 -2       464       671       711      2806      2933      2934
 -1      1296    8    0    1
 -2       464       711       588      2934      2935      2540
 -1      1297    8    0    1
 -2       568       565       712      2483      2936      2937
 -1      1298    8    0    1
 -2       674       568       712      2816      2937      2938
 -1      1299    8    0    1
 -2       565       699       712      2881      2939      2936
 -1      1300    8    0    1
 -2       584       585       705      2530      2940      2908
 -1      1301    8    0    1
 -2       570       684       700      2843      2941      2885
 -1      1302    8    0    1
 -2       597       598       713      2590      2942      2943
 -1      1303    8    0    1
 -2       598       698       713      2878      2944      2942
 -1      1304    8    0    1
 -2       596       597       713      2587      2943      2945
 -1      1305    8    0    1
 -2       676       705       714      2909      2946      2947
 -1      1306    8    0    1
 -2       645       643       715      2731      2948      2949
 -1      1307    8    0    1
 -2       602       601       716      2603      2950      2951
 -1      1308    8    0    1
 -2       603       602       717      2606      2952      2953
 -1      1309    8    0    1
 -2       602       716       717      2951      2954      2952
 -1      1310    8    0    1
 -2       604       603       718      2609      2955      2956
 -1      1311    8    0    1
 -2       603       717       718      2953      2957      2955
 -1      1312    8    0    1
 -2       605       604       719      2612      2958      2959
 -1      1313    8    0    1
 -2       604       718       719      2956      2960      2958
 -1      1314    8    0    1
 -2       606       605       720      2615      2961      2962
 -1      1315    8    0    1
 -2       605       719       720      2959      2963      2961
 -1      1316    8    0    1
 -2       607       606       721      2618      2964      2965
 -1      1317    8    0    1
 -2       606       720       721      2962      2966      2964
 -1      1318    8    0    1
 -2       608       607       722      2621      2967      2968
 -1      1319    8    0    1
 -2       607       721       722      2965      2969      2967
 -1      1320    8    0    1
 -2       609       608       723      2624      2970      2971
 -1      1321    8    0    1
 -2       608       722       723      2968      2972      2970
 -1      1322    8    0    1
 -2       610       609       724      2627      2973      2974
 -1      1323    8    0    1
 -2       609       723       724      2971      2975      2973
 -1      1324    8    0    1
 -2       611       610       725      2630      2976      2977
 -1      1325    8    0    1
 -2       610       724       725      2974      2978      2976
 -1      1326    8    0    1
 -2       612       611       726      2633      2979      2980
 -1      1327    8    0    1
 -2       611       725       726      2977      2981      2979
 -1      1328    8    0    1
 -2       613       612       727      2636      2982      2983
 -1      1329    8    0    1
 -2       612       726       727      2980      2984      2982
 -1      1330    8    0    1
 -2       614       613       728      2639      2985      2986
 -1      1331    8    0    1
 -2       613       727       728      2983      2987      2985
 -1      1332    8    0    1
 -2       615       614       729      2642      2988      2989
 -1      1333    8    0    1
 -2       614       728       729      2986      2990      2988
 -1      1334    8    0    1
 -2       616       615       730      2645      2991      2992
 -1      1335    8    0    1
 -2       615       729       730      2989      2993      2991
 -1      1336    8    0    1
 -2       617       616       731      2648      2994      2995
 -1      1337    8    0    1
 -2       616       730       731      2992      2996      2994
 -1      1338    8    0    1
 -2       618       617       732      2651      2997      2998
 -1      1339    8    0    1
 -2       617       731       732      2995      2999      2997
 -1      1340    8    0    1
 -2       619       618       733      2654      3000      3001
 -1      1341    8    0    1
 -2       618       732       733      2998      3002      3000
 -1      1342    8    0    1
 -2       620       619       734      2657      3003      3004
 -1      1343    8    0    1
 -2       619       733       734      3001      3005      3003
 -1      1344    8    0    1
 -2       621       620       735      2660      3006      3007
 -1      1345    8    0    1
 -2       620       734       735      3004      3008      3006
 -1      1346    8    0    1
 -2       622       621       736      2663      3009      3010
 -1      1347    8    0    1
 -2       621       735       736      3007      3011      3009
 -1      1348    8    0    1
 -2       623       622       737      2666      3012      3013
 -1      1349    8    0    1
 -2       622       736       737      3010      3014      3012
 -1      1350    8    0    1
 -2       624       623       738      2669      3015      3016
 -1      1351    8    0    1
 -2       623       737       738      3013      3017      3015
 -1      1352    8    0    1
 -2       625       624       739      2672      3018      3019
 -1      1353    8    0    1
 -2       624       738       739      3016      3020      3018
 -1      1354    8    0    1
 -2       626       625       740      2675      3021      3022
 -1      1355    8    0    1
 -2       625       739       740      3019      3023      3021
 -1      1356    8    0    1
 -2       627       626       741      2678      3024      3025
 -1      1357    8    0    1
 -2       626       740       741      3022      3026      3024
 -1      1358    8    0    1
 -2       628       627       742      2681      3027      3028
 -1      1359    8    0    1
 -2       627       741       742      3025      3029      3027
 -1      1360    8    0    1
 -2       629       628       743      2684      3030      3031
 -1      1361    8    0    1
 -2       628       742       743      3028      3032      3030
 -1      1362    8    0    1
 -2       630       629       744      2687      3033      3034
 -1      1363    8    0    1
 -2       629       743       744      3031      3035      3033
 -1      1364    8    0    1
 -2       631       630       745      2690      3036      3037
 -1      1365    8    0    1
 -2       630       744       745      3034      3038      3036
 -1      1366    8    0    1
 -2       632       631       746      2693      3039      3040
 -1      1367    8    0    1
 -2       631       745       746      3037      3041      3039
 -1      1368    8    0    1
 -2       633       632       747      2696      3042      3043
 -1      1369    8    0    1
 -2       632       746       747      3040      3044      3042
 -1      1370    8    0    1
 -2       634       633       748      2699      3045      3046
 -1      1371    8    0    1
 -2       633       747       748      3043      3047      3045
 -1      1372    8    0    1
 -2       635       634       749      2702      3048      3049
 -1      1373    8    0    1
 -2       634       748       749      3046      3050      3048
 -1      1374    8    0    1
 -2       636       635       750      2705      3051      3052
 -1      1375    8    0    1
 -2       635       749       750      3049      3053      3051
 -1      1376    8    0    1
 -2       637       636       751      2708      3054      3055
 -1      1377    8    0    1
 -2       636       750       751      3052      3056      3054
 -1      1378    8    0    1
 -2       638       637       752      2711      3057      3058
 -1      1379    8    0    1
 -2       637       751       752      3055      3059      3057
 -1      1380    8    0    1
 -2       639       638       753      2714      3060      3061
 -1      1381    8    0    1
 -2       638       752       753      3058      3062      3060
 -1      1382    8    0    1
 -2       640       639       754      2717      3063      3064
 -1      1383    8    0    1
 -2       639       753       754      3061      3065      3063
 -1      1384    8    0    1
 -2       641       640       755      2720      3066      3067
 -1      1385    8    0    1
 -2       640       754       755      3064      3068      3066
 -1      1386    8    0    1
 -2       642       641       756      2723      3069      3070
 -1      1387    8    0    1
 -2       641       755       756      3067      3071      3069
 -1      1388    8    0    1
 -2       678       679       757      2830      3072      3073
 -1      1389    8    0    1
 -2       701       685       758      2890      3074      3075
 -1      1390    8    0    1
 -2       669       701       758      2895      3075      3076
 -1      1391    8    0    1
 -2       685       690       758      2922      3077      3074
 -1      1392    8    0    1
 -2       647       648       759      2738      3078      3079
 -1      1393    8    0    1
 -2       650       651       760      2747      3080      3081
 -1      1394    8    0    1
 -2       651       652       761      2750      3082      3083
 -1      1395    8    0    1
 -2       651       761       760      3083      3084      3080
 -1      1396    8    0    1
 -2       652       653       762      2753      3085      3086
 -1      1397    8    0    1
 -2       652       762       761      3086      3087      3082
 -1      1398    8    0    1
 -2       653       654       763      2756      3088      3089
 -1      1399    8    0    1
 -2       653       763       762      3089      3090      3085
 -1      1400    8    0    1
 -2       654       655       764      2759      3091      3092
 -1      1401    8    0    1
 -2       654       764       763      3092      3093      3088
 -1      1402    8    0    1
 -2       655       656       765      2762      3094      3095
 -1      1403    8    0    1
 -2       655       765       764      3095      3096      3091
 -1      1404    8    0    1
 -2       656       657       766      2765      3097      3098
 -1      1405    8    0    1
 -2       656       766       765      3098      3099      3094
 -1      1406    8    0    1
 -2       657       658       767      2768      3100      3101
 -1      1407    8    0    1
 -2       657       767       766      3101      3102      3097
 -1      1408    8    0    1
 -2       658       659       768      2771      3103      3104
 -1      1409    8    0    1
 -2       658       768       767      3104      3105      3100
 -1      1410    8    0    1
 -2       659       660       769      2774      3106      3107
 -1      1411    8    0    1
 -2       659       769       768      3107      3108      3103
 -1      1412    8    0    1
 -2       660       661       770      2777      3109      3110
 -1      1413    8    0    1
 -2       660       770       769      3110      3111      3106
 -1      1414    8    0    1
 -2       661       662       771      2780      3112      3113
 -1      1415    8    0    1
 -2       661       771       770      3113      3114      3109
 -1      1416    8    0    1
 -2       662       663       772      2783      3115      3116
 -1      1417    8    0    1
 -2       662       772       771      3116      3117      3112
 -1      1418    8    0    1
 -2       663       664       773      2786      3118      3119
 -1      1419    8    0    1
 -2       663       773       772      3119      3120      3115
 -1      1420    8    0    1
 -2       664       665       774      2789      3121      3122
 -1      1421    8    0    1
 -2       664       774       773      3122      3123      3118
 -1      1422    8    0    1
 -2       665       666       775      2792      3124      3125
 -1      1423    8    0    1
 -2       665       775       774      3125      3126      3121
 -1      1424    8    0    1
 -2       666       667       776      2795      3127      3128
 -1      1425    8    0    1
 -2       666       776       775      3128      3129      3124
 -1      1426    8    0    1
 -2       667       668       777      2798      3130      3131
 -1      1427    8    0    1
 -2       667       777       776      3131      3132      3127
 -1      1428    8    0    1
 -2       668       669       778      2801      3133      3134
 -1      1429    8    0    1
 -2       668       778       777      3134      3135      3130
 -1      1430    8    0    1
 -2       682       645       779      2838      3136      3137
 -1      1431    8    0    1
 -2       645       715       779      2949      3138      3136
 -1      1432    8    0    1
 -2       686       694       780      2896      3139      3140
 -1      1433    8    0    1
 -2       675       644       781      2819      3141      3142
 -1      1434    8    0    1
 -2       646       672       782      2809      3143      3144
 -1      1435    8    0    1
 -2       673       646       783      2812      3145      3146
 -1      1436    8    0    1
 -2       646       782       783      3144      3147      3145
 -1      1437    8    0    1
 -2       693       681       784      2915      3148      3149
 -1      1438    8    0    1
 -2       677       675       785      2824      3150      3151
 -1      1439    8    0    1
 -2       675       781       785      3142      3152      3150
 -1      1440    8    0    1
 -2       700       684       670      2941      3153      2923
 -1      1441    8    0    1
 -2       601       599       786      2600      3154      3155
 -1      1442    8    0    1
 -2       601       786       716      3155      3156      2950
 -1      1443    8    0    1
 -2       679       680       787      2833      3157      3158
 -1      1444    8    0    1
 -2       679       787       757      3158      3159      3072
 -1      1445    8    0    1
 -2       643       687       788      2887      3160      3161
 -1      1446    8    0    1
 -2       643       788       715      3161      3162      2948
 -1      1447    8    0    1
 -2       684       673       789      2844      3163      3164
 -1      1448    8    0    1
 -2       673       783       789      3146      3165      3163
 -1      1449    8    0    1
 -2       591       588       790      2564      3166      3167
 -1      1450    8    0    1
 -2       696       591       790      2873      3167      3168
 -1      1451    8    0    1
 -2       588       711       790      2935      3169      3166
 -1      1452    8    0    1
 -2       704       677       791      2914      3170      3171
 -1      1453    8    0    1
 -2       677       785       791      3151      3172      3170
 -1      1454    8    0    1
 -2       644       678       792      2827      3173      3174
 -1      1455    8    0    1
 -2       781       644       792      3141      3174      3175
 -1      1456    8    0    1
 -2       678       757       792      3073      3176      3173
 -1      1457    8    0    1
 -2       699       704       793      2907      3177      3178
 -1      1458    8    0    1
 -2       704       791       793      3171      3179      3177
 -1      1459    8    0    1
 -2       687       647       794      2851      3180      3181
 -1      1460    8    0    1
 -2       687       794       788      3181      3182      3160
 -1      1461    8    0    1
 -2       688       676       795      2888      3183      3184
 -1      1462    8    0    1
 -2       676       714       795      2947      3185      3183
 -1      1463    8    0    1
 -2       709       592       796      2928      3186      3187
 -1      1464    8    0    1
 -2       681       689       797      2917      3188      3189
 -1      1465    8    0    1
 -2       681       797       784      3189      3190      3148
 -1      1466    8    0    1
 -2       648       649       798      2741      3191      3192
 -1      1467    8    0    1
 -2       648       798       759      3192      3193      3078
 -1      1468    8    0    1
 -2       692       688       799      2893      3194      3195
 -1      1469    8    0    1
 -2       705       585       710      2940      2931      3196
 -1      1470    8    0    1
 -2       649       650       800      2744      3197      3198
 -1      1471    8    0    1
 -2       650       760       800      3081      3199      3197
 -1      1472    8    0    1
 -2       695       670       801      2927      3200      3201
 -1      1473    8    0    1
 -2       691       590       802      2921      3202      3203
 -1      1474    8    0    1
 -2       590       707       802      2919      3204      3202
 -1      1475    8    0    1
 -2       595       594       803      2582      3205      3206
 -1      1476    8    0    1
 -2       690       693       804      2864      3207      3208
 -1      1477    8    0    1
 -2       694       695       805      2869      3209      3210
 -1      1478    8    0    1
 -2       695       801       805      3201      3211      3209
 -1      1479    8    0    1
 -2       670       684       801      3153      3212      3200
 -1      1480    8    0    1
 -2       703       686       806      2904      3213      3214
 -1      1481    8    0    1
 -2       686       780       806      3140      3215      3213
 -1      1482    8    0    1
 -2       684       789       801      3164      3216      3212
 -1      1483    8    0    1
 -2       714       705       807      2946      3217      3218
 -1      1484    8    0    1
 -2       600       596       808      2597      3219      3220
 -1      1485    8    0    1
 -2       689       708       809      2925      3221      3222
 -1      1486    8    0    1
 -2       689       809       797      3222      3223      3188
 -1      1487    8    0    1
 -2       594       600       810      2596      3224      3225
 -1      1488    8    0    1
 -2       600       808       810      3220      3226      3224
 -1      1489    8    0    1
 -2       699       793       782      3178      3227      3228
 -1      1490    8    0    1
 -2       669       758       778      3076      3229      3133
 -1      1491    8    0    1
 -2       682       779       811      3137      3230      3231
 -1      1492    8    0    1
 -2       682       811       702      3231      3232      2901
 -1      1493    8    0    1
 -2       780       694       805      3139      3210      3233
 -1      1494    8    0    1
 -2       693       784       804      3149      3234      3207
 -1      1495    8    0    1
 -2       544       593       701      2804      2892      2897
 -1      1496    8    0    1
 -2       596       713       808      2945      3235      3219
 -1      1497    8    0    1
 -2       672       674       712      2815      2938      3236
 -1      1498    8    0    1
 -2       671       706       812      2912      3237      3238
 -1      1499    8    0    1
 -2       787       680       756      3157      3239      3240
 -1      1500    8    0    1
 -2       688       795       799      3184      3241      3194
 -1      1501    8    0    1
 -2       707       692       813      2920      3242      3243
 -1      1502    8    0    1
 -2       692       799       813      3195      3244      3242
 -1      1503    8    0    1
 -2       592       703       796      2903      3245      3186
 -1      1504    8    0    1
 -2       708       691       814      2926      3246      3247
 -1      1505    8    0    1
 -2       691       802       814      3203      3248      3246
 -1      1506    8    0    1
 -2       680       683       756      2916      3249      3239
 -1      1507    8    0    1
 -2       647       759       794      3079      3250      3180
 -1      1508    8    0    1
 -2       594       810       803      3225      3251      3205
 -1      1509    8    0    1
 -2       710       709       815      2932      3252      3253
 -1      1510    8    0    1
 -2       649       800       798      3198      3254      3191
 -1      1511    8    0    1
 -2       711       671       816      2933      3255      3256
 -1      1512    8    0    1
 -2       671       812       816      3238      3257      3255
 -1      1513    8    0    1
 -2       705       710       807      3196      3258      3217
 -1      1514    8    0    1
 -2       595       803       817      3206      3259      3260
 -1      1515    8    0    1
 -2       595       817       697      3260      3261      2874
 -1      1516    8    0    1
 -2       690       804       758      3208      3262      3077
 -1      1517    8    0    1
 -2       712       699       782      2939      3228      3263
 -1      1518    8    0    1
 -2       599       696       790      2872      3168      3264
 -1      1519    8    0    1
 -2       709       796       815      3187      3265      3252
 -1      1520    8    0    1
 -2       672       712       782      3236      3263      3143
 -1      1521    8    0    1
 -2       599       790       786      3264      3266      3154
 -1      1522    8    0    1
 -2       801       789       818      3216      3267      3268
 -1      1523    8    0    1
 -2       801       818       805      3268      3269      3211
 -1      1524    8    0    1
 -2       810       808       819      3226      3270      3271
 -1      1525    8    0    1
 -2       782       793       820      3227      3272      3273
 -1      1526    8    0    1
 -2       782       820       783      3273      3274      3147
 -1      1527    8    0    1
 -2       778       758       821      3229      3275      3276
 -1      1528    8    0    1
 -2       758       804       821      3262      3277      3275
 -1      1529    8    0    1
 -2       718       717       822      2957      3278      3279
 -1      1530    8    0    1
 -2       719       718       823      2960      3280      3281
 -1      1531    8    0    1
 -2       718       822       823      3279      3282      3280
 -1      1532    8    0    1
 -2       720       719       824      2963      3283      3284
 -1      1533    8    0    1
 -2       719       823       824      3281      3285      3283
 -1      1534    8    0    1
 -2       721       720       825      2966      3286      3287
 -1      1535    8    0    1
 -2       720       824       825      3284      3288      3286
 -1      1536    8    0    1
 -2       722       721       826      2969      3289      3290
 -1      1537    8    0    1
 -2       721       825       826      3287      3291      3289
 -1      1538    8    0    1
 -2       723       722       827      2972      3292      3293
 -1      1539    8    0    1
 -2       722       826       827      3290      3294      3292
 -1      1540    8    0    1
 -2       724       723       828      2975      3295      3296
 -1      1541    8    0    1
 -2       723       827       828      3293      3297      3295
 -1      1542    8    0    1
 -2       725       724       829      2978      3298      3299
 -1      1543    8    0    1
 -2       724       828       829      3296      3300      3298
 -1      1544    8    0    1
 -2       726       725       830      2981      3301      3302
 -1      1545    8    0    1
 -2       725       829       830      3299      3303      3301
 -1      1546    8    0    1
 -2       727       726       831      2984      3304      3305
 -1      1547    8    0    1
 -2       726       830       831      3302      3306      3304
 -1      1548    8    0    1
 -2       728       727       832      2987      3307      3308
 -1      1549    8    0    1
 -2       727       831       832      3305      3309      3307
 -1      1550    8    0    1
 -2       729       728       833      2990      3310      3311
 -1      1551    8    0    1
 -2       728       832       833      3308      3312      3310
 -1      1552    8    0    1
 -2       730       729       834      2993      3313      3314
 -1      1553    8    0    1
 -2       729       833       834      3311      3315      3313
 -1      1554    8    0    1
 -2       731       730       835      2996      3316      3317
 -1      1555    8    0    1
 -2       730       834       835      3314      3318      3316
 -1      1556    8    0    1
 -2       732       731       836      2999      3319      3320
 -1      1557    8    0    1
 -2       731       835       836      3317      3321      3319
 -1      1558    8    0    1
 -2       733       732       837      3002      3322      3323
 -1      1559    8    0    1
 -2       732       836       837      3320      3324      3322
 -1      1560    8    0    1
 -2       734       733       838      3005      3325      3326
 -1      1561    8    0    1
 -2       733       837       838      3323      3327      3325
 -1      1562    8    0    1
 -2       735       734       839      3008      3328      3329
 -1      1563    8    0    1
 -2       734       838       839      3326      3330      3328
 -1      1564    8    0    1
 -2       736       735       840      3011      3331      3332
 -1      1565    8    0    1
 -2       735       839       840      3329      3333      3331
 -1      1566    8    0    1
 -2       737       736       841      3014      3334      3335
 -1      1567    8    0    1
 -2       736       840       841      3332      3336      3334
 -1      1568    8    0    1
 -2       738       737       842      3017      3337      3338
 -1      1569    8    0    1
 -2       737       841       842      3335      3339      3337
 -1      1570    8    0    1
 -2       739       738       843      3020      3340      3341
 -1      1571    8    0    1
 -2       738       842       843      3338      3342      3340
 -1      1572    8    0    1
 -2       740       739       844      3023      3343      3344
 -1      1573    8    0    1
 -2       739       843       844      3341      3345      3343
 -1      1574    8    0    1
 -2       741       740       845      3026      3346      3347
 -1      1575    8    0    1
 -2       740       844       845      3344      3348      3346
 -1      1576    8    0    1
 -2       742       741       846      3029      3349      3350
 -1      1577    8    0    1
 -2       741       845       846      3347      3351      3349
 -1      1578    8    0    1
 -2       743       742       847      3032      3352      3353
 -1      1579    8    0    1
 -2       742       846       847      3350      3354      3352
 -1      1580    8    0    1
 -2       744       743       848      3035      3355      3356
 -1      1581    8    0    1
 -2       743       847       848      3353      3357      3355
 -1      1582    8    0    1
 -2       745       744       849      3038      3358      3359
 -1      1583    8    0    1
 -2       744       848       849      3356      3360      3358
 -1      1584    8    0    1
 -2       746       745       850      3041      3361      3362
 -1      1585    8    0    1
 -2       745       849       850      3359      3363      3361
 -1      1586    8    0    1
 -2       747       746       851      3044      3364      3365
 -1      1587    8    0    1
 -2       746       850       851      3362      3366      3364
 -1      1588    8    0    1
 -2       748       747       852      3047      3367      3368
 -1      1589    8    0    1
 -2       747       851       852      3365      3369      3367
 -1      1590    8    0    1
 -2       749       748       853      3050      3370      3371
 -1      1591    8    0    1
 -2       748       852       853      3368      3372      3370
 -1      1592    8    0    1
 -2       750       749       854      3053      3373      3374
 -1      1593    8    0    1
 -2       749       853       854      3371      3375      3373
 -1      1594    8    0    1
 -2       751       750       855      3056      3376      3377
 -1      1595    8    0    1
 -2       750       854       855      3374      3378      3376
 -1      1596    8    0    1
 -2       752       751       856      3059      3379      3380
 -1      1597    8    0    1
 -2       751       855       856      3377      3381      3379
 -1      1598    8    0    1
 -2       753       752       857      3062      3382      3383
 -1      1599    8    0    1
 -2       752       856       857      3380      3384      3382
 -1      1600    8    0    1
 -2       754       753       858      3065      3385      3386
 -1      1601    8    0    1
 -2       753       857       858      3383      3387      3385
 -1      1602    8    0    1
 -2       755       754       859      3068      3388      3389
 -1      1603    8    0    1
 -2       754       858       859      3386      3390      3388
 -1      1604    8    0    1
 -2       756       755       860      3071      3391      3392
 -1      1605    8    0    1
 -2       787       756       860      3240      3392      3393
 -1      1606    8    0    1
 -2       755       859       860      3389      3394      3391
 -1      1607    8    0    1
 -2       715       788       861      3162      3395      3396
 -1      1608    8    0    1
 -2       811       779       862      3230      3397      3398
 -1      1609    8    0    1
 -2       761       762       863      3087      3399      3400
 -1      1610    8    0    1
 -2       698       702       713      2900      3401      2944
 -1      1611    8    0    1
 -2       714       807       864      3218      3402      3403
 -1      1612    8    0    1
 -2       760       761       865      3084      3404      3405
 -1      1613    8    0    1
 -2       761       863       865      3400      3406      3404
 -1      1614    8    0    1
 -2       763       764       866      3093      3407      3408
 -1      1615    8    0    1
 -2       764       765       867      3096      3409      3410
 -1      1616    8    0    1
 -2       764       867       866      3410      3411      3407
 -1      1617    8    0    1
 -2       765       766       868      3099      3412      3413
 -1      1618    8    0    1
 -2       765       868       867      3413      3414      3409
 -1      1619    8    0    1
 -2       766       767       869      3102      3415      3416
 -1      1620    8    0    1
 -2       766       869       868      3416      3417      3412
 -1      1621    8    0    1
 -2       767       768       870      3105      3418      3419
 -1      1622    8    0    1
 -2       767       870       869      3419      3420      3415
 -1      1623    8    0    1
 -2       768       769       871      3108      3421      3422
 -1      1624    8    0    1
 -2       768       871       870      3422      3423      3418
 -1      1625    8    0    1
 -2       769       770       872      3111      3424      3425
 -1      1626    8    0    1
 -2       769       872       871      3425      3426      3421
 -1      1627    8    0    1
 -2       770       771       873      3114      3427      3428
 -1      1628    8    0    1
 -2       770       873       872      3428      3429      3424
 -1      1629    8    0    1
 -2       771       772       874      3117      3430      3431
 -1      1630    8    0    1
 -2       771       874       873      3431      3432      3427
 -1      1631    8    0    1
 -2       772       773       875      3120      3433      3434
 -1      1632    8    0    1
 -2       772       875       874      3434      3435      3430
 -1      1633    8    0    1
 -2       773       774       876      3123      3436      3437
 -1      1634    8    0    1
 -2       773       876       875      3437      3438      3433
 -1      1635    8    0    1
 -2       774       775       877      3126      3439      3440
 -1      1636    8    0    1
 -2       774       877       876      3440      3441      3436
 -1      1637    8    0    1
 -2       775       776       878      3129      3442      3443
 -1      1638    8    0    1
 -2       775       878       877      3443      3444      3439
 -1      1639    8    0    1
 -2       776       777       879      3132      3445      3446
 -1      1640    8    0    1
 -2       776       879       878      3446      3447      3442
 -1      1641    8    0    1
 -2       777       778       880      3135      3448      3449
 -1      1642    8    0    1
 -2       879       777       880      3445      3449      3450
 -1      1643    8    0    1
 -2       778       821       880      3276      3451      3448
 -1      1644    8    0    1
 -2       702       811       713      3232      3452      3401
 -1      1645    8    0    1
 -2       779       715       881      3138      3453      3454
 -1      1646    8    0    1
 -2       862       779       881      3397      3454      3455
 -1      1647    8    0    1
 -2       715       861       881      3396      3456      3453
 -1      1648    8    0    1
 -2       780       805       882      3233      3457      3458
 -1      1649    8    0    1
 -2       805       818       882      3269      3459      3457
 -1      1650    8    0    1
 -2       815       796       883      3265      3460      3461
 -1      1651    8    0    1
 -2       706       697       884      2913      3462      3463
 -1      1652    8    0    1
 -2       706       884       812      3463      3464      3237
 -1      1653    8    0    1
 -2       759       798       885      3193      3465      3466
 -1      1654    8    0    1
 -2       794       759       886      3250      3467      3468
 -1      1655    8    0    1
 -2       759       885       886      3466      3469      3467
 -1      1656    8    0    1
 -2       717       716       887      2954      3470      3471
 -1      1657    8    0    1
 -2       717       887       822      3471      3472      3278
 -1      1658    8    0    1
 -2       799       795       888      3241      3473      3474
 -1      1659    8    0    1
 -2       785       781       889      3152      3475      3476
 -1      1660    8    0    1
 -2       713       811       808      3452      3477      3235
 -1      1661    8    0    1
 -2       786       790       711      3266      3169      3478
 -1      1662    8    0    1
 -2       789       783       820      3165      3274      3479
 -1      1663    8    0    1
 -2       793       791       820      3179      3480      3272
 -1      1664    8    0    1
 -2       802       707       890      3204      3481      3482
 -1      1665    8    0    1
 -2       707       813       890      3243      3483      3481
 -1      1666    8    0    1
 -2       762       763       891      3090      3484      3485
 -1      1667    8    0    1
 -2       863       762       891      3399      3485      3486
 -1      1668    8    0    1
 -2       763       866       891      3408      3487      3484
 -1      1669    8    0    1
 -2       786       711       816      3478      3256      3488
 -1      1670    8    0    1
 -2       798       800       892      3254      3489      3490
 -1      1671    8    0    1
 -2       798       892       885      3490      3491      3465
 -1      1672    8    0    1
 -2       803       810       893      3251      3492      3493
 -1      1673    8    0    1
 -2       810       819       893      3271      3494      3492
 -1      1674    8    0    1
 -2       795       714       894      3185      3495      3496
 -1      1675    8    0    1
 -2       714       864       894      3403      3497      3495
 -1      1676    8    0    1
 -2       796       703       895      3245      3498      3499
 -1      1677    8    0    1
 -2       784       797       896      3190      3500      3501
 -1      1678    8    0    1
 -2       788       794       897      3182      3502      3503
 -1      1679    8    0    1
 -2       861       788       897      3395      3503      3504
 -1      1680    8    0    1
 -2       794       886       897      3468      3505      3502
 -1      1681    8    0    1
 -2       800       760       898      3199      3506      3507
 -1      1682    8    0    1
 -2       892       800       898      3489      3507      3508
 -1      1683    8    0    1
 -2       760       865       898      3405      3509      3506
 -1      1684    8    0    1
 -2       716       786       899      3156      3510      3511
 -1      1685    8    0    1
 -2       887       716       899      3470      3511      3512
 -1      1686    8    0    1
 -2       786       816       899      3488      3513      3510
 -1      1687    8    0    1
 -2       710       815       807      3253      3514      3258
 -1      1688    8    0    1
 -2       804       784       900      3234      3515      3516
 -1      1689    8    0    1
 -2       821       804       900      3277      3516      3517
 -1      1690    8    0    1
 -2       784       896       900      3501      3518      3515
 -1      1691    8    0    1
 -2       757       787       901      3159      3519      3520
 -1      1692    8    0    1
 -2       787       860       901      3393      3521      3519
 -1      1693    8    0    1
 -2       791       785       902      3172      3522      3523
 -1      1694    8    0    1
 -2       785       889       902      3476      3524      3522
 -1      1695    8    0    1
 -2       807       815       903      3514      3525      3526
 -1      1696    8    0    1
 -2       808       811       819      3477      3527      3270
 -1      1697    8    0    1
 -2       697       817       884      3261      3528      3462
 -1      1698    8    0    1
 -2       797       809       904      3223      3529      3530
 -1      1699    8    0    1
 -2       797       904       896      3530      3531      3500
 -1      1700    8    0    1
 -2       820       791       902      3480      3523      3532
 -1      1701    8    0    1
 -2       780       882       905      3458      3533      3534
 -1      1702    8    0    1
 -2       780       905       806      3534      3535      3215
 -1      1703    8    0    1
 -2       811       862       819      3398      3536      3527
 -1      1704    8    0    1
 -2       864       807       903      3402      3526      3537
 -1      1705    8    0    1
 -2       889       781       906      3475      3538      3539
 -1      1706    8    0    1
 -2       781       792       906      3175      3540      3538
 -1      1707    8    0    1
 -2       883       796       907      3460      3541      3542
 -1      1708    8    0    1
 -2       796       895       907      3499      3543      3541
 -1      1709    8    0    1
 -2       812       884       908      3464      3544      3545
 -1      1710    8    0    1
 -2       803       893       909      3493      3546      3547
 -1      1711    8    0    1
 -2       803       909       817      3547      3548      3259
 -1      1712    8    0    1
 -2       888       795       894      3473      3496      3549
 -1      1713    8    0    1
 -2       815       883       903      3461      3550      3525
 -1      1714    8    0    1
 -2       814       802       910      3248      3551      3552
 -1      1715    8    0    1
 -2       802       890       910      3482      3553      3551
 -1      1716    8    0    1
 -2       792       757       911      3176      3554      3555
 -1      1717    8    0    1
 -2       906       792       911      3540      3555      3556
 -1      1718    8    0    1
 -2       757       901       911      3520      3557      3554
 -1      1719    8    0    1
 -2       683       642       756      2886      3070      3249
 -1      1720    8    0    1
 -2       895       703       806      3498      3214      3558
 -1      1721    8    0    1
 -2       708       814       912      3247      3559      3560
 -1      1722    8    0    1
 -2       708       912       809      3560      3561      3221
 -1      1723    8    0    1
 -2       816       812       913      3257      3562      3563
 -1      1724    8    0    1
 -2       899       816       913      3513      3563      3564
 -1      1725    8    0    1
 -2       812       908       913      3545      3565      3562
 -1      1726    8    0    1
 -2       823       822       914      3282      3566      3567
 -1      1727    8    0    1
 -2       884       817       915      3528      3568      3569
 -1      1728    8    0    1
 -2       908       884       915      3544      3569      3570
 -1      1729    8    0    1
 -2       817       909       915      3548      3571      3568
 -1      1730    8    0    1
 -2       901       860       916      3521      3572      3573
 -1      1731    8    0    1
 -2       860       859       916      3394      3574      3572
 -1      1732    8    0    1
 -2       799       888       917      3474      3575      3576
 -1      1733    8    0    1
 -2       824       823       918      3285      3577      3578
 -1      1734    8    0    1
 -2       823       914       918      3567      3579      3577
 -1      1735    8    0    1
 -2       825       824       919      3288      3580      3581
 -1      1736    8    0    1
 -2       824       918       919      3578      3582      3580
 -1      1737    8    0    1
 -2       826       825       920      3291      3583      3584
 -1      1738    8    0    1
 -2       825       919       920      3581      3585      3583
 -1      1739    8    0    1
 -2       827       826       921      3294      3586      3587
 -1      1740    8    0    1
 -2       826       920       921      3584      3588      3586
 -1      1741    8    0    1
 -2       828       827       922      3297      3589      3590
 -1      1742    8    0    1
 -2       827       921       922      3587      3591      3589
 -1      1743    8    0    1
 -2       829       828       923      3300      3592      3593
 -1      1744    8    0    1
 -2       828       922       923      3590      3594      3592
 -1      1745    8    0    1
 -2       830       829       924      3303      3595      3596
 -1      1746    8    0    1
 -2       829       923       924      3593      3597      3595
 -1      1747    8    0    1
 -2       831       830       925      3306      3598      3599
 -1      1748    8    0    1
 -2       830       924       925      3596      3600      3598
 -1      1749    8    0    1
 -2       832       831       926      3309      3601      3602
 -1      1750    8    0    1
 -2       831       925       926      3599      3603      3601
 -1      1751    8    0    1
 -2       833       832       927      3312      3604      3605
 -1      1752    8    0    1
 -2       832       926       927      3602      3606      3604
 -1      1753    8    0    1
 -2       834       833       928      3315      3607      3608
 -1      1754    8    0    1
 -2       833       927       928      3605      3609      3607
 -1      1755    8    0    1
 -2       835       834       929      3318      3610      3611
 -1      1756    8    0    1
 -2       834       928       929      3608      3612      3610
 -1      1757    8    0    1
 -2       836       835       930      3321      3613      3614
 -1      1758    8    0    1
 -2       835       929       930      3611      3615      3613
 -1      1759    8    0    1
 -2       837       836       931      3324      3616      3617
 -1      1760    8    0    1
 -2       836       930       931      3614      3618      3616
 -1      1761    8    0    1
 -2       838       837       932      3327      3619      3620
 -1      1762    8    0    1
 -2       837       931       932      3617      3621      3619
 -1      1763    8    0    1
 -2       839       838       933      3330      3622      3623
 -1      1764    8    0    1
 -2       838       932       933      3620      3624      3622
 -1      1765    8    0    1
 -2       840       839       934      3333      3625      3626
 -1      1766    8    0    1
 -2       839       933       934      3623      3627      3625
 -1      1767    8    0    1
 -2       841       840       935      3336      3628      3629
 -1      1768    8    0    1
 -2       840       934       935      3626      3630      3628
 -1      1769    8    0    1
 -2       842       841       936      3339      3631      3632
 -1      1770    8    0    1
 -2       841       935       936      3629      3633      3631
 -1      1771    8    0    1
 -2       843       842       937      3342      3634      3635
 -1      1772    8    0    1
 -2       842       936       937      3632      3636      3634
 -1      1773    8    0    1
 -2       844       843       938      3345      3637      3638
 -1      1774    8    0    1
 -2       843       937       938      3635      3639      3637
 -1      1775    8    0    1
 -2       845       844       939      3348      3640      3641
 -1      1776    8    0    1
 -2       844       938       939      3638      3642      3640
 -1      1777    8    0    1
 -2       846       845       940      3351      3643      3644
 -1      1778    8    0    1
 -2       845       939       940      3641      3645      3643
 -1      1779    8    0    1
 -2       847       846       941      3354      3646      3647
 -1      1780    8    0    1
 -2       846       940       941      3644      3648      3646
 -1      1781    8    0    1
 -2       848       847       942      3357      3649      3650
 -1      1782    8    0    1
 -2       847       941       942      3647      3651      3649
 -1      1783    8    0    1
 -2       849       848       943      3360      3652      3653
 -1      1784    8    0    1
 -2       848       942       943      3650      3654      3652
 -1      1785    8    0    1
 -2       850       849       944      3363      3655      3656
 -1      1786    8    0    1
 -2       849       943       944      3653      3657      3655
 -1      1787    8    0    1
 -2       851       850       945      3366      3658      3659
 -1      1788    8    0    1
 -2       850       944       945      3656      3660      3658
 -1      1789    8    0    1
 -2       852       851       917      3369      3661      3662
 -1      1790    8    0    1
 -2       853       852       888      3372      3663      3664
 -1      1791    8    0    1
 -2       854       853       894      3375      3665      3666
 -1      1792    8    0    1
 -2       855       854       864      3378      3667      3668
 -1      1793    8    0    1
 -2       857       856       946      3384      3669      3670
 -1      1794    8    0    1
 -2       858       857       947      3387      3671      3672
 -1      1795    8    0    1
 -2       857       946       947      3670      3673      3671
 -1      1796    8    0    1
 -2       859       858       948      3390      3674      3675
 -1      1797    8    0    1
 -2       916       859       948      3574      3675      3676
 -1      1798    8    0    1
 -2       858       947       948      3672      3677      3674
 -1      1799    8    0    1
 -2       917       888       852      3575      3663      3662
 -1      1800    8    0    1
 -2       917       851       945      3661      3659      3678
 -1      1801    8    0    1
 -2       853       888       894      3664      3549      3665
 -1      1802    8    0    1
 -2       854       894       864      3666      3497      3667
 -1      1803    8    0    1
 -2       799       917       813      3576      3679      3244
 -1      1804    8    0    1
 -2       867       868       949      3414      3680      3681
 -1      1805    8    0    1
 -2       866       867       950      3411      3682      3683
 -1      1806    8    0    1
 -2       867       949       950      3681      3684      3682
 -1      1807    8    0    1
 -2       869       870       951      3420      3685      3686
 -1      1808    8    0    1
 -2       870       871       952      3423      3687      3688
 -1      1809    8    0    1
 -2       870       952       951      3688      3689      3685
 -1      1810    8    0    1
 -2       871       872       953      3426      3690      3691
 -1      1811    8    0    1
 -2       871       953       952      3691      3692      3687
 -1      1812    8    0    1
 -2       872       873       954      3429      3693      3694
 -1      1813    8    0    1
 -2       872       954       953      3694      3695      3690
 -1      1814    8    0    1
 -2       873       874       955      3432      3696      3697
 -1      1815    8    0    1
 -2       873       955       954      3697      3698      3693
 -1      1816    8    0    1
 -2       874       875       956      3435      3699      3700
 -1      1817    8    0    1
 -2       874       956       955      3700      3701      3696
 -1      1818    8    0    1
 -2       875       876       957      3438      3702      3703
 -1      1819    8    0    1
 -2       875       957       956      3703      3704      3699
 -1      1820    8    0    1
 -2       876       877       958      3441      3705      3706
 -1      1821    8    0    1
 -2       876       958       957      3706      3707      3702
 -1      1822    8    0    1
 -2       877       878       959      3444      3708      3709
 -1      1823    8    0    1
 -2       877       959       958      3709      3710      3705
 -1      1824    8    0    1
 -2       878       879       960      3447      3711      3712
 -1      1825    8    0    1
 -2       878       960       959      3712      3713      3708
 -1      1826    8    0    1
 -2       886       885       961      3469      3714      3715
 -1      1827    8    0    1
 -2       819       862       962      3536      3716      3717
 -1      1828    8    0    1
 -2       822       887       963      3472      3718      3719
 -1      1829    8    0    1
 -2       822       963       914      3719      3720      3566
 -1      1830    8    0    1
 -2       903       883       964      3550      3721      3722
 -1      1831    8    0    1
 -2       890       813       945      3483      3723      3724
 -1      1832    8    0    1
 -2       820       902       905      3532      3725      3726
 -1      1833    8    0    1
 -2       893       819       962      3494      3717      3727
 -1      1834    8    0    1
 -2       885       892       965      3491      3728      3729
 -1      1835    8    0    1
 -2       885       965       961      3729      3730      3714
 -1      1836    8    0    1
 -2       895       806       966      3558      3731      3732
 -1      1837    8    0    1
 -2       806       905       966      3535      3733      3731
 -1      1838    8    0    1
 -2       868       869       967      3417      3734      3735
 -1      1839    8    0    1
 -2       869       951       967      3686      3736      3734
 -1      1840    8    0    1
 -2       902       889       966      3524      3737      3738
 -1      1841    8    0    1
 -2       865       863       968      3406      3739      3740
 -1      1842    8    0    1
 -2       908       915       969      3570      3741      3742
 -1      1843    8    0    1
 -2       904       809       970      3529      3743      3744
 -1      1844    8    0    1
 -2       809       912       970      3561      3745      3743
 -1      1845    8    0    1
 -2       818       789       820      3267      3479      3746
 -1      1846    8    0    1
 -2       968       863       971      3739      3747      3748
 -1      1847    8    0    1
 -2       863       891       971      3486      3749      3747
 -1      1848    8    0    1
 -2       855       864       972      3668      3750      3751
 -1      1849    8    0    1
 -2       856       855       972      3381      3751      3752
 -1      1850    8    0    1
 -2       949       868       967      3680      3735      3753
 -1      1851    8    0    1
 -2       882       818       820      3459      3746      3754
 -1      1852    8    0    1
 -2       909       893       973      3546      3755      3756
 -1      1853    8    0    1
 -2       893       962       973      3727      3757      3755
 -1      1854    8    0    1
 -2       864       903       972      3537      3758      3750
 -1      1855    8    0    1
 -2       862       881       962      3455      3759      3716
 -1      1856    8    0    1
 -2       946       856       972      3669      3752      3760
 -1      1857    8    0    1
 -2       887       899       974      3512      3761      3762
 -1      1858    8    0    1
 -2       963       887       974      3718      3762      3763
 -1      1859    8    0    1
 -2       899       913       974      3564      3764      3761
 -1      1860    8    0    1
 -2       866       950       975      3683      3765      3766
 -1      1861    8    0    1
 -2       866       975       891      3766      3767      3487
 -1      1862    8    0    1
 -2       886       961       976      3715      3768      3769
 -1      1863    8    0    1
 -2       886       976       897      3769      3770      3505
 -1      1864    8    0    1
 -2       960       879       977      3711      3771      3772
 -1      1865    8    0    1
 -2       879       880       977      3450      3773      3771
 -1      1866    8    0    1
 -2       895       966       907      3732      3774      3543
 -1      1867    8    0    1
 -2       880       821       978      3451      3775      3776
 -1      1868    8    0    1
 -2       880       978       977      3776      3777      3773
 -1      1869    8    0    1
 -2       881       861       979      3456      3778      3779
 -1      1870    8    0    1
 -2       896       904       980      3531      3780      3781
 -1      1871    8    0    1
 -2       901       916       981      3573      3782      3783
 -1      1872    8    0    1
 -2       901       981       911      3783      3784      3557
 -1      1873    8    0    1
 -2       892       898       982      3508      3785      3786
 -1      1874    8    0    1
 -2       892       982       965      3786      3787      3728
 -1      1875    8    0    1
 -2       910       890       945      3553      3724      3788
 -1      1876    8    0    1
 -2       898       865       983      3509      3789      3790
 -1      1877    8    0    1
 -2       982       898       983      3785      3790      3791
 -1      1878    8    0    1
 -2       865       968       983      3740      3792      3789
 -1      1879    8    0    1
 -2       902       966       905      3738      3733      3725
 -1      1880    8    0    1
 -2       972       903       946      3758      3793      3760
 -1      1881    8    0    1
 -2       903       964       946      3722      3794      3793
 -1      1882    8    0    1
 -2       912       814       984      3559      3795      3796
 -1      1883    8    0    1
 -2       814       910       984      3552      3797      3795
 -1      1884    8    0    1
 -2       813       917       945      3679      3678      3723
 -1      1885    8    0    1
 -2       913       908       974      3565      3798      3764
 -1      1886    8    0    1
 -2       861       897       985      3504      3799      3800
 -1      1887    8    0    1
 -2       979       861       985      3778      3800      3801
 -1      1888    8    0    1
 -2       897       976       985      3770      3802      3799
 -1      1889    8    0    1
 -2       974       908       969      3798      3742      3803
 -1      1890    8    0    1
 -2       978       821       900      3775      3517      3804
 -1      1891    8    0    1
 -2       896       980       900      3781      3805      3518
 -1      1892    8    0    1
 -2       882       820       905      3754      3726      3533
 -1      1893    8    0    1
 -2       966       889       986      3737      3806      3807
 -1      1894    8    0    1
 -2       907       966       986      3774      3807      3808
 -1      1895    8    0    1
 -2       889       906       986      3539      3809      3806
 -1      1896    8    0    1
 -2       918       914       987      3579      3810      3811
 -1      1897    8    0    1
 -2       969       915       988      3741      3812      3813
 -1      1898    8    0    1
 -2       915       909       988      3571      3814      3812
 -1      1899    8    0    1
 -2       919       918       989      3582      3815      3816
 -1      1900    8    0    1
 -2       918       987       989      3811      3817      3815
 -1      1901    8    0    1
 -2       920       919       990      3585      3818      3819
 -1      1902    8    0    1
 -2       919       989       990      3816      3820      3818
 -1      1903    8    0    1
 -2       921       920       991      3588      3821      3822
 -1      1904    8    0    1
 -2       920       990       991      3819      3823      3821
 -1      1905    8    0    1
 -2       922       921       992      3591      3824      3825
 -1      1906    8    0    1
 -2       921       991       992      3822      3826      3824
 -1      1907    8    0    1
 -2       923       922       993      3594      3827      3828
 -1      1908    8    0    1
 -2       922       992       993      3825      3829      3827
 -1      1909    8    0    1
 -2       924       923       994      3597      3830      3831
 -1      1910    8    0    1
 -2       923       993       994      3828      3832      3830
 -1      1911    8    0    1
 -2       925       924       995      3600      3833      3834
 -1      1912    8    0    1
 -2       924       994       995      3831      3835      3833
 -1      1913    8    0    1
 -2       926       925       996      3603      3836      3837
 -1      1914    8    0    1
 -2       925       995       996      3834      3838      3836
 -1      1915    8    0    1
 -2       927       926       997      3606      3839      3840
 -1      1916    8    0    1
 -2       926       996       997      3837      3841      3839
 -1      1917    8    0    1
 -2       928       927       998      3609      3842      3843
 -1      1918    8    0    1
 -2       927       997       998      3840      3844      3842
 -1      1919    8    0    1
 -2       929       928       999      3612      3845      3846
 -1      1920    8    0    1
 -2       928       998       999      3843      3847      3845
 -1      1921    8    0    1
 -2       930       929      1000      3615      3848      3849
 -1      1922    8    0    1
 -2       929       999      1000      3846      3850      3848
 -1      1923    8    0    1
 -2       931       930      1001      3618      3851      3852
 -1      1924    8    0    1
 -2       930      1000      1001      3849      3853      3851
 -1      1925    8    0    1
 -2       932       931      1002      3621      3854      3855
 -1      1926    8    0    1
 -2       931      1001      1002      3852      3856      3854
 -1      1927    8    0    1
 -2       933       932      1003      3624      3857      3858
 -1      1928    8    0    1
 -2       932      1002      1003      3855      3859      3857
 -1      1929    8    0    1
 -2       934       933      1004      3627      3860      3861
 -1      1930    8    0    1
 -2       933      1003      1004      3858      3862      3860
 -1      1931    8    0    1
 -2       935       934      1005      3630      3863      3864
 -1      1932    8    0    1
 -2       934      1004      1005      3861      3865      3863
 -1      1933    8    0    1
 -2       936       935      1006      3633      3866      3867
 -1      1934    8    0    1
 -2       935      1005      1006      3864      3868      3866
 -1      1935    8    0    1
 -2       937       936      1007      3636      3869      3870
 -1      1936    8    0    1
 -2       936      1006      1007      3867      3871      3869
 -1      1937    8    0    1
 -2       938       937      1008      3639      3872      3873
 -1      1938    8    0    1
 -2       937      1007      1008      3870      3874      3872
 -1      1939    8    0    1
 -2       939       938      1009      3642      3875      3876
 -1      1940    8    0    1
 -2       938      1008      1009      3873      3877      3875
 -1      1941    8    0    1
 -2       940       939      1010      3645      3878      3879
 -1      1942    8    0    1
 -2       939      1009      1010      3876      3880      3878
 -1      1943    8    0    1
 -2       941       940      1011      3648      3881      3882
 -1      1944    8    0    1
 -2       940      1010      1011      3879      3883      3881
 -1      1945    8    0    1
 -2       942       941      1012      3651      3884      3885
 -1      1946    8    0    1
 -2       941      1011      1012      3882      3886      3884
 -1      1947    8    0    1
 -2       943       942      1013      3654      3887      3888
 -1      1948    8    0    1
 -2       942      1012      1013      3885      3889      3887
 -1      1949    8    0    1
 -2       944       943       984      3657      3890      3891
 -1      1950    8    0    1
 -2       945       944       910      3660      3892      3788
 -1      1951    8    0    1
 -2       962       881       979      3759      3779      3893
 -1      1952    8    0    1
 -2       953       954      1014      3695      3894      3895
 -1      1953    8    0    1
 -2       952       953      1015      3692      3896      3897
 -1      1954    8    0    1
 -2       953      1014      1015      3895      3898      3896
 -1      1955    8    0    1
 -2       951       952      1016      3689      3899      3900
 -1      1956    8    0    1
 -2       952      1015      1016      3897      3901      3899
 -1      1957    8    0    1
 -2       954       955      1017      3698      3902      3903
 -1      1958    8    0    1
 -2       954      1017      1014      3903      3904      3894
 -1      1959    8    0    1
 -2       955       956      1018      3701      3905      3906
 -1      1960    8    0    1
 -2       955      1018      1017      3906      3907      3902
 -1      1961    8    0    1
 -2       956       957      1019      3704      3908      3909
 -1      1962    8    0    1
 -2       956      1019      1018      3909      3910      3905
 -1      1963    8    0    1
 -2       957       958      1020      3707      3911      3912
 -1      1964    8    0    1
 -2       957      1020      1019      3912      3913      3908
 -1      1965    8    0    1
 -2       958       959      1021      3710      3914      3915
 -1      1966    8    0    1
 -2       958      1021      1020      3915      3916      3911
 -1      1967    8    0    1
 -2       959       960      1022      3713      3917      3918
 -1      1968    8    0    1
 -2       959      1022      1021      3918      3919      3914
 -1      1969    8    0    1
 -2       980       904      1023      3780      3920      3921
 -1      1970    8    0    1
 -2       961       965      1024      3730      3922      3923
 -1      1971    8    0    1
 -2       914       963      1025      3720      3924      3925
 -1      1972    8    0    1
 -2       914      1025       987      3925      3926      3810
 -1      1973    8    0    1
 -2       883       907      1026      3542      3927      3928
 -1      1974    8    0    1
 -2       964       883      1026      3721      3928      3929
 -1      1975    8    0    1
 -2       947       946       964      3673      3794      3930
 -1      1976    8    0    1
 -2       962       979      1027      3893      3931      3932
 -1      1977    8    0    1
 -2       962      1027       973      3932      3933      3757
 -1      1978    8    0    1
 -2       950       949      1028      3684      3934      3935
 -1      1979    8    0    1
 -2       949       967      1029      3753      3936      3937
 -1      1980    8    0    1
 -2       949      1029      1028      3937      3938      3934
 -1      1981    8    0    1
 -2       967       951      1030      3736      3939      3940
 -1      1982    8    0    1
 -2       951      1016      1030      3900      3941      3939
 -1      1983    8    0    1
 -2       906       911       981      3556      3784      3942
 -1      1984    8    0    1
 -2       900       980       978      3805      3943      3804
 -1      1985    8    0    1
 -2       910       944       984      3892      3891      3797
 -1      1986    8    0    1
 -2       947       964      1031      3930      3944      3945
 -1      1987    8    0    1
 -2       948       947      1031      3677      3945      3946
 -1      1988    8    0    1
 -2       964      1026      1031      3929      3947      3944
 -1      1989    8    0    1
 -2       978       980      1032      3943      3948      3949
 -1      1990    8    0    1
 -2      1026       907      1033      3927      3950      3951
 -1      1991    8    0    1
 -2      1031      1026      1033      3947      3951      3952
 -1      1992    8    0    1
 -2       907       986      1033      3808      3953      3950
 -1      1993    8    0    1
 -2       904       970      1023      3744      3954      3920
 -1      1994    8    0    1
 -2       971       891       975      3749      3767      3955
 -1      1995    8    0    1
 -2       969       988      1034      3813      3956      3957
 -1      1996    8    0    1
 -2       970       912      1013      3745      3958      3959
 -1      1997    8    0    1
 -2       984       943      1013      3890      3888      3960
 -1      1998    8    0    1
 -2       963       974       969      3763      3803      3961
 -1      1999    8    0    1
 -2       916       948      1035      3676      3962      3963
 -1      2000    8    0    1
 -2       981       916      1035      3782      3963      3964
 -1      2001    8    0    1
 -2       948      1031      1035      3946      3965      3962
 -1      2002    8    0    1
 -2      1032       980      1036      3948      3966      3967
 -1      2003    8    0    1
 -2       980      1023      1036      3921      3968      3966
 -1      2004    8    0    1
 -2       950      1028      1037      3935      3969      3970
 -1      2005    8    0    1
 -2       950      1037       975      3970      3971      3765
 -1      2006    8    0    1
 -2       979       985      1027      3801      3972      3931
 -1      2007    8    0    1
 -2       976       961      1038      3768      3973      3974
 -1      2008    8    0    1
 -2       961      1024      1038      3923      3975      3973
 -1      2009    8    0    1
 -2      1022       960      1039      3917      3976      3977
 -1      2010    8    0    1
 -2       960       977      1039      3772      3978      3976
 -1      2011    8    0    1
 -2       906       981       986      3942      3979      3809
 -1      2012    8    0    1
 -2       977       978      1032      3777      3949      3980
 -1      2013    8    0    1
 -2      1029       967      1030      3936      3940      3981
 -1      2014    8    0    1
 -2       983       968      1040      3792      3982      3983
 -1      2015    8    0    1
 -2       965       982      1041      3787      3984      3985
 -1      2016    8    0    1
 -2       965      1041      1024      3985      3986      3922
 -1      2017    8    0    1
 -2       968       971      1042      3748      3987      3988
 -1      2018    8    0    1
 -2       968      1042      1040      3988      3989      3982
 -1      2019    8    0    1
 -2      1013       912       984      3958      3796      3960
 -1      2020    8    0    1
 -2       963       969      1025      3961      3990      3924
 -1      2021    8    0    1
 -2       909       973       988      3756      3991      3814
 -1      2022    8    0    1
 -2       969      1034      1025      3957      3992      3990
 -1      2023    8    0    1
 -2       970      1013      1012      3959      3889      3993
 -1      2024    8    0    1
 -2      1023       970      1012      3954      3993      3994
 -1      2025    8    0    1
 -2       989       987      1043      3817      3995      3996
 -1      2026    8    0    1
 -2       990       989      1044      3820      3997      3998
 -1      2027    8    0    1
 -2       989      1043      1044      3996      3999      3997
 -1      2028    8    0    1
 -2       991       990      1045      3823      4000      4001
 -1      2029    8    0    1
 -2       990      1044      1045      3998      4002      4000
 -1      2030    8    0    1
 -2       992       991      1046      3826      4003      4004
 -1      2031    8    0    1
 -2       991      1045      1046      4001      4005      4003
 -1      2032    8    0    1
 -2       993       992      1047      3829      4006      4007
 -1      2033    8    0    1
 -2       992      1046      1047      4004      4008      4006
 -1      2034    8    0    1
 -2       994       993      1048      3832      4009      4010
 -1      2035    8    0    1
 -2       993      1047      1048      4007      4011      4009
 -1      2036    8    0    1
 -2       995       994      1049      3835      4012      4013
 -1      2037    8    0    1
 -2       994      1048      1049      4010      4014      4012
 -1      2038    8    0    1
 -2       996       995      1050      3838      4015      4016
 -1      2039    8    0    1
 -2       995      1049      1050      4013      4017      4015
 -1      2040    8    0    1
 -2       997       996      1051      3841      4018      4019
 -1      2041    8    0    1
 -2       996      1050      1051      4016      4020      4018
 -1      2042    8    0    1
 -2       998       997      1052      3844      4021      4022
 -1      2043    8    0    1
 -2       997      1051      1052      4019      4023      4021
 -1      2044    8    0    1
 -2       999       998      1053      3847      4024      4025
 -1      2045    8    0    1
 -2       998      1052      1053      4022      4026      4024
 -1      2046    8    0    1
 -2      1000       999      1054      3850      4027      4028
 -1      2047    8    0    1
 -2       999      1053      1054      4025      4029      4027
 -1      2048    8    0    1
 -2      1001      1000      1055      3853      4030      4031
 -1      2049    8    0    1
 -2      1000      1054      1055      4028      4032      4030
 -1      2050    8    0    1
 -2      1002      1001      1056      3856      4033      4034
 -1      2051    8    0    1
 -2      1001      1055      1056      4031      4035      4033
 -1      2052    8    0    1
 -2      1003      1002      1057      3859      4036      4037
 -1      2053    8    0    1
 -2      1002      1056      1057      4034      4038      4036
 -1      2054    8    0    1
 -2      1004      1003      1058      3862      4039      4040
 -1      2055    8    0    1
 -2      1003      1057      1058      4037      4041      4039
 -1      2056    8    0    1
 -2      1005      1004      1059      3865      4042      4043
 -1      2057    8    0    1
 -2      1004      1058      1059      4040      4044      4042
 -1      2058    8    0    1
 -2      1006      1005      1060      3868      4045      4046
 -1      2059    8    0    1
 -2      1005      1059      1060      4043      4047      4045
 -1      2060    8    0    1
 -2      1007      1006      1061      3871      4048      4049
 -1      2061    8    0    1
 -2      1006      1060      1061      4046      4050      4048
 -1      2062    8    0    1
 -2      1008      1007      1062      3874      4051      4052
 -1      2063    8    0    1
 -2      1007      1061      1062      4049      4053      4051
 -1      2064    8    0    1
 -2      1009      1008      1063      3877      4054      4055
 -1      2065    8    0    1
 -2      1008      1062      1063      4052      4056      4054
 -1      2066    8    0    1
 -2      1010      1009      1064      3880      4057      4058
 -1      2067    8    0    1
 -2      1009      1063      1064      4055      4059      4057
 -1      2068    8    0    1
 -2      1011      1010      1036      3883      4060      4061
 -1      2069    8    0    1
 -2      1012      1011      1023      3886      4062      3994
 -1      2070    8    0    1
 -2      1015      1014      1065      3898      4063      4064
 -1      2071    8    0    1
 -2      1017      1018      1066      3907      4065      4066
 -1      2072    8    0    1
 -2      1014      1017      1067      3904      4067      4068
 -1      2073    8    0    1
 -2      1065      1014      1067      4063      4068      4069
 -1      2074    8    0    1
 -2      1017      1066      1067      4066      4070      4067
 -1      2075    8    0    1
 -2      1016      1015      1068      3901      4071      4072
 -1      2076    8    0    1
 -2      1015      1065      1068      4064      4073      4071
 -1      2077    8    0    1
 -2      1018      1019      1069      3910      4074      4075
 -1      2078    8    0    1
 -2      1018      1069      1066      4075      4076      4065
 -1      2079    8    0    1
 -2      1019      1020      1070      3913      4077      4078
 -1      2080    8    0    1
 -2      1019      1070      1069      4078      4079      4074
 -1      2081    8    0    1
 -2      1020      1021      1071      3916      4080      4081
 -1      2082    8    0    1
 -2      1020      1071      1070      4081      4082      4077
 -1      2083    8    0    1
 -2      1021      1022      1072      3919      4083      4084
 -1      2084    8    0    1
 -2      1021      1072      1071      4084      4085      4080
 -1      2085    8    0    1
 -2       971       975      1073      3955      4086      4087
 -1      2086    8    0    1
 -2      1042       971      1073      3987      4087      4088
 -1      2087    8    0    1
 -2       975      1037      1073      3971      4089      4086
 -1      2088    8    0    1
 -2       987      1025      1074      3926      4090      4091
 -1      2089    8    0    1
 -2      1043       987      1074      3995      4091      4092
 -1      2090    8    0    1
 -2      1025      1034      1074      3992      4093      4090
 -1      2091    8    0    1
 -2      1029      1030      1075      3981      4094      4095
 -1      2092    8    0    1
 -2       982       983      1076      3791      4096      4097
 -1      2093    8    0    1
 -2       983      1040      1076      3983      4098      4096
 -1      2094    8    0    1
 -2       977      1032      1039      3980      4099      3978
 -1      2095    8    0    1
 -2      1028      1029      1077      3938      4100      4101
 -1      2096    8    0    1
 -2      1029      1075      1077      4095      4102      4100
 -1      2097    8    0    1
 -2       985       976      1078      3802      4103      4104
 -1      2098    8    0    1
 -2       976      1038      1078      3974      4105      4103
 -1      2099    8    0    1
 -2      1030      1016      1079      3941      4106      4107
 -1      2100    8    0    1
 -2      1016      1068      1079      4072      4108      4106
 -1      2101    8    0    1
 -2      1027       985      1078      3972      4104      4109
 -1      2102    8    0    1
 -2       988       973      1080      3991      4110      4111
 -1      2103    8    0    1
 -2      1034       988      1080      3956      4111      4112
 -1      2104    8    0    1
 -2       973      1027      1080      3933      4113      4110
 -1      2105    8    0    1
 -2      1023      1011      1036      4062      4061      3968
 -1      2106    8    0    1
 -2      1075      1030      1079      4094      4107      4114
 -1      2107    8    0    1
 -2      1010      1064      1036      4058      4115      4060
 -1      2108    8    0    1
 -2      1027      1078      1081      4109      4116      4117
 -1      2109    8    0    1
 -2      1035      1031      1033      3965      3952      4118
 -1      2110    8    0    1
 -2      1037      1028      1082      3969      4119      4120
 -1      2111    8    0    1
 -2      1028      1077      1082      4101      4121      4119
 -1      2112    8    0    1
 -2      1038      1024      1083      3975      4122      4123
 -1      2113    8    0    1
 -2      1022      1039      1084      3977      4124      4125
 -1      2114    8    0    1
 -2      1072      1022      1084      4083      4125      4126
 -1      2115    8    0    1
 -2      1039      1032      1084      4099      4127      4124
 -1      2116    8    0    1
 -2      1076      1040      1085      4098      4128      4129
 -1      2117    8    0    1
 -2      1041       982      1076      3984      4097      4130
 -1      2118    8    0    1
 -2      1024      1041      1086      3986      4131      4132
 -1      2119    8    0    1
 -2      1024      1086      1083      4132      4133      4122
 -1      2120    8    0    1
 -2      1074      1034      1080      4093      4112      4134
 -1      2121    8    0    1
 -2       981      1035      1033      3964      4118      4135
 -1      2122    8    0    1
 -2       986       981      1033      3979      4135      3953
 -1      2123    8    0    1
 -2      1032      1036      1064      3967      4115      4136
 -1      2124    8    0    1
 -2      1080      1027      1081      4113      4117      4137
 -1      2125    8    0    1
 -2      1040      1042      1087      3989      4138      4139
 -1      2126    8    0    1
 -2      1040      1087      1085      4139      4140      4128
 -1      2127    8    0    1
 -2      1084      1032      1064      4127      4136      4141
 -1      2128    8    0    1
 -2      1044      1043      1088      3999      4142      4143
 -1      2129    8    0    1
 -2      1081      1078      1088      4116      4144      4145
 -1      2130    8    0    1
 -2      1045      1044      1083      4002      4146      4147
 -1      2131    8    0    1
 -2      1046      1045      1086      4005      4148      4149
 -1      2132    8    0    1
 -2      1047      1046      1086      4008      4149      4150
 -1      2133    8    0    1
 -2      1048      1047      1085      4011      4151      4152
 -1      2134    8    0    1
 -2      1049      1048      1087      4014      4153      4154
 -1      2135    8    0    1
 -2      1050      1049      1087      4017      4154      4155
 -1      2136    8    0    1
 -2      1051      1050      1089      4020      4156      4157
 -1      2137    8    0    1
 -2      1052      1051      1082      4023      4158      4159
 -1      2138    8    0    1
 -2      1053      1052      1077      4026      4160      4161
 -1      2139    8    0    1
 -2      1054      1053      1075      4029      4162      4163
 -1      2140    8    0    1
 -2      1055      1054      1079      4032      4164      4165
 -1      2141    8    0    1
 -2      1056      1055      1068      4035      4166      4167
 -1      2142    8    0    1
 -2      1057      1056      1065      4038      4168      4169
 -1      2143    8    0    1
 -2      1058      1057      1067      4041      4170      4171
 -1      2144    8    0    1
 -2      1059      1058      1066      4044      4172      4173
 -1      2145    8    0    1
 -2      1060      1059      1069      4047      4174      4175
 -1      2146    8    0    1
 -2      1061      1060      1070      4050      4176      4177
 -1      2147    8    0    1
 -2      1062      1061      1071      4053      4178      4179
 -1      2148    8    0    1
 -2      1063      1062      1072      4056      4180      4181
 -1      2149    8    0    1
 -2      1064      1063      1084      4059      4182      4141
 -1      2150    8    0    1
 -2      1068      1065      1056      4073      4168      4167
 -1      2151    8    0    1
 -2      1066      1069      1059      4076      4174      4173
 -1      2152    8    0    1
 -2      1074      1080      1081      4134      4137      4183
 -1      2153    8    0    1
 -2      1072      1084      1063      4126      4182      4181
 -1      2154    8    0    1
 -2      1075      1079      1054      4114      4164      4163
 -1      2155    8    0    1
 -2      1070      1071      1061      4082      4178      4177
 -1      2156    8    0    1
 -2      1071      1072      1062      4085      4180      4179
 -1      2157    8    0    1
 -2      1043      1074      1081      4092      4183      4184
 -1      2158    8    0    1
 -2      1068      1055      1079      4166      4165      4108
 -1      2159    8    0    1
 -2      1041      1076      1090      4130      4185      4186
 -1      2160    8    0    1
 -2      1086      1041      1090      4131      4186      4187
 -1      2161    8    0    1
 -2      1076      1085      1090      4129      4188      4185
 -1      2162    8    0    1
 -2      1075      1053      1077      4162      4161      4102
 -1      2163    8    0    1
 -2      1077      1052      1082      4160      4159      4121
 -1      2164    8    0    1
 -2      1083      1044      1088      4146      4143      4189
 -1      2165    8    0    1
 -2      1066      1058      1067      4172      4171      4070
 -1      2166    8    0    1
 -2      1078      1038      1088      4105      4190      4144
 -1      2167    8    0    1
 -2      1070      1060      1069      4176      4175      4079
 -1      2168    8    0    1
 -2      1045      1083      1086      4147      4133      4148
 -1      2169    8    0    1
 -2      1048      1085      1087      4152      4140      4153
 -1      2170    8    0    1
 -2      1057      1065      1067      4169      4069      4170
 -1      2171    8    0    1
 -2      1043      1081      1088      4184      4145      4142
 -1      2172    8    0    1
 -2      1085      1047      1090      4151      4191      4188
 -1      2173    8    0    1
 -2      1051      1089      1082      4157      4192      4158
 -1      2174    8    0    1
 -2      1050      1087      1089      4155      4193      4156
 -1      2175    8    0    1
 -2      1083      1088      1038      4189      4190      4123
 -1      2176    8    0    1
 -2      1042      1073      1089      4088      4194      4195
 -1      2177    8    0    1
 -2      1073      1037      1089      4089      4196      4194
 -1      2178    8    0    1
 -2      1037      1082      1089      4120      4192      4196
 -1      2179    8    0    1
 -2      1087      1042      1089      4138      4195      4193
 -1      2180    8    0    1
 -2      1090      1047      1086      4191      4150      4187
 -3
    1PSTEP                         1           1           1          
  100CL  101 1.000000000        4196                     0    1           1
 -4  DISP        4    1
 -5  D1          1    2    1    0
 -5  D2          1    2    2    0
 -5  D3          1    2    3    0
 -5  ALL         1    2    0    0    1ALL
 -1         1 1.09563E-02-1.61920E-05-7.41678E-14
 -1         2 1.40305E-02 1.08688E-03-8.44718E-14
 -1         3 1.66883E-02 2.81441E-03-1.22961E-13
 -1         4 1.37511E-02 1.58867E-03-1.20092E-13
 -1         5 0.00000E+00 0.00000E+00 0.00000E+00
 -1         6 0.00000E+00 0.00000E+00 0.00000E+00
 -1         7 0.00000E+00 0.00000E+00 0.00000E+00
 -1         8 0.00000E+00 0.00000E+00 0.00000E+00
 -1         9 0.00000E+00 0.00000E+00 0.00000E+00
 -1        10 0.00000E+00 0.00000E+00 0.00000E+00
 -1        11 0.00000E+00 0.00000E+00 0.00000E+00
 -1        12 0.00000E+00 0.00000E+00 0.00000E+00
 -1        13 0.00000E+00 0.00000E+00 0.00000E+00
 -1        14 0.00000E+00 0.00000E+00 0.00000E+00
 -1        15 0.00000E+00 0.00000E+00 0.00000E+00
 -1        16 0.00000E+00 0.00000E+00 0.00000E+00
 -1        17 0.00000E+00 0.00000E+00 0.00000E+00
 -1        18 0.00000E+00 0.00000E+00 0.00000E+00
 -1        19 0.00000E+00 0.00000E+00 0.00000E+00
 -1        20 0.00000E+00 0.00000E+00 0.00000E+00
 -1        21 0.00000E+00 0.00000E+00 0.00000E+00
 -1        22 0.00000E+00 0.00000E+00 0.00000E+00
 -1        23 4.11539E-04-2.60857E-04 5.99496E-17
 -1        24 7.03626E-04-4.01214E-04-6.33581E-18
 -1        25 9.73775E-04-4.98706E-04-1.98650E-16
 -1        26 1.23833E-03-5.67566E-04-5.18232E-16
 -1        27 1.50193E-03-6.16939E-04-9.65706E-16
 -1        28 1.76665E-03-6.52209E-04-1.53918E-15
 -1        29 2.03346E-03-6.77085E-04-2.23704E-15
 -1        30 2.30274E-03-6.94268E-04-3.05779E-15
 -1        31 2.57452E-03-7.05778E-04-4.00300E-15
 -1        32 2.84868E-03-7.13146E-04-5.07085E-15
 -1        33 3.12499E-03-7.17529E-04-6.25859E-15
 -1        34 3.40317E-03-7.19793E-04-7.55879E-15
 -1        35 3.68296E-03-7.20578E-04-8.97145E-15
 -1        36 3.96408E-03-7.20345E-04-1.04918E-14
 -1        37 4.24631E-03-7.19419E-04-1.21141E-14
 -1        38 4.52946E-03-7.18021E-04-1.38354E-14
 -1        39 4.81339E-03-7.16297E-04-1.56548E-14
 -1        40 5.09798E-03-7.14341E-04-1.75754E-14
 -1        41 5.38320E-03-7.12218E-04-1.95989E-14
 -1        42 5.66904E-03-7.09985E-04-2.17222E-14
 -1        43 5.95553E-03-7.07712E-04-2.39507E-14
 -1        44 6.24274E-03-7.05505E-04-2.62745E-14
 -1        45 6.53076E-03-7.03522E-04-2.86956E-14
 -1        46 6.81966E-03-7.01997E-04-3.12210E-14
 -1        47 7.10946E-03-7.01249E-04-3.38384E-14
 -1        48 7.40006E-03-7.01678E-04-3.65438E-14
 -1        49 7.69116E-03-7.03728E-04-3.93365E-14
 -1        50 7.98219E-03-7.07809E-04-4.22172E-14
 -1        51 8.27214E-03-7.14150E-04-4.51830E-14
 -1        52 8.55955E-03-7.22574E-04-4.82306E-14
 -1        53 8.84249E-03-7.32202E-04-5.13452E-14
 -1        54 9.11873E-03-7.41125E-04-5.45267E-14
 -1        55 9.38601E-03-7.46151E-04-5.77701E-14
 -1        56 9.64263E-03-7.42760E-04-6.10743E-14
 -1        57 9.88801E-03-7.25432E-04-6.44397E-14
 -1        58 1.01233E-02-6.88419E-04-6.78527E-14
 -1        59 1.03513E-02-6.26847E-04-7.13201E-14
 -1        60 1.05763E-02-5.37844E-04-7.48330E-14
 -1        61 1.08034E-02-4.21265E-04-7.83952E-14
 -1        62 1.10368E-02-2.79709E-04-8.20128E-14
 -1        63 1.12796E-02-1.17815E-04-8.56905E-14
 -1        64 1.15328E-02 5.88676E-05-8.94097E-14
 -1        65 1.17958E-02 2.45014E-04-9.31768E-14
 -1        66 1.20672E-02 4.36318E-04-9.69822E-14
 -1        67 1.23445E-02 6.29840E-04-1.00815E-13
 -1        68 1.26258E-02 8.23935E-04-1.04664E-13
 -1        69 1.29094E-02 1.01793E-03-1.08536E-13
 -1        70 1.31943E-02 1.21168E-03-1.12431E-13
 -1        71 1.34797E-02 1.40517E-03-1.16347E-13
 -1        72 3.95547E-04 2.52366E-04 4.13725E-17
 -1        73 6.89834E-04 3.95562E-04-5.27430E-17
 -1        74 9.60517E-04 4.94766E-04-2.84457E-16
 -1        75 1.22523E-03 5.64787E-04-6.51185E-16
 -1        76 1.48882E-03 6.14991E-04-1.15100E-15
 -1        77 1.75346E-03 6.50876E-04-1.78287E-15
 -1        78 2.02016E-03 6.76213E-04-2.54527E-15
 -1        79 2.28930E-03 6.93740E-04-3.43586E-15
 -1        80 2.56096E-03 7.05507E-04-4.45238E-15
 -1        81 2.83500E-03 7.13066E-04-5.59783E-15
 -1        82 3.11120E-03 7.17588E-04-6.86984E-15
 -1        83 3.38928E-03 7.19952E-04-8.26420E-15
 -1        84 3.66896E-03 7.20804E-04-9.77608E-15
 -1        85 3.93590E-03 7.20636E-04-1.13223E-14
 -1        86 4.21797E-03 7.19742E-04-1.30717E-14
 -1        87 4.50095E-03 7.18322E-04-1.49362E-14
 -1        88 4.78468E-03 7.16501E-04-1.69174E-14
 -1        89 5.06905E-03 7.14336E-04-1.90102E-14
 -1        90 5.35402E-03 7.11832E-04-2.12066E-14
 -1        91 5.63960E-03 7.08952E-04-2.35016E-14
 -1        92 5.92589E-03 7.05626E-04-2.58914E-14
 -1        93 6.21307E-03 7.01764E-04-2.83779E-14
 -1        94 6.50150E-03 6.97267E-04-3.09581E-14
 -1        95 6.79171E-03 6.92047E-04-3.36267E-14
 -1        96 7.08456E-03 6.86068E-04-3.63825E-14
 -1        97 7.38135E-03 6.79424E-04-3.92274E-14
 -1        98 7.68408E-03 6.72486E-04-4.21467E-14
 -1        99 7.97997E-03 6.66526E-04-4.49798E-14
 -1       100 8.30458E-03 6.62938E-04-4.80364E-14
 -1       101 8.64937E-03 6.66455E-04-5.11643E-14
 -1       102 9.02393E-03 6.85794E-04-5.43523E-14
 -1       103 9.44033E-03 7.37371E-04-5.75920E-14
 -1       104 9.90980E-03 8.49493E-04-6.08731E-14
 -1       105 1.04321E-02 1.06315E-03-6.41874E-14
 -1       106 1.09750E-02 1.41554E-03-6.75542E-14
 -1       107 1.14601E-02 1.88515E-03-7.09707E-14
 -1       108 1.17634E-02 2.26324E-03-7.39229E-14
 -1       109 1.19888E-02 2.47045E-03-7.71060E-14
 -1       110 1.21912E-02 2.41905E-03-7.99769E-14
 -1       111 1.24331E-02 2.24328E-03-8.25041E-14
 -1       112 1.28719E-02 1.96399E-03-8.59484E-14
 -1       113 1.33793E-02 1.77247E-03-8.94166E-14
 -1       114 1.39061E-02 1.70767E-03-9.31073E-14
 -1       115 1.43833E-02 1.75345E-03-9.68295E-14
 -1       116 1.48043E-02 1.86705E-03-1.00574E-13
 -1       117 1.51785E-02 2.01622E-03-1.04339E-13
 -1       118 1.55177E-02 2.18093E-03-1.08119E-13
 -1       119 1.58321E-02 2.34933E-03-1.11883E-13
 -1       120 1.61297E-02 2.51424E-03-1.15644E-13
 -1       121 1.64175E-02 2.67161E-03-1.19396E-13
 -1       122 1.65426E-02 2.72951E-03-1.22816E-13
 -1       123 1.64033E-02 2.64766E-03-1.22687E-13
 -1       124 1.62687E-02 2.57428E-03-1.22566E-13
 -1       125 1.61322E-02 2.51139E-03-1.22441E-13
 -1       126 1.59871E-02 2.45697E-03-1.22292E-13
 -1       127 1.58322E-02 2.40753E-03-1.22159E-13
 -1       128 1.56611E-02 2.35654E-03-1.22012E-13
 -1       129 1.54781E-02 2.30085E-03-1.21844E-13
 -1       130 1.52867E-02 2.23812E-03-1.21656E-13
 -1       131 1.50910E-02 2.16784E-03-1.21455E-13
 -1       132 1.48942E-02 2.09100E-03-1.21254E-13
 -1       133 1.47019E-02 2.01083E-03-1.21089E-13
 -1       134 1.45085E-02 1.92656E-03-1.20933E-13
 -1       135 1.43172E-02 1.84129E-03-1.20749E-13
 -1       136 1.41273E-02 1.75614E-03-1.20545E-13
 -1       137 1.39377E-02 1.67154E-03-1.20319E-13
 -1       138 1.40573E-02 1.28247E-03-8.43802E-14
 -1       139 1.39765E-02 1.47603E-03-8.39129E-14
 -1       140 1.37863E-02 1.67101E-03-8.31014E-14
 -1       141 1.34480E-02 1.87974E-03-8.18401E-14
 -1       142 1.30291E-02 2.04994E-03-8.04140E-14
 -1       143 1.25334E-02 2.16819E-03-7.88420E-14
 -1       144 1.19805E-02 2.20814E-03-7.71629E-14
 -1       145 1.13832E-02 2.14485E-03-7.53789E-14
 -1       146 1.08287E-02 1.99110E-03-7.37282E-14
 -1       147 1.02946E-02 1.76004E-03-7.20875E-14
 -1       148 9.82438E-03 1.48603E-03-7.05752E-14
 -1       149 9.47056E-03 1.21770E-03-6.93659E-14
 -1       150 9.24111E-03 9.74882E-04-6.85221E-14
 -1       151 9.12044E-03 7.46598E-04-6.80193E-14
 -1       152 9.11598E-03 5.53506E-04-6.79244E-14
 -1       153 9.20942E-03 3.87460E-04-6.81873E-14
 -1       154 9.39695E-03 2.43973E-04-6.87891E-14
 -1       155 9.69337E-03 1.21056E-04-6.97817E-14
 -1       156 1.00458E-02 3.98588E-05-7.09859E-14
 -1       157 1.04992E-02-1.03429E-05-7.25672E-14
 -1       158 1.14569E-02 1.74620E-05-7.59245E-14
 -1       159 1.19940E-02 9.68325E-05-7.78182E-14
 -1       160 1.24733E-02 2.04789E-04-7.94946E-14
 -1       161 1.29492E-02 3.53575E-04-8.11329E-14
 -1       162 1.33358E-02 5.15005E-04-8.24244E-14
 -1       163 1.36784E-02 7.09020E-04-8.35112E-14
 -1       164 1.39022E-02 8.96199E-04-8.41700E-14
 -1       165 2.40462E-04-1.25586E-04-1.11571E-17
 -1       166 2.25303E-04-9.46850E-05-3.37255E-17
 -1       167 2.19545E-04-7.28549E-05-4.71492E-17
 -1       168 2.16719E-04-5.51855E-05-5.53248E-17
 -1       169 2.15215E-04-4.00579E-05-6.02207E-17
 -1       170 2.14371E-04-2.60213E-05-6.30396E-17
 -1       171 2.13944E-04-1.27696E-05-6.45609E-17
 -1       172 2.13815E-04 1.21817E-07-6.53672E-17
 -1       173 2.13950E-04 1.30170E-05-6.54756E-17
 -1       174 2.14384E-04 2.62801E-05-6.49403E-17
 -1       175 2.15219E-04 4.00906E-05-6.34123E-17
 -1       176 2.16759E-04 5.55005E-05-6.03901E-17
 -1       177 2.19618E-04 7.32285E-05-5.46167E-17
 -1       178 2.25450E-04 9.51664E-05-4.38289E-17
 -1       179 2.40778E-04 1.26315E-04-2.39236E-17
 -1       180 4.68762E-04-2.63704E-04-3.40304E-17
 -1       181 7.66981E-04-3.82413E-04-1.95614E-16
 -1       182 1.05089E-03-4.65410E-04-4.77293E-16
 -1       183 1.32834E-03-5.24300E-04-8.82307E-16
 -1       184 1.60299E-03-5.66103E-04-1.41102E-15
 -1       185 1.87693E-03-5.95508E-04-2.06238E-15
 -1       186 2.15128E-03-6.15818E-04-2.83598E-15
 -1       187 2.42665E-03-6.29460E-04-3.73082E-15
 -1       188 2.70330E-03-6.38248E-04-4.74658E-15
 -1       189 2.98130E-03-6.43545E-04-5.88132E-15
 -1       190 3.26059E-03-6.46369E-04-7.13198E-15
 -1       191 3.54108E-03-6.47473E-04-8.49441E-15
 -1       192 3.82262E-03-6.47401E-04-9.96561E-15
 -1       193 4.10508E-03-6.46536E-04-1.15425E-14
 -1       194 4.38832E-03-6.45140E-04-1.32209E-14
 -1       195 4.67225E-03-6.43384E-04-1.49985E-14
 -1       196 4.95677E-03-6.41375E-04-1.68761E-14
 -1       197 5.24185E-03-6.39180E-04-1.88542E-14
 -1       198 5.52746E-03-6.36848E-04-2.09338E-14
 -1       199 5.81361E-03-6.34429E-04-2.31128E-14
 -1       200 6.10034E-03-6.32003E-04-2.53941E-14
 -1       201 6.38769E-03-6.29694E-04-2.77719E-14
 -1       202 6.67572E-03-6.27700E-04-3.02501E-14
 -1       203 6.96444E-03-6.26308E-04-3.28228E-14
 -1       204 7.25380E-03-6.25904E-04-3.54863E-14
 -1       205 7.54364E-03-6.26960E-04-3.82378E-14
 -1       206 7.83365E-03-6.29981E-04-4.10759E-14
 -1       207 8.12326E-03-6.35397E-04-4.39971E-14
 -1       208 8.41162E-03-6.43371E-04-4.70009E-14
 -1       209 8.69758E-03-6.53520E-04-5.00804E-14
 -1       210 8.97975E-03-6.64568E-04-5.32257E-14
 -1       211 9.25661E-03-6.73996E-04-5.64321E-14
 -1       212 9.52686E-03-6.77825E-04-5.97017E-14
 -1       213 9.78971E-03-6.70719E-04-6.30307E-14
 -1       214 1.00453E-02-6.46543E-04-6.64163E-14
 -1       215 1.02950E-02-5.99415E-04-6.98550E-14
 -1       216 1.05413E-02-5.24994E-04-7.33418E-14
 -1       217 1.07872E-02-4.21588E-04-7.68790E-14
 -1       218 1.10359E-02-2.90594E-04-8.04645E-14
 -1       219 1.12898E-02-1.36092E-04-8.41062E-14
 -1       220 1.15503E-02 3.62468E-05-8.77984E-14
 -1       221 1.18176E-02 2.20477E-04-9.15344E-14
 -1       222 1.20909E-02 4.11460E-04-9.53085E-14
 -1       223 1.23691E-02 6.05457E-04-9.91201E-14
 -1       224 1.26506E-02 8.00229E-04-1.02952E-13
 -1       225 1.29341E-02 9.94776E-04-1.06808E-13
 -1       226 1.32188E-02 1.18888E-03-1.10686E-13
 -1       227 1.35041E-02 1.38264E-03-1.14589E-13
 -1       228 4.53649E-04 2.56811E-04-6.06747E-17
 -1       229 7.52565E-04 3.77570E-04-2.51901E-16
 -1       230 1.03697E-03 4.62055E-04-5.71046E-16
 -1       231 1.31464E-03 5.21956E-04-1.01920E-15
 -1       232 1.58937E-03 5.64492E-04-1.59654E-15
 -1       233 1.86331E-03 5.94440E-04-2.30165E-15
 -1       234 2.13763E-03 6.15154E-04-3.13409E-15
 -1       235 2.41294E-03 6.29095E-04-4.09113E-15
 -1       236 2.68951E-03 6.38104E-04-5.17322E-15
 -1       237 2.96744E-03 6.43563E-04-6.38117E-15
 -1       238 3.24666E-03 6.46505E-04-7.71153E-15
 -1       239 3.52708E-03 6.47691E-04-9.16085E-15
 -1       240 3.79445E-03 6.47694E-04-1.06461E-14
 -1       241 4.07679E-03 6.46885E-04-1.23248E-14
 -1       242 4.35992E-03 6.45496E-04-1.41217E-14
 -1       243 4.64373E-03 6.43687E-04-1.60337E-14
 -1       244 4.92815E-03 6.41535E-04-1.80599E-14
 -1       245 5.21312E-03 6.39056E-04-2.01925E-14
 -1       246 5.49867E-03 6.36219E-04-2.24282E-14
 -1       247 5.78484E-03 6.32950E-04-2.47592E-14
 -1       248 6.07179E-03 6.29144E-04-2.71873E-14
 -1       249 6.35973E-03 6.24675E-04-2.97088E-14
 -1       250 6.64904E-03 6.19399E-04-3.23208E-14
 -1       251 6.94026E-03 6.13183E-04-3.50207E-14
 -1       252 7.23419E-03 6.05949E-04-3.78082E-14
 -1       253 7.53199E-03 5.97764E-04-4.06737E-14
 -1       254 7.82001E-03 5.89495E-04-4.34623E-14
 -1       255 8.13082E-03 5.81349E-04-4.64653E-14
 -1       256 8.45265E-03 5.76418E-04-4.95430E-14
 -1       257 8.78981E-03 5.80380E-04-5.26854E-14
 -1       258 9.14770E-03 6.04699E-04-5.58874E-14
 -1       259 9.53237E-03 6.70911E-04-5.91358E-14
 -1       260 9.94920E-03 8.15112E-04-6.24193E-14
 -1       261 1.03999E-02 1.08524E-03-6.57496E-14
 -1       262 1.08759E-02 1.51050E-03-6.91301E-14
 -1       263 1.12835E-02 1.94385E-03-7.20508E-14
 -1       264 1.16970E-02 2.30970E-03-7.51958E-14
 -1       265 1.20543E-02 2.39914E-03-7.80385E-14
 -1       266 1.23730E-02 2.28177E-03-8.05527E-14
 -1       267 1.28225E-02 1.97973E-03-8.39879E-14
 -1       268 1.32751E-02 1.72177E-03-8.74448E-14
 -1       269 1.37302E-02 1.59589E-03-9.11196E-14
 -1       270 1.41515E-02 1.60512E-03-9.48259E-14
 -1       271 1.45387E-02 1.70185E-03-9.85546E-14
 -1       272 1.48965E-02 1.84597E-03-1.02307E-13
 -1       273 1.52308E-02 2.01184E-03-1.06080E-13
 -1       274 1.55470E-02 2.18461E-03-1.09859E-13
 -1       275 1.58499E-02 2.35555E-03-1.13631E-13
 -1       276 1.61435E-02 2.51933E-03-1.17396E-13
 -1       277 1.62251E-02 2.55994E-03-1.19506E-13
 -1       278 1.60911E-02 2.48358E-03-1.19366E-13
 -1       279 1.59591E-02 2.41408E-03-1.19224E-13
 -1       280 1.58210E-02 2.35089E-03-1.19079E-13
 -1       281 1.56734E-02 2.29256E-03-1.18930E-13
 -1       282 1.55088E-02 2.23392E-03-1.18764E-13
 -1       283 1.53302E-02 2.17300E-03-1.18593E-13
 -1       284 1.51408E-02 2.10769E-03-1.18409E-13
 -1       285 1.49450E-02 2.03708E-03-1.18212E-13
 -1       286 1.47468E-02 1.96134E-03-1.18012E-13
 -1       287 1.45527E-02 1.88283E-03-1.17827E-13
 -1       288 1.43575E-02 1.80015E-03-1.17637E-13
 -1       289 1.41650E-02 1.71592E-03-1.17441E-13
 -1       290 1.39745E-02 1.63117E-03-1.17234E-13
 -1       291 1.37392E-02 1.50681E-03-1.15915E-13
 -1       292 1.40897E-02 1.19254E-03-8.60043E-14
 -1       293 1.40311E-02 1.29938E-03-8.56728E-14
 -1       294 1.38318E-02 1.44337E-03-8.48181E-14
 -1       295 1.34786E-02 1.62795E-03-8.38287E-14
 -1       296 1.30577E-02 1.88705E-03-8.20707E-14
 -1       297 1.26252E-02 2.12134E-03-8.02439E-14
 -1       298 1.21791E-02 2.27892E-03-7.83553E-14
 -1       299 1.17451E-02 2.29283E-03-7.63038E-14
 -1       300 1.12867E-02 2.11945E-03-7.42861E-14
 -1       301 1.08088E-02 1.82477E-03-7.23237E-14
 -1       302 1.03172E-02 1.44747E-03-7.03034E-14
 -1       303 9.80955E-03 1.12785E-03-6.87359E-14
 -1       304 9.41282E-03 9.00524E-04-6.76041E-14
 -1       305 9.16165E-03 7.34180E-04-6.67331E-14
 -1       306 9.07498E-03 6.30246E-04-6.65700E-14
 -1       307 9.14206E-03 5.32681E-04-6.67578E-14
 -1       308 9.33375E-03 4.26465E-04-6.72519E-14
 -1       309 9.64342E-03 3.05390E-04-6.80149E-14
 -1       310 1.00020E-02 1.54197E-04-6.94413E-14
 -1       311 1.04206E-02 2.18958E-05-7.08567E-14
 -1       312 1.08092E-02-7.01050E-05-7.28796E-14
 -1       313 1.11999E-02-8.30078E-05-7.48746E-14
 -1       314 1.16111E-02-1.39886E-05-7.70353E-14
 -1       315 1.20588E-02 1.47435E-04-7.91156E-14
 -1       316 1.25044E-02 3.61228E-04-8.11204E-14
 -1       317 1.29738E-02 5.83788E-04-8.27981E-14
 -1       318 1.33978E-02 8.10110E-04-8.43769E-14
 -1       319 1.37666E-02 9.62296E-04-8.52309E-14
 -1       320 1.39960E-02 1.08636E-03-8.57835E-14
 -1       321 4.55345E-04-1.64898E-04-1.62485E-16
 -1       322 4.74349E-04-2.13135E-04-1.23453E-16
 -1       323 4.40441E-04-9.41950E-05-2.04962E-16
 -1       324 4.37456E-04-6.51145E-05-2.15875E-16
 -1       325 4.35816E-04-3.81396E-05-2.22553E-16
 -1       326 4.35088E-04-1.22914E-05-2.26395E-16
 -1       327 4.35102E-04 1.32094E-05-2.27943E-16
 -1       328 4.35859E-04 3.90849E-05-2.27262E-16
 -1       329 4.37499E-04 6.56459E-05-2.24064E-16
 -1       330 4.40519E-04 9.47811E-05-2.17769E-16
 -1       331 4.45855E-04 1.27483E-04-2.06344E-16
 -1       332 4.55691E-04 1.66062E-04-1.86774E-16
 -1       333 4.75073E-04 2.14791E-04-1.54228E-16
 -1       334 1.36748E-02 1.44510E-03-8.61955E-14
 -1       335 8.63445E-04-3.57716E-04-4.14677E-16
 -1       336 1.14984E-03-4.26583E-04-7.81263E-16
 -1       337 1.43267E-03-4.75868E-04-1.26798E-15
 -1       338 1.71342E-03-5.10713E-04-1.87542E-15
 -1       339 1.99324E-03-5.34917E-04-2.60278E-15
 -1       340 2.27287E-03-5.51303E-04-3.44997E-15
 -1       341 2.55280E-03-5.61991E-04-4.41588E-15
 -1       342 2.83327E-03-5.68571E-04-5.49990E-15
 -1       343 3.11442E-03-5.72237E-04-6.70005E-15
 -1       344 3.39626E-03-5.73870E-04-8.01374E-15
 -1       345 3.67878E-03-5.74115E-04-9.43773E-15
 -1       346 3.96193E-03-5.73427E-04-1.09676E-14
 -1       347 4.24563E-03-5.72121E-04-1.26015E-14
 -1       348 4.52984E-03-5.70402E-04-1.43375E-14
 -1       349 4.81449E-03-5.68401E-04-1.61718E-14
 -1       350 5.09957E-03-5.66194E-04-1.81064E-14
 -1       351 5.38504E-03-5.63827E-04-2.01405E-14
 -1       352 5.67092E-03-5.61340E-04-2.22754E-14
 -1       353 5.95723E-03-5.58786E-04-2.45125E-14
 -1       354 6.24401E-03-5.56254E-04-2.68480E-14
 -1       355 6.53131E-03-5.53896E-04-2.92783E-14
 -1       356 6.81918E-03-5.51947E-04-3.18087E-14
 -1       357 7.10766E-03-5.50743E-04-3.44283E-14
 -1       358 7.39675E-03-5.50729E-04-3.71393E-14
 -1       359 7.68638E-03-5.52431E-04-3.99355E-14
 -1       360 7.97637E-03-5.56390E-04-4.28157E-14
 -1       361 8.26638E-03-5.63023E-04-4.57775E-14
 -1       362 8.55581E-03-5.72388E-04-4.88177E-14
 -1       363 8.84386E-03-5.83858E-04-5.19278E-14
 -1       364 9.12943E-03-5.95723E-04-5.51006E-14
 -1       365 9.41130E-03-6.04815E-04-5.83373E-14
 -1       366 9.68836E-03-6.06338E-04-6.16307E-14
 -1       367 9.95997E-03-5.94122E-04-6.49839E-14
 -1       368 1.02264E-02-5.61461E-04-6.83929E-14
 -1       369 1.04889E-02-5.02489E-04-7.18538E-14
 -1       370 1.07498E-02-4.13688E-04-7.53689E-14
 -1       371 1.10117E-02-2.94896E-04-7.89243E-14
 -1       372 1.12771E-02-1.49337E-04-8.25299E-14
 -1       373 1.15472E-02 1.73547E-05-8.61892E-14
 -1       374 1.18224E-02 1.98656E-04-8.99020E-14
 -1       375 1.21020E-02 3.88566E-04-9.36547E-14
 -1       376 1.23848E-02 5.82496E-04-9.74357E-14
 -1       377 1.26697E-02 7.77547E-04-1.01247E-13
 -1       378 1.29556E-02 9.72321E-04-1.05085E-13
 -1       379 1.32418E-02 1.16648E-03-1.08947E-13
 -1       380 1.34906E-02 1.33672E-03-1.12418E-13
 -1       381 1.13570E-03 4.23791E-04-8.76550E-16
 -1       382 8.49119E-04 3.53829E-04-4.75362E-16
 -1       383 1.41866E-03 4.73925E-04-1.40284E-15
 -1       384 1.69949E-03 5.09409E-04-2.05457E-15
 -1       385 1.97933E-03 5.34082E-04-2.83078E-15
 -1       386 2.25896E-03 5.50817E-04-3.73080E-15
 -1       387 2.53886E-03 5.61761E-04-4.75255E-15
 -1       388 2.81931E-03 5.68530E-04-5.89785E-15
 -1       389 3.10041E-03 5.72333E-04-7.16530E-15
 -1       390 3.38222E-03 5.74064E-04-8.55197E-15
 -1       391 3.65056E-03 5.74385E-04-9.97718E-15
 -1       392 3.93364E-03 5.73773E-04-1.15905E-14
 -1       393 4.21728E-03 5.72497E-04-1.33220E-14
 -1       394 4.50144E-03 5.70759E-04-1.51682E-14
 -1       395 4.78605E-03 5.68666E-04-1.71253E-14
 -1       396 5.07110E-03 5.66258E-04-1.91947E-14
 -1       397 5.35658E-03 5.63518E-04-2.13678E-14
 -1       398 5.64253E-03 5.60384E-04-2.36398E-14
 -1       399 5.92900E-03 5.56758E-04-2.60097E-14
 -1       400 6.21611E-03 5.52513E-04-2.84741E-14
 -1       401 6.50404E-03 5.47503E-04-3.10293E-14
 -1       402 6.79301E-03 5.41576E-04-3.36741E-14
 -1       403 7.08335E-03 5.34608E-04-3.64029E-14
 -1       404 7.37544E-03 5.26566E-04-3.92177E-14
 -1       405 7.65500E-03 5.18107E-04-4.19576E-14
 -1       406 7.95200E-03 5.08978E-04-4.49125E-14
 -1       407 8.25240E-03 5.01255E-04-4.79413E-14
 -1       408 8.55690E-03 4.98518E-04-5.10406E-14
 -1       409 8.86646E-03 5.07960E-04-5.42004E-14
 -1       410 9.18325E-03 5.43181E-04-5.74139E-14
 -1       411 9.51298E-03 6.28246E-04-6.06671E-14
 -1       412 9.87003E-03 8.02256E-04-6.39601E-14
 -1       413 1.02778E-02 1.11930E-03-6.72998E-14
 -1       414 1.27158E-02 2.03443E-03-8.21590E-14
 -1       415 1.32203E-02 1.69925E-03-8.55852E-14
 -1       416 1.36522E-02 1.52061E-03-8.92426E-14
 -1       417 1.40283E-02 1.49503E-03-9.29374E-14
 -1       418 1.43711E-02 1.57050E-03-9.66542E-14
 -1       419 1.46953E-02 1.70328E-03-1.00394E-13
 -1       420 1.50080E-02 1.86467E-03-1.04158E-13
 -1       421 1.53125E-02 2.03752E-03-1.07935E-13
 -1       422 1.56102E-02 2.21169E-03-1.11720E-13
 -1       423 1.59025E-02 2.38072E-03-1.15502E-13
 -1       424 1.40964E-02 1.24199E-03-8.76043E-14
 -1       425 1.56513E-02 2.24343E-03-1.15863E-13
 -1       426 1.57822E-02 2.31019E-03-1.16023E-13
 -1       427 1.55119E-02 2.18194E-03-1.15708E-13
 -1       428 1.53546E-02 2.12047E-03-1.15532E-13
 -1       429 1.51811E-02 2.05709E-03-1.15350E-13
 -1       430 1.49943E-02 1.98965E-03-1.15163E-13
 -1       431 1.47988E-02 1.91722E-03-1.14970E-13
 -1       432 1.45995E-02 1.83999E-03-1.14773E-13
 -1       433 1.44034E-02 1.76030E-03-1.14575E-13
 -1       434 1.42064E-02 1.67666E-03-1.14371E-13
 -1       435 1.40125E-02 1.59166E-03-1.14163E-13
 -1       436 1.38215E-02 1.50630E-03-1.13952E-13
 -1       437 1.39217E-02 1.33002E-03-8.70540E-14
 -1       438 1.40737E-02 1.18265E-03-8.74714E-14
 -1       439 4.45701E-04-1.26652E-04-1.88048E-16
 -1       440 1.11802E-02 1.98125E-03-7.29056E-14
 -1       441 1.07395E-02 1.59845E-03-7.06497E-14
 -1       442 1.01476E-02 1.14061E-03-6.81569E-14
 -1       443 9.64620E-03 8.68611E-04-6.67149E-14
 -1       444 9.29574E-03 7.01437E-04-6.55351E-14
 -1       445 9.08156E-03 6.20339E-04-6.51496E-14
 -1       446 9.07814E-03 5.71845E-04-6.52603E-14
 -1       447 9.22168E-03 5.09222E-04-6.55491E-14
 -1       448 9.47731E-03 4.17602E-04-6.61405E-14
 -1       449 9.87858E-03 2.55643E-04-6.77048E-14
 -1       450 1.02281E-02 1.08095E-04-6.90981E-14
 -1       451 1.06731E-02-6.27391E-05-7.12660E-14
 -1       452 1.10109E-02-1.20719E-04-7.35918E-14
 -1       453 1.13291E-02-9.82671E-05-7.57766E-14
 -1       454 1.17559E-02 6.51047E-05-7.86195E-14
 -1       455 1.21176E-02 2.59777E-04-8.06186E-14
 -1       456 1.26430E-02 5.57851E-04-8.30292E-14
 -1       457 1.30672E-02 8.08064E-04-8.50659E-14
 -1       458 1.35766E-02 1.01851E-03-8.65576E-14
 -1       459 1.38923E-02 1.11650E-03-8.71404E-14
 -1       460 1.31975E-02 1.72015E-03-8.40551E-14
 -1       461 1.22692E-02 2.28332E-03-7.91753E-14
 -1       462 1.04535E-02-1.13144E-06-6.94984E-14
 -1       463 6.65777E-04-7.54660E-05-4.67989E-16
 -1       464 6.69767E-04-1.16190E-04-4.51452E-16
 -1       465 6.63050E-04 6.71104E-07-4.83832E-16
 -1       466 6.63738E-04 3.82587E-05-4.84923E-16
 -1       467 6.65837E-04 7.62171E-05-4.81464E-16
 -1       468 6.69870E-04 1.16998E-04-4.72648E-16
 -1       469 6.76807E-04 1.61437E-04-4.56805E-16
 -1       470 6.88604E-04 2.11584E-04-4.31197E-16
 -1       471 7.62697E-04 2.77459E-04-4.61782E-16
 -1       472 9.76428E-04-3.29000E-04-6.64511E-16
 -1       473 1.26236E-03-3.83989E-04-1.11141E-15
 -1       474 1.54740E-03-4.23848E-04-1.67628E-15
 -1       475 1.83155E-03-4.52011E-04-2.35988E-15
 -1       476 2.11511E-03-4.71380E-04-3.16086E-15
 -1       477 2.39841E-03-4.84246E-04-4.07886E-15
 -1       478 2.68168E-03-4.92379E-04-5.11374E-15
 -1       479 2.96509E-03-4.97126E-04-6.26315E-15
 -1       480 3.24874E-03-4.99496E-04-7.52863E-15
 -1       481 3.53266E-03-5.00230E-04-8.90551E-15
 -1       482 3.81688E-03-4.99863E-04-1.03895E-14
 -1       483 4.10138E-03-4.98765E-04-1.19782E-14
 -1       484 4.38615E-03-4.97187E-04-1.36689E-14
 -1       485 4.67116E-03-4.95285E-04-1.54609E-14
 -1       486 4.95642E-03-4.93151E-04-1.73530E-14
 -1       487 5.24191E-03-4.90838E-04-1.93447E-14
 -1       488 5.52764E-03-4.88377E-04-2.14353E-14
 -1       489 5.81363E-03-4.85797E-04-2.36294E-14
 -1       490 6.09993E-03-4.83154E-04-2.59226E-14
 -1       491 6.38659E-03-4.80545E-04-2.83112E-14
 -1       492 6.67371E-03-4.78135E-04-3.07967E-14
 -1       493 6.96140E-03-4.76184E-04-3.33745E-14
 -1       494 7.24979E-03-4.75060E-04-3.60415E-14
 -1       495 7.53904E-03-4.75240E-04-3.87995E-14
 -1       496 7.82929E-03-4.77291E-04-4.16388E-14
 -1       497 8.12062E-03-4.81784E-04-4.45595E-14
 -1       498 8.41298E-03-4.89146E-04-4.75597E-14
 -1       499 8.70608E-03-4.99388E-04-5.06349E-14
 -1       500 8.99927E-03-5.11724E-04-5.37728E-14
 -1       501 9.29145E-03-5.24084E-04-5.69752E-14
 -1       502 9.58119E-03-5.32653E-04-6.02382E-14
 -1       503 9.86701E-03-5.31677E-04-6.35575E-14
 -1       504 1.01480E-02-5.13875E-04-6.69344E-14
 -1       505 1.04244E-02-4.71699E-04-7.03681E-14
 -1       506 1.06978E-02-3.99268E-04-7.38555E-14
 -1       507 1.09711E-02-2.94234E-04-7.73874E-14
 -1       508 1.12469E-02-1.58587E-04-8.09638E-14
 -1       509 1.15271E-02 2.06860E-06-8.45880E-14
 -1       510 1.18118E-02 1.80358E-04-8.82729E-14
 -1       511 1.21002E-02 3.69125E-04-9.20024E-14
 -1       512 1.23908E-02 5.62761E-04-9.57632E-14
 -1       513 1.26821E-02 7.57675E-04-9.95511E-14
 -1       514 1.29729E-02 9.52109E-04-1.03368E-13
 -1       515 1.32625E-02 1.14564E-03-1.07212E-13
 -1       516 1.04848E-03 3.46249E-04-8.53785E-16
 -1       517 1.81744E-03 4.50998E-04-2.52735E-15
 -1       518 2.10102E-03 4.70757E-04-3.37167E-15
 -1       519 2.38432E-03 4.83915E-04-4.33555E-15
 -1       520 2.66758E-03 4.92264E-04-5.42050E-15
 -1       521 2.95099E-03 4.97168E-04-6.62644E-15
 -1       522 3.23463E-03 4.99649E-04-7.95036E-15
 -1       523 3.50434E-03 5.00451E-04-9.31654E-15
 -1       524 3.78854E-03 5.00179E-04-1.08670E-14
 -1       525 4.07302E-03 4.99133E-04-1.25348E-14
 -1       526 4.35778E-03 4.97562E-04-1.43159E-14
 -1       527 4.64280E-03 4.95613E-04-1.62089E-14
 -1       528 4.92807E-03 4.93354E-04-1.82115E-14
 -1       529 5.21358E-03 4.90795E-04-2.03221E-14
 -1       530 5.49934E-03 4.87896E-04-2.25345E-14
 -1       531 5.78536E-03 4.84583E-04-2.48452E-14
 -1       532 6.07166E-03 4.80754E-04-2.72516E-14
 -1       533 6.35825E-03 4.76294E-04-2.97510E-14
 -1       534 6.64514E-03 4.71088E-04-3.23387E-14
 -1       535 6.93227E-03 4.65050E-04-3.50121E-14
 -1       536 7.21952E-03 4.58180E-04-3.77730E-14
 -1       537 7.49224E-03 4.51044E-04-4.04701E-14
 -1       538 7.77858E-03 4.43409E-04-4.33757E-14
 -1       539 8.06318E-03 4.36835E-04-4.63566E-14
 -1       540 8.34443E-03 4.33723E-04-4.94118E-14
 -1       541 8.62009E-03 4.38498E-04-5.25307E-14
 -1       542 8.88775E-03 4.58788E-04-5.57047E-14
 -1       543 9.14693E-03 5.07245E-04-5.89281E-14
 -1       544 9.40308E-03 6.05871E-04-6.21886E-14
 -1       545 1.41396E-02 1.24930E-03-8.96405E-14
 -1       546 1.36384E-02 1.46340E-03-8.72892E-14
 -1       547 1.45349E-02 1.56544E-03-9.83685E-14
 -1       548 1.48061E-02 1.71725E-03-1.02118E-13
 -1       549 1.50832E-02 1.88478E-03-1.05890E-13
 -1       550 1.53644E-02 2.05785E-03-1.09681E-13
 -1       551 1.55748E-02 2.18605E-03-1.12851E-13
 -1       552 1.40852E-02 1.29257E-03-8.95900E-14
 -1       553 1.50334E-02 1.94804E-03-1.12120E-13
 -1       554 1.40234E-02 1.21159E-03-8.91877E-14
 -1       555 1.48490E-02 1.88061E-03-1.11929E-13
 -1       556 1.46531E-02 1.80693E-03-1.11734E-13
 -1       557 1.44517E-02 1.72738E-03-1.11534E-13
 -1       558 1.42531E-02 1.64483E-03-1.11332E-13
 -1       559 1.40538E-02 1.55818E-03-1.11122E-13
 -1       560 1.38585E-02 1.47048E-03-1.10907E-13
 -1       561 1.36671E-02 1.38295E-03-1.10690E-13
 -1       562 1.39295E-02 1.34212E-03-8.87251E-14
 -1       563 1.37753E-02 1.14759E-03-8.85914E-14
 -1       564 1.53324E-03 4.22319E-04-1.80452E-15
 -1       565 1.53483E-02 2.07041E-03-1.12482E-13
 -1       566 1.14790E-02-3.77890E-05-7.73953E-14
 -1       567 9.66792E-03 3.33935E-04-6.55629E-14
 -1       568 1.54657E-02 2.12602E-03-1.12668E-13
 -1       569 1.52004E-02 2.01023E-03-1.12306E-13
 -1       570 1.42680E-02 1.44585E-03-9.46384E-14
 -1       571 1.39805E-02 1.39422E-03-9.09457E-14
 -1       572 6.63687E-04-3.68979E-05-4.78438E-16
 -1       573 1.29118E-03 3.89660E-04-1.28455E-15
 -1       574 1.08614E-02-1.29490E-04-7.22798E-14
 -1       575 9.81358E-03 8.60943E-04-6.58719E-14
 -1       576 9.46778E-03 6.98912E-04-6.46541E-14
 -1       577 9.12703E-03 5.80091E-04-6.34841E-14
 -1       578 9.03282E-03 5.52399E-04-6.35201E-14
 -1       579 9.09435E-03 5.28471E-04-6.38050E-14
 -1       580 9.29540E-03 4.62949E-04-6.41272E-14
 -1       581 1.00054E-02 1.79543E-04-6.66959E-14
 -1       582 1.27416E-02 7.16930E-04-8.52809E-14
 -1       583 1.11271E-02-1.38894E-04-7.44470E-14
 -1       584 1.18813E-02 1.90966E-04-8.05470E-14
 -1       585 1.22942E-02 4.44723E-04-8.29055E-14
 -1       586 1.33361E-02 1.00560E-03-8.76301E-14
 -1       587 7.12775E-04-2.52135E-04-3.70245E-16
 -1       588 6.76596E-04-1.60348E-04-4.26681E-16
 -1       589 1.34537E-02 1.27443E-03-1.09820E-13
 -1       590 1.06467E-02-9.48771E-05-7.04982E-14
 -1       591 6.91860E-04-2.03167E-04-4.03818E-16
 -1       592 1.30498E-02 9.12689E-04-8.78428E-14
 -1       593 9.23051E-03 5.74471E-04-6.26051E-14
 -1       594 8.99545E-04 7.34393E-05-8.31725E-16
 -1       595 8.97504E-04 2.45918E-05-8.33236E-16
 -1       596 9.11429E-04 1.77305E-04-8.04888E-16
 -1       597 9.23719E-04 2.35717E-04-7.74883E-16
 -1       598 9.83514E-04 2.88588E-04-8.18607E-16
 -1       599 1.09781E-03-2.95060E-04-9.45062E-16
 -1       600 9.03929E-04 1.23836E-04-8.22737E-16
 -1       601 1.38337E-03-3.37602E-04-1.46861E-15
 -1       602 1.66957E-03-3.68627E-04-2.10870E-15
 -1       603 1.95579E-03-3.90507E-04-2.86454E-15
 -1       604 2.24183E-03-4.05399E-04-3.73599E-15
 -1       605 2.52769E-03-4.15093E-04-4.72312E-15
 -1       606 2.81341E-03-4.21006E-04-5.82444E-15
 -1       607 3.09903E-03-4.24230E-04-7.03931E-15
 -1       608 3.38460E-03-4.25584E-04-8.36750E-15
 -1       609 3.67015E-03-4.25665E-04-9.80571E-15
 -1       610 3.95570E-03-4.24897E-04-1.13500E-14
 -1       611 4.24127E-03-4.23571E-04-1.29961E-14
 -1       612 4.52687E-03-4.21873E-04-1.47449E-14
 -1       613 4.81249E-03-4.19916E-04-1.65941E-14
 -1       614 5.09816E-03-4.17760E-04-1.85447E-14
 -1       615 5.38389E-03-4.15433E-04-2.05943E-14
 -1       616 5.66969E-03-4.12949E-04-2.27446E-14
 -1       617 5.95563E-03-4.10327E-04-2.49953E-14
 -1       618 6.24175E-03-4.07613E-04-2.73438E-14
 -1       619 6.52816E-03-4.04896E-04-2.97845E-14
 -1       620 6.81503E-03-4.02336E-04-3.23208E-14
 -1       621 7.10257E-03-4.00188E-04-3.49457E-14
 -1       622 7.39110E-03-3.98819E-04-3.76612E-14
 -1       623 7.68100E-03-3.98724E-04-4.04630E-14
 -1       624 7.97273E-03-4.00507E-04-4.33463E-14
 -1       625 8.26671E-03-4.04821E-04-4.63103E-14
 -1       626 8.56325E-03-4.12210E-04-4.93455E-14
 -1       627 8.86229E-03-4.22820E-04-5.24501E-14
 -1       628 9.16316E-03-4.35911E-04-5.56196E-14
 -1       629 9.46441E-03-4.49181E-04-5.88488E-14
 -1       630 9.76390E-03-4.58053E-04-6.21347E-14
 -1       631 1.00594E-02-4.55336E-04-6.54795E-14
 -1       632 1.03495E-02-4.31897E-04-6.88829E-14
 -1       633 1.06349E-02-3.78765E-04-7.23435E-14
 -1       634 1.09183E-02-2.90166E-04-7.58533E-14
 -1       635 1.12034E-02-1.65860E-04-7.94030E-14
 -1       636 1.14931E-02-1.12463E-05-8.30011E-14
 -1       637 1.17880E-02 1.64901E-04-8.66539E-14
 -1       638 1.20870E-02 3.53507E-04-9.03552E-14
 -1       639 1.23877E-02 5.47423E-04-9.40975E-14
 -1       640 1.26878E-02 7.42204E-04-9.78658E-14
 -1       641 1.29858E-02 9.35815E-04-1.01662E-13
 -1       642 1.32807E-02 1.12790E-03-1.05485E-13
 -1       643 2.22760E-03 4.04971E-04-3.92352E-15
 -1       644 1.43044E-02 1.62320E-03-1.08309E-13
 -1       645 1.94155E-03 3.89764E-04-3.01525E-15
 -1       646 1.48751E-02 1.74876E-03-1.03846E-13
 -1       647 2.79920E-03 4.20986E-04-6.09491E-15
 -1       648 3.08483E-03 4.24335E-04-7.35812E-15
 -1       649 3.35613E-03 4.25740E-04-8.66650E-15
 -1       650 3.64170E-03 4.25932E-04-1.01549E-14
 -1       651 3.92728E-03 4.25232E-04-1.17592E-14
 -1       652 4.21287E-03 4.23936E-04-1.34781E-14
 -1       653 4.49850E-03 4.22229E-04-1.53076E-14
 -1       654 4.78416E-03 4.20212E-04-1.72457E-14
 -1       655 5.06986E-03 4.17925E-04-1.92918E-14
 -1       656 5.35558E-03 4.15357E-04-2.14432E-14
 -1       657 5.64131E-03 4.12468E-04-2.36940E-14
 -1       658 5.92700E-03 4.09193E-04-2.60412E-14
 -1       659 6.21258E-03 4.05465E-04-2.84846E-14
 -1       660 6.49791E-03 4.01229E-04-3.10168E-14
 -1       661 6.78273E-03 3.96476E-04-3.36361E-14
 -1       662 7.06663E-03 3.91296E-04-3.63418E-14
 -1       663 7.33484E-03 3.86217E-04-3.89895E-14
 -1       664 7.61454E-03 3.81268E-04-4.18531E-14
 -1       665 7.88984E-03 3.77800E-04-4.47876E-14
 -1       666 8.15813E-03 3.77736E-04-4.77960E-14
 -1       667 8.41570E-03 3.84217E-04-5.08736E-14
 -1       668 8.65742E-03 4.01975E-04-5.40087E-14
 -1       669 8.87700E-03 4.37596E-04-5.71958E-14
 -1       670 1.42250E-02 1.32454E-03-9.23516E-14
 -1       671 9.03787E-04-1.22633E-04-7.93944E-16
 -1       672 1.51333E-02 1.91480E-03-1.07624E-13
 -1       673 1.46329E-02 1.59248E-03-1.00082E-13
 -1       674 1.52986E-02 2.02078E-03-1.10144E-13
 -1       675 1.45100E-02 1.70479E-03-1.08511E-13
 -1       676 1.15997E-02 5.14131E-05-7.92072E-14
 -1       677 1.47079E-02 1.77803E-03-1.08708E-13
 -1       678 1.41016E-02 1.53696E-03-1.08103E-13
 -1       679 1.38988E-02 1.44579E-03-1.07890E-13
 -1       680 1.37015E-02 1.35366E-03-1.07673E-13
 -1       681 9.42204E-03 3.75011E-04-6.32820E-14
 -1       682 1.65533E-03 3.67485E-04-2.22523E-15
 -1       683 1.34746E-02 1.25546E-03-1.08080E-13
 -1       684 1.44122E-02 1.45452E-03-9.63455E-14
 -1       685 9.00418E-03 5.13780E-04-6.17258E-14
 -1       686 1.36386E-02 1.16223E-03-9.03224E-14
 -1       687 2.51347E-03 4.14900E-04-4.94975E-15
 -1       688 1.12325E-02-1.17308E-04-7.57882E-14
 -1       689 9.72488E-03 2.49765E-04-6.44339E-14
 -1       690 8.99080E-03 4.89161E-04-6.14538E-14
 -1       691 1.02072E-02 2.62021E-05-6.69801E-14
 -1       692 1.09393E-02-1.59418E-04-7.29342E-14
 -1       693 9.10777E-03 4.55717E-04-6.17726E-14
 -1       694 1.39488E-02 1.23867E-03-9.07462E-14
 -1       695 1.41285E-02 1.27570E-03-9.12013E-14
 -1       696 8.93548E-04-2.52159E-04-6.45761E-16
 -1       697 8.97484E-04-2.36771E-05-8.27663E-16
 -1       698 1.22579E-03 3.30818E-04-1.24032E-15
 -1       699 1.50493E-02 1.90048E-03-1.09093E-13
 -1       700 1.41493E-02 1.35858E-03-9.21090E-14
 -1       701 9.04278E-03 5.02871E-04-6.08515E-14
 -1       702 1.44040E-03 3.52749E-04-1.69762E-15
 -1       703 1.33918E-02 1.09013E-03-9.05373E-14
 -1       704 1.48897E-02 1.84247E-03-1.08903E-13
 -1       705 1.19250E-02 2.57506E-04-8.20697E-14
 -1       706 8.99467E-04-7.22934E-05-8.14924E-16
 -1       707 1.07399E-02-1.51615E-04-7.11422E-14
 -1       708 9.92431E-03 9.51294E-05-6.47097E-14
 -1       709 1.26795E-02 7.29267E-04-8.67892E-14
 -1       710 1.22873E-02 4.88727E-04-8.44064E-14
 -1       711 9.11214E-04-1.75995E-04-7.63187E-16
 -1       712 1.51790E-02 1.95935E-03-1.09619E-13
 -1       713 1.16436E-03 2.75155E-04-1.18653E-15
 -1       714 1.16744E-02 1.13729E-04-8.07923E-14
 -1       715 2.07062E-03 3.25881E-04-3.51720E-15
 -1       716 1.51022E-03-2.87141E-04-1.85205E-15
 -1       717 1.79730E-03-3.10206E-04-2.56321E-15
 -1       718 2.08495E-03-3.26381E-04-3.38888E-15
 -1       719 2.37273E-03-3.37242E-04-4.32894E-15
 -1       720 2.66042E-03-3.44142E-04-5.38290E-15
 -1       721 2.94790E-03-3.48168E-04-6.54944E-15
 -1       722 3.23514E-03-3.50162E-04-7.82901E-15
 -1       723 3.52213E-03-3.50755E-04-9.21915E-15
 -1       724 3.80888E-03-3.50403E-04-1.07166E-14
 -1       725 4.09541E-03-3.49424E-04-1.23194E-14
 -1       726 4.38175E-03-3.48029E-04-1.40241E-14
 -1       727 4.66792E-03-3.46350E-04-1.58314E-14
 -1       728 4.95393E-03-3.44456E-04-1.77382E-14
 -1       729 5.23981E-03-3.42378E-04-1.97485E-14
 -1       730 5.52558E-03-3.40118E-04-2.18581E-14
 -1       731 5.81127E-03-3.37670E-04-2.40667E-14
 -1       732 6.09696E-03-3.35030E-04-2.63735E-14
 -1       733 6.38274E-03-3.32216E-04-2.87741E-14
 -1       734 6.66876E-03-3.29286E-04-3.12682E-14
 -1       735 6.95529E-03-3.26359E-04-3.38541E-14
 -1       736 7.24269E-03-3.23648E-04-3.65281E-14
 -1       737 7.53150E-03-3.21490E-04-3.92905E-14
 -1       738 7.82240E-03-3.20381E-04-4.21374E-14
 -1       739 8.11626E-03-3.21001E-04-4.50628E-14
 -1       740 8.41394E-03-3.24191E-04-4.80641E-14
 -1       741 8.71615E-03-3.30836E-04-5.11324E-14
 -1       742 9.02306E-03-3.41532E-04-5.42689E-14
 -1       743 9.33382E-03-3.55921E-04-5.74667E-14
 -1       744 9.64625E-03-3.71592E-04-6.07199E-14
 -1       745 9.95697E-03-3.82804E-04-6.40294E-14
 -1       746 1.02625E-02-3.79824E-04-6.73993E-14
 -1       747 1.05614E-02-3.50234E-04-7.08320E-14
 -1       748 1.08555E-02-2.82962E-04-7.43180E-14
 -1       749 1.11494E-02-1.73265E-04-7.78446E-14
 -1       750 1.14480E-02-2.52366E-05-8.14198E-14
 -1       751 1.17535E-02 1.50325E-04-8.50446E-14
 -1       752 1.20643E-02 3.40982E-04-8.87167E-14
 -1       753 1.23771E-02 5.36911E-04-9.24375E-14
 -1       754 1.26882E-02 7.32318E-04-9.61904E-14
 -1       755 1.29952E-02 9.24978E-04-9.99631E-14
 -1       756 1.32972E-02 1.11486E-03-1.03769E-13
 -1       757 1.37411E-02 1.33993E-03-1.04685E-13
 -1       758 8.90796E-03 4.56077E-04-5.93233E-14
 -1       759 2.93360E-03 3.48224E-04-6.77637E-15
 -1       760 3.78034E-03 3.50690E-04-1.09965E-14
 -1       761 4.06693E-03 3.49757E-04-1.26530E-14
 -1       762 4.35332E-03 3.48381E-04-1.44206E-14
 -1       763 4.63954E-03 3.46692E-04-1.62970E-14
 -1       764 4.92558E-03 3.44759E-04-1.82789E-14
 -1       765 5.21145E-03 3.42602E-04-2.03667E-14
 -1       766 5.49710E-03 3.40212E-04-2.25580E-14
 -1       767 5.78248E-03 3.37566E-04-2.48455E-14
 -1       768 6.06746E-03 3.34645E-04-2.72292E-14
 -1       769 6.35184E-03 3.31454E-04-2.97087E-14
 -1       770 6.63531E-03 3.28063E-04-3.22748E-14
 -1       771 6.91735E-03 3.24650E-04-3.49265E-14
 -1       772 7.18325E-03 3.21712E-04-3.75234E-14
 -1       773 7.45986E-03 3.19578E-04-4.03384E-14
 -1       774 7.73136E-03 3.19509E-04-4.32303E-14
 -1       775 7.99518E-03 3.23260E-04-4.61934E-14
 -1       776 8.24765E-03 3.33443E-04-4.92275E-14
 -1       777 8.48377E-03 3.53722E-04-5.23257E-14
 -1       778 8.69644E-03 3.88574E-04-5.54756E-14
 -1       779 1.78299E-03 3.09387E-04-2.66359E-15
 -1       780 1.39151E-02 1.28177E-03-9.30490E-14
 -1       781 1.41601E-02 1.52718E-03-1.05106E-13
 -1       782 1.49052E-02 1.78517E-03-1.05568E-13
 -1       783 1.46696E-02 1.63166E-03-1.01796E-13
 -1       784 9.16528E-03 3.60055E-04-6.03938E-14
 -1       785 1.43731E-02 1.60989E-03-1.05309E-13
 -1       786 1.22456E-03-2.55524E-04-1.25555E-15
 -1       787 1.35406E-02 1.24177E-03-1.04465E-13
 -1       788 2.35841E-03 3.36985E-04-4.48743E-15
 -1       789 1.44598E-02 1.49120E-03-9.80500E-14
 -1       790 9.00998E-04-2.13208E-04-7.07130E-16
 -1       791 1.45748E-02 1.68017E-03-1.05508E-13
 -1       792 1.39479E-02 1.43605E-03-1.04897E-13
 -1       793 1.47528E-02 1.73856E-03-1.05703E-13
 -1       794 2.64610E-03 3.44066E-04-5.57310E-15
 -1       795 1.13291E-02-7.25656E-05-7.73520E-14
 -1       796 1.30334E-02 9.34279E-04-8.98434E-14
 -1       797 9.40488E-03 2.78720E-04-6.15268E-14
 -1       798 3.20651E-03 3.50246E-04-8.02656E-15
 -1       799 1.09719E-02-1.79387E-04-7.36018E-14
 -1       800 3.49354E-03 3.50962E-04-9.45378E-15
 -1       801 1.42571E-02 1.35737E-03-9.39872E-14
 -1       802 1.03346E-02-7.20876E-05-6.76071E-14
 -1       803 1.13801E-03 5.83336E-05-1.27054E-15
 -1       804 8.94675E-03 4.27400E-04-5.95942E-14
 -1       805 1.41289E-02 1.32938E-03-9.35319E-14
 -1       806 1.37156E-02 1.23482E-03-9.32666E-14
 -1       807 1.20027E-02 3.22072E-04-8.38634E-14
 -1       808 1.14937E-03 1.78045E-04-1.24623E-15
 -1       809 9.58085E-03 1.45344E-04-6.17938E-14
 -1       810 1.14207E-03 1.17130E-04-1.26404E-15
 -1       811 1.49599E-03 2.85944E-04-1.92634E-15
 -1       812 1.14194E-03-1.15745E-04-1.23056E-15
 -1       813 1.07884E-02-1.97874E-04-7.17990E-14
 -1       814 1.00636E-02-1.04253E-05-6.53243E-14
 -1       815 1.24815E-02 6.24776E-04-8.71328E-14
 -1       816 1.14920E-03-1.76638E-04-1.19517E-15
 -1       817 1.13670E-03 5.44152E-07-1.26741E-15
 -1       818 1.43482E-02 1.45889E-03-9.75962E-14
 -1       819 1.39037E-03 1.66457E-04-1.77786E-15
 -1       820 1.45146E-02 1.59368E-03-1.01923E-13
 -1       821 8.71841E-03 3.49642E-04-5.57500E-14
 -1       822 1.92946E-03-2.48545E-04-3.04063E-15
 -1       823 2.21823E-03-2.59723E-04-3.93378E-15
 -1       824 2.50728E-03-2.67094E-04-4.94040E-15
 -1       825 2.79626E-03-2.71632E-04-6.05848E-15
 -1       826 3.08498E-03-2.74125E-04-7.28982E-15
 -1       827 3.37334E-03-2.75183E-04-8.63183E-15
 -1       828 3.66130E-03-2.75258E-04-1.00816E-14
 -1       829 3.94887E-03-2.74675E-04-1.16394E-14
 -1       830 4.23605E-03-2.73654E-04-1.33008E-14
 -1       831 4.52286E-03-2.72336E-04-1.50646E-14
 -1       832 4.80935E-03-2.70798E-04-1.69304E-14
 -1       833 5.09552E-03-2.69074E-04-1.88973E-14
 -1       834 5.38140E-03-2.67162E-04-2.09670E-14
 -1       835 5.66701E-03-2.65039E-04-2.31354E-14
 -1       836 5.95242E-03-2.62666E-04-2.54009E-14
 -1       837 6.23767E-03-2.60002E-04-2.77624E-14
 -1       838 6.52291E-03-2.57014E-04-3.02164E-14
 -1       839 6.80834E-03-2.53690E-04-3.27656E-14
 -1       840 7.09434E-03-2.50069E-04-3.54001E-14
 -1       841 7.38143E-03-2.46275E-04-3.81203E-14
 -1       842 7.67039E-03-2.42580E-04-4.09310E-14
 -1       843 7.96231E-03-2.39477E-04-4.38208E-14
 -1       844 8.25850E-03-2.37782E-04-4.67862E-14
 -1       845 8.56042E-03-2.38710E-04-4.98223E-14
 -1       846 8.86936E-03-2.43826E-04-5.29250E-14
 -1       847 9.18581E-03-2.54694E-04-5.60889E-14
 -1       848 9.50866E-03-2.71842E-04-5.93125E-14
 -1       849 9.83456E-03-2.92846E-04-6.25889E-14
 -1       850 1.01582E-02-3.09844E-04-6.59237E-14
 -1       851 1.04745E-02-3.08318E-04-6.93206E-14
 -1       852 1.07824E-02-2.70079E-04-7.27785E-14
 -1       853 1.10864E-02-1.81826E-04-7.62856E-14
 -1       854 1.13939E-02-4.30508E-05-7.98414E-14
 -1       855 1.17101E-02 1.33527E-04-8.34448E-14
 -1       856 1.20343E-02 3.29765E-04-8.70922E-14
 -1       857 1.23612E-02 5.30989E-04-9.07878E-14
 -1       858 1.26854E-02 7.28824E-04-9.45211E-14
 -1       859 1.30033E-02 9.20893E-04-9.82768E-14
 -1       860 1.32742E-02 1.08295E-03-1.01360E-13
 -1       861 2.20383E-03 2.59436E-04-4.03345E-15
 -1       862 1.62721E-03 2.31644E-04-2.31956E-15
 -1       863 4.20751E-03 2.73977E-04-1.35478E-14
 -1       864 1.17501E-02 1.64111E-04-8.25724E-14
 -1       865 3.92027E-03 2.74963E-04-1.18409E-14
 -1       866 4.78093E-03 2.71165E-04-1.72832E-14
 -1       867 5.06710E-03 2.69473E-04-1.93070E-14
 -1       868 5.35289E-03 2.67625E-04-2.14352E-14
 -1       869 5.63822E-03 2.65632E-04-2.36636E-14
 -1       870 5.92299E-03 2.63512E-04-2.59899E-14
 -1       871 6.20699E-03 2.61322E-04-2.84108E-14
 -1       872 6.48991E-03 2.59183E-04-3.09247E-14
 -1       873 6.77128E-03 2.57334E-04-3.35235E-14
 -1       874 7.03652E-03 2.56223E-04-3.60732E-14
 -1       875 7.31259E-03 2.56404E-04-3.88366E-14
 -1       876 7.58405E-03 2.59029E-04-4.16816E-14
 -1       877 7.84892E-03 2.65720E-04-4.46016E-14
 -1       878 8.10451E-03 2.78777E-04-4.75927E-14
 -1       879 8.34716E-03 3.01268E-04-5.06509E-14
 -1       880 8.53536E-03 3.19674E-04-5.31846E-14
 -1       881 1.91510E-03 2.48029E-04-3.11903E-15
 -1       882 1.41811E-02 1.41603E-03-9.71132E-14
 -1       883 1.28786E-02 8.57516E-04-9.10290E-14
 -1       884 1.13795E-03-5.71115E-05-1.25418E-15
 -1       885 3.06341E-03 2.74192E-04-7.43140E-15
 -1       886 2.77465E-03 2.71562E-04-6.17477E-15
 -1       887 1.64154E-03-2.32439E-04-2.26077E-15
 -1       888 1.10598E-02-1.74191E-04-7.51193E-14
 -1       889 1.40222E-02 1.43945E-03-1.01929E-13
 -1       890 1.04233E-02-1.70403E-04-6.82412E-14
 -1       891 4.49440E-03 2.72682E-04-1.53620E-14
 -1       892 3.35181E-03 2.75345E-04-8.80147E-15
 -1       893 1.38387E-03 9.91547E-05-1.79226E-15
 -1       894 1.14199E-02-2.42560E-05-7.91118E-14
 -1       895 1.34043E-02 1.12059E-03-9.28739E-14
 -1       896 9.14441E-03 2.61194E-04-5.88032E-14
 -1       897 2.48927E-03 2.66908E-04-5.04860E-15
 -1       898 3.63623E-03 2.75488E-04-1.02651E-14
 -1       899 1.39413E-03-2.06388E-04-1.68679E-15
 -1       900 8.89870E-03 3.24739E-04-5.72782E-14
 -1       901 1.34730E-02 1.18724E-03-1.01583E-13
 -1       902 1.42469E-02 1.52162E-03-1.02134E-13
 -1       903 1.23005E-02 5.10472E-04-8.73253E-14
 -1       904 9.28968E-03 1.50949E-04-5.90623E-14
 -1       905 1.40337E-02 1.38495E-03-9.73350E-14
 -1       906 1.37976E-02 1.34389E-03-1.01720E-13
 -1       907 1.32396E-02 1.05046E-03-9.40701E-14
 -1       908 1.38375E-03-9.77541E-05-1.75854E-15
 -1       909 1.38076E-03 3.31991E-05-1.79363E-15
 -1       910 1.01752E-02-1.29740E-04-6.59458E-14
 -1       911 1.36314E-02 1.26616E-03-1.01652E-13
 -1       912 9.72054E-03 4.77022E-05-6.23966E-14
 -1       913 1.38773E-03-1.51386E-04-1.72746E-15
 -1       914 2.06541E-03-1.83679E-04-3.53906E-15
 -1       915 1.38074E-03-3.20339E-05-1.78245E-15
 -1       916 1.31981E-02 1.03073E-03-9.85002E-14
 -1       917 1.07451E-02-2.33464E-04-7.17104E-14
 -1       918 2.35508E-03-1.90660E-04-4.49748E-15
 -1       919 2.64503E-03-1.95150E-04-5.56805E-15
 -1       920 2.93489E-03-1.97800E-04-6.74998E-15
 -1       921 3.22441E-03-1.99132E-04-8.04355E-15
 -1       922 3.51347E-03-1.99547E-04-9.44606E-15
 -1       923 3.80202E-03-1.99337E-04-1.09571E-14
 -1       924 4.09004E-03-1.98710E-04-1.25745E-14
 -1       925 4.37756E-03-1.97799E-04-1.42951E-14
 -1       926 4.66459E-03-1.96683E-04-1.61182E-14
 -1       927 4.95115E-03-1.95395E-04-1.80430E-14
 -1       928 5.23727E-03-1.93934E-04-2.00713E-14
 -1       929 5.52296E-03-1.92269E-04-2.22005E-14
 -1       930 5.80824E-03-1.90341E-04-2.44252E-14
 -1       931 6.09315E-03-1.88072E-04-2.67466E-14
 -1       932 6.37776E-03-1.85359E-04-2.91637E-14
 -1       933 6.66221E-03-1.82089E-04-3.16752E-14
 -1       934 6.94675E-03-1.78142E-04-3.42734E-14
 -1       935 7.23183E-03-1.73423E-04-3.69568E-14
 -1       936 7.51813E-03-1.67915E-04-3.97281E-14
 -1       937 7.80670E-03-1.61773E-04-4.25816E-14
 -1       938 8.09902E-03-1.55477E-04-4.55120E-14
 -1       939 8.39703E-03-1.50056E-04-4.85151E-14
 -1       940 8.70300E-03-1.47335E-04-5.15847E-14
 -1       941 9.01913E-03-1.50095E-04-5.47175E-14
 -1       942 9.34658E-03-1.61625E-04-5.79096E-14
 -1       943 9.68409E-03-1.84250E-04-6.11577E-14
 -1       944 1.00265E-02-2.15571E-04-6.44590E-14
 -1       945 1.03656E-02-2.43473E-04-6.78176E-14
 -1       946 1.23435E-02 5.28877E-04-8.91432E-14
 -1       947 1.26834E-02 7.32243E-04-9.28567E-14
 -1       948 1.29437E-02 8.84478E-04-9.56716E-14
 -1       949 5.20875E-03 1.94563E-04-2.03291E-14
 -1       950 4.92267E-03 1.95855E-04-1.82646E-14
 -1       951 5.77912E-03 1.91841E-04-2.47643E-14
 -1       952 6.06314E-03 1.90540E-04-2.71286E-14
 -1       953 6.34610E-03 1.89456E-04-2.95858E-14
 -1       954 6.62761E-03 1.88849E-04-3.21335E-14
 -1       955 6.89325E-03 1.89097E-04-3.46334E-14
 -1       956 7.17028E-03 1.90860E-04-3.73474E-14
 -1       957 7.44372E-03 1.95128E-04-4.01440E-14
 -1       958 7.71235E-03 2.03305E-04-4.30195E-14
 -1       959 7.97466E-03 2.17300E-04-4.59680E-14
 -1       960 8.22880E-03 2.39504E-04-4.89842E-14
 -1       961 2.91321E-03 1.97840E-04-6.81436E-15
 -1       962 1.66188E-03 1.58342E-04-2.46339E-15
 -1       963 1.77663E-03-1.73456E-04-2.69314E-15
 -1       964 1.26800E-02 7.36851E-04-9.13956E-14
 -1       965 3.20278E-03 1.99260E-04-8.12418E-15
 -1       966 1.37767E-02 1.29823E-03-9.69392E-14
 -1       967 5.49426E-03 1.93209E-04-2.24970E-14
 -1       968 4.06139E-03 1.98990E-04-1.26867E-14
 -1       969 1.62888E-03-7.09188E-05-2.37479E-15
 -1       970 9.41860E-03 6.74194E-05-5.96540E-14
 -1       971 4.34898E-03 1.98116E-04-1.44419E-14
 -1       972 1.20453E-02 3.44138E-04-8.60938E-14
 -1       973 1.65617E-03 8.49860E-05-2.47391E-15
 -1       974 1.58159E-03-1.63419E-04-2.18449E-15
 -1       975 4.63607E-03 1.97052E-04-1.63018E-14
 -1       976 2.62696E-03 1.95109E-04-5.63242E-15
 -1       977 8.43713E-03 2.52601E-04-5.14850E-14
 -1       978 8.64869E-03 2.72873E-04-5.40215E-14
 -1       979 2.05096E-03 1.83436E-04-3.58932E-15
 -1       980 8.97323E-03 1.72817E-04-5.62147E-14
 -1       981 1.33561E-02 1.11598E-03-9.85718E-14
 -1       982 3.48828E-03 1.99733E-04-9.52900E-15
 -1       983 3.77509E-03 1.99574E-04-1.10528E-14
 -1       984 9.84905E-03-7.84173E-05-6.30032E-14
 -1       985 2.33882E-03 1.90518E-04-4.55494E-15
 -1       986 1.35249E-02 1.19857E-03-9.78817E-14
 -1       987 2.20471E-03-1.15775E-04-4.05820E-15
 -1       988 1.62727E-03 6.31487E-07-2.39681E-15
 -1       989 2.49507E-03-1.19400E-04-5.07909E-15
 -1       990 2.78562E-03-1.21656E-04-6.21091E-15
 -1       991 3.07598E-03-1.22911E-04-7.45484E-15
 -1       992 3.36591E-03-1.23455E-04-8.80998E-15
 -1       993 3.65529E-03-1.23510E-04-1.02735E-14
 -1       994 3.94408E-03-1.23230E-04-1.18450E-14
 -1       995 4.23226E-03-1.22724E-04-1.35224E-14
 -1       996 4.51985E-03-1.22056E-04-1.53023E-14
 -1       997 4.80686E-03-1.21251E-04-1.71857E-14
 -1       998 5.09331E-03-1.20308E-04-1.91713E-14
 -1       999 5.37920E-03-1.19195E-04-2.12608E-14
 -1      1000 5.66453E-03-1.17849E-04-2.34462E-14
 -1      1001 5.94931E-03-1.16176E-04-2.57275E-14
 -1      1002 6.23354E-03-1.14040E-04-2.81058E-14
 -1      1003 6.51725E-03-1.11260E-04-3.05803E-14
 -1      1004 6.80058E-03-1.07607E-04-3.31443E-14
 -1      1005 7.08376E-03-1.02809E-04-3.57928E-14
 -1      1006 7.36725E-03-9.65778E-05-3.85262E-14
 -1      1007 7.65185E-03-8.86803E-05-4.13455E-14
 -1      1008 7.93881E-03-7.90840E-05-4.42426E-14
 -1      1009 8.23005E-03-6.82070E-05-4.72112E-14
 -1      1010 8.52821E-03-5.73759E-05-5.02469E-14
 -1      1011 8.83693E-03-4.91216E-05-5.33501E-14
 -1      1012 9.15955E-03-4.84169E-05-5.65103E-14
 -1      1013 9.49905E-03-6.15392E-05-5.97318E-14
 -1      1014 6.48552E-03 1.19027E-04-3.07563E-14
 -1      1015 6.20340E-03 1.18719E-04-2.82619E-14
 -1      1016 5.92006E-03 1.18959E-04-2.58609E-14
 -1      1017 6.75208E-03 1.20174E-04-3.32063E-14
 -1      1018 7.03075E-03 1.22830E-04-3.58713E-14
 -1      1019 7.30692E-03 1.27776E-04-3.86188E-14
 -1      1020 7.58003E-03 1.36136E-04-4.14454E-14
 -1      1021 7.84950E-03 1.49358E-04-4.43522E-14
 -1      1022 8.11496E-03 1.69109E-04-4.73278E-14
 -1      1023 9.10534E-03 5.80175E-05-5.65889E-14
 -1      1024 3.05425E-03 1.23028E-04-7.46127E-15
 -1      1025 1.91514E-03-1.10345E-04-3.14814E-15
 -1      1026 1.29730E-02 9.06786E-04-9.35695E-14
 -1      1027 2.04477E-03 1.03713E-04-3.60263E-15
 -1      1028 5.06475E-03 1.20937E-04-1.92416E-14
 -1      1029 5.35058E-03 1.20190E-04-2.13482E-14
 -1      1030 5.63572E-03 1.19500E-04-2.35547E-14
 -1      1031 1.29554E-02 8.93569E-04-9.46198E-14
 -1      1032 8.61953E-03 1.66779E-04-5.26567E-14
 -1      1033 1.32370E-02 1.05044E-03-9.62515E-14
 -1      1034 1.87684E-03-3.74520E-05-3.07789E-15
 -1      1035 1.31576E-02 1.00703E-03-9.65935E-14
 -1      1036 8.72839E-03 7.50983E-05-5.30246E-14
 -1      1037 4.77828E-03 1.21682E-04-1.72368E-14
 -1      1038 2.76750E-03 1.21728E-04-6.22644E-15
 -1      1039 8.33854E-03 1.75284E-04-4.97926E-14
 -1      1040 3.91621E-03 1.23463E-04-1.18472E-14
 -1      1041 3.34061E-03 1.23615E-04-8.80623E-15
 -1      1042 4.20446E-03 1.22995E-04-1.35402E-14
 -1      1043 2.34706E-03-4.51225E-05-4.59428E-15
 -1      1044 2.63785E-03-4.62497E-05-5.67558E-15
 -1      1045 2.92867E-03-4.69298E-05-6.86913E-15
 -1      1046 3.21917E-03-4.72679E-05-8.17432E-15
 -1      1047 3.50916E-03-4.73802E-05-9.59017E-15
 -1      1048 3.79854E-03-4.73252E-05-1.11139E-14
 -1      1049 4.08727E-03-4.71605E-05-1.27462E-14
 -1      1050 4.37535E-03-4.69176E-05-1.44835E-14
 -1      1051 4.66279E-03-4.65983E-05-1.63249E-14
 -1      1052 4.94960E-03-4.61965E-05-1.82679E-14
 -1      1053 5.23577E-03-4.56822E-05-2.03147E-14
 -1      1054 5.52131E-03-4.49978E-05-2.24619E-14
 -1      1055 5.80616E-03-4.40523E-05-2.47044E-14
 -1      1056 6.09029E-03-4.27082E-05-2.70434E-14
 -1      1057 6.37364E-03-4.07656E-05-2.94799E-14
 -1      1058 6.65620E-03-3.79461E-05-3.20081E-14
 -1      1059 6.93799E-03-3.38763E-05-3.46257E-14
 -1      1060 7.21916E-03-2.80821E-05-3.73235E-14
 -1      1061 7.50009E-03-2.00141E-05-4.01048E-14
 -1      1062 7.78152E-03-9.12748E-06-4.29693E-14
 -1      1063 8.06480E-03 4.90655E-06-4.59075E-14
 -1      1064 8.35225E-03 2.19353E-05-4.89126E-14
 -1      1065 6.34431E-03 4.79168E-05-2.93912E-14
 -1      1066 6.89241E-03 5.26352E-05-3.44053E-14
 -1      1067 6.61901E-03 4.96605E-05-3.18562E-14
 -1      1068 6.06139E-03 4.69642E-05-2.69529E-14
 -1      1069 7.17128E-03 5.75752E-05-3.71028E-14
 -1      1070 7.44846E-03 6.52505E-05-3.98815E-14
 -1      1071 7.72404E-03 7.66756E-05-4.27414E-14
 -1      1072 7.99847E-03 9.29622E-05-4.56774E-14
 -1      1073 4.49167E-03 1.22380E-04-1.53380E-14
 -1      1074 2.11156E-03-4.14369E-05-3.79991E-15
 -1      1075 5.49271E-03 4.64473E-05-2.23628E-14
 -1      1076 3.62916E-03 1.23708E-04-1.02749E-14
 -1      1077 5.20719E-03 4.65350E-05-2.02151E-14
 -1      1078 2.47875E-03 1.19407E-04-5.09414E-15
 -1      1079 5.77748E-03 4.65447E-05-2.46088E-14
 -1      1080 1.95937E-03 3.19658E-05-3.34226E-15
 -1      1081 2.27861E-03 4.02871E-05-4.38091E-15
 -1      1082 4.92097E-03 4.67203E-05-1.81693E-14
 -1      1083 2.90869E-03 4.70671E-05-6.82019E-15
 -1      1084 8.30879E-03 1.25443E-04-4.91248E-14
 -1      1085 3.77146E-03 4.75222E-05-1.10224E-14
 -1      1086 3.19560E-03 4.74336E-05-8.10665E-15
 -1      1087 4.06026E-03 4.73825E-05-1.26535E-14
 -1      1088 2.49215E-03 2.78409E-05-5.14670E-15
 -1      1089 4.51910E-03 2.85494E-05-1.54620E-14
 -1      1090 3.48383E-03 4.75550E-05-9.51016E-15
 -1      1091 0.00000E+00 0.00000E+00 0.00000E+00
 -1      1092 0.00000E+00 0.00000E+00 0.00000E+00
 -1      1093 0.00000E+00 0.00000E+00 0.00000E+00
 -1      1094 0.00000E+00 0.00000E+00 0.00000E+00
 -1      1095 0.00000E+00 0.00000E+00 0.00000E+00
 -1      1096 0.00000E+00 0.00000E+00 0.00000E+00
 -1      1097 0.00000E+00 0.00000E+00 0.00000E+00
 -1      1098 0.00000E+00 0.00000E+00 0.00000E+00
 -1      1099 0.00000E+00 0.00000E+00 0.00000E+00
 -1      1100 0.00000E+00 0.00000E+00 0.00000E+00
 -1      1101 0.00000E+00 0.00000E+00 0.00000E+00
 -1      1102 0.00000E+00 0.00000E+00 0.00000E+00
 -1      1103 0.00000E+00 0.00000E+00 0.00000E+00
 -1      1104 0.00000E+00 0.00000E+00 0.00000E+00
 -1      1105 0.00000E+00 0.00000E+00 0.00000E+00
 -1      1106 0.00000E+00 0.00000E+00 0.00000E+00
 -1      1107 0.00000E+00 0.00000E+00 0.00000E+00
 -1      1108 2.11744E-04-1.48387E-04 2.75794E-17
 -1      1109 5.51833E-04-3.37675E-04 1.00560E-17
 -1      1110 8.33739E-04-4.59277E-04-1.17473E-16
 -1      1111 1.10339E-03-5.41068E-04-3.74551E-16
 -1      1112 1.36886E-03-5.98424E-04-7.59321E-16
 -1      1113 1.63374E-03-6.39243E-04-1.27063E-15
 -1      1114 1.89986E-03-6.68172E-04-1.90657E-15
 -1      1115 2.16808E-03-6.88331E-04-2.66494E-15
 -1      1116 2.43870E-03-7.02010E-04-3.54724E-15
 -1      1117 2.71172E-03-7.10935E-04-4.55296E-15
 -1      1118 2.98697E-03-7.16416E-04-5.68034E-15
 -1      1119 3.26422E-03-7.19440E-04-6.92523E-15
 -1      1120 3.54320E-03-7.20741E-04-8.28133E-15
 -1      1121 3.82365E-03-7.20853E-04-9.74814E-15
 -1      1122 4.10531E-03-7.20156E-04-1.13191E-14
 -1      1123 4.38799E-03-7.18912E-04-1.29904E-14
 -1      1124 4.67152E-03-7.17292E-04-1.47603E-14
 -1      1125 4.95577E-03-7.15410E-04-1.66292E-14
 -1      1126 5.24068E-03-7.13336E-04-1.86005E-14
 -1      1127 5.52621E-03-7.11124E-04-2.06744E-14
 -1      1128 5.81237E-03-7.08830E-04-2.28521E-14
 -1      1129 6.09922E-03-7.06534E-04-2.51293E-14
 -1      1130 6.38683E-03-7.04363E-04-2.75004E-14
 -1      1131 6.67528E-03-7.02511E-04-2.99726E-14
 -1      1132 6.96461E-03-7.01256E-04-3.25444E-14
 -1      1133 7.25476E-03-7.00970E-04-3.52053E-14
 -1      1134 7.54556E-03-7.02101E-04-3.79524E-14
 -1      1135 7.83654E-03-7.05121E-04-4.07861E-14
 -1      1136 8.12691E-03-7.10416E-04-4.37115E-14
 -1      1137 8.41547E-03-7.18102E-04-4.67199E-14
 -1      1138 8.70053E-03-7.27747E-04-4.97974E-14
 -1      1139 8.98003E-03-7.38036E-04-5.29449E-14
 -1      1140 9.25175E-03-7.46446E-04-5.61574E-14
 -1      1141 9.51372E-03-7.49049E-04-5.94314E-14
 -1      1142 9.76481E-03-7.40627E-04-6.27660E-14
 -1      1143 1.00053E-02-7.15241E-04-6.61550E-14
 -1      1144 1.02370E-02-6.67231E-04-6.95926E-14
 -1      1145 1.04638E-02-5.92443E-04-7.30839E-14
 -1      1146 1.06900E-02-4.89258E-04-7.66242E-14
 -1      1147 1.09204E-02-3.59007E-04-8.02122E-14
 -1      1148 1.11586E-02-2.05587E-04-8.38554E-14
 -1      1149 1.14067E-02-3.44422E-05-8.75533E-14
 -1      1150 1.16648E-02 1.48675E-04-9.13001E-14
 -1      1151 1.19320E-02 3.38750E-04-9.50882E-14
 -1      1152 1.22063E-02 5.32091E-04-9.89058E-14
 -1      1153 1.24855E-02 7.26447E-04-1.02741E-13
 -1      1154 1.27679E-02 9.20767E-04-1.06602E-13
 -1      1155 1.30520E-02 1.11477E-03-1.10488E-13
 -1      1156 1.33371E-02 1.30846E-03-1.14393E-13
 -1      1157 1.36155E-02 1.49698E-03-1.18225E-13
 -1      1158 2.03111E-04 1.43185E-04 1.69678E-17
 -1      1159 5.37286E-04 3.30610E-04-2.39202E-17
 -1      1160 8.20136E-04 4.54507E-04-1.84491E-16
 -1      1161 1.09013E-03 5.37786E-04-4.85140E-16
 -1      1162 1.35571E-03 5.96137E-04-9.18766E-16
 -1      1163 1.62056E-03 6.37666E-04-1.48488E-15
 -1      1164 1.88660E-03 6.67118E-04-2.18270E-15
 -1      1165 2.15471E-03 6.87669E-04-3.00999E-15
 -1      1166 2.42520E-03 7.01639E-04-3.96239E-15
 -1      1167 2.69810E-03 7.10782E-04-5.04364E-15
 -1      1168 2.97324E-03 7.16423E-04-6.25263E-15
 -1      1169 3.25038E-03 7.19564E-04-7.58440E-15
 -1      1170 3.52926E-03 7.20947E-04-9.03718E-15
 -1      1171 3.80257E-03 7.21119E-04-1.05673E-14
 -1      1172 4.07705E-03 7.20486E-04-1.22153E-14
 -1      1173 4.35956E-03 7.19251E-04-1.40227E-14
 -1      1174 4.64291E-03 7.17583E-04-1.59444E-14
 -1      1175 4.92696E-03 7.15565E-04-1.79816E-14
 -1      1176 5.21164E-03 7.13223E-04-2.01242E-14
 -1      1177 5.49693E-03 7.10535E-04-2.23682E-14
 -1      1178 5.78289E-03 7.07440E-04-2.47109E-14
 -1      1179 6.06967E-03 7.03852E-04-2.71503E-14
 -1      1180 6.35754E-03 6.99663E-04-2.96821E-14
 -1      1181 6.64696E-03 6.94762E-04-3.23065E-14
 -1      1182 6.93864E-03 6.89049E-04-3.50175E-14
 -1      1183 7.23366E-03 6.82490E-04-3.78159E-14
 -1      1184 7.53371E-03 6.75203E-04-4.06959E-14
 -1      1185 7.83351E-03 6.67848E-04-4.35754E-14
 -1      1186 8.14404E-03 6.61318E-04-4.65201E-14
 -1      1187 8.47910E-03 6.58127E-04-4.96140E-14
 -1      1188 8.83881E-03 6.64146E-04-5.27694E-14
 -1      1189 9.23360E-03 6.91106E-04-5.59772E-14
 -1      1190 9.67505E-03 7.61622E-04-5.92375E-14
 -1      1191 1.01701E-02 9.14281E-04-6.25376E-14
 -1      1192 1.07065E-02 1.19938E-03-6.58788E-14
 -1      1193 1.12309E-02 1.63940E-03-6.92709E-14
 -1      1194 1.16268E-02 2.11044E-03-7.24580E-14
 -1      1195 1.18841E-02 2.44254E-03-7.55252E-14
 -1      1196 1.20825E-02 2.51311E-03-7.85516E-14
 -1      1197 1.23008E-02 2.36725E-03-8.12456E-14
 -1      1198 1.26384E-02 2.10195E-03-8.42307E-14
 -1      1199 1.31209E-02 1.83419E-03-8.76890E-14
 -1      1200 1.36431E-02 1.69768E-03-9.12646E-14
 -1      1201 1.41449E-02 1.69665E-03-9.49749E-14
 -1      1202 1.45925E-02 1.78814E-03-9.87068E-14
 -1      1203 1.49892E-02 1.92913E-03-1.02457E-13
 -1      1204 1.53458E-02 2.09264E-03-1.06227E-13
 -1      1205 1.56731E-02 2.26338E-03-1.09998E-13
 -1      1206 1.59795E-02 2.43258E-03-1.13763E-13
 -1      1207 1.62724E-02 2.59482E-03-1.17517E-13
 -1      1208 1.65514E-02 2.74463E-03-1.21174E-13
 -1      1209 1.66136E-02 2.77328E-03-1.22886E-13
 -1      1210 1.64712E-02 2.68923E-03-1.22744E-13
 -1      1211 1.63357E-02 2.61125E-03-1.22622E-13
 -1      1212 1.62022E-02 2.54304E-03-1.22504E-13
 -1      1213 1.60632E-02 2.48434E-03-1.22367E-13
 -1      1214 1.59140E-02 2.43233E-03-1.22220E-13
 -1      1215 1.57510E-02 2.38197E-03-1.22086E-13
 -1      1216 1.55732E-02 2.32846E-03-1.21931E-13
 -1      1217 1.53849E-02 2.26912E-03-1.21752E-13
 -1      1218 1.51902E-02 2.20254E-03-1.21556E-13
 -1      1219 1.49929E-02 2.12897E-03-1.21346E-13
 -1      1220 1.47978E-02 2.05049E-03-1.21166E-13
 -1      1221 1.46047E-02 1.96837E-03-1.21013E-13
 -1      1222 1.44124E-02 1.88369E-03-1.20844E-13
 -1      1223 1.42220E-02 1.79857E-03-1.20646E-13
 -1      1224 1.40325E-02 1.71379E-03-1.20434E-13
 -1      1225 1.38445E-02 1.63013E-03-1.20212E-13
 -1      1226 1.41056E-02 1.17157E-03-8.44831E-14
 -1      1227 1.40656E-02 1.33983E-03-8.41911E-14
 -1      1228 1.39048E-02 1.52118E-03-8.35476E-14
 -1      1229 1.36117E-02 1.73217E-03-8.25167E-14
 -1      1230 1.32084E-02 1.95362E-03-8.11603E-14
 -1      1231 1.27473E-02 2.14053E-03-7.96580E-14
 -1      1232 1.22372E-02 2.25308E-03-7.80282E-14
 -1      1233 1.16864E-02 2.25108E-03-7.62858E-14
 -1      1234 1.11332E-02 2.12351E-03-7.45647E-14
 -1      1235 1.05977E-02 1.89197E-03-7.29143E-14
 -1      1236 1.00834E-02 1.59599E-03-7.13213E-14
 -1      1237 9.64302E-03 1.29957E-03-6.99469E-14
 -1      1238 9.32078E-03 1.04467E-03-6.89109E-14
 -1      1239 9.12318E-03 8.29887E-04-6.82232E-14
 -1      1240 9.05701E-03 6.49432E-04-6.79236E-14
 -1      1241 9.11478E-03 4.96370E-04-6.80130E-14
 -1      1242 9.28059E-03 3.55968E-04-6.84530E-14
 -1      1243 9.55146E-03 2.19899E-04-6.92530E-14
 -1      1244 9.90008E-03 9.90979E-05-7.03707E-14
 -1      1245 1.03099E-02 5.41679E-06-7.17727E-14
 -1      1246 1.07575E-02-4.85583E-05-7.33788E-14
 -1      1247 1.12135E-02-4.82630E-05-7.50701E-14
 -1      1248 1.17062E-02 1.29475E-05-7.69044E-14
 -1      1249 1.21965E-02 1.27084E-04-7.86935E-14
 -1      1250 1.26733E-02 2.84005E-04-8.03569E-14
 -1      1251 1.31195E-02 4.65176E-04-8.18193E-14
 -1      1252 1.35142E-02 6.55175E-04-8.30107E-14
 -1      1253 1.38267E-02 8.39998E-04-8.38803E-14
 -1      1254 1.40233E-02 1.00752E-03-8.43767E-14
 -1      1255 1.66753E-04-1.10383E-04 7.99599E-18
 -1      1256 1.12564E-04-5.70006E-05-1.87296E-17
 -1      1257 1.17652E-04-6.76100E-05-1.15196E-17
 -1      1258 1.08430E-04-4.35206E-05-3.07778E-17
 -1      1259 1.10297E-04-4.96314E-05-2.69289E-17
 -1      1260 2.26364E-04-1.07681E-04-6.29244E-17
 -1      1261 1.06855E-04-3.36532E-05-3.82859E-17
 -1      1262 1.07702E-04-3.83766E-05-3.59955E-17
 -1      1263 2.19123E-04-8.25352E-05-8.54758E-17
 -1      1264 1.06070E-04-2.53879E-05-4.30835E-17
 -1      1265 1.06505E-04-2.94176E-05-4.17689E-17
 -1      1266 2.15894E-04-6.33556E-05-1.00153E-16
 -1      1267 1.05658E-04-1.81371E-05-4.61192E-17
 -1      1268 1.05889E-04-2.17016E-05-4.54010E-17
 -1      1269 2.14215E-04-4.72703E-05-1.09694E-16
 -1      1270 1.05434E-04-1.12935E-05-4.80708E-17
 -1      1271 1.05559E-04-1.46745E-05-4.77320E-17
 -1      1272 2.13286E-04-3.28507E-05-1.15928E-16
 -1      1273 1.05331E-04-4.75415E-06-4.91821E-17
 -1      1274 1.05385E-04-8.00198E-06-4.90059E-17
 -1      1275 2.12783E-04-1.93051E-05-1.19709E-16
 -1      1276 1.05317E-04 1.66389E-06-4.97920E-17
 -1      1277 1.05317E-04-1.54222E-06-4.97242E-17
 -1      1278 2.12562E-04-6.29755E-06-1.22054E-16
 -1      1279 1.05388E-04 8.12632E-06-4.97513E-17
 -1      1280 1.05332E-04 4.87664E-06-4.97513E-17
 -1      1281 2.12564E-04 6.54173E-06-1.22854E-16
 -1      1282 1.05564E-04 1.48054E-05-4.93041E-17
 -1      1283 1.05437E-04 1.14203E-05-4.94667E-17
 -1      1284 2.12790E-04 1.95565E-05-1.22447E-16
 -1      1285 1.05896E-04 2.17813E-05-4.78811E-17
 -1      1286 1.05662E-04 1.82129E-05-4.82741E-17
 -1      1287 2.13294E-04 3.29992E-05-1.20428E-16
 -1      1288 1.06521E-04 2.95778E-05-4.55094E-17
 -1      1289 1.06081E-04 2.55377E-05-4.64310E-17
 -1      1290 2.14227E-04 4.74344E-05-1.16647E-16
 -1      1291 1.07732E-04 3.85643E-05-4.11861E-17
 -1      1292 1.06874E-04 3.38237E-05-4.28531E-17
 -1      1293 2.15935E-04 6.36907E-05-1.09965E-16
 -1      1294 1.10358E-04 4.98726E-05-3.36509E-17
 -1      1295 1.08467E-04 4.37308E-05-3.69713E-17
 -1      1296 2.19201E-04 8.29462E-05-9.86217E-17
 -1      1297 1.17784E-04 6.79381E-05-1.96105E-17
 -1      1298 1.12628E-04 5.72808E-05-2.61564E-17
 -1      1299 2.26518E-04 1.08248E-04-7.92958E-17
 -1      1300 1.59222E-04 1.05706E-04-1.99222E-18
 -1      1301 4.21675E-04-2.61859E-04-1.51653E-17
 -1      1302 5.74816E-04-3.36975E-04-5.54163E-17
 -1      1303 7.22044E-04-3.97633E-04-1.28627E-16
 -1      1304 8.65249E-04-4.46983E-04-2.32995E-16
 -1      1305 6.12239E-04-3.31088E-04-1.32273E-16
 -1      1306 1.00531E-03-4.88110E-04-3.67639E-16
 -1      1307 1.14318E-03-5.22152E-04-5.33631E-16
 -1      1308 9.05539E-04-4.31896E-04-3.54331E-16
 -1      1309 1.27971E-03-5.50980E-04-7.30766E-16
 -1      1310 1.41538E-03-5.75070E-04-9.59966E-16
 -1      1311 1.18803E-03-5.01427E-04-6.97914E-16
 -1      1312 1.55065E-03-5.95489E-04-1.21993E-15
 -1      1313 1.68577E-03-6.12570E-04-1.51077E-15
 -1      1314 1.46501E-03-5.50308E-04-1.16508E-15
 -1      1315 1.82099E-03-6.26940E-04-1.83253E-15
 -1      1316 1.95640E-03-6.38894E-04-2.18491E-15
 -1      1317 1.73975E-03-5.84719E-04-1.75512E-15
 -1      1318 2.09214E-03-6.48832E-04-2.56773E-15
 -1      1319 2.22825E-03-6.57005E-04-2.98123E-15
 -1      1320 2.01411E-03-6.08641E-04-2.46728E-15
 -1      1321 2.36479E-03-6.63689E-04-3.42581E-15
 -1      1322 2.50176E-03-6.69089E-04-3.90067E-15
 -1      1323 2.28908E-03-6.24888E-04-3.30127E-15
 -1      1324 2.63919E-03-6.73399E-04-4.40587E-15
 -1      1325 2.77705E-03-6.76785E-04-4.94113E-15
 -1      1326 2.56514E-03-6.35536E-04-4.25628E-15
 -1      1327 2.91535E-03-6.79386E-04-5.50626E-15
 -1      1328 3.05407E-03-6.81332E-04-6.10114E-15
 -1      1329 2.84248E-03-6.42140E-04-5.33109E-15
 -1      1330 3.19318E-03-6.82722E-04-6.72449E-15
 -1      1331 3.33267E-03-6.83655E-04-7.37653E-15
 -1      1332 3.12112E-03-6.45865E-04-6.52322E-15
 -1      1333 3.47251E-03-6.84200E-04-8.05650E-15
 -1      1334 3.61268E-03-6.84434E-04-8.76334E-15
 -1      1335 3.40100E-03-6.47575E-04-7.82976E-15
 -1      1336 3.75315E-03-6.84401E-04-9.49765E-15
 -1      1337 3.89390E-03-6.84159E-04-1.02588E-14
 -1      1338 3.68200E-03-6.47902E-04-9.24720E-15
 -1      1339 4.03491E-03-6.83737E-04-1.10452E-14
 -1      1340 4.17615E-03-6.83176E-04-1.18567E-14
 -1      1341 3.96398E-03-6.47296E-04-1.07703E-14
 -1      1342 4.31761E-03-6.82493E-04-1.26940E-14
 -1      1343 4.45927E-03-6.81717E-04-1.35569E-14
 -1      1344 4.24682E-03-6.46068E-04-1.23975E-14
 -1      1345 4.60112E-03-6.80856E-04-1.44434E-14
 -1      1346 4.74315E-03-6.79931E-04-1.53547E-14
 -1      1347 4.53039E-03-6.44423E-04-1.41245E-14
 -1      1348 4.88533E-03-6.78945E-04-1.62918E-14
 -1      1349 5.02767E-03-6.77913E-04-1.72532E-14
 -1      1350 4.81460E-03-6.42491E-04-1.59524E-14
 -1      1351 5.17016E-03-6.76834E-04-1.82415E-14
 -1      1352 5.31280E-03-6.75722E-04-1.92545E-14
 -1      1353 5.09940E-03-6.40352E-04-1.78804E-14
 -1      1354 5.45559E-03-6.74575E-04-2.02921E-14
 -1      1355 5.59852E-03-6.73406E-04-2.13558E-14
 -1      1356 5.38474E-03-6.38055E-04-1.99091E-14
 -1      1357 5.74161E-03-6.72215E-04-2.24453E-14
 -1      1358 5.88485E-03-6.71019E-04-2.35615E-14
 -1      1359 5.67062E-03-6.35643E-04-2.20389E-14
 -1      1360 6.02825E-03-6.69824E-04-2.47007E-14
 -1      1361 6.17182E-03-6.68649E-04-2.58627E-14
 -1      1362 5.95707E-03-6.33173E-04-2.42700E-14
 -1      1363 6.31557E-03-6.67511E-04-2.70514E-14
 -1      1364 6.45950E-03-6.66435E-04-2.82634E-14
 -1      1365 6.24411E-03-6.30742E-04-2.66007E-14
 -1      1366 6.60362E-03-6.65453E-04-2.94997E-14
 -1      1367 6.74793E-03-6.64595E-04-3.07615E-14
 -1      1368 6.53180E-03-6.28506E-04-2.90271E-14
 -1      1369 6.89243E-03-6.63910E-04-3.20474E-14
 -1      1370 7.03711E-03-6.63437E-04-3.33565E-14
 -1      1371 6.82015E-03-6.26707E-04-3.15515E-14
 -1      1372 7.18196E-03-6.63244E-04-3.46874E-14
 -1      1373 7.32695E-03-6.63371E-04-3.60398E-14
 -1      1374 7.10916E-03-6.25688E-04-3.41687E-14
 -1      1375 7.47205E-03-6.63906E-04-3.74145E-14
 -1      1376 7.61720E-03-6.64883E-04-3.88097E-14
 -1      1377 7.39871E-03-6.25896E-04-3.68751E-14
 -1      1378 7.76235E-03-6.66401E-04-4.02277E-14
 -1      1379 7.90739E-03-6.68476E-04-4.16679E-14
 -1      1380 7.68856E-03-6.27853E-04-3.96687E-14
 -1      1381 8.05223E-03-6.71196E-04-4.31290E-14
 -1      1382 8.19675E-03-6.74537E-04-4.46129E-14
 -1      1383 7.97825E-03-6.32080E-04-4.25485E-14
 -1      1384 8.34077E-03-6.78548E-04-4.61166E-14
 -1      1385 8.48414E-03-6.83130E-04-4.76362E-14
 -1      1386 8.26709E-03-6.38950E-04-4.55117E-14
 -1      1387 8.62665E-03-6.88247E-04-4.91748E-14
 -1      1388 8.76810E-03-6.93691E-04-5.07308E-14
 -1      1389 8.55410E-03-6.48449E-04-4.85530E-14
 -1      1390 8.90827E-03-6.99280E-04-5.23033E-14
 -1      1391 9.04693E-03-7.04663E-04-5.38927E-14
 -1      1392 8.83801E-03-6.59841E-04-5.16634E-14
 -1      1393 9.18386E-03-7.09465E-04-5.54972E-14
 -1      1394 9.31888E-03-7.13172E-04-5.71179E-14
 -1      1395 9.11742E-03-6.71292E-04-5.48385E-14
 -1      1396 9.45183E-03-7.15190E-04-5.87540E-14
 -1      1397 9.58259E-03-7.14861E-04-6.04049E-14
 -1      1398 9.39093E-03-6.79541E-04-5.80776E-14
 -1      1399 9.71112E-03-7.11412E-04-6.20702E-14
 -1      1400 9.83745E-03-7.04109E-04-6.37497E-14
 -1      1401 9.65752E-03-6.79804E-04-6.13763E-14
 -1      1402 9.96171E-03-6.92109E-04-6.54422E-14
 -1      1403 1.00841E-02-6.74722E-04-6.71479E-14
 -1      1404 9.91689E-03-6.66088E-04-6.47315E-14
 -1      1405 1.02049E-02-6.51216E-04-6.88685E-14
 -1      1406 1.03244E-02-6.21084E-04-7.05995E-14
 -1      1407 1.01698E-02-6.32038E-04-6.81424E-14
 -1      1408 1.04432E-02-5.83890E-04-7.23431E-14
 -1      1409 1.05616E-02-5.39437E-04-7.41030E-14
 -1      1410 1.04180E-02-5.72200E-04-7.16064E-14
 -1      1411 1.06801E-02-4.87707E-04-7.58704E-14
 -1      1412 1.07993E-02-4.28857E-04-7.76503E-14
 -1      1413 1.06643E-02-4.83340E-04-7.51177E-14
 -1      1414 1.09195E-02-3.63293E-04-7.94456E-14
 -1      1415 1.10410E-02-2.91482E-04-8.12537E-14
 -1      1416 1.09119E-02-3.65307E-04-7.86796E-14
 -1      1417 1.11643E-02-2.14133E-04-8.30746E-14
 -1      1418 1.12895E-02-1.31907E-04-8.49062E-14
 -1      1419 1.11633E-02-2.21050E-04-8.22917E-14
 -1      1420 1.14167E-02-4.56240E-05-8.67535E-14
 -1      1421 1.15459E-02 4.40082E-05-8.86144E-14
 -1      1422 1.14207E-02-5.57870E-05-8.59572E-14
 -1      1423 1.16772E-02 1.36234E-04-9.04850E-14
 -1      1424 1.18104E-02 2.30425E-04-9.23669E-14
 -1      1425 1.16846E-02 1.24320E-04-8.96719E-14
 -1      1426 1.19453E-02 3.26011E-04-9.42579E-14
 -1      1427 1.20818E-02 4.22510E-04-9.61552E-14
 -1      1428 1.19549E-02 3.13464E-04-9.34297E-14
 -1      1429 1.22197E-02 5.19581E-04-9.80589E-14
 -1      1430 1.23587E-02 6.16903E-04-9.99715E-14
 -1      1431 1.22306E-02 5.07079E-04-9.72195E-14
 -1      1432 1.24987E-02 7.14340E-04-1.01891E-13
 -1      1433 1.26394E-02 8.11712E-04-1.03811E-13
 -1      1434 1.25103E-02 7.02174E-04-1.01039E-13
 -1      1435 1.27807E-02 9.09021E-04-1.05739E-13
 -1      1436 1.29225E-02 1.00618E-03-1.07677E-13
 -1      1437 1.27927E-02 8.97214E-04-1.04882E-13
 -1      1438 1.30646E-02 1.10327E-03-1.09620E-13
 -1      1439 1.32069E-02 1.20023E-03-1.11565E-13
 -1      1440 1.30767E-02 1.09172E-03-1.08751E-13
 -1      1441 1.33494E-02 1.29713E-03-1.13517E-13
 -1      1442 1.34921E-02 1.39392E-03-1.15476E-13
 -1      1443 1.33616E-02 1.28574E-03-1.12643E-13
 -1      1444 1.37088E-02 1.53841E-03-1.18337E-13
 -1      1445 1.37209E-02 1.52723E-03-1.17455E-13
 -1      1446 5.59926E-04 3.30511E-04-9.44205E-17
 -1      1447 4.06206E-04 2.53884E-04-4.18231E-17
 -1      1448 8.51203E-04 4.42619E-04-3.05447E-16
 -1      1449 7.07633E-04 3.92332E-04-1.83027E-16
 -1      1450 5.97435E-04 3.25302E-04-1.75424E-16
 -1      1451 1.12956E-03 5.19132E-04-6.47770E-16
 -1      1452 9.91511E-04 4.84487E-04-4.59973E-16
 -1      1453 8.91308E-04 4.27879E-04-4.30360E-16
 -1      1454 1.40192E-03 5.72979E-04-1.12121E-15
 -1      1455 1.26619E-03 5.48467E-04-8.68094E-16
 -1      1456 1.17416E-03 4.98647E-04-8.14005E-16
 -1      1457 1.67235E-03 6.11143E-04-1.72541E-15
 -1      1458 1.53722E-03 5.93757E-04-1.40706E-15
 -1      1459 1.45132E-03 5.48394E-04-1.32685E-15
 -1      1460 1.94293E-03 6.37959E-04-2.45954E-15
 -1      1461 1.80754E-03 6.25779E-04-2.07610E-15
 -1      1462 1.72611E-03 5.83431E-04-1.96841E-15
 -1      1463 2.21471E-03 6.56437E-04-3.32018E-15
 -1      1464 2.07864E-03 6.48095E-04-2.87411E-15
 -1      1465 2.00046E-03 6.07816E-04-2.73750E-15
 -1      1466 2.48813E-03 6.68793E-04-4.30607E-15
 -1      1467 2.35121E-03 6.63267E-04-3.79753E-15
 -1      1468 2.27539E-03 6.24406E-04-3.63215E-15
 -1      1469 2.76332E-03 6.76690E-04-5.42048E-15
 -1      1470 2.62551E-03 6.73212E-04-4.84733E-15
 -1      1471 2.55138E-03 6.35307E-04-4.65157E-15
 -1      1472 3.04025E-03 6.81385E-04-6.65847E-15
 -1      1473 2.90158E-03 6.79372E-04-6.02403E-15
 -1      1474 2.82865E-03 6.42097E-04-5.79646E-15
 -1      1475 3.31876E-03 6.83814E-04-8.01967E-15
 -1      1476 3.17932E-03 6.82833E-04-7.32388E-15
 -1      1477 3.10722E-03 6.45958E-04-7.06484E-15
 -1      1478 3.59868E-03 6.84667E-04-9.49928E-15
 -1      1479 3.45856E-03 6.84400E-04-8.74486E-15
 -1      1480 3.38703E-03 6.47766E-04-8.45399E-15
 -1      1481 3.86573E-03 6.84470E-04-1.10157E-14
 -1      1482 3.73208E-03 6.84667E-04-1.02441E-14
 -1      1483 3.66092E-03 6.48163E-04-9.92250E-15
 -1      1484 4.14784E-03 6.83532E-04-1.27299E-14
 -1      1485 4.00667E-03 6.84076E-04-1.18576E-14
 -1      1486 3.93575E-03 6.47638E-04-1.15033E-14
 -1      1487 4.43082E-03 6.82070E-04-1.45600E-14
 -1      1488 4.28923E-03 6.82854E-04-1.36308E-14
 -1      1489 4.21847E-03 6.46444E-04-1.32417E-14
 -1      1490 4.71454E-03 6.80219E-04-1.65059E-14
 -1      1491 4.57260E-03 6.81186E-04-1.55189E-14
 -1      1492 4.50193E-03 6.44783E-04-1.50966E-14
 -1      1493 4.99892E-03 6.78039E-04-1.85635E-14
 -1      1494 4.85665E-03 6.79166E-04-1.75210E-14
 -1      1495 4.78604E-03 6.42766E-04-1.70649E-14
 -1      1496 5.28390E-03 6.75537E-04-2.07260E-14
 -1      1497 5.14133E-03 6.76828E-04-1.96320E-14
 -1      1498 5.07073E-03 6.40433E-04-1.91431E-14
 -1      1499 5.56950E-03 6.72671E-04-2.29887E-14
 -1      1500 5.42662E-03 6.74150E-04-2.18449E-14
 -1      1501 5.35600E-03 6.37771E-04-2.13252E-14
 -1      1502 5.85581E-03 6.69364E-04-2.53516E-14
 -1      1503 5.71255E-03 6.71074E-04-2.41581E-14
 -1      1504 5.64188E-03 6.34721E-04-2.36081E-14
 -1      1505 6.14300E-03 6.65509E-04-2.78070E-14
 -1      1506 5.99928E-03 6.67507E-04-2.65673E-14
 -1      1507 5.92848E-03 6.31188E-04-2.59879E-14
 -1      1508 6.43139E-03 6.60977E-04-3.03567E-14
 -1      1509 6.28703E-03 6.63328E-04-2.90704E-14
 -1      1510 6.21598E-03 6.27045E-04-2.84622E-14
 -1      1511 6.72145E-03 6.55629E-04-3.29966E-14
 -1      1512 6.57618E-03 6.58401E-04-3.16652E-14
 -1      1513 6.50469E-03 6.22142E-04-3.10284E-14
 -1      1514 7.01392E-03 6.49338E-04-3.57231E-14
 -1      1515 6.86733E-03 6.52590E-04-3.43495E-14
 -1      1516 6.79509E-03 6.16315E-04-3.36836E-14
 -1      1517 7.30989E-03 6.42039E-04-3.85352E-14
 -1      1518 7.16138E-03 6.45788E-04-3.71198E-14
 -1      1519 7.08785E-03 6.09410E-04-3.64264E-14
 -1      1520 7.61102E-03 6.33828E-04-4.14257E-14
 -1      1521 7.45968E-03 6.37991E-04-3.99706E-14
 -1      1522 7.38398E-03 6.01339E-04-3.92511E-14
 -1      1523 7.90406E-03 6.25604E-04-4.42405E-14
 -1      1524 7.75652E-03 6.29676E-04-4.28257E-14
 -1      1525 7.67734E-03 5.92439E-04-4.20793E-14
 -1      1526 8.22318E-03 6.17755E-04-4.72693E-14
 -1      1527 8.06199E-03 6.21383E-04-4.57456E-14
 -1      1528 7.97716E-03 5.82993E-04-4.49751E-14
 -1      1529 8.55799E-03 6.13668E-04-5.03709E-14
 -1      1530 8.38825E-03 6.14871E-04-4.88114E-14
 -1      1531 8.29407E-03 5.74192E-04-4.80151E-14
 -1      1532 8.91488E-03 6.19881E-04-5.35341E-14
 -1      1533 8.73320E-03 6.14801E-04-5.19472E-14
 -1      1534 8.62409E-03 5.69750E-04-5.11265E-14
 -1      1535 9.30143E-03 6.49927E-04-5.67491E-14
 -1      1536 9.10394E-03 6.30661E-04-5.51360E-14
 -1      1537 8.97175E-03 5.77338E-04-5.42974E-14
 -1      1538 9.72474E-03 7.29792E-04-6.00117E-14
 -1      1539 9.50816E-03 6.81410E-04-5.83750E-14
 -1      1540 9.34223E-03 6.12701E-04-5.75192E-14
 -1      1541 1.01873E-02 9.02956E-04-6.33176E-14
 -1      1542 9.95144E-03 8.01351E-04-6.16595E-14
 -1      1543 9.74110E-03 7.05432E-04-6.07857E-14
 -1      1544 1.06788E-02 1.22283E-03-6.66647E-14
 -1      1545 1.04312E-02 1.04155E-03-6.49856E-14
 -1      1546 1.01735E-02 9.03226E-04-6.40935E-14
 -1      1547 1.11653E-02 1.70212E-03-7.00664E-14
 -1      1548 1.09267E-02 1.44622E-03-6.83574E-14
 -1      1549 1.06403E-02 1.26001E-03-6.74492E-14
 -1      1550 1.15369E-02 2.14650E-03-7.30062E-14
 -1      1551 1.13588E-02 1.93102E-03-7.15321E-14
 -1      1552 1.10895E-02 1.73059E-03-7.06038E-14
 -1      1553 1.18701E-02 2.45659E-03-7.61679E-14
 -1      1554 1.17090E-02 2.33714E-03-7.45793E-14
 -1      1555 1.15022E-02 2.18786E-03-7.36369E-14
 -1      1556 1.21483E-02 2.46386E-03-7.90191E-14
 -1      1557 1.20051E-02 2.49353E-03-7.75908E-14
 -1      1558 1.18763E-02 2.44006E-03-7.66300E-14
 -1      1559 1.24199E-02 2.28793E-03-8.15338E-14
 -1      1560 1.22785E-02 2.39054E-03-8.02737E-14
 -1      1561 1.22032E-02 2.40077E-03-7.93047E-14
 -1      1562 1.28487E-02 1.96134E-03-8.49764E-14
 -1      1563 1.26274E-02 2.12379E-03-8.32527E-14
 -1      1564 1.25854E-02 2.15016E-03-8.22762E-14
 -1      1565 1.33144E-02 1.71720E-03-8.84405E-14
 -1      1566 1.30808E-02 1.82170E-03-8.67044E-14
 -1      1567 1.30440E-02 1.82193E-03-8.57205E-14
 -1      1568 1.37968E-02 1.62011E-03-9.21192E-14
 -1      1569 1.35592E-02 1.64905E-03-9.02750E-14
 -1      1570 1.35030E-02 1.61256E-03-8.92849E-14
 -1      1571 1.42447E-02 1.65513E-03-9.58340E-14
 -1      1572 1.40259E-02 1.62456E-03-9.39728E-14
 -1      1573 1.39407E-02 1.56069E-03-9.29738E-14
 -1      1574 1.46520E-02 1.76896E-03-9.95713E-14
 -1      1575 1.44533E-02 1.70500E-03-9.77003E-14
 -1      1576 1.43431E-02 1.62626E-03-9.66932E-14
 -1      1577 1.50225E-02 1.92245E-03-1.03328E-13
 -1      1578 1.48414E-02 1.84252E-03-1.01448E-13
 -1      1579 1.47146E-02 1.75765E-03-1.00436E-13
 -1      1580 1.53635E-02 2.09242E-03-1.07095E-13
 -1      1581 1.51962E-02 2.00640E-03-1.05210E-13
 -1      1582 1.50606E-02 1.92037E-03-1.04194E-13
 -1      1583 1.56824E-02 2.26600E-03-1.10869E-13
 -1      1584 1.55253E-02 2.17937E-03-1.08982E-13
 -1      1585 1.53864E-02 2.09473E-03-1.07967E-13
 -1      1586 1.59856E-02 2.43568E-03-1.14638E-13
 -1      1587 1.58356E-02 2.35173E-03-1.12755E-13
 -1      1588 1.56966E-02 2.26978E-03-1.11743E-13
 -1      1589 1.62782E-02 2.59678E-03-1.18392E-13
 -1      1590 1.61329E-02 2.51759E-03-1.16515E-13
 -1      1591 1.59954E-02 2.43907E-03-1.15512E-13
 -1      1592 1.64777E-02 2.70261E-03-1.21104E-13
 -1      1593 1.63135E-02 2.60665E-03-1.21090E-13
 -1      1594 1.63823E-02 2.64671E-03-1.21158E-13
 -1      1595 1.61805E-02 2.53180E-03-1.20959E-13
 -1      1596 1.62464E-02 2.56828E-03-1.21025E-13
 -1      1597 1.61568E-02 2.52219E-03-1.19430E-13
 -1      1598 1.60476E-02 2.46480E-03-1.20829E-13
 -1      1599 1.61145E-02 2.49733E-03-1.20893E-13
 -1      1600 1.60258E-02 2.44920E-03-1.19291E-13
 -1      1601 1.59071E-02 2.40455E-03-1.20680E-13
 -1      1602 1.59787E-02 2.43397E-03-1.20759E-13
 -1      1603 1.58928E-02 2.38284E-03-1.19148E-13
 -1      1604 1.57562E-02 2.34912E-03-1.20535E-13
 -1      1605 1.58334E-02 2.37658E-03-1.20606E-13
 -1      1606 1.57513E-02 2.32196E-03-1.18998E-13
 -1      1607 1.55881E-02 2.29304E-03-1.20384E-13
 -1      1608 1.56740E-02 2.32126E-03-1.20461E-13
 -1      1609 1.55957E-02 2.26326E-03-1.18842E-13
 -1      1610 1.54066E-02 2.23401E-03-1.20213E-13
 -1      1611 1.54988E-02 2.26406E-03-1.20302E-13
 -1      1612 1.54236E-02 2.20325E-03-1.18675E-13
 -1      1613 1.52153E-02 2.16988E-03-1.20030E-13
 -1      1614 1.53119E-02 2.20267E-03-1.20124E-13
 -1      1615 1.52386E-02 2.13994E-03-1.18498E-13
 -1      1616 1.50187E-02 2.09980E-03-1.19830E-13
 -1      1617 1.51175E-02 2.13558E-03-1.19932E-13
 -1      1618 1.50447E-02 2.07185E-03-1.18309E-13
 -1      1619 1.48206E-02 2.02417E-03-1.19633E-13
 -1      1620 1.49197E-02 2.06262E-03-1.19730E-13
 -1      1621 1.48466E-02 1.99865E-03-1.18111E-13
 -1      1622 1.46271E-02 1.94555E-03-1.19451E-13
 -1      1623 1.47236E-02 1.98530E-03-1.19540E-13
 -1      1624 1.46497E-02 1.92157E-03-1.17917E-13
 -1      1625 1.44327E-02 1.86271E-03-1.19281E-13
 -1      1626 1.45295E-02 1.90440E-03-1.19366E-13
 -1      1627 1.44546E-02 1.84109E-03-1.17731E-13
 -1      1628 1.42409E-02 1.77839E-03-1.19094E-13
 -1      1629 1.43365E-02 1.82066E-03-1.19193E-13
 -1      1630 1.42607E-02 1.75776E-03-1.17544E-13
 -1      1631 1.40508E-02 1.69367E-03-1.18890E-13
 -1      1632 1.41457E-02 1.73604E-03-1.18993E-13
 -1      1633 1.40694E-02 1.67338E-03-1.17346E-13
 -1      1634 1.38385E-02 1.58926E-03-1.18119E-13
 -1      1635 1.39332E-02 1.63153E-03-1.18228E-13
 -1      1636 1.38568E-02 1.56891E-03-1.16581E-13
 -1      1637 1.36217E-02 1.44468E-03-1.15260E-13
 -1      1638 1.41247E-02 1.19813E-03-8.51967E-14
 -1      1639 1.41176E-02 1.14855E-03-8.52473E-14
 -1      1640 1.40310E-02 1.31897E-03-8.47917E-14
 -1      1641 1.40924E-02 1.26071E-03-8.50279E-14
 -1      1642 1.38026E-02 1.48226E-03-8.39618E-14
 -1      1643 1.39248E-02 1.40249E-03-8.43660E-14
 -1      1644 1.34160E-02 1.69597E-03-8.28369E-14
 -1      1645 1.36070E-02 1.58163E-03-8.34700E-14
 -1      1646 1.29848E-02 1.95987E-03-8.12467E-14
 -1      1647 1.31888E-02 1.84217E-03-8.19576E-14
 -1      1648 1.25372E-02 2.18849E-03-7.95537E-14
 -1      1649 1.27469E-02 2.09038E-03-8.03366E-14
 -1      1650 1.20796E-02 2.32092E-03-7.77759E-14
 -1      1651 1.22881E-02 2.27718E-03-7.86152E-14
 -1      1652 1.16121E-02 2.29274E-03-7.58569E-14
 -1      1653 1.18285E-02 2.32970E-03-7.67495E-14
 -1      1654 1.11294E-02 2.09445E-03-7.40287E-14
 -1      1655 1.13481E-02 2.20094E-03-7.48474E-14
 -1      1656 1.06310E-02 1.78014E-03-7.22345E-14
 -1      1657 1.08687E-02 1.93638E-03-7.30519E-14
 -1      1658 1.01275E-02 1.40857E-03-7.04594E-14
 -1      1659 1.03677E-02 1.57399E-03-7.12147E-14
 -1      1660 9.64628E-03 1.10469E-03-6.90682E-14
 -1      1661 9.85089E-03 1.23577E-03-6.96695E-14
 -1      1662 9.29194E-03 8.89569E-04-6.80731E-14
 -1      1663 9.43453E-03 9.80131E-04-6.84921E-14
 -1      1664 9.08441E-03 7.30182E-04-6.73801E-14
 -1      1665 9.16101E-03 7.93608E-04-6.76294E-14
 -1      1666 9.04232E-03 6.20365E-04-6.72464E-14
 -1      1667 9.04173E-03 6.68964E-04-6.72934E-14
 -1      1668 9.14532E-03 5.15277E-04-6.74734E-14
 -1      1669 9.08152E-03 5.63330E-04-6.73417E-14
 -1      1670 9.36808E-03 3.99432E-04-6.80247E-14
 -1      1671 9.25109E-03 4.55012E-04-6.77246E-14
 -1      1672 9.70637E-03 2.66227E-04-6.89064E-14
 -1      1673 9.53988E-03 3.34664E-04-6.84131E-14
 -1      1674 1.00752E-02 1.15349E-04-7.02300E-14
 -1      1675 9.90034E-03 1.80548E-04-6.96259E-14
 -1      1676 1.05097E-02-1.47095E-05-7.17339E-14
 -1      1677 1.03144E-02 4.61883E-05-7.09473E-14
 -1      1678 1.09036E-02-9.13289E-05-7.35494E-14
 -1      1679 1.07236E-02-6.49539E-05-7.27503E-14
 -1      1680 1.13097E-02-8.84997E-05-7.54287E-14
 -1      1681 1.11193E-02-9.93181E-05-7.45498E-14
 -1      1682 1.17438E-02 1.30882E-06-7.74562E-14
 -1      1683 1.15386E-02-5.41544E-05-7.65105E-14
 -1      1684 1.21943E-02 1.67272E-04-7.93257E-14
 -1      1685 1.19931E-02 8.53961E-05-7.84907E-14
 -1      1686 1.26590E-02 3.86759E-04-8.11404E-14
 -1      1687 1.24368E-02 2.80111E-04-8.03224E-14
 -1      1688 1.31166E-02 6.01413E-04-8.26165E-14
 -1      1689 1.29148E-02 5.03571E-04-8.19737E-14
 -1      1690 1.35385E-02 8.17616E-04-8.39406E-14
 -1      1691 1.33430E-02 7.25722E-04-8.34001E-14
 -1      1692 1.38712E-02 9.65098E-04-8.47018E-14
 -1      1693 1.37373E-02 8.98615E-04-8.43673E-14
 -1      1694 1.40681E-02 1.08743E-03-8.51365E-14
 -1      1695 1.39934E-02 1.03437E-03-8.49863E-14
 -1      1696 2.78173E-04 1.72805E-04-4.17282E-17
 -1      1697 1.36602E-02 1.47845E-03-8.43275E-14
 -1      1698 1.63424E-02 2.62813E-03-1.20106E-13
 -1      1699 1.41163E-02 1.21629E-03-8.58428E-14
 -1      1700 1.39665E-02 1.31744E-03-8.52477E-14
 -1      1701 1.41037E-02 1.14281E-03-8.59027E-14
 -1      1702 1.32433E-02 1.71857E-03-8.29536E-14
 -1      1703 1.27990E-02 2.00717E-03-8.11618E-14
 -1      1704 1.23652E-02 2.24960E-03-7.93102E-14
 -1      1705 1.19500E-02 2.36220E-03-7.73444E-14
 -1      1706 1.15387E-02 2.27543E-03-7.53092E-14
 -1      1707 1.10838E-02 2.00794E-03-7.33248E-14
 -1      1708 1.05984E-02 1.62354E-03-7.13335E-14
 -1      1709 1.00781E-02 1.23756E-03-6.95353E-14
 -1      1710 9.59139E-03 9.55253E-04-6.81811E-14
 -1      1711 9.23877E-03 7.71577E-04-6.71720E-14
 -1      1712 9.05610E-03 6.70459E-04-6.66500E-14
 -1      1713 9.05304E-03 6.00461E-04-6.66619E-14
 -1      1714 9.20397E-03 5.20036E-04-6.70054E-14
 -1      1715 9.48491E-03 4.12787E-04-6.76386E-14
 -1      1716 9.84717E-03 2.65401E-04-6.87371E-14
 -1      1717 1.02586E-02 9.87134E-05-7.01656E-14
 -1      1718 1.06519E-02-4.66582E-05-7.18891E-14
 -1      1719 1.10246E-02-1.20410E-04-7.39006E-14
 -1      1720 1.14035E-02-9.76047E-05-7.59810E-14
 -1      1721 1.17994E-02 3.22321E-05-7.80986E-14
 -1      1722 1.22392E-02 2.45956E-04-8.01333E-14
 -1      1723 1.27019E-02 4.95232E-04-8.19672E-14
 -1      1724 1.31738E-02 7.41054E-04-8.35881E-14
 -1      1725 1.36025E-02 9.31818E-04-8.48016E-14
 -1      1726 1.39285E-02 1.05499E-03-8.55107E-14
 -1      1727 2.85325E-04-1.76306E-04-2.17111E-17
 -1      1728 3.32180E-04-1.16893E-04-1.39252E-16
 -1      1729 3.36292E-04-1.33093E-04-1.25984E-16
 -1      1730 3.42258E-04-1.52095E-04-1.10602E-16
 -1      1731 3.51836E-04-1.74106E-04-9.01243E-17
 -1      1732 4.58364E-04-1.88205E-04-1.82119E-16
 -1      1733 3.24555E-04-6.55100E-05-1.70830E-16
 -1      1734 3.25710E-04-7.67949E-05-1.65083E-16
 -1      1735 3.23055E-04-4.40380E-05-1.79002E-16
 -1      1736 3.23713E-04-5.45153E-05-1.75221E-16
 -1      1737 4.36490E-04-7.94704E-05-2.55994E-16
 -1      1738 3.22262E-04-2.39490E-05-1.84070E-16
 -1      1739 3.22598E-04-3.38469E-05-1.81807E-16
 -1      1740 4.34481E-04-5.15269E-05-2.66334E-16
 -1      1741 3.21958E-04-4.55212E-06-1.86849E-16
 -1      1742 3.22060E-04-1.41845E-05-1.85602E-16
 -1      1743 4.33447E-04-2.51723E-05-2.72745E-16
 -1      1744 3.22069E-04 1.47167E-05-1.87540E-16
 -1      1745 3.21961E-04 5.08048E-06-1.87472E-16
 -1      1746 4.33134E-04 4.58186E-07-2.75902E-16
 -1      1747 3.22621E-04 3.43993E-05-1.86442E-16
 -1      1748 3.22277E-04 2.44892E-05-1.87242E-16
 -1      1749 4.33472E-04 2.61022E-05-2.76390E-16
 -1      1750 3.23731E-04 5.47436E-05-1.82878E-16
 -1      1751 3.23078E-04 4.44318E-05-1.85033E-16
 -1      1752 4.34524E-04 5.22698E-05-2.74019E-16
 -1      1753 3.25762E-04 7.72511E-05-1.76589E-16
 -1      1754 3.24578E-04 6.57495E-05-1.80289E-16
 -1      1755 4.36545E-04 8.00251E-05-2.68381E-16
 -1      1756 3.29429E-04 1.02850E-04-1.65354E-16
 -1      1757 3.27282E-04 8.96355E-05-1.71832E-16
 -1      1758 4.40141E-04 1.10808E-04-2.58121E-16
 -1      1759 3.36511E-04 1.33907E-04-1.46665E-16
 -1      1760 3.32338E-04 1.17609E-04-1.57372E-16
 -1      1761 4.46587E-04 1.46250E-04-2.40693E-16
 -1      1762 3.52315E-04 1.75284E-04-1.15603E-16
 -1      1763 3.42576E-04 1.53089E-04-1.33682E-16
 -1      1764 4.58861E-04 1.89592E-04-2.12734E-16
 -1      1765 1.35597E-02 1.47067E-03-8.50168E-14
 -1      1766 1.37424E-02 1.38332E-03-8.55127E-14
 -1      1767 3.40108E-04-1.91001E-04-5.54163E-17
 -1      1768 3.32943E-04 1.87935E-04-7.90654E-17
 -1      1769 8.07413E-04-3.74377E-04-3.35195E-16
 -1      1770 9.52708E-04-4.15613E-04-4.82836E-16
 -1      1771 1.09557E-03-4.50350E-04-6.60293E-16
 -1      1772 1.23727E-03-4.79296E-04-8.68256E-16
 -1      1773 1.00411E-03-3.98250E-04-6.17941E-16
 -1      1774 1.37770E-03-5.03830E-04-1.10635E-15
 -1      1775 1.51741E-03-5.24251E-04-1.37541E-15
 -1      1776 1.28984E-03-4.56313E-04-1.04417E-15
 -1      1777 1.65660E-03-5.41478E-04-1.67482E-15
 -1      1778 1.79546E-03-5.55749E-04-2.00436E-15
 -1      1779 1.57229E-03-4.97358E-04-1.59086E-15
 -1      1780 1.93421E-03-5.67673E-04-2.36399E-15
 -1      1781 2.07288E-03-5.77452E-04-2.75377E-15
 -1      1782 1.85295E-03-5.25995E-04-2.25793E-15
 -1      1783 2.21166E-03-5.85505E-04-3.17442E-15
 -1      1784 2.35052E-03-5.92003E-04-3.62480E-15
 -1      1785 2.13289E-03-5.45562E-04-3.04508E-15
 -1      1786 2.48959E-03-5.97243E-04-4.10468E-15
 -1      1787 2.62884E-03-6.01364E-04-4.61453E-15
 -1      1788 2.41280E-03-5.58515E-04-3.95132E-15
 -1      1789 2.76833E-03-6.04579E-04-5.15460E-15
 -1      1790 2.90803E-03-6.07001E-04-5.72316E-15
 -1      1791 2.69307E-03-5.66686E-04-4.97609E-15
 -1      1792 3.04800E-03-6.08781E-04-6.32132E-15
 -1      1793 3.18819E-03-6.10008E-04-6.94762E-15
 -1      1794 2.97392E-03-5.71448E-04-6.11792E-15
 -1      1795 3.32862E-03-6.10790E-04-7.60180E-15
 -1      1796 3.46927E-03-6.11193E-04-8.28511E-15
 -1      1797 3.25544E-03-5.73819E-04-7.37392E-15
 -1      1798 3.61015E-03-6.11292E-04-8.99512E-15
 -1      1799 3.75122E-03-6.11138E-04-9.73188E-15
 -1      1800 3.53763E-03-5.74546E-04-8.74242E-15
 -1      1801 3.89249E-03-6.10780E-04-1.04952E-14
 -1      1802 4.03394E-03-6.10256E-04-1.12844E-14
 -1      1803 3.82046E-03-5.74168E-04-1.02187E-14
 -1      1804 4.17557E-03-6.09595E-04-1.20997E-14
 -1      1805 4.31735E-03-6.08825E-04-1.29400E-14
 -1      1806 4.10388E-03-5.73055E-04-1.18008E-14
 -1      1807 4.45929E-03-6.07963E-04-1.38049E-14
 -1      1808 4.60136E-03-6.07028E-04-1.46955E-14
 -1      1809 4.38782E-03-5.71460E-04-1.34844E-14
 -1      1810 4.74358E-03-6.06028E-04-1.56118E-14
 -1      1811 4.88591E-03-6.04976E-04-1.65522E-14
 -1      1812 4.67225E-03-5.69541E-04-1.52693E-14
 -1      1813 5.02838E-03-6.03875E-04-1.75173E-14
 -1      1814 5.17096E-03-6.02735E-04-1.85081E-14
 -1      1815 4.95711E-03-5.67392E-04-1.71538E-14
 -1      1816 5.31367E-03-6.01556E-04-1.95252E-14
 -1      1817 5.45649E-03-6.00347E-04-2.05655E-14
 -1      1818 5.24238E-03-5.65069E-04-1.91384E-14
 -1      1819 5.59943E-03-5.99109E-04-2.16321E-14
 -1      1820 5.74250E-03-5.97853E-04-2.27238E-14
 -1      1821 5.52806E-03-5.62607E-04-2.12248E-14
 -1      1822 5.88569E-03-5.96583E-04-2.38401E-14
 -1      1823 6.02901E-03-5.95313E-04-2.49822E-14
 -1      1824 5.81415E-03-5.60045E-04-2.34105E-14
 -1      1825 6.17247E-03-5.94058E-04-2.61483E-14
 -1      1826 6.31607E-03-5.92835E-04-2.73391E-14
 -1      1827 6.10070E-03-5.57449E-04-2.56969E-14
 -1      1828 6.45982E-03-5.91672E-04-2.85543E-14
 -1      1829 6.60372E-03-5.90592E-04-2.97922E-14
 -1      1830 6.38773E-03-5.54936E-04-2.80797E-14
 -1      1831 6.74776E-03-5.89641E-04-3.10547E-14
 -1      1832 6.89197E-03-5.88850E-04-3.23408E-14
 -1      1833 6.67529E-03-5.52695E-04-3.05595E-14
 -1      1834 7.03632E-03-5.88285E-04-3.36512E-14
 -1      1835 7.18082E-03-5.87985E-04-3.49829E-14
 -1      1836 6.96344E-03-5.51016E-04-3.31331E-14
 -1      1837 7.32545E-03-5.88033E-04-3.63368E-14
 -1      1838 7.47017E-03-5.88474E-04-3.77119E-14
 -1      1839 7.25218E-03-5.50300E-04-3.57983E-14
 -1      1840 7.61500E-03-5.89407E-04-3.91106E-14
 -1      1841 7.75983E-03-5.90871E-04-4.05287E-14
 -1      1842 7.54148E-03-5.51056E-04-3.85517E-14
 -1      1843 7.90469E-03-5.92964E-04-4.19679E-14
 -1      1844 8.04943E-03-5.95708E-04-4.34289E-14
 -1      1845 7.83122E-03-5.53859E-04-4.13896E-14
 -1      1846 8.19406E-03-5.99171E-04-4.49100E-14
 -1      1847 8.33837E-03-6.03333E-04-4.64115E-14
 -1      1848 8.12113E-03-5.59246E-04-4.43095E-14
 -1      1849 8.48239E-03-6.08189E-04-4.79309E-14
 -1      1850 8.62583E-03-6.13643E-04-4.94673E-14
 -1      1851 8.41078E-03-5.67537E-04-4.73089E-14
 -1      1852 8.76873E-03-6.19558E-04-5.10224E-14
 -1      1853 8.91074E-03-6.25725E-04-5.25939E-14
 -1      1854 8.69947E-03-5.78539E-04-5.03829E-14
 -1      1855 9.05191E-03-6.31814E-04-5.41828E-14
 -1      1856 9.19188E-03-6.37461E-04-5.57853E-14
 -1      1857 8.98629E-03-5.91168E-04-5.35260E-14
 -1      1858 9.33069E-03-6.42104E-04-5.74010E-14
 -1      1859 9.46805E-03-6.45206E-04-5.90356E-14
 -1      1860 9.27008E-03-6.03023E-04-5.67285E-14
 -1      1861 9.60397E-03-6.45981E-04-6.06843E-14
 -1      1862 9.73834E-03-6.43745E-04-6.23462E-14
 -1      1863 9.54967E-03-6.10072E-04-5.99926E-14
 -1      1864 9.87115E-03-6.37570E-04-6.40236E-14
 -1      1865 1.00025E-02-6.26719E-04-6.57134E-14
 -1      1866 9.82412E-03-6.06653E-04-6.33159E-14
 -1      1867 1.01325E-02-6.10284E-04-6.74183E-14
 -1      1868 1.02614E-02-5.87623E-04-6.91375E-14
 -1      1869 1.00932E-02-5.86021E-04-6.66963E-14
 -1      1870 1.03892E-02-5.58060E-04-7.08687E-14
 -1      1871 1.05167E-02-5.21208E-04-7.26123E-14
 -1      1872 1.03576E-02-5.41522E-04-7.01320E-14
 -1      1873 1.06437E-02-4.76804E-04-7.43674E-14
 -1      1874 1.07709E-02-4.24829E-04-7.61350E-14
 -1      1875 1.06193E-02-4.68153E-04-7.36175E-14
 -1      1876 1.08985E-02-3.65507E-04-7.79142E-14
 -1      1877 1.10269E-02-2.99187E-04-7.97066E-14
 -1      1878 1.08807E-02-3.63947E-04-7.71518E-14
 -1      1879 1.11563E-02-2.26512E-04-8.15139E-14
 -1      1880 1.12869E-02-1.48096E-04-8.33304E-14
 -1      1881 1.11443E-02-2.30552E-04-8.07334E-14
 -1      1882 1.14189E-02-6.48191E-05-8.51617E-14
 -1      1883 1.15522E-02 2.26019E-05-8.70051E-14
 -1      1884 1.14121E-02-7.27045E-05-8.43680E-14
 -1      1885 1.16870E-02 1.13264E-04-8.88598E-14
 -1      1886 1.18231E-02 2.06501E-04-9.07291E-14
 -1      1887 1.16849E-02 1.03144E-04-8.80522E-14
 -1      1888 1.19606E-02 3.01555E-04-9.26052E-14
 -1      1889 1.20991E-02 3.97911E-04-9.44896E-14
 -1      1890 1.19624E-02 2.90415E-04-9.17822E-14
 -1      1891 1.22386E-02 4.95042E-04-9.63856E-14
 -1      1892 1.23789E-02 5.92613E-04-9.82840E-14
 -1      1893 1.22437E-02 4.83630E-04-9.55492E-14
 -1      1894 1.25200E-02 6.90338E-04-1.00190E-13
 -1      1895 1.26615E-02 7.88042E-04-1.02105E-13
 -1      1896 1.25276E-02 6.78998E-04-9.93467E-14
 -1      1897 1.28035E-02 8.85628E-04-1.04025E-13
 -1      1898 1.29457E-02 9.83041E-04-1.05951E-13
 -1      1899 1.28130E-02 8.74419E-04-1.03169E-13
 -1      1900 1.30882E-02 1.08030E-03-1.07885E-13
 -1      1901 1.32308E-02 1.17740E-03-1.09825E-13
 -1      1902 1.30990E-02 1.06914E-03-1.07021E-13
 -1      1903 1.33549E-02 1.26264E-03-1.11561E-13
 -1      1904 1.34976E-02 1.35956E-03-1.13511E-13
 -1      1905 1.36150E-02 1.42169E-03-1.14171E-13
 -1      1906 1.33664E-02 1.25143E-03-1.10688E-13
 -1      1907 1.22326E-03 4.76766E-04-9.84984E-16
 -1      1908 1.08144E-03 4.47304E-04-7.57071E-16
 -1      1909 9.38446E-04 4.11954E-04-5.60926E-16
 -1      1910 7.92964E-04 3.69962E-04-3.96344E-16
 -1      1911 9.89867E-04 3.94968E-04-6.97169E-16
 -1      1912 1.50355E-03 5.22508E-04-1.53626E-15
 -1      1913 1.36377E-03 5.01722E-04-1.24460E-15
 -1      1914 1.27574E-03 4.54023E-04-1.16057E-15
 -1      1915 1.78167E-03 5.54592E-04-2.21467E-15
 -1      1916 1.64278E-03 5.40052E-04-1.85962E-15
 -1      1917 1.55830E-03 4.95784E-04-1.74958E-15
 -1      1918 2.05909E-03 5.76727E-04-3.01784E-15
 -1      1919 1.92042E-03 5.66749E-04-2.60043E-15
 -1      1920 1.83902E-03 5.24965E-04-2.46319E-15
 -1      1921 2.33671E-03 5.91598E-04-3.94555E-15
 -1      1922 2.19786E-03 5.84953E-04-3.46647E-15
 -1      1923 2.11897E-03 5.44933E-04-3.30069E-15
 -1      1924 2.61498E-03 6.01195E-04-4.99808E-15
 -1      1925 2.47576E-03 5.96965E-04-4.45626E-15
 -1      1926 2.39887E-03 5.58183E-04-4.26163E-15
 -1      1927 2.89412E-03 6.07004E-04-6.17346E-15
 -1      1928 2.75445E-03 6.04503E-04-5.57040E-15
 -1      1929 2.67912E-03 5.66572E-04-5.34510E-15
 -1      1930 3.17422E-03 6.10137E-04-7.47070E-15
 -1      1931 3.03406E-03 6.08853E-04-6.80672E-15
 -1      1932 2.95993E-03 5.71492E-04-6.55086E-15
 -1      1933 3.45525E-03 6.11410E-04-8.88768E-15
 -1      1934 3.31463E-03 6.10967E-04-8.16472E-15
 -1      1935 3.24141E-03 5.73978E-04-7.87658E-15
 -1      1936 3.72303E-03 6.11438E-04-1.03431E-14
 -1      1937 3.58905E-03 6.11543E-04-9.60229E-15
 -1      1938 3.51650E-03 5.74781E-04-9.28433E-15
 -1      1939 4.00566E-03 6.10621E-04-1.19901E-14
 -1      1940 3.86426E-03 6.11118E-04-1.11520E-14
 -1      1941 3.79220E-03 5.74495E-04-1.08028E-14
 -1      1942 4.28899E-03 6.09213E-04-1.37533E-14
 -1      1943 4.14725E-03 6.09977E-04-1.28569E-14
 -1      1944 4.07556E-03 5.73437E-04-1.24755E-14
 -1      1945 4.57292E-03 6.07384E-04-1.56313E-14
 -1      1946 4.43088E-03 6.08343E-04-1.46777E-14
 -1      1947 4.35946E-03 5.71851E-04-1.42631E-14
 -1      1948 4.85740E-03 6.05224E-04-1.76223E-14
 -1      1949 4.71510E-03 6.06341E-04-1.66135E-14
 -1      1950 4.64384E-03 5.69884E-04-1.61647E-14
 -1      1951 5.14241E-03 6.02753E-04-1.97211E-14
 -1      1952 4.99984E-03 6.04026E-04-1.86581E-14
 -1      1953 4.92867E-03 5.67603E-04-1.81776E-14
 -1      1954 5.42793E-03 5.99942E-04-2.19224E-14
 -1      1955 5.28510E-03 6.01391E-04-2.08096E-14
 -1      1956 5.21395E-03 5.65013E-04-2.02973E-14
 -1      1957 5.71403E-03 5.96715E-04-2.42254E-14
 -1      1958 5.57090E-03 5.98382E-04-2.30611E-14
 -1      1959 5.49967E-03 5.62067E-04-2.25194E-14
 -1      1960 6.00081E-03 5.92962E-04-2.66231E-14
 -1      1961 5.85732E-03 5.94907E-04-2.54124E-14
 -1      1962 5.78591E-03 5.58679E-04-2.48396E-14
 -1      1963 6.28845E-03 5.88543E-04-2.91140E-14
 -1      1964 6.14450E-03 5.90839E-04-2.78564E-14
 -1      1965 6.07275E-03 5.54728E-04-2.72553E-14
 -1      1966 6.57723E-03 5.83291E-04-3.16973E-14
 -1      1967 6.43267E-03 5.86023E-04-3.03952E-14
 -1      1968 6.36034E-03 5.50063E-04-2.97637E-14
 -1      1969 6.86754E-03 5.77029E-04-3.43687E-14
 -1      1970 6.72215E-03 5.80286E-04-3.30217E-14
 -1      1971 6.64888E-03 5.44514E-04-3.23634E-14
 -1      1972 7.15996E-03 5.69597E-04-3.71261E-14
 -1      1973 7.01342E-03 5.73453E-04-3.57374E-14
 -1      1974 6.93866E-03 5.37906E-04-3.50505E-14
 -1      1975 7.45527E-03 5.60918E-04-3.99626E-14
 -1      1976 7.30714E-03 5.65395E-04-3.85351E-14
 -1      1977 7.23005E-03 5.30097E-04-3.78221E-14
 -1      1978 7.73946E-03 5.51644E-04-4.27290E-14
 -1      1979 7.59677E-03 5.56371E-04-4.13365E-14
 -1      1980 7.51614E-03 5.21305E-04-4.06002E-14
 -1      1981 8.04377E-03 5.41432E-04-4.57080E-14
 -1      1982 7.89071E-03 5.46516E-04-4.42099E-14
 -1      1983 7.80466E-03 5.11575E-04-4.34468E-14
 -1      1984 8.35509E-03 5.32502E-04-4.87604E-14
 -1      1985 8.19821E-03 5.36638E-04-4.72263E-14
 -1      1986 8.10363E-03 5.01481E-04-4.64398E-14
 -1      1987 8.67557E-03 5.28952E-04-5.18806E-14
 -1      1988 8.51372E-03 5.29709E-04-5.03118E-14
 -1      1989 8.40623E-03 4.93417E-04-4.95036E-14
 -1      1990 9.00785E-03 5.39547E-04-5.50572E-14
 -1      1991 8.83967E-03 5.31768E-04-5.34623E-14
 -1      1992 8.71299E-03 4.92114E-04-5.26309E-14
 -1      1993 9.35575E-03 5.81712E-04-5.82842E-14
 -1      1994 9.17926E-03 5.55195E-04-5.66655E-14
 -1      1995 9.02506E-03 5.07141E-04-5.58156E-14
 -1      1996 9.72634E-03 6.87151E-04-6.15549E-14
 -1      1997 9.53781E-03 6.23575E-04-5.99134E-14
 -1      1998 9.34619E-03 5.56641E-04-5.90475E-14
 -1      1999 1.01333E-02 9.05521E-04-6.48672E-14
 -1      2000 9.92566E-03 7.77275E-04-6.32048E-14
 -1      2001 9.68769E-03 6.72668E-04-6.23199E-14
 -1      2002 1.05943E-02 1.29168E-03-6.82278E-14
 -1      2003 1.03596E-02 1.07266E-03-6.65413E-14
 -1      2004 1.00739E-02 9.07397E-04-6.56378E-14
 -1      2005 1.27476E-02 2.00544E-03-8.30804E-14
 -1      2006 1.25071E-02 2.18353E-03-8.13616E-14
 -1      2007 1.32298E-02 1.68469E-03-8.65239E-14
 -1      2008 1.30016E-02 1.82453E-03-8.47951E-14
 -1      2009 1.36778E-02 1.52712E-03-9.01902E-14
 -1      2010 1.34633E-02 1.58540E-03-8.83536E-14
 -1      2011 1.34345E-02 1.55898E-03-8.74211E-14
 -1      2012 1.40769E-02 1.52358E-03-9.38850E-14
 -1      2013 1.38834E-02 1.51041E-03-9.20329E-14
 -1      2014 1.38438E-02 1.46304E-03-9.10934E-14
 -1      2015 1.44424E-02 1.61709E-03-9.76107E-14
 -1      2016 1.42631E-02 1.56151E-03-9.57452E-14
 -1      2017 1.42017E-02 1.50122E-03-9.47971E-14
 -1      2018 1.47851E-02 1.76245E-03-1.01358E-13
 -1      2019 1.46159E-02 1.68532E-03-9.94821E-14
 -1      2020 1.45328E-02 1.61694E-03-9.85284E-14
 -1      2021 1.51109E-02 1.93135E-03-1.05120E-13
 -1      2022 1.49496E-02 1.84508E-03-1.03239E-13
 -1      2023 1.48501E-02 1.77250E-03-1.02280E-13
 -1      2024 1.54236E-02 2.10783E-03-1.08896E-13
 -1      2025 1.52685E-02 2.01928E-03-1.07006E-13
 -1      2026 1.51585E-02 1.94533E-03-1.06048E-13
 -1      2027 1.57260E-02 2.28280E-03-1.12676E-13
 -1      2028 1.55757E-02 2.19592E-03-1.10785E-13
 -1      2029 1.54599E-02 2.12261E-03-1.09827E-13
 -1      2030 1.60204E-02 2.45068E-03-1.16442E-13
 -1      2031 1.58739E-02 2.36790E-03-1.14561E-13
 -1      2032 1.57553E-02 2.29668E-03-1.13605E-13
 -1      2033 1.40988E-02 1.22416E-03-8.66441E-14
 -1      2034 1.41366E-02 1.20249E-03-8.68137E-14
 -1      2035 1.57383E-02 2.29807E-03-1.17467E-13
 -1      2036 1.58061E-02 2.33029E-03-1.17543E-13
 -1      2037 1.58718E-02 2.36367E-03-1.17616E-13
 -1      2038 1.59363E-02 2.39858E-03-1.17691E-13
 -1      2039 1.57186E-02 2.27641E-03-1.15935E-13
 -1      2040 1.61827E-02 2.54090E-03-1.18445E-13
 -1      2041 1.55953E-02 2.23724E-03-1.17307E-13
 -1      2042 1.56685E-02 2.26747E-03-1.17387E-13
 -1      2043 1.55851E-02 2.21253E-03-1.15777E-13
 -1      2044 1.54344E-02 2.17621E-03-1.17143E-13
 -1      2045 1.55169E-02 2.20691E-03-1.17227E-13
 -1      2046 1.54377E-02 2.15124E-03-1.15611E-13
 -1      2047 1.52580E-02 2.11328E-03-1.16968E-13
 -1      2048 1.53480E-02 2.14521E-03-1.17058E-13
 -1      2049 1.52722E-02 2.08892E-03-1.15440E-13
 -1      2050 1.50693E-02 2.04647E-03-1.16785E-13
 -1      2051 1.51650E-02 2.08048E-03-1.16877E-13
 -1      2052 1.50913E-02 2.02348E-03-1.15258E-13
 -1      2053 1.48731E-02 1.97490E-03-1.16591E-13
 -1      2054 1.49719E-02 2.01130E-03-1.16689E-13
 -1      2055 1.48990E-02 1.95342E-03-1.15068E-13
 -1      2056 1.46737E-02 1.89868E-03-1.16392E-13
 -1      2057 1.47735E-02 1.93731E-03-1.16491E-13
 -1      2058 1.47004E-02 1.87845E-03-1.14871E-13
 -1      2059 1.44783E-02 1.82002E-03-1.16198E-13
 -1      2060 1.45758E-02 1.85971E-03-1.16294E-13
 -1      2061 1.45017E-02 1.79986E-03-1.14673E-13
 -1      2062 1.42819E-02 1.73736E-03-1.16004E-13
 -1      2063 1.43797E-02 1.77891E-03-1.16102E-13
 -1      2064 1.43046E-02 1.71814E-03-1.14475E-13
 -1      2065 1.40887E-02 1.65319E-03-1.15806E-13
 -1      2066 1.41849E-02 1.69536E-03-1.15904E-13
 -1      2067 1.41090E-02 1.63382E-03-1.14273E-13
 -1      2068 1.38980E-02 1.56846E-03-1.15596E-13
 -1      2069 1.39931E-02 1.61083E-03-1.15703E-13
 -1      2070 1.39166E-02 1.54867E-03-1.14065E-13
 -1      2071 1.38834E-02 1.31861E-03-8.59403E-14
 -1      2072 1.40000E-02 1.26975E-03-8.63664E-14
 -1      2073 1.38119E-02 1.33555E-03-8.66316E-14
 -1      2074 1.41282E-02 1.17479E-03-8.67467E-14
 -1      2075 1.40794E-02 1.15420E-03-8.66384E-14
 -1      2076 3.27217E-04-8.90909E-05-1.58117E-16
 -1      2077 3.29333E-04-1.02261E-04-1.49335E-16
 -1      2078 4.46371E-04-1.45276E-04-2.16515E-16
 -1      2079 4.40045E-04-1.10116E-04-2.39975E-16
 -1      2080 1.26177E-02 2.08837E-03-8.12079E-14
 -1      2081 1.28088E-02 1.94733E-03-8.21199E-14
 -1      2082 1.10589E-02 1.91854E-03-7.26405E-14
 -1      2083 1.12613E-02 2.09083E-03-7.36136E-14
 -1      2084 1.05851E-02 1.49652E-03-7.04973E-14
 -1      2085 1.08221E-02 1.70627E-03-7.15095E-14
 -1      2086 1.00109E-02 1.07863E-03-6.84646E-14
 -1      2087 1.02663E-02 1.24375E-03-6.92442E-14
 -1      2088 9.52342E-03 8.29836E-04-6.71714E-14
 -1      2089 9.73396E-03 9.30320E-04-6.77359E-14
 -1      2090 9.19370E-03 6.86239E-04-6.61412E-14
 -1      2091 9.33217E-03 7.40063E-04-6.65755E-14
 -1      2092 9.03250E-03 6.28877E-04-6.58608E-14
 -1      2093 9.07799E-03 6.47580E-04-6.59407E-14
 -1      2094 9.07312E-03 5.87367E-04-6.60092E-14
 -1      2095 9.03253E-03 6.06459E-04-6.59146E-14
 -1      2096 9.26453E-03 5.22615E-04-6.64035E-14
 -1      2097 9.15632E-03 5.56176E-04-6.61571E-14
 -1      2098 9.57493E-03 4.16680E-04-6.70846E-14
 -1      2099 9.41125E-03 4.73605E-04-6.67047E-14
 -1      2100 9.98122E-03 2.41357E-04-6.85840E-14
 -1      2101 9.79639E-03 3.25087E-04-6.78723E-14
 -1      2102 1.03683E-02 7.15708E-05-6.99942E-14
 -1      2103 1.01765E-02 1.57204E-04-6.92858E-14
 -1      2104 1.00903E-02 2.05431E-04-6.84141E-14
 -1      2105 1.07766E-02-9.16798E-05-7.20959E-14
 -1      2106 1.06102E-02-2.96235E-05-7.10860E-14
 -1      2107 1.11105E-02-1.45680E-04-7.42578E-14
 -1      2108 1.09551E-02-1.29546E-04-7.32610E-14
 -1      2109 1.14403E-02-9.82753E-05-7.64328E-14
 -1      2110 1.12811E-02-1.36681E-04-7.53507E-14
 -1      2111 1.18480E-02 8.37896E-05-7.88884E-14
 -1      2112 1.16651E-02-1.02965E-05-7.78519E-14
 -1      2113 1.22453E-02 3.16648E-04-8.08840E-14
 -1      2114 1.20442E-02 1.90737E-04-7.98850E-14
 -1      2115 1.18972E-02 1.42702E-04-7.96344E-14
 -1      2116 1.27562E-02 6.07210E-04-8.29219E-14
 -1      2117 1.25284E-02 4.80468E-04-8.20852E-14
 -1      2118 1.32068E-02 8.60129E-04-8.47233E-14
 -1      2119 1.29854E-02 7.46300E-04-8.39357E-14
 -1      2120 1.36821E-02 1.03651E-03-8.58943E-14
 -1      2121 1.34869E-02 9.72516E-04-8.54659E-14
 -1      2122 1.39815E-02 1.12232E-03-8.64691E-14
 -1      2123 1.38567E-02 1.08645E-03-8.61893E-14
 -1      2124 4.52239E-04 2.34619E-04-1.45798E-16
 -1      2125 1.30837E-02 1.76942E-03-8.30678E-14
 -1      2126 1.32963E-02 1.62758E-03-8.39497E-14
 -1      2127 4.59062E-04-2.36854E-04-1.14180E-16
 -1      2128 1.60630E-02 2.47274E-03-1.17498E-13
 -1      2129 1.59971E-02 2.43371E-03-1.17428E-13
 -1      2130 1.40341E-02 1.16596E-03-8.73152E-14
 -1      2131 1.34312E-02 1.52868E-03-8.51316E-14
 -1      2132 6.08018E-04-2.98321E-04-1.95780E-16
 -1      2133 1.29168E-02 1.86209E-03-8.31134E-14
 -1      2134 6.63730E-04-2.92633E-04-2.81771E-16
 -1      2135 6.57032E-04 2.91200E-04-3.29774E-16
 -1      2136 6.01330E-04 2.96698E-04-2.40856E-16
 -1      2137 1.29510E-02 1.84320E-03-8.38772E-14
 -1      2138 1.10591E-02 1.78378E-03-7.13721E-14
 -1      2139 1.08410E-02 1.54285E-03-6.99095E-14
 -1      2140 1.14921E-02 2.20507E-03-7.40687E-14
 -1      2141 1.12597E-02 1.98424E-03-7.25004E-14
 -1      2142 1.19277E-02 2.41760E-03-7.71861E-14
 -1      2143 1.17127E-02 2.36688E-03-7.57683E-14
 -1      2144 1.23016E-02 2.31869E-03-7.98738E-14
 -1      2145 1.21223E-02 2.39736E-03-7.86208E-14
 -1      2146 1.05241E-02 1.31801E-03-6.89843E-14
 -1      2147 1.41429E-02 1.20097E-03-8.75506E-14
 -1      2148 1.58414E-02 2.34409E-03-1.15754E-13
 -1      2149 1.40555E-02 1.24503E-03-8.73387E-14
 -1      2150 1.37803E-02 1.50626E-03-1.14940E-13
 -1      2151 1.37647E-02 1.10395E-03-8.68527E-14
 -1      2152 1.33266E-02 9.58180E-04-8.58130E-14
 -1      2153 1.23381E-02 4.14243E-04-8.18343E-14
 -1      2154 1.15228E-02-6.14394E-05-7.72151E-14
 -1      2155 1.11808E-02-1.53748E-04-7.47048E-14
 -1      2156 1.05015E-02 1.31317E-05-7.02004E-14
 -1      2157 1.03943E-02 5.80493E-05-6.93169E-14
 -1      2158 1.05955E-02-4.01926E-05-7.04022E-14
 -1      2159 9.68669E-03 3.80044E-04-6.69307E-14
 -1      2160 9.33364E-03 5.06241E-04-6.58508E-14
 -1      2161 9.10833E-03 5.69761E-04-6.54060E-14
 -1      2162 9.02394E-03 6.01006E-04-6.52049E-14
 -1      2163 9.13169E-03 6.34315E-04-6.53457E-14
 -1      2164 9.43997E-03 7.33605E-04-6.61325E-14
 -1      2165 9.89524E-03 9.50335E-04-6.74473E-14
 -1      2166 1.04645E-02 1.33369E-03-6.94169E-14
 -1      2167 1.09944E-02 1.80079E-03-7.17948E-14
 -1      2168 1.22008E-02 2.33200E-03-7.87794E-14
 -1      2169 1.23832E-02 2.23874E-03-7.97188E-14
 -1      2170 1.20739E-02 2.40164E-03-7.82148E-14
 -1      2171 1.15541E-02 2.27313E-03-7.47608E-14
 -1      2172 1.24694E-02 2.19405E-03-8.06729E-14
 -1      2173 1.08660E-02-1.23830E-04-7.24487E-14
 -1      2174 1.28308E-02 7.16390E-04-8.40532E-14
 -1      2175 5.47734E-04-5.55807E-05-3.80853E-16
 -1      2176 5.48782E-04-7.22786E-05-3.75202E-16
 -1      2177 5.50212E-04-8.95858E-05-3.68412E-16
 -1      2178 5.52088E-04-1.07550E-04-3.59806E-16
 -1      2179 6.65242E-04-9.58008E-05-5.04479E-16
 -1      2180 5.46308E-04 8.47144E-06-3.91871E-16
 -1      2181 5.46300E-04-7.33480E-06-3.90584E-16
 -1      2182 5.47038E-04 4.04055E-05-3.91817E-16
 -1      2183 5.46551E-04 2.43722E-05-3.92359E-16
 -1      2184 6.61209E-04 1.94591E-05-5.31124E-16
 -1      2185 5.48832E-04 7.29256E-05-3.87819E-16
 -1      2186 5.47787E-04 5.64881E-05-3.90475E-16
 -1      2187 6.62502E-04 5.72266E-05-5.29985E-16
 -1      2188 5.52176E-04 1.08253E-04-3.78847E-16
 -1      2189 5.50277E-04 9.02584E-05-3.83984E-16
 -1      2190 6.65317E-04 9.65797E-05-5.23412E-16
 -1      2191 5.57984E-04 1.47380E-04-3.63126E-16
 -1      2192 5.54707E-04 1.27270E-04-3.72030E-16
 -1      2193 6.70341E-04 1.39190E-04-5.10104E-16
 -1      2194 5.68222E-04 1.92662E-04-3.38095E-16
 -1      2195 5.62415E-04 1.69142E-04-3.52284E-16
 -1      2196 6.78893E-04 1.86547E-04-4.88094E-16
 -1      2197 6.14155E-04 2.52934E-04-3.27321E-16
 -1      2198 6.03359E-04 2.23683E-04-3.49750E-16
 -1      2199 7.20685E-04 2.44593E-04-4.88785E-16
 -1      2200 8.00249E-04 3.16891E-04-5.09277E-16
 -1      2201 9.15323E-04-3.46691E-04-5.71456E-16
 -1      2202 1.05943E-03-3.80059E-04-7.60297E-16
 -1      2203 1.20271E-03-4.08489E-04-9.78479E-16
 -1      2204 1.34553E-03-4.32412E-04-1.22648E-15
 -1      2205 1.11710E-03-3.60897E-04-9.09510E-16
 -1      2206 1.48772E-03-4.52679E-04-1.50402E-15
 -1      2207 1.62951E-03-4.69562E-04-1.81203E-15
 -1      2208 1.40345E-03-4.07760E-04-1.41483E-15
 -1      2209 1.77094E-03-4.83736E-04-2.14954E-15
 -1      2210 1.91214E-03-4.95415E-04-2.51658E-15
 -1      2211 1.68859E-03-4.41087E-04-2.03833E-15
 -1      2212 2.05318E-03-5.05094E-04-2.91312E-15
 -1      2213 2.19411E-03-5.12949E-04-3.33993E-15
 -1      2214 1.97280E-03-4.64211E-04-2.77983E-15
 -1      2215 2.33502E-03-5.19340E-04-3.79583E-15
 -1      2216 2.47592E-03-5.24411E-04-4.28112E-15
 -1      2217 2.25645E-03-4.79778E-04-3.63837E-15
 -1      2218 2.61688E-03-5.28425E-04-4.79609E-15
 -1      2219 2.75788E-03-5.31496E-04-5.34009E-15
 -1      2220 2.53988E-03-4.89823E-04-4.61477E-15
 -1      2221 2.89900E-03-5.33817E-04-5.91317E-15
 -1      2222 3.04019E-03-5.35476E-04-6.51482E-15
 -1      2223 2.82331E-03-4.95896E-04-5.70727E-15
 -1      2224 3.18151E-03-5.36612E-04-7.14451E-15
 -1      2225 3.32293E-03-5.37293E-04-7.80264E-15
 -1      2226 3.10691E-03-4.99165E-04-6.91393E-15
 -1      2227 3.46448E-03-5.37617E-04-8.48882E-15
 -1      2228 3.60612E-03-5.37635E-04-9.20213E-15
 -1      2229 3.39073E-03-5.00492E-04-8.23422E-15
 -1      2230 3.74790E-03-5.37413E-04-9.94178E-15
 -1      2231 3.88976E-03-5.36991E-04-1.07083E-14
 -1      2232 3.67482E-03-5.00504E-04-9.66389E-15
 -1      2233 4.03175E-03-5.36410E-04-1.15001E-14
 -1      2234 4.17382E-03-5.35698E-04-1.23184E-14
 -1      2235 3.95919E-03-4.99644E-04-1.11990E-14
 -1      2236 4.31600E-03-5.34881E-04-1.31629E-14
 -1      2237 4.45827E-03-5.33978E-04-1.40313E-14
 -1      2238 4.24383E-03-4.98212E-04-1.28384E-14
 -1      2239 4.60063E-03-5.33004E-04-1.49256E-14
 -1      2240 4.74308E-03-5.31970E-04-1.58454E-14
 -1      2241 4.52873E-03-4.96403E-04-1.45806E-14
 -1      2242 4.88560E-03-5.30884E-04-1.67890E-14
 -1      2243 5.02821E-03-5.29752E-04-1.77575E-14
 -1      2244 4.81387E-03-4.94335E-04-1.64224E-14
 -1      2245 5.17090E-03-5.28579E-04-1.87514E-14
 -1      2246 5.31367E-03-5.27369E-04-1.97712E-14
 -1      2247 5.09924E-03-4.92072E-04-1.83641E-14
 -1      2248 5.45653E-03-5.26125E-04-2.08160E-14
 -1      2249 5.59946E-03-5.24851E-04-2.18854E-14
 -1      2250 5.38484E-03-4.89650E-04-2.04056E-14
 -1      2251 5.74249E-03-5.23553E-04-2.29798E-14
 -1      2252 5.88560E-03-5.22237E-04-2.40997E-14
 -1      2253 5.67070E-03-4.87093E-04-2.25480E-14
 -1      2254 6.02881E-03-5.20915E-04-2.52445E-14
 -1      2255 6.17213E-03-5.19596E-04-2.64130E-14
 -1      2256 5.95684E-03-4.84439E-04-2.47913E-14
 -1      2257 6.31555E-03-5.18302E-04-2.76067E-14
 -1      2258 6.45909E-03-5.17051E-04-2.88237E-14
 -1      2259 6.24331E-03-4.81759E-04-2.71330E-14
 -1      2260 6.60276E-03-5.15877E-04-3.00649E-14
 -1      2261 6.74656E-03-5.14807E-04-3.13283E-14
 -1      2262 6.53018E-03-4.79180E-04-2.95696E-14
 -1      2263 6.89052E-03-5.13893E-04-3.26153E-14
 -1      2264 7.03462E-03-5.13171E-04-3.39264E-14
 -1      2265 6.81755E-03-4.76916E-04-3.21000E-14
 -1      2266 7.17889E-03-5.12711E-04-3.52606E-14
 -1      2267 7.32332E-03-5.12564E-04-3.66158E-14
 -1      2268 7.10554E-03-4.75286E-04-3.47220E-14
 -1      2269 7.46795E-03-5.12813E-04-3.79927E-14
 -1      2270 7.61273E-03-5.13518E-04-3.93921E-14
 -1      2271 7.39431E-03-4.74725E-04-3.74350E-14
 -1      2272 7.75771E-03-5.14768E-04-4.08114E-14
 -1      2273 7.90281E-03-5.16625E-04-4.22504E-14
 -1      2274 7.68399E-03-4.75782E-04-4.02324E-14
 -1      2275 8.04811E-03-5.19165E-04-4.37099E-14
 -1      2276 8.19346E-03-5.22432E-04-4.51905E-14
 -1      2277 7.97473E-03-4.79069E-04-4.31121E-14
 -1      2278 8.33895E-03-5.26457E-04-4.66911E-14
 -1      2279 8.48438E-03-5.31239E-04-4.82091E-14
 -1      2280 8.26655E-03-4.85148E-04-4.60729E-14
 -1      2281 8.62983E-03-5.36714E-04-4.97455E-14
 -1      2282 8.77503E-03-5.42789E-04-5.12996E-14
 -1      2283 8.55932E-03-4.94323E-04-4.91092E-14
 -1      2284 8.92004E-03-5.49251E-04-5.28681E-14
 -1      2285 9.06454E-03-5.55852E-04-5.44556E-14
 -1      2286 8.85260E-03-5.06306E-04-5.22149E-14
 -1      2287 9.20856E-03-5.62178E-04-5.60574E-14
 -1      2288 9.35176E-03-5.67770E-04-5.76720E-14
 -1      2289 9.14551E-03-5.19755E-04-5.53842E-14
 -1      2290 9.49412E-03-5.71981E-04-5.93040E-14
 -1      2291 9.63538E-03-5.74116E-04-6.09507E-14
 -1      2292 9.43677E-03-5.31765E-04-5.86167E-14
 -1      2293 9.77547E-03-5.73326E-04-6.26107E-14
 -1      2294 9.91432E-03-5.68731E-04-6.42850E-14
 -1      2295 9.72482E-03-5.37474E-04-6.19063E-14
 -1      2296 1.00518E-02-5.59391E-04-6.59750E-14
 -1      2297 1.01882E-02-5.44397E-04-6.76783E-14
 -1      2298 1.00083E-02-5.30125E-04-6.52541E-14
 -1      2299 1.03234E-02-5.22915E-04-6.93944E-14
 -1      2300 1.04579E-02-4.94238E-04-7.11247E-14
 -1      2301 1.02868E-02-5.01908E-04-6.86590E-14
 -1      2302 1.05916E-02-4.57862E-04-7.28670E-14
 -1      2303 1.07253E-02-4.13504E-04-7.46221E-14
 -1      2304 1.05614E-02-4.45670E-04-7.21166E-14
 -1      2305 1.08590E-02-3.61144E-04-7.63887E-14
 -1      2306 1.09932E-02-3.01018E-04-7.81659E-14
 -1      2307 1.08342E-02-3.56997E-04-7.56254E-14
 -1      2308 1.11281E-02-2.33592E-04-7.99581E-14
 -1      2309 1.12640E-02-1.59540E-04-8.17619E-14
 -1      2310 1.11083E-02-2.35699E-04-7.91823E-14
 -1      2311 1.14010E-02-7.96659E-05-8.35768E-14
 -1      2312 1.15393E-02 5.14217E-06-8.54046E-14
 -1      2313 1.13861E-02-8.58636E-05-8.27871E-14
 -1      2314 1.16787E-02 9.39674E-05-8.72448E-14
 -1      2315 1.18192E-02 1.85943E-04-8.90986E-14
 -1      2316 1.16687E-02 8.55783E-05-8.64404E-14
 -1      2317 1.19607E-02 2.80243E-04-9.09622E-14
 -1      2318 1.21029E-02 3.76187E-04-9.28364E-14
 -1      2319 1.19555E-02 2.70955E-04-9.01442E-14
 -1      2320 1.22459E-02 4.73157E-04-9.47168E-14
 -1      2321 1.23893E-02 5.70719E-04-9.66072E-14
 -1      2322 1.22454E-02 4.63631E-04-9.38886E-14
 -1      2323 1.25332E-02 6.68497E-04-9.85042E-14
 -1      2324 1.26771E-02 7.66280E-04-1.00405E-13
 -1      2325 1.25365E-02 6.58925E-04-9.76612E-14
 -1      2326 1.28211E-02 8.63900E-04-1.02315E-13
 -1      2327 1.29650E-02 9.61305E-04-1.04233E-13
 -1      2328 1.28277E-02 8.54206E-04-1.01464E-13
 -1      2329 1.31089E-02 1.05847E-03-1.06156E-13
 -1      2330 1.32526E-02 1.15546E-03-1.08086E-13
 -1      2331 1.31180E-02 1.04848E-03-1.05295E-13
 -1      2332 1.08850E-03 3.87188E-04-9.05499E-16
 -1      2333 9.44465E-04 3.54810E-04-6.91775E-16
 -1      2334 9.02257E-04 3.16318E-04-6.81489E-16
 -1      2335 1.89810E-03 4.94507E-04-2.71500E-15
 -1      2336 1.75689E-03 4.82598E-04-2.32551E-15
 -1      2337 2.18009E-03 5.12411E-04-3.58596E-15
 -1      2338 2.03915E-03 5.04385E-04-3.13517E-15
 -1      2339 1.95868E-03 4.63422E-04-2.97016E-15
 -1      2340 2.46190E-03 5.24146E-04-4.57956E-15
 -1      2341 2.32100E-03 5.18950E-04-4.06757E-15
 -1      2342 2.24235E-03 4.79327E-04-3.87437E-15
 -1      2343 2.74385E-03 5.31432E-04-5.69389E-15
 -1      2344 2.60285E-03 5.28268E-04-5.12161E-15
 -1      2345 2.52578E-03 4.89621E-04-4.89901E-15
 -1      2346 3.02614E-03 5.35557E-04-6.92831E-15
 -1      2347 2.88496E-03 5.33831E-04-6.29612E-15
 -1      2348 2.80921E-03 4.95877E-04-6.04330E-15
 -1      2349 3.30886E-03 5.37477E-04-8.28313E-15
 -1      2350 3.16745E-03 5.36749E-04-7.59108E-15
 -1      2351 3.09280E-03 4.99277E-04-7.30756E-15
 -1      2352 3.57786E-03 5.37897E-04-9.67886E-15
 -1      2353 3.44331E-03 5.37830E-04-8.96796E-15
 -1      2354 3.36951E-03 5.00680E-04-8.65428E-15
 -1      2355 3.86146E-03 5.37338E-04-1.12618E-14
 -1      2356 3.71961E-03 5.37724E-04-1.04553E-14
 -1      2357 3.64649E-03 5.00793E-04-1.01112E-14
 -1      2358 4.14548E-03 5.36088E-04-1.29598E-14
 -1      2359 4.00342E-03 5.36784E-04-1.20962E-14
 -1      2360 3.93084E-03 5.00004E-04-1.17198E-14
 -1      2361 4.42991E-03 5.34365E-04-1.47719E-14
 -1      2362 4.28765E-03 5.35276E-04-1.38521E-14
 -1      2363 4.21548E-03 4.98603E-04-1.34438E-14
 -1      2364 4.71470E-03 5.32292E-04-1.66976E-14
 -1      2365 4.57226E-03 5.33367E-04-1.57209E-14
 -1      2366 4.50037E-03 4.96778E-04-1.52809E-14
 -1      2367 4.99984E-03 5.29919E-04-1.87318E-14
 -1      2368 4.85723E-03 5.31141E-04-1.77016E-14
 -1      2369 4.78552E-03 4.94631E-04-1.72286E-14
 -1      2370 5.28534E-03 5.27234E-04-2.08712E-14
 -1      2371 5.14254E-03 5.28616E-04-1.97883E-14
 -1      2372 5.07093E-03 4.92194E-04-1.92840E-14
 -1      2373 5.57120E-03 5.24182E-04-2.31137E-14
 -1      2374 5.42822E-03 5.25757E-04-2.19802E-14
 -1      2375 5.35658E-03 4.89445E-04-2.14444E-14
 -1      2376 5.85747E-03 5.20668E-04-2.54528E-14
 -1      2377 5.71428E-03 5.22487E-04-2.42711E-14
 -1      2378 5.64249E-03 4.86321E-04-2.37061E-14
 -1      2379 6.14422E-03 5.16567E-04-2.78857E-14
 -1      2380 6.00078E-03 5.18696E-04-2.66579E-14
 -1      2381 5.92869E-03 4.82725E-04-2.60629E-14
 -1      2382 6.43154E-03 5.11730E-04-3.04123E-14
 -1      2383 6.28779E-03 5.14245E-04-2.91370E-14
 -1      2384 6.21518E-03 4.78537E-04-2.85149E-14
 -1      2385 6.71953E-03 5.05998E-04-3.30266E-14
 -1      2386 6.57542E-03 5.08980E-04-3.17084E-14
 -1      2387 6.50199E-03 4.73624E-04-3.10568E-14
 -1      2388 7.00832E-03 4.99227E-04-3.57297E-14
 -1      2389 6.86379E-03 5.02745E-04-3.43674E-14
 -1      2390 6.78910E-03 4.67858E-04-3.36877E-14
 -1      2391 7.29800E-03 4.91331E-04-3.85152E-14
 -1      2392 7.15300E-03 4.95418E-04-3.71126E-14
 -1      2393 7.07641E-03 4.61151E-04-3.64054E-14
 -1      2394 7.57406E-03 4.82864E-04-4.12325E-14
 -1      2395 7.43587E-03 4.87206E-04-3.98654E-14
 -1      2396 7.35653E-03 4.53723E-04-3.91347E-14
 -1      2397 7.86544E-03 4.73353E-04-4.41642E-14
 -1      2398 7.71956E-03 4.78158E-04-4.26899E-14
 -1      2399 7.63620E-03 4.45644E-04-4.19358E-14
 -1      2400 8.15722E-03 4.64387E-04-4.71702E-14
 -1      2401 8.01116E-03 4.68736E-04-4.56576E-14
 -1      2402 7.92176E-03 4.37361E-04-4.48801E-14
 -1      2403 8.44860E-03 4.58568E-04-5.02433E-14
 -1      2404 8.30279E-03 4.60940E-04-4.86978E-14
 -1      2405 8.20460E-03 4.30608E-04-4.78970E-14
 -1      2406 8.73848E-03 4.61146E-04-5.33805E-14
 -1      2407 8.59347E-03 4.58499E-04-5.18049E-14
 -1      2408 8.48252E-03 4.28425E-04-5.09823E-14
 -1      2409 9.02640E-03 4.81985E-04-5.65702E-14
 -1      2410 8.88220E-03 4.68616E-04-5.49688E-14
 -1      2411 8.75277E-03 4.36329E-04-5.41259E-14
 -1      2412 9.31574E-03 5.38665E-04-5.98063E-14
 -1      2413 9.16985E-03 5.04269E-04-5.81832E-14
 -1      2414 9.01332E-03 4.63530E-04-5.73219E-14
 -1      2415 9.61940E-03 6.62533E-04-6.30849E-14
 -1      2416 9.46345E-03 5.88846E-04-6.14408E-14
 -1      2417 9.26659E-03 5.26085E-04-6.05647E-14
 -1      2418 1.41556E-02 1.22172E-03-8.86336E-14
 -1      2419 1.41432E-02 1.21606E-03-8.85672E-14
 -1      2420 1.02378E-02 1.09217E-03-6.77434E-14
 -1      2421 1.36287E-02 1.45457E-03-8.82763E-14
 -1      2422 1.34217E-02 1.53781E-03-8.64473E-14
 -1      2423 1.46089E-02 1.61900E-03-9.93884E-14
 -1      2424 1.44614E-02 1.54733E-03-9.75167E-14
 -1      2425 1.49014E-02 1.78104E-03-1.03144E-13
 -1      2426 1.47549E-02 1.69747E-03-1.01264E-13
 -1      2427 1.46719E-02 1.62822E-03-1.00247E-13
 -1      2428 1.51932E-02 1.95537E-03-1.06915E-13
 -1      2429 1.50471E-02 1.86727E-03-1.05029E-13
 -1      2430 1.49446E-02 1.79353E-03-1.04007E-13
 -1      2431 1.54839E-02 2.13200E-03-1.10701E-13
 -1      2432 1.53385E-02 2.04380E-03-1.08808E-13
 -1      2433 1.52232E-02 1.96772E-03-1.07785E-13
 -1      2434 1.57357E-02 2.28221E-03-1.14172E-13
 -1      2435 1.55919E-02 2.19652E-03-1.12281E-13
 -1      2436 1.54699E-02 2.12080E-03-1.11261E-13
 -1      2437 1.56790E-02 2.24855E-03-1.14429E-13
 -1      2438 1.40271E-02 1.26201E-03-8.83280E-14
 -1      2439 1.41160E-02 1.23959E-03-8.86080E-14
 -1      2440 1.51093E-02 2.00172E-03-1.13734E-13
 -1      2441 1.51968E-02 2.03394E-03-1.13825E-13
 -1      2442 1.40835E-02 1.20192E-03-8.83409E-14
 -1      2443 1.39904E-02 1.18954E-03-8.81741E-14
 -1      2444 1.49234E-02 1.93386E-03-1.13547E-13
 -1      2445 1.50180E-02 1.96850E-03-1.13641E-13
 -1      2446 1.49453E-02 1.91499E-03-1.12028E-13
 -1      2447 1.47272E-02 1.86056E-03-1.13353E-13
 -1      2448 1.48262E-02 1.89792E-03-1.13451E-13
 -1      2449 1.47539E-02 1.84446E-03-1.11837E-13
 -1      2450 1.45264E-02 1.78213E-03-1.13154E-13
 -1      2451 1.46271E-02 1.82192E-03-1.13254E-13
 -1      2452 1.45540E-02 1.76764E-03-1.11640E-13
 -1      2453 1.43288E-02 1.70115E-03-1.12954E-13
 -1      2454 1.44274E-02 1.74201E-03-1.13054E-13
 -1      2455 1.43529E-02 1.68626E-03-1.11438E-13
 -1      2456 1.41304E-02 1.61626E-03-1.12749E-13
 -1      2457 1.42292E-02 1.65889E-03-1.12851E-13
 -1      2458 1.41533E-02 1.60139E-03-1.11233E-13
 -1      2459 1.39357E-02 1.53022E-03-1.12540E-13
 -1      2460 1.40326E-02 1.57327E-03-1.12645E-13
 -1      2461 1.39557E-02 1.51399E-03-1.11022E-13
 -1      2462 1.37445E-02 1.44408E-03-1.12325E-13
 -1      2463 1.38397E-02 1.48708E-03-1.12431E-13
 -1      2464 1.37623E-02 1.42628E-03-1.10806E-13
 -1      2465 1.36558E-02 1.42127E-03-1.13194E-13
 -1      2466 1.38133E-02 1.33572E-03-8.74668E-14
 -1      2467 1.39326E-02 1.29179E-03-8.78966E-14
 -1      2468 1.40319E-02 1.27903E-03-8.91676E-14
 -1      2469 1.38533E-02 1.15998E-03-8.78716E-14
 -1      2470 1.36924E-02 1.12330E-03-8.75762E-14
 -1      2471 1.61543E-03 4.68158E-04-1.96659E-15
 -1      2472 1.47360E-03 4.50963E-04-1.63801E-15
 -1      2473 1.67444E-03 4.39846E-04-2.18746E-15
 -1      2474 1.54322E-02 2.12619E-03-1.14087E-13
 -1      2475 1.55010E-02 2.15674E-03-1.14171E-13
 -1      2476 1.15816E-02-1.60806E-05-7.80250E-14
 -1      2477 1.14025E-02-1.02913E-04-7.66047E-14
 -1      2478 9.79507E-03 3.34813E-04-6.66437E-14
 -1      2479 9.59086E-03 4.14741E-04-6.58640E-14
 -1      2480 1.55600E-02 2.18499E-03-1.14260E-13
 -1      2481 1.56238E-02 2.21793E-03-1.14342E-13
 -1      2482 1.55215E-02 2.15461E-03-1.12753E-13
 -1      2483 1.54100E-02 2.09725E-03-1.12571E-13
 -1      2484 1.52797E-02 2.06497E-03-1.13914E-13
 -1      2485 1.53584E-02 2.09581E-03-1.14001E-13
 -1      2486 1.52790E-02 2.03996E-03-1.12393E-13
 -1      2487 1.51217E-02 1.97944E-03-1.12214E-13
 -1      2488 1.43133E-02 1.48596E-03-9.56525E-14
 -1      2489 1.41614E-02 1.43885E-03-9.37922E-14
 -1      2490 1.44060E-02 1.48375E-03-9.65069E-14
 -1      2491 1.39967E-02 1.41514E-03-9.19495E-14
 -1      2492 1.38269E-02 1.41535E-03-9.01063E-14
 -1      2493 1.38191E-02 1.37342E-03-8.91248E-14
 -1      2494 1.41349E-02 1.38427E-03-9.27983E-14
 -1      2495 5.46525E-04-2.32272E-05-3.88429E-16
 -1      2496 5.46993E-04-3.92439E-05-3.85244E-16
 -1      2497 6.62443E-04-5.61648E-05-5.18994E-16
 -1      2498 6.61186E-04-1.81079E-05-5.27613E-16
 -1      2499 1.35287E-03 4.34144E-04-1.38295E-15
 -1      2500 1.21007E-03 4.10400E-04-1.11200E-15
 -1      2501 1.16769E-03 3.71735E-04-1.09639E-15
 -1      2502 1.41078E-03 4.09364E-04-1.57117E-15
 -1      2503 1.09540E-02-1.53436E-04-7.29588E-14
 -1      2504 1.08056E-02-1.19236E-04-7.17958E-14
 -1      2505 9.73674E-03 8.18267E-04-6.63057E-14
 -1      2506 9.98321E-03 9.46387E-04-6.70238E-14
 -1      2507 1.00498E-02 9.46061E-04-6.65967E-14
 -1      2508 9.36606E-03 6.62028E-04-6.51050E-14
 -1      2509 9.54774E-03 7.30439E-04-6.56932E-14
 -1      2510 9.07123E-03 5.86693E-04-6.43211E-14
 -1      2511 9.17741E-03 6.03789E-04-6.45142E-14
 -1      2512 9.02030E-03 5.76951E-04-6.43916E-14
 -1      2513 9.01888E-03 5.78806E-04-6.43356E-14
 -1      2514 9.13183E-03 5.54633E-04-6.46799E-14
 -1      2515 9.05808E-03 5.68342E-04-6.45346E-14
 -1      2516 9.02285E-03 5.54656E-04-6.36655E-14
 -1      2517 9.38263E-03 4.84922E-04-6.51405E-14
 -1      2518 9.25187E-03 5.22014E-04-6.48453E-14
 -1      2519 1.01522E-02 1.66489E-04-6.79103E-14
 -1      2520 9.98807E-03 2.46484E-04-6.72163E-14
 -1      2521 1.28697E-02 7.92849E-04-8.51773E-14
 -1      2522 1.26570E-02 6.67169E-04-8.41605E-14
 -1      2523 1.12222E-02-1.53888E-04-7.51351E-14
 -1      2524 1.10927E-02-1.64662E-04-7.40431E-14
 -1      2525 1.10095E-02-1.68027E-04-7.33827E-14
 -1      2526 1.19489E-02 2.16083E-04-8.05995E-14
 -1      2527 1.17914E-02 1.10884E-04-7.96013E-14
 -1      2528 1.24137E-02 5.15672E-04-8.29762E-14
 -1      2529 1.21703E-02 3.56543E-04-8.17715E-14
 -1      2530 1.20520E-02 3.09302E-04-8.17352E-14
 -1      2531 1.24887E-02 5.95535E-04-8.40958E-14
 -1      2532 1.34498E-02 1.05047E-03-8.70985E-14
 -1      2533 1.31946E-02 9.49989E-04-8.63531E-14
 -1      2534 1.31763E-02 1.67719E-03-8.48286E-14
 -1      2535 5.88613E-04-2.38187E-04-2.68421E-16
 -1      2536 7.81429E-04-3.05111E-04-4.32407E-16
 -1      2537 8.40863E-04-2.93905E-04-5.43375E-16
 -1      2538 5.79027E-04-2.10359E-04-2.93683E-16
 -1      2539 1.34139E-02 1.53232E-03-8.56785E-14
 -1      2540 6.70194E-04-1.38251E-04-4.82565E-16
 -1      2541 5.54577E-04-1.26443E-04-3.49371E-16
 -1      2542 5.57800E-04-1.46407E-04-3.36428E-16
 -1      2543 1.16570E-02 4.57480E-05-7.89820E-14
 -1      2544 1.41291E-02 1.23306E-03-8.94283E-14
 -1      2545 9.67745E-03 7.12024E-04-6.43237E-14
 -1      2546 9.43226E-03 6.14433E-04-6.34314E-14
 -1      2547 1.41611E-02 1.24783E-03-8.96288E-14
 -1      2548 9.85558E-03 7.92603E-04-6.49294E-14
 -1      2549 9.62800E-03 7.33187E-04-6.52732E-14
 -1      2550 1.35729E-02 1.11281E-03-8.81177E-14
 -1      2551 1.39365E-02 1.20264E-03-8.88992E-14
 -1      2552 1.34725E-02 1.30511E-03-1.11125E-13
 -1      2553 1.36376E-02 1.39017E-03-1.11891E-13
 -1      2554 1.35601E-02 1.32834E-03-1.10262E-13
 -1      2555 1.33478E-02 1.22009E-03-1.09393E-13
 -1      2556 1.36453E-02 1.40772E-03-8.67516E-14
 -1      2557 1.37970E-02 1.35393E-03-8.80168E-14
 -1      2558 1.07754E-02-1.31120E-04-7.14095E-14
 -1      2559 1.06962E-02-9.12457E-05-7.09057E-14
 -1      2560 1.05875E-02-5.94558E-05-7.00190E-14
 -1      2561 5.64307E-04-1.65165E-04-3.26413E-16
 -1      2562 5.69759E-04-1.88227E-04-3.08605E-16
 -1      2563 6.97880E-04-2.28009E-04-4.26837E-16
 -1      2564 6.80715E-04-1.81937E-04-4.56652E-16
 -1      2565 1.12991E-02-1.30507E-04-7.59352E-14
 -1      2566 9.47441E-03 4.38418E-04-6.48539E-14
 -1      2567 1.02594E-02 9.68710E-05-6.81099E-14
 -1      2568 9.16630E-03 5.26437E-04-6.39716E-14
 -1      2569 9.02843E-03 5.57496E-04-6.35065E-14
 -1      2570 1.30282E-02 8.99217E-04-8.64628E-14
 -1      2571 1.28824E-02 8.42349E-04-8.65677E-14
 -1      2572 1.31781E-02 9.86337E-04-8.77467E-14
 -1      2573 9.25068E-03 5.98157E-04-6.40778E-14
 -1      2574 9.32631E-03 5.96741E-04-6.36382E-14
 -1      2575 9.15526E-03 5.54127E-04-6.30542E-14
 -1      2576 9.86085E-03 2.82449E-04-6.61434E-14
 -1      2577 1.33583E-02 1.20971E-03-1.08521E-13
 -1      2578 7.79989E-04 7.66828E-05-6.90257E-16
 -1      2579 7.78751E-04 5.48717E-05-6.92521E-16
 -1      2580 7.77926E-04 3.30054E-05-6.93158E-16
 -1      2581 7.77522E-04 1.13816E-05-6.92263E-16
 -1      2582 8.96294E-04 4.90456E-05-8.77336E-16
 -1      2583 7.91176E-04 1.72181E-04-6.61770E-16
 -1      2584 7.87207E-04 1.46863E-04-6.72382E-16
 -1      2585 8.02922E-04 2.27193E-04-6.32076E-16
 -1      2586 7.96387E-04 1.98906E-04-6.48610E-16
 -1      2587 9.14436E-04 2.06808E-04-8.33250E-16
 -1      2588 8.69547E-04 2.87238E-04-6.68167E-16
 -1      2589 8.32227E-04 2.52880E-04-6.50359E-16
 -1      2590 9.50372E-04 2.62930E-04-8.38075E-16
 -1      2591 1.01267E-03 3.18838E-04-8.76605E-16
 -1      2592 1.03377E-03-3.14615E-04-8.38075E-16
 -1      2593 1.17703E-03-3.40778E-04-1.06606E-15
 -1      2594 7.84116E-04 1.22686E-04-6.80201E-16
 -1      2595 7.81765E-04 9.93147E-05-6.86164E-16
 -1      2596 8.99353E-04 9.87109E-05-8.71915E-16
 -1      2597 9.05003E-04 1.50717E-04-8.57767E-16
 -1      2598 1.32023E-03-3.63252E-04-1.32298E-15
 -1      2599 1.46346E-03-3.82282E-04-1.60936E-15
 -1      2600 1.23847E-03-3.19547E-04-1.22939E-15
 -1      2601 1.60651E-03-3.98408E-04-1.92493E-15
 -1      2602 1.74944E-03-4.11860E-04-2.27009E-15
 -1      2603 1.52503E-03-3.55982E-04-1.81005E-15
 -1      2604 1.89222E-03-4.23107E-04-2.64430E-15
 -1      2605 2.03488E-03-4.32336E-04-3.04746E-15
 -1      2606 1.81172E-03-3.81969E-04-2.50697E-15
 -1      2607 2.17743E-03-4.39923E-04-3.48007E-15
 -1      2608 2.31990E-03-4.46020E-04-3.94175E-15
 -1      2609 2.09818E-03-3.99895E-04-3.32015E-15
 -1      2610 2.46232E-03-4.50916E-04-4.43210E-15
 -1      2611 2.60469E-03-4.54733E-04-4.95190E-15
 -1      2612 2.38436E-03-4.11779E-04-4.24883E-15
 -1      2613 2.74704E-03-4.57688E-04-5.50048E-15
 -1      2614 2.88938E-03-4.59877E-04-6.07766E-15
 -1      2615 2.67030E-03-4.19235E-04-5.29293E-15
 -1      2616 3.03173E-03-4.61461E-04-6.68304E-15
 -1      2617 3.17409E-03-4.62511E-04-7.31648E-15
 -1      2618 2.95608E-03-4.23521E-04-6.45108E-15
 -1      2619 3.31647E-03-4.63145E-04-7.97825E-15
 -1      2620 3.45886E-03-4.63417E-04-8.66802E-15
 -1      2621 3.24175E-03-4.25584E-04-7.72207E-15
 -1      2622 3.60130E-03-4.63409E-04-9.38431E-15
 -1      2623 3.74375E-03-4.63159E-04-1.01278E-14
 -1      2624 3.52736E-03-4.26125E-04-9.10402E-15
 -1      2625 3.88625E-03-4.62726E-04-1.08974E-14
 -1      2626 4.02877E-03-4.62134E-04-1.16923E-14
 -1      2627 3.81295E-03-4.25648E-04-1.05939E-14
 -1      2628 4.17134E-03-4.61422E-04-1.25139E-14
 -1      2629 4.31393E-03-4.60606E-04-1.33614E-14
 -1      2630 4.09853E-03-4.24500E-04-1.21887E-14
 -1      2631 4.45655E-03-4.59710E-04-1.42341E-14
 -1      2632 4.59921E-03-4.58745E-04-1.51317E-14
 -1      2633 4.38412E-03-4.22913E-04-1.38862E-14
 -1      2634 4.74191E-03-4.57722E-04-1.60545E-14
 -1      2635 4.88463E-03-4.56648E-04-1.70018E-14
 -1      2636 4.66974E-03-4.21031E-04-1.56854E-14
 -1      2637 5.02740E-03-4.55528E-04-1.79748E-14
 -1      2638 5.17019E-03-4.54367E-04-1.89729E-14
 -1      2639 4.95540E-03-4.18933E-04-1.75846E-14
 -1      2640 5.31303E-03-4.53166E-04-1.99967E-14
 -1      2641 5.45590E-03-4.51928E-04-2.10447E-14
 -1      2642 5.24109E-03-4.16657E-04-1.95859E-14
 -1      2643 5.59882E-03-4.50655E-04-2.21172E-14
 -1      2644 5.74178E-03-4.49350E-04-2.32156E-14
 -1      2645 5.52686E-03-4.14220E-04-2.16862E-14
 -1      2646 5.88480E-03-4.48018E-04-2.43390E-14
 -1      2647 6.02788E-03-4.46666E-04-2.54866E-14
 -1      2648 5.81272E-03-4.11633E-04-2.38861E-14
 -1      2649 6.17103E-03-4.45304E-04-2.66588E-14
 -1      2650 6.31426E-03-4.43945E-04-2.78554E-14
 -1      2651 6.09873E-03-4.08924E-04-2.61851E-14
 -1      2652 6.45758E-03-4.42610E-04-2.90748E-14
 -1      2653 6.60100E-03-4.41318E-04-3.03177E-14
 -1      2654 6.38497E-03-4.06157E-04-2.85795E-14
 -1      2655 6.74456E-03-4.40102E-04-3.15847E-14
 -1      2656 6.88827E-03-4.38996E-04-3.28730E-14
 -1      2657 6.67158E-03-4.03454E-04-3.10680E-14
 -1      2658 7.03215E-03-4.38047E-04-3.41857E-14
 -1      2659 7.17623E-03-4.37303E-04-3.55209E-14
 -1      2660 6.95873E-03-4.01022E-04-3.36497E-14
 -1      2661 7.32056E-03-4.36826E-04-3.68775E-14
 -1      2662 7.46514E-03-4.36682E-04-3.82554E-14
 -1      2663 7.24670E-03-3.99179E-04-3.63200E-14
 -1      2664 7.61005E-03-4.36943E-04-3.96551E-14
 -1      2665 7.75528E-03-4.37694E-04-4.10754E-14
 -1      2666 7.53585E-03-3.98368E-04-3.90781E-14
 -1      2667 7.90092E-03-4.39006E-04-4.25163E-14
 -1      2668 8.04693E-03-4.40975E-04-4.39763E-14
 -1      2669 7.82661E-03-3.99164E-04-4.19201E-14
 -1      2670 8.19343E-03-4.43652E-04-4.54565E-14
 -1      2671 8.34032E-03-4.47123E-04-4.69572E-14
 -1      2672 8.11945E-03-4.02237E-04-4.48427E-14
 -1      2673 8.48772E-03-4.51389E-04-4.84750E-14
 -1      2674 8.63545E-03-4.56485E-04-5.00099E-14
 -1      2675 8.41478E-03-4.08252E-04-4.78419E-14
 -1      2676 8.78362E-03-4.62314E-04-5.15622E-14
 -1      2677 8.93196E-03-4.68793E-04-5.31301E-14
 -1      2678 8.71277E-03-4.17652E-04-5.09109E-14
 -1      2679 9.08052E-03-4.75674E-04-5.47132E-14
 -1      2680 9.22892E-03-4.82657E-04-5.63133E-14
 -1      2681 9.01309E-03-4.30265E-04-5.40452E-14
 -1      2682 9.37715E-03-4.89283E-04-5.79297E-14
 -1      2683 9.52480E-03-4.94943E-04-5.95594E-14
 -1      2684 9.31467E-03-4.44698E-04-5.72436E-14
 -1      2685 9.67174E-03-4.98933E-04-6.12041E-14
 -1      2686 9.81765E-03-5.00295E-04-6.28617E-14
 -1      2687 9.61559E-03-4.57579E-04-6.05018E-14
 -1      2688 9.96237E-03-4.98121E-04-6.45350E-14
 -1      2689 1.01058E-02-4.91199E-04-6.62229E-14
 -1      2690 9.91344E-03-4.62922E-04-6.38170E-14
 -1      2691 1.02478E-02-4.78564E-04-6.79241E-14
 -1      2692 1.03888E-02-4.59041E-04-6.96401E-14
 -1      2693 1.02062E-02-4.52199E-04-6.71903E-14
 -1      2694 1.05285E-02-4.31858E-04-7.13678E-14
 -1      2695 1.06678E-02-3.96271E-04-7.31104E-14
 -1      2696 1.04933E-02-4.15758E-04-7.06198E-14
 -1      2697 1.08066E-02-3.51970E-04-7.48646E-14
 -1      2698 1.09458E-02-2.98915E-04-7.66288E-14
 -1      2699 1.07766E-02-3.45643E-04-7.41032E-14
 -1      2700 1.10853E-02-2.37376E-04-7.84068E-14
 -1      2701 1.12260E-02-1.68053E-04-8.01981E-14
 -1      2702 1.10598E-02-2.38580E-04-7.76335E-14
 -1      2703 1.13677E-02-9.16803E-05-8.19979E-14
 -1      2704 1.15108E-02-9.41184E-06-8.38112E-14
 -1      2705 1.13465E-02-9.73721E-05-8.12103E-14
 -1      2706 1.16552E-02 7.78101E-05-8.56385E-14
 -1      2707 1.18007E-02 1.68780E-04-8.74755E-14
 -1      2708 1.16387E-02 7.02994E-05-8.48361E-14
 -1      2709 1.19472E-02 2.62608E-04-8.93276E-14
 -1      2710 1.20944E-02 3.58332E-04-9.11886E-14
 -1      2711 1.19361E-02 2.54896E-04-8.85122E-14
 -1      2712 1.22422E-02 4.55270E-04-9.30585E-14
 -1      2713 1.23900E-02 5.52830E-04-9.49373E-14
 -1      2714 1.22365E-02 4.47916E-04-9.22323E-14
 -1      2715 1.25380E-02 6.50581E-04-9.68232E-14
 -1      2716 1.26856E-02 7.48256E-04-9.87164E-14
 -1      2717 1.25375E-02 6.43447E-04-9.59876E-14
 -1      2718 1.28330E-02 8.45644E-04-1.00616E-13
 -1      2719 1.29798E-02 9.42722E-04-1.02522E-13
 -1      2720 1.28369E-02 8.38310E-04-9.97688E-14
 -1      2721 1.31262E-02 1.03943E-03-1.04436E-13
 -1      2722 1.32719E-02 1.13587E-03-1.06355E-13
 -1      2723 1.31335E-02 1.03147E-03-1.03579E-13
 -1      2724 1.39547E-02 1.33152E-03-8.98453E-14
 -1      2725 2.30573E-03 4.45650E-04-4.16496E-15
 -1      2726 2.16325E-03 4.39412E-04-3.68172E-15
 -1      2727 1.43789E-02 1.67433E-03-1.09926E-13
 -1      2728 1.44812E-02 1.71549E-03-1.10028E-13
 -1      2729 2.02069E-03 4.31662E-04-3.22873E-15
 -1      2730 1.87802E-03 4.22244E-04-2.80592E-15
 -1      2731 2.08393E-03 3.99331E-04-3.49082E-15
 -1      2732 1.49790E-02 1.80974E-03-1.04874E-13
 -1      2733 1.48480E-02 1.72528E-03-1.02988E-13
 -1      2734 2.87522E-03 4.59898E-04-6.39388E-15
 -1      2735 2.73288E-03 4.57633E-04-5.79249E-15
 -1      2736 3.15993E-03 4.62650E-04-7.68747E-15
 -1      2737 3.01758E-03 4.61545E-04-7.02632E-15
 -1      2738 2.94187E-03 4.23577E-04-6.74704E-15
 -1      2739 3.43047E-03 4.63620E-04-9.02414E-15
 -1      2740 3.29520E-03 4.63304E-04-8.34246E-15
 -1      2741 3.22041E-03 4.25711E-04-8.03363E-15
 -1      2742 3.71536E-03 4.63465E-04-1.05439E-14
 -1      2743 3.57291E-03 4.63669E-04-9.76975E-15
 -1      2744 3.49890E-03 4.26355E-04-9.43068E-15
 -1      2745 4.00039E-03 4.62499E-04-1.21787E-14
 -1      2746 3.85786E-03 4.63066E-04-1.13468E-14
 -1      2747 3.78451E-03 4.25965E-04-1.09767E-14
 -1      2748 4.28556E-03 4.60992E-04-1.39277E-14
 -1      2749 4.14296E-03 4.61802E-04-1.30395E-14
 -1      2750 4.07012E-03 4.24865E-04-1.26379E-14
 -1      2751 4.57087E-03 4.59104E-04-1.57882E-14
 -1      2752 4.42820E-03 4.60089E-04-1.48439E-14
 -1      2753 4.35575E-03 4.23289E-04-1.44113E-14
 -1      2754 4.85632E-03 4.56919E-04-1.77582E-14
 -1      2755 4.71358E-03 4.58046E-04-1.67595E-14
 -1      2756 4.64141E-03 4.21375E-04-1.62948E-14
 -1      2757 5.14192E-03 4.54454E-04-1.98346E-14
 -1      2758 4.99910E-03 4.55721E-04-1.87838E-14
 -1      2759 4.92710E-03 4.19185E-04-1.82863E-14
 -1      2760 5.42766E-03 4.51681E-04-2.20157E-14
 -1      2761 5.28477E-03 4.53108E-04-2.09119E-14
 -1      2762 5.21283E-03 4.16730E-04-2.03847E-14
 -1      2763 5.71353E-03 4.48534E-04-2.42950E-14
 -1      2764 5.57058E-03 4.50158E-04-2.31428E-14
 -1      2765 5.49858E-03 4.13975E-04-2.25838E-14
 -1      2766 5.99953E-03 4.44924E-04-2.66710E-14
 -1      2767 5.85651E-03 4.46792E-04-2.54717E-14
 -1      2768 5.78432E-03 4.10862E-04-2.48823E-14
 -1      2769 6.28561E-03 4.40746E-04-2.91404E-14
 -1      2770 6.14256E-03 4.42911E-04-2.78948E-14
 -1      2771 6.07000E-03 4.07314E-04-2.72769E-14
 -1      2772 6.57169E-03 4.35899E-04-3.16991E-14
 -1      2773 6.42865E-03 4.38411E-04-3.04086E-14
 -1      2774 6.35550E-03 4.03257E-04-2.97640E-14
 -1      2775 6.85761E-03 4.30310E-04-3.43463E-14
 -1      2776 6.71467E-03 4.33201E-04-3.30120E-14
 -1      2777 6.64064E-03 3.98637E-04-3.23400E-14
 -1      2778 7.14303E-03 4.23983E-04-3.70790E-14
 -1      2779 7.00038E-03 4.27241E-04-3.57021E-14
 -1      2780 6.92508E-03 3.93463E-04-3.50025E-14
 -1      2781 7.41322E-03 4.17443E-04-3.97494E-14
 -1      2782 7.27825E-03 4.20776E-04-3.84054E-14
 -1      2783 7.20120E-03 3.88013E-04-3.76795E-14
 -1      2784 7.69567E-03 4.10443E-04-4.26345E-14
 -1      2785 7.55471E-03 4.13947E-04-4.11822E-14
 -1      2786 7.47525E-03 3.82491E-04-4.04329E-14
 -1      2787 7.97458E-03 4.04325E-04-4.55928E-14
 -1      2788 7.83561E-03 4.07249E-04-4.41048E-14
 -1      2789 7.75275E-03 3.77475E-04-4.33315E-14
 -1      2790 8.24750E-03 4.01032E-04-4.86219E-14
 -1      2791 8.11184E-03 4.02280E-04-4.70989E-14
 -1      2792 8.02437E-03 3.74486E-04-4.63031E-14
 -1      2793 8.51089E-03 4.03994E-04-5.17170E-14
 -1      2794 8.38045E-03 4.01655E-04-5.01619E-14
 -1      2795 8.28672E-03 3.75885E-04-4.93455E-14
 -1      2796 8.76025E-03 4.18797E-04-5.48686E-14
 -1      2797 8.63731E-03 4.09805E-04-5.32863E-14
 -1      2798 8.53499E-03 3.85432E-04-5.24491E-14
 -1      2799 8.99103E-03 4.53691E-04-5.80714E-14
 -1      2800 8.87764E-03 4.33625E-04-5.64642E-14
 -1      2801 8.76286E-03 4.08501E-04-5.56089E-14
 -1      2802 1.41831E-02 1.27943E-03-9.09790E-14
 -1      2803 1.42052E-02 1.27416E-03-9.10065E-14
 -1      2804 9.30167E-03 5.61817E-04-6.24099E-14
 -1      2805 7.81672E-04-9.83421E-05-6.64602E-16
 -1      2806 7.83997E-04-1.21677E-04-6.53476E-16
 -1      2807 1.52483E-02 1.98226E-03-1.08655E-13
 -1      2808 1.51123E-02 1.89541E-03-1.06763E-13
 -1      2809 1.50049E-02 1.82725E-03-1.05738E-13
 -1      2810 1.47208E-02 1.64411E-03-1.01106E-13
 -1      2811 1.45967E-02 1.56612E-03-9.92313E-14
 -1      2812 1.47561E-02 1.66284E-03-1.01968E-13
 -1      2813 1.54362E-02 2.10138E-03-1.11498E-13
 -1      2814 1.53335E-02 2.03644E-03-1.09915E-13
 -1      2815 1.52171E-02 1.96571E-03-1.08889E-13
 -1      2816 1.53832E-02 2.07242E-03-1.11406E-13
 -1      2817 1.45827E-02 1.75509E-03-1.10127E-13
 -1      2818 1.46825E-02 1.79293E-03-1.10226E-13
 -1      2819 1.44092E-02 1.66536E-03-1.08419E-13
 -1      2820 1.17087E-02 1.00990E-04-7.98921E-14
 -1      2821 1.15280E-02-1.40639E-05-7.83153E-14
 -1      2822 1.47800E-02 1.82879E-03-1.10322E-13
 -1      2823 1.48739E-02 1.86284E-03-1.10417E-13
 -1      2824 1.46125E-02 1.74296E-03-1.08617E-13
 -1      2825 1.41780E-02 1.58984E-03-1.09720E-13
 -1      2826 1.42782E-02 1.63255E-03-1.09824E-13
 -1      2827 1.42036E-02 1.58092E-03-1.08215E-13
 -1      2828 1.39768E-02 1.50096E-03-1.09512E-13
 -1      2829 1.40768E-02 1.54559E-03-1.09617E-13
 -1      2830 1.39999E-02 1.49167E-03-1.08007E-13
 -1      2831 1.37805E-02 1.41113E-03-1.09298E-13
 -1      2832 1.38780E-02 1.45602E-03-1.09406E-13
 -1      2833 1.37995E-02 1.39954E-03-1.07795E-13
 -1      2834 9.54948E-03 3.88500E-04-6.44325E-14
 -1      2835 9.36204E-03 4.48061E-04-6.37155E-14
 -1      2836 1.73523E-03 4.10781E-04-2.41282E-15
 -1      2837 1.59228E-03 3.97077E-04-2.04975E-15
 -1      2838 1.79746E-03 3.81041E-04-2.64220E-15
 -1      2839 1.34643E-02 1.26421E-03-1.08958E-13
 -1      2840 1.35710E-02 1.31884E-03-1.09391E-13
 -1      2841 1.33683E-02 1.20004E-03-1.07655E-13
 -1      2842 1.44776E-02 1.49426E-03-9.73607E-14
 -1      2843 1.43616E-02 1.42818E-03-9.54956E-14
 -1      2844 1.45275E-02 1.51102E-03-9.82149E-14
 -1      2845 8.99032E-03 5.31679E-04-6.26267E-14
 -1      2846 9.03334E-03 5.30129E-04-6.26105E-14
 -1      2847 1.37119E-02 1.18043E-03-8.94649E-14
 -1      2848 1.34968E-02 1.11714E-03-8.89846E-14
 -1      2849 2.59052E-03 4.54589E-04-5.22038E-15
 -1      2850 2.44815E-03 4.50668E-04-4.67767E-15
 -1      2851 2.65608E-03 4.19145E-04-5.54296E-15
 -1      2852 1.13403E-02-1.05891E-04-7.66080E-14
 -1      2853 1.11874E-02-1.56577E-04-7.51383E-14
 -1      2854 9.88161E-03 2.37869E-04-6.55766E-14
 -1      2855 9.72063E-03 3.17351E-04-6.50118E-14
 -1      2856 9.01993E-03 5.25338E-04-6.26333E-14
 -1      2857 8.98675E-03 5.25131E-04-6.24901E-14
 -1      2858 1.03587E-02 1.77341E-05-6.82562E-14
 -1      2859 1.01458E-02 1.08535E-04-6.68573E-14
 -1      2860 1.10385E-02-1.75488E-04-7.37129E-14
 -1      2861 1.09220E-02-1.68801E-04-7.26308E-14
 -1      2862 9.18728E-03 4.89094E-04-6.29564E-14
 -1      2863 9.08830E-03 5.12462E-04-6.27947E-14
 -1      2864 9.02045E-03 4.89283E-04-6.16229E-14
 -1      2865 1.40092E-02 1.23800E-03-8.99790E-14
 -1      2866 1.38839E-02 1.21704E-03-8.96752E-14
 -1      2867 1.41660E-02 1.25700E-03-9.04324E-14
 -1      2868 1.41042E-02 1.25156E-03-9.02065E-14
 -1      2869 1.40733E-02 1.26741E-03-9.09849E-14
 -1      2870 7.99486E-04-2.55498E-04-5.37480E-16
 -1      2871 9.30802E-04-2.91126E-04-6.95543E-16
 -1      2872 9.92883E-04-2.75837E-04-8.26460E-16
 -1      2873 7.89300E-04-2.29543E-04-5.56535E-16
 -1      2874 8.95314E-04 4.57325E-07-8.75127E-16
 -1      2875 7.77510E-04-1.01997E-05-6.90000E-16
 -1      2876 7.77891E-04-3.18158E-05-6.86300E-16
 -1      2877 1.13431E-03 3.41833E-04-1.07850E-15
 -1      2878 1.10219E-03 3.12751E-04-1.05806E-15
 -1      2879 1.25608E-03 3.61909E-04-1.30248E-15
 -1      2880 1.51270E-02 1.95495E-03-1.10700E-13
 -1      2881 1.52006E-02 1.98401E-03-1.10789E-13
 -1      2882 1.40815E-02 1.34445E-03-9.15384E-14
 -1      2883 1.40536E-02 1.30810E-03-9.04229E-14
 -1      2884 1.41266E-02 1.29645E-03-9.08587E-14
 -1      2885 1.42120E-02 1.37780E-03-9.33810E-14
 -1      2886 1.33778E-02 1.19127E-03-1.06791E-13
 -1      2887 2.37012E-03 4.11487E-04-4.45793E-15
 -1      2888 1.14054E-02-6.56960E-05-7.75074E-14
 -1      2889 1.36659E-02 1.36297E-03-1.09502E-13
 -1      2890 8.99829E-03 4.96862E-04-6.12965E-14
 -1      2891 9.06760E-03 5.21128E-04-6.21730E-14
 -1      2892 9.11074E-03 5.14849E-04-6.17363E-14
 -1      2893 1.10930E-02-1.71980E-04-7.43773E-14
 -1      2894 9.08497E-03 4.83101E-04-5.99015E-14
 -1      2895 8.95472E-03 4.52503E-04-5.90279E-14
 -1      2896 1.38164E-02 1.22334E-03-9.05457E-14
 -1      2897 9.18320E-03 5.22541E-04-6.15309E-14
 -1      2898 1.48503E-03 3.89123E-04-1.79022E-15
 -1      2899 1.36341E-03 3.73873E-04-1.52444E-15
 -1      2900 1.33127E-03 3.44440E-04-1.49887E-15
 -1      2901 1.54646E-03 3.62489E-04-1.99047E-15
 -1      2902 1.33543E-02 1.07555E-03-8.90918E-14
 -1      2903 1.32211E-02 1.02652E-03-8.91999E-14
 -1      2904 1.35162E-02 1.14738E-03-9.04430E-14
 -1      2905 1.49635E-02 1.89490E-03-1.10514E-13
 -1      2906 1.50479E-02 1.92557E-03-1.10607E-13
 -1      2907 1.49753E-02 1.87162E-03-1.09006E-13
 -1      2908 1.18781E-02 2.17461E-04-8.13251E-14
 -1      2909 1.17439E-02 1.37815E-04-8.06493E-14
 -1      2910 7.78686E-04-5.35727E-05-6.80811E-16
 -1      2911 7.79920E-04-7.57373E-05-6.73412E-16
 -1      2912 8.99246E-04-9.75360E-05-8.48117E-16
 -1      2913 8.96249E-04-4.80161E-05-8.65600E-16
 -1      2914 1.48039E-02 1.81141E-03-1.08812E-13
 -1      2915 9.24479E-03 4.46972E-04-6.25376E-14
 -1      2916 1.35870E-02 1.30349E-03-1.07889E-13
 -1      2917 9.58106E-03 3.38385E-04-6.38702E-14
 -1      2918 1.08199E-02-1.57766E-04-7.17352E-14
 -1      2919 1.07185E-02-1.40091E-04-7.08433E-14
 -1      2920 1.08519E-02-1.76297E-04-7.20595E-14
 -1      2921 1.04493E-02-4.03053E-05-6.87512E-14
 -1      2922 8.95936E-03 5.02350E-04-6.15974E-14
 -1      2923 1.42159E-02 1.31827E-03-9.22412E-14
 -1      2924 9.99672E-03 1.51604E-04-6.57179E-14
 -1      2925 9.85008E-03 1.84204E-04-6.45860E-14
 -1      2926 1.00830E-02 6.82216E-05-6.58583E-14
 -1      2927 1.42172E-02 1.29317E-03-9.17876E-14
 -1      2928 1.28459E-02 8.37672E-04-8.73265E-14
 -1      2929 1.26835E-02 7.40901E-04-8.60420E-14
 -1      2930 1.24702E-02 6.09920E-04-8.48509E-14
 -1      2931 1.22600E-02 4.73323E-04-8.36647E-14
 -1      2932 1.24637E-02 6.16786E-04-8.56068E-14
 -1      2933 9.04830E-04-1.49460E-04-8.21392E-16
 -1      2934 7.87061E-04-1.45807E-04-6.40181E-16
 -1      2935 7.90947E-04-1.70966E-04-6.23850E-16
 -1      2936 1.52654E-02 2.01406E-03-1.11051E-13
 -1      2937 1.53234E-02 2.04089E-03-1.11144E-13
 -1      2938 1.52417E-02 1.98814E-03-1.09887E-13
 -1      2939 1.51182E-02 1.92867E-03-1.09362E-13
 -1      2940 1.20616E-02 3.42892E-04-8.24992E-14
 -1      2941 1.43008E-02 1.37891E-03-9.42294E-14
 -1      2942 1.07122E-03 2.84750E-04-1.03493E-15
 -1      2943 1.04136E-03 2.57774E-04-1.01021E-15
 -1      2944 1.19257E-03 3.04127E-04-1.25406E-15
 -1      2945 1.03412E-03 2.25529E-04-1.02986E-15
 -1      2946 1.17779E-02 1.71957E-04-8.14464E-14
 -1      2947 1.16250E-02 7.11196E-05-8.00141E-14
 -1      2948 2.14836E-03 3.66391E-04-3.75570E-15
 -1      2949 2.00471E-03 3.59281E-04-3.30065E-15
 -1      2950 1.44460E-03-3.14306E-04-1.69363E-15
 -1      2951 1.58810E-03-3.28825E-04-2.01651E-15
 -1      2952 1.73169E-03-3.41115E-04-2.36859E-15
 -1      2953 1.87536E-03-3.51363E-04-2.74946E-15
 -1      2954 1.65236E-03-3.00780E-04-2.22940E-15
 -1      2955 2.01901E-03-3.59890E-04-3.15913E-15
 -1      2956 2.16265E-03-3.66851E-04-3.59759E-15
 -1      2957 1.94014E-03-3.20076E-04-2.99730E-15
 -1      2958 2.30625E-03-3.72523E-04-4.06446E-15
 -1      2959 2.44979E-03-3.77030E-04-4.56005E-15
 -1      2960 2.22816E-03-3.33265E-04-3.87963E-15
 -1      2961 2.59328E-03-3.80595E-04-5.08453E-15
 -1      2962 2.73671E-03-3.83318E-04-5.63770E-15
 -1      2963 2.51612E-03-3.41846E-04-4.87619E-15
 -1      2964 2.88009E-03-3.85368E-04-6.21862E-15
 -1      2965 3.02340E-03-3.86822E-04-6.82812E-15
 -1      2966 2.80386E-03-3.47051E-04-5.98587E-15
 -1      2967 3.16668E-03-3.87809E-04-7.46588E-15
 -1      2968 3.30990E-03-3.88384E-04-8.13097E-15
 -1      2969 3.09134E-03-3.49849E-04-7.20878E-15
 -1      2970 3.45309E-03-3.88642E-04-8.82332E-15
 -1      2971 3.59622E-03-3.88622E-04-9.54286E-15
 -1      2972 3.37853E-03-3.50973E-04-8.54275E-15
 -1      2973 3.73934E-03-3.88391E-04-1.02896E-14
 -1      2974 3.88241E-03-3.87977E-04-1.10628E-14
 -1      2975 3.66546E-03-3.50961E-04-9.98488E-15
 -1      2976 4.02546E-03-3.87425E-04-1.18621E-14
 -1      2977 4.16847E-03-3.86752E-04-1.26871E-14
 -1      2978 3.95215E-03-3.50194E-04-1.15349E-14
 -1      2979 4.31147E-03-3.85990E-04-1.35380E-14
 -1      2980 4.45444E-03-3.85146E-04-1.44145E-14
 -1      2981 4.23861E-03-3.48931E-04-1.31884E-14
 -1      2982 4.59740E-03-3.84240E-04-1.53151E-14
 -1      2983 4.74033E-03-3.83276E-04-1.62413E-14
 -1      2984 4.52488E-03-3.47338E-04-1.49442E-14
 -1      2985 4.88325E-03-3.82265E-04-1.71942E-14
 -1      2986 5.02616E-03-3.81205E-04-1.81711E-14
 -1      2987 4.81098E-03-3.45510E-04-1.68014E-14
 -1      2988 5.16906E-03-3.80104E-04-1.91730E-14
 -1      2989 5.31195E-03-3.78959E-04-2.02018E-14
 -1      2990 5.09693E-03-3.43491E-04-1.87603E-14
 -1      2991 5.45483E-03-3.77773E-04-2.12543E-14
 -1      2992 5.59772E-03-3.76543E-04-2.23310E-14
 -1      2993 5.38275E-03-3.41295E-04-2.08202E-14
 -1      2994 5.74061E-03-3.75272E-04-2.34328E-14
 -1      2995 5.88351E-03-3.73960E-04-2.45592E-14
 -1      2996 5.66848E-03-3.38915E-04-2.29789E-14
 -1      2997 6.02643E-03-3.72610E-04-2.57098E-14
 -1      2998 6.16939E-03-3.71227E-04-2.68849E-14
 -1      2999 5.95416E-03-3.36343E-04-2.52348E-14
 -1      3000 6.31239E-03-3.69819E-04-2.80856E-14
 -1      3001 6.45546E-03-3.68397E-04-2.93073E-14
 -1      3002 6.23987E-03-3.33581E-04-2.75892E-14
 -1      3003 6.59862E-03-3.66976E-04-3.05525E-14
 -1      3004 6.74189E-03-3.65578E-04-3.18214E-14
 -1      3005 6.52573E-03-3.30664E-04-3.00376E-14
 -1      3006 6.88532E-03-3.64228E-04-3.31126E-14
 -1      3007 7.02893E-03-3.62963E-04-3.44273E-14
 -1      3008 6.81195E-03-3.27677E-04-3.25771E-14
 -1      3009 7.17278E-03-3.61817E-04-3.57640E-14
 -1      3010 7.31693E-03-3.60851E-04-3.71213E-14
 -1      3011 7.09885E-03-3.24787E-04-3.52074E-14
 -1      3012 7.46144E-03-3.60110E-04-3.85015E-14
 -1      3013 7.60637E-03-3.59682E-04-3.99027E-14
 -1      3014 7.38687E-03-3.22268E-04-3.79258E-14
 -1      3015 7.75183E-03-3.59618E-04-4.13245E-14
 -1      3016 7.89787E-03-3.60041E-04-4.27667E-14
 -1      3017 7.67665E-03-3.20546E-04-4.07296E-14
 -1      3018 8.04462E-03-3.61001E-04-4.42282E-14
 -1      3019 8.19210E-03-3.62651E-04-4.57093E-14
 -1      3020 7.96899E-03-3.20225E-04-4.36146E-14
 -1      3021 8.34047E-03-3.65025E-04-4.72081E-14
 -1      3022 8.48968E-03-3.68284E-04-4.87256E-14
 -1      3023 8.26480E-03-3.22106E-04-4.65772E-14
 -1      3024 8.63990E-03-3.72421E-04-5.02606E-14
 -1      3025 8.79095E-03-3.77549E-04-5.18113E-14
 -1      3026 8.56493E-03-3.27125E-04-4.96105E-14
 -1      3027 8.94297E-03-3.83575E-04-5.33779E-14
 -1      3028 9.09561E-03-3.90459E-04-5.49604E-14
 -1      3029 8.86990E-03-3.36150E-04-5.27121E-14
 -1      3030 9.24892E-03-3.97955E-04-5.65601E-14
 -1      3031 9.40239E-03-4.05706E-04-5.81740E-14
 -1      3032 9.17942E-03-3.49497E-04-5.58778E-14
 -1      3033 9.55591E-03-4.13232E-04-5.98018E-14
 -1      3034 9.70889E-03-4.19678E-04-6.14436E-14
 -1      3035 9.49191E-03-3.66014E-04-5.91035E-14
 -1      3036 9.86109E-03-4.24271E-04-6.30998E-14
 -1      3037 1.00120E-02-4.25594E-04-6.47709E-14
 -1      3038 9.80436E-03-3.81773E-04-6.23842E-14
 -1      3039 1.01615E-02-4.22615E-04-6.64570E-14
 -1      3040 1.03093E-02-4.13571E-04-6.81572E-14
 -1      3041 1.01129E-02-3.88871E-04-6.57244E-14
 -1      3042 1.04554E-02-3.97385E-04-6.98732E-14
 -1      3043 1.06004E-02-3.72543E-04-7.16011E-14
 -1      3044 1.04146E-02-3.75557E-04-6.91246E-14
 -1      3045 1.07442E-02-3.38343E-04-7.33407E-14
 -1      3046 1.08879E-02-2.94107E-04-7.50943E-14
 -1      3047 1.07095E-02-3.29071E-04-7.25804E-14
 -1      3048 1.10316E-02-2.39819E-04-7.68604E-14
 -1      3049 1.11765E-02-1.76028E-04-7.86374E-14
 -1      3050 1.10015E-02-2.40694E-04-7.60867E-14
 -1      3051 1.13224E-02-1.03413E-04-8.04252E-14
 -1      3052 1.14701E-02-2.34641E-05-8.22257E-14
 -1      3053 1.12961E-02-1.10034E-04-7.96399E-14
 -1      3054 1.16193E-02 6.27866E-05-8.40376E-14
 -1      3055 1.17701E-02 1.53545E-04-8.58622E-14
 -1      3056 1.15976E-02 5.46764E-05-8.32417E-14
 -1      3057 1.19223E-02 2.47805E-04-8.77004E-14
 -1      3058 1.20752E-02 3.44126E-04-8.95490E-14
 -1      3059 1.19061E-02 2.40762E-04-8.68898E-14
 -1      3060 1.22286E-02 4.41733E-04-9.14077E-14
 -1      3061 1.23821E-02 5.39774E-04-9.32756E-14
 -1      3062 1.22188E-02 4.36356E-04-9.05851E-14
 -1      3063 1.25353E-02 6.37789E-04-9.51510E-14
 -1      3064 1.26879E-02 7.35434E-04-9.70338E-14
 -1      3065 1.25317E-02 6.33465E-04-9.43188E-14
 -1      3066 1.28397E-02 8.32495E-04-9.89256E-14
 -1      3067 1.29905E-02 9.28975E-04-1.00820E-13
 -1      3068 1.28415E-02 8.28220E-04-9.80814E-14
 -1      3069 1.31403E-02 1.02483E-03-1.02725E-13
 -1      3070 1.32889E-02 1.12031E-03-1.04636E-13
 -1      3071 1.31465E-02 1.01971E-03-1.01872E-13
 -1      3072 1.38204E-02 1.39216E-03-1.06294E-13
 -1      3073 1.39225E-02 1.43953E-03-1.06399E-13
 -1      3074 8.93970E-03 4.77374E-04-6.05307E-14
 -1      3075 8.95086E-03 4.68267E-04-6.00953E-14
 -1      3076 8.87849E-03 4.35570E-04-5.82704E-14
 -1      3077 8.91894E-03 4.74342E-04-6.03971E-14
 -1      3078 3.00915E-03 3.86910E-04-7.10121E-15
 -1      3079 2.86583E-03 3.85397E-04-6.46985E-15
 -1      3080 3.85393E-03 3.88299E-04-1.14101E-14
 -1      3081 3.71084E-03 3.88681E-04-1.06092E-14
 -1      3082 4.14004E-03 3.87113E-04-1.30971E-14
 -1      3083 3.99700E-03 3.87770E-04-1.22397E-14
 -1      3084 3.92364E-03 3.50515E-04-1.18443E-14
 -1      3085 4.42606E-03 3.85511E-04-1.48944E-14
 -1      3086 4.28306E-03 3.86356E-04-1.39819E-14
 -1      3087 4.21016E-03 3.49284E-04-1.35561E-14
 -1      3088 4.71200E-03 3.83609E-04-1.68000E-14
 -1      3089 4.56904E-03 3.84594E-04-1.58333E-14
 -1      3090 4.49649E-03 3.47694E-04-1.53765E-14
 -1      3091 4.99786E-03 3.81456E-04-1.88143E-14
 -1      3092 4.85494E-03 3.82563E-04-1.77944E-14
 -1      3093 4.78264E-03 3.45840E-04-1.73053E-14
 -1      3094 5.28365E-03 3.79053E-04-2.09323E-14
 -1      3095 5.14077E-03 3.80287E-04-1.98603E-14
 -1      3096 5.06862E-03 3.43762E-04-1.93402E-14
 -1      3097 5.56933E-03 3.76372E-04-2.31504E-14
 -1      3098 5.42651E-03 3.77750E-04-2.20288E-14
 -1      3099 5.35440E-03 3.41458E-04-2.14781E-14
 -1      3100 5.85485E-03 3.73363E-04-2.54687E-14
 -1      3101 5.71212E-03 3.74912E-04-2.42978E-14
 -1      3102 5.63994E-03 3.38906E-04-2.37167E-14
 -1      3103 6.14010E-03 3.69976E-04-2.78812E-14
 -1      3104 5.99751E-03 3.71720E-04-2.66629E-14
 -1      3105 5.92515E-03 3.36077E-04-2.60524E-14
 -1      3106 6.42490E-03 3.66176E-04-3.03850E-14
 -1      3107 6.28256E-03 3.68130E-04-2.91219E-14
 -1      3108 6.20987E-03 3.32953E-04-2.84830E-14
 -1      3109 6.70893E-03 3.61979E-04-3.29781E-14
 -1      3110 6.56702E-03 3.64128E-04-3.16711E-14
 -1      3111 6.49384E-03 3.29556E-04-3.10048E-14
 -1      3112 6.99171E-03 3.57500E-04-3.56564E-14
 -1      3113 6.85050E-03 3.59774E-04-3.43063E-14
 -1      3114 6.77664E-03 3.25989E-04-3.36138E-14
 -1      3115 7.25845E-03 3.53250E-04-3.82778E-14
 -1      3116 7.12534E-03 3.55370E-04-3.69581E-14
 -1      3117 7.05063E-03 3.22578E-04-3.62398E-14
 -1      3118 7.53603E-03 3.49331E-04-4.11152E-14
 -1      3119 7.39771E-03 3.51206E-04-3.96869E-14
 -1      3120 7.32194E-03 3.19675E-04-3.89441E-14
 -1      3121 7.80846E-03 3.47020E-04-4.40287E-14
 -1      3122 7.67300E-03 3.47953E-04-4.25616E-14
 -1      3123 7.59596E-03 3.18037E-04-4.17959E-14
 -1      3124 8.07288E-03 3.48076E-04-4.70126E-14
 -1      3125 7.94183E-03 3.47100E-04-4.55118E-14
 -1      3126 7.86343E-03 3.19126E-04-4.47226E-14
 -1      3127 8.32513E-03 3.55262E-04-5.00653E-14
 -1      3128 8.20076E-03 3.50887E-04-4.85310E-14
 -1      3129 8.12106E-03 3.25098E-04-4.77191E-14
 -1      3130 8.55934E-03 3.72570E-04-5.31793E-14
 -1      3131 8.44481E-03 3.62710E-04-5.16151E-14
 -1      3132 8.36416E-03 3.39062E-04-5.07836E-14
 -1      3133 8.76752E-03 4.05070E-04-5.63467E-14
 -1      3134 8.66712E-03 3.87192E-04-5.47580E-14
 -1      3135 8.58623E-03 3.65211E-04-5.39078E-14
 -1      3136 1.86105E-03 3.50582E-04-2.87545E-15
 -1      3137 1.71739E-03 3.40141E-04-2.47943E-15
 -1      3138 1.92579E-03 3.19435E-04-3.11260E-15
 -1      3139 1.39420E-02 1.27330E-03-9.19058E-14
 -1      3140 1.37933E-02 1.24205E-03-9.16944E-14
 -1      3141 1.42329E-02 1.57494E-03-1.06715E-13
 -1      3142 1.43382E-02 1.61730E-03-1.06817E-13
 -1      3143 1.50225E-02 1.84582E-03-1.06604E-13
 -1      3144 1.48978E-02 1.76342E-03-1.04714E-13
 -1      3145 1.47782E-02 1.68379E-03-1.02828E-13
 -1      3146 1.46640E-02 1.60616E-03-1.00947E-13
 -1      3147 1.47896E-02 1.70408E-03-1.03687E-13
 -1      3148 9.28932E-03 3.91410E-04-6.18462E-14
 -1      3149 9.13265E-03 4.26063E-04-6.10948E-14
 -1      3150 1.44425E-02 1.65733E-03-1.06918E-13
 -1      3151 1.45445E-02 1.69473E-03-1.07015E-13
 -1      3152 1.42691E-02 1.57112E-03-1.05221E-13
 -1      3153 1.43245E-02 1.37187E-03-9.43527E-14
 -1      3154 1.15851E-03-2.77392E-04-1.13481E-15
 -1      3155 1.30139E-03-2.97230E-04-1.40000E-15
 -1      3156 1.36544E-03-2.73677E-04-1.57674E-15
 -1      3157 1.36215E-02 1.29690E-03-1.06077E-13
 -1      3158 1.37201E-02 1.34444E-03-1.06185E-13
 -1      3159 1.36396E-02 1.29097E-03-1.04583E-13
 -1      3160 2.43551E-03 3.76811E-04-4.75359E-15
 -1      3161 2.29196E-03 3.72192E-04-4.23992E-15
 -1      3162 2.21382E-03 3.32903E-04-4.02392E-15
 -1      3163 1.45567E-02 1.53307E-03-9.90694E-14
 -1      3164 1.44571E-02 1.46317E-03-9.71993E-14
 -1      3165 1.45690E-02 1.55519E-03-9.99273E-14
 -1      3166 7.85434E-04-1.87827E-04-5.98886E-16
 -1      3167 7.93303E-04-2.11362E-04-5.84534E-16
 -1      3168 8.94203E-04-2.33604E-04-7.16292E-16
 -1      3169 9.03407E-04-1.95299E-04-7.76045E-16
 -1      3170 1.46428E-02 1.72916E-03-1.07112E-13
 -1      3171 1.47362E-02 1.76096E-03-1.07211E-13
 -1      3172 1.44788E-02 1.64766E-03-1.05419E-13
 -1      3173 1.40252E-02 1.48600E-03-1.06506E-13
 -1      3174 1.41283E-02 1.53097E-03-1.06610E-13
 -1      3175 1.40546E-02 1.48348E-03-1.05013E-13
 -1      3176 1.38438E-02 1.38894E-03-1.04800E-13
 -1      3177 1.48236E-02 1.79012E-03-1.07309E-13
 -1      3178 1.49043E-02 1.81775E-03-1.07403E-13
 -1      3179 1.46707E-02 1.71077E-03-1.05614E-13
 -1      3180 2.72244E-03 3.83276E-04-5.86822E-15
 -1      3181 2.57900E-03 3.80472E-04-5.29657E-15
 -1      3182 2.50178E-03 3.41694E-04-5.05172E-15
 -1      3183 1.14480E-02-3.22199E-05-7.82936E-14
 -1      3184 1.12793E-02-1.14423E-04-7.65868E-14
 -1      3185 1.14912E-02-9.56660E-07-7.90822E-14
 -1      3186 1.30263E-02 9.40170E-04-8.88536E-14
 -1      3187 1.28492E-02 8.48224E-04-8.83243E-14
 -1      3188 9.56841E-03 2.87745E-04-6.29882E-14
 -1      3189 9.42520E-03 3.46454E-04-6.24165E-14
 -1      3190 9.28163E-03 3.38735E-04-6.09724E-14
 -1      3191 3.28135E-03 3.88516E-04-8.37919E-15
 -1      3192 3.14528E-03 3.87904E-04-7.72691E-15
 -1      3193 3.06987E-03 3.49913E-04-7.42323E-15
 -1      3194 1.10994E-02-1.71348E-04-7.47117E-14
 -1      3195 1.09669E-02-1.89609E-04-7.32904E-14
 -1      3196 1.20812E-02 3.66874E-04-8.32493E-14
 -1      3197 3.56771E-03 3.88870E-04-9.83809E-15
 -1      3198 3.42455E-03 3.88838E-04-9.09445E-15
 -1      3199 3.63690E-03 3.51221E-04-1.02451E-14
 -1      3200 1.42688E-02 1.32981E-03-9.31786E-14
 -1      3201 1.42116E-02 1.31383E-03-9.26019E-14
 -1      3202 1.05094E-02-8.76838E-05-6.90688E-14
 -1      3203 1.02965E-02-2.69640E-05-6.73130E-14
 -1      3204 1.05549E-02-1.26740E-04-6.93871E-14
 -1      3205 1.01632E-03 6.74971E-05-1.08323E-15
 -1      3206 1.01517E-03 4.05597E-05-1.08393E-15
 -1      3207 9.01031E-03 4.56355E-04-6.06919E-14
 -1      3208 8.95321E-03 4.66602E-04-6.05320E-14
 -1      3209 1.41477E-02 1.30496E-03-9.23736E-14
 -1      3210 1.40588E-02 1.29418E-03-9.21447E-14
 -1      3211 1.42192E-02 1.34439E-03-9.37666E-14
 -1      3212 1.43563E-02 1.39406E-03-9.51725E-14
 -1      3213 1.36782E-02 1.21534E-03-9.18031E-14
 -1      3214 1.35625E-02 1.18124E-03-9.19111E-14
 -1      3215 1.38253E-02 1.27206E-03-9.31674E-14
 -1      3216 1.43655E-02 1.41594E-03-9.60207E-14
 -1      3217 1.19482E-02 2.86303E-04-8.29809E-14
 -1      3218 1.18252E-02 2.07495E-04-8.23382E-14
 -1      3219 1.02790E-03 1.80162E-04-1.05581E-15
 -1      3220 1.02378E-03 1.50903E-04-1.06673E-15
 -1      3221 9.76030E-03 1.33499E-04-6.32601E-14
 -1      3222 9.67296E-03 2.12223E-04-6.31252E-14
 -1      3223 9.50424E-03 2.24780E-04-6.16744E-14
 -1      3224 1.02054E-03 1.22483E-04-1.07477E-15
 -1      3225 1.01810E-03 9.47676E-05-1.08033E-15
 -1      3226 1.14338E-03 1.47823E-04-1.29810E-15
 -1      3227 1.48394E-02 1.76143E-03-1.05644E-13
 -1      3228 1.49811E-02 1.84179E-03-1.07334E-13
 -1      3229 8.79650E-03 4.14238E-04-5.74033E-14
 -1      3230 1.63805E-03 2.99776E-04-2.31816E-15
 -1      3231 1.57380E-03 3.27629E-04-2.11276E-15
 -1      3232 1.46589E-03 3.20750E-04-1.85119E-15
 -1      3233 1.40448E-02 1.31643E-03-9.32985E-14
 -1      3234 9.03390E-03 4.13752E-04-6.00074E-14
 -1      3235 1.15340E-03 2.26516E-04-1.26109E-15
 -1      3236 1.51609E-02 1.93523E-03-1.08625E-13
 -1      3237 1.01799E-03-9.34933E-05-1.05483E-15
 -1      3238 1.02039E-03-1.21185E-04-1.04195E-15
 -1      3239 1.34992E-02 1.23464E-03-1.05730E-13
 -1      3240 1.34175E-02 1.17792E-03-1.04126E-13
 -1      3241 1.11499E-02-1.55990E-04-7.54866E-14
 -1      3242 1.08731E-02-1.94215E-04-7.23890E-14
 -1      3243 1.07800E-02-1.92043E-04-7.14924E-14
 -1      3244 1.08854E-02-2.06456E-04-7.27177E-14
 -1      3245 1.32046E-02 1.02911E-03-9.02039E-14
 -1      3246 1.01551E-02 1.11436E-05-6.61686E-14
 -1      3247 1.00135E-02 4.50020E-05-6.50309E-14
 -1      3248 1.02147E-02-4.21004E-05-6.64792E-14
 -1      3249 1.33869E-02 1.18365E-03-1.05929E-13
 -1      3250 2.78955E-03 3.47054E-04-6.19589E-15
 -1      3251 1.13785E-03 8.78491E-05-1.31031E-15
 -1      3252 1.25581E-02 6.82200E-04-8.69712E-14
 -1      3253 1.23694E-02 5.63401E-04-8.57780E-14
 -1      3254 3.34992E-03 3.51135E-04-8.76095E-15
 -1      3255 1.02361E-03-1.49570E-04-1.02639E-15
 -1      3256 1.02768E-03-1.78796E-04-1.00741E-15
 -1      3257 1.14320E-03-1.46419E-04-1.25449E-15
 -1      3258 1.21152E-02 3.98719E-04-8.41481E-14
 -1      3259 1.13525E-03 2.94746E-05-1.31180E-15
 -1      3260 1.01460E-03 1.38241E-05-1.08254E-15
 -1      3261 1.01459E-03-1.28165E-05-1.07903E-15
 -1      3262 8.88476E-03 4.49180E-04-5.94720E-14
 -1      3263 1.50429E-02 1.86965E-03-1.07598E-13
 -1      3264 9.95877E-04-2.54410E-04-8.62293E-16
 -1      3265 1.27400E-02 7.88984E-04-8.84979E-14
 -1      3266 1.05996E-03-2.37464E-04-1.00081E-15
 -1      3267 1.44193E-02 1.47273E-03-9.78241E-14
 -1      3268 1.43143E-02 1.40434E-03-9.57930E-14
 -1      3269 1.42481E-02 1.39335E-03-9.55642E-14
 -1      3270 1.26773E-03 1.74338E-04-1.54163E-15
 -1      3271 1.26383E-03 1.41791E-04-1.55172E-15
 -1      3272 1.46362E-02 1.66438E-03-1.03816E-13
 -1      3273 1.47205E-02 1.68578E-03-1.03752E-13
 -1      3274 1.46072E-02 1.61183E-03-1.01869E-13
 -1      3275 8.79003E-03 4.04923E-04-5.75424E-14
 -1      3276 8.68190E-03 3.70711E-04-5.56297E-14
 -1      3277 8.82682E-03 3.91534E-04-5.76762E-14
 -1      3278 1.86181E-03-2.80712E-04-2.83512E-15
 -1      3279 2.00602E-03-2.88083E-04-3.25044E-15
 -1      3280 2.15032E-03-2.94178E-04-3.69431E-15
 -1      3281 2.29467E-03-2.99115E-04-4.16630E-15
 -1      3282 2.07287E-03-2.55405E-04-3.50848E-15
 -1      3283 2.43900E-03-3.03094E-04-4.66664E-15
 -1      3284 2.58331E-03-3.06212E-04-5.19579E-15
 -1      3285 2.36206E-03-2.64447E-04-4.45745E-15
 -1      3286 2.72756E-03-3.08634E-04-5.75245E-15
 -1      3287 2.87174E-03-3.10432E-04-6.33768E-15
 -1      3288 2.65129E-03-2.70188E-04-5.51910E-15
 -1      3289 3.01585E-03-3.11737E-04-6.95098E-15
 -1      3290 3.15987E-03-3.12603E-04-7.59251E-15
 -1      3291 2.94030E-03-2.73519E-04-6.69304E-15
 -1      3292 3.30380E-03-3.13131E-04-8.26163E-15
 -1      3293 3.44765E-03-3.13357E-04-8.95685E-15
 -1      3294 3.22896E-03-2.75143E-04-7.97931E-15
 -1      3295 3.59140E-03-3.13355E-04-9.68049E-15
 -1      3296 3.73507E-03-3.13151E-04-1.04304E-14
 -1      3297 3.51721E-03-2.75589E-04-9.37499E-15
 -1      3298 3.87866E-03-3.12797E-04-1.12062E-14
 -1      3299 4.02217E-03-3.12309E-04-1.20093E-14
 -1      3300 3.80504E-03-2.75241E-04-1.08779E-14
 -1      3301 4.16560E-03-3.11724E-04-1.28381E-14
 -1      3302 4.30895E-03-3.11049E-04-1.36926E-14
 -1      3303 4.09245E-03-2.74367E-04-1.24873E-14
 -1      3304 4.45224E-03-3.10308E-04-1.45722E-14
 -1      3305 4.59545E-03-3.09504E-04-1.54770E-14
 -1      3306 4.37948E-03-2.73144E-04-1.41993E-14
 -1      3307 4.73861E-03-3.08651E-04-1.64082E-14
 -1      3308 4.88170E-03-3.07747E-04-1.73651E-14
 -1      3309 4.66615E-03-2.71676E-04-1.60143E-14
 -1      3310 5.02474E-03-3.06800E-04-1.83465E-14
 -1      3311 5.16772E-03-3.05807E-04-1.93531E-14
 -1      3312 4.95249E-03-2.70016E-04-1.79315E-14
 -1      3313 5.31065E-03-3.04769E-04-2.03846E-14
 -1      3314 5.45353E-03-3.03682E-04-2.14424E-14
 -1      3315 5.23852E-03-2.68176E-04-1.99491E-14
 -1      3316 5.59637E-03-3.02546E-04-2.25238E-14
 -1      3317 5.73917E-03-3.01353E-04-2.36296E-14
 -1      3318 5.52427E-03-2.66141E-04-2.20677E-14
 -1      3319 5.88193E-03-3.00106E-04-2.47599E-14
 -1      3320 6.02468E-03-2.98797E-04-2.59136E-14
 -1      3321 5.80977E-03-2.63876E-04-2.42833E-14
 -1      3322 6.16742E-03-2.97429E-04-2.70929E-14
 -1      3323 6.31017E-03-2.95998E-04-2.82966E-14
 -1      3324 6.09507E-03-2.61338E-04-2.65973E-14
 -1      3325 6.45294E-03-2.94508E-04-2.95224E-14
 -1      3326 6.59577E-03-2.92963E-04-3.07709E-14
 -1      3327 6.38028E-03-2.58486E-04-2.90059E-14
 -1      3328 6.73869E-03-2.91370E-04-3.20414E-14
 -1      3329 6.88173E-03-2.89746E-04-3.33356E-14
 -1      3330 6.66557E-03-2.55294E-04-3.15071E-14
 -1      3331 7.02496E-03-2.88101E-04-3.46521E-14
 -1      3332 7.16844E-03-2.86473E-04-3.59903E-14
 -1      3333 6.95121E-03-2.51771E-04-3.40975E-14
 -1      3334 7.31224E-03-2.84878E-04-3.73507E-14
 -1      3335 7.45645E-03-2.83385E-04-3.87326E-14
 -1      3336 7.23766E-03-2.47993E-04-3.67758E-14
 -1      3337 7.60119E-03-2.82016E-04-4.01353E-14
 -1      3338 7.74655E-03-2.80885E-04-4.15595E-14
 -1      3339 7.52559E-03-2.44150E-04-3.95417E-14
 -1      3340 7.89270E-03-2.80022E-04-4.30024E-14
 -1      3341 8.03974E-03-2.79601E-04-4.44643E-14
 -1      3342 7.81595E-03-2.40621E-04-4.23904E-14
 -1      3343 8.18788E-03-2.79659E-04-4.59467E-14
 -1      3344 8.33720E-03-2.80436E-04-4.74463E-14
 -1      3345 8.10997E-03-2.38062E-04-4.53164E-14
 -1      3346 8.48793E-03-2.81972E-04-4.89622E-14
 -1      3347 8.64006E-03-2.84553E-04-5.04970E-14
 -1      3348 8.40912E-03-2.37522E-04-4.83168E-14
 -1      3349 8.79384E-03-2.88201E-04-5.20481E-14
 -1      3350 8.94906E-03-2.93185E-04-5.36147E-14
 -1      3351 8.71489E-03-2.40473E-04-5.13849E-14
 -1      3352 9.10593E-03-2.99461E-04-5.51964E-14
 -1      3353 9.26395E-03-3.07095E-04-5.67937E-14
 -1      3354 9.02827E-03-2.48671E-04-5.45170E-14
 -1      3355 9.42319E-03-3.15887E-04-5.84061E-14
 -1      3356 9.58283E-03-3.25406E-04-6.00325E-14
 -1      3357 9.34906E-03-2.63509E-04-5.77098E-14
 -1      3358 9.74273E-03-3.35160E-04-6.16725E-14
 -1      3359 9.90189E-03-3.43851E-04-6.33256E-14
 -1      3360 9.67490E-03-2.84506E-04-6.09614E-14
 -1      3361 1.00600E-02-3.50551E-04-6.49943E-14
 -1      3362 1.02163E-02-3.53031E-04-6.66778E-14
 -1      3363 1.00010E-02-3.06820E-04-6.42668E-14
 -1      3364 1.03704E-02-3.49951E-04-6.83769E-14
 -1      3365 1.05225E-02-3.38655E-04-7.00925E-14
 -1      3366 1.03213E-02-3.18868E-04-6.76313E-14
 -1      3367 1.06722E-02-3.17962E-04-7.18191E-14
 -1      3368 1.08211E-02-2.85816E-04-7.35584E-14
 -1      3369 1.06317E-02-3.03005E-04-7.10575E-14
 -1      3370 1.09689E-02-2.41669E-04-7.53130E-14
 -1      3371 1.11177E-02-1.85490E-04-7.70800E-14
 -1      3372 1.09344E-02-2.41633E-04-7.45401E-14
 -1      3373 1.12673E-02-1.17800E-04-7.88553E-14
 -1      3374 1.14193E-02-4.03141E-05-8.06458E-14
 -1      3375 1.12370E-02-1.26732E-04-7.80706E-14
 -1      3376 1.15733E-02 4.56616E-05-8.24447E-14
 -1      3377 1.17296E-02 1.37448E-04-8.42572E-14
 -1      3378 1.15472E-02 3.48495E-05-8.16504E-14
 -1      3379 1.18877E-02 2.33789E-04-8.60828E-14
 -1      3380 1.20471E-02 3.32259E-04-8.79190E-14
 -1      3381 1.18676E-02 2.25866E-04-8.52756E-14
 -1      3382 1.22073E-02 4.31970E-04-8.97663E-14
 -1      3383 1.23673E-02 5.31644E-04-9.16225E-14
 -1      3384 1.21944E-02 4.27953E-04-8.89482E-14
 -1      3385 1.25270E-02 6.30778E-04-9.34879E-14
 -1      3386 1.26855E-02 7.28872E-04-9.53605E-14
 -1      3387 1.25215E-02 6.29390E-04-9.26597E-14
 -1      3388 1.28428E-02 8.25761E-04-9.72385E-14
 -1      3389 1.29984E-02 9.21595E-04-9.91266E-14
 -1      3390 1.28437E-02 8.25101E-04-9.64017E-14
 -1      3391 1.31326E-02 1.00347E-03-1.00672E-13
 -1      3392 1.32854E-02 1.09747E-03-1.02572E-13
 -1      3393 1.34075E-02 1.16261E-03-1.02920E-13
 -1      3394 1.31384E-02 1.00220E-03-9.98222E-14
 -1      3395 2.28029E-03 2.98845E-04-4.29507E-15
 -1      3396 2.13594E-03 2.93795E-04-3.80971E-15
 -1      3397 1.70343E-03 2.71023E-04-2.52780E-15
 -1      3398 1.55968E-03 2.60335E-04-2.15815E-15
 -1      3399 4.28048E-03 3.11393E-04-1.40146E-14
 -1      3400 4.13709E-03 3.12058E-04-1.31332E-14
 -1      3401 1.30009E-03 3.15713E-04-1.47044E-15
 -1      3402 1.18611E-02 2.33465E-04-8.32311E-14
 -1      3403 1.17038E-02 1.32300E-04-8.16964E-14
 -1      3404 3.99363E-03 3.12627E-04-1.22791E-14
 -1      3405 3.85009E-03 3.13093E-04-1.14519E-14
 -1      3406 4.06389E-03 2.74679E-04-1.27134E-14
 -1      3407 4.85334E-03 3.08091E-04-1.78096E-14
 -1      3408 4.71023E-03 3.09000E-04-1.68199E-14
 -1      3409 5.13936E-03 3.06130E-04-1.98650E-14
 -1      3410 4.99639E-03 3.07136E-04-1.88249E-14
 -1      3411 4.92410E-03 2.70393E-04-1.83125E-14
 -1      3412 5.42507E-03 3.03976E-04-2.20227E-14
 -1      3413 5.28226E-03 3.05079E-04-2.09316E-14
 -1      3414 5.21010E-03 2.68592E-04-2.03883E-14
 -1      3415 5.71041E-03 3.01619E-04-2.42807E-14
 -1      3416 5.56779E-03 3.02825E-04-2.31390E-14
 -1      3417 5.49568E-03 2.66638E-04-2.25663E-14
 -1      3418 5.99524E-03 2.99055E-04-2.66345E-14
 -1      3419 5.85289E-03 3.00364E-04-2.54456E-14
 -1      3420 5.78076E-03 2.64540E-04-2.48426E-14
 -1      3421 6.27937E-03 2.96310E-04-2.90827E-14
 -1      3422 6.13741E-03 2.97705E-04-2.78473E-14
 -1      3423 6.06517E-03 2.62326E-04-2.72152E-14
 -1      3424 6.56245E-03 2.93474E-04-3.16224E-14
 -1      3425 6.42106E-03 2.94900E-04-3.03418E-14
 -1      3426 6.34866E-03 2.60075E-04-2.96819E-14
 -1      3427 6.84398E-03 2.90748E-04-3.42476E-14
 -1      3428 6.70345E-03 2.92090E-04-3.29238E-14
 -1      3429 6.63083E-03 2.57954E-04-3.22375E-14
 -1      3430 7.10928E-03 2.88613E-04-3.68206E-14
 -1      3431 6.97694E-03 2.89613E-04-3.55246E-14
 -1      3432 6.90413E-03 2.56307E-04-3.48125E-14
 -1      3433 7.38517E-03 2.87481E-04-3.96082E-14
 -1      3434 7.24774E-03 2.87881E-04-3.82047E-14
 -1      3435 7.17481E-03 2.55580E-04-3.74681E-14
 -1      3436 7.65592E-03 2.88572E-04-4.24759E-14
 -1      3437 7.52131E-03 2.87714E-04-4.10329E-14
 -1      3438 7.44852E-03 2.56633E-04-4.02720E-14
 -1      3439 7.91910E-03 2.93583E-04-4.54158E-14
 -1      3440 7.78864E-03 2.90544E-04-4.39363E-14
 -1      3441 7.71651E-03 2.60846E-04-4.31539E-14
 -1      3442 8.17123E-03 3.05001E-04-4.84256E-14
 -1      3443 8.04683E-03 2.98453E-04-4.69130E-14
 -1      3444 7.97634E-03 2.70204E-04-4.61078E-14
 -1      3445 8.40740E-03 3.26169E-04-5.15020E-14
 -1      3446 8.29178E-03 3.14404E-04-4.99561E-14
 -1      3447 8.22470E-03 2.87487E-04-4.91314E-14
 -1      3448 8.60134E-03 3.53858E-04-5.43420E-14
 -1      3449 8.49661E-03 3.34990E-04-5.27714E-14
 -1      3450 8.43750E-03 3.08436E-04-5.19289E-14
 -1      3451 8.62062E-03 3.34614E-04-5.44771E-14
 -1      3452 1.32799E-03 2.84234E-04-1.57380E-15
 -1      3453 1.99165E-03 2.87572E-04-3.35361E-15
 -1      3454 1.84745E-03 2.80056E-04-2.92663E-15
 -1      3455 1.76979E-03 2.41322E-04-2.74226E-15
 -1      3456 2.05847E-03 2.55016E-04-3.59837E-15
 -1      3457 1.41614E-02 1.37623E-03-9.53238E-14
 -1      3458 1.40586E-02 1.35578E-03-9.50836E-14
 -1      3459 1.42805E-02 1.44053E-03-9.73563E-14
 -1      3460 1.29401E-02 9.02425E-04-9.04496E-14
 -1      3461 1.26743E-02 7.50531E-04-8.90874E-14
 -1      3462 1.01514E-03-3.94903E-05-1.07344E-15
 -1      3463 1.01625E-03-6.63009E-05-1.06535E-15
 -1      3464 1.13776E-03-8.65451E-05-1.28462E-15
 -1      3465 3.13475E-03 3.12683E-04-7.76264E-15
 -1      3466 2.99792E-03 3.11801E-04-7.13850E-15
 -1      3467 2.85379E-03 3.10433E-04-6.50947E-15
 -1      3468 2.70960E-03 3.08560E-04-5.90957E-15
 -1      3469 2.91870E-03 2.73531E-04-6.82435E-15
 -1      3470 1.57398E-03-2.61327E-04-2.08985E-15
 -1      3471 1.71777E-03-2.71843E-04-2.44828E-15
 -1      3472 1.78416E-03-2.41984E-04-2.67290E-15
 -1      3473 1.11883E-02-1.41266E-04-7.62498E-14
 -1      3474 1.10203E-02-1.93097E-04-7.43774E-14
 -1      3475 1.40917E-02 1.48394E-03-1.03524E-13
 -1      3476 1.42022E-02 1.52712E-03-1.03627E-13
 -1      3477 1.31937E-03 2.31615E-04-1.61041E-15
 -1      3478 1.06453E-03-2.16369E-04-1.03509E-15
 -1      3479 1.45009E-02 1.54227E-03-9.99898E-14
 -1      3480 1.45473E-02 1.63837E-03-1.03720E-13
 -1      3481 1.05926E-02-1.69323E-04-6.97106E-14
 -1      3482 1.03998E-02-1.31506E-04-6.79447E-14
 -1      3483 1.06172E-02-2.02184E-04-7.00306E-14
 -1      3484 4.56705E-03 3.09856E-04-1.58582E-14
 -1      3485 4.42380E-03 3.10658E-04-1.49233E-14
 -1      3486 4.35099E-03 2.73481E-04-1.44731E-14
 -1      3487 4.63772E-03 2.72032E-04-1.63398E-14
 -1      3488 1.18403E-03-2.15954E-04-1.26701E-15
 -1      3489 3.42258E-03 3.13545E-04-9.16133E-15
 -1      3490 3.27871E-03 3.13270E-04-8.44736E-15
 -1      3491 3.20741E-03 2.75269E-04-8.13705E-15
 -1      3492 1.26081E-03 1.09794E-04-1.55839E-15
 -1      3493 1.25863E-03 7.82806E-05-1.56193E-15
 -1      3494 1.38504E-03 1.33048E-04-1.82680E-15
 -1      3495 1.15342E-02 2.99512E-05-7.99662E-14
 -1      3496 1.13706E-02-6.05162E-05-7.82468E-14
 -1      3497 1.15769E-02 5.65514E-05-8.08504E-14
 -1      3498 1.33922E-02 1.11882E-03-9.17153E-14
 -1      3499 1.32201E-02 1.04324E-03-9.13680E-14
 -1      3500 9.27364E-03 2.84701E-04-6.01733E-14
 -1      3501 9.15858E-03 3.22766E-04-5.96108E-14
 -1      3502 2.56714E-03 3.06087E-04-5.34520E-15
 -1      3503 2.42282E-03 3.02875E-04-4.80257E-15
 -1      3504 2.34584E-03 2.64214E-04-4.56269E-15
 -1      3505 2.63147E-03 2.70067E-04-5.63354E-15
 -1      3506 3.70826E-03 3.13415E-04-1.06635E-14
 -1      3507 3.56457E-03 3.13585E-04-9.89446E-15
 -1      3508 3.49391E-03 2.75792E-04-9.55461E-15
 -1      3509 3.77820E-03 2.75506E-04-1.10738E-14
 -1      3510 1.30699E-03-2.33060E-04-1.50387E-15
 -1      3511 1.44993E-03-2.46985E-04-1.80863E-15
 -1      3512 1.51613E-03-2.20690E-04-2.00123E-15
 -1      3513 1.26950E-03-1.92709E-04-1.46987E-15
 -1      3514 1.22220E-02 4.69217E-04-8.55074E-14
 -1      3515 9.02411E-03 3.55185E-04-5.88429E-14
 -1      3516 8.91856E-03 3.86082E-04-5.84458E-14
 -1      3517 8.79308E-03 3.45956E-04-5.65275E-14
 -1      3518 9.01259E-03 3.07706E-04-5.80525E-14
 -1      3519 1.35063E-02 1.21339E-03-1.03031E-13
 -1      3520 1.36076E-02 1.26438E-03-1.03141E-13
 -1      3521 1.33716E-02 1.13502E-03-1.01481E-13
 -1      3522 1.43111E-02 1.56665E-03-1.03728E-13
 -1      3523 1.44165E-02 1.60236E-03-1.03824E-13
 -1      3524 1.41385E-02 1.48493E-03-1.02037E-13
 -1      3525 1.23738E-02 5.66090E-04-8.72400E-14
 -1      3526 1.21432E-02 4.16069E-04-8.56020E-14
 -1      3527 1.43998E-03 2.25483E-04-1.89573E-15
 -1      3528 1.13522E-03-2.83189E-05-1.30344E-15
 -1      3529 9.43761E-03 1.58918E-04-6.04375E-14
 -1      3530 9.35958E-03 2.24598E-04-6.03065E-14
 -1      3531 9.22137E-03 2.16504E-04-5.89464E-14
 -1      3532 1.43933E-02 1.56410E-03-1.02036E-13
 -1      3533 1.41166E-02 1.40666E-03-9.72284E-14
 -1      3534 1.39739E-02 1.34007E-03-9.51956E-14
 -1      3535 1.38835E-02 1.31916E-03-9.53047E-14
 -1      3536 1.50673E-03 1.99205E-04-2.07964E-15
 -1      3537 1.20099E-02 3.27843E-04-8.49525E-14
 -1      3538 1.39817E-02 1.43810E-03-1.03422E-13
 -1      3539 1.39105E-02 1.39490E-03-1.01832E-13
 -1      3540 1.38728E-02 1.39018E-03-1.03315E-13
 -1      3541 1.31299E-02 1.00214E-03-9.19615E-14
 -1      3542 1.30572E-02 9.62556E-04-9.25566E-14
 -1      3543 1.33139E-02 1.09306E-03-9.34804E-14
 -1      3544 1.25855E-03-7.69594E-05-1.53715E-15
 -1      3545 1.26068E-03-1.08383E-04-1.52307E-15
 -1      3546 1.38033E-03 6.62891E-05-1.83436E-15
 -1      3547 1.25720E-03 4.70330E-05-1.56254E-15
 -1      3548 1.25649E-03 1.60040E-05-1.56051E-15
 -1      3549 1.12361E-02-1.20949E-04-7.71222E-14
 -1      3550 1.25742E-02 6.86730E-04-8.91853E-14
 -1      3551 1.02703E-02-1.03551E-04-6.67955E-14
 -1      3552 1.01387E-02-7.48317E-05-6.56517E-14
 -1      3553 1.03107E-02-1.56715E-04-6.71084E-14
 -1      3554 1.36858E-02 1.30263E-03-1.03174E-13
 -1      3555 1.37909E-02 1.35279E-03-1.03282E-13
 -1      3556 1.37135E-02 1.30672E-03-1.01695E-13
 -1      3557 1.35508E-02 1.22756E-03-1.01626E-13
 -1      3558 1.35620E-02 1.19231E-03-9.30804E-14
 -1      3559 9.90185E-03 2.48568E-05-6.38690E-14
 -1      3560 9.83555E-03 7.89940E-05-6.35645E-14
 -1      3561 9.66196E-03 1.02761E-04-6.21081E-14
 -1      3562 1.26258E-03-1.33913E-04-1.50888E-15
 -1      3563 1.26624E-03-1.66281E-04-1.48908E-15
 -1      3564 1.38897E-03-1.79367E-04-1.74718E-15
 -1      3565 1.38385E-03-1.24880E-04-1.78317E-15
 -1      3566 1.99599E-03-2.17149E-04-3.32297E-15
 -1      3567 2.14067E-03-2.22037E-04-3.77176E-15
 -1      3568 1.25648E-03-1.48664E-05-1.55550E-15
 -1      3569 1.25715E-03-4.58258E-05-1.54782E-15
 -1      3570 1.38026E-03-6.50016E-05-1.81148E-15
 -1      3571 1.37879E-03 5.84062E-07-1.82917E-15
 -1      3572 1.32353E-02 1.05579E-03-9.99396E-14
 -1      3573 1.33356E-02 1.11019E-03-1.00050E-13
 -1      3574 1.30976E-02 9.75362E-04-9.83984E-14
 -1      3575 1.09049E-02-2.24175E-04-7.34243E-14
 -1      3576 1.08609E-02-2.19943E-04-7.26740E-14
 -1      3577 2.28547E-03-2.26045E-04-4.24843E-15
 -1      3578 2.43033E-03-2.29256E-04-4.75330E-15
 -1      3579 2.20931E-03-1.88009E-04-4.03994E-15
 -1      3580 2.57520E-03-2.31810E-04-5.28614E-15
 -1      3581 2.72005E-03-2.33771E-04-5.84690E-15
 -1      3582 2.49939E-03-1.93589E-04-5.05341E-15
 -1      3583 2.86483E-03-2.35258E-04-6.43585E-15
 -1      3584 3.00952E-03-2.36319E-04-7.05298E-15
 -1      3585 2.78950E-03-1.97017E-04-6.17884E-15
 -1      3586 3.15412E-03-2.37048E-04-7.69729E-15
 -1      3587 3.29860E-03-2.37478E-04-8.36950E-15
 -1      3588 3.07934E-03-1.98886E-04-7.41554E-15
 -1      3589 3.44297E-03-2.37682E-04-9.06936E-15
 -1      3590 3.58722E-03-2.37681E-04-9.79583E-15
 -1      3591 3.36875E-03-1.99660E-04-8.76297E-15
 -1      3592 3.73135E-03-2.37531E-04-1.05497E-14
 -1      3593 3.87535E-03-2.37244E-04-1.13290E-14
 -1      3594 3.65764E-03-1.99683E-04-1.02199E-14
 -1      3595 4.01924E-03-2.36858E-04-1.21348E-14
 -1      3596 4.16300E-03-2.36380E-04-1.29676E-14
 -1      3597 3.94598E-03-1.99203E-04-1.17832E-14
 -1      3598 4.30666E-03-2.35838E-04-1.38266E-14
 -1      3599 4.45020E-03-2.35230E-04-1.47101E-14
 -1      3600 4.23380E-03-1.98389E-04-1.34517E-14
 -1      3601 4.59364E-03-2.34576E-04-1.56187E-14
 -1      3602 4.73698E-03-2.33870E-04-1.65538E-14
 -1      3603 4.52110E-03-1.97342E-04-1.52234E-14
 -1      3604 4.88021E-03-2.33125E-04-1.75154E-14
 -1      3605 5.02335E-03-2.32334E-04-1.85020E-14
 -1      3606 4.80792E-03-1.96116E-04-1.70979E-14
 -1      3607 5.16639E-03-2.31501E-04-1.95130E-14
 -1      3608 5.30934E-03-2.30617E-04-2.05490E-14
 -1      3609 5.09428E-03-1.94726E-04-1.90752E-14
 -1      3610 5.45220E-03-2.29683E-04-2.16106E-14
 -1      3611 5.59498E-03-2.28689E-04-2.26967E-14
 -1      3612 5.38018E-03-1.93151E-04-2.11530E-14
 -1      3613 5.73767E-03-2.27632E-04-2.38069E-14
 -1      3614 5.88029E-03-2.26499E-04-2.49406E-14
 -1      3615 5.66567E-03-1.91347E-04-2.33292E-14
 -1      3616 6.02284E-03-2.25287E-04-2.61000E-14
 -1      3617 6.16534E-03-2.23981E-04-2.72832E-14
 -1      3618 5.95075E-03-1.89243E-04-2.56019E-14
 -1      3619 6.30779E-03-2.22577E-04-2.84892E-14
 -1      3620 6.45022E-03-2.21063E-04-2.97187E-14
 -1      3621 6.23548E-03-1.86745E-04-2.79716E-14
 -1      3622 6.59265E-03-2.19430E-04-3.09716E-14
 -1      3623 6.73511E-03-2.17674E-04-3.22464E-14
 -1      3624 6.51996E-03-1.83741E-04-3.04346E-14
 -1      3625 6.87766E-03-2.15784E-04-3.35432E-14
 -1      3626 7.02035E-03-2.13768E-04-3.48622E-14
 -1      3627 6.80439E-03-1.80110E-04-3.29892E-14
 -1      3628 7.16324E-03-2.11615E-04-3.62026E-14
 -1      3629 7.30643E-03-2.09356E-04-3.75653E-14
 -1      3630 7.08910E-03-1.75734E-04-3.56306E-14
 -1      3631 7.45002E-03-2.06981E-04-3.89494E-14
 -1      3632 7.59414E-03-2.04565E-04-4.03542E-14
 -1      3633 7.37467E-03-1.70543E-04-3.83575E-14
 -1      3634 7.73894E-03-2.02101E-04-4.17788E-14
 -1      3635 7.88459E-03-1.99735E-04-4.32238E-14
 -1      3636 7.66198E-03-1.64585E-04-4.11691E-14
 -1      3637 8.03130E-03-1.97472E-04-4.46877E-14
 -1      3638 8.17928E-03-1.95559E-04-4.61704E-14
 -1      3639 7.95231E-03-1.58152E-04-4.40600E-14
 -1      3640 8.32878E-03-1.94023E-04-4.76710E-14
 -1      3641 8.48001E-03-1.93253E-04-4.91877E-14
 -1      3642 8.24744E-03-1.51971E-04-4.70253E-14
 -1      3643 8.63328E-03-1.93309E-04-5.07223E-14
 -1      3644 8.78867E-03-1.94693E-04-5.22732E-14
 -1      3645 8.54958E-03-1.47492E-04-5.00602E-14
 -1      3646 8.94654E-03-1.97506E-04-5.38399E-14
 -1      3647 9.10666E-03-2.02303E-04-5.54198E-14
 -1      3648 8.86114E-03-1.47088E-04-5.31621E-14
 -1      3649 9.26936E-03-2.09136E-04-5.70157E-14
 -1      3650 9.43392E-03-2.18327E-04-5.86271E-14
 -1      3651 9.18400E-03-1.54113E-04-5.63239E-14
 -1      3652 9.60045E-03-2.29764E-04-6.02508E-14
 -1      3653 9.76764E-03-2.42902E-04-6.18898E-14
 -1      3654 9.51832E-03-1.72013E-04-5.95437E-14
 -1      3655 9.93534E-03-2.57204E-04-6.35432E-14
 -1      3656 1.01018E-02-2.70532E-04-6.52080E-14
 -1      3657 9.86072E-03-2.01685E-04-6.28193E-14
 -1      3658 1.02666E-02-2.81579E-04-6.68882E-14
 -1      3659 1.04287E-02-2.86628E-04-6.85858E-14
 -1      3660 1.02035E-02-2.36449E-04-6.61495E-14
 -1      3661 1.06122E-02-2.78995E-04-7.05331E-14
 -1      3662 1.07688E-02-2.63154E-04-7.22596E-14
 -1      3663 1.09195E-02-2.33544E-04-7.39626E-14
 -1      3664 1.10735E-02-1.87915E-04-7.57196E-14
 -1      3665 1.12456E-02-1.18223E-04-7.77097E-14
 -1      3666 1.14029E-02-4.13710E-05-7.94921E-14
 -1      3667 1.15606E-02 4.66177E-05-8.12191E-14
 -1      3668 1.17242E-02 1.43311E-04-8.30226E-14
 -1      3669 1.21805E-02 4.24589E-04-8.81327E-14
 -1      3670 1.23484E-02 5.27926E-04-8.99777E-14
 -1      3671 1.25159E-02 6.29733E-04-9.18321E-14
 -1      3672 1.26814E-02 7.29334E-04-9.36945E-14
 -1      3673 1.25104E-02 6.31278E-04-9.10060E-14
 -1      3674 1.28100E-02 8.05900E-04-9.51043E-14
 -1      3675 1.29719E-02 9.01581E-04-9.69782E-14
 -1      3676 1.30700E-02 9.58858E-04-9.70944E-14
 -1      3677 1.28115E-02 8.09442E-04-9.42703E-14
 -1      3678 1.05618E-02-2.53677E-04-6.97725E-14
 -1      3679 1.07733E-02-2.28206E-04-7.17737E-14
 -1      3680 5.28085E-03 2.31171E-04-2.09100E-14
 -1      3681 5.13794E-03 2.31985E-04-1.98492E-14
 -1      3682 4.99492E-03 2.32768E-04-1.88137E-14
 -1      3683 4.85178E-03 2.33524E-04-1.78039E-14
 -1      3684 5.06580E-03 1.95243E-04-1.93137E-14
 -1      3685 5.85104E-03 2.27699E-04-2.54032E-14
 -1      3686 5.70874E-03 2.28593E-04-2.42428E-14
 -1      3687 6.13500E-03 2.25922E-04-2.77939E-14
 -1      3688 5.99314E-03 2.26808E-04-2.65872E-14
 -1      3689 5.92128E-03 1.91112E-04-2.59619E-14
 -1      3690 6.41785E-03 2.24276E-04-3.02792E-14
 -1      3691 6.27658E-03 2.25076E-04-2.90251E-14
 -1      3692 6.20479E-03 1.89852E-04-2.83719E-14
 -1      3693 6.69916E-03 2.23009E-04-3.28509E-14
 -1      3694 6.55873E-03 2.23583E-04-3.15542E-14
 -1      3695 6.48704E-03 1.88911E-04-3.08743E-14
 -1      3696 6.96440E-03 2.22544E-04-3.53752E-14
 -1      3697 6.83207E-03 2.22670E-04-3.41035E-14
 -1      3698 6.76058E-03 1.88618E-04-3.33978E-14
 -1      3699 7.24065E-03 2.23485E-04-3.81143E-14
 -1      3700 7.10297E-03 2.22801E-04-3.67346E-14
 -1      3701 7.03192E-03 1.89439E-04-3.60041E-14
 -1      3702 7.51263E-03 2.26930E-04-4.09339E-14
 -1      3703 7.37727E-03 2.24849E-04-3.95138E-14
 -1      3704 7.30708E-03 1.92233E-04-3.87591E-14
 -1      3705 7.77869E-03 2.34433E-04-4.38299E-14
 -1      3706 7.64655E-03 2.30112E-04-4.23731E-14
 -1      3707 7.57796E-03 1.98203E-04-4.15939E-14
 -1      3708 8.03661E-03 2.48179E-04-4.67972E-14
 -1      3709 7.90888E-03 2.40456E-04-4.53041E-14
 -1      3710 7.84311E-03 2.09056E-04-4.45045E-14
 -1      3711 8.28360E-03 2.71036E-04-4.98331E-14
 -1      3712 8.16175E-03 2.58398E-04-4.83070E-14
 -1      3713 8.10076E-03 2.27073E-04-4.74854E-14
 -1      3714 2.98789E-03 2.36375E-04-7.15613E-15
 -1      3715 2.84317E-03 2.35254E-04-6.52931E-15
 -1      3716 1.64268E-03 1.95647E-04-2.43113E-15
 -1      3717 1.52430E-03 1.63979E-04-2.14676E-15
 -1      3718 1.70737E-03-2.04160E-04-2.51134E-15
 -1      3719 1.85153E-03-2.11225E-04-2.90338E-15
 -1      3720 1.91976E-03-1.79559E-04-3.13881E-15
 -1      3721 1.27667E-02 7.98134E-04-9.12257E-14
 -1      3722 1.24860E-02 6.27293E-04-8.93643E-14
 -1      3723 1.05813E-02-2.30809E-04-6.98207E-14
 -1      3724 1.04056E-02-2.14797E-04-6.80503E-14
 -1      3725 1.41396E-02 1.45458E-03-9.97349E-14
 -1      3726 1.42907E-02 1.49291E-03-9.96361E-14
 -1      3727 1.52077E-03 1.28454E-04-2.15500E-15
 -1      3728 3.27702E-03 2.37625E-04-8.49582E-15
 -1      3729 3.13251E-03 2.37154E-04-7.81196E-15
 -1      3730 3.05768E-03 1.98979E-04-7.49022E-15
 -1      3731 1.37419E-02 1.27395E-03-9.51087E-14
 -1      3732 1.35965E-02 1.22027E-03-9.49117E-14
 -1      3733 1.39112E-02 1.35023E-03-9.71447E-14
 -1      3734 5.56626E-03 2.29471E-04-2.31073E-14
 -1      3735 5.42362E-03 2.30334E-04-2.19969E-14
 -1      3736 5.63682E-03 1.92494E-04-2.36469E-14
 -1      3737 1.38985E-02 1.37035E-03-9.94368E-14
 -1      3738 1.40206E-02 1.41490E-03-9.95403E-14
 -1      3739 4.13441E-03 2.36685E-04-1.31483E-14
 -1      3740 3.99061E-03 2.37146E-04-1.22978E-14
 -1      3741 1.50287E-03-5.09922E-05-2.10829E-15
 -1      3742 1.50444E-03-8.55807E-05-2.09468E-15
 -1      3743 9.50823E-03 1.12815E-04-6.07362E-14
 -1      3744 9.35978E-03 1.15702E-04-5.93715E-14
 -1      3745 9.57424E-03 6.48973E-05-6.10340E-14
 -1      3746 1.44349E-02 1.52469E-03-9.97615E-14
 -1      3747 4.27811E-03 2.36157E-04-1.40266E-14
 -1      3748 4.20519E-03 1.98687E-04-1.35838E-14
 -1      3749 4.42169E-03 2.35564E-04-1.49318E-14
 -1      3750 1.18919E-02 2.49918E-04-8.43409E-14
 -1      3751 1.18683E-02 2.30741E-04-8.47783E-14
 -1      3752 1.20347E-02 3.33712E-04-8.66068E-14
 -1      3753 5.35162E-03 1.93891E-04-2.14312E-14
 -1      3754 1.43539E-02 1.50416E-03-9.95218E-14
 -1      3755 1.51814E-03 9.32441E-05-2.15970E-15
 -1      3756 1.51638E-03 5.83316E-05-2.16053E-15
 -1      3757 1.65723E-03 1.21919E-04-2.50928E-15
 -1      3758 1.21608E-02 4.22247E-04-8.67207E-14
 -1      3759 1.78665E-03 2.03084E-04-2.82191E-15
 -1      3760 1.21885E-02 4.34243E-04-8.76279E-14
 -1      3761 1.48593E-03-1.86599E-04-1.96720E-15
 -1      3762 1.60975E-03-1.98220E-04-2.26171E-15
 -1      3763 1.67766E-03-1.69225E-04-2.47040E-15
 -1      3764 1.48295E-03-1.58215E-04-1.98794E-15
 -1      3765 4.77943E-03 1.96516E-04-1.73002E-14
 -1      3766 4.70852E-03 2.34242E-04-1.68203E-14
 -1      3767 4.56516E-03 2.34926E-04-1.58629E-14
 -1      3768 2.76961E-03 1.97021E-04-6.24541E-15
 -1      3769 2.70019E-03 2.33717E-04-5.93876E-15
 -1      3770 2.55715E-03 2.31708E-04-5.37533E-15
 -1      3771 8.38290E-03 2.78400E-04-5.10874E-14
 -1      3772 8.32989E-03 2.45652E-04-5.02471E-14
 -1      3773 8.48097E-03 2.88312E-04-5.23491E-14
 -1      3774 1.35122E-02 1.18794E-03-9.55127E-14
 -1      3775 8.67756E-03 3.15955E-04-5.48998E-14
 -1      3776 8.57945E-03 3.00899E-04-5.36204E-14
 -1      3777 8.53821E-03 2.64182E-04-5.27656E-14
 -1      3778 2.12623E-03 2.21764E-04-3.84630E-15
 -1      3779 1.98157E-03 2.16776E-04-3.38937E-15
 -1      3780 9.12889E-03 1.71450E-04-5.76482E-14
 -1      3781 9.06220E-03 2.23792E-04-5.75211E-14
 -1      3782 1.32745E-02 1.07424E-03-9.85497E-14
 -1      3783 1.34137E-02 1.15163E-03-1.00084E-13
 -1      3784 1.34943E-02 1.19313E-03-1.00120E-13
 -1      3785 3.56208E-03 2.37893E-04-9.93021E-15
 -1      3786 3.41961E-03 2.37862E-04-9.19906E-15
 -1      3787 3.34533E-03 1.99821E-04-8.84763E-15
 -1      3788 1.02870E-02-1.98321E-04-6.68971E-14
 -1      3789 3.84758E-03 2.37509E-04-1.14793E-14
 -1      3790 3.70535E-03 2.37770E-04-1.06936E-14
 -1      3791 3.63157E-03 1.99899E-04-1.03114E-14
 -1      3792 3.91819E-03 1.99465E-04-1.18904E-14
 -1      3793 1.23151E-02 5.18614E-04-8.82460E-14
 -1      3794 1.25036E-02 6.32176E-04-9.02805E-14
 -1      3795 9.96876E-03-4.24438E-05-6.41769E-14
 -1      3796 9.79916E-03-1.50685E-05-6.27138E-14
 -1      3797 1.00216E-02-1.04780E-04-6.44839E-14
 -1      3798 1.48060E-03-1.30162E-04-2.00609E-15
 -1      3799 2.41318E-03 2.29090E-04-4.83622E-15
 -1      3800 2.27012E-03 2.25835E-04-4.32891E-15
 -1      3801 2.19394E-03 1.87798E-04-4.09480E-15
 -1      3802 2.48220E-03 1.93504E-04-5.11612E-15
 -1      3803 1.60306E-03-1.17693E-04-2.32050E-15
 -1      3804 8.76914E-03 3.03266E-04-5.56570E-14
 -1      3805 8.93787E-03 2.60838E-04-5.67647E-14
 -1      3806 1.37792E-02 1.32572E-03-9.99090E-14
 -1      3807 1.36456E-02 1.25441E-03-9.74200E-14
 -1      3808 1.33827E-02 1.12985E-03-9.59812E-14
 -1      3809 1.36622E-02 1.27342E-03-9.98045E-14
 -1      3810 2.13373E-03-1.50494E-04-3.83192E-15
 -1      3811 2.27879E-03-1.53337E-04-4.31243E-15
 -1      3812 1.50209E-03-1.65694E-05-2.11823E-15
 -1      3813 1.62627E-03-3.52073E-05-2.42646E-15
 -1      3814 1.50211E-03 1.78038E-05-2.12475E-15
 -1      3815 2.42398E-03-1.55640E-04-4.82103E-15
 -1      3816 2.56921E-03-1.57457E-04-5.35737E-15
 -1      3817 2.34904E-03-1.18059E-04-4.58951E-15
 -1      3818 2.71445E-03-1.58877E-04-5.92225E-15
 -1      3819 2.85963E-03-1.59937E-04-6.51437E-15
 -1      3820 2.63973E-03-1.20911E-04-5.66573E-15
 -1      3821 3.00474E-03-1.60714E-04-7.13444E-15
 -1      3822 3.14974E-03-1.61234E-04-7.78178E-15
 -1      3823 2.93038E-03-1.22586E-04-6.85319E-15
 -1      3824 3.29463E-03-1.61560E-04-8.45716E-15
 -1      3825 3.43937E-03-1.61705E-04-9.16034E-15
 -1      3826 3.22066E-03-1.23416E-04-8.15217E-15
 -1      3827 3.58398E-03-1.61719E-04-9.89043E-15
 -1      3828 3.72844E-03-1.61609E-04-1.06474E-14
 -1      3829 3.51043E-03-1.23662E-04-9.56094E-15
 -1      3830 3.87276E-03-1.61414E-04-1.14310E-14
 -1      3831 4.01693E-03-1.61135E-04-1.22403E-14
 -1      3832 3.79960E-03-1.23504E-04-1.10776E-14
 -1      3833 4.16095E-03-1.60800E-04-1.30762E-14
 -1      3834 4.30483E-03-1.60406E-04-1.39392E-14
 -1      3835 4.08814E-03-1.23078E-04-1.27015E-14
 -1      3836 4.44857E-03-1.59973E-04-1.48276E-14
 -1      3837 4.59217E-03-1.59494E-04-1.57405E-14
 -1      3838 4.37607E-03-1.22468E-04-1.44296E-14
 -1      3839 4.73564E-03-1.58981E-04-1.66799E-14
 -1      3840 4.87898E-03-1.58428E-04-1.76459E-14
 -1      3841 4.66339E-03-1.21715E-04-1.62619E-14
 -1      3842 5.02219E-03-1.57840E-04-1.86364E-14
 -1      3843 5.16527E-03-1.57206E-04-1.96522E-14
 -1      3844 4.95014E-03-1.20831E-04-1.81966E-14
 -1      3845 5.30822E-03-1.56530E-04-2.06930E-14
 -1      3846 5.45105E-03-1.55795E-04-2.17590E-14
 -1      3847 5.23632E-03-1.19800E-04-2.02320E-14
 -1      3848 5.59376E-03-1.55002E-04-2.28498E-14
 -1      3849 5.73634E-03-1.54133E-04-2.39641E-14
 -1      3850 5.52194E-03-1.18571E-04-2.23691E-14
 -1      3851 5.87880E-03-1.53181E-04-2.51027E-14
 -1      3852 6.02114E-03-1.52126E-04-2.62657E-14
 -1      3853 5.80699E-03-1.17067E-04-2.46023E-14
 -1      3854 6.16337E-03-1.50957E-04-2.74530E-14
 -1      3855 6.30550E-03-1.49650E-04-2.86638E-14
 -1      3856 6.09147E-03-1.15171E-04-2.69329E-14
 -1      3857 6.44754E-03-1.48190E-04-2.98974E-14
 -1      3858 6.58952E-03-1.46550E-04-3.11542E-14
 -1      3859 6.37541E-03-1.12722E-04-2.93589E-14
 -1      3860 6.73144E-03-1.44707E-04-3.24327E-14
 -1      3861 6.87337E-03-1.42638E-04-3.37333E-14
 -1      3862 6.65888E-03-1.09512E-04-3.18759E-14
 -1      3863 7.01534E-03-1.40312E-04-3.50561E-14
 -1      3864 7.15743E-03-1.37716E-04-3.63998E-14
 -1      3865 6.94204E-03-1.05281E-04-3.44810E-14
 -1      3866 7.29970E-03-1.34813E-04-3.77657E-14
 -1      3867 7.44228E-03-1.31616E-04-3.91524E-14
 -1      3868 7.22527E-03-9.97325E-05-3.71724E-14
 -1      3869 7.58529E-03-1.28084E-04-4.05598E-14
 -1      3870 7.72891E-03-1.24286E-04-4.19858E-14
 -1      3871 7.50916E-03-9.25791E-05-3.99488E-14
 -1      3872 7.87331E-03-1.20183E-04-4.34321E-14
 -1      3873 8.01876E-03-1.15950E-04-4.48973E-14
 -1      3874 7.79477E-03-8.36425E-05-4.28052E-14
 -1      3875 8.16551E-03-1.11565E-04-4.63807E-14
 -1      3876 8.31390E-03-1.07363E-04-4.78813E-14
 -1      3877 8.08370E-03-7.30603E-05-4.57366E-14
 -1      3878 8.46426E-03-1.03382E-04-4.93997E-14
 -1      3879 8.61698E-03-1.00223E-04-5.09342E-14
 -1      3880 8.37830E-03-6.15937E-05-4.87391E-14
 -1      3881 8.77254E-03-9.79721E-05-5.24849E-14
 -1      3882 8.93114E-03-9.75350E-05-5.40508E-14
 -1      3883 8.68188E-03-5.12348E-05-5.18098E-14
 -1      3884 9.09329E-03-9.90372E-05-5.56322E-14
 -1      3885 9.25890E-03-1.03695E-04-5.72280E-14
 -1      3886 8.99826E-03-4.58638E-05-5.49413E-14
 -1      3887 9.42852E-03-1.11656E-04-5.88361E-14
 -1      3888 9.60100E-03-1.23837E-04-6.04590E-14
 -1      3889 9.33108E-03-5.11592E-05-5.81304E-14
 -1      3890 9.77509E-03-1.32556E-04-6.20954E-14
 -1      3891 9.95246E-03-1.52801E-04-6.37469E-14
 -1      3892 1.01108E-02-1.76109E-04-6.52219E-14
 -1      3893 1.85495E-03 1.72017E-04-3.03834E-15
 -1      3894 6.55636E-03 1.53956E-04-3.14679E-14
 -1      3895 6.41569E-03 1.53956E-04-3.01972E-14
 -1      3896 6.27463E-03 1.54113E-04-2.89488E-14
 -1      3897 6.13323E-03 1.54410E-04-2.77229E-14
 -1      3898 6.34460E-03 1.18690E-04-2.95236E-14
 -1      3899 5.99154E-03 1.54787E-04-2.65205E-14
 -1      3900 5.84958E-03 1.55238E-04-2.53415E-14
 -1      3901 6.06186E-03 1.18725E-04-2.70782E-14
 -1      3902 6.82233E-03 1.54657E-04-3.39428E-14
 -1      3903 6.68958E-03 1.54184E-04-3.26960E-14
 -1      3904 6.61890E-03 1.19344E-04-3.19969E-14
 -1      3905 7.10000E-03 1.56892E-04-3.66319E-14
 -1      3906 6.96151E-03 1.55550E-04-3.52765E-14
 -1      3907 6.89150E-03 1.21119E-04-3.45527E-14
 -1      3908 7.37456E-03 1.61570E-04-3.94020E-14
 -1      3909 7.23773E-03 1.58877E-04-3.80067E-14
 -1      3910 7.16884E-03 1.24786E-04-3.72576E-14
 -1      3911 7.64508E-03 1.69995E-04-4.22532E-14
 -1      3912 7.51041E-03 1.65248E-04-4.08182E-14
 -1      3913 7.44334E-03 1.31306E-04-4.00443E-14
 -1      3914 7.91054E-03 1.83918E-04-4.51776E-14
 -1      3915 7.77857E-03 1.76184E-04-4.37068E-14
 -1      3916 7.71437E-03 1.42016E-04-4.29105E-14
 -1      3917 8.16996E-03 2.05556E-04-4.81718E-14
 -1      3918 8.04116E-03 1.93677E-04-4.66657E-14
 -1      3919 7.98144E-03 1.58612E-04-4.58490E-14
 -1      3920 9.20278E-03 1.08933E-04-5.78387E-14
 -1      3921 9.04274E-03 1.21958E-04-5.64219E-14
 -1      3922 3.12805E-03 1.61357E-04-7.82616E-15
 -1      3923 2.98303E-03 1.60801E-04-7.17236E-15
 -1      3924 1.84431E-03-1.42838E-04-2.95551E-15
 -1      3925 1.98887E-03-1.47019E-04-3.37958E-15
 -1      3926 2.05877E-03-1.13618E-04-3.62548E-15
 -1      3927 1.30992E-02 9.82512E-04-9.38268E-14
 -1      3928 1.29200E-02 8.85680E-04-9.23080E-14
 -1      3929 1.28215E-02 8.24511E-04-9.24901E-14
 -1      3930 1.26768E-02 7.34616E-04-9.21339E-14
 -1      3931 2.04643E-03 1.43890E-04-3.63517E-15
 -1      3932 1.85142E-03 1.33340E-04-3.04659E-15
 -1      3933 1.84883E-03 9.49037E-05-3.05062E-15
 -1      3934 5.13674E-03 1.57835E-04-1.98136E-14
 -1      3935 4.99367E-03 1.58361E-04-1.87831E-14
 -1      3936 5.42242E-03 1.56768E-04-2.19501E-14
 -1      3937 5.27966E-03 1.57305E-04-2.08689E-14
 -1      3938 5.20776E-03 1.20563E-04-2.03114E-14
 -1      3939 5.70740E-03 1.55723E-04-2.41866E-14
 -1      3940 5.56500E-03 1.56241E-04-2.30567E-14
 -1      3941 5.77802E-03 1.19165E-04-2.47250E-14
 -1      3942 1.35775E-02 1.23445E-03-1.00155E-13
 -1      3943 8.79744E-03 2.37140E-04-5.51361E-14
 -1      3944 1.28154E-02 8.17941E-04-9.30117E-14
 -1      3945 1.28148E-02 8.13742E-04-9.37436E-14
 -1      3946 1.29465E-02 8.89425E-04-9.51511E-14
 -1      3947 1.29601E-02 9.01493E-04-9.41003E-14
 -1      3948 8.79128E-03 1.75818E-04-5.44441E-14
 -1      3949 8.63293E-03 2.25211E-04-5.33565E-14
 -1      3950 1.32330E-02 1.05316E-03-9.51646E-14
 -1      3951 1.31036E-02 9.82355E-04-9.49135E-14
 -1      3952 1.30926E-02 9.74718E-04-9.54383E-14
 -1      3953 1.33795E-02 1.12891E-03-9.70719E-14
 -1      3954 9.26309E-03 6.89252E-05-5.81316E-14
 -1      3955 4.49256E-03 1.97678E-04-1.53898E-14
 -1      3956 1.75043E-03-1.78817E-05-2.76570E-15
 -1      3957 1.75125E-03-5.50595E-05-2.75348E-15
 -1      3958 9.61971E-03-4.38890E-06-6.10766E-14
 -1      3959 9.46891E-03 5.12468E-06-5.97077E-14
 -1      3960 9.67874E-03-6.65670E-05-6.13754E-14
 -1      3961 1.70056E-03-1.21535E-04-2.57407E-15
 -1      3962 1.30472E-02 9.46773E-04-9.61383E-14
 -1      3963 1.31759E-02 1.01927E-03-9.75541E-14
 -1      3964 1.32559E-02 1.06361E-03-9.75906E-14
 -1      3965 1.30546E-02 9.52326E-04-9.56094E-14
 -1      3966 8.85346E-03 1.26694E-04-5.46310E-14
 -1      3967 8.67328E-03 1.25947E-04-5.28585E-14
 -1      3968 8.91406E-03 7.25072E-05-5.48156E-14
 -1      3969 4.92159E-03 1.21332E-04-1.82565E-14
 -1      3970 4.85046E-03 1.58871E-04-1.77784E-14
 -1      3971 4.70710E-03 1.59369E-04-1.68001E-14
 -1      3972 2.19049E-03 1.46976E-04-4.10365E-15
 -1      3973 2.83972E-03 1.59992E-04-6.55393E-15
 -1      3974 2.69633E-03 1.58900E-04-5.96395E-15
 -1      3975 2.91044E-03 1.22684E-04-6.86533E-15
 -1      3976 8.27788E-03 2.10069E-04-4.94083E-14
 -1      3977 8.22459E-03 1.72672E-04-4.85709E-14
 -1      3978 8.38617E-03 2.16307E-04-5.06545E-14
 -1      3979 1.34363E-02 1.15939E-03-9.82382E-14
 -1      3980 8.51950E-03 2.16698E-04-5.20913E-14
 -1      3981 5.49327E-03 1.19817E-04-2.24693E-14
 -1      3982 3.98866E-03 1.61392E-04-1.22991E-14
 -1      3983 3.84535E-03 1.61652E-04-1.14841E-14
 -1      3984 3.41412E-03 1.61877E-04-9.20065E-15
 -1      3985 3.27115E-03 1.61707E-04-8.49959E-15
 -1      3986 3.19714E-03 1.23559E-04-8.15531E-15
 -1      3987 4.27664E-03 1.60698E-04-1.40207E-14
 -1      3988 4.13272E-03 1.61073E-04-1.31461E-14
 -1      3989 4.06030E-03 1.23327E-04-1.27124E-14
 -1      3990 1.77039E-03-9.05635E-05-2.78689E-15
 -1      3991 1.63977E-03 4.27155E-05-2.47676E-15
 -1      3992 1.89445E-03-7.39241E-05-3.15240E-15
 -1      3993 9.29537E-03 1.16871E-05-5.80944E-14
 -1      3994 9.13779E-03 7.53797E-06-5.65699E-14
 -1      3995 2.27467E-03-8.09608E-05-4.35960E-15
 -1      3996 2.42003E-03-8.22117E-05-4.87091E-15
 -1      3997 2.56547E-03-8.32096E-05-5.41037E-15
 -1      3998 2.71093E-03-8.39773E-05-5.97805E-15
 -1      3999 2.49170E-03-4.58493E-05-5.15668E-15
 -1      4000 2.85635E-03-8.45677E-05-6.57273E-15
 -1      4001 3.00170E-03-8.49890E-05-7.19586E-15
 -1      4002 2.78272E-03-4.67122E-05-6.29355E-15
 -1      4003 3.14695E-03-8.52814E-05-7.84689E-15
 -1      4004 3.29208E-03-8.54542E-05-8.52531E-15
 -1      4005 3.07355E-03-4.71951E-05-7.54231E-15
 -1      4006 3.43707E-03-8.55466E-05-9.23132E-15
 -1      4007 3.58189E-03-8.55493E-05-9.96466E-15
 -1      4008 3.36392E-03-4.73960E-05-8.90202E-15
 -1      4009 3.72657E-03-8.54957E-05-1.07250E-14
 -1      4010 3.87108E-03-8.53846E-05-1.15117E-14
 -1      4011 3.65371E-03-4.74087E-05-1.03717E-14
 -1      4012 4.01542E-03-8.52362E-05-1.23250E-14
 -1      4013 4.15961E-03-8.50468E-05-1.31651E-14
 -1      4014 3.94284E-03-4.72885E-05-1.19484E-14
 -1      4015 4.30363E-03-8.48346E-05-1.40315E-14
 -1      4016 4.44750E-03-8.45866E-05-1.49242E-14
 -1      4017 4.23129E-03-4.70750E-05-1.36326E-14
 -1      4018 4.59120E-03-8.43176E-05-1.58421E-14
 -1      4019 4.73476E-03-8.40180E-05-1.67862E-14
 -1      4020 4.51909E-03-4.67903E-05-1.54225E-14
 -1      4021 4.87816E-03-8.36958E-05-1.77558E-14
 -1      4022 5.02140E-03-8.33391E-05-1.87509E-14
 -1      4023 4.80624E-03-4.64269E-05-1.73139E-14
 -1      4024 5.16450E-03-8.29515E-05-1.97710E-14
 -1      4025 5.30744E-03-8.25178E-05-2.08163E-14
 -1      4026 5.09276E-03-4.59724E-05-1.93082E-14
 -1      4027 5.45023E-03-8.20379E-05-2.18871E-14
 -1      4028 5.59286E-03-8.14925E-05-2.29821E-14
 -1      4029 5.37862E-03-4.53806E-05-2.14044E-14
 -1      4030 5.73533E-03-8.08770E-05-2.41019E-14
 -1      4031 5.87764E-03-8.01667E-05-2.52449E-14
 -1      4032 5.66382E-03-4.45784E-05-2.35993E-14
 -1      4033 6.01979E-03-7.93512E-05-2.64114E-14
 -1      4034 6.16177E-03-7.83986E-05-2.76033E-14
 -1      4035 5.94830E-03-4.34522E-05-2.58904E-14
 -1      4036 6.30358E-03-7.72915E-05-2.88195E-14
 -1      4037 6.44522E-03-7.59897E-05-3.00578E-14
 -1      4038 6.23203E-03-4.18333E-05-2.82777E-14
 -1      4039 6.58671E-03-7.44663E-05-3.13181E-14
 -1      4040 6.72806E-03-7.26726E-05-3.26013E-14
 -1      4041 6.51495E-03-3.94811E-05-3.07592E-14
 -1      4042 6.86927E-03-7.05702E-05-3.39055E-14
 -1      4043 7.01041E-03-6.81047E-05-3.52321E-14
 -1      4044 6.79706E-03-3.60639E-05-3.33298E-14
 -1      4045 7.15148E-03-6.52245E-05-3.65802E-14
 -1      4046 7.29259E-03-6.18787E-05-3.79490E-14
 -1      4047 7.07844E-03-3.11452E-05-3.59872E-14
 -1      4048 7.43378E-03-5.80022E-05-3.93393E-14
 -1      4049 7.57521E-03-5.35679E-05-4.07491E-14
 -1      4050 7.35934E-03-2.41900E-05-3.87278E-14
 -1      4051 7.71698E-03-4.85014E-05-4.21776E-14
 -1      4052 7.85934E-03-4.28405E-05-4.36261E-14
 -1      4053 7.64033E-03-1.46064E-05-4.15495E-14
 -1      4054 8.00245E-03-3.65193E-05-4.50928E-14
 -1      4055 8.14671E-03-2.97097E-05-4.65775E-14
 -1      4056 7.92243E-03-1.87322E-06-4.44490E-14
 -1      4057 8.29238E-03-2.23719E-05-4.80799E-14
 -1      4058 8.44002E-03-1.49207E-05-4.95993E-14
 -1      4059 8.20750E-03 1.41788E-05-4.74204E-14
 -1      4060 8.63236E-03 9.52026E-06-5.16509E-14
 -1      4061 8.78567E-03 1.65897E-05-5.32064E-14
 -1      4062 8.97466E-03 5.55840E-06-5.49819E-14
 -1      4063 6.41478E-03 8.35411E-05-3.00974E-14
 -1      4064 6.27371E-03 8.31413E-05-2.88541E-14
 -1      4065 6.96128E-03 8.78588E-05-3.51606E-14
 -1      4066 6.82180E-03 8.62115E-05-3.38309E-14
 -1      4067 6.68534E-03 8.50018E-05-3.25556E-14
 -1      4068 6.55200E-03 8.41590E-05-3.13319E-14
 -1      4069 6.48173E-03 4.85976E-05-3.06388E-14
 -1      4070 6.75574E-03 5.08874E-05-3.31445E-14
 -1      4071 6.13232E-03 8.29044E-05-2.76335E-14
 -1      4072 5.99065E-03 8.28125E-05-2.64358E-14
 -1      4073 6.20295E-03 4.73026E-05-2.81874E-14
 -1      4074 7.23869E-03 9.28811E-05-3.78811E-14
 -1      4075 7.10028E-03 9.00596E-05-3.65106E-14
 -1      4076 7.03180E-03 5.47560E-05-3.57664E-14
 -1      4077 7.51372E-03 1.01048E-04-4.06842E-14
 -1      4078 7.37655E-03 9.65133E-05-3.92729E-14
 -1      4079 7.30970E-03 6.09959E-05-3.85039E-14
 -1      4080 7.78615E-03 1.13641E-04-4.35665E-14
 -1      4081 7.65031E-03 1.06718E-04-4.21164E-14
 -1      4082 7.58588E-03 7.05330E-05-4.13230E-14
 -1      4083 8.05608E-03 1.32143E-04-4.65186E-14
 -1      4084 7.92146E-03 1.22074E-04-4.50339E-14
 -1      4085 7.86057E-03 8.45076E-05-4.42206E-14
 -1      4086 4.56383E-03 1.59838E-04-1.58484E-14
 -1      4087 4.42019E-03 1.60287E-04-1.49211E-14
 -1      4088 4.34808E-03 1.22753E-04-1.44571E-14
 -1      4089 4.63502E-03 1.22076E-04-1.63047E-14
 -1      4090 2.01184E-03-7.67668E-05-3.50482E-15
 -1      4091 2.15685E-03-7.85541E-05-3.96547E-15
 -1      4092 2.22834E-03-4.34200E-05-4.22348E-15
 -1      4093 1.99299E-03-3.95980E-05-3.46596E-15
 -1      4094 5.56419E-03 8.30403E-05-2.29865E-14
 -1      4095 5.42162E-03 8.32259E-05-2.18847E-14
 -1      4096 3.70190E-03 1.61827E-04-1.06964E-14
 -1      4097 3.55831E-03 1.61915E-04-9.93572E-15
 -1      4098 3.77259E-03 1.23720E-04-1.10813E-14
 -1      4099 8.47449E-03 1.73742E-04-5.12350E-14
 -1      4100 5.27886E-03 8.34348E-05-2.08095E-14
 -1      4101 5.13593E-03 8.36683E-05-1.97587E-14
 -1      4102 5.35004E-03 4.64603E-05-2.13060E-14
 -1      4103 2.55200E-03 1.57437E-04-5.39823E-15
 -1      4104 2.40767E-03 1.55590E-04-4.85942E-15
 -1      4105 2.62249E-03 1.20945E-04-5.68178E-15
 -1      4106 5.84872E-03 8.28147E-05-2.52614E-14
 -1      4107 5.70656E-03 8.29023E-05-2.41123E-14
 -1      4108 5.91954E-03 4.66635E-05-2.57973E-14
 -1      4109 2.26073E-03 1.12175E-04-4.35360E-15
 -1      4110 1.80598E-03 5.98770E-05-2.93176E-15
 -1      4111 1.79161E-03 1.57975E-05-2.88872E-15
 -1      4112 1.91658E-03-3.06248E-06-3.24756E-15
 -1      4113 2.00064E-03 6.77301E-05-3.50998E-15
 -1      4114 5.63520E-03 4.64398E-05-2.35025E-14
 -1      4115 8.53935E-03 4.97204E-05-5.09726E-14
 -1      4116 2.37757E-03 7.96751E-05-4.76863E-15
 -1      4117 2.16036E-03 7.27996E-05-4.02080E-15
 -1      4118 1.31945E-02 1.03054E-03-9.64252E-14
 -1      4119 4.99282E-03 8.39079E-05-1.87337E-14
 -1      4120 4.84956E-03 8.41583E-05-1.77334E-14
 -1      4121 5.06416E-03 4.66159E-05-1.92092E-14
 -1      4122 2.98084E-03 8.51141E-05-7.17446E-15
 -1      4123 2.83729E-03 8.46851E-05-6.55753E-15
 -1      4124 8.32233E-03 1.52139E-04-4.94758E-14
 -1      4125 8.20818E-03 1.49096E-04-4.82424E-14
 -1      4126 8.15272E-03 1.09018E-04-4.74074E-14
 -1      4127 8.46258E-03 1.47016E-04-5.08970E-14
 -1      4128 3.84360E-03 8.55966E-05-1.14668E-14
 -1      4129 3.69995E-03 8.56958E-05-1.06822E-14
 -1      4130 3.48470E-03 1.23841E-04-9.56140E-15
 -1      4131 3.26763E-03 8.56143E-05-8.48957E-15
 -1      4132 3.12430E-03 8.54272E-05-7.81837E-15
 -1      4133 3.05176E-03 4.73461E-05-7.48457E-15
 -1      4134 2.03400E-03-4.26696E-06-3.60606E-15
 -1      4135 1.32952E-02 1.08504E-03-9.74186E-14
 -1      4136 8.49074E-03 9.48810E-05-5.07939E-14
 -1      4137 2.11782E-03 3.62173E-05-3.88106E-15
 -1      4138 4.13220E-03 8.52886E-05-1.31270E-14
 -1      4139 3.98798E-03 8.54629E-05-1.22837E-14
 -1      4140 3.91579E-03 4.74924E-05-1.18578E-14
 -1      4141 8.33015E-03 7.68205E-05-4.90399E-14
 -1      4142 2.41851E-03-8.91315E-06-4.90398E-15
 -1      4143 2.56403E-03-9.02465E-06-5.44599E-15
 -1      4144 2.48427E-03 7.37988E-05-5.15953E-15
 -1      4145 2.38454E-03 3.42433E-05-4.79193E-15
 -1      4146 2.77232E-03 8.06881E-08-6.27341E-15
 -1      4147 2.91781E-03 8.71654E-08-6.88296E-15
 -1      4148 3.06140E-03 8.10084E-08-7.51269E-15
 -1      4149 3.20669E-03 8.19484E-08-8.17827E-15
 -1      4150 3.35185E-03 9.55488E-08-8.87132E-15
 -1      4151 3.63991E-03 8.57828E-08-1.03306E-14
 -1      4152 3.78460E-03 9.23714E-08-1.11056E-14
 -1      4153 3.92912E-03 8.92510E-08-1.19073E-14
 -1      4154 4.07347E-03 9.43982E-08-1.27355E-14
 -1      4155 4.21765E-03 1.10303E-07-1.35920E-14
 -1      4156 4.44709E-03-9.14253E-06-1.50011E-14
 -1      4157 4.59084E-03-9.09004E-06-1.59238E-14
 -1      4158 4.79181E-03 1.90972E-07-1.72682E-14
 -1      4159 4.93517E-03 2.43107E-07-1.82531E-14
 -1      4160 5.07836E-03 3.09418E-07-1.92633E-14
 -1      4161 5.22138E-03 4.07548E-07-2.02990E-14
 -1      4162 5.36423E-03 5.33346E-07-2.13592E-14
 -1      4163 5.50691E-03 7.09226E-07-2.24443E-14
 -1      4164 5.64940E-03 9.34953E-07-2.35548E-14
 -1      4165 5.79169E-03 1.23986E-06-2.46897E-14
 -1      4166 5.93379E-03 1.62881E-06-2.58482E-14
 -1      4167 6.07567E-03 2.14136E-06-2.70298E-14
 -1      4168 6.21731E-03 2.78954E-06-2.82357E-14
 -1      4169 6.35872E-03 3.62673E-06-2.94665E-14
 -1      4170 6.49634E-03 4.64588E-06-3.06873E-14
 -1      4171 6.63724E-03 5.96919E-06-3.19606E-14
 -1      4172 6.77433E-03 7.56390E-06-3.32253E-14
 -1      4173 6.91468E-03 9.60167E-06-3.45421E-14
 -1      4174 7.05472E-03 1.20995E-05-3.58800E-14
 -1      4175 7.19452E-03 1.51655E-05-3.72402E-14
 -1      4176 7.33402E-03 1.88798E-05-3.86189E-14
 -1      4177 7.47337E-03 2.33544E-05-4.00194E-14
 -1      4178 7.61252E-03 2.87010E-05-4.14407E-14
 -1      4179 7.75171E-03 3.50039E-05-4.28795E-14
 -1      4180 7.89090E-03 4.24107E-05-4.43375E-14
 -1      4181 8.03052E-03 5.09223E-05-4.58139E-14
 -1      4182 8.18915E-03 6.57640E-05-4.75271E-14
 -1      4183 2.19370E-03-1.06007E-06-4.12319E-15
 -1      4184 2.31156E-03-2.25638E-06-4.52530E-15
 -1      4185 3.55615E-03 8.57333E-05-9.92469E-15
 -1      4186 3.41174E-03 8.57156E-05-9.19233E-15
 -1      4187 3.33947E-03 4.75664E-05-8.82904E-15
 -1      4188 3.62750E-03 4.75963E-05-1.02867E-14
 -1      4189 2.69982E-03 3.75003E-05-5.98996E-15
 -1      4190 2.62883E-03 7.45871E-05-5.71155E-15
 -1      4191 3.49596E-03 9.71234E-08-9.58760E-15
 -1      4192 4.72016E-03 3.76764E-05-1.68194E-14
 -1      4193 4.28979E-03 3.79531E-05-1.40569E-14
 -1      4194 4.50521E-03 7.54929E-05-1.54336E-14
 -1      4195 4.36162E-03 7.56919E-05-1.45225E-14
 -1      4196 4.64864E-03 7.52768E-05-1.63697E-14
 -3
    1PSTEP                         2           1           1          
  100CL  101 1.000000000        4196                     0    1           1
 -4  STRESS      6    1
 -5  SXX         1    4    1    1
 -5  SYY         1    4    2    2
 -5  SZZ         1    4    3    3
 -5  SXY         1    4    1    2
 -5  SYZ         1    4    2    3
 -5  SZX         1    4    3    1
 -1         1 6.54616E+01 2.71537E+00 3.35547E+00 1.12825E+01-1.79813E-13-1.13812E-12
 -1         2-7.18820E-01-2.75117E+01-3.52552E+00-2.02577E-01 6.42125E-13-1.09281E-13
 -1         3 1.99662E+01-3.63839E-02 5.29808E-02-3.55471E-02 3.59475E-13-9.62724E-14
 -1         4 2.00020E+01 2.37982E-03 2.02140E-04-2.26608E-03 1.48954E-13 1.49966E-13
 -1         5 3.60439E+01 1.23916E+01 5.26112E+00 8.76243E+00 1.50602E-13 2.71509E-12
 -1         6 3.57646E+01 1.22677E+01 5.12761E+00-8.64952E+00-1.33726E-13 3.00360E-12
 -1         7 2.08239E+01 6.10122E+00-1.28750E-01-4.72714E+00-1.76942E-14 8.54265E-13
 -1         8 1.96750E+01 5.93593E+00 5.07223E-02-3.27626E+00-3.66929E-14 1.04962E-13
 -1         9 1.91392E+01 5.77261E+00 4.89611E-02-2.52864E+00-3.33986E-14-3.28668E-13
 -1        10 1.88972E+01 5.69267E+00 5.12134E-02-1.95339E+00-2.84339E-14-5.72824E-13
 -1        11 1.87743E+01 5.65150E+00 5.03642E-02-1.45851E+00-2.16979E-14-7.02881E-13
 -1        12 1.87100E+01 5.62958E+00 4.87287E-02-1.01808E+00-1.35534E-14-7.68692E-13
 -1        13 1.86760E+01 5.61798E+00 4.73503E-02-5.98850E-01-1.02641E-14-7.98801E-13
 -1        14 1.86614E+01 5.61301E+00 4.66027E-02-1.95432E-01-7.44408E-15-8.10283E-13
 -1        15 1.86616E+01 5.61306E+00 4.66105E-02 2.03007E-01-9.58652E-16-8.10421E-13
 -1        16 1.86764E+01 5.61814E+00 4.73735E-02 6.06640E-01 5.68816E-15-8.14544E-13
 -1        17 1.87110E+01 5.62982E+00 4.87877E-02 1.02641E+00 6.66394E-15-8.02775E-13
 -1        18 1.87760E+01 5.65192E+00 5.03750E-02 1.46741E+00 1.44967E-14-7.68036E-13
 -1        19 1.89003E+01 5.69375E+00 5.12001E-02 1.96357E+00 2.04871E-14-6.81167E-13
 -1        20 1.91453E+01 5.77481E+00 4.87763E-02 2.54066E+00 2.94834E-14-5.07729E-13
 -1        21 1.96881E+01 5.94158E+00 5.02134E-02 3.29086E+00 3.37716E-14-1.37486E-13
 -1        22 2.08089E+01 6.12331E+00-1.30977E-01 4.73398E+00 1.83742E-14 5.39669E-13
 -1        23 2.30371E+01-1.37961E+00-9.38470E-01-7.11591E-01-8.88283E-14 2.52066E-12
 -1        24 1.93720E+01-9.95050E-02-3.09937E-01 6.31641E-02-2.49965E-14 2.09119E-12
 -1        25 1.86826E+01-5.63484E-02-6.88218E-02 6.07383E-02-1.11421E-14 1.64913E-12
 -1        26 1.84796E+01-2.21081E-02-6.46302E-03 3.29742E-02-1.60939E-14 1.29822E-12
 -1        27 1.84906E+01-1.18169E-02 1.58137E-03 2.25996E-02-5.93037E-15 1.03313E-12
 -1        28 1.86046E+01-6.25401E-03 1.76858E-03 1.63089E-02-7.90324E-15 9.34176E-13
 -1        29 1.87646E+01-3.09702E-03 1.71327E-03 1.21669E-02-4.19559E-15 8.92875E-13
 -1        30 1.89391E+01-1.24163E-03 1.89843E-03 9.21436E-03-7.98142E-15 7.52919E-13
 -1        31 1.91105E+01-1.47574E-04 2.05899E-03 6.99532E-03 1.52107E-14 5.49290E-13
 -1        32 1.92691E+01 4.74955E-04 2.08757E-03 5.27820E-03-3.95058E-14 3.22015E-13
 -1        33 1.94099E+01 7.94795E-04 1.99061E-03 3.93310E-03 5.41498E-14 7.96290E-14
 -1        34 1.95313E+01 9.16943E-04 1.80480E-03 2.87842E-03 5.27952E-15 4.13827E-14
 -1        35 1.96338E+01 9.09808E-04 1.56443E-03 2.05747E-03-2.50514E-14-1.76118E-15
 -1        36 1.97190E+01 8.19150E-04 1.29428E-03 1.42829E-03 3.13531E-14 1.14740E-13
 -1        37 1.97896E+01 6.75988E-04 1.01026E-03 9.59211E-04-2.80222E-15 2.48453E-13
 -1        38 1.98483E+01 5.01776E-04 7.21732E-04 6.27009E-04-1.73859E-14 1.86273E-13
 -1        39 1.98985E+01 3.12351E-04 4.34186E-04 4.15998E-04-2.42432E-14 2.99536E-13
 -1        40 1.99435E+01 1.21453E-04 1.52383E-04 3.17412E-04-4.09945E-14 1.90109E-13
 -1        41 1.99866E+01-5.58062E-05-1.15909E-04 3.28382E-04 2.72652E-14-3.77309E-14
 -1        42 2.00307E+01-1.99276E-04-3.55185E-04 4.49862E-04-3.03651E-14-1.18864E-13
 -1        43 2.00786E+01-2.80002E-04-5.36321E-04 6.82677E-04-1.07793E-14 3.52012E-14
 -1        44 2.01320E+01-2.56771E-04-6.09758E-04 1.02059E-03 3.15707E-14 2.65818E-13
 -1        45 2.01912E+01-7.40441E-05-4.98720E-04 1.43911E-03-3.51065E-14 3.06041E-13
 -1        46 2.02540E+01 3.36724E-04-9.51107E-05 1.87908E-03-1.94376E-14 4.69962E-14
 -1        47 2.03147E+01 1.04920E-03 7.36806E-04 2.22500E-03 2.85119E-14 1.41596E-13
 -1        48 2.03624E+01 2.12345E-03 2.14040E-03 2.28132E-03 2.64766E-14 2.59285E-13
 -1        49 2.03801E+01 3.57223E-03 4.21901E-03 1.75541E-03 3.34307E-14 1.47113E-13
 -1        50 2.03432E+01 5.31106E-03 6.95037E-03 2.65011E-04-1.27712E-14-9.62061E-14
 -1        51 2.02211E+01 7.09952E-03 1.00649E-02-2.60191E-03-1.58187E-14-3.05923E-13
 -1        52 1.99802E+01 8.49721E-03 1.29189E-02-7.14315E-03 9.01373E-15-1.36307E-13
 -1        53 1.95913E+01 8.87819E-03 1.44454E-02-1.33007E-02 4.07346E-14-3.39789E-13
 -1        54 1.90417E+01 7.55831E-03 1.33097E-02-2.03685E-02 4.27259E-14-4.33263E-13
 -1        55 1.83484E+01 4.06515E-03 8.38114E-03-2.68015E-02-1.90366E-14-3.04182E-13
 -1        56 1.75697E+01-1.50578E-03-5.27986E-04-3.03700E-02-6.36198E-14-3.04215E-13
 -1        57 1.68053E+01-8.22794E-03-1.19974E-02-2.88532E-02 3.87242E-14-1.67730E-13
 -1        58 1.61812E+01-1.44208E-02-2.29820E-02-2.11539E-02 3.23002E-14 9.77603E-15
 -1        59 1.58159E+01-1.81936E-02-2.98243E-02-8.25578E-03-1.82553E-14-7.58087E-14
 -1        60 1.57832E+01-1.82670E-02-2.99647E-02 6.74312E-03-4.09846E-14-2.56403E-13
 -1        61 1.60845E+01-1.46060E-02-2.33203E-02 1.98041E-02 1.06480E-13-1.67488E-15
 -1        62 1.66483E+01-8.44799E-03-1.23460E-02 2.77175E-02-2.68682E-14 1.49903E-13
 -1        63 1.73563E+01-1.70240E-03-7.34439E-04 2.93578E-02-7.81830E-14-2.64450E-13
 -1        64 1.80816E+01 3.88053E-03 8.32317E-03 2.57465E-02-1.88362E-14-7.33847E-13
 -1        65 1.87232E+01 7.28965E-03 1.32230E-02 1.91418E-02 1.08052E-14-4.05964E-13
 -1        66 1.92237E+01 8.37164E-03 1.40066E-02 1.19170E-02-2.26117E-14-1.68188E-13
 -1        67 1.95700E+01 7.60668E-03 1.17696E-02 5.83676E-03 1.12532E-13 2.28943E-13
 -1        68 1.97824E+01 5.77991E-03 7.99770E-03 1.86471E-03-2.86325E-14 4.08511E-13
 -1        69 1.98993E+01 3.73648E-03 4.27223E-03 2.11326E-04 3.62272E-14-1.13622E-14
 -1        70 1.99612E+01 2.19756E-03 2.13260E-03 3.81007E-04 1.24691E-15 1.67817E-13
 -1        71 1.99946E+01 6.49561E-04 1.91720E-03 5.97406E-04-4.98066E-14 2.35648E-13
 -1        72 2.32615E+01-1.33975E+00-9.29488E-01 8.03091E-01 1.13205E-13 2.16513E-12
 -1        73 1.94354E+01-1.08297E-01-3.29033E-01-6.58531E-02 4.64568E-14 1.63536E-12
 -1        74 1.87031E+01-5.80749E-02-7.48960E-02-6.16947E-02 1.00887E-14 1.10603E-12
 -1        75 1.84839E+01-2.29952E-02-8.11020E-03-3.36873E-02 5.71277E-15 8.05528E-13
 -1        76 1.84873E+01-1.21935E-02 1.35329E-03-2.30001E-02 4.48209E-16 5.53368E-13
 -1        77 1.85977E+01-6.45421E-03 1.75531E-03-1.65421E-02 2.60716E-14 2.99567E-13
 -1        78 1.87560E+01-3.21739E-03 1.69343E-03-1.23369E-02 9.63956E-15 1.61778E-13
 -1        79 1.89302E+01-1.31036E-03 1.88640E-03-9.34041E-03-1.17214E-14 1.37819E-13
 -1        80 1.91019E+01-1.84112E-04 2.06040E-03-7.08917E-03 2.71943E-14-1.51238E-14
 -1        81 1.92610E+01 4.59448E-04 2.10115E-03-5.34726E-03-1.82598E-14-1.23881E-13
 -1        82 1.94023E+01 7.94200E-04 2.01615E-03-3.98021E-03 2.07866E-15-1.75691E-13
 -1        83 1.95241E+01 9.29797E-04 1.84358E-03-2.90469E-03-1.08019E-15-2.42489E-13
 -1        84 1.96264E+01 8.75214E-04 1.58284E-03-2.00713E-03-1.43352E-14-3.74608E-13
 -1        85 1.97076E+01 8.90015E-04 1.39438E-03-1.42490E-03-7.53314E-15-5.24242E-13
 -1        86 1.97779E+01 6.94888E-04 1.10129E-03-8.94661E-04 1.84421E-14-5.65505E-13
 -1        87 1.98356E+01 5.02587E-04 8.22861E-04-4.83869E-04-1.97039E-14-4.69906E-13
 -1        88 1.98842E+01 2.66500E-04 5.33252E-04-1.66665E-04 5.14066E-15-3.99567E-13
 -1        89 1.99272E+01-1.80331E-05 2.20549E-04 7.83820E-05 1.21551E-14-3.45603E-13
 -1        90 1.99688E+01-3.68751E-04-1.38516E-04 2.64760E-04-4.95352E-14-2.94719E-13
 -1        91 2.00142E+01-8.17660E-04-5.83012E-04 3.97843E-04 5.51376E-14-5.10604E-13
 -1        92 2.00696E+01-1.41613E-03-1.17647E-03 4.70453E-04 7.48091E-15-4.57714E-13
 -1        93 2.01434E+01-2.24296E-03-2.02206E-03 4.53538E-04 3.07529E-14-4.70456E-13
 -1        94 2.02477E+01-3.41604E-03-3.28856E-03 2.77540E-04-3.93202E-14-4.32928E-13
 -1        95 2.03998E+01-5.10767E-03-5.25445E-03-2.03973E-04-4.52915E-15-2.83385E-13
 -1        96 2.06258E+01-7.55854E-03-8.37872E-03-1.28701E-03-2.66733E-14-4.17497E-13
 -1        97 2.09652E+01-1.12411E-02-1.34564E-02-3.47963E-03 3.12599E-14-6.53996E-13
 -1        98 2.14784E+01-1.50672E-02-2.13510E-02-9.35044E-03 5.03848E-14-9.10608E-13
 -1        99 2.22096E+01-2.25961E-02-3.39369E-02-1.60635E-02-6.20164E-15-7.21905E-13
 -1       100 2.33590E+01-2.98193E-02-5.28966E-02-3.28762E-02 2.54976E-14-7.94240E-13
 -1       101 2.50739E+01-3.63876E-02-7.67738E-02-6.29310E-02-3.79939E-14-6.07594E-13
 -1       102 2.75523E+01-3.55133E-02-9.20528E-02-1.13218E-01 1.13650E-14-3.86816E-13
 -1       103 3.09011E+01-1.43072E-02-5.62147E-02-1.82098E-01 5.49710E-14-4.23730E-13
 -1       104 3.48044E+01 4.24224E-02 1.08092E-01-2.28865E-01-1.74606E-14-4.41099E-13
 -1       105 3.78647E+01 1.19388E-01 4.27526E-01-1.09932E-01 2.48204E-14-6.57378E-14
 -1       106 3.70681E+01 1.36774E-01 6.07084E-01 3.99531E-01 1.72744E-14-1.85851E-13
 -1       107 2.97290E+01 5.14289E-02-7.50351E-02 1.16107E+00-7.80443E-14-5.99520E-14
 -1       108 2.04073E+01-1.57342E-01-1.33667E+00 1.06876E+00 1.08351E-14-2.60181E-13
 -1       109 1.58229E+01-1.80567E-01-2.01719E+00-1.61972E-01 7.70217E-15-3.70461E-13
 -1       110 2.01010E+01-2.19230E-01-1.34940E+00-1.12312E+00-6.10519E-14-7.04437E-14
 -1       111 2.78832E+01 1.01026E-02-2.62222E-01-1.17551E+00-8.82280E-15-3.91354E-15
 -1       112 3.58281E+01 1.23148E-01 5.48995E-01-5.40190E-01 5.13652E-14-3.41671E-14
 -1       113 3.78233E+01 1.42968E-01 5.11260E-01 2.35776E-02 1.48858E-13 6.19574E-14
 -1       114 3.53290E+01 6.04539E-02 1.77830E-01 2.22297E-01-3.07688E-14 1.77060E-13
 -1       115 3.13643E+01-3.10071E-03-2.72373E-02 2.00070E-01-3.42284E-14 1.41109E-13
 -1       116 2.77043E+01-3.13173E-02-8.64229E-02 1.33029E-01 3.82494E-14 6.02678E-13
 -1       117 2.48602E+01-3.62765E-02-7.91012E-02 8.00572E-02 2.49809E-14 5.28948E-13
 -1       118 2.27995E+01-3.25683E-02-5.84382E-02 4.81613E-02 7.84609E-14 1.59976E-13
 -1       119 2.13612E+01-2.83390E-02-4.53227E-02 3.00645E-02-3.99344E-14-1.75760E-13
 -1       120 2.04269E+01-2.32837E-02-4.15295E-02 1.35430E-02 1.53308E-13 2.41994E-14
 -1       121 1.99909E+01-1.31245E-03-1.83617E-02-1.13261E-02-1.77045E-13 3.98943E-13
 -1       122 1.99881E+01 2.49173E-02-1.06244E-02-1.00990E-02 2.93752E-13-2.87316E-13
 -1       123 1.99905E+01 4.28494E-01-2.64713E-02 2.74090E-02-4.88597E-13-1.85826E-13
 -1       124 2.00006E+01 1.15156E+00-6.71554E-04 4.02996E-02-7.09410E-13 6.17311E-14
 -1       125 2.00128E+01 1.85695E+00 2.26682E-02 3.07527E-02-3.75998E-13 2.95376E-14
 -1       126 2.00180E+01 2.31748E+00 3.25832E-02 1.35909E-02 4.90883E-14-1.70338E-13
 -1       127 2.00182E+01 2.43564E+00 3.10445E-02-2.81450E-03-8.81930E-13 3.97632E-14
 -1       128 2.00131E+01 2.23064E+00 2.12416E-02-1.55276E-02-4.40185E-13-4.07222E-14
 -1       129 2.00061E+01 1.79529E+00 8.50800E-03-2.13390E-02-1.67327E-13 1.12558E-13
 -1       130 1.99993E+01 1.26109E+00-2.92853E-03-2.07169E-02 1.99423E-13 6.84733E-14
 -1       131 1.99944E+01 7.49135E-01-1.05376E-02-1.57151E-02 6.28715E-13 5.83812E-14
 -1       132 1.99921E+01 3.43138E-01-1.35317E-02-8.66111E-03-5.37109E-13-2.81835E-13
 -1       133 1.99918E+01 8.21204E-02-1.28155E-02-2.36447E-03-1.61641E-12 1.77733E-13
 -1       134 1.99935E+01-4.66725E-02-9.28390E-03 2.62525E-03-1.24304E-12 1.66160E-14
 -1       135 1.99961E+01-7.11053E-02-4.42520E-03 5.30405E-03-4.15928E-13 1.05285E-13
 -1       136 1.99990E+01-4.12905E-02 2.13141E-05 5.28860E-03-2.35965E-13-2.47854E-15
 -1       137 1.99995E+01-7.70916E-03 1.35181E-03 2.43970E-03-1.94903E-13-1.12671E-13
 -1       138-1.82798E+00-2.51463E+01-3.58532E+00-5.08482E+00-1.02585E-13 3.97148E-14
 -1       139-3.09082E+00-1.50536E+01-3.21869E+00-5.95241E+00 2.87215E-13 2.36616E-13
 -1       140-8.44826E-02-1.87928E+00-2.31115E+00-2.27699E-01 4.15556E-13 1.58207E-13
 -1       141 1.43551E+01 8.11107E+00-5.69331E-01 1.09547E+01 3.61156E-13 3.60489E-13
 -1       142 3.84691E+01 9.98530E+00 1.82751E+00 1.92085E+01 1.39389E-13-6.17284E-14
 -1       143 6.55217E+01 5.85547E+00 4.36735E+00 1.76634E+01-2.60708E-13-2.41585E-13
 -1       144 8.23438E+01 1.85213E+00 5.98455E+00 5.72218E+00 1.85754E-13-6.18283E-13
 -1       145 7.91705E+01 2.58072E+00 5.70941E+00-9.90830E+00-1.02418E-14-3.09197E-13
 -1       146 5.78116E+01 7.34924E+00 3.67095E+00-1.91683E+01 3.20438E-13-5.76206E-13
 -1       147 2.94090E+01 9.85002E+00 9.10701E-01-1.68465E+01 1.00486E-12-1.50890E-12
 -1       148 7.39242E+00 4.72832E+00-1.37431E+00-6.36631E+00 1.60216E-12-1.41764E-12
 -1       149-2.18380E+00-7.32753E+00-2.76996E+00 3.29001E+00 2.28328E-12-1.53877E-12
 -1       150-2.82263E+00-2.02293E+01-3.44183E+00 6.21172E+00 2.48734E-12-8.26464E-13
 -1       151-1.19205E+00-2.72795E+01-3.58885E+00 2.96885E+00 1.67323E-12-3.35544E-13
 -1       152-8.56811E-01-2.46289E+01-3.28129E+00-2.18541E+00-5.10841E-13-1.80966E-13
 -1       153-1.55967E+00-1.39810E+01-2.57261E+00-3.84551E+00-1.86412E-12-6.48037E-13
 -1       154 5.56448E-01-3.39240E-01-1.48243E+00 7.26537E-01-2.09666E-12-1.14092E-12
 -1       155 1.03858E+01 1.01734E+01-7.68973E-02 1.02990E+01-1.85912E-12-1.83159E-12
 -1       156 2.78185E+01 1.24024E+01 1.33843E+00 1.81487E+01-1.34465E-12-1.74999E-12
 -1       157 4.95498E+01 8.27756E+00 2.58381E+00 1.92169E+01-4.87138E-13-1.33704E-12
 -1       158 6.99366E+01 9.80640E-01 3.58388E+00-2.87263E+00-6.63705E-15-1.83097E-13
 -1       159 5.95610E+01 4.87228E+00 3.11878E+00-1.55870E+01-4.28615E-14 5.77483E-13
 -1       160 4.01890E+01 1.06881E+01 2.12099E+00-2.01266E+01-5.35988E-13 6.71740E-13
 -1       161 1.88561E+01 1.23898E+01 7.15526E-01-1.51367E+01-7.12874E-13 1.13970E-12
 -1       162 4.85300E+00 6.15790E+00-7.45744E-01-5.67374E+00-1.46672E-12 9.51406E-13
 -1       163-1.27260E+00-7.33219E+00-2.09966E+00 2.45446E+00-7.47236E-13 6.43652E-13
 -1       164-1.30543E+00-2.05272E+01-3.02964E+00 3.83676E+00 1.39522E-12-1.62093E-13
 -1       165 2.10177E+01 3.69475E+00-5.74153E-02-3.61209E+00-3.74194E-13 4.14790E-13
 -1       166 1.99926E+01 4.20939E+00-4.59606E-02-2.81046E+00-3.96889E-13-6.84210E-14
 -1       167 1.95117E+01 4.47746E+00-3.13397E-02-2.19815E+00-3.46371E-13-3.55754E-13
 -1       168 1.92683E+01 4.61611E+00-2.34924E-02-1.67718E+00-2.86482E-13-5.25267E-13
 -1       169 1.91369E+01 4.69781E+00-1.95256E-02-1.22192E+00-2.25199E-13-6.09338E-13
 -1       170 1.90625E+01 4.74887E+00-1.74198E-02-7.95332E-01-1.70974E-13-6.54049E-13
 -1       171 1.90247E+01 4.77692E+00-1.63990E-02-3.90694E-01-9.85998E-14-6.73347E-13
 -1       172 1.90133E+01 4.78579E+00-1.60964E-02 3.73803E-03-4.13968E-14-6.77301E-13
 -1       173 1.90252E+01 4.77657E+00-1.64135E-02 3.98282E-01 2.75826E-14-6.77938E-13
 -1       174 1.90636E+01 4.74808E+00-1.74424E-02 8.03252E-01 8.46288E-14-6.79048E-13
 -1       175 1.91372E+01 4.69757E+00-1.95482E-02 1.22293E+00 1.53516E-13-6.51999E-13
 -1       176 1.92716E+01 4.61409E+00-2.36185E-02 1.68664E+00 2.31965E-13-5.90694E-13
 -1       177 1.95184E+01 4.47373E+00-3.15099E-02 2.20925E+00 3.08490E-13-4.86149E-13
 -1       178 2.00058E+01 4.20346E+00-4.60141E-02 2.82432E+00 3.70190E-13-2.47354E-13
 -1       179 2.10396E+01 3.68018E+00-5.43733E-02 3.63333E+00 3.98523E-13 1.65163E-13
 -1       180 2.19769E+01 8.58510E-01 6.96049E-04-1.96050E+00-3.04673E-13 9.41684E-13
 -1       181 2.04513E+01 1.90474E-01-9.94057E-03-7.65081E-01-2.64871E-13 7.56520E-13
 -1       182 1.96751E+01 1.01743E-01 1.36070E-02-2.86219E-01-2.07316E-13 6.18195E-13
 -1       183 1.93348E+01 4.72698E-02 1.00208E-02-6.83092E-02-1.55611E-13 4.91833E-13
 -1       184 1.92049E+01 2.26569E-02 5.16135E-03 3.92137E-02-8.56018E-14 4.13726E-13
 -1       185 1.91915E+01 9.60934E-03 2.43562E-03 9.20713E-02-6.77218E-14 3.56664E-13
 -1       186 1.92403E+01 2.21027E-03 1.13337E-03 1.14681E-01-7.70880E-14 2.82947E-13
 -1       187 1.93199E+01-2.01644E-03 4.99591E-04 1.19845E-01-1.20529E-13 2.48554E-13
 -1       188 1.94115E+01-4.30394E-03 1.65132E-04 1.14999E-01-1.19980E-13 2.03323E-13
 -1       189 1.95040E+01-5.35164E-03-2.01544E-05 1.04768E-01-1.25080E-13 1.84245E-13
 -1       190 1.95912E+01-5.59520E-03-1.19405E-04 9.21308E-02-1.01462E-13-1.45159E-14
 -1       191 1.96699E+01-5.32084E-03-1.64158E-04 7.90238E-02-1.88115E-14-8.86737E-14
 -1       192 1.97390E+01-4.72038E-03-1.73224E-04 6.66978E-02 4.22277E-14-3.57818E-14
 -1       193 1.97987E+01-3.92189E-03-1.59036E-04 5.59427E-02 1.30213E-14-1.05880E-13
 -1       194 1.98502E+01-3.00996E-03-1.30280E-04 4.72399E-02-4.34312E-14-6.74003E-14
 -1       195 1.98952E+01-2.04132E-03-9.34025E-05 4.08626E-02 4.45583E-14-4.09329E-14
 -1       196 1.99357E+01-1.05899E-03-5.37444E-05 3.69350E-02-4.73528E-14-9.24841E-14
 -1       197 1.99738E+01-1.06771E-04-1.65177E-05 3.54520E-02-8.52040E-14-2.12914E-14
 -1       198 2.00115E+01 7.54659E-04 1.23023E-05 3.62596E-02-7.59296E-14-5.88838E-14
 -1       199 2.00508E+01 1.42918E-03 2.51968E-05 3.89900E-02 3.65299E-14-1.06279E-13
 -1       200 2.00929E+01 1.76485E-03 1.25735E-05 4.29478E-02 9.54012E-14-9.36743E-14
 -1       201 2.01382E+01 1.53416E-03-3.72217E-05 4.69475E-02-3.54404E-14-4.55000E-14
 -1       202 2.01856E+01 4.21353E-04-1.36887E-04 4.91133E-02-3.11497E-14 7.91485E-14
 -1       203 2.02319E+01-1.97062E-03-2.97549E-04 4.66758E-02-4.74095E-15 1.46474E-13
 -1       204 2.02708E+01-6.07284E-03-5.24007E-04 3.58437E-02-3.89127E-14 1.43537E-13
 -1       205 2.02924E+01-1.22344E-02-8.07791E-04 1.18848E-02-6.11981E-14 2.11672E-14
 -1       206 2.02828E+01-2.05078E-02-1.11906E-03-3.03779E-02-1.85775E-13-1.57268E-13
 -1       207 2.02238E+01-3.03271E-02-1.40069E-03-9.54073E-02-5.17676E-14-2.50672E-13
 -1       208 2.00951E+01-4.01280E-02-1.56920E-03-1.84937E-01 1.98746E-14-1.19088E-13
 -1       209 1.98778E+01-4.70789E-02-1.52913E-03-2.95176E-01-1.46760E-13-1.56543E-13
 -1       210 1.95601E+01-4.72413E-02-1.20289E-03-4.13901E-01 3.49038E-14-4.94720E-14
 -1       211 1.91451E+01-3.65486E-02-5.70659E-04-5.18958E-01 3.54502E-14-9.80711E-14
 -1       212 1.86582E+01-1.27615E-02 3.00330E-04-5.80393E-01 6.82146E-14-3.38765E-14
 -1       213 1.81508E+01 2.21511E-02 1.25778E-03-5.67942E-01 9.04551E-14 1.57420E-13
 -1       214 1.76953E+01 6.07051E-02 2.11159E-03-4.63145E-01 1.55629E-14 2.88073E-14
 -1       215 1.73701E+01 9.14193E-02 2.69569E-03-2.71285E-01-2.36562E-14 3.43996E-15
 -1       216 1.72372E+01 1.03487E-01 2.90538E-03-2.56352E-02-1.12412E-13 5.28475E-14
 -1       217 1.73207E+01 9.22809E-02 2.70721E-03 2.21109E-01 2.71855E-13 3.76836E-13
 -1       218 1.75982E+01 6.19659E-02 2.13893E-03 4.15670E-01 2.43640E-14 3.28967E-13
 -1       219 1.80087E+01 2.32361E-02 1.30217E-03 5.23479E-01-3.50877E-13 1.93855E-13
 -1       220 1.84737E+01-1.21082E-02 3.69089E-04 5.38230E-01-2.63748E-13-9.21129E-14
 -1       221 1.89203E+01-3.60359E-02-4.67102E-04 4.78443E-01 3.00140E-13-1.20234E-13
 -1       222 1.92973E+01-4.60746E-02-1.05357E-03 3.75739E-01 1.18215E-13 2.22297E-13
 -1       223 1.95809E+01-4.42096E-02-1.33496E-03 2.62329E-01 2.37676E-13 2.53947E-13
 -1       224 1.97714E+01-3.46188E-02-1.34079E-03 1.62754E-01 2.08995E-13 1.29197E-13
 -1       225 1.98855E+01-2.21306E-02-1.15752E-03 9.04289E-02-2.46302E-13 3.28978E-14
 -1       226 1.99463E+01-1.10382E-02-8.48135E-04 4.73772E-02 1.09750E-13-3.87104E-14
 -1       227 1.99779E+01-6.37158E-03-3.00217E-04 2.52447E-02 1.76294E-14 2.02881E-16
 -1       228 2.20455E+01 9.19542E-01 2.87370E-04 2.03863E+00 3.42039E-13 6.68559E-13
 -1       229 2.04985E+01 2.07493E-01-1.14366E-02 8.01763E-01 3.08267E-13 5.23612E-13
 -1       230 1.96997E+01 1.06675E-01 1.31081E-02 3.02114E-01 2.11013E-13 3.51080E-13
 -1       231 1.93456E+01 4.94644E-02 1.02292E-02 7.60334E-02 1.60677E-13 2.10018E-13
 -1       232 1.92081E+01 2.35681E-02 5.34188E-03-3.52339E-02 1.46329E-13 1.13586E-13
 -1       233 1.91903E+01 1.01178E-02 2.52023E-03-9.01694E-02 1.11993E-13 6.16279E-14
 -1       234 1.92369E+01 2.48415E-03 1.17150E-03-1.13936E-01 6.13221E-14-4.74333E-15
 -1       235 1.93153E+01-1.87972E-03 5.19695E-04-1.19728E-01 6.54329E-14-3.42708E-14
 -1       236 1.94065E+01-4.25490E-03 1.75944E-04-1.15190E-01 4.89800E-14-1.00719E-14
 -1       237 1.94989E+01-5.36665E-03-1.48097E-05-1.05052E-01 3.04658E-14-2.05279E-14
 -1       238 1.95862E+01-5.66155E-03-1.16649E-04-9.23487E-02 5.36828E-14-6.93521E-14
 -1       239 1.96648E+01-5.42210E-03-1.67198E-04-7.90402E-02 8.16772E-14-1.03095E-13
 -1       240 1.97306E+01-4.89347E-03-1.69864E-04-6.70132E-02 8.48836E-14-1.79283E-13
 -1       241 1.97907E+01-4.13125E-03-1.58373E-04-5.58533E-02 5.85449E-14-2.31808E-13
 -1       242 1.98423E+01-3.21444E-03-1.22574E-04-4.67143E-02-1.14236E-13-1.55015E-13
 -1       243 1.98873E+01-2.17834E-03-7.03195E-05-4.00358E-02-6.68962E-14 3.21654E-15
 -1       244 1.99283E+01-1.00692E-03-1.67967E-06-3.62078E-02 1.43955E-14 4.31370E-16
 -1       245 1.99681E+01 3.60079E-04 8.68871E-05-3.57070E-02-4.84502E-14 3.64574E-14
 -1       246 2.00103E+01 2.03735E-03 2.02862E-04-3.92288E-02 1.12352E-13 2.75905E-14
 -1       247 2.00597E+01 4.21496E-03 3.58819E-04-4.78548E-02 5.90822E-14 1.67209E-14
 -1       248 2.01222E+01 7.19441E-03 5.74157E-04-6.32879E-02 8.82790E-15-6.15762E-14
 -1       249 2.02058E+01 1.14470E-02 8.77231E-04-8.81990E-02-9.94886E-15 4.34151E-14
 -1       250 2.03215E+01 1.77038E-02 1.30716E-03-1.26745E-01-3.59283E-14-9.11384E-14
 -1       251 2.04851E+01 2.70857E-02 1.91293E-03-1.85333E-01-7.11573E-15-4.29286E-14
 -1       252 2.07185E+01 4.12846E-02 2.74996E-03-2.73668E-01 1.30518E-13-4.94788E-14
 -1       253 2.10527E+01 6.27900E-02 3.73442E-03-4.06636E-01 1.40000E-13-8.49388E-14
 -1       254 2.15029E+01 9.23669E-02 4.84874E-03-5.92468E-01 3.85139E-14-1.30229E-13
 -1       255 2.21689E+01 1.36371E-01 5.46253E-03-8.74462E-01-2.56223E-14-5.43505E-14
 -1       256 2.30993E+01 1.92357E-01 4.61141E-03-1.27392E+00-1.29455E-13-4.87784E-14
 -1       257 2.43628E+01 2.45938E-01 1.32599E-03-1.79717E+00-1.21869E-13 8.97559E-14
 -1       258 2.60029E+01 2.44779E-01-3.30368E-03-2.37632E+00-4.74564E-14 1.15572E-13
 -1       259 2.79908E+01 5.88335E-02-1.59969E-03-2.74895E+00-4.02445E-14 2.49311E-13
 -1       260 3.01580E+01-5.22528E-01 1.60244E-02-2.29911E+00-1.57884E-13 2.19019E-13
 -1       261 3.21548E+01-1.54820E+00 2.78077E-02-1.39796E-01-5.73309E-14 5.03225E-13
 -1       262 3.33144E+01-1.96545E+00-4.06670E-02 3.62446E+00 1.05843E-13 3.32869E-13
 -1       263 3.31842E+01-1.23460E-01-1.77459E-01 5.75544E+00 1.76525E-13 3.58342E-14
 -1       264 3.17369E+01 3.09094E+00-4.10150E-01 3.33494E+00 6.13121E-14-3.16301E-14
 -1       265 3.13927E+01 3.34979E+00-4.05096E-01-2.50395E+00 8.37386E-14-1.19999E-13
 -1       266 3.26484E+01 7.57626E-01-2.31654E-01-5.35724E+00-1.04847E-13-2.13185E-13
 -1       267 3.31197E+01-1.74830E+00-7.40730E-02-4.18351E+00-5.57870E-14-1.44476E-13
 -1       268 3.23111E+01-1.76315E+00 2.79604E-02-6.08653E-01-1.71640E-13 1.87407E-13
 -1       269 3.04351E+01-7.50995E-01 2.38392E-02 2.00838E+00 3.83790E-14 1.93364E-13
 -1       270 2.82063E+01-4.67416E-02 1.50303E-03 2.80343E+00 3.78209E-14-9.45979E-14
 -1       271 2.60748E+01 2.13019E-01-4.48941E-03 2.58191E+00-9.98487E-14-1.11163E-13
 -1       272 2.42495E+01 2.46456E-01-1.69672E-04 2.04262E+00-9.35441E-14 4.41053E-15
 -1       273 2.27961E+01 2.05052E-01 4.16937E-03 1.50994E+00 3.05539E-13 1.10128E-13
 -1       274 2.16954E+01 1.60328E-01 5.81289E-03 1.07211E+00 3.68820E-13-4.21926E-13
 -1       275 2.09033E+01 1.36893E-01 4.69683E-03 7.11060E-01-2.66189E-13-3.99309E-13
 -1       276 2.03575E+01 1.54753E-01 2.84754E-03 3.78158E-01-1.23265E-13-1.34549E-13
 -1       277 2.01261E+01 3.74667E-01 4.34954E-03 3.80750E-01-1.39516E-14-4.68062E-13
 -1       278 2.00325E+01 8.14816E-01 7.88731E-04 5.45798E-01 5.43797E-14-1.25097E-13
 -1       279 1.99510E+01 1.27651E+00-9.96666E-04 5.19874E-01-1.85251E-13 2.02430E-13
 -1       280 1.99016E+01 1.62862E+00-1.86303E-03 3.35983E-01-1.76676E-13 2.27954E-13
 -1       281 1.98906E+01 1.78596E+00-2.35379E-03 8.36220E-02-9.38878E-14-5.17007E-13
 -1       282 1.99108E+01 1.73208E+00-2.40749E-03-1.61180E-01 1.29028E-13 3.70539E-14
 -1       283 1.99490E+01 1.49855E+00-1.90902E-03-3.34372E-01 2.67392E-13 2.20256E-13
 -1       284 1.99899E+01 1.15832E+00-1.04593E-03-4.10074E-01 3.24600E-13 2.52875E-13
 -1       285 2.00222E+01 7.91895E-01-1.06453E-04-3.95203E-01 3.87605E-13 1.55510E-13
 -1       286 2.00406E+01 4.65357E-01 6.57716E-04-3.17191E-01-6.68009E-14-6.42293E-13
 -1       287 2.00449E+01 2.21781E-01 1.08985E-03-2.12525E-01-2.49377E-13-5.19413E-13
 -1       288 2.00383E+01 6.47346E-02 1.20279E-03-1.08494E-01-2.99778E-14 3.43754E-13
 -1       289 2.00249E+01-1.04398E-02 1.06264E-03-2.84800E-02 9.50282E-15 3.23108E-13
 -1       290 2.00072E+01-2.82282E-02 4.22573E-04 1.60080E-02-1.29397E-13 8.15539E-14
 -1       291 1.99967E+01-1.93588E-02 4.82136E-04 3.08759E-02-8.87318E-14 3.56429E-14
 -1       292-1.55782E+00-1.21196E+01-9.91813E-01-3.39580E-01 3.71855E-14-3.09447E-13
 -1       293 1.26529E+00-1.06937E+01-9.69167E-01 1.93307E+00-1.05083E-13-6.24500E-14
 -1       294 7.72067E+00-7.93737E+00-8.64941E-01 3.98822E+00-2.12608E-13-1.12618E-14
 -1       295 2.05008E+01-5.01272E+00-4.07180E-01 5.77392E+00 2.80886E-14-2.32259E-13
 -1       296 3.35923E+01-9.13820E-01 1.55748E-01 5.37295E+00 6.56974E-14-5.06262E-13
 -1       297 4.59474E+01 3.06508E+00 1.00563E+00 4.07058E+00 1.31098E-13-6.99441E-14
 -1       298 5.30165E+01 6.13530E+00 1.55220E+00 1.16914E+00 1.50879E-13-1.03917E-13
 -1       299 5.31414E+01 7.63632E+00 1.54940E+00 9.29697E-02 2.05946E-14-1.56354E-13
 -1       300 5.19572E+01 5.50423E+00 1.52337E+00-1.95098E+00 1.19640E-13-2.31815E-13
 -1       301 4.18560E+01 1.51381E+00 6.17929E-01-4.04609E+00 6.53477E-13-5.82867E-14
 -1       302 2.93627E+01-3.40576E+00-1.13737E-01-4.80232E+00 6.67827E-13-5.04874E-13
 -1       303 1.57096E+01-6.24458E+00-5.18218E-01-5.51231E+00 8.04523E-13-3.51649E-13
 -1       304 5.12513E+00-8.96655E+00-7.93767E-01-3.51935E+00 9.44522E-13-4.37640E-13
 -1       305-3.09805E-01-1.04096E+01-7.98902E-01-1.11540E+00 8.11254E-13-6.91697E-13
 -1       306-1.56727E+00-1.18298E+01-9.42452E-01 1.55418E+00 2.48412E-13-1.11447E-12
 -1       307 8.21835E-01-1.03859E+01-8.92474E-01 3.36317E+00-2.39447E-13-8.12184E-13
 -1       308 6.32606E+00-6.44208E+00-6.12600E-01 5.50040E+00-8.96283E-13-5.86340E-13
 -1       309 1.58724E+01-2.38130E+00-1.97962E-01 7.72024E+00-8.66140E-13-6.92391E-13
 -1       310 2.57580E+01 2.26704E+00 1.88488E-01 8.89872E+00-7.19758E-13-5.28300E-13
 -1       311 3.63404E+01 3.98186E+00 3.98033E-01 6.21519E+00-5.07847E-13-5.55778E-13
 -1       312 4.47400E+01 6.63201E+00 7.86116E-01 5.09321E+00-3.65902E-13-6.29052E-13
 -1       313 4.98144E+01 7.15919E+00 1.05175E+00 1.51930E+00-3.03979E-13-2.78270E-13
 -1       314 4.70869E+01 7.34482E+00 8.56603E-01-2.75094E+00-5.33851E-13 1.56763E-13
 -1       315 4.21436E+01 5.98966E+00 7.87012E-01-7.01113E+00-3.64042E-13 8.00970E-13
 -1       316 3.21305E+01 3.60974E+00 4.04517E-01-8.38376E+00-4.82170E-13 4.99101E-13
 -1       317 2.08286E+01 3.18792E-01-9.64813E-03-8.38398E+00-5.31380E-13 4.01262E-13
 -1       318 1.14762E+01-4.52152E+00-3.57297E-01-6.98194E+00-3.79918E-13 5.30437E-13
 -1       319 3.14339E+00-8.79908E+00-7.72587E-01-4.32396E+00-7.75768E-14 1.06548E-12
 -1       320-8.45960E-01-1.19660E+01-1.00117E+00-2.26339E+00 4.04954E-14-5.53307E-14
 -1       321 2.01382E+01 3.00184E+00-2.20068E-02-2.09907E+00-4.17988E-13-1.22314E-13
 -1       322 2.07597E+01 2.20898E+00-1.76873E-02-2.36617E+00-4.14962E-13 1.64658E-13
 -1       323 1.95834E+01 3.69304E+00-1.56085E-02-1.31970E+00-2.98954E-13-4.26872E-13
 -1       324 1.94595E+01 3.85025E+00-1.37005E-02-9.26486E-01-2.41621E-13-4.83408E-13
 -1       325 1.93898E+01 3.94151E+00-1.26983E-02-5.47091E-01-1.54702E-13-5.03299E-13
 -1       326 1.93585E+01 3.98340E+00-1.22694E-02-1.76945E-01-8.39943E-14-5.06508E-13
 -1       327 1.93591E+01 3.98262E+00-1.22762E-02 1.90140E-01-1.30238E-14-5.12622E-13
 -1       328 1.93917E+01 3.93903E+00-1.27048E-02 5.60513E-01 6.50943E-14-5.22936E-13
 -1       329 1.94614E+01 3.84786E+00-1.36866E-02 9.33860E-01 1.46301E-13-5.15705E-13
 -1       330 1.95868E+01 3.68914E+00-1.55134E-02 1.32728E+00 2.46167E-13-4.51533E-13
 -1       331 1.97995E+01 3.42697E+00-1.85141E-02 1.73314E+00 3.31718E-13-3.95064E-13
 -1       332 2.01581E+01 2.98084E+00-2.15748E-02 2.11634E+00 4.01403E-13-2.54114E-13
 -1       333 2.07780E+01 2.17139E+00-1.81326E-02 2.36246E+00 4.27236E-13 1.34961E-14
 -1       334 1.93958E+01-6.79361E+00-7.05007E-02 6.01952E+00-3.20938E-13-3.94231E-13
 -1       335 2.04614E+01 6.75751E-01 1.25865E-02-1.02612E+00-3.29023E-13 1.97493E-13
 -1       336 2.00392E+01 3.37218E-01 7.17400E-03-4.58630E-01-2.63812E-13 1.49456E-13
 -1       337 1.97847E+01 1.76882E-01 4.10246E-03-1.49234E-01-1.74944E-13 1.11025E-13
 -1       338 1.96492E+01 9.08377E-02 1.88953E-03 2.23531E-02-9.96042E-14 4.35089E-14
 -1       339 1.95938E+01 4.17024E-02 7.92331E-04 1.13895E-01-1.09884E-13 3.26620E-14
 -1       340 1.95887E+01 1.27584E-02 2.75900E-04 1.57469E-01-1.13199E-13 9.25083E-15
 -1       341 1.96130E+01-4.17270E-03 1.95704E-05 1.72001E-01-1.15306E-13-2.13609E-14
 -1       342 1.96530E+01-1.35391E-02-1.13668E-04 1.69275E-01-1.29172E-13 4.59424E-16
 -1       343 1.96995E+01-1.79954E-02-1.79099E-04 1.56916E-01-1.78859E-13 2.59480E-14
 -1       344 1.97472E+01-1.92358E-02-2.02642E-04 1.39953E-01-1.01748E-13 2.80029E-14
 -1       345 1.97929E+01-1.83842E-02-1.99219E-04 1.21714E-01-3.07547E-14-6.75680E-14
 -1       346 1.98349E+01-1.61972E-02-1.78518E-04 1.04385E-01 1.09555E-14-7.68256E-14
 -1       347 1.98729E+01-1.31844E-02-1.47119E-04 8.93723E-02-2.58778E-14-4.12705E-14
 -1       348 1.99072E+01-9.69185E-03-1.09623E-04 7.75496E-02 1.35460E-14-6.90981E-14
 -1       349 1.99387E+01-5.96845E-03-6.95128E-05 6.94172E-02-2.76265E-14-8.49928E-14
 -1       350 1.99683E+01-2.22684E-03-2.99295E-05 6.51852E-02-4.71034E-14-9.53627E-14
 -1       351 1.99975E+01 1.29372E-03 5.56710E-06 6.47889E-02-7.46099E-14-1.02210E-13
 -1       352 2.00275E+01 4.25862E-03 3.22325E-05 6.78328E-02-6.81386E-14-1.18728E-13
 -1       353 2.00593E+01 6.16322E-03 4.33859E-05 7.34590E-02 1.85176E-14-1.86961E-13
 -1       354 2.00937E+01 6.25802E-03 2.98210E-05 8.01375E-02 1.09266E-13-1.99302E-13
 -1       355 2.01309E+01 3.49085E-03-2.03269E-05 8.53895E-02 4.04401E-14-3.74315E-14
 -1       356 2.01700E+01-3.49900E-03-1.20779E-04 8.54787E-02 2.59714E-16-3.27596E-15
 -1       357 2.02089E+01-1.62740E-02-2.84687E-04 7.51533E-02-5.37887E-14-3.33976E-14
 -1       358 2.02434E+01-3.62899E-02-5.19828E-04 4.75943E-02-7.41157E-14-1.60551E-13
 -1       359 2.02671E+01-6.42807E-02-8.21051E-04-5.17744E-03-1.25990E-13-7.56099E-14
 -1       360 2.02708E+01-9.92620E-02-1.16015E-03-9.10877E-02-1.07465E-13 3.60345E-14
 -1       361 2.02421E+01-1.37218E-01-1.47716E-03-2.15620E-01-2.65828E-14 3.10322E-14
 -1       362 2.01667E+01-1.69844E-01-1.67612E-03-3.78062E-01-3.42605E-14 4.70087E-14
 -1       363 2.00302E+01-1.84222E-01-1.63736E-03-5.66776E-01-5.36619E-14 7.17515E-14
 -1       364 1.98224E+01-1.64771E-01-1.25197E-03-7.55005E-01 4.35349E-14 1.29526E-13
 -1       365 1.95439E+01-9.86982E-02-4.81081E-04-9.00214E-01 5.52491E-14 3.01977E-13
 -1       366 1.92139E+01 1.54844E-02 5.92378E-04-9.50776E-01 8.43620E-14 2.26631E-13
 -1       367 1.88743E+01 1.60085E-01 1.75203E-03-8.62145E-01-1.26364E-14 1.90160E-13
 -1       368 1.85859E+01 2.97720E-01 2.72767E-03-6.18968E-01 3.59375E-14 6.46772E-14
 -1       369 1.84119E+01 3.83291E-01 3.29008E-03-2.51995E-01 2.35689E-14 9.87531E-14
 -1       370 1.83935E+01 3.85093E-01 3.30450E-03 1.63830E-01 2.55905E-13 3.77842E-13
 -1       371 1.85320E+01 3.02138E-01 2.76940E-03 5.34452E-01 1.38113E-13 3.01021E-14
 -1       372 1.87873E+01 1.64947E-01 1.79834E-03 7.82997E-01-1.30100E-13 8.74639E-14
 -1       373 1.90965E+01 1.90967E-02 6.35193E-04 8.76426E-01-3.40070E-13 4.88592E-13
 -1       374 1.93978E+01-9.62624E-02-4.31811E-04 8.29144E-01 6.02036E-15 5.69048E-13
 -1       375 1.96481E+01-1.61388E-01-1.17607E-03 6.86900E-01 2.83938E-13 3.06078E-13
 -1       376 1.98283E+01-1.76382E-01-1.50447E-03 5.04346E-01 1.88857E-13 3.45123E-13
 -1       377 1.99388E+01-1.53894E-01-1.48992E-03 3.27733E-01 2.22938E-14 1.48984E-13
 -1       378 1.99921E+01-1.10767E-01-1.20521E-03 1.87103E-01-1.21478E-13 7.03186E-14
 -1       379 2.00058E+01-6.48898E-02-1.13113E-03 9.49503E-02-1.59798E-13 7.06451E-14
 -1       380 2.00002E+01-3.13151E-02-2.06435E-04 5.13284E-02 6.38304E-14 1.19025E-13
 -1       381 2.00517E+01 3.55344E-01 8.08796E-03 4.80740E-01 2.67402E-13-4.48977E-14
 -1       382 2.04739E+01 7.05708E-01 1.29223E-02 1.05651E+00 3.62561E-13 3.58776E-14
 -1       383 1.97933E+01 1.85397E-01 4.62219E-03 1.61668E-01 1.90612E-13-9.96546E-14
 -1       384 1.96535E+01 9.41725E-02 1.94186E-03-1.58688E-02 1.57548E-13-9.94149E-14
 -1       385 1.95951E+01 4.35708E-02 8.11253E-04-1.10536E-01 9.49803E-14-7.66182E-14
 -1       386 1.95880E+01 1.38067E-02 2.86961E-04-1.55910E-01 7.81270E-14-5.29964E-14
 -1       387 1.96112E+01-3.63045E-03 2.64534E-05-1.71487E-01 5.06175E-14-6.02582E-14
 -1       388 1.96505E+01-1.33425E-02-1.10485E-04-1.69303E-01 3.81387E-14-3.71319E-14
 -1       389 1.96969E+01-1.80531E-02-1.77598E-04-1.57132E-01 8.91847E-14-5.83362E-14
 -1       390 1.97444E+01-1.94747E-02-2.05549E-04-1.40108E-01 1.15844E-13-4.88114E-14
 -1       391 1.97879E+01-1.88565E-02-2.03798E-04-1.22533E-01 1.47157E-13-7.67264E-14
 -1       392 1.98303E+01-1.67882E-02-1.84043E-04-1.04806E-01 9.01005E-14-4.75328E-14
 -1       393 1.98688E+01-1.37684E-02-1.51732E-04-8.93569E-02-8.24583E-14 3.27160E-14
 -1       394 1.99039E+01-1.00343E-02-1.08631E-04-7.72990E-02-8.77145E-14-9.38629E-14
 -1       395 1.99365E+01-5.64833E-03-5.62981E-05-6.95213E-02-8.07280E-14-1.06115E-13
 -1       396 1.99683E+01-4.89748E-04 7.28819E-06-6.69076E-02-3.56817E-14 5.25876E-14
 -1       397 2.00015E+01 5.76221E-03 8.68872E-05-7.05449E-02 1.36722E-14-6.30602E-14
 -1       398 2.00385E+01 1.36798E-02 1.90821E-04-8.19606E-02 3.83640E-14-2.61554E-14
 -1       399 2.00827E+01 2.41820E-02 3.32464E-04-1.03424E-01 3.94713E-14 1.21535E-13
 -1       400 2.01381E+01 3.86892E-02 5.32434E-04-1.38351E-01 4.15496E-14 5.45248E-14
 -1       401 2.02096E+01 5.93588E-02 8.21717E-04-1.91876E-01 6.64389E-14-2.74446E-14
 -1       402 2.03033E+01 8.94154E-02 1.24578E-03-2.71639E-01 1.83115E-14-1.64461E-13
 -1       403 2.04265E+01 1.33566E-01 1.86920E-03-3.88830E-01 9.66285E-14-2.43008E-13
 -1       404 2.05870E+01 1.98468E-01 2.75432E-03-5.59670E-01 1.29426E-13-1.22663E-13
 -1       405 2.07819E+01 2.86797E-01 3.86093E-03-7.91368E-01 5.37847E-14-4.70961E-15
 -1       406 2.10379E+01 4.15187E-01 5.29665E-03-1.13421E+00 6.70904E-16 8.42280E-14
 -1       407 2.13474E+01 5.82286E-01 6.54237E-03-1.60950E+00-1.53235E-13 2.63521E-13
 -1       408 2.17089E+01 7.64942E-01 7.13797E-03-2.23860E+00-2.04498E-13 3.00338E-13
 -1       409 2.21315E+01 8.72170E-01 7.25513E-03-3.00519E+00-1.19557E-14 4.10429E-13
 -1       410 2.26914E+01 6.66240E-01 9.71170E-03-3.79243E+00-7.42592E-14 3.56690E-13
 -1       411 2.36687E+01-3.16886E-01 2.29652E-02-4.28351E+00-1.27926E-13 4.85292E-13
 -1       412 2.58799E+01-2.60894E+00 5.65220E-02-3.83906E+00-2.49915E-13 5.38125E-13
 -1       413 2.97705E+01-5.16160E+00 1.28708E-02-1.39227E+00 1.10682E-13 4.16511E-13
 -1       414 3.69037E+01-1.93964E+00-9.10775E-02-3.86544E+00-1.40894E-13-3.52468E-13
 -1       415 3.15417E+01-4.96188E+00-1.95241E-02 3.29485E-02-3.23859E-13-2.45089E-13
 -1       416 2.72324E+01-3.00436E+00 3.68161E-02 3.08991E+00 8.04148E-14-4.38332E-13
 -1       417 2.46921E+01-7.07001E-01 2.24159E-02 4.15673E+00 3.13725E-14-3.61717E-13
 -1       418 2.33069E+01 4.25576E-01 4.84445E-03 3.94246E+00-1.90591E-13-1.68837E-13
 -1       419 2.24447E+01 7.37882E-01 5.19674E-03 3.25695E+00-8.44921E-14-2.68221E-13
 -1       420 2.17866E+01 6.94331E-01 6.72566E-03 2.50911E+00 1.12859E-13-4.48503E-13
 -1       421 2.12436E+01 5.62972E-01 7.47663E-03 1.85879E+00 4.93129E-13-2.53951E-13
 -1       422 2.07952E+01 4.63103E-01 7.73212E-03 1.32870E+00 2.91603E-14-3.03834E-13
 -1       423 2.04222E+01 4.26692E-01 5.09538E-03 8.74487E-01-1.49255E-13-5.48055E-13
 -1       424 2.71411E+00-4.81592E+00-3.96389E-02 2.97011E+00 2.54380E-14 8.98726E-14
 -1       425 1.96963E+01 1.33557E+00-2.46398E-03 7.05688E-01-4.35828E-14 2.70313E-13
 -1       426 1.99391E+01 1.00891E+00-5.63532E-04 9.34792E-01 7.21970E-15-2.07507E-14
 -1       427 1.95866E+01 1.49201E+00-3.08962E-03 3.14609E-01 9.10128E-14-8.22747E-15
 -1       428 1.96098E+01 1.46269E+00-3.09792E-03-1.18241E-01 4.10532E-13 6.33009E-14
 -1       429 1.97278E+01 1.27280E+00-2.54087E-03-4.68502E-01 5.09478E-13 2.67961E-13
 -1       430 1.98846E+01 9.85569E-01-1.44670E-03-6.67531E-01 2.27592E-13 1.79643E-14
 -1       431 2.00284E+01 6.72167E-01-2.54805E-04-7.05173E-01-1.36850E-14 2.08272E-13
 -1       432 2.01270E+01 3.90471E-01 7.21518E-04-6.15076E-01-1.10150E-13-1.52359E-13
 -1       433 2.01705E+01 1.77805E-01 1.28879E-03-4.54762E-01 2.53127E-13-6.81276E-13
 -1       434 2.01657E+01 3.83007E-02 1.39549E-03-2.73137E-01 3.30904E-13 1.51554E-13
 -1       435 2.01278E+01-3.08918E-02 1.33697E-03-1.16143E-01 3.41197E-13 2.25423E-13
 -1       436 2.00691E+01-4.60821E-02 8.19861E-04-7.53362E-03 9.89315E-14-2.34130E-13
 -1       437 1.09850E+01-5.76348E+00 1.59666E-02 6.26684E+00-1.07553E-13-9.64784E-14
 -1       438 5.01135E-01-5.17171E+00-9.67170E-02-1.80136E+00-1.19807E-13-4.74176E-13
 -1       439 1.97914E+01 3.43448E+00-1.87083E-02-1.72215E+00-3.66777E-13-3.14252E-13
 -1       440 4.00816E+01 1.67501E+00 4.83114E-02 3.30942E+00 3.82319E-13 7.52176E-15
 -1       441 3.61013E+01-3.48043E+00-1.20373E-02 1.55277E+00 5.23534E-13 2.59709E-13
 -1       442 2.71872E+01-6.74820E+00-5.79434E-02-3.65036E+00 1.54154E-13 3.94823E-14
 -1       443 1.56769E+01-6.43980E+00-5.09099E-02-6.31683E+00 2.88602E-13-2.74364E-14
 -1       444 6.99100E+00-4.71370E+00 4.40329E-02-5.12789E+00 1.98244E-13-1.61107E-13
 -1       445 9.58018E-01-4.43307E+00-4.41182E-02-3.34888E-01-2.53790E-14-1.19127E-12
 -1       446 1.68915E+00-5.11929E+00-8.96344E-02 4.15346E+00 1.01363E-13-1.06395E-12
 -1       447 7.13319E+00-5.33812E+00-5.77782E-02 7.32243E+00 2.35367E-14-6.91003E-13
 -1       448 1.53426E+01-5.38488E+00-2.57112E-02 8.30429E+00-2.16771E-14-1.93223E-13
 -1       449 2.49192E+01-3.55913E+00 1.78857E-02 6.64494E+00-1.63231E-13 1.78593E-13
 -1       450 3.11390E+01-5.79336E-01-1.11020E-02 3.91467E+00-1.90906E-13-6.01463E-14
 -1       451 3.46102E+01 4.45084E+00-9.12286E-02 1.09083E-01-1.71085E-13-6.44068E-14
 -1       452 3.80042E+01 8.04109E+00 5.51926E-02 2.05728E-01-5.32255E-13-8.77909E-14
 -1       453 3.74019E+01 9.04272E+00 1.27822E-02 7.28247E-02-6.10845E-13 2.20310E-13
 -1       454 3.65129E+01 6.36952E+00 5.79448E-03-1.54519E-01-4.86430E-13 1.63952E-13
 -1       455 3.48533E+01 2.58870E+00 5.35151E-02-1.83183E+00-1.48971E-13 3.65458E-13
 -1       456 2.87290E+01-2.31480E+00-2.77639E-03-5.13077E+00-1.68879E-13 3.15747E-13
 -1       457 2.20895E+01-5.26393E+00 3.27422E-02-7.34282E+00-2.46345E-13 8.70831E-14
 -1       458 1.13495E+01-5.45109E+00-7.09869E-03-8.19905E+00-9.65616E-14 6.68389E-13
 -1       459 3.89994E+00-5.27411E+00-5.87595E-02-5.81837E+00-4.03053E-13 9.59802E-13
 -1       460 3.09534E+01-5.77029E+00-8.00374E-02 2.34057E+00-2.15564E-13-7.36577E-13
 -1       461 4.18022E+01 4.38572E+00 1.37421E-01-2.62246E+00 9.77551E-14-2.73948E-14
 -1       462 3.20571E+01 8.07808E-01-7.68032E-02-1.72760E-01-9.40567E-15-2.98372E-15
 -1       463 1.97314E+01 3.10651E+00-5.39400E-03-6.36553E-01-1.90826E-13-4.30965E-13
 -1       464 1.98284E+01 2.93258E+00-5.98788E-03-9.52928E-01-2.46941E-13-4.10529E-13
 -1       465 1.96623E+01 3.23064E+00-5.01278E-03 5.66795E-03-5.16266E-14-4.65510E-13
 -1       466 1.96801E+01 3.19882E+00-5.08626E-03 3.27096E-01 1.86232E-14-4.58408E-13
 -1       467 1.97331E+01 3.10365E+00-5.39079E-03 6.42612E-01 9.96771E-14-4.54673E-13
 -1       468 1.98304E+01 2.92847E+00-5.97266E-03 9.58887E-01 1.98186E-13-4.11917E-13
 -1       469 1.99861E+01 2.64627E+00-6.59757E-03 1.25465E+00 2.68128E-13-3.77392E-13
 -1       470 2.02091E+01 2.20777E+00-6.77604E-03 1.48672E+00 3.48274E-13-2.88305E-13
 -1       471 2.04338E+01 1.46603E+00-3.17892E-03 1.40257E+00 3.79646E-13-1.47886E-13
 -1       472 2.03451E+01 9.74049E-01 2.64547E-03-9.42808E-01-3.12859E-13-3.80722E-14
 -1       473 2.01733E+01 5.44579E-01 1.89073E-03-4.68384E-01-2.24851E-13-1.29100E-14
 -1       474 2.00258E+01 3.04419E-01 1.04485E-03-1.66742E-01-1.71872E-13-8.02446E-15
 -1       475 1.99249E+01 1.62380E-01 4.50402E-04 1.51638E-02-1.45605E-13-2.28053E-14
 -1       476 1.98661E+01 7.61421E-02 1.59879E-04 1.18257E-01-1.31085E-13-9.76282E-14
 -1       477 1.98388E+01 2.35272E-02 2.39105E-05 1.70157E-01-1.45376E-13-9.61112E-14
 -1       478 1.98328E+01-7.79378E-03-4.42653E-05 1.89463E-01-1.16446E-13-1.25924E-13
 -1       479 1.98404E+01-2.51910E-02-7.86568E-05 1.88781E-01-9.90360E-14-1.20452E-13
 -1       480 1.98556E+01-3.33515E-02-9.28450E-05 1.76703E-01-1.27890E-13-3.11784E-14
 -1       481 1.98747E+01-3.53831E-02-9.39062E-05 1.59079E-01-1.27396E-13-1.76479E-15
 -1       482 1.98953E+01-3.33915E-02-8.64135E-05 1.39865E-01-1.02094E-14-3.59326E-14
 -1       483 1.99158E+01-2.88117E-02-7.35390E-05 1.21701E-01 2.36104E-14-4.42134E-14
 -1       484 1.99356E+01-2.26240E-02-5.74997E-05 1.06313E-01-3.88105E-14-6.08193E-14
 -1       485 1.99547E+01-1.55148E-02-3.98517E-05 9.47863E-02-7.19824E-14-2.07138E-14
 -1       486 1.99734E+01-8.01195E-03-2.18638E-05 8.77417E-02-1.02666E-13-1.20015E-13
 -1       487 1.99921E+01-6.13654E-04-4.83959E-06 8.54168E-02-4.55511E-14-1.81343E-13
 -1       488 2.00115E+01 6.07646E-03 9.57225E-06 8.76664E-02-7.46898E-14-1.60610E-13
 -1       489 2.00327E+01 1.12041E-02 1.90213E-05 9.38709E-02 4.17357E-15-1.10372E-13
 -1       490 2.00566E+01 1.35132E-02 2.01155E-05 1.02752E-01 1.18302E-14-1.60623E-13
 -1       491 2.00842E+01 1.12098E-02 8.19671E-06 1.12097E-01 1.70899E-13-7.98807E-14
 -1       492 2.01167E+01 1.88559E-03-2.26361E-05 1.18407E-01 8.45672E-14-1.05244E-13
 -1       493 2.01549E+01-1.74078E-02-7.89795E-05 1.16522E-01-5.70533E-14-1.41609E-13
 -1       494 2.01994E+01-4.97956E-02-1.66700E-04 9.93369E-02-1.13069E-13-1.86653E-13
 -1       495 2.02499E+01-9.77341E-02-2.88203E-04 5.78051E-02-1.04254E-13-2.77100E-13
 -1       496 2.03045E+01-1.61482E-01-4.38469E-04-1.84240E-02-1.44550E-14-1.90642E-13
 -1       497 2.03583E+01-2.36802E-01-5.98154E-04-1.39266E-01-4.47732E-14-6.73142E-14
 -1       498 2.04019E+01-3.12196E-01-7.31434E-04-3.10820E-01 7.07919E-14 3.93064E-14
 -1       499 2.04203E+01-3.66720E-01-7.79598E-04-5.30023E-01-9.34202E-14 9.80572E-14
 -1       500 2.03935E+01-3.70574E-01-6.73096E-04-7.77794E-01 6.95591E-14 1.83062E-13
 -1       501 2.03008E+01-2.91581E-01-3.60345E-04-1.01300E+00 1.47507E-13 1.86174E-13
 -1       502 2.01305E+01-1.09652E-01 1.29456E-04-1.17224E+00 1.75448E-14 2.45171E-13
 -1       503 1.98942E+01 1.63590E-01 6.70861E-04-1.18223E+00-6.06074E-15 2.60941E-13
 -1       504 1.96367E+01 4.71192E-01 1.08334E-03-9.88061E-01-8.29950E-14 2.68358E-13
 -1       505 1.94295E+01 7.19859E-01 1.29933E-03-5.88883E-01 5.85792E-14 2.57842E-13
 -1       506 1.93418E+01 8.18542E-01 1.39015E-03-5.78539E-02 2.45241E-13 5.09238E-14
 -1       507 1.94042E+01 7.27413E-01 1.39430E-03 4.76424E-01 3.37710E-14-7.08849E-14
 -1       508 1.95894E+01 4.82085E-01 1.15621E-03 8.83234E-01 9.59972E-14-1.23018E-13
 -1       509 1.98288E+01 1.72961E-01 6.99122E-04 1.08526E+00 1.07393E-13 2.09694E-13
 -1       510 2.00489E+01-1.03822E-01 1.18844E-04 1.08032E+00-1.33369E-14 5.67482E-13
 -1       511 2.02025E+01-2.86892E-01-3.71969E-04 9.23387E-01-8.37210E-14 3.47653E-13
 -1       512 2.02759E+01-3.60915E-01-6.43065E-04 6.90880E-01 1.80036E-13 2.31982E-13
 -1       513 2.02800E+01-3.44504E-01-7.03917E-04 4.51046E-01-8.37118E-15 1.76849E-13
 -1       514 2.02368E+01-2.71205E-01-6.78477E-04 2.49469E-01-8.18690E-14 7.56754E-14
 -1       515 2.01671E+01-1.73782E-01-3.61762E-04 1.11112E-01-2.24033E-13-2.23321E-13
 -1       516 2.02915E+01 8.30897E-01 2.59881E-03 7.95673E-01 3.19274E-13-1.41513E-13
 -1       517 1.99288E+01 1.67815E-01 4.02896E-04-8.14688E-03 1.09559E-13-1.16315E-13
 -1       518 1.98682E+01 7.94070E-02 1.53458E-04-1.14343E-01 9.39039E-14-1.58445E-13
 -1       519 1.98395E+01 2.54216E-02 2.48980E-05-1.68216E-01 6.52715E-14-1.37948E-13
 -1       520 1.98328E+01-6.81802E-03-4.22518E-05-1.88722E-01 3.24993E-14-9.20867E-14
 -1       521 1.98399E+01-2.48677E-02-7.64680E-05-1.88681E-01 7.56201E-14-1.58278E-13
 -1       522 1.98549E+01-3.34901E-02-9.35845E-05-1.76859E-01 9.70400E-14-1.85176E-13
 -1       523 1.98730E+01-3.58614E-02-9.75459E-05-1.60159E-01 8.19310E-14-1.41855E-13
 -1       524 1.98938E+01-3.42243E-02-8.84890E-05-1.40806E-01 5.30213E-14-4.06739E-15
 -1       525 1.99148E+01-2.97249E-02-7.65887E-05-1.22383E-01-1.38323E-14 3.10214E-14
 -1       526 1.99354E+01-2.32093E-02-5.92796E-05-1.06871E-01-2.42925E-14-1.67434E-14
 -1       527 1.99556E+01-1.50770E-02-3.83429E-05-9.57405E-02-6.75205E-14 2.00479E-15
 -1       528 1.99758E+01-5.33709E-03-1.35209E-05-9.02414E-02-6.81666E-14-5.41794E-14
 -1       529 1.99966E+01 6.38781E-03 1.66632E-05-9.16548E-02 1.48388E-14-9.10056E-14
 -1       530 2.00189E+01 2.09145E-02 5.49055E-05-1.01545E-01 2.32751E-14-7.55279E-14
 -1       531 2.00437E+01 3.96164E-02 1.05720E-04-1.22036E-01-1.62234E-15-6.68347E-14
 -1       532 2.00717E+01 6.46247E-02 1.76103E-04-1.56137E-01 9.22800E-14-1.11234E-13
 -1       533 2.01034E+01 9.91367E-02 2.76731E-04-2.08158E-01 9.65870E-14-1.85530E-13
 -1       534 2.01382E+01 1.47846E-01 4.24050E-04-2.84223E-01 5.13212E-14-1.23398E-13
 -1       535 2.01736E+01 2.17471E-01 6.41602E-04-3.92896E-01 1.01218E-13-1.39475E-13
 -1       536 2.02033E+01 3.17414E-01 9.87042E-04-5.45857E-01 5.45670E-14-9.45581E-14
 -1       537 2.02152E+01 4.51006E-01 1.35827E-03-7.46030E-01 4.28033E-14 5.54022E-14
 -1       538 2.01902E+01 6.43979E-01 1.96251E-03-1.03186E+00-7.05574E-14 2.29480E-13
 -1       539 2.00902E+01 8.99563E-01 2.56043E-03-1.41566E+00-7.34305E-14 2.79074E-13
 -1       540 1.98632E+01 1.20592E+00 3.10087E-03-1.91758E+00-1.43527E-13 1.71796E-13
 -1       541 1.94485E+01 1.49672E+00 4.58305E-03-2.55487E+00-7.60021E-14 1.26424E-13
 -1       542 1.88166E+01 1.57706E+00 1.15059E-02-3.34683E+00-5.83558E-14 2.11011E-13
 -1       543 1.81057E+01 1.00863E+00 3.64236E-02-4.32056E+00-2.20770E-13 2.48526E-13
 -1       544 1.79124E+01-9.95631E-01 1.28397E-01-5.38637E+00-1.59102E-13 2.96362E-13
 -1       545 4.48013E+00-7.92241E-01 1.95698E-01 6.92731E-01 1.14664E-13-1.61135E-13
 -1       546 2.33515E+01-5.66726E+00 4.74339E-02 4.95213E+00-1.45883E-13-4.58232E-13
 -1       547 1.91120E+01 1.35484E+00 1.15373E-02 3.81403E+00-1.29246E-13-3.10455E-13
 -1       548 1.95862E+01 1.40747E+00 5.31101E-03 2.98864E+00 1.72816E-15-2.66618E-13
 -1       549 1.99077E+01 1.19567E+00 3.48414E-03 2.30147E+00 2.92031E-14-5.68637E-14
 -1       550 2.00638E+01 9.77798E-01 3.17922E-03 1.73564E+00 4.60458E-13 1.59414E-13
 -1       551 1.99606E+01 9.61981E-01 2.03102E-03 1.31369E+00 8.64098E-14 3.03233E-13
 -1       552 1.00122E+01-1.84340E+00 1.89607E-01 5.22139E+00-6.86465E-14 1.32117E-14
 -1       553 1.93010E+01 1.19527E+00-1.37398E-03-5.18411E-01 6.08559E-13 2.62422E-13
 -1       554 4.84107E+00-1.62961E+00 1.80238E-01-4.04447E+00-2.31898E-13 5.40443E-13
 -1       555 1.96119E+01 8.63609E-01-9.70832E-04-8.69501E-01 2.50561E-13-3.92174E-13
 -1       556 1.99377E+01 5.12089E-01-4.53903E-04-9.88329E-01 5.14187E-14 3.55903E-14
 -1       557 2.01910E+01 2.12945E-01 1.48880E-04-9.09301E-01 1.74849E-13 1.70125E-13
 -1       558 2.03315E+01 4.91703E-03 5.68803E-04-7.09344E-01 3.35077E-13-3.82791E-13
 -1       559 2.03653E+01-1.14737E-01 6.66937E-04-4.58424E-01 4.20439E-13-4.42742E-13
 -1       560 2.03129E+01-1.54444E-01 3.83092E-04-2.23357E-01 2.45106E-13 2.64945E-13
 -1       561 2.02077E+01-1.37617E-01-8.27972E-05-4.63046E-02 5.34579E-14-2.44712E-13
 -1       562 1.55052E+01-3.83875E+00 1.30174E-01 6.23353E+00 3.31124E-14-2.91496E-13
 -1       563 9.71807E+00-3.27716E+00 1.32895E-01-7.37220E+00-1.67415E-13 7.69274E-13
 -1       564 2.00303E+01 3.16683E-01 1.07330E-03 1.80009E-01 1.59937E-13-1.35046E-13
 -1       565 1.91944E+01 1.43653E+00-1.46634E-03 6.33042E-01 9.43765E-14 2.71408E-13
 -1       566 3.13253E+01 7.42513E+00-1.86912E-01 1.20639E+00-5.91707E-13 2.85598E-13
 -1       567 2.25647E+01-5.31352E+00 5.91942E-02 6.85993E+00 1.80321E-13 2.53398E-13
 -1       568 1.94925E+01 1.27167E+00-1.15435E-03 1.07646E+00 2.21854E-13 3.37519E-13
 -1       569 1.91262E+01 1.41314E+00-1.07144E-03 2.11218E-02 3.61319E-13 5.70576E-13
 -1       570 1.87351E+01 5.49124E-01 5.07822E-02 4.69089E+00-1.97189E-13-3.06250E-13
 -1       571 1.98413E+01-1.90740E+00 9.15935E-02 5.44503E+00 6.42784E-14-5.22443E-13
 -1       572 1.96786E+01 3.20118E+00-5.10557E-03-3.15774E-01-1.10807E-13-4.57962E-13
 -1       573 2.01510E+01 5.13438E-01 1.71753E-03 4.30659E-01 2.46739E-13-1.38671E-13
 -1       574 3.17772E+01 6.19414E+00-1.77321E-01-1.38075E+00-3.95739E-13 1.73889E-14
 -1       575 2.21008E+01-5.31616E+00 8.10859E-02-5.16908E+00 1.71529E-14 2.28550E-13
 -1       576 1.46906E+01-3.57234E+00 1.15815E-01-6.16388E+00 8.13793E-14 7.86871E-15
 -1       577 6.58920E+00-8.45024E-01 2.13255E-01-2.98919E+00-1.53575E-13-6.36532E-13
 -1       578 3.98336E+00-9.90281E-01 1.80500E-01 2.21812E+00 7.62255E-14-1.00923E-12
 -1       579 6.54095E+00-2.31932E+00 1.55320E-01 6.02491E+00 4.18665E-13-7.99916E-13
 -1       580 1.36923E+01-4.11199E+00 1.19083E-01 8.18736E+00 3.31166E-13-1.89002E-13
 -1       581 2.82687E+01-4.07529E+00-3.64385E-02 3.08144E+00 9.52537E-14 1.15255E-14
 -1       582 2.71200E+01-4.67472E+00-1.13522E-02-4.00728E+00-2.40943E-13 1.98036E-14
 -1       583 3.14413E+01 8.25875E+00-1.94746E-01-5.29870E-01-6.91044E-13 2.89777E-13
 -1       584 3.11002E+01 2.85136E+00-1.68712E-01 1.57532E+00-5.65173E-14 1.82264E-13
 -1       585 3.07110E+01-1.43359E+00-7.94307E-02-6.34332E-01-5.69579E-14 1.23859E-14
 -1       586 1.86980E+01-4.98562E+00 1.11825E-01-7.73644E+00-7.44751E-14-4.55226E-14
 -1       587 2.03923E+01 1.75791E+00-5.27935E-03-1.52573E+00-3.86407E-13-7.24789E-14
 -1       588 1.99785E+01 2.65495E+00-6.74155E-03-1.24605E+00-2.90577E-13-3.32115E-13
 -1       589 2.01148E+01-1.11478E-01-2.00217E-04 5.37008E-02-5.50192E-14 6.53062E-14
 -1       590 3.04505E+01 3.31954E+00-1.30721E-01-1.78043E+00-1.17448E-13 7.04159E-14
 -1       591 2.01640E+01 2.28378E+00-6.09845E-03-1.43760E+00-3.42796E-13-2.22973E-13
 -1       592 2.36995E+01-5.10813E+00 3.37585E-02-5.35215E+00 1.21986E-14 4.99665E-14
 -1       593 1.19260E+01-5.27050E-01 1.38810E-01-4.78324E+00-1.16358E-13-2.97921E-13
 -1       594 1.99566E+01 2.45555E+00-1.55744E-03 3.92207E-01 5.35888E-14-4.02413E-13
 -1       595 1.99252E+01 2.52909E+00-1.51110E-03 1.33546E-01-6.43584E-15-3.99423E-13
 -1       596 2.01187E+01 2.05577E+00-1.47330E-03 8.51786E-01 2.07388E-13-3.52051E-13
 -1       597 2.02338E+01 1.70023E+00 2.22386E-05 1.00235E+00 2.69531E-13-2.77058E-13
 -1       598 2.03098E+01 1.26247E+00 8.61221E-04 9.43647E-01 3.14843E-13-2.03204E-13
 -1       599 2.02932E+01 1.11716E+00-4.09908E-04-7.64442E-01-2.53689E-13-1.42126E-13
 -1       600 2.00204E+01 2.30236E+00-1.55398E-03 6.36863E-01 1.28874E-13-3.64510E-13
 -1       601 2.02408E+01 6.74522E-01 4.11740E-04-3.94056E-01-2.05981E-13-1.59428E-13
 -1       602 2.01680E+01 3.92867E-01 1.82282E-04-1.40068E-01-1.89624E-13-1.76663E-13
 -1       603 2.01024E+01 2.13520E-01 5.70926E-05 2.22509E-02-1.60706E-13-1.75420E-13
 -1       604 2.00520E+01 9.94127E-02 5.91026E-06 1.17815E-01-1.44733E-13-1.86860E-13
 -1       605 2.00170E+01 2.79745E-02-1.48603E-05 1.67225E-01-1.33250E-13-1.84750E-13
 -1       606 1.99946E+01-1.49342E-02-2.52840E-05 1.86117E-01-9.07499E-14-8.65986E-14
 -1       607 1.99816E+01-3.85567E-02-3.02660E-05 1.85895E-01-6.20803E-14-6.18957E-14
 -1       608 1.99755E+01-4.91294E-02-3.13738E-05 1.74695E-01-9.28532E-14 3.79148E-16
 -1       609 1.99740E+01-5.09415E-02-2.95949E-05 1.58226E-01-1.53468E-13 1.44509E-14
 -1       610 1.99755E+01-4.69594E-02-2.58970E-05 1.40422E-01-2.84123E-14-6.83092E-14
 -1       611 1.99790E+01-3.92293E-02-2.10655E-05 1.23953E-01-3.25609E-14-1.19672E-13
 -1       612 1.99839E+01-2.91725E-02-1.55816E-05 1.10594E-01-3.11295E-15-1.97011E-13
 -1       613 1.99898E+01-1.78198E-02-9.81633E-06 1.01481E-01-1.08882E-13-1.76930E-13
 -1       614 1.99967E+01-6.01844E-03-4.13061E-06 9.72809E-02-1.09018E-13-1.54147E-13
 -1       615 2.00047E+01 5.35935E-03 1.09026E-06 9.82591E-02-1.99470E-15-1.67754E-13
 -1       616 2.00145E+01 1.51960E-02 5.29728E-06 1.04269E-01 6.14277E-14-9.03523E-14
 -1       617 2.00271E+01 2.18960E-02 7.63115E-06 1.14638E-01 1.41220E-14-9.92757E-14
 -1       618 2.00438E+01 2.31524E-02 6.83413E-06 1.27955E-01 9.09048E-14-9.53958E-14
 -1       619 2.00669E+01 1.57542E-02 1.14443E-06 1.41749E-01 8.24873E-14-2.46674E-13
 -1       620 2.00993E+01-4.47516E-03-1.17232E-05 1.52072E-01-4.96538E-14-2.77395E-13
 -1       621 2.01450E+01-4.24498E-02-3.44185E-05 1.53023E-01-1.03083E-13-1.52466E-13
 -1       622 2.02085E+01-1.03055E-01-6.94895E-05 1.36308E-01-1.41282E-13-6.06677E-14
 -1       623 2.02943E+01-1.89516E-01-1.18186E-04 9.10651E-02-3.06198E-14 4.89986E-15
 -1       624 2.04055E+01-3.00575E-01-1.79548E-04 4.34781E-03 8.45875E-14 5.41753E-14
 -1       625 2.05405E+01-4.26365E-01-2.40135E-04-1.37041E-01 1.13082E-13 2.05161E-13
 -1       626 2.06898E+01-5.43651E-01-2.83925E-04-3.42374E-01 5.30518E-14 2.60579E-13
 -1       627 2.08314E+01-6.12473E-01-2.67060E-04-6.09535E-01 2.14245E-15 3.64253E-13
 -1       628 2.09303E+01-5.78632E-01-1.33827E-04-9.14144E-01 1.81690E-13 2.94072E-13
 -1       629 2.09449E+01-3.88350E-01 1.43348E-04-1.19867E+00 4.32287E-14 3.84981E-13
 -1       630 2.08457E+01-1.86589E-02 4.28963E-04-1.37081E+00-1.16333E-13 1.74158E-13
 -1       631 2.06434E+01 4.84637E-01 5.20736E-04-1.32512E+00-5.46356E-14 2.50909E-13
 -1       632 2.04064E+01 9.89027E-01 2.55485E-04-9.94590E-01-1.50899E-13 9.18033E-14
 -1       633 2.02415E+01 1.31317E+00-5.34267E-05-4.11152E-01 5.46291E-14-1.03416E-13
 -1       634 2.02331E+01 1.32114E+00 2.09150E-04 2.78363E-01 1.13572E-13-3.05548E-13
 -1       635 2.03846E+01 1.00755E+00 5.51121E-04 8.71759E-01-7.24194E-14-3.50882E-13
 -1       636 2.06149E+01 5.03618E-01 6.31521E-04 1.21494E+00 1.91867E-13-5.62499E-13
 -1       637 2.08148E+01-6.57881E-03 3.52886E-04 1.26902E+00 2.25184E-13-6.59962E-13
 -1       638 2.09111E+01-3.82943E-01-2.55489E-05 1.09885E+00 4.35822E-16-3.84041E-13
 -1       639 2.08889E+01-5.72011E-01-2.00268E-04 8.12310E-01 5.07631E-14-7.65332E-14
 -1       640 2.07750E+01-5.92630E-01-2.85816E-04 5.07503E-01-2.00430E-14-1.55491E-13
 -1       641 2.06093E+01-4.97467E-01-3.28038E-04 2.49458E-01-1.66536E-13-7.43674E-14
 -1       642 2.04334E+01-3.43890E-01 1.13790E-03 6.64878E-02-3.02585E-13-1.43123E-13
 -1       643 2.00542E+01 1.03770E-01 7.87792E-06-1.14117E-01 5.77642E-14-1.60782E-13
 -1       644 2.01871E+01-8.65639E-03-2.65528E-05-1.24274E+00 1.70626E-13 1.04066E-13
 -1       645 2.01053E+01 2.20519E-01 5.86570E-05-1.57236E-02 1.33601E-13-1.72824E-13
 -1       646 1.80702E+01 1.80708E+00 6.28911E-04 2.01418E+00 8.90579E-14-2.61730E-13
 -1       647 1.99957E+01-1.36583E-02-2.29874E-05-1.85419E-01 7.37413E-14-6.23288E-14
 -1       648 1.99826E+01-3.81674E-02-2.90108E-05-1.85835E-01 1.02074E-13-6.73942E-14
 -1       649 1.99766E+01-4.90708E-02-3.54323E-05-1.75641E-01 6.42429E-14 5.74933E-15
 -1       650 1.99751E+01-5.16576E-02-2.94469E-05-1.59426E-01 4.29792E-14-3.55588E-14
 -1       651 1.99770E+01-4.80068E-02-2.71554E-05-1.41629E-01-2.95800E-15-6.44824E-14
 -1       652 1.99810E+01-4.00606E-02-2.19632E-05-1.25154E-01-2.38509E-14-3.96019E-15
 -1       653 1.99866E+01-2.89322E-02-1.58855E-05-1.12080E-01-9.56839E-14 1.87602E-14
 -1       654 1.99933E+01-1.50615E-02-8.81698E-06-1.04000E-01-7.98396E-14 5.06567E-15
 -1       655 2.00005E+01 1.71137E-03-5.16367E-07-1.02298E-01 1.83779E-14-1.16965E-14
 -1       656 2.00081E+01 2.21615E-02 9.45238E-06-1.08387E-01 1.65024E-14 1.71743E-14
 -1       657 2.00152E+01 4.77679E-02 2.21794E-05-1.23925E-01 2.97801E-14 4.49682E-14
 -1       658 2.00206E+01 8.08901E-02 3.90923E-05-1.51024E-01 1.34150E-13 5.33001E-14
 -1       659 2.00220E+01 1.25055E-01 6.23410E-05-1.92452E-01 8.68889E-14 2.47402E-14
 -1       660 2.00151E+01 1.85359E-01 9.54885E-05-2.51817E-01 2.26699E-14 4.95016E-14
 -1       661 1.99924E+01 2.68956E-01 1.42276E-04-3.33705E-01 9.66664E-14 3.66073E-14
 -1       662 1.99410E+01 3.85674E-01 2.45933E-04-4.43541E-01 5.80266E-14 4.72600E-14
 -1       663 1.98469E+01 5.38265E-01 2.82751E-04-5.79539E-01 4.53609E-14 9.14495E-14
 -1       664 1.96695E+01 7.55644E-01 4.31200E-04-7.61479E-01 9.36778E-14-6.77758E-14
 -1       665 1.93611E+01 1.04355E+00 5.05359E-04-9.87713E-01-1.37072E-13-5.82591E-14
 -1       666 1.88488E+01 1.40179E+00 4.68490E-04-1.26016E+00-1.06679E-13 3.89635E-15
 -1       667 1.80294E+01 1.79986E+00 5.80906E-04-1.57986E+00-6.12016E-14-8.99173E-14
 -1       668 1.67695E+01 2.13499E+00 4.69261E-03-1.96583E+00-1.51336E-14 7.12903E-14
 -1       669 1.49839E+01 2.17487E+00 3.63720E-02-2.51100E+00-5.84324E-14-2.09769E-13
 -1       670 1.00926E+01 1.07069E+00 1.52248E-01 2.81722E+00-8.15129E-14 6.20962E-14
 -1       671 2.00176E+01 2.30757E+00-1.63700E-03-6.31623E-01-1.75426E-13-3.76013E-13
 -1       672 1.89213E+01 1.49396E+00 7.48406E-04 1.62711E+00-1.69434E-14-1.99515E-13
 -1       673 1.67876E+01 2.04754E+00 9.68818E-03 2.49718E+00-9.33724E-14-2.76780E-13
 -1       674 1.92432E+01 1.35494E+00 2.11898E-03 1.33300E+00 1.58495E-13 2.92471E-13
 -1       675 1.96936E+01 3.77255E-01-5.76577E-04-1.30573E+00 2.89528E-13-3.54144E-13
 -1       676 2.78630E+01 4.56017E+00-1.36002E-01 2.05876E+00-2.77424E-13 2.76121E-13
 -1       677 1.91161E+01 8.48140E-01-1.57097E-04-1.07762E+00 1.55012E-13-2.57346E-13
 -1       678 2.04987E+01-2.55391E-01 4.86297E-04-9.94677E-01 3.36779E-13 9.04300E-14
 -1       679 2.06214E+01-3.69721E-01 3.89495E-04-6.62009E-01 4.17753E-13-5.38630E-13
 -1       680 2.05844E+01-3.76431E-01 4.63210E-04-3.36269E-01 3.20452E-13-3.39558E-13
 -1       681 1.95531E+01-4.40336E+00 8.31768E-02 7.01665E+00 4.20494E-13 1.95429E-13
 -1       682 2.01720E+01 4.04114E-01-4.66509E-05 1.51065E-01 1.53084E-13-1.43506E-13
 -1       683 2.03120E+01-2.35331E-01 2.08609E-04-2.51151E-03-6.41919E-14-1.35990E-13
 -1       684 1.49383E+01 1.95978E+00 4.88036E-02 3.17448E+00-2.31291E-13-9.21763E-14
 -1       685 7.56208E+00 1.01154E+00 1.90359E-01-2.28705E-01 1.12198E-13-7.37653E-13
 -1       686 1.54453E+01-2.81251E+00 1.22758E-01-7.01191E+00-2.20966E-13 1.05652E-13
 -1       687 2.00185E+01 3.05309E-02-1.24394E-05-1.65379E-01 2.48617E-14-1.08228E-13
 -1       688 2.73704E+01 6.94677E+00-1.52305E-01 4.09045E-01-6.20691E-13 4.23846E-13
 -1       689 2.50089E+01-4.81032E+00 1.98482E-02 4.44102E+00 1.98711E-13 1.39697E-14
 -1       690 8.49891E+00 4.80251E-01 1.41136E-01 3.89145E+00 3.16375E-13-5.00419E-13
 -1       691 2.85511E+01-1.76676E+00-9.57225E-02-3.39386E-01-1.17125E-13-8.14071E-14
 -1       692 2.83016E+01 6.33278E+00-1.68346E-01-1.38639E+00-7.59864E-13 5.99682E-13
 -1       693 1.26172E+01-1.59196E+00 1.21279E-01 6.61784E+00 5.92922E-13-2.98053E-13
 -1       694 9.43392E+00-7.99855E-01 1.55242E-01-5.40898E+00-1.94289E-16 7.78037E-13
 -1       695 6.98314E+00 5.61304E-01 1.72946E-01-1.82746E+00-8.28673E-14 2.90920E-13
 -1       696 2.02708E+01 1.62858E+00 7.18038E-04-1.09036E+00-3.02728E-13-1.79130E-13
 -1       697 1.99249E+01 2.52976E+00-1.50963E-03-1.28841E-01-8.87430E-14-4.21195E-13
 -1       698 2.02549E+01 8.27326E-01 4.30268E-04 5.69856E-01 2.26343E-13-1.80088E-13
 -1       699 1.84712E+01 1.54633E+00-2.19833E-03 2.54998E-01 1.22876E-14 7.93538E-13
 -1       700 1.52838E+01-2.17345E-01 1.27434E-01 5.15254E+00-7.22616E-14-2.23457E-13
 -1       701 1.07188E+01 1.33328E+00 1.32058E-01-2.71371E+00 5.10147E-14-5.37521E-13
 -1       702 2.02113E+01 5.80001E-01-3.52154E-04 3.32187E-01 1.89201E-13-1.45189E-13
 -1       703 2.00732E+01-3.75179E+00 4.75790E-02-5.98222E+00-5.43489E-14 8.49962E-14
 -1       704 1.86463E+01 1.28088E+00-8.87452E-05-5.20189E-01 3.03368E-13 5.06532E-13
 -1       705 2.81149E+01 1.10852E+00-9.75077E-02 1.99843E+00 1.44461E-13 4.04614E-13
 -1       706 1.99554E+01 2.45810E+00-1.56733E-03-3.86552E-01-1.28413E-13-3.71889E-13
 -1       707 2.78718E+01 4.32603E+00-1.06693E-01-2.07773E+00-3.93439E-13 4.42339E-13
 -1       708 2.69045E+01-3.39658E+00-2.27894E-02 1.20264E+00 1.44117E-13-2.49480E-13
 -1       709 2.67498E+01-4.14429E+00-7.76441E-03-2.33838E+00-6.31830E-14-2.56399E-13
 -1       710 2.84979E+01-2.01192E+00-6.07638E-02 2.75932E-01 1.31055E-13-2.53408E-14
 -1       711 2.01166E+01 2.06021E+00-6.80068E-04-8.45801E-01-2.40371E-13-3.34134E-13
 -1       712 1.87540E+01 1.53024E+00 1.59130E-04 8.58878E-01-1.61425E-13 3.22289E-14
 -1       713 2.02854E+01 1.15319E+00 6.05408E-04 6.60759E-01 2.14904E-13-2.32211E-13
 -1       714 2.58124E+01 2.53115E+00-5.40335E-02 2.11545E+00-6.14109E-14-6.30667E-14
 -1       715 2.02238E+01 2.43731E-01 2.09645E-05-3.09545E-02 8.86867E-14-9.58127E-14
 -1       716 2.02888E+01 7.32652E-01 1.25326E-04-2.92152E-01-1.95593E-13-2.31849E-13
 -1       717 2.02618E+01 4.34451E-01-2.30043E-05-9.40419E-02-1.48925E-13-2.00328E-13
 -1       718 2.02216E+01 2.35877E-01-1.34103E-05 3.60635E-02-1.39404E-13-1.44047E-13
 -1       719 2.01801E+01 1.05703E-01-1.30371E-05 1.13871E-01-1.07520E-13-1.02056E-13
 -1       720 2.01424E+01 2.31036E-02-1.04667E-05 1.54163E-01-6.31620E-14-8.51549E-14
 -1       721 2.01103E+01-2.63971E-02-9.08896E-06 1.69093E-01-2.98033E-14-1.24247E-13
 -1       722 2.00840E+01-5.29605E-02-8.44511E-06 1.68011E-01 3.36424E-15-3.66092E-15
 -1       723 2.00631E+01-6.37729E-02-7.74868E-06 1.57823E-01-9.23521E-14 5.50545E-14
 -1       724 2.00466E+01-6.39256E-02-6.67460E-06 1.43481E-01-1.25910E-13 1.19623E-13
 -1       725 2.00339E+01-5.69845E-02-5.53325E-06 1.28452E-01-8.16797E-14-1.73990E-14
 -1       726 2.00241E+01-4.54330E-02-4.27881E-06 1.15140E-01-1.00298E-13-1.23639E-13
 -1       727 2.00168E+01-3.10303E-02-2.98833E-06 1.05182E-01-9.11537E-14-1.58663E-13
 -1       728 2.00113E+01-1.50937E-02-1.70599E-06 9.96742E-02-8.65052E-14-2.11168E-13
 -1       729 2.00076E+01 1.22120E-03-3.89725E-07 9.93244E-02-1.03569E-13-1.18579E-13
 -1       730 2.00057E+01 1.66278E-02 9.23366E-07 1.04522E-01 1.21389E-13-7.96918E-14
 -1       731 2.00062E+01 2.94038E-02 2.04898E-06 1.15318E-01 6.95411E-14-4.05222E-14
 -1       732 2.00105E+01 3.70669E-02 2.78526E-06 1.31320E-01 7.88329E-15-1.15550E-13
 -1       733 2.00210E+01 3.60541E-02 2.77422E-06 1.51475E-01-1.79454E-14-1.88438E-13
 -1       734 2.00415E+01 2.14712E-02 1.42788E-06 1.73709E-01 8.65772E-14-2.18601E-13
 -1       735 2.00777E+01-1.29522E-02-2.17260E-06 1.94415E-01 1.17854E-13-8.75382E-14
 -1       736 2.01374E+01-7.44582E-02-9.45786E-06 2.07743E-01-6.83631E-14 7.43027E-14
 -1       737 2.02302E+01-1.70028E-01-2.25825E-05 2.04760E-01-1.07300E-13 1.11528E-13
 -1       738 2.03666E+01-3.03803E-01-4.35514E-05 1.72630E-01 7.38340E-14 1.68818E-13
 -1       739 2.05554E+01-4.72596E-01-7.77744E-05 9.42950E-02 1.22558E-13 3.75680E-13
 -1       740 2.07987E+01-6.59139E-01-9.86869E-05-5.02296E-02 1.11289E-13 4.43508E-13
 -1       741 2.10847E+01-8.24233E-01-1.15259E-04-2.78988E-01 2.35630E-14 5.71437E-13
 -1       742 2.13792E+01-9.00645E-01-6.21949E-05-5.97151E-01 8.53299E-14 7.34428E-13
 -1       743 2.16219E+01-7.98018E-01 1.34078E-04-9.77575E-01 4.29268E-14 3.90892E-13
 -1       744 2.17378E+01-4.31266E-01 4.68261E-04-1.33870E+00-1.04289E-13 3.26494E-13
 -1       745 2.16736E+01 2.19145E-01 4.77539E-04-1.53799E+00-1.30628E-13 4.63378E-13
 -1       746 2.14525E+01 1.03508E+00-2.02861E-04-1.41388E+00-2.50662E-13 1.29466E-13
 -1       747 2.11998E+01 1.74489E+00-1.39415E-03-8.88320E-01-1.47675E-13 1.36651E-13
 -1       748 2.10842E+01 2.04091E+00-1.18902E-03-7.26606E-02-1.59770E-13-1.70358E-13
 -1       749 2.11904E+01 1.77379E+00-2.95138E-04 7.52313E-01-1.27259E-13-4.56913E-13
 -1       750 2.14460E+01 1.07051E+00 7.52042E-04 1.29727E+00 8.49882E-14-3.56673E-13
 -1       751 2.16788E+01 2.43054E-01 2.29855E-04 1.43730E+00 2.10719E-13-4.03617E-13
 -1       752 2.17561E+01-4.22946E-01-1.02807E-04 1.24278E+00 3.12316E-13-5.13955E-13
 -1       753 2.16486E+01-7.98569E-01-1.11943E-04 8.74907E-01 2.37731E-13-6.19034E-13
 -1       754 2.14023E+01-8.92342E-01-2.67391E-04 4.84319E-01 5.38971E-14-5.71744E-13
 -1       755 2.10935E+01-7.88413E-01-4.04541E-05 1.62115E-01-5.10001E-14-6.03415E-13
 -1       756 2.07775E+01-5.78735E-01-7.09288E-04-5.96543E-02-2.96751E-13-5.57418E-13
 -1       757 2.09329E+01-7.11197E-01 6.26551E-04-8.99011E-01-1.74848E-14-8.30398E-14
 -1       758 1.06636E+01 2.18981E+00 9.25648E-02-1.51971E-01 3.01987E-14-5.14543E-13
 -1       759 2.01124E+01-2.50366E-02-1.92950E-05-1.68647E-01 5.56985E-14-1.69103E-14
 -1       760 2.00499E+01-6.47731E-02-5.05541E-06-1.44916E-01 5.23302E-14 6.23962E-14
 -1       761 2.00374E+01-5.79549E-02-5.93973E-06-1.30021E-01-3.85015E-14-1.62282E-15
 -1       762 2.00280E+01-4.56248E-02-4.52816E-06-1.16871E-01-6.38776E-14 4.51342E-14
 -1       763 2.00208E+01-2.90041E-02-2.84766E-06-1.07339E-01-4.71679E-14-2.57034E-14
 -1       764 2.00148E+01-8.45927E-03-1.03079E-06-1.02880E-01-4.90603E-14-3.55114E-14
 -1       765 2.00089E+01 1.64172E-02 3.55516E-07-1.04707E-01 1.44930E-15 9.69572E-14
 -1       766 2.00013E+01 4.68458E-02 2.11773E-06-1.13960E-01-4.64753E-14 1.14469E-13
 -1       767 1.99899E+01 8.49433E-02 4.14263E-06-1.31813E-01 5.32666E-14 1.13026E-13
 -1       768 1.99709E+01 1.33917E-01 6.35054E-06-1.59495E-01 9.12301E-14 1.80648E-13
 -1       769 1.99387E+01 1.98343E-01 8.69587E-06-1.98205E-01 1.00245E-13 9.79521E-14
 -1       770 1.98845E+01 2.84496E-01 9.61007E-06-2.48873E-01 1.62798E-13 2.12184E-14
 -1       771 1.97943E+01 4.00739E-01 4.19241E-05-3.11453E-01 3.80728E-15 1.91218E-14
 -1       772 1.96564E+01 5.48209E-01-4.70894E-06-3.80699E-01 6.88550E-15 2.03786E-14
 -1       773 1.94266E+01 7.52999E-01 5.70006E-06-4.59083E-01 1.63525E-13 1.71076E-14
 -1       774 1.90630E+01 1.01902E+00-4.90219E-05-5.32674E-01 4.07070E-14 8.55133E-14
 -1       775 1.84984E+01 1.34915E+00-2.73257E-04-5.83552E-01-5.85825E-14-7.94729E-14
 -1       776 1.76360E+01 1.72655E+00-9.00236E-04-5.86808E-01 1.50393E-14-1.73863E-13
 -1       777 1.63343E+01 2.09304E+00 1.20967E-04-5.08704E-01-6.19388E-14-3.52564E-13
 -1       778 1.43929E+01 2.35153E+00 1.44785E-02-2.87305E-01 6.01058E-14-3.86434E-13
 -1       779 2.02633E+01 4.46246E-01-9.24685E-06 1.02579E-01 1.12468E-13-1.70754E-13
 -1       780 1.37604E+01-4.87569E-01 8.56673E-02-5.13000E+00 1.70908E-13 7.41924E-13
 -1       781 2.00768E+01-2.48202E-01-4.31274E-04-1.67344E+00 3.62905E-13-3.71106E-13
 -1       782 1.76715E+01 1.84710E+00-5.06214E-04 9.20527E-01-5.24669E-14 1.63989E-13
 -1       783 1.63156E+01 2.12975E+00 1.72305E-02 8.74730E-01 6.94009E-14-1.61443E-13
 -1       784 1.77610E+01-2.33800E+00 6.72307E-02 5.94333E+00 4.45841E-13-1.55043E-13
 -1       785 1.92317E+01 2.97227E-01-8.49999E-04-1.71440E+00 1.56609E-13-1.62577E-13
 -1       786 2.02822E+01 1.16455E+00-4.61909E-04-5.68538E-01-2.27628E-13-2.44344E-13
 -1       787 2.09429E+01-6.85261E-01-7.64680E-05-4.57638E-01 2.16141E-13-6.28941E-13
 -1       788 2.01822E+01 1.10736E-01 7.38679E-06-1.10918E-01 1.39944E-14-1.29250E-13
 -1       789 1.41188E+01 2.30695E+00 1.41376E-02 7.33104E-01-1.42924E-14-9.58695E-15
 -1       790 2.01898E+01 1.87282E+00 2.57155E-07-9.86481E-01-2.57901E-13-2.78555E-13
 -1       791 1.83060E+01 9.60333E-01-3.96218E-03-1.31952E+00 3.33479E-14 4.02253E-13
 -1       792 2.06597E+01-5.82687E-01 1.30516E-03-1.34762E+00 1.86440E-13 1.85323E-13
 -1       793 1.77433E+01 1.52010E+00 8.17279E-03-4.77499E-01-3.59895E-13 6.95777E-13
 -1       794 2.01445E+01 2.60007E-02-4.66831E-06-1.52773E-01 2.54726E-14-1.17258E-13
 -1       795 2.52153E+01 4.97078E+00-7.34646E-02 1.19596E+00-3.58845E-13 1.36313E-13
 -1       796 2.39581E+01-4.18174E+00 3.15487E-03-3.71249E+00 7.45012E-14-2.46731E-13
 -1       797 2.18929E+01-3.80763E+00 3.81960E-02 4.93046E+00 1.92006E-13-1.32152E-13
 -1       798 2.00873E+01-5.16159E-02-9.76024E-06-1.68465E-01 1.90470E-14 3.55884E-14
 -1       799 2.52985E+01 5.41258E+00-7.94454E-02-8.07274E-01-5.94531E-13 2.63174E-13
 -1       800 2.00663E+01-6.38379E-02-2.70938E-06-1.58954E-01 9.78843E-14 6.69968E-14
 -1       801 1.04813E+01 1.89162E+00 9.66259E-02-1.13505E-02-2.50909E-14 1.05957E-14
 -1       802 2.75629E+01 8.06699E-02-6.96363E-02-1.64697E+00-1.31844E-13 6.56784E-14
 -1       803 2.01361E+01 1.89375E+00-3.04718E-04 1.98202E-01 1.89659E-15-3.60581E-13
 -1       804 1.25019E+01 3.58531E-01 1.00624E-01 4.60194E+00 4.13738E-13-3.08623E-13
 -1       805 1.09132E+01 1.11639E+00 1.01383E-01-2.96074E+00 7.23458E-14 5.17718E-13
 -1       806 1.73363E+01-1.75312E+00 4.07640E-02-5.37363E+00-3.70329E-14-2.66263E-14
 -1       807 2.61343E+01-2.95064E-02-3.38226E-02 1.76409E+00 3.84871E-13 1.63419E-13
 -1       808 2.02208E+01 1.58847E+00-3.21407E-04 5.40225E-01 1.23314E-13-3.03217E-13
 -1       809 2.44268E+01-3.67560E+00-2.70739E-03 2.56144E+00 2.11484E-13-3.09154E-13
 -1       810 2.01682E+01 1.78186E+00-2.25504E-04 3.81397E-01 7.56807E-14-2.93960E-13
 -1       811 2.02969E+01 7.46960E-01 7.84023E-04 3.07973E-01 1.53911E-13-2.24436E-13
 -1       812 2.01665E+01 1.78466E+00-5.25057E-04-3.76790E-01-1.23604E-13-3.59795E-13
 -1       813 2.51695E+01 4.25478E+00-5.66207E-02-1.61422E+00-7.02608E-13 1.86001E-13
 -1       814 2.68213E+01-1.93518E+00-2.72906E-02-4.89028E-01-1.23595E-14 2.37115E-13
 -1       815 2.63943E+01-2.84236E+00-8.34048E-03-2.98315E-01-6.36104E-14-1.16999E-13
 -1       816 2.02136E+01 1.59435E+00-8.30141E-04-5.29237E-01-1.79088E-13-2.75885E-13
 -1       817 2.01247E+01 1.93116E+00-3.17039E-04 1.86035E-03-5.34409E-14-3.50907E-13
 -1       818 1.39049E+01 1.94821E+00 3.23376E-02-1.08449E+00 5.50330E-14 1.82339E-13
 -1       819 2.02972E+01 1.20761E+00-7.78765E-04 3.03886E-01 5.76987E-14-2.51734E-13
 -1       820 1.64022E+01 1.67858E+00 1.14008E-02-1.10668E+00-2.01663E-13 7.64955E-13
 -1       821 1.48787E+01 1.30727E+00 2.51671E-02 2.71617E+00 3.46335E-14-8.11560E-14
 -1       822 2.03295E+01 4.32718E-01-5.26643E-05-4.66871E-02-1.10381E-13-1.78396E-13
 -1       823 2.03036E+01 2.29764E-01-1.34581E-05 4.79118E-02-8.72040E-14-1.29130E-13
 -1       824 2.02672E+01 9.48499E-02-9.59338E-06 1.04224E-01-9.55981E-14-9.84889E-14
 -1       825 2.02275E+01 9.16024E-03-6.03562E-06 1.32681E-01-7.43487E-14-9.89275E-14
 -1       826 2.01889E+01-4.13927E-02-3.09181E-06 1.42178E-01-4.94448E-15-1.25970E-13
 -1       827 2.01535E+01-6.72018E-02-1.59223E-06 1.39790E-01-3.42845E-14-2.13787E-13
 -1       828 2.01221E+01-7.58827E-02-1.25040E-06 1.30869E-01-1.16674E-13-2.08784E-13
 -1       829 2.00949E+01-7.29197E-02-7.37582E-07 1.19273E-01-1.45560E-13-2.09512E-13
 -1       830 2.00717E+01-6.21462E-02-1.98336E-07 1.07771E-01-1.16075E-13-1.96334E-13
 -1       831 2.00517E+01-4.62770E-02-1.65719E-07 9.83514E-02-1.24674E-13-2.34257E-13
 -1       832 2.00345E+01-2.72579E-02-5.78352E-07 9.24162E-02-8.32378E-14-1.96721E-13
 -1       833 2.00195E+01-6.57384E-03-6.92543E-07 9.10136E-02 3.80083E-14-1.70267E-13
 -1       834 2.00063E+01 1.43755E-02-4.21054E-07 9.49804E-02 1.76186E-14 2.58273E-14
 -1       835 1.99949E+01 3.39207E-02-1.10988E-07 1.05008E-01 1.14744E-13-4.84407E-14
 -1       836 1.99863E+01 4.97390E-02 2.68672E-07 1.21658E-01-5.95297E-14-1.69949E-13
 -1       837 1.99822E+01 5.84326E-02 7.93936E-07 1.45291E-01 3.91313E-15-2.91889E-13
 -1       838 1.99862E+01 5.51034E-02 1.40478E-06 1.75870E-01 6.22327E-14-1.77329E-13
 -1       839 2.00042E+01 3.30085E-02 1.99901E-06 2.12572E-01 1.41384E-13-1.51348E-13
 -1       840 2.00447E+01-1.65328E-02 2.25599E-06 2.53109E-01 8.44936E-14-2.23589E-13
 -1       841 2.01203E+01-1.03648E-01 1.12076E-06 2.92634E-01 2.79803E-14-5.12808E-14
 -1       842 2.02467E+01-2.38300E-01-4.40411E-06 3.22117E-01-1.63876E-15 1.70148E-13
 -1       843 2.04423E+01-4.26722E-01-1.62602E-05 3.26261E-01 2.31173E-13 9.85324E-14
 -1       844 2.07246E+01-6.64953E-01-5.56151E-05 2.81316E-01 1.77610E-13 2.42067E-13
 -1       845 2.11017E+01-9.27694E-01 1.03372E-06 1.54847E-01 2.11341E-13 3.70793E-13
 -1       846 2.15613E+01-1.15590E+00-3.11885E-05-8.95069E-02 9.60199E-14 2.18623E-13
 -1       847 2.20523E+01-1.24168E+00 3.20156E-05-4.74451E-01-1.61686E-13 1.27233E-13
 -1       848 2.24755E+01-1.03632E+00 1.96272E-04-9.74369E-01-7.77720E-14 4.93458E-14
 -1       849 2.27014E+01-4.02333E-01 2.78801E-04-1.46608E+00 4.01990E-14 1.87824E-13
 -1       850 2.26402E+01 6.66166E-01-1.54972E-03-1.71148E+00-2.16535E-13 3.24667E-13
 -1       851 2.23534E+01 1.89872E+00-2.13010E-03-1.44872E+00-2.95452E-13 3.36745E-13
 -1       852 2.20783E+01 2.76121E+00-4.45777E-03-6.24909E-01-4.81334E-13-6.29463E-14
 -1       853 2.20763E+01 2.79640E+00-6.22201E-03 4.70356E-01-2.36097E-13-2.49748E-13
 -1       854 2.23511E+01 1.96195E+00-5.71950E-03 1.33214E+00 2.54165E-14-1.58524E-13
 -1       855 2.26775E+01 7.05958E-01-3.45604E-04 1.63093E+00 1.79036E-13-2.37930E-13
 -1       856 2.27557E+01-3.76451E-01-1.55638E-03 1.39022E+00 2.81500E-13-1.88329E-13
 -1       857 2.25610E+01-1.04449E+00 2.36135E-04 8.88374E-01 2.38570E-13-1.66930E-13
 -1       858 2.21467E+01-1.25071E+00-7.27085E-04 3.68608E-01 2.57053E-14-1.77399E-13
 -1       859 2.16529E+01-1.14235E+00-4.83032E-04-3.38881E-02-2.37740E-13-5.76544E-13
 -1       860 2.12874E+01-9.46318E-01-2.15927E-04-2.94209E-01-1.22663E-13-9.27616E-13
 -1       861 2.03054E+01 2.37693E-01-4.40997E-05-4.44285E-02 4.21874E-14-1.58448E-13
 -1       862 2.03360E+01 7.46210E-01 4.75810E-04 2.00140E-01 8.69524E-14-2.05133E-13
 -1       863 2.00764E+01-6.27611E-02-1.20800E-06-1.09569E-01-3.32477E-15 7.75244E-14
 -1       864 2.42754E+01 1.15242E+00-1.05413E-02 1.92594E+00 9.85359E-14-7.86894E-14
 -1       865 2.00996E+01-7.37757E-02-2.20561E-06-1.20941E-01 3.36120E-14 1.25046E-13
 -1       866 2.00382E+01-2.28827E-02 1.77038E-06-9.40932E-02-5.18550E-14-5.41913E-14
 -1       867 2.00207E+01 4.57391E-03 2.93325E-07-9.24974E-02-1.04592E-13-4.64021E-14
 -1       868 2.00018E+01 3.76237E-02-2.45724E-07-9.60357E-02-5.01469E-14 6.76338E-14
 -1       869 1.99786E+01 7.77926E-02-9.08492E-07-1.05140E-01 4.43311E-14 3.96120E-14
 -1       870 1.99475E+01 1.27532E-01-2.12179E-06-1.19860E-01-4.25935E-15 1.91130E-14
 -1       871 1.99029E+01 1.90332E-01-4.36484E-06-1.39627E-01 1.43688E-13-1.50486E-14
 -1       872 1.98368E+01 2.70837E-01-9.77897E-06-1.62807E-01 1.55410E-13-5.88312E-14
 -1       873 1.97373E+01 3.74937E-01 6.29194E-06-1.85738E-01 3.22703E-14-7.87658E-15
 -1       874 1.95965E+01 5.01752E-01-3.68154E-05-2.01581E-01 5.79387E-14-6.08229E-14
 -1       875 1.93771E+01 6.70934E-01-3.93924E-05-2.01008E-01 1.86705E-14-4.64033E-14
 -1       876 1.90507E+01 8.81581E-01-5.76092E-05-1.63688E-01 9.80921E-14-4.17553E-14
 -1       877 1.85714E+01 1.13199E+00-7.33110E-05-5.97459E-02 4.98376E-14-4.03114E-14
 -1       878 1.78766E+01 1.40649E+00 2.63169E-04 1.56348E-01-1.56116E-14-7.00523E-15
 -1       879 1.68632E+01 1.66754E+00 2.62205E-03 5.59685E-01 6.70638E-14-5.65623E-14
 -1       880 1.58530E+01 1.65036E+00 1.10368E-02 1.43101E+00 1.20165E-13-4.25007E-14
 -1       881 2.03321E+01 4.41157E-01-4.59168E-04 5.27943E-02 6.85731E-14-2.05000E-13
 -1       882 1.48859E+01 9.88447E-01 1.08362E-02-2.92292E+00 2.02615E-13 4.36482E-13
 -1       883 2.42875E+01-3.17263E+00-6.42569E-03-1.63463E+00-8.17274E-14-1.81468E-13
 -1       884 2.01354E+01 1.89535E+00-3.31938E-04-1.94418E-01-9.69810E-14-3.66892E-13
 -1       885 2.01926E+01-3.89998E-02 1.01011E-05-1.42110E-01 1.25330E-14-5.72328E-14
 -1       886 2.02311E+01 1.38233E-02 1.23435E-06-1.31399E-01-5.18734E-14-9.34079E-14
 -1       887 2.03325E+01 7.29774E-01 1.00152E-05-1.89384E-01-1.53425E-13-1.34040E-13
 -1       888 2.34917E+01 4.23405E+00-2.83851E-02 7.95417E-02-5.76624E-13 1.33757E-13
 -1       889 1.98139E+01-5.16341E-01-2.21987E-03-2.28165E+00 1.93785E-13-3.16435E-13
 -1       890 2.55872E+01 1.49496E+00-3.58977E-02-2.11064E+00-1.68453E-13 2.74294E-13
 -1       891 2.00563E+01-4.54268E-02-6.05060E-07-1.00127E-01-2.51365E-14 6.52122E-15
 -1       892 2.01572E+01-6.64925E-02-6.68527E-07-1.40479E-01 3.05968E-14-2.80674E-14
 -1       893 2.02842E+01 1.34110E+00 1.06351E-04 1.98085E-01 2.02109E-14-2.90089E-13
 -1       894 2.37320E+01 3.05156E+00-2.20599E-02 1.51844E+00-9.09264E-14 8.51979E-14
 -1       895 2.10610E+01-2.90891E+00 2.13348E-02-4.39260E+00-7.03875E-14-1.01092E-13
 -1       896 2.02624E+01-2.43982E+00 2.85490E-02 4.41710E+00 2.04123E-13-3.85070E-13
 -1       897 2.02700E+01 1.01387E-01 8.43002E-06-1.01772E-01 5.68826E-15-1.42203E-13
 -1       898 2.01263E+01-7.61668E-02-3.99648E-06-1.32120E-01 4.20755E-14 9.85043E-14
 -1       899 2.03020E+01 1.10455E+00 2.18530E-04-3.48271E-01-1.51699E-13-1.90591E-13
 -1       900 1.68197E+01-5.45812E-01 9.22733E-03 4.35348E+00 3.19066E-13-2.75349E-13
 -1       901 2.13743E+01-1.09195E+00 2.09959E-05-8.27679E-01 1.71768E-14 1.58529E-13
 -1       902 1.84400E+01 3.03025E-01 5.69926E-03-2.26937E+00-2.56958E-14 1.40421E-13
 -1       903 2.50662E+01-1.60494E+00-7.21684E-03 8.80257E-01 1.69133E-13 2.42449E-15
 -1       904 2.25557E+01-2.93668E+00-2.63993E-03 2.91050E+00 1.67539E-13-2.09234E-13
 -1       905 1.68524E+01 2.64078E-02 7.90934E-03-3.52942E+00 8.81315E-15 7.99797E-13
 -1       906 2.07962E+01-9.90403E-01 1.24491E-04-1.84283E+00 2.19041E-13-1.20441E-14
 -1       907 2.25841E+01-2.71448E+00 1.09165E-02-2.61529E+00-8.22207E-14-1.18335E-13
 -1       908 2.02830E+01 1.34543E+00 2.40589E-04-1.94726E-01-7.53108E-14-3.51036E-13
 -1       909 2.02738E+01 1.40988E+00 7.55869E-05 6.93000E-02-1.93186E-14-3.01071E-13
 -1       910 2.55884E+01-2.66395E-01-1.64578E-02-1.63735E+00 1.20886E-13 2.66955E-13
 -1       911 2.12155E+01-1.11099E+00-1.12642E-03-1.32539E+00 2.21911E-13-2.50990E-13
 -1       912 2.52005E+01-3.04043E+00-5.79070E-03 9.60672E-01 8.01245E-14 1.60698E-13
 -1       913 2.02929E+01 1.24803E+00 8.03786E-04-2.82069E-01-8.90204E-14-3.11269E-13
 -1       914 2.03790E+01 3.95457E-01-1.31348E-05-9.66924E-03-4.15864E-14-1.30576E-13
 -1       915 2.02730E+01 1.41112E+00 1.70064E-05-6.62627E-02-6.25608E-14-3.43101E-13
 -1       916 2.19062E+01-1.43016E+00 1.75405E-04-6.27904E-01-2.79106E-13-3.21638E-13
 -1       917 2.36416E+01 3.48081E+00-2.26921E-02-1.30026E+00-6.10556E-13 1.68932E-13
 -1       918 2.03580E+01 2.00128E-01-1.02720E-05 5.12075E-02-6.75762E-14-1.23541E-13
 -1       919 2.03223E+01 7.01751E-02-6.22847E-06 8.65775E-02-3.93178E-14-1.14917E-13
 -1       920 2.02801E+01-1.13659E-02-5.07391E-06 1.03430E-01-6.56725E-14-1.37167E-13
 -1       921 2.02365E+01-5.79448E-02 1.57269E-07 1.07803E-01-8.10763E-14-2.02818E-13
 -1       922 2.01947E+01-7.96355E-02 4.09440E-06 1.04562E-01-8.01957E-14-2.03458E-13
 -1       923 2.01562E+01-8.41876E-02-1.05226E-06 9.74081E-02-1.24935E-13-2.14217E-13
 -1       924 2.01217E+01-7.69505E-02 1.26122E-06 8.89891E-02-1.23191E-13-2.00198E-13
 -1       925 2.00910E+01-6.17278E-02 3.29577E-06 8.13525E-02-9.03201E-14-1.47182E-13
 -1       926 2.00636E+01-4.13070E-02 3.77626E-07 7.60068E-02-6.38523E-14-1.41809E-13
 -1       927 2.00387E+01-1.75705E-02-1.16171E-06 7.41046E-02-1.58972E-14-6.60106E-14
 -1       928 2.00155E+01 7.97599E-03-9.71518E-07 7.67372E-02 5.26312E-14-1.20559E-13
 -1       929 1.99937E+01 3.38090E-02-8.52002E-07 8.50044E-02 8.15710E-14-1.42001E-13
 -1       930 1.99731E+01 5.80076E-02-7.56360E-07 1.00141E-01-9.49391E-15-1.04910E-13
 -1       931 1.99547E+01 7.77795E-02-3.04895E-07 1.23602E-01-7.29795E-14-2.86479E-14
 -1       932 1.99406E+01 8.89302E-02 7.18093E-07 1.57068E-01 5.78366E-14 6.21858E-14
 -1       933 1.99355E+01 8.52998E-02 2.42146E-06 2.02310E-01 1.49438E-13-1.98245E-14
 -1       934 1.99468E+01 5.82298E-02 5.56599E-06 2.60795E-01 8.34464E-14 1.49946E-13
 -1       935 1.99865E+01-3.74089E-03 1.08559E-05 3.32815E-01 1.21811E-13 1.74574E-13
 -1       936 2.00719E+01-1.14555E-01 1.77131E-05 4.15860E-01 1.97225E-13 6.54182E-14
 -1       937 2.02268E+01-2.88961E-01 1.90452E-05 5.01797E-01 7.33000E-14 1.63947E-13
 -1       938 2.04804E+01-5.38098E-01 1.21261E-05 5.72897E-01 2.14100E-13 2.73541E-14
 -1       939 2.08650E+01-8.61684E-01-1.03103E-04 5.95413E-01 8.71192E-14-1.06043E-13
 -1       940 2.14021E+01-1.22703E+00 2.43345E-04 5.18457E-01 6.67214E-14-2.27110E-13
 -1       941 2.20856E+01-1.54979E+00 3.80657E-04 2.69243E-01-2.74740E-14-1.43497E-13
 -1       942 2.28497E+01-1.66635E+00 6.22499E-05-2.09178E-01-1.37218E-13 4.46165E-14
 -1       943 2.35340E+01-1.31762E+00 3.36944E-04-9.04824E-01 6.80279E-14 1.39630E-13
 -1       944 2.39080E+01-2.63198E-01-3.54226E-03-1.61770E+00 7.82999E-14 2.21946E-13
 -1       945 2.38046E+01 1.43815E+00-1.61012E-02-1.93338E+00-1.08948E-13 2.61930E-13
 -1       946 2.36759E+01-1.34181E+00 2.13151E-04 8.52884E-01 2.49659E-13-8.91567E-14
 -1       947 2.30058E+01-1.70109E+00-8.57725E-04 1.26411E-01 2.54833E-14-3.09181E-13
 -1       948 2.24594E+01-1.65688E+00 6.47029E-04-3.23611E-01-2.33473E-13-6.49264E-13
 -1       949 2.00135E+01 2.23120E-02 8.57792E-07-7.28592E-02-9.39988E-14-1.97261E-13
 -1       950 2.00409E+01-1.13616E-02 2.14314E-06-7.33686E-02-5.43740E-14-3.28261E-14
 -1       951 1.99459E+01 1.10007E-01-4.73661E-07-7.98868E-02 9.01627E-15-9.28839E-14
 -1       952 1.98975E+01 1.67718E-01-1.76161E-06-8.51719E-02 9.41524E-14-1.50726E-13
 -1       953 1.98316E+01 2.38214E-01-4.18039E-06-8.81296E-02 2.02484E-13-1.70268E-13
 -1       954 1.97396E+01 3.24748E-01 7.70751E-06-8.34021E-02 1.82270E-14-1.14436E-13
 -1       955 1.96177E+01 4.24604E-01-1.80788E-05-6.42321E-02 7.07235E-14-2.67417E-13
 -1       956 1.94387E+01 5.50185E-01-1.51472E-05-1.55512E-02-2.47465E-15-1.65658E-13
 -1       957 1.91884E+01 6.95669E-01-1.11049E-05 8.33432E-02 4.62240E-14-9.60392E-14
 -1       958 1.88439E+01 8.52846E-01 6.04253E-06 2.63553E-01 1.25229E-13 9.24382E-14
 -1       959 1.83798E+01 1.00065E+00 4.55563E-04 5.71782E-01-6.31914E-14 1.10264E-13
 -1       960 1.77579E+01 1.09584E+00 1.47368E-04 1.07721E+00 9.37390E-15-1.15195E-13
 -1       961 2.02840E+01-6.98296E-03 5.67840E-06-1.02982E-01-6.10114E-14-1.23618E-13
 -1       962 2.03664E+01 8.28502E-01-8.51943E-06 1.42148E-01 4.40183E-14-1.95593E-13
 -1       963 2.03736E+01 6.78799E-01-8.95077E-05-1.03341E-01-1.17475E-13-2.21168E-13
 -1       964 2.38125E+01-2.16216E+00-3.65949E-03-1.98625E-01-1.07402E-13-2.94419E-13
 -1       965 2.02406E+01-5.57953E-02 2.26686E-06-1.08280E-01-8.76473E-15-6.91163E-14
 -1       966 1.93730E+01-1.26817E+00 3.91182E-03-3.65081E+00-2.67338E-13-1.30033E-13
 -1       967 1.99830E+01 6.22698E-02 4.01774E-07-7.52575E-02-1.22933E-14-2.35313E-13
 -1       968 2.01269E+01-7.77478E-02-1.24710E-06-9.07054E-02 3.69626E-14-1.85319E-14
 -1       969 2.03665E+01 9.75458E-01-9.33727E-05-7.94622E-02-4.72844E-14-3.19991E-13
 -1       970 2.35866E+01-2.88059E+00-4.09003E-04 1.72312E+00 3.20817E-13 1.01790E-13
 -1       971 2.00960E+01-6.20516E-02-1.10992E-05-8.29412E-02 2.02050E-14-2.10443E-14
 -1       972 2.38083E+01-3.74707E-01-5.09831E-04 1.46448E+00 3.41030E-13-4.00352E-15
 -1       973 2.03728E+01 9.22817E-01 8.79870E-05 8.45830E-02 8.37150E-16-2.94219E-13
 -1       974 2.03456E+01 9.34760E-01-1.19321E-04-1.86585E-01-1.14700E-13-2.76001E-13
 -1       975 2.00677E+01-3.94929E-02 4.97673E-06-7.68070E-02 1.19840E-14 1.13417E-14
 -1       976 2.03254E+01 7.61951E-02-1.77212E-05-8.52899E-02-5.09072E-14-1.17583E-13
 -1       977 1.73601E+01 8.79182E-01-9.21252E-04 1.87744E+00 8.67968E-14-9.53187E-14
 -1       978 1.72002E+01 3.45698E-01 3.27509E-03 2.91504E+00 2.17529E-13-1.02522E-13
 -1       979 2.03794E+01 4.09273E-01 8.29511E-04 1.30277E-02 4.42479E-14-1.21878E-13
 -1       980 2.06378E+01-1.85905E+00 2.75462E-03 3.19303E+00 2.82811E-13-2.98286E-13
 -1       981 2.18800E+01-1.60823E+00-6.60178E-04-1.25054E+00 1.27837E-13-3.40203E-13
 -1       982 2.01995E+01-7.90055E-02-3.58808E-07-1.05683E-01-1.85909E-14-1.10546E-13
 -1       983 2.01613E+01-8.45625E-02 5.70431E-06-9.89213E-02-1.06987E-14-8.80895E-14
 -1       984 2.49771E+01-1.81674E+00-4.81585E-03-5.97582E-01 3.51990E-14 2.89528E-13
 -1       985 2.03608E+01 2.06486E-01-2.53089E-04-4.80708E-02 2.97967E-14-1.55697E-13
 -1       986 2.14316E+01-1.74566E+00-1.71916E-03-2.28608E+00-9.20886E-14-2.08414E-13
 -1       987 2.04112E+01 3.32998E-01 2.54918E-05 1.03570E-02-3.62868E-14-2.28309E-13
 -1       988 2.03660E+01 1.00118E+00-2.71158E-04 1.23743E-03-5.24239E-16-2.80584E-13
 -1       989 2.03884E+01 1.54065E-01-1.33527E-05 4.21330E-02-7.91216E-14-2.01863E-13
 -1       990 2.03503E+01 3.67141E-02-2.61997E-05 5.97782E-02-1.12307E-13-2.36076E-13
 -1       991 2.03047E+01-3.48453E-02-2.83381E-05 6.74123E-02-5.64073E-14-2.21702E-13
 -1       992 2.02575E+01-7.35063E-02-6.94721E-06 6.81365E-02-8.29069E-14-2.24082E-13
 -1       993 2.02117E+01-8.87077E-02-6.00552E-06 6.52224E-02-9.46304E-14-1.79920E-13
 -1       994 2.01689E+01-8.76727E-02-9.59952E-06 6.04006E-02-1.23312E-13-1.12762E-13
 -1       995 2.01300E+01-7.54677E-02 2.09096E-06 5.53837E-02-9.89927E-14-1.88643E-13
 -1       996 2.00946E+01-5.56376E-02 4.17144E-06 5.16193E-02-5.06300E-14-1.60100E-13
 -1       997 2.00621E+01-3.06914E-02-4.89691E-06 4.99818E-02-3.64487E-14-1.36595E-13
 -1       998 2.00313E+01-2.24100E-03-3.89543E-06 5.15645E-02 3.37017E-14-2.57321E-14
 -1       999 2.00014E+01 2.83322E-02-4.82871E-06 5.75854E-02 5.37178E-14 5.09274E-14
 -1      1000 1.99715E+01 5.96012E-02-6.44861E-06 6.95445E-02 1.59407E-14 1.31730E-14
 -1      1001 1.99411E+01 8.96379E-02-8.60537E-06 8.94771E-02-1.92430E-14-1.18754E-14
 -1      1002 1.99110E+01 1.15457E-01-1.03940E-05 1.20128E-01 3.47233E-14-2.72668E-14
 -1      1003 1.98832E+01 1.32380E-01-1.08559E-05 1.65083E-01 2.37304E-14 6.73891E-14
 -1      1004 1.98625E+01 1.33244E-01-1.09612E-05 2.28793E-01 1.63301E-13 5.90084E-15
 -1      1005 1.98577E+01 1.07544E-01-8.89227E-06 3.16257E-01 1.96517E-13 1.02292E-14
 -1      1006 1.98829E+01 4.06956E-02-1.46447E-07 4.32030E-01 8.38263E-14 4.95331E-14
 -1      1007 1.99608E+01-8.63814E-02 7.07042E-06 5.78122E-01 1.06279E-13-1.37565E-13
 -1      1008 2.01245E+01-2.96207E-01 8.45042E-06 7.49381E-01 9.44617E-14-1.50387E-13
 -1      1009 2.04182E+01-6.09576E-01-3.78313E-05 9.27986E-01 9.77310E-14-1.14388E-13
 -1      1010 2.09020E+01-1.04008E+00-1.97368E-03 1.06279E+00 1.68337E-13-1.73091E-13
 -1      1011 2.16185E+01-1.55240E+00-1.71635E-03 1.08220E+00 1.06829E-14-6.76767E-14
 -1      1012 2.25894E+01-2.02988E+00-2.29359E-03 8.64051E-01 7.21757E-14 3.57221E-14
 -1      1013 2.37517E+01-2.22129E+00-5.63952E-04 2.64864E-01 4.41570E-14 3.38608E-13
 -1      1014 1.97753E+01 2.64611E-01-3.22725E-06-8.46092E-03 1.25553E-13-1.89063E-13
 -1      1015 1.98523E+01 1.96230E-01-1.43547E-05-2.90391E-02 8.14014E-14-2.28534E-13
 -1      1016 1.99116E+01 1.36998E-01-1.03457E-05-3.85876E-02 9.01573E-14-3.50011E-13
 -1      1017 1.96797E+01 3.38054E-01-3.70379E-05 2.88383E-02 4.75518E-14-2.19025E-13
 -1      1018 1.95487E+01 4.22793E-01-2.96731E-05 9.89391E-02-5.99429E-14-1.03990E-13
 -1      1019 1.93787E+01 5.09625E-01-1.85503E-05 2.19166E-01-1.07807E-13 3.53558E-14
 -1      1020 1.91638E+01 5.86262E-01 3.20829E-05 4.15626E-01 7.81760E-14-8.41100E-14
 -1      1021 1.89022E+01 6.28959E-01 2.07420E-04 7.23398E-01 7.34531E-14-8.53267E-14
 -1      1022 1.86043E+01 5.93298E-01 1.08657E-03 1.18658E+00 1.03527E-13-1.36136E-13
 -1      1023 2.21744E+01-2.21926E+00-6.63541E-05 1.91806E+00 2.17132E-13 1.00055E-13
 -1      1024 2.03089E+01-3.10498E-02-1.08718E-05-6.76616E-02-4.54216E-14-2.22944E-13
 -1      1025 2.04084E+01 5.91048E-01 1.28886E-04-4.01735E-02-1.53469E-14-2.71270E-13
 -1      1026 2.32913E+01-2.41621E+00 3.67099E-03-1.15078E+00-2.41342E-13-4.25444E-14
 -1      1027 2.04202E+01 4.61671E-01 2.10689E-06 1.18092E-02-1.03223E-15-2.39479E-13
 -1      1028 2.00324E+01 3.65940E-03-1.53068E-06-4.61856E-02 4.84302E-14-2.13717E-13
 -1      1029 1.99977E+01 4.17661E-02-4.02729E-06-4.45143E-02-2.77657E-14-3.07772E-13
 -1      1030 1.99586E+01 8.58934E-02-6.61401E-06-4.26318E-02-7.71177E-14-3.33632E-13
 -1      1031 2.28826E+01-2.00925E+00 1.83262E-03-6.72774E-01-3.33842E-13-4.19316E-13
 -1      1032 1.92769E+01-5.60366E-01 3.65094E-03 2.51317E+00 3.05951E-13-4.35493E-13
 -1      1033 2.23776E+01-2.05887E+00 7.04471E-04-1.53800E+00-7.54281E-14 9.49944E-14
 -1      1034 2.04153E+01 6.68881E-01 1.68957E-05-1.82182E-02-1.94221E-14-2.65249E-13
 -1      1035 2.23673E+01-1.85031E+00-9.23996E-04-1.00669E+00 2.92976E-14-4.43804E-13
 -1      1036 2.06904E+01-1.27007E+00 2.92813E-03 2.02507E+00 2.41490E-13-2.64391E-13
 -1      1037 2.00655E+01-2.90772E-02-8.42139E-06-4.87058E-02 3.19217E-14-9.89732E-14
 -1      1038 2.03539E+01 4.10156E-02-1.58724E-04-5.92245E-02-4.49264E-14-1.67543E-13
 -1      1039 1.85810E+01 2.88390E-01-6.67071E-04 1.76953E+00 1.62322E-13-2.82643E-13
 -1      1040 2.01741E+01-8.82651E-02 2.70380E-06-6.19369E-02-7.37530E-15-8.04407E-14
 -1      1041 2.02623E+01-7.14957E-02-2.68707E-05-6.92021E-02-2.65703E-14-1.77767E-13
 -1      1042 2.01352E+01-7.66900E-02-1.12731E-05-5.67742E-02 1.98814E-14-9.78760E-14
 -1      1043 2.04245E+01 2.55062E-01 7.63997E-05 1.00383E-02-4.08674E-14-2.90853E-13
 -1      1044 2.03958E+01 9.86262E-02-7.23830E-05 1.99667E-02-6.35008E-14-2.24348E-13
 -1      1045 2.03534E+01 1.14552E-03 1.30475E-04 2.47879E-02-8.43006E-14-1.90085E-13
 -1      1046 2.03033E+01-5.58736E-02-7.85418E-05 2.65677E-02-7.23045E-14-2.04200E-13
 -1      1047 2.02568E+01-8.62726E-02 7.37804E-05 2.57425E-02-9.29918E-14-1.44348E-13
 -1      1048 2.02082E+01-9.26965E-02 3.43843E-05 2.41328E-02-1.42037E-13-1.49829E-13
 -1      1049 2.01631E+01-8.51759E-02-1.09835E-04 2.26389E-02-1.41911E-13-1.33879E-13
 -1      1050 2.01236E+01-6.88339E-02-1.74530E-05 2.10532E-02-2.60343E-14-6.34066E-14
 -1      1051 2.00859E+01-4.44449E-02-5.98720E-06 2.04305E-02 2.08899E-14-3.84957E-14
 -1      1052 2.00505E+01-1.50846E-02 9.04217E-06 2.16848E-02 8.10850E-14 6.68974E-14
 -1      1053 2.00157E+01 1.79737E-02 1.80307E-05 2.57522E-02 8.95452E-14 5.64964E-15
 -1      1054 1.99800E+01 5.38362E-02 2.27075E-05 3.38896E-02 2.22466E-14 4.16084E-15
 -1      1055 1.99421E+01 9.14797E-02 3.06523E-05 4.81835E-02-5.16623E-14 1.03180E-14
 -1      1056 1.99008E+01 1.29303E-01 4.31984E-05 7.16431E-02 1.12549E-14 4.16965E-14
 -1      1057 1.98558E+01 1.64579E-01 6.14798E-05 1.08601E-01 1.00969E-13 1.25088E-13
 -1      1058 1.98082E+01 1.92698E-01 8.67360E-05 1.65050E-01 8.92986E-15 1.13478E-13
 -1      1059 1.97620E+01 2.05943E-01 1.12243E-04 2.48922E-01 3.31389E-14-5.09681E-14
 -1      1060 1.97253E+01 1.92355E-01 1.48144E-04 3.70041E-01 1.51720E-13-3.32197E-13
 -1      1061 1.97132E+01 1.34082E-01 1.76413E-04 5.39317E-01 1.15559E-14-3.48121E-13
 -1      1062 1.97513E+01 5.69587E-03 4.43610E-05 7.66402E-01 4.95185E-14-2.94832E-13
 -1      1063 1.98863E+01-2.28723E-01-6.09653E-04 1.05279E+00 2.04796E-13-3.51020E-13
 -1      1064 2.01840E+01-6.01725E-01-3.77393E-04 1.38364E+00 1.29603E-13-3.16541E-13
 -1      1065 1.98253E+01 2.04524E-01-2.68991E-05 4.26855E-02 1.02612E-13-1.86870E-13
 -1      1066 1.96681E+01 3.08041E-01-5.30183E-05 1.58738E-01-1.00360E-13-9.38336E-14
 -1      1067 1.97537E+01 2.57292E-01-4.66856E-05 8.71092E-02 9.86973E-14-1.70011E-13
 -1      1068 1.98858E+01 1.52181E-01-1.97895E-05 1.54805E-02 6.89045E-14-1.40255E-13
 -1      1069 1.95658E+01 3.50059E-01-7.06079E-05 2.74195E-01-1.89165E-13-1.11513E-13
 -1      1070 1.94530E+01 3.68159E-01-9.76993E-05 4.50927E-01 7.98072E-14-3.35346E-13
 -1      1071 1.93424E+01 3.38746E-01-1.65917E-04 7.12288E-01 1.41170E-13-3.29330E-13
 -1      1072 1.92619E+01 2.26858E-01 2.62505E-04 1.08442E+00 6.58703E-14-2.68351E-13
 -1      1073 2.00985E+01-5.56266E-02-7.22970E-05-5.21322E-02-2.20023E-14-9.00177E-14
 -1      1074 2.04317E+01 4.32896E-01-2.72456E-05-1.81048E-03-9.16174E-15-2.75826E-13
 -1      1075 1.99790E+01 5.92582E-02-1.22051E-05-8.97555E-03-5.00624E-14-1.50167E-13
 -1      1076 2.02166E+01-8.82909E-02 1.14969E-06-6.64641E-02-2.06109E-14-1.35526E-13
 -1      1077 2.00174E+01 1.95117E-02-1.11533E-05-1.40274E-02-3.31173E-15-6.19075E-14
 -1      1078 2.03912E+01 1.61447E-01 2.70056E-04-4.06535E-02-2.01013E-14-1.47904E-13
 -1      1079 1.99361E+01 1.03528E-01-1.48238E-05-1.56005E-04-1.40017E-14-1.95892E-13
 -1      1080 2.04276E+01 5.76529E-01 2.47289E-04 8.37838E-03-1.34707E-14-2.79520E-13
 -1      1081 2.04299E+01 2.99077E-01-2.57547E-04-5.89871E-03-2.02886E-14-3.05319E-13
 -1      1082 2.00536E+01-1.56588E-02 1.19522E-05-1.72095E-02 8.63464E-14-1.06232E-13
 -1      1083 2.03570E+01 5.13972E-03 8.19174E-05-2.46203E-02-7.21518E-14-2.53525E-13
 -1      1084 1.91881E+01-2.71085E-02-5.99363E-05 1.67140E+00 2.24671E-13-3.30517E-13
 -1      1085 2.02132E+01-9.29491E-02 1.70151E-05-2.58252E-02-8.86476E-14-1.56880E-13
 -1      1086 2.03105E+01-5.48121E-02 4.42604E-05-2.70670E-02-3.61952E-14-2.20803E-13
 -1      1087 2.01691E+01-8.72662E-02 5.77864E-05-2.37429E-02-2.60622E-14-3.93026E-14
 -1      1088 2.04152E+01 1.69957E-01 4.08391E-05-9.25705E-03-3.75294E-14-3.13899E-13
 -1      1089 2.01060E+01-5.70689E-02 8.03945E-05-1.24165E-02 1.85549E-14-4.84689E-14
 -1      1090 2.02587E+01-8.29662E-02-1.07567E-04-2.68381E-02-8.23305E-14-2.35837E-13
 -1      1091 2.79718E+01 9.08948E+00 2.32626E+00-6.70059E+00-3.20854E-14 1.90048E-12
 -1      1092 2.05518E+01 6.22845E+00 2.09669E-01-3.90568E+00-2.37865E-14 5.48075E-13
 -1      1093 1.94371E+01 5.85366E+00 7.50852E-02-2.88989E+00-1.94705E-14-9.54081E-14
 -1      1094 1.90278E+01 5.72643E+00 6.03003E-02-2.23742E+00-1.56090E-14-4.38431E-13
 -1      1095 1.88410E+01 5.66965E+00 5.77611E-02-1.70384E+00-1.06772E-14-6.21440E-13
 -1      1096 1.87462E+01 5.64050E+00 5.54921E-02-1.23693E+00-9.14806E-15-7.20680E-13
 -1      1097 1.86966E+01 5.62510E+00 5.36902E-02-8.07622E-01-5.70767E-15-7.70334E-13
 -1      1098 1.86721E+01 5.61737E+00 5.24216E-02-3.96736E-01-4.67963E-15-7.91184E-13
 -1      1099 1.86649E+01 5.61507E+00 5.19878E-02 3.78304E-03-1.54629E-15-7.95500E-13
 -1      1100 1.86724E+01 5.61747E+00 5.24365E-02 4.04409E-01 1.34875E-15-7.95979E-13
 -1      1101 1.86973E+01 5.62531E+00 5.37096E-02 8.15640E-01 2.35575E-15-7.97096E-13
 -1      1102 1.87478E+01 5.64108E+00 5.57276E-02 1.24559E+00 5.94056E-15-7.65320E-13
 -1      1103 1.88435E+01 5.67041E+00 5.78028E-02 1.71342E+00 8.01095E-15-7.11620E-13
 -1      1104 1.90325E+01 5.72782E+00 6.02267E-02 2.24853E+00 1.29896E-14-5.76747E-13
 -1      1105 1.94469E+01 5.85655E+00 7.48602E-02 2.90346E+00 1.93734E-14-3.07750E-13
 -1      1106 2.05753E+01 6.23575E+00 2.10440E-01 3.92168E+00 2.52021E-14 2.72053E-13
 -1      1107 2.80518E+01 9.12595E+00 2.36786E+00 6.74430E+00 3.52496E-14 1.59600E-12
 -1      1108 2.88228E+01 3.61776E+00 1.27204E+00-4.21865E+00-1.59872E-13 2.78610E-12
 -1      1109 2.02338E+01-1.77745E-01-6.16425E-01-1.10060E-01-5.33046E-14 2.41976E-12
 -1      1110 1.88380E+01-9.64311E-02-2.36464E-01 6.25091E-02-2.20171E-14 1.87544E-12
 -1      1111 1.85033E+01-4.80951E-02-5.96210E-02 4.05187E-02-1.40608E-14 1.48884E-12
 -1      1112 1.84478E+01-2.46490E-02-1.52121E-02 2.67902E-02-1.68416E-14 1.15510E-12
 -1      1113 1.85293E+01-1.30908E-02-5.01037E-03 1.90687E-02-1.36961E-14 1.00178E-12
 -1      1114 1.86762E+01-6.64053E-03-1.51076E-03 1.41328E-02-2.73761E-16 9.24200E-13
 -1      1115 1.88491E+01-2.86903E-03 5.30810E-04 1.07095E-02-5.66279E-15 8.45175E-13
 -1      1116 1.90253E+01-6.36228E-04 1.84934E-03 8.17724E-03-1.62285E-15 6.43570E-13
 -1      1117 1.91920E+01 6.54985E-04 2.59087E-03 6.22890E-03-8.33261E-15 4.61066E-13
 -1      1118 1.93426E+01 1.34559E-03 2.89023E-03 4.70084E-03-1.88478E-15 1.78072E-13
 -1      1119 1.94740E+01 1.64477E-03 2.88004E-03 3.49591E-03 2.89355E-14 6.97845E-14
 -1      1120 1.95858E+01 1.68774E-03 2.66670E-03 2.54951E-03-1.75715E-14 2.38381E-14
 -1      1121 1.96794E+01 1.56464E-03 2.32670E-03 1.81484E-03 5.48499E-15 2.40446E-14
 -1      1122 1.97568E+01 1.33623E-03 1.91190E-03 1.25650E-03 1.94177E-14 2.07055E-13
 -1      1123 1.98209E+01 1.04369E-03 1.45612E-03 8.47831E-04-2.19039E-14 2.11671E-13
 -1      1124 1.98747E+01 7.15829E-04 9.81464E-04 5.69698E-04 2.56410E-15 2.43113E-13
 -1      1125 1.99217E+01 3.75018E-04 5.04426E-04 4.09854E-04-3.95456E-14 2.98338E-13
 -1      1126 1.99651E+01 4.30291E-05 4.24417E-05 3.62081E-04 1.51022E-15 5.91966E-14
 -1      1127 2.00082E+01-2.52896E-04-3.78499E-04 4.24601E-04 3.61927E-15-8.95803E-14
 -1      1128 2.00538E+01-4.73469E-04-7.14875E-04 5.96964E-04 2.98859E-15-8.33372E-14
 -1      1129 2.01043E+01-5.60577E-04-8.95420E-04 8.74508E-04 8.35942E-15 1.83870E-13
 -1      1130 2.01608E+01-4.31370E-04-8.10848E-04 1.23928E-03 1.50575E-15 3.65640E-13
 -1      1131 2.02225E+01 2.43934E-05-3.06664E-04 1.64635E-03-5.02408E-14 1.70119E-13
 -1      1132 2.02859E+01 9.39380E-04 8.14624E-04 2.00523E-03 1.43246E-14 6.34178E-14
 -1      1133 2.03428E+01 2.44937E-03 2.77118E-03 2.15807E-03-2.67405E-15 2.23893E-13
 -1      1134 2.03795E+01 4.65089E-03 5.74442E-03 1.86080E-03 3.69591E-14 2.23159E-13
 -1      1135 2.03751E+01 7.52807E-03 9.77092E-03 7.80181E-04 2.33996E-14 3.20933E-14
 -1      1136 2.03017E+01 1.08483E-02 1.45788E-02-1.47097E-03-2.14238E-14-2.35823E-13
 -1      1137 2.01261E+01 1.40473E-02 1.93961E-02-5.23187E-03 2.60128E-14-2.23581E-13
 -1      1138 1.98151E+01 1.61595E-02 2.28204E-02-1.06042E-02 1.99298E-15-2.01450E-13
 -1      1139 1.93454E+01 1.58937E-02 2.29110E-02-1.71925E-02 2.85856E-14-4.43704E-13
 -1      1140 1.87168E+01 1.19679E-02 1.76935E-02-2.38713E-02 3.41703E-14-4.23141E-13
 -1      1141 1.79658E+01 3.74067E-03 6.12823E-03-2.87716E-02-8.33754E-15-2.32144E-13
 -1      1142 1.71728E+01-8.04895E-03-1.07582E-02-2.97002E-02-9.19891E-15-3.46646E-13
 -1      1143 1.64553E+01-2.08984E-02-2.93068E-02-2.50280E-02 2.20941E-14 3.50137E-14
 -1      1144 1.59423E+01-3.10583E-02-4.40188E-02-1.47101E-02 2.05348E-14-9.77066E-14
 -1      1145 1.57361E+01-3.50356E-02-4.97817E-02-7.73998E-04 8.50058E-15-1.41423E-13
 -1      1146 1.58770E+01-3.13430E-02-4.44206E-02 1.32427E-02-1.84440E-14-1.63685E-13
 -1      1147 1.63277E+01-2.13228E-02-2.98912E-02 2.37477E-02 1.85273E-14 1.13597E-13
 -1      1148 1.69869E+01-8.43983E-03-1.12538E-02 2.85890E-02-2.96951E-14-6.49827E-15
 -1      1149 1.77252E+01 3.45586E-03 5.84417E-03 2.77051E-02-2.12559E-14-5.62647E-13
 -1      1150 1.84237E+01 1.16883E-02 1.74790E-02 2.27073E-02-2.19677E-14-6.01103E-13
 -1      1151 1.90014E+01 1.53649E-02 2.23693E-02 1.58787E-02 2.23617E-14-1.85829E-13
 -1      1152 1.94242E+01 1.50589E-02 2.14213E-02 9.26552E-03 1.11152E-14-9.11944E-15
 -1      1153 1.96981E+01 1.21116E-02 1.66999E-02 4.22752E-03 5.52593E-14 3.85278E-13
 -1      1154 1.98554E+01 8.09760E-03 1.06316E-02 1.35541E-03-1.96820E-14 1.18403E-13
 -1      1155 1.99382E+01 4.45330E-03 5.61470E-03 5.30023E-04-7.73253E-16 6.05643E-14
 -1      1156 1.99829E+01 2.63244E-03 3.71811E-03 7.27755E-04 1.38195E-14 1.95930E-13
 -1      1157 1.99998E+01 5.05306E-04 1.11775E-03-2.34085E-04 4.23065E-15 1.91428E-13
 -1      1158 2.91321E+01 3.72150E+00 1.36640E+00 4.34249E+00 1.78718E-13 2.45781E-12
 -1      1159 2.03823E+01-1.75491E-01-6.28670E-01 1.39295E-01 7.51205E-14 2.02385E-12
 -1      1160 1.88711E+01-9.82020E-02-2.49537E-01-6.28903E-02 2.99812E-14 1.36759E-12
 -1      1161 1.85127E+01-4.99563E-02-6.43010E-02-4.12285E-02 1.16591E-14 9.55076E-13
 -1      1162 1.84469E+01-2.54665E-02-1.65485E-02-2.72583E-02 1.15992E-14 6.91478E-13
 -1      1163 1.85236E+01-1.35063E-02-5.34061E-03-1.93576E-02 1.18558E-14 4.32411E-13
 -1      1164 1.86681E+01-6.89033E-03-1.66029E-03-1.43265E-02 1.34654E-14 2.18893E-13
 -1      1165 1.88402E+01-3.01077E-03 4.40700E-04-1.08534E-02 5.74839E-15 1.58264E-13
 -1      1166 1.90164E+01-7.14382E-04 1.80487E-03-8.28509E-03 1.77820E-14 8.51992E-14
 -1      1167 1.91836E+01 6.17494E-04 2.58073E-03-6.30934E-03-5.29856E-15-9.91845E-14
 -1      1168 1.93347E+01 1.33661E-03 2.90722E-03-4.75830E-03-1.73960E-16-1.61822E-13
 -1      1169 1.94666E+01 1.65668E-03 2.92011E-03-3.53125E-03-2.31596E-15-2.15203E-13
 -1      1170 1.95787E+01 1.70257E-03 2.72216E-03-2.55343E-03 5.59709E-15-2.95529E-13
 -1      1171 1.96701E+01 1.68866E-03 2.46925E-03-1.71390E-03-1.06195E-15-4.16475E-13
 -1      1172 1.97454E+01 1.38309E-03 2.02584E-03-1.22321E-03-1.75391E-15-6.18235E-13
 -1      1173 1.98088E+01 1.07943E-03 1.57846E-03-7.44157E-04 6.23064E-15-5.02775E-13
 -1      1174 1.98613E+01 7.06868E-04 1.08589E-03-3.76084E-04-7.96916E-15-4.52868E-13
 -1      1175 1.99063E+01 2.65159E-04 5.41037E-04-9.41841E-05 1.72829E-15-3.76639E-13
 -1      1176 1.99477E+01-2.65316E-04-8.52511E-05 1.17067E-04-1.26675E-14-3.31728E-13
 -1      1177 1.99901E+01-9.25336E-04-8.47185E-04 2.65012E-04 4.10086E-15-3.84006E-13
 -1      1178 2.00389E+01-1.78312E-03-1.83449E-03 3.45518E-04 1.45581E-14-5.52114E-13
 -1      1179 2.01015E+01-2.94539E-03-3.19087E-03 3.35448E-04 1.06607E-14-4.21385E-13
 -1      1180 2.01877E+01-4.57458E-03-5.14486E-03 1.77771E-04-1.22873E-15-5.18241E-13
 -1      1181 2.03117E+01-6.91325E-03-8.05979E-03-2.47174E-04-4.28287E-14-4.12593E-13
 -1      1182 2.04945E+01-1.03147E-02-1.25109E-02-1.17677E-03 2.40609E-14-2.76629E-13
 -1      1183 2.07679E+01-1.52667E-02-1.93871E-02-3.07967E-03-8.65454E-15-5.68501E-13
 -1      1184 2.11805E+01-2.18453E-02-2.98722E-02-6.96861E-03 4.60437E-14-8.79560E-13
 -1      1185 2.17854E+01-3.25406E-02-4.58838E-02-1.44847E-02-2.55872E-16-8.23848E-13
 -1      1186 2.26966E+01-4.49786E-02-6.92332E-02-2.65024E-02 2.42033E-14-7.46056E-13
 -1      1187 2.40967E+01-6.02207E-02-9.99504E-02-5.01522E-02 1.73386E-15-7.77378E-13
 -1      1188 2.61669E+01-7.24950E-02-1.27582E-01-9.02221E-02-2.32453E-14-4.52471E-13
 -1      1189 2.90952E+01-6.75160E-02-1.15610E-01-1.48772E-01 2.79499E-14-3.47611E-13
 -1      1190 3.28536E+01-1.54303E-02 1.57228E-02-2.05345E-01 4.21915E-14-4.80449E-13
 -1      1191 3.66862E+01 1.22761E-01 3.50003E-01-1.73284E-01-4.57776E-14-2.45942E-13
 -1      1192 3.83178E+01 3.32920E-01 7.51971E-01 1.34556E-01 5.19515E-14-1.09690E-13
 -1      1193 3.42217E+01 3.45727E-01 5.29054E-01 7.95801E-01-4.62408E-14-1.04583E-13
 -1      1194 2.47533E+01 2.14301E-03-7.75932E-01 1.12127E+00 1.65493E-14 1.53211E-14
 -1      1195 1.66975E+01-5.50599E-01-2.12101E+00 5.07367E-01 4.86694E-14-4.12226E-13
 -1      1196 1.68730E+01-6.08938E-01-2.07940E+00-6.95655E-01-7.28861E-14-2.54297E-13
 -1      1197 2.38524E+01-2.71653E-01-8.78599E-01-1.13740E+00-4.69763E-14 5.66214E-15
 -1      1198 3.25570E+01 3.40933E-01 3.73361E-01-9.07804E-01 2.48690E-14 1.53211E-14
 -1      1199 3.77386E+01 4.00261E-01 8.03578E-01-2.38506E-01 1.00798E-13-1.88738E-14
 -1      1200 3.70517E+01 1.74554E-01 4.61263E-01 1.28554E-01 2.67130E-14 1.34524E-13
 -1      1201 3.34154E+01 1.20357E-02 8.25189E-02 2.12047E-01-4.30125E-14 1.11744E-13
 -1      1202 2.94267E+01-5.74477E-02-9.25445E-02 1.68188E-01 6.38465E-15 3.30208E-13
 -1      1203 2.61391E+01-7.11624E-02-1.25431E-01 1.09274E-01-7.54258E-15 5.77829E-13
 -1      1204 2.37037E+01-6.32408E-02-1.05772E-01 6.68463E-02 3.14011E-14 3.18939E-13
 -1      1205 2.19784E+01-5.21870E-02-8.18309E-02 4.11877E-02 3.36753E-14 4.30211E-15
 -1      1206 2.08047E+01-4.50205E-02-6.97947E-02 2.41059E-02 3.99728E-14-1.26604E-13
 -1      1207 2.01223E+01-4.86022E-02-6.11321E-02 4.48052E-04-1.04122E-14 2.42713E-13
 -1      1208 1.99627E+01 8.77893E-03 1.96345E-02-1.55388E-02 3.94101E-14 2.02679E-13
 -1      1209 2.00168E+01-3.10870E-02 2.46623E-02-6.80620E-03 4.15489E-13-2.21725E-13
 -1      1210 1.99724E+01 1.53851E-01-4.10341E-02 4.67866E-03-1.14462E-13-2.70533E-13
 -1      1211 1.99899E+01 7.68247E-01-1.99356E-02 3.46006E-02-6.87762E-13-6.02618E-14
 -1      1212 2.00166E+01 1.53172E+00 2.06093E-02 3.49638E-02-6.22356E-13 3.78495E-15
 -1      1213 2.00323E+01 2.14546E+00 4.62939E-02 2.22346E-02 1.11109E-13-1.87766E-14
 -1      1214 2.00368E+01 2.44171E+00 5.28199E-02 5.20206E-03-7.02460E-13-1.89259E-13
 -1      1215 2.00300E+01 2.38764E+00 4.32526E-02-8.94705E-03-6.76440E-13 9.59003E-14
 -1      1216 2.00175E+01 2.04506E+00 2.48730E-02-1.81377E-02-2.15010E-13-4.20790E-14
 -1      1217 2.00038E+01 1.53568E+00 4.99679E-03-2.07909E-02 1.04694E-13 1.39890E-14
 -1      1218 1.99928E+01 9.92654E-01-1.07926E-02-1.80917E-02 3.40516E-13 7.11638E-14
 -1      1219 1.99863E+01 5.21760E-01-1.97710E-02-1.22545E-02 1.53988E-13-8.10766E-14
 -1      1220 1.99842E+01 1.85350E-01-2.19662E-02-5.47430E-03-1.16305E-12-1.28566E-13
 -1      1221 1.99864E+01-6.13658E-03-1.85882E-02-3.89247E-05-1.67971E-12 2.23396E-14
 -1      1222 1.99907E+01-7.47710E-02-1.19127E-02 3.75381E-03-7.42089E-13 4.57606E-14
 -1      1223 1.99969E+01-6.22146E-02-3.93245E-03 4.88614E-03-4.02573E-13 5.98250E-14
 -1      1224 1.99992E+01-2.21182E-02 1.35772E-03 3.60943E-03-5.42179E-14-1.22096E-13
 -1      1225 1.99993E+01-8.31407E-04 5.92805E-04 6.99992E-04-3.19343E-14 7.75553E-14
 -1      1226-1.31951E+00-2.82068E+01-4.07297E+00-2.88446E+00 1.27537E-14-3.01217E-14
 -1      1227-2.80446E+00-2.15645E+01-3.89308E+00-6.21798E+00 2.35367E-14-7.74381E-15
 -1      1228-2.27203E+00-9.19831E+00-3.13535E+00-4.02785E+00 5.70211E-13 2.14939E-13
 -1      1229 6.17003E+00 3.42104E+00-1.59852E+00 4.97957E+00 3.17524E-13 3.35287E-13
 -1      1230 2.61249E+01 9.84517E+00 7.64454E-01 1.55339E+01 2.46692E-13 2.74891E-13
 -1      1231 5.33815E+01 8.59131E+00 3.66666E+00 1.96349E+01-7.79377E-14-1.00364E-13
 -1      1232 7.73539E+01 4.30048E+00 6.25401E+00 1.25360E+01-5.52891E-14-5.25135E-13
 -1      1233 8.46447E+01 2.72510E+00 7.06277E+00-2.23018E+00 4.87804E-14-3.98570E-13
 -1      1234 7.15660E+01 5.42949E+00 5.68450E+00-1.55982E+01 8.69860E-14-3.71703E-13
 -1      1235 4.43067E+01 9.36961E+00 2.67484E+00-1.91193E+01 7.02327E-13-1.12088E-12
 -1      1236 1.76211E+01 7.99800E+00-2.47743E-01-1.17258E+01 1.23102E-12-1.48193E-12
 -1      1237 1.55223E+00-1.38657E+00-2.35850E+00-7.90281E-01 2.06590E-12-1.53766E-12
 -1      1238-3.15266E+00-1.50545E+01-3.62586E+00 5.76351E+00 2.41318E-12-1.26932E-12
 -1      1239-2.22622E+00-2.56476E+01-4.07659E+00 5.15986E+00 2.34995E-12-5.89404E-13
 -1      1240-1.02596E+00-2.79769E+01-3.98791E+00 3.16229E-01 6.91336E-13-2.14447E-13
 -1      1241-1.36646E+00-2.06918E+01-3.34760E+00-3.56179E+00-1.40088E-12-3.72646E-13
 -1      1242-9.10447E-01-7.69811E+00-2.27435E+00-2.23168E+00-2.05480E-12-9.91984E-13
 -1      1243 4.91399E+00 5.27681E+00-8.23613E-01 5.24031E+00-1.96354E-12-1.48148E-12
 -1      1244 1.90938E+01 1.22330E+01 9.07029E-01 1.47166E+01-1.72884E-12-2.01683E-12
 -1      1245 3.95418E+01 1.12503E+01 2.44753E+00 1.94685E+01-8.45879E-13-1.45173E-12
 -1      1246 5.94745E+01 5.93639E+00 3.64029E+00 1.61047E+01-3.63709E-13-1.36902E-12
 -1      1247 7.03341E+01 1.82676E+00 4.19413E+00 4.48693E+00-7.46556E-14-7.55840E-13
 -1      1248 6.70143E+01 3.19915E+00 4.04209E+00-9.73422E+00-5.51226E-14 3.36953E-13
 -1      1249 5.14222E+01 8.31787E+00 3.20692E+00-1.88120E+01-2.27762E-13 5.20028E-13
 -1      1250 2.98737E+01 1.24024E+01 1.75292E+00-1.83297E+01-6.44818E-13 1.03983E-12
 -1      1251 1.14365E+01 9.94141E+00 5.67722E-02-1.04791E+01-1.07003E-12 1.01008E-12
 -1      1252 1.19825E+00-6.05795E-01-1.57578E+00-1.07621E+00-1.35736E-12 9.79661E-13
 -1      1253-1.54642E+00-1.49733E+01-2.90918E+00 3.84517E+00 4.35874E-13 1.16573E-14
 -1      1254-1.03656E+00-2.57347E+01-3.74864E+00 2.15829E+00 1.33538E-12-1.92103E-13
 -1      1255 2.22733E+01 1.83861E+00-7.26054E-01-2.79176E+00-5.47895E-14 1.66184E-12
 -1      1256 2.03631E+01 4.69107E+00-4.87962E-02-3.30868E+00-2.01839E-13 2.48884E-13
 -1      1257 2.08715E+01 4.81186E+00-1.13428E-01-4.16309E+00-2.41612E-13 5.89043E-13
 -1      1258 1.95335E+01 4.99475E+00-1.97492E-02-2.65656E+00-2.25514E-13-2.46757E-13
 -1      1259 1.98323E+01 5.09132E+00 4.70093E-06-3.04733E+00-2.49190E-13-2.91156E-14
 -1      1260 2.05293E+01 3.95373E+00-2.60111E-02-3.07648E+00-3.61530E-13 2.10498E-13
 -1      1261 1.91864E+01 5.08481E+00-3.41523E-03-2.07309E+00-1.95257E-13-5.17829E-13
 -1      1262 1.93350E+01 5.14012E+00 1.05037E-02-2.36632E+00-2.16091E-13-3.89265E-13
 -1      1263 1.97569E+01 4.36807E+00-2.38725E-02-2.49268E+00-3.56555E-13-2.03712E-13
 -1      1264 1.90098E+01 5.13152E+00 3.44927E-03-1.56714E+00-1.58838E-13-6.69367E-13
 -1      1265 1.90882E+01 5.16133E+00 1.28007E-02-1.81696E+00-1.79540E-13-5.97036E-13
 -1      1266 1.93940E+01 4.55598E+00-1.94934E-02-1.93382E+00-3.02008E-13-4.30673E-13
 -1      1267 1.89154E+01 5.16110E+00 6.54124E-03-1.11999E+00-1.21263E-13-7.47798E-13
 -1      1268 1.89581E+01 5.17756E+00 1.27625E-02-1.34123E+00-1.39801E-13-7.09023E-13
 -1      1269 1.92059E+01 4.66232E+00-1.60435E-02-1.44745E+00-2.42450E-13-5.61631E-13
 -1      1270 1.88634E+01 5.18084E+00 8.16209E-03-6.97235E-01-9.25104E-14-7.84204E-13
 -1      1271 1.88866E+01 5.18978E+00 1.19937E-02-9.07183E-01-1.03518E-13-7.67641E-13
 -1      1272 1.91024E+01 4.72769E+00-1.39942E-02-1.00735E+00-1.86083E-13-6.28317E-13
 -1      1273 1.88390E+01 5.19278E+00 9.25036E-03-2.93193E-01-5.29676E-14-8.02317E-13
 -1      1274 1.88491E+01 5.19669E+00 1.10609E-02-4.94957E-01-6.32706E-14-7.90911E-13
 -1      1275 1.90460E+01 4.76677E+00-1.29178E-02-5.92332E-01-1.29345E-13-6.55441E-13
 -1      1276 1.88348E+01 5.19784E+00 1.01708E-02 1.03359E-01-1.96507E-14-8.02775E-13
 -1      1277 1.88347E+01 5.19778E+00 1.01463E-02-9.58426E-02-3.12154E-14-8.02322E-13
 -1      1278 1.90213E+01 4.78503E+00-1.24649E-02-1.93267E-01-6.56426E-14-6.72261E-13
 -1      1279 1.88496E+01 5.19662E+00 1.10876E-02 5.02648E-01 2.32609E-14-8.06797E-13
 -1      1280 1.88393E+01 5.19259E+00 9.22823E-03 3.00753E-01 8.56140E-15-8.04540E-13
 -1      1281 1.90215E+01 4.78483E+00-1.24801E-02 2.00781E-01-9.38732E-15-6.71671E-13
 -1      1282 1.88877E+01 5.18946E+00 1.19841E-02 9.15291E-01 5.35943E-14-7.99362E-13
 -1      1283 1.88642E+01 5.18051E+00 8.14860E-03 7.05049E-01 4.55326E-14-8.06483E-13
 -1      1284 1.90467E+01 4.76616E+00-1.29677E-02 6.00063E-01 5.57443E-14-6.72819E-13
 -1      1285 1.89591E+01 5.17749E+00 1.27390E-02 1.34610E+00 9.68123E-14-7.66160E-13
 -1      1286 1.89161E+01 5.16081E+00 6.49730E-03 1.12461E+00 8.00965E-14-7.85816E-13
 -1      1287 1.91033E+01 4.72711E+00-1.39911E-02 1.01185E+00 1.11686E-13-6.59754E-13
 -1      1288 1.90916E+01 5.16102E+00 1.28145E-02 1.82681E+00 1.41503E-13-6.91967E-13
 -1      1289 1.90122E+01 5.13063E+00 3.30779E-03 1.57628E+00 1.23825E-13-7.37618E-13
 -1      1290 1.92076E+01 4.66129E+00-1.60761E-02 1.45262E+00 1.85113E-13-6.12680E-13
 -1      1291 1.93414E+01 5.13979E+00 1.04422E-02 2.37791E+00 1.92145E-13-5.49560E-13
 -1      1292 1.91910E+01 5.08364E+00-3.60834E-03 2.08357E+00 1.70360E-13-6.41286E-13
 -1      1293 1.93990E+01 4.55336E+00-1.95166E-02 1.94393E+00 2.60187E-13-5.35877E-13
 -1      1294 1.98461E+01 5.09234E+00 3.67398E-04 3.06181E+00 2.31745E-13-2.47580E-13
 -1      1295 1.95426E+01 4.99294E+00-2.00718E-02 2.66921E+00 2.04434E-13-4.30298E-13
 -1      1296 1.97671E+01 4.36349E+00-2.37113E-02 2.50533E+00 3.22816E-13-3.54397E-13
 -1      1297 2.09010E+01 4.84024E+00-9.92593E-02 4.18785E+00 2.60847E-13 3.04340E-13
 -1      1298 2.03825E+01 4.68854E+00-4.88500E-02 3.32639E+00 2.04003E-13-2.52576E-15
 -1      1299 2.05513E+01 3.94298E+00-2.51949E-02 3.09265E+00 3.55303E-13-8.10463E-15
 -1      1300 2.23786E+01 1.87367E+00-7.17833E-01 2.85009E+00 6.25611E-14 1.32305E-12
 -1      1301 2.20070E+01 1.31373E-01-4.00956E-01-1.28669E+00-1.81341E-13 1.70469E-12
 -1      1302 2.06833E+01 3.06855E-01-1.64853E-01-8.06547E-01-1.75249E-13 1.50135E-12
 -1      1303 2.00850E+01 1.53594E-01-7.35503E-02-4.02654E-01-1.37945E-13 1.39129E-12
 -1      1304 1.96146E+01 9.12815E-02-1.49125E-02-3.30430E-01-1.35419E-13 1.19351E-12
 -1      1305 2.09766E+01 3.69499E-01-1.04203E-01-1.27524E+00-3.09731E-13 8.68961E-13
 -1      1306 1.92568E+01 6.45582E-02 3.05624E-03-1.35658E-01-1.11807E-13 1.11565E-12
 -1      1307 1.91021E+01 4.13040E-02 1.32480E-02-1.17841E-01-1.13468E-13 9.52419E-13
 -1      1308 1.99249E+01 1.34012E-01-3.51315E-02-5.04751E-01-2.36089E-13 7.05221E-13
 -1      1309 1.89415E+01 3.15655E-02 1.32608E-02-2.82391E-02-9.11411E-14 8.76986E-13
 -1      1310 1.89218E+01 1.94269E-02 1.10693E-02-1.88422E-02-7.97322E-14 7.46875E-13
 -1      1311 1.94470E+01 5.55229E-02-8.50594E-03-1.70526E-01-1.89116E-13 5.64515E-13
 -1      1312 1.88655E+01 1.60539E-02 8.78097E-03 2.48955E-02-4.10405E-14 7.14980E-13
 -1      1313 1.89078E+01 9.11767E-03 6.43392E-03 2.95476E-02-4.15026E-14 6.65884E-13
 -1      1314 1.92376E+01 2.44627E-02-3.51951E-03-1.14839E-02-1.21476E-13 4.53504E-13
 -1      1315 1.89077E+01 7.89662E-03 4.67261E-03 5.08039E-02-3.56687E-14 6.35256E-13
 -1      1316 1.89781E+01 3.54208E-03 3.64344E-03 5.27151E-02-3.84465E-14 6.06702E-13
 -1      1317 1.91805E+01 1.02668E-02-2.23140E-03 6.74249E-02-7.54711E-14 4.05899E-13
 -1      1318 1.90076E+01 3.22663E-03 2.44559E-03 6.15986E-02-3.64090E-14 5.79004E-13
 -1      1319 1.90882E+01 3.68755E-04 2.21540E-03 6.18856E-02-4.15183E-14 5.13277E-13
 -1      1320 1.92066E+01 2.84076E-03-1.33413E-03 1.04471E-01-7.10991E-14 3.24164E-13
 -1      1321 1.91319E+01 4.84312E-04 1.33626E-03 6.36597E-02-6.69853E-14 4.90637E-13
 -1      1322 1.92130E+01-1.42197E-03 1.44507E-03 6.29978E-02-5.44983E-14 3.95994E-13
 -1      1323 1.92758E+01-1.24022E-03-5.69607E-04 1.17954E-01-1.02023E-13 2.71188E-13
 -1      1324 1.92618E+01-1.09342E-03 7.51610E-04 6.07150E-02-5.57110E-14 3.64394E-13
 -1      1325 1.93378E+01-2.35665E-03 9.77655E-04 5.95387E-02-8.67544E-14 2.58290E-13
 -1      1326 1.93644E+01-3.43461E-03-1.21669E-05 1.17853E-01-1.14956E-13 2.30727E-13
 -1      1327 1.93863E+01-1.92958E-03 4.15312E-04 5.50936E-02-1.00181E-13 2.40278E-13
 -1      1328 1.94544E+01-2.74244E-03 6.67675E-04 5.36894E-02-4.06366E-14 1.23454E-13
 -1      1329 1.94583E+01-4.47626E-03 3.37313E-04 1.10139E-01-1.40249E-13 2.07529E-13
 -1      1330 1.94997E+01-2.28178E-03 2.11193E-04 4.82995E-02-1.69452E-14 3.06079E-14
 -1      1331 1.95589E+01-2.77397E-03 4.53939E-04 4.68562E-02-4.21939E-14-1.86708E-14
 -1      1332 1.95491E+01-4.78700E-03 5.22865E-04 9.85835E-02-9.50527E-14 8.99913E-14
 -1      1333 1.95995E+01-2.31681E-03 8.64506E-05 4.13117E-02-7.70193E-15-3.27052E-14
 -1      1334 1.96498E+01-2.57994E-03 3.05821E-04 3.99516E-02-2.21768E-14-5.21670E-14
 -1      1335 1.96325E+01-4.63172E-03 5.92170E-04 8.56279E-02-6.83441E-14-8.37236E-14
 -1      1336 1.96853E+01-2.14606E-03 1.26921E-05 3.47609E-02 8.52427E-15 7.34872E-16
 -1      1337 1.97273E+01-2.24658E-03 2.04665E-04 3.35611E-02 3.97632E-14 3.47571E-14
 -1      1338 1.97064E+01-4.18430E-03 5.83009E-04 7.28545E-02 7.65290E-15-4.63940E-14
 -1      1339 1.97578E+01-1.84439E-03-2.78690E-05 2.90445E-02 2.55270E-14 3.48715E-14
 -1      1340 1.97928E+01-1.83135E-03 1.37453E-04 2.80514E-02 6.76239E-15 6.98061E-14
 -1      1341 1.97707E+01-3.55998E-03 5.22443E-04 6.12756E-02 3.59963E-14-6.91340E-14
 -1      1342 1.98190E+01-1.46191E-03-4.75696E-05 2.44029E-02-2.20125E-14 7.20191E-14
 -1      1343 1.98483E+01-1.37240E-03 9.42579E-05 2.36431E-02-4.70616E-14 3.93585E-14
 -1      1344 1.98260E+01-2.83442E-03 4.29131E-04 5.15217E-02-1.83595E-14-9.26125E-14
 -1      1345 1.98711E+01-1.03239E-03-5.56309E-05 2.09720E-02 2.62958E-14 6.85732E-14
 -1      1346 1.98963E+01-8.96029E-04 6.68862E-05 2.04588E-02 1.04178E-14 9.95033E-14
 -1      1347 1.98739E+01-2.05701E-03 3.15838E-04 4.39663E-02 8.67289E-15-4.51062E-14
 -1      1348 1.99167E+01-5.80523E-04-5.94449E-05 1.88139E-02-3.15945E-14 9.75606E-14
 -1      1349 1.99393E+01-4.23647E-04 4.79871E-05 1.85507E-02-4.34624E-14 6.11678E-14
 -1      1350 1.99162E+01-1.26214E-03 1.91656E-04 3.88064E-02-1.35729E-14-7.62338E-14
 -1      1351 1.99586E+01-1.28977E-04-6.53194E-05 1.79279E-02-6.24030E-14 6.84970E-14
 -1      1352 1.99802E+01 2.11213E-05 3.04427E-05 1.79085E-02-5.24503E-14-2.58672E-15
 -1      1353 1.99550E+01-4.80220E-04 6.40614E-05 3.61012E-02-6.00609E-14-5.35687E-14
 -1      1354 1.99992E+01 2.93906E-04-7.87966E-05 1.82425E-02-1.15568E-14-5.56173E-14
 -1      1355 2.00214E+01 4.04550E-04 7.03790E-06 1.84464E-02-4.73869E-14-9.97581E-14
 -1      1356 1.99925E+01 2.50313E-04-5.89502E-05 3.57729E-02-8.22955E-14-2.03644E-14
 -1      1357 2.00412E+01 6.45335E-04-1.04494E-04 1.95834E-02-8.62689E-15-1.06829E-13
 -1      1358 2.00651E+01 6.74041E-04-2.94695E-05 1.99673E-02 1.32738E-14-8.65338E-14
 -1      1359 2.00307E+01 8.69126E-04-1.66516E-04 3.75643E-02-4.46417E-14-5.11599E-14
 -1      1360 2.00864E+01 8.58270E-04-1.45314E-04 2.16170E-02 2.45560E-14 1.12914E-14
 -1      1361 2.01127E+01 7.48996E-04-8.56513E-05 2.21008E-02 5.43401E-14 8.51105E-14
 -1      1362 2.00712E+01 1.27822E-03-2.42285E-04 4.09498E-02 8.26734E-14-1.40617E-13
 -1      1363 2.01358E+01 8.31482E-04-2.00812E-04 2.37682E-02 1.39065E-14 1.09773E-13
 -1      1364 2.01647E+01 5.13001E-04-1.65778E-04 2.42150E-02-3.18635E-14 1.25533E-13
 -1      1365 2.01150E+01 1.32546E-03-2.61639E-04 4.49970E-02 3.69744E-14-2.20425E-14
 -1      1366 2.01889E+01 4.22016E-04-2.64563E-04 2.51162E-02-2.97040E-14 1.46266E-13
 -1      1367 2.02191E+01-1.88914E-04-2.68993E-04 2.53091E-02-2.33595E-14 1.14093E-13
 -1      1368 2.01618E+01 7.91097E-04-1.89210E-04 4.81839E-02-4.88331E-14-2.35804E-14
 -1      1369 2.02429E+01-5.54781E-04-3.20666E-04 2.42861E-02-8.11943E-15 1.11780E-13
 -1      1370 2.02714E+01-1.54123E-03-3.85353E-04 2.39049E-02 1.80635E-14 1.67592E-13
 -1      1371 2.02095E+01-6.14842E-04 2.22507E-05 4.81955E-02-2.19422E-14 1.50121E-13
 -1      1372 2.02917E+01-2.30876E-03-3.40250E-04 1.93717E-02-5.48476E-15 1.12695E-13
 -1      1373 2.03131E+01-3.72674E-03-4.91617E-04 1.79801E-02-1.51377E-14 2.02343E-13
 -1      1374 2.02538E+01-3.23051E-03 4.29659E-04 4.17528E-02-1.98149E-14 1.07144E-13
 -1      1375 2.03247E+01-5.02918E-03-2.80141E-04 7.95684E-03-1.21891E-14 1.43751E-13
 -1      1376 2.03307E+01-6.86028E-03-5.49073E-04 5.01713E-03-2.94495E-14 5.38551E-14
 -1      1377 2.02865E+01-7.37499E-03 1.09078E-03 2.45810E-02-5.30592E-14 1.54255E-13
 -1      1378 2.03262E+01-8.79491E-03-8.75180E-05-1.26607E-02-6.65564E-14-8.11829E-15
 -1      1379 2.03049E+01-1.08765E-02-5.07613E-04-1.77190E-02-1.07510E-13-1.12580E-13
 -1      1380 2.02959E+01-1.32118E-02 2.04445E-03-8.31258E-03-1.17915E-13-9.71909E-14
 -1      1381 2.02751E+01-1.34325E-02 2.84176E-04-4.49129E-02-4.48201E-14-1.75458E-13
 -1      1382 2.02119E+01-1.53749E-02-3.21193E-04-5.25397E-02-3.14011E-14-2.76067E-13
 -1      1383 2.02655E+01-2.05272E-02 3.27579E-03-6.18237E-02-1.50238E-13-1.96651E-13
 -1      1384 2.01461E+01-1.83363E-02 8.44862E-04-8.99619E-02-1.62836E-14-2.00512E-13
 -1      1385 2.00255E+01-1.94594E-02 2.22540E-05-1.00227E-01 2.62802E-14-1.32916E-13
 -1      1386 2.01758E+01-2.84434E-02 4.66599E-03-1.39170E-01-1.04912E-14-1.97779E-13
 -1      1387 1.99136E+01-2.23155E-02 1.52655E-03-1.46270E-01-5.53808E-14-1.48628E-13
 -1      1388 1.97227E+01-2.16678E-02 4.62100E-04-1.58516E-01-6.08472E-14-2.12492E-13
 -1      1389 2.00061E+01-3.51573E-02 5.93834E-03-2.39471E-01-3.75177E-14-1.65686E-13
 -1      1390 1.95583E+01-2.35994E-02 2.15119E-03-2.08042E-01 3.98351E-14-2.18181E-13
 -1      1391 1.92922E+01-2.01466E-02 8.38758E-04-2.20562E-01 3.25287E-14-2.12469E-13
 -1      1392 1.97395E+01-3.79134E-02 6.63033E-03-3.54847E-01-7.21788E-14-1.03408E-13
 -1      1393 1.90766E+01-2.01899E-02 2.44394E-03-2.64297E-01 3.00838E-14-2.75661E-13
 -1      1394 1.87447E+01-1.32296E-02 9.16236E-04-2.74248E-01 1.03979E-14-2.54087E-13
 -1      1395 1.93703E+01-3.34947E-02 6.14712E-03-4.68118E-01 2.27288E-14-4.96807E-14
 -1      1396 1.84910E+01-1.06774E-02 2.12898E-03-2.99697E-01 3.32176E-14-1.75408E-13
 -1      1397 1.81215E+01-4.11232E-04 4.82558E-04-3.03541E-01-7.09719E-16-1.73531E-13
 -1      1398 1.89114E+01-1.94373E-02 3.95354E-03-5.53000E-01 8.36030E-14-1.05447E-13
 -1      1399 1.78565E+01 4.63766E-03 1.09891E-03-2.98140E-01-1.90967E-14-6.58917E-14
 -1      1400 1.74966E+01 1.66521E-02-4.89789E-04-2.92771E-01 7.53668E-14 1.19314E-14
 -1      1401 1.84014E+01 4.23750E-03-9.19737E-05-5.78857E-01 1.76667E-14 6.98673E-14
 -1      1402 1.72582E+01 2.29223E-02-4.29035E-04-2.48919E-01 1.58762E-14-4.96131E-15
 -1      1403 1.69658E+01 3.38614E-02-1.72174E-03-2.33207E-01 1.83755E-14 4.60673E-14
 -1      1404 1.79042E+01 3.36260E-02-5.39540E-03-5.20637E-01 7.09341E-14 1.17946E-13
 -1      1405 1.67955E+01 3.91352E-02-1.92124E-03-1.53180E-01 2.25835E-14 5.70724E-15
 -1      1406 1.66247E+01 4.57958E-02-2.67978E-03-1.29144E-01-3.34281E-15 1.16027E-14
 -1      1407 1.74992E+01 6.11542E-02-1.05527E-02-3.71246E-01 6.93542E-15-1.79431E-14
 -1      1408 1.65552E+01 4.78815E-02-2.77149E-03-2.67986E-02-8.38721E-14 1.04270E-14
 -1      1409 1.65393E+01 4.80804E-02-2.84224E-03 5.27803E-04-8.24445E-14-1.00447E-13
 -1      1410 1.72612E+01 7.80794E-02-1.37991E-02-1.50049E-01-7.18748E-14 7.30264E-14
 -1      1411 1.65835E+01 4.60181E-02-2.65024E-03 1.03323E-01 7.82894E-14 2.12235E-14
 -1      1412 1.67230E+01 3.96934E-02-2.02777E-03 1.27600E-01 1.71126E-13 1.14502E-13
 -1      1413 1.72363E+01 7.84101E-02-1.38707E-02 9.91830E-02 6.81564E-14 1.69213E-13
 -1      1414 1.68689E+01 3.43399E-02-1.70232E-03 2.08741E-01 7.31490E-14 1.67623E-13
 -1      1415 1.71318E+01 2.35974E-02-5.31156E-04 2.24799E-01-4.78567E-14 1.88917E-13
 -1      1416 1.74255E+01 6.19756E-02-1.07230E-02 3.22338E-01 1.74757E-13 3.55516E-13
 -1      1417 1.73471E+01 1.71206E-02-4.36944E-04 2.69896E-01-1.41914E-13 1.64728E-13
 -1      1418 1.76793E+01 5.18933E-03 1.04682E-03 2.75549E-01-1.94820E-13-5.38666E-14
 -1      1419 1.77841E+01 3.45392E-02-5.57502E-03 4.74658E-01-1.71224E-13 2.82269E-13
 -1      1420 1.79227E+01-1.18620E-04 5.97478E-04 2.81905E-01-2.12697E-13-2.64158E-13
 -1      1421 1.82658E+01-1.03034E-02 2.15386E-03 2.78206E-01-1.24981E-13-4.68578E-13
 -1      1422 1.82377E+01 4.91837E-03-2.10752E-04 5.35568E-01-3.39891E-13 1.08117E-14
 -1      1423 1.84989E+01-1.30435E-02 1.08966E-03 2.53447E-01 1.30204E-13-4.24567E-13
 -1      1424 1.88055E+01-1.97912E-02 2.53733E-03 2.43578E-01 1.67903E-13-3.23365E-13
 -1      1425 1.87064E+01-1.89756E-02 3.89713E-03 5.11653E-01 2.53068E-14-8.48757E-14
 -1      1426 1.90016E+01-1.97485E-02 1.03015E-03 2.00833E-01 2.43074E-14-4.34132E-14
 -1      1427 1.92440E+01-2.27699E-02 2.26563E-03 1.88546E-01 1.88382E-14 5.88436E-14
 -1      1428 1.91259E+01-3.28201E-02 6.07330E-03 4.28679E-01 2.48869E-13 1.00819E-13
 -1      1429 1.93909E+01-2.05841E-02 5.94288E-04 1.41253E-01 1.02476E-13 2.09069E-14
 -1      1430 1.95617E+01-2.05825E-02 1.58825E-03 1.29678E-01 1.93799E-13 1.78807E-13
 -1      1431 1.94585E+01-3.62765E-02 6.40445E-03 3.19121E-01 1.36403E-13 2.09714E-13
 -1      1432 1.96597E+01-1.72077E-02 2.89486E-06 8.81139E-02 1.83526E-13 2.00092E-13
 -1      1433 1.97672E+01-1.53736E-02 7.72893E-04 7.92378E-02 9.87216E-14 3.15278E-13
 -1      1434 1.96938E+01-3.17357E-02 5.41666E-03 2.11625E-01 2.38264E-13 1.81125E-13
 -1      1435 1.98255E+01-1.17928E-02-5.50451E-04 4.90144E-02-1.52994E-13 2.44495E-13
 -1      1436 1.98866E+01-9.39602E-03 9.86304E-05 4.35422E-02-1.28445E-13 4.92790E-14
 -1      1437 1.98418E+01-2.28835E-02 3.75567E-03 1.25267E-01-3.62683E-14 6.04729E-14
 -1      1438 1.99176E+01-6.43856E-03-8.34275E-04 2.55474E-02 5.25283E-14 5.44104E-15
 -1      1439 1.99506E+01-4.66041E-03-1.50458E-04 2.30413E-02 4.82555E-14 9.51208E-14
 -1      1440 1.99246E+01-1.33656E-02 2.10566E-03 6.76432E-02-1.11943E-13-8.34435E-15
 -1      1441 1.99665E+01-3.50784E-03-5.13213E-04 1.36711E-02 2.63233E-14 1.14241E-13
 -1      1442 1.99844E+01-3.16627E-03 2.74561E-04 1.24045E-02-1.11601E-14 1.39366E-13
 -1      1443 1.99671E+01-6.53263E-03 1.33296E-03 3.55428E-02 1.22744E-13-1.86221E-14
 -1      1444 1.99963E+01-3.23875E-03 1.10217E-03 2.46947E-03-1.30303E-13 9.69233E-14
 -1      1445 1.99923E+01-8.25125E-03 1.01348E-03 1.38212E-02-1.28071E-13-6.17626E-14
 -1      1446 2.07550E+01 3.27483E-01-1.76332E-01 8.49841E-01 2.05502E-13 1.13772E-12
 -1      1447 2.21421E+01 1.87735E-01-4.00721E-01 1.36298E+00 2.16563E-13 1.39580E-12
 -1      1448 1.96546E+01 9.39834E-02-1.84457E-02 3.46744E-01 1.54272E-13 8.12007E-13
 -1      1449 2.01476E+01 1.60421E-01-8.03999E-02 4.20103E-01 1.74562E-13 1.04615E-12
 -1      1450 2.10386E+01 4.14122E-01-1.02761E-01 1.33664E+00 3.47014E-13 6.03472E-13
 -1      1451 1.91180E+01 4.30938E-02 1.25895E-02 1.25125E-01 9.86763E-14 5.71009E-13
 -1      1452 1.92823E+01 6.74925E-02 1.11208E-03 1.43876E-01 1.15950E-13 7.17718E-13
 -1      1453 1.99613E+01 1.40866E-01-3.70084E-02 5.31589E-01 2.68018E-13 4.58916E-13
 -1      1454 1.89261E+01 2.02211E-02 1.12057E-02 2.22848E-02 8.66737E-14 3.77136E-13
 -1      1455 1.89503E+01 3.27105E-02 1.30282E-02 3.21020E-02 9.14832E-14 4.96960E-13
 -1      1456 1.94633E+01 5.85746E-02-9.07797E-03 1.82214E-01 1.82158E-13 2.84422E-13
 -1      1457 1.89061E+01 9.49079E-03 6.60389E-03-2.77786E-02 8.00438E-14 2.05450E-13
 -1      1458 1.88661E+01 1.65708E-02 8.95997E-03-2.29526E-02 7.05980E-14 3.17352E-13
 -1      1459 1.92438E+01 2.56063E-02-3.62007E-03 1.71764E-02 1.57888E-13 1.59165E-13
 -1      1460 1.89733E+01 3.75874E-03 3.73085E-03-5.18935E-02 4.93429E-14 9.70743E-14
 -1      1461 1.89040E+01 8.21080E-03 4.81200E-03-4.98701E-02 7.62211E-14 1.65670E-13
 -1      1462 1.91810E+01 1.07783E-02-2.28944E-03-6.45450E-02 1.38140E-13 9.24191E-14
 -1      1463 1.90821E+01 4.83618E-04 2.26086E-03-6.15991E-02 2.34564E-14 4.99071E-14
 -1      1464 1.90018E+01 3.40483E-03 2.51495E-03-6.12510E-02 3.81580E-14 8.06508E-14
 -1      1465 1.92040E+01 3.12623E-03-1.38269E-03-1.03177E-01 7.82551E-14 2.99235E-14
 -1      1466 1.92064E+01-1.36678E-03 1.47295E-03-6.29966E-02 5.54730E-14-2.00005E-14
 -1      1467 1.91253E+01 5.80348E-04 1.37298E-03-6.36281E-02 3.19922E-14 5.07641E-14
 -1      1468 1.92716E+01-1.09997E-03-6.04836E-04-1.17540E-01 6.45465E-14-1.53512E-14
 -1      1469 1.93312E+01-2.34060E-03 9.96334E-04-5.96709E-02 4.37515E-15-7.12113E-14
 -1      1470 1.92550E+01-1.04879E-03 7.73794E-04-6.08370E-02 3.46435E-14-2.52732E-14
 -1      1471 1.93595E+01-3.37873E-03-3.28392E-05-1.17900E-01 6.25168E-14-3.44425E-14
 -1      1472 1.94481E+01-2.75512E-03 6.81441E-04-5.38514E-02 1.60141E-14-1.06432E-13
 -1      1473 1.93797E+01-1.92125E-03 4.30299E-04-5.52606E-02 1.39538E-14-7.81502E-14
 -1      1474 1.94531E+01-4.47658E-03 3.28337E-04-1.10384E-01 3.65391E-14-2.70286E-14
 -1      1475 1.95528E+01-2.80889E-03 4.65980E-04-4.69700E-02 1.18049E-14-1.66977E-13
 -1      1476 1.94934E+01-2.30135E-03 2.23273E-04-4.84307E-02 2.56583E-14-1.21507E-13
 -1      1477 1.95440E+01-4.83067E-03 5.23013E-04-9.88411E-02 5.17492E-14-4.84248E-14
 -1      1478 1.96436E+01-2.64085E-03 2.95055E-04-3.99489E-02 4.55275E-14-2.41498E-13
 -1      1479 1.95934E+01-2.35277E-03 9.93856E-05-4.13473E-02 5.64887E-14-1.65408E-13
 -1      1480 1.96274E+01-4.71210E-03 5.96893E-04-8.57516E-02 7.02806E-14-1.01732E-13
 -1      1481 1.97173E+01-2.32861E-03 2.18085E-04-3.37126E-02 2.91734E-14-3.33693E-13
 -1      1482 1.96772E+01-2.28267E-03-7.86974E-07-3.48871E-02 2.24600E-14-2.78086E-13
 -1      1483 1.96997E+01-4.25022E-03 6.44577E-04-7.29860E-02 8.64094E-14-1.25971E-13
 -1      1484 1.97829E+01-1.92073E-03 1.64687E-04-2.79632E-02 2.27341E-14-4.01073E-13
 -1      1485 1.97480E+01-1.92789E-03 6.64270E-07-2.90170E-02 2.79273E-14-3.90213E-13
 -1      1486 1.97625E+01-3.74274E-03 5.34318E-04-6.13985E-02 8.73331E-14-2.22607E-13
 -1      1487 1.98380E+01-1.44389E-03 1.36649E-04-2.33086E-02-5.41633E-14-3.02166E-13
 -1      1488 1.98091E+01-1.55762E-03-1.14467E-05-2.41256E-02-3.02292E-14-3.46537E-13
 -1      1489 1.98180E+01-3.02443E-03 4.45350E-04-5.12125E-02-3.68264E-14-2.30090E-13
 -1      1490 1.98852E+01-9.10545E-04 1.37817E-04-1.99446E-02-2.68619E-14-1.83601E-13
 -1      1491 1.98607E+01-1.10490E-03 1.67494E-06-2.05021E-02-4.04531E-14-2.17939E-13
 -1      1492 1.98659E+01-2.22740E-03 3.25178E-04-4.32799E-02-9.72791E-14-6.37764E-14
 -1      1493 1.99276E+01-3.07089E-04 1.66535E-04-1.80596E-02-1.82103E-14-1.68184E-13
 -1      1494 1.99058E+01-5.78450E-04 3.18213E-05-1.83274E-02 4.49108E-15-1.73627E-13
 -1      1495 1.99083E+01-1.34447E-03 1.81064E-04-3.80039E-02 4.54010E-17 2.65260E-15
 -1      1496 1.99689E+01 4.01285E-04 2.24792E-04-1.78945E-02-3.15603E-14-1.13321E-13
 -1      1497 1.99475E+01 4.34626E-05 7.70245E-05-1.78273E-02 7.90757E-15-1.23962E-13
 -1      1498 1.99480E+01-3.41150E-04 1.09593E-05-3.58127E-02-3.33831E-14 9.51618E-15
 -1      1499 2.00134E+01 1.27700E-03 3.17852E-04-1.98096E-02 1.03854E-13-2.26898E-13
 -1      1500 1.99900E+01 8.07958E-04 1.37206E-04-1.93349E-02 3.46969E-14-1.43313E-13
 -1      1501 1.99882E+01 8.56024E-04-1.93474E-04-3.72862E-02 1.64763E-14 1.60996E-14
 -1      1502 2.00666E+01 2.42092E-03 4.54381E-04-2.43733E-02 2.65605E-15-2.60438E-13
 -1      1503 2.00380E+01 1.79621E-03 2.13197E-04-2.33732E-02 5.69347E-14-2.76834E-13
 -1      1504 2.00330E+01 2.37342E-03-4.47769E-04-4.33050E-02 1.25751E-13 8.65977E-15
 -1      1505 2.01360E+01 3.99047E-03 6.46070E-04-3.24874E-02 2.33879E-14-2.63850E-13
 -1      1506 2.00978E+01 3.13866E-03 3.05252E-04-3.07722E-02-1.63801E-15-2.41898E-13
 -1      1507 2.00875E+01 4.41517E-03-7.76845E-04-5.52501E-02-1.72063E-15-4.67123E-14
 -1      1508 2.02316E+01 6.22798E-03 9.05356E-04-4.55751E-02-3.09644E-14-1.81627E-13
 -1      1509 2.01777E+01 5.04004E-03 4.09803E-04-4.28422E-02 2.61022E-14-2.07698E-13
 -1      1510 2.01586E+01 7.30455E-03-1.21878E-03-7.52917E-02 2.59484E-14-2.76647E-14
 -1      1511 2.03679E+01 9.50260E-03 1.23816E-03-6.58644E-02-3.15609E-14-2.11669E-13
 -1      1512 2.02896E+01 7.81819E-03 5.12138E-04-6.16350E-02-2.07388E-14-2.30661E-13
 -1      1513 2.02555E+01 1.15496E-02-1.83081E-03-1.06819E-01-2.87003E-14-2.44407E-14
 -1      1514 2.05662E+01 1.43669E-02 1.62477E-03-9.68125E-02 6.10883E-15-1.72522E-13
 -1      1515 2.04502E+01 1.19607E-02 5.70217E-04-9.03332E-02 9.95211E-15-9.91206E-14
 -1      1516 2.03913E+01 1.79427E-02-2.69848E-03-1.55076E-01-4.89860E-14-1.12575E-13
 -1      1517 2.08578E+01 2.16713E-02 2.00475E-03-1.43692E-01 7.98018E-14-2.90659E-13
 -1      1518 2.06842E+01 1.82006E-02 4.78619E-04-1.33807E-01 4.77712E-14-2.16313E-13
 -1      1519 2.05844E+01 2.77006E-02-3.94693E-03-2.28082E-01 8.11404E-14-6.66388E-14
 -1      1520 2.12883E+01 3.27511E-02 1.96498E-03-2.14562E-01 9.67507E-14-4.42489E-13
 -1      1521 2.10275E+01 2.71727E-02-1.43871E-04-1.99307E-01 9.50316E-14-3.28564E-13
 -1      1522 2.08607E+01 4.27551E-02-5.72974E-03-3.37920E-01 1.31038E-13-9.34526E-14
 -1      1523 2.18883E+01 4.71043E-02 1.24365E-03-3.14245E-01-3.07133E-14-4.04947E-13
 -1      1524 2.15186E+01 4.08255E-02-1.50017E-03-2.93609E-01 1.57227E-14-4.96941E-13
 -1      1525 2.12445E+01 6.44185E-02-8.24203E-03-4.96965E-01 1.11090E-13-1.53191E-13
 -1      1526 2.28074E+01 6.72145E-02-1.71462E-03-4.67272E-01 1.53584E-14-3.85920E-13
 -1      1527 2.22306E+01 6.00424E-02-4.67239E-03-4.33417E-01 1.13885E-15-3.54914E-13
 -1      1528 2.17883E+01 9.64361E-02-1.22342E-02-7.29021E-01-9.24955E-15-9.13802E-14
 -1      1529 2.41392E+01 9.08890E-02-7.60628E-03-6.85183E-01-1.01754E-13-3.22041E-13
 -1      1530 2.32899E+01 8.61804E-02-1.10181E-02-6.36347E-01-3.10758E-14-3.73132E-13
 -1      1531 2.25723E+01 1.39354E-01-1.81937E-02-1.06907E+00-4.82912E-14-4.33017E-14
 -1      1532 2.60055E+01 1.07599E-01-1.51285E-02-9.72310E-01-4.60777E-14-1.49374E-13
 -1      1533 2.48001E+01 1.13764E-01-2.11214E-02-9.07053E-01-7.09641E-14-2.22170E-13
 -1      1534 2.36576E+01 1.87347E-01-2.53995E-02-1.53105E+00-1.75341E-13 1.16704E-14
 -1      1535 2.84567E+01 8.71431E-02-1.41864E-02-1.28810E+00-3.27620E-14-1.53724E-13
 -1      1536 2.68706E+01 1.24412E-01-2.98375E-02-1.21732E+00-1.86604E-14-1.22513E-13
 -1      1537 2.51102E+01 2.09964E-01-3.04067E-02-2.08854E+00-5.03139E-14 9.39474E-14
 -1      1538 3.12864E+01-3.41950E-02 1.92988E-02-1.47190E+00-1.62795E-14-1.04056E-13
 -1      1539 2.95083E+01 6.82536E-02-1.75144E-02-1.44140E+00 2.97579E-14-7.33719E-14
 -1      1540 2.69524E+01 1.23929E-01-2.23970E-02-2.58494E+00-4.50908E-14 1.92936E-13
 -1      1541 3.37222E+01-3.33797E-01 1.01703E-01-1.13975E+00-5.58928E-14 2.42896E-14
 -1      1542 3.24186E+01-1.47220E-01 5.05712E-02-1.26311E+00-9.62772E-14-8.53345E-14
 -1      1543 2.91001E+01-2.29970E-01 1.55347E-02-2.59068E+00-1.19495E-13 2.15977E-13
 -1      1544 3.42568E+01-7.31808E-01 1.54858E-01 2.37063E-01-2.06779E-14 1.59900E-13
 -1      1545 3.46925E+01-5.80484E-01 1.72973E-01-1.83244E-01-1.82840E-14 2.22171E-13
 -1      1546 3.12714E+01-9.70961E-01 7.75903E-02-1.34341E+00-8.27532E-14 3.24973E-13
 -1      1547 3.14959E+01-6.96287E-01-8.56688E-02 2.43200E+00-1.05870E-14 4.79616E-14
 -1      1548 3.46391E+01-8.60694E-01 2.00162E-01 1.89081E+00 2.25236E-14 7.93809E-14
 -1      1549 3.28693E+01-1.66478E+00 7.35938E-02 1.71597E+00 3.71647E-14 5.28600E-13
 -1      1550 2.73249E+01 2.75992E-01-5.44351E-01 3.32074E+00 8.49321E-14-1.05249E-13
 -1      1551 3.11988E+01-2.55600E-01-1.31225E-01 3.36623E+00 3.20577E-14-4.47420E-14
 -1      1552 3.32437E+01-1.09757E+00-9.99466E-02 4.87519E+00 1.28814E-13 9.38694E-14
 -1      1553 2.46873E+01 1.49517E+00-8.57328E-01 1.28300E+00 5.48450E-14-1.94809E-13
 -1      1554 2.65764E+01 9.72531E-01-6.94336E-01 2.09884E+00 7.98250E-14-1.46161E-13
 -1      1555 3.24212E+01 1.32081E+00-3.58242E-01 4.82260E+00 1.89793E-13 3.70468E-14
 -1      1556 2.63180E+01 1.16613E+00-6.80366E-01-1.79508E+00-3.94129E-15-9.23150E-14
 -1      1557 2.46143E+01 1.30005E+00-9.42300E-01-1.19509E+00 2.67009E-14-1.69004E-13
 -1      1558 3.21161E+01 3.40112E+00-1.89491E-01 4.00606E-01 6.47260E-14-7.72550E-14
 -1      1559 2.98467E+01 1.04409E-01-2.91123E-01-3.24480E+00-5.74263E-14-1.48215E-13
 -1      1560 2.67072E+01 5.19303E-01-6.33870E-01-3.16095E+00-6.67799E-14-8.04912E-14
 -1      1561 3.22756E+01 1.86198E+00-3.11625E-01-4.07121E+00-6.46705E-14-1.64466E-13
 -1      1562 3.39264E+01-8.78510E-01 1.31484E-01-2.26439E+00-2.51309E-14-7.31637E-14
 -1      1563 3.05645E+01-5.63532E-01-1.59505E-01-2.77190E+00-7.86315E-14-7.46070E-14
 -1      1564 3.29638E+01-4.78815E-01-1.21146E-01-5.06388E+00-7.16927E-14-2.27152E-13
 -1      1565 3.46690E+01-7.06577E-01 1.90254E-01-2.30135E-01 4.54359E-14 1.22097E-13
 -1      1566 3.37551E+01-7.86169E-01 1.43499E-01-7.01371E-01-1.64452E-14 7.94365E-14
 -1      1567 3.29313E+01-1.61344E+00 9.68536E-02-2.40331E+00-9.78891E-14 6.12600E-14
 -1      1568 3.27664E+01-2.42357E-01 7.75517E-02 1.12438E+00-4.55434E-14 2.36242E-13
 -1      1569 3.38178E+01-4.27612E-01 1.30999E-01 9.33091E-01 4.20497E-14 2.14963E-13
 -1      1570 3.15348E+01-1.16538E+00 1.03586E-01 8.17563E-01-6.86257E-14 2.15859E-13
 -1      1571 2.98300E+01 3.10475E-02-5.26092E-03 1.48597E+00-2.06519E-15 6.11455E-14
 -1      1572 3.16143E+01-9.34868E-02 3.60239E-02 1.48975E+00 3.90556E-14 6.79595E-14
 -1      1573 2.93739E+01-3.74990E-01 3.50480E-02 2.48490E+00 5.87100E-14 3.98848E-14
 -1      1574 2.69849E+01 1.16990E-01-2.73280E-02 1.33644E+00-9.37792E-15 2.60889E-13
 -1      1575 2.86975E+01 6.24690E-02-1.11843E-02 1.40030E+00-7.49444E-14 5.64132E-14
 -1      1576 2.71156E+01 6.36498E-02-1.43451E-02 2.72124E+00-9.71306E-14-1.55626E-13
 -1      1577 2.46472E+01 1.17816E-01-2.12802E-02 1.04258E+00-4.75306E-14 2.99046E-13
 -1      1578 2.60127E+01 1.00801E-01-1.73947E-02 1.10778E+00-9.38485E-15 3.46792E-13
 -1      1579 2.51005E+01 1.97404E-01-2.83921E-02 2.31758E+00-4.88741E-14-7.51899E-14
 -1      1580 2.28723E+01 9.47221E-02-1.12576E-02 7.63953E-01 2.19930E-13 1.27558E-13
 -1      1581 2.38771E+01 9.18276E-02-9.93627E-03 8.14718E-01 2.03573E-13 3.83825E-13
 -1      1582 2.34546E+01 1.94344E-01-2.51844E-02 1.77400E+00 6.71112E-14 1.40891E-13
 -1      1583 2.15873E+01 7.43941E-02-5.52786E-03 5.38302E-01 1.63123E-13-3.29799E-13
 -1      1584 2.22931E+01 7.40375E-02-3.39165E-03 5.76384E-01 2.40757E-13-7.85413E-14
 -1      1585 2.21836E+01 1.56313E-01-1.88651E-02 1.28817E+00 3.79141E-13-1.88769E-13
 -1      1586 2.07145E+01 6.48939E-02-4.47847E-03 3.51247E-01-4.72721E-14-2.47990E-13
 -1      1587 2.11735E+01 6.25898E-02-1.95601E-03 3.84135E-01-1.27997E-13-2.74265E-13
 -1      1588 2.12448E+01 1.25780E-01-1.54139E-02 8.90494E-01 2.61666E-14-4.38463E-13
 -1      1589 2.02042E+01 6.60673E-02-1.89661E-03 1.69602E-01-1.31815E-13 1.17606E-13
 -1      1590 2.04375E+01 7.13128E-02-2.67273E-03 2.07315E-01 1.58419E-14 5.05286E-14
 -1      1591 2.05902E+01 1.22663E-01-1.32342E-02 5.47674E-01-1.96777E-13-2.62130E-13
 -1      1592 2.00199E+01 3.24479E-02-6.27210E-04 8.13890E-03 6.92812E-14 7.04671E-14
 -1      1593 2.00455E+01 4.14284E-01-8.64828E-03 2.09302E-01-2.07737E-13-3.44022E-13
 -1      1594 2.00543E+01 2.09484E-01-1.23420E-03 1.66836E-01 1.13177E-13-3.55235E-13
 -1      1595 2.00053E+01 9.74512E-01-2.78693E-03 2.89711E-01-3.22759E-13-6.78570E-15
 -1      1596 2.00279E+01 6.47650E-01-4.05059E-03 2.77074E-01-1.76392E-13-1.57668E-13
 -1      1597 2.00567E+01 5.78992E-01-7.66278E-03 4.69279E-01 7.27716E-16-3.86865E-13
 -1      1598 1.99683E+01 1.53997E+00 2.26403E-03 2.66236E-01-3.20188E-13-1.68756E-14
 -1      1599 1.99864E+01 1.21892E+00-1.55263E-04 2.79954E-01-3.68920E-13 1.25223E-13
 -1      1600 1.99990E+01 1.05308E+00 3.06165E-03 5.44777E-01-3.91666E-14 1.02217E-13
 -1      1601 1.99500E+01 1.93939E+00 4.34160E-03 1.63673E-01-1.39697E-14 5.10746E-14
 -1      1602 1.99593E+01 1.72633E+00 2.93816E-03 1.90045E-01-2.02588E-13 2.29516E-13
 -1      1603 1.99421E+01 1.48507E+00 1.16143E-02 4.34139E-01-1.80038E-13 2.64922E-13
 -1      1604 1.99494E+01 2.08062E+00 4.11956E-03 3.04404E-02-4.46320E-13-1.68835E-13
 -1      1605 1.99489E+01 2.02258E+00 3.47999E-03 5.84869E-02-1.20712E-13-3.49208E-13
 -1      1606 1.99176E+01 1.75121E+00 1.56968E-02 2.11057E-01-2.98389E-13-3.77033E-13
 -1      1607 1.99621E+01 1.96203E+00 2.50725E-03-9.47371E-02-2.50498E-13-8.40777E-15
 -1      1608 1.99547E+01 2.05331E+00 2.62494E-03-7.17325E-02-2.64694E-13 9.31772E-14
 -1      1609 1.99203E+01 1.80174E+00 1.43690E-02-4.11493E-02 1.79037E-13-1.22801E-13
 -1      1610 1.99812E+01 1.64059E+00 4.83572E-04-1.79888E-01 6.19487E-14 1.55951E-13
 -1      1611 1.99704E+01 1.84027E+00 9.60217E-04-1.67179E-01-6.53765E-14 1.09514E-13
 -1      1612 1.99434E+01 1.64601E+00 9.69962E-03-2.52467E-01 6.93703E-14 1.35962E-13
 -1      1613 1.99999E+01 1.21466E+00-1.11920E-03-2.13718E-01 3.37057E-13 1.27120E-13
 -1      1614 1.99895E+01 1.46328E+00-4.86985E-04-2.11752E-01 9.09897E-14 2.49552E-13
 -1      1615 1.99748E+01 1.34256E+00 3.70107E-03-3.77295E-01 3.08909E-13 2.71678E-13
 -1      1616 2.00137E+01 7.82700E-01-1.95337E-03-2.01436E-01 4.04539E-13 1.00322E-13
 -1      1617 2.00060E+01 1.02422E+00-1.32905E-03-2.07770E-01 3.15992E-13 1.41992E-13
 -1      1618 2.00042E+01 9.73434E-01-1.61501E-03-4.06696E-01 4.64647E-13 1.88069E-13
 -1      1619 2.00206E+01 4.18975E-01-2.00493E-03-1.58176E-01-3.62589E-13-4.89083E-13
 -1      1620 2.00166E+01 6.13661E-01-1.53449E-03-1.69095E-01 2.76943E-13-2.32507E-13
 -1      1621 2.00247E+01 6.15532E-01-5.10231E-03-3.58588E-01 2.01924E-13-2.03055E-13
 -1      1622 2.00210E+01 1.65561E-01-1.58137E-03-1.03028E-01-8.45481E-13-6.06251E-14
 -1      1623 2.00207E+01 2.94016E-01-1.17516E-03-1.14542E-01-3.59331E-13-4.30044E-13
 -1      1624 2.00338E+01 3.25086E-01-6.58920E-03-2.65406E-01-2.96328E-13-7.71969E-13
 -1      1625 2.00168E+01 1.87623E-02-8.84810E-04-4.97074E-02-6.60481E-13 2.06152E-13
 -1      1626 2.00189E+01 8.57265E-02-6.74593E-04-5.96347E-02-8.20716E-13 3.21248E-13
 -1      1627 2.00332E+01 1.24484E-01-6.15158E-03-1.59832E-01-2.23783E-13 7.13049E-14
 -1      1628 2.00101E+01-3.59810E-02-4.75811E-05-1.00327E-02-2.41190E-13 2.36245E-13
 -1      1629 2.00136E+01-1.83422E-02-3.22006E-06-1.63394E-02-5.42750E-13 2.87888E-13
 -1      1630 2.00251E+01 1.21586E-02-4.63423E-03-6.68715E-02-2.28530E-14 3.27552E-13
 -1      1631 2.00033E+01-3.31279E-02 9.56809E-04 9.32691E-03-2.17026E-13 1.12847E-13
 -1      1632 2.00053E+01-4.34998E-02 3.43442E-04 8.46850E-03-2.64763E-13 7.67482E-14
 -1      1633 2.00138E+01-2.81911E-02-2.26238E-03-4.10306E-03-9.40619E-14 8.18737E-14
 -1      1634 1.99974E+01-1.49751E-02 6.23699E-04 1.52204E-02-1.66361E-13-9.73016E-14
 -1      1635 1.99999E+01-2.95364E-02 3.69171E-04 1.76228E-02-1.40292E-13 2.82544E-14
 -1      1636 2.00037E+01-2.41985E-02 8.01215E-04 2.43083E-02-8.40135E-14 1.35146E-13
 -1      1637 1.99851E+01-1.43431E-02-1.03657E-03 2.83483E-02-2.69099E-16-7.35127E-14
 -1      1638-1.17222E+00-1.79348E+01-1.91267E+00-2.29786E+00-1.08802E-14-4.63241E-14
 -1      1639-9.10793E-01-1.89865E+01-1.93687E+00-5.68557E-01 2.92696E-13-1.68088E-13
 -1      1640-6.07527E-02-1.25021E+01-1.69253E+00-1.74281E+00 5.78426E-14 2.50078E-14
 -1      1641-2.91697E-01-1.69499E+01-2.00629E+00-1.63048E+00 7.54952E-15-1.18516E-14
 -1      1642 4.44087E+00-4.65645E+00-1.26964E+00 1.71993E+00 1.44107E-13-5.86198E-14
 -1      1643 1.95023E+00-1.07371E+01-1.94902E+00-8.18123E-01 1.04361E-14 1.23068E-13
 -1      1644 1.77969E+01 1.49080E+00-3.05039E-01 7.84881E+00 2.06724E-13-1.46549E-14
 -1      1645 1.02771E+01-3.26857E+00-1.35887E+00 3.45491E+00 1.77192E-13 7.53841E-14
 -1      1646 3.53820E+01 4.84288E+00 9.72149E-01 1.19370E+01 1.03029E-13-2.02061E-13
 -1      1647 2.39237E+01 3.24455E+00-3.92746E-01 8.74151E+00 1.24456E-13-2.33147E-14
 -1      1648 5.41527E+01 4.58470E+00 2.30587E+00 1.07927E+01-9.60343E-14-1.18350E-13
 -1      1649 4.18440E+01 5.71626E+00 1.00339E+00 1.16352E+01 1.13021E-13-1.14797E-13
 -1      1650 6.54520E+01 3.78448E+00 3.05457E+00 4.20913E+00 1.61871E-13-4.80838E-13
 -1      1651 5.85893E+01 5.12125E+00 2.43689E+00 9.15993E+00-3.77337E-14-2.87548E-13
 -1      1652 6.49549E+01 4.28380E+00 2.95722E+00-4.05448E+00 2.81442E-14-2.75113E-13
 -1      1653 6.62575E+01 4.00169E+00 3.05283E+00 2.08428E+00 1.50879E-13-3.38451E-13
 -1      1654 5.44915E+01 5.37957E+00 2.11328E+00-1.05919E+01 2.30094E-13-4.00791E-13
 -1      1655 6.33437E+01 3.81674E+00 2.91744E+00-6.69596E+00 9.60065E-14-2.46247E-13
 -1      1656 3.56473E+01 4.98558E+00 4.77788E-01-1.06734E+01 8.11018E-13-7.99139E-13
 -1      1657 4.85831E+01 4.68116E+00 1.89891E+00-1.13923E+01 5.05818E-13-3.33733E-13
 -1      1658 1.86907E+01 3.85646E-01-8.25649E-01-6.22449E+00 1.05516E-12-9.82769E-13
 -1      1659 2.91977E+01 3.20108E+00 4.35492E-01-1.01245E+01 8.02136E-13-9.28146E-13
 -1      1660 6.62118E+00-6.22488E+00-1.57194E+00-1.69635E+00 1.48859E-12-9.52349E-13
 -1      1661 1.20626E+01-6.90369E-01-6.87920E-01-5.59648E+00 1.23657E-12-7.91589E-13
 -1      1662 9.93412E-01-1.35413E+01-1.87770E+00 1.19078E+00 1.60871E-12-6.43541E-13
 -1      1663 2.34386E+00-7.83757E+00-1.37619E+00-1.81251E-01 1.61182E-12-9.06608E-13
 -1      1664-6.61403E-01-1.77610E+01-1.84707E+00 1.08156E+00 1.21997E-12-6.07236E-13
 -1      1665-7.85627E-01-1.47142E+01-1.67619E+00 2.11164E+00 1.64879E-12-6.90781E-13
 -1      1666-8.27829E-01-1.75376E+01-1.77342E+00 2.34356E-02-6.28386E-14-6.30329E-13
 -1      1667-1.03507E+00-1.86487E+01-1.89481E+00 1.87728E+00 9.16753E-13-7.05269E-13
 -1      1668 2.48787E-01-1.18744E+01-1.42233E+00-3.13631E-02-1.04494E-12-6.39350E-13
 -1      1669-5.05032E-02-1.66171E+01-1.85235E+00 4.45716E-01-4.23772E-13-4.71789E-13
 -1      1670 3.97020E+00-3.31647E+00-8.18398E-01 2.99542E+00-1.48659E-12-8.13349E-13
 -1      1671 2.10175E+00-9.56288E+00-1.51670E+00 9.56163E-01-1.33782E-12-7.07878E-13
 -1      1672 1.34319E+01 3.74321E+00-2.83649E-02 8.59218E+00-1.36224E-12-1.18838E-12
 -1      1673 8.13725E+00-1.17968E+00-8.72260E-01 4.71879E+00-1.44662E-12-1.00275E-12
 -1      1674 2.61482E+01 7.44405E+00 6.54396E-01 1.30758E+01-1.09091E-12-1.16662E-12
 -1      1675 1.77942E+01 5.94673E+00-1.55094E-01 9.90438E+00-1.28908E-12-1.21636E-12
 -1      1676 4.17687E+01 6.24881E+00 1.22443E+00 1.23805E+01-5.01099E-13-9.05498E-13
 -1      1677 3.21093E+01 7.28595E+00 5.31028E-01 1.22538E+01-8.54872E-13-1.02340E-12
 -1      1678 5.39401E+01 4.76960E+00 1.76962E+00 8.32048E+00-3.04839E-13-8.77298E-13
 -1      1679 4.65769E+01 6.54868E+00 1.20680E+00 1.18311E+01-3.86163E-13-9.83214E-13
 -1      1680 5.88055E+01 3.68397E+00 1.87871E+00-1.82761E-01-1.63286E-13-2.92821E-13
 -1      1681 5.68457E+01 4.32525E+00 1.76724E+00 5.96683E+00-2.37532E-13-6.65634E-13
 -1      1682 5.27057E+01 5.29343E+00 1.52784E+00-8.62727E+00-2.43638E-13 3.70814E-13
 -1      1683 5.73018E+01 3.98268E+00 1.81291E+00-3.21393E+00-2.48579E-13 4.60743E-14
 -1      1684 4.08184E+01 7.49018E+00 1.05748E+00-1.34390E+01-4.10005E-13 6.86118E-13
 -1      1685 4.96211E+01 5.55665E+00 1.65229E+00-1.13518E+01-1.88211E-13 7.35523E-13
 -1      1686 2.54525E+01 7.29632E+00 2.80964E-01-1.19861E+01-5.52447E-13 8.28670E-13
 -1      1687 3.53974E+01 7.30488E+00 1.13492E+00-1.38713E+01-5.30909E-13 6.46594E-13
 -1      1688 1.25624E+01 3.22981E+00-5.17970E-01-7.39514E+00-9.61009E-13 7.18092E-13
 -1      1689 1.96721E+01 6.54275E+00 4.07431E-01-1.13080E+01-6.67799E-13 7.96252E-13
 -1      1690 4.91299E+00-5.43915E+00-1.19273E+00-2.66887E+00-6.28830E-13 6.81455E-13
 -1      1691 8.70035E+00 7.32473E-01-3.49025E-01-6.05980E+00-9.88098E-13 6.63358E-13
 -1      1692 7.10019E-01-1.38837E+01-1.75683E+00-2.14675E-01 5.73541E-13 4.64212E-13
 -1      1693 1.57050E+00-7.88906E+00-1.14972E+00-9.81538E-01-3.59712E-13 7.74825E-13
 -1      1694-6.52231E-01-1.88776E+01-1.97801E+00-9.53493E-01 4.18610E-13-1.81355E-13
 -1      1695-5.45874E-01-1.57753E+01-1.69163E+00 4.76067E-01 6.34715E-13 1.33227E-14
 -1      1696 2.29489E+01 1.98766E+00-2.67873E-02 2.77335E+00 2.59504E-13 1.07445E-12
 -1      1697 1.38756E+01-6.64315E+00-7.58491E-01 5.06153E+00-2.29816E-14-6.05072E-14
 -1      1698 2.01266E+01 1.21782E-01-7.89366E-03 1.75499E-01 1.35076E-14-2.28835E-13
 -1      1699-6.87328E-01-1.23798E+01-1.38687E+00 6.72510E-01-2.86438E-14-1.13798E-13
 -1      1700 3.88127E+00-1.01378E+01-1.29263E+00 2.72138E+00-2.35700E-13 4.04329E-14
 -1      1701-1.70507E+00-1.30526E+01-1.39934E+00-1.31848E+00 1.64674E-13-3.29792E-13
 -1      1702 2.70659E+01-3.00137E+00-9.13374E-02 5.52222E+00-2.15383E-14-4.45866E-13
 -1      1703 4.03520E+01 1.47329E+00 8.65825E-01 4.72771E+00 1.32394E-13-2.83551E-13
 -1      1704 5.17030E+01 5.25756E+00 2.06254E+00 2.78749E+00 1.59456E-13 2.44249E-14
 -1      1705 5.50592E+01 8.23605E+00 2.48375E+00 4.30505E-01 1.16351E-13-1.42941E-13
 -1      1706 5.46718E+01 7.91886E+00 2.49718E+00-6.38694E-01 2.98650E-14-2.57905E-13
 -1      1707 4.87507E+01 4.12299E+00 1.76451E+00-3.31114E+00 4.00291E-13-1.29896E-13
 -1      1708 3.58241E+01-7.88288E-01 3.82146E-01-4.29607E+00 6.85452E-13-2.90434E-13
 -1      1709 2.26095E+01-4.94661E+00-3.32742E-01-5.29248E+00 7.75380E-13-4.82947E-13
 -1      1710 9.91549E+00-8.10555E+00-9.22661E-01-4.46072E+00 9.17155E-13-4.88526E-13
 -1      1711 1.80692E+00-1.06488E+01-1.20791E+00-2.15809E+00 9.26648E-13-5.18141E-13
 -1      1712-1.52194E+00-1.21190E+01-1.29405E+00 3.00382E-01 6.02074E-13-9.93372E-13
 -1      1713-8.57409E-01-1.20771E+01-1.30562E+00 2.41926E+00 1.16573E-15-9.74554E-13
 -1      1714 3.17805E+00-9.05053E+00-1.02402E+00 4.32012E+00-6.28608E-13-7.69232E-13
 -1      1715 1.09584E+01-4.51463E+00-4.79158E-01 6.70378E+00-9.01168E-13-6.88727E-13
 -1      1716 2.08357E+01-1.44040E-02 4.48747E-02 8.21378E+00-8.15126E-13-6.29274E-13
 -1      1717 3.19949E+01 3.65058E+00 6.63935E-01 8.05034E+00-6.47093E-13-5.21916E-13
 -1      1718 4.11525E+01 5.90277E+00 9.36339E-01 5.76260E+00-4.05231E-13-6.64468E-13
 -1      1719 4.86906E+01 7.54197E+00 1.48702E+00 3.48137E+00-3.79918E-13-5.07872E-13
 -1      1720 4.98645E+01 8.00244E+00 1.54902E+00-7.06059E-01-4.29767E-13-2.19269E-14
 -1      1721 4.60102E+01 7.32719E+00 1.38148E+00-5.02501E+00-4.25215E-13 5.52447E-13
 -1      1722 3.79047E+01 5.36267E+00 9.74876E-01-7.83987E+00-4.84363E-13 6.47038E-13
 -1      1723 2.68805E+01 2.27568E+00 3.86074E-01-8.60821E+00-4.85834E-13 4.87721E-13
 -1      1724 1.60501E+01-2.32498E+00-2.47772E-01-7.53278E+00-5.03930E-13 4.11560E-13
 -1      1725 7.00296E+00-6.96916E+00-7.33141E-01-5.67436E+00-2.26597E-13 9.05914E-13
 -1      1726 6.92040E-01-1.11998E+01-1.22337E+00-3.19473E+00-3.71925E-14 6.57557E-13
 -1      1727 2.28658E+01 1.98543E+00-2.35260E-02-2.72383E+00-2.28401E-13 1.37884E-12
 -1      1728 1.98237E+01 3.71950E+00-3.49145E-02-2.15722E+00-3.75975E-13-1.96912E-13
 -1      1729 2.00535E+01 3.56153E+00-4.29568E-02-2.44363E+00-4.12512E-13-5.90777E-14
 -1      1730 2.03680E+01 3.18317E+00-4.52175E-02-2.58701E+00-3.92997E-13 1.04097E-13
 -1      1731 2.05876E+01 2.81002E+00-1.42665E-01-2.85520E+00-3.95798E-13 3.31325E-13
 -1      1732 2.04323E+01 2.69192E+00-3.10587E-03-2.22330E+00-4.14979E-13 3.10585E-14
 -1      1733 1.93546E+01 4.19016E+00-2.01926E-02-1.27315E+00-2.66283E-13-4.63411E-13
 -1      1734 1.94283E+01 4.15044E+00-1.71732E-02-1.49742E+00-2.95112E-13-4.22291E-13
 -1      1735 1.92573E+01 4.29604E+00-1.67985E-02-8.62662E-01-2.04213E-13-5.15988E-13
 -1      1736 1.93003E+01 4.27206E+00-1.43430E-02-1.07324E+00-2.34856E-13-4.92670E-13
 -1      1737 1.95261E+01 3.78448E+00-9.30449E-03-1.12223E+00-2.66527E-13-4.60911E-13
 -1      1738 1.92051E+01 4.35675E+00-1.47917E-02-4.70267E-01-1.26163E-13-5.34704E-13
 -1      1739 1.92274E+01 4.34382E+00-1.32964E-02-6.70298E-01-1.64614E-13-5.23286E-13
 -1      1740 1.94283E+01 3.90514E+00-9.21914E-03-7.36189E-01-1.95370E-13-4.95135E-13
 -1      1741 1.91851E+01 4.38282E+00-1.36440E-02-8.77246E-02-5.95659E-14-5.35115E-13
 -1      1742 1.91918E+01 4.37874E+00-1.31780E-02-2.82821E-01-9.47945E-14-5.35034E-13
 -1      1743 1.93773E+01 3.97008E+00-9.15977E-03-3.61725E-01-1.17553E-13-5.07427E-13
 -1      1744 1.91925E+01 4.37826E+00-1.31275E-02 2.93261E-01 7.75682E-15-5.35950E-13
 -1      1745 1.91852E+01 4.38243E+00-1.36941E-02 9.81022E-02-2.85622E-14-5.36741E-13
 -1      1746 1.93618E+01 3.99016E+00-9.14279E-03 6.58814E-03-4.72247E-14-5.13240E-13
 -1      1747 1.92290E+01 4.34230E+00-1.32585E-02 6.81053E-01 7.63133E-14-5.41900E-13
 -1      1748 1.92062E+01 4.35546E+00-1.48272E-02 4.80833E-01 4.50143E-14-5.37487E-13
 -1      1749 1.93784E+01 3.96848E+00-9.18637E-03 3.75029E-01 2.48990E-14-5.17295E-13
 -1      1750 1.93016E+01 4.27100E+00-1.42752E-02 1.07751E+00 1.53748E-13-5.23574E-13
 -1      1751 1.92587E+01 4.29450E+00-1.68297E-02 8.70341E-01 1.12866E-13-5.39685E-13
 -1      1752 1.94303E+01 3.90261E+00-9.20337E-03 7.46577E-01 1.01386E-13-5.25940E-13
 -1      1753 1.94319E+01 4.14767E+00-1.70580E-02 1.50580E+00 2.44537E-13-4.67910E-13
 -1      1754 1.93562E+01 4.18832E+00-2.02297E-02 1.27753E+00 1.99022E-13-4.96480E-13
 -1      1755 1.95287E+01 3.78140E+00-9.25176E-03 1.12970E+00 1.96718E-13-4.83513E-13
 -1      1756 1.96585E+01 3.93739E+00-2.46017E-02 1.96824E+00 3.25061E-13-3.90094E-13
 -1      1757 1.95275E+01 4.01166E+00-2.61519E-02 1.71315E+00 2.81615E-13-4.41251E-13
 -1      1758 1.97000E+01 3.57874E+00-8.77499E-03 1.52905E+00 2.84889E-13-4.24095E-13
 -1      1759 2.00667E+01 3.54837E+00-4.35047E-02 2.45387E+00 3.91510E-13-2.06300E-13
 -1      1760 1.98327E+01 3.71008E+00-3.51030E-02 2.16789E+00 3.47901E-13-3.17704E-13
 -1      1761 1.99892E+01 3.24741E+00-5.20299E-03 1.92658E+00 3.60344E-13-3.25897E-13
 -1      1762 2.06130E+01 2.79375E+00-1.38131E-01 2.86989E+00 4.11594E-13 1.39271E-13
 -1      1763 2.03850E+01 3.16327E+00-4.58024E-02 2.59962E+00 3.89389E-13-5.64548E-14
 -1      1764 2.04701E+01 2.67027E+00 4.48258E-03 2.24050E+00 4.12117E-13-1.08431E-13
 -1      1765 2.00387E+01-5.90314E+00-1.51690E-01 5.95141E+00-1.65978E-13-3.88745E-13
 -1      1766 1.37923E+01-7.26522E+00-4.66449E-01 5.12532E+00-2.16271E-13-1.70225E-13
 -1      1767 2.18026E+01 2.45877E+00 9.09430E-02-3.04992E+00-3.19253E-13 7.19813E-13
 -1      1768 2.18354E+01 2.47487E+00 8.92669E-02 3.09008E+00 3.50943E-13 4.64462E-13
 -1      1769 2.05251E+01 5.01115E-01 3.25026E-02-9.22571E-01-2.81976E-13 4.75257E-13
 -1      1770 2.00932E+01 3.52301E-01 7.66606E-03-6.30472E-01-2.57593E-13 4.02342E-13
 -1      1771 1.98985E+01 2.57515E-01 2.74485E-02-3.91947E-01-2.28679E-13 3.80918E-13
 -1      1772 1.97073E+01 1.78254E-01 1.04237E-02-2.54002E-01-2.03567E-13 3.15555E-13
 -1      1773 2.02024E+01 4.83728E-01-5.90891E-03-7.23574E-01-3.01336E-13 1.80918E-13
 -1      1774 1.95851E+01 1.32933E-01 1.66609E-02-1.20302E-01-1.62574E-13 3.01871E-13
 -1      1775 1.95069E+01 9.32604E-02 6.95421E-03-4.94048E-02-1.30932E-13 2.48359E-13
 -1      1776 1.98761E+01 2.44198E-01-5.80992E-03-2.96269E-01-2.25177E-13 1.37248E-13
 -1      1777 1.94419E+01 6.85639E-02 8.68700E-03 2.42485E-02-9.70968E-14 2.33864E-13
 -1      1778 1.94273E+01 4.68460E-02 4.11076E-03 6.05044E-02-7.62691E-14 2.02309E-13
 -1      1779 1.96933E+01 1.25513E-01-4.65380E-03-5.91299E-02-1.41423E-13 7.94451E-14
 -1      1780 1.94012E+01 3.24874E-02 4.24072E-03 9.92941E-02-9.95997E-14 1.93914E-13
 -1      1781 1.94210E+01 2.00309E-02 2.43720E-03 1.16121E-01-9.58352E-14 1.44100E-13
 -1      1782 1.96066E+01 6.11067E-02-3.46618E-03 7.06753E-02-1.11387E-13 4.34713E-14
 -1      1783 1.94192E+01 1.13834E-02 1.85863E-03 1.34101E-01-9.30891E-14 1.44760E-13
 -1      1784 1.94563E+01 4.19813E-03 1.45533E-03 1.39566E-01-1.06730E-13 1.25280E-13
 -1      1785 1.95823E+01 2.41755E-02-2.34086E-03 1.37234E-01-1.13777E-13 2.24262E-14
 -1      1786 1.94688E+01-9.96330E-04 5.57100E-04 1.45006E-01-1.15472E-13 1.28528E-13
 -1      1787 1.95131E+01-4.97243E-03 8.44566E-04 1.43831E-01-9.78342E-14 1.05871E-13
 -1      1788 1.95958E+01 2.63102E-03-1.44133E-03 1.65679E-01-1.17055E-13-8.85197E-16
 -1      1789 1.95331E+01-7.95309E-03-1.64304E-04 1.41871E-01-1.21100E-13 1.06833E-13
 -1      1790 1.95786E+01-9.89499E-03 4.52915E-04 1.37004E-01-1.19513E-13 1.19464E-13
 -1      1791 1.96305E+01-9.61110E-03-7.96722E-04 1.71191E-01-1.22642E-13-2.60783E-14
 -1      1792 1.96018E+01-1.14131E-02-5.50002E-04 1.30962E-01-1.39876E-13 9.24926E-14
 -1      1793 1.96451E+01-1.20443E-02 2.06462E-04 1.24312E-01-1.33530E-13 3.54450E-14
 -1      1794 1.96753E+01-1.59519E-02-3.65840E-04 1.63389E-01-1.61308E-13 2.84519E-14
 -1      1795 1.96687E+01-1.25875E-02-7.29455E-04 1.16372E-01-1.22764E-13 2.75433E-14
 -1      1796 1.97081E+01-1.23764E-02 6.25760E-05 1.09188E-01-5.00692E-14-2.50086E-14
 -1      1797 1.97235E+01-1.84636E-02-9.49020E-05 1.48555E-01-1.43326E-13 2.96597E-14
 -1      1798 1.97307E+01-1.22734E-02-7.79269E-04 1.00793E-01-2.35495E-14-5.69544E-14
 -1      1799 1.97654E+01-1.15304E-02-7.04093E-06 9.38892E-02 4.11205E-15-6.54777E-14
 -1      1800 1.97706E+01-1.84835E-02 6.15580E-05 1.30839E-01-5.53773E-14-3.59944E-14
 -1      1801 1.97861E+01-1.10061E-02-7.48487E-04 8.59799E-02 2.10535E-14-8.45656E-14
 -1      1802 1.98163E+01-9.93764E-03-2.24398E-05 7.98780E-02 1.63846E-14-9.68527E-14
 -1      1803 1.98147E+01-1.69014E-02 1.37706E-04 1.12979E-01-1.04858E-14-7.66793E-14
 -1      1804 1.98350E+01-9.14574E-03-6.69740E-04 7.30595E-02-2.02213E-14-9.98331E-14
 -1      1805 1.98612E+01-7.88850E-03 1.58384E-06 6.80822E-02-3.95380E-14-5.32181E-14
 -1      1806 1.98547E+01-1.43144E-02 1.58289E-04 9.67595E-02-7.43157E-15-6.26423E-14
 -1      1807 1.98781E+01-6.93542E-03-5.65055E-04 6.27281E-02 1.65747E-15-6.31705E-14
 -1      1808 1.99010E+01-5.58184E-03 5.33059E-05 5.90636E-02 4.76449E-14-3.97791E-14
 -1      1809 1.98908E+01-1.11251E-02 1.41106E-04 8.33119E-02-8.73780E-15-8.21276E-14
 -1      1810 1.99164E+01-4.54540E-03-4.49449E-04 5.53855E-02-9.98156E-15-5.16116E-14
 -1      1811 1.99371E+01-3.16546E-03 1.22039E-04 5.31244E-02-5.02187E-14-7.39581E-14
 -1      1812 1.99234E+01-7.61227E-03 9.91357E-05 7.33184E-02-1.51050E-15-7.41458E-14
 -1      1813 1.99517E+01-2.11261E-03-3.33436E-04 5.12088E-02-4.79997E-14-8.97143E-14
 -1      1814 1.99712E+01-7.75231E-04 1.95976E-04 5.03579E-02-5.05211E-14-6.91129E-14
 -1      1815 1.99537E+01-3.99238E-03 4.21867E-05 6.71320E-02-3.82873E-14-8.08189E-14
 -1      1816 1.99855E+01 2.19649E-04-2.24903E-04 5.01716E-02-7.29261E-14-9.06192E-14
 -1      1817 2.00048E+01 1.42365E-03 2.59824E-04 5.06435E-02-7.65209E-14-8.47680E-14
 -1      1818 1.99829E+01-4.78963E-04-2.16808E-05 6.48261E-02-7.16556E-14-8.61610E-14
 -1      1819 2.00195E+01 2.25864E-03-1.30589E-04 5.20081E-02-9.87020E-14-8.77314E-14
 -1      1820 2.00395E+01 3.19109E-03 2.92288E-04 5.35850E-02-1.13101E-14-7.27197E-14
 -1      1821 2.00122E+01 2.65403E-03-8.48305E-05 6.61748E-02-8.47433E-14-1.20712E-13
 -1      1822 2.00552E+01 3.71488E-03-5.72622E-05 5.61162E-02 3.66189E-14-1.38827E-13
 -1      1823 2.00764E+01 4.16305E-03 2.63660E-04 5.83855E-02 7.37558E-14-1.77350E-13
 -1      1824 2.00429E+01 5.00276E-03-1.38810E-04 7.05591E-02-1.80685E-14-1.50820E-13
 -1      1825 2.00935E+01 4.15308E-03-1.25568E-05 6.13979E-02 1.06098E-13-1.57885E-13
 -1      1826 2.01161E+01 3.80440E-03 1.34205E-04 6.36600E-02 3.67224E-14-1.06378E-13
 -1      1827 2.00760E+01 5.96086E-03-1.73152E-04 7.67959E-02 7.64730E-14-1.94196E-13
 -1      1828 2.01347E+01 2.95007E-03-5.40931E-06 6.60408E-02-3.36320E-14-5.88772E-14
 -1      1829 2.01580E+01 1.37747E-03-1.45360E-04 6.71969E-02-1.34753E-14-1.63852E-14
 -1      1830 2.01120E+01 4.65494E-03-1.74204E-04 8.28946E-02 6.73822E-14-1.02499E-13
 -1      1831 2.01778E+01-7.21217E-04-4.59625E-05 6.72643E-02-1.05526E-14 2.96720E-14
 -1      1832 2.02000E+01-4.04684E-03-6.29230E-04 6.57043E-02 1.44419E-14 1.27413E-15
 -1      1833 2.01505E+01-8.64343E-05-1.24040E-04 8.57618E-02 8.93633E-15-3.21085E-15
 -1      1834 2.02199E+01-7.84708E-03-1.44845E-04 6.10887E-02-3.82835E-14 2.99134E-14
 -1      1835 2.02378E+01-1.34906E-02-1.36490E-03 5.46237E-02-4.99756E-14 6.62411E-14
 -1      1836 2.01903E+01-9.68322E-03 3.10936E-07 8.09130E-02-1.56660E-14-2.34622E-14
 -1      1837 2.02560E+01-1.94146E-02-3.11772E-04 4.22417E-02-3.81986E-14 5.21237E-14
 -1      1838 2.02645E+01-2.78213E-02-2.37168E-03 2.81580E-02-4.94448E-14-1.37250E-14
 -1      1839 2.02282E+01-2.56006E-02 2.26795E-04 6.23090E-02-5.31066E-14-1.15577E-13
 -1      1840 2.02778E+01-3.60721E-02-5.53520E-04 4.39584E-03-9.14470E-14-4.24346E-14
 -1      1841 2.02698E+01-4.72869E-02-3.60786E-03-2.02557E-02-1.40729E-13-1.24345E-13
 -1      1842 2.02590E+01-4.88964E-02 5.86160E-04 2.25193E-02-1.09112E-13-1.09765E-13
 -1      1843 2.02736E+01-5.75496E-02-8.70797E-04-5.89901E-02-1.47378E-13-8.90184E-14
 -1      1844 2.02403E+01-7.08036E-02-4.93041E-03-9.67300E-02-9.69207E-14-1.06574E-13
 -1      1845 2.02749E+01-7.94331E-02 1.10525E-03-4.64852E-02-1.09715E-13-2.00412E-14
 -1      1846 2.02283E+01-8.18499E-02-1.25343E-03-1.52918E-01-5.25346E-14-9.44452E-14
 -1      1847 2.01601E+01-9.50803E-02-6.06062E-03-2.04695E-01-1.22367E-14-4.15883E-14
 -1      1848 2.02649E+01-1.14749E-01 1.79136E-03-1.51549E-01-7.68284E-14 4.16829E-14
 -1      1849 2.01248E+01-1.04388E-01-1.66920E-03-2.77993E-01-2.60278E-14-2.08026E-14
 -1      1850 2.00131E+01-1.13907E-01-6.58356E-03-3.41604E-01-9.32132E-14-7.78956E-14
 -1      1851 2.02154E+01-1.48815E-01 2.60214E-03-2.95261E-01-3.30547E-14 3.67716E-14
 -1      1852 1.99467E+01-1.17555E-01-2.04333E-03-4.26698E-01-1.01329E-13 2.01288E-15
 -1      1853 1.97869E+01-1.18267E-01-6.02295E-03-4.95137E-01-8.53506E-15 5.19095E-14
 -1      1854 2.01114E+01-1.71285E-01 3.40071E-03-4.71684E-01-3.00476E-15 5.18348E-14
 -1      1855 1.96836E+01-1.11528E-01-2.22656E-03-5.79863E-01 3.79744E-14 2.02773E-14
 -1      1856 1.94785E+01-9.81866E-02-4.02395E-03-6.40451E-01 4.14894E-14 1.15220E-13
 -1      1857 1.99394E+01-1.68348E-01 3.90557E-03-6.61786E-01-2.91117E-14 6.09834E-14
 -1      1858 1.93380E+01-7.71788E-02-1.97202E-03-7.05561E-01 5.86982E-14 1.00821E-13
 -1      1859 1.91012E+01-4.68889E-02-6.19291E-04-7.41106E-01 9.67375E-14 1.44967E-13
 -1      1860 1.96938E+01-1.26399E-01 3.68571E-03-8.30839E-01 5.65236E-14 2.52220E-13
 -1      1861 1.89325E+01-1.11807E-02-9.64206E-04-7.63383E-01 4.42688E-14 6.91305E-14
 -1      1862 1.86892E+01 3.35431E-02 3.55632E-03-7.56407E-01 9.83968E-14 1.52773E-13
 -1      1863 1.93834E+01-3.88438E-02 2.28294E-03-9.31240E-01 3.76537E-14 2.70189E-13
 -1      1864 1.85141E+01 7.85019E-02 1.03395E-03-7.16006E-01 4.44631E-14 1.15403E-13
 -1      1865 1.82981E+01 1.28030E-01 7.32594E-03-6.55708E-01 1.10187E-14 1.08541E-13
 -1      1866 1.90390E+01 8.61081E-02-4.75457E-04-9.13912E-01 4.81282E-14 2.20180E-13
 -1      1867 1.81485E+01 1.70730E-01 3.92928E-03-5.46007E-01 4.75791E-14 9.01059E-15
 -1      1868 1.79955E+01 2.10242E-01 9.43924E-03-4.35272E-01 3.28188E-14 1.60158E-14
 -1      1869 1.87139E+01 2.21719E-01-4.08937E-03-7.47787E-01 2.75942E-14 1.38170E-13
 -1      1870 1.79051E+01 2.36783E-01 7.07335E-03-2.70241E-01-3.35626E-14 2.80440E-15
 -1      1871 1.78423E+01 2.52298E-01 9.23592E-03-1.28264E-01-3.92360E-14 8.68790E-14
 -1      1872 1.84735E+01 3.28565E-01-7.28882E-03-4.40037E-01 2.77755E-14 5.23720E-14
 -1      1873 1.78331E+01 2.52897E-01 9.34105E-03 5.85544E-02 1.21463E-13 1.97808E-13
 -1      1874 1.78713E+01 2.38421E-01 7.02518E-03 2.01178E-01 3.21207E-13 4.71365E-13
 -1      1875 1.83736E+01 3.70284E-01-8.62148E-03-4.41903E-02 1.36522E-13 2.23768E-13
 -1      1876 1.79440E+01 2.12775E-01 9.65437E-03 3.67816E-01 2.09674E-13 3.03387E-13
 -1      1877 1.80732E+01 1.73709E-01 3.87293E-03 4.80146E-01 8.83078E-14 2.09309E-13
 -1      1878 1.84370E+01 3.31504E-01-7.39861E-03 3.53541E-01 1.86347E-13 2.56263E-13
 -1      1879 1.82064E+01 1.31229E-01 7.63853E-03 5.92222E-01-8.64022E-15 2.01791E-13
 -1      1880 1.83997E+01 8.14215E-02 9.35279E-04 6.54299E-01-2.49984E-13 1.99125E-13
 -1      1881 1.86429E+01 2.26124E-01-4.23970E-03 6.65926E-01 4.99160E-14 1.28836E-15
 -1      1882 1.85598E+01 3.61521E-02 3.90331E-03 6.96833E-01-4.21214E-13 3.05480E-13
 -1      1883 1.87817E+01-9.15763E-03-1.06782E-03 7.05183E-01-2.86386E-13 2.46863E-13
 -1      1884 1.89364E+01 9.01659E-02-5.87946E-04 8.37231E-01-2.87441E-13 3.10827E-13
 -1      1885 1.89361E+01-4.51653E-02-3.00190E-04 6.84369E-01-1.03488E-13 2.86493E-13
 -1      1886 1.91527E+01-7.56449E-02-1.98975E-03 6.49836E-01 1.32639E-13 2.67985E-13
 -1      1887 1.92513E+01-3.59112E-02 2.24075E-03 8.58599E-01-1.15131E-13 4.75072E-13
 -1      1888 1.92793E+01-9.63170E-02-3.76243E-03 5.86053E-01 3.03154E-13 1.21771E-13
 -1      1889 1.94655E+01-1.08821E-01-2.05063E-03 5.26896E-01 3.19361E-13 2.24156E-13
 -1      1890 1.95333E+01-1.23546E-01 3.68917E-03 7.61213E-01 1.09099E-13 4.64670E-13
 -1      1891 1.95548E+01-1.14161E-01-5.80365E-03 4.44723E-01 1.51664E-13 2.69703E-13
 -1      1892 1.96981E+01-1.11294E-01-1.59039E-03 3.79419E-01 2.11147E-13 4.50366E-13
 -1      1893 1.97509E+01-1.62859E-01 3.89415E-03 5.96305E-01 2.77107E-13 2.47136E-13
 -1      1894 1.97511E+01-1.05143E-01-6.37686E-03 2.99797E-01 1.50515E-13 3.19738E-13
 -1      1895 1.98502E+01-9.23021E-02-8.99593E-04 2.42316E-01 1.32904E-13 2.32835E-13
 -1      1896 1.98956E+01-1.59708E-01 3.28858E-03 4.14924E-01 8.82001E-14 2.74746E-13
 -1      1897 1.98741E+01-7.97785E-02-5.78634E-03 1.78944E-01 1.76174E-14-4.97883E-15
 -1      1898 1.99357E+01-6.31727E-02-2.58041E-04 1.37036E-01-1.47658E-13-6.56799E-15
 -1      1899 1.99751E+01-1.28162E-01 2.34419E-03 2.55275E-01-4.30086E-14 5.94344E-14
 -1      1900 1.99408E+01-4.98406E-02-4.49428E-03 9.53670E-02-1.74324E-13-9.50622E-14
 -1      1901 1.99751E+01-3.46629E-02 1.72050E-04 6.98608E-02 1.85956E-14 6.22576E-15
 -1      1902 2.00063E+01-8.54672E-02 1.24278E-03 1.38755E-01-1.92213E-13 3.71342E-14
 -1      1903 1.99697E+01-2.60350E-02-3.02730E-03 5.06893E-02 5.02717E-14-4.11667E-14
 -1      1904 1.99888E+01-1.79217E-02 2.42644E-04 3.66980E-02 5.49864E-15-7.30560E-14
 -1      1905 2.00006E+01-2.43102E-02 9.19590E-04 3.97012E-02 2.73650E-14 6.26983E-14
 -1      1906 2.00090E+01-4.32098E-02 2.24577E-03 7.09893E-02-1.91752E-15 1.53749E-13
 -1      1907 1.97222E+01 1.84330E-01 1.07712E-02 2.68177E-01 1.98883E-13 7.71761E-14
 -1      1908 1.99165E+01 2.65462E-01 2.63273E-02 4.09827E-01 2.35814E-13 1.50098E-13
 -1      1909 2.01186E+01 3.68890E-01 8.08942E-03 6.57459E-01 2.85973E-13 1.87635E-13
 -1      1910 2.05507E+01 5.23230E-01 2.93506E-02 9.62256E-01 3.23241E-13 2.81107E-13
 -1      1911 2.02231E+01 5.08806E-01-3.00733E-03 7.51305E-01 3.22802E-13 5.78964E-16
 -1      1912 1.95136E+01 9.60114E-02 7.09415E-03 5.70259E-02 1.69976E-13 6.77236E-15
 -1      1913 1.95947E+01 1.37055E-01 1.66789E-02 1.29726E-01 1.68476E-13 5.57211E-14
 -1      1914 1.98904E+01 2.56492E-01-3.96837E-03 3.14414E-01 2.28036E-13-6.77514E-14
 -1      1915 1.94292E+01 4.86312E-02 4.20635E-03-5.63949E-02 1.28705E-13-6.38920E-15
 -1      1916 1.94461E+01 7.09845E-02 8.95664E-03-1.88523E-02 1.48862E-13 1.73841E-14
 -1      1917 1.97001E+01 1.29809E-01-4.54927E-03 6.84685E-02 1.80405E-13-1.04700E-13
 -1      1918 1.94200E+01 2.10462E-02 2.48580E-03-1.14121E-01 7.76871E-14-3.34164E-14
 -1      1919 1.94016E+01 3.38833E-02 4.39417E-03-9.65576E-02 1.10462E-13 2.93103E-15
 -1      1920 1.96091E+01 6.35852E-02-3.53521E-03-6.58366E-02 1.32796E-13-8.78372E-14
 -1      1921 1.94538E+01 4.75822E-03 1.48635E-03-1.38762E-01 6.39840E-14-2.74702E-14
 -1      1922 1.94173E+01 1.21613E-02 1.93920E-03-1.32882E-01 7.33670E-14-1.12792E-14
 -1      1923 1.95824E+01 2.55496E-02-2.40172E-03-1.34810E-01 8.67248E-14-6.96179E-14
 -1      1924 1.95097E+01-4.69986E-03 8.63280E-04-1.43689E-01 4.52092E-14-1.34961E-14
 -1      1925 1.94657E+01-5.83342E-04 6.03910E-04-1.44650E-01 4.39070E-14-3.01111E-14
 -1      1926 1.95944E+01 3.37103E-03-1.48287E-03-1.64668E-01 6.92936E-14-5.21745E-14
 -1      1927 1.95749E+01-9.82364E-03 4.61807E-04-1.37169E-01 1.29994E-14-7.93023E-15
 -1      1928 1.95294E+01-7.78216E-03-1.37593E-04-1.41957E-01 4.32386E-14-9.62495E-15
 -1      1929 1.96282E+01-9.27591E-03-8.23652E-04-1.70965E-01 5.14819E-14-6.44361E-14
 -1      1930 1.96412E+01-1.21206E-02 2.10196E-04-1.24530E-01 7.86010E-14-5.33713E-14
 -1      1931 1.95979E+01-1.14172E-02-5.35490E-04-1.31200E-01 5.76145E-14-2.21755E-14
 -1      1932 1.96727E+01-1.59019E-02-3.82673E-04-1.63525E-01 5.74395E-14-3.97759E-14
 -1      1933 1.97041E+01-1.25622E-02 4.31102E-05-1.09264E-01 6.95998E-14-7.68294E-14
 -1      1934 1.96648E+01-1.27307E-02-7.24107E-04-1.16559E-01 9.00593E-14-4.98538E-14
 -1      1935 1.97207E+01-1.86165E-02-1.04816E-04-1.48747E-01 1.17594E-13-6.89497E-14
 -1      1936 1.97587E+01-1.18478E-02-1.96032E-05-9.44718E-02 1.11498E-13-1.15358E-13
 -1      1937 1.97255E+01-1.26116E-02-8.02486E-04-1.01219E-01 8.85957E-14-8.72136E-14
 -1      1938 1.97668E+01-1.88083E-02 9.04488E-05-1.31300E-01 1.22007E-13-6.65101E-14
 -1      1939 1.98100E+01-1.03395E-02-2.55329E-05-8.00428E-02 7.44953E-14-1.36762E-13
 -1      1940 1.97797E+01-1.13719E-02-7.42826E-04-8.63612E-02 8.83057E-14-1.40231E-13
 -1      1941 1.98099E+01-1.74406E-02 1.22460E-04-1.13614E-01 1.14719E-13-6.80097E-14
 -1      1942 1.98552E+01-8.25694E-03 1.05088E-05-6.78200E-02-1.15877E-13-7.02517E-14
 -1      1943 1.98290E+01-9.54740E-03-6.65591E-04-7.30069E-02-1.12602E-14-9.58151E-14
 -1      1944 1.98504E+01-1.49109E-02 1.42733E-04-9.69610E-02 1.67006E-14-2.02824E-14
 -1      1945 1.98954E+01-5.74269E-03 9.41322E-05-5.85570E-02-9.69360E-14-7.31505E-14
 -1      1946 1.98724E+01-7.23619E-03-5.50881E-04-6.23315E-02-1.29313E-13-1.08419E-13
 -1      1947 1.98870E+01-1.16094E-02 1.16663E-04-8.31656E-02-9.34834E-14-1.07738E-14
 -1      1948 1.99325E+01-2.80307E-03 2.27939E-04-5.28920E-02-7.76854E-15-4.87343E-14
 -1      1949 1.99115E+01-4.51741E-03-4.16002E-04-5.49968E-02-5.23408E-14-6.20578E-14
 -1      1950 1.99205E+01-7.67283E-03 5.66287E-05-7.32113E-02-7.07944E-14-1.19696E-13
 -1      1951 1.99687E+01 6.74807E-04 4.23416E-04-5.15106E-02-7.54364E-14 3.82275E-14
 -1      1952 1.99481E+01-1.34436E-03-2.67541E-04-5.16427E-02-2.57667E-15 4.60066E-14
 -1      1953 1.99523E+01-3.06603E-03-3.16189E-05-6.79754E-02-6.10756E-14-6.53754E-15
 -1      1954 2.00069E+01 4.93959E-03 7.02010E-04-5.53162E-02 2.78885E-14-8.87373E-15
 -1      1955 1.99849E+01 2.45329E-03-1.07324E-04-5.30493E-02-4.00881E-14-1.16451E-14
 -1      1956 1.99843E+01 2.43034E-03-1.45660E-04-6.84340E-02-1.44150E-14 1.28841E-14
 -1      1957 2.00507E+01 1.04167E-02 1.09883E-03-6.56341E-02 7.89768E-14 5.20686E-14
 -1      1958 2.00250E+01 7.19619E-03 6.63461E-05-6.03210E-02 9.47769E-14 1.68558E-14
 -1      1959 2.00187E+01 9.25484E-03-2.85634E-04-7.58831E-02 3.58297E-14-8.30533E-14
 -1      1960 2.01049E+01 1.77807E-02 1.66823E-03-8.44811E-02 1.33311E-14 7.70884E-14
 -1      1961 2.00722E+01 1.34087E-02 2.57683E-04-7.51199E-02 4.95402E-14 1.30642E-13
 -1      1962 2.00585E+01 1.81385E-02-4.52853E-04-9.22060E-02 3.25802E-14 3.65084E-14
 -1      1963 2.01755E+01 2.80704E-02 2.49147E-03-1.14946E-01 2.24158E-14 5.15076E-14
 -1      1964 2.01318E+01 2.19084E-02 4.72004E-04-9.99871E-02 3.17979E-14 4.54341E-14
 -1      1965 2.01072E+01 3.02298E-02-6.47650E-04-1.20225E-01 3.47794E-14 9.81035E-14
 -1      1966 2.02707E+01 4.28623E-02 3.68618E-03-1.61737E-01 1.84683E-14-1.60220E-14
 -1      1967 2.02101E+01 3.39451E-02 7.13088E-04-1.38799E-01 3.99009E-14 1.06783E-15
 -1      1968 2.01693E+01 4.72903E-02-8.65578E-04-1.64185E-01 5.73023E-14-9.83634E-15
 -1      1969 2.04014E+01 6.45084E-02 5.41519E-03-2.31960E-01-5.69581E-14-1.27279E-13
 -1      1970 2.03158E+01 5.14025E-02 9.77850E-04-1.97421E-01-4.00170E-14-1.42176E-13
 -1      1971 2.02502E+01 7.19797E-02-1.09046E-03-2.30432E-01 5.40705E-14-1.04343E-13
 -1      1972 2.05826E+01 9.64258E-02 7.88765E-03-3.36173E-01 1.07286E-13-1.57073E-13
 -1      1973 2.04605E+01 7.70615E-02 1.24536E-03-2.84618E-01 5.17279E-14-1.50448E-13
 -1      1974 2.03566E+01 1.08233E-01-1.28239E-03-3.28327E-01 4.61063E-14-2.04701E-13
 -1      1975 2.08331E+01 1.43129E-01 1.10490E-02-4.89797E-01 1.01353E-13-1.21641E-13
 -1      1976 2.06592E+01 1.14748E-01 1.41332E-03-4.13165E-01 1.08737E-13-1.19708E-13
 -1      1977 2.04962E+01 1.61658E-01-1.35150E-03-4.71421E-01 1.01735E-13-2.06337E-13
 -1      1978 2.11601E+01 2.06451E-01 1.52691E-02-7.00406E-01 1.03095E-13-7.46466E-14
 -1      1979 2.09249E+01 1.68139E-01 1.39664E-03-5.95551E-01 1.14544E-13-1.26074E-13
 -1      1980 2.06726E+01 2.38049E-01-8.07192E-04-6.72102E-01 1.15190E-13-6.38642E-14
 -1      1981 2.16262E+01 2.98699E-01 2.07380E-02-1.01602E+00-5.29533E-14-1.32023E-14
 -1      1982 2.12803E+01 2.43353E-01 7.05769E-04-8.57501E-01 3.35921E-14-7.93354E-15
 -1      1983 2.08954E+01 3.44563E-01-6.57748E-04-9.57343E-01 2.44011E-14 4.43777E-14
 -1      1984 2.22498E+01 4.14165E-01 2.55289E-02-1.45566E+00-1.26624E-13 8.72379E-14
 -1      1985 2.17700E+01 3.46620E-01-8.56988E-04-1.23529E+00-7.26797E-14 1.09354E-13
 -1      1986 2.11779E+01 4.91662E-01 2.03921E-04-1.36518E+00-8.27298E-14 1.66125E-13
 -1      1987 2.30631E+01 5.29463E-01 2.79372E-02-2.03218E+00-1.88495E-13 1.75868E-13
 -1      1988 2.24170E+01 4.66506E-01-3.91748E-03-1.74872E+00-1.70122E-13 1.36879E-13
 -1      1989 2.15160E+01 6.67186E-01 1.39073E-03-1.91663E+00-1.87594E-13 2.81538E-13
 -1      1990 2.40908E+01 5.60793E-01 2.52625E-02-2.70152E+00-4.08467E-14 2.40209E-13
 -1      1991 2.32613E+01 5.58044E-01-6.36304E-03-2.39290E+00-5.96363E-14 2.17999E-13
 -1      1992 2.19120E+01 8.15027E-01 2.23870E-03-2.61639E+00-1.07508E-13 3.28685E-13
 -1      1993 2.53623E+01 3.04900E-01 1.76987E-02-3.27357E+00-9.00686E-14 3.19128E-13
 -1      1994 2.43698E+01 4.89631E-01 2.81702E-04-3.07288E+00-5.43337E-14 2.49746E-13
 -1      1995 2.23989E+01 7.69855E-01 1.45762E-03-3.40180E+00-5.05203E-14 3.94939E-13
 -1      1996 2.69515E+01-5.92379E-01 6.95265E-03-3.28794E+00-1.33081E-13 3.64288E-13
 -1      1997 2.58873E+01-2.08574E-02 3.48101E-02-3.48814E+00-6.83169E-14 3.26534E-13
 -1      1998 2.31264E+01 1.80018E-01-2.15984E-03-4.06173E+00-1.06071E-13 3.84906E-13
 -1      1999 2.90684E+01-2.32547E+00-7.88132E-03-1.95825E+00-1.42719E-13 4.88594E-13
 -1      2000 2.81041E+01-1.34770E+00 1.05569E-01-2.96932E+00-2.13829E-13 3.98515E-13
 -1      2001 2.45771E+01-1.44205E+00 4.84823E-03-4.13994E+00-1.88509E-13 5.01488E-13
 -1      2002 3.18805E+01-3.66825E+00-3.89754E-02 1.13872E+00 1.79995E-13 4.73385E-13
 -1      2003 3.12353E+01-3.25062E+00 1.11773E-01-6.69682E-01 5.30270E-14 4.88214E-13
 -1      2004 2.74331E+01-3.94928E+00-4.20218E-02-2.70414E+00-8.64586E-14 4.81906E-13
 -1      2005 3.49770E+01-2.22576E+00-1.01055E-01-3.87048E+00-3.70884E-14-2.47524E-13
 -1      2006 3.48269E+01 2.42685E-02-1.00672E-01-4.41956E+00-9.52571E-14-2.84273E-13
 -1      2007 3.20934E+01-3.33117E+00 7.45552E-02-3.49089E-01-3.17954E-13-6.50868E-15
 -1      2008 3.25091E+01-3.22504E+00-5.68902E-02-2.09062E+00-1.56312E-13-1.47500E-13
 -1      2009 2.89694E+01-1.66315E+00 1.14239E-01 2.50234E+00 1.37550E-13-2.11955E-13
 -1      2010 2.98396E+01-2.61190E+00-2.43302E-02 1.27187E+00-6.76265E-14-1.64806E-13
 -1      2011 2.90798E+01-4.09264E+00-5.24673E-02 1.69570E+00-1.29383E-13-3.48145E-13
 -1      2012 2.65062E+01-2.29686E-01 5.14583E-02 3.44731E+00 1.36141E-14-2.18499E-13
 -1      2013 2.75620E+01-9.28448E-01-1.32252E-02 3.08311E+00 5.43593E-14-1.85510E-13
 -1      2014 2.57750E+01-1.88552E+00-2.73881E-02 3.71857E+00 5.59136E-14-3.74846E-13
 -1      2015 2.47056E+01 3.78691E-01 4.83063E-03 3.23985E+00-1.54111E-13-1.32378E-13
 -1      2016 2.57623E+01 1.01146E-01 2.57988E-03 3.36339E+00-7.68057E-14-1.25788E-13
 -1      2017 2.39331E+01-1.58453E-01-1.45288E-02 4.08925E+00-1.01235E-13-1.66295E-13
 -1      2018 2.33472E+01 5.06489E-01-6.63796E-03 2.62932E+00-6.63783E-14-1.36045E-13
 -1      2019 2.42752E+01 4.60043E-01 1.67960E-02 2.91520E+00-5.26332E-14-1.48116E-13
 -1      2020 2.28601E+01 5.79254E-01-3.11375E-03 3.60914E+00-1.14039E-13-2.61065E-13
 -1      2021 2.22909E+01 4.47843E-01-4.90359E-03 1.99152E+00 1.20839E-13-1.41528E-13
 -1      2022 2.30395E+01 4.85099E-01 2.38325E-02 2.27843E+00-5.20781E-14-2.66324E-13
 -1      2023 2.21058E+01 7.12926E-01 1.23130E-03 2.88107E+00-3.74804E-14-3.57199E-13
 -1      2024 2.14712E+01 3.58999E-01-4.19361E-04 1.44984E+00 4.89738E-13-3.72368E-13
 -1      2025 2.20410E+01 4.05176E-01 2.40121E-02 1.69048E+00 4.36023E-13-1.58756E-13
 -1      2026 2.15006E+01 6.22473E-01 1.56080E-03 2.17895E+00 3.22332E-13-2.94741E-13
 -1      2027 2.08485E+01 3.01866E-01 2.15372E-03 1.00202E+00-1.47228E-13-3.75939E-13
 -1      2028 2.12611E+01 3.30073E-01 2.03397E-02 1.20467E+00 2.25073E-13-2.98331E-13
 -1      2029 2.09972E+01 5.02011E-01-7.08901E-04 1.58913E+00 2.95337E-13-2.06634E-13
 -1      2030 2.03969E+01 2.90746E-01 2.87249E-03 6.13843E-01-1.67195E-13-4.06120E-13
 -1      2031 2.06778E+01 2.90937E-01 1.33418E-02 7.93842E-01-2.08969E-13-4.80965E-13
 -1      2032 2.05851E+01 4.28472E-01-5.41758E-03 1.09609E+00-9.80492E-14-4.76065E-13
 -1      2033 2.26690E+00-7.51183E+00-3.56577E-01 2.71196E+00-1.12577E-13-1.03972E-13
 -1      2034 5.89918E-01-8.09441E+00-4.36463E-01 1.12980E+00-1.69309E-15-1.95455E-13
 -1      2035 1.97787E+01 1.46395E+00-9.59561E-03 5.09361E-01-9.03453E-14 1.19553E-13
 -1      2036 1.98393E+01 1.29902E+00-1.77628E-03 6.17375E-01-1.05365E-13 2.44933E-13
 -1      2037 1.99107E+01 1.12954E+00-1.03233E-02 7.15063E-01-1.21098E-13 8.40325E-14
 -1      2038 2.00145E+01 9.16631E-01 7.31726E-03 7.42628E-01 2.65816E-14-4.60383E-14
 -1      2039 1.98286E+01 1.19827E+00 9.02188E-03 8.26989E-01 5.52479E-14 2.09431E-13
 -1      2040 2.02412E+01 2.68754E-01 3.54399E-03 3.80674E-01-1.11929E-13-3.05937E-13
 -1      2041 1.97312E+01 1.62175E+00-7.61417E-03 1.88525E-01-8.33234E-14-3.38216E-13
 -1      2042 1.97439E+01 1.54450E+00-8.08131E-03 3.34435E-01-9.77137E-14-1.84518E-14
 -1      2043 1.96547E+01 1.44544E+00 1.02275E-02 5.14361E-01-1.23050E-13-8.17922E-16
 -1      2044 1.97643E+01 1.58526E+00-4.42147E-03-1.47239E-01 2.75631E-13-1.15650E-14
 -1      2045 1.97379E+01 1.60507E+00-1.12742E-02-5.89929E-03 2.04315E-13-1.07340E-13
 -1      2046 1.96133E+01 1.50953E+00 1.02009E-02 9.66066E-02 3.36425E-13 1.79527E-13
 -1      2047 1.98499E+01 1.38035E+00-1.12185E-03-4.04714E-01 3.75290E-13 1.94110E-13
 -1      2048 1.98005E+01 1.48440E+00-1.12924E-02-3.05049E-01 3.13927E-13 1.64240E-13
 -1      2049 1.96802E+01 1.39254E+00 7.19062E-03-2.99690E-01 4.12999E-13 3.93583E-14
 -1      2050 1.99512E+01 1.07289E+00 1.47234E-03-5.38177E-01 2.50488E-13 9.16099E-14
 -1      2051 1.98982E+01 1.22962E+00-8.31051E-03-4.94882E-01 3.21368E-13 1.33412E-13
 -1      2052 1.98117E+01 1.14220E+00 2.92053E-03-5.76090E-01 3.65453E-13 1.27218E-13
 -1      2053 2.00375E+01 7.37380E-01 2.97393E-03-5.46890E-01 1.89272E-13 1.94099E-13
 -1      2054 1.99956E+01 9.10162E-01-3.86588E-03-5.55834E-01 1.73122E-13 2.15370E-13
 -1      2055 1.99562E+01 8.29927E-01-9.24557E-04-6.93535E-01 1.55095E-13 1.16047E-13
 -1      2056 2.00920E+01 4.35378E-01 3.42833E-03-4.61656E-01-9.50498E-15-3.60741E-13
 -1      2057 2.00681E+01 5.92767E-01 4.47582E-04-5.06977E-01 1.36660E-13 2.40068E-14
 -1      2058 2.00733E+01 5.23284E-01-3.42121E-03-6.64946E-01-5.49455E-14 4.61604E-14
 -1      2059 2.01111E+01 2.07288E-01 3.02259E-03-3.29200E-01-5.88566E-14-7.64129E-13
 -1      2060 2.01057E+01 3.28080E-01 3.64139E-03-3.89875E-01 6.31112E-14-6.81735E-13
 -1      2061 2.01423E+01 2.71266E-01-4.49391E-03-5.36846E-01 4.62658E-14-3.78064E-13
 -1      2062 2.01015E+01 5.76300E-02 2.13476E-03-1.87346E-01 1.61893E-13 2.91517E-13
 -1      2063 2.01100E+01 1.38332E-01 5.13559E-03-2.47778E-01 9.48792E-14-1.43188E-13
 -1      2064 2.01614E+01 9.38953E-02-4.41399E-03-3.63623E-01 2.75156E-13-3.92326E-13
 -1      2065 2.00728E+01-1.68398E-02 1.03436E-03-6.99195E-02 2.17782E-13 1.84059E-13
 -1      2066 2.00901E+01 2.51711E-02 5.32484E-03-1.16849E-01 2.53247E-13 2.46418E-13
 -1      2067 2.01414E+01-8.28058E-03-3.33100E-03-1.92841E-01 3.04751E-13 3.42822E-13
 -1      2068 2.00338E+01-3.47297E-02 2.59096E-04 5.65933E-03-2.94720E-14-8.80086E-14
 -1      2069 2.00549E+01-2.20688E-02 4.24943E-03-2.22365E-02 1.17714E-13-3.17618E-14
 -1      2070 2.00957E+01-4.74539E-02-2.18528E-03-6.00441E-02 2.11350E-13-3.27234E-14
 -1      2071 9.88231E+00-6.82092E+00-2.52622E-01 5.35566E+00-1.68643E-13-1.97412E-14
 -1      2072 6.06225E+00-7.80256E+00-4.29794E-01 4.15728E+00-9.97535E-14-1.08275E-13
 -1      2073 1.50626E+01-6.48443E+00-1.40144E-01 6.18811E+00-2.46858E-13-1.67935E-13
 -1      2074-3.94664E-01-8.34198E+00-4.35165E-01-8.45514E-01-9.89174E-14-4.76508E-13
 -1      2075-4.31375E-02-8.29566E+00-4.39758E-01-2.28712E+00 1.33504E-14-3.28682E-13
 -1      2076 1.95235E+01 4.01703E+00-2.56635E-02-1.70317E+00-3.26716E-13-3.72057E-13
 -1      2077 1.96523E+01 3.94352E+00-2.43413E-02-1.95821E+00-3.62366E-13-2.85567E-13
 -1      2078 1.99743E+01 3.25415E+00-8.05491E-03-1.91125E+00-3.86749E-13-2.13204E-13
 -1      2079 1.96939E+01 3.58433E+00-9.29048E-03-1.51994E+00-3.23920E-13-3.72639E-13
 -1      2080 4.10407E+01 1.68005E-01 3.64727E-01-1.85102E-01-4.79408E-14-2.78777E-13
 -1      2081 3.57377E+01-1.82869E+00-1.01317E-01 2.82225E-01 3.19744E-14-4.59521E-13
 -1      2082 4.05536E+01 1.38686E+00 1.04442E-01-6.82692E-04 5.24886E-13-9.43690E-15
 -1      2083 4.52209E+01 3.40969E+00 5.63575E-01 9.09413E-01 2.48856E-13-3.97460E-14
 -1      2084 3.26000E+01-3.40385E+00-1.83644E-01-1.59289E+00 5.84754E-13-1.50102E-13
 -1      2085 3.87964E+01-1.09804E+00 3.14425E-01-1.33958E+00 6.42708E-13 8.39329E-14
 -1      2086 2.16114E+01-6.53570E+00-3.51207E-01-4.50425E+00 4.37761E-13-1.97453E-13
 -1      2087 2.82015E+01-5.09816E+00-4.15290E-02-4.31276E+00 4.46088E-13-2.47580E-13
 -1      2088 1.03482E+01-7.52337E+00-4.53087E-01-4.90439E+00 5.41345E-13-3.33289E-13
 -1      2089 1.58254E+01-6.32041E+00-1.94268E-01-5.97110E+00 4.85056E-13-2.02144E-13
 -1      2090 3.28504E+00-7.19785E+00-3.24062E-01-3.01620E+00 4.95159E-13-3.57048E-13
 -1      2091 6.39854E+00-6.76325E+00-2.35274E-01-4.54960E+00 5.40568E-13-2.73032E-13
 -1      2092-2.36512E-01-7.88182E+00-4.26743E-01 8.68848E-01 1.21986E-13-1.18477E-12
 -1      2093 4.92812E-01-7.17325E+00-3.13142E-01-9.19762E-01 3.99264E-13-8.88400E-13
 -1      2094 1.42908E+00-7.54142E+00-3.75686E-01 4.00763E+00-5.38458E-14-9.22262E-13
 -1      2095 1.46359E-01-8.15259E+00-4.29505E-01 2.65680E+00 1.64063E-13-1.04189E-12
 -1      2096 6.96092E+00-5.81103E+00-2.16111E-01 6.57463E+00-4.48752E-13-5.69558E-13
 -1      2097 3.95669E+00-7.56299E+00-4.46106E-01 5.26678E+00-1.07803E-13-8.09186E-13
 -1      2098 1.56314E+01-3.84987E+00-4.21325E-02 8.06226E+00-4.26104E-13-4.00846E-13
 -1      2099 1.09009E+01-5.85697E+00-3.53307E-01 6.94513E+00-4.17222E-13-4.16195E-13
 -1      2100 2.52455E+01-6.72204E-01 1.24376E-01 7.75491E+00-4.42812E-13-1.24456E-13
 -1      2101 2.02392E+01-2.96836E+00-1.86840E-01 7.13626E+00-5.09093E-13-2.34535E-13
 -1      2102 3.32010E+01 1.69112E+00 8.62882E-02 5.01384E+00-3.80793E-13-3.56104E-13
 -1      2103 2.87342E+01 4.67913E-01-4.65273E-04 6.24214E+00-4.10783E-13-2.68785E-13
 -1      2104 2.84565E+01-1.94012E+00 1.42686E-01 5.28610E+00-1.41276E-13 8.84293E-14
 -1      2105 3.94676E+01 5.71042E+00 3.95984E-01 2.71827E+00-2.90212E-13-3.82139E-13
 -1      2106 3.54975E+01 3.98822E+00 4.68342E-02 2.96156E+00-2.94806E-13-3.37952E-13
 -1      2107 4.33211E+01 7.55075E+00 3.97188E-01 1.13073E+00-4.13281E-13-2.13635E-13
 -1      2108 4.09960E+01 6.98521E+00 1.93475E-01 2.40545E+00-4.30211E-13-3.34455E-13
 -1      2109 4.16742E+01 7.95363E+00 1.99678E-01-9.52180E-01-6.06015E-13 1.50768E-13
 -1      2110 4.30989E+01 7.96363E+00 3.73996E-01 3.84009E-01-4.18776E-13 2.69090E-14
 -1      2111 3.91124E+01 5.74307E+00 1.94885E-01-3.14018E+00-4.27297E-13 3.92186E-13
 -1      2112 4.11011E+01 6.78946E+00 2.45958E-01-1.65834E+00-5.79037E-13 1.13520E-13
 -1      2113 3.34308E+01 2.72664E+00 3.78566E-02-4.91347E+00-3.22159E-13 3.89133E-13
 -1      2114 3.79966E+01 4.27164E+00 3.25560E-01-4.44386E+00-2.14322E-13 5.94969E-13
 -1      2115 3.62729E+01 4.85673E+00 3.07661E-01-9.86588E-01-3.11529E-13 3.04701E-13
 -1      2116 2.47260E+01-1.22453E+00-1.35952E-01-6.74505E+00-2.56239E-13 3.34621E-13
 -1      2117 3.01448E+01 7.58457E-01 2.08302E-01-6.77632E+00-2.99205E-13 4.06786E-13
 -1      2118 1.68591E+01-4.79608E+00-1.91545E-01-7.21464E+00-2.72893E-13 2.58488E-13
 -1      2119 2.16435E+01-2.60318E+00 9.72245E-02-7.85224E+00-3.84581E-13 1.51046E-13
 -1      2120 7.27683E+00-6.92860E+00-3.88357E-01-6.27332E+00-1.13909E-13 7.84289E-13
 -1      2121 1.14694E+01-4.92355E+00-1.00372E-01-7.69282E+00-1.51656E-13 5.78648E-13
 -1      2122 1.53036E+00-8.28090E+00-4.72543E-01-3.88855E+00-2.37976E-13 5.06928E-13
 -1      2123 3.73387E+00-6.87593E+00-2.89548E-01-5.28586E+00-2.40474E-13 9.44966E-13
 -1      2124 2.15455E+01 1.75292E+00 7.77852E-02 2.36686E+00 3.75366E-13 3.39589E-13
 -1      2125 3.21819E+01-3.37660E+00 3.53973E-02 3.74249E+00-8.95950E-14-7.63611E-13
 -1      2126 2.55471E+01-5.33027E+00-3.61875E-01 3.89147E+00-1.29674E-13-5.62106E-13
 -1      2127 2.15125E+01 1.74286E+00 7.95605E-02-2.33900E+00-3.53738E-13 5.47486E-13
 -1      2128 2.02761E+01 3.94824E-01 4.15031E-03 6.15041E-01-9.00725E-14-4.68702E-13
 -1      2129 2.01817E+01 6.12201E-01-4.21727E-03 7.12197E-01-4.03540E-14-3.20748E-13
 -1      2130 1.91699E+00-5.61084E+00-2.33026E-01-3.83855E+00-2.38948E-13 3.01481E-13
 -1      2131 2.51759E+01-6.52911E+00-1.02042E-01 4.29957E+00-2.59792E-13-5.62023E-13
 -1      2132 2.07401E+01 1.10916E+00-2.05752E-02-1.61747E+00-3.41800E-13 4.49380E-13
 -1      2133 3.48650E+01-3.65574E+00 9.63778E-02-6.29611E-01-1.43968E-13-5.48228E-13
 -1      2134 2.06295E+01 1.33001E+00-1.88428E-02-1.67904E+00-3.73543E-13 2.00423E-13
 -1      2135 2.06368E+01 1.32633E+00-2.21635E-02 1.68660E+00 3.96063E-13 3.69999E-14
 -1      2136 2.07610E+01 1.10524E+00-2.34460E-02 1.62950E+00 3.64330E-13 2.53011E-13
 -1      2137 3.39953E+01-3.66620E+00-1.07535E-01-1.90491E+00-1.66315E-13-2.43472E-13
 -1      2138 3.49765E+01-1.42627E+00-9.48978E-02 3.81460E+00 3.32234E-13 1.72723E-13
 -1      2139 3.48650E+01-3.01077E+00 1.00255E-02 2.85586E+00 2.85718E-13 2.92960E-13
 -1      2140 3.69593E+01 3.28170E+00 1.97933E-01 3.45474E+00 1.43163E-13-2.22045E-16
 -1      2141 3.69196E+01 4.48639E-01-4.05919E-02 4.42144E+00 2.76057E-13 4.23550E-14
 -1      2142 4.03329E+01 5.36779E+00 2.54547E-02-8.57979E-01 6.96110E-14-6.21378E-14
 -1      2143 4.03392E+01 5.03751E+00-3.18588E-02 1.48924E+00-2.77556E-15-1.36457E-13
 -1      2144 3.73977E+01 2.20680E+00-4.33160E-02-3.86772E+00-5.89528E-14-2.10054E-13
 -1      2145 3.71948E+01 4.63492E+00 1.94162E-01-2.70872E+00 9.28146E-14-1.43746E-13
 -1      2146 3.24489E+01-4.70805E+00-8.36138E-02 8.27909E-02 2.53825E-13 3.39229E-13
 -1      2147 1.29001E+00-5.38930E+00-2.21728E-01 5.95910E-01-1.44051E-14-1.58484E-13
 -1      2148 2.01837E+01 7.29997E-01 7.41376E-03 9.33350E-01-8.02886E-14-2.86197E-13
 -1      2149 6.54375E+00-5.66237E+00-1.59098E-01 4.68036E+00-5.51781E-14-4.06897E-14
 -1      2150 2.00277E+01-3.26978E-02 4.38071E-04 1.65799E-02-6.00117E-15 4.38213E-15
 -1      2151 7.49420E+00-5.53714E+00-1.04433E-01-7.08711E+00-2.90545E-13 8.65530E-13
 -1      2152 1.68100E+01-5.47264E+00 2.70534E-02-7.95709E+00-1.24123E-13 3.25330E-13
 -1      2153 3.23687E+01 2.91966E-01 1.91310E-01-3.60288E+00-2.30663E-13 2.94653E-13
 -1      2154 3.77689E+01 8.07852E+00 2.76591E-01-5.47983E-02-5.73319E-13 2.73254E-13
 -1      2155 3.84160E+01 8.99981E+00 3.47953E-01 1.00994E-01-6.08069E-13 1.89987E-14
 -1      2156 3.40366E+01 2.18822E+00 9.68324E-02 2.58186E+00-2.60712E-13-2.79887E-13
 -1      2157 3.19487E+01 3.39936E-01 8.68965E-02 1.79153E+00-1.67297E-13-3.77476E-14
 -1      2158 3.30769E+01 2.50391E+00-1.73426E-01-7.04886E-02-5.34017E-14-3.42504E-14
 -1      2159 2.02235E+01-4.62326E+00 1.89733E-02 7.51867E+00-1.30396E-13-4.94882E-14
 -1      2160 1.12470E+01-5.50730E+00-7.50701E-02 7.89895E+00-5.08482E-14-4.33154E-13
 -1      2161 4.16050E+00-5.56480E+00-2.09582E-01 5.78978E+00 3.66374E-14-9.38083E-13
 -1      2162 1.03746E+00-5.15508E+00-2.15642E-01 1.92280E+00 8.39884E-14-1.22580E-12
 -1      2163 3.61439E+00-4.87304E+00-1.15683E-01-2.79925E+00 1.44246E-13-6.03573E-13
 -1      2164 1.10849E+01-5.90906E+00-1.26492E-01-5.73530E+00 2.75613E-13-1.49492E-13
 -1      2165 2.14987E+01-6.66016E+00-6.30078E-02-5.16078E+00 2.05613E-13-1.74166E-14
 -1      2166 3.18559E+01-5.32919E+00-2.06338E-02-1.24865E+00 3.12361E-13 1.11244E-13
 -1      2167 3.84952E+01-7.21319E-01 1.66457E-01 2.65192E+00 5.54556E-13 8.80407E-14
 -1      2168 4.70462E+01 4.92461E+00 6.63796E-01-7.77170E-01 1.30618E-13 1.64979E-13
 -1      2169 4.39757E+01 3.69674E+00 4.83917E-01 4.99848E-01 1.92846E-13 1.57652E-14
 -1      2170 4.04475E+01 4.68169E+00 2.30795E-02-1.43482E+00 1.44995E-13-1.17628E-13
 -1      2171 4.05716E+01 4.27296E+00 8.54561E-02 1.81012E+00 4.41314E-14-1.44496E-13
 -1      2172 3.91924E+01 1.43884E+00 8.27467E-02-3.54709E+00-7.90479E-14-2.79998E-13
 -1      2173 3.67472E+01 6.52834E+00 1.73579E-01 1.70702E-01-3.57825E-13-4.14113E-14
 -1      2174 2.53670E+01-3.94087E+00 6.99722E-04-6.12389E+00-1.86073E-13 1.75582E-13
 -1      2175 1.95584E+01 3.51842E+00-1.11170E-02-5.94453E-01-1.72070E-13-4.67273E-13
 -1      2176 1.95943E+01 3.47235E+00-1.05033E-02-7.78656E-01-2.22828E-13-4.60659E-13
 -1      2177 1.96413E+01 3.38404E+00-1.27948E-02-9.43031E-01-2.41018E-13-4.48379E-13
 -1      2178 1.97025E+01 3.30334E+00-1.28662E-02-1.13214E+00-2.78853E-13-4.24897E-13
 -1      2179 1.97857E+01 3.03558E+00 1.79590E-04-7.94810E-01-2.14615E-13-4.26807E-13
 -1      2180 1.95096E+01 3.60239E+00-9.58502E-03 9.57788E-02-2.83475E-14-4.90829E-13
 -1      2181 1.95093E+01 3.60279E+00-9.59500E-03-8.34979E-02-7.17266E-14-4.87077E-13
 -1      2182 1.95350E+01 3.56427E+00-9.65818E-03 4.41524E-01 4.79264E-14-4.90791E-13
 -1      2183 1.95179E+01 3.58616E+00-1.00951E-02 2.60898E-01 2.11714E-15-4.88007E-13
 -1      2184 1.96754E+01 3.22584E+00-9.17253E-04 1.66367E-01-1.33813E-14-4.66182E-13
 -1      2185 1.95960E+01 3.46966E+00-1.05198E-02 7.85361E-01 1.25170E-13-4.92224E-13
 -1      2186 1.95602E+01 3.51559E+00-1.11466E-02 6.04083E-01 8.06451E-14-4.97781E-13
 -1      2187 1.97115E+01 3.16370E+00-5.22862E-04 4.84819E-01 5.65334E-14-4.57907E-13
 -1      2188 1.97054E+01 3.29917E+00-1.28169E-02 1.13873E+00 2.26694E-13-4.35749E-13
 -1      2189 1.96434E+01 3.38060E+00-1.28220E-02 9.49600E-01 1.66234E-13-4.66748E-13
 -1      2190 1.97876E+01 3.03214E+00 2.13906E-04 8.00935E-01 1.46527E-13-4.33961E-13
 -1      2191 1.98835E+01 3.01836E+00-1.79388E-02 1.48658E+00 3.09205E-13-3.82839E-13
 -1      2192 1.97848E+01 3.15642E+00-1.51309E-02 1.29560E+00 2.51312E-13-4.07747E-13
 -1      2193 1.99162E+01 2.81018E+00 1.94954E-03 1.10762E+00 2.29520E-13-3.95891E-13
 -1      2194 2.01610E+01 2.55534E+00-2.74917E-02 1.79090E+00 3.77193E-13-2.82704E-13
 -1      2195 2.00123E+01 2.80063E+00-1.63802E-02 1.61961E+00 3.35469E-13-3.47111E-13
 -1      2196 2.01094E+01 2.46118E+00 4.52138E-03 1.37534E+00 3.11738E-13-3.32530E-13
 -1      2197 2.05753E+01 1.76708E+00-1.91958E-02 1.82842E+00 3.99151E-13-7.17308E-14
 -1      2198 2.03316E+01 2.19262E+00-9.14626E-03 1.77745E+00 3.84038E-13-1.97169E-13
 -1      2199 2.03448E+01 1.87259E+00 7.14923E-03 1.46026E+00 3.65965E-13-2.17478E-13
 -1      2200 2.04286E+01 1.10839E+00 9.11943E-04 1.23643E+00 3.77790E-13-5.44890E-14
 -1      2201 2.04042E+01 8.55079E-01 1.31857E-02-1.00183E+00-3.18203E-13 7.13318E-14
 -1      2202 2.01917E+01 6.27808E-01-4.51581E-03-6.92349E-01-2.88928E-13 5.51512E-14
 -1      2203 2.01267E+01 4.70061E-01 1.61963E-02-4.76040E-01-2.44466E-13 7.43390E-14
 -1      2204 1.99852E+01 3.45107E-01-4.62323E-05-3.04202E-01-1.94680E-13 5.18552E-14
 -1      2205 2.02451E+01 7.46401E-01-2.21887E-03-6.94207E-01-2.75394E-13-2.27826E-14
 -1      2206 1.99218E+01 2.60047E-01 1.08341E-02-1.66485E-01-1.83127E-13 6.50952E-14
 -1      2207 1.98430E+01 1.88515E-01 6.83436E-04-6.91000E-02-1.45325E-13 1.99783E-14
 -1      2208 2.00817E+01 4.17113E-01-3.77066E-03-3.10963E-01-1.99953E-13-3.28611E-15
 -1      2209 1.97985E+01 1.38994E-01 6.38888E-03 1.31210E-02-1.18782E-13 2.09939E-14
 -1      2210 1.97634E+01 9.66391E-02 7.17989E-04 6.65726E-02-1.13659E-13 1.54962E-14
 -1      2211 1.99608E+01 2.27846E-01-3.65805E-03-7.16601E-02-1.51865E-13-1.12563E-14
 -1      2212 1.97375E+01 6.67276E-02 3.58284E-03 1.12437E-01-1.12779E-13-2.46336E-14
 -1      2213 1.97301E+01 4.11949E-02 6.24431E-04 1.39138E-01-1.23930E-13-4.37030E-14
 -1      2214 1.98850E+01 1.15395E-01-2.93703E-03 6.93747E-02-1.51163E-13-6.63496E-14
 -1      2215 1.97184E+01 2.29494E-02 1.86068E-03 1.61542E-01-1.37469E-13-3.72738E-14
 -1      2216 1.97277E+01 7.72390E-03 5.06637E-04 1.71818E-01-1.34292E-13-7.24473E-14
 -1      2217 1.98452E+01 4.72621E-02-2.12698E-03 1.45916E-01-1.32075E-13-8.80136E-14
 -1      2218 1.97257E+01-3.15893E-03 7.98183E-04 1.79387E-01-1.11121E-13-7.82853E-14
 -1      2219 1.97440E+01-1.17917E-02 3.94532E-04 1.79751E-01-1.09951E-13-7.71738E-14
 -1      2220 1.98311E+01 6.23701E-03-1.43991E-03 1.80880E-01-1.31384E-13-1.17162E-13
 -1      2221 1.97481E+01-1.78561E-02 1.47150E-04 1.78301E-01-1.21804E-13-4.84676E-14
 -1      2222 1.97705E+01-2.21719E-02 3.03083E-04 1.73003E-01-1.53348E-13-2.83702E-14
 -1      2223 1.98337E+01-1.74589E-02-9.21312E-04 1.89759E-01-1.09580E-13-1.15114E-13
 -1      2224 1.97782E+01-2.50315E-02-2.37183E-04 1.66485E-01-1.49167E-13-2.75690E-15
 -1      2225 1.98017E+01-2.65021E-02 2.38008E-04 1.58348E-01-9.92767E-14 2.22317E-14
 -1      2226 1.98464E+01-2.97879E-02-5.53591E-04 1.83083E-01-1.20441E-13-8.73716E-14
 -1      2227 1.98111E+01-2.72282E-02-4.45557E-04 1.49444E-01-1.10248E-13-6.94876E-15
 -1      2228 1.98339E+01-2.68363E-02 1.99316E-04 1.40349E-01-7.26375E-14-2.96682E-14
 -1      2229 1.98644E+01-3.45929E-02-3.05168E-04 1.68030E-01-1.26818E-13-2.24477E-14
 -1      2230 1.98439E+01-2.61566E-02-5.38287E-04 1.30864E-01-2.00918E-14-2.92323E-14
 -1      2231 1.98651E+01-2.45667E-02 1.84571E-04 1.22055E-01 9.98011E-15-3.08986E-14
 -1      2232 1.98847E+01-3.44376E-02-1.46403E-04 1.49476E-01-7.29005E-14-7.82536E-15
 -1      2233 1.98750E+01-2.29790E-02-5.56631E-04 1.13191E-01 1.13764E-14-3.99268E-14
 -1      2234 1.98944E+01-2.06405E-02 1.90527E-04 1.05476E-01-2.38873E-15 3.80372E-15
 -1      2235 1.99055E+01-3.10598E-02-5.33661E-05 1.30696E-01 8.95368E-15-5.21780E-14
 -1      2236 1.99039E+01-1.84859E-02-5.28851E-04 9.80127E-02-3.90083E-14-2.70086E-14
 -1      2237 1.99215E+01-1.57052E-02 2.13444E-04 9.19007E-02-2.31688E-14-4.99947E-14
 -1      2238 1.99258E+01-2.56428E-02-7.85557E-06 1.13862E-01-2.49872E-14-6.69168E-14
 -1      2239 1.99306E+01-1.32239E-02-4.73909E-04 8.63268E-02-5.10567E-14-2.02293E-14
 -1      2240 1.99468E+01-1.02210E-02 2.48698E-04 8.21140E-02-4.94556E-14-5.93532E-14
 -1      2241 1.99453E+01-1.90021E-02 3.77359E-06 1.00369E-01-3.74762E-14-3.45008E-14
 -1      2242 1.99557E+01-7.59906E-03-4.03902E-04 7.87043E-02-5.98431E-14-9.67755E-14
 -1      2243 1.99711E+01-4.55901E-03 2.89789E-04 7.65229E-02-6.68640E-14-1.18216E-13
 -1      2244 1.99641E+01-1.17314E-02-8.42625E-06 9.10650E-02-9.74691E-14-6.25202E-14
 -1      2245 1.99800E+01-1.97323E-03-3.25598E-04 7.53776E-02-4.55176E-14-1.43956E-13
 -1      2246 1.99951E+01 9.02450E-04 3.26940E-04 7.52062E-02-5.99292E-14-1.05095E-13
 -1      2247 1.99827E+01-4.33357E-03-3.72998E-05 8.63773E-02-6.38159E-14-1.89195E-13
 -1      2248 2.00044E+01 3.23635E-03-2.41376E-04 7.62477E-02-9.84664E-14-1.35111E-13
 -1      2249 2.00198E+01 5.67402E-03 3.45422E-04 7.78843E-02-9.11399E-14-1.30610E-13
 -1      2250 2.00016E+01 2.64852E-03-7.78467E-05 8.63541E-02-6.70950E-14-1.53275E-13
 -1      2251 2.00301E+01 7.44997E-03-1.49880E-04 8.08116E-02-2.54371E-14-1.29997E-13
 -1      2252 2.00463E+01 9.04428E-03 3.23754E-04 8.38070E-02 1.58549E-15-1.49911E-13
 -1      2253 2.00218E+01 8.49289E-03-1.26660E-04 9.06191E-02-3.59878E-14-1.36019E-13
 -1      2254 2.00580E+01 9.81208E-03-4.65225E-05 8.80053E-02-4.02774E-15-1.44567E-13
 -1      2255 2.00754E+01 9.96668E-03 2.32159E-04 9.15556E-02 5.40556E-14-1.81600E-13
 -1      2256 2.00442E+01 1.21512E-02-1.81476E-04 9.82333E-02 2.36036E-15-1.01946E-13
 -1      2257 2.00892E+01 9.08336E-03 7.57968E-05 9.59614E-02 1.20350E-13-1.74659E-13
 -1      2258 2.01076E+01 6.96458E-03 3.20516E-05 9.87672E-02 1.34033E-13-7.73780E-14
 -1      2259 2.00699E+01 1.21058E-02-2.40533E-04 1.07465E-01 8.40180E-14-1.39313E-13
 -1      2260 2.01241E+01 3.56819E-03 2.25177E-04 1.01696E-01 9.62394E-14-7.67613E-14
 -1      2261 2.01430E+01-1.90165E-03-3.22096E-04 1.01806E-01 3.58976E-14 4.53094E-15
 -1      2262 2.00999E+01 6.26434E-03-3.01360E-04 1.15475E-01 1.48805E-13-9.86718E-14
 -1      2263 2.01629E+01-8.86364E-03 4.07526E-04 1.00771E-01-8.12591E-15-6.04483E-14
 -1      2264 2.01809E+01-1.89279E-02-8.76447E-04 9.54472E-02-2.80050E-14-5.10054E-14
 -1      2265 2.01352E+01-8.04005E-03-3.58408E-04 1.17951E-01 7.73094E-15-1.34096E-13
 -1      2266 2.02046E+01-3.05641E-02 6.20570E-04 8.70209E-02-7.55363E-14-1.37433E-13
 -1      2267 2.02196E+01-4.64001E-02-1.66428E-03 7.27178E-02-9.68104E-14-1.86846E-13
 -1      2268 2.01768E+01-3.38277E-02-3.98755E-04 1.08770E-01-9.70911E-14-1.61713E-13
 -1      2269 2.02472E+01-6.35646E-02 8.44058E-04 5.25374E-02-5.67961E-14-2.45433E-13
 -1      2270 2.02557E+01-8.58174E-02-2.68242E-03 2.51066E-02-5.58984E-14-1.59573E-13
 -1      2271 2.02246E+01-7.38644E-02-3.95365E-04 7.98473E-02-1.15514E-13-2.34303E-13
 -1      2272 2.02862E+01-1.08552E-01 1.02622E-03-1.18035E-02-7.05942E-14-1.24114E-13
 -1      2273 2.02836E+01-1.36568E-01-3.85573E-03-5.64980E-02-3.84692E-14-6.57199E-15
 -1      2274 2.02778E+01-1.29469E-01-2.98805E-04 2.14393E-02-6.45662E-14-2.48177E-13
 -1      2275 2.03145E+01-1.63269E-01 1.07146E-03-1.14861E-01-7.73718E-14 1.84447E-14
 -1      2276 2.02949E+01-1.94061E-01-4.99415E-03-1.79728E-01-3.52138E-14-3.13227E-14
 -1      2277 2.03330E+01-1.98595E-01-3.13732E-05-7.66917E-02-2.48804E-14-6.33080E-14
 -1      2278 2.03211E+01-2.20492E-01 8.37080E-04-2.62351E-01 3.29992E-14 3.46472E-14
 -1      2279 2.02782E+01-2.47700E-01-5.75758E-03-3.47153E-01 9.78764E-15 5.00860E-14
 -1      2280 2.03831E+01-2.73307E-01 5.04059E-04-2.22744E-01 3.11979E-15-1.41611E-14
 -1      2281 2.02912E+01-2.66238E-01 1.66860E-04-4.52323E-01-4.30115E-14 3.58874E-14
 -1      2282 2.02191E+01-2.79727E-01-5.66388E-03-5.51221E-01-4.74351E-14 1.95690E-14
 -1      2283 2.04162E+01-3.37338E-01 1.38102E-03-4.18520E-01 6.07164E-15 6.20940E-14
 -1      2284 2.02077E+01-2.79645E-01-1.02134E-03-6.69448E-01-3.21325E-14 3.71657E-14
 -1      2285 2.01033E+01-2.66829E-01-4.20544E-03-7.68737E-01 4.12656E-14 7.55114E-14
 -1      2286 2.04143E+01-3.65373E-01 2.55658E-03-6.53289E-01-3.08522E-14 1.89791E-13
 -1      2287 2.00554E+01-2.36706E-01-2.58126E-03-8.80020E-01 1.12846E-13 1.12651E-13
 -1      2288 1.99210E+01-1.86712E-01-1.12931E-03-9.57573E-01 9.92318E-14 2.35096E-13
 -1      2289 2.03563E+01-3.26742E-01 3.72194E-03-8.97181E-01 1.17321E-13 1.53629E-13
 -1      2290 1.98298E+01-1.19659E-01-3.99411E-03-1.03162E+00 2.18691E-14 2.55405E-13
 -1      2291 1.96760E+01-3.02617E-02 3.17038E-03-1.06010E+00 7.84083E-14 2.74159E-13
 -1      2292 2.02247E+01-1.95997E-01 4.20837E-03-1.09777E+00 3.73885E-14 1.93892E-13
 -1      2293 1.95473E+01 6.91501E-02-4.37407E-03-1.06256E+00 6.63579E-14 2.69246E-13
 -1      2294 1.93936E+01 1.84589E-01 7.42139E-03-1.01776E+00 1.05855E-14 2.19152E-13
 -1      2295 2.00178E+01 3.01550E-02 3.15376E-03-1.18579E+00 3.49166E-14 2.67453E-13
 -1      2296 1.92523E+01 2.95688E-01-2.84160E-03-9.23597E-01-5.39668E-14 2.08217E-13
 -1      2297 1.91246E+01 4.07009E-01 9.83013E-03-7.96469E-01-3.57613E-14 1.79475E-13
 -1      2298 1.97634E+01 3.16935E-01 1.48093E-04-1.09547E+00-3.61391E-14 2.79359E-13
 -1      2299 1.90105E+01 4.96443E-01 8.06264E-04-6.06231E-01 2.20852E-15 1.66515E-13
 -1      2300 1.89342E+01 5.66207E-01 9.13028E-03-4.12563E-01 4.80087E-14 1.70727E-13
 -1      2301 1.95218E+01 5.90130E-01-3.96521E-03-7.97214E-01-2.03336E-14 2.84333E-13
 -1      2302 1.88862E+01 6.01633E-01 5.51855E-03-1.60931E-01 1.56259E-13 1.33342E-13
 -1      2303 1.88772E+01 6.03109E-01 5.56000E-03 5.91466E-02 2.01317E-13 1.78383E-13
 -1      2304 1.93677E+01 7.60061E-01-7.04506E-03-3.26940E-01 1.58341E-13 9.21463E-14
 -1      2305 1.89124E+01 5.70451E-01 9.24098E-03 3.12244E-01 7.94111E-14 8.29934E-14
 -1      2306 1.89711E+01 5.02777E-01 8.60509E-04 5.07944E-01 6.10174E-14-3.29492E-14
 -1      2307 1.93549E+01 7.63731E-01-7.08942E-03 2.12542E-01 1.12353E-13-3.90331E-14
 -1      2308 1.90742E+01 4.14640E-01 1.01179E-02 7.01672E-01 1.54483E-13-1.34460E-13
 -1      2309 1.91853E+01 3.03540E-01-2.92088E-03 8.31743E-01 5.34468E-15-5.75988E-14
 -1      2310 1.94851E+01 5.99084E-01-4.10626E-03 6.88454E-01 4.39992E-14-9.03545E-14
 -1      2311 1.93178E+01 1.92022E-01 7.79546E-03 9.29550E-01-1.08621E-13 1.29782E-13
 -1      2312 1.94559E+01 7.53730E-02-4.57594E-03 9.76934E-01-1.50902E-13 3.69867E-13
 -1      2313 1.97066E+01 3.26856E-01 9.88796E-06 9.94655E-01 1.03160E-13 6.92882E-14
 -1      2314 1.95768E+01-2.51828E-02 3.49956E-03 9.76870E-01-1.43885E-13 5.34633E-13
 -1      2315 1.97159E+01-1.15724E-01-4.19824E-03 9.50119E-01 3.81145E-14 5.60215E-13
 -1      2316 1.99441E+01 3.77043E-02 3.11185E-03 1.09151E+00 3.45589E-14 3.99772E-13
 -1      2317 1.97990E+01-1.83075E-01-9.36619E-04 8.77229E-01-1.69274E-14 4.82233E-13
 -1      2318 1.99192E+01-2.32483E-01-2.63291E-03 8.01194E-01 6.56797E-14 3.59561E-13
 -1      2319 2.01349E+01-1.90672E-01 4.26791E-03 1.00709E+00-1.27836E-14 5.02080E-13
 -1      2320 1.99573E+01-2.60721E-01-4.17943E-03 6.91295E-01 2.05514E-13 2.60765E-13
 -1      2321 2.00482E+01-2.70133E-01-7.85102E-04 5.94921E-01 2.44198E-13 1.60086E-13
 -1      2322 2.02485E+01-3.19445E-01 3.86629E-03 8.08805E-01 1.97780E-15 2.83658E-13
 -1      2323 2.00478E+01-2.65589E-01-5.77337E-03 4.80612E-01 3.81434E-14 1.26743E-13
 -1      2324 2.01077E+01-2.45866E-01 6.97143E-04 3.88002E-01-3.70669E-14 1.01362E-13
 -1      2325 2.02854E+01-3.49345E-01 2.70827E-03 5.69978E-01 8.94403E-14 1.95661E-13
 -1      2326 2.00815E+01-2.20459E-01-5.96117E-03 2.91424E-01-3.68097E-14 9.53613E-14
 -1      2327 2.01145E+01-1.84973E-01 1.67786E-03 2.17771E-01-8.65739E-14 1.48318E-13
 -1      2328 2.02634E+01-3.05940E-01 1.39871E-03 3.47874E-01-2.47315E-14 1.49510E-13
 -1      2329 2.00750E+01-1.50494E-01-4.93215E-03 1.50555E-01-1.78354E-13 2.29233E-15
 -1      2330 2.00859E+01-1.14749E-01 9.97488E-04 1.03114E-01-2.14581E-13 9.17777E-15
 -1      2331 2.02055E+01-2.21727E-01 5.76379E-04 1.76573E-01-2.08869E-13-1.10593E-13
 -1      2332 2.01662E+01 5.83445E-01-1.85521E-03 6.34420E-01 3.00363E-13-9.97561E-14
 -1      2333 2.03732E+01 7.82630E-01 8.08738E-03 9.33559E-01 3.41210E-13-5.04382E-14
 -1      2334 2.03637E+01 1.16284E+00 6.37752E-03 1.09774E+00 3.48730E-13-1.35553E-13
 -1      2335 1.97661E+01 1.00176E-01 6.94150E-04-6.14247E-02 9.50802E-14-1.01437E-13
 -1      2336 1.98027E+01 1.43617E-01 6.46666E-03-6.21441E-03 1.39870E-13-1.01038E-13
 -1      2337 1.97309E+01 4.32693E-02 6.18587E-04-1.36432E-01 7.74562E-14-1.12161E-13
 -1      2338 1.97393E+01 6.94774E-02 3.67399E-03-1.08711E-01 8.80739E-14-1.04829E-13
 -1      2339 1.98877E+01 1.19687E-01-3.01298E-03-6.39776E-02 1.03740E-13-1.46906E-13
 -1      2340 1.97272E+01 8.88713E-03 5.07451E-04-1.70613E-01 6.29133E-14-1.16149E-13
 -1      2341 1.97186E+01 2.45432E-02 1.92392E-03-1.59735E-01 7.61677E-14-9.60068E-14
 -1      2342 1.98465E+01 4.97837E-02-2.17489E-03-1.43027E-01 8.55659E-14-1.47448E-13
 -1      2343 1.97427E+01-1.12447E-02 3.95542E-04-1.79408E-01 2.57173E-14-7.29797E-14
 -1      2344 1.97248E+01-2.31502E-03 8.41384E-04-1.78721E-01 3.63710E-14-8.68038E-14
 -1      2345 1.98314E+01 7.63160E-03-1.47300E-03-1.79567E-01 5.49033E-14-1.12180E-13
 -1      2346 1.97690E+01-2.20621E-02 3.05922E-04-1.73069E-01 6.89796E-14-1.05581E-13
 -1      2347 1.97467E+01-1.75369E-02 1.75484E-04-1.78240E-01 6.16839E-14-9.16340E-14
 -1      2348 1.98334E+01-1.68372E-02-9.44671E-04-1.89360E-01 5.41959E-14-1.22194E-13
 -1      2349 1.97999E+01-2.66993E-02 2.28063E-04-1.58491E-01 1.08885E-13-1.15002E-13
 -1      2350 1.97765E+01-2.51153E-02-2.25835E-04-1.66660E-01 9.25926E-14-1.19801E-13
 -1      2351 1.98457E+01-2.97050E-02-5.70011E-04-1.83124E-01 9.07906E-14-1.81704E-13
 -1      2352 1.98306E+01-2.72934E-02 1.97364E-04-1.41305E-01 1.22871E-13-1.14706E-13
 -1      2353 1.98087E+01-2.76070E-02-4.54503E-04-1.50074E-01 1.05416E-13-9.32269E-14
 -1      2354 1.98632E+01-3.49165E-02-3.04930E-04-1.68634E-01 9.35957E-14-1.72283E-13
 -1      2355 1.98621E+01-2.52765E-02 1.88800E-04-1.22751E-01 7.55880E-14-4.93177E-15
 -1      2356 1.98407E+01-2.67899E-02-5.28832E-04-1.31737E-01 1.20290E-13-4.72179E-14
 -1      2357 1.98831E+01-3.51092E-02-1.69308E-04-1.50504E-01 6.75986E-14-8.41669E-14
 -1      2358 1.98919E+01-2.13560E-02 2.04700E-04-1.05832E-01-6.18036E-14 3.25989E-14
 -1      2359 1.98722E+01-2.37264E-02-5.50815E-04-1.13728E-01 3.90241E-14 2.09473E-14
 -1      2360 1.99042E+01-3.19572E-02-7.77779E-05-1.31511E-01 2.65401E-14 7.62314E-15
 -1      2361 1.99198E+01-1.60810E-02 2.52558E-04-9.20964E-02-4.07210E-14-3.38250E-14
 -1      2362 1.99018E+01-1.90983E-02-5.27490E-04-9.82671E-02-3.91807E-14 3.73365E-14
 -1      2363 1.99251E+01-2.64221E-02-3.66441E-05-1.14471E-01-2.23029E-14 6.16866E-15
 -1      2364 1.99464E+01-9.65846E-03 3.36165E-04-8.27200E-02-9.65310E-14-6.28952E-14
 -1      2365 1.99294E+01-1.32560E-02-4.78277E-04-8.66548E-02-6.65573E-14-3.00436E-14
 -1      2366 1.99455E+01-1.91197E-02-3.31732E-05-1.01094E-01-4.09279E-14-9.29666E-15
 -1      2367 1.99726E+01-2.00724E-03 4.64523E-04-7.87687E-02-6.46990E-14-2.79263E-14
 -1      2368 1.99559E+01-6.26968E-03-4.19549E-04-7.99698E-02-1.08761E-13-7.60575E-14
 -1      2369 1.99655E+01-1.02421E-02-5.74025E-05-9.27285E-02-8.01010E-14-3.38733E-14
 -1      2370 1.99998E+01 7.25142E-03 6.52199E-04-8.14300E-02 1.90709E-14-8.04773E-14
 -1      2371 1.99823E+01 2.07792E-03-3.63989E-04-7.93018E-02 1.34489E-14-4.93360E-14
 -1      2372 1.99858E+01 4.02494E-04-1.00755E-04-9.06280E-02-1.29007E-14-5.26284E-14
 -1      2373 2.00299E+01 1.88493E-02 9.20997E-04-9.22562E-02 1.38999E-14-6.32247E-14
 -1      2374 2.00102E+01 1.23216E-02-3.23732E-04-8.59812E-02 4.79558E-14-7.93868E-14
 -1      2375 2.00071E+01 1.34170E-02-1.54729E-04-9.62049E-02 2.21760E-14-7.19463E-14
 -1      2376 2.00648E+01 3.39810E-02 1.30264E-03-1.13452E-01 1.74172E-14-6.35017E-15
 -1      2377 2.00413E+01 2.53929E-02-3.13025E-04-1.01837E-01-7.91260E-15-4.15426E-14
 -1      2378 2.00303E+01 2.99021E-02-2.08245E-04-1.11290E-01 4.00369E-15-6.95033E-14
 -1      2379 2.01071E+01 5.44868E-02 1.84192E-03-1.48239E-01 5.41007E-14-2.13318E-14
 -1      2380 2.00775E+01 4.27615E-02-3.51798E-04-1.29515E-01 7.16585E-14 1.14083E-14
 -1      2381 2.00564E+01 5.16192E-02-2.43531E-04-1.38435E-01 3.53537E-14-9.06226E-14
 -1      2382 2.01594E+01 8.31266E-02 2.59999E-03-2.01346E-01 5.18084E-14-1.40168E-13
 -1      2383 2.01211E+01 6.66593E-02-4.70610E-04-1.72887E-01 5.35972E-14-9.10660E-14
 -1      2384 2.00860E+01 8.12504E-02-2.29591E-04-1.81280E-01 1.02515E-13-1.43615E-13
 -1      2385 2.02245E+01 1.23960E-01 3.65685E-03-2.79651E-01 7.10076E-14-1.58694E-13
 -1      2386 2.01742E+01 1.00405E-01-7.17286E-04-2.37604E-01 5.59539E-14-1.07812E-13
 -1      2387 2.01192E+01 1.22776E-01-1.11459E-04-2.45014E-01 7.09759E-14-1.65575E-13
 -1      2388 2.03047E+01 1.82782E-01 5.09941E-03-3.93003E-01 9.51181E-14-2.18121E-13
 -1      2389 2.02385E+01 1.48827E-01-1.16412E-03-3.31809E-01 1.11668E-13-1.23086E-13
 -1      2390 2.01546E+01 1.81970E-01 2.05734E-04-3.36945E-01 8.82123E-14-1.05254E-13
 -1      2391 2.04000E+01 2.67414E-01 6.80444E-03-5.55213E-01 7.71644E-14-1.09584E-13
 -1      2392 2.03143E+01 2.18770E-01-1.89798E-03-4.66957E-01 6.99254E-14-1.52455E-13
 -1      2393 2.01883E+01 2.66856E-01 8.72405E-04-4.67138E-01 6.65538E-14-1.40060E-13
 -1      2394 2.05039E+01 3.80990E-01 9.04924E-03-7.70938E-01 2.13724E-14 7.48412E-14
 -1      2395 2.03981E+01 3.15722E-01-3.11974E-03-6.53474E-01 9.65358E-14-4.05147E-14
 -1      2396 2.02118E+01 3.85454E-01 2.52759E-03-6.43246E-01 5.67667E-14-6.55776E-14
 -1      2397 2.06190E+01 5.45476E-01 1.22106E-02-1.08503E+00-3.91054E-14 1.55744E-13
 -1      2398 2.04812E+01 4.51942E-01-5.06887E-03-9.12431E-01-3.06107E-14 1.21429E-13
 -1      2399 2.02098E+01 5.49144E-01 4.27954E-03-8.85001E-01 3.25206E-15 1.64389E-13
 -1      2400 2.07212E+01 7.59343E-01 1.50986E-02-1.51283E+00-1.62489E-13 2.58732E-13
 -1      2401 2.05545E+01 6.39701E-01-7.94010E-03-1.27773E+00-5.11561E-14 1.99520E-13
 -1      2402 2.01559E+01 7.76549E-01 7.76325E-03-1.21898E+00-1.06908E-13 2.90371E-13
 -1      2403 2.07844E+01 1.00419E+00 1.78496E-02-2.07468E+00-1.88722E-13 1.99293E-13
 -1      2404 2.05896E+01 8.72199E-01-1.18399E-02-1.76938E+00-1.50485E-13 2.33654E-13
 -1      2405 2.00064E+01 1.06268E+00 1.28359E-02-1.66099E+00-1.00508E-13 2.41327E-13
 -1      2406 2.07867E+01 1.19906E+00 2.20234E-02-2.77142E+00-7.83176E-14 2.45421E-13
 -1      2407 2.05579E+01 1.10718E+00-1.51839E-02-2.40666E+00-1.78345E-13 1.97080E-13
 -1      2408 1.97047E+01 1.36933E+00 1.96143E-02-2.22994E+00-1.12781E-13 1.15188E-13
 -1      2409 2.07617E+01 1.12038E+00 3.20843E-02-3.55835E+00-4.29333E-14 2.56027E-13
 -1      2410 2.04605E+01 1.20631E+00-1.14800E-02-3.18735E+00 5.24754E-15 3.21364E-13
 -1      2411 1.91990E+01 1.56633E+00 2.86185E-02-2.94258E+00-5.99473E-14 1.68747E-13
 -1      2412 2.09349E+01 3.03730E-01 5.83068E-02-4.28585E+00-1.90761E-13 4.26638E-13
 -1      2413 2.04282E+01 8.34057E-01 1.45722E-02-4.04372E+00-9.64975E-14 3.03426E-13
 -1      2414 1.85334E+01 1.33086E+00 4.67199E-02-3.82489E+00-1.27240E-13 2.16941E-13
 -1      2415 2.18942E+01-1.91734E+00 7.51463E-02-4.68703E+00-2.15716E-13 4.71310E-13
 -1      2416 2.08295E+01-5.90935E-01 6.89516E-02-4.75512E+00-2.05114E-13 4.74631E-13
 -1      2417 1.79384E+01 4.48810E-02 5.94431E-02-4.86742E+00-2.29379E-13 2.61194E-13
 -1      2418 3.50750E+00-2.72060E+00 6.44131E-02 1.90297E+00 1.09218E-13 7.03881E-14
 -1      2419 2.56995E+00-2.80585E+00 9.35257E-02-6.53583E-01 3.80702E-14-3.18190E-13
 -1      2420 2.86912E+01-5.85603E+00 7.26138E-02-2.30157E+00 9.76996E-14 2.16743E-13
 -1      2421 2.56396E+01-4.14535E+00 1.50992E-01 3.88702E+00-3.74284E-14-4.67451E-13
 -1      2422 2.76557E+01-5.41692E+00 3.27749E-02 2.71594E+00-2.34923E-13-4.63199E-13
 -1      2423 2.07872E+01 1.04056E+00-4.97428E-03 3.54713E+00-7.15042E-14-3.66210E-13
 -1      2424 2.12232E+01 8.65951E-01 2.62845E-02 3.88055E+00-1.30001E-13-3.11151E-13
 -1      2425 2.06795E+01 1.03271E+00-1.17170E-02 2.76129E+00 1.15084E-13-4.50256E-13
 -1      2426 2.10168E+01 1.07997E+00 2.20994E-02 3.12126E+00-2.78215E-14-3.35354E-13
 -1      2427 1.94012E+01 1.40681E+00 2.39857E-02 3.39150E+00-5.30396E-14-2.25429E-13
 -1      2428 2.05721E+01 8.62161E-01-8.43999E-03 2.08718E+00 2.55111E-13-1.49554E-13
 -1      2429 2.08489E+01 9.59051E-01 1.85379E-02 2.40676E+00 1.54128E-13-3.00255E-13
 -1      2430 1.97882E+01 1.31724E+00 1.75000E-02 2.63951E+00-4.03080E-14-1.79251E-13
 -1      2431 2.04394E+01 7.08670E-01-4.17285E-04 1.52879E+00 2.09607E-13-6.53203E-14
 -1      2432 2.06640E+01 7.84291E-01 1.76680E-02 1.79576E+00 4.03744E-13-6.27374E-15
 -1      2433 2.00073E+01 1.08961E+00 9.26849E-03 2.01359E+00 3.08681E-13 5.39755E-14
 -1      2434 2.02231E+01 6.95622E-01 4.95983E-03 1.10308E+00-6.46315E-14-2.81796E-13
 -1      2435 2.03922E+01 7.30223E-01 1.69978E-02 1.33787E+00 5.40427E-14-1.86857E-13
 -1      2436 1.99811E+01 9.57233E-01-7.24459E-03 1.51547E+00 3.41507E-13 2.58398E-13
 -1      2437 1.99228E+01 9.61513E-01-1.29780E-02 1.11971E+00-2.45862E-14 1.65461E-13
 -1      2438 1.03631E+01-3.82651E+00 7.90593E-02 5.77094E+00-4.75453E-14-1.51518E-13
 -1      2439 6.52420E+00-3.15106E+00 1.27906E-01 4.06707E+00-2.12330E-14 8.11018E-14
 -1      2440 1.95325E+01 1.23435E+00 2.81714E-03-4.94173E-01 5.88071E-13 2.13397E-13
 -1      2441 1.94338E+01 1.31197E+00-1.29864E-02-3.09493E-01 5.38800E-13 2.39255E-14
 -1      2442 2.73929E+00-3.23531E+00 7.09328E-02-2.84160E+00-2.19852E-13 4.65183E-14
 -1      2443 4.29766E+00-3.39137E+00 6.01809E-02-5.00965E+00-3.44669E-13 7.41129E-13
 -1      2444 1.97712E+01 9.30803E-01 5.99976E-03-7.65405E-01 2.06059E-13-1.75059E-13
 -1      2445 1.96435E+01 1.05389E+00-1.21421E-02-6.62310E-01 3.67360E-13 3.01944E-14
 -1      2446 1.94605E+01 1.03886E+00 2.93739E-03-7.04983E-01 4.08071E-13 2.06348E-14
 -1      2447 2.00035E+01 6.00946E-01 6.65057E-03-8.41890E-01 4.29671E-14 1.60714E-13
 -1      2448 1.98885E+01 7.40447E-01-8.13434E-03-8.24604E-01 8.07299E-14 1.33300E-13
 -1      2449 1.97731E+01 6.85971E-01-1.91132E-03-9.39494E-01 1.47071E-13-1.64934E-13
 -1      2450 2.01728E+01 3.10339E-01 5.54104E-03-7.57288E-01 2.18824E-14-1.39178E-14
 -1      2451 2.00954E+01 4.40558E-01-3.05649E-03-8.07153E-01 1.99315E-14 1.90218E-13
 -1      2452 2.00595E+01 3.53105E-01-4.60486E-03-9.56437E-01 1.61749E-13 5.20354E-14
 -1      2453 2.02572E+01 9.81220E-02 3.62312E-03-5.78070E-01 2.63982E-13-3.95879E-13
 -1      2454 2.02243E+01 2.01027E-01 1.40567E-03-6.64130E-01 7.60521E-14-3.08856E-13
 -1      2455 2.02551E+01 9.65818E-02-5.32108E-03-8.12962E-01 3.05432E-13-1.23264E-13
 -1      2456 2.02650E+01-3.41052E-02 1.42761E-03-3.62932E-01 3.91064E-13-2.25778E-13
 -1      2457 2.02704E+01 3.78421E-02 4.26298E-03-4.59913E-01 3.47458E-13-5.20478E-13
 -1      2458 2.03427E+01-6.71942E-02-4.82332E-03-5.84443E-01 2.76823E-13-3.90810E-13
 -1      2459 2.02148E+01-9.00269E-02-3.08889E-04-1.70314E-01 2.50872E-13 2.95535E-13
 -1      2460 2.02450E+01-4.99025E-02 5.13232E-03-2.51891E-01 2.52513E-13 2.03704E-13
 -1      2461 2.03328E+01-1.44160E-01-4.04786E-03-3.37849E-01 3.72268E-13-1.09763E-13
 -1      2462 2.01333E+01-8.80424E-02-2.05608E-04-2.89762E-02 4.04168E-14-3.06228E-13
 -1      2463 2.01775E+01-7.74043E-02 5.15361E-03-8.28056E-02 2.04514E-13-8.22585E-14
 -1      2464 2.02673E+01-1.50041E-01 8.72735E-04-1.32137E-01 2.35389E-13 7.21774E-14
 -1      2465 2.00333E+01-4.59374E-02-1.90924E-03 2.66782E-02 1.33513E-13 5.11662E-14
 -1      2466 1.71121E+01-5.31020E+00-1.50629E-02 6.19607E+00-1.81855E-13-2.73809E-13
 -1      2467 1.34409E+01-4.69494E+00 1.25784E-01 6.03289E+00-6.72518E-14-1.37779E-13
 -1      2468 1.28035E+01-3.02765E+00 1.21131E-01 5.75138E+00-1.57652E-14-1.99368E-13
 -1      2469 7.00104E+00-4.15412E+00 8.50856E-02-6.48066E+00-2.34091E-13 8.76244E-13
 -1      2470 1.02553E+01-4.41553E+00-1.22379E-02-7.83214E+00-1.60705E-13 8.37663E-13
 -1      2471 1.98482E+01 1.94945E-01 7.70418E-04 7.79569E-02 1.60349E-13-1.38614E-13
 -1      2472 1.99262E+01 2.66964E-01 9.39497E-03 1.79282E-01 1.72826E-13-1.14904E-13
 -1      2473 1.99660E+01 2.34766E-01-3.70733E-03 8.09779E-02 1.37044E-13-1.30761E-13
 -1      2474 1.93778E+01 1.44970E+00-7.95592E-03 4.64010E-01 6.67941E-14 2.37935E-13
 -1      2475 1.94531E+01 1.37458E+00-5.15949E-03 6.70694E-01-1.27311E-14 2.23190E-13
 -1      2476 3.38069E+01 6.89358E+00-1.36129E-01 6.87375E-01-4.96436E-13 1.85740E-13
 -1      2477 3.41170E+01 8.14166E+00-1.63409E-01 4.85556E-01-6.42653E-13 2.10734E-13
 -1      2478 2.34841E+01-4.62809E+00-4.90088E-02 6.78311E+00-4.14668E-14 2.67147E-13
 -1      2479 1.91124E+01-5.20430E+00 5.96003E-02 7.49120E+00 4.60743E-14 9.42857E-14
 -1      2480 1.95691E+01 1.28539E+00-1.16843E-02 8.81662E-01 1.35794E-13 3.77436E-13
 -1      2481 1.97395E+01 1.13516E+00 6.03576E-04 1.00076E+00 1.51511E-13 1.61755E-13
 -1      2482 1.97516E+01 1.13943E+00 1.47865E-02 1.20132E+00 9.11372E-14 4.76856E-13
 -1      2483 1.93519E+01 1.38004E+00 1.01004E-02 8.61256E-01 1.75995E-13 9.77069E-14
 -1      2484 1.93729E+01 1.43005E+00-2.44037E-03-5.34658E-02 4.18652E-13 3.02751E-13
 -1      2485 1.93479E+01 1.43783E+00-9.84018E-03 1.76487E-01 3.20776E-13 3.16133E-13
 -1      2486 1.91704E+01 1.45416E+00 1.14697E-02 3.28347E-01 2.10875E-13 5.82769E-13
 -1      2487 1.92232E+01 1.32479E+00 8.11454E-03-2.55365E-01 4.39412E-13 3.27939E-13
 -1      2488 2.10828E+01 5.33708E-01 3.74135E-02 4.31966E+00-2.32996E-13-2.64515E-13
 -1      2489 2.17186E+01-1.64714E-01 4.15599E-02 4.48082E+00-5.46750E-14-3.40526E-13
 -1      2490 1.89453E+01 9.25183E-01 1.83560E-02 4.26128E+00-1.75422E-13-3.24019E-13
 -1      2491 2.24614E+01-1.14825E+00 1.26816E-01 4.74110E+00 1.10779E-13-4.84671E-13
 -1      2492 2.36283E+01-2.62803E+00 6.22081E-02 4.38717E+00 4.15362E-14-4.59747E-13
 -1      2493 2.12710E+01-3.81332E+00 5.21911E-05 5.30067E+00-4.35207E-14-3.78697E-13
 -1      2494 1.91078E+01-6.77866E-01 8.81524E-03 5.09593E+00-4.57620E-14-4.18325E-13
 -1      2495 1.95170E+01 3.58772E+00-1.00783E-02-2.48597E-01-9.76878E-14-4.86930E-13
 -1      2496 1.95334E+01 3.56676E+00-9.65104E-03-4.29138E-01-1.37944E-13-4.80055E-13
 -1      2497 1.97097E+01 3.16634E+00-6.01870E-04-4.76169E-01-1.45397E-13-4.36306E-13
 -1      2498 1.96747E+01 3.22696E+00-9.34045E-04-1.55047E-01-8.28163E-14-4.69422E-13
 -1      2499 1.99790E+01 3.37630E-01 8.96354E-04 2.92142E-01 2.18651E-13-1.27564E-13
 -1      2500 2.01130E+01 4.52986E-01 1.11300E-02 4.66655E-01 2.58990E-13-8.70343E-14
 -1      2501 2.02131E+01 6.74511E-01 1.69521E-03 6.09998E-01 2.80725E-13-1.35431E-13
 -1      2502 2.00771E+01 4.08982E-01-2.88050E-03 3.01855E-01 2.08507E-13-1.34834E-13
 -1      2503 3.47755E+01 7.04134E+00-8.01171E-02-4.88014E-01-4.56524E-13 5.43454E-14
 -1      2504 3.31757E+01 5.32441E+00-1.76291E-01-6.69071E-01-2.70617E-13 9.22040E-14
 -1      2505 1.89991E+01-5.78894E+00 3.28103E-02-5.59254E+00 1.82743E-13 1.54453E-13
 -1      2506 2.41760E+01-6.05538E+00-7.12083E-02-4.52597E+00 8.63754E-14 2.04364E-13
 -1      2507 2.60300E+01-5.32615E+00 4.60526E-02-3.55019E+00 2.54519E-14 3.05842E-13
 -1      2508 1.08904E+01-4.02879E+00 9.15230E-02-5.60020E+00 1.62453E-13-5.82590E-14
 -1      2509 1.50599E+01-4.96029E+00 4.72301E-02-6.31433E+00 2.41696E-13 6.70575E-14
 -1      2510 3.84435E+00-2.53132E+00 1.15430E-01-1.62358E+00-1.41109E-13-8.49487E-13
 -1      2511 6.64524E+00-2.74753E+00 1.08602E-01-4.03347E+00 4.61853E-14-4.17555E-13
 -1      2512 2.87204E+00-2.97417E+00 6.35221E-02 3.28819E+00 1.08150E-13-1.05060E-12
 -1      2513 2.44467E+00-2.59049E+00 7.52734E-02 8.80542E-01 1.34250E-14-1.10256E-12
 -1      2514 6.66276E+00-3.84545E+00 2.42220E-02 6.73524E+00 2.29344E-13-7.64944E-13
 -1      2515 4.23425E+00-3.58852E+00 7.07396E-02 4.97475E+00 2.53880E-13-9.35085E-13
 -1      2516 5.23845E+00-1.79981E+00 1.41759E-01 4.12807E+00 2.99455E-13-9.01001E-13
 -1      2517 1.42827E+01-4.81922E+00-1.83837E-02 8.34039E+00 1.40943E-13-1.45939E-13
 -1      2518 1.06475E+01-4.59056E+00 8.07097E-02 7.66708E+00 1.99951E-13-4.00402E-13
 -1      2519 2.94515E+01-2.51812E+00-8.51872E-02 3.60692E+00-3.88856E-14-1.16573E-15
 -1      2520 2.68390E+01-3.80679E+00 1.22717E-02 4.71467E+00 3.59712E-14 8.71248E-14
 -1      2521 2.46589E+01-4.80941E+00 1.99208E-02-5.69108E+00-2.50328E-13 1.23693E-13
 -1      2522 2.78366E+01-3.62719E+00-6.49508E-03-4.71020E+00-2.27290E-13 2.65399E-13
 -1      2523 3.41099E+01 8.55769E+00-1.79371E-01-8.72552E-02-6.60194E-13 1.95914E-13
 -1      2524 3.45714E+01 8.05399E+00-1.27555E-01-3.54276E-01-6.25944E-13 7.23033E-14
 -1      2525 3.19151E+01 7.37696E+00-7.96839E-02-9.93020E-01-5.51614E-13 1.17462E-13
 -1      2526 3.28810E+01 2.63816E+00-1.00316E-01 1.42370E-01-1.13687E-13 1.84297E-13
 -1      2527 3.33688E+01 4.39352E+00-2.01138E-01 6.33021E-01-2.04281E-13 1.12660E-13
 -1      2528 2.98432E+01-1.92283E+00-7.62698E-02-2.78633E+00-1.60066E-13 1.90514E-13
 -1      2529 3.23376E+01 3.83605E-01-1.25132E-01-1.30164E+00-9.70335E-14 1.88516E-13
 -1      2530 3.13607E+01 8.78040E-01 3.99421E-02 4.83724E-01-6.91530E-14 9.88376E-14
 -1      2531 2.92473E+01-3.09589E+00 4.45004E-02-2.30932E+00-1.91753E-13 6.45040E-14
 -1      2532 1.53253E+01-5.15128E+00 1.03836E-01-7.86996E+00-7.38298E-14 2.55601E-13
 -1      2533 2.00232E+01-5.27736E+00-2.38493E-02-7.51983E+00-1.43968E-13 1.06994E-13
 -1      2534 3.16074E+01-5.51881E+00 2.04414E-02 1.00297E+00-2.18270E-13-4.85223E-13
 -1      2535 2.05496E+01 1.95621E+00-1.36823E-02-1.90359E+00-3.92264E-13 3.67085E-14
 -1      2536 2.04130E+01 1.21735E+00-6.34771E-03-1.28919E+00-3.62760E-13 5.38314E-14
 -1      2537 2.03758E+01 1.37696E+00 3.97384E-03-1.23340E+00-3.49115E-13-4.74815E-14
 -1      2538 2.02891E+01 2.36590E+00-7.73731E-03-1.82814E+00-3.95077E-13-9.16298E-14
 -1      2539 2.66770E+01-5.99932E+00-9.77648E-02 3.67032E+00-1.80411E-13-5.89362E-13
 -1      2540 1.99114E+01 2.81517E+00 1.14435E-03-1.10130E+00-2.66760E-13-3.72345E-13
 -1      2541 1.97818E+01 3.16313E+00-1.47276E-02-1.28899E+00-2.88525E-13-3.86863E-13
 -1      2542 1.98786E+01 3.02717E+00-1.71425E-02-1.47844E+00-3.32283E-13-3.28328E-13
 -1      2543 3.15459E+01 5.29601E+00-6.73903E-02 1.46556E+00-2.81469E-13 2.55906E-13
 -1      2544 4.54798E+00-1.31831E+00 1.62071E-01-1.67579E+00-2.18645E-14 1.17406E-13
 -1      2545 2.07035E+01-3.21020E+00 9.65201E-02-5.13894E+00-7.49678E-14 3.09697E-13
 -1      2546 1.65344E+01-2.31324E+00 1.36719E-01-5.69941E+00-4.72677E-14 1.46619E-13
 -1      2547 7.11329E+00-1.42830E+00 1.74934E-01 3.09632E+00-2.42723E-14-1.52656E-14
 -1      2548 2.43473E+01-3.84213E+00 1.68595E-01-4.43042E+00-1.30257E-13 3.97472E-13
 -1      2549 1.83356E+01-4.48955E+00 7.95465E-02-5.72490E+00 5.71487E-14 1.06345E-13
 -1      2550 1.43174E+01-4.21872E+00 1.47329E-01-7.73528E+00-1.47826E-13 3.11653E-13
 -1      2551 7.20420E+00-2.52923E+00 1.48596E-01-5.75813E+00-1.79273E-13 6.03823E-13
 -1      2552 2.00537E+01-6.72399E-02 3.69773E-04 5.22190E-02 9.04781E-14 2.01713E-13
 -1      2553 2.01011E+01-7.59457E-02 2.93436E-03 1.86609E-02 5.28501E-14-8.22540E-14
 -1      2554 2.01572E+01-1.30483E-01-3.06615E-03 5.26427E-03-6.31677E-14-5.22345E-14
 -1      2555 2.00528E+01-9.49003E-02-4.64000E-03 7.61239E-02-1.08344E-13 1.42242E-13
 -1      2556 2.15597E+01-6.07306E+00 7.63158E-02 5.30365E+00-2.55351E-13-4.55844E-13
 -1      2557 1.93936E+01-4.88496E+00 6.45520E-02 5.75878E+00-6.84730E-14-3.08087E-13
 -1      2558 3.10996E+01 4.76684E+00-1.59091E-01-1.60501E+00-2.61430E-13-1.66533E-16
 -1      2559 3.26180E+01 3.76987E+00-9.70937E-02-8.70147E-01-1.52184E-13 1.81521E-14
 -1      2560 3.12691E+01 2.33812E+00-4.70362E-02-8.82383E-01-2.67841E-14 1.64313E-14
 -1      2561 1.99870E+01 2.84061E+00-1.50482E-02-1.58852E+00-3.47350E-13-2.72945E-13
 -1      2562 2.01329E+01 2.61493E+00-2.20089E-02-1.75494E+00-3.84118E-13-1.78042E-13
 -1      2563 2.02811E+01 2.05134E+00 1.28657E-03-1.48747E+00-3.71896E-13-1.39554E-13
 -1      2564 2.00828E+01 2.49442E+00 2.56426E-03-1.34377E+00-3.12800E-13-2.77392E-13
 -1      2565 3.17135E+01 8.06390E+00-7.88600E-02 3.24383E-01-6.88116E-13 3.43867E-13
 -1      2566 1.82014E+01-4.84143E+00 1.15144E-01 7.62150E+00 2.32758E-13 7.34482E-15
 -1      2567 3.02814E+01-1.82291E+00-6.74423E-02 1.39252E+00 3.78690E-15-2.33147E-14
 -1      2568 1.00998E+01-3.26004E+00 1.45671E-01 7.23111E+00 3.48083E-13-5.46396E-13
 -1      2569 5.06643E+00-1.03023E+00 1.74396E-01-4.43466E-01-9.08024E-14-7.90257E-13
 -1      2570 2.31150E+01-5.20258E+00 7.21531E-02-6.26302E+00-1.34226E-13 1.73715E-13
 -1      2571 2.51865E+01-5.04927E+00-5.06907E-02-4.66947E+00-6.86048E-14-5.68157E-14
 -1      2572 2.13446E+01-4.96447E+00 1.01053E-01-6.59408E+00-7.15539E-14 2.11296E-13
 -1      2573 9.82172E+00-2.45818E+00 1.51614E-01-4.92061E+00 1.75970E-14-2.64844E-13
 -1      2574 1.31626E+01-2.00283E+00 1.22233E-01-5.29219E+00-4.12309E-14-1.88571E-13
 -1      2575 9.34331E+00-7.07374E-01 1.63285E-01-4.02729E+00-6.97775E-14-4.86527E-13
 -1      2576 2.56623E+01-4.64320E+00 6.46277E-02 5.06748E+00 1.62009E-13 1.84089E-13
 -1      2577 2.01460E+01-1.38238E-01 2.50810E-03 8.06439E-02-1.32146E-13-9.75964E-14
 -1      2578 1.98412E+01 2.77158E+00-6.21730E-03 5.13705E-01 7.65858E-14-4.26653E-13
 -1      2579 1.98166E+01 2.82045E+00-5.68186E-03 3.62742E-01 3.14572E-14-4.32816E-13
 -1      2580 1.98000E+01 2.85734E+00-5.58084E-03 2.27137E-01 9.64970E-15-4.36183E-13
 -1      2581 1.97917E+01 2.87361E+00-5.42011E-03 7.25437E-02-2.93211E-14-4.32423E-13
 -1      2582 1.99463E+01 2.50647E+00 3.62767E-03 2.63166E-01 2.55693E-14-4.09109E-13
 -1      2583 2.00376E+01 2.33458E+00-1.12843E-02 1.04321E+00 2.36290E-13-3.76720E-13
 -1      2584 1.99722E+01 2.48252E+00-7.01593E-03 9.09517E-01 2.06332E-13-3.75788E-13
 -1      2585 2.02060E+01 1.93421E+00-1.09077E-02 1.23193E+00 3.09874E-13-2.76731E-13
 -1      2586 2.01209E+01 2.15981E+00-4.40451E-03 1.13630E+00 2.62754E-13-3.28914E-13
 -1      2587 2.01922E+01 1.89881E+00 8.12652E-03 9.32745E-01 2.31728E-13-3.15603E-13
 -1      2588 2.03538E+01 1.35667E+00-8.06491E-03 1.16320E+00 3.49238E-13-1.72828E-13
 -1      2589 2.02759E+01 1.73045E+00 2.63553E-03 1.21866E+00 3.28636E-13-2.34831E-13
 -1      2590 2.02728E+01 1.49057E+00 2.36626E-03 9.74338E-01 2.94227E-13-2.40871E-13
 -1      2591 2.02932E+01 1.05090E+00-5.41810E-04 8.71032E-01 3.23673E-13-1.74363E-13
 -1      2592 2.03227E+01 1.06151E+00 5.88665E-03-8.57845E-01-2.74173E-13-9.21654E-14
 -1      2593 2.02289E+01 8.16363E-01-5.71398E-03-6.15496E-01-2.37907E-13-8.43124E-14
 -1      2594 1.99191E+01 2.60457E+00-7.74972E-03 7.92666E-01 1.68773E-13-3.94191E-13
 -1      2595 1.98756E+01 2.69531E+00-6.11187E-03 6.43369E-01 1.12737E-13-4.10157E-13
 -1      2596 1.99948E+01 2.39541E+00 4.40901E-03 5.15240E-01 8.80972E-14-3.84848E-13
 -1      2597 2.00767E+01 2.20044E+00 6.28432E-03 7.46596E-01 1.73270E-13-3.51404E-13
 -1      2598 2.02181E+01 6.28893E-01 8.57793E-03-4.37610E-01-2.13267E-13-8.50380E-14
 -1      2599 2.01334E+01 4.76458E-01-3.38174E-03-2.78913E-01-1.80784E-13-9.45663E-14
 -1      2600 2.02617E+01 8.94297E-01 8.14099E-05-5.72642E-01-2.32857E-13-1.43690E-13
 -1      2601 2.01072E+01 3.63498E-01 6.59924E-03-1.58957E-01-1.62618E-13-9.58303E-14
 -1      2602 2.00480E+01 2.68775E-01-1.76771E-03-6.10347E-02-1.60931E-13-1.09983E-13
 -1      2603 2.01961E+01 5.29920E-01-1.68034E-03-2.62449E-01-1.99701E-13-1.56829E-13
 -1      2604 2.00218E+01 1.98550E-01 4.52502E-03 1.45386E-02-1.61842E-13-1.12746E-13
 -1      2605 1.99860E+01 1.39064E-01-8.27390E-04 7.13922E-02-1.48845E-13-1.35355E-13
 -1      2606 2.01270E+01 2.99898E-01-2.08763E-03-5.55014E-02-1.80408E-13-1.80271E-13
 -1      2607 1.99650E+01 9.49963E-02 2.90031E-03 1.15073E-01-1.26131E-13-1.24502E-13
 -1      2608 1.99469E+01 5.78160E-02-2.84796E-04 1.44829E-01-1.31507E-13-1.35595E-13
 -1      2609 2.00703E+01 1.53868E-01-1.90204E-03 7.23996E-02-1.50542E-13-1.59928E-13
 -1      2610 1.99319E+01 3.04744E-02 1.73409E-03 1.66667E-01-1.36255E-13-1.35411E-13
 -1      2611 1.99261E+01 7.87284E-03 1.79703E-05 1.78942E-01-1.26990E-13-1.49931E-13
 -1      2612 2.00292E+01 6.17482E-02-1.52480E-03 1.44106E-01-1.46573E-13-1.87337E-13
 -1      2613 1.99163E+01-8.42599E-03 9.26071E-04 1.86460E-01-1.08077E-13-1.15933E-13
 -1      2614 1.99184E+01-2.13039E-02 1.81056E-04 1.87862E-01-8.13526E-14-1.05786E-13
 -1      2615 2.00019E+01 5.12171E-03-1.14389E-03 1.77689E-01-1.07865E-13-1.54816E-13
 -1      2616 1.99126E+01-3.01892E-02 3.83631E-04 1.86505E-01-6.70342E-14-1.21043E-13
 -1      2617 1.99193E+01-3.65314E-02 2.65614E-04 1.81580E-01-9.82134E-14-7.90714E-14
 -1      2618 1.99854E+01-2.77176E-02-8.23174E-04 1.86617E-01-7.35233E-14-3.68810E-14
 -1      2619 1.99165E+01-4.04203E-02 3.29897E-05 1.75213E-01-1.29397E-13-3.45678E-14
 -1      2620 1.99257E+01-4.23828E-02 3.07391E-04 1.67080E-01-1.28334E-13-1.47683E-14
 -1      2621 1.99767E+01-4.44987E-02-5.74440E-04 1.80620E-01-7.26713E-14-3.34600E-14
 -1      2622 1.99248E+01-4.29261E-02-1.82223E-04 1.58401E-01-1.47878E-13 9.06708E-15
 -1      2623 1.99350E+01-4.19884E-02 3.27366E-04 1.49185E-01-8.38969E-14-3.55527E-14
 -1      2624 1.99735E+01-5.04649E-02-3.90935E-04 1.66587E-01-1.33727E-13 1.55539E-14
 -1      2625 1.99355E+01-4.03237E-02-3.04327E-04 1.40045E-01-2.29802E-14-6.88924E-14
 -1      2626 1.99460E+01-3.75020E-02 3.38186E-04 1.31172E-01 1.07747E-14-7.62322E-14
 -1      2627 1.99739E+01-4.92243E-02-2.60777E-04 1.49315E-01-8.94163E-14-4.46802E-14
 -1      2628 1.99473E+01-3.44129E-02-3.64212E-04 1.22823E-01-1.48358E-14-1.23881E-13
 -1      2629 1.99577E+01-3.04051E-02 3.47258E-04 1.15234E-01-4.41090E-14-1.45344E-13
 -1      2630 1.99767E+01-4.32668E-02-1.72887E-04 1.32088E-01-2.78155E-14-8.58368E-14
 -1      2631 1.99596E+01-2.64358E-02-3.83413E-04 1.08500E-01-1.63447E-14-1.37805E-13
 -1      2632 1.99697E+01-2.17313E-02 3.58373E-04 1.02795E-01-2.25615E-14-1.10194E-13
 -1      2633 1.99811E+01-3.43129E-02-1.18029E-04 1.17114E-01-1.53575E-14-1.72510E-13
 -1      2634 1.99721E+01-1.72781E-02-3.76000E-04 9.82012E-02-9.57093E-14-9.50562E-14
 -1      2635 1.99819E+01-1.22494E-02 3.72294E-04 9.47284E-02-1.18970E-13-1.15007E-13
 -1      2636 1.99866E+01-2.35784E-02-8.89642E-05 1.05841E-01-5.70254E-14-1.94988E-13
 -1      2637 1.99848E+01-7.64147E-03-3.49671E-04 9.25769E-02-1.04783E-13-1.44214E-13
 -1      2638 1.99947E+01-2.63156E-03 3.86530E-04 9.14815E-02-6.04474E-14-1.98868E-13
 -1      2639 1.99930E+01-1.19953E-02-8.12674E-05 9.91645E-02-1.16699E-13-1.53551E-13
 -1      2640 1.99982E+01 1.78730E-03-3.06055E-04 9.18837E-02-2.93355E-14-1.66476E-13
 -1      2641 2.00085E+01 6.37478E-03 3.94734E-04 9.31106E-02-1.43335E-14-1.63523E-13
 -1      2642 2.00005E+01-4.19588E-04-9.33849E-05 9.75498E-02-4.39949E-14-1.88063E-13
 -1      2643 2.00130E+01 1.01591E-02-2.40771E-04 9.59767E-02 2.65781E-14-1.37551E-13
 -1      2644 2.00240E+01 1.37629E-02 3.85815E-04 9.92278E-02 4.39620E-14-1.06625E-13
 -1      2645 2.00093E+01 1.01548E-02-1.26668E-04 1.01059E-01 4.02141E-14-1.32524E-13
 -1      2646 2.00299E+01 1.62738E-02-1.43256E-04 1.04207E-01 1.00055E-14-1.11350E-13
 -1      2647 2.00422E+01 1.80745E-02 3.42827E-04 1.08852E-01 1.88875E-14-1.50038E-13
 -1      2648 2.00204E+01 1.83687E-02-1.85833E-04 1.09290E-01 3.11176E-14-7.63669E-14
 -1      2649 2.00504E+01 1.83881E-02 3.38234E-06 1.15224E-01 7.80747E-14-1.27196E-13
 -1      2650 2.00644E+01 1.72146E-02 2.41886E-04 1.20166E-01 1.43467E-13-6.67550E-14
 -1      2651 2.00348E+01 2.22647E-02-2.79105E-04 1.21212E-01 5.30797E-14-1.05296E-13
 -1      2652 2.00760E+01 1.40487E-02 2.21656E-04 1.26676E-01 1.32986E-13-1.29858E-13
 -1      2653 2.00920E+01 8.31995E-03 5.15647E-05 1.30180E-01 7.09176E-14-2.02665E-13
 -1      2654 2.00544E+01 1.90738E-02-4.17590E-04 1.34899E-01 8.90563E-14-1.48882E-13
 -1      2655 2.01088E+01 1.67698E-05 5.36926E-04 1.34831E-01 4.32525E-15-2.04255E-13
 -1      2656 2.01271E+01-1.22274E-02-2.66308E-04 1.34334E-01-6.32115E-14-1.98596E-13
 -1      2657 2.00817E+01 5.08965E-03-6.12936E-04 1.47162E-01 1.68869E-14-3.09800E-13
 -1      2658 2.01513E+01-2.75964E-02 9.70695E-04 1.34148E-01-1.05458E-13-1.91567E-13
 -1      2659 2.01719E+01-4.84878E-02-7.52795E-04 1.26118E-01-1.05882E-13-2.16415E-13
 -1      2660 2.01202E+01-2.42443E-02-8.71688E-04 1.53099E-01-8.66469E-14-2.07312E-13
 -1      2661 2.02059E+01-7.27948E-02 1.52743E-03 1.16932E-01-1.39211E-13-1.72807E-13
 -1      2662 2.02284E+01-1.04127E-01-1.44205E-03 9.68547E-02-1.69917E-13-2.09602E-13
 -1      2663 2.01741E+01-7.38287E-02-1.18438E-03 1.45628E-01-1.26064E-13-1.31509E-13
 -1      2664 2.02748E+01-1.38509E-01 2.17257E-03 7.32587E-02-1.02447E-13-1.45438E-13
 -1      2665 2.02980E+01-1.80782E-01-2.34140E-03 3.59271E-02-1.58912E-15-1.78012E-13
 -1      2666 2.02481E+01-1.47693E-01-1.50772E-03 1.15174E-01-1.04509E-13-2.18826E-16
 -1      2667 2.03582E+01-2.24497E-01 2.80058E-03-8.44133E-03 4.77126E-14-1.21692E-13
 -1      2668 2.03796E+01-2.75422E-01-3.39317E-03-6.81113E-02 4.94448E-14-3.80727E-14
 -1      2669 2.03460E+01-2.46744E-01-1.74094E-03 4.97942E-02 5.79387E-14-2.27682E-14
 -1      2670 2.04527E+01-3.24218E-01 3.20476E-03-1.39570E-01 5.53834E-14 2.16328E-14
 -1      2671 2.04679E+01-3.76804E-01-4.41852E-03-2.24914E-01 1.27487E-13 9.89323E-14
 -1      2672 2.04691E+01-3.65261E-01-1.70205E-03-6.36959E-02 8.02218E-14 1.17701E-13
 -1      2673 2.05483E+01-4.21134E-01 3.05622E-03-3.27576E-01 9.37592E-14 1.39791E-13
 -1      2674 2.05508E+01-4.61931E-01-5.05161E-03-4.37557E-01-1.24453E-14 1.56839E-13
 -1      2675 2.06123E+01-4.86435E-01-1.13506E-03-2.36770E-01 9.61015E-14 2.81744E-13
 -1      2676 2.06262E+01-4.85861E-01 1.96735E-03-5.69598E-01-7.97142E-14 2.64505E-13
 -1      2677 2.06080E+01-4.94758E-01-4.70730E-03-6.95308E-01 3.65446E-14 2.99528E-13
 -1      2678 2.07605E+01-5.78368E-01 2.12752E-04-4.73421E-01 1.88953E-14 2.89064E-13
 -1      2679 2.06587E+01-4.77322E-01-3.30285E-04-8.43771E-01 1.13054E-13 2.63275E-13
 -1      2680 2.06123E+01-4.31187E-01-2.72507E-03-9.65088E-01 1.71796E-13 2.51333E-13
 -1      2681 2.08852E+01-5.93802E-01 2.39567E-03-7.60976E-01 4.95024E-14 3.06197E-13
 -1      2682 2.06150E+01-3.52420E-01-3.64369E-03-1.10108E+00 8.95797E-14 3.18204E-13
 -1      2683 2.05379E+01-2.34689E-01 1.16872E-03-1.18595E+00-1.34683E-14 3.14943E-13
 -1      2684 2.09471E+01-4.79090E-01 4.91855E-03-1.05896E+00 1.72625E-13 3.31545E-13
 -1      2685 2.04764E+01-8.73229E-02-7.00253E-03-1.26471E+00-3.01622E-14 2.56942E-13
 -1      2686 2.03756E+01 9.74130E-02 6.15500E-03-1.27475E+00-3.95557E-14 1.81213E-13
 -1      2687 2.09079E+01-1.97090E-01 6.46399E-03-1.29227E+00-8.18889E-14 3.19716E-13
 -1      2688 2.02565E+01 2.94160E-01-8.62552E-03-1.24688E+00-5.07712E-14 3.11211E-13
 -1      2689 2.01510E+01 5.08116E-01 1.00257E-02-1.15177E+00-6.94052E-14 3.15609E-13
 -1      2690 2.07552E+01 2.38789E-01 5.27508E-03-1.36036E+00-2.71742E-14 1.85644E-13
 -1      2691 2.00136E+01 7.02870E-01-6.79079E-03-9.87631E-01-1.17349E-13 2.53496E-13
 -1      2692 1.99308E+01 8.79120E-01 1.01803E-02-7.84835E-01-3.36280E-14 2.50137E-13
 -1      2693 2.05275E+01 7.38317E-01 7.17263E-04-1.17385E+00-1.17151E-13 2.41767E-13
 -1      2694 1.98359E+01 1.00336E+00-1.25863E-03-5.01442E-01 4.22374E-14 1.14010E-13
 -1      2695 1.98007E+01 1.07405E+00 5.80968E-03-2.28526E-01 1.51631E-13-4.39545E-14
 -1      2696 2.03165E+01 1.14652E+00-5.07306E-03-7.12508E-01-6.72392E-14-2.97107E-14
 -1      2697 1.97963E+01 1.07711E+00 5.77000E-03 1.04418E-01 1.79685E-13-1.11495E-13
 -1      2698 1.98194E+01 1.01196E+00-9.36696E-04 3.79173E-01 9.22712E-14-1.45418E-13
 -1      2699 2.02249E+01 1.30957E+00-7.72569E-03-6.66703E-02 8.02244E-14-2.38934E-13
 -1      2700 1.99074E+01 8.91807E-01 1.04831E-02 6.67072E-01 2.56634E-14-2.06186E-13
 -1      2701 1.99793E+01 7.17753E-01-6.67530E-03 8.74014E-01-3.03974E-15-1.92130E-13
 -1      2702 2.03007E+01 1.15937E+00-5.13125E-03 5.84396E-01 2.29618E-14-3.11214E-13
 -1      2703 2.01135E+01 5.23371E-01 1.04841E-02 1.04404E+00 1.11856E-13-2.36531E-13
 -1      2704 2.02094E+01 3.07875E-01-8.85239E-03 1.14330E+00 1.82019E-13-1.54544E-13
 -1      2705 2.05017E+01 7.56784E-01 6.07985E-04 1.05738E+00 6.21177E-14-3.79656E-13
 -1      2706 2.03278E+01 1.08784E-01 6.55976E-03 1.17523E+00 2.44627E-13-1.50574E-13
 -1      2707 2.04199E+01-7.89845E-02-7.43534E-03 1.16775E+00 1.08247E-13-1.67865E-14
 -1      2708 2.07254E+01 2.54288E-01 5.21977E-03 1.25466E+00 2.06136E-13-6.86256E-13
 -1      2709 2.04804E+01-2.28622E-01 1.36184E-03 1.09008E+00-5.60205E-14 2.46135E-14
 -1      2710 2.05487E+01-3.47665E-01-4.03443E-03 1.00621E+00-6.89061E-14 8.18898E-15
 -1      2711 2.08759E+01-1.88270E-01 6.46029E-03 1.19177E+00 1.31699E-13-5.49618E-13
 -1      2712 2.05423E+01-4.25670E-01-2.76758E-03 8.69523E-01-8.64128E-14 1.29203E-13
 -1      2713 2.05790E+01-4.68831E-01-4.32654E-04 7.49346E-01 8.25159E-14 1.20828E-13
 -1      2714 2.09101E+01-4.72698E-01 5.14846E-03 9.58209E-01-7.82222E-15-1.43944E-13
 -1      2715 2.05205E+01-4.80878E-01-5.00610E-03 6.01111E-01 9.73373E-14 6.93048E-14
 -1      2716 2.05282E+01-4.63645E-01 2.26553E-03 4.79090E-01 3.18934E-14 3.89514E-14
 -1      2717 2.08370E+01-5.80314E-01 2.69411E-03 6.58852E-01 6.11825E-14-1.20453E-13
 -1      2718 2.04402E+01-4.29472E-01-5.51919E-03 3.51795E-01-4.66870E-14 5.13082E-14
 -1      2719 2.04261E+01-3.76792E-01 3.31139E-03 2.50858E-01-9.84110E-14-8.21372E-14
 -1      2720 2.06932E+01-5.44882E-01 6.77914E-04 3.74951E-01-6.85937E-14-7.62485E-14
 -1      2721 2.03317E+01-3.18070E-01-4.59987E-03 1.58240E-01-2.45562E-13-3.94341E-14
 -1      2722 2.03020E+01-2.51647E-01 3.29379E-03 8.94196E-02-3.09390E-13-1.88095E-13
 -1      2723 2.05201E+01-4.25756E-01-1.10940E-03 1.54801E-01-2.49336E-13-1.45261E-13
 -1      2724 1.78607E+01-2.62436E+00 1.97878E-01 5.72637E+00 5.38875E-14-3.94990E-13
 -1      2725 1.99484E+01 6.08543E-02-3.07355E-04-1.42026E-01 5.56110E-14-1.60440E-13
 -1      2726 1.99672E+01 9.89497E-02 2.96451E-03-1.11213E-01 8.25814E-14-1.66890E-13
 -1      2727 2.02104E+01 1.15482E-01 8.86097E-03-1.06888E+00 2.16791E-13 1.69114E-13
 -1      2728 2.00399E+01 2.48057E-01-5.99252E-03-1.11524E+00 7.72877E-14 7.19002E-16
 -1      2729 1.99885E+01 1.44087E-01-8.64974E-04-6.62311E-02 1.04271E-13-1.75963E-13
 -1      2730 2.00253E+01 2.04847E-01 4.55581E-03-7.68630E-03 1.15170E-13-1.44378E-13
 -1      2731 2.00728E+01 1.59503E-01-1.92461E-03-6.73793E-02 9.91846E-14-1.72360E-13
 -1      2732 1.89510E+01 1.47589E+00-2.13638E-02 2.17682E+00-5.91147E-14-7.99017E-14
 -1      2733 1.87953E+01 1.61352E+00 6.43433E-03 2.48152E+00-5.62736E-14-1.96329E-13
 -1      2734 1.99187E+01-2.05396E-02 1.78075E-04-1.87472E-01 7.09762E-14-1.23859E-13
 -1      2735 1.99170E+01-7.21732E-03 9.64289E-04-1.85710E-01 6.85480E-14-8.11369E-14
 -1      2736 1.99195E+01-3.64020E-02 2.66121E-04-1.81615E-01 9.92362E-14-1.18163E-13
 -1      2737 1.99129E+01-2.98126E-02 4.01047E-04-1.86413E-01 1.03663E-13-1.27317E-13
 -1      2738 1.99864E+01-2.68971E-02-8.39586E-04-1.86262E-01 1.00347E-13-9.17725E-14
 -1      2739 1.99254E+01-4.25727E-02 3.14516E-04-1.68091E-01 6.73988E-14-5.36693E-14
 -1      2740 1.99166E+01-4.04454E-02 3.95483E-05-1.75770E-01 6.78133E-14-7.21205E-14
 -1      2741 1.99777E+01-4.43237E-02-6.01942E-04-1.81057E-01 6.48991E-14-3.62847E-14
 -1      2742 1.99349E+01-4.27662E-02 3.35226E-04-1.50275E-01 2.87630E-14-1.80460E-14
 -1      2743 1.99246E+01-4.35020E-02-1.67213E-04-1.59525E-01 5.59898E-14-7.26444E-14
 -1      2744 1.99745E+01-5.08158E-02-4.15510E-04-1.67686E-01 6.68373E-14-1.37732E-14
 -1      2745 1.99463E+01-3.84599E-02 3.52709E-04-1.32141E-01-2.38932E-15-5.58706E-14
 -1      2746 1.99355E+01-4.12429E-02-2.91963E-04-1.41097E-01 2.99271E-14-3.64993E-14
 -1      2747 1.99752E+01-5.01368E-02-2.86181E-04-1.50527E-01 2.58137E-14-4.87830E-14
 -1      2748 1.99586E+01-3.10467E-02 3.78504E-04-1.16150E-01-3.87279E-14-3.15652E-14
 -1      2749 1.99479E+01-3.52975E-02-3.62239E-04-1.23743E-01-9.25766E-16-9.98319E-15
 -1      2750 1.99784E+01-4.42374E-02-1.97950E-04-1.33287E-01-1.86225E-14-6.61246E-14
 -1      2751 1.99716E+01-2.12547E-02 4.18419E-04-1.04071E-01-8.52128E-14-2.67426E-14
 -1      2752 1.99609E+01-2.66709E-02-3.97584E-04-1.09502E-01-6.34810E-14-3.32325E-14
 -1      2753 1.99834E+01-3.46416E-02-1.41079E-04-1.18438E-01-4.83124E-14 2.06169E-14
 -1      2754 1.99850E+01-9.28104E-03 4.80890E-04-9.73221E-02-6.20910E-14-4.25958E-14
 -1      2755 1.99742E+01-1.58254E-02-4.18889E-04-9.99192E-02-7.57294E-14 1.70198E-14
 -1      2756 1.99896E+01-2.21140E-02-1.05907E-04-1.07801E-01-9.23481E-14 9.47081E-15
 -1      2757 1.99992E+01 5.16836E-03 5.74671E-04-9.72350E-02-2.61184E-15-4.65308E-14
 -1      2758 1.99879E+01-2.72234E-03-4.44355E-04-9.63243E-02-2.50868E-15-1.23062E-14
 -1      2759 1.99966E+01-6.78279E-03-8.16161E-05-1.02853E-01-3.49351E-14-1.59403E-14
 -1      2760 2.00143E+01 2.29147E-02 7.09531E-04-1.05295E-01 6.87214E-15-5.06996E-14
 -1      2761 2.00021E+01 1.31781E-02-4.92429E-04-1.00075E-01 7.92032E-15-5.62836E-14
 -1      2762 2.00040E+01 1.18324E-02-5.53590E-05-1.04984E-01 2.84984E-14 1.10547E-15
 -1      2763 2.00304E+01 4.54100E-02 8.96484E-04-1.23388E-01 3.69229E-14-2.61258E-14
 -1      2764 2.00167E+01 3.29841E-02-5.84541E-04-1.12795E-01 2.77984E-14-3.02610E-14
 -1      2765 2.00114E+01 3.48741E-02-9.91772E-06-1.15719E-01 1.98913E-15 5.17964E-14
 -1      2766 2.00472E+01 7.49260E-02 1.14705E-03-1.54063E-01 1.03636E-13-6.95824E-14
 -1      2767 2.00317E+01 5.85146E-02-7.48846E-04-1.36619E-01 7.26258E-14-1.69018E-14
 -1      2768 2.00179E+01 6.42853E-02 8.10511E-05-1.36936E-01 8.90829E-14 5.34556E-14
 -1      2769 2.00639E+01 1.14848E-01 1.47134E-03-2.00837E-01 8.02485E-14-6.67815E-14
 -1      2770 2.00461E+01 9.25380E-02-1.02517E-03-1.74464E-01 1.02622E-13-8.88226E-14
 -1      2771 2.00216E+01 1.03047E-01 2.59317E-04-1.71064E-01 1.26481E-13-2.43572E-15
 -1      2772 2.00778E+01 1.70083E-01 1.87400E-03-2.68529E-01 4.58848E-14-2.58205E-14
 -1      2773 2.00580E+01 1.39123E-01-1.47087E-03-2.30332E-01 9.27056E-14-2.32171E-14
 -1      2774 2.00196E+01 1.55534E-01 5.92190E-04-2.21285E-01 4.74084E-14 8.38993E-14
 -1      2775 2.00838E+01 2.47524E-01 2.33387E-03-3.63630E-01 9.77395E-14-5.69902E-14
 -1      2776 2.00631E+01 2.04097E-01-2.16594E-03-3.09646E-01 9.61058E-14-1.17190E-14
 -1      2777 2.00063E+01 2.27969E-01 1.18621E-03-2.91683E-01 4.71515E-14 2.86290E-14
 -1      2778 2.00715E+01 3.56507E-01 2.68258E-03-4.94581E-01 5.51443E-14-5.68587E-14
 -1      2779 2.00535E+01 2.95671E-01-3.17317E-03-4.19538E-01 7.19209E-14-5.56974E-14
 -1      2780 1.99720E+01 3.28835E-01 2.19009E-03-3.87290E-01 8.27358E-14 3.39168E-14
 -1      2781 2.00285E+01 5.00134E-01 2.98965E-03-6.61485E-01 7.46246E-14 5.78288E-14
 -1      2782 2.00178E+01 4.19996E-01-4.76182E-03-5.65220E-01 7.90014E-14 1.11617E-14
 -1      2783 1.99035E+01 4.65959E-01 4.16300E-03-5.09992E-01 3.46219E-14 5.26984E-14
 -1      2784 1.99236E+01 7.06039E-01 3.40774E-03-8.93490E-01 2.95389E-14 7.31026E-14
 -1      2785 1.99317E+01 5.92193E-01-6.99560E-03-7.57813E-01 8.25849E-14 4.47302E-14
 -1      2786 1.97753E+01 6.52444E-01 6.51344E-03-6.68614E-01 7.56666E-14-4.17228E-15
 -1      2787 1.97125E+01 9.77174E-01 3.04278E-03-1.19499E+00-8.87706E-14 1.05862E-13
 -1      2788 1.97579E+01 8.28947E-01-1.03432E-02-1.01693E+00-1.04514E-13 8.87106E-14
 -1      2789 1.95441E+01 9.09553E-01 1.07565E-02-8.72585E-01-3.12377E-14-1.04591E-13
 -1      2790 1.93323E+01 1.30789E+00 2.06961E-03-1.57645E+00-1.38784E-13 8.95276E-14
 -1      2791 1.94417E+01 1.13111E+00-1.50430E-02-1.34979E+00-4.23652E-14 1.68338E-13
 -1      2792 1.91524E+01 1.23926E+00 1.69879E-02-1.12197E+00-9.30690E-14 4.77647E-14
 -1      2793 1.87014E+01 1.65126E+00 2.18771E-03-2.04660E+00-3.27550E-14 1.09775E-13
 -1      2794 1.89049E+01 1.47633E+00-2.13203E-02-1.76786E+00-8.95394E-14 1.14745E-13
 -1      2795 1.85149E+01 1.62695E+00 2.60173E-02-1.41797E+00-9.39299E-14-5.41767E-14
 -1      2796 1.77387E+01 1.86311E+00 9.73160E-03-2.62466E+00-5.93319E-14 1.70756E-13
 -1      2797 1.80509E+01 1.77782E+00-2.73587E-02-2.28909E+00-1.34636E-14 1.56944E-13
 -1      2798 1.75162E+01 2.00814E+00 4.04324E-02-1.76950E+00-4.15386E-14-6.45534E-15
 -1      2799 1.64215E+01 1.59915E+00 2.90973E-02-3.37848E+00-1.43135E-13 6.33521E-15
 -1      2800 1.67834E+01 1.81657E+00-2.49042E-02-2.95536E+00-5.34113E-14 4.63709E-14
 -1      2801 1.60236E+01 2.21239E+00 7.24351E-02-2.22056E+00-7.90709E-15-6.21859E-14
 -1      2802 9.78973E+00-4.07402E-01 9.18337E-02 4.02239E+00-1.02973E-13 1.87850E-13
 -1      2803 7.52075E+00 2.86459E-01 2.48101E-01 1.75441E+00-6.64642E-14-1.42664E-14
 -1      2804 1.48790E+01-7.96073E-01 1.34391E-01-5.13252E+00-8.75688E-14-3.34316E-14
 -1      2805 1.98736E+01 2.69928E+00-6.08883E-03-6.37713E-01-1.82691E-13-4.09879E-13
 -1      2806 1.99169E+01 2.60933E+00-7.74782E-03-7.86988E-01-2.19470E-13-3.93021E-13
 -1      2807 1.94778E+01 1.22039E+00-1.17334E-02 1.69528E+00 3.15871E-13 5.68763E-14
 -1      2808 1.93963E+01 1.34746E+00 4.32891E-03 1.95035E+00 9.85718E-14-1.12961E-14
 -1      2809 1.85705E+01 1.67507E+00 2.51606E-02 1.81982E+00 3.64884E-14-2.53087E-13
 -1      2810 1.81350E+01 1.69119E+00-2.44866E-02 2.76869E+00-2.70647E-14-2.10224E-13
 -1      2811 1.79115E+01 1.71061E+00 1.93420E-02 3.12145E+00-6.56964E-14-2.17275E-13
 -1      2812 1.75393E+01 1.97117E+00 4.13965E-02 2.24961E+00-1.50886E-14-3.26655E-13
 -1      2813 1.96098E+01 1.14985E+00-2.59746E-03 1.32314E+00 1.65421E-13 4.57604E-13
 -1      2814 1.96543E+01 1.18656E+00 1.15454E-02 1.54403E+00 3.28498E-13 1.95483E-13
 -1      2815 1.90974E+01 1.43065E+00 8.71188E-03 1.47280E+00 6.66840E-14-8.64070E-14
 -1      2816 1.93535E+01 1.29349E+00-1.01756E-02 1.20208E+00 1.63409E-13 4.33191E-13
 -1      2817 1.98468E+01 4.59970E-01 1.14403E-02-1.13891E+00 1.83731E-13-2.14760E-13
 -1      2818 1.96199E+01 6.09521E-01-1.18369E-02-1.08382E+00 2.92859E-13-4.27684E-13
 -1      2819 1.99326E+01 1.68939E-01-7.35432E-03-1.28552E+00 1.43343E-13-2.20065E-13
 -1      2820 2.94138E+01 3.87808E+00-1.40888E-01 1.84651E+00-1.69254E-13 3.20188E-13
 -1      2821 2.94152E+01 5.81511E+00-2.21761E-01 1.56730E+00-4.08590E-13 3.49894E-13
 -1      2822 1.93976E+01 8.68235E-01 1.12333E-02-9.66881E-01 1.32686E-13-4.08260E-13
 -1      2823 1.91739E+01 1.00511E+00-1.49548E-02-7.89931E-01 3.68400E-13 8.39693E-14
 -1      2824 1.94002E+01 6.05900E-01-3.30584E-03-1.20709E+00 1.68474E-13-3.26174E-13
 -1      2825 2.04251E+01-1.16084E-01 5.15746E-03-8.46999E-01 3.75552E-13-1.76061E-13
 -1      2826 2.03344E+01-1.87968E-02-4.18809E-04-9.53617E-01 2.86404E-13 1.35621E-13
 -1      2827 2.03349E+01-1.48583E-01-7.55193E-03-1.12455E+00 3.35085E-13 1.65249E-13
 -1      2828 2.04935E+01-2.37599E-01 1.40812E-03-5.57673E-01 3.46660E-13-4.83229E-13
 -1      2829 2.04765E+01-1.76649E-01 3.36376E-03-6.88885E-01 3.74613E-13-4.67691E-13
 -1      2830 2.05542E+01-3.26751E-01-6.15565E-03-8.29772E-01 3.18721E-13-3.48960E-13
 -1      2831 2.04400E+01-2.69603E-01-3.35035E-03-2.77078E-01 2.93809E-13-8.72531E-14
 -1      2832 2.04842E+01-2.37816E-01 6.23880E-03-4.02258E-01 4.24808E-13-3.97667E-13
 -1      2833 2.05975E+01-3.81644E-01-4.23983E-03-4.98759E-01 3.75642E-13-3.69073E-13
 -1      2834 2.07284E+01-5.02944E+00-4.04951E-02 7.00991E+00 3.09058E-13 1.72765E-13
 -1      2835 1.68220E+01-4.14383E+00 1.60099E-01 7.52246E+00 3.47111E-13 9.00946E-14
 -1      2836 2.00516E+01 2.77849E-01-1.60090E-03 6.95858E-02 1.23291E-13-1.23915E-13
 -1      2837 2.01093E+01 3.73156E-01 5.28758E-03 1.71006E-01 1.50025E-13-1.21755E-13
 -1      2838 2.01298E+01 3.08682E-01-2.24279E-03 6.34277E-02 1.49207E-13-1.61941E-13
 -1      2839 2.02127E+01-1.70882E-01 9.09474E-04 2.67168E-02-2.05409E-14-1.23594E-13
 -1      2840 2.02579E+01-1.90696E-01-1.79028E-03-2.76778E-02 4.28301E-14-2.47083E-13
 -1      2841 2.02347E+01-2.12407E-01-3.95617E-03 5.62199E-02-1.21959E-13-1.64625E-13
 -1      2842 1.69959E+01 1.61770E+00 4.89023E-03 3.51975E+00-2.53996E-13-1.77837E-13
 -1      2843 1.67309E+01 1.16730E+00 3.13629E-02 3.94308E+00-2.58932E-13-2.56770E-13
 -1      2844 1.60543E+01 2.03197E+00 8.00160E-02 2.80967E+00-1.49812E-13-1.94934E-13
 -1      2845 5.75733E+00 2.23279E-02 1.74440E-01 1.02801E+00 6.20337E-14-8.47517E-13
 -1      2846 6.96229E+00 8.13141E-02 1.77992E-01-1.58362E+00-3.44794E-14-6.55143E-13
 -1      2847 1.28938E+01-2.93554E+00 2.04454E-01-7.17517E+00-2.06501E-13 4.09020E-13
 -1      2848 1.67559E+01-4.01966E+00 3.23987E-02-7.38329E+00-1.22444E-13-4.55053E-14
 -1      2849 1.99269E+01 9.57689E-03 5.72784E-06-1.77660E-01 4.20356E-14-1.16273E-13
 -1      2850 1.99332E+01 3.28105E-02 1.78547E-03-1.64732E-01 4.09839E-14-1.23256E-13
 -1      2851 2.00032E+01 7.00720E-03-1.16511E-03-1.76447E-01 5.38510E-14-8.04219E-14
 -1      2852 2.92510E+01 7.23268E+00-1.69342E-01 8.67280E-01-5.78038E-13 4.29302E-13
 -1      2853 2.93104E+01 7.55749E+00-1.94494E-01-1.22607E-01-6.57502E-13 4.32076E-13
 -1      2854 2.63231E+01-4.49898E+00-8.32174E-02 3.81095E+00 1.20397E-13 7.62307E-14
 -1      2855 2.40460E+01-4.93743E+00 1.13186E-01 5.51573E+00 2.24154E-13 1.05443E-13
 -1      2856 7.53800E+00-9.14986E-01 1.23783E-01 4.98580E+00 3.80793E-13-6.22169E-13
 -1      2857 6.36827E+00-1.23765E-01 1.87735E-01 3.05684E+00 2.04052E-13-6.99829E-13
 -1      2858 3.01189E+01-6.68362E-01-1.43469E-01-1.30176E-01-1.75832E-14-6.17700E-14
 -1      2859 2.85496E+01-2.69293E+00-2.03994E-02 1.29161E+00-3.10394E-14-6.10484E-14
 -1      2860 2.97790E+01 7.26527E+00-2.05081E-01-9.02826E-01-7.66470E-13 4.10900E-13
 -1      2861 3.00012E+01 6.26697E+00-1.87721E-01-1.45498E+00-5.75290E-13 2.52645E-13
 -1      2862 1.28630E+01-2.90642E+00 2.86453E-02 7.45058E+00 4.79422E-13-2.49356E-13
 -1      2863 9.78125E+00-1.80249E+00 1.79876E-01 6.29454E+00 4.73760E-13-5.15171E-13
 -1      2864 1.07304E+01-6.04607E-01 1.79051E-01 5.28072E+00 4.40578E-13-4.88665E-13
 -1      2865 7.24571E+00-1.16585E+00 1.88639E-01-4.67646E+00-9.83658E-14 6.66078E-13
 -1      2866 9.33634E+00-2.10084E+00 6.49776E-02-6.41153E+00-1.24289E-13 6.71158E-13
 -1      2867 5.59054E+00-1.48268E-01 1.25947E-01-5.52295E-01-4.10323E-14 2.39808E-14
 -1      2868 5.95047E+00-5.54743E-01 1.73458E-01-2.97852E+00-1.12764E-13 4.48391E-13
 -1      2869 8.19866E+00-1.49575E-01 1.81242E-01-3.66785E+00 2.26832E-14 6.44679E-13
 -1      2870 2.03169E+01 1.68994E+00-6.79676E-03-1.29682E+00-3.42838E-13-1.29914E-13
 -1      2871 2.02993E+01 1.30356E+00-3.04758E-03-1.02184E+00-3.11815E-13-1.10214E-13
 -1      2872 2.02814E+01 1.37493E+00 6.24967E-04-9.25130E-01-2.81805E-13-1.49388E-13
 -1      2873 2.02240E+01 1.95420E+00-4.17809E-04-1.26779E+00-3.18253E-13-1.97893E-13
 -1      2874 1.99303E+01 2.54286E+00 3.41465E-03 2.35894E-03-4.51885E-14-4.01791E-13
 -1      2875 1.97914E+01 2.87395E+00-5.46784E-03-6.45871E-02-6.76939E-14-4.41953E-13
 -1      2876 1.97993E+01 2.85888E+00-5.53971E-03-2.19223E-01-1.03739E-13-4.41399E-13
 -1      2877 2.02724E+01 8.32690E-01 1.83235E-03 6.82893E-01 2.66654E-13-1.59273E-13
 -1      2878 2.02843E+01 1.05231E+00 4.24250E-03 7.57410E-01 2.70776E-13-1.95273E-13
 -1      2879 2.01994E+01 6.66806E-01-1.77656E-03 4.98121E-01 2.32866E-13-1.54088E-13
 -1      2880 1.88064E+01 1.47143E+00-1.71798E-03 1.31292E-01 2.47103E-13 7.78215E-13
 -1      2881 1.88338E+01 1.48342E+00-6.82507E-03 4.55325E-01 5.98318E-14 6.81330E-13
 -1      2882 1.75840E+01-1.22738E+00 7.75594E-02 5.31112E+00-6.28386E-14-4.19831E-13
 -1      2883 1.52791E+01-1.99403E+00 8.67922E-02 5.70390E+00 1.65701E-14-3.74784E-13
 -1      2884 1.29379E+01-8.53341E-01 2.42886E-01 5.06322E+00-2.89213E-14-4.79616E-14
 -1      2885 1.70972E+01 2.93605E-01 1.30021E-01 4.80549E+00-1.78389E-13-2.24723E-13
 -1      2886 2.03759E+01-2.82219E-01 4.15303E-03 2.94297E-02-2.13321E-13-1.47797E-13
 -1      2887 2.00310E+01 6.51706E-02-1.54662E-03-1.41370E-01 4.15668E-14-1.29010E-13
 -1      2888 2.77679E+01 5.83660E+00-1.10303E-01 1.29570E+00-4.45949E-13 3.66970E-13
 -1      2889 2.03277E+01-1.94000E-01 4.54006E-03-1.12662E-01 1.28492E-13 7.18132E-14
 -1      2890 9.08908E+00 1.14495E+00 1.29276E-01-1.52338E+00 1.09045E-13-5.94136E-13
 -1      2891 9.02781E+00 3.03111E-01 2.35105E-01-2.77307E+00-3.60406E-14-5.92526E-13
 -1      2892 1.11275E+01 3.56489E-01 1.00599E-01-3.71393E+00-3.54300E-14-4.36901E-13
 -1      2893 2.79865E+01 6.75628E+00-1.22796E-01-5.03791E-01-7.45182E-13 4.92185E-13
 -1      2894 1.43852E+01 1.15072E+00 5.12315E-02-3.68951E+00-9.44418E-14-1.97793E-13
 -1      2895 1.31542E+01 1.82796E+00 1.29703E-01-2.62171E+00-2.05287E-14-3.65777E-13
 -1      2896 1.25021E+01-1.86294E+00 1.56430E-01-6.35585E+00-1.64632E-13 4.76078E-13
 -1      2897 1.39729E+01 1.58670E-01 1.22471E-01-4.22951E+00-2.76029E-14-2.39753E-13
 -1      2898 2.01206E+01 4.47807E-01-6.87770E-04 2.54355E-01 1.75716E-13-1.25411E-13
 -1      2899 2.01856E+01 5.58159E-01 4.50195E-03 3.85810E-01 2.10036E-13-1.36176E-13
 -1      2900 2.02262E+01 6.92606E-01-4.30424E-03 4.48834E-01 2.06053E-13-1.66709E-13
 -1      2901 2.01821E+01 4.92111E-01-2.81689E-03 2.36814E-01 1.79544E-13-1.36722E-13
 -1      2902 1.96086E+01-4.31256E+00 1.38028E-01-6.79942E+00-1.22832E-13 1.19925E-13
 -1      2903 2.16591E+01-4.50519E+00-2.23927E-02-5.63258E+00-2.23710E-14 7.32452E-14
 -1      2904 1.77578E+01-3.29848E+00 6.64551E-02-6.56332E+00-1.63008E-13 1.39659E-13
 -1      2905 1.89967E+01 1.24158E+00 6.13469E-03-5.19351E-01 4.29997E-13 4.29117E-13
 -1      2906 1.88639E+01 1.32912E+00-1.30051E-02-2.41681E-01 3.15156E-13 5.41544E-13
 -1      2907 1.85704E+01 1.43206E+00 9.59338E-03-1.41365E-01 2.17596E-13 5.68939E-13
 -1      2908 2.93515E+01 1.78099E+00-2.32804E-01 1.69810E+00 8.53762E-14 3.91950E-13
 -1      2909 2.81772E+01 2.85802E+00-4.79316E-02 2.08437E+00-1.61815E-14 2.97304E-13
 -1      2910 1.98152E+01 2.82301E+00-5.69362E-03-3.54321E-01-1.14188E-13-4.06888E-13
 -1      2911 1.98398E+01 2.77440E+00-6.19532E-03-5.07861E-01-1.63733E-13-3.93841E-13
 -1      2912 1.99928E+01 2.39886E+00 4.26249E-03-5.09905E-01-1.50104E-13-3.80238E-13
 -1      2913 1.99456E+01 2.50800E+00 3.62308E-03-2.57998E-01-1.08083E-13-4.02465E-13
 -1      2914 1.88870E+01 1.07434E+00 5.92569E-03-8.13228E-01 2.52804E-13 1.54865E-13
 -1      2915 1.61183E+01-3.03392E+00 1.52253E-01 6.92342E+00 5.35044E-13 2.67911E-14
 -1      2916 2.04495E+01-3.09490E-01-9.09644E-04-1.59494E-01 1.44045E-13-9.92875E-14
 -1      2917 2.24248E+01-4.71166E+00 6.13341E-02 5.81074E+00 3.22811E-13 2.96768E-14
 -1      2918 2.97532E+01 5.14262E+00-1.59341E-01-1.70431E+00-3.60961E-13 1.67255E-13
 -1      2919 2.91389E+01 4.00010E+00-8.82149E-02-1.93221E+00-2.44249E-13 2.07168E-13
 -1      2920 2.81529E+01 5.36415E+00-1.10217E-01-1.75089E+00-5.40998E-13 5.89244E-13
 -1      2921 2.95598E+01 5.93704E-01-1.26675E-01-1.14138E+00-8.15320E-14 1.15741E-14
 -1      2922 7.84360E+00 7.13792E-01 1.35968E-01 1.91888E+00 1.86733E-13-5.95857E-13
 -1      2923 1.26709E+01 2.84270E-01 1.13902E-01 4.11916E+00 8.18789E-16 5.58997E-14
 -1      2924 2.76622E+01-3.68709E+00-3.82087E-03 2.08568E+00 9.29985E-14-1.55403E-13
 -1      2925 2.60906E+01-4.10030E+00-2.35240E-03 2.82829E+00 1.60347E-13-1.20945E-13
 -1      2926 2.76887E+01-2.54638E+00-5.87162E-02 4.25223E-01-9.81507E-15-1.40672E-13
 -1      2927 8.36370E+00 8.37639E-01 1.63931E-01 6.05770E-01-1.39781E-13-2.28706E-14
 -1      2928 2.52064E+01-4.64623E+00-6.91261E-03-3.95878E+00 1.64244E-14-1.55081E-13
 -1      2929 2.69735E+01-4.44011E+00-1.42134E-02-3.10077E+00-8.93452E-14-2.14800E-13
 -1      2930 2.80324E+01-3.31898E+00-5.16847E-02-1.76060E+00-1.83464E-14-1.63383E-13
 -1      2931 2.93764E+01-1.87729E+00-1.63116E-01-2.49099E-01 4.34965E-14-6.99441E-15
 -1      2932 2.77778E+01-3.13263E+00-9.49820E-03-1.00308E+00 7.43555E-14-1.98647E-13
 -1      2933 2.00730E+01 2.20697E+00 6.06821E-03-7.41738E-01-2.14651E-13-3.48549E-13
 -1      2934 1.99718E+01 2.48962E+00-6.01003E-03-9.04413E-01-2.42425E-13-3.76569E-13
 -1      2935 2.00369E+01 2.34528E+00-8.96997E-03-1.03698E+00-2.63863E-13-3.42335E-13
 -1      2936 1.89702E+01 1.46383E+00-7.92712E-03 7.46497E-01 3.29936E-14 1.35203E-13
 -1      2937 1.91273E+01 1.39803E+00-3.97793E-03 9.72856E-01 3.20127E-14 1.56610E-13
 -1      2938 1.89752E+01 1.45454E+00-2.81232E-05 1.09574E+00-2.79348E-14 1.26927E-13
 -1      2939 1.86290E+01 1.55430E+00 8.65861E-03 5.73737E-01-1.14020E-13 4.42605E-13
 -1      2940 2.94822E+01-2.90618E-02-8.84154E-02 8.11264E-01 5.12645E-14 2.01325E-13
 -1      2941 1.48643E+01 9.25774E-01 3.34615E-02 4.11683E+00-1.76650E-13-1.79072E-13
 -1      2942 2.02916E+01 1.20631E+00-1.48500E-03 7.97250E-01 2.59821E-13-2.27127E-13
 -1      2943 2.02515E+01 1.42126E+00-2.83082E-03 8.29565E-01 2.47239E-13-2.58410E-13
 -1      2944 2.02750E+01 9.98521E-01 4.21073E-03 6.14919E-01 2.22350E-13-2.13421E-13
 -1      2945 2.02143E+01 1.60251E+00 8.88747E-05 7.73534E-01 2.07818E-13-2.85234E-13
 -1      2946 2.69488E+01 1.95841E+00-3.95373E-02 2.02368E+00 1.22471E-14 1.20268E-13
 -1      2947 2.67326E+01 3.35465E+00-1.51022E-01 2.01880E+00-1.50532E-13 4.38712E-14
 -1      2948 2.01394E+01 1.68479E-01-1.33741E-03-7.30503E-02 7.01321E-14-1.24813E-13
 -1      2949 2.01702E+01 2.40578E-01 3.26984E-03-2.04811E-02 1.11721E-13-1.25578E-13
 -1      2950 2.02707E+01 7.15272E-01 4.58335E-03-3.46617E-01-2.05800E-13-1.94439E-13
 -1      2951 2.02270E+01 5.52427E-01-3.53033E-03-2.15763E-01-1.96443E-13-2.09830E-13
 -1      2952 2.02213E+01 4.24296E-01 4.11220E-03-1.20527E-01-1.78911E-13-1.80611E-13
 -1      2953 2.01819E+01 3.16503E-01-2.30633E-03-3.54573E-02-1.61020E-13-1.87290E-13
 -1      2954 2.02723E+01 5.81001E-01-3.21159E-04-1.89674E-01-1.69568E-13-2.11874E-13
 -1      2955 2.01676E+01 2.32973E-01 3.17833E-03 2.62713E-02-1.54749E-13-1.56296E-13
 -1      2956 2.01373E+01 1.62463E-01-1.30568E-03 7.74740E-02-1.51162E-13-1.76863E-13
 -1      2957 2.02374E+01 3.33403E-01-8.61308E-04-2.63483E-02-1.45443E-13-1.71882E-13
 -1      2958 2.01205E+01 1.08517E-01 2.23514E-03 1.13609E-01-1.34733E-13-1.59460E-13
 -1      2959 2.00993E+01 6.34519E-02-6.24136E-04 1.41074E-01-1.18686E-13-1.54923E-13
 -1      2960 2.01966E+01 1.69164E-01-1.01578E-03 7.68720E-02-1.26993E-13-1.13219E-13
 -1      2961 2.00829E+01 2.96082E-02 1.46180E-03 1.59043E-01-9.22488E-14-1.36672E-13
 -1      2962 2.00693E+01 2.02096E-03-1.85925E-04 1.70613E-01-7.79424E-14-1.09684E-13
 -1      2963 2.01575E+01 6.30081E-02-9.68017E-04 1.35329E-01-8.42189E-14-9.28616E-14
 -1      2964 2.00547E+01-1.80418E-02 8.73968E-04 1.76428E-01-6.36630E-14-7.19501E-14
 -1      2965 2.00468E+01-3.35976E-02 8.52574E-05 1.77904E-01-4.83821E-14-7.05698E-14
 -1      2966 2.01233E+01-2.78461E-03-8.38602E-04 1.62481E-01-5.01419E-14-9.98017E-14
 -1      2967 2.00344E+01-4.41990E-02 4.49325E-04 1.76143E-01-4.29322E-14-3.10755E-14
 -1      2968 2.00305E+01-5.15083E-02 2.46422E-04 1.71703E-01-2.65260E-14 4.45556E-15
 -1      2969 2.00947E+01-4.05782E-02-6.90747E-04 1.69064E-01-1.61977E-14-8.76638E-14
 -1      2970 2.00203E+01-5.56538E-02 1.54826E-04 1.65723E-01-8.42261E-14 4.46663E-14
 -1      2971 2.00192E+01-5.73723E-02 3.36773E-04 1.58322E-01-1.20786E-13 4.95563E-14
 -1      2972 2.00716E+01-5.90628E-02-5.51922E-04 1.63182E-01-4.68484E-14 2.82040E-14
 -1      2973 2.00109E+01-5.71691E-02-4.20888E-05 1.50518E-01-1.57470E-13 9.45746E-14
 -1      2974 2.00117E+01-5.51568E-02 3.83579E-04 1.42206E-01-8.87475E-14 3.09991E-14
 -1      2975 2.00534E+01-6.43791E-02-4.31155E-04 1.50743E-01-1.07253E-13 1.01047E-13
 -1      2976 2.00050E+01-5.20735E-02-1.69678E-04 1.34245E-01-6.25767E-14-1.81335E-14
 -1      2977 2.00070E+01-4.76219E-02 4.05558E-04 1.26425E-01-4.93163E-14-4.54843E-14
 -1      2978 2.00391E+01-6.08510E-02-3.30043E-04 1.35937E-01-1.04260E-13 5.12556E-14
 -1      2979 2.00017E+01-4.26788E-02-2.49206E-04 1.19455E-01-6.32110E-14-7.85689E-14
 -1      2980 2.00045E+01-3.66878E-02 4.15077E-04 1.13065E-01-6.32209E-14-1.48421E-13
 -1      2981 2.00282E+01-5.15013E-02-2.49309E-04 1.21684E-01-8.02800E-14-1.03071E-13
 -1      2982 2.00003E+01-3.06081E-02-2.95565E-04 1.07864E-01-5.03066E-14-1.73756E-13
 -1      2983 2.00038E+01-2.37274E-02 4.20289E-04 1.03514E-01-8.19681E-14-1.82496E-13
 -1      2984 2.00199E+01-3.84461E-02-1.87426E-04 1.09993E-01-1.06789E-13-1.44061E-13
 -1      2985 2.00005E+01-1.70578E-02-3.18169E-04 1.00596E-01-1.02774E-13-2.03623E-13
 -1      2986 2.00045E+01-9.81024E-03 4.26013E-04 9.86508E-02-1.26257E-13-1.47979E-13
 -1      2987 2.00136E+01-2.32201E-02-1.43833E-04 1.02224E-01-7.10630E-14-2.11618E-13
 -1      2988 2.00020E+01-3.03880E-03-3.20264E-04 9.83410E-02-1.12712E-13-1.36452E-13
 -1      2989 2.00066E+01 4.05287E-03 4.33774E-04 9.89631E-02-3.46685E-14-1.64563E-13
 -1      2990 2.00091E+01-7.06043E-03-1.20921E-04 9.92716E-02-1.12155E-13-1.51361E-13
 -1      2991 2.00051E+01 1.03729E-02-2.98591E-04 1.01426E-01 5.39046E-14-1.05539E-13
 -1      2992 2.00106E+01 1.66534E-02 4.41838E-04 1.04572E-01 8.43298E-14-8.29298E-14
 -1      2993 2.00063E+01 8.80901E-03-1.23822E-04 1.01685E-01 1.47749E-14-1.13598E-13
 -1      2994 2.00103E+01 2.17745E-02-2.42872E-04 1.09800E-01 5.93156E-14-2.70990E-14
 -1      2995 2.00171E+01 2.63154E-02 4.44772E-04 1.15170E-01 5.40103E-14-4.46373E-14
 -1      2996 2.00055E+01 2.28760E-02-1.62183E-04 1.09687E-01 9.22923E-14-5.36575E-14
 -1      2997 2.00189E+01 2.91603E-02-1.34637E-04 1.22917E-01 1.03570E-14-6.88463E-14
 -1      2998 2.00277E+01 3.06157E-02 4.32411E-04 1.29858E-01 3.35972E-14-1.33049E-13
 -1      2999 2.00077E+01 3.30241E-02-2.51390E-04 1.23114E-01 3.67425E-14-8.27692E-14
 -1      3000 2.00328E+01 2.96458E-02 5.37042E-05 1.39528E-01 1.16862E-14-1.71317E-13
 -1      3001 2.00446E+01 2.61245E-02 3.87974E-04 1.46879E-01 4.69471E-14-2.40913E-13
 -1      3002 2.00148E+01 3.62089E-02-4.13198E-04 1.41254E-01-2.23605E-14-1.74550E-13
 -1      3003 2.00550E+01 1.92467E-02 3.58657E-04 1.57336E-01 7.35439E-14-2.42853E-13
 -1      3004 2.00712E+01 8.24844E-03 2.85330E-04 1.63230E-01 2.02295E-14-2.73543E-13
 -1      3005 2.00297E+01 2.81719E-02-6.75112E-04 1.62562E-01 4.62280E-14-2.08711E-13
 -1      3006 2.00901E+01-7.17833E-03 8.22712E-04 1.72536E-01 4.23114E-15-1.67452E-13
 -1      3007 2.01123E+01-2.86766E-02 8.56091E-05 1.74161E-01-1.37018E-14-7.78635E-14
 -1      3008 2.00571E+01 3.29460E-03-1.06657E-03 1.84222E-01 1.12933E-13-1.82336E-13
 -1      3009 2.01437E+01-5.56255E-02 1.48573E-03 1.79225E-01-8.00616E-14 3.19137E-14
 -1      3010 2.01740E+01-9.07917E-02-2.65570E-04 1.72598E-01-9.13804E-14 7.06180E-14
 -1      3011 2.01038E+01-4.52145E-02-1.60934E-03 2.01541E-01 2.71556E-14-3.66073E-14
 -1      3012 2.02231E+01-1.31980E-01 2.36625E-03 1.68781E-01-1.10713E-13 6.60382E-14
 -1      3013 2.02633E+01-1.83256E-01-8.36060E-04 1.48624E-01-9.24232E-14 9.97467E-14
 -1      3014 2.01782E+01-1.24485E-01-2.29835E-03 2.07168E-01-8.18557E-14 7.72871E-14
 -1      3015 2.03357E+01-2.39976E-01 3.42758E-03 1.29391E-01 1.48111E-14 8.46710E-14
 -1      3016 2.03868E+01-3.07485E-01-1.69340E-03 8.92947E-02 9.43246E-14 1.58922E-13
 -1      3017 2.02908E+01-2.40047E-01-3.06891E-03 1.90253E-01-4.46405E-14 7.95875E-14
 -1      3018 2.04869E+01-3.77666E-01 4.52009E-03 4.61865E-02 7.60133E-14 2.73866E-13
 -1      3019 2.05480E+01-4.56710E-01-2.84939E-03-2.06171E-02 1.22915E-13 3.11076E-13
 -1      3020 2.04514E+01-3.92252E-01-3.75138E-03 1.35856E-01 1.20461E-13 2.69788E-13
 -1      3021 2.06767E+01-5.32157E-01 5.32784E-03-9.71421E-02 1.11693E-13 4.13377E-13
 -1      3022 2.07429E+01-6.10027E-01-4.16718E-03-1.95857E-01 9.03304E-14 4.19560E-13
 -1      3023 2.06664E+01-5.70567E-01-4.00511E-03 2.53560E-02 1.34408E-13 4.25041E-13
 -1      3024 2.08934E+01-6.73491E-01 5.28082E-03-3.13786E-01-9.84217E-15 4.23313E-13
 -1      3025 2.09551E+01-7.26537E-01-5.20391E-03-4.44512E-01 2.12231E-14 4.89888E-13
 -1      3026 2.09319E+01-7.46241E-01-3.32985E-03-1.60542E-01 3.62766E-14 4.38789E-13
 -1      3027 2.11081E+01-7.49954E-01 3.65782E-03-6.04662E-01 3.65320E-14 5.42942E-13
 -1      3028 2.11504E+01-7.43517E-01-5.05420E-03-7.56859E-01 1.19616E-13 4.81139E-13
 -1      3029 2.12265E+01-8.65356E-01-1.16715E-03-4.34120E-01 5.76307E-14 6.89578E-13
 -1      3030 2.12725E+01-6.91127E-01-1.09188E-04-9.43631E-01 1.48534E-13 3.62645E-13
 -1      3031 2.12796E+01-5.87066E-01-2.55096E-03-1.09004E+00 6.61718E-14 3.77527E-13
 -1      3032 2.15034E+01-8.48574E-01 2.71105E-03-7.85478E-01 9.39358E-14 5.50396E-13
 -1      3033 2.13295E+01-4.27691E-01-5.75509E-03-1.26166E+00-3.79154E-14 3.37162E-13
 -1      3034 2.12918E+01-2.03706E-01 2.77424E-03-1.35606E+00-1.56368E-13 2.57761E-13
 -1      3035 2.16932E+01-6.08617E-01 7.43496E-03-1.16138E+00-3.91679E-14 3.20156E-13
 -1      3036 2.12409E+01 6.58085E-02-1.15449E-02-1.44347E+00-1.52771E-13 2.62983E-13
 -1      3037 2.11654E+01 3.87696E-01 9.21362E-03-1.43005E+00-7.48188E-14 2.48966E-13
 -1      3038 2.17266E+01-9.54744E-02 1.03507E-02-1.44960E+00-1.36942E-13 4.41288E-13
 -1      3039 2.10283E+01 7.16873E-01-1.40434E-02-1.35865E+00-1.57563E-13 1.31149E-13
 -1      3040 2.09420E+01 1.05130E+00 1.25668E-02-1.19863E+00-2.03969E-13 8.75084E-14
 -1      3041 2.15821E+01 6.37237E-01 7.86472E-03-1.49458E+00-1.61746E-13 3.20840E-13
 -1      3042 2.07915E+01 1.33264E+00-1.02680E-02-9.36302E-01-1.41406E-13-3.41339E-15
 -1      3043 2.07322E+01 1.55221E+00 9.00842E-03-6.42811E-01 9.72790E-15 4.55393E-14
 -1      3044 2.13336E+01 1.39263E+00-4.64850E-04-1.17020E+00-2.31296E-13 1.70998E-14
 -1      3045 2.06642E+01 1.66835E+00-5.98003E-04-2.44947E-01-1.42682E-14-1.60309E-13
 -1      3046 2.06606E+01 1.67395E+00-7.08149E-05 1.05809E-01-9.11922E-15-2.46444E-13
 -1      3047 2.11383E+01 1.88791E+00-7.52826E-03-4.89345E-01-1.25931E-13 3.96070E-14
 -1      3048 2.07236E+01 1.56884E+00 9.47116E-03 5.07962E-01 1.69834E-14-4.47277E-13
 -1      3049 2.07762E+01 1.35613E+00-9.70182E-03 8.07520E-01-1.16026E-13-5.12269E-13
 -1      3050 2.11338E+01 1.90251E+00-6.99177E-03 3.47643E-01-1.43083E-13-2.79585E-13
 -1      3051 2.09284E+01 1.07794E+00 1.34515E-02 1.07879E+00-4.26651E-14-3.91102E-13
 -1      3052 2.10107E+01 7.43109E-01-1.39776E-02 1.24576E+00 1.05153E-13-5.17773E-13
 -1      3053 2.13259E+01 1.42627E+00 1.07292E-03 1.04438E+00-7.79471E-15-4.02550E-13
 -1      3054 2.11543E+01 4.10062E-01 9.76903E-03 1.32476E+00 2.07883E-13-5.09577E-13
 -1      3055 2.12279E+01 8.26321E-02-1.21562E-02 1.34221E+00 1.87281E-13-5.72320E-13
 -1      3056 2.15817E+01 6.68152E-01 8.57933E-03 1.38646E+00 1.37177E-13-4.04942E-13
 -1      3057 2.12858E+01-1.92439E-01 2.95535E-03 1.25699E+00 2.06075E-13-6.32439E-13
 -1      3058 2.13211E+01-4.21846E-01-6.67930E-03 1.16336E+00 1.83873E-13-5.45563E-13
 -1      3059 2.17386E+01-8.06587E-02 9.58707E-03 1.35172E+00 2.53268E-13-3.91853E-13
 -1      3060 2.12759E+01-5.84184E-01-2.60995E-03 9.88973E-01 1.18824E-13-4.88747E-13
 -1      3061 2.12647E+01-6.88308E-01-6.14429E-04 8.41063E-01 1.16802E-13-4.14897E-13
 -1      3062 2.17167E+01-6.03955E-01 7.64291E-03 1.06253E+00 2.98438E-13-5.69069E-13
 -1      3063 2.11409E+01-7.36760E-01-5.43134E-03 6.49788E-01 5.49544E-14-3.48579E-13
 -1      3064 2.10913E+01-7.35437E-01 3.46787E-03 4.97128E-01 3.89199E-15-3.86551E-13
 -1      3065 2.15296E+01-8.44456E-01 3.01110E-03 6.77557E-01 1.03427E-13-6.19131E-13
 -1      3066 2.09305E+01-7.01351E-01-5.98059E-03 3.34894E-01-6.28472E-14-3.10313E-13
 -1      3067 2.08577E+01-6.32024E-01 5.33744E-03 2.07295E-01-1.14757E-13-2.98840E-13
 -1      3068 2.12442E+01-8.42954E-01-4.14814E-04 3.18816E-01 1.06043E-14-5.44750E-13
 -1      3069 2.06922E+01-5.47474E-01-4.49533E-03 9.34775E-02-2.41771E-13-2.60884E-13
 -1      3070 2.05946E+01-4.56176E-01-1.26048E-03 6.42866E-03-2.50818E-13-3.18220E-13
 -1      3071 2.09348E+01-6.84032E-01 3.16385E-04 4.65578E-02-1.41815E-13-6.69975E-13
 -1      3072 2.07786E+01-5.33273E-01 3.00973E-03-7.79772E-01 2.52497E-13-4.23400E-13
 -1      3073 2.07131E+01-4.79789E-01 2.79215E-03-9.51115E-01 1.63607E-13-4.18573E-14
 -1      3074 9.50504E+00 1.68425E+00 2.55181E-01-2.61273E-01 9.56553E-14-6.75057E-13
 -1      3075 1.06875E+01 1.66371E+00 7.45464E-02-1.34413E+00 6.65162E-14-4.91635E-13
 -1      3076 1.28252E+01 2.09015E+00 8.22688E-03-1.51764E+00-1.60046E-14-3.90729E-13
 -1      3077 9.27367E+00 1.35578E+00 7.02611E-02 1.77895E+00 1.43262E-13-5.34822E-13
 -1      3078 2.00483E+01-3.26655E-02 9.52540E-05-1.77633E-01 7.12390E-14-3.36746E-14
 -1      3079 2.00564E+01-1.66610E-02 9.04073E-04-1.75843E-01 6.38110E-14-6.34456E-14
 -1      3080 2.00141E+01-5.61048E-02 3.93237E-04-1.43550E-01 4.49716E-15 3.02231E-14
 -1      3081 2.00131E+01-5.79203E-02-2.56532E-05-1.51809E-01 4.47124E-14 2.16296E-14
 -1      3082 2.00098E+01-4.84910E-02 4.23736E-04-1.27837E-01-4.47653E-14 2.97389E-14
 -1      3083 2.00075E+01-5.30733E-02-1.62812E-04-1.35609E-01-2.00402E-14 4.37404E-15
 -1      3084 2.00425E+01-6.17944E-02-3.49745E-04-1.37442E-01 1.51413E-14 2.92511E-14
 -1      3085 2.00079E+01-3.65920E-02 4.45671E-04-1.14707E-01-7.25847E-14 8.19212E-14
 -1      3086 2.00047E+01-4.32174E-02-2.58150E-04-1.20901E-01-3.71454E-14 7.38313E-14
 -1      3087 2.00319E+01-5.21084E-02-2.63188E-04-1.23329E-01-5.41498E-14 3.24967E-15
 -1      3088 2.00076E+01-2.12052E-02 4.68490E-04-1.05892E-01-7.86200E-14 2.69537E-15
 -1      3089 2.00037E+01-2.95608E-02-3.32490E-04-1.09675E-01-8.43451E-14 4.27123E-14
 -1      3090 2.00238E+01-3.75435E-02-1.84491E-04-1.11919E-01-5.53940E-14 1.94548E-14
 -1      3091 2.00082E+01-2.41336E-03 4.98174E-04-1.02807E-01-1.99015E-14 8.26215E-16
 -1      3092 2.00039E+01-1.25415E-02-4.03800E-04-1.03465E-01-6.29385E-14-1.57139E-14
 -1      3093 2.00174E+01-1.88837E-02-1.08737E-04-1.04869E-01-4.37224E-14-7.41667E-14
 -1      3094 2.00090E+01 2.03913E-02 5.37916E-04-1.06757E-01 5.73184E-15 6.70306E-14
 -1      3095 2.00044E+01 8.09138E-03-4.90754E-04-1.03585E-01 2.50728E-14 2.76747E-14
 -1      3096 2.00117E+01 3.91018E-03-2.16271E-05-1.03505E-01-9.11556E-15 5.66923E-14
 -1      3097 2.00087E+01 4.85661E-02 5.87033E-04-1.19129E-01-3.34420E-14 1.05708E-13
 -1      3098 2.00042E+01 3.33032E-02-6.13590E-04-1.11325E-01-3.39727E-14 9.44864E-14
 -1      3099 2.00052E+01 3.16673E-02 9.35660E-05-1.08996E-01-4.93105E-14 1.11934E-13
 -1      3100 2.00056E+01 8.43457E-02 6.37725E-04-1.41548E-01 8.64684E-14 1.07359E-13
 -1      3101 2.00018E+01 6.48607E-02-7.96291E-04-1.28122E-01 4.12566E-14 7.47803E-14
 -1      3102 1.99962E+01 6.60835E-02 2.63898E-04-1.22497E-01 2.05221E-14 1.01816E-13
 -1      3103 1.99965E+01 1.31076E-01 6.71395E-04-1.75974E-01 1.04877E-13 1.19168E-13
 -1      3104 1.99946E+01 1.05514E-01-1.07052E-03-1.55675E-01 1.31513E-13 1.29860E-13
 -1      3105 1.99816E+01 1.09862E-01 5.30156E-04-1.45210E-01 7.92296E-14 1.43701E-13
 -1      3106 1.99764E+01 1.93544E-01 6.51673E-04-2.24752E-01 4.54723E-14 9.49518E-14
 -1      3107 1.99785E+01 1.59279E-01-1.47862E-03-1.96013E-01 1.00105E-13 1.11554E-13
 -1      3108 1.99571E+01 1.66956E-01 9.54702E-04-1.78354E-01 8.76772E-14 1.37509E-13
 -1      3109 1.99368E+01 2.78341E-01 5.03338E-04-2.90541E-01 8.77080E-14 3.29157E-14
 -1      3110 1.99468E+01 2.31809E-01-2.07522E-03-2.51469E-01 7.76369E-14 1.43774E-14
 -1      3111 1.99157E+01 2.42887E-01 1.63078E-03-2.23003E-01 1.48460E-13 5.14849E-14
 -1      3112 1.98640E+01 3.94298E-01 7.13969E-05-3.75955E-01 2.41937E-14 3.44071E-14
 -1      3113 1.98888E+01 3.30921E-01-2.87967E-03-3.24485E-01 4.36068E-14-3.43832E-15
 -1      3114 1.98465E+01 3.44978E-01 2.67639E-03-2.79677E-01 7.22613E-14-5.81374E-15
 -1      3115 1.97450E+01 5.43242E-01-7.60960E-04-4.77070E-01 2.34876E-14 8.55104E-14
 -1      3116 1.97909E+01 4.61969E-01-4.13165E-03-4.14989E-01 5.84794E-14 8.44123E-14
 -1      3117 1.97367E+01 4.79098E-01 4.48002E-03-3.45603E-01 6.70075E-15 2.80766E-14
 -1      3118 1.95363E+01 7.52503E-01-2.06527E-03-6.04760E-01 1.45662E-13-2.39417E-14
 -1      3119 1.96257E+01 6.39245E-01-5.74001E-03-5.24050E-01 1.06792E-13 5.95989E-14
 -1      3120 1.95602E+01 6.56995E-01 6.75444E-03-4.19790E-01 7.80313E-14 1.44509E-14
 -1      3121 1.91921E+01 1.02591E+00-4.58102E-03-7.50683E-01-5.52432E-14-6.24275E-14
 -1      3122 1.93486E+01 8.79364E-01-8.18932E-03-6.54694E-01 7.24887E-14 2.78784E-15
 -1      3123 1.92744E+01 8.96570E-01 1.05909E-02-4.96349E-01 1.09724E-13 8.12267E-14
 -1      3124 1.86411E+01 1.36471E+00-8.52898E-03-9.06208E-01-9.02538E-14-1.33336E-13
 -1      3125 1.89026E+01 1.18629E+00-1.16509E-02-7.97767E-01-7.91977E-14-1.22390E-13
 -1      3126 1.88273E+01 1.20061E+00 1.61575E-02-5.59605E-01 9.36751E-16-2.54284E-14
 -1      3127 1.77803E+01 1.74408E+00-1.49311E-02-1.05858E+00-1.58376E-14-2.35610E-13
 -1      3128 1.82014E+01 1.55091E+00-1.67176E-02-9.42236E-01-2.38858E-14-1.48834E-13
 -1      3129 1.81392E+01 1.56381E+00 2.42106E-02-5.87691E-01-3.78295E-14-1.02051E-13
 -1      3130 1.64682E+01 2.09082E+00-2.10205E-02-1.19503E+00-6.92797E-14-2.11901E-13
 -1      3131 1.71252E+01 1.93016E+00-2.24276E-02-1.06955E+00-8.85659E-14-2.87191E-13
 -1      3132 1.71073E+01 1.94771E+00 3.80823E-02-5.53161E-01-2.86156E-14-2.30053E-13
 -1      3133 1.45755E+01 2.24997E+00 1.00581E-03-1.33242E+00-3.15546E-15-2.96489E-13
 -1      3134 1.54851E+01 2.20731E+00-2.86541E-02-1.18071E+00 7.58135E-14-2.04137E-13
 -1      3135 1.55602E+01 2.27533E+00 6.65540E-02-4.06964E-01 3.21149E-14-4.20487E-13
 -1      3136 2.01843E+01 3.25879E-01-2.26462E-03 4.29716E-02 1.30034E-13-1.69385E-13
 -1      3137 2.02250E+01 4.34794E-01 4.17852E-03 1.29441E-01 1.35272E-13-1.67305E-13
 -1      3138 2.02393E+01 3.43301E-01-8.24566E-04 3.29657E-02 1.01594E-13-1.26741E-13
 -1      3139 1.17721E+01-5.64822E-01 1.68442E-01-5.26971E+00 7.30180E-14 7.77378E-13
 -1      3140 1.43472E+01-1.71688E+00 4.09849E-02-6.06216E+00-4.07729E-14 4.79089E-13
 -1      3141 2.01644E+01-1.07629E-01 1.37170E-02-1.44765E+00 2.66958E-13-1.62753E-13
 -1      3142 1.98516E+01 5.95960E-02-9.44955E-03-1.49023E+00 2.99452E-13-3.58328E-13
 -1      3143 1.82812E+01 1.64740E+00-1.49910E-02 1.28949E+00-1.06373E-13-3.33943E-14
 -1      3144 1.78263E+01 1.79241E+00-1.71410E-02 1.43392E+00 1.41589E-13-8.66722E-14
 -1      3145 1.70972E+01 1.95797E+00-2.36243E-02 1.47860E+00 1.80228E-13-2.35250E-13
 -1      3146 1.64450E+01 2.08963E+00-6.28774E-03 1.65253E+00-8.39693E-14-2.52665E-13
 -1      3147 1.70936E+01 2.03026E+00 4.38241E-02 9.24966E-01 7.19010E-14-6.62977E-14
 -1      3148 1.84184E+01-3.43495E+00 1.83440E-03 6.50740E+00 4.64878E-13 1.04222E-14
 -1      3149 1.53478E+01-1.92009E+00 1.30524E-01 6.27922E+00 5.44086E-13-1.25691E-13
 -1      3150 1.95094E+01 3.61888E-01 1.79452E-02-1.49796E+00 2.39332E-13-2.50749E-13
 -1      3151 1.91272E+01 5.56677E-01-1.68640E-02-1.39185E+00 2.17018E-13-2.45296E-13
 -1      3152 1.96387E+01-4.79731E-04-1.25350E-02-1.71141E+00 2.12380E-13-3.08134E-13
 -1      3153 1.29079E+01 1.66658E+00 1.96786E-01 2.93921E+00-1.15265E-13 7.94295E-14
 -1      3154 2.02938E+01 1.15618E+00 5.66953E-03-6.68133E-01-2.41946E-13-1.96314E-13
 -1      3155 2.02569E+01 9.10954E-01-4.84034E-03-4.81740E-01-2.18898E-13-2.11911E-13
 -1      3156 2.02840E+01 9.50066E-01 1.01927E-03-4.26233E-01-2.09699E-13-2.28646E-13
 -1      3157 2.07548E+01-5.29235E-01-1.47985E-03-3.99529E-01 2.04707E-13-5.61297E-13
 -1      3158 2.07897E+01-5.23298E-01 4.92724E-03-5.63867E-01 3.58483E-13-4.85060E-13
 -1      3159 2.09358E+01-7.11363E-01-5.47049E-03-6.77563E-01 1.69890E-13-3.46914E-13
 -1      3160 2.01011E+01 6.71570E-02-6.46560E-04-1.38693E-01 5.40847E-15-1.02750E-13
 -1      3161 2.01227E+01 1.13314E-01 2.29041E-03-1.10254E-01 2.53669E-14-1.39449E-13
 -1      3162 2.01987E+01 1.75617E-01-9.86926E-04-7.28386E-02 6.32871E-14-1.26318E-13
 -1      3163 1.53160E+01 2.13251E+00-3.45487E-02 1.69877E+00-2.01629E-13-1.73009E-13
 -1      3164 1.43858E+01 2.06614E+00-3.32105E-03 1.93552E+00-7.39287E-14-8.55947E-14
 -1      3165 1.53440E+01 2.24666E+00 4.98517E-02 7.78716E-01-3.80295E-14-1.38786E-13
 -1      3166 2.00850E+01 2.25236E+00-6.06038E-03-1.11973E+00-2.64996E-13-3.04357E-13
 -1      3167 2.01637E+01 2.06909E+00-8.24654E-03-1.20203E+00-2.93969E-13-2.49200E-13
 -1      3168 2.02349E+01 1.76760E+00 5.80829E-03-1.04030E+00-2.79268E-13-2.26623E-13
 -1      3169 2.01669E+01 1.98213E+00 8.01323E-03-9.17228E-01-2.41224E-13-3.08378E-13
 -1      3170 1.87568E+01 9.25120E-01 1.52915E-02-1.18988E+00 1.38791E-13 2.89083E-14
 -1      3171 1.84318E+01 1.10386E+00-1.93687E-02-9.00416E-01 1.71550E-13 4.27128E-13
 -1      3172 1.87630E+01 6.17408E-01-5.12875E-03-1.54674E+00 1.08400E-13 4.22312E-14
 -1      3173 2.05941E+01-4.05251E-01 8.44167E-03-1.16576E+00 2.47466E-13 2.20567E-13
 -1      3174 2.04058E+01-2.93951E-01-1.75259E-03-1.29823E+00 2.57765E-13 2.21123E-13
 -1      3175 2.03597E+01-4.40576E-01-1.02151E-02-1.51897E+00 3.47667E-13-3.36995E-14
 -1      3176 2.07956E+01-6.66930E-01-6.54198E-03-1.12529E+00 2.37498E-14 6.00977E-14
 -1      3177 1.82240E+01 1.40040E+00 1.00240E-02-4.93755E-01-2.49044E-14 6.36219E-13
 -1      3178 1.80697E+01 1.51242E+00-1.42655E-02-1.13271E-01-1.91889E-13 6.52162E-13
 -1      3179 1.80577E+01 1.25594E+00 1.63881E-02-8.93593E-01-1.22775E-13 6.38215E-13
 -1      3180 2.00709E+01 4.06247E-03-2.02293E-04-1.69583E-01 3.89460E-14-7.65057E-14
 -1      3181 2.00848E+01 3.24455E-02 1.50997E-03-1.57387E-01 2.08636E-14-9.21251E-14
 -1      3182 2.01596E+01 6.68891E-02-9.87770E-04-1.33206E-01 1.66390E-14-1.01874E-13
 -1      3183 2.65532E+01 4.89762E+00-6.87791E-02 1.63942E+00-2.82371E-13 1.99517E-13
 -1      3184 2.62263E+01 5.84892E+00-1.45299E-01 7.70374E-01-4.71068E-13 3.15321E-13
 -1      3185 2.56003E+01 3.77446E+00-4.65790E-02 1.71972E+00-1.81979E-13 2.25028E-14
 -1      3186 2.39427E+01-4.48939E+00 8.98864E-02-4.45773E+00 3.43267E-14-2.03674E-13
 -1      3187 2.51590E+01-4.32011E+00-7.75743E-02-3.08671E+00-4.53526E-14-2.79051E-13
 -1      3188 2.31886E+01-4.40516E+00-3.48175E-02 4.73481E+00 2.43246E-13-1.26461E-15
 -1      3189 2.08923E+01-3.98348E+00 1.13533E-01 5.87005E+00 3.35634E-13 1.06200E-14
 -1      3190 1.99188E+01-3.13031E+00 7.26808E-02 5.46405E+00 3.44072E-13-1.85242E-13
 -1      3191 2.00327E+01-5.08021E-02 2.61523E-04-1.72393E-01 4.34272E-14 8.40545E-15
 -1      3192 2.00365E+01-4.32926E-02 4.67056E-04-1.76333E-01 4.52614E-14 3.41323E-15
 -1      3193 2.00974E+01-3.91966E-02-7.31590E-04-1.69050E-01 2.70841E-14 3.45684E-14
 -1      3194 2.62966E+01 6.24260E+00-1.05155E-01-2.14234E-01-6.56294E-13 3.22648E-13
 -1      3195 2.67524E+01 5.83073E+00-1.35039E-01-1.12104E+00-6.74627E-13 4.68899E-13
 -1      3196 2.85710E+01-3.25516E-01 2.00463E-02 1.22735E+00 7.01522E-14 2.94764E-13
 -1      3197 2.00214E+01-5.77870E-02 3.44093E-04-1.59512E-01 8.84474E-14 2.83410E-14
 -1      3198 2.00225E+01-5.56457E-02 1.70227E-04-1.66749E-01 1.03451E-13 3.96812E-14
 -1      3199 2.00566E+01-6.48783E-02-4.52816E-04-1.52030E-01 7.81611E-14 7.15339E-14
 -1      3200 9.99697E+00 1.43321E+00 4.84974E-02 1.35513E+00-3.16986E-14-1.02432E-13
 -1      3201 8.89363E+00 1.30922E+00 1.91653E-01-9.00401E-01-5.16332E-14 8.67084E-14
 -1      3202 2.88764E+01 1.47508E+00-1.49685E-01-1.66997E+00-1.20272E-13 5.92720E-14
 -1      3203 2.81063E+01-6.81059E-01-3.56688E-02-1.00215E+00-1.60871E-13-4.46795E-14
 -1      3204 2.78331E+01 2.10679E+00-9.27456E-02-1.94942E+00-2.44672E-13 1.92291E-13
 -1      3205 2.00418E+01 2.16632E+00-4.24374E-03 2.91273E-01 3.24307E-14-3.76491E-13
 -1      3206 2.00288E+01 2.20439E+00-3.31706E-03 1.69284E-01-9.21352E-15-3.84722E-13
 -1      3207 1.23649E+01-7.11617E-01 2.68889E-02 5.62462E+00 4.92301E-13-3.71952E-13
 -1      3208 1.06387E+01 4.11506E-01 1.53912E-01 4.15931E+00 3.82895E-13-4.40897E-13
 -1      3209 8.94536E+00 8.54262E-01 1.16698E-01-2.41259E+00 4.05891E-14 4.87388E-13
 -1      3210 1.00254E+01 1.49267E-01 8.39399E-02-4.16675E+00 9.70474E-14 6.88380E-13
 -1      3211 1.07272E+01 1.47397E+00 1.22395E-01-1.49226E+00-9.53404E-15 1.99257E-13
 -1      3212 1.25956E+01 1.88976E+00 3.74733E-02 1.74993E+00-4.10158E-14 3.36814E-14
 -1      3213 1.65727E+01-2.20037E+00 1.39550E-01-6.13598E+00-1.21514E-13 5.78079E-14
 -1      3214 1.84956E+01-2.79125E+00-3.33774E-03-5.66285E+00-2.96256E-14 3.58845E-14
 -1      3215 1.55384E+01-1.14374E+00 5.79300E-02-5.34647E+00 5.89667E-14 3.59338E-13
 -1      3216 1.25472E+01 2.20246E+00 1.18436E-01 3.78901E-01 2.64502E-14 9.39457E-14
 -1      3217 2.68734E+01 3.82842E-01-1.55519E-01 1.76213E+00 2.52305E-13 1.83971E-13
 -1      3218 2.60675E+01 1.26588E+00-8.92912E-03 1.97954E+00 1.23925E-13 7.30839E-14
 -1      3219 2.01550E+01 1.80863E+00-8.41593E-03 6.86239E-01 1.68670E-13-3.29421E-13
 -1      3220 2.01190E+01 1.93836E+00-2.81948E-03 5.89507E-01 1.23741E-13-3.22055E-13
 -1      3221 2.55567E+01-3.60126E+00-3.97685E-02 1.89070E+00 1.95059E-13-2.62221E-13
 -1      3222 2.48502E+01-4.17158E+00 5.23435E-02 3.43498E+00 2.23405E-13-1.31232E-13
 -1      3223 2.32682E+01-3.78701E+00 1.66540E-02 3.78771E+00 2.04298E-13-1.86319E-13
 -1      3224 2.00876E+01 2.03161E+00-5.28373E-03 5.04128E-01 1.05485E-13-3.32453E-13
 -1      3225 2.00620E+01 2.11136E+00-3.03655E-03 3.90358E-01 6.17724E-14-3.50191E-13
 -1      3226 2.02007E+01 1.70562E+00 7.21911E-03 4.61281E-01 9.89345E-14-2.98609E-13
 -1      3227 1.76060E+01 1.69760E+00-1.06843E-02 2.10165E-01-2.54073E-13 3.45477E-13
 -1      3228 1.80811E+01 1.69418E+00 2.88974E-03 5.63947E-01-1.15867E-13 5.02883E-13
 -1      3229 1.28479E+01 2.34692E+00 1.09499E-01-1.91449E-01 1.98869E-14-4.25982E-13
 -1      3230 2.02710E+01 5.95470E-01-9.57129E-04 2.00151E-01 1.34837E-13-2.01054E-13
 -1      3231 2.02334E+01 5.71415E-01-1.37245E-03 2.29962E-01 1.59110E-13-1.98447E-13
 -1      3232 2.02617E+01 6.81543E-01 7.05750E-03 3.23044E-01 1.79057E-13-1.86506E-13
 -1      3233 1.23625E+01 3.02243E-01 1.23888E-01-4.13147E+00 9.25995E-14 6.80983E-13
 -1      3234 1.51415E+01-9.65825E-01 1.19673E-01 5.41011E+00 4.44957E-13-2.16972E-13
 -1      3235 2.02651E+01 1.39981E+00 8.30996E-03 6.12828E-01 1.71188E-13-2.61057E-13
 -1      3236 1.88007E+01 1.50596E+00-6.08922E-03 1.22695E+00-1.82250E-13-1.34648E-13
 -1      3237 2.00613E+01 2.11419E+00-2.95676E-03-3.85386E-01-1.26722E-13-3.69425E-13
 -1      3238 2.00858E+01 2.03594E+00-5.24920E-03-5.00205E-01-1.48329E-13-3.62033E-13
 -1      3239 2.06955E+01-4.74423E-01 5.37106E-03-2.01734E-01-4.71659E-14-4.05405E-13
 -1      3240 2.08611E+01-6.43382E-01-4.70154E-03-2.54494E-01-7.06504E-14-6.90017E-13
 -1      3241 2.53004E+01 5.28608E+00-7.42001E-02 2.09781E-01-5.23415E-13 2.61178E-13
 -1      3242 2.66614E+01 5.20295E+00-1.16985E-01-1.44878E+00-6.96013E-13 4.07206E-13
 -1      3243 2.64503E+01 4.41363E+00-6.80173E-02-1.83687E+00-5.65381E-13 3.72178E-13
 -1      3244 2.53043E+01 4.79351E+00-5.70689E-02-1.20856E+00-6.29247E-13 2.20476E-13
 -1      3245 2.20458E+01-3.99188E+00 1.59752E-02-4.90871E+00 8.01095E-14-1.14461E-13
 -1      3246 2.76770E+01-1.90134E+00-7.19473E-02-3.51297E-01-9.20913E-14-1.65840E-14
 -1      3247 2.68267E+01-2.61756E+00-2.87321E-02 3.76205E-01 7.79724E-14-2.47302E-14
 -1      3248 2.72490E+01-8.81054E-01-2.17519E-02-1.09161E+00-1.08236E-13 9.54792E-14
 -1      3249 2.05277E+01-3.98997E-01-1.65143E-03-3.42755E-02-2.49572E-13-2.70950E-13
 -1      3250 2.01253E+01-7.30817E-04-8.73972E-04-1.61646E-01 4.56236E-14-9.62614E-14
 -1      3251 2.01584E+01 1.85313E+00 5.35663E-03 2.90773E-01 4.24441E-14-3.25979E-13
 -1      3252 2.67034E+01-3.32569E+00 6.94382E-02-1.21958E+00-1.02835E-13-1.29390E-13
 -1      3253 2.71838E+01-2.57493E+00-1.09717E-01-9.52986E-02 6.66906E-14-6.00527E-14
 -1      3254 2.00748E+01-5.84547E-02-5.69397E-04-1.63982E-01 6.71310E-14 2.47112E-14
 -1      3255 2.01193E+01 1.94235E+00-2.50015E-03-5.85327E-01-1.74722E-13-3.25369E-13
 -1      3256 2.01565E+01 1.81292E+00-6.68758E-03-6.84724E-01-2.13302E-13-3.04960E-13
 -1      3257 2.01959E+01 1.70494E+00 4.63444E-03-4.54308E-01-1.55436E-13-3.14263E-13
 -1      3258 2.73712E+01-8.20907E-01 1.41849E-02 1.11630E+00 2.52805E-13 8.01650E-14
 -1      3259 2.01361E+01 1.92706E+00 5.00395E-03 1.00272E-01-3.15242E-14-3.59180E-13
 -1      3260 2.00219E+01 2.22278E+00-3.65151E-03 6.41901E-02-3.06883E-14-3.64568E-13
 -1      3261 2.00218E+01 2.22313E+00-3.63355E-03-5.99698E-02-7.40561E-14-3.81010E-13
 -1      3262 1.11892E+01 1.34087E+00 8.31238E-02 2.23564E+00 1.88714E-13-3.98237E-13
 -1      3263 1.82926E+01 1.67685E+00 1.30547E-02 8.80115E-01-1.37010E-13 1.45335E-13
 -1      3264 2.02389E+01 1.48480E+00-5.28122E-03-8.79478E-01-2.66735E-13-2.16756E-13
 -1      3265 2.52982E+01-3.63785E+00-2.05130E-02-2.03513E+00-3.16518E-14-1.57135E-13
 -1      3266 2.02329E+01 1.50505E+00-2.73077E-03-7.71478E-01-2.49885E-13-2.55974E-13
 -1      3267 1.39422E+01 2.11575E+00 6.86523E-03-1.49120E-01 7.18163E-14 1.49346E-13
 -1      3268 1.21415E+01 1.90186E+00 1.78017E-02-6.23586E-01-1.28922E-14 1.88474E-13
 -1      3269 1.24294E+01 1.54821E+00 5.23492E-02-2.01823E+00 4.16247E-14 3.62148E-13
 -1      3270 2.02490E+01 1.38223E+00-7.12186E-03 4.18231E-01 9.56592E-14-2.86003E-13
 -1      3271 2.02353E+01 1.48617E+00-1.46272E-03 3.45526E-01 5.63781E-14-2.65520E-13
 -1      3272 1.71445E+01 1.57935E+00 1.64205E-02-7.55499E-01-2.94469E-13 7.67735E-13
 -1      3273 1.69428E+01 1.77880E+00-1.08891E-02-2.70990E-03-1.24204E-13 4.02508E-13
 -1      3274 1.62157E+01 1.85751E+00-2.54050E-02-1.20541E-01-6.10688E-14 2.23832E-13
 -1      3275 1.26025E+01 1.76415E+00 1.04888E-02 1.54840E+00 2.21108E-14-2.39954E-13
 -1      3276 1.44235E+01 1.86393E+00 3.18219E-03 1.21133E+00 1.98335E-14-2.28224E-13
 -1      3277 1.38249E+01 8.84292E-01 7.85629E-02 3.64257E+00 2.01467E-13-1.74711E-13
 -1      3278 2.02994E+01 4.40855E-01 2.47292E-03-7.24792E-02-1.10812E-13-1.93313E-13
 -1      3279 2.02746E+01 3.28460E-01-2.14086E-03-5.32722E-03-1.06321E-13-1.64671E-13
 -1      3280 2.02663E+01 2.38882E-01 2.14724E-03 4.00639E-02-1.14395E-13-1.41351E-13
 -1      3281 2.02417E+01 1.63562E-01-1.28905E-03 8.11047E-02-9.75121E-14-9.81686E-14
 -1      3282 2.03145E+01 3.30447E-01-8.94778E-05 2.57300E-03-1.06226E-13-1.71577E-13
 -1      3283 2.02267E+01 1.04805E-01 1.60875E-03 1.07428E-01-9.45825E-14-1.08030E-13
 -1      3284 2.02051E+01 5.62306E-02-6.54282E-04 1.29542E-01-7.11234E-14-8.65792E-14
 -1      3285 2.02828E+01 1.61320E-01-4.31293E-04 7.74729E-02-8.78565E-14-9.39952E-14
 -1      3286 2.01874E+01 1.93182E-02 1.11890E-03 1.42133E-01-8.04356E-14-8.64671E-14
 -1      3287 2.01696E+01-1.02635E-02-2.17172E-04 1.51290E-01-6.00770E-14-1.08810E-13
 -1      3288 2.02447E+01 5.10077E-02-5.80633E-04 1.19434E-01-8.57446E-14-9.57596E-14
 -1      3289 2.01515E+01-3.17905E-02 7.17791E-04 1.54647E-01-2.42340E-14-1.40484E-13
 -1      3290 2.01372E+01-4.80143E-02 6.82241E-05 1.55505E-01 5.35757E-15-8.12323E-14
 -1      3291 2.02058E+01-1.70464E-02-6.15336E-04 1.38068E-01-4.95774E-14-1.03643E-13
 -1      3292 2.01201E+01-5.88058E-02 4.09575E-04 1.53167E-01-1.20125E-14-8.74030E-14
 -1      3293 2.01091E+01-6.57567E-02 2.43738E-04 1.49199E-01-6.32992E-14-6.31275E-14
 -1      3294 2.01691E+01-5.51139E-02-5.83348E-04 1.41359E-01-8.90271E-15-1.78010E-13
 -1      3295 2.00935E+01-6.91636E-02 1.82631E-04 1.43817E-01-1.10449E-13-6.97827E-14
 -1      3296 2.00851E+01-6.97879E-02 3.43033E-04 1.37534E-01-1.07221E-13-3.25270E-14
 -1      3297 2.01360E+01-7.22377E-02-5.22372E-04 1.35512E-01-8.00372E-14-2.17787E-13
 -1      3298 2.00714E+01-6.82007E-02 1.90310E-05 1.31013E-01-1.41887E-13-7.45311E-14
 -1      3299 2.00651E+01-6.45771E-02 3.94417E-04 1.24182E-01-1.21130E-13-1.05370E-13
 -1      3300 2.01070E+01-7.49703E-02-4.44080E-04 1.25118E-01-1.36960E-13-1.84936E-13
 -1      3301 2.00531E+01-5.96635E-02-9.90992E-05 1.17878E-01-9.15940E-14-1.18578E-13
 -1      3302 2.00485E+01-5.32442E-02 4.17364E-04 1.11737E-01-9.31396E-14-1.69168E-13
 -1      3303 2.00821E+01-6.79832E-02-3.61430E-04 1.13471E-01-1.26569E-13-1.97242E-13
 -1      3304 2.00381E+01-4.61812E-02-1.84037E-04 1.06613E-01-1.04787E-13-1.71407E-13
 -1      3305 2.00348E+01-3.79969E-02 4.25442E-04 1.02012E-01-1.25645E-13-1.81051E-13
 -1      3306 2.00608E+01-5.45570E-02-2.83610E-04 1.02941E-01-9.89416E-14-2.31307E-13
 -1      3307 2.00257E+01-2.96329E-02-2.45891E-04 9.87453E-02-8.31553E-14-2.01025E-13
 -1      3308 2.00235E+01-2.04419E-02 4.30221E-04 9.62595E-02-4.38472E-14-1.84846E-13
 -1      3309 2.00425E+01-3.70189E-02-2.13042E-04 9.52142E-02-1.23144E-13-2.45652E-13
 -1      3310 2.00153E+01-1.14386E-02-2.90047E-04 9.53483E-02-1.95679E-14-2.05853E-13
 -1      3311 2.00140E+01-1.88471E-03 4.40217E-04 9.53623E-02-5.38375E-14-1.26004E-13
 -1      3312 2.00265E+01-1.70906E-02-1.56363E-04 9.15066E-02-1.04267E-14-1.70762E-13
 -1      3313 2.00068E+01 7.11917E-03-3.15772E-04 9.71940E-02-5.64018E-14-6.00146E-14
 -1      3314 2.00065E+01 1.63389E-02 4.61407E-04 9.99367E-02 8.78938E-14-7.59009E-14
 -1      3315 2.00125E+01 3.78029E-03-1.21160E-04 9.27572E-02 5.04727E-15-4.34367E-14
 -1      3316 2.00001E+01 2.45682E-02-3.16691E-04 1.04818E-01 1.22478E-13-9.81544E-14
 -1      3317 2.00011E+01 3.25337E-02 4.98048E-04 1.10361E-01 8.09896E-14-5.86563E-14
 -1      3318 2.00003E+01 2.40502E-02-1.19201E-04 9.97280E-02 7.83897E-14-4.53288E-14
 -1      3319 1.99961E+01 3.89056E-02-2.78530E-04 1.18514E-01 1.68831E-14-1.15518E-13
 -1      3320 1.99991E+01 4.42885E-02 5.52490E-04 1.26730E-01-5.09317E-15-1.25073E-13
 -1      3321 1.99902E+01 4.17062E-02-1.69021E-04 1.13046E-01 3.22723E-14-9.36183E-14
 -1      3322 1.99965E+01 4.72301E-02-1.76728E-04 1.38248E-01 7.76448E-15-2.05413E-13
 -1      3323 2.00025E+01 4.81012E-02 6.23290E-04 1.48711E-01-5.52333E-15-2.16777E-13
 -1      3324 1.99836E+01 5.38619E-02-2.97487E-04 1.33178E-01-4.86705E-14-2.31281E-13
 -1      3325 2.00041E+01 4.53746E-02 2.58121E-05 1.63443E-01-5.60219E-15-1.46108E-13
 -1      3326 2.00151E+01 3.90345E-02 7.01463E-04 1.75266E-01 6.78781E-14-1.53799E-13
 -1      3327 1.99830E+01 5.63311E-02-5.41702E-04 1.60295E-01 3.06721E-14-2.55561E-13
 -1      3328 2.00240E+01 2.76147E-02 3.80796E-04 1.92609E-01 1.51134E-13-1.57105E-13
 -1      3329 2.00426E+01 1.05102E-02 7.63748E-04 2.04201E-01 1.75015E-13-1.00975E-13
 -1      3330 1.99930E+01 4.32409E-02-9.49153E-04 1.93989E-01 1.36815E-13-1.56704E-13
 -1      3331 2.00634E+01-1.33942E-02 9.54099E-04 2.22747E-01 1.11649E-13-1.32639E-13
 -1      3332 2.00933E+01-4.55466E-02 7.61980E-04 2.31461E-01 1.09492E-14-8.77219E-14
 -1      3333 2.00207E+01 6.81504E-03-1.57338E-03 2.32740E-01 1.01369E-13-1.89670E-13
 -1      3334 2.01326E+01-8.61744E-02 1.81878E-03 2.48452E-01-6.04767E-14 5.88331E-15
 -1      3335 2.01781E+01-1.37855E-01 6.09011E-04 2.50155E-01-8.04656E-14 2.35951E-14
 -1      3336 2.00765E+01-6.24199E-02-2.46194E-03 2.73038E-01 6.95940E-14-1.20885E-13
 -1      3337 2.02442E+01-1.99032E-01 3.03387E-03 2.60707E-01-4.74582E-14 8.67114E-14
 -1      3338 2.03101E+01-2.73665E-01 1.68660E-04 2.49309E-01 3.95725E-14 1.35793E-13
 -1      3339 2.01744E+01-1.74561E-01-3.62995E-03 3.08027E-01-1.22693E-14 4.60684E-14
 -1      3340 2.04126E+01-3.57067E-01 4.59986E-03 2.45467E-01 1.32512E-13 1.36640E-13
 -1      3341 2.05025E+01-4.54682E-01-7.50185E-04 2.12649E-01 1.91636E-13 2.08153E-13
 -1      3342 2.03317E+01-3.37690E-01-5.00793E-03 3.25646E-01 8.49475E-14 1.26890E-13
 -1      3343 2.06505E+01-5.56894E-01 6.35317E-03 1.82503E-01 1.03060E-13 3.02222E-13
 -1      3344 2.07645E+01-6.70153E-01-2.28077E-03 1.18058E-01 1.19729E-13 3.27395E-13
 -1      3345 2.05667E+01-5.52808E-01-6.37372E-03 3.06501E-01 2.41354E-13 1.42724E-13
 -1      3346 2.09623E+01-7.78110E-01 7.89981E-03 4.60275E-02 1.38112E-13 3.93314E-13
 -1      3347 2.10941E+01-8.87179E-01-4.38030E-03-5.99415E-02 1.55315E-13 4.87076E-13
 -1      3348 2.08936E+01-8.04808E-01-7.14037E-03 2.22391E-01 1.65736E-13 3.27447E-13
 -1      3349 2.13342E+01-9.73435E-01 8.25307E-03-1.90238E-01 1.27103E-13 4.39129E-13
 -1      3350 2.14678E+01-1.04030E+00-6.47012E-03-3.42493E-01 1.00865E-13 5.46018E-13
 -1      3351 2.13124E+01-1.05055E+00-6.42998E-03 3.87864E-02 1.83081E-13 2.94712E-13
 -1      3352 2.17217E+01-1.05887E+00 6.10235E-03-5.39198E-01-4.87371E-14 4.25123E-13
 -1      3353 2.18313E+01-1.02672E+00-6.96394E-03-7.27401E-01-6.79504E-14 2.65077E-13
 -1      3354 2.17939E+01-1.20559E+00-3.34832E-03-2.75216E-01-7.24754E-14 2.11278E-13
 -1      3355 2.20442E+01-9.18897E-01 1.96809E-04-9.73243E-01-4.64442E-14 2.27068E-13
 -1      3356 2.21003E+01-7.25576E-01-3.63144E-03-1.15995E+00-6.93886E-14 2.21002E-13
 -1      3357 2.22653E+01-1.13967E+00 3.07984E-03-7.20182E-01-1.33592E-13 5.26174E-14
 -1      3358 2.22010E+01-4.42733E-01-9.21886E-03-1.39106E+00-4.91681E-14 3.11996E-13
 -1      3359 2.21863E+01-5.88912E-02 4.27820E-03-1.50520E+00-5.56182E-14 3.62480E-13
 -1      3360 2.26087E+01-7.10706E-01 1.09562E-02-1.22415E+00 1.99132E-14 1.46111E-13
 -1      3361 2.21274E+01 3.90311E-01-1.91784E-02-1.60693E+00-1.63607E-13 4.14309E-13
 -1      3362 2.20553E+01 9.04170E-01 1.26450E-02-1.56143E+00-2.27316E-13 2.76148E-13
 -1      3363 2.27047E+01 1.48901E-01 1.46351E-02-1.60690E+00-1.04393E-13 2.25276E-13
 -1      3364 2.18753E+01 1.40615E+00-2.20617E-02-1.41617E+00-2.74063E-13 1.66865E-13
 -1      3365 2.17905E+01 1.87162E+00 1.34635E-02-1.16115E+00-2.15264E-13 2.13575E-13
 -1      3366 2.25279E+01 1.29797E+00 7.75712E-03-1.61079E+00-2.72614E-13 3.09785E-13
 -1      3367 2.16311E+01 2.21492E+00-1.30783E-02-7.51232E-01-2.99234E-13 6.89433E-14
 -1      3368 2.15872E+01 2.41356E+00 2.03242E-03-3.43093E-01-3.00811E-13-1.40783E-13
 -1      3369 2.22324E+01 2.32359E+00-5.38194E-03-1.05792E+00-3.51650E-13 1.35465E-13
 -1      3370 2.15941E+01 2.42247E+00 3.44671E-03 1.95334E-01-2.24171E-13-2.62025E-13
 -1      3371 2.16173E+01 2.24125E+00-1.60883E-02 6.02530E-01-2.12335E-13-2.74145E-13
 -1      3372 2.20903E+01 2.77289E+00-9.49880E-03-6.93560E-02-3.59752E-13-2.00458E-13
 -1      3373 2.17913E+01 1.91215E+00 1.52996E-02 1.03881E+00-4.40906E-14-3.01901E-13
 -1      3374 2.18704E+01 1.44620E+00-2.36214E-02 1.29438E+00 1.52356E-13-2.53536E-13
 -1      3375 2.22426E+01 2.41490E+00 6.49958E-03 9.34934E-01-1.58596E-13-1.73759E-13
 -1      3376 2.20635E+01 9.46387E-01 1.32885E-02 1.46419E+00 1.46081E-13-2.93979E-13
 -1      3377 2.21498E+01 4.22167E-01-1.80458E-02 1.51399E+00 1.92473E-13-3.02637E-13
 -1      3378 2.25419E+01 1.37642E+00 1.37569E-02 1.51163E+00 1.25436E-13-1.51057E-13
 -1      3379 2.22132E+01-3.60080E-02 2.71617E-03 1.41374E+00 2.13941E-13-2.79262E-13
 -1      3380 2.22373E+01-4.28839E-01-1.05030E-02 1.30411E+00 2.98995E-13-2.71321E-13
 -1      3381 2.27487E+01 1.68479E-01 9.84047E-03 1.52266E+00 2.29136E-13-2.43278E-13
 -1      3382 2.21526E+01-7.24278E-01-3.53194E-03 1.06935E+00 3.14779E-13-3.29890E-13
 -1      3383 2.20993E+01-9.24663E-01-7.68564E-04 8.78733E-01 3.20554E-13-3.36288E-13
 -1      3384 2.26814E+01-7.02352E-01 1.16388E-02 1.14490E+00 2.50653E-13-1.88752E-13
 -1      3385 2.18933E+01-1.03382E+00-7.48958E-03 6.22509E-01 1.41898E-13-3.82763E-13
 -1      3386 2.17802E+01-1.06136E+00 4.86180E-03 4.28175E-01 5.46123E-14-3.68264E-13
 -1      3387 2.23585E+01-1.15156E+00 3.06259E-03 6.24248E-01 1.88079E-13-1.76649E-13
 -1      3388 2.15271E+01-1.03271E+00-6.95862E-03 2.23135E-01-5.15601E-14-5.85337E-13
 -1      3389 2.13834E+01-9.52408E-01 6.44133E-03 6.72451E-02-1.02439E-13-6.67168E-13
 -1      3390 2.18958E+01-1.19897E+00 6.18979E-04 1.61246E-01-1.25123E-13-3.49709E-13
 -1      3391 2.11886E+01-8.80183E-01-5.88344E-03-6.54348E-02-1.15929E-13-8.13949E-13
 -1      3392 2.10410E+01-7.54415E-01 4.34888E-03-1.70035E-01-1.87248E-13-8.39293E-13
 -1      3393 2.11113E+01-8.06780E-01 2.26152E-03-3.78129E-01 4.89769E-14-8.59410E-13
 -1      3394 2.14679E+01-1.04035E+00 1.26583E-03-1.67232E-01-1.87835E-13-7.39182E-13
 -1      3395 2.02436E+01 1.70047E-01-1.30841E-03-7.77705E-02 4.30602E-14-1.44735E-13
 -1      3396 2.02684E+01 2.46968E-01 2.23805E-03-3.57395E-02 6.63557E-14-1.44591E-13
 -1      3397 2.02943E+01 5.89157E-01-3.35126E-03 1.48809E-01 9.86701E-14-1.86357E-13
 -1      3398 2.03109E+01 7.48474E-01-1.46152E-03 2.53956E-01 1.12830E-13-2.16860E-13
 -1      3399 2.00529E+01-5.36386E-02 4.22959E-04-1.13519E-01-5.77840E-14 2.33603E-14
 -1      3400 2.00573E+01-6.04476E-02-9.84089E-05-1.19540E-01-2.34096E-14 1.33550E-14
 -1      3401 2.02524E+01 8.50898E-01-1.14976E-03 4.90605E-01 1.96082E-13-1.95410E-13
 -1      3402 2.52625E+01 7.04831E-01 3.38652E-02 1.86441E+00 2.60528E-13 1.01082E-13
 -1      3403 2.49469E+01 1.68966E+00-8.35091E-02 1.93796E+00 2.27422E-15-5.68373E-14
 -1      3404 2.00692E+01-6.54901E-02 4.00321E-04-1.25821E-01 2.03229E-15 5.28632E-14
 -1      3405 2.00754E+01-6.90307E-02 3.01577E-05-1.32542E-01 4.33216E-14 7.35515E-14
 -1      3406 2.00867E+01-6.87420E-02-3.71737E-04-1.15210E-01 3.92087E-14 1.13805E-13
 -1      3407 2.00270E+01-1.49101E-02 4.21581E-04-9.86962E-02-6.76579E-14-7.67538E-14
 -1      3408 2.00295E+01-2.64962E-02-2.94521E-04-1.00666E-01-4.87190E-14-5.89658E-14
 -1      3409 2.00152E+01 1.13058E-02 4.01198E-04-9.87505E-02-5.99869E-14-2.80252E-15
 -1      3410 2.00176E+01-2.67311E-03-3.91888E-04-9.77323E-02-7.96577E-14-5.71269E-14
 -1      3411 2.00292E+01-9.25954E-03-5.00078E-05-9.30918E-02-6.56471E-14-5.11896E-14
 -1      3412 2.00017E+01 4.30599E-02 3.64042E-04-1.05061E-01-3.71612E-14 7.13584E-14
 -1      3413 2.00049E+01 2.61120E-02-5.10155E-04-1.00517E-01-1.68997E-14 8.58559E-14
 -1      3414 2.00114E+01 2.11467E-02 1.00450E-04-9.40367E-02-9.58237E-14 2.81491E-14
 -1      3415 1.99841E+01 8.21522E-02 2.93756E-04-1.18407E-01 4.55118E-14 4.58900E-14
 -1      3416 1.99892E+01 6.12208E-02-6.63430E-04-1.09826E-01 4.12438E-14 6.43433E-14
 -1      3417 1.99909E+01 5.79566E-02 3.02812E-04-1.00345E-01 2.19537E-14 6.74221E-14
 -1      3418 1.99586E+01 1.31367E-01 1.60547E-04-1.39392E-01 2.09047E-14 8.23086E-14
 -1      3419 1.99675E+01 1.04929E-01-8.70106E-04-1.26294E-01 2.98602E-14 9.62320E-14
 -1      3420 1.99645E+01 1.03192E-01 5.88912E-04-1.12262E-01 1.12274E-14 1.46682E-14
 -1      3421 1.99194E+01 1.94656E-01-8.61851E-05-1.68276E-01 1.34536E-13 5.28752E-14
 -1      3422 1.99351E+01 1.60585E-01-1.15110E-03-1.50286E-01 1.28206E-13 1.20281E-13
 -1      3423 1.99278E+01 1.59874E-01 1.00614E-03-1.29543E-01 4.91424E-14-1.83027E-14
 -1      3424 1.98580E+01 2.77329E-01-5.34257E-04-2.04618E-01 1.58078E-13 1.44502E-14
 -1      3425 1.98850E+01 2.32823E-01-1.52858E-03-1.81632E-01 1.33776E-13 1.31147E-14
 -1      3426 1.98741E+01 2.32142E-01 1.62184E-03-1.51106E-01 1.61736E-13-5.79857E-14
 -1      3427 1.97611E+01 3.86310E-01-1.29148E-03-2.46522E-01 2.41469E-14 5.72956E-14
 -1      3428 1.98069E+01 3.27853E-01-1.98181E-03-2.19122E-01 1.18536E-13 3.13770E-14
 -1      3429 1.97938E+01 3.25272E-01 2.51138E-03-1.74405E-01 9.12378E-14-3.82073E-14
 -1      3430 1.96187E+01 5.21459E-01-2.57570E-03-2.87648E-01-7.00739E-15-4.12957E-14
 -1      3431 1.96890E+01 4.49216E-01-2.67372E-03-2.58916E-01 3.72088E-14 2.85716E-15
 -1      3432 1.96770E+01 4.42409E-01 3.88496E-03-1.93954E-01 5.92281E-14-1.45599E-14
 -1      3433 1.93893E+01 7.05163E-01-4.56678E-03-3.24210E-01 8.37493E-14-1.97789E-14
 -1      3434 1.95080E+01 6.07815E-01-3.39124E-03-2.94869E-01 4.40766E-15-4.52099E-14
 -1      3435 1.95027E+01 5.91971E-01 5.67904E-03-2.02370E-01 1.38493E-14-6.18654E-14
 -1      3436 1.90369E+01 9.38257E-01-7.79494E-03-3.38853E-01 6.10455E-14 7.44986E-14
 -1      3437 1.92254E+01 8.16123E-01-4.45374E-03-3.17415E-01 1.31354E-13-1.85866E-14
 -1      3438 1.92377E+01 7.85000E-01 8.47892E-03-1.84377E-01 7.47832E-14-4.48444E-14
 -1      3439 1.85036E+01 1.22064E+00-1.28000E-02-3.07078E-01 4.46041E-15 3.15320E-14
 -1      3440 1.87974E+01 1.07555E+00-5.74720E-03-3.05319E-01 6.24751E-14 6.17483E-14
 -1      3441 1.88466E+01 1.01972E+00 1.23815E-02-1.15326E-01 8.96078E-14-2.70420E-14
 -1      3442 1.77068E+01 1.53608E+00-2.01828E-02-1.92943E-01-3.86796E-14-5.38641E-14
 -1      3443 1.81569E+01 1.37991E+00-7.54472E-03-2.27440E-01-4.89370E-14 2.47003E-14
 -1      3444 1.82761E+01 1.28812E+00 1.79073E-02 4.22165E-02 3.81726E-15-5.77969E-14
 -1      3445 1.65025E+01 1.83421E+00-3.42141E-02 4.44173E-02-1.32544E-14-1.76199E-13
 -1      3446 1.72033E+01 1.70520E+00-9.50823E-03-4.09402E-02-3.29814E-15-9.62798E-14
 -1      3447 1.74494E+01 1.56005E+00 2.45266E-02 3.46938E-01 1.05536E-14-2.53705E-14
 -1      3448 1.49507E+01 1.93769E+00-4.06022E-02 6.15967E-01 5.00147E-14-2.14322E-13
 -1      3449 1.59902E+01 1.89544E+00-6.44327E-03 4.31238E-01 6.72483E-14-2.26430E-13
 -1      3450 1.64375E+01 1.69431E+00 3.43165E-02 9.78687E-01 1.36856E-13-4.83650E-14
 -1      3451 1.54676E+01 1.51691E+00 6.06603E-02 2.05324E+00 6.12075E-14-1.01440E-13
 -1      3452 2.02745E+01 9.33266E-01-6.52325E-03 4.70493E-01 1.87297E-13-2.24255E-13
 -1      3453 2.02758E+01 3.38268E-01-2.24091E-03 1.09659E-02 7.13367E-14-1.49517E-13
 -1      3454 2.03018E+01 4.52871E-01 2.88903E-03 7.98883E-02 8.02840E-14-1.85696E-13
 -1      3455 2.03305E+01 5.89386E-01-1.21939E-03 1.21049E-01 8.60803E-14-2.02111E-13
 -1      3456 2.03151E+01 3.40208E-01-3.35218E-04 2.04134E-03 5.42019E-14-1.92586E-13
 -1      3457 1.29999E+01 1.08204E+00 6.13014E-02-2.94286E+00 1.19733E-13 5.24913E-13
 -1      3458 1.42213E+01 2.56748E-01 1.10705E-02-3.98114E+00 1.95885E-13 6.31821E-13
 -1      3459 1.44780E+01 1.43661E+00 4.93178E-02-2.01885E+00 1.20275E-13 2.42589E-13
 -1      3460 2.42247E+01-3.54812E+00 4.45793E-02-2.59063E+00-1.30885E-14-1.22640E-13
 -1      3461 2.51809E+01-3.16444E+00-7.67298E-02-1.05673E+00-9.53508E-14-3.04533E-13
 -1      3462 2.00283E+01 2.20546E+00-3.33420E-03-1.64958E-01-9.30190E-14-3.94087E-13
 -1      3463 2.00408E+01 2.16837E+00-4.28318E-03-2.86545E-01-1.18472E-13-3.71011E-13
 -1      3464 2.01571E+01 1.85535E+00 5.10527E-03-2.86386E-01-1.13205E-13-3.64170E-13
 -1      3465 2.01408E+01-4.60940E-02 8.31036E-05-1.55678E-01 9.18471E-15-7.96733E-15
 -1      3466 2.01544E+01-2.98258E-02 7.56625E-04-1.54369E-01 2.97636E-14-2.24560E-15
 -1      3467 2.01723E+01-7.38696E-03-2.26583E-04-1.50422E-01 1.20576E-14-6.53028E-14
 -1      3468 2.01903E+01 2.32242E-02 1.17692E-03-1.40772E-01-7.26429E-16-1.09674E-13
 -1      3469 2.02093E+01-1.36589E-02-6.30864E-04-1.37442E-01-2.25287E-14-7.65213E-14
 -1      3470 2.03121E+01 7.36887E-01 1.48256E-03-2.42946E-01-1.68951E-13-1.92444E-13
 -1      3471 2.02952E+01 5.74688E-01-2.88535E-03-1.41836E-01-1.43368E-13-1.85244E-13
 -1      3472 2.03306E+01 5.79211E-01 3.34973E-04-1.15349E-01-1.34504E-13-1.62458E-13
 -1      3473 2.43604E+01 4.68425E+00-2.58798E-02 6.35530E-01-4.79006E-13 8.94948E-14
 -1      3474 2.43683E+01 4.80945E+00-6.37077E-02-3.68003E-01-5.37501E-13 1.70692E-13
 -1      3475 1.99957E+01-3.52126E-01 1.98120E-02-1.95597E+00 2.15930E-13-3.75390E-13
 -1      3476 1.94676E+01-1.14999E-01-1.55694E-02-2.00222E+00 1.13107E-13-1.86547E-13
 -1      3477 2.02732E+01 1.15373E+00 3.26708E-04 4.32923E-01 1.33344E-13-2.57048E-13
 -1      3478 2.02046E+01 1.59744E+00-2.52191E-03-7.12254E-01-2.33875E-13-2.79288E-13
 -1      3479 1.52262E+01 1.96515E+00-3.32915E-03-3.13380E-01-6.73177E-14 1.74423E-13
 -1      3480 1.74673E+01 1.30472E+00 2.50045E-02-1.24055E+00-1.09151E-13 8.38358E-13
 -1      3481 2.66355E+01 2.76278E+00-1.04092E-01-2.07319E+00-3.24768E-13 3.31839E-13
 -1      3482 2.65699E+01 9.25440E-01-3.26118E-02-1.89937E+00-1.12167E-13 2.46837E-13
 -1      3483 2.54453E+01 2.84030E+00-5.13668E-02-1.90271E+00-4.80394E-13 2.11470E-13
 -1      3484 2.00392E+01-3.65340E-02 4.28821E-04-1.03989E-01-1.84555E-14-3.53113E-14
 -1      3485 2.00424E+01-4.58695E-02-2.01346E-04-1.08357E-01-5.06479E-14 1.41000E-14
 -1      3486 2.00654E+01-5.44453E-02-2.75261E-04-1.04734E-01-3.54315E-14 3.75555E-14
 -1      3487 2.00467E+01-3.43922E-02-1.71963E-04-9.69390E-02-2.88342E-14-3.30225E-14
 -1      3488 2.02526E+01 1.39366E+00 2.83769E-03-5.54761E-01-2.05457E-13-2.68073E-13
 -1      3489 2.01126E+01-6.54090E-02 2.53251E-04-1.50135E-01 5.33433E-14 2.14940E-14
 -1      3490 2.01237E+01-5.78123E-02 4.17829E-04-1.53731E-01 4.01834E-14 1.23612E-14
 -1      3491 2.01727E+01-5.35865E-02-5.95050E-04-1.41650E-01 2.63213E-14-6.37608E-14
 -1      3492 2.02193E+01 1.55258E+00-4.25642E-03 2.85113E-01 5.08527E-14-2.85598E-13
 -1      3493 2.02091E+01 1.61110E+00-2.09042E-03 2.01286E-01 1.26570E-14-3.28960E-13
 -1      3494 2.02980E+01 1.28795E+00 5.45862E-03 2.50961E-01 3.38664E-14-2.58721E-13
 -1      3495 2.47931E+01 2.90267E+00-4.21860E-03 1.82642E+00-9.29534E-14 6.09669E-15
 -1      3496 2.44073E+01 3.87254E+00-8.50679E-02 1.32607E+00-2.27887E-13 6.48453E-14
 -1      3497 2.40577E+01 2.14397E+00 7.17794E-03 1.75296E+00-6.42628E-14 1.72206E-14
 -1      3498 2.07243E+01-3.23008E+00 9.56125E-02-5.14877E+00-1.33331E-14-5.21467E-14
 -1      3499 2.23882E+01-3.53311E+00 1.64935E-03-4.04678E+00 3.25677E-14-1.90336E-13
 -1      3500 2.09037E+01-3.17564E+00-2.13799E-02 4.69367E+00 1.85404E-13-3.35895E-13
 -1      3501 1.90731E+01-2.34838E+00 5.86204E-02 5.07697E+00 2.98758E-13-2.93567E-13
 -1      3502 2.02076E+01 6.08472E-02-6.59275E-04-1.27559E-01 1.16388E-14-1.35467E-13
 -1      3503 2.02292E+01 1.10729E-01 1.67031E-03-1.04683E-01 1.18706E-14-1.41784E-13
 -1      3504 2.02850E+01 1.68618E-01-4.67388E-04-7.45074E-02 3.38765E-14-1.37837E-13
 -1      3505 2.02478E+01 5.66403E-02-5.78082E-04-1.17581E-01-2.11586E-14-1.06780E-13
 -1      3506 2.00889E+01-7.03454E-02 3.50581E-04-1.38899E-01 5.88789E-14 7.71943E-14
 -1      3507 2.00973E+01-6.93165E-02 1.99968E-04-1.44985E-01 6.73137E-14 8.61517E-14
 -1      3508 2.01399E+01-7.20320E-02-5.43324E-04-1.36485E-01 4.29192E-14 3.79434E-14
 -1      3509 2.01114E+01-7.55577E-02-4.64612E-04-1.26581E-01 1.42573E-14 1.04617E-13
 -1      3510 2.02890E+01 1.13826E+00-9.39750E-04-4.57874E-01-1.92031E-13-2.34129E-13
 -1      3511 2.02930E+01 9.14802E-01-2.59419E-03-3.21897E-01-1.77304E-13-2.20656E-13
 -1      3512 2.03193E+01 9.17523E-01 1.57894E-03-2.67953E-01-1.47934E-13-1.51621E-13
 -1      3513 2.02600E+01 1.35210E+00 1.77437E-03-4.40735E-01-1.63009E-13-2.28508E-13
 -1      3514 2.63921E+01-1.47414E+00-1.52043E-02 7.87685E-01 2.09679E-13 8.65592E-14
 -1      3515 1.71054E+01-1.46614E+00-1.60368E-02 5.15182E+00 3.42074E-13-2.51910E-13
 -1      3516 1.47173E+01-1.00953E-01 2.89513E-02 4.49441E+00 3.47007E-13-2.15508E-13
 -1      3517 1.59453E+01 4.15291E-01 6.09384E-02 3.43089E+00 1.55089E-13-1.48093E-13
 -1      3518 1.85522E+01-1.47813E+00 4.37094E-02 4.42472E+00 2.66844E-13-3.18693E-13
 -1      3519 2.11669E+01-8.79635E-01 3.86025E-03-6.34413E-01 1.03278E-13-2.51253E-13
 -1      3520 2.11450E+01-8.93078E-01 1.54384E-03-8.63181E-01-3.65082E-14-6.16369E-15
 -1      3521 2.13291E+01-1.03198E+00-6.25342E-03-5.59497E-01-6.99227E-14-4.22680E-13
 -1      3522 1.89271E+01 3.40025E-01 3.71924E-02-1.96439E+00 3.91289E-14-3.00393E-14
 -1      3523 1.82989E+01 5.76153E-01-3.20880E-02-1.81256E+00-3.90001E-14 2.60885E-13
 -1      3524 1.90760E+01-1.45600E-01-2.37979E-02-2.29911E+00 1.31264E-13 1.39819E-15
 -1      3525 2.58754E+01-2.03570E+00 8.05209E-02 3.81414E-01 2.64944E-14-8.23300E-14
 -1      3526 2.54526E+01-9.65166E-01-9.07528E-02 1.25309E+00 2.80469E-13 8.98665E-14
 -1      3527 2.03102E+01 9.93430E-01 5.00949E-03 3.15446E-01 1.07065E-13-2.31204E-13
 -1      3528 2.01358E+01 1.92776E+00 4.96416E-03-9.64947E-02-7.16532E-14-3.61254E-13
 -1      3529 2.33705E+01-3.33341E+00-3.72028E-02 2.74215E+00 1.71222E-13-2.98995E-13
 -1      3530 2.23571E+01-3.28717E+00 5.18326E-02 3.83795E+00 1.15382E-13-2.59659E-13
 -1      3531 2.14473E+01-2.73971E+00 8.52842E-04 3.71223E+00 1.83869E-13-2.61379E-13
 -1      3532 1.73774E+01 9.07779E-01-1.56598E-02-1.78621E+00-1.18916E-13 7.43575E-13
 -1      3533 1.57934E+01 4.80385E-01-1.15387E-02-3.25896E+00 7.96568E-14 6.22901E-13
 -1      3534 1.55030E+01-1.67431E-01 7.81678E-02-4.23421E+00 1.57006E-13 6.40918E-13
 -1      3535 1.69610E+01-8.83268E-01-2.13166E-02-4.42168E+00 3.19074E-14 3.21004E-13
 -1      3536 2.03213E+01 9.78971E-01 1.39035E-03 2.58607E-01 7.20633E-14-2.31487E-13
 -1      3537 2.47247E+01-2.41939E-01-1.54466E-02 1.46301E+00 2.69135E-13-4.52659E-14
 -1      3538 2.04079E+01-6.05677E-01-2.13301E-03-1.75769E+00 2.78338E-13-1.70396E-13
 -1      3539 2.02783E+01-7.86431E-01-1.79384E-02-2.06413E+00 1.21930E-13-2.53818E-13
 -1      3540 2.07473E+01-7.69251E-01 9.34752E-03-1.58384E+00 2.74330E-13 3.24479E-14
 -1      3541 2.31670E+01-3.40669E+00-4.33000E-03-3.18632E+00 1.37928E-14-1.30095E-13
 -1      3542 2.34042E+01-2.91725E+00 1.23320E-02-2.11757E+00-5.57185E-14 4.82687E-16
 -1      3543 2.18919E+01-2.79251E+00 3.10210E-02-3.47805E+00-1.05806E-13-1.79420E-13
 -1      3544 2.02081E+01 1.61320E+00-2.15539E-03-1.98317E-01-8.24503E-14-3.49016E-13
 -1      3545 2.02185E+01 1.55613E+00-3.91283E-03-2.81080E-01-9.96443E-14-3.59755E-13
 -1      3546 2.02855E+01 1.39058E+00 5.70128E-03 1.34803E-01 1.57907E-15-2.98158E-13
 -1      3547 2.02002E+01 1.64382E+00-3.48151E-03 1.29172E-01-1.09631E-14-3.28594E-13
 -1      3548 2.01962E+01 1.66364E+00-2.73462E-03 3.87529E-02-4.31956E-14-3.29926E-13
 -1      3549 2.36415E+01 3.68643E+00-2.13805E-02 8.45929E-01-3.14443E-13 1.02394E-13
 -1      3550 2.47901E+01-2.48313E+00-1.17297E-02-3.84683E-01 6.91287E-15-1.49456E-13
 -1      3551 2.65213E+01-1.58782E-01-6.81989E-02-1.58844E+00-1.08351E-14 2.70964E-13
 -1      3552 2.61913E+01-1.05848E+00-2.87679E-02-1.07782E+00 3.75394E-14 3.15128E-13
 -1      3553 2.56407E+01 6.88964E-01 2.85393E-03-1.89352E+00-7.61197E-15 2.97894E-13
 -1      3554 2.10909E+01-8.98433E-01 6.86119E-03-1.10382E+00 2.08606E-14-4.32577E-14
 -1      3555 2.09329E+01-8.34350E-01 4.08066E-03-1.33254E+00 1.95264E-13-1.01234E-13
 -1      3556 2.10251E+01-1.06529E+00-9.71934E-04-1.58302E+00 3.10504E-13-1.72400E-13
 -1      3557 2.12946E+01-1.11546E+00-6.24169E-03-1.08141E+00 1.06162E-13 1.32854E-14
 -1      3558 1.92514E+01-2.42167E+00 1.91136E-02-4.97759E+00-4.80380E-14-8.82801E-14
 -1      3559 2.60336E+01-2.51777E+00-3.31219E-03 2.36044E-01 5.47653E-14 2.59253E-13
 -1      3560 2.60205E+01-3.21856E+00-4.68700E-03 1.10545E+00 1.41884E-13-7.12989E-14
 -1      3561 2.47754E+01-3.36413E+00-1.86373E-02 1.79288E+00 1.34373E-13-9.88506E-14
 -1      3562 2.02322E+01 1.50926E+00-6.86780E-04-3.31941E-01-1.01144E-13-3.38686E-13
 -1      3563 2.02471E+01 1.41404E+00-3.34311E-03-3.99643E-01-1.32853E-13-2.85699E-13
 -1      3564 2.02948E+01 1.18202E+00 1.01713E-03-3.14308E-01-1.19258E-13-2.40902E-13
 -1      3565 2.02928E+01 1.30619E+00 4.25063E-03-2.40088E-01-8.04475E-14-3.46287E-13
 -1      3566 2.03565E+01 4.19025E-01 1.49991E-03-2.92966E-02-8.68887E-14-1.52019E-13
 -1      3567 2.03403E+01 3.08385E-01-1.71435E-03 1.89336E-02-5.84961E-14-1.47540E-13
 -1      3568 2.01964E+01 1.66388E+00-2.67645E-03-3.58135E-02-5.32016E-14-3.46311E-13
 -1      3569 2.02003E+01 1.64541E+00-3.22498E-03-1.26446E-01-8.06875E-14-3.54376E-13
 -1      3570 2.02838E+01 1.39171E+00 5.09759E-03-1.31174E-01-7.46541E-14-3.34852E-13
 -1      3571 2.02788E+01 1.42515E+00 5.26163E-03 1.50271E-03-3.77996E-14-3.25327E-13
 -1      3572 2.16015E+01-1.18048E+00 3.70801E-03-4.55613E-01-1.98600E-13-5.63128E-13
 -1      3573 2.16354E+01-1.25851E+00 1.83546E-03-7.30936E-01-1.31043E-13-5.81891E-16
 -1      3574 2.17745E+01-1.29517E+00-6.92714E-03-3.27522E-01-2.94561E-13-4.26350E-13
 -1      3575 2.35854E+01 3.88777E+00-2.76558E-02-6.30193E-01-5.97890E-13 1.46898E-13
 -1      3576 2.44522E+01 4.40348E+00-4.83743E-02-1.02892E+00-5.91156E-13 9.55789E-14
 -1      3577 2.03331E+01 2.19079E-01 1.33914E-03 4.82961E-02-6.77446E-14-1.18703E-13
 -1      3578 2.03123E+01 1.44474E-01-1.04546E-03 7.78143E-02-9.20724E-14-1.12609E-13
 -1      3579 2.03675E+01 2.97436E-01 2.89078E-04 2.20109E-02-5.51613E-14-1.19463E-13
 -1      3580 2.02969E+01 8.56848E-02 1.06247E-03 9.42472E-02-7.21944E-14-1.01155E-13
 -1      3581 2.02752E+01 3.77263E-02-5.18652E-04 1.09920E-01-4.58140E-14-1.08055E-13
 -1      3582 2.03385E+01 1.34518E-01-1.19333E-04 6.98277E-02-6.04190E-14-1.18851E-13
 -1      3583 2.02557E+01 1.17306E-03 7.80366E-04 1.17065E-01-5.02478E-14-1.13054E-13
 -1      3584 2.02351E+01-2.74851E-02-1.44751E-04 1.23198E-01-2.71938E-14-1.21364E-13
 -1      3585 2.02992E+01 2.86527E-02-3.60373E-04 9.56485E-02-4.85674E-14-1.27679E-13
 -1      3586 2.02142E+01-4.81345E-02 5.36054E-04 1.24176E-01-3.95283E-14-1.64022E-13
 -1      3587 2.01958E+01-6.30520E-02 1.05546E-04 1.24221E-01-6.56488E-14-2.16645E-13
 -1      3588 2.02562E+01-3.54622E-02-4.87295E-04 1.06036E-01-7.47463E-14-1.68344E-13
 -1      3589 2.01753E+01-7.24825E-02 3.33555E-04 1.21527E-01-6.73392E-14-2.31205E-13
 -1      3590 2.01592E+01-7.78139E-02 2.56193E-04 1.18140E-01-8.25015E-14-2.27251E-13
 -1      3591 2.02136E+01-6.95426E-02-5.11607E-04 1.06409E-01-9.65079E-14-2.05042E-13
 -1      3592 2.01401E+01-7.95381E-02 1.72616E-04 1.13645E-01-9.97927E-14-2.16421E-13
 -1      3593 2.01264E+01-7.83158E-02 3.37188E-04 1.08732E-01-1.14247E-13-1.92556E-13
 -1      3594 2.01737E+01-8.25813E-02-4.91521E-04 1.01092E-01-9.35754E-14-2.04774E-13
 -1      3595 2.01089E+01-7.47818E-02 4.46208E-05 1.03772E-01-1.23777E-13-2.20068E-13
 -1      3596 2.00974E+01-6.91119E-02 3.79222E-04 9.87273E-02-1.26640E-13-1.84846E-13
 -1      3597 2.01375E+01-8.11468E-02-4.40015E-04 9.32052E-02-1.29954E-13-2.16294E-13
 -1      3598 2.00817E+01-6.20504E-02-5.82966E-05 9.43196E-02-1.00649E-13-1.80589E-13
 -1      3599 2.00720E+01-5.34407E-02 3.94710E-04 9.01525E-02-9.87271E-14-1.78867E-13
 -1      3600 2.01052E+01-6.97970E-02-3.59637E-04 8.51005E-02-1.03378E-13-1.82619E-13
 -1      3601 2.00578E+01-4.41063E-02-1.44358E-04 8.70395E-02-9.56235E-14-1.69456E-13
 -1      3602 2.00496E+01-3.36282E-02 3.98644E-04 8.44622E-02-7.38276E-14-1.56817E-13
 -1      3603 2.00764E+01-5.18615E-02-2.77312E-04 7.85605E-02-8.38529E-14-1.55006E-13
 -1      3604 2.00366E+01-2.29001E-02-2.20723E-04 8.32099E-02-6.14075E-14-1.13623E-13
 -1      3605 2.00296E+01-1.13360E-02 4.07215E-04 8.27693E-02 6.75737E-15-9.50038E-14
 -1      3606 2.00505E+01-2.96739E-02-1.95940E-04 7.48895E-02-2.53758E-14-9.75081E-14
 -1      3607 2.00174E+01 6.47529E-05-2.87495E-04 8.38986E-02 6.49947E-14-9.88361E-14
 -1      3608 2.00114E+01 1.20001E-02 4.31547E-04 8.60415E-02 5.49536E-14-3.33864E-14
 -1      3609 2.00267E+01-4.93678E-03-1.24332E-04 7.52101E-02 1.86032E-15-5.43805E-14
 -1      3610 1.99998E+01 2.33214E-02-3.43460E-04 9.00717E-02 5.19326E-14-2.61647E-14
 -1      3611 1.99948E+01 3.47998E-02 4.82482E-04 9.51834E-02 9.17786E-14-7.80476E-14
 -1      3612 2.00044E+01 2.08284E-02-7.36922E-05 8.06127E-02 7.42856E-14-1.83067E-13
 -1      3613 1.99838E+01 4.50771E-02-3.81976E-04 1.02683E-01 6.05565E-14-4.13789E-14
 -1      3614 1.99803E+01 5.49532E-02 5.72468E-04 1.11106E-01-3.01914E-14-1.39293E-13
 -1      3615 1.99833E+01 4.58833E-02-6.23236E-05 9.22587E-02 2.01264E-14-1.13189E-13
 -1      3616 1.99703E+01 6.27921E-02-3.87028E-04 1.22725E-01-9.07223E-14-1.18420E-13
 -1      3617 1.99693E+01 6.93691E-02 7.14076E-04 1.34737E-01-5.77449E-14-1.24936E-13
 -1      3618 1.99637E+01 6.78475E-02-1.15911E-04 1.11491E-01-1.95795E-14-1.10151E-13
 -1      3619 1.99614E+01 7.27108E-02-3.30348E-04 1.51189E-01 2.83267E-14-1.32589E-13
 -1      3620 1.99647E+01 7.34913E-02 9.17467E-04 1.66921E-01 9.00505E-14-1.10492E-13
 -1      3621 1.99471E+01 8.31914E-02-2.71923E-04 1.39878E-01-4.48752E-14 3.80993E-14
 -1      3622 1.99613E+01 6.93796E-02-1.66088E-04 1.88898E-01 1.46878E-13-9.67660E-14
 -1      3623 1.99717E+01 6.08285E-02 1.18427E-03 2.08166E-01 1.34838E-13-7.60642E-14
 -1      3624 1.99368E+01 8.66824E-02-5.84239E-04 1.79155E-01 1.27507E-13 1.37723E-14
 -1      3625 1.99768E+01 4.52266E-02 1.76467E-04 2.36112E-01 7.63420E-14 1.16926E-14
 -1      3626 1.99985E+01 2.26186E-02 1.49595E-03 2.58096E-01 1.07604E-13-2.82822E-14
 -1      3627 1.99385E+01 7.08339E-02-1.12467E-03 2.30963E-01 1.16546E-13 5.69616E-14
 -1      3628 2.00182E+01-9.61380E-03 7.98906E-04 2.91745E-01 1.17598E-13-2.16792E-14
 -1      3629 2.00573E+01-5.21118E-02 1.79312E-03 3.14466E-01 1.20576E-13 5.27918E-14
 -1      3630 1.99619E+01 2.54853E-02-1.98122E-03 2.96229E-01 1.29284E-13 1.78534E-13
 -1      3631 2.01008E+01-1.06875E-01 1.83461E-03 3.52013E-01 1.56761E-13-2.66811E-14
 -1      3632 2.01646E+01-1.75622E-01 1.94256E-03 3.71518E-01 1.15996E-13 1.39194E-13
 -1      3633 2.00211E+01-6.21906E-02-3.25139E-03 3.73933E-01 1.35071E-13 7.94171E-14
 -1      3634 2.02444E+01-2.58527E-01 3.42981E-03 4.08237E-01 1.28392E-14 1.81845E-13
 -1      3635 2.03413E+01-3.58830E-01 1.71585E-03 4.17479E-01 1.29834E-13 1.70817E-13
 -1      3636 2.01366E+01-2.06674E-01-5.01274E-03 4.58913E-01 1.45083E-13 1.15950E-13
 -1      3637 2.04730E+01-4.72872E-01 5.70129E-03 4.43827E-01 2.21673E-13 1.00993E-13
 -1      3638 2.06100E+01-6.05990E-01 6.86191E-04 4.31518E-01 2.30948E-13 1.17302E-13
 -1      3639 2.03348E+01-4.20955E-01-7.24413E-03 5.38397E-01 1.24744E-13 9.07691E-14
 -1      3640 2.08105E+01-7.47475E-01 8.52397E-03 4.30363E-01 1.62447E-13 8.81465E-14
 -1      3641 2.09903E+01-9.03991E-01-1.40386E-03 3.80066E-01 1.65490E-13 1.28740E-13
 -1      3642 2.06466E+01-7.10372E-01-9.79621E-03 5.87310E-01 1.68560E-13-5.59332E-14
 -1      3643 2.12714E+01-1.05499E+00 1.15933E-02 3.26066E-01 1.20857E-13-3.65243E-15
 -1      3644 2.14861E+01-1.20772E+00-4.80781E-03 2.18633E-01 6.34680E-14-5.54203E-14
 -1      3645 2.11013E+01-1.05838E+00-1.18022E-02 5.62341E-01 6.74086E-14-1.64320E-13
 -1      3646 2.18426E+01-1.32641E+00 1.29787E-02 7.87797E-02 1.58816E-14-1.29415E-14
 -1      3647 2.20674E+01-1.41599E+00-8.92573E-03-9.99211E-02-6.60057E-14 3.39246E-14
 -1      3648 2.17110E+01-1.40304E+00-1.06809E-02 4.02876E-01 2.01063E-14-1.87892E-13
 -1      3649 2.24628E+01-1.43119E+00 1.04419E-02-3.48890E-01-1.23550E-13 5.49058E-14
 -1      3650 2.26542E+01-1.36521E+00-1.10120E-02-5.93093E-01-9.69477E-14 2.39723E-14
 -1      3651 2.24423E+01-1.62055E+00-6.78463E-03 4.20662E-02-7.84192E-14-3.62915E-14
 -1      3652 2.29987E+01-1.17514E+00 1.34828E-03-9.35618E-01-9.41304E-15 9.97062E-14
 -1      3653 2.31048E+01-8.49335E-01-6.83470E-03-1.18912E+00 6.13886E-14 1.43578E-13
 -1      3654 2.31883E+01-1.49829E+00 2.11940E-03-5.48190E-01-3.85623E-14 1.30513E-13
 -1      3655 2.32772E+01-3.74222E-01-1.48694E-02-1.52159E+00 6.48702E-14 2.25290E-13
 -1      3656 2.32671E+01 2.51019E-01 3.27181E-03-1.66593E+00-3.86102E-14 3.10709E-13
 -1      3657 2.37512E+01-7.82511E-01 1.35800E-02-1.26745E+00 5.68639E-14 1.32465E-13
 -1      3658 2.31930E+01 9.71735E-01-3.36546E-02-1.78498E+00-1.44742E-13 3.58575E-13
 -1      3659 2.30870E+01 1.75213E+00 9.78583E-03-1.68113E+00-2.41701E-13 3.90981E-13
 -1      3660 2.39247E+01 6.10323E-01 1.34735E-02-1.80048E+00 2.34751E-14 3.03008E-13
 -1      3661 2.29686E+01 2.61408E+00-2.93235E-02-1.36166E+00-4.61439E-13 3.27656E-13
 -1      3662 2.28512E+01 3.16765E+00-1.16578E-03-9.56587E-01-5.24349E-13 1.76229E-13
 -1      3663 2.27636E+01 3.48647E+00-1.24732E-02-2.84480E-01-5.99501E-13 1.20209E-13
 -1      3664 2.27454E+01 3.45200E+00-3.31180E-02 2.71383E-01-3.96289E-13-2.97154E-14
 -1      3665 2.28948E+01 3.00949E+00 2.19567E-03 9.69817E-01-1.41141E-13-3.40500E-14
 -1      3666 2.29849E+01 2.40435E+00-4.93393E-02 1.39244E+00-7.12594E-14-3.93576E-14
 -1      3667 2.32893E+01 1.67299E+00 6.21726E-03 1.61267E+00-1.85824E-14-4.89023E-14
 -1      3668 2.34308E+01 9.02972E-01-1.44652E-02 1.76194E+00 9.84135E-14-1.41677E-13
 -1      3669 2.32109E+01-8.39603E-01-4.93579E-03 1.13415E+00 2.82817E-13-1.73063E-13
 -1      3670 2.31095E+01-1.19111E+00 7.69918E-05 8.67964E-01 2.04115E-13-1.95658E-13
 -1      3671 2.27789E+01-1.38613E+00-1.01104E-02 5.07761E-01 1.68217E-13-1.95225E-13
 -1      3672 2.25817E+01-1.45995E+00 4.78904E-03 2.53970E-01 9.79815E-14-2.80519E-13
 -1      3673 2.33401E+01-1.53869E+00 4.60705E-05 4.76736E-01 1.41405E-13-1.78207E-13
 -1      3674 2.22984E+01-1.46446E+00-8.07266E-03 2.36240E-02-1.69845E-13-3.38474E-13
 -1      3675 2.20574E+01-1.38914E+00 4.12513E-03-1.71734E-01-2.88089E-13-5.08985E-13
 -1      3676 2.21765E+01-1.54239E+00 1.46363E-03-4.79830E-01-2.32910E-13-5.20344E-13
 -1      3677 2.27212E+01-1.67888E+00-1.06981E-03-1.05660E-01-1.36830E-13-5.06771E-13
 -1      3678 2.37679E+01 2.44876E+00-1.28761E-02-1.65193E+00-4.21975E-13 2.14462E-13
 -1      3679 2.44130E+01 3.87520E+00-3.12170E-02-1.46938E+00-6.55340E-13 1.18719E-13
 -1      3680 2.00077E+01 3.04390E-02 2.10832E-04-8.44649E-02-9.56426E-14-9.10590E-14
 -1      3681 2.00168E+01 1.28717E-02-3.47629E-04-8.27574E-02-9.60214E-14-8.40008E-14
 -1      3682 2.00311E+01-2.84510E-03 2.94128E-04-8.30656E-02-6.77048E-14-4.89112E-14
 -1      3683 2.00395E+01-1.75564E-02-2.44391E-04-8.36949E-02-3.98247E-14-6.36256E-14
 -1      3684 2.00272E+01 5.46300E-03 4.11503E-05-7.29806E-02-7.44073E-14-8.15026E-14
 -1      3685 1.99459E+01 1.18761E-01-1.29585E-04-9.94889E-02 2.24132E-14-4.52686E-14
 -1      3686 1.99613E+01 9.31627E-02-5.90232E-04-9.28928E-02 3.09099E-14-3.90418E-14
 -1      3687 1.98986E+01 1.78475E-01-4.64900E-04-1.11658E-01 9.91909E-14-8.98191E-14
 -1      3688 1.99211E+01 1.46887E-01-7.41124E-04-1.03117E-01 6.38330E-14-5.12129E-14
 -1      3689 1.99239E+01 1.39693E-01 8.58986E-04-8.25382E-02 5.11944E-14-1.06424E-13
 -1      3690 1.98315E+01 2.53062E-01-1.00281E-03-1.24183E-01 1.77845E-13-1.51343E-13
 -1      3691 1.98652E+01 2.13648E-01-9.09022E-04-1.14783E-01 1.89490E-13-1.46039E-13
 -1      3692 1.98681E+01 2.04300E-01 1.34490E-03-8.68158E-02 1.75029E-13-1.73519E-13
 -1      3693 1.97340E+01 3.46974E-01-1.79716E-03-1.32548E-01 2.08573E-14-9.28035E-14
 -1      3694 1.97853E+01 2.97547E-01-1.05065E-03-1.24518E-01 9.90069E-14-7.68841E-14
 -1      3695 1.97910E+01 2.83473E-01 2.00046E-03-8.62540E-02 7.35393E-14-1.21402E-13
 -1      3696 1.96001E+01 4.58082E-01-3.08705E-03-1.29759E-01 6.41071E-14-1.87624E-13
 -1      3697 1.96732E+01 3.99966E-01-1.25061E-03-1.26634E-01 4.82314E-14-1.46011E-13
 -1      3698 1.96863E+01 3.77697E-01 2.88272E-03-7.45354E-02 5.58529E-14-1.60284E-13
 -1      3699 1.93971E+01 6.01854E-01-5.05070E-03-1.03289E-01-3.52680E-15-1.26702E-13
 -1      3700 1.95121E+01 5.27495E-01-1.24256E-03-1.11362E-01 5.97403E-14-1.26638E-13
 -1      3701 1.95395E+01 4.91584E-01 4.06739E-03-4.15122E-02 3.80654E-14-2.08744E-13
 -1      3702 1.91035E+01 7.74622E-01-7.95307E-03-3.26564E-02 7.70933E-14-9.58764E-14
 -1      3703 1.92749E+01 6.86765E-01-1.16654E-03-6.27126E-02 5.06667E-14-1.03642E-13
 -1      3704 1.93296E+01 6.29028E-01 5.71233E-03 3.12603E-02 2.15987E-15-1.89354E-13
 -1      3705 1.86840E+01 9.70578E-01-1.22185E-02 1.12972E-01 7.82848E-14-3.38867E-14
 -1      3706 1.89366E+01 8.73912E-01-6.99761E-04 4.44834E-02 1.19957E-13-3.46230E-14
 -1      3707 1.90384E+01 7.82762E-01 7.75343E-03 1.69216E-01 7.77972E-14 2.71052E-14
 -1      3708 1.80952E+01 1.17159E+00-1.73348E-02 3.79856E-01-3.79374E-14-9.53794E-15
 -1      3709 1.84606E+01 1.07816E+00 5.24471E-04 2.48060E-01-1.70081E-14-4.07410E-14
 -1      3710 1.86414E+01 9.37670E-01 1.01700E-02 4.10743E-01 2.81440E-14 1.28116E-13
 -1      3711 1.72818E+01 1.33915E+00-1.89976E-02 8.35553E-01 6.40317E-14-1.14256E-13
 -1      3712 1.78039E+01 1.27185E+00 4.16790E-03 5.97708E-01 1.60443E-14-4.72222E-14
 -1      3713 1.81040E+01 1.06108E+00 1.03995E-02 8.12988E-01-2.82992E-14-6.73853E-15
 -1      3714 2.02388E+01-2.41607E-02-1.52811E-04-1.22947E-01-2.14637E-14-1.02837E-13
 -1      3715 2.02594E+01 5.74273E-03 7.98554E-04-1.16173E-01-6.24125E-14-1.00639E-13
 -1      3716 2.03576E+01 8.02873E-01 5.54600E-03 1.75940E-01 6.76333E-14-2.11361E-13
 -1      3717 2.03212E+01 1.01209E+00-4.44837E-03 2.18061E-01 4.99622E-14-2.34412E-13
 -1      3718 2.03540E+01 7.07666E-01 8.58513E-04-1.46585E-01-1.35822E-13-1.61822E-13
 -1      3719 2.03497E+01 5.50601E-01-2.10996E-03-7.53808E-02-1.30631E-13-1.83092E-13
 -1      3720 2.03769E+01 5.36532E-01 1.04471E-03-5.46343E-02-8.64299E-14-1.68092E-13
 -1      3721 2.41485E+01-2.59500E+00 2.70064E-02-8.72472E-01-2.66540E-14-2.18649E-13
 -1      3722 2.43856E+01-1.98774E+00-3.50315E-02 2.92307E-01 1.95764E-14-1.72965E-13
 -1      3723 2.44475E+01 2.76826E+00-4.55477E-02-1.79993E+00-4.59419E-13 1.37590E-13
 -1      3724 2.46804E+01 1.47119E+00-3.10780E-02-2.01970E+00-1.26123E-13 1.68390E-13
 -1      3725 1.77733E+01 2.67157E-01 6.58159E-02-2.87327E+00-6.73454E-14 5.94206E-13
 -1      3726 1.64364E+01 8.76591E-01-1.37499E-02-2.27762E+00-1.33067E-13 9.20576E-13
 -1      3727 2.03238E+01 1.07952E+00-1.75433E-03 1.74791E-01 2.41996E-14-2.42055E-13
 -1      3728 2.01997E+01-6.16603E-02 1.03096E-04-1.24812E-01 8.40732E-15-8.08653E-14
 -1      3729 2.02181E+01-4.58576E-02 5.52465E-04-1.24363E-01 1.85995E-14-8.42562E-14
 -1      3730 2.02602E+01-3.21992E-02-4.77016E-04-1.06058E-01-2.79337E-14-9.40121E-14
 -1      3731 1.85088E+01-1.40920E+00 6.86520E-02-4.41612E+00-1.30979E-13-1.21679E-13
 -1      3732 2.00343E+01-2.15637E+00-4.80897E-02-4.05943E+00-2.31491E-13-1.07575E-13
 -1      3733 1.81199E+01-6.83115E-01-5.45669E-03-3.67645E+00-4.70986E-14 2.83890E-13
 -1      3734 1.99805E+01 7.03345E-02 7.95882E-05-9.00529E-02 3.38988E-14-6.93107E-14
 -1      3735 1.99918E+01 4.92739E-02-4.59977E-04-8.58590E-02-4.93896E-15-9.51360E-14
 -1      3736 1.99657E+01 8.66051E-02 5.04551E-04-7.74945E-02-1.05721E-14-1.64124E-13
 -1      3737 1.96354E+01-8.42645E-01 1.65594E-02-2.91725E+00 4.08311E-15-8.24562E-14
 -1      3738 1.87498E+01-4.34964E-01-1.77445E-02-2.90485E+00-4.63067E-14 4.20228E-14
 -1      3739 2.01024E+01-6.98323E-02 3.71979E-04-1.00499E-01 3.16508E-14 4.01993E-14
 -1      3740 2.01139E+01-7.55725E-02 5.35642E-05-1.05453E-01 6.92797E-14 7.57633E-14
 -1      3741 2.03177E+01 1.18666E+00-1.93693E-03-7.52960E-02-5.11226E-14-3.26294E-13
 -1      3742 2.03208E+01 1.15580E+00-2.06786E-03-1.32450E-01-6.72244E-14-3.34732E-13
 -1      3743 2.40276E+01-3.21503E+00 2.46612E-02 2.12495E+00 2.37069E-13-1.21273E-13
 -1      3744 2.30576E+01-2.94827E+00-1.48363E-02 2.35406E+00 2.50755E-13-1.25891E-13
 -1      3745 2.43565E+01-2.95190E+00-4.32880E-03 1.35023E+00 1.85301E-13 1.09638E-13
 -1      3746 1.53308E+01 1.84880E+00 7.14746E-02-1.12149E+00-7.34642E-14 2.26315E-13
 -1      3747 2.00866E+01-6.24652E-02-6.01817E-05-9.60005E-02 5.71728E-15 7.03491E-14
 -1      3748 2.01102E+01-7.03510E-02-3.70742E-04-8.67685E-02 3.04954E-15-5.59967E-14
 -1      3749 2.00768E+01-5.32179E-02 3.70794E-04-9.18227E-02-1.19029E-14 3.46290E-14
 -1      3750 2.40437E+01 2.98314E-01-2.19622E-02 1.70137E+00 2.46475E-13-7.99549E-14
 -1      3751 2.32312E+01 1.54797E-01-1.17896E-02 1.53260E+00 2.79646E-13-1.22296E-13
 -1      3752 2.32574E+01-4.01061E-01-1.37082E-02 1.41854E+00 3.30621E-13-1.21154E-13
 -1      3753 1.99988E+01 4.24868E-02 2.41704E-04-7.39396E-02-4.22762E-14-2.73475E-13
 -1      3754 1.57016E+01 1.40552E+00 4.52106E-02-1.94130E+00-9.43863E-15 4.49956E-13
 -1      3755 2.03238E+01 1.12190E+00-3.76018E-03 1.37792E-01 1.32320E-14-2.99989E-13
 -1      3756 2.03228E+01 1.16056E+00-1.69806E-03 8.15325E-02-8.86755E-15-2.95880E-13
 -1      3757 2.03751E+01 8.90417E-01 5.14141E-03 1.13782E-01 1.97893E-14-2.46296E-13
 -1      3758 2.44580E+01-8.92507E-01 1.93187E-02 1.20401E+00 2.66317E-13 1.84052E-14
 -1      3759 2.03521E+01 6.27951E-01-1.58628E-03 1.00952E-01 6.85148E-14-2.05179E-13
 -1      3760 2.37725E+01-8.23960E-01 1.92336E-02 1.18698E+00 2.71620E-13-5.05034E-14
 -1      3761 2.03224E+01 1.01811E+00-5.27181E-04-2.63711E-01-1.22087E-13-2.16325E-13
 -1      3762 2.03355E+01 8.32998E-01-1.35657E-03-1.87512E-01-1.31815E-13-1.81243E-13
 -1      3763 2.03586E+01 8.11819E-01 1.17221E-03-1.43674E-01-1.15391E-13-2.45723E-13
 -1      3764 2.03188E+01 1.08822E+00-2.70242E-04-2.33972E-01-1.03432E-13-2.91487E-13
 -1      3765 2.00538E+01-2.56025E-02-1.16722E-04-7.49749E-02-2.26418E-14-1.58839E-14
 -1      3766 2.00535E+01-3.06233E-02 3.48539E-04-8.56764E-02-1.90935E-14-3.15035E-14
 -1      3767 2.00622E+01-4.27532E-02-1.55938E-04-8.83145E-02-1.45872E-14 8.56924E-15
 -1      3768 2.03026E+01 3.39216E-02-3.68751E-04-9.47337E-02-6.01423E-14-1.12354E-13
 -1      3769 2.02785E+01 4.31478E-02-5.36300E-04-1.08608E-01-6.13431E-14-9.60252E-14
 -1      3770 2.03000E+01 9.21249E-02 1.15870E-03-9.24252E-02-2.37335E-14-1.28368E-13
 -1      3771 1.71131E+01 1.31119E+00 1.93980E-02 1.20775E+00 1.26099E-13-6.99824E-14
 -1      3772 1.75487E+01 9.87491E-01-6.15904E-03 1.46077E+00 4.66619E-14-1.66171E-13
 -1      3773 1.65959E+01 1.20478E+00-2.05668E-02 1.65497E+00 1.12120E-13 8.22259E-16
 -1      3774 2.10394E+01-2.05912E+00 2.18482E-02-3.24503E+00-2.86578E-13-2.22870E-13
 -1      3775 1.60065E+01 7.25525E-01-3.24376E-02 2.77409E+00 1.54108E-13-2.86533E-14
 -1      3776 1.65649E+01 1.03579E+00 3.56173E-02 2.15418E+00 1.86505E-13 7.43849E-15
 -1      3777 1.72551E+01 5.86464E-01-1.76803E-02 2.37647E+00 1.42187E-13-8.11389E-14
 -1      3778 2.03411E+01 3.18505E-01-1.82329E-03-1.67185E-02 4.09929E-14-1.49497E-13
 -1      3779 2.03582E+01 4.30083E-01 1.83000E-03 3.49126E-02 6.06877E-14-1.56589E-13
 -1      3780 2.14902E+01-2.41548E+00-2.48684E-02 3.03444E+00 2.50352E-13-1.57104E-13
 -1      3781 2.05448E+01-2.13302E+00 3.59100E-02 3.77165E+00 2.79261E-13-3.04963E-13
 -1      3782 2.18892E+01-1.51891E+00-3.49683E-03-9.36390E-01-4.40748E-14-2.64596E-13
 -1      3783 2.16281E+01-1.33274E+00 5.35425E-03-1.02874E+00 1.29667E-13-2.08369E-14
 -1      3784 2.15251E+01-1.36119E+00-3.78055E-03-1.29838E+00 2.11612E-13-3.33098E-13
 -1      3785 2.01637E+01-7.76455E-02 2.56052E-04-1.19328E-01 8.92872E-15-8.00507E-15
 -1      3786 2.01795E+01-7.17519E-02 3.49854E-04-1.22422E-01 6.58372E-15-7.18011E-14
 -1      3787 2.02180E+01-6.81618E-02-5.25400E-04-1.07241E-01-1.02095E-14-1.05249E-13
 -1      3788 2.47155E+01 6.59032E-01-1.55234E-02-1.80211E+00 5.43836E-14 1.89893E-13
 -1      3789 2.01312E+01-7.89372E-02 3.40124E-04-1.10334E-01 1.04882E-14 2.45713E-14
 -1      3790 2.01447E+01-7.98397E-02 1.86071E-04-1.15011E-01 5.98721E-15 2.51219E-14
 -1      3791 2.01786E+01-8.24854E-02-5.03339E-04-1.02409E-01-1.96421E-14-9.04399E-14
 -1      3792 2.01425E+01-8.17375E-02-4.44911E-04-9.48342E-02 2.69685E-14-3.78153E-14
 -1      3793 2.43479E+01-1.46127E+00 4.11673E-03 8.41564E-01 2.11794E-13-3.07978E-15
 -1      3794 2.37348E+01-1.79859E+00-1.88061E-02 2.97666E-01 6.86293E-14-1.60733E-13
 -1      3795 2.58693E+01-1.91040E+00-2.23508E-02-5.19682E-01 4.82074E-14 3.74163E-13
 -1      3796 2.50942E+01-2.42853E+00-1.60037E-02 1.81559E-01 4.31458E-14 3.25613E-13
 -1      3797 2.53408E+01-1.04118E+00 1.35575E-02-1.14122E+00 9.93476E-14 2.23025E-13
 -1      3798 2.03154E+01 1.13593E+00-1.08346E-03-1.94787E-01-9.27840E-14-3.32241E-13
 -1      3799 2.03144E+01 1.52422E-01-1.05486E-03-7.51117E-02 2.16160E-14-1.49001E-13
 -1      3800 2.03362E+01 2.27537E-01 1.70368E-03-4.45362E-02 3.44844E-14-1.53877E-13
 -1      3801 2.03687E+01 3.02965E-01-1.14196E-03-1.99735E-02 4.25774E-14-1.45684E-13
 -1      3802 2.03404E+01 1.42525E-01-1.19439E-04-6.81413E-02-1.10156E-14-1.50419E-13
 -1      3803 2.03579E+01 9.65821E-01 1.91163E-03-1.35649E-01-8.29895E-14-3.28021E-13
 -1      3804 1.70154E+01-8.77196E-02 7.16569E-03 3.59920E+00 2.81922E-13-2.21625E-13
 -1      3805 1.88421E+01-1.29218E+00-2.89091E-03 3.85520E+00 3.51825E-13-3.35781E-13
 -1      3806 2.06240E+01-1.09940E+00 1.52721E-02-2.29687E+00 1.35515E-13-3.67141E-13
 -1      3807 2.04953E+01-1.56061E+00-1.18648E-03-2.98814E+00-2.48338E-13-2.15781E-13
 -1      3808 2.19115E+01-2.26896E+00-2.77441E-02-2.45587E+00-1.77547E-13-1.98449E-13
 -1      3809 2.10809E+01-1.34770E+00-1.07226E-04-2.06838E+00 7.51491E-14-6.64841E-14
 -1      3810 2.03958E+01 3.66821E-01 5.58581E-04-5.23676E-04-4.15950E-14-1.89281E-13
 -1      3811 2.03839E+01 2.63827E-01-1.13132E-03 3.06700E-02-5.57967E-14-1.78099E-13
 -1      3812 2.03168E+01 1.19980E+00-2.48812E-03-2.98845E-02-3.83801E-14-3.15152E-13
 -1      3813 2.03706E+01 1.00127E+00 4.47721E-03-3.88179E-02-2.16503E-14-3.00891E-13
 -1      3814 2.03167E+01 1.19744E+00-3.20631E-03 3.15203E-02-8.23767E-15-2.90164E-13
 -1      3815 2.03745E+01 1.79564E-01 6.77780E-04 4.58323E-02-5.89590E-14-1.65263E-13
 -1      3816 2.03553E+01 1.10289E-01-6.99657E-04 6.45071E-02-5.86226E-14-1.58123E-13
 -1      3817 2.03994E+01 2.42785E-01 3.14397E-04 2.69776E-02-5.13586E-14-2.03157E-13
 -1      3818 2.03377E+01 5.54650E-02 6.13615E-04 7.23877E-02-7.47961E-14-1.83175E-13
 -1      3819 2.03156E+01 1.16263E-02-2.93702E-04 8.19317E-02-9.51885E-14-2.09776E-13
 -1      3820 2.03680E+01 9.49484E-02-2.47036E-05 5.15070E-02-1.02589E-13-2.17421E-13
 -1      3821 2.02937E+01-2.16121E-02 4.86069E-04 8.46400E-02-8.68370E-14-2.05879E-13
 -1      3822 2.02713E+01-4.69238E-02-2.24228E-05 8.80265E-02-6.87439E-14-2.24603E-13
 -1      3823 2.03256E+01 2.22289E-04-3.56755E-04 6.38942E-02-8.44681E-14-2.33389E-13
 -1      3824 2.02482E+01-6.46922E-02 3.82389E-04 8.72981E-02-7.25022E-14-2.13513E-13
 -1      3825 2.02268E+01-7.66490E-02 1.67924E-04 8.67939E-02-8.06350E-14-2.13633E-13
 -1      3826 2.02791E+01-5.50775E-02-5.13514E-04 6.80024E-02-7.05132E-14-2.02630E-13
 -1      3827 2.02042E+01-8.34794E-02 2.69402E-04 8.43295E-02-8.62792E-14-1.98354E-13
 -1      3828 2.01848E+01-8.62729E-02 2.71305E-04 8.17346E-02-1.23252E-13-2.02228E-13
 -1      3829 2.02326E+01-8.17703E-02-5.08207E-04 6.68028E-02-8.95075E-14-2.13118E-13
 -1      3830 2.01634E+01-8.55823E-02 1.49353E-04 7.84447E-02-1.41109E-13-1.69642E-13
 -1      3831 2.01461E+01-8.19829E-02 3.17436E-04 7.50930E-02-1.15911E-13-1.37655E-13
 -1      3832 2.01886E+01-8.88558E-02-4.99361E-04 6.28102E-02-1.13583E-13-1.26406E-13
 -1      3833 2.01265E+01-7.61191E-02 6.33157E-05 7.18503E-02-9.46594E-14-1.58045E-13
 -1      3834 2.01112E+01-6.81383E-02 3.41494E-04 6.87119E-02-9.49213E-14-1.56745E-13
 -1      3835 2.01481E+01-8.21883E-02-4.42592E-04 5.78687E-02-9.50962E-14-1.34817E-13
 -1      3836 2.00932E+01-5.87790E-02-2.42809E-05 6.62604E-02-8.30742E-14-1.25025E-13
 -1      3837 2.00797E+01-4.79294E-02 3.42866E-04 6.40926E-02-7.48186E-14-1.48056E-13
 -1      3838 2.01112E+01-6.59610E-02-3.35847E-04 5.34452E-02-8.47626E-14-1.81773E-13
 -1      3839 2.00630E+01-3.62969E-02-1.21526E-04 6.28779E-02-4.24445E-14-1.76355E-13
 -1      3840 2.00509E+01-2.35118E-02 3.42382E-04 6.22650E-02 3.46513E-15-1.52291E-13
 -1      3841 2.00776E+01-4.34643E-02-2.45412E-04 5.06832E-02-4.69469E-14-1.51587E-13
 -1      3842 2.00350E+01-1.03944E-02-2.15453E-04 6.28178E-02 3.50196E-15-1.05431E-13
 -1      3843 2.00239E+01 3.58855E-03 3.58472E-04 6.43231E-02 8.88032E-15-8.24372E-14
 -1      3844 2.00462E+01-1.66536E-02-1.51100E-04 5.06148E-02 3.21935E-15-1.01898E-13
 -1      3845 2.00083E+01 1.74652E-02-3.11952E-04 6.72410E-02 4.61888E-14-8.45626E-14
 -1      3846 1.99980E+01 3.19344E-02 4.02704E-04 7.14337E-02 9.64552E-14-7.81203E-14
 -1      3847 2.00162E+01 1.29835E-02-5.78103E-05 5.43639E-02 3.59170E-14-5.52290E-15
 -1      3848 1.99822E+01 4.57912E-02-4.14103E-04 7.74402E-02 5.97011E-14-9.37517E-14
 -1      3849 1.99727E+01 5.98842E-02 4.94029E-04 8.49786E-02-1.11134E-14-3.02991E-14
 -1      3850 1.99865E+01 4.40057E-02 1.37116E-05 6.32832E-02 4.20671E-14 7.74848E-15
 -1      3851 1.99566E+01 7.26549E-02-5.16397E-04 9.50407E-02-1.71114E-14-5.03045E-14
 -1      3852 1.99485E+01 8.51049E-02 6.54648E-04 1.06721E-01-9.65495E-15-2.17198E-14
 -1      3853 1.99565E+01 7.47236E-02 4.36488E-05 7.91323E-02-2.88495E-14-1.60509E-15
 -1      3854 1.99323E+01 9.51767E-02-6.04984E-04 1.22123E-01-1.24358E-14-1.01871E-14
 -1      3855 1.99267E+01 1.04029E-01 9.10521E-04 1.38899E-01 3.70560E-14 4.52736E-14
 -1      3856 1.99262E+01 1.02653E-01 2.09495E-06 1.04293E-01 2.89271E-14-3.58989E-14
 -1      3857 1.99115E+01 1.08953E-01-6.51985E-04 1.61286E-01 6.94896E-14 6.66574E-14
 -1      3858 1.99109E+01 1.11247E-01 1.28806E-03 1.84231E-01 9.34803E-14-2.37709E-14
 -1      3859 1.98969E+01 1.23920E-01-1.55210E-04 1.41925E-01 3.14174E-14 2.96701E-14
 -1      3860 1.98990E+01 1.07408E-01-6.04540E-04 2.15587E-01 1.40529E-13-2.89658E-14
 -1      3861 1.99071E+01 9.88203E-02 1.80659E-03 2.45723E-01 1.33239E-13 4.14286E-14
 -1      3862 1.98719E+01 1.32530E-01-5.01138E-04 1.96052E-01 7.96284E-14 3.48865E-14
 -1      3863 1.99031E+01 8.11282E-02-3.69797E-04 2.88168E-01 1.04934E-13 7.88608E-14
 -1      3864 1.99259E+01 5.56583E-02 2.46365E-03 3.26076E-01 1.42624E-13 7.13105E-14
 -1      3865 1.98576E+01 1.19542E-01-1.14042E-03 2.71420E-01 1.84081E-13 1.78572E-14
 -1      3866 1.99372E+01 1.73836E-02 2.02767E-04 3.81315E-01 8.64658E-14 1.11868E-13
 -1      3867 1.99832E+01-3.27567E-02 3.20157E-03 4.26382E-01 1.30576E-13 7.22514E-14
 -1      3868 1.98651E+01 7.22602E-02-2.20894E-03 3.72856E-01 1.31968E-13 4.47262E-14
 -1      3869 2.00215E+01-9.98270E-02 1.34144E-03 4.94580E-01 1.36387E-13-1.43235E-14
 -1      3870 2.01019E+01-1.83864E-01 3.83009E-03 5.43641E-01 1.30560E-13 3.76935E-14
 -1      3871 1.99123E+01-2.63455E-02-3.89043E-03 5.03762E-01 1.06298E-13-5.92982E-14
 -1      3872 2.01849E+01-2.88354E-01 3.35095E-03 6.21151E-01 8.61830E-14-6.58607E-15
 -1      3873 2.03131E+01-4.15094E-01 4.03603E-03 6.66361E-01 1.47844E-13-3.34743E-14
 -1      3874 2.00264E+01-1.97428E-01-6.42564E-03 6.62910E-01 1.09375E-13-1.73646E-13
 -1      3875 2.04648E+01-5.63303E-01 6.61109E-03 7.42783E-01 1.82189E-13-3.13238E-14
 -1      3876 2.06548E+01-7.38754E-01 3.00508E-03 7.69021E-01 1.00808E-13-1.32633E-13
 -1      3877 2.02457E+01-4.63014E-01-9.99949E-03 8.38699E-01 7.89369E-14-1.37966E-13
 -1      3878 2.09041E+01-9.27821E-01 1.11764E-02 8.20448E-01 7.65525E-14-1.32213E-13
 -1      3879 2.11647E+01-1.14146E+00 9.98105E-04 8.03763E-01 1.28170E-13-1.53998E-13
 -1      3880 2.06168E+01-8.40616E-01-1.62012E-02 9.99114E-01 1.53022E-13-1.34082E-13
 -1      3881 2.15433E+01-1.36102E+00 1.60705E-02 7.86641E-01 5.44928E-14-1.08933E-13
 -1      3882 2.18610E+01-1.57489E+00-6.08297E-03 6.81359E-01-6.15610E-15-1.13829E-13
 -1      3883 2.12146E+01-1.31960E+00-2.02714E-02 1.08246E+00 9.02411E-14-1.47888E-13
 -1      3884 2.23731E+01-1.75101E+00 1.87705E-02 5.55752E-01 3.96189E-15-1.29239E-13
 -1      3885 2.27297E+01-1.88649E+00-1.26950E-02 3.33550E-01-5.60515E-14 2.29634E-15
 -1      3886 2.20547E+01-1.78486E+00-1.07182E-02 9.79087E-01 4.60060E-14-4.07156E-15
 -1      3887 2.33276E+01-1.90915E+00 1.61776E-02 2.01605E-02-6.60160E-14 1.63778E-13
 -1      3888 2.36469E+01-1.80358E+00-1.58279E-02-3.18014E-01 8.73457E-14 2.06721E-13
 -1      3889 2.31394E+01-2.13174E+00-6.30984E-03 5.74401E-01 5.69991E-14 2.11366E-13
 -1      3890 2.42530E+01-1.55213E+00 1.68661E-03-7.60873E-01 5.01129E-14 1.93558E-13
 -1      3891 2.44506E+01-1.02820E+00-1.57107E-02-1.13300E+00 4.34921E-14 1.41204E-13
 -1      3892 2.47104E+01-3.00414E-01-2.57158E-02-1.61805E+00 9.21004E-14 1.63086E-13
 -1      3893 2.03734E+01 6.07958E-01-9.03817E-04 7.61823E-02 4.73388E-14-1.44311E-13
 -1      3894 1.97538E+01 2.91475E-01-1.78965E-03-4.42175E-02 5.04597E-14-1.85965E-13
 -1      3895 1.98017E+01 2.52199E-01-3.29433E-04-4.92376E-02 1.49846E-13-1.59586E-13
 -1      3896 1.98396E+01 2.15345E-01-1.10574E-03-5.74647E-02 1.35772E-13-1.63087E-13
 -1      3897 1.98736E+01 1.82184E-01-3.88449E-04-5.77326E-02 7.95177E-14-2.34867E-13
 -1      3898 1.98175E+01 2.31819E-01 1.33992E-03-1.93978E-02 9.56840E-14-1.46634E-13
 -1      3899 1.99031E+01 1.51399E-01-6.02775E-04-6.12033E-02 7.62224E-14-2.29497E-13
 -1      3900 1.99278E+01 1.23401E-01-3.69257E-04-5.96577E-02 4.22220E-14-1.88049E-13
 -1      3901 1.98845E+01 1.67573E-01 9.27099E-04-3.41350E-02 8.84976E-14-2.91033E-13
 -1      3902 1.96433E+01 3.76159E-01-2.85363E-03-1.52344E-02 7.81685E-14-2.42119E-13
 -1      3903 1.97073E+01 3.32982E-01-2.04387E-04-2.82430E-02 6.34361E-14-2.05641E-13
 -1      3904 1.97324E+01 3.03356E-01 1.83512E-03 9.29209E-03 9.56503E-14-2.09489E-13
 -1      3905 1.94857E+01 4.78166E-01-4.43845E-03 4.54055E-02-4.77234E-14-1.14304E-13
 -1      3906 1.95804E+01 4.27039E-01 2.26485E-04 1.57192E-02 3.42171E-15-2.25304E-13
 -1      3907 1.96211E+01 3.83024E-01 2.38605E-03 6.21856E-02-1.87402E-14-1.79459E-13
 -1      3908 1.92724E+01 5.90045E-01-6.57333E-03 1.56516E-01-5.94163E-14-1.94146E-14
 -1      3909 1.94053E+01 5.35652E-01 9.39959E-04 9.98024E-02-7.61101E-14-8.18214E-14
 -1      3910 1.94726E+01 4.69726E-01 3.07121E-03 1.56450E-01-7.22232E-14-1.96962E-15
 -1      3911 1.89888E+01 7.01178E-01-9.37213E-03 3.46828E-01 9.41084E-14 5.80805E-14
 -1      3912 1.91724E+01 6.50372E-01 2.26051E-03 2.47005E-01 6.16831E-14-1.10239E-14
 -1      3913 1.92822E+01 5.52341E-01 3.68720E-03 3.13462E-01-2.61466E-14-1.49836E-14
 -1      3914 1.86232E+01 7.88953E-01-1.21954E-02 6.56892E-01-8.96473E-16 1.04301E-13
 -1      3915 1.88699E+01 7.55476E-01 4.60765E-03 4.90394E-01 7.48674E-14 7.00201E-14
 -1      3916 1.90455E+01 6.12673E-01 4.06189E-03 5.63803E-01 3.84384E-14-1.08764E-13
 -1      3917 1.81813E+01 8.19887E-01-7.74387E-03 1.14979E+00 6.45211E-14-1.09251E-13
 -1      3918 1.84972E+01 8.16419E-01 9.54685E-03 8.73735E-01 5.28852E-14-3.40188E-14
 -1      3919 1.87640E+01 6.14412E-01 2.75021E-03 9.45505E-01 1.28144E-13-1.14132E-13
 -1      3920 2.24157E+01-2.50901E+00 3.44389E-02 2.39241E+00 2.06441E-13-5.63998E-14
 -1      3921 2.13958E+01-2.09602E+00-2.40223E-02 2.54426E+00 2.05061E-13-6.63319E-14
 -1      3922 2.02753E+01-4.39284E-02-2.69470E-05-8.83727E-02-3.34155E-14-1.23615E-13
 -1      3923 2.02979E+01-1.74300E-02 5.56253E-04-8.45895E-02-4.46737E-14-1.59083E-13
 -1      3924 2.03901E+01 6.35286E-01-5.03887E-04-7.26677E-02-6.87988E-14-2.58148E-13
 -1      3925 2.03918E+01 4.90281E-01-1.53171E-03-2.50179E-02-3.57560E-14-2.06954E-13
 -1      3926 2.04101E+01 4.61290E-01 7.46893E-04-1.35540E-02-2.64710E-14-2.53152E-13
 -1      3927 2.29325E+01-2.56011E+00-8.34625E-04-1.86236E+00-1.50071E-13-5.76729E-14
 -1      3928 2.37343E+01-2.78720E+00-1.26461E-02-1.41083E+00-1.44765E-13-1.33471E-13
 -1      3929 2.35871E+01-2.29651E+00 5.89398E-03-6.50652E-01-1.26214E-13-1.56435E-13
 -1      3930 2.34231E+01-1.89869E+00 1.21056E-02-3.72241E-02-1.27970E-13-3.59070E-13
 -1      3931 2.04021E+01 4.44703E-01 2.91838E-03 1.36851E-02 2.28590E-14-1.89797E-13
 -1      3932 2.03903E+01 6.38134E-01-2.25151E-03 6.77327E-02 2.55502E-14-2.14290E-13
 -1      3933 2.03968E+01 6.84362E-01-7.60002E-04 4.83199E-02 6.84958E-16-2.62359E-13
 -1      3934 2.00230E+01 1.32058E-02 1.09677E-04-5.95466E-02-2.69796E-14-1.61167E-13
 -1      3935 2.00366E+01-4.08661E-03-1.68073E-04-5.97600E-02-1.21891E-14-1.03075E-13
 -1      3936 1.99900E+01 5.20156E-02-4.09356E-05-5.97445E-02-2.88223E-14-2.72119E-13
 -1      3937 2.00053E+01 3.17632E-02-2.46766E-04-5.87965E-02-2.85041E-14-2.60138E-13
 -1      3938 2.00153E+01 2.27853E-02 1.13976E-04-4.53296E-02 1.40953E-14-2.55004E-13
 -1      3939 1.99515E+01 9.75798E-02-2.65904E-04-6.08940E-02-5.05678E-14-1.78335E-13
 -1      3940 1.99702E+01 7.38395E-02-3.15511E-04-5.91965E-02-8.04566E-14-2.33750E-13
 -1      3941 1.99367E+01 1.12042E-01 5.95548E-04-4.07542E-02 2.16313E-14-3.63976E-13
 -1      3942 2.13708E+01-1.30476E+00 1.07447E-02-1.56634E+00 1.90198E-13-1.41821E-13
 -1      3943 1.89184E+01-7.54193E-01 2.68602E-02 3.17529E+00 2.58483E-13-3.41375E-13
 -1      3944 2.33053E+01-2.09229E+00-8.05556E-03-4.52749E-01-2.78470E-13-3.33916E-13
 -1      3945 2.29404E+01-1.87314E+00-7.50921E-03-2.80365E-01-2.43300E-13-4.28687E-13
 -1      3946 2.26918E+01-1.80985E+00 1.29741E-02-4.91288E-01-2.53527E-13-6.78147E-13
 -1      3947 2.31123E+01-2.18262E+00 2.02385E-02-8.99427E-01-2.36265E-13-1.16044E-13
 -1      3948 1.98216E+01-1.21102E+00-2.27442E-02 2.86947E+00 2.90458E-13-3.69923E-13
 -1      3949 1.82892E+01-1.30201E-01 9.85285E-03 2.74484E+00 2.22864E-13-3.76157E-13
 -1      3950 2.24818E+01-2.34012E+00 1.16827E-02-2.01027E+00-7.60314E-14 2.99240E-15
 -1      3951 2.28015E+01-2.24310E+00-6.18066E-03-1.35704E+00-2.15016E-13 3.23318E-14
 -1      3952 2.26259E+01-2.05176E+00-5.71347E-03-1.11295E+00-1.87332E-13-1.11018E-13
 -1      3953 2.19590E+01-1.90469E+00 1.51636E-02-1.90592E+00-1.05954E-13-2.97171E-14
 -1      3954 2.28195E+01-2.54353E+00-8.68322E-03 1.81896E+00 2.66729E-13 1.10355E-13
 -1      3955 2.00810E+01-5.11624E-02-2.68595E-04-7.97588E-02 3.39820E-14 1.74795E-14
 -1      3956 2.03888E+01 8.26440E-01-2.64203E-03-1.02334E-02-1.48400E-17-2.83954E-13
 -1      3957 2.03889E+01 8.13909E-01-2.25666E-03-4.50909E-02-3.75012E-14-2.90915E-13
 -1      3958 2.44893E+01-2.59770E+00 8.27781E-03 5.93007E-01 3.65183E-14 2.94058E-13
 -1      3959 2.36787E+01-2.56682E+00-1.29411E-02 9.90561E-01 1.90788E-13 2.78078E-13
 -1      3960 2.43461E+01-2.02110E+00 2.43154E-03-1.54632E-01 1.44016E-14 3.09676E-13
 -1      3961 2.03719E+01 8.29303E-01-4.08492E-04-9.59795E-02-7.88285E-14-2.96038E-13
 -1      3962 2.24125E+01-1.77097E+00-7.51557E-03-6.71332E-01-7.74949E-14-6.47250E-13
 -1      3963 2.21479E+01-1.63145E+00 4.93690E-03-8.15303E-01-7.39545E-14-4.82623E-13
 -1      3964 2.21224E+01-1.71772E+00 4.05192E-03-1.12453E+00 1.20083E-13-3.55195E-13
 -1      3965 2.26105E+01-1.94364E+00-7.31803E-03-8.45071E-01-1.86264E-13-4.38514E-13
 -1      3966 2.07242E+01-1.48156E+00 3.90197E-02 2.54356E+00 2.41406E-13-2.25822E-13
 -1      3967 2.00281E+01-9.54028E-01 3.24547E-03 2.29082E+00 3.12209E-13-2.40179E-13
 -1      3968 2.13672E+01-1.75852E+00-1.23518E-02 1.99558E+00 2.40764E-13-9.22639E-14
 -1      3969 2.00486E+01-1.27528E-02-7.74059E-05-4.74016E-02 3.34346E-14-1.61889E-13
 -1      3970 2.00535E+01-1.97940E-02 2.07703E-04-6.11513E-02-3.10556E-15-4.56832E-14
 -1      3971 2.00668E+01-3.43024E-02-4.79247E-05-6.25811E-02 3.82915E-14-3.48853E-14
 -1      3972 2.03910E+01 3.29405E-01-1.24145E-03-1.44942E-02 1.74807E-14-1.93491E-13
 -1      3973 2.03188E+01 1.67693E-02-3.29658E-04-8.13847E-02-6.48100E-14-1.39286E-13
 -1      3974 2.03415E+01 6.14323E-02 8.85065E-04-7.11521E-02-5.59174E-14-1.17236E-13
 -1      3975 2.03289E+01 5.35251E-03-3.36762E-04-6.40372E-02-4.23394E-14-1.80222E-13
 -1      3976 1.82013E+01 7.17186E-01 2.00385E-02 1.43885E+00 1.10973E-13-2.04021E-13
 -1      3977 1.85826E+01 4.42847E-01-2.37575E-03 1.47027E+00 1.14460E-13-1.57620E-13
 -1      3978 1.80094E+01 5.69941E-01 2.91542E-03 1.84374E+00 1.41183E-13-2.33728E-13
 -1      3979 2.16902E+01-1.67910E+00 8.64078E-04-1.75154E+00-2.43666E-14-2.21200E-13
 -1      3980 1.83444E+01 1.96093E-01 2.95047E-02 2.24750E+00 1.85778E-13-3.19966E-13
 -1      3981 1.99790E+01 6.41386E-02 3.29832E-04-4.36120E-02-6.80337E-14-3.10697E-13
 -1      3982 2.01513E+01-8.27021E-02 3.14239E-04-7.67254E-02 1.37961E-14-5.86863E-14
 -1      3983 2.01685E+01-8.60107E-02 1.80756E-04-7.99670E-02-3.50481E-15-9.55474E-14
 -1      3984 2.02317E+01-7.53882E-02 1.54543E-04-8.78719E-02-1.30387E-14-1.44720E-13
 -1      3985 2.02527E+01-6.25213E-02 3.86072E-04-8.80518E-02-1.66210E-14-1.11322E-13
 -1      3986 2.02836E+01-5.19462E-02-4.78527E-04-6.86318E-02-3.74656E-14-1.99084E-13
 -1      3987 2.01163E+01-6.87075E-02 4.04933E-04-7.03633E-02 1.81869E-14-1.03539E-13
 -1      3988 2.01315E+01-7.68024E-02 8.76958E-05-7.34421E-02 2.35588E-14-7.18799E-14
 -1      3989 2.01529E+01-8.28702E-02-4.71777E-04-5.93226E-02 1.98939E-14-9.57613E-14
 -1      3990 2.03885E+01 7.79879E-01 1.86624E-04-6.21792E-02-3.34584E-14-2.82401E-13
 -1      3991 2.03742E+01 9.77573E-01 4.60099E-03 4.38995E-02-4.05351E-15-2.86649E-13
 -1      3992 2.04133E+01 6.35726E-01 1.62610E-03-2.94864E-02-1.55796E-14-2.68679E-13
 -1      3993 2.31087E+01-2.41740E+00 1.31177E-02 1.26908E+00 2.30611E-13 1.37021E-13
 -1      3994 2.23786E+01-2.14656E+00-1.37589E-02 1.39476E+00 1.67084E-13 8.59630E-14
 -1      3995 2.04179E+01 2.94546E-01-1.22305E-04 9.78995E-03-3.03801E-14-2.50109E-13
 -1      3996 2.04064E+01 2.03283E-01-4.53906E-04 2.60421E-02-6.49069E-14-2.38961E-13
 -1      3997 2.03925E+01 1.28014E-01 1.85213E-04 3.05534E-02-8.33865E-14-2.11210E-13
 -1      3998 2.03736E+01 6.74283E-02-1.45794E-04 4.03129E-02-9.36724E-14-2.12020E-13
 -1      3999 2.04091E+01 1.76635E-01 2.83401E-04 1.51519E-02-5.40347E-14-2.64754E-13
 -1      4000 2.03522E+01 1.98953E-02 2.06736E-04 4.12738E-02-9.88489E-14-2.03745E-13
 -1      4001 2.03298E+01-1.68327E-02 2.02206E-04 4.66307E-02-4.85440E-14-2.01445E-13
 -1      4002 2.03726E+01 4.84999E-02-5.09137E-04 2.15547E-02-8.19072E-14-1.90764E-13
 -1      4003 2.03053E+01-4.50706E-02 1.85725E-04 4.61016E-02-5.38350E-14-2.15101E-13
 -1      4004 2.02815E+01-6.52714E-02 4.13862E-05 4.80157E-02-8.41818E-14-2.08663E-13
 -1      4005 2.03268E+01-2.89525E-02-4.84609E-04 2.51609E-02-7.27618E-14-2.06737E-13
 -1      4006 2.02579E+01-7.84728E-02 4.96571E-04 4.62081E-02-8.24086E-14-1.93644E-13
 -1      4007 2.02345E+01-8.65624E-02 3.55497E-04 4.61769E-02-8.60952E-14-1.65333E-13
 -1      4008 2.02780E+01-7.25430E-02-7.06030E-04 2.68847E-02-7.56084E-14-1.63529E-13
 -1      4009 2.02106E+01-9.03240E-02 1.84287E-04 4.40938E-02-1.10618E-13-1.64217E-13
 -1      4010 2.01894E+01-8.97201E-02 3.63811E-04 4.28252E-02-1.22743E-13-1.22615E-13
 -1      4011 2.02295E+01-9.03633E-02-7.90554E-04 2.47357E-02-1.27127E-13-1.54829E-13
 -1      4012 2.01669E+01-8.64462E-02 8.88853E-05 4.10059E-02-1.40284E-13-1.39241E-13
 -1      4013 2.01475E+01-8.02446E-02 2.28364E-04 3.94023E-02-1.27355E-13-1.68773E-13
 -1      4014 2.01842E+01-8.97153E-02-4.84970E-04 2.30827E-02-1.40099E-13-1.36716E-13
 -1      4015 2.01274E+01-7.17727E-02 1.80196E-04 3.77620E-02-9.74525E-14-1.54597E-13
 -1      4016 2.01096E+01-6.15661E-02 2.91045E-04 3.65850E-02-2.83953E-14-1.58550E-13
 -1      4017 2.01425E+01-7.76493E-02-3.93264E-04 2.21916E-02-1.00879E-13-7.67810E-14
 -1      4018 2.00906E+01-5.00180E-02 5.13588E-06 3.58555E-02 7.50430E-15-1.39707E-13
 -1      4019 2.00745E+01-3.69950E-02 2.98777E-04 3.55350E-02-3.58807E-14-6.98278E-14
 -1      4020 2.01034E+01-5.67640E-02-3.59511E-04 2.06831E-02 2.00195E-14-8.40989E-14
 -1      4021 2.00563E+01-2.31513E-02-1.14610E-04 3.57036E-02-1.01809E-14-7.79628E-15
 -1      4022 2.00413E+01-8.06453E-03 2.91500E-04 3.68354E-02 6.05951E-14 4.99633E-14
 -1      4023 2.00675E+01-3.01640E-02-2.47748E-04 2.08297E-02 3.21988E-14 1.94257E-14
 -1      4024 2.00233E+01 7.41880E-03-2.18285E-04 3.86055E-02 5.85556E-14 3.94431E-14
 -1      4025 2.00089E+01 2.38892E-02 3.18563E-04 4.17883E-02 6.26506E-14 5.28018E-14
 -1      4026 2.00327E+01 1.17454E-03-1.37594E-04 2.34976E-02 7.76661E-14 1.99381E-14
 -1      4027 1.99902E+01 4.03870E-02-3.55482E-04 4.57571E-02 1.24226E-14 8.01090E-14
 -1      4028 1.99760E+01 5.76960E-02 3.91968E-04 5.17791E-02 2.10954E-14 4.61383E-14
 -1      4029 1.99978E+01 3.57173E-02-3.54405E-05 2.95350E-02 6.26909E-14-5.92516E-15
 -1      4030 1.99560E+01 7.45403E-02-5.15876E-04 5.89461E-02-2.28323E-14 5.01070E-14
 -1      4031 1.99419E+01 9.19271E-02 5.38160E-04 6.88797E-02-3.08089E-14 2.31838E-14
 -1      4032 1.99613E+01 7.24972E-02 2.34439E-05 4.06535E-02-2.80097E-14-2.59536E-14
 -1      4033 1.99199E+01 1.08104E-01-7.00228E-04 8.06879E-02-1.85775E-14 4.07556E-14
 -1      4034 1.99063E+01 1.24352E-01 7.92354E-04 9.59941E-02 7.67174E-15-2.04339E-14
 -1      4035 1.99217E+01 1.10152E-01 6.15847E-06 5.93797E-02-4.34464E-15 5.44309E-14
 -1      4036 1.98820E+01 1.38197E-01-9.07057E-04 1.14501E-01 5.61122E-14 4.12214E-14
 -1      4037 1.98703E+01 1.51315E-01 1.19491E-03 1.37099E-01 4.44715E-14 1.33481E-13
 -1      4038 1.98784E+01 1.46472E-01-1.30960E-04 8.93729E-02 6.17708E-14 4.35768E-14
 -1      4039 1.98442E+01 1.60205E-01-1.11009E-03 1.65155E-01-2.46479E-14 1.23680E-13
 -1      4040 1.98368E+01 1.66960E-01 1.79362E-03 1.97503E-01 7.43138E-14 6.95865E-14
 -1      4041 1.98316E+01 1.77807E-01-4.16830E-04 1.35754E-01 4.17310E-14 1.55609E-13
 -1      4042 1.98107E+01 1.66843E-01-1.24203E-03 2.38787E-01 1.06656E-13-1.04813E-14
 -1      4043 1.98122E+01 1.62250E-01 2.64640E-03 2.83787E-01 1.71123E-13-3.86183E-14
 -1      4044 1.97835E+01 1.97801E-01-9.98407E-04 2.05491E-01 2.11236E-14 1.64134E-14
 -1      4045 1.97902E+01 1.47037E-01-1.19678E-03 3.42694E-01 2.10013E-13-1.37975E-13
 -1      4046 1.98079E+01 1.23818E-01 3.76984E-03 4.03216E-01 1.22340E-13-1.21004E-13
 -1      4047 1.97394E+01 1.96242E-01-2.13785E-03 3.07495E-01 1.18725E-13-2.22016E-13
 -1      4048 1.97978E+01 8.49859E-02-7.60802E-04 4.84501E-01 3.95161E-14-1.45850E-13
 -1      4049 1.98427E+01 3.29104E-02 5.13097E-03 5.62423E-01 5.20155E-14-2.05508E-13
 -1      4050 1.97105E+01 1.58181E-01-4.02817E-03 4.52165E-01 7.22217E-14-3.27670E-13
 -1      4051 1.98584E+01-4.08456E-02 4.08825E-04 6.69903E-01 2.66027E-14-1.82772E-13
 -1      4052 1.99462E+01-1.35408E-01 6.42760E-03 7.64146E-01 7.65037E-14-2.11617E-13
 -1      4053 1.97160E+01 6.15715E-02-7.09142E-03 6.49870E-01 2.02310E-14-3.09595E-13
 -1      4054 2.00112E+01-2.56778E-01 3.16688E-03 8.97580E-01 1.45886E-13-2.38546E-13
 -1      4055 2.01633E+01-4.08503E-01 7.93013E-03 1.00116E+00 1.19329E-13-2.09369E-13
 -1      4056 1.97877E+01-1.25515E-01-1.27948E-02 9.06655E-01 1.46003E-13-3.62827E-13
 -1      4057 2.03147E+01-5.93923E-01 8.26526E-03 1.15096E+00 9.44724E-14-2.04758E-13
 -1      4058 2.05647E+01-8.16250E-01 9.35043E-03 1.23648E+00 1.74014E-13-2.21118E-13
 -1      4059 1.99839E+01-4.41229E-01-2.08924E-02 1.21880E+00 1.49366E-13-3.31253E-13
 -1      4060 2.08319E+01-1.13453E+00 9.80891E-03 1.50663E+00 1.81795E-13-2.65963E-13
 -1      4061 2.11713E+01-1.44420E+00-6.10014E-03 1.56693E+00 1.28013E-13-2.15974E-13
 -1      4062 2.19354E+01-1.84081E+00 2.15085E-02 1.48321E+00 1.18462E-13-1.55670E-15
 -1      4063 1.97974E+01 2.31890E-01-1.53148E-03 1.78877E-02 8.59514E-14-1.86731E-13
 -1      4064 1.98379E+01 2.02099E-01 2.22669E-04 6.22204E-03 8.00028E-14-2.12305E-13
 -1      4065 1.96027E+01 3.59223E-01-3.34621E-03 1.30398E-01-6.15560E-14-1.26012E-13
 -1      4066 1.96728E+01 3.27648E-01 1.10991E-03 9.29668E-02-2.95219E-14-1.44015E-13
 -1      4067 1.97125E+01 2.93682E-01-2.28453E-03 5.90483E-02 6.58224E-14-1.95594E-13
 -1      4068 1.97634E+01 2.63678E-01 5.05905E-04 3.87343E-02 1.35817E-13-2.09758E-13
 -1      4069 1.97913E+01 2.31029E-01 3.41086E-04 6.39338E-02 1.12161E-13-1.92155E-13
 -1      4070 1.97128E+01 2.82837E-01 2.90974E-04 1.21394E-01 5.46949E-15-1.28556E-13
 -1      4071 1.98671E+01 1.72519E-01-1.00474E-03-6.27213E-03 7.58072E-14-1.97408E-13
 -1      4072 1.98981E+01 1.45555E-01 4.33629E-05-1.19841E-02 6.56856E-14-2.48263E-13
 -1      4073 1.98571E+01 1.78542E-01 3.50122E-04 2.84121E-02 8.68790E-14-1.58104E-13
 -1      4074 1.94647E+01 4.20959E-01-4.66519E-03 2.48775E-01-1.19558E-13-6.92147E-14
 -1      4075 1.95563E+01 3.93683E-01 2.11699E-03 1.85803E-01-1.08553E-13-7.89677E-14
 -1      4076 1.96183E+01 3.28905E-01-8.40930E-05 2.14091E-01-1.52055E-13-8.50149E-14
 -1      4077 1.92989E+01 4.65049E-01-6.20387E-03 4.35865E-01 7.35044E-14-2.58119E-13
 -1      4078 1.94154E+01 4.49809E-01 3.64777E-03 3.34575E-01 2.19362E-14-1.34957E-13
 -1      4079 1.95089E+01 3.58302E-01-9.34077E-04 3.59167E-01-2.65980E-14-2.31223E-13
 -1      4080 1.91112E+01 4.68011E-01-7.85271E-03 7.20830E-01 1.30237E-13-2.69218E-13
 -1      4081 1.92538E+01 4.78275E-01 5.96292E-03 5.64301E-01 1.22950E-13-2.00981E-13
 -1      4082 1.93932E+01 3.51437E-01-2.55881E-03 5.76882E-01 8.01665E-14-3.18455E-13
 -1      4083 1.89183E+01 3.91064E-01-9.90646E-03 1.13776E+00 8.22406E-14-2.01058E-13
 -1      4084 1.90846E+01 4.49840E-01 9.74752E-03 9.06644E-01 1.02517E-13-2.07996E-13
 -1      4085 1.92903E+01 2.77702E-01-5.24230E-03 8.92644E-01 1.15331E-13-3.18456E-13
 -1      4086 2.00838E+01-4.72935E-02 2.67255E-04-6.47362E-02 1.05151E-15-3.09505E-14
 -1      4087 2.00977E+01-5.91201E-02-8.54964E-05-6.72070E-02-5.80049E-15-9.54621E-14
 -1      4088 2.01160E+01-6.67838E-02-3.72503E-04-5.41274E-02-8.58922E-15-1.02955E-13
 -1      4089 2.00816E+01-4.25852E-02-1.65437E-04-5.06239E-02 1.72161E-14-5.30753E-14
 -1      4090 2.04200E+01 5.11197E-01-4.53291E-04-1.85620E-02-7.10981E-15-2.64915E-13
 -1      4091 2.04208E+01 3.83476E-01-3.86473E-04 4.40305E-03-2.06994E-14-2.46722E-13
 -1      4092 2.04275E+01 3.45704E-01 7.53290E-04 3.46944E-03-2.55540E-14-2.81939E-13
 -1      4093 2.04229E+01 5.53776E-01 9.39153E-04-1.00848E-02-1.12716E-14-2.62278E-13
 -1      4094 1.99681E+01 7.21172E-02-3.08796E-04-2.56610E-02-3.89446E-14-2.79441E-13
 -1      4095 1.99881E+01 5.07690E-02-5.00131E-05-2.68607E-02-2.65268E-14-2.31224E-13
 -1      4096 2.01897E+01-8.62868E-02 2.65288E-04-8.31349E-02-3.82715E-14-1.36520E-13
 -1      4097 2.02090E+01-8.29859E-02 2.71190E-04-8.54824E-02-3.87749E-14-1.27997E-13
 -1      4098 2.01936E+01-8.89331E-02-4.88786E-04-6.42649E-02-2.42337E-14-9.28126E-14
 -1      4099 1.88745E+01-1.23523E-01-4.95498E-03 2.14165E+00 2.07578E-13-4.13438E-13
 -1      4100 2.00073E+01 3.05232E-02-1.01993E-04-2.92541E-02-1.77692E-14-1.99929E-13
 -1      4101 2.00249E+01 1.17407E-02-2.28464E-05-3.00772E-02 4.82220E-14-1.69110E-13
 -1      4102 1.99983E+01 3.92562E-02-8.47600E-06-1.16746E-02-2.15628E-14-8.20838E-14
 -1      4103 2.03573E+01 1.16272E-01-1.20177E-03-6.39665E-02-2.81531E-14-1.25195E-13
 -1      4104 2.03785E+01 1.87329E-01 1.43717E-03-4.42329E-02 3.87070E-15-1.48514E-13
 -1      4105 2.03705E+01 9.98125E-02-6.81513E-04-5.13411E-02-3.33219E-14-1.39437E-13
 -1      4106 1.99226E+01 1.19304E-01-5.98902E-04-1.90709E-02 3.57007E-14-2.71625E-13
 -1      4107 1.99469E+01 9.52160E-02-3.49981E-05-2.16649E-02-3.39516E-14-2.84294E-13
 -1      4108 1.99120E+01 1.27976E-01 2.68953E-04 7.25516E-03 2.22597E-14-1.56300E-13
 -1      4109 2.04053E+01 3.05380E-01-1.78396E-04-1.44864E-02-1.30757E-14-1.96989E-13
 -1      4110 2.03964E+01 7.39669E-01-3.38696E-03 4.30070E-02-3.83551E-15-2.86563E-13
 -1      4111 2.03976E+01 7.81470E-01-9.72063E-04 8.26180E-03-1.26052E-16-2.71771E-13
 -1      4112 2.04245E+01 6.29492E-01 2.43455E-03-4.42897E-03-8.13528E-15-2.70497E-13
 -1      4113 2.04255E+01 5.27572E-01 2.39760E-03 9.89532E-03-1.08096E-14-2.59797E-13
 -1      4114 1.99582E+01 8.14018E-02 1.41094E-04-4.82172E-03-4.05544E-14-2.00612E-13
 -1      4115 2.03628E+01-9.50240E-01-2.47767E-02 1.69402E+00 1.58811E-13-2.73639E-13
 -1      4116 2.04104E+01 2.28646E-01-4.82165E-04-2.29440E-02-2.26019E-14-2.46357E-13
 -1      4117 2.04244E+01 3.79849E-01-5.83595E-04 2.18061E-03-2.17925E-14-2.69141E-13
 -1      4118 2.23693E+01-1.93653E+00 4.11760E-03-1.26680E+00-9.86342E-15-9.58909E-14
 -1      4119 2.00431E+01-5.92567E-03 3.81433E-05-3.17764E-02 7.43138E-14-1.87507E-13
 -1      4120 2.00598E+01-2.22428E-02 6.11567E-05-3.27892E-02 3.65623E-14-1.38571E-13
 -1      4121 2.00352E+01 1.67354E-03-1.54916E-04-1.57236E-02 4.26761E-14-6.64151E-14
 -1      4122 2.03330E+01-1.32743E-02-2.76699E-04-4.71605E-02-5.23089E-14-2.53046E-13
 -1      4123 2.03571E+01 2.46910E-02 7.26824E-04-4.13750E-02-4.50091E-14-2.42274E-13
 -1      4124 1.88478E+01 1.22836E-01-1.20819E-02 1.71627E+00 1.45900E-13-2.44125E-13
 -1      4125 1.88905E+01 3.10306E-01 1.15589E-02 1.43505E+00 1.31203E-13-2.13079E-13
 -1      4126 1.92031E+01 9.43465E-02-9.18415E-03 1.36684E+00 1.36688E-13-3.21032E-13
 -1      4127 1.92039E+01-2.98366E-01-1.13393E-02 2.05429E+00 2.56421E-13-3.64030E-13
 -1      4128 2.01942E+01-9.02446E-02 2.48613E-04-4.43571E-02-3.73295E-14-1.01210E-13
 -1      4129 2.02158E+01-8.98863E-02 3.55917E-04-4.55242E-02-2.89093E-14-1.10197E-13
 -1      4130 2.02375E+01-8.07657E-02-5.50376E-04-6.79218E-02-1.93908E-14-1.62101E-13
 -1      4131 2.02868E+01-6.22301E-02 3.23747E-04-4.88429E-02-5.29071E-14-2.15658E-13
 -1      4132 2.03104E+01-4.11533E-02 5.31398E-04-4.64909E-02-6.13715E-14-2.32609E-13
 -1      4133 2.03305E+01-2.56537E-02-8.89756E-04-2.66850E-02-5.36433E-14-2.09815E-13
 -1      4134 2.04282E+01 5.05013E-01-7.81449E-04 2.33520E-03-1.03684E-14-2.93475E-13
 -1      4135 2.20966E+01-1.85201E+00-1.49206E-02-1.39062E+00-4.63865E-15-1.90754E-13
 -1      4136 1.98085E+01-5.63747E-01 1.40312E-02 1.90444E+00 2.15751E-13-3.36430E-13
 -1      4137 2.04280E+01 4.39441E-01 9.41952E-04 2.27093E-03-2.86393E-14-2.85346E-13
 -1      4138 2.01527E+01-8.14268E-02 3.48282E-04-4.06906E-02-1.04206E-14-8.83144E-14
 -1      4139 2.01722E+01-8.71165E-02 2.43264E-04-4.22891E-02-9.20551E-15-4.90855E-14
 -1      4140 2.01888E+01-9.09698E-02-7.35232E-04-2.52025E-02-4.18469E-14-9.47219E-14
 -1      4141 1.97467E+01-3.21631E-01 1.34125E-02 1.54263E+00 2.09755E-13-3.21697E-13
 -1      4142 2.04195E+01 2.12388E-01-4.62354E-04 2.75992E-05-3.85621E-14-2.92957E-13
 -1      4143 2.04066E+01 1.34800E-01 3.39698E-04 5.54512E-03-3.75638E-14-2.61242E-13
 -1      4144 2.04048E+01 1.71511E-01 1.28515E-03-2.27129E-02-4.53418E-14-2.45155E-13
 -1      4145 2.04204E+01 2.36260E-01-2.50532E-04-9.85424E-03-2.99782E-14-3.10901E-13
 -1      4146 2.03778E+01 5.01473E-02-1.80692E-04-1.79722E-03-6.83605E-14-2.42112E-13
 -1      4147 2.03571E+01 6.24808E-03 9.10067E-04 1.40653E-03-9.15800E-14-2.11343E-13
 -1      4148 2.03333E+01-2.80884E-02-4.13209E-05-5.23621E-04-5.56666E-14-2.27143E-13
 -1      4149 2.03095E+01-5.33650E-02 8.73876E-04-2.15323E-04-4.72346E-14-2.16903E-13
 -1      4150 2.02842E+01-7.17457E-02-1.12692E-04-8.23719E-04-4.59460E-14-1.76146E-13
 -1      4151 2.02361E+01-9.00483E-02 1.28474E-04-1.43033E-04-1.25758E-13-1.65983E-13
 -1      4152 2.02123E+01-9.18359E-02 5.19299E-04-2.03339E-04-1.26940E-13-1.67924E-13
 -1      4153 2.01899E+01-9.02129E-02 2.23059E-04-1.83905E-04-1.00397E-13-8.04600E-14
 -1      4154 2.01676E+01-8.53795E-02 4.19369E-04-5.24261E-04-7.57187E-14-7.58614E-14
 -1      4155 2.01466E+01-7.85898E-02-2.90033E-05-7.77834E-04-1.42273E-14-1.69576E-14
 -1      4156 2.01154E+01-6.27123E-02 2.37177E-04 4.00419E-03 2.35741E-14-3.41261E-14
 -1      4157 2.00964E+01-5.02718E-02 2.41829E-04 4.28392E-03 2.51979E-14-6.97364E-15
 -1      4158 2.00702E+01-3.03420E-02 4.10194E-05 1.43449E-03 6.04015E-14-4.55197E-14
 -1      4159 2.00526E+01-1.48463E-02 2.36951E-04 2.45374E-03 1.01454E-13 3.43874E-15
 -1      4160 2.00342E+01 1.90263E-03-1.02230E-06 3.99641E-03 3.59272E-14 7.29817E-16
 -1      4161 2.00169E+01 1.92504E-02 2.31212E-04 6.01722E-03 3.46839E-14-3.86026E-14
 -1      4162 1.99974E+01 3.80725E-02-1.16927E-04 8.77650E-03 9.07982E-15-6.60128E-14
 -1      4163 1.99798E+01 5.71863E-02 2.78218E-04 1.25891E-02-3.05202E-14-9.42359E-14
 -1      4164 1.99579E+01 7.78244E-02-2.51441E-04 1.75263E-02 9.19075E-16-1.47300E-13
 -1      4165 1.99394E+01 9.83690E-02 3.97450E-04 2.41674E-02-4.01829E-14-1.21507E-13
 -1      4166 1.99137E+01 1.20565E-01-3.85047E-04 3.28064E-02 8.33075E-15-6.60916E-14
 -1      4167 1.98938E+01 1.41946E-01 6.25266E-04 4.38008E-02 7.53555E-14-4.28820E-14
 -1      4168 1.98629E+01 1.65137E-01-5.04818E-04 5.84717E-02 8.08649E-14-6.42940E-14
 -1      4169 1.98417E+01 1.86223E-01 9.92500E-04 7.60868E-02 1.30346E-13-3.60092E-14
 -1      4170 1.98049E+01 2.08524E-01-6.19492E-04 9.95172E-02 8.27952E-14 1.29020E-14
 -1      4171 1.97831E+01 2.27415E-01 1.57306E-03 1.26773E-01 3.77454E-14-1.79196E-15
 -1      4172 1.97390E+01 2.47115E-01-7.05327E-04 1.63973E-01-4.95930E-14-6.30842E-15
 -1      4173 1.97190E+01 2.60382E-01 2.48312E-03 2.05001E-01-8.49543E-14-3.22412E-14
 -1      4174 1.96665E+01 2.73934E-01-5.94404E-04 2.63823E-01-1.09962E-13-2.04473E-14
 -1      4175 1.96528E+01 2.75700E-01 3.84072E-03 3.24139E-01-2.29213E-14-2.37093E-13
 -1      4176 1.95952E+01 2.75761E-01-7.31256E-05 4.12561E-01 9.50970E-14-3.09266E-13
 -1      4177 1.95955E+01 2.56636E-01 5.69967E-03 4.98413E-01 4.25441E-14-3.71933E-13
 -1      4178 1.95397E+01 2.32359E-01 1.11355E-03 6.26842E-01 4.19851E-14-3.58257E-13
 -1      4179 1.95675E+01 1.78364E-01 8.10427E-03 7.44299E-01 1.11219E-13-3.21975E-13
 -1      4180 1.95292E+01 1.14432E-01 3.99701E-03 9.24296E-01 7.91226E-14-2.95082E-13
 -1      4181 1.96090E+01 4.01047E-03 1.13313E-02 1.07556E+00 1.52648E-13-3.04210E-13
 -1      4182 1.95868E+01-1.24229E-01 8.86433E-03 1.35556E+00 2.12378E-13-3.54307E-13
 -1      4183 2.04315E+01 3.66771E-01-1.41792E-04-2.65272E-03-1.99385E-14-3.03827E-13
 -1      4184 2.04274E+01 2.80081E-01 2.17130E-05 2.87720E-03-2.90659E-14-2.97827E-13
 -1      4185 2.02388E+01-8.58480E-02 1.68143E-04-4.72660E-02-3.23851E-14-1.91510E-13
 -1      4186 2.02618E+01-7.71622E-02 1.45071E-04-4.72387E-02-4.54714E-14-2.19316E-13
 -1      4187 2.02823E+01-7.00645E-02-6.71493E-04-2.65502E-02-5.04003E-14-2.17641E-13
 -1      4188 2.02344E+01-8.89391E-02-5.64081E-04-2.69180E-02-1.11559E-13-1.89478E-13
 -1      4189 2.03852E+01 8.27788E-02-2.55339E-04-1.69587E-02-4.85756E-14-2.90174E-13
 -1      4190 2.03856E+01 1.02185E-01-6.05238E-04-3.32561E-02-3.75927E-14-2.65209E-13
 -1      4191 2.02601E+01-8.31367E-02 7.50106E-04-7.41514E-04-1.04436E-13-1.89116E-13
 -1      4192 2.00787E+01-3.68264E-02-2.39520E-04-1.49471E-02 4.87383E-14-8.01946E-14
 -1      4193 2.01354E+01-7.31119E-02-4.16804E-04-1.77523E-02-1.56258E-14-5.47733E-14
 -1      4194 2.01033E+01-5.56945E-02 2.83792E-04-3.24901E-02 5.13755E-15-7.55462E-14
 -1      4195 2.01214E+01-6.73597E-02 2.75719E-05-3.40219E-02 3.12816E-15-6.02009E-14
 -1      4196 2.00858E+01-4.32905E-02-6.81065E-06-3.09265E-02 2.29759E-14-9.50287E-14
 -3
    1PSTEP                         3           1           1          
  100CL  101 1.000000000        4196                     0    1           1
 -4  TOSTRAIN    6    1
 -5  EXX         1    4    1    1
 -5  EYY         1    4    2    2
 -5  EZZ         1    4    3    3
 -5  EXY         1    4    1    2
 -5  EYZ         1    4    2    3
 -5  EZX         1    4    3    1
 -1         1 3.03049E-04-8.53798E-05-8.14173E-05 6.98443E-05-1.11311E-18-7.04520E-18
 -1         2 4.09160E-05-1.24945E-04 2.35412E-05-1.25405E-06 3.97523E-18-6.76541E-19
 -1         3 9.50535E-05-2.87721E-05-2.82189E-05-2.20054E-07 2.22532E-18-5.95967E-19
 -1         4 9.52439E-05-2.85632E-05-2.85767E-05-1.40281E-08 9.22097E-19 9.28362E-19
 -1         5 1.46419E-04 2.58479E-10-4.41405E-05 5.42436E-05 9.32160E-19 1.68081E-17
 -1         6 1.45457E-04 2.57653E-10-4.42004E-05-5.35446E-05-8.28398E-19 1.85924E-17
 -1         7 9.06291E-05-5.11002E-07-3.90775E-05-2.92633E-05-1.09797E-19 5.28834E-18
 -1         8 8.51382E-05 8.66921E-08-3.63455E-05-2.02816E-05-2.27296E-19 6.49777E-19
 -1         9 8.28223E-05 7.70101E-08-3.53551E-05-1.56535E-05-2.06755E-19-2.03461E-18
 -1        10 8.17811E-05 3.87630E-08-3.48845E-05-1.20924E-05-1.76037E-19-3.54604E-18
 -1        11 8.12558E-05 1.95517E-08-3.46541E-05-9.02887E-06-1.34328E-19-4.35118E-18
 -1        12 8.09835E-05 9.27912E-09-3.45388E-05-6.30238E-06-8.39026E-20-4.75856E-18
 -1        13 8.08399E-05 4.66746E-09-3.44802E-05-3.70717E-06-6.35374E-20-4.94494E-18
 -1        14 8.07789E-05 2.82627E-09-3.44559E-05-1.20982E-06-4.60820E-20-5.01604E-18
 -1        15 8.07794E-05 2.85795E-09-3.44561E-05 1.25671E-06-5.93419E-21-5.01688E-18
 -1        16 8.08418E-05 4.75414E-09-3.44810E-05 3.75539E-06 3.52114E-20-5.04241E-18
 -1        17 8.09879E-05 8.90985E-09-3.45403E-05 6.35398E-06 4.12515E-20-4.96956E-18
 -1        18 8.12633E-05 1.91248E-08-3.46571E-05 9.08398E-06 8.97425E-20-4.75452E-18
 -1        19 8.17945E-05 3.94903E-08-3.48906E-05 1.21555E-05 1.26863E-19-4.21676E-18
 -1        20 8.28487E-05 7.89590E-08-3.53679E-05 1.57279E-05 1.82456E-19-3.14309E-18
 -1        21 8.51929E-05 9.56959E-08-3.63746E-05 2.03720E-05 2.09005E-19-8.51137E-19
 -1        22 9.05296E-05-3.81311E-07-3.90983E-05 2.93056E-05 1.13502E-19 3.34078E-18
 -1        23 1.13012E-04-3.81391E-05-3.54082E-05-4.40509E-06-5.49830E-19 1.56039E-17
 -1        24 9.28326E-05-2.77054E-05-2.90081E-05 3.91016E-07-1.54746E-19 1.29455E-17
 -1        25 8.91438E-05-2.68595E-05-2.69367E-05 3.75999E-07-6.89786E-20 1.02089E-17
 -1        26 8.80390E-05-2.64955E-05-2.63986E-05 2.04126E-07-9.96298E-20 8.03669E-18
 -1        27 8.80650E-05-2.64737E-05-2.63907E-05 1.39902E-07-3.67165E-20 6.39564E-18
 -1        28 8.85997E-05-2.66103E-05-2.65606E-05 1.00960E-07-4.89238E-20 5.78300E-18
 -1        29 8.93570E-05-2.68237E-05-2.67939E-05 7.53188E-08-2.59721E-20 5.52733E-18
 -1        30 9.01853E-05-2.70645E-05-2.70451E-05 5.70412E-08-4.94089E-20 4.66093E-18
 -1        31 9.09999E-05-2.73044E-05-2.72908E-05 4.33044E-08 9.41617E-20 3.40036E-18
 -1        32 9.17538E-05-2.75280E-05-2.75180E-05 3.26746E-08-2.44560E-19 1.99343E-18
 -1        33 9.24239E-05-2.77274E-05-2.77200E-05 2.43478E-08 3.35213E-19 4.92942E-19
 -1        34 9.30022E-05-2.79000E-05-2.78946E-05 1.78188E-08 3.26828E-20 2.56181E-19
 -1        35 9.34906E-05-2.80461E-05-2.80421E-05 1.27367E-08-1.55080E-19-1.09031E-20
 -1        36 9.38971E-05-2.81680E-05-2.81650E-05 8.84177E-09 1.94091E-19 7.10297E-19
 -1        37 9.42336E-05-2.82690E-05-2.82669E-05 5.93797E-09-1.73469E-20 1.53804E-18
 -1        38 9.45141E-05-2.83534E-05-2.83520E-05 3.88148E-09-1.07627E-19 1.15312E-18
 -1        39 9.47539E-05-2.84256E-05-2.84249E-05 2.57522E-09-1.50077E-19 1.85427E-18
 -1        40 9.49689E-05-2.84904E-05-2.84902E-05 1.96493E-09-2.53775E-19 1.17686E-18
 -1        41 9.51744E-05-2.85524E-05-2.85527E-05 2.03284E-09 1.68785E-19-2.33572E-19
 -1        42 9.53852E-05-2.86158E-05-2.86167E-05 2.78486E-09-1.87975E-19-7.35827E-19
 -1        43 9.56137E-05-2.86843E-05-2.86859E-05 4.22610E-09-6.67287E-20 2.17913E-19
 -1        44 9.58680E-05-2.87604E-05-2.87626E-05 6.31791E-09 1.95438E-19 1.64554E-18
 -1        45 9.61493E-05-2.88442E-05-2.88468E-05 8.90878E-09-2.17326E-19 1.89454E-18
 -1        46 9.64472E-05-2.89325E-05-2.89352E-05 1.16324E-08-1.20328E-19 2.90927E-19
 -1        47 9.67340E-05-2.90170E-05-2.90189E-05 1.37738E-08 1.76502E-19 8.76544E-19
 -1        48 9.69579E-05-2.90821E-05-2.90820E-05 1.41225E-08 1.63903E-19 1.60510E-18
 -1        49 9.70368E-05-2.91034E-05-2.90994E-05 1.08668E-08 2.06953E-19 9.10701E-19
 -1        50 9.68550E-05-2.90464E-05-2.90362E-05 1.64055E-09-7.90599E-20-5.95561E-19
 -1        51 9.62665E-05-2.88679E-05-2.88495E-05-1.61070E-08-9.79241E-20-1.89381E-18
 -1        52 9.51131E-05-2.85211E-05-2.84937E-05-4.42195E-08 5.58004E-20-8.43810E-19
 -1        53 9.32587E-05-2.79660E-05-2.79315E-05-8.23377E-08 2.52164E-19-2.10344E-18
 -1        54 9.06450E-05-2.71855E-05-2.71499E-05-1.26091E-07 2.64494E-19-2.68211E-18
 -1        55 8.73557E-05-2.62047E-05-2.61779E-05-1.65914E-07-1.17847E-19-1.88300E-18
 -1        56 8.36680E-05-2.51059E-05-2.50999E-05-1.88005E-07-3.93837E-19-1.88328E-18
 -1        57 8.00543E-05-2.40297E-05-2.40530E-05-1.78615E-07 2.39719E-19-1.03835E-18
 -1        58 7.71066E-05-2.31518E-05-2.32048E-05-1.30953E-07 1.99953E-19 6.05099E-20
 -1        59 7.53826E-05-2.26382E-05-2.27102E-05-5.11072E-08-1.13006E-19-4.69278E-19
 -1        60 7.52271E-05-2.25916E-05-2.26640E-05 4.17431E-08-2.53714E-19-1.58726E-18
 -1        61 7.66469E-05-2.30140E-05-2.30680E-05 1.22597E-07 6.59169E-19-1.03762E-20
 -1        62 7.93075E-05-2.38059E-05-2.38300E-05 1.71585E-07-1.66327E-19 9.27938E-19
 -1        63 8.26526E-05-2.48018E-05-2.47958E-05 1.81739E-07-4.83990E-19-1.63706E-18
 -1        64 8.60855E-05-2.58243E-05-2.57968E-05 1.59383E-07-1.16606E-19-4.54284E-18
 -1        65 8.91289E-05-2.67316E-05-2.66949E-05 1.18497E-07 6.68916E-20-2.51313E-18
 -1        66 9.15095E-05-2.74426E-05-2.74077E-05 7.37717E-08-1.39977E-19-1.04116E-18
 -1        67 9.31628E-05-2.79377E-05-2.79120E-05 3.61323E-08 6.96632E-19 1.41726E-18
 -1        68 9.41822E-05-2.82445E-05-2.82307E-05 1.15435E-08-1.77248E-19 2.52888E-18
 -1        69 9.47473E-05-2.84159E-05-2.84126E-05 1.30821E-09 2.24264E-19-7.03360E-20
 -1        70 9.50472E-05-2.85086E-05-2.85090E-05 2.35862E-09 7.71904E-21 1.03887E-18
 -1        71 9.52088E-05-2.85634E-05-2.85555E-05 3.69823E-09-3.08327E-19 1.45877E-18
 -1        72 1.14011E-04-3.82827E-05-3.57430E-05 4.97151E-06 7.00867E-19 1.34025E-17
 -1        73 9.31741E-05-2.78104E-05-2.91769E-05-4.07662E-07 2.87581E-19 1.01238E-17
 -1        74 8.92525E-05-2.68883E-05-2.69924E-05-3.81920E-07 6.24521E-20 6.84690E-18
 -1        75 8.80629E-05-2.65035E-05-2.64113E-05-2.08541E-07 3.53628E-20 4.98659E-18
 -1        76 8.80505E-05-2.64705E-05-2.63866E-05-1.42382E-07 2.77354E-21 3.42557E-18
 -1        77 8.85671E-05-2.66014E-05-2.65505E-05-1.02403E-07 1.61396E-19 1.85447E-18
 -1        78 8.93167E-05-2.68121E-05-2.67817E-05-7.63713E-08 5.96736E-20 1.00149E-18
 -1        79 9.01432E-05-2.70521E-05-2.70324E-05-5.78216E-08-7.25612E-20 8.53164E-19
 -1        80 9.09589E-05-2.72923E-05-2.72784E-05-4.38853E-08 1.68346E-19-9.36269E-20
 -1        81 9.17152E-05-2.75165E-05-2.75063E-05-3.31021E-08-1.13037E-19-7.66884E-19
 -1        82 9.23879E-05-2.77167E-05-2.77091E-05-2.46394E-08 1.28679E-20-1.08761E-18
 -1        83 9.29680E-05-2.78898E-05-2.78841E-05-1.79814E-08-6.68693E-21-1.50112E-18
 -1        84 9.34558E-05-2.80359E-05-2.80315E-05-1.24251E-08-8.87415E-20-2.31900E-18
 -1        85 9.38426E-05-2.81515E-05-2.81484E-05-8.82079E-09-4.66338E-20-3.24531E-18
 -1        86 9.41779E-05-2.82524E-05-2.82499E-05-5.53838E-09 1.14165E-19-3.50075E-18
 -1        87 9.44535E-05-2.83354E-05-2.83334E-05-2.99538E-09-1.21976E-19-2.90894E-18
 -1        88 9.46854E-05-2.84055E-05-2.84038E-05-1.03174E-09 3.18231E-20-2.47351E-18
 -1        89 9.48910E-05-2.84678E-05-2.84663E-05 4.85222E-10 7.52460E-20-2.13945E-18
 -1        90 9.50905E-05-2.85285E-05-2.85271E-05 1.63899E-09-3.06647E-19-1.82445E-18
 -1        91 9.53077E-05-2.85948E-05-2.85933E-05 2.46284E-09 3.41328E-19-3.16088E-18
 -1        92 9.55730E-05-2.86759E-05-2.86744E-05 2.91233E-09 4.63106E-20-2.83347E-18
 -1        93 9.59271E-05-2.87841E-05-2.87827E-05 2.80761E-09 1.90374E-19-2.91234E-18
 -1        94 9.64271E-05-2.89368E-05-2.89360E-05 1.71811E-09-2.43410E-19-2.68003E-18
 -1        95 9.71566E-05-2.91593E-05-2.91603E-05-1.26269E-09-2.80377E-20-1.75429E-18
 -1        96 9.82407E-05-2.94894E-05-2.94945E-05-7.96720E-09-1.65120E-19-2.58450E-18
 -1        97 9.98697E-05-2.99846E-05-2.99983E-05-2.15406E-08 1.93514E-19-4.04855E-18
 -1        98 1.02330E-04-3.07246E-05-3.07635E-05-5.78836E-08 3.11905E-19-5.63709E-18
 -1        99 1.05841E-04-3.17871E-05-3.18573E-05-9.94404E-08-3.83878E-20-4.46895E-18
 -1       100 1.11351E-04-3.34364E-05-3.35793E-05-2.03519E-07 1.57841E-19-4.91675E-18
 -1       101 1.19561E-04-3.58834E-05-3.61334E-05-3.89573E-07-2.35197E-19-3.76133E-18
 -1       102 1.31384E-04-3.93980E-05-3.97480E-05-7.00873E-07 7.03616E-20-2.39446E-18
 -1       103 1.47249E-04-4.41323E-05-4.43917E-05-1.12727E-06 3.40300E-19-2.62294E-18
 -1       104 1.65520E-04-4.96730E-05-4.92665E-05-1.41678E-06-1.08084E-19-2.73036E-18
 -1       105 1.79527E-04-5.41346E-05-5.22271E-05-6.80533E-07 1.53644E-19-4.07003E-19
 -1       106 1.75452E-04-5.31704E-05-5.02589E-05 2.47328E-06 1.06925E-19-1.15101E-18
 -1       107 1.41600E-04-4.21179E-05-4.29008E-05 7.18756E-06-4.83108E-19-3.71636E-19
 -1       108 9.93120E-05-2.79930E-05-3.52937E-05 6.61611E-06 6.70480E-20-1.61084E-18
 -1       109 7.84867E-05-2.05823E-05-3.19518E-05-1.00268E-06 4.77515E-20-2.29326E-18
 -1       110 9.79601E-05-2.78320E-05-3.48283E-05-6.95263E-06-3.77988E-19-4.36857E-19
 -1       111 1.33137E-04-3.94105E-05-4.10963E-05-7.27697E-06-5.45939E-20-2.45640E-20
 -1       112 1.69650E-04-5.13808E-05-4.87446E-05-3.34403E-06 3.17915E-19-2.11758E-19
 -1       113 1.79176E-04-5.40829E-05-5.18030E-05 1.45956E-07 9.21532E-19 3.83494E-19
 -1       114 1.67893E-04-5.04362E-05-4.97096E-05 1.37613E-06-1.90473E-19 1.09617E-18
 -1       115 1.49397E-04-4.47820E-05-4.49314E-05 1.23853E-06-2.11887E-19 8.73556E-19
 -1       116 1.32094E-04-3.96033E-05-3.99444E-05 8.23511E-07 2.36777E-19 3.73092E-18
 -1       117 1.18547E-04-3.55743E-05-3.58394E-05 4.95592E-07 1.54645E-19 3.27431E-18
 -1       118 1.08699E-04-3.26424E-05-3.28025E-05 2.98141E-07 4.85714E-19 9.90248E-19
 -1       119 1.01825E-04-3.05861E-05-3.06913E-05 1.86114E-07-2.47211E-19-1.08805E-18
 -1       120 9.73635E-05-2.92328E-05-2.93458E-05 8.38374E-08 9.49057E-19 1.49802E-19
 -1       121 9.52231E-05-2.85385E-05-2.86441E-05-7.01141E-08-1.09599E-18 2.46964E-18
 -1       122 9.51612E-05-2.84206E-05-2.86407E-05-6.25179E-08 1.81846E-18-1.77862E-18
 -1       123 9.46183E-05-2.64795E-05-2.92960E-05 1.69675E-07-3.02467E-18-1.15035E-18
 -1       124 9.35967E-05-2.30877E-05-3.02205E-05 2.49474E-07-4.39156E-18 3.82145E-19
 -1       125 9.26140E-05-1.97795E-05-3.11346E-05 1.90374E-07-2.32759E-18 1.82852E-19
 -1       126 9.19668E-05-1.76082E-05-3.17527E-05 8.41343E-08 3.03863E-19-1.05447E-18
 -1       127 9.18011E-05-1.70435E-05-3.19291E-05-1.74231E-08-5.45957E-18 2.46155E-19
 -1       128 9.20836E-05-1.79984E-05-3.16756E-05-9.61233E-08-2.72497E-18-2.52087E-19
 -1       129 9.26903E-05-2.00433E-05-3.11043E-05-1.32099E-07-1.03586E-18 6.96787E-19
 -1       130 9.34375E-05-2.25611E-05-3.03860E-05-1.28248E-07 1.23453E-18 4.23882E-19
 -1       131 9.41562E-05-2.49810E-05-2.96838E-05-9.72842E-08 3.89205E-18 3.61407E-19
 -1       132 9.47296E-05-2.69068E-05-2.91148E-05-5.36164E-08-3.32497E-18-1.74469E-18
 -1       133 9.50998E-05-2.81503E-05-2.87380E-05-1.46372E-08-1.00063E-17 1.10025E-18
 -1       134 9.52871E-05-2.87711E-05-2.85397E-05 1.62516E-08-7.69499E-18 1.02862E-19
 -1       135 9.53274E-05-2.88981E-05-2.84853E-05 3.28346E-08-2.57479E-18 6.51767E-19
 -1       136 9.52925E-05-2.87667E-05-2.85110E-05 3.27390E-08-1.46074E-18-1.53437E-20
 -1       137 9.52450E-05-2.86094E-05-2.85533E-05 1.51029E-08-1.20654E-18-6.97485E-19
 -1       138 3.23405E-05-1.12011E-04 2.14617E-05-3.14774E-05-6.35486E-19 2.45904E-19
 -1       139 1.13850E-05-6.26701E-05 1.05935E-05-3.68483E-05 1.77623E-18 1.46505E-18
 -1       140 5.58403E-06-5.52662E-06-8.20009E-06-1.40957E-06 2.57329E-18 9.78747E-19
 -1       141 5.75837E-05 1.89302E-05-3.48056E-05 6.78146E-05 2.23447E-18 2.23024E-18
 -1       142 1.66311E-04-1.00175E-05-6.05181E-05 1.18910E-04 8.63550E-19-3.81165E-19
 -1       143 2.97404E-04-7.19583E-05-8.11705E-05 1.09345E-04-1.61434E-18-1.49713E-18
 -1       144 3.80918E-04-1.17364E-04-9.17820E-05 3.54230E-05 1.15027E-18-3.82774E-18
 -1       145 3.65159E-04-1.08968E-04-8.95998E-05-6.13371E-05-6.33091E-20-1.91345E-18
 -1       146 2.59550E-04-5.28359E-05-7.56062E-05-1.18661E-04 1.98290E-18-3.56516E-18
 -1       147 1.24671E-04 3.59094E-06-5.17477E-05-1.04288E-04 6.22061E-18-9.33854E-18
 -1       148 3.04106E-05 1.39185E-05-2.38597E-05-3.94105E-05 9.91960E-18-8.77484E-18
 -1       149 4.02592E-06-2.78162E-05 3.97325E-07 2.03667E-05 1.41332E-17-9.52616E-18
 -1       150 2.03749E-05-8.73810E-05 1.65417E-05 3.84535E-05 1.53961E-17-5.11629E-18
 -1       151 3.84212E-05-1.23072E-04 2.35839E-05 1.83786E-05 1.03582E-17-2.07711E-18
 -1       152 3.57917E-05-1.11369E-04 2.07830E-05-1.35287E-05-3.16282E-18-1.12017E-18
 -1       153 1.62210E-05-6.06730E-05 9.95044E-06-2.38055E-05-1.15374E-17-4.01187E-18
 -1       154 5.25213E-06-2.92604E-07-7.36947E-06 4.49761E-06-1.29782E-17-7.06320E-18
 -1       155 3.50324E-05 3.37179E-05-2.97364E-05 6.37556E-05-1.15074E-17-1.13375E-17
 -1       156 1.12839E-04 1.74064E-05-5.10850E-05 1.12349E-04-8.32337E-18-1.08297E-17
 -1       157 2.20435E-04-3.50596E-05-7.03066E-05 1.18962E-04-3.01544E-18-8.27636E-18
 -1       158 3.26511E-04-1.00360E-04-8.42442E-05-1.77829E-05-4.11870E-20-1.13359E-18
 -1       159 2.72208E-04-6.63412E-05-7.71962E-05-9.64910E-05-2.65439E-19 3.57533E-18
 -1       160 1.73077E-04-9.54715E-06-6.25816E-05-1.24593E-04-3.31825E-18 4.15851E-18
 -1       161 7.10693E-05 3.10396E-05-4.12298E-05-9.37036E-05-4.41389E-18 7.05409E-18
 -1       162 1.53779E-05 2.34558E-05-1.92810E-05-3.51232E-05-9.07892E-18 5.89111E-18
 -1       163 7.41408E-06-3.00977E-05 2.29416E-06 1.51943E-05-4.62607E-18 3.98529E-18
 -1       164 2.74363E-05-9.15555E-05 1.67626E-05 2.37514E-05 8.63762E-18-1.00352E-18
 -1       165 9.48879E-05-1.23492E-05-3.55769E-05-2.23606E-05-2.31641E-18 2.56778E-18
 -1       166 8.92552E-05-8.45054E-06-3.47932E-05-1.73981E-05-2.45694E-18-4.23543E-19
 -1       167 8.65614E-05-6.50789E-06-3.44195E-05-1.36076E-05-2.14419E-18-2.20227E-18
 -1       168 8.51928E-05-5.51105E-06-3.42324E-05-1.03825E-05-1.77346E-18-3.25167E-18
 -1       169 8.44450E-05-4.94005E-06-3.41426E-05-7.56425E-06-1.39409E-18-3.77209E-18
 -1       170 8.40146E-05-4.59361E-06-3.40992E-05-4.92349E-06-1.05841E-18-4.04888E-18
 -1       171 8.37932E-05-4.40752E-06-3.40804E-05-2.41858E-06-6.10379E-19-4.16834E-18
 -1       172 8.37255E-05-4.34933E-06-3.40753E-05 2.31402E-08-2.56266E-19-4.19282E-18
 -1       173 8.37960E-05-4.40986E-06-3.40807E-05 2.46555E-06 1.70750E-19-4.19675E-18
 -1       174 8.40212E-05-4.59893E-06-3.40998E-05 4.97251E-06 5.23893E-19-4.20364E-18
 -1       175 8.44467E-05-4.94156E-06-3.41428E-05 7.57053E-06 9.50337E-19-4.03619E-18
 -1       176 8.52117E-05-5.52527E-06-3.42349E-05 1.04411E-05 1.43598E-18-3.65665E-18
 -1       177 8.65989E-05-6.53498E-06-3.44246E-05 1.36763E-05 1.90968E-18-3.00949E-18
 -1       178 8.93264E-05-8.49749E-06-3.48037E-05 1.74839E-05 2.29165E-18-1.53128E-18
 -1       179 9.50089E-05-1.24542E-05-3.55729E-05 2.24920E-05 2.46701E-18 1.02240E-18
 -1       180 1.03425E-04-2.73085E-05-3.26187E-05-1.21365E-05-1.88618E-18 5.82957E-18
 -1       181 9.71292E-05-2.82949E-05-2.95356E-05-4.73622E-06-1.63972E-18 4.68322E-18
 -1       182 9.35260E-05-2.76422E-05-2.81878E-05-1.77183E-06-1.28337E-18 3.82691E-18
 -1       183 9.19889E-05-2.74104E-05-2.76410E-05-4.22867E-07-9.63300E-19 3.04468E-18
 -1       184 9.14122E-05-2.73351E-05-2.74434E-05 2.42751E-07-5.29917E-19 2.56116E-18
 -1       185 9.13708E-05-2.73741E-05-2.74185E-05 5.69965E-07-4.19230E-19 2.20792E-18
 -1       186 9.16158E-05-2.74773E-05-2.74839E-05 7.09933E-07-4.77211E-19 1.75158E-18
 -1       187 9.20017E-05-2.76102E-05-2.75946E-05 7.41900E-07-7.46131E-19 1.53867E-18
 -1       188 9.24417E-05-2.77515E-05-2.77238E-05 7.11902E-07-7.42731E-19 1.25867E-18
 -1       189 9.28841E-05-2.78884E-05-2.78554E-05 6.48567E-07-7.74306E-19 1.14056E-18
 -1       190 9.32998E-05-2.80140E-05-2.79801E-05 5.70334E-07-6.28096E-19-8.98597E-20
 -1       191 9.36741E-05-2.81250E-05-2.80931E-05 4.89195E-07-1.16452E-19-5.48933E-19
 -1       192 9.40021E-05-2.82208E-05-2.81926E-05 4.12891E-07 2.61409E-19-2.21507E-19
 -1       193 9.42854E-05-2.83023E-05-2.82790E-05 3.46312E-07 8.06079E-20-6.55447E-19
 -1       194 9.45294E-05-2.83716E-05-2.83538E-05 2.92437E-07-2.68860E-19-4.17240E-19
 -1       195 9.47422E-05-2.84313E-05-2.84193E-05 2.52959E-07 2.75837E-19-2.53394E-19
 -1       196 9.49335E-05-2.84845E-05-2.84783E-05 2.28645E-07-2.93136E-19-5.72520E-19
 -1       197 9.51134E-05-2.85345E-05-2.85339E-05 2.19465E-07-5.27454E-19-1.31804E-19
 -1       198 9.52920E-05-2.85843E-05-2.85889E-05 2.24464E-07-4.70040E-19-3.64519E-19
 -1       199 9.54780E-05-2.86373E-05-2.86460E-05 2.41367E-07 2.26138E-19-6.57917E-19
 -1       200 9.56780E-05-2.86958E-05-2.87066E-05 2.65867E-07 5.90579E-19-5.79889E-19
 -1       201 9.58941E-05-2.87615E-05-2.87712E-05 2.90628E-07-2.19393E-19-2.81667E-19
 -1       202 9.61215E-05-2.88344E-05-2.88378E-05 3.04035E-07-1.92832E-19 4.89967E-19
 -1       203 9.63454E-05-2.89116E-05-2.89013E-05 2.88945E-07-2.93486E-20 9.06741E-19
 -1       204 9.65369E-05-2.89864E-05-2.89521E-05 2.21889E-07-2.40888E-19 8.88562E-19
 -1       205 9.66493E-05-2.90463E-05-2.89756E-05 7.35726E-08-3.78845E-19 1.31036E-19
 -1       206 9.66155E-05-2.90714E-05-2.89514E-05-1.88054E-07-1.15003E-18-9.73564E-19
 -1       207 9.63489E-05-2.90335E-05-2.88544E-05-5.90617E-07-3.20465E-19-1.55178E-18
 -1       208 9.57505E-05-2.88961E-05-2.86574E-05-1.14485E-06 1.23033E-19-7.37210E-19
 -1       209 9.47256E-05-2.86188E-05-2.83369E-05-1.82728E-06-9.08511E-19-9.69073E-19
 -1       210 9.32124E-05-2.81662E-05-2.78812E-05-2.56224E-06 2.16068E-19-3.06252E-19
 -1       211 9.12200E-05-2.75233E-05-2.73006E-05-3.21259E-06 2.19453E-19-6.07105E-19
 -1       212 8.88664E-05-2.67158E-05-2.66349E-05-3.59291E-06 4.22281E-19-2.09708E-19
 -1       213 8.63989E-05-2.58260E-05-2.59554E-05-3.51583E-06 5.59958E-19 9.74506E-19
 -1       214 8.41735E-05-2.49929E-05-2.53556E-05-2.86709E-06 9.63417E-20 1.78330E-19
 -1       215 8.25805E-05-2.43830E-05-2.49323E-05-1.67938E-06-1.46444E-19 2.12991E-20
 -1       216 8.19300E-05-2.41360E-05-2.47586E-05-1.58694E-07-6.95882E-19 3.27152E-19
 -1       217 8.23439E-05-2.43083E-05-2.48628E-05 1.36877E-06 1.68291E-18 2.33280E-18
 -1       218 8.37094E-05-2.48483E-05-2.52186E-05 2.57319E-06 1.50824E-19 2.03646E-18
 -1       219 8.57207E-05-2.56179E-05-2.57537E-05 3.24058E-06-2.17210E-18 1.20007E-18
 -1       220 8.79869E-05-2.64492E-05-2.63720E-05 3.33190E-06-1.63273E-18-5.70225E-19
 -1       221 9.01488E-05-2.71999E-05-2.69797E-05 2.96179E-06 1.85801E-18-7.44301E-19
 -1       222 9.19591E-05-2.77854E-05-2.75067E-05 2.32600E-06 7.31809E-19 1.37612E-18
 -1       223 9.33074E-05-2.81813E-05-2.79159E-05 1.62394E-06 1.47133E-18 1.57205E-18
 -1       224 9.42010E-05-2.84078E-05-2.82018E-05 1.00752E-06 1.29378E-18 7.99791E-19
 -1       225 9.47261E-05-2.85116E-05-2.83818E-05 5.59798E-07-1.52473E-18 2.03653E-19
 -1       226 9.49995E-05-2.85461E-05-2.84830E-05 2.93287E-07 6.79407E-19-2.39636E-19
 -1       227 9.51422E-05-2.85697E-05-2.85321E-05 1.56277E-07 1.09134E-19 1.25659E-21
 -1       228 1.03665E-04-2.71153E-05-3.28059E-05 1.26201E-05 2.11740E-18 4.13868E-18
 -1       229 9.73317E-05-2.82791E-05-2.96344E-05 4.96329E-06 1.90831E-18 3.24142E-18
 -1       230 9.36370E-05-2.76532E-05-2.82324E-05 1.87023E-06 1.30628E-18 2.17335E-18
 -1       231 9.20368E-05-2.74157E-05-2.76586E-05 4.70683E-07 9.94665E-19 1.30011E-18
 -1       232 9.14258E-05-2.73355E-05-2.74484E-05-2.18115E-07 9.05842E-19 7.03151E-19
 -1       233 9.13645E-05-2.73702E-05-2.74172E-05-5.58191E-07 6.93289E-19 3.81505E-19
 -1       234 9.15989E-05-2.74711E-05-2.74792E-05-7.05321E-07 3.79614E-19-2.93637E-20
 -1       235 9.19797E-05-2.76030E-05-2.75882E-05-7.41171E-07 4.05061E-19-2.12154E-19
 -1       236 9.24176E-05-2.77441E-05-2.77166E-05-7.13080E-07 3.03209E-19-6.23477E-20
 -1       237 9.28597E-05-2.78812E-05-2.78480E-05-6.50323E-07 1.88598E-19-1.27078E-19
 -1       238 9.32757E-05-2.80070E-05-2.79727E-05-5.71682E-07 3.32322E-19-4.29323E-19
 -1       239 9.36499E-05-2.81182E-05-2.80856E-05-4.89297E-07 5.05621E-19-6.38204E-19
 -1       240 9.39625E-05-2.82096E-05-2.81804E-05-4.14844E-07 5.25470E-19-1.10984E-18
 -1       241 9.42473E-05-2.82918E-05-2.82672E-05-3.45759E-07 3.62421E-19-1.43500E-18
 -1       242 9.44917E-05-2.83612E-05-2.83421E-05-2.89184E-07-7.07177E-19-9.59618E-19
 -1       243 9.47047E-05-2.84207E-05-2.84077E-05-2.47841E-07-4.14120E-19 1.99119E-20
 -1       244 9.48979E-05-2.84737E-05-2.84675E-05-2.24144E-07 8.91150E-20 2.67045E-21
 -1       245 9.50853E-05-2.85242E-05-2.85259E-05-2.21043E-07-2.99930E-19 2.25689E-19
 -1       246 9.52842E-05-2.85768E-05-2.85882E-05-2.42845E-07 6.95514E-19 1.70798E-19
 -1       247 9.55160E-05-2.86372E-05-2.86611E-05-2.96244E-07 3.65747E-19 1.03510E-19
 -1       248 9.58089E-05-2.87126E-05-2.87535E-05-3.91782E-07 5.46491E-20-3.81186E-19
 -1       249 9.62003E-05-2.88121E-05-2.88776E-05-5.45994E-07-6.15890E-20 2.68760E-19
 -1       250 9.67420E-05-2.89483E-05-2.90498E-05-7.84613E-07-2.22413E-19-5.64189E-19
 -1       251 9.75065E-05-2.91381E-05-2.92940E-05-1.14730E-06-4.40474E-20-2.65748E-19
 -1       252 9.85965E-05-2.94052E-05-2.96437E-05-1.69414E-06 8.07972E-19-3.06298E-19
 -1       253 1.00156E-04-2.97816E-05-3.01472E-05-2.51727E-06 8.66665E-19-5.25811E-19
 -1       254 1.02256E-04-3.02855E-05-3.08273E-05-3.66766E-06 2.38417E-19-8.06176E-19
 -1       255 1.05363E-04-3.10283E-05-3.18386E-05-5.41334E-06-1.58610E-19-3.36454E-19
 -1       256 1.09715E-04-3.20895E-05-3.32518E-05-7.88620E-06-8.01389E-19-3.01952E-19
 -1       257 1.15660E-04-3.36347E-05-3.51490E-05-1.11253E-05-7.54422E-19 5.55637E-19
 -1       258 1.23478E-04-3.59767E-05-3.75124E-05-1.47106E-05-2.93785E-19 7.15438E-19
 -1       259 1.33208E-04-3.97043E-05-4.00785E-05-1.70173E-05-2.49132E-19 1.54332E-18
 -1       260 1.44333E-04-4.55939E-05-4.22600E-05-1.42326E-05-9.77344E-19 1.35584E-18
 -1       261 1.55290E-04-5.33475E-05-4.35913E-05-8.65404E-07-3.54894E-19 3.11523E-18
 -1       262 1.61506E-04-5.68932E-05-4.49779E-05 2.24371E-05 6.55210E-19 2.06054E-18
 -1       263 1.58450E-04-4.77404E-05-4.80746E-05 3.56289E-05 1.09267E-18 2.21933E-19
 -1       264 1.47299E-04-3.00338E-05-5.17072E-05 2.06449E-05 3.79471E-19-1.95804E-19
 -1       265 1.45283E-04-2.83167E-05-5.15612E-05-1.55007E-05 5.18172E-19-7.42921E-19
 -1       266 1.54717E-04-4.27019E-05-4.88260E-05-3.31639E-05-6.48827E-19-1.31978E-18
 -1       267 1.60316E-04-5.55333E-05-4.51690E-05-2.58979E-05-3.45431E-19-8.94437E-19
 -1       268 1.56341E-04-5.45946E-05-4.35068E-05-3.76785E-06-1.06254E-18 1.16012E-18
 -1       269 1.45968E-04-4.70889E-05-4.22923E-05 1.24328E-05 2.37566E-19 1.19702E-18
 -1       270 1.34381E-04-4.05195E-05-4.02208E-05 1.73546E-05 2.34138E-19-5.85644E-19
 -1       271 1.23868E-04-3.62289E-05-3.75754E-05 1.59833E-05-6.18117E-19-6.88188E-19
 -1       272 1.15122E-04-3.34683E-05-3.49950E-05 1.26448E-05-5.79079E-19 2.72937E-20
 -1       273 1.08254E-04-3.15953E-05-3.28389E-05 9.34725E-06 1.89143E-18 6.81746E-19
 -1       274 1.03074E-04-3.02382E-05-3.11947E-05 6.63689E-06 2.28316E-18-2.61193E-18
 -1       275 9.93372E-05-2.92167E-05-3.00350E-05 4.40180E-06-1.64783E-18-2.47191E-18
 -1       276 9.67155E-05-2.83494E-05-2.92897E-05 2.34098E-06-7.63061E-19-8.32923E-19
 -1       277 9.52973E-05-2.69737E-05-2.92661E-05 2.35703E-06-8.63651E-20-2.89753E-18
 -1       278 9.42276E-05-2.47389E-05-2.97781E-05 3.37875E-06 3.36636E-19-7.74407E-19
 -1       279 9.31826E-05-2.24214E-05-3.03298E-05 3.21827E-06-1.14679E-18 1.25315E-18
 -1       280 9.24455E-05-2.06728E-05-3.07663E-05 2.07990E-06-1.09371E-18 1.41115E-18
 -1       281 9.21693E-05-1.99072E-05-3.09778E-05 5.17660E-07-5.81212E-19-3.20051E-18
 -1       282 9.23425E-05-2.01926E-05-3.09299E-05-9.97780E-07 7.98745E-19 2.29380E-19
 -1       283 9.28570E-05-2.13598E-05-3.06484E-05-2.06992E-06 1.65528E-18 1.36349E-18
 -1       284 9.35365E-05-2.30396E-05-3.02167E-05-2.53856E-06 2.00943E-18 1.56542E-18
 -1       285 9.42127E-05-2.48321E-05-2.97349E-05-2.44649E-06 2.39946E-18 9.62682E-19
 -1       286 9.47658E-05-2.64144E-05-2.92911E-05-1.96356E-06-4.13529E-19-3.97610E-18
 -1       287 9.51335E-05-2.75810E-05-2.89472E-05-1.31563E-06-1.54376E-18-3.21541E-18
 -1       288 9.53265E-05-2.83197E-05-2.87129E-05-6.71630E-07-1.85578E-19 2.12800E-18
 -1       289 9.53703E-05-2.86583E-05-2.85871E-05-1.76305E-07 5.88274E-20 2.00019E-18
 -1       290 9.53122E-05-2.87168E-05-2.85394E-05 9.90972E-08-8.01031E-19 5.04857E-19
 -1       291 9.52496E-05-2.86597E-05-2.85368E-05 1.91136E-07-5.49293E-19 2.20646E-19
 -1       292 1.13124E-05-5.40701E-05 1.48163E-05-2.10216E-06 2.30075E-19-1.91546E-18
 -1       293 2.26864E-05-5.13454E-05 8.85409E-06 1.19666E-05-6.50521E-19-3.86882E-19
 -1       294 4.93398E-05-4.75909E-05-3.80919E-06 2.46890E-05-1.31608E-18-6.97743E-20
 -1       295 1.05365E-04-5.25752E-05-2.40648E-05 3.57433E-05 1.74277E-19-1.43784E-18
 -1       296 1.61046E-04-5.25630E-05-4.59418E-05 3.32611E-05 4.06788E-19-3.13445E-18
 -1       297 2.12982E-04-5.24802E-05-6.52291E-05 2.51988E-05 8.11527E-19-4.33257E-19
 -1       298 2.41477E-04-4.87395E-05-7.71111E-05 7.23754E-06 9.34383E-19-6.43957E-19
 -1       299 2.39932E-04-4.17663E-05-7.94472E-05 5.75526E-07 1.27690E-19-9.67815E-19
 -1       300 2.37376E-04-5.01902E-05-7.48336E-05-1.20775E-05 7.41048E-19-1.43466E-18
 -1       301 1.96269E-04-5.34685E-05-5.90144E-05-2.50472E-05 4.04516E-18-3.62954E-19
 -1       302 1.44850E-04-5.80022E-05-3.76230E-05-2.97287E-05 4.13310E-18-3.12470E-18
 -1       303 8.44689E-05-5.14381E-05-1.59892E-05-3.41238E-05 4.98077E-18-2.17666E-18
 -1       304 3.83487E-05-4.88855E-05 1.70790E-06-2.17864E-05 5.84749E-18-2.70921E-18
 -1       305 1.45369E-05-4.79856E-05 1.15091E-05-6.90486E-06 5.02259E-18-4.28196E-18
 -1       306 1.07828E-05-5.27469E-05 1.46508E-05 9.62113E-06 1.53763E-18-6.89940E-18
 -1       307 2.00254E-05-4.93556E-05 9.41304E-06 2.08196E-05-1.48210E-18-5.02809E-18
 -1       308 4.02022E-05-3.88386E-05-2.75141E-06 3.40501E-05-5.54870E-18-3.62967E-18
 -1       309 7.92674E-05-3.37315E-05-2.02156E-05 4.77919E-05-5.36172E-18-4.28662E-18
 -1       310 1.19149E-04-2.62710E-05-3.91382E-05 5.50873E-05-4.45476E-18-3.27018E-18
 -1       311 1.66792E-04-3.35222E-05-5.57078E-05 3.84750E-05-3.14374E-18-3.44107E-18
 -1       312 2.02450E-04-3.34563E-05-6.96452E-05 3.15294E-05-2.26534E-18-3.89402E-18
 -1       313 2.25482E-04-3.85746E-05-7.63825E-05 9.40519E-06-1.88190E-18-1.72260E-18
 -1       314 2.12507E-04-3.35154E-05-7.36805E-05-1.70296E-05-3.30480E-18 9.70488E-19
 -1       315 1.91003E-04-3.28072E-05-6.50141E-05-4.34022E-05-2.25354E-18 4.95895E-18
 -1       316 1.47268E-04-2.92894E-05-4.91312E-05-5.18995E-05-2.98441E-18 3.08998E-18
 -1       317 9.87422E-05-2.82233E-05-3.02565E-05-5.19008E-05-3.28966E-18 2.48456E-18
 -1       318 6.16183E-05-3.74152E-05-1.16367E-05-4.32215E-05-2.35136E-18 3.28358E-18
 -1       319 2.86423E-05-4.52873E-05 4.40058E-06-2.67674E-05-4.79844E-19 6.59585E-18
 -1       320 1.44961E-05-5.43420E-05 1.35353E-05-1.40114E-05 2.50510E-19-3.42731E-19
 -1       321 9.16394E-05-1.44430E-05-3.31620E-05-1.29942E-05-2.58755E-18-7.57201E-19
 -1       322 9.57254E-05-1.91125E-05-3.28966E-05-1.46477E-05-2.56881E-18 1.01928E-18
 -1       323 8.80008E-05-1.03681E-05-3.33264E-05-8.16958E-06-1.85067E-18-2.64255E-18
 -1       324 8.71834E-05-9.44516E-06-3.33648E-05-5.73539E-06-1.49575E-18-2.99251E-18
 -1       325 8.67197E-05-8.91246E-06-3.33909E-05-3.38675E-06-9.57679E-19-3.11566E-18
 -1       326 8.65104E-05-8.66896E-06-3.34040E-05-1.09537E-06-5.19964E-19-3.13552E-18
 -1       327 8.65144E-05-8.67348E-06-3.34038E-05 1.17705E-06-8.06231E-20-3.17337E-18
 -1       328 8.67323E-05-8.92698E-06-3.33901E-05 3.46984E-06 4.02965E-19-3.23722E-18
 -1       329 8.71959E-05-9.45930E-06-3.33641E-05 5.78104E-06 9.05672E-19-3.19246E-18
 -1       330 8.80224E-05-1.03916E-05-3.33252E-05 8.21650E-06 1.52389E-18-2.79521E-18
 -1       331 8.94140E-05-1.19396E-05-3.32688E-05 1.07289E-05 2.05349E-18-2.44565E-18
 -1       332 9.17633E-05-1.45720E-05-3.31583E-05 1.31011E-05 2.48488E-18-1.57309E-18
 -1       333 9.58668E-05-1.93170E-05-3.28712E-05 1.46248E-05 2.64479E-18 8.35386E-20
 -1       334 1.02167E-04-5.99581E-05-1.83389E-05 3.72637E-05-1.98672E-18-2.44055E-18
 -1       335 9.64517E-05-2.60306E-05-3.01359E-05-6.35215E-06-2.03682E-18 1.22257E-18
 -1       336 9.49328E-05-2.70319E-05-2.90750E-05-2.83914E-06-1.63313E-18 9.25209E-19
 -1       337 9.39544E-05-2.74274E-05-2.84970E-05-9.23829E-07-1.08298E-18 6.87301E-19
 -1       338 9.34351E-05-2.76404E-05-2.81910E-05 1.38377E-07-6.16598E-19 2.69341E-19
 -1       339 9.32432E-05-2.77937E-05-2.80470E-05 7.05063E-07-6.80233E-19 2.02194E-19
 -1       340 9.32609E-05-2.79235E-05-2.80008E-05 9.74811E-07-7.00758E-19 5.72666E-20
 -1       341 9.34013E-05-2.80385E-05-2.80125E-05 1.06477E-06-7.13798E-19-1.32234E-19
 -1       342 9.36050E-05-2.81400E-05-2.80569E-05 1.04789E-06-7.99636E-19 2.84416E-21
 -1       343 9.38333E-05-2.82276E-05-2.81174E-05 9.71383E-07-1.10722E-18 1.60630E-19
 -1       344 9.40623E-05-2.83017E-05-2.81838E-05 8.66374E-07-6.29870E-19 1.73351E-19
 -1       345 9.42783E-05-2.83628E-05-2.82502E-05 7.53470E-07-1.90386E-19-4.18278E-19
 -1       346 9.44753E-05-2.84124E-05-2.83133E-05 6.46196E-07 6.78200E-20-4.75587E-19
 -1       347 9.46519E-05-2.84524E-05-2.83717E-05 5.53257E-07-1.60196E-19-2.55484E-19
 -1       348 9.48103E-05-2.84849E-05-2.84256E-05 4.80069E-07 8.38563E-20-4.27750E-19
 -1       349 9.49546E-05-2.85121E-05-2.84756E-05 4.29726E-07-1.71021E-19-5.26146E-19
 -1       350 9.50905E-05-2.85367E-05-2.85231E-05 4.03528E-07-2.91593E-19-5.90340E-19
 -1       351 9.52244E-05-2.85617E-05-2.85697E-05 4.01074E-07-4.61871E-19-6.32729E-19
 -1       352 9.53627E-05-2.85904E-05-2.86166E-05 4.19917E-07-4.21810E-19-7.34980E-19
 -1       353 9.55115E-05-2.86268E-05-2.86647E-05 4.54746E-07 1.14633E-19-1.15738E-18
 -1       354 9.56753E-05-2.86755E-05-2.87141E-05 4.96089E-07 6.76411E-19-1.23378E-18
 -1       355 9.58564E-05-2.87418E-05-2.87635E-05 5.28601E-07 2.50344E-19-2.31719E-19
 -1       356 9.60528E-05-2.88308E-05-2.88099E-05 5.29154E-07 1.60778E-21-2.02799E-20
 -1       357 9.62563E-05-2.89469E-05-2.88479E-05 4.65235E-07-3.32978E-19-2.06747E-19
 -1       358 9.64498E-05-2.90912E-05-2.88698E-05 2.94631E-07-4.58812E-19-9.93885E-19
 -1       359 9.66032E-05-2.92580E-05-2.88651E-05-3.20508E-08-7.79939E-19-4.68061E-19
 -1       360 9.66710E-05-2.94293E-05-2.88220E-05-5.63876E-07-6.65258E-19 2.23071E-19
 -1       361 9.65891E-05-2.95686E-05-2.87283E-05-1.33479E-06-1.64562E-19 1.92104E-19
 -1       362 9.62771E-05-2.96160E-05-2.85750E-05-2.34038E-06-2.12089E-19 2.91006E-19
 -1       363 9.56476E-05-2.94895E-05-2.83592E-05-3.50861E-06-3.32194E-19 4.44176E-19
 -1       364 9.46296E-05-2.91006E-05-2.80883E-05-4.67384E-06 2.69501E-19 8.01825E-19
 -1       365 9.32080E-05-2.83892E-05-2.77812E-05-5.57275E-06 3.42017E-19 1.86938E-18
 -1       366 9.14716E-05-2.73755E-05-2.74677E-05-5.88575E-06 5.22241E-19 1.40295E-18
 -1       367 8.96462E-05-2.62034E-05-2.71836E-05-5.33709E-06-7.82248E-20 1.17718E-18
 -1       368 8.80751E-05-2.51375E-05-2.69636E-05-3.83171E-06 2.22473E-19 4.00383E-19
 -1       369 8.71235E-05-2.44822E-05-2.68346E-05-1.55997E-06 1.45903E-19 6.11329E-19
 -1       370 8.70335E-05-2.44474E-05-2.68109E-05 1.01419E-06 1.58417E-18 2.33902E-18
 -1       371 8.78118E-05-2.50394E-05-2.68927E-05 3.30851E-06 8.54988E-19 1.86347E-19
 -1       372 8.92251E-05-2.60561E-05-2.70661E-05 4.84712E-06-8.05382E-19 5.41445E-19
 -1       373 9.09076E-05-2.71907E-05-2.73050E-05 5.42549E-06-2.10519E-18 3.02462E-18
 -1       374 9.25087E-05-2.81690E-05-2.75757E-05 5.13280E-06 3.72688E-20 3.52268E-18
 -1       375 9.37948E-05-2.88356E-05-2.78438E-05 4.25224E-06 1.75771E-18 1.89477E-18
 -1       376 9.46744E-05-2.91639E-05-2.80813E-05 3.12214E-06 1.16911E-18 2.13648E-18
 -1       377 9.51685E-05-2.92147E-05-2.82712E-05 2.02882E-06 1.38010E-19 9.22282E-19
 -1       378 9.53605E-05-2.90859E-05-2.84077E-05 1.15826E-06-7.52008E-19 4.35306E-19
 -1       379 9.53601E-05-2.88871E-05-2.84924E-05 5.87788E-07-9.89226E-19 4.37327E-19
 -1       380 9.52839E-05-2.87205E-05-2.85279E-05 3.17747E-07 3.95140E-19 7.36819E-19
 -1       381 9.49650E-05-2.69647E-05-2.91144E-05 2.97601E-06 1.65535E-18-2.77940E-19
 -1       382 9.64682E-05-2.59064E-05-3.01951E-05 6.54033E-06 2.24443E-18 2.22096E-19
 -1       383 9.39824E-05-2.73999E-05-2.85190E-05 1.00080E-06 1.17998E-18-6.16909E-19
 -1       384 9.34510E-05-2.76308E-05-2.82018E-05-9.82352E-08 9.75297E-19-6.15427E-19
 -1       385 9.32467E-05-2.77867E-05-2.80514E-05-6.84270E-07 5.87973E-19-4.74302E-19
 -1       386 9.32561E-05-2.79175E-05-2.80012E-05-9.65157E-07 4.83644E-19-3.28073E-19
 -1       387 9.33918E-05-2.80333E-05-2.80107E-05-1.06159E-06 3.13346E-19-3.73027E-19
 -1       388 9.35932E-05-2.81356E-05-2.80536E-05-1.04807E-06 2.36097E-19-2.29864E-19
 -1       389 9.38206E-05-2.82241E-05-2.81134E-05-9.72719E-07 5.52095E-19-3.61129E-19
 -1       390 9.40491E-05-2.82988E-05-2.81795E-05-8.67333E-07 7.17127E-19-3.02166E-19
 -1       391 9.42553E-05-2.83579E-05-2.82425E-05-7.58535E-07 9.10971E-19-4.74973E-19
 -1       392 9.44544E-05-2.84087E-05-2.83059E-05-6.48799E-07 5.57765E-19-2.94251E-19
 -1       393 9.46333E-05-2.84494E-05-2.83651E-05-5.53162E-07-5.10456E-19 2.02528E-19
 -1       394 9.47947E-05-2.84817E-05-2.84203E-05-4.78517E-07-5.42994E-19-5.81056E-19
 -1       395 9.49439E-05-2.85075E-05-2.84729E-05-4.30370E-07-4.99745E-19-6.56902E-19
 -1       396 9.50881E-05-2.85286E-05-2.85255E-05-4.14190E-07-2.20887E-19 3.25542E-19
 -1       397 9.52369E-05-2.85463E-05-2.85814E-05-4.36706E-07 8.46374E-20-3.90373E-19
 -1       398 9.54018E-05-2.85616E-05-2.86451E-05-5.07375E-07 2.37492E-19-1.61915E-19
 -1       399 9.55971E-05-2.85750E-05-2.87226E-05-6.40241E-07 2.44346E-19 7.52360E-19
 -1       400 9.58397E-05-2.85852E-05-2.88215E-05-8.56456E-07 2.57212E-19 3.37534E-19
 -1       401 9.61502E-05-2.85894E-05-2.89517E-05-1.18780E-06 4.11288E-19-1.69895E-19
 -1       402 9.65528E-05-2.85807E-05-2.91265E-05-1.68158E-06 1.13357E-19-1.01809E-18
 -1       403 9.70754E-05-2.85473E-05-2.93626E-05-2.40704E-06 5.98175E-19-1.50434E-18
 -1       404 9.77460E-05-2.84689E-05-2.96805E-05-3.46462E-06 8.01209E-19-7.59342E-19
 -1       405 9.85463E-05-2.83283E-05-3.00798E-05-4.89894E-06 3.32953E-19-2.91542E-20
 -1       406 9.95798E-05-2.80846E-05-3.06221E-05-7.02129E-06 4.15245E-21 5.21410E-19
 -1       407 1.00813E-04-2.77328E-05-3.12969E-05-9.96359E-06-9.48589E-19 1.63132E-18
 -1       408 1.02273E-04-2.73803E-05-3.20714E-05-1.38580E-05-1.26594E-18 1.85924E-18
 -1       409 1.04132E-04-2.74736E-05-3.28278E-05-1.86036E-05-7.40128E-20 2.54075E-18
 -1       410 1.07089E-04-2.92576E-05-3.33218E-05-2.34769E-05-4.59702E-19 2.20808E-18
 -1       411 1.13128E-04-3.53543E-05-3.32504E-05-2.65170E-05-7.91910E-19 3.00418E-18
 -1       412 1.26884E-04-4.94755E-05-3.29750E-05-2.37656E-05-1.54716E-18 3.33127E-18
 -1       413 1.49119E-04-6.71267E-05-3.50943E-05-8.61883E-06 6.85303E-19 2.57837E-18
 -1       414 1.78633E-04-6.18258E-05-5.03823E-05-2.39289E-05-8.72338E-19-2.18217E-18
 -1       415 1.57315E-04-6.86597E-05-3.80642E-05 2.03967E-07-2.00493E-18-1.51727E-18
 -1       416 1.33917E-04-5.32624E-05-3.44361E-05 1.91280E-05 4.97817E-19-2.71348E-18
 -1       417 1.18559E-04-3.86731E-05-3.41576E-05 2.57322E-05 1.94222E-19-2.23922E-18
 -1       418 1.10371E-04-3.12760E-05-3.38805E-05 2.44057E-05-1.17985E-18-1.04518E-18
 -1       419 1.05818E-04-2.85575E-05-3.30932E-05 2.01621E-05-5.23043E-19-1.66041E-18
 -1       420 1.02744E-04-2.78270E-05-3.20836E-05 1.55326E-05 6.98657E-19-2.77645E-18
 -1       421 1.00345E-04-2.76778E-05-3.11166E-05 1.15068E-05 3.05270E-18-1.57208E-18
 -1       422 9.83523E-05-2.75133E-05-3.03322E-05 8.22531E-06 1.80509E-19-1.88088E-18
 -1       423 9.66316E-05-2.71499E-05-2.97598E-05 5.41349E-06-9.23961E-19-3.39272E-18
 -1       424 1.98608E-05-2.67536E-05 2.81383E-06 1.83864E-05 1.57919E-19 5.55865E-19
 -1       425 9.18873E-05-2.17741E-05-3.00572E-05 4.36855E-06-2.69799E-19 1.67337E-18
 -1       426 9.35077E-05-2.36793E-05-2.99285E-05 5.78681E-06 4.46922E-20-1.28457E-19
 -1       427 9.11424E-05-2.08716E-05-3.01270E-05 1.94758E-06 5.63412E-19-5.09279E-20
 -1       428 9.12946E-05-2.10443E-05-3.01182E-05-7.31971E-07 2.54139E-18 3.91864E-19
 -1       429 9.21275E-05-2.21181E-05-3.00130E-05-2.90025E-06 3.15391E-18 1.65880E-18
 -1       430 9.32829E-05-2.37114E-05-2.98215E-05-4.13233E-06 1.40890E-18 1.11207E-19
 -1       431 9.44133E-05-2.54108E-05-2.95734E-05-4.36536E-06-8.47169E-20 1.28930E-18
 -1       432 9.52842E-05-2.68946E-05-2.93073E-05-3.80761E-06-6.81880E-19-9.43173E-19
 -1       433 9.57940E-05-2.79701E-05-2.90628E-05-2.81519E-06 1.56698E-18-4.21742E-18
 -1       434 9.59702E-05-2.86277E-05-2.88562E-05-1.69085E-06 2.04845E-18 9.38192E-19
 -1       435 9.58890E-05-2.89030E-05-2.87035E-05-7.18978E-07 2.11217E-18 1.39548E-18
 -1       436 9.56320E-05-2.88908E-05-2.86005E-05-4.66367E-08 6.12433E-19-1.44938E-18
 -1       437 6.05203E-05-4.31608E-05-7.38330E-06 3.87947E-05-6.65980E-19-5.96999E-19
 -1       438 9.91268E-06-2.52049E-05 6.21169E-06-1.11513E-05-7.41604E-19-2.93539E-18
 -1       439 8.93651E-05-1.18920E-05-3.32689E-05-1.06609E-05-2.27053E-18-1.94537E-18
 -1       440 1.88403E-04-4.93522E-05-5.94223E-05 2.04869E-05 2.36672E-18 4.63751E-20
 -1       441 1.76900E-04-6.81296E-05-4.66586E-05 9.61240E-06 3.24091E-18 1.60820E-18
 -1       442 1.39186E-04-7.08904E-05-2.94745E-05-2.25975E-05 9.54394E-19 2.44369E-19
 -1       443 8.39242E-05-5.29885E-05-1.34382E-05-3.91042E-05 1.78692E-18-1.69883E-19
 -1       444 3.99614E-05-3.24962E-05-3.04362E-06-3.17441E-05 1.22724E-18-9.97593E-19
 -1       445 1.09580E-05-2.24154E-05 4.75427E-06-2.07311E-06-1.57098E-19-7.37501E-18
 -1       446 1.54849E-05-2.66626E-05 4.47337E-06 2.57119E-05 6.27651E-19-6.58663E-18
 -1       447 4.16760E-05-3.55273E-05-2.83952E-06 4.53293E-05 1.45796E-19-4.27768E-18
 -1       448 8.07896E-05-4.75236E-05-1.43478E-05 5.14075E-05-1.33937E-19-1.19609E-18
 -1       449 1.23722E-04-5.25727E-05-3.04292E-05 4.11353E-05-1.01030E-18 1.10570E-18
 -1       450 1.49124E-04-4.72272E-05-4.37095E-05 2.42337E-05-1.18190E-18-3.72271E-19
 -1       451 1.58582E-04-2.81183E-05-5.62358E-05 6.75277E-07-1.05890E-18-3.98847E-19
 -1       452 1.69406E-04-1.60796E-05-6.55161E-05 1.27355E-06-3.29475E-18-5.43213E-19
 -1       453 1.65168E-04-1.03890E-05-6.62886E-05 4.50820E-07-3.78179E-18 1.36384E-18
 -1       454 1.64763E-04-2.18385E-05-6.12330E-05-9.56548E-07-3.01120E-18 1.01517E-18
 -1       455 1.62193E-04-3.75397E-05-5.32337E-05-1.13399E-05-9.22075E-19 2.26243E-18
 -1       456 1.40116E-04-5.20603E-05-3.77478E-05-3.17619E-05-1.04556E-18 1.95411E-18
 -1       457 1.12661E-04-5.66695E-05-2.38806E-05-4.54556E-05-1.52529E-18 5.39136E-19
 -1       458 6.18425E-05-4.21610E-05-8.46008E-06-5.07561E-05-5.98111E-19 4.13770E-18
 -1       459 2.61895E-05-3.06022E-05 1.68329E-06-3.60185E-05-2.49525E-18 5.94151E-18
 -1       460 1.55755E-04-7.15823E-05-3.63569E-05 1.44893E-05-1.33429E-18-4.55926E-18
 -1       461 1.92596E-04-3.90293E-05-6.53283E-05-1.62343E-05 6.04358E-19-1.69301E-19
 -1       462 1.51608E-04-4.18394E-05-4.73156E-05-1.06946E-06-5.82600E-20-1.82641E-20
 -1       463 8.95290E-05-1.33872E-05-3.26513E-05-3.94057E-06-1.18131E-18-2.66788E-18
 -1       464 9.02399E-05-1.43530E-05-3.25441E-05-5.89908E-06-1.52868E-18-2.54137E-18
 -1       465 8.90219E-05-1.26978E-05-3.27280E-05 3.50873E-08-3.19593E-19-2.88173E-18
 -1       466 8.91520E-05-1.28746E-05-3.27083E-05 2.02488E-06 1.15286E-19-2.83776E-18
 -1       467 8.95409E-05-1.34031E-05-3.26496E-05 3.97808E-06 6.17049E-19-2.81464E-18
 -1       468 9.02555E-05-1.43755E-05-3.25411E-05 5.93596E-06 1.22687E-18-2.54996E-18
 -1       469 9.14009E-05-1.59409E-05-3.23634E-05 7.76688E-06 1.65984E-18-2.33624E-18
 -1       470 9.30896E-05-1.83473E-05-3.20564E-05 9.20348E-06 2.15598E-18-1.78475E-18
 -1       471 9.52138E-05-2.22054E-05-3.13005E-05 8.68259E-06 2.35019E-18-9.15487E-19
 -1       472 9.54863E-05-2.44299E-05-3.04434E-05-5.83643E-06-1.93674E-18-2.35686E-19
 -1       473 9.52829E-05-2.62285E-05-2.95880E-05-2.89952E-06-1.39194E-18-7.99197E-20
 -1       474 9.49244E-05-2.71601E-05-2.90381E-05-1.03221E-06-1.06397E-18-4.96760E-20
 -1       475 9.46478E-05-2.76915E-05-2.86940E-05 9.38714E-08-9.01365E-19-1.41175E-19
 -1       476 9.44915E-05-2.80178E-05-2.84881E-05 7.32069E-07-8.11478E-19-6.04365E-19
 -1       477 9.44367E-05-2.82291E-05-2.83746E-05 1.05335E-06-8.99948E-19-5.94974E-19
 -1       478 9.44533E-05-2.83697E-05-2.83217E-05 1.17286E-06-7.20855E-19-7.79527E-19
 -1       479 9.45140E-05-2.84632E-05-2.83078E-05 1.16865E-06-6.13080E-19-7.45654E-19
 -1       480 9.45984E-05-2.85239E-05-2.83180E-05 1.09388E-06-7.91698E-19-1.93009E-19
 -1       481 9.46923E-05-2.85608E-05-2.83424E-05 9.84777E-07-7.88644E-19-1.09249E-20
 -1       482 9.47871E-05-2.85807E-05-2.83745E-05 8.65833E-07-6.32013E-20-2.22440E-19
 -1       483 9.48783E-05-2.85882E-05-2.84103E-05 7.53388E-07 1.46160E-19-2.73702E-19
 -1       484 9.49640E-05-2.85871E-05-2.84474E-05 6.58126E-07-2.40255E-19-3.76500E-19
 -1       485 9.50448E-05-2.85806E-05-2.84848E-05 5.86773E-07-4.45606E-19-1.28229E-19
 -1       486 9.51228E-05-2.85715E-05-2.85220E-05 5.43163E-07-6.35552E-19-7.42952E-19
 -1       487 9.52011E-05-2.85630E-05-2.85592E-05 5.28770E-07-2.81983E-19-1.12260E-18
 -1       488 9.52844E-05-2.85590E-05-2.85966E-05 5.42697E-07-4.62365E-19-9.94253E-19
 -1       489 9.53779E-05-2.85649E-05-2.86341E-05 5.81106E-07 2.58364E-20-6.83254E-19
 -1       490 9.54883E-05-2.85880E-05-2.86715E-05 6.36085E-07 7.32343E-20-9.94335E-19
 -1       491 9.56231E-05-2.86384E-05-2.87077E-05 6.93933E-07 1.05794E-18-4.94499E-19
 -1       492 9.57909E-05-2.87291E-05-2.87409E-05 7.32993E-07 5.23512E-19-6.51509E-19
 -1       493 9.60005E-05-2.88754E-05-2.87682E-05 7.21326E-07-3.53187E-19-8.76628E-19
 -1       494 9.62589E-05-2.90931E-05-2.87859E-05 6.14943E-07-6.99952E-19-1.15547E-18
 -1       495 9.65683E-05-2.93935E-05-2.87902E-05 3.57841E-07-6.45380E-19-1.71538E-18
 -1       496 9.69196E-05-2.97748E-05-2.87779E-05-1.14053E-07-8.94836E-20-1.18017E-18
 -1       497 9.72834E-05-3.02101E-05-2.87478E-05-8.62122E-07-2.77167E-19-4.16707E-19
 -1       498 9.75988E-05-3.06311E-05-2.87030E-05-1.92412E-06 4.38236E-19 2.43326E-19
 -1       499 9.77645E-05-3.09170E-05-2.86517E-05-3.28109E-06-5.78315E-19 6.07021E-19
 -1       500 9.76424E-05-3.08973E-05-2.86074E-05-4.81492E-06 4.30604E-19 1.13324E-18
 -1       501 9.70874E-05-3.03891E-05-2.85863E-05-6.27094E-06 9.13136E-19 1.15250E-18
 -1       502 9.60159E-05-2.92802E-05-2.86006E-05-7.25671E-06 1.08611E-19 1.51773E-18
 -1       503 9.44997E-05-2.76423E-05-2.86508E-05-7.31859E-06-3.75190E-20 1.61535E-18
 -1       504 9.28335E-05-2.58102E-05-2.87204E-05-6.11657E-06-5.13778E-19 1.66126E-18
 -1       505 9.14910E-05-2.43303E-05-2.87786E-05-3.64546E-06 3.62633E-19 1.59616E-18
 -1       506 9.09326E-05-2.37354E-05-2.87939E-05-3.58143E-07 1.51816E-18 3.15243E-19
 -1       507 9.13599E-05-2.42584E-05-2.87528E-05 2.94929E-06 2.09059E-19-4.38812E-19
 -1       508 9.25927E-05-2.56909E-05-2.86681E-05 5.46764E-06 5.94268E-19-7.61538E-19
 -1       509 9.41746E-05-2.75042E-05-2.85706E-05 6.71827E-06 6.64816E-19 1.29811E-18
 -1       510 9.56193E-05-2.91359E-05-2.84925E-05 6.68769E-06-8.25618E-20 3.51298E-18
 -1       511 9.66128E-05-3.02264E-05-2.84527E-05 5.71621E-06-5.18274E-19 2.15213E-18
 -1       512 9.70682E-05-3.06832E-05-2.84530E-05 4.27688E-06 1.11451E-18 1.43608E-18
 -1       513 9.70645E-05-3.06109E-05-2.84826E-05 2.79219E-06-5.18220E-20 1.09478E-18
 -1       514 9.67543E-05-3.02003E-05-2.85256E-05 1.54433E-06-5.06808E-19 4.68467E-19
 -1       515 9.62827E-05-2.96372E-05-2.85636E-05 6.87834E-07-1.38687E-18-1.38246E-18
 -1       516 9.54355E-05-2.50349E-05-3.01625E-05 4.92560E-06 1.97646E-18-8.76035E-19
 -1       517 9.46586E-05-2.76711E-05-2.87075E-05-5.04331E-08 6.78220E-19-7.20047E-19
 -1       518 9.44966E-05-2.80052E-05-2.84958E-05-7.07835E-07 5.81310E-19-9.80853E-19
 -1       519 9.44377E-05-2.82212E-05-2.83784E-05-1.04134E-06 4.04062E-19-8.53966E-19
 -1       520 9.44516E-05-2.83650E-05-2.83230E-05-1.16828E-06 2.01186E-19-5.70060E-19
 -1       521 9.45112E-05-2.84610E-05-2.83075E-05-1.16803E-06 4.68124E-19-9.79819E-19
 -1       522 9.45951E-05-2.85235E-05-2.83167E-05-1.09484E-06 6.00724E-19-1.14633E-18
 -1       523 9.46848E-05-2.85607E-05-2.83393E-05-9.91462E-07 5.07192E-19-8.78147E-19
 -1       524 9.47814E-05-2.85826E-05-2.83713E-05-8.71657E-07 3.28227E-19-2.51790E-20
 -1       525 9.48749E-05-2.85911E-05-2.84076E-05-7.57610E-07-8.56287E-20 1.92037E-19
 -1       526 9.49638E-05-2.85896E-05-2.84463E-05-6.61580E-07-1.50382E-19-1.03649E-19
 -1       527 9.50484E-05-2.85798E-05-2.84867E-05-5.92679E-07-4.17984E-19 1.24106E-20
 -1       528 9.51304E-05-2.85622E-05-2.85293E-05-5.58637E-07-4.21984E-19-3.35396E-19
 -1       529 9.52127E-05-2.85362E-05-2.85756E-05-5.67387E-07 9.18593E-20-5.63368E-19
 -1       530 9.52981E-05-2.84989E-05-2.86280E-05-6.28613E-07 1.44084E-19-4.67554E-19
 -1       531 9.53892E-05-2.84453E-05-2.86899E-05-7.55460E-07-1.00430E-20-4.13738E-19
 -1       532 9.54869E-05-2.83664E-05-2.87653E-05-9.66563E-07 5.71257E-19-6.88589E-19
 -1       533 9.55885E-05-2.82475E-05-2.88595E-05-1.28860E-06 5.97920E-19-1.14852E-18
 -1       534 9.56846E-05-2.80655E-05-2.89781E-05-1.75948E-06 3.17703E-19-7.63894E-19
 -1       535 9.57534E-05-2.77848E-05-2.91271E-05-2.43221E-06 6.26587E-19-8.63414E-19
 -1       536 9.57511E-05-2.73517E-05-2.93105E-05-3.37911E-06 3.37796E-19-5.85360E-19
 -1       537 9.56164E-05-2.67331E-05-2.95166E-05-4.61828E-06 2.64972E-19 3.42966E-19
 -1       538 9.52211E-05-2.57794E-05-2.97538E-05-6.38770E-06-4.36784E-19 1.42059E-18
 -1       539 9.43787E-05-2.44203E-05-2.99731E-05-8.76364E-06-4.54571E-19 1.72760E-18
 -1       540 9.28593E-05-2.26379E-05-3.00839E-05-1.18708E-05-8.88495E-19 1.06350E-18
 -1       541 9.04670E-05-2.06628E-05-2.98999E-05-1.58158E-05-4.70490E-19 7.82626E-19
 -1       542 8.73336E-05-1.93875E-05-2.90790E-05-2.07185E-05-3.61249E-19 1.30626E-18
 -1       543 8.47247E-05-2.11144E-05-2.71327E-05-2.67463E-05-1.36666E-18 1.53848E-18
 -1       544 8.65360E-05-3.05137E-05-2.35554E-05-3.33442E-05-9.84808E-19 1.83467E-18
 -1       545 2.21862E-05-1.04523E-05-4.33652E-06 4.28833E-06 7.09800E-19-9.97699E-19
 -1       546 1.19226E-04-6.04140E-05-2.50373E-05 3.06561E-05-9.03043E-19-2.83673E-18
 -1       547 8.90575E-05-2.08677E-05-2.91834E-05 2.36106E-05-8.00094E-19-1.92186E-18
 -1       548 9.12492E-05-2.12856E-05-2.99656E-05 1.85011E-05 1.06979E-20-1.65049E-18
 -1       549 9.30855E-05-2.27509E-05-3.01311E-05 1.42472E-05 1.80780E-19-3.52013E-19
 -1       550 9.41403E-05-2.40109E-05-3.00442E-05 1.07444E-05 2.85045E-18 9.86851E-19
 -1       551 9.36735E-05-2.39372E-05-2.98798E-05 8.13236E-06 5.34920E-19 1.87716E-18
 -1       552 5.00398E-05-2.33521E-05-1.07668E-05 3.23229E-05-4.25105E-19 8.17387E-20
 -1       553 9.02038E-05-2.18791E-05-2.92869E-05-3.20921E-06 3.76727E-18 1.62452E-18
 -1       554 2.51232E-05-1.49333E-05-3.72952E-06-2.50372E-05-1.43559E-18 3.34557E-18
 -1       555 9.21575E-05-2.39031E-05-2.92553E-05-5.38262E-06 1.55109E-18-2.42774E-18
 -1       556 9.42106E-05-2.60433E-05-2.92162E-05-6.11822E-06 3.18307E-19 2.20321E-19
 -1       557 9.58431E-05-2.78305E-05-2.91478E-05-5.62901E-06 1.08240E-18 1.05316E-18
 -1       558 9.68087E-05-2.90224E-05-2.90493E-05-4.39118E-06 2.07429E-18-2.36966E-18
 -1       559 9.71405E-05-2.96406E-05-2.89262E-05-2.83786E-06 2.60272E-18-2.74079E-18
 -1       560 9.69481E-05-2.97544E-05-2.87960E-05-1.38269E-06 1.51732E-18 1.64014E-18
 -1       561 9.64239E-05-2.95234E-05-2.86720E-05-2.86647E-07 3.30930E-19-1.51489E-18
 -1       562 7.91321E-05-4.06160E-05-1.60464E-05 3.85885E-05 2.05141E-19-1.80450E-18
 -1       563 5.07683E-05-2.96783E-05-8.56846E-06-4.56374E-05-1.03629E-18 4.76202E-18
 -1       564 9.49286E-05-2.71083E-05-2.90621E-05 1.11434E-06 9.90088E-19-8.35998E-19
 -1       565 8.93516E-05-2.05778E-05-2.94797E-05 3.91883E-06 5.84235E-19 1.68014E-18
 -1       566 1.38828E-04-9.12574E-06-5.62479E-05 7.46814E-06-3.66257E-18 1.76794E-18
 -1       567 1.14957E-04-5.76223E-05-2.43626E-05 4.24662E-05 1.11634E-18 1.56873E-18
 -1       568 9.10062E-05-2.17892E-05-2.96685E-05 6.66383E-06 1.37338E-18 2.08940E-18
 -1       569 8.90598E-05-2.05923E-05-2.93470E-05 1.30754E-07 2.23674E-18 3.53214E-18
 -1       570 8.83575E-05-2.42220E-05-2.73070E-05 2.90388E-05-1.22071E-18-1.89585E-18
 -1       571 9.70766E-05-3.75585E-05-2.51837E-05 3.37073E-05 3.97867E-19-3.23413E-18
 -1       572 8.91420E-05-1.28613E-05-3.27098E-05-1.95479E-06-6.85950E-19-2.83500E-18
 -1       573 9.52210E-05-2.63446E-05-2.95124E-05 2.66598E-06 1.52743E-18-8.58438E-19
 -1       574 1.42725E-04-1.56468E-05-5.50892E-05-8.54749E-06-2.44994E-18 1.07653E-19
 -1       575 1.12721E-04-5.70035E-05-2.35920E-05-3.19990E-05 1.06197E-19 1.41482E-18
 -1       576 7.48930E-05-3.81631E-05-1.53317E-05-3.81573E-05 5.03720E-19 4.86515E-20
 -1       577 3.22797E-05-1.37417E-05-7.19046E-06-1.85045E-05-9.50583E-19-3.94050E-18
 -1       578 2.01252E-05-1.06640E-05-3.41631E-06 1.37312E-05 4.71797E-19-6.24803E-18
 -1       579 3.42388E-05-2.06105E-05-5.29128E-06 3.72971E-05 2.59171E-18-4.95165E-18
 -1       580 7.09058E-05-3.93115E-05-1.31192E-05 5.06837E-05 2.05024E-18-1.17007E-18
 -1       581 1.40487E-04-5.97380E-05-3.47355E-05 1.90756E-05 5.89628E-19 7.13096E-20
 -1       582 1.35837E-04-6.09872E-05-3.21187E-05-2.48069E-05-1.49160E-18 1.22634E-19
 -1       583 1.38200E-04-5.31047E-06-5.76417E-05-3.28015E-06-4.27773E-18 1.79391E-18
 -1       584 1.44264E-04-3.06099E-05-4.93056E-05 9.75199E-06-3.49930E-19 1.12846E-18
 -1       585 1.48404E-04-5.05861E-05-4.22031E-05-3.92682E-06-3.52657E-19 7.66035E-20
 -1       586 9.60006E-05-5.06122E-05-1.90566E-05-4.78923E-05-4.61051E-19-2.81850E-19
 -1       587 9.46026E-05-2.07534E-05-3.16683E-05-9.44501E-06-2.39204E-18-4.48678E-19
 -1       588 9.13526E-05-1.58885E-05-3.23656E-05-7.71363E-06-1.79881E-18-2.05595E-18
 -1       589 9.59445E-05-2.92661E-05-2.85772E-05 3.32434E-07-3.40595E-19 4.04276E-19
 -1       590 1.40447E-04-2.75066E-05-4.88654E-05-1.10217E-05-7.27072E-19 4.36063E-19
 -1       591 9.27652E-05-1.79218E-05-3.20973E-05-8.89941E-06-2.12207E-18-1.38031E-18
 -1       592 1.20104E-04-5.82291E-05-2.63984E-05-3.31323E-05 7.55183E-20 3.09319E-19
 -1       593 5.73453E-05-1.97453E-05-1.56233E-05-2.96105E-05-7.20296E-19-1.84420E-18
 -1       594 9.15257E-05-1.68141E-05-3.20247E-05 2.42795E-06 3.31740E-19-2.49113E-18
 -1       595 9.12712E-05-1.64191E-05-3.20848E-05 8.26713E-07-3.98410E-20-2.47262E-18
 -1       596 9.28688E-05-1.89496E-05-3.16849E-05 5.27296E-06 1.28383E-18-2.17937E-18
 -1       597 9.39224E-05-2.08091E-05-3.13342E-05 6.20503E-06 1.66853E-18-1.71512E-18
 -1       598 9.49087E-05-2.30035E-05-3.08135E-05 5.84162E-06 1.94902E-18-1.25793E-18
 -1       599 9.50392E-05-2.36700E-05-3.05882E-05-4.73226E-06-1.57046E-18-8.79825E-19
 -1       600 9.20484E-05-1.76347E-05-3.18971E-05 3.94249E-06 7.97792E-19-2.25649E-18
 -1       601 9.54207E-05-2.57041E-05-2.98771E-05-2.43939E-06-1.27512E-18-9.86935E-19
 -1       602 9.54764E-05-2.69408E-05-2.93718E-05-8.67088E-07-1.17387E-18-1.09363E-18
 -1       603 9.54205E-05-2.77010E-05-2.90224E-05 1.37744E-07-9.94844E-19-1.08593E-18
 -1       604 9.53438E-05-2.81724E-05-2.87877E-05 7.29329E-07-8.95966E-19-1.15675E-18
 -1       605 9.52790E-05-2.84624E-05-2.86357E-05 1.03520E-06-8.24880E-19-1.14369E-18
 -1       606 9.52335E-05-2.86347E-05-2.85424E-05 1.15215E-06-5.61785E-19-5.36087E-19
 -1       607 9.52058E-05-2.87288E-05-2.84903E-05 1.15078E-06-3.84307E-19-3.83164E-19
 -1       608 9.51916E-05-2.87703E-05-2.84664E-05 1.08145E-06-5.74805E-19 2.34714E-21
 -1       609 9.51869E-05-2.87768E-05-2.84616E-05 9.79492E-07-9.50042E-19 8.94578E-20
 -1       610 9.51885E-05-2.87600E-05-2.84695E-05 8.69279E-07-1.75886E-19-4.22866E-19
 -1       611 9.51944E-05-2.87283E-05-2.84855E-05 7.67328E-07-2.01567E-19-7.40829E-19
 -1       612 9.52032E-05-2.86874E-05-2.85069E-05 6.84627E-07-1.92706E-20-1.21959E-18
 -1       613 9.52151E-05-2.86417E-05-2.85315E-05 6.28219E-07-6.74029E-19-1.09528E-18
 -1       614 9.52309E-05-2.85953E-05-2.85581E-05 6.02215E-07-6.74874E-19-9.54241E-19
 -1       615 9.52530E-05-2.85527E-05-2.85858E-05 6.08271E-07-1.23481E-20-1.03848E-18
 -1       616 9.52856E-05-2.85199E-05-2.86139E-05 6.45475E-07 3.80267E-19-5.59324E-19
 -1       617 9.53357E-05-2.85058E-05-2.86413E-05 7.09666E-07 8.74221E-20-6.14564E-19
 -1       618 9.54135E-05-2.85237E-05-2.86670E-05 7.92103E-07 5.62744E-19-5.90546E-19
 -1       619 9.55340E-05-2.85919E-05-2.86894E-05 8.77492E-07 5.10636E-19-1.52703E-18
 -1       620 9.57173E-05-2.87346E-05-2.87069E-05 9.41398E-07-3.07381E-19-1.71721E-18
 -1       621 9.59891E-05-2.89806E-05-2.87180E-05 9.47283E-07-6.38131E-19-9.43838E-19
 -1       622 9.63781E-05-2.93599E-05-2.87223E-05 8.43809E-07-8.74604E-19-3.75562E-19
 -1       623 9.69105E-05-2.98942E-05-2.87217E-05 5.63736E-07-1.89551E-19 3.03325E-20
 -1       624 9.75987E-05-3.05818E-05-2.87222E-05 2.69150E-08 5.23637E-19 3.35371E-19
 -1       625 9.84215E-05-3.13736E-05-2.87357E-05-8.48349E-07 7.00031E-19 1.27005E-18
 -1       626 9.92999E-05-3.21453E-05-2.87816E-05-2.11946E-06 3.28416E-19 1.61311E-18
 -1       627 1.00073E-04-3.26754E-05-2.88855E-05-3.77331E-06 1.32633E-20 2.25490E-18
 -1       628 1.00495E-04-3.26557E-05-2.90745E-05-5.65899E-06 1.12475E-18 1.82044E-18
 -1       629 1.00292E-04-3.17707E-05-2.93658E-05-7.42033E-06 2.67606E-19 2.38321E-18
 -1       630 9.92913E-05-2.98690E-05-2.97509E-05-8.48597E-06-7.20159E-19 1.07812E-18
 -1       631 9.76090E-05-2.71836E-05-3.01805E-05-8.20314E-06-3.38221E-19 1.55325E-18
 -1       632 9.57603E-05-2.44428E-05-3.05637E-05-6.15698E-06-9.34138E-19 5.68306E-19
 -1       633 9.45120E-05-2.26631E-05-3.07926E-05-2.54523E-06 3.38180E-19-6.40195E-19
 -1       634 9.44605E-05-2.26136E-05-3.07908E-05 1.72320E-06 7.03066E-19-1.89149E-18
 -1       635 9.56296E-05-2.43238E-05-3.05576E-05 5.39660E-06-4.48310E-19-2.17213E-18
 -1       636 9.74456E-05-2.70525E-05-3.01662E-05 7.52103E-06 1.18775E-18-3.48214E-18
 -1       637 9.91268E-05-2.97672E-05-2.97243E-05 7.85583E-06 1.39400E-18-4.08548E-18
 -1       638 1.00124E-04-3.16965E-05-2.93261E-05 6.80243E-06 2.69723E-21-2.37740E-18
 -1       639 1.00288E-04-3.25649E-05-2.90251E-05 5.02858E-06 3.14247E-19-4.73777E-19
 -1       640 9.97758E-05-3.25003E-05-2.88334E-05 3.14168E-06-1.24076E-19-9.62562E-19
 -1       641 9.88507E-05-3.18103E-05-2.87328E-05 1.54426E-06-1.03094E-18-4.60369E-19
 -1       642 9.77915E-05-3.08297E-05-2.86939E-05 4.11591E-07-1.87315E-18-8.86001E-19
 -1       643 9.53478E-05-2.81547E-05-2.87970E-05-7.06439E-07 3.57588E-19-9.95317E-19
 -1       644 9.61413E-05-2.88798E-05-2.88264E-05-7.69315E-06 1.05625E-18 6.44221E-19
 -1       645 9.54242E-05-2.76718E-05-2.90365E-05-9.73367E-08 8.27055E-19-1.06986E-18
 -1       646 8.34660E-05-1.72103E-05-2.83931E-05 1.24687E-05 5.51313E-19-1.62024E-18
 -1       647 9.52373E-05-2.86303E-05-2.85459E-05-1.14783E-06 4.56494E-19-3.85845E-19
 -1       648 9.52098E-05-2.87283E-05-2.84922E-05-1.15041E-06 6.31884E-19-4.17202E-19
 -1       649 9.51968E-05-2.87716E-05-2.84681E-05-1.08730E-06 3.97694E-19 3.55911E-20
 -1       650 9.51936E-05-2.87819E-05-2.84623E-05-9.86925E-07 2.66062E-19-2.20126E-19
 -1       651 9.51970E-05-2.87671E-05-2.84701E-05-8.76751E-07-1.83114E-20-3.99177E-19
 -1       652 9.52051E-05-2.87351E-05-2.84872E-05-7.74764E-07-1.47649E-19-2.45155E-20
 -1       653 9.52158E-05-2.86901E-05-2.85111E-05-6.93830E-07-5.92329E-19 1.16135E-19
 -1       654 9.52275E-05-2.86335E-05-2.85403E-05-6.43808E-07-4.94245E-19 3.13589E-20
 -1       655 9.52382E-05-2.85641E-05-2.85746E-05-6.33275E-07 1.13768E-19-7.24071E-20
 -1       656 9.52449E-05-2.84775E-05-2.86146E-05-6.70969E-07 1.02157E-19 1.06317E-19
 -1       657 9.52422E-05-2.83657E-05-2.86613E-05-7.67156E-07 1.84353E-19 2.78375E-19
 -1       658 9.52207E-05-2.82158E-05-2.87163E-05-9.34910E-07 8.30451E-19 3.29953E-19
 -1       659 9.51643E-05-2.80075E-05-2.87813E-05-1.19137E-06 5.37883E-19 1.53153E-19
 -1       660 9.50451E-05-2.77105E-05-2.88574E-05-1.55887E-06 1.40337E-19 3.06438E-19
 -1       661 9.48175E-05-2.72800E-05-2.89441E-05-2.06579E-06 5.98411E-19 2.26617E-19
 -1       662 9.44057E-05-2.66509E-05-2.90369E-05-2.74573E-06 3.59212E-19 2.92562E-19
 -1       663 9.37397E-05-2.57899E-05-2.91203E-05-3.58762E-06 2.80806E-19 5.66115E-19
 -1       664 9.25843E-05-2.45016E-05-2.91768E-05-4.71392E-06 5.79910E-19-4.19565E-19
 -1       665 9.07042E-05-2.26901E-05-2.91471E-05-6.11441E-06-8.48543E-19-3.60652E-19
 -1       666 8.77531E-05-2.02524E-05-2.89272E-05-7.80097E-06-6.60395E-19 2.41214E-20
 -1       667 8.32823E-05-1.71864E-05-2.83248E-05-9.78006E-06-3.78868E-19-5.56631E-19
 -1       668 7.67980E-05-1.37965E-05-2.69841E-05-1.21694E-05-9.36807E-20 4.41320E-19
 -1       669 6.81929E-05-1.11010E-05-2.43393E-05-1.55443E-05-3.61729E-19-1.29856E-18
 -1       670 4.63132E-05-9.53706E-06-1.52226E-05 1.74399E-05-5.04567E-19 3.84447E-19
 -1       671 9.20277E-05-1.76058E-05-3.19009E-05-3.91005E-06-1.08597E-18-2.32770E-18
 -1       672 8.79660E-05-1.99173E-05-2.91611E-05 1.00726E-05-1.04888E-19-1.23509E-18
 -1       673 7.70018E-05-1.42459E-05-2.68612E-05 1.54587E-05-5.78025E-19-1.71340E-18
 -1       674 8.96955E-05-2.10412E-05-2.94158E-05 8.25193E-06 9.81157E-19 1.81054E-18
 -1       675 9.32409E-05-2.63364E-05-2.86754E-05-8.08311E-06 1.79232E-18-2.19232E-18
 -1       676 1.26361E-04-1.78949E-05-4.69665E-05 1.27447E-05-1.71739E-18 1.70935E-18
 -1       677 8.98176E-05-2.32697E-05-2.85211E-05-6.67096E-06 9.59595E-19-1.59310E-18
 -1       678 9.79770E-05-3.05007E-05-2.89167E-05-6.15752E-06 2.08482E-18 5.59805E-19
 -1       679 9.87247E-05-3.12203E-05-2.89291E-05-4.09815E-06 2.58609E-18-3.33437E-18
 -1       680 9.85580E-05-3.11995E-05-2.88663E-05-2.08167E-06 1.98375E-18-2.10203E-18
 -1       681 9.92815E-05-4.90202E-05-2.12463E-05 4.34364E-05 2.60314E-18 1.20975E-18
 -1       682 9.54801E-05-2.68928E-05-2.93947E-05 9.35163E-07 9.47664E-19-8.88370E-19
 -1       683 9.70599E-05-3.01381E-05-2.86800E-05-1.55474E-08-3.97378E-19-8.41844E-19
 -1       684 6.82652E-05-1.20778E-05-2.39077E-05 1.96515E-05-1.43182E-18-5.70602E-19
 -1       685 3.42929E-05-6.25804E-06-1.13416E-05-1.41580E-06 6.94554E-19-4.56646E-18
 -1       686 7.73917E-05-3.56330E-05-1.74623E-05-4.34071E-05-1.36798E-18 6.53936E-19
 -1       687 9.52828E-05-2.84525E-05-2.86416E-05-1.02378E-06 1.53906E-19-6.69980E-19
 -1       688 1.20629E-04-5.80310E-06-4.97498E-05 2.53218E-06-3.84230E-18 2.62381E-18
 -1       689 1.25934E-04-5.86617E-05-2.87606E-05 2.74920E-05 1.23017E-18 8.64702E-20
 -1       690 3.95833E-05-1.00560E-05-1.21553E-05 2.40900E-05 1.95851E-18-3.09771E-18
 -1       691 1.38618E-04-4.90636E-05-3.87191E-05-2.10096E-06-7.25100E-19-5.03892E-19
 -1       692 1.25963E-04-1.00342E-05-5.02793E-05-8.58244E-06-4.70384E-18 3.71233E-18
 -1       693 6.21831E-05-2.57786E-05-1.51729E-05 4.09676E-05 3.67048E-18-1.84497E-18
 -1       694 4.58443E-05-1.75076E-05-1.15951E-05-3.34841E-05-1.19114E-21 4.81660E-18
 -1       695 3.22041E-05-7.55010E-06-9.95422E-06-1.13128E-05-5.12981E-19 1.80084E-18
 -1       696 9.41999E-05-2.12041E-05-3.12814E-05-6.74983E-06-1.87403E-18-1.10890E-18
 -1       697 9.12688E-05-1.64155E-05-3.20853E-05-7.97589E-07-5.49362E-19-2.60740E-18
 -1       698 9.52693E-05-2.49965E-05-3.01154E-05 3.52768E-06 1.40117E-18-1.11483E-18
 -1       699 8.57520E-05-1.90207E-05-2.86069E-05 1.57856E-06 7.60672E-20 4.91238E-18
 -1       700 7.29084E-05-2.30510E-05-2.09167E-05 3.18967E-05-4.47326E-19-1.38313E-18
 -1       701 4.89484E-05-9.15222E-06-1.65884E-05-1.67992E-05 3.15811E-19-3.32757E-18
 -1       702 9.54162E-05-2.61109E-05-2.97035E-05 2.05640E-06 1.17125E-18-8.98787E-19
 -1       703 1.00878E-04-4.66096E-05-2.30897E-05-3.70328E-05-3.36457E-19 5.26160E-19
 -1       704 8.69623E-05-2.05380E-05-2.84678E-05-3.22021E-06 1.87799E-18 3.13567E-18
 -1       705 1.32436E-04-3.47462E-05-4.22121E-05 1.23712E-05 8.94215E-19 2.50476E-18
 -1       706 9.15163E-05-1.68002E-05-3.20267E-05-2.39294E-06-7.94937E-19-2.30217E-18
 -1       707 1.26695E-04-1.90643E-05-4.65050E-05-1.28622E-05-2.43554E-18 2.73826E-18
 -1       708 1.33001E-04-5.45766E-05-3.36912E-05 7.44490E-06 8.92142E-19-1.54440E-18
 -1       709 1.33311E-04-5.79376E-05-3.23305E-05-1.44757E-05-3.91131E-19-1.58723E-18
 -1       710 1.38665E-04-5.02050E-05-3.81264E-05 1.70815E-06 8.11286E-19-1.56900E-19
 -1       711 9.28511E-05-1.89265E-05-3.16844E-05-5.23591E-06-1.48801E-18-2.06845E-18
 -1       712 8.71183E-05-1.95047E-05-2.89767E-05 5.31686E-06-9.99295E-19 1.99511E-19
 -1       713 9.49490E-05-2.34887E-05-3.06237E-05 4.09041E-06 1.33036E-18-1.43749E-18
 -1       714 1.19377E-04-2.47445E-05-4.07480E-05 1.30956E-05-3.80185E-19-3.90409E-19
 -1       715 9.59556E-05-2.77306E-05-2.92392E-05-1.91623E-07 5.49013E-19-5.93126E-19
 -1       716 9.55665E-05-2.54954E-05-3.00300E-05-1.80856E-06-1.21081E-18-1.43526E-18
 -1       717 9.58641E-05-2.68766E-05-2.95662E-05-5.82164E-07-9.21917E-19-1.24013E-18
 -1       718 9.59566E-05-2.77648E-05-2.92251E-05 2.23250E-07-8.62978E-19-8.91717E-19
 -1       719 9.59447E-05-2.83253E-05-2.89798E-05 7.04915E-07-6.65597E-19-6.31775E-19
 -1       720 9.58832E-05-2.86648E-05-2.88079E-05 9.54340E-07-3.91003E-19-5.27149E-19
 -1       721 9.58012E-05-2.88547E-05-2.86914E-05 1.04677E-06-1.84497E-19-7.69151E-19
 -1       722 9.57140E-05-2.89437E-05-2.86159E-05 1.04007E-06 2.08263E-20-2.26628E-20
 -1       723 9.56295E-05-2.89652E-05-2.85704E-05 9.76998E-07-5.71703E-19 3.40814E-19
 -1       724 9.55513E-05-2.89424E-05-2.85467E-05 8.88213E-07-7.79441E-19 7.40524E-19
 -1       725 9.54808E-05-2.88911E-05-2.85384E-05 7.95180E-07-5.05636E-19-1.07708E-19
 -1       726 9.54179E-05-2.88222E-05-2.85410E-05 7.12772E-07-6.20893E-19-7.65386E-19
 -1       727 9.53623E-05-2.87431E-05-2.85511E-05 6.51129E-07-5.64285E-19-9.82199E-19
 -1       728 9.53136E-05-2.86595E-05-2.85661E-05 6.17031E-07-5.35509E-19-1.30723E-18
 -1       729 9.52725E-05-2.85765E-05-2.85840E-05 6.14865E-07-6.41144E-19-7.34063E-19
 -1       730 9.52413E-05-2.85003E-05-2.86033E-05 6.47038E-07 7.51456E-19-4.93330E-19
 -1       731 9.52254E-05-2.84402E-05-2.86222E-05 7.13870E-07 4.30492E-19-2.50852E-19
 -1       732 9.52349E-05-2.84099E-05-2.86393E-05 8.12934E-07 4.88013E-20-7.15307E-19
 -1       733 9.52863E-05-2.84297E-05-2.86529E-05 9.37700E-07-1.11091E-19-1.16652E-18
 -1       734 9.54050E-05-2.85285E-05-2.86614E-05 1.07534E-06 5.35954E-19-1.35324E-18
 -1       735 9.56267E-05-2.87441E-05-2.86640E-05 1.20352E-06 7.29575E-19-5.41903E-19
 -1       736 9.59988E-05-2.91223E-05-2.86614E-05 1.28603E-06-4.23200E-19 4.59969E-19
 -1       737 9.65772E-05-2.97099E-05-2.86575E-05 1.26756E-06-6.64241E-19 6.90414E-19
 -1       738 9.74179E-05-3.05418E-05-2.86614E-05 1.06866E-06 4.57067E-19 1.04506E-18
 -1       739 9.85581E-05-3.16152E-05-2.86901E-05 5.83731E-07 7.58694E-19 2.32564E-18
 -1       740 9.99832E-05-3.28511E-05-2.87713E-05-3.10945E-07 6.88931E-19 2.74552E-18
 -1       741 1.01581E-04-3.40457E-05-2.89440E-05-1.72707E-06 1.45867E-19 3.53746E-18
 -1       742 1.03092E-04-3.48304E-05-2.92553E-05-3.69665E-06 5.28233E-19 4.54646E-18
 -1       743 1.04101E-04-3.46887E-05-2.97477E-05-6.05165E-06 2.65737E-19 2.41981E-18
 -1       744 1.04129E-04-3.31083E-05-3.04357E-05-8.28717E-06-6.45600E-19 2.02115E-18
 -1       745 1.02894E-04-2.99195E-05-3.12731E-05-9.52088E-06-8.08648E-19 2.86853E-18
 -1       746 1.00677E-04-2.57172E-05-3.21261E-05-8.75261E-06-1.55172E-18 8.01453E-19
 -1       747 9.84608E-05-2.19745E-05-3.27848E-05-5.49912E-06-9.14177E-19 8.45932E-19
 -1       748 9.74871E-05-2.04000E-05-3.30415E-05-4.49804E-07-9.89053E-19-1.05460E-18
 -1       749 9.83731E-05-2.18250E-05-3.28074E-05 4.65717E-06-7.87796E-19-2.82851E-18
 -1       750 1.00593E-04-2.55406E-05-3.21629E-05 8.03070E-06 5.26118E-19-2.20797E-18
 -1       751 1.02885E-04-2.98126E-05-3.13158E-05 8.89757E-06 1.30445E-18-2.49858E-18
 -1       752 1.04205E-04-3.30941E-05-3.04765E-05 7.69337E-06 1.93338E-18-3.18163E-18
 -1       753 1.04229E-04-3.47291E-05-2.97863E-05 5.41609E-06 1.47167E-18-3.83211E-18
 -1       754 1.03191E-04-3.48236E-05-2.93012E-05 2.99816E-06 3.33649E-19-3.53937E-18
 -1       755 1.01572E-04-3.38878E-05-2.90074E-05 1.00357E-06-3.15715E-19-3.73543E-18
 -1       756 9.97684E-05-3.24371E-05-2.88588E-05-3.69289E-07-1.83703E-18-3.45068E-18
 -1       757 1.00696E-04-3.32917E-05-2.88852E-05-5.56531E-06-1.08239E-19-5.14056E-19
 -1       758 4.75187E-05-4.93835E-06-1.79213E-05-9.40773E-07 1.86946E-19-3.18516E-18
 -1       759 9.58091E-05-2.88512E-05-2.86963E-05-1.04401E-06 3.44800E-19-1.04682E-19
 -1       760 9.55683E-05-2.89512E-05-2.85502E-05-8.97097E-07 3.23949E-19 3.86262E-19
 -1       761 9.54992E-05-2.89009E-05-2.85422E-05-8.04891E-07-2.38342E-19-1.00461E-20
 -1       762 9.54368E-05-2.88288E-05-2.85463E-05-7.23486E-07-3.95433E-19 2.79402E-19
 -1       763 9.53787E-05-2.87393E-05-2.85598E-05-6.64478E-07-2.91992E-19-1.59116E-19
 -1       764 9.53208E-05-2.86329E-05-2.85805E-05-6.36879E-07-3.03707E-19-2.19832E-19
 -1       765 9.52569E-05-2.85059E-05-2.86076E-05-6.48184E-07 8.97182E-21 6.00211E-19
 -1       766 9.51776E-05-2.83503E-05-2.86403E-05-7.05465E-07-2.87704E-19 7.08616E-19
 -1       767 9.50686E-05-2.81525E-05-2.86783E-05-8.15987E-07 3.29745E-19 6.99687E-19
 -1       768 9.49081E-05-2.78921E-05-2.87211E-05-9.87350E-07 5.64758E-19 1.11830E-18
 -1       769 9.46628E-05-2.75394E-05-2.87671E-05-1.22698E-06 6.20566E-19 6.06370E-19
 -1       770 9.42815E-05-2.70517E-05-2.88128E-05-1.54064E-06 1.00779E-18 1.31352E-19
 -1       771 9.36859E-05-2.63693E-05-2.88498E-05-1.92804E-06 2.35688E-20 1.18373E-19
 -1       772 9.28186E-05-2.54700E-05-2.88637E-05-2.35671E-06 4.26244E-20 1.26153E-19
 -1       773 9.14317E-05-2.41665E-05-2.88279E-05-2.84194E-06 1.01230E-18 1.05905E-19
 -1       774 8.93207E-05-2.23804E-05-2.86889E-05-3.29750E-06 2.51995E-19 5.29368E-19
 -1       775 8.61608E-05-2.00014E-05-2.83550E-05-3.61247E-06-3.62654E-19-4.91976E-19
 -1       776 8.15158E-05-1.69714E-05-2.76651E-05-3.63262E-06 9.30998E-20-1.07629E-18
 -1       777 7.47923E-05-1.33681E-05-2.63243E-05-3.14912E-06-3.83432E-19-2.18255E-18
 -1       778 6.51574E-05-9.38415E-06-2.38516E-05-1.77856E-06 3.72093E-19-2.39221E-18
 -1       779 9.58543E-05-2.68225E-05-2.95851E-05 6.35011E-07 6.96232E-19-1.05705E-18
 -1       780 6.60999E-05-2.21019E-05-1.85533E-05-3.17571E-05 1.05802E-18 4.59276E-18
 -1       781 9.59588E-05-2.98624E-05-2.83286E-05-1.03594E-05 2.24655E-18-2.29732E-18
 -1       782 8.15120E-05-1.64486E-05-2.78861E-05 5.69850E-06-3.24802E-19 1.01517E-18
 -1       783 7.46264E-05-1.31910E-05-2.62685E-05 5.41499E-06 4.29628E-19-9.99413E-19
 -1       784 8.78199E-05-3.66022E-05-2.17127E-05 3.67921E-05 2.75998E-18-9.59807E-19
 -1       785 9.11563E-05-2.60573E-05-2.79026E-05-1.06130E-05 9.69480E-19-1.00643E-18
 -1       786 9.49188E-05-2.34284E-05-3.06404E-05-3.51952E-06-1.40912E-18-1.51261E-18
 -1       787 1.00707E-04-3.31815E-05-2.89399E-05-2.83299E-06 1.33801E-18-3.89344E-18
 -1       788 9.59477E-05-2.83045E-05-2.89899E-05-6.86634E-07 8.66319E-20-8.00116E-19
 -1       789 6.39165E-05-9.20444E-06-2.33980E-05 4.53826E-06-8.84785E-20-5.93585E-20
 -1       790 9.34665E-05-1.99244E-05-3.15180E-05-6.10679E-06-1.59653E-18-1.72439E-18
 -1       791 8.58050E-05-2.15727E-05-2.75422E-05-8.16848E-06 2.06433E-19 2.49014E-18
 -1       792 9.92102E-05-3.22905E-05-2.86753E-05-8.34243E-06 1.15415E-18 1.14723E-18
 -1       793 8.23086E-05-1.81206E-05-2.74802E-05-2.95595E-06-2.22792E-18 4.30719E-18
 -1       794 9.58891E-05-2.86540E-05-2.88150E-05-9.45740E-07 1.57688E-19-7.25881E-19
 -1       795 1.13077E-04-1.22465E-05-4.34728E-05 7.40357E-06-2.22142E-18 8.43840E-19
 -1       796 1.20056E-04-5.41435E-05-2.82370E-05-2.29821E-05 4.61203E-19-1.52739E-18
 -1       797 1.09637E-04-4.94618E-05-2.56543E-05 3.05219E-05 1.18861E-18-8.18058E-19
 -1       798 9.57276E-05-2.89419E-05-2.86225E-05-1.04288E-06 1.17910E-19 2.20309E-19
 -1       799 1.12850E-04-1.02530E-05-4.42513E-05-4.99741E-06-3.68044E-18 1.62919E-18
 -1       800 9.56449E-05-2.89701E-05-2.85749E-05-9.84003E-07 6.05951E-19 4.14742E-19
 -1       801 4.70706E-05-6.10363E-06-1.72155E-05-7.02649E-08-1.55308E-19 6.56186E-20
 -1       802 1.31236E-04-3.88919E-05-3.98224E-05-1.01955E-05-8.16196E-19 4.06589E-19
 -1       803 9.31813E-05-1.97476E-05-3.14727E-05 1.22696E-06 1.17406E-20-2.23217E-18
 -1       804 5.88768E-05-1.62963E-05-1.78928E-05 2.84882E-05 2.56124E-18-1.91051E-18
 -1       805 5.02278E-05-1.04189E-05-1.67023E-05-1.83284E-05 4.47879E-19 3.20496E-18
 -1       806 8.49998E-05-3.31725E-05-2.20675E-05-3.32653E-05-2.29255E-19-1.64807E-19
 -1       807 1.24540E-04-3.74270E-05-3.74537E-05 1.09206E-05 2.38253E-18 1.01165E-18
 -1       808 9.40206E-05-2.13222E-05-3.11576E-05 3.34425E-06 7.63375E-19-1.87706E-18
 -1       809 1.21573E-04-5.23944E-05-2.96574E-05 1.58565E-05 1.30919E-18-1.91380E-18
 -1       810 9.34938E-05-2.03263E-05-3.13583E-05 2.36103E-06 4.68499E-19-1.81975E-18
 -1       811 9.55839E-05-2.54398E-05-3.00590E-05 1.90650E-06 9.52784E-19-1.38936E-18
 -1       812 9.34820E-05-2.03101E-05-3.13612E-05-2.33251E-06-7.65166E-19-2.22730E-18
 -1       813 1.13857E-04-1.56147E-05-4.23043E-05-9.99279E-06-4.34947E-18 1.15146E-18
 -1       814 1.30524E-04-4.74922E-05-3.56815E-05-3.02732E-06-7.65142E-20 1.46784E-18
 -1       815 1.29760E-04-5.12293E-05-3.36854E-05-1.84671E-06-3.93770E-19-7.24293E-19
 -1       816 9.39789E-05-2.12833E-05-3.11582E-05-3.27623E-06-1.10864E-18-1.70786E-18
 -1       817 9.30737E-05-1.95531E-05-3.15099E-05 1.15164E-08-3.30824E-19-2.17228E-18
 -1       818 6.33843E-05-1.06331E-05-2.24933E-05-6.71351E-06 3.40670E-19 1.12875E-18
 -1       819 9.49293E-05-2.32444E-05-3.07249E-05 1.88120E-06 3.57183E-19-1.55835E-18
 -1       820 7.56914E-05-1.54547E-05-2.57754E-05-6.85085E-06-1.24839E-18 4.73544E-18
 -1       821 6.89477E-05-1.50662E-05-2.30030E-05 1.68144E-05 2.14403E-19-5.02410E-19
 -1       822 9.61891E-05-2.69815E-05-2.96606E-05-2.89015E-07-6.83313E-19-1.10435E-18
 -1       823 9.63557E-05-2.79111E-05-2.93335E-05 2.96597E-07-5.39834E-19-7.99376E-19
 -1       824 9.63748E-05-2.85014E-05-2.90886E-05 6.45198E-07-5.91798E-19-6.09693E-19
 -1       825 9.63086E-05-2.88529E-05-2.89096E-05 8.21360E-07-4.60254E-19-6.12408E-19
 -1       826 9.61970E-05-2.90385E-05-2.87822E-05 8.80151E-07-3.06087E-20-7.79815E-19
 -1       827 9.60650E-05-2.91107E-05-2.86947E-05 8.65365E-07-2.12237E-19-1.32344E-18
 -1       828 9.59280E-05-2.91072E-05-2.86375E-05 8.10140E-07-7.22269E-19-1.29247E-18
 -1       829 9.57944E-05-2.90543E-05-2.86029E-05 7.38354E-07-9.01085E-19-1.29698E-18
 -1       830 9.56681E-05-2.89697E-05-2.85850E-05 6.67155E-07-7.18560E-19-1.21540E-18
 -1       831 9.55506E-05-2.88657E-05-2.85792E-05 6.08842E-07-7.71792E-19-1.45016E-18
 -1       832 9.54415E-05-2.87506E-05-2.85818E-05 5.72100E-07-5.15282E-19-1.21780E-18
 -1       833 9.53404E-05-2.86306E-05-2.85899E-05 5.63418E-07 2.35289E-19-1.05403E-18
 -1       834 9.52474E-05-2.85119E-05-2.86009E-05 5.87974E-07 1.09068E-19 1.59883E-19
 -1       835 9.51655E-05-2.84027E-05-2.86127E-05 6.50050E-07 7.10320E-19-2.99871E-19
 -1       836 9.51017E-05-2.83150E-05-2.86229E-05 7.53122E-07-3.68517E-19-1.05206E-18
 -1       837 9.50699E-05-2.82678E-05-2.86295E-05 8.99423E-07 2.42241E-20-1.80693E-18
 -1       838 9.50939E-05-2.82894E-05-2.86305E-05 1.08872E-06 3.85250E-19-1.09775E-18
 -1       839 9.52108E-05-2.84202E-05-2.86245E-05 1.31592E-06 8.75233E-19-9.36918E-19
 -1       840 9.54748E-05-2.87141E-05-2.86117E-05 1.56686E-06 5.23055E-19-1.38412E-18
 -1       841 9.59589E-05-2.92368E-05-2.85952E-05 1.81154E-06 1.73211E-19-3.17453E-19
 -1       842 9.67533E-05-3.00586E-05-2.85834E-05 1.99406E-06-1.01447E-20 1.05329E-18
 -1       843 9.79541E-05-3.12353E-05-2.85938E-05 2.01971E-06 1.43107E-18 6.09963E-19
 -1       844 9.96384E-05-3.27729E-05-2.86568E-05 1.74148E-06 1.09949E-18 1.49851E-18
 -1       845 1.01810E-04-3.45629E-05-2.88201E-05 9.58574E-07 1.30830E-18 2.29538E-18
 -1       846 1.04324E-04-3.63061E-05-2.91507E-05-5.54090E-07 5.94409E-19 1.35338E-18
 -1       847 1.06785E-04-3.74161E-05-2.97293E-05-2.93708E-06-1.00091E-18 7.87631E-19
 -1       848 1.08506E-04-3.70430E-05-3.06265E-05-6.03181E-06-4.81446E-19 3.05475E-19
 -1       849 1.08676E-04-3.43468E-05-3.18545E-05-9.07572E-06 2.48851E-19 1.16272E-18
 -1       850 1.06861E-04-2.91687E-05-3.33022E-05-1.05949E-05-1.34046E-18 2.00984E-18
 -1       851 1.03735E-04-2.28889E-05-3.46561E-05-8.96829E-06-1.82899E-18 2.08461E-18
 -1       852 1.01197E-04-1.83855E-05-3.55063E-05-3.86848E-06-2.97969E-18-3.89667E-19
 -1       853 1.01139E-04-1.82125E-05-3.55621E-05 2.91173E-06-1.46155E-18-1.54606E-18
 -1       854 1.03639E-04-2.25794E-05-3.47602E-05 8.24660E-06 1.57342E-19-9.81339E-19
 -1       855 1.06980E-04-2.90342E-05-3.34066E-05 1.00962E-05 1.10832E-18-1.47290E-18
 -1       856 1.08900E-04-3.42985E-05-3.19777E-05 8.60614E-06 1.74262E-18-1.16585E-18
 -1       857 1.08925E-04-3.72041E-05-3.07367E-05 5.49946E-06 1.47686E-18-1.03338E-18
 -1       858 1.07248E-04-3.75928E-05-2.98548E-05 2.28186E-06 1.59128E-19-1.09819E-18
 -1       859 1.04742E-04-3.63718E-05-2.93031E-05-2.09783E-07-1.47172E-18-3.56908E-18
 -1       860 1.02721E-04-3.49166E-05-2.90598E-05-1.82130E-06-7.59339E-19-5.74239E-18
 -1       861 9.63529E-05-2.78758E-05-2.93475E-05-2.75034E-07 2.61160E-19-9.80868E-19
 -1       862 9.57713E-05-2.54987E-05-3.01152E-05 1.23896E-06 5.38277E-19-1.26987E-18
 -1       863 9.56915E-05-2.89794E-05-2.85909E-05-6.78287E-07-2.05818E-20 4.79913E-19
 -1       864 1.13966E-04-2.91764E-05-3.63756E-05 1.19225E-05 6.09988E-19-4.87117E-19
 -1       865 9.58177E-05-2.90650E-05-2.86083E-05-7.48684E-07 2.08075E-19 7.74093E-19
 -1       866 9.54529E-05-2.87350E-05-2.85934E-05-5.82482E-07-3.21007E-19-3.35470E-19
 -1       867 9.53303E-05-2.85793E-05-2.86076E-05-5.72603E-07-6.47472E-19-2.87251E-19
 -1       868 9.51927E-05-2.83948E-05-2.86277E-05-5.94507E-07-3.10433E-19 4.18686E-19
 -1       869 9.50253E-05-2.81705E-05-2.86521E-05-6.50867E-07 2.74430E-19 2.45217E-19
 -1       870 9.48061E-05-2.78892E-05-2.86787E-05-7.41988E-07-2.63673E-20 1.18318E-19
 -1       871 9.45040E-05-2.75264E-05-2.87047E-05-8.64356E-07 8.89498E-19-9.31582E-20
 -1       872 9.40740E-05-2.70486E-05-2.87252E-05-1.00785E-06 9.62061E-19-3.64193E-19
 -1       873 9.34513E-05-2.64107E-05-2.87317E-05-1.14980E-06 1.99769E-19-4.87595E-20
 -1       874 9.25999E-05-2.56056E-05-2.87120E-05-1.24788E-06 3.58668E-19-3.76523E-19
 -1       875 9.13133E-05-2.44865E-05-2.86402E-05-1.24434E-06 1.15579E-19-2.87258E-19
 -1       876 8.94585E-05-2.30173E-05-2.84750E-05-1.01331E-06 6.07237E-19-2.58486E-19
 -1       877 8.68182E-05-2.11400E-05-2.81480E-05-3.69856E-07 3.08519E-19-2.49547E-19
 -1       878 8.31170E-05-1.88408E-05-2.75460E-05 9.67870E-07-9.66419E-20-4.33668E-20
 -1       879 7.79152E-05-1.61534E-05-2.64601E-05 3.46471E-06 4.15155E-19-3.50145E-19
 -1       880 7.31168E-05-1.48040E-05-2.49522E-05 8.85865E-06 7.43879E-19-2.63090E-19
 -1       881 9.61898E-05-2.69444E-05-2.96782E-05 3.26822E-07 4.24500E-19-1.26905E-18
 -1       882 6.94575E-05-1.65741E-05-2.26260E-05-1.80943E-05 1.25429E-18 2.70202E-18
 -1       883 1.20196E-04-4.97950E-05-3.01947E-05-1.01191E-05-5.05947E-19-1.12338E-18
 -1       884 9.31759E-05-1.97390E-05-3.14741E-05-1.20354E-06-6.00359E-19-2.27124E-18
 -1       885 9.62108E-05-2.90322E-05-2.87908E-05-8.79728E-07 7.75854E-20-3.54298E-19
 -1       886 9.63186E-05-2.88357E-05-2.89212E-05-8.13421E-07-3.21121E-19-5.78240E-19
 -1       887 9.57787E-05-2.55713E-05-3.00889E-05-1.17237E-06-9.49772E-19-8.29774E-19
 -1       888 1.05857E-04-1.33568E-05-3.97433E-05 4.92401E-07-3.56955E-18 8.28017E-19
 -1       889 9.50926E-05-3.07611E-05-2.75785E-05-1.41245E-05 1.19962E-18-1.95889E-18
 -1       890 1.19759E-04-2.93830E-05-3.88597E-05-1.30658E-05-1.04280E-18 1.69799E-18
 -1       891 9.55712E-05-2.88682E-05-2.85870E-05-6.19835E-07-1.55607E-19 4.03694E-20
 -1       892 9.60818E-05-2.91127E-05-2.87011E-05-8.69629E-07 1.89409E-19-1.73751E-19
 -1       893 9.46755E-05-2.25914E-05-3.08928E-05 1.22624E-06 1.25115E-19-1.79579E-18
 -1       894 1.08681E-04-1.93401E-05-3.83672E-05 9.39984E-06-5.62863E-19 5.27415E-19
 -1       895 1.04415E-04-4.39695E-05-2.58299E-05-2.71923E-05-4.35729E-19-6.25789E-19
 -1       896 9.99325E-05-4.06053E-05-2.53249E-05 2.73440E-05 1.26363E-18-2.38378E-18
 -1       897 9.63789E-05-2.84743E-05-2.91019E-05-6.30020E-07 3.52131E-20-8.80306E-19
 -1       898 9.59485E-05-2.91146E-05-2.86431E-05-8.17888E-07 2.60467E-19 6.09788E-19
 -1       899 9.50979E-05-2.37434E-05-3.05797E-05-2.15597E-06-9.39087E-19-1.17985E-18
 -1       900 8.08601E-05-2.66404E-05-2.32044E-05 2.69501E-05 1.97517E-18-1.70457E-18
 -1       901 1.03342E-04-3.57345E-05-2.89747E-05-5.12372E-06 1.06332E-19 9.81373E-19
 -1       902 8.73686E-05-2.49080E-05-2.67486E-05-1.40485E-05-1.59077E-19 8.69268E-19
 -1       903 1.21666E-04-4.34411E-05-3.35504E-05 5.44921E-06 1.04702E-18 1.50084E-20
 -1       904 1.11607E-04-4.62028E-05-2.80397E-05 1.80174E-05 1.03714E-18-1.29527E-18
 -1       905 8.02006E-05-2.39604E-05-2.40750E-05-2.18488E-05 5.45625E-20 4.95112E-18
 -1       906 1.00444E-04-3.44252E-05-2.82934E-05-1.14080E-05 1.35597E-18-7.45575E-20
 -1       907 1.11406E-04-4.52047E-05-2.83332E-05-1.61899E-05-5.08989E-19-7.32551E-19
 -1       908 9.46633E-05-2.25692E-05-3.08966E-05-1.20544E-06-4.66210E-19-2.17308E-18
 -1       909 9.45278E-05-2.22490E-05-3.09764E-05 4.29000E-07-1.19591E-19-1.86378E-18
 -1       910 1.22253E-04-3.77998E-05-3.62526E-05-1.01360E-05 7.48330E-19 1.65258E-18
 -1       911 1.02615E-04-3.55967E-05-2.87261E-05-8.20479E-06 1.37373E-18-1.55374E-18
 -1       912 1.24354E-04-5.04707E-05-3.16849E-05 5.94702E-06 4.96001E-19 9.94797E-19
 -1       913 9.48489E-05-2.30480E-05-3.07689E-05-1.74614E-06-5.51079E-19-1.92691E-18
 -1       914 9.64778E-05-2.72297E-05-2.96778E-05-5.98572E-08-2.57440E-19-8.08327E-19
 -1       915 9.45221E-05-2.22418E-05-3.09772E-05-4.10197E-07-3.87281E-19-2.12396E-18
 -1       916 1.06358E-04-3.81051E-05-2.92506E-05-3.88702E-06-1.72780E-18-1.99109E-18
 -1       917 1.07639E-04-1.71659E-05-3.88543E-05-8.04920E-06-3.77964E-18 1.04577E-18
 -1       918 9.66568E-05-2.81298E-05-2.93688E-05 3.16999E-07-4.18329E-19-7.64779E-19
 -1       919 9.66728E-05-2.86977E-05-2.91322E-05 5.35956E-07-2.43396E-19-7.11391E-19
 -1       920 9.65881E-05-2.90257E-05-2.89554E-05 6.40278E-07-4.06544E-19-8.49126E-19
 -1       921 9.64472E-05-2.91853E-05-2.88266E-05 6.67350E-07-5.01901E-19-1.25554E-18
 -1       922 9.62789E-05-2.92288E-05-2.87358E-05 6.47291E-07-4.96449E-19-1.25950E-18
 -1       923 9.61024E-05-2.91955E-05-2.86744E-05 6.03003E-07-7.73405E-19-1.32610E-18
 -1       924 9.59277E-05-2.91118E-05-2.86354E-05 5.50885E-07-7.62610E-19-1.23932E-18
 -1       925 9.57596E-05-2.89954E-05-2.86132E-05 5.03611E-07-5.59124E-19-9.11129E-19
 -1       926 9.55998E-05-2.88589E-05-2.86032E-05 4.70518E-07-3.95276E-19-8.77868E-19
 -1       927 9.54472E-05-2.87103E-05-2.86015E-05 4.58743E-07-9.84111E-20-4.08637E-19
 -1       928 9.53007E-05-2.85556E-05-2.86050E-05 4.75040E-07 3.25812E-19-7.46319E-19
 -1       929 9.51598E-05-2.84014E-05-2.86107E-05 5.26217E-07 5.04963E-19-8.79052E-19
 -1       930 9.50272E-05-2.82568E-05-2.86159E-05 6.19919E-07-5.87718E-20-6.49441E-19
 -1       931 9.49110E-05-2.81363E-05-2.86178E-05 7.65156E-07-4.51778E-19-1.77344E-19
 -1       932 9.48283E-05-2.80631E-05-2.86136E-05 9.72326E-07 3.58036E-19 3.84959E-19
 -1       933 9.48089E-05-2.80731E-05-2.86011E-05 1.25240E-06 9.25095E-19-1.22723E-19
 -1       934 9.49015E-05-2.82181E-05-2.85786E-05 1.61444E-06 5.16573E-19 9.28239E-19
 -1       935 9.51790E-05-2.85699E-05-2.85467E-05 2.06028E-06 7.54070E-19 1.08070E-18
 -1       936 9.57441E-05-2.92197E-05-2.85104E-05 2.57437E-06 1.22092E-18 4.04970E-19
 -1       937 9.67307E-05-3.02714E-05-2.84825E-05 3.10637E-06 4.53762E-19 1.01491E-18
 -1       938 9.82943E-05-3.18201E-05-2.84889E-05 3.54651E-06 1.32538E-18 1.69335E-19
 -1       939 1.00588E-04-3.39103E-05-2.85767E-05 3.68589E-06 5.39310E-19-6.56455E-19
 -1       940 1.03667E-04-3.64177E-05-2.88204E-05 3.20949E-06 4.13037E-19-1.40592E-18
 -1       941 1.07383E-04-3.89313E-05-2.93351E-05 1.66674E-06-1.70077E-19-8.88315E-19
 -1       942 1.11189E-04-4.05775E-05-3.02617E-05-1.29491E-06-8.49443E-19 2.76197E-19
 -1       943 1.13948E-04-3.98948E-05-3.17361E-05-5.60129E-06 4.21125E-19 8.64376E-19
 -1       944 1.14229E-04-3.54026E-05-3.37952E-05-1.00143E-05 4.84713E-19 1.37395E-18
 -1       945 1.11324E-04-2.71352E-05-3.61377E-05-1.19685E-05-6.74430E-19 1.62147E-18
 -1       946 1.14659E-04-4.02127E-05-3.19049E-05 5.27976E-06 1.54551E-18-5.51923E-19
 -1       947 1.11983E-04-4.09646E-05-3.04393E-05 7.82546E-07 1.57752E-19-1.91398E-18
 -1       948 1.09316E-04-3.99757E-05-2.97149E-05-2.00331E-06-1.44531E-18-4.01925E-18
 -1       949 9.52707E-05-2.84845E-05-2.86226E-05-4.51033E-07-5.81898E-19-1.22114E-18
 -1       950 9.54492E-05-2.86840E-05-2.86136E-05-4.54187E-07-3.36601E-19-2.03209E-19
 -1       951 9.48232E-05-2.79703E-05-2.86512E-05-4.94537E-07 5.58151E-20-5.74996E-19
 -1       952 9.45105E-05-2.76264E-05-2.86646E-05-5.27254E-07 5.82848E-19-9.33067E-19
 -1       953 9.40961E-05-2.71966E-05-2.86712E-05-5.45564E-07 1.25347E-18-1.05404E-18
 -1       954 9.35343E-05-2.66531E-05-2.86634E-05-5.16299E-07 1.12834E-19-7.08411E-19
 -1       955 9.28108E-05-2.60033E-05-2.86319E-05-3.97627E-07 4.37812E-19-1.65544E-18
 -1       956 9.17790E-05-2.51495E-05-2.85556E-05-9.62694E-08-1.53191E-20-1.02550E-18
 -1       957 9.03797E-05-2.40993E-05-2.84059E-05 5.15934E-07 2.86149E-19-5.94528E-19
 -1       958 8.85145E-05-2.28587E-05-2.81382E-05 1.63152E-06 7.75228E-19 5.72236E-19
 -1       959 8.60926E-05-2.14925E-05-2.76842E-05 3.53960E-06-3.91185E-19 6.82585E-19
 -1       960 8.29957E-05-2.01503E-05-2.69332E-05 6.66842E-06 5.80300E-20-7.13116E-19
 -1       961 9.66005E-05-2.90104E-05-2.89672E-05-6.37507E-07-3.77690E-19-7.65255E-19
 -1       962 9.57991E-05-2.51495E-05-3.02784E-05 8.79964E-07 2.72495E-19-1.21081E-18
 -1       963 9.60477E-05-2.58727E-05-3.00753E-05-6.39732E-07-7.27229E-19-1.36913E-18
 -1       964 1.16487E-04-4.43086E-05-3.09465E-05-1.22958E-06-6.64863E-19-1.82259E-18
 -1       965 9.64636E-05-2.91809E-05-2.88354E-05-6.70303E-07-5.42578E-20-4.27863E-19
 -1       966 9.40583E-05-3.37201E-05-2.58454E-05-2.26003E-05-1.65494E-18-8.04958E-19
 -1       967 9.50682E-05-2.82506E-05-2.86361E-05-4.65880E-07-7.61015E-20-1.45670E-18
 -1       968 9.59535E-05-2.91229E-05-2.86417E-05-5.61510E-07 2.28816E-19-1.14721E-19
 -1       969 9.55898E-05-2.44498E-05-3.04889E-05-4.91909E-07-2.92713E-19-1.98090E-18
 -1       970 1.16433E-04-4.74117E-05-2.95820E-05 1.06669E-05 1.98601E-18 6.30128E-19
 -1       971 9.57837E-05-2.90040E-05-2.86199E-05-5.13446E-07 1.25079E-19-1.30274E-19
 -1       972 1.13909E-04-3.57954E-05-3.34790E-05 9.06585E-06 2.11115E-18-2.47865E-20
 -1       973 9.56951E-05-2.47098E-05-3.04219E-05 5.23609E-07 5.18216E-21-1.82136E-18
 -1       974 9.55488E-05-2.46138E-05-3.04011E-05-1.15505E-06-7.10049E-19-1.70858E-18
 -1       975 9.56170E-05-2.88563E-05-2.86117E-05-4.75472E-07 7.41869E-20 7.02104E-20
 -1       976 9.66789E-05-2.86735E-05-2.91453E-05-5.27985E-07-3.15140E-19-7.27892E-19
 -1       977 8.14126E-05-2.06123E-05-2.60605E-05 1.16222E-05 5.37315E-19-5.90070E-19
 -1       978 8.14072E-05-2.29302E-05-2.50500E-05 1.80455E-05 1.34660E-18-6.34658E-19
 -1       979 9.64591E-05-2.71658E-05-2.96942E-05 8.06475E-08 2.73915E-19-7.54483E-19
 -1       980 1.00927E-04-3.83391E-05-2.68136E-05 1.97664E-05 1.75074E-18-1.84653E-18
 -1       981 1.06489E-04-3.89145E-05-2.89628E-05-7.74147E-06 7.91370E-19-2.10602E-18
 -1       982 9.63008E-05-2.92326E-05-2.87435E-05-6.54226E-07-1.15086E-19-6.84334E-19
 -1       983 9.61268E-05-2.92045E-05-2.86810E-05-6.12370E-07-6.62303E-20-5.45316E-19
 -1       984 1.21541E-04-4.43259E-05-3.31092E-05-3.69931E-06 2.17893E-19 1.79232E-18
 -1       985 9.66618E-05-2.81033E-05-2.93831E-05-2.97581E-07 1.84456E-19-9.63838E-19
 -1       986 1.04552E-04-3.89268E-05-2.81310E-05-1.41519E-05-5.70068E-19-1.29019E-18
 -1       987 9.67204E-05-2.75732E-05-2.96344E-05 6.41149E-08-2.24632E-19-1.41334E-18
 -1       988 9.55512E-05-2.43264E-05-3.05259E-05 7.66027E-09-3.24534E-21-1.73695E-18
 -1       989 9.68675E-05-2.83926E-05-2.93464E-05 2.60823E-07-4.89800E-19-1.24963E-18
 -1       990 9.68537E-05-2.88970E-05-2.91244E-05 3.70055E-07-6.95234E-19-1.46142E-18
 -1       991 9.67388E-05-2.91726E-05-2.89571E-05 4.17314E-07-3.49188E-19-1.37244E-18
 -1       992 9.65692E-05-2.92893E-05-2.88343E-05 4.21798E-07-5.13233E-19-1.38718E-18
 -1       993 9.63727E-05-2.92962E-05-2.87471E-05 4.03758E-07-5.85807E-19-1.11379E-18
 -1       994 9.61678E-05-2.92302E-05-2.86876E-05 3.73908E-07-7.63359E-19-6.98050E-19
 -1       995 9.59650E-05-2.91165E-05-2.86493E-05 3.42852E-07-6.12812E-19-1.16779E-18
 -1       996 9.57682E-05-2.89716E-05-2.86271E-05 3.19548E-07-3.13424E-19-9.91095E-19
 -1       997 9.55775E-05-2.88062E-05-2.86163E-05 3.09411E-07-2.25635E-19-8.45587E-19
 -1       998 9.53906E-05-2.86269E-05-2.86130E-05 3.19209E-07 2.08630E-19-1.59294E-19
 -1       999 9.52044E-05-2.84385E-05-2.86140E-05 3.56481E-07 3.32539E-19 3.15265E-19
 -1      1000 9.50171E-05-2.82468E-05-2.86158E-05 4.30513E-07 9.86806E-20 8.15470E-20
 -1      1001 9.48297E-05-2.80604E-05-2.86154E-05 5.53906E-07-1.19123E-19-7.35144E-20
 -1      1002 9.46492E-05-2.78944E-05-2.86092E-05 7.43649E-07 2.14954E-19-1.68794E-19
 -1      1003 9.44927E-05-2.77741E-05-2.85937E-05 1.02194E-06 1.46902E-19 4.17171E-19
 -1      1004 9.43931E-05-2.77405E-05-2.85654E-05 1.41634E-06 1.01091E-18 3.65289E-20
 -1      1005 9.44066E-05-2.78560E-05-2.85218E-05 1.95778E-06 1.21653E-18 6.33238E-20
 -1      1006 9.46225E-05-2.82104E-05-2.84623E-05 2.67447E-06 5.18925E-19 3.06634E-19
 -1      1007 9.51748E-05-2.89268E-05-2.83920E-05 3.57885E-06 6.57916E-19-8.51595E-19
 -1      1008 9.62540E-05-3.01598E-05-2.83261E-05 4.63902E-06 5.84763E-19-9.30967E-19
 -1      1009 9.81003E-05-3.20715E-05-2.82982E-05 5.74467E-06 6.05002E-19-7.08114E-19
 -1      1010 1.01022E-04-3.48100E-05-2.83836E-05 6.57918E-06 1.04209E-18-1.07152E-18
 -1      1011 1.05165E-04-3.82735E-05-2.86740E-05 6.69935E-06 6.61323E-20-4.18949E-19
 -1      1012 1.10471E-04-4.19333E-05-2.93816E-05 5.34889E-06 4.46802E-19 2.21135E-19
 -1      1013 1.16277E-04-4.45077E-05-3.07604E-05 1.63964E-06 2.73354E-19 2.09614E-18
 -1      1014 9.37899E-05-2.69903E-05-2.86284E-05-5.23771E-08 7.77235E-19-1.17039E-18
 -1      1015 9.42546E-05-2.74260E-05-2.86409E-05-1.79766E-07 5.03913E-19-1.41474E-18
 -1      1016 9.46216E-05-2.77928E-05-2.86410E-05-2.38876E-07 5.58117E-19-2.16674E-18
 -1      1017 9.32300E-05-2.65040E-05-2.85970E-05 1.78523E-07 2.94368E-19-1.35587E-18
 -1      1018 9.24849E-05-2.59133E-05-2.85308E-05 6.12480E-07-3.71075E-19-6.43745E-19
 -1      1019 9.15516E-05-2.52571E-05-2.84120E-05 1.35674E-06-6.67376E-19 2.18869E-19
 -1      1020 9.04186E-05-2.45852E-05-2.82142E-05 2.57292E-06 4.83947E-19-5.20681E-19
 -1      1021 8.91116E-05-2.40084E-05-2.79006E-05 4.47818E-06 4.54710E-19-5.28213E-19
 -1      1022 8.77429E-05-2.37539E-05-2.74200E-05 7.34552E-06 6.40880E-19-8.42746E-19
 -1      1023 1.08763E-04-4.22455E-05-2.85076E-05 1.18737E-05 1.34415E-18 6.19386E-19
 -1      1024 9.67533E-05-2.91605E-05-2.89684E-05-4.18857E-07-2.81182E-19-1.38013E-18
 -1      1025 9.63383E-05-2.63405E-05-2.99986E-05-2.48693E-07-9.50044E-20-1.67929E-18
 -1      1026 1.14358E-04-4.47843E-05-2.98041E-05-7.12386E-06-1.49401E-18-2.63370E-19
 -1      1027 9.65794E-05-2.69733E-05-2.98312E-05 7.31043E-08-6.38975E-21-1.48249E-18
 -1      1028 9.53871E-05-2.86003E-05-2.86229E-05-2.85911E-07 2.99806E-19-1.32301E-18
 -1      1029 9.51675E-05-2.83693E-05-2.86278E-05-2.75565E-07-1.71883E-19-1.90526E-18
 -1      1030 9.49184E-05-2.81033E-05-2.86351E-05-2.63911E-07-4.77395E-19-2.06534E-18
 -1      1031 1.11832E-04-4.22598E-05-2.98103E-05-4.16479E-06-2.06664E-18-2.59577E-18
 -1      1032 9.25903E-05-3.02121E-05-2.67206E-05 1.55577E-05 1.89398E-18-2.69591E-18
 -1      1033 1.09500E-04-4.17731E-05-2.90234E-05-9.52096E-06-4.66937E-19 5.88059E-19
 -1      1034 9.62599E-05-2.59795E-05-3.01201E-05-1.12779E-07-1.20232E-19-1.64202E-18
 -1      1035 1.09155E-04-4.07629E-05-2.93143E-05-6.23191E-06 1.81366E-19-2.74736E-18
 -1      1036 1.00336E-04-3.56099E-05-2.77294E-05 1.25361E-05 1.49494E-18-1.63671E-18
 -1      1037 9.55916E-05-2.88035E-05-2.86235E-05-3.01512E-07 1.97611E-19-6.12691E-19
 -1      1038 9.68648E-05-2.88814E-05-2.91363E-05-3.66628E-07-2.78116E-19-1.03717E-18
 -1      1039 8.80700E-05-2.51701E-05-2.69595E-05 1.09542E-05 1.00485E-18-1.74970E-18
 -1      1040 9.61932E-05-2.92404E-05-2.86940E-05-3.83419E-07-4.56566E-20-4.97966E-19
 -1      1041 9.65894E-05-2.92866E-05-2.88441E-05-4.28394E-07-1.64483E-19-1.10046E-18
 -1      1042 9.59915E-05-2.91297E-05-2.86551E-05-3.51460E-07 1.23076E-19-6.05899E-19
 -1      1043 9.68949E-05-2.79633E-05-2.95418E-05 6.21420E-08-2.52989E-19-1.80052E-18
 -1      1044 9.69822E-05-2.86671E-05-2.92781E-05 1.23604E-07-3.93100E-19-1.38882E-18
 -1      1045 9.69189E-05-2.90710E-05-2.90772E-05 1.53449E-07-5.21861E-19-1.17672E-18
 -1      1046 9.67623E-05-2.92707E-05-2.89253E-05 1.64467E-07-4.47599E-19-1.26409E-18
 -1      1047 9.65841E-05-2.93492E-05-2.88147E-05 1.59358E-07-5.75663E-19-8.93582E-19
 -1      1048 9.63619E-05-2.93103E-05-2.87363E-05 1.49393E-07-8.79274E-19-9.27515E-19
 -1      1049 9.61365E-05-2.92098E-05-2.86832E-05 1.40146E-07-8.78497E-19-8.28776E-19
 -1      1050 9.59249E-05-2.90757E-05-2.86497E-05 1.30329E-07-1.61165E-19-3.92517E-19
 -1      1051 9.57109E-05-2.89058E-05-2.86307E-05 1.26474E-07 1.29319E-19-2.38307E-19
 -1      1052 9.54999E-05-2.87154E-05-2.86219E-05 1.34239E-07 5.01955E-19 4.14127E-19
 -1      1053 9.52869E-05-2.85082E-05-2.86194E-05 1.59418E-07 5.54328E-19 3.49740E-20
 -1      1054 9.50659E-05-2.82865E-05-2.86197E-05 2.09793E-07 1.37717E-19 2.57576E-20
 -1      1055 9.48314E-05-2.80531E-05-2.86192E-05 2.98279E-07-3.19814E-19 6.38735E-20
 -1      1056 9.45807E-05-2.78140E-05-2.86142E-05 4.43505E-07 6.96733E-20 2.58121E-19
 -1      1057 9.43161E-05-2.75818E-05-2.86002E-05 6.72290E-07 6.25046E-19 7.74353E-19
 -1      1058 9.40495E-05-2.73800E-05-2.85723E-05 1.02174E-06 5.52800E-20 7.02485E-19
 -1      1059 9.38104E-05-2.72509E-05-2.85251E-05 1.54095E-06 2.05146E-19-3.15517E-19
 -1      1060 9.36548E-05-2.72632E-05-2.84530E-05 2.29073E-06 9.39221E-19-2.05646E-18
 -1      1061 9.36804E-05-2.75234E-05-2.83524E-05 3.33863E-06 7.15364E-20-2.15504E-18
 -1      1062 9.40458E-05-2.81891E-05-2.82241E-05 4.74440E-06 3.06542E-19-1.82515E-18
 -1      1063 9.50243E-05-2.94973E-05-2.80852E-05 6.51729E-06 1.26779E-18-2.17298E-18
 -1      1064 9.69742E-05-3.16990E-05-2.79764E-05 8.56540E-06 8.02306E-19-1.95954E-18
 -1      1065 9.41139E-05-2.73478E-05-2.86141E-05 2.64244E-07 6.35219E-19-1.15681E-18
 -1      1066 9.32176E-05-2.66303E-05-2.85376E-05 9.82666E-07-6.21278E-19-5.80875E-19
 -1      1067 9.36979E-05-2.69944E-05-2.85874E-05 5.39248E-07 6.10983E-19-1.05245E-18
 -1      1068 9.44769E-05-2.76836E-05-2.86258E-05 9.58320E-08 4.26552E-19-8.68247E-19
 -1      1069 9.26704E-05-2.62841E-05-2.84515E-05 1.69740E-06-1.17102E-18-6.90317E-19
 -1      1070 9.21076E-05-2.60367E-05-2.83164E-05 2.79145E-06 4.94045E-19-2.07595E-18
 -1      1071 9.16231E-05-2.60187E-05-2.81167E-05 4.40940E-06 8.73909E-19-2.03871E-18
 -1      1072 9.13989E-05-2.64371E-05-2.78398E-05 6.71308E-06 4.07767E-19-1.66122E-18
 -1      1073 9.57868E-05-2.89769E-05-2.86330E-05-3.22723E-07-1.36204E-19-5.57252E-19
 -1      1074 9.66756E-05-2.71267E-05-2.98067E-05-1.12077E-08-5.67156E-20-1.70750E-18
 -1      1075 9.50536E-05-2.82593E-05-2.86262E-05-5.55630E-08-3.09910E-19-9.29607E-19
 -1      1076 9.63955E-05-2.93013E-05-2.87547E-05-4.11444E-07-1.27591E-19-8.38971E-19
 -1      1077 9.52930E-05-2.85033E-05-2.86242E-05-8.68363E-08-2.05012E-20-3.83237E-19
 -1      1078 9.68701E-05-2.83619E-05-2.93597E-05-2.51665E-07-1.24437E-19-9.15599E-19
 -1      1079 9.47858E-05-2.79871E-05-2.86281E-05-9.65744E-10-8.66773E-20-1.21267E-18
 -1      1080 9.64502E-05-2.64372E-05-3.00047E-05 5.18662E-08-8.33901E-20-1.73036E-18
 -1      1081 9.68583E-05-2.77610E-05-2.96140E-05-3.65158E-08-1.25596E-19-1.89007E-18
 -1      1082 9.55156E-05-2.87226E-05-2.86255E-05-1.06535E-07 5.34525E-19-6.57625E-19
 -1      1083 9.69306E-05-2.90571E-05-2.90884E-05-1.52412E-07-4.46654E-19-1.56944E-18
 -1      1084 9.14108E-05-2.75406E-05-2.73732E-05 1.03467E-05 1.39082E-18-2.04606E-18
 -1      1085 9.63860E-05-2.93186E-05-2.87431E-05-1.59871E-07-5.48771E-19-9.71162E-19
 -1      1086 9.67950E-05-2.92761E-05-2.89365E-05-1.67557E-07-2.24065E-19-1.36688E-18
 -1      1087 9.61678E-05-2.92286E-05-2.86880E-05-1.46980E-07-1.61338E-19-2.43302E-19
 -1      1088 9.69722E-05-2.83553E-05-2.94071E-05-5.73055E-08-2.32325E-19-1.94319E-18
 -1      1089 9.58245E-05-2.89948E-05-2.86410E-05-7.68637E-08 1.14864E-19-3.00046E-19
 -1      1090 9.65887E-05-2.93359E-05-2.88230E-05-1.66141E-07-5.09665E-19-1.45995E-18
 -1      1091 1.16891E-04 2.57653E-10-4.18673E-05-4.14799E-05-1.99053E-19 1.17644E-17
 -1      1092 8.86684E-05 7.19281E-11-3.72591E-05-2.41780E-05-1.47595E-19 3.39284E-18
 -1      1093 8.40880E-05 4.14292E-11-3.57721E-05-1.78898E-05-1.20596E-19-5.90594E-19
 -1      1094 8.23418E-05 3.20226E-11-3.50760E-05-1.38507E-05-9.66147E-20-2.71411E-18
 -1      1095 8.15372E-05 2.73199E-11-3.47402E-05-1.05476E-05-6.61215E-20-3.84701E-18
 -1      1096 8.11303E-05 2.45828E-11-3.45738E-05-7.65718E-06-5.66321E-20-4.46136E-18
 -1      1097 8.09191E-05 2.29219E-11-3.44897E-05-4.99956E-06-3.53239E-20-4.76874E-18
 -1      1098 8.08153E-05 2.20192E-11-3.44497E-05-2.45599E-06-2.89679E-20-4.89780E-18
 -1      1099 8.07846E-05 2.17363E-11-3.44381E-05 2.34188E-08-9.57131E-21-4.92452E-18
 -1      1100 8.08165E-05 2.20317E-11-3.44502E-05 2.50348E-06 8.34956E-21-4.92748E-18
 -1      1101 8.09219E-05 2.29495E-11-3.44908E-05 5.04920E-06 1.45782E-20-4.93440E-18
 -1      1102 8.11372E-05 2.46101E-11-3.45760E-05 7.71080E-06 3.67864E-20-4.73770E-18
 -1      1103 8.15479E-05 2.73907E-11-3.47447E-05 1.06069E-05 4.96044E-20-4.40527E-18
 -1      1104 8.23622E-05 3.21399E-11-3.50850E-05 1.39195E-05 8.03887E-20-3.57034E-18
 -1      1105 8.41310E-05 4.16393E-11-3.57914E-05 1.79738E-05 1.19961E-19-1.90514E-18
 -1      1106 8.87690E-05 7.22530E-11-3.72995E-05 2.42771E-05 1.56066E-19 1.68411E-18
 -1      1107 1.17160E-04 2.58479E-10-4.18355E-05 4.17504E-05 2.17264E-19 9.88022E-18
 -1      1108 1.30266E-04-2.57652E-05-4.02863E-05-2.61155E-05-9.89970E-19 1.72469E-17
 -1      1109 9.74862E-05-2.88713E-05-3.15869E-05-6.81325E-07-3.29946E-19 1.49794E-17
 -1      1110 9.01806E-05-2.70329E-05-2.78998E-05 3.86961E-07-1.36293E-19 1.16099E-17
 -1      1111 8.82650E-05-2.65772E-05-2.66485E-05 2.50830E-07-8.70492E-20 9.21672E-18
 -1      1112 8.79035E-05-2.64496E-05-2.63912E-05 1.65844E-07-1.04259E-19 7.15068E-18
 -1      1113 8.82606E-05-2.65256E-05-2.64756E-05 1.18045E-07-8.47844E-20 6.20153E-18
 -1      1114 8.89460E-05-2.67098E-05-2.66780E-05 8.74888E-08-1.69489E-21 5.72124E-18
 -1      1115 8.97609E-05-2.69417E-05-2.69206E-05 6.62967E-08-3.50551E-20 5.23202E-18
 -1      1116 9.05949E-05-2.71846E-05-2.71693E-05 5.06210E-08-1.00462E-20 3.98401E-18
 -1      1117 9.13860E-05-2.74178E-05-2.74058E-05 3.85599E-08-5.15829E-20 2.85421E-18
 -1      1118 9.21014E-05-2.76299E-05-2.76204E-05 2.91004E-08-1.16676E-20 1.10236E-18
 -1      1119 9.27267E-05-2.78162E-05-2.78086E-05 2.16413E-08 1.79125E-19 4.31993E-19
 -1      1120 9.32596E-05-2.79755E-05-2.79695E-05 1.57827E-08-1.08776E-19 1.47567E-19
 -1      1121 9.37057E-05-2.81093E-05-2.81045E-05 1.12347E-08 3.39546E-20 1.48849E-19
 -1      1122 9.40753E-05-2.82203E-05-2.82168E-05 7.77836E-09 1.20205E-19 1.28177E-18
 -1      1123 9.43815E-05-2.83126E-05-2.83101E-05 5.24848E-09-1.35595E-19 1.31034E-18
 -1      1124 9.46392E-05-2.83905E-05-2.83888E-05 3.52670E-09 1.58731E-20 1.50499E-18
 -1      1125 9.48641E-05-2.84585E-05-2.84577E-05 2.53719E-09-2.44806E-19 1.84685E-18
 -1      1126 9.50720E-05-2.85215E-05-2.85215E-05 2.24146E-09 9.34902E-21 3.66455E-19
 -1      1127 9.52780E-05-2.85838E-05-2.85846E-05 2.62848E-09 2.24050E-20-5.54545E-19
 -1      1128 9.54960E-05-2.86495E-05-2.86510E-05 3.69549E-09 1.85008E-20-5.15896E-19
 -1      1129 9.57368E-05-2.87218E-05-2.87239E-05 5.41362E-09 5.17488E-20 1.13824E-18
 -1      1130 9.60054E-05-2.88020E-05-2.88043E-05 7.67173E-09 9.32134E-21 2.26348E-18
 -1      1131 9.62982E-05-2.88888E-05-2.88908E-05 1.01917E-08-3.11014E-19 1.05312E-18
 -1      1132 9.65969E-05-2.89765E-05-2.89773E-05 1.24133E-08 8.86761E-20 3.92587E-19
 -1      1133 9.68631E-05-2.90534E-05-2.90515E-05 1.33595E-08-1.65535E-20 1.38600E-18
 -1      1134 9.70303E-05-2.90996E-05-2.90928E-05 1.15193E-08 2.28794E-19 1.38146E-18
 -1      1135 9.69997E-05-2.90854E-05-2.90715E-05 4.82969E-09 1.44855E-19 1.98673E-19
 -1      1136 9.66386E-05-2.89716E-05-2.89485E-05-9.10603E-09-1.32622E-19-1.45986E-18
 -1      1137 9.57907E-05-2.87124E-05-2.86793E-05-3.23878E-08 1.61032E-19-1.38407E-18
 -1      1138 9.43019E-05-2.82629E-05-2.82217E-05-6.56453E-08 1.23382E-20-1.24707E-18
 -1      1139 9.20655E-05-2.75933E-05-2.75499E-05-1.06430E-07 1.76959E-19-2.74673E-18
 -1      1140 8.90852E-05-2.67066E-05-2.66711E-05-1.47775E-07 2.11527E-19-2.61940E-18
 -1      1141 8.55372E-05-2.56563E-05-2.56415E-05-1.78110E-07-5.16134E-20-1.43712E-18
 -1      1142 8.18021E-05-2.45555E-05-2.45723E-05-1.83858E-07-5.69464E-20-2.14591E-18
 -1      1143 7.84302E-05-2.35652E-05-2.36172E-05-1.54935E-07 1.36771E-19 2.16708E-19
 -1      1144 7.60228E-05-2.28597E-05-2.29399E-05-9.10625E-08 1.27119E-19-6.04848E-19
 -1      1145 7.50551E-05-2.25759E-05-2.26672E-05-4.79142E-09 5.26285E-20-8.75471E-19
 -1      1146 7.57132E-05-2.27673E-05-2.28482E-05 8.19787E-08-1.14179E-19-1.01330E-18
 -1      1147 7.78240E-05-2.33841E-05-2.34371E-05 1.47010E-07 1.14694E-19 7.03249E-19
 -1      1148 8.09183E-05-2.42912E-05-2.43086E-05 1.76980E-07-1.83828E-19-4.02341E-20
 -1      1149 8.43925E-05-2.53136E-05-2.52988E-05 1.71508E-07-1.31584E-19-3.48305E-18
 -1      1150 8.76902E-05-2.62889E-05-2.62530E-05 1.40569E-07-1.35990E-19-3.72112E-18
 -1      1151 9.04292E-05-2.71037E-05-2.70604E-05 9.82970E-08 1.38432E-19-1.15038E-18
 -1      1152 9.24442E-05-2.77078E-05-2.76684E-05 5.73580E-08 6.88115E-20-5.64733E-20
 -1      1153 9.37593E-05-2.81063E-05-2.80779E-05 2.61704E-08 3.42082E-19 2.38505E-18
 -1      1154 9.45225E-05-2.83414E-05-2.83257E-05 8.39061E-09-1.21840E-19 7.32973E-19
 -1      1155 9.49297E-05-2.84700E-05-2.84628E-05 3.28109E-09-4.78648E-21 3.74922E-19
 -1      1156 9.51477E-05-2.85398E-05-2.85331E-05 4.50515E-09 8.55489E-20 1.21290E-18
 -1      1157 9.52348E-05-2.85703E-05-2.85665E-05-1.44910E-09 2.61892E-20 1.18503E-18
 -1      1158 1.31456E-04-2.58478E-05-4.04270E-05 2.68821E-05 1.10644E-18 1.52153E-17
 -1      1159 9.82073E-05-2.90551E-05-3.18605E-05 8.62304E-07 4.65021E-19 1.25286E-17
 -1      1160 9.03592E-05-2.70699E-05-2.80067E-05-3.89321E-07 1.85580E-19 8.46607E-18
 -1      1161 8.83190E-05-2.65928E-05-2.66816E-05-2.55224E-07 7.21765E-20 5.91240E-18
 -1      1162 8.79024E-05-2.64503E-05-2.63951E-05-1.68742E-07 7.18009E-20 4.28059E-18
 -1      1163 8.82343E-05-2.65189E-05-2.64684E-05-1.19833E-07 7.33924E-20 2.67681E-18
 -1      1164 8.89081E-05-2.66992E-05-2.66668E-05-8.86881E-08 8.33566E-20 1.35507E-18
 -1      1165 8.97188E-05-2.69295E-05-2.69082E-05-6.71880E-08 3.55851E-20 9.79713E-19
 -1      1166 9.05529E-05-2.71723E-05-2.71567E-05-5.12886E-08 1.10079E-19 5.27437E-19
 -1      1167 9.13460E-05-2.74059E-05-2.73938E-05-3.90578E-08-3.28006E-20-6.14000E-19
 -1      1168 9.20641E-05-2.76188E-05-2.76091E-05-2.94561E-08-1.07689E-21-1.00175E-18
 -1      1169 9.26916E-05-2.78057E-05-2.77979E-05-2.18601E-08-1.43368E-20-1.33221E-18
 -1      1170 9.32257E-05-2.79654E-05-2.79591E-05-1.58069E-08 3.46486E-20-1.82947E-18
 -1      1171 9.36612E-05-2.80956E-05-2.80908E-05-1.06099E-08-6.57371E-21-2.57818E-18
 -1      1172 9.40206E-05-2.82040E-05-2.82000E-05-7.57226E-09-1.08577E-20-3.82717E-18
 -1      1173 9.43238E-05-2.82954E-05-2.82923E-05-4.60669E-09 3.85705E-20-3.11242E-18
 -1      1174 9.45749E-05-2.83714E-05-2.83691E-05-2.32814E-09-4.93328E-20-2.80347E-18
 -1      1175 9.47905E-05-2.84370E-05-2.84353E-05-5.83044E-10 1.06989E-20-2.33158E-18
 -1      1176 9.49895E-05-2.84978E-05-2.84967E-05 7.24702E-10-7.84181E-20-2.05356E-18
 -1      1177 9.51933E-05-2.85604E-05-2.85599E-05 1.64055E-09 2.53862E-20-2.37718E-18
 -1      1178 9.54287E-05-2.86329E-05-2.86333E-05 2.13892E-09 9.01211E-20-3.41785E-18
 -1      1179 9.57304E-05-2.87260E-05-2.87275E-05 2.07658E-09 6.59945E-20-2.60857E-18
 -1      1180 9.61459E-05-2.88541E-05-2.88576E-05 1.10049E-09-7.60634E-21-3.20816E-18
 -1      1181 9.67439E-05-2.90381E-05-2.90452E-05-1.53013E-09-2.65131E-19-2.55415E-18
 -1      1182 9.76256E-05-2.93091E-05-2.93227E-05-7.28476E-09 1.48948E-19-1.71247E-18
 -1      1183 9.89445E-05-2.97135E-05-2.97390E-05-1.90646E-08-5.35732E-20-3.51930E-18
 -1      1184 1.00933E-04-3.03192E-05-3.03689E-05-4.31390E-08 2.85035E-19-5.44489E-18
 -1      1185 1.03852E-04-3.12115E-05-3.12941E-05-8.96674E-08-1.58488E-21-5.10004E-18
 -1      1186 1.08242E-04-3.25390E-05-3.26891E-05-1.64063E-07 1.49829E-19-4.61842E-18
 -1      1187 1.14975E-04-3.45679E-05-3.48138E-05-3.10466E-07 1.07335E-20-4.81231E-18
 -1      1188 1.24890E-04-3.75443E-05-3.78853E-05-5.58518E-07-1.43903E-19-2.80093E-18
 -1      1189 1.38810E-04-4.17209E-05-4.20186E-05-9.20969E-07 1.73026E-19-2.15189E-18
 -1      1190 1.56445E-04-4.70297E-05-4.68368E-05-1.27118E-06 2.61187E-19-2.97414E-18
 -1      1191 1.74021E-04-5.23243E-05-5.09176E-05-1.07271E-06-2.83359E-19-1.52265E-18
 -1      1192 1.80916E-04-5.42286E-05-5.16345E-05 8.32964E-07 3.21608E-19-6.79109E-19
 -1      1193 1.61711E-04-4.79976E-05-4.68627E-05 4.92639E-06-2.86271E-19-6.47980E-19
 -1      1194 1.18978E-04-3.42431E-05-3.90598E-05 6.94121E-06 1.02412E-19 9.48677E-20
 -1      1195 8.33283E-05-2.34454E-05-3.31670E-05 3.14084E-06 3.01491E-19-2.55211E-18
 -1      1196 8.41879E-05-2.40334E-05-3.31362E-05-4.30644E-06-4.51310E-19-1.57379E-18
 -1      1197 1.15226E-04-3.41133E-05-3.78706E-05-7.04106E-06-2.90797E-19 3.47284E-20
 -1      1198 1.54013E-04-4.54199E-05-4.52192E-05-5.61974E-06 1.53961E-19 9.48677E-20
 -1      1199 1.77988E-04-5.31543E-05-5.06575E-05-1.47647E-06 6.23972E-19-1.17314E-19
 -1      1200 1.75528E-04-5.27587E-05-5.09839E-05 7.95812E-07 1.65383E-19 8.32660E-19
 -1      1201 1.58986E-04-4.77968E-05-4.73605E-05 1.31267E-06-2.66271E-19 6.92026E-19
 -1      1202 1.40341E-04-4.21795E-05-4.23968E-05 1.04117E-06 3.95260E-20 2.04431E-18
 -1      1203 1.24753E-04-3.75012E-05-3.78372E-05 6.76459E-07-4.66927E-20 3.57702E-18
 -1      1204 1.13116E-04-3.40125E-05-3.42758E-05 4.13811E-07 1.94394E-19 1.97422E-18
 -1      1205 1.04851E-04-3.15294E-05-3.17129E-05 2.54971E-07 2.08466E-19 2.66815E-20
 -1      1206 9.92342E-05-2.98357E-05-2.99891E-05 1.49227E-07 2.47459E-19-7.83717E-19
 -1      1207 9.59772E-05-2.88902E-05-2.89678E-05 2.77366E-09-6.44539E-20 1.50250E-18
 -1      1208 9.50200E-05-2.85044E-05-2.84372E-05-9.61927E-08 2.43967E-19 1.25469E-18
 -1      1209 9.53273E-05-2.87787E-05-2.84336E-05-4.21336E-08 2.57207E-18-1.37258E-18
 -1      1210 9.49455E-05-2.77408E-05-2.89472E-05 2.89631E-08-7.08583E-19-1.67473E-18
 -1      1211 9.41208E-05-2.48702E-05-2.97494E-05 2.14194E-07-4.25761E-18-3.73049E-19
 -1      1212 9.30995E-05-2.13307E-05-3.06852E-05 2.16443E-07-3.85265E-18 2.34315E-20
 -1      1213 9.22610E-05-1.84673E-05-3.14621E-05 1.37643E-07 6.87844E-19-1.16235E-19
 -1      1214 9.18498E-05-1.70723E-05-3.18606E-05 3.22032E-08-4.34857E-18-1.17160E-18
 -1      1215 9.19084E-05-1.73064E-05-3.18193E-05-5.53865E-08-4.18749E-18 5.93668E-19
 -1      1216 9.23645E-05-1.88936E-05-3.13995E-05-1.12281E-07-1.33103E-18-2.60486E-19
 -1      1217 9.30554E-05-2.12713E-05-3.07469E-05-1.28705E-07 6.48099E-19 8.65984E-20
 -1      1218 9.38009E-05-2.38187E-05-3.00306E-05-1.11996E-07 2.10793E-18 4.40538E-19
 -1      1219 9.44557E-05-2.60390E-05-2.93914E-05-7.58611E-08 9.53256E-19-5.01902E-19
 -1      1220 9.49297E-05-2.76349E-05-2.89183E-05-3.38885E-08-7.19986E-18-7.95891E-19
 -1      1221 9.52085E-05-2.85546E-05-2.86317E-05-2.40962E-10-1.03982E-17 1.38295E-19
 -1      1222 9.53178E-05-2.88972E-05-2.85081E-05 2.32379E-08-4.59388E-18 2.83280E-19
 -1      1223 9.53179E-05-2.88577E-05-2.84969E-05 3.02475E-08-2.49211E-18 3.70345E-19
 -1      1224 9.52638E-05-2.86775E-05-2.85322E-05 2.23441E-08-3.35633E-19-7.55830E-19
 -1      1225 9.52349E-05-2.85752E-05-2.85664E-05 4.33328E-09-1.97688E-19 4.80104E-19
 -1      1226 3.98306E-05-1.26615E-04 2.27854E-05-1.78562E-05 7.90917E-20-1.86453E-19
 -1      1227 2.30135E-05-9.31203E-05 1.62744E-05-3.84923E-05 1.44843E-19-4.78574E-20
 -1      1228 6.80032E-06-3.60767E-05 1.45597E-06-2.49343E-05 3.52874E-18 1.33154E-18
 -1      1229 2.67775E-05 9.75993E-06-2.13135E-05 3.08259E-05 1.96850E-18 2.07523E-18
 -1      1230 1.09248E-04 8.46837E-06-4.77456E-05 9.61620E-05 1.52805E-18 1.70084E-18
 -1      1231 2.36686E-04-4.05864E-05-7.10723E-05 1.21549E-04-4.81962E-19-6.21722E-19
 -1      1232 3.53274E-04-9.89614E-05-8.68681E-05 7.76037E-05-3.42413E-19-3.24837E-18
 -1      1233 3.89087E-04-1.18034E-04-9.11818E-05-1.38059E-05 3.02073E-19-2.46804E-18
 -1      1234 3.24914E-04-8.45032E-05-8.29246E-05-9.65600E-05 5.38501E-19-2.30054E-18
 -1      1235 1.93778E-04-2.24993E-05-6.39431E-05-1.18357E-04 4.34697E-18-6.93889E-18
 -1      1236 7.28384E-05 1.32666E-05-3.77785E-05-7.25881E-05 7.62330E-18-9.17167E-18
 -1      1237 1.27417E-05-5.45091E-06-1.14676E-05-4.89222E-06 1.27885E-17-9.52065E-18
 -1      1238 1.16735E-05-6.20043E-05 8.74419E-06 3.56789E-05 1.49366E-17-7.85708E-18
 -1      1239 3.18621E-05-1.13127E-04 2.04074E-05 3.19420E-05 1.45478E-17-3.64881E-18
 -1      1240 4.07785E-05-1.26061E-04 2.24426E-05 1.95761E-06 4.27921E-18-1.32746E-18
 -1      1241 2.78351E-05-9.17981E-05 1.55709E-05-2.20492E-05-8.67023E-18-2.30689E-18
 -1      1242 9.91091E-06-3.21079E-05 1.46770E-06-1.38151E-05-1.27190E-17-6.14141E-18
 -1      1243 1.70382E-05 1.92843E-05-1.84802E-05 3.24400E-05-1.21532E-17-9.17337E-18
 -1      1244 7.21515E-05 2.96796E-05-4.04334E-05 9.11029E-05-1.07014E-17-1.24802E-17
 -1      1245 1.68726E-04-6.41187E-06-6.09052E-05 1.20519E-04-5.23551E-18-8.98871E-18
 -1      1246 2.69531E-04-6.18954E-05-7.61094E-05 9.96960E-05-2.25099E-18-8.47287E-18
 -1      1247 3.26323E-04-9.77700E-05-8.31149E-05 2.77762E-05-4.62056E-19-4.67901E-18
 -1      1248 3.08771E-04-8.62751E-05-8.10569E-05-6.02595E-05-3.41301E-19 2.08582E-18
 -1      1249 2.28404E-04-3.84327E-05-7.00720E-05-1.16456E-04-1.40989E-18 3.21873E-18
 -1      1250 1.22034E-04 1.38782E-05-5.20471E-05-1.13470E-04-3.99291E-18 6.43576E-18
 -1      1251 4.01766E-05 3.09210E-05-3.02696E-05-6.48706E-05-6.62380E-18 6.25280E-18
 -1      1252 8.82247E-06-2.34541E-06-8.35005E-06-6.66227E-06-8.40257E-18 6.06560E-18
 -1      1253 1.81825E-05-6.49365E-05 9.74641E-06 2.38034E-05 2.69695E-18 7.19978E-20
 -1      1254 3.71831E-05-1.15710E-04 2.03940E-05 1.33609E-05 8.26619E-18-1.18921E-18
 -1      1255 1.04474E-04-2.20265E-05-3.79029E-05-1.72823E-05-3.39237E-19 1.02872E-17
 -1      1256 9.03352E-05-6.68197E-06-3.60240E-05-2.04823E-05-1.24948E-18 1.54075E-18
 -1      1257 9.26759E-05-6.74072E-06-3.72306E-05-2.57715E-05-1.49586E-18 3.64632E-18
 -1      1258 8.59094E-05-4.09225E-06-3.51344E-05-1.64454E-05-1.39602E-18-1.52752E-18
 -1      1259 8.71661E-05-4.08745E-06-3.56051E-05-1.88644E-05-1.54266E-18-1.80153E-19
 -1      1260 9.21474E-05-1.04631E-05-3.50996E-05-1.90449E-05-2.23799E-18 1.30305E-18
 -1      1261 8.41048E-05-3.19095E-06-3.46895E-05-1.28334E-05-1.20876E-18-3.20557E-18
 -1      1262 8.47135E-05-3.15972E-06-3.49145E-05-1.46486E-05-1.33770E-18-2.40973E-18
 -1      1263 8.78745E-05-7.38973E-06-3.45779E-05-1.54309E-05-2.20725E-18-1.26107E-18
 -1      1264 8.31870E-05-2.72592E-06-3.44711E-05-9.70133E-06-9.83293E-19-4.14370E-18
 -1      1265 8.35047E-05-2.70941E-06-3.45813E-05-1.12478E-05-1.11144E-18-3.69592E-18
 -1      1266 8.58716E-05-5.98270E-06-3.43071E-05-1.19713E-05-1.86957E-18-2.66604E-18
 -1      1267 8.26910E-05-2.45468E-06-3.43639E-05-6.93329E-06-7.50680E-19-4.62923E-18
 -1      1268 8.28619E-05-2.44618E-06-3.44187E-05-8.30286E-06-8.65429E-19-4.38919E-18
 -1      1269 8.48189E-05-5.21252E-06-3.41738E-05-8.96040E-06-1.50089E-18-3.47681E-18
 -1      1270 8.24130E-05-2.28875E-06-3.43101E-05-4.31621E-06-5.72684E-19-4.85461E-18
 -1      1271 8.25053E-05-2.28479E-06-3.43378E-05-5.61589E-06-6.40820E-19-4.75205E-18
 -1      1272 8.42297E-05-4.75626E-06-3.41096E-05-6.23601E-06-1.15194E-18-3.88958E-18
 -1      1273 8.22780E-05-2.19852E-06-3.42870E-05-1.81500E-06-3.27894E-19-4.96674E-18
 -1      1274 8.23180E-05-2.19696E-06-3.42985E-05-3.06402E-06-3.91672E-19-4.89613E-18
 -1      1275 8.39041E-05-4.49126E-06-3.40798E-05-3.66682E-06-8.00708E-19-4.05751E-18
 -1      1276 8.22495E-05-2.16975E-06-3.42839E-05 6.39842E-07-1.21646E-19-4.96957E-18
 -1      1277 8.22491E-05-2.16984E-06-3.42838E-05-5.93311E-07-1.93237E-19-4.96674E-18
 -1      1278 8.37595E-05-4.36960E-06-3.40683E-05-1.19641E-06-4.06359E-19-4.16158E-18
 -1      1279 8.23205E-05-2.19808E-06-3.42990E-05 3.11163E-06 1.43994E-19-4.99445E-18
 -1      1280 8.22797E-05-2.19981E-06-3.42873E-05 1.86181E-06 5.29985E-20-4.98047E-18
 -1      1281 8.37609E-05-4.37085E-06-3.40685E-05 1.24293E-06-5.81119E-20-4.15797E-18
 -1      1282 8.25107E-05-2.28781E-06-3.43389E-05 5.66609E-06 3.31766E-19-4.94841E-18
 -1      1283 8.24172E-05-2.29143E-06-3.43108E-05 4.36459E-06 2.81867E-19-4.99252E-18
 -1      1284 8.39085E-05-4.49511E-06-3.40802E-05 3.71467E-06 3.45085E-19-4.16509E-18
 -1      1285 8.28666E-05-2.44787E-06-3.44201E-05 8.33299E-06 5.99322E-19-4.74291E-18
 -1      1286 8.26948E-05-2.45700E-06-3.43647E-05 6.96190E-06 4.95835E-19-4.86458E-18
 -1      1287 8.42348E-05-4.76034E-06-3.41100E-05 6.26382E-06 6.91387E-19-4.08418E-18
 -1      1288 8.35213E-05-2.71579E-06-3.45856E-05 1.13088E-05 8.75978E-19-4.28362E-18
 -1      1289 8.31999E-05-2.73340E-06-3.44739E-05 9.75792E-06 7.66538E-19-4.56621E-18
 -1      1290 8.48285E-05-5.21979E-06-3.41749E-05 8.99244E-06 1.14594E-18-3.79278E-18
 -1      1291 8.47444E-05-3.17030E-06-3.49234E-05 1.47204E-05 1.18942E-18-3.40203E-18
 -1      1292 8.41284E-05-3.20272E-06-3.46952E-05 1.28983E-05 1.05462E-18-3.96987E-18
 -1      1293 8.58995E-05-6.00237E-06-3.43107E-05 1.20339E-05 1.61067E-18-3.31733E-18
 -1      1294 8.72299E-05-4.10286E-06-3.56246E-05 1.89541E-05 1.43461E-18-1.53268E-18
 -1      1295 8.59557E-05-4.11339E-06-3.51463E-05 1.65237E-05 1.26555E-18-2.66379E-18
 -1      1296 8.79292E-05-7.42626E-06-3.45851E-05 1.55092E-05 1.99839E-18-2.19392E-18
 -1      1297 9.27555E-05-6.66794E-06-3.72458E-05 2.59248E-05 1.61444E-18 1.88396E-18
 -1      1298 9.04314E-05-6.72171E-06-3.60484E-05 2.05919E-05 1.26282E-18-1.56701E-20
 -1      1299 9.22665E-05-1.05469E-05-3.51118E-05 1.91450E-05 2.19948E-18-5.01338E-20
 -1      1300 1.04913E-04-2.20216E-05-3.80643E-05 1.76434E-05 3.87094E-19 8.19039E-18
 -1      1301 1.05180E-04-3.02402E-05-3.35355E-05-7.96519E-06-1.12253E-18 1.05530E-17
 -1      1302 9.82889E-05-2.78508E-05-3.07709E-05-4.99291E-06-1.08484E-18 9.29407E-18
 -1      1303 9.55284E-05-2.78564E-05-2.92625E-05-2.49262E-06-8.53942E-19 8.61272E-18
 -1      1304 9.32937E-05-2.75649E-05-2.82223E-05-2.04552E-06-8.38298E-19 7.38840E-18
 -1      1305 9.95096E-05-2.80582E-05-3.09907E-05-7.89435E-06-1.91736E-18 5.37924E-18
 -1      1306 9.16025E-05-2.72067E-05-2.75874E-05-8.39789E-07-6.92125E-19 6.90639E-18
 -1      1307 9.08845E-05-2.71110E-05-2.72846E-05-7.29493E-07-7.02415E-19 5.89596E-18
 -1      1308 9.47391E-05-2.77758E-05-2.88228E-05-3.12465E-06-1.46150E-18 4.36565E-18
 -1      1309 9.01334E-05-2.69279E-05-2.70412E-05-1.74814E-07-5.64203E-19 5.42898E-18
 -1      1310 9.00601E-05-2.69544E-05-2.70061E-05-1.16642E-07-4.93579E-19 4.62353E-18
 -1      1311 9.25374E-05-2.75048E-05-2.79012E-05-1.05564E-06-1.17073E-18 3.49461E-18
 -1      1312 8.98003E-05-2.68868E-05-2.69319E-05 1.54115E-07-2.54059E-19 4.42609E-18
 -1      1313 9.00147E-05-2.69769E-05-2.69935E-05 1.82914E-07-2.56919E-19 4.12214E-18
 -1      1314 9.15776E-05-2.73607E-05-2.75340E-05-7.10909E-08-7.51987E-19 2.80740E-18
 -1      1315 9.00188E-05-2.69801E-05-2.70000E-05 3.14500E-07-2.20807E-19 3.93253E-18
 -1      1316 9.03614E-05-2.70999E-05-2.70992E-05 3.26332E-07-2.38002E-19 3.75578E-18
 -1      1317 9.13244E-05-2.73487E-05-2.74260E-05 4.17392E-07-4.67198E-19 2.51270E-18
 -1      1318 9.05041E-05-2.71418E-05-2.71466E-05 3.81324E-07-2.25389E-19 3.58431E-18
 -1      1319 9.08926E-05-2.72703E-05-2.72589E-05 3.83101E-07-2.57018E-19 3.17743E-18
 -1      1320 9.14580E-05-2.74226E-05-2.74485E-05 6.46728E-07-4.40135E-19 2.00673E-18
 -1      1321 9.11018E-05-2.73309E-05-2.73256E-05 3.94084E-07-4.14671E-19 3.03728E-18
 -1      1322 9.14904E-05-2.74560E-05-2.74382E-05 3.89987E-07-3.37370E-19 2.45140E-18
 -1      1323 9.17923E-05-2.75420E-05-2.75379E-05 7.30189E-07-6.31571E-19 1.67879E-18
 -1      1324 9.17232E-05-2.75231E-05-2.75117E-05 3.75855E-07-3.44878E-19 2.25577E-18
 -1      1325 9.20866E-05-2.76380E-05-2.76174E-05 3.68573E-07-5.37051E-19 1.59894E-18
 -1      1326 9.22165E-05-2.76798E-05-2.76586E-05 7.29563E-07-7.11633E-19 1.42831E-18
 -1      1327 9.23179E-05-2.77045E-05-2.76900E-05 3.41056E-07-6.20167E-19 1.48744E-18
 -1      1328 9.26432E-05-2.78061E-05-2.77850E-05 3.32363E-07-2.51560E-19 7.64239E-19
 -1      1329 9.26643E-05-2.78193E-05-2.77895E-05 6.81810E-07-8.68206E-19 1.28470E-18
 -1      1330 9.28589E-05-2.78679E-05-2.78525E-05 2.98997E-07-1.04899E-19 1.89476E-19
 -1      1331 9.31411E-05-2.79552E-05-2.79352E-05 2.90062E-07-2.61201E-19-1.15577E-19
 -1      1332 9.30970E-05-2.79508E-05-2.79179E-05 6.10279E-07-5.88422E-19 5.57090E-19
 -1      1333 9.33343E-05-2.80105E-05-2.79956E-05 2.55739E-07-4.76785E-20-2.02462E-19
 -1      1334 9.35738E-05-2.80839E-05-2.80660E-05 2.47319E-07-1.37285E-19-3.22940E-19
 -1      1335 9.34936E-05-2.80693E-05-2.80369E-05 5.30077E-07-4.23082E-19-5.18289E-19
 -1      1336 9.37424E-05-2.81320E-05-2.81187E-05 2.15187E-07 5.27692E-20 4.54949E-21
 -1      1337 9.39425E-05-2.81929E-05-2.81777E-05 2.07759E-07 2.46153E-19 2.15163E-19
 -1      1338 9.38452E-05-2.81728E-05-2.81433E-05 4.51004E-07 4.73749E-20-2.87201E-19
 -1      1339 9.40875E-05-2.82342E-05-2.82230E-05 1.79799E-07 1.58024E-19 2.15871E-19
 -1      1340 9.42539E-05-2.82843E-05-2.82722E-05 1.73652E-07 4.18624E-20 4.32133E-19
 -1      1341 9.41503E-05-2.82615E-05-2.82362E-05 3.79325E-07 2.22834E-19-4.27973E-19
 -1      1342 9.43784E-05-2.83198E-05-2.83110E-05 1.51065E-07-1.36268E-19 4.45833E-19
 -1      1343 9.45176E-05-2.83614E-05-2.83523E-05 1.46362E-07-2.91334E-19 2.43648E-19
 -1      1344 9.44129E-05-2.83369E-05-2.83167E-05 3.18944E-07-1.13654E-19-5.73315E-19
 -1      1345 9.46259E-05-2.83921E-05-2.83861E-05 1.29827E-07 1.62783E-19 4.24501E-19
 -1      1346 9.47454E-05-2.84276E-05-2.84217E-05 1.26650E-07 6.44914E-20 6.15973E-19
 -1      1347 9.46399E-05-2.84015E-05-2.83868E-05 2.72173E-07 5.36893E-20-2.79229E-19
 -1      1348 9.48425E-05-2.84552E-05-2.84519E-05 1.16467E-07-1.95585E-19 6.03946E-19
 -1      1349 9.49498E-05-2.84869E-05-2.84839E-05 1.14838E-07-2.69053E-19 3.78658E-19
 -1      1350 9.48404E-05-2.84580E-05-2.84490E-05 2.40230E-07-8.40227E-20-4.71924E-19
 -1      1351 9.50410E-05-2.85127E-05-2.85123E-05 1.10982E-07-3.86304E-19 4.24030E-19
 -1      1352 9.51437E-05-2.85431E-05-2.85430E-05 1.10862E-07-3.24693E-19-1.60130E-20
 -1      1353 9.50245E-05-2.85095E-05-2.85062E-05 2.23484E-07-3.71806E-19-3.31616E-19
 -1      1354 9.52342E-05-2.85688E-05-2.85711E-05 1.12930E-07-7.15418E-20-3.44298E-19
 -1      1355 9.53392E-05-2.86000E-05-2.86025E-05 1.14192E-07-2.93348E-19-6.17551E-19
 -1      1356 9.52022E-05-2.85595E-05-2.85614E-05 2.21451E-07-5.09448E-19-1.26065E-19
 -1      1357 9.54336E-05-2.86271E-05-2.86317E-05 1.21230E-07-5.34046E-20-6.61321E-19
 -1      1358 9.55470E-05-2.86611E-05-2.86655E-05 1.23607E-07 8.21710E-20-5.35685E-19
 -1      1359 9.53834E-05-2.86109E-05-2.86173E-05 2.32541E-07-2.76353E-19-3.16704E-19
 -1      1360 9.56486E-05-2.86906E-05-2.86968E-05 1.33820E-07 1.52013E-19 6.98988E-20
 -1      1361 9.57740E-05-2.87288E-05-2.87340E-05 1.36815E-07 3.36391E-19 5.26875E-19
 -1      1362 9.55758E-05-2.86668E-05-2.86762E-05 2.53499E-07 5.11788E-19-8.70487E-19
 -1      1363 9.58839E-05-2.87612E-05-2.87676E-05 1.47137E-07 8.60880E-20 6.79546E-19
 -1      1364 9.60217E-05-2.88040E-05-2.88082E-05 1.49902E-07-1.97250E-19 7.77113E-19
 -1      1365 9.57841E-05-2.87290E-05-2.87388E-05 2.78553E-07 2.28889E-19-1.36453E-19
 -1      1366 9.61375E-05-2.88389E-05-2.88432E-05 1.55481E-07-1.83882E-19 9.05460E-19
 -1      1367 9.62820E-05-2.88849E-05-2.88854E-05 1.56675E-07-1.44607E-19 7.06287E-19
 -1      1368 9.60075E-05-2.87985E-05-2.88045E-05 2.98281E-07-3.02300E-19-1.45974E-19
 -1      1369 9.63961E-05-2.89206E-05-2.89192E-05 1.50343E-07-5.02629E-20 6.91969E-19
 -1      1370 9.65334E-05-2.89660E-05-2.89588E-05 1.47983E-07 1.11822E-19 1.03748E-18
 -1      1371 9.62368E-05-2.88737E-05-2.88698E-05 2.98353E-07-1.35833E-19 9.29318E-19
 -1      1372 9.66308E-05-2.89986E-05-2.89864E-05 1.19920E-07-3.39533E-20 6.97636E-19
 -1      1373 9.67353E-05-2.90358E-05-2.90158E-05 1.11305E-07-9.37096E-20 1.25260E-18
 -1      1374 9.64506E-05-2.89500E-05-2.89273E-05 2.58470E-07-1.22664E-19 6.63274E-19
 -1      1375 9.67918E-05-2.90588E-05-2.90294E-05 4.92566E-08-7.54571E-20 8.89888E-19
 -1      1376 9.68232E-05-2.90757E-05-2.90366E-05 3.10584E-08-1.82307E-19 3.33389E-19
 -1      1377 9.66116E-05-2.90175E-05-2.89651E-05 1.52168E-07-3.28462E-19 9.54912E-19
 -1      1378 9.68042E-05-2.90792E-05-2.90253E-05-7.83755E-08-4.12017E-19-5.02554E-20
 -1      1379 9.67062E-05-2.90581E-05-2.89939E-05-1.09689E-07-6.65540E-19-6.96922E-19
 -1      1380 9.66630E-05-2.90599E-05-2.89655E-05-5.14588E-08-7.29952E-19-6.01656E-19
 -1      1381 9.65668E-05-2.90288E-05-2.89439E-05-2.78032E-07-2.77456E-19-1.08617E-18
 -1      1382 9.62696E-05-2.89469E-05-2.88537E-05-3.25246E-07-1.94386E-19-1.70899E-18
 -1      1383 9.65271E-05-2.90532E-05-2.89058E-05-3.82718E-07-9.30044E-19-1.21736E-18
 -1      1384 9.59588E-05-2.88687E-05-2.87499E-05-5.56907E-07-1.00802E-19-1.24126E-18
 -1      1385 9.53873E-05-2.87006E-05-2.85800E-05-6.20452E-07 1.62690E-19-8.22813E-19
 -1      1386 9.61091E-05-2.89647E-05-2.87597E-05-8.61527E-07-6.49419E-20-1.22434E-18
 -1      1387 9.48563E-05-2.85564E-05-2.84088E-05-9.05478E-07-3.42833E-19-9.20073E-19
 -1      1388 9.39478E-05-2.82791E-05-2.81421E-05-9.81291E-07-3.76672E-19-1.31542E-18
 -1      1389 9.53087E-05-2.87560E-05-2.85016E-05-1.48244E-06-2.32256E-19-1.02567E-18
 -1      1390 9.31653E-05-2.80558E-05-2.78964E-05-1.28788E-06 2.46597E-19-1.35064E-18
 -1      1391 9.18950E-05-2.76574E-05-2.75274E-05-1.36539E-06 2.01369E-19-1.31530E-18
 -1      1392 9.40425E-05-2.83893E-05-2.81136E-05-2.19667E-06-4.46826E-19-6.40139E-19
 -1      1393 9.08662E-05-2.73519E-05-2.72118E-05-1.63612E-06 1.86235E-19-1.70648E-18
 -1      1394 8.92779E-05-2.68424E-05-2.67548E-05-1.69772E-06 6.43695E-20-1.57290E-18
 -1      1395 9.22785E-05-2.78401E-05-2.75947E-05-2.89787E-06 1.40703E-19-3.07546E-19
 -1      1396 8.80645E-05-2.64696E-05-2.63903E-05-1.85527E-06 2.05633E-19-1.08586E-18
 -1      1397 8.62930E-05-2.58906E-05-2.58850E-05-1.87906E-06-4.39357E-21-1.07425E-18
 -1      1398 9.00766E-05-2.71145E-05-2.69697E-05-3.42333E-06 5.17542E-19-6.52768E-19
 -1      1399 8.50227E-05-2.54888E-05-2.55107E-05-1.84563E-06-1.18219E-19-4.07899E-19
 -1      1400 8.32940E-05-2.49151E-05-2.50212E-05-1.81239E-06 4.66555E-19 7.38507E-20
 -1      1401 8.76199E-05-2.62674E-05-2.62942E-05-3.58340E-06 1.09367E-19 4.32516E-19
 -1      1402 8.21499E-05-2.45448E-05-2.46894E-05-1.54092E-06 9.82790E-20-3.07314E-20
 -1      1403 8.07436E-05-2.40731E-05-2.42934E-05-1.44366E-06 1.13754E-19 2.85172E-19
 -1      1404 8.52178E-05-2.54096E-05-2.56512E-05-3.22299E-06 4.39114E-19 7.30139E-19
 -1      1405 7.99255E-05-2.38045E-05-2.40586E-05-9.48257E-07 1.39800E-19 3.53372E-20
 -1      1406 7.91037E-05-2.35277E-05-2.38278E-05-7.99460E-07-2.06928E-20 7.18390E-20
 -1      1407 8.32573E-05-2.46926E-05-2.51365E-05-2.29819E-06 4.29373E-20-1.11074E-19
 -1      1408 7.87700E-05-2.34184E-05-2.37319E-05-1.65896E-07-5.19195E-19 6.45532E-20
 -1      1409 7.86940E-05-2.33946E-05-2.37098E-05 3.26735E-09-5.10367E-19-6.21815E-19
 -1      1410 8.21042E-05-2.42673E-05-2.48361E-05-9.28873E-07-4.44937E-19 4.52070E-19
 -1      1411 7.89069E-05-2.34677E-05-2.37690E-05 6.39619E-07 4.84645E-19 1.31383E-19
 -1      1412 7.95797E-05-2.36981E-05-2.39564E-05 7.89907E-07 1.05935E-18 7.08808E-19
 -1      1413 8.19853E-05-2.42301E-05-2.48013E-05 6.13990E-07 4.21922E-19 1.04751E-18
 -1      1414 8.02817E-05-2.39325E-05-2.41556E-05 1.29220E-06 4.52825E-19 1.03767E-18
 -1      1415 8.15469E-05-2.43608E-05-2.45102E-05 1.39161E-06-2.96253E-19 1.16947E-18
 -1      1416 8.29054E-05-2.45831E-05-2.50332E-05 1.99542E-06 1.08183E-18 2.20081E-18
 -1      1417 8.25816E-05-2.46995E-05-2.48082E-05 1.67079E-06-8.78511E-19 1.01972E-18
 -1      1418 8.41782E-05-2.52329E-05-2.52586E-05 1.70578E-06-1.20603E-18-3.33453E-19
 -1      1419 8.46448E-05-2.52334E-05-2.54817E-05 2.93836E-06-1.05996E-18 1.74738E-18
 -1      1420 8.53455E-05-2.56053E-05-2.56008E-05 1.74513E-06-1.31669E-18-1.63526E-18
 -1      1421 8.69915E-05-2.61461E-05-2.60690E-05 1.72223E-06-7.73692E-19-2.90072E-18
 -1      1422 8.68393E-05-2.60301E-05-2.60618E-05 3.31542E-06-2.10409E-18 6.69321E-20
 -1      1423 8.81069E-05-2.64906E-05-2.64031E-05 1.56896E-06 8.06021E-19-2.62826E-18
 -1      1424 8.95748E-05-2.69629E-05-2.68247E-05 1.50786E-06 1.03940E-18-2.00180E-18
 -1      1425 8.90994E-05-2.68193E-05-2.66777E-05 3.16737E-06 1.56663E-19-5.25425E-19
 -1      1426 9.05105E-05-2.72407E-05-2.71120E-05 1.24325E-06 1.50476E-19-2.68761E-19
 -1      1427 9.16675E-05-2.76031E-05-2.74482E-05 1.16719E-06 1.16619E-19 3.64264E-19
 -1      1428 9.11138E-05-2.74876E-05-2.72469E-05 2.65373E-06 1.54061E-18 6.24123E-19
 -1      1429 9.23661E-05-2.78001E-05-2.76690E-05 8.74421E-07 6.34370E-19 1.29417E-19
 -1      1430 9.31779E-05-2.80455E-05-2.79083E-05 8.02771E-07 1.19971E-18 1.10690E-18
 -1      1431 9.27024E-05-2.79798E-05-2.77156E-05 1.97551E-06 8.44401E-19 1.29823E-18
 -1      1432 9.36424E-05-2.81673E-05-2.80608E-05 5.45467E-07 1.13611E-18 1.23867E-18
 -1      1433 9.41502E-05-2.83131E-05-2.82131E-05 4.90520E-07 6.11131E-19 1.95172E-18
 -1      1434 9.38174E-05-2.82928E-05-2.80628E-05 1.31006E-06 1.47497E-18 1.12125E-18
 -1      1435 9.44246E-05-2.83775E-05-2.83079E-05 3.03422E-07-9.47105E-19 1.51354E-18
 -1      1436 9.47113E-05-2.84543E-05-2.83955E-05 2.69547E-07-7.95134E-19 3.05061E-19
 -1      1437 9.45122E-05-2.84598E-05-2.82949E-05 7.75464E-07-2.24520E-19 3.74356E-19
 -1      1438 9.48560E-05-2.84832E-05-2.84485E-05 1.58151E-07 3.25175E-19 3.36830E-20
 -1      1439 9.50099E-05-2.85229E-05-2.84950E-05 1.42636E-07 2.98724E-19 5.88842E-19
 -1      1440 9.48951E-05-2.85304E-05-2.84346E-05 4.18743E-07-6.92984E-19-5.16558E-20
 -1      1441 9.50842E-05-2.85395E-05-2.85210E-05 8.46307E-08 1.62954E-19 7.07208E-19
 -1      1442 9.51680E-05-2.85646E-05-2.85433E-05 7.67900E-08-6.90865E-20 8.62739E-19
 -1      1443 9.50891E-05-2.85575E-05-2.85088E-05 2.20027E-07 7.59844E-19-1.15279E-19
 -1      1444 9.52234E-05-2.85831E-05-2.85562E-05 1.52872E-08-8.06635E-19 6.00001E-19
 -1      1445 9.52116E-05-2.86011E-05-2.85437E-05 8.55598E-08-7.92820E-19-3.82339E-19
 -1      1446 9.86175E-05-2.78387E-05-3.09575E-05 5.26092E-06 1.27214E-18 7.04303E-18
 -1      1447 1.05743E-04-3.01651E-05-3.38079E-05 8.43751E-06 1.34064E-18 8.64037E-18
 -1      1448 9.34855E-05-2.76041E-05-2.83001E-05 2.14651E-06 9.55003E-19 5.02672E-18
 -1      1449 9.58267E-05-2.79036E-05-2.93943E-05 2.60064E-06 1.08066E-18 6.47618E-18
 -1      1450 9.97391E-05-2.79364E-05-3.11361E-05 8.27447E-06 2.14818E-18 3.73579E-18
 -1      1451 9.09587E-05-2.71243E-05-2.73131E-05 7.74582E-07 6.10856E-19 3.53483E-18
 -1      1452 9.17225E-05-2.72263E-05-2.76373E-05 8.90664E-07 7.17788E-19 4.44301E-18
 -1      1453 9.49057E-05-2.77926E-05-2.88937E-05 3.29079E-06 1.65913E-18 2.84090E-18
 -1      1454 9.00795E-05-2.69570E-05-2.70129E-05 1.37954E-07 5.36542E-19 2.33465E-18
 -1      1455 9.01741E-05-2.69347E-05-2.70565E-05 1.98727E-07 5.66328E-19 3.07642E-18
 -1      1456 9.26115E-05-2.75128E-05-2.79316E-05 1.12799E-06 1.12766E-18 1.76073E-18
 -1      1457 9.00062E-05-2.69730E-05-2.69909E-05-1.71963E-07 4.95506E-19 1.27185E-18
 -1      1458 8.98020E-05-2.68854E-05-2.69325E-05-1.42088E-07 4.37034E-19 1.96453E-18
 -1      1459 9.16058E-05-2.73641E-05-2.75450E-05 1.06330E-07 9.77403E-19 9.85304E-19
 -1      1460 9.03386E-05-2.70922E-05-2.70924E-05-3.21245E-07 3.05455E-19 6.00943E-19
 -1      1461 9.00003E-05-2.69735E-05-2.69945E-05-3.08720E-07 4.71847E-19 1.02557E-18
 -1      1462 9.13261E-05-2.73469E-05-2.74278E-05-3.99565E-07 8.55153E-19 5.72124E-19
 -1      1463 9.08633E-05-2.72611E-05-2.72501E-05-3.81328E-07 1.45206E-19 3.08949E-19
 -1      1464 9.04761E-05-2.71328E-05-2.71383E-05-3.79173E-07 2.36217E-19 4.99266E-19
 -1      1465 9.14452E-05-2.74175E-05-2.74454E-05-6.38718E-07 4.84436E-19 1.85240E-19
 -1      1466 9.14589E-05-2.74463E-05-2.74288E-05-3.89979E-07 3.43405E-19-1.23812E-19
 -1      1467 9.10701E-05-2.73211E-05-2.73161E-05-3.93888E-07 1.98047E-19 3.14256E-19
 -1      1468 9.17722E-05-2.75353E-05-2.75322E-05-7.27627E-07 3.99574E-19-9.50323E-20
 -1      1469 9.20553E-05-2.76286E-05-2.76079E-05-3.69391E-07 2.70844E-20-4.40828E-19
 -1      1470 9.16909E-05-2.75133E-05-2.75020E-05-3.76610E-07 2.14460E-19-1.56450E-19
 -1      1471 9.21931E-05-2.76725E-05-2.76518E-05-7.29860E-07 3.87009E-19-2.13214E-19
 -1      1472 9.26129E-05-2.77971E-05-2.77758E-05-3.33366E-07 9.91347E-20-6.58863E-19
 -1      1473 9.22866E-05-2.76951E-05-2.76805E-05-3.42089E-07 8.63808E-20-4.83788E-19
 -1      1474 9.26400E-05-2.78120E-05-2.77823E-05-6.83331E-07 2.26195E-19-1.67320E-19
 -1      1475 9.31119E-05-2.79466E-05-2.79263E-05-2.90767E-07 7.30783E-20-1.03366E-18
 -1      1476 9.28288E-05-2.78590E-05-2.78434E-05-2.99809E-07 1.58837E-19-7.52182E-19
 -1      1477 9.30728E-05-2.79437E-05-2.79106E-05-6.11874E-07 3.20353E-19-2.99773E-19
 -1      1478 9.35442E-05-2.80753E-05-2.80571E-05-2.47303E-07 2.81837E-19-1.49498E-18
 -1      1479 9.33052E-05-2.80019E-05-2.79868E-05-2.55959E-07 3.49692E-19-1.02396E-18
 -1      1480 9.34698E-05-2.80625E-05-2.80296E-05-5.30844E-07 4.35071E-19-6.29772E-19
 -1      1481 9.38950E-05-2.81790E-05-2.81632E-05-2.08697E-07 1.80597E-19-2.06572E-18
 -1      1482 9.37044E-05-2.81212E-05-2.81071E-05-2.15968E-07 1.39039E-19-1.72148E-18
 -1      1483 9.38134E-05-2.81636E-05-2.81333E-05-4.51818E-07 5.34915E-19-7.79823E-19
 -1      1484 9.42068E-05-2.82707E-05-2.82578E-05-1.73106E-07 1.40735E-19-2.48284E-18
 -1      1485 9.40411E-05-2.82207E-05-2.82087E-05-1.79629E-07 1.72883E-19-2.41560E-18
 -1      1486 9.41118E-05-2.82507E-05-2.82243E-05-3.80086E-07 5.40634E-19-1.37805E-18
 -1      1487 9.44684E-05-2.83470E-05-2.83372E-05-1.44291E-07-3.35297E-19-1.87055E-18
 -1      1488 9.43314E-05-2.83061E-05-2.82966E-05-1.49349E-07-1.87133E-19-2.14523E-18
 -1      1489 9.43751E-05-2.83265E-05-2.83050E-05-3.17030E-07-2.27973E-19-1.42436E-18
 -1      1490 9.46925E-05-2.84120E-05-2.84055E-05-1.23466E-07-1.66288E-19-1.13658E-18
 -1      1491 9.45766E-05-2.83778E-05-2.83709E-05-1.26918E-07-2.50424E-19-1.34915E-18
 -1      1492 9.46022E-05-2.83909E-05-2.83751E-05-2.67923E-07-6.02204E-19-3.94806E-19
 -1      1493 9.48937E-05-2.84698E-05-2.84668E-05-1.11798E-07-1.12731E-19-1.04114E-18
 -1      1494 9.47902E-05-2.84396E-05-2.84358E-05-1.13455E-07 2.78019E-20-1.07483E-18
 -1      1495 9.48033E-05-2.84471E-05-2.84377E-05-2.35263E-07 2.81138E-22 1.64209E-20
 -1      1496 9.50892E-05-2.85254E-05-2.85265E-05-1.10775E-07-1.95373E-19-7.01509E-19
 -1      1497 9.49881E-05-2.84964E-05-2.84962E-05-1.10359E-07 4.89516E-20-7.67385E-19
 -1      1498 9.49911E-05-2.84988E-05-2.84966E-05-2.21698E-07-2.06657E-19 5.89097E-20
 -1      1499 9.52996E-05-2.85849E-05-2.85909E-05-1.22631E-07 6.42908E-19-1.40461E-18
 -1      1500 9.51891E-05-2.85535E-05-2.85576E-05-1.19692E-07 2.14790E-19-8.87175E-19
 -1      1501 9.51811E-05-2.85503E-05-2.85568E-05-2.30819E-07 1.01996E-19 9.96645E-20
 -1      1502 9.55513E-05-2.86558E-05-2.86679E-05-1.50882E-07 1.64421E-20-1.61223E-18
 -1      1503 9.54162E-05-2.86175E-05-2.86273E-05-1.44691E-07 3.52453E-19-1.71374E-18
 -1      1504 9.53925E-05-2.86066E-05-2.86241E-05-2.68079E-07 7.78458E-19 5.36079E-20
 -1      1505 9.58790E-05-2.87476E-05-2.87683E-05-2.01113E-07 1.44782E-19-1.63336E-18
 -1      1506 9.56988E-05-2.86966E-05-2.87142E-05-1.90495E-07-1.01400E-20-1.49746E-18
 -1      1507 9.56495E-05-2.86743E-05-2.87064E-05-3.42025E-07-1.06516E-20-2.89171E-19
 -1      1508 9.63306E-05-2.88739E-05-2.89068E-05-2.82132E-07-1.91683E-19-1.12436E-18
 -1      1509 9.60767E-05-2.88019E-05-2.88306E-05-2.65214E-07 1.61585E-19-1.28575E-18
 -1      1510 9.59845E-05-2.87614E-05-2.88142E-05-4.66091E-07 1.60634E-19-1.71258E-19
 -1      1511 9.69747E-05-2.90535E-05-2.91047E-05-4.07732E-07-1.95378E-19-1.31033E-18
 -1      1512 9.66052E-05-2.89486E-05-2.89939E-05-3.81550E-07-1.28382E-19-1.42790E-18
 -1      1513 9.64409E-05-2.88788E-05-2.89617E-05-6.61258E-07-1.77670E-19-1.51299E-19
 -1      1514 9.79115E-05-2.93142E-05-2.93931E-05-5.99315E-07 3.78154E-20-1.06799E-18
 -1      1515 9.73640E-05-2.91584E-05-2.92289E-05-5.59205E-07 6.16101E-20-6.13604E-19
 -1      1516 9.70798E-05-2.90412E-05-2.91690E-05-9.59992E-07-3.03248E-19-6.96894E-19
 -1      1517 9.92890E-05-2.96965E-05-2.98182E-05-8.89522E-07 4.94014E-19-1.79932E-18
 -1      1518 9.84693E-05-2.94628E-05-2.95725E-05-8.28327E-07 2.95725E-19-1.33908E-18
 -1      1519 9.79870E-05-2.92687E-05-2.94646E-05-1.41194E-06 5.02297E-19-4.12524E-19
 -1      1520 1.01323E-04-3.02587E-05-3.04493E-05-1.32824E-06 5.98935E-19-2.73921E-18
 -1      1521 1.00092E-04-2.99097E-05-3.00788E-05-1.23380E-06 5.88291E-19-2.03397E-18
 -1      1522 9.92836E-05-2.95892E-05-2.98893E-05-2.09189E-06 8.11183E-19-5.78517E-19
 -1      1523 1.04161E-04-3.10465E-05-3.13304E-05-1.94532E-06-1.90126E-19-2.50680E-18
 -1      1524 1.02413E-04-3.05443E-05-3.08063E-05-1.81758E-06 9.73294E-20-3.07629E-18
 -1      1525 1.01084E-04-3.00307E-05-3.04805E-05-3.07645E-06 6.87698E-19-9.48328E-19
 -1      1526 1.08513E-04-3.22595E-05-3.26862E-05-2.89264E-06 9.50662E-20-2.38900E-18
 -1      1527 1.05781E-04-3.14654E-05-3.18660E-05-2.68306E-06 7.04758E-21-2.19707E-18
 -1      1528 1.03633E-04-3.06494E-05-3.13221E-05-4.51299E-06-5.72541E-20-5.65687E-19
 -1      1529 1.14829E-04-3.40408E-05-3.46506E-05-4.24161E-06-6.29901E-19-1.99360E-18
 -1      1530 1.10797E-04-3.28451E-05-3.34468E-05-3.93929E-06-1.92382E-19-2.30991E-18
 -1      1531 1.07314E-04-3.15566E-05-3.25319E-05-6.61803E-06-2.98936E-19-2.68050E-19
 -1      1532 1.23703E-04-3.66167E-05-3.73764E-05-6.01906E-06-2.85238E-19-9.24642E-19
 -1      1533 1.17963E-04-3.48568E-05-3.56918E-05-5.61509E-06-4.39299E-19-1.37532E-18
 -1      1534 1.12424E-04-3.28682E-05-3.41852E-05-9.47794E-06-1.08543E-18 7.22625E-20
 -1      1535 1.35404E-04-4.02172E-05-4.08445E-05-7.97397E-06-2.02811E-19-9.51430E-19
 -1      1536 1.27820E-04-3.77515E-05-3.87064E-05-7.53581E-06-1.15508E-19-7.58359E-19
 -1      1537 1.19316E-04-3.48284E-05-3.63165E-05-1.29291E-05-3.11457E-19 5.81581E-19
 -1      1538 1.49004E-04-4.48853E-05-4.45541E-05-9.11176E-06-1.00780E-19-6.43957E-19
 -1      1539 1.40443E-04-4.18047E-05-4.23357E-05-8.92296E-06 1.84223E-19-4.54116E-19
 -1      1540 1.28200E-04-3.78813E-05-3.87871E-05-1.60020E-05-2.79134E-19 1.19437E-18
 -1      1541 1.60913E-04-4.99094E-05-4.72134E-05-7.05558E-06-3.45986E-19 1.50309E-19
 -1      1542 1.54512E-04-4.70855E-05-4.58611E-05-7.81924E-06-5.95994E-19-5.28337E-19
 -1      1543 1.38878E-04-4.26889E-05-4.11691E-05-1.60375E-05-7.39724E-19 1.33699E-18
 -1      1544 1.63952E-04-5.26444E-05-4.71555E-05 1.46754E-06-1.28008E-19 9.89758E-19
 -1      1545 1.65785E-04-5.25721E-05-4.79078E-05-1.13437E-06-1.13211E-19 1.37537E-18
 -1      1546 1.50188E-04-4.94080E-05-4.29169E-05-8.31634E-06-5.12243E-19 2.01173E-18
 -1      1547 1.51097E-04-4.81874E-05-4.44073E-05 1.50553E-05-6.55127E-20 2.96462E-19
 -1      1548 1.65892E-04-5.38689E-05-4.73017E-05 1.17050E-05 1.39390E-19 4.91279E-19
 -1      1549 1.58794E-04-5.49888E-05-4.42274E-05 1.06227E-05 2.30022E-19 3.27225E-18
 -1      1550 1.30502E-04-3.69437E-05-4.20220E-05 2.05570E-05 5.25796E-19-6.51157E-19
 -1      1551 1.49118E-04-4.55994E-05-4.48295E-05 2.08386E-05 1.98523E-19-2.76980E-19
 -1      1552 1.60014E-04-5.25747E-05-4.63989E-05 3.01798E-05 7.97482E-19 5.81065E-19
 -1      1553 1.16648E-04-2.69230E-05-4.14861E-05 7.94241E-06 3.40084E-19-1.20596E-18
 -1      1554 1.26157E-04-3.23433E-05-4.26620E-05 1.29928E-05 4.93820E-19-9.04843E-19
 -1      1555 1.53012E-04-3.95147E-05-4.99088E-05 2.98542E-05 1.17441E-18 2.29334E-19
 -1      1556 1.24630E-04-3.10722E-05-4.25029E-05-1.11124E-05-2.47757E-20-5.71324E-19
 -1      1557 1.16700E-04-2.76265E-05-4.15077E-05-7.39819E-06 1.65807E-19-1.04619E-18
 -1      1558 1.48346E-04-2.94137E-05-5.16413E-05 2.47994E-06 4.02341E-19-4.78256E-19
 -1      1559 1.42394E-04-4.17250E-05-4.41736E-05-2.00869E-05-3.55542E-19-9.17337E-19
 -1      1560 1.27341E-04-3.47747E-05-4.19134E-05-1.95678E-05-4.13140E-19-4.98479E-19
 -1      1561 1.51479E-04-3.67963E-05-5.02520E-05-2.52027E-05-3.99800E-19-1.01819E-18
 -1      1562 1.62621E-04-5.28375E-05-4.65851E-05-1.40177E-05-1.55629E-19-4.53163E-19
 -1      1563 1.46578E-04-4.61191E-05-4.36180E-05-1.71594E-05-4.86938E-19-4.61633E-19
 -1      1564 1.57828E-04-4.91981E-05-4.69840E-05-3.13478E-05-4.44057E-19-1.40618E-18
 -1      1565 1.65828E-04-5.31635E-05-4.76117E-05-1.42465E-06 2.81321E-19 7.55765E-19
 -1      1566 1.61657E-04-5.21702E-05-4.64151E-05-4.34182E-06-1.01856E-19 4.91914E-19
 -1      1567 1.58982E-04-5.48662E-05-4.42786E-05-1.48777E-05-6.05956E-19 3.79206E-19
 -1      1568 1.56266E-04-4.80740E-05-4.60936E-05 6.96045E-06-2.81956E-19 1.46240E-18
 -1      1569 1.61461E-04-5.05345E-05-4.70765E-05 5.77627E-06 2.60304E-19 1.33072E-18
 -1      1570 1.51682E-04-5.07471E-05-4.28916E-05 5.06110E-06-4.24840E-19 1.33628E-18
 -1      1571 1.42011E-04-4.24589E-05-4.26837E-05 9.19884E-06-1.27849E-20 3.78412E-19
 -1      1572 1.50626E-04-4.56599E-05-4.48581E-05 9.22229E-06 2.41775E-19 4.20764E-19
 -1      1573 1.40361E-04-4.37984E-05-4.12601E-05 1.53827E-05 3.63430E-19 2.46910E-19
 -1      1574 1.28371E-04-3.79537E-05-3.88471E-05 8.27322E-06-5.80548E-20 1.61519E-18
 -1      1575 1.36581E-04-4.06829E-05-4.11389E-05 8.66853E-06-4.63942E-19 3.49189E-19
 -1      1576 1.29051E-04-3.84129E-05-3.88958E-05 1.68458E-05-6.01288E-19-9.63394E-19
 -1      1577 1.17230E-04-3.46188E-05-3.54799E-05 6.45408E-06-2.94238E-19 1.85119E-18
 -1      1578 1.23751E-04-3.66561E-05-3.73878E-05 6.85767E-06-5.81012E-20 2.14670E-18
 -1      1579 1.19285E-04-3.48773E-05-3.62751E-05 1.43469E-05-3.02556E-19-4.65484E-19
 -1      1580 1.08796E-04-3.22076E-05-3.28636E-05 4.72923E-06 1.36147E-18 7.89567E-19
 -1      1581 1.13583E-04-3.36586E-05-3.42886E-05 5.04349E-06 1.26021E-18 2.37598E-18
 -1      1582 1.11447E-04-3.25451E-05-3.39041E-05 1.09819E-05 4.15430E-19 8.72186E-19
 -1      1583 1.02698E-04-3.04768E-05-3.09715E-05 3.33235E-06 1.00982E-18-2.04161E-18
 -1      1584 1.06057E-04-3.14899E-05-3.19692E-05 3.56809E-06 1.49039E-18-4.86223E-19
 -1      1585 1.05440E-04-3.09196E-05-3.20041E-05 7.97439E-06 2.34706E-18-1.16857E-18
 -1      1586 9.85540E-05-2.92767E-05-2.97061E-05 2.17439E-06-2.92623E-19-1.53517E-18
 -1      1587 1.00739E-04-2.99470E-05-3.03465E-05 2.37798E-06-7.92360E-19-1.69784E-18
 -1      1588 1.01008E-04-2.97287E-05-3.06027E-05 5.51258E-06 1.61982E-19-2.71430E-18
 -1      1589 9.61188E-05-2.85458E-05-2.89666E-05 1.04991E-06-8.15991E-19 7.28035E-19
 -1      1590 9.72233E-05-2.88530E-05-2.93110E-05 1.28338E-06 9.80772E-20 3.12793E-19
 -1      1591 9.78923E-05-2.88116E-05-2.96528E-05 3.39036E-06-1.21814E-18-1.62271E-18
 -1      1592 9.52873E-05-2.84444E-05-2.86492E-05 5.03837E-08 4.28883E-19 4.36229E-19
 -1      1593 9.48754E-05-2.66513E-05-2.92695E-05 1.29568E-06-1.28598E-18-2.12966E-18
 -1      1594 9.51992E-05-2.76497E-05-2.89542E-05 1.03280E-06 7.00622E-19-2.19907E-18
 -1      1595 9.38752E-05-2.39345E-05-2.99844E-05 1.79345E-06-1.99801E-18-4.20059E-20
 -1      1596 9.44516E-05-2.55215E-05-2.95558E-05 1.71522E-06-1.09193E-18-9.76040E-19
 -1      1597 9.46921E-05-2.58844E-05-2.95161E-05 2.90506E-06 4.51310E-21-2.39488E-18
 -1      1598 9.28841E-05-2.11962E-05-3.07154E-05 1.64813E-06-1.98210E-18-1.04468E-19
 -1      1599 9.34321E-05-2.27473E-05-3.02940E-05 1.73305E-06-2.28376E-18 7.75194E-19
 -1      1600 9.37246E-05-2.35597E-05-3.00598E-05 3.37243E-06-2.42450E-19 6.32776E-19
 -1      1601 9.22234E-05-1.92711E-05-3.12499E-05 1.01322E-06-8.64966E-20 3.16175E-19
 -1      1602 9.25738E-05-2.02968E-05-3.09655E-05 1.17647E-06-1.25409E-18 1.42081E-18
 -1      1603 9.28245E-05-2.14336E-05-3.05550E-05 2.68753E-06-1.11452E-18 1.63999E-18
 -1      1604 9.20191E-05-1.85974E-05-3.14519E-05 1.88441E-07-2.76294E-18-1.04517E-18
 -1      1605 9.21003E-05-1.88720E-05-3.13712E-05 3.62062E-07-7.47275E-19-2.16176E-18
 -1      1606 9.23216E-05-2.01371E-05-3.08807E-05 1.30655E-06-1.84717E-18-2.33402E-18
 -1      1607 9.22511E-05-1.91778E-05-3.13082E-05-5.86468E-07-1.55071E-18-5.20495E-20
 -1      1608 9.20855E-05-1.87328E-05-3.14276E-05-4.44059E-07-1.63858E-18 5.76806E-19
 -1      1609 9.22643E-05-1.98985E-05-3.09631E-05-2.54734E-07 1.10832E-18-7.60199E-19
 -1      1610 9.28041E-05-2.07329E-05-3.08860E-05-1.11359E-06 3.83494E-19 9.65412E-19
 -1      1611 9.24669E-05-1.97674E-05-3.11536E-05-1.03492E-06-4.04716E-19 6.77947E-19
 -1      1612 9.26033E-05-2.06663E-05-3.07958E-05-1.56289E-06 4.29432E-19 8.41666E-19
 -1      1613 9.35042E-05-2.27856E-05-3.03119E-05-1.32302E-06 2.08655E-18 7.86932E-19
 -1      1614 9.30985E-05-2.15877E-05-3.06492E-05-1.31084E-06 5.63264E-19 1.54485E-18
 -1      1615 9.31950E-05-2.21476E-05-3.04358E-05-2.33563E-06 1.91229E-18 1.68181E-18
 -1      1616 9.41879E-05-2.48610E-05-2.97184E-05-1.24698E-06 2.50429E-18 6.21041E-19
 -1      1617 9.38055E-05-2.37009E-05-3.00496E-05-1.28619E-06 1.95614E-18 8.78999E-19
 -1      1618 9.38697E-05-2.39397E-05-2.99757E-05-2.51764E-06 2.87638E-18 1.16424E-18
 -1      1619 9.47405E-05-2.66029E-05-2.92089E-05-9.79183E-07-2.24460E-18-3.02765E-18
 -1      1620 9.44427E-05-2.56708E-05-2.94791E-05-1.04678E-06 1.71441E-18-1.43933E-18
 -1      1621 9.44836E-05-2.56683E-05-2.95103E-05-2.21983E-06 1.25001E-18-1.25701E-18
 -1      1622 9.51040E-05-2.78108E-05-2.88455E-05-6.37793E-07-5.23393E-18-3.75298E-19
 -1      1623 9.49183E-05-2.71992E-05-2.90266E-05-7.09072E-07-2.22444E-18-2.66217E-18
 -1      1624 9.49441E-05-2.70623E-05-2.91155E-05-1.64299E-06-1.83441E-18-4.77885E-18
 -1      1625 9.52926E-05-2.85048E-05-2.86265E-05-3.07712E-07-4.08869E-18 1.27618E-18
 -1      1626 9.52068E-05-2.81893E-05-2.87242E-05-3.69167E-07-5.08062E-18 1.98867E-18
 -1      1627 9.52269E-05-2.80172E-05-2.88259E-05-9.89434E-07-1.38532E-18 4.41412E-19
 -1      1628 9.53377E-05-2.87572E-05-2.85347E-05-6.21070E-08-1.49308E-18 1.46247E-18
 -1      1629 9.53289E-05-2.86782E-05-2.85646E-05-1.01149E-07-3.35988E-18 1.78216E-18
 -1      1630 9.53467E-05-2.85427E-05-2.86467E-05-4.13966E-07-1.41472E-19 2.02770E-18
 -1      1631 9.52998E-05-2.87353E-05-2.85243E-05 5.77380E-08-1.34349E-18 6.98573E-19
 -1      1632 9.53250E-05-2.87866E-05-2.85152E-05 5.24241E-08-1.63901E-18 4.75109E-19
 -1      1633 9.53471E-05-2.87221E-05-2.85616E-05-2.53999E-08-5.82288E-19 5.06837E-19
 -1      1634 9.52464E-05-2.86400E-05-2.85434E-05 9.42215E-08-1.02985E-18-6.02343E-19
 -1      1635 9.52791E-05-2.87124E-05-2.85273E-05 1.09094E-07-8.68480E-19 1.74908E-19
 -1      1636 9.52891E-05-2.86931E-05-2.85383E-05 1.50480E-07-5.20082E-19 8.36618E-19
 -1      1637 9.51892E-05-2.86170E-05-2.85346E-05 1.75490E-07-1.66636E-21-4.55078E-19
 -1      1638 2.27716E-05-8.09970E-05 1.81878E-05-1.42249E-05-6.71274E-20-2.87144E-19
 -1      1639 2.55534E-05-8.63439E-05 1.92015E-05-3.51964E-06 1.81202E-18-1.04079E-18
 -1      1640 1.99888E-05-5.70292E-05 9.88731E-06-1.07888E-05 3.57448E-19 1.54689E-19
 -1      1641 2.56912E-05-7.74310E-05 1.50771E-05-1.00935E-05 4.65868E-20-7.32683E-20
 -1      1642 2.96129E-05-2.67039E-05-5.73794E-06 1.06472E-05 8.93620E-19-3.62954E-19
 -1      1643 2.74097E-05-5.11305E-05 3.27155E-06-5.06457E-06 6.26804E-20 7.61906E-19
 -1      1644 8.30530E-05-1.78893E-05-2.90063E-05 4.85879E-05 1.27902E-18-9.14796E-20
 -1      1645 5.55490E-05-2.83049E-05-1.64829E-05 2.13875E-05 1.09775E-18 4.65868E-19
 -1      1646 1.60178E-04-2.88731E-05-5.28348E-05 7.38957E-05 6.39510E-19-1.25191E-18
 -1      1647 1.09848E-04-1.81654E-05-4.06820E-05 5.41141E-05 7.69106E-19-1.47384E-19
 -1      1648 2.48026E-04-5.88232E-05-7.29302E-05 6.68120E-05-5.94617E-19-7.35225E-19
 -1      1649 1.89658E-04-3.39903E-05-6.31652E-05 7.20274E-05 7.00496E-19-7.09814E-19
 -1      1650 3.01906E-04-7.98452E-05-8.43636E-05 2.60565E-05 1.00246E-18-2.97817E-18
 -1      1651 2.68199E-04-6.27933E-05-7.94108E-05 5.67043E-05-2.33463E-19-1.78131E-18
 -1      1652 2.98964E-04-7.66182E-05-8.48304E-05-2.50991E-05 1.74065E-19-1.70296E-18
 -1      1653 3.05434E-04-7.99591E-05-8.58330E-05 1.29027E-05 9.33854E-19-2.09556E-18
 -1      1654 2.48779E-04-5.52470E-05-7.54669E-05-6.55690E-05 1.42397E-18-2.48011E-18
 -1      1655 2.92016E-04-7.64839E-05-8.20509E-05-4.14512E-05 5.94829E-19-1.52297E-18
 -1      1656 1.61944E-04-2.78664E-05-5.57718E-05-6.60732E-05 5.02036E-18-4.94837E-18
 -1      1657 2.21948E-04-4.98260E-05-6.70494E-05-7.05239E-05 3.13063E-18-2.06676E-18
 -1      1658 8.96321E-05-2.36851E-05-3.11836E-05-3.85326E-05 6.53317E-18-6.08254E-18
 -1      1659 1.33842E-04-2.70899E-05-4.42102E-05-6.26757E-05 4.96531E-18-5.74458E-18
 -1      1660 4.26678E-05-3.68555E-05-8.05155E-06-1.05012E-05 9.21572E-18-5.89662E-18
 -1      1661 5.94098E-05-1.95370E-05-1.95218E-05-3.46449E-05 7.65548E-18-4.90009E-18
 -1      1662 2.67577E-05-6.32191E-05 8.98412E-06 7.37147E-06 9.95772E-18-3.98381E-18
 -1      1663 2.43238E-05-3.87041E-05 1.29488E-06-1.12203E-06 9.97890E-18-5.61244E-18
 -1      1664 2.48620E-05-8.09927E-05 1.75221E-05 6.69536E-06 7.55236E-18-3.75892E-18
 -1      1665 1.96737E-05-6.65507E-05 1.41607E-05 1.30721E-05 1.02063E-17-4.27646E-18
 -1      1666 2.36452E-05-7.97964E-05 1.77915E-05 1.45078E-07-3.90059E-19-3.90186E-18
 -1      1667 2.44189E-05-8.46176E-05 1.90967E-05 1.16212E-05 5.67501E-18-4.36582E-18
 -1      1668 2.01801E-05-5.48685E-05 9.83509E-06-1.94152E-07-6.46794E-18-3.95787E-18
 -1      1669 2.61445E-05-7.64108E-05 1.49902E-05 2.75919E-06-2.62241E-18-2.92057E-18
 -1      1670 2.48127E-05-2.02953E-05-4.83103E-06 1.85430E-05-9.20386E-18-5.03476E-18
 -1      1671 2.58363E-05-4.63733E-05 3.43638E-06 5.91910E-06-8.28059E-18-4.38255E-18
 -1      1672 5.86543E-05-1.32304E-06-2.46709E-05 5.31897E-05-8.43137E-18-7.35563E-18
 -1      1673 4.16802E-05-1.59961E-05-1.40930E-05 2.92116E-05-8.95483E-18-6.20960E-18
 -1      1674 1.12946E-04-2.84162E-06-4.48728E-05 8.09452E-05-6.75339E-18-7.22011E-18
 -1      1675 7.64604E-05 3.11905E-06-3.46541E-05 6.13129E-05-7.97820E-18-7.53012E-18
 -1      1676 1.88223E-04-3.16626E-05-6.27659E-05 7.66414E-05-3.10162E-18-5.60566E-18
 -1      1677 1.41734E-04-1.19340E-05-5.37502E-05 7.58566E-05-5.29141E-18-6.33411E-18
 -1      1678 2.47516E-04-5.68729E-05-7.54442E-05 5.15078E-05-1.88719E-18-5.42948E-18
 -1      1679 2.10715E-04-3.70782E-05-7.01470E-05 7.32400E-05-2.39054E-18-6.08593E-18
 -1      1680 2.72080E-04-6.91490E-05-8.03245E-05-1.13138E-06-1.01093E-18-1.81278E-18
 -1      1681 2.61990E-04-6.31364E-05-7.89716E-05 3.69375E-05-1.47087E-18-4.12082E-18
 -1      1682 2.41235E-04-5.22698E-05-7.55805E-05-5.34069E-05-1.50825E-18 2.29504E-18
 -1      1683 2.64586E-04-6.54845E-05-7.89164E-05-1.98957E-05-1.53927E-18 2.85027E-19
 -1      1684 1.82163E-04-2.41552E-05-6.39767E-05-8.31935E-05-2.53792E-18 4.24702E-18
 -1      1685 2.25993E-04-4.67875E-05-7.09573E-05-7.02730E-05-1.16504E-18 4.55280E-18
 -1      1686 1.10378E-04-2.01772E-06-4.54461E-05-7.42000E-05-3.42117E-18 5.12878E-18
 -1      1687 1.56502E-04-1.74039E-05-5.55989E-05-8.58701E-05-3.28691E-18 4.00138E-18
 -1      1688 5.59470E-05-1.82632E-06-2.50268E-05-4.57794E-05-5.94956E-18 4.44608E-18
 -1      1689 8.37480E-05 2.47087E-06-3.55097E-05-7.00021E-05-4.13437E-18 4.92888E-18
 -1      1690 3.28693E-05-3.12154E-05-4.92800E-06-1.65216E-05-3.89127E-18 4.21865E-18
 -1      1691 4.08825E-05-8.44251E-06-1.51375E-05-3.75131E-05-6.11473E-18 4.10642E-18
 -1      1692 2.57247E-05-6.46176E-05 1.04537E-05-1.32894E-06 3.55161E-18 2.87367E-18
 -1      1693 2.03911E-05-3.81681E-05 3.55164E-06-6.07619E-06-2.22685E-18 4.79632E-18
 -1      1694 2.66879E-05-8.61360E-05 1.84807E-05-5.90258E-06 2.59107E-18-1.12232E-18
 -1      1695 2.23533E-05-7.19240E-05 1.52606E-05 2.94708E-06 3.92939E-18 8.24798E-20
 -1      1696 1.06479E-04-2.32809E-05-3.57513E-05 1.71684E-05 1.60650E-18 6.65069E-18
 -1      1697 7.66479E-05-5.03727E-05-1.39439E-05 3.13332E-05-1.43149E-19-3.74812E-19
 -1      1698 9.56781E-05-2.81610E-05-2.89638E-05 1.08642E-06 8.36164E-20-1.41660E-18
 -1      1699 1.63937E-05-5.59884E-05 1.20632E-05 4.16316E-06-1.77030E-19-7.04308E-19
 -1      1700 3.48114E-05-5.19731E-05 2.78243E-06 1.68466E-05-1.45944E-18 2.49981E-19
 -1      1701 1.25262E-05-5.77203E-05 1.44188E-05-8.16203E-06 1.01919E-18-2.04135E-18
 -1      1702 1.33303E-04-5.28273E-05-3.48129E-05 3.41852E-05-1.33831E-19-2.76133E-18
 -1      1703 1.88811E-04-5.18670E-05-5.56275E-05 2.92668E-05 8.19928E-19-1.75590E-18
 -1      1704 2.35748E-04-5.17719E-05-7.15507E-05 1.72559E-05 9.87852E-19 1.49925E-19
 -1      1705 2.46873E-04-4.29849E-05-7.85944E-05 2.66503E-06 7.20825E-19-8.85361E-19
 -1      1706 2.45462E-04-4.39611E-05-7.75238E-05-3.95382E-06 1.84230E-19-1.59623E-18
 -1      1707 2.23735E-04-5.25313E-05-6.71314E-05-2.04975E-05 2.47773E-18-8.04681E-19
 -1      1708 1.71171E-04-5.54770E-05-4.82314E-05-2.65947E-05 4.24406E-18-1.79740E-18
 -1      1709 1.15206E-04-5.53792E-05-2.68172E-05-3.27630E-05 4.79929E-18-2.98876E-18
 -1      1710 6.01140E-05-5.14447E-05-6.97925E-06-2.76140E-05 5.67851E-18-3.02423E-18
 -1      1711 2.55426E-05-5.15644E-05 6.87935E-06-1.33596E-05 5.73611E-18-3.20771E-18
 -1      1712 1.19142E-05-5.36868E-05 1.33249E-05 1.85951E-06 3.72716E-18-6.14904E-18
 -1      1713 1.50353E-05-5.44200E-05 1.22607E-05 1.49764E-05 7.62330E-21-6.03299E-18
 -1      1714 2.95258E-05-4.61749E-05 3.51296E-06 2.67436E-05-3.89127E-18-4.76202E-18
 -1      1715 5.93167E-05-3.64685E-05-1.14871E-05 4.14996E-05-5.57941E-18-4.26375E-18
 -1      1716 9.91740E-05-2.98980E-05-2.95310E-05 5.08472E-05-5.04493E-18-3.89466E-18
 -1      1717 1.46193E-04-2.92718E-05-4.77605E-05 4.98355E-05-4.00562E-18-3.23058E-18
 -1      1718 1.86194E-04-3.20185E-05-6.27631E-05 3.56732E-05-2.50865E-18-4.11319E-18
 -1      1719 2.18962E-04-3.57682E-05-7.32512E-05 2.15514E-05-2.35221E-18-3.14376E-18
 -1      1720 2.23805E-04-3.53410E-05-7.52907E-05-4.37084E-06-2.66053E-18-1.35631E-19
 -1      1721 2.06655E-04-3.28111E-05-6.96179E-05-3.11072E-05-2.63215E-18 3.42074E-18
 -1      1722 1.71445E-04-3.00057E-05-5.71683E-05-4.85326E-05-2.99860E-18 4.00647E-18
 -1      1723 1.24200E-04-2.81157E-05-3.98132E-05-5.32889E-05-3.00739E-18 3.01883E-18
 -1      1724 8.01043E-05-3.36461E-05-2.07872E-05-4.66315E-05-3.11962E-18 2.54788E-18
 -1      1725 4.43507E-05-4.21433E-05-3.53944E-06-3.51270E-05-1.40353E-18 5.60783E-18
 -1      1726 2.10428E-05-5.25734E-05 9.18554E-06-1.97769E-05-2.29969E-19 4.07042E-18
 -1      1727 1.06082E-04-2.31774E-05-3.56138E-05-1.68618E-05-1.41388E-18 8.53576E-18
 -1      1728 8.91350E-05-1.05579E-05-3.37994E-05-1.33542E-05-2.32746E-18-1.21899E-18
 -1      1729 9.04664E-05-1.16269E-05-3.39403E-05-1.51272E-05-2.55365E-18-3.65706E-19
 -1      1730 9.25075E-05-1.38745E-05-3.38598E-05-1.60148E-05-2.43284E-18 6.44380E-19
 -1      1731 9.42256E-05-1.58260E-05-3.41045E-05-1.76750E-05-2.45016E-18 2.05109E-18
 -1      1732 9.34556E-05-1.63659E-05-3.30494E-05-1.37633E-05-2.56892E-18 1.92303E-19
 -1      1733 8.62077E-05-7.66745E-06-3.37316E-05-7.88142E-06-1.64842E-18-2.86873E-18
 -1      1734 8.66112E-05-7.96620E-06-3.37657E-05-9.26972E-06-1.82688E-18-2.61418E-18
 -1      1735 8.55882E-05-7.02911E-06-3.37276E-05-5.34029E-06-1.26417E-18-3.19420E-18
 -1      1736 8.58239E-05-7.20827E-06-3.37432E-05-6.64386E-06-1.45387E-18-3.04987E-18
 -1      1737 8.75882E-05-9.85978E-06-3.33451E-05-6.94711E-06-1.64993E-18-2.85326E-18
 -1      1738 8.52501E-05-6.66832E-06-3.37302E-05-2.91118E-06-7.81010E-19-3.31007E-18
 -1      1739 8.53725E-05-6.76383E-06-3.37365E-05-4.14947E-06-1.01904E-18-3.23942E-18
 -1      1740 8.69500E-05-9.14560E-06-3.33773E-05-4.55736E-06-1.20943E-18-3.06513E-18
 -1      1741 8.51157E-05-6.51715E-06-3.37334E-05-5.43057E-07-3.68741E-19-3.31261E-18
 -1      1742 8.51530E-05-6.54690E-06-3.37350E-05-1.75079E-06-5.86823E-19-3.31211E-18
 -1      1743 8.66142E-05-8.76356E-06-3.33970E-05-2.23925E-06-7.27710E-19-3.14122E-18
 -1      1744 8.51568E-05-6.55020E-06-3.37350E-05 1.81542E-06 4.80186E-20-3.31780E-18
 -1      1745 8.51171E-05-6.51917E-06-3.37333E-05 6.07300E-07-1.76814E-19-3.32269E-18
 -1      1746 8.65117E-05-8.64581E-06-3.34034E-05 4.07837E-08-2.92343E-19-3.17719E-18
 -1      1747 8.53823E-05-6.77346E-06-3.37364E-05 4.21604E-06 4.72415E-19-3.35462E-18
 -1      1748 8.52571E-05-6.67595E-06-3.37301E-05 2.97658E-06 2.78661E-19-3.32729E-18
 -1      1749 8.66221E-05-8.77284E-06-3.33965E-05 2.32161E-06 1.54137E-19-3.20229E-18
 -1      1750 8.58312E-05-7.21516E-06-3.37431E-05 6.67031E-06 9.51772E-19-3.24118E-18
 -1      1751 8.55973E-05-7.03843E-06-3.37276E-05 5.38783E-06 6.98692E-19-3.34090E-18
 -1      1752 8.69631E-05-9.16053E-06-3.33765E-05 4.62167E-06 6.27631E-19-3.25581E-18
 -1      1753 8.66322E-05-7.98475E-06-3.37664E-05 9.32162E-06 1.51381E-18-2.89659E-18
 -1      1754 8.62177E-05-7.67838E-06-3.37313E-05 7.90851E-06 1.23204E-18-3.07343E-18
 -1      1755 8.76050E-05-9.87825E-06-3.33442E-05 6.99340E-06 1.21778E-18-2.99316E-18
 -1      1756 8.80221E-05-9.29893E-06-3.38255E-05 1.21843E-05 2.01229E-18-2.41492E-18
 -1      1757 8.72944E-05-8.75589E-06-3.37519E-05 1.06052E-05 1.74333E-18-2.73158E-18
 -1      1758 8.87098E-05-1.10888E-05-3.32972E-05 9.46557E-06 1.76360E-18-2.62535E-18
 -1      1759 9.05486E-05-1.17075E-05-3.39429E-05 1.51906E-05 2.42364E-18-1.27709E-18
 -1      1760 8.91916E-05-1.06153E-05-3.37997E-05 1.34203E-05 2.15367E-18-1.96673E-18
 -1      1761 9.05548E-05-1.30847E-05-3.32199E-05 1.19264E-05 2.23070E-18-2.01746E-18
 -1      1762 9.43635E-05-1.59463E-05-3.40960E-05 1.77660E-05 2.54797E-18 8.62121E-19
 -1      1763 9.26179E-05-1.39928E-05-3.38585E-05 1.60929E-05 2.41050E-18-3.49481E-19
 -1      1764 9.36556E-05-1.65339E-05-3.30363E-05 1.38697E-05 2.55120E-18-6.71247E-19
 -1      1765 1.04072E-04-5.65203E-05-2.09160E-05 3.68420E-05-1.02787E-18-2.40663E-18
 -1      1766 7.67228E-05-5.36332E-05-1.15456E-05 3.17282E-05-1.33916E-18-1.05371E-18
 -1      1767 1.00180E-04-1.95681E-05-3.42261E-05-1.88804E-05-1.97635E-18 4.45603E-18
 -1      1768 1.00315E-04-1.95359E-05-3.43039E-05 1.91291E-05 2.17244E-18 2.87525E-18
 -1      1769 9.69762E-05-2.69817E-05-2.98827E-05-5.71116E-06-1.74558E-18 2.94206E-18
 -1      1770 9.51677E-05-2.70379E-05-2.91714E-05-3.90292E-06-1.59462E-18 2.49069E-18
 -1      1771 9.43478E-05-2.72394E-05-2.86636E-05-2.42634E-06-1.41565E-18 2.35807E-18
 -1      1772 9.35748E-05-2.73194E-05-2.83583E-05-1.57240E-06-1.26017E-18 1.95345E-18
 -1      1773 9.55192E-05-2.65486E-05-2.95797E-05-4.47927E-06-1.86542E-18 1.11997E-18
 -1      1774 9.30489E-05-2.73696E-05-2.80893E-05-7.44724E-07-1.00641E-18 1.86872E-18
 -1      1775 9.27467E-05-2.74328E-05-2.79671E-05-3.05839E-07-8.10538E-19 1.53746E-18
 -1      1776 9.43075E-05-2.72233E-05-2.87709E-05-1.83404E-06-1.39395E-18 8.49630E-19
 -1      1777 9.24703E-05-2.74601E-05-2.78308E-05 1.50110E-07-6.01077E-19 1.44773E-18
 -1      1778 9.24384E-05-2.75361E-05-2.78007E-05 3.74551E-07-4.72141E-19 1.25239E-18
 -1      1779 9.36047E-05-2.75289E-05-2.83347E-05-3.66042E-07-8.75480E-19 4.91802E-19
 -1      1780 9.23344E-05-2.75674E-05-2.77423E-05 6.14678E-07-6.16569E-19 1.20042E-18
 -1      1781 9.24488E-05-2.76524E-05-2.77613E-05 7.18842E-07-5.93265E-19 8.92052E-19
 -1      1782 9.32824E-05-2.77135E-05-2.81132E-05 4.37514E-07-6.89541E-19 2.69108E-19
 -1      1783 9.24537E-05-2.76902E-05-2.77492E-05 8.30146E-07-5.76266E-19 8.96134E-19
 -1      1784 9.26410E-05-2.77768E-05-2.77938E-05 8.63981E-07-6.60711E-19 7.75546E-19
 -1      1785 9.32177E-05-2.78562E-05-2.80204E-05 8.49542E-07-7.04333E-19 1.38828E-19
 -1      1786 9.27093E-05-2.78181E-05-2.78085E-05 8.97659E-07-7.14824E-19 7.95653E-19
 -1      1787 9.29254E-05-2.79007E-05-2.78647E-05 8.90381E-07-6.05640E-19 6.55391E-19
 -1      1788 9.33116E-05-2.79794E-05-2.80046E-05 1.02563E-06-7.24625E-19-5.48007E-21
 -1      1789 9.30265E-05-2.79421E-05-2.78939E-05 8.78249E-07-7.49667E-19 6.61345E-19
 -1      1790 9.32450E-05-2.80172E-05-2.79532E-05 8.48118E-07-7.39843E-19 7.39538E-19
 -1      1791 9.34933E-05-2.80882E-05-2.80336E-05 1.05975E-06-7.59214E-19-1.61437E-19
 -1      1792 9.33590E-05-2.80561E-05-2.79889E-05 8.10718E-07-8.65898E-19 5.72573E-19
 -1      1793 9.35650E-05-2.81221E-05-2.80462E-05 7.69548E-07-8.26613E-19 2.19422E-19
 -1      1794 9.37154E-05-2.81831E-05-2.80866E-05 1.01146E-06-9.98573E-19 1.76131E-19
 -1      1795 9.36797E-05-2.81571E-05-2.80837E-05 7.20399E-07-7.59969E-19 1.70506E-19
 -1      1796 9.38657E-05-2.82134E-05-2.81364E-05 6.75928E-07-3.09952E-19-1.54815E-19
 -1      1797 9.39477E-05-2.82641E-05-2.81504E-05 9.19623E-07-8.87259E-19 1.83608E-19
 -1      1798 9.39742E-05-2.82440E-05-2.81728E-05 6.23954E-07-1.45783E-19-3.52575E-19
 -1      1799 9.41374E-05-2.82912E-05-2.82198E-05 5.81219E-07 2.54557E-20-4.05338E-19
 -1      1800 9.41722E-05-2.83319E-05-2.82171E-05 8.09953E-07-3.42812E-19-2.22822E-19
 -1      1801 9.42365E-05-2.83173E-05-2.82538E-05 5.32256E-07 1.30331E-19-5.23501E-19
 -1      1802 9.43777E-05-2.83563E-05-2.82949E-05 4.94483E-07 1.01429E-19-5.99564E-19
 -1      1803 9.43796E-05-2.83874E-05-2.82819E-05 6.99395E-07-6.49119E-20-4.74682E-19
 -1      1804 9.44666E-05-2.83784E-05-2.83259E-05 4.52273E-07-1.25179E-19-6.18014E-19
 -1      1805 9.45884E-05-2.84107E-05-2.83619E-05 4.21461E-07-2.44759E-19-3.29446E-19
 -1      1806 9.45666E-05-2.84323E-05-2.83427E-05 5.98988E-07-4.60050E-20-3.87785E-19
 -1      1807 9.46682E-05-2.84295E-05-2.83900E-05 3.88317E-07 1.02603E-20-3.91055E-19
 -1      1808 9.47745E-05-2.84566E-05-2.84218E-05 3.65632E-07 2.94945E-19-2.46252E-19
 -1      1809 9.47336E-05-2.84686E-05-2.83988E-05 5.15740E-07-5.40909E-20-5.08409E-19
 -1      1810 9.48473E-05-2.84731E-05-2.84477E-05 3.42863E-07-6.17907E-20-3.19500E-19
 -1      1811 9.49430E-05-2.84968E-05-2.84765E-05 3.28865E-07-3.10878E-19-4.57836E-19
 -1      1812 9.48842E-05-2.84984E-05-2.84507E-05 4.53876E-07-9.35076E-21-4.58998E-19
 -1      1813 9.50116E-05-2.85120E-05-2.85010E-05 3.17007E-07-2.97141E-19-5.55375E-19
 -1      1814 9.51015E-05-2.85342E-05-2.85282E-05 3.11739E-07-3.12750E-19-4.27842E-19
 -1      1815 9.50235E-05-2.85244E-05-2.84994E-05 4.15579E-07-2.37017E-19-5.00308E-19
 -1      1816 9.51691E-05-2.85494E-05-2.85521E-05 3.10586E-07-4.51447E-19-5.60976E-19
 -1      1817 9.52584E-05-2.85718E-05-2.85790E-05 3.13507E-07-4.73701E-19-5.24755E-19
 -1      1818 9.51574E-05-2.85493E-05-2.85464E-05 4.01304E-07-4.43582E-19-5.33377E-19
 -1      1819 9.53280E-05-2.85884E-05-2.86032E-05 3.21955E-07-6.11012E-19-5.43099E-19
 -1      1820 9.54210E-05-2.86130E-05-2.86310E-05 3.31717E-07-7.00148E-20-4.50170E-19
 -1      1821 9.52927E-05-2.85762E-05-2.85931E-05 4.09654E-07-5.24601E-19-7.47268E-19
 -1      1822 9.54957E-05-2.86325E-05-2.86559E-05 3.47386E-07 2.26689E-19-8.59404E-19
 -1      1823 9.55955E-05-2.86611E-05-2.86853E-05 3.61434E-07 4.56584E-19-1.09788E-18
 -1      1824 9.54357E-05-2.86088E-05-2.86406E-05 4.36794E-07-1.11853E-19-9.33645E-19
 -1      1825 9.56775E-05-2.86852E-05-2.87110E-05 3.80082E-07 6.56794E-19-9.77381E-19
 -1      1826 9.57852E-05-2.87193E-05-2.87420E-05 3.94086E-07 2.27329E-19-6.58531E-19
 -1      1827 9.55918E-05-2.86514E-05-2.86894E-05 4.75403E-07 4.73405E-19-1.20216E-18
 -1      1828 9.58753E-05-2.87498E-05-2.87681E-05 4.08824E-07-2.08198E-19-3.64478E-19
 -1      1829 9.59886E-05-2.87903E-05-2.87998E-05 4.15981E-07-8.34187E-20-1.01432E-19
 -1      1830 9.57648E-05-2.87090E-05-2.87388E-05 5.13157E-07 4.17128E-19-6.34515E-19
 -1      1831 9.60857E-05-2.88287E-05-2.88246E-05 4.16398E-07-6.53258E-20 1.83684E-19
 -1      1832 9.61970E-05-2.88755E-05-2.88543E-05 4.06741E-07 8.94020E-20 7.88758E-21
 -1      1833 9.59551E-05-2.87867E-05-2.87869E-05 5.30906E-07 5.53201E-20-1.98767E-20
 -1      1834 9.62968E-05-2.89228E-05-2.88751E-05 3.78168E-07-2.36993E-19 1.85178E-19
 -1      1835 9.63918E-05-2.89735E-05-2.88984E-05 3.38147E-07-3.09372E-19 4.10064E-19
 -1      1836 9.61579E-05-2.88893E-05-2.88294E-05 5.00890E-07-9.69798E-20-1.45242E-19
 -1      1837 9.64854E-05-2.90292E-05-2.89109E-05 2.61496E-07-2.36467E-19 3.22671E-19
 -1      1838 9.65408E-05-2.90784E-05-2.89209E-05 1.74311E-07-3.06086E-19-8.49641E-20
 -1      1839 9.63608E-05-2.90196E-05-2.88597E-05 3.85722E-07-3.28755E-19-7.15478E-19
 -1      1840 9.66132E-05-2.91392E-05-2.89194E-05 2.72123E-08-5.66100E-19-2.62691E-19
 -1      1841 9.65957E-05-2.91769E-05-2.89065E-05-1.25392E-07-8.71177E-19-7.69754E-19
 -1      1842 9.65405E-05-2.91751E-05-2.88688E-05 1.39405E-07-6.75454E-19-6.79496E-19
 -1      1843 9.66242E-05-2.92350E-05-2.88842E-05-3.65177E-07-9.12335E-19-5.51067E-19
 -1      1844 9.64906E-05-2.92448E-05-2.88371E-05-5.98805E-07-5.99986E-19-6.59743E-19
 -1      1845 9.66590E-05-2.93440E-05-2.88454E-05-2.87766E-07-6.79190E-19-1.24064E-19
 -1      1846 9.64438E-05-2.92855E-05-2.87866E-05-9.46632E-07-3.25214E-19-5.84661E-19
 -1      1847 9.61449E-05-2.92442E-05-2.86932E-05-1.26716E-06-7.57499E-20-2.57451E-19
 -1      1848 9.66610E-05-2.94989E-05-2.87774E-05-9.38158E-07-4.75606E-19 2.58037E-19
 -1      1849 9.59839E-05-2.92444E-05-2.86085E-05-1.72091E-06-1.61127E-19-1.28778E-19
 -1      1850 9.54726E-05-2.91231E-05-2.84588E-05-2.11469E-06-5.77031E-19-4.82212E-19
 -1      1851 9.64728E-05-2.95915E-05-2.86542E-05-1.82781E-06-2.04625E-19 2.27634E-19
 -1      1852 9.51553E-05-2.90522E-05-2.83371E-05-2.64146E-06-6.27274E-19 1.24604E-20
 -1      1853 9.44009E-05-2.88216E-05-2.81267E-05-3.06514E-06-5.28403E-20 3.21346E-19
 -1      1854 9.60082E-05-2.95510E-05-2.84696E-05-2.91995E-06-1.86016E-20 3.20882E-19
 -1      1855 9.38941E-05-2.86474E-05-2.79707E-05-3.58963E-06 2.35075E-19 1.25526E-19
 -1      1856 9.29010E-05-2.82883E-05-2.77054E-05-3.96470E-06 2.56838E-19 7.13266E-19
 -1      1857 9.51846E-05-2.92921E-05-2.82258E-05-4.09677E-06-1.80215E-19 3.77517E-19
 -1      1858 9.21986E-05-2.79904E-05-2.75248E-05-4.36776E-06 3.63370E-19 6.24128E-19
 -1      1859 9.10258E-05-2.75098E-05-2.72233E-05-4.58780E-06 5.98851E-19 8.97415E-19
 -1      1860 9.39552E-05-2.87411E-05-2.79358E-05-5.14329E-06 3.49906E-19 1.56136E-18
 -1      1861 9.01722E-05-2.70983E-05-2.70351E-05-4.72571E-06 2.74045E-19 4.27950E-19
 -1      1862 8.89430E-05-2.65441E-05-2.67298E-05-4.68252E-06 6.09123E-19 9.45740E-19
 -1      1863 9.23540E-05-2.78788E-05-2.76242E-05-5.76482E-06 2.33095E-19 1.67260E-18
 -1      1864 8.80486E-05-2.60763E-05-2.65559E-05-4.43242E-06 2.75246E-19 7.14404E-19
 -1      1865 8.69404E-05-2.55409E-05-2.62881E-05-4.05914E-06 6.82110E-20 6.71925E-19
 -1      1866 9.05394E-05-2.67878E-05-2.73238E-05-5.65755E-06 2.97937E-19 1.36301E-18
 -1      1867 8.61721E-05-2.51191E-05-2.61517E-05-3.38004E-06 2.94539E-19 5.57818E-20
 -1      1868 8.53790E-05-2.47202E-05-2.59633E-05-2.69454E-06 2.03165E-19 9.91467E-20
 -1      1869 8.88027E-05-2.56724E-05-2.70703E-05-4.62916E-06 1.70824E-19 8.55338E-19
 -1      1870 8.49138E-05-2.44612E-05-2.58832E-05-1.67292E-06-2.07775E-19 1.73642E-20
 -1      1871 8.45899E-05-2.43008E-05-2.58055E-05-7.94013E-07-2.42897E-19 5.37821E-19
 -1      1872 8.75099E-05-2.48157E-05-2.68947E-05-2.72404E-06 1.71948E-19 3.24208E-19
 -1      1873 8.45451E-05-2.42850E-05-2.57927E-05 3.62480E-07 7.51914E-19 1.22453E-18
 -1      1874 8.47509E-05-2.44052E-05-2.58376E-05 1.24539E-06 1.98843E-18 2.91797E-18
 -1      1875 8.69765E-05-2.44724E-05-2.68180E-05-2.73559E-07 8.45137E-19 1.38523E-18
 -1      1876 8.51297E-05-2.46348E-05-2.58922E-05 2.27696E-06 1.29798E-18 1.87811E-18
 -1      1877 8.58092E-05-2.49972E-05-2.60486E-05 2.97233E-06 5.46667E-19 1.29573E-18
 -1      1878 8.73322E-05-2.47494E-05-2.68474E-05 2.18859E-06 1.15358E-18 1.58639E-18
 -1      1879 8.64985E-05-2.53951E-05-2.61602E-05 3.66614E-06-5.34888E-20 1.24919E-18
 -1      1880 8.75000E-05-2.58989E-05-2.63971E-05 4.05043E-06-1.54752E-18 1.23268E-18
 -1      1881 8.84589E-05-2.55499E-05-2.69760E-05 4.12240E-06 3.09003E-19 7.97650E-21
 -1      1882 8.83226E-05-2.63474E-05-2.65470E-05 4.31373E-06-2.60751E-18 1.89107E-18
 -1      1883 8.94514E-05-2.68731E-05-2.68230E-05 4.36542E-06-1.77287E-18 1.52820E-18
 -1      1884 9.00453E-05-2.66218E-05-2.71836E-05 5.18286E-06-1.77939E-18 1.92417E-18
 -1      1885 9.02371E-05-2.72663E-05-2.69885E-05 4.23657E-06-6.40637E-19 1.77352E-18
 -1      1886 9.13143E-05-2.77184E-05-2.72624E-05 4.02279E-06 8.21098E-19 1.65896E-18
 -1      1887 9.17212E-05-2.76761E-05-2.74400E-05 5.31513E-06-7.12718E-19 2.94092E-18
 -1      1888 9.19490E-05-2.79951E-05-2.74221E-05 3.62795E-06 1.87667E-18 7.53821E-19
 -1      1889 9.28513E-05-2.83231E-05-2.76622E-05 3.26174E-06 1.97700E-18 1.38764E-18
 -1      1890 9.31870E-05-2.84983E-05-2.77107E-05 4.71227E-06 6.75377E-19 2.87653E-18
 -1      1891 9.32895E-05-2.84708E-05-2.78000E-05 2.75305E-06 9.38873E-19 1.66959E-18
 -1      1892 9.39617E-05-2.86678E-05-2.79887E-05 2.34878E-06 1.30710E-18 2.78798E-18
 -1      1893 9.42788E-05-2.89966E-05-2.79643E-05 3.69141E-06 1.71543E-18 1.52989E-18
 -1      1894 9.42122E-05-2.87075E-05-2.80960E-05 1.85589E-06 9.31759E-19 1.97933E-18
 -1      1895 9.46579E-05-2.87957E-05-2.82298E-05 1.50005E-06 8.22744E-19 1.44136E-18
 -1      1896 9.49642E-05-2.91874E-05-2.81784E-05 2.56858E-06 5.46003E-19 1.70081E-18
 -1      1897 9.47606E-05-2.87631E-05-2.83051E-05 1.10775E-06 1.09060E-19-3.08212E-20
 -1      1898 9.50226E-05-2.87801E-05-2.83906E-05 8.48321E-07-9.14072E-19-4.06592E-20
 -1      1899 9.52995E-05-2.91496E-05-2.83417E-05 1.58027E-06-2.66244E-19 3.67928E-19
 -1      1900 9.50337E-05-2.87177E-05-2.84370E-05 5.90367E-07-1.07915E-18-5.88480E-19
 -1      1901 9.51687E-05-2.87011E-05-2.84855E-05 4.32471E-07 1.15117E-19 3.85400E-20
 -1      1902 9.53882E-05-2.89891E-05-2.84523E-05 8.58958E-07-1.18989E-18 2.29879E-19
 -1      1903 9.51352E-05-2.86478E-05-2.85053E-05 3.13791E-07 3.11206E-19-2.54841E-19
 -1      1904 9.52100E-05-2.86411E-05-2.85287E-05 2.27178E-07 3.40377E-20-4.52251E-19
 -1      1905 9.52743E-05-2.86893E-05-2.85332E-05 2.45770E-07 1.69402E-19 3.88132E-19
 -1      1906 9.53394E-05-2.87932E-05-2.85118E-05 4.39457E-07-1.18705E-20 9.51780E-19
 -1      1907 9.36365E-05-2.73122E-05-2.83866E-05 1.66015E-06 1.23120E-18 4.77750E-19
 -1      1908 9.44237E-05-2.72257E-05-2.87060E-05 2.53703E-06 1.45980E-18 9.29169E-19
 -1      1909 9.52645E-05-2.69958E-05-2.92294E-05 4.06999E-06 1.77031E-18 1.16156E-18
 -1      1910 9.70710E-05-2.69085E-05-2.99658E-05 5.95683E-06 2.00104E-18 1.74019E-18
 -1      1911 9.55780E-05-2.64630E-05-2.96314E-05 4.65094E-06 1.99831E-18 3.58335E-21
 -1      1912 9.27746E-05-2.74295E-05-2.79799E-05 3.53018E-07 1.05223E-18 4.19232E-20
 -1      1913 9.30886E-05-2.73637E-05-2.81088E-05 8.03067E-07 1.04296E-18 3.44941E-19
 -1      1914 9.43557E-05-2.71879E-05-2.88002E-05 1.94637E-06 1.41166E-18-4.19410E-19
 -1      1915 9.24444E-05-2.75304E-05-2.78054E-05-3.49111E-07 7.96747E-19-3.95533E-20
 -1      1916 9.24861E-05-2.74549E-05-2.78388E-05-1.16705E-07 9.21528E-19 1.07616E-19
 -1      1917 9.36310E-05-2.75183E-05-2.83501E-05 4.23852E-07 1.11679E-18-6.48141E-19
 -1      1918 9.24427E-05-2.76462E-05-2.77611E-05-7.06464E-07 4.80921E-19-2.06863E-19
 -1      1919 9.23337E-05-2.75614E-05-2.77440E-05-5.97737E-07 6.83810E-19 1.81450E-20
 -1      1920 9.32909E-05-2.77052E-05-2.81207E-05-4.07560E-07 8.22069E-19-5.43753E-19
 -1      1921 9.26280E-05-2.77705E-05-2.77908E-05-8.59006E-07 3.96091E-19-1.70053E-19
 -1      1922 9.24433E-05-2.76839E-05-2.77472E-05-8.22603E-07 4.54177E-19-6.98231E-20
 -1      1923 9.32162E-05-2.78497E-05-2.80227E-05-8.34541E-07 5.36868E-19-4.30969E-19
 -1      1924 9.29089E-05-2.78946E-05-2.78602E-05-8.89503E-07 2.79866E-19-8.35471E-20
 -1      1925 9.26938E-05-2.78118E-05-2.78044E-05-8.95452E-07 2.71805E-19-1.86402E-19
 -1      1926 9.33039E-05-2.79738E-05-2.80039E-05-1.01937E-06 4.28960E-19-3.22985E-19
 -1      1927 9.32270E-05-2.80115E-05-2.79479E-05-8.49141E-07 8.04722E-20-4.90919E-20
 -1      1928 9.30087E-05-2.79361E-05-2.78887E-05-8.78779E-07 2.67667E-19-5.95831E-20
 -1      1929 9.34822E-05-2.80833E-05-2.80310E-05-1.05836E-06 3.18698E-19-3.98890E-19
 -1      1930 9.35467E-05-2.81169E-05-2.80406E-05-7.70899E-07 4.86578E-19-3.30394E-19
 -1      1931 9.33405E-05-2.80506E-05-2.79833E-05-8.12190E-07 3.56661E-19-1.37277E-19
 -1      1932 9.37029E-05-2.81791E-05-2.80830E-05-1.01230E-06 3.55578E-19-2.46232E-19
 -1      1933 9.38470E-05-2.82086E-05-2.81306E-05-6.76397E-07 4.30856E-19-4.75610E-19
 -1      1934 9.36613E-05-2.81522E-05-2.80779E-05-7.21554E-07 5.57510E-19-3.08619E-19
 -1      1935 9.39347E-05-2.82609E-05-2.81463E-05-9.20813E-07 7.27965E-19-4.26832E-19
 -1      1936 9.41059E-05-2.82831E-05-2.82099E-05-5.84826E-07 6.90228E-19-7.14123E-19
 -1      1937 9.39499E-05-2.82381E-05-2.81650E-05-6.26592E-07 5.48450E-19-5.39894E-19
 -1      1938 9.41543E-05-2.83280E-05-2.82110E-05-8.12811E-07 7.55282E-19-4.11729E-19
 -1      1939 9.43482E-05-2.83492E-05-2.82854E-05-4.95503E-07 4.61161E-19-8.46623E-19
 -1      1940 9.42064E-05-2.83098E-05-2.82440E-05-5.34617E-07 5.46654E-19-8.68099E-19
 -1      1941 9.43577E-05-2.83831E-05-2.82744E-05-7.03323E-07 7.10164E-19-4.21013E-19
 -1      1942 9.45603E-05-2.84039E-05-2.83527E-05-4.19838E-07-7.17336E-19-4.34892E-19
 -1      1943 9.44383E-05-2.83716E-05-2.83167E-05-4.51948E-07-6.97059E-20-5.93141E-19
 -1      1944 9.45466E-05-2.84289E-05-2.83357E-05-6.00235E-07 1.03385E-19-1.25557E-19
 -1      1945 9.47483E-05-2.84495E-05-2.84134E-05-3.62496E-07-6.00080E-19-4.52837E-19
 -1      1946 9.46417E-05-2.84229E-05-2.83815E-05-3.85862E-07-8.00509E-19-6.71166E-19
 -1      1947 9.47162E-05-2.84654E-05-2.83928E-05-5.14835E-07-5.78707E-19-6.66947E-20
 -1      1948 9.49204E-05-2.84887E-05-2.84699E-05-3.27427E-07-4.80909E-20-3.01689E-19
 -1      1949 9.48236E-05-2.84659E-05-2.84405E-05-3.40456E-07-3.24015E-19-3.84167E-19
 -1      1950 9.48704E-05-2.84945E-05-2.84466E-05-4.53213E-07-4.38251E-19-7.40973E-19
 -1      1951 9.50875E-05-2.85241E-05-2.85257E-05-3.18875E-07-4.66987E-19 2.36647E-19
 -1      1952 9.49934E-05-2.85033E-05-2.84967E-05-3.19693E-07-1.59508E-20 2.84803E-19
 -1      1953 9.50156E-05-2.85179E-05-2.84991E-05-4.20800E-07-3.78087E-19-4.04705E-20
 -1      1954 9.52628E-05-2.85587E-05-2.85850E-05-3.42434E-07 1.72643E-19-5.49325E-20
 -1      1955 9.51629E-05-2.85380E-05-2.85539E-05-3.28401E-07-2.48165E-19-7.20886E-20
 -1      1956 9.51601E-05-2.85372E-05-2.85532E-05-4.23639E-07-8.92358E-20 7.97584E-20
 -1      1957 9.54632E-05-2.85959E-05-2.86535E-05-4.06306E-07 4.88904E-19 3.22329E-19
 -1      1958 9.53466E-05-2.85729E-05-2.86171E-05-3.73416E-07 5.86715E-19 1.04346E-19
 -1      1959 9.53146E-05-2.85537E-05-2.86128E-05-4.69753E-07 2.21803E-19-5.14139E-19
 -1      1960 9.57098E-05-2.86390E-05-2.87387E-05-5.22978E-07 8.25264E-20 4.77214E-19
 -1      1961 9.55626E-05-2.86112E-05-2.86926E-05-4.65028E-07 3.06677E-19 8.08738E-19
 -1      1962 9.54916E-05-2.85680E-05-2.86831E-05-5.70799E-07 2.01687E-19 2.26004E-19
 -1      1963 9.60301E-05-2.86920E-05-2.88504E-05-7.11571E-07 1.38765E-19 3.18856E-19
 -1      1964 9.58336E-05-2.86560E-05-2.87887E-05-6.18968E-07 1.96844E-19 2.81259E-19
 -1      1965 9.57065E-05-2.85798E-05-2.87709E-05-7.44248E-07 2.15301E-19 6.07308E-19
 -1      1966 9.64605E-05-2.87593E-05-2.90018E-05-1.00123E-06 1.14328E-19-9.91839E-20
 -1      1967 9.61890E-05-2.87109E-05-2.89166E-05-8.59231E-07 2.47004E-19 6.60959E-21
 -1      1968 9.59780E-05-2.85869E-05-2.88850E-05-1.01638E-06 3.54728E-19-6.08917E-20
 -1      1969 9.70498E-05-2.88455E-05-2.92113E-05-1.43594E-06-3.52599E-19-7.87917E-19
 -1      1970 9.66673E-05-2.87793E-05-2.90914E-05-1.22213E-06-2.47727E-19-8.80135E-19
 -1      1971 9.63283E-05-2.85846E-05-2.90369E-05-1.42649E-06 3.34722E-19-6.45932E-19
 -1      1972 9.78633E-05-2.89558E-05-2.95039E-05-2.08107E-06 6.64150E-19-9.72359E-19
 -1      1973 9.73192E-05-2.88641E-05-2.93335E-05-1.76192E-06 3.20221E-19-9.31343E-19
 -1      1974 9.67833E-05-2.85636E-05-2.92416E-05-2.03250E-06 2.85421E-19-1.26720E-18
 -1      1975 9.89848E-05-2.90957E-05-2.99134E-05-3.03208E-06 6.27423E-19-7.53015E-19
 -1      1976 9.82114E-05-2.89688E-05-2.96704E-05-2.55769E-06 6.73136E-19-7.41046E-19
 -1      1977 9.73720E-05-2.85086E-05-2.95177E-05-2.91832E-06 6.29789E-19-1.27732E-18
 -1      1978 1.00446E-04-2.92675E-05-3.04510E-05-4.33585E-06 6.38206E-19-4.62098E-19
 -1      1979 9.94000E-05-2.90940E-05-3.01262E-05-3.68674E-06 7.09082E-19-7.80456E-19
 -1      1980 9.81018E-05-2.83975E-05-2.98761E-05-4.16063E-06 7.13081E-19-3.95349E-19
 -1      1981 1.02525E-04-2.95018E-05-3.12225E-05-6.28966E-06-3.27802E-19-8.17288E-20
 -1      1982 1.00986E-04-2.92426E-05-3.07447E-05-5.30834E-06 2.07947E-19-4.91114E-20
 -1      1983 9.90107E-05-2.82089E-05-3.03460E-05-5.92641E-06 1.51060E-19 2.74719E-19
 -1      1984 1.05323E-04-2.98497E-05-3.22555E-05-9.01120E-06-7.83863E-19 5.40046E-19
 -1      1985 1.03173E-04-2.94482E-05-3.15993E-05-7.64704E-06-4.49913E-19 6.76950E-19
 -1      1986 1.00144E-04-2.79132E-05-3.09555E-05-8.45109E-06-5.12134E-19 1.02839E-18
 -1      1987 1.09028E-04-3.04659E-05-3.35706E-05-1.25801E-05-1.16687E-18 1.08871E-18
 -1      1988 1.06087E-04-2.97972E-05-3.27093E-05-1.08254E-05-1.05313E-18 8.47342E-19
 -1      1989 1.01502E-04-2.75621E-05-3.16837E-05-1.18649E-05-1.16128E-18 1.74285E-18
 -1      1990 1.13881E-04-3.17810E-05-3.50962E-05-1.67237E-05-2.52866E-19 1.48701E-18
 -1      1991 1.09980E-04-3.05640E-05-3.40580E-05-1.48132E-05-3.69174E-19 1.34951E-18
 -1      1992 1.03175E-04-2.74250E-05-3.24566E-05-1.61967E-05-6.65520E-19 2.03472E-18
 -1      1993 1.20312E-04-3.48052E-05-3.65831E-05-2.02649E-05-5.57566E-19 1.97555E-18
 -1      1994 1.15347E-04-3.24828E-05-3.55121E-05-1.90226E-05-3.36353E-19 1.54605E-18
 -1      1995 1.05560E-04-2.83346E-05-3.30913E-05-2.10587E-05-3.12741E-19 2.44486E-18
 -1      1996 1.29177E-04-4.13330E-05-3.76228E-05-2.03539E-05-8.23792E-19 2.25513E-18
 -1      1997 1.23253E-04-3.71309E-05-3.67863E-05-2.15933E-05-4.22908E-19 2.02138E-18
 -1      1998 1.09871E-04-3.21773E-05-3.33051E-05-2.51440E-05-6.56636E-19 2.38274E-18
 -1      1999 1.41755E-04-5.25887E-05-3.82418E-05-1.21225E-05-8.83455E-19 3.02464E-18
 -1      2000 1.35604E-04-4.67171E-05-3.77207E-05-1.83815E-05-1.32375E-18 2.46700E-18
 -1      2001 1.19087E-04-4.19840E-05-3.30270E-05-2.56282E-05-1.16700E-18 3.10448E-18
 -1      2002 1.57108E-04-6.29558E-05-4.04889E-05 7.04924E-06 1.11427E-18 2.93047E-18
 -1      2003 1.53224E-04-6.02607E-05-3.94459E-05-4.14565E-06 3.28437E-19 3.02221E-18
 -1      2004 1.36335E-04-5.79361E-05-3.37484E-05-1.67399E-05-5.35113E-19 2.98330E-18
 -1      2005 1.69881E-04-6.04217E-05-4.72687E-05-2.39601E-05-2.29758E-19-1.53228E-18
 -1      2006 1.65952E-04-4.94934E-05-5.02668E-05-2.73592E-05-5.89747E-19-1.75971E-18
 -1      2007 1.57478E-04-6.18170E-05-4.07339E-05-2.16103E-06-1.96829E-18-4.03399E-20
 -1      2008 1.59494E-04-6.17177E-05-4.21053E-05-1.29420E-05-9.67629E-19-9.13207E-19
 -1      2009 1.40162E-04-4.94678E-05-3.84649E-05 1.54907E-05 8.51480E-19-1.31208E-18
 -1      2010 1.45859E-04-5.50309E-05-3.90126E-05 7.87348E-06-4.18646E-19-1.02022E-18
 -1      2011 1.44397E-04-6.09564E-05-3.59458E-05 1.04972E-05-8.01081E-19-2.15516E-18
 -1      2012 1.26475E-04-3.90333E-05-3.72928E-05 2.13405E-05 8.43062E-20-1.35263E-18
 -1      2013 1.32593E-04-4.37765E-05-3.81109E-05 1.90859E-05 3.36484E-19-1.14839E-18
 -1      2014 1.25471E-04-4.57609E-05-3.42582E-05 2.30197E-05 3.46119E-19-2.32045E-18
 -1      2015 1.17098E-04-3.34974E-05-3.58117E-05 2.00562E-05-9.54027E-19-8.19518E-19
 -1      2016 1.22529E-04-3.63253E-05-3.69355E-05 2.08210E-05-4.75463E-19-7.78741E-19
 -1      2017 1.14214E-04-3.49240E-05-3.40330E-05 2.53144E-05-6.26699E-19-1.02945E-18
 -1      2018 1.10463E-04-3.09318E-05-3.41083E-05 1.62768E-05-4.10910E-19-8.42189E-19
 -1      2019 1.14915E-04-3.25122E-05-3.52562E-05 1.80465E-05-3.25830E-19-9.16913E-19
 -1      2020 1.08034E-04-2.98945E-05-3.34996E-05 2.23423E-05-7.05960E-19-1.61612E-18
 -1      2021 1.05514E-04-2.97046E-05-3.25073E-05 1.23285E-05 7.48056E-19-8.76127E-19
 -1      2022 1.08985E-04-3.06376E-05-3.34931E-05 1.41046E-05-3.22382E-19-1.64868E-18
 -1      2023 1.04246E-04-2.81866E-05-3.25924E-05 1.78352E-05-2.32014E-19-2.21123E-18
 -1      2024 1.01732E-04-2.89631E-05-3.11881E-05 8.97522E-06 3.03170E-18-2.30514E-18
 -1      2025 1.04344E-04-2.95920E-05-3.19516E-05 1.04649E-05 2.69920E-18-9.82777E-19
 -1      2026 1.01492E-04-2.77532E-05-3.15970E-05 1.34887E-05 1.99538E-18-1.82459E-18
 -1      2027 9.88443E-05-2.83492E-05-3.02046E-05 6.20300E-06-9.11414E-19-2.32724E-18
 -1      2028 1.00743E-04-2.88302E-05-3.07476E-05 7.45749E-06 1.39330E-18-1.84681E-18
 -1      2029 9.92704E-05-2.76044E-05-3.07165E-05 9.83747E-06 1.82827E-18-1.27916E-18
 -1      2030 9.67089E-05-2.77581E-05-2.95402E-05 3.79998E-06-1.03501E-18-2.51407E-18
 -1      2031 9.80308E-05-2.81733E-05-2.98917E-05 4.91426E-06-1.29361E-18-2.97740E-18
 -1      2032 9.74199E-05-2.73592E-05-3.00452E-05 6.78533E-06-6.06979E-19-2.94707E-18
 -1      2033 2.20353E-05-3.84997E-05 5.79478E-06 1.67883E-05-6.96261E-19-6.43745E-19
 -1      2034 1.49961E-05-3.87640E-05 8.64230E-06 6.99397E-06-1.04820E-20-1.21041E-18
 -1      2035 9.21066E-05-2.12704E-05-3.03923E-05 3.15319E-06-5.59283E-19 7.40092E-19
 -1      2036 9.26197E-05-2.21535E-05-3.02061E-05 3.82185E-06-6.52258E-19 1.51626E-18
 -1      2037 9.32138E-05-2.30503E-05-3.01066E-05 4.42658E-06-7.49661E-19 5.20202E-19
 -1      2038 9.39872E-05-2.42377E-05-2.98668E-05 4.59722E-06 1.64549E-19-2.84998E-19
 -1      2039 9.26971E-05-2.26334E-05-2.99954E-05 5.11945E-06 3.42009E-19 1.29648E-18
 -1      2040 9.59977E-05-2.76413E-05-2.92831E-05 2.35655E-06-6.92893E-19-1.89389E-18
 -1      2041 9.16524E-05-2.04540E-05-3.05405E-05 1.16706E-06-5.15812E-19-2.09371E-18
 -1      2042 9.18235E-05-2.08392E-05-3.04504E-05 2.07031E-06-6.04894E-19-1.14220E-19
 -1      2043 9.15143E-05-2.12097E-05-3.00944E-05 3.18414E-06-7.61737E-19-5.06235E-21
 -1      2044 9.18575E-05-2.06796E-05-3.05205E-05-9.11481E-07 1.70629E-18-7.15941E-20
 -1      2045 9.17131E-05-2.05377E-05-3.05436E-05-3.65194E-08 1.26481E-18-6.64487E-19
 -1      2046 9.12256E-05-2.08453E-05-3.01269E-05 5.98041E-07 2.08263E-18 1.11136E-18
 -1      2047 9.25532E-05-2.17824E-05-3.03343E-05-2.50537E-06 2.32322E-18 1.20163E-18
 -1      2048 9.21838E-05-2.12018E-05-3.04608E-05-1.88840E-06 1.94336E-18 1.01672E-18
 -1      2049 9.17158E-05-2.14938E-05-3.00697E-05-1.85522E-06 2.55666E-18 2.43646E-19
 -1      2050 9.34709E-05-2.33948E-05-3.00274E-05-3.33157E-06 1.55064E-18 5.67105E-19
 -1      2051 9.30088E-05-2.25589E-05-3.02222E-05-3.06356E-06 1.98942E-18 8.25877E-19
 -1      2052 9.27055E-05-2.28676E-05-2.99202E-05-3.56627E-06 2.26233E-18 7.87539E-19
 -1      2053 9.43591E-05-2.51179E-05-2.96643E-05-3.38551E-06 1.17168E-18 1.20157E-18
 -1      2054 9.39224E-05-2.42255E-05-2.98838E-05-3.44088E-06 1.07171E-18 1.33325E-18
 -1      2055 9.38450E-05-2.45554E-05-2.96988E-05-4.29331E-06 9.60111E-19 7.18386E-19
 -1      2056 9.50492E-05-2.66345E-05-2.93085E-05-2.85787E-06-5.88407E-20-2.23316E-18
 -1      2057 9.47149E-05-2.58466E-05-2.95134E-05-3.13843E-06 8.45992E-19 1.48614E-19
 -1      2058 9.48447E-05-2.61795E-05-2.94400E-05-4.11633E-06-3.40140E-19 2.85755E-19
 -1      2059 9.54669E-05-2.77474E-05-2.90119E-05-2.03791E-06-3.64350E-19-4.73032E-18
 -1      2060 9.52676E-05-2.71654E-05-2.91738E-05-2.41351E-06 3.90691E-19-4.22026E-18
 -1      2061 9.55348E-05-2.74766E-05-2.91837E-05-3.32333E-06 2.86407E-19-2.34040E-18
 -1      2062 9.56359E-05-2.84450E-05-2.87886E-05-1.15976E-06 1.00219E-18 1.80464E-18
 -1      2063 9.55568E-05-2.80772E-05-2.89017E-05-1.53387E-06 5.87348E-19-8.86400E-19
 -1      2064 9.58789E-05-2.83486E-05-2.89572E-05-2.25100E-06 1.70335E-18-2.42869E-18
 -1      2065 9.56074E-05-2.87571E-05-2.86465E-05-4.32835E-07 1.34817E-18 1.13941E-18
 -1      2066 9.56235E-05-2.85879E-05-2.87107E-05-7.23352E-07 1.56772E-18 1.52545E-18
 -1      2067 9.59282E-05-2.88082E-05-2.87775E-05-1.19378E-06 1.88655E-18 2.12223E-18
 -1      2068 9.54483E-05-2.87855E-05-2.85689E-05 3.50340E-08-1.82445E-19-5.44816E-19
 -1      2069 9.55250E-05-2.87610E-05-2.85981E-05-1.37654E-07 7.28707E-19-1.96620E-19
 -1      2070 9.57646E-05-2.89310E-05-2.86507E-05-3.71702E-07 1.30835E-18-2.02573E-19
 -1      2071 5.71637E-05-4.62373E-05-5.57639E-06 3.31541E-05-1.04354E-18-1.22079E-19
 -1      2072 4.06284E-05-4.52014E-05 4.39518E-07 2.57356E-05-6.17064E-19-6.70003E-19
 -1      2073 8.11905E-05-5.21961E-05-1.29219E-05 3.83073E-05-1.52847E-18-1.03952E-18
 -1      2074 1.06594E-05-3.85382E-05 1.04087E-05-5.23414E-06-6.12286E-19-2.94979E-18
 -1      2075 1.22738E-05-3.88133E-05 9.81849E-06-1.41584E-05 8.25857E-20-2.03500E-18
 -1      2076 8.72670E-05-8.72534E-06-3.37515E-05-1.05435E-05-2.02253E-18-2.30319E-18
 -1      2077 8.79835E-05-9.26127E-06-3.38242E-05-1.21223E-05-2.24322E-18-1.76776E-18
 -1      2078 9.04786E-05-1.30273E-05-3.32219E-05-1.18315E-05-2.39416E-18-1.31984E-18
 -1      2079 8.86731E-05-1.10526E-05-3.32988E-05-9.40913E-06-2.00522E-18-2.30683E-18
 -1      2080 1.94671E-04-5.83506E-05-5.71328E-05-1.14587E-06-2.96859E-19-1.72625E-18
 -1      2081 1.72937E-04-5.96172E-05-4.89239E-05 1.74711E-06 1.97994E-19-2.84434E-18
 -1      2082 1.90982E-04-5.14789E-05-5.94176E-05-4.22619E-09 3.24943E-18-5.84453E-20
 -1      2083 2.09662E-04-4.91698E-05-6.67886E-05 5.62970E-06 1.54160E-18-2.46487E-19
 -1      2084 1.60363E-04-6.25179E-05-4.25832E-05-9.86075E-06 3.61980E-18-9.27925E-19
 -1      2085 1.85864E-04-6.11014E-05-5.23576E-05-8.29263E-06 3.97873E-18 5.20078E-19
 -1      2086 1.12750E-04-6.14940E-05-2.32091E-05-2.78835E-05 2.71008E-18-1.22227E-18
 -1      2087 1.41635E-04-6.45055E-05-3.32025E-05-2.66980E-05 2.76048E-18-1.53228E-18
 -1      2088 6.06719E-05-4.99614E-05-6.19298E-06-3.03605E-05 3.35044E-18-2.06337E-18
 -1      2089 8.46659E-05-5.24275E-05-1.45037E-05-3.69639E-05 3.00358E-18-1.25149E-18
 -1      2090 2.63886E-05-3.85055E-05 4.04658E-06-1.86717E-05 3.06584E-18-2.21076E-18
 -1      2091 4.04671E-05-4.10106E-05-5.99349E-07-2.81642E-05 3.34663E-18-1.69047E-18
 -1      2092 1.07431E-05-3.65850E-05 9.56550E-06 5.37858E-06 7.55024E-19-7.33403E-18
 -1      2093 1.30416E-05-3.44150E-05 8.05233E-06-5.69376E-06 2.47185E-18-5.49894E-18
 -1      2094 1.81153E-05-3.74164E-05 6.94292E-06 2.48092E-05-3.33307E-19-5.70985E-18
 -1      2095 1.29571E-05-3.84174E-05 9.39221E-06 1.64468E-05 1.01559E-18-6.44973E-18
 -1      2096 4.17574E-05-3.73070E-05-2.67179E-06 4.07001E-05-2.77700E-18-3.52599E-18
 -1      2097 3.02830E-05-4.10294E-05 3.02754E-06 3.26039E-05-6.67462E-19-5.00956E-18
 -1      2098 7.99953E-05-4.06031E-05-1.70314E-05 4.99092E-05-2.63766E-18-2.48117E-18
 -1      2099 6.07807E-05-4.29583E-05-8.88796E-06 4.29937E-05-2.58260E-18-2.57636E-18
 -1      2100 1.20999E-04-3.94436E-05-3.45124E-05 4.80066E-05-2.74058E-18-7.69953E-19
 -1      2101 1.00885E-04-4.27813E-05-2.55623E-05 4.41769E-05-3.15181E-18-1.45266E-18
 -1      2102 1.55561E-04-3.95004E-05-4.94350E-05 3.10381E-05-2.35729E-18-2.20398E-18
 -1      2103 1.36162E-04-3.88200E-05-4.17195E-05 3.86418E-05-2.54258E-18-1.66400E-18
 -1      2104 1.38075E-04-5.00946E-05-3.72010E-05 3.27235E-05-8.74562E-19 5.47607E-19
 -1      2105 1.79218E-04-2.97556E-05-6.26545E-05 1.68274E-05-1.79698E-18-2.36576E-18
 -1      2106 1.63271E-04-3.17861E-05-5.61851E-05 1.83335E-05-1.82483E-18-2.09259E-18
 -1      2107 1.94937E-04-2.64988E-05-7.07827E-05 6.99977E-06-2.55804E-18-1.32243E-18
 -1      2108 1.84964E-04-2.55793E-05-6.76233E-05 1.48909E-05-2.66350E-18-2.07100E-18
 -1      2109 1.86801E-04-2.19454E-05-6.99461E-05-5.89445E-06-3.75109E-18 9.33007E-19
 -1      2110 1.93322E-04-2.41821E-05-7.11656E-05 2.37720E-06-2.59234E-18 1.66654E-19
 -1      2111 1.77767E-04-2.88053E-05-6.31512E-05-1.94392E-05-2.64486E-18 2.42802E-18
 -1      2112 1.85669E-04-2.67364E-05-6.72438E-05-1.02659E-05-3.58464E-18 7.02826E-19
 -1      2113 1.55245E-04-3.48284E-05-5.14733E-05-3.04167E-05-1.99423E-18 2.40811E-18
 -1      2114 1.74369E-04-3.44048E-05-5.88329E-05-2.75096E-05-1.32661E-18 3.68375E-18
 -1      2115 1.65350E-04-2.91307E-05-5.72915E-05-6.10745E-06-1.92848E-18 1.88634E-18
 -1      2116 1.19686E-04-4.09597E-05-3.42209E-05-4.17551E-05-1.58565E-18 2.07100E-18
 -1      2117 1.42166E-04-3.97499E-05-4.31556E-05-4.19486E-05-1.85204E-18 2.51823E-18
 -1      2118 8.74065E-05-4.66492E-05-1.81450E-05-4.46620E-05-1.68941E-18 1.59983E-18
 -1      2119 1.06644E-04-4.34542E-05-2.67374E-05-4.86091E-05-2.38016E-18 9.35548E-19
 -1      2120 4.51044E-05-4.28340E-05-2.34678E-06-3.88349E-05-7.05155E-19 4.85519E-18
 -1      2121 6.17933E-05-3.96870E-05-9.82920E-06-4.76222E-05-9.38936E-19 3.58210E-18
 -1      2122 1.97923E-05-4.09440E-05 7.39343E-06-2.40720E-05-1.47299E-18 3.13783E-18
 -1      2123 2.80167E-05-3.76630E-05 3.10986E-06-3.27220E-05-1.48908E-18 5.85003E-18
 -1      2124 9.99824E-05-2.25432E-05-3.29131E-05 1.46520E-05 2.32370E-18 2.10218E-18
 -1      2125 1.58020E-04-6.21038E-05-4.09819E-05 2.31678E-05-5.55230E-19-4.72560E-18
 -1      2126 1.29785E-04-6.13611E-05-3.06044E-05 2.40901E-05-8.02140E-19-3.47961E-18
 -1      2127 9.98371E-05-2.25465E-05-3.28431E-05-1.44795E-05-2.18984E-18 3.38908E-18
 -1      2128 9.59829E-05-2.70917E-05-2.95101E-05 3.80740E-06-5.57589E-19-2.90149E-18
 -1      2129 9.52350E-05-2.59098E-05-2.97257E-05 4.40884E-06-2.49812E-19-1.98558E-18
 -1      2130 1.74769E-05-2.91239E-05 4.16728E-06-2.37624E-05-1.47934E-18 1.86601E-18
 -1      2131 1.29358E-04-6.69108E-05-2.71242E-05 2.66164E-05-1.60809E-18-3.47876E-18
 -1      2132 9.72072E-05-2.43176E-05-3.13112E-05-1.00129E-05-2.11591E-18 2.78187E-18
 -1      2133 1.71109E-04-6.73532E-05-4.41258E-05-3.89759E-06-8.91290E-19-3.39406E-18
 -1      2134 9.63624E-05-2.31103E-05-3.14604E-05-1.03940E-05-2.31240E-18 1.24070E-18
 -1      2135 9.64074E-05-2.31336E-05-3.14815E-05 1.04409E-05 2.45182E-18 2.29043E-19
 -1      2136 9.73164E-05-2.43620E-05-3.13491E-05 1.00874E-05 2.25541E-18 1.56626E-18
 -1      2137 1.67273E-04-6.58692E-05-4.38393E-05-1.17923E-05-1.02957E-18-1.50708E-18
 -1      2138 1.68728E-04-5.66226E-05-4.83807E-05 2.36142E-05 2.05702E-18 1.06959E-18
 -1      2139 1.70310E-04-6.41584E-05-4.54582E-05 1.76792E-05 1.76869E-18 1.81350E-18
 -1      2140 1.71026E-04-3.74546E-05-5.65446E-05 2.13865E-05 8.85996E-19-1.69407E-21
 -1      2141 1.75225E-04-5.05479E-05-5.35765E-05 2.73708E-05 1.70889E-18 2.62157E-19
 -1      2142 1.84357E-04-3.20940E-05-6.51655E-05-5.31130E-06 4.31140E-19-3.84632E-19
 -1      2143 1.84941E-04-3.35938E-05-6.49756E-05 9.21911E-06-1.73642E-20-8.44558E-19
 -1      2144 1.74994E-04-4.28548E-05-5.67841E-05-2.39430E-05-3.65071E-19-1.30020E-18
 -1      2145 1.70219E-04-3.13418E-05-5.88322E-05-1.67683E-05 5.75135E-19-8.89596E-19
 -1      2146 1.61364E-04-6.86554E-05-4.00280E-05 5.12515E-07 1.57146E-18 2.10001E-18
 -1      2147 1.41587E-05-2.71894E-05 4.80027E-06 3.68896E-06-8.92561E-20-9.81288E-19
 -1      2148 9.50592E-05-2.53682E-05-2.98413E-05 5.77788E-06-4.97023E-19-1.77169E-18
 -1      2149 3.94771E-05-3.60846E-05-2.01673E-06 2.89737E-05-3.41354E-19-2.52204E-19
 -1      2150 9.54163E-05-2.87674E-05-2.85623E-05 1.02637E-07-3.71503E-20 2.71266E-20
 -1      2151 4.37461E-05-3.69241E-05-3.29311E-06-4.38726E-05-1.79910E-18 5.35791E-18
 -1      2152 8.78272E-05-5.01132E-05-1.60675E-05-4.92581E-05-7.69106E-19 2.01409E-18
 -1      2153 1.53446E-04-4.51239E-05-4.57470E-05-2.23036E-05-1.42799E-18 1.82366E-18
 -1      2154 1.67916E-04-1.58816E-05-6.41793E-05-3.39227E-07-3.54907E-18 1.69152E-18
 -1      2155 1.69580E-04-1.25209E-05-6.60800E-05 6.25201E-07-3.76379E-18 1.17526E-19
 -1      2156 1.58815E-04-3.83419E-05-5.12886E-05 1.59830E-05-1.61384E-18-1.73303E-18
 -1      2157 1.51527E-04-4.41463E-05-4.57128E-05 1.10904E-05-1.03568E-18-2.33358E-19
 -1      2158 1.54180E-04-3.50816E-05-5.16556E-05-4.36358E-07-3.30766E-19-2.11758E-19
 -1      2159 1.02880E-04-5.09333E-05-2.21956E-05 4.65442E-05-8.07222E-19-3.06414E-19
 -1      2160 6.15319E-05-4.21851E-05-8.55703E-06 4.88983E-05-3.14673E-19-2.68149E-18
 -1      2161 2.80610E-05-3.21432E-05 1.00814E-06 3.58415E-05 2.26581E-19-5.80683E-18
 -1      2162 1.26127E-05-2.57220E-05 4.85545E-06 1.19030E-05 5.19972E-19-7.58899E-18
 -1      2163 2.43381E-05-2.82031E-05 1.24721E-06-1.73287E-05 8.93196E-19-3.73626E-18
 -1      2164 6.14072E-05-4.37932E-05-7.99633E-06-3.55042E-05 1.70550E-18-9.25595E-19
 -1      2165 1.11979E-04-6.23374E-05-2.14979E-05-3.19477E-05 1.27309E-18-1.07838E-19
 -1      2166 1.59338E-04-7.08561E-05-3.79936E-05-7.72975E-06 1.93378E-18 6.89061E-19
 -1      2167 1.84103E-04-5.86658E-05-5.31701E-05 1.64167E-05 3.43292E-18 5.45489E-19
 -1      2168 2.16046E-04-4.47066E-05-7.10831E-05-4.81105E-06 8.07646E-19 1.02110E-18
 -1      2169 2.03436E-04-4.59102E-05-6.57991E-05 3.09430E-06 1.19347E-18 9.91029E-20
 -1      2170 1.85886E-04-3.55214E-05-6.43604E-05-8.88220E-06 8.97855E-19-7.28237E-19
 -1      2171 1.86972E-04-3.77341E-05-6.36568E-05 1.12055E-05 2.73592E-19-8.94467E-19
 -1      2172 1.84457E-04-4.92558E-05-5.76507E-05-2.19582E-05-4.90432E-19-1.73261E-18
 -1      2173 1.65413E-04-2.16567E-05-6.09957E-05 1.05673E-06-2.21436E-18-2.56863E-19
 -1      2174 1.26424E-04-5.50057E-05-3.06055E-05-3.79098E-05-1.15175E-18 1.08674E-18
 -1      2175 8.81247E-05-1.11703E-05-3.30198E-05-3.67995E-06-1.06520E-18-2.89264E-18
 -1      2176 8.83606E-05-1.14418E-05-3.30023E-05-4.82025E-06-1.37941E-18-2.85169E-18
 -1      2177 8.87140E-05-1.19263E-05-3.29543E-05-5.83781E-06-1.49201E-18-2.77567E-18
 -1      2178 8.91210E-05-1.23979E-05-3.29268E-05-7.00846E-06-1.72623E-18-2.63032E-18
 -1      2179 8.98807E-05-1.38104E-05-3.26009E-05-4.92025E-06-1.32857E-18-2.64214E-18
 -1      2180 8.77704E-05-1.07030E-05-3.30628E-05 5.92916E-07-1.75485E-19-3.03845E-18
 -1      2181 8.77683E-05-1.07006E-05-3.30630E-05-5.16892E-07-4.44022E-19-3.01523E-18
 -1      2182 8.79458E-05-1.09206E-05-3.30450E-05 2.73324E-06 2.96687E-19-3.03824E-18
 -1      2183 8.78339E-05-1.07914E-05-3.30539E-05 1.61509E-06 1.31062E-20-3.02100E-18
 -1      2184 8.90853E-05-1.27452E-05-3.27204E-05 1.02989E-06-8.28362E-20-2.88589E-18
 -1      2185 8.83726E-05-1.14571E-05-3.30010E-05 4.86176E-06 7.74859E-19-3.04711E-18
 -1      2186 8.81373E-05-1.11863E-05-3.30184E-05 3.73956E-06 4.99232E-19-3.08150E-18
 -1      2187 8.93454E-05-1.30933E-05-3.26813E-05 3.00126E-06 3.49969E-19-2.83466E-18
 -1      2188 8.91402E-05-1.24219E-05-3.29246E-05 7.04927E-06 1.40334E-18-2.69750E-18
 -1      2189 8.87287E-05-1.19455E-05-3.29524E-05 5.87848E-06 1.02907E-18-2.88939E-18
 -1      2190 8.98946E-05-1.38295E-05-3.25986E-05 4.95817E-06 9.07073E-19-2.68642E-18
 -1      2191 9.03971E-05-1.40063E-05-3.28024E-05 9.20262E-06 1.91413E-18-2.36997E-18
 -1      2192 8.97259E-05-1.32118E-05-3.28453E-05 8.02038E-06 1.55574E-18-2.52416E-18
 -1      2193 9.08219E-05-1.50727E-05-3.24570E-05 6.85668E-06 1.42083E-18-2.45076E-18
 -1      2194 9.23936E-05-1.65939E-05-3.25829E-05 1.10865E-05 2.33500E-18-1.75005E-18
 -1      2195 9.13192E-05-1.52293E-05-3.26679E-05 1.00262E-05 2.07671E-18-2.14880E-18
 -1      2196 9.22366E-05-1.70143E-05-3.22221E-05 8.51400E-06 1.92981E-18-2.05852E-18
 -1      2197 9.54804E-05-2.09511E-05-3.20090E-05 1.13188E-05 2.47093E-18-4.44044E-19
 -1      2198 9.36981E-05-1.85911E-05-3.22211E-05 1.10032E-05 2.37738E-18-1.22055E-18
 -1      2199 9.41945E-05-2.01570E-05-3.17050E-05 9.03969E-06 2.26549E-18-1.34629E-18
 -1      2200 9.56943E-05-2.39069E-05-3.07628E-05 7.65410E-06 2.33870E-18-3.37318E-19
 -1      2201 9.59223E-05-2.50958E-05-3.03076E-05-6.20179E-06-1.96983E-18 4.41575E-19
 -1      2202 9.52603E-05-2.58492E-05-2.97636E-05-4.28597E-06-1.78860E-18 3.41414E-19
 -1      2203 9.51467E-05-2.65372E-05-2.93468E-05-2.94691E-06-1.51336E-18 4.60194E-19
 -1      2204 9.46745E-05-2.69068E-05-2.90435E-05-1.88315E-06-1.20516E-18 3.21009E-19
 -1      2205 9.53422E-05-2.53641E-05-2.99984E-05-4.29747E-06-1.70482E-18-1.41035E-19
 -1      2206 9.44787E-05-2.72369E-05-2.87796E-05-1.03062E-06-1.13364E-18 4.02969E-19
 -1      2207 9.42200E-05-2.74504E-05-2.86131E-05-4.27762E-07-8.99629E-19 1.23675E-19
 -1      2208 9.50365E-05-2.66965E-05-2.93019E-05-1.92501E-06-1.23780E-18-2.03437E-20
 -1      2209 9.40710E-05-2.76308E-05-2.84517E-05 8.12254E-08-7.35318E-19 1.29963E-19
 -1      2210 9.39724E-05-2.77743E-05-2.83681E-05 4.12116E-07-7.03605E-19 9.59295E-20
 -1      2211 9.47314E-05-2.74253E-05-2.88584E-05-4.43610E-07-9.40119E-19-6.96809E-20
 -1      2212 9.38875E-05-2.78838E-05-2.82747E-05 6.96040E-07-6.98155E-19-1.52494E-19
 -1      2213 9.38933E-05-2.79906E-05-2.82418E-05 8.61329E-07-7.67185E-19-2.70543E-19
 -1      2214 9.45297E-05-2.78534E-05-2.85859E-05 4.29462E-07-9.35772E-19-4.10736E-19
 -1      2215 9.38618E-05-2.80626E-05-2.81931E-05 1.00002E-06-8.51000E-19-2.30742E-19
 -1      2216 9.39294E-05-2.81463E-05-2.81910E-05 1.06364E-06-8.31332E-19-4.48483E-19
 -1      2217 9.44367E-05-2.81223E-05-2.84280E-05 9.03288E-07-8.17607E-19-5.44846E-19
 -1      2218 9.39353E-05-2.81957E-05-2.81713E-05 1.11049E-06-6.87892E-19-4.84623E-19
 -1      2219 9.40351E-05-2.82624E-05-2.81869E-05 1.11274E-06-6.80647E-19-4.77743E-19
 -1      2220 9.44271E-05-2.82984E-05-2.83460E-05 1.11973E-06-8.13332E-19-7.25291E-19
 -1      2221 9.40640E-05-2.82969E-05-2.81854E-05 1.10377E-06-7.54022E-19-3.00038E-19
 -1      2222 9.41767E-05-2.83496E-05-2.82105E-05 1.07097E-06-9.49295E-19-1.75625E-19
 -1      2223 9.44726E-05-2.84157E-05-2.83134E-05 1.17470E-06-6.78353E-19-7.12613E-19
 -1      2224 9.42180E-05-2.83734E-05-2.82200E-05 1.03062E-06-9.23413E-19-1.70665E-20
 -1      2225 9.43314E-05-2.84147E-05-2.82492E-05 9.80250E-07-6.14570E-19 1.37625E-19
 -1      2226 9.45498E-05-2.84930E-05-2.83120E-05 1.13337E-06-7.45586E-19-5.40872E-19
 -1      2227 9.43780E-05-2.84306E-05-2.82648E-05 9.25127E-07-6.82487E-19-4.30161E-20
 -1      2228 9.44853E-05-2.84623E-05-2.82949E-05 8.68825E-07-4.49661E-19-1.83660E-19
 -1      2229 9.46421E-05-2.85420E-05-2.83297E-05 1.04019E-06-7.85067E-19-1.38962E-19
 -1      2230 9.45327E-05-2.84722E-05-2.83136E-05 8.10111E-07-1.24378E-19-1.80962E-19
 -1      2231 9.46306E-05-2.84960E-05-2.83428E-05 7.55578E-07 6.17816E-20-1.91277E-19
 -1      2232 9.47384E-05-2.85705E-05-2.83582E-05 9.25325E-07-4.51289E-19-4.84428E-20
 -1      2233 9.46764E-05-2.85015E-05-2.83626E-05 7.00704E-07 7.04257E-20-2.47166E-19
 -1      2234 9.47643E-05-2.85191E-05-2.83901E-05 6.52946E-07-1.47875E-20 2.35468E-20
 -1      2235 9.48325E-05-2.85842E-05-2.83923E-05 8.09073E-07 5.54275E-20-3.23007E-19
 -1      2236 9.48075E-05-2.85214E-05-2.84102E-05 6.06745E-07-2.41480E-19-1.67196E-19
 -1      2237 9.48864E-05-2.85344E-05-2.84358E-05 5.68909E-07-1.43426E-19-3.09491E-19
 -1      2238 9.49214E-05-2.85875E-05-2.84288E-05 7.04859E-07-1.54683E-19-4.14247E-19
 -1      2239 9.49272E-05-2.85346E-05-2.84556E-05 5.34404E-07-3.16065E-19-1.25229E-19
 -1      2240 9.49992E-05-2.85445E-05-2.84797E-05 5.08325E-07-3.06154E-19-3.67425E-19
 -1      2241 9.50048E-05-2.85838E-05-2.84661E-05 6.21331E-07-2.31996E-19-2.13576E-19
 -1      2242 9.50385E-05-2.85437E-05-2.84992E-05 4.87217E-07-3.70457E-19-5.99087E-19
 -1      2243 9.51064E-05-2.85522E-05-2.85222E-05 4.73713E-07-4.13920E-19-7.31811E-19
 -1      2244 9.50839E-05-2.85760E-05-2.85034E-05 5.63736E-07-6.03380E-19-3.87030E-19
 -1      2245 9.51460E-05-2.85517E-05-2.85415E-05 4.66623E-07-2.81775E-19-8.91159E-19
 -1      2246 9.52129E-05-2.85606E-05-2.85641E-05 4.65562E-07-3.70990E-19-6.50588E-19
 -1      2247 9.51617E-05-2.85672E-05-2.85406E-05 5.34716E-07-3.95051E-19-1.17121E-18
 -1      2248 9.52548E-05-2.85620E-05-2.85835E-05 4.72009E-07-6.09554E-19-8.36404E-19
 -1      2249 9.53239E-05-2.85732E-05-2.86062E-05 4.82141E-07-5.64200E-19-8.08538E-19
 -1      2250 9.52421E-05-2.85610E-05-2.85779E-05 5.34573E-07-4.15350E-19-9.48846E-19
 -1      2251 9.53709E-05-2.85787E-05-2.86258E-05 5.00263E-07-1.57468E-19-8.04743E-19
 -1      2252 9.54453E-05-2.85950E-05-2.86490E-05 5.18805E-07 9.81494E-21-9.28020E-19
 -1      2253 9.53300E-05-2.85620E-05-2.86153E-05 5.60975E-07-2.22782E-19-8.42023E-19
 -1      2254 9.55006E-05-2.86076E-05-2.86686E-05 5.44795E-07-2.49337E-20-8.94939E-19
 -1      2255 9.55825E-05-2.86320E-05-2.86923E-05 5.66773E-07 3.34630E-19-1.12419E-18
 -1      2256 9.54315E-05-2.85765E-05-2.86528E-05 6.08111E-07 1.46117E-20-6.31095E-19
 -1      2257 9.56497E-05-2.86557E-05-2.87115E-05 5.94047E-07 7.45025E-19-1.08122E-18
 -1      2258 9.57404E-05-2.86920E-05-2.87349E-05 6.11416E-07 8.29729E-19-4.79007E-19
 -1      2259 9.55538E-05-2.86132E-05-2.86897E-05 6.65260E-07 5.20112E-19-8.62415E-19
 -1      2260 9.58237E-05-2.87321E-05-2.87528E-05 6.29549E-07 5.95768E-19-4.75189E-19
 -1      2261 9.59221E-05-2.87843E-05-2.87745E-05 6.30225E-07 2.22223E-19 2.80487E-20
 -1      2262 9.57051E-05-2.86838E-05-2.87245E-05 7.14847E-07 9.21175E-19-6.10826E-19
 -1      2263 9.60258E-05-2.88469E-05-2.87895E-05 6.23822E-07-5.03032E-20-3.74204E-19
 -1      2264 9.61279E-05-2.89188E-05-2.88070E-05 5.90864E-07-1.73364E-19-3.15748E-19
 -1      2265 9.58940E-05-2.88024E-05-2.87548E-05 7.30176E-07 4.78582E-20-8.30119E-19
 -1      2266 9.62554E-05-2.90102E-05-2.88172E-05 5.38701E-07-4.67605E-19-8.50773E-19
 -1      2267 9.63526E-05-2.91038E-05-2.88268E-05 4.50158E-07-5.99302E-19-1.15666E-18
 -1      2268 9.61287E-05-2.89844E-05-2.87775E-05 6.73340E-07-6.01040E-19-1.00108E-18
 -1      2269 9.65048E-05-2.92285E-05-2.88297E-05 3.25231E-07-3.51596E-19-1.51935E-18
 -1      2270 9.65822E-05-2.93416E-05-2.88269E-05 1.55422E-07-3.46039E-19-9.87830E-19
 -1      2271 9.64139E-05-2.92435E-05-2.87887E-05 4.94293E-07-7.15086E-19-1.45045E-18
 -1      2272 9.67546E-05-2.94987E-05-2.88203E-05-7.30694E-08-4.37013E-19-7.68325E-19
 -1      2273 9.67893E-05-2.96214E-05-2.87999E-05-3.49750E-07-2.38142E-19-4.06838E-20
 -1      2274 9.67464E-05-2.95844E-05-2.87848E-05 1.32720E-07-3.99695E-19-1.53633E-18
 -1      2275 9.69673E-05-2.97997E-05-2.87823E-05-7.11046E-07-4.78969E-19 1.14182E-19
 -1      2276 9.69270E-05-2.99097E-05-2.87393E-05-1.11260E-06-2.17989E-19-1.93903E-19
 -1      2277 9.71075E-05-2.99928E-05-2.87636E-05-4.74758E-07-1.54022E-19-3.91907E-19
 -1      2278 9.70809E-05-3.00813E-05-2.87112E-05-1.62408E-06 2.04281E-19 2.14483E-19
 -1      2279 9.69249E-05-3.01401E-05-2.86424E-05-2.14905E-06 6.05893E-20 3.10056E-19
 -1      2280 9.74523E-05-3.04209E-05-2.87259E-05-1.37889E-06 1.93130E-20-8.76639E-20
 -1      2281 9.70051E-05-3.02555E-05-2.86064E-05-2.80010E-06-2.66261E-19 2.22160E-19
 -1      2282 9.66893E-05-3.02084E-05-2.85118E-05-3.41232E-06-2.93647E-19 1.21142E-19
 -1      2283 9.76997E-05-3.07743E-05-2.86775E-05-2.59084E-06 3.75863E-20 3.84392E-19
 -1      2284 9.66282E-05-3.01984E-05-2.84735E-05-4.14420E-06-1.98915E-19 2.30073E-19
 -1      2285 9.61172E-05-2.99836E-05-2.83578E-05-4.75885E-06 2.55453E-19 4.67451E-19
 -1      2286 9.77293E-05-3.09068E-05-2.86292E-05-4.04417E-06-1.90990E-19 1.17490E-18
 -1      2287 9.58439E-05-2.97741E-05-2.83248E-05-5.44774E-06 6.98568E-19 6.97363E-19
 -1      2288 9.51305E-05-2.93461E-05-2.81973E-05-5.92783E-06 6.14292E-19 1.45536E-18
 -1      2289 9.73964E-05-3.06417E-05-2.85960E-05-5.55398E-06 7.26276E-19 9.51035E-19
 -1      2290 9.46042E-05-2.88924E-05-2.81763E-05-6.38624E-06 1.35381E-19 1.58108E-18
 -1      2291 9.37338E-05-2.82571E-05-2.80502E-05-6.56253E-06 4.85385E-19 1.69718E-18
 -1      2292 9.65819E-05-2.98317E-05-2.85923E-05-6.79570E-06 2.31453E-19 1.20028E-18
 -1      2293 9.29899E-05-2.75892E-05-2.80443E-05-6.57775E-06 4.10787E-19 1.66676E-18
 -1      2294 9.20763E-05-2.68368E-05-2.79335E-05-6.30044E-06 6.55284E-20 1.35666E-18
 -1      2295 9.52751E-05-2.84577E-05-2.86249E-05-7.34062E-06 2.16151E-19 1.65566E-18
 -1      2296 9.12592E-05-2.60912E-05-2.79392E-05-5.71750E-06-3.34082E-19 1.28896E-18
 -1      2297 9.04742E-05-2.53968E-05-2.78555E-05-4.93052E-06-2.21378E-19 1.11103E-18
 -1      2298 9.36585E-05-2.67244E-05-2.86855E-05-6.78147E-06-2.23718E-19 1.72936E-18
 -1      2299 8.98158E-05-2.47950E-05-2.78632E-05-3.75286E-06 1.36700E-20 1.03081E-18
 -1      2300 8.93409E-05-2.43657E-05-2.78142E-05-2.55396E-06 2.97199E-19 1.05688E-18
 -1      2301 9.21235E-05-2.50725E-05-2.87502E-05-4.93514E-06-1.25876E-19 1.76016E-18
 -1      2302 8.90669E-05-2.41232E-05-2.78135E-05-9.96237E-07 9.67318E-19 8.25450E-19
 -1      2303 8.90219E-05-2.41034E-05-2.78025E-05 3.66145E-07 1.24625E-18 1.10428E-18
 -1      2304 9.11515E-05-2.40388E-05-2.87875E-05-2.02391E-06 9.80205E-19 5.70430E-19
 -1      2305 8.92309E-05-2.43145E-05-2.77886E-05 1.93294E-06 4.91592E-19 5.13769E-19
 -1      2306 8.96192E-05-2.47087E-05-2.78158E-05 3.14441E-06 3.77725E-19-2.03971E-19
 -1      2307 9.10852E-05-2.40029E-05-2.87746E-05 1.31574E-06 6.95517E-19-2.41634E-19
 -1      2308 9.02229E-05-2.52889E-05-2.77931E-05 4.34368E-06 9.56320E-19-8.32374E-19
 -1      2309 9.09290E-05-2.59579E-05-2.78551E-05 5.14888E-06 3.30864E-20-3.56563E-19
 -1      2310 9.19360E-05-2.49771E-05-2.87112E-05 4.26186E-06 2.72377E-19-5.59337E-19
 -1      2311 9.17039E-05-2.66935E-05-2.78340E-05 5.75436E-06-6.72417E-19 8.03414E-19
 -1      2312 9.25459E-05-2.74287E-05-2.79236E-05 6.04769E-06-9.34156E-19 2.28965E-18
 -1      2313 9.33741E-05-2.65959E-05-2.86192E-05 6.15739E-06 6.38608E-19 4.28927E-19
 -1      2314 9.32539E-05-2.80918E-05-2.79142E-05 6.04729E-06-8.90719E-19 3.30963E-18
 -1      2315 9.40566E-05-2.87106E-05-2.80202E-05 5.88169E-06 2.35947E-19 3.46800E-18
 -1      2316 9.49137E-05-2.83165E-05-2.85306E-05 6.75699E-06 2.13937E-19 2.47478E-18
 -1      2317 9.45438E-05-2.91547E-05-2.80272E-05 5.43046E-06-1.04789E-19 2.98525E-18
 -1      2318 9.51893E-05-2.95593E-05-2.81365E-05 4.95977E-06 4.06589E-19 2.22585E-18
 -1      2319 9.61465E-05-2.96781E-05-2.84714E-05 6.23436E-06-7.91374E-20 3.10812E-18
 -1      2320 9.54131E-05-2.97460E-05-2.81578E-05 4.27944E-06 1.27223E-18 1.61426E-18
 -1      2321 9.58548E-05-2.99256E-05-2.82582E-05 3.68284E-06 1.51170E-18 9.91009E-19
 -1      2322 9.68724E-05-3.04532E-05-2.84517E-05 5.00689E-06 1.22439E-20 1.75598E-18
 -1      2323 9.58535E-05-2.98962E-05-2.82878E-05 2.97522E-06 2.36125E-19 7.84598E-19
 -1      2324 9.61013E-05-2.98971E-05-2.83708E-05 2.40192E-06-2.29462E-19 6.27480E-19
 -1      2325 9.70922E-05-3.06465E-05-2.84672E-05 3.52844E-06 5.53677E-19 1.21124E-18
 -1      2326 9.59499E-05-2.97292E-05-2.84014E-05 1.80406E-06-2.27871E-19 5.90332E-19
 -1      2327 9.60452E-05-2.96182E-05-2.84628E-05 1.34810E-06-5.35932E-19 9.18157E-19
 -1      2328 9.69272E-05-3.04065E-05-2.85039E-05 2.15350E-06-1.53100E-19 9.25541E-19
 -1      2329 9.58175E-05-2.93882E-05-2.84871E-05 9.32005E-07-1.10409E-18 1.41903E-20
 -1      2330 9.58097E-05-2.92420E-05-2.85255E-05 6.38326E-07-1.32836E-18 5.68153E-20
 -1      2331 9.65328E-05-2.99217E-05-2.85456E-05 1.09307E-06-1.29300E-18-6.84623E-19
 -1      2332 9.51986E-05-2.60279E-05-2.96512E-05 3.92736E-06 1.85939E-18-6.17540E-19
 -1      2333 9.58857E-05-2.53893E-05-3.01841E-05 5.77917E-06 2.11225E-18-3.12235E-19
 -1      2334 9.52999E-05-2.35629E-05-3.07219E-05 6.79555E-06 2.15881E-18-8.39139E-19
 -1      2335 9.39801E-05-2.77612E-05-2.83771E-05-3.80248E-07 5.88592E-19-6.27943E-19
 -1      2336 9.40843E-05-2.76150E-05-2.84640E-05-3.84701E-08 8.65860E-19-6.25473E-19
 -1      2337 9.38939E-05-2.79818E-05-2.82459E-05-8.44580E-07 4.79491E-19-6.94333E-19
 -1      2338 9.38923E-05-2.78734E-05-2.82808E-05-6.72975E-07 5.45220E-19-6.48940E-19
 -1      2339 9.45368E-05-2.78368E-05-2.85964E-05-3.96052E-07 6.42198E-19-9.09420E-19
 -1      2340 9.39254E-05-2.81401E-05-2.81919E-05-1.05618E-06 3.89463E-19-7.19017E-19
 -1      2341 9.38603E-05-2.80553E-05-2.81953E-05-9.88838E-07 4.71514E-19-5.94328E-19
 -1      2342 9.44392E-05-2.81120E-05-2.84336E-05-8.85402E-07 5.29694E-19-9.12775E-19
 -1      2343 9.40285E-05-2.82580E-05-2.81860E-05-1.11062E-06 1.59202E-19-4.51779E-19
 -1      2344 9.39299E-05-2.81906E-05-2.81710E-05-1.10637E-06 2.25154E-19-5.37357E-19
 -1      2345 9.44264E-05-2.82921E-05-2.83485E-05-1.11161E-06 3.39877E-19-6.94445E-19
 -1      2346 9.41690E-05-2.83469E-05-2.82084E-05-1.07138E-06 4.27017E-19-6.53595E-19
 -1      2347 9.40568E-05-2.82933E-05-2.81837E-05-1.10339E-06 3.81852E-19-5.67258E-19
 -1      2348 9.44700E-05-2.84122E-05-2.83138E-05-1.17223E-06 3.35498E-19-7.56442E-19
 -1      2349 9.43232E-05-2.84131E-05-2.82464E-05-9.81133E-07 6.74048E-19-7.11915E-19
 -1      2350 9.42102E-05-2.83715E-05-2.82174E-05-1.03170E-06 5.73192E-19-7.41623E-19
 -1      2351 9.45466E-05-2.84916E-05-2.83113E-05-1.13363E-06 5.62037E-19-1.12484E-18
 -1      2352 9.44700E-05-2.84596E-05-2.82895E-05-8.74746E-07 7.60630E-19-7.10085E-19
 -1      2353 9.43673E-05-2.84290E-05-2.82609E-05-9.29031E-07 6.52574E-19-5.77119E-19
 -1      2354 9.46369E-05-2.85418E-05-2.83275E-05-1.04393E-06 5.79402E-19-1.06651E-18
 -1      2355 9.46175E-05-2.84951E-05-2.83375E-05-7.59885E-07 4.67926E-19-3.05300E-20
 -1      2356 9.45186E-05-2.84707E-05-2.83081E-05-8.15513E-07 7.44650E-19-2.92302E-19
 -1      2357 9.47316E-05-2.85713E-05-2.83550E-05-9.31694E-07 4.18467E-19-5.21033E-19
 -1      2358 9.47535E-05-2.85190E-05-2.83855E-05-6.55148E-07-3.82594E-19 2.01803E-19
 -1      2359 9.46644E-05-2.85011E-05-2.83576E-05-7.04032E-07 2.41577E-19 1.29673E-19
 -1      2360 9.48277E-05-2.85866E-05-2.83893E-05-8.14113E-07 1.64296E-19 4.71908E-20
 -1      2361 9.48788E-05-2.85338E-05-2.84327E-05-5.70121E-07-2.52083E-19-2.09393E-19
 -1      2362 9.47983E-05-2.85213E-05-2.84063E-05-6.08320E-07-2.42547E-19 2.31131E-19
 -1      2363 9.49193E-05-2.85902E-05-2.84269E-05-7.08629E-07-1.38066E-19 3.81870E-20
 -1      2364 9.49960E-05-2.85413E-05-2.84794E-05-5.12076E-07-5.97573E-19-3.89351E-19
 -1      2365 9.49215E-05-2.85330E-05-2.84539E-05-5.36434E-07-4.12021E-19-1.85984E-19
 -1      2366 9.50059E-05-2.85846E-05-2.84664E-05-6.25822E-07-2.53363E-19-5.75507E-20
 -1      2367 9.51097E-05-2.85425E-05-2.85272E-05-4.87616E-07-4.00518E-19-1.72877E-19
 -1      2368 9.50376E-05-2.85377E-05-2.85015E-05-4.95051E-07-6.73282E-19-4.70832E-19
 -1      2369 9.50887E-05-2.85709E-05-2.85078E-05-5.74033E-07-4.95863E-19-2.09692E-19
 -1      2370 9.52260E-05-2.85376E-05-2.85784E-05-5.04090E-07 1.18058E-19-4.98193E-19
 -1      2371 9.51515E-05-2.85358E-05-2.85509E-05-4.90916E-07 8.32549E-20-3.05413E-19
 -1      2372 9.51701E-05-2.85491E-05-2.85522E-05-5.61030E-07-7.98615E-20-3.25795E-19
 -1      2373 9.53521E-05-2.85256E-05-2.86366E-05-5.71110E-07 8.60471E-20-3.91391E-19
 -1      2374 9.52695E-05-2.85269E-05-2.86052E-05-5.32264E-07 2.96869E-19-4.91442E-19
 -1      2375 9.52530E-05-2.85175E-05-2.86015E-05-5.95554E-07 1.37280E-19-4.45382E-19
 -1      2376 9.54963E-05-2.85040E-05-2.87063E-05-7.02319E-07 1.07821E-19-3.93105E-20
 -1      2377 9.53987E-05-2.85090E-05-2.86681E-05-6.30421E-07-4.89827E-20-2.57168E-19
 -1      2378 9.53401E-05-2.84721E-05-2.86585E-05-6.88941E-07 2.47848E-20-4.30258E-19
 -1      2379 9.56675E-05-2.84676E-05-2.87935E-05-9.17670E-07 3.34908E-19-1.32054E-19
 -1      2380 9.55466E-05-2.84780E-05-2.87449E-05-8.01758E-07 4.43600E-19 7.06228E-20
 -1      2381 9.54332E-05-2.84058E-05-2.87269E-05-8.56982E-07 2.18856E-19-5.60997E-19
 -1      2382 9.58747E-05-2.84070E-05-2.89055E-05-1.24643E-06 3.20719E-19-8.67704E-19
 -1      2383 9.57203E-05-2.84264E-05-2.88419E-05-1.07025E-06 3.31792E-19-5.63742E-19
 -1      2384 9.55319E-05-2.83070E-05-2.88114E-05-1.12221E-06 6.34616E-19-8.89047E-19
 -1      2385 9.61249E-05-2.83071E-05-2.90518E-05-1.73117E-06 4.39572E-19-9.82391E-19
 -1      2386 9.59254E-05-2.83412E-05-2.89672E-05-1.47088E-06 3.46382E-19-6.67408E-19
 -1      2387 9.56303E-05-2.81569E-05-2.89176E-05-1.51675E-06 4.39375E-19-1.02499E-18
 -1      2388 9.64205E-05-2.81436E-05-2.92435E-05-2.43288E-06 5.88825E-19-1.35027E-18
 -1      2389 9.61629E-05-2.82018E-05-2.91303E-05-2.05406E-06 6.91275E-19-7.61963E-19
 -1      2390 9.57138E-05-2.79260E-05-2.90512E-05-2.08585E-06 5.46076E-19-6.51575E-19
 -1      2391 9.67511E-05-2.78792E-05-2.94925E-05-3.43703E-06 4.77683E-19-6.78377E-19
 -1      2392 9.64250E-05-2.79760E-05-2.93420E-05-2.89069E-06 4.32872E-19-9.43771E-19
 -1      2393 9.57521E-05-2.75709E-05-2.92175E-05-2.89181E-06 4.12000E-19-8.67035E-19
 -1      2394 9.70804E-05-2.74900E-05-2.97925E-05-4.77247E-06 1.32303E-19 4.63303E-19
 -1      2395 9.66874E-05-2.76323E-05-2.96061E-05-4.04531E-06 5.97602E-19-2.50806E-19
 -1      2396 9.56923E-05-2.70421E-05-2.94126E-05-3.98200E-06 3.51412E-19-4.05957E-19
 -1      2397 9.73890E-05-2.68757E-05-3.01768E-05-6.71683E-06-2.42079E-19 9.64129E-19
 -1      2398 9.68913E-05-2.70995E-05-2.99287E-05-5.64838E-06-1.89494E-19 7.51707E-19
 -1      2399 9.54468E-05-2.62623E-05-2.96353E-05-5.47858E-06 2.01319E-20 1.01765E-18
 -1      2400 9.75661E-05-2.60074E-05-3.06146E-05-9.36511E-06-1.00588E-18 1.60168E-18
 -1      2401 9.69763E-05-2.63061E-05-3.03153E-05-7.90977E-06-3.16681E-19 1.23512E-18
 -1      2402 9.48599E-05-2.51073E-05-2.98665E-05-7.54609E-06-6.61809E-19 1.79754E-18
 -1      2403 9.75135E-05-2.49357E-05-3.10416E-05-1.28433E-05-1.16828E-18 1.23372E-18
 -1      2404 9.68168E-05-2.52435E-05-3.07161E-05-1.09533E-05-9.31564E-19 1.44643E-18
 -1      2405 9.37323E-05-2.35386E-05-3.00376E-05-1.02823E-05-6.22195E-19 1.49393E-18
 -1      2406 9.72399E-05-2.40170E-05-3.13034E-05-1.71564E-05-4.84834E-19 1.51928E-18
 -1      2407 9.63348E-05-2.40745E-05-3.10224E-05-1.48984E-05-1.10403E-18 1.22002E-18
 -1      2408 9.18476E-05-2.16569E-05-3.00123E-05-1.38044E-05-6.98162E-19 7.13068E-19
 -1      2409 9.72190E-05-2.43703E-05-3.11074E-05-2.20279E-05-2.65776E-19 1.58492E-18
 -1      2410 9.57241E-05-2.34686E-05-3.10073E-05-1.97312E-05 3.24842E-20 1.98940E-18
 -1      2411 8.91451E-05-2.00092E-05-2.95284E-05-1.82160E-05-3.71101E-19 1.04462E-18
 -1      2412 9.91727E-05-2.85439E-05-3.00632E-05-2.65314E-05-1.18091E-18 2.64109E-18
 -1      2413 9.60649E-05-2.52323E-05-3.03053E-05-2.50326E-05-5.97363E-19 1.87835E-18
 -1      2414 8.62863E-05-2.02056E-05-2.81550E-05-2.36779E-05-7.87681E-19 1.34296E-18
 -1      2415 1.06890E-04-4.05149E-05-2.81805E-05-2.90149E-05-1.33535E-18 2.91760E-18
 -1      2416 9.99340E-05-3.26690E-05-2.85840E-05-2.94365E-05-1.26973E-18 2.93820E-18
 -1      2417 8.52720E-05-2.54975E-05-2.54074E-05-3.01317E-05-1.42005E-18 1.61696E-18
 -1      2418 2.04969E-05-1.80580E-05-8.17416E-07 1.17803E-05 6.75932E-19 4.35798E-19
 -1      2419 1.61126E-05-1.71661E-05 7.82360E-07-4.04599E-06 2.35634E-19-1.96978E-18
 -1      2420 1.44887E-04-6.89771E-05-3.22759E-05-1.42478E-05 6.04570E-19 1.34159E-18
 -1      2421 1.27800E-04-5.65835E-05-2.99871E-05 2.40625E-05-2.31664E-19-2.89376E-18
 -1      2422 1.39385E-04-6.53498E-05-3.16136E-05 1.68130E-05-1.45436E-18-2.86752E-18
 -1      2423 9.75072E-05-2.47338E-05-3.12062E-05 2.19584E-05-4.42641E-19-2.26701E-18
 -1      2424 9.97882E-05-2.62328E-05-3.14308E-05 2.40224E-05-8.04761E-19-1.92617E-18
 -1      2425 9.70155E-05-2.46078E-05-3.10733E-05 1.70937E-05 7.12431E-19-2.78730E-18
 -1      2426 9.85055E-05-2.49128E-05-3.14615E-05 1.93221E-05-1.72232E-19-2.07599E-18
 -1      2427 9.03427E-05-2.10512E-05-2.96115E-05 2.09950E-05-3.28336E-19-1.39551E-18
 -1      2428 9.67429E-05-2.52712E-05-3.06606E-05 1.29206E-05 1.57926E-18-9.25809E-19
 -1      2429 9.78837E-05-2.52437E-05-3.10659E-05 1.48990E-05 9.54130E-19-1.85872E-18
 -1      2430 9.23225E-05-2.20212E-05-3.00672E-05 1.63398E-05-2.49531E-19-1.10965E-18
 -1      2431 9.63186E-05-2.58239E-05-3.02135E-05 9.46392E-06 1.29757E-18-4.04363E-19
 -1      2432 9.72543E-05-2.58105E-05-3.05563E-05 1.11166E-05 2.49937E-18-3.88382E-20
 -1      2433 9.37030E-05-2.34065E-05-3.00943E-05 1.24651E-05 1.91088E-18 3.34135E-19
 -1      2434 9.52996E-05-2.55847E-05-2.98603E-05 6.82859E-06-4.00104E-19-1.74445E-18
 -1      2435 9.60383E-05-2.56788E-05-3.00940E-05 8.28202E-06 3.34555E-19-1.15673E-18
 -1      2436 9.37910E-05-2.39759E-05-2.99464E-05 9.38148E-06 2.11409E-18 1.59961E-18
 -1      2437 9.35155E-05-2.38640E-05-2.98966E-05 6.93156E-06-1.52198E-19 1.02428E-18
 -1      2438 5.47016E-05-3.31389E-05-8.96151E-06 3.57248E-05-2.94344E-19-9.37665E-19
 -1      2439 3.53864E-05-2.45081E-05-4.20970E-06 2.51771E-05-1.31502E-19 5.01655E-19
 -1      2440 9.12445E-05-2.20298E-05-2.96535E-05-3.05917E-06 3.64044E-18 1.32103E-18
 -1      2441 9.06864E-05-2.14966E-05-2.96987E-05-1.91591E-06 3.33543E-18 1.48112E-19
 -1      2442 1.75648E-05-1.94208E-05 1.04637E-06-1.75909E-05-1.36097E-18 2.87991E-19
 -1      2443 2.52239E-05-2.23749E-05-1.00812E-06-3.10121E-05-2.13368E-18 4.58795E-18
 -1      2444 9.28102E-05-2.38207E-05-2.95457E-05-4.73822E-06 1.27560E-18-1.08370E-18
 -1      2445 9.20521E-05-2.30262E-05-2.96255E-05-4.10001E-06 2.27413E-18 1.86916E-19
 -1      2446 9.11809E-05-2.28580E-05-2.92709E-05-4.36418E-06 2.52616E-18 1.27739E-19
 -1      2447 9.43869E-05-2.57243E-05-2.94033E-05-5.21170E-06 2.65987E-19 9.94893E-19
 -1      2448 9.36609E-05-2.48746E-05-2.95086E-05-5.10469E-06 4.99756E-19 8.25192E-19
 -1      2449 9.31802E-05-2.49780E-05-2.92363E-05-5.81592E-06 9.10438E-19-1.02102E-18
 -1      2450 9.56097E-05-2.73484E-05-2.92352E-05-4.68797E-06 1.35462E-19-8.61591E-20
 -1      2451 9.50673E-05-2.66054E-05-2.93516E-05-4.99666E-06 1.23385E-19 1.17754E-18
 -1      2452 9.50235E-05-2.69684E-05-2.91828E-05-5.92080E-06 1.00130E-18 3.22124E-19
 -1      2453 9.63177E-05-2.84768E-05-2.90618E-05-3.57853E-06 1.63417E-18-2.45068E-18
 -1      2454 9.60171E-05-2.79366E-05-2.91724E-05-4.11128E-06 4.70799E-19-1.91197E-18
 -1      2455 9.63226E-05-2.84684E-05-2.90992E-05-5.03262E-06 1.89077E-18-7.63066E-19
 -1      2456 9.65467E-05-2.91145E-05-2.88945E-05-2.24672E-06 2.42087E-18-1.39767E-18
 -1      2457 9.64655E-05-2.87836E-05-2.89915E-05-2.84708E-06 2.15093E-18-3.22201E-18
 -1      2458 9.69730E-05-2.93741E-05-2.89880E-05-3.61798E-06 1.71367E-18-2.41930E-18
 -1      2459 9.63898E-05-2.93065E-05-2.87511E-05-1.05433E-06 1.55302E-18 1.82950E-18
 -1      2460 9.64685E-05-2.91663E-05-2.88256E-05-1.55933E-06 1.56318E-18 1.26103E-18
 -1      2461 9.70345E-05-2.97275E-05-2.88602E-05-2.09145E-06 2.30451E-18-6.79487E-19
 -1      2462 9.59989E-05-2.91808E-05-2.86370E-05-1.79377E-07 2.50199E-19-1.89570E-18
 -1      2463 9.61864E-05-2.92009E-05-2.86898E-05-5.12606E-07 1.26604E-18-5.09219E-19
 -1      2464 9.67238E-05-2.96689E-05-2.87347E-05-8.17994E-07 1.45717E-18 4.46813E-19
 -1      2465 9.54653E-05-2.88351E-05-2.85625E-05 1.65150E-07 8.26510E-19 3.16743E-19
 -1      2466 8.90936E-05-4.97110E-05-1.69315E-05 3.83566E-05-1.12613E-18-1.69502E-18
 -1      2467 7.05318E-05-4.17379E-05-1.18953E-05 3.73464E-05-4.16317E-19-8.52645E-19
 -1      2468 6.51210E-05-3.28811E-05-1.33886E-05 3.56038E-05-9.76205E-20-1.23413E-18
 -1      2469 3.91512E-05-2.99046E-05-3.66187E-06-4.01184E-05-1.44927E-18 5.42419E-18
 -1      2470 5.51600E-05-3.56592E-05-8.40077E-06-4.84847E-05-9.94628E-19 5.18554E-18
 -1      2471 9.42354E-05-2.74273E-05-2.86293E-05 4.82591E-07 9.92635E-19-8.58087E-19
 -1      2472 9.44917E-05-2.72081E-05-2.88026E-05 1.10984E-06 1.06987E-18-7.11312E-19
 -1      2473 9.47459E-05-2.73996E-05-2.88758E-05 5.01292E-07 8.48368E-19-8.09474E-19
 -1      2474 9.02157E-05-2.07679E-05-2.97915E-05 2.87244E-06 4.13487E-19 1.47293E-18
 -1      2475 9.06773E-05-2.12371E-05-2.97783E-05 4.15192E-06-7.88121E-20 1.38165E-18
 -1      2476 1.51332E-04-1.52746E-05-5.87918E-05 4.25518E-06-3.07282E-18 1.14985E-18
 -1      2477 1.51064E-04-9.73531E-06-6.11476E-05 3.00582E-06-3.97851E-18 1.30459E-18
 -1      2478 1.18511E-04-5.55172E-05-2.71705E-05 4.19907E-05-2.56439E-19 1.65404E-18
 -1      2479 9.83608E-05-5.21709E-05-1.95848E-05 4.63741E-05 2.85238E-19 5.83765E-19
 -1      2480 9.13664E-05-2.18182E-05-2.98477E-05 5.45791E-06 8.40627E-19 2.33651E-18
 -1      2481 9.23751E-05-2.27946E-05-2.98181E-05 6.19521E-06 9.37924E-19 1.00134E-18
 -1      2482 9.24065E-05-2.28119E-05-2.97739E-05 7.43676E-06 5.64183E-19 2.95197E-18
 -1      2483 9.01659E-05-2.10884E-05-2.95689E-05 5.33158E-06 1.08949E-18 6.04853E-19
 -1      2484 9.02126E-05-2.08623E-05-2.97302E-05-3.30979E-07 2.59165E-18 1.87417E-18
 -1      2485 9.00928E-05-2.07790E-05-2.97407E-05 1.09254E-06 1.98576E-18 1.95702E-18
 -1      2486 8.91936E-05-2.04780E-05-2.94090E-05 2.03262E-06 1.30541E-18 3.60762E-18
 -1      2487 8.96350E-05-2.11648E-05-2.93157E-05-1.58083E-06 2.72017E-18 2.03010E-18
 -1      2488 9.95783E-05-2.76303E-05-3.07026E-05 2.67407E-05-1.44236E-18-1.63747E-18
 -1      2489 1.03598E-04-3.18703E-05-3.05934E-05 2.77384E-05-3.38469E-19-2.10805E-18
 -1      2490 8.88677E-05-2.26853E-05-2.82990E-05 2.63793E-05-1.08598E-18-2.00585E-18
 -1      2491 1.08418E-04-3.77367E-05-2.98434E-05 2.93497E-05 6.85726E-19-3.00035E-18
 -1      2492 1.16181E-04-4.63580E-05-2.97041E-05 2.71587E-05 2.57180E-19-2.84603E-18
 -1      2493 1.06738E-04-4.85459E-05-2.49393E-05 3.28137E-05-2.69251E-19-2.34427E-18
 -1      2494 9.19451E-05-3.05373E-05-2.62864E-05 3.15463E-05-2.83333E-19-2.58964E-18
 -1      2495 8.78270E-05-1.07826E-05-3.30547E-05-1.53893E-06-6.04734E-19-3.01433E-18
 -1      2496 8.79345E-05-1.09064E-05-3.30461E-05-2.65657E-06-8.53941E-19-2.97178E-18
 -1      2497 8.93334E-05-1.30781E-05-3.26830E-05-2.94771E-06-9.00076E-19-2.70094E-18
 -1      2498 8.90804E-05-1.27389E-05-3.27211E-05-9.59817E-07-5.12673E-19-2.90595E-18
 -1      2499 9.46546E-05-2.69350E-05-2.90195E-05 1.80850E-06 1.35356E-18-7.89678E-19
 -1      2500 9.51130E-05-2.65916E-05-2.93269E-05 2.88881E-06 1.60327E-18-5.38783E-19
 -1      2501 9.52870E-05-2.56664E-05-2.98314E-05 3.77618E-06 1.73782E-18-8.38386E-19
 -1      2502 9.50250E-05-2.67299E-05-2.92795E-05 1.86862E-06 1.29076E-18-8.34683E-19
 -1      2503 1.55653E-04-1.60347E-05-6.01199E-05-3.02104E-06-2.82613E-18 3.36378E-19
 -1      2504 1.50625E-04-2.17877E-05-5.58396E-05-4.14187E-06-1.67501E-18 5.70477E-19
 -1      2505 9.86948E-05-5.47548E-05-1.87154E-05-3.46205E-05 1.13164E-18 9.56247E-19
 -1      2506 1.23876E-04-6.32706E-05-2.62257E-05-2.80179E-05 5.34690E-19 1.26515E-18
 -1      2507 1.31495E-04-6.26141E-05-2.93576E-05-2.19774E-05 1.57972E-19 1.89321E-18
 -1      2508 5.74836E-05-3.48732E-05-9.36645E-06-3.46679E-05 1.00543E-18-3.60624E-19
 -1      2509 7.87323E-05-4.52020E-05-1.42031E-05-3.90887E-05 1.49713E-18 4.15046E-19
 -1      2510 2.17577E-05-1.77107E-05-1.32609E-06-1.00507E-05-8.73556E-19-5.25838E-18
 -1      2511 3.54139E-05-2.27318E-05-5.05100E-06-2.49691E-05 2.85874E-19-2.58514E-18
 -1      2512 1.78345E-05-1.83564E-05 4.48375E-07 2.03555E-05 6.69580E-19-6.50394E-18
 -1      2513 1.52345E-05-1.59356E-05 5.66753E-07 5.45097E-06 8.31217E-20-6.82582E-18
 -1      2514 3.71863E-05-2.78645E-05-3.90938E-06 4.16943E-05 1.41984E-18-4.73491E-18
 -1      2515 2.51885E-05-2.32382E-05-5.85613E-07 3.07961E-05 1.57167E-18-5.78862E-18
 -1      2516 2.73136E-05-1.62565E-05-4.23730E-06 2.55547E-05 1.85373E-18-5.57792E-18
 -1      2517 7.49236E-05-4.33262E-05-1.36068E-05 5.16310E-05 8.72656E-19-9.03572E-19
 -1      2518 5.71450E-05-3.71858E-05-8.26842E-06 4.74629E-05 1.23773E-18-2.47874E-18
 -1      2519 1.43964E-04-5.39429E-05-3.88819E-05 2.23286E-05-2.40875E-19-7.41154E-21
 -1      2520 1.33226E-04-5.64866E-05-3.28448E-05 2.91861E-05 2.22664E-19 5.39772E-19
 -1      2521 1.24265E-04-5.81574E-05-2.82615E-05-3.52305E-05-1.54965E-18 7.65824E-19
 -1      2522 1.37746E-04-5.70297E-05-3.46158E-05-2.91584E-05-1.40724E-18 1.64240E-18
 -1      2523 1.50459E-04-7.72127E-06-6.18078E-05-5.40151E-07-4.08693E-18 1.21281E-18
 -1      2524 1.53302E-04-1.08532E-05-6.15009E-05-2.19314E-06-3.87518E-18 4.47551E-19
 -1      2525 1.41552E-04-1.03508E-05-5.65110E-05-6.14727E-06-3.41481E-18 7.27178E-19
 -1      2526 1.52951E-04-3.42668E-05-5.12193E-05 8.81341E-07-7.03779E-19 1.14095E-18
 -1      2527 1.52910E-04-2.64608E-05-5.49039E-05 3.91870E-06-1.26462E-18 6.97532E-19
 -1      2528 1.44966E-04-5.16806E-05-4.02495E-05-1.72487E-05-9.91029E-19 1.17886E-18
 -1      2529 1.53619E-04-4.41911E-05-4.73404E-05-8.05776E-06-6.00705E-19 1.16763E-18
 -1      2530 1.48025E-04-4.06769E-05-4.58651E-05 2.99448E-06-4.28016E-19 6.12193E-19
 -1      2531 1.43632E-04-5.65877E-05-3.71472E-05-1.42958E-05-1.18706E-18 3.99164E-19
 -1      2532 8.01881E-05-4.65715E-05-1.40398E-05-4.87188E-05-4.57398E-19 1.58226E-18
 -1      2533 1.02922E-04-5.37008E-05-2.11791E-05-4.65513E-05-8.91502E-19 6.62406E-19
 -1      2534 1.58366E-04-7.14627E-05-3.71721E-05 6.20888E-06-1.35165E-18-3.00400E-18
 -1      2535 9.50803E-05-2.00218E-05-3.22164E-05-1.17841E-05-2.42831E-18 2.27243E-19
 -1      2536 9.54747E-05-2.33554E-05-3.09307E-05-7.98073E-06-2.24567E-18 3.33243E-19
 -1      2537 9.50550E-05-2.25571E-05-3.10565E-05-7.63535E-06-2.16119E-18-2.93934E-19
 -1      2538 9.32460E-05-1.77072E-05-3.24011E-05-1.13171E-05-2.44571E-18-5.67221E-19
 -1      2539 1.35744E-04-6.65386E-05-3.00051E-05 2.27210E-05-1.11702E-18-3.64849E-18
 -1      2540 9.07929E-05-1.50409E-05-3.24611E-05-6.81756E-06-1.65137E-18-2.30500E-18
 -1      2541 8.97012E-05-1.31761E-05-3.28485E-05-7.97947E-06-1.78611E-18-2.39487E-18
 -1      2542 9.03598E-05-1.39584E-05-3.28041E-05-9.15225E-06-2.05699E-18-2.03251E-18
 -1      2543 1.42749E-04-1.97502E-05-5.29522E-05 9.07253E-06-1.74235E-18 1.58406E-18
 -1      2544 2.33088E-05-1.30063E-05-3.84205E-06-1.03739E-05-1.35314E-19 7.26754E-19
 -1      2545 1.03036E-04-4.50010E-05-2.45308E-05-3.18125E-05-4.64174E-19 1.91705E-18
 -1      2546 8.18444E-05-3.48312E-05-1.96648E-05-3.52821E-05-2.92650E-19 9.07808E-19
 -1      2547 3.56633E-05-1.72132E-05-7.28839E-06 1.91677E-05-1.50348E-19-9.46559E-20
 -1      2548 1.21188E-04-5.33186E-05-2.84903E-05-2.74264E-05-8.06375E-19 2.46060E-18
 -1      2549 9.36123E-05-4.76862E-05-1.94013E-05-3.54398E-05 3.54060E-19 6.58145E-19
 -1      2550 7.39946E-05-4.07531E-05-1.37252E-05-4.78851E-05-9.15007E-19 1.92912E-18
 -1      2551 3.77066E-05-2.25480E-05-5.97093E-06-3.56456E-05-1.10993E-18 3.73774E-18
 -1      2552 9.55895E-05-2.89689E-05-2.85504E-05 3.23260E-07 5.60103E-19 1.24870E-18
 -1      2553 9.58238E-05-2.90817E-05-2.85934E-05 1.15520E-07 3.27167E-19-5.09191E-19
 -1      2554 9.61776E-05-2.94130E-05-2.86242E-05 3.25884E-08-3.91038E-19-3.23356E-19
 -1      2555 9.56319E-05-2.90922E-05-2.85334E-05 4.71243E-07-6.70699E-19 8.80544E-19
 -1      2556 1.11232E-04-5.98280E-05-2.17604E-05 3.28321E-05-1.58099E-18-2.82189E-18
 -1      2557 9.92369E-05-5.10591E-05-2.04193E-05 3.56496E-05-4.24152E-19-1.90720E-18
 -1      2558 1.41511E-04-2.15015E-05-5.19954E-05-9.93579E-06-1.61826E-18-1.05879E-21
 -1      2559 1.50077E-04-2.85067E-05-5.24450E-05-5.38663E-06-9.42112E-19 1.12655E-19
 -1      2560 1.45628E-04-3.34691E-05-4.82343E-05-5.46237E-06-1.66018E-19 1.01856E-19
 -1      2561 9.11396E-05-1.50047E-05-3.26825E-05-9.83371E-06-2.15027E-18-1.68966E-18
 -1      2562 9.21667E-05-1.62778E-05-3.26017E-05-1.08639E-05-2.37787E-18-1.10216E-18
 -1      2563 9.36441E-05-1.92065E-05-3.18973E-05-9.20816E-06-2.30221E-18-8.63904E-19
 -1      2564 9.20653E-05-1.68152E-05-3.22410E-05-8.31857E-06-1.93638E-18-1.71719E-18
 -1      2565 1.39609E-04-6.79275E-06-5.72003E-05 2.00809E-06-4.25952E-18 2.12862E-18
 -1      2566 9.34252E-05-4.92209E-05-1.85374E-05 4.71807E-05 1.44123E-18 4.54221E-20
 -1      2567 1.46898E-04-5.18433E-05-4.09761E-05 8.62036E-06 2.34456E-20-1.44419E-19
 -1      2568 5.25433E-05-3.01603E-05-9.07740E-06 4.47640E-05 2.15528E-18-3.38241E-18
 -1      2569 2.53485E-05-1.23927E-05-4.93555E-06-2.74526E-06-5.62059E-19-4.89204E-18
 -1      2570 1.17401E-04-5.78987E-05-2.52456E-05-3.87711E-05-8.31045E-19 1.07547E-18
 -1      2571 1.27221E-04-5.99524E-05-2.90088E-05-2.89062E-05-4.24681E-19-3.51651E-19
 -1      2572 1.08589E-04-5.42769E-05-2.29190E-05-4.08205E-05-4.42998E-19 1.30803E-18
 -1      2573 5.00652E-05-2.59532E-05-9.79737E-06-3.04609E-05 1.09055E-19-1.63943E-18
 -1      2574 6.53654E-05-2.85156E-05-1.53604E-05-3.27612E-05-2.55380E-19-1.16721E-18
 -1      2575 4.52692E-05-1.69493E-05-1.15595E-05-2.49309E-05-4.31881E-19-3.01163E-18
 -1      2576 1.28742E-04-5.88633E-05-2.97196E-05 3.13701E-05 1.00289E-18 1.13968E-18
 -1      2577 9.61274E-05-2.94419E-05-2.85706E-05 4.99224E-07-8.18049E-19-6.04169E-19
 -1      2578 9.05314E-05-1.51377E-05-3.23336E-05 3.18008E-06 4.74102E-19-2.64118E-18
 -1      2579 9.03436E-05-1.48705E-05-3.23657E-05 2.24555E-06 1.94735E-19-2.67933E-18
 -1      2580 9.02117E-05-1.46713E-05-3.23942E-05 1.40608E-06 5.97361E-20-2.70018E-18
 -1      2581 9.01490E-05-1.45823E-05-3.24049E-05 4.49080E-07-1.81512E-19-2.67691E-18
 -1      2582 9.13965E-05-1.65643E-05-3.20581E-05 1.62912E-06 1.58286E-19-2.53258E-18
 -1      2583 9.20983E-05-1.74920E-05-3.20140E-05 6.45796E-06 1.46275E-18-2.33207E-18
 -1      2584 9.15693E-05-1.67002E-05-3.21116E-05 5.63034E-06 1.27729E-18-2.32630E-18
 -1      2585 9.34715E-05-1.96396E-05-3.16808E-05 7.62621E-06 1.91826E-18-1.71310E-18
 -1      2586 9.27349E-05-1.84531E-05-3.18506E-05 7.03426E-06 1.62657E-18-2.03613E-18
 -1      2587 9.34289E-05-1.98156E-05-3.15198E-05 5.77414E-06 1.43450E-18-1.95373E-18
 -1      2588 9.49963E-05-2.26050E-05-3.10534E-05 7.20079E-06 2.16195E-18-1.06989E-18
 -1      2589 9.40759E-05-2.07290E-05-3.14251E-05 7.54406E-06 2.03441E-18-1.45372E-18
 -1      2590 9.44045E-05-2.18666E-05-3.10793E-05 6.03161E-06 1.82141E-18-1.49111E-18
 -1      2591 9.51338E-05-2.39853E-05-3.04942E-05 5.39210E-06 2.00369E-18-1.07939E-18
 -1      2592 9.52497E-05-2.39860E-05-3.05208E-05-5.31047E-06-1.69726E-18-5.70548E-19
 -1      2593 9.51700E-05-2.50028E-05-3.00919E-05-3.81021E-06-1.47276E-18-5.21935E-19
 -1      2594 9.11433E-05-1.60421E-05-3.22136E-05 4.90698E-06 1.04478E-18-2.44023E-18
 -1      2595 9.08039E-05-1.55502E-05-3.22732E-05 3.98276E-06 6.97893E-19-2.53906E-18
 -1      2596 9.17849E-05-1.71635E-05-3.19650E-05 3.18958E-06 5.45363E-19-2.38239E-18
 -1      2597 9.24507E-05-1.82117E-05-3.17945E-05 4.62179E-06 1.07262E-18-2.17536E-18
 -1      2598 9.53660E-05-2.59005E-05-2.97406E-05-2.70901E-06-1.32023E-18-5.26426E-19
 -1      2599 9.51977E-05-2.64884E-05-2.94588E-05-1.72660E-06-1.11914E-18-5.85411E-19
 -1      2600 9.52068E-05-2.46869E-05-3.02225E-05-3.54492E-06-1.44149E-18-8.89510E-19
 -1      2601 9.52201E-05-2.70031E-05-2.92125E-05-9.84019E-07-1.00668E-18-5.93235E-19
 -1      2602 9.50853E-05-2.73576E-05-2.90324E-05-3.77834E-07-9.96237E-19-6.80847E-19
 -1      2603 9.54173E-05-2.63257E-05-2.96166E-05-1.62469E-06-1.23625E-18-9.70846E-19
 -1      2604 9.50519E-05-2.76636E-05-2.88647E-05 9.00008E-08-1.00188E-18-6.97953E-19
 -1      2605 9.49739E-05-2.78880E-05-2.87540E-05 4.41952E-07-9.21422E-19-8.37910E-19
 -1      2606 9.54173E-05-2.73218E-05-2.91912E-05-3.43580E-07-1.11681E-18-1.11596E-18
 -1      2607 9.49316E-05-2.80732E-05-2.86433E-05 7.12359E-07-7.80811E-19-7.70724E-19
 -1      2608 9.49032E-05-2.82199E-05-2.85796E-05 8.96562E-07-8.14092E-19-8.39400E-19
 -1      2609 9.53560E-05-2.79365E-05-2.89008E-05 4.48188E-07-9.31924E-19-9.90031E-19
 -1      2610 9.48680E-05-2.83316E-05-2.85095E-05 1.03175E-06-8.43481E-19-8.38262E-19
 -1      2611 9.48751E-05-2.84284E-05-2.84771E-05 1.10774E-06-7.86127E-19-9.28146E-19
 -1      2612 9.52912E-05-2.83170E-05-2.87087E-05 8.92087E-07-9.07356E-19-1.15971E-18
 -1      2613 9.48505E-05-2.84934E-05-2.84355E-05 1.15428E-06-6.69047E-19-7.17683E-19
 -1      2614 9.48797E-05-2.85566E-05-2.84236E-05 1.16295E-06-5.03611E-19-6.54868E-19
 -1      2615 9.52415E-05-2.85481E-05-2.85869E-05 1.09998E-06-6.67738E-19-9.58385E-19
 -1      2616 9.48646E-05-2.85909E-05-2.84017E-05 1.15456E-06-4.14974E-19-7.49312E-19
 -1      2617 9.49058E-05-2.86305E-05-2.84027E-05 1.12407E-06-6.07988E-19-4.89490E-19
 -1      2618 9.52092E-05-2.86813E-05-2.85148E-05 1.15525E-06-4.55144E-19-2.28311E-19
 -1      2619 9.48980E-05-2.86446E-05-2.83942E-05 1.08465E-06-8.01027E-19-2.13991E-19
 -1      2620 9.49442E-05-2.86675E-05-2.84032E-05 1.03431E-06-7.94451E-19-9.14227E-20
 -1      2621 9.51915E-05-2.87492E-05-2.84773E-05 1.11813E-06-4.49870E-19-2.07133E-19
 -1      2622 9.49414E-05-2.86681E-05-2.84035E-05 9.80580E-07-9.15433E-19 5.61295E-20
 -1      2623 9.49883E-05-2.86790E-05-2.84171E-05 9.23525E-07-5.19362E-19-2.20088E-19
 -1      2624 9.51844E-05-2.87733E-05-2.84633E-05 1.03125E-06-8.27834E-19 9.62861E-20
 -1      2625 9.49889E-05-2.86709E-05-2.84231E-05 8.66948E-07-1.42258E-19-4.26477E-19
 -1      2626 9.50340E-05-2.86734E-05-2.84391E-05 8.12019E-07 6.67005E-20-4.71913E-19
 -1      2627 9.51846E-05-2.87682E-05-2.84651E-05 9.24332E-07-5.53530E-19-2.76592E-19
 -1      2628 9.50370E-05-2.86595E-05-2.84488E-05 7.60330E-07-9.18410E-20-7.66885E-19
 -1      2629 9.50795E-05-2.86562E-05-2.84659E-05 7.13354E-07-2.73056E-19-8.99748E-19
 -1      2630 9.51894E-05-2.87440E-05-2.84772E-05 8.17685E-07-1.72191E-19-5.31371E-19
 -1      2631 9.50840E-05-2.86391E-05-2.84778E-05 6.71665E-07-1.01181E-19-8.53076E-19
 -1      2632 9.51242E-05-2.86321E-05-2.84953E-05 6.36349E-07-1.39666E-19-6.82154E-19
 -1      2633 9.51975E-05-2.87077E-05-2.84960E-05 7.24988E-07-9.50703E-20-1.06792E-18
 -1      2634 9.51303E-05-2.86133E-05-2.85086E-05 6.07912E-07-5.92486E-19-5.88443E-19
 -1      2635 9.51691E-05-2.86045E-05-2.85264E-05 5.86414E-07-7.36479E-19-7.11946E-19
 -1      2636 9.52082E-05-2.86645E-05-2.85191E-05 6.55204E-07-3.53014E-19-1.20707E-18
 -1      2637 9.51772E-05-2.85856E-05-2.85405E-05 5.73095E-07-6.48654E-19-8.92751E-19
 -1      2638 9.52162E-05-2.85770E-05-2.85583E-05 5.66314E-07-3.74198E-19-1.23109E-18
 -1      2639 9.52221E-05-2.86185E-05-2.85447E-05 6.13875E-07-7.22421E-19-9.50556E-19
 -1      2640 9.52275E-05-2.85599E-05-2.85729E-05 5.68804E-07-1.81600E-19-1.03057E-18
 -1      2641 9.52691E-05-2.85538E-05-2.85908E-05 5.76399E-07-8.87310E-20-1.01228E-18
 -1      2642 9.52410E-05-2.85740E-05-2.85719E-05 6.03880E-07-2.72350E-19-1.16420E-18
 -1      2643 9.52856E-05-2.85412E-05-2.86056E-05 5.94141E-07 1.64531E-19-8.51506E-19
 -1      2644 9.53324E-05-2.85408E-05-2.86236E-05 6.14267E-07 2.72146E-19-6.60058E-19
 -1      2645 9.52682E-05-2.85362E-05-2.85999E-05 6.25606E-07 2.48944E-19-8.20384E-19
 -1      2646 9.53576E-05-2.85365E-05-2.86381E-05 6.45091E-07 6.19389E-20-6.89311E-19
 -1      2647 9.54129E-05-2.85462E-05-2.86560E-05 6.73847E-07 1.16922E-19-9.28806E-19
 -1      2648 9.53091E-05-2.85128E-05-2.86277E-05 6.76560E-07 1.92633E-19-4.72748E-19
 -1      2649 9.54519E-05-2.85559E-05-2.86697E-05 7.13291E-07 4.83320E-19-7.87401E-19
 -1      2650 9.55196E-05-2.85817E-05-2.86868E-05 7.43887E-07 8.88127E-19-4.13245E-19
 -1      2651 9.53724E-05-2.85147E-05-2.86543E-05 7.50360E-07 3.28589E-19-6.51830E-19
 -1      2652 9.55797E-05-2.86135E-05-2.86991E-05 7.84187E-07 8.23247E-19-8.03885E-19
 -1      2653 9.56642E-05-2.86633E-05-2.87145E-05 8.05874E-07 4.39014E-19-1.25460E-18
 -1      2654 9.54705E-05-2.85577E-05-2.86784E-05 8.35089E-07 5.51301E-19-9.21652E-19
 -1      2655 9.57556E-05-2.87276E-05-2.87244E-05 8.34666E-07 2.67754E-20-1.26444E-18
 -1      2656 9.58612E-05-2.88109E-05-2.87368E-05 8.31589E-07-3.91309E-19-1.22940E-18
 -1      2657 9.56209E-05-2.86631E-05-2.86984E-05 9.11005E-07 1.04538E-19-1.91781E-18
 -1      2658 9.59965E-05-2.89203E-05-2.87435E-05 8.30440E-07-6.52832E-19-1.18589E-18
 -1      2659 9.61270E-05-2.90468E-05-2.87513E-05 7.80729E-07-6.55457E-19-1.33971E-18
 -1      2660 9.58465E-05-2.88574E-05-2.87127E-05 9.47754E-07-5.36386E-19-1.28336E-18
 -1      2661 9.63204E-05-2.92144E-05-2.87543E-05 7.23865E-07-8.61783E-19-1.06976E-18
 -1      2662 9.64767E-05-2.93916E-05-2.87559E-05 5.99577E-07-1.05187E-18-1.29754E-18
 -1      2663 9.61745E-05-2.91701E-05-2.87204E-05 9.01507E-07-7.80393E-19-8.14104E-19
 -1      2664 9.67413E-05-2.96266E-05-2.87558E-05 4.53506E-07-6.34198E-19-9.00328E-19
 -1      2665 9.69188E-05-2.98547E-05-2.87500E-05 2.22406E-07-9.83766E-21-1.10198E-18
 -1      2666 9.66325E-05-2.96270E-05-2.87220E-05 7.12980E-07-6.46961E-19-1.35456E-21
 -1      2667 9.72605E-05-3.01562E-05-2.87491E-05-5.22558E-08 2.95364E-19-7.53331E-19
 -1      2668 9.74440E-05-3.04204E-05-2.87364E-05-4.21641E-07 3.06087E-19-2.35688E-19
 -1      2669 9.72407E-05-3.02382E-05-2.87215E-05 3.08250E-07 3.58668E-19-1.40946E-19
 -1      2670 9.78524E-05-3.07666E-05-2.87397E-05-8.64003E-07 3.42850E-19 1.33917E-19
 -1      2671 9.80107E-05-3.10278E-05-2.87226E-05-1.39232E-06 7.89205E-19 6.12438E-19
 -1      2672 9.79961E-05-3.09785E-05-2.87279E-05-3.94308E-07 4.96611E-19 7.28626E-19
 -1      2673 9.84464E-05-3.13645E-05-2.87386E-05-2.02785E-06 5.80414E-19 8.65374E-19
 -1      2674 9.85283E-05-3.15508E-05-2.87225E-05-2.70869E-06-7.70419E-20 9.70906E-19
 -1      2675 9.88503E-05-3.17609E-05-2.87566E-05-1.46572E-06 5.94914E-19 1.74413E-18
 -1      2676 9.89114E-05-3.17825E-05-2.87626E-05-3.52608E-06-4.93469E-19 1.63741E-18
 -1      2677 9.88470E-05-3.17893E-05-2.87557E-05-4.30429E-06 2.26229E-19 1.85422E-18
 -1      2678 9.96853E-05-3.24123E-05-2.88306E-05-2.93070E-06 1.16971E-19 1.78944E-18
 -1      2679 9.90569E-05-3.17849E-05-2.88320E-05-5.22334E-06 6.99855E-19 1.62980E-18
 -1      2680 9.87739E-05-3.14956E-05-2.88432E-05-5.97436E-06 1.06350E-18 1.55587E-18
 -1      2681 1.00298E-04-3.26671E-05-2.89763E-05-4.71080E-06 3.06444E-19 1.89551E-18
 -1      2682 9.86751E-05-3.11229E-05-2.89638E-05-6.81618E-06 5.54541E-19 1.96983E-18
 -1      2683 9.81331E-05-3.04591E-05-2.89990E-05-7.34157E-06-8.33750E-20 1.94965E-18
 -1      2684 1.00425E-04-3.22128E-05-2.92166E-05-6.55549E-06 1.06863E-18 2.05242E-18
 -1      2685 9.76414E-05-2.96578E-05-2.91606E-05-7.82914E-06-1.86719E-19 1.59059E-18
 -1      2686 9.68787E-05-2.86529E-05-2.92178E-05-7.89128E-06-2.44868E-19 1.12180E-18
 -1      2687 9.98340E-05-3.08163E-05-2.95562E-05-7.99976E-06-5.06931E-19 1.97919E-18
 -1      2688 9.60517E-05-2.75248E-05-2.93992E-05-7.71878E-06-3.14298E-19 1.92655E-18
 -1      2689 9.52171E-05-2.63819E-05-2.94653E-05-7.13000E-06-4.29650E-19 1.95377E-18
 -1      2690 9.84858E-05-2.85208E-05-2.99664E-05-8.42126E-06-1.68221E-19 1.14923E-18
 -1      2691 9.43085E-05-2.52342E-05-2.96273E-05-6.11390E-06-7.26447E-19 1.56926E-18
 -1      2692 9.36383E-05-2.43009E-05-2.96800E-05-4.85850E-06-2.08175E-19 1.54847E-18
 -1      2693 9.66943E-05-2.58103E-05-3.03764E-05-7.26672E-06-7.25221E-19 1.49665E-18
 -1      2694 9.30250E-05-2.35573E-05-2.97763E-05-3.10417E-06 2.61470E-19 7.05776E-19
 -1      2695 9.27465E-05-2.31805E-05-2.97935E-05-1.41468E-06 9.38666E-19-2.72100E-19
 -1      2696 9.51146E-05-2.35567E-05-3.06856E-05-4.41076E-06-4.16243E-19-1.83923E-19
 -1      2697 9.27210E-05-2.31596E-05-2.97916E-05 6.46399E-07 1.11234E-18-6.90208E-19
 -1      2698 9.29338E-05-2.34932E-05-2.97636E-05 2.34726E-06 5.71205E-19-9.00207E-19
 -1      2699 9.44492E-05-2.26456E-05-3.08003E-05-4.12721E-07 4.96627E-19-1.47912E-18
 -1      2700 9.35082E-05-2.42074E-05-2.96632E-05 4.12949E-06 1.58869E-19-1.27639E-18
 -1      2701 9.41235E-05-2.51144E-05-2.95989E-05 5.41056E-06-1.88177E-20-1.18938E-18
 -1      2702 9.50210E-05-2.34728E-05-3.06817E-05 3.61769E-06 1.42145E-19-1.92656E-18
 -1      2703 9.50158E-05-2.62563E-05-2.94313E-05 6.46308E-06 6.92442E-19-1.46424E-18
 -1      2704 9.58082E-05-2.73919E-05-2.93526E-05 7.07760E-06 1.12679E-18-9.56703E-19
 -1      2705 9.65451E-05-2.56853E-05-3.03663E-05 6.54568E-06 3.84539E-19-2.35025E-18
 -1      2706 9.66341E-05-2.85310E-05-2.91638E-05 7.27525E-06 1.51436E-18-9.32125E-19
 -1      2707 9.73609E-05-2.95367E-05-2.90938E-05 7.22893E-06 6.70099E-19-1.03916E-19
 -1      2708 9.83214E-05-2.84042E-05-2.99461E-05 7.76693E-06 1.27608E-18-4.24825E-18
 -1      2709 9.78504E-05-3.03483E-05-2.89246E-05 6.74812E-06-3.46794E-19 1.52369E-19
 -1      2710 9.83532E-05-3.10050E-05-2.88778E-05 6.22889E-06-4.26562E-19 5.06934E-20
 -1      2711 9.96688E-05-3.07285E-05-2.95230E-05 7.37762E-06 8.15278E-19-3.40240E-18
 -1      2712 9.84325E-05-3.13692E-05-2.87512E-05 5.38276E-06-5.34937E-19 7.99827E-19
 -1      2713 9.86656E-05-3.16305E-05-2.87309E-05 4.63881E-06 5.10812E-19 7.47984E-19
 -1      2714 1.00240E-04-3.21299E-05-2.91718E-05 5.93177E-06-4.84240E-20-8.91084E-19
 -1      2715 9.84107E-05-3.15977E-05-2.86518E-05 3.72117E-06 6.02563E-19 4.29030E-19
 -1      2716 9.84122E-05-3.15370E-05-2.86528E-05 2.96579E-06 1.97435E-19 2.41127E-19
 -1      2717 1.00049E-04-3.25344E-05-2.89253E-05 4.07861E-06 3.78748E-19-7.45658E-19
 -1      2718 9.79557E-05-3.12375E-05-2.86130E-05 2.17778E-06-2.89015E-19 3.17622E-19
 -1      2719 9.78009E-05-3.09792E-05-2.86262E-05 1.55293E-06-6.09211E-19-5.08468E-19
 -1      2720 9.93164E-05-3.21573E-05-2.87801E-05 2.32113E-06-4.24628E-19-4.72014E-19
 -1      2721 9.72787E-05-3.05534E-05-2.86129E-05 9.79579E-07-1.52015E-18-2.44116E-19
 -1      2722 9.70312E-05-3.02059E-05-2.86277E-05 5.53550E-07-1.91527E-18-1.16440E-18
 -1      2723 9.83247E-05-3.13403E-05-2.87115E-05 9.58295E-07-1.54351E-18-8.99236E-19
 -1      2724 8.85174E-05-3.82949E-05-2.08240E-05 3.54490E-05 3.33519E-19-2.44517E-18
 -1      2725 9.49060E-05-2.82075E-05-2.85861E-05-8.79209E-07 3.44258E-19-9.93202E-19
 -1      2726 9.49364E-05-2.80576E-05-2.86518E-05-6.88462E-07 5.11218E-19-1.03313E-18
 -1      2727 9.60624E-05-2.83348E-05-2.89948E-05-6.61690E-06 1.34204E-18 1.04689E-18
 -1      2728 9.50823E-05-2.74387E-05-2.90113E-05-6.90389E-06 4.78449E-19 4.45090E-21
 -1      2729 9.49787E-05-2.78676E-05-2.87649E-05-4.10002E-07 6.45487E-19-1.08929E-18
 -1      2730 9.50596E-05-2.76387E-05-2.88786E-05-4.75819E-08 7.12959E-19-8.93771E-19
 -1      2731 9.53595E-05-2.79131E-05-2.89124E-05-4.17110E-07 6.14000E-19-1.06699E-18
 -1      2732 8.81648E-05-2.00142E-05-2.92829E-05 1.34755E-05-3.65948E-19-4.94631E-19
 -1      2733 8.71873E-05-1.91762E-05-2.91248E-05 1.53618E-05-3.48362E-19-1.21537E-18
 -1      2734 9.48803E-05-2.85534E-05-2.84252E-05-1.16054E-06 4.39376E-19-7.66748E-19
 -1      2735 9.48516E-05-2.84886E-05-2.84379E-05-1.14964E-06 4.24344E-19-5.02276E-19
 -1      2736 9.49062E-05-2.86301E-05-2.84031E-05-1.12428E-06 6.14319E-19-7.31484E-19
 -1      2737 9.48654E-05-2.85895E-05-2.84025E-05-1.15399E-06 6.41724E-19-7.88156E-19
 -1      2738 9.52127E-05-2.86788E-05-2.85175E-05-1.15305E-06 6.21194E-19-5.68115E-19
 -1      2739 9.49431E-05-2.86680E-05-2.84025E-05-1.04056E-06 4.17230E-19-3.32238E-19
 -1      2740 9.48987E-05-2.86449E-05-2.83943E-05-1.08810E-06 4.19797E-19-4.46460E-19
 -1      2741 9.51962E-05-2.87498E-05-2.84792E-05-1.12083E-06 4.01756E-19-2.24620E-19
 -1      2742 9.49889E-05-2.86826E-05-2.84158E-05-9.30271E-07 1.78057E-19-1.11713E-19
 -1      2743 9.49414E-05-2.86706E-05-2.84024E-05-9.87537E-07 3.46604E-19-4.49703E-19
 -1      2744 9.51901E-05-2.87764E-05-2.84644E-05-1.03805E-06 4.13754E-19-8.52629E-20
 -1      2745 9.50368E-05-2.86784E-05-2.84381E-05-8.18017E-07-1.47910E-20-3.45865E-19
 -1      2746 9.49905E-05-2.86753E-05-2.84218E-05-8.73459E-07 1.85263E-19-2.25948E-19
 -1      2747 9.51918E-05-2.87743E-05-2.84657E-05-9.31832E-07 1.59799E-19-3.01990E-19
 -1      2748 9.50850E-05-2.86607E-05-2.84662E-05-7.19023E-07-2.39744E-19-1.95404E-19
 -1      2749 9.50409E-05-2.86645E-05-2.84483E-05-7.66025E-07-5.73094E-21-6.18007E-20
 -1      2750 9.51987E-05-2.87509E-05-2.84783E-05-8.25112E-07-1.15282E-19-4.09343E-19
 -1      2751 9.51325E-05-2.86326E-05-2.84985E-05-6.44248E-07-5.27508E-19-1.65549E-19
 -1      2752 9.50905E-05-2.86420E-05-2.84793E-05-6.77867E-07-3.92977E-19-2.05725E-19
 -1      2753 9.52087E-05-2.87125E-05-2.84989E-05-7.33190E-07-2.99077E-19 1.27628E-19
 -1      2754 9.51794E-05-2.85949E-05-2.85345E-05-6.02470E-07-3.84373E-19-2.63688E-19
 -1      2755 9.51386E-05-2.86094E-05-2.85140E-05-6.18547E-07-4.68801E-19 1.05361E-19
 -1      2756 9.52203E-05-2.86617E-05-2.85255E-05-6.67337E-07-5.71678E-19 5.86288E-20
 -1      2757 9.52260E-05-2.85465E-05-2.85749E-05-6.01931E-07-1.61685E-20-2.88048E-19
 -1      2758 9.51852E-05-2.85665E-05-2.85524E-05-5.96293E-07-1.55299E-20-7.61814E-20
 -1      2759 9.52317E-05-2.85987E-05-2.85573E-05-6.36707E-07-2.16265E-19-9.86782E-20
 -1      2760 9.52722E-05-2.84837E-05-2.86212E-05-6.51827E-07 4.25418E-20-3.13855E-19
 -1      2761 9.52298E-05-2.85109E-05-2.85956E-05-6.19511E-07 4.90305E-20-3.48422E-19
 -1      2762 9.52405E-05-2.85208E-05-2.85944E-05-6.49899E-07 1.76419E-19 6.84337E-21
 -1      2763 9.53165E-05-2.83998E-05-2.86754E-05-7.63830E-07 2.28570E-19-1.61731E-19
 -1      2764 9.52714E-05-2.84374E-05-2.86452E-05-6.98253E-07 1.72085E-19-1.87330E-19
 -1      2765 9.52427E-05-2.84217E-05-2.86376E-05-7.16358E-07 1.23136E-20 3.20644E-19
 -1      2766 9.53544E-05-2.82838E-05-2.87405E-05-9.53726E-07 6.41555E-19-4.30748E-19
 -1      2767 9.53064E-05-2.83370E-05-2.87038E-05-8.45738E-07 4.49588E-19-1.04630E-19
 -1      2768 9.52312E-05-2.82909E-05-2.86884E-05-8.47698E-07 5.51465E-19 3.30915E-19
 -1      2769 9.53762E-05-2.81179E-05-2.88198E-05-1.24328E-06 4.96777E-19-4.13410E-19
 -1      2770 9.53269E-05-2.81952E-05-2.87744E-05-1.08002E-06 6.35281E-19-5.49854E-19
 -1      2771 9.51936E-05-2.81120E-05-2.87483E-05-1.05897E-06 7.82979E-19-1.50783E-20
 -1      2772 9.53630E-05-2.78753E-05-2.89166E-05-1.66232E-06 2.84049E-19-1.59841E-19
 -1      2773 9.53175E-05-2.79896E-05-2.88600E-05-1.42586E-06 5.73891E-19-1.43725E-19
 -1      2774 9.51086E-05-2.78597E-05-2.88189E-05-1.36986E-06 2.93480E-19 5.19377E-19
 -1      2775 9.52800E-05-2.75157E-05-2.90336E-05-2.25104E-06 6.05054E-19-3.52797E-19
 -1      2776 9.52499E-05-2.76865E-05-2.89634E-05-1.91686E-06 5.94941E-19-7.25460E-20
 -1      2777 9.49406E-05-2.74965E-05-2.89004E-05-1.80566E-06 2.91890E-19 1.77227E-19
 -1      2778 9.50653E-05-2.69797E-05-2.91700E-05-3.06169E-06 3.41370E-19-3.51983E-19
 -1      2779 9.50752E-05-2.72354E-05-2.90854E-05-2.59714E-06 4.45225E-19-3.44794E-19
 -1      2780 9.46317E-05-2.69686E-05-2.89907E-05-2.39751E-06 5.12174E-19 2.09961E-19
 -1      2781 9.46549E-05-2.62348E-05-2.93123E-05-4.09491E-06 4.61962E-19 3.57988E-19
 -1      2782 9.47297E-05-2.65901E-05-2.92195E-05-3.49898E-06 4.89056E-19 6.90958E-20
 -1      2783 9.41071E-05-2.62207E-05-2.90794E-05-3.15710E-06 2.14326E-19 3.26228E-19
 -1      2784 9.38606E-05-2.51050E-05-2.94546E-05-5.53113E-06 1.82860E-19 4.52539E-19
 -1      2785 9.40768E-05-2.56439E-05-2.93532E-05-4.69122E-06 5.11240E-19 2.76902E-19
 -1      2786 9.32266E-05-2.51528E-05-2.91514E-05-4.13904E-06 4.68412E-19-2.58287E-20
 -1      2787 9.24688E-05-2.35119E-05-2.95422E-05-7.39756E-06-5.49532E-19 6.55332E-19
 -1      2788 9.29160E-05-2.42635E-05-2.94591E-05-6.29526E-06-6.46993E-19 5.49161E-19
 -1      2789 9.17524E-05-2.36043E-05-2.91683E-05-5.40172E-06-1.93377E-19-6.47468E-19
 -1      2790 9.01873E-05-2.13925E-05-2.94762E-05-9.75895E-06-8.59136E-19 5.54219E-19
 -1      2791 9.09850E-05-2.23661E-05-2.94613E-05-8.35582E-06-2.62261E-19 1.04209E-18
 -1      2792 8.94071E-05-2.14836E-05-2.90500E-05-6.94553E-06-5.76140E-19 2.95689E-19
 -1      2793 8.66923E-05-1.88563E-05-2.90648E-05-1.26694E-05-2.02768E-19 6.79557E-19
 -1      2794 8.79446E-05-1.99463E-05-2.92175E-05-1.09439E-05-5.54292E-19 7.10325E-19
 -1      2795 8.58050E-05-1.87397E-05-2.86502E-05-8.77791E-06-5.81475E-19-3.35375E-19
 -1      2796 8.17944E-05-1.64829E-05-2.79562E-05-1.62479E-05-3.67291E-19 1.05705E-18
 -1      2797 8.34559E-05-1.72821E-05-2.84570E-05-1.41705E-05-8.33442E-20 9.71560E-19
 -1      2798 8.04838E-05-1.55183E-05-2.76993E-05-1.09540E-05-2.57145E-19-3.99561E-20
 -1      2799 7.58714E-05-1.58858E-05-2.56052E-05-2.09144E-05-8.86069E-19 3.92547E-20
 -1      2800 7.73613E-05-1.52904E-05-2.66899E-05-1.82951E-05-3.30641E-19 2.87065E-19
 -1      2801 7.30387E-05-1.24591E-05-2.57064E-05-1.37463E-05-4.89443E-20-3.84970E-19
 -1      2802 4.70686E-05-1.60565E-05-1.29660E-05 2.49005E-05-6.37498E-19 1.16298E-18
 -1      2803 3.50494E-05-9.73427E-06-9.97173E-06 1.08606E-05-4.11446E-19-8.87267E-20
 -1      2804 7.17975E-05-2.52385E-05-1.94785E-05-3.17728E-05-5.41889E-19-2.06994E-19
 -1      2805 9.07887E-05-1.55284E-05-3.22760E-05-3.94775E-06-1.13094E-18-2.53735E-18
 -1      2806 9.11257E-05-1.60162E-05-3.22172E-05-4.87183E-06-1.35862E-18-2.43299E-18
 -1      2807 9.10246E-05-2.19973E-05-2.96247E-05 1.04946E-05 1.95539E-18 3.52089E-19
 -1      2808 9.04323E-05-2.12987E-05-2.96134E-05 1.20736E-05 6.10205E-19-6.99282E-20
 -1      2809 8.60019E-05-1.85887E-05-2.88024E-05 1.12656E-05 2.25883E-19-1.56673E-18
 -1      2810 8.39761E-05-1.78189E-05-2.84397E-05 1.71395E-05-1.67547E-19-1.30139E-18
 -1      2811 8.28217E-05-1.74698E-05-2.79395E-05 1.93232E-05-4.06695E-19-1.34502E-18
 -1      2812 8.06453E-05-1.57287E-05-2.76749E-05 1.39261E-05-9.34102E-20-2.02214E-18
 -1      2813 9.17410E-05-2.25348E-05-2.96690E-05 8.19089E-06 1.02403E-18 2.83279E-18
 -1      2814 9.18801E-05-2.24437E-05-2.97176E-05 9.55827E-06 2.03356E-18 1.21013E-18
 -1      2815 8.88839E-05-2.04819E-05-2.92843E-05 9.11735E-06 4.12806E-19-5.34901E-19
 -1      2816 9.03260E-05-2.14738E-05-2.95441E-05 7.44144E-06 1.01158E-18 2.68166E-18
 -1      2817 9.38349E-05-2.61785E-05-2.89551E-05-7.05041E-06 1.13738E-18-1.32947E-18
 -1      2818 9.25744E-05-2.51091E-05-2.89556E-05-6.70935E-06 1.81293E-18-2.64756E-18
 -1      2819 9.46863E-05-2.76602E-05-2.87515E-05-7.95797E-06 8.87363E-19-1.36231E-18
 -1      2820 1.34727E-04-2.33514E-05-4.82307E-05 1.14308E-05-1.04789E-18 1.98206E-18
 -1      2821 1.32082E-04-1.40139E-05-5.13850E-05 9.70234E-06-2.52924E-18 2.16608E-18
 -1      2822 9.11130E-05-2.35924E-05-2.88977E-05-5.98546E-06 8.21387E-19-2.52732E-18
 -1      2823 8.98897E-05-2.25836E-05-2.88983E-05-4.89005E-06 2.28057E-18 5.19810E-19
 -1      2824 9.15209E-05-2.48246E-05-2.85958E-05-7.47247E-06 1.04294E-18-2.01917E-18
 -1      2825 9.74208E-05-2.97388E-05-2.89883E-05-5.24333E-06 2.32485E-18-1.08990E-18
 -1      2826 9.68582E-05-2.91381E-05-2.90244E-05-5.90334E-06 1.77298E-18 8.39556E-19
 -1      2827 9.70561E-05-2.97467E-05-2.88736E-05-6.96153E-06 2.07433E-18 1.02297E-18
 -1      2828 9.79255E-05-3.04099E-05-2.89303E-05-3.45226E-06 2.14599E-18-2.99142E-18
 -1      2829 9.77548E-05-3.00982E-05-2.89838E-05-4.26453E-06 2.31903E-18-2.89523E-18
 -1      2830 9.83527E-05-3.09103E-05-2.89257E-05-5.13669E-06 1.97304E-18-2.16023E-18
 -1      2831 9.77231E-05-3.04790E-05-2.88307E-05-1.71524E-06 1.81882E-18-5.40138E-19
 -1      2832 9.78745E-05-3.04045E-05-2.88937E-05-2.49017E-06 2.62977E-18-2.46175E-18
 -1      2833 9.86347E-05-3.12363E-05-2.89000E-05-3.08756E-06 2.32540E-18-2.28474E-18
 -1      2834 1.05949E-04-5.35038E-05-2.26199E-05 4.33947E-05 1.91334E-18 1.06952E-18
 -1      2835 8.57958E-05-4.39926E-05-1.73493E-05 4.65676E-05 2.14913E-18 5.57665E-19
 -1      2836 9.50891E-05-2.73197E-05-2.90497E-05 4.30769E-07 7.63232E-19-7.67090E-19
 -1      2837 9.52177E-05-2.69581E-05-2.92354E-05 1.05861E-06 9.28727E-19-7.53718E-19
 -1      2838 9.54186E-05-2.72838E-05-2.92086E-05 3.92647E-07 9.23660E-19-1.00249E-18
 -1      2839 9.64939E-05-2.96903E-05-2.86269E-05 1.65390E-07-1.27158E-19-7.65104E-19
 -1      2840 9.67413E-05-2.98454E-05-2.86760E-05-1.71339E-07 2.65139E-19-1.52956E-18
 -1      2841 9.66646E-05-2.99125E-05-2.86221E-05 3.48028E-07-7.54986E-19-1.01911E-18
 -1      2842 7.86146E-05-1.65834E-05-2.65675E-05 2.17889E-05-1.57236E-18-1.10090E-18
 -1      2843 7.79587E-05-1.83875E-05-2.54195E-05 2.44095E-05-1.60292E-18-1.58956E-18
 -1      2844 7.34321E-05-1.33730E-05-2.54566E-05 1.73932E-05-9.27395E-19-1.20672E-18
 -1      2845 2.71348E-05-8.36763E-06-7.42598E-06 6.36385E-06 3.84010E-19-5.24673E-18
 -1      2846 3.27833E-05-9.81319E-06-9.21471E-06-9.80335E-06-2.13426E-19-4.05581E-18
 -1      2847 6.53007E-05-3.26906E-05-1.32525E-05-4.44177E-05-1.27817E-18 2.53178E-18
 -1      2848 8.54859E-05-4.31245E-05-1.80403E-05-4.57061E-05-7.57777E-19-2.81744E-19
 -1      2849 9.48763E-05-2.84214E-05-2.84807E-05-1.09980E-06 2.60220E-19-7.19783E-19
 -1      2850 9.48705E-05-2.83223E-05-2.85144E-05-1.01977E-06 2.53710E-19-7.63016E-19
 -1      2851 9.52449E-05-2.85410E-05-2.85915E-05-1.09229E-06 3.33363E-19-4.97850E-19
 -1      2852 1.29200E-04-7.10388E-06-5.29259E-05 5.36887E-06-3.57871E-18 2.65762E-18
 -1      2853 1.29055E-04-5.60607E-06-5.35945E-05-7.58998E-07-4.07021E-18 2.67480E-18
 -1      2854 1.31894E-04-5.89093E-05-3.15736E-05 2.35916E-05 7.45336E-19 4.71797E-19
 -1      2855 1.21397E-04-5.80248E-05-2.67590E-05 3.41450E-05 1.38765E-18 6.52745E-19
 -1      2856 3.70255E-05-1.53025E-05-8.87200E-06 3.08645E-05 2.35729E-18-3.85167E-18
 -1      2857 3.02337E-05-9.95508E-06-8.02675E-06 1.89233E-05 1.26314E-18-4.33236E-18
 -1      2858 1.44583E-04-4.60047E-05-4.27553E-05-8.05853E-07-1.08844E-19-3.82435E-19
 -1      2859 1.39827E-04-5.35795E-05-3.70353E-05 7.99567E-06-1.92224E-19-3.77988E-19
 -1      2860 1.31719E-04-7.65197E-06-5.38970E-05-5.58892E-06-4.74466E-18 2.54369E-18
 -1      2861 1.34178E-04-1.27479E-05-5.27056E-05-9.00701E-06-3.56156E-18 1.56394E-18
 -1      2862 6.53634E-05-3.22567E-05-1.40872E-05 4.61226E-05 2.96800E-18-1.54351E-18
 -1      2863 4.88954E-05-2.28135E-05-1.05417E-05 3.89662E-05 2.93285E-18-3.18908E-18
 -1      2864 5.17053E-05-1.84641E-05-1.36128E-05 3.26902E-05 2.72734E-18-3.02497E-18
 -1      2865 3.58994E-05-1.61721E-05-7.78725E-06-2.89495E-05-6.08911E-19 4.12336E-18
 -1      2866 4.73671E-05-2.34345E-05-1.00270E-05-3.96904E-05-7.69318E-19 4.15491E-18
 -1      2867 2.66535E-05-8.87245E-06-7.17493E-06-3.41897E-06-2.53982E-19 1.48231E-19
 -1      2868 2.88803E-05-1.13901E-05-6.88219E-06-1.84384E-05-6.97955E-19 2.77573E-18
 -1      2869 3.89960E-05-1.26836E-05-1.06356E-05-2.27058E-05 1.40343E-19 3.99080E-18
 -1      2870 9.43427E-05-2.09671E-05-3.14707E-05-8.02796E-06-2.12233E-18-8.04226E-19
 -1      2871 9.48055E-05-2.27872E-05-3.08757E-05-6.32566E-06-1.93028E-18-6.82275E-19
 -1      2872 9.46130E-05-2.24270E-05-3.09346E-05-5.72699E-06-1.74451E-18-9.24781E-19
 -1      2873 9.35135E-05-1.95851E-05-3.16851E-05-7.84822E-06-1.97014E-18-1.22505E-18
 -1      2874 9.12684E-05-1.63678E-05-3.20882E-05 1.46030E-08-2.79739E-19-2.48728E-18
 -1      2875 9.01471E-05-1.45802E-05-3.24052E-05-3.99825E-07-4.19058E-19-2.73590E-18
 -1      2876 9.02060E-05-1.46630E-05-3.23952E-05-1.35709E-06-6.42192E-19-2.73247E-18
 -1      2877 9.53431E-05-2.49980E-05-3.01414E-05 4.22744E-06 1.65072E-18-9.85977E-19
 -1      2878 9.50825E-05-2.39726E-05-3.04607E-05 4.68873E-06 1.67623E-18-1.20883E-18
 -1      2879 9.52375E-05-2.56784E-05-2.98173E-05 3.08361E-06 1.44156E-18-9.53878E-19
 -1      2880 8.74547E-05-1.98570E-05-2.89765E-05 8.12760E-07 1.52969E-18 4.81752E-18
 -1      2881 8.75752E-05-1.98317E-05-2.90570E-05 2.81868E-06 3.70387E-19 4.21776E-18
 -1      2882 8.53757E-05-3.10754E-05-2.29972E-05 3.28784E-05-3.88947E-19-2.59891E-18
 -1      2883 7.54820E-05-3.14466E-05-1.85653E-05 3.53099E-05 1.02597E-19-2.32013E-18
 -1      2884 6.24814E-05-2.28933E-05-1.61071E-05 3.13437E-05-1.78989E-19-2.96991E-19
 -1      2885 8.08102E-05-2.32123E-05-2.42249E-05 2.97483E-05-1.10429E-18-1.39115E-18
 -1      2886 9.74253E-05-3.04583E-05-2.86855E-05 1.82184E-07-1.32056E-18-9.14932E-19
 -1      2887 9.52948E-05-2.83032E-05-2.87162E-05-8.75147E-07 2.57319E-19-7.98632E-19
 -1      2888 1.24047E-04-1.17175E-05-4.85316E-05 8.02102E-06-2.76059E-18 2.27172E-18
 -1      2889 9.70694E-05-2.99699E-05-2.87409E-05-6.97430E-07 7.95425E-19 4.44559E-19
 -1      2890 4.14610E-05-7.71691E-06-1.40044E-05-9.43045E-06 6.75032E-19-3.67803E-18
 -1      2891 4.22207E-05-1.17894E-05-1.22103E-05-1.71666E-05-2.23193E-19-3.66808E-18
 -1      2892 5.23349E-05-1.43425E-05-1.59266E-05-2.29910E-05-2.19276E-19-2.70458E-18
 -1      2893 1.23793E-04-7.63249E-06-5.02173E-05-3.11871E-06-4.61294E-18 3.04688E-18
 -1      2894 6.67840E-05-1.51439E-05-2.19503E-05-2.28398E-05-5.84612E-19-1.22444E-18
 -1      2895 5.98425E-05-1.02725E-05-2.07855E-05-1.62297E-05-1.27108E-19-2.26433E-18
 -1      2896 6.19717E-05-2.69548E-05-1.44539E-05-3.93457E-05-1.01919E-18 2.94704E-18
 -1      2897 6.61362E-05-1.93807E-05-1.96048E-05-2.61827E-05-1.70836E-19-1.48421E-18
 -1      2898 9.51735E-05-2.66103E-05-2.93867E-05 1.57458E-06 1.08776E-18-7.76353E-19
 -1      2899 9.53182E-05-2.61851E-05-2.96125E-05 2.38835E-06 1.30022E-18-8.42996E-19
 -1      2900 9.53321E-05-2.55903E-05-2.99045E-05 2.77850E-06 1.27557E-18-1.03201E-18
 -1      2901 9.54061E-05-2.64841E-05-2.95480E-05 1.46599E-06 1.11146E-18-8.46374E-19
 -1      2902 9.93378E-05-4.87454E-05-2.11942E-05-4.20916E-05-7.60318E-19 7.42424E-19
 -1      2903 1.09606E-04-5.23628E-05-2.46122E-05-3.48683E-05-1.38437E-19 4.53427E-19
 -1      2904 8.91783E-05-4.11703E-05-2.03398E-05-4.06301E-05-1.00919E-18 8.64556E-19
 -1      2905 8.86779E-05-2.12346E-05-2.88826E-05-3.21503E-06 2.66189E-18 2.65644E-18
 -1      2906 8.79481E-05-2.06008E-05-2.89092E-05-1.49612E-06 1.95097E-18 3.35241E-18
 -1      2907 8.63710E-05-1.97235E-05-2.85293E-05-8.75114E-07 1.34703E-18 3.52200E-18
 -1      2908 1.37557E-04-3.31172E-05-4.55835E-05 1.05120E-05 5.28390E-19 2.42643E-18
 -1      2909 1.30163E-04-2.65750E-05-4.45643E-05 1.29032E-05-1.00109E-19 1.84039E-18
 -1      2910 9.03335E-05-1.48564E-05-3.23675E-05-2.19342E-06-7.06879E-19-2.51883E-18
 -1      2911 9.05205E-05-1.51223E-05-3.23355E-05-3.14390E-06-1.01359E-18-2.43806E-18
 -1      2912 9.17707E-05-1.71440E-05-3.19678E-05-3.15655E-06-9.29215E-19-2.35385E-18
 -1      2913 9.13910E-05-1.65560E-05-3.20593E-05-1.59713E-06-6.69086E-19-2.49145E-18
 -1      2914 8.83949E-05-2.18740E-05-2.84880E-05-5.03427E-06 1.56498E-18 9.58689E-19
 -1      2915 8.08702E-05-3.76908E-05-1.79669E-05 4.28592E-05 3.31222E-18 1.65913E-19
 -1      2916 9.78221E-05-3.06861E-05-2.87758E-05-9.87343E-07 8.91711E-19-6.14638E-19
 -1      2917 1.13428E-04-5.45595E-05-2.50123E-05 3.59713E-05 1.99857E-18 1.83687E-19
 -1      2918 1.34563E-04-1.77883E-05-5.06099E-05-1.05505E-05-2.23447E-18 1.03529E-18
 -1      2919 1.33168E-04-2.24529E-05-4.77615E-05-1.19613E-05-1.51227E-18 1.28246E-18
 -1      2920 1.26556E-04-1.45174E-05-4.84063E-05-1.08388E-05-3.34896E-18 3.64759E-18
 -1      2921 1.40094E-04-3.92202E-05-4.36797E-05-7.06571E-06-5.04726E-19 7.15743E-20
 -1      2922 3.61365E-05-8.00037E-06-1.15774E-05 1.18788E-05 1.15594E-18-3.68883E-18
 -1      2923 5.97686E-05-1.69103E-05-1.79649E-05 2.54995E-05 5.08220E-21 3.46013E-19
 -1      2924 1.36997E-04-5.70695E-05-3.42683E-05 1.29114E-05 5.75678E-19-9.62071E-19
 -1      2925 1.30102E-04-5.67942E-05-3.14259E-05 1.75084E-05 9.92643E-19-7.48698E-19
 -1      2926 1.35572E-04-5.15969E-05-3.61971E-05 2.63233E-06-6.08011E-20-8.70750E-19
 -1      2927 3.83963E-05-8.19358E-06-1.23642E-05 3.75000E-06-8.65324E-19-1.41666E-19
 -1      2928 1.26678E-04-5.81242E-05-2.94046E-05-2.45067E-05 1.01644E-19-9.60032E-19
 -1      2929 1.34809E-04-5.96567E-05-3.22583E-05-1.91953E-05-5.53007E-19-1.32974E-18
 -1      2930 1.38303E-04-5.57772E-05-3.55511E-05-1.08989E-05-1.13529E-19-1.01146E-18
 -1      2931 1.42803E-04-5.06728E-05-4.00612E-05-1.54204E-06 2.69251E-19-4.31987E-20
 -1      2932 1.36764E-04-5.45863E-05-3.52526E-05-6.20952E-06 4.60343E-19-1.22968E-18
 -1      2933 9.24242E-05-1.81750E-05-3.17996E-05-4.59171E-06-1.32879E-18-2.15768E-18
 -1      2934 9.15558E-05-1.66672E-05-3.21164E-05-5.59875E-06-1.50072E-18-2.33114E-18
 -1      2935 9.20763E-05-1.74434E-05-3.20173E-05-6.41937E-06-1.63343E-18-2.11922E-18
 -1      2936 8.82543E-05-2.01183E-05-2.92292E-05 4.62117E-06 2.04246E-19 8.36967E-19
 -1      2937 8.90909E-05-2.06618E-05-2.93409E-05 6.02244E-06 1.98173E-19 9.69492E-19
 -1      2938 8.82801E-05-2.01810E-05-2.91854E-05 6.78316E-06-1.72931E-19 7.85737E-19
 -1      2939 8.64768E-05-1.92238E-05-2.87921E-05 3.55171E-06-7.05835E-19 2.73993E-18
 -1      2940 1.40559E-04-4.21295E-05-4.24969E-05 5.02211E-06 3.17108E-19 1.24641E-18
 -1      2941 6.94122E-05-1.68741E-05-2.23980E-05 2.54851E-05-1.09349E-18-1.10850E-18
 -1      2942 9.49055E-05-2.32415E-05-3.07184E-05 4.93536E-06 1.60841E-18-1.40602E-18
 -1      2943 9.44093E-05-2.21587E-05-3.09745E-05 5.13540E-06 1.53053E-18-1.59968E-18
 -1      2944 9.51152E-05-2.42154E-05-3.03707E-05 3.80664E-06 1.37645E-18-1.32118E-18
 -1      2945 9.39692E-05-2.12467E-05-3.11664E-05 4.78854E-06 1.28649E-18-1.76573E-18
 -1      2946 1.25587E-04-2.91161E-05-4.14843E-05 1.25275E-05 7.58094E-20 7.44489E-19
 -1      2947 1.22721E-04-2.19991E-05-4.37009E-05 1.24973E-05-9.31895E-19 2.71606E-19
 -1      2948 9.56630E-05-2.79663E-05-2.90176E-05-4.52216E-07 4.34151E-19-7.72652E-19
 -1      2949 9.57002E-05-2.76736E-05-2.91427E-05-1.26788E-07 6.91605E-19-7.77389E-19
 -1      2950 9.54987E-05-2.55586E-05-2.99581E-05-2.14572E-06-1.27400E-18-1.20367E-18
 -1      2951 9.55348E-05-2.62600E-05-2.97017E-05-1.33567E-06-1.21608E-18-1.29895E-18
 -1      2952 9.56799E-05-2.68730E-05-2.94741E-05-7.46122E-07-1.10754E-18-1.11807E-18
 -1      2953 9.56552E-05-2.73208E-05-2.92944E-05-2.19498E-07-9.96788E-19-1.15941E-18
 -1      2954 9.57051E-05-2.61932E-05-2.97919E-05-1.17417E-06-1.04971E-18-1.31160E-18
 -1      2955 9.56989E-05-2.77060E-05-2.91285E-05 1.62632E-07-9.57968E-19-9.67547E-19
 -1      2956 9.56615E-05-2.79920E-05-2.90058E-05 4.79601E-07-9.35765E-19-1.09486E-18
 -1      2957 9.58937E-05-2.73218E-05-2.93910E-05-1.63108E-07-9.00363E-19-1.06403E-18
 -1      2958 9.56535E-05-2.82299E-05-2.88879E-05 7.03296E-07-8.34061E-19-9.87133E-19
 -1      2959 9.56211E-05-2.84102E-05-2.88069E-05 8.73315E-07-7.34724E-19-9.59049E-19
 -1      2960 9.59342E-05-2.80453E-05-2.90988E-05 4.75874E-07-7.86144E-19-7.00878E-19
 -1      2961 9.55886E-05-2.85510E-05-2.87252E-05 9.84552E-07-5.71064E-19-8.46062E-19
 -1      2962 9.55655E-05-2.86606E-05-2.86742E-05 1.05618E-06-4.82500E-19-6.78995E-19
 -1      2963 9.58996E-05-2.84950E-05-2.88911E-05 8.37751E-07-5.21355E-19-5.74857E-19
 -1      2964 9.55232E-05-2.87368E-05-2.86197E-05 1.09218E-06-3.94104E-19-4.45406E-19
 -1      2965 9.55088E-05-2.87984E-05-2.85899E-05 1.10131E-06-2.99508E-19-4.36861E-19
 -1      2966 9.58304E-05-2.87596E-05-2.87476E-05 1.00583E-06-3.10402E-19-6.17820E-19
 -1      2967 9.54643E-05-2.88317E-05-2.85553E-05 1.09041E-06-2.65771E-19-1.92372E-19
 -1      2968 9.54567E-05-2.88607E-05-2.85403E-05 1.06292E-06-1.64209E-19 2.75821E-20
 -1      2969 9.57482E-05-2.88990E-05-2.86521E-05 1.04658E-06-1.00272E-19-5.42681E-19
 -1      2970 9.54138E-05-2.88656E-05-2.85201E-05 1.02591E-06-5.21400E-19 2.76506E-19
 -1      2971 9.54109E-05-2.88725E-05-2.85153E-05 9.80091E-07-7.47721E-19 3.06777E-19
 -1      2972 9.56645E-05-2.89542E-05-2.85920E-05 1.01017E-06-2.90014E-19 1.74596E-19
 -1      2973 9.53715E-05-2.88591E-05-2.85055E-05 9.31777E-07-9.74812E-19 5.85462E-19
 -1      2974 9.53718E-05-2.88513E-05-2.85075E-05 8.80326E-07-5.49389E-19 1.91899E-19
 -1      2975 9.55848E-05-2.89536E-05-2.85578E-05 9.33172E-07-6.63947E-19 6.25530E-19
 -1      2976 9.53364E-05-2.88263E-05-2.85049E-05 8.31043E-07-3.87380E-19-1.12255E-19
 -1      2977 9.53389E-05-2.88088E-05-2.85115E-05 7.82630E-07-3.05291E-19-2.81569E-19
 -1      2978 9.55119E-05-2.89166E-05-2.85420E-05 8.41517E-07-6.45419E-19 3.17296E-19
 -1      2979 9.53074E-05-2.87767E-05-2.85140E-05 7.39484E-07-3.91306E-19-4.86379E-19
 -1      2980 9.53115E-05-2.87532E-05-2.85235E-05 6.99927E-07-3.91367E-19-9.18798E-19
 -1      2981 9.54463E-05-2.88566E-05-2.85393E-05 7.53282E-07-4.96971E-19-6.38057E-19
 -1      2982 9.52837E-05-2.87172E-05-2.85295E-05 6.67729E-07-3.11422E-19-1.07563E-18
 -1      2983 9.52893E-05-2.86904E-05-2.85409E-05 6.40801E-07-5.07422E-19-1.12974E-18
 -1      2984 9.53879E-05-2.87826E-05-2.85458E-05 6.80912E-07-6.61076E-19-8.91808E-19
 -1      2985 9.52651E-05-2.86528E-05-2.85492E-05 6.22737E-07-6.36222E-19-1.26052E-18
 -1      2986 9.52728E-05-2.86251E-05-2.85618E-05 6.10696E-07-7.81592E-19-9.16060E-19
 -1      2987 9.53363E-05-2.87012E-05-2.85584E-05 6.32812E-07-4.39914E-19-1.31002E-18
 -1      2988 9.52523E-05-2.85883E-05-2.85714E-05 6.08778E-07-6.97740E-19-8.44704E-19
 -1      2989 9.52632E-05-2.85622E-05-2.85846E-05 6.12629E-07-2.14615E-19-1.01873E-18
 -1      2990 9.52918E-05-2.86179E-05-2.85749E-05 6.14538E-07-6.94290E-19-9.36995E-19
 -1      2991 9.52478E-05-2.85288E-05-2.85949E-05 6.27878E-07 3.33695E-19-6.53337E-19
 -1      2992 9.52641E-05-2.85079E-05-2.86082E-05 6.47353E-07 5.22042E-19-5.13375E-19
 -1      2993 9.52557E-05-2.85383E-05-2.85936E-05 6.29480E-07 9.14639E-20-7.03224E-19
 -1      2994 9.52563E-05-2.84821E-05-2.86184E-05 6.79711E-07 3.67192E-19-1.67755E-19
 -1      2995 9.52815E-05-2.84712E-05-2.86314E-05 7.12957E-07 3.34350E-19-2.76326E-19
 -1      2996 9.52320E-05-2.84702E-05-2.86128E-05 6.79017E-07 5.71333E-19-3.32165E-19
 -1      2997 9.52865E-05-2.84593E-05-2.86407E-05 7.60914E-07 6.41148E-20-4.26192E-19
 -1      2998 9.53257E-05-2.84658E-05-2.86527E-05 8.03881E-07 2.07983E-19-8.23638E-19
 -1      2999 9.52281E-05-2.84249E-05-2.86309E-05 7.62136E-07 2.27454E-19-5.12381E-19
 -1      3000 9.53517E-05-2.84771E-05-2.86603E-05 8.63742E-07 7.23430E-20-1.06053E-18
 -1      3001 9.54125E-05-2.85113E-05-2.86706E-05 9.09249E-07 2.90625E-19-1.49137E-18
 -1      3002 9.52573E-05-2.84195E-05-2.86462E-05 8.74429E-07-1.38422E-19-1.08055E-18
 -1      3003 9.54721E-05-2.85589E-05-2.86758E-05 9.73987E-07 4.55272E-19-1.50337E-18
 -1      3004 9.55649E-05-2.86342E-05-2.86835E-05 1.01047E-06 1.25230E-19-1.69336E-18
 -1      3005 9.53402E-05-2.84787E-05-2.86573E-05 1.00633E-06 2.86173E-19-1.29202E-18
 -1      3006 9.56760E-05-2.87354E-05-2.86859E-05 1.06808E-06 2.61928E-20-1.03661E-18
 -1      3007 9.58135E-05-2.88685E-05-2.86904E-05 1.07814E-06-8.48208E-20-4.82012E-19
 -1      3008 9.55070E-05-2.86358E-05-2.86628E-05 1.14042E-06 6.99109E-19-1.12875E-18
 -1      3009 9.59998E-05-2.90437E-05-2.86902E-05 1.10949E-06-4.95619E-19 1.97561E-19
 -1      3010 9.61965E-05-2.92519E-05-2.86915E-05 1.06847E-06-5.65688E-19 4.37159E-19
 -1      3011 9.57991E-05-2.89327E-05-2.86627E-05 1.24764E-06 1.68106E-19-2.26617E-19
 -1      3012 9.64857E-05-2.95220E-05-2.86903E-05 1.04483E-06-6.85364E-19 4.08808E-19
 -1      3013 9.67547E-05-2.98190E-05-2.86897E-05 9.20052E-07-5.72144E-19 6.17480E-19
 -1      3014 9.62680E-05-2.94156E-05-2.86592E-05 1.28247E-06-5.06726E-19 4.78444E-19
 -1      3015 9.71744E-05-3.01986E-05-2.86918E-05 8.00995E-07 9.16881E-20 5.24154E-19
 -1      3016 9.75215E-05-3.05857E-05-2.86927E-05 5.52777E-07 5.83914E-19 9.83801E-19
 -1      3017 9.69701E-05-3.01255E-05-2.86585E-05 1.17776E-06-2.76346E-19 4.92685E-19
 -1      3018 9.80899E-05-3.10719E-05-2.87060E-05 2.85917E-07 4.70559E-19 1.69536E-18
 -1      3019 9.85039E-05-3.15250E-05-2.87153E-05-1.27630E-07 7.60900E-19 1.92571E-18
 -1      3020 9.79534E-05-3.10788E-05-2.86738E-05 8.41011E-07 7.45708E-19 1.67012E-18
 -1      3021 9.92133E-05-3.20799E-05-2.87526E-05-6.01356E-07 6.91435E-19 2.55900E-18
 -1      3022 9.96533E-05-3.25317E-05-2.87812E-05-1.21245E-06 5.59188E-19 2.59728E-18
 -1      3023 9.92321E-05-3.22346E-05-2.87274E-05 1.56966E-07 8.32048E-19 2.63121E-18
 -1      3024 1.00447E-04-3.30624E-05-2.88605E-05-1.94249E-06-6.09273E-20 2.62051E-18
 -1      3025 1.00831E-04-3.33881E-05-2.89227E-05-2.75174E-06 1.31382E-19 3.03264E-18
 -1      3026 1.00747E-04-3.34515E-05-2.88525E-05-9.93834E-07 2.24569E-19 2.71631E-18
 -1      3027 1.01581E-04-3.37309E-05-2.90656E-05-3.74315E-06 2.26150E-19 3.36107E-18
 -1      3028 1.01786E-04-3.37482E-05-2.91768E-05-4.68531E-06 7.40479E-19 2.97848E-18
 -1      3029 1.02316E-04-3.44426E-05-2.90929E-05-2.68741E-06 3.56762E-19 4.26882E-18
 -1      3030 1.02285E-04-3.36803E-05-2.94025E-05-5.84153E-06 9.19497E-19 2.24494E-18
 -1      3031 1.02174E-04-3.31913E-05-2.95729E-05-6.74786E-06 4.09635E-19 2.33707E-18
 -1      3032 1.03605E-04-3.47638E-05-2.94939E-05-4.86248E-06 5.81508E-19 3.40721E-18
 -1      3033 1.02188E-04-3.24991E-05-2.98871E-05-7.81031E-06-2.34715E-19 2.08719E-18
 -1      3034 1.01677E-04-3.13909E-05-3.01127E-05-8.39464E-06-9.67991E-19 1.59566E-18
 -1      3035 1.04160E-04-3.38990E-05-3.00854E-05-7.18952E-06-2.42468E-19 1.98192E-18
 -1      3036 1.01070E-04-3.00143E-05-3.04931E-05-8.93574E-06-9.45726E-19 1.62799E-18
 -1      3037 1.00221E-04-2.84033E-05-3.07463E-05-8.85271E-06-4.63164E-19 1.54122E-18
 -1      3038 1.03582E-04-3.15074E-05-3.08523E-05-8.97371E-06-8.47739E-19 2.73178E-18
 -1      3039 9.91308E-05-2.66067E-05-3.11314E-05-8.41067E-06-9.75392E-19 8.11874E-19
 -1      3040 9.82039E-05-2.49289E-05-3.13591E-05-7.42011E-06-1.26266E-18 5.41717E-19
 -1      3041 1.01850E-04-2.78084E-05-3.17045E-05-9.25217E-06-1.00128E-18 1.98615E-18
 -1      3042 9.71182E-05-2.33416E-05-3.16548E-05-5.79615E-06-8.75372E-19-2.11320E-20
 -1      3043 9.64943E-05-2.22388E-05-3.17919E-05-3.97930E-06 6.02171E-20 2.81910E-19
 -1      3044 9.95998E-05-2.38443E-05-3.24683E-05-7.24407E-06-1.43184E-18 1.05856E-19
 -1      3045 9.60186E-05-2.15750E-05-3.19066E-05-1.51634E-06-8.83263E-20-9.92389E-19
 -1      3046 9.59926E-05-2.15438E-05-3.19068E-05 6.55010E-07-5.64534E-20-1.52560E-18
 -1      3047 9.79722E-05-2.11967E-05-3.29304E-05-3.02928E-06-7.79573E-19 2.45185E-19
 -1      3048 9.64291E-05-2.21480E-05-3.18012E-05 3.14453E-06 1.05138E-19-2.76886E-18
 -1      3049 9.70108E-05-2.32087E-05-3.16638E-05 4.99894E-06-7.18253E-19-3.17119E-18
 -1      3050 9.79292E-05-2.11216E-05-3.29423E-05 2.15207E-06-8.85752E-19-1.73076E-18
 -1      3051 9.80999E-05-2.47839E-05-3.13736E-05 6.67824E-06-2.64116E-19-2.42111E-18
 -1      3052 9.90091E-05-2.64566E-05-3.11434E-05 7.71183E-06 6.50948E-19-3.20526E-18
 -1      3053 9.95126E-05-2.36753E-05-3.24979E-05 6.46520E-06-4.82519E-20-2.49198E-18
 -1      3054 1.00135E-04-2.82817E-05-3.07597E-05 8.20090E-06 1.28689E-18-3.15452E-18
 -1      3055 1.00985E-04-2.99147E-05-3.05015E-05 8.30891E-06 1.15936E-18-3.54293E-18
 -1      3056 1.01803E-04-2.76616E-05-3.17447E-05 8.58288E-06 8.49194E-19-2.50678E-18
 -1      3057 1.01632E-04-3.13289E-05-3.01193E-05 7.78135E-06 1.27570E-18-3.91510E-18
 -1      3058 1.02141E-04-3.24580E-05-2.98879E-05 7.20174E-06 1.13826E-18-3.37730E-18
 -1      3059 1.03619E-04-3.14530E-05-3.08943E-05 8.36779E-06 1.56785E-18-2.42576E-18
 -1      3060 1.02152E-04-3.31722E-05-2.95720E-05 6.12222E-06 7.35579E-19-3.02558E-18
 -1      3061 1.02245E-04-3.36549E-05-2.93978E-05 5.20658E-06 7.23061E-19-2.56841E-18
 -1      3062 1.04265E-04-3.39108E-05-3.01247E-05 6.57759E-06 1.84747E-18-3.52281E-18
 -1      3063 1.01731E-04-3.37018E-05-2.91746E-05 4.02250E-06 3.40194E-19-2.15787E-18
 -1      3064 1.01480E-04-3.36374E-05-2.90633E-05 3.07746E-06 2.40937E-20-2.39293E-18
 -1      3065 1.03724E-04-3.47821E-05-2.95359E-05 4.19440E-06 6.40265E-19-3.83272E-18
 -1      3066 1.00680E-04-3.32320E-05-2.89273E-05 2.07315E-06-3.89054E-19-1.92099E-18
 -1      3067 1.00218E-04-3.28140E-05-2.88684E-05 1.28326E-06-7.10403E-19-1.84996E-18
 -1      3068 1.02368E-04-3.43623E-05-2.91466E-05 1.97362E-06 6.56462E-20-3.37226E-18
 -1      3069 9.93227E-05-3.21608E-05-2.87996E-05 5.78670E-07-1.49667E-18-1.61499E-18
 -1      3070 9.87229E-05-3.15913E-05-2.87751E-05 3.97965E-08-1.55268E-18-1.96993E-18
 -1      3071 1.00666E-04-3.31646E-05-2.89282E-05 2.88215E-07-8.77902E-19-4.14747E-18
 -1      3072 9.97033E-05-3.22274E-05-2.89076E-05-4.82716E-06 1.56307E-18-2.62105E-18
 -1      3073 9.93152E-05-3.18788E-05-2.88914E-05-5.88785E-06 1.01281E-18-2.59117E-19
 -1      3074 4.24915E-05-5.92295E-06-1.47696E-05-1.61740E-06 5.92169E-19-4.17894E-18
 -1      3075 4.84096E-05-7.45192E-06-1.72896E-05-8.32081E-06 4.11757E-19-3.04350E-18
 -1      3076 5.80746E-05-8.38036E-06-2.12684E-05-9.39493E-06-9.91029E-20-2.41876E-18
 -1      3077 4.21232E-05-6.89239E-06-1.48504E-05 1.10125E-05 8.86847E-19-3.31073E-18
 -1      3078 9.55147E-05-2.87961E-05-2.85933E-05-1.09963E-06 4.41003E-19-2.08462E-19
 -1      3079 9.55293E-05-2.87327E-05-2.86239E-05-1.08855E-06 3.95021E-19-3.92759E-19
 -1      3080 9.53848E-05-2.88593E-05-2.85095E-05-8.88642E-07 2.78396E-20 1.87095E-19
 -1      3081 9.53835E-05-2.88660E-05-2.85076E-05-9.39773E-07 2.76791E-19 1.33897E-19
 -1      3082 9.53536E-05-2.88170E-05-2.85142E-05-7.91372E-07-2.77119E-19 1.84098E-19
 -1      3083 9.53500E-05-2.88347E-05-2.85072E-05-8.39486E-07-1.24058E-19 2.70774E-20
 -1      3084 9.55293E-05-2.89259E-05-2.85455E-05-8.50831E-07 9.37319E-20 1.81078E-19
 -1      3085 9.53274E-05-2.87576E-05-2.85283E-05-7.10092E-07-4.49334E-19 5.07131E-19
 -1      3086 9.53224E-05-2.87835E-05-2.85176E-05-7.48437E-07-2.29948E-19 4.57051E-19
 -1      3087 9.54647E-05-2.88647E-05-2.85438E-05-7.63466E-07-3.35213E-19 2.01170E-20
 -1      3088 9.53038E-05-2.86839E-05-2.85497E-05-6.55524E-07-4.86695E-19 1.66857E-20
 -1      3089 9.52984E-05-2.87170E-05-2.85360E-05-6.78940E-07-5.22136E-19 2.64410E-19
 -1      3090 9.54054E-05-2.87840E-05-2.85527E-05-6.92835E-07-3.42915E-19 1.20434E-19
 -1      3091 9.52799E-05-2.85954E-05-2.85773E-05-6.36425E-07-1.23200E-19 5.11469E-21
 -1      3092 9.52750E-05-2.86361E-05-2.85610E-05-6.40497E-07-3.89619E-19-9.72765E-20
 -1      3093 9.53482E-05-2.86861E-05-2.85699E-05-6.49192E-07-2.70662E-19-4.59127E-19
 -1      3094 9.52510E-05-2.84879E-05-2.86108E-05-6.60875E-07 3.54828E-20 4.14951E-19
 -1      3095 9.52481E-05-2.85385E-05-2.85916E-05-6.41238E-07 1.55213E-19 1.71320E-19
 -1      3096 9.52881E-05-2.85695E-05-2.85938E-05-6.40746E-07-5.64297E-20 3.50952E-19
 -1      3097 9.52094E-05-2.83535E-05-2.86505E-05-7.37468E-07-2.07022E-19 6.54384E-19
 -1      3098 9.52114E-05-2.84180E-05-2.86279E-05-6.89154E-07-2.10307E-19 5.84916E-19
 -1      3099 9.52176E-05-2.84282E-05-2.86237E-05-6.74735E-07-3.05255E-19 6.92926E-19
 -1      3100 9.51432E-05-2.81787E-05-2.86969E-05-8.76247E-07 5.35281E-19 6.64604E-19
 -1      3101 9.51550E-05-2.82640E-05-2.86704E-05-7.93137E-07 2.55398E-19 4.62925E-19
 -1      3102 9.51250E-05-2.82516E-05-2.86591E-05-7.58315E-07 1.27042E-19 6.30291E-19
 -1      3103 9.50332E-05-2.79432E-05-2.87505E-05-1.08936E-06 6.49241E-19 7.37705E-19
 -1      3104 9.50630E-05-2.80597E-05-2.87195E-05-9.63704E-07 8.14126E-19 8.03897E-19
 -1      3105 9.49928E-05-2.80228E-05-2.86996E-05-8.98919E-07 4.90469E-19 8.89575E-19
 -1      3106 9.48481E-05-2.76170E-05-2.88111E-05-1.39132E-06 2.81495E-19 5.87797E-19
 -1      3107 9.49102E-05-2.77801E-05-2.87753E-05-1.21341E-06 6.19700E-19 6.90570E-19
 -1      3108 9.47940E-05-2.77165E-05-2.87441E-05-1.10410E-06 5.42764E-19 8.51248E-19
 -1      3109 9.45390E-05-2.71565E-05-2.88764E-05-1.79859E-06 5.42954E-19 2.03764E-19
 -1      3110 9.46567E-05-2.73886E-05-2.88365E-05-1.55671E-06 4.80609E-19 8.90026E-20
 -1      3111 9.44874E-05-2.72967E-05-2.87902E-05-1.38049E-06 9.19037E-19 3.18716E-19
 -1      3112 9.40270E-05-2.64996E-05-2.89401E-05-2.32734E-06 1.49771E-19 2.12996E-19
 -1      3113 9.42399E-05-2.68326E-05-2.88990E-05-2.00871E-06 2.69947E-19-2.12849E-20
 -1      3114 9.40106E-05-2.67132E-05-2.88322E-05-1.73134E-06 4.47332E-19-3.59897E-20
 -1      3115 9.32489E-05-2.56192E-05-2.89868E-05-2.95329E-06 1.45399E-19 5.29350E-19
 -1      3116 9.35881E-05-2.60669E-05-2.89523E-05-2.56898E-06 3.62015E-19 5.22552E-19
 -1      3117 9.32934E-05-2.59203E-05-2.88584E-05-2.13945E-06 4.14807E-20 1.73808E-19
 -1      3118 9.19581E-05-2.43227E-05-2.89939E-05-3.74375E-06 9.01719E-19-1.48210E-19
 -1      3119 9.25505E-05-2.49844E-05-2.89772E-05-3.24412E-06 6.61094E-19 3.68946E-19
 -1      3120 9.21957E-05-2.48243E-05-2.88496E-05-2.59870E-06 4.83051E-19 8.94571E-20
 -1      3121 8.99317E-05-2.25254E-05-2.89046E-05-4.64709E-06-3.41983E-19-3.86456E-19
 -1      3122 9.08918E-05-2.34417E-05-2.89361E-05-4.05287E-06 4.48739E-19 1.72591E-20
 -1      3123 9.04870E-05-2.32806E-05-2.87653E-05-3.07263E-06 6.79241E-19 5.02832E-19
 -1      3124 8.68295E-05-2.01193E-05-2.86203E-05-5.60986E-06-5.58713E-19-8.25415E-19
 -1      3125 8.83344E-05-2.13381E-05-2.87539E-05-4.93856E-06-4.90271E-19-7.57651E-19
 -1      3126 8.79156E-05-2.12020E-05-2.85344E-05-3.46422E-06 5.79895E-21-1.57416E-19
 -1      3127 8.21979E-05-1.70740E-05-2.79631E-05-6.55314E-06-9.80441E-20-1.45854E-18
 -1      3128 8.44817E-05-1.85928E-05-2.82972E-05-5.83289E-06-1.47865E-19-9.21353E-19
 -1      3129 8.41088E-05-1.85011E-05-2.80319E-05-3.63809E-06-2.34184E-19-6.31748E-19
 -1      3130 7.54632E-05-1.35397E-05-2.66130E-05-7.39779E-06-4.28877E-19-1.31177E-18
 -1      3131 7.88233E-05-1.52413E-05-2.73288E-05-6.62102E-06-5.48260E-19-1.77785E-18
 -1      3132 7.86264E-05-1.52186E-05-2.70401E-05-3.42433E-06-1.77146E-19-1.42413E-18
 -1      3133 6.61914E-05-1.01094E-05-2.40316E-05-8.24829E-06-1.95215E-20-1.83539E-18
 -1      3134 7.06262E-05-1.15696E-05-2.54113E-05-7.30919E-06 4.69331E-19-1.26370E-18
 -1      3135 7.07508E-05-1.14891E-05-2.51624E-05-2.51930E-06 1.98801E-19-2.60302E-18
 -1      3136 9.56533E-05-2.72796E-05-2.93110E-05 2.66015E-07 8.04973E-19-1.04857E-18
 -1      3137 9.56826E-05-2.68284E-05-2.94942E-05 8.01299E-07 8.37398E-19-1.03570E-18
 -1      3138 9.58883E-05-2.72773E-05-2.94076E-05 2.04073E-07 6.28915E-19-7.84591E-19
 -1      3139 5.66239E-05-1.97475E-05-1.52083E-05-3.26220E-05 4.52051E-19 4.81221E-18
 -1      3140 7.07142E-05-2.87302E-05-1.78481E-05-3.75277E-05-2.52522E-19 2.96567E-18
 -1      3141 9.61549E-05-2.93383E-05-2.85872E-05-8.96166E-06 1.65260E-18-1.00752E-18
 -1      3142 9.44596E-05-2.80621E-05-2.84895E-05-9.22523E-06 1.85375E-18-2.21822E-18
 -1      3143 8.47212E-05-1.82498E-05-2.85408E-05 7.98254E-06-6.58496E-19-2.06731E-19
 -1      3144 8.23511E-05-1.69064E-05-2.81084E-05 8.87667E-06 8.76507E-19-5.36542E-19
 -1      3145 7.86520E-05-1.50672E-05-2.73342E-05 9.15327E-06 1.11570E-18-1.45631E-18
 -1      3146 7.53332E-05-1.35332E-05-2.65079E-05 1.02300E-05-5.19807E-19-1.56412E-18
 -1      3147 7.84351E-05-1.48141E-05-2.71111E-05 5.72598E-06 4.45089E-19-4.10407E-19
 -1      3148 9.26109E-05-4.26715E-05-2.13961E-05 4.02839E-05 2.87779E-18 6.44804E-20
 -1      3149 7.56413E-05-3.12552E-05-1.85609E-05 3.88714E-05 3.36812E-18-7.78106E-19
 -1      3150 9.23595E-05-2.61730E-05-2.83022E-05-9.27307E-06 1.48158E-18-1.55226E-18
 -1      3151 9.03108E-05-2.46497E-05-2.82002E-05-8.61620E-06 1.34345E-18-1.51850E-18
 -1      3152 9.35363E-05-2.80397E-05-2.81143E-05-1.05945E-05 1.31473E-18-1.90749E-18
 -1      3153 5.88041E-05-1.07848E-05-1.98836E-05 1.81951E-05-7.13546E-19 4.91809E-19
 -1      3154 9.49773E-05-2.34936E-05-3.06158E-05-4.13606E-06-1.49776E-18-1.21528E-18
 -1      3155 9.51668E-05-2.45936E-05-3.02628E-05-2.98220E-06-1.35508E-18-1.31183E-18
 -1      3156 9.52319E-05-2.44545E-05-3.03296E-05-2.63859E-06-1.29814E-18-1.41543E-18
 -1      3157 9.95907E-05-3.21678E-05-2.89008E-05-2.47327E-06 1.26723E-18-3.47469E-18
 -1      3158 9.97392E-05-3.21985E-05-2.89286E-05-3.49060E-06 2.21918E-18-3.00275E-18
 -1      3159 1.00718E-04-3.32879E-05-2.89181E-05-4.19444E-06 1.05170E-18-2.14756E-18
 -1      3160 9.56246E-05-2.83952E-05-2.88149E-05-8.58574E-07 3.34810E-20-6.36069E-19
 -1      3161 9.56571E-05-2.82103E-05-2.88976E-05-6.82526E-07 1.57033E-19-8.63255E-19
 -1      3162 9.59350E-05-2.80177E-05-2.91109E-05-4.50906E-07 3.91778E-19-7.81970E-19
 -1      3163 6.99364E-05-1.16759E-05-2.50910E-05 1.05162E-05-1.24819E-18-1.07102E-18
 -1      3164 6.55571E-05-1.07077E-05-2.35186E-05 1.19818E-05-4.57659E-19-5.29872E-19
 -1      3165 6.97859E-05-1.12928E-05-2.48921E-05 4.82062E-06-2.35422E-19-8.59166E-19
 -1      3166 9.24339E-05-1.79587E-05-3.19394E-05-6.93168E-06-1.64045E-18-1.88411E-18
 -1      3167 9.30736E-05-1.89407E-05-3.18004E-05-7.44112E-06-1.81981E-18-1.54267E-18
 -1      3168 9.38233E-05-2.04982E-05-3.14045E-05-6.43995E-06-1.72880E-18-1.40291E-18
 -1      3169 9.31900E-05-1.93826E-05-3.16034E-05-5.67808E-06-1.49329E-18-1.90901E-18
 -1      3170 8.79746E-05-2.24119E-05-2.80442E-05-7.36592E-06 8.59182E-19 1.78958E-19
 -1      3171 8.62213E-05-2.10470E-05-2.80004E-05-5.57400E-06 1.06197E-18 2.64412E-18
 -1      3172 8.84729E-05-2.38569E-05-2.77107E-05-9.57508E-06 6.71050E-19 2.61429E-19
 -1      3173 9.86342E-05-3.13620E-05-2.88011E-05-7.21663E-06 1.53193E-18 1.36541E-18
 -1      3174 9.75927E-05-3.05483E-05-2.87395E-05-8.03668E-06 1.59569E-18 1.36886E-18
 -1      3175 9.75948E-05-3.11686E-05-2.85045E-05-9.40313E-06 2.15222E-18-2.08614E-19
 -1      3176 9.99889E-05-3.28745E-05-2.87864E-05-6.96610E-06 1.47023E-19 3.72033E-19
 -1      3177 8.47661E-05-1.93800E-05-2.79871E-05-3.05658E-06-1.54173E-19 3.93850E-18
 -1      3178 8.39060E-05-1.85915E-05-2.80424E-05-7.01199E-07-1.18787E-18 4.03719E-18
 -1      3179 8.41716E-05-1.98395E-05-2.75129E-05-5.53177E-06-7.60037E-19 3.95085E-18
 -1      3180 9.55704E-05-2.86531E-05-2.86795E-05-1.04980E-06 2.41094E-19-4.73607E-19
 -1      3181 9.55936E-05-2.85403E-05-2.87318E-05-9.74298E-07 1.29155E-19-5.70298E-19
 -1      3182 9.59039E-05-2.84795E-05-2.88997E-05-8.24611E-07 1.03004E-19-6.30648E-19
 -1      3183 1.19545E-04-1.45128E-05-4.52572E-05 1.01488E-05-1.74806E-18 1.23511E-18
 -1      3184 1.16739E-04-9.40656E-06-4.65136E-05 4.76898E-06-2.91623E-18 1.95197E-18
 -1      3185 1.16581E-04-1.85317E-05-4.21857E-05 1.06459E-05-1.12647E-18 1.39363E-19
 -1      3186 1.20298E-04-5.57103E-05-2.73624E-05-2.75955E-05 2.12499E-19-1.26084E-18
 -1      3187 1.26087E-04-5.64026E-05-3.01393E-05-1.91082E-05-2.80738E-19-1.72744E-18
 -1      3188 1.16765E-04-5.40538E-05-2.69993E-05 2.93107E-05 1.50587E-18-7.82182E-21
 -1      3189 1.05016E-04-4.89773E-05-2.36148E-05 3.63384E-05 2.07780E-18 6.57906E-20
 -1      3190 9.92193E-05-4.34655E-05-2.36374E-05 3.38251E-05 2.12997E-18-1.14668E-18
 -1      3191 9.54662E-05-2.88605E-05-2.85444E-05-1.06719E-06 2.68835E-19 5.20337E-20
 -1      3192 9.54729E-05-2.88303E-05-2.85594E-05-1.09159E-06 2.80190E-19 2.11295E-20
 -1      3193 9.57588E-05-2.88961E-05-2.86580E-05-1.04650E-06 1.67663E-19 2.13995E-19
 -1      3194 1.16454E-04-7.68972E-06-4.69854E-05-1.32621E-06-4.06269E-18 1.99734E-18
 -1      3195 1.19256E-04-1.02594E-05-4.71904E-05-6.93979E-06-4.17608E-18 2.90273E-18
 -1      3196 1.36489E-04-4.23944E-05-4.02552E-05 7.59788E-06 4.34104E-19 1.82467E-18
 -1      3197 9.54222E-05-2.88777E-05-2.85178E-05-9.87452E-07 5.47531E-19 1.75445E-19
 -1      3198 9.54244E-05-2.88688E-05-2.85232E-05-1.03225E-06 6.40412E-19 2.45646E-19
 -1      3199 9.56007E-05-2.89605E-05-2.85617E-05-9.41139E-07 4.83855E-19 4.42829E-19
 -1      3200 4.54879E-05-7.52587E-06-1.60979E-05 8.38887E-06-1.96214E-19-6.34110E-19
 -1      3201 4.02065E-05-6.74458E-06-1.36629E-05-5.57391E-06-3.19626E-19 5.36807E-19
 -1      3202 1.35613E-04-3.40139E-05-4.40720E-05-1.03379E-05-7.44542E-19 3.66977E-19
 -1      3203 1.34863E-04-4.33440E-05-3.93487E-05-6.20379E-06-9.95899E-19-2.76556E-19
 -1      3204 1.29661E-04-2.95967E-05-4.32129E-05-1.20678E-05-1.51465E-18 1.19040E-18
 -1      3205 9.23484E-05-1.83092E-05-3.17461E-05 1.80312E-06 2.00761E-19-2.33066E-18
 -1      3206 9.22307E-05-1.81107E-05-3.17775E-05 1.04795E-06-5.70363E-20-2.38162E-18
 -1      3207 5.98588E-05-2.10912E-05-1.65195E-05 3.48191E-05 3.04762E-18-2.30266E-18
 -1      3208 4.98528E-05-1.34585E-05-1.50531E-05 2.57481E-05 2.37026E-18-2.72935E-18
 -1      3209 4.12099E-05-8.87788E-06-1.34438E-05-1.49351E-05 2.51251E-19 3.01724E-18
 -1      3210 4.74068E-05-1.37311E-05-1.41355E-05-2.57942E-05 6.00732E-19 4.26153E-18
 -1      3211 4.88015E-05-8.48056E-06-1.68474E-05-9.23777E-06-5.90078E-20 1.23360E-18
 -1      3212 5.72258E-05-9.04834E-06-2.05149E-05 1.08329E-05-2.53925E-19 2.08476E-19
 -1      3213 8.18618E-05-3.43527E-05-1.98674E-05-3.79847E-05-7.52377E-19 3.57924E-19
 -1      3214 9.20666E-05-3.97092E-05-2.24507E-05-3.50557E-05-1.83436E-19 2.22187E-19
 -1      3215 7.55435E-05-2.77268E-05-2.02880E-05-3.30972E-05 3.65045E-19 2.22452E-18
 -1      3216 5.64331E-05-7.60591E-06-2.05070E-05 2.34558E-06 1.63745E-19 5.81541E-19
 -1      3217 1.27644E-04-3.63454E-05-3.96781E-05 1.09084E-05 1.56185E-18 1.13889E-18
 -1      3218 1.22335E-04-3.11985E-05-3.90902E-05 1.22543E-05 7.67094E-19 4.52421E-19
 -1      3219 9.34043E-05-2.01683E-05-3.14167E-05 4.24815E-06 1.04415E-18-2.03928E-18
 -1      3220 9.30395E-05-1.95071E-05-3.15239E-05 3.64933E-06 7.66014E-19-1.99368E-18
 -1      3221 1.26900E-04-5.36016E-05-3.15543E-05 1.17043E-05 1.20751E-18-1.62326E-18
 -1      3222 1.24219E-04-5.54398E-05-2.92917E-05 2.12642E-05 1.38303E-18-8.12358E-19
 -1      3223 1.16187E-04-5.12975E-05-2.77510E-05 2.34477E-05 1.26471E-18-1.15340E-18
 -1      3224 9.27603E-05-1.90146E-05-3.16240E-05 3.12079E-06 6.53001E-19-2.05804E-18
 -1      3225 9.25212E-05-1.86015E-05-3.16906E-05 2.41650E-06 3.82400E-19-2.16785E-18
 -1      3226 9.37470E-05-2.07465E-05-3.12604E-05 2.85555E-06 6.12452E-19-1.84854E-18
 -1      3227 8.14281E-05-1.70523E-05-2.76274E-05 1.30102E-06-1.57283E-18 2.13867E-18
 -1      3228 8.36761E-05-1.77667E-05-2.82366E-05 3.49110E-06-7.17274E-19 3.11309E-18
 -1      3229 5.76713E-05-7.33475E-06-2.11855E-05-1.18516E-06 1.23104E-19-2.63703E-18
 -1      3230 9.56795E-05-2.61217E-05-2.98139E-05 1.23903E-06 8.34705E-19-1.24462E-18
 -1      3231 9.55350E-05-2.61818E-05-2.97276E-05 1.42358E-06 9.84964E-19-1.22848E-18
 -1      3232 9.55007E-05-2.57100E-05-2.98854E-05 1.99980E-06 1.10845E-18-1.15456E-18
 -1      3233 5.82604E-05-1.63985E-05-1.75026E-05-2.55758E-05 5.73230E-19 4.21558E-18
 -1      3234 7.33113E-05-2.64009E-05-1.96811E-05 3.34912E-05 2.75455E-18-1.34313E-18
 -1      3235 9.44887E-05-2.22962E-05-3.09103E-05 3.79369E-06 1.05974E-18-1.61607E-18
 -1      3236 8.73843E-05-1.96782E-05-2.90385E-05 7.59542E-06-1.12821E-18-8.33539E-19
 -1      3237 9.25138E-05-1.85871E-05-3.16933E-05-2.38572E-06-7.84469E-19-2.28692E-18
 -1      3238 9.27457E-05-1.89915E-05-3.16275E-05-3.09651E-06-9.18225E-19-2.24116E-18
 -1      3239 9.92201E-05-3.18318E-05-2.88617E-05-1.24883E-06-2.91981E-19-2.50965E-18
 -1      3240 1.00264E-04-3.28585E-05-2.89048E-05-1.57544E-06-4.37360E-19-4.27153E-18
 -1      3241 1.13033E-04-1.08656E-05-4.40483E-05 1.29865E-06-3.24017E-18 1.61681E-18
 -1      3242 1.19693E-04-1.31446E-05-4.60776E-05-8.96861E-06-4.30859E-18 2.52080E-18
 -1      3243 1.19746E-04-1.66716E-05-4.44152E-05-1.13711E-05-3.49994E-18 2.30396E-18
 -1      3244 1.13730E-04-1.32413E-05-4.32687E-05-7.48153E-06-3.89535E-18 1.36489E-18
 -1      3245 1.10660E-04-5.05257E-05-2.57152E-05-3.03873E-05 4.95885E-19-7.08589E-19
 -1      3246 1.34614E-04-4.84898E-05-3.71650E-05-2.17469E-06-5.70080E-19-1.02676E-19
 -1      3247 1.31527E-04-5.07474E-05-3.47213E-05 2.32889E-06 4.82683E-19-1.53062E-19
 -1      3248 1.31047E-04-4.30916E-05-3.77721E-05-6.75756E-06-6.70082E-19 5.91097E-19
 -1      3249 9.83231E-05-3.12228E-05-2.87631E-05-2.12181E-07-1.54497E-18-1.67731E-18
 -1      3250 9.58370E-05-2.87526E-05-2.87535E-05-1.00066E-06 2.82432E-19-5.95904E-19
 -1      3251 9.33373E-05-1.99809E-05-3.14195E-05 1.80002E-06 2.62749E-19-2.01796E-18
 -1      3252 1.31811E-04-5.40835E-05-3.30661E-05-7.54979E-06-6.36598E-19-8.00949E-19
 -1      3253 1.33282E-04-5.09389E-05-3.56780E-05-5.89944E-07 4.12843E-19-3.71781E-19
 -1      3254 9.56786E-05-2.89558E-05-2.85975E-05-1.01513E-06 4.15573E-19 1.52974E-19
 -1      3255 9.30348E-05-1.94890E-05-3.15285E-05-3.62345E-06-1.08161E-18-2.01419E-18
 -1      3256 9.34031E-05-2.01525E-05-3.14168E-05-4.23877E-06-1.32044E-18-1.88784E-18
 -1      3257 9.37285E-05-2.07391E-05-3.12648E-05-2.81238E-06-9.62222E-19-1.94544E-18
 -1      3258 1.31491E-04-4.30310E-05-3.78614E-05 6.91041E-06 1.56497E-18 4.96202E-19
 -1      3259 9.31261E-05-1.95965E-05-3.14950E-05 6.20733E-07-1.95150E-19-2.22350E-18
 -1      3260 9.21722E-05-1.80128E-05-3.17955E-05 3.97367E-07-1.89975E-19-2.25685E-18
 -1      3261 9.21712E-05-1.80111E-05-3.17958E-05-3.71242E-07-4.58442E-19-2.35863E-18
 -1      3262 5.12478E-05-9.71827E-06-1.75043E-05 1.38397E-05 1.16822E-18-2.46513E-18
 -1      3263 8.46932E-05-1.81659E-05-2.84655E-05 5.44833E-06-8.48156E-19 8.99688E-19
 -1      3264 9.42622E-05-2.18347E-05-3.10590E-05-5.44439E-06-1.65122E-18-1.34183E-18
 -1      3265 1.25694E-04-5.34341E-05-3.10410E-05-1.25984E-05-1.95929E-19-9.72751E-19
 -1      3266 9.42009E-05-2.17333E-05-3.10672E-05-4.77581E-06-1.54690E-18-1.58460E-18
 -1      3267 6.33589E-05-9.85219E-06-2.29072E-05-9.23125E-07 4.44575E-19 9.24530E-19
 -1      3268 5.50741E-05-8.31391E-06-1.99771E-05-3.86029E-06-7.98080E-20 1.16673E-18
 -1      3269 5.69009E-05-1.04586E-05-1.97187E-05-1.24938E-05 2.57657E-19 2.24188E-18
 -1      3270 9.44595E-05-2.23350E-05-3.09357E-05 2.58905E-06 5.92176E-19-1.77049E-18
 -1      3271 9.42378E-05-2.18286E-05-3.10377E-05 2.13897E-06 3.49007E-19-1.64369E-18
 -1      3272 7.93609E-05-1.69949E-05-2.66702E-05-4.67690E-06-1.82291E-18 4.75264E-18
 -1      3273 7.81544E-05-1.57179E-05-2.67970E-05-1.67756E-08-7.68894E-19 2.49170E-18
 -1      3274 7.46002E-05-1.42837E-05-2.59398E-05-7.46204E-07-3.78045E-19 1.38562E-18
 -1      3275 5.74768E-05-9.61788E-06-2.04739E-05 9.58536E-06 1.36875E-19-1.48538E-18
 -1      3276 6.60162E-05-1.17338E-05-2.32527E-05 7.49874E-06 1.22780E-19-1.41282E-18
 -1      3277 6.44576E-05-1.56512E-05-2.06391E-05 2.25492E-05 1.24720E-18-1.08154E-18
 -1      3278 9.60306E-05-2.69034E-05-2.96172E-05-4.48681E-07-6.85981E-19-1.19670E-18
 -1      3279 9.60796E-05-2.73966E-05-2.94432E-05-3.29780E-08-6.58176E-19-1.01939E-18
 -1      3280 9.61620E-05-2.78174E-05-2.92829E-05 2.48015E-07-7.08162E-19-8.75033E-19
 -1      3281 9.61572E-05-2.81360E-05-2.91565E-05 5.02077E-07-6.03647E-19-6.07711E-19
 -1      3282 9.62637E-05-2.74470E-05-2.94932E-05 1.59281E-08-6.57591E-19-1.06214E-18
 -1      3283 9.61658E-05-2.83986E-05-2.90374E-05 6.65033E-07-5.85510E-19-6.68757E-19
 -1      3284 9.61355E-05-2.85958E-05-2.89479E-05 8.01924E-07-4.40288E-19-5.35966E-19
 -1      3285 9.63549E-05-2.82066E-05-2.92079E-05 4.79594E-07-5.43874E-19-5.81875E-19
 -1      3286 9.61015E-05-2.87488E-05-2.88615E-05 8.79871E-07-4.97935E-19-5.35272E-19
 -1      3287 9.60605E-05-2.88622E-05-2.88000E-05 9.36559E-07-3.71905E-19-6.73584E-19
 -1      3288 9.63313E-05-2.86773E-05-2.89966E-05 7.39355E-07-5.30800E-19-5.92797E-19
 -1      3289 9.60040E-05-2.89403E-05-2.87390E-05 9.57340E-07-1.50020E-19-8.69660E-19
 -1      3290 9.59601E-05-2.89962E-05-2.86986E-05 9.62650E-07 3.31660E-20-5.02867E-19
 -1      3291 9.62432E-05-2.89457E-05-2.88440E-05 8.54704E-07-3.06908E-19-6.41600E-19
 -1      3292 9.58936E-05-2.90237E-05-2.86571E-05 9.48174E-07-7.43629E-20-5.41066E-19
 -1      3293 9.58510E-05-2.90407E-05-2.86321E-05 9.23615E-07-3.91852E-19-3.90789E-19
 -1      3294 9.61227E-05-2.90745E-05-2.87370E-05 8.75078E-07-5.51121E-20-1.10197E-18
 -1      3295 9.57820E-05-2.90347E-05-2.86054E-05 8.90297E-07-6.83733E-19-4.31988E-19
 -1      3296 9.57426E-05-2.90258E-05-2.85917E-05 8.51401E-07-6.63750E-19-2.01358E-19
 -1      3297 9.59895E-05-2.91089E-05-2.86650E-05 8.38883E-07-4.95469E-19-1.34821E-18
 -1      3298 9.56754E-05-2.89982E-05-2.85759E-05 8.11035E-07-8.78350E-19-4.61383E-19
 -1      3299 9.56398E-05-2.89725E-05-2.85703E-05 7.68748E-07-7.49849E-19-6.52290E-19
 -1      3300 9.58554E-05-2.90807E-05-2.86193E-05 7.74540E-07-8.47846E-19-1.14484E-18
 -1      3301 9.55765E-05-2.89313E-05-2.85626E-05 7.29724E-07-5.67011E-19-7.34054E-19
 -1      3302 9.55447E-05-2.88949E-05-2.85627E-05 6.91706E-07-5.76579E-19-1.04723E-18
 -1      3303 9.57267E-05-2.90119E-05-2.85933E-05 7.02437E-07-7.83523E-19-1.22102E-18
 -1      3304 9.54858E-05-2.88455E-05-2.85608E-05 6.59986E-07-6.48679E-19-1.06109E-18
 -1      3305 9.54576E-05-2.88027E-05-2.85649E-05 6.31501E-07-7.77801E-19-1.12079E-18
 -1      3306 9.56059E-05-2.89177E-05-2.85817E-05 6.37252E-07-6.12496E-19-1.43190E-18
 -1      3307 9.54030E-05-2.87489E-05-2.85669E-05 6.11280E-07-5.14771E-19-1.24444E-18
 -1      3308 9.53784E-05-2.87029E-05-2.85737E-05 5.95892E-07-2.71435E-19-1.14428E-18
 -1      3309 9.54935E-05-2.88081E-05-2.85802E-05 5.89421E-07-7.62323E-19-1.52070E-18
 -1      3310 9.53278E-05-2.86474E-05-2.85784E-05 5.90251E-07-1.21134E-19-1.27433E-18
 -1      3311 9.53071E-05-2.86011E-05-2.85867E-05 5.90338E-07-3.33280E-19-7.80023E-19
 -1      3312 9.53891E-05-2.86905E-05-2.85857E-05 5.66469E-07-6.45463E-20-1.05710E-18
 -1      3313 9.52606E-05-2.85468E-05-2.85928E-05 6.01677E-07-3.49154E-19-3.71519E-19
 -1      3314 9.52449E-05-2.85035E-05-2.86018E-05 6.18656E-07 5.44105E-19-4.69863E-19
 -1      3315 9.52926E-05-2.85712E-05-2.85953E-05 5.74211E-07 3.12451E-20-2.68894E-19
 -1      3316 9.52041E-05-2.84542E-05-2.86082E-05 6.48871E-07 7.58197E-19-6.07622E-19
 -1      3317 9.51962E-05-2.84188E-05-2.86171E-05 6.83188E-07 5.01364E-19-3.63110E-19
 -1      3318 9.52054E-05-2.84572E-05-2.86068E-05 6.17364E-07 4.85270E-19-2.80607E-19
 -1      3319 9.51645E-05-2.83803E-05-2.86228E-05 7.33659E-07 1.04515E-19-7.15111E-19
 -1      3320 9.51695E-05-2.83600E-05-2.86307E-05 7.84520E-07-3.15292E-20-7.74264E-19
 -1      3321 9.51323E-05-2.83586E-05-2.86179E-05 6.99810E-07 1.99781E-19-5.79542E-19
 -1      3322 9.51540E-05-2.83412E-05-2.86347E-05 8.55821E-07 4.80658E-20-1.27160E-18
 -1      3323 9.51802E-05-2.83468E-05-2.86407E-05 9.20591E-07-3.41920E-20-1.34195E-18
 -1      3324 9.50835E-05-2.82911E-05-2.86264E-05 8.24433E-07-3.01294E-19-1.43174E-18
 -1      3325 9.51928E-05-2.83613E-05-2.86420E-05 1.01179E-06-3.46802E-20-9.04476E-19
 -1      3326 9.52531E-05-2.84081E-05-2.86454E-05 1.08498E-06 4.20198E-19-9.52090E-19
 -1      3327 9.50775E-05-2.82782E-05-2.86302E-05 9.92303E-07 1.89875E-19-1.58204E-18
 -1      3328 9.53124E-05-2.84748E-05-2.86434E-05 1.19234E-06 9.35593E-19-9.72552E-19
 -1      3329 9.54249E-05-2.85833E-05-2.86437E-05 1.26410E-06 1.08343E-18-6.25084E-19
 -1      3330 9.51444E-05-2.83542E-05-2.86277E-05 1.20088E-06 8.46952E-19-9.70073E-19
 -1      3331 9.55580E-05-2.87272E-05-2.86384E-05 1.37891E-06 6.91162E-19-8.21098E-19
 -1      3332 9.57465E-05-2.89227E-05-2.86361E-05 1.43285E-06 6.77810E-20-5.43041E-19
 -1      3333 9.53292E-05-2.85663E-05-2.86182E-05 1.44077E-06 6.27520E-19-1.17415E-18
 -1      3334 9.59899E-05-2.91738E-05-2.86290E-05 1.53804E-06-3.74380E-19 3.64206E-20
 -1      3335 9.62824E-05-2.94832E-05-2.86261E-05 1.54858E-06-4.98120E-19 1.46065E-19
 -1      3336 9.56950E-05-2.89744E-05-2.86033E-05 1.69023E-06 4.30820E-19-7.48339E-19
 -1      3337 9.66808E-05-2.98724E-05-2.86215E-05 1.61390E-06-2.93789E-19 5.36785E-19
 -1      3338 9.71055E-05-3.03178E-05-2.86227E-05 1.54334E-06 2.44972E-19 8.40622E-19
 -1      3339 9.63232E-05-2.96466E-05-2.85885E-05 1.90684E-06-7.59527E-20 2.85186E-19
 -1      3340 9.77065E-05-3.08678E-05-2.86289E-05 1.51956E-06 8.20310E-19 8.45869E-19
 -1      3341 9.82814E-05-3.14533E-05-2.86433E-05 1.31640E-06 1.18632E-18 1.28857E-18
 -1      3342 9.73071E-05-3.06462E-05-2.85867E-05 2.01590E-06 5.25866E-19 7.85512E-19
 -1      3343 9.91223E-05-3.21617E-05-2.86749E-05 1.12978E-06 6.37988E-19 1.87090E-18
 -1      3344 9.98393E-05-3.28516E-05-2.87171E-05 7.30836E-07 7.41181E-19 2.02673E-18
 -1      3345 9.87355E-05-3.20043E-05-2.86216E-05 1.89739E-06 1.49410E-18 8.83531E-19
 -1      3346 1.00921E-04-3.36627E-05-2.87970E-05 2.84932E-07 8.54981E-19 2.43480E-18
 -1      3347 1.01722E-04-3.43528E-05-2.88879E-05-3.71066E-07 9.61473E-19 3.01523E-18
 -1      3348 1.00653E-04-3.36702E-05-2.87323E-05 1.37671E-06 1.02598E-18 2.02705E-18
 -1      3349 1.02970E-04-3.51246E-05-2.90475E-05-1.17767E-06 7.86829E-19 2.71842E-18
 -1      3350 1.03723E-04-3.56129E-05-2.92130E-05-2.12020E-06 6.24400E-19 3.38011E-18
 -1      3351 1.02997E-04-3.54397E-05-2.89761E-05 2.40106E-07 1.13336E-18 1.82441E-18
 -1      3352 1.04941E-04-3.60820E-05-2.94893E-05-3.33789E-06-3.01706E-19 2.63171E-18
 -1      3353 1.05435E-04-3.60668E-05-2.97540E-05-4.50296E-06-4.20646E-19 1.64095E-18
 -1      3354 1.05507E-04-3.68703E-05-2.94278E-05-1.70372E-06-4.48657E-19 1.30791E-18
 -1      3355 1.06285E-04-3.58677E-05-3.01781E-05-6.02484E-06-2.87512E-19 1.40566E-18
 -1      3356 1.06281E-04-3.50219E-05-3.05527E-05-7.18067E-06-4.29549E-19 1.36811E-18
 -1      3357 1.07649E-04-3.72390E-05-3.01648E-05-4.45827E-06-8.26996E-19 3.25727E-19
 -1      3358 1.06365E-04-3.38108E-05-3.11271E-05-8.61130E-06-3.04374E-19 1.93141E-18
 -1      3359 1.05727E-04-3.19813E-05-3.15902E-05-9.31788E-06-3.44302E-19 2.24392E-18
 -1      3360 1.08660E-04-3.56981E-05-3.12307E-05-7.57805E-06 1.23272E-19 9.04497E-19
 -1      3361 1.04839E-04-2.97246E-05-3.22595E-05-9.94764E-06-1.01280E-18 2.56477E-18
 -1      3362 1.03716E-04-2.72201E-05-3.27390E-05-9.66599E-06-1.40720E-18 1.70949E-18
 -1      3363 1.07884E-04-3.17471E-05-3.25783E-05-9.94747E-06-6.46244E-19 1.39456E-18
 -1      3364 1.02191E-04-2.45230E-05-3.33643E-05-8.76674E-06-1.69658E-18 1.03297E-18
 -1      3365 1.01071E-04-2.22360E-05-3.37389E-05-7.18810E-06-1.33259E-18 1.32213E-18
 -1      3366 1.05410E-04-2.60130E-05-3.40000E-05-9.97153E-06-1.68761E-18 1.91771E-18
 -1      3367 9.98598E-05-2.03357E-05-3.41281E-05-4.65048E-06-1.85240E-18 4.26790E-19
 -1      3368 9.93452E-05-1.93486E-05-3.42771E-05-2.12391E-06-1.86217E-18-8.71518E-19
 -1      3369 1.02557E-04-2.06882E-05-3.51056E-05-6.54902E-06-2.17688E-18 8.38590E-19
 -1      3370 9.93635E-05-1.93181E-05-3.42930E-05 1.20921E-06-1.38773E-18-1.62206E-18
 -1      3371 9.97605E-05-2.01862E-05-3.41602E-05 3.72995E-06-1.31445E-18-1.69709E-18
 -1      3372 1.01244E-04-1.83398E-05-3.55641E-05-4.29347E-07-2.22704E-18-1.24093E-18
 -1      3373 1.01015E-04-2.20468E-05-3.37892E-05 6.43071E-06-2.72940E-19-1.86891E-18
 -1      3374 1.02112E-04-2.43230E-05-3.34219E-05 8.01281E-06 9.43155E-19-1.56951E-18
 -1      3375 1.02458E-04-2.02849E-05-3.51941E-05 5.78769E-06-9.81777E-19-1.07565E-18
 -1      3376 1.03693E-04-2.70317E-05-3.28080E-05 9.06404E-06 9.04314E-19-1.81987E-18
 -1      3377 1.04898E-04-2.96065E-05-3.23316E-05 9.37235E-06 1.19150E-18-1.87347E-18
 -1      3378 1.05357E-04-2.56680E-05-3.41035E-05 9.35773E-06 7.76503E-19-9.35111E-19
 -1      3379 1.05824E-04-3.19084E-05-3.16687E-05 8.75171E-06 1.32440E-18-1.72876E-18
 -1      3380 1.06519E-04-3.37946E-05-3.12049E-05 8.07306E-06 1.85092E-18-1.67961E-18
 -1      3381 1.08073E-04-3.17100E-05-3.26920E-05 9.42600E-06 1.41846E-18-1.50600E-18
 -1      3382 1.06528E-04-3.50904E-05-3.06287E-05 6.61978E-06 1.94863E-18-2.04218E-18
 -1      3383 1.06557E-04-3.59725E-05-3.02531E-05 5.43978E-06 1.98438E-18-2.08178E-18
 -1      3384 1.08994E-04-3.57632E-05-3.13433E-05 7.08745E-06 1.55166E-18-1.16847E-18
 -1      3385 1.05741E-04-3.61884E-05-2.98349E-05 3.85363E-06 8.78413E-19-2.36949E-18
 -1      3386 1.05224E-04-3.61756E-05-2.95752E-05 2.65061E-06 3.38076E-19-2.27973E-18
 -1      3387 1.08110E-04-3.74287E-05-3.02810E-05 3.86439E-06 1.16430E-18-1.09354E-18
 -1      3388 1.03995E-04-3.56607E-05-2.93108E-05 1.38131E-06-3.19181E-19-3.62351E-18
 -1      3389 1.03177E-04-3.50923E-05-2.91565E-05 4.16279E-07-6.34149E-19-4.13008E-18
 -1      3390 1.05978E-04-3.69900E-05-2.95640E-05 9.98188E-07-7.74570E-19-2.16486E-18
 -1      3391 1.02164E-04-3.44523E-05-2.90400E-05-4.05072E-07-7.17655E-19-5.03873E-18
 -1      3392 1.01267E-04-3.36572E-05-2.89601E-05-1.05260E-06-1.15915E-18-5.19562E-18
 -1      3393 1.01679E-04-3.40040E-05-2.89957E-05-2.34080E-06 3.03190E-19-5.32015E-18
 -1      3394 1.03712E-04-3.56242E-05-2.91761E-05-1.03524E-06-1.16279E-18-4.57589E-18
 -1      3395 9.61572E-05-2.81079E-05-2.91686E-05-4.81437E-07 2.66563E-19-8.95980E-19
 -1      3396 9.61601E-05-2.77820E-05-2.92970E-05-2.21245E-07 4.10774E-19-8.95085E-19
 -1      3397 9.58027E-05-2.61816E-05-2.98495E-05 9.21199E-07 6.10815E-19-1.15364E-18
 -1      3398 9.56516E-05-2.54494E-05-3.00918E-05 1.57211E-06 6.98468E-19-1.34247E-18
 -1      3399 9.55659E-05-2.89030E-05-2.85683E-05-7.02735E-07-3.57711E-19 1.44611E-19
 -1      3400 9.55975E-05-2.89410E-05-2.85674E-05-7.40007E-07-1.44917E-19 8.26736E-20
 -1      3401 9.52259E-05-2.48784E-05-3.01530E-05 3.03708E-06 1.21384E-18-1.20968E-18
 -1      3402 1.19242E-04-3.27813E-05-3.69349E-05 1.15416E-05 1.61280E-18 6.25752E-19
 -1      3403 1.16500E-04-2.74732E-05-3.84499E-05 1.19969E-05 1.40819E-20-3.51853E-19
 -1      3404 9.56608E-05-2.89828E-05-2.85749E-05-7.78892E-07 1.25808E-20 3.27248E-19
 -1      3405 9.56958E-05-2.90079E-05-2.85804E-05-8.20500E-07 2.68181E-19 4.55319E-19
 -1      3406 9.57499E-05-2.90222E-05-2.85989E-05-7.13202E-07 2.42720E-19 7.04509E-19
 -1      3407 9.53875E-05-2.86816E-05-2.85867E-05-6.10976E-07-4.18835E-19-4.75143E-19
 -1      3408 9.54169E-05-2.87393E-05-2.85771E-05-6.23169E-07-3.01594E-19-3.65026E-19
 -1      3409 9.52935E-05-2.85398E-05-2.86073E-05-6.11313E-07-3.71347E-19-1.73489E-20
 -1      3410 9.53261E-05-2.86087E-05-2.85945E-05-6.05010E-07-4.93119E-19-3.53643E-19
 -1      3411 9.53905E-05-2.86572E-05-2.86002E-05-5.76283E-07-4.06387E-19-3.16888E-19
 -1      3412 9.51843E-05-2.83694E-05-2.86337E-05-6.50376E-07-2.30045E-19 4.41743E-19
 -1      3413 9.52246E-05-2.84533E-05-2.86181E-05-6.22249E-07-1.04617E-19 5.31489E-19
 -1      3414 9.52620E-05-2.84871E-05-2.86174E-05-5.82132E-07-5.93194E-19 1.74257E-19
 -1      3415 9.50448E-05-2.81580E-05-2.86647E-05-7.32996E-07 2.81740E-19 2.84081E-19
 -1      3416 9.51003E-05-2.82636E-05-2.86467E-05-6.79875E-07 2.55319E-19 3.98315E-19
 -1      3417 9.51114E-05-2.82829E-05-2.86398E-05-6.21183E-07 1.35904E-19 4.17375E-19
 -1      3418 9.48531E-05-2.78870E-05-2.86992E-05-8.62903E-07 1.29410E-19 5.09530E-19
 -1      3419 9.49348E-05-2.80241E-05-2.86791E-05-7.81821E-07 1.84849E-19 5.95722E-19
 -1      3420 9.49209E-05-2.80302E-05-2.86654E-05-6.94957E-07 6.95026E-20 9.08031E-20
 -1      3421 9.45765E-05-2.75293E-05-2.87348E-05-1.04171E-06 8.32842E-19 3.27323E-19
 -1      3422 9.47012E-05-2.77124E-05-2.87136E-05-9.30340E-07 7.93655E-19 7.44597E-19
 -1      3423 9.46644E-05-2.77084E-05-2.86919E-05-8.01932E-07 3.04215E-19-1.13302E-19
 -1      3424 9.41665E-05-2.70472E-05-2.87673E-05-1.26669E-06 9.78578E-19 8.94536E-20
 -1      3425 9.43601E-05-2.72963E-05-2.87470E-05-1.12439E-06 8.28138E-19 8.11860E-20
 -1      3426 9.43046E-05-2.72884E-05-2.87155E-05-9.35420E-07 1.00122E-18-3.58959E-19
 -1      3427 9.35505E-05-2.63887E-05-2.87882E-05-1.52609E-06 1.49481E-19 3.54687E-19
 -1      3428 9.38529E-05-2.67315E-05-2.87733E-05-1.35647E-06 7.33795E-19 1.94239E-19
 -1      3429 9.37880E-05-2.67316E-05-2.87296E-05-1.07965E-06 5.64806E-19-2.36521E-19
 -1      3430 9.26813E-05-2.55400E-05-2.87840E-05-1.78068E-06-4.33790E-20-2.55640E-19
 -1      3431 9.31193E-05-2.59842E-05-2.87816E-05-1.60281E-06 2.30340E-19 1.76872E-20
 -1      3432 9.30624E-05-2.60088E-05-2.87235E-05-1.20067E-06 3.66650E-19-9.01325E-20
 -1      3433 9.13290E-05-2.43345E-05-2.87281E-05-2.00702E-06 5.18448E-19-1.22441E-19
 -1      3434 9.20320E-05-2.49694E-05-2.87531E-05-1.82538E-06 2.72858E-20-2.79871E-19
 -1      3435 9.20161E-05-2.50502E-05-2.86796E-05-1.25277E-06 8.57340E-20-3.82977E-19
 -1      3436 8.93226E-05-2.27165E-05-2.85730E-05-2.09766E-06 3.77900E-19 4.61182E-19
 -1      3437 9.03898E-05-2.35721E-05-2.86519E-05-1.96495E-06 8.13142E-19-1.15060E-19
 -1      3438 9.04746E-05-2.37565E-05-2.85635E-05-1.14138E-06 4.62944E-19-2.77609E-19
 -1      3439 8.63867E-05-2.06028E-05-2.82384E-05-1.90096E-06 2.76113E-20 1.95197E-19
 -1      3440 8.79833E-05-2.17236E-05-2.84173E-05-1.89007E-06 3.86751E-19 3.82252E-19
 -1      3441 8.82712E-05-2.20856E-05-2.83215E-05-7.13925E-07 5.54716E-19-1.67403E-19
 -1      3442 8.21526E-05-1.79519E-05-2.75860E-05-1.19441E-06-2.39446E-19-3.33446E-19
 -1      3443 8.45009E-05-1.93567E-05-2.79456E-05-1.40796E-06-3.02944E-19 1.52907E-19
 -1      3444 8.51633E-05-2.00004E-05-2.78636E-05 2.61340E-07 2.36309E-20-3.57791E-19
 -1      3445 7.60117E-05-1.47917E-05-2.63582E-05 2.74964E-07-8.20514E-20-1.09075E-18
 -1      3446 7.94982E-05-1.64426E-05-2.70575E-05-2.53440E-07-2.04165E-20-5.96018E-19
 -1      3447 8.08288E-05-1.75340E-05-2.70396E-05 2.14771E-06 6.53332E-20-1.57057E-19
 -1      3448 6.84839E-05-1.20731E-05-2.43197E-05 3.81313E-06 3.09622E-19-1.32674E-18
 -1      3449 7.34455E-05-1.38081E-05-2.55817E-05 2.66957E-06 4.16300E-19-1.40171E-18
 -1      3450 7.58044E-05-1.54630E-05-2.57392E-05 6.05854E-06 8.47200E-19-2.99403E-19
 -1      3451 7.14015E-05-1.49598E-05-2.39747E-05 1.27105E-05 3.78908E-19-6.27956E-19
 -1      3452 9.52214E-05-2.45102E-05-3.03279E-05 2.91258E-06 1.15945E-18-1.38824E-18
 -1      3453 9.60716E-05-2.73515E-05-2.94594E-05 6.78844E-08 4.41608E-19-9.25582E-19
 -1      3454 9.60243E-05-2.68502E-05-2.96358E-05 4.94546E-07 4.96996E-19-1.14955E-18
 -1      3455 9.59717E-05-2.62352E-05-2.98914E-05 7.49350E-07 5.32878E-19-1.25116E-18
 -1      3456 9.62532E-05-2.74011E-05-2.95092E-05 1.26369E-08 3.35536E-19-1.19220E-18
 -1      3457 6.02708E-05-1.35063E-05-1.98251E-05-1.82177E-05 7.41207E-19 3.24954E-18
 -1      3458 6.73379E-05-1.91093E-05-2.06302E-05-2.46451E-05 1.21263E-18 3.91125E-18
 -1      3459 6.68200E-05-1.39123E-05-2.25003E-05-1.24976E-05 7.44535E-19 1.50174E-18
 -1      3460 1.20361E-04-5.15662E-05-2.93256E-05-1.60372E-05-8.10372E-20-7.59193E-19
 -1      3461 1.24539E-04-5.09319E-05-3.18175E-05-6.54165E-06-5.90279E-19-1.88521E-18
 -1      3462 9.22271E-05-1.81050E-05-3.17785E-05-1.02117E-06-5.75832E-19-2.43959E-18
 -1      3463 9.23408E-05-1.82980E-05-3.17478E-05-1.77385E-06-7.33395E-19-2.29673E-18
 -1      3464 9.33282E-05-1.99681E-05-3.14220E-05-1.77287E-06-7.00796E-19-2.25439E-18
 -1      3465 9.59742E-05-2.89922E-05-2.87063E-05-9.63720E-07 5.68578E-20-4.93215E-20
 -1      3466 9.60148E-05-2.89351E-05-2.87458E-05-9.55616E-07 1.84251E-19-1.39012E-20
 -1      3467 9.60695E-05-2.88524E-05-2.88081E-05-9.31183E-07 7.46425E-20-4.04255E-19
 -1      3468 9.61094E-05-2.87344E-05-2.88708E-05-8.71448E-07-4.49697E-21-6.78932E-19
 -1      3469 9.62552E-05-2.89346E-05-2.88539E-05-8.50833E-07-1.39463E-19-4.73703E-19
 -1      3470 9.56694E-05-2.55104E-05-3.00629E-05-1.50395E-06-1.04589E-18-1.19132E-18
 -1      3471 9.58271E-05-2.62525E-05-2.98279E-05-8.78032E-07-8.87519E-19-1.14675E-18
 -1      3472 9.59844E-05-2.62860E-05-2.98695E-05-7.14063E-07-8.32642E-19-1.00569E-18
 -1      3473 1.09347E-04-1.24576E-05-4.16156E-05 3.93424E-06-2.96525E-18 5.54026E-19
 -1      3474 1.09260E-04-1.18186E-05-4.19858E-05-2.27812E-06-3.32736E-18 1.05666E-18
 -1      3475 9.56923E-05-3.02704E-05-2.79679E-05-1.21084E-05 1.33671E-18-2.32384E-18
 -1      3476 9.28894E-05-2.83362E-05-2.77207E-05-1.23947E-05 7.00178E-19-1.15481E-18
 -1      3477 9.48906E-05-2.34683E-05-3.06084E-05 2.68000E-06 8.25463E-19-1.59125E-18
 -1      3478 9.39340E-05-2.12533E-05-3.11578E-05-4.40919E-06-1.44780E-18-1.72893E-18
 -1      3479 6.97033E-05-1.23892E-05-2.45750E-05-1.93997E-06-4.16734E-19 1.07977E-18
 -1      3480 8.12781E-05-1.87761E-05-2.66981E-05-7.67958E-06-6.75704E-19 5.18984E-18
 -1      3481 1.23038E-04-2.47459E-05-4.24932E-05-1.28341E-05-2.01033E-18 2.05424E-18
 -1      3482 1.25248E-04-3.35036E-05-3.94344E-05-1.17580E-05-6.94355E-19 1.52802E-18
 -1      3483 1.17184E-04-2.27518E-05-4.06526E-05-1.17787E-05-2.97388E-18 1.30909E-18
 -1      3484 9.54761E-05-2.88020E-05-2.85731E-05-6.43743E-07-1.14248E-19-2.18594E-19
 -1      3485 9.55056E-05-2.88501E-05-2.85674E-05-6.70779E-07-3.13535E-19 8.72856E-20
 -1      3486 9.56278E-05-2.89238E-05-2.85884E-05-6.48356E-07-2.19338E-19 2.32486E-19
 -1      3487 9.55097E-05-2.88016E-05-2.85898E-05-6.00099E-07-1.78498E-19-2.04425E-19
 -1      3488 9.44459E-05-2.22998E-05-3.09097E-05-3.43423E-06-1.27187E-18-1.65950E-18
 -1      3489 9.58674E-05-2.90441E-05-2.86376E-05-9.29406E-07 3.30221E-19 1.33058E-19
 -1      3490 9.59094E-05-2.90241E-05-2.86636E-05-9.51665E-07 2.48754E-19 7.65216E-20
 -1      3491 9.61377E-05-2.90724E-05-2.87444E-05-8.76880E-07 1.62941E-19-3.94710E-19
 -1      3492 9.40706E-05-2.14854E-05-3.11230E-05 1.76499E-06 3.14802E-19-1.76799E-18
 -1      3493 9.39350E-05-2.11952E-05-3.11816E-05 1.24606E-06 7.83531E-20-2.03642E-18
 -1      3494 9.48094E-05-2.28718E-05-3.08111E-05 1.55357E-06 2.09649E-19-1.60161E-18
 -1      3495 1.13922E-04-2.15904E-05-3.95854E-05 1.13064E-05-5.75427E-19 3.77591E-20
 -1      3496 1.10815E-04-1.63054E-05-4.08049E-05 8.20901E-06-1.41071E-18 4.01424E-19
 -1      3497 1.11487E-04-2.41690E-05-3.73968E-05 1.08517E-05-3.97814E-19 1.06594E-19
 -1      3498 1.03165E-04-4.51241E-05-2.45365E-05-3.18733E-05-8.25328E-20-3.22812E-19
 -1      3499 1.11656E-04-4.88099E-05-2.69280E-05-2.50515E-05 2.01620E-19-1.17827E-18
 -1      3500 1.04109E-04-4.49540E-05-2.54276E-05 2.90560E-05 1.14774E-18-2.07935E-18
 -1      3501 9.40955E-05-3.85138E-05-2.36133E-05 3.14289E-05 1.84947E-18-1.81734E-18
 -1      3502 9.61405E-05-2.85773E-05-2.89580E-05-7.89652E-07 7.20497E-20-8.38603E-19
 -1      3503 9.61691E-05-2.83740E-05-2.90491E-05-6.48039E-07 7.34845E-20-8.77711E-19
 -1      3504 9.63550E-05-2.81750E-05-2.92217E-05-4.61236E-07 2.09712E-19-8.53278E-19
 -1      3505 9.63380E-05-2.86549E-05-2.90091E-05-7.27882E-07-1.30982E-19-6.61016E-19
 -1      3506 9.57615E-05-2.90339E-05-2.85963E-05-8.59850E-07 3.64488E-19 4.77869E-19
 -1      3507 9.58003E-05-2.90408E-05-2.86105E-05-8.97523E-07 4.16704E-19 5.33320E-19
 -1      3508 9.60078E-05-2.91135E-05-2.86709E-05-8.44905E-07 2.65690E-19 2.34887E-19
 -1      3509 9.58771E-05-2.90897E-05-2.86248E-05-7.83600E-07 8.82598E-20 6.47627E-19
 -1      3510 9.49893E-05-2.35626E-05-3.06148E-05-2.83446E-06-1.18876E-18-1.44937E-18
 -1      3511 9.53304E-05-2.46302E-05-3.03093E-05-1.99270E-06-1.09760E-18-1.36597E-18
 -1      3512 9.54453E-05-2.46606E-05-3.03307E-05-1.65876E-06-9.15782E-19-9.38608E-19
 -1      3513 9.45423E-05-2.25069E-05-3.08660E-05-2.72836E-06-1.00911E-18-1.41458E-18
 -1      3514 1.27804E-04-4.47010E-05-3.56694E-05 4.87615E-06 1.29803E-18 5.35841E-19
 -1      3515 8.35718E-05-3.13950E-05-2.24182E-05 3.18922E-05 2.11757E-18-1.55949E-18
 -1      3516 7.01854E-05-2.15468E-05-2.07427E-05 2.78226E-05 2.14815E-18-1.33413E-18
 -1      3517 7.52497E-05-2.08885E-05-2.30821E-05 2.12389E-05 9.60072E-19-9.16781E-19
 -1      3518 9.03929E-05-3.36043E-05-2.41834E-05 2.73911E-05 1.65189E-18-1.97286E-18
 -1      3519 1.02046E-04-3.44326E-05-2.89634E-05-3.92732E-06 6.39338E-19-1.55537E-18
 -1      3520 1.01964E-04-3.44620E-05-2.89239E-05-5.34350E-06-2.26003E-19-3.81562E-20
 -1      3521 1.03050E-04-3.53754E-05-2.90257E-05-3.46356E-06-4.32855E-19-2.61659E-18
 -1      3522 8.95904E-05-2.54727E-05-2.73474E-05-1.21605E-05 2.42222E-19-1.85957E-19
 -1      3523 8.63605E-05-2.33519E-05-2.71172E-05-1.12206E-05-2.41439E-19 1.61500E-18
 -1      3524 9.10801E-05-2.79108E-05-2.71567E-05-1.42326E-05 8.12583E-19 8.65231E-21
 -1      3525 1.26009E-04-4.67737E-05-3.36733E-05 2.36113E-06 1.64020E-19-5.09676E-19
 -1      3526 1.22711E-04-4.08272E-05-3.54142E-05 7.75720E-06 1.73625E-18 5.56312E-19
 -1      3527 9.52890E-05-2.42911E-05-3.04099E-05 1.95276E-06 6.62782E-19-1.43126E-18
 -1      3528 9.31237E-05-1.95927E-05-3.14957E-05-5.97348E-07-4.43568E-19-2.23633E-18
 -1      3529 1.16103E-04-4.92067E-05-2.88016E-05 1.69752E-05 1.05994E-18-1.85092E-18
 -1      3530 1.11084E-04-4.76660E-05-2.69960E-05 2.37588E-05 7.14270E-19-1.60741E-18
 -1      3531 1.06043E-04-4.36865E-05-2.67211E-05 2.29805E-05 1.13824E-18-1.61808E-18
 -1      3532 8.14752E-05-2.04798E-05-2.61963E-05-1.10575E-05-7.36151E-19 4.60308E-18
 -1      3533 7.45368E-05-2.02579E-05-2.33032E-05-2.01745E-05 4.93119E-19 3.85605E-18
 -1      3534 7.39513E-05-2.30561E-05-2.15357E-05-2.62118E-05 9.71937E-19 3.96762E-18
 -1      3535 8.20589E-05-2.84056E-05-2.30697E-05-2.73723E-05 1.97536E-19 1.98719E-18
 -1      3536 9.53675E-05-2.43706E-05-3.04223E-05 1.60090E-06 4.46106E-19-1.43302E-18
 -1      3537 1.18104E-04-3.64510E-05-3.50489E-05 9.05671E-06 1.66608E-18-2.80209E-19
 -1      3538 9.80487E-05-3.20353E-05-2.82990E-05-1.08809E-05 1.72304E-18-1.05483E-18
 -1      3539 9.77126E-05-3.26883E-05-2.79310E-05-1.27779E-05 7.54807E-19-1.57126E-18
 -1      3540 9.98821E-05-3.33154E-05-2.84955E-05-9.80475E-06 1.69823E-18 2.00868E-19
 -1      3541 1.15192E-04-4.93119E-05-2.82496E-05-1.97248E-05 8.53849E-20-8.05350E-19
 -1      3542 1.15598E-04-4.73438E-05-2.92083E-05-1.31088E-05-3.44928E-19 2.98778E-21
 -1      3543 1.08192E-04-4.46161E-05-2.71371E-05-2.15308E-05-6.54993E-19-1.11069E-18
 -1      3544 9.39277E-05-2.11838E-05-3.11836E-05-1.22768E-06-5.10407E-19-2.16057E-18
 -1      3545 9.40612E-05-2.14679E-05-3.11253E-05-1.74002E-06-6.16846E-19-2.22706E-18
 -1      3546 9.46032E-05-2.23657E-05-3.09388E-05 8.34493E-07 9.77531E-21-1.84574E-18
 -1      3547 9.38481E-05-2.10247E-05-3.12223E-05 7.99633E-07-6.78671E-20-2.03415E-18
 -1      3548 9.37996E-05-2.09257E-05-3.12414E-05 2.39899E-07-2.67402E-19-2.04240E-18
 -1      3549 1.07343E-04-1.61886E-05-3.91417E-05 5.23670E-06-1.94653E-18 6.33859E-19
 -1      3550 1.21612E-04-4.72221E-05-3.19229E-05-2.38137E-06 4.27917E-20-9.25218E-19
 -1      3551 1.26616E-04-3.85462E-05-3.79855E-05-9.83320E-06-6.71009E-20 1.67736E-18
 -1      3552 1.26274E-04-4.24154E-05-3.60410E-05-6.67221E-06 2.32391E-19 1.95076E-18
 -1      3553 1.21110E-04-3.33528E-05-3.76002E-05-1.17218E-05-4.71294E-20 1.84410E-18
 -1      3554 1.01707E-04-3.44180E-05-2.88138E-05-6.83319E-06 1.29138E-19-2.67785E-19
 -1      3555 1.00867E-04-3.38831E-05-2.86928E-05-8.24904E-06 1.20878E-18-6.26689E-19
 -1      3556 1.01643E-04-3.51072E-05-2.85186E-05-9.79967E-06 1.92216E-18-1.06724E-18
 -1      3557 1.03005E-04-3.57237E-05-2.88571E-05-6.69444E-06 6.57193E-19 8.22416E-20
 -1      3558 9.51057E-05-3.90611E-05-2.39515E-05-3.08137E-05-2.97362E-19-5.46482E-19
 -1      3559 1.27571E-04-4.91755E-05-3.36098E-05 1.46123E-06 3.39017E-19 1.60490E-18
 -1      3560 1.28512E-04-5.24919E-05-3.25965E-05 6.84329E-06 8.78320E-19-4.41370E-19
 -1      3561 1.22810E-04-5.13864E-05-3.06762E-05 1.10988E-05 8.31826E-19-6.11928E-19
 -1      3562 9.41887E-05-2.17152E-05-3.10625E-05-2.05488E-06-6.26132E-19-2.09663E-18
 -1      3563 9.43994E-05-2.21861E-05-3.09604E-05-2.47398E-06-8.22423E-19-1.76861E-18
 -1      3564 9.49520E-05-2.33654E-05-3.06764E-05-1.94572E-06-7.38267E-19-1.49130E-18
 -1      3565 9.47603E-05-2.27758E-05-3.08354E-05-1.48626E-06-4.98008E-19-2.14368E-18
 -1      3566 9.63350E-05-2.70875E-05-2.96722E-05-1.81360E-07-5.37883E-19-9.41072E-19
 -1      3567 9.64203E-05-2.75866E-05-2.95062E-05 1.17208E-07-3.62119E-19-9.13344E-19
 -1      3568 9.38004E-05-2.09250E-05-3.12418E-05-2.21703E-07-3.29343E-19-2.14383E-18
 -1      3569 9.38458E-05-2.10176E-05-3.12235E-05-7.82759E-07-4.99494E-19-2.19376E-18
 -1      3570 9.45940E-05-2.23569E-05-3.09407E-05-8.12031E-07-4.62144E-19-2.07289E-18
 -1      3571 9.45224E-05-2.21909E-05-3.09806E-05 9.30252E-09-2.33998E-19-2.01393E-18
 -1      3572 1.04545E-04-3.64858E-05-2.91552E-05-2.82046E-06-1.22943E-18-3.48603E-18
 -1      3573 1.04821E-04-3.69033E-05-2.91012E-05-4.52484E-06-8.11218E-19-3.60154E-21
 -1      3574 1.05548E-04-3.72639E-05-2.92891E-05-2.02752E-06-1.82348E-18-2.63931E-18
 -1      3575 1.06797E-04-1.51408E-05-3.93791E-05-3.90120E-06-3.70122E-18 9.09369E-19
 -1      3576 1.10218E-04-1.38937E-05-4.14528E-05-6.36950E-06-3.65955E-18 5.91676E-19
 -1      3577 9.65096E-05-2.80060E-05-2.93539E-05 2.98976E-07-4.19372E-19-7.34826E-19
 -1      3578 9.65203E-05-2.83281E-05-2.92289E-05 4.81707E-07-5.69972E-19-6.97100E-19
 -1      3579 9.65629E-05-2.76805E-05-2.95200E-05 1.36258E-07-3.41475E-19-7.39534E-19
 -1      3580 9.65280E-05-2.85891E-05-2.91129E-05 5.83435E-07-4.46918E-19-6.26198E-19
 -1      3581 9.64955E-05-2.87842E-05-2.90210E-05 6.80454E-07-2.83610E-19-6.68909E-19
 -1      3582 9.66579E-05-2.84142E-05-2.92477E-05 4.32266E-07-3.74022E-19-7.35745E-19
 -1      3583 9.64527E-05-2.89322E-05-2.89346E-05 7.24688E-07-3.11058E-19-6.99858E-19
 -1      3584 9.63971E-05-2.90380E-05-2.88687E-05 7.62657E-07-1.68342E-19-7.51304E-19
 -1      3585 9.66224E-05-2.88619E-05-2.90415E-05 5.92110E-07-3.00655E-19-7.90396E-19
 -1      3586 9.63263E-05-2.91075E-05-2.88062E-05 7.68706E-07-2.44699E-19-1.01537E-18
 -1      3587 9.62602E-05-2.91515E-05-2.87605E-05 7.68988E-07-4.06397E-19-1.34114E-18
 -1      3588 9.65096E-05-2.91056E-05-2.88891E-05 6.56414E-07-4.62715E-19-1.04213E-18
 -1      3589 9.61757E-05-2.91674E-05-2.87167E-05 7.52311E-07-4.16862E-19-1.43127E-18
 -1      3590 9.61070E-05-2.91698E-05-2.86865E-05 7.31342E-07-5.10723E-19-1.40679E-18
 -1      3591 9.63555E-05-2.92070E-05-2.87797E-05 6.58725E-07-5.97430E-19-1.26931E-18
 -1      3592 9.60184E-05-2.91505E-05-2.86571E-05 7.03519E-07-6.17764E-19-1.33975E-18
 -1      3593 9.59513E-05-2.91254E-05-2.86385E-05 6.73104E-07-7.07240E-19-1.19202E-18
 -1      3594 9.61839E-05-2.92121E-05-2.87039E-05 6.25807E-07-5.79276E-19-1.26765E-18
 -1      3595 9.58637E-05-2.90832E-05-2.86200E-05 6.42399E-07-7.66238E-19-1.36233E-18
 -1      3596 9.58002E-05-2.90403E-05-2.86101E-05 6.11169E-07-7.83960E-19-1.14429E-18
 -1      3597 9.60094E-05-2.91536E-05-2.86540E-05 5.76985E-07-8.04480E-19-1.33897E-18
 -1      3598 9.57159E-05-2.89836E-05-2.85998E-05 5.83883E-07-6.23067E-19-1.11793E-18
 -1      3599 9.56568E-05-2.89294E-05-2.85961E-05 5.58087E-07-6.11168E-19-1.10727E-18
 -1      3600 9.58391E-05-2.90535E-05-2.86237E-05 5.26813E-07-6.39956E-19-1.13050E-18
 -1      3601 9.55767E-05-2.88639E-05-2.85917E-05 5.38816E-07-5.91955E-19-1.04901E-18
 -1      3602 9.55219E-05-2.88030E-05-2.85924E-05 5.22861E-07-4.57028E-19-9.70775E-19
 -1      3603 9.56763E-05-2.89271E-05-2.86078E-05 4.86327E-07-5.19089E-19-9.59561E-19
 -1      3604 9.54455E-05-2.87325E-05-2.85921E-05 5.15109E-07-3.80142E-19-7.03379E-19
 -1      3605 9.53946E-05-2.86683E-05-2.85956E-05 5.12381E-07 4.18314E-20-5.88118E-19
 -1      3606 9.55212E-05-2.87846E-05-2.86021E-05 4.63601E-07-1.57088E-19-6.03622E-19
 -1      3607 9.53213E-05-2.85956E-05-2.85977E-05 5.19372E-07 4.02348E-19-6.11842E-19
 -1      3608 9.52746E-05-2.85312E-05-2.86028E-05 5.32638E-07 3.40189E-19-2.06678E-19
 -1      3609 9.53725E-05-2.86329E-05-2.86031E-05 4.65586E-07 1.15162E-20-3.36641E-19
 -1      3610 9.52042E-05-2.84595E-05-2.86060E-05 5.57587E-07 3.21488E-19-1.61972E-19
 -1      3611 9.51631E-05-2.83990E-05-2.86115E-05 5.89230E-07 5.68154E-19-4.83152E-19
 -1      3612 9.52294E-05-2.84784E-05-2.86078E-05 4.99031E-07 4.59863E-19-1.13327E-18
 -1      3613 9.50969E-05-2.83330E-05-2.86144E-05 6.35657E-07 3.74873E-19-2.56155E-19
 -1      3614 9.50651E-05-2.82824E-05-2.86191E-05 6.87800E-07-1.86899E-19-8.62289E-19
 -1      3615 9.50930E-05-2.83290E-05-2.86134E-05 5.71125E-07 1.24592E-19-7.00695E-19
 -1      3616 9.50073E-05-2.82294E-05-2.86205E-05 7.59724E-07-5.61614E-19-7.33074E-19
 -1      3617 9.49917E-05-2.81982E-05-2.86232E-05 8.34084E-07-3.57469E-19-7.73411E-19
 -1      3618 9.49684E-05-2.81963E-05-2.86170E-05 6.90182E-07-1.21206E-19-6.81884E-19
 -1      3619 9.49510E-05-2.81696E-05-2.86218E-05 9.35931E-07 1.75356E-19-8.20787E-19
 -1      3620 9.49636E-05-2.81723E-05-2.86216E-05 1.03332E-06 5.57456E-19-6.84000E-19
 -1      3621 9.48677E-05-2.80993E-05-2.86160E-05 8.65914E-07-2.77799E-19 2.35853E-19
 -1      3622 9.49550E-05-2.81855E-05-2.86161E-05 1.16937E-06 9.09244E-19-5.99028E-19
 -1      3623 9.50147E-05-2.82430E-05-2.86122E-05 1.28864E-06 8.34714E-19-4.70874E-19
 -1      3624 9.48140E-05-2.80675E-05-2.86077E-05 1.10906E-06 7.89331E-19 8.52568E-20
 -1      3625 9.50625E-05-2.83231E-05-2.86020E-05 1.46164E-06 4.72594E-19 7.23827E-20
 -1      3626 9.51966E-05-2.84637E-05-2.85945E-05 1.59774E-06 6.66117E-19-1.75080E-19
 -1      3627 9.48458E-05-2.81447E-05-2.85902E-05 1.42977E-06 7.21478E-19 3.52620E-19
 -1      3628 9.53376E-05-2.86444E-05-2.85800E-05 1.80604E-06 7.27985E-19-1.34205E-19
 -1      3629 9.55829E-05-2.89040E-05-2.85703E-05 1.94670E-06 7.46423E-19 3.26807E-19
 -1      3630 9.50229E-05-2.83928E-05-2.85628E-05 1.83380E-06 8.00328E-19 1.10521E-18
 -1      3631 9.58682E-05-2.92270E-05-2.85540E-05 2.17913E-06 9.70425E-19-1.65168E-19
 -1      3632 9.62701E-05-2.96457E-05-2.85465E-05 2.29987E-06 7.18073E-19 8.61675E-19
 -1      3633 9.54322E-05-2.88931E-05-2.85282E-05 2.31483E-06 8.36156E-19 4.91630E-19
 -1      3634 9.67665E-05-3.01566E-05-2.85350E-05 2.52718E-06 7.94811E-20 1.12571E-18
 -1      3635 9.73733E-05-3.07701E-05-2.85382E-05 2.58439E-06 8.03733E-19 1.05744E-18
 -1      3636 9.61910E-05-2.97436E-05-2.84952E-05 2.84089E-06 8.98131E-19 7.17786E-19
 -1      3637 9.81577E-05-3.15070E-05-2.85444E-05 2.74750E-06 1.37226E-18 6.25197E-19
 -1      3638 9.90077E-05-3.23295E-05-2.85739E-05 2.67130E-06 1.42968E-18 7.26154E-19
 -1      3639 9.74439E-05-3.10438E-05-2.84828E-05 3.33293E-06 7.72225E-19 5.61904E-19
 -1      3640 1.00153E-04-3.33009E-05-2.86209E-05 2.66415E-06 1.00562E-18 5.45668E-19
 -1      3641 1.01247E-04-3.42888E-05-2.87014E-05 2.35279E-06 1.02446E-18 7.96962E-19
 -1      3642 9.93461E-05-3.28639E-05-2.85270E-05 3.63573E-06 1.04347E-18-3.46254E-19
 -1      3643 1.02783E-04-3.54280E-05-2.88253E-05 2.01851E-06 7.48160E-19-2.26097E-20
 -1      3644 1.04047E-04-3.64386E-05-2.89920E-05 1.35345E-06 3.92898E-19-3.43079E-19
 -1      3645 1.02011E-04-3.51677E-05-2.86889E-05 3.48116E-06 4.17292E-19-1.01722E-18
 -1      3646 1.05889E-04-3.75385E-05-2.92470E-05 4.87684E-07 9.83141E-20-8.01141E-20
 -1      3647 1.07119E-04-3.82550E-05-2.95446E-05-6.18559E-07-4.08606E-19 2.10008E-19
 -1      3648 1.05405E-04-3.76816E-05-2.90622E-05 2.49399E-06 1.24469E-19-1.16314E-18
 -1      3649 1.08995E-04-3.89199E-05-2.99955E-05-2.15980E-06-7.64830E-19 3.39893E-19
 -1      3650 1.09843E-04-3.88485E-05-3.04653E-05-3.67153E-06-6.00152E-19 1.48400E-19
 -1      3651 1.09193E-04-3.97676E-05-2.97777E-05 2.60410E-07-4.85453E-19-2.24662E-19
 -1      3652 1.11194E-04-3.84531E-05-3.11701E-05-5.79192E-06-5.82707E-20 6.17230E-19
 -1      3653 1.11246E-04-3.70416E-05-3.18261E-05-7.36123E-06 3.80025E-19 8.88812E-19
 -1      3654 1.12558E-04-4.02639E-05-3.09756E-05-3.39356E-06-2.38719E-19 8.07940E-19
 -1      3655 1.11400E-04-3.50139E-05-3.27894E-05-9.41938E-06 4.01580E-19 1.39465E-18
 -1      3656 1.10433E-04-3.20481E-05-3.35818E-05-1.03129E-05-2.39015E-19 1.92344E-18
 -1      3657 1.14200E-04-3.76760E-05-3.27478E-05-7.84614E-06 3.52013E-19 8.20017E-19
 -1      3658 1.09103E-04-2.84574E-05-3.46813E-05-1.10499E-05-8.96022E-19 2.21975E-18
 -1      3659 1.07421E-04-2.46519E-05-3.54379E-05-1.04070E-05-1.49623E-18 2.42036E-18
 -1      3660 1.13036E-04-3.12911E-05-3.49859E-05-1.11458E-05 1.45339E-19 1.87577E-18
 -1      3661 1.05682E-04-2.03224E-05-3.66863E-05-8.42931E-06-2.85653E-18 2.02834E-18
 -1      3662 1.04292E-04-1.75588E-05-3.71753E-05-5.92173E-06-3.24597E-18 1.09095E-18
 -1      3663 1.03435E-04-1.58994E-05-3.75595E-05-1.76107E-06-3.71120E-18 7.44152E-19
 -1      3664 1.03427E-04-1.60080E-05-3.75825E-05 1.67999E-06-2.45322E-18-1.83962E-19
 -1      3665 1.04721E-04-1.83792E-05-3.69957E-05 6.00363E-06-8.73714E-19-2.10794E-19
 -1      3666 1.06087E-04-2.13158E-05-3.65052E-05 8.61985E-06-4.41130E-19-2.43641E-19
 -1      3667 1.08503E-04-2.53127E-05-3.56308E-05 9.98318E-06-1.15031E-19-3.02732E-19
 -1      3668 1.10306E-04-2.91520E-05-3.48314E-05 1.09073E-05 6.09222E-19-8.77040E-19
 -1      3669 1.11734E-04-3.71495E-05-3.19825E-05 7.02091E-06 1.75077E-18-1.07134E-18
 -1      3670 1.11747E-04-3.86857E-05-3.13117E-05 5.37311E-06 1.26357E-18-1.21122E-18
 -1      3671 1.10466E-04-3.91275E-05-3.06093E-05 3.14328E-06 1.04135E-18-1.20854E-18
 -1      3672 1.09611E-04-3.92186E-05-3.01512E-05 1.57219E-06 6.06553E-19-1.73654E-18
 -1      3673 1.13341E-04-4.06702E-05-3.11446E-05 2.95123E-06 8.75362E-19-1.10319E-18
 -1      3674 1.08286E-04-3.88169E-05-2.98012E-05 1.46244E-07-1.05142E-18-2.09532E-18
 -1      3675 1.07014E-04-3.81314E-05-2.95065E-05-1.06312E-06-1.78341E-18-3.15086E-18
 -1      3676 1.07804E-04-3.90275E-05-2.94703E-05-2.97038E-06-1.44182E-18-3.22118E-18
 -1      3677 1.10596E-04-4.04519E-05-3.00655E-05-6.54088E-07-8.47040E-19-3.13715E-18
 -1      3678 1.09701E-04-2.22750E-05-3.75137E-05-1.02262E-05-2.61223E-18 1.32763E-18
 -1      3679 1.10761E-04-1.63778E-05-4.05604E-05-9.09617E-06-4.05686E-18 7.34940E-19
 -1      3680 9.52310E-05-2.84378E-05-2.86249E-05-5.22878E-07-5.92073E-19-5.63699E-19
 -1      3681 9.53004E-05-2.85337E-05-2.86155E-05-5.12308E-07-5.94418E-19-5.20005E-19
 -1      3682 9.53899E-05-2.86299E-05-2.86104E-05-5.14216E-07-4.19125E-19-3.02784E-19
 -1      3683 9.54518E-05-2.87112E-05-2.86040E-05-5.18111E-07-2.46534E-19-3.93873E-19
 -1      3684 9.53598E-05-2.85843E-05-2.86179E-05-4.51785E-07-4.60617E-19-5.04540E-19
 -1      3685 9.48109E-05-2.79284E-05-2.86644E-05-6.15884E-07 1.38748E-19-2.80234E-19
 -1      3686 9.49216E-05-2.80717E-05-2.86521E-05-5.75051E-07 1.91347E-19-2.41687E-19
 -1      3687 9.45011E-05-2.75761E-05-2.86838E-05-6.91216E-07 6.14039E-19-5.56023E-19
 -1      3688 9.46536E-05-2.77582E-05-2.86721E-05-6.38342E-07 3.95157E-19-3.17032E-19
 -1      3689 9.46749E-05-2.77987E-05-2.86582E-05-5.10951E-07 3.16918E-19-6.58813E-19
 -1      3690 9.40755E-05-2.71242E-05-2.86970E-05-7.68754E-07 1.10095E-18-9.36883E-19
 -1      3691 9.42924E-05-2.73602E-05-2.86884E-05-7.10561E-07 1.17304E-18-9.04051E-19
 -1      3692 9.43163E-05-2.74121E-05-2.86685E-05-5.37431E-07 1.08351E-18-1.07416E-18
 -1      3693 9.34783E-05-2.65366E-05-2.86957E-05-8.20535E-07 1.29117E-19-5.74498E-19
 -1      3694 9.37923E-05-2.68464E-05-2.86948E-05-7.70823E-07 6.12900E-19-4.75949E-19
 -1      3695 9.38353E-05-2.69259E-05-2.86684E-05-5.33953E-07 4.55243E-19-7.51536E-19
 -1      3696 9.26840E-05-2.58144E-05-2.86693E-05-8.03270E-07 3.96854E-19-1.16148E-18
 -1      3697 9.31121E-05-2.61981E-05-2.86818E-05-7.83922E-07 2.98576E-19-9.03879E-19
 -1      3698 9.32004E-05-2.63288E-05-2.86491E-05-4.61410E-07 3.45756E-19-9.92233E-19
 -1      3699 9.15147E-05-2.48370E-05-2.85940E-05-6.39410E-07-2.18326E-20-7.84344E-19
 -1      3700 9.21628E-05-2.53607E-05-2.86339E-05-6.89383E-07 3.69821E-19-7.83949E-19
 -1      3701 9.23374E-05-2.55786E-05-2.85965E-05-2.56980E-07 2.35643E-19-1.29222E-18
 -1      3702 8.98738E-05-2.35907E-05-2.84352E-05-2.02159E-07 4.77244E-19-5.93520E-19
 -1      3703 9.08059E-05-2.42636E-05-2.85222E-05-3.88221E-07 3.13651E-19-6.41594E-19
 -1      3704 9.11390E-05-2.46265E-05-2.84851E-05 1.93516E-07 1.33712E-20-1.17219E-18
 -1      3705 8.76022E-05-2.20521E-05-2.81361E-05 6.99349E-07 4.84620E-19-2.09774E-19
 -1      3706 8.89268E-05-2.28898E-05-2.83041E-05 2.75374E-07 7.42590E-19-2.14333E-19
 -1      3707 8.95295E-05-2.34813E-05-2.82790E-05 1.04753E-06 4.81602E-19 1.67794E-19
 -1      3708 8.45187E-05-2.02465E-05-2.76065E-05 2.35149E-06-2.34851E-19-5.90450E-20
 -1      3709 8.63668E-05-2.12390E-05-2.79101E-05 1.53561E-06-1.05287E-19-2.52207E-19
 -1      3710 8.74146E-05-2.21800E-05-2.79217E-05 2.54270E-06 1.74225E-19 7.93097E-19
 -1      3711 8.04082E-05-1.82842E-05-2.66918E-05 5.17247E-06 3.96392E-19-7.07297E-19
 -1      3712 8.29574E-05-1.93836E-05-2.72312E-05 3.70010E-06 9.93221E-20-2.92330E-19
 -1      3713 8.46789E-05-2.08250E-05-2.73292E-05 5.03278E-06-1.75187E-19-4.17131E-20
 -1      3714 9.64102E-05-2.90275E-05-2.88789E-05-7.61101E-07-1.32871E-19-6.36612E-19
 -1      3715 9.64639E-05-2.89158E-05-2.89464E-05-7.19167E-07-3.86363E-19-6.23003E-19
 -1      3716 9.57862E-05-2.52670E-05-3.02029E-05 1.08915E-06 4.18683E-19-1.30843E-18
 -1      3717 9.53279E-05-2.42044E-05-3.04973E-05 1.34990E-06 3.09290E-19-1.45113E-18
 -1      3718 9.59116E-05-2.57085E-05-3.00840E-05-9.07429E-07-8.40800E-19-1.00176E-18
 -1      3719 9.61197E-05-2.64460E-05-2.98676E-05-4.66643E-07-8.08667E-19-1.13343E-18
 -1      3720 9.62648E-05-2.65564E-05-2.98713E-05-3.38212E-07-5.35042E-19-1.04057E-18
 -1      3721 1.18661E-04-4.68935E-05-3.06621E-05-5.40101E-06-1.64999E-19-1.35354E-18
 -1      3722 1.19012E-04-4.42520E-05-3.21638E-05 1.80952E-06 1.21190E-19-1.07074E-18
 -1      3723 1.12527E-04-2.16777E-05-3.90966E-05-1.11424E-05-2.84403E-18 8.51751E-19
 -1      3724 1.15468E-04-2.82076E-05-3.75074E-05-1.25029E-05-7.80753E-19 1.04241E-18
 -1      3725 8.41589E-05-2.42122E-05-2.54586E-05-1.77869E-05-4.16906E-19 3.67841E-18
 -1      3726 7.70361E-05-1.92867E-05-2.47984E-05-1.40995E-05-8.23746E-19 5.69880E-18
 -1      3727 9.52401E-05-2.38909E-05-3.05845E-05 1.08204E-06 1.49807E-19-1.49844E-18
 -1      3728 9.62769E-05-2.91504E-05-2.87681E-05-7.72646E-07 5.20454E-20-5.00595E-19
 -1      3729 9.63414E-05-2.91022E-05-2.88149E-05-7.69863E-07 1.15140E-19-5.21586E-19
 -1      3730 9.65237E-05-2.90958E-05-2.88994E-05-6.56548E-07-1.72923E-19-5.81980E-19
 -1      3731 9.00524E-05-3.32497E-05-2.41011E-05-2.73379E-05-8.10814E-19-7.53237E-19
 -1      3732 9.85508E-05-3.88202E-05-2.57690E-05-2.51298E-05-1.43303E-18-6.65913E-19
 -1      3733 8.72691E-05-2.91308E-05-2.49357E-05-2.27590E-05-2.91558E-19 1.75741E-18
 -1      3734 9.50447E-05-2.82088E-05-2.86437E-05-5.57470E-07 2.09850E-19-4.29066E-19
 -1      3735 9.51293E-05-2.83244E-05-2.86323E-05-5.31508E-07-3.05745E-20-5.88937E-19
 -1      3736 9.49502E-05-2.81107E-05-2.86437E-05-4.79728E-07-6.54461E-20-1.01601E-18
 -1      3737 9.46818E-05-3.20868E-05-2.67679E-05-1.80592E-05 2.52753E-20-5.10443E-19
 -1      3738 8.99315E-05-2.88313E-05-2.62486E-05-1.79824E-05-2.86668E-19 2.60138E-19
 -1      3739 9.58248E-05-2.90507E-05-2.86161E-05-6.22136E-07 1.95934E-19 2.48853E-19
 -1      3740 9.58883E-05-2.90941E-05-2.86259E-05-6.52805E-07 4.28874E-19 4.69011E-19
 -1      3741 9.50585E-05-2.33718E-05-3.07297E-05-4.66118E-07-3.16473E-19-2.01991E-18
 -1      3742 9.51174E-05-2.35229E-05-3.06907E-05-8.19926E-07-4.16151E-19-2.07215E-18
 -1      3743 1.18975E-04-4.96700E-05-2.96148E-05 1.31545E-05 1.46757E-18-7.50743E-19
 -1      3744 1.14031E-04-4.69576E-05-2.87982E-05 1.45727E-05 1.55229E-18-7.79333E-19
 -1      3745 1.20207E-04-4.88455E-05-3.05986E-05 8.35858E-06 1.14710E-18 6.78712E-19
 -1      3746 7.02604E-05-1.31994E-05-2.42019E-05-6.94258E-06-4.54784E-19 1.40100E-18
 -1      3747 9.57397E-05-2.89925E-05-2.86062E-05-5.94289E-07 3.53927E-20 4.35495E-19
 -1      3748 9.58639E-05-2.90633E-05-2.86301E-05-5.37139E-07 1.88781E-20-3.46646E-19
 -1      3749 9.56792E-05-2.89351E-05-2.86033E-05-5.68426E-07-7.36845E-20 2.14370E-19
 -1      3750 1.14099E-04-3.28962E-05-3.48788E-05 1.05323E-05 1.52580E-18-4.94955E-19
 -1      3751 1.10421E-04-3.24335E-05-3.34648E-05 9.48753E-06 1.73115E-18-7.57072E-19
 -1      3752 1.11342E-04-3.51151E-05-3.27172E-05 8.78146E-06 2.04670E-18-7.50000E-19
 -1      3753 9.51713E-05-2.83677E-05-2.86292E-05-4.57721E-07-2.61710E-19-1.69294E-18
 -1      3754 7.26970E-05-1.58025E-05-2.42234E-05-1.20176E-05-5.84254E-20 2.78545E-18
 -1      3755 9.51825E-05-2.36862E-05-3.06546E-05 8.53000E-07 8.19122E-20-1.85707E-18
 -1      3756 9.51196E-05-2.35036E-05-3.06986E-05 5.04725E-07-5.48943E-20-1.83164E-18
 -1      3757 9.57450E-05-2.48746E-05-3.03548E-05 7.04362E-07 1.22505E-19-1.52469E-18
 -1      3758 1.17714E-04-3.92176E-05-3.35730E-05 7.45340E-06 1.64864E-18 1.13934E-19
 -1      3759 9.60200E-05-2.60819E-05-2.99791E-05 6.24939E-07 4.24139E-19-1.27016E-18
 -1      3760 1.14352E-04-3.79118E-05-3.26920E-05 7.34799E-06 1.68146E-18-3.12641E-19
 -1      3761 9.53196E-05-2.41831E-05-3.04889E-05-1.63250E-06-7.55774E-19-1.33915E-18
 -1      3762 9.56477E-05-2.50821E-05-3.02472E-05-1.16079E-06-8.15997E-19-1.12198E-18
 -1      3763 9.57845E-05-2.52196E-05-3.02379E-05-8.89409E-07-7.14323E-19-1.52114E-18
 -1      3764 9.52019E-05-2.38444E-05-3.05827E-05-1.44840E-06-6.40294E-19-1.80444E-18
 -1      3765 9.55312E-05-2.87701E-05-2.86123E-05-4.64130E-07-1.40164E-19-9.83289E-20
 -1      3766 9.55360E-05-2.87941E-05-2.86024E-05-5.30378E-07-1.18198E-19-1.95022E-19
 -1      3767 9.55956E-05-2.88637E-05-2.86000E-05-5.46709E-07-9.03015E-20 5.30476E-20
 -1      3768 9.66313E-05-2.88417E-05-2.90540E-05-5.86447E-07-3.72310E-19-6.95528E-19
 -1      3769 9.65032E-05-2.87630E-05-2.90334E-05-6.72336E-07-3.79743E-19-5.94441E-19
 -1      3770 9.65336E-05-2.85630E-05-2.91262E-05-5.72156E-07-1.46921E-19-7.94660E-19
 -1      3771 7.95899E-05-1.82312E-05-2.62280E-05 7.47655E-06 7.80612E-19-4.33224E-19
 -1      3772 8.21632E-05-2.03584E-05-2.65096E-05 9.04286E-06 2.88861E-19-1.02868E-18
 -1      3773 7.73366E-05-1.79421E-05-2.55275E-05 1.02450E-05 6.94075E-19 5.09212E-21
 -1      3774 1.03098E-04-3.98929E-05-2.70107E-05-2.00883E-05-1.77404E-18-1.37967E-18
 -1      3775 7.52314E-05-1.93652E-05-2.40574E-05 1.71730E-05 9.54001E-19-1.77374E-19
 -1      3776 7.73497E-05-1.87826E-05-2.49742E-05 1.33354E-05 1.15456E-18 4.60442E-20
 -1      3777 8.13546E-05-2.18322E-05-2.55722E-05 1.47115E-05 8.80211E-19-5.02288E-19
 -1      3778 9.64098E-05-2.75394E-05-2.95223E-05-1.03496E-07 2.53766E-19-9.25455E-19
 -1      3779 9.63270E-05-2.70378E-05-2.96889E-05 2.16126E-07 3.75686E-19-9.69358E-19
 -1      3780 1.05821E-04-4.21671E-05-2.73681E-05 1.87846E-05 1.54981E-18-9.72548E-19
 -1      3781 1.00828E-04-3.95583E-05-2.61316E-05 2.33483E-05 1.72877E-18-1.88786E-18
 -1      3782 1.06409E-04-3.84982E-05-2.91171E-05-5.79670E-06-2.72843E-19-1.63798E-18
 -1      3783 1.04887E-04-3.72513E-05-2.89678E-05-6.36836E-06 8.02703E-19-1.28990E-19
 -1      3784 1.04450E-04-3.72265E-05-2.88235E-05-8.03759E-06 1.30998E-18-2.06204E-18
 -1      3785 9.61282E-05-2.91754E-05-2.86932E-05-7.38698E-07 5.52730E-20-4.95551E-20
 -1      3786 9.61950E-05-2.91701E-05-2.87237E-05-7.57848E-07 4.07564E-20-4.44483E-19
 -1      3787 9.63745E-05-2.92067E-05-2.87880E-05-6.63875E-07-6.32015E-20-6.51539E-19
 -1      3788 1.16774E-04-3.21475E-05-3.63233E-05-1.11559E-05 3.36682E-19 1.17553E-18
 -1      3789 9.59753E-05-2.91353E-05-2.86445E-05-6.83019E-07 6.49269E-20 1.52108E-19
 -1      3790 9.60409E-05-2.91586E-05-2.86632E-05-7.11975E-07 3.70637E-20 1.55516E-19
 -1      3791 9.62069E-05-2.92186E-05-2.87111E-05-6.33960E-07-1.21594E-19-5.59866E-19
 -1      3792 9.60343E-05-2.91637E-05-2.86604E-05-5.87069E-07 1.66948E-19-2.34094E-19
 -1      3793 1.18024E-04-4.17470E-05-3.26756E-05 5.20968E-06 1.31111E-18-1.90616E-20
 -1      3794 1.15619E-04-4.24447E-05-3.14270E-05 1.84269E-06 4.24855E-19-9.95017E-19
 -1      3795 1.25948E-04-4.60214E-05-3.43335E-05-3.21708E-06 2.98419E-19 2.31625E-18
 -1      3796 1.22988E-04-4.73904E-05-3.24557E-05 1.12393E-06 2.67093E-19 2.01570E-18
 -1      3797 1.22138E-04-4.11785E-05-3.46492E-05-7.06467E-06 6.14996E-19 1.38062E-18
 -1      3798 9.51187E-05-2.36112E-05-3.06499E-05-1.20582E-06-5.74377E-19-2.05673E-18
 -1      3799 9.65192E-05-2.82933E-05-2.92434E-05-4.64977E-07 1.33813E-19-9.22385E-19
 -1      3800 9.65116E-05-2.79707E-05-2.93687E-05-2.75700E-07 2.13475E-19-9.52569E-19
 -1      3801 9.65628E-05-2.76539E-05-2.95364E-05-1.23646E-07 2.63574E-19-9.01856E-19
 -1      3802 9.66558E-05-2.83789E-05-2.92620E-05-4.21827E-07-6.81922E-20-9.31166E-19
 -1      3803 9.55597E-05-2.44862E-05-3.04533E-05-8.39733E-07-5.13744E-19-2.03060E-18
 -1      3804 8.11406E-05-2.47356E-05-2.41482E-05 2.22807E-05 1.74522E-18-1.37198E-18
 -1      3805 9.15744E-05-3.30664E-05-2.50851E-05 2.38655E-05 2.17796E-18-2.07867E-18
 -1      3806 9.97583E-05-3.47199E-05-2.78196E-05-1.42187E-05 8.38903E-19-2.27278E-18
 -1      3807 9.98279E-05-3.67088E-05-2.70552E-05-1.84980E-05-1.53733E-18-1.33579E-18
 -1      3808 1.07621E-04-4.20670E-05-2.81928E-05-1.52030E-05-1.09910E-18-1.22850E-18
 -1      3809 1.02311E-04-3.65330E-05-2.81908E-05-1.28042E-05 4.65211E-19-4.11565E-19
 -1      3810 9.65981E-05-2.73909E-05-2.96582E-05-3.24180E-09-2.57493E-19-1.17174E-18
 -1      3811 9.66910E-05-2.78620E-05-2.95022E-05 1.89862E-07-3.45408E-19-1.10252E-18
 -1      3812 9.50362E-05-2.33071E-05-3.07499E-05-1.84999E-07-2.37591E-19-1.95094E-18
 -1      3813 9.55662E-05-2.43394E-05-3.05100E-05-2.40301E-07-1.34026E-19-1.86266E-18
 -1      3814 9.50402E-05-2.33172E-05-3.07498E-05 1.95125E-07-5.09951E-20-1.79625E-18
 -1      3815 9.67642E-05-2.82524E-05-2.93598E-05 2.83724E-07-3.64984E-19-1.02306E-18
 -1      3816 9.67733E-05-2.85528E-05-2.92398E-05 3.99330E-07-3.62902E-19-9.78856E-19
 -1      3817 9.67926E-05-2.79863E-05-2.94873E-05 1.67004E-07-3.17934E-19-1.25764E-18
 -1      3818 9.67663E-05-2.87907E-05-2.91302E-05 4.48114E-07-4.63023E-19-1.13394E-18
 -1      3819 9.67246E-05-2.89665E-05-2.90402E-05 5.07196E-07-5.89262E-19-1.29861E-18
 -1      3820 9.68549E-05-2.86450E-05-2.92329E-05 3.18853E-07-6.35077E-19-1.34594E-18
 -1      3821 9.66670E-05-2.90947E-05-2.89579E-05 5.23962E-07-5.37563E-19-1.27449E-18
 -1      3822 9.65970E-05-2.91824E-05-2.88920E-05 5.44926E-07-4.25558E-19-1.39040E-18
 -1      3823 9.67889E-05-2.90351E-05-2.90386E-05 3.95536E-07-5.22898E-19-1.44479E-18
 -1      3824 9.65119E-05-2.92346E-05-2.88318E-05 5.40417E-07-4.48823E-19-1.32175E-18
 -1      3825 9.64276E-05-2.92607E-05-2.87852E-05 5.37296E-07-4.99169E-19-1.32249E-18
 -1      3826 9.66466E-05-2.92317E-05-2.88939E-05 4.20967E-07-4.36510E-19-1.25438E-18
 -1      3827 9.63291E-05-2.92610E-05-2.87425E-05 5.22040E-07-5.34109E-19-1.22791E-18
 -1      3828 9.62408E-05-2.92466E-05-2.87108E-05 5.05976E-07-7.62986E-19-1.25189E-18
 -1      3829 9.64634E-05-2.92924E-05-2.87894E-05 4.13541E-07-5.54094E-19-1.31930E-18
 -1      3830 9.61381E-05-2.92126E-05-2.86818E-05 4.85610E-07-8.73533E-19-1.05017E-18
 -1      3831 9.60505E-05-2.91710E-05-2.86615E-05 4.64862E-07-7.17542E-19-8.52148E-19
 -1      3832 9.62637E-05-2.92632E-05-2.87163E-05 3.88825E-07-7.03133E-19-7.82515E-19
 -1      3833 9.59489E-05-2.91146E-05-2.86430E-05 4.44787E-07-5.85987E-19-9.78371E-19
 -1      3834 9.58645E-05-2.90552E-05-2.86313E-05 4.25359E-07-5.87608E-19-9.70327E-19
 -1      3835 9.60612E-05-2.91737E-05-2.86676E-05 3.58235E-07-5.88691E-19-8.34583E-19
 -1      3836 9.57658E-05-2.89844E-05-2.86207E-05 4.10184E-07-5.14269E-19-7.73963E-19
 -1      3837 9.56856E-05-2.89140E-05-2.86152E-05 3.96764E-07-4.63163E-19-9.16540E-19
 -1      3838 9.58623E-05-2.90439E-05-2.86376E-05 3.30851E-07-5.24721E-19-1.12526E-18
 -1      3839 9.55900E-05-2.88341E-05-2.86101E-05 3.89244E-07-2.62752E-19-1.09172E-18
 -1      3840 9.55134E-05-2.87565E-05-2.86089E-05 3.85450E-07 2.14508E-20-9.42756E-19
 -1      3841 9.56698E-05-2.88888E-05-2.86213E-05 3.13753E-07-2.90624E-19-9.38398E-19
 -1      3842 9.54197E-05-2.86706E-05-2.86076E-05 3.88872E-07 2.16788E-20-6.52670E-19
 -1      3843 9.53461E-05-2.85890E-05-2.86090E-05 3.98191E-07 5.49734E-20-5.10326E-19
 -1      3844 9.54822E-05-2.87166E-05-2.86144E-05 3.13330E-07 1.99293E-20-6.30799E-19
 -1      3845 9.52529E-05-2.84996E-05-2.86097E-05 4.16254E-07 2.85930E-19-5.23483E-19
 -1      3846 9.51822E-05-2.84170E-05-2.86122E-05 4.42208E-07 5.97104E-19-4.83602E-19
 -1      3847 9.52967E-05-2.85327E-05-2.86134E-05 3.36539E-07 2.22343E-19-3.41894E-20
 -1      3848 9.50885E-05-2.83274E-05-2.86134E-05 4.79392E-07 3.69578E-19-5.80368E-19
 -1      3849 9.50220E-05-2.82480E-05-2.86157E-05 5.26058E-07-6.87973E-20-1.87566E-19
 -1      3850 9.51109E-05-2.83426E-05-2.86149E-05 3.91753E-07 2.60415E-19 4.79667E-20
 -1      3851 9.49284E-05-2.81627E-05-2.86157E-05 5.88347E-07-1.05928E-19-3.11409E-19
 -1      3852 9.48703E-05-2.80935E-05-2.86163E-05 6.60656E-07-5.97687E-20-1.34456E-19
 -1      3853 9.49241E-05-2.81535E-05-2.86158E-05 4.89867E-07-1.78592E-19-9.93627E-21
 -1      3854 9.47805E-05-2.80206E-05-2.86135E-05 7.55997E-07-7.69836E-20-6.30632E-20
 -1      3855 9.47393E-05-2.79727E-05-2.86110E-05 8.59853E-07 2.29394E-19 2.80265E-19
 -1      3856 9.47400E-05-2.79772E-05-2.86126E-05 6.45626E-07 1.79072E-19-2.22232E-19
 -1      3857 9.46619E-05-2.79252E-05-2.86037E-05 9.98436E-07 4.30174E-19 4.12641E-19
 -1      3858 9.46529E-05-2.79162E-05-2.85969E-05 1.14047E-06 5.78688E-19-1.47153E-19
 -1      3859 9.45704E-05-2.78338E-05-2.86019E-05 8.78583E-07 1.94489E-19 1.83672E-19
 -1      3860 9.46046E-05-2.79148E-05-2.85835E-05 1.33459E-06 8.69939E-19-1.79312E-19
 -1      3861 9.46521E-05-2.79708E-05-2.85713E-05 1.52114E-06 8.24815E-19 2.56463E-19
 -1      3862 9.44395E-05-2.77566E-05-2.85801E-05 1.21365E-06 4.92938E-19 2.15964E-19
 -1      3863 9.46612E-05-2.80461E-05-2.85506E-05 1.78389E-06 6.49592E-19 4.88186E-19
 -1      3864 9.48022E-05-2.82041E-05-2.85334E-05 2.01857E-06 8.82910E-19 4.41446E-19
 -1      3865 9.43908E-05-2.77971E-05-2.85442E-05 1.68022E-06 1.13955E-18 1.10545E-19
 -1      3866 9.49138E-05-2.83992E-05-2.85055E-05 2.36052E-06 5.35265E-19 6.92517E-19
 -1      3867 9.52001E-05-2.87079E-05-2.84853E-05 2.63951E-06 8.08328E-19 4.47271E-19
 -1      3868 9.44956E-05-2.80315E-05-2.84925E-05 2.30816E-06 8.16943E-19 2.76877E-19
 -1      3869 9.54812E-05-2.90794E-05-2.84532E-05 3.06169E-06 8.44298E-19-8.86693E-20
 -1      3870 9.59806E-05-2.95980E-05-2.84361E-05 3.36539E-06 8.08229E-19 2.33341E-19
 -1      3871 9.48637E-05-2.85661E-05-2.84270E-05 3.11853E-06 6.58036E-19-3.67084E-19
 -1      3872 9.65259E-05-3.02135E-05-2.84077E-05 3.84522E-06 5.33513E-19-4.07709E-20
 -1      3873 9.73165E-05-3.10012E-05-2.84066E-05 4.12509E-06 9.15224E-19-2.07222E-19
 -1      3874 9.56549E-05-2.95401E-05-2.83577E-05 4.10373E-06 6.77085E-19-1.07495E-18
 -1      3875 9.82466E-05-3.19272E-05-2.83992E-05 4.59818E-06 1.12784E-18-1.93910E-19
 -1      3876 9.94071E-05-3.30290E-05-2.84371E-05 4.76061E-06 6.24048E-19-8.21063E-19
 -1      3877 9.70837E-05-3.11129E-05-2.83086E-05 5.19195E-06 4.88657E-19-8.54077E-19
 -1      3878 1.00853E-04-3.42972E-05-2.84843E-05 5.07896E-06 4.73898E-19-8.18464E-19
 -1      3879 1.02413E-04-3.56722E-05-2.85998E-05 4.97567E-06 7.93432E-19-9.53324E-19
 -1      3880 9.93995E-05-3.34324E-05-2.83289E-05 6.18499E-06 9.47280E-19-8.30031E-19
 -1      3881 1.04509E-04-3.72802E-05-2.87554E-05 4.86968E-06 3.37335E-19-6.74350E-19
 -1      3882 1.06359E-04-3.87208E-05-2.90092E-05 4.21794E-06-3.81115E-20-7.04657E-19
 -1      3883 1.02936E-04-3.65614E-05-2.85179E-05 6.70095E-06 5.58636E-19-9.15500E-19
 -1      3884 1.09013E-04-4.03266E-05-2.93708E-05 3.44037E-06 2.45259E-20-8.00051E-19
 -1      3885 1.10950E-04-4.14361E-05-2.98364E-05 2.06483E-06-3.46986E-19 1.42159E-20
 -1      3886 1.07587E-04-3.99907E-05-2.90080E-05 6.06102E-06 2.84797E-19-2.52058E-20
 -1      3887 1.13788E-04-4.24395E-05-3.05207E-05 1.24803E-07-4.08670E-19 1.01387E-18
 -1      3888 1.15203E-04-4.23471E-05-3.12801E-05-1.96866E-06 5.40710E-19 1.27970E-18
 -1      3889 1.13242E-04-4.31984E-05-3.00410E-05 3.55582E-06 3.52850E-19 1.30845E-18
 -1      3890 1.17705E-04-4.20407E-05-3.24218E-05-4.71017E-06 3.10221E-19 1.19821E-18
 -1      3891 1.17923E-04-3.98032E-05-3.35354E-05-7.01383E-06 2.69237E-19 8.74121E-19
 -1      3892 1.18135E-04-3.66944E-05-3.49939E-05-1.00165E-05 5.70136E-19 1.00958E-18
 -1      3893 9.61488E-05-2.62085E-05-2.99776E-05 4.71605E-07 2.93050E-19-8.93356E-19
 -1      3894 9.36519E-05-2.68292E-05-2.86446E-05-2.73728E-07 3.12370E-19-1.15121E-18
 -1      3895 9.39341E-05-2.70867E-05-2.86500E-05-3.04804E-07 9.27618E-19-9.87916E-19
 -1      3896 9.41682E-05-2.73152E-05-2.86552E-05-3.55734E-07 8.40495E-19-1.00958E-18
 -1      3897 9.43765E-05-2.75228E-05-2.86530E-05-3.57392E-07 4.92252E-19-1.45394E-18
 -1      3898 9.40359E-05-2.72087E-05-2.86355E-05-1.20082E-07 5.92330E-19-9.07736E-19
 -1      3899 9.45613E-05-2.77112E-05-2.86522E-05-3.78877E-07 4.71853E-19-1.42070E-18
 -1      3900 9.47187E-05-2.78802E-05-2.86464E-05-3.69310E-07 2.61375E-19-1.16411E-18
 -1      3901 9.44473E-05-2.76098E-05-2.86414E-05-2.11312E-07 5.47842E-19-1.80163E-18
 -1      3902 9.30061E-05-2.62665E-05-2.86128E-05-9.43085E-08 4.83900E-19-1.49883E-18
 -1      3903 9.33689E-05-2.65674E-05-2.86299E-05-1.74838E-07 3.92699E-19-1.27302E-18
 -1      3904 9.35279E-05-2.67472E-05-2.86138E-05 5.75224E-08 5.92121E-19-1.29684E-18
 -1      3905 9.21123E-05-2.55534E-05-2.85409E-05 2.81082E-07-2.95431E-19-7.07597E-19
 -1      3906 9.26298E-05-2.59389E-05-2.85810E-05 9.73091E-08 2.11821E-20-1.39474E-18
 -1      3907 9.28831E-05-2.62096E-05-2.85659E-05 3.84959E-07-1.16011E-19-1.11094E-18
 -1      3908 9.09397E-05-2.47129E-05-2.84062E-05 9.68911E-07-3.67816E-19-1.20186E-19
 -1      3909 9.16397E-05-2.51725E-05-2.84826E-05 6.17825E-07-4.71157E-19-5.06514E-19
 -1      3910 9.20512E-05-2.55856E-05-2.84744E-05 9.68497E-07-4.47096E-19-1.21931E-20
 -1      3911 8.94346E-05-2.37745E-05-2.81732E-05 2.14703E-06 5.82577E-19 3.59546E-19
 -1      3912 9.03648E-05-2.42954E-05-2.83075E-05 1.52908E-06 3.81848E-19-6.82427E-20
 -1      3913 9.10256E-05-2.49210E-05-2.83175E-05 1.94048E-06-1.61860E-19-9.27559E-20
 -1      3914 8.75723E-05-2.28303E-05-2.77897E-05 4.06648E-06-5.55038E-21 6.45676E-19
 -1      3915 8.87710E-05-2.33661E-05-2.80144E-05 3.03578E-06 4.63465E-19 4.33458E-19
 -1      3916 8.98116E-05-2.42961E-05-2.80637E-05 3.49021E-06 2.37953E-19-6.73300E-19
 -1      3917 8.54175E-05-2.20580E-05-2.71815E-05 7.11775E-06 3.99416E-19-6.76314E-19
 -1      3918 8.69021E-05-2.25505E-05-2.75455E-05 5.40884E-06 3.27382E-19-2.10592E-19
 -1      3919 8.84706E-05-2.38838E-05-2.76703E-05 5.85313E-06 7.93268E-19-7.06530E-19
 -1      3920 1.10276E-04-4.40193E-05-2.82741E-05 1.48102E-05 1.27797E-18-3.49143E-19
 -1      3921 1.04914E-04-4.05122E-05-2.76856E-05 1.57502E-05 1.26942E-18-4.10622E-19
 -1      3922 9.66121E-05-2.91739E-05-2.89022E-05-5.47069E-07-2.06858E-19-7.65236E-19
 -1      3923 9.66807E-05-2.90808E-05-2.89694E-05-5.23649E-07-2.76552E-19-9.84799E-19
 -1      3924 9.61890E-05-2.61029E-05-3.00387E-05-4.49847E-07-4.25897E-19-1.59806E-18
 -1      3925 9.64058E-05-2.67943E-05-2.98389E-05-1.54873E-07-2.21347E-19-1.28114E-18
 -1      3926 9.65310E-05-2.69618E-05-2.98127E-05-8.39057E-08-1.63868E-19-1.56713E-18
 -1      3927 1.12861E-04-4.49505E-05-2.91073E-05-1.15289E-05-9.29010E-19-3.57024E-19
 -1      3928 1.17020E-04-4.71605E-05-2.99847E-05-8.73370E-06-8.96163E-19-8.26249E-19
 -1      3929 1.15592E-04-4.46400E-05-3.03871E-05-4.02784E-06-7.81320E-19-9.68410E-19
 -1      3930 1.14234E-04-4.25203E-05-3.06915E-05-2.30435E-07-7.92191E-19-2.22282E-18
 -1      3931 9.65132E-05-2.70323E-05-2.97672E-05 8.47175E-08 1.41508E-19-1.17493E-18
 -1      3932 9.61881E-05-2.60870E-05-3.00513E-05 4.19298E-07 1.58168E-19-1.32656E-18
 -1      3933 9.61509E-05-2.58783E-05-3.01195E-05 2.99123E-07 4.24044E-21-1.62412E-18
 -1      3934 9.53286E-05-2.85416E-05-2.86226E-05-3.68622E-07-1.67016E-19-9.97702E-19
 -1      3935 9.54184E-05-2.86429E-05-2.86187E-05-3.69943E-07-7.54562E-20-6.38086E-19
 -1      3936 9.51164E-05-2.83095E-05-2.86317E-05-3.69847E-07-1.78424E-19-1.68455E-18
 -1      3937 9.52184E-05-2.84274E-05-2.86256E-05-3.63979E-07-1.76454E-19-1.61038E-18
 -1      3938 9.52780E-05-2.84849E-05-2.86252E-05-2.80612E-07 8.72568E-20-1.57860E-18
 -1      3939 9.48679E-05-2.80370E-05-2.86428E-05-3.76963E-07-3.13039E-19-1.10398E-18
 -1      3940 9.49913E-05-2.81768E-05-2.86359E-05-3.66454E-07-4.98065E-19-1.44702E-18
 -1      3941 9.47757E-05-2.79483E-05-2.86382E-05-2.52288E-07 1.33908E-19-2.25319E-18
 -1      3942 1.03614E-04-3.67581E-05-2.86145E-05-9.69639E-06 1.17742E-18-8.77936E-19
 -1      3943 9.11266E-05-3.06560E-05-2.58209E-05 1.96565E-05 1.60013E-18-2.11327E-18
 -1      3944 1.13978E-04-4.32450E-05-3.03426E-05-2.80273E-06-1.72386E-18-2.06710E-18
 -1      3945 1.11927E-04-4.16810E-05-3.01318E-05-1.73559E-06-1.50614E-18-2.65378E-18
 -1      3946 1.10623E-04-4.10537E-05-2.97696E-05-3.04130E-06-1.56946E-18-4.19805E-18
 -1      3947 1.13148E-04-4.34399E-05-2.98032E-05-5.56788E-06-1.46259E-18-7.18363E-19
 -1      3948 9.61511E-05-3.40509E-05-2.66949E-05 1.77634E-05 1.79807E-18-2.28999E-18
 -1      3949 8.72631E-05-2.67614E-05-2.58944E-05 1.69919E-05 1.37963E-18-2.32859E-18
 -1      3950 1.10382E-04-4.32769E-05-2.87182E-05-1.24445E-05-4.70672E-19 1.85189E-20
 -1      3951 1.11792E-04-4.32462E-05-2.93986E-05-8.40070E-06-1.33105E-18 2.00149E-19
 -1      3952 1.10682E-04-4.20848E-05-2.94188E-05-6.88970E-06-1.15967E-18-6.87253E-19
 -1      3953 1.07266E-04-4.04616E-05-2.85768E-05-1.17985E-05-6.55905E-19-1.83968E-19
 -1      3954 1.12310E-04-4.46989E-05-2.90070E-05 1.12602E-05 1.65117E-18 6.83149E-19
 -1      3955 9.56972E-05-2.89304E-05-2.86153E-05-4.93745E-07 2.10364E-19 1.08206E-19
 -1      3956 9.59128E-05-2.51877E-05-3.03201E-05-6.33493E-08-9.19204E-23-1.75781E-18
 -1      3957 9.59306E-05-2.52481E-05-3.03005E-05-2.79134E-07-2.32150E-19-1.80090E-18
 -1      3958 1.20315E-04-4.73665E-05-3.12342E-05 3.67100E-06 2.26065E-19 1.82036E-18
 -1      3959 1.16441E-04-4.60312E-05-3.02215E-05 6.13204E-06 1.18107E-18 1.72144E-18
 -1      3960 1.18817E-04-4.44079E-05-3.18812E-05-9.57243E-07 8.91527E-20 1.91704E-18
 -1      3961 9.58248E-05-2.51530E-05-3.02893E-05-5.94159E-07-4.87986E-19-1.83262E-18
 -1      3962 1.09267E-04-4.04402E-05-2.95236E-05-4.15587E-06-4.79731E-19-4.00679E-18
 -1      3963 1.07790E-04-3.94158E-05-2.92858E-05-5.04711E-06-4.57814E-19-2.98767E-18
 -1      3964 1.07793E-04-3.97889E-05-2.91303E-05-6.96137E-06 7.43374E-19-2.19883E-18
 -1      3965 1.10456E-04-4.15457E-05-2.95589E-05-5.23139E-06-1.15306E-18-2.71461E-18
 -1      3966 1.00747E-04-3.67168E-05-2.73036E-05 1.57459E-05 1.49442E-18-1.39795E-18
 -1      3967 9.67303E-05-3.31592E-05-2.72333E-05 1.41812E-05 1.93272E-18-1.48683E-18
 -1      3968 1.04278E-04-3.88808E-05-2.80712E-05 1.23536E-05 1.49044E-18-5.71158E-19
 -1      3969 9.54877E-05-2.87014E-05-2.86230E-05-2.93438E-07 2.06976E-19-1.00217E-18
 -1      3970 9.55207E-05-2.87424E-05-2.86185E-05-3.78556E-07-1.92249E-20-2.82801E-19
 -1      3971 9.56055E-05-2.88302E-05-2.86182E-05-3.87407E-07 2.37042E-19-2.15957E-19
 -1      3972 9.66310E-05-2.75596E-05-2.96064E-05-8.97260E-08 1.08214E-19-1.19780E-18
 -1      3973 9.67326E-05-2.89465E-05-2.90524E-05-5.03810E-07-4.01205E-19-8.62249E-19
 -1      3974 9.67754E-05-2.87681E-05-2.91429E-05-4.40465E-07-3.46155E-19-7.25747E-19
 -1      3975 9.67969E-05-2.90153E-05-2.90505E-05-3.96421E-07-2.62101E-19-1.11566E-18
 -1      3976 8.56195E-05-2.26153E-05-2.69309E-05 8.90714E-06 6.86978E-19-1.26299E-18
 -1      3977 8.78593E-05-2.44344E-05-2.71905E-05 9.10166E-06 7.08561E-19-9.75751E-19
 -1      3978 8.49405E-05-2.30178E-05-2.65280E-05 1.14136E-05 8.73991E-19-1.44689E-18
 -1      3979 1.05684E-04-3.89830E-05-2.85832E-05-1.08429E-05-1.50841E-19-1.36934E-18
 -1      3980 8.70322E-05-2.53147E-05-2.63460E-05 1.39131E-05 1.15005E-18-1.98075E-18
 -1      3981 9.50459E-05-2.82365E-05-2.86315E-05-2.69979E-07-4.21161E-19-1.92336E-18
 -1      3982 9.60762E-05-2.91818E-05-2.86679E-05-4.74967E-07 8.54041E-20-3.63296E-19
 -1      3983 9.61631E-05-2.92220E-05-2.86884E-05-4.95034E-07-2.16965E-20-5.91484E-19
 -1      3984 9.64488E-05-2.92616E-05-2.87940E-05-5.43969E-07-8.07156E-20-8.95883E-19
 -1      3985 9.65300E-05-2.92306E-05-2.88412E-05-5.45083E-07-1.02892E-19-6.89134E-19
 -1      3986 9.66633E-05-2.92232E-05-2.89046E-05-4.24863E-07-2.31930E-19-1.23243E-18
 -1      3987 9.58897E-05-2.90654E-05-2.86376E-05-4.35582E-07 1.12586E-19-6.40956E-19
 -1      3988 9.59738E-05-2.91251E-05-2.86491E-05-4.54642E-07 1.45840E-19-4.44971E-19
 -1      3989 9.60853E-05-2.91838E-05-2.86737E-05-3.67235E-07 1.23152E-19-5.92808E-19
 -1      3990 9.59740E-05-2.54131E-05-3.02397E-05-3.84919E-07-2.07123E-19-1.74820E-18
 -1      3991 9.56168E-05-2.44574E-05-3.04806E-05 2.71759E-07-2.50931E-20-1.77449E-18
 -1      3992 9.62957E-05-2.61369E-05-3.00623E-05-1.82535E-07-9.64452E-20-1.66325E-18
 -1      3993 1.13476E-04-4.45427E-05-2.94966E-05 7.85621E-06 1.42759E-18 8.48227E-19
 -1      3994 1.09651E-04-4.21715E-05-2.89684E-05 8.63424E-06 1.03433E-18 5.32151E-19
 -1      3995 9.68074E-05-2.77656E-05-2.95898E-05 6.06045E-08-1.88067E-19-1.54829E-18
 -1      3996 9.68834E-05-2.81833E-05-2.94445E-05 1.61213E-07-4.01805E-19-1.47928E-18
 -1      3997 9.69241E-05-2.85228E-05-2.93142E-05 1.89140E-07-5.16202E-19-1.30749E-18
 -1      3998 9.69212E-05-2.87839E-05-2.92022E-05 2.49556E-07-5.79877E-19-1.31250E-18
 -1      3999 9.69334E-05-2.83151E-05-2.94068E-05 9.37973E-08-3.34501E-19-1.63895E-18
 -1      4000 9.68865E-05-2.89801E-05-2.91020E-05 2.55504E-07-6.11922E-19-1.26128E-18
 -1      4001 9.68324E-05-2.91230E-05-2.90176E-05 2.88666E-07-3.00510E-19-1.24704E-18
 -1      4002 9.69437E-05-2.88720E-05-2.91754E-05 1.33434E-07-5.07045E-19-1.18092E-18
 -1      4003 9.67560E-05-2.92224E-05-2.89423E-05 2.85391E-07-3.33265E-19-1.33158E-18
 -1      4004 9.66719E-05-2.92845E-05-2.88802E-05 2.97240E-07-5.21125E-19-1.29172E-18
 -1      4005 9.68364E-05-2.91755E-05-2.89992E-05 1.55758E-07-4.50430E-19-1.27980E-18
 -1      4006 9.65774E-05-2.93142E-05-2.88253E-05 2.86050E-07-5.10148E-19-1.19875E-18
 -1      4007 9.64781E-05-2.93192E-05-2.87811E-05 2.85857E-07-5.32970E-19-1.02349E-18
 -1      4008 9.66667E-05-2.93130E-05-2.88683E-05 1.66429E-07-4.68052E-19-1.01232E-18
 -1      4009 9.63696E-05-2.93026E-05-2.87423E-05 2.72961E-07-6.84778E-19-1.01658E-18
 -1      4010 9.62677E-05-2.92698E-05-2.87121E-05 2.65108E-07-7.59838E-19-7.59043E-19
 -1      4011 9.64614E-05-2.93285E-05-2.87740E-05 1.53126E-07-7.86979E-19-9.58465E-19
 -1      4012 9.61563E-05-2.92217E-05-2.86860E-05 2.53846E-07-8.68422E-19-8.61966E-19
 -1      4013 9.60549E-05-2.91646E-05-2.86665E-05 2.43919E-07-7.88388E-19-1.04478E-18
 -1      4014 9.62441E-05-2.92611E-05-2.87087E-05 1.42893E-07-8.67282E-19-8.46339E-19
 -1      4015 9.59471E-05-2.90955E-05-2.86501E-05 2.33765E-07-6.03277E-19-9.57026E-19
 -1      4016 9.58475E-05-2.90216E-05-2.86386E-05 2.26479E-07-1.75780E-19-9.81499E-19
 -1      4017 9.60280E-05-2.91441E-05-2.86659E-05 1.37376E-07-6.24489E-19-4.75311E-19
 -1      4018 9.57408E-05-2.89390E-05-2.86293E-05 2.21963E-07 4.64552E-20-8.64852E-19
 -1      4019 9.56455E-05-2.88545E-05-2.86237E-05 2.19979E-07-2.22118E-19-4.32268E-19
 -1      4020 9.58122E-05-2.89890E-05-2.86398E-05 1.28039E-07 1.23930E-19-5.20612E-19
 -1      4021 9.55394E-05-2.87619E-05-2.86193E-05 2.21022E-07-6.30244E-20-4.82627E-20
 -1      4022 9.54459E-05-2.86692E-05-2.86175E-05 2.28028E-07 3.75112E-19 3.09296E-19
 -1      4023 9.56030E-05-2.88112E-05-2.86260E-05 1.28946E-07 1.99326E-19 1.20254E-19
 -1      4024 9.53387E-05-2.85691E-05-2.86163E-05 2.38986E-07 3.62487E-19 2.44172E-19
 -1      4025 9.52457E-05-2.84708E-05-2.86167E-05 2.58690E-07 3.87837E-19 3.26868E-19
 -1      4026 9.53922E-05-2.86123E-05-2.86204E-05 1.45461E-07 4.80790E-19 1.23427E-19
 -1      4027 9.51345E-05-2.83647E-05-2.86169E-05 2.83258E-07 7.69019E-20 4.95913E-19
 -1      4028 9.50409E-05-2.82630E-05-2.86177E-05 3.20538E-07 1.30591E-19 2.85618E-19
 -1      4029 9.51766E-05-2.83981E-05-2.86195E-05 1.82836E-07 3.88087E-19-3.66795E-20
 -1      4030 9.49229E-05-2.81529E-05-2.86175E-05 3.64904E-07-1.41343E-19 3.10186E-19
 -1      4031 9.48294E-05-2.80515E-05-2.86172E-05 4.26398E-07-1.90722E-19 1.43519E-19
 -1      4032 9.49500E-05-2.81709E-05-2.86195E-05 2.51665E-07-1.73393E-19-1.60665E-19
 -1      4033 9.47032E-05-2.79412E-05-2.86147E-05 4.99497E-07-1.15004E-19 2.52297E-19
 -1      4034 9.46133E-05-2.78466E-05-2.86115E-05 5.94249E-07 4.74918E-20-1.26496E-19
 -1      4035 9.47081E-05-2.79351E-05-2.86170E-05 3.67589E-07-2.68955E-20 3.36953E-19
 -1      4036 9.44802E-05-2.77435E-05-2.86046E-05 7.08813E-07 3.47361E-19 2.55180E-19
 -1      4037 9.44026E-05-2.76673E-05-2.85966E-05 8.48711E-07 2.75299E-19 8.26313E-19
 -1      4038 9.44502E-05-2.77001E-05-2.86076E-05 5.53261E-07 3.82390E-19 2.69761E-19
 -1      4039 9.42687E-05-2.75843E-05-2.85829E-05 1.02239E-06-1.52582E-19 7.65637E-19
 -1      4040 9.42200E-05-2.75458E-05-2.85683E-05 1.22264E-06 4.60038E-19 4.30773E-19
 -1      4041 9.41829E-05-2.74836E-05-2.85869E-05 8.40383E-07 2.58335E-19 9.63295E-19
 -1      4042 9.41000E-05-2.75047E-05-2.85452E-05 1.47820E-06 6.60252E-19-6.48842E-20
 -1      4043 9.41084E-05-2.75344E-05-2.85224E-05 1.75678E-06 1.05933E-18-2.39065E-19
 -1      4044 9.39259E-05-2.73188E-05-2.85494E-05 1.27209E-06 1.30765E-19 1.01607E-19
 -1      4045 9.40307E-05-2.75698E-05-2.84875E-05 2.12144E-06 1.30008E-18-8.54133E-19
 -1      4046 9.41411E-05-2.77128E-05-2.84559E-05 2.49610E-06 7.57342E-19-7.49071E-19
 -1      4047 9.37200E-05-2.72617E-05-2.84897E-05 1.90354E-06 7.34965E-19-1.37438E-18
 -1      4048 9.41551E-05-2.78768E-05-2.84077E-05 2.99929E-06 2.44623E-19-9.02878E-19
 -1      4049 9.44348E-05-2.81974E-05-2.83693E-05 3.48167E-06 3.22001E-19-1.27219E-18
 -1      4050 9.36391E-05-2.73988E-05-2.84030E-05 2.79912E-06 4.47087E-19-2.02844E-18
 -1      4051 9.46216E-05-2.85642E-05-2.83089E-05 4.14702E-06 1.64683E-19-1.13144E-18
 -1      4052 9.51663E-05-2.91486E-05-2.82706E-05 4.73043E-06 4.73595E-19-1.31001E-18
 -1      4053 9.38080E-05-2.78624E-05-2.82875E-05 4.02300E-06 1.25240E-19-1.91654E-18
 -1      4054 9.56536E-05-2.98147E-05-2.82055E-05 5.55645E-06 9.03105E-19-1.47671E-18
 -1      4055 9.65881E-05-3.07613E-05-2.81834E-05 6.19763E-06 7.38705E-19-1.29609E-18
 -1      4056 9.44245E-05-2.88475E-05-2.81497E-05 5.61263E-06 9.03826E-19-2.24607E-18
 -1      4057 9.75733E-05-3.18610E-05-2.81332E-05 7.12498E-06 5.84830E-19-1.26755E-18
 -1      4058 9.90799E-05-3.32784E-05-2.81676E-05 7.65442E-06 1.07723E-18-1.36882E-18
 -1      4059 9.58216E-05-3.06197E-05-2.80176E-05 7.54496E-06 9.24644E-19-2.05061E-18
 -1      4060 1.00806E-04-3.51763E-05-2.80923E-05 9.32675E-06 1.12539E-18-1.64644E-18
 -1      4061 1.02887E-04-3.71131E-05-2.82106E-05 9.70002E-06 7.92462E-19-1.33698E-18
 -1      4062 1.07053E-04-4.01328E-05-2.86041E-05 9.18180E-06 7.33332E-19-9.63335E-21
 -1      4063 9.39442E-05-2.71756E-05-2.86205E-05 1.10734E-07 5.32080E-19-1.15595E-18
 -1      4064 9.41773E-05-2.73778E-05-2.86276E-05 3.85174E-08 4.95255E-19-1.31427E-18
 -1      4065 9.28377E-05-2.62885E-05-2.85329E-05 8.07229E-07-3.81060E-19-7.80074E-19
 -1      4066 9.32103E-05-2.65453E-05-2.85668E-05 5.75508E-07-1.82755E-19-8.91520E-19
 -1      4067 9.34530E-05-2.67590E-05-2.85912E-05 3.65537E-07 4.07472E-19-1.21082E-18
 -1      4068 9.37339E-05-2.69785E-05-2.86077E-05 2.39784E-07 8.40769E-19-1.29850E-18
 -1      4069 9.39137E-05-2.71736E-05-2.86017E-05 3.95781E-07 6.94331E-19-1.18953E-18
 -1      4070 9.34660E-05-2.68147E-05-2.85638E-05 7.51488E-07 3.38588E-20-7.95822E-19
 -1      4071 9.43602E-05-2.75586E-05-2.86328E-05-3.88275E-08 4.69282E-19-1.22205E-18
 -1      4072 9.45447E-05-2.77327E-05-2.86335E-05-7.41875E-08 4.06625E-19-1.53687E-18
 -1      4073 9.43018E-05-2.75175E-05-2.86206E-05 1.75885E-07 5.37822E-19-9.78738E-19
 -1      4074 9.20943E-05-2.57955E-05-2.84303E-05 1.54004E-06-7.40119E-19-4.28472E-19
 -1      4075 9.25596E-05-2.60659E-05-2.84898E-05 1.15021E-06-6.71994E-19-4.88847E-19
 -1      4076 9.29506E-05-2.64598E-05-2.84964E-05 1.32533E-06-9.41294E-19-5.26282E-19
 -1      4077 9.12440E-05-2.53465E-05-2.82638E-05 2.69821E-06 4.55028E-19-1.59788E-18
 -1      4078 9.18064E-05-2.55995E-05-2.83615E-05 2.07118E-06 1.35796E-19-8.35451E-19
 -1      4079 9.23889E-05-2.61623E-05-2.83861E-05 2.22342E-06-1.64654E-19-1.43138E-18
 -1      4080 9.03484E-05-2.50619E-05-2.80077E-05 4.46228E-06 8.06226E-19-1.66659E-18
 -1      4081 9.09928E-05-2.52364E-05-2.81602E-05 3.49329E-06 7.61119E-19-1.24417E-18
 -1      4082 9.18502E-05-2.60274E-05-2.82188E-05 3.57117E-06 4.96269E-19-1.97139E-18
 -1      4083 8.95428E-05-2.51498E-05-2.76320E-05 7.04330E-06 5.09108E-19-1.24465E-18
 -1      4084 9.02224E-05-2.51355E-05-2.78599E-05 5.61256E-06 6.34631E-19-1.28759E-18
 -1      4085 9.14694E-05-2.62277E-05-2.79793E-05 5.52589E-06 7.13956E-19-1.97140E-18
 -1      4086 9.57044E-05-2.89168E-05-2.86223E-05-4.00748E-07 6.50931E-21-1.91598E-19
 -1      4087 9.57881E-05-2.89925E-05-2.86270E-05-4.16043E-07-3.59078E-20-5.90956E-19
 -1      4088 9.58863E-05-2.90546E-05-2.86435E-05-3.35074E-07-5.31714E-20-6.37340E-19
 -1      4089 9.56875E-05-2.88905E-05-2.86279E-05-3.13386E-07 1.06576E-19-3.28562E-19
 -1      4090 9.65083E-05-2.67365E-05-2.99038E-05-1.14908E-07-4.40131E-20-1.63995E-18
 -1      4091 9.66948E-05-2.73460E-05-2.97223E-05 2.72570E-08-1.28139E-19-1.52732E-18
 -1      4092 9.67791E-05-2.75371E-05-2.96725E-05 2.14775E-08-1.58192E-19-1.74533E-18
 -1      4093 9.64596E-05-2.65399E-05-2.99623E-05-6.24300E-08-6.97768E-20-1.62363E-18
 -1      4094 9.49838E-05-2.81820E-05-2.86304E-05-1.58854E-07-2.41086E-19-1.72987E-18
 -1      4095 9.51091E-05-2.83126E-05-2.86272E-05-1.66280E-07-1.64213E-19-1.43139E-18
 -1      4096 9.62644E-05-2.92537E-05-2.87179E-05-5.14645E-07-2.36919E-19-8.45127E-19
 -1      4097 9.63517E-05-2.92656E-05-2.87502E-05-5.29176E-07-2.40035E-19-7.92361E-19
 -1      4098 9.62877E-05-2.92708E-05-2.87233E-05-3.97830E-07-1.50018E-19-5.74554E-19
 -1      4099 9.00619E-05-2.75446E-05-2.68106E-05 1.32578E-05 1.28501E-18-2.55938E-18
 -1      4100 9.52292E-05-2.84363E-05-2.86259E-05-1.81097E-07-1.10000E-19-1.23766E-18
 -1      4101 9.53397E-05-2.85510E-05-2.86238E-05-1.86192E-07 2.98517E-19-1.04687E-18
 -1      4102 9.51740E-05-2.83821E-05-2.86251E-05-7.22715E-08-1.33484E-19-5.08138E-19
 -1      4103 9.67753E-05-2.85265E-05-2.92537E-05-3.95983E-07-1.74281E-19-7.75014E-19
 -1      4104 9.67707E-05-2.82221E-05-2.93729E-05-2.73822E-07 2.39614E-20-9.19372E-19
 -1      4105 9.68609E-05-2.86245E-05-2.92466E-05-3.17826E-07-2.06279E-19-8.63180E-19
 -1      4106 9.47000E-05-2.78919E-05-2.86342E-05-1.18058E-07 2.21004E-19-1.68149E-18
 -1      4107 9.48493E-05-2.80421E-05-2.86318E-05-1.34116E-07-2.10176E-19-1.75992E-18
 -1      4108 9.46360E-05-2.78367E-05-2.86273E-05 4.49129E-08 1.37798E-19-9.67571E-19
 -1      4109 9.67323E-05-2.76960E-05-2.95876E-05-8.96777E-08-8.09448E-20-1.21946E-18
 -1      4110 9.60738E-05-2.56106E-05-3.02105E-05 2.66234E-07-2.37437E-20-1.77396E-18
 -1      4111 9.60166E-05-2.54168E-05-3.02605E-05 5.11445E-08-7.80445E-22-1.68239E-18
 -1      4112 9.63567E-05-2.61837E-05-3.00655E-05-2.74174E-08-5.03613E-20-1.67450E-18
 -1      4113 9.65071E-05-2.66704E-05-2.99215E-05 6.12567E-08-6.69163E-20-1.60827E-18
 -1      4114 9.49224E-05-2.81242E-05-2.86273E-05-2.98487E-08-2.51051E-19-1.24188E-18
 -1      4115 9.83588E-05-3.35793E-05-2.78503E-05 1.04868E-05 9.83115E-19-1.69396E-18
 -1      4116 9.68663E-05-2.80682E-05-2.94866E-05-1.42034E-07-1.39917E-19-1.52507E-18
 -1      4117 9.67175E-05-2.73681E-05-2.97232E-05 1.34990E-08-1.34906E-19-1.66611E-18
 -1      4118 1.09281E-04-4.11836E-05-2.91700E-05-7.84209E-06-6.10592E-20-5.93610E-19
 -1      4119 9.54516E-05-2.86612E-05-2.86243E-05-1.96711E-07 4.60038E-19-1.16076E-18
 -1      4120 9.55546E-05-2.87629E-05-2.86248E-05-2.02981E-07 2.26338E-19-8.57823E-19
 -1      4121 9.54034E-05-2.86135E-05-2.86248E-05-9.73365E-08 2.64185E-19-4.11141E-19
 -1      4122 9.68430E-05-2.91099E-05-2.90295E-05-2.91946E-07-3.23817E-19-1.56648E-18
 -1      4123 9.69022E-05-2.89650E-05-2.91134E-05-2.56131E-07-2.78628E-19-1.49979E-18
 -1      4124 8.95934E-05-2.63233E-05-2.71585E-05 1.06245E-05 9.03190E-19-1.51125E-18
 -1      4125 8.94950E-05-2.55253E-05-2.73747E-05 8.88362E-06 8.12211E-19-1.31906E-18
 -1      4126 9.13215E-05-2.69706E-05-2.76115E-05 8.46138E-06 8.46161E-19-1.98734E-18
 -1      4127 9.18897E-05-2.88388E-05-2.70619E-05 1.27170E-05 1.58737E-18-2.25352E-18
 -1      4128 9.62912E-05-2.92789E-05-2.87187E-05-2.74592E-07-2.31088E-19-6.26541E-19
 -1      4129 9.63936E-05-2.93082E-05-2.87496E-05-2.81816E-07-1.78962E-19-6.82170E-19
 -1      4130 9.64853E-05-2.92945E-05-2.87980E-05-4.20468E-07-1.20038E-19-1.00349E-18
 -1      4131 9.66922E-05-2.92779E-05-2.88907E-05-3.02361E-07-3.27520E-19-1.33502E-18
 -1      4132 9.67742E-05-2.92116E-05-2.89535E-05-2.87801E-07-3.79919E-19-1.43996E-18
 -1      4133 9.68496E-05-2.91644E-05-2.90111E-05-1.65193E-07-3.32078E-19-1.29886E-18
 -1      4134 9.65570E-05-2.67773E-05-2.99084E-05 1.44560E-08-6.41851E-20-1.81675E-18
 -1      4135 1.07889E-04-4.03643E-05-2.89919E-05-8.60860E-06-2.87172E-20-1.18086E-18
 -1      4136 9.51113E-05-3.10023E-05-2.74256E-05 1.17894E-05 1.33560E-18-2.08267E-18
 -1      4137 9.66469E-05-2.70916E-05-2.98061E-05 1.40581E-08-1.77291E-19-1.76643E-18
 -1      4138 9.60809E-05-2.91778E-05-2.86715E-05-2.51894E-07-6.45084E-20-5.46708E-19
 -1      4139 9.61820E-05-2.92326E-05-2.86918E-05-2.61790E-07-5.69865E-20-3.03862E-19
 -1      4140 9.62681E-05-2.92733E-05-2.87147E-05-1.56015E-07-2.59052E-19-5.86374E-19
 -1      4141 9.44723E-05-2.97603E-05-2.76862E-05 9.54963E-06 1.29848E-18-1.99145E-18
 -1      4142 9.69331E-05-2.81587E-05-2.94764E-05 1.70852E-10-2.38717E-19-1.81355E-18
 -1      4143 9.69811E-05-2.85108E-05-2.93432E-05 3.43269E-08-2.32538E-19-1.61722E-18
 -1      4144 9.69189E-05-2.83348E-05-2.93886E-05-1.40603E-07-2.80687E-19-1.51763E-18
 -1      4145 9.69031E-05-2.80467E-05-2.95108E-05-6.10025E-08-1.85579E-19-1.92462E-18
 -1      4146 9.69657E-05-2.88721E-05-2.91836E-05-1.11256E-08-4.23184E-19-1.49879E-18
 -1      4147 9.69282E-05-2.90531E-05-2.90861E-05 8.70710E-09-5.66924E-19-1.30831E-18
 -1      4148 9.68656E-05-2.91813E-05-2.90077E-05-3.24146E-09-3.44603E-19-1.40612E-18
 -1      4149 9.67867E-05-2.92689E-05-2.89331E-05-1.33295E-09-2.92405E-19-1.34273E-18
 -1      4150 9.66940E-05-2.93189E-05-2.88755E-05-5.09921E-09-2.84427E-19-1.09043E-18
 -1      4151 9.64909E-05-2.93377E-05-2.87795E-05-8.85443E-10-7.78505E-19-1.02752E-18
 -1      4152 9.63796E-05-2.93128E-05-2.87411E-05-1.25877E-09-7.85818E-19-1.03953E-18
 -1      4153 9.62710E-05-2.92726E-05-2.87128E-05-1.13846E-09-6.21507E-19-4.98085E-19
 -1      4154 9.61577E-05-2.92181E-05-2.86869E-05-3.24542E-09-4.68735E-19-4.69618E-19
 -1      4155 9.60485E-05-2.91551E-05-2.86687E-05-4.81516E-09-8.80740E-20-1.04976E-19
 -1      4156 9.58767E-05-2.90352E-05-2.86455E-05 2.47878E-08 1.45935E-19-2.11257E-19
 -1      4157 9.57688E-05-2.89489E-05-2.86362E-05 2.65195E-08 1.55987E-19-4.31702E-20
 -1      4158 9.56155E-05-2.88162E-05-2.86281E-05 8.88019E-09 3.73914E-19-2.81788E-19
 -1      4159 9.55094E-05-2.87176E-05-2.86242E-05 1.51898E-08 6.28047E-19 2.12875E-20
 -1      4160 9.53983E-05-2.86113E-05-2.86230E-05 2.47397E-08 2.22407E-19 4.51788E-21
 -1      4161 9.52908E-05-2.85042E-05-2.86220E-05 3.72495E-08 2.14710E-19-2.38969E-19
 -1      4162 9.51714E-05-2.83862E-05-2.86226E-05 5.43307E-08 5.62084E-20-4.08651E-19
 -1      4163 9.50598E-05-2.82706E-05-2.86229E-05 7.79324E-08-1.88934E-19-5.83365E-19
 -1      4164 9.49267E-05-2.81403E-05-2.86236E-05 1.08496E-07 5.68952E-21-9.11855E-19
 -1      4165 9.48083E-05-2.80170E-05-2.86235E-05 1.49608E-07-2.48752E-19-7.52188E-19
 -1      4166 9.46553E-05-2.78734E-05-2.86222E-05 2.03088E-07 5.15713E-20-4.09139E-19
 -1      4167 9.45289E-05-2.77447E-05-2.86196E-05 2.71148E-07 4.66487E-19-2.65460E-19
 -1      4168 9.43498E-05-2.75884E-05-2.86138E-05 3.61968E-07 5.00592E-19-3.98011E-19
 -1      4169 9.42166E-05-2.74599E-05-2.86065E-05 4.71013E-07 8.06904E-19-2.22914E-19
 -1      4170 9.40121E-05-2.72989E-05-2.85936E-05 6.16059E-07 5.12542E-19 7.98696E-20
 -1      4171 9.38783E-05-2.71809E-05-2.85790E-05 7.84785E-07 2.33662E-19-1.10931E-20
 -1      4172 9.36434E-05-2.70209E-05-2.85550E-05 1.01507E-06-3.07004E-19-3.90521E-20
 -1      4173 9.35247E-05-2.69337E-05-2.85302E-05 1.26905E-06-5.25908E-19-1.99588E-19
 -1      4174 9.32596E-05-2.67897E-05-2.84892E-05 1.63319E-06-6.80719E-19-1.26578E-19
 -1      4175 9.31853E-05-2.67680E-05-2.84510E-05 2.00657E-06-1.41894E-19-1.46772E-18
 -1      4176 9.29164E-05-2.66798E-05-2.83874E-05 2.55395E-06 5.88695E-19-1.91450E-18
 -1      4177 9.29372E-05-2.67797E-05-2.83331E-05 3.08541E-06 2.63368E-19-2.30244E-18
 -1      4178 9.27127E-05-2.68090E-05-2.82405E-05 3.88045E-06 2.59909E-19-2.21778E-18
 -1      4179 9.29121E-05-2.71158E-05-2.81698E-05 4.60757E-06 6.88496E-19-1.99318E-18
 -1      4180 9.28269E-05-2.73596E-05-2.80433E-05 5.72183E-06 4.89806E-19-1.82670E-18
 -1      4181 9.33545E-05-2.80100E-05-2.79647E-05 6.65822E-06 9.44963E-19-1.88320E-18
 -1      4182 9.34354E-05-2.85854E-05-2.77615E-05 8.39159E-06 1.31472E-18-2.19333E-18
 -1      4183 9.67690E-05-2.74411E-05-2.97125E-05-1.64216E-08-1.23429E-19-1.88083E-18
 -1      4184 9.68731E-05-2.78483E-05-2.95820E-05 1.78112E-08-1.79932E-19-1.84369E-18
 -1      4185 9.64977E-05-2.93216E-05-2.87892E-05-2.92599E-07-2.00479E-19-1.18554E-18
 -1      4186 9.65947E-05-2.93131E-05-2.88345E-05-2.92430E-07-2.81490E-19-1.35767E-18
 -1      4187 9.66836E-05-2.93074E-05-2.88779E-05-1.64358E-07-3.12002E-19-1.34730E-18
 -1      4188 9.64821E-05-2.93290E-05-2.87819E-05-1.66635E-07-6.90603E-19-1.17296E-18
 -1      4189 9.69543E-05-2.87271E-05-2.92411E-05-1.04982E-07-3.00706E-19-1.79632E-18
 -1      4190 9.69290E-05-2.86348E-05-2.92711E-05-2.05871E-07-2.32717E-19-1.64177E-18
 -1      4191 9.65943E-05-2.93399E-05-2.88206E-05-4.59032E-09-6.46509E-19-1.17072E-18
 -1      4192 9.56656E-05-2.88588E-05-2.86323E-05-9.25296E-08 3.01713E-19-4.96443E-19
 -1      4193 9.59878E-05-2.91124E-05-2.86624E-05-1.09895E-07-9.67311E-20-3.39073E-19
 -1      4194 9.58090E-05-2.89846E-05-2.86380E-05-2.01129E-07 3.18039E-20-4.67667E-19
 -1      4195 9.59122E-05-2.90656E-05-2.86484E-05-2.10612E-07 1.93648E-20-3.72672E-19
 -1      4196 9.57084E-05-2.89001E-05-2.86322E-05-1.91449E-07 1.42231E-19-5.88273E-19
 -3
    1PSTEP                         4           1           1          
  100CL  101 1.000000000        4196                     0    1           1
 -4  ERROR       1    1
 -5  STR(%)      1    1    0    0
 -1         1 1.22654E+01
 -1         2 2.38552E+01
 -1         3 1.53363E-01
 -1         4 9.94497E-03
 -1         5 1.33049E+01
 -1         6 1.31445E+01
 -1         7 1.31445E+01
 -1         8 3.66541E+00
 -1         9 1.82801E+00
 -1        10 1.29031E+00
 -1        11 1.04368E+00
 -1        12 8.99728E-01
 -1        13 8.08440E-01
 -1        14 7.52956E-01
 -1        15 7.53601E-01
 -1        16 8.10101E-01
 -1        17 8.96758E-01
 -1        18 1.04755E+00
 -1        19 1.29741E+00
 -1        20 1.84598E+00
 -1        21 3.70853E+00
 -1        22 1.33049E+01
 -1        23 1.31445E+01
 -1        24 4.31779E+00
 -1        25 3.34161E+00
 -1        26 2.11214E+00
 -1        27 1.36347E+00
 -1        28 1.01460E+00
 -1        29 7.75995E-01
 -1        30 5.96481E-01
 -1        31 4.56516E-01
 -1        32 3.48731E-01
 -1        33 2.70044E-01
 -1        34 2.06812E-01
 -1        35 1.56943E-01
 -1        36 1.18399E-01
 -1        37 8.92818E-02
 -1        38 7.06353E-02
 -1        39 5.96785E-02
 -1        40 5.23578E-02
 -1        41 5.04386E-02
 -1        42 5.52452E-02
 -1        43 6.12684E-02
 -1        44 6.64956E-02
 -1        45 7.85218E-02
 -1        46 1.04594E-01
 -1        47 1.30536E-01
 -1        48 1.49136E-01
 -1        49 1.86139E-01
 -1        50 2.40900E-01
 -1        51 3.18094E-01
 -1        52 4.90560E-01
 -1        53 6.76951E-01
 -1        54 9.28347E-01
 -1        55 1.34062E+00
 -1        56 1.83707E+00
 -1        57 2.25286E+00
 -1        58 2.46397E+00
 -1        59 2.46397E+00
 -1        60 2.45184E+00
 -1        61 2.45184E+00
 -1        62 2.26942E+00
 -1        63 1.87545E+00
 -1        64 1.39130E+00
 -1        65 9.91326E-01
 -1        66 6.45153E-01
 -1        67 4.45693E-01
 -1        68 2.83587E-01
 -1        69 1.63385E-01
 -1        70 8.99176E-02
 -1        71 4.89187E-02
 -1        72 1.33049E+01
 -1        73 4.28658E+00
 -1        74 3.39899E+00
 -1        75 2.15674E+00
 -1        76 1.39173E+00
 -1        77 1.02820E+00
 -1        78 7.86071E-01
 -1        79 6.04261E-01
 -1        80 4.62585E-01
 -1        81 3.53036E-01
 -1        82 2.73581E-01
 -1        83 2.09732E-01
 -1        84 1.59440E-01
 -1        85 1.16646E-01
 -1        86 9.31223E-02
 -1        87 7.20198E-02
 -1        88 5.79306E-02
 -1        89 4.97701E-02
 -1        90 5.73580E-02
 -1        91 7.16480E-02
 -1        92 9.76551E-02
 -1        93 1.38638E-01
 -1        94 2.01082E-01
 -1        95 2.94551E-01
 -1        96 4.32559E-01
 -1        97 6.32826E-01
 -1        98 8.66478E-01
 -1        99 1.26769E+00
 -1       100 1.72136E+00
 -1       101 2.45442E+00
 -1       102 3.43787E+00
 -1       103 4.66913E+00
 -1       104 5.70512E+00
 -1       105 5.70512E+00
 -1       106 5.07340E+00
 -1       107 1.02972E+01
 -1       108 1.61998E+01
 -1       109 1.61998E+01
 -1       110 1.56951E+01
 -1       111 9.99415E+00
 -1       112 5.03183E+00
 -1       113 5.76101E+00
 -1       114 5.76101E+00
 -1       115 4.99903E+00
 -1       116 3.67978E+00
 -1       117 2.63444E+00
 -1       118 2.06402E+00
 -1       119 1.61640E+00
 -1       120 1.16452E+00
 -1       121 8.19248E-01
 -1       122 4.76771E-01
 -1       123 2.53656E-01
 -1       124 1.11524E-01
 -1       125 2.09739E-01
 -1       126 2.35558E-01
 -1       127 2.35558E-01
 -1       128 1.94244E-01
 -1       129 1.09517E-01
 -1       130 6.10905E-02
 -1       131 9.56390E-02
 -1       132 1.00194E-01
 -1       133 1.00194E-01
 -1       134 8.41600E-02
 -1       135 5.54672E-02
 -1       136 1.76853E-02
 -1       137 3.06055E-02
 -1       138 2.53877E+01
 -1       139 2.58876E+01
 -1       140 3.31572E+01
 -1       141 3.27503E+01
 -1       142 1.43023E+01
 -1       143 1.37990E+01
 -1       144 1.38262E+01
 -1       145 1.38262E+01
 -1       146 1.34606E+01
 -1       147 1.75135E+01
 -1       148 4.52183E+01
 -1       149 4.52183E+01
 -1       150 2.63665E+01
 -1       151 2.63665E+01
 -1       152 2.42927E+01
 -1       153 2.83950E+01
 -1       154 3.15793E+01
 -1       155 2.96434E+01
 -1       156 1.27034E+01
 -1       157 1.23160E+01
 -1       158 1.24381E+01
 -1       159 1.24381E+01
 -1       160 1.18945E+01
 -1       161 1.72743E+01
 -1       162 4.52454E+01
 -1       163 4.52454E+01
 -1       164 2.37239E+01
 -1       165 6.08028E+00
 -1       166 2.30202E+00
 -1       167 1.50601E+00
 -1       168 1.15817E+00
 -1       169 9.71787E-01
 -1       170 8.63945E-01
 -1       171 7.95374E-01
 -1       172 7.53601E-01
 -1       173 7.96443E-01
 -1       174 8.63006E-01
 -1       175 9.75247E-01
 -1       176 1.16267E+00
 -1       177 1.51533E+00
 -1       178 2.32536E+00
 -1       179 6.19598E+00
 -1       180 4.31779E+00
 -1       181 3.34161E+00
 -1       182 2.11214E+00
 -1       183 1.44769E+00
 -1       184 1.02611E+00
 -1       185 7.75995E-01
 -1       186 5.96481E-01
 -1       187 4.68777E-01
 -1       188 3.68880E-01
 -1       189 2.90259E-01
 -1       190 2.33467E-01
 -1       191 1.85168E-01
 -1       192 1.45139E-01
 -1       193 1.12671E-01
 -1       194 8.68077E-02
 -1       195 6.64839E-02
 -1       196 5.23578E-02
 -1       197 4.87281E-02
 -1       198 5.04386E-02
 -1       199 5.52452E-02
 -1       200 6.12684E-02
 -1       201 6.64956E-02
 -1       202 8.03683E-02
 -1       203 1.04594E-01
 -1       204 1.30536E-01
 -1       205 1.49136E-01
 -1       206 1.86139E-01
 -1       207 2.40900E-01
 -1       208 3.29093E-01
 -1       209 5.41654E-01
 -1       210 7.94036E-01
 -1       211 1.06247E+00
 -1       212 1.41523E+00
 -1       213 1.83707E+00
 -1       214 2.25286E+00
 -1       215 2.46397E+00
 -1       216 2.39555E+00
 -1       217 2.45184E+00
 -1       218 2.26942E+00
 -1       219 1.87545E+00
 -1       220 1.46200E+00
 -1       221 1.12090E+00
 -1       222 8.59436E-01
 -1       223 6.17528E-01
 -1       224 4.12874E-01
 -1       225 2.54946E-01
 -1       226 1.43289E-01
 -1       227 6.48091E-02
 -1       228 4.28658E+00
 -1       229 3.39899E+00
 -1       230 2.15674E+00
 -1       231 1.46751E+00
 -1       232 1.04303E+00
 -1       233 7.86071E-01
 -1       234 6.04261E-01
 -1       235 4.74199E-01
 -1       236 3.73390E-01
 -1       237 2.93479E-01
 -1       238 2.36434E-01
 -1       239 1.87986E-01
 -1       240 1.45033E-01
 -1       241 1.17179E-01
 -1       242 9.16095E-02
 -1       243 7.20671E-02
 -1       244 5.75745E-02
 -1       245 5.15010E-02
 -1       246 6.28176E-02
 -1       247 8.21119E-02
 -1       248 1.12297E-01
 -1       249 1.57680E-01
 -1       250 2.24501E-01
 -1       251 3.27911E-01
 -1       252 5.19255E-01
 -1       253 7.97915E-01
 -1       254 1.21388E+00
 -1       255 1.80837E+00
 -1       256 2.58298E+00
 -1       257 3.46212E+00
 -1       258 4.22299E+00
 -1       259 4.74542E+00
 -1       260 5.70512E+00
 -1       261 6.22104E+00
 -1       262 5.80481E+00
 -1       263 1.02972E+01
 -1       264 1.62499E+01
 -1       265 1.66254E+01
 -1       266 1.00386E+01
 -1       267 5.34427E+00
 -1       268 5.33169E+00
 -1       269 5.76101E+00
 -1       270 4.99903E+00
 -1       271 4.03806E+00
 -1       272 3.23335E+00
 -1       273 2.44082E+00
 -1       274 1.67440E+00
 -1       275 1.16452E+00
 -1       276 8.19248E-01
 -1       277 6.21847E-01
 -1       278 6.21847E-01
 -1       279 3.81084E-01
 -1       280 4.56701E-01
 -1       281 4.56701E-01
 -1       282 4.39374E-01
 -1       283 3.24591E-01
 -1       284 1.52015E-01
 -1       285 1.77235E-01
 -1       286 1.91431E-01
 -1       287 1.91431E-01
 -1       288 1.83238E-01
 -1       289 1.48515E-01
 -1       290 9.21932E-02
 -1       291 8.62117E-02
 -1       292 2.77348E+01
 -1       293 3.72654E+01
 -1       294 3.72654E+01
 -1       295 3.31572E+01
 -1       296 1.43023E+01
 -1       297 1.26482E+01
 -1       298 1.66254E+01
 -1       299 1.66254E+01
 -1       300 1.62499E+01
 -1       301 1.20746E+01
 -1       302 1.85115E+01
 -1       303 4.52183E+01
 -1       304 3.80841E+01
 -1       305 3.08298E+01
 -1       306 3.08298E+01
 -1       307 2.41783E+01
 -1       308 3.15793E+01
 -1       309 3.15793E+01
 -1       310 1.27034E+01
 -1       311 1.23160E+01
 -1       312 1.22654E+01
 -1       313 1.15628E+01
 -1       314 1.24381E+01
 -1       315 1.18945E+01
 -1       316 1.09139E+01
 -1       317 1.76302E+01
 -1       318 4.52454E+01
 -1       319 3.93739E+01
 -1       320 2.77348E+01
 -1       321 1.07148E+00
 -1       322 2.48101E+00
 -1       323 7.88828E-01
 -1       324 6.94922E-01
 -1       325 6.31672E-01
 -1       326 5.87298E-01
 -1       327 5.89105E-01
 -1       328 6.32436E-01
 -1       329 6.98612E-01
 -1       330 7.93098E-01
 -1       331 9.21625E-01
 -1       332 1.08644E+00
 -1       333 2.48370E+00
 -1       334 2.15723E+01
 -1       335 1.72979E+00
 -1       336 1.26783E+00
 -1       337 9.07363E-01
 -1       338 6.56326E-01
 -1       339 5.38941E-01
 -1       340 4.41984E-01
 -1       341 3.56540E-01
 -1       342 2.90533E-01
 -1       343 2.35175E-01
 -1       344 1.87502E-01
 -1       345 1.50831E-01
 -1       346 1.20820E-01
 -1       347 9.52568E-02
 -1       348 7.38260E-02
 -1       349 5.59738E-02
 -1       350 4.50834E-02
 -1       351 4.40579E-02
 -1       352 4.66933E-02
 -1       353 5.03491E-02
 -1       354 5.36456E-02
 -1       355 6.45818E-02
 -1       356 7.60537E-02
 -1       357 8.61522E-02
 -1       358 8.65034E-02
 -1       359 7.99756E-02
 -1       360 1.37884E-01
 -1       361 2.67148E-01
 -1       362 4.34065E-01
 -1       363 6.31237E-01
 -1       364 8.62773E-01
 -1       365 1.12896E+00
 -1       366 1.35876E+00
 -1       367 1.62685E+00
 -1       368 1.78007E+00
 -1       369 1.78608E+00
 -1       370 1.76285E+00
 -1       371 1.77782E+00
 -1       372 1.64541E+00
 -1       373 1.39595E+00
 -1       374 1.17835E+00
 -1       375 9.26433E-01
 -1       376 6.98957E-01
 -1       377 5.07460E-01
 -1       378 3.42194E-01
 -1       379 2.19458E-01
 -1       380 1.65697E-01
 -1       381 1.28490E+00
 -1       382 1.73506E+00
 -1       383 9.21562E-01
 -1       384 6.66724E-01
 -1       385 5.43917E-01
 -1       386 4.46494E-01
 -1       387 3.60504E-01
 -1       388 2.93660E-01
 -1       389 2.38112E-01
 -1       390 1.90255E-01
 -1       391 1.51823E-01
 -1       392 1.25013E-01
 -1       393 9.95741E-02
 -1       394 7.84630E-02
 -1       395 6.10532E-02
 -1       396 4.74150E-02
 -1       397 5.15010E-02
 -1       398 6.28176E-02
 -1       399 8.21119E-02
 -1       400 1.25973E-01
 -1       401 1.96724E-01
 -1       402 3.02628E-01
 -1       403 4.61274E-01
 -1       404 6.86823E-01
 -1       405 1.02244E+00
 -1       406 1.51089E+00
 -1       407 2.19034E+00
 -1       408 3.08589E+00
 -1       409 4.16839E+00
 -1       410 5.34539E+00
 -1       411 6.88369E+00
 -1       412 1.21696E+01
 -1       413 9.27523E+00
 -1       414 6.83266E+00
 -1       415 9.35114E+00
 -1       416 7.99809E+00
 -1       417 6.14230E+00
 -1       418 5.20229E+00
 -1       419 4.20542E+00
 -1       420 3.15741E+00
 -1       421 2.19904E+00
 -1       422 1.41600E+00
 -1       423 9.29387E-01
 -1       424 3.99708E+01
 -1       425 7.05928E-01
 -1       426 7.22231E-01
 -1       427 7.05928E-01
 -1       428 6.70342E-01
 -1       429 5.97251E-01
 -1       430 3.65345E-01
 -1       431 2.69384E-01
 -1       432 2.89839E-01
 -1       433 2.89839E-01
 -1       434 2.70365E-01
 -1       435 2.37356E-01
 -1       436 1.78885E-01
 -1       437 3.72654E+01
 -1       438 3.99708E+01
 -1       439 9.12934E-01
 -1       440 1.00880E+01
 -1       441 8.23835E+00
 -1       442 1.47920E+01
 -1       443 2.58712E+01
 -1       444 3.00328E+01
 -1       445 3.46867E+01
 -1       446 3.46867E+01
 -1       447 2.47090E+01
 -1       448 2.06015E+01
 -1       449 1.18043E+01
 -1       450 6.09767E+00
 -1       451 8.98446E+00
 -1       452 1.05110E+01
 -1       453 1.11272E+01
 -1       454 9.94355E+00
 -1       455 7.77889E+00
 -1       456 8.51939E+00
 -1       457 1.49949E+01
 -1       458 2.71494E+01
 -1       459 2.58055E+01
 -1       460 1.24157E+01
 -1       461 1.04923E+01
 -1       462 5.50967E+00
 -1       463 4.86628E-01
 -1       464 5.11103E-01
 -1       465 4.30753E-01
 -1       466 4.56799E-01
 -1       467 4.86664E-01
 -1       468 5.11712E-01
 -1       469 5.12811E-01
 -1       470 5.12811E-01
 -1       471 8.19767E-01
 -1       472 8.04156E-01
 -1       473 7.02114E-01
 -1       474 5.88709E-01
 -1       475 4.76366E-01
 -1       476 3.77564E-01
 -1       477 3.23008E-01
 -1       478 2.72931E-01
 -1       479 2.25474E-01
 -1       480 1.85986E-01
 -1       481 1.51796E-01
 -1       482 1.21707E-01
 -1       483 9.58982E-02
 -1       484 7.46384E-02
 -1       485 5.71548E-02
 -1       486 4.17845E-02
 -1       487 3.46652E-02
 -1       488 3.56942E-02
 -1       489 3.80000E-02
 -1       490 4.46382E-02
 -1       491 5.63929E-02
 -1       492 6.46710E-02
 -1       493 7.05506E-02
 -1       494 7.80423E-02
 -1       495 1.05727E-01
 -1       496 1.41441E-01
 -1       497 2.17732E-01
 -1       498 3.50163E-01
 -1       499 5.07349E-01
 -1       500 7.07787E-01
 -1       501 9.41937E-01
 -1       502 1.13859E+00
 -1       503 1.26303E+00
 -1       504 1.37472E+00
 -1       505 1.38453E+00
 -1       506 1.31325E+00
 -1       507 1.37455E+00
 -1       508 1.38271E+00
 -1       509 1.28991E+00
 -1       510 1.18005E+00
 -1       511 9.99373E-01
 -1       512 7.75649E-01
 -1       513 6.04945E-01
 -1       514 4.45463E-01
 -1       515 3.29379E-01
 -1       516 7.96860E-01
 -1       517 4.81591E-01
 -1       518 3.82138E-01
 -1       519 3.25564E-01
 -1       520 2.75562E-01
 -1       521 2.28060E-01
 -1       522 1.88311E-01
 -1       523 1.53674E-01
 -1       524 1.25792E-01
 -1       525 1.00137E-01
 -1       526 7.86194E-02
 -1       527 6.10532E-02
 -1       528 4.66932E-02
 -1       529 4.11072E-02
 -1       530 4.79403E-02
 -1       531 6.41040E-02
 -1       532 1.02503E-01
 -1       533 1.56287E-01
 -1       534 2.32624E-01
 -1       535 3.41704E-01
 -1       536 4.90861E-01
 -1       537 7.07627E-01
 -1       538 1.03794E+00
 -1       539 1.57609E+00
 -1       540 2.41403E+00
 -1       541 3.65075E+00
 -1       542 5.56585E+00
 -1       543 1.09296E+01
 -1       544 1.19973E+01
 -1       545 3.99708E+01
 -1       546 1.10036E+01
 -1       547 5.50212E+00
 -1       548 3.64888E+00
 -1       549 2.37223E+00
 -1       550 1.46187E+00
 -1       551 1.04817E+00
 -1       552 2.40523E+01
 -1       553 9.41730E-01
 -1       554 3.55393E+01
 -1       555 6.74025E-01
 -1       556 5.23182E-01
 -1       557 4.36689E-01
 -1       558 4.36689E-01
 -1       559 3.74804E-01
 -1       560 3.71911E-01
 -1       561 2.36198E-01
 -1       562 1.25692E+01
 -1       563 1.96037E+01
 -1       564 5.92678E-01
 -1       565 1.01464E+00
 -1       566 7.72091E+00
 -1       567 1.11694E+01
 -1       568 1.00093E+00
 -1       569 1.01464E+00
 -1       570 6.14230E+00
 -1       571 8.18949E+00
 -1       572 4.57549E-01
 -1       573 6.51765E-01
 -1       574 6.77432E+00
 -1       575 1.21696E+01
 -1       576 1.74870E+01
 -1       577 3.00328E+01
 -1       578 3.46867E+01
 -1       579 2.47090E+01
 -1       580 1.61544E+01
 -1       581 6.70453E+00
 -1       582 7.07474E+00
 -1       583 8.43859E+00
 -1       584 5.99434E+00
 -1       585 3.78391E+00
 -1       586 1.42969E+01
 -1       587 8.78332E-01
 -1       588 5.11103E-01
 -1       589 2.36198E-01
 -1       590 4.44401E+00
 -1       591 4.62944E-01
 -1       592 7.40165E+00
 -1       593 1.57113E+01
 -1       594 3.58623E-01
 -1       595 3.42419E-01
 -1       596 3.60311E-01
 -1       597 3.42640E-01
 -1       598 3.88080E-01
 -1       599 4.03833E-01
 -1       600 3.60311E-01
 -1       601 3.96909E-01
 -1       602 3.83790E-01
 -1       603 3.42863E-01
 -1       604 2.93088E-01
 -1       605 2.43183E-01
 -1       606 2.11724E-01
 -1       607 1.78857E-01
 -1       608 1.47308E-01
 -1       609 1.18563E-01
 -1       610 9.46314E-02
 -1       611 7.46384E-02
 -1       612 5.71548E-02
 -1       613 4.17845E-02
 -1       614 2.81860E-02
 -1       615 2.37377E-02
 -1       616 2.56308E-02
 -1       617 3.67208E-02
 -1       618 5.00883E-02
 -1       619 6.23744E-02
 -1       620 7.49664E-02
 -1       621 8.85794E-02
 -1       622 1.10770E-01
 -1       623 1.67004E-01
 -1       624 2.36828E-01
 -1       625 3.50163E-01
 -1       626 5.07349E-01
 -1       627 6.69764E-01
 -1       628 8.42569E-01
 -1       629 9.93164E-01
 -1       630 1.15041E+00
 -1       631 1.23735E+00
 -1       632 1.33568E+00
 -1       633 1.26807E+00
 -1       634 1.25571E+00
 -1       635 1.35606E+00
 -1       636 1.26108E+00
 -1       637 1.18702E+00
 -1       638 1.04828E+00
 -1       639 9.21429E-01
 -1       640 7.57616E-01
 -1       641 6.04945E-01
 -1       642 4.52762E-01
 -1       643 2.95628E-01
 -1       644 7.18321E-01
 -1       645 3.45016E-01
 -1       646 3.33297E+00
 -1       647 2.13477E-01
 -1       648 1.80714E-01
 -1       649 1.49729E-01
 -1       650 1.21767E-01
 -1       651 9.80686E-02
 -1       652 7.81025E-02
 -1       653 6.04862E-02
 -1       654 4.55955E-02
 -1       655 3.21303E-02
 -1       656 3.04896E-02
 -1       657 4.21537E-02
 -1       658 6.95694E-02
 -1       659 1.05068E-01
 -1       660 1.65629E-01
 -1       661 2.58527E-01
 -1       662 3.91590E-01
 -1       663 6.02522E-01
 -1       664 9.18747E-01
 -1       665 1.39618E+00
 -1       666 2.12349E+00
 -1       667 3.24527E+00
 -1       668 5.03521E+00
 -1       669 9.41635E+00
 -1       670 1.80946E+01
 -1       671 3.60653E-01
 -1       672 2.09298E+00
 -1       673 5.48518E+00
 -1       674 1.36462E+00
 -1       675 9.26936E-01
 -1       676 4.47594E+00
 -1       677 1.16625E+00
 -1       678 6.66956E-01
 -1       679 5.55614E-01
 -1       680 5.83537E-01
 -1       681 9.59310E+00
 -1       682 3.83660E-01
 -1       683 5.83537E-01
 -1       684 1.15289E+01
 -1       685 1.50551E+01
 -1       686 1.17442E+01
 -1       687 2.45748E-01
 -1       688 6.07495E+00
 -1       689 6.68034E+00
 -1       690 1.70980E+01
 -1       691 3.18814E+00
 -1       692 5.33189E+00
 -1       693 1.36276E+01
 -1       694 1.55402E+01
 -1       695 1.80946E+01
 -1       696 3.70859E-01
 -1       697 3.42561E-01
 -1       698 3.33447E-01
 -1       699 1.41348E+00
 -1       700 1.09958E+01
 -1       701 1.19973E+01
 -1       702 3.36662E-01
 -1       703 7.20430E+00
 -1       704 1.39862E+00
 -1       705 3.13796E+00
 -1       706 3.57793E-01
 -1       707 3.93783E+00
 -1       708 3.95664E+00
 -1       709 4.44758E+00
 -1       710 3.28400E+00
 -1       711 3.60653E-01
 -1       712 1.43603E+00
 -1       713 2.71773E-01
 -1       714 2.79217E+00
 -1       715 2.48651E-01
 -1       716 2.32506E-01
 -1       717 2.54877E-01
 -1       718 2.47983E-01
 -1       719 2.26046E-01
 -1       720 1.97451E-01
 -1       721 1.70773E-01
 -1       722 1.49191E-01
 -1       723 1.26336E-01
 -1       724 1.04052E-01
 -1       725 8.33134E-02
 -1       726 6.44658E-02
 -1       727 4.74381E-02
 -1       728 3.19019E-02
 -1       729 1.73519E-02
 -1       730 1.46755E-02
 -1       731 2.73236E-02
 -1       732 4.28658E-02
 -1       733 5.92153E-02
 -1       734 7.54411E-02
 -1       735 9.71182E-02
 -1       736 1.23304E-01
 -1       737 1.67004E-01
 -1       738 2.36949E-01
 -1       739 3.48384E-01
 -1       740 4.75309E-01
 -1       741 6.56251E-01
 -1       742 8.42569E-01
 -1       743 1.02926E+00
 -1       744 1.17405E+00
 -1       745 1.21803E+00
 -1       746 1.42581E+00
 -1       747 1.59278E+00
 -1       748 1.42225E+00
 -1       749 1.60757E+00
 -1       750 1.47762E+00
 -1       751 1.26108E+00
 -1       752 1.20257E+00
 -1       753 1.09598E+00
 -1       754 9.21429E-01
 -1       755 7.48095E-01
 -1       756 6.20258E-01
 -1       757 7.29932E-01
 -1       758 9.66238E+00
 -1       759 1.71758E-01
 -1       760 1.06443E-01
 -1       761 8.55409E-02
 -1       762 6.65096E-02
 -1       763 4.92838E-02
 -1       764 3.34460E-02
 -1       765 2.44089E-02
 -1       766 3.02105E-02
 -1       767 5.58346E-02
 -1       768 9.14295E-02
 -1       769 1.42667E-01
 -1       770 2.15313E-01
 -1       771 3.08120E-01
 -1       772 4.60471E-01
 -1       773 6.72840E-01
 -1       774 9.83890E-01
 -1       775 1.45319E+00
 -1       776 2.15921E+00
 -1       777 3.31032E+00
 -1       778 7.11815E+00
 -1       779 2.55000E-01
 -1       780 8.74020E+00
 -1       781 1.18199E+00
 -1       782 2.71257E+00
 -1       783 3.89543E+00
 -1       784 8.37657E+00
 -1       785 1.54626E+00
 -1       786 2.56029E-01
 -1       787 6.20258E-01
 -1       788 2.27388E-01
 -1       789 7.70822E+00
 -1       790 2.67153E-01
 -1       791 2.72351E+00
 -1       792 9.86915E-01
 -1       793 2.72351E+00
 -1       794 1.99060E-01
 -1       795 4.00802E+00
 -1       796 4.97897E+00
 -1       797 5.22360E+00
 -1       798 1.50756E-01
 -1       799 4.48020E+00
 -1       800 1.28747E-01
 -1       801 1.15289E+01
 -1       802 2.40332E+00
 -1       803 2.88825E-01
 -1       804 9.66238E+00
 -1       805 1.04986E+01
 -1       806 6.32248E+00
 -1       807 2.67593E+00
 -1       808 2.81728E-01
 -1       809 3.94763E+00
 -1       810 2.88825E-01
 -1       811 2.34220E-01
 -1       812 2.89334E-01
 -1       813 3.85179E+00
 -1       814 2.29424E+00
 -1       815 3.37601E+00
 -1       816 2.82375E-01
 -1       817 2.81566E-01
 -1       818 7.70822E+00
 -1       819 2.09187E-01
 -1       820 5.13453E+00
 -1       821 9.66238E+00
 -1       822 1.74271E-01
 -1       823 1.81937E-01
 -1       824 1.74531E-01
 -1       825 1.58563E-01
 -1       826 1.38523E-01
 -1       827 1.22111E-01
 -1       828 1.05178E-01
 -1       829 8.78380E-02
 -1       830 7.11064E-02
 -1       831 5.54208E-02
 -1       832 4.08387E-02
 -1       833 2.89245E-02
 -1       834 2.68126E-02
 -1       835 2.75921E-02
 -1       836 4.04965E-02
 -1       837 5.44360E-02
 -1       838 7.39979E-02
 -1       839 1.00065E-01
 -1       840 1.29557E-01
 -1       841 1.76762E-01
 -1       842 2.39483E-01
 -1       843 3.48384E-01
 -1       844 4.75309E-01
 -1       845 6.65444E-01
 -1       846 8.55113E-01
 -1       847 1.02926E+00
 -1       848 1.27017E+00
 -1       849 1.47834E+00
 -1       850 1.44935E+00
 -1       851 1.88101E+00
 -1       852 2.22076E+00
 -1       853 2.39248E+00
 -1       854 2.34908E+00
 -1       855 1.83985E+00
 -1       856 1.27151E+00
 -1       857 1.34890E+00
 -1       858 1.09598E+00
 -1       859 9.91269E-01
 -1       860 7.83049E-01
 -1       861 1.82051E-01
 -1       862 1.39924E-01
 -1       863 7.24908E-02
 -1       864 2.34908E+00
 -1       865 8.88889E-02
 -1       866 4.21204E-02
 -1       867 3.37317E-02
 -1       868 3.62492E-02
 -1       869 4.51907E-02
 -1       870 7.23890E-02
 -1       871 1.08183E-01
 -1       872 1.55594E-01
 -1       873 2.07881E-01
 -1       874 2.95884E-01
 -1       875 4.31084E-01
 -1       876 6.60122E-01
 -1       877 1.00112E+00
 -1       878 1.50810E+00
 -1       879 2.33513E+00
 -1       880 3.59264E+00
 -1       881 1.74267E-01
 -1       882 6.98726E+00
 -1       883 2.52985E+00
 -1       884 2.89334E-01
 -1       885 1.39400E-01
 -1       886 1.60649E-01
 -1       887 1.41297E-01
 -1       888 2.79964E+00
 -1       889 2.04860E+00
 -1       890 2.34386E+00
 -1       891 5.67132E-02
 -1       892 1.22312E-01
 -1       893 2.18836E-01
 -1       894 2.79217E+00
 -1       895 5.10615E+00
 -1       896 4.32956E+00
 -1       897 1.75826E-01
 -1       898 1.05663E-01
 -1       899 1.48874E-01
 -1       900 6.89741E+00
 -1       901 8.09733E-01
 -1       902 3.83227E+00
 -1       903 2.52985E+00
 -1       904 2.95962E+00
 -1       905 3.93903E+00
 -1       906 2.00056E+00
 -1       907 3.86860E+00
 -1       908 2.17127E-01
 -1       909 2.18836E-01
 -1       910 2.22118E+00
 -1       911 1.03348E+00
 -1       912 2.97526E+00
 -1       913 2.01893E-01
 -1       914 1.23121E-01
 -1       915 2.17127E-01
 -1       916 9.91269E-01
 -1       917 2.52528E+00
 -1       918 1.35501E-01
 -1       919 1.34753E-01
 -1       920 1.25735E-01
 -1       921 1.12168E-01
 -1       922 9.73102E-02
 -1       923 8.45427E-02
 -1       924 7.11961E-02
 -1       925 5.80435E-02
 -1       926 4.55350E-02
 -1       927 3.79221E-02
 -1       928 3.62735E-02
 -1       929 3.61741E-02
 -1       930 4.04965E-02
 -1       931 5.49025E-02
 -1       932 7.40318E-02
 -1       933 9.67320E-02
 -1       934 1.35417E-01
 -1       935 1.90763E-01
 -1       936 2.60302E-01
 -1       937 3.50256E-01
 -1       938 4.82023E-01
 -1       939 6.65444E-01
 -1       940 8.87499E-01
 -1       941 1.20493E+00
 -1       942 1.44391E+00
 -1       943 1.67379E+00
 -1       944 1.99318E+00
 -1       945 2.20932E+00
 -1       946 1.63855E+00
 -1       947 1.34890E+00
 -1       948 1.02085E+00
 -1       949 4.07727E-02
 -1       950 4.00160E-02
 -1       951 5.66046E-02
 -1       952 7.85191E-02
 -1       953 1.13237E-01
 -1       954 1.55213E-01
 -1       955 2.34484E-01
 -1       956 3.37664E-01
 -1       957 4.79326E-01
 -1       958 6.67923E-01
 -1       959 1.15977E+00
 -1       960 1.91888E+00
 -1       961 1.26522E-01
 -1       962 1.47410E-01
 -1       963 9.10857E-02
 -1       964 1.63855E+00
 -1       965 1.13049E-01
 -1       966 3.86860E+00
 -1       967 4.43234E-02
 -1       968 7.16666E-02
 -1       969 1.52710E-01
 -1       970 2.33679E+00
 -1       971 5.88112E-02
 -1       972 1.83985E+00
 -1       973 1.61809E-01
 -1       974 1.30870E-01
 -1       975 4.64718E-02
 -1       976 1.34595E-01
 -1       977 2.89094E+00
 -1       978 4.13463E+00
 -1       979 1.22938E-01
 -1       980 4.32956E+00
 -1       981 1.27096E+00
 -1       982 9.79084E-02
 -1       983 8.52992E-02
 -1       984 2.27815E+00
 -1       985 1.35850E-01
 -1       986 2.85758E+00
 -1       987 8.95346E-02
 -1       988 1.61809E-01
 -1       989 1.01508E-01
 -1       990 1.02878E-01
 -1       991 9.73784E-02
 -1       992 8.79278E-02
 -1       993 7.63933E-02
 -1       994 6.47920E-02
 -1       995 5.48522E-02
 -1       996 4.67464E-02
 -1       997 4.40622E-02
 -1       998 4.23252E-02
 -1       999 4.27772E-02
 -1      1000 4.66543E-02
 -1      1001 5.49025E-02
 -1      1002 7.40318E-02
 -1      1003 9.67320E-02
 -1      1004 1.32823E-01
 -1      1005 1.79408E-01
 -1      1006 2.66950E-01
 -1      1007 3.89683E-01
 -1      1008 5.33770E-01
 -1      1009 7.02099E-01
 -1      1010 9.55183E-01
 -1      1011 1.87994E+00
 -1      1012 1.72464E+00
 -1      1013 1.95301E+00
 -1      1014 1.24033E-01
 -1      1015 9.68077E-02
 -1      1016 7.21658E-02
 -1      1017 1.74877E-01
 -1      1018 2.34484E-01
 -1      1019 3.59472E-01
 -1      1020 5.59154E-01
 -1      1021 8.39642E-01
 -1      1022 1.15977E+00
 -1      1023 2.39569E+00
 -1      1024 9.76571E-02
 -1      1025 9.71201E-02
 -1      1026 1.97574E+00
 -1      1027 1.04586E-01
 -1      1028 4.22789E-02
 -1      1029 4.49345E-02
 -1      1030 5.52594E-02
 -1      1031 1.19696E+00
 -1      1032 3.53543E+00
 -1      1033 1.22910E+00
 -1      1034 1.23009E-01
 -1      1035 7.47572E-01
 -1      1036 1.88285E+00
 -1      1037 6.08688E-02
 -1      1038 1.02516E-01
 -1      1039 2.08685E+00
 -1      1040 6.47532E-02
 -1      1041 8.83742E-02
 -1      1042 7.77200E-02
 -1      1043 6.51915E-02
 -1      1044 8.82252E-02
 -1      1045 7.58647E-02
 -1      1046 8.20753E-02
 -1      1047 8.20753E-02
 -1      1048 6.34869E-02
 -1      1049 6.16075E-02
 -1      1050 7.40327E-02
 -1      1051 6.32547E-02
 -1      1052 4.40622E-02
 -1      1053 4.44227E-02
 -1      1054 5.14865E-02
 -1      1055 6.70014E-02
 -1      1056 9.21542E-02
 -1      1057 1.27927E-01
 -1      1058 1.80373E-01
 -1      1059 2.59261E-01
 -1      1060 3.68525E-01
 -1      1061 5.10496E-01
 -1      1062 6.78629E-01
 -1      1063 9.32481E-01
 -1      1064 1.36168E+00
 -1      1065 1.27927E-01
 -1      1066 2.59261E-01
 -1      1067 1.80373E-01
 -1      1068 9.21542E-02
 -1      1069 3.68525E-01
 -1      1070 5.10496E-01
 -1      1071 6.78629E-01
 -1      1072 9.32481E-01
 -1      1073 5.15150E-02
 -1      1074 5.21392E-02
 -1      1075 5.14865E-02
 -1      1076 7.68661E-02
 -1      1077 4.44227E-02
 -1      1078 1.00907E-01
 -1      1079 6.70014E-02
 -1      1080 1.23009E-01
 -1      1081 6.93530E-02
 -1      1082 6.32547E-02
 -1      1083 8.82252E-02
 -1      1084 1.36168E+00
 -1      1085 6.68375E-02
 -1      1086 8.20753E-02
 -1      1087 7.77200E-02
 -1      1088 9.70694E-02
 -1      1089 7.77200E-02
 -1      1090 6.90081E-02
 -1      1091 1.31445E+01
 -1      1092 8.40497E+00
 -1      1093 2.74671E+00
 -1      1094 1.55916E+00
 -1      1095 1.16700E+00
 -1      1096 9.71707E-01
 -1      1097 8.54084E-01
 -1      1098 7.80698E-01
 -1      1099 7.53279E-01
 -1      1100 7.81851E-01
 -1      1101 8.53429E-01
 -1      1102 9.72153E-01
 -1      1103 1.17248E+00
 -1      1104 1.57169E+00
 -1      1105 2.77725E+00
 -1      1106 8.50671E+00
 -1      1107 1.33049E+01
 -1      1108 1.31445E+01
 -1      1109 8.73116E+00
 -1      1110 3.82970E+00
 -1      1111 2.72688E+00
 -1      1112 1.73780E+00
 -1      1113 1.18903E+00
 -1      1114 8.95297E-01
 -1      1115 6.86238E-01
 -1      1116 5.26499E-01
 -1      1117 4.02623E-01
 -1      1118 3.09387E-01
 -1      1119 2.38428E-01
 -1      1120 1.81877E-01
 -1      1121 1.37671E-01
 -1      1122 1.03841E-01
 -1      1123 7.99586E-02
 -1      1124 6.51569E-02
 -1      1125 5.60182E-02
 -1      1126 5.13982E-02
 -1      1127 5.28419E-02
 -1      1128 5.82568E-02
 -1      1129 6.38820E-02
 -1      1130 7.25087E-02
 -1      1131 9.15580E-02
 -1      1132 1.17565E-01
 -1      1133 1.39836E-01
 -1      1134 1.67638E-01
 -1      1135 2.13520E-01
 -1      1136 2.79497E-01
 -1      1137 4.04327E-01
 -1      1138 5.83756E-01
 -1      1139 8.02649E-01
 -1      1140 1.13448E+00
 -1      1141 1.58884E+00
 -1      1142 2.04496E+00
 -1      1143 2.35841E+00
 -1      1144 2.46397E+00
 -1      1145 2.45790E+00
 -1      1146 2.45184E+00
 -1      1147 2.36063E+00
 -1      1148 2.07244E+00
 -1      1149 1.63338E+00
 -1      1150 1.19131E+00
 -1      1151 8.18240E-01
 -1      1152 5.45423E-01
 -1      1153 3.64640E-01
 -1      1154 2.23486E-01
 -1      1155 1.26651E-01
 -1      1156 6.94181E-02
 -1      1157 2.94318E-02
 -1      1158 1.33049E+01
 -1      1159 8.79574E+00
 -1      1160 3.84278E+00
 -1      1161 2.77786E+00
 -1      1162 1.77424E+00
 -1      1163 1.20997E+00
 -1      1164 9.07137E-01
 -1      1165 6.95166E-01
 -1      1166 5.33423E-01
 -1      1167 4.07811E-01
 -1      1168 3.13309E-01
 -1      1169 2.41656E-01
 -1      1170 1.84586E-01
 -1      1171 1.38043E-01
 -1      1172 1.04884E-01
 -1      1173 8.25711E-02
 -1      1174 6.49752E-02
 -1      1175 5.38503E-02
 -1      1176 5.35640E-02
 -1      1177 6.45030E-02
 -1      1178 8.46515E-02
 -1      1179 1.18147E-01
 -1      1180 1.69860E-01
 -1      1181 2.47817E-01
 -1      1182 3.63555E-01
 -1      1183 5.32692E-01
 -1      1184 7.49652E-01
 -1      1185 1.06708E+00
 -1      1186 1.49453E+00
 -1      1187 2.08789E+00
 -1      1188 2.94615E+00
 -1      1189 4.05350E+00
 -1      1190 5.18712E+00
 -1      1191 5.70512E+00
 -1      1192 5.38926E+00
 -1      1193 7.68528E+00
 -1      1194 1.32485E+01
 -1      1195 1.61998E+01
 -1      1196 1.59475E+01
 -1      1197 1.28446E+01
 -1      1198 7.51299E+00
 -1      1199 5.39642E+00
 -1      1200 5.76101E+00
 -1      1201 5.38002E+00
 -1      1202 4.33940E+00
 -1      1203 3.15711E+00
 -1      1204 2.34923E+00
 -1      1205 1.84021E+00
 -1      1206 1.39046E+00
 -1      1207 9.91882E-01
 -1      1208 4.86305E-01
 -1      1209 3.15067E-01
 -1      1210 3.65214E-01
 -1      1211 1.82590E-01
 -1      1212 1.60631E-01
 -1      1213 2.22648E-01
 -1      1214 2.35558E-01
 -1      1215 2.14901E-01
 -1      1216 1.51881E-01
 -1      1217 8.53038E-02
 -1      1218 7.83647E-02
 -1      1219 9.79165E-02
 -1      1220 1.00194E-01
 -1      1221 9.21770E-02
 -1      1222 6.98136E-02
 -1      1223 3.65763E-02
 -1      1224 2.41454E-02
 -1      1225 2.02752E-02
 -1      1226 2.46215E+01
 -1      1227 2.56377E+01
 -1      1228 2.95224E+01
 -1      1229 3.29538E+01
 -1      1230 2.35263E+01
 -1      1231 1.40507E+01
 -1      1232 1.38126E+01
 -1      1233 1.38262E+01
 -1      1234 1.36434E+01
 -1      1235 1.54870E+01
 -1      1236 3.13659E+01
 -1      1237 4.52183E+01
 -1      1238 3.57924E+01
 -1      1239 2.63665E+01
 -1      1240 2.53296E+01
 -1      1241 2.63439E+01
 -1      1242 2.99872E+01
 -1      1243 3.06114E+01
 -1      1244 2.11734E+01
 -1      1245 1.25097E+01
 -1      1246 1.22907E+01
 -1      1247 1.23517E+01
 -1      1248 1.24381E+01
 -1      1249 1.21663E+01
 -1      1250 1.45844E+01
 -1      1251 3.12598E+01
 -1      1252 4.52454E+01
 -1      1253 3.44846E+01
 -1      1254 2.37896E+01
 -1      1255 1.31445E+01
 -1      1256 4.87284E+00
 -1      1257 9.61241E+00
 -1      1258 2.06501E+00
 -1      1259 2.98371E+00
 -1      1260 4.19115E+00
 -1      1261 1.39816E+00
 -1      1262 1.66701E+00
 -1      1263 1.90401E+00
 -1      1264 1.10093E+00
 -1      1265 1.22424E+00
 -1      1266 1.33209E+00
 -1      1267 9.35758E-01
 -1      1268 1.00774E+00
 -1      1269 1.06498E+00
 -1      1270 8.36192E-01
 -1      1271 8.81837E-01
 -1      1272 9.17866E-01
 -1      1273 7.74165E-01
 -1      1274 8.01907E-01
 -1      1275 8.29660E-01
 -1      1276 7.53601E-01
 -1      1277 7.53279E-01
 -1      1278 7.74487E-01
 -1      1279 8.03272E-01
 -1      1280 7.75022E-01
 -1      1281 7.75022E-01
 -1      1282 8.79882E-01
 -1      1283 8.36553E-01
 -1      1284 8.29724E-01
 -1      1285 1.01140E+00
 -1      1286 9.36003E-01
 -1      1287 9.19126E-01
 -1      1288 1.23004E+00
 -1      1289 1.10511E+00
 -1      1290 1.06896E+00
 -1      1291 1.68065E+00
 -1      1292 1.40637E+00
 -1      1293 1.33900E+00
 -1      1294 3.01695E+00
 -1      1295 2.08567E+00
 -1      1296 1.92035E+00
 -1      1297 9.75044E+00
 -1      1298 4.95226E+00
 -1      1299 4.26067E+00
 -1      1300 1.33049E+01
 -1      1301 8.73116E+00
 -1      1302 4.31779E+00
 -1      1303 3.82970E+00
 -1      1304 3.34161E+00
 -1      1305 3.82970E+00
 -1      1306 2.72688E+00
 -1      1307 2.11214E+00
 -1      1308 2.72688E+00
 -1      1309 1.77992E+00
 -1      1310 1.40558E+00
 -1      1311 1.77992E+00
 -1      1312 1.19479E+00
 -1      1313 1.02036E+00
 -1      1314 1.23690E+00
 -1      1315 8.95297E-01
 -1      1316 7.75995E-01
 -1      1317 9.01053E-01
 -1      1318 6.86238E-01
 -1      1319 5.96481E-01
 -1      1320 6.86238E-01
 -1      1321 5.32629E-01
 -1      1322 4.62647E-01
 -1      1323 5.32629E-01
 -1      1324 4.12698E-01
 -1      1325 3.58805E-01
 -1      1326 4.18828E-01
 -1      1327 3.19495E-01
 -1      1328 2.80151E-01
 -1      1329 3.29569E-01
 -1      1330 2.51755E-01
 -1      1331 2.20139E-01
 -1      1332 2.61863E-01
 -1      1333 1.95990E-01
 -1      1334 1.71056E-01
 -1      1335 2.09318E-01
 -1      1336 1.51041E-01
 -1      1337 1.31769E-01
 -1      1338 1.65154E-01
 -1      1339 1.15535E-01
 -1      1340 1.00976E-01
 -1      1341 1.28905E-01
 -1      1342 8.80447E-02
 -1      1343 7.87215E-02
 -1      1344 9.97392E-02
 -1      1345 6.85596E-02
 -1      1346 6.30812E-02
 -1      1347 7.66458E-02
 -1      1348 5.60182E-02
 -1      1349 5.23578E-02
 -1      1350 5.94209E-02
 -1      1351 5.05430E-02
 -1      1352 4.95833E-02
 -1      1353 5.05430E-02
 -1      1354 5.04386E-02
 -1      1355 5.28419E-02
 -1      1356 4.95833E-02
 -1      1357 5.52452E-02
 -1      1358 5.82568E-02
 -1      1359 5.28419E-02
 -1      1360 6.12684E-02
 -1      1361 6.38820E-02
 -1      1362 5.82568E-02
 -1      1363 6.64956E-02
 -1      1364 7.25087E-02
 -1      1365 6.38820E-02
 -1      1366 7.94450E-02
 -1      1367 9.24812E-02
 -1      1368 7.34319E-02
 -1      1369 1.04594E-01
 -1      1370 1.17565E-01
 -1      1371 9.24812E-02
 -1      1372 1.30536E-01
 -1      1373 1.39836E-01
 -1      1374 1.17565E-01
 -1      1375 1.49136E-01
 -1      1376 1.67638E-01
 -1      1377 1.39836E-01
 -1      1378 1.86139E-01
 -1      1379 2.13520E-01
 -1      1380 1.67638E-01
 -1      1381 2.40900E-01
 -1      1382 2.79497E-01
 -1      1383 2.13520E-01
 -1      1384 3.23594E-01
 -1      1385 4.09827E-01
 -1      1386 2.84997E-01
 -1      1387 5.16107E-01
 -1      1388 6.09302E-01
 -1      1389 4.35374E-01
 -1      1390 7.35494E-01
 -1      1391 8.61192E-01
 -1      1392 6.67845E-01
 -1      1393 9.95408E-01
 -1      1394 1.20154E+00
 -1      1395 9.28252E-01
 -1      1396 1.37793E+00
 -1      1397 1.62615E+00
 -1      1398 1.23885E+00
 -1      1399 1.83707E+00
 -1      1400 2.04496E+00
 -1      1401 1.62615E+00
 -1      1402 2.25286E+00
 -1      1403 2.35841E+00
 -1      1404 2.04496E+00
 -1      1405 2.46397E+00
 -1      1406 2.46397E+00
 -1      1407 2.35841E+00
 -1      1408 2.42976E+00
 -1      1409 2.42369E+00
 -1      1410 2.42976E+00
 -1      1411 2.45184E+00
 -1      1412 2.45184E+00
 -1      1413 2.42369E+00
 -1      1414 2.36063E+00
 -1      1415 2.26942E+00
 -1      1416 2.36063E+00
 -1      1417 2.07244E+00
 -1      1418 1.87545E+00
 -1      1419 2.07244E+00
 -1      1420 1.66873E+00
 -1      1421 1.42665E+00
 -1      1422 1.66873E+00
 -1      1423 1.25610E+00
 -1      1424 1.05611E+00
 -1      1425 1.29145E+00
 -1      1426 9.25381E-01
 -1      1427 7.52295E-01
 -1      1428 9.90167E-01
 -1      1429 6.31341E-01
 -1      1430 5.31611E-01
 -1      1431 7.38482E-01
 -1      1432 4.29284E-01
 -1      1433 3.48231E-01
 -1      1434 5.15201E-01
 -1      1435 2.69267E-01
 -1      1436 2.09165E-01
 -1      1437 3.33910E-01
 -1      1438 1.53337E-01
 -1      1439 1.16603E-01
 -1      1440 1.99117E-01
 -1      1441 7.73633E-02
 -1      1442 5.68639E-02
 -1      1443 1.04049E-01
 -1      1444 3.97621E-02
 -1      1445 4.77073E-02
 -1      1446 4.28658E+00
 -1      1447 8.79574E+00
 -1      1448 3.39899E+00
 -1      1449 3.84278E+00
 -1      1450 3.84278E+00
 -1      1451 2.15674E+00
 -1      1452 2.77786E+00
 -1      1453 2.77786E+00
 -1      1454 1.42962E+00
 -1      1455 1.81212E+00
 -1      1456 1.81212E+00
 -1      1457 1.03562E+00
 -1      1458 1.21738E+00
 -1      1459 1.25527E+00
 -1      1460 7.86071E-01
 -1      1461 9.07137E-01
 -1      1462 9.14552E-01
 -1      1463 6.04261E-01
 -1      1464 6.95166E-01
 -1      1465 6.95166E-01
 -1      1466 4.68392E-01
 -1      1467 5.39230E-01
 -1      1468 5.39230E-01
 -1      1469 3.63213E-01
 -1      1470 4.17988E-01
 -1      1471 4.23794E-01
 -1      1472 2.83530E-01
 -1      1473 3.23257E-01
 -1      1474 3.33434E-01
 -1      1475 2.23083E-01
 -1      1476 2.55008E-01
 -1      1477 2.64957E-01
 -1      1478 1.73713E-01
 -1      1479 1.98859E-01
 -1      1480 2.12210E-01
 -1      1481 1.30840E-01
 -1      1482 1.52237E-01
 -1      1483 1.66510E-01
 -1      1484 1.05151E-01
 -1      1485 1.16913E-01
 -1      1486 1.31106E-01
 -1      1487 8.18147E-02
 -1      1488 9.23659E-02
 -1      1489 1.04394E-01
 -1      1490 6.49989E-02
 -1      1491 7.20434E-02
 -1      1492 8.18383E-02
 -1      1493 5.36723E-02
 -1      1494 5.77525E-02
 -1      1495 6.48208E-02
 -1      1496 5.44295E-02
 -1      1497 5.06355E-02
 -1      1498 5.45377E-02
 -1      1499 6.72328E-02
 -1      1500 6.00878E-02
 -1      1501 5.71593E-02
 -1      1502 8.98835E-02
 -1      1503 7.68799E-02
 -1      1504 7.24647E-02
 -1      1505 1.25468E-01
 -1      1506 1.04976E-01
 -1      1507 9.72044E-02
 -1      1508 1.79381E-01
 -1      1509 1.48159E-01
 -1      1510 1.34988E-01
 -1      1511 2.59526E-01
 -1      1512 2.12792E-01
 -1      1513 1.91090E-01
 -1      1514 3.80235E-01
 -1      1515 3.11231E-01
 -1      1516 2.76206E-01
 -1      1517 5.76041E-01
 -1      1518 4.75907E-01
 -1      1519 4.23583E-01
 -1      1520 8.32197E-01
 -1      1521 7.15371E-01
 -1      1522 6.58585E-01
 -1      1523 1.24078E+00
 -1      1524 1.04018E+00
 -1      1525 1.00590E+00
 -1      1526 1.76486E+00
 -1      1527 1.53803E+00
 -1      1528 1.51112E+00
 -1      1529 2.51870E+00
 -1      1530 2.15217E+00
 -1      1531 2.19567E+00
 -1      1532 3.45000E+00
 -1      1533 2.95827E+00
 -1      1534 3.02255E+00
 -1      1535 4.44606E+00
 -1      1536 3.83043E+00
 -1      1537 3.84256E+00
 -1      1538 5.22527E+00
 -1      1539 4.70727E+00
 -1      1540 4.48421E+00
 -1      1541 5.70512E+00
 -1      1542 5.70512E+00
 -1      1543 5.22527E+00
 -1      1544 5.64722E+00
 -1      1545 5.96308E+00
 -1      1546 5.96308E+00
 -1      1547 8.05098E+00
 -1      1548 5.43911E+00
 -1      1549 6.01293E+00
 -1      1550 1.32485E+01
 -1      1551 1.02972E+01
 -1      1552 8.05098E+00
 -1      1553 1.62249E+01
 -1      1554 1.62249E+01
 -1      1555 1.32735E+01
 -1      1556 1.61602E+01
 -1      1557 1.64126E+01
 -1      1558 1.64376E+01
 -1      1559 1.00164E+01
 -1      1560 1.28669E+01
 -1      1561 1.33320E+01
 -1      1562 5.18805E+00
 -1      1563 7.66921E+00
 -1      1564 7.69145E+00
 -1      1565 5.54635E+00
 -1      1566 5.18176E+00
 -1      1567 5.33798E+00
 -1      1568 5.76101E+00
 -1      1569 5.76101E+00
 -1      1570 5.54635E+00
 -1      1571 4.99903E+00
 -1      1572 5.38002E+00
 -1      1573 5.38002E+00
 -1      1574 3.85892E+00
 -1      1575 4.51855E+00
 -1      1576 4.51855E+00
 -1      1577 2.93390E+00
 -1      1578 3.45657E+00
 -1      1579 3.63571E+00
 -1      1580 2.25242E+00
 -1      1581 2.53763E+00
 -1      1582 2.83709E+00
 -1      1583 1.64540E+00
 -1      1584 1.86921E+00
 -1      1585 2.05761E+00
 -1      1586 1.16452E+00
 -1      1587 1.39046E+00
 -1      1588 1.41946E+00
 -1      1589 8.19248E-01
 -1      1590 9.91882E-01
 -1      1591 9.91882E-01
 -1      1592 6.48010E-01
 -1      1593 4.37752E-01
 -1      1594 5.49309E-01
 -1      1595 3.66686E-01
 -1      1596 4.37752E-01
 -1      1597 6.21847E-01
 -1      1598 2.95411E-01
 -1      1599 2.46304E-01
 -1      1600 5.01466E-01
 -1      1601 3.46130E-01
 -1      1602 3.33220E-01
 -1      1603 4.18892E-01
 -1      1604 3.46130E-01
 -1      1605 3.46130E-01
 -1      1606 4.56701E-01
 -1      1607 3.16809E-01
 -1      1608 3.37466E-01
 -1      1609 4.48037E-01
 -1      1610 2.17054E-01
 -1      1611 2.59417E-01
 -1      1612 3.81982E-01
 -1      1613 1.06553E-01
 -1      1614 1.30766E-01
 -1      1615 2.38303E-01
 -1      1616 1.36437E-01
 -1      1617 1.19163E-01
 -1      1618 1.64625E-01
 -1      1619 1.45813E-01
 -1      1620 1.43535E-01
 -1      1621 1.84333E-01
 -1      1622 1.45813E-01
 -1      1623 1.45813E-01
 -1      1624 1.91431E-01
 -1      1625 1.33699E-01
 -1      1626 1.41716E-01
 -1      1627 1.87335E-01
 -1      1628 1.01991E-01
 -1      1629 1.16338E-01
 -1      1630 1.65877E-01
 -1      1631 5.49393E-02
 -1      1632 7.38302E-02
 -1      1633 1.20354E-01
 -1      1634 5.84086E-02
 -1      1635 5.19485E-02
 -1      1636 8.92025E-02
 -1      1637 7.55104E-02
 -1      1638 2.65612E+01
 -1      1639 2.57950E+01
 -1      1640 3.15765E+01
 -1      1641 3.13266E+01
 -1      1642 3.52113E+01
 -1      1643 3.15765E+01
 -1      1644 3.29538E+01
 -1      1645 3.31572E+01
 -1      1646 1.43023E+01
 -1      1647 2.35263E+01
 -1      1648 1.32236E+01
 -1      1649 1.34753E+01
 -1      1650 1.52258E+01
 -1      1651 1.52122E+01
 -1      1652 1.52258E+01
 -1      1653 1.52258E+01
 -1      1654 1.48552E+01
 -1      1655 1.50380E+01
 -1      1656 1.47940E+01
 -1      1657 1.27676E+01
 -1      1658 3.18649E+01
 -1      1659 1.80125E+01
 -1      1660 4.52183E+01
 -1      1661 4.52183E+01
 -1      1662 3.22253E+01
 -1      1663 4.16512E+01
 -1      1664 2.85981E+01
 -1      1665 2.85981E+01
 -1      1666 2.75613E+01
 -1      1667 2.85981E+01
 -1      1668 2.62866E+01
 -1      1669 2.42355E+01
 -1      1670 3.15793E+01
 -1      1671 2.99872E+01
 -1      1672 3.06114E+01
 -1      1673 3.15793E+01
 -1      1674 1.27034E+01
 -1      1675 2.11734E+01
 -1      1676 1.23160E+01
 -1      1677 1.25097E+01
 -1      1678 1.22654E+01
 -1      1679 1.22907E+01
 -1      1680 1.20005E+01
 -1      1681 1.19141E+01
 -1      1682 1.24381E+01
 -1      1683 1.24381E+01
 -1      1684 1.18945E+01
 -1      1685 1.21663E+01
 -1      1686 1.40941E+01
 -1      1687 1.14042E+01
 -1      1688 3.14378E+01
 -1      1689 1.74522E+01
 -1      1690 4.52454E+01
 -1      1691 4.52454E+01
 -1      1692 3.15489E+01
 -1      1693 4.23096E+01
 -1      1694 2.57950E+01
 -1      1695 2.57293E+01
 -1      1696 9.75044E+00
 -1      1697 3.52113E+01
 -1      1698 6.48010E-01
 -1      1699 3.25001E+01
 -1      1700 3.72654E+01
 -1      1701 2.77348E+01
 -1      1702 2.37298E+01
 -1      1703 1.34753E+01
 -1      1704 1.46368E+01
 -1      1705 1.66254E+01
 -1      1706 1.64376E+01
 -1      1707 1.41622E+01
 -1      1708 1.52930E+01
 -1      1709 3.18649E+01
 -1      1710 4.16512E+01
 -1      1711 3.44569E+01
 -1      1712 3.08298E+01
 -1      1713 2.75040E+01
 -1      1714 2.78788E+01
 -1      1715 3.15793E+01
 -1      1716 2.21414E+01
 -1      1717 1.25097E+01
 -1      1718 1.22907E+01
 -1      1719 1.19141E+01
 -1      1720 1.20005E+01
 -1      1721 1.21663E+01
 -1      1722 1.14042E+01
 -1      1723 1.42720E+01
 -1      1724 3.14378E+01
 -1      1725 4.23096E+01
 -1      1726 3.35543E+01
 -1      1727 9.61241E+00
 -1      1728 1.28874E+00
 -1      1729 1.68675E+00
 -1      1730 2.39151E+00
 -1      1731 4.28064E+00
 -1      1732 1.77625E+00
 -1      1733 8.80307E-01
 -1      1734 9.73500E-01
 -1      1735 7.79434E-01
 -1      1736 8.33355E-01
 -1      1737 7.41875E-01
 -1      1738 7.13523E-01
 -1      1739 7.47809E-01
 -1      1740 6.63297E-01
 -1      1741 6.70449E-01
 -1      1742 6.91336E-01
 -1      1743 6.09485E-01
 -1      1744 6.92774E-01
 -1      1745 6.71353E-01
 -1      1746 5.88202E-01
 -1      1747 7.47721E-01
 -1      1748 7.14439E-01
 -1      1749 6.10770E-01
 -1      1750 8.36929E-01
 -1      1751 7.80809E-01
 -1      1752 6.65524E-01
 -1      1753 9.77882E-01
 -1      1754 8.84173E-01
 -1      1755 7.45855E-01
 -1      1756 1.21848E+00
 -1      1757 1.04215E+00
 -1      1758 8.57362E-01
 -1      1759 1.70590E+00
 -1      1760 1.30089E+00
 -1      1761 1.00403E+00
 -1      1762 4.33984E+00
 -1      1763 2.40453E+00
 -1      1764 1.78507E+00
 -1      1765 2.73647E+01
 -1      1766 2.94188E+01
 -1      1767 5.19903E+00
 -1      1768 5.24128E+00
 -1      1769 2.53570E+00
 -1      1770 1.92096E+00
 -1      1771 1.68998E+00
 -1      1772 1.35776E+00
 -1      1773 1.49881E+00
 -1      1774 1.17753E+00
 -1      1775 9.66737E-01
 -1      1776 1.08760E+00
 -1      1777 8.41218E-01
 -1      1778 7.16160E-01
 -1      1779 7.81844E-01
 -1      1780 6.57468E-01
 -1      1781 5.67711E-01
 -1      1782 5.97633E-01
 -1      1783 5.19233E-01
 -1      1784 4.55381E-01
 -1      1785 4.90463E-01
 -1      1786 4.12659E-01
 -1      1787 3.62710E-01
 -1      1788 3.99262E-01
 -1      1789 3.29706E-01
 -1      1790 2.90396E-01
 -1      1791 3.23537E-01
 -1      1792 2.62717E-01
 -1      1793 2.34321E-01
 -1      1794 2.62854E-01
 -1      1795 2.10484E-01
 -1      1796 1.86335E-01
 -1      1797 2.11338E-01
 -1      1798 1.67999E-01
 -1      1799 1.47985E-01
 -1      1800 1.69166E-01
 -1      1801 1.32980E-01
 -1      1802 1.16745E-01
 -1      1803 1.35825E-01
 -1      1804 1.03964E-01
 -1      1805 9.10322E-02
 -1      1806 1.08038E-01
 -1      1807 8.03168E-02
 -1      1808 7.01550E-02
 -1      1809 8.45414E-02
 -1      1810 6.12289E-02
 -1      1811 5.41658E-02
 -1      1812 6.48999E-02
 -1      1813 4.87206E-02
 -1      1814 4.69057E-02
 -1      1815 5.05286E-02
 -1      1816 4.63930E-02
 -1      1817 4.72483E-02
 -1      1818 4.45706E-02
 -1      1819 4.85660E-02
 -1      1820 5.09692E-02
 -1      1821 4.53756E-02
 -1      1822 5.27971E-02
 -1      1823 5.58087E-02
 -1      1824 4.85212E-02
 -1      1825 5.74570E-02
 -1      1826 6.00706E-02
 -1      1827 5.19973E-02
 -1      1828 6.55387E-02
 -1      1829 7.24750E-02
 -1      1830 5.91137E-02
 -1      1831 7.82110E-02
 -1      1832 9.03240E-02
 -1      1833 7.03178E-02
 -1      1834 9.53732E-02
 -1      1835 1.08344E-01
 -1      1836 8.11030E-02
 -1      1837 1.08520E-01
 -1      1838 1.17820E-01
 -1      1839 8.63278E-02
 -1      1840 1.14556E-01
 -1      1841 1.33057E-01
 -1      1842 8.32395E-02
 -1      1843 1.62012E-01
 -1      1844 1.89392E-01
 -1      1845 1.08930E-01
 -1      1846 2.54024E-01
 -1      1847 2.98121E-01
 -1      1848 2.02516E-01
 -1      1849 3.81579E-01
 -1      1850 4.87859E-01
 -1      1851 3.50607E-01
 -1      1852 5.86446E-01
 -1      1853 7.12637E-01
 -1      1854 5.32651E-01
 -1      1855 8.28405E-01
 -1      1856 9.62621E-01
 -1      1857 7.47005E-01
 -1      1858 1.09571E+00
 -1      1859 1.27209E+00
 -1      1860 9.95864E-01
 -1      1861 1.38699E+00
 -1      1862 1.59791E+00
 -1      1863 1.24386E+00
 -1      1864 1.73196E+00
 -1      1865 1.93985E+00
 -1      1866 1.49280E+00
 -1      1867 2.01647E+00
 -1      1868 2.12202E+00
 -1      1869 1.70346E+00
 -1      1870 2.12502E+00
 -1      1871 2.09081E+00
 -1      1872 1.78308E+00
 -1      1873 2.07920E+00
 -1      1874 2.10735E+00
 -1      1875 1.77447E+00
 -1      1876 2.11483E+00
 -1      1877 2.02362E+00
 -1      1878 1.77034E+00
 -1      1879 1.95742E+00
 -1      1880 1.76043E+00
 -1      1881 1.71162E+00
 -1      1882 1.63570E+00
 -1      1883 1.42898E+00
 -1      1884 1.52068E+00
 -1      1885 1.32018E+00
 -1      1886 1.14962E+00
 -1      1887 1.28715E+00
 -1      1888 1.02367E+00
 -1      1889 8.92935E-01
 -1      1890 1.05239E+00
 -1      1891 7.79197E-01
 -1      1892 6.58243E-01
 -1      1893 8.12695E-01
 -1      1894 5.62494E-01
 -1      1895 4.60167E-01
 -1      1896 6.03209E-01
 -1      1897 3.77534E-01
 -1      1898 2.98570E-01
 -1      1899 4.24827E-01
 -1      1900 2.37202E-01
 -1      1901 1.81374E-01
 -1      1902 2.80826E-01
 -1      1903 1.54493E-01
 -1      1904 1.15253E-01
 -1      1905 1.25954E-01
 -1      1906 1.92577E-01
 -1      1907 1.37620E+00
 -1      1908 1.72082E+00
 -1      1909 1.94590E+00
 -1      1910 2.56703E+00
 -1      1911 1.50998E+00
 -1      1912 9.82298E-01
 -1      1913 1.19453E+00
 -1      1914 1.10323E+00
 -1      1915 7.26397E-01
 -1      1916 8.54878E-01
 -1      1917 7.94143E-01
 -1      1918 5.74089E-01
 -1      1919 6.64994E-01
 -1      1920 6.05320E-01
 -1      1921 4.60346E-01
 -1      1922 5.25378E-01
 -1      1923 4.95206E-01
 -1      1924 3.66947E-01
 -1      1925 4.17351E-01
 -1      1926 4.03499E-01
 -1      1927 2.93569E-01
 -1      1928 3.33525E-01
 -1      1929 3.27082E-01
 -1      1930 2.37273E-01
 -1      1931 2.65795E-01
 -1      1932 2.65886E-01
 -1      1933 1.89120E-01
 -1      1934 2.13344E-01
 -1      1935 2.14183E-01
 -1      1936 1.48428E-01
 -1      1937 1.69904E-01
 -1      1938 1.71039E-01
 -1      1939 1.21096E-01
 -1      1940 1.35023E-01
 -1      1941 1.38418E-01
 -1      1942 9.55918E-02
 -1      1943 1.08377E-01
 -1      1944 1.12293E-01
 -1      1945 7.52651E-02
 -1      1946 8.50363E-02
 -1      1947 8.90186E-02
 -1      1948 5.93139E-02
 -1      1949 6.65602E-02
 -1      1950 6.97581E-02
 -1      1951 4.94580E-02
 -1      1952 5.24947E-02
 -1      1953 5.42341E-02
 -1      1954 5.71593E-02
 -1      1955 5.15010E-02
 -1      1956 4.94580E-02
 -1      1957 7.24647E-02
 -1      1958 6.28176E-02
 -1      1959 5.71593E-02
 -1      1960 9.72044E-02
 -1      1961 8.21119E-02
 -1      1962 7.24647E-02
 -1      1963 1.41826E-01
 -1      1964 1.19135E-01
 -1      1965 1.04043E-01
 -1      1966 2.10612E-01
 -1      1967 1.77202E-01
 -1      1968 1.61348E-01
 -1      1969 3.15270E-01
 -1      1970 2.63565E-01
 -1      1971 2.49676E-01
 -1      1972 4.90265E-01
 -1      1973 3.94593E-01
 -1      1974 3.81951E-01
 -1      1975 7.42369E-01
 -1      1976 6.03039E-01
 -1      1977 5.74048E-01
 -1      1978 1.11816E+00
 -1      1979 9.10176E-01
 -1      1980 8.54630E-01
 -1      1981 1.65963E+00
 -1      1982 1.36238E+00
 -1      1983 1.26666E+00
 -1      1984 2.38666E+00
 -1      1985 1.99936E+00
 -1      1986 1.85061E+00
 -1      1987 3.27401E+00
 -1      1988 2.83443E+00
 -1      1989 2.63812E+00
 -1      1990 4.19569E+00
 -1      1991 3.81526E+00
 -1      1992 3.62714E+00
 -1      1993 5.04541E+00
 -1      1994 4.78419E+00
 -1      1995 4.75689E+00
 -1      1996 6.29440E+00
 -1      1997 5.81455E+00
 -1      1998 6.11454E+00
 -1      1999 9.19533E+00
 -1      2000 8.93737E+00
 -1      2001 9.52666E+00
 -1      2002 7.54002E+00
 -1      2003 7.74813E+00
 -1      2004 1.07224E+01
 -1      2005 6.08847E+00
 -1      2006 8.43565E+00
 -1      2007 7.34142E+00
 -1      2008 7.34771E+00
 -1      2009 6.87955E+00
 -1      2010 6.66489E+00
 -1      2011 8.67462E+00
 -1      2012 5.57067E+00
 -1      2013 5.95166E+00
 -1      2014 7.07020E+00
 -1      2015 4.62018E+00
 -1      2016 5.10066E+00
 -1      2017 5.67230E+00
 -1      2018 3.71939E+00
 -1      2019 4.12174E+00
 -1      2020 4.70385E+00
 -1      2021 2.79912E+00
 -1      2022 3.19538E+00
 -1      2023 3.68142E+00
 -1      2024 1.93672E+00
 -1      2025 2.31993E+00
 -1      2026 2.67823E+00
 -1      2027 1.29026E+00
 -1      2028 1.54520E+00
 -1      2029 1.80752E+00
 -1      2030 8.74318E-01
 -1      2031 1.04695E+00
 -1      2032 1.17269E+00
 -1      2033 3.86181E+01
 -1      2034 3.38528E+01
 -1      2035 5.81314E-01
 -1      2036 5.43506E-01
 -1      2037 5.51657E-01
 -1      2038 6.72039E-01
 -1      2039 7.14079E-01
 -1      2040 7.20548E-01
 -1      2041 5.81314E-01
 -1      2042 5.81314E-01
 -1      2043 7.05928E-01
 -1      2044 5.54858E-01
 -1      2045 5.63522E-01
 -1      2046 6.88135E-01
 -1      2047 4.60921E-01
 -1      2048 5.18312E-01
 -1      2049 6.33797E-01
 -1      2050 2.58680E-01
 -1      2051 3.44968E-01
 -1      2052 4.81298E-01
 -1      2053 2.23309E-01
 -1      2054 2.10699E-01
 -1      2055 3.17365E-01
 -1      2056 2.40635E-01
 -1      2057 2.33537E-01
 -1      2058 2.79612E-01
 -1      2059 2.40635E-01
 -1      2060 2.40635E-01
 -1      2061 2.89839E-01
 -1      2062 2.26802E-01
 -1      2063 2.30898E-01
 -1      2064 2.80102E-01
 -1      2065 1.92936E-01
 -1      2066 2.10297E-01
 -1      2067 2.53860E-01
 -1      2068 1.35539E-01
 -1      2069 1.63700E-01
 -1      2070 2.08120E-01
 -1      2071 3.72654E+01
 -1      2072 3.72654E+01
 -1      2073 2.94188E+01
 -1      2074 3.38528E+01
 -1      2075 3.38528E+01
 -1      2076 1.03555E+00
 -1      2077 1.20947E+00
 -1      2078 9.92208E-01
 -1      2079 8.50881E-01
 -1      2080 9.74044E+00
 -1      2081 1.05675E+01
 -1      2082 1.10813E+01
 -1      2083 1.31690E+01
 -1      2084 1.33749E+01
 -1      2085 1.01565E+01
 -1      2086 3.00051E+01
 -1      2087 1.66517E+01
 -1      2088 3.19777E+01
 -1      2089 3.55448E+01
 -1      2090 3.04313E+01
 -1      2091 3.40584E+01
 -1      2092 3.27582E+01
 -1      2093 3.27582E+01
 -1      2094 2.94325E+01
 -1      2095 3.27582E+01
 -1      2096 2.81441E+01
 -1      2097 2.44436E+01
 -1      2098 2.60904E+01
 -1      2099 2.60904E+01
 -1      2100 1.22539E+01
 -1      2101 2.16918E+01
 -1      2102 9.20684E+00
 -1      2103 9.40056E+00
 -1      2104 8.95097E+00
 -1      2105 1.06249E+01
 -1      2106 1.06502E+01
 -1      2107 1.10369E+01
 -1      2108 1.13882E+01
 -1      2109 1.17826E+01
 -1      2110 1.13450E+01
 -1      2111 1.09190E+01
 -1      2112 1.11908E+01
 -1      2113 9.34637E+00
 -1      2114 9.83670E+00
 -1      2115 8.86122E+00
 -1      2116 1.30748E+01
 -1      2117 9.71663E+00
 -1      2118 3.01201E+01
 -1      2119 1.63126E+01
 -1      2120 3.32617E+01
 -1      2121 3.61974E+01
 -1      2122 2.67701E+01
 -1      2123 3.25897E+01
 -1      2124 3.38514E+00
 -1      2125 1.33590E+01
 -1      2126 2.27865E+01
 -1      2127 3.39940E+00
 -1      2128 7.75617E-01
 -1      2129 7.75617E-01
 -1      2130 3.28882E+01
 -1      2131 1.69940E+01
 -1      2132 2.91131E+00
 -1      2133 9.62420E+00
 -1      2134 2.10540E+00
 -1      2135 2.10938E+00
 -1      2136 2.94134E+00
 -1      2137 8.09190E+00
 -1      2138 9.26775E+00
 -1      2139 7.02158E+00
 -1      2140 1.31690E+01
 -1      2141 1.01926E+01
 -1      2142 1.66254E+01
 -1      2143 1.64376E+01
 -1      2144 1.02654E+01
 -1      2145 1.35588E+01
 -1      2146 8.75679E+00
 -1      2147 3.99708E+01
 -1      2148 8.25809E-01
 -1      2149 3.86181E+01
 -1      2150 1.32548E-01
 -1      2151 2.64775E+01
 -1      2152 2.10722E+01
 -1      2153 8.14914E+00
 -1      2154 1.05354E+01
 -1      2155 1.08191E+01
 -1      2156 8.91284E+00
 -1      2157 5.80367E+00
 -1      2158 7.24707E+00
 -1      2159 1.62029E+01
 -1      2160 2.26552E+01
 -1      2161 2.96978E+01
 -1      2162 3.46867E+01
 -1      2163 3.23597E+01
 -1      2164 2.79520E+01
 -1      2165 2.03316E+01
 -1      2166 1.15152E+01
 -1      2167 9.16319E+00
 -1      2168 1.35588E+01
 -1      2169 1.15702E+01
 -1      2170 1.66254E+01
 -1      2171 1.62499E+01
 -1      2172 8.66247E+00
 -1      2173 9.74774E+00
 -1      2174 1.17572E+01
 -1      2175 5.59150E-01
 -1      2176 5.90775E-01
 -1      2177 6.03013E-01
 -1      2178 6.49965E-01
 -1      2179 4.98865E-01
 -1      2180 5.09929E-01
 -1      2181 5.09025E-01
 -1      2182 5.44618E-01
 -1      2183 5.22952E-01
 -1      2184 4.43776E-01
 -1      2185 5.92638E-01
 -1      2186 5.59550E-01
 -1      2187 4.71732E-01
 -1      2188 6.52405E-01
 -1      2189 6.05162E-01
 -1      2190 4.99188E-01
 -1      2191 7.17218E-01
 -1      2192 6.52954E-01
 -1      2193 5.12262E-01
 -1      2194 7.99627E-01
 -1      2195 7.17218E-01
 -1      2196 5.12811E-01
 -1      2197 1.65173E+00
 -1      2198 9.53105E-01
 -1      2199 6.66289E-01
 -1      2200 1.27742E+00
 -1      2201 1.26697E+00
 -1      2202 1.03599E+00
 -1      2203 9.84971E-01
 -1      2204 8.04738E-01
 -1      2205 7.53135E-01
 -1      2206 7.48036E-01
 -1      2207 6.22517E-01
 -1      2208 6.45411E-01
 -1      2209 5.66346E-01
 -1      2210 5.07653E-01
 -1      2211 5.32537E-01
 -1      2212 4.58253E-01
 -1      2213 4.09774E-01
 -1      2214 4.26965E-01
 -1      2215 3.82496E-01
 -1      2216 3.39774E-01
 -1      2217 3.50286E-01
 -1      2218 3.14736E-01
 -1      2219 2.81732E-01
 -1      2220 2.97970E-01
 -1      2221 2.58003E-01
 -1      2222 2.30325E-01
 -1      2223 2.49203E-01
 -1      2224 2.10581E-01
 -1      2225 1.86744E-01
 -1      2226 2.05730E-01
 -1      2227 1.69649E-01
 -1      2228 1.51313E-01
 -1      2229 1.68891E-01
 -1      2230 1.36269E-01
 -1      2231 1.21264E-01
 -1      2232 1.36752E-01
 -1      2233 1.08359E-01
 -1      2234 9.55775E-02
 -1      2235 1.08803E-01
 -1      2236 8.49476E-02
 -1      2237 7.42322E-02
 -1      2238 8.52683E-02
 -1      2239 6.54904E-02
 -1      2240 5.65643E-02
 -1      2241 6.58966E-02
 -1      2242 4.88791E-02
 -1      2243 4.34339E-02
 -1      2244 4.94696E-02
 -1      2245 3.98743E-02
 -1      2246 3.93616E-02
 -1      2247 3.82248E-02
 -1      2248 3.98761E-02
 -1      2249 4.11938E-02
 -1      2250 3.51797E-02
 -1      2251 4.23467E-02
 -1      2252 4.41746E-02
 -1      2253 3.68471E-02
 -1      2254 4.74937E-02
 -1      2255 4.91419E-02
 -1      2256 4.13191E-02
 -1      2257 5.50192E-02
 -1      2258 6.04873E-02
 -1      2259 5.05156E-02
 -1      2260 6.46264E-02
 -1      2261 7.03624E-02
 -1      2262 6.05320E-02
 -1      2263 7.33022E-02
 -1      2264 7.83514E-02
 -1      2265 6.76108E-02
 -1      2266 8.20973E-02
 -1      2267 8.22729E-02
 -1      2268 7.42965E-02
 -1      2269 9.61153E-02
 -1      2270 9.28514E-02
 -1      2271 9.18848E-02
 -1      2272 1.10709E-01
 -1      2273 1.39663E-01
 -1      2274 1.23584E-01
 -1      2275 1.77808E-01
 -1      2276 2.42440E-01
 -1      2277 1.79587E-01
 -1      2278 3.08655E-01
 -1      2279 3.92114E-01
 -1      2280 2.83947E-01
 -1      2281 4.70707E-01
 -1      2282 5.69293E-01
 -1      2283 4.28756E-01
 -1      2284 6.69512E-01
 -1      2285 7.85280E-01
 -1      2286 6.07568E-01
 -1      2287 9.02355E-01
 -1      2288 1.03545E+00
 -1      2289 8.24862E-01
 -1      2290 1.13377E+00
 -1      2291 1.24867E+00
 -1      2292 1.04026E+00
 -1      2293 1.31089E+00
 -1      2294 1.44494E+00
 -1      2295 1.20081E+00
 -1      2296 1.50078E+00
 -1      2297 1.57740E+00
 -1      2298 1.31887E+00
 -1      2299 1.58230E+00
 -1      2300 1.58530E+00
 -1      2301 1.37962E+00
 -1      2302 1.54966E+00
 -1      2303 1.53805E+00
 -1      2304 1.34889E+00
 -1      2305 1.56870E+00
 -1      2306 1.57618E+00
 -1      2307 1.34390E+00
 -1      2308 1.58026E+00
 -1      2309 1.51406E+00
 -1      2310 1.37863E+00
 -1      2311 1.46766E+00
 -1      2312 1.34293E+00
 -1      2313 1.33631E+00
 -1      2314 1.28800E+00
 -1      2315 1.17920E+00
 -1      2316 1.23498E+00
 -1      2317 1.08886E+00
 -1      2318 9.62903E-01
 -1      2319 1.08971E+00
 -1      2320 8.51041E-01
 -1      2321 7.37303E-01
 -1      2322 8.87511E-01
 -1      2323 6.51951E-01
 -1      2324 5.56202E-01
 -1      2325 6.90297E-01
 -1      2326 4.76462E-01
 -1      2327 3.93829E-01
 -1      2328 5.25204E-01
 -1      2329 3.35787E-01
 -1      2330 2.74418E-01
 -1      2331 3.87421E-01
 -1      2332 1.04088E+00
 -1      2333 1.26596E+00
 -1      2334 8.08314E-01
 -1      2335 5.12754E-01
 -1      2336 5.74158E-01
 -1      2337 4.14316E-01
 -1      2338 4.63028E-01
 -1      2339 4.31865E-01
 -1      2340 3.43034E-01
 -1      2341 3.86029E-01
 -1      2342 3.53851E-01
 -1      2343 2.84611E-01
 -1      2344 3.18033E-01
 -1      2345 3.00563E-01
 -1      2346 2.33086E-01
 -1      2347 2.60860E-01
 -1      2348 2.51811E-01
 -1      2349 1.89283E-01
 -1      2350 2.13211E-01
 -1      2351 2.08185E-01
 -1      2352 1.52749E-01
 -1      2353 1.71964E-01
 -1      2354 1.70993E-01
 -1      2355 1.25403E-01
 -1      2356 1.38808E-01
 -1      2357 1.39733E-01
 -1      2358 9.98558E-02
 -1      2359 1.12575E-01
 -1      2360 1.12965E-01
 -1      2361 7.85412E-02
 -1      2362 8.90968E-02
 -1      2363 8.93784E-02
 -1      2364 6.10532E-02
 -1      2365 6.97581E-02
 -1      2366 6.98363E-02
 -1      2367 4.70541E-02
 -1      2368 5.38732E-02
 -1      2369 5.38732E-02
 -1      2370 4.63041E-02
 -1      2371 4.42611E-02
 -1      2372 4.39002E-02
 -1      2373 5.53789E-02
 -1      2374 4.97207E-02
 -1      2375 4.45238E-02
 -1      2376 7.31080E-02
 -1      2377 6.34608E-02
 -1      2378 5.60221E-02
 -1      2379 1.14238E-01
 -1      2380 9.23074E-02
 -1      2381 8.33034E-02
 -1      2382 1.76506E-01
 -1      2383 1.41130E-01
 -1      2384 1.29395E-01
 -1      2385 2.67626E-01
 -1      2386 2.14674E-01
 -1      2387 1.94456E-01
 -1      2388 4.01489E-01
 -1      2389 3.22166E-01
 -1      2390 2.87164E-01
 -1      2391 5.88842E-01
 -1      2392 4.76067E-01
 -1      2393 4.16282E-01
 -1      2394 8.65032E-01
 -1      2395 6.97225E-01
 -1      2396 5.99244E-01
 -1      2397 1.27441E+00
 -1      2398 1.03019E+00
 -1      2399 8.72784E-01
 -1      2400 1.88322E+00
 -1      2401 1.54349E+00
 -1      2402 1.30702E+00
 -1      2403 2.74996E+00
 -1      2404 2.30218E+00
 -1      2405 1.99506E+00
 -1      2406 3.90957E+00
 -1      2407 3.36832E+00
 -1      2408 3.03239E+00
 -1      2409 5.45562E+00
 -1      2410 4.86712E+00
 -1      2411 4.60830E+00
 -1      2412 8.90662E+00
 -1      2413 8.13747E+00
 -1      2414 8.24770E+00
 -1      2415 1.20835E+01
 -1      2416 9.44049E+00
 -1      2417 1.14634E+01
 -1      2418 3.99708E+01
 -1      2419 3.99708E+01
 -1      2420 1.20336E+01
 -1      2421 9.50083E+00
 -1      2422 1.01774E+01
 -1      2423 4.85377E+00
 -1      2424 5.35221E+00
 -1      2425 3.40315E+00
 -1      2426 3.92715E+00
 -1      2427 4.57550E+00
 -1      2428 2.28563E+00
 -1      2429 2.76482E+00
 -1      2430 3.01055E+00
 -1      2431 1.43893E+00
 -1      2432 1.83045E+00
 -1      2433 1.91705E+00
 -1      2434 9.88777E-01
 -1      2435 1.23208E+00
 -1      2436 1.25502E+00
 -1      2437 8.85198E-01
 -1      2438 3.06589E+01
 -1      2439 3.20116E+01
 -1      2440 7.69490E-01
 -1      2441 8.06036E-01
 -1      2442 3.77551E+01
 -1      2443 3.06724E+01
 -1      2444 5.19685E-01
 -1      2445 6.35638E-01
 -1      2446 8.07877E-01
 -1      2447 3.96283E-01
 -1      2448 4.44264E-01
 -1      2449 5.98603E-01
 -1      2450 3.63264E-01
 -1      2451 3.53037E-01
 -1      2452 4.79935E-01
 -1      2453 3.63264E-01
 -1      2454 3.63264E-01
 -1      2455 4.36689E-01
 -1      2456 3.22585E-01
 -1      2457 3.32322E-01
 -1      2458 4.05747E-01
 -1      2459 3.04633E-01
 -1      2460 3.21138E-01
 -1      2461 3.73357E-01
 -1      2462 2.07541E-01
 -1      2463 2.36777E-01
 -1      2464 3.04054E-01
 -1      2465 1.72291E-01
 -1      2466 1.70707E+01
 -1      2467 2.49173E+01
 -1      2468 1.83108E+01
 -1      2469 2.27046E+01
 -1      2470 2.33766E+01
 -1      2471 6.29701E-01
 -1      2472 7.57120E-01
 -1      2473 5.37135E-01
 -1      2474 8.60285E-01
 -1      2475 8.60285E-01
 -1      2476 8.83223E+00
 -1      2477 9.42403E+00
 -1      2478 1.14869E+01
 -1      2479 1.58855E+01
 -1      2480 8.53431E-01
 -1      2481 8.61582E-01
 -1      2482 1.02455E+00
 -1      2483 1.00779E+00
 -1      2484 8.42492E-01
 -1      2485 8.60285E-01
 -1      2486 1.01464E+00
 -1      2487 9.78186E-01
 -1      2488 5.67230E+00
 -1      2489 6.14230E+00
 -1      2490 5.82221E+00
 -1      2491 7.16589E+00
 -1      2492 8.09379E+00
 -1      2493 9.59653E+00
 -1      2494 7.16589E+00
 -1      2495 5.22424E-01
 -1      2496 5.44611E-01
 -1      2497 4.72089E-01
 -1      2498 4.44151E-01
 -1      2499 7.86664E-01
 -1      2500 9.68333E-01
 -1      2501 7.24313E-01
 -1      2502 6.22222E-01
 -1      2503 8.64267E+00
 -1      2504 7.87939E+00
 -1      2505 1.90204E+01
 -1      2506 1.34808E+01
 -1      2507 1.07224E+01
 -1      2508 2.37599E+01
 -1      2509 2.16791E+01
 -1      2510 3.23597E+01
 -1      2511 3.00328E+01
 -1      2512 3.46867E+01
 -1      2513 3.46867E+01
 -1      2514 2.47090E+01
 -1      2515 2.96978E+01
 -1      2516 2.96978E+01
 -1      2517 1.83779E+01
 -1      2518 2.04317E+01
 -1      2519 6.40110E+00
 -1      2520 9.25440E+00
 -1      2521 1.10348E+01
 -1      2522 7.79707E+00
 -1      2523 9.78287E+00
 -1      2524 9.47480E+00
 -1      2525 7.60645E+00
 -1      2526 6.88661E+00
 -1      2527 7.96895E+00
 -1      2528 6.15165E+00
 -1      2529 5.78140E+00
 -1      2530 4.88912E+00
 -1      2531 5.42933E+00
 -1      2532 2.07232E+01
 -1      2533 1.46459E+01
 -1      2534 1.08834E+01
 -1      2535 1.67967E+00
 -1      2536 1.30406E+00
 -1      2537 8.41244E-01
 -1      2538 9.74907E-01
 -1      2539 1.17097E+01
 -1      2540 5.11103E-01
 -1      2541 6.49965E-01
 -1      2542 7.12018E-01
 -1      2543 6.85763E+00
 -1      2544 3.77551E+01
 -1      2545 1.48283E+01
 -1      2546 1.47421E+01
 -1      2547 3.20116E+01
 -1      2548 1.21696E+01
 -1      2549 1.48283E+01
 -1      2550 1.69503E+01
 -1      2551 2.75715E+01
 -1      2552 2.00948E-01
 -1      2553 2.07541E-01
 -1      2554 2.36198E-01
 -1      2555 2.27828E-01
 -1      2556 1.62879E+01
 -1      2557 1.17864E+01
 -1      2558 5.60916E+00
 -1      2559 6.71424E+00
 -1      2560 4.97684E+00
 -1      2561 6.87939E-01
 -1      2562 7.67213E-01
 -1      2563 6.70638E-01
 -1      2564 4.87023E-01
 -1      2565 8.07975E+00
 -1      2566 1.36619E+01
 -1      2567 6.10710E+00
 -1      2568 2.04317E+01
 -1      2569 3.23597E+01
 -1      2570 1.11983E+01
 -1      2571 7.23820E+00
 -1      2572 1.08493E+01
 -1      2573 2.28720E+01
 -1      2574 1.65991E+01
 -1      2575 2.28720E+01
 -1      2576 8.93699E+00
 -1      2577 2.82788E-01
 -1      2578 4.22643E-01
 -1      2579 4.07711E-01
 -1      2580 3.99609E-01
 -1      2581 3.86586E-01
 -1      2582 3.50521E-01
 -1      2583 4.36561E-01
 -1      2584 4.36012E-01
 -1      2585 4.27725E-01
 -1      2586 4.27725E-01
 -1      2587 3.51475E-01
 -1      2588 6.03924E-01
 -1      2589 4.50445E-01
 -1      2590 3.65360E-01
 -1      2591 5.92470E-01
 -1      2592 6.03994E-01
 -1      2593 5.52973E-01
 -1      2594 4.36012E-01
 -1      2595 4.23488E-01
 -1      2596 3.59467E-01
 -1      2597 3.60311E-01
 -1      2598 5.49511E-01
 -1      2599 4.92809E-01
 -1      2600 4.00371E-01
 -1      2601 4.86250E-01
 -1      2602 4.30078E-01
 -1      2603 3.90349E-01
 -1      2604 4.09614E-01
 -1      2605 3.60214E-01
 -1      2606 3.63327E-01
 -1      2607 3.35326E-01
 -1      2608 3.08048E-01
 -1      2609 3.17976E-01
 -1      2610 2.83096E-01
 -1      2611 2.58057E-01
 -1      2612 2.68136E-01
 -1      2613 2.42327E-01
 -1      2614 2.18599E-01
 -1      2615 2.27453E-01
 -1      2616 2.02166E-01
 -1      2617 1.82422E-01
 -1      2618 1.95290E-01
 -1      2619 1.66647E-01
 -1      2620 1.49552E-01
 -1      2621 1.63083E-01
 -1      2622 1.35180E-01
 -1      2623 1.20135E-01
 -1      2624 1.32935E-01
 -1      2625 1.08169E-01
 -1      2626 9.52648E-02
 -1      2627 1.06597E-01
 -1      2628 8.52683E-02
 -1      2629 7.46384E-02
 -1      2630 8.46349E-02
 -1      2631 6.58966E-02
 -1      2632 5.71548E-02
 -1      2633 6.58966E-02
 -1      2634 4.94696E-02
 -1      2635 4.17845E-02
 -1      2636 4.94696E-02
 -1      2637 3.49852E-02
 -1      2638 3.14256E-02
 -1      2639 3.49852E-02
 -1      2640 2.92014E-02
 -1      2641 2.97160E-02
 -1      2642 2.59619E-02
 -1      2643 3.06625E-02
 -1      2644 3.18154E-02
 -1      2645 2.46842E-02
 -1      2646 3.73604E-02
 -1      2647 4.06795E-02
 -1      2648 3.11758E-02
 -1      2649 4.73633E-02
 -1      2650 5.32406E-02
 -1      2651 4.34046E-02
 -1      2652 5.93837E-02
 -1      2653 6.35227E-02
 -1      2654 5.62314E-02
 -1      2655 6.98187E-02
 -1      2656 7.27585E-02
 -1      2657 6.86704E-02
 -1      2658 7.95650E-02
 -1      2659 8.33108E-02
 -1      2660 8.17729E-02
 -1      2661 9.44061E-02
 -1      2662 1.08249E-01
 -1      2663 9.96746E-02
 -1      2664 1.36366E-01
 -1      2665 1.54223E-01
 -1      2666 1.38887E-01
 -1      2667 1.89135E-01
 -1      2668 2.27280E-01
 -1      2669 2.01916E-01
 -1      2670 2.83947E-01
 -1      2671 3.50163E-01
 -1      2672 2.93495E-01
 -1      2673 4.28756E-01
 -1      2674 5.07349E-01
 -1      2675 4.28756E-01
 -1      2676 5.88556E-01
 -1      2677 6.88775E-01
 -1      2678 5.88556E-01
 -1      2679 7.75178E-01
 -1      2680 8.92253E-01
 -1      2681 7.56167E-01
 -1      2682 9.67551E-01
 -1      2683 1.06587E+00
 -1      2684 9.17867E-01
 -1      2685 1.14450E+00
 -1      2686 1.20672E+00
 -1      2687 1.07179E+00
 -1      2688 1.25019E+00
 -1      2689 1.30603E+00
 -1      2690 1.19388E+00
 -1      2691 1.35520E+00
 -1      2692 1.36011E+00
 -1      2693 1.28652E+00
 -1      2694 1.32630E+00
 -1      2695 1.29066E+00
 -1      2696 1.30188E+00
 -1      2697 1.28448E+00
 -1      2698 1.31513E+00
 -1      2699 1.26189E+00
 -1      2700 1.36530E+00
 -1      2701 1.36939E+00
 -1      2702 1.30589E+00
 -1      2703 1.32189E+00
 -1      2704 1.27549E+00
 -1      2705 1.30857E+00
 -1      2706 1.23846E+00
 -1      2707 1.18353E+00
 -1      2708 1.22405E+00
 -1      2709 1.11417E+00
 -1      2710 1.02383E+00
 -1      2711 1.11765E+00
 -1      2712 9.60401E-01
 -1      2713 8.48539E-01
 -1      2714 9.84854E-01
 -1      2715 7.66633E-01
 -1      2716 6.81280E-01
 -1      2717 8.39523E-01
 -1      2718 6.04945E-01
 -1      2719 5.25204E-01
 -1      2720 6.81280E-01
 -1      2721 4.49112E-01
 -1      2722 3.91070E-01
 -1      2723 5.28853E-01
 -1      2724 1.03794E+01
 -1      2725 3.10596E-01
 -1      2726 3.38883E-01
 -1      2727 5.77505E-01
 -1      2728 6.20751E-01
 -1      2729 3.63577E-01
 -1      2730 4.13304E-01
 -1      2731 3.20322E-01
 -1      2732 2.85260E+00
 -1      2733 3.49092E+00
 -1      2734 2.20768E-01
 -1      2735 2.44520E-01
 -1      2736 1.84512E-01
 -1      2737 2.04387E-01
 -1      2738 1.97095E-01
 -1      2739 1.51702E-01
 -1      2740 1.69020E-01
 -1      2741 1.65221E-01
 -1      2742 1.23780E-01
 -1      2743 1.37721E-01
 -1      2744 1.35748E-01
 -1      2745 9.91030E-02
 -1      2746 1.11930E-01
 -1      2747 1.09918E-01
 -1      2748 7.83609E-02
 -1      2749 8.91199E-02
 -1      2750 8.80855E-02
 -1      2751 6.07697E-02
 -1      2752 6.95528E-02
 -1      2753 6.92943E-02
 -1      2754 4.61444E-02
 -1      2755 5.33244E-02
 -1      2756 5.30408E-02
 -1      2757 3.66188E-02
 -1      2758 3.94118E-02
 -1      2759 3.88629E-02
 -1      2760 3.92149E-02
 -1      2761 3.57984E-02
 -1      2762 3.13099E-02
 -1      2763 5.31289E-02
 -1      2764 4.50470E-02
 -1      2765 3.63216E-02
 -1      2766 8.60361E-02
 -1      2767 6.68367E-02
 -1      2768 5.58616E-02
 -1      2769 1.30677E-01
 -1      2770 1.03785E-01
 -1      2771 8.73186E-02
 -1      2772 1.99127E-01
 -1      2773 1.60958E-01
 -1      2774 1.35348E-01
 -1      2775 3.00115E-01
 -1      2776 2.45576E-01
 -1      2777 2.12078E-01
 -1      2778 4.41225E-01
 -1      2779 3.66647E-01
 -1      2780 3.25059E-01
 -1      2781 6.55075E-01
 -1      2782 5.46691E-01
 -1      2783 4.97056E-01
 -1      2784 9.78344E-01
 -1      2785 8.13187E-01
 -1      2786 7.60635E-01
 -1      2787 1.48614E+00
 -1      2788 1.21706E+00
 -1      2789 1.15746E+00
 -1      2790 2.26876E+00
 -1      2791 1.84979E+00
 -1      2792 1.75983E+00
 -1      2793 3.44801E+00
 -1      2794 2.82965E+00
 -1      2795 2.68438E+00
 -1      2796 5.30053E+00
 -1      2797 4.34298E+00
 -1      2798 4.14024E+00
 -1      2799 1.01730E+01
 -1      2800 7.49110E+00
 -1      2801 7.22578E+00
 -1      2802 2.10735E+01
 -1      2803 2.90327E+01
 -1      2804 1.38543E+01
 -1      2805 4.23640E-01
 -1      2806 4.35878E-01
 -1      2807 1.77743E+00
 -1      2808 2.23261E+00
 -1      2809 2.71297E+00
 -1      2810 4.56703E+00
 -1      2811 5.49365E+00
 -1      2812 4.40907E+00
 -1      2813 1.20639E+00
 -1      2814 1.41324E+00
 -1      2815 1.72880E+00
 -1      2816 1.18278E+00
 -1      2817 7.25059E-01
 -1      2818 8.00480E-01
 -1      2819 8.22629E-01
 -1      2820 5.23514E+00
 -1      2821 6.09843E+00
 -1      2822 9.20140E-01
 -1      2823 1.05399E+00
 -1      2824 1.04660E+00
 -1      2825 5.51823E-01
 -1      2826 5.51823E-01
 -1      2827 6.92639E-01
 -1      2828 4.65209E-01
 -1      2829 4.96152E-01
 -1      2830 6.11285E-01
 -1      2831 4.77724E-01
 -1      2832 4.79170E-01
 -1      2833 5.69575E-01
 -1      2834 1.03813E+01
 -1      2835 1.28738E+01
 -1      2836 4.32626E-01
 -1      2837 4.88169E-01
 -1      2838 3.64338E-01
 -1      2839 4.09867E-01
 -1      2840 4.09867E-01
 -1      2841 4.56458E-01
 -1      2842 8.51552E+00
 -1      2843 8.83561E+00
 -1      2844 8.50705E+00
 -1      2845 2.48709E+01
 -1      2846 2.25439E+01
 -1      2847 1.56739E+01
 -1      2848 1.30205E+01
 -1      2849 2.60655E-01
 -1      2850 2.85656E-01
 -1      2851 2.29612E-01
 -1      2852 6.89793E+00
 -1      2853 7.25677E+00
 -1      2854 6.69244E+00
 -1      2855 8.92489E+00
 -1      2856 2.09035E+01
 -1      2857 2.58923E+01
 -1      2858 4.34891E+00
 -1      2859 4.94634E+00
 -1      2860 6.88524E+00
 -1      2861 6.05310E+00
 -1      2862 1.48910E+01
 -1      2863 1.91683E+01
 -1      2864 1.53628E+01
 -1      2865 2.55398E+01
 -1      2866 1.75720E+01
 -1      2867 2.90327E+01
 -1      2868 2.68170E+01
 -1      2869 1.68174E+01
 -1      2870 6.24595E-01
 -1      2871 5.87507E-01
 -1      2872 3.87346E-01
 -1      2873 4.16902E-01
 -1      2874 3.42490E-01
 -1      2875 3.86657E-01
 -1      2876 4.00055E-01
 -1      2877 5.65154E-01
 -1      2878 3.60763E-01
 -1      2879 4.92606E-01
 -1      2880 1.21406E+00
 -1      2881 1.21406E+00
 -1      2882 9.59265E+00
 -1      2883 1.17825E+01
 -1      2884 1.75241E+01
 -1      2885 8.56906E+00
 -1      2886 5.18149E-01
 -1      2887 2.70688E-01
 -1      2888 5.27545E+00
 -1      2889 4.77724E-01
 -1      2890 1.35262E+01
 -1      2891 2.10150E+01
 -1      2892 1.38543E+01
 -1      2893 5.70342E+00
 -1      2894 1.14634E+01
 -1      2895 1.07068E+01
 -1      2896 1.36422E+01
 -1      2897 1.19973E+01
 -1      2898 4.64670E-01
 -1      2899 4.94214E-01
 -1      2900 3.35054E-01
 -1      2901 3.60161E-01
 -1      2902 1.07506E+01
 -1      2903 7.30297E+00
 -1      2904 9.47424E+00
 -1      2905 1.17017E+00
 -1      2906 1.20663E+00
 -1      2907 1.40605E+00
 -1      2908 4.56615E+00
 -1      2909 3.80695E+00
 -1      2910 4.07671E-01
 -1      2911 4.22211E-01
 -1      2912 3.59223E-01
 -1      2913 3.50177E-01
 -1      2914 1.28244E+00
 -1      2915 1.16104E+01
 -1      2916 5.83537E-01
 -1      2917 8.13672E+00
 -1      2918 5.35607E+00
 -1      2919 4.19092E+00
 -1      2920 4.63486E+00
 -1      2921 3.81608E+00
 -1      2922 1.60765E+01
 -1      2923 1.45452E+01
 -1      2924 5.33059E+00
 -1      2925 5.31849E+00
 -1      2926 3.57239E+00
 -1      2927 1.80946E+01
 -1      2928 5.92461E+00
 -1      2929 5.76116E+00
 -1      2930 5.17937E+00
 -1      2931 3.53395E+00
 -1      2932 3.86579E+00
 -1      2933 3.60653E-01
 -1      2934 4.35878E-01
 -1      2935 4.35878E-01
 -1      2936 1.22534E+00
 -1      2937 1.21848E+00
 -1      2938 1.40032E+00
 -1      2939 1.42475E+00
 -1      2940 3.46094E+00
 -1      2941 1.12624E+01
 -1      2942 3.29927E-01
 -1      2943 3.07206E-01
 -1      2944 3.02610E-01
 -1      2945 3.16042E-01
 -1      2946 2.96506E+00
 -1      2947 3.63405E+00
 -1      2948 2.72139E-01
 -1      2949 2.96834E-01
 -1      2950 3.14707E-01
 -1      2951 3.08148E-01
 -1      2952 3.19333E-01
 -1      2953 2.98870E-01
 -1      2954 2.43691E-01
 -1      2955 2.95423E-01
 -1      2956 2.70535E-01
 -1      2957 2.51430E-01
 -1      2958 2.59567E-01
 -1      2959 2.34615E-01
 -1      2960 2.37014E-01
 -1      2961 2.20317E-01
 -1      2962 2.04587E-01
 -1      2963 2.11748E-01
 -1      2964 1.91248E-01
 -1      2965 1.74815E-01
 -1      2966 1.84112E-01
 -1      2967 1.64024E-01
 -1      2968 1.48250E-01
 -1      2969 1.59982E-01
 -1      2970 1.36822E-01
 -1      2971 1.22450E-01
 -1      2972 1.37764E-01
 -1      2973 1.11307E-01
 -1      2974 9.93418E-02
 -1      2975 1.15194E-01
 -1      2976 8.89724E-02
 -1      2977 7.89759E-02
 -1      2978 9.36828E-02
 -1      2979 6.95521E-02
 -1      2980 6.08103E-02
 -1      2981 7.38896E-02
 -1      2982 5.22964E-02
 -1      2983 4.46113E-02
 -1      2984 5.59519E-02
 -1      2985 3.68432E-02
 -1      2986 3.00440E-02
 -1      2987 3.96700E-02
 -1      2988 2.27690E-02
 -1      2989 2.05448E-02
 -1      2990 2.46269E-02
 -1      2991 1.92066E-02
 -1      2992 2.01531E-02
 -1      2993 1.60137E-02
 -1      2994 2.64772E-02
 -1      2995 3.20222E-02
 -1      2996 2.09995E-02
 -1      2997 3.97933E-02
 -1      2998 4.64771E-02
 -1      2999 3.50947E-02
 -1      3000 5.46518E-02
 -1      3001 6.07949E-02
 -1      3002 5.10406E-02
 -1      3003 6.89078E-02
 -1      3004 7.52037E-02
 -1      3005 6.73282E-02
 -1      3006 8.60423E-02
 -1      3007 9.28488E-02
 -1      3008 8.62797E-02
 -1      3009 1.05942E-01
 -1      3010 1.17037E-01
 -1      3011 1.10211E-01
 -1      3012 1.38887E-01
 -1      3013 1.67004E-01
 -1      3014 1.45154E-01
 -1      3015 2.01976E-01
 -1      3016 2.36888E-01
 -1      3017 2.01976E-01
 -1      3018 2.92606E-01
 -1      3019 3.49273E-01
 -1      3020 2.92666E-01
 -1      3021 4.12736E-01
 -1      3022 4.91329E-01
 -1      3023 4.11847E-01
 -1      3024 5.81800E-01
 -1      3025 6.63007E-01
 -1      3026 5.65780E-01
 -1      3027 7.56167E-01
 -1      3028 8.42569E-01
 -1      3029 7.49410E-01
 -1      3030 9.35916E-01
 -1      3031 1.01121E+00
 -1      3032 9.35916E-01
 -1      3033 1.08361E+00
 -1      3034 1.16223E+00
 -1      3035 1.10166E+00
 -1      3036 1.18422E+00
 -1      3037 1.22769E+00
 -1      3038 1.19604E+00
 -1      3039 1.33158E+00
 -1      3040 1.38075E+00
 -1      3041 1.32192E+00
 -1      3042 1.46423E+00
 -1      3043 1.43043E+00
 -1      3044 1.50930E+00
 -1      3045 1.34516E+00
 -1      3046 1.33898E+00
 -1      3047 1.50752E+00
 -1      3048 1.43164E+00
 -1      3049 1.48181E+00
 -1      3050 1.51491E+00
 -1      3051 1.41684E+00
 -1      3052 1.36935E+00
 -1      3053 1.54260E+00
 -1      3054 1.26108E+00
 -1      3055 1.22405E+00
 -1      3056 1.36935E+00
 -1      3057 1.19479E+00
 -1      3058 1.12542E+00
 -1      3059 1.23182E+00
 -1      3060 1.07213E+00
 -1      3061 1.00870E+00
 -1      3062 1.14927E+00
 -1      3063 9.21429E-01
 -1      3064 8.39523E-01
 -1      3065 1.00870E+00
 -1      3066 7.52855E-01
 -1      3067 6.76520E-01
 -1      3068 8.34762E-01
 -1      3069 6.12601E-01
 -1      3070 5.36510E-01
 -1      3071 6.84176E-01
 -1      3072 6.42773E-01
 -1      3073 6.98444E-01
 -1      3074 1.23587E+01
 -1      3075 1.08298E+01
 -1      3076 9.53936E+00
 -1      3077 1.33802E+01
 -1      3078 1.76236E-01
 -1      3079 1.92617E-01
 -1      3080 1.02256E-01
 -1      3081 1.14105E-01
 -1      3082 8.18217E-02
 -1      3083 9.18047E-02
 -1      3084 9.59917E-02
 -1      3085 6.34979E-02
 -1      3086 7.23061E-02
 -1      3087 7.60253E-02
 -1      3088 4.74396E-02
 -1      3089 5.48850E-02
 -1      3090 5.78967E-02
 -1      3091 3.27882E-02
 -1      3092 3.95208E-02
 -1      3093 4.13649E-02
 -1      3094 2.74492E-02
 -1      3095 2.82696E-02
 -1      3096 2.89275E-02
 -1      3097 3.61821E-02
 -1      3098 3.03500E-02
 -1      3099 2.73097E-02
 -1      3100 6.27020E-02
 -1      3101 4.89942E-02
 -1      3102 4.30226E-02
 -1      3103 9.82486E-02
 -1      3104 8.04995E-02
 -1      3105 7.36320E-02
 -1      3106 1.54148E-01
 -1      3107 1.23867E-01
 -1      3108 1.17048E-01
 -1      3109 2.36920E-01
 -1      3110 1.90471E-01
 -1      3111 1.78990E-01
 -1      3112 3.49855E-01
 -1      3113 2.83323E-01
 -1      3114 2.61716E-01
 -1      3115 5.31496E-01
 -1      3116 4.26030E-01
 -1      3117 3.84295E-01
 -1      3118 7.95794E-01
 -1      3119 6.37681E-01
 -1      3120 5.66655E-01
 -1      3121 1.19003E+00
 -1      3122 9.51318E-01
 -1      3123 8.28365E-01
 -1      3124 1.78834E+00
 -1      3125 1.42468E+00
 -1      3126 1.21854E+00
 -1      3127 2.70224E+00
 -1      3128 2.14135E+00
 -1      3129 1.80620E+00
 -1      3130 4.17276E+00
 -1      3131 3.27779E+00
 -1      3132 2.73476E+00
 -1      3133 8.26725E+00
 -1      3134 6.07668E+00
 -1      3135 5.21423E+00
 -1      3136 3.00008E-01
 -1      3137 3.19330E-01
 -1      3138 2.51826E-01
 -1      3139 1.21402E+01
 -1      3140 1.02422E+01
 -1      3141 9.50154E-01
 -1      3142 1.05446E+00
 -1      3143 2.40278E+00
 -1      3144 3.02277E+00
 -1      3145 3.61420E+00
 -1      3146 4.69030E+00
 -1      3147 3.30400E+00
 -1      3148 8.98484E+00
 -1      3149 1.10021E+01
 -1      3150 1.23660E+00
 -1      3151 1.35626E+00
 -1      3152 1.36413E+00
 -1      3153 1.48118E+01
 -1      3154 3.29931E-01
 -1      3155 3.26469E-01
 -1      3156 2.44267E-01
 -1      3157 6.01897E-01
 -1      3158 5.87936E-01
 -1      3159 6.75095E-01
 -1      3160 2.36568E-01
 -1      3161 2.61508E-01
 -1      3162 2.38019E-01
 -1      3163 6.59670E+00
 -1      3164 9.61857E+00
 -1      3165 5.80183E+00
 -1      3166 3.89128E-01
 -1      3167 3.65049E-01
 -1      3168 3.19006E-01
 -1      3169 3.13903E-01
 -1      3170 1.94488E+00
 -1      3171 2.06106E+00
 -1      3172 2.13488E+00
 -1      3173 8.26935E-01
 -1      3174 8.52618E-01
 -1      3175 1.08445E+00
 -1      3176 8.58423E-01
 -1      3177 2.06106E+00
 -1      3178 2.06849E+00
 -1      3179 2.72351E+00
 -1      3180 2.06268E-01
 -1      3181 2.22404E-01
 -1      3182 2.13224E-01
 -1      3183 4.24198E+00
 -1      3184 5.04149E+00
 -1      3185 3.40009E+00
 -1      3186 6.19031E+00
 -1      3187 4.71327E+00
 -1      3188 5.95197E+00
 -1      3189 7.40835E+00
 -1      3190 6.80009E+00
 -1      3191 1.50242E-01
 -1      3192 1.65735E-01
 -1      3193 1.61257E-01
 -1      3194 5.27757E+00
 -1      3195 4.90604E+00
 -1      3196 3.21098E+00
 -1      3197 1.25257E-01
 -1      3198 1.39238E-01
 -1      3199 1.17595E-01
 -1      3200 1.48118E+01
 -1      3201 1.48118E+01
 -1      3202 3.42367E+00
 -1      3203 2.79573E+00
 -1      3204 3.17058E+00
 -1      3205 3.23724E-01
 -1      3206 3.15622E-01
 -1      3207 1.16450E+01
 -1      3208 1.33802E+01
 -1      3209 1.42966E+01
 -1      3210 1.30194E+01
 -1      3211 1.10137E+01
 -1      3212 1.15289E+01
 -1      3213 9.03333E+00
 -1      3214 6.76339E+00
 -1      3215 7.53134E+00
 -1      3216 9.61857E+00
 -1      3217 2.90695E+00
 -1      3218 2.73405E+00
 -1      3219 3.21020E-01
 -1      3220 3.21020E-01
 -1      3221 3.95214E+00
 -1      3222 5.31398E+00
 -1      3223 4.58561E+00
 -1      3224 3.24568E-01
 -1      3225 3.23724E-01
 -1      3226 2.85276E-01
 -1      3227 2.71804E+00
 -1      3228 2.06302E+00
 -1      3229 8.39026E+00
 -1      3230 2.44610E-01
 -1      3231 3.08940E-01
 -1      3232 2.85441E-01
 -1      3233 9.61939E+00
 -1      3234 9.01948E+00
 -1      3235 2.76751E-01
 -1      3236 1.76451E+00
 -1      3237 3.23563E-01
 -1      3238 3.24993E-01
 -1      3239 6.01897E-01
 -1      3240 6.20258E-01
 -1      3241 4.24411E+00
 -1      3242 4.59184E+00
 -1      3243 3.89481E+00
 -1      3244 4.16599E+00
 -1      3245 6.09164E+00
 -1      3246 2.74119E+00
 -1      3247 3.12544E+00
 -1      3248 2.34878E+00
 -1      3249 6.01897E-01
 -1      3250 1.85409E-01
 -1      3251 2.88825E-01
 -1      3252 3.91179E+00
 -1      3253 3.33000E+00
 -1      3254 1.39752E-01
 -1      3255 3.21514E-01
 -1      3256 3.21514E-01
 -1      3257 2.85854E-01
 -1      3258 2.97996E+00
 -1      3259 2.85195E-01
 -1      3260 3.11993E-01
 -1      3261 3.12063E-01
 -1      3262 9.66238E+00
 -1      3263 2.07430E+00
 -1      3264 3.35493E-01
 -1      3265 4.17749E+00
 -1      3266 2.61591E-01
 -1      3267 7.70822E+00
 -1      3268 9.61857E+00
 -1      3269 9.10340E+00
 -1      3270 2.45458E-01
 -1      3271 2.49006E-01
 -1      3272 3.92902E+00
 -1      3273 3.92355E+00
 -1      3274 4.51498E+00
 -1      3275 9.66238E+00
 -1      3276 8.39026E+00
 -1      3277 9.66238E+00
 -1      3278 2.14574E-01
 -1      3279 2.11127E-01
 -1      3280 2.14960E-01
 -1      3281 2.03992E-01
 -1      3282 1.78104E-01
 -1      3283 2.00288E-01
 -1      3284 1.85991E-01
 -1      3285 1.78234E-01
 -1      3286 1.78007E-01
 -1      3287 1.64668E-01
 -1      3288 1.66547E-01
 -1      3289 1.54648E-01
 -1      3290 1.43857E-01
 -1      3291 1.48543E-01
 -1      3292 1.35651E-01
 -1      3293 1.24224E-01
 -1      3294 1.30317E-01
 -1      3295 1.15757E-01
 -1      3296 1.04615E-01
 -1      3297 1.13644E-01
 -1      3298 9.59451E-02
 -1      3299 8.55757E-02
 -1      3300 9.65080E-02
 -1      3301 7.72099E-02
 -1      3302 6.77861E-02
 -1      3303 7.94722E-02
 -1      3304 5.99433E-02
 -1      3305 5.14294E-02
 -1      3306 6.32636E-02
 -1      3307 4.41384E-02
 -1      3308 3.63703E-02
 -1      3309 4.81297E-02
 -1      3310 3.04132E-02
 -1      3311 2.31382E-02
 -1      3312 3.48816E-02
 -1      3313 2.20822E-02
 -1      3314 2.07440E-02
 -1      3315 2.78685E-02
 -1      3316 2.11338E-02
 -1      3317 2.74579E-02
 -1      3318 2.72024E-02
 -1      3319 3.39100E-02
 -1      3320 4.16811E-02
 -1      3321 3.40443E-02
 -1      3322 4.86509E-02
 -1      3323 5.68257E-02
 -1      3324 4.74662E-02
 -1      3325 6.66066E-02
 -1      3326 7.47195E-02
 -1      3327 6.42170E-02
 -1      3328 8.77533E-02
 -1      3329 9.85918E-02
 -1      3330 8.70316E-02
 -1      3331 1.13338E-01
 -1      3332 1.26430E-01
 -1      3333 1.14811E-01
 -1      3334 1.50033E-01
 -1      3335 1.71883E-01
 -1      3336 1.53160E-01
 -1      3337 2.03243E-01
 -1      3338 2.38216E-01
 -1      3339 2.08122E-01
 -1      3340 2.92666E-01
 -1      3341 3.48384E-01
 -1      3342 2.93933E-01
 -1      3343 4.11847E-01
 -1      3344 4.75309E-01
 -1      3345 4.11847E-01
 -1      3346 5.70377E-01
 -1      3347 6.60847E-01
 -1      3348 5.70377E-01
 -1      3349 7.55682E-01
 -1      3350 8.48841E-01
 -1      3351 7.60279E-01
 -1      3352 9.35916E-01
 -1      3353 1.02926E+00
 -1      3354 9.42188E-01
 -1      3355 1.14971E+00
 -1      3356 1.22211E+00
 -1      3357 1.14971E+00
 -1      3358 1.32619E+00
 -1      3359 1.34818E+00
 -1      3360 1.37425E+00
 -1      3361 1.33369E+00
 -1      3362 1.43758E+00
 -1      3363 1.46384E+00
 -1      3364 1.65341E+00
 -1      3365 1.73690E+00
 -1      3366 1.66518E+00
 -1      3367 1.90677E+00
 -1      3368 1.82150E+00
 -1      3369 2.05089E+00
 -1      3370 1.90736E+00
 -1      3371 2.00003E+00
 -1      3372 2.30662E+00
 -1      3373 1.97832E+00
 -1      3374 1.91335E+00
 -1      3375 2.37078E+00
 -1      3376 1.65874E+00
 -1      3377 1.55046E+00
 -1      3378 2.09447E+00
 -1      3379 1.26629E+00
 -1      3380 1.23704E+00
 -1      3381 1.55568E+00
 -1      3382 1.27573E+00
 -1      3383 1.22244E+00
 -1      3384 1.31021E+00
 -1      3385 1.09598E+00
 -1      3386 1.00870E+00
 -1      3387 1.22244E+00
 -1      3388 9.56349E-01
 -1      3389 8.69682E-01
 -1      3390 1.04362E+00
 -1      3391 7.65572E-01
 -1      3392 7.01654E-01
 -1      3393 7.01654E-01
 -1      3394 8.87159E-01
 -1      3395 2.04720E-01
 -1      3396 2.15351E-01
 -1      3397 1.97462E-01
 -1      3398 1.87072E-01
 -1      3399 6.95002E-02
 -1      3400 7.90158E-02
 -1      3401 3.04217E-01
 -1      3402 2.51251E+00
 -1      3403 2.57062E+00
 -1      3404 8.72149E-02
 -1      3405 9.76657E-02
 -1      3406 8.06898E-02
 -1      3407 3.77832E-02
 -1      3408 4.57021E-02
 -1      3409 2.90703E-02
 -1      3410 3.35889E-02
 -1      3411 3.79260E-02
 -1      3412 3.32298E-02
 -1      3413 3.03290E-02
 -1      3414 3.49904E-02
 -1      3415 5.05126E-02
 -1      3416 3.77006E-02
 -1      3417 4.07199E-02
 -1      3418 8.19092E-02
 -1      3419 6.41118E-02
 -1      3420 5.87898E-02
 -1      3421 1.25425E-01
 -1      3422 9.98065E-02
 -1      3423 9.02862E-02
 -1      3424 1.85454E-01
 -1      3425 1.49130E-01
 -1      3426 1.31889E-01
 -1      3427 2.58000E-01
 -1      3428 2.11597E-01
 -1      3429 1.81737E-01
 -1      3430 3.78177E-01
 -1      3431 3.02002E-01
 -1      3432 2.51882E-01
 -1      3433 5.51962E-01
 -1      3434 4.45777E-01
 -1      3435 3.63484E-01
 -1      3436 8.22006E-01
 -1      3437 6.66481E-01
 -1      3438 5.45603E-01
 -1      3439 1.22716E+00
 -1      3440 9.92506E-01
 -1      3441 8.30622E-01
 -1      3442 1.83366E+00
 -1      3443 1.48065E+00
 -1      3444 1.25461E+00
 -1      3445 2.82272E+00
 -1      3446 2.24717E+00
 -1      3447 1.92162E+00
 -1      3448 5.35539E+00
 -1      3449 3.45148E+00
 -1      3450 2.96389E+00
 -1      3451 6.62751E+00
 -1      3452 2.52997E-01
 -1      3453 2.11459E-01
 -1      3454 2.14634E-01
 -1      3455 1.57096E-01
 -1      3456 1.78159E-01
 -1      3457 8.74291E+00
 -1      3458 7.86373E+00
 -1      3459 7.34774E+00
 -1      3460 3.75441E+00
 -1      3461 2.95293E+00
 -1      3462 3.15947E-01
 -1      3463 3.23563E-01
 -1      3464 2.89334E-01
 -1      3465 1.45078E-01
 -1      3466 1.55579E-01
 -1      3467 1.66204E-01
 -1      3468 1.79855E-01
 -1      3469 1.50024E-01
 -1      3470 1.86901E-01
 -1      3471 1.98087E-01
 -1      3472 1.57784E-01
 -1      3473 3.40383E+00
 -1      3474 3.63992E+00
 -1      3475 1.61529E+00
 -1      3476 1.79743E+00
 -1      3477 2.57974E-01
 -1      3478 3.08341E-01
 -1      3479 6.42138E+00
 -1      3480 3.92902E+00
 -1      3481 3.14085E+00
 -1      3482 2.37359E+00
 -1      3483 3.09782E+00
 -1      3484 5.29985E-02
 -1      3485 6.16114E-02
 -1      3486 6.46020E-02
 -1      3487 4.94168E-02
 -1      3488 2.69202E-01
 -1      3489 1.25530E-01
 -1      3490 1.36534E-01
 -1      3491 1.30856E-01
 -1      3492 2.53830E-01
 -1      3493 2.53830E-01
 -1      3494 2.14012E-01
 -1      3495 2.79217E+00
 -1      3496 3.40009E+00
 -1      3497 2.57062E+00
 -1      3498 6.15523E+00
 -1      3499 5.04256E+00
 -1      3500 4.77658E+00
 -1      3501 6.35307E+00
 -1      3502 1.87443E-01
 -1      3503 2.01607E-01
 -1      3504 1.78939E-01
 -1      3505 1.68238E-01
 -1      3506 1.06053E-01
 -1      3507 1.17205E-01
 -1      3508 1.13988E-01
 -1      3509 9.72761E-02
 -1      3510 2.02452E-01
 -1      3511 1.90690E-01
 -1      3512 1.45086E-01
 -1      3513 2.15625E-01
 -1      3514 3.02597E+00
 -1      3515 7.63699E+00
 -1      3516 8.27989E+00
 -1      3517 8.27989E+00
 -1      3518 5.61348E+00
 -1      3519 7.14996E-01
 -1      3520 7.69833E-01
 -1      3521 7.96391E-01
 -1      3522 2.68927E+00
 -1      3523 3.27789E+00
 -1      3524 2.94043E+00
 -1      3525 2.95293E+00
 -1      3526 2.60289E+00
 -1      3527 2.21704E-01
 -1      3528 2.85450E-01
 -1      3529 3.45362E+00
 -1      3530 4.09161E+00
 -1      3531 3.64459E+00
 -1      3532 4.48340E+00
 -1      3533 5.46315E+00
 -1      3534 6.33962E+00
 -1      3535 5.13076E+00
 -1      3536 1.74556E-01
 -1      3537 2.43946E+00
 -1      3538 1.59127E+00
 -1      3539 2.02458E+00
 -1      3540 1.49374E+00
 -1      3541 4.42378E+00
 -1      3542 3.19922E+00
 -1      3543 4.48737E+00
 -1      3544 2.53230E-01
 -1      3545 2.53230E-01
 -1      3546 2.18836E-01
 -1      3547 2.53830E-01
 -1      3548 2.50201E-01
 -1      3549 2.79590E+00
 -1      3550 2.52985E+00
 -1      3551 2.31225E+00
 -1      3552 2.25771E+00
 -1      3553 2.28252E+00
 -1      3554 8.81708E-01
 -1      3555 1.01020E+00
 -1      3556 1.51702E+00
 -1      3557 9.21608E-01
 -1      3558 5.71432E+00
 -1      3559 2.63475E+00
 -1      3560 3.46595E+00
 -1      3561 3.46145E+00
 -1      3562 2.45613E-01
 -1      3563 2.42134E-01
 -1      3564 1.75384E-01
 -1      3565 2.09510E-01
 -1      3566 1.48696E-01
 -1      3567 1.52529E-01
 -1      3568 2.49346E-01
 -1      3569 2.53230E-01
 -1      3570 2.17127E-01
 -1      3571 2.17981E-01
 -1      3572 8.87159E-01
 -1      3573 9.00501E-01
 -1      3574 9.91269E-01
 -1      3575 2.66246E+00
 -1      3576 3.50274E+00
 -1      3577 1.58719E-01
 -1      3578 1.55016E-01
 -1      3579 1.29311E-01
 -1      3580 1.54642E-01
 -1      3581 1.46658E-01
 -1      3582 1.35127E-01
 -1      3583 1.42149E-01
 -1      3584 1.32129E-01
 -1      3585 1.30244E-01
 -1      3586 1.25345E-01
 -1      3587 1.17139E-01
 -1      3588 1.18952E-01
 -1      3589 1.09711E-01
 -1      3590 1.01244E-01
 -1      3591 1.04739E-01
 -1      3592 9.48604E-02
 -1      3593 8.61904E-02
 -1      3594 9.09265E-02
 -1      3595 7.95171E-02
 -1      3596 7.11513E-02
 -1      3597 7.78694E-02
 -1      3598 6.45749E-02
 -1      3599 5.67321E-02
 -1      3600 6.46198E-02
 -1      3601 5.04779E-02
 -1      3602 4.31868E-02
 -1      3603 5.17892E-02
 -1      3604 3.93804E-02
 -1      3605 3.34233E-02
 -1      3606 4.17285E-02
 -1      3607 3.25990E-02
 -1      3608 3.15430E-02
 -1      3609 3.70978E-02
 -1      3610 3.14934E-02
 -1      3611 3.18831E-02
 -1      3612 3.62238E-02
 -1      3613 3.40443E-02
 -1      3614 4.04965E-02
 -1      3615 3.83353E-02
 -1      3616 4.76995E-02
 -1      3617 5.46693E-02
 -1      3618 4.76995E-02
 -1      3619 6.42339E-02
 -1      3620 7.40148E-02
 -1      3621 6.44671E-02
 -1      3622 8.53649E-02
 -1      3623 9.83987E-02
 -1      3624 8.53819E-02
 -1      3625 1.17741E-01
 -1      3626 1.32487E-01
 -1      3627 1.16074E-01
 -1      3628 1.60160E-01
 -1      3629 1.83763E-01
 -1      3630 1.63090E-01
 -1      3631 2.18532E-01
 -1      3632 2.49892E-01
 -1      3633 2.25533E-01
 -1      3634 2.94869E-01
 -1      3635 3.49320E-01
 -1      3636 3.05279E-01
 -1      3637 4.15204E-01
 -1      3638 4.78666E-01
 -1      3639 4.16140E-01
 -1      3640 5.70377E-01
 -1      3641 6.65444E-01
 -1      3642 5.73734E-01
 -1      3643 7.76472E-01
 -1      3644 8.71306E-01
 -1      3645 7.76472E-01
 -1      3646 1.03002E+00
 -1      3647 1.11709E+00
 -1      3648 1.04621E+00
 -1      3649 1.23658E+00
 -1      3650 1.35704E+00
 -1      3651 1.32442E+00
 -1      3652 1.47198E+00
 -1      3653 1.57606E+00
 -1      3654 1.55885E+00
 -1      3655 1.73576E+00
 -1      3656 1.72127E+00
 -1      3657 1.83349E+00
 -1      3658 1.82934E+00
 -1      3659 2.04517E+00
 -1      3660 2.10125E+00
 -1      3661 2.20314E+00
 -1      3662 2.37302E+00
 -1      3663 2.51020E+00
 -1      3664 2.59606E+00
 -1      3665 2.59232E+00
 -1      3666 2.57062E+00
 -1      3667 2.34908E+00
 -1      3668 2.09447E+00
 -1      3669 1.45503E+00
 -1      3670 1.49372E+00
 -1      3671 1.34890E+00
 -1      3672 1.22244E+00
 -1      3673 1.49372E+00
 -1      3674 1.05841E+00
 -1      3675 1.00606E+00
 -1      3676 1.00606E+00
 -1      3677 1.18487E+00
 -1      3678 2.36730E+00
 -1      3679 3.18853E+00
 -1      3680 3.85109E-02
 -1      3681 3.72522E-02
 -1      3682 3.68738E-02
 -1      3683 4.10682E-02
 -1      3684 4.03944E-02
 -1      3685 6.44968E-02
 -1      3686 5.08976E-02
 -1      3687 9.33513E-02
 -1      3688 7.54540E-02
 -1      3689 6.75618E-02
 -1      3690 1.34416E-01
 -1      3691 1.10710E-01
 -1      3692 9.58782E-02
 -1      3693 1.81547E-01
 -1      3694 1.55403E-01
 -1      3695 1.34225E-01
 -1      3696 2.65184E-01
 -1      3697 2.21183E-01
 -1      3698 1.94848E-01
 -1      3699 3.84374E-01
 -1      3700 3.16774E-01
 -1      3701 2.86074E-01
 -1      3702 5.69724E-01
 -1      3703 4.55205E-01
 -1      3704 4.08495E-01
 -1      3705 8.34522E-01
 -1      3706 6.64022E-01
 -1      3707 5.73624E-01
 -1      3708 1.33394E+00
 -1      3709 1.08045E+00
 -1      3710 9.13847E-01
 -1      3711 2.12700E+00
 -1      3712 1.71349E+00
 -1      3713 1.53932E+00
 -1      3714 1.32961E-01
 -1      3715 1.43586E-01
 -1      3716 1.43667E-01
 -1      3717 1.78299E-01
 -1      3718 1.16192E-01
 -1      3719 1.32678E-01
 -1      3720 1.07103E-01
 -1      3721 2.08420E+00
 -1      3722 2.08420E+00
 -1      3723 3.03055E+00
 -1      3724 2.27659E+00
 -1      3725 3.88565E+00
 -1      3726 4.53678E+00
 -1      3727 1.83123E-01
 -1      3728 1.17680E-01
 -1      3729 1.26225E-01
 -1      3730 1.19786E-01
 -1      3731 5.09554E+00
 -1      3732 4.48737E+00
 -1      3733 3.90381E+00
 -1      3734 4.47570E-02
 -1      3735 4.02863E-02
 -1      3736 5.04640E-02
 -1      3737 2.95860E+00
 -1      3738 3.85043E+00
 -1      3739 7.20787E-02
 -1      3740 8.02778E-02
 -1      3741 1.84919E-01
 -1      3742 1.84919E-01
 -1      3743 3.14221E+00
 -1      3744 2.64820E+00
 -1      3745 2.65603E+00
 -1      3746 6.42138E+00
 -1      3747 6.56510E-02
 -1      3748 6.52389E-02
 -1      3749 5.77622E-02
 -1      3750 2.09447E+00
 -1      3751 1.83985E+00
 -1      3752 1.55568E+00
 -1      3753 4.25480E-02
 -1      3754 6.06090E+00
 -1      3755 1.90322E-01
 -1      3756 1.90322E-01
 -1      3757 1.54610E-01
 -1      3758 2.18485E+00
 -1      3759 1.60839E-01
 -1      3760 1.73920E+00
 -1      3761 1.39872E-01
 -1      3762 1.36084E-01
 -1      3763 1.10978E-01
 -1      3764 1.66381E-01
 -1      3765 4.32439E-02
 -1      3766 4.42961E-02
 -1      3767 5.15925E-02
 -1      3768 1.30559E-01
 -1      3769 1.47622E-01
 -1      3770 1.55211E-01
 -1      3771 2.61303E+00
 -1      3772 2.40491E+00
 -1      3773 3.24179E+00
 -1      3774 3.86860E+00
 -1      3775 6.89851E+00
 -1      3776 3.86364E+00
 -1      3777 3.51278E+00
 -1      3778 1.52495E-01
 -1      3779 1.48603E-01
 -1      3780 3.64459E+00
 -1      3781 4.32956E+00
 -1      3782 1.13111E+00
 -1      3783 1.04035E+00
 -1      3784 1.15222E+00
 -1      3785 1.01786E-01
 -1      3786 1.10110E-01
 -1      3787 1.05479E-01
 -1      3788 2.21525E+00
 -1      3789 8.70940E-02
 -1      3790 9.54812E-02
 -1      3791 9.16038E-02
 -1      3792 7.84829E-02
 -1      3793 2.08420E+00
 -1      3794 1.63855E+00
 -1      3795 2.28619E+00
 -1      3796 2.62671E+00
 -1      3797 2.24966E+00
 -1      3798 1.73998E-01
 -1      3799 1.55838E-01
 -1      3800 1.58951E-01
 -1      3801 1.29394E-01
 -1      3802 1.35223E-01
 -1      3803 1.41790E-01
 -1      3804 5.51602E+00
 -1      3805 5.61348E+00
 -1      3806 2.45309E+00
 -1      3807 3.36309E+00
 -1      3808 3.36309E+00
 -1      3809 2.42907E+00
 -1      3810 1.06328E-01
 -1      3811 1.12518E-01
 -1      3812 1.89468E-01
 -1      3813 1.57260E-01
 -1      3814 1.90322E-01
 -1      3815 1.18504E-01
 -1      3816 1.18131E-01
 -1      3817 9.55215E-02
 -1      3818 1.18815E-01
 -1      3819 1.14307E-01
 -1      3820 1.02193E-01
 -1      3821 1.11557E-01
 -1      3822 1.04773E-01
 -1      3823 1.00128E-01
 -1      3824 1.00048E-01
 -1      3825 9.26190E-02
 -1      3826 9.26531E-02
 -1      3827 8.68518E-02
 -1      3828 8.04680E-02
 -1      3829 8.21606E-02
 -1      3830 7.46674E-02
 -1      3831 6.79940E-02
 -1      3832 7.05926E-02
 -1      3833 6.30241E-02
 -1      3834 5.64478E-02
 -1      3835 5.98221E-02
 -1      3836 5.23949E-02
 -1      3837 4.61407E-02
 -1      3838 5.07993E-02
 -1      3839 4.47986E-02
 -1      3840 4.09921E-02
 -1      3841 4.54043E-02
 -1      3842 4.01236E-02
 -1      3843 3.92994E-02
 -1      3844 4.31937E-02
 -1      3845 3.95253E-02
 -1      3846 3.94757E-02
 -1      3847 4.25512E-02
 -1      3848 4.14142E-02
 -1      3849 4.35754E-02
 -1      3850 4.47157E-02
 -1      3851 4.76995E-02
 -1      3852 5.49025E-02
 -1      3853 5.07784E-02
 -1      3854 6.44671E-02
 -1      3855 7.40318E-02
 -1      3856 6.44671E-02
 -1      3857 8.53819E-02
 -1      3858 9.67320E-02
 -1      3859 8.53819E-02
 -1      3860 1.14778E-01
 -1      3861 1.34120E-01
 -1      3862 1.14778E-01
 -1      3863 1.57412E-01
 -1      3864 1.85085E-01
 -1      3865 1.56115E-01
 -1      3866 2.28857E-01
 -1      3867 2.63626E-01
 -1      3868 2.23179E-01
 -1      3869 3.24992E-01
 -1      3870 3.69969E-01
 -1      3871 3.28316E-01
 -1      3872 4.42013E-01
 -1      3873 5.07897E-01
 -1      3874 4.61726E-01
 -1      3875 5.92061E-01
 -1      3876 6.83772E-01
 -1      3877 6.17935E-01
 -1      3878 8.10314E-01
 -1      3879 9.21341E-01
 -1      3880 8.28641E-01
 -1      3881 1.38372E+00
 -1      3882 1.54243E+00
 -1      3883 1.41756E+00
 -1      3884 1.46478E+00
 -1      3885 1.58427E+00
 -1      3886 1.80229E+00
 -1      3887 1.69846E+00
 -1      3888 1.81340E+00
 -1      3889 1.83883E+00
 -1      3890 1.97597E+00
 -1      3891 2.13566E+00
 -1      3892 2.10718E+00
 -1      3893 1.35174E-01
 -1      3894 1.39623E-01
 -1      3895 1.18635E-01
 -1      3896 1.05023E-01
 -1      3897 8.76634E-02
 -1      3898 1.10420E-01
 -1      3899 7.53424E-02
 -1      3900 6.43852E-02
 -1      3901 8.44867E-02
 -1      3902 2.04681E-01
 -1      3903 1.65045E-01
 -1      3904 1.49455E-01
 -1      3905 2.86074E-01
 -1      3906 2.34484E-01
 -1      3907 2.04681E-01
 -1      3908 4.19399E-01
 -1      3909 3.48568E-01
 -1      3910 2.96978E-01
 -1      3911 6.13538E-01
 -1      3912 5.19240E-01
 -1      3913 4.59313E-01
 -1      3914 9.99706E-01
 -1      3915 7.53782E-01
 -1      3916 6.99398E-01
 -1      3917 1.53932E+00
 -1      3918 1.15977E+00
 -1      3919 9.99706E-01
 -1      3920 2.67765E+00
 -1      3921 3.36262E+00
 -1      3922 1.05353E-01
 -1      3923 1.12090E-01
 -1      3924 9.41029E-02
 -1      3925 1.10121E-01
 -1      3926 9.33274E-02
 -1      3927 2.92217E+00
 -1      3928 2.25279E+00
 -1      3929 1.80714E+00
 -1      3930 1.49372E+00
 -1      3931 1.13762E-01
 -1      3932 1.25998E-01
 -1      3933 1.33197E-01
 -1      3934 4.15258E-02
 -1      3935 4.11474E-02
 -1      3936 4.46289E-02
 -1      3937 4.28536E-02
 -1      3938 4.36067E-02
 -1      3939 5.59320E-02
 -1      3940 4.97914E-02
 -1      3941 6.37126E-02
 -1      3942 1.63576E+00
 -1      3943 4.23210E+00
 -1      3944 1.41775E+00
 -1      3945 1.27293E+00
 -1      3946 1.10890E+00
 -1      3947 1.58635E+00
 -1      3948 3.93249E+00
 -1      3949 3.83503E+00
 -1      3950 2.54885E+00
 -1      3951 1.60242E+00
 -1      3952 1.21303E+00
 -1      3953 2.04334E+00
 -1      3954 2.36624E+00
 -1      3955 5.26415E-02
 -1      3956 1.42409E-01
 -1      3957 1.37860E-01
 -1      3958 2.46414E+00
 -1      3959 2.14490E+00
 -1      3960 2.11558E+00
 -1      3961 1.21898E-01
 -1      3962 8.84208E-01
 -1      3963 8.69421E-01
 -1      3964 1.00927E+00
 -1      3965 9.72265E-01
 -1      3966 3.10620E+00
 -1      3967 2.70914E+00
 -1      3968 2.13927E+00
 -1      3969 5.15738E-02
 -1      3970 5.04424E-02
 -1      3971 5.36703E-02
 -1      3972 1.20218E-01
 -1      3973 1.14519E-01
 -1      3974 1.18556E-01
 -1      3975 1.00087E-01
 -1      3976 2.00286E+00
 -1      3977 1.62331E+00
 -1      3978 2.48889E+00
 -1      3979 2.06427E+00
 -1      3980 3.21318E+00
 -1      3981 5.00969E-02
 -1      3982 6.82099E-02
 -1      3983 7.50262E-02
 -1      3984 9.31413E-02
 -1      3985 1.00712E-01
 -1      3986 9.30156E-02
 -1      3987 6.82656E-02
 -1      3988 7.46933E-02
 -1      3989 7.12366E-02
 -1      3990 1.24915E-01
 -1      3991 1.61809E-01
 -1      3992 1.10065E-01
 -1      3993 2.03072E+00
 -1      3994 2.06017E+00
 -1      3995 7.73631E-02
 -1      3996 8.33500E-02
 -1      3997 9.48668E-02
 -1      3998 9.55516E-02
 -1      3999 7.67084E-02
 -1      4000 8.93713E-02
 -1      4001 8.66215E-02
 -1      4002 8.20450E-02
 -1      4003 8.97269E-02
 -1      4004 8.50016E-02
 -1      4005 7.89700E-02
 -1      4006 8.50016E-02
 -1      4007 7.92343E-02
 -1      4008 8.20753E-02
 -1      4009 6.99401E-02
 -1      4010 6.41394E-02
 -1      4011 7.27811E-02
 -1      4012 6.31997E-02
 -1      4013 5.82298E-02
 -1      4014 6.25472E-02
 -1      4015 6.44424E-02
 -1      4016 6.03896E-02
 -1      4017 6.78201E-02
 -1      4018 5.50006E-02
 -1      4019 5.36584E-02
 -1      4020 6.86437E-02
 -1      4021 4.40622E-02
 -1      4022 4.31937E-02
 -1      4023 5.36584E-02
 -1      4024 4.33740E-02
 -1      4025 4.36000E-02
 -1      4026 4.42425E-02
 -1      4027 4.71318E-02
 -1      4028 4.90704E-02
 -1      4029 4.79546E-02
 -1      4030 5.68278E-02
 -1      4031 6.09519E-02
 -1      4032 5.92439E-02
 -1      4033 7.35283E-02
 -1      4034 8.30930E-02
 -1      4035 7.95778E-02
 -1      4036 1.00979E-01
 -1      4037 1.12329E-01
 -1      4038 1.10040E-01
 -1      4039 1.38553E-01
 -1      4040 1.56598E-01
 -1      4041 1.54150E-01
 -1      4042 1.96042E-01
 -1      4043 2.19334E-01
 -1      4044 2.19817E-01
 -1      4045 2.73966E-01
 -1      4046 3.17738E-01
 -1      4047 3.13893E-01
 -1      4048 3.88723E-01
 -1      4049 4.50089E-01
 -1      4050 4.39511E-01
 -1      4051 5.34156E-01
 -1      4052 6.06200E-01
 -1      4053 5.94562E-01
 -1      4054 7.33126E-01
 -1      4055 8.17290E-01
 -1      4056 8.05555E-01
 -1      4057 1.03189E+00
 -1      4058 1.15843E+00
 -1      4059 1.14708E+00
 -1      4060 1.41901E+00
 -1      4061 1.88139E+00
 -1      4062 2.13782E+00
 -1      4063 1.25980E-01
 -1      4064 1.12367E-01
 -1      4065 2.46872E-01
 -1      4066 2.17069E-01
 -1      4067 1.77625E-01
 -1      4068 1.52203E-01
 -1      4069 1.54150E-01
 -1      4070 2.19817E-01
 -1      4071 9.44810E-02
 -1      4072 8.21600E-02
 -1      4073 1.10040E-01
 -1      4074 3.63999E-01
 -1      4075 3.01505E-01
 -1      4076 3.13893E-01
 -1      4077 5.34825E-01
 -1      4078 4.34984E-01
 -1      4079 4.39511E-01
 -1      4080 7.59135E-01
 -1      4081 6.18891E-01
 -1      4082 5.94562E-01
 -1      4083 1.04613E+00
 -1      4084 8.86061E-01
 -1      4085 8.05555E-01
 -1      4086 4.89934E-02
 -1      4087 5.51631E-02
 -1      4088 6.46175E-02
 -1      4089 5.61919E-02
 -1      4090 7.46296E-02
 -1      4091 7.08369E-02
 -1      4092 5.86654E-02
 -1      4093 8.75743E-02
 -1      4094 5.33729E-02
 -1      4095 4.82105E-02
 -1      4096 8.10826E-02
 -1      4097 8.73872E-02
 -1      4098 7.08097E-02
 -1      4099 2.81114E+00
 -1      4100 4.46786E-02
 -1      4101 4.33508E-02
 -1      4102 4.79546E-02
 -1      4103 1.17751E-01
 -1      4104 1.18379E-01
 -1      4105 1.01712E-01
 -1      4106 6.95836E-02
 -1      4107 6.11304E-02
 -1      4108 7.95778E-02
 -1      4109 1.02746E-01
 -1      4110 1.42409E-01
 -1      4111 1.42409E-01
 -1      4112 1.23009E-01
 -1      4113 1.13798E-01
 -1      4114 5.92439E-02
 -1      4115 1.62226E+00
 -1      4116 8.51299E-02
 -1      4117 8.69696E-02
 -1      4118 9.88335E-01
 -1      4119 5.27668E-02
 -1      4120 6.20618E-02
 -1      4121 5.38387E-02
 -1      4122 9.29411E-02
 -1      4123 9.53707E-02
 -1      4124 1.72427E+00
 -1      4125 1.26073E+00
 -1      4126 1.14708E+00
 -1      4127 2.44855E+00
 -1      4128 6.57953E-02
 -1      4129 7.18518E-02
 -1      4130 8.26202E-02
 -1      4131 8.52247E-02
 -1      4132 8.98662E-02
 -1      4133 8.51503E-02
 -1      4134 8.75743E-02
 -1      4135 1.25003E+00
 -1      4136 2.44855E+00
 -1      4137 9.61812E-02
 -1      4138 7.77200E-02
 -1      4139 7.12366E-02
 -1      4140 7.22787E-02
 -1      4141 1.36168E+00
 -1      4142 8.11305E-02
 -1      4143 9.26473E-02
 -1      4144 9.89881E-02
 -1      4145 8.32112E-02
 -1      4146 8.82252E-02
 -1      4147 8.20450E-02
 -1      4148 7.89700E-02
 -1      4149 8.20753E-02
 -1      4150 8.20753E-02
 -1      4151 7.44564E-02
 -1      4152 6.51622E-02
 -1      4153 7.06034E-02
 -1      4154 6.96637E-02
 -1      4155 7.58763E-02
 -1      4156 7.58763E-02
 -1      4157 7.04873E-02
 -1      4158 6.32547E-02
 -1      4159 5.36584E-02
 -1      4160 4.42425E-02
 -1      4161 4.44227E-02
 -1      4162 4.79546E-02
 -1      4163 5.14865E-02
 -1      4164 5.92439E-02
 -1      4165 6.70014E-02
 -1      4166 7.95778E-02
 -1      4167 9.21542E-02
 -1      4168 1.10040E-01
 -1      4169 1.27927E-01
 -1      4170 1.54150E-01
 -1      4171 1.80373E-01
 -1      4172 2.19817E-01
 -1      4173 2.59261E-01
 -1      4174 3.13893E-01
 -1      4175 3.68525E-01
 -1      4176 4.39511E-01
 -1      4177 5.10496E-01
 -1      4178 5.94562E-01
 -1      4179 6.78629E-01
 -1      4180 8.05555E-01
 -1      4181 9.32481E-01
 -1      4182 1.14708E+00
 -1      4183 6.07461E-02
 -1      4184 6.72723E-02
 -1      4185 7.29371E-02
 -1      4186 7.86912E-02
 -1      4187 7.55417E-02
 -1      4188 6.79228E-02
 -1      4189 9.26473E-02
 -1      4190 9.97928E-02
 -1      4191 7.55417E-02
 -1      4192 7.04873E-02
 -1      4193 7.77200E-02
 -1      4194 6.46175E-02
 -1      4195 7.77200E-02
 -1      4196 6.92944E-02
 -3
 9999
