    1C
    1UUSER                                                              
    1UDATE              26.october.2022                                 
    1UTIME              23:42:36                                        
    1UHOST                                                              
    1UPGM               CalculiX                                        
    1UVERSION           Version 2.17                             
    1UCOMPILETIME       Thu Jul 23 21:43:50 CEST 2020                    
    1UDIR                                                               
    1UDBN                                                               
    1UMAT    1SOLIDMATERIAL                                             
    2C                          4372                                     1
 -1         1 1.11278E+02 3.36754E+01 0.00000E+00
 -1         2 1.21562E+02 2.74935E+01 0.00000E+00
 -1         3 1.50000E+02 0.00000E+00 0.00000E+00
 -1         4 1.50000E+02 5.00000E+01 0.00000E+00
 -1         5 0.00000E+00 0.00000E+00 0.00000E+00
 -1         6 0.00000E+00 5.00000E+01 0.00000E+00
 -1         7 0.00000E+00 4.70500E+01 0.00000E+00
 -1         8 0.00000E+00 4.41000E+01 0.00000E+00
 -1         9 0.00000E+00 4.11500E+01 0.00000E+00
 -1        10 0.00000E+00 3.82000E+01 0.00000E+00
 -1        11 0.00000E+00 3.52500E+01 0.00000E+00
 -1        12 0.00000E+00 3.23500E+01 0.00000E+00
 -1        13 0.00000E+00 2.94000E+01 0.00000E+00
 -1        14 0.00000E+00 2.64500E+01 0.00000E+00
 -1        15 0.00000E+00 2.35000E+01 0.00000E+00
 -1        16 0.00000E+00 2.05500E+01 0.00000E+00
 -1        17 0.00000E+00 1.76000E+01 0.00000E+00
 -1        18 0.00000E+00 1.47000E+01 0.00000E+00
 -1        19 0.00000E+00 1.17500E+01 0.00000E+00
 -1        20 0.00000E+00 8.80000E+00 0.00000E+00
 -1        21 0.00000E+00 5.85000E+00 0.00000E+00
 -1        22 0.00000E+00 2.90000E+00 0.00000E+00
 -1        23 3.15000E+00 5.00000E+01 0.00000E+00
 -1        24 6.15000E+00 5.00000E+01 0.00000E+00
 -1        25 9.15000E+00 5.00000E+01 0.00000E+00
 -1        26 1.21500E+01 5.00000E+01 0.00000E+00
 -1        27 1.51500E+01 5.00000E+01 0.00000E+00
 -1        28 1.81500E+01 5.00000E+01 0.00000E+00
 -1        29 2.11500E+01 5.00000E+01 0.00000E+00
 -1        30 2.41500E+01 5.00000E+01 0.00000E+00
 -1        31 2.71500E+01 5.00000E+01 0.00000E+00
 -1        32 3.01500E+01 5.00000E+01 0.00000E+00
 -1        33 3.31500E+01 5.00000E+01 0.00000E+00
 -1        34 3.61500E+01 5.00000E+01 0.00000E+00
 -1        35 3.91500E+01 5.00000E+01 0.00000E+00
 -1        36 4.21500E+01 5.00000E+01 0.00000E+00
 -1        37 4.51500E+01 5.00000E+01 0.00000E+00
 -1        38 4.81500E+01 5.00000E+01 0.00000E+00
 -1        39 5.11500E+01 5.00000E+01 0.00000E+00
 -1        40 5.41500E+01 5.00000E+01 0.00000E+00
 -1        41 5.71500E+01 5.00000E+01 0.00000E+00
 -1        42 6.01500E+01 5.00000E+01 0.00000E+00
 -1        43 6.31500E+01 5.00000E+01 0.00000E+00
 -1        44 6.61500E+01 5.00000E+01 0.00000E+00
 -1        45 6.91500E+01 5.00000E+01 0.00000E+00
 -1        46 7.21500E+01 5.00000E+01 0.00000E+00
 -1        47 7.51500E+01 5.00000E+01 0.00000E+00
 -1        48 7.81500E+01 5.00000E+01 0.00000E+00
 -1        49 8.11500E+01 5.00000E+01 0.00000E+00
 -1        50 8.41500E+01 5.00000E+01 0.00000E+00
 -1        51 8.71500E+01 5.00000E+01 0.00000E+00
 -1        52 9.01500E+01 5.00000E+01 0.00000E+00
 -1        53 9.31500E+01 5.00000E+01 0.00000E+00
 -1        54 9.61500E+01 5.00000E+01 0.00000E+00
 -1        55 9.91500E+01 5.00000E+01 0.00000E+00
 -1        56 1.02150E+02 5.00000E+01 0.00000E+00
 -1        57 1.05150E+02 5.00000E+01 0.00000E+00
 -1        58 1.08150E+02 5.00000E+01 0.00000E+00
 -1        59 1.11150E+02 5.00000E+01 0.00000E+00
 -1        60 1.14150E+02 5.00000E+01 0.00000E+00
 -1        61 1.17150E+02 5.00000E+01 0.00000E+00
 -1        62 1.20150E+02 5.00000E+01 0.00000E+00
 -1        63 1.23150E+02 5.00000E+01 0.00000E+00
 -1        64 1.26150E+02 5.00000E+01 0.00000E+00
 -1        65 1.29150E+02 5.00000E+01 0.00000E+00
 -1        66 1.32150E+02 5.00000E+01 0.00000E+00
 -1        67 1.35150E+02 5.00000E+01 0.00000E+00
 -1        68 1.38150E+02 5.00000E+01 0.00000E+00
 -1        69 1.41150E+02 5.00000E+01 0.00000E+00
 -1        70 1.44150E+02 5.00000E+01 0.00000E+00
 -1        71 1.47150E+02 5.00000E+01 0.00000E+00
 -1        72 3.15000E+00 0.00000E+00 0.00000E+00
 -1        73 6.15000E+00 0.00000E+00 0.00000E+00
 -1        74 9.15000E+00 0.00000E+00 0.00000E+00
 -1        75 1.21500E+01 0.00000E+00 0.00000E+00
 -1        76 1.51500E+01 0.00000E+00 0.00000E+00
 -1        77 1.81500E+01 0.00000E+00 0.00000E+00
 -1        78 2.11500E+01 0.00000E+00 0.00000E+00
 -1        79 2.41500E+01 0.00000E+00 0.00000E+00
 -1        80 2.71500E+01 0.00000E+00 0.00000E+00
 -1        81 3.01500E+01 0.00000E+00 0.00000E+00
 -1        82 3.31500E+01 0.00000E+00 0.00000E+00
 -1        83 3.61500E+01 0.00000E+00 0.00000E+00
 -1        84 3.91500E+01 0.00000E+00 0.00000E+00
 -1        85 4.21500E+01 0.00000E+00 0.00000E+00
 -1        86 4.51500E+01 0.00000E+00 0.00000E+00
 -1        87 4.81500E+01 0.00000E+00 0.00000E+00
 -1        88 5.11500E+01 0.00000E+00 0.00000E+00
 -1        89 5.41500E+01 0.00000E+00 0.00000E+00
 -1        90 5.71500E+01 0.00000E+00 0.00000E+00
 -1        91 6.01500E+01 0.00000E+00 0.00000E+00
 -1        92 6.31500E+01 0.00000E+00 0.00000E+00
 -1        93 6.61500E+01 0.00000E+00 0.00000E+00
 -1        94 6.91500E+01 0.00000E+00 0.00000E+00
 -1        95 7.21500E+01 0.00000E+00 0.00000E+00
 -1        96 7.51500E+01 0.00000E+00 0.00000E+00
 -1        97 7.81500E+01 0.00000E+00 0.00000E+00
 -1        98 8.11500E+01 0.00000E+00 0.00000E+00
 -1        99 8.41500E+01 0.00000E+00 0.00000E+00
 -1       100 8.71500E+01 0.00000E+00 0.00000E+00
 -1       101 9.01500E+01 0.00000E+00 0.00000E+00
 -1       102 9.31500E+01 0.00000E+00 0.00000E+00
 -1       103 9.61500E+01 0.00000E+00 0.00000E+00
 -1       104 9.91500E+01 0.00000E+00 0.00000E+00
 -1       105 1.02150E+02 0.00000E+00 0.00000E+00
 -1       106 1.05150E+02 0.00000E+00 0.00000E+00
 -1       107 1.08150E+02 0.00000E+00 0.00000E+00
 -1       108 1.11150E+02 0.00000E+00 0.00000E+00
 -1       109 1.14150E+02 0.00000E+00 0.00000E+00
 -1       110 1.17150E+02 0.00000E+00 0.00000E+00
 -1       111 1.20150E+02 0.00000E+00 0.00000E+00
 -1       112 1.23150E+02 0.00000E+00 0.00000E+00
 -1       113 1.26150E+02 0.00000E+00 0.00000E+00
 -1       114 1.29150E+02 0.00000E+00 0.00000E+00
 -1       115 1.32150E+02 0.00000E+00 0.00000E+00
 -1       116 1.35150E+02 0.00000E+00 0.00000E+00
 -1       117 1.38150E+02 0.00000E+00 0.00000E+00
 -1       118 1.41150E+02 0.00000E+00 0.00000E+00
 -1       119 1.44150E+02 0.00000E+00 0.00000E+00
 -1       120 1.47150E+02 0.00000E+00 0.00000E+00
 -1       121 1.50000E+02 2.95000E+00 0.00000E+00
 -1       122 1.50000E+02 5.90000E+00 0.00000E+00
 -1       123 1.50000E+02 8.85000E+00 0.00000E+00
 -1       124 1.50000E+02 1.18000E+01 0.00000E+00
 -1       125 1.50000E+02 1.47500E+01 0.00000E+00
 -1       126 1.50000E+02 1.76500E+01 0.00000E+00
 -1       127 1.50000E+02 2.06000E+01 0.00000E+00
 -1       128 1.50000E+02 2.35500E+01 0.00000E+00
 -1       129 1.50000E+02 2.65000E+01 0.00000E+00
 -1       130 1.50000E+02 2.94500E+01 0.00000E+00
 -1       131 1.50000E+02 3.24000E+01 0.00000E+00
 -1       132 1.50000E+02 3.53000E+01 0.00000E+00
 -1       133 1.50000E+02 3.82500E+01 0.00000E+00
 -1       134 1.50000E+02 4.12000E+01 0.00000E+00
 -1       135 1.50000E+02 4.41500E+01 0.00000E+00
 -1       136 1.50000E+02 4.71000E+01 0.00000E+00
 -1       137 1.21412E+02 2.60487E+01 0.00000E+00
 -1       138 1.20953E+02 2.46372E+01 0.00000E+00
 -1       139 1.20219E+02 2.33698E+01 0.00000E+00
 -1       140 1.19281E+02 2.23228E+01 0.00000E+00
 -1       141 1.18149E+02 2.14824E+01 0.00000E+00
 -1       142 1.16808E+02 2.08634E+01 0.00000E+00
 -1       143 1.15388E+02 2.05424E+01 0.00000E+00
 -1       144 1.13826E+02 2.05323E+01 0.00000E+00
 -1       145 1.12432E+02 2.08256E+01 0.00000E+00
 -1       146 1.11073E+02 2.14250E+01 0.00000E+00
 -1       147 1.09900E+02 2.22725E+01 0.00000E+00
 -1       148 1.08914E+02 2.33591E+01 0.00000E+00
 -1       149 1.08112E+02 2.47746E+01 0.00000E+00
 -1       150 1.07689E+02 2.61656E+01 0.00000E+00
 -1       151 1.07565E+02 2.76895E+01 0.00000E+00
 -1       152 1.07795E+02 2.92849E+01 0.00000E+00
 -1       153 1.08306E+02 3.06340E+01 0.00000E+00
 -1       154 1.09072E+02 3.18359E+01 0.00000E+00
 -1       155 1.10065E+02 3.28573E+01 0.00000E+00
 -1       156 1.12593E+02 3.42108E+01 0.00000E+00
 -1       157 1.14094E+02 3.44778E+01 0.00000E+00
 -1       158 1.15489E+02 3.44320E+01 0.00000E+00
 -1       159 1.16876E+02 3.41000E+01 0.00000E+00
 -1       160 1.18181E+02 3.34859E+01 0.00000E+00
 -1       161 1.19293E+02 3.26529E+01 0.00000E+00
 -1       162 1.20238E+02 3.15907E+01 0.00000E+00
 -1       163 1.20968E+02 3.03157E+01 0.00000E+00
 -1       164 1.21401E+02 2.89858E+01 0.00000E+00
 -1       165 2.59800E+00 4.55750E+01 0.00000E+00
 -1       166 2.59800E+00 4.26250E+01 0.00000E+00
 -1       167 2.59800E+00 3.96750E+01 0.00000E+00
 -1       168 2.59800E+00 3.67250E+01 0.00000E+00
 -1       169 2.59800E+00 3.38250E+01 0.00000E+00
 -1       170 2.59800E+00 3.08750E+01 0.00000E+00
 -1       171 2.59800E+00 2.79250E+01 0.00000E+00
 -1       172 2.59800E+00 2.49750E+01 0.00000E+00
 -1       173 2.59800E+00 2.20250E+01 0.00000E+00
 -1       174 2.59800E+00 1.90750E+01 0.00000E+00
 -1       175 2.59800E+00 1.61750E+01 0.00000E+00
 -1       176 2.59800E+00 1.32250E+01 0.00000E+00
 -1       177 2.59800E+00 1.02750E+01 0.00000E+00
 -1       178 2.59800E+00 7.32500E+00 0.00000E+00
 -1       179 2.59800E+00 4.37500E+00 0.00000E+00
 -1       180 2.87400E+00 2.18750E+00 0.00000E+00
 -1       181 4.65000E+00 4.74020E+01 0.00000E+00
 -1       182 7.65000E+00 4.74020E+01 0.00000E+00
 -1       183 1.06500E+01 4.74020E+01 0.00000E+00
 -1       184 1.36500E+01 4.74020E+01 0.00000E+00
 -1       185 1.66500E+01 4.74020E+01 0.00000E+00
 -1       186 1.96500E+01 4.74020E+01 0.00000E+00
 -1       187 2.26500E+01 4.74020E+01 0.00000E+00
 -1       188 2.56500E+01 4.74020E+01 0.00000E+00
 -1       189 2.86500E+01 4.74020E+01 0.00000E+00
 -1       190 3.16500E+01 4.74020E+01 0.00000E+00
 -1       191 3.46500E+01 4.74020E+01 0.00000E+00
 -1       192 3.76500E+01 4.74020E+01 0.00000E+00
 -1       193 4.06500E+01 4.74020E+01 0.00000E+00
 -1       194 4.36500E+01 4.74020E+01 0.00000E+00
 -1       195 4.66500E+01 4.74020E+01 0.00000E+00
 -1       196 4.96500E+01 4.74020E+01 0.00000E+00
 -1       197 5.26500E+01 4.74020E+01 0.00000E+00
 -1       198 5.56500E+01 4.74020E+01 0.00000E+00
 -1       199 5.86500E+01 4.74020E+01 0.00000E+00
 -1       200 6.16500E+01 4.74020E+01 0.00000E+00
 -1       201 6.46500E+01 4.74020E+01 0.00000E+00
 -1       202 6.76500E+01 4.74020E+01 0.00000E+00
 -1       203 7.06500E+01 4.74020E+01 0.00000E+00
 -1       204 7.36500E+01 4.74020E+01 0.00000E+00
 -1       205 7.66500E+01 4.74020E+01 0.00000E+00
 -1       206 7.96500E+01 4.74020E+01 0.00000E+00
 -1       207 8.26500E+01 4.74020E+01 0.00000E+00
 -1       208 8.56500E+01 4.74020E+01 0.00000E+00
 -1       209 8.86500E+01 4.74020E+01 0.00000E+00
 -1       210 9.16500E+01 4.74020E+01 0.00000E+00
 -1       211 9.46500E+01 4.74020E+01 0.00000E+00
 -1       212 9.76500E+01 4.74020E+01 0.00000E+00
 -1       213 1.00650E+02 4.74020E+01 0.00000E+00
 -1       214 1.03650E+02 4.74020E+01 0.00000E+00
 -1       215 1.06650E+02 4.74020E+01 0.00000E+00
 -1       216 1.09650E+02 4.74020E+01 0.00000E+00
 -1       217 1.12650E+02 4.74020E+01 0.00000E+00
 -1       218 1.15650E+02 4.74020E+01 0.00000E+00
 -1       219 1.18650E+02 4.74020E+01 0.00000E+00
 -1       220 1.21650E+02 4.74020E+01 0.00000E+00
 -1       221 1.24650E+02 4.74020E+01 0.00000E+00
 -1       222 1.27650E+02 4.74020E+01 0.00000E+00
 -1       223 1.30650E+02 4.74020E+01 0.00000E+00
 -1       224 1.33650E+02 4.74020E+01 0.00000E+00
 -1       225 1.36650E+02 4.74020E+01 0.00000E+00
 -1       226 1.39650E+02 4.74020E+01 0.00000E+00
 -1       227 1.42650E+02 4.74020E+01 0.00000E+00
 -1       228 1.45650E+02 4.74020E+01 0.00000E+00
 -1       229 5.87400E+00 2.18750E+00 0.00000E+00
 -1       230 8.87400E+00 2.18750E+00 0.00000E+00
 -1       231 1.18740E+01 2.18750E+00 0.00000E+00
 -1       232 1.48740E+01 2.18750E+00 0.00000E+00
 -1       233 1.78740E+01 2.18750E+00 0.00000E+00
 -1       234 2.08740E+01 2.18750E+00 0.00000E+00
 -1       235 2.38740E+01 2.18750E+00 0.00000E+00
 -1       236 2.68740E+01 2.18750E+00 0.00000E+00
 -1       237 2.98740E+01 2.18750E+00 0.00000E+00
 -1       238 3.28740E+01 2.18750E+00 0.00000E+00
 -1       239 3.58740E+01 2.18750E+00 0.00000E+00
 -1       240 3.88740E+01 2.18750E+00 0.00000E+00
 -1       241 4.18740E+01 2.18750E+00 0.00000E+00
 -1       242 4.48740E+01 2.18750E+00 0.00000E+00
 -1       243 4.78740E+01 2.18750E+00 0.00000E+00
 -1       244 5.08740E+01 2.18750E+00 0.00000E+00
 -1       245 5.38740E+01 2.18750E+00 0.00000E+00
 -1       246 5.68740E+01 2.18750E+00 0.00000E+00
 -1       247 5.98740E+01 2.18750E+00 0.00000E+00
 -1       248 6.28740E+01 2.18750E+00 0.00000E+00
 -1       249 6.58740E+01 2.18750E+00 0.00000E+00
 -1       250 6.88740E+01 2.18750E+00 0.00000E+00
 -1       251 7.18740E+01 2.18750E+00 0.00000E+00
 -1       252 7.48740E+01 2.18750E+00 0.00000E+00
 -1       253 7.78740E+01 2.18750E+00 0.00000E+00
 -1       254 8.08740E+01 2.18750E+00 0.00000E+00
 -1       255 8.38740E+01 2.18750E+00 0.00000E+00
 -1       256 8.68740E+01 2.18750E+00 0.00000E+00
 -1       257 8.98740E+01 2.18750E+00 0.00000E+00
 -1       258 9.28740E+01 2.18750E+00 0.00000E+00
 -1       259 9.58740E+01 2.18750E+00 0.00000E+00
 -1       260 9.88740E+01 2.18750E+00 0.00000E+00
 -1       261 1.01874E+02 2.18750E+00 0.00000E+00
 -1       262 1.04874E+02 2.18750E+00 0.00000E+00
 -1       263 1.07874E+02 2.18750E+00 0.00000E+00
 -1       264 1.10874E+02 2.18750E+00 0.00000E+00
 -1       265 1.13874E+02 2.18750E+00 0.00000E+00
 -1       266 1.16874E+02 2.18750E+00 0.00000E+00
 -1       267 1.19874E+02 2.18750E+00 0.00000E+00
 -1       268 1.22874E+02 2.18750E+00 0.00000E+00
 -1       269 1.25874E+02 2.18750E+00 0.00000E+00
 -1       270 1.28874E+02 2.18750E+00 0.00000E+00
 -1       271 1.31874E+02 2.18750E+00 0.00000E+00
 -1       272 1.34874E+02 2.18750E+00 0.00000E+00
 -1       273 1.37874E+02 2.18750E+00 0.00000E+00
 -1       274 1.40874E+02 2.18750E+00 0.00000E+00
 -1       275 1.43874E+02 2.18750E+00 0.00000E+00
 -1       276 1.46874E+02 2.18750E+00 0.00000E+00
 -1       277 1.47402E+02 4.42500E+00 0.00000E+00
 -1       278 1.47402E+02 7.37500E+00 0.00000E+00
 -1       279 1.47402E+02 1.03250E+01 0.00000E+00
 -1       280 1.47402E+02 1.32750E+01 0.00000E+00
 -1       281 1.47402E+02 1.61750E+01 0.00000E+00
 -1       282 1.47402E+02 1.91250E+01 0.00000E+00
 -1       283 1.47402E+02 2.20750E+01 0.00000E+00
 -1       284 1.47402E+02 2.50250E+01 0.00000E+00
 -1       285 1.47402E+02 2.79750E+01 0.00000E+00
 -1       286 1.47402E+02 3.09250E+01 0.00000E+00
 -1       287 1.47402E+02 3.38250E+01 0.00000E+00
 -1       288 1.47402E+02 3.67750E+01 0.00000E+00
 -1       289 1.47402E+02 3.97250E+01 0.00000E+00
 -1       290 1.47402E+02 4.26750E+01 0.00000E+00
 -1       291 1.46526E+02 4.50385E+01 0.00000E+00
 -1       292 1.22693E+02 2.66453E+01 0.00000E+00
 -1       293 1.22415E+02 2.49425E+01 0.00000E+00
 -1       294 1.21707E+02 2.33537E+01 0.00000E+00
 -1       295 1.20653E+02 2.20373E+01 0.00000E+00
 -1       296 1.19438E+02 2.09293E+01 0.00000E+00
 -1       297 1.18057E+02 1.99199E+01 0.00000E+00
 -1       298 1.16384E+02 1.94386E+01 0.00000E+00
 -1       299 1.14616E+02 1.91574E+01 0.00000E+00
 -1       300 1.12880E+02 1.94925E+01 0.00000E+00
 -1       301 1.11229E+02 1.99394E+01 0.00000E+00
 -1       302 1.09728E+02 2.07979E+01 0.00000E+00
 -1       303 1.08509E+02 2.20011E+01 0.00000E+00
 -1       304 1.07239E+02 2.33454E+01 0.00000E+00
 -1       305 1.06741E+02 2.51177E+01 0.00000E+00
 -1       306 1.06335E+02 2.68221E+01 0.00000E+00
 -1       307 1.06232E+02 2.86964E+01 0.00000E+00
 -1       308 1.06917E+02 3.03889E+01 0.00000E+00
 -1       309 1.07667E+02 3.18864E+01 0.00000E+00
 -1       310 1.08699E+02 3.31915E+01 0.00000E+00
 -1       311 1.09994E+02 3.42717E+01 0.00000E+00
 -1       312 1.11478E+02 3.50659E+01 0.00000E+00
 -1       313 1.13116E+02 3.56204E+01 0.00000E+00
 -1       314 1.14831E+02 3.56666E+01 0.00000E+00
 -1       315 1.16464E+02 3.54451E+01 0.00000E+00
 -1       316 1.18045E+02 3.48899E+01 0.00000E+00
 -1       317 1.19463E+02 3.40399E+01 0.00000E+00
 -1       318 1.20671E+02 3.29276E+01 0.00000E+00
 -1       319 1.21801E+02 3.16390E+01 0.00000E+00
 -1       320 1.22338E+02 3.00263E+01 0.00000E+00
 -1       321 1.22771E+02 2.83786E+01 0.00000E+00
 -1       322 5.19600E+00 4.11500E+01 0.00000E+00
 -1       323 5.19600E+00 4.41000E+01 0.00000E+00
 -1       324 5.19600E+00 3.52750E+01 0.00000E+00
 -1       325 5.19600E+00 3.23250E+01 0.00000E+00
 -1       326 5.19600E+00 2.93750E+01 0.00000E+00
 -1       327 5.19600E+00 2.64250E+01 0.00000E+00
 -1       328 5.19600E+00 2.34750E+01 0.00000E+00
 -1       329 5.19600E+00 2.05250E+01 0.00000E+00
 -1       330 5.19600E+00 1.76250E+01 0.00000E+00
 -1       331 5.19600E+00 1.46750E+01 0.00000E+00
 -1       332 5.19600E+00 1.17250E+01 0.00000E+00
 -1       333 5.19600E+00 8.77500E+00 0.00000E+00
 -1       334 5.19600E+00 5.82500E+00 0.00000E+00
 -1       335 5.53500E+00 4.00625E+00 0.00000E+00
 -1       336 8.53500E+00 4.00625E+00 0.00000E+00
 -1       337 9.15000E+00 4.48040E+01 0.00000E+00
 -1       338 1.21500E+01 4.48040E+01 0.00000E+00
 -1       339 1.51500E+01 4.48040E+01 0.00000E+00
 -1       340 1.81500E+01 4.48040E+01 0.00000E+00
 -1       341 2.11500E+01 4.48040E+01 0.00000E+00
 -1       342 2.41500E+01 4.48040E+01 0.00000E+00
 -1       343 2.71500E+01 4.48040E+01 0.00000E+00
 -1       344 3.01500E+01 4.48040E+01 0.00000E+00
 -1       345 3.31500E+01 4.48040E+01 0.00000E+00
 -1       346 3.61500E+01 4.48040E+01 0.00000E+00
 -1       347 3.91500E+01 4.48040E+01 0.00000E+00
 -1       348 4.21500E+01 4.48040E+01 0.00000E+00
 -1       349 4.51500E+01 4.48040E+01 0.00000E+00
 -1       350 4.81500E+01 4.48040E+01 0.00000E+00
 -1       351 5.11500E+01 4.48040E+01 0.00000E+00
 -1       352 5.41500E+01 4.48040E+01 0.00000E+00
 -1       353 5.71500E+01 4.48040E+01 0.00000E+00
 -1       354 6.01500E+01 4.48040E+01 0.00000E+00
 -1       355 6.31500E+01 4.48040E+01 0.00000E+00
 -1       356 6.61500E+01 4.48040E+01 0.00000E+00
 -1       357 6.91500E+01 4.48040E+01 0.00000E+00
 -1       358 7.21500E+01 4.48040E+01 0.00000E+00
 -1       359 7.51500E+01 4.48040E+01 0.00000E+00
 -1       360 7.81500E+01 4.48040E+01 0.00000E+00
 -1       361 8.11500E+01 4.48040E+01 0.00000E+00
 -1       362 8.41500E+01 4.48040E+01 0.00000E+00
 -1       363 8.71500E+01 4.48040E+01 0.00000E+00
 -1       364 9.01500E+01 4.48040E+01 0.00000E+00
 -1       365 9.31500E+01 4.48040E+01 0.00000E+00
 -1       366 9.61500E+01 4.48040E+01 0.00000E+00
 -1       367 9.91500E+01 4.48040E+01 0.00000E+00
 -1       368 1.02150E+02 4.48040E+01 0.00000E+00
 -1       369 1.05150E+02 4.48040E+01 0.00000E+00
 -1       370 1.08150E+02 4.48040E+01 0.00000E+00
 -1       371 1.11150E+02 4.48040E+01 0.00000E+00
 -1       372 1.14150E+02 4.48040E+01 0.00000E+00
 -1       373 1.17150E+02 4.48040E+01 0.00000E+00
 -1       374 1.20150E+02 4.48040E+01 0.00000E+00
 -1       375 1.23150E+02 4.48040E+01 0.00000E+00
 -1       376 1.26150E+02 4.48040E+01 0.00000E+00
 -1       377 1.29150E+02 4.48040E+01 0.00000E+00
 -1       378 1.32150E+02 4.48040E+01 0.00000E+00
 -1       379 1.35150E+02 4.48040E+01 0.00000E+00
 -1       380 1.38150E+02 4.48040E+01 0.00000E+00
 -1       381 1.41150E+02 4.48040E+01 0.00000E+00
 -1       382 1.43838E+02 4.49212E+01 0.00000E+00
 -1       383 1.15350E+01 4.00625E+00 0.00000E+00
 -1       384 1.45350E+01 4.00625E+00 0.00000E+00
 -1       385 1.75350E+01 4.00625E+00 0.00000E+00
 -1       386 2.05350E+01 4.00625E+00 0.00000E+00
 -1       387 2.35350E+01 4.00625E+00 0.00000E+00
 -1       388 2.65350E+01 4.00625E+00 0.00000E+00
 -1       389 2.95350E+01 4.00625E+00 0.00000E+00
 -1       390 3.25350E+01 4.00625E+00 0.00000E+00
 -1       391 3.55350E+01 4.00625E+00 0.00000E+00
 -1       392 3.85350E+01 4.00625E+00 0.00000E+00
 -1       393 4.15350E+01 4.00625E+00 0.00000E+00
 -1       394 4.45350E+01 4.00625E+00 0.00000E+00
 -1       395 4.75350E+01 4.00625E+00 0.00000E+00
 -1       396 5.05350E+01 4.00625E+00 0.00000E+00
 -1       397 5.35350E+01 4.00625E+00 0.00000E+00
 -1       398 5.65350E+01 4.00625E+00 0.00000E+00
 -1       399 5.95350E+01 4.00625E+00 0.00000E+00
 -1       400 6.25350E+01 4.00625E+00 0.00000E+00
 -1       401 6.55350E+01 4.00625E+00 0.00000E+00
 -1       402 6.85350E+01 4.00625E+00 0.00000E+00
 -1       403 7.15350E+01 4.00625E+00 0.00000E+00
 -1       404 7.45350E+01 4.00625E+00 0.00000E+00
 -1       405 7.75350E+01 4.00625E+00 0.00000E+00
 -1       406 8.05350E+01 4.00625E+00 0.00000E+00
 -1       407 8.35350E+01 4.00625E+00 0.00000E+00
 -1       408 8.65350E+01 4.00625E+00 0.00000E+00
 -1       409 8.95350E+01 4.00625E+00 0.00000E+00
 -1       410 9.25350E+01 4.00625E+00 0.00000E+00
 -1       411 9.55350E+01 4.00625E+00 0.00000E+00
 -1       412 9.85350E+01 4.00625E+00 0.00000E+00
 -1       413 1.01535E+02 4.00625E+00 0.00000E+00
 -1       414 1.04535E+02 4.00625E+00 0.00000E+00
 -1       415 1.07535E+02 4.00625E+00 0.00000E+00
 -1       416 1.10535E+02 4.00625E+00 0.00000E+00
 -1       417 1.13535E+02 4.00625E+00 0.00000E+00
 -1       418 1.16535E+02 4.00625E+00 0.00000E+00
 -1       419 1.19535E+02 4.00625E+00 0.00000E+00
 -1       420 1.22535E+02 4.00625E+00 0.00000E+00
 -1       421 1.25535E+02 4.00625E+00 0.00000E+00
 -1       422 1.28535E+02 4.00625E+00 0.00000E+00
 -1       423 1.31535E+02 4.00625E+00 0.00000E+00
 -1       424 1.34535E+02 4.00625E+00 0.00000E+00
 -1       425 1.37535E+02 4.00625E+00 0.00000E+00
 -1       426 1.40535E+02 4.00625E+00 0.00000E+00
 -1       427 1.43535E+02 4.00625E+00 0.00000E+00
 -1       428 1.45469E+02 4.21562E+00 0.00000E+00
 -1       429 1.44804E+02 1.18000E+01 0.00000E+00
 -1       430 1.44804E+02 8.85000E+00 0.00000E+00
 -1       431 1.45136E+02 6.53281E+00 0.00000E+00
 -1       432 1.44804E+02 1.47000E+01 0.00000E+00
 -1       433 1.44804E+02 1.76500E+01 0.00000E+00
 -1       434 1.44804E+02 2.06000E+01 0.00000E+00
 -1       435 1.44804E+02 2.35500E+01 0.00000E+00
 -1       436 1.44804E+02 2.65000E+01 0.00000E+00
 -1       437 1.44804E+02 2.94500E+01 0.00000E+00
 -1       438 1.44804E+02 3.23500E+01 0.00000E+00
 -1       439 1.44804E+02 3.53000E+01 0.00000E+00
 -1       440 1.44804E+02 3.82500E+01 0.00000E+00
 -1       441 1.44804E+02 4.12000E+01 0.00000E+00
 -1       442 1.23628E+02 2.34503E+01 0.00000E+00
 -1       443 1.24110E+02 2.74501E+01 0.00000E+00
 -1       444 1.24081E+02 2.55448E+01 0.00000E+00
 -1       445 1.22519E+02 2.16231E+01 0.00000E+00
 -1       446 1.21304E+02 2.05151E+01 0.00000E+00
 -1       447 5.19600E+00 3.82125E+01 0.00000E+00
 -1       448 1.17602E+02 1.83531E+01 0.00000E+00
 -1       449 1.15730E+02 1.78524E+01 0.00000E+00
 -1       450 1.13391E+02 1.74764E+01 0.00000E+00
 -1       451 1.11741E+02 1.79233E+01 0.00000E+00
 -1       452 1.09794E+02 1.91706E+01 0.00000E+00
 -1       453 1.08208E+02 2.04771E+01 0.00000E+00
 -1       454 1.06810E+02 2.16682E+01 0.00000E+00
 -1       455 1.05662E+02 2.38579E+01 0.00000E+00
 -1       456 1.05195E+02 2.56507E+01 0.00000E+00
 -1       457 1.04571E+02 2.76644E+01 0.00000E+00
 -1       458 1.05295E+02 3.00607E+01 0.00000E+00
 -1       459 1.06045E+02 3.15582E+01 0.00000E+00
 -1       460 1.06903E+02 3.35509E+01 0.00000E+00
 -1       461 1.08355E+02 3.49200E+01 0.00000E+00
 -1       462 1.10125E+02 3.58117E+01 0.00000E+00
 -1       463 1.11882E+02 3.65709E+01 0.00000E+00
 -1       464 1.13934E+02 3.71067E+01 0.00000E+00
 -1       465 1.15822E+02 3.68403E+01 0.00000E+00
 -1       466 1.17823E+02 3.67856E+01 0.00000E+00
 -1       467 1.19420E+02 3.55768E+01 0.00000E+00
 -1       468 1.20945E+02 3.44373E+01 0.00000E+00
 -1       469 1.22075E+02 3.31487E+01 0.00000E+00
 -1       470 1.23537E+02 3.13215E+01 0.00000E+00
 -1       471 1.23970E+02 2.96739E+01 0.00000E+00
 -1       472 1.19512E+02 1.93780E+01 0.00000E+00
 -1       473 1.05232E+02 2.21807E+01 0.00000E+00
 -1       474 1.00350E+01 6.60425E+00 0.00000E+00
 -1       475 7.79400E+00 3.08500E+01 0.00000E+00
 -1       476 7.79400E+00 3.38000E+01 0.00000E+00
 -1       477 7.79400E+00 2.49500E+01 0.00000E+00
 -1       478 7.79400E+00 2.20000E+01 0.00000E+00
 -1       479 7.79400E+00 1.91000E+01 0.00000E+00
 -1       480 7.79400E+00 1.61500E+01 0.00000E+00
 -1       481 7.79400E+00 1.32000E+01 0.00000E+00
 -1       482 7.79400E+00 1.02500E+01 0.00000E+00
 -1       483 1.30350E+01 6.60425E+00 0.00000E+00
 -1       484 1.06500E+01 4.22060E+01 0.00000E+00
 -1       485 1.21282E+02 1.85692E+01 0.00000E+00
 -1       486 1.36500E+01 4.22060E+01 0.00000E+00
 -1       487 1.66500E+01 4.22060E+01 0.00000E+00
 -1       488 1.96500E+01 4.22060E+01 0.00000E+00
 -1       489 2.26500E+01 4.22060E+01 0.00000E+00
 -1       490 2.56500E+01 4.22060E+01 0.00000E+00
 -1       491 2.86500E+01 4.22060E+01 0.00000E+00
 -1       492 3.16500E+01 4.22060E+01 0.00000E+00
 -1       493 3.46500E+01 4.22060E+01 0.00000E+00
 -1       494 3.76500E+01 4.22060E+01 0.00000E+00
 -1       495 4.06500E+01 4.22060E+01 0.00000E+00
 -1       496 4.36500E+01 4.22060E+01 0.00000E+00
 -1       497 4.66500E+01 4.22060E+01 0.00000E+00
 -1       498 4.96500E+01 4.22060E+01 0.00000E+00
 -1       499 5.26500E+01 4.22060E+01 0.00000E+00
 -1       500 5.56500E+01 4.22060E+01 0.00000E+00
 -1       501 5.86500E+01 4.22060E+01 0.00000E+00
 -1       502 6.16500E+01 4.22060E+01 0.00000E+00
 -1       503 6.46500E+01 4.22060E+01 0.00000E+00
 -1       504 6.76500E+01 4.22060E+01 0.00000E+00
 -1       505 7.06500E+01 4.22060E+01 0.00000E+00
 -1       506 7.36500E+01 4.22060E+01 0.00000E+00
 -1       507 7.66500E+01 4.22060E+01 0.00000E+00
 -1       508 7.96500E+01 4.22060E+01 0.00000E+00
 -1       509 8.26500E+01 4.22060E+01 0.00000E+00
 -1       510 8.56500E+01 4.22060E+01 0.00000E+00
 -1       511 8.86500E+01 4.22060E+01 0.00000E+00
 -1       512 9.16500E+01 4.22060E+01 0.00000E+00
 -1       513 9.46500E+01 4.22060E+01 0.00000E+00
 -1       514 9.76500E+01 4.22060E+01 0.00000E+00
 -1       515 1.00650E+02 4.22060E+01 0.00000E+00
 -1       516 1.03650E+02 4.22060E+01 0.00000E+00
 -1       517 1.06650E+02 4.22060E+01 0.00000E+00
 -1       518 1.09650E+02 4.22060E+01 0.00000E+00
 -1       519 1.12650E+02 4.22060E+01 0.00000E+00
 -1       520 1.15650E+02 4.22060E+01 0.00000E+00
 -1       521 1.18650E+02 4.22060E+01 0.00000E+00
 -1       522 1.21650E+02 4.22060E+01 0.00000E+00
 -1       523 1.24650E+02 4.22060E+01 0.00000E+00
 -1       524 1.27650E+02 4.22060E+01 0.00000E+00
 -1       525 1.30650E+02 4.22060E+01 0.00000E+00
 -1       526 1.33650E+02 4.22060E+01 0.00000E+00
 -1       527 1.36650E+02 4.22060E+01 0.00000E+00
 -1       528 1.39650E+02 4.22060E+01 0.00000E+00
 -1       529 1.90350E+01 6.60425E+00 0.00000E+00
 -1       530 2.20350E+01 6.60425E+00 0.00000E+00
 -1       531 2.50350E+01 6.60425E+00 0.00000E+00
 -1       532 2.80350E+01 6.60425E+00 0.00000E+00
 -1       533 3.10350E+01 6.60425E+00 0.00000E+00
 -1       534 3.40350E+01 6.60425E+00 0.00000E+00
 -1       535 3.70350E+01 6.60425E+00 0.00000E+00
 -1       536 4.00350E+01 6.60425E+00 0.00000E+00
 -1       537 4.30350E+01 6.60425E+00 0.00000E+00
 -1       538 4.60350E+01 6.60425E+00 0.00000E+00
 -1       539 4.90350E+01 6.60425E+00 0.00000E+00
 -1       540 5.20350E+01 6.60425E+00 0.00000E+00
 -1       541 5.50350E+01 6.60425E+00 0.00000E+00
 -1       542 5.80350E+01 6.60425E+00 0.00000E+00
 -1       543 6.10350E+01 6.60425E+00 0.00000E+00
 -1       544 6.40350E+01 6.60425E+00 0.00000E+00
 -1       545 6.70350E+01 6.60425E+00 0.00000E+00
 -1       546 7.00350E+01 6.60425E+00 0.00000E+00
 -1       547 7.30350E+01 6.60425E+00 0.00000E+00
 -1       548 7.60350E+01 6.60425E+00 0.00000E+00
 -1       549 7.90350E+01 6.60425E+00 0.00000E+00
 -1       550 8.20350E+01 6.60425E+00 0.00000E+00
 -1       551 8.50350E+01 6.60425E+00 0.00000E+00
 -1       552 8.80350E+01 6.60425E+00 0.00000E+00
 -1       553 9.10350E+01 6.60425E+00 0.00000E+00
 -1       554 9.40350E+01 6.60425E+00 0.00000E+00
 -1       555 9.70350E+01 6.60425E+00 0.00000E+00
 -1       556 1.00035E+02 6.60425E+00 0.00000E+00
 -1       557 1.03035E+02 6.60425E+00 0.00000E+00
 -1       558 1.06035E+02 6.60425E+00 0.00000E+00
 -1       559 1.09035E+02 6.60425E+00 0.00000E+00
 -1       560 1.12035E+02 6.60425E+00 0.00000E+00
 -1       561 1.15035E+02 6.60425E+00 0.00000E+00
 -1       562 1.18035E+02 6.60425E+00 0.00000E+00
 -1       563 1.21035E+02 6.60425E+00 0.00000E+00
 -1       564 1.24035E+02 6.60425E+00 0.00000E+00
 -1       565 1.27035E+02 6.60425E+00 0.00000E+00
 -1       566 1.30035E+02 6.60425E+00 0.00000E+00
 -1       567 1.33035E+02 6.60425E+00 0.00000E+00
 -1       568 1.36035E+02 6.60425E+00 0.00000E+00
 -1       569 1.39035E+02 6.60425E+00 0.00000E+00
 -1       570 1.42035E+02 6.60425E+00 0.00000E+00
 -1       571 1.42206E+02 1.61750E+01 0.00000E+00
 -1       572 1.42206E+02 1.91250E+01 0.00000E+00
 -1       573 1.42206E+02 1.03250E+01 0.00000E+00
 -1       574 1.42206E+02 1.32500E+01 0.00000E+00
 -1       575 1.42206E+02 2.20750E+01 0.00000E+00
 -1       576 1.42206E+02 2.50250E+01 0.00000E+00
 -1       577 1.42206E+02 2.79750E+01 0.00000E+00
 -1       578 1.42206E+02 3.08750E+01 0.00000E+00
 -1       579 1.42206E+02 3.38250E+01 0.00000E+00
 -1       580 1.42206E+02 3.67750E+01 0.00000E+00
 -1       581 1.42206E+02 3.97250E+01 0.00000E+00
 -1       582 1.25811E+02 2.64714E+01 0.00000E+00
 -1       583 1.24826E+02 2.14726E+01 0.00000E+00
 -1       584 1.60350E+01 6.60425E+00 0.00000E+00
 -1       585 1.25671E+02 2.86952E+01 0.00000E+00
 -1       586 1.23180E+02 1.96781E+01 0.00000E+00
 -1       587 1.24079E+02 3.32547E+01 0.00000E+00
 -1       588 1.21109E+02 3.62468E+01 0.00000E+00
 -1       589 1.03452E+02 2.93103E+01 0.00000E+00
 -1       590 1.17087E+02 1.65268E+01 0.00000E+00
 -1       591 7.79400E+00 2.79000E+01 0.00000E+00
 -1       592 1.14820E+02 1.60538E+01 0.00000E+00
 -1       593 1.07910E+02 1.85000E+01 0.00000E+00
 -1       594 1.12118E+02 1.60444E+01 0.00000E+00
 -1       595 1.06567E+02 3.53614E+01 0.00000E+00
 -1       596 1.09842E+02 1.71027E+01 0.00000E+00
 -1       597 1.06512E+02 1.96912E+01 0.00000E+00
 -1       598 1.03931E+02 2.43649E+01 0.00000E+00
 -1       599 1.03306E+02 2.63786E+01 0.00000E+00
 -1       600 1.04361E+02 3.14647E+01 0.00000E+00
 -1       601 1.05219E+02 3.34573E+01 0.00000E+00
 -1       602 1.08544E+02 3.67479E+01 0.00000E+00
 -1       603 1.10423E+02 3.75350E+01 0.00000E+00
 -1       604 1.12432E+02 3.86604E+01 0.00000E+00
 -1       605 1.15118E+02 3.86718E+01 0.00000E+00
 -1       606 1.17119E+02 3.86171E+01 0.00000E+00
 -1       607 1.19512E+02 3.74556E+01 0.00000E+00
 -1       608 1.22611E+02 3.47577E+01 0.00000E+00
 -1       609 1.19368E+02 1.73542E+01 0.00000E+00
 -1       610 1.25170E+02 3.08698E+01 0.00000E+00
 -1       611 7.92300E+00 4.16780E+01 0.00000E+00
 -1       612 7.61550E+00 6.21462E+00 0.00000E+00
 -1       613 1.25367E+02 2.41702E+01 0.00000E+00
 -1       614 7.79400E+00 3.67375E+01 0.00000E+00
 -1       615 7.85850E+00 3.92077E+01 0.00000E+00
 -1       616 1.02187E+02 2.80245E+01 0.00000E+00
 -1       617 1.04935E+02 2.02036E+01 0.00000E+00
 -1       618 1.03501E+02 2.26877E+01 0.00000E+00
 -1       619 1.41678E+02 4.22645E+01 0.00000E+00
 -1       620 1.03920E+01 2.05500E+01 0.00000E+00
 -1       621 1.03920E+01 2.35000E+01 0.00000E+00
 -1       622 1.03920E+01 1.46750E+01 0.00000E+00
 -1       623 1.03920E+01 1.17250E+01 0.00000E+00
 -1       624 1.15350E+01 9.20225E+00 0.00000E+00
 -1       625 1.26184E+02 3.27752E+01 0.00000E+00
 -1       626 1.18813E+02 1.53283E+01 0.00000E+00
 -1       627 1.51500E+01 3.96080E+01 0.00000E+00
 -1       628 1.81500E+01 3.96080E+01 0.00000E+00
 -1       629 2.11500E+01 3.96080E+01 0.00000E+00
 -1       630 2.41500E+01 3.96080E+01 0.00000E+00
 -1       631 2.71500E+01 3.96080E+01 0.00000E+00
 -1       632 3.01500E+01 3.96080E+01 0.00000E+00
 -1       633 3.31500E+01 3.96080E+01 0.00000E+00
 -1       634 3.61500E+01 3.96080E+01 0.00000E+00
 -1       635 3.91500E+01 3.96080E+01 0.00000E+00
 -1       636 4.21500E+01 3.96080E+01 0.00000E+00
 -1       637 4.51500E+01 3.96080E+01 0.00000E+00
 -1       638 4.81500E+01 3.96080E+01 0.00000E+00
 -1       639 5.11500E+01 3.96080E+01 0.00000E+00
 -1       640 5.41500E+01 3.96080E+01 0.00000E+00
 -1       641 5.71500E+01 3.96080E+01 0.00000E+00
 -1       642 6.01500E+01 3.96080E+01 0.00000E+00
 -1       643 6.31500E+01 3.96080E+01 0.00000E+00
 -1       644 6.61500E+01 3.96080E+01 0.00000E+00
 -1       645 6.91500E+01 3.96080E+01 0.00000E+00
 -1       646 7.21500E+01 3.96080E+01 0.00000E+00
 -1       647 7.51500E+01 3.96080E+01 0.00000E+00
 -1       648 7.81500E+01 3.96080E+01 0.00000E+00
 -1       649 8.11500E+01 3.96080E+01 0.00000E+00
 -1       650 8.41500E+01 3.96080E+01 0.00000E+00
 -1       651 8.71500E+01 3.96080E+01 0.00000E+00
 -1       652 9.01500E+01 3.96080E+01 0.00000E+00
 -1       653 9.31500E+01 3.96080E+01 0.00000E+00
 -1       654 9.61500E+01 3.96080E+01 0.00000E+00
 -1       655 9.91500E+01 3.96080E+01 0.00000E+00
 -1       656 1.02150E+02 3.96080E+01 0.00000E+00
 -1       657 1.05150E+02 3.96080E+01 0.00000E+00
 -1       658 1.11150E+02 4.01558E+01 0.00000E+00
 -1       659 1.20150E+02 3.96530E+01 0.00000E+00
 -1       660 1.23150E+02 3.96530E+01 0.00000E+00
 -1       661 1.26150E+02 3.96530E+01 0.00000E+00
 -1       662 1.29150E+02 3.96530E+01 0.00000E+00
 -1       663 1.32150E+02 3.96530E+01 0.00000E+00
 -1       664 1.35150E+02 3.96530E+01 0.00000E+00
 -1       665 1.38150E+02 3.96530E+01 0.00000E+00
 -1       666 2.35350E+01 9.20225E+00 0.00000E+00
 -1       667 1.08853E+02 3.86461E+01 0.00000E+00
 -1       668 2.05350E+01 9.20225E+00 0.00000E+00
 -1       669 2.95350E+01 9.20225E+00 0.00000E+00
 -1       670 3.25350E+01 9.20225E+00 0.00000E+00
 -1       671 3.55350E+01 9.20225E+00 0.00000E+00
 -1       672 3.85350E+01 9.20225E+00 0.00000E+00
 -1       673 4.15350E+01 9.20225E+00 0.00000E+00
 -1       674 4.45350E+01 9.20225E+00 0.00000E+00
 -1       675 4.75350E+01 9.20225E+00 0.00000E+00
 -1       676 5.05350E+01 9.20225E+00 0.00000E+00
 -1       677 5.35350E+01 9.20225E+00 0.00000E+00
 -1       678 5.65350E+01 9.20225E+00 0.00000E+00
 -1       679 5.95350E+01 9.20225E+00 0.00000E+00
 -1       680 6.25350E+01 9.20225E+00 0.00000E+00
 -1       681 6.55350E+01 9.20225E+00 0.00000E+00
 -1       682 6.85350E+01 9.20225E+00 0.00000E+00
 -1       683 7.15350E+01 9.20225E+00 0.00000E+00
 -1       684 7.45350E+01 9.20225E+00 0.00000E+00
 -1       685 7.75350E+01 9.20225E+00 0.00000E+00
 -1       686 8.05350E+01 9.20225E+00 0.00000E+00
 -1       687 8.35350E+01 9.20225E+00 0.00000E+00
 -1       688 8.65350E+01 9.20225E+00 0.00000E+00
 -1       689 8.95350E+01 9.20225E+00 0.00000E+00
 -1       690 9.25350E+01 9.20225E+00 0.00000E+00
 -1       691 9.55350E+01 9.20225E+00 0.00000E+00
 -1       692 9.85350E+01 9.20225E+00 0.00000E+00
 -1       693 1.01535E+02 9.20225E+00 0.00000E+00
 -1       694 1.04535E+02 9.20225E+00 0.00000E+00
 -1       695 1.07535E+02 9.20225E+00 0.00000E+00
 -1       696 1.10535E+02 9.20225E+00 0.00000E+00
 -1       697 1.13535E+02 9.20225E+00 0.00000E+00
 -1       698 1.16535E+02 9.20225E+00 0.00000E+00
 -1       699 1.19535E+02 9.20225E+00 0.00000E+00
 -1       700 1.22535E+02 9.20225E+00 0.00000E+00
 -1       701 1.25535E+02 9.20225E+00 0.00000E+00
 -1       702 1.28535E+02 9.20225E+00 0.00000E+00
 -1       703 1.31535E+02 9.20225E+00 0.00000E+00
 -1       704 1.34535E+02 9.20225E+00 0.00000E+00
 -1       705 1.37535E+02 9.20225E+00 0.00000E+00
 -1       706 1.39870E+02 9.76363E+00 0.00000E+00
 -1       707 1.25637E+02 1.90763E+01 0.00000E+00
 -1       708 1.39608E+02 2.35500E+01 0.00000E+00
 -1       709 1.27191E+02 2.50121E+01 0.00000E+00
 -1       710 1.39608E+02 1.76500E+01 0.00000E+00
 -1       711 1.39608E+02 2.65000E+01 0.00000E+00
 -1       712 1.39608E+02 2.06000E+01 0.00000E+00
 -1       713 1.39608E+02 2.94000E+01 0.00000E+00
 -1       714 1.39608E+02 3.23500E+01 0.00000E+00
 -1       715 1.39608E+02 3.53000E+01 0.00000E+00
 -1       716 1.27620E+02 2.77015E+01 0.00000E+00
 -1       717 1.26928E+02 3.01301E+01 0.00000E+00
 -1       718 1.23265E+02 1.73534E+01 0.00000E+00
 -1       719 1.19028E+02 3.95039E+01 0.00000E+00
 -1       720 1.75350E+01 9.20225E+00 0.00000E+00
 -1       721 2.65350E+01 9.20225E+00 0.00000E+00
 -1       722 1.21500E+01 3.96080E+01 0.00000E+00
 -1       723 1.21351E+02 1.61385E+01 0.00000E+00
 -1       724 1.27271E+02 2.23850E+01 0.00000E+00
 -1       725 1.45350E+01 9.20225E+00 0.00000E+00
 -1       726 1.03920E+01 1.76125E+01 0.00000E+00
 -1       727 1.03920E+01 3.23250E+01 0.00000E+00
 -1       728 1.06570E+02 3.74586E+01 0.00000E+00
 -1       729 1.24572E+02 3.52048E+01 0.00000E+00
 -1       730 1.40178E+02 3.96665E+01 0.00000E+00
 -1       731 1.02404E+02 3.10218E+01 0.00000E+00
 -1       732 1.05990E+02 1.76627E+01 0.00000E+00
 -1       733 1.07922E+02 1.62654E+01 0.00000E+00
 -1       734 1.02060E+02 2.48885E+01 0.00000E+00
 -1       735 1.10186E+02 1.48665E+01 0.00000E+00
 -1       736 1.03061E+02 3.32058E+01 0.00000E+00
 -1       737 1.21447E+02 3.83524E+01 0.00000E+00
 -1       738 1.23070E+02 3.66939E+01 0.00000E+00
 -1       739 1.13475E+02 1.41664E+01 0.00000E+00
 -1       740 1.04220E+02 3.55940E+01 0.00000E+00
 -1       741 1.00042E+01 3.94079E+01 0.00000E+00
 -1       742 1.16304E+02 1.46113E+01 0.00000E+00
 -1       743 1.03920E+01 3.52625E+01 0.00000E+00
 -1       744 1.03920E+01 2.64500E+01 0.00000E+00
 -1       745 1.17577E+02 4.01085E+01 0.00000E+00
 -1       746 1.39870E+02 1.26886E+01 0.00000E+00
 -1       747 1.04413E+02 1.81751E+01 0.00000E+00
 -1       748 1.28082E+02 1.99887E+01 0.00000E+00
 -1       749 1.01139E+02 2.97361E+01 0.00000E+00
 -1       750 1.03204E+02 2.07107E+01 0.00000E+00
 -1       751 1.01631E+02 2.32114E+01 0.00000E+00
 -1       752 1.00941E+02 2.65345E+01 0.00000E+00
 -1       753 1.39739E+02 1.51693E+01 0.00000E+00
 -1       754 1.03920E+01 2.93875E+01 0.00000E+00
 -1       755 1.38879E+02 3.74765E+01 0.00000E+00
 -1       756 1.11543E+02 1.29885E+01 0.00000E+00
 -1       757 1.29900E+01 1.32000E+01 0.00000E+00
 -1       758 1.01981E+01 3.73352E+01 0.00000E+00
 -1       759 1.25383E+02 3.75242E+01 0.00000E+00
 -1       760 1.15234E+02 1.21980E+01 0.00000E+00
 -1       761 1.96500E+01 3.70100E+01 0.00000E+00
 -1       762 2.26500E+01 3.70100E+01 0.00000E+00
 -1       763 2.56500E+01 3.70100E+01 0.00000E+00
 -1       764 2.86500E+01 3.70100E+01 0.00000E+00
 -1       765 3.16500E+01 3.70100E+01 0.00000E+00
 -1       766 3.46500E+01 3.70100E+01 0.00000E+00
 -1       767 3.76500E+01 3.70100E+01 0.00000E+00
 -1       768 4.06500E+01 3.70100E+01 0.00000E+00
 -1       769 4.36500E+01 3.70100E+01 0.00000E+00
 -1       770 4.66500E+01 3.70100E+01 0.00000E+00
 -1       771 4.96500E+01 3.70100E+01 0.00000E+00
 -1       772 5.26500E+01 3.70100E+01 0.00000E+00
 -1       773 5.56500E+01 3.70100E+01 0.00000E+00
 -1       774 5.86500E+01 3.70100E+01 0.00000E+00
 -1       775 6.16500E+01 3.70100E+01 0.00000E+00
 -1       776 6.46500E+01 3.70100E+01 0.00000E+00
 -1       777 6.76500E+01 3.70100E+01 0.00000E+00
 -1       778 7.06500E+01 3.70100E+01 0.00000E+00
 -1       779 7.36500E+01 3.70100E+01 0.00000E+00
 -1       780 7.66500E+01 3.70100E+01 0.00000E+00
 -1       781 7.96500E+01 3.70100E+01 0.00000E+00
 -1       782 8.26500E+01 3.70100E+01 0.00000E+00
 -1       783 8.56500E+01 3.70100E+01 0.00000E+00
 -1       784 8.86500E+01 3.70100E+01 0.00000E+00
 -1       785 9.16500E+01 3.70100E+01 0.00000E+00
 -1       786 9.46500E+01 3.70100E+01 0.00000E+00
 -1       787 9.76500E+01 3.70100E+01 0.00000E+00
 -1       788 1.00650E+02 3.70100E+01 0.00000E+00
 -1       789 1.00769E+02 3.27050E+01 0.00000E+00
 -1       790 1.36500E+01 3.70100E+01 0.00000E+00
 -1       791 1.28383E+02 3.75242E+01 0.00000E+00
 -1       792 1.31383E+02 3.75242E+01 0.00000E+00
 -1       793 1.34383E+02 3.75242E+01 0.00000E+00
 -1       794 1.36631E+02 3.75004E+01 0.00000E+00
 -1       795 3.40350E+01 1.18003E+01 0.00000E+00
 -1       796 3.10350E+01 1.18003E+01 0.00000E+00
 -1       797 4.00350E+01 1.18003E+01 0.00000E+00
 -1       798 4.30350E+01 1.18003E+01 0.00000E+00
 -1       799 4.60350E+01 1.18003E+01 0.00000E+00
 -1       800 4.90350E+01 1.18003E+01 0.00000E+00
 -1       801 5.20350E+01 1.18003E+01 0.00000E+00
 -1       802 5.50350E+01 1.18003E+01 0.00000E+00
 -1       803 5.80350E+01 1.18003E+01 0.00000E+00
 -1       804 6.10350E+01 1.18003E+01 0.00000E+00
 -1       805 6.40350E+01 1.18003E+01 0.00000E+00
 -1       806 6.70350E+01 1.18003E+01 0.00000E+00
 -1       807 7.00350E+01 1.18003E+01 0.00000E+00
 -1       808 7.30350E+01 1.18003E+01 0.00000E+00
 -1       809 7.60350E+01 1.18003E+01 0.00000E+00
 -1       810 7.90350E+01 1.18003E+01 0.00000E+00
 -1       811 8.20350E+01 1.18003E+01 0.00000E+00
 -1       812 8.50350E+01 1.18003E+01 0.00000E+00
 -1       813 8.80350E+01 1.18003E+01 0.00000E+00
 -1       814 9.10350E+01 1.18003E+01 0.00000E+00
 -1       815 9.40350E+01 1.18003E+01 0.00000E+00
 -1       816 9.70350E+01 1.18003E+01 0.00000E+00
 -1       817 1.00035E+02 1.18003E+01 0.00000E+00
 -1       818 1.03035E+02 1.18003E+01 0.00000E+00
 -1       819 1.06035E+02 1.18003E+01 0.00000E+00
 -1       820 1.21035E+02 1.18003E+01 0.00000E+00
 -1       821 1.24035E+02 1.18003E+01 0.00000E+00
 -1       822 1.27035E+02 1.18003E+01 0.00000E+00
 -1       823 1.30035E+02 1.18003E+01 0.00000E+00
 -1       824 1.33035E+02 1.18003E+01 0.00000E+00
 -1       825 1.36035E+02 1.18003E+01 0.00000E+00
 -1       826 1.37953E+02 1.22444E+01 0.00000E+00
 -1       827 1.05656E+02 1.51669E+01 0.00000E+00
 -1       828 1.37010E+02 2.79500E+01 0.00000E+00
 -1       829 1.20654E+02 1.39398E+01 0.00000E+00
 -1       830 1.37010E+02 2.50000E+01 0.00000E+00
 -1       831 1.29264E+02 2.60603E+01 0.00000E+00
 -1       832 1.28923E+02 2.93855E+01 0.00000E+00
 -1       833 1.90350E+01 1.18003E+01 0.00000E+00
 -1       834 1.37010E+02 3.09000E+01 0.00000E+00
 -1       835 1.37010E+02 3.38500E+01 0.00000E+00
 -1       836 1.28530E+02 3.20076E+01 0.00000E+00
 -1       837 3.70350E+01 1.18003E+01 0.00000E+00
 -1       838 2.20350E+01 1.18003E+01 0.00000E+00
 -1       839 1.26995E+02 3.50946E+01 0.00000E+00
 -1       840 1.66500E+01 3.70100E+01 0.00000E+00
 -1       841 1.23497E+02 1.48734E+01 0.00000E+00
 -1       842 1.29345E+02 2.34332E+01 0.00000E+00
 -1       843 1.07920E+02 1.37681E+01 0.00000E+00
 -1       844 1.18121E+02 1.29985E+01 0.00000E+00
 -1       845 1.37625E+01 1.12011E+01 0.00000E+00
 -1       846 1.25869E+02 1.65963E+01 0.00000E+00
 -1       847 1.29900E+01 2.20250E+01 0.00000E+00
 -1       848 1.01495E+02 3.54413E+01 0.00000E+00
 -1       849 1.03185E+02 3.76010E+01 0.00000E+00
 -1       850 1.29900E+01 2.49750E+01 0.00000E+00
 -1       851 1.29900E+01 1.61375E+01 0.00000E+00
 -1       852 1.36820E+02 3.56752E+01 0.00000E+00
 -1       853 2.50350E+01 1.18003E+01 0.00000E+00
 -1       854 2.80350E+01 1.18003E+01 0.00000E+00
 -1       855 1.08860E+02 1.20344E+01 0.00000E+00
 -1       856 1.04079E+02 1.56794E+01 0.00000E+00
 -1       857 1.37010E+02 1.91250E+01 0.00000E+00
 -1       858 1.30568E+02 2.77443E+01 0.00000E+00
 -1       859 1.37010E+02 2.20625E+01 0.00000E+00
 -1       860 1.02682E+02 1.86821E+01 0.00000E+00
 -1       861 1.28314E+02 1.75087E+01 0.00000E+00
 -1       862 1.30156E+02 2.10369E+01 0.00000E+00
 -1       863 9.95045E+01 3.14193E+01 0.00000E+00
 -1       864 1.37141E+02 1.66443E+01 0.00000E+00
 -1       865 1.01334E+02 2.12343E+01 0.00000E+00
 -1       866 9.98929E+01 2.82460E+01 0.00000E+00
 -1       867 1.29900E+01 1.90812E+01 0.00000E+00
 -1       868 1.63988E+01 1.15007E+01 0.00000E+00
 -1       869 9.96668E+01 2.44644E+01 0.00000E+00
 -1       870 1.29900E+01 3.08563E+01 0.00000E+00
 -1       871 1.29900E+01 3.37938E+01 0.00000E+00
 -1       872 1.81500E+01 3.44120E+01 0.00000E+00
 -1       873 9.93694E+01 2.24874E+01 0.00000E+00
 -1       874 1.29598E+02 3.44639E+01 0.00000E+00
 -1       875 1.26209E+02 1.36328E+01 0.00000E+00
 -1       876 2.41500E+01 3.44120E+01 0.00000E+00
 -1       877 2.71500E+01 3.44120E+01 0.00000E+00
 -1       878 3.01500E+01 3.44120E+01 0.00000E+00
 -1       879 3.31500E+01 3.44120E+01 0.00000E+00
 -1       880 3.61500E+01 3.44120E+01 0.00000E+00
 -1       881 3.91500E+01 3.44120E+01 0.00000E+00
 -1       882 4.21500E+01 3.44120E+01 0.00000E+00
 -1       883 4.51500E+01 3.44120E+01 0.00000E+00
 -1       884 4.81500E+01 3.44120E+01 0.00000E+00
 -1       885 5.11500E+01 3.44120E+01 0.00000E+00
 -1       886 5.41500E+01 3.44120E+01 0.00000E+00
 -1       887 5.71500E+01 3.44120E+01 0.00000E+00
 -1       888 6.01500E+01 3.44120E+01 0.00000E+00
 -1       889 6.31500E+01 3.44120E+01 0.00000E+00
 -1       890 6.61500E+01 3.44120E+01 0.00000E+00
 -1       891 6.91500E+01 3.44120E+01 0.00000E+00
 -1       892 7.21500E+01 3.44120E+01 0.00000E+00
 -1       893 7.51500E+01 3.44120E+01 0.00000E+00
 -1       894 7.81500E+01 3.44120E+01 0.00000E+00
 -1       895 8.11500E+01 3.44120E+01 0.00000E+00
 -1       896 8.41500E+01 3.44120E+01 0.00000E+00
 -1       897 8.71500E+01 3.44120E+01 0.00000E+00
 -1       898 9.01500E+01 3.44120E+01 0.00000E+00
 -1       899 9.31500E+01 3.44120E+01 0.00000E+00
 -1       900 9.61500E+01 3.44120E+01 0.00000E+00
 -1       901 2.05350E+01 1.43982E+01 0.00000E+00
 -1       902 1.32598E+02 3.44639E+01 0.00000E+00
 -1       903 3.25350E+01 1.43982E+01 0.00000E+00
 -1       904 4.45350E+01 1.43982E+01 0.00000E+00
 -1       905 4.15350E+01 1.43982E+01 0.00000E+00
 -1       906 5.05350E+01 1.43982E+01 0.00000E+00
 -1       907 5.35350E+01 1.43982E+01 0.00000E+00
 -1       908 5.65350E+01 1.43982E+01 0.00000E+00
 -1       909 5.95350E+01 1.43982E+01 0.00000E+00
 -1       910 6.25350E+01 1.43982E+01 0.00000E+00
 -1       911 6.55350E+01 1.43982E+01 0.00000E+00
 -1       912 6.85350E+01 1.43982E+01 0.00000E+00
 -1       913 7.15350E+01 1.43982E+01 0.00000E+00
 -1       914 7.45350E+01 1.43982E+01 0.00000E+00
 -1       915 7.75350E+01 1.43982E+01 0.00000E+00
 -1       916 8.05350E+01 1.43982E+01 0.00000E+00
 -1       917 8.35350E+01 1.43982E+01 0.00000E+00
 -1       918 8.65350E+01 1.43982E+01 0.00000E+00
 -1       919 8.95350E+01 1.43982E+01 0.00000E+00
 -1       920 9.25350E+01 1.43982E+01 0.00000E+00
 -1       921 9.55350E+01 1.43982E+01 0.00000E+00
 -1       922 9.85350E+01 1.43982E+01 0.00000E+00
 -1       923 1.01535E+02 1.43982E+01 0.00000E+00
 -1       924 1.31535E+02 1.43982E+01 0.00000E+00
 -1       925 1.34535E+02 1.43982E+01 0.00000E+00
 -1       926 1.34412E+02 3.23750E+01 0.00000E+00
 -1       927 9.99246E+01 3.42737E+01 0.00000E+00
 -1       928 1.30589E+02 3.09759E+01 0.00000E+00
 -1       929 1.34412E+02 2.64750E+01 0.00000E+00
 -1       930 1.29900E+01 2.79188E+01 0.00000E+00
 -1       931 1.31521E+02 2.48144E+01 0.00000E+00
 -1       932 9.86186E+01 2.61760E+01 0.00000E+00
 -1       933 1.37547E+02 1.44444E+01 0.00000E+00
 -1       934 4.75350E+01 1.43982E+01 0.00000E+00
 -1       935 1.55700E+01 3.41029E+01 0.00000E+00
 -1       936 1.34412E+02 2.94250E+01 0.00000E+00
 -1       937 2.11500E+01 3.44120E+01 0.00000E+00
 -1       938 1.55880E+01 1.46687E+01 0.00000E+00
 -1       939 1.55880E+01 2.35000E+01 0.00000E+00
 -1       940 1.31593E+02 3.27199E+01 0.00000E+00
 -1       941 2.35350E+01 1.43982E+01 0.00000E+00
 -1       942 2.95350E+01 1.43982E+01 0.00000E+00
 -1       943 3.55350E+01 1.43982E+01 0.00000E+00
 -1       944 3.85350E+01 1.43982E+01 0.00000E+00
 -1       945 1.22863E+02 1.32293E+01 0.00000E+00
 -1       946 1.00811E+02 1.92058E+01 0.00000E+00
 -1       947 1.34412E+02 2.35375E+01 0.00000E+00
 -1       948 1.27952E+02 1.41983E+01 0.00000E+00
 -1       949 1.75351E+01 1.43983E+01 0.00000E+00
 -1       950 1.30387E+02 1.85569E+01 0.00000E+00
 -1       951 1.34481E+02 1.77474E+01 0.00000E+00
 -1       952 9.82586E+01 2.99292E+01 0.00000E+00
 -1       953 1.55880E+01 2.93875E+01 0.00000E+00
 -1       954 1.34447E+02 2.06424E+01 0.00000E+00
 -1       955 9.71085E+01 2.40743E+01 0.00000E+00
 -1       956 1.59934E+01 1.30847E+01 0.00000E+00
 -1       957 1.55880E+01 2.05562E+01 0.00000E+00
 -1       958 1.55790E+01 3.17452E+01 0.00000E+00
 -1       959 9.88472E+01 2.04588E+01 0.00000E+00
 -1       960 1.96500E+01 3.18140E+01 0.00000E+00
 -1       961 2.86500E+01 3.18140E+01 0.00000E+00
 -1       962 3.16500E+01 3.18140E+01 0.00000E+00
 -1       963 3.46500E+01 3.18140E+01 0.00000E+00
 -1       964 3.76500E+01 3.18140E+01 0.00000E+00
 -1       965 4.06500E+01 3.18140E+01 0.00000E+00
 -1       966 4.36500E+01 3.18140E+01 0.00000E+00
 -1       967 4.66500E+01 3.18140E+01 0.00000E+00
 -1       968 4.96500E+01 3.18140E+01 0.00000E+00
 -1       969 5.26500E+01 3.18140E+01 0.00000E+00
 -1       970 5.56500E+01 3.18140E+01 0.00000E+00
 -1       971 5.86500E+01 3.18140E+01 0.00000E+00
 -1       972 6.16500E+01 3.18140E+01 0.00000E+00
 -1       973 6.46500E+01 3.18140E+01 0.00000E+00
 -1       974 6.76500E+01 3.18140E+01 0.00000E+00
 -1       975 7.06500E+01 3.18140E+01 0.00000E+00
 -1       976 7.36500E+01 3.18140E+01 0.00000E+00
 -1       977 7.66500E+01 3.18140E+01 0.00000E+00
 -1       978 7.96500E+01 3.18140E+01 0.00000E+00
 -1       979 8.26500E+01 3.18140E+01 0.00000E+00
 -1       980 8.56500E+01 3.18140E+01 0.00000E+00
 -1       981 8.86500E+01 3.18140E+01 0.00000E+00
 -1       982 9.16500E+01 3.18140E+01 0.00000E+00
 -1       983 9.46500E+01 3.18140E+01 0.00000E+00
 -1       984 5.50350E+01 1.69963E+01 0.00000E+00
 -1       985 5.20350E+01 1.69963E+01 0.00000E+00
 -1       986 6.10350E+01 1.69963E+01 0.00000E+00
 -1       987 6.40350E+01 1.69963E+01 0.00000E+00
 -1       988 6.70350E+01 1.69963E+01 0.00000E+00
 -1       989 7.00350E+01 1.69963E+01 0.00000E+00
 -1       990 7.30350E+01 1.69963E+01 0.00000E+00
 -1       991 7.60350E+01 1.69963E+01 0.00000E+00
 -1       992 7.90350E+01 1.69963E+01 0.00000E+00
 -1       993 8.20350E+01 1.69963E+01 0.00000E+00
 -1       994 8.50350E+01 1.69963E+01 0.00000E+00
 -1       995 8.80350E+01 1.69963E+01 0.00000E+00
 -1       996 9.10350E+01 1.69963E+01 0.00000E+00
 -1       997 9.40350E+01 1.69963E+01 0.00000E+00
 -1       998 9.70350E+01 1.69963E+01 0.00000E+00
 -1       999 1.55880E+01 1.76125E+01 0.00000E+00
 -1      1000 1.33035E+02 1.69963E+01 0.00000E+00
 -1      1001 1.90351E+01 1.69963E+01 0.00000E+00
 -1      1002 9.69843E+01 2.78592E+01 0.00000E+00
 -1      1003 1.55880E+01 2.64438E+01 0.00000E+00
 -1      1004 4.30350E+01 1.69963E+01 0.00000E+00
 -1      1005 2.65350E+01 1.43982E+01 0.00000E+00
 -1      1006 1.32010E+02 2.30002E+01 0.00000E+00
 -1      1007 1.32241E+02 2.05202E+01 0.00000E+00
 -1      1008 5.80350E+01 1.69963E+01 0.00000E+00
 -1      1009 9.54742E+01 2.57575E+01 0.00000E+00
 -1      1010 2.26500E+01 3.18140E+01 0.00000E+00
 -1      1011 2.56500E+01 3.18140E+01 0.00000E+00
 -1      1012 9.65863E+01 2.20458E+01 0.00000E+00
 -1      1013 9.49520E+01 2.37290E+01 0.00000E+00
 -1      1014 3.10350E+01 1.69963E+01 0.00000E+00
 -1      1015 4.00350E+01 1.69963E+01 0.00000E+00
 -1      1016 3.40350E+01 1.69963E+01 0.00000E+00
 -1      1017 4.90350E+01 1.69963E+01 0.00000E+00
 -1      1018 1.76145E+01 3.17796E+01 0.00000E+00
 -1      1019 1.81860E+01 2.79156E+01 0.00000E+00
 -1      1020 1.81860E+01 2.49719E+01 0.00000E+00
 -1      1021 4.60350E+01 1.69963E+01 0.00000E+00
 -1      1022 2.20351E+01 1.69963E+01 0.00000E+00
 -1      1023 1.81860E+01 2.20281E+01 0.00000E+00
 -1      1024 3.70350E+01 1.69963E+01 0.00000E+00
 -1      1025 3.31500E+01 2.92160E+01 0.00000E+00
 -1      1026 3.61500E+01 2.92160E+01 0.00000E+00
 -1      1027 3.91500E+01 2.92160E+01 0.00000E+00
 -1      1028 4.21500E+01 2.92160E+01 0.00000E+00
 -1      1029 4.51500E+01 2.92160E+01 0.00000E+00
 -1      1030 4.81500E+01 2.92160E+01 0.00000E+00
 -1      1031 5.11500E+01 2.92160E+01 0.00000E+00
 -1      1032 5.41500E+01 2.92160E+01 0.00000E+00
 -1      1033 5.71500E+01 2.92160E+01 0.00000E+00
 -1      1034 6.01500E+01 2.92160E+01 0.00000E+00
 -1      1035 6.31500E+01 2.92160E+01 0.00000E+00
 -1      1036 6.61500E+01 2.92160E+01 0.00000E+00
 -1      1037 6.91500E+01 2.92160E+01 0.00000E+00
 -1      1038 7.21500E+01 2.92160E+01 0.00000E+00
 -1      1039 7.51500E+01 2.92160E+01 0.00000E+00
 -1      1040 7.81500E+01 2.92160E+01 0.00000E+00
 -1      1041 8.11500E+01 2.92160E+01 0.00000E+00
 -1      1042 8.41500E+01 2.92160E+01 0.00000E+00
 -1      1043 8.71500E+01 2.92160E+01 0.00000E+00
 -1      1044 9.01500E+01 2.92160E+01 0.00000E+00
 -1      1045 9.31500E+01 2.92160E+01 0.00000E+00
 -1      1046 5.65350E+01 1.95942E+01 0.00000E+00
 -1      1047 2.50351E+01 1.69963E+01 0.00000E+00
 -1      1048 6.55350E+01 1.95942E+01 0.00000E+00
 -1      1049 6.25350E+01 1.95942E+01 0.00000E+00
 -1      1050 7.15350E+01 1.95942E+01 0.00000E+00
 -1      1051 7.45350E+01 1.95942E+01 0.00000E+00
 -1      1052 7.75350E+01 1.95942E+01 0.00000E+00
 -1      1053 8.05350E+01 1.95942E+01 0.00000E+00
 -1      1054 8.35350E+01 1.95942E+01 0.00000E+00
 -1      1055 8.65350E+01 1.95942E+01 0.00000E+00
 -1      1056 8.95350E+01 1.95942E+01 0.00000E+00
 -1      1057 9.25350E+01 1.95942E+01 0.00000E+00
 -1      1058 2.07840E+01 2.64438E+01 0.00000E+00
 -1      1059 6.85350E+01 1.95942E+01 0.00000E+00
 -1      1060 2.80350E+01 1.69963E+01 0.00000E+00
 -1      1061 5.95350E+01 1.95942E+01 0.00000E+00
 -1      1062 2.11500E+01 2.92160E+01 0.00000E+00
 -1      1063 1.86105E+01 1.95122E+01 0.00000E+00
 -1      1064 5.35350E+01 1.95942E+01 0.00000E+00
 -1      1065 3.01500E+01 2.92160E+01 0.00000E+00
 -1      1066 9.53106E+01 1.95210E+01 0.00000E+00
 -1      1067 5.05350E+01 1.95942E+01 0.00000E+00
 -1      1068 4.45350E+01 1.95942E+01 0.00000E+00
 -1      1069 9.21558E+01 2.60377E+01 0.00000E+00
 -1      1070 4.15350E+01 1.95942E+01 0.00000E+00
 -1      1071 2.07840E+01 2.35000E+01 0.00000E+00
 -1      1072 2.95350E+01 1.95943E+01 0.00000E+00
 -1      1073 2.41500E+01 2.92160E+01 0.00000E+00
 -1      1074 2.71500E+01 2.92160E+01 0.00000E+00
 -1      1075 2.16105E+01 1.95122E+01 0.00000E+00
 -1      1076 9.37435E+01 2.16616E+01 0.00000E+00
 -1      1077 3.25350E+01 1.95943E+01 0.00000E+00
 -1      1078 2.65351E+01 1.95943E+01 0.00000E+00
 -1      1079 4.75350E+01 1.95942E+01 0.00000E+00
 -1      1080 3.46500E+01 2.66180E+01 0.00000E+00
 -1      1081 3.16500E+01 2.66180E+01 0.00000E+00
 -1      1082 3.76500E+01 2.66180E+01 0.00000E+00
 -1      1083 4.06500E+01 2.66180E+01 0.00000E+00
 -1      1084 4.36500E+01 2.66180E+01 0.00000E+00
 -1      1085 4.66500E+01 2.66180E+01 0.00000E+00
 -1      1086 4.96500E+01 2.66180E+01 0.00000E+00
 -1      1087 5.26500E+01 2.66180E+01 0.00000E+00
 -1      1088 5.56500E+01 2.66180E+01 0.00000E+00
 -1      1089 5.86500E+01 2.66180E+01 0.00000E+00
 -1      1090 6.16500E+01 2.66180E+01 0.00000E+00
 -1      1091 6.46500E+01 2.66180E+01 0.00000E+00
 -1      1092 6.76500E+01 2.66180E+01 0.00000E+00
 -1      1093 7.06500E+01 2.66180E+01 0.00000E+00
 -1      1094 7.36500E+01 2.66180E+01 0.00000E+00
 -1      1095 7.66500E+01 2.66180E+01 0.00000E+00
 -1      1096 7.96500E+01 2.66180E+01 0.00000E+00
 -1      1097 8.26500E+01 2.66180E+01 0.00000E+00
 -1      1098 8.56500E+01 2.66180E+01 0.00000E+00
 -1      1099 8.86500E+01 2.66180E+01 0.00000E+00
 -1      1100 6.10350E+01 2.21922E+01 0.00000E+00
 -1      1101 2.40728E+01 1.95532E+01 0.00000E+00
 -1      1102 7.60350E+01 2.21922E+01 0.00000E+00
 -1      1103 7.30350E+01 2.21922E+01 0.00000E+00
 -1      1104 8.20350E+01 2.21922E+01 0.00000E+00
 -1      1105 8.50350E+01 2.21922E+01 0.00000E+00
 -1      1106 8.80350E+01 2.21922E+01 0.00000E+00
 -1      1107 9.10350E+01 2.21922E+01 0.00000E+00
 -1      1108 7.00350E+01 2.21922E+01 0.00000E+00
 -1      1109 2.11973E+01 2.15061E+01 0.00000E+00
 -1      1110 6.70350E+01 2.21922E+01 0.00000E+00
 -1      1111 5.80350E+01 2.21922E+01 0.00000E+00
 -1      1112 5.50350E+01 2.21922E+01 0.00000E+00
 -1      1113 7.90350E+01 2.21922E+01 0.00000E+00
 -1      1114 6.40350E+01 2.21922E+01 0.00000E+00
 -1      1115 2.37840E+01 2.64438E+01 0.00000E+00
 -1      1116 2.86500E+01 2.66180E+01 0.00000E+00
 -1      1117 4.30350E+01 2.21922E+01 0.00000E+00
 -1      1118 3.85350E+01 1.95942E+01 0.00000E+00
 -1      1119 9.18998E+01 2.28799E+01 0.00000E+00
 -1      1120 5.20350E+01 2.21922E+01 0.00000E+00
 -1      1121 3.10350E+01 2.21923E+01 0.00000E+00
 -1      1122 3.55350E+01 1.95943E+01 0.00000E+00
 -1      1123 4.60350E+01 2.21922E+01 0.00000E+00
 -1      1124 2.62170E+01 2.65309E+01 0.00000E+00
 -1      1125 2.80351E+01 2.21923E+01 0.00000E+00
 -1      1126 3.31500E+01 2.40200E+01 0.00000E+00
 -1      1127 3.61500E+01 2.40200E+01 0.00000E+00
 -1      1128 3.91500E+01 2.40200E+01 0.00000E+00
 -1      1129 5.11500E+01 2.40200E+01 0.00000E+00
 -1      1130 2.41036E+01 2.31175E+01 0.00000E+00
 -1      1131 4.90350E+01 2.21922E+01 0.00000E+00
 -1      1132 4.81500E+01 2.40200E+01 0.00000E+00
 -1      1133 2.98425E+01 2.44051E+01 0.00000E+00
 -1      1134 2.71260E+01 2.43616E+01 0.00000E+00
 -1      1135 0.00000E+00 4.85250E+01 0.00000E+00
 -1      1136 0.00000E+00 4.55750E+01 0.00000E+00
 -1      1137 0.00000E+00 4.26250E+01 0.00000E+00
 -1      1138 0.00000E+00 3.96750E+01 0.00000E+00
 -1      1139 0.00000E+00 3.67250E+01 0.00000E+00
 -1      1140 0.00000E+00 3.38000E+01 0.00000E+00
 -1      1141 0.00000E+00 3.08750E+01 0.00000E+00
 -1      1142 0.00000E+00 2.79250E+01 0.00000E+00
 -1      1143 0.00000E+00 2.49750E+01 0.00000E+00
 -1      1144 0.00000E+00 2.20250E+01 0.00000E+00
 -1      1145 0.00000E+00 1.90750E+01 0.00000E+00
 -1      1146 0.00000E+00 1.61500E+01 0.00000E+00
 -1      1147 0.00000E+00 1.32250E+01 0.00000E+00
 -1      1148 0.00000E+00 1.02750E+01 0.00000E+00
 -1      1149 0.00000E+00 7.32500E+00 0.00000E+00
 -1      1150 0.00000E+00 4.37500E+00 0.00000E+00
 -1      1151 0.00000E+00 1.45000E+00 0.00000E+00
 -1      1152 1.57500E+00 5.00000E+01 0.00000E+00
 -1      1153 4.65000E+00 5.00000E+01 0.00000E+00
 -1      1154 7.65000E+00 5.00000E+01 0.00000E+00
 -1      1155 1.06500E+01 5.00000E+01 0.00000E+00
 -1      1156 1.36500E+01 5.00000E+01 0.00000E+00
 -1      1157 1.66500E+01 5.00000E+01 0.00000E+00
 -1      1158 1.96500E+01 5.00000E+01 0.00000E+00
 -1      1159 2.26500E+01 5.00000E+01 0.00000E+00
 -1      1160 2.56500E+01 5.00000E+01 0.00000E+00
 -1      1161 2.86500E+01 5.00000E+01 0.00000E+00
 -1      1162 3.16500E+01 5.00000E+01 0.00000E+00
 -1      1163 3.46500E+01 5.00000E+01 0.00000E+00
 -1      1164 3.76500E+01 5.00000E+01 0.00000E+00
 -1      1165 4.06500E+01 5.00000E+01 0.00000E+00
 -1      1166 4.36500E+01 5.00000E+01 0.00000E+00
 -1      1167 4.66500E+01 5.00000E+01 0.00000E+00
 -1      1168 4.96500E+01 5.00000E+01 0.00000E+00
 -1      1169 5.26500E+01 5.00000E+01 0.00000E+00
 -1      1170 5.56500E+01 5.00000E+01 0.00000E+00
 -1      1171 5.86500E+01 5.00000E+01 0.00000E+00
 -1      1172 6.16500E+01 5.00000E+01 0.00000E+00
 -1      1173 6.46500E+01 5.00000E+01 0.00000E+00
 -1      1174 6.76500E+01 5.00000E+01 0.00000E+00
 -1      1175 7.06500E+01 5.00000E+01 0.00000E+00
 -1      1176 7.36500E+01 5.00000E+01 0.00000E+00
 -1      1177 7.66500E+01 5.00000E+01 0.00000E+00
 -1      1178 7.96500E+01 5.00000E+01 0.00000E+00
 -1      1179 8.26500E+01 5.00000E+01 0.00000E+00
 -1      1180 8.56500E+01 5.00000E+01 0.00000E+00
 -1      1181 8.86500E+01 5.00000E+01 0.00000E+00
 -1      1182 9.16500E+01 5.00000E+01 0.00000E+00
 -1      1183 9.46500E+01 5.00000E+01 0.00000E+00
 -1      1184 9.76500E+01 5.00000E+01 0.00000E+00
 -1      1185 1.00650E+02 5.00000E+01 0.00000E+00
 -1      1186 1.03650E+02 5.00000E+01 0.00000E+00
 -1      1187 1.06650E+02 5.00000E+01 0.00000E+00
 -1      1188 1.09650E+02 5.00000E+01 0.00000E+00
 -1      1189 1.12650E+02 5.00000E+01 0.00000E+00
 -1      1190 1.15650E+02 5.00000E+01 0.00000E+00
 -1      1191 1.18650E+02 5.00000E+01 0.00000E+00
 -1      1192 1.21650E+02 5.00000E+01 0.00000E+00
 -1      1193 1.24650E+02 5.00000E+01 0.00000E+00
 -1      1194 1.27650E+02 5.00000E+01 0.00000E+00
 -1      1195 1.30650E+02 5.00000E+01 0.00000E+00
 -1      1196 1.33650E+02 5.00000E+01 0.00000E+00
 -1      1197 1.36650E+02 5.00000E+01 0.00000E+00
 -1      1198 1.39650E+02 5.00000E+01 0.00000E+00
 -1      1199 1.42650E+02 5.00000E+01 0.00000E+00
 -1      1200 1.45650E+02 5.00000E+01 0.00000E+00
 -1      1201 1.48575E+02 5.00000E+01 0.00000E+00
 -1      1202 1.57500E+00 0.00000E+00 0.00000E+00
 -1      1203 4.65000E+00 0.00000E+00 0.00000E+00
 -1      1204 7.65000E+00 0.00000E+00 0.00000E+00
 -1      1205 1.06500E+01 0.00000E+00 0.00000E+00
 -1      1206 1.36500E+01 0.00000E+00 0.00000E+00
 -1      1207 1.66500E+01 0.00000E+00 0.00000E+00
 -1      1208 1.96500E+01 0.00000E+00 0.00000E+00
 -1      1209 2.26500E+01 0.00000E+00 0.00000E+00
 -1      1210 2.56500E+01 0.00000E+00 0.00000E+00
 -1      1211 2.86500E+01 0.00000E+00 0.00000E+00
 -1      1212 3.16500E+01 0.00000E+00 0.00000E+00
 -1      1213 3.46500E+01 0.00000E+00 0.00000E+00
 -1      1214 3.76500E+01 0.00000E+00 0.00000E+00
 -1      1215 4.06500E+01 0.00000E+00 0.00000E+00
 -1      1216 4.36500E+01 0.00000E+00 0.00000E+00
 -1      1217 4.66500E+01 0.00000E+00 0.00000E+00
 -1      1218 4.96500E+01 0.00000E+00 0.00000E+00
 -1      1219 5.26500E+01 0.00000E+00 0.00000E+00
 -1      1220 5.56500E+01 0.00000E+00 0.00000E+00
 -1      1221 5.86500E+01 0.00000E+00 0.00000E+00
 -1      1222 6.16500E+01 0.00000E+00 0.00000E+00
 -1      1223 6.46500E+01 0.00000E+00 0.00000E+00
 -1      1224 6.76500E+01 0.00000E+00 0.00000E+00
 -1      1225 7.06500E+01 0.00000E+00 0.00000E+00
 -1      1226 7.36500E+01 0.00000E+00 0.00000E+00
 -1      1227 7.66500E+01 0.00000E+00 0.00000E+00
 -1      1228 7.96500E+01 0.00000E+00 0.00000E+00
 -1      1229 8.26500E+01 0.00000E+00 0.00000E+00
 -1      1230 8.56500E+01 0.00000E+00 0.00000E+00
 -1      1231 8.86500E+01 0.00000E+00 0.00000E+00
 -1      1232 9.16500E+01 0.00000E+00 0.00000E+00
 -1      1233 9.46500E+01 0.00000E+00 0.00000E+00
 -1      1234 9.76500E+01 0.00000E+00 0.00000E+00
 -1      1235 1.00650E+02 0.00000E+00 0.00000E+00
 -1      1236 1.03650E+02 0.00000E+00 0.00000E+00
 -1      1237 1.06650E+02 0.00000E+00 0.00000E+00
 -1      1238 1.09650E+02 0.00000E+00 0.00000E+00
 -1      1239 1.12650E+02 0.00000E+00 0.00000E+00
 -1      1240 1.15650E+02 0.00000E+00 0.00000E+00
 -1      1241 1.18650E+02 0.00000E+00 0.00000E+00
 -1      1242 1.21650E+02 0.00000E+00 0.00000E+00
 -1      1243 1.24650E+02 0.00000E+00 0.00000E+00
 -1      1244 1.27650E+02 0.00000E+00 0.00000E+00
 -1      1245 1.30650E+02 0.00000E+00 0.00000E+00
 -1      1246 1.33650E+02 0.00000E+00 0.00000E+00
 -1      1247 1.36650E+02 0.00000E+00 0.00000E+00
 -1      1248 1.39650E+02 0.00000E+00 0.00000E+00
 -1      1249 1.42650E+02 0.00000E+00 0.00000E+00
 -1      1250 1.45650E+02 0.00000E+00 0.00000E+00
 -1      1251 1.48575E+02 0.00000E+00 0.00000E+00
 -1      1252 1.50000E+02 1.47500E+00 0.00000E+00
 -1      1253 1.50000E+02 4.42500E+00 0.00000E+00
 -1      1254 1.50000E+02 7.37500E+00 0.00000E+00
 -1      1255 1.50000E+02 1.03250E+01 0.00000E+00
 -1      1256 1.50000E+02 1.32750E+01 0.00000E+00
 -1      1257 1.50000E+02 1.62000E+01 0.00000E+00
 -1      1258 1.50000E+02 1.91250E+01 0.00000E+00
 -1      1259 1.50000E+02 2.20750E+01 0.00000E+00
 -1      1260 1.50000E+02 2.50250E+01 0.00000E+00
 -1      1261 1.50000E+02 2.79750E+01 0.00000E+00
 -1      1262 1.50000E+02 3.09250E+01 0.00000E+00
 -1      1263 1.50000E+02 3.38500E+01 0.00000E+00
 -1      1264 1.50000E+02 3.67750E+01 0.00000E+00
 -1      1265 1.50000E+02 3.97250E+01 0.00000E+00
 -1      1266 1.50000E+02 4.26750E+01 0.00000E+00
 -1      1267 1.50000E+02 4.56250E+01 0.00000E+00
 -1      1268 1.50000E+02 4.85500E+01 0.00000E+00
 -1      1269 1.21525E+02 2.67672E+01 0.00000E+00
 -1      1270 1.21220E+02 2.53308E+01 0.00000E+00
 -1      1271 1.20619E+02 2.39843E+01 0.00000E+00
 -1      1272 1.19776E+02 2.28227E+01 0.00000E+00
 -1      1273 1.18736E+02 2.18740E+01 0.00000E+00
 -1      1274 1.17495E+02 2.11374E+01 0.00000E+00
 -1      1275 1.16106E+02 2.06659E+01 0.00000E+00
 -1      1276 1.14607E+02 2.04937E+01 0.00000E+00
 -1      1277 1.13122E+02 2.06434E+01 0.00000E+00
 -1      1278 1.11737E+02 2.10892E+01 0.00000E+00
 -1      1279 1.10465E+02 2.18183E+01 0.00000E+00
 -1      1280 1.09378E+02 2.27899E+01 0.00000E+00
 -1      1281 1.08472E+02 2.40435E+01 0.00000E+00
 -1      1282 1.07865E+02 2.54591E+01 0.00000E+00
 -1      1283 1.07586E+02 2.69241E+01 0.00000E+00
 -1      1284 1.07634E+02 2.84939E+01 0.00000E+00
 -1      1285 1.08016E+02 2.99727E+01 0.00000E+00
 -1      1286 1.08659E+02 3.12545E+01 0.00000E+00
 -1      1287 1.09542E+02 3.23719E+01 0.00000E+00
 -1      1288 1.10650E+02 3.32982E+01 0.00000E+00
 -1      1289 1.11922E+02 3.39765E+01 0.00000E+00
 -1      1290 1.13336E+02 3.43852E+01 0.00000E+00
 -1      1291 1.14792E+02 3.44897E+01 0.00000E+00
 -1      1292 1.16191E+02 3.43014E+01 0.00000E+00
 -1      1293 1.17544E+02 3.38266E+01 0.00000E+00
 -1      1294 1.18758E+02 3.30971E+01 0.00000E+00
 -1      1295 1.19793E+02 3.21458E+01 0.00000E+00
 -1      1296 1.20637E+02 3.09724E+01 0.00000E+00
 -1      1297 1.21218E+02 2.96616E+01 0.00000E+00
 -1      1298 1.21522E+02 2.82440E+01 0.00000E+00
 -1      1299 1.57500E+00 4.85250E+01 0.00000E+00
 -1      1300 1.29900E+00 4.48375E+01 0.00000E+00
 -1      1301 1.29900E+00 4.63125E+01 0.00000E+00
 -1      1302 1.29900E+00 4.18875E+01 0.00000E+00
 -1      1303 1.29900E+00 4.33625E+01 0.00000E+00
 -1      1304 2.59800E+00 4.41000E+01 0.00000E+00
 -1      1305 1.29900E+00 3.89375E+01 0.00000E+00
 -1      1306 1.29900E+00 4.04125E+01 0.00000E+00
 -1      1307 2.59800E+00 4.11500E+01 0.00000E+00
 -1      1308 1.29900E+00 3.59875E+01 0.00000E+00
 -1      1309 1.29900E+00 3.74625E+01 0.00000E+00
 -1      1310 2.59800E+00 3.82000E+01 0.00000E+00
 -1      1311 1.29900E+00 3.30875E+01 0.00000E+00
 -1      1312 1.29900E+00 3.45375E+01 0.00000E+00
 -1      1313 2.59800E+00 3.52750E+01 0.00000E+00
 -1      1314 1.29900E+00 3.01375E+01 0.00000E+00
 -1      1315 1.29900E+00 3.16125E+01 0.00000E+00
 -1      1316 2.59800E+00 3.23500E+01 0.00000E+00
 -1      1317 1.29900E+00 2.71875E+01 0.00000E+00
 -1      1318 1.29900E+00 2.86625E+01 0.00000E+00
 -1      1319 2.59800E+00 2.94000E+01 0.00000E+00
 -1      1320 1.29900E+00 2.42375E+01 0.00000E+00
 -1      1321 1.29900E+00 2.57125E+01 0.00000E+00
 -1      1322 2.59800E+00 2.64500E+01 0.00000E+00
 -1      1323 1.29900E+00 2.12875E+01 0.00000E+00
 -1      1324 1.29900E+00 2.27625E+01 0.00000E+00
 -1      1325 2.59800E+00 2.35000E+01 0.00000E+00
 -1      1326 1.29900E+00 1.83375E+01 0.00000E+00
 -1      1327 1.29900E+00 1.98125E+01 0.00000E+00
 -1      1328 2.59800E+00 2.05500E+01 0.00000E+00
 -1      1329 1.29900E+00 1.54375E+01 0.00000E+00
 -1      1330 1.29900E+00 1.68875E+01 0.00000E+00
 -1      1331 2.59800E+00 1.76250E+01 0.00000E+00
 -1      1332 1.29900E+00 1.24875E+01 0.00000E+00
 -1      1333 1.29900E+00 1.39625E+01 0.00000E+00
 -1      1334 2.59800E+00 1.47000E+01 0.00000E+00
 -1      1335 1.29900E+00 9.53750E+00 0.00000E+00
 -1      1336 1.29900E+00 1.10125E+01 0.00000E+00
 -1      1337 2.59800E+00 1.17500E+01 0.00000E+00
 -1      1338 1.29900E+00 6.58750E+00 0.00000E+00
 -1      1339 1.29900E+00 8.06250E+00 0.00000E+00
 -1      1340 2.59800E+00 8.80000E+00 0.00000E+00
 -1      1341 1.29900E+00 3.63750E+00 0.00000E+00
 -1      1342 1.29900E+00 5.11250E+00 0.00000E+00
 -1      1343 2.59800E+00 5.85000E+00 0.00000E+00
 -1      1344 1.43700E+00 1.09375E+00 0.00000E+00
 -1      1345 1.43700E+00 2.54375E+00 0.00000E+00
 -1      1346 2.73600E+00 3.28125E+00 0.00000E+00
 -1      1347 3.01200E+00 1.09375E+00 0.00000E+00
 -1      1348 3.90000E+00 4.87010E+01 0.00000E+00
 -1      1349 5.40000E+00 4.87010E+01 0.00000E+00
 -1      1350 6.90000E+00 4.87010E+01 0.00000E+00
 -1      1351 8.40000E+00 4.87010E+01 0.00000E+00
 -1      1352 6.15000E+00 4.74020E+01 0.00000E+00
 -1      1353 9.90000E+00 4.87010E+01 0.00000E+00
 -1      1354 1.14000E+01 4.87010E+01 0.00000E+00
 -1      1355 9.15000E+00 4.74020E+01 0.00000E+00
 -1      1356 1.29000E+01 4.87010E+01 0.00000E+00
 -1      1357 1.44000E+01 4.87010E+01 0.00000E+00
 -1      1358 1.21500E+01 4.74020E+01 0.00000E+00
 -1      1359 1.59000E+01 4.87010E+01 0.00000E+00
 -1      1360 1.74000E+01 4.87010E+01 0.00000E+00
 -1      1361 1.51500E+01 4.74020E+01 0.00000E+00
 -1      1362 1.89000E+01 4.87010E+01 0.00000E+00
 -1      1363 2.04000E+01 4.87010E+01 0.00000E+00
 -1      1364 1.81500E+01 4.74020E+01 0.00000E+00
 -1      1365 2.19000E+01 4.87010E+01 0.00000E+00
 -1      1366 2.34000E+01 4.87010E+01 0.00000E+00
 -1      1367 2.11500E+01 4.74020E+01 0.00000E+00
 -1      1368 2.49000E+01 4.87010E+01 0.00000E+00
 -1      1369 2.64000E+01 4.87010E+01 0.00000E+00
 -1      1370 2.41500E+01 4.74020E+01 0.00000E+00
 -1      1371 2.79000E+01 4.87010E+01 0.00000E+00
 -1      1372 2.94000E+01 4.87010E+01 0.00000E+00
 -1      1373 2.71500E+01 4.74020E+01 0.00000E+00
 -1      1374 3.09000E+01 4.87010E+01 0.00000E+00
 -1      1375 3.24000E+01 4.87010E+01 0.00000E+00
 -1      1376 3.01500E+01 4.74020E+01 0.00000E+00
 -1      1377 3.39000E+01 4.87010E+01 0.00000E+00
 -1      1378 3.54000E+01 4.87010E+01 0.00000E+00
 -1      1379 3.31500E+01 4.74020E+01 0.00000E+00
 -1      1380 3.69000E+01 4.87010E+01 0.00000E+00
 -1      1381 3.84000E+01 4.87010E+01 0.00000E+00
 -1      1382 3.61500E+01 4.74020E+01 0.00000E+00
 -1      1383 3.99000E+01 4.87010E+01 0.00000E+00
 -1      1384 4.14000E+01 4.87010E+01 0.00000E+00
 -1      1385 3.91500E+01 4.74020E+01 0.00000E+00
 -1      1386 4.29000E+01 4.87010E+01 0.00000E+00
 -1      1387 4.44000E+01 4.87010E+01 0.00000E+00
 -1      1388 4.21500E+01 4.74020E+01 0.00000E+00
 -1      1389 4.59000E+01 4.87010E+01 0.00000E+00
 -1      1390 4.74000E+01 4.87010E+01 0.00000E+00
 -1      1391 4.51500E+01 4.74020E+01 0.00000E+00
 -1      1392 4.89000E+01 4.87010E+01 0.00000E+00
 -1      1393 5.04000E+01 4.87010E+01 0.00000E+00
 -1      1394 4.81500E+01 4.74020E+01 0.00000E+00
 -1      1395 5.19000E+01 4.87010E+01 0.00000E+00
 -1      1396 5.34000E+01 4.87010E+01 0.00000E+00
 -1      1397 5.11500E+01 4.74020E+01 0.00000E+00
 -1      1398 5.49000E+01 4.87010E+01 0.00000E+00
 -1      1399 5.64000E+01 4.87010E+01 0.00000E+00
 -1      1400 5.41500E+01 4.74020E+01 0.00000E+00
 -1      1401 5.79000E+01 4.87010E+01 0.00000E+00
 -1      1402 5.94000E+01 4.87010E+01 0.00000E+00
 -1      1403 5.71500E+01 4.74020E+01 0.00000E+00
 -1      1404 6.09000E+01 4.87010E+01 0.00000E+00
 -1      1405 6.24000E+01 4.87010E+01 0.00000E+00
 -1      1406 6.01500E+01 4.74020E+01 0.00000E+00
 -1      1407 6.39000E+01 4.87010E+01 0.00000E+00
 -1      1408 6.54000E+01 4.87010E+01 0.00000E+00
 -1      1409 6.31500E+01 4.74020E+01 0.00000E+00
 -1      1410 6.69000E+01 4.87010E+01 0.00000E+00
 -1      1411 6.84000E+01 4.87010E+01 0.00000E+00
 -1      1412 6.61500E+01 4.74020E+01 0.00000E+00
 -1      1413 6.99000E+01 4.87010E+01 0.00000E+00
 -1      1414 7.14000E+01 4.87010E+01 0.00000E+00
 -1      1415 6.91500E+01 4.74020E+01 0.00000E+00
 -1      1416 7.29000E+01 4.87010E+01 0.00000E+00
 -1      1417 7.44000E+01 4.87010E+01 0.00000E+00
 -1      1418 7.21500E+01 4.74020E+01 0.00000E+00
 -1      1419 7.59000E+01 4.87010E+01 0.00000E+00
 -1      1420 7.74000E+01 4.87010E+01 0.00000E+00
 -1      1421 7.51500E+01 4.74020E+01 0.00000E+00
 -1      1422 7.89000E+01 4.87010E+01 0.00000E+00
 -1      1423 8.04000E+01 4.87010E+01 0.00000E+00
 -1      1424 7.81500E+01 4.74020E+01 0.00000E+00
 -1      1425 8.19000E+01 4.87010E+01 0.00000E+00
 -1      1426 8.34000E+01 4.87010E+01 0.00000E+00
 -1      1427 8.11500E+01 4.74020E+01 0.00000E+00
 -1      1428 8.49000E+01 4.87010E+01 0.00000E+00
 -1      1429 8.64000E+01 4.87010E+01 0.00000E+00
 -1      1430 8.41500E+01 4.74020E+01 0.00000E+00
 -1      1431 8.79000E+01 4.87010E+01 0.00000E+00
 -1      1432 8.94000E+01 4.87010E+01 0.00000E+00
 -1      1433 8.71500E+01 4.74020E+01 0.00000E+00
 -1      1434 9.09000E+01 4.87010E+01 0.00000E+00
 -1      1435 9.24000E+01 4.87010E+01 0.00000E+00
 -1      1436 9.01500E+01 4.74020E+01 0.00000E+00
 -1      1437 9.39000E+01 4.87010E+01 0.00000E+00
 -1      1438 9.54000E+01 4.87010E+01 0.00000E+00
 -1      1439 9.31500E+01 4.74020E+01 0.00000E+00
 -1      1440 9.69000E+01 4.87010E+01 0.00000E+00
 -1      1441 9.84000E+01 4.87010E+01 0.00000E+00
 -1      1442 9.61500E+01 4.74020E+01 0.00000E+00
 -1      1443 9.99000E+01 4.87010E+01 0.00000E+00
 -1      1444 1.01400E+02 4.87010E+01 0.00000E+00
 -1      1445 9.91500E+01 4.74020E+01 0.00000E+00
 -1      1446 1.02900E+02 4.87010E+01 0.00000E+00
 -1      1447 1.04400E+02 4.87010E+01 0.00000E+00
 -1      1448 1.02150E+02 4.74020E+01 0.00000E+00
 -1      1449 1.05900E+02 4.87010E+01 0.00000E+00
 -1      1450 1.07400E+02 4.87010E+01 0.00000E+00
 -1      1451 1.05150E+02 4.74020E+01 0.00000E+00
 -1      1452 1.08900E+02 4.87010E+01 0.00000E+00
 -1      1453 1.10400E+02 4.87010E+01 0.00000E+00
 -1      1454 1.08150E+02 4.74020E+01 0.00000E+00
 -1      1455 1.11900E+02 4.87010E+01 0.00000E+00
 -1      1456 1.13400E+02 4.87010E+01 0.00000E+00
 -1      1457 1.11150E+02 4.74020E+01 0.00000E+00
 -1      1458 1.14900E+02 4.87010E+01 0.00000E+00
 -1      1459 1.16400E+02 4.87010E+01 0.00000E+00
 -1      1460 1.14150E+02 4.74020E+01 0.00000E+00
 -1      1461 1.17900E+02 4.87010E+01 0.00000E+00
 -1      1462 1.19400E+02 4.87010E+01 0.00000E+00
 -1      1463 1.17150E+02 4.74020E+01 0.00000E+00
 -1      1464 1.20900E+02 4.87010E+01 0.00000E+00
 -1      1465 1.22400E+02 4.87010E+01 0.00000E+00
 -1      1466 1.20150E+02 4.74020E+01 0.00000E+00
 -1      1467 1.23900E+02 4.87010E+01 0.00000E+00
 -1      1468 1.25400E+02 4.87010E+01 0.00000E+00
 -1      1469 1.23150E+02 4.74020E+01 0.00000E+00
 -1      1470 1.26900E+02 4.87010E+01 0.00000E+00
 -1      1471 1.28400E+02 4.87010E+01 0.00000E+00
 -1      1472 1.26150E+02 4.74020E+01 0.00000E+00
 -1      1473 1.29900E+02 4.87010E+01 0.00000E+00
 -1      1474 1.31400E+02 4.87010E+01 0.00000E+00
 -1      1475 1.29150E+02 4.74020E+01 0.00000E+00
 -1      1476 1.32900E+02 4.87010E+01 0.00000E+00
 -1      1477 1.34400E+02 4.87010E+01 0.00000E+00
 -1      1478 1.32150E+02 4.74020E+01 0.00000E+00
 -1      1479 1.35900E+02 4.87010E+01 0.00000E+00
 -1      1480 1.37400E+02 4.87010E+01 0.00000E+00
 -1      1481 1.35150E+02 4.74020E+01 0.00000E+00
 -1      1482 1.38900E+02 4.87010E+01 0.00000E+00
 -1      1483 1.40400E+02 4.87010E+01 0.00000E+00
 -1      1484 1.38150E+02 4.74020E+01 0.00000E+00
 -1      1485 1.41900E+02 4.87010E+01 0.00000E+00
 -1      1486 1.43400E+02 4.87010E+01 0.00000E+00
 -1      1487 1.41150E+02 4.74020E+01 0.00000E+00
 -1      1488 1.44900E+02 4.87010E+01 0.00000E+00
 -1      1489 1.46400E+02 4.87010E+01 0.00000E+00
 -1      1490 1.44150E+02 4.74020E+01 0.00000E+00
 -1      1491 1.48575E+02 4.85500E+01 0.00000E+00
 -1      1492 1.47825E+02 4.72510E+01 0.00000E+00
 -1      1493 6.01200E+00 1.09375E+00 0.00000E+00
 -1      1494 4.51200E+00 1.09375E+00 0.00000E+00
 -1      1495 4.37400E+00 2.18750E+00 0.00000E+00
 -1      1496 9.01200E+00 1.09375E+00 0.00000E+00
 -1      1497 7.51200E+00 1.09375E+00 0.00000E+00
 -1      1498 7.37400E+00 2.18750E+00 0.00000E+00
 -1      1499 1.20120E+01 1.09375E+00 0.00000E+00
 -1      1500 1.05120E+01 1.09375E+00 0.00000E+00
 -1      1501 1.03740E+01 2.18750E+00 0.00000E+00
 -1      1502 1.50120E+01 1.09375E+00 0.00000E+00
 -1      1503 1.35120E+01 1.09375E+00 0.00000E+00
 -1      1504 1.33740E+01 2.18750E+00 0.00000E+00
 -1      1505 1.80120E+01 1.09375E+00 0.00000E+00
 -1      1506 1.65120E+01 1.09375E+00 0.00000E+00
 -1      1507 1.63740E+01 2.18750E+00 0.00000E+00
 -1      1508 2.10120E+01 1.09375E+00 0.00000E+00
 -1      1509 1.95120E+01 1.09375E+00 0.00000E+00
 -1      1510 1.93740E+01 2.18750E+00 0.00000E+00
 -1      1511 2.40120E+01 1.09375E+00 0.00000E+00
 -1      1512 2.25120E+01 1.09375E+00 0.00000E+00
 -1      1513 2.23740E+01 2.18750E+00 0.00000E+00
 -1      1514 2.70120E+01 1.09375E+00 0.00000E+00
 -1      1515 2.55120E+01 1.09375E+00 0.00000E+00
 -1      1516 2.53740E+01 2.18750E+00 0.00000E+00
 -1      1517 3.00120E+01 1.09375E+00 0.00000E+00
 -1      1518 2.85120E+01 1.09375E+00 0.00000E+00
 -1      1519 2.83740E+01 2.18750E+00 0.00000E+00
 -1      1520 3.30120E+01 1.09375E+00 0.00000E+00
 -1      1521 3.15120E+01 1.09375E+00 0.00000E+00
 -1      1522 3.13740E+01 2.18750E+00 0.00000E+00
 -1      1523 3.60120E+01 1.09375E+00 0.00000E+00
 -1      1524 3.45120E+01 1.09375E+00 0.00000E+00
 -1      1525 3.43740E+01 2.18750E+00 0.00000E+00
 -1      1526 3.90120E+01 1.09375E+00 0.00000E+00
 -1      1527 3.75120E+01 1.09375E+00 0.00000E+00
 -1      1528 3.73740E+01 2.18750E+00 0.00000E+00
 -1      1529 4.20120E+01 1.09375E+00 0.00000E+00
 -1      1530 4.05120E+01 1.09375E+00 0.00000E+00
 -1      1531 4.03740E+01 2.18750E+00 0.00000E+00
 -1      1532 4.50120E+01 1.09375E+00 0.00000E+00
 -1      1533 4.35120E+01 1.09375E+00 0.00000E+00
 -1      1534 4.33740E+01 2.18750E+00 0.00000E+00
 -1      1535 4.80120E+01 1.09375E+00 0.00000E+00
 -1      1536 4.65120E+01 1.09375E+00 0.00000E+00
 -1      1537 4.63740E+01 2.18750E+00 0.00000E+00
 -1      1538 5.10120E+01 1.09375E+00 0.00000E+00
 -1      1539 4.95120E+01 1.09375E+00 0.00000E+00
 -1      1540 4.93740E+01 2.18750E+00 0.00000E+00
 -1      1541 5.40120E+01 1.09375E+00 0.00000E+00
 -1      1542 5.25120E+01 1.09375E+00 0.00000E+00
 -1      1543 5.23740E+01 2.18750E+00 0.00000E+00
 -1      1544 5.70120E+01 1.09375E+00 0.00000E+00
 -1      1545 5.55120E+01 1.09375E+00 0.00000E+00
 -1      1546 5.53740E+01 2.18750E+00 0.00000E+00
 -1      1547 6.00120E+01 1.09375E+00 0.00000E+00
 -1      1548 5.85120E+01 1.09375E+00 0.00000E+00
 -1      1549 5.83740E+01 2.18750E+00 0.00000E+00
 -1      1550 6.30120E+01 1.09375E+00 0.00000E+00
 -1      1551 6.15120E+01 1.09375E+00 0.00000E+00
 -1      1552 6.13740E+01 2.18750E+00 0.00000E+00
 -1      1553 6.60120E+01 1.09375E+00 0.00000E+00
 -1      1554 6.45120E+01 1.09375E+00 0.00000E+00
 -1      1555 6.43740E+01 2.18750E+00 0.00000E+00
 -1      1556 6.90120E+01 1.09375E+00 0.00000E+00
 -1      1557 6.75120E+01 1.09375E+00 0.00000E+00
 -1      1558 6.73740E+01 2.18750E+00 0.00000E+00
 -1      1559 7.20120E+01 1.09375E+00 0.00000E+00
 -1      1560 7.05120E+01 1.09375E+00 0.00000E+00
 -1      1561 7.03740E+01 2.18750E+00 0.00000E+00
 -1      1562 7.50120E+01 1.09375E+00 0.00000E+00
 -1      1563 7.35120E+01 1.09375E+00 0.00000E+00
 -1      1564 7.33740E+01 2.18750E+00 0.00000E+00
 -1      1565 7.80120E+01 1.09375E+00 0.00000E+00
 -1      1566 7.65120E+01 1.09375E+00 0.00000E+00
 -1      1567 7.63740E+01 2.18750E+00 0.00000E+00
 -1      1568 8.10120E+01 1.09375E+00 0.00000E+00
 -1      1569 7.95120E+01 1.09375E+00 0.00000E+00
 -1      1570 7.93740E+01 2.18750E+00 0.00000E+00
 -1      1571 8.40120E+01 1.09375E+00 0.00000E+00
 -1      1572 8.25120E+01 1.09375E+00 0.00000E+00
 -1      1573 8.23740E+01 2.18750E+00 0.00000E+00
 -1      1574 8.70120E+01 1.09375E+00 0.00000E+00
 -1      1575 8.55120E+01 1.09375E+00 0.00000E+00
 -1      1576 8.53740E+01 2.18750E+00 0.00000E+00
 -1      1577 9.00120E+01 1.09375E+00 0.00000E+00
 -1      1578 8.85120E+01 1.09375E+00 0.00000E+00
 -1      1579 8.83740E+01 2.18750E+00 0.00000E+00
 -1      1580 9.30120E+01 1.09375E+00 0.00000E+00
 -1      1581 9.15120E+01 1.09375E+00 0.00000E+00
 -1      1582 9.13740E+01 2.18750E+00 0.00000E+00
 -1      1583 9.60120E+01 1.09375E+00 0.00000E+00
 -1      1584 9.45120E+01 1.09375E+00 0.00000E+00
 -1      1585 9.43740E+01 2.18750E+00 0.00000E+00
 -1      1586 9.90120E+01 1.09375E+00 0.00000E+00
 -1      1587 9.75120E+01 1.09375E+00 0.00000E+00
 -1      1588 9.73740E+01 2.18750E+00 0.00000E+00
 -1      1589 1.02012E+02 1.09375E+00 0.00000E+00
 -1      1590 1.00512E+02 1.09375E+00 0.00000E+00
 -1      1591 1.00374E+02 2.18750E+00 0.00000E+00
 -1      1592 1.05012E+02 1.09375E+00 0.00000E+00
 -1      1593 1.03512E+02 1.09375E+00 0.00000E+00
 -1      1594 1.03374E+02 2.18750E+00 0.00000E+00
 -1      1595 1.08012E+02 1.09375E+00 0.00000E+00
 -1      1596 1.06512E+02 1.09375E+00 0.00000E+00
 -1      1597 1.06374E+02 2.18750E+00 0.00000E+00
 -1      1598 1.11012E+02 1.09375E+00 0.00000E+00
 -1      1599 1.09512E+02 1.09375E+00 0.00000E+00
 -1      1600 1.09374E+02 2.18750E+00 0.00000E+00
 -1      1601 1.14012E+02 1.09375E+00 0.00000E+00
 -1      1602 1.12512E+02 1.09375E+00 0.00000E+00
 -1      1603 1.12374E+02 2.18750E+00 0.00000E+00
 -1      1604 1.17012E+02 1.09375E+00 0.00000E+00
 -1      1605 1.15512E+02 1.09375E+00 0.00000E+00
 -1      1606 1.15374E+02 2.18750E+00 0.00000E+00
 -1      1607 1.20012E+02 1.09375E+00 0.00000E+00
 -1      1608 1.18512E+02 1.09375E+00 0.00000E+00
 -1      1609 1.18374E+02 2.18750E+00 0.00000E+00
 -1      1610 1.23012E+02 1.09375E+00 0.00000E+00
 -1      1611 1.21512E+02 1.09375E+00 0.00000E+00
 -1      1612 1.21374E+02 2.18750E+00 0.00000E+00
 -1      1613 1.26012E+02 1.09375E+00 0.00000E+00
 -1      1614 1.24512E+02 1.09375E+00 0.00000E+00
 -1      1615 1.24374E+02 2.18750E+00 0.00000E+00
 -1      1616 1.29012E+02 1.09375E+00 0.00000E+00
 -1      1617 1.27512E+02 1.09375E+00 0.00000E+00
 -1      1618 1.27374E+02 2.18750E+00 0.00000E+00
 -1      1619 1.32012E+02 1.09375E+00 0.00000E+00
 -1      1620 1.30512E+02 1.09375E+00 0.00000E+00
 -1      1621 1.30374E+02 2.18750E+00 0.00000E+00
 -1      1622 1.35012E+02 1.09375E+00 0.00000E+00
 -1      1623 1.33512E+02 1.09375E+00 0.00000E+00
 -1      1624 1.33374E+02 2.18750E+00 0.00000E+00
 -1      1625 1.38012E+02 1.09375E+00 0.00000E+00
 -1      1626 1.36512E+02 1.09375E+00 0.00000E+00
 -1      1627 1.36374E+02 2.18750E+00 0.00000E+00
 -1      1628 1.41012E+02 1.09375E+00 0.00000E+00
 -1      1629 1.39512E+02 1.09375E+00 0.00000E+00
 -1      1630 1.39374E+02 2.18750E+00 0.00000E+00
 -1      1631 1.44012E+02 1.09375E+00 0.00000E+00
 -1      1632 1.42512E+02 1.09375E+00 0.00000E+00
 -1      1633 1.42374E+02 2.18750E+00 0.00000E+00
 -1      1634 1.47012E+02 1.09375E+00 0.00000E+00
 -1      1635 1.45512E+02 1.09375E+00 0.00000E+00
 -1      1636 1.45374E+02 2.18750E+00 0.00000E+00
 -1      1637 1.48575E+02 1.47500E+00 0.00000E+00
 -1      1638 1.48701E+02 5.16250E+00 0.00000E+00
 -1      1639 1.48701E+02 3.68750E+00 0.00000E+00
 -1      1640 1.48701E+02 8.11250E+00 0.00000E+00
 -1      1641 1.48701E+02 6.63750E+00 0.00000E+00
 -1      1642 1.47402E+02 5.90000E+00 0.00000E+00
 -1      1643 1.48701E+02 1.10625E+01 0.00000E+00
 -1      1644 1.48701E+02 9.58750E+00 0.00000E+00
 -1      1645 1.47402E+02 8.85000E+00 0.00000E+00
 -1      1646 1.48701E+02 1.40125E+01 0.00000E+00
 -1      1647 1.48701E+02 1.25375E+01 0.00000E+00
 -1      1648 1.47402E+02 1.18000E+01 0.00000E+00
 -1      1649 1.48701E+02 1.69125E+01 0.00000E+00
 -1      1650 1.48701E+02 1.54625E+01 0.00000E+00
 -1      1651 1.47402E+02 1.47250E+01 0.00000E+00
 -1      1652 1.48701E+02 1.98625E+01 0.00000E+00
 -1      1653 1.48701E+02 1.83875E+01 0.00000E+00
 -1      1654 1.47402E+02 1.76500E+01 0.00000E+00
 -1      1655 1.48701E+02 2.28125E+01 0.00000E+00
 -1      1656 1.48701E+02 2.13375E+01 0.00000E+00
 -1      1657 1.47402E+02 2.06000E+01 0.00000E+00
 -1      1658 1.48701E+02 2.57625E+01 0.00000E+00
 -1      1659 1.48701E+02 2.42875E+01 0.00000E+00
 -1      1660 1.47402E+02 2.35500E+01 0.00000E+00
 -1      1661 1.48701E+02 2.87125E+01 0.00000E+00
 -1      1662 1.48701E+02 2.72375E+01 0.00000E+00
 -1      1663 1.47402E+02 2.65000E+01 0.00000E+00
 -1      1664 1.48701E+02 3.16625E+01 0.00000E+00
 -1      1665 1.48701E+02 3.01875E+01 0.00000E+00
 -1      1666 1.47402E+02 2.94500E+01 0.00000E+00
 -1      1667 1.48701E+02 3.45625E+01 0.00000E+00
 -1      1668 1.48701E+02 3.31125E+01 0.00000E+00
 -1      1669 1.47402E+02 3.23750E+01 0.00000E+00
 -1      1670 1.48701E+02 3.75125E+01 0.00000E+00
 -1      1671 1.48701E+02 3.60375E+01 0.00000E+00
 -1      1672 1.47402E+02 3.53000E+01 0.00000E+00
 -1      1673 1.48701E+02 4.04625E+01 0.00000E+00
 -1      1674 1.48701E+02 3.89875E+01 0.00000E+00
 -1      1675 1.47402E+02 3.82500E+01 0.00000E+00
 -1      1676 1.48701E+02 4.34125E+01 0.00000E+00
 -1      1677 1.48701E+02 4.19375E+01 0.00000E+00
 -1      1678 1.47402E+02 4.12000E+01 0.00000E+00
 -1      1679 1.48263E+02 4.60692E+01 0.00000E+00
 -1      1680 1.48263E+02 4.45942E+01 0.00000E+00
 -1      1681 1.46964E+02 4.38568E+01 0.00000E+00
 -1      1682 1.46088E+02 4.62202E+01 0.00000E+00
 -1      1683 1.22052E+02 2.63470E+01 0.00000E+00
 -1      1684 1.22128E+02 2.70694E+01 0.00000E+00
 -1      1685 1.21684E+02 2.47899E+01 0.00000E+00
 -1      1686 1.21913E+02 2.54956E+01 0.00000E+00
 -1      1687 1.20963E+02 2.33617E+01 0.00000E+00
 -1      1688 1.21330E+02 2.39955E+01 0.00000E+00
 -1      1689 1.19967E+02 2.21800E+01 0.00000E+00
 -1      1690 1.20436E+02 2.27035E+01 0.00000E+00
 -1      1691 1.18794E+02 2.12058E+01 0.00000E+00
 -1      1692 1.19359E+02 2.16260E+01 0.00000E+00
 -1      1693 1.17432E+02 2.03916E+01 0.00000E+00
 -1      1694 1.18103E+02 2.07011E+01 0.00000E+00
 -1      1695 1.15886E+02 1.99905E+01 0.00000E+00
 -1      1696 1.16596E+02 2.01510E+01 0.00000E+00
 -1      1697 1.14221E+02 1.98449E+01 0.00000E+00
 -1      1698 1.15002E+02 1.98499E+01 0.00000E+00
 -1      1699 1.12656E+02 2.01590E+01 0.00000E+00
 -1      1700 1.13353E+02 2.00124E+01 0.00000E+00
 -1      1701 1.11151E+02 2.06822E+01 0.00000E+00
 -1      1702 1.11831E+02 2.03825E+01 0.00000E+00
 -1      1703 1.09814E+02 2.15352E+01 0.00000E+00
 -1      1704 1.10400E+02 2.11115E+01 0.00000E+00
 -1      1705 1.08711E+02 2.26801E+01 0.00000E+00
 -1      1706 1.09204E+02 2.21368E+01 0.00000E+00
 -1      1707 1.07676E+02 2.40600E+01 0.00000E+00
 -1      1708 1.08076E+02 2.33523E+01 0.00000E+00
 -1      1709 1.07215E+02 2.56416E+01 0.00000E+00
 -1      1710 1.07426E+02 2.49461E+01 0.00000E+00
 -1      1711 1.06950E+02 2.72558E+01 0.00000E+00
 -1      1712 1.07012E+02 2.64938E+01 0.00000E+00
 -1      1713 1.07014E+02 2.89907E+01 0.00000E+00
 -1      1714 1.06898E+02 2.81929E+01 0.00000E+00
 -1      1715 1.07612E+02 3.05115E+01 0.00000E+00
 -1      1716 1.07356E+02 2.98369E+01 0.00000E+00
 -1      1717 1.08369E+02 3.18611E+01 0.00000E+00
 -1      1718 1.07987E+02 3.12602E+01 0.00000E+00
 -1      1719 1.09382E+02 3.30244E+01 0.00000E+00
 -1      1720 1.08885E+02 3.25137E+01 0.00000E+00
 -1      1721 1.10636E+02 3.39735E+01 0.00000E+00
 -1      1722 1.10029E+02 3.35645E+01 0.00000E+00
 -1      1723 1.12036E+02 3.46383E+01 0.00000E+00
 -1      1724 1.11378E+02 3.43707E+01 0.00000E+00
 -1      1725 1.13605E+02 3.50491E+01 0.00000E+00
 -1      1726 1.12855E+02 3.49156E+01 0.00000E+00
 -1      1727 1.15160E+02 3.50493E+01 0.00000E+00
 -1      1728 1.14462E+02 3.50722E+01 0.00000E+00
 -1      1729 1.16670E+02 3.47726E+01 0.00000E+00
 -1      1730 1.15977E+02 3.49385E+01 0.00000E+00
 -1      1731 1.18113E+02 3.41879E+01 0.00000E+00
 -1      1732 1.17461E+02 3.44949E+01 0.00000E+00
 -1      1733 1.19378E+02 3.33464E+01 0.00000E+00
 -1      1734 1.18822E+02 3.37629E+01 0.00000E+00
 -1      1735 1.20455E+02 3.22591E+01 0.00000E+00
 -1      1736 1.19982E+02 3.27902E+01 0.00000E+00
 -1      1737 1.21384E+02 3.09774E+01 0.00000E+00
 -1      1738 1.21019E+02 3.16149E+01 0.00000E+00
 -1      1739 1.21870E+02 2.95061E+01 0.00000E+00
 -1      1740 1.21653E+02 3.01710E+01 0.00000E+00
 -1      1741 1.22166E+02 2.79361E+01 0.00000E+00
 -1      1742 1.22086E+02 2.86822E+01 0.00000E+00
 -1      1743 1.20045E+02 2.14833E+01 0.00000E+00
 -1      1744 1.21180E+02 2.26955E+01 0.00000E+00
 -1      1745 1.48437E+02 2.56875E+00 0.00000E+00
 -1      1746 1.47138E+02 3.30625E+00 0.00000E+00
 -1      1747 1.22554E+02 2.57939E+01 0.00000E+00
 -1      1748 1.22061E+02 2.41481E+01 0.00000E+00
 -1      1749 1.22732E+02 2.75120E+01 0.00000E+00
 -1      1750 1.18747E+02 2.04246E+01 0.00000E+00
 -1      1751 1.17220E+02 1.96792E+01 0.00000E+00
 -1      1752 1.15500E+02 1.92980E+01 0.00000E+00
 -1      1753 1.13748E+02 1.93250E+01 0.00000E+00
 -1      1754 1.12055E+02 1.97160E+01 0.00000E+00
 -1      1755 1.10479E+02 2.03686E+01 0.00000E+00
 -1      1756 1.09118E+02 2.13995E+01 0.00000E+00
 -1      1757 1.07874E+02 2.26733E+01 0.00000E+00
 -1      1758 1.06990E+02 2.42316E+01 0.00000E+00
 -1      1759 1.06538E+02 2.59699E+01 0.00000E+00
 -1      1760 1.06283E+02 2.77592E+01 0.00000E+00
 -1      1761 1.06574E+02 2.95426E+01 0.00000E+00
 -1      1762 1.07292E+02 3.11376E+01 0.00000E+00
 -1      1763 1.08183E+02 3.25390E+01 0.00000E+00
 -1      1764 1.09346E+02 3.37316E+01 0.00000E+00
 -1      1765 1.10736E+02 3.46688E+01 0.00000E+00
 -1      1766 1.12297E+02 3.53432E+01 0.00000E+00
 -1      1767 1.13973E+02 3.56435E+01 0.00000E+00
 -1      1768 1.15648E+02 3.55559E+01 0.00000E+00
 -1      1769 1.17255E+02 3.51675E+01 0.00000E+00
 -1      1770 1.18754E+02 3.44649E+01 0.00000E+00
 -1      1771 1.20067E+02 3.34838E+01 0.00000E+00
 -1      1772 1.21236E+02 3.22833E+01 0.00000E+00
 -1      1773 1.22069E+02 3.08327E+01 0.00000E+00
 -1      1774 1.22554E+02 2.92025E+01 0.00000E+00
 -1      1775 2.87400E+00 4.77875E+01 0.00000E+00
 -1      1776 3.89700E+00 4.04125E+01 0.00000E+00
 -1      1777 3.89700E+00 4.18875E+01 0.00000E+00
 -1      1778 3.89700E+00 4.33625E+01 0.00000E+00
 -1      1779 3.89700E+00 4.48375E+01 0.00000E+00
 -1      1780 5.19600E+00 4.26250E+01 0.00000E+00
 -1      1781 3.89700E+00 3.45500E+01 0.00000E+00
 -1      1782 3.89700E+00 3.60000E+01 0.00000E+00
 -1      1783 3.89700E+00 3.16000E+01 0.00000E+00
 -1      1784 3.89700E+00 3.30750E+01 0.00000E+00
 -1      1785 5.19600E+00 3.38000E+01 0.00000E+00
 -1      1786 3.89700E+00 2.86500E+01 0.00000E+00
 -1      1787 3.89700E+00 3.01250E+01 0.00000E+00
 -1      1788 5.19600E+00 3.08500E+01 0.00000E+00
 -1      1789 3.89700E+00 2.57000E+01 0.00000E+00
 -1      1790 3.89700E+00 2.71750E+01 0.00000E+00
 -1      1791 5.19600E+00 2.79000E+01 0.00000E+00
 -1      1792 3.89700E+00 2.27500E+01 0.00000E+00
 -1      1793 3.89700E+00 2.42250E+01 0.00000E+00
 -1      1794 5.19600E+00 2.49500E+01 0.00000E+00
 -1      1795 3.89700E+00 1.98000E+01 0.00000E+00
 -1      1796 3.89700E+00 2.12750E+01 0.00000E+00
 -1      1797 5.19600E+00 2.20000E+01 0.00000E+00
 -1      1798 3.89700E+00 1.69000E+01 0.00000E+00
 -1      1799 3.89700E+00 1.83500E+01 0.00000E+00
 -1      1800 5.19600E+00 1.90750E+01 0.00000E+00
 -1      1801 3.89700E+00 1.39500E+01 0.00000E+00
 -1      1802 3.89700E+00 1.54250E+01 0.00000E+00
 -1      1803 5.19600E+00 1.61500E+01 0.00000E+00
 -1      1804 3.89700E+00 1.10000E+01 0.00000E+00
 -1      1805 3.89700E+00 1.24750E+01 0.00000E+00
 -1      1806 5.19600E+00 1.32000E+01 0.00000E+00
 -1      1807 3.89700E+00 8.05000E+00 0.00000E+00
 -1      1808 3.89700E+00 9.52500E+00 0.00000E+00
 -1      1809 5.19600E+00 1.02500E+01 0.00000E+00
 -1      1810 3.89700E+00 5.10000E+00 0.00000E+00
 -1      1811 3.89700E+00 6.57500E+00 0.00000E+00
 -1      1812 5.19600E+00 7.30000E+00 0.00000E+00
 -1      1813 4.20450E+00 3.09687E+00 0.00000E+00
 -1      1814 4.06650E+00 4.19063E+00 0.00000E+00
 -1      1815 5.36550E+00 4.91563E+00 0.00000E+00
 -1      1816 5.70450E+00 3.09687E+00 0.00000E+00
 -1      1817 3.62400E+00 4.64885E+01 0.00000E+00
 -1      1818 8.70450E+00 3.09687E+00 0.00000E+00
 -1      1819 7.20450E+00 3.09687E+00 0.00000E+00
 -1      1820 7.03500E+00 4.00625E+00 0.00000E+00
 -1      1821 4.92300E+00 4.57510E+01 0.00000E+00
 -1      1822 8.40000E+00 4.61030E+01 0.00000E+00
 -1      1823 9.90000E+00 4.61030E+01 0.00000E+00
 -1      1824 1.14000E+01 4.61030E+01 0.00000E+00
 -1      1825 1.29000E+01 4.61030E+01 0.00000E+00
 -1      1826 1.06500E+01 4.48040E+01 0.00000E+00
 -1      1827 1.44000E+01 4.61030E+01 0.00000E+00
 -1      1828 1.59000E+01 4.61030E+01 0.00000E+00
 -1      1829 1.36500E+01 4.48040E+01 0.00000E+00
 -1      1830 1.74000E+01 4.61030E+01 0.00000E+00
 -1      1831 1.89000E+01 4.61030E+01 0.00000E+00
 -1      1832 1.66500E+01 4.48040E+01 0.00000E+00
 -1      1833 2.04000E+01 4.61030E+01 0.00000E+00
 -1      1834 2.19000E+01 4.61030E+01 0.00000E+00
 -1      1835 1.96500E+01 4.48040E+01 0.00000E+00
 -1      1836 2.34000E+01 4.61030E+01 0.00000E+00
 -1      1837 2.49000E+01 4.61030E+01 0.00000E+00
 -1      1838 2.26500E+01 4.48040E+01 0.00000E+00
 -1      1839 2.64000E+01 4.61030E+01 0.00000E+00
 -1      1840 2.79000E+01 4.61030E+01 0.00000E+00
 -1      1841 2.56500E+01 4.48040E+01 0.00000E+00
 -1      1842 2.94000E+01 4.61030E+01 0.00000E+00
 -1      1843 3.09000E+01 4.61030E+01 0.00000E+00
 -1      1844 2.86500E+01 4.48040E+01 0.00000E+00
 -1      1845 3.24000E+01 4.61030E+01 0.00000E+00
 -1      1846 3.39000E+01 4.61030E+01 0.00000E+00
 -1      1847 3.16500E+01 4.48040E+01 0.00000E+00
 -1      1848 3.54000E+01 4.61030E+01 0.00000E+00
 -1      1849 3.69000E+01 4.61030E+01 0.00000E+00
 -1      1850 3.46500E+01 4.48040E+01 0.00000E+00
 -1      1851 3.84000E+01 4.61030E+01 0.00000E+00
 -1      1852 3.99000E+01 4.61030E+01 0.00000E+00
 -1      1853 3.76500E+01 4.48040E+01 0.00000E+00
 -1      1854 4.14000E+01 4.61030E+01 0.00000E+00
 -1      1855 4.29000E+01 4.61030E+01 0.00000E+00
 -1      1856 4.06500E+01 4.48040E+01 0.00000E+00
 -1      1857 4.44000E+01 4.61030E+01 0.00000E+00
 -1      1858 4.59000E+01 4.61030E+01 0.00000E+00
 -1      1859 4.36500E+01 4.48040E+01 0.00000E+00
 -1      1860 4.74000E+01 4.61030E+01 0.00000E+00
 -1      1861 4.89000E+01 4.61030E+01 0.00000E+00
 -1      1862 4.66500E+01 4.48040E+01 0.00000E+00
 -1      1863 5.04000E+01 4.61030E+01 0.00000E+00
 -1      1864 5.19000E+01 4.61030E+01 0.00000E+00
 -1      1865 4.96500E+01 4.48040E+01 0.00000E+00
 -1      1866 5.34000E+01 4.61030E+01 0.00000E+00
 -1      1867 5.49000E+01 4.61030E+01 0.00000E+00
 -1      1868 5.26500E+01 4.48040E+01 0.00000E+00
 -1      1869 5.64000E+01 4.61030E+01 0.00000E+00
 -1      1870 5.79000E+01 4.61030E+01 0.00000E+00
 -1      1871 5.56500E+01 4.48040E+01 0.00000E+00
 -1      1872 5.94000E+01 4.61030E+01 0.00000E+00
 -1      1873 6.09000E+01 4.61030E+01 0.00000E+00
 -1      1874 5.86500E+01 4.48040E+01 0.00000E+00
 -1      1875 6.24000E+01 4.61030E+01 0.00000E+00
 -1      1876 6.39000E+01 4.61030E+01 0.00000E+00
 -1      1877 6.16500E+01 4.48040E+01 0.00000E+00
 -1      1878 6.54000E+01 4.61030E+01 0.00000E+00
 -1      1879 6.69000E+01 4.61030E+01 0.00000E+00
 -1      1880 6.46500E+01 4.48040E+01 0.00000E+00
 -1      1881 6.84000E+01 4.61030E+01 0.00000E+00
 -1      1882 6.99000E+01 4.61030E+01 0.00000E+00
 -1      1883 6.76500E+01 4.48040E+01 0.00000E+00
 -1      1884 7.14000E+01 4.61030E+01 0.00000E+00
 -1      1885 7.29000E+01 4.61030E+01 0.00000E+00
 -1      1886 7.06500E+01 4.48040E+01 0.00000E+00
 -1      1887 7.44000E+01 4.61030E+01 0.00000E+00
 -1      1888 7.59000E+01 4.61030E+01 0.00000E+00
 -1      1889 7.36500E+01 4.48040E+01 0.00000E+00
 -1      1890 7.74000E+01 4.61030E+01 0.00000E+00
 -1      1891 7.89000E+01 4.61030E+01 0.00000E+00
 -1      1892 7.66500E+01 4.48040E+01 0.00000E+00
 -1      1893 8.04000E+01 4.61030E+01 0.00000E+00
 -1      1894 8.19000E+01 4.61030E+01 0.00000E+00
 -1      1895 7.96500E+01 4.48040E+01 0.00000E+00
 -1      1896 8.34000E+01 4.61030E+01 0.00000E+00
 -1      1897 8.49000E+01 4.61030E+01 0.00000E+00
 -1      1898 8.26500E+01 4.48040E+01 0.00000E+00
 -1      1899 8.64000E+01 4.61030E+01 0.00000E+00
 -1      1900 8.79000E+01 4.61030E+01 0.00000E+00
 -1      1901 8.56500E+01 4.48040E+01 0.00000E+00
 -1      1902 8.94000E+01 4.61030E+01 0.00000E+00
 -1      1903 9.09000E+01 4.61030E+01 0.00000E+00
 -1      1904 8.86500E+01 4.48040E+01 0.00000E+00
 -1      1905 9.24000E+01 4.61030E+01 0.00000E+00
 -1      1906 9.39000E+01 4.61030E+01 0.00000E+00
 -1      1907 9.16500E+01 4.48040E+01 0.00000E+00
 -1      1908 9.54000E+01 4.61030E+01 0.00000E+00
 -1      1909 9.69000E+01 4.61030E+01 0.00000E+00
 -1      1910 9.46500E+01 4.48040E+01 0.00000E+00
 -1      1911 9.84000E+01 4.61030E+01 0.00000E+00
 -1      1912 9.99000E+01 4.61030E+01 0.00000E+00
 -1      1913 9.76500E+01 4.48040E+01 0.00000E+00
 -1      1914 1.01400E+02 4.61030E+01 0.00000E+00
 -1      1915 1.02900E+02 4.61030E+01 0.00000E+00
 -1      1916 1.00650E+02 4.48040E+01 0.00000E+00
 -1      1917 1.04400E+02 4.61030E+01 0.00000E+00
 -1      1918 1.05900E+02 4.61030E+01 0.00000E+00
 -1      1919 1.03650E+02 4.48040E+01 0.00000E+00
 -1      1920 1.07400E+02 4.61030E+01 0.00000E+00
 -1      1921 1.08900E+02 4.61030E+01 0.00000E+00
 -1      1922 1.06650E+02 4.48040E+01 0.00000E+00
 -1      1923 1.10400E+02 4.61030E+01 0.00000E+00
 -1      1924 1.11900E+02 4.61030E+01 0.00000E+00
 -1      1925 1.09650E+02 4.48040E+01 0.00000E+00
 -1      1926 1.13400E+02 4.61030E+01 0.00000E+00
 -1      1927 1.14900E+02 4.61030E+01 0.00000E+00
 -1      1928 1.12650E+02 4.48040E+01 0.00000E+00
 -1      1929 1.16400E+02 4.61030E+01 0.00000E+00
 -1      1930 1.17900E+02 4.61030E+01 0.00000E+00
 -1      1931 1.15650E+02 4.48040E+01 0.00000E+00
 -1      1932 1.19400E+02 4.61030E+01 0.00000E+00
 -1      1933 1.20900E+02 4.61030E+01 0.00000E+00
 -1      1934 1.18650E+02 4.48040E+01 0.00000E+00
 -1      1935 1.22400E+02 4.61030E+01 0.00000E+00
 -1      1936 1.23900E+02 4.61030E+01 0.00000E+00
 -1      1937 1.21650E+02 4.48040E+01 0.00000E+00
 -1      1938 1.25400E+02 4.61030E+01 0.00000E+00
 -1      1939 1.26900E+02 4.61030E+01 0.00000E+00
 -1      1940 1.24650E+02 4.48040E+01 0.00000E+00
 -1      1941 1.28400E+02 4.61030E+01 0.00000E+00
 -1      1942 1.29900E+02 4.61030E+01 0.00000E+00
 -1      1943 1.27650E+02 4.48040E+01 0.00000E+00
 -1      1944 1.31400E+02 4.61030E+01 0.00000E+00
 -1      1945 1.32900E+02 4.61030E+01 0.00000E+00
 -1      1946 1.30650E+02 4.48040E+01 0.00000E+00
 -1      1947 1.34400E+02 4.61030E+01 0.00000E+00
 -1      1948 1.35900E+02 4.61030E+01 0.00000E+00
 -1      1949 1.33650E+02 4.48040E+01 0.00000E+00
 -1      1950 1.37400E+02 4.61030E+01 0.00000E+00
 -1      1951 1.38900E+02 4.61030E+01 0.00000E+00
 -1      1952 1.36650E+02 4.48040E+01 0.00000E+00
 -1      1953 1.40400E+02 4.61030E+01 0.00000E+00
 -1      1954 1.41900E+02 4.61030E+01 0.00000E+00
 -1      1955 1.39650E+02 4.48040E+01 0.00000E+00
 -1      1956 1.43244E+02 4.61616E+01 0.00000E+00
 -1      1957 1.44744E+02 4.61616E+01 0.00000E+00
 -1      1958 1.45182E+02 4.49799E+01 0.00000E+00
 -1      1959 1.42494E+02 4.48626E+01 0.00000E+00
 -1      1960 1.17045E+01 3.09687E+00 0.00000E+00
 -1      1961 1.02045E+01 3.09687E+00 0.00000E+00
 -1      1962 1.00350E+01 4.00625E+00 0.00000E+00
 -1      1963 1.47045E+01 3.09687E+00 0.00000E+00
 -1      1964 1.32045E+01 3.09687E+00 0.00000E+00
 -1      1965 1.30350E+01 4.00625E+00 0.00000E+00
 -1      1966 1.77045E+01 3.09687E+00 0.00000E+00
 -1      1967 1.62045E+01 3.09687E+00 0.00000E+00
 -1      1968 1.60350E+01 4.00625E+00 0.00000E+00
 -1      1969 2.07045E+01 3.09687E+00 0.00000E+00
 -1      1970 1.92045E+01 3.09687E+00 0.00000E+00
 -1      1971 1.90350E+01 4.00625E+00 0.00000E+00
 -1      1972 2.37045E+01 3.09687E+00 0.00000E+00
 -1      1973 2.22045E+01 3.09687E+00 0.00000E+00
 -1      1974 2.20350E+01 4.00625E+00 0.00000E+00
 -1      1975 2.67045E+01 3.09687E+00 0.00000E+00
 -1      1976 2.52045E+01 3.09687E+00 0.00000E+00
 -1      1977 2.50350E+01 4.00625E+00 0.00000E+00
 -1      1978 2.97045E+01 3.09687E+00 0.00000E+00
 -1      1979 2.82045E+01 3.09687E+00 0.00000E+00
 -1      1980 2.80350E+01 4.00625E+00 0.00000E+00
 -1      1981 3.27045E+01 3.09687E+00 0.00000E+00
 -1      1982 3.12045E+01 3.09687E+00 0.00000E+00
 -1      1983 3.10350E+01 4.00625E+00 0.00000E+00
 -1      1984 3.57045E+01 3.09687E+00 0.00000E+00
 -1      1985 3.42045E+01 3.09687E+00 0.00000E+00
 -1      1986 3.40350E+01 4.00625E+00 0.00000E+00
 -1      1987 3.87045E+01 3.09687E+00 0.00000E+00
 -1      1988 3.72045E+01 3.09687E+00 0.00000E+00
 -1      1989 3.70350E+01 4.00625E+00 0.00000E+00
 -1      1990 4.17045E+01 3.09687E+00 0.00000E+00
 -1      1991 4.02045E+01 3.09687E+00 0.00000E+00
 -1      1992 4.00350E+01 4.00625E+00 0.00000E+00
 -1      1993 4.47045E+01 3.09687E+00 0.00000E+00
 -1      1994 4.32045E+01 3.09687E+00 0.00000E+00
 -1      1995 4.30350E+01 4.00625E+00 0.00000E+00
 -1      1996 4.77045E+01 3.09687E+00 0.00000E+00
 -1      1997 4.62045E+01 3.09687E+00 0.00000E+00
 -1      1998 4.60350E+01 4.00625E+00 0.00000E+00
 -1      1999 5.07045E+01 3.09687E+00 0.00000E+00
 -1      2000 4.92045E+01 3.09687E+00 0.00000E+00
 -1      2001 4.90350E+01 4.00625E+00 0.00000E+00
 -1      2002 5.37045E+01 3.09687E+00 0.00000E+00
 -1      2003 5.22045E+01 3.09687E+00 0.00000E+00
 -1      2004 5.20350E+01 4.00625E+00 0.00000E+00
 -1      2005 5.67045E+01 3.09687E+00 0.00000E+00
 -1      2006 5.52045E+01 3.09687E+00 0.00000E+00
 -1      2007 5.50350E+01 4.00625E+00 0.00000E+00
 -1      2008 5.97045E+01 3.09687E+00 0.00000E+00
 -1      2009 5.82045E+01 3.09687E+00 0.00000E+00
 -1      2010 5.80350E+01 4.00625E+00 0.00000E+00
 -1      2011 6.27045E+01 3.09687E+00 0.00000E+00
 -1      2012 6.12045E+01 3.09687E+00 0.00000E+00
 -1      2013 6.10350E+01 4.00625E+00 0.00000E+00
 -1      2014 6.57045E+01 3.09687E+00 0.00000E+00
 -1      2015 6.42045E+01 3.09687E+00 0.00000E+00
 -1      2016 6.40350E+01 4.00625E+00 0.00000E+00
 -1      2017 6.87045E+01 3.09687E+00 0.00000E+00
 -1      2018 6.72045E+01 3.09687E+00 0.00000E+00
 -1      2019 6.70350E+01 4.00625E+00 0.00000E+00
 -1      2020 7.17045E+01 3.09687E+00 0.00000E+00
 -1      2021 7.02045E+01 3.09687E+00 0.00000E+00
 -1      2022 7.00350E+01 4.00625E+00 0.00000E+00
 -1      2023 7.47045E+01 3.09687E+00 0.00000E+00
 -1      2024 7.32045E+01 3.09687E+00 0.00000E+00
 -1      2025 7.30350E+01 4.00625E+00 0.00000E+00
 -1      2026 7.77045E+01 3.09687E+00 0.00000E+00
 -1      2027 7.62045E+01 3.09687E+00 0.00000E+00
 -1      2028 7.60350E+01 4.00625E+00 0.00000E+00
 -1      2029 8.07045E+01 3.09687E+00 0.00000E+00
 -1      2030 7.92045E+01 3.09687E+00 0.00000E+00
 -1      2031 7.90350E+01 4.00625E+00 0.00000E+00
 -1      2032 8.37045E+01 3.09687E+00 0.00000E+00
 -1      2033 8.22045E+01 3.09687E+00 0.00000E+00
 -1      2034 8.20350E+01 4.00625E+00 0.00000E+00
 -1      2035 8.67045E+01 3.09687E+00 0.00000E+00
 -1      2036 8.52045E+01 3.09687E+00 0.00000E+00
 -1      2037 8.50350E+01 4.00625E+00 0.00000E+00
 -1      2038 8.97045E+01 3.09687E+00 0.00000E+00
 -1      2039 8.82045E+01 3.09687E+00 0.00000E+00
 -1      2040 8.80350E+01 4.00625E+00 0.00000E+00
 -1      2041 9.27045E+01 3.09687E+00 0.00000E+00
 -1      2042 9.12045E+01 3.09687E+00 0.00000E+00
 -1      2043 9.10350E+01 4.00625E+00 0.00000E+00
 -1      2044 9.57045E+01 3.09687E+00 0.00000E+00
 -1      2045 9.42045E+01 3.09687E+00 0.00000E+00
 -1      2046 9.40350E+01 4.00625E+00 0.00000E+00
 -1      2047 9.87045E+01 3.09687E+00 0.00000E+00
 -1      2048 9.72045E+01 3.09687E+00 0.00000E+00
 -1      2049 9.70350E+01 4.00625E+00 0.00000E+00
 -1      2050 1.01704E+02 3.09687E+00 0.00000E+00
 -1      2051 1.00204E+02 3.09687E+00 0.00000E+00
 -1      2052 1.00035E+02 4.00625E+00 0.00000E+00
 -1      2053 1.04704E+02 3.09687E+00 0.00000E+00
 -1      2054 1.03204E+02 3.09687E+00 0.00000E+00
 -1      2055 1.03035E+02 4.00625E+00 0.00000E+00
 -1      2056 1.07704E+02 3.09687E+00 0.00000E+00
 -1      2057 1.06204E+02 3.09687E+00 0.00000E+00
 -1      2058 1.06035E+02 4.00625E+00 0.00000E+00
 -1      2059 1.10704E+02 3.09687E+00 0.00000E+00
 -1      2060 1.09204E+02 3.09687E+00 0.00000E+00
 -1      2061 1.09035E+02 4.00625E+00 0.00000E+00
 -1      2062 1.13704E+02 3.09687E+00 0.00000E+00
 -1      2063 1.12204E+02 3.09687E+00 0.00000E+00
 -1      2064 1.12035E+02 4.00625E+00 0.00000E+00
 -1      2065 1.16704E+02 3.09687E+00 0.00000E+00
 -1      2066 1.15204E+02 3.09687E+00 0.00000E+00
 -1      2067 1.15035E+02 4.00625E+00 0.00000E+00
 -1      2068 1.19704E+02 3.09687E+00 0.00000E+00
 -1      2069 1.18204E+02 3.09687E+00 0.00000E+00
 -1      2070 1.18035E+02 4.00625E+00 0.00000E+00
 -1      2071 1.22704E+02 3.09687E+00 0.00000E+00
 -1      2072 1.21204E+02 3.09687E+00 0.00000E+00
 -1      2073 1.21035E+02 4.00625E+00 0.00000E+00
 -1      2074 1.25704E+02 3.09687E+00 0.00000E+00
 -1      2075 1.24204E+02 3.09687E+00 0.00000E+00
 -1      2076 1.24035E+02 4.00625E+00 0.00000E+00
 -1      2077 1.28704E+02 3.09687E+00 0.00000E+00
 -1      2078 1.27204E+02 3.09687E+00 0.00000E+00
 -1      2079 1.27035E+02 4.00625E+00 0.00000E+00
 -1      2080 1.31704E+02 3.09687E+00 0.00000E+00
 -1      2081 1.30204E+02 3.09687E+00 0.00000E+00
 -1      2082 1.30035E+02 4.00625E+00 0.00000E+00
 -1      2083 1.34704E+02 3.09687E+00 0.00000E+00
 -1      2084 1.33204E+02 3.09687E+00 0.00000E+00
 -1      2085 1.33035E+02 4.00625E+00 0.00000E+00
 -1      2086 1.37704E+02 3.09687E+00 0.00000E+00
 -1      2087 1.36204E+02 3.09687E+00 0.00000E+00
 -1      2088 1.36035E+02 4.00625E+00 0.00000E+00
 -1      2089 1.40704E+02 3.09687E+00 0.00000E+00
 -1      2090 1.39204E+02 3.09687E+00 0.00000E+00
 -1      2091 1.39035E+02 4.00625E+00 0.00000E+00
 -1      2092 1.43704E+02 3.09687E+00 0.00000E+00
 -1      2093 1.42204E+02 3.09687E+00 0.00000E+00
 -1      2094 1.42035E+02 4.00625E+00 0.00000E+00
 -1      2095 1.46171E+02 3.20156E+00 0.00000E+00
 -1      2096 1.44671E+02 3.20156E+00 0.00000E+00
 -1      2097 1.44502E+02 4.11094E+00 0.00000E+00
 -1      2098 1.46435E+02 4.32031E+00 0.00000E+00
 -1      2099 1.46103E+02 1.25375E+01 0.00000E+00
 -1      2100 1.46103E+02 1.10625E+01 0.00000E+00
 -1      2101 1.46103E+02 9.58750E+00 0.00000E+00
 -1      2102 1.46103E+02 8.11250E+00 0.00000E+00
 -1      2103 1.44804E+02 1.03250E+01 0.00000E+00
 -1      2104 1.46269E+02 6.95391E+00 0.00000E+00
 -1      2105 1.46269E+02 5.47891E+00 0.00000E+00
 -1      2106 1.45302E+02 5.37422E+00 0.00000E+00
 -1      2107 1.44970E+02 7.69141E+00 0.00000E+00
 -1      2108 1.46103E+02 1.54375E+01 0.00000E+00
 -1      2109 1.46103E+02 1.39875E+01 0.00000E+00
 -1      2110 1.44804E+02 1.32500E+01 0.00000E+00
 -1      2111 1.46103E+02 1.83875E+01 0.00000E+00
 -1      2112 1.46103E+02 1.69125E+01 0.00000E+00
 -1      2113 1.44804E+02 1.61750E+01 0.00000E+00
 -1      2114 1.46103E+02 2.13375E+01 0.00000E+00
 -1      2115 1.46103E+02 1.98625E+01 0.00000E+00
 -1      2116 1.44804E+02 1.91250E+01 0.00000E+00
 -1      2117 1.46103E+02 2.42875E+01 0.00000E+00
 -1      2118 1.46103E+02 2.28125E+01 0.00000E+00
 -1      2119 1.44804E+02 2.20750E+01 0.00000E+00
 -1      2120 1.46103E+02 2.72375E+01 0.00000E+00
 -1      2121 1.46103E+02 2.57625E+01 0.00000E+00
 -1      2122 1.44804E+02 2.50250E+01 0.00000E+00
 -1      2123 1.46103E+02 3.01875E+01 0.00000E+00
 -1      2124 1.46103E+02 2.87125E+01 0.00000E+00
 -1      2125 1.44804E+02 2.79750E+01 0.00000E+00
 -1      2126 1.46103E+02 3.30875E+01 0.00000E+00
 -1      2127 1.46103E+02 3.16375E+01 0.00000E+00
 -1      2128 1.44804E+02 3.09000E+01 0.00000E+00
 -1      2129 1.46103E+02 3.60375E+01 0.00000E+00
 -1      2130 1.46103E+02 3.45625E+01 0.00000E+00
 -1      2131 1.44804E+02 3.38250E+01 0.00000E+00
 -1      2132 1.46103E+02 3.89875E+01 0.00000E+00
 -1      2133 1.46103E+02 3.75125E+01 0.00000E+00
 -1      2134 1.44804E+02 3.67750E+01 0.00000E+00
 -1      2135 1.46103E+02 4.19375E+01 0.00000E+00
 -1      2136 1.46103E+02 4.04625E+01 0.00000E+00
 -1      2137 1.44804E+02 3.97250E+01 0.00000E+00
 -1      2138 1.22668E+02 2.34020E+01 0.00000E+00
 -1      2139 1.23022E+02 2.41964E+01 0.00000E+00
 -1      2140 1.23402E+02 2.70477E+01 0.00000E+00
 -1      2141 1.23440E+02 2.79144E+01 0.00000E+00
 -1      2142 1.23248E+02 2.52436E+01 0.00000E+00
 -1      2143 1.23387E+02 2.60950E+01 0.00000E+00
 -1      2144 1.21586E+02 2.18302E+01 0.00000E+00
 -1      2145 1.22113E+02 2.24884E+01 0.00000E+00
 -1      2146 1.20371E+02 2.07222E+01 0.00000E+00
 -1      2147 1.20978E+02 2.12762E+01 0.00000E+00
 -1      2148 1.21911E+02 2.10691E+01 0.00000E+00
 -1      2149 3.89700E+00 3.74688E+01 0.00000E+00
 -1      2150 3.89700E+00 3.89437E+01 0.00000E+00
 -1      2151 5.19600E+00 3.96813E+01 0.00000E+00
 -1      2152 5.19600E+00 3.67438E+01 0.00000E+00
 -1      2153 1.16993E+02 1.88958E+01 0.00000E+00
 -1      2154 1.17829E+02 1.91365E+01 0.00000E+00
 -1      2155 1.15173E+02 1.85049E+01 0.00000E+00
 -1      2156 1.16057E+02 1.86455E+01 0.00000E+00
 -1      2157 1.13135E+02 1.84844E+01 0.00000E+00
 -1      2158 1.14004E+02 1.83169E+01 0.00000E+00
 -1      2159 1.11485E+02 1.89314E+01 0.00000E+00
 -1      2160 1.12310E+02 1.87079E+01 0.00000E+00
 -1      2161 1.12566E+02 1.76998E+01 0.00000E+00
 -1      2162 1.09761E+02 1.99842E+01 0.00000E+00
 -1      2163 1.10512E+02 1.95550E+01 0.00000E+00
 -1      2164 1.08358E+02 2.12391E+01 0.00000E+00
 -1      2165 1.08968E+02 2.06375E+01 0.00000E+00
 -1      2166 1.07025E+02 2.25068E+01 0.00000E+00
 -1      2167 1.07659E+02 2.18347E+01 0.00000E+00
 -1      2168 1.06201E+02 2.44878E+01 0.00000E+00
 -1      2169 1.06450E+02 2.36016E+01 0.00000E+00
 -1      2170 1.05765E+02 2.62364E+01 0.00000E+00
 -1      2171 1.05968E+02 2.53842E+01 0.00000E+00
 -1      2172 1.05401E+02 2.81804E+01 0.00000E+00
 -1      2173 1.05453E+02 2.72432E+01 0.00000E+00
 -1      2174 1.06106E+02 3.02248E+01 0.00000E+00
 -1      2175 1.05763E+02 2.93786E+01 0.00000E+00
 -1      2176 1.06856E+02 3.17223E+01 0.00000E+00
 -1      2177 1.06481E+02 3.09735E+01 0.00000E+00
 -1      2178 1.05670E+02 3.08095E+01 0.00000E+00
 -1      2179 1.07801E+02 3.33712E+01 0.00000E+00
 -1      2180 1.07285E+02 3.27186E+01 0.00000E+00
 -1      2181 1.09175E+02 3.45959E+01 0.00000E+00
 -1      2182 1.08527E+02 3.40558E+01 0.00000E+00
 -1      2183 1.10802E+02 3.54388E+01 0.00000E+00
 -1      2184 1.10059E+02 3.50417E+01 0.00000E+00
 -1      2185 1.12499E+02 3.60956E+01 0.00000E+00
 -1      2186 1.11680E+02 3.58184E+01 0.00000E+00
 -1      2187 1.14382E+02 3.63867E+01 0.00000E+00
 -1      2188 1.13525E+02 3.63636E+01 0.00000E+00
 -1      2189 1.16143E+02 3.61427E+01 0.00000E+00
 -1      2190 1.15326E+02 3.62535E+01 0.00000E+00
 -1      2191 1.17934E+02 3.58378E+01 0.00000E+00
 -1      2192 1.17144E+02 3.61154E+01 0.00000E+00
 -1      2193 1.19442E+02 3.48084E+01 0.00000E+00
 -1      2194 1.18733E+02 3.52333E+01 0.00000E+00
 -1      2195 1.20808E+02 3.36824E+01 0.00000E+00
 -1      2196 1.20204E+02 3.42386E+01 0.00000E+00
 -1      2197 1.21938E+02 3.23939E+01 0.00000E+00
 -1      2198 1.21373E+02 3.30382E+01 0.00000E+00
 -1      2199 1.21510E+02 3.37930E+01 0.00000E+00
 -1      2200 1.22937E+02 3.06739E+01 0.00000E+00
 -1      2201 1.22669E+02 3.14803E+01 0.00000E+00
 -1      2202 1.23370E+02 2.90263E+01 0.00000E+00
 -1      2203 1.23154E+02 2.98501E+01 0.00000E+00
 -1      2204 1.23754E+02 3.04977E+01 0.00000E+00
 -1      2205 1.18784E+02 1.96489E+01 0.00000E+00
 -1      2206 1.19475E+02 2.01537E+01 0.00000E+00
 -1      2207 6.42300E+00 4.57510E+01 0.00000E+00
 -1      2208 1.20408E+02 1.99466E+01 0.00000E+00
 -1      2209 1.18557E+02 1.88656E+01 0.00000E+00
 -1      2210 7.17300E+00 4.44520E+01 0.00000E+00
 -1      2211 1.23855E+02 2.44975E+01 0.00000E+00
 -1      2212 1.24096E+02 2.64975E+01 0.00000E+00
 -1      2213 1.45665E+02 4.31193E+01 0.00000E+00
 -1      2214 1.23073E+02 2.25367E+01 0.00000E+00
 -1      2215 1.24040E+02 2.85620E+01 0.00000E+00
 -1      2216 1.22806E+02 3.22351E+01 0.00000E+00
 -1      2217 1.20183E+02 3.50070E+01 0.00000E+00
 -1      2218 1.18622E+02 3.61812E+01 0.00000E+00
 -1      2219 1.16822E+02 3.68130E+01 0.00000E+00
 -1      2220 1.14878E+02 3.69735E+01 0.00000E+00
 -1      2221 1.12908E+02 3.68388E+01 0.00000E+00
 -1      2222 1.11003E+02 3.61913E+01 0.00000E+00
 -1      2223 1.09240E+02 3.53659E+01 0.00000E+00
 -1      2224 1.06474E+02 3.25545E+01 0.00000E+00
 -1      2225 1.04933E+02 2.88625E+01 0.00000E+00
 -1      2226 1.04883E+02 2.66575E+01 0.00000E+00
 -1      2227 1.05429E+02 2.47543E+01 0.00000E+00
 -1      2228 1.06236E+02 2.27631E+01 0.00000E+00
 -1      2229 1.06021E+02 2.19245E+01 0.00000E+00
 -1      2230 1.05447E+02 2.30193E+01 0.00000E+00
 -1      2231 1.07509E+02 2.10727E+01 0.00000E+00
 -1      2232 1.10767E+02 1.85470E+01 0.00000E+00
 -1      2233 1.16666E+02 1.81028E+01 0.00000E+00
 -1      2234 1.14561E+02 1.76644E+01 0.00000E+00
 -1      2235 1.09001E+02 1.98238E+01 0.00000E+00
 -1      2236 1.07629E+02 3.42355E+01 0.00000E+00
 -1      2237 1.07850E+01 5.30525E+00 0.00000E+00
 -1      2238 9.28500E+00 5.30525E+00 0.00000E+00
 -1      2239 6.49500E+00 3.01125E+01 0.00000E+00
 -1      2240 6.49500E+00 3.15875E+01 0.00000E+00
 -1      2241 6.49500E+00 3.30625E+01 0.00000E+00
 -1      2242 6.49500E+00 3.45375E+01 0.00000E+00
 -1      2243 7.79400E+00 3.23250E+01 0.00000E+00
 -1      2244 6.49500E+00 2.42125E+01 0.00000E+00
 -1      2245 6.49500E+00 2.56875E+01 0.00000E+00
 -1      2246 6.49500E+00 2.12625E+01 0.00000E+00
 -1      2247 6.49500E+00 2.27375E+01 0.00000E+00
 -1      2248 7.79400E+00 2.34750E+01 0.00000E+00
 -1      2249 6.49500E+00 1.83625E+01 0.00000E+00
 -1      2250 6.49500E+00 1.98125E+01 0.00000E+00
 -1      2251 7.79400E+00 2.05500E+01 0.00000E+00
 -1      2252 6.49500E+00 1.54125E+01 0.00000E+00
 -1      2253 6.49500E+00 1.68875E+01 0.00000E+00
 -1      2254 7.79400E+00 1.76250E+01 0.00000E+00
 -1      2255 6.49500E+00 1.24625E+01 0.00000E+00
 -1      2256 6.49500E+00 1.39375E+01 0.00000E+00
 -1      2257 7.79400E+00 1.46750E+01 0.00000E+00
 -1      2258 6.49500E+00 9.51250E+00 0.00000E+00
 -1      2259 6.49500E+00 1.09875E+01 0.00000E+00
 -1      2260 7.79400E+00 1.17250E+01 0.00000E+00
 -1      2261 1.37850E+01 5.30525E+00 0.00000E+00
 -1      2262 1.22850E+01 5.30525E+00 0.00000E+00
 -1      2263 1.15350E+01 6.60425E+00 0.00000E+00
 -1      2264 9.90000E+00 4.35050E+01 0.00000E+00
 -1      2265 1.14000E+01 4.35050E+01 0.00000E+00
 -1      2266 1.20397E+02 1.89736E+01 0.00000E+00
 -1      2267 1.21293E+02 1.95422E+01 0.00000E+00
 -1      2268 1.29000E+01 4.35050E+01 0.00000E+00
 -1      2269 1.44000E+01 4.35050E+01 0.00000E+00
 -1      2270 1.21500E+01 4.22060E+01 0.00000E+00
 -1      2271 1.59000E+01 4.35050E+01 0.00000E+00
 -1      2272 1.74000E+01 4.35050E+01 0.00000E+00
 -1      2273 1.51500E+01 4.22060E+01 0.00000E+00
 -1      2274 1.89000E+01 4.35050E+01 0.00000E+00
 -1      2275 2.04000E+01 4.35050E+01 0.00000E+00
 -1      2276 1.81500E+01 4.22060E+01 0.00000E+00
 -1      2277 2.19000E+01 4.35050E+01 0.00000E+00
 -1      2278 2.34000E+01 4.35050E+01 0.00000E+00
 -1      2279 2.11500E+01 4.22060E+01 0.00000E+00
 -1      2280 2.49000E+01 4.35050E+01 0.00000E+00
 -1      2281 2.64000E+01 4.35050E+01 0.00000E+00
 -1      2282 2.41500E+01 4.22060E+01 0.00000E+00
 -1      2283 2.79000E+01 4.35050E+01 0.00000E+00
 -1      2284 2.94000E+01 4.35050E+01 0.00000E+00
 -1      2285 2.71500E+01 4.22060E+01 0.00000E+00
 -1      2286 3.09000E+01 4.35050E+01 0.00000E+00
 -1      2287 3.24000E+01 4.35050E+01 0.00000E+00
 -1      2288 3.01500E+01 4.22060E+01 0.00000E+00
 -1      2289 3.39000E+01 4.35050E+01 0.00000E+00
 -1      2290 3.54000E+01 4.35050E+01 0.00000E+00
 -1      2291 3.31500E+01 4.22060E+01 0.00000E+00
 -1      2292 3.69000E+01 4.35050E+01 0.00000E+00
 -1      2293 3.84000E+01 4.35050E+01 0.00000E+00
 -1      2294 3.61500E+01 4.22060E+01 0.00000E+00
 -1      2295 3.99000E+01 4.35050E+01 0.00000E+00
 -1      2296 4.14000E+01 4.35050E+01 0.00000E+00
 -1      2297 3.91500E+01 4.22060E+01 0.00000E+00
 -1      2298 4.29000E+01 4.35050E+01 0.00000E+00
 -1      2299 4.44000E+01 4.35050E+01 0.00000E+00
 -1      2300 4.21500E+01 4.22060E+01 0.00000E+00
 -1      2301 4.59000E+01 4.35050E+01 0.00000E+00
 -1      2302 4.74000E+01 4.35050E+01 0.00000E+00
 -1      2303 4.51500E+01 4.22060E+01 0.00000E+00
 -1      2304 4.89000E+01 4.35050E+01 0.00000E+00
 -1      2305 5.04000E+01 4.35050E+01 0.00000E+00
 -1      2306 4.81500E+01 4.22060E+01 0.00000E+00
 -1      2307 5.19000E+01 4.35050E+01 0.00000E+00
 -1      2308 5.34000E+01 4.35050E+01 0.00000E+00
 -1      2309 5.11500E+01 4.22060E+01 0.00000E+00
 -1      2310 5.49000E+01 4.35050E+01 0.00000E+00
 -1      2311 5.64000E+01 4.35050E+01 0.00000E+00
 -1      2312 5.41500E+01 4.22060E+01 0.00000E+00
 -1      2313 5.79000E+01 4.35050E+01 0.00000E+00
 -1      2314 5.94000E+01 4.35050E+01 0.00000E+00
 -1      2315 5.71500E+01 4.22060E+01 0.00000E+00
 -1      2316 6.09000E+01 4.35050E+01 0.00000E+00
 -1      2317 6.24000E+01 4.35050E+01 0.00000E+00
 -1      2318 6.01500E+01 4.22060E+01 0.00000E+00
 -1      2319 6.39000E+01 4.35050E+01 0.00000E+00
 -1      2320 6.54000E+01 4.35050E+01 0.00000E+00
 -1      2321 6.31500E+01 4.22060E+01 0.00000E+00
 -1      2322 6.69000E+01 4.35050E+01 0.00000E+00
 -1      2323 6.84000E+01 4.35050E+01 0.00000E+00
 -1      2324 6.61500E+01 4.22060E+01 0.00000E+00
 -1      2325 6.99000E+01 4.35050E+01 0.00000E+00
 -1      2326 7.14000E+01 4.35050E+01 0.00000E+00
 -1      2327 6.91500E+01 4.22060E+01 0.00000E+00
 -1      2328 7.29000E+01 4.35050E+01 0.00000E+00
 -1      2329 7.44000E+01 4.35050E+01 0.00000E+00
 -1      2330 7.21500E+01 4.22060E+01 0.00000E+00
 -1      2331 7.59000E+01 4.35050E+01 0.00000E+00
 -1      2332 7.74000E+01 4.35050E+01 0.00000E+00
 -1      2333 7.51500E+01 4.22060E+01 0.00000E+00
 -1      2334 7.89000E+01 4.35050E+01 0.00000E+00
 -1      2335 8.04000E+01 4.35050E+01 0.00000E+00
 -1      2336 7.81500E+01 4.22060E+01 0.00000E+00
 -1      2337 8.19000E+01 4.35050E+01 0.00000E+00
 -1      2338 8.34000E+01 4.35050E+01 0.00000E+00
 -1      2339 8.11500E+01 4.22060E+01 0.00000E+00
 -1      2340 8.49000E+01 4.35050E+01 0.00000E+00
 -1      2341 8.64000E+01 4.35050E+01 0.00000E+00
 -1      2342 8.41500E+01 4.22060E+01 0.00000E+00
 -1      2343 8.79000E+01 4.35050E+01 0.00000E+00
 -1      2344 8.94000E+01 4.35050E+01 0.00000E+00
 -1      2345 8.71500E+01 4.22060E+01 0.00000E+00
 -1      2346 9.09000E+01 4.35050E+01 0.00000E+00
 -1      2347 9.24000E+01 4.35050E+01 0.00000E+00
 -1      2348 9.01500E+01 4.22060E+01 0.00000E+00
 -1      2349 9.39000E+01 4.35050E+01 0.00000E+00
 -1      2350 9.54000E+01 4.35050E+01 0.00000E+00
 -1      2351 9.31500E+01 4.22060E+01 0.00000E+00
 -1      2352 9.69000E+01 4.35050E+01 0.00000E+00
 -1      2353 9.84000E+01 4.35050E+01 0.00000E+00
 -1      2354 9.61500E+01 4.22060E+01 0.00000E+00
 -1      2355 9.99000E+01 4.35050E+01 0.00000E+00
 -1      2356 1.01400E+02 4.35050E+01 0.00000E+00
 -1      2357 9.91500E+01 4.22060E+01 0.00000E+00
 -1      2358 1.02900E+02 4.35050E+01 0.00000E+00
 -1      2359 1.04400E+02 4.35050E+01 0.00000E+00
 -1      2360 1.02150E+02 4.22060E+01 0.00000E+00
 -1      2361 1.05900E+02 4.35050E+01 0.00000E+00
 -1      2362 1.07400E+02 4.35050E+01 0.00000E+00
 -1      2363 1.05150E+02 4.22060E+01 0.00000E+00
 -1      2364 1.08900E+02 4.35050E+01 0.00000E+00
 -1      2365 1.10400E+02 4.35050E+01 0.00000E+00
 -1      2366 1.08150E+02 4.22060E+01 0.00000E+00
 -1      2367 1.11900E+02 4.35050E+01 0.00000E+00
 -1      2368 1.13400E+02 4.35050E+01 0.00000E+00
 -1      2369 1.11150E+02 4.22060E+01 0.00000E+00
 -1      2370 1.14900E+02 4.35050E+01 0.00000E+00
 -1      2371 1.16400E+02 4.35050E+01 0.00000E+00
 -1      2372 1.14150E+02 4.22060E+01 0.00000E+00
 -1      2373 1.17900E+02 4.35050E+01 0.00000E+00
 -1      2374 1.19400E+02 4.35050E+01 0.00000E+00
 -1      2375 1.17150E+02 4.22060E+01 0.00000E+00
 -1      2376 1.20900E+02 4.35050E+01 0.00000E+00
 -1      2377 1.22400E+02 4.35050E+01 0.00000E+00
 -1      2378 1.20150E+02 4.22060E+01 0.00000E+00
 -1      2379 1.23900E+02 4.35050E+01 0.00000E+00
 -1      2380 1.25400E+02 4.35050E+01 0.00000E+00
 -1      2381 1.23150E+02 4.22060E+01 0.00000E+00
 -1      2382 1.26900E+02 4.35050E+01 0.00000E+00
 -1      2383 1.28400E+02 4.35050E+01 0.00000E+00
 -1      2384 1.26150E+02 4.22060E+01 0.00000E+00
 -1      2385 1.29900E+02 4.35050E+01 0.00000E+00
 -1      2386 1.31400E+02 4.35050E+01 0.00000E+00
 -1      2387 1.29150E+02 4.22060E+01 0.00000E+00
 -1      2388 1.32900E+02 4.35050E+01 0.00000E+00
 -1      2389 1.34400E+02 4.35050E+01 0.00000E+00
 -1      2390 1.32150E+02 4.22060E+01 0.00000E+00
 -1      2391 1.35900E+02 4.35050E+01 0.00000E+00
 -1      2392 1.37400E+02 4.35050E+01 0.00000E+00
 -1      2393 1.35150E+02 4.22060E+01 0.00000E+00
 -1      2394 1.38900E+02 4.35050E+01 0.00000E+00
 -1      2395 1.40400E+02 4.35050E+01 0.00000E+00
 -1      2396 1.38150E+02 4.22060E+01 0.00000E+00
 -1      2397 1.97850E+01 5.30525E+00 0.00000E+00
 -1      2398 1.82850E+01 5.30525E+00 0.00000E+00
 -1      2399 2.27850E+01 5.30525E+00 0.00000E+00
 -1      2400 2.12850E+01 5.30525E+00 0.00000E+00
 -1      2401 2.05350E+01 6.60425E+00 0.00000E+00
 -1      2402 2.57850E+01 5.30525E+00 0.00000E+00
 -1      2403 2.42850E+01 5.30525E+00 0.00000E+00
 -1      2404 2.35350E+01 6.60425E+00 0.00000E+00
 -1      2405 2.87850E+01 5.30525E+00 0.00000E+00
 -1      2406 2.72850E+01 5.30525E+00 0.00000E+00
 -1      2407 2.65350E+01 6.60425E+00 0.00000E+00
 -1      2408 3.17850E+01 5.30525E+00 0.00000E+00
 -1      2409 3.02850E+01 5.30525E+00 0.00000E+00
 -1      2410 2.95350E+01 6.60425E+00 0.00000E+00
 -1      2411 3.47850E+01 5.30525E+00 0.00000E+00
 -1      2412 3.32850E+01 5.30525E+00 0.00000E+00
 -1      2413 3.25350E+01 6.60425E+00 0.00000E+00
 -1      2414 3.77850E+01 5.30525E+00 0.00000E+00
 -1      2415 3.62850E+01 5.30525E+00 0.00000E+00
 -1      2416 3.55350E+01 6.60425E+00 0.00000E+00
 -1      2417 4.07850E+01 5.30525E+00 0.00000E+00
 -1      2418 3.92850E+01 5.30525E+00 0.00000E+00
 -1      2419 3.85350E+01 6.60425E+00 0.00000E+00
 -1      2420 4.37850E+01 5.30525E+00 0.00000E+00
 -1      2421 4.22850E+01 5.30525E+00 0.00000E+00
 -1      2422 4.15350E+01 6.60425E+00 0.00000E+00
 -1      2423 4.67850E+01 5.30525E+00 0.00000E+00
 -1      2424 4.52850E+01 5.30525E+00 0.00000E+00
 -1      2425 4.45350E+01 6.60425E+00 0.00000E+00
 -1      2426 4.97850E+01 5.30525E+00 0.00000E+00
 -1      2427 4.82850E+01 5.30525E+00 0.00000E+00
 -1      2428 4.75350E+01 6.60425E+00 0.00000E+00
 -1      2429 5.27850E+01 5.30525E+00 0.00000E+00
 -1      2430 5.12850E+01 5.30525E+00 0.00000E+00
 -1      2431 5.05350E+01 6.60425E+00 0.00000E+00
 -1      2432 5.57850E+01 5.30525E+00 0.00000E+00
 -1      2433 5.42850E+01 5.30525E+00 0.00000E+00
 -1      2434 5.35350E+01 6.60425E+00 0.00000E+00
 -1      2435 5.87850E+01 5.30525E+00 0.00000E+00
 -1      2436 5.72850E+01 5.30525E+00 0.00000E+00
 -1      2437 5.65350E+01 6.60425E+00 0.00000E+00
 -1      2438 6.17850E+01 5.30525E+00 0.00000E+00
 -1      2439 6.02850E+01 5.30525E+00 0.00000E+00
 -1      2440 5.95350E+01 6.60425E+00 0.00000E+00
 -1      2441 6.47850E+01 5.30525E+00 0.00000E+00
 -1      2442 6.32850E+01 5.30525E+00 0.00000E+00
 -1      2443 6.25350E+01 6.60425E+00 0.00000E+00
 -1      2444 6.77850E+01 5.30525E+00 0.00000E+00
 -1      2445 6.62850E+01 5.30525E+00 0.00000E+00
 -1      2446 6.55350E+01 6.60425E+00 0.00000E+00
 -1      2447 7.07850E+01 5.30525E+00 0.00000E+00
 -1      2448 6.92850E+01 5.30525E+00 0.00000E+00
 -1      2449 6.85350E+01 6.60425E+00 0.00000E+00
 -1      2450 7.37850E+01 5.30525E+00 0.00000E+00
 -1      2451 7.22850E+01 5.30525E+00 0.00000E+00
 -1      2452 7.15350E+01 6.60425E+00 0.00000E+00
 -1      2453 7.67850E+01 5.30525E+00 0.00000E+00
 -1      2454 7.52850E+01 5.30525E+00 0.00000E+00
 -1      2455 7.45350E+01 6.60425E+00 0.00000E+00
 -1      2456 7.97850E+01 5.30525E+00 0.00000E+00
 -1      2457 7.82850E+01 5.30525E+00 0.00000E+00
 -1      2458 7.75350E+01 6.60425E+00 0.00000E+00
 -1      2459 8.27850E+01 5.30525E+00 0.00000E+00
 -1      2460 8.12850E+01 5.30525E+00 0.00000E+00
 -1      2461 8.05350E+01 6.60425E+00 0.00000E+00
 -1      2462 8.57850E+01 5.30525E+00 0.00000E+00
 -1      2463 8.42850E+01 5.30525E+00 0.00000E+00
 -1      2464 8.35350E+01 6.60425E+00 0.00000E+00
 -1      2465 8.87850E+01 5.30525E+00 0.00000E+00
 -1      2466 8.72850E+01 5.30525E+00 0.00000E+00
 -1      2467 8.65350E+01 6.60425E+00 0.00000E+00
 -1      2468 9.17850E+01 5.30525E+00 0.00000E+00
 -1      2469 9.02850E+01 5.30525E+00 0.00000E+00
 -1      2470 8.95350E+01 6.60425E+00 0.00000E+00
 -1      2471 9.47850E+01 5.30525E+00 0.00000E+00
 -1      2472 9.32850E+01 5.30525E+00 0.00000E+00
 -1      2473 9.25350E+01 6.60425E+00 0.00000E+00
 -1      2474 9.77850E+01 5.30525E+00 0.00000E+00
 -1      2475 9.62850E+01 5.30525E+00 0.00000E+00
 -1      2476 9.55350E+01 6.60425E+00 0.00000E+00
 -1      2477 1.00785E+02 5.30525E+00 0.00000E+00
 -1      2478 9.92850E+01 5.30525E+00 0.00000E+00
 -1      2479 9.85350E+01 6.60425E+00 0.00000E+00
 -1      2480 1.03785E+02 5.30525E+00 0.00000E+00
 -1      2481 1.02285E+02 5.30525E+00 0.00000E+00
 -1      2482 1.01535E+02 6.60425E+00 0.00000E+00
 -1      2483 1.06785E+02 5.30525E+00 0.00000E+00
 -1      2484 1.05285E+02 5.30525E+00 0.00000E+00
 -1      2485 1.04535E+02 6.60425E+00 0.00000E+00
 -1      2486 1.09785E+02 5.30525E+00 0.00000E+00
 -1      2487 1.08285E+02 5.30525E+00 0.00000E+00
 -1      2488 1.07535E+02 6.60425E+00 0.00000E+00
 -1      2489 1.12785E+02 5.30525E+00 0.00000E+00
 -1      2490 1.11285E+02 5.30525E+00 0.00000E+00
 -1      2491 1.10535E+02 6.60425E+00 0.00000E+00
 -1      2492 1.15785E+02 5.30525E+00 0.00000E+00
 -1      2493 1.14285E+02 5.30525E+00 0.00000E+00
 -1      2494 1.13535E+02 6.60425E+00 0.00000E+00
 -1      2495 1.18785E+02 5.30525E+00 0.00000E+00
 -1      2496 1.17285E+02 5.30525E+00 0.00000E+00
 -1      2497 1.16535E+02 6.60425E+00 0.00000E+00
 -1      2498 1.21785E+02 5.30525E+00 0.00000E+00
 -1      2499 1.20285E+02 5.30525E+00 0.00000E+00
 -1      2500 1.19535E+02 6.60425E+00 0.00000E+00
 -1      2501 1.24785E+02 5.30525E+00 0.00000E+00
 -1      2502 1.23285E+02 5.30525E+00 0.00000E+00
 -1      2503 1.22535E+02 6.60425E+00 0.00000E+00
 -1      2504 1.27785E+02 5.30525E+00 0.00000E+00
 -1      2505 1.26285E+02 5.30525E+00 0.00000E+00
 -1      2506 1.25535E+02 6.60425E+00 0.00000E+00
 -1      2507 1.30785E+02 5.30525E+00 0.00000E+00
 -1      2508 1.29285E+02 5.30525E+00 0.00000E+00
 -1      2509 1.28535E+02 6.60425E+00 0.00000E+00
 -1      2510 1.33785E+02 5.30525E+00 0.00000E+00
 -1      2511 1.32285E+02 5.30525E+00 0.00000E+00
 -1      2512 1.31535E+02 6.60425E+00 0.00000E+00
 -1      2513 1.36785E+02 5.30525E+00 0.00000E+00
 -1      2514 1.35285E+02 5.30525E+00 0.00000E+00
 -1      2515 1.34535E+02 6.60425E+00 0.00000E+00
 -1      2516 1.39785E+02 5.30525E+00 0.00000E+00
 -1      2517 1.38285E+02 5.30525E+00 0.00000E+00
 -1      2518 1.37535E+02 6.60425E+00 0.00000E+00
 -1      2519 1.42785E+02 5.30525E+00 0.00000E+00
 -1      2520 1.41285E+02 5.30525E+00 0.00000E+00
 -1      2521 1.40535E+02 6.60425E+00 0.00000E+00
 -1      2522 1.44336E+02 5.26953E+00 0.00000E+00
 -1      2523 1.43505E+02 1.69125E+01 0.00000E+00
 -1      2524 1.43505E+02 1.54375E+01 0.00000E+00
 -1      2525 1.43505E+02 1.98625E+01 0.00000E+00
 -1      2526 1.43505E+02 1.83875E+01 0.00000E+00
 -1      2527 1.42206E+02 1.76500E+01 0.00000E+00
 -1      2528 1.43505E+02 1.10625E+01 0.00000E+00
 -1      2529 1.43505E+02 9.58750E+00 0.00000E+00
 -1      2530 1.43505E+02 1.39750E+01 0.00000E+00
 -1      2531 1.43505E+02 1.25250E+01 0.00000E+00
 -1      2532 1.42206E+02 1.17875E+01 0.00000E+00
 -1      2533 1.42206E+02 1.47125E+01 0.00000E+00
 -1      2534 1.43505E+02 2.28125E+01 0.00000E+00
 -1      2535 1.43505E+02 2.13375E+01 0.00000E+00
 -1      2536 1.42206E+02 2.06000E+01 0.00000E+00
 -1      2537 1.43505E+02 2.57625E+01 0.00000E+00
 -1      2538 1.43505E+02 2.42875E+01 0.00000E+00
 -1      2539 1.42206E+02 2.35500E+01 0.00000E+00
 -1      2540 1.43505E+02 2.87125E+01 0.00000E+00
 -1      2541 1.43505E+02 2.72375E+01 0.00000E+00
 -1      2542 1.42206E+02 2.65000E+01 0.00000E+00
 -1      2543 1.43505E+02 3.16125E+01 0.00000E+00
 -1      2544 1.43505E+02 3.01625E+01 0.00000E+00
 -1      2545 1.42206E+02 2.94250E+01 0.00000E+00
 -1      2546 1.43505E+02 3.45625E+01 0.00000E+00
 -1      2547 1.43505E+02 3.30875E+01 0.00000E+00
 -1      2548 1.42206E+02 3.23500E+01 0.00000E+00
 -1      2549 1.43505E+02 3.75125E+01 0.00000E+00
 -1      2550 1.43505E+02 3.60375E+01 0.00000E+00
 -1      2551 1.42206E+02 3.53000E+01 0.00000E+00
 -1      2552 1.43505E+02 4.04625E+01 0.00000E+00
 -1      2553 1.43505E+02 3.89875E+01 0.00000E+00
 -1      2554 1.42206E+02 3.82500E+01 0.00000E+00
 -1      2555 1.24946E+02 2.60081E+01 0.00000E+00
 -1      2556 1.24961E+02 2.69608E+01 0.00000E+00
 -1      2557 1.23672E+02 2.15479E+01 0.00000E+00
 -1      2558 1.24227E+02 2.24614E+01 0.00000E+00
 -1      2559 1.67850E+01 5.30525E+00 0.00000E+00
 -1      2560 1.52850E+01 5.30525E+00 0.00000E+00
 -1      2561 1.75350E+01 6.60425E+00 0.00000E+00
 -1      2562 1.44321E+02 4.30606E+01 0.00000E+00
 -1      2563 1.24891E+02 2.80727E+01 0.00000E+00
 -1      2564 1.24821E+02 2.91845E+01 0.00000E+00
 -1      2565 1.25741E+02 2.75833E+01 0.00000E+00
 -1      2566 1.22242E+02 2.00966E+01 0.00000E+00
 -1      2567 1.22849E+02 2.06506E+01 0.00000E+00
 -1      2568 1.23808E+02 3.22881E+01 0.00000E+00
 -1      2569 1.23077E+02 3.32017E+01 0.00000E+00
 -1      2570 1.21027E+02 3.53420E+01 0.00000E+00
 -1      2571 1.20265E+02 3.59118E+01 0.00000E+00
 -1      2572 1.04374E+02 2.96855E+01 0.00000E+00
 -1      2573 1.04011E+02 2.84873E+01 0.00000E+00
 -1      2574 1.16409E+02 1.71896E+01 0.00000E+00
 -1      2575 1.17345E+02 1.74399E+01 0.00000E+00
 -1      2576 6.49500E+00 2.71625E+01 0.00000E+00
 -1      2577 6.49500E+00 2.86375E+01 0.00000E+00
 -1      2578 7.79400E+00 2.93750E+01 0.00000E+00
 -1      2579 7.79400E+00 2.64250E+01 0.00000E+00
 -1      2580 1.14105E+02 1.67651E+01 0.00000E+00
 -1      2581 1.15275E+02 1.69531E+01 0.00000E+00
 -1      2582 1.08059E+02 1.94885E+01 0.00000E+00
 -1      2583 1.08852E+02 1.88353E+01 0.00000E+00
 -1      2584 1.11929E+02 1.69838E+01 0.00000E+00
 -1      2585 1.12754E+02 1.67604E+01 0.00000E+00
 -1      2586 1.07461E+02 3.51407E+01 0.00000E+00
 -1      2587 1.06735E+02 3.44561E+01 0.00000E+00
 -1      2588 1.09818E+02 1.81367E+01 0.00000E+00
 -1      2589 1.10792E+02 1.75130E+01 0.00000E+00
 -1      2590 1.06661E+02 2.06797E+01 0.00000E+00
 -1      2591 1.07360E+02 2.00841E+01 0.00000E+00
 -1      2592 1.07211E+02 1.90956E+01 0.00000E+00
 -1      2593 1.04563E+02 2.50078E+01 0.00000E+00
 -1      2594 1.04796E+02 2.41114E+01 0.00000E+00
 -1      2595 1.03939E+02 2.70215E+01 0.00000E+00
 -1      2596 1.04251E+02 2.60146E+01 0.00000E+00
 -1      2597 1.03619E+02 2.53717E+01 0.00000E+00
 -1      2598 1.05203E+02 3.15114E+01 0.00000E+00
 -1      2599 1.04828E+02 3.07627E+01 0.00000E+00
 -1      2600 1.06061E+02 3.35041E+01 0.00000E+00
 -1      2601 1.05632E+02 3.25078E+01 0.00000E+00
 -1      2602 1.04790E+02 3.24610E+01 0.00000E+00
 -1      2603 1.09334E+02 3.62798E+01 0.00000E+00
 -1      2604 1.08449E+02 3.58340E+01 0.00000E+00
 -1      2605 1.11152E+02 3.70529E+01 0.00000E+00
 -1      2606 1.10274E+02 3.66733E+01 0.00000E+00
 -1      2607 1.13183E+02 3.78836E+01 0.00000E+00
 -1      2608 1.12157E+02 3.76157E+01 0.00000E+00
 -1      2609 1.15470E+02 3.77561E+01 0.00000E+00
 -1      2610 1.14526E+02 3.78893E+01 0.00000E+00
 -1      2611 1.17471E+02 3.77014E+01 0.00000E+00
 -1      2612 1.16470E+02 3.77287E+01 0.00000E+00
 -1      2613 1.16118E+02 3.86445E+01 0.00000E+00
 -1      2614 1.19466E+02 3.65162E+01 0.00000E+00
 -1      2615 1.18668E+02 3.71206E+01 0.00000E+00
 -1      2616 1.20311E+02 3.68512E+01 0.00000E+00
 -1      2617 1.22343E+02 3.39532E+01 0.00000E+00
 -1      2618 1.21778E+02 3.45975E+01 0.00000E+00
 -1      2619 1.18485E+02 1.78537E+01 0.00000E+00
 -1      2620 1.19440E+02 1.83661E+01 0.00000E+00
 -1      2621 1.24570E+02 3.02718E+01 0.00000E+00
 -1      2622 1.24353E+02 3.10956E+01 0.00000E+00
 -1      2623 6.55950E+00 4.28890E+01 0.00000E+00
 -1      2624 8.53650E+00 4.32410E+01 0.00000E+00
 -1      2625 9.28650E+00 4.19420E+01 0.00000E+00
 -1      2626 6.55950E+00 4.14140E+01 0.00000E+00
 -1      2627 8.07525E+00 5.11044E+00 0.00000E+00
 -1      2628 6.57525E+00 5.11044E+00 0.00000E+00
 -1      2629 6.40575E+00 6.01981E+00 0.00000E+00
 -1      2630 8.82525E+00 6.40944E+00 0.00000E+00
 -1      2631 1.24498E+02 2.38102E+01 0.00000E+00
 -1      2632 1.24724E+02 2.48575E+01 0.00000E+00
 -1      2633 1.15953E+02 1.62903E+01 0.00000E+00
 -1      2634 7.79400E+00 3.52687E+01 0.00000E+00
 -1      2635 6.49500E+00 3.60062E+01 0.00000E+00
 -1      2636 6.49500E+00 3.74750E+01 0.00000E+00
 -1      2637 1.45350E+01 6.60425E+00 0.00000E+00
 -1      2638 6.40575E+00 7.49481E+00 0.00000E+00
 -1      2639 1.25097E+02 2.28214E+01 0.00000E+00
 -1      2640 6.52725E+00 3.87101E+01 0.00000E+00
 -1      2641 6.52725E+00 4.01789E+01 0.00000E+00
 -1      2642 7.89075E+00 4.04429E+01 0.00000E+00
 -1      2643 7.82625E+00 3.79726E+01 0.00000E+00
 -1      2644 1.22231E+02 1.91237E+01 0.00000E+00
 -1      2645 1.25420E+02 2.97825E+01 0.00000E+00
 -1      2646 1.18228E+02 1.69405E+01 0.00000E+00
 -1      2647 1.18315E+02 3.80364E+01 0.00000E+00
 -1      2648 1.43586E+02 6.56853E+00 0.00000E+00
 -1      2649 1.24003E+02 2.05754E+01 0.00000E+00
 -1      2650 1.43419E+02 7.72713E+00 0.00000E+00
 -1      2651 1.42120E+02 8.46463E+00 0.00000E+00
 -1      2652 1.25589E+02 2.53208E+01 0.00000E+00
 -1      2653 1.13775E+02 3.86661E+01 0.00000E+00
 -1      2654 1.11427E+02 3.80977E+01 0.00000E+00
 -1      2655 7.70475E+00 8.23231E+00 0.00000E+00
 -1      2656 1.24625E+02 3.20622E+01 0.00000E+00
 -1      2657 1.05893E+02 3.44093E+01 0.00000E+00
 -1      2658 1.23345E+02 3.40062E+01 0.00000E+00
 -1      2659 1.21860E+02 3.55022E+01 0.00000E+00
 -1      2660 1.03379E+02 2.78444E+01 0.00000E+00
 -1      2661 1.02747E+02 2.72016E+01 0.00000E+00
 -1      2662 1.02819E+02 2.86674E+01 0.00000E+00
 -1      2663 1.05872E+02 2.09359E+01 0.00000E+00
 -1      2664 1.05724E+02 1.99474E+01 0.00000E+00
 -1      2665 1.05083E+02 2.11922E+01 0.00000E+00
 -1      2666 1.08876E+02 1.78014E+01 0.00000E+00
 -1      2667 1.07556E+02 3.60546E+01 0.00000E+00
 -1      2668 1.10980E+02 1.65736E+01 0.00000E+00
 -1      2669 1.03906E+02 3.03875E+01 0.00000E+00
 -1      2670 1.04581E+02 2.32728E+01 0.00000E+00
 -1      2671 1.04367E+02 2.24342E+01 0.00000E+00
 -1      2672 1.03716E+02 2.35263E+01 0.00000E+00
 -1      2673 1.20325E+02 1.79617E+01 0.00000E+00
 -1      2674 1.13469E+02 1.60491E+01 0.00000E+00
 -1      2675 1.42758E+02 4.35929E+01 0.00000E+00
 -1      2676 1.43241E+02 4.17323E+01 0.00000E+00
 -1      2677 1.41942E+02 4.09948E+01 0.00000E+00
 -1      2678 1.41414E+02 4.35342E+01 0.00000E+00
 -1      2679 1.09483E+02 3.71414E+01 0.00000E+00
 -1      2680 1.40664E+02 4.22352E+01 0.00000E+00
 -1      2681 9.09300E+00 1.98250E+01 0.00000E+00
 -1      2682 9.09300E+00 2.12750E+01 0.00000E+00
 -1      2683 9.09300E+00 2.27500E+01 0.00000E+00
 -1      2684 9.09300E+00 2.42250E+01 0.00000E+00
 -1      2685 1.03920E+01 2.20250E+01 0.00000E+00
 -1      2686 9.09300E+00 1.39375E+01 0.00000E+00
 -1      2687 9.09300E+00 1.54125E+01 0.00000E+00
 -1      2688 9.09300E+00 1.09875E+01 0.00000E+00
 -1      2689 9.09300E+00 1.24625E+01 0.00000E+00
 -1      2690 1.03920E+01 1.32000E+01 0.00000E+00
 -1      2691 1.22850E+01 7.90325E+00 0.00000E+00
 -1      2692 1.07850E+01 7.90325E+00 0.00000E+00
 -1      2693 1.25677E+02 3.18225E+01 0.00000E+00
 -1      2694 1.25132E+02 3.30149E+01 0.00000E+00
 -1      2695 8.91450E+00 8.42712E+00 0.00000E+00
 -1      2696 1.17950E+02 1.59275E+01 0.00000E+00
 -1      2697 1.19090E+02 1.63413E+01 0.00000E+00
 -1      2698 1.44000E+01 4.09070E+01 0.00000E+00
 -1      2699 1.59000E+01 4.09070E+01 0.00000E+00
 -1      2700 1.74000E+01 4.09070E+01 0.00000E+00
 -1      2701 1.89000E+01 4.09070E+01 0.00000E+00
 -1      2702 1.66500E+01 3.96080E+01 0.00000E+00
 -1      2703 2.04000E+01 4.09070E+01 0.00000E+00
 -1      2704 2.19000E+01 4.09070E+01 0.00000E+00
 -1      2705 1.96500E+01 3.96080E+01 0.00000E+00
 -1      2706 2.34000E+01 4.09070E+01 0.00000E+00
 -1      2707 2.49000E+01 4.09070E+01 0.00000E+00
 -1      2708 2.26500E+01 3.96080E+01 0.00000E+00
 -1      2709 2.64000E+01 4.09070E+01 0.00000E+00
 -1      2710 2.79000E+01 4.09070E+01 0.00000E+00
 -1      2711 2.56500E+01 3.96080E+01 0.00000E+00
 -1      2712 2.94000E+01 4.09070E+01 0.00000E+00
 -1      2713 3.09000E+01 4.09070E+01 0.00000E+00
 -1      2714 2.86500E+01 3.96080E+01 0.00000E+00
 -1      2715 3.24000E+01 4.09070E+01 0.00000E+00
 -1      2716 3.39000E+01 4.09070E+01 0.00000E+00
 -1      2717 3.16500E+01 3.96080E+01 0.00000E+00
 -1      2718 3.54000E+01 4.09070E+01 0.00000E+00
 -1      2719 3.69000E+01 4.09070E+01 0.00000E+00
 -1      2720 3.46500E+01 3.96080E+01 0.00000E+00
 -1      2721 3.84000E+01 4.09070E+01 0.00000E+00
 -1      2722 3.99000E+01 4.09070E+01 0.00000E+00
 -1      2723 3.76500E+01 3.96080E+01 0.00000E+00
 -1      2724 4.14000E+01 4.09070E+01 0.00000E+00
 -1      2725 4.29000E+01 4.09070E+01 0.00000E+00
 -1      2726 4.06500E+01 3.96080E+01 0.00000E+00
 -1      2727 4.44000E+01 4.09070E+01 0.00000E+00
 -1      2728 4.59000E+01 4.09070E+01 0.00000E+00
 -1      2729 4.36500E+01 3.96080E+01 0.00000E+00
 -1      2730 4.74000E+01 4.09070E+01 0.00000E+00
 -1      2731 4.89000E+01 4.09070E+01 0.00000E+00
 -1      2732 4.66500E+01 3.96080E+01 0.00000E+00
 -1      2733 5.04000E+01 4.09070E+01 0.00000E+00
 -1      2734 5.19000E+01 4.09070E+01 0.00000E+00
 -1      2735 4.96500E+01 3.96080E+01 0.00000E+00
 -1      2736 5.34000E+01 4.09070E+01 0.00000E+00
 -1      2737 5.49000E+01 4.09070E+01 0.00000E+00
 -1      2738 5.26500E+01 3.96080E+01 0.00000E+00
 -1      2739 5.64000E+01 4.09070E+01 0.00000E+00
 -1      2740 5.79000E+01 4.09070E+01 0.00000E+00
 -1      2741 5.56500E+01 3.96080E+01 0.00000E+00
 -1      2742 5.94000E+01 4.09070E+01 0.00000E+00
 -1      2743 6.09000E+01 4.09070E+01 0.00000E+00
 -1      2744 5.86500E+01 3.96080E+01 0.00000E+00
 -1      2745 6.24000E+01 4.09070E+01 0.00000E+00
 -1      2746 6.39000E+01 4.09070E+01 0.00000E+00
 -1      2747 6.16500E+01 3.96080E+01 0.00000E+00
 -1      2748 6.54000E+01 4.09070E+01 0.00000E+00
 -1      2749 6.69000E+01 4.09070E+01 0.00000E+00
 -1      2750 6.46500E+01 3.96080E+01 0.00000E+00
 -1      2751 6.84000E+01 4.09070E+01 0.00000E+00
 -1      2752 6.99000E+01 4.09070E+01 0.00000E+00
 -1      2753 6.76500E+01 3.96080E+01 0.00000E+00
 -1      2754 7.14000E+01 4.09070E+01 0.00000E+00
 -1      2755 7.29000E+01 4.09070E+01 0.00000E+00
 -1      2756 7.06500E+01 3.96080E+01 0.00000E+00
 -1      2757 7.44000E+01 4.09070E+01 0.00000E+00
 -1      2758 7.59000E+01 4.09070E+01 0.00000E+00
 -1      2759 7.36500E+01 3.96080E+01 0.00000E+00
 -1      2760 7.74000E+01 4.09070E+01 0.00000E+00
 -1      2761 7.89000E+01 4.09070E+01 0.00000E+00
 -1      2762 7.66500E+01 3.96080E+01 0.00000E+00
 -1      2763 8.04000E+01 4.09070E+01 0.00000E+00
 -1      2764 8.19000E+01 4.09070E+01 0.00000E+00
 -1      2765 7.96500E+01 3.96080E+01 0.00000E+00
 -1      2766 8.34000E+01 4.09070E+01 0.00000E+00
 -1      2767 8.49000E+01 4.09070E+01 0.00000E+00
 -1      2768 8.26500E+01 3.96080E+01 0.00000E+00
 -1      2769 8.64000E+01 4.09070E+01 0.00000E+00
 -1      2770 8.79000E+01 4.09070E+01 0.00000E+00
 -1      2771 8.56500E+01 3.96080E+01 0.00000E+00
 -1      2772 8.94000E+01 4.09070E+01 0.00000E+00
 -1      2773 9.09000E+01 4.09070E+01 0.00000E+00
 -1      2774 8.86500E+01 3.96080E+01 0.00000E+00
 -1      2775 9.24000E+01 4.09070E+01 0.00000E+00
 -1      2776 9.39000E+01 4.09070E+01 0.00000E+00
 -1      2777 9.16500E+01 3.96080E+01 0.00000E+00
 -1      2778 9.54000E+01 4.09070E+01 0.00000E+00
 -1      2779 9.69000E+01 4.09070E+01 0.00000E+00
 -1      2780 9.46500E+01 3.96080E+01 0.00000E+00
 -1      2781 9.84000E+01 4.09070E+01 0.00000E+00
 -1      2782 9.99000E+01 4.09070E+01 0.00000E+00
 -1      2783 9.76500E+01 3.96080E+01 0.00000E+00
 -1      2784 1.01400E+02 4.09070E+01 0.00000E+00
 -1      2785 1.02900E+02 4.09070E+01 0.00000E+00
 -1      2786 1.00650E+02 3.96080E+01 0.00000E+00
 -1      2787 1.04400E+02 4.09070E+01 0.00000E+00
 -1      2788 1.05900E+02 4.09070E+01 0.00000E+00
 -1      2789 1.03650E+02 3.96080E+01 0.00000E+00
 -1      2790 1.10400E+02 4.11809E+01 0.00000E+00
 -1      2791 1.11900E+02 4.11809E+01 0.00000E+00
 -1      2792 1.13884E+02 4.04389E+01 0.00000E+00
 -1      2793 1.15384E+02 4.04389E+01 0.00000E+00
 -1      2794 1.19400E+02 4.09295E+01 0.00000E+00
 -1      2795 1.20900E+02 4.09295E+01 0.00000E+00
 -1      2796 1.22400E+02 4.09295E+01 0.00000E+00
 -1      2797 1.23900E+02 4.09295E+01 0.00000E+00
 -1      2798 1.21650E+02 3.96530E+01 0.00000E+00
 -1      2799 1.25400E+02 4.09295E+01 0.00000E+00
 -1      2800 1.26900E+02 4.09295E+01 0.00000E+00
 -1      2801 1.24650E+02 3.96530E+01 0.00000E+00
 -1      2802 1.28400E+02 4.09295E+01 0.00000E+00
 -1      2803 1.29900E+02 4.09295E+01 0.00000E+00
 -1      2804 1.27650E+02 3.96530E+01 0.00000E+00
 -1      2805 1.31400E+02 4.09295E+01 0.00000E+00
 -1      2806 1.32900E+02 4.09295E+01 0.00000E+00
 -1      2807 1.30650E+02 3.96530E+01 0.00000E+00
 -1      2808 1.34400E+02 4.09295E+01 0.00000E+00
 -1      2809 1.35900E+02 4.09295E+01 0.00000E+00
 -1      2810 1.33650E+02 3.96530E+01 0.00000E+00
 -1      2811 1.37400E+02 4.09295E+01 0.00000E+00
 -1      2812 1.38900E+02 4.09295E+01 0.00000E+00
 -1      2813 1.36650E+02 3.96530E+01 0.00000E+00
 -1      2814 2.42850E+01 7.90325E+00 0.00000E+00
 -1      2815 2.27850E+01 7.90325E+00 0.00000E+00
 -1      2816 1.09638E+02 3.80905E+01 0.00000E+00
 -1      2817 1.08698E+02 3.76970E+01 0.00000E+00
 -1      2818 2.12850E+01 7.90325E+00 0.00000E+00
 -1      2819 1.97850E+01 7.90325E+00 0.00000E+00
 -1      2820 2.20350E+01 9.20225E+00 0.00000E+00
 -1      2821 3.02850E+01 7.90325E+00 0.00000E+00
 -1      2822 2.87850E+01 7.90325E+00 0.00000E+00
 -1      2823 3.32850E+01 7.90325E+00 0.00000E+00
 -1      2824 3.17850E+01 7.90325E+00 0.00000E+00
 -1      2825 3.10350E+01 9.20225E+00 0.00000E+00
 -1      2826 3.62850E+01 7.90325E+00 0.00000E+00
 -1      2827 3.47850E+01 7.90325E+00 0.00000E+00
 -1      2828 3.40350E+01 9.20225E+00 0.00000E+00
 -1      2829 3.92850E+01 7.90325E+00 0.00000E+00
 -1      2830 3.77850E+01 7.90325E+00 0.00000E+00
 -1      2831 3.70350E+01 9.20225E+00 0.00000E+00
 -1      2832 4.22850E+01 7.90325E+00 0.00000E+00
 -1      2833 4.07850E+01 7.90325E+00 0.00000E+00
 -1      2834 4.00350E+01 9.20225E+00 0.00000E+00
 -1      2835 4.52850E+01 7.90325E+00 0.00000E+00
 -1      2836 4.37850E+01 7.90325E+00 0.00000E+00
 -1      2837 4.30350E+01 9.20225E+00 0.00000E+00
 -1      2838 4.82850E+01 7.90325E+00 0.00000E+00
 -1      2839 4.67850E+01 7.90325E+00 0.00000E+00
 -1      2840 4.60350E+01 9.20225E+00 0.00000E+00
 -1      2841 5.12850E+01 7.90325E+00 0.00000E+00
 -1      2842 4.97850E+01 7.90325E+00 0.00000E+00
 -1      2843 4.90350E+01 9.20225E+00 0.00000E+00
 -1      2844 5.42850E+01 7.90325E+00 0.00000E+00
 -1      2845 5.27850E+01 7.90325E+00 0.00000E+00
 -1      2846 5.20350E+01 9.20225E+00 0.00000E+00
 -1      2847 5.72850E+01 7.90325E+00 0.00000E+00
 -1      2848 5.57850E+01 7.90325E+00 0.00000E+00
 -1      2849 5.50350E+01 9.20225E+00 0.00000E+00
 -1      2850 6.02850E+01 7.90325E+00 0.00000E+00
 -1      2851 5.87850E+01 7.90325E+00 0.00000E+00
 -1      2852 5.80350E+01 9.20225E+00 0.00000E+00
 -1      2853 6.32850E+01 7.90325E+00 0.00000E+00
 -1      2854 6.17850E+01 7.90325E+00 0.00000E+00
 -1      2855 6.10350E+01 9.20225E+00 0.00000E+00
 -1      2856 6.62850E+01 7.90325E+00 0.00000E+00
 -1      2857 6.47850E+01 7.90325E+00 0.00000E+00
 -1      2858 6.40350E+01 9.20225E+00 0.00000E+00
 -1      2859 6.92850E+01 7.90325E+00 0.00000E+00
 -1      2860 6.77850E+01 7.90325E+00 0.00000E+00
 -1      2861 6.70350E+01 9.20225E+00 0.00000E+00
 -1      2862 7.22850E+01 7.90325E+00 0.00000E+00
 -1      2863 7.07850E+01 7.90325E+00 0.00000E+00
 -1      2864 7.00350E+01 9.20225E+00 0.00000E+00
 -1      2865 7.52850E+01 7.90325E+00 0.00000E+00
 -1      2866 7.37850E+01 7.90325E+00 0.00000E+00
 -1      2867 7.30350E+01 9.20225E+00 0.00000E+00
 -1      2868 7.82850E+01 7.90325E+00 0.00000E+00
 -1      2869 7.67850E+01 7.90325E+00 0.00000E+00
 -1      2870 7.60350E+01 9.20225E+00 0.00000E+00
 -1      2871 8.12850E+01 7.90325E+00 0.00000E+00
 -1      2872 7.97850E+01 7.90325E+00 0.00000E+00
 -1      2873 7.90350E+01 9.20225E+00 0.00000E+00
 -1      2874 8.42850E+01 7.90325E+00 0.00000E+00
 -1      2875 8.27850E+01 7.90325E+00 0.00000E+00
 -1      2876 8.20350E+01 9.20225E+00 0.00000E+00
 -1      2877 8.72850E+01 7.90325E+00 0.00000E+00
 -1      2878 8.57850E+01 7.90325E+00 0.00000E+00
 -1      2879 8.50350E+01 9.20225E+00 0.00000E+00
 -1      2880 9.02850E+01 7.90325E+00 0.00000E+00
 -1      2881 8.87850E+01 7.90325E+00 0.00000E+00
 -1      2882 8.80350E+01 9.20225E+00 0.00000E+00
 -1      2883 9.32850E+01 7.90325E+00 0.00000E+00
 -1      2884 9.17850E+01 7.90325E+00 0.00000E+00
 -1      2885 9.10350E+01 9.20225E+00 0.00000E+00
 -1      2886 9.62850E+01 7.90325E+00 0.00000E+00
 -1      2887 9.47850E+01 7.90325E+00 0.00000E+00
 -1      2888 9.40350E+01 9.20225E+00 0.00000E+00
 -1      2889 9.92850E+01 7.90325E+00 0.00000E+00
 -1      2890 9.77850E+01 7.90325E+00 0.00000E+00
 -1      2891 9.70350E+01 9.20225E+00 0.00000E+00
 -1      2892 1.02285E+02 7.90325E+00 0.00000E+00
 -1      2893 1.00785E+02 7.90325E+00 0.00000E+00
 -1      2894 1.00035E+02 9.20225E+00 0.00000E+00
 -1      2895 1.05285E+02 7.90325E+00 0.00000E+00
 -1      2896 1.03785E+02 7.90325E+00 0.00000E+00
 -1      2897 1.03035E+02 9.20225E+00 0.00000E+00
 -1      2898 1.08285E+02 7.90325E+00 0.00000E+00
 -1      2899 1.06785E+02 7.90325E+00 0.00000E+00
 -1      2900 1.06035E+02 9.20225E+00 0.00000E+00
 -1      2901 1.11285E+02 7.90325E+00 0.00000E+00
 -1      2902 1.09785E+02 7.90325E+00 0.00000E+00
 -1      2903 1.09035E+02 9.20225E+00 0.00000E+00
 -1      2904 1.14285E+02 7.90325E+00 0.00000E+00
 -1      2905 1.12785E+02 7.90325E+00 0.00000E+00
 -1      2906 1.12035E+02 9.20225E+00 0.00000E+00
 -1      2907 1.17285E+02 7.90325E+00 0.00000E+00
 -1      2908 1.15785E+02 7.90325E+00 0.00000E+00
 -1      2909 1.15035E+02 9.20225E+00 0.00000E+00
 -1      2910 1.20285E+02 7.90325E+00 0.00000E+00
 -1      2911 1.18785E+02 7.90325E+00 0.00000E+00
 -1      2912 1.18035E+02 9.20225E+00 0.00000E+00
 -1      2913 1.23285E+02 7.90325E+00 0.00000E+00
 -1      2914 1.21785E+02 7.90325E+00 0.00000E+00
 -1      2915 1.21035E+02 9.20225E+00 0.00000E+00
 -1      2916 1.26285E+02 7.90325E+00 0.00000E+00
 -1      2917 1.24785E+02 7.90325E+00 0.00000E+00
 -1      2918 1.24035E+02 9.20225E+00 0.00000E+00
 -1      2919 1.29285E+02 7.90325E+00 0.00000E+00
 -1      2920 1.27785E+02 7.90325E+00 0.00000E+00
 -1      2921 1.27035E+02 9.20225E+00 0.00000E+00
 -1      2922 1.32285E+02 7.90325E+00 0.00000E+00
 -1      2923 1.30785E+02 7.90325E+00 0.00000E+00
 -1      2924 1.30035E+02 9.20225E+00 0.00000E+00
 -1      2925 1.35285E+02 7.90325E+00 0.00000E+00
 -1      2926 1.33785E+02 7.90325E+00 0.00000E+00
 -1      2927 1.33035E+02 9.20225E+00 0.00000E+00
 -1      2928 1.38285E+02 7.90325E+00 0.00000E+00
 -1      2929 1.36785E+02 7.90325E+00 0.00000E+00
 -1      2930 1.36035E+02 9.20225E+00 0.00000E+00
 -1      2931 1.40953E+02 8.18394E+00 0.00000E+00
 -1      2932 1.39453E+02 8.18394E+00 0.00000E+00
 -1      2933 1.38703E+02 9.48294E+00 0.00000E+00
 -1      2934 1.41038E+02 1.00443E+01 0.00000E+00
 -1      2935 1.24409E+02 1.93772E+01 0.00000E+00
 -1      2936 1.25232E+02 2.02745E+01 0.00000E+00
 -1      2937 1.40907E+02 2.42875E+01 0.00000E+00
 -1      2938 1.40907E+02 2.28125E+01 0.00000E+00
 -1      2939 1.26279E+02 2.45911E+01 0.00000E+00
 -1      2940 1.26501E+02 2.57417E+01 0.00000E+00
 -1      2941 1.40907E+02 1.83875E+01 0.00000E+00
 -1      2942 1.40907E+02 1.69125E+01 0.00000E+00
 -1      2943 1.40907E+02 2.72375E+01 0.00000E+00
 -1      2944 1.40907E+02 2.57625E+01 0.00000E+00
 -1      2945 1.39608E+02 2.50250E+01 0.00000E+00
 -1      2946 1.40907E+02 2.13375E+01 0.00000E+00
 -1      2947 1.40907E+02 1.98625E+01 0.00000E+00
 -1      2948 1.39608E+02 1.91250E+01 0.00000E+00
 -1      2949 1.39608E+02 2.20750E+01 0.00000E+00
 -1      2950 1.40907E+02 3.01375E+01 0.00000E+00
 -1      2951 1.40907E+02 2.86875E+01 0.00000E+00
 -1      2952 1.39608E+02 2.79500E+01 0.00000E+00
 -1      2953 1.40907E+02 3.30875E+01 0.00000E+00
 -1      2954 1.40907E+02 3.16125E+01 0.00000E+00
 -1      2955 1.39608E+02 3.08750E+01 0.00000E+00
 -1      2956 1.40907E+02 3.60375E+01 0.00000E+00
 -1      2957 1.40907E+02 3.45625E+01 0.00000E+00
 -1      2958 1.39608E+02 3.38250E+01 0.00000E+00
 -1      2959 1.26715E+02 2.70865E+01 0.00000E+00
 -1      2960 1.26645E+02 2.81984E+01 0.00000E+00
 -1      2961 1.26299E+02 2.94126E+01 0.00000E+00
 -1      2962 1.26049E+02 3.04999E+01 0.00000E+00
 -1      2963 1.22274E+02 1.79613E+01 0.00000E+00
 -1      2964 1.23223E+02 1.85158E+01 0.00000E+00
 -1      2965 1.19270E+02 3.84798E+01 0.00000E+00
 -1      2966 1.18073E+02 3.90605E+01 0.00000E+00
 -1      2967 1.82850E+01 7.90325E+00 0.00000E+00
 -1      2968 1.67850E+01 7.90325E+00 0.00000E+00
 -1      2969 1.90350E+01 9.20225E+00 0.00000E+00
 -1      2970 2.72850E+01 7.90325E+00 0.00000E+00
 -1      2971 2.57850E+01 7.90325E+00 0.00000E+00
 -1      2972 2.50350E+01 9.20225E+00 0.00000E+00
 -1      2973 2.80350E+01 9.20225E+00 0.00000E+00
 -1      2974 1.14000E+01 4.09070E+01 0.00000E+00
 -1      2975 1.29000E+01 4.09070E+01 0.00000E+00
 -1      2976 1.36500E+01 3.96080E+01 0.00000E+00
 -1      2977 1.20359E+02 1.67464E+01 0.00000E+00
 -1      2978 1.21317E+02 1.73538E+01 0.00000E+00
 -1      2979 1.22308E+02 1.67459E+01 0.00000E+00
 -1      2980 1.26048E+02 2.19288E+01 0.00000E+00
 -1      2981 1.26319E+02 2.32776E+01 0.00000E+00
 -1      2982 1.52850E+01 7.90325E+00 0.00000E+00
 -1      2983 1.37850E+01 7.90325E+00 0.00000E+00
 -1      2984 1.30350E+01 9.20225E+00 0.00000E+00
 -1      2985 1.60350E+01 9.20225E+00 0.00000E+00
 -1      2986 9.09300E+00 1.68813E+01 0.00000E+00
 -1      2987 9.09300E+00 1.83563E+01 0.00000E+00
 -1      2988 1.03920E+01 1.90812E+01 0.00000E+00
 -1      2989 1.03920E+01 1.61437E+01 0.00000E+00
 -1      2990 9.09300E+00 3.15875E+01 0.00000E+00
 -1      2991 9.09300E+00 3.30625E+01 0.00000E+00
 -1      2992 1.07557E+02 3.71032E+01 0.00000E+00
 -1      2993 1.06569E+02 3.64100E+01 0.00000E+00
 -1      2994 1.24326E+02 3.42297E+01 0.00000E+00
 -1      2995 1.23591E+02 3.49812E+01 0.00000E+00
 -1      2996 1.40928E+02 4.09655E+01 0.00000E+00
 -1      2997 1.41192E+02 3.96958E+01 0.00000E+00
 -1      2998 1.39914E+02 4.09362E+01 0.00000E+00
 -1      2999 1.03382E+02 3.12432E+01 0.00000E+00
 -1      3000 1.02928E+02 3.01661E+01 0.00000E+00
 -1      3001 1.06251E+02 1.86769E+01 0.00000E+00
 -1      3002 1.06950E+02 1.80813E+01 0.00000E+00
 -1      3003 1.07916E+02 1.73827E+01 0.00000E+00
 -1      3004 1.08882E+02 1.66841E+01 0.00000E+00
 -1      3005 1.06956E+02 1.69640E+01 0.00000E+00
 -1      3006 1.02683E+02 2.56336E+01 0.00000E+00
 -1      3007 1.02996E+02 2.46267E+01 0.00000E+00
 -1      3008 1.10014E+02 1.59846E+01 0.00000E+00
 -1      3009 1.11152E+02 1.54554E+01 0.00000E+00
 -1      3010 1.04140E+02 3.33316E+01 0.00000E+00
 -1      3011 1.03711E+02 3.23352E+01 0.00000E+00
 -1      3012 1.11791E+02 3.94081E+01 0.00000E+00
 -1      3013 1.10786E+02 3.88454E+01 0.00000E+00
 -1      3014 1.21278E+02 3.72996E+01 0.00000E+00
 -1      3015 1.20479E+02 3.79040E+01 0.00000E+00
 -1      3016 1.22841E+02 3.57258E+01 0.00000E+00
 -1      3017 1.22090E+02 3.64703E+01 0.00000E+00
 -1      3018 1.23821E+02 3.59493E+01 0.00000E+00
 -1      3019 1.12796E+02 1.51054E+01 0.00000E+00
 -1      3020 1.14147E+02 1.51101E+01 0.00000E+00
 -1      3021 1.05394E+02 3.54777E+01 0.00000E+00
 -1      3022 1.04720E+02 3.45257E+01 0.00000E+00
 -1      3023 8.96362E+00 4.05429E+01 0.00000E+00
 -1      3024 1.03271E+01 4.08069E+01 0.00000E+00
 -1      3025 1.10771E+01 3.95079E+01 0.00000E+00
 -1      3026 8.93137E+00 3.93078E+01 0.00000E+00
 -1      3027 1.15562E+02 1.53326E+01 0.00000E+00
 -1      3028 1.16695E+02 1.55691E+01 0.00000E+00
 -1      3029 9.09300E+00 3.45313E+01 0.00000E+00
 -1      3030 9.09300E+00 3.60000E+01 0.00000E+00
 -1      3031 1.03920E+01 3.37938E+01 0.00000E+00
 -1      3032 1.03920E+01 2.49750E+01 0.00000E+00
 -1      3033 9.09300E+00 2.57000E+01 0.00000E+00
 -1      3034 9.09300E+00 2.71750E+01 0.00000E+00
 -1      3035 1.25378E+02 3.39900E+01 0.00000E+00
 -1      3036 9.66450E+00 9.72612E+00 0.00000E+00
 -1      3037 1.05395E+02 3.65263E+01 0.00000E+00
 -1      3038 1.17558E+02 1.49698E+01 0.00000E+00
 -1      3039 1.22258E+02 3.75231E+01 0.00000E+00
 -1      3040 1.03641E+02 3.43999E+01 0.00000E+00
 -1      3041 1.07001E+02 3.91270E+01 0.00000E+00
 -1      3042 1.07751E+02 4.04260E+01 0.00000E+00
 -1      3043 1.09251E+02 4.04260E+01 0.00000E+00
 -1      3044 1.10001E+02 3.94009E+01 0.00000E+00
 -1      3045 1.16347E+02 3.93902E+01 0.00000E+00
 -1      3046 1.16613E+02 4.11573E+01 0.00000E+00
 -1      3047 1.39164E+02 3.96598E+01 0.00000E+00
 -1      3048 1.18113E+02 4.11573E+01 0.00000E+00
 -1      3049 1.14889E+02 1.43889E+01 0.00000E+00
 -1      3050 1.07712E+02 3.80523E+01 0.00000E+00
 -1      3051 1.09054E+02 1.55659E+01 0.00000E+00
 -1      3052 1.24451E+02 1.82149E+01 0.00000E+00
 -1      3053 1.41038E+02 1.15068E+01 0.00000E+00
 -1      3054 1.39870E+02 1.12261E+01 0.00000E+00
 -1      3055 1.41038E+02 1.29693E+01 0.00000E+00
 -1      3056 1.27405E+02 2.63568E+01 0.00000E+00
 -1      3057 1.27274E+02 2.89158E+01 0.00000E+00
 -1      3058 1.05462E+02 1.89331E+01 0.00000E+00
 -1      3059 1.05201E+02 1.79189E+01 0.00000E+00
 -1      3060 1.04674E+02 1.91894E+01 0.00000E+00
 -1      3061 1.26860E+02 1.95325E+01 0.00000E+00
 -1      3062 1.26454E+02 2.07306E+01 0.00000E+00
 -1      3063 1.27677E+02 2.11868E+01 0.00000E+00
 -1      3064 1.41192E+02 3.82207E+01 0.00000E+00
 -1      3065 1.09635E+01 1.04636E+01 0.00000E+00
 -1      3066 1.27231E+02 2.36985E+01 0.00000E+00
 -1      3067 1.26556E+02 3.14526E+01 0.00000E+00
 -1      3068 1.02295E+02 2.95232E+01 0.00000E+00
 -1      3069 1.01663E+02 2.88803E+01 0.00000E+00
 -1      3070 1.01771E+02 3.03790E+01 0.00000E+00
 -1      3071 1.04218E+02 2.14457E+01 0.00000E+00
 -1      3072 1.04069E+02 2.04571E+01 0.00000E+00
 -1      3073 1.03353E+02 2.16992E+01 0.00000E+00
 -1      3074 1.12541E+02 4.04332E+01 0.00000E+00
 -1      3075 1.18302E+02 3.98062E+01 0.00000E+00
 -1      3076 1.17348E+02 3.93628E+01 0.00000E+00
 -1      3077 1.02781E+02 2.37881E+01 0.00000E+00
 -1      3078 1.02566E+02 2.29495E+01 0.00000E+00
 -1      3079 1.01846E+02 2.40500E+01 0.00000E+00
 -1      3080 1.01564E+02 2.72795E+01 0.00000E+00
 -1      3081 1.02124E+02 2.64565E+01 0.00000E+00
 -1      3082 1.01501E+02 2.57115E+01 0.00000E+00
 -1      3083 1.40973E+02 1.56722E+01 0.00000E+00
 -1      3084 1.40973E+02 1.42097E+01 0.00000E+00
 -1      3085 1.39805E+02 1.39290E+01 0.00000E+00
 -1      3086 1.39674E+02 1.64097E+01 0.00000E+00
 -1      3087 1.20082E+02 1.57334E+01 0.00000E+00
 -1      3088 9.09300E+00 2.86437E+01 0.00000E+00
 -1      3089 9.09300E+00 3.01187E+01 0.00000E+00
 -1      3090 1.03920E+01 3.08563E+01 0.00000E+00
 -1      3091 1.03920E+01 2.79188E+01 0.00000E+00
 -1      3092 1.39529E+02 3.85715E+01 0.00000E+00
 -1      3093 1.40542E+02 3.71258E+01 0.00000E+00
 -1      3094 1.39243E+02 3.63883E+01 0.00000E+00
 -1      3095 1.38514E+02 3.85648E+01 0.00000E+00
 -1      3096 1.02732E+02 3.21138E+01 0.00000E+00
 -1      3097 1.10865E+02 1.39275E+01 0.00000E+00
 -1      3098 1.11831E+02 1.45164E+01 0.00000E+00
 -1      3099 1.12509E+02 1.35775E+01 0.00000E+00
 -1      3100 1.16910E+01 1.24625E+01 0.00000E+00
 -1      3101 1.16910E+01 1.39375E+01 0.00000E+00
 -1      3102 8.99606E+00 3.70363E+01 0.00000E+00
 -1      3103 9.02831E+00 3.82715E+01 0.00000E+00
 -1      3104 1.01012E+01 3.83715E+01 0.00000E+00
 -1      3105 1.02951E+01 3.62988E+01 0.00000E+00
 -1      3106 1.24977E+02 3.63645E+01 0.00000E+00
 -1      3107 1.24226E+02 3.71090E+01 0.00000E+00
 -1      3108 1.14355E+02 1.31822E+01 0.00000E+00
 -1      3109 1.15769E+02 1.34047E+01 0.00000E+00
 -1      3110 1.05860E+02 3.85333E+01 0.00000E+00
 -1      3111 1.89000E+01 3.83090E+01 0.00000E+00
 -1      3112 2.04000E+01 3.83090E+01 0.00000E+00
 -1      3113 2.19000E+01 3.83090E+01 0.00000E+00
 -1      3114 2.34000E+01 3.83090E+01 0.00000E+00
 -1      3115 2.11500E+01 3.70100E+01 0.00000E+00
 -1      3116 2.49000E+01 3.83090E+01 0.00000E+00
 -1      3117 2.64000E+01 3.83090E+01 0.00000E+00
 -1      3118 2.41500E+01 3.70100E+01 0.00000E+00
 -1      3119 2.79000E+01 3.83090E+01 0.00000E+00
 -1      3120 2.94000E+01 3.83090E+01 0.00000E+00
 -1      3121 2.71500E+01 3.70100E+01 0.00000E+00
 -1      3122 3.09000E+01 3.83090E+01 0.00000E+00
 -1      3123 3.24000E+01 3.83090E+01 0.00000E+00
 -1      3124 3.01500E+01 3.70100E+01 0.00000E+00
 -1      3125 3.39000E+01 3.83090E+01 0.00000E+00
 -1      3126 3.54000E+01 3.83090E+01 0.00000E+00
 -1      3127 3.31500E+01 3.70100E+01 0.00000E+00
 -1      3128 3.69000E+01 3.83090E+01 0.00000E+00
 -1      3129 3.84000E+01 3.83090E+01 0.00000E+00
 -1      3130 3.61500E+01 3.70100E+01 0.00000E+00
 -1      3131 3.99000E+01 3.83090E+01 0.00000E+00
 -1      3132 4.14000E+01 3.83090E+01 0.00000E+00
 -1      3133 3.91500E+01 3.70100E+01 0.00000E+00
 -1      3134 4.29000E+01 3.83090E+01 0.00000E+00
 -1      3135 4.44000E+01 3.83090E+01 0.00000E+00
 -1      3136 4.21500E+01 3.70100E+01 0.00000E+00
 -1      3137 4.59000E+01 3.83090E+01 0.00000E+00
 -1      3138 4.74000E+01 3.83090E+01 0.00000E+00
 -1      3139 4.51500E+01 3.70100E+01 0.00000E+00
 -1      3140 4.89000E+01 3.83090E+01 0.00000E+00
 -1      3141 5.04000E+01 3.83090E+01 0.00000E+00
 -1      3142 4.81500E+01 3.70100E+01 0.00000E+00
 -1      3143 5.19000E+01 3.83090E+01 0.00000E+00
 -1      3144 5.34000E+01 3.83090E+01 0.00000E+00
 -1      3145 5.11500E+01 3.70100E+01 0.00000E+00
 -1      3146 5.49000E+01 3.83090E+01 0.00000E+00
 -1      3147 5.64000E+01 3.83090E+01 0.00000E+00
 -1      3148 5.41500E+01 3.70100E+01 0.00000E+00
 -1      3149 5.79000E+01 3.83090E+01 0.00000E+00
 -1      3150 5.94000E+01 3.83090E+01 0.00000E+00
 -1      3151 5.71500E+01 3.70100E+01 0.00000E+00
 -1      3152 6.09000E+01 3.83090E+01 0.00000E+00
 -1      3153 6.24000E+01 3.83090E+01 0.00000E+00
 -1      3154 6.01500E+01 3.70100E+01 0.00000E+00
 -1      3155 6.39000E+01 3.83090E+01 0.00000E+00
 -1      3156 6.54000E+01 3.83090E+01 0.00000E+00
 -1      3157 6.31500E+01 3.70100E+01 0.00000E+00
 -1      3158 6.69000E+01 3.83090E+01 0.00000E+00
 -1      3159 6.84000E+01 3.83090E+01 0.00000E+00
 -1      3160 6.61500E+01 3.70100E+01 0.00000E+00
 -1      3161 6.99000E+01 3.83090E+01 0.00000E+00
 -1      3162 7.14000E+01 3.83090E+01 0.00000E+00
 -1      3163 6.91500E+01 3.70100E+01 0.00000E+00
 -1      3164 7.29000E+01 3.83090E+01 0.00000E+00
 -1      3165 7.44000E+01 3.83090E+01 0.00000E+00
 -1      3166 7.21500E+01 3.70100E+01 0.00000E+00
 -1      3167 7.59000E+01 3.83090E+01 0.00000E+00
 -1      3168 7.74000E+01 3.83090E+01 0.00000E+00
 -1      3169 7.51500E+01 3.70100E+01 0.00000E+00
 -1      3170 7.89000E+01 3.83090E+01 0.00000E+00
 -1      3171 8.04000E+01 3.83090E+01 0.00000E+00
 -1      3172 7.81500E+01 3.70100E+01 0.00000E+00
 -1      3173 8.19000E+01 3.83090E+01 0.00000E+00
 -1      3174 8.34000E+01 3.83090E+01 0.00000E+00
 -1      3175 8.11500E+01 3.70100E+01 0.00000E+00
 -1      3176 8.49000E+01 3.83090E+01 0.00000E+00
 -1      3177 8.64000E+01 3.83090E+01 0.00000E+00
 -1      3178 8.41500E+01 3.70100E+01 0.00000E+00
 -1      3179 8.79000E+01 3.83090E+01 0.00000E+00
 -1      3180 8.94000E+01 3.83090E+01 0.00000E+00
 -1      3181 8.71500E+01 3.70100E+01 0.00000E+00
 -1      3182 9.09000E+01 3.83090E+01 0.00000E+00
 -1      3183 9.24000E+01 3.83090E+01 0.00000E+00
 -1      3184 9.01500E+01 3.70100E+01 0.00000E+00
 -1      3185 9.39000E+01 3.83090E+01 0.00000E+00
 -1      3186 9.54000E+01 3.83090E+01 0.00000E+00
 -1      3187 9.31500E+01 3.70100E+01 0.00000E+00
 -1      3188 9.69000E+01 3.83090E+01 0.00000E+00
 -1      3189 9.84000E+01 3.83090E+01 0.00000E+00
 -1      3190 9.61500E+01 3.70100E+01 0.00000E+00
 -1      3191 9.99000E+01 3.83090E+01 0.00000E+00
 -1      3192 1.01400E+02 3.83090E+01 0.00000E+00
 -1      3193 9.91500E+01 3.70100E+01 0.00000E+00
 -1      3194 1.01915E+02 3.29554E+01 0.00000E+00
 -1      3195 1.01586E+02 3.18634E+01 0.00000E+00
 -1      3196 1.29000E+01 3.83090E+01 0.00000E+00
 -1      3197 1.44000E+01 3.83090E+01 0.00000E+00
 -1      3198 1.24266E+02 3.85886E+01 0.00000E+00
 -1      3199 1.25766E+02 3.85886E+01 0.00000E+00
 -1      3200 1.27266E+02 3.85886E+01 0.00000E+00
 -1      3201 1.28766E+02 3.85886E+01 0.00000E+00
 -1      3202 1.26883E+02 3.75242E+01 0.00000E+00
 -1      3203 1.30266E+02 3.85886E+01 0.00000E+00
 -1      3204 1.31766E+02 3.85886E+01 0.00000E+00
 -1      3205 1.29883E+02 3.75242E+01 0.00000E+00
 -1      3206 1.33266E+02 3.85886E+01 0.00000E+00
 -1      3207 1.34766E+02 3.85886E+01 0.00000E+00
 -1      3208 1.32883E+02 3.75242E+01 0.00000E+00
 -1      3209 1.35890E+02 3.85767E+01 0.00000E+00
 -1      3210 1.37390E+02 3.85767E+01 0.00000E+00
 -1      3211 1.37755E+02 3.74884E+01 0.00000E+00
 -1      3212 1.35507E+02 3.75123E+01 0.00000E+00
 -1      3213 3.47850E+01 1.05013E+01 0.00000E+00
 -1      3214 3.32850E+01 1.05013E+01 0.00000E+00
 -1      3215 3.17850E+01 1.05013E+01 0.00000E+00
 -1      3216 3.02850E+01 1.05013E+01 0.00000E+00
 -1      3217 3.25350E+01 1.18003E+01 0.00000E+00
 -1      3218 4.07850E+01 1.05013E+01 0.00000E+00
 -1      3219 3.92850E+01 1.05013E+01 0.00000E+00
 -1      3220 4.37850E+01 1.05013E+01 0.00000E+00
 -1      3221 4.22850E+01 1.05013E+01 0.00000E+00
 -1      3222 4.15350E+01 1.18003E+01 0.00000E+00
 -1      3223 4.67850E+01 1.05013E+01 0.00000E+00
 -1      3224 4.52850E+01 1.05013E+01 0.00000E+00
 -1      3225 4.45350E+01 1.18003E+01 0.00000E+00
 -1      3226 4.97850E+01 1.05013E+01 0.00000E+00
 -1      3227 4.82850E+01 1.05013E+01 0.00000E+00
 -1      3228 4.75350E+01 1.18003E+01 0.00000E+00
 -1      3229 5.27850E+01 1.05013E+01 0.00000E+00
 -1      3230 5.12850E+01 1.05013E+01 0.00000E+00
 -1      3231 5.05350E+01 1.18003E+01 0.00000E+00
 -1      3232 5.57850E+01 1.05013E+01 0.00000E+00
 -1      3233 5.42850E+01 1.05013E+01 0.00000E+00
 -1      3234 5.35350E+01 1.18003E+01 0.00000E+00
 -1      3235 5.87850E+01 1.05013E+01 0.00000E+00
 -1      3236 5.72850E+01 1.05013E+01 0.00000E+00
 -1      3237 5.65350E+01 1.18003E+01 0.00000E+00
 -1      3238 6.17850E+01 1.05013E+01 0.00000E+00
 -1      3239 6.02850E+01 1.05013E+01 0.00000E+00
 -1      3240 5.95350E+01 1.18003E+01 0.00000E+00
 -1      3241 6.47850E+01 1.05013E+01 0.00000E+00
 -1      3242 6.32850E+01 1.05013E+01 0.00000E+00
 -1      3243 6.25350E+01 1.18003E+01 0.00000E+00
 -1      3244 6.77850E+01 1.05013E+01 0.00000E+00
 -1      3245 6.62850E+01 1.05013E+01 0.00000E+00
 -1      3246 6.55350E+01 1.18003E+01 0.00000E+00
 -1      3247 7.07850E+01 1.05013E+01 0.00000E+00
 -1      3248 6.92850E+01 1.05013E+01 0.00000E+00
 -1      3249 6.85350E+01 1.18003E+01 0.00000E+00
 -1      3250 7.37850E+01 1.05013E+01 0.00000E+00
 -1      3251 7.22850E+01 1.05013E+01 0.00000E+00
 -1      3252 7.15350E+01 1.18003E+01 0.00000E+00
 -1      3253 7.67850E+01 1.05013E+01 0.00000E+00
 -1      3254 7.52850E+01 1.05013E+01 0.00000E+00
 -1      3255 7.45350E+01 1.18003E+01 0.00000E+00
 -1      3256 7.97850E+01 1.05013E+01 0.00000E+00
 -1      3257 7.82850E+01 1.05013E+01 0.00000E+00
 -1      3258 7.75350E+01 1.18003E+01 0.00000E+00
 -1      3259 8.27850E+01 1.05013E+01 0.00000E+00
 -1      3260 8.12850E+01 1.05013E+01 0.00000E+00
 -1      3261 8.05350E+01 1.18003E+01 0.00000E+00
 -1      3262 8.57850E+01 1.05013E+01 0.00000E+00
 -1      3263 8.42850E+01 1.05013E+01 0.00000E+00
 -1      3264 8.35350E+01 1.18003E+01 0.00000E+00
 -1      3265 8.87850E+01 1.05013E+01 0.00000E+00
 -1      3266 8.72850E+01 1.05013E+01 0.00000E+00
 -1      3267 8.65350E+01 1.18003E+01 0.00000E+00
 -1      3268 9.17850E+01 1.05013E+01 0.00000E+00
 -1      3269 9.02850E+01 1.05013E+01 0.00000E+00
 -1      3270 8.95350E+01 1.18003E+01 0.00000E+00
 -1      3271 9.47850E+01 1.05013E+01 0.00000E+00
 -1      3272 9.32850E+01 1.05013E+01 0.00000E+00
 -1      3273 9.25350E+01 1.18003E+01 0.00000E+00
 -1      3274 9.77850E+01 1.05013E+01 0.00000E+00
 -1      3275 9.62850E+01 1.05013E+01 0.00000E+00
 -1      3276 9.55350E+01 1.18003E+01 0.00000E+00
 -1      3277 1.00785E+02 1.05013E+01 0.00000E+00
 -1      3278 9.92850E+01 1.05013E+01 0.00000E+00
 -1      3279 9.85350E+01 1.18003E+01 0.00000E+00
 -1      3280 1.03785E+02 1.05013E+01 0.00000E+00
 -1      3281 1.02285E+02 1.05013E+01 0.00000E+00
 -1      3282 1.01535E+02 1.18003E+01 0.00000E+00
 -1      3283 1.06785E+02 1.05013E+01 0.00000E+00
 -1      3284 1.05285E+02 1.05013E+01 0.00000E+00
 -1      3285 1.04535E+02 1.18003E+01 0.00000E+00
 -1      3286 1.12539E+02 1.10954E+01 0.00000E+00
 -1      3287 1.11039E+02 1.10954E+01 0.00000E+00
 -1      3288 1.15885E+02 1.07001E+01 0.00000E+00
 -1      3289 1.14385E+02 1.07001E+01 0.00000E+00
 -1      3290 1.21785E+02 1.05013E+01 0.00000E+00
 -1      3291 1.20285E+02 1.05013E+01 0.00000E+00
 -1      3292 1.24785E+02 1.05013E+01 0.00000E+00
 -1      3293 1.23285E+02 1.05013E+01 0.00000E+00
 -1      3294 1.22535E+02 1.18003E+01 0.00000E+00
 -1      3295 1.27785E+02 1.05013E+01 0.00000E+00
 -1      3296 1.26285E+02 1.05013E+01 0.00000E+00
 -1      3297 1.25535E+02 1.18003E+01 0.00000E+00
 -1      3298 1.30785E+02 1.05013E+01 0.00000E+00
 -1      3299 1.29285E+02 1.05013E+01 0.00000E+00
 -1      3300 1.28535E+02 1.18003E+01 0.00000E+00
 -1      3301 1.33785E+02 1.05013E+01 0.00000E+00
 -1      3302 1.32285E+02 1.05013E+01 0.00000E+00
 -1      3303 1.31535E+02 1.18003E+01 0.00000E+00
 -1      3304 1.36785E+02 1.05013E+01 0.00000E+00
 -1      3305 1.35285E+02 1.05013E+01 0.00000E+00
 -1      3306 1.34535E+02 1.18003E+01 0.00000E+00
 -1      3307 1.38912E+02 1.10040E+01 0.00000E+00
 -1      3308 1.37744E+02 1.07233E+01 0.00000E+00
 -1      3309 1.36994E+02 1.20223E+01 0.00000E+00
 -1      3310 1.38912E+02 1.24665E+01 0.00000E+00
 -1      3311 1.05823E+02 1.64148E+01 0.00000E+00
 -1      3312 1.06789E+02 1.57162E+01 0.00000E+00
 -1      3313 1.38309E+02 2.86750E+01 0.00000E+00
 -1      3314 1.38309E+02 2.72250E+01 0.00000E+00
 -1      3315 1.19733E+02 1.46340E+01 0.00000E+00
 -1      3316 1.21003E+02 1.50391E+01 0.00000E+00
 -1      3317 1.38309E+02 2.57500E+01 0.00000E+00
 -1      3318 1.38309E+02 2.42750E+01 0.00000E+00
 -1      3319 1.37010E+02 2.64750E+01 0.00000E+00
 -1      3320 1.28228E+02 2.55362E+01 0.00000E+00
 -1      3321 1.28442E+02 2.68809E+01 0.00000E+00
 -1      3322 1.18839E+02 4.08550E+01 0.00000E+00
 -1      3323 1.28272E+02 2.85435E+01 0.00000E+00
 -1      3324 1.27926E+02 2.97578E+01 0.00000E+00
 -1      3325 1.97850E+01 1.05013E+01 0.00000E+00
 -1      3326 1.82850E+01 1.05013E+01 0.00000E+00
 -1      3327 1.20237E+02 3.89282E+01 0.00000E+00
 -1      3328 1.38309E+02 3.16250E+01 0.00000E+00
 -1      3329 1.38309E+02 3.01500E+01 0.00000E+00
 -1      3330 1.37010E+02 2.94250E+01 0.00000E+00
 -1      3331 1.38309E+02 3.45750E+01 0.00000E+00
 -1      3332 1.38309E+02 3.31000E+01 0.00000E+00
 -1      3333 1.37010E+02 3.23750E+01 0.00000E+00
 -1      3334 1.27729E+02 3.10688E+01 0.00000E+00
 -1      3335 1.27357E+02 3.23914E+01 0.00000E+00
 -1      3336 3.77850E+01 1.05013E+01 0.00000E+00
 -1      3337 3.62850E+01 1.05013E+01 0.00000E+00
 -1      3338 3.55350E+01 1.18003E+01 0.00000E+00
 -1      3339 3.85350E+01 1.18003E+01 0.00000E+00
 -1      3340 2.27850E+01 1.05013E+01 0.00000E+00
 -1      3341 2.12850E+01 1.05013E+01 0.00000E+00
 -1      3342 2.05350E+01 1.18003E+01 0.00000E+00
 -1      3343 1.26590E+02 3.39349E+01 0.00000E+00
 -1      3344 1.25784E+02 3.51497E+01 0.00000E+00
 -1      3345 1.26189E+02 3.63094E+01 0.00000E+00
 -1      3346 1.59000E+01 3.83090E+01 0.00000E+00
 -1      3347 1.74000E+01 3.83090E+01 0.00000E+00
 -1      3348 1.81500E+01 3.70100E+01 0.00000E+00
 -1      3349 1.22424E+02 1.55059E+01 0.00000E+00
 -1      3350 1.23381E+02 1.61134E+01 0.00000E+00
 -1      3351 1.28308E+02 2.29091E+01 0.00000E+00
 -1      3352 1.28268E+02 2.42227E+01 0.00000E+00
 -1      3353 1.29305E+02 2.47468E+01 0.00000E+00
 -1      3354 1.07921E+02 1.50167E+01 0.00000E+00
 -1      3355 1.09053E+02 1.43173E+01 0.00000E+00
 -1      3356 1.06788E+02 1.44675E+01 0.00000E+00
 -1      3357 1.17213E+02 1.38049E+01 0.00000E+00
 -1      3358 1.18467E+02 1.41634E+01 0.00000E+00
 -1      3359 1.26488E+01 1.02017E+01 0.00000E+00
 -1      3360 1.20772E+01 1.14631E+01 0.00000E+00
 -1      3361 1.33763E+01 1.22006E+01 0.00000E+00
 -1      3362 1.41488E+01 1.02017E+01 0.00000E+00
 -1      3363 1.24567E+02 1.69749E+01 0.00000E+00
 -1      3364 1.25753E+02 1.78363E+01 0.00000E+00
 -1      3365 1.24683E+02 1.57349E+01 0.00000E+00
 -1      3366 1.16910E+01 2.12875E+01 0.00000E+00
 -1      3367 1.16910E+01 2.27625E+01 0.00000E+00
 -1      3368 1.02857E+02 3.55177E+01 0.00000E+00
 -1      3369 1.02278E+02 3.43235E+01 0.00000E+00
 -1      3370 1.04168E+02 3.86045E+01 0.00000E+00
 -1      3371 1.04878E+02 3.75298E+01 0.00000E+00
 -1      3372 1.03703E+02 3.65975E+01 0.00000E+00
 -1      3373 1.02668E+02 3.86045E+01 0.00000E+00
 -1      3374 1.16910E+01 2.42375E+01 0.00000E+00
 -1      3375 1.16910E+01 2.57125E+01 0.00000E+00
 -1      3376 1.29900E+01 2.35000E+01 0.00000E+00
 -1      3377 1.16910E+01 1.54063E+01 0.00000E+00
 -1      3378 1.16910E+01 1.68750E+01 0.00000E+00
 -1      3379 1.29900E+01 1.46687E+01 0.00000E+00
 -1      3380 1.16678E+02 1.25982E+01 0.00000E+00
 -1      3381 1.37850E+02 3.65759E+01 0.00000E+00
 -1      3382 1.38214E+02 3.54876E+01 0.00000E+00
 -1      3383 1.36915E+02 3.47626E+01 0.00000E+00
 -1      3384 1.36726E+02 3.65878E+01 0.00000E+00
 -1      3385 1.01918E+02 3.73055E+01 0.00000E+00
 -1      3386 1.01132E+02 3.40732E+01 0.00000E+00
 -1      3387 1.51500E+01 3.70100E+01 0.00000E+00
 -1      3388 2.57850E+01 1.05013E+01 0.00000E+00
 -1      3389 2.42850E+01 1.05013E+01 0.00000E+00
 -1      3390 2.35350E+01 1.18003E+01 0.00000E+00
 -1      3391 2.95350E+01 1.18003E+01 0.00000E+00
 -1      3392 2.87850E+01 1.05013E+01 0.00000E+00
 -1      3393 2.72850E+01 1.05013E+01 0.00000E+00
 -1      3394 1.10202E+02 1.25114E+01 0.00000E+00
 -1      3395 1.09698E+02 1.06183E+01 0.00000E+00
 -1      3396 1.08198E+02 1.06183E+01 0.00000E+00
 -1      3397 1.09523E+02 1.34504E+01 0.00000E+00
 -1      3398 1.07448E+02 1.19173E+01 0.00000E+00
 -1      3399 1.19578E+02 1.23994E+01 0.00000E+00
 -1      3400 1.18828E+02 1.11004E+01 0.00000E+00
 -1      3401 1.17328E+02 1.11004E+01 0.00000E+00
 -1      3402 1.05035E+02 1.66710E+01 0.00000E+00
 -1      3403 1.04868E+02 1.54232E+01 0.00000E+00
 -1      3404 1.04246E+02 1.69272E+01 0.00000E+00
 -1      3405 1.19388E+02 1.34691E+01 0.00000E+00
 -1      3406 1.38309E+02 1.98625E+01 0.00000E+00
 -1      3407 1.38309E+02 1.83875E+01 0.00000E+00
 -1      3408 1.29916E+02 2.69023E+01 0.00000E+00
 -1      3409 1.29094E+02 2.77229E+01 0.00000E+00
 -1      3410 1.29746E+02 2.85649E+01 0.00000E+00
 -1      3411 1.22075E+02 1.44066E+01 0.00000E+00
 -1      3412 1.38309E+02 2.28062E+01 0.00000E+00
 -1      3413 1.38309E+02 2.13312E+01 0.00000E+00
 -1      3414 1.37010E+02 2.05938E+01 0.00000E+00
 -1      3415 1.37010E+02 2.35313E+01 0.00000E+00
 -1      3416 1.03808E+02 1.94429E+01 0.00000E+00
 -1      3417 1.03547E+02 1.84286E+01 0.00000E+00
 -1      3418 1.02943E+02 1.96964E+01 0.00000E+00
 -1      3419 1.26976E+02 1.82925E+01 0.00000E+00
 -1      3420 1.28198E+02 1.87487E+01 0.00000E+00
 -1      3421 1.27091E+02 1.70525E+01 0.00000E+00
 -1      3422 1.27763E+02 3.35511E+01 0.00000E+00
 -1      3423 1.28727E+02 3.06965E+01 0.00000E+00
 -1      3424 1.28714E+02 2.17109E+01 0.00000E+00
 -1      3425 1.29750E+02 2.22351E+01 0.00000E+00
 -1      3426 1.29119E+02 2.05128E+01 0.00000E+00
 -1      3427 1.00954E+02 3.12205E+01 0.00000E+00
 -1      3428 1.00322E+02 3.05777E+01 0.00000E+00
 -1      3429 1.00137E+02 3.20621E+01 0.00000E+00
 -1      3430 1.37076E+02 1.78847E+01 0.00000E+00
 -1      3431 1.38375E+02 1.71472E+01 0.00000E+00
 -1      3432 1.38440E+02 1.59068E+01 0.00000E+00
 -1      3433 1.02417E+02 2.19610E+01 0.00000E+00
 -1      3434 1.02269E+02 2.09725E+01 0.00000E+00
 -1      3435 1.01482E+02 2.22228E+01 0.00000E+00
 -1      3436 1.01040E+02 2.81353E+01 0.00000E+00
 -1      3437 1.00417E+02 2.73902E+01 0.00000E+00
 -1      3438 1.00516E+02 2.89911E+01 0.00000E+00
 -1      3439 1.16910E+01 1.83469E+01 0.00000E+00
 -1      3440 1.16910E+01 1.98156E+01 0.00000E+00
 -1      3441 1.29900E+01 2.05531E+01 0.00000E+00
 -1      3442 1.29900E+01 1.76094E+01 0.00000E+00
 -1      3443 1.69669E+01 1.03515E+01 0.00000E+00
 -1      3444 1.54669E+01 1.03515E+01 0.00000E+00
 -1      3445 1.50806E+01 1.13509E+01 0.00000E+00
 -1      3446 1.77169E+01 1.16505E+01 0.00000E+00
 -1      3447 1.02340E+02 3.65211E+01 0.00000E+00
 -1      3448 1.00304E+02 2.54994E+01 0.00000E+00
 -1      3449 1.00864E+02 2.46765E+01 0.00000E+00
 -1      3450 1.13389E+02 1.25933E+01 0.00000E+00
 -1      3451 1.00649E+02 2.38379E+01 0.00000E+00
 -1      3452 1.16910E+01 3.01219E+01 0.00000E+00
 -1      3453 1.16910E+01 3.15906E+01 0.00000E+00
 -1      3454 1.23110E+02 3.81735E+01 0.00000E+00
 -1      3455 1.29900E+01 3.23250E+01 0.00000E+00
 -1      3456 1.16910E+01 3.30594E+01 0.00000E+00
 -1      3457 1.16910E+01 3.45281E+01 0.00000E+00
 -1      3458 1.11741E+01 3.84716E+01 0.00000E+00
 -1      3459 1.19241E+01 3.71726E+01 0.00000E+00
 -1      3460 1.22298E+02 3.90027E+01 0.00000E+00
 -1      3461 1.20210E+01 3.61362E+01 0.00000E+00
 -1      3462 1.74000E+01 3.57110E+01 0.00000E+00
 -1      3463 1.89000E+01 3.57110E+01 0.00000E+00
 -1      3464 9.95181E+01 2.34759E+01 0.00000E+00
 -1      3465 1.00500E+02 2.28494E+01 0.00000E+00
 -1      3466 1.00352E+02 2.18608E+01 0.00000E+00
 -1      3467 1.29064E+02 3.32357E+01 0.00000E+00
 -1      3468 1.28297E+02 3.47792E+01 0.00000E+00
 -1      3469 1.24853E+02 1.42531E+01 0.00000E+00
 -1      3470 1.26039E+02 1.51146E+01 0.00000E+00
 -1      3471 2.34000E+01 3.57110E+01 0.00000E+00
 -1      3472 2.49000E+01 3.57110E+01 0.00000E+00
 -1      3473 2.64000E+01 3.57110E+01 0.00000E+00
 -1      3474 2.79000E+01 3.57110E+01 0.00000E+00
 -1      3475 2.56500E+01 3.44120E+01 0.00000E+00
 -1      3476 2.94000E+01 3.57110E+01 0.00000E+00
 -1      3477 3.09000E+01 3.57110E+01 0.00000E+00
 -1      3478 2.86500E+01 3.44120E+01 0.00000E+00
 -1      3479 3.24000E+01 3.57110E+01 0.00000E+00
 -1      3480 3.39000E+01 3.57110E+01 0.00000E+00
 -1      3481 3.16500E+01 3.44120E+01 0.00000E+00
 -1      3482 3.54000E+01 3.57110E+01 0.00000E+00
 -1      3483 3.69000E+01 3.57110E+01 0.00000E+00
 -1      3484 3.46500E+01 3.44120E+01 0.00000E+00
 -1      3485 3.84000E+01 3.57110E+01 0.00000E+00
 -1      3486 3.99000E+01 3.57110E+01 0.00000E+00
 -1      3487 3.76500E+01 3.44120E+01 0.00000E+00
 -1      3488 4.14000E+01 3.57110E+01 0.00000E+00
 -1      3489 4.29000E+01 3.57110E+01 0.00000E+00
 -1      3490 4.06500E+01 3.44120E+01 0.00000E+00
 -1      3491 4.44000E+01 3.57110E+01 0.00000E+00
 -1      3492 4.59000E+01 3.57110E+01 0.00000E+00
 -1      3493 4.36500E+01 3.44120E+01 0.00000E+00
 -1      3494 4.74000E+01 3.57110E+01 0.00000E+00
 -1      3495 4.89000E+01 3.57110E+01 0.00000E+00
 -1      3496 4.66500E+01 3.44120E+01 0.00000E+00
 -1      3497 5.04000E+01 3.57110E+01 0.00000E+00
 -1      3498 5.19000E+01 3.57110E+01 0.00000E+00
 -1      3499 4.96500E+01 3.44120E+01 0.00000E+00
 -1      3500 5.34000E+01 3.57110E+01 0.00000E+00
 -1      3501 5.49000E+01 3.57110E+01 0.00000E+00
 -1      3502 5.26500E+01 3.44120E+01 0.00000E+00
 -1      3503 5.64000E+01 3.57110E+01 0.00000E+00
 -1      3504 5.79000E+01 3.57110E+01 0.00000E+00
 -1      3505 5.56500E+01 3.44120E+01 0.00000E+00
 -1      3506 5.94000E+01 3.57110E+01 0.00000E+00
 -1      3507 6.09000E+01 3.57110E+01 0.00000E+00
 -1      3508 5.86500E+01 3.44120E+01 0.00000E+00
 -1      3509 6.24000E+01 3.57110E+01 0.00000E+00
 -1      3510 6.39000E+01 3.57110E+01 0.00000E+00
 -1      3511 6.16500E+01 3.44120E+01 0.00000E+00
 -1      3512 6.54000E+01 3.57110E+01 0.00000E+00
 -1      3513 6.69000E+01 3.57110E+01 0.00000E+00
 -1      3514 6.46500E+01 3.44120E+01 0.00000E+00
 -1      3515 6.84000E+01 3.57110E+01 0.00000E+00
 -1      3516 6.99000E+01 3.57110E+01 0.00000E+00
 -1      3517 6.76500E+01 3.44120E+01 0.00000E+00
 -1      3518 7.14000E+01 3.57110E+01 0.00000E+00
 -1      3519 7.29000E+01 3.57110E+01 0.00000E+00
 -1      3520 7.06500E+01 3.44120E+01 0.00000E+00
 -1      3521 7.44000E+01 3.57110E+01 0.00000E+00
 -1      3522 7.59000E+01 3.57110E+01 0.00000E+00
 -1      3523 7.36500E+01 3.44120E+01 0.00000E+00
 -1      3524 7.74000E+01 3.57110E+01 0.00000E+00
 -1      3525 7.89000E+01 3.57110E+01 0.00000E+00
 -1      3526 7.66500E+01 3.44120E+01 0.00000E+00
 -1      3527 8.04000E+01 3.57110E+01 0.00000E+00
 -1      3528 8.19000E+01 3.57110E+01 0.00000E+00
 -1      3529 7.96500E+01 3.44120E+01 0.00000E+00
 -1      3530 8.34000E+01 3.57110E+01 0.00000E+00
 -1      3531 8.49000E+01 3.57110E+01 0.00000E+00
 -1      3532 8.26500E+01 3.44120E+01 0.00000E+00
 -1      3533 8.64000E+01 3.57110E+01 0.00000E+00
 -1      3534 8.79000E+01 3.57110E+01 0.00000E+00
 -1      3535 8.56500E+01 3.44120E+01 0.00000E+00
 -1      3536 8.94000E+01 3.57110E+01 0.00000E+00
 -1      3537 9.09000E+01 3.57110E+01 0.00000E+00
 -1      3538 8.86500E+01 3.44120E+01 0.00000E+00
 -1      3539 9.24000E+01 3.57110E+01 0.00000E+00
 -1      3540 9.39000E+01 3.57110E+01 0.00000E+00
 -1      3541 9.16500E+01 3.44120E+01 0.00000E+00
 -1      3542 9.54000E+01 3.57110E+01 0.00000E+00
 -1      3543 9.69000E+01 3.57110E+01 0.00000E+00
 -1      3544 9.46500E+01 3.44120E+01 0.00000E+00
 -1      3545 1.01072E+02 3.62256E+01 0.00000E+00
 -1      3546 2.12850E+01 1.30992E+01 0.00000E+00
 -1      3547 1.97850E+01 1.30992E+01 0.00000E+00
 -1      3548 1.28991E+02 3.59940E+01 0.00000E+00
 -1      3549 1.30491E+02 3.59940E+01 0.00000E+00
 -1      3550 1.31991E+02 3.59940E+01 0.00000E+00
 -1      3551 1.33491E+02 3.59940E+01 0.00000E+00
 -1      3552 1.31098E+02 3.44639E+01 0.00000E+00
 -1      3553 3.32850E+01 1.30992E+01 0.00000E+00
 -1      3554 3.17850E+01 1.30992E+01 0.00000E+00
 -1      3555 1.08390E+02 1.29012E+01 0.00000E+00
 -1      3556 4.52850E+01 1.30992E+01 0.00000E+00
 -1      3557 4.37850E+01 1.30992E+01 0.00000E+00
 -1      3558 4.22850E+01 1.30992E+01 0.00000E+00
 -1      3559 4.07850E+01 1.30992E+01 0.00000E+00
 -1      3560 4.30350E+01 1.43982E+01 0.00000E+00
 -1      3561 5.12850E+01 1.30992E+01 0.00000E+00
 -1      3562 4.97850E+01 1.30992E+01 0.00000E+00
 -1      3563 5.42850E+01 1.30992E+01 0.00000E+00
 -1      3564 5.27850E+01 1.30992E+01 0.00000E+00
 -1      3565 5.20350E+01 1.43982E+01 0.00000E+00
 -1      3566 5.72850E+01 1.30992E+01 0.00000E+00
 -1      3567 5.57850E+01 1.30992E+01 0.00000E+00
 -1      3568 5.50350E+01 1.43982E+01 0.00000E+00
 -1      3569 6.02850E+01 1.30992E+01 0.00000E+00
 -1      3570 5.87850E+01 1.30992E+01 0.00000E+00
 -1      3571 5.80350E+01 1.43982E+01 0.00000E+00
 -1      3572 6.32850E+01 1.30992E+01 0.00000E+00
 -1      3573 6.17850E+01 1.30992E+01 0.00000E+00
 -1      3574 6.10350E+01 1.43982E+01 0.00000E+00
 -1      3575 6.62850E+01 1.30992E+01 0.00000E+00
 -1      3576 6.47850E+01 1.30992E+01 0.00000E+00
 -1      3577 6.40350E+01 1.43982E+01 0.00000E+00
 -1      3578 6.92850E+01 1.30992E+01 0.00000E+00
 -1      3579 6.77850E+01 1.30992E+01 0.00000E+00
 -1      3580 6.70350E+01 1.43982E+01 0.00000E+00
 -1      3581 7.22850E+01 1.30992E+01 0.00000E+00
 -1      3582 7.07850E+01 1.30992E+01 0.00000E+00
 -1      3583 7.00350E+01 1.43982E+01 0.00000E+00
 -1      3584 7.52850E+01 1.30992E+01 0.00000E+00
 -1      3585 7.37850E+01 1.30992E+01 0.00000E+00
 -1      3586 7.30350E+01 1.43982E+01 0.00000E+00
 -1      3587 7.82850E+01 1.30992E+01 0.00000E+00
 -1      3588 7.67850E+01 1.30992E+01 0.00000E+00
 -1      3589 7.60350E+01 1.43982E+01 0.00000E+00
 -1      3590 8.12850E+01 1.30992E+01 0.00000E+00
 -1      3591 7.97850E+01 1.30992E+01 0.00000E+00
 -1      3592 7.90350E+01 1.43982E+01 0.00000E+00
 -1      3593 8.42850E+01 1.30992E+01 0.00000E+00
 -1      3594 8.27850E+01 1.30992E+01 0.00000E+00
 -1      3595 8.20350E+01 1.43982E+01 0.00000E+00
 -1      3596 8.72850E+01 1.30992E+01 0.00000E+00
 -1      3597 8.57850E+01 1.30992E+01 0.00000E+00
 -1      3598 8.50350E+01 1.43982E+01 0.00000E+00
 -1      3599 9.02850E+01 1.30992E+01 0.00000E+00
 -1      3600 8.87850E+01 1.30992E+01 0.00000E+00
 -1      3601 8.80350E+01 1.43982E+01 0.00000E+00
 -1      3602 9.32850E+01 1.30992E+01 0.00000E+00
 -1      3603 9.17850E+01 1.30992E+01 0.00000E+00
 -1      3604 9.10350E+01 1.43982E+01 0.00000E+00
 -1      3605 9.62850E+01 1.30992E+01 0.00000E+00
 -1      3606 9.47850E+01 1.30992E+01 0.00000E+00
 -1      3607 9.40350E+01 1.43982E+01 0.00000E+00
 -1      3608 9.92850E+01 1.30992E+01 0.00000E+00
 -1      3609 9.77850E+01 1.30992E+01 0.00000E+00
 -1      3610 9.70350E+01 1.43982E+01 0.00000E+00
 -1      3611 1.02285E+02 1.30992E+01 0.00000E+00
 -1      3612 1.00785E+02 1.30992E+01 0.00000E+00
 -1      3613 1.00035E+02 1.43982E+01 0.00000E+00
 -1      3614 1.20845E+02 1.28700E+01 0.00000E+00
 -1      3615 1.32285E+02 1.30992E+01 0.00000E+00
 -1      3616 1.30785E+02 1.30992E+01 0.00000E+00
 -1      3617 1.35285E+02 1.30992E+01 0.00000E+00
 -1      3618 1.33785E+02 1.30992E+01 0.00000E+00
 -1      3619 1.33035E+02 1.43982E+01 0.00000E+00
 -1      3620 1.35711E+02 3.31125E+01 0.00000E+00
 -1      3621 1.35711E+02 3.16375E+01 0.00000E+00
 -1      3622 1.19589E+02 3.95785E+01 0.00000E+00
 -1      3623 1.33200E+01 3.54019E+01 0.00000E+00
 -1      3624 1.00710E+02 3.48575E+01 0.00000E+00
 -1      3625 1.00347E+02 3.34894E+01 0.00000E+00
 -1      3626 1.00287E+02 3.56419E+01 0.00000E+00
 -1      3627 1.29756E+02 3.01807E+01 0.00000E+00
 -1      3628 1.29559E+02 3.14917E+01 0.00000E+00
 -1      3629 1.27689E+02 3.63094E+01 0.00000E+00
 -1      3630 1.20798E+02 3.90027E+01 0.00000E+00
 -1      3631 1.35711E+02 2.72125E+01 0.00000E+00
 -1      3632 1.35711E+02 2.57375E+01 0.00000E+00
 -1      3633 1.16910E+01 2.71844E+01 0.00000E+00
 -1      3634 1.16910E+01 2.86531E+01 0.00000E+00
 -1      3635 1.29900E+01 2.93875E+01 0.00000E+00
 -1      3636 1.30433E+02 2.41238E+01 0.00000E+00
 -1      3637 1.30393E+02 2.54374E+01 0.00000E+00
 -1      3638 1.26622E+02 1.27165E+01 0.00000E+00
 -1      3639 1.25122E+02 1.27165E+01 0.00000E+00
 -1      3640 9.97799E+01 2.63552E+01 0.00000E+00
 -1      3641 9.91427E+01 2.53202E+01 0.00000E+00
 -1      3642 9.92558E+01 2.72110E+01 0.00000E+00
 -1      3643 1.06978E+02 1.27842E+01 0.00000E+00
 -1      3644 1.38643E+02 1.48068E+01 0.00000E+00
 -1      3645 1.38709E+02 1.35665E+01 0.00000E+00
 -1      3646 1.37750E+02 1.33444E+01 0.00000E+00
 -1      3647 1.37344E+02 1.55443E+01 0.00000E+00
 -1      3648 4.82850E+01 1.30992E+01 0.00000E+00
 -1      3649 4.67850E+01 1.30992E+01 0.00000E+00
 -1      3650 4.60350E+01 1.43982E+01 0.00000E+00
 -1      3651 4.90350E+01 1.43982E+01 0.00000E+00
 -1      3652 1.46100E+01 3.55564E+01 0.00000E+00
 -1      3653 1.61100E+01 3.55564E+01 0.00000E+00
 -1      3654 1.68600E+01 3.42574E+01 0.00000E+00
 -1      3655 1.42800E+01 3.39483E+01 0.00000E+00
 -1      3656 1.35711E+02 3.01625E+01 0.00000E+00
 -1      3657 1.35711E+02 2.86875E+01 0.00000E+00
 -1      3658 1.34412E+02 2.79500E+01 0.00000E+00
 -1      3659 1.34412E+02 3.09000E+01 0.00000E+00
 -1      3660 1.05846E+02 1.34836E+01 0.00000E+00
 -1      3661 2.04000E+01 3.57110E+01 0.00000E+00
 -1      3662 2.19000E+01 3.57110E+01 0.00000E+00
 -1      3663 2.26500E+01 3.44120E+01 0.00000E+00
 -1      3664 1.04346E+02 1.34836E+01 0.00000E+00
 -1      3665 1.42890E+01 1.39344E+01 0.00000E+00
 -1      3666 1.42890E+01 1.54031E+01 0.00000E+00
 -1      3667 1.42890E+01 2.27625E+01 0.00000E+00
 -1      3668 1.42890E+01 2.42375E+01 0.00000E+00
 -1      3669 1.30062E+02 3.23637E+01 0.00000E+00
 -1      3670 1.30596E+02 3.35919E+01 0.00000E+00
 -1      3671 1.32096E+02 3.35919E+01 0.00000E+00
 -1      3672 1.31091E+02 3.18479E+01 0.00000E+00
 -1      3673 1.96500E+01 3.44120E+01 0.00000E+00
 -1      3674 9.80373E+01 3.43429E+01 0.00000E+00
 -1      3675 9.87873E+01 3.56419E+01 0.00000E+00
 -1      3676 1.29900E+01 2.64469E+01 0.00000E+00
 -1      3677 2.65350E+01 1.18003E+01 0.00000E+00
 -1      3678 2.27850E+01 1.30992E+01 0.00000E+00
 -1      3679 2.20350E+01 1.43982E+01 0.00000E+00
 -1      3680 2.42850E+01 1.30992E+01 0.00000E+00
 -1      3681 3.10350E+01 1.43982E+01 0.00000E+00
 -1      3682 3.02850E+01 1.30992E+01 0.00000E+00
 -1      3683 2.87850E+01 1.30992E+01 0.00000E+00
 -1      3684 3.47850E+01 1.30992E+01 0.00000E+00
 -1      3685 3.40350E+01 1.43982E+01 0.00000E+00
 -1      3686 3.62850E+01 1.30992E+01 0.00000E+00
 -1      3687 1.35602E+02 3.65997E+01 0.00000E+00
 -1      3688 4.00350E+01 1.43982E+01 0.00000E+00
 -1      3689 3.92850E+01 1.30992E+01 0.00000E+00
 -1      3690 3.77850E+01 1.30992E+01 0.00000E+00
 -1      3691 1.21949E+02 1.25148E+01 0.00000E+00
 -1      3692 1.21759E+02 1.35845E+01 0.00000E+00
 -1      3693 1.23449E+02 1.25148E+01 0.00000E+00
 -1      3694 1.36791E+02 1.31223E+01 0.00000E+00
 -1      3695 1.31045E+02 2.62794E+01 0.00000E+00
 -1      3696 1.02008E+02 1.99582E+01 0.00000E+00
 -1      3697 1.01747E+02 1.89440E+01 0.00000E+00
 -1      3698 1.01072E+02 2.02200E+01 0.00000E+00
 -1      3699 1.30578E+02 2.93601E+01 0.00000E+00
 -1      3700 1.35711E+02 2.42687E+01 0.00000E+00
 -1      3701 1.35711E+02 2.28000E+01 0.00000E+00
 -1      3702 1.34412E+02 2.50063E+01 0.00000E+00
 -1      3703 1.27493E+02 1.29993E+01 0.00000E+00
 -1      3704 1.27081E+02 1.39156E+01 0.00000E+00
 -1      3705 1.26910E+02 1.53973E+01 0.00000E+00
 -1      3706 1.28993E+02 1.29993E+01 0.00000E+00
 -1      3707 1.28133E+02 1.58535E+01 0.00000E+00
 -1      3708 1.23180E+02 1.40514E+01 0.00000E+00
 -1      3709 1.90350E+01 1.43983E+01 0.00000E+00
 -1      3710 1.82850E+01 1.30993E+01 0.00000E+00
 -1      3711 1.29235E+02 1.92728E+01 0.00000E+00
 -1      3712 1.30272E+02 1.97969E+01 0.00000E+00
 -1      3713 1.29351E+02 1.80328E+01 0.00000E+00
 -1      3714 1.34709E+02 3.50695E+01 0.00000E+00
 -1      3715 1.35746E+02 1.84362E+01 0.00000E+00
 -1      3716 1.35811E+02 1.71959E+01 0.00000E+00
 -1      3717 9.96987E+01 2.98326E+01 0.00000E+00
 -1      3718 9.90758E+01 2.90876E+01 0.00000E+00
 -1      3719 9.88816E+01 3.06742E+01 0.00000E+00
 -1      3720 1.42890E+01 2.86531E+01 0.00000E+00
 -1      3721 1.42890E+01 3.01219E+01 0.00000E+00
 -1      3722 1.35728E+02 2.13525E+01 0.00000E+00
 -1      3723 1.35728E+02 1.98837E+01 0.00000E+00
 -1      3724 1.34464E+02 1.91949E+01 0.00000E+00
 -1      3725 1.34429E+02 2.20900E+01 0.00000E+00
 -1      3726 1.24536E+02 1.34311E+01 0.00000E+00
 -1      3727 9.78635E+01 2.51252E+01 0.00000E+00
 -1      3728 9.83877E+01 2.42694E+01 0.00000E+00
 -1      3729 1.48779E+01 1.21429E+01 0.00000E+00
 -1      3730 1.44917E+01 1.31424E+01 0.00000E+00
 -1      3731 1.57907E+01 1.38767E+01 0.00000E+00
 -1      3732 1.61961E+01 1.22927E+01 0.00000E+00
 -1      3733 1.29743E+02 1.42983E+01 0.00000E+00
 -1      3734 1.69669E+01 1.29495E+01 0.00000E+00
 -1      3735 1.42890E+01 1.98188E+01 0.00000E+00
 -1      3736 1.42890E+01 2.12906E+01 0.00000E+00
 -1      3737 1.55880E+01 2.20281E+01 0.00000E+00
 -1      3738 9.82390E+01 2.32809E+01 0.00000E+00
 -1      3739 1.42845E+01 3.13007E+01 0.00000E+00
 -1      3740 1.42845E+01 3.27695E+01 0.00000E+00
 -1      3741 1.55745E+01 3.29240E+01 0.00000E+00
 -1      3742 1.55835E+01 3.05663E+01 0.00000E+00
 -1      3743 1.03596E+02 1.47826E+01 0.00000E+00
 -1      3744 1.36041E+02 1.44213E+01 0.00000E+00
 -1      3745 9.91083E+01 2.14731E+01 0.00000E+00
 -1      3746 1.00090E+02 2.08466E+01 0.00000E+00
 -1      3747 9.98293E+01 1.98323E+01 0.00000E+00
 -1      3748 1.29924E+02 1.59535E+01 0.00000E+00
 -1      3749 1.89000E+01 3.31130E+01 0.00000E+00
 -1      3750 2.04000E+01 3.31130E+01 0.00000E+00
 -1      3751 2.79000E+01 3.31130E+01 0.00000E+00
 -1      3752 2.94000E+01 3.31130E+01 0.00000E+00
 -1      3753 3.09000E+01 3.31130E+01 0.00000E+00
 -1      3754 3.24000E+01 3.31130E+01 0.00000E+00
 -1      3755 3.01500E+01 3.18140E+01 0.00000E+00
 -1      3756 3.39000E+01 3.31130E+01 0.00000E+00
 -1      3757 3.54000E+01 3.31130E+01 0.00000E+00
 -1      3758 3.31500E+01 3.18140E+01 0.00000E+00
 -1      3759 3.69000E+01 3.31130E+01 0.00000E+00
 -1      3760 3.84000E+01 3.31130E+01 0.00000E+00
 -1      3761 3.61500E+01 3.18140E+01 0.00000E+00
 -1      3762 3.99000E+01 3.31130E+01 0.00000E+00
 -1      3763 4.14000E+01 3.31130E+01 0.00000E+00
 -1      3764 3.91500E+01 3.18140E+01 0.00000E+00
 -1      3765 4.29000E+01 3.31130E+01 0.00000E+00
 -1      3766 4.44000E+01 3.31130E+01 0.00000E+00
 -1      3767 4.21500E+01 3.18140E+01 0.00000E+00
 -1      3768 4.59000E+01 3.31130E+01 0.00000E+00
 -1      3769 4.74000E+01 3.31130E+01 0.00000E+00
 -1      3770 4.51500E+01 3.18140E+01 0.00000E+00
 -1      3771 4.89000E+01 3.31130E+01 0.00000E+00
 -1      3772 5.04000E+01 3.31130E+01 0.00000E+00
 -1      3773 4.81500E+01 3.18140E+01 0.00000E+00
 -1      3774 5.19000E+01 3.31130E+01 0.00000E+00
 -1      3775 5.34000E+01 3.31130E+01 0.00000E+00
 -1      3776 5.11500E+01 3.18140E+01 0.00000E+00
 -1      3777 5.49000E+01 3.31130E+01 0.00000E+00
 -1      3778 5.64000E+01 3.31130E+01 0.00000E+00
 -1      3779 5.41500E+01 3.18140E+01 0.00000E+00
 -1      3780 5.79000E+01 3.31130E+01 0.00000E+00
 -1      3781 5.94000E+01 3.31130E+01 0.00000E+00
 -1      3782 5.71500E+01 3.18140E+01 0.00000E+00
 -1      3783 6.09000E+01 3.31130E+01 0.00000E+00
 -1      3784 6.24000E+01 3.31130E+01 0.00000E+00
 -1      3785 6.01500E+01 3.18140E+01 0.00000E+00
 -1      3786 6.39000E+01 3.31130E+01 0.00000E+00
 -1      3787 6.54000E+01 3.31130E+01 0.00000E+00
 -1      3788 6.31500E+01 3.18140E+01 0.00000E+00
 -1      3789 6.69000E+01 3.31130E+01 0.00000E+00
 -1      3790 6.84000E+01 3.31130E+01 0.00000E+00
 -1      3791 6.61500E+01 3.18140E+01 0.00000E+00
 -1      3792 6.99000E+01 3.31130E+01 0.00000E+00
 -1      3793 7.14000E+01 3.31130E+01 0.00000E+00
 -1      3794 6.91500E+01 3.18140E+01 0.00000E+00
 -1      3795 7.29000E+01 3.31130E+01 0.00000E+00
 -1      3796 7.44000E+01 3.31130E+01 0.00000E+00
 -1      3797 7.21500E+01 3.18140E+01 0.00000E+00
 -1      3798 7.59000E+01 3.31130E+01 0.00000E+00
 -1      3799 7.74000E+01 3.31130E+01 0.00000E+00
 -1      3800 7.51500E+01 3.18140E+01 0.00000E+00
 -1      3801 7.89000E+01 3.31130E+01 0.00000E+00
 -1      3802 8.04000E+01 3.31130E+01 0.00000E+00
 -1      3803 7.81500E+01 3.18140E+01 0.00000E+00
 -1      3804 8.19000E+01 3.31130E+01 0.00000E+00
 -1      3805 8.34000E+01 3.31130E+01 0.00000E+00
 -1      3806 8.11500E+01 3.18140E+01 0.00000E+00
 -1      3807 8.49000E+01 3.31130E+01 0.00000E+00
 -1      3808 8.64000E+01 3.31130E+01 0.00000E+00
 -1      3809 8.41500E+01 3.18140E+01 0.00000E+00
 -1      3810 8.79000E+01 3.31130E+01 0.00000E+00
 -1      3811 8.94000E+01 3.31130E+01 0.00000E+00
 -1      3812 8.71500E+01 3.18140E+01 0.00000E+00
 -1      3813 9.09000E+01 3.31130E+01 0.00000E+00
 -1      3814 9.24000E+01 3.31130E+01 0.00000E+00
 -1      3815 9.01500E+01 3.18140E+01 0.00000E+00
 -1      3816 9.39000E+01 3.31130E+01 0.00000E+00
 -1      3817 9.54000E+01 3.31130E+01 0.00000E+00
 -1      3818 9.31500E+01 3.18140E+01 0.00000E+00
 -1      3819 1.32967E+02 2.56447E+01 0.00000E+00
 -1      3820 1.32490E+02 2.71097E+01 0.00000E+00
 -1      3821 5.57850E+01 1.56973E+01 0.00000E+00
 -1      3822 5.42850E+01 1.56973E+01 0.00000E+00
 -1      3823 5.27850E+01 1.56973E+01 0.00000E+00
 -1      3824 5.12850E+01 1.56973E+01 0.00000E+00
 -1      3825 5.35350E+01 1.69963E+01 0.00000E+00
 -1      3826 6.17850E+01 1.56973E+01 0.00000E+00
 -1      3827 6.02850E+01 1.56973E+01 0.00000E+00
 -1      3828 6.47850E+01 1.56973E+01 0.00000E+00
 -1      3829 6.32850E+01 1.56973E+01 0.00000E+00
 -1      3830 6.25350E+01 1.69963E+01 0.00000E+00
 -1      3831 6.77850E+01 1.56973E+01 0.00000E+00
 -1      3832 6.62850E+01 1.56973E+01 0.00000E+00
 -1      3833 6.55350E+01 1.69963E+01 0.00000E+00
 -1      3834 7.07850E+01 1.56973E+01 0.00000E+00
 -1      3835 6.92850E+01 1.56973E+01 0.00000E+00
 -1      3836 6.85350E+01 1.69963E+01 0.00000E+00
 -1      3837 7.37850E+01 1.56973E+01 0.00000E+00
 -1      3838 7.22850E+01 1.56973E+01 0.00000E+00
 -1      3839 7.15350E+01 1.69963E+01 0.00000E+00
 -1      3840 7.67850E+01 1.56973E+01 0.00000E+00
 -1      3841 7.52850E+01 1.56973E+01 0.00000E+00
 -1      3842 7.45350E+01 1.69963E+01 0.00000E+00
 -1      3843 7.97850E+01 1.56973E+01 0.00000E+00
 -1      3844 7.82850E+01 1.56973E+01 0.00000E+00
 -1      3845 7.75350E+01 1.69963E+01 0.00000E+00
 -1      3846 8.27850E+01 1.56973E+01 0.00000E+00
 -1      3847 8.12850E+01 1.56973E+01 0.00000E+00
 -1      3848 8.05350E+01 1.69963E+01 0.00000E+00
 -1      3849 8.57850E+01 1.56973E+01 0.00000E+00
 -1      3850 8.42850E+01 1.56973E+01 0.00000E+00
 -1      3851 8.35350E+01 1.69963E+01 0.00000E+00
 -1      3852 8.87850E+01 1.56973E+01 0.00000E+00
 -1      3853 8.72850E+01 1.56973E+01 0.00000E+00
 -1      3854 8.65350E+01 1.69963E+01 0.00000E+00
 -1      3855 9.17850E+01 1.56973E+01 0.00000E+00
 -1      3856 9.02850E+01 1.56973E+01 0.00000E+00
 -1      3857 8.95350E+01 1.69963E+01 0.00000E+00
 -1      3858 9.47850E+01 1.56973E+01 0.00000E+00
 -1      3859 9.32850E+01 1.56973E+01 0.00000E+00
 -1      3860 9.25350E+01 1.69963E+01 0.00000E+00
 -1      3861 9.77850E+01 1.56973E+01 0.00000E+00
 -1      3862 9.62850E+01 1.56973E+01 0.00000E+00
 -1      3863 9.55350E+01 1.69963E+01 0.00000E+00
 -1      3864 1.01173E+02 1.68020E+01 0.00000E+00
 -1      3865 9.96732E+01 1.68020E+01 0.00000E+00
 -1      3866 1.35838E+02 1.55213E+01 0.00000E+00
 -1      3867 1.55880E+01 1.61406E+01 0.00000E+00
 -1      3868 1.42890E+01 1.68750E+01 0.00000E+00
 -1      3869 1.42890E+01 1.83469E+01 0.00000E+00
 -1      3870 1.03380E+02 1.71808E+01 0.00000E+00
 -1      3871 1.33785E+02 1.56973E+01 0.00000E+00
 -1      3872 1.32285E+02 1.56973E+01 0.00000E+00
 -1      3873 1.34804E+02 3.41569E+01 0.00000E+00
 -1      3874 1.33505E+02 3.34194E+01 0.00000E+00
 -1      3875 1.97850E+01 1.56973E+01 0.00000E+00
 -1      3876 1.82851E+01 1.56973E+01 0.00000E+00
 -1      3877 9.84386E+01 2.80526E+01 0.00000E+00
 -1      3878 9.78014E+01 2.70176E+01 0.00000E+00
 -1      3879 9.76214E+01 2.88942E+01 0.00000E+00
 -1      3880 1.30961E+02 1.64776E+01 0.00000E+00
 -1      3881 1.42890E+01 2.57094E+01 0.00000E+00
 -1      3882 1.42890E+01 2.71812E+01 0.00000E+00
 -1      3883 1.55880E+01 2.79156E+01 0.00000E+00
 -1      3884 1.55880E+01 2.49719E+01 0.00000E+00
 -1      3885 9.97145E+01 3.28465E+01 0.00000E+00
 -1      3886 4.37850E+01 1.56973E+01 0.00000E+00
 -1      3887 4.22850E+01 1.56973E+01 0.00000E+00
 -1      3888 2.72850E+01 1.30992E+01 0.00000E+00
 -1      3889 2.57850E+01 1.30992E+01 0.00000E+00
 -1      3890 2.80350E+01 1.43982E+01 0.00000E+00
 -1      3891 1.31083E+02 2.20185E+01 0.00000E+00
 -1      3892 1.30677E+02 2.32167E+01 0.00000E+00
 -1      3893 1.31765E+02 2.39073E+01 0.00000E+00
 -1      3894 9.78272E+01 3.29156E+01 0.00000E+00
 -1      3895 1.32490E+02 2.85847E+01 0.00000E+00
 -1      3896 1.32967E+02 2.41760E+01 0.00000E+00
 -1      3897 1.33003E+02 3.25475E+01 0.00000E+00
 -1      3898 1.31199E+02 2.07785E+01 0.00000E+00
 -1      3899 1.32125E+02 2.17602E+01 0.00000E+00
 -1      3900 1.31314E+02 1.95385E+01 0.00000E+00
 -1      3901 1.33211E+02 2.32688E+01 0.00000E+00
 -1      3902 1.32500E+02 3.02005E+01 0.00000E+00
 -1      3903 5.87850E+01 1.56973E+01 0.00000E+00
 -1      3904 5.72850E+01 1.56973E+01 0.00000E+00
 -1      3905 5.95350E+01 1.69963E+01 0.00000E+00
 -1      3906 9.70772E+01 3.16166E+01 0.00000E+00
 -1      3907 9.70464E+01 2.59667E+01 0.00000E+00
 -1      3908 9.62913E+01 2.49159E+01 0.00000E+00
 -1      3909 9.62292E+01 2.68083E+01 0.00000E+00
 -1      3910 2.19000E+01 3.31130E+01 0.00000E+00
 -1      3911 2.34000E+01 3.31130E+01 0.00000E+00
 -1      3912 2.11500E+01 3.18140E+01 0.00000E+00
 -1      3913 2.49000E+01 3.31130E+01 0.00000E+00
 -1      3914 2.64000E+01 3.31130E+01 0.00000E+00
 -1      3915 2.71500E+01 3.18140E+01 0.00000E+00
 -1      3916 2.41500E+01 3.18140E+01 0.00000E+00
 -1      3917 9.68474E+01 2.30601E+01 0.00000E+00
 -1      3918 9.79778E+01 2.22666E+01 0.00000E+00
 -1      3919 9.77167E+01 2.12523E+01 0.00000E+00
 -1      3920 1.33344E+02 2.05813E+01 0.00000E+00
 -1      3921 1.33228E+02 2.18213E+01 0.00000E+00
 -1      3922 1.33003E+02 3.10725E+01 0.00000E+00
 -1      3923 9.60302E+01 2.39017E+01 0.00000E+00
 -1      3924 9.57691E+01 2.28874E+01 0.00000E+00
 -1      3925 9.52131E+01 2.47433E+01 0.00000E+00
 -1      3926 3.70350E+01 1.43982E+01 0.00000E+00
 -1      3927 5.65350E+01 1.69963E+01 0.00000E+00
 -1      3928 2.50350E+01 1.43982E+01 0.00000E+00
 -1      3929 3.17850E+01 1.56973E+01 0.00000E+00
 -1      3930 3.02850E+01 1.56973E+01 0.00000E+00
 -1      3931 1.34508E+02 1.60728E+01 0.00000E+00
 -1      3932 4.07850E+01 1.56973E+01 0.00000E+00
 -1      3933 3.92850E+01 1.56973E+01 0.00000E+00
 -1      3934 4.15350E+01 1.69963E+01 0.00000E+00
 -1      3935 3.47850E+01 1.56973E+01 0.00000E+00
 -1      3936 3.32850E+01 1.56973E+01 0.00000E+00
 -1      3937 3.25350E+01 1.69963E+01 0.00000E+00
 -1      3938 5.05350E+01 1.69963E+01 0.00000E+00
 -1      3939 4.97850E+01 1.56973E+01 0.00000E+00
 -1      3940 4.82850E+01 1.56973E+01 0.00000E+00
 -1      3941 9.89232E+01 1.81010E+01 0.00000E+00
 -1      3942 1.31711E+02 1.77766E+01 0.00000E+00
 -1      3943 1.65923E+01 3.29412E+01 0.00000E+00
 -1      3944 1.78822E+01 3.30958E+01 0.00000E+00
 -1      3945 1.86322E+01 3.17968E+01 0.00000E+00
 -1      3946 1.65968E+01 3.17624E+01 0.00000E+00
 -1      3947 1.68870E+01 2.71797E+01 0.00000E+00
 -1      3948 1.68870E+01 2.86516E+01 0.00000E+00
 -1      3949 1.68870E+01 2.42359E+01 0.00000E+00
 -1      3950 1.68870E+01 2.57078E+01 0.00000E+00
 -1      3951 1.81860E+01 2.64438E+01 0.00000E+00
 -1      3952 4.52850E+01 1.56973E+01 0.00000E+00
 -1      3953 4.45350E+01 1.69963E+01 0.00000E+00
 -1      3954 4.67850E+01 1.56973E+01 0.00000E+00
 -1      3955 1.33361E+02 1.91338E+01 0.00000E+00
 -1      3956 2.27850E+01 1.56973E+01 0.00000E+00
 -1      3957 2.12850E+01 1.56973E+01 0.00000E+00
 -1      3958 2.05351E+01 1.69963E+01 0.00000E+00
 -1      3959 1.55880E+01 1.90844E+01 0.00000E+00
 -1      3960 1.68870E+01 2.12922E+01 0.00000E+00
 -1      3961 1.68870E+01 2.27641E+01 0.00000E+00
 -1      3962 1.81860E+01 2.35000E+01 0.00000E+00
 -1      3963 1.66012E+01 3.05835E+01 0.00000E+00
 -1      3964 1.33758E+02 1.73718E+01 0.00000E+00
 -1      3965 1.79002E+01 2.98476E+01 0.00000E+00
 -1      3966 3.77850E+01 1.56973E+01 0.00000E+00
 -1      3967 3.62850E+01 1.56973E+01 0.00000E+00
 -1      3968 3.55350E+01 1.69963E+01 0.00000E+00
 -1      3969 3.85350E+01 1.69963E+01 0.00000E+00
 -1      3970 3.24000E+01 3.05150E+01 0.00000E+00
 -1      3971 3.39000E+01 3.05150E+01 0.00000E+00
 -1      3972 3.54000E+01 3.05150E+01 0.00000E+00
 -1      3973 3.69000E+01 3.05150E+01 0.00000E+00
 -1      3974 3.46500E+01 2.92160E+01 0.00000E+00
 -1      3975 3.84000E+01 3.05150E+01 0.00000E+00
 -1      3976 3.99000E+01 3.05150E+01 0.00000E+00
 -1      3977 3.76500E+01 2.92160E+01 0.00000E+00
 -1      3978 4.14000E+01 3.05150E+01 0.00000E+00
 -1      3979 4.29000E+01 3.05150E+01 0.00000E+00
 -1      3980 4.06500E+01 2.92160E+01 0.00000E+00
 -1      3981 4.44000E+01 3.05150E+01 0.00000E+00
 -1      3982 4.59000E+01 3.05150E+01 0.00000E+00
 -1      3983 4.36500E+01 2.92160E+01 0.00000E+00
 -1      3984 4.74000E+01 3.05150E+01 0.00000E+00
 -1      3985 4.89000E+01 3.05150E+01 0.00000E+00
 -1      3986 4.66500E+01 2.92160E+01 0.00000E+00
 -1      3987 5.04000E+01 3.05150E+01 0.00000E+00
 -1      3988 5.19000E+01 3.05150E+01 0.00000E+00
 -1      3989 4.96500E+01 2.92160E+01 0.00000E+00
 -1      3990 5.34000E+01 3.05150E+01 0.00000E+00
 -1      3991 5.49000E+01 3.05150E+01 0.00000E+00
 -1      3992 5.26500E+01 2.92160E+01 0.00000E+00
 -1      3993 5.64000E+01 3.05150E+01 0.00000E+00
 -1      3994 5.79000E+01 3.05150E+01 0.00000E+00
 -1      3995 5.56500E+01 2.92160E+01 0.00000E+00
 -1      3996 5.94000E+01 3.05150E+01 0.00000E+00
 -1      3997 6.09000E+01 3.05150E+01 0.00000E+00
 -1      3998 5.86500E+01 2.92160E+01 0.00000E+00
 -1      3999 6.24000E+01 3.05150E+01 0.00000E+00
 -1      4000 6.39000E+01 3.05150E+01 0.00000E+00
 -1      4001 6.16500E+01 2.92160E+01 0.00000E+00
 -1      4002 6.54000E+01 3.05150E+01 0.00000E+00
 -1      4003 6.69000E+01 3.05150E+01 0.00000E+00
 -1      4004 6.46500E+01 2.92160E+01 0.00000E+00
 -1      4005 6.84000E+01 3.05150E+01 0.00000E+00
 -1      4006 6.99000E+01 3.05150E+01 0.00000E+00
 -1      4007 6.76500E+01 2.92160E+01 0.00000E+00
 -1      4008 7.14000E+01 3.05150E+01 0.00000E+00
 -1      4009 7.29000E+01 3.05150E+01 0.00000E+00
 -1      4010 7.06500E+01 2.92160E+01 0.00000E+00
 -1      4011 7.44000E+01 3.05150E+01 0.00000E+00
 -1      4012 7.59000E+01 3.05150E+01 0.00000E+00
 -1      4013 7.36500E+01 2.92160E+01 0.00000E+00
 -1      4014 7.74000E+01 3.05150E+01 0.00000E+00
 -1      4015 7.89000E+01 3.05150E+01 0.00000E+00
 -1      4016 7.66500E+01 2.92160E+01 0.00000E+00
 -1      4017 8.04000E+01 3.05150E+01 0.00000E+00
 -1      4018 8.19000E+01 3.05150E+01 0.00000E+00
 -1      4019 7.96500E+01 2.92160E+01 0.00000E+00
 -1      4020 8.34000E+01 3.05150E+01 0.00000E+00
 -1      4021 8.49000E+01 3.05150E+01 0.00000E+00
 -1      4022 8.26500E+01 2.92160E+01 0.00000E+00
 -1      4023 8.64000E+01 3.05150E+01 0.00000E+00
 -1      4024 8.79000E+01 3.05150E+01 0.00000E+00
 -1      4025 8.56500E+01 2.92160E+01 0.00000E+00
 -1      4026 8.94000E+01 3.05150E+01 0.00000E+00
 -1      4027 9.09000E+01 3.05150E+01 0.00000E+00
 -1      4028 8.86500E+01 2.92160E+01 0.00000E+00
 -1      4029 9.24000E+01 3.05150E+01 0.00000E+00
 -1      4030 9.39000E+01 3.05150E+01 0.00000E+00
 -1      4031 9.16500E+01 2.92160E+01 0.00000E+00
 -1      4032 5.72850E+01 1.82952E+01 0.00000E+00
 -1      4033 5.57850E+01 1.82952E+01 0.00000E+00
 -1      4034 2.57850E+01 1.56973E+01 0.00000E+00
 -1      4035 2.42850E+01 1.56973E+01 0.00000E+00
 -1      4036 2.35351E+01 1.69963E+01 0.00000E+00
 -1      4037 6.62850E+01 1.82952E+01 0.00000E+00
 -1      4038 6.47850E+01 1.82952E+01 0.00000E+00
 -1      4039 6.32850E+01 1.82952E+01 0.00000E+00
 -1      4040 6.17850E+01 1.82952E+01 0.00000E+00
 -1      4041 6.40350E+01 1.95942E+01 0.00000E+00
 -1      4042 7.22850E+01 1.82952E+01 0.00000E+00
 -1      4043 7.07850E+01 1.82952E+01 0.00000E+00
 -1      4044 7.52850E+01 1.82952E+01 0.00000E+00
 -1      4045 7.37850E+01 1.82952E+01 0.00000E+00
 -1      4046 7.30350E+01 1.95942E+01 0.00000E+00
 -1      4047 7.82850E+01 1.82952E+01 0.00000E+00
 -1      4048 7.67850E+01 1.82952E+01 0.00000E+00
 -1      4049 7.60350E+01 1.95942E+01 0.00000E+00
 -1      4050 8.12850E+01 1.82952E+01 0.00000E+00
 -1      4051 7.97850E+01 1.82952E+01 0.00000E+00
 -1      4052 7.90350E+01 1.95942E+01 0.00000E+00
 -1      4053 8.42850E+01 1.82952E+01 0.00000E+00
 -1      4054 8.27850E+01 1.82952E+01 0.00000E+00
 -1      4055 8.20350E+01 1.95942E+01 0.00000E+00
 -1      4056 8.72850E+01 1.82952E+01 0.00000E+00
 -1      4057 8.57850E+01 1.82952E+01 0.00000E+00
 -1      4058 8.50350E+01 1.95942E+01 0.00000E+00
 -1      4059 9.02850E+01 1.82952E+01 0.00000E+00
 -1      4060 8.87850E+01 1.82952E+01 0.00000E+00
 -1      4061 8.80350E+01 1.95942E+01 0.00000E+00
 -1      4062 9.32850E+01 1.82952E+01 0.00000E+00
 -1      4063 9.17850E+01 1.82952E+01 0.00000E+00
 -1      4064 9.10350E+01 1.95942E+01 0.00000E+00
 -1      4065 1.73115E+01 1.58325E+01 0.00000E+00
 -1      4066 1.73115E+01 1.73044E+01 0.00000E+00
 -1      4067 9.79411E+01 1.87275E+01 0.00000E+00
 -1      4068 1.67642E+01 1.37415E+01 0.00000E+00
 -1      4069 1.32638E+02 1.87582E+01 0.00000E+00
 -1      4070 1.94850E+01 2.57078E+01 0.00000E+00
 -1      4071 1.94850E+01 2.71797E+01 0.00000E+00
 -1      4072 6.92850E+01 1.82952E+01 0.00000E+00
 -1      4073 6.77850E+01 1.82952E+01 0.00000E+00
 -1      4074 6.70350E+01 1.95942E+01 0.00000E+00
 -1      4075 2.87850E+01 1.56973E+01 0.00000E+00
 -1      4076 2.72850E+01 1.56973E+01 0.00000E+00
 -1      4077 2.65350E+01 1.69963E+01 0.00000E+00
 -1      4078 2.95350E+01 1.69963E+01 0.00000E+00
 -1      4079 6.02850E+01 1.82952E+01 0.00000E+00
 -1      4080 5.87850E+01 1.82952E+01 0.00000E+00
 -1      4081 5.80350E+01 1.95942E+01 0.00000E+00
 -1      4082 9.50671E+01 2.85376E+01 0.00000E+00
 -1      4083 9.43121E+01 2.74868E+01 0.00000E+00
 -1      4084 2.04000E+01 3.05150E+01 0.00000E+00
 -1      4085 2.19000E+01 3.05150E+01 0.00000E+00
 -1      4086 1.65615E+01 1.45335E+01 0.00000E+00
 -1      4087 1.70993E+01 1.85623E+01 0.00000E+00
 -1      4088 1.70993E+01 2.00342E+01 0.00000E+00
 -1      4089 1.83983E+01 2.07702E+01 0.00000E+00
 -1      4090 1.88228E+01 1.82542E+01 0.00000E+00
 -1      4091 5.42850E+01 1.82952E+01 0.00000E+00
 -1      4092 5.27850E+01 1.82952E+01 0.00000E+00
 -1      4093 5.50350E+01 1.95942E+01 0.00000E+00
 -1      4094 2.94000E+01 3.05150E+01 0.00000E+00
 -1      4095 3.09000E+01 3.05150E+01 0.00000E+00
 -1      4096 3.16500E+01 2.92160E+01 0.00000E+00
 -1      4097 9.70789E+01 1.99899E+01 0.00000E+00
 -1      4098 9.61728E+01 1.82586E+01 0.00000E+00
 -1      4099 9.46728E+01 1.82586E+01 0.00000E+00
 -1      4100 9.59485E+01 2.07834E+01 0.00000E+00
 -1      4101 5.12850E+01 1.82952E+01 0.00000E+00
 -1      4102 4.97850E+01 1.82952E+01 0.00000E+00
 -1      4103 5.20350E+01 1.95942E+01 0.00000E+00
 -1      4104 4.52850E+01 1.82952E+01 0.00000E+00
 -1      4105 4.37850E+01 1.82952E+01 0.00000E+00
 -1      4106 9.26529E+01 2.76268E+01 0.00000E+00
 -1      4107 9.38150E+01 2.58976E+01 0.00000E+00
 -1      4108 6.10350E+01 1.95942E+01 0.00000E+00
 -1      4109 4.22850E+01 1.82952E+01 0.00000E+00
 -1      4110 4.07850E+01 1.82952E+01 0.00000E+00
 -1      4111 4.30350E+01 1.95942E+01 0.00000E+00
 -1      4112 9.39228E+01 1.95576E+01 0.00000E+00
 -1      4113 9.64543E+01 3.08716E+01 0.00000E+00
 -1      4114 9.57043E+01 2.95726E+01 0.00000E+00
 -1      4115 9.35539E+01 2.48833E+01 0.00000E+00
 -1      4116 1.02108E+02 1.65402E+01 0.00000E+00
 -1      4117 1.96680E+01 2.85658E+01 0.00000E+00
 -1      4118 1.93822E+01 3.04978E+01 0.00000E+00
 -1      4119 7.00350E+01 1.95942E+01 0.00000E+00
 -1      4120 1.94850E+01 2.42359E+01 0.00000E+00
 -1      4121 2.07840E+01 2.49719E+01 0.00000E+00
 -1      4122 1.94850E+01 2.27641E+01 0.00000E+00
 -1      4123 4.75350E+01 1.69963E+01 0.00000E+00
 -1      4124 1.02807E+02 1.50388E+01 0.00000E+00
 -1      4125 3.02850E+01 1.82953E+01 0.00000E+00
 -1      4126 2.87850E+01 1.82953E+01 0.00000E+00
 -1      4127 2.26500E+01 2.92160E+01 0.00000E+00
 -1      4128 2.34000E+01 3.05150E+01 0.00000E+00
 -1      4129 2.49000E+01 3.05150E+01 0.00000E+00
 -1      4130 2.64000E+01 3.05150E+01 0.00000E+00
 -1      4131 2.79000E+01 3.05150E+01 0.00000E+00
 -1      4132 2.56500E+01 2.92160E+01 0.00000E+00
 -1      4133 2.03228E+01 1.82542E+01 0.00000E+00
 -1      4134 2.01105E+01 1.95122E+01 0.00000E+00
 -1      4135 2.18228E+01 1.82542E+01 0.00000E+00
 -1      4136 2.86500E+01 2.92160E+01 0.00000E+00
 -1      4137 2.09670E+01 2.78299E+01 0.00000E+00
 -1      4138 9.51649E+01 2.18537E+01 0.00000E+00
 -1      4139 9.45271E+01 2.05913E+01 0.00000E+00
 -1      4140 9.31392E+01 2.06279E+01 0.00000E+00
 -1      4141 9.43477E+01 2.26953E+01 0.00000E+00
 -1      4142 3.32850E+01 1.82953E+01 0.00000E+00
 -1      4143 3.17850E+01 1.82953E+01 0.00000E+00
 -1      4144 3.10350E+01 1.95943E+01 0.00000E+00
 -1      4145 2.72850E+01 1.82953E+01 0.00000E+00
 -1      4146 2.57851E+01 1.82953E+01 0.00000E+00
 -1      4147 2.80350E+01 1.95943E+01 0.00000E+00
 -1      4148 4.67850E+01 1.82952E+01 0.00000E+00
 -1      4149 4.60350E+01 1.95942E+01 0.00000E+00
 -1      4150 4.82850E+01 1.82952E+01 0.00000E+00
 -1      4151 3.39000E+01 2.79170E+01 0.00000E+00
 -1      4152 3.54000E+01 2.79170E+01 0.00000E+00
 -1      4153 3.09000E+01 2.79170E+01 0.00000E+00
 -1      4154 3.24000E+01 2.79170E+01 0.00000E+00
 -1      4155 3.31500E+01 2.66180E+01 0.00000E+00
 -1      4156 3.69000E+01 2.79170E+01 0.00000E+00
 -1      4157 3.84000E+01 2.79170E+01 0.00000E+00
 -1      4158 3.61500E+01 2.66180E+01 0.00000E+00
 -1      4159 3.99000E+01 2.79170E+01 0.00000E+00
 -1      4160 4.14000E+01 2.79170E+01 0.00000E+00
 -1      4161 3.91500E+01 2.66180E+01 0.00000E+00
 -1      4162 4.29000E+01 2.79170E+01 0.00000E+00
 -1      4163 4.44000E+01 2.79170E+01 0.00000E+00
 -1      4164 4.21500E+01 2.66180E+01 0.00000E+00
 -1      4165 4.59000E+01 2.79170E+01 0.00000E+00
 -1      4166 4.74000E+01 2.79170E+01 0.00000E+00
 -1      4167 4.51500E+01 2.66180E+01 0.00000E+00
 -1      4168 4.89000E+01 2.79170E+01 0.00000E+00
 -1      4169 5.04000E+01 2.79170E+01 0.00000E+00
 -1      4170 4.81500E+01 2.66180E+01 0.00000E+00
 -1      4171 5.19000E+01 2.79170E+01 0.00000E+00
 -1      4172 5.34000E+01 2.79170E+01 0.00000E+00
 -1      4173 5.11500E+01 2.66180E+01 0.00000E+00
 -1      4174 5.49000E+01 2.79170E+01 0.00000E+00
 -1      4175 5.64000E+01 2.79170E+01 0.00000E+00
 -1      4176 5.41500E+01 2.66180E+01 0.00000E+00
 -1      4177 5.79000E+01 2.79170E+01 0.00000E+00
 -1      4178 5.94000E+01 2.79170E+01 0.00000E+00
 -1      4179 5.71500E+01 2.66180E+01 0.00000E+00
 -1      4180 6.09000E+01 2.79170E+01 0.00000E+00
 -1      4181 6.24000E+01 2.79170E+01 0.00000E+00
 -1      4182 6.01500E+01 2.66180E+01 0.00000E+00
 -1      4183 6.39000E+01 2.79170E+01 0.00000E+00
 -1      4184 6.54000E+01 2.79170E+01 0.00000E+00
 -1      4185 6.31500E+01 2.66180E+01 0.00000E+00
 -1      4186 6.69000E+01 2.79170E+01 0.00000E+00
 -1      4187 6.84000E+01 2.79170E+01 0.00000E+00
 -1      4188 6.61500E+01 2.66180E+01 0.00000E+00
 -1      4189 6.99000E+01 2.79170E+01 0.00000E+00
 -1      4190 7.14000E+01 2.79170E+01 0.00000E+00
 -1      4191 6.91500E+01 2.66180E+01 0.00000E+00
 -1      4192 7.29000E+01 2.79170E+01 0.00000E+00
 -1      4193 7.44000E+01 2.79170E+01 0.00000E+00
 -1      4194 7.21500E+01 2.66180E+01 0.00000E+00
 -1      4195 7.59000E+01 2.79170E+01 0.00000E+00
 -1      4196 7.74000E+01 2.79170E+01 0.00000E+00
 -1      4197 7.51500E+01 2.66180E+01 0.00000E+00
 -1      4198 7.89000E+01 2.79170E+01 0.00000E+00
 -1      4199 8.04000E+01 2.79170E+01 0.00000E+00
 -1      4200 7.81500E+01 2.66180E+01 0.00000E+00
 -1      4201 8.19000E+01 2.79170E+01 0.00000E+00
 -1      4202 8.34000E+01 2.79170E+01 0.00000E+00
 -1      4203 8.11500E+01 2.66180E+01 0.00000E+00
 -1      4204 8.49000E+01 2.79170E+01 0.00000E+00
 -1      4205 8.64000E+01 2.79170E+01 0.00000E+00
 -1      4206 8.41500E+01 2.66180E+01 0.00000E+00
 -1      4207 8.79000E+01 2.79170E+01 0.00000E+00
 -1      4208 8.94000E+01 2.79170E+01 0.00000E+00
 -1      4209 8.71500E+01 2.66180E+01 0.00000E+00
 -1      4210 9.11529E+01 2.76268E+01 0.00000E+00
 -1      4211 6.17850E+01 2.08932E+01 0.00000E+00
 -1      4212 6.02850E+01 2.08932E+01 0.00000E+00
 -1      4213 2.45539E+01 1.82747E+01 0.00000E+00
 -1      4214 2.30539E+01 1.82747E+01 0.00000E+00
 -1      4215 2.28417E+01 1.95327E+01 0.00000E+00
 -1      4216 2.53039E+01 1.95737E+01 0.00000E+00
 -1      4217 7.67850E+01 2.08932E+01 0.00000E+00
 -1      4218 7.52850E+01 2.08932E+01 0.00000E+00
 -1      4219 7.37850E+01 2.08932E+01 0.00000E+00
 -1      4220 7.22850E+01 2.08932E+01 0.00000E+00
 -1      4221 7.45350E+01 2.21922E+01 0.00000E+00
 -1      4222 8.27850E+01 2.08932E+01 0.00000E+00
 -1      4223 8.12850E+01 2.08932E+01 0.00000E+00
 -1      4224 8.57850E+01 2.08932E+01 0.00000E+00
 -1      4225 8.42850E+01 2.08932E+01 0.00000E+00
 -1      4226 8.35350E+01 2.21922E+01 0.00000E+00
 -1      4227 8.87850E+01 2.08932E+01 0.00000E+00
 -1      4228 8.72850E+01 2.08932E+01 0.00000E+00
 -1      4229 8.65350E+01 2.21922E+01 0.00000E+00
 -1      4230 9.17850E+01 2.08932E+01 0.00000E+00
 -1      4231 9.02850E+01 2.08932E+01 0.00000E+00
 -1      4232 8.95350E+01 2.21922E+01 0.00000E+00
 -1      4233 7.07850E+01 2.08932E+01 0.00000E+00
 -1      4234 6.92850E+01 2.08932E+01 0.00000E+00
 -1      4235 7.15350E+01 2.21922E+01 0.00000E+00
 -1      4236 1.99039E+01 2.05091E+01 0.00000E+00
 -1      4237 1.96916E+01 2.17671E+01 0.00000E+00
 -1      4238 2.09906E+01 2.25030E+01 0.00000E+00
 -1      4239 2.14039E+01 2.05091E+01 0.00000E+00
 -1      4240 6.77850E+01 2.08932E+01 0.00000E+00
 -1      4241 6.62850E+01 2.08932E+01 0.00000E+00
 -1      4242 6.85350E+01 2.21922E+01 0.00000E+00
 -1      4243 5.87850E+01 2.08932E+01 0.00000E+00
 -1      4244 5.72850E+01 2.08932E+01 0.00000E+00
 -1      4245 5.95350E+01 2.21922E+01 0.00000E+00
 -1      4246 5.57850E+01 2.08932E+01 0.00000E+00
 -1      4247 5.42850E+01 2.08932E+01 0.00000E+00
 -1      4248 5.65350E+01 2.21922E+01 0.00000E+00
 -1      4249 7.97850E+01 2.08932E+01 0.00000E+00
 -1      4250 7.82850E+01 2.08932E+01 0.00000E+00
 -1      4251 8.05350E+01 2.21922E+01 0.00000E+00
 -1      4252 6.47850E+01 2.08932E+01 0.00000E+00
 -1      4253 6.32850E+01 2.08932E+01 0.00000E+00
 -1      4254 6.25350E+01 2.21922E+01 0.00000E+00
 -1      4255 6.55350E+01 2.21922E+01 0.00000E+00
 -1      4256 2.22840E+01 2.64438E+01 0.00000E+00
 -1      4257 2.24670E+01 2.78299E+01 0.00000E+00
 -1      4258 2.39670E+01 2.78299E+01 0.00000E+00
 -1      4259 2.79000E+01 2.79170E+01 0.00000E+00
 -1      4260 2.94000E+01 2.79170E+01 0.00000E+00
 -1      4261 3.01500E+01 2.66180E+01 0.00000E+00
 -1      4262 9.04029E+01 2.63278E+01 0.00000E+00
 -1      4263 4.90350E+01 1.95942E+01 0.00000E+00
 -1      4264 2.22840E+01 2.49719E+01 0.00000E+00
 -1      4265 4.37850E+01 2.08932E+01 0.00000E+00
 -1      4266 4.22850E+01 2.08932E+01 0.00000E+00
 -1      4267 4.00350E+01 1.95942E+01 0.00000E+00
 -1      4268 3.92850E+01 1.82952E+01 0.00000E+00
 -1      4269 3.77850E+01 1.82952E+01 0.00000E+00
 -1      4270 9.23892E+01 2.19269E+01 0.00000E+00
 -1      4271 9.20278E+01 2.44588E+01 0.00000E+00
 -1      4272 9.34259E+01 2.33045E+01 0.00000E+00
 -1      4273 5.27850E+01 2.08932E+01 0.00000E+00
 -1      4274 5.12850E+01 2.08932E+01 0.00000E+00
 -1      4275 5.35350E+01 2.21922E+01 0.00000E+00
 -1      4276 3.17850E+01 2.08933E+01 0.00000E+00
 -1      4277 3.02850E+01 2.08933E+01 0.00000E+00
 -1      4278 3.62850E+01 1.82953E+01 0.00000E+00
 -1      4279 3.47850E+01 1.82953E+01 0.00000E+00
 -1      4280 3.40350E+01 1.95943E+01 0.00000E+00
 -1      4281 3.70350E+01 1.95943E+01 0.00000E+00
 -1      4282 7.75350E+01 2.21922E+01 0.00000E+00
 -1      4283 4.67850E+01 2.08932E+01 0.00000E+00
 -1      4284 4.52850E+01 2.08932E+01 0.00000E+00
 -1      4285 4.45350E+01 2.21922E+01 0.00000E+00
 -1      4286 2.51835E+01 2.78734E+01 0.00000E+00
 -1      4287 2.66835E+01 2.78734E+01 0.00000E+00
 -1      4288 2.74335E+01 2.65744E+01 0.00000E+00
 -1      4289 2.50005E+01 2.64873E+01 0.00000E+00
 -1      4290 2.95350E+01 2.21923E+01 0.00000E+00
 -1      4291 2.87850E+01 2.08933E+01 0.00000E+00
 -1      4292 2.72851E+01 2.08933E+01 0.00000E+00
 -1      4293 9.02749E+01 2.47490E+01 0.00000E+00
 -1      4294 3.24000E+01 2.53190E+01 0.00000E+00
 -1      4295 3.39000E+01 2.53190E+01 0.00000E+00
 -1      4296 3.54000E+01 2.53190E+01 0.00000E+00
 -1      4297 3.69000E+01 2.53190E+01 0.00000E+00
 -1      4298 3.46500E+01 2.40200E+01 0.00000E+00
 -1      4299 3.84000E+01 2.53190E+01 0.00000E+00
 -1      4300 3.99000E+01 2.53190E+01 0.00000E+00
 -1      4301 3.76500E+01 2.40200E+01 0.00000E+00
 -1      4302 4.18425E+01 2.44051E+01 0.00000E+00
 -1      4303 4.33425E+01 2.44051E+01 0.00000E+00
 -1      4304 4.48425E+01 2.44051E+01 0.00000E+00
 -1      4305 4.63425E+01 2.44051E+01 0.00000E+00
 -1      4306 5.04000E+01 2.53190E+01 0.00000E+00
 -1      4307 5.19000E+01 2.53190E+01 0.00000E+00
 -1      4308 5.38425E+01 2.44051E+01 0.00000E+00
 -1      4309 5.53425E+01 2.44051E+01 0.00000E+00
 -1      4310 5.68425E+01 2.44051E+01 0.00000E+00
 -1      4311 5.83425E+01 2.44051E+01 0.00000E+00
 -1      4312 5.98425E+01 2.44051E+01 0.00000E+00
 -1      4313 6.13425E+01 2.44051E+01 0.00000E+00
 -1      4314 6.28425E+01 2.44051E+01 0.00000E+00
 -1      4315 6.43425E+01 2.44051E+01 0.00000E+00
 -1      4316 6.58425E+01 2.44051E+01 0.00000E+00
 -1      4317 6.73425E+01 2.44051E+01 0.00000E+00
 -1      4318 6.88425E+01 2.44051E+01 0.00000E+00
 -1      4319 7.03425E+01 2.44051E+01 0.00000E+00
 -1      4320 7.18425E+01 2.44051E+01 0.00000E+00
 -1      4321 7.33425E+01 2.44051E+01 0.00000E+00
 -1      4322 7.48425E+01 2.44051E+01 0.00000E+00
 -1      4323 7.63425E+01 2.44051E+01 0.00000E+00
 -1      4324 7.78425E+01 2.44051E+01 0.00000E+00
 -1      4325 7.93425E+01 2.44051E+01 0.00000E+00
 -1      4326 8.08425E+01 2.44051E+01 0.00000E+00
 -1      4327 8.23425E+01 2.44051E+01 0.00000E+00
 -1      4328 8.38425E+01 2.44051E+01 0.00000E+00
 -1      4329 8.53425E+01 2.44051E+01 0.00000E+00
 -1      4330 8.68425E+01 2.44051E+01 0.00000E+00
 -1      4331 8.83425E+01 2.44051E+01 0.00000E+00
 -1      4332 2.24438E+01 2.33088E+01 0.00000E+00
 -1      4333 2.39438E+01 2.47806E+01 0.00000E+00
 -1      4334 3.28425E+01 2.18071E+01 0.00000E+00
 -1      4335 3.20925E+01 2.31061E+01 0.00000E+00
 -1      4336 4.10925E+01 2.31061E+01 0.00000E+00
 -1      4337 4.03425E+01 2.18071E+01 0.00000E+00
 -1      4338 4.97850E+01 2.08932E+01 0.00000E+00
 -1      4339 4.82850E+01 2.08932E+01 0.00000E+00
 -1      4340 5.05350E+01 2.21922E+01 0.00000E+00
 -1      4341 3.88425E+01 2.18071E+01 0.00000E+00
 -1      4342 4.74000E+01 2.53190E+01 0.00000E+00
 -1      4343 4.89000E+01 2.53190E+01 0.00000E+00
 -1      4344 4.96500E+01 2.40200E+01 0.00000E+00
 -1      4345 2.51603E+01 2.48242E+01 0.00000E+00
 -1      4346 2.53193E+01 2.13559E+01 0.00000E+00
 -1      4347 2.40882E+01 2.13354E+01 0.00000E+00
 -1      4348 2.28571E+01 2.13149E+01 0.00000E+00
 -1      4349 3.43425E+01 2.18071E+01 0.00000E+00
 -1      4350 3.14963E+01 2.42126E+01 0.00000E+00
 -1      4351 3.04388E+01 2.32987E+01 0.00000E+00
 -1      4352 2.89388E+01 2.32987E+01 0.00000E+00
 -1      4353 3.07463E+01 2.55116E+01 0.00000E+00
 -1      4354 9.28216E+01 2.22708E+01 0.00000E+00
 -1      4355 5.30925E+01 2.31061E+01 0.00000E+00
 -1      4356 2.60693E+01 2.26549E+01 0.00000E+00
 -1      4357 4.75350E+01 2.21922E+01 0.00000E+00
 -1      4358 2.92463E+01 2.55116E+01 0.00000E+00
 -1      4359 2.78880E+01 2.54898E+01 0.00000E+00
 -1      4360 2.84843E+01 2.43833E+01 0.00000E+00
 -1      4361 2.75805E+01 2.32769E+01 0.00000E+00
 -1      4362 2.66715E+01 2.54462E+01 0.00000E+00
 -1      4363 4.70925E+01 2.31061E+01 0.00000E+00
 -1      4364 3.73425E+01 2.18071E+01 0.00000E+00
 -1      4365 3.58425E+01 2.18071E+01 0.00000E+00
 -1      4366 4.85925E+01 2.31061E+01 0.00000E+00
 -1      4367 5.00925E+01 2.31061E+01 0.00000E+00
 -1      4368 8.98425E+01 2.44051E+01 0.00000E+00
 -1      4369 2.26504E+01 2.23118E+01 0.00000E+00
 -1      4370 2.56148E+01 2.37395E+01 0.00000E+00
 -1      4371 5.15925E+01 2.31061E+01 0.00000E+00
 -1      4372 9.14674E+01 2.25361E+01 0.00000E+00
 -3
    3C                          2104                                     1
 -1       165    8    0    1
 -2         6         7        23      1135      1299      1152
 -1       166    8    0    1
 -2         7         8       165      1136      1300      1301
 -1       167    8    0    1
 -2         8         9       166      1137      1302      1303
 -1       168    8    0    1
 -2         8       166       165      1303      1304      1300
 -1       169    8    0    1
 -2         9        10       167      1138      1305      1306
 -1       170    8    0    1
 -2         9       167       166      1306      1307      1302
 -1       171    8    0    1
 -2        10        11       168      1139      1308      1309
 -1       172    8    0    1
 -2        10       168       167      1309      1310      1305
 -1       173    8    0    1
 -2        11        12       169      1140      1311      1312
 -1       174    8    0    1
 -2        11       169       168      1312      1313      1308
 -1       175    8    0    1
 -2        12        13       170      1141      1314      1315
 -1       176    8    0    1
 -2        12       170       169      1315      1316      1311
 -1       177    8    0    1
 -2        13        14       171      1142      1317      1318
 -1       178    8    0    1
 -2        13       171       170      1318      1319      1314
 -1       179    8    0    1
 -2        14        15       172      1143      1320      1321
 -1       180    8    0    1
 -2        14       172       171      1321      1322      1317
 -1       181    8    0    1
 -2        15        16       173      1144      1323      1324
 -1       182    8    0    1
 -2        15       173       172      1324      1325      1320
 -1       183    8    0    1
 -2        16        17       174      1145      1326      1327
 -1       184    8    0    1
 -2        16       174       173      1327      1328      1323
 -1       185    8    0    1
 -2        17        18       175      1146      1329      1330
 -1       186    8    0    1
 -2        17       175       174      1330      1331      1326
 -1       187    8    0    1
 -2        18        19       176      1147      1332      1333
 -1       188    8    0    1
 -2        18       176       175      1333      1334      1329
 -1       189    8    0    1
 -2        19        20       177      1148      1335      1336
 -1       190    8    0    1
 -2        19       177       176      1336      1337      1332
 -1       191    8    0    1
 -2        20        21       178      1149      1338      1339
 -1       192    8    0    1
 -2        20       178       177      1339      1340      1335
 -1       193    8    0    1
 -2        21        22       179      1150      1341      1342
 -1       194    8    0    1
 -2        21       179       178      1342      1343      1338
 -1       195    8    0    1
 -2        22         5       180      1151      1344      1345
 -1       196    8    0    1
 -2       179        22       180      1341      1345      1346
 -1       197    8    0    1
 -2         5        72       180      1202      1347      1344
 -1       198    8    0    1
 -2        24        23       181      1153      1348      1349
 -1       199    8    0    1
 -2        25        24       182      1154      1350      1351
 -1       200    8    0    1
 -2        24       181       182      1349      1352      1350
 -1       201    8    0    1
 -2        26        25       183      1155      1353      1354
 -1       202    8    0    1
 -2        25       182       183      1351      1355      1353
 -1       203    8    0    1
 -2        27        26       184      1156      1356      1357
 -1       204    8    0    1
 -2        26       183       184      1354      1358      1356
 -1       205    8    0    1
 -2        28        27       185      1157      1359      1360
 -1       206    8    0    1
 -2        27       184       185      1357      1361      1359
 -1       207    8    0    1
 -2        29        28       186      1158      1362      1363
 -1       208    8    0    1
 -2        28       185       186      1360      1364      1362
 -1       209    8    0    1
 -2        30        29       187      1159      1365      1366
 -1       210    8    0    1
 -2        29       186       187      1363      1367      1365
 -1       211    8    0    1
 -2        31        30       188      1160      1368      1369
 -1       212    8    0    1
 -2        30       187       188      1366      1370      1368
 -1       213    8    0    1
 -2        32        31       189      1161      1371      1372
 -1       214    8    0    1
 -2        31       188       189      1369      1373      1371
 -1       215    8    0    1
 -2        33        32       190      1162      1374      1375
 -1       216    8    0    1
 -2        32       189       190      1372      1376      1374
 -1       217    8    0    1
 -2        34        33       191      1163      1377      1378
 -1       218    8    0    1
 -2        33       190       191      1375      1379      1377
 -1       219    8    0    1
 -2        35        34       192      1164      1380      1381
 -1       220    8    0    1
 -2        34       191       192      1378      1382      1380
 -1       221    8    0    1
 -2        36        35       193      1165      1383      1384
 -1       222    8    0    1
 -2        35       192       193      1381      1385      1383
 -1       223    8    0    1
 -2        37        36       194      1166      1386      1387
 -1       224    8    0    1
 -2        36       193       194      1384      1388      1386
 -1       225    8    0    1
 -2        38        37       195      1167      1389      1390
 -1       226    8    0    1
 -2        37       194       195      1387      1391      1389
 -1       227    8    0    1
 -2        39        38       196      1168      1392      1393
 -1       228    8    0    1
 -2        38       195       196      1390      1394      1392
 -1       229    8    0    1
 -2        40        39       197      1169      1395      1396
 -1       230    8    0    1
 -2        39       196       197      1393      1397      1395
 -1       231    8    0    1
 -2        41        40       198      1170      1398      1399
 -1       232    8    0    1
 -2        40       197       198      1396      1400      1398
 -1       233    8    0    1
 -2        42        41       199      1171      1401      1402
 -1       234    8    0    1
 -2        41       198       199      1399      1403      1401
 -1       235    8    0    1
 -2        43        42       200      1172      1404      1405
 -1       236    8    0    1
 -2        42       199       200      1402      1406      1404
 -1       237    8    0    1
 -2        44        43       201      1173      1407      1408
 -1       238    8    0    1
 -2        43       200       201      1405      1409      1407
 -1       239    8    0    1
 -2        45        44       202      1174      1410      1411
 -1       240    8    0    1
 -2        44       201       202      1408      1412      1410
 -1       241    8    0    1
 -2        46        45       203      1175      1413      1414
 -1       242    8    0    1
 -2        45       202       203      1411      1415      1413
 -1       243    8    0    1
 -2        47        46       204      1176      1416      1417
 -1       244    8    0    1
 -2        46       203       204      1414      1418      1416
 -1       245    8    0    1
 -2        48        47       205      1177      1419      1420
 -1       246    8    0    1
 -2        47       204       205      1417      1421      1419
 -1       247    8    0    1
 -2        49        48       206      1178      1422      1423
 -1       248    8    0    1
 -2        48       205       206      1420      1424      1422
 -1       249    8    0    1
 -2        50        49       207      1179      1425      1426
 -1       250    8    0    1
 -2        49       206       207      1423      1427      1425
 -1       251    8    0    1
 -2        51        50       208      1180      1428      1429
 -1       252    8    0    1
 -2        50       207       208      1426      1430      1428
 -1       253    8    0    1
 -2        52        51       209      1181      1431      1432
 -1       254    8    0    1
 -2        51       208       209      1429      1433      1431
 -1       255    8    0    1
 -2        53        52       210      1182      1434      1435
 -1       256    8    0    1
 -2        52       209       210      1432      1436      1434
 -1       257    8    0    1
 -2        54        53       211      1183      1437      1438
 -1       258    8    0    1
 -2        53       210       211      1435      1439      1437
 -1       259    8    0    1
 -2        55        54       212      1184      1440      1441
 -1       260    8    0    1
 -2        54       211       212      1438      1442      1440
 -1       261    8    0    1
 -2        56        55       213      1185      1443      1444
 -1       262    8    0    1
 -2        55       212       213      1441      1445      1443
 -1       263    8    0    1
 -2        57        56       214      1186      1446      1447
 -1       264    8    0    1
 -2        56       213       214      1444      1448      1446
 -1       265    8    0    1
 -2        58        57       215      1187      1449      1450
 -1       266    8    0    1
 -2        57       214       215      1447      1451      1449
 -1       267    8    0    1
 -2        59        58       216      1188      1452      1453
 -1       268    8    0    1
 -2        58       215       216      1450      1454      1452
 -1       269    8    0    1
 -2        60        59       217      1189      1455      1456
 -1       270    8    0    1
 -2        59       216       217      1453      1457      1455
 -1       271    8    0    1
 -2        61        60       218      1190      1458      1459
 -1       272    8    0    1
 -2        60       217       218      1456      1460      1458
 -1       273    8    0    1
 -2        62        61       219      1191      1461      1462
 -1       274    8    0    1
 -2        61       218       219      1459      1463      1461
 -1       275    8    0    1
 -2        63        62       220      1192      1464      1465
 -1       276    8    0    1
 -2        62       219       220      1462      1466      1464
 -1       277    8    0    1
 -2        64        63       221      1193      1467      1468
 -1       278    8    0    1
 -2        63       220       221      1465      1469      1467
 -1       279    8    0    1
 -2        65        64       222      1194      1470      1471
 -1       280    8    0    1
 -2        64       221       222      1468      1472      1470
 -1       281    8    0    1
 -2        66        65       223      1195      1473      1474
 -1       282    8    0    1
 -2        65       222       223      1471      1475      1473
 -1       283    8    0    1
 -2        67        66       224      1196      1476      1477
 -1       284    8    0    1
 -2        66       223       224      1474      1478      1476
 -1       285    8    0    1
 -2        68        67       225      1197      1479      1480
 -1       286    8    0    1
 -2        67       224       225      1477      1481      1479
 -1       287    8    0    1
 -2        69        68       226      1198      1482      1483
 -1       288    8    0    1
 -2        68       225       226      1480      1484      1482
 -1       289    8    0    1
 -2        70        69       227      1199      1485      1486
 -1       290    8    0    1
 -2        69       226       227      1483      1487      1485
 -1       291    8    0    1
 -2        71        70       228      1200      1488      1489
 -1       292    8    0    1
 -2        70       227       228      1486      1490      1488
 -1       293    8    0    1
 -2         4        71       136      1201      1491      1268
 -1       294    8    0    1
 -2       136        71       228      1491      1489      1492
 -1       295    8    0    1
 -2        72        73       229      1203      1493      1494
 -1       296    8    0    1
 -2        72       229       180      1494      1495      1347
 -1       297    8    0    1
 -2        73        74       230      1204      1496      1497
 -1       298    8    0    1
 -2        73       230       229      1497      1498      1493
 -1       299    8    0    1
 -2        74        75       231      1205      1499      1500
 -1       300    8    0    1
 -2        74       231       230      1500      1501      1496
 -1       301    8    0    1
 -2        75        76       232      1206      1502      1503
 -1       302    8    0    1
 -2        75       232       231      1503      1504      1499
 -1       303    8    0    1
 -2        76        77       233      1207      1505      1506
 -1       304    8    0    1
 -2        76       233       232      1506      1507      1502
 -1       305    8    0    1
 -2        77        78       234      1208      1508      1509
 -1       306    8    0    1
 -2        77       234       233      1509      1510      1505
 -1       307    8    0    1
 -2        78        79       235      1209      1511      1512
 -1       308    8    0    1
 -2        78       235       234      1512      1513      1508
 -1       309    8    0    1
 -2        79        80       236      1210      1514      1515
 -1       310    8    0    1
 -2        79       236       235      1515      1516      1511
 -1       311    8    0    1
 -2        80        81       237      1211      1517      1518
 -1       312    8    0    1
 -2        80       237       236      1518      1519      1514
 -1       313    8    0    1
 -2        81        82       238      1212      1520      1521
 -1       314    8    0    1
 -2        81       238       237      1521      1522      1517
 -1       315    8    0    1
 -2        82        83       239      1213      1523      1524
 -1       316    8    0    1
 -2        82       239       238      1524      1525      1520
 -1       317    8    0    1
 -2        83        84       240      1214      1526      1527
 -1       318    8    0    1
 -2        83       240       239      1527      1528      1523
 -1       319    8    0    1
 -2        84        85       241      1215      1529      1530
 -1       320    8    0    1
 -2        84       241       240      1530      1531      1526
 -1       321    8    0    1
 -2        85        86       242      1216      1532      1533
 -1       322    8    0    1
 -2        85       242       241      1533      1534      1529
 -1       323    8    0    1
 -2        86        87       243      1217      1535      1536
 -1       324    8    0    1
 -2        86       243       242      1536      1537      1532
 -1       325    8    0    1
 -2        87        88       244      1218      1538      1539
 -1       326    8    0    1
 -2        87       244       243      1539      1540      1535
 -1       327    8    0    1
 -2        88        89       245      1219      1541      1542
 -1       328    8    0    1
 -2        88       245       244      1542      1543      1538
 -1       329    8    0    1
 -2        89        90       246      1220      1544      1545
 -1       330    8    0    1
 -2        89       246       245      1545      1546      1541
 -1       331    8    0    1
 -2        90        91       247      1221      1547      1548
 -1       332    8    0    1
 -2        90       247       246      1548      1549      1544
 -1       333    8    0    1
 -2        91        92       248      1222      1550      1551
 -1       334    8    0    1
 -2        91       248       247      1551      1552      1547
 -1       335    8    0    1
 -2        92        93       249      1223      1553      1554
 -1       336    8    0    1
 -2        92       249       248      1554      1555      1550
 -1       337    8    0    1
 -2        93        94       250      1224      1556      1557
 -1       338    8    0    1
 -2        93       250       249      1557      1558      1553
 -1       339    8    0    1
 -2        94        95       251      1225      1559      1560
 -1       340    8    0    1
 -2        94       251       250      1560      1561      1556
 -1       341    8    0    1
 -2        95        96       252      1226      1562      1563
 -1       342    8    0    1
 -2        95       252       251      1563      1564      1559
 -1       343    8    0    1
 -2        96        97       253      1227      1565      1566
 -1       344    8    0    1
 -2        96       253       252      1566      1567      1562
 -1       345    8    0    1
 -2        97        98       254      1228      1568      1569
 -1       346    8    0    1
 -2        97       254       253      1569      1570      1565
 -1       347    8    0    1
 -2        98        99       255      1229      1571      1572
 -1       348    8    0    1
 -2        98       255       254      1572      1573      1568
 -1       349    8    0    1
 -2        99       100       256      1230      1574      1575
 -1       350    8    0    1
 -2        99       256       255      1575      1576      1571
 -1       351    8    0    1
 -2       100       101       257      1231      1577      1578
 -1       352    8    0    1
 -2       100       257       256      1578      1579      1574
 -1       353    8    0    1
 -2       101       102       258      1232      1580      1581
 -1       354    8    0    1
 -2       101       258       257      1581      1582      1577
 -1       355    8    0    1
 -2       102       103       259      1233      1583      1584
 -1       356    8    0    1
 -2       102       259       258      1584      1585      1580
 -1       357    8    0    1
 -2       103       104       260      1234      1586      1587
 -1       358    8    0    1
 -2       103       260       259      1587      1588      1583
 -1       359    8    0    1
 -2       104       105       261      1235      1589      1590
 -1       360    8    0    1
 -2       104       261       260      1590      1591      1586
 -1       361    8    0    1
 -2       105       106       262      1236      1592      1593
 -1       362    8    0    1
 -2       105       262       261      1593      1594      1589
 -1       363    8    0    1
 -2       106       107       263      1237      1595      1596
 -1       364    8    0    1
 -2       106       263       262      1596      1597      1592
 -1       365    8    0    1
 -2       107       108       264      1238      1598      1599
 -1       366    8    0    1
 -2       107       264       263      1599      1600      1595
 -1       367    8    0    1
 -2       108       109       265      1239      1601      1602
 -1       368    8    0    1
 -2       108       265       264      1602      1603      1598
 -1       369    8    0    1
 -2       109       110       266      1240      1604      1605
 -1       370    8    0    1
 -2       109       266       265      1605      1606      1601
 -1       371    8    0    1
 -2       110       111       267      1241      1607      1608
 -1       372    8    0    1
 -2       110       267       266      1608      1609      1604
 -1       373    8    0    1
 -2       111       112       268      1242      1610      1611
 -1       374    8    0    1
 -2       111       268       267      1611      1612      1607
 -1       375    8    0    1
 -2       112       113       269      1243      1613      1614
 -1       376    8    0    1
 -2       112       269       268      1614      1615      1610
 -1       377    8    0    1
 -2       113       114       270      1244      1616      1617
 -1       378    8    0    1
 -2       113       270       269      1617      1618      1613
 -1       379    8    0    1
 -2       114       115       271      1245      1619      1620
 -1       380    8    0    1
 -2       114       271       270      1620      1621      1616
 -1       381    8    0    1
 -2       115       116       272      1246      1622      1623
 -1       382    8    0    1
 -2       115       272       271      1623      1624      1619
 -1       383    8    0    1
 -2       116       117       273      1247      1625      1626
 -1       384    8    0    1
 -2       116       273       272      1626      1627      1622
 -1       385    8    0    1
 -2       117       118       274      1248      1628      1629
 -1       386    8    0    1
 -2       117       274       273      1629      1630      1625
 -1       387    8    0    1
 -2       118       119       275      1249      1631      1632
 -1       388    8    0    1
 -2       118       275       274      1632      1633      1628
 -1       389    8    0    1
 -2       119       120       276      1250      1634      1635
 -1       390    8    0    1
 -2       119       276       275      1635      1636      1631
 -1       391    8    0    1
 -2       120         3       121      1251      1252      1637
 -1       392    8    0    1
 -2       121       122       277      1253      1638      1639
 -1       393    8    0    1
 -2       122       123       278      1254      1640      1641
 -1       394    8    0    1
 -2       122       278       277      1641      1642      1638
 -1       395    8    0    1
 -2       123       124       279      1255      1643      1644
 -1       396    8    0    1
 -2       123       279       278      1644      1645      1640
 -1       397    8    0    1
 -2       124       125       280      1256      1646      1647
 -1       398    8    0    1
 -2       124       280       279      1647      1648      1643
 -1       399    8    0    1
 -2       125       126       281      1257      1649      1650
 -1       400    8    0    1
 -2       125       281       280      1650      1651      1646
 -1       401    8    0    1
 -2       126       127       282      1258      1652      1653
 -1       402    8    0    1
 -2       126       282       281      1653      1654      1649
 -1       403    8    0    1
 -2       127       128       283      1259      1655      1656
 -1       404    8    0    1
 -2       127       283       282      1656      1657      1652
 -1       405    8    0    1
 -2       128       129       284      1260      1658      1659
 -1       406    8    0    1
 -2       128       284       283      1659      1660      1655
 -1       407    8    0    1
 -2       129       130       285      1261      1661      1662
 -1       408    8    0    1
 -2       129       285       284      1662      1663      1658
 -1       409    8    0    1
 -2       130       131       286      1262      1664      1665
 -1       410    8    0    1
 -2       130       286       285      1665      1666      1661
 -1       411    8    0    1
 -2       131       132       287      1263      1667      1668
 -1       412    8    0    1
 -2       131       287       286      1668      1669      1664
 -1       413    8    0    1
 -2       132       133       288      1264      1670      1671
 -1       414    8    0    1
 -2       132       288       287      1671      1672      1667
 -1       415    8    0    1
 -2       133       134       289      1265      1673      1674
 -1       416    8    0    1
 -2       133       289       288      1674      1675      1670
 -1       417    8    0    1
 -2       134       135       290      1266      1676      1677
 -1       418    8    0    1
 -2       134       290       289      1677      1678      1673
 -1       419    8    0    1
 -2       135       136       291      1267      1679      1680
 -1       420    8    0    1
 -2       290       135       291      1676      1680      1681
 -1       421    8    0    1
 -2       136       228       291      1492      1682      1679
 -1       422    8    0    1
 -2         2       137       292      1269      1683      1684
 -1       423    8    0    1
 -2       137       138       293      1270      1685      1686
 -1       424    8    0    1
 -2       138       139       294      1271      1687      1688
 -1       425    8    0    1
 -2       139       140       295      1272      1689      1690
 -1       426    8    0    1
 -2       140       141       296      1273      1691      1692
 -1       427    8    0    1
 -2       141       142       297      1274      1693      1694
 -1       428    8    0    1
 -2       142       143       298      1275      1695      1696
 -1       429    8    0    1
 -2       143       144       299      1276      1697      1698
 -1       430    8    0    1
 -2       144       145       300      1277      1699      1700
 -1       431    8    0    1
 -2       145       146       301      1278      1701      1702
 -1       432    8    0    1
 -2       146       147       302      1279      1703      1704
 -1       433    8    0    1
 -2       147       148       303      1280      1705      1706
 -1       434    8    0    1
 -2       148       149       304      1281      1707      1708
 -1       435    8    0    1
 -2       149       150       305      1282      1709      1710
 -1       436    8    0    1
 -2       150       151       306      1283      1711      1712
 -1       437    8    0    1
 -2       151       152       307      1284      1713      1714
 -1       438    8    0    1
 -2       152       153       308      1285      1715      1716
 -1       439    8    0    1
 -2       153       154       309      1286      1717      1718
 -1       440    8    0    1
 -2       154       155       310      1287      1719      1720
 -1       441    8    0    1
 -2       155         1       311      1288      1721      1722
 -1       442    8    0    1
 -2         1       156       312      1289      1723      1724
 -1       443    8    0    1
 -2       156       157       313      1290      1725      1726
 -1       444    8    0    1
 -2       157       158       314      1291      1727      1728
 -1       445    8    0    1
 -2       158       159       315      1292      1729      1730
 -1       446    8    0    1
 -2       159       160       316      1293      1731      1732
 -1       447    8    0    1
 -2       160       161       317      1294      1733      1734
 -1       448    8    0    1
 -2       161       162       318      1295      1735      1736
 -1       449    8    0    1
 -2       162       163       319      1296      1737      1738
 -1       450    8    0    1
 -2       163       164       320      1297      1739      1740
 -1       451    8    0    1
 -2       164         2       321      1298      1741      1742
 -1       452    8    0    1
 -2       295       140       296      1689      1692      1743
 -1       453    8    0    1
 -2       294       139       295      1687      1690      1744
 -1       454    8    0    1
 -2       120       121       276      1637      1745      1634
 -1       455    8    0    1
 -2       121       277       276      1639      1746      1745
 -1       456    8    0    1
 -2       292       137       293      1683      1686      1747
 -1       457    8    0    1
 -2       293       138       294      1685      1688      1748
 -1       458    8    0    1
 -2         2       292       321      1684      1749      1741
 -1       459    8    0    1
 -2       141       297       296      1694      1750      1691
 -1       460    8    0    1
 -2       142       298       297      1696      1751      1693
 -1       461    8    0    1
 -2       143       299       298      1698      1752      1695
 -1       462    8    0    1
 -2       144       300       299      1700      1753      1697
 -1       463    8    0    1
 -2       145       301       300      1702      1754      1699
 -1       464    8    0    1
 -2       146       302       301      1704      1755      1701
 -1       465    8    0    1
 -2       147       303       302      1706      1756      1703
 -1       466    8    0    1
 -2       148       304       303      1708      1757      1705
 -1       467    8    0    1
 -2       149       305       304      1710      1758      1707
 -1       468    8    0    1
 -2       150       306       305      1712      1759      1709
 -1       469    8    0    1
 -2       151       307       306      1714      1760      1711
 -1       470    8    0    1
 -2       152       308       307      1716      1761      1713
 -1       471    8    0    1
 -2       153       309       308      1718      1762      1715
 -1       472    8    0    1
 -2       154       310       309      1720      1763      1717
 -1       473    8    0    1
 -2       155       311       310      1722      1764      1719
 -1       474    8    0    1
 -2         1       312       311      1724      1765      1721
 -1       475    8    0    1
 -2       156       313       312      1726      1766      1723
 -1       476    8    0    1
 -2       157       314       313      1728      1767      1725
 -1       477    8    0    1
 -2       158       315       314      1730      1768      1727
 -1       478    8    0    1
 -2       159       316       315      1732      1769      1729
 -1       479    8    0    1
 -2       160       317       316      1734      1770      1731
 -1       480    8    0    1
 -2       161       318       317      1736      1771      1733
 -1       481    8    0    1
 -2       162       319       318      1738      1772      1735
 -1       482    8    0    1
 -2       163       320       319      1740      1773      1737
 -1       483    8    0    1
 -2       164       321       320      1742      1774      1739
 -1       484    8    0    1
 -2        23         7       165      1299      1301      1775
 -1       485    8    0    1
 -2       166       167       322      1307      1776      1777
 -1       486    8    0    1
 -2       165       166       323      1304      1778      1779
 -1       487    8    0    1
 -2       166       322       323      1777      1780      1778
 -1       488    8    0    1
 -2       168       169       324      1313      1781      1782
 -1       489    8    0    1
 -2       169       170       325      1316      1783      1784
 -1       490    8    0    1
 -2       169       325       324      1784      1785      1781
 -1       491    8    0    1
 -2       170       171       326      1319      1786      1787
 -1       492    8    0    1
 -2       170       326       325      1787      1788      1783
 -1       493    8    0    1
 -2       171       172       327      1322      1789      1790
 -1       494    8    0    1
 -2       171       327       326      1790      1791      1786
 -1       495    8    0    1
 -2       172       173       328      1325      1792      1793
 -1       496    8    0    1
 -2       172       328       327      1793      1794      1789
 -1       497    8    0    1
 -2       173       174       329      1328      1795      1796
 -1       498    8    0    1
 -2       173       329       328      1796      1797      1792
 -1       499    8    0    1
 -2       174       175       330      1331      1798      1799
 -1       500    8    0    1
 -2       174       330       329      1799      1800      1795
 -1       501    8    0    1
 -2       175       176       331      1334      1801      1802
 -1       502    8    0    1
 -2       175       331       330      1802      1803      1798
 -1       503    8    0    1
 -2       176       177       332      1337      1804      1805
 -1       504    8    0    1
 -2       176       332       331      1805      1806      1801
 -1       505    8    0    1
 -2       177       178       333      1340      1807      1808
 -1       506    8    0    1
 -2       177       333       332      1808      1809      1804
 -1       507    8    0    1
 -2       178       179       334      1343      1810      1811
 -1       508    8    0    1
 -2       178       334       333      1811      1812      1807
 -1       509    8    0    1
 -2       179       180       335      1346      1813      1814
 -1       510    8    0    1
 -2       334       179       335      1810      1814      1815
 -1       511    8    0    1
 -2       180       229       335      1495      1816      1813
 -1       512    8    0    1
 -2       181        23       165      1348      1775      1817
 -1       513    8    0    1
 -2       229       230       336      1498      1818      1819
 -1       514    8    0    1
 -2       229       336       335      1819      1820      1816
 -1       515    8    0    1
 -2       181       165       323      1817      1779      1821
 -1       516    8    0    1
 -2       183       182       337      1355      1822      1823
 -1       517    8    0    1
 -2       184       183       338      1358      1824      1825
 -1       518    8    0    1
 -2       183       337       338      1823      1826      1824
 -1       519    8    0    1
 -2       185       184       339      1361      1827      1828
 -1       520    8    0    1
 -2       184       338       339      1825      1829      1827
 -1       521    8    0    1
 -2       186       185       340      1364      1830      1831
 -1       522    8    0    1
 -2       185       339       340      1828      1832      1830
 -1       523    8    0    1
 -2       187       186       341      1367      1833      1834
 -1       524    8    0    1
 -2       186       340       341      1831      1835      1833
 -1       525    8    0    1
 -2       188       187       342      1370      1836      1837
 -1       526    8    0    1
 -2       187       341       342      1834      1838      1836
 -1       527    8    0    1
 -2       189       188       343      1373      1839      1840
 -1       528    8    0    1
 -2       188       342       343      1837      1841      1839
 -1       529    8    0    1
 -2       190       189       344      1376      1842      1843
 -1       530    8    0    1
 -2       189       343       344      1840      1844      1842
 -1       531    8    0    1
 -2       191       190       345      1379      1845      1846
 -1       532    8    0    1
 -2       190       344       345      1843      1847      1845
 -1       533    8    0    1
 -2       192       191       346      1382      1848      1849
 -1       534    8    0    1
 -2       191       345       346      1846      1850      1848
 -1       535    8    0    1
 -2       193       192       347      1385      1851      1852
 -1       536    8    0    1
 -2       192       346       347      1849      1853      1851
 -1       537    8    0    1
 -2       194       193       348      1388      1854      1855
 -1       538    8    0    1
 -2       193       347       348      1852      1856      1854
 -1       539    8    0    1
 -2       195       194       349      1391      1857      1858
 -1       540    8    0    1
 -2       194       348       349      1855      1859      1857
 -1       541    8    0    1
 -2       196       195       350      1394      1860      1861
 -1       542    8    0    1
 -2       195       349       350      1858      1862      1860
 -1       543    8    0    1
 -2       197       196       351      1397      1863      1864
 -1       544    8    0    1
 -2       196       350       351      1861      1865      1863
 -1       545    8    0    1
 -2       198       197       352      1400      1866      1867
 -1       546    8    0    1
 -2       197       351       352      1864      1868      1866
 -1       547    8    0    1
 -2       199       198       353      1403      1869      1870
 -1       548    8    0    1
 -2       198       352       353      1867      1871      1869
 -1       549    8    0    1
 -2       200       199       354      1406      1872      1873
 -1       550    8    0    1
 -2       199       353       354      1870      1874      1872
 -1       551    8    0    1
 -2       201       200       355      1409      1875      1876
 -1       552    8    0    1
 -2       200       354       355      1873      1877      1875
 -1       553    8    0    1
 -2       202       201       356      1412      1878      1879
 -1       554    8    0    1
 -2       201       355       356      1876      1880      1878
 -1       555    8    0    1
 -2       203       202       357      1415      1881      1882
 -1       556    8    0    1
 -2       202       356       357      1879      1883      1881
 -1       557    8    0    1
 -2       204       203       358      1418      1884      1885
 -1       558    8    0    1
 -2       203       357       358      1882      1886      1884
 -1       559    8    0    1
 -2       205       204       359      1421      1887      1888
 -1       560    8    0    1
 -2       204       358       359      1885      1889      1887
 -1       561    8    0    1
 -2       206       205       360      1424      1890      1891
 -1       562    8    0    1
 -2       205       359       360      1888      1892      1890
 -1       563    8    0    1
 -2       207       206       361      1427      1893      1894
 -1       564    8    0    1
 -2       206       360       361      1891      1895      1893
 -1       565    8    0    1
 -2       208       207       362      1430      1896      1897
 -1       566    8    0    1
 -2       207       361       362      1894      1898      1896
 -1       567    8    0    1
 -2       209       208       363      1433      1899      1900
 -1       568    8    0    1
 -2       208       362       363      1897      1901      1899
 -1       569    8    0    1
 -2       210       209       364      1436      1902      1903
 -1       570    8    0    1
 -2       209       363       364      1900      1904      1902
 -1       571    8    0    1
 -2       211       210       365      1439      1905      1906
 -1       572    8    0    1
 -2       210       364       365      1903      1907      1905
 -1       573    8    0    1
 -2       212       211       366      1442      1908      1909
 -1       574    8    0    1
 -2       211       365       366      1906      1910      1908
 -1       575    8    0    1
 -2       213       212       367      1445      1911      1912
 -1       576    8    0    1
 -2       212       366       367      1909      1913      1911
 -1       577    8    0    1
 -2       214       213       368      1448      1914      1915
 -1       578    8    0    1
 -2       213       367       368      1912      1916      1914
 -1       579    8    0    1
 -2       215       214       369      1451      1917      1918
 -1       580    8    0    1
 -2       214       368       369      1915      1919      1917
 -1       581    8    0    1
 -2       216       215       370      1454      1920      1921
 -1       582    8    0    1
 -2       215       369       370      1918      1922      1920
 -1       583    8    0    1
 -2       217       216       371      1457      1923      1924
 -1       584    8    0    1
 -2       216       370       371      1921      1925      1923
 -1       585    8    0    1
 -2       218       217       372      1460      1926      1927
 -1       586    8    0    1
 -2       217       371       372      1924      1928      1926
 -1       587    8    0    1
 -2       219       218       373      1463      1929      1930
 -1       588    8    0    1
 -2       218       372       373      1927      1931      1929
 -1       589    8    0    1
 -2       220       219       374      1466      1932      1933
 -1       590    8    0    1
 -2       219       373       374      1930      1934      1932
 -1       591    8    0    1
 -2       221       220       375      1469      1935      1936
 -1       592    8    0    1
 -2       220       374       375      1933      1937      1935
 -1       593    8    0    1
 -2       222       221       376      1472      1938      1939
 -1       594    8    0    1
 -2       221       375       376      1936      1940      1938
 -1       595    8    0    1
 -2       223       222       377      1475      1941      1942
 -1       596    8    0    1
 -2       222       376       377      1939      1943      1941
 -1       597    8    0    1
 -2       224       223       378      1478      1944      1945
 -1       598    8    0    1
 -2       223       377       378      1942      1946      1944
 -1       599    8    0    1
 -2       225       224       379      1481      1947      1948
 -1       600    8    0    1
 -2       224       378       379      1945      1949      1947
 -1       601    8    0    1
 -2       226       225       380      1484      1950      1951
 -1       602    8    0    1
 -2       225       379       380      1948      1952      1950
 -1       603    8    0    1
 -2       227       226       381      1487      1953      1954
 -1       604    8    0    1
 -2       226       380       381      1951      1955      1953
 -1       605    8    0    1
 -2       228       227       382      1490      1956      1957
 -1       606    8    0    1
 -2       291       228       382      1682      1957      1958
 -1       607    8    0    1
 -2       227       381       382      1954      1959      1956
 -1       608    8    0    1
 -2       230       231       383      1501      1960      1961
 -1       609    8    0    1
 -2       230       383       336      1961      1962      1818
 -1       610    8    0    1
 -2       231       232       384      1504      1963      1964
 -1       611    8    0    1
 -2       231       384       383      1964      1965      1960
 -1       612    8    0    1
 -2       232       233       385      1507      1966      1967
 -1       613    8    0    1
 -2       232       385       384      1967      1968      1963
 -1       614    8    0    1
 -2       233       234       386      1510      1969      1970
 -1       615    8    0    1
 -2       233       386       385      1970      1971      1966
 -1       616    8    0    1
 -2       234       235       387      1513      1972      1973
 -1       617    8    0    1
 -2       234       387       386      1973      1974      1969
 -1       618    8    0    1
 -2       235       236       388      1516      1975      1976
 -1       619    8    0    1
 -2       235       388       387      1976      1977      1972
 -1       620    8    0    1
 -2       236       237       389      1519      1978      1979
 -1       621    8    0    1
 -2       236       389       388      1979      1980      1975
 -1       622    8    0    1
 -2       237       238       390      1522      1981      1982
 -1       623    8    0    1
 -2       237       390       389      1982      1983      1978
 -1       624    8    0    1
 -2       238       239       391      1525      1984      1985
 -1       625    8    0    1
 -2       238       391       390      1985      1986      1981
 -1       626    8    0    1
 -2       239       240       392      1528      1987      1988
 -1       627    8    0    1
 -2       239       392       391      1988      1989      1984
 -1       628    8    0    1
 -2       240       241       393      1531      1990      1991
 -1       629    8    0    1
 -2       240       393       392      1991      1992      1987
 -1       630    8    0    1
 -2       241       242       394      1534      1993      1994
 -1       631    8    0    1
 -2       241       394       393      1994      1995      1990
 -1       632    8    0    1
 -2       242       243       395      1537      1996      1997
 -1       633    8    0    1
 -2       242       395       394      1997      1998      1993
 -1       634    8    0    1
 -2       243       244       396      1540      1999      2000
 -1       635    8    0    1
 -2       243       396       395      2000      2001      1996
 -1       636    8    0    1
 -2       244       245       397      1543      2002      2003
 -1       637    8    0    1
 -2       244       397       396      2003      2004      1999
 -1       638    8    0    1
 -2       245       246       398      1546      2005      2006
 -1       639    8    0    1
 -2       245       398       397      2006      2007      2002
 -1       640    8    0    1
 -2       246       247       399      1549      2008      2009
 -1       641    8    0    1
 -2       246       399       398      2009      2010      2005
 -1       642    8    0    1
 -2       247       248       400      1552      2011      2012
 -1       643    8    0    1
 -2       247       400       399      2012      2013      2008
 -1       644    8    0    1
 -2       248       249       401      1555      2014      2015
 -1       645    8    0    1
 -2       248       401       400      2015      2016      2011
 -1       646    8    0    1
 -2       249       250       402      1558      2017      2018
 -1       647    8    0    1
 -2       249       402       401      2018      2019      2014
 -1       648    8    0    1
 -2       250       251       403      1561      2020      2021
 -1       649    8    0    1
 -2       250       403       402      2021      2022      2017
 -1       650    8    0    1
 -2       251       252       404      1564      2023      2024
 -1       651    8    0    1
 -2       251       404       403      2024      2025      2020
 -1       652    8    0    1
 -2       252       253       405      1567      2026      2027
 -1       653    8    0    1
 -2       252       405       404      2027      2028      2023
 -1       654    8    0    1
 -2       253       254       406      1570      2029      2030
 -1       655    8    0    1
 -2       253       406       405      2030      2031      2026
 -1       656    8    0    1
 -2       254       255       407      1573      2032      2033
 -1       657    8    0    1
 -2       254       407       406      2033      2034      2029
 -1       658    8    0    1
 -2       255       256       408      1576      2035      2036
 -1       659    8    0    1
 -2       255       408       407      2036      2037      2032
 -1       660    8    0    1
 -2       256       257       409      1579      2038      2039
 -1       661    8    0    1
 -2       256       409       408      2039      2040      2035
 -1       662    8    0    1
 -2       257       258       410      1582      2041      2042
 -1       663    8    0    1
 -2       257       410       409      2042      2043      2038
 -1       664    8    0    1
 -2       258       259       411      1585      2044      2045
 -1       665    8    0    1
 -2       258       411       410      2045      2046      2041
 -1       666    8    0    1
 -2       259       260       412      1588      2047      2048
 -1       667    8    0    1
 -2       259       412       411      2048      2049      2044
 -1       668    8    0    1
 -2       260       261       413      1591      2050      2051
 -1       669    8    0    1
 -2       260       413       412      2051      2052      2047
 -1       670    8    0    1
 -2       261       262       414      1594      2053      2054
 -1       671    8    0    1
 -2       261       414       413      2054      2055      2050
 -1       672    8    0    1
 -2       262       263       415      1597      2056      2057
 -1       673    8    0    1
 -2       262       415       414      2057      2058      2053
 -1       674    8    0    1
 -2       263       264       416      1600      2059      2060
 -1       675    8    0    1
 -2       263       416       415      2060      2061      2056
 -1       676    8    0    1
 -2       264       265       417      1603      2062      2063
 -1       677    8    0    1
 -2       264       417       416      2063      2064      2059
 -1       678    8    0    1
 -2       265       266       418      1606      2065      2066
 -1       679    8    0    1
 -2       265       418       417      2066      2067      2062
 -1       680    8    0    1
 -2       266       267       419      1609      2068      2069
 -1       681    8    0    1
 -2       266       419       418      2069      2070      2065
 -1       682    8    0    1
 -2       267       268       420      1612      2071      2072
 -1       683    8    0    1
 -2       267       420       419      2072      2073      2068
 -1       684    8    0    1
 -2       268       269       421      1615      2074      2075
 -1       685    8    0    1
 -2       268       421       420      2075      2076      2071
 -1       686    8    0    1
 -2       269       270       422      1618      2077      2078
 -1       687    8    0    1
 -2       269       422       421      2078      2079      2074
 -1       688    8    0    1
 -2       270       271       423      1621      2080      2081
 -1       689    8    0    1
 -2       270       423       422      2081      2082      2077
 -1       690    8    0    1
 -2       271       272       424      1624      2083      2084
 -1       691    8    0    1
 -2       271       424       423      2084      2085      2080
 -1       692    8    0    1
 -2       272       273       425      1627      2086      2087
 -1       693    8    0    1
 -2       272       425       424      2087      2088      2083
 -1       694    8    0    1
 -2       273       274       426      1630      2089      2090
 -1       695    8    0    1
 -2       273       426       425      2090      2091      2086
 -1       696    8    0    1
 -2       274       275       427      1633      2092      2093
 -1       697    8    0    1
 -2       274       427       426      2093      2094      2089
 -1       698    8    0    1
 -2       275       276       428      1636      2095      2096
 -1       699    8    0    1
 -2       427       275       428      2092      2096      2097
 -1       700    8    0    1
 -2       276       277       428      1746      2098      2095
 -1       701    8    0    1
 -2       279       280       429      1648      2099      2100
 -1       702    8    0    1
 -2       278       279       430      1645      2101      2102
 -1       703    8    0    1
 -2       279       429       430      2100      2103      2101
 -1       704    8    0    1
 -2       277       278       431      1642      2104      2105
 -1       705    8    0    1
 -2       428       277       431      2098      2105      2106
 -1       706    8    0    1
 -2       278       430       431      2102      2107      2104
 -1       707    8    0    1
 -2       280       281       432      1651      2108      2109
 -1       708    8    0    1
 -2       280       432       429      2109      2110      2099
 -1       709    8    0    1
 -2       281       282       433      1654      2111      2112
 -1       710    8    0    1
 -2       281       433       432      2112      2113      2108
 -1       711    8    0    1
 -2       282       283       434      1657      2114      2115
 -1       712    8    0    1
 -2       282       434       433      2115      2116      2111
 -1       713    8    0    1
 -2       283       284       435      1660      2117      2118
 -1       714    8    0    1
 -2       283       435       434      2118      2119      2114
 -1       715    8    0    1
 -2       284       285       436      1663      2120      2121
 -1       716    8    0    1
 -2       284       436       435      2121      2122      2117
 -1       717    8    0    1
 -2       285       286       437      1666      2123      2124
 -1       718    8    0    1
 -2       285       437       436      2124      2125      2120
 -1       719    8    0    1
 -2       286       287       438      1669      2126      2127
 -1       720    8    0    1
 -2       286       438       437      2127      2128      2123
 -1       721    8    0    1
 -2       287       288       439      1672      2129      2130
 -1       722    8    0    1
 -2       287       439       438      2130      2131      2126
 -1       723    8    0    1
 -2       288       289       440      1675      2132      2133
 -1       724    8    0    1
 -2       288       440       439      2133      2134      2129
 -1       725    8    0    1
 -2       289       290       441      1678      2135      2136
 -1       726    8    0    1
 -2       289       441       440      2136      2137      2132
 -1       727    8    0    1
 -2       293       294       442      1748      2138      2139
 -1       728    8    0    1
 -2       321       292       443      1749      2140      2141
 -1       729    8    0    1
 -2       292       293       444      1747      2142      2143
 -1       730    8    0    1
 -2       294       295       445      1744      2144      2145
 -1       731    8    0    1
 -2       295       296       446      1743      2146      2147
 -1       732    8    0    1
 -2       295       446       445      2147      2148      2144
 -1       733    8    0    1
 -2       167       168       447      1310      2149      2150
 -1       734    8    0    1
 -2       322       167       447      1776      2150      2151
 -1       735    8    0    1
 -2       168       324       447      1782      2152      2149
 -1       736    8    0    1
 -2       297       298       448      1751      2153      2154
 -1       737    8    0    1
 -2       298       299       449      1752      2155      2156
 -1       738    8    0    1
 -2       299       300       450      1753      2157      2158
 -1       739    8    0    1
 -2       300       301       451      1754      2159      2160
 -1       740    8    0    1
 -2       300       451       450      2160      2161      2157
 -1       741    8    0    1
 -2       301       302       452      1755      2162      2163
 -1       742    8    0    1
 -2       302       303       453      1756      2164      2165
 -1       743    8    0    1
 -2       303       304       454      1757      2166      2167
 -1       744    8    0    1
 -2       304       305       455      1758      2168      2169
 -1       745    8    0    1
 -2       305       306       456      1759      2170      2171
 -1       746    8    0    1
 -2       306       307       457      1760      2172      2173
 -1       747    8    0    1
 -2       307       308       458      1761      2174      2175
 -1       748    8    0    1
 -2       308       309       459      1762      2176      2177
 -1       749    8    0    1
 -2       308       459       458      2177      2178      2174
 -1       750    8    0    1
 -2       309       310       460      1763      2179      2180
 -1       751    8    0    1
 -2       310       311       461      1764      2181      2182
 -1       752    8    0    1
 -2       311       312       462      1765      2183      2184
 -1       753    8    0    1
 -2       312       313       463      1766      2185      2186
 -1       754    8    0    1
 -2       313       314       464      1767      2187      2188
 -1       755    8    0    1
 -2       314       315       465      1768      2189      2190
 -1       756    8    0    1
 -2       315       316       466      1769      2191      2192
 -1       757    8    0    1
 -2       316       317       467      1770      2193      2194
 -1       758    8    0    1
 -2       317       318       468      1771      2195      2196
 -1       759    8    0    1
 -2       318       319       469      1772      2197      2198
 -1       760    8    0    1
 -2       318       469       468      2198      2199      2195
 -1       761    8    0    1
 -2       319       320       470      1773      2200      2201
 -1       762    8    0    1
 -2       320       321       471      1774      2202      2203
 -1       763    8    0    1
 -2       320       471       470      2203      2204      2200
 -1       764    8    0    1
 -2       296       297       472      1750      2205      2206
 -1       765    8    0    1
 -2       181       323       182      1821      2207      1352
 -1       766    8    0    1
 -2       446       296       472      2146      2206      2208
 -1       767    8    0    1
 -2       297       448       472      2154      2209      2205
 -1       768    8    0    1
 -2       337       182       323      1822      2207      2210
 -1       769    8    0    1
 -2       444       293       442      2142      2139      2211
 -1       770    8    0    1
 -2       443       292       444      2140      2143      2212
 -1       771    8    0    1
 -2       441       290       291      2135      1681      2213
 -1       772    8    0    1
 -2       442       294       445      2138      2145      2214
 -1       773    8    0    1
 -2       321       443       471      2141      2215      2202
 -1       774    8    0    1
 -2       469       319       470      2197      2201      2216
 -1       775    8    0    1
 -2       467       317       468      2193      2196      2217
 -1       776    8    0    1
 -2       466       316       467      2191      2194      2218
 -1       777    8    0    1
 -2       465       315       466      2189      2192      2219
 -1       778    8    0    1
 -2       464       314       465      2187      2190      2220
 -1       779    8    0    1
 -2       463       313       464      2185      2188      2221
 -1       780    8    0    1
 -2       462       312       463      2183      2186      2222
 -1       781    8    0    1
 -2       461       311       462      2181      2184      2223
 -1       782    8    0    1
 -2       459       309       460      2176      2180      2224
 -1       783    8    0    1
 -2       457       307       458      2172      2175      2225
 -1       784    8    0    1
 -2       456       306       457      2170      2173      2226
 -1       785    8    0    1
 -2       455       305       456      2168      2171      2227
 -1       786    8    0    1
 -2       454       304       473      2166      2228      2229
 -1       787    8    0    1
 -2       304       455       473      2169      2230      2228
 -1       788    8    0    1
 -2       453       303       454      2164      2167      2231
 -1       789    8    0    1
 -2       451       301       452      2159      2163      2232
 -1       790    8    0    1
 -2       448       298       449      2153      2156      2233
 -1       791    8    0    1
 -2       449       299       450      2155      2158      2234
 -1       792    8    0    1
 -2       452       302       453      2162      2165      2235
 -1       793    8    0    1
 -2       460       310       461      2179      2182      2236
 -1       794    8    0    1
 -2       336       383       474      1962      2237      2238
 -1       795    8    0    1
 -2       325       326       475      1788      2239      2240
 -1       796    8    0    1
 -2       324       325       476      1785      2241      2242
 -1       797    8    0    1
 -2       325       475       476      2240      2243      2241
 -1       798    8    0    1
 -2       327       328       477      1794      2244      2245
 -1       799    8    0    1
 -2       328       329       478      1797      2246      2247
 -1       800    8    0    1
 -2       328       478       477      2247      2248      2244
 -1       801    8    0    1
 -2       329       330       479      1800      2249      2250
 -1       802    8    0    1
 -2       329       479       478      2250      2251      2246
 -1       803    8    0    1
 -2       330       331       480      1803      2252      2253
 -1       804    8    0    1
 -2       330       480       479      2253      2254      2249
 -1       805    8    0    1
 -2       331       332       481      1806      2255      2256
 -1       806    8    0    1
 -2       331       481       480      2256      2257      2252
 -1       807    8    0    1
 -2       332       333       482      1809      2258      2259
 -1       808    8    0    1
 -2       332       482       481      2259      2260      2255
 -1       809    8    0    1
 -2       383       384       483      1965      2261      2262
 -1       810    8    0    1
 -2       383       483       474      2262      2263      2237
 -1       811    8    0    1
 -2       338       337       484      1826      2264      2265
 -1       812    8    0    1
 -2       446       472       485      2208      2266      2267
 -1       813    8    0    1
 -2       339       338       486      1829      2268      2269
 -1       814    8    0    1
 -2       338       484       486      2265      2270      2268
 -1       815    8    0    1
 -2       340       339       487      1832      2271      2272
 -1       816    8    0    1
 -2       339       486       487      2269      2273      2271
 -1       817    8    0    1
 -2       341       340       488      1835      2274      2275
 -1       818    8    0    1
 -2       340       487       488      2272      2276      2274
 -1       819    8    0    1
 -2       342       341       489      1838      2277      2278
 -1       820    8    0    1
 -2       341       488       489      2275      2279      2277
 -1       821    8    0    1
 -2       343       342       490      1841      2280      2281
 -1       822    8    0    1
 -2       342       489       490      2278      2282      2280
 -1       823    8    0    1
 -2       344       343       491      1844      2283      2284
 -1       824    8    0    1
 -2       343       490       491      2281      2285      2283
 -1       825    8    0    1
 -2       345       344       492      1847      2286      2287
 -1       826    8    0    1
 -2       344       491       492      2284      2288      2286
 -1       827    8    0    1
 -2       346       345       493      1850      2289      2290
 -1       828    8    0    1
 -2       345       492       493      2287      2291      2289
 -1       829    8    0    1
 -2       347       346       494      1853      2292      2293
 -1       830    8    0    1
 -2       346       493       494      2290      2294      2292
 -1       831    8    0    1
 -2       348       347       495      1856      2295      2296
 -1       832    8    0    1
 -2       347       494       495      2293      2297      2295
 -1       833    8    0    1
 -2       349       348       496      1859      2298      2299
 -1       834    8    0    1
 -2       348       495       496      2296      2300      2298
 -1       835    8    0    1
 -2       350       349       497      1862      2301      2302
 -1       836    8    0    1
 -2       349       496       497      2299      2303      2301
 -1       837    8    0    1
 -2       351       350       498      1865      2304      2305
 -1       838    8    0    1
 -2       350       497       498      2302      2306      2304
 -1       839    8    0    1
 -2       352       351       499      1868      2307      2308
 -1       840    8    0    1
 -2       351       498       499      2305      2309      2307
 -1       841    8    0    1
 -2       353       352       500      1871      2310      2311
 -1       842    8    0    1
 -2       352       499       500      2308      2312      2310
 -1       843    8    0    1
 -2       354       353       501      1874      2313      2314
 -1       844    8    0    1
 -2       353       500       501      2311      2315      2313
 -1       845    8    0    1
 -2       355       354       502      1877      2316      2317
 -1       846    8    0    1
 -2       354       501       502      2314      2318      2316
 -1       847    8    0    1
 -2       356       355       503      1880      2319      2320
 -1       848    8    0    1
 -2       355       502       503      2317      2321      2319
 -1       849    8    0    1
 -2       357       356       504      1883      2322      2323
 -1       850    8    0    1
 -2       356       503       504      2320      2324      2322
 -1       851    8    0    1
 -2       358       357       505      1886      2325      2326
 -1       852    8    0    1
 -2       357       504       505      2323      2327      2325
 -1       853    8    0    1
 -2       359       358       506      1889      2328      2329
 -1       854    8    0    1
 -2       358       505       506      2326      2330      2328
 -1       855    8    0    1
 -2       360       359       507      1892      2331      2332
 -1       856    8    0    1
 -2       359       506       507      2329      2333      2331
 -1       857    8    0    1
 -2       361       360       508      1895      2334      2335
 -1       858    8    0    1
 -2       360       507       508      2332      2336      2334
 -1       859    8    0    1
 -2       362       361       509      1898      2337      2338
 -1       860    8    0    1
 -2       361       508       509      2335      2339      2337
 -1       861    8    0    1
 -2       363       362       510      1901      2340      2341
 -1       862    8    0    1
 -2       362       509       510      2338      2342      2340
 -1       863    8    0    1
 -2       364       363       511      1904      2343      2344
 -1       864    8    0    1
 -2       363       510       511      2341      2345      2343
 -1       865    8    0    1
 -2       365       364       512      1907      2346      2347
 -1       866    8    0    1
 -2       364       511       512      2344      2348      2346
 -1       867    8    0    1
 -2       366       365       513      1910      2349      2350
 -1       868    8    0    1
 -2       365       512       513      2347      2351      2349
 -1       869    8    0    1
 -2       367       366       514      1913      2352      2353
 -1       870    8    0    1
 -2       366       513       514      2350      2354      2352
 -1       871    8    0    1
 -2       368       367       515      1916      2355      2356
 -1       872    8    0    1
 -2       367       514       515      2353      2357      2355
 -1       873    8    0    1
 -2       369       368       516      1919      2358      2359
 -1       874    8    0    1
 -2       368       515       516      2356      2360      2358
 -1       875    8    0    1
 -2       370       369       517      1922      2361      2362
 -1       876    8    0    1
 -2       369       516       517      2359      2363      2361
 -1       877    8    0    1
 -2       371       370       518      1925      2364      2365
 -1       878    8    0    1
 -2       370       517       518      2362      2366      2364
 -1       879    8    0    1
 -2       372       371       519      1928      2367      2368
 -1       880    8    0    1
 -2       371       518       519      2365      2369      2367
 -1       881    8    0    1
 -2       373       372       520      1931      2370      2371
 -1       882    8    0    1
 -2       372       519       520      2368      2372      2370
 -1       883    8    0    1
 -2       374       373       521      1934      2373      2374
 -1       884    8    0    1
 -2       373       520       521      2371      2375      2373
 -1       885    8    0    1
 -2       375       374       522      1937      2376      2377
 -1       886    8    0    1
 -2       374       521       522      2374      2378      2376
 -1       887    8    0    1
 -2       376       375       523      1940      2379      2380
 -1       888    8    0    1
 -2       375       522       523      2377      2381      2379
 -1       889    8    0    1
 -2       377       376       524      1943      2382      2383
 -1       890    8    0    1
 -2       376       523       524      2380      2384      2382
 -1       891    8    0    1
 -2       378       377       525      1946      2385      2386
 -1       892    8    0    1
 -2       377       524       525      2383      2387      2385
 -1       893    8    0    1
 -2       379       378       526      1949      2388      2389
 -1       894    8    0    1
 -2       378       525       526      2386      2390      2388
 -1       895    8    0    1
 -2       380       379       527      1952      2391      2392
 -1       896    8    0    1
 -2       379       526       527      2389      2393      2391
 -1       897    8    0    1
 -2       381       380       528      1955      2394      2395
 -1       898    8    0    1
 -2       380       527       528      2392      2396      2394
 -1       899    8    0    1
 -2       385       386       529      1971      2397      2398
 -1       900    8    0    1
 -2       386       387       530      1974      2399      2400
 -1       901    8    0    1
 -2       386       530       529      2400      2401      2397
 -1       902    8    0    1
 -2       387       388       531      1977      2402      2403
 -1       903    8    0    1
 -2       387       531       530      2403      2404      2399
 -1       904    8    0    1
 -2       388       389       532      1980      2405      2406
 -1       905    8    0    1
 -2       388       532       531      2406      2407      2402
 -1       906    8    0    1
 -2       389       390       533      1983      2408      2409
 -1       907    8    0    1
 -2       389       533       532      2409      2410      2405
 -1       908    8    0    1
 -2       390       391       534      1986      2411      2412
 -1       909    8    0    1
 -2       390       534       533      2412      2413      2408
 -1       910    8    0    1
 -2       391       392       535      1989      2414      2415
 -1       911    8    0    1
 -2       391       535       534      2415      2416      2411
 -1       912    8    0    1
 -2       392       393       536      1992      2417      2418
 -1       913    8    0    1
 -2       392       536       535      2418      2419      2414
 -1       914    8    0    1
 -2       393       394       537      1995      2420      2421
 -1       915    8    0    1
 -2       393       537       536      2421      2422      2417
 -1       916    8    0    1
 -2       394       395       538      1998      2423      2424
 -1       917    8    0    1
 -2       394       538       537      2424      2425      2420
 -1       918    8    0    1
 -2       395       396       539      2001      2426      2427
 -1       919    8    0    1
 -2       395       539       538      2427      2428      2423
 -1       920    8    0    1
 -2       396       397       540      2004      2429      2430
 -1       921    8    0    1
 -2       396       540       539      2430      2431      2426
 -1       922    8    0    1
 -2       397       398       541      2007      2432      2433
 -1       923    8    0    1
 -2       397       541       540      2433      2434      2429
 -1       924    8    0    1
 -2       398       399       542      2010      2435      2436
 -1       925    8    0    1
 -2       398       542       541      2436      2437      2432
 -1       926    8    0    1
 -2       399       400       543      2013      2438      2439
 -1       927    8    0    1
 -2       399       543       542      2439      2440      2435
 -1       928    8    0    1
 -2       400       401       544      2016      2441      2442
 -1       929    8    0    1
 -2       400       544       543      2442      2443      2438
 -1       930    8    0    1
 -2       401       402       545      2019      2444      2445
 -1       931    8    0    1
 -2       401       545       544      2445      2446      2441
 -1       932    8    0    1
 -2       402       403       546      2022      2447      2448
 -1       933    8    0    1
 -2       402       546       545      2448      2449      2444
 -1       934    8    0    1
 -2       403       404       547      2025      2450      2451
 -1       935    8    0    1
 -2       403       547       546      2451      2452      2447
 -1       936    8    0    1
 -2       404       405       548      2028      2453      2454
 -1       937    8    0    1
 -2       404       548       547      2454      2455      2450
 -1       938    8    0    1
 -2       405       406       549      2031      2456      2457
 -1       939    8    0    1
 -2       405       549       548      2457      2458      2453
 -1       940    8    0    1
 -2       406       407       550      2034      2459      2460
 -1       941    8    0    1
 -2       406       550       549      2460      2461      2456
 -1       942    8    0    1
 -2       407       408       551      2037      2462      2463
 -1       943    8    0    1
 -2       407       551       550      2463      2464      2459
 -1       944    8    0    1
 -2       408       409       552      2040      2465      2466
 -1       945    8    0    1
 -2       408       552       551      2466      2467      2462
 -1       946    8    0    1
 -2       409       410       553      2043      2468      2469
 -1       947    8    0    1
 -2       409       553       552      2469      2470      2465
 -1       948    8    0    1
 -2       410       411       554      2046      2471      2472
 -1       949    8    0    1
 -2       410       554       553      2472      2473      2468
 -1       950    8    0    1
 -2       411       412       555      2049      2474      2475
 -1       951    8    0    1
 -2       411       555       554      2475      2476      2471
 -1       952    8    0    1
 -2       412       413       556      2052      2477      2478
 -1       953    8    0    1
 -2       412       556       555      2478      2479      2474
 -1       954    8    0    1
 -2       413       414       557      2055      2480      2481
 -1       955    8    0    1
 -2       413       557       556      2481      2482      2477
 -1       956    8    0    1
 -2       414       415       558      2058      2483      2484
 -1       957    8    0    1
 -2       414       558       557      2484      2485      2480
 -1       958    8    0    1
 -2       415       416       559      2061      2486      2487
 -1       959    8    0    1
 -2       415       559       558      2487      2488      2483
 -1       960    8    0    1
 -2       416       417       560      2064      2489      2490
 -1       961    8    0    1
 -2       416       560       559      2490      2491      2486
 -1       962    8    0    1
 -2       417       418       561      2067      2492      2493
 -1       963    8    0    1
 -2       417       561       560      2493      2494      2489
 -1       964    8    0    1
 -2       418       419       562      2070      2495      2496
 -1       965    8    0    1
 -2       418       562       561      2496      2497      2492
 -1       966    8    0    1
 -2       419       420       563      2073      2498      2499
 -1       967    8    0    1
 -2       419       563       562      2499      2500      2495
 -1       968    8    0    1
 -2       420       421       564      2076      2501      2502
 -1       969    8    0    1
 -2       420       564       563      2502      2503      2498
 -1       970    8    0    1
 -2       421       422       565      2079      2504      2505
 -1       971    8    0    1
 -2       421       565       564      2505      2506      2501
 -1       972    8    0    1
 -2       422       423       566      2082      2507      2508
 -1       973    8    0    1
 -2       422       566       565      2508      2509      2504
 -1       974    8    0    1
 -2       423       424       567      2085      2510      2511
 -1       975    8    0    1
 -2       423       567       566      2511      2512      2507
 -1       976    8    0    1
 -2       424       425       568      2088      2513      2514
 -1       977    8    0    1
 -2       424       568       567      2514      2515      2510
 -1       978    8    0    1
 -2       425       426       569      2091      2516      2517
 -1       979    8    0    1
 -2       425       569       568      2517      2518      2513
 -1       980    8    0    1
 -2       426       427       570      2094      2519      2520
 -1       981    8    0    1
 -2       426       570       569      2520      2521      2516
 -1       982    8    0    1
 -2       427       428       431      2097      2106      2522
 -1       983    8    0    1
 -2       432       433       571      2113      2523      2524
 -1       984    8    0    1
 -2       433       434       572      2116      2525      2526
 -1       985    8    0    1
 -2       433       572       571      2526      2527      2523
 -1       986    8    0    1
 -2       430       429       573      2103      2528      2529
 -1       987    8    0    1
 -2       429       432       574      2110      2530      2531
 -1       988    8    0    1
 -2       573       429       574      2528      2531      2532
 -1       989    8    0    1
 -2       432       571       574      2524      2533      2530
 -1       990    8    0    1
 -2       434       435       575      2119      2534      2535
 -1       991    8    0    1
 -2       434       575       572      2535      2536      2525
 -1       992    8    0    1
 -2       435       436       576      2122      2537      2538
 -1       993    8    0    1
 -2       435       576       575      2538      2539      2534
 -1       994    8    0    1
 -2       436       437       577      2125      2540      2541
 -1       995    8    0    1
 -2       436       577       576      2541      2542      2537
 -1       996    8    0    1
 -2       437       438       578      2128      2543      2544
 -1       997    8    0    1
 -2       437       578       577      2544      2545      2540
 -1       998    8    0    1
 -2       438       439       579      2131      2546      2547
 -1       999    8    0    1
 -2       438       579       578      2547      2548      2543
 -1      1000    8    0    1
 -2       439       440       580      2134      2549      2550
 -1      1001    8    0    1
 -2       439       580       579      2550      2551      2546
 -1      1002    8    0    1
 -2       440       441       581      2137      2552      2553
 -1      1003    8    0    1
 -2       440       581       580      2553      2554      2549
 -1      1004    8    0    1
 -2       443       444       582      2212      2555      2556
 -1      1005    8    0    1
 -2       442       445       583      2214      2557      2558
 -1      1006    8    0    1
 -2       384       385       584      1968      2559      2560
 -1      1007    8    0    1
 -2       385       529       584      2398      2561      2559
 -1      1008    8    0    1
 -2       441       291       382      2213      1958      2562
 -1      1009    8    0    1
 -2       471       443       585      2215      2563      2564
 -1      1010    8    0    1
 -2       443       582       585      2556      2565      2563
 -1      1011    8    0    1
 -2       445       446       586      2148      2566      2567
 -1      1012    8    0    1
 -2       469       470       587      2216      2568      2569
 -1      1013    8    0    1
 -2       467       468       588      2217      2570      2571
 -1      1014    8    0    1
 -2       457       458       589      2225      2572      2573
 -1      1015    8    0    1
 -2       448       449       590      2233      2574      2575
 -1      1016    8    0    1
 -2       326       327       591      1791      2576      2577
 -1      1017    8    0    1
 -2       475       326       591      2239      2577      2578
 -1      1018    8    0    1
 -2       327       477       591      2245      2579      2576
 -1      1019    8    0    1
 -2       449       450       592      2234      2580      2581
 -1      1020    8    0    1
 -2       452       453       593      2235      2582      2583
 -1      1021    8    0    1
 -2       450       451       594      2161      2584      2585
 -1      1022    8    0    1
 -2       460       461       595      2236      2586      2587
 -1      1023    8    0    1
 -2       451       452       596      2232      2588      2589
 -1      1024    8    0    1
 -2       453       454       597      2231      2590      2591
 -1      1025    8    0    1
 -2       453       597       593      2591      2592      2582
 -1      1026    8    0    1
 -2       455       456       598      2227      2593      2594
 -1      1027    8    0    1
 -2       456       457       599      2226      2595      2596
 -1      1028    8    0    1
 -2       456       599       598      2596      2597      2593
 -1      1029    8    0    1
 -2       458       459       600      2178      2598      2599
 -1      1030    8    0    1
 -2       459       460       601      2224      2600      2601
 -1      1031    8    0    1
 -2       459       601       600      2601      2602      2598
 -1      1032    8    0    1
 -2       461       462       602      2223      2603      2604
 -1      1033    8    0    1
 -2       462       463       603      2222      2605      2606
 -1      1034    8    0    1
 -2       463       464       604      2221      2607      2608
 -1      1035    8    0    1
 -2       464       465       605      2220      2609      2610
 -1      1036    8    0    1
 -2       465       466       606      2219      2611      2612
 -1      1037    8    0    1
 -2       465       606       605      2612      2613      2609
 -1      1038    8    0    1
 -2       466       467       607      2218      2614      2615
 -1      1039    8    0    1
 -2       467       588       607      2571      2616      2614
 -1      1040    8    0    1
 -2       468       469       608      2199      2617      2618
 -1      1041    8    0    1
 -2       472       448       609      2209      2619      2620
 -1      1042    8    0    1
 -2       470       471       610      2204      2621      2622
 -1      1043    8    0    1
 -2       337       323       611      2210      2623      2624
 -1      1044    8    0    1
 -2       484       337       611      2264      2624      2625
 -1      1045    8    0    1
 -2       323       322       611      1780      2626      2623
 -1      1046    8    0    1
 -2       335       336       612      1820      2627      2628
 -1      1047    8    0    1
 -2       334       335       612      1815      2628      2629
 -1      1048    8    0    1
 -2       336       474       612      2238      2630      2627
 -1      1049    8    0    1
 -2       444       442       613      2211      2631      2632
 -1      1050    8    0    1
 -2       449       592       590      2581      2633      2574
 -1      1051    8    0    1
 -2       324       476       614      2242      2634      2635
 -1      1052    8    0    1
 -2       324       614       447      2635      2636      2152
 -1      1053    8    0    1
 -2       483       384       584      2261      2560      2637
 -1      1054    8    0    1
 -2       333       334       612      1812      2629      2638
 -1      1055    8    0    1
 -2       613       442       583      2631      2558      2639
 -1      1056    8    0    1
 -2       322       447       615      2151      2640      2641
 -1      1057    8    0    1
 -2       611       322       615      2626      2641      2642
 -1      1058    8    0    1
 -2       447       614       615      2636      2643      2640
 -1      1059    8    0    1
 -2       446       485       586      2267      2644      2566
 -1      1060    8    0    1
 -2       610       471       585      2621      2564      2645
 -1      1061    8    0    1
 -2       609       448       590      2619      2575      2646
 -1      1062    8    0    1
 -2       606       466       607      2611      2615      2647
 -1      1063    8    0    1
 -2       427       431       570      2522      2648      2519
 -1      1064    8    0    1
 -2       583       445       586      2557      2567      2649
 -1      1065    8    0    1
 -2       431       430       570      2107      2650      2648
 -1      1066    8    0    1
 -2       570       430       573      2650      2529      2651
 -1      1067    8    0    1
 -2       582       444       613      2555      2632      2652
 -1      1068    8    0    1
 -2       604       464       605      2607      2610      2653
 -1      1069    8    0    1
 -2       603       463       604      2605      2608      2654
 -1      1070    8    0    1
 -2       333       612       482      2638      2655      2258
 -1      1071    8    0    1
 -2       587       470       610      2568      2622      2656
 -1      1072    8    0    1
 -2       601       460       595      2600      2587      2657
 -1      1073    8    0    1
 -2       469       587       608      2569      2658      2617
 -1      1074    8    0    1
 -2       468       608       588      2618      2659      2570
 -1      1075    8    0    1
 -2       599       457       616      2595      2660      2661
 -1      1076    8    0    1
 -2       457       589       616      2573      2662      2660
 -1      1077    8    0    1
 -2       597       454       617      2590      2663      2664
 -1      1078    8    0    1
 -2       454       473       617      2229      2665      2663
 -1      1079    8    0    1
 -2       596       452       593      2588      2583      2666
 -1      1080    8    0    1
 -2       595       461       602      2586      2604      2667
 -1      1081    8    0    1
 -2       594       451       596      2584      2589      2668
 -1      1082    8    0    1
 -2       589       458       600      2572      2599      2669
 -1      1083    8    0    1
 -2       473       455       618      2230      2670      2671
 -1      1084    8    0    1
 -2       455       598       618      2594      2672      2670
 -1      1085    8    0    1
 -2       485       472       609      2266      2620      2673
 -1      1086    8    0    1
 -2       450       594       592      2585      2674      2580
 -1      1087    8    0    1
 -2       441       382       619      2562      2675      2676
 -1      1088    8    0    1
 -2       581       441       619      2552      2676      2677
 -1      1089    8    0    1
 -2       382       381       619      1959      2678      2675
 -1      1090    8    0    1
 -2       602       462       603      2603      2606      2679
 -1      1091    8    0    1
 -2       619       381       528      2678      2395      2680
 -1      1092    8    0    1
 -2       478       479       620      2251      2681      2682
 -1      1093    8    0    1
 -2       477       478       621      2248      2683      2684
 -1      1094    8    0    1
 -2       478       620       621      2682      2685      2683
 -1      1095    8    0    1
 -2       480       481       622      2257      2686      2687
 -1      1096    8    0    1
 -2       481       482       623      2260      2688      2689
 -1      1097    8    0    1
 -2       481       623       622      2689      2690      2686
 -1      1098    8    0    1
 -2       474       483       624      2263      2691      2692
 -1      1099    8    0    1
 -2       587       610       625      2656      2693      2694
 -1      1100    8    0    1
 -2       612       474       482      2630      2695      2655
 -1      1101    8    0    1
 -2       609       590       626      2646      2696      2697
 -1      1102    8    0    1
 -2       487       486       627      2273      2698      2699
 -1      1103    8    0    1
 -2       488       487       628      2276      2700      2701
 -1      1104    8    0    1
 -2       487       627       628      2699      2702      2700
 -1      1105    8    0    1
 -2       489       488       629      2279      2703      2704
 -1      1106    8    0    1
 -2       488       628       629      2701      2705      2703
 -1      1107    8    0    1
 -2       490       489       630      2282      2706      2707
 -1      1108    8    0    1
 -2       489       629       630      2704      2708      2706
 -1      1109    8    0    1
 -2       491       490       631      2285      2709      2710
 -1      1110    8    0    1
 -2       490       630       631      2707      2711      2709
 -1      1111    8    0    1
 -2       492       491       632      2288      2712      2713
 -1      1112    8    0    1
 -2       491       631       632      2710      2714      2712
 -1      1113    8    0    1
 -2       493       492       633      2291      2715      2716
 -1      1114    8    0    1
 -2       492       632       633      2713      2717      2715
 -1      1115    8    0    1
 -2       494       493       634      2294      2718      2719
 -1      1116    8    0    1
 -2       493       633       634      2716      2720      2718
 -1      1117    8    0    1
 -2       495       494       635      2297      2721      2722
 -1      1118    8    0    1
 -2       494       634       635      2719      2723      2721
 -1      1119    8    0    1
 -2       496       495       636      2300      2724      2725
 -1      1120    8    0    1
 -2       495       635       636      2722      2726      2724
 -1      1121    8    0    1
 -2       497       496       637      2303      2727      2728
 -1      1122    8    0    1
 -2       496       636       637      2725      2729      2727
 -1      1123    8    0    1
 -2       498       497       638      2306      2730      2731
 -1      1124    8    0    1
 -2       497       637       638      2728      2732      2730
 -1      1125    8    0    1
 -2       499       498       639      2309      2733      2734
 -1      1126    8    0    1
 -2       498       638       639      2731      2735      2733
 -1      1127    8    0    1
 -2       500       499       640      2312      2736      2737
 -1      1128    8    0    1
 -2       499       639       640      2734      2738      2736
 -1      1129    8    0    1
 -2       501       500       641      2315      2739      2740
 -1      1130    8    0    1
 -2       500       640       641      2737      2741      2739
 -1      1131    8    0    1
 -2       502       501       642      2318      2742      2743
 -1      1132    8    0    1
 -2       501       641       642      2740      2744      2742
 -1      1133    8    0    1
 -2       503       502       643      2321      2745      2746
 -1      1134    8    0    1
 -2       502       642       643      2743      2747      2745
 -1      1135    8    0    1
 -2       504       503       644      2324      2748      2749
 -1      1136    8    0    1
 -2       503       643       644      2746      2750      2748
 -1      1137    8    0    1
 -2       505       504       645      2327      2751      2752
 -1      1138    8    0    1
 -2       504       644       645      2749      2753      2751
 -1      1139    8    0    1
 -2       506       505       646      2330      2754      2755
 -1      1140    8    0    1
 -2       505       645       646      2752      2756      2754
 -1      1141    8    0    1
 -2       507       506       647      2333      2757      2758
 -1      1142    8    0    1
 -2       506       646       647      2755      2759      2757
 -1      1143    8    0    1
 -2       508       507       648      2336      2760      2761
 -1      1144    8    0    1
 -2       507       647       648      2758      2762      2760
 -1      1145    8    0    1
 -2       509       508       649      2339      2763      2764
 -1      1146    8    0    1
 -2       508       648       649      2761      2765      2763
 -1      1147    8    0    1
 -2       510       509       650      2342      2766      2767
 -1      1148    8    0    1
 -2       509       649       650      2764      2768      2766
 -1      1149    8    0    1
 -2       511       510       651      2345      2769      2770
 -1      1150    8    0    1
 -2       510       650       651      2767      2771      2769
 -1      1151    8    0    1
 -2       512       511       652      2348      2772      2773
 -1      1152    8    0    1
 -2       511       651       652      2770      2774      2772
 -1      1153    8    0    1
 -2       513       512       653      2351      2775      2776
 -1      1154    8    0    1
 -2       512       652       653      2773      2777      2775
 -1      1155    8    0    1
 -2       514       513       654      2354      2778      2779
 -1      1156    8    0    1
 -2       513       653       654      2776      2780      2778
 -1      1157    8    0    1
 -2       515       514       655      2357      2781      2782
 -1      1158    8    0    1
 -2       514       654       655      2779      2783      2781
 -1      1159    8    0    1
 -2       516       515       656      2360      2784      2785
 -1      1160    8    0    1
 -2       515       655       656      2782      2786      2784
 -1      1161    8    0    1
 -2       517       516       657      2363      2787      2788
 -1      1162    8    0    1
 -2       516       656       657      2785      2789      2787
 -1      1163    8    0    1
 -2       519       518       658      2369      2790      2791
 -1      1164    8    0    1
 -2       520       519       605      2372      2792      2793
 -1      1165    8    0    1
 -2       522       521       659      2378      2794      2795
 -1      1166    8    0    1
 -2       523       522       660      2381      2796      2797
 -1      1167    8    0    1
 -2       522       659       660      2795      2798      2796
 -1      1168    8    0    1
 -2       524       523       661      2384      2799      2800
 -1      1169    8    0    1
 -2       523       660       661      2797      2801      2799
 -1      1170    8    0    1
 -2       525       524       662      2387      2802      2803
 -1      1171    8    0    1
 -2       524       661       662      2800      2804      2802
 -1      1172    8    0    1
 -2       526       525       663      2390      2805      2806
 -1      1173    8    0    1
 -2       525       662       663      2803      2807      2805
 -1      1174    8    0    1
 -2       527       526       664      2393      2808      2809
 -1      1175    8    0    1
 -2       526       663       664      2806      2810      2808
 -1      1176    8    0    1
 -2       528       527       665      2396      2811      2812
 -1      1177    8    0    1
 -2       527       664       665      2809      2813      2811
 -1      1178    8    0    1
 -2       530       531       666      2404      2814      2815
 -1      1179    8    0    1
 -2       602       603       667      2679      2816      2817
 -1      1180    8    0    1
 -2       529       530       668      2401      2818      2819
 -1      1181    8    0    1
 -2       530       666       668      2815      2820      2818
 -1      1182    8    0    1
 -2       532       533       669      2410      2821      2822
 -1      1183    8    0    1
 -2       533       534       670      2413      2823      2824
 -1      1184    8    0    1
 -2       533       670       669      2824      2825      2821
 -1      1185    8    0    1
 -2       534       535       671      2416      2826      2827
 -1      1186    8    0    1
 -2       534       671       670      2827      2828      2823
 -1      1187    8    0    1
 -2       535       536       672      2419      2829      2830
 -1      1188    8    0    1
 -2       535       672       671      2830      2831      2826
 -1      1189    8    0    1
 -2       536       537       673      2422      2832      2833
 -1      1190    8    0    1
 -2       536       673       672      2833      2834      2829
 -1      1191    8    0    1
 -2       537       538       674      2425      2835      2836
 -1      1192    8    0    1
 -2       537       674       673      2836      2837      2832
 -1      1193    8    0    1
 -2       538       539       675      2428      2838      2839
 -1      1194    8    0    1
 -2       538       675       674      2839      2840      2835
 -1      1195    8    0    1
 -2       539       540       676      2431      2841      2842
 -1      1196    8    0    1
 -2       539       676       675      2842      2843      2838
 -1      1197    8    0    1
 -2       540       541       677      2434      2844      2845
 -1      1198    8    0    1
 -2       540       677       676      2845      2846      2841
 -1      1199    8    0    1
 -2       541       542       678      2437      2847      2848
 -1      1200    8    0    1
 -2       541       678       677      2848      2849      2844
 -1      1201    8    0    1
 -2       542       543       679      2440      2850      2851
 -1      1202    8    0    1
 -2       542       679       678      2851      2852      2847
 -1      1203    8    0    1
 -2       543       544       680      2443      2853      2854
 -1      1204    8    0    1
 -2       543       680       679      2854      2855      2850
 -1      1205    8    0    1
 -2       544       545       681      2446      2856      2857
 -1      1206    8    0    1
 -2       544       681       680      2857      2858      2853
 -1      1207    8    0    1
 -2       545       546       682      2449      2859      2860
 -1      1208    8    0    1
 -2       545       682       681      2860      2861      2856
 -1      1209    8    0    1
 -2       546       547       683      2452      2862      2863
 -1      1210    8    0    1
 -2       546       683       682      2863      2864      2859
 -1      1211    8    0    1
 -2       547       548       684      2455      2865      2866
 -1      1212    8    0    1
 -2       547       684       683      2866      2867      2862
 -1      1213    8    0    1
 -2       548       549       685      2458      2868      2869
 -1      1214    8    0    1
 -2       548       685       684      2869      2870      2865
 -1      1215    8    0    1
 -2       549       550       686      2461      2871      2872
 -1      1216    8    0    1
 -2       549       686       685      2872      2873      2868
 -1      1217    8    0    1
 -2       550       551       687      2464      2874      2875
 -1      1218    8    0    1
 -2       550       687       686      2875      2876      2871
 -1      1219    8    0    1
 -2       551       552       688      2467      2877      2878
 -1      1220    8    0    1
 -2       551       688       687      2878      2879      2874
 -1      1221    8    0    1
 -2       552       553       689      2470      2880      2881
 -1      1222    8    0    1
 -2       552       689       688      2881      2882      2877
 -1      1223    8    0    1
 -2       553       554       690      2473      2883      2884
 -1      1224    8    0    1
 -2       553       690       689      2884      2885      2880
 -1      1225    8    0    1
 -2       554       555       691      2476      2886      2887
 -1      1226    8    0    1
 -2       554       691       690      2887      2888      2883
 -1      1227    8    0    1
 -2       555       556       692      2479      2889      2890
 -1      1228    8    0    1
 -2       555       692       691      2890      2891      2886
 -1      1229    8    0    1
 -2       556       557       693      2482      2892      2893
 -1      1230    8    0    1
 -2       556       693       692      2893      2894      2889
 -1      1231    8    0    1
 -2       557       558       694      2485      2895      2896
 -1      1232    8    0    1
 -2       557       694       693      2896      2897      2892
 -1      1233    8    0    1
 -2       558       559       695      2488      2898      2899
 -1      1234    8    0    1
 -2       558       695       694      2899      2900      2895
 -1      1235    8    0    1
 -2       559       560       696      2491      2901      2902
 -1      1236    8    0    1
 -2       559       696       695      2902      2903      2898
 -1      1237    8    0    1
 -2       560       561       697      2494      2904      2905
 -1      1238    8    0    1
 -2       560       697       696      2905      2906      2901
 -1      1239    8    0    1
 -2       561       562       698      2497      2907      2908
 -1      1240    8    0    1
 -2       561       698       697      2908      2909      2904
 -1      1241    8    0    1
 -2       562       563       699      2500      2910      2911
 -1      1242    8    0    1
 -2       562       699       698      2911      2912      2907
 -1      1243    8    0    1
 -2       563       564       700      2503      2913      2914
 -1      1244    8    0    1
 -2       563       700       699      2914      2915      2910
 -1      1245    8    0    1
 -2       564       565       701      2506      2916      2917
 -1      1246    8    0    1
 -2       564       701       700      2917      2918      2913
 -1      1247    8    0    1
 -2       565       566       702      2509      2919      2920
 -1      1248    8    0    1
 -2       565       702       701      2920      2921      2916
 -1      1249    8    0    1
 -2       566       567       703      2512      2922      2923
 -1      1250    8    0    1
 -2       566       703       702      2923      2924      2919
 -1      1251    8    0    1
 -2       567       568       704      2515      2925      2926
 -1      1252    8    0    1
 -2       567       704       703      2926      2927      2922
 -1      1253    8    0    1
 -2       568       569       705      2518      2928      2929
 -1      1254    8    0    1
 -2       568       705       704      2929      2930      2925
 -1      1255    8    0    1
 -2       569       570       706      2521      2931      2932
 -1      1256    8    0    1
 -2       705       569       706      2928      2932      2933
 -1      1257    8    0    1
 -2       570       573       706      2651      2934      2931
 -1      1258    8    0    1
 -2       583       586       707      2649      2935      2936
 -1      1259    8    0    1
 -2       575       576       708      2539      2937      2938
 -1      1260    8    0    1
 -2       582       613       709      2652      2939      2940
 -1      1261    8    0    1
 -2       571       572       710      2527      2941      2942
 -1      1262    8    0    1
 -2       576       577       711      2542      2943      2944
 -1      1263    8    0    1
 -2       576       711       708      2944      2945      2937
 -1      1264    8    0    1
 -2       572       575       712      2536      2946      2947
 -1      1265    8    0    1
 -2       710       572       712      2941      2947      2948
 -1      1266    8    0    1
 -2       575       708       712      2938      2949      2946
 -1      1267    8    0    1
 -2       577       578       713      2545      2950      2951
 -1      1268    8    0    1
 -2       577       713       711      2951      2952      2943
 -1      1269    8    0    1
 -2       578       579       714      2548      2953      2954
 -1      1270    8    0    1
 -2       578       714       713      2954      2955      2950
 -1      1271    8    0    1
 -2       579       580       715      2551      2956      2957
 -1      1272    8    0    1
 -2       579       715       714      2957      2958      2953
 -1      1273    8    0    1
 -2       585       582       716      2565      2959      2960
 -1      1274    8    0    1
 -2       610       585       717      2645      2961      2962
 -1      1275    8    0    1
 -2       586       485       718      2644      2963      2964
 -1      1276    8    0    1
 -2       606       607       719      2647      2965      2966
 -1      1277    8    0    1
 -2       584       529       720      2561      2967      2968
 -1      1278    8    0    1
 -2       529       668       720      2819      2969      2967
 -1      1279    8    0    1
 -2       531       532       721      2407      2970      2971
 -1      1280    8    0    1
 -2       666       531       721      2814      2971      2972
 -1      1281    8    0    1
 -2       532       669       721      2822      2973      2970
 -1      1282    8    0    1
 -2       486       484       722      2270      2974      2975
 -1      1283    8    0    1
 -2       486       722       627      2975      2976      2698
 -1      1284    8    0    1
 -2       485       609       723      2673      2977      2978
 -1      1285    8    0    1
 -2       485       723       718      2978      2979      2963
 -1      1286    8    0    1
 -2       613       583       724      2639      2980      2981
 -1      1287    8    0    1
 -2       483       584       725      2637      2982      2983
 -1      1288    8    0    1
 -2       624       483       725      2691      2983      2984
 -1      1289    8    0    1
 -2       584       720       725      2968      2985      2982
 -1      1290    8    0    1
 -2       479       480       726      2254      2986      2987
 -1      1291    8    0    1
 -2       620       479       726      2681      2987      2988
 -1      1292    8    0    1
 -2       480       622       726      2687      2989      2986
 -1      1293    8    0    1
 -2       476       475       727      2243      2990      2991
 -1      1294    8    0    1
 -2       595       602       728      2667      2992      2993
 -1      1295    8    0    1
 -2       608       587       729      2658      2994      2995
 -1      1296    8    0    1
 -2       581       619       730      2677      2996      2997
 -1      1297    8    0    1
 -2       619       528       730      2680      2998      2996
 -1      1298    8    0    1
 -2       589       600       731      2669      2999      3000
 -1      1299    8    0    1
 -2       593       597       732      2592      3001      3002
 -1      1300    8    0    1
 -2       596       593       733      2666      3003      3004
 -1      1301    8    0    1
 -2       593       732       733      3002      3005      3003
 -1      1302    8    0    1
 -2       598       599       734      2597      3006      3007
 -1      1303    8    0    1
 -2       594       596       735      2668      3008      3009
 -1      1304    8    0    1
 -2       600       601       736      2602      3010      3011
 -1      1305    8    0    1
 -2       603       604       658      2654      3012      3013
 -1      1306    8    0    1
 -2       607       588       737      2616      3014      3015
 -1      1307    8    0    1
 -2       588       608       738      2659      3016      3017
 -1      1308    8    0    1
 -2       608       729       738      2995      3018      3016
 -1      1309    8    0    1
 -2       592       594       739      2674      3019      3020
 -1      1310    8    0    1
 -2       601       595       740      2657      3021      3022
 -1      1311    8    0    1
 -2       484       611       741      2625      3023      3024
 -1      1312    8    0    1
 -2       722       484       741      2974      3024      3025
 -1      1313    8    0    1
 -2       611       615       741      2642      3026      3023
 -1      1314    8    0    1
 -2       590       592       742      2633      3027      3028
 -1      1315    8    0    1
 -2       614       476       743      2634      3029      3030
 -1      1316    8    0    1
 -2       476       727       743      2991      3031      3029
 -1      1317    8    0    1
 -2       477       621       744      2684      3032      3033
 -1      1318    8    0    1
 -2       477       744       591      3033      3034      2579
 -1      1319    8    0    1
 -2       587       625       729      2694      3035      2994
 -1      1320    8    0    1
 -2       482       474       624      2695      2692      3036
 -1      1321    8    0    1
 -2       740       595       728      3021      2993      3037
 -1      1322    8    0    1
 -2       626       590       742      2696      3028      3038
 -1      1323    8    0    1
 -2       737       588       738      3014      3017      3039
 -1      1324    8    0    1
 -2       736       601       740      3010      3022      3040
 -1      1325    8    0    1
 -2       517       657       667      2788      3041      3042
 -1      1326    8    0    1
 -2       658       518       667      2790      3043      3044
 -1      1327    8    0    1
 -2       518       517       667      2366      3042      3043
 -1      1328    8    0    1
 -2       520       605       745      2793      3045      3046
 -1      1329    8    0    1
 -2       528       665       730      2812      3047      2998
 -1      1330    8    0    1
 -2       521       520       745      2375      3046      3048
 -1      1331    8    0    1
 -2       742       592       739      3027      3020      3049
 -1      1332    8    0    1
 -2       602       667       728      2817      3050      2992
 -1      1333    8    0    1
 -2       735       596       733      3008      3004      3051
 -1      1334    8    0    1
 -2       707       586       718      2935      2964      3052
 -1      1335    8    0    1
 -2       706       573       746      2934      3053      3054
 -1      1336    8    0    1
 -2       573       574       746      2532      3055      3053
 -1      1337    8    0    1
 -2       582       709       716      2940      3056      2959
 -1      1338    8    0    1
 -2       717       585       716      2961      2960      3057
 -1      1339    8    0    1
 -2       732       597       747      3001      3058      3059
 -1      1340    8    0    1
 -2       597       617       747      2664      3060      3058
 -1      1341    8    0    1
 -2       583       707       748      2936      3061      3062
 -1      1342    8    0    1
 -2       583       748       724      3062      3063      2980
 -1      1343    8    0    1
 -2       580       581       730      2554      2997      3064
 -1      1344    8    0    1
 -2       623       482       624      2688      3036      3065
 -1      1345    8    0    1
 -2       613       724       709      2981      3066      2939
 -1      1346    8    0    1
 -2       610       717       625      2962      3067      2693
 -1      1347    8    0    1
 -2       616       589       749      2662      3068      3069
 -1      1348    8    0    1
 -2       589       731       749      3000      3070      3068
 -1      1349    8    0    1
 -2       617       473       750      2665      3071      3072
 -1      1350    8    0    1
 -2       473       618       750      2671      3073      3071
 -1      1351    8    0    1
 -2       667       603       658      2816      3013      3044
 -1      1352    8    0    1
 -2       605       519       604      2792      3074      2653
 -1      1353    8    0    1
 -2       606       719       745      2966      3075      3076
 -1      1354    8    0    1
 -2       618       598       751      2672      3077      3078
 -1      1355    8    0    1
 -2       598       734       751      3007      3079      3077
 -1      1356    8    0    1
 -2       599       616       752      2661      3080      3081
 -1      1357    8    0    1
 -2       599       752       734      3081      3082      3006
 -1      1358    8    0    1
 -2       574       571       753      2533      3083      3084
 -1      1359    8    0    1
 -2       746       574       753      3055      3084      3085
 -1      1360    8    0    1
 -2       571       710       753      2942      3086      3083
 -1      1361    8    0    1
 -2       723       609       626      2977      2697      3087
 -1      1362    8    0    1
 -2       475       591       754      2578      3088      3089
 -1      1363    8    0    1
 -2       727       475       754      2990      3089      3090
 -1      1364    8    0    1
 -2       591       744       754      3034      3091      3088
 -1      1365    8    0    1
 -2       580       730       755      3064      3092      3093
 -1      1366    8    0    1
 -2       715       580       755      2956      3093      3094
 -1      1367    8    0    1
 -2       730       665       755      3047      3095      3092
 -1      1368    8    0    1
 -2       731       600       736      2999      3011      3096
 -1      1369    8    0    1
 -2       594       735       756      3009      3097      3098
 -1      1370    8    0    1
 -2       594       756       739      3098      3099      3019
 -1      1371    8    0    1
 -2       605       606       745      2613      3076      3045
 -1      1372    8    0    1
 -2       604       519       658      3074      2791      3012
 -1      1373    8    0    1
 -2       622       623       757      2690      3100      3101
 -1      1374    8    0    1
 -2       615       614       758      2643      3102      3103
 -1      1375    8    0    1
 -2       741       615       758      3026      3103      3104
 -1      1376    8    0    1
 -2       614       743       758      3030      3105      3102
 -1      1377    8    0    1
 -2       738       729       759      3018      3106      3107
 -1      1378    8    0    1
 -2       742       739       760      3049      3108      3109
 -1      1379    8    0    1
 -2       667       657       728      3041      3110      3050
 -1      1380    8    0    1
 -2       629       628       761      2705      3111      3112
 -1      1381    8    0    1
 -2       630       629       762      2708      3113      3114
 -1      1382    8    0    1
 -2       629       761       762      3112      3115      3113
 -1      1383    8    0    1
 -2       631       630       763      2711      3116      3117
 -1      1384    8    0    1
 -2       630       762       763      3114      3118      3116
 -1      1385    8    0    1
 -2       632       631       764      2714      3119      3120
 -1      1386    8    0    1
 -2       631       763       764      3117      3121      3119
 -1      1387    8    0    1
 -2       633       632       765      2717      3122      3123
 -1      1388    8    0    1
 -2       632       764       765      3120      3124      3122
 -1      1389    8    0    1
 -2       634       633       766      2720      3125      3126
 -1      1390    8    0    1
 -2       633       765       766      3123      3127      3125
 -1      1391    8    0    1
 -2       635       634       767      2723      3128      3129
 -1      1392    8    0    1
 -2       634       766       767      3126      3130      3128
 -1      1393    8    0    1
 -2       636       635       768      2726      3131      3132
 -1      1394    8    0    1
 -2       635       767       768      3129      3133      3131
 -1      1395    8    0    1
 -2       637       636       769      2729      3134      3135
 -1      1396    8    0    1
 -2       636       768       769      3132      3136      3134
 -1      1397    8    0    1
 -2       638       637       770      2732      3137      3138
 -1      1398    8    0    1
 -2       637       769       770      3135      3139      3137
 -1      1399    8    0    1
 -2       639       638       771      2735      3140      3141
 -1      1400    8    0    1
 -2       638       770       771      3138      3142      3140
 -1      1401    8    0    1
 -2       640       639       772      2738      3143      3144
 -1      1402    8    0    1
 -2       639       771       772      3141      3145      3143
 -1      1403    8    0    1
 -2       641       640       773      2741      3146      3147
 -1      1404    8    0    1
 -2       640       772       773      3144      3148      3146
 -1      1405    8    0    1
 -2       642       641       774      2744      3149      3150
 -1      1406    8    0    1
 -2       641       773       774      3147      3151      3149
 -1      1407    8    0    1
 -2       643       642       775      2747      3152      3153
 -1      1408    8    0    1
 -2       642       774       775      3150      3154      3152
 -1      1409    8    0    1
 -2       644       643       776      2750      3155      3156
 -1      1410    8    0    1
 -2       643       775       776      3153      3157      3155
 -1      1411    8    0    1
 -2       645       644       777      2753      3158      3159
 -1      1412    8    0    1
 -2       644       776       777      3156      3160      3158
 -1      1413    8    0    1
 -2       646       645       778      2756      3161      3162
 -1      1414    8    0    1
 -2       645       777       778      3159      3163      3161
 -1      1415    8    0    1
 -2       647       646       779      2759      3164      3165
 -1      1416    8    0    1
 -2       646       778       779      3162      3166      3164
 -1      1417    8    0    1
 -2       648       647       780      2762      3167      3168
 -1      1418    8    0    1
 -2       647       779       780      3165      3169      3167
 -1      1419    8    0    1
 -2       649       648       781      2765      3170      3171
 -1      1420    8    0    1
 -2       648       780       781      3168      3172      3170
 -1      1421    8    0    1
 -2       650       649       782      2768      3173      3174
 -1      1422    8    0    1
 -2       649       781       782      3171      3175      3173
 -1      1423    8    0    1
 -2       651       650       783      2771      3176      3177
 -1      1424    8    0    1
 -2       650       782       783      3174      3178      3176
 -1      1425    8    0    1
 -2       652       651       784      2774      3179      3180
 -1      1426    8    0    1
 -2       651       783       784      3177      3181      3179
 -1      1427    8    0    1
 -2       653       652       785      2777      3182      3183
 -1      1428    8    0    1
 -2       652       784       785      3180      3184      3182
 -1      1429    8    0    1
 -2       654       653       786      2780      3185      3186
 -1      1430    8    0    1
 -2       653       785       786      3183      3187      3185
 -1      1431    8    0    1
 -2       655       654       787      2783      3188      3189
 -1      1432    8    0    1
 -2       654       786       787      3186      3190      3188
 -1      1433    8    0    1
 -2       656       655       788      2786      3191      3192
 -1      1434    8    0    1
 -2       655       787       788      3189      3193      3191
 -1      1435    8    0    1
 -2       731       736       789      3096      3194      3195
 -1      1436    8    0    1
 -2       627       722       790      2976      3196      3197
 -1      1437    8    0    1
 -2       661       660       759      2801      3198      3199
 -1      1438    8    0    1
 -2       662       661       791      2804      3200      3201
 -1      1439    8    0    1
 -2       661       759       791      3199      3202      3200
 -1      1440    8    0    1
 -2       663       662       792      2807      3203      3204
 -1      1441    8    0    1
 -2       662       791       792      3201      3205      3203
 -1      1442    8    0    1
 -2       664       663       793      2810      3206      3207
 -1      1443    8    0    1
 -2       663       792       793      3204      3208      3206
 -1      1444    8    0    1
 -2       665       664       794      2813      3209      3210
 -1      1445    8    0    1
 -2       755       665       794      3095      3210      3211
 -1      1446    8    0    1
 -2       664       793       794      3207      3212      3209
 -1      1447    8    0    1
 -2       670       671       795      2828      3213      3214
 -1      1448    8    0    1
 -2       669       670       796      2825      3215      3216
 -1      1449    8    0    1
 -2       670       795       796      3214      3217      3215
 -1      1450    8    0    1
 -2       672       673       797      2834      3218      3219
 -1      1451    8    0    1
 -2       673       674       798      2837      3220      3221
 -1      1452    8    0    1
 -2       673       798       797      3221      3222      3218
 -1      1453    8    0    1
 -2       674       675       799      2840      3223      3224
 -1      1454    8    0    1
 -2       674       799       798      3224      3225      3220
 -1      1455    8    0    1
 -2       675       676       800      2843      3226      3227
 -1      1456    8    0    1
 -2       675       800       799      3227      3228      3223
 -1      1457    8    0    1
 -2       676       677       801      2846      3229      3230
 -1      1458    8    0    1
 -2       676       801       800      3230      3231      3226
 -1      1459    8    0    1
 -2       677       678       802      2849      3232      3233
 -1      1460    8    0    1
 -2       677       802       801      3233      3234      3229
 -1      1461    8    0    1
 -2       678       679       803      2852      3235      3236
 -1      1462    8    0    1
 -2       678       803       802      3236      3237      3232
 -1      1463    8    0    1
 -2       679       680       804      2855      3238      3239
 -1      1464    8    0    1
 -2       679       804       803      3239      3240      3235
 -1      1465    8    0    1
 -2       680       681       805      2858      3241      3242
 -1      1466    8    0    1
 -2       680       805       804      3242      3243      3238
 -1      1467    8    0    1
 -2       681       682       806      2861      3244      3245
 -1      1468    8    0    1
 -2       681       806       805      3245      3246      3241
 -1      1469    8    0    1
 -2       682       683       807      2864      3247      3248
 -1      1470    8    0    1
 -2       682       807       806      3248      3249      3244
 -1      1471    8    0    1
 -2       683       684       808      2867      3250      3251
 -1      1472    8    0    1
 -2       683       808       807      3251      3252      3247
 -1      1473    8    0    1
 -2       684       685       809      2870      3253      3254
 -1      1474    8    0    1
 -2       684       809       808      3254      3255      3250
 -1      1475    8    0    1
 -2       685       686       810      2873      3256      3257
 -1      1476    8    0    1
 -2       685       810       809      3257      3258      3253
 -1      1477    8    0    1
 -2       686       687       811      2876      3259      3260
 -1      1478    8    0    1
 -2       686       811       810      3260      3261      3256
 -1      1479    8    0    1
 -2       687       688       812      2879      3262      3263
 -1      1480    8    0    1
 -2       687       812       811      3263      3264      3259
 -1      1481    8    0    1
 -2       688       689       813      2882      3265      3266
 -1      1482    8    0    1
 -2       688       813       812      3266      3267      3262
 -1      1483    8    0    1
 -2       689       690       814      2885      3268      3269
 -1      1484    8    0    1
 -2       689       814       813      3269      3270      3265
 -1      1485    8    0    1
 -2       690       691       815      2888      3271      3272
 -1      1486    8    0    1
 -2       690       815       814      3272      3273      3268
 -1      1487    8    0    1
 -2       691       692       816      2891      3274      3275
 -1      1488    8    0    1
 -2       691       816       815      3275      3276      3271
 -1      1489    8    0    1
 -2       692       693       817      2894      3277      3278
 -1      1490    8    0    1
 -2       692       817       816      3278      3279      3274
 -1      1491    8    0    1
 -2       693       694       818      2897      3280      3281
 -1      1492    8    0    1
 -2       693       818       817      3281      3282      3277
 -1      1493    8    0    1
 -2       694       695       819      2900      3283      3284
 -1      1494    8    0    1
 -2       694       819       818      3284      3285      3280
 -1      1495    8    0    1
 -2       696       697       756      2906      3286      3287
 -1      1496    8    0    1
 -2       697       698       760      2909      3288      3289
 -1      1497    8    0    1
 -2       699       700       820      2915      3290      3291
 -1      1498    8    0    1
 -2       700       701       821      2918      3292      3293
 -1      1499    8    0    1
 -2       700       821       820      3293      3294      3290
 -1      1500    8    0    1
 -2       701       702       822      2921      3295      3296
 -1      1501    8    0    1
 -2       701       822       821      3296      3297      3292
 -1      1502    8    0    1
 -2       702       703       823      2924      3298      3299
 -1      1503    8    0    1
 -2       702       823       822      3299      3300      3295
 -1      1504    8    0    1
 -2       703       704       824      2927      3301      3302
 -1      1505    8    0    1
 -2       703       824       823      3302      3303      3298
 -1      1506    8    0    1
 -2       704       705       825      2930      3304      3305
 -1      1507    8    0    1
 -2       704       825       824      3305      3306      3301
 -1      1508    8    0    1
 -2       705       706       826      2933      3307      3308
 -1      1509    8    0    1
 -2       825       705       826      3304      3308      3309
 -1      1510    8    0    1
 -2       706       746       826      3054      3310      3307
 -1      1511    8    0    1
 -2       733       732       827      3005      3311      3312
 -1      1512    8    0    1
 -2       711       713       828      2952      3313      3314
 -1      1513    8    0    1
 -2       723       626       829      3087      3315      3316
 -1      1514    8    0    1
 -2       708       711       830      2945      3317      3318
 -1      1515    8    0    1
 -2       711       828       830      3314      3319      3317
 -1      1516    8    0    1
 -2       716       709       831      3056      3320      3321
 -1      1517    8    0    1
 -2       521       745       719      3048      3075      3322
 -1      1518    8    0    1
 -2       717       716       832      3057      3323      3324
 -1      1519    8    0    1
 -2       720       668       833      2969      3325      3326
 -1      1520    8    0    1
 -2       719       607       737      2965      3015      3327
 -1      1521    8    0    1
 -2       713       714       834      2955      3328      3329
 -1      1522    8    0    1
 -2       713       834       828      3329      3330      3313
 -1      1523    8    0    1
 -2       714       715       835      2958      3331      3332
 -1      1524    8    0    1
 -2       714       835       834      3332      3333      3328
 -1      1525    8    0    1
 -2       625       717       836      3067      3334      3335
 -1      1526    8    0    1
 -2       671       672       837      2831      3336      3337
 -1      1527    8    0    1
 -2       795       671       837      3213      3337      3338
 -1      1528    8    0    1
 -2       672       797       837      3219      3339      3336
 -1      1529    8    0    1
 -2       668       666       838      2820      3340      3341
 -1      1530    8    0    1
 -2       668       838       833      3341      3342      3325
 -1      1531    8    0    1
 -2       729       625       839      3035      3343      3344
 -1      1532    8    0    1
 -2       729       839       759      3344      3345      3106
 -1      1533    8    0    1
 -2       628       627       840      2702      3346      3347
 -1      1534    8    0    1
 -2       628       840       761      3347      3348      3111
 -1      1535    8    0    1
 -2       718       723       841      2979      3349      3350
 -1      1536    8    0    1
 -2       709       724       842      3066      3351      3352
 -1      1537    8    0    1
 -2       709       842       831      3352      3353      3320
 -1      1538    8    0    1
 -2       735       733       843      3051      3354      3355
 -1      1539    8    0    1
 -2       733       827       843      3312      3356      3354
 -1      1540    8    0    1
 -2       626       742       844      3038      3357      3358
 -1      1541    8    0    1
 -2       623       624       845      3065      3359      3360
 -1      1542    8    0    1
 -2       757       623       845      3100      3360      3361
 -1      1543    8    0    1
 -2       624       725       845      2984      3362      3359
 -1      1544    8    0    1
 -2       707       718       846      3052      3363      3364
 -1      1545    8    0    1
 -2       718       841       846      3350      3365      3363
 -1      1546    8    0    1
 -2       621       620       847      2685      3366      3367
 -1      1547    8    0    1
 -2       736       740       848      3040      3368      3369
 -1      1548    8    0    1
 -2       728       657       849      3110      3370      3371
 -1      1549    8    0    1
 -2       740       728       849      3037      3371      3372
 -1      1550    8    0    1
 -2       657       656       849      2789      3373      3370
 -1      1551    8    0    1
 -2       744       621       850      3032      3374      3375
 -1      1552    8    0    1
 -2       621       847       850      3367      3376      3374
 -1      1553    8    0    1
 -2       726       622       851      2989      3377      3378
 -1      1554    8    0    1
 -2       622       757       851      3101      3379      3377
 -1      1555    8    0    1
 -2       742       760       844      3109      3380      3357
 -1      1556    8    0    1
 -2       715       755       852      3094      3381      3382
 -1      1557    8    0    1
 -2       835       715       852      3331      3382      3383
 -1      1558    8    0    1
 -2       755       794       852      3211      3384      3381
 -1      1559    8    0    1
 -2       656       788       849      3192      3385      3373
 -1      1560    8    0    1
 -2       789       736       848      3194      3369      3386
 -1      1561    8    0    1
 -2       627       790       840      3197      3387      3346
 -1      1562    8    0    1
 -2       666       721       853      2972      3388      3389
 -1      1563    8    0    1
 -2       666       853       838      3389      3390      3340
 -1      1564    8    0    1
 -2       669       796       854      3216      3391      3392
 -1      1565    8    0    1
 -2       669       854       721      3392      3393      2973
 -1      1566    8    0    1
 -2       696       756       855      3287      3394      3395
 -1      1567    8    0    1
 -2       695       696       855      2903      3395      3396
 -1      1568    8    0    1
 -2       756       735       855      3097      3397      3394
 -1      1569    8    0    1
 -2       819       695       855      3283      3396      3398
 -1      1570    8    0    1
 -2       699       820       844      3291      3399      3400
 -1      1571    8    0    1
 -2       698       699       844      2912      3400      3401
 -1      1572    8    0    1
 -2       827       732       856      3311      3402      3403
 -1      1573    8    0    1
 -2       732       747       856      3059      3404      3402
 -1      1574    8    0    1
 -2       829       626       844      3315      3358      3405
 -1      1575    8    0    1
 -2       710       712       857      2948      3406      3407
 -1      1576    8    0    1
 -2       716       831       858      3321      3408      3409
 -1      1577    8    0    1
 -2       716       858       832      3409      3410      3323
 -1      1578    8    0    1
 -2       723       829       841      3316      3411      3349
 -1      1579    8    0    1
 -2       712       708       859      2949      3412      3413
 -1      1580    8    0    1
 -2       857       712       859      3406      3413      3414
 -1      1581    8    0    1
 -2       708       830       859      3318      3415      3412
 -1      1582    8    0    1
 -2       747       617       860      3060      3416      3417
 -1      1583    8    0    1
 -2       617       750       860      3072      3418      3416
 -1      1584    8    0    1
 -2       748       707       861      3061      3419      3420
 -1      1585    8    0    1
 -2       707       846       861      3364      3421      3419
 -1      1586    8    0    1
 -2       760       698       844      3288      3401      3380
 -1      1587    8    0    1
 -2       625       836       839      3335      3422      3343
 -1      1588    8    0    1
 -2       836       717       832      3334      3324      3423
 -1      1589    8    0    1
 -2       842       724       862      3351      3424      3425
 -1      1590    8    0    1
 -2       724       748       862      3063      3426      3424
 -1      1591    8    0    1
 -2       749       731       863      3070      3427      3428
 -1      1592    8    0    1
 -2       731       789       863      3195      3429      3427
 -1      1593    8    0    1
 -2       710       857       864      3407      3430      3431
 -1      1594    8    0    1
 -2       710       864       753      3431      3432      3086
 -1      1595    8    0    1
 -2       750       618       865      3073      3433      3434
 -1      1596    8    0    1
 -2       618       751       865      3078      3435      3433
 -1      1597    8    0    1
 -2       752       616       866      3080      3436      3437
 -1      1598    8    0    1
 -2       616       749       866      3069      3438      3436
 -1      1599    8    0    1
 -2       620       726       867      2988      3439      3440
 -1      1600    8    0    1
 -2       847       620       867      3366      3440      3441
 -1      1601    8    0    1
 -2       726       851       867      3378      3442      3439
 -1      1602    8    0    1
 -2       725       720       868      2985      3443      3444
 -1      1603    8    0    1
 -2       845       725       868      3362      3444      3445
 -1      1604    8    0    1
 -2       720       833       868      3326      3446      3443
 -1      1605    8    0    1
 -2       848       740       849      3368      3372      3447
 -1      1606    8    0    1
 -2       734       752       869      3082      3448      3449
 -1      1607    8    0    1
 -2       739       756       760      3099      3450      3108
 -1      1608    8    0    1
 -2       751       734       869      3079      3449      3451
 -1      1609    8    0    1
 -2       727       754       870      3090      3452      3453
 -1      1610    8    0    1
 -2       759       660       738      3198      3454      3107
 -1      1611    8    0    1
 -2       727       870       871      3453      3455      3456
 -1      1612    8    0    1
 -2       727       871       743      3456      3457      3031
 -1      1613    8    0    1
 -2       722       741       758      3025      3104      3458
 -1      1614    8    0    1
 -2       722       758       790      3458      3459      3196
 -1      1615    8    0    1
 -2       738       660       737      3454      3460      3039
 -1      1616    8    0    1
 -2       790       758       743      3459      3105      3461
 -1      1617    8    0    1
 -2       761       840       872      3348      3462      3463
 -1      1618    8    0    1
 -2       751       869       873      3451      3464      3465
 -1      1619    8    0    1
 -2       751       873       865      3465      3466      3435
 -1      1620    8    0    1
 -2       839       836       874      3422      3467      3468
 -1      1621    8    0    1
 -2       846       841       875      3365      3469      3470
 -1      1622    8    0    1
 -2       763       762       876      3118      3471      3472
 -1      1623    8    0    1
 -2       764       763       877      3121      3473      3474
 -1      1624    8    0    1
 -2       763       876       877      3472      3475      3473
 -1      1625    8    0    1
 -2       765       764       878      3124      3476      3477
 -1      1626    8    0    1
 -2       764       877       878      3474      3478      3476
 -1      1627    8    0    1
 -2       766       765       879      3127      3479      3480
 -1      1628    8    0    1
 -2       765       878       879      3477      3481      3479
 -1      1629    8    0    1
 -2       767       766       880      3130      3482      3483
 -1      1630    8    0    1
 -2       766       879       880      3480      3484      3482
 -1      1631    8    0    1
 -2       768       767       881      3133      3485      3486
 -1      1632    8    0    1
 -2       767       880       881      3483      3487      3485
 -1      1633    8    0    1
 -2       769       768       882      3136      3488      3489
 -1      1634    8    0    1
 -2       768       881       882      3486      3490      3488
 -1      1635    8    0    1
 -2       770       769       883      3139      3491      3492
 -1      1636    8    0    1
 -2       769       882       883      3489      3493      3491
 -1      1637    8    0    1
 -2       771       770       884      3142      3494      3495
 -1      1638    8    0    1
 -2       770       883       884      3492      3496      3494
 -1      1639    8    0    1
 -2       772       771       885      3145      3497      3498
 -1      1640    8    0    1
 -2       771       884       885      3495      3499      3497
 -1      1641    8    0    1
 -2       773       772       886      3148      3500      3501
 -1      1642    8    0    1
 -2       772       885       886      3498      3502      3500
 -1      1643    8    0    1
 -2       774       773       887      3151      3503      3504
 -1      1644    8    0    1
 -2       773       886       887      3501      3505      3503
 -1      1645    8    0    1
 -2       775       774       888      3154      3506      3507
 -1      1646    8    0    1
 -2       774       887       888      3504      3508      3506
 -1      1647    8    0    1
 -2       776       775       889      3157      3509      3510
 -1      1648    8    0    1
 -2       775       888       889      3507      3511      3509
 -1      1649    8    0    1
 -2       777       776       890      3160      3512      3513
 -1      1650    8    0    1
 -2       776       889       890      3510      3514      3512
 -1      1651    8    0    1
 -2       778       777       891      3163      3515      3516
 -1      1652    8    0    1
 -2       777       890       891      3513      3517      3515
 -1      1653    8    0    1
 -2       779       778       892      3166      3518      3519
 -1      1654    8    0    1
 -2       778       891       892      3516      3520      3518
 -1      1655    8    0    1
 -2       780       779       893      3169      3521      3522
 -1      1656    8    0    1
 -2       779       892       893      3519      3523      3521
 -1      1657    8    0    1
 -2       781       780       894      3172      3524      3525
 -1      1658    8    0    1
 -2       780       893       894      3522      3526      3524
 -1      1659    8    0    1
 -2       782       781       895      3175      3527      3528
 -1      1660    8    0    1
 -2       781       894       895      3525      3529      3527
 -1      1661    8    0    1
 -2       783       782       896      3178      3530      3531
 -1      1662    8    0    1
 -2       782       895       896      3528      3532      3530
 -1      1663    8    0    1
 -2       784       783       897      3181      3533      3534
 -1      1664    8    0    1
 -2       783       896       897      3531      3535      3533
 -1      1665    8    0    1
 -2       785       784       898      3184      3536      3537
 -1      1666    8    0    1
 -2       784       897       898      3534      3538      3536
 -1      1667    8    0    1
 -2       786       785       899      3187      3539      3540
 -1      1668    8    0    1
 -2       785       898       899      3537      3541      3539
 -1      1669    8    0    1
 -2       787       786       900      3190      3542      3543
 -1      1670    8    0    1
 -2       786       899       900      3540      3544      3542
 -1      1671    8    0    1
 -2       849       788       848      3385      3545      3447
 -1      1672    8    0    1
 -2       833       838       901      3342      3546      3547
 -1      1673    8    0    1
 -2       792       791       874      3205      3548      3549
 -1      1674    8    0    1
 -2       793       792       902      3208      3550      3551
 -1      1675    8    0    1
 -2       792       874       902      3549      3552      3550
 -1      1676    8    0    1
 -2       796       795       903      3217      3553      3554
 -1      1677    8    0    1
 -2       855       735       843      3397      3355      3555
 -1      1678    8    0    1
 -2       798       799       904      3225      3556      3557
 -1      1679    8    0    1
 -2       797       798       905      3222      3558      3559
 -1      1680    8    0    1
 -2       798       904       905      3557      3560      3558
 -1      1681    8    0    1
 -2       800       801       906      3231      3561      3562
 -1      1682    8    0    1
 -2       801       802       907      3234      3563      3564
 -1      1683    8    0    1
 -2       801       907       906      3564      3565      3561
 -1      1684    8    0    1
 -2       802       803       908      3237      3566      3567
 -1      1685    8    0    1
 -2       802       908       907      3567      3568      3563
 -1      1686    8    0    1
 -2       803       804       909      3240      3569      3570
 -1      1687    8    0    1
 -2       803       909       908      3570      3571      3566
 -1      1688    8    0    1
 -2       804       805       910      3243      3572      3573
 -1      1689    8    0    1
 -2       804       910       909      3573      3574      3569
 -1      1690    8    0    1
 -2       805       806       911      3246      3575      3576
 -1      1691    8    0    1
 -2       805       911       910      3576      3577      3572
 -1      1692    8    0    1
 -2       806       807       912      3249      3578      3579
 -1      1693    8    0    1
 -2       806       912       911      3579      3580      3575
 -1      1694    8    0    1
 -2       807       808       913      3252      3581      3582
 -1      1695    8    0    1
 -2       807       913       912      3582      3583      3578
 -1      1696    8    0    1
 -2       808       809       914      3255      3584      3585
 -1      1697    8    0    1
 -2       808       914       913      3585      3586      3581
 -1      1698    8    0    1
 -2       809       810       915      3258      3587      3588
 -1      1699    8    0    1
 -2       809       915       914      3588      3589      3584
 -1      1700    8    0    1
 -2       810       811       916      3261      3590      3591
 -1      1701    8    0    1
 -2       810       916       915      3591      3592      3587
 -1      1702    8    0    1
 -2       811       812       917      3264      3593      3594
 -1      1703    8    0    1
 -2       811       917       916      3594      3595      3590
 -1      1704    8    0    1
 -2       812       813       918      3267      3596      3597
 -1      1705    8    0    1
 -2       812       918       917      3597      3598      3593
 -1      1706    8    0    1
 -2       813       814       919      3270      3599      3600
 -1      1707    8    0    1
 -2       813       919       918      3600      3601      3596
 -1      1708    8    0    1
 -2       814       815       920      3273      3602      3603
 -1      1709    8    0    1
 -2       814       920       919      3603      3604      3599
 -1      1710    8    0    1
 -2       815       816       921      3276      3605      3606
 -1      1711    8    0    1
 -2       815       921       920      3606      3607      3602
 -1      1712    8    0    1
 -2       816       817       922      3279      3608      3609
 -1      1713    8    0    1
 -2       816       922       921      3609      3610      3605
 -1      1714    8    0    1
 -2       817       818       923      3282      3611      3612
 -1      1715    8    0    1
 -2       817       923       922      3612      3613      3608
 -1      1716    8    0    1
 -2       844       820       829      3399      3614      3405
 -1      1717    8    0    1
 -2       756       697       760      3286      3289      3450
 -1      1718    8    0    1
 -2       823       824       924      3303      3615      3616
 -1      1719    8    0    1
 -2       824       825       925      3306      3617      3618
 -1      1720    8    0    1
 -2       824       925       924      3618      3619      3615
 -1      1721    8    0    1
 -2       834       835       926      3333      3620      3621
 -1      1722    8    0    1
 -2       521       719       659      3322      3622      2794
 -1      1723    8    0    1
 -2       790       743       871      3461      3457      3623
 -1      1724    8    0    1
 -2       789       848       927      3386      3624      3625
 -1      1725    8    0    1
 -2       848       788       927      3545      3626      3624
 -1      1726    8    0    1
 -2       836       832       928      3423      3627      3628
 -1      1727    8    0    1
 -2       759       839       791      3345      3629      3202
 -1      1728    8    0    1
 -2       660       659       737      2798      3630      3460
 -1      1729    8    0    1
 -2       830       828       929      3319      3631      3632
 -1      1730    8    0    1
 -2       754       744       930      3091      3633      3634
 -1      1731    8    0    1
 -2       754       930       870      3634      3635      3452
 -1      1732    8    0    1
 -2       831       842       931      3353      3636      3637
 -1      1733    8    0    1
 -2       821       822       875      3297      3638      3639
 -1      1734    8    0    1
 -2       869       752       932      3448      3640      3641
 -1      1735    8    0    1
 -2       752       866       932      3437      3642      3640
 -1      1736    8    0    1
 -2       819       855       843      3398      3555      3643
 -1      1737    8    0    1
 -2       746       753       933      3085      3644      3645
 -1      1738    8    0    1
 -2       826       746       933      3310      3645      3646
 -1      1739    8    0    1
 -2       753       864       933      3432      3647      3644
 -1      1740    8    0    1
 -2       799       800       934      3228      3648      3649
 -1      1741    8    0    1
 -2       904       799       934      3556      3649      3650
 -1      1742    8    0    1
 -2       800       906       934      3562      3651      3648
 -1      1743    8    0    1
 -2       840       790       935      3387      3652      3653
 -1      1744    8    0    1
 -2       872       840       935      3462      3653      3654
 -1      1745    8    0    1
 -2       790       871       935      3623      3655      3652
 -1      1746    8    0    1
 -2       828       834       936      3330      3656      3657
 -1      1747    8    0    1
 -2       929       828       936      3631      3657      3658
 -1      1748    8    0    1
 -2       834       926       936      3621      3659      3656
 -1      1749    8    0    1
 -2       791       839       874      3629      3468      3548
 -1      1750    8    0    1
 -2       819       843       827      3643      3356      3660
 -1      1751    8    0    1
 -2       762       761       937      3115      3661      3662
 -1      1752    8    0    1
 -2       762       937       876      3662      3663      3471
 -1      1753    8    0    1
 -2       819       827       818      3660      3664      3285
 -1      1754    8    0    1
 -2       851       757       938      3379      3665      3666
 -1      1755    8    0    1
 -2       850       847       939      3376      3667      3668
 -1      1756    8    0    1
 -2       874       836       940      3467      3669      3670
 -1      1757    8    0    1
 -2       902       874       940      3552      3670      3671
 -1      1758    8    0    1
 -2       836       928       940      3628      3672      3669
 -1      1759    8    0    1
 -2       761       872       937      3463      3673      3661
 -1      1760    8    0    1
 -2       787       900       927      3543      3674      3675
 -1      1761    8    0    1
 -2       788       787       927      3193      3675      3626
 -1      1762    8    0    1
 -2       744       850       930      3375      3676      3633
 -1      1763    8    0    1
 -2       853       721       854      3388      3393      3677
 -1      1764    8    0    1
 -2       901       838       941      3546      3678      3679
 -1      1765    8    0    1
 -2       838       853       941      3390      3680      3678
 -1      1766    8    0    1
 -2       796       903       942      3554      3681      3682
 -1      1767    8    0    1
 -2       796       942       854      3682      3683      3391
 -1      1768    8    0    1
 -2       903       795       943      3553      3684      3685
 -1      1769    8    0    1
 -2       795       837       943      3338      3686      3684
 -1      1770    8    0    1
 -2       794       793       852      3212      3687      3384
 -1      1771    8    0    1
 -2       797       905       944      3559      3688      3689
 -1      1772    8    0    1
 -2       797       944       837      3689      3690      3339
 -1      1773    8    0    1
 -2       829       820       945      3614      3691      3692
 -1      1774    8    0    1
 -2       820       821       945      3294      3693      3691
 -1      1775    8    0    1
 -2       825       826       933      3309      3646      3694
 -1      1776    8    0    1
 -2       858       831       931      3408      3637      3695
 -1      1777    8    0    1
 -2       659       719       737      3622      3327      3630
 -1      1778    8    0    1
 -2       860       750       946      3418      3696      3697
 -1      1779    8    0    1
 -2       750       865       946      3434      3698      3696
 -1      1780    8    0    1
 -2       832       858       928      3410      3699      3627
 -1      1781    8    0    1
 -2       859       830       947      3415      3700      3701
 -1      1782    8    0    1
 -2       830       929       947      3632      3702      3700
 -1      1783    8    0    1
 -2       875       822       948      3638      3703      3704
 -1      1784    8    0    1
 -2       846       875       948      3470      3704      3705
 -1      1785    8    0    1
 -2       822       823       948      3300      3706      3703
 -1      1786    8    0    1
 -2       861       846       948      3421      3705      3707
 -1      1787    8    0    1
 -2       841       829       945      3411      3692      3708
 -1      1788    8    0    1
 -2       833       901       949      3547      3709      3710
 -1      1789    8    0    1
 -2       862       748       950      3426      3711      3712
 -1      1790    8    0    1
 -2       748       861       950      3420      3713      3711
 -1      1791    8    0    1
 -2       852       793       902      3687      3551      3714
 -1      1792    8    0    1
 -2       864       857       951      3430      3715      3716
 -1      1793    8    0    1
 -2       866       749       952      3438      3717      3718
 -1      1794    8    0    1
 -2       749       863       952      3428      3719      3717
 -1      1795    8    0    1
 -2       870       930       953      3635      3720      3721
 -1      1796    8    0    1
 -2       857       859       954      3414      3722      3723
 -1      1797    8    0    1
 -2       951       857       954      3715      3723      3724
 -1      1798    8    0    1
 -2       859       947       954      3701      3725      3722
 -1      1799    8    0    1
 -2       821       875       945      3639      3726      3693
 -1      1800    8    0    1
 -2       869       932       955      3641      3727      3728
 -1      1801    8    0    1
 -2       757       845       956      3361      3729      3730
 -1      1802    8    0    1
 -2       938       757       956      3665      3730      3731
 -1      1803    8    0    1
 -2       845       868       956      3445      3732      3729
 -1      1804    8    0    1
 -2       823       924       948      3616      3733      3706
 -1      1805    8    0    1
 -2       868       833       949      3446      3710      3734
 -1      1806    8    0    1
 -2       847       867       957      3441      3735      3736
 -1      1807    8    0    1
 -2       847       957       939      3736      3737      3667
 -1      1808    8    0    1
 -2       841       945       875      3708      3726      3469
 -1      1809    8    0    1
 -2       873       869       955      3464      3728      3738
 -1      1810    8    0    1
 -2       871       870       958      3455      3739      3740
 -1      1811    8    0    1
 -2       935       871       958      3655      3740      3741
 -1      1812    8    0    1
 -2       870       953       958      3721      3742      3739
 -1      1813    8    0    1
 -2       818       827       923      3664      3743      3611
 -1      1814    8    0    1
 -2       825       933       925      3694      3744      3617
 -1      1815    8    0    1
 -2       865       873       959      3466      3745      3746
 -1      1816    8    0    1
 -2       865       959       946      3746      3747      3698
 -1      1817    8    0    1
 -2       948       924       861      3733      3748      3707
 -1      1818    8    0    1
 -2       937       872       960      3673      3749      3750
 -1      1819    8    0    1
 -2       878       877       961      3478      3751      3752
 -1      1820    8    0    1
 -2       879       878       962      3481      3753      3754
 -1      1821    8    0    1
 -2       878       961       962      3752      3755      3753
 -1      1822    8    0    1
 -2       880       879       963      3484      3756      3757
 -1      1823    8    0    1
 -2       879       962       963      3754      3758      3756
 -1      1824    8    0    1
 -2       881       880       964      3487      3759      3760
 -1      1825    8    0    1
 -2       880       963       964      3757      3761      3759
 -1      1826    8    0    1
 -2       882       881       965      3490      3762      3763
 -1      1827    8    0    1
 -2       881       964       965      3760      3764      3762
 -1      1828    8    0    1
 -2       883       882       966      3493      3765      3766
 -1      1829    8    0    1
 -2       882       965       966      3763      3767      3765
 -1      1830    8    0    1
 -2       884       883       967      3496      3768      3769
 -1      1831    8    0    1
 -2       883       966       967      3766      3770      3768
 -1      1832    8    0    1
 -2       885       884       968      3499      3771      3772
 -1      1833    8    0    1
 -2       884       967       968      3769      3773      3771
 -1      1834    8    0    1
 -2       886       885       969      3502      3774      3775
 -1      1835    8    0    1
 -2       885       968       969      3772      3776      3774
 -1      1836    8    0    1
 -2       887       886       970      3505      3777      3778
 -1      1837    8    0    1
 -2       886       969       970      3775      3779      3777
 -1      1838    8    0    1
 -2       888       887       971      3508      3780      3781
 -1      1839    8    0    1
 -2       887       970       971      3778      3782      3780
 -1      1840    8    0    1
 -2       889       888       972      3511      3783      3784
 -1      1841    8    0    1
 -2       888       971       972      3781      3785      3783
 -1      1842    8    0    1
 -2       890       889       973      3514      3786      3787
 -1      1843    8    0    1
 -2       889       972       973      3784      3788      3786
 -1      1844    8    0    1
 -2       891       890       974      3517      3789      3790
 -1      1845    8    0    1
 -2       890       973       974      3787      3791      3789
 -1      1846    8    0    1
 -2       892       891       975      3520      3792      3793
 -1      1847    8    0    1
 -2       891       974       975      3790      3794      3792
 -1      1848    8    0    1
 -2       893       892       976      3523      3795      3796
 -1      1849    8    0    1
 -2       892       975       976      3793      3797      3795
 -1      1850    8    0    1
 -2       894       893       977      3526      3798      3799
 -1      1851    8    0    1
 -2       893       976       977      3796      3800      3798
 -1      1852    8    0    1
 -2       895       894       978      3529      3801      3802
 -1      1853    8    0    1
 -2       894       977       978      3799      3803      3801
 -1      1854    8    0    1
 -2       896       895       979      3532      3804      3805
 -1      1855    8    0    1
 -2       895       978       979      3802      3806      3804
 -1      1856    8    0    1
 -2       897       896       980      3535      3807      3808
 -1      1857    8    0    1
 -2       896       979       980      3805      3809      3807
 -1      1858    8    0    1
 -2       898       897       981      3538      3810      3811
 -1      1859    8    0    1
 -2       897       980       981      3808      3812      3810
 -1      1860    8    0    1
 -2       899       898       982      3541      3813      3814
 -1      1861    8    0    1
 -2       898       981       982      3811      3815      3813
 -1      1862    8    0    1
 -2       900       899       983      3544      3816      3817
 -1      1863    8    0    1
 -2       899       982       983      3814      3818      3816
 -1      1864    8    0    1
 -2       858       931       929      3695      3819      3820
 -1      1865    8    0    1
 -2       907       908       984      3568      3821      3822
 -1      1866    8    0    1
 -2       906       907       985      3565      3823      3824
 -1      1867    8    0    1
 -2       907       984       985      3822      3825      3823
 -1      1868    8    0    1
 -2       909       910       986      3574      3826      3827
 -1      1869    8    0    1
 -2       910       911       987      3577      3828      3829
 -1      1870    8    0    1
 -2       910       987       986      3829      3830      3826
 -1      1871    8    0    1
 -2       911       912       988      3580      3831      3832
 -1      1872    8    0    1
 -2       911       988       987      3832      3833      3828
 -1      1873    8    0    1
 -2       912       913       989      3583      3834      3835
 -1      1874    8    0    1
 -2       912       989       988      3835      3836      3831
 -1      1875    8    0    1
 -2       913       914       990      3586      3837      3838
 -1      1876    8    0    1
 -2       913       990       989      3838      3839      3834
 -1      1877    8    0    1
 -2       914       915       991      3589      3840      3841
 -1      1878    8    0    1
 -2       914       991       990      3841      3842      3837
 -1      1879    8    0    1
 -2       915       916       992      3592      3843      3844
 -1      1880    8    0    1
 -2       915       992       991      3844      3845      3840
 -1      1881    8    0    1
 -2       916       917       993      3595      3846      3847
 -1      1882    8    0    1
 -2       916       993       992      3847      3848      3843
 -1      1883    8    0    1
 -2       917       918       994      3598      3849      3850
 -1      1884    8    0    1
 -2       917       994       993      3850      3851      3846
 -1      1885    8    0    1
 -2       918       919       995      3601      3852      3853
 -1      1886    8    0    1
 -2       918       995       994      3853      3854      3849
 -1      1887    8    0    1
 -2       919       920       996      3604      3855      3856
 -1      1888    8    0    1
 -2       919       996       995      3856      3857      3852
 -1      1889    8    0    1
 -2       920       921       997      3607      3858      3859
 -1      1890    8    0    1
 -2       920       997       996      3859      3860      3855
 -1      1891    8    0    1
 -2       921       922       998      3610      3861      3862
 -1      1892    8    0    1
 -2       921       998       997      3862      3863      3858
 -1      1893    8    0    1
 -2       922       923       946      3613      3864      3865
 -1      1894    8    0    1
 -2       925       933       864      3744      3647      3866
 -1      1895    8    0    1
 -2       851       938       999      3666      3867      3868
 -1      1896    8    0    1
 -2       851       999       867      3868      3869      3442
 -1      1897    8    0    1
 -2       856       747       860      3404      3417      3870
 -1      1898    8    0    1
 -2       924       925      1000      3619      3871      3872
 -1      1899    8    0    1
 -2       926       835       902      3620      3873      3874
 -1      1900    8    0    1
 -2       949       901      1001      3709      3875      3876
 -1      1901    8    0    1
 -2       932       866      1002      3642      3877      3878
 -1      1902    8    0    1
 -2       866       952      1002      3718      3879      3877
 -1      1903    8    0    1
 -2       861       924       950      3748      3880      3713
 -1      1904    8    0    1
 -2       930       850      1003      3676      3881      3882
 -1      1905    8    0    1
 -2       953       930      1003      3720      3882      3883
 -1      1906    8    0    1
 -2       850       939      1003      3668      3884      3881
 -1      1907    8    0    1
 -2       863       789       927      3429      3625      3885
 -1      1908    8    0    1
 -2       905       904      1004      3560      3886      3887
 -1      1909    8    0    1
 -2       853       854      1005      3677      3888      3889
 -1      1910    8    0    1
 -2       854       942      1005      3683      3890      3888
 -1      1911    8    0    1
 -2       842       862      1006      3425      3891      3892
 -1      1912    8    0    1
 -2       842      1006       931      3892      3893      3636
 -1      1913    8    0    1
 -2       863       927       900      3885      3674      3894
 -1      1914    8    0    1
 -2       858       929       936      3820      3658      3895
 -1      1915    8    0    1
 -2       929       931       947      3819      3896      3702
 -1      1916    8    0    1
 -2       926       902       940      3874      3671      3897
 -1      1917    8    0    1
 -2      1006       862      1007      3891      3898      3899
 -1      1918    8    0    1
 -2       862       950      1007      3712      3900      3898
 -1      1919    8    0    1
 -2       931      1006       947      3893      3901      3896
 -1      1920    8    0    1
 -2       928       858       936      3699      3895      3902
 -1      1921    8    0    1
 -2       908       909      1008      3571      3903      3904
 -1      1922    8    0    1
 -2       909       986      1008      3827      3905      3903
 -1      1923    8    0    1
 -2       863       900       983      3894      3817      3906
 -1      1924    8    0    1
 -2       955       932      1009      3727      3907      3908
 -1      1925    8    0    1
 -2       932      1002      1009      3878      3909      3907
 -1      1926    8    0    1
 -2       876       937      1010      3663      3910      3911
 -1      1927    8    0    1
 -2       937       960      1010      3750      3912      3910
 -1      1928    8    0    1
 -2       877       876      1011      3475      3913      3914
 -1      1929    8    0    1
 -2       961       877      1011      3751      3914      3915
 -1      1930    8    0    1
 -2       876      1010      1011      3911      3916      3913
 -1      1931    8    0    1
 -2       873       955      1012      3738      3917      3918
 -1      1932    8    0    1
 -2       873      1012       959      3918      3919      3745
 -1      1933    8    0    1
 -2      1006      1007       954      3899      3920      3921
 -1      1934    8    0    1
 -2       936       926       940      3659      3897      3922
 -1      1935    8    0    1
 -2      1012       955      1013      3917      3923      3924
 -1      1936    8    0    1
 -2       955      1009      1013      3908      3925      3923
 -1      1937    8    0    1
 -2       837       944       943      3690      3926      3686
 -1      1938    8    0    1
 -2       908      1008       984      3904      3927      3821
 -1      1939    8    0    1
 -2       941       853      1005      3680      3889      3928
 -1      1940    8    0    1
 -2       942       903      1014      3681      3929      3930
 -1      1941    8    0    1
 -2       864       951       925      3716      3931      3866
 -1      1942    8    0    1
 -2       944       905      1015      3688      3932      3933
 -1      1943    8    0    1
 -2       905      1004      1015      3887      3934      3932
 -1      1944    8    0    1
 -2       903       943      1016      3685      3935      3936
 -1      1945    8    0    1
 -2       903      1016      1014      3936      3937      3929
 -1      1946    8    0    1
 -2      1006       954       947      3921      3725      3901
 -1      1947    8    0    1
 -2       906       985      1017      3824      3938      3939
 -1      1948    8    0    1
 -2       906      1017       934      3939      3940      3651
 -1      1949    8    0    1
 -2       922       946       998      3865      3941      3861
 -1      1950    8    0    1
 -2       902       835       852      3873      3383      3714
 -1      1951    8    0    1
 -2       924      1000       950      3872      3942      3880
 -1      1952    8    0    1
 -2       872       935      1018      3654      3943      3944
 -1      1953    8    0    1
 -2       960       872      1018      3749      3944      3945
 -1      1954    8    0    1
 -2       935       958      1018      3741      3946      3943
 -1      1955    8    0    1
 -2       953      1003      1019      3883      3947      3948
 -1      1956    8    0    1
 -2      1003       939      1020      3884      3949      3950
 -1      1957    8    0    1
 -2      1003      1020      1019      3950      3951      3947
 -1      1958    8    0    1
 -2      1004       904      1021      3886      3952      3953
 -1      1959    8    0    1
 -2       904       934      1021      3650      3954      3952
 -1      1960    8    0    1
 -2       951       954      1007      3724      3920      3955
 -1      1961    8    0    1
 -2       901       941      1022      3679      3956      3957
 -1      1962    8    0    1
 -2       901      1022      1001      3957      3958      3875
 -1      1963    8    0    1
 -2       867       999       957      3869      3959      3735
 -1      1964    8    0    1
 -2       939       957      1023      3737      3960      3961
 -1      1965    8    0    1
 -2       939      1023      1020      3961      3962      3949
 -1      1966    8    0    1
 -2       958       953      1018      3742      3963      3946
 -1      1967    8    0    1
 -2       925       951      1000      3931      3964      3871
 -1      1968    8    0    1
 -2       953      1019      1018      3948      3965      3963
 -1      1969    8    0    1
 -2       943       944      1024      3926      3966      3967
 -1      1970    8    0    1
 -2      1016       943      1024      3935      3967      3968
 -1      1971    8    0    1
 -2       944      1015      1024      3933      3969      3966
 -1      1972    8    0    1
 -2       963       962      1025      3758      3970      3971
 -1      1973    8    0    1
 -2       964       963      1026      3761      3972      3973
 -1      1974    8    0    1
 -2       963      1025      1026      3971      3974      3972
 -1      1975    8    0    1
 -2       965       964      1027      3764      3975      3976
 -1      1976    8    0    1
 -2       964      1026      1027      3973      3977      3975
 -1      1977    8    0    1
 -2       966       965      1028      3767      3978      3979
 -1      1978    8    0    1
 -2       965      1027      1028      3976      3980      3978
 -1      1979    8    0    1
 -2       967       966      1029      3770      3981      3982
 -1      1980    8    0    1
 -2       966      1028      1029      3979      3983      3981
 -1      1981    8    0    1
 -2       968       967      1030      3773      3984      3985
 -1      1982    8    0    1
 -2       967      1029      1030      3982      3986      3984
 -1      1983    8    0    1
 -2       969       968      1031      3776      3987      3988
 -1      1984    8    0    1
 -2       968      1030      1031      3985      3989      3987
 -1      1985    8    0    1
 -2       970       969      1032      3779      3990      3991
 -1      1986    8    0    1
 -2       969      1031      1032      3988      3992      3990
 -1      1987    8    0    1
 -2       971       970      1033      3782      3993      3994
 -1      1988    8    0    1
 -2       970      1032      1033      3991      3995      3993
 -1      1989    8    0    1
 -2       972       971      1034      3785      3996      3997
 -1      1990    8    0    1
 -2       971      1033      1034      3994      3998      3996
 -1      1991    8    0    1
 -2       973       972      1035      3788      3999      4000
 -1      1992    8    0    1
 -2       972      1034      1035      3997      4001      3999
 -1      1993    8    0    1
 -2       974       973      1036      3791      4002      4003
 -1      1994    8    0    1
 -2       973      1035      1036      4000      4004      4002
 -1      1995    8    0    1
 -2       975       974      1037      3794      4005      4006
 -1      1996    8    0    1
 -2       974      1036      1037      4003      4007      4005
 -1      1997    8    0    1
 -2       976       975      1038      3797      4008      4009
 -1      1998    8    0    1
 -2       975      1037      1038      4006      4010      4008
 -1      1999    8    0    1
 -2       977       976      1039      3800      4011      4012
 -1      2000    8    0    1
 -2       976      1038      1039      4009      4013      4011
 -1      2001    8    0    1
 -2       978       977      1040      3803      4014      4015
 -1      2002    8    0    1
 -2       977      1039      1040      4012      4016      4014
 -1      2003    8    0    1
 -2       979       978      1041      3806      4017      4018
 -1      2004    8    0    1
 -2       978      1040      1041      4015      4019      4017
 -1      2005    8    0    1
 -2       980       979      1042      3809      4020      4021
 -1      2006    8    0    1
 -2       979      1041      1042      4018      4022      4020
 -1      2007    8    0    1
 -2       981       980      1043      3812      4023      4024
 -1      2008    8    0    1
 -2       980      1042      1043      4021      4025      4023
 -1      2009    8    0    1
 -2       982       981      1044      3815      4026      4027
 -1      2010    8    0    1
 -2       981      1043      1044      4024      4028      4026
 -1      2011    8    0    1
 -2       983       982      1045      3818      4029      4030
 -1      2012    8    0    1
 -2       982      1044      1045      4027      4031      4029
 -1      2013    8    0    1
 -2       984      1008      1046      3927      4032      4033
 -1      2014    8    0    1
 -2       941      1005      1047      3928      4034      4035
 -1      2015    8    0    1
 -2       941      1047      1022      4035      4036      3956
 -1      2016    8    0    1
 -2       987       988      1048      3833      4037      4038
 -1      2017    8    0    1
 -2       986       987      1049      3830      4039      4040
 -1      2018    8    0    1
 -2       987      1048      1049      4038      4041      4039
 -1      2019    8    0    1
 -2       989       990      1050      3839      4042      4043
 -1      2020    8    0    1
 -2       990       991      1051      3842      4044      4045
 -1      2021    8    0    1
 -2       990      1051      1050      4045      4046      4042
 -1      2022    8    0    1
 -2       991       992      1052      3845      4047      4048
 -1      2023    8    0    1
 -2       991      1052      1051      4048      4049      4044
 -1      2024    8    0    1
 -2       992       993      1053      3848      4050      4051
 -1      2025    8    0    1
 -2       992      1053      1052      4051      4052      4047
 -1      2026    8    0    1
 -2       993       994      1054      3851      4053      4054
 -1      2027    8    0    1
 -2       993      1054      1053      4054      4055      4050
 -1      2028    8    0    1
 -2       994       995      1055      3854      4056      4057
 -1      2029    8    0    1
 -2       994      1055      1054      4057      4058      4053
 -1      2030    8    0    1
 -2       995       996      1056      3857      4059      4060
 -1      2031    8    0    1
 -2       995      1056      1055      4060      4061      4056
 -1      2032    8    0    1
 -2       996       997      1057      3860      4062      4063
 -1      2033    8    0    1
 -2       996      1057      1056      4063      4064      4059
 -1      2034    8    0    1
 -2       999       938      1001      3867      4065      4066
 -1      2035    8    0    1
 -2       946       959       998      3747      4067      3941
 -1      2036    8    0    1
 -2       868       949       956      3734      4068      3732
 -1      2037    8    0    1
 -2      1000       951      1007      3964      3955      4069
 -1      2038    8    0    1
 -2      1019      1020      1058      3951      4070      4071
 -1      2039    8    0    1
 -2       988       989      1059      3836      4072      4073
 -1      2040    8    0    1
 -2       988      1059      1048      4073      4074      4037
 -1      2041    8    0    1
 -2      1000      1007       950      4069      3900      3942
 -1      2042    8    0    1
 -2       940       928       936      3672      3902      3922
 -1      2043    8    0    1
 -2      1005       942      1060      3890      4075      4076
 -1      2044    8    0    1
 -2      1047      1005      1060      4034      4076      4077
 -1      2045    8    0    1
 -2       942      1014      1060      3930      4078      4075
 -1      2046    8    0    1
 -2      1008       986      1061      3905      4079      4080
 -1      2047    8    0    1
 -2      1008      1061      1046      4080      4081      4032
 -1      2048    8    0    1
 -2      1009      1002      1045      3909      4082      4083
 -1      2049    8    0    1
 -2      1010       960      1062      3912      4084      4085
 -1      2050    8    0    1
 -2       938       956       949      3731      4068      4086
 -1      2051    8    0    1
 -2       957       999      1063      3959      4087      4088
 -1      2052    8    0    1
 -2      1023       957      1063      3960      4088      4089
 -1      2053    8    0    1
 -2       999      1001      1063      4066      4090      4087
 -1      2054    8    0    1
 -2       985       984      1064      3825      4091      4092
 -1      2055    8    0    1
 -2       984      1046      1064      4033      4093      4091
 -1      2056    8    0    1
 -2       962       961      1065      3755      4094      4095
 -1      2057    8    0    1
 -2       962      1065      1025      4095      4096      3970
 -1      2058    8    0    1
 -2       998       959      1066      4067      4097      4098
 -1      2059    8    0    1
 -2       997       998      1066      3863      4098      4099
 -1      2060    8    0    1
 -2       959      1012      1066      3919      4100      4097
 -1      2061    8    0    1
 -2       938       949      1001      4086      3876      4065
 -1      2062    8    0    1
 -2      1017       985      1067      3938      4101      4102
 -1      2063    8    0    1
 -2       985      1064      1067      4092      4103      4101
 -1      2064    8    0    1
 -2      1004      1021      1068      3953      4104      4105
 -1      2065    8    0    1
 -2      1009      1045      1069      4083      4106      4107
 -1      2066    8    0    1
 -2      1061       986      1049      4079      4040      4108
 -1      2067    8    0    1
 -2      1015      1004      1070      3934      4109      4110
 -1      2068    8    0    1
 -2      1004      1068      1070      4105      4111      4109
 -1      2069    8    0    1
 -2       997      1066      1057      4099      4112      4062
 -1      2070    8    0    1
 -2       863       983       952      3906      4113      3719
 -1      2071    8    0    1
 -2       952       983      1045      4113      4030      4114
 -1      2072    8    0    1
 -2      1009      1069      1013      4107      4115      3925
 -1      2073    8    0    1
 -2       946       923       860      3864      4116      3697
 -1      2074    8    0    1
 -2      1018      1019      1062      3965      4117      4118
 -1      2075    8    0    1
 -2      1059       989      1050      4072      4043      4119
 -1      2076    8    0    1
 -2      1058      1020      1071      4070      4120      4121
 -1      2077    8    0    1
 -2      1020      1023      1071      3962      4122      4120
 -1      2078    8    0    1
 -2       934      1017      1021      3940      4123      3954
 -1      2079    8    0    1
 -2       923       827       856      3743      3403      4124
 -1      2080    8    0    1
 -2      1060      1014      1072      4078      4125      4126
 -1      2081    8    0    1
 -2       856       860       923      3870      4116      4124
 -1      2082    8    0    1
 -2      1010      1062      1073      4085      4127      4128
 -1      2083    8    0    1
 -2      1010      1073      1011      4128      4129      3916
 -1      2084    8    0    1
 -2       961      1011      1074      3915      4130      4131
 -1      2085    8    0    1
 -2      1011      1073      1074      4129      4132      4130
 -1      2086    8    0    1
 -2      1063      1001      1075      4090      4133      4134
 -1      2087    8    0    1
 -2      1001      1022      1075      3958      4135      4133
 -1      2088    8    0    1
 -2       961      1074      1065      4131      4136      4094
 -1      2089    8    0    1
 -2      1019      1058      1062      4071      4137      4117
 -1      2090    8    0    1
 -2      1066      1012      1076      4100      4138      4139
 -1      2091    8    0    1
 -2      1057      1066      1076      4112      4139      4140
 -1      2092    8    0    1
 -2      1012      1013      1076      3924      4141      4138
 -1      2093    8    0    1
 -2      1014      1016      1077      3937      4142      4143
 -1      2094    8    0    1
 -2      1014      1077      1072      4143      4144      4125
 -1      2095    8    0    1
 -2      1047      1060      1078      4077      4145      4146
 -1      2096    8    0    1
 -2      1060      1072      1078      4126      4147      4145
 -1      2097    8    0    1
 -2      1068      1021      1079      4104      4148      4149
 -1      2098    8    0    1
 -2      1021      1017      1079      4123      4150      4148
 -1      2099    8    0    1
 -2      1026      1025      1080      3974      4151      4152
 -1      2100    8    0    1
 -2      1025      1065      1081      4096      4153      4154
 -1      2101    8    0    1
 -2      1025      1081      1080      4154      4155      4151
 -1      2102    8    0    1
 -2      1027      1026      1082      3977      4156      4157
 -1      2103    8    0    1
 -2      1026      1080      1082      4152      4158      4156
 -1      2104    8    0    1
 -2      1028      1027      1083      3980      4159      4160
 -1      2105    8    0    1
 -2      1027      1082      1083      4157      4161      4159
 -1      2106    8    0    1
 -2      1029      1028      1084      3983      4162      4163
 -1      2107    8    0    1
 -2      1028      1083      1084      4160      4164      4162
 -1      2108    8    0    1
 -2      1030      1029      1085      3986      4165      4166
 -1      2109    8    0    1
 -2      1029      1084      1085      4163      4167      4165
 -1      2110    8    0    1
 -2      1031      1030      1086      3989      4168      4169
 -1      2111    8    0    1
 -2      1030      1085      1086      4166      4170      4168
 -1      2112    8    0    1
 -2      1032      1031      1087      3992      4171      4172
 -1      2113    8    0    1
 -2      1031      1086      1087      4169      4173      4171
 -1      2114    8    0    1
 -2      1033      1032      1088      3995      4174      4175
 -1      2115    8    0    1
 -2      1032      1087      1088      4172      4176      4174
 -1      2116    8    0    1
 -2      1034      1033      1089      3998      4177      4178
 -1      2117    8    0    1
 -2      1033      1088      1089      4175      4179      4177
 -1      2118    8    0    1
 -2      1035      1034      1090      4001      4180      4181
 -1      2119    8    0    1
 -2      1034      1089      1090      4178      4182      4180
 -1      2120    8    0    1
 -2      1036      1035      1091      4004      4183      4184
 -1      2121    8    0    1
 -2      1035      1090      1091      4181      4185      4183
 -1      2122    8    0    1
 -2      1037      1036      1092      4007      4186      4187
 -1      2123    8    0    1
 -2      1036      1091      1092      4184      4188      4186
 -1      2124    8    0    1
 -2      1038      1037      1093      4010      4189      4190
 -1      2125    8    0    1
 -2      1037      1092      1093      4187      4191      4189
 -1      2126    8    0    1
 -2      1039      1038      1094      4013      4192      4193
 -1      2127    8    0    1
 -2      1038      1093      1094      4190      4194      4192
 -1      2128    8    0    1
 -2      1040      1039      1095      4016      4195      4196
 -1      2129    8    0    1
 -2      1039      1094      1095      4193      4197      4195
 -1      2130    8    0    1
 -2      1041      1040      1096      4019      4198      4199
 -1      2131    8    0    1
 -2      1040      1095      1096      4196      4200      4198
 -1      2132    8    0    1
 -2      1042      1041      1097      4022      4201      4202
 -1      2133    8    0    1
 -2      1041      1096      1097      4199      4203      4201
 -1      2134    8    0    1
 -2      1043      1042      1098      4025      4204      4205
 -1      2135    8    0    1
 -2      1042      1097      1098      4202      4206      4204
 -1      2136    8    0    1
 -2      1044      1043      1099      4028      4207      4208
 -1      2137    8    0    1
 -2      1043      1098      1099      4205      4209      4207
 -1      2138    8    0    1
 -2      1045      1044      1069      4031      4210      4106
 -1      2139    8    0    1
 -2      1061      1049      1100      4108      4211      4212
 -1      2140    8    0    1
 -2      1022      1047      1101      4036      4213      4214
 -1      2141    8    0    1
 -2      1075      1022      1101      4135      4214      4215
 -1      2142    8    0    1
 -2      1047      1078      1101      4146      4216      4213
 -1      2143    8    0    1
 -2      1051      1052      1102      4049      4217      4218
 -1      2144    8    0    1
 -2      1050      1051      1103      4046      4219      4220
 -1      2145    8    0    1
 -2      1051      1102      1103      4218      4221      4219
 -1      2146    8    0    1
 -2      1053      1054      1104      4055      4222      4223
 -1      2147    8    0    1
 -2      1054      1055      1105      4058      4224      4225
 -1      2148    8    0    1
 -2      1054      1105      1104      4225      4226      4222
 -1      2149    8    0    1
 -2      1055      1056      1106      4061      4227      4228
 -1      2150    8    0    1
 -2      1055      1106      1105      4228      4229      4224
 -1      2151    8    0    1
 -2      1056      1057      1107      4064      4230      4231
 -1      2152    8    0    1
 -2      1056      1107      1106      4231      4232      4227
 -1      2153    8    0    1
 -2      1059      1050      1108      4119      4233      4234
 -1      2154    8    0    1
 -2      1050      1103      1108      4220      4235      4233
 -1      2155    8    0    1
 -2      1023      1063      1109      4089      4236      4237
 -1      2156    8    0    1
 -2      1071      1023      1109      4122      4237      4238
 -1      2157    8    0    1
 -2      1063      1075      1109      4134      4239      4236
 -1      2158    8    0    1
 -2      1048      1059      1110      4074      4240      4241
 -1      2159    8    0    1
 -2      1059      1108      1110      4234      4242      4240
 -1      2160    8    0    1
 -2       960      1018      1062      3945      4118      4084
 -1      2161    8    0    1
 -2      1046      1061      1111      4081      4243      4244
 -1      2162    8    0    1
 -2      1061      1100      1111      4212      4245      4243
 -1      2163    8    0    1
 -2      1064      1046      1112      4093      4246      4247
 -1      2164    8    0    1
 -2      1046      1111      1112      4244      4248      4246
 -1      2165    8    0    1
 -2      1052      1053      1113      4052      4249      4250
 -1      2166    8    0    1
 -2      1053      1104      1113      4223      4251      4249
 -1      2167    8    0    1
 -2      1049      1048      1114      4041      4252      4253
 -1      2168    8    0    1
 -2      1100      1049      1114      4211      4253      4254
 -1      2169    8    0    1
 -2      1048      1110      1114      4241      4255      4252
 -1      2170    8    0    1
 -2      1062      1058      1115      4137      4256      4257
 -1      2171    8    0    1
 -2      1062      1115      1073      4257      4258      4127
 -1      2172    8    0    1
 -2      1002       952      1045      3879      4114      4082
 -1      2173    8    0    1
 -2      1065      1074      1116      4136      4259      4260
 -1      2174    8    0    1
 -2      1065      1116      1081      4260      4261      4153
 -1      2175    8    0    1
 -2      1069      1044      1099      4210      4208      4262
 -1      2176    8    0    1
 -2      1079      1017      1067      4150      4102      4263
 -1      2177    8    0    1
 -2      1115      1058      1071      4256      4121      4264
 -1      2178    8    0    1
 -2      1070      1068      1117      4111      4265      4266
 -1      2179    8    0    1
 -2      1015      1070      1118      4110      4267      4268
 -1      2180    8    0    1
 -2      1015      1118      1024      4268      4269      3969
 -1      2181    8    0    1
 -2      1107      1057      1076      4230      4140      4270
 -1      2182    8    0    1
 -2      1013      1069      1119      4115      4271      4272
 -1      2183    8    0    1
 -2      1067      1064      1120      4103      4273      4274
 -1      2184    8    0    1
 -2      1064      1112      1120      4247      4275      4273
 -1      2185    8    0    1
 -2      1072      1077      1121      4144      4276      4277
 -1      2186    8    0    1
 -2      1016      1024      1122      3968      4278      4279
 -1      2187    8    0    1
 -2      1077      1016      1122      4142      4279      4280
 -1      2188    8    0    1
 -2      1024      1118      1122      4269      4281      4278
 -1      2189    8    0    1
 -2      1052      1113      1102      4250      4282      4217
 -1      2190    8    0    1
 -2      1068      1079      1123      4149      4283      4284
 -1      2191    8    0    1
 -2      1068      1123      1117      4284      4285      4265
 -1      2192    8    0    1
 -2      1074      1073      1124      4132      4286      4287
 -1      2193    8    0    1
 -2      1116      1074      1124      4259      4287      4288
 -1      2194    8    0    1
 -2      1073      1115      1124      4258      4289      4286
 -1      2195    8    0    1
 -2      1072      1121      1125      4277      4290      4291
 -1      2196    8    0    1
 -2      1072      1125      1078      4291      4292      4147
 -1      2197    8    0    1
 -2      1069      1099      1119      4262      4293      4271
 -1      2198    8    0    1
 -2      1080      1081      1126      4155      4294      4295
 -1      2199    8    0    1
 -2      1082      1080      1127      4158      4296      4297
 -1      2200    8    0    1
 -2      1080      1126      1127      4295      4298      4296
 -1      2201    8    0    1
 -2      1083      1082      1128      4161      4299      4300
 -1      2202    8    0    1
 -2      1082      1127      1128      4297      4301      4299
 -1      2203    8    0    1
 -2      1084      1083      1117      4164      4302      4303
 -1      2204    8    0    1
 -2      1085      1084      1123      4167      4304      4305
 -1      2205    8    0    1
 -2      1087      1086      1129      4173      4306      4307
 -1      2206    8    0    1
 -2      1088      1087      1112      4176      4308      4309
 -1      2207    8    0    1
 -2      1089      1088      1111      4179      4310      4311
 -1      2208    8    0    1
 -2      1090      1089      1100      4182      4312      4313
 -1      2209    8    0    1
 -2      1091      1090      1114      4185      4314      4315
 -1      2210    8    0    1
 -2      1092      1091      1110      4188      4316      4317
 -1      2211    8    0    1
 -2      1093      1092      1108      4191      4318      4319
 -1      2212    8    0    1
 -2      1094      1093      1103      4194      4320      4321
 -1      2213    8    0    1
 -2      1095      1094      1102      4197      4322      4323
 -1      2214    8    0    1
 -2      1096      1095      1113      4200      4324      4325
 -1      2215    8    0    1
 -2      1097      1096      1104      4203      4326      4327
 -1      2216    8    0    1
 -2      1098      1097      1105      4206      4328      4329
 -1      2217    8    0    1
 -2      1099      1098      1106      4209      4330      4331
 -1      2218    8    0    1
 -2      1102      1113      1095      4282      4324      4323
 -1      2219    8    0    1
 -2      1103      1102      1094      4221      4322      4321
 -1      2220    8    0    1
 -2      1105      1106      1098      4229      4330      4329
 -1      2221    8    0    1
 -2      1104      1105      1097      4226      4328      4327
 -1      2222    8    0    1
 -2      1108      1103      1093      4235      4320      4319
 -1      2223    8    0    1
 -2      1115      1071      1130      4264      4332      4333
 -1      2224    8    0    1
 -2      1121      1077      1126      4276      4334      4335
 -1      2225    8    0    1
 -2      1104      1096      1113      4326      4325      4251
 -1      2226    8    0    1
 -2      1110      1108      1092      4242      4318      4317
 -1      2227    8    0    1
 -2      1112      1111      1088      4248      4310      4309
 -1      2228    8    0    1
 -2      1070      1117      1128      4266      4336      4337
 -1      2229    8    0    1
 -2      1079      1067      1131      4263      4338      4339
 -1      2230    8    0    1
 -2      1067      1120      1131      4274      4340      4338
 -1      2231    8    0    1
 -2      1110      1091      1114      4316      4315      4255
 -1      2232    8    0    1
 -2      1111      1100      1089      4245      4312      4311
 -1      2233    8    0    1
 -2      1084      1117      1123      4303      4285      4304
 -1      2234    8    0    1
 -2      1117      1083      1128      4302      4300      4336
 -1      2235    8    0    1
 -2      1090      1100      1114      4313      4254      4314
 -1      2236    8    0    1
 -2      1118      1070      1128      4267      4337      4341
 -1      2237    8    0    1
 -2      1086      1085      1132      4170      4342      4343
 -1      2238    8    0    1
 -2      1086      1132      1129      4343      4344      4306
 -1      2239    8    0    1
 -2      1115      1130      1124      4333      4345      4289
 -1      2240    8    0    1
 -2      1101      1078      1130      4216      4346      4347
 -1      2241    8    0    1
 -2      1075      1101      1130      4215      4347      4348
 -1      2242    8    0    1
 -2      1126      1077      1122      4334      4280      4349
 -1      2243    8    0    1
 -2      1121      1126      1133      4335      4350      4351
 -1      2244    8    0    1
 -2      1125      1121      1133      4290      4351      4352
 -1      2245    8    0    1
 -2      1126      1081      1133      4294      4353      4350
 -1      2246    8    0    1
 -2      1013      1119      1076      4272      4354      4141
 -1      2247    8    0    1
 -2      1112      1087      1129      4308      4307      4355
 -1      2248    8    0    1
 -2      1078      1125      1130      4292      4356      4346
 -1      2249    8    0    1
 -2      1123      1079      1131      4283      4339      4357
 -1      2250    8    0    1
 -2      1081      1116      1133      4261      4358      4353
 -1      2251    8    0    1
 -2      1133      1116      1134      4358      4359      4360
 -1      2252    8    0    1
 -2      1125      1133      1134      4352      4360      4361
 -1      2253    8    0    1
 -2      1116      1124      1134      4288      4362      4359
 -1      2254    8    0    1
 -2      1132      1085      1123      4342      4305      4363
 -1      2255    8    0    1
 -2      1118      1128      1127      4341      4301      4364
 -1      2256    8    0    1
 -2      1122      1118      1127      4281      4364      4365
 -1      2257    8    0    1
 -2      1122      1127      1126      4365      4298      4349
 -1      2258    8    0    1
 -2      1129      1132      1131      4344      4366      4367
 -1      2259    8    0    1
 -2      1123      1131      1132      4357      4366      4363
 -1      2260    8    0    1
 -2      1099      1106      1107      4331      4232      4368
 -1      2261    8    0    1
 -2      1071      1109      1130      4238      4369      4332
 -1      2262    8    0    1
 -2      1130      1125      1134      4356      4361      4370
 -1      2263    8    0    1
 -2      1075      1130      1109      4348      4369      4239
 -1      2264    8    0    1
 -2      1120      1112      1129      4275      4355      4371
 -1      2265    8    0    1
 -2      1124      1130      1134      4345      4370      4362
 -1      2266    8    0    1
 -2      1107      1076      1119      4270      4354      4372
 -1      2267    8    0    1
 -2      1120      1129      1131      4371      4367      4340
 -1      2268    8    0    1
 -2      1099      1107      1119      4368      4372      4293
 -3
    1PSTEP                         1           1           1          
  100CL  101 1.000000000        4372                     0    1           1
 -4  DISP        4    1
 -5  D1          1    2    1    0
 -5  D2          1    2    2    0
 -5  D3          1    2    3    0
 -5  ALL         1    2    0    0    1ALL
 -1         1 9.97673E-03-5.03206E-03-7.58042E-14
 -1         2 1.29561E-02-4.75793E-03-9.02988E-14
 -1         3 1.26839E-02-5.80442E-03-1.36072E-13
 -1         4 1.55526E-02-6.64290E-03-1.27737E-13
 -1         5 0.00000E+00 0.00000E+00 0.00000E+00
 -1         6 0.00000E+00 0.00000E+00 0.00000E+00
 -1         7 0.00000E+00 0.00000E+00 0.00000E+00
 -1         8 0.00000E+00 0.00000E+00 0.00000E+00
 -1         9 0.00000E+00 0.00000E+00 0.00000E+00
 -1        10 0.00000E+00 0.00000E+00 0.00000E+00
 -1        11 0.00000E+00 0.00000E+00 0.00000E+00
 -1        12 0.00000E+00 0.00000E+00 0.00000E+00
 -1        13 0.00000E+00 0.00000E+00 0.00000E+00
 -1        14 0.00000E+00 0.00000E+00 0.00000E+00
 -1        15 0.00000E+00 0.00000E+00 0.00000E+00
 -1        16 0.00000E+00 0.00000E+00 0.00000E+00
 -1        17 0.00000E+00 0.00000E+00 0.00000E+00
 -1        18 0.00000E+00 0.00000E+00 0.00000E+00
 -1        19 0.00000E+00 0.00000E+00 0.00000E+00
 -1        20 0.00000E+00 0.00000E+00 0.00000E+00
 -1        21 0.00000E+00 0.00000E+00 0.00000E+00
 -1        22 0.00000E+00 0.00000E+00 0.00000E+00
 -1        23 4.67110E-04-2.93863E-04 7.90248E-17
 -1        24 8.02430E-04-4.63165E-04 5.03544E-17
 -1        25 1.11293E-03-5.95746E-04-9.12763E-17
 -1        26 1.41573E-03-7.06946E-04-3.49882E-16
 -1        27 1.71544E-03-8.06240E-04-7.28980E-16
 -1        28 2.01408E-03-8.98924E-04-1.23033E-15
 -1        29 2.31250E-03-9.88466E-04-1.85477E-15
 -1        30 2.61101E-03-1.07725E-03-2.60688E-15
 -1        31 2.90963E-03-1.16694E-03-3.48493E-15
 -1        32 3.20821E-03-1.25870E-03-4.48496E-15
 -1        33 3.50652E-03-1.35332E-03-5.60662E-15
 -1        34 3.80432E-03-1.45130E-03-6.84389E-15
 -1        35 4.10138E-03-1.55290E-03-8.19693E-15
 -1        36 4.39750E-03-1.65824E-03-9.66393E-15
 -1        37 4.69254E-03-1.76726E-03-1.12443E-14
 -1        38 4.98643E-03-1.87986E-03-1.29392E-14
 -1        39 5.27919E-03-1.99582E-03-1.47478E-14
 -1        40 5.57092E-03-2.11493E-03-1.66727E-14
 -1        41 5.86183E-03-2.23695E-03-1.87072E-14
 -1        42 6.15224E-03-2.36167E-03-2.08509E-14
 -1        43 6.44259E-03-2.48896E-03-2.31108E-14
 -1        44 6.73341E-03-2.61876E-03-2.54868E-14
 -1        45 7.02535E-03-2.75112E-03-2.79797E-14
 -1        46 7.31913E-03-2.88615E-03-3.05915E-14
 -1        47 7.61560E-03-3.02407E-03-3.33113E-14
 -1        48 7.91581E-03-3.16510E-03-3.61301E-14
 -1        49 8.22116E-03-3.30959E-03-3.90493E-14
 -1        50 8.53361E-03-3.45837E-03-4.20634E-14
 -1        51 8.85560E-03-3.61328E-03-4.51635E-14
 -1        52 9.18957E-03-3.77779E-03-4.83515E-14
 -1        53 9.53700E-03-3.95723E-03-5.16193E-14
 -1        54 9.89693E-03-4.15822E-03-5.49636E-14
 -1        55 1.02645E-02-4.38684E-03-5.83806E-14
 -1        56 1.06296E-02-4.64527E-03-6.18831E-14
 -1        57 1.09782E-02-4.92702E-03-6.54787E-14
 -1        58 1.12963E-02-5.21288E-03-6.91469E-14
 -1        59 1.15778E-02-5.47236E-03-7.29100E-14
 -1        60 1.18319E-02-5.67408E-03-7.67644E-14
 -1        61 1.20815E-02-5.80198E-03-8.07029E-14
 -1        62 1.23514E-02-5.86505E-03-8.47291E-14
 -1        63 1.26552E-02-5.89161E-03-8.88363E-14
 -1        64 1.29903E-02-5.91340E-03-9.29959E-14
 -1        65 1.33437E-02-5.95256E-03-9.72184E-14
 -1        66 1.37003E-02-6.01789E-03-1.01504E-13
 -1        67 1.40481E-02-6.10776E-03-1.05851E-13
 -1        68 1.43804E-02-6.21487E-03-1.10231E-13
 -1        69 1.46951E-02-6.32988E-03-1.14639E-13
 -1        70 1.49939E-02-6.44373E-03-1.19057E-13
 -1        71 1.52820E-02-6.54989E-03-1.23495E-13
 -1        72 2.83857E-04 1.81434E-04 2.56820E-17
 -1        73 4.78241E-04 2.69127E-04-1.01261E-16
 -1        74 6.59932E-04 3.13290E-04-3.72400E-16
 -1        75 8.38817E-04 3.27263E-04-7.84322E-16
 -1        76 1.01888E-03 3.17663E-04-1.33569E-15
 -1        77 1.20201E-03 2.88934E-04-2.02362E-15
 -1        78 1.38908E-03 2.44323E-04-2.84580E-15
 -1        79 1.58047E-03 1.86319E-04-3.80005E-15
 -1        80 1.77626E-03 1.16880E-04-4.88377E-15
 -1        81 1.97637E-03 3.75653E-05-6.09440E-15
 -1        82 2.18064E-03-5.03821E-05-7.42994E-15
 -1        83 2.38886E-03-1.45971E-04-8.88743E-15
 -1        84 2.60083E-03-2.48411E-04-1.04668E-14
 -1        85 2.81638E-03-3.57074E-04-1.21685E-14
 -1        86 3.03539E-03-4.71454E-04-1.39919E-14
 -1        87 3.25783E-03-5.91135E-04-1.59363E-14
 -1        88 3.48373E-03-7.15760E-04-1.79994E-14
 -1        89 3.71322E-03-8.44995E-04-2.01779E-14
 -1        90 3.94658E-03-9.78490E-04-2.24685E-14
 -1        91 4.18419E-03-1.11584E-03-2.48694E-14
 -1        92 4.42657E-03-1.25653E-03-2.73795E-14
 -1        93 4.67440E-03-1.39987E-03-2.99960E-14
 -1        94 4.92844E-03-1.54493E-03-3.27165E-14
 -1        95 5.18958E-03-1.69047E-03-3.55304E-14
 -1        96 5.45870E-03-1.83487E-03-3.84424E-14
 -1        97 5.73651E-03-1.97607E-03-4.14606E-14
 -1        98 6.02340E-03-2.11167E-03-4.45760E-14
 -1        99 6.31909E-03-2.23924E-03-4.77704E-14
 -1       100 6.62273E-03-2.35676E-03-5.10426E-14
 -1       101 6.93321E-03-2.46277E-03-5.43934E-14
 -1       102 7.24913E-03-2.55590E-03-5.78156E-14
 -1       103 7.56813E-03-2.63474E-03-6.13163E-14
 -1       104 7.88598E-03-2.69877E-03-6.48910E-14
 -1       105 8.19634E-03-2.75027E-03-6.85272E-14
 -1       106 8.49190E-03-2.79635E-03-7.22504E-14
 -1       107 8.76702E-03-2.84995E-03-7.60695E-14
 -1       108 9.02121E-03-2.92774E-03-7.99751E-14
 -1       109 9.26111E-03-3.04480E-03-8.39669E-14
 -1       110 9.49882E-03-3.20838E-03-8.80316E-14
 -1       111 9.74695E-03-3.41503E-03-9.21660E-14
 -1       112 1.00137E-02-3.65266E-03-9.63750E-14
 -1       113 1.03005E-02-3.90586E-03-1.00648E-13
 -1       114 1.06032E-02-4.16123E-03-1.05003E-13
 -1       115 1.09143E-02-4.41043E-03-1.09425E-13
 -1       116 1.12265E-02-4.65058E-03-1.13874E-13
 -1       117 1.15342E-02-4.88312E-03-1.18330E-13
 -1       118 1.18343E-02-5.11202E-03-1.22806E-13
 -1       119 1.21264E-02-5.34207E-03-1.27297E-13
 -1       120 1.24130E-02-5.57697E-03-1.31801E-13
 -1       121 1.29207E-02-5.88924E-03-1.35637E-13
 -1       122 1.31621E-02-5.97264E-03-1.35213E-13
 -1       123 1.34091E-02-6.05032E-03-1.34777E-13
 -1       124 1.36591E-02-6.11839E-03-1.34329E-13
 -1       125 1.39076E-02-6.17398E-03-1.33855E-13
 -1       126 1.41446E-02-6.21481E-03-1.33368E-13
 -1       127 1.43716E-02-6.24234E-03-1.32867E-13
 -1       128 1.45779E-02-6.25799E-03-1.32361E-13
 -1       129 1.47580E-02-6.26628E-03-1.31867E-13
 -1       130 1.49095E-02-6.27342E-03-1.31377E-13
 -1       131 1.50333E-02-6.28617E-03-1.30888E-13
 -1       132 1.51325E-02-6.30994E-03-1.30431E-13
 -1       133 1.52176E-02-6.34947E-03-1.29942E-13
 -1       134 1.52952E-02-6.40583E-03-1.29401E-13
 -1       135 1.53740E-02-6.47759E-03-1.28845E-13
 -1       136 1.54602E-02-6.55921E-03-1.28287E-13
 -1       137 1.28269E-02-4.56924E-03-9.03042E-14
 -1       138 1.25999E-02-4.36993E-03-8.99056E-14
 -1       139 1.22921E-02-4.17358E-03-8.91134E-14
 -1       140 1.19312E-02-3.99346E-03-8.80042E-14
 -1       141 1.15189E-02-3.82958E-03-8.66047E-14
 -1       142 1.10533E-02-3.68360E-03-8.48955E-14
 -1       143 1.05789E-02-3.57352E-03-8.30581E-14
 -1       144 1.00813E-02-3.49795E-03-8.10067E-14
 -1       145 9.65570E-03-3.46874E-03-7.91516E-14
 -1       146 9.26282E-03-3.47844E-03-7.73161E-14
 -1       147 8.94259E-03-3.52652E-03-7.57018E-14
 -1       148 8.69366E-03-3.61246E-03-7.43046E-14
 -1       149 8.51847E-03-3.74514E-03-7.31011E-14
 -1       150 8.45895E-03-3.89412E-03-7.23711E-14
 -1       151 8.49808E-03-4.07389E-03-7.19943E-14
 -1       152 8.65117E-03-4.28012E-03-7.20524E-14
 -1       153 8.87953E-03-4.47599E-03-7.24933E-14
 -1       154 9.18168E-03-4.66976E-03-7.32710E-14
 -1       155 9.54790E-03-4.85657E-03-7.43715E-14
 -1       156 1.04265E-02-5.17640E-03-7.74266E-14
 -1       157 1.09237E-02-5.29328E-03-7.93363E-14
 -1       158 1.13731E-02-5.35905E-03-8.11667E-14
 -1       159 1.18049E-02-5.38285E-03-8.30440E-14
 -1       160 1.21941E-02-5.36316E-03-8.48778E-14
 -1       161 1.25087E-02-5.30573E-03-8.65092E-14
 -1       162 1.27556E-02-5.21199E-03-8.79351E-14
 -1       163 1.29210E-02-5.08437E-03-8.90984E-14
 -1       164 1.29871E-02-4.93668E-03-8.98743E-14
 -1       165 2.64853E-04-1.39943E-04 3.59820E-18
 -1       166 2.41465E-04-1.05850E-04-2.04237E-17
 -1       167 2.28892E-04-8.25525E-05-3.54941E-17
 -1       168 2.19874E-04-6.43140E-05-4.53434E-17
 -1       169 2.12635E-04-4.91701E-05-5.15640E-17
 -1       170 2.06178E-04-3.55070E-05-5.60363E-17
 -1       171 2.00262E-04-2.29428E-05-5.91974E-17
 -1       172 1.94691E-04-1.10253E-05-6.17216E-17
 -1       173 1.89354E-04 5.97850E-07-6.35173E-17
 -1       174 1.84208E-04 1.22400E-05-6.46015E-17
 -1       175 1.79355E-04 2.40209E-05-6.50081E-17
 -1       176 1.74759E-04 3.67503E-05-6.36969E-17
 -1       177 1.70869E-04 5.08561E-05-5.98988E-17
 -1       178 1.68749E-04 6.75592E-05-5.12523E-17
 -1       179 1.71998E-04 9.01839E-05-3.34442E-17
 -1       180 2.07901E-04 1.30011E-04-1.60055E-17
 -1       181 5.24531E-04-3.00473E-04 1.38913E-18
 -1       182 8.57963E-04-4.51434E-04-1.19381E-16
 -1       183 1.17460E-03-5.73588E-04-3.49686E-16
 -1       184 1.48267E-03-6.79146E-04-6.95919E-16
 -1       185 1.78590E-03-7.75196E-04-1.16086E-15
 -1       186 2.08638E-03-8.66246E-04-1.74702E-15
 -1       187 2.38519E-03-9.55311E-04-2.45658E-15
 -1       188 2.68293E-03-1.04447E-03-3.28928E-15
 -1       189 2.97982E-03-1.13518E-03-4.24425E-15
 -1       190 3.27595E-03-1.22843E-03-5.31906E-15
 -1       191 3.57128E-03-1.32486E-03-6.51112E-15
 -1       192 3.86573E-03-1.42485E-03-7.81866E-15
 -1       193 4.15922E-03-1.52857E-03-9.24056E-15
 -1       194 4.45168E-03-1.63604E-03-1.07763E-14
 -1       195 4.74307E-03-1.74717E-03-1.24286E-14
 -1       196 5.03341E-03-1.86176E-03-1.41947E-14
 -1       197 5.32278E-03-1.97958E-03-1.60730E-14
 -1       198 5.61133E-03-2.10038E-03-1.80631E-14
 -1       199 5.89929E-03-2.22390E-03-2.01649E-14
 -1       200 6.18699E-03-2.34994E-03-2.23781E-14
 -1       201 6.47485E-03-2.47838E-03-2.47068E-14
 -1       202 6.76337E-03-2.60918E-03-2.71523E-14
 -1       203 7.05316E-03-2.74241E-03-2.97115E-14
 -1       204 7.34491E-03-2.87821E-03-3.23842E-14
 -1       205 7.63943E-03-3.01677E-03-3.51612E-14
 -1       206 7.93771E-03-3.15827E-03-3.80381E-14
 -1       207 8.24096E-03-3.30313E-03-4.10118E-14
 -1       208 8.55072E-03-3.45248E-03-4.40749E-14
 -1       209 8.86866E-03-3.60887E-03-4.72248E-14
 -1       210 9.19611E-03-3.77692E-03-5.04626E-14
 -1       211 9.53345E-03-3.96320E-03-5.37748E-14
 -1       212 9.87931E-03-4.17518E-03-5.71625E-14
 -1       213 1.02299E-02-4.41862E-03-6.06263E-14
 -1       214 1.05786E-02-4.69308E-03-6.41752E-14
 -1       215 1.09173E-02-4.98635E-03-6.78038E-14
 -1       216 1.12392E-02-5.27138E-03-7.15221E-14
 -1       217 1.15438E-02-5.51176E-03-7.53271E-14
 -1       218 1.18392E-02-5.67817E-03-7.92214E-14
 -1       219 1.21390E-02-5.76614E-03-8.32032E-14
 -1       220 1.24534E-02-5.79912E-03-8.72727E-14
 -1       221 1.27841E-02-5.81317E-03-9.14167E-14
 -1       222 1.31255E-02-5.83846E-03-9.56195E-14
 -1       223 1.34691E-02-5.89046E-03-9.98779E-14
 -1       224 1.38077E-02-5.97121E-03-1.04197E-13
 -1       225 1.41363E-02-6.07455E-03-1.08552E-13
 -1       226 1.44531E-02-6.19086E-03-1.12938E-13
 -1       227 1.47580E-02-6.31002E-03-1.17344E-13
 -1       228 1.50529E-02-6.42324E-03-1.21771E-13
 -1       229 4.21966E-04 2.20912E-04-1.55241E-16
 -1       230 6.23960E-04 2.69493E-04-4.29120E-16
 -1       231 8.19833E-04 2.86222E-04-8.38573E-16
 -1       232 1.01404E-03 2.78330E-04-1.38284E-15
 -1       233 1.20903E-03 2.50643E-04-2.06104E-15
 -1       234 1.40616E-03 2.06640E-04-2.87109E-15
 -1       235 1.60615E-03 1.48960E-04-3.81178E-15
 -1       236 1.80936E-03 7.96594E-05-4.88064E-15
 -1       237 2.01595E-03 3.61638E-07-6.07438E-15
 -1       238 2.22590E-03-8.76465E-05-7.39166E-15
 -1       239 2.43918E-03-1.83346E-04-8.83117E-15
 -1       240 2.65569E-03-2.85932E-04-1.03923E-14
 -1       241 2.87535E-03-3.94768E-04-1.20740E-14
 -1       242 3.09811E-03-5.09350E-04-1.38752E-14
 -1       243 3.32395E-03-6.29269E-04-1.57956E-14
 -1       244 3.55295E-03-7.54182E-04-1.78352E-14
 -1       245 3.78522E-03-8.83774E-04-1.99904E-14
 -1       246 4.02099E-03-1.01772E-03-2.22564E-14
 -1       247 4.26057E-03-1.15566E-03-2.46329E-14
 -1       248 4.50437E-03-1.29710E-03-2.71195E-14
 -1       249 4.75292E-03-1.44140E-03-2.97117E-14
 -1       250 5.00680E-03-1.58769E-03-3.24094E-14
 -1       251 5.26668E-03-1.73477E-03-3.52024E-14
 -1       252 5.53321E-03-1.88103E-03-3.80952E-14
 -1       253 5.80697E-03-2.02444E-03-4.10895E-14
 -1       254 6.08828E-03-2.16251E-03-4.41791E-14
 -1       255 6.37710E-03-2.29265E-03-4.73544E-14
 -1       256 6.67287E-03-2.41270E-03-5.06079E-14
 -1       257 6.97474E-03-2.52115E-03-5.39417E-14
 -1       258 7.28167E-03-2.61657E-03-5.73491E-14
 -1       259 7.59197E-03-2.69727E-03-6.08308E-14
 -1       260 7.90287E-03-2.76218E-03-6.43898E-14
 -1       261 8.21038E-03-2.81282E-03-6.80187E-14
 -1       262 8.50992E-03-2.85575E-03-7.17310E-14
 -1       263 8.79779E-03-2.90392E-03-7.55283E-14
 -1       264 9.07324E-03-2.97513E-03-7.94124E-14
 -1       265 9.33987E-03-3.08633E-03-8.33831E-14
 -1       266 9.60477E-03-3.24640E-03-8.74310E-14
 -1       267 9.87561E-03-3.45244E-03-9.15509E-14
 -1       268 1.01575E-02-3.69175E-03-9.57454E-14
 -1       269 1.04516E-02-3.94764E-03-1.00007E-13
 -1       270 1.07552E-02-4.20550E-03-1.04342E-13
 -1       271 1.10639E-02-4.45623E-03-1.08733E-13
 -1       272 1.13728E-02-4.69670E-03-1.13160E-13
 -1       273 1.16782E-02-4.92846E-03-1.17605E-13
 -1       274 1.19782E-02-5.15582E-03-1.22074E-13
 -1       275 1.22721E-02-5.38407E-03-1.26562E-13
 -1       276 1.25610E-02-5.61755E-03-1.31062E-13
 -1       277 1.27934E-02-5.72204E-03-1.31526E-13
 -1       278 1.30393E-02-5.80118E-03-1.31094E-13
 -1       279 1.32905E-02-5.87433E-03-1.30653E-13
 -1       280 1.35432E-02-5.93954E-03-1.30204E-13
 -1       281 1.37879E-02-5.99447E-03-1.29739E-13
 -1       282 1.40262E-02-6.04048E-03-1.29256E-13
 -1       283 1.42464E-02-6.07734E-03-1.28772E-13
 -1       284 1.44419E-02-6.10741E-03-1.28286E-13
 -1       285 1.46081E-02-6.13444E-03-1.27801E-13
 -1       286 1.47441E-02-6.16294E-03-1.27311E-13
 -1       287 1.48513E-02-6.19668E-03-1.26830E-13
 -1       288 1.49398E-02-6.24016E-03-1.26325E-13
 -1       289 1.50161E-02-6.29470E-03-1.25798E-13
 -1       290 1.50897E-02-6.36036E-03-1.25255E-13
 -1       291 1.50688E-02-6.38960E-03-1.23516E-13
 -1       292 1.29203E-02-4.76926E-03-9.20544E-14
 -1       293 1.26872E-02-4.64842E-03-9.19353E-14
 -1       294 1.23401E-02-4.47515E-03-9.12042E-14
 -1       295 1.19411E-02-4.25282E-03-8.99509E-14
 -1       296 1.15157E-02-4.01923E-03-8.84553E-14
 -1       297 1.10621E-02-3.78801E-03-8.67317E-14
 -1       298 1.06574E-02-3.58391E-03-8.45546E-14
 -1       299 1.02558E-02-3.44838E-03-8.22514E-14
 -1       300 9.89076E-03-3.41296E-03-7.99302E-14
 -1       301 9.54410E-03-3.44395E-03-7.77391E-14
 -1       302 9.20876E-03-3.53127E-03-7.57054E-14
 -1       303 8.89924E-03-3.64023E-03-7.40046E-14
 -1       304 8.63738E-03-3.76252E-03-7.22430E-14
 -1       305 8.46974E-03-3.85944E-03-7.13819E-14
 -1       306 8.43432E-03-3.94921E-03-7.06509E-14
 -1       307 8.55020E-03-4.04217E-03-7.02664E-14
 -1       308 8.80392E-03-4.20365E-03-7.08562E-14
 -1       309 9.14353E-03-4.38279E-03-7.15577E-14
 -1       310 9.54289E-03-4.60306E-03-7.26416E-14
 -1       311 9.97349E-03-4.85128E-03-7.41002E-14
 -1       312 1.03997E-02-5.09150E-03-7.58666E-14
 -1       313 1.08191E-02-5.29218E-03-7.78888E-14
 -1       314 1.11960E-02-5.40992E-03-8.01144E-14
 -1       315 1.15527E-02-5.43975E-03-8.23015E-14
 -1       316 1.19045E-02-5.39328E-03-8.44975E-14
 -1       317 1.22412E-02-5.29693E-03-8.65405E-14
 -1       318 1.25475E-02-5.18065E-03-8.83483E-14
 -1       319 1.28028E-02-5.05975E-03-9.00895E-14
 -1       320 1.29698E-02-4.96343E-03-9.10621E-14
 -1       321 1.30168E-02-4.87350E-03-9.19055E-14
 -1       322 4.81321E-04-1.94490E-04-1.28268E-16
 -1       323 5.15450E-04-2.46787E-04-8.51133E-17
 -1       324 4.40938E-04-1.21046E-04-1.79358E-16
 -1       325 4.26323E-04-9.21953E-05-1.94353E-16
 -1       326 4.13428E-04-6.61855E-05-2.05527E-16
 -1       327 4.01626E-04-4.19435E-05-2.13852E-16
 -1       328 3.90573E-04-1.86783E-05-2.20032E-16
 -1       329 3.80101E-04 4.26798E-06-2.24091E-16
 -1       330 3.70351E-04 2.71297E-05-2.25778E-16
 -1       331 3.61156E-04 5.14068E-05-2.24349E-16
 -1       332 3.53217E-04 7.76948E-05-2.18033E-16
 -1       333 3.47860E-04 1.07579E-04-2.03725E-16
 -1       334 3.48926E-04 1.44146E-04-1.76535E-16
 -1       335 3.80416E-04 1.80001E-04-1.72463E-16
 -1       336 5.90256E-04 2.30924E-04-4.44940E-16
 -1       337 9.43375E-04-4.37960E-04-3.21788E-16
 -1       338 1.25455E-03-5.50058E-04-6.38043E-16
 -1       339 1.56041E-03-6.50273E-04-1.06968E-15
 -1       340 1.86242E-03-7.43592E-04-1.61870E-15
 -1       341 2.16169E-03-8.33551E-04-2.28837E-15
 -1       342 2.45895E-03-9.22644E-04-3.07905E-15
 -1       343 2.75466E-03-1.01263E-03-3.98969E-15
 -1       344 3.04908E-03-1.10471E-03-5.01991E-15
 -1       345 3.34235E-03-1.19973E-03-6.16740E-15
 -1       346 3.63450E-03-1.29816E-03-7.43097E-15
 -1       347 3.92554E-03-1.40030E-03-8.80794E-15
 -1       348 4.21548E-03-1.50621E-03-1.02996E-14
 -1       349 4.50431E-03-1.61585E-03-1.19071E-14
 -1       350 4.79206E-03-1.72906E-03-1.36296E-14
 -1       351 5.07878E-03-1.84561E-03-1.54640E-14
 -1       352 5.36459E-03-1.96523E-03-1.74103E-14
 -1       353 5.64964E-03-2.08765E-03-1.94680E-14
 -1       354 5.93416E-03-2.21260E-03-2.16366E-14
 -1       355 6.21845E-03-2.33991E-03-2.39206E-14
 -1       356 6.50291E-03-2.46945E-03-2.63176E-14
 -1       357 6.78799E-03-2.60123E-03-2.88287E-14
 -1       358 7.07425E-03-2.73536E-03-3.14536E-14
 -1       359 7.36227E-03-2.87204E-03-3.41866E-14
 -1       360 7.65266E-03-3.01143E-03-3.70196E-14
 -1       361 7.94609E-03-3.15373E-03-3.99530E-14
 -1       362 8.24353E-03-3.29934E-03-4.29795E-14
 -1       363 8.54631E-03-3.44968E-03-4.60960E-14
 -1       364 8.85613E-03-3.60805E-03-4.92980E-14
 -1       365 9.17467E-03-3.78015E-03-5.25796E-14
 -1       366 9.50324E-03-3.97357E-03-5.59365E-14
 -1       367 9.84232E-03-4.19630E-03-5.93674E-14
 -1       368 1.01906E-02-4.45365E-03-6.28748E-14
 -1       369 1.05434E-02-4.74278E-03-6.64622E-14
 -1       370 1.08927E-02-5.04553E-03-7.01304E-14
 -1       371 1.12304E-02-5.32543E-03-7.38879E-14
 -1       372 1.15558E-02-5.53861E-03-7.77392E-14
 -1       373 1.18789E-02-5.66024E-03-8.16799E-14
 -1       374 1.22116E-02-5.70462E-03-8.57109E-14
 -1       375 1.25565E-02-5.71299E-03-8.98260E-14
 -1       376 1.29067E-02-5.72538E-03-9.40090E-14
 -1       377 1.32534E-02-5.76448E-03-9.82519E-14
 -1       378 1.35909E-02-5.83576E-03-1.02542E-13
 -1       379 1.39171E-02-5.93420E-03-1.06877E-13
 -1       380 1.42322E-02-6.05037E-03-1.11239E-13
 -1       381 1.45371E-02-6.17383E-03-1.15628E-13
 -1       382 1.48058E-02-6.28583E-03-1.19562E-13
 -1       383 7.96169E-04 2.50349E-04-8.48293E-16
 -1       384 1.00008E-03 2.44611E-04-1.38309E-15
 -1       385 1.20387E-03 2.18538E-04-2.04915E-15
 -1       386 1.40881E-03 1.75723E-04-2.84518E-15
 -1       387 1.61570E-03 1.18915E-04-3.77049E-15
 -1       388 1.82501E-03 5.02566E-05-4.82246E-15
 -1       389 2.03698E-03-2.85640E-05-5.99842E-15
 -1       390 2.25172E-03-1.16214E-04-7.29676E-15
 -1       391 2.46927E-03-2.11641E-04-8.71649E-15
 -1       392 2.68960E-03-3.14018E-04-1.02574E-14
 -1       393 2.91269E-03-4.22695E-04-1.19189E-14
 -1       394 3.13852E-03-5.37161E-04-1.36980E-14
 -1       395 3.36710E-03-6.57006E-04-1.55962E-14
 -1       396 3.59850E-03-7.81893E-04-1.76115E-14
 -1       397 3.83282E-03-9.11518E-04-1.97429E-14
 -1       398 4.07024E-03-1.04558E-03-2.19856E-14
 -1       399 4.31100E-03-1.18373E-03-2.43388E-14
 -1       400 4.55544E-03-1.32552E-03-2.68026E-14
 -1       401 4.80397E-03-1.47035E-03-2.93728E-14
 -1       402 5.05706E-03-1.61740E-03-3.20457E-14
 -1       403 5.31524E-03-1.76552E-03-3.48182E-14
 -1       404 5.57907E-03-1.91318E-03-3.76901E-14
 -1       405 5.84909E-03-2.05839E-03-4.06619E-14
 -1       406 6.12577E-03-2.19868E-03-4.37283E-14
 -1       407 6.40926E-03-2.33127E-03-4.68835E-14
 -1       408 6.69915E-03-2.45375E-03-5.01184E-14
 -1       409 6.99481E-03-2.56467E-03-5.34354E-14
 -1       410 7.29572E-03-2.66281E-03-5.68267E-14
 -1       411 7.60117E-03-2.74634E-03-6.02930E-14
 -1       412 7.90961E-03-2.81360E-03-6.38360E-14
 -1       413 8.21835E-03-2.86518E-03-6.74532E-14
 -1       414 8.52374E-03-2.90650E-03-7.11499E-14
 -1       415 8.82204E-03-2.94984E-03-7.49308E-14
 -1       416 9.11132E-03-3.01384E-03-7.87956E-14
 -1       417 9.39350E-03-3.11773E-03-8.27478E-14
 -1       418 9.67405E-03-3.27271E-03-8.67784E-14
 -1       419 9.95924E-03-3.47688E-03-9.08814E-14
 -1       420 1.02531E-02-3.71695E-03-9.50608E-14
 -1       421 1.05560E-02-3.97484E-03-9.93115E-14
 -1       422 1.08651E-02-4.23468E-03-1.03627E-13
 -1       423 1.11764E-02-4.48663E-03-1.08000E-13
 -1       424 1.14863E-02-4.72733E-03-1.12407E-13
 -1       425 1.17921E-02-4.95836E-03-1.16843E-13
 -1       426 1.20924E-02-5.18420E-03-1.21302E-13
 -1       427 1.23868E-02-5.41042E-03-1.25785E-13
 -1       428 1.25910E-02-5.56473E-03-1.28653E-13
 -1       429 1.31725E-02-5.71310E-03-1.26543E-13
 -1       430 1.29176E-02-5.63922E-03-1.26981E-13
 -1       431 1.27521E-02-5.60290E-03-1.27819E-13
 -1       432 1.34228E-02-5.77949E-03-1.26099E-13
 -1       433 1.36709E-02-5.83954E-03-1.25632E-13
 -1       434 1.39046E-02-5.89165E-03-1.25159E-13
 -1       435 1.41161E-02-5.93672E-03-1.24684E-13
 -1       436 1.42988E-02-5.97714E-03-1.24211E-13
 -1       437 1.44493E-02-6.01648E-03-1.23727E-13
 -1       438 1.45671E-02-6.05796E-03-1.23248E-13
 -1       439 1.46614E-02-6.10631E-03-1.22738E-13
 -1       440 1.47384E-02-6.16295E-03-1.22214E-13
 -1       441 1.48080E-02-6.22853E-03-1.21676E-13
 -1       442 1.24744E-02-4.71634E-03-9.39078E-14
 -1       443 1.30017E-02-4.89293E-03-9.39613E-14
 -1       444 1.28235E-02-4.83387E-03-9.42174E-14
 -1       445 1.20265E-02-4.50436E-03-9.26322E-14
 -1       446 1.16602E-02-4.28455E-03-9.11082E-14
 -1       447 4.58414E-04-1.54213E-04-1.58138E-16
 -1       448 1.07256E-02-3.68202E-03-8.63593E-14
 -1       449 1.03666E-02-3.48774E-03-8.39233E-14
 -1       450 9.96935E-03-3.36951E-03-8.08937E-14
 -1       451 9.71878E-03-3.37225E-03-7.86862E-14
 -1       452 9.37894E-03-3.46480E-03-7.60236E-14
 -1       453 9.05427E-03-3.59021E-03-7.38463E-14
 -1       454 8.78323E-03-3.69665E-03-7.19515E-14
 -1       455 8.50874E-03-3.81107E-03-7.02523E-14
 -1       456 8.41345E-03-3.86867E-03-6.94463E-14
 -1       457 8.44329E-03-3.89884E-03-6.84258E-14
 -1       458 8.69896E-03-4.01756E-03-6.89622E-14
 -1       459 8.98011E-03-4.14872E-03-6.96507E-14
 -1       460 9.44548E-03-4.35061E-03-7.04032E-14
 -1       461 9.89389E-03-4.62622E-03-7.19781E-14
 -1       462 1.03160E-02-4.92975E-03-7.40461E-14
 -1       463 1.07135E-02-5.19042E-03-7.61576E-14
 -1       464 1.11065E-02-5.39672E-03-7.87237E-14
 -1       465 1.14128E-02-5.47363E-03-8.12404E-14
 -1       466 1.17426E-02-5.46395E-03-8.39141E-14
 -1       467 1.20565E-02-5.36021E-03-8.62560E-14
 -1       468 1.23789E-02-5.23236E-03-8.85069E-14
 -1       469 1.26476E-02-5.11970E-03-9.02557E-14
 -1       470 1.29298E-02-5.01173E-03-9.25713E-14
 -1       471 1.30309E-02-4.95603E-03-9.34261E-14
 -1       472 1.11883E-02-3.97140E-03-8.88070E-14
 -1       473 8.59917E-03-3.72967E-03-6.99566E-14
 -1       474 6.91473E-04 1.94842E-04-6.91226E-16
 -1       475 6.40127E-04-1.28920E-04-4.32590E-16
 -1       476 6.61492E-04-1.68827E-04-4.07802E-16
 -1       477 6.03645E-04-5.74297E-05-4.64909E-16
 -1       478 5.87389E-04-2.36531E-05-4.74440E-16
 -1       479 5.72414E-04 9.44051E-06-4.79726E-16
 -1       480 5.58294E-04 4.38756E-05-4.80173E-16
 -1       481 5.45758E-04 8.01292E-05-4.73868E-16
 -1       482 5.35950E-04 1.19558E-04-4.57374E-16
 -1       483 9.05601E-04 1.98791E-04-1.17033E-15
 -1       484 1.04102E-03-4.24529E-04-5.58567E-16
 -1       485 1.13147E-02-4.17127E-03-9.13832E-14
 -1       486 1.34404E-03-5.26816E-04-9.58089E-16
 -1       487 1.64477E-03-6.21781E-04-1.47181E-15
 -1       488 1.94311E-03-7.12537E-04-2.10339E-15
 -1       489 2.23932E-03-8.01645E-04-2.85386E-15
 -1       490 2.53367E-03-8.91031E-04-3.72267E-15
 -1       491 2.82643E-03-9.82087E-04-4.71015E-15
 -1       492 3.11775E-03-1.07578E-03-5.81271E-15
 -1       493 3.40773E-03-1.17274E-03-7.03223E-15
 -1       494 3.69643E-03-1.27334E-03-8.36700E-15
 -1       495 3.98391E-03-1.37772E-03-9.81435E-15
 -1       496 4.27017E-03-1.48590E-03-1.13757E-14
 -1       497 4.55526E-03-1.59776E-03-1.30525E-14
 -1       498 4.83921E-03-1.71308E-03-1.48438E-14
 -1       499 5.12210E-03-1.83160E-03-1.67468E-14
 -1       500 5.40402E-03-1.95304E-03-1.87615E-14
 -1       501 5.68510E-03-2.07709E-03-2.08881E-14
 -1       502 5.96554E-03-2.20352E-03-2.31267E-14
 -1       503 6.24560E-03-2.33213E-03-2.54796E-14
 -1       504 6.52562E-03-2.46285E-03-2.79435E-14
 -1       505 6.80600E-03-2.59574E-03-3.05202E-14
 -1       506 7.08719E-03-2.73101E-03-3.32096E-14
 -1       507 7.36959E-03-2.86897E-03-3.60025E-14
 -1       508 7.65348E-03-3.00983E-03-3.88916E-14
 -1       509 7.93917E-03-3.15353E-03-4.18779E-14
 -1       510 8.22754E-03-3.30011E-03-4.49587E-14
 -1       511 8.52035E-03-3.45103E-03-4.81284E-14
 -1       512 8.82011E-03-3.61035E-03-5.13771E-14
 -1       513 9.12972E-03-3.78474E-03-5.47021E-14
 -1       514 9.45257E-03-3.98272E-03-5.81026E-14
 -1       515 9.79205E-03-4.21346E-03-6.15746E-14
 -1       516 1.01494E-02-4.48383E-03-6.51200E-14
 -1       517 1.05194E-02-4.79087E-03-6.87437E-14
 -1       518 1.08894E-02-5.10865E-03-7.24496E-14
 -1       519 1.12473E-02-5.38218E-03-7.62492E-14
 -1       520 1.15938E-02-5.55405E-03-8.01501E-14
 -1       521 1.19471E-02-5.61428E-03-8.41450E-14
 -1       522 1.23141E-02-5.61169E-03-8.82248E-14
 -1       523 1.26852E-02-5.60635E-03-9.23797E-14
 -1       524 1.30463E-02-5.63200E-03-9.66029E-14
 -1       525 1.33900E-02-5.69568E-03-1.00876E-13
 -1       526 1.37164E-02-5.79113E-03-1.05191E-13
 -1       527 1.40288E-02-5.90807E-03-1.09537E-13
 -1       528 1.43308E-02-6.03588E-03-1.13908E-13
 -1       529 1.33448E-03 1.45285E-04-2.51097E-15
 -1       530 1.55022E-03 9.43207E-05-3.37146E-15
 -1       531 1.76744E-03 3.05599E-05-4.35801E-15
 -1       532 1.98647E-03-4.41124E-05-5.46736E-15
 -1       533 2.20747E-03-1.28201E-04-6.69821E-15
 -1       534 2.43056E-03-2.20523E-04-8.04995E-15
 -1       535 2.65580E-03-3.20149E-04-9.52172E-15
 -1       536 2.88320E-03-4.26351E-04-1.11131E-14
 -1       537 3.11278E-03-5.38560E-04-1.28234E-14
 -1       538 3.34457E-03-6.56328E-04-1.46513E-14
 -1       539 3.57859E-03-7.79297E-04-1.65952E-14
 -1       540 3.81493E-03-9.07163E-04-1.86535E-14
 -1       541 4.05367E-03-1.03964E-03-2.08256E-14
 -1       542 4.29496E-03-1.17644E-03-2.31090E-14
 -1       543 4.53900E-03-1.31719E-03-2.55032E-14
 -1       544 4.78604E-03-1.46141E-03-2.80062E-14
 -1       545 5.03640E-03-1.60844E-03-3.06128E-14
 -1       546 5.29047E-03-1.75733E-03-3.33203E-14
 -1       547 5.54866E-03-1.90683E-03-3.61282E-14
 -1       548 5.81149E-03-2.05526E-03-3.90351E-14
 -1       549 6.07962E-03-2.20045E-03-4.20394E-14
 -1       550 6.35381E-03-2.33961E-03-4.51350E-14
 -1       551 6.63431E-03-2.46941E-03-4.83166E-14
 -1       552 6.92039E-03-2.58781E-03-5.15825E-14
 -1       553 7.21190E-03-2.69468E-03-5.49256E-14
 -1       554 7.50973E-03-2.78882E-03-5.83422E-14
 -1       555 7.81438E-03-2.86746E-03-6.18368E-14
 -1       556 8.12515E-03-2.92848E-03-6.54084E-14
 -1       557 8.43980E-03-2.97297E-03-6.90561E-14
 -1       558 8.75423E-03-3.00818E-03-7.27847E-14
 -1       559 9.06338E-03-3.05079E-03-7.65960E-14
 -1       560 9.36500E-03-3.12517E-03-8.04915E-14
 -1       561 9.66255E-03-3.25221E-03-8.44695E-14
 -1       562 9.96261E-03-3.43760E-03-8.85269E-14
 -1       563 1.02705E-02-3.67020E-03-9.26620E-14
 -1       564 1.05870E-02-3.92902E-03-9.68695E-14
 -1       565 1.09084E-02-4.19364E-03-1.01140E-13
 -1       566 1.12296E-02-4.45068E-03-1.05471E-13
 -1       567 1.15466E-02-4.69477E-03-1.09847E-13
 -1       568 1.18573E-02-4.92659E-03-1.14256E-13
 -1       569 1.21609E-02-5.15035E-03-1.18696E-13
 -1       570 1.24577E-02-5.37185E-03-1.23166E-13
 -1       571 1.33059E-02-5.63766E-03-1.22002E-13
 -1       572 1.35531E-02-5.70294E-03-1.21541E-13
 -1       573 1.27952E-02-5.48831E-03-1.22878E-13
 -1       574 1.30515E-02-5.56574E-03-1.22448E-13
 -1       575 1.37820E-02-5.76030E-03-1.21077E-13
 -1       576 1.39836E-02-5.81079E-03-1.20611E-13
 -1       577 1.41516E-02-5.85753E-03-1.20140E-13
 -1       578 1.42822E-02-5.90400E-03-1.19662E-13
 -1       579 1.43839E-02-5.95591E-03-1.19158E-13
 -1       580 1.44624E-02-6.01525E-03-1.18642E-13
 -1       581 1.45282E-02-6.08290E-03-1.18113E-13
 -1       582 1.29685E-02-4.96413E-03-9.65475E-14
 -1       583 1.22270E-02-4.72594E-03-9.59204E-14
 -1       584 1.11979E-03 1.81091E-04-1.77689E-15
 -1       585 1.30808E-02-4.99799E-03-9.60015E-14
 -1       586 1.17459E-02-4.46425E-03-9.38709E-14
 -1       587 1.28287E-02-5.10974E-03-9.30460E-14
 -1       588 1.22617E-02-5.32873E-03-8.84589E-14
 -1       589 8.54886E-03-3.87194E-03-6.68694E-14
 -1       590 1.04602E-02-3.58410E-03-8.59402E-14
 -1       591 6.21090E-04-9.21928E-05-4.51245E-16
 -1       592 1.01107E-02-3.40543E-03-8.29791E-14
 -1       593 9.14172E-03-3.48992E-03-7.37466E-14
 -1       594 9.73360E-03-3.32928E-03-7.94384E-14
 -1       595 9.73763E-03-4.41630E-03-6.97304E-14
 -1       596 9.43561E-03-3.37535E-03-7.63711E-14
 -1       597 8.90292E-03-3.58703E-03-7.18510E-14
 -1       598 8.40127E-03-3.78735E-03-6.81012E-14
 -1       599 8.36725E-03-3.80956E-03-6.70907E-14
 -1       600 8.86464E-03-3.99463E-03-6.76499E-14
 -1       601 9.26000E-03-4.15939E-03-6.83882E-14
 -1       602 1.02231E-02-4.75203E-03-7.19404E-14
 -1       603 1.06000E-02-5.03871E-03-7.41632E-14
 -1       604 1.09944E-02-5.29694E-03-7.65424E-14
 -1       605 1.13660E-02-5.48123E-03-8.00288E-14
 -1       606 1.16423E-02-5.51907E-03-8.26850E-14
 -1       607 1.19859E-02-5.44148E-03-8.60917E-14
 -1       608 1.25590E-02-5.20121E-03-9.07622E-14
 -1       609 1.08730E-02-3.86627E-03-8.89202E-14
 -1       610 1.30411E-02-5.03246E-03-9.49542E-14
 -1       611 7.56876E-04-3.10922E-04-3.03939E-16
 -1       612 5.19193E-04 1.79777E-04-3.91231E-16
 -1       613 1.26894E-02-4.88040E-03-9.62726E-14
 -1       614 6.86396E-04-2.13359E-04-3.75198E-16
 -1       615 7.18018E-04-2.58382E-04-3.45118E-16
 -1       616 8.40379E-03-3.78067E-03-6.55440E-14
 -1       617 8.69266E-03-3.61960E-03-6.98518E-14
 -1       618 8.43904E-03-3.71274E-03-6.78034E-14
 -1       619 1.45315E-02-6.12497E-03-1.16871E-13
 -1       620 7.84856E-04-2.72974E-05-8.22062E-16
 -1       621 8.05939E-04-7.05134E-05-8.10455E-16
 -1       622 7.47707E-04 6.02796E-05-8.23353E-16
 -1       623 7.32475E-04 1.07103E-04-8.08273E-16
 -1       624 8.06315E-04 1.50983E-04-9.59787E-16
 -1       625 1.30347E-02-5.13900E-03-9.61033E-14
 -1       626 1.05965E-02-3.73182E-03-8.84580E-14
 -1       627 1.43764E-03-5.03666E-04-1.30968E-15
 -1       628 1.73252E-03-5.93917E-04-1.90398E-15
 -1       629 2.02615E-03-6.82409E-04-2.61503E-15
 -1       630 2.31829E-03-7.70903E-04-3.44328E-15
 -1       631 2.60891E-03-8.60799E-04-4.38776E-15
 -1       632 2.89805E-03-9.53129E-04-5.44828E-15
 -1       633 3.18576E-03-1.04860E-03-6.62273E-15
 -1       634 3.47209E-03-1.14766E-03-7.91375E-15
 -1       635 3.75708E-03-1.25054E-03-9.31964E-15
 -1       636 4.04076E-03-1.35727E-03-1.08373E-14
 -1       637 4.32316E-03-1.46780E-03-1.24690E-14
 -1       638 4.60431E-03-1.58194E-03-1.42157E-14
 -1       639 4.88423E-03-1.69945E-03-1.60761E-14
 -1       640 5.16297E-03-1.82003E-03-1.80480E-14
 -1       641 5.44057E-03-1.94338E-03-2.01320E-14
 -1       642 5.71713E-03-2.06919E-03-2.23271E-14
 -1       643 5.99277E-03-2.19722E-03-2.46356E-14
 -1       644 6.26766E-03-2.32729E-03-2.70557E-14
 -1       645 6.54208E-03-2.45939E-03-2.95856E-14
 -1       646 6.81637E-03-2.59367E-03-3.22286E-14
 -1       647 7.09089E-03-2.73055E-03-3.49773E-14
 -1       648 7.36583E-03-2.87059E-03-3.78270E-14
 -1       649 7.64100E-03-3.01391E-03-4.07734E-14
 -1       650 7.91630E-03-3.15952E-03-4.38145E-14
 -1       651 8.19301E-03-3.30632E-03-4.69481E-14
 -1       652 8.47387E-03-3.45595E-03-5.01639E-14
 -1       653 8.76220E-03-3.61356E-03-5.34593E-14
 -1       654 9.06208E-03-3.78666E-03-5.68296E-14
 -1       655 9.37947E-03-3.98483E-03-6.02689E-14
 -1       656 9.72189E-03-4.22050E-03-6.37776E-14
 -1       657 1.00939E-02-4.50637E-03-6.73561E-14
 -1       658 1.09323E-02-5.20234E-03-7.46737E-14
 -1       659 1.20736E-02-5.52039E-03-8.66057E-14
 -1       660 1.24742E-02-5.48357E-03-9.07271E-14
 -1       661 1.28554E-02-5.49030E-03-9.49298E-14
 -1       662 1.32077E-02-5.54758E-03-9.91902E-14
 -1       663 1.35337E-02-5.64339E-03-1.03491E-13
 -1       664 1.38413E-02-5.76368E-03-1.07820E-13
 -1       665 1.41373E-02-5.89694E-03-1.12179E-13
 -1       666 1.69929E-03 7.06012E-06-3.90344E-15
 -1       667 1.04935E-02-4.88474E-03-7.20321E-14
 -1       668 1.47435E-03 6.57782E-05-2.98141E-15
 -1       669 2.15310E-03-1.43485E-04-6.11243E-15
 -1       670 2.38219E-03-2.32419E-04-7.39649E-15
 -1       671 2.61281E-03-3.29012E-04-8.79987E-15
 -1       672 2.84501E-03-4.32459E-04-1.03223E-14
 -1       673 3.07883E-03-5.42130E-04-1.19637E-14
 -1       674 3.31426E-03-6.57532E-04-1.37223E-14
 -1       675 3.55135E-03-7.78275E-04-1.55973E-14
 -1       676 3.79012E-03-9.04040E-04-1.75849E-14
 -1       677 4.03060E-03-1.03455E-03-1.96862E-14
 -1       678 4.27286E-03-1.16953E-03-2.18999E-14
 -1       679 4.51698E-03-1.30869E-03-2.42255E-14
 -1       680 4.76309E-03-1.45165E-03-2.66600E-14
 -1       681 5.01136E-03-1.59789E-03-2.92009E-14
 -1       682 5.26204E-03-1.74668E-03-3.18430E-14
 -1       683 5.51544E-03-1.89701E-03-3.45850E-14
 -1       684 5.77195E-03-2.04752E-03-3.74282E-14
 -1       685 6.03209E-03-2.19649E-03-4.03703E-14
 -1       686 6.29680E-03-2.34171E-03-4.34079E-14
 -1       687 6.56787E-03-2.47979E-03-4.65342E-14
 -1       688 6.84528E-03-2.60566E-03-4.97443E-14
 -1       689 7.12748E-03-2.72003E-03-5.30373E-14
 -1       690 7.41620E-03-2.82505E-03-5.64072E-14
 -1       691 7.71410E-03-2.91752E-03-5.98520E-14
 -1       692 8.02238E-03-2.99295E-03-6.33753E-14
 -1       693 8.34086E-03-3.04815E-03-6.69742E-14
 -1       694 8.66709E-03-3.08365E-03-7.06501E-14
 -1       695 8.99493E-03-3.10852E-03-7.44086E-14
 -1       696 9.31716E-03-3.14841E-03-7.82507E-14
 -1       697 9.63250E-03-3.23825E-03-8.21736E-14
 -1       698 9.94767E-03-3.39808E-03-8.61816E-14
 -1       699 1.02699E-02-3.62229E-03-9.02720E-14
 -1       700 1.06029E-02-3.88542E-03-9.44374E-14
 -1       701 1.09417E-02-4.15847E-03-9.86691E-14
 -1       702 1.12786E-02-4.42227E-03-1.02960E-13
 -1       703 1.16075E-02-4.66958E-03-1.07301E-13
 -1       704 1.19261E-02-4.90111E-03-1.11681E-13
 -1       705 1.22345E-02-5.12156E-03-1.16102E-13
 -1       706 1.25175E-02-5.30611E-03-1.19483E-13
 -1       707 1.19512E-02-4.66214E-03-9.74391E-14
 -1       708 1.36621E-02-5.64013E-03-1.17015E-13
 -1       709 1.28843E-02-5.01056E-03-9.87526E-14
 -1       710 1.31899E-02-5.50983E-03-1.17923E-13
 -1       711 1.38519E-02-5.69288E-03-1.16558E-13
 -1       712 1.34378E-02-5.57981E-03-1.17473E-13
 -1       713 1.39992E-02-5.74217E-03-1.16088E-13
 -1       714 1.41103E-02-5.79555E-03-1.15593E-13
 -1       715 1.41905E-02-5.85661E-03-1.15081E-13
 -1       716 1.31124E-02-5.07955E-03-9.89524E-14
 -1       717 1.31417E-02-5.08753E-03-9.75818E-14
 -1       718 1.14212E-02-4.33235E-03-9.43411E-14
 -1       719 1.19204E-02-5.53017E-03-8.51076E-14
 -1       720 1.25054E-03 1.10953E-04-2.18329E-15
 -1       721 1.92550E-03-6.32291E-05-4.94758E-15
 -1       722 1.14226E-03-4.09689E-04-8.29957E-16
 -1       723 1.10185E-02-4.05119E-03-9.18428E-14
 -1       724 1.25718E-02-4.93783E-03-9.92713E-14
 -1       725 1.02781E-03 1.40240E-04-1.50938E-15
 -1       726 7.65393E-04 1.59109E-05-8.27070E-16
 -1       727 8.80568E-04-2.08804E-04-7.33087E-16
 -1       728 1.00405E-02-4.54340E-03-6.94164E-14
 -1       729 1.27642E-02-5.22450E-03-9.34374E-14
 -1       730 1.43334E-02-5.98992E-03-1.15142E-13
 -1       731 8.69241E-03-3.85307E-03-6.53888E-14
 -1       732 8.91189E-03-3.47046E-03-7.14704E-14
 -1       733 9.16867E-03-3.37469E-03-7.40545E-14
 -1       734 8.30693E-03-3.72049E-03-6.58023E-14
 -1       735 9.38969E-03-3.28891E-03-7.71068E-14
 -1       736 9.02781E-03-3.97209E-03-6.58522E-14
 -1       737 1.22496E-02-5.43677E-03-8.85895E-14
 -1       738 1.25119E-02-5.31545E-03-9.10977E-14
 -1       739 9.83934E-03-3.32208E-03-8.14682E-14
 -1       740 9.48867E-03-4.18650E-03-6.68723E-14
 -1       741 9.28642E-04-3.34840E-04-5.60431E-16
 -1       742 1.02192E-02-3.48372E-03-8.51629E-14
 -1       743 9.11763E-04-2.61823E-04-6.89566E-16
 -1       744 8.28648E-04-1.14526E-04-7.92091E-16
 -1       745 1.17441E-02-5.55324E-03-8.30553E-14
 -1       746 1.27762E-02-5.39158E-03-1.19059E-13
 -1       747 8.70828E-03-3.49816E-03-6.94695E-14
 -1       748 1.23333E-02-4.89003E-03-1.00792E-13
 -1       749 8.49292E-03-3.75550E-03-6.40753E-14
 -1       750 8.49535E-03-3.61497E-03-6.76956E-14
 -1       751 8.29828E-03-3.65682E-03-6.55051E-14
 -1       752 8.28544E-03-3.69538E-03-6.42676E-14
 -1       753 1.29842E-02-5.45258E-03-1.18495E-13
 -1       754 8.53257E-04-1.60171E-04-7.66616E-16
 -1       755 1.41689E-02-5.87270E-03-1.13632E-13
 -1       756 9.55875E-03-3.25011E-03-7.90993E-14
 -1       757 9.37404E-04 7.35445E-05-1.25188E-15
 -1       758 9.18741E-04-2.97012E-04-6.27570E-16
 -1       759 1.27841E-02-5.36660E-03-9.42055E-14
 -1       760 9.95804E-03-3.37431E-03-8.40583E-14
 -1       761 1.82152E-03-5.66564E-04-2.36581E-15
 -1       762 2.11008E-03-6.53275E-04-3.15320E-15
 -1       763 2.39767E-03-7.41484E-04-4.05614E-15
 -1       764 2.68406E-03-8.32142E-04-5.07444E-15
 -1       765 2.96915E-03-9.25950E-04-6.20642E-15
 -1       766 3.25287E-03-1.02337E-03-7.45318E-15
 -1       767 3.53524E-03-1.12467E-03-8.81540E-15
 -1       768 3.81625E-03-1.22995E-03-1.02914E-14
 -1       769 4.09592E-03-1.33915E-03-1.18798E-14
 -1       770 4.37424E-03-1.45213E-03-1.35828E-14
 -1       771 4.65121E-03-1.56867E-03-1.53991E-14
 -1       772 4.92682E-03-1.68848E-03-1.73282E-14
 -1       773 5.20106E-03-1.81127E-03-1.93707E-14
 -1       774 5.47390E-03-1.93670E-03-2.15237E-14
 -1       775 5.74534E-03-2.06448E-03-2.37870E-14
 -1       776 6.01539E-03-2.19435E-03-2.61636E-14
 -1       777 6.28412E-03-2.32617E-03-2.86503E-14
 -1       778 6.55169E-03-2.45996E-03-3.12463E-14
 -1       779 6.81841E-03-2.59605E-03-3.39508E-14
 -1       780 7.08468E-03-2.73524E-03-3.67564E-14
 -1       781 7.35055E-03-2.87856E-03-3.96627E-14
 -1       782 7.61499E-03-3.02576E-03-4.26670E-14
 -1       783 7.87763E-03-3.17294E-03-4.57629E-14
 -1       784 8.14108E-03-3.31739E-03-4.89444E-14
 -1       785 8.40866E-03-3.46283E-03-5.22079E-14
 -1       786 8.68278E-03-3.61573E-03-5.55443E-14
 -1       787 8.96779E-03-3.78355E-03-5.89550E-14
 -1       788 9.27273E-03-3.97696E-03-6.24331E-14
 -1       789 8.78190E-03-3.81122E-03-6.32233E-14
 -1       790 1.24392E-03-3.92964E-04-1.13578E-15
 -1       791 1.31320E-02-5.42822E-03-9.84632E-14
 -1       792 1.34477E-02-5.53314E-03-1.02760E-13
 -1       793 1.37436E-02-5.66188E-03-1.07086E-13
 -1       794 1.39579E-02-5.76574E-03-1.10352E-13
 -1       795 2.56142E-03-3.40787E-04-8.09336E-15
 -1       796 2.32510E-03-2.47416E-04-6.75782E-15
 -1       797 3.03726E-03-5.48147E-04-1.11196E-14
 -1       798 3.27680E-03-6.60921E-04-1.28100E-14
 -1       799 3.51742E-03-7.79153E-04-1.46165E-14
 -1       800 3.75911E-03-9.02503E-04-1.65367E-14
 -1       801 4.00187E-03-1.03068E-03-1.85686E-14
 -1       802 4.24568E-03-1.16344E-03-2.07117E-14
 -1       803 4.49055E-03-1.30050E-03-2.29671E-14
 -1       804 4.73647E-03-1.44159E-03-2.53329E-14
 -1       805 4.98349E-03-1.58630E-03-2.78058E-14
 -1       806 5.23171E-03-1.73412E-03-3.03834E-14
 -1       807 5.48132E-03-1.88428E-03-3.30611E-14
 -1       808 5.73263E-03-2.03570E-03-3.58411E-14
 -1       809 5.98597E-03-2.18694E-03-3.87203E-14
 -1       810 6.24167E-03-2.33634E-03-4.16974E-14
 -1       811 6.50076E-03-2.48220E-03-4.47706E-14
 -1       812 6.76834E-03-2.61957E-03-4.79278E-14
 -1       813 7.04208E-03-2.73863E-03-5.11668E-14
 -1       814 7.32048E-03-2.85244E-03-5.44856E-14
 -1       815 7.60845E-03-2.95928E-03-5.78836E-14
 -1       816 7.90838E-03-3.05259E-03-6.13585E-14
 -1       817 8.22253E-03-3.12589E-03-6.49076E-14
 -1       818 8.55086E-03-3.17382E-03-6.85295E-14
 -1       819 8.89117E-03-3.19368E-03-7.22333E-14
 -1       820 1.06096E-02-3.83833E-03-9.20087E-14
 -1       821 1.09705E-02-4.12778E-03-9.62018E-14
 -1       822 1.13277E-02-4.40326E-03-1.00460E-13
 -1       823 1.16717E-02-4.65488E-03-1.04764E-13
 -1       824 1.19996E-02-4.88492E-03-1.09118E-13
 -1       825 1.23130E-02-5.10028E-03-1.13517E-13
 -1       826 1.25470E-02-5.24764E-03-1.16282E-13
 -1       827 8.87533E-03-3.33699E-03-7.13668E-14
 -1       828 1.37208E-02-5.57813E-03-1.12525E-13
 -1       829 1.07236E-02-3.87896E-03-9.11894E-14
 -1       830 1.35469E-02-5.52582E-03-1.12986E-13
 -1       831 1.30845E-02-5.13956E-03-1.01573E-13
 -1       832 1.32340E-02-5.17358E-03-1.00567E-13
 -1       833 1.39068E-03 3.44383E-05-2.60223E-15
 -1       834 1.38452E-02-5.63089E-03-1.12042E-13
 -1       835 1.39274E-02-5.69194E-03-1.11540E-13
 -1       836 1.32276E-02-5.21326E-03-9.95841E-14
 -1       837 2.79881E-03-4.41257E-04-9.54764E-15
 -1       838 1.62257E-03-1.96117E-05-3.46113E-15
 -1       839 1.30300E-02-5.27030E-03-9.68897E-14
 -1       840 1.53249E-03-4.80195E-04-1.69349E-15
 -1       841 1.11756E-02-4.21993E-03-9.50235E-14
 -1       842 1.28477E-02-5.08770E-03-1.02090E-13
 -1       843 9.13040E-03-3.26752E-03-7.43676E-14
 -1       844 1.03409E-02-3.60247E-03-8.78420E-14
 -1       845 9.82896E-04 1.06138E-04-1.38183E-15
 -1       846 1.16644E-02-4.54236E-03-9.81278E-14
 -1       847 1.00760E-03-8.19168E-05-1.24831E-15
 -1       848 9.17666E-03-3.96424E-03-6.36660E-14
 -1       849 9.62611E-03-4.20658E-03-6.53276E-14
 -1       850 1.03514E-03-1.33814E-04-1.22686E-15
 -1       851 9.58583E-04 2.08800E-05-1.26263E-15
 -1       852 1.39465E-02-5.72618E-03-1.10947E-13
 -1       853 1.85566E-03-8.56261E-05-4.44060E-15
 -1       854 2.08985E-03-1.62003E-04-5.54004E-15
 -1       855 9.21896E-03-3.20751E-03-7.57677E-14
 -1       856 8.69643E-03-3.35982E-03-6.93650E-14
 -1       857 1.30787E-02-5.39314E-03-1.13873E-13
 -1       858 1.32623E-02-5.23343E-03-1.03200E-13
 -1       859 1.33287E-02-5.46580E-03-1.13432E-13
 -1       860 8.50335E-03-3.49958E-03-6.73145E-14
 -1       861 1.20571E-02-4.78823E-03-1.01482E-13
 -1       862 1.26498E-02-5.05890E-03-1.03616E-13
 -1       863 8.55624E-03-3.70824E-03-6.19282E-14
 -1       864 1.28671E-02-5.33041E-03-1.14435E-13
 -1       865 8.31466E-03-3.57533E-03-6.53956E-14
 -1       866 8.32063E-03-3.66822E-03-6.28144E-14
 -1       867 9.82102E-04-3.06919E-05-1.26053E-15
 -1       868 1.18543E-03 7.67316E-05-1.94474E-15
 -1       869 8.17649E-03-3.59461E-03-6.30311E-14
 -1       870 1.09761E-03-2.42927E-04-1.15503E-15
 -1       871 1.13424E-03-3.02495E-04-1.10254E-15
 -1       872 1.62701E-03-4.56157E-04-2.10881E-15
 -1       873 8.14893E-03-3.53169E-03-6.29244E-14
 -1       874 1.32899E-02-5.34335E-03-1.00720E-13
 -1       875 1.13962E-02-4.41675E-03-9.90287E-14
 -1       876 2.19385E-03-6.25130E-04-3.71750E-15
 -1       877 2.47667E-03-7.13476E-04-4.69377E-15
 -1       878 2.75854E-03-8.05204E-04-5.78314E-15
 -1       879 3.03926E-03-9.00724E-04-6.98696E-15
 -1       880 3.31872E-03-1.00028E-03-8.30613E-15
 -1       881 3.59688E-03-1.10397E-03-9.73833E-15
 -1       882 3.87368E-03-1.21178E-03-1.12849E-14
 -1       883 4.14912E-03-1.32356E-03-1.29447E-14
 -1       884 4.42315E-03-1.43913E-03-1.47173E-14
 -1       885 4.69573E-03-1.55821E-03-1.66026E-14
 -1       886 4.96678E-03-1.68051E-03-1.86015E-14
 -1       887 5.23620E-03-1.80571E-03-2.07135E-14
 -1       888 5.50386E-03-1.93349E-03-2.29342E-14
 -1       889 5.76963E-03-2.06355E-03-2.52667E-14
 -1       890 6.03333E-03-2.19563E-03-2.77120E-14
 -1       891 6.29485E-03-2.32960E-03-3.02639E-14
 -1       892 6.55419E-03-2.46553E-03-3.29236E-14
 -1       893 6.81163E-03-2.60395E-03-3.56866E-14
 -1       894 7.06795E-03-2.74632E-03-3.85496E-14
 -1       895 7.32342E-03-2.89493E-03-4.15153E-14
 -1       896 7.57530E-03-3.04787E-03-4.45752E-14
 -1       897 7.82440E-03-3.19273E-03-4.77200E-14
 -1       898 8.07575E-03-3.33101E-03-5.09503E-14
 -1       899 8.32870E-03-3.47087E-03-5.42565E-14
 -1       900 8.58218E-03-3.61797E-03-5.76334E-14
 -1       901 1.53923E-03-4.83829E-05-3.03367E-15
 -1       902 1.35550E-02-5.48382E-03-1.05036E-13
 -1       903 2.50255E-03-3.55500E-04-7.40341E-15
 -1       904 3.47737E-03-7.82257E-04-1.36524E-14
 -1       905 3.23279E-03-6.66767E-04-1.19146E-14
 -1       906 3.96809E-03-1.02848E-03-1.74700E-14
 -1       907 4.21411E-03-1.15865E-03-1.95452E-14
 -1       908 4.46047E-03-1.29320E-03-2.17306E-14
 -1       909 4.70709E-03-1.43187E-03-2.40268E-14
 -1       910 4.95386E-03-1.57439E-03-2.64314E-14
 -1       911 5.20074E-03-1.72039E-03-2.89433E-14
 -1       912 5.44776E-03-1.86938E-03-3.15579E-14
 -1       913 5.69511E-03-2.02060E-03-3.42732E-14
 -1       914 5.94318E-03-2.17285E-03-3.70905E-14
 -1       915 6.19231E-03-2.32440E-03-4.00066E-14
 -1       916 6.44197E-03-2.47352E-03-4.30221E-14
 -1       917 6.68922E-03-2.62178E-03-4.61271E-14
 -1       918 6.95097E-03-2.75552E-03-4.93149E-14
 -1       919 7.22382E-03-2.87018E-03-5.25822E-14
 -1       920 7.50181E-03-2.98891E-03-5.59306E-14
 -1       921 7.78836E-03-3.10012E-03-5.93576E-14
 -1       922 8.08840E-03-3.19610E-03-6.28607E-14
 -1       923 8.40836E-03-3.26730E-03-6.64303E-14
 -1       924 1.20833E-02-4.88004E-03-1.06566E-13
 -1       925 1.23991E-02-5.08831E-03-1.10936E-13
 -1       926 1.36775E-02-5.52316E-03-1.08016E-13
 -1       927 8.89211E-03-3.81704E-03-6.20056E-14
 -1       928 1.33653E-02-5.29206E-03-1.02715E-13
 -1       929 1.34429E-02-5.41421E-03-1.08973E-13
 -1       930 1.06494E-03-1.87135E-04-1.19605E-15
 -1       931 1.31242E-02-5.23315E-03-1.05027E-13
 -1       932 8.15673E-03-3.57353E-03-6.15940E-14
 -1       933 1.27060E-02-5.28917E-03-1.15359E-13
 -1       934 3.72248E-03-9.02930E-04-1.55057E-14
 -1       935 1.37903E-03-3.78249E-04-1.56548E-15
 -1       936 1.35902E-02-5.46533E-03-1.08504E-13
 -1       937 1.91044E-03-5.39589E-04-2.85608E-15
 -1       938 1.15067E-03 2.20885E-05-1.78492E-15
 -1       939 1.24011E-03-1.51993E-04-1.75434E-15
 -1       940 1.34587E-02-5.38520E-03-1.03879E-13
 -1       941 1.77858E-03-1.10655E-04-3.94893E-15
 -1       942 2.26043E-03-2.65387E-04-6.13490E-15
 -1       943 2.74535E-03-4.52880E-04-8.78965E-15
 -1       944 2.98877E-03-5.56824E-04-1.02934E-14
 -1       945 1.09447E-02-4.07617E-03-9.43631E-14
 -1       946 8.30381E-03-3.47163E-03-6.50160E-14
 -1       947 1.32340E-02-5.35796E-03-1.09420E-13
 -1       948 1.16592E-02-4.59535E-03-1.01435E-13
 -1       949 1.30146E-03 1.92590E-06-2.23698E-15
 -1       950 1.23952E-02-4.97782E-03-1.04311E-13
 -1       951 1.27143E-02-5.20167E-03-1.10374E-13
 -1       952 8.34799E-03-3.61587E-03-6.06877E-14
 -1       953 1.31212E-03-2.73137E-04-1.67297E-15
 -1       954 1.29853E-02-5.28841E-03-1.09898E-13
 -1       955 8.00776E-03-3.46007E-03-6.01046E-14
 -1       956 1.16818E-03 4.90801E-05-1.86660E-15
 -1       957 1.20811E-03-9.37595E-05-1.77719E-15
 -1       958 1.34408E-03-3.24471E-04-1.62408E-15
 -1       959 8.11509E-03-3.44454E-03-6.25507E-14
 -1       960 1.72033E-03-4.31460E-04-2.55396E-15
 -1       961 2.55460E-03-6.86980E-04-5.35470E-15
 -1       962 2.83175E-03-7.80130E-04-6.51518E-15
 -1       963 3.10789E-03-8.77624E-04-7.79064E-15
 -1       964 3.38288E-03-9.79515E-04-9.18002E-15
 -1       965 3.65663E-03-1.08576E-03-1.06834E-14
 -1       966 3.92906E-03-1.19623E-03-1.23003E-14
 -1       967 4.20011E-03-1.31074E-03-1.40302E-14
 -1       968 4.46971E-03-1.42904E-03-1.58721E-14
 -1       969 4.73774E-03-1.55085E-03-1.78279E-14
 -1       970 5.00405E-03-1.67586E-03-1.98974E-14
 -1       971 5.26843E-03-1.80375E-03-2.20762E-14
 -1       972 5.53063E-03-1.93422E-03-2.43664E-14
 -1       973 5.79029E-03-2.06698E-03-2.67668E-14
 -1       974 6.04701E-03-2.20180E-03-2.92791E-14
 -1       975 6.30031E-03-2.33854E-03-3.18947E-14
 -1       976 6.54978E-03-2.47728E-03-3.46158E-14
 -1       977 6.79544E-03-2.61870E-03-3.74379E-14
 -1       978 7.03882E-03-2.76544E-03-4.03608E-14
 -1       979 7.28227E-03-2.92374E-03-4.33811E-14
 -1       980 7.52075E-03-3.07869E-03-4.64910E-14
 -1       981 7.76415E-03-3.21258E-03-4.96863E-14
 -1       982 8.00766E-03-3.34529E-03-5.29586E-14
 -1       983 8.24239E-03-3.48254E-03-5.63063E-14
 -1       984 4.42726E-03-1.28739E-03-2.05150E-14
 -1       985 4.17862E-03-1.15569E-03-1.83975E-14
 -1       986 4.92311E-03-1.56300E-03-2.50763E-14
 -1       987 5.16992E-03-1.70644E-03-2.75210E-14
 -1       988 5.41575E-03-1.85327E-03-3.00724E-14
 -1       989 5.66055E-03-2.00309E-03-3.27254E-14
 -1       990 5.90459E-03-2.15523E-03-3.54809E-14
 -1       991 6.14867E-03-2.30829E-03-3.83369E-14
 -1       992 6.39406E-03-2.45949E-03-4.12922E-14
 -1       993 6.64004E-03-2.60520E-03-4.43435E-14
 -1       994 6.88423E-03-2.75306E-03-4.74784E-14
 -1       995 7.13582E-03-2.88414E-03-5.06942E-14
 -1       996 7.40360E-03-3.00574E-03-5.39937E-14
 -1       997 7.67347E-03-3.12992E-03-5.73721E-14
 -1       998 7.95232E-03-3.24812E-03-6.08262E-14
 -1       999 1.17831E-03-3.59722E-05-1.78818E-15
 -1      1000 1.24981E-02-5.08558E-03-1.08371E-13
 -1      1001 1.45090E-03-7.79126E-05-2.62301E-15
 -1      1002 8.13633E-03-3.51963E-03-5.94927E-14
 -1      1003 1.27461E-03-2.11489E-04-1.71982E-15
 -1      1004 3.43177E-03-7.87863E-04-1.27066E-14
 -1      1005 2.01905E-03-1.83416E-04-4.98304E-15
 -1      1006 1.30012E-02-5.21839E-03-1.06008E-13
 -1      1007 1.27787E-02-5.16074E-03-1.06707E-13
 -1      1008 4.67549E-03-1.42324E-03-2.27409E-14
 -1      1009 7.94585E-03-3.41165E-03-5.80273E-14
 -1      1010 1.99838E-03-5.12952E-04-3.37328E-15
 -1      1011 2.27668E-03-5.98010E-04-4.30719E-15
 -1      1012 7.93972E-03-3.38818E-03-5.97418E-14
 -1      1013 7.84852E-03-3.34776E-03-5.76766E-14
 -1      1014 2.43718E-03-3.73014E-04-6.73190E-15
 -1      1015 3.18286E-03-6.75272E-04-1.10377E-14
 -1      1016 2.68548E-03-4.67336E-04-8.05015E-15
 -1      1017 3.92975E-03-1.02837E-03-1.63900E-14
 -1      1018 1.53169E-03-3.77219E-04-2.06267E-15
 -1      1019 1.52374E-03-3.01326E-04-2.28521E-15
 -1      1020 1.48185E-03-2.35202E-04-2.33628E-15
 -1      1021 3.68076E-03-9.05669E-04-1.44917E-14
 -1      1022 1.69574E-03-1.37385E-04-3.47498E-15
 -1      1023 1.44294E-03-1.70857E-04-2.37322E-15
 -1      1024 2.93407E-03-5.68276E-04-9.48540E-15
 -1      1025 2.90313E-03-7.57092E-04-7.27071E-15
 -1      1026 3.17455E-03-8.56829E-04-8.61673E-15
 -1      1027 3.44492E-03-9.61255E-04-1.00767E-14
 -1      1028 3.71412E-03-1.07021E-03-1.16509E-14
 -1      1029 3.98208E-03-1.18350E-03-1.33380E-14
 -1      1030 4.24867E-03-1.30088E-03-1.51385E-14
 -1      1031 4.51379E-03-1.42208E-03-1.70519E-14
 -1      1032 4.77724E-03-1.54681E-03-1.90771E-14
 -1      1033 5.03878E-03-1.67478E-03-2.12137E-14
 -1      1034 5.29810E-03-1.80569E-03-2.34608E-14
 -1      1035 5.55476E-03-1.93927E-03-2.58177E-14
 -1      1036 5.80820E-03-2.07528E-03-2.82865E-14
 -1      1037 6.05763E-03-2.21356E-03-3.08606E-14
 -1      1038 6.30201E-03-2.35407E-03-3.35397E-14
 -1      1039 6.53998E-03-2.49701E-03-3.63227E-14
 -1      1040 6.76976E-03-2.64329E-03-3.92045E-14
 -1      1041 6.98787E-03-2.79589E-03-4.21851E-14
 -1      1042 7.20415E-03-2.98200E-03-4.52575E-14
 -1      1043 7.46874E-03-3.09848E-03-4.84150E-14
 -1      1044 7.71954E-03-3.22743E-03-5.16540E-14
 -1      1045 7.95204E-03-3.36266E-03-5.49705E-14
 -1      1046 4.64190E-03-1.41639E-03-2.14740E-14
 -1      1047 1.94204E-03-2.07130E-04-4.44392E-15
 -1      1048 5.38578E-03-1.83716E-03-2.86067E-14
 -1      1049 5.13955E-03-1.69334E-03-2.61199E-14
 -1      1050 5.87141E-03-2.13475E-03-3.38924E-14
 -1      1051 6.11096E-03-2.28801E-03-3.66880E-14
 -1      1052 6.35032E-03-2.44280E-03-3.95836E-14
 -1      1053 6.59405E-03-2.59448E-03-4.25771E-14
 -1      1054 6.84124E-03-2.73523E-03-4.56612E-14
 -1      1055 7.08341E-03-2.87414E-03-4.88255E-14
 -1      1056 7.32729E-03-3.00629E-03-5.20726E-14
 -1      1057 7.57796E-03-3.13901E-03-5.54042E-14
 -1      1058 1.73216E-03-3.29384E-04-2.99094E-15
 -1      1059 5.62980E-03-1.98435E-03-3.11983E-14
 -1      1060 2.18930E-03-2.86001E-04-5.53016E-15
 -1      1061 4.89147E-03-1.55302E-03-2.37429E-14
 -1      1062 1.81182E-03-4.06214E-04-3.02679E-15
 -1      1063 1.44689E-03-1.24641E-04-2.50180E-15
 -1      1064 4.39117E-03-1.28365E-03-1.93165E-14
 -1      1065 2.63083E-03-6.62145E-04-6.04001E-15
 -1      1066 7.81189E-03-3.26056E-03-5.85609E-14
 -1      1067 4.13955E-03-1.15501E-03-1.72663E-14
 -1      1068 3.63441E-03-9.10995E-04-1.34951E-14
 -1      1069 7.71901E-03-3.25744E-03-5.42578E-14
 -1      1070 3.38118E-03-7.96162E-04-1.17801E-14
 -1      1071 1.68610E-03-2.59880E-04-3.04417E-15
 -1      1072 2.36627E-03-3.93037E-04-6.08059E-15
 -1      1073 2.08468E-03-4.86742E-04-3.91691E-15
 -1      1074 2.35788E-03-5.72033E-04-4.92176E-15
 -1      1075 1.69717E-03-1.86039E-04-3.33164E-15
 -1      1076 7.71313E-03-3.24457E-03-5.65421E-14
 -1      1077 2.62006E-03-4.84497E-04-7.33119E-15
 -1      1078 2.11280E-03-3.08754E-04-4.94490E-15
 -1      1079 3.88724E-03-1.03071E-03-1.53247E-14
 -1      1080 2.97212E-03-7.36278E-04-8.04929E-15
 -1      1081 2.70477E-03-6.39171E-04-6.74834E-15
 -1      1082 3.23871E-03-8.38518E-04-9.46516E-15
 -1      1083 3.50437E-03-9.45670E-04-1.09968E-14
 -1      1084 3.76900E-03-1.05748E-03-1.26411E-14
 -1      1085 4.03246E-03-1.17372E-03-1.43996E-14
 -1      1086 4.29464E-03-1.29410E-03-1.62715E-14
 -1      1087 4.55536E-03-1.41836E-03-1.82551E-14
 -1      1088 4.81436E-03-1.54621E-03-2.03488E-14
 -1      1089 5.07134E-03-1.67739E-03-2.25505E-14
 -1      1090 5.32585E-03-1.81165E-03-2.48637E-14
 -1      1091 5.57733E-03-1.94878E-03-2.72897E-14
 -1      1092 5.82498E-03-2.08865E-03-2.98223E-14
 -1      1093 6.06769E-03-2.23129E-03-3.24588E-14
 -1      1094 6.30388E-03-2.37704E-03-3.52013E-14
 -1      1095 6.53114E-03-2.52700E-03-3.80437E-14
 -1      1096 6.74597E-03-2.68488E-03-4.09841E-14
 -1      1097 6.95013E-03-2.86939E-03-4.40166E-14
 -1      1098 7.20640E-03-2.97126E-03-4.71370E-14
 -1      1099 7.46510E-03-3.10578E-03-5.03427E-14
 -1      1100 5.10940E-03-1.68216E-03-2.47367E-14
 -1      1101 1.90454E-03-2.44463E-04-4.09951E-15
 -1      1102 6.31518E-03-2.41866E-03-3.78920E-14
 -1      1103 6.08209E-03-2.26378E-03-3.50560E-14
 -1      1104 6.78457E-03-2.73241E-03-4.38567E-14
 -1      1105 7.03119E-03-2.85546E-03-4.69733E-14
 -1      1106 7.27158E-03-2.99095E-03-5.01727E-14
 -1      1107 7.51029E-03-3.12920E-03-5.34526E-14
 -1      1108 5.84466E-03-2.11310E-03-3.23211E-14
 -1      1109 1.69169E-03-2.22950E-04-3.18976E-15
 -1      1110 5.60296E-03-1.96609E-03-2.96862E-14
 -1      1111 4.85879E-03-1.54527E-03-2.24260E-14
 -1      1112 4.60631E-03-1.41197E-03-2.02263E-14
 -1      1113 6.54611E-03-2.57769E-03-4.08285E-14
 -1      1114 5.35765E-03-1.82246E-03-2.71572E-14
 -1      1115 1.99898E-03-4.06021E-04-3.88057E-15
 -1      1116 2.43688E-03-5.47403E-04-5.56135E-15
 -1      1117 3.58387E-03-9.19099E-04-1.25193E-14
 -1      1118 3.12764E-03-6.86544E-04-1.01807E-14
 -1      1119 7.59606E-03-3.18424E-03-5.43371E-14
 -1      1120 4.35231E-03-1.28246E-03-1.81354E-14
 -1      1121 2.54991E-03-5.04124E-04-6.63325E-15
 -1      1122 2.87390E-03-5.82505E-04-8.69708E-15
 -1      1123 3.84090E-03-1.03576E-03-1.42784E-14
 -1      1124 2.21772E-03-4.74779E-04-4.68375E-15
 -1      1125 2.29074E-03-4.15170E-04-5.45042E-15
 -1      1126 2.77580E-03-6.18301E-04-7.47986E-15
 -1      1127 3.03814E-03-7.17889E-04-8.85083E-15
 -1      1128 3.29984E-03-8.22846E-04-1.03382E-14
 -1      1129 4.33791E-03-1.29045E-03-1.74277E-14
 -1      1130 1.96763E-03-3.31688E-04-4.05646E-15
 -1      1131 4.09709E-03-1.15697E-03-1.61509E-14
 -1      1132 4.07999E-03-1.16696E-03-1.54851E-14
 -1      1133 2.49449E-03-5.25128E-04-6.09063E-15
 -1      1134 2.25487E-03-4.44611E-04-5.06488E-15
 -1      1135 0.00000E+00 0.00000E+00 0.00000E+00
 -1      1136 0.00000E+00 0.00000E+00 0.00000E+00
 -1      1137 0.00000E+00 0.00000E+00 0.00000E+00
 -1      1138 0.00000E+00 0.00000E+00 0.00000E+00
 -1      1139 0.00000E+00 0.00000E+00 0.00000E+00
 -1      1140 0.00000E+00 0.00000E+00 0.00000E+00
 -1      1141 0.00000E+00 0.00000E+00 0.00000E+00
 -1      1142 0.00000E+00 0.00000E+00 0.00000E+00
 -1      1143 0.00000E+00 0.00000E+00 0.00000E+00
 -1      1144 0.00000E+00 0.00000E+00 0.00000E+00
 -1      1145 0.00000E+00 0.00000E+00 0.00000E+00
 -1      1146 0.00000E+00 0.00000E+00 0.00000E+00
 -1      1147 0.00000E+00 0.00000E+00 0.00000E+00
 -1      1148 0.00000E+00 0.00000E+00 0.00000E+00
 -1      1149 0.00000E+00 0.00000E+00 0.00000E+00
 -1      1150 0.00000E+00 0.00000E+00 0.00000E+00
 -1      1151 0.00000E+00 0.00000E+00 0.00000E+00
 -1      1152 2.39694E-04-1.64799E-04 3.72152E-17
 -1      1153 6.28253E-04-3.81918E-04 5.05374E-17
 -1      1154 9.52100E-04-5.35730E-04-3.35832E-17
 -1      1155 1.26123E-03-6.56226E-04-2.35299E-16
 -1      1156 1.56399E-03-7.59740E-04-5.56182E-16
 -1      1157 1.86391E-03-8.54299E-04-9.97344E-16
 -1      1158 2.16279E-03-9.44377E-04-1.56040E-15
 -1      1159 2.46144E-03-1.03280E-03-2.24786E-15
 -1      1160 2.76010E-03-1.12150E-03-3.06283E-15
 -1      1161 3.05875E-03-1.21186E-03-4.00201E-15
 -1      1162 3.35721E-03-1.30480E-03-5.06229E-15
 -1      1163 3.65527E-03-1.40094E-03-6.24194E-15
 -1      1164 3.95270E-03-1.50065E-03-7.53744E-15
 -1      1165 4.24929E-03-1.60410E-03-8.94833E-15
 -1      1166 4.54487E-03-1.71130E-03-1.04718E-14
 -1      1167 4.83935E-03-1.82216E-03-1.21074E-14
 -1      1168 5.13269E-03-1.93650E-03-1.38590E-14
 -1      1169 5.42496E-03-2.05411E-03-1.57265E-14
 -1      1170 5.71632E-03-2.17473E-03-1.77061E-14
 -1      1171 6.00702E-03-2.29815E-03-1.97953E-14
 -1      1172 6.29746E-03-2.42418E-03-2.19995E-14
 -1      1173 6.58812E-03-2.55270E-03-2.43172E-14
 -1      1174 6.87958E-03-2.68372E-03-2.67502E-14
 -1      1175 7.17255E-03-2.81732E-03-2.93014E-14
 -1      1176 7.46782E-03-2.95367E-03-3.19677E-14
 -1      1177 7.76632E-03-3.09294E-03-3.47373E-14
 -1      1178 8.06926E-03-3.23537E-03-3.76034E-14
 -1      1179 8.37829E-03-3.38139E-03-4.05669E-14
 -1      1180 8.69555E-03-3.53219E-03-4.36275E-14
 -1      1181 9.02346E-03-3.69035E-03-4.67701E-14
 -1      1182 9.36394E-03-3.86042E-03-4.99962E-14
 -1      1183 9.71729E-03-4.04887E-03-5.33057E-14
 -1      1184 1.00807E-02-4.26296E-03-5.66849E-14
 -1      1185 1.04469E-02-4.50807E-03-6.01378E-14
 -1      1186 1.08041E-02-4.78316E-03-6.36902E-14
 -1      1187 1.11380E-02-5.07541E-03-6.73240E-14
 -1      1188 1.14381E-02-5.35786E-03-7.10388E-14
 -1      1189 1.17054E-02-5.59565E-03-7.48475E-14
 -1      1190 1.19562E-02-5.76154E-03-7.87471E-14
 -1      1191 1.22152E-02-5.85146E-03-8.27273E-14
 -1      1192 1.25022E-02-5.88699E-03-8.67948E-14
 -1      1193 1.28222E-02-5.90230E-03-9.09276E-14
 -1      1194 1.31669E-02-5.92708E-03-9.51157E-14
 -1      1195 1.35219E-02-5.97735E-03-9.93675E-14
 -1      1196 1.38738E-02-6.05581E-03-1.03684E-13
 -1      1197 1.42136E-02-6.15671E-03-1.08042E-13
 -1      1198 1.45370E-02-6.27068E-03-1.12436E-13
 -1      1199 1.48437E-02-6.38769E-03-1.16852E-13
 -1      1200 1.51369E-02-6.49906E-03-1.21281E-13
 -1      1201 1.54156E-02-6.59840E-03-1.25622E-13
 -1      1202 1.57466E-04 1.14060E-04 1.41488E-17
 -1      1203 3.77849E-04 2.36100E-04-5.51249E-17
 -1      1204 5.66176E-04 3.01888E-04-2.54001E-16
 -1      1205 7.47764E-04 3.29833E-04-5.96453E-16
 -1      1206 9.28148E-04 3.30549E-04-1.07875E-15
 -1      1207 1.11026E-03 3.10097E-04-1.69876E-15
 -1      1208 1.29565E-03 2.72392E-04-2.45399E-15
 -1      1209 1.48503E-03 2.20257E-04-3.34170E-15
 -1      1210 1.67871E-03 1.55869E-04-4.36053E-15
 -1      1211 1.87671E-03 8.09534E-05-5.50718E-15
 -1      1212 2.07892E-03-3.11492E-06-6.78013E-15
 -1      1213 2.28518E-03-9.52374E-05-8.17643E-15
 -1      1214 2.49528E-03-1.94540E-04-9.69443E-15
 -1      1215 2.70904E-03-3.00328E-04-1.13357E-14
 -1      1216 2.92633E-03-4.12047E-04-1.30973E-14
 -1      1217 3.14707E-03-5.29249E-04-1.49822E-14
 -1      1218 3.37125E-03-6.51561E-04-1.69855E-14
 -1      1219 3.59897E-03-7.78652E-04-1.91057E-14
 -1      1220 3.83044E-03-9.10194E-04-2.13400E-14
 -1      1221 4.06597E-03-1.04583E-03-2.36864E-14
 -1      1222 4.30602E-03-1.18512E-03-2.61417E-14
 -1      1223 4.55119E-03-1.32749E-03-2.87042E-14
 -1      1224 4.80219E-03-1.47214E-03-3.13711E-14
 -1      1225 5.05984E-03-1.61802E-03-3.41395E-14
 -1      1226 5.32500E-03-1.76369E-03-3.70020E-14
 -1      1227 5.59849E-03-1.90731E-03-3.99662E-14
 -1      1228 5.88085E-03-2.04657E-03-4.30313E-14
 -1      1229 6.17213E-03-2.17893E-03-4.61830E-14
 -1      1230 6.47173E-03-2.30210E-03-4.94166E-14
 -1      1231 6.77861E-03-2.41436E-03-5.27280E-14
 -1      1232 7.09154E-03-2.51429E-03-5.61159E-14
 -1      1233 7.40870E-03-2.60032E-03-5.95803E-14
 -1      1234 7.72689E-03-2.67106E-03-6.31187E-14
 -1      1235 8.04091E-03-2.72680E-03-6.67212E-14
 -1      1236 8.34400E-03-2.77189E-03-7.03969E-14
 -1      1237 8.62957E-03-2.81666E-03-7.41702E-14
 -1      1238 8.89436E-03-2.87710E-03-7.80347E-14
 -1      1239 9.14133E-03-2.97083E-03-8.19847E-14
 -1      1240 9.37995E-03-3.11052E-03-8.60120E-14
 -1      1241 9.62278E-03-3.29820E-03-9.01073E-14
 -1      1242 9.88027E-03-3.52485E-03-9.42808E-14
 -1      1243 1.01572E-02-3.77514E-03-9.85227E-14
 -1      1244 1.04520E-02-4.03325E-03-1.02831E-13
 -1      1245 1.07589E-02-4.28768E-03-1.07217E-13
 -1      1246 1.10704E-02-4.53287E-03-1.11654E-13
 -1      1247 1.13802E-02-4.76854E-03-1.16106E-13
 -1      1248 1.16840E-02-4.99798E-03-1.20571E-13
 -1      1249 1.19800E-02-5.22618E-03-1.25054E-13
 -1      1250 1.22691E-02-5.45796E-03-1.29548E-13
 -1      1251 1.25475E-02-5.68946E-03-1.33942E-13
 -1      1252 1.28011E-02-5.84579E-03-1.35852E-13
 -1      1253 1.30398E-02-5.93016E-03-1.35425E-13
 -1      1254 1.32846E-02-6.01071E-03-1.34995E-13
 -1      1255 1.35344E-02-6.08348E-03-1.34553E-13
 -1      1256 1.37855E-02-6.14525E-03-1.34097E-13
 -1      1257 1.40304E-02-6.19344E-03-1.33611E-13
 -1      1258 1.42648E-02-6.22784E-03-1.33117E-13
 -1      1259 1.44834E-02-6.24969E-03-1.32612E-13
 -1      1260 1.46779E-02-6.26196E-03-1.32115E-13
 -1      1261 1.48439E-02-6.27001E-03-1.31623E-13
 -1      1262 1.49806E-02-6.28026E-03-1.31123E-13
 -1      1263 1.50901E-02-6.29882E-03-1.30655E-13
 -1      1264 1.51796E-02-6.33055E-03-1.30191E-13
 -1      1265 1.52581E-02-6.37852E-03-1.29673E-13
 -1      1266 1.53337E-02-6.44255E-03-1.29119E-13
 -1      1267 1.54148E-02-6.51948E-03-1.28567E-13
 -1      1268 1.55043E-02-6.60278E-03-1.28020E-13
 -1      1269 1.29446E-02-4.67914E-03-9.03503E-14
 -1      1270 1.27494E-02-4.50589E-03-9.01592E-14
 -1      1271 1.24544E-02-4.31495E-03-8.95696E-14
 -1      1272 1.20929E-02-4.11748E-03-8.86168E-14
 -1      1273 1.16891E-02-3.92357E-03-8.73652E-14
 -1      1274 1.12479E-02-3.74148E-03-8.58066E-14
 -1      1275 1.07910E-02-3.59021E-03-8.40272E-14
 -1      1276 1.03281E-02-3.48825E-03-8.20754E-14
 -1      1277 9.89022E-03-3.44544E-03-8.01060E-14
 -1      1278 9.49361E-03-3.45818E-03-7.82451E-14
 -1      1279 9.13528E-03-3.51403E-03-7.65089E-14
 -1      1280 8.83336E-03-3.60093E-03-7.49931E-14
 -1      1281 8.59186E-03-3.71688E-03-7.36754E-14
 -1      1282 8.45034E-03-3.84909E-03-7.27075E-14
 -1      1283 8.42518E-03-3.99090E-03-7.21351E-14
 -1      1284 8.52349E-03-4.15697E-03-7.19668E-14
 -1      1285 8.73460E-03-4.33918E-03-7.22335E-14
 -1      1286 9.02671E-03-4.52973E-03-7.28500E-14
 -1      1287 9.38646E-03-4.73166E-03-7.38002E-14
 -1      1288 9.79915E-03-4.93715E-03-7.50826E-14
 -1      1289 1.02388E-02-5.12464E-03-7.66325E-14
 -1      1290 1.06968E-02-5.27691E-03-7.84079E-14
 -1      1291 1.11463E-02-5.37482E-03-8.02861E-14
 -1      1292 1.15653E-02-5.40964E-03-8.21384E-14
 -1      1293 1.19643E-02-5.38848E-03-8.39901E-14
 -1      1294 1.23193E-02-5.32274E-03-8.57365E-14
 -1      1295 1.26181E-02-5.22634E-03-8.72846E-14
 -1      1296 1.28511E-02-5.10789E-03-8.85821E-14
 -1      1297 1.29917E-02-4.97813E-03-8.95479E-14
 -1      1298 1.30259E-02-4.83653E-03-9.01485E-14
 -1      1299 1.87881E-04-1.21410E-04 1.84992E-17
 -1      1300 1.23097E-04-6.11316E-05-9.94755E-18
 -1      1301 1.30403E-04-7.30392E-05-2.50722E-18
 -1      1302 1.15329E-04-4.63361E-05-2.27818E-17
 -1      1303 1.18963E-04-5.29560E-05-1.84992E-17
 -1      1304 2.45895E-04-1.17600E-04-4.31919E-17
 -1      1305 1.10591E-04-3.59589E-05-3.11166E-17
 -1      1306 1.13019E-04-4.08898E-05-2.85416E-17
 -1      1307 2.31506E-04-9.02847E-05-6.76407E-17
 -1      1308 1.06854E-04-2.75751E-05-3.69848E-17
 -1      1309 1.08767E-04-3.16472E-05-3.53585E-17
 -1      1310 2.21947E-04-7.02180E-05-8.44729E-17
 -1      1311 1.03669E-04-2.04365E-05-4.07796E-17
 -1      1312 1.05290E-04-2.39379E-05-3.98038E-17
 -1      1313 2.14408E-04-5.39448E-05-9.61281E-17
 -1      1314 1.00707E-04-1.38669E-05-4.38424E-17
 -1      1315 1.02206E-04-1.71037E-05-4.31241E-17
 -1      1316 2.07877E-04-3.97745E-05-1.04449E-16
 -1      1317 9.79116E-05-7.73225E-06-4.59566E-17
 -1      1318 9.93197E-05-1.07678E-05-4.54145E-17
 -1      1319 2.01881E-04-2.68035E-05-1.10697E-16
 -1      1320 9.52184E-05-1.84150E-06-4.76778E-17
 -1      1321 9.65691E-05-4.76892E-06-4.72848E-17
 -1      1322 1.96248E-04-1.46450E-05-1.15400E-16
 -1      1323 9.25908E-05 3.96132E-06-4.87213E-17
 -1      1324 9.39015E-05 1.06408E-06-4.84096E-17
 -1      1325 1.90848E-04-2.92137E-06-1.18747E-16
 -1      1326 9.00144E-05 9.82054E-06-4.92770E-17
 -1      1327 9.12891E-05 6.87881E-06-4.91008E-17
 -1      1328 1.85612E-04 8.68182E-06-1.20780E-16
 -1      1329 8.75442E-05 1.57829E-05-4.91144E-17
 -1      1330 8.87478E-05 1.27679E-05-4.91550E-17
 -1      1331 1.80564E-04 2.03630E-05-1.21444E-16
 -1      1332 8.51549E-05 2.22479E-05-4.77727E-17
 -1      1333 8.62809E-05 1.89454E-05-4.82063E-17
 -1      1334 1.75704E-04 3.25530E-05-1.20143E-16
 -1      1335 8.30580E-05 2.94199E-05-4.48589E-17
 -1      1336 8.39512E-05 2.57011E-05-4.60379E-17
 -1      1337 1.71156E-04 4.58307E-05-1.16199E-16
 -1      1338 8.17777E-05 3.79625E-05-3.84621E-17
 -1      1339 8.20446E-05 3.34098E-05-4.13217E-17
 -1      1340 1.67433E-04 6.09144E-05-1.07743E-16
 -1      1341 8.32733E-05 5.00903E-05-2.63055E-17
 -1      1342 8.15345E-05 4.32491E-05-3.23499E-17
 -1      1343 1.66115E-04 7.97972E-05-9.15473E-17
 -1      1344 1.08986E-04 7.90254E-05-5.75982E-18
 -1      1345 9.51878E-05 6.28617E-05-1.95563E-17
 -1      1346 1.81267E-04 1.09514E-04-7.11914E-17
 -1      1347 2.31336E-04 1.56387E-04-3.85773E-17
 -1      1348 4.76229E-04-2.93531E-04 1.69949E-17
 -1      1349 6.49615E-04-3.83559E-04-6.04443E-18
 -1      1350 8.16263E-04-4.60394E-04-5.82081E-17
 -1      1351 9.78247E-04-5.27448E-04-1.38669E-16
 -1      1352 6.84961E-04-3.80790E-04-7.41188E-17
 -1      1353 1.13644E-03-5.88069E-04-2.47063E-16
 -1      1354 1.29187E-03-6.43421E-04-3.84390E-16
 -1      1355 1.01240E-03-5.17380E-04-2.50586E-16
 -1      1356 1.44539E-03-6.95479E-04-5.50978E-16
 -1      1357 1.59752E-03-7.44686E-04-7.48181E-16
 -1      1358 1.32668E-03-6.29862E-04-5.39824E-16
 -1      1359 1.74870E-03-7.92129E-04-9.74833E-16
 -1      1360 1.89918E-03-8.38095E-04-1.23161E-15
 -1      1361 1.63331E-03-7.29269E-04-9.46075E-16
 -1      1362 2.04922E-03-8.83196E-04-1.51920E-15
 -1      1363 2.19890E-03-9.27674E-04-1.83725E-15
 -1      1364 1.93562E-03-8.21729E-04-1.47205E-15
 -1      1365 2.34836E-03-9.71901E-04-2.18658E-15
 -1      1366 2.49763E-03-1.01607E-03-2.56707E-15
 -1      1367 2.23548E-03-9.10975E-04-2.11999E-15
 -1      1368 2.64677E-03-1.06043E-03-2.97897E-15
 -1      1369 2.79577E-03-1.10512E-03-3.42163E-15
 -1      1370 2.53386E-03-9.99496E-04-2.89104E-15
 -1      1371 2.94466E-03-1.15031E-03-3.89513E-15
 -1      1372 3.09343E-03-1.19610E-03-4.39910E-15
 -1      1373 2.83122E-03-1.08901E-03-3.78476E-15
 -1      1374 3.24207E-03-1.24259E-03-4.93206E-15
 -1      1375 3.39056E-03-1.28986E-03-5.49513E-15
 -1      1376 3.12775E-03-1.18069E-03-4.79900E-15
 -1      1377 3.53889E-03-1.33796E-03-6.08785E-15
 -1      1378 3.68704E-03-1.38695E-03-6.71051E-15
 -1      1379 3.42348E-03-1.27534E-03-5.93168E-15
 -1      1380 3.83500E-03-1.43686E-03-7.36145E-15
 -1      1381 3.98273E-03-1.48770E-03-8.04032E-15
 -1      1382 3.71837E-03-1.37343E-03-7.18176E-15
 -1      1383 4.13024E-03-1.53948E-03-8.74909E-15
 -1      1384 4.27750E-03-1.59222E-03-9.48617E-15
 -1      1385 4.01234E-03-1.47524E-03-8.54781E-15
 -1      1386 4.42450E-03-1.64589E-03-1.02511E-14
 -1      1387 4.57124E-03-1.70049E-03-1.10439E-14
 -1      1388 4.30531E-03-1.58084E-03-1.00272E-14
 -1      1389 4.71771E-03-1.75599E-03-1.18658E-14
 -1      1390 4.86391E-03-1.81238E-03-1.27161E-14
 -1      1391 4.59723E-03-1.69017E-03-1.16202E-14
 -1      1392 5.00984E-03-1.86963E-03-1.35953E-14
 -1      1393 5.15551E-03-1.92770E-03-1.45036E-14
 -1      1394 4.88811E-03-1.80309E-03-1.33285E-14
 -1      1395 5.30095E-03-1.98657E-03-1.54398E-14
 -1      1396 5.44616E-03-2.04621E-03-1.64040E-14
 -1      1397 5.17798E-03-1.91936E-03-1.51502E-14
 -1      1398 5.59118E-03-2.10657E-03-1.73965E-14
 -1      1399 5.73603E-03-2.16765E-03-1.84169E-14
 -1      1400 5.46697E-03-2.03873E-03-1.70849E-14
 -1      1401 5.88075E-03-2.22938E-03-1.94648E-14
 -1      1402 6.02539E-03-2.29178E-03-2.05400E-14
 -1      1403 5.75527E-03-2.16095E-03-1.91310E-14
 -1      1404 6.16999E-03-2.35479E-03-2.16451E-14
 -1      1405 6.31462E-03-2.41843E-03-2.27801E-14
 -1      1406 6.04316E-03-2.28576E-03-2.12896E-14
 -1      1407 6.45933E-03-2.48265E-03-2.39408E-14
 -1      1408 6.60420E-03-2.54749E-03-2.51297E-14
 -1      1409 6.33100E-03-2.41299E-03-2.35607E-14
 -1      1410 6.74930E-03-2.61292E-03-2.63497E-14
 -1      1411 6.89470E-03-2.67897E-03-2.75987E-14
 -1      1412 6.61927E-03-2.54257E-03-2.59474E-14
 -1      1413 7.04052E-03-2.74565E-03-2.88771E-14
 -1      1414 7.18681E-03-2.81298E-03-3.01827E-14
 -1      1415 6.90853E-03-2.67450E-03-2.84502E-14
 -1      1416 7.33371E-03-2.88097E-03-3.15162E-14
 -1      1417 7.48131E-03-2.94967E-03-3.28782E-14
 -1      1418 7.19943E-03-2.80890E-03-3.10653E-14
 -1      1419 7.62975E-03-3.01907E-03-3.42646E-14
 -1      1420 7.77915E-03-3.08921E-03-3.56744E-14
 -1      1421 7.49273E-03-2.94591E-03-3.37891E-14
 -1      1422 7.92968E-03-3.16009E-03-3.71103E-14
 -1      1423 8.08150E-03-3.23180E-03-3.85695E-14
 -1      1424 7.78931E-03-3.08570E-03-3.66145E-14
 -1      1425 8.23483E-03-3.30436E-03-4.00531E-14
 -1      1426 8.38989E-03-3.37795E-03-4.15615E-14
 -1      1427 8.09026E-03-3.22845E-03-3.95385E-14
 -1      1428 8.54691E-03-3.45273E-03-4.30924E-14
 -1      1429 8.70613E-03-3.52905E-03-4.46453E-14
 -1      1430 8.39691E-03-3.37479E-03-4.25561E-14
 -1      1431 8.86777E-03-3.60735E-03-4.62188E-14
 -1      1432 9.03201E-03-3.68816E-03-4.78117E-14
 -1      1433 8.71080E-03-3.52640E-03-4.56632E-14
 -1      1434 9.19898E-03-3.77230E-03-4.94270E-14
 -1      1435 9.36868E-03-3.86049E-03-5.10628E-14
 -1      1436 9.03337E-03-3.68687E-03-4.88565E-14
 -1      1437 9.54100E-03-3.95384E-03-5.27172E-14
 -1      1438 9.71565E-03-4.05314E-03-5.43924E-14
 -1      1439 9.36546E-03-3.86208E-03-5.21299E-14
 -1      1440 9.89220E-03-4.15960E-03-5.60845E-14
 -1      1441 1.00699E-02-4.27373E-03-5.77921E-14
 -1      1442 9.70655E-03-4.05971E-03-5.54795E-14
 -1      1443 1.02480E-02-4.39634E-03-5.95240E-14
 -1      1444 1.04252E-02-4.52719E-03-6.12760E-14
 -1      1445 1.00542E-02-4.28745E-03-5.89059E-14
 -1      1446 1.06005E-02-4.66581E-03-6.30500E-14
 -1      1447 1.07724E-02-4.81056E-03-6.48467E-14
 -1      1448 1.04036E-02-4.54936E-03-6.24126E-14
 -1      1449 1.09397E-02-4.95892E-03-6.66638E-14
 -1      1450 1.11015E-02-5.10744E-03-6.84992E-14
 -1      1451 1.07475E-02-4.84005E-03-6.60025E-14
 -1      1452 1.12572E-02-5.25157E-03-7.03576E-14
 -1      1453 1.14068E-02-5.38669E-03-7.22373E-14
 -1      1454 1.10784E-02-5.13919E-03-6.96754E-14
 -1      1455 1.15510E-02-5.50785E-03-7.41402E-14
 -1      1456 1.16915E-02-5.61140E-03-7.60693E-14
 -1      1457 1.13919E-02-5.41171E-03-7.34353E-14
 -1      1458 1.18298E-02-5.69471E-03-7.80166E-14
 -1      1459 1.19687E-02-5.75724E-03-7.99842E-14
 -1      1460 1.16915E-02-5.62004E-03-7.72854E-14
 -1      1461 1.21098E-02-5.80048E-03-8.19763E-14
 -1      1462 1.22553E-02-5.82734E-03-8.39897E-14
 -1      1463 1.19886E-02-5.74453E-03-8.12240E-14
 -1      1464 1.24061E-02-5.84233E-03-8.60212E-14
 -1      1465 1.25627E-02-5.85004E-03-8.80737E-14
 -1      1466 1.22957E-02-5.79626E-03-8.52492E-14
 -1      1467 1.27248E-02-5.85532E-03-9.01417E-14
 -1      1468 1.28915E-02-5.86199E-03-9.22243E-14
 -1      1469 1.26188E-02-5.80961E-03-8.93545E-14
 -1      1470 1.30618E-02-5.87314E-03-9.43225E-14
 -1      1471 1.32343E-02-5.89078E-03-9.64356E-14
 -1      1472 1.29552E-02-5.82169E-03-9.35262E-14
 -1      1473 1.34077E-02-5.91581E-03-9.85647E-14
 -1      1474 1.35808E-02-5.94861E-03-1.00706E-13
 -1      1475 1.32975E-02-5.85675E-03-9.77566E-14
 -1      1476 1.37525E-02-5.98851E-03-1.02861E-13
 -1      1477 1.39220E-02-6.03491E-03-1.05031E-13
 -1      1478 1.36381E-02-5.92296E-03-1.02043E-13
 -1      1479 1.40886E-02-6.08645E-03-1.07208E-13
 -1      1480 1.42520E-02-6.14207E-03-1.09391E-13
 -1      1481 1.39712E-02-6.01692E-03-1.06374E-13
 -1      1482 1.44120E-02-6.20025E-03-1.11588E-13
 -1      1483 1.45686E-02-6.25985E-03-1.13790E-13
 -1      1484 1.42936E-02-6.12957E-03-1.10744E-13
 -1      1485 1.47218E-02-6.31946E-03-1.15996E-13
 -1      1486 1.48720E-02-6.37804E-03-1.18206E-13
 -1      1487 1.46045E-02-6.25019E-03-1.15141E-13
 -1      1488 1.50196E-02-6.43456E-03-1.20421E-13
 -1      1489 1.51650E-02-6.48828E-03-1.22640E-13
 -1      1490 1.49045E-02-6.36868E-03-1.19559E-13
 -1      1491 1.53684E-02-6.55713E-03-1.25897E-13
 -1      1492 1.52560E-02-6.49588E-03-1.25030E-13
 -1      1493 4.42777E-04 2.51271E-04-1.67204E-16
 -1      1494 3.39816E-04 2.10433E-04-8.41747E-17
 -1      1495 3.10471E-04 1.84864E-04-1.08434E-16
 -1      1496 6.38897E-04 2.98283E-04-4.40125E-16
 -1      1497 5.42103E-04 2.79325E-04-2.86155E-16
 -1      1498 5.19902E-04 2.55605E-04-3.11559E-16
 -1      1499 8.28645E-04 3.12939E-04-8.50590E-16
 -1      1500 7.34139E-04 3.09042E-04-6.28078E-16
 -1      1501 7.20389E-04 2.87226E-04-6.53428E-16
 -1      1502 1.01701E-03 3.03322E-04-1.39872E-15
 -1      1503 9.22748E-04 3.10841E-04-1.10751E-15
 -1      1504 9.16423E-04 2.90295E-04-1.13045E-15
 -1      1505 1.20669E-03 2.74343E-04-2.08113E-15
 -1      1506 1.11155E-03 2.91038E-04-1.72314E-15
 -1      1507 1.11153E-03 2.71293E-04-1.74178E-15
 -1      1508 1.39909E-03 2.29399E-04-2.89692E-15
 -1      1509 1.30248E-03 2.53704E-04-2.47241E-15
 -1      1510 1.30784E-03 2.34446E-04-2.48576E-15
 -1      1511 1.59491E-03 1.71034E-04-3.84336E-15
 -1      1512 1.49654E-03 2.01765E-04-3.35399E-15
 -1      1513 1.50653E-03 1.82788E-04-3.36086E-15
 -1      1514 1.79445E-03 1.01235E-04-4.91877E-15
 -1      1515 1.69421E-03 1.37459E-04-4.36510E-15
 -1      1516 1.70819E-03 1.18633E-04-4.36516E-15
 -1      1517 1.99779E-03 2.15747E-05-6.12036E-15
 -1      1518 1.89565E-03 6.25525E-05-5.50405E-15
 -1      1519 1.91312E-03 4.37915E-05-5.49588E-15
 -1      1520 2.20486E-03-6.66938E-05-7.44669E-15
 -1      1521 2.10086E-03-2.15518E-05-6.76807E-15
 -1      1522 2.12140E-03-4.03040E-05-6.75148E-15
 -1      1523 2.41555E-03-1.62577E-04-8.89439E-15
 -1      1524 2.30976E-03-1.13739E-04-8.15520E-15
 -1      1525 2.33302E-03-1.32518E-04-8.12957E-15
 -1      1526 2.62975E-03-2.65288E-04-1.04647E-14
 -1      1527 2.52222E-03-2.13124E-04-9.66412E-15
 -1      1528 2.54791E-03-2.31956E-04-9.62919E-15
 -1      1529 2.84732E-03-3.74205E-04-1.21560E-14
 -1      1530 2.73812E-03-3.19008E-04-1.12952E-14
 -1      1531 2.76599E-03-3.37909E-04-1.12505E-14
 -1      1532 3.06820E-03-4.88830E-04-1.39678E-14
 -1      1533 2.95735E-03-4.30835E-04-1.30470E-14
 -1      1534 2.98720E-03-4.49821E-04-1.29918E-14
 -1      1535 3.29236E-03-6.08762E-04-1.59012E-14
 -1      1536 3.17987E-03-5.48161E-04-1.49193E-14
 -1      1537 3.21151E-03-5.67248E-04-1.48533E-14
 -1      1538 3.51986E-03-7.33660E-04-1.79512E-14
 -1      1539 3.40569E-03-6.70617E-04-1.69116E-14
 -1      1540 3.43895E-03-6.89827E-04-1.68334E-14
 -1      1541 3.75084E-03-8.63209E-04-2.01166E-14
 -1      1542 3.63490E-03-7.97881E-04-1.90196E-14
 -1      1543 3.66961E-03-8.17243E-04-1.89300E-14
 -1      1544 3.98553E-03-9.97088E-04-2.23957E-14
 -1      1545 3.86770E-03-9.29640E-04-2.12426E-14
 -1      1546 3.90367E-03-9.49192E-04-2.11411E-14
 -1      1547 4.22430E-03-1.13492E-03-2.47843E-14
 -1      1548 4.10439E-03-1.06555E-03-2.35759E-14
 -1      1549 4.14140E-03-1.08535E-03-2.34629E-14
 -1      1550 4.46761E-03-1.27622E-03-2.72813E-14
 -1      1551 4.34536E-03-1.20519E-03-2.60191E-14
 -1      1552 4.38315E-03-1.22530E-03-2.58939E-14
 -1      1553 4.71604E-03-1.42035E-03-2.98852E-14
 -1      1554 4.59115E-03-1.34800E-03-2.85702E-14
 -1      1555 4.62940E-03-1.36851E-03-2.84332E-14
 -1      1556 4.97026E-03-1.56640E-03-3.25903E-14
 -1      1557 4.84238E-03-1.49322E-03-3.12253E-14
 -1      1558 4.88070E-03-1.51425E-03-3.10766E-14
 -1      1559 5.23102E-03-1.71318E-03-3.53968E-14
 -1      1560 5.09978E-03-1.63981E-03-3.39813E-14
 -1      1561 5.13765E-03-1.66148E-03-3.38215E-14
 -1      1562 5.49903E-03-1.85905E-03-3.82998E-14
 -1      1563 5.36407E-03-1.78636E-03-3.68361E-14
 -1      1564 5.40092E-03-1.80883E-03-3.66653E-14
 -1      1565 5.77489E-03-2.00194E-03-4.13039E-14
 -1      1566 5.63594E-03-1.93103E-03-3.97888E-14
 -1      1567 5.67109E-03-1.95446E-03-3.96088E-14
 -1      1568 6.05892E-03-2.13934E-03-4.44007E-14
 -1      1569 5.91588E-03-2.07149E-03-4.28420E-14
 -1      1570 5.94863E-03-2.09606E-03-4.26485E-14
 -1      1571 6.35091E-03-2.26865E-03-4.75833E-14
 -1      1572 6.20394E-03-2.20514E-03-4.59822E-14
 -1      1573 6.23368E-03-2.23095E-03-4.57789E-14
 -1      1574 6.65020E-03-2.38782E-03-5.08489E-14
 -1      1575 6.49969E-03-2.32960E-03-4.92057E-14
 -1      1576 6.52589E-03-2.35666E-03-4.89925E-14
 -1      1577 6.95579E-03-2.49533E-03-5.41862E-14
 -1      1578 6.80227E-03-2.44310E-03-5.25085E-14
 -1      1579 6.82453E-03-2.47137E-03-5.22856E-14
 -1      1580 7.26632E-03-2.58968E-03-5.76059E-14
 -1      1581 7.11053E-03-2.54420E-03-5.58859E-14
 -1      1582 7.12863E-03-2.57366E-03-5.56557E-14
 -1      1583 7.57968E-03-2.66914E-03-6.10982E-14
 -1      1584 7.42281E-03-2.63128E-03-5.93427E-14
 -1      1585 7.43686E-03-2.66185E-03-5.91019E-14
 -1      1586 7.89242E-03-2.73259E-03-6.46623E-14
 -1      1587 7.73640E-03-2.70272E-03-6.28716E-14
 -1      1588 7.74708E-03-2.73413E-03-6.26232E-14
 -1      1589 8.19975E-03-2.78165E-03-6.82966E-14
 -1      1590 8.04712E-03-2.75849E-03-6.64703E-14
 -1      1591 8.05599E-03-2.79017E-03-6.62158E-14
 -1      1592 8.49631E-03-2.82316E-03-7.20137E-14
 -1      1593 8.34973E-03-2.80255E-03-7.01440E-14
 -1      1594 8.35942E-03-2.83356E-03-6.98855E-14
 -1      1595 8.77807E-03-2.87056E-03-7.58231E-14
 -1      1596 8.63923E-03-2.84503E-03-7.39068E-14
 -1      1597 8.65326E-03-2.87415E-03-7.36405E-14
 -1      1598 9.04462E-03-2.94204E-03-7.97204E-14
 -1      1599 8.91309E-03-2.90222E-03-7.77609E-14
 -1      1600 8.93517E-03-2.92842E-03-7.74839E-14
 -1      1601 9.30058E-03-3.05450E-03-8.36983E-14
 -1      1602 9.17342E-03-2.99251E-03-8.16985E-14
 -1      1603 9.20640E-03-3.01550E-03-8.14114E-14
 -1      1604 9.55469E-03-3.21694E-03-8.77520E-14
 -1      1605 9.42723E-03-3.12964E-03-8.57168E-14
 -1      1606 9.47237E-03-3.15005E-03-8.54194E-14
 -1      1607 9.81598E-03-3.42548E-03-9.18798E-14
 -1      1608 9.68389E-03-3.31621E-03-8.98069E-14
 -1      1609 9.74049E-03-3.33538E-03-8.95020E-14
 -1      1610 1.00906E-02-3.66706E-03-9.60800E-14
 -1      1611 9.95140E-03-3.54323E-03-9.39707E-14
 -1      1612 1.00171E-02-3.56247E-03-9.36593E-14
 -1      1613 1.03801E-02-3.92460E-03-1.00351E-13
 -1      1614 1.02336E-02-3.79482E-03-9.82071E-14
 -1      1615 1.03052E-02-3.81502E-03-9.78885E-14
 -1      1616 1.06814E-02-4.18338E-03-1.04686E-13
 -1      1617 1.05295E-02-4.05447E-03-1.02509E-13
 -1      1618 1.06040E-02-4.07590E-03-1.02184E-13
 -1      1619 1.09893E-02-4.43442E-03-1.09086E-13
 -1      1620 1.08349E-02-4.31010E-03-1.06881E-13
 -1      1621 1.09099E-02-4.33253E-03-1.06543E-13
 -1      1622 1.12984E-02-4.67485E-03-1.13525E-13
 -1      1623 1.11441E-02-4.55589E-03-1.11303E-13
 -1      1624 1.12183E-02-4.57881E-03-1.10952E-13
 -1      1625 1.16041E-02-4.90647E-03-1.17974E-13
 -1      1626 1.14519E-02-4.79150E-03-1.15747E-13
 -1      1627 1.15253E-02-4.81438E-03-1.15389E-13
 -1      1628 1.19040E-02-5.13382E-03-1.22447E-13
 -1      1629 1.17549E-02-5.02035E-03-1.20208E-13
 -1      1630 1.18278E-02-5.04271E-03-1.19845E-13
 -1      1631 1.21974E-02-5.36232E-03-1.26933E-13
 -1      1632 1.20514E-02-5.24764E-03-1.24688E-13
 -1      1633 1.21247E-02-5.26917E-03-1.24322E-13
 -1      1634 1.24858E-02-5.59630E-03-1.31431E-13
 -1      1635 1.23421E-02-5.47851E-03-1.29180E-13
 -1      1636 1.24160E-02-5.49913E-03-1.28813E-13
 -1      1637 1.26653E-02-5.73153E-03-1.33718E-13
 -1      1638 1.29769E-02-5.84491E-03-1.33369E-13
 -1      1639 1.28559E-02-5.80419E-03-1.33583E-13
 -1      1640 1.32241E-02-5.92243E-03-1.32935E-13
 -1      1641 1.30998E-02-5.88444E-03-1.33153E-13
 -1      1642 1.29149E-02-5.76084E-03-1.31311E-13
 -1      1643 1.34760E-02-5.99248E-03-1.32489E-13
 -1      1644 1.33497E-02-5.95854E-03-1.32712E-13
 -1      1645 1.31644E-02-5.83680E-03-1.30874E-13
 -1      1646 1.37282E-02-6.05280E-03-1.32028E-13
 -1      1647 1.36024E-02-6.02397E-03-1.32263E-13
 -1      1648 1.34180E-02-5.90582E-03-1.30427E-13
 -1      1649 1.39708E-02-6.10120E-03-1.31552E-13
 -1      1650 1.38506E-02-6.07840E-03-1.31792E-13
 -1      1651 1.36688E-02-5.96580E-03-1.29969E-13
 -1      1652 1.42051E-02-6.13917E-03-1.31063E-13
 -1      1653 1.40900E-02-6.12156E-03-1.31309E-13
 -1      1654 1.39126E-02-6.01642E-03-1.29496E-13
 -1      1655 1.44196E-02-6.16721E-03-1.30568E-13
 -1      1656 1.43153E-02-6.15427E-03-1.30813E-13
 -1      1657 1.41440E-02-6.05811E-03-1.29011E-13
 -1      1658 1.46080E-02-6.18851E-03-1.30076E-13
 -1      1659 1.45173E-02-6.17845E-03-1.30323E-13
 -1      1660 1.43536E-02-6.09193E-03-1.28524E-13
 -1      1661 1.47665E-02-6.20770E-03-1.29585E-13
 -1      1662 1.46911E-02-6.19806E-03-1.29831E-13
 -1      1663 1.45352E-02-6.12090E-03-1.28037E-13
 -1      1664 1.48953E-02-6.23000E-03-1.29094E-13
 -1      1665 1.48345E-02-6.21814E-03-1.29339E-13
 -1      1666 1.46859E-02-6.14910E-03-1.27549E-13
 -1      1667 1.49967E-02-6.25965E-03-1.28621E-13
 -1      1668 1.49488E-02-6.24362E-03-1.28856E-13
 -1      1669 1.48059E-02-6.18063E-03-1.27064E-13
 -1      1670 1.50813E-02-6.30115E-03-1.28128E-13
 -1      1671 1.50409E-02-6.27883E-03-1.28380E-13
 -1      1672 1.49015E-02-6.21947E-03-1.26575E-13
 -1      1673 1.51562E-02-6.35571E-03-1.27600E-13
 -1      1674 1.51194E-02-6.32678E-03-1.27871E-13
 -1      1675 1.49810E-02-6.26859E-03-1.26066E-13
 -1      1676 1.52307E-02-6.42275E-03-1.27050E-13
 -1      1677 1.51929E-02-6.38779E-03-1.27326E-13
 -1      1678 1.50532E-02-6.32862E-03-1.25532E-13
 -1      1679 1.52625E-02-6.47781E-03-1.25904E-13
 -1      1680 1.52208E-02-6.43867E-03-1.26177E-13
 -1      1681 1.50781E-02-6.37640E-03-1.24389E-13
 -1      1682 1.50585E-02-6.40748E-03-1.22649E-13
 -1      1683 1.29159E-02-4.70815E-03-9.11819E-14
 -1      1684 1.29887E-02-4.76126E-03-9.11797E-14
 -1      1685 1.26587E-02-4.57125E-03-9.09250E-14
 -1      1686 1.27932E-02-4.64143E-03-9.11234E-14
 -1      1687 1.22977E-02-4.38640E-03-9.01682E-14
 -1      1688 1.24740E-02-4.47672E-03-9.05699E-14
 -1      1689 1.18934E-02-4.16373E-03-8.89979E-14
 -1      1690 1.20851E-02-4.26615E-03-8.95505E-14
 -1      1691 1.14656E-02-3.93237E-03-8.75555E-14
 -1      1692 1.16642E-02-4.04025E-03-8.82586E-14
 -1      1693 1.10168E-02-3.70886E-03-8.58428E-14
 -1      1694 1.12159E-02-3.81231E-03-8.66993E-14
 -1      1695 1.06098E-02-3.52824E-03-8.38403E-14
 -1      1696 1.07950E-02-3.60264E-03-8.47593E-14
 -1      1697 1.02025E-02-3.42117E-03-8.16640E-14
 -1      1698 1.03875E-02-3.45857E-03-8.26915E-14
 -1      1699 9.83220E-03-3.41031E-03-7.95722E-14
 -1      1700 9.99725E-03-3.40690E-03-8.05026E-14
 -1      1701 9.47556E-03-3.46527E-03-7.75560E-14
 -1      1702 9.64047E-03-3.43132E-03-7.84728E-14
 -1      1703 9.13669E-03-3.56511E-03-7.57283E-14
 -1      1704 9.28883E-03-3.51524E-03-7.65342E-14
 -1      1705 8.82645E-03-3.67803E-03-7.41801E-14
 -1      1706 8.96288E-03-3.62364E-03-7.48758E-14
 -1      1707 8.57070E-03-3.80664E-03-7.26950E-14
 -1      1708 8.68350E-03-3.75145E-03-7.32932E-14
 -1      1709 8.42625E-03-3.90339E-03-7.18904E-14
 -1      1710 8.47497E-03-3.85871E-03-7.22558E-14
 -1      1711 8.41680E-03-4.00181E-03-7.13257E-14
 -1      1712 8.40340E-03-3.95609E-03-7.15152E-14
 -1      1713 8.56344E-03-4.11382E-03-7.11619E-14
 -1      1714 8.47546E-03-4.05707E-03-7.11312E-14
 -1      1715 8.83132E-03-4.27846E-03-7.16797E-14
 -1      1716 8.69628E-03-4.20536E-03-7.14602E-14
 -1      1717 9.18436E-03-4.46764E-03-7.24238E-14
 -1      1718 9.01222E-03-4.37503E-03-7.20361E-14
 -1      1719 9.59088E-03-4.69344E-03-7.35257E-14
 -1      1720 9.39820E-03-4.58529E-03-7.29740E-14
 -1      1721 1.00266E-02-4.94036E-03-7.49812E-14
 -1      1722 9.82293E-03-4.82500E-03-7.42657E-14
 -1      1723 1.04496E-02-5.16577E-03-7.66850E-14
 -1      1724 1.02580E-02-5.06662E-03-7.58756E-14
 -1      1725 1.08731E-02-5.34549E-03-7.86501E-14
 -1      1726 1.06807E-02-5.27008E-03-7.76994E-14
 -1      1727 1.12517E-02-5.43530E-03-8.06783E-14
 -1      1728 1.10821E-02-5.40503E-03-7.97637E-14
 -1      1729 1.16174E-02-5.44023E-03-8.26983E-14
 -1      1730 1.14488E-02-5.44827E-03-8.17636E-14
 -1      1731 1.19793E-02-5.37392E-03-8.47038E-14
 -1      1732 1.18130E-02-5.41248E-03-8.37877E-14
 -1      1733 1.23173E-02-5.26584E-03-8.65476E-14
 -1      1734 1.21652E-02-5.31931E-03-8.57254E-14
 -1      1735 1.26233E-02-5.14262E-03-8.81730E-14
 -1      1736 1.24869E-02-5.20055E-03-8.74535E-14
 -1      1737 1.28681E-02-5.01767E-03-8.96189E-14
 -1      1738 1.27619E-02-5.07117E-03-8.90342E-14
 -1      1739 1.30159E-02-4.91916E-03-9.04873E-14
 -1      1740 1.29635E-02-4.96457E-03-9.00958E-14
 -1      1741 1.30371E-02-4.82047E-03-9.11132E-14
 -1      1742 1.30443E-02-4.86596E-03-9.09024E-14
 -1      1743 1.16959E-02-4.16398E-03-8.92246E-14
 -1      1744 1.21318E-02-4.40859E-03-9.05922E-14
 -1      1745 1.27401E-02-5.75157E-03-1.33351E-13
 -1      1746 1.26758E-02-5.66891E-03-1.31294E-13
 -1      1747 1.28497E-02-4.73609E-03-9.19969E-14
 -1      1748 1.25348E-02-4.60675E-03-9.15760E-14
 -1      1749 1.30240E-02-4.82314E-03-9.19872E-14
 -1      1750 1.12440E-02-3.90563E-03-8.76203E-14
 -1      1751 1.08260E-02-3.65884E-03-8.56707E-14
 -1      1752 1.04425E-02-3.47113E-03-8.34326E-14
 -1      1753 1.00924E-02-3.38663E-03-8.11195E-14
 -1      1754 9.75189E-03-3.40324E-03-7.88608E-14
 -1      1755 9.41878E-03-3.49100E-03-7.67440E-14
 -1      1756 9.08687E-03-3.61451E-03-7.48760E-14
 -1      1757 8.77430E-03-3.74586E-03-7.31439E-14
 -1      1758 8.52882E-03-3.85108E-03-7.18298E-14
 -1      1759 8.40503E-03-3.92876E-03-7.10238E-14
 -1      1760 8.43712E-03-3.99325E-03-7.04602E-14
 -1      1761 8.63479E-03-4.08797E-03-7.05640E-14
 -1      1762 8.95744E-03-4.24709E-03-7.12141E-14
 -1      1763 9.35599E-03-4.44958E-03-7.21121E-14
 -1      1764 9.79288E-03-4.70294E-03-7.33921E-14
 -1      1765 1.02290E-02-4.97581E-03-7.50140E-14
 -1      1766 1.06437E-02-5.22319E-03-7.69130E-14
 -1      1767 1.10152E-02-5.39812E-03-7.90364E-14
 -1      1768 1.13568E-02-5.46923E-03-8.12370E-14
 -1      1769 1.16914E-02-5.44156E-03-8.34178E-14
 -1      1770 1.20309E-02-5.34215E-03-8.55346E-14
 -1      1771 1.23637E-02-5.20921E-03-8.74669E-14
 -1      1772 1.26693E-02-5.07430E-03-8.92435E-14
 -1      1773 1.29092E-02-4.96846E-03-9.05966E-14
 -1      1774 1.30395E-02-4.89019E-03-9.14972E-14
 -1      1775 3.20193E-04-1.95049E-04 1.40946E-18
 -1      1776 3.48571E-04-1.32771E-04-1.13136E-16
 -1      1777 3.57795E-04-1.50057E-04-9.81610E-17
 -1      1778 3.69233E-04-1.70657E-04-8.13152E-17
 -1      1779 3.84876E-04-1.94918E-04-5.96040E-17
 -1      1780 4.91058E-04-2.16959E-04-1.41732E-16
 -1      1781 3.22699E-04-8.00054E-05-1.51300E-16
 -1      1782 3.28164E-04-9.13030E-05-1.44050E-16
 -1      1783 3.12709E-04-5.89454E-05-1.62942E-16
 -1      1784 3.17584E-04-6.91447E-05-1.57372E-16
 -1      1785 4.31037E-04-1.03885E-04-2.29783E-16
 -1      1786 3.03646E-04-3.97667E-05-1.71304E-16
 -1      1787 3.08106E-04-4.91512E-05-1.67265E-16
 -1      1788 4.17701E-04-7.65958E-05-2.44799E-16
 -1      1789 2.95170E-04-2.17196E-05-1.77823E-16
 -1      1790 2.99361E-04-3.06235E-05-1.74760E-16
 -1      1791 4.05602E-04-5.15579E-05-2.56048E-16
 -1      1792 2.87092E-04-4.24364E-06-1.82390E-16
 -1      1793 2.91095E-04-1.29273E-05-1.80289E-16
 -1      1794 3.94315E-04-2.78543E-05-2.64559E-16
 -1      1795 2.79321E-04 1.31415E-05-1.84897E-16
 -1      1796 2.83172E-04 4.44577E-06-1.83813E-16
 -1      1797 3.83610E-04-4.77321E-06-2.70224E-16
 -1      1798 2.71983E-04 3.06088E-05-1.85358E-16
 -1      1799 2.75607E-04 2.18168E-05-1.85426E-16
 -1      1800 3.73476E-04 1.81224E-05-2.73097E-16
 -1      1801 2.64959E-04 4.93347E-05-1.82851E-16
 -1      1802 2.68390E-04 3.98396E-05-1.84667E-16
 -1      1803 3.63864E-04 4.16808E-05-2.73002E-16
 -1      1804 2.58776E-04 6.98818E-05-1.75803E-16
 -1      1805 2.61704E-04 5.93655E-05-1.80045E-16
 -1      1806 3.54971E-04 6.69444E-05-2.68408E-16
 -1      1807 2.54521E-04 9.38112E-05-1.61153E-16
 -1      1808 2.56245E-04 8.13948E-05-1.69786E-16
 -1      1809 3.47597E-04 9.49923E-05-2.56739E-16
 -1      1810 2.55821E-04 1.24648E-04-1.34373E-16
 -1      1811 2.54100E-04 1.08255E-04-1.49864E-16
 -1      1812 3.43852E-04 1.28148E-04-2.34174E-16
 -1      1813 2.87894E-04 1.63030E-04-1.19242E-16
 -1      1814 2.71059E-04 1.41785E-04-1.30667E-16
 -1      1815 3.59167E-04 1.65187E-04-2.15214E-16
 -1      1816 3.94534E-04 2.04694E-04-2.02969E-16
 -1      1817 3.77654E-04-2.12888E-04-2.63732E-17
 -1      1818 6.03663E-04 2.55874E-04-4.76215E-16
 -1      1819 4.99766E-04 2.34903E-04-3.22842E-16
 -1      1820 4.81898E-04 2.14546E-04-3.30546E-16
 -1      1821 5.06334E-04-2.68898E-04-7.29126E-17
 -1      1822 8.92628E-04-4.46234E-04-2.47022E-16
 -1      1823 1.05263E-03-5.07174E-04-3.70743E-16
 -1      1824 1.20965E-03-5.63505E-04-5.22098E-16
 -1      1825 1.36503E-03-6.15926E-04-7.02414E-16
 -1      1826 1.09607E-03-4.96932E-04-4.98408E-16
 -1      1827 1.51864E-03-6.65860E-04-9.12072E-16
 -1      1828 1.67105E-03-7.13565E-04-1.15115E-15
 -1      1829 1.40576E-03-6.02175E-04-8.72471E-16
 -1      1830 1.82244E-03-7.59956E-04-1.42009E-15
 -1      1831 1.97303E-03-8.05225E-04-1.71923E-15
 -1      1832 1.71038E-03-6.98030E-04-1.36286E-15
 -1      1833 2.12301E-03-8.49950E-04-2.04848E-15
 -1      1834 2.27244E-03-8.94289E-04-2.40834E-15
 -1      1835 2.01140E-03-7.88906E-04-1.97238E-15
 -1      1836 2.42147E-03-9.38619E-04-2.79923E-15
 -1      1837 2.57010E-03-9.83066E-04-3.21973E-15
 -1      1838 2.30988E-03-8.77837E-04-2.70258E-15
 -1      1839 2.71844E-03-1.02788E-03-3.67024E-15
 -1      1840 2.86646E-03-1.07315E-03-4.15190E-15
 -1      1841 2.60649E-03-9.66929E-04-3.55301E-15
 -1      1842 3.01424E-03-1.11904E-03-4.66321E-15
 -1      1843 3.16174E-03-1.16563E-03-5.20315E-15
 -1      1844 2.90164E-03-1.05764E-03-4.52340E-15
 -1      1845 3.30901E-03-1.21301E-03-5.77376E-15
 -1      1846 3.45601E-03-1.26123E-03-6.37260E-15
 -1      1847 3.19552E-03-1.15097E-03-5.61228E-15
 -1      1848 3.60279E-03-1.31034E-03-7.00006E-15
 -1      1849 3.74929E-03-1.36037E-03-7.65744E-15
 -1      1850 3.48825E-03-1.24756E-03-6.81691E-15
 -1      1851 3.89555E-03-1.41134E-03-8.34306E-15
 -1      1852 4.04153E-03-1.46326E-03-9.05764E-15
 -1      1853 3.77986E-03-1.34777E-03-8.13690E-15
 -1      1854 4.18727E-03-1.51613E-03-9.80103E-15
 -1      1855 4.33272E-03-1.56995E-03-1.05726E-14
 -1      1856 4.07037E-03-1.45178E-03-9.57176E-15
 -1      1857 4.47792E-03-1.62470E-03-1.13723E-14
 -1      1858 4.62285E-03-1.68035E-03-1.22009E-14
 -1      1859 4.35976E-03-1.55957E-03-1.11217E-14
 -1      1860 4.76752E-03-1.73688E-03-1.30586E-14
 -1      1861 4.91193E-03-1.79428E-03-1.39441E-14
 -1      1862 4.64806E-03-1.67104E-03-1.27859E-14
 -1      1863 5.05610E-03-1.85249E-03-1.48587E-14
 -1      1864 5.20004E-03-1.91149E-03-1.58012E-14
 -1      1865 4.93532E-03-1.78597E-03-1.45641E-14
 -1      1866 5.34376E-03-1.97124E-03-1.67705E-14
 -1      1867 5.48731E-03-2.03172E-03-1.77684E-14
 -1      1868 5.22161E-03-1.90411E-03-1.64542E-14
 -1      1869 5.63068E-03-2.09287E-03-1.87953E-14
 -1      1870 5.77393E-03-2.15468E-03-1.98491E-14
 -1      1871 5.50707E-03-2.02518E-03-1.84561E-14
 -1      1872 5.91708E-03-2.21712E-03-2.09310E-14
 -1      1873 6.06019E-03-2.28016E-03-2.20417E-14
 -1      1874 5.79190E-03-2.14890E-03-2.05710E-14
 -1      1875 6.20328E-03-2.34378E-03-2.31801E-14
 -1      1876 6.34644E-03-2.40797E-03-2.43475E-14
 -1      1877 6.07636E-03-2.27504E-03-2.27972E-14
 -1      1878 6.48969E-03-2.47272E-03-2.55435E-14
 -1      1879 6.63314E-03-2.53804E-03-2.67682E-14
 -1      1880 6.36079E-03-2.40342E-03-2.51382E-14
 -1      1881 6.77681E-03-2.60393E-03-2.80215E-14
 -1      1882 6.92082E-03-2.67041E-03-2.93033E-14
 -1      1883 6.64564E-03-2.53400E-03-2.75920E-14
 -1      1884 7.06521E-03-2.73749E-03-3.06128E-14
 -1      1885 7.21011E-03-2.80521E-03-3.19496E-14
 -1      1886 6.93142E-03-2.66683E-03-3.01591E-14
 -1      1887 7.35556E-03-2.87357E-03-3.33136E-14
 -1      1888 7.50171E-03-2.94260E-03-3.47033E-14
 -1      1889 7.21869E-03-2.80207E-03-3.28373E-14
 -1      1890 7.64858E-03-3.01230E-03-3.61183E-14
 -1      1891 7.79638E-03-3.08271E-03-3.75568E-14
 -1      1892 7.50806E-03-2.93990E-03-3.56205E-14
 -1      1893 7.94510E-03-3.15384E-03-3.90207E-14
 -1      1894 8.09504E-03-3.22574E-03-4.05082E-14
 -1      1895 7.80012E-03-3.08045E-03-3.85016E-14
 -1      1896 8.24616E-03-3.29855E-03-4.20185E-14
 -1      1897 8.39885E-03-3.37240E-03-4.35526E-14
 -1      1898 8.09562E-03-3.22389E-03-4.14805E-14
 -1      1899 8.55308E-03-3.44765E-03-4.51085E-14
 -1      1900 8.70924E-03-3.52466E-03-4.66856E-14
 -1      1901 8.39565E-03-3.37096E-03-4.45515E-14
 -1      1902 8.86735E-03-3.60411E-03-4.82831E-14
 -1      1903 9.02764E-03-3.68662E-03-4.99017E-14
 -1      1904 8.70174E-03-3.52390E-03-4.77093E-14
 -1      1905 9.19025E-03-3.77322E-03-5.15404E-14
 -1      1906 9.35505E-03-3.86476E-03-5.31981E-14
 -1      1907 9.01558E-03-3.68733E-03-5.09491E-14
 -1      1908 9.52240E-03-3.96244E-03-5.48753E-14
 -1      1909 9.69157E-03-4.06722E-03-5.65703E-14
 -1      1910 9.33876E-03-3.86825E-03-5.42682E-14
 -1      1911 9.86325E-03-4.18007E-03-5.82837E-14
 -1      1912 1.00359E-02-4.30174E-03-6.00176E-14
 -1      1913 9.67240E-03-4.07522E-03-5.76615E-14
 -1      1914 1.02104E-02-4.43229E-03-6.17716E-14
 -1      1915 1.03845E-02-4.57154E-03-6.35452E-14
 -1      1916 1.00164E-02-4.31609E-03-6.11303E-14
 -1      1917 1.05590E-02-4.71791E-03-6.53390E-14
 -1      1918 1.07313E-02-4.86911E-03-6.71546E-14
 -1      1919 1.03684E-02-4.59364E-03-6.46779E-14
 -1      1920 1.09015E-02-5.02150E-03-6.89915E-14
 -1      1921 1.10682E-02-5.17022E-03-7.08490E-14
 -1      1922 1.07214E-02-4.89830E-03-6.83065E-14
 -1      1923 1.12308E-02-5.31010E-03-7.27285E-14
 -1      1924 1.13904E-02-5.43529E-03-7.46299E-14
 -1      1925 1.10659E-02-5.20122E-03-7.20209E-14
 -1      1926 1.15457E-02-5.54152E-03-7.65556E-14
 -1      1927 1.17012E-02-5.62551E-03-7.85031E-14
 -1      1928 1.13955E-02-5.45711E-03-7.58241E-14
 -1      1929 1.18550E-02-5.68668E-03-8.04742E-14
 -1      1930 1.20125E-02-5.72674E-03-8.24666E-14
 -1      1931 1.17157E-02-5.62611E-03-7.97222E-14
 -1      1932 1.21720E-02-5.74912E-03-8.44813E-14
 -1      1933 1.23358E-02-5.75953E-03-8.65148E-14
 -1      1934 1.20409E-02-5.70161E-03-8.37101E-14
 -1      1935 1.25029E-02-5.76307E-03-8.85667E-14
 -1      1936 1.26725E-02-5.76507E-03-9.06382E-14
 -1      1937 1.23801E-02-5.71645E-03-8.77804E-14
 -1      1938 1.28444E-02-5.76970E-03-9.27258E-14
 -1      1939 1.30162E-02-5.77985E-03-9.48305E-14
 -1      1940 1.27296E-02-5.71728E-03-9.19224E-14
 -1      1941 1.31887E-02-5.79756E-03-9.69475E-14
 -1      1942 1.33592E-02-5.82341E-03-9.90777E-14
 -1      1943 1.30796E-02-5.73788E-03-9.61348E-14
 -1      1944 1.35287E-02-5.85754E-03-1.01223E-13
 -1      1945 1.36955E-02-5.89924E-03-1.03378E-13
 -1      1946 1.34223E-02-5.79188E-03-1.00399E-13
 -1      1947 1.38603E-02-5.94751E-03-1.05542E-13
 -1      1948 1.40222E-02-6.00117E-03-1.07715E-13
 -1      1949 1.37542E-02-5.87802E-03-1.04709E-13
 -1      1950 1.41816E-02-6.05875E-03-1.09900E-13
 -1      1951 1.43382E-02-6.11902E-03-1.12091E-13
 -1      1952 1.40746E-02-5.98780E-03-1.09055E-13
 -1      1953 1.44922E-02-6.18049E-03-1.14289E-13
 -1      1954 1.46438E-02-6.24198E-03-1.16492E-13
 -1      1955 1.43845E-02-6.11043E-03-1.13435E-13
 -1      1956 1.47792E-02-6.29777E-03-1.18459E-13
 -1      1957 1.49266E-02-6.35602E-03-1.20673E-13
 -1      1958 1.49368E-02-6.34021E-03-1.21541E-13
 -1      1959 1.46710E-02-6.23055E-03-1.17599E-13
 -1      1960 8.06763E-04 2.73793E-04-8.82202E-16
 -1      1961 7.05585E-04 2.68427E-04-6.62461E-16
 -1      1962 6.91340E-04 2.49315E-04-6.67909E-16
 -1      1963 1.00706E-03 2.66413E-04-1.42175E-15
 -1      1964 9.06993E-04 2.72942E-04-1.13520E-15
 -1      1965 8.97288E-04 2.55178E-04-1.13665E-15
 -1      1966 1.20711E-03 2.38927E-04-2.09338E-15
 -1      1967 1.10696E-03 2.54969E-04-1.74107E-15
 -1      1968 1.10171E-03 2.38251E-04-1.73693E-15
 -1      1969 1.40849E-03 1.94973E-04-2.89601E-15
 -1      1970 1.30755E-03 2.18852E-04-2.47840E-15
 -1      1971 1.30639E-03 2.02896E-04-2.46786E-15
 -1      1972 1.61211E-03 1.37259E-04-3.82813E-15
 -1      1973 1.50998E-03 1.67715E-04-3.34580E-15
 -1      1974 1.51248E-03 1.52313E-04-3.32790E-15
 -1      1975 1.81845E-03 6.78814E-05-4.88752E-15
 -1      1976 1.71492E-03 1.03932E-04-4.34230E-15
 -1      1977 1.72067E-03 8.89365E-05-4.31617E-15
 -1      1978 2.02776E-03-1.15131E-05-6.07157E-15
 -1      1979 1.92273E-03 2.93603E-05-5.46369E-15
 -1      1980 1.93137E-03 1.46643E-05-5.42913E-15
 -1      1981 2.24010E-03-9.96232E-05-7.37939E-15
 -1      1982 2.13355E-03-5.45389E-05-6.71017E-15
 -1      1983 2.14476E-03-6.90106E-05-6.66605E-15
 -1      1984 2.45549E-03-1.95422E-04-8.80832E-15
 -1      1985 2.34742E-03-1.46609E-04-8.07882E-15
 -1      1986 2.36092E-03-1.60911E-04-8.02502E-15
 -1      1987 2.67388E-03-2.98102E-04-1.03594E-14
 -1      1988 2.56432E-03-2.45940E-04-9.56880E-15
 -1      1989 2.57986E-03-2.60112E-04-9.50553E-15
 -1      1990 2.89524E-03-4.07029E-04-1.20302E-14
 -1      1991 2.78420E-03-3.51816E-04-1.11796E-14
 -1      1992 2.80158E-03-3.65886E-04-1.11062E-14
 -1      1993 3.11953E-03-5.21703E-04-1.38206E-14
 -1      1994 3.00702E-03-4.63673E-04-1.29105E-14
 -1      1995 3.02604E-03-4.77667E-04-1.28264E-14
 -1      1996 3.34677E-03-6.41724E-04-1.57297E-14
 -1      1997 3.23278E-03-5.81067E-04-1.47604E-14
 -1      1998 3.25326E-03-5.95005E-04-1.46654E-14
 -1      1999 3.57700E-03-7.66760E-04-1.77573E-14
 -1      2000 3.46151E-03-7.03636E-04-1.67289E-14
 -1      2001 3.48327E-03-7.17540E-04-1.66223E-14
 -1      2002 3.81037E-03-8.96513E-04-1.98989E-14
 -1      2003 3.69329E-03-8.31068E-04-1.88140E-14
 -1      2004 3.71616E-03-8.44963E-04-1.86954E-14
 -1      2005 4.04706E-03-1.03068E-03-2.21543E-14
 -1      2006 3.92828E-03-9.63069E-04-2.10123E-14
 -1      2007 3.95206E-03-9.76987E-04-2.08824E-14
 -1      2008 4.28736E-03-1.16892E-03-2.45188E-14
 -1      2009 4.16673E-03-1.09932E-03-2.33227E-14
 -1      2010 4.19120E-03-1.11330E-03-2.31806E-14
 -1      2011 4.53163E-03-1.31077E-03-2.69929E-14
 -1      2012 4.40897E-03-1.23943E-03-2.57423E-14
 -1      2013 4.43386E-03-1.25353E-03-2.55888E-14
 -1      2014 4.78034E-03-1.45564E-03-2.95740E-14
 -1      2015 4.65540E-03-1.38288E-03-2.82707E-14
 -1      2016 4.68040E-03-1.39718E-03-2.81062E-14
 -1      2017 5.03401E-03-1.60267E-03-3.22561E-14
 -1      2018 4.90651E-03-1.52895E-03-3.09027E-14
 -1      2019 4.93127E-03-1.54355E-03-3.07267E-14
 -1      2020 5.29321E-03-1.75071E-03-3.50404E-14
 -1      2021 5.16287E-03-1.67666E-03-3.36362E-14
 -1      2022 5.18696E-03-1.69167E-03-3.34496E-14
 -1      2023 5.55853E-03-1.89817E-03-3.79234E-14
 -1      2024 5.42506E-03-1.82463E-03-3.64682E-14
 -1      2025 5.44800E-03-1.84021E-03-3.62715E-14
 -1      2026 5.83048E-03-2.04302E-03-4.09042E-14
 -1      2027 5.69363E-03-1.97107E-03-3.94017E-14
 -1      2028 5.71494E-03-1.98742E-03-3.91926E-14
 -1      2029 6.10945E-03-2.18274E-03-4.39798E-14
 -1      2030 5.96906E-03-2.11369E-03-4.24316E-14
 -1      2031 5.98826E-03-2.13104E-03-4.22113E-14
 -1      2032 6.39549E-03-2.31447E-03-4.71416E-14
 -1      2033 6.25163E-03-2.24971E-03-4.55505E-14
 -1      2034 6.26835E-03-2.26825E-03-4.53211E-14
 -1      2035 6.68802E-03-2.43608E-03-5.03874E-14
 -1      2036 6.54098E-03-2.37663E-03-4.87540E-14
 -1      2037 6.55504E-03-2.39635E-03-4.85153E-14
 -1      2038 6.98634E-03-2.54600E-03-5.37094E-14
 -1      2039 6.83651E-03-2.49256E-03-5.20386E-14
 -1      2040 6.84765E-03-2.51349E-03-5.17899E-14
 -1      2041 7.28963E-03-2.64281E-03-5.71090E-14
 -1      2042 7.13744E-03-2.59612E-03-5.53991E-14
 -1      2043 7.14562E-03-2.61838E-03-5.51427E-14
 -1      2044 7.59669E-03-2.72459E-03-6.05854E-14
 -1      2045 7.44284E-03-2.68565E-03-5.88371E-14
 -1      2046 7.44845E-03-2.70940E-03-5.85720E-14
 -1      2047 7.90542E-03-2.78973E-03-6.41345E-14
 -1      2048 7.75111E-03-2.75921E-03-6.23513E-14
 -1      2049 7.75514E-03-2.78444E-03-6.20773E-14
 -1      2050 8.21271E-03-2.83903E-03-6.77587E-14
 -1      2051 8.05961E-03-2.81607E-03-6.59372E-14
 -1      2052 8.06369E-03-2.84238E-03-6.56568E-14
 -1      2053 8.51475E-03-2.87847E-03-7.14641E-14
 -1      2054 8.36478E-03-2.85931E-03-6.96014E-14
 -1      2055 8.37104E-03-2.88568E-03-6.93147E-14
 -1      2056 8.80806E-03-2.92108E-03-7.52539E-14
 -1      2057 8.66276E-03-2.89831E-03-7.33477E-14
 -1      2058 8.67342E-03-2.92317E-03-7.30538E-14
 -1      2059 9.09127E-03-2.98588E-03-7.91299E-14
 -1      2060 8.95083E-03-2.94954E-03-7.71803E-14
 -1      2061 8.96757E-03-2.97123E-03-7.68767E-14
 -1      2062 9.36677E-03-3.09175E-03-8.30882E-14
 -1      2063 9.22942E-03-3.03292E-03-8.10989E-14
 -1      2064 9.25296E-03-3.05067E-03-8.07845E-14
 -1      2065 9.64090E-03-3.24976E-03-8.71249E-14
 -1      2066 9.50338E-03-3.16436E-03-8.50973E-14
 -1      2067 9.53367E-03-3.17877E-03-8.47749E-14
 -1      2068 9.91985E-03-3.45662E-03-9.12389E-14
 -1      2069 9.77919E-03-3.34779E-03-8.91730E-14
 -1      2070 9.81610E-03-3.36046E-03-8.88422E-14
 -1      2071 1.02080E-02-3.69900E-03-9.54234E-14
 -1      2072 1.00625E-02-3.57448E-03-9.33221E-14
 -1      2073 1.01055E-02-3.58689E-03-9.29845E-14
 -1      2074 1.05061E-02-3.95858E-03-9.96801E-14
 -1      2075 1.03559E-02-3.82763E-03-9.75419E-14
 -1      2076 1.04042E-02-3.84081E-03-9.71975E-14
 -1      2077 1.08114E-02-4.21949E-03-1.04000E-13
 -1      2078 1.06581E-02-4.08949E-03-1.01833E-13
 -1      2079 1.07105E-02-4.10370E-03-1.01478E-13
 -1      2080 1.11203E-02-4.47199E-03-1.08376E-13
 -1      2081 1.09658E-02-4.34701E-03-1.06183E-13
 -1      2082 1.10209E-02-4.36201E-03-1.05822E-13
 -1      2083 1.14287E-02-4.71288E-03-1.12793E-13
 -1      2084 1.12749E-02-4.59379E-03-1.10580E-13
 -1      2085 1.13315E-02-4.60913E-03-1.10210E-13
 -1      2086 1.17338E-02-4.94397E-03-1.17231E-13
 -1      2087 1.15819E-02-4.82938E-03-1.15010E-13
 -1      2088 1.16393E-02-4.84458E-03-1.14632E-13
 -1      2089 1.20337E-02-5.16997E-03-1.21697E-13
 -1      2090 1.18845E-02-5.05726E-03-1.19462E-13
 -1      2091 1.19422E-02-5.07190E-03-1.19080E-13
 -1      2092 1.23280E-02-5.39663E-03-1.26179E-13
 -1      2093 1.21815E-02-5.28291E-03-1.23936E-13
 -1      2094 1.22394E-02-5.29662E-03-1.23551E-13
 -1      2095 1.25747E-02-5.59002E-03-1.29861E-13
 -1      2096 1.24302E-02-5.47367E-03-1.27612E-13
 -1      2097 1.24883E-02-5.48649E-03-1.27227E-13
 -1      2098 1.26916E-02-5.64189E-03-1.30094E-13
 -1      2099 1.33601E-02-5.82391E-03-1.28373E-13
 -1      2100 1.32323E-02-5.79015E-03-1.28597E-13
 -1      2101 1.31049E-02-5.75453E-03-1.28817E-13
 -1      2102 1.29783E-02-5.71745E-03-1.29038E-13
 -1      2103 1.30454E-02-5.67565E-03-1.26764E-13
 -1      2104 1.28956E-02-5.70008E-03-1.29457E-13
 -1      2105 1.27717E-02-5.66072E-03-1.29672E-13
 -1      2106 1.26703E-02-5.58308E-03-1.28239E-13
 -1      2107 1.28342E-02-5.62023E-03-1.27401E-13
 -1      2108 1.36090E-02-5.88473E-03-1.27917E-13
 -1      2109 1.34851E-02-5.85533E-03-1.28146E-13
 -1      2110 1.32997E-02-5.74581E-03-1.26322E-13
 -1      2111 1.38537E-02-5.93829E-03-1.27446E-13
 -1      2112 1.37329E-02-5.91256E-03-1.27683E-13
 -1      2113 1.35511E-02-5.80921E-03-1.25866E-13
 -1      2114 1.40819E-02-5.98368E-03-1.26966E-13
 -1      2115 1.39703E-02-5.96188E-03-1.27207E-13
 -1      2116 1.37942E-02-5.86547E-03-1.25398E-13
 -1      2117 1.42860E-02-6.02246E-03-1.26487E-13
 -1      2118 1.41874E-02-6.00364E-03-1.26726E-13
 -1      2119 1.40188E-02-5.91420E-03-1.24923E-13
 -1      2120 1.44605E-02-6.05754E-03-1.26003E-13
 -1      2121 1.43772E-02-6.04010E-03-1.26245E-13
 -1      2122 1.42172E-02-5.95701E-03-1.24448E-13
 -1      2123 1.46031E-02-6.09274E-03-1.25515E-13
 -1      2124 1.45357E-02-6.07473E-03-1.25759E-13
 -1      2125 1.43841E-02-5.99688E-03-1.23967E-13
 -1      2126 1.47143E-02-6.13128E-03-1.25031E-13
 -1      2127 1.46620E-02-6.11119E-03-1.25274E-13
 -1      2128 1.45172E-02-6.03729E-03-1.23483E-13
 -1      2129 1.48040E-02-6.17763E-03-1.24528E-13
 -1      2130 1.47617E-02-6.15333E-03-1.24781E-13
 -1      2131 1.46214E-02-6.08220E-03-1.22989E-13
 -1      2132 1.48788E-02-6.23307E-03-1.24007E-13
 -1      2133 1.48427E-02-6.20414E-03-1.24270E-13
 -1      2134 1.47044E-02-6.13474E-03-1.22478E-13
 -1      2135 1.49487E-02-6.29805E-03-1.23469E-13
 -1      2136 1.49138E-02-6.26443E-03-1.23741E-13
 -1      2137 1.47748E-02-6.19587E-03-1.21952E-13
 -1      2138 1.24062E-02-4.65422E-03-9.25655E-14
 -1      2139 1.25914E-02-4.72563E-03-9.29319E-14
 -1      2140 1.30012E-02-4.84740E-03-9.30156E-14
 -1      2141 1.30499E-02-4.86911E-03-9.29434E-14
 -1      2142 1.27821E-02-4.78487E-03-9.30797E-14
 -1      2143 1.29064E-02-4.81926E-03-9.31419E-14
 -1      2144 1.19536E-02-4.43103E-03-9.13065E-14
 -1      2145 1.21617E-02-4.54066E-03-9.19350E-14
 -1      2146 1.15458E-02-4.18227E-03-8.98001E-14
 -1      2147 1.17544E-02-4.31035E-03-9.05505E-14
 -1      2148 1.18227E-02-4.43026E-03-9.18856E-14
 -1      2149 3.34137E-04-1.03811E-04-1.35539E-16
 -1      2150 3.40909E-04-1.17408E-04-1.24954E-16
 -1      2151 4.65217E-04-1.71113E-04-1.80872E-16
 -1      2152 4.46367E-04-1.34689E-04-2.09183E-16
 -1      2153 1.06650E-02-3.60399E-03-8.54876E-14
 -1      2154 1.08382E-02-3.72139E-03-8.65776E-14
 -1      2155 1.03173E-02-3.42626E-03-8.31184E-14
 -1      2156 1.04761E-02-3.50012E-03-8.42721E-14
 -1      2157 9.97596E-03-3.35296E-03-8.04431E-14
 -1      2158 1.01125E-02-3.36497E-03-8.16042E-14
 -1      2159 9.69706E-03-3.39408E-03-7.82426E-14
 -1      2160 9.83640E-03-3.36361E-03-7.93397E-14
 -1      2161 9.87287E-03-3.33893E-03-7.98154E-14
 -1      2162 9.35534E-03-3.51716E-03-7.58886E-14
 -1      2163 9.50640E-03-3.45651E-03-7.69051E-14
 -1      2164 9.02198E-03-3.65426E-03-7.39518E-14
 -1      2165 9.17409E-03-3.58898E-03-7.47975E-14
 -1      2166 8.72589E-03-3.77516E-03-7.21219E-14
 -1      2167 8.87028E-03-3.71762E-03-7.29995E-14
 -1      2168 8.47367E-03-3.87314E-03-7.08337E-14
 -1      2169 8.56677E-03-3.83736E-03-7.12637E-14
 -1      2170 8.38763E-03-3.92130E-03-7.00575E-14
 -1      2171 8.41396E-03-3.90309E-03-7.04253E-14
 -1      2172 8.45821E-03-3.95024E-03-6.93508E-14
 -1      2173 8.40080E-03-3.93525E-03-6.95420E-14
 -1      2174 8.73130E-03-4.06275E-03-6.99129E-14
 -1      2175 8.59263E-03-4.00756E-03-6.96176E-14
 -1      2176 9.06333E-03-4.20940E-03-7.06107E-14
 -1      2177 8.88304E-03-4.13151E-03-7.02604E-14
 -1      2178 8.81583E-03-4.04378E-03-6.93117E-14
 -1      2179 9.52609E-03-4.42742E-03-7.15366E-14
 -1      2180 9.31970E-03-4.31558E-03-7.09960E-14
 -1      2181 9.98033E-03-4.71475E-03-7.30633E-14
 -1      2182 9.76980E-03-4.57749E-03-7.23348E-14
 -1      2183 1.04005E-02-5.01863E-03-7.49894E-14
 -1      2184 1.02055E-02-4.88063E-03-7.41069E-14
 -1      2185 1.07880E-02-5.27409E-03-7.70583E-14
 -1      2186 1.06112E-02-5.15996E-03-7.60514E-14
 -1      2187 1.11419E-02-5.44716E-03-7.94546E-14
 -1      2188 1.09945E-02-5.38341E-03-7.83419E-14
 -1      2189 1.14437E-02-5.49238E-03-8.17980E-14
 -1      2190 1.13033E-02-5.48492E-03-8.07090E-14
 -1      2191 1.17603E-02-5.44024E-03-8.42261E-14
 -1      2192 1.16172E-02-5.47956E-03-8.31293E-14
 -1      2193 1.20897E-02-5.31177E-03-8.64173E-14
 -1      2194 1.19357E-02-5.37732E-03-8.53920E-14
 -1      2195 1.24205E-02-5.16602E-03-8.84561E-14
 -1      2196 1.22672E-02-5.23524E-03-8.75436E-14
 -1      2197 1.27118E-02-5.04214E-03-9.02002E-14
 -1      2198 1.25711E-02-5.10086E-03-8.93274E-14
 -1      2199 1.24913E-02-5.13902E-03-8.94055E-14
 -1      2200 1.29634E-02-4.94553E-03-9.18358E-14
 -1      2201 1.28699E-02-4.98012E-03-9.13477E-14
 -1      2202 1.30599E-02-4.89804E-03-9.26820E-14
 -1      2203 1.30259E-02-4.91655E-03-9.22577E-14
 -1      2204 1.30089E-02-4.94982E-03-9.30142E-14
 -1      2205 1.10829E-02-3.87824E-03-8.77939E-14
 -1      2206 1.12919E-02-4.01157E-03-8.86585E-14
 -1      2207 6.70454E-04-3.45951E-04-1.36379E-16
 -1      2208 1.13894E-02-4.14456E-03-8.99758E-14
 -1      2209 1.09158E-02-3.81332E-03-8.76070E-14
 -1      2210 7.23105E-04-3.45376E-04-2.15173E-16
 -1      2211 1.26816E-02-4.80948E-03-9.40695E-14
 -1      2212 1.29594E-02-4.87609E-03-9.40951E-14
 -1      2213 1.49359E-02-6.31022E-03-1.22601E-13
 -1      2214 1.22564E-02-4.65418E-03-9.32824E-14
 -1      2215 1.30694E-02-4.91098E-03-9.37033E-14
 -1      2216 1.28010E-02-5.01716E-03-9.14314E-14
 -1      2217 1.21802E-02-5.27956E-03-8.73996E-14
 -1      2218 1.18548E-02-5.42308E-03-8.51015E-14
 -1      2219 1.15556E-02-5.50302E-03-8.25958E-14
 -1      2220 1.12529E-02-5.47999E-03-8.00081E-14
 -1      2221 1.09336E-02-5.33383E-03-7.74707E-14
 -1      2222 1.05532E-02-5.07741E-03-7.51333E-14
 -1      2223 1.01416E-02-4.76726E-03-7.30372E-14
 -1      2224 9.21123E-03-4.20572E-03-7.00381E-14
 -1      2225 8.51764E-03-3.93601E-03-6.87003E-14
 -1      2226 8.38021E-03-3.89703E-03-6.89449E-14
 -1      2227 8.42985E-03-3.87139E-03-6.98632E-14
 -1      2228 8.63473E-03-3.80023E-03-7.11204E-14
 -1      2229 8.69716E-03-3.75480E-03-7.09732E-14
 -1      2230 8.55220E-03-3.80647E-03-7.01244E-14
 -1      2231 8.94079E-03-3.67911E-03-7.29199E-14
 -1      2232 9.59496E-03-3.40686E-03-7.73764E-14
 -1      2233 1.05210E-02-3.55065E-03-8.51681E-14
 -1      2234 1.01676E-02-3.38083E-03-8.24323E-14
 -1      2235 9.25749E-03-3.54527E-03-7.49550E-14
 -1      2236 9.69290E-03-4.45483E-03-7.12085E-14
 -1      2237 7.42293E-04 2.27632E-04-8.08551E-16
 -1      2238 6.36191E-04 2.18659E-04-6.03989E-16
 -1      2239 5.23047E-04-9.30328E-05-3.53707E-16
 -1      2240 5.31136E-04-1.09135E-04-3.44871E-16
 -1      2241 5.39701E-04-1.26068E-04-3.34734E-16
 -1      2242 5.48851E-04-1.43889E-04-3.22821E-16
 -1      2243 6.48153E-04-1.46356E-04-4.63347E-16
 -1      2244 4.93893E-04-3.33491E-05-3.78454E-16
 -1      2245 5.00810E-04-4.77681E-05-3.73697E-16
 -1      2246 4.80638E-04-4.83462E-06-3.85217E-16
 -1      2247 4.87180E-04-1.90490E-05-3.82330E-16
 -1      2248 5.93596E-04-3.81080E-05-5.15918E-16
 -1      2249 4.68305E-04 2.33545E-05-3.88415E-16
 -1      2250 4.74389E-04 9.21013E-06-3.87331E-16
 -1      2251 5.78021E-04-4.65916E-06-5.23697E-16
 -1      2252 4.56591E-04 5.30165E-05-3.87074E-16
 -1      2253 4.62334E-04 3.80261E-05-3.88321E-16
 -1      2254 5.63402E-04 2.91374E-05-5.26529E-16
 -1      2255 4.46190E-04 8.47380E-05-3.79064E-16
 -1      2256 4.51195E-04 6.85717E-05-3.84038E-16
 -1      2257 5.49860E-04 6.45451E-05-5.23087E-16
 -1      2258 4.38269E-04 1.20100E-04-3.61378E-16
 -1      2259 4.41853E-04 1.01879E-04-3.71719E-16
 -1      2260 5.38231E-04 1.02501E-04-5.10781E-16
 -1      2261 9.52956E-04 2.26724E-04-1.31480E-15
 -1      2262 8.47745E-04 2.30218E-04-1.04535E-15
 -1      2263 7.96867E-04 2.04162E-04-9.53908E-16
 -1      2264 9.87636E-04-4.31821E-04-4.68985E-16
 -1      2265 1.14240E-03-4.86894E-04-6.34326E-16
 -1      2266 1.12149E-02-4.08527E-03-9.01137E-14
 -1      2267 1.14437E-02-4.24861E-03-9.12662E-14
 -1      2268 1.29593E-03-5.38991E-04-8.27897E-16
 -1      2269 1.44864E-03-5.88510E-04-1.05012E-15
 -1      2270 1.18994E-03-4.76879E-04-7.78525E-16
 -1      2271 1.60029E-03-6.36295E-04-1.30125E-15
 -1      2272 1.75114E-03-6.82570E-04-1.58201E-15
 -1      2273 1.49272E-03-5.75087E-04-1.23530E-15
 -1      2274 1.90122E-03-7.27985E-04-1.89212E-15
 -1      2275 2.05063E-03-7.72709E-04-2.23222E-15
 -1      2276 1.79283E-03-6.67397E-04-1.80776E-15
 -1      2277 2.19946E-03-8.17196E-04-2.60202E-15
 -1      2278 2.34776E-03-8.61576E-04-3.00232E-15
 -1      2279 2.09045E-03-7.56824E-04-2.49814E-15
 -1      2280 2.49562E-03-9.06164E-04-3.43196E-15
 -1      2281 2.64303E-03-9.51057E-04-3.89134E-15
 -1      2282 2.38596E-03-8.45659E-04-3.30714E-15
 -1      2283 2.79008E-03-9.96469E-04-4.38064E-15
 -1      2284 2.93675E-03-1.04247E-03-4.89935E-15
 -1      2285 2.67967E-03-9.35566E-04-4.23491E-15
 -1      2286 3.08310E-03-1.08920E-03-5.44710E-15
 -1      2287 3.22911E-03-1.13671E-03-6.02450E-15
 -1      2288 2.97180E-03-1.02772E-03-5.27981E-15
 -1      2289 3.37482E-03-1.18507E-03-6.63038E-15
 -1      2290 3.52021E-03-1.23433E-03-7.26467E-15
 -1      2291 3.26251E-03-1.12289E-03-6.44043E-15
 -1      2292 3.66531E-03-1.28452E-03-7.92803E-15
 -1      2293 3.81010E-03-1.33565E-03-8.62007E-15
 -1      2294 3.55190E-03-1.22158E-03-7.71686E-15
 -1      2295 3.95461E-03-1.38774E-03-9.34084E-15
 -1      2296 4.09882E-03-1.44079E-03-1.00909E-14
 -1      2297 3.84002E-03-1.32403E-03-9.10810E-15
 -1      2298 4.24275E-03-1.49478E-03-1.08685E-14
 -1      2299 4.38639E-03-1.54970E-03-1.16747E-14
 -1      2300 4.12691E-03-1.43032E-03-1.06127E-14
 -1      2301 4.52975E-03-1.60553E-03-1.25112E-14
 -1      2302 4.67284E-03-1.66224E-03-1.33751E-14
 -1      2303 4.41261E-03-1.54036E-03-1.22326E-14
 -1      2304 4.81566E-03-1.71981E-03-1.42664E-14
 -1      2305 4.95822E-03-1.77819E-03-1.51872E-14
 -1      2306 4.69715E-03-1.65400E-03-1.39670E-14
 -1      2307 5.10054E-03-1.83736E-03-1.61359E-14
 -1      2308 5.24262E-03-1.89728E-03-1.71111E-14
 -1      2309 4.98060E-03-1.77097E-03-1.58140E-14
 -1      2310 5.38449E-03-1.95790E-03-1.81155E-14
 -1      2311 5.52618E-03-2.01920E-03-1.91484E-14
 -1      2312 5.26303E-03-1.89100E-03-1.77732E-14
 -1      2313 5.66769E-03-2.08113E-03-2.02079E-14
 -1      2314 5.80907E-03-2.14367E-03-2.12964E-14
 -1      2315 5.54456E-03-2.01379E-03-1.98437E-14
 -1      2316 5.95033E-03-2.20679E-03-2.24126E-14
 -1      2317 6.09154E-03-2.27047E-03-2.35574E-14
 -1      2318 5.82536E-03-2.13904E-03-2.20257E-14
 -1      2319 6.23272E-03-2.33469E-03-2.47309E-14
 -1      2320 6.37393E-03-2.39944E-03-2.59319E-14
 -1      2321 6.10565E-03-2.26653E-03-2.43219E-14
 -1      2322 6.51521E-03-2.46472E-03-2.71625E-14
 -1      2323 6.65664E-03-2.53055E-03-2.84197E-14
 -1      2324 6.38575E-03-2.39611E-03-2.67311E-14
 -1      2325 6.79826E-03-2.59692E-03-2.97059E-14
 -1      2326 6.94016E-03-2.66388E-03-3.10200E-14
 -1      2327 6.66601E-03-2.52778E-03-2.92514E-14
 -1      2328 7.08237E-03-2.73144E-03-3.23594E-14
 -1      2329 7.22499E-03-2.79964E-03-3.37273E-14
 -1      2330 6.94691E-03-2.66168E-03-3.18829E-14
 -1      2331 7.36804E-03-2.86851E-03-3.51213E-14
 -1      2332 7.51161E-03-2.93806E-03-3.65400E-14
 -1      2333 7.22885E-03-2.79809E-03-3.46212E-14
 -1      2334 7.65569E-03-3.00832E-03-3.79834E-14
 -1      2335 7.80042E-03-3.07925E-03-3.94498E-14
 -1      2336 7.51217E-03-2.93729E-03-3.74634E-14
 -1      2337 7.94575E-03-3.15089E-03-4.09404E-14
 -1      2338 8.09198E-03-3.22324E-03-4.24551E-14
 -1      2339 7.79703E-03-3.07931E-03-4.03999E-14
 -1      2340 8.23907E-03-3.29647E-03-4.39916E-14
 -1      2341 8.38743E-03-3.37073E-03-4.55531E-14
 -1      2342 8.08389E-03-3.22393E-03-4.34315E-14
 -1      2343 8.53713E-03-3.44647E-03-4.71340E-14
 -1      2344 8.68857E-03-3.52417E-03-4.87347E-14
 -1      2345 8.37409E-03-3.37168E-03-4.65549E-14
 -1      2346 8.84194E-03-3.60461E-03-5.03572E-14
 -1      2347 8.99756E-03-3.68865E-03-5.19988E-14
 -1      2348 8.66984E-03-3.52525E-03-4.97630E-14
 -1      2349 9.15587E-03-3.77721E-03-5.36592E-14
 -1      2350 9.31686E-03-3.87161E-03-5.53394E-14
 -1      2351 8.97401E-03-3.69013E-03-5.30489E-14
 -1      2352 9.48133E-03-3.97272E-03-5.70370E-14
 -1      2353 9.64880E-03-4.08209E-03-5.87533E-14
 -1      2354 9.28998E-03-3.87429E-03-5.64107E-14
 -1      2355 9.82046E-03-4.20018E-03-6.04896E-14
 -1      2356 9.99490E-03-4.32837E-03-6.22441E-14
 -1      2357 9.62162E-03-4.08735E-03-5.98463E-14
 -1      2358 1.01735E-02-4.46618E-03-6.40182E-14
 -1      2359 1.03534E-02-4.61353E-03-6.58108E-14
 -1      2360 9.97201E-03-4.33874E-03-6.33562E-14
 -1      2361 1.05356E-02-4.76845E-03-6.76226E-14
 -1      2362 1.07163E-02-4.92686E-03-6.94570E-14
 -1      2363 1.03396E-02-4.63309E-03-6.69407E-14
 -1      2364 1.08953E-02-5.08449E-03-7.13152E-14
 -1      2365 1.10705E-02-5.23353E-03-7.31919E-14
 -1      2366 1.07138E-02-4.95747E-03-7.06060E-14
 -1      2367 1.12402E-02-5.36833E-03-7.50932E-14
 -1      2368 1.14077E-02-5.48003E-03-7.70189E-14
 -1      2369 1.10774E-02-5.26907E-03-7.43620E-14
 -1      2370 1.15699E-02-5.56611E-03-7.89671E-14
 -1      2371 1.17358E-02-5.62395E-03-8.09410E-14
 -1      2372 1.14214E-02-5.50229E-03-7.82119E-14
 -1      2373 1.19028E-02-5.65561E-03-8.29339E-14
 -1      2374 1.20753E-02-5.66917E-03-8.49522E-14
 -1      2375 1.17626E-02-5.61231E-03-8.21583E-14
 -1      2376 1.22516E-02-5.66943E-03-8.69890E-14
 -1      2377 1.24308E-02-5.66573E-03-8.90417E-14
 -1      2378 1.21205E-02-5.62535E-03-8.61927E-14
 -1      2379 1.26122E-02-5.66259E-03-9.11181E-14
 -1      2380 1.27922E-02-5.66498E-03-9.32096E-14
 -1      2381 1.24929E-02-5.60787E-03-9.03087E-14
 -1      2382 1.29715E-02-5.67551E-03-9.53166E-14
 -1      2383 1.31467E-02-5.69500E-03-9.74390E-14
 -1      2384 1.28634E-02-5.61108E-03-9.44969E-14
 -1      2385 1.33192E-02-5.72418E-03-9.95719E-14
 -1      2386 1.34874E-02-5.76179E-03-1.01718E-13
 -1      2387 1.32184E-02-5.65423E-03-9.87424E-14
 -1      2388 1.36525E-02-5.80737E-03-1.03876E-13
 -1      2389 1.38138E-02-5.85921E-03-1.06037E-13
 -1      2390 1.35544E-02-5.73516E-03-1.03035E-13
 -1      2391 1.39722E-02-5.91626E-03-1.08210E-13
 -1      2392 1.41277E-02-5.97695E-03-1.10391E-13
 -1      2393 1.38738E-02-5.84385E-03-1.07365E-13
 -1      2394 1.42808E-02-6.03999E-03-1.12581E-13
 -1      2395 1.44316E-02-6.10406E-03-1.14778E-13
 -1      2396 1.41808E-02-5.96901E-03-1.11725E-13
 -1      2397 1.37321E-03 1.64684E-04-2.71448E-15
 -1      2398 1.26794E-03 1.86594E-04-2.31633E-15
 -1      2399 1.58480E-03 1.10349E-04-3.60645E-15
 -1      2400 1.47882E-03 1.39206E-04-3.14459E-15
 -1      2401 1.44222E-03 1.24952E-04-2.96271E-15
 -1      2402 1.79819E-03 4.37326E-05-4.62426E-15
 -1      2403 1.69125E-03 7.84693E-05-4.09951E-15
 -1      2404 1.65888E-03 6.69568E-05-3.88549E-15
 -1      2405 2.01372E-03-3.33720E-05-5.76581E-15
 -1      2406 1.90568E-03 6.40474E-06-5.17984E-15
 -1      2407 1.87712E-03-2.79837E-06-4.93260E-15
 -1      2408 2.23158E-03-1.19551E-04-7.03044E-15
 -1      2409 2.12236E-03-7.53974E-05-6.38292E-15
 -1      2410 2.09721E-03-8.26320E-05-6.10260E-15
 -1      2411 2.45186E-03-2.13694E-04-8.41575E-15
 -1      2412 2.34142E-03-1.65684E-04-7.70791E-15
 -1      2413 2.31931E-03-1.71216E-04-7.39362E-15
 -1      2414 2.67458E-03-3.14927E-04-9.92141E-15
 -1      2415 2.56292E-03-2.63470E-04-9.15324E-15
 -1      2416 2.54351E-03-2.67506E-04-8.80485E-15
 -1      2417 2.89977E-03-4.22570E-04-1.15472E-14
 -1      2418 2.78688E-03-3.67984E-04-1.07197E-14
 -1      2419 2.76985E-03-3.70686E-04-1.03358E-14
 -1      2420 3.12743E-03-5.36090E-04-1.32920E-14
 -1      2421 3.01330E-03-4.78626E-04-1.24047E-14
 -1      2422 2.99836E-03-4.80116E-04-1.19870E-14
 -1      2423 3.35759E-03-6.55069E-04-1.51548E-14
 -1      2424 3.24220E-03-5.94923E-04-1.42086E-14
 -1      2425 3.22907E-03-5.95300E-04-1.37558E-14
 -1      2426 3.59028E-03-7.79166E-04-1.71337E-14
 -1      2427 3.47361E-03-7.16500E-04-1.61296E-14
 -1      2428 3.46199E-03-7.15846E-04-1.56417E-14
 -1      2429 3.82561E-03-9.08090E-04-1.92279E-14
 -1      2430 3.70761E-03-8.43046E-04-1.81667E-14
 -1      2431 3.69720E-03-8.41435E-04-1.76427E-14
 -1      2432 4.06371E-03-1.04156E-03-2.14353E-14
 -1      2433 3.94430E-03-9.74278E-04-2.03174E-14
 -1      2434 3.93476E-03-9.71786E-04-1.97580E-14
 -1      2435 4.30477E-03-1.17926E-03-2.37536E-14
 -1      2436 4.18384E-03-1.10991E-03-2.25804E-14
 -1      2437 4.17481E-03-1.10662E-03-2.19858E-14
 -1      2438 4.54905E-03-1.32082E-03-2.61822E-14
 -1      2439 4.42648E-03-1.24959E-03-2.49546E-14
 -1      2440 4.41751E-03-1.24564E-03-2.43250E-14
 -1      2441 4.79688E-03-1.46569E-03-2.87182E-14
 -1      2442 4.67248E-03-1.39288E-03-2.74365E-14
 -1      2443 4.66308E-03-1.38842E-03-2.67730E-14
 -1      2444 5.04864E-03-1.61314E-03-3.13553E-14
 -1      2445 4.92223E-03-1.53915E-03-3.00240E-14
 -1      2446 4.91182E-03-1.53441E-03-2.93271E-14
 -1      2447 5.30478E-03-1.76214E-03-3.40966E-14
 -1      2448 5.17612E-03-1.68753E-03-3.27131E-14
 -1      2449 5.16405E-03-1.68284E-03-3.19832E-14
 -1      2450 5.56578E-03-1.91129E-03-3.69365E-14
 -1      2451 5.43462E-03-1.83680E-03-3.55042E-14
 -1      2452 5.42019E-03-1.83262E-03-3.47412E-14
 -1      2453 5.83217E-03-2.05873E-03-3.98741E-14
 -1      2454 5.69826E-03-1.98535E-03-3.83928E-14
 -1      2455 5.68070E-03-1.98225E-03-3.75986E-14
 -1      2456 6.10449E-03-2.20212E-03-4.29089E-14
 -1      2457 5.96755E-03-2.13110E-03-4.13801E-14
 -1      2458 5.94612E-03-2.12987E-03-4.05536E-14
 -1      2459 6.38326E-03-2.33851E-03-4.60315E-14
 -1      2460 6.24304E-03-2.27147E-03-4.44599E-14
 -1      2461 6.21714E-03-2.27307E-03-4.36035E-14
 -1      2462 6.66841E-03-2.46475E-03-4.92405E-14
 -1      2463 6.52521E-03-2.40289E-03-4.76255E-14
 -1      2464 6.49464E-03-2.40826E-03-4.67412E-14
 -1      2465 6.95888E-03-2.57975E-03-5.25293E-14
 -1      2466 6.81299E-03-2.52373E-03-5.08753E-14
 -1      2467 6.77810E-03-2.53260E-03-4.99639E-14
 -1      2468 7.25468E-03-2.68237E-03-5.58952E-14
 -1      2469 7.10612E-03-2.63265E-03-5.42028E-14
 -1      2470 7.06655E-03-2.64545E-03-5.32672E-14
 -1      2471 7.55604E-03-2.77094E-03-5.93380E-14
 -1      2472 7.40473E-03-2.72857E-03-5.76060E-14
 -1      2473 7.36078E-03-2.74624E-03-5.66465E-14
 -1      2474 7.86255E-03-2.84298E-03-6.28566E-14
 -1      2475 7.70885E-03-2.80918E-03-6.10879E-14
 -1      2476 7.66184E-03-2.83282E-03-6.01019E-14
 -1      2477 8.17260E-03-2.89739E-03-6.64498E-14
 -1      2478 8.01744E-03-2.87238E-03-6.46428E-14
 -1      2479 7.96975E-03-2.90218E-03-6.36342E-14
 -1      2480 8.48335E-03-2.93724E-03-7.01255E-14
 -1      2481 8.32832E-03-2.91875E-03-6.82783E-14
 -1      2482 8.28318E-03-2.95313E-03-6.72440E-14
 -1      2483 8.79067E-03-2.97279E-03-7.38793E-14
 -1      2484 8.63789E-03-2.95461E-03-7.19919E-14
 -1      2485 8.59906E-03-2.98922E-03-7.09334E-14
 -1      2486 9.09050E-03-3.02266E-03-7.77170E-14
 -1      2487 8.94163E-03-2.99438E-03-7.57868E-14
 -1      2488 8.91208E-03-3.02217E-03-7.47014E-14
 -1      2489 9.38176E-03-3.10953E-03-8.16401E-14
 -1      2490 9.23644E-03-3.05982E-03-7.96686E-14
 -1      2491 9.21681E-03-3.07374E-03-7.85549E-14
 -1      2492 9.67095E-03-3.25172E-03-8.56422E-14
 -1      2493 9.52606E-03-3.17364E-03-8.36317E-14
 -1      2494 9.51445E-03-3.17087E-03-8.24920E-14
 -1      2495 9.96319E-03-3.44823E-03-8.97253E-14
 -1      2496 9.81584E-03-3.34353E-03-8.76733E-14
 -1      2497 9.81126E-03-3.32801E-03-8.65089E-14
 -1      2498 1.02639E-02-3.68732E-03-9.38796E-14
 -1      2499 1.01123E-02-3.56376E-03-9.17931E-14
 -1      2500 1.01138E-02-3.54099E-03-9.06052E-14
 -1      2501 1.05733E-02-3.94833E-03-9.81066E-14
 -1      2502 1.04177E-02-3.81639E-03-9.59853E-14
 -1      2503 1.04262E-02-3.79243E-03-9.47745E-14
 -1      2504 1.08879E-02-4.21261E-03-1.02398E-13
 -1      2505 1.07303E-02-4.08096E-03-1.00244E-13
 -1      2506 1.07461E-02-4.05915E-03-9.90146E-14
 -1      2507 1.12033E-02-4.46839E-03-1.06743E-13
 -1      2508 1.10459E-02-4.34198E-03-1.04564E-13
 -1      2509 1.10684E-02-4.32316E-03-1.03311E-13
 -1      2510 1.15159E-02-4.71130E-03-1.11134E-13
 -1      2511 1.13603E-02-4.59148E-03-1.08934E-13
 -1      2512 1.13882E-02-4.57506E-03-1.07664E-13
 -1      2513 1.18236E-02-4.94264E-03-1.15557E-13
 -1      2514 1.16706E-02-4.82820E-03-1.13342E-13
 -1      2515 1.17024E-02-4.81292E-03-1.12056E-13
 -1      2516 1.21253E-02-5.16697E-03-1.20010E-13
 -1      2517 1.19753E-02-5.05534E-03-1.17780E-13
 -1      2518 1.20096E-02-5.03975E-03-1.16485E-13
 -1      2519 1.24209E-02-5.39031E-03-1.24482E-13
 -1      2520 1.22738E-02-5.27839E-03-1.22243E-13
 -1      2521 1.23098E-02-5.26100E-03-1.20939E-13
 -1      2522 1.25684E-02-5.50627E-03-1.26805E-13
 -1      2523 1.34929E-02-5.73818E-03-1.23819E-13
 -1      2524 1.33669E-02-5.70583E-03-1.24049E-13
 -1      2525 1.37346E-02-5.79719E-03-1.23352E-13
 -1      2526 1.36158E-02-5.76862E-03-1.23585E-13
 -1      2527 1.34347E-02-5.67113E-03-1.21775E-13
 -1      2528 1.29856E-02-5.59998E-03-1.24714E-13
 -1      2529 1.28570E-02-5.56162E-03-1.24930E-13
 -1      2530 1.32402E-02-5.67196E-03-1.24273E-13
 -1      2531 1.31135E-02-5.63687E-03-1.24494E-13
 -1      2532 1.29244E-02-5.52721E-03-1.22668E-13
 -1      2533 1.31816E-02-5.60220E-03-1.22229E-13
 -1      2534 1.39556E-02-5.84879E-03-1.22883E-13
 -1      2535 1.38482E-02-5.82377E-03-1.23118E-13
 -1      2536 1.36751E-02-5.73258E-03-1.21313E-13
 -1      2537 1.41478E-02-5.89471E-03-1.22414E-13
 -1      2538 1.40557E-02-5.87216E-03-1.22650E-13
 -1      2539 1.38922E-02-5.78630E-03-1.20850E-13
 -1      2540 1.43066E-02-5.93827E-03-1.21931E-13
 -1      2541 1.42315E-02-5.91640E-03-1.22172E-13
 -1      2542 1.40779E-02-5.83440E-03-1.20381E-13
 -1      2543 1.44298E-02-5.98274E-03-1.21450E-13
 -1      2544 1.43721E-02-5.95994E-03-1.21693E-13
 -1      2545 1.42267E-02-5.88039E-03-1.19904E-13
 -1      2546 1.45264E-02-6.03325E-03-1.20948E-13
 -1      2547 1.44813E-02-6.00706E-03-1.21201E-13
 -1      2548 1.43415E-02-5.92906E-03-1.19415E-13
 -1      2549 1.46026E-02-6.09135E-03-1.20431E-13
 -1      2550 1.45665E-02-6.06122E-03-1.20690E-13
 -1      2551 1.44291E-02-5.98445E-03-1.18906E-13
 -1      2552 1.46687E-02-6.15779E-03-1.19898E-13
 -1      2553 1.46363E-02-6.12354E-03-1.20165E-13
 -1      2554 1.44983E-02-6.04798E-03-1.18385E-13
 -1      2555 1.29264E-02-4.92003E-03-9.53874E-14
 -1      2556 1.30150E-02-4.93169E-03-9.52616E-14
 -1      2557 1.21186E-02-4.65823E-03-9.42868E-14
 -1      2558 1.23442E-02-4.75713E-03-9.49278E-14
 -1      2559 1.16288E-03 2.04455E-04-1.95027E-15
 -1      2560 1.05792E-03 2.18050E-04-1.61624E-15
 -1      2561 1.22672E-03 1.69061E-04-2.16599E-15
 -1      2562 1.48056E-02-6.25621E-03-1.20626E-13
 -1      2563 1.30739E-02-4.94350E-03-9.49919E-14
 -1      2564 1.30871E-02-4.95391E-03-9.47242E-14
 -1      2565 1.30685E-02-4.98014E-03-9.62832E-14
 -1      2566 1.16743E-02-4.40794E-03-9.25048E-14
 -1      2567 1.18574E-02-4.51755E-03-9.32689E-14
 -1      2568 1.28792E-02-5.02329E-03-9.28311E-14
 -1      2569 1.27282E-02-5.06804E-03-9.16720E-14
 -1      2570 1.22754E-02-5.25824E-03-8.85087E-14
 -1      2571 1.21224E-02-5.33040E-03-8.73742E-14
 -1      2572 8.59834E-03-3.91620E-03-6.79196E-14
 -1      2573 8.46276E-03-3.87795E-03-6.76535E-14
 -1      2574 1.04022E-02-3.50717E-03-8.49590E-14
 -1      2575 1.05563E-02-3.61057E-03-8.61808E-14
 -1      2576 5.07942E-04-6.24704E-05-3.68073E-16
 -1      2577 5.15341E-04-7.74925E-05-3.61337E-16
 -1      2578 6.28329E-04-1.08087E-04-4.86414E-16
 -1      2579 6.10320E-04-7.23703E-05-5.03666E-16
 -1      2580 1.00592E-02-3.35242E-03-8.19610E-14
 -1      2581 1.02258E-02-3.41522E-03-8.34797E-14
 -1      2582 9.14868E-03-3.56348E-03-7.38223E-14
 -1      2583 9.29861E-03-3.49495E-03-7.49053E-14
 -1      2584 9.77561E-03-3.32745E-03-7.90901E-14
 -1      2585 9.88344E-03-3.31887E-03-8.01931E-14
 -1      2586 9.84473E-03-4.49144E-03-7.08747E-14
 -1      2587 9.62139E-03-4.35077E-03-7.00873E-14
 -1      2588 9.46570E-03-3.43288E-03-7.62235E-14
 -1      2589 9.61114E-03-3.37395E-03-7.75534E-14
 -1      2590 8.87388E-03-3.67398E-03-7.19273E-14
 -1      2591 9.01134E-03-3.62063E-03-7.28715E-14
 -1      2592 9.05185E-03-3.55977E-03-7.28202E-14
 -1      2593 8.38730E-03-3.85060E-03-6.87875E-14
 -1      2594 8.43869E-03-3.83471E-03-6.91891E-14
 -1      2595 8.37359E-03-3.85499E-03-6.77670E-14
 -1      2596 8.36280E-03-3.85894E-03-6.82772E-14
 -1      2597 8.34968E-03-3.81749E-03-6.76077E-14
 -1      2598 8.91407E-03-4.02975E-03-6.86554E-14
 -1      2599 8.76663E-03-3.97539E-03-6.83124E-14
 -1      2600 9.36346E-03-4.21333E-03-6.94089E-14
 -1      2601 9.12807E-03-4.11414E-03-6.90312E-14
 -1      2602 9.05081E-03-4.04022E-03-6.80298E-14
 -1      2603 1.03073E-02-4.83327E-03-7.30214E-14
 -1      2604 1.01038E-02-4.67375E-03-7.19873E-14
 -1      2605 1.06848E-02-5.13078E-03-7.51930E-14
 -1      2606 1.05060E-02-4.99024E-03-7.41402E-14
 -1      2607 1.10560E-02-5.37954E-03-7.76631E-14
 -1      2608 1.08905E-02-5.27034E-03-7.63857E-14
 -1      2609 1.13708E-02-5.51128E-03-8.06640E-14
 -1      2610 1.12469E-02-5.47430E-03-7.94075E-14
 -1      2611 1.16555E-02-5.51417E-03-8.33232E-14
 -1      2612 1.15139E-02-5.52573E-03-8.19894E-14
 -1      2613 1.14928E-02-5.53428E-03-8.13799E-14
 -1      2614 1.19708E-02-5.39949E-03-8.61923E-14
 -1      2615 1.18345E-02-5.46248E-03-8.50189E-14
 -1      2616 1.20892E-02-5.38269E-03-8.72922E-14
 -1      2617 1.25759E-02-5.12320E-03-9.05357E-14
 -1      2618 1.24416E-02-5.18203E-03-8.96559E-14
 -1      2619 1.07698E-02-3.76258E-03-8.76642E-14
 -1      2620 1.09790E-02-3.91796E-03-8.88906E-14
 -1      2621 1.30553E-02-4.96821E-03-9.42056E-14
 -1      2622 1.30011E-02-4.98463E-03-9.37759E-14
 -1      2623 6.32080E-04-2.81008E-04-2.12707E-16
 -1      2624 8.41505E-04-3.71687E-04-3.50645E-16
 -1      2625 8.94476E-04-3.67829E-04-4.55582E-16
 -1      2626 6.13266E-04-2.51040E-04-2.41045E-16
 -1      2627 5.51006E-04 2.09653E-04-4.58658E-16
 -1      2628 4.44264E-04 1.86558E-04-3.12630E-16
 -1      2629 4.30220E-04 1.68476E-04-3.13504E-16
 -1      2630 6.02453E-04 1.93939E-04-5.70331E-16
 -1      2631 1.25985E-02-4.83612E-03-9.50978E-14
 -1      2632 1.27755E-02-4.88184E-03-9.52523E-14
 -1      2633 1.02754E-02-3.45882E-03-8.44793E-14
 -1      2634 6.70670E-04-1.88529E-04-4.32732E-16
 -1      2635 5.58753E-04-1.62915E-04-3.09106E-16
 -1      2636 5.69609E-04-1.83305E-04-2.93006E-16
 -1      2637 1.01181E-03 1.96599E-04-1.49612E-15
 -1      2638 4.29574E-04 1.46344E-04-3.33582E-16
 -1      2639 1.24758E-02-4.83623E-03-9.61071E-14
 -1      2640 5.82844E-04-2.03032E-04-2.80307E-16
 -1      2641 5.96539E-04-2.27228E-04-2.59097E-16
 -1      2642 7.32355E-04-2.82406E-04-3.61744E-16
 -1      2643 6.98240E-04-2.33496E-04-3.99068E-16
 -1      2644 1.15087E-02-4.33962E-03-9.26408E-14
 -1      2645 1.30989E-02-4.99345E-03-9.54905E-14
 -1      2646 1.06379E-02-3.70161E-03-8.74499E-14
 -1      2647 1.17817E-02-5.50519E-03-8.44035E-14
 -1      2648 1.26052E-02-5.48579E-03-1.25493E-13
 -1      2649 1.19827E-02-4.62784E-03-9.49075E-14
 -1      2650 1.26881E-02-5.50523E-03-1.25076E-13
 -1      2651 1.26255E-02-5.43040E-03-1.23029E-13
 -1      2652 1.28674E-02-4.94282E-03-9.64173E-14
 -1      2653 1.11867E-02-5.43288E-03-7.83060E-14
 -1      2654 1.08265E-02-5.19528E-03-7.53802E-14
 -1      2655 5.22878E-04 1.52180E-04-4.69941E-16
 -1      2656 1.29575E-02-5.03325E-03-9.40177E-14
 -1      2657 9.50920E-03-4.25413E-03-6.90759E-14
 -1      2658 1.26887E-02-5.11878E-03-9.19250E-14
 -1      2659 1.23846E-02-5.24197E-03-8.96309E-14
 -1      2660 8.40181E-03-3.83625E-03-6.69898E-14
 -1      2661 8.35449E-03-3.79824E-03-6.63262E-14
 -1      2662 8.44829E-03-3.81525E-03-6.62138E-14
 -1      2663 8.76287E-03-3.69594E-03-7.09251E-14
 -1      2664 8.81148E-03-3.63128E-03-7.08730E-14
 -1      2665 8.65856E-03-3.70450E-03-6.99281E-14
 -1      2666 9.33169E-03-3.44437E-03-7.50784E-14
 -1      2667 1.00065E-02-4.56570E-03-7.08548E-14
 -1      2668 9.63232E-03-3.33926E-03-7.79219E-14
 -1      2669 8.67277E-03-3.90508E-03-6.72670E-14
 -1      2670 8.47524E-03-3.79755E-03-6.90425E-14
 -1      2671 8.51296E-03-3.75462E-03-6.88953E-14
 -1      2672 8.40775E-03-3.77472E-03-6.79681E-14
 -1      2673 1.10599E-02-4.01890E-03-9.01692E-14
 -1      2674 9.94862E-03-3.32555E-03-8.12246E-14
 -1      2675 1.46666E-02-6.20629E-03-1.18224E-13
 -1      2676 1.46713E-02-6.17782E-03-1.19278E-13
 -1      2677 1.45306E-02-6.10281E-03-1.17498E-13
 -1      2678 1.45330E-02-6.14816E-03-1.16258E-13
 -1      2679 1.04435E-02-4.89928E-03-7.30777E-14
 -1      2680 1.44315E-02-6.07966E-03-1.15397E-13
 -1      2681 6.75643E-04-4.11384E-06-6.85297E-16
 -1      2682 6.84377E-04-2.31290E-05-6.81909E-16
 -1      2683 6.93548E-04-4.24833E-05-6.77016E-16
 -1      2684 7.03040E-04-6.19149E-05-6.70728E-16
 -1      2685 7.93523E-04-4.64797E-05-8.61087E-16
 -1      2686 6.43723E-04 7.57938E-05-6.80906E-16
 -1      2687 6.51099E-04 5.51179E-05-6.85311E-16
 -1      2688 6.31075E-04 1.19486E-04-6.63464E-16
 -1      2689 6.37029E-04 9.72092E-05-6.73981E-16
 -1      2690 7.37928E-04 8.64565E-05-8.60125E-16
 -1      2691 8.54883E-04 1.78958E-04-1.10399E-15
 -1      2692 7.45564E-04 1.78039E-04-8.62537E-16
 -1      2693 1.30466E-02-5.05993E-03-9.55461E-14
 -1      2694 1.29385E-02-5.09016E-03-9.45905E-14
 -1      2695 6.10762E-04 1.59742E-04-6.13320E-16
 -1      2696 1.05118E-02-3.64090E-03-8.72226E-14
 -1      2697 1.07010E-02-3.78676E-03-8.87158E-14
 -1      2698 1.38838E-03-5.15095E-04-1.16511E-15
 -1      2699 1.53785E-03-5.61806E-04-1.42810E-15
 -1      2700 1.68680E-03-6.07521E-04-1.71979E-15
 -1      2701 1.83530E-03-6.52418E-04-2.04048E-15
 -1      2702 1.58345E-03-5.48654E-04-1.62832E-15
 -1      2703 1.98328E-03-6.96926E-04-2.39086E-15
 -1      2704 2.13079E-03-7.41184E-04-2.77043E-15
 -1      2705 1.87819E-03-6.37706E-04-2.28035E-15
 -1      2706 2.27783E-03-7.85520E-04-3.17968E-15
 -1      2707 2.42443E-03-8.30040E-04-3.61842E-15
 -1      2708 2.17141E-03-7.25883E-04-3.04922E-15
 -1      2709 2.57060E-03-8.74983E-04-4.08588E-15
 -1      2710 2.71637E-03-9.20425E-04-4.58319E-15
 -1      2711 2.46302E-03-8.14809E-04-3.93476E-15
 -1      2712 2.86176E-03-9.66534E-04-5.11006E-15
 -1      2713 3.00676E-03-1.01336E-03-5.66513E-15
 -1      2714 2.75306E-03-9.05715E-04-4.93717E-15
 -1      2715 3.15142E-03-1.06101E-03-6.24899E-15
 -1      2716 3.29571E-03-1.10952E-03-6.86170E-15
 -1      2717 3.04159E-03-9.99471E-04-6.05493E-15
 -1      2718 3.43968E-03-1.15895E-03-7.50349E-15
 -1      2719 3.58330E-03-1.20931E-03-8.17385E-15
 -1      2720 3.32869E-03-1.09665E-03-7.28744E-15
 -1      2721 3.72661E-03-1.26064E-03-8.87257E-15
 -1      2722 3.86958E-03-1.31293E-03-9.60037E-15
 -1      2723 3.61441E-03-1.19757E-03-8.63551E-15
 -1      2724 4.01225E-03-1.36618E-03-1.03562E-14
 -1      2725 4.15460E-03-1.42039E-03-1.11400E-14
 -1      2726 3.89879E-03-1.30237E-03-1.00970E-14
 -1      2727 4.29664E-03-1.47553E-03-1.19534E-14
 -1      2728 4.43838E-03-1.53159E-03-1.27956E-14
 -1      2729 4.18186E-03-1.41102E-03-1.16728E-14
 -1      2730 4.57982E-03-1.58853E-03-1.36662E-14
 -1      2731 4.72096E-03-1.64633E-03-1.45640E-14
 -1      2732 4.46367E-03-1.52340E-03-1.33626E-14
 -1      2733 4.86182E-03-1.70495E-03-1.54900E-14
 -1      2734 5.00240E-03-1.76435E-03-1.64449E-14
 -1      2735 4.74423E-03-1.63927E-03-1.51659E-14
 -1      2736 5.14271E-03-1.82450E-03-1.74278E-14
 -1      2737 5.28277E-03-1.88536E-03-1.84388E-14
 -1      2738 5.02359E-03-1.75837E-03-1.70810E-14
 -1      2739 5.42257E-03-1.94688E-03-1.94779E-14
 -1      2740 5.56215E-03-2.00903E-03-2.05439E-14
 -1      2741 5.30179E-03-1.88037E-03-1.91095E-14
 -1      2742 5.70151E-03-2.07178E-03-2.16378E-14
 -1      2743 5.84070E-03-2.13509E-03-2.27608E-14
 -1      2744 5.57889E-03-2.00497E-03-2.12493E-14
 -1      2745 5.97971E-03-2.19894E-03-2.39115E-14
 -1      2746 6.11860E-03-2.26331E-03-2.50907E-14
 -1      2747 5.85502E-03-2.13188E-03-2.34999E-14
 -1      2748 6.25738E-03-2.32817E-03-2.62976E-14
 -1      2749 6.39613E-03-2.39355E-03-2.75329E-14
 -1      2750 6.13031E-03-2.26087E-03-2.58639E-14
 -1      2751 6.53485E-03-2.45943E-03-2.87965E-14
 -1      2752 6.67364E-03-2.52584E-03-3.00869E-14
 -1      2753 6.40501E-03-2.39183E-03-2.83395E-14
 -1      2754 6.81251E-03-2.59281E-03-3.14053E-14
 -1      2755 6.95153E-03-2.66040E-03-3.27492E-14
 -1      2756 6.67943E-03-2.52482E-03-3.09261E-14
 -1      2757 7.09074E-03-2.72864E-03-3.41209E-14
 -1      2758 7.23018E-03-2.79760E-03-3.55189E-14
 -1      2759 6.95396E-03-2.66014E-03-3.36204E-14
 -1      2760 7.36983E-03-2.86733E-03-3.69413E-14
 -1      2761 7.50972E-03-2.93782E-03-3.83878E-14
 -1      2762 7.22887E-03-2.79835E-03-3.64184E-14
 -1      2763 7.64978E-03-3.00911E-03-3.98595E-14
 -1      2764 7.79007E-03-3.08096E-03-4.13537E-14
 -1      2765 7.50413E-03-2.93994E-03-3.93157E-14
 -1      2766 7.93053E-03-3.15337E-03-4.28710E-14
 -1      2767 8.07153E-03-3.22623E-03-4.44117E-14
 -1      2768 7.77928E-03-3.08436E-03-4.23100E-14
 -1      2769 8.21315E-03-3.29966E-03-4.59755E-14
 -1      2770 8.35589E-03-3.37389E-03-4.75609E-14
 -1      2771 8.05475E-03-3.23009E-03-4.53953E-14
 -1      2772 8.49982E-03-3.44952E-03-4.91673E-14
 -1      2773 8.64573E-03-3.52706E-03-5.07922E-14
 -1      2774 8.33269E-03-3.37721E-03-4.85690E-14
 -1      2775 8.79388E-03-3.60721E-03-5.24359E-14
 -1      2776 8.94477E-03-3.69137E-03-5.40998E-14
 -1      2777 8.61648E-03-3.52897E-03-5.18219E-14
 -1      2778 9.09905E-03-3.78020E-03-5.57827E-14
 -1      2779 9.25719E-03-3.87553E-03-5.74833E-14
 -1      2780 8.91003E-03-3.69182E-03-5.51511E-14
 -1      2781 9.42041E-03-3.97784E-03-5.92010E-14
 -1      2782 9.58866E-03-4.08974E-03-6.09379E-14
 -1      2783 9.21865E-03-3.87464E-03-5.85557E-14
 -1      2784 9.76389E-03-4.21124E-03-6.26940E-14
 -1      2785 9.94444E-03-4.34529E-03-6.44670E-14
 -1      2786 9.55014E-03-4.08877E-03-6.20302E-14
 -1      2787 1.01328E-02-4.49105E-03-6.62590E-14
 -1      2788 1.03242E-02-4.64971E-03-6.80679E-14
 -1      2789 9.91222E-03-4.34903E-03-6.55761E-14
 -1      2790 1.09227E-02-5.16653E-03-7.35870E-14
 -1      2791 1.11061E-02-5.31477E-03-7.54865E-14
 -1      2792 1.12962E-02-5.46127E-03-7.81609E-14
 -1      2793 1.14776E-02-5.53778E-03-8.01214E-14
 -1      2794 1.19871E-02-5.58398E-03-8.53925E-14
 -1      2795 1.21792E-02-5.56914E-03-8.74322E-14
 -1      2796 1.23746E-02-5.55220E-03-8.94947E-14
 -1      2797 1.25678E-02-5.54245E-03-9.15741E-14
 -1      2798 1.22593E-02-5.49976E-03-8.86758E-14
 -1      2799 1.27593E-02-5.54369E-03-9.36696E-14
 -1      2800 1.29434E-02-5.55641E-03-9.57803E-14
 -1      2801 1.26586E-02-5.47417E-03-9.28381E-14
 -1      2802 1.31226E-02-5.58165E-03-9.79054E-14
 -1      2803 1.32945E-02-5.61668E-03-1.00042E-13
 -1      2804 1.30312E-02-5.50541E-03-9.70662E-14
 -1      2805 1.34613E-02-5.66144E-03-1.02189E-13
 -1      2806 1.36226E-02-5.71304E-03-1.04346E-13
 -1      2807 1.33727E-02-5.58489E-03-1.01343E-13
 -1      2808 1.37799E-02-5.77092E-03-1.06512E-13
 -1      2809 1.39337E-02-5.83286E-03-1.08684E-13
 -1      2810 1.36900E-02-5.69633E-03-1.05658E-13
 -1      2811 1.40846E-02-5.89803E-03-1.10865E-13
 -1      2812 1.42333E-02-5.96486E-03-1.13055E-13
 -1      2813 1.39916E-02-5.82617E-03-1.10005E-13
 -1      2814 1.73474E-03 2.21301E-05-4.16532E-15
 -1      2815 1.62390E-03 5.44406E-05-3.67357E-15
 -1      2816 1.05722E-02-4.96578E-03-7.31241E-14
 -1      2817 1.03942E-02-4.81808E-03-7.20133E-14
 -1      2818 1.51338E-03 8.36811E-05-3.21280E-15
 -1      2819 1.40314E-03 1.09675E-04-2.78301E-15
 -1      2820 1.58654E-03 4.10054E-05-3.46443E-15
 -1      2821 2.18189E-03-1.33107E-04-6.43879E-15
 -1      2822 2.06950E-03-9.07472E-05-5.82488E-15
 -1      2823 2.40801E-03-2.23990E-04-7.75623E-15
 -1      2824 2.29473E-03-1.77555E-04-7.08268E-15
 -1      2825 2.26779E-03-1.84700E-04-6.77498E-15
 -1      2826 2.63593E-03-3.22328E-04-9.19307E-15
 -1      2827 2.52175E-03-2.72276E-04-8.45979E-15
 -1      2828 2.49771E-03-2.77788E-04-8.11823E-15
 -1      2829 2.86571E-03-4.27359E-04-1.07500E-14
 -1      2830 2.75059E-03-3.74045E-04-9.95659E-15
 -1      2831 2.72917E-03-3.78083E-04-9.58102E-15
 -1      2832 3.09738E-03-5.38487E-04-1.24256E-14
 -1      2833 2.98131E-03-4.82191E-04-1.15730E-14
 -1      2834 2.96222E-03-4.84878E-04-1.11627E-14
 -1      2835 3.33096E-03-6.55250E-04-1.42179E-14
 -1      2836 3.21393E-03-5.96189E-04-1.33068E-14
 -1      2837 3.19687E-03-5.97620E-04-1.28625E-14
 -1      2838 3.56649E-03-7.77279E-04-1.61266E-14
 -1      2839 3.44848E-03-7.15627E-04-1.51579E-14
 -1      2840 3.43316E-03-7.15877E-04-1.46783E-14
 -1      2841 3.80402E-03-9.04274E-04-1.81497E-14
 -1      2842 3.68500E-03-8.40174E-04-1.71243E-14
 -1      2843 3.67112E-03-8.39305E-04-1.66104E-14
 -1      2844 4.04361E-03-1.03596E-03-2.02863E-14
 -1      2845 3.92355E-03-9.69550E-04-1.92039E-14
 -1      2846 3.91077E-03-9.67617E-04-1.86545E-14
 -1      2847 4.28536E-03-1.17208E-03-2.25343E-14
 -1      2848 4.16420E-03-1.10349E-03-2.13964E-14
 -1      2849 4.15216E-03-1.10055E-03-2.08119E-14
 -1      2850 4.52942E-03-1.31229E-03-2.48943E-14
 -1      2851 4.40709E-03-1.24170E-03-2.37004E-14
 -1      2852 4.39538E-03-1.23784E-03-2.30810E-14
 -1      2853 4.77597E-03-1.45620E-03-2.73613E-14
 -1      2854 4.65236E-03-1.38382E-03-2.61141E-14
 -1      2855 4.64051E-03-1.37916E-03-2.54605E-14
 -1      2856 5.02524E-03-1.60321E-03-2.99334E-14
 -1      2857 4.90023E-03-1.52936E-03-2.86346E-14
 -1      2858 4.88770E-03-1.52408E-03-2.79468E-14
 -1      2859 5.27755E-03-1.75251E-03-3.26075E-14
 -1      2860 5.15098E-03-1.67763E-03-3.12579E-14
 -1      2861 5.13717E-03-1.67200E-03-3.05374E-14
 -1      2862 5.53328E-03-1.90294E-03-3.53848E-14
 -1      2863 5.40495E-03-1.82766E-03-3.39840E-14
 -1      2864 5.38918E-03-1.82206E-03-3.32309E-14
 -1      2865 5.79287E-03-2.05300E-03-3.82582E-14
 -1      2866 5.66255E-03-1.97813E-03-3.68094E-14
 -1      2867 5.64410E-03-1.97307E-03-3.60245E-14
 -1      2868 6.05694E-03-2.20073E-03-4.12309E-14
 -1      2869 5.92431E-03-2.12727E-03-3.97316E-14
 -1      2870 5.90239E-03-2.12346E-03-3.89158E-14
 -1      2871 6.32627E-03-2.34385E-03-4.42950E-14
 -1      2872 6.19082E-03-2.27313E-03-4.27516E-14
 -1      2873 6.16457E-03-2.27150E-03-4.19047E-14
 -1      2874 6.60214E-03-2.47855E-03-4.74481E-14
 -1      2875 6.46320E-03-2.41303E-03-4.58607E-14
 -1      2876 6.43185E-03-2.41516E-03-4.49857E-14
 -1      2877 6.88460E-03-2.60013E-03-5.06858E-14
 -1      2878 6.74323E-03-2.54045E-03-4.90569E-14
 -1      2879 6.70699E-03-2.54785E-03-4.81546E-14
 -1      2880 7.17086E-03-2.71088E-03-5.40022E-14
 -1      2881 7.02693E-03-2.65672E-03-5.23345E-14
 -1      2882 6.98734E-03-2.66676E-03-5.14056E-14
 -1      2883 7.46395E-03-2.81049E-03-5.73957E-14
 -1      2884 7.31640E-03-2.76224E-03-5.56899E-14
 -1      2885 7.27173E-03-2.77635E-03-5.47363E-14
 -1      2886 7.76568E-03-2.89582E-03-6.08657E-14
 -1      2887 7.61380E-03-2.85532E-03-5.91206E-14
 -1      2888 7.56461E-03-2.87578E-03-5.81438E-14
 -1      2889 8.07620E-03-2.96292E-03-6.44114E-14
 -1      2890 7.92001E-03-2.93188E-03-6.26293E-14
 -1      2891 7.86792E-03-2.96028E-03-6.16270E-14
 -1      2892 8.39435E-03-3.01055E-03-6.80359E-14
 -1      2893 8.23462E-03-2.98930E-03-6.62132E-14
 -1      2894 8.18211E-03-3.02540E-03-6.51875E-14
 -1      2895 8.71700E-03-3.04224E-03-7.17391E-14
 -1      2896 8.55585E-03-3.02795E-03-6.98789E-14
 -1      2897 8.50646E-03-3.06915E-03-6.88254E-14
 -1      2898 9.03662E-03-3.07107E-03-7.55213E-14
 -1      2899 8.87770E-03-3.05526E-03-7.36189E-14
 -1      2900 8.83616E-03-3.09423E-03-7.25405E-14
 -1      2901 9.34504E-03-3.12268E-03-7.93905E-14
 -1      2902 9.19109E-03-3.09083E-03-7.74454E-14
 -1      2903 9.16031E-03-3.11607E-03-7.63387E-14
 -1      2904 9.65114E-03-3.23431E-03-8.33411E-14
 -1      2905 9.49883E-03-3.17146E-03-8.13571E-14
 -1      2906 9.47712E-03-3.17406E-03-8.02232E-14
 -1      2907 9.95517E-03-3.40720E-03-8.73736E-14
 -1      2908 9.80174E-03-3.31192E-03-8.53460E-14
 -1      2909 9.78948E-03-3.29819E-03-8.41879E-14
 -1      2910 1.02687E-02-3.63890E-03-9.14853E-14
 -1      2911 1.01102E-02-3.51754E-03-8.94210E-14
 -1      2912 1.01037E-02-3.49271E-03-8.82376E-14
 -1      2913 1.05934E-02-3.90291E-03-9.56693E-14
 -1      2914 1.04300E-02-3.76881E-03-9.35679E-14
 -1      2915 1.04304E-02-3.74400E-03-9.23638E-14
 -1      2916 1.09238E-02-4.17393E-03-9.99176E-14
 -1      2917 1.07585E-02-4.03889E-03-9.77853E-14
 -1      2918 1.07679E-02-4.01896E-03-9.65590E-14
 -1      2919 1.12531E-02-4.43576E-03-1.04226E-13
 -1      2920 1.10892E-02-4.30657E-03-1.02066E-13
 -1      2921 1.11081E-02-4.29166E-03-1.00819E-13
 -1      2922 1.15762E-02-4.68214E-03-1.08581E-13
 -1      2923 1.14158E-02-4.56090E-03-1.06398E-13
 -1      2924 1.14428E-02-4.54895E-03-1.05137E-13
 -1      2925 1.18909E-02-4.91393E-03-1.12980E-13
 -1      2926 1.17348E-02-4.79959E-03-1.10775E-13
 -1      2927 1.17675E-02-4.78837E-03-1.09498E-13
 -1      2928 1.21970E-02-5.13574E-03-1.17409E-13
 -1      2929 1.20451E-02-5.02568E-03-1.15190E-13
 -1      2930 1.20814E-02-5.01340E-03-1.13900E-13
 -1      2931 1.24868E-02-5.33773E-03-1.21330E-13
 -1      2932 1.23383E-02-5.22914E-03-1.19101E-13
 -1      2933 1.23769E-02-5.21486E-03-1.17800E-13
 -1      2934 1.26575E-02-5.39721E-03-1.21187E-13
 -1      2935 1.18372E-02-4.59040E-03-9.56657E-14
 -1      2936 1.20751E-02-4.71702E-03-9.66946E-14
 -1      2937 1.38296E-02-5.72627E-03-1.18819E-13
 -1      2938 1.37269E-02-5.69956E-03-1.19048E-13
 -1      2939 1.28078E-02-4.96725E-03-9.75170E-14
 -1      2940 1.29486E-02-4.99861E-03-9.76555E-14
 -1      2941 1.33769E-02-5.60760E-03-1.19738E-13
 -1      2942 1.32507E-02-5.57253E-03-1.19966E-13
 -1      2943 1.40081E-02-5.77569E-03-1.18350E-13
 -1      2944 1.39236E-02-5.75128E-03-1.18587E-13
 -1      2945 1.37678E-02-5.66766E-03-1.16792E-13
 -1      2946 1.36164E-02-5.67115E-03-1.19279E-13
 -1      2947 1.34993E-02-5.64045E-03-1.19507E-13
 -1      2948 1.33201E-02-5.54702E-03-1.17704E-13
 -1      2949 1.35589E-02-5.61202E-03-1.17250E-13
 -1      2950 1.41461E-02-5.82338E-03-1.17875E-13
 -1      2951 1.40817E-02-5.79918E-03-1.18114E-13
 -1      2952 1.39367E-02-5.71730E-03-1.16329E-13
 -1      2953 1.42512E-02-5.87599E-03-1.17377E-13
 -1      2954 1.42027E-02-5.84878E-03-1.17627E-13
 -1      2955 1.40649E-02-5.76729E-03-1.15845E-13
 -1      2956 1.43291E-02-5.93625E-03-1.16868E-13
 -1      2957 1.42928E-02-5.90497E-03-1.17125E-13
 -1      2958 1.41581E-02-5.82367E-03-1.15346E-13
 -1      2959 1.30671E-02-5.02697E-03-9.77563E-14
 -1      2960 1.31215E-02-5.03200E-03-9.74846E-14
 -1      2961 1.31342E-02-5.03025E-03-9.68011E-14
 -1      2962 1.31126E-02-5.03672E-03-9.62774E-14
 -1      2963 1.13429E-02-4.26872E-03-9.28755E-14
 -1      2964 1.15551E-02-4.41462E-03-9.41226E-14
 -1      2965 1.19190E-02-5.49620E-03-8.56203E-14
 -1      2966 1.17651E-02-5.54205E-03-8.39154E-14
 -1      2967 1.29316E-03 1.32041E-04-2.38428E-15
 -1      2968 1.18335E-03 1.50567E-04-2.01695E-15
 -1      2969 1.36190E-03 9.35185E-05-2.60542E-15
 -1      2970 1.95751E-03-5.06539E-05-5.24151E-15
 -1      2971 1.84594E-03-1.29510E-05-4.68815E-15
 -1      2972 1.81231E-03-2.40077E-05-4.44661E-15
 -1      2973 2.03935E-03-9.97243E-05-5.55069E-15
 -1      2974 1.08850E-03-4.16985E-04-7.25020E-16
 -1      2975 1.23862E-03-4.66886E-04-9.31004E-16
 -1      2976 1.28762E-03-4.56730E-04-1.09162E-15
 -1      2977 1.09205E-02-3.96014E-03-9.03991E-14
 -1      2978 1.11277E-02-4.11541E-03-9.16329E-14
 -1      2979 1.11982E-02-4.19777E-03-9.31038E-14
 -1      2980 1.24114E-02-4.86270E-03-9.76028E-14
 -1      2981 1.26342E-02-4.93235E-03-9.77803E-14
 -1      2982 1.07375E-03 1.64783E-04-1.68125E-15
 -1      2983 9.64205E-04 1.74427E-04-1.37690E-15
 -1      2984 9.15578E-04 1.51886E-04-1.25899E-15
 -1      2985 1.13824E-03 1.31347E-04-1.86985E-15
 -1      2986 6.58879E-04 3.50422E-05-6.87289E-16
 -1      2987 6.67121E-04 1.53067E-05-6.87167E-16
 -1      2988 7.73268E-04-3.20386E-06-8.69530E-16
 -1      2989 7.54611E-04 4.06899E-05-8.69950E-16
 -1      2990 7.56474E-04-1.64958E-04-6.16084E-16
 -1      2991 7.68938E-04-1.87813E-04-5.99591E-16
 -1      2992 1.01560E-02-4.63332E-03-7.06988E-14
 -1      2993 9.91943E-03-4.46314E-03-6.95967E-14
 -1      2994 1.27844E-02-5.13856E-03-9.32665E-14
 -1      2995 1.26479E-02-5.18138E-03-9.21194E-14
 -1      2996 1.44320E-02-6.05694E-03-1.16015E-13
 -1      2997 1.44324E-02-6.03609E-03-1.16632E-13
 -1      2998 1.43328E-02-6.01066E-03-1.14535E-13
 -1      2999 8.76344E-03-3.89587E-03-6.65254E-14
 -1      3000 8.60158E-03-3.84543E-03-6.61365E-14
 -1      3001 8.94047E-03-3.54662E-03-7.16886E-14
 -1      3002 9.05496E-03-3.49955E-03-7.26317E-14
 -1      3003 9.20622E-03-3.44643E-03-7.39277E-14
 -1      3004 9.33970E-03-3.39163E-03-7.52362E-14
 -1      3005 9.07803E-03-3.43795E-03-7.27845E-14
 -1      3006 8.31576E-03-3.77532E-03-6.64601E-14
 -1      3007 8.33602E-03-3.77407E-03-6.69639E-14
 -1      3008 9.52750E-03-3.36169E-03-7.67655E-14
 -1      3009 9.66247E-03-3.32583E-03-7.82946E-14
 -1      3010 9.14114E-03-4.03124E-03-6.71296E-14
 -1      3011 8.94503E-03-3.95525E-03-6.67613E-14
 -1      3012 1.09768E-02-5.26929E-03-7.56351E-14
 -1      3013 1.08026E-02-5.13855E-03-7.44504E-14
 -1      3014 1.22192E-02-5.37545E-03-8.85473E-14
 -1      3015 1.20927E-02-5.43600E-03-8.73562E-14
 -1      3016 1.25067E-02-5.23600E-03-9.09571E-14
 -1      3017 1.23641E-02-5.30191E-03-8.97984E-14
 -1      3018 1.26263E-02-5.24644E-03-9.22893E-14
 -1      3019 9.81977E-03-3.29911E-03-8.04743E-14
 -1      3020 9.97795E-03-3.34210E-03-8.22470E-14
 -1      3021 9.62504E-03-4.27143E-03-6.83145E-14
 -1      3022 9.39192E-03-4.14525E-03-6.76460E-14
 -1      3023 8.39590E-04-3.23236E-04-4.59051E-16
 -1      3024 9.79527E-04-3.77636E-04-5.98073E-16
 -1      3025 1.03226E-03-3.71682E-04-7.24776E-16
 -1      3026 8.19510E-04-2.95547E-04-4.82782E-16
 -1      3027 1.01660E-02-3.41857E-03-8.40932E-14
 -1      3028 1.03208E-02-3.51001E-03-8.55791E-14
 -1      3029 7.82291E-04-2.11789E-04-5.80834E-16
 -1      3030 7.96710E-04-2.37134E-04-5.59123E-16
 -1      3031 8.93244E-04-2.33005E-04-7.52938E-16
 -1      3032 8.15315E-04-9.01320E-05-8.45610E-16
 -1      3033 7.12861E-04-8.15961E-05-6.62854E-16
 -1      3034 7.23057E-04-1.01597E-04-6.53638E-16
 -1      3035 1.29091E-02-5.14869E-03-9.47869E-14
 -1      3036 6.68925E-04 1.42015E-04-7.27473E-16
 -1      3037 9.77597E-03-4.34133E-03-6.81574E-14
 -1      3038 1.03911E-02-3.58050E-03-8.68280E-14
 -1      3039 1.23568E-02-5.36655E-03-8.98638E-14
 -1      3040 9.25606E-03-4.05067E-03-6.63762E-14
 -1      3041 1.03058E-02-4.68371E-03-6.97015E-14
 -1      3042 1.05263E-02-4.83637E-03-7.04114E-14
 -1      3043 1.07230E-02-5.01083E-03-7.22708E-14
 -1      3044 1.07400E-02-5.06226E-03-7.33721E-14
 -1      3045 1.15518E-02-5.54854E-03-8.15632E-14
 -1      3046 1.16535E-02-5.58101E-03-8.16244E-14
 -1      3047 1.42370E-02-5.94164E-03-1.13668E-13
 -1      3048 1.18346E-02-5.59756E-03-8.36238E-14
 -1      3049 1.00310E-02-3.37069E-03-8.33296E-14
 -1      3050 1.02908E-02-4.70974E-03-7.07407E-14
 -1      3051 9.38719E-03-3.35621E-03-7.55995E-14
 -1      3052 1.16769E-02-4.51864E-03-9.58983E-14
 -1      3053 1.27864E-02-5.43847E-03-1.20972E-13
 -1      3054 1.26472E-02-5.34952E-03-1.19279E-13
 -1      3055 1.29160E-02-5.47874E-03-1.20755E-13
 -1      3056 1.30370E-02-5.05356E-03-9.88589E-14
 -1      3057 1.31635E-02-5.07339E-03-9.82746E-14
 -1      3058 8.82765E-03-3.56585E-03-7.06857E-14
 -1      3059 8.82614E-03-3.50075E-03-7.04951E-14
 -1      3060 8.71921E-03-3.57755E-03-6.96891E-14
 -1      3061 1.21461E-02-4.79828E-03-9.91224E-14
 -1      3062 1.22719E-02-4.83331E-03-9.83644E-14
 -1      3063 1.24532E-02-4.93158E-03-1.00042E-13
 -1      3064 1.44027E-02-5.99989E-03-1.16899E-13
 -1      3065 7.67627E-04 1.32019E-04-9.25245E-16
 -1      3066 1.27492E-02-4.99441E-03-9.90184E-14
 -1      3067 1.31160E-02-5.08780E-03-9.68550E-14
 -1      3068 8.50658E-03-3.80004E-03-6.54784E-14
 -1      3069 8.42510E-03-3.76045E-03-6.48206E-14
 -1      3070 8.57154E-03-3.78836E-03-6.47424E-14
 -1      3071 8.55826E-03-3.70194E-03-6.88458E-14
 -1      3072 8.59603E-03-3.64308E-03-6.87928E-14
 -1      3073 8.46645E-03-3.68698E-03-6.77687E-14
 -1      3074 1.11376E-02-5.35997E-03-7.64298E-14
 -1      3075 1.18144E-02-5.55945E-03-8.41016E-14
 -1      3076 1.16765E-02-5.55528E-03-8.28959E-14
 -1      3077 8.34379E-03-3.74281E-03-6.68166E-14
 -1      3078 8.35683E-03-3.70702E-03-6.66684E-14
 -1      3079 8.28687E-03-3.70351E-03-6.56715E-14
 -1      3080 8.32043E-03-3.73750E-03-6.49181E-14
 -1      3081 8.30924E-03-3.75859E-03-6.56882E-14
 -1      3082 8.27140E-03-3.71725E-03-6.50495E-14
 -1      3083 1.31487E-02-5.54572E-03-1.20251E-13
 -1      3084 1.30197E-02-5.50772E-03-1.20471E-13
 -1      3085 1.28820E-02-5.42301E-03-1.18781E-13
 -1      3086 1.30905E-02-5.48261E-03-1.18215E-13
 -1      3087 1.07841E-02-3.88124E-03-9.01648E-14
 -1      3088 7.33644E-04-1.22021E-04-6.42851E-16
 -1      3089 7.44772E-04-1.43124E-04-6.30233E-16
 -1      3090 8.64441E-04-1.82143E-04-7.92565E-16
 -1      3091 8.38783E-04-1.34985E-04-8.22909E-16
 -1      3092 1.42526E-02-5.92993E-03-1.14398E-13
 -1      3093 1.43194E-02-5.94305E-03-1.16142E-13
 -1      3094 1.41845E-02-5.86200E-03-1.14369E-13
 -1      3095 1.41560E-02-5.88169E-03-1.12918E-13
 -1      3096 8.84290E-03-3.88721E-03-6.56328E-14
 -1      3097 9.57929E-03-3.28948E-03-7.81230E-14
 -1      3098 9.67890E-03-3.28226E-03-7.92949E-14
 -1      3099 9.71979E-03-3.28040E-03-8.03010E-14
 -1      3100 8.32259E-04 9.59383E-05-1.06049E-15
 -1      3101 8.41060E-04 7.05113E-05-1.06929E-15
 -1      3102 7.98678E-04-2.53121E-04-5.31774E-16
 -1      3103 8.15842E-04-2.77768E-04-5.13180E-16
 -1      3104 9.20275E-04-3.14419E-04-6.32036E-16
 -1      3105 9.12322E-04-2.77715E-04-6.97765E-16
 -1      3106 1.27573E-02-5.27844E-03-9.38438E-14
 -1      3107 1.26360E-02-5.32162E-03-9.26690E-14
 -1      3108 9.91020E-03-3.32681E-03-8.27823E-14
 -1      3109 1.00812E-02-3.40755E-03-8.46367E-14
 -1      3110 1.00878E-02-4.51562E-03-6.84074E-14
 -1      3111 1.77553E-03-5.79498E-04-2.16702E-15
 -1      3112 1.92141E-03-6.23198E-04-2.52704E-15
 -1      3113 2.06697E-03-6.66954E-04-2.91629E-15
 -1      3114 2.21223E-03-7.10869E-04-3.33449E-15
 -1      3115 1.96469E-03-6.08913E-04-2.78092E-15
 -1      3116 2.35713E-03-7.55169E-04-3.78151E-15
 -1      3117 2.50168E-03-7.99931E-04-4.25701E-15
 -1      3118 2.25307E-03-6.96189E-04-3.62553E-15
 -1      3119 2.64587E-03-8.45328E-04-4.76211E-15
 -1      3120 2.78969E-03-8.91412E-04-5.29652E-15
 -1      3121 2.54028E-03-7.85463E-04-4.58573E-15
 -1      3122 2.93316E-03-9.38305E-04-5.85839E-15
 -1      3123 3.07626E-03-9.86037E-04-6.44936E-15
 -1      3124 2.82618E-03-8.77575E-04-5.66031E-15
 -1      3125 3.21902E-03-1.03469E-03-7.06987E-15
 -1      3126 3.36142E-03-1.08427E-03-7.71860E-15
 -1      3127 3.11071E-03-9.73112E-04-6.84983E-15
 -1      3128 3.50348E-03-1.13483E-03-8.39602E-15
 -1      3129 3.64519E-03-1.18636E-03-9.10171E-15
 -1      3130 3.39384E-03-1.07244E-03-8.15492E-15
 -1      3131 3.78656E-03-1.23888E-03-9.83567E-15
 -1      3132 3.92760E-03-1.29237E-03-1.05985E-14
 -1      3133 3.67560E-03-1.17572E-03-9.57318E-15
 -1      3134 4.06831E-03-1.34684E-03-1.13894E-14
 -1      3135 4.20868E-03-1.40225E-03-1.22098E-14
 -1      3136 3.95599E-03-1.28297E-03-1.11052E-14
 -1      3137 4.34873E-03-1.45859E-03-1.30584E-14
 -1      3138 4.48845E-03-1.51583E-03-1.39350E-14
 -1      3139 4.23502E-03-1.39410E-03-1.27522E-14
 -1      3140 4.62785E-03-1.57393E-03-1.48392E-14
 -1      3141 4.76693E-03-1.63287E-03-1.57715E-14
 -1      3142 4.51270E-03-1.50891E-03-1.45115E-14
 -1      3143 4.90568E-03-1.69259E-03-1.67331E-14
 -1      3144 5.04412E-03-1.75307E-03-1.77228E-14
 -1      3145 4.78902E-03-1.62715E-03-1.63833E-14
 -1      3146 5.18224E-03-1.81426E-03-1.87398E-14
 -1      3147 5.32005E-03-1.87612E-03-1.97857E-14
 -1      3148 5.06397E-03-1.74850E-03-1.83688E-14
 -1      3149 5.45755E-03-1.93861E-03-2.08588E-14
 -1      3150 5.59476E-03-2.00170E-03-2.19591E-14
 -1      3151 5.33754E-03-1.87264E-03-2.04660E-14
 -1      3152 5.73165E-03-2.06534E-03-2.30886E-14
 -1      3153 5.86828E-03-2.12951E-03-2.42451E-14
 -1      3154 5.60970E-03-1.99925E-03-2.26742E-14
 -1      3155 6.00463E-03-2.19418E-03-2.54297E-14
 -1      3156 6.14075E-03-2.25934E-03-2.66421E-14
 -1      3157 5.88046E-03-2.12804E-03-2.49944E-14
 -1      3158 6.27662E-03-2.32497E-03-2.78831E-14
 -1      3159 6.41233E-03-2.39109E-03-2.91523E-14
 -1      3160 6.14986E-03-2.25879E-03-2.74257E-14
 -1      3161 6.54786E-03-2.45770E-03-3.04476E-14
 -1      3162 6.68332E-03-2.52487E-03-3.17700E-14
 -1      3163 6.41804E-03-2.39141E-03-2.99681E-14
 -1      3164 6.81870E-03-2.59262E-03-3.31183E-14
 -1      3165 6.95408E-03-2.66109E-03-3.44934E-14
 -1      3166 6.68525E-03-2.52607E-03-3.26163E-14
 -1      3167 7.08948E-03-2.73033E-03-3.58952E-14
 -1      3168 7.22488E-03-2.80050E-03-3.73207E-14
 -1      3169 6.95186E-03-2.66332E-03-3.53708E-14
 -1      3170 7.36024E-03-2.87163E-03-3.87717E-14
 -1      3171 7.49546E-03-2.94374E-03-4.02477E-14
 -1      3172 7.21815E-03-2.80425E-03-3.82272E-14
 -1      3173 7.63047E-03-3.01680E-03-4.17462E-14
 -1      3174 7.76502E-03-3.08990E-03-4.32686E-14
 -1      3175 7.48370E-03-2.94985E-03-4.11814E-14
 -1      3176 7.89935E-03-3.16290E-03-4.48126E-14
 -1      3177 8.03396E-03-3.23567E-03-4.63791E-14
 -1      3178 7.74698E-03-3.09752E-03-4.42290E-14
 -1      3179 8.16856E-03-3.30882E-03-4.79689E-14
 -1      3180 8.30474E-03-3.38188E-03-4.95787E-14
 -1      3181 8.00850E-03-3.24316E-03-4.73666E-14
 -1      3182 8.44248E-03-3.45535E-03-5.12061E-14
 -1      3183 8.58216E-03-3.53105E-03-5.28525E-14
 -1      3184 8.27276E-03-3.38652E-03-5.05886E-14
 -1      3185 8.72400E-03-3.60931E-03-5.45202E-14
 -1      3186 8.86905E-03-3.69159E-03-5.62057E-14
 -1      3187 8.54295E-03-3.53293E-03-5.38866E-14
 -1      3188 9.01792E-03-3.77817E-03-5.79078E-14
 -1      3189 9.17194E-03-3.87171E-03-5.96281E-14
 -1      3190 8.82179E-03-3.68999E-03-5.72586E-14
 -1      3191 9.33254E-03-3.97230E-03-6.13660E-14
 -1      3192 9.50084E-03-4.08435E-03-6.31233E-14
 -1      3193 9.11686E-03-3.86588E-03-6.07019E-14
 -1      3194 8.89514E-03-3.86840E-03-6.45470E-14
 -1      3195 8.73137E-03-3.81484E-03-6.43150E-14
 -1      3196 1.19074E-03-4.00775E-04-1.01531E-15
 -1      3197 1.33692E-03-4.46434E-04-1.26057E-15
 -1      3198 1.26149E-02-5.41314E-03-9.24801E-14
 -1      3199 1.28078E-02-5.41944E-03-9.45864E-14
 -1      3200 1.29915E-02-5.44373E-03-9.67047E-14
 -1      3201 1.31652E-02-5.47972E-03-9.88364E-14
 -1      3202 1.29582E-02-5.37884E-03-9.63425E-14
 -1      3203 1.33308E-02-5.52728E-03-1.00979E-13
 -1      3204 1.34897E-02-5.58197E-03-1.03131E-13
 -1      3205 1.32932E-02-5.46761E-03-1.00614E-13
 -1      3206 1.36433E-02-5.64314E-03-1.05294E-13
 -1      3207 1.37932E-02-5.70838E-03-1.07461E-13
 -1      3208 1.35994E-02-5.58920E-03-1.04926E-13
 -1      3209 1.39032E-02-5.75919E-03-1.09094E-13
 -1      3210 1.40485E-02-5.82892E-03-1.11276E-13
 -1      3211 1.40663E-02-5.81651E-03-1.12002E-13
 -1      3212 1.38538E-02-5.70928E-03-1.08727E-13
 -1      3213 2.58845E-03-3.32586E-04-8.47984E-15
 -1      3214 2.47154E-03-2.84068E-04-7.78061E-15
 -1      3215 2.35493E-03-2.37396E-04-7.11067E-15
 -1      3216 2.23865E-03-1.92656E-04-6.47044E-15
 -1      3217 2.44333E-03-2.91108E-04-7.44652E-15
 -1      3218 3.05940E-03-5.43203E-04-1.15742E-14
 -1      3219 2.94117E-03-4.88215E-04-1.07563E-14
 -1      3220 3.29687E-03-6.57465E-04-1.32976E-14
 -1      3221 3.17797E-03-5.99635E-04-1.24215E-14
 -1      3222 3.15729E-03-6.02264E-04-1.19847E-14
 -1      3223 3.53569E-03-7.77123E-04-1.51374E-14
 -1      3224 3.41611E-03-7.16640E-04-1.42030E-14
 -1      3225 3.39740E-03-7.17955E-04-1.37318E-14
 -1      3226 3.77589E-03-9.01853E-04-1.70916E-14
 -1      3227 3.65562E-03-8.38871E-04-1.61003E-14
 -1      3228 3.63859E-03-8.38921E-04-1.55952E-14
 -1      3229 4.01747E-03-1.03138E-03-1.91576E-14
 -1      3230 3.89650E-03-9.66034E-04-1.81105E-14
 -1      3231 3.88084E-03-9.64857E-04-1.75710E-14
 -1      3232 4.26045E-03-1.16546E-03-2.13357E-14
 -1      3233 4.13878E-03-1.09787E-03-2.02327E-14
 -1      3234 4.12415E-03-1.09550E-03-1.96589E-14
 -1      3235 4.50488E-03-1.30381E-03-2.36261E-14
 -1      3236 4.38248E-03-1.23412E-03-2.24669E-14
 -1      3237 4.36851E-03-1.23061E-03-2.18584E-14
 -1      3238 4.75081E-03-1.44611E-03-2.60248E-14
 -1      3239 4.62764E-03-1.37449E-03-2.48120E-14
 -1      3240 4.61391E-03-1.36991E-03-2.41686E-14
 -1      3241 4.99835E-03-1.59193E-03-2.85310E-14
 -1      3242 4.87436E-03-1.51862E-03-2.72653E-14
 -1      3243 4.86037E-03-1.51308E-03-2.65875E-14
 -1      3244 5.24768E-03-1.74065E-03-3.11390E-14
 -1      3245 5.12276E-03-1.66597E-03-2.98215E-14
 -1      3246 5.10796E-03-1.65968E-03-2.91118E-14
 -1      3247 5.49905E-03-1.89137E-03-3.38515E-14
 -1      3248 5.37307E-03-1.81582E-03-3.24824E-14
 -1      3249 5.35683E-03-1.80909E-03-3.17396E-14
 -1      3250 5.75281E-03-2.04287E-03-3.66616E-14
 -1      3251 5.62560E-03-1.96710E-03-3.52440E-14
 -1      3252 5.60724E-03-1.96039E-03-3.44682E-14
 -1      3253 6.00939E-03-2.19358E-03-3.95713E-14
 -1      3254 5.88070E-03-2.11846E-03-3.81042E-14
 -1      3255 5.85951E-03-2.11233E-03-3.72977E-14
 -1      3256 6.26929E-03-2.34180E-03-4.25782E-14
 -1      3257 6.13888E-03-2.26803E-03-4.10632E-14
 -1      3258 6.11396E-03-2.26323E-03-4.02256E-14
 -1      3259 6.53355E-03-2.48656E-03-4.56750E-14
 -1      3260 6.40032E-03-2.41529E-03-4.41150E-14
 -1      3261 6.37034E-03-2.41264E-03-4.32497E-14
 -1      3262 6.80645E-03-2.62065E-03-4.88590E-14
 -1      3263 6.66802E-03-2.55796E-03-4.72564E-14
 -1      3264 6.63072E-03-2.56138E-03-4.63631E-14
 -1      3265 7.08659E-03-2.73269E-03-5.21230E-14
 -1      3266 6.94772E-03-2.67544E-03-5.04809E-14
 -1      3267 6.90426E-03-2.68800E-03-4.95608E-14
 -1      3268 7.36911E-03-2.84190E-03-5.54679E-14
 -1      3269 7.22652E-03-2.78792E-03-5.37856E-14
 -1      3270 7.18161E-03-2.79793E-03-5.28399E-14
 -1      3271 7.66240E-03-2.94252E-03-5.88896E-14
 -1      3272 7.51439E-03-2.89411E-03-5.71699E-14
 -1      3273 7.46362E-03-2.90926E-03-5.61991E-14
 -1      3274 7.96774E-03-3.02680E-03-6.23872E-14
 -1      3275 7.81355E-03-2.98718E-03-6.06286E-14
 -1      3276 7.75752E-03-3.01118E-03-5.96345E-14
 -1      3277 8.28628E-03-3.09004E-03-6.59609E-14
 -1      3278 8.12558E-03-3.06144E-03-6.41652E-14
 -1      3279 8.06528E-03-3.09566E-03-6.31471E-14
 -1      3280 8.61759E-03-3.13013E-03-6.96128E-14
 -1      3281 8.45082E-03-3.11387E-03-6.77761E-14
 -1      3282 8.38883E-03-3.15759E-03-6.67328E-14
 -1      3283 8.95446E-03-3.14525E-03-7.33396E-14
 -1      3284 8.78598E-03-3.13891E-03-7.14662E-14
 -1      3285 8.72609E-03-3.18965E-03-7.03940E-14
 -1      3286 9.62633E-03-3.23921E-03-8.06571E-14
 -1      3287 9.45969E-03-3.20221E-03-7.87014E-14
 -1      3288 9.95480E-03-3.37191E-03-8.51424E-14
 -1      3289 9.79382E-03-3.29044E-03-8.31409E-14
 -1      3290 1.06000E-02-3.85724E-03-9.32386E-14
 -1      3291 1.04274E-02-3.71805E-03-9.11592E-14
 -1      3292 1.09508E-02-4.14125E-03-9.74486E-14
 -1      3293 1.07752E-02-3.99994E-03-9.53362E-14
 -1      3294 1.07816E-02-3.97952E-03-9.41131E-14
 -1      3295 1.12994E-02-4.41255E-03-1.01723E-13
 -1      3296 1.11264E-02-4.27941E-03-9.95786E-14
 -1      3297 1.11443E-02-4.26837E-03-9.83394E-14
 -1      3298 1.16373E-02-4.66253E-03-1.06043E-13
 -1      3299 1.14703E-02-4.54002E-03-1.03878E-13
 -1      3300 1.14983E-02-4.53397E-03-1.02622E-13
 -1      3301 1.19617E-02-4.89346E-03-1.10412E-13
 -1      3302 1.18014E-02-4.77997E-03-1.08221E-13
 -1      3303 1.18364E-02-4.77447E-03-1.06949E-13
 -1      3304 1.22733E-02-5.11103E-03-1.14819E-13
 -1      3305 1.21191E-02-5.00338E-03-1.12611E-13
 -1      3306 1.21580E-02-4.99589E-03-1.11324E-13
 -1      3307 1.25324E-02-5.27636E-03-1.17889E-13
 -1      3308 1.23904E-02-5.18596E-03-1.16202E-13
 -1      3309 1.24314E-02-5.17583E-03-1.14906E-13
 -1      3310 1.26632E-02-5.32064E-03-1.17676E-13
 -1      3311 8.90587E-03-3.40711E-03-7.14466E-14
 -1      3312 9.03158E-03-3.36860E-03-7.27320E-14
 -1      3313 1.38662E-02-5.65976E-03-1.14307E-13
 -1      3314 1.37928E-02-5.63517E-03-1.14540E-13
 -1      3315 1.06443E-02-3.79838E-03-8.98439E-14
 -1      3316 1.08455E-02-3.95849E-03-9.15359E-14
 -1      3317 1.37068E-02-5.61014E-03-1.14775E-13
 -1      3318 1.36098E-02-5.58342E-03-1.15004E-13
 -1      3319 1.36470E-02-5.55289E-03-1.12760E-13
 -1      3320 1.30037E-02-5.08483E-03-1.00168E-13
 -1      3321 1.31194E-02-5.11174E-03-1.00272E-13
 -1      3322 1.19137E-02-5.58642E-03-8.46493E-14
 -1      3323 1.31953E-02-5.12261E-03-9.97676E-14
 -1      3324 1.32063E-02-5.11918E-03-9.90805E-14
 -1      3325 1.43291E-03 5.34679E-05-2.82889E-15
 -1      3326 1.31892E-03 7.67357E-05-2.43001E-15
 -1      3327 1.20597E-02-5.49206E-03-8.68638E-14
 -1      3328 1.39824E-02-5.71205E-03-1.13817E-13
 -1      3329 1.39295E-02-5.68502E-03-1.14065E-13
 -1      3330 1.37958E-02-5.60281E-03-1.12287E-13
 -1      3331 1.40620E-02-5.77287E-03-1.13317E-13
 -1      3332 1.40259E-02-5.74106E-03-1.13569E-13
 -1      3333 1.38965E-02-5.65780E-03-1.11796E-13
 -1      3334 1.31964E-02-5.13519E-03-9.85912E-14
 -1      3335 1.31454E-02-5.15367E-03-9.78518E-14
 -1      3336 2.82326E-03-4.34740E-04-9.96778E-15
 -1      3337 2.70570E-03-3.82833E-04-9.20870E-15
 -1      3338 2.68026E-03-3.88304E-04-8.84098E-15
 -1      3339 2.91824E-03-4.92223E-04-1.03540E-14
 -1      3340 1.66170E-03-3.09239E-06-3.71763E-15
 -1      3341 1.54716E-03 2.67959E-05-3.25806E-15
 -1      3342 1.50599E-03 1.19474E-05-3.05483E-15
 -1      3343 1.30308E-02-5.18344E-03-9.65135E-14
 -1      3344 1.28972E-02-5.22138E-03-9.51771E-14
 -1      3345 1.29048E-02-5.29709E-03-9.55626E-14
 -1      3346 1.48317E-03-4.91320E-04-1.53397E-15
 -1      3347 1.62944E-03-5.35583E-04-1.83629E-15
 -1      3348 1.67548E-03-5.22546E-04-2.05151E-15
 -1      3349 1.10810E-02-4.14090E-03-9.34456E-14
 -1      3350 1.12749E-02-4.28068E-03-9.46980E-14
 -1      3351 1.27247E-02-5.03041E-03-1.00688E-13
 -1      3352 1.28749E-02-5.06196E-03-1.00427E-13
 -1      3353 1.29889E-02-5.12427E-03-1.01842E-13
 -1      3354 9.17140E-03-3.32196E-03-7.42388E-14
 -1      3355 9.34176E-03-3.30433E-03-7.57575E-14
 -1      3356 8.98918E-03-3.29408E-03-7.28860E-14
 -1      3357 1.02739E-02-3.52501E-03-8.65224E-14
 -1      3358 1.04484E-02-3.65119E-03-8.81765E-14
 -1      3359 8.91984E-04 1.34081E-04-1.20300E-15
 -1      3360 8.55904E-04 1.12504E-04-1.11730E-15
 -1      3361 9.58860E-04 9.28550E-05-1.35785E-15
 -1      3362 1.00432E-03 1.26609E-04-1.48599E-15
 -1      3363 1.15323E-02-4.45293E-03-9.62421E-14
 -1      3364 1.17926E-02-4.61486E-03-9.77975E-14
 -1      3365 1.14075E-02-4.39018E-03-9.65841E-14
 -1      3366 8.93385E-04-5.01348E-05-1.06835E-15
 -1      3367 9.05253E-04-7.39696E-05-1.06118E-15
 -1      3368 9.33144E-03-4.05014E-03-6.52772E-14
 -1      3369 9.10889E-03-3.94829E-03-6.47718E-14
 -1      3370 9.87094E-03-4.34288E-03-6.63581E-14
 -1      3371 9.83960E-03-4.35053E-03-6.73807E-14
 -1      3372 9.57157E-03-4.18005E-03-6.61173E-14
 -1      3373 9.68379E-03-4.20357E-03-6.45712E-14
 -1      3374 9.17557E-04-9.79848E-05-1.05184E-15
 -1      3375 9.30337E-04-1.22273E-04-1.04048E-15
 -1      3376 1.01954E-03-1.05501E-04-1.28113E-15
 -1      3377 8.50464E-04 4.57524E-05-1.07454E-15
 -1      3378 8.60491E-04 2.14452E-05-1.07691E-15
 -1      3379 9.46238E-04 4.99739E-05-1.30076E-15
 -1      3380 1.01428E-02-3.46108E-03-8.59642E-14
 -1      3381 1.40599E-02-5.79746E-03-1.12299E-13
 -1      3382 1.40728E-02-5.78899E-03-1.13021E-13
 -1      3383 1.39427E-02-5.70552E-03-1.11251E-13
 -1      3384 1.39562E-02-5.74221E-03-1.10659E-13
 -1      3385 9.44867E-03-4.07313E-03-6.38918E-14
 -1      3386 8.97091E-03-3.86679E-03-6.34595E-14
 -1      3387 1.38611E-03-4.35821E-04-1.43745E-15
 -1      3388 1.89161E-03-7.14601E-05-4.72880E-15
 -1      3389 1.77651E-03-3.58968E-05-4.20805E-15
 -1      3390 1.73874E-03-4.85310E-05-3.97297E-15
 -1      3391 2.20744E-03-2.01398E-04-6.16999E-15
 -1      3392 2.12266E-03-1.50002E-04-5.86025E-15
 -1      3393 2.00699E-03-1.09538E-04-5.27955E-15
 -1      3394 9.40762E-03-3.22556E-03-7.74476E-14
 -1      3395 9.27719E-03-3.15875E-03-7.70285E-14
 -1      3396 9.11256E-03-3.15051E-03-7.51127E-14
 -1      3397 9.39495E-03-3.27235E-03-7.64636E-14
 -1      3398 9.05872E-03-3.19346E-03-7.40139E-14
 -1      3399 1.04676E-02-3.70960E-03-8.99360E-14
 -1      3400 1.02989E-02-3.60414E-03-8.90814E-14
 -1      3401 1.01304E-02-3.48182E-03-8.70382E-14
 -1      3402 8.81527E-03-3.42248E-03-7.04445E-14
 -1      3403 8.77423E-03-3.34963E-03-7.03885E-14
 -1      3404 8.71208E-03-3.43430E-03-6.94481E-14
 -1      3405 1.05160E-02-3.72418E-03-8.95305E-14
 -1      3406 1.32649E-02-5.48925E-03-1.15679E-13
 -1      3407 1.31371E-02-5.45190E-03-1.15904E-13
 -1      3408 1.31929E-02-5.18842E-03-1.02393E-13
 -1      3409 1.31990E-02-5.15559E-03-1.01078E-13
 -1      3410 1.32678E-02-5.19991E-03-1.01888E-13
 -1      3411 1.09330E-02-4.04703E-03-9.31160E-14
 -1      3412 1.35029E-02-5.55496E-03-1.15230E-13
 -1      3413 1.33872E-02-5.52345E-03-1.15454E-13
 -1      3414 1.32116E-02-5.43338E-03-1.13663E-13
 -1      3415 1.34491E-02-5.49886E-03-1.13217E-13
 -1      3416 8.60988E-03-3.57950E-03-6.86053E-14
 -1      3417 8.61100E-03-3.51479E-03-6.84162E-14
 -1      3418 8.50637E-03-3.57271E-03-6.75294E-14
 -1      3419 1.19966E-02-4.74028E-03-9.94700E-14
 -1      3420 1.21912E-02-4.85141E-03-1.01148E-13
 -1      3421 1.18591E-02-4.67964E-03-9.98131E-14
 -1      3422 1.31479E-02-5.21598E-03-9.82466E-14
 -1      3423 1.32559E-02-5.17990E-03-1.00084E-13
 -1      3424 1.26108E-02-5.01307E-03-1.01451E-13
 -1      3425 1.27568E-02-5.08562E-03-1.02864E-13
 -1      3426 1.25001E-02-4.98958E-03-1.02211E-13
 -1      3427 8.61695E-03-3.76493E-03-6.36641E-14
 -1      3428 8.51308E-03-3.72087E-03-6.30147E-14
 -1      3429 8.65586E-03-3.74534E-03-6.25899E-14
 -1      3430 1.29771E-02-5.36480E-03-1.14166E-13
 -1      3431 1.30330E-02-5.42242E-03-1.16188E-13
 -1      3432 1.29278E-02-5.39155E-03-1.16469E-13
 -1      3433 8.37848E-03-3.66421E-03-6.66150E-14
 -1      3434 8.39967E-03-3.61524E-03-6.65619E-14
 -1      3435 8.29853E-03-3.63260E-03-6.54695E-14
 -1      3436 8.34722E-03-3.72038E-03-6.41870E-14
 -1      3437 8.28078E-03-3.68175E-03-6.35552E-14
 -1      3438 8.38523E-03-3.70435E-03-6.34590E-14
 -1      3439 8.71007E-04-2.59800E-06-1.07645E-15
 -1      3440 8.81980E-04-2.63745E-05-1.07346E-15
 -1      3441 9.93111E-04-5.38543E-05-1.29821E-15
 -1      3442 9.68628E-04-2.33224E-06-1.30527E-15
 -1      3443 1.21768E-03 9.72359E-05-2.10311E-15
 -1      3444 1.10444E-03 1.13187E-04-1.76221E-15
 -1      3445 1.08274E-03 9.64749E-05-1.69160E-15
 -1      3446 1.28698E-03 6.02186E-05-2.30131E-15
 -1      3447 9.40199E-03-4.06476E-03-6.45110E-14
 -1      3448 8.21242E-03-3.65150E-03-6.36667E-14
 -1      3449 8.23136E-03-3.66762E-03-6.44308E-14
 -1      3450 9.78257E-03-3.28978E-03-8.15835E-14
 -1      3451 8.22025E-03-3.63926E-03-6.42831E-14
 -1      3452 9.72014E-04-1.97997E-04-9.93183E-16
 -1      3453 9.87347E-04-2.24729E-04-9.72733E-16
 -1      3454 1.24637E-02-5.39269E-03-9.09395E-14
 -1      3455 1.11335E-03-2.70571E-04-1.17006E-15
 -1      3456 1.00367E-03-2.52517E-04-9.49463E-16
 -1      3457 1.02110E-03-2.81521E-04-9.22832E-16
 -1      3458 1.02560E-03-3.50764E-04-7.64390E-16
 -1      3459 1.07860E-03-3.44432E-04-9.00118E-16
 -1      3460 1.23443E-02-5.45410E-03-8.96769E-14
 -1      3461 1.07312E-03-3.24451E-04-9.38675E-16
 -1      3462 1.57825E-03-4.67227E-04-1.93399E-15
 -1      3463 1.72151E-03-5.09532E-04-2.27448E-15
 -1      3464 8.14965E-03-3.57308E-03-6.29983E-14
 -1      3465 8.21757E-03-3.60672E-03-6.42292E-14
 -1      3466 8.21965E-03-3.56885E-03-6.41744E-14
 -1      3467 1.32638E-02-5.26446E-03-1.00161E-13
 -1      3468 1.31675E-02-5.28769E-03-9.88111E-14
 -1      3469 1.12782E-02-4.32514E-03-9.70374E-14
 -1      3470 1.15149E-02-4.48334E-03-9.85959E-14
 -1      3471 2.15103E-03-6.38054E-04-3.46781E-15
 -1      3472 2.29387E-03-6.81812E-04-3.92272E-15
 -1      3473 2.43647E-03-7.26239E-04-4.40674E-15
 -1      3474 2.57878E-03-7.71382E-04-4.91957E-15
 -1      3475 2.33450E-03-6.67770E-04-4.22644E-15
 -1      3476 2.72079E-03-8.17356E-04-5.46049E-15
 -1      3477 2.86248E-03-8.64190E-04-6.02995E-15
 -1      3478 2.61705E-03-7.57731E-04-5.25895E-15
 -1      3479 3.00385E-03-9.11965E-04-6.62845E-15
 -1      3480 3.14488E-03-9.60691E-04-7.25606E-15
 -1      3481 2.89851E-03-8.51304E-04-6.40576E-15
 -1      3482 3.28558E-03-1.01042E-03-7.91153E-15
 -1      3483 3.42593E-03-1.06115E-03-8.59573E-15
 -1      3484 3.17872E-03-9.48821E-04-7.66684E-15
 -1      3485 3.56594E-03-1.11290E-03-9.30844E-15
 -1      3486 3.70561E-03-1.16566E-03-1.00496E-14
 -1      3487 3.45762E-03-1.05045E-03-9.04212E-15
 -1      3488 3.84494E-03-1.21943E-03-1.08194E-14
 -1      3489 3.98392E-03-1.27419E-03-1.16174E-14
 -1      3490 3.73517E-03-1.15622E-03-1.05318E-14
 -1      3491 4.12255E-03-1.32993E-03-1.24438E-14
 -1      3492 4.26085E-03-1.38661E-03-1.32990E-14
 -1      3493 4.01135E-03-1.26606E-03-1.21348E-14
 -1      3494 4.39879E-03-1.44421E-03-1.41817E-14
 -1      3495 4.53638E-03-1.50269E-03-1.50926E-14
 -1      3496 4.28613E-03-1.37979E-03-1.38506E-14
 -1      3497 4.67361E-03-1.56202E-03-1.60330E-14
 -1      3498 4.81049E-03-1.62216E-03-1.70009E-14
 -1      3499 4.55947E-03-1.49718E-03-1.56804E-14
 -1      3500 4.94699E-03-1.68307E-03-1.79967E-14
 -1      3501 5.08313E-03-1.74471E-03-1.90207E-14
 -1      3502 4.83131E-03-1.61793E-03-1.76229E-14
 -1      3503 5.21887E-03-1.80703E-03-2.00721E-14
 -1      3504 5.35423E-03-1.87000E-03-2.11522E-14
 -1      3505 5.10157E-03-1.74173E-03-1.96773E-14
 -1      3506 5.48918E-03-1.93358E-03-2.22597E-14
 -1      3507 5.62373E-03-1.99773E-03-2.33949E-14
 -1      3508 5.37013E-03-1.86825E-03-2.18435E-14
 -1      3509 5.75785E-03-2.06240E-03-2.45577E-14
 -1      3510 5.89156E-03-2.12758E-03-2.57484E-14
 -1      3511 5.63685E-03-1.99717E-03-2.41201E-14
 -1      3512 6.02482E-03-2.19323E-03-2.69672E-14
 -1      3513 6.15768E-03-2.25935E-03-2.82145E-14
 -1      3514 5.90159E-03-2.12818E-03-2.65085E-14
 -1      3515 6.29009E-03-2.32591E-03-2.94880E-14
 -1      3516 6.42214E-03-2.39296E-03-3.07886E-14
 -1      3517 6.16420E-03-2.26108E-03-2.90071E-14
 -1      3518 6.55381E-03-2.46049E-03-3.21148E-14
 -1      3519 6.68517E-03-2.52862E-03-3.34668E-14
 -1      3520 6.42465E-03-2.39580E-03-3.16121E-14
 -1      3521 6.81627E-03-2.59737E-03-3.48464E-14
 -1      3522 6.94719E-03-2.66704E-03-3.62509E-14
 -1      3523 6.68308E-03-2.53255E-03-3.43224E-14
 -1      3524 7.07797E-03-2.73761E-03-3.76819E-14
 -1      3525 7.20859E-03-2.80964E-03-3.91371E-14
 -1      3526 6.94000E-03-2.67219E-03-3.71355E-14
 -1      3527 7.33902E-03-2.88284E-03-4.06161E-14
 -1      3528 7.46885E-03-2.95774E-03-4.21203E-14
 -1      3529 7.19621E-03-2.81681E-03-4.00499E-14
 -1      3530 7.59853E-03-3.03381E-03-4.36448E-14
 -1      3531 7.72620E-03-3.10781E-03-4.51926E-14
 -1      3532 7.45153E-03-2.96936E-03-4.30601E-14
 -1      3533 7.85109E-03-3.18238E-03-4.67640E-14
 -1      3534 7.97843E-03-3.25375E-03-4.83572E-14
 -1      3535 7.69927E-03-3.12222E-03-4.61605E-14
 -1      3536 8.10765E-03-3.32169E-03-4.99679E-14
 -1      3537 8.23735E-03-3.39144E-03-5.15995E-14
 -1      3538 7.94676E-03-3.26216E-03-4.93469E-14
 -1      3539 8.36764E-03-3.46239E-03-5.32500E-14
 -1      3540 8.49925E-03-3.53518E-03-5.49198E-14
 -1      3541 8.19918E-03-3.39683E-03-5.26123E-14
 -1      3542 8.63197E-03-3.61005E-03-5.66073E-14
 -1      3543 8.76733E-03-3.68836E-03-5.83114E-14
 -1      3544 8.45140E-03-3.53741E-03-5.59531E-14
 -1      3545 9.22770E-03-3.95740E-03-6.30636E-14
 -1      3546 1.58113E-03-3.10591E-05-3.28336E-15
 -1      3547 1.46332E-03-3.32358E-06-2.85532E-15
 -1      3548 1.32159E-02-5.36841E-03-9.95983E-14
 -1      3549 1.33654E-02-5.42914E-03-1.01747E-13
 -1      3550 1.35092E-02-5.49674E-03-1.03905E-13
 -1      3551 1.36499E-02-5.56717E-03-1.06070E-13
 -1      3552 1.34284E-02-5.40298E-03-1.02881E-13
 -1      3553 2.53301E-03-3.45815E-04-7.78232E-15
 -1      3554 2.41325E-03-2.98904E-04-7.11613E-15
 -1      3555 9.18325E-03-3.22239E-03-7.50899E-14
 -1      3556 3.49850E-03-7.79036E-04-1.41659E-14
 -1      3557 3.37711E-03-7.19859E-04-1.32657E-14
 -1      3558 3.25591E-03-6.62015E-04-1.23947E-14
 -1      3559 3.13492E-03-6.05540E-04-1.15528E-14
 -1      3560 3.35530E-03-7.22386E-04-1.28041E-14
 -1      3561 3.98601E-03-1.02824E-03-1.80494E-14
 -1      3562 3.86384E-03-9.64132E-04-1.70359E-14
 -1      3563 4.23086E-03-1.15989E-03-2.01580E-14
 -1      3564 4.10834E-03-1.09350E-03-1.90900E-14
 -1      3565 4.09142E-03-1.09194E-03-1.85256E-14
 -1      3566 4.47638E-03-1.29590E-03-2.23787E-14
 -1      3567 4.35353E-03-1.22736E-03-2.12549E-14
 -1      3568 4.33763E-03-1.22448E-03-2.06560E-14
 -1      3569 4.72253E-03-1.43603E-03-2.47088E-14
 -1      3570 4.59937E-03-1.36547E-03-2.35302E-14
 -1      3571 4.58413E-03-1.36128E-03-2.28971E-14
 -1      3572 4.96927E-03-1.57994E-03-2.71474E-14
 -1      3573 4.84582E-03-1.50753E-03-2.59147E-14
 -1      3574 4.83081E-03-1.50210E-03-2.52473E-14
 -1      3575 5.21664E-03-1.72722E-03-2.96906E-14
 -1      3576 5.09286E-03-1.65319E-03-2.84064E-14
 -1      3577 5.07760E-03-1.64664E-03-2.77051E-14
 -1      3578 5.46476E-03-1.87723E-03-3.23375E-14
 -1      3579 5.34058E-03-1.80192E-03-3.10011E-14
 -1      3580 5.32448E-03-1.79447E-03-3.02682E-14
 -1      3581 5.71390E-03-2.02903E-03-3.50844E-14
 -1      3582 5.58917E-03-1.95297E-03-3.36984E-14
 -1      3583 5.57158E-03-1.94500E-03-3.29329E-14
 -1      3584 5.96438E-03-2.18131E-03-3.79325E-14
 -1      3585 5.83894E-03-2.10519E-03-3.64958E-14
 -1      3586 5.81917E-03-2.09726E-03-3.56993E-14
 -1      3587 6.21621E-03-2.33243E-03-4.08796E-14
 -1      3588 6.08997E-03-2.25723E-03-3.93940E-14
 -1      3589 6.06744E-03-2.24994E-03-3.85666E-14
 -1      3590 6.46812E-03-2.48180E-03-4.39197E-14
 -1      3591 6.34184E-03-2.40678E-03-4.23881E-14
 -1      3592 6.31579E-03-2.40065E-03-4.15316E-14
 -1      3593 6.71829E-03-2.63578E-03-4.70501E-14
 -1      3594 6.58943E-03-2.56003E-03-4.54744E-14
 -1      3595 6.55733E-03-2.55315E-03-4.45902E-14
 -1      3596 6.97609E-03-2.76517E-03-5.02629E-14
 -1      3597 6.83730E-03-2.71186E-03-4.86466E-14
 -1      3598 6.78510E-03-2.71897E-03-4.77360E-14
 -1      3599 7.26742E-03-2.86328E-03-5.35548E-14
 -1      3600 7.13043E-03-2.80556E-03-5.18983E-14
 -1      3601 7.05870E-03-2.82897E-03-5.09622E-14
 -1      3602 7.55392E-03-2.97842E-03-5.69297E-14
 -1      3603 7.41146E-03-2.92197E-03-5.52325E-14
 -1      3604 7.35578E-03-2.93169E-03-5.42700E-14
 -1      3605 7.84874E-03-3.08194E-03-6.03784E-14
 -1      3606 7.70005E-03-3.03214E-03-5.86436E-14
 -1      3607 7.64224E-03-3.04909E-03-5.76575E-14
 -1      3608 8.15820E-03-3.16694E-03-6.39029E-14
 -1      3609 8.00130E-03-3.12744E-03-6.21314E-14
 -1      3610 7.93621E-03-3.15502E-03-6.11206E-14
 -1      3611 8.48536E-03-3.22637E-03-6.75000E-14
 -1      3612 8.31906E-03-3.20030E-03-6.56927E-14
 -1      3613 8.24605E-03-3.24132E-03-6.46576E-14
 -1      3614 1.06526E-02-3.85213E-03-9.16187E-14
 -1      3615 1.20391E-02-4.88412E-03-1.07856E-13
 -1      3616 1.18746E-02-4.77235E-03-1.05682E-13
 -1      3617 1.23555E-02-5.09526E-03-1.12237E-13
 -1      3618 1.21994E-02-4.99114E-03-1.10040E-13
 -1      3619 1.22435E-02-4.98932E-03-1.08762E-13
 -1      3620 1.38063E-02-5.60448E-03-1.09781E-13
 -1      3621 1.37704E-02-5.57328E-03-1.10029E-13
 -1      3622 1.19790E-02-5.53318E-03-8.58742E-14
 -1      3623 1.18537E-03-3.45132E-04-1.16038E-15
 -1      3624 9.02800E-03-3.87325E-03-6.28466E-14
 -1      3625 8.83280E-03-3.79996E-03-6.26273E-14
 -1      3626 9.07906E-03-3.88073E-03-6.22351E-14
 -1      3627 1.33123E-02-5.22552E-03-1.01645E-13
 -1      3628 1.33114E-02-5.24054E-03-1.01151E-13
 -1      3629 1.30738E-02-5.33626E-03-9.76905E-14
 -1      3630 1.21373E-02-5.48278E-03-8.76149E-14
 -1      3631 1.35900E-02-5.49638E-03-1.10747E-13
 -1      3632 1.35016E-02-5.47114E-03-1.10980E-13
 -1      3633 9.43622E-04-1.46949E-04-1.02705E-15
 -1      3634 9.57464E-04-1.72110E-04-1.01130E-15
 -1      3635 1.07905E-03-2.12804E-04-1.21784E-15
 -1      3636 1.30016E-02-5.16958E-03-1.03564E-13
 -1      3637 1.31147E-02-5.19109E-03-1.03307E-13
 -1      3638 1.13550E-02-4.41179E-03-9.97626E-14
 -1      3639 1.11726E-02-4.27314E-03-9.76310E-14
 -1      3640 8.20900E-03-3.63696E-03-6.29437E-14
 -1      3641 8.14840E-03-3.58977E-03-6.23316E-14
 -1      3642 8.21814E-03-3.62064E-03-6.22220E-14
 -1      3643 9.02023E-03-3.22564E-03-7.33227E-14
 -1      3644 1.28480E-02-5.37250E-03-1.16931E-13
 -1      3645 1.27423E-02-5.34011E-03-1.17212E-13
 -1      3646 1.26273E-02-5.26958E-03-1.15828E-13
 -1      3647 1.27885E-02-5.31165E-03-1.14906E-13
 -1      3648 3.74187E-03-9.01208E-04-1.60514E-14
 -1      3649 3.62009E-03-8.39495E-04-1.50942E-14
 -1      3650 3.60019E-03-8.40640E-04-1.45984E-14
 -1      3651 3.84558E-03-9.63917E-04-1.65060E-14
 -1      3652 1.30987E-03-3.84908E-04-1.38126E-15
 -1      3653 1.45250E-03-4.27048E-04-1.66905E-15
 -1      3654 1.50107E-03-4.15723E-04-1.86424E-15
 -1      3655 1.25422E-03-3.38675E-04-1.36234E-15
 -1      3656 1.37238E-02-5.54587E-03-1.10272E-13
 -1      3657 1.36640E-02-5.52026E-03-1.10512E-13
 -1      3658 1.35336E-02-5.43913E-03-1.08741E-13
 -1      3659 1.36486E-02-5.48934E-03-1.08264E-13
 -1      3660 8.88201E-03-3.26363E-03-7.18262E-14
 -1      3661 1.86477E-03-5.52031E-04-2.64356E-15
 -1      3662 2.00798E-03-5.94817E-04-3.04151E-15
 -1      3663 2.05111E-03-5.80917E-04-3.30819E-15
 -1      3664 8.71084E-03-3.26117E-03-6.99729E-14
 -1      3665 1.04172E-03 5.28866E-05-1.54851E-15
 -1      3666 1.05358E-03 2.49178E-05-1.55429E-15
 -1      3667 1.12121E-03-1.12919E-04-1.53356E-15
 -1      3668 1.13636E-03-1.40787E-04-1.52070E-15
 -1      3669 1.33483E-02-5.28817E-03-1.01736E-13
 -1      3670 1.33872E-02-5.35110E-03-1.02303E-13
 -1      3671 1.35129E-02-5.42722E-03-1.04464E-13
 -1      3672 1.34218E-02-5.33061E-03-1.03300E-13
 -1      3673 1.76733E-03-4.96499E-04-2.50481E-15
 -1      3674 8.73197E-03-3.70411E-03-5.98214E-14
 -1      3675 8.93455E-03-3.78993E-03-6.04917E-14
 -1      3676 1.04805E-03-1.58178E-04-1.25446E-15
 -1      3677 1.97257E-03-1.20138E-04-5.01198E-15
 -1      3678 1.69925E-03-6.17761E-05-3.74200E-15
 -1      3679 1.65822E-03-7.55136E-05-3.51471E-15
 -1      3680 1.81766E-03-9.53168E-05-4.23017E-15
 -1      3681 2.38139E-03-3.07429E-04-6.79060E-15
 -1      3682 2.29369E-03-2.53900E-04-6.47996E-15
 -1      3683 2.17435E-03-2.10892E-04-5.87348E-15
 -1      3684 2.65299E-03-3.94508E-04-8.47747E-15
 -1      3685 2.62397E-03-4.01440E-04-8.11783E-15
 -1      3686 2.77316E-03-4.44912E-04-9.20175E-15
 -1      3687 1.38519E-02-5.68738E-03-1.09022E-13
 -1      3688 3.11095E-03-6.09484E-04-1.11247E-14
 -1      3689 3.01413E-03-5.50495E-04-1.07397E-14
 -1      3690 2.89355E-03-4.96927E-04-9.95595E-15
 -1      3691 1.07633E-02-3.95103E-03-9.31994E-14
 -1      3692 1.08224E-02-3.97590E-03-9.27896E-14
 -1      3693 1.09484E-02-4.10109E-03-9.52965E-14
 -1      3694 1.25110E-02-5.19818E-03-1.14447E-13
 -1      3695 1.32158E-02-5.23676E-03-1.04119E-13
 -1      3696 8.40514E-03-3.55898E-03-6.63735E-14
 -1      3697 8.40260E-03-3.49931E-03-6.61853E-14
 -1      3698 8.30961E-03-3.53668E-03-6.52259E-14
 -1      3699 1.33411E-02-5.25657E-03-1.02961E-13
 -1      3700 1.33997E-02-5.44440E-03-1.11206E-13
 -1      3701 1.32859E-02-5.41406E-03-1.11427E-13
 -1      3702 1.33540E-02-5.38985E-03-1.09199E-13
 -1      3703 1.14856E-02-4.50185E-03-1.00963E-13
 -1      3704 1.15227E-02-4.51148E-03-1.00247E-13
 -1      3705 1.16521E-02-4.57504E-03-9.97918E-14
 -1      3706 1.16613E-02-4.62728E-03-1.03112E-13
 -1      3707 1.18486E-02-4.69855E-03-1.01473E-13
 -1      3708 1.10448E-02-4.14714E-03-9.47080E-14
 -1      3709 1.41934E-03-1.88538E-05-2.65949E-15
 -1      3710 1.34588E-03 2.11584E-05-2.45694E-15
 -1      3711 1.23625E-02-4.94469E-03-1.02559E-13
 -1      3712 1.25254E-02-5.02918E-03-1.03975E-13
 -1      3713 1.22292E-02-4.89510E-03-1.02906E-13
 -1      3714 1.37521E-02-5.60054E-03-1.07994E-13
 -1      3715 1.29028E-02-5.30238E-03-1.12134E-13
 -1      3716 1.27929E-02-5.26815E-03-1.12413E-13
 -1      3717 8.41127E-03-3.67691E-03-6.23893E-14
 -1      3718 8.32007E-03-3.63659E-03-6.17647E-14
 -1      3719 8.43683E-03-3.65295E-03-6.13239E-14
 -1      3720 1.18556E-03-2.26792E-04-1.46610E-15
 -1      3721 1.20346E-03-2.56667E-04-1.44219E-15
 -1      3722 1.31653E-02-5.38141E-03-1.11670E-13
 -1      3723 1.30347E-02-5.34310E-03-1.11891E-13
 -1      3724 1.28550E-02-5.25090E-03-1.10146E-13
 -1      3725 1.31202E-02-5.32904E-03-1.09664E-13
 -1      3726 1.11624E-02-4.25178E-03-9.67049E-14
 -1      3727 8.06952E-03-3.52098E-03-6.08692E-14
 -1      3728 8.08460E-03-3.53301E-03-6.15821E-14
 -1      3729 1.07330E-03 8.25165E-05-1.65663E-15
 -1      3730 1.05127E-03 6.63311E-05-1.58490E-15
 -1      3731 1.15837E-03 3.84660E-05-1.86651E-15
 -1      3732 1.17589E-03 6.59899E-05-1.94626E-15
 -1      3733 1.18731E-02-4.74693E-03-1.04009E-13
 -1      3734 1.24159E-03 4.29744E-05-2.13087E-15
 -1      3735 1.09258E-03-5.78613E-05-1.55056E-15
 -1      3736 1.10664E-03-8.53309E-05-1.54332E-15
 -1      3737 1.22248E-03-1.20504E-04-1.80830E-15
 -1      3738 8.06413E-03-3.50484E-03-6.15282E-14
 -1      3739 1.21813E-03-2.81160E-04-1.41980E-15
 -1      3740 1.23786E-03-3.12698E-04-1.38980E-15
 -1      3741 1.35939E-03-3.49614E-04-1.63429E-15
 -1      3742 1.32612E-03-2.96903E-04-1.68888E-15
 -1      3743 8.63045E-03-3.31600E-03-6.89032E-14
 -1      3744 1.25553E-02-5.19157E-03-1.13154E-13
 -1      3745 8.12590E-03-3.49840E-03-6.27598E-14
 -1      3746 8.21251E-03-3.52206E-03-6.39895E-14
 -1      3747 8.20294E-03-3.47135E-03-6.38012E-14
 -1      3748 1.20632E-02-4.83851E-03-1.04032E-13
 -1      3749 1.67246E-03-4.42592E-04-2.36451E-15
 -1      3750 1.81290E-03-4.83467E-04-2.74202E-15
 -1      3751 2.51509E-03-6.98807E-04-5.05618E-15
 -1      3752 2.65505E-03-7.44502E-04-5.60443E-15
 -1      3753 2.79477E-03-7.91203E-04-6.18147E-15
 -1      3754 2.93420E-03-8.38914E-04-6.78738E-15
 -1      3755 2.69268E-03-7.31733E-04-5.95627E-15
 -1      3756 3.07334E-03-8.87683E-04-7.42117E-15
 -1      3757 3.21217E-03-9.37502E-04-8.08370E-15
 -1      3758 2.96948E-03-8.27061E-04-7.17418E-15
 -1      3759 3.35069E-03-9.88398E-04-8.77498E-15
 -1      3760 3.48887E-03-1.04035E-03-9.49426E-15
 -1      3761 3.24517E-03-9.26777E-04-8.50615E-15
 -1      3762 3.62673E-03-1.09337E-03-1.02425E-14
 -1      3763 3.76425E-03-1.14743E-03-1.10193E-14
 -1      3764 3.51963E-03-1.03089E-03-9.95192E-15
 -1      3765 3.90142E-03-1.20252E-03-1.18245E-14
 -1      3766 4.03825E-03-1.25861E-03-1.26577E-14
 -1      3767 3.79278E-03-1.13930E-03-1.15124E-14
 -1      3768 4.17473E-03-1.31568E-03-1.35190E-14
 -1      3769 4.31084E-03-1.37369E-03-1.44084E-14
 -1      3770 4.06458E-03-1.25186E-03-1.31858E-14
 -1      3771 4.44658E-03-1.43262E-03-1.53262E-14
 -1      3772 4.58195E-03-1.49243E-03-1.62730E-14
 -1      3773 4.33495E-03-1.36833E-03-1.49717E-14
 -1      3774 4.71692E-03-1.55307E-03-1.72480E-14
 -1      3775 4.85148E-03-1.61451E-03-1.82508E-14
 -1      3776 4.60380E-03-1.48846E-03-1.68716E-14
 -1      3777 4.98562E-03-1.67672E-03-1.92808E-14
 -1      3778 5.11931E-03-1.73963E-03-2.03391E-14
 -1      3779 4.87100E-03-1.61193E-03-1.88837E-14
 -1      3780 5.25253E-03-1.80323E-03-2.14251E-14
 -1      3781 5.38526E-03-1.86746E-03-2.25396E-14
 -1      3782 5.13636E-03-1.73843E-03-2.10067E-14
 -1      3783 5.51746E-03-1.93228E-03-2.36824E-14
 -1      3784 5.64912E-03-1.99766E-03-2.48507E-14
 -1      3785 5.39966E-03-1.86765E-03-2.32415E-14
 -1      3786 5.78017E-03-2.06357E-03-2.60482E-14
 -1      3787 5.91063E-03-2.12997E-03-2.72733E-14
 -1      3788 5.66058E-03-1.99925E-03-2.55868E-14
 -1      3789 6.04041E-03-2.19684E-03-2.85243E-14
 -1      3790 6.16954E-03-2.26415E-03-2.98036E-14
 -1      3791 5.91877E-03-2.13298E-03-2.80415E-14
 -1      3792 6.29793E-03-2.33191E-03-3.11095E-14
 -1      3793 6.42565E-03-2.40015E-03-3.24406E-14
 -1      3794 6.17379E-03-2.26862E-03-3.06039E-14
 -1      3795 6.55263E-03-2.46885E-03-3.37971E-14
 -1      3796 6.67898E-03-2.53818E-03-3.51801E-14
 -1      3797 6.42524E-03-2.40607E-03-3.32719E-14
 -1      3798 6.80472E-03-2.60797E-03-3.65900E-14
 -1      3799 6.93009E-03-2.67907E-03-3.80250E-14
 -1      3800 6.67284E-03-2.54534E-03-3.60441E-14
 -1      3801 7.05523E-03-2.75064E-03-3.94838E-14
 -1      3802 7.18040E-03-2.82536E-03-4.09675E-14
 -1      3803 6.91714E-03-2.68693E-03-3.89172E-14
 -1      3804 7.30550E-03-2.90168E-03-4.24736E-14
 -1      3805 7.42980E-03-2.98169E-03-4.40032E-14
 -1      3806 7.16087E-03-2.83557E-03-4.18865E-14
 -1      3807 7.54490E-03-3.07298E-03-4.55555E-14
 -1      3808 7.66364E-03-3.14678E-03-4.71301E-14
 -1      3809 7.39624E-03-3.01201E-03-4.49495E-14
 -1      3810 7.79021E-03-3.20471E-03-4.87238E-14
 -1      3811 7.91416E-03-3.26941E-03-5.03375E-14
 -1      3812 7.63344E-03-3.15789E-03-4.80989E-14
 -1      3813 8.03771E-03-3.33551E-03-5.19746E-14
 -1      3814 8.16008E-03-3.40298E-03-5.36275E-14
 -1      3815 7.88240E-03-3.27742E-03-5.13324E-14
 -1      3816 8.28074E-03-3.47161E-03-5.52985E-14
 -1      3817 8.40049E-03-3.54140E-03-5.69887E-14
 -1      3818 8.12108E-03-3.40988E-03-5.46428E-14
 -1      3819 1.32959E-02-5.32670E-03-1.07002E-13
 -1      3820 1.33588E-02-5.32440E-03-1.06084E-13
 -1      3821 4.44456E-03-1.28919E-03-2.11523E-14
 -1      3822 4.32086E-03-1.22200E-03-2.00625E-14
 -1      3823 4.19715E-03-1.15589E-03-1.90001E-14
 -1      3824 4.07345E-03-1.09087E-03-1.79658E-14
 -1      3825 4.30324E-03-1.22002E-03-1.94735E-14
 -1      3826 4.93886E-03-1.56803E-03-2.57830E-14
 -1      3827 4.81539E-03-1.49686E-03-2.45848E-14
 -1      3828 5.18548E-03-1.71306E-03-2.82612E-14
 -1      3829 5.06222E-03-1.64011E-03-2.70092E-14
 -1      3830 5.04678E-03-1.63376E-03-2.63176E-14
 -1      3831 5.43164E-03-1.86135E-03-3.08431E-14
 -1      3832 5.30861E-03-1.78682E-03-2.95388E-14
 -1      3833 5.29303E-03-1.77915E-03-2.88158E-14
 -1      3834 5.67745E-03-2.01233E-03-3.35279E-14
 -1      3835 5.55456E-03-1.93655E-03-3.21727E-14
 -1      3836 5.53824E-03-1.92780E-03-3.14176E-14
 -1      3837 5.92326E-03-2.16503E-03-3.63142E-14
 -1      3838 5.80032E-03-2.08854E-03-3.49091E-14
 -1      3839 5.78251E-03-2.07919E-03-3.41228E-14
 -1      3840 6.16934E-03-2.31795E-03-3.92006E-14
 -1      3841 6.04623E-03-2.24153E-03-3.77443E-14
 -1      3842 6.02621E-03-2.23239E-03-3.69289E-14
 -1      3843 6.41448E-03-2.46870E-03-4.21835E-14
 -1      3844 6.29179E-03-2.39428E-03-4.06800E-14
 -1      3845 6.26946E-03-2.38620E-03-3.98332E-14
 -1      3846 6.64990E-03-2.61814E-03-4.52581E-14
 -1      3847 6.53460E-03-2.54033E-03-4.37092E-14
 -1      3848 6.51135E-03-2.53430E-03-4.28344E-14
 -1      3849 6.84653E-03-2.80450E-03-4.84206E-14
 -1      3850 6.74966E-03-2.71020E-03-4.68293E-14
 -1      3851 6.73501E-03-2.69429E-03-4.59265E-14
 -1      3852 7.16321E-03-2.88307E-03-5.16603E-14
 -1      3853 7.00600E-03-2.84249E-03-5.00307E-14
 -1      3854 6.97467E-03-2.84764E-03-4.91024E-14
 -1      3855 7.44754E-03-3.00147E-03-5.49846E-14
 -1      3856 7.30638E-03-2.93951E-03-5.33110E-14
 -1      3857 7.25977E-03-2.95006E-03-5.23585E-14
 -1      3858 7.72815E-03-3.12120E-03-5.83856E-14
 -1      3859 7.58688E-03-3.06213E-03-5.66758E-14
 -1      3860 7.53488E-03-3.07103E-03-5.56971E-14
 -1      3861 8.01942E-03-3.23027E-03-6.18594E-14
 -1      3862 7.87184E-03-3.17783E-03-6.01132E-14
 -1      3863 7.80973E-03-3.19476E-03-5.91116E-14
 -1      3864 8.36661E-03-3.37966E-03-6.57476E-14
 -1      3865 8.21116E-03-3.33813E-03-6.39619E-14
 -1      3866 1.26380E-02-5.21518E-03-1.12698E-13
 -1      3867 1.16303E-03-4.25585E-06-1.82927E-15
 -1      3868 1.06603E-03-2.83104E-06-1.55621E-15
 -1      3869 1.07906E-03-3.03951E-05-1.55492E-15
 -1      3870 8.60441E-03-3.43789E-03-6.83635E-14
 -1      3871 1.24479E-02-5.08946E-03-1.09669E-13
 -1      3872 1.22922E-02-4.99014E-03-1.07486E-13
 -1      3873 1.37479E-02-5.58154E-03-1.08286E-13
 -1      3874 1.36276E-02-5.49591E-03-1.06529E-13
 -1      3875 1.49485E-03-6.05177E-05-2.86487E-15
 -1      3876 1.37426E-03-3.43970E-05-2.46783E-15
 -1      3877 8.21914E-03-3.59111E-03-6.11618E-14
 -1      3878 8.13162E-03-3.54651E-03-6.05601E-14
 -1      3879 8.22518E-03-3.56352E-03-6.01076E-14
 -1      3880 1.22320E-02-4.93426E-03-1.05453E-13
 -1      3881 1.15208E-03-1.68949E-04-1.50514E-15
 -1      3882 1.16845E-03-1.97569E-04-1.48698E-15
 -1      3883 1.29141E-03-2.40150E-04-1.73783E-15
 -1      3884 1.25559E-03-1.79479E-04-1.77922E-15
 -1      3885 8.71009E-03-3.74684E-03-6.19847E-14
 -1      3886 3.45548E-03-7.83329E-04-1.32121E-14
 -1      3887 3.33206E-03-7.25564E-04-1.23466E-14
 -1      3888 2.05522E-03-1.70038E-04-5.29609E-15
 -1      3889 1.93632E-03-1.31448E-04-4.74799E-15
 -1      3890 2.13950E-03-2.21087E-04-5.58103E-15
 -1      3891 1.28398E-02-5.14983E-03-1.04818E-13
 -1      3892 1.29312E-02-5.16132E-03-1.04054E-13
 -1      3893 1.30745E-02-5.23187E-03-1.05525E-13
 -1      3894 8.57166E-03-3.65303E-03-5.97895E-14
 -1      3895 1.34326E-02-5.34678E-03-1.05852E-13
 -1      3896 1.31845E-02-5.29918E-03-1.07226E-13
 -1      3897 1.35754E-02-5.44821E-03-1.05949E-13
 -1      3898 1.27187E-02-5.11780E-03-1.05169E-13
 -1      3899 1.28993E-02-5.19766E-03-1.06368E-13
 -1      3900 1.25953E-02-5.08057E-03-1.05518E-13
 -1      3901 1.31260E-02-5.29278E-03-1.07717E-13
 -1      3902 1.34899E-02-5.37256E-03-1.05605E-13
 -1      3903 4.69184E-03-1.42665E-03-2.34131E-14
 -1      3904 4.56822E-03-1.35741E-03-2.22689E-14
 -1      3905 4.79960E-03-1.49195E-03-2.39272E-14
 -1      3906 8.39757E-03-3.58608E-03-5.91118E-14
 -1      3907 8.04502E-03-3.49372E-03-5.98217E-14
 -1      3908 7.96479E-03-3.43892E-03-5.90828E-14
 -1      3909 8.02817E-03-3.46589E-03-5.87786E-14
 -1      3910 1.95344E-03-5.24987E-04-3.14740E-15
 -1      3911 2.09402E-03-5.67200E-04-3.58155E-15
 -1      3912 1.85808E-03-4.70422E-04-2.98566E-15
 -1      3913 2.23452E-03-6.10210E-04-4.04489E-15
 -1      3914 2.37490E-03-6.54049E-04-4.53657E-15
 -1      3915 2.41495E-03-6.40681E-04-4.85239E-15
 -1      3916 2.13658E-03-5.53683E-04-3.86193E-15
 -1      3917 7.96455E-03-3.43001E-03-5.99446E-14
 -1      3918 8.03921E-03-3.46726E-03-6.13452E-14
 -1      3919 8.01684E-03-3.42644E-03-6.11628E-14
 -1      3920 1.28875E-02-5.23007E-03-1.08310E-13
 -1      3921 1.29967E-02-5.25830E-03-1.07960E-13
 -1      3922 1.35475E-02-5.41632E-03-1.06192E-13
 -1      3923 7.92214E-03-3.40701E-03-5.89061E-14
 -1      3924 7.88435E-03-3.37302E-03-5.87276E-14
 -1      3925 7.88717E-03-3.38212E-03-5.78724E-14
 -1      3926 2.86716E-03-5.02335E-04-9.56245E-15
 -1      3927 4.55168E-03-1.35396E-03-2.16453E-14
 -1      3928 1.89838E-03-1.43388E-04-4.48860E-15
 -1      3929 2.47057E-03-3.61963E-04-7.10151E-15
 -1      3930 2.34793E-03-3.16649E-04-6.46945E-15
 -1      3931 1.25576E-02-5.14953E-03-1.10669E-13
 -1      3932 3.20872E-03-6.69147E-04-1.15090E-14
 -1      3933 3.08546E-03-6.14115E-04-1.07008E-14
 -1      3934 3.30746E-03-7.29415E-04-1.18930E-14
 -1      3935 2.71622E-03-4.57952E-04-8.45352E-15
 -1      3936 2.59334E-03-4.09088E-04-7.76297E-15
 -1      3937 2.56120E-03-4.17431E-04-7.41280E-15
 -1      3938 4.05446E-03-1.09035E-03-1.74110E-14
 -1      3939 3.94977E-03-1.02699E-03-1.69596E-14
 -1      3940 3.82612E-03-9.64252E-04-1.59804E-14
 -1      3941 8.13144E-03-3.36740E-03-6.29298E-14
 -1      3942 1.24466E-02-5.03717E-03-1.06352E-13
 -1      3943 1.45418E-03-3.76732E-04-1.84442E-15
 -1      3944 1.57702E-03-4.14777E-04-2.12542E-15
 -1      3945 1.62450E-03-4.02700E-04-2.33944E-15
 -1      3946 1.43612E-03-3.49156E-04-1.87534E-15
 -1      3947 1.39662E-03-2.53196E-04-2.03312E-15
 -1      3948 1.41685E-03-2.85616E-04-2.00661E-15
 -1      3949 1.35855E-03-1.90028E-04-2.07655E-15
 -1      3950 1.37721E-03-2.21368E-04-2.05642E-15
 -1      3951 1.50110E-03-2.66140E-04-2.35188E-15
 -1      3952 3.57896E-03-8.42388E-04-1.41061E-14
 -1      3953 3.55647E-03-8.44778E-04-1.36185E-14
 -1      3954 3.70251E-03-9.02712E-04-1.50290E-14
 -1      3955 1.27466E-02-5.18559E-03-1.08549E-13
 -1      3956 1.73727E-03-1.21410E-04-3.74792E-15
 -1      3957 1.61587E-03-8.95727E-05-3.29152E-15
 -1      3958 1.57234E-03-1.03818E-04-3.07320E-15
 -1      3959 1.19167E-03-6.23579E-05-1.82520E-15
 -1      3960 1.32321E-03-1.28399E-04-2.10594E-15
 -1      3961 1.34057E-03-1.59073E-04-2.09292E-15
 -1      3962 1.46086E-03-2.00775E-04-2.39614E-15
 -1      3963 1.41884E-03-3.22188E-04-1.90372E-15
 -1      3964 1.26096E-02-5.14867E-03-1.09387E-13
 -1      3965 1.52583E-03-3.37356E-04-2.21456E-15
 -1      3966 2.96229E-03-5.60535E-04-9.92316E-15
 -1      3967 2.83921E-03-5.08453E-04-9.17400E-15
 -1      3968 2.80976E-03-5.15279E-04-8.78955E-15
 -1      3969 3.05854E-03-6.19443E-04-1.02829E-14
 -1      3970 2.86722E-03-7.67020E-04-6.92610E-15
 -1      3971 3.00430E-03-8.15749E-04-7.56674E-15
 -1      3972 3.14112E-03-8.65635E-04-8.23629E-15
 -1      3973 3.27766E-03-9.16652E-04-8.93435E-15
 -1      3974 3.03857E-03-8.05018E-04-7.96552E-15
 -1      3975 3.41391E-03-9.68807E-04-9.66063E-15
 -1      3976 3.54984E-03-1.02207E-03-1.04157E-14
 -1      3977 3.30958E-03-9.07163E-04-9.36814E-15
 -1      3978 3.68546E-03-1.07643E-03-1.11989E-14
 -1      3979 3.82075E-03-1.13186E-03-1.20109E-14
 -1      3980 3.57945E-03-1.01393E-03-1.08847E-14
 -1      3981 3.95571E-03-1.18834E-03-1.28511E-14
 -1      3982 4.09032E-03-1.24583E-03-1.37195E-14
 -1      3983 3.84810E-03-1.12513E-03-1.25154E-14
 -1      3984 4.22457E-03-1.30431E-03-1.46159E-14
 -1      3985 4.35846E-03-1.36373E-03-1.55409E-14
 -1      3986 4.11543E-03-1.24055E-03-1.42591E-14
 -1      3987 4.49195E-03-1.42408E-03-1.64939E-14
 -1      3988 4.62504E-03-1.48530E-03-1.74757E-14
 -1      3989 4.38133E-03-1.35992E-03-1.61161E-14
 -1      3990 4.75769E-03-1.54736E-03-1.84848E-14
 -1      3991 4.88989E-03-1.61021E-03-1.95213E-14
 -1      3992 4.64564E-03-1.48296E-03-1.80848E-14
 -1      3993 5.02159E-03-1.67384E-03-2.05867E-14
 -1      3994 5.15278E-03-1.73818E-03-2.16790E-14
 -1      3995 4.90816E-03-1.60939E-03-2.01651E-14
 -1      3996 5.28340E-03-1.80321E-03-2.27998E-14
 -1      3997 5.41341E-03-1.86888E-03-2.39486E-14
 -1      3998 5.16860E-03-1.73889E-03-2.23576E-14
 -1      3999 5.54275E-03-1.93517E-03-2.51238E-14
 -1      4000 5.67138E-03-2.00201E-03-2.63272E-14
 -1      4001 5.42658E-03-1.87117E-03-2.46596E-14
 -1      4002 5.79920E-03-2.06942E-03-2.75564E-14
 -1      4003 5.92618E-03-2.13733E-03-2.88132E-14
 -1      4004 5.68161E-03-2.00596E-03-2.70703E-14
 -1      4005 6.05217E-03-2.20576E-03-3.00986E-14
 -1      4006 6.17718E-03-2.27464E-03-3.14093E-14
 -1      4007 5.93303E-03-2.14305E-03-2.95912E-14
 -1      4008 6.30094E-03-2.34403E-03-3.27455E-14
 -1      4009 6.42360E-03-2.41387E-03-3.41076E-14
 -1      4010 6.17992E-03-2.28229E-03-3.22177E-14
 -1      4011 6.54443E-03-2.48416E-03-3.54956E-14
 -1      4012 6.66437E-03-2.55496E-03-3.69104E-14
 -1      4013 6.42076E-03-2.42357E-03-3.49477E-14
 -1      4014 6.78035E-03-2.62567E-03-3.83495E-14
 -1      4015 6.89775E-03-2.69792E-03-3.98125E-14
 -1      4016 6.65193E-03-2.56635E-03-3.77796E-14
 -1      4017 7.00303E-03-2.77138E-03-4.12998E-14
 -1      4018 7.12094E-03-2.85070E-03-4.28087E-14
 -1      4019 6.86282E-03-2.71260E-03-4.07103E-14
 -1      4020 7.18173E-03-2.97089E-03-4.43416E-14
 -1      4021 7.28970E-03-3.06737E-03-4.58973E-14
 -1      4022 7.01036E-03-2.90715E-03-4.37340E-14
 -1      4023 7.46790E-03-3.10341E-03-4.74741E-14
 -1      4024 7.59632E-03-3.15679E-03-4.90704E-14
 -1      4025 7.25010E-03-3.06473E-03-4.68465E-14
 -1      4026 7.73146E-03-3.21988E-03-5.06889E-14
 -1      4027 7.85246E-03-3.28453E-03-5.23275E-14
 -1      4028 7.57486E-03-3.16195E-03-5.00451E-14
 -1      4029 7.97147E-03-3.35131E-03-5.39841E-14
 -1      4030 8.08434E-03-3.41862E-03-5.56580E-14
 -1      4031 7.82951E-03-3.29322E-03-5.33220E-14
 -1      4032 4.65912E-03-1.41872E-03-2.21367E-14
 -1      4033 4.53454E-03-1.35098E-03-2.10271E-14
 -1      4034 1.98091E-03-1.92739E-04-4.74839E-15
 -1      4035 1.85896E-03-1.55845E-04-4.23355E-15
 -1      4036 1.81820E-03-1.68719E-04-3.98286E-15
 -1      4037 5.40046E-03-1.84483E-03-2.93688E-14
 -1      4038 5.27779E-03-1.77158E-03-2.80966E-14
 -1      4039 5.15474E-03-1.69921E-03-2.68508E-14
 -1      4040 5.03130E-03-1.62769E-03-2.56314E-14
 -1      4041 5.26286E-03-1.76431E-03-2.73819E-14
 -1      4042 5.88699E-03-2.14551E-03-3.47156E-14
 -1      4043 5.76592E-03-2.06929E-03-3.33398E-14
 -1      4044 6.12849E-03-2.29936E-03-3.75407E-14
 -1      4045 6.00784E-03-2.22229E-03-3.61160E-14
 -1      4046 5.99103E-03-2.21130E-03-3.53078E-14
 -1      4047 6.36973E-03-2.45402E-03-4.04658E-14
 -1      4048 6.24925E-03-2.37675E-03-3.89919E-14
 -1      4049 6.22978E-03-2.36637E-03-3.81536E-14
 -1      4050 6.61103E-03-2.60471E-03-4.34833E-14
 -1      4051 6.49050E-03-2.53358E-03-4.19626E-14
 -1      4052 6.46841E-03-2.52583E-03-4.10966E-14
 -1      4053 6.84422E-03-2.75931E-03-4.65931E-14
 -1      4054 6.74000E-03-2.67040E-03-4.50279E-14
 -1      4055 6.71829E-03-2.67129E-03-4.41337E-14
 -1      4056 7.09751E-03-2.89212E-03-4.97832E-14
 -1      4057 6.96057E-03-2.83576E-03-4.81780E-14
 -1      4058 6.96348E-03-2.80873E-03-4.72585E-14
 -1      4059 7.35874E-03-3.01133E-03-5.30556E-14
 -1      4060 7.22421E-03-2.95245E-03-5.14093E-14
 -1      4061 7.20021E-03-2.94701E-03-5.04644E-14
 -1      4062 7.62010E-03-3.14023E-03-5.64096E-14
 -1      4063 7.48845E-03-3.07517E-03-5.47229E-14
 -1      4064 7.44918E-03-3.07552E-03-5.37535E-14
 -1      4065 1.29770E-03-2.19731E-05-2.22633E-15
 -1      4066 1.31346E-03-5.26900E-05-2.22612E-15
 -1      4067 8.03659E-03-3.35305E-03-6.17103E-14
 -1      4068 1.23333E-03 2.91761E-05-2.08808E-15
 -1      4069 1.26403E-02-5.13009E-03-1.07554E-13
 -1      4070 1.60481E-03-2.79180E-04-2.69385E-15
 -1      4071 1.62715E-03-3.13514E-04-2.66551E-15
 -1      4072 5.64451E-03-1.99372E-03-3.19905E-14
 -1      4073 5.52268E-03-1.91887E-03-3.06663E-14
 -1      4074 5.50790E-03-1.91002E-03-2.99207E-14
 -1      4075 2.22543E-03-2.73271E-04-5.86670E-15
 -1      4076 2.10308E-03-2.31917E-04-5.29289E-15
 -1      4077 2.06521E-03-2.43311E-04-5.00979E-15
 -1      4078 2.31296E-03-3.26521E-04-6.15305E-15
 -1      4079 4.90754E-03-1.55710E-03-2.44390E-14
 -1      4080 4.78346E-03-1.48742E-03-2.32744E-14
 -1      4081 4.76695E-03-1.48342E-03-2.26261E-14
 -1      4082 8.03984E-03-3.43830E-03-5.72355E-14
 -1      4083 7.93281E-03-3.38569E-03-5.65157E-14
 -1      4084 1.76509E-03-4.17427E-04-2.82371E-15
 -1      4085 1.90286E-03-4.57370E-04-3.23675E-15
 -1      4086 1.22501E-03 1.55083E-05-2.04483E-15
 -1      4087 1.30993E-03-7.54287E-05-2.17183E-15
 -1      4088 1.32646E-03-1.06013E-04-2.16462E-15
 -1      4089 1.44379E-03-1.45537E-04-2.47774E-15
 -1      4090 1.44793E-03-9.88980E-05-2.60263E-15
 -1      4091 4.40977E-03-1.28427E-03-1.99445E-14
 -1      4092 4.28482E-03-1.21858E-03-1.88886E-14
 -1      4093 4.51680E-03-1.34858E-03-2.04127E-14
 -1      4094 2.59234E-03-6.72987E-04-5.72921E-15
 -1      4095 2.72989E-03-7.19427E-04-6.31313E-15
 -1      4096 2.76657E-03-7.07623E-04-6.67649E-15
 -1      4097 7.96135E-03-3.35895E-03-6.05677E-14
 -1      4098 7.87572E-03-3.26300E-03-5.97101E-14
 -1      4099 7.74145E-03-3.19932E-03-5.79906E-14
 -1      4100 7.87187E-03-3.32983E-03-5.91739E-14
 -1      4101 4.15972E-03-1.15396E-03-1.78610E-14
 -1      4102 4.03450E-03-1.09042E-03-1.68607E-14
 -1      4103 4.26561E-03-1.21775E-03-1.83089E-14
 -1      4104 3.65830E-03-9.06685E-04-1.40244E-14
 -1      4105 3.53277E-03-8.47831E-04-1.31360E-14
 -1      4106 7.82048E-03-3.30960E-03-5.46372E-14
 -1      4107 7.82787E-03-3.33438E-03-5.61515E-14
 -1      4108 5.01575E-03-1.62205E-03-2.49497E-14
 -1      4109 3.40719E-03-7.90245E-04-1.22762E-14
 -1      4110 3.28157E-03-7.33954E-04-1.14444E-14
 -1      4111 3.50792E-03-8.51574E-04-1.26577E-14
 -1      4112 7.69122E-03-3.20353E-03-5.69974E-14
 -1      4113 8.29264E-03-3.54278E-03-5.85020E-14
 -1      4114 8.14706E-03-3.48442E-03-5.78230E-14
 -1      4115 7.77366E-03-3.30370E-03-5.59801E-14
 -1      4116 8.47094E-03-3.38795E-03-6.69010E-14
 -1      4117 1.66549E-03-3.50912E-04-2.68215E-15
 -1      4118 1.67148E-03-3.90436E-04-2.56047E-15
 -1      4119 5.75061E-03-2.05908E-03-3.25627E-14
 -1      4120 1.58326E-03-2.45347E-04-2.71835E-15
 -1      4121 1.70770E-03-2.92519E-04-3.05867E-15
 -1      4122 1.56242E-03-2.11922E-04-2.73884E-15
 -1      4123 3.80550E-03-9.65187E-04-1.54590E-14
 -1      4124 8.54928E-03-3.32051E-03-6.79168E-14
 -1      4125 2.40212E-03-3.80810E-04-6.43992E-15
 -1      4126 2.27664E-03-3.36986E-04-5.84149E-15
 -1      4127 1.94714E-03-4.44339E-04-3.49461E-15
 -1      4128 2.04078E-03-4.98352E-04-3.67839E-15
 -1      4129 2.17876E-03-5.40377E-04-4.14863E-15
 -1      4130 2.31672E-03-5.83479E-04-4.64709E-15
 -1      4131 2.45460E-03-6.27669E-04-5.17396E-15
 -1      4132 2.22046E-03-5.27301E-04-4.44112E-15
 -1      4133 1.57161E-03-1.27833E-04-3.00853E-15
 -1      4134 1.57085E-03-1.51812E-04-2.94128E-15
 -1      4135 1.69576E-03-1.59372E-04-3.44326E-15
 -1      4136 2.49376E-03-6.15047E-04-5.50182E-15
 -1      4137 1.77026E-03-3.65728E-04-3.04898E-15
 -1      4138 7.82263E-03-3.32005E-03-5.81560E-14
 -1      4139 7.75489E-03-3.25825E-03-5.75704E-14
 -1      4140 7.64235E-03-3.19474E-03-5.59960E-14
 -1      4141 7.77500E-03-3.29913E-03-5.71309E-14
 -1      4142 2.65330E-03-4.73801E-04-7.72459E-15
 -1      4143 2.52768E-03-4.26438E-04-7.06801E-15
 -1      4144 2.49288E-03-4.36073E-04-6.72796E-15
 -1      4145 2.15127E-03-2.95081E-04-5.27197E-15
 -1      4146 2.02605E-03-2.55178E-04-4.73138E-15
 -1      4147 2.23907E-03-3.47989E-04-5.53520E-15
 -1      4148 3.78378E-03-9.66754E-04-1.49417E-14
 -1      4149 3.76100E-03-9.68990E-04-1.44291E-14
 -1      4150 3.90918E-03-1.02802E-03-1.58874E-14
 -1      4151 2.93757E-03-7.44988E-04-7.69358E-15
 -1      4152 3.07225E-03-7.94877E-04-8.36938E-15
 -1      4153 2.66761E-03-6.48950E-04-6.42632E-15
 -1      4154 2.80268E-03-6.96333E-04-7.04590E-15
 -1      4155 2.83813E-03-6.85596E-04-7.42066E-15
 -1      4156 3.20668E-03-8.46001E-04-9.07431E-15
 -1      4157 3.34087E-03-8.98319E-04-9.80744E-15
 -1      4158 3.10523E-03-7.85360E-04-8.77902E-15
 -1      4159 3.47478E-03-9.51824E-04-1.05687E-14
 -1      4160 3.60842E-03-1.00647E-03-1.13593E-14
 -1      4161 3.37146E-03-8.90150E-04-1.02524E-14
 -1      4162 3.74176E-03-1.06225E-03-1.21782E-14
 -1      4163 3.87479E-03-1.11912E-03-1.30254E-14
 -1      4164 3.63668E-03-9.99729E-04-1.18400E-14
 -1      4165 4.00751E-03-1.17706E-03-1.39012E-14
 -1      4166 4.13989E-03-1.23602E-03-1.48050E-14
 -1      4167 3.90079E-03-1.11386E-03-1.35413E-14
 -1      4168 4.27191E-03-1.29598E-03-1.57365E-14
 -1      4169 4.40356E-03-1.35690E-03-1.66967E-14
 -1      4170 4.16366E-03-1.23226E-03-1.53560E-14
 -1      4171 4.53481E-03-1.41875E-03-1.76843E-14
 -1      4172 4.66564E-03-1.48147E-03-1.86995E-14
 -1      4173 4.42515E-03-1.35468E-03-1.72826E-14
 -1      4174 4.79600E-03-1.54506E-03-1.97435E-14
 -1      4175 4.92586E-03-1.60946E-03-2.08145E-14
 -1      4176 4.68503E-03-1.48083E-03-1.93205E-14
 -1      4177 5.05518E-03-1.67465E-03-2.19135E-14
 -1      4178 5.18391E-03-1.74057E-03-2.30402E-14
 -1      4179 4.94303E-03-1.61044E-03-2.14693E-14
 -1      4180 5.31197E-03-1.80722E-03-2.41935E-14
 -1      4181 5.43932E-03-1.87454E-03-2.53753E-14
 -1      4182 5.19877E-03-1.74323E-03-2.37268E-14
 -1      4183 5.56585E-03-1.94253E-03-2.65846E-14
 -1      4184 5.69151E-03-2.01113E-03-2.78192E-14
 -1      4185 5.45174E-03-1.87899E-03-2.60954E-14
 -1      4186 5.81612E-03-2.08038E-03-2.90828E-14
 -1      4187 5.93965E-03-2.15019E-03-3.03731E-14
 -1      4188 5.70124E-03-2.01751E-03-2.85742E-14
 -1      4189 6.06175E-03-2.22067E-03-3.16890E-14
 -1      4190 6.18251E-03-2.29168E-03-3.30308E-14
 -1      4191 5.94627E-03-2.15876E-03-3.11587E-14
 -1      4192 6.30097E-03-2.36349E-03-3.43970E-14
 -1      4193 6.41776E-03-2.43575E-03-3.57898E-14
 -1      4194 6.18505E-03-2.30287E-03-3.38461E-14
 -1      4195 6.52936E-03-2.50923E-03-3.72087E-14
 -1      4196 6.63896E-03-2.58244E-03-3.86526E-14
 -1      4197 6.41318E-03-2.45048E-03-3.66373E-14
 -1      4198 6.73212E-03-2.65921E-03-4.01191E-14
 -1      4199 6.82423E-03-2.73698E-03-4.16099E-14
 -1      4200 6.61622E-03-2.60364E-03-3.95266E-14
 -1      4201 6.85788E-03-2.85968E-03-4.31253E-14
 -1      4202 6.87145E-03-2.99110E-03-4.46610E-14
 -1      4203 6.75037E-03-2.80562E-03-4.25126E-14
 -1      4204 7.09235E-03-3.00181E-03-4.62195E-14
 -1      4205 7.29036E-03-3.03553E-03-4.77991E-14
 -1      4206 6.97754E-03-2.94820E-03-4.55892E-14
 -1      4207 7.43789E-03-3.10083E-03-4.93987E-14
 -1      4208 7.57573E-03-3.16581E-03-5.10195E-14
 -1      4209 7.31013E-03-3.03621E-03-4.87519E-14
 -1      4210 7.70475E-03-3.24073E-03-5.29740E-14
 -1      4211 5.12444E-03-1.68676E-03-2.54588E-14
 -1      4212 5.00012E-03-1.61693E-03-2.42721E-14
 -1      4213 1.92307E-03-2.23525E-04-4.30961E-15
 -1      4214 1.79826E-03-1.87591E-04-3.82157E-15
 -1      4215 1.80001E-03-2.12309E-04-3.74428E-15
 -1      4216 2.00801E-03-2.73834E-04-4.55014E-15
 -1      4217 6.32964E-03-2.43275E-03-3.87650E-14
 -1      4218 6.21209E-03-2.35424E-03-3.73190E-14
 -1      4219 6.09473E-03-2.27636E-03-3.58996E-14
 -1      4220 5.97608E-03-2.19963E-03-3.45042E-14
 -1      4221 6.19780E-03-2.34075E-03-3.64897E-14
 -1      4222 6.79739E-03-2.75195E-03-4.47827E-14
 -1      4223 6.66745E-03-2.68921E-03-4.32431E-14
 -1      4224 7.05663E-03-2.86186E-03-4.79229E-14
 -1      4225 6.94162E-03-2.79037E-03-4.63423E-14
 -1      4226 6.88950E-03-2.80685E-03-4.54296E-14
 -1      4227 7.29729E-03-3.00128E-03-5.11448E-14
 -1      4228 7.17629E-03-2.93594E-03-4.95232E-14
 -1      4229 7.15394E-03-2.91524E-03-4.85857E-14
 -1      4230 7.53873E-03-3.13811E-03-5.44504E-14
 -1      4231 7.41688E-03-3.07010E-03-5.27879E-14
 -1      4232 7.39182E-03-3.05965E-03-5.18257E-14
 -1      4233 5.85681E-03-2.12375E-03-3.31349E-14
 -1      4234 5.73660E-03-2.04877E-03-3.17894E-14
 -1      4235 5.96332E-03-2.18765E-03-3.37049E-14
 -1      4236 1.56702E-03-1.69971E-04-2.87621E-15
 -1      4237 1.56627E-03-1.93852E-04-2.80594E-15
 -1      4238 1.68793E-03-2.39358E-04-3.15660E-15
 -1      4239 1.69359E-03-2.02317E-04-3.30018E-15
 -1      4240 5.61564E-03-1.97467E-03-3.04707E-14
 -1      4241 5.49385E-03-1.90140E-03-2.91783E-14
 -1      4242 5.72389E-03-2.03868E-03-3.10204E-14
 -1      4243 4.87532E-03-1.54802E-03-2.31140E-14
 -1      4244 4.75007E-03-1.48000E-03-2.19834E-14
 -1      4245 4.98432E-03-1.61246E-03-2.36005E-14
 -1      4246 4.62445E-03-1.41293E-03-2.08793E-14
 -1      4247 4.49847E-03-1.34680E-03-1.98036E-14
 -1      4248 4.73279E-03-1.47724E-03-2.13446E-14
 -1      4249 6.56196E-03-2.59555E-03-4.17259E-14
 -1      4250 6.44405E-03-2.51338E-03-4.02350E-14
 -1      4251 6.63812E-03-2.67934E-03-4.23575E-14
 -1      4252 5.37137E-03-1.82901E-03-2.79118E-14
 -1      4253 5.24820E-03-1.75745E-03-2.66718E-14
 -1      4254 5.23372E-03-1.75117E-03-2.59656E-14
 -1      4255 5.48045E-03-1.89325E-03-2.84404E-14
 -1      4256 1.86441E-03-3.65186E-04-3.45972E-15
 -1      4257 1.90519E-03-4.04419E-04-3.47919E-15
 -1      4258 2.04035E-03-4.44450E-04-3.93804E-15
 -1      4259 2.39703E-03-5.58014E-04-5.27403E-15
 -1      4260 2.53238E-03-6.02833E-04-5.83595E-15
 -1      4261 2.57034E-03-5.91067E-04-6.17629E-15
 -1      4262 7.58494E-03-3.18011E-03-5.23067E-14
 -1      4263 4.01361E-03-1.09114E-03-1.63137E-14
 -1      4264 1.83945E-03-3.29124E-04-3.49171E-15
 -1      4265 3.60968E-03-9.13363E-04-1.30390E-14
 -1      4266 3.48198E-03-8.56018E-04-1.21851E-14
 -1      4267 3.25447E-03-7.39197E-04-1.10016E-14
 -1      4268 3.15593E-03-6.79018E-04-1.06421E-14
 -1      4269 3.03027E-03-6.25474E-04-9.86945E-15
 -1      4270 7.60877E-03-3.18900E-03-5.50116E-14
 -1      4271 7.64722E-03-3.22171E-03-5.43232E-14
 -1      4272 7.71978E-03-3.26691E-03-5.60213E-14
 -1      4273 4.37219E-03-1.28169E-03-1.87541E-14
 -1      4274 4.24563E-03-1.21757E-03-1.77324E-14
 -1      4275 4.47953E-03-1.34572E-03-1.91983E-14
 -1      4276 2.58524E-03-4.92269E-04-7.01589E-15
 -1      4277 2.45692E-03-4.46290E-04-6.39300E-15
 -1      4278 2.90460E-03-5.73385E-04-9.12540E-15
 -1      4279 2.77894E-03-5.22801E-04-8.41017E-15
 -1      4280 2.74684E-03-5.31005E-04-8.03634E-15
 -1      4281 3.00074E-03-6.32204E-04-9.46064E-15
 -1      4282 6.42505E-03-2.49995E-03-3.93751E-14
 -1      4283 3.86461E-03-1.03165E-03-1.48322E-14
 -1      4284 3.73723E-03-9.71914E-04-1.39214E-14
 -1      4285 3.71250E-03-9.75553E-04-1.34186E-14
 -1      4286 2.15093E-03-4.79023E-04-4.33044E-15
 -1      4287 2.28630E-03-5.21466E-04-4.84104E-15
 -1      4288 2.32659E-03-5.09012E-04-5.14981E-15
 -1      4289 2.10745E-03-4.38230E-04-4.31031E-15
 -1      4290 2.41989E-03-4.57051E-04-6.06420E-15
 -1      4291 2.32862E-03-4.02002E-04-5.79945E-15
 -1      4292 2.20038E-03-3.59459E-04-5.23443E-15
 -1      4293 7.51755E-03-3.14345E-03-5.23523E-14
 -1      4294 2.74030E-03-6.26913E-04-7.14718E-15
 -1      4295 2.87285E-03-6.75427E-04-7.80105E-15
 -1      4296 3.00526E-03-7.25301E-04-8.48314E-15
 -1      4297 3.13748E-03-7.76479E-04-9.19448E-15
 -1      4298 2.90676E-03-6.65861E-04-8.18676E-15
 -1      4299 3.26950E-03-8.28950E-04-9.93482E-15
 -1      4300 3.40131E-03-8.82662E-04-1.07029E-14
 -1      4301 3.16889E-03-7.68263E-04-9.61567E-15
 -1      4302 3.54515E-03-9.30088E-04-1.17862E-14
 -1      4303 3.67569E-03-9.86656E-04-1.26231E-14
 -1      4304 3.80598E-03-1.04439E-03-1.34877E-14
 -1      4305 3.93602E-03-1.10323E-03-1.43817E-14
 -1      4306 4.31660E-03-1.29079E-03-1.68785E-14
 -1      4307 4.44609E-03-1.35326E-03-1.78730E-14
 -1      4308 4.58154E-03-1.41310E-03-1.92682E-14
 -1      4309 4.70954E-03-1.47796E-03-2.03281E-14
 -1      4310 4.83706E-03-1.54372E-03-2.14154E-14
 -1      4311 4.96407E-03-1.61033E-03-2.25300E-14
 -1      4312 5.09051E-03-1.67780E-03-2.36719E-14
 -1      4313 5.21631E-03-1.74604E-03-2.48411E-14
 -1      4314 5.34140E-03-1.81512E-03-2.60387E-14
 -1      4315 5.46569E-03-1.88492E-03-2.72634E-14
 -1      4316 5.58909E-03-1.95555E-03-2.85152E-14
 -1      4317 5.71146E-03-2.02689E-03-2.97934E-14
 -1      4318 5.83272E-03-2.09910E-03-3.10972E-14
 -1      4319 5.95258E-03-2.17204E-03-3.24285E-14
 -1      4320 6.07107E-03-2.24603E-03-3.37849E-14
 -1      4321 6.18737E-03-2.32087E-03-3.51648E-14
 -1      4322 6.30192E-03-2.39726E-03-3.65714E-14
 -1      4323 6.41187E-03-2.47464E-03-3.80032E-14
 -1      4324 6.51931E-03-2.55572E-03-3.94596E-14
 -1      4325 6.61331E-03-2.63706E-03-4.09388E-14
 -1      4326 6.70463E-03-2.73872E-03-4.24429E-14
 -1      4327 6.75257E-03-2.86109E-03-4.39693E-14
 -1      4328 6.90790E-03-2.88482E-03-4.55166E-14
 -1      4329 7.09230E-03-2.90609E-03-4.70859E-14
 -1      4330 7.21661E-03-2.97655E-03-4.86759E-14
 -1      4331 7.35393E-03-3.04557E-03-5.02860E-14
 -1      4332 1.82600E-03-2.92825E-04-3.57091E-15
 -1      4333 1.98219E-03-3.66844E-04-4.00857E-15
 -1      4334 2.69683E-03-5.49177E-04-7.44848E-15
 -1      4335 2.66182E-03-5.59045E-04-7.08800E-15
 -1      4336 3.44286E-03-8.68383E-04-1.14379E-14
 -1      4337 3.34181E-03-8.07144E-04-1.10883E-14
 -1      4338 4.11884E-03-1.15451E-03-1.67385E-14
 -1      4339 3.99182E-03-1.09252E-03-1.57711E-14
 -1      4340 4.22490E-03-1.21810E-03-1.71607E-14
 -1      4341 3.21304E-03-7.52789E-04-1.03026E-14
 -1      4342 4.05657E-03-1.16879E-03-1.49743E-14
 -1      4343 4.18675E-03-1.22928E-03-1.59132E-14
 -1      4344 4.20912E-03-1.22707E-03-1.64743E-14
 -1      4345 2.09014E-03-4.00271E-04-4.40646E-15
 -1      4346 2.04071E-03-3.17910E-04-4.52981E-15
 -1      4347 1.93497E-03-2.85772E-04-4.11928E-15
 -1      4348 1.82942E-03-2.55001E-04-3.72799E-15
 -1      4349 2.82602E-03-5.97928E-04-8.11842E-15
 -1      4350 2.63499E-03-5.69228E-04-6.80345E-15
 -1      4351 2.52208E-03-5.12767E-04-6.39632E-15
 -1      4352 2.39128E-03-4.67854E-04-5.80482E-15
 -1      4353 2.59836E-03-5.80100E-04-6.45331E-15
 -1      4354 7.64959E-03-3.21658E-03-5.54587E-14
 -1      4355 4.47309E-03-1.34903E-03-1.88336E-14
 -1      4356 2.12905E-03-3.70248E-04-4.76560E-15
 -1      4357 3.96916E-03-1.09462E-03-1.52336E-14
 -1      4358 2.46539E-03-5.34502E-04-5.86007E-15
 -1      4359 2.34448E-03-4.93883E-04-5.34838E-15
 -1      4360 2.37410E-03-4.82539E-04-5.60279E-15
 -1      4361 2.27242E-03-4.28016E-04-5.29429E-15
 -1      4362 2.23575E-03-4.57926E-04-4.91099E-15
 -1      4363 3.96002E-03-1.09993E-03-1.49116E-14
 -1      4364 3.08414E-03-6.99782E-04-9.54530E-15
 -1      4365 2.95513E-03-6.48136E-04-8.81736E-15
 -1      4366 4.08873E-03-1.16065E-03-1.58509E-14
 -1      4367 4.21715E-03-1.22242E-03-1.68163E-14
 -1      4368 7.47286E-03-3.11684E-03-5.19174E-14
 -1      4369 1.82771E-03-2.73892E-04-3.65001E-15
 -1      4370 2.10976E-03-3.85187E-04-4.58535E-15
 -1      4371 4.34528E-03-1.28523E-03-1.78107E-14
 -1      4372 7.55111E-03-3.15759E-03-5.39185E-14
 -3
    1PSTEP                         2           1           1          
  100CL  101 1.000000000        4372                     0    1           1
 -4  STRESS      6    1
 -5  SXX         1    4    1    1
 -5  SYY         1    4    2    2
 -5  SZZ         1    4    3    3
 -5  SXY         1    4    1    2
 -5  SYZ         1    4    2    3
 -5  SZX         1    4    3    1
 -1         1 3.64714E+01 9.85383E+00 1.91463E+00 1.84371E+01-1.45436E-12-2.83601E-12
 -1         2-7.39121E-01-2.63472E+01-3.55772E+00 8.79096E-02-1.66678E-12 1.47323E-13
 -1         3 1.99776E+01-2.35893E-02 4.14684E-02-2.34161E-02-4.45280E-13-4.31676E-13
 -1         4 1.99614E+01-3.96845E-02 6.53427E-02 3.97793E-02 2.87957E-13 1.00766E-13
 -1         5 2.26013E+01 4.22335E+00 1.86586E+00 4.43241E+00-2.45706E-14 2.31808E-12
 -1         6 4.03709E+01 1.38519E+01 5.80197E+00-9.62198E+00-1.03639E-13 3.24091E-12
 -1         7 2.32105E+01 6.79291E+00-1.30055E-01-5.13586E+00-1.47937E-14 1.18513E-12
 -1         8 2.13652E+01 6.44500E+00 5.45407E-02-3.49728E+00-3.90035E-14 4.08088E-13
 -1         9 2.02239E+01 6.10099E+00 4.82799E-02-2.68740E+00-3.95725E-14-7.39860E-14
 -1        10 1.94322E+01 5.85524E+00 4.94503E-02-2.08944E+00-3.03264E-14-3.47877E-13
 -1        11 1.87919E+01 5.65801E+00 4.79694E-02-1.59195E+00-2.82482E-14-5.11725E-13
 -1        12 1.82392E+01 5.48874E+00 4.58024E-02-1.16128E+00-1.71599E-14-6.05353E-13
 -1        13 1.77212E+01 5.33125E+00 4.39923E-02-7.61204E-01-1.61295E-14-6.72459E-13
 -1        14 1.72295E+01 5.18245E+00 4.28268E-02-3.84741E-01-9.87058E-15-7.22822E-13
 -1        15 1.67535E+01 5.03897E+00 4.23772E-02-2.08529E-02-6.70991E-15-7.60106E-13
 -1        16 1.62876E+01 4.89905E+00 4.25953E-02 3.39771E-01-3.57353E-16-7.92584E-13
 -1        17 1.58303E+01 4.76224E+00 4.33598E-02 7.06020E-01 2.01575E-15-8.14794E-13
 -1        18 1.53926E+01 4.63224E+00 4.42066E-02 1.08080E+00 5.51642E-15-8.13270E-13
 -1        19 1.49733E+01 4.50915E+00 4.40396E-02 1.48931E+00 1.41172E-14-7.72812E-13
 -1        20 1.46184E+01 4.40846E+00 4.05736E-02 1.94464E+00 2.20535E-14-6.50263E-13
 -1        21 1.44416E+01 4.36926E+00 3.39359E-02 2.49328E+00 3.21773E-14-3.31119E-13
 -1        22 1.49663E+01 4.51568E+00 8.82036E-02 3.32704E+00 8.86791E-15 4.16688E-13
 -1        23 2.63355E+01-1.55395E+00-1.02495E+00-7.74997E-01-5.84255E-14 2.83906E-12
 -1        24 2.22789E+01-1.06759E-01-3.32732E-01 6.96930E-02-1.99467E-14 2.48413E-12
 -1        25 2.14352E+01-5.92273E-02-7.15739E-02 6.39857E-02-7.62823E-15 2.01613E-12
 -1        26 2.10845E+01-2.24548E-02-5.09776E-03 3.30569E-02-2.66692E-15 1.68192E-12
 -1        27 2.09431E+01-1.17131E-02 2.80909E-03 2.15881E-02-4.26764E-15 1.48587E-12
 -1        28 2.08985E+01-6.04771E-03 2.49535E-03 1.47697E-02 1.95958E-14 1.35411E-12
 -1        29 2.08948E+01-2.92134E-03 2.10111E-03 1.03752E-02-2.23407E-14 1.30083E-12
 -1        30 2.09021E+01-1.14363E-03 2.07669E-03 7.30819E-03 4.91230E-15 1.08551E-12
 -1        31 2.09045E+01-1.41097E-04 2.09447E-03 5.04594E-03-1.77750E-14 8.94407E-13
 -1        32 2.08936E+01 3.86853E-04 2.01304E-03 3.32173E-03-1.21504E-15 8.15851E-13
 -1        33 2.08662E+01 6.09478E-04 1.82003E-03 1.98682E-03-2.06194E-15 6.95844E-13
 -1        34 2.08219E+01 6.27145E-04 1.53833E-03 9.50533E-04-2.80125E-15 6.80469E-13
 -1        35 2.07625E+01 5.01221E-04 1.18975E-03 1.53840E-04-5.38824E-15 6.58941E-13
 -1        36 2.06914E+01 2.69444E-04 7.87216E-04-4.42394E-04-2.99272E-14 7.01723E-13
 -1        37 2.06129E+01-4.52321E-05 3.35721E-04-8.62734E-04-2.58485E-14 7.66307E-13
 -1        38 2.05323E+01-4.28671E-04-1.64499E-04-1.11985E-03-3.31936E-14 5.85204E-13
 -1        39 2.04559E+01-8.70729E-04-7.13330E-04-1.21656E-03-4.26663E-14 3.02714E-13
 -1        40 2.03904E+01-1.36090E-03-1.30437E-03-1.14915E-03-6.38656E-16 2.68805E-13
 -1        41 2.03435E+01-1.88471E-03-1.91668E-03-9.13976E-04-1.45204E-14 1.27978E-13
 -1        42 2.03228E+01-2.42268E-03-2.50747E-03-5.20179E-04 3.42226E-14 1.31499E-13
 -1        43 2.03364E+01-2.95621E-03-3.01637E-03-9.51728E-06-2.53069E-14 3.21992E-13
 -1        44 2.03916E+01-3.48692E-03-3.40451E-03 5.24141E-04-2.94163E-14 4.12050E-13
 -1        45 2.04948E+01-4.07197E-03-3.75655E-03 9.45597E-04-2.66088E-14 3.20123E-13
 -1        46 2.06527E+01-4.85636E-03-4.42787E-03 1.18415E-03-2.51828E-15 1.13103E-13
 -1        47 2.08753E+01-6.02729E-03-6.07417E-03 1.49796E-03-1.32009E-14 2.49202E-13
 -1        48 2.11818E+01-7.62016E-03-9.29315E-03 2.79122E-03 2.53846E-14 6.58791E-13
 -1        49 2.16042E+01-9.15889E-03-1.35964E-02 6.47979E-03 4.89631E-14 4.29944E-13
 -1        50 2.21817E+01-9.46276E-03-1.67594E-02 1.35162E-02 3.51515E-14 1.58847E-13
 -1        51 2.29367E+01-6.92220E-03-1.52476E-02 2.30546E-02 4.14247E-15 3.74863E-13
 -1        52 2.38398E+01-1.09815E-04-5.45675E-03 3.19481E-02-2.34620E-14 4.37544E-13
 -1        53 2.47760E+01 1.15618E-02 1.53035E-02 3.49646E-02-5.69619E-14 2.80052E-13
 -1        54 2.55235E+01 2.69059E-02 4.72760E-02 2.47681E-02 1.01136E-13 5.68034E-13
 -1        55 2.57595E+01 4.14639E-02 8.37676E-02-7.25873E-03-1.55379E-14 1.11754E-12
 -1        56 2.51326E+01 4.65435E-02 1.05327E-01-6.50568E-02-9.79464E-14 2.83711E-13
 -1        57 2.34539E+01 3.19025E-02 8.11604E-02-1.34732E-01 7.92194E-14 1.29965E-14
 -1        58 2.09823E+01-4.78226E-03-5.64419E-03-1.75322E-01-1.51417E-14 1.17358E-13
 -1        59 1.85735E+01-4.86425E-02-1.22527E-01-1.38358E-01-3.34450E-14-1.61281E-13
 -1        60 1.73551E+01-7.21871E-02-1.89542E-01-2.10072E-02 1.00371E-14-3.75206E-13
 -1        61 1.79669E+01-5.81100E-02-1.50075E-01 1.09828E-01 6.51458E-14-4.21524E-13
 -1        62 2.00311E+01-1.66870E-02-3.68289E-02 1.72177E-01-1.38610E-14-5.92790E-13
 -1        63 2.24604E+01 2.46803E-02 6.49862E-02 1.48218E-01 2.69611E-14-9.60204E-14
 -1        64 2.42555E+01 4.61708E-02 1.07106E-01 8.01903E-02-2.05257E-14 5.58557E-13
 -1        65 2.49849E+01 4.57928E-02 9.60485E-02 1.48753E-02-1.15758E-13 4.41551E-13
 -1        66 2.47364E+01 3.26015E-02 6.17841E-02-2.67769E-02 1.02485E-14 3.68516E-14
 -1        67 2.38389E+01 1.59063E-02 2.71164E-02-4.55443E-02-3.91950E-14-3.15199E-14
 -1        68 2.26426E+01 5.37554E-04-6.56992E-04-4.92660E-02 2.09236E-13-1.34908E-13
 -1        69 2.14381E+01-1.22023E-02-2.36742E-02-4.31593E-02-1.11503E-13-2.38412E-13
 -1        70 2.04723E+01-1.81495E-02-4.01542E-02-2.25531E-02 1.14636E-13-9.92722E-14
 -1        71 1.99776E+01 5.17137E-03-1.90092E-02 1.14229E-02-1.92905E-13 2.28215E-13
 -1        72 1.41854E+01-2.82416E-01-7.17123E-01-1.98811E-01 4.89608E-14 1.96075E-12
 -1        73 1.29510E+01-4.92046E-02-2.18518E-01-3.71738E-02 2.27769E-14 1.27252E-12
 -1        74 1.25731E+01-1.61800E-02-5.03995E-02-1.53804E-02 1.27915E-14 7.73544E-13
 -1        75 1.25531E+01-8.09067E-03-8.66588E-03-1.26172E-02 1.80166E-14 4.29042E-13
 -1        76 1.27126E+01-4.36901E-03-4.93122E-04-1.07298E-02 8.05725E-15 1.72669E-13
 -1        77 1.29613E+01-2.29523E-03 7.92011E-04-9.21483E-03 1.28085E-14-6.75501E-15
 -1        78 1.32520E+01-1.07084E-03 1.20593E-03-7.96148E-03-6.12145E-15-1.16640E-13
 -1        79 1.35578E+01-3.42023E-04 1.53971E-03-6.85298E-03 1.05804E-14-2.22035E-13
 -1        80 1.38633E+01 7.40485E-05 1.74533E-03-5.83797E-03-3.92757E-15-3.44006E-13
 -1        81 1.41596E+01 2.80935E-04 1.78189E-03-4.90365E-03 1.42315E-14-4.10189E-13
 -1        82 1.44425E+01 3.41690E-04 1.66630E-03-4.04934E-03-1.13146E-14-5.01154E-13
 -1        83 1.47112E+01 2.96029E-04 1.43069E-03-3.27571E-03 1.59982E-14-5.74497E-13
 -1        84 1.49669E+01 1.69063E-04 1.10108E-03-2.58212E-03 1.10449E-15-7.12839E-13
 -1        85 1.52125E+01-2.37480E-05 6.92411E-04-1.96731E-03-4.38102E-15-6.85085E-13
 -1        86 1.54524E+01-2.73103E-04 2.09409E-04-1.43183E-03 3.00864E-14-8.52663E-13
 -1        87 1.56921E+01-5.72765E-04-3.50393E-04-9.81351E-04-1.44480E-14-8.93327E-13
 -1        88 1.59381E+01-9.16233E-04-9.92397E-04-6.30524E-04 1.42396E-14-9.09713E-13
 -1        89 1.61981E+01-1.29288E-03-1.71905E-03-4.06964E-04-8.53199E-16-1.11192E-12
 -1        90 1.64808E+01-1.68357E-03-2.52197E-03-3.54485E-04-1.26841E-14-1.09653E-12
 -1        91 1.67956E+01-2.05625E-03-3.37185E-03-5.34256E-04 2.22324E-14-1.14376E-12
 -1        92 1.71523E+01-2.36157E-03-4.20459E-03-1.02288E-03-3.97510E-14-1.00618E-12
 -1        93 1.75602E+01-2.52686E-03-4.89593E-03-1.91000E-03 5.45513E-14-8.54556E-13
 -1        94 1.80267E+01-2.43688E-03-5.20135E-03-3.30086E-03-8.61054E-14-9.26643E-13
 -1        95 1.85556E+01-1.90842E-03-4.68638E-03-5.31330E-03-1.83330E-14-5.32879E-13
 -1        96 1.91430E+01-7.65961E-04-2.75787E-03-7.95875E-03 1.00356E-13-4.69139E-13
 -1        97 1.97714E+01 8.65818E-04 9.60149E-04-1.05560E-02-4.30388E-14-6.11575E-13
 -1        98 2.04040E+01 2.27899E-03 5.34181E-03-1.13759E-02-2.98156E-14-5.82229E-13
 -1        99 2.09937E+01 3.26333E-03 7.86919E-03-9.99962E-03 4.36287E-14-7.00412E-13
 -1       100 2.15102E+01 4.85224E-03 7.49933E-03-9.32878E-03-7.74991E-14-6.77701E-13
 -1       101 2.19435E+01 8.09640E-03 9.78813E-03-1.22199E-02 7.48430E-14-8.19435E-13
 -1       102 2.22562E+01 1.25955E-02 1.96402E-02-1.60310E-02-3.37436E-15-9.29069E-13
 -1       103 2.23431E+01 1.65357E-02 3.49308E-02-1.43201E-02 5.05604E-14-5.69115E-13
 -1       104 2.20521E+01 1.68799E-02 4.78441E-02-1.28290E-03-1.03035E-13 1.63081E-14
 -1       105 2.12590E+01 1.04713E-02 4.74319E-02 2.54166E-02 2.58448E-14-2.64788E-14
 -1       106 1.99744E+01-2.90207E-03 2.32529E-02 5.99673E-02 3.31132E-14-6.30905E-13
 -1       107 1.84453E+01-1.80224E-02-2.32744E-02 8.45724E-02 5.67386E-14-9.80618E-13
 -1       108 1.71429E+01-2.71281E-02-7.00487E-02 7.93160E-02 6.86645E-14-1.03955E-12
 -1       109 1.65539E+01-2.57173E-02-8.82121E-02 4.04384E-02-1.23943E-13-5.34738E-13
 -1       110 1.68961E+01-1.55563E-02-7.35622E-02-1.22335E-02 2.54263E-14-2.93165E-13
 -1       111 1.80039E+01-1.26571E-03-2.98671E-02-5.46334E-02-3.51206E-14-6.09991E-13
 -1       112 1.94414E+01 1.04236E-02 1.58283E-02-7.15501E-02-1.77926E-13-4.41664E-13
 -1       113 2.07400E+01 1.64718E-02 4.49602E-02-6.36499E-02 1.16130E-13-3.73725E-13
 -1       114 2.15907E+01 1.67111E-02 5.28232E-02-4.18436E-02 6.66051E-14-1.09547E-12
 -1       115 2.19003E+01 1.28298E-02 4.46594E-02-1.73801E-02-3.57598E-14-1.51861E-12
 -1       116 2.17430E+01 6.84486E-03 2.84359E-02 3.01329E-03 2.17468E-14-1.04814E-12
 -1       117 2.12801E+01 2.85827E-04 9.57002E-03 1.69581E-02-2.64244E-14-8.95511E-13
 -1       118 2.07027E+01-5.48613E-03-9.24533E-03 2.37167E-02 1.19515E-13-9.89433E-13
 -1       119 2.02062E+01-8.38986E-03-2.28454E-02 2.02482E-02 2.01193E-14-9.45027E-13
 -1       120 1.99775E+01 9.80935E-03-4.23824E-03-3.33549E-03 1.71300E-13-1.06886E-12
 -1       121 1.99975E+01-7.81072E-03-6.26998E-03-1.25116E-02-1.01378E-12-2.59816E-14
 -1       122 1.99847E+01 2.26904E-01-2.69926E-02 7.42356E-03-3.81006E-13 6.80291E-14
 -1       123 1.99866E+01 7.82447E-01-2.32180E-02 2.00833E-02 6.89691E-14-4.89086E-14
 -1       124 1.99906E+01 1.57726E+00-1.63204E-02 2.90030E-02 4.87093E-14 9.66682E-14
 -1       125 1.99970E+01 2.53736E+00-6.83919E-03 3.56219E-02 1.10046E-12-1.85677E-14
 -1       126 2.00056E+01 3.54457E+00 6.02030E-03 3.80117E-02 1.22759E-12-1.26585E-14
 -1       127 2.00148E+01 4.49053E+00 2.12459E-02 3.40693E-02 8.77064E-13-6.03888E-14
 -1       128 2.00229E+01 5.19429E+00 3.51606E-02 2.23891E-02 3.21858E-13 3.53101E-14
 -1       129 2.00274E+01 5.50816E+00 4.32226E-02 4.51057E-03 1.70585E-13 1.78210E-13
 -1       130 2.00267E+01 5.34837E+00 4.25127E-02-1.56032E-02 1.00458E-13-2.21143E-13
 -1       131 2.00206E+01 4.72518E+00 3.29361E-02-3.36364E-02-1.44719E-12-2.26442E-13
 -1       132 2.00113E+01 3.75953E+00 1.76546E-02-4.43408E-02-1.78222E-12 3.25684E-13
 -1       133 1.99999E+01 2.58594E+00-1.54684E-03-4.81192E-02-5.81013E-13-1.60440E-13
 -1       134 1.99858E+01 1.41506E+00-2.45363E-02-4.59370E-02 2.60882E-13-2.11203E-14
 -1       135 1.99821E+01 4.90085E-01-3.54697E-02-3.58932E-02 9.31477E-14-1.15543E-13
 -1       136 1.99808E+01 2.98552E-02-1.23564E-02 2.96590E-02-5.68378E-14 7.65560E-14
 -1       137-1.44878E+00-2.12475E+01-3.22898E+00-4.04282E+00 1.02396E-12 3.74686E-13
 -1       138-1.60128E+00-9.13514E+00-2.34887E+00-3.16039E+00 3.12911E-12 1.35186E-12
 -1       139 3.00907E+00 3.47134E+00-1.07496E+00 3.54187E+00 2.55002E-12 1.94395E-12
 -1       140 1.47402E+01 1.07483E+01 3.55905E-01 1.24872E+01 2.13501E-12 2.27196E-12
 -1       141 3.29836E+01 1.09239E+01 1.76366E+00 1.84407E+01 9.40359E-13 1.40593E-12
 -1       142 5.25837E+01 6.34074E+00 2.89091E+00 1.70076E+01 3.72757E-13 1.28697E-12
 -1       143 6.52696E+01 1.76924E+00 3.48233E+00 7.30552E+00 2.16783E-13 9.26731E-13
 -1       144 6.48962E+01 1.45954E+00 3.39493E+00-6.28672E+00 9.02056E-16-2.71394E-13
 -1       145 5.21165E+01 5.61047E+00 2.77828E+00-1.60053E+01 2.94750E-13-5.49560E-13
 -1       146 3.26234E+01 1.01485E+01 1.76712E+00-1.77047E+01 5.21305E-13-7.27862E-13
 -1       147 1.44858E+01 1.00500E+01 4.44113E-01-1.19684E+01 7.54730E-13-8.66252E-13
 -1       148 2.64666E+00 2.63444E+00-1.02163E+00-3.04460E+00 9.73222E-13-7.14429E-13
 -1       149-1.86149E+00-1.06046E+01-2.33529E+00 3.73167E+00 1.49730E-12-5.09259E-13
 -1       150-1.27822E+00-2.17753E+01-3.14279E+00 3.69206E+00 1.87494E-12-4.19664E-13
 -1       151-8.52410E-01-2.54947E+01-3.41301E+00-7.83191E-01 6.37962E-13-3.05287E-13
 -1       152-1.64940E+00-1.91343E+01-3.03822E+00-4.24513E+00-5.44065E-13-1.55806E-13
 -1       153-1.44178E+00-7.04342E+00-2.16302E+00-2.71606E+00-1.17489E-12-4.91995E-13
 -1       154 3.93317E+00 4.45400E+00-9.60184E-01 4.41479E+00-1.38267E-12-1.19471E-12
 -1       155 1.69250E+01 1.05747E+01 4.51419E-01 1.32877E+01-1.77158E-12-2.16288E-12
 -1       156 5.55921E+01 5.05245E+00 3.09232E+00 1.54563E+01-5.90777E-13-1.59484E-12
 -1       157 6.72135E+01 1.14971E+00 3.73959E+00 4.45873E+00-5.56118E-14 4.55178E-13
 -1       158 6.52624E+01 1.88402E+00 3.63762E+00-8.38373E+00-4.37623E-13 2.28903E-12
 -1       159 5.14093E+01 6.46933E+00 2.88282E+00-1.72464E+01-9.36098E-13 2.71233E-12
 -1       160 3.14172E+01 1.07353E+01 1.63106E+00-1.79619E+01-3.44003E-13 1.08030E-12
 -1       161 1.36526E+01 9.93600E+00 1.96258E-01-1.15970E+01-9.94982E-13 6.85285E-13
 -1       162 2.27614E+00 2.06512E+00-1.25919E+00-2.60090E+00-2.79066E-12 1.82093E-12
 -1       163-1.90031E+00-1.04492E+01-2.47677E+00 3.78162E+00-3.10346E-12 1.61998E-12
 -1       164-1.48044E+00-2.17071E+01-3.27478E+00 4.16834E+00-3.13627E-12 4.37088E-13
 -1       165 2.31411E+01 4.02406E+00-6.37309E-02-3.97928E+00-3.76445E-13 7.03888E-13
 -1       166 2.14204E+01 4.48757E+00-5.16614E-02-3.11285E+00-4.22787E-13 2.00746E-13
 -1       167 2.03375E+01 4.66035E+00-3.44300E-02-2.46902E+00-3.97979E-13-1.33572E-13
 -1       168 1.95452E+01 4.68309E+00-2.48823E-02-1.93665E+00-3.50473E-13-3.29870E-13
 -1       169 1.89051E+01 4.64375E+00-1.98977E-02-1.48407E+00-2.91520E-13-4.35150E-13
 -1       170 1.83324E+01 4.56936E+00-1.71056E-02-1.07075E+00-2.26204E-13-5.15242E-13
 -1       171 1.78074E+01 4.47167E+00-1.55189E-02-6.88126E-01-1.61802E-13-5.67903E-13
 -1       172 1.73127E+01 4.35552E+00-1.46832E-02-3.23804E-01-1.08192E-13-6.01831E-13
 -1       173 1.68390E+01 4.22268E+00-1.44168E-02 3.21425E-02-4.63954E-14-6.43370E-13
 -1       174 1.63821E+01 4.07285E+00-1.46954E-02 3.88600E-01 1.56221E-14-6.70599E-13
 -1       175 1.59511E+01 3.90664E+00-1.57724E-02 7.48367E-01 8.16805E-14-6.86356E-13
 -1       176 1.55415E+01 3.71230E+00-1.82789E-02 1.13451E+00 1.63574E-13-6.62450E-13
 -1       177 1.51911E+01 3.47745E+00-2.38047E-02 1.55624E+00 2.49960E-13-5.79721E-13
 -1       178 1.49860E+01 3.15698E+00-3.31288E-02 2.03247E+00 3.26001E-13-3.87369E-13
 -1       179 1.51930E+01 2.54178E+00-4.31390E-02 2.54393E+00 3.67771E-13 3.32477E-14
 -1       180 1.56369E+01 8.60149E-01-2.41229E-01 2.17599E+00 3.21594E-13 6.39364E-13
 -1       181 2.45737E+01 9.22748E-01 1.51766E-03-2.18757E+00-3.01110E-13 1.20568E-12
 -1       182 2.28341E+01 1.94839E-01-1.12643E-02-9.11788E-01-2.85284E-13 1.00656E-12
 -1       183 2.18930E+01 1.02187E-01 1.44065E-02-4.15693E-01-2.19236E-13 8.53366E-13
 -1       184 2.14070E+01 4.57062E-02 1.05504E-02-1.97178E-01-1.55249E-13 7.05628E-13
 -1       185 2.11339E+01 2.10001E-02 5.33996E-03-9.28330E-02-1.02331E-13 6.07016E-13
 -1       186 2.09763E+01 8.34229E-03 2.45954E-03-4.33196E-02-7.17102E-14 4.98217E-13
 -1       187 2.08791E+01 1.43580E-03 1.11794E-03-2.31695E-02-9.82104E-14 4.68900E-13
 -1       188 2.08112E+01-2.31130E-03 4.90088E-04-1.93117E-02-1.03280E-13 4.59787E-13
 -1       189 2.07548E+01-4.15906E-03 1.76248E-04-2.43017E-02-4.51097E-14 4.49885E-13
 -1       190 2.06999E+01-4.79575E-03 1.64174E-05-3.35631E-02-7.87367E-14 4.22391E-13
 -1       191 2.06413E+01-4.62820E-03-5.45857E-05-4.41322E-02-9.76883E-14 2.52048E-13
 -1       192 2.05771E+01-3.90556E-03-6.77596E-05-5.40100E-02-3.34700E-14 1.37118E-13
 -1       193 2.05075E+01-2.77922E-03-4.05138E-05-6.17890E-02 2.24861E-14 1.48315E-13
 -1       194 2.04343E+01-1.33678E-03 1.63521E-05-6.64191E-02-4.44480E-15 1.75969E-13
 -1       195 2.03604E+01 3.74604E-04 9.57141E-05-6.70588E-02-1.14555E-13 1.95571E-13
 -1       196 2.02899E+01 2.32846E-03 1.92434E-04-6.29852E-02-1.88936E-13 1.51206E-13
 -1       197 2.02275E+01 4.49858E-03 3.02278E-04-5.35593E-02-7.51557E-14 6.70714E-14
 -1       198 2.01786E+01 6.83642E-03 4.21586E-04-3.82447E-02-2.28273E-14 5.67196E-14
 -1       199 2.01493E+01 9.24944E-03 5.48273E-04-1.66806E-02-8.07614E-14-7.25013E-15
 -1       200 2.01458E+01 1.15955E-02 6.84800E-04 1.12138E-02 4.46987E-14-3.83003E-14
 -1       201 2.01748E+01 1.37314E-02 8.42232E-04 4.51835E-02 3.60085E-14-3.77434E-14
 -1       202 2.02428E+01 1.56787E-02 1.03981E-03 8.48271E-02-5.67835E-14 6.83167E-14
 -1       203 2.03564E+01 1.79512E-02 1.29071E-03 1.30344E-01-4.22562E-15 2.08168E-13
 -1       204 2.05232E+01 2.18786E-02 1.57047E-03 1.84032E-01 3.33416E-14 3.02832E-13
 -1       205 2.07528E+01 2.92860E-02 1.79354E-03 2.51825E-01 9.67720E-14 2.85364E-13
 -1       206 2.10595E+01 4.04760E-02 1.74432E-03 3.42216E-01-1.39350E-13 1.48587E-13
 -1       207 2.14618E+01 5.12707E-02 1.27846E-03 4.59016E-01-4.53644E-14 1.49347E-13
 -1       208 2.19736E+01 5.23235E-02 3.17414E-04 5.89348E-01 1.45348E-15 1.35972E-13
 -1       209 2.25879E+01 3.27358E-02-1.16019E-03 6.95434E-01 5.40667E-14 1.27299E-13
 -1       210 2.32582E+01-1.56997E-02-3.02141E-03 7.16898E-01-9.12346E-14 2.28003E-13
 -1       211 2.38894E+01-9.62753E-02-4.73147E-03 5.80971E-01 1.03719E-13 3.76579E-13
 -1       212 2.43391E+01-2.01154E-01-5.41578E-03 2.21444E-01 2.17012E-13 3.17251E-13
 -1       213 2.44366E+01-2.95661E-01-4.05960E-03-3.77880E-01-4.26433E-13 2.65969E-13
 -1       214 2.40373E+01-3.05181E-01-9.73440E-04-1.10583E+00 4.05327E-14 4.36151E-13
 -1       215 2.31290E+01-1.44934E-01 6.61410E-04-1.66054E+00-5.54461E-15 2.31066E-13
 -1       216 2.19592E+01 1.81050E-01-2.09294E-03-1.63488E+00-1.85639E-13 1.97238E-13
 -1       217 2.10399E+01 4.90540E-01-7.99390E-03-8.34461E-01-3.68126E-13-3.20231E-13
 -1       218 2.08700E+01 5.40013E-01-8.39920E-03 4.10398E-01 4.94344E-14-3.28451E-13
 -1       219 2.15298E+01 2.78859E-01-3.11972E-03 1.39170E+00-3.07306E-15-2.50186E-13
 -1       220 2.25935E+01-7.21122E-02-4.89660E-05 1.62345E+00 2.54553E-13-1.34504E-13
 -1       221 2.35077E+01-2.87827E-01-7.30479E-04 1.17528E+00 2.34250E-13-1.90954E-13
 -1       222 2.39391E+01-3.20099E-01-3.47609E-03 4.37177E-01 7.06084E-14-2.70151E-13
 -1       223 2.38372E+01-2.41332E-01-5.22111E-03-2.39520E-01-2.52373E-13 1.67673E-13
 -1       224 2.33242E+01-1.33977E-01-4.65534E-03-6.90880E-01 7.67160E-14 2.53506E-13
 -1       225 2.25765E+01-3.97929E-02-2.53780E-03-8.98818E-01-1.32790E-13 2.62868E-13
 -1       226 2.17606E+01 3.51793E-02-3.52550E-04-9.01651E-01-2.97787E-14-2.59599E-13
 -1       227 2.10132E+01 1.02721E-01 1.19083E-03-7.36202E-01 3.45431E-14-4.27010E-13
 -1       228 2.04172E+01 1.68689E-01 9.99912E-04-4.28762E-01 2.60670E-13-4.05752E-13
 -1       229 1.46346E+01 2.14097E-01-3.76449E-02 8.03626E-01 3.04453E-13 5.25506E-13
 -1       230 1.39168E+01 1.00597E-01 6.27803E-03 2.50550E-01 2.43975E-13 3.29647E-13
 -1       231 1.36519E+01 4.78381E-02 9.62457E-03 1.63763E-02 1.74142E-13 1.67429E-13
 -1       232 1.36236E+01 2.38198E-02 5.86257E-03-9.92010E-02 1.28767E-13 6.25591E-14
 -1       233 1.37265E+01 1.17749E-02 3.02035E-03-1.58771E-01 1.05223E-13-7.14316E-15
 -1       234 1.39019E+01 5.01877E-03 1.56205E-03-1.88020E-01 5.67994E-14-9.36191E-14
 -1       235 1.41152E+01 1.05696E-03 8.58001E-04-1.99710E-01 6.10408E-14-1.29401E-13
 -1       236 1.43459E+01-1.22264E-03 4.91075E-04-2.01064E-01 6.98454E-14-1.75559E-13
 -1       237 1.45817E+01-2.39911E-03 2.80381E-04-1.96615E-01 4.12426E-14-2.77235E-13
 -1       238 1.48157E+01-2.81577E-03 1.55790E-04-1.89398E-01 2.86099E-14-2.66052E-13
 -1       239 1.50446E+01-2.69051E-03 8.71600E-05-1.81535E-01 7.44296E-14-3.07901E-13
 -1       240 1.52677E+01-2.16311E-03 5.82597E-05-1.74559E-01 3.89056E-14-3.19274E-13
 -1       241 1.54861E+01-1.31952E-03 5.85391E-05-1.69635E-01 1.69116E-14-3.78316E-13
 -1       242 1.57024E+01-2.07251E-04 8.03108E-05-1.67705E-01 5.34796E-14-4.03401E-13
 -1       243 1.59205E+01 1.15201E-03 1.17369E-04-1.69585E-01-3.13528E-15-3.84492E-13
 -1       244 1.61451E+01 2.74900E-03 1.63996E-04-1.76031E-01 6.84871E-14-4.98139E-13
 -1       245 1.63819E+01 4.57094E-03 2.14117E-04-1.87743E-01 6.41042E-14-5.01399E-13
 -1       246 1.66375E+01 6.58135E-03 2.60635E-04-2.05328E-01-3.02859E-14-5.20846E-13
 -1       247 1.69188E+01 8.69606E-03 2.95363E-04-2.29184E-01-1.76923E-14-4.67347E-13
 -1       248 1.72329E+01 1.07585E-02 3.10815E-04-2.59314E-01-1.57407E-13-4.17428E-13
 -1       249 1.75862E+01 1.25173E-02 3.07173E-04-2.95064E-01-8.38442E-14-3.16897E-13
 -1       250 1.79836E+01 1.35841E-02 3.02920E-04-3.34774E-01-5.83412E-14-2.52681E-13
 -1       251 1.84271E+01 1.33241E-02 3.52133E-04-3.75226E-01-1.04880E-13-3.92380E-13
 -1       252 1.89133E+01 1.05411E-02 4.04938E-04-4.10671E-01 1.30168E-14-2.79836E-13
 -1       253 1.94316E+01 3.44901E-03 7.15313E-05-4.31521E-01-2.13746E-15-1.04720E-13
 -1       254 1.99602E+01-7.12142E-03-3.86802E-04-4.25580E-01-7.57288E-15-4.76076E-14
 -1       255 2.04666E+01-1.49519E-02-8.38024E-04-3.90182E-01 3.57461E-14-1.75642E-13
 -1       256 2.09221E+01-1.66136E-02-1.79170E-03-3.39522E-01-9.73500E-14-1.98563E-13
 -1       257 2.13108E+01-2.16928E-02-2.32944E-03-2.79058E-01 1.46847E-13-4.02000E-13
 -1       258 2.16058E+01-4.16838E-02-1.67194E-03-1.80930E-01 1.28374E-14-5.09130E-13
 -1       259 2.17445E+01-7.42033E-02-2.61008E-04-5.19152E-03-2.40482E-13-3.27937E-13
 -1       260 2.16432E+01-1.05133E-01 1.28881E-03 2.61456E-01-1.95436E-13-1.40671E-13
 -1       261 2.12385E+01-1.12783E-01 2.38737E-03 5.80682E-01 2.21999E-13-2.20747E-13
 -1       262 2.05401E+01-7.21128E-02 1.70401E-03 8.48198E-01 2.33045E-13-3.24215E-13
 -1       263 1.96831E+01 2.40441E-02-1.63841E-03 9.12292E-01 1.45082E-13-4.14587E-13
 -1       264 1.89309E+01 1.36954E-01-5.83108E-03 6.67007E-01-1.53929E-13-2.30124E-13
 -1       265 1.85703E+01 2.00310E-01-6.62964E-03 1.64142E-01-4.05944E-13-4.13267E-14
 -1       266 1.87405E+01 1.78031E-01-5.56934E-03-3.91192E-01 8.20277E-14-1.07941E-13
 -1       267 1.93645E+01 9.00903E-02 7.14544E-05-7.76307E-01 4.93464E-15 1.32518E-13
 -1       268 2.01970E+01-1.43327E-02 3.80084E-03-8.72672E-01-1.33876E-14 6.67461E-14
 -1       269 2.09604E+01-8.84313E-02 4.32342E-03-7.07201E-01 1.57225E-13-1.50471E-13
 -1       270 2.14619E+01-1.15567E-01 2.84057E-03-3.97895E-01 2.40316E-13 1.09314E-13
 -1       271 2.16333E+01-1.04425E-01 8.99953E-04-7.07489E-02 9.89326E-14-2.20495E-14
 -1       272 2.15098E+01-7.22059E-02-4.86062E-04 1.88261E-01-6.41737E-14-2.37155E-13
 -1       273 2.11855E+01-3.25197E-02-1.28555E-03 3.39002E-01-1.36090E-14-1.76593E-13
 -1       274 2.07760E+01 7.96776E-03-2.09265E-03 3.70998E-01 8.55847E-14-2.76929E-13
 -1       275 2.03942E+01 4.83242E-02-1.98127E-03 2.87954E-01 3.77620E-14-3.53296E-13
 -1       276 2.01214E+01 7.08670E-02 8.18866E-04 1.18866E-01 9.79880E-15-4.48369E-13
 -1       277 2.00965E+01 2.47238E-01 1.95329E-03 2.33644E-01-8.13650E-14 4.22590E-13
 -1       278 2.00827E+01 5.94463E-01 1.87413E-03 4.40067E-01 8.03117E-14 9.94909E-14
 -1       279 2.00625E+01 1.08463E+00 1.32862E-03 6.16061E-01 1.59230E-13-2.03542E-14
 -1       280 2.00372E+01 1.69700E+00 5.25840E-04 7.39441E-01 2.63733E-13 3.79866E-13
 -1       281 2.00000E+01 2.36794E+00-9.19876E-04 7.84435E-01 5.05902E-14-4.33258E-15
 -1       282 1.99510E+01 3.04124E+00-2.37988E-03 7.22496E-01 8.73167E-14-3.38952E-13
 -1       283 1.99000E+01 3.60243E+00-3.63460E-03 5.35944E-01 4.72968E-14-2.24799E-13
 -1       284 1.98619E+01 3.94822E+00-4.39674E-03 2.38576E-01 1.75337E-13-1.83928E-13
 -1       285 1.98496E+01 4.00264E+00-4.54873E-03-1.21161E-01-8.41341E-14-2.03569E-13
 -1       286 1.98683E+01 3.74292E+00-3.99806E-03-4.72614E-01-2.90439E-13-7.98606E-13
 -1       287 1.99115E+01 3.22030E+00-2.71342E-03-7.41983E-01-2.78460E-13-1.98873E-13
 -1       288 1.99698E+01 2.50617E+00-1.13998E-03-8.89228E-01-2.06689E-13 3.92393E-13
 -1       289 2.00326E+01 1.72785E+00 4.81319E-04-8.86599E-01-8.50448E-16 4.14218E-13
 -1       290 2.01061E+01 1.00542E+00 2.30381E-03-7.20324E-01 1.48583E-13-4.49005E-14
 -1       291 2.02440E+01 5.41605E-01 3.26500E-03-6.54557E-01 2.76252E-13-6.64369E-14
 -1       292-9.40206E-01-1.18227E+01-1.03914E+00 1.24909E+00-1.46730E-13 1.17677E-12
 -1       293 2.87184E+00-9.09843E+00-7.75176E-01 3.82640E+00 4.08229E-13 1.35433E-12
 -1       294 9.89203E+00-5.60331E+00-4.76212E-01 5.96437E+00 1.15741E-12 6.32425E-13
 -1       295 1.85129E+01-1.34164E+00-1.20662E-01 7.38768E+00 1.06867E-12 8.84570E-13
 -1       296 2.84531E+01 2.35620E+00 3.08273E-01 8.01748E+00 1.12738E-12 5.56777E-13
 -1       297 3.76107E+01 4.56900E+00 5.62436E-01 6.06342E+00 7.02853E-13 7.88675E-13
 -1       298 4.43681E+01 6.44401E+00 8.21007E-01 4.00327E+00 4.23911E-13 4.26326E-13
 -1       299 4.59308E+01 7.15093E+00 7.96864E-01 5.23696E-01 5.49727E-13 5.12871E-14
 -1       300 4.46855E+01 6.11802E+00 8.76164E-01-3.24004E+00 2.61124E-13-3.19633E-13
 -1       301 3.74924E+01 4.45008E+00 6.99388E-01-5.67737E+00 1.17024E-13-9.79772E-14
 -1       302 2.80973E+01 1.72169E+00 4.00768E-01-7.07373E+00 1.59719E-13-1.64591E-14
 -1       303 1.76742E+01-1.51425E+00-3.90608E-02-6.84354E+00 1.47660E-13-1.66783E-13
 -1       304 9.69630E+00-6.15834E+00-3.41914E-01-5.80948E+00 6.47260E-14 6.50036E-14
 -1       305 1.86681E+00-9.72087E+00-8.26278E-01-2.94428E+00 3.14831E-13 1.68934E-13
 -1       306-1.10863E+00-1.12360E+01-9.06441E-01-9.56308E-01 2.72449E-13-5.47451E-13
 -1       307-3.72194E-01-9.98341E+00-7.44106E-01 1.80423E+00 2.01325E-13-4.50806E-13
 -1       308 3.46218E+00-8.80390E+00-7.97060E-01 3.46780E+00-4.81282E-14-3.72914E-13
 -1       309 1.03968E+01-4.96518E+00-4.93985E-01 5.58356E+00-3.63209E-13-5.86795E-13
 -1       310 1.97444E+01-1.04866E+00-8.76669E-02 7.10139E+00-3.80473E-13-9.00030E-13
 -1       311 3.01299E+01 2.42837E+00 3.56197E-01 7.43234E+00-3.61350E-13-9.82492E-13
 -1       312 3.96728E+01 4.85908E+00 7.65057E-01 6.08809E+00-9.24337E-13-3.89633E-13
 -1       313 4.54903E+01 6.46139E+00 9.78054E-01 2.77816E+00-1.03000E-12 3.49859E-13
 -1       314 4.79751E+01 6.71682E+00 1.13118E+00-6.78944E-01-1.05255E-12 9.36501E-13
 -1       315 4.48707E+01 6.11489E+00 1.00702E+00-4.14973E+00-6.34118E-13 1.38159E-12
 -1       316 3.76412E+01 4.39213E+00 6.98542E-01-6.64915E+00 2.30371E-15 1.55687E-12
 -1       317 2.78442E+01 1.68944E+00 2.69730E-01-7.56788E+00-7.14095E-13 1.12255E-12
 -1       318 1.77069E+01-1.91874E+00-1.72169E-01-6.90183E+00-1.42081E-12 1.18600E-13
 -1       319 9.53820E+00-6.25582E+00-4.86470E-01-5.64994E+00-1.28270E-12 3.53363E-13
 -1       320 2.34266E+00-9.70917E+00-8.61835E-01-3.12214E+00-1.75004E-12 8.00589E-13
 -1       321-9.71343E-01-1.14035E+01-9.69966E-01-1.02597E+00-1.03587E-12 1.06171E-12
 -1       322 2.12674E+01 3.13360E+00-2.43101E-02-2.44265E+00-4.61899E-13 9.32032E-14
 -1       323 2.25287E+01 2.34715E+00-2.06440E-02-2.69463E+00-4.46971E-13 4.16726E-13
 -1       324 1.95977E+01 3.68466E+00-1.59431E-02-1.67750E+00-3.83961E-13-2.49226E-13
 -1       325 1.89594E+01 3.74557E+00-1.35115E-02-1.29744E+00-3.17683E-13-3.29773E-13
 -1       326 1.83911E+01 3.73487E+00-1.21260E-02-9.37417E-01-2.32666E-13-3.98501E-13
 -1       327 1.78689E+01 3.67347E+00-1.13675E-02-5.92908E-01-1.54349E-13-4.43861E-13
 -1       328 1.73789E+01 3.57137E+00-1.10374E-02-2.57979E-01-9.15373E-14-4.61680E-13
 -1       329 1.69138E+01 3.43175E+00-1.10637E-02 7.30915E-02-9.10722E-15-4.95722E-13
 -1       330 1.64793E+01 3.25551E+00-1.14981E-02 3.99918E-01 7.19084E-14-5.16219E-13
 -1       331 1.60658E+01 3.02680E+00-1.25183E-02 7.37271E-01 1.62871E-13-5.05857E-13
 -1       332 1.56979E+01 2.72418E+00-1.43033E-02 1.07813E+00 2.56197E-13-4.55174E-13
 -1       333 1.54169E+01 2.29545E+00-1.63649E-02 1.40266E+00 3.44615E-13-3.48914E-13
 -1       334 1.52424E+01 1.61845E+00-2.11220E-02 1.58678E+00 3.96672E-13-1.00139E-13
 -1       335 1.51178E+01 9.01322E-01-1.71549E-02 1.32223E+00 3.85191E-13 1.57714E-13
 -1       336 1.46759E+01 3.84889E-01 6.82794E-03 5.54286E-01 3.16278E-13 8.63112E-14
 -1       337 2.22635E+01 6.96102E-01 1.30307E-02-1.28670E+00-3.56697E-13 4.18344E-13
 -1       338 2.17144E+01 3.37995E-01 7.42101E-03-7.05484E-01-2.61431E-13 3.52649E-13
 -1       339 2.13344E+01 1.72456E-01 4.21398E-03-3.96349E-01-1.91609E-13 3.15119E-13
 -1       340 2.10729E+01 8.59655E-02 1.89233E-03-2.28803E-01-1.29808E-13 2.63040E-13
 -1       341 2.08906E+01 3.80549E-02 7.65414E-04-1.41379E-01-1.20595E-13 2.15623E-13
 -1       342 2.07577E+01 1.08271E-02 2.55387E-04-1.00584E-01-1.04067E-13 2.34592E-13
 -1       343 2.06537E+01-4.32420E-03 1.66278E-05-8.70304E-02-8.38533E-14 2.03585E-13
 -1       344 2.05656E+01-1.19549E-02-9.65909E-05-8.88238E-02-7.25458E-14 1.79508E-13
 -1       345 2.04852E+01-1.46788E-02-1.41164E-04-9.83066E-02-1.69420E-13 1.55076E-13
 -1       346 2.04077E+01-1.40789E-02-1.42340E-04-1.10357E-01-1.42422E-13 1.57268E-13
 -1       347 2.03311E+01-1.11337E-02-1.13627E-04-1.21424E-01-1.72678E-14 4.02315E-14
 -1       348 2.02549E+01-6.44152E-03-6.31093E-05-1.28943E-01 1.71648E-14 4.32028E-14
 -1       349 2.01800E+01-3.55067E-04 4.19447E-06-1.30956E-01-7.83515E-14-3.41608E-14
 -1       350 2.01083E+01 6.92196E-03 8.49840E-05-1.25870E-01-1.74029E-13-1.41012E-13
 -1       351 2.00426E+01 1.52515E-02 1.76615E-04-1.12315E-01-1.79589E-13-4.01154E-15
 -1       352 1.99865E+01 2.44782E-02 2.76266E-04-8.90958E-02-6.33421E-14 1.69172E-14
 -1       353 1.99442E+01 3.43467E-02 3.80739E-04-5.52206E-02-4.63311E-14 7.44096E-14
 -1       354 1.99204E+01 4.44453E-02 4.87894E-04-1.00127E-02-8.88340E-14-9.43544E-15
 -1       355 1.99207E+01 5.42536E-02 6.00920E-04 4.67549E-02 8.95250E-15 5.50840E-14
 -1       356 1.99509E+01 6.34525E-02 7.34105E-04 1.14827E-01 1.21510E-13 1.33397E-13
 -1       357 2.00171E+01 7.26986E-02 9.09689E-04 1.93840E-01-4.14251E-14 1.52460E-13
 -1       358 2.01241E+01 8.48230E-02 1.13671E-03 2.84574E-01 8.91595E-14 6.57795E-14
 -1       359 2.02754E+01 1.05343E-01 1.39129E-03 3.91420E-01-5.13683E-14 3.34790E-14
 -1       360 2.04741E+01 1.39251E-01 1.65572E-03 5.24650E-01-6.12028E-14 1.60454E-14
 -1       361 2.07280E+01 1.80920E-01 1.57520E-03 6.96808E-01-3.72560E-14 1.54506E-14
 -1       362 2.10544E+01 2.04783E-01 1.11408E-03 9.05988E-01-5.33722E-14-1.85218E-14
 -1       363 2.14719E+01 1.71523E-01 1.75678E-04 1.11499E+00 2.33050E-14 8.60450E-15
 -1       364 2.19839E+01 4.74965E-02-1.43924E-03 1.24843E+00 4.89634E-14 9.13650E-14
 -1       365 2.25729E+01-1.84736E-01-3.75817E-03 1.20926E+00 1.69083E-13 2.95253E-13
 -1       366 2.32039E+01-5.18939E-01-6.76077E-03 8.96196E-01 2.44419E-13 3.43894E-13
 -1       367 2.38157E+01-8.91728E-01-9.02018E-03 2.31211E-01-1.32344E-14 3.67421E-13
 -1       368 2.42898E+01-1.12359E+00-9.53430E-03-7.69051E-01-1.84068E-13 5.83304E-13
 -1       369 2.44382E+01-9.12097E-01-7.95917E-03-1.85879E+00 3.27388E-14 5.31317E-13
 -1       370 2.41156E+01-4.35962E-02-9.70466E-03-2.47471E+00-2.79900E-13 4.97385E-13
 -1       371 2.34623E+01 1.21213E+00-1.84029E-02-1.98073E+00-6.54937E-13 1.38837E-13
 -1       372 2.30323E+01 1.96002E+00-2.41307E-02-3.54152E-01-2.67602E-13-6.58098E-14
 -1       373 2.32518E+01 1.50973E+00-1.60991E-02 1.46235E+00 3.15494E-14-7.05563E-13
 -1       374 2.38455E+01 2.83513E-01-1.24070E-02 2.30488E+00 4.66410E-13-3.20525E-13
 -1       375 2.42353E+01-7.59352E-01-9.36776E-03 1.92540E+00 1.24202E-13 1.27300E-13
 -1       376 2.41506E+01-1.15223E+00-9.32985E-03 8.74238E-01-7.99187E-14-1.78071E-13
 -1       377 2.36828E+01-1.01401E+00-9.51537E-03-2.16528E-01 1.73363E-13-2.24840E-13
 -1       378 2.30331E+01-6.55994E-01-7.47995E-03-1.01015E+00 1.60136E-13-1.61962E-14
 -1       379 2.23441E+01-2.90937E-01-4.18115E-03-1.43647E+00-1.08270E-14 9.04303E-14
 -1       380 2.16881E+01 8.08055E-03-9.14905E-04-1.54356E+00-4.73174E-13 1.58631E-13
 -1       381 2.11020E+01 2.50961E-01 2.22450E-03-1.39952E+00-1.67620E-13 6.48081E-14
 -1       382 2.06547E+01 4.15535E-01 4.21297E-03-1.08505E+00 6.88394E-14-2.82718E-14
 -1       383 1.44006E+01 1.86148E-01 8.36253E-03 1.34564E-01 2.39785E-13 4.10531E-14
 -1       384 1.42973E+01 9.73328E-02 4.84202E-03-9.33616E-02 1.74233E-13-2.51279E-14
 -1       385 1.43198E+01 5.04864E-02 2.27212E-03-2.18832E-01 1.38126E-13-7.23780E-14
 -1       386 1.44213E+01 2.37968E-02 1.00135E-03-2.85811E-01 1.03069E-13-1.12854E-13
 -1       387 1.45701E+01 7.97563E-03 4.13484E-04-3.18056E-01 8.02133E-14-1.67601E-13
 -1       388 1.47457E+01-1.29611E-03 1.24844E-04-3.29331E-01 1.00841E-13-1.69401E-13
 -1       389 1.49348E+01-6.29567E-03-2.55330E-05-3.28332E-01 1.00434E-13-2.04408E-13
 -1       390 1.51293E+01-8.36732E-03-9.78001E-05-3.20874E-01 3.63774E-14-2.70307E-13
 -1       391 1.53246E+01-8.35911E-03-1.17994E-04-3.11016E-01 5.76625E-14-2.69924E-13
 -1       392 1.55188E+01-6.81665E-03-1.00350E-04-3.01687E-01 5.85404E-14-2.22369E-13
 -1       393 1.57118E+01-4.08246E-03-5.38250E-05-2.95090E-01 7.65861E-14-2.20376E-13
 -1       394 1.59050E+01-3.57053E-04 1.57195E-05-2.92972E-01 6.08589E-14-2.32244E-13
 -1       395 1.61008E+01 4.25276E-03 1.04276E-04-2.96809E-01-1.33270E-14-2.71473E-13
 -1       396 1.63026E+01 9.68564E-03 2.08550E-04-3.07914E-01 9.43940E-14-2.74165E-13
 -1       397 1.65147E+01 1.58700E-02 3.24722E-04-3.27464E-01 4.62664E-14-3.08427E-13
 -1       398 1.67419E+01 2.26557E-02 4.47170E-04-3.56445E-01 3.16623E-14-2.52901E-13
 -1       399 1.69894E+01 2.97337E-02 5.67759E-04-3.95477E-01-2.46707E-14-2.63347E-13
 -1       400 1.72626E+01 3.65519E-02 6.77289E-04-4.44525E-01-1.08464E-13-2.97445E-13
 -1       401 1.75666E+01 4.22382E-02 7.71763E-04-5.02491E-01-1.86913E-13-2.48815E-13
 -1       402 1.79052E+01 4.55019E-02 8.60819E-04-5.66714E-01-1.19720E-14-1.84427E-13
 -1       403 1.82805E+01 4.43418E-02 9.42263E-04-6.32314E-01-2.76510E-14-2.53508E-13
 -1       404 1.86920E+01 3.54994E-02 9.13672E-04-6.91109E-01-1.42241E-13-2.55054E-13
 -1       405 1.91359E+01 1.40512E-02-2.38322E-04-7.29877E-01-6.03797E-14-7.91038E-14
 -1       406 1.96016E+01-2.13083E-02-3.51027E-03-7.29598E-01-4.53389E-14 6.02130E-14
 -1       407 2.00617E+01-5.13975E-02-4.36253E-03-6.77762E-01 6.00986E-14 2.24374E-13
 -1       408 2.04798E+01-6.02100E-02-4.51450E-03-5.95188E-01 2.31454E-14 1.42356E-13
 -1       409 2.08535E+01-7.60157E-02-4.15858E-03-4.99696E-01 1.74343E-13-8.31464E-15
 -1       410 2.11826E+01-1.36883E-01-3.61304E-03-3.52889E-01 1.32360E-13 1.04800E-13
 -1       411 2.14288E+01-2.36480E-01-4.00247E-03-9.29508E-02-2.48489E-13-1.23439E-13
 -1       412 2.15297E+01-3.31268E-01-5.12540E-03 3.01640E-01-1.87166E-13-3.44784E-13
 -1       413 2.14286E+01-3.56761E-01-5.12018E-03 7.81101E-01 9.40803E-14-4.54557E-13
 -1       414 2.10970E+01-2.38062E-01-3.63731E-03 1.20387E+00 2.44427E-13-1.01342E-13
 -1       415 2.05828E+01 5.49733E-02-1.58399E-03 1.34699E+00 8.40657E-14 1.42760E-13
 -1       416 2.00631E+01 4.15084E-01 5.03197E-04 1.02845E+00-1.81008E-13 1.74755E-13
 -1       417 1.97900E+01 6.29568E-01 2.65401E-03 2.98347E-01-3.54488E-13 2.11806E-13
 -1       418 1.98950E+01 5.74864E-01-2.78955E-04-5.38389E-01 5.69067E-14 1.10311E-13
 -1       419 2.03345E+01 3.03435E-01 3.79430E-03-1.13824E+00-1.55083E-13 1.54826E-13
 -1       420 2.09075E+01-3.26153E-02 2.47555E-03-1.30238E+00 4.08224E-14 1.25182E-13
 -1       421 2.13943E+01-2.78422E-01-9.55970E-04-1.06166E+00 1.93010E-14 2.01556E-13
 -1       422 2.16618E+01-3.73955E-01-3.63439E-03-5.94080E-01 2.62690E-13 2.57369E-13
 -1       423 2.16822E+01-3.43162E-01-4.64988E-03-9.30747E-02 1.50266E-13 3.16155E-13
 -1       424 2.14985E+01-2.40604E-01-4.04363E-03 3.08265E-01 1.01065E-13 2.48184E-13
 -1       425 2.11840E+01-1.12147E-01-2.54125E-03 5.47463E-01-2.18774E-13 1.04368E-13
 -1       426 2.08144E+01 1.83803E-02-7.34260E-04 6.10043E-01 6.78727E-14 2.27206E-13
 -1       427 2.04573E+01 1.34677E-01 5.40984E-04 5.07748E-01 1.34697E-13 3.47990E-13
 -1       428 2.02618E+01 2.04592E-01 1.52700E-03 3.91039E-01 1.24345E-13 3.11159E-13
 -1       429 2.01950E+01 1.01521E+00 1.74378E-03 1.14097E+00-1.46400E-13 1.86223E-13
 -1       430 2.02676E+01 6.32018E-01 2.41756E-03 9.00952E-01 1.01271E-13-3.84233E-14
 -1       431 2.02733E+01 4.07343E-01 2.58744E-03 6.45834E-01 5.13182E-14 3.76036E-13
 -1       432 2.00775E+01 1.46850E+00 3.64046E-04 1.28646E+00-4.68216E-13-2.98643E-13
 -1       433 1.99062E+01 1.97522E+00-1.38353E-03 1.28443E+00-3.82005E-13 2.14338E-13
 -1       434 1.97064E+01 2.46110E+00-3.08807E-03 1.08346E+00 8.17277E-15-3.53487E-13
 -1       435 1.95274E+01 2.83774E+00-4.37202E-03 6.75609E-01-2.97022E-13-1.60004E-13
 -1       436 1.94262E+01 3.01994E+00-5.04882E-03 1.13443E-01-2.80164E-13-3.40296E-13
 -1       437 1.94403E+01 2.95854E+00-4.91905E-03-4.96461E-01-5.44254E-13-7.35671E-13
 -1       438 1.95643E+01 2.66900E+00-3.90411E-03-1.01999E+00-1.82841E-13-3.98402E-13
 -1       439 1.97673E+01 2.20194E+00-2.23275E-03-1.37366E+00 3.72271E-14 5.50465E-13
 -1       440 2.00025E+01 1.64907E+00 1.68332E-04-1.49513E+00 1.06265E-13 6.04950E-13
 -1       441 2.02375E+01 1.09692E+00 3.40798E-03-1.38663E+00-4.08084E-14 1.94667E-13
 -1       442 1.14264E+01-5.80808E+00 3.26756E-02 7.46432E+00 8.07410E-14 8.14578E-13
 -1       443 1.04438E+00-5.16469E+00-7.91637E-02 3.45512E-01 3.41437E-14 1.58240E-12
 -1       444 3.92499E+00-5.07335E+00-1.36840E-02 4.66117E+00 3.63737E-14 1.41424E-12
 -1       445 2.01256E+01-6.01632E+00 2.60223E-02 6.98605E+00 2.59182E-13 1.38084E-15
 -1       446 2.59067E+01-4.35499E+00-3.03136E-02 5.09097E+00 3.51455E-13-1.53655E-13
 -1       447 2.03438E+01 3.50899E+00-1.98596E-02-2.07238E+00-4.34439E-13-1.21520E-13
 -1       448 3.53567E+01 4.81223E+00 1.39655E-02 5.15309E-01 4.74926E-13 1.26635E-13
 -1       449 3.59775E+01 7.64464E+00-9.07767E-02 2.41722E-01 5.36474E-13-1.86212E-13
 -1       450 3.42032E+01 7.40243E+00-2.94183E-01 1.21456E+00 3.72556E-13 7.61839E-14
 -1       451 3.40574E+01 5.00688E+00-6.85396E-03 1.32655E+00 6.46982E-14-2.91017E-14
 -1       452 3.17202E+01 2.33384E-01 2.67025E-01-1.63514E+00-1.07983E-13-7.32747E-15
 -1       453 2.56140E+01-3.70249E+00 1.45580E-01-4.56656E+00-6.10692E-14 3.02022E-13
 -1       454 1.90035E+01-5.93009E+00 6.79439E-02-6.34138E+00-3.15817E-13-3.13707E-14
 -1       455 8.79336E+00-5.96942E+00-6.98764E-03-6.49567E+00-2.19283E-13 3.77302E-13
 -1       456 2.98911E+00-5.52644E+00-6.55395E-02-3.97824E+00-2.17271E-13 4.45616E-14
 -1       457 1.84253E+00-3.90447E+00 6.86737E-02 3.55785E-01-1.98908E-13-4.74301E-13
 -1       458 4.95954E+00-5.58849E+00-5.57021E-02 5.15979E+00 1.51962E-14-4.63171E-13
 -1       459 1.05867E+01-6.31528E+00-1.02188E-01 6.74423E+00 1.12410E-14-5.28022E-13
 -1       460 2.05498E+01-5.88660E+00-2.39525E-03 6.28978E+00-4.79894E-14-4.78367E-13
 -1       461 2.77307E+01-3.55443E+00-1.35656E-02 3.75157E+00-1.77774E-14-5.73291E-13
 -1       462 3.31745E+01 9.11202E-01 6.20880E-02 1.66288E+00-4.73120E-13-1.48215E-14
 -1       463 3.61805E+01 5.12608E+00 1.07204E-01-3.22834E-03-1.14242E-12 4.80768E-13
 -1       464 3.64431E+01 7.92544E+00 9.20658E-02-3.28273E-01-1.23376E-12 4.38840E-13
 -1       465 3.72141E+01 7.37381E+00 1.18535E-01 8.12563E-02-9.67976E-13 3.74659E-13
 -1       466 3.44100E+01 3.88174E+00-1.57370E-02 4.96031E-01 1.20542E-13 1.38653E-13
 -1       467 3.21991E+01-1.69842E-01 5.18973E-02-2.35399E+00 2.80475E-13 5.81007E-13
 -1       468 2.61224E+01-3.93603E+00-4.55799E-03-4.90031E+00-4.80394E-13-4.24660E-14
 -1       469 1.88689E+01-5.88776E+00-3.71314E-02-6.68306E+00-7.17482E-13-1.78017E-13
 -1       470 9.90497E+00-6.11734E+00-3.95452E-02-6.83210E+00-6.56308E-13-1.04222E-14
 -1       471 4.11461E+00-5.36714E+00-2.61399E-02-4.57111E+00-3.48999E-13 8.42645E-13
 -1       472 3.21047E+01 9.55626E-02 2.26302E-02 2.67132E+00 5.56222E-13 5.09315E-14
 -1       473 1.59447E+01-5.90750E+00 1.22569E-01-6.83130E+00-2.97554E-13 2.08226E-13
 -1       474 1.52292E+01 6.64598E-01 3.31517E-03 4.95187E-01 2.91585E-13-1.62790E-13
 -1       475 1.89620E+01 2.97233E+00-5.22078E-03-1.09614E+00-2.63524E-13-3.06907E-13
 -1       476 1.95676E+01 2.87354E+00-5.99003E-03-1.39020E+00-3.21739E-13-2.44216E-13
 -1       477 1.79008E+01 2.93703E+00-4.57492E-03-5.04648E-01-1.22650E-13-4.03021E-13
 -1       478 1.74207E+01 2.83106E+00-4.50637E-03-2.12943E-01-4.95480E-14-4.18500E-13
 -1       479 1.69735E+01 2.67369E+00-4.61995E-03 7.05772E-02 3.80338E-14-4.47130E-13
 -1       480 1.65427E+01 2.45339E+00-4.88564E-03 3.53001E-01 1.31289E-13-4.46952E-13
 -1       481 1.61391E+01 2.15683E+00-5.10172E-03 6.19359E-01 2.09814E-13-4.18052E-13
 -1       482 1.57782E+01 1.74858E+00-4.09982E-03 8.48750E-01 2.85857E-13-3.55208E-13
 -1       483 1.51215E+01 3.73158E-01 3.95616E-03 8.29647E-02 2.32968E-13-1.64098E-13
 -1       484 2.15894E+01 9.88379E-01 2.62322E-03-1.28589E+00-3.58035E-13 1.45754E-13
 -1       485 2.91382E+01-3.49004E+00-5.93135E-02 1.62961E+00 8.40300E-14-5.04458E-14
 -1       486 2.13215E+01 5.40217E-01 1.91708E-03-8.12869E-01-2.28881E-13 1.15879E-13
 -1       487 2.10700E+01 2.95249E-01 1.05084E-03-5.16255E-01-1.78507E-13 1.24773E-13
 -1       488 2.08620E+01 1.53982E-01 4.38368E-04-3.40012E-01-1.52734E-13 1.27949E-13
 -1       489 2.06944E+01 7.06586E-02 1.47424E-04-2.41293E-01-1.43712E-13 8.44837E-14
 -1       490 2.05575E+01 2.16087E-02 1.84143E-05-1.91637E-01-1.24410E-13 5.79104E-14
 -1       491 2.04419E+01-6.04712E-03-4.12938E-05-1.72156E-01-1.24223E-13 4.95830E-14
 -1       492 2.03402E+01-1.97665E-02-6.69749E-05-1.70152E-01-1.45674E-13-2.27272E-14
 -1       493 2.02474E+01-2.40965E-02-7.21915E-05-1.76932E-01-1.27239E-13 2.54096E-14
 -1       494 2.01601E+01-2.18898E-02-6.33990E-05-1.86425E-01-1.26619E-13 4.44569E-14
 -1       495 2.00765E+01-1.49414E-02-4.44516E-05-1.94271E-01-1.56953E-14-5.83874E-14
 -1       496 1.99962E+01-4.35685E-03-1.77987E-05-1.97215E-01-8.10802E-14-1.67118E-13
 -1       497 1.99193E+01 9.20545E-03 1.50059E-05-1.92693E-01-1.24308E-13-5.57695E-14
 -1       498 1.98470E+01 2.53484E-02 5.28554E-05-1.78561E-01-1.61871E-13 5.59341E-14
 -1       499 1.97809E+01 4.37701E-02 9.46495E-05-1.52925E-01-1.02899E-13 6.97472E-14
 -1       500 1.97236E+01 6.41003E-02 1.39156E-04-1.14084E-01-6.99487E-14 3.91099E-14
 -1       501 1.96781E+01 8.57468E-02 1.86035E-04-6.05557E-02-1.41087E-13 3.61224E-14
 -1       502 1.96485E+01 1.07821E-01 2.39591E-04 8.77805E-03-1.23738E-15 4.66794E-14
 -1       503 1.96396E+01 1.29306E-01 3.15227E-04 9.44423E-02 7.11508E-14-2.62246E-14
 -1       504 1.96569E+01 1.49797E-01 4.37340E-04 1.96106E-01 1.88969E-14-5.35208E-14
 -1       505 1.97055E+01 1.71230E-01 5.91957E-04 3.12622E-01 5.88550E-14-1.37128E-14
 -1       506 1.97874E+01 2.00483E-01 6.57409E-04 4.43414E-01-3.74194E-14-7.16844E-14
 -1       507 1.98986E+01 2.50026E-01 5.28634E-04 5.93111E-01-8.85295E-14-1.98117E-13
 -1       508 2.00329E+01 3.28016E-01 6.60666E-04 7.78594E-01-7.04464E-14-1.87884E-13
 -1       509 2.01994E+01 4.08950E-01 4.05992E-04 1.02352E+00 4.66299E-14-1.35334E-13
 -1       510 2.04367E+01 4.19670E-01 1.74769E-04 1.31974E+00 2.72707E-14-1.06641E-14
 -1       511 2.07861E+01 2.81559E-01-1.27507E-04 1.59823E+00 2.00260E-13 1.02533E-13
 -1       512 2.12728E+01-4.67967E-02-6.30587E-04 1.75763E+00 1.77872E-13 1.94436E-13
 -1       513 2.19235E+01-5.75481E-01-3.00765E-03 1.69520E+00 1.57299E-13 1.95437E-13
 -1       514 2.27837E+01-1.27000E+00-4.41097E-03 1.30325E+00 1.36551E-13 1.37211E-13
 -1       515 2.38576E+01-1.96394E+00-6.30110E-03 4.67808E-01 6.07974E-14 9.30174E-14
 -1       516 2.49944E+01-2.22133E+00-1.09189E-02-8.33252E-01 2.95482E-14 4.78861E-13
 -1       517 2.57724E+01-1.38225E+00-1.70373E-02-2.25971E+00-3.02861E-13 3.11137E-13
 -1       518 2.57321E+01 9.09727E-01-7.45008E-02-2.87876E+00-5.65454E-13 1.29080E-13
 -1       519 2.51562E+01 3.35944E+00-9.63293E-02-1.68317E+00-6.91436E-13 1.68416E-14
 -1       520 2.52109E+01 3.67006E+00-7.91165E-02 8.15230E-01-6.17423E-13-2.03439E-13
 -1       521 2.56043E+01 1.64668E+00-7.87308E-02 2.52867E+00 1.52364E-13-6.02444E-13
 -1       522 2.58023E+01-8.78828E-01-3.52507E-02 2.33866E+00 7.89738E-13-6.46437E-13
 -1       523 2.52103E+01-2.17141E+00-1.31822E-02 1.01340E+00-2.10005E-13-4.53663E-13
 -1       524 2.41094E+01-2.15971E+00-6.89250E-03-3.99959E-01 9.82690E-14-6.19500E-13
 -1       525 2.29918E+01-1.52810E+00-4.41090E-03-1.39069E+00 8.70986E-14-3.80727E-13
 -1       526 2.20849E+01-7.98344E-01-2.43007E-03-1.90986E+00 5.75061E-14-3.64847E-13
 -1       527 2.14147E+01-1.84849E-01-7.69625E-04-2.05936E+00 5.74081E-14-2.01969E-13
 -1       528 2.09272E+01 2.93355E-01 8.16969E-04-1.93817E+00-1.54118E-13 2.48720E-13
 -1       529 1.51019E+01 1.12740E-01 8.23616E-04-3.22291E-01 1.49821E-13-1.87754E-13
 -1       530 1.51719E+01 5.46988E-02 3.18272E-04-4.08370E-01 1.15090E-13-1.85692E-13
 -1       531 1.52756E+01 1.92544E-02 8.75142E-05-4.52415E-01 9.69418E-14-2.08982E-13
 -1       532 1.54012E+01-1.63876E-03-2.63421E-05-4.70075E-01 1.02591E-13-1.95320E-13
 -1       533 1.55402E+01-1.26719E-02-8.19241E-05-4.72046E-01 7.74901E-14-1.74637E-13
 -1       534 1.56869E+01-1.67822E-02-1.01346E-04-4.65844E-01 7.33544E-14-1.75176E-13
 -1       535 1.58378E+01-1.58743E-02-9.53458E-05-4.56882E-01 5.10698E-14-2.08363E-13
 -1       536 1.59913E+01-1.11859E-02-7.04172E-05-4.49165E-01 5.96377E-14-1.96872E-13
 -1       537 1.61470E+01-3.49557E-03-3.07582E-05-4.45774E-01 3.28874E-14-2.06148E-13
 -1       538 1.63055E+01 6.73265E-03 2.09377E-05-4.49192E-01 2.86246E-14-9.84513E-14
 -1       539 1.64682E+01 1.92231E-02 8.27621E-05-4.61529E-01 2.15684E-14-9.79732E-14
 -1       540 1.66373E+01 3.37547E-02 1.52890E-04-4.84635E-01 9.65533E-14-1.16229E-13
 -1       541 1.68155E+01 5.00060E-02 2.28801E-04-5.20097E-01 3.24204E-14-1.09517E-13
 -1       542 1.70059E+01 6.73671E-02 3.07248E-04-5.69104E-01-6.93836E-14-6.48069E-14
 -1       543 1.72119E+01 8.47294E-02 3.86990E-04-6.32137E-01-1.65812E-14-6.44427E-14
 -1       544 1.74373E+01 1.00289E-01 4.78253E-04-7.08498E-01-1.36139E-13-1.18946E-13
 -1       545 1.76856E+01 1.11409E-01 6.18318E-04-7.95717E-01-3.76625E-14-3.31825E-13
 -1       546 1.79597E+01 1.14480E-01 8.53495E-04-8.89026E-01-7.60253E-14-3.24513E-13
 -1       547 1.82623E+01 1.04223E-01 1.00830E-03-9.81090E-01-1.27319E-13-1.85262E-13
 -1       548 1.85970E+01 7.21241E-02 1.26576E-04-1.06130E+00-1.16179E-13-1.92509E-13
 -1       549 1.89709E+01 4.31787E-03-6.78643E-03-1.11105E+00-9.85906E-14-2.02962E-13
 -1       550 1.93852E+01-9.78514E-02-2.21910E-02-1.09114E+00-3.59339E-14-1.69201E-13
 -1       551 1.97933E+01-1.53420E-01-2.10785E-02-9.80850E-01 2.23348E-14-8.06486E-14
 -1       552 2.01502E+01-1.52408E-01-1.21597E-02-8.66065E-01 1.01936E-13 7.61651E-14
 -1       553 2.05325E+01-2.34691E-01-3.77535E-03-7.50127E-01 1.10698E-13 5.14434E-14
 -1       554 2.09491E+01-4.38326E-01-1.84713E-03-5.20478E-01-2.47172E-14 1.05534E-13
 -1       555 2.13500E+01-6.81942E-01-4.11665E-03-1.08824E-01-1.24278E-13 1.12407E-13
 -1       556 2.16793E+01-8.46315E-01-7.43390E-03 4.73892E-01-3.28966E-14 1.51388E-14
 -1       557 2.18649E+01-7.72748E-01-7.70032E-03 1.13255E+00 1.50144E-14 1.17937E-13
 -1       558 2.18110E+01-2.90568E-01-5.34858E-03 1.63288E+00 2.04856E-14 2.68044E-13
 -1       559 2.15237E+01 5.58515E-01-5.62075E-03 1.60809E+00-9.01328E-14 3.35327E-13
 -1       560 2.12543E+01 1.31420E+00-1.30453E-02 8.77683E-01-2.02862E-13 2.69697E-13
 -1       561 2.12256E+01 1.49251E+00-3.23316E-02-2.42802E-01-4.64195E-14 1.35172E-13
 -1       562 2.15233E+01 1.04649E+00-8.79304E-03-1.24663E+00-8.91127E-15 6.17366E-14
 -1       563 2.19503E+01 2.47784E-01-8.26052E-04-1.69573E+00 6.70083E-14-1.11216E-13
 -1       564 2.22573E+01-4.67237E-01-1.11566E-03-1.51255E+00-1.29313E-13-6.67231E-14
 -1       565 2.23081E+01-8.44601E-01-2.33934E-03-9.24559E-01 8.32791E-14-1.55775E-13
 -1       566 2.21187E+01-8.78487E-01-3.24279E-03-2.27893E-01 5.71320E-14 1.88337E-13
 -1       567 2.17800E+01-6.89014E-01-2.99369E-03 3.66730E-01 1.39822E-13 2.65623E-13
 -1       568 2.13802E+01-4.02009E-01-2.17529E-03 7.59150E-01-7.02530E-15 2.13163E-13
 -1       569 2.09807E+01-9.74825E-02-4.86184E-04 9.26433E-01-1.60848E-13 2.00761E-13
 -1       570 2.06062E+01 1.84867E-01 9.62743E-04 8.86328E-01 7.68512E-15 3.95752E-13
 -1       571 2.00128E+01 1.07568E+00-4.46406E-04 1.70982E+00-2.32884E-13 1.96768E-13
 -1       572 1.96138E+01 1.51464E+00-1.25833E-03 1.61872E+00-2.17026E-13 1.79626E-13
 -1       573 2.04857E+01 4.32825E-01 1.35408E-03 1.29776E+00-1.67840E-13-1.86868E-13
 -1       574 2.03078E+01 7.08242E-01 6.32727E-04 1.57125E+00-5.60421E-13-2.59657E-13
 -1       575 1.91948E+01 1.94254E+00-1.86515E-03 1.23581E+00-1.34715E-13-4.36516E-13
 -1       576 1.88792E+01 2.25009E+00-2.14153E-03 5.79649E-01-1.85503E-13-1.89351E-13
 -1       577 1.87811E+01 2.34284E+00-2.24041E-03-2.33671E-01-1.32876E-13-3.51349E-13
 -1       578 1.89358E+01 2.19564E+00-2.08679E-03-1.01065E+00 1.07836E-13-4.78810E-13
 -1       579 1.93001E+01 1.85033E+00-1.67466E-03-1.60650E+00 3.01901E-14-2.97246E-14
 -1       580 1.97607E+01 1.40598E+00-5.92521E-04-1.90947E+00-2.73605E-13 6.24131E-13
 -1       581 2.02333E+01 9.57541E-01-3.84050E-04-1.89424E+00-2.46821E-13 3.37959E-13
 -1       582 5.43693E+00-1.88784E+00 1.83361E-01 2.45125E+00 2.14585E-13 1.51176E-12
 -1       583 1.87060E+01-5.47346E+00 1.07038E-01 6.86383E+00-3.05519E-14-1.74678E-13
 -1       584 1.50806E+01 2.08582E-01 1.94005E-03-1.70720E-01 1.83574E-13-1.69273E-13
 -1       585 5.24789E+00-2.09326E+00 1.80498E-01-2.34725E+00 3.20306E-13 1.12266E-12
 -1       586 2.49987E+01-5.84976E+00 1.69198E-02 4.53078E+00 5.00017E-14-3.17451E-13
 -1       587 1.78899E+01-5.91926E+00 9.58686E-02-6.83870E+00-1.76789E-13-8.71258E-13
 -1       588 2.91900E+01-3.70311E+00-4.47695E-02-1.43023E+00 3.58796E-13-3.50553E-14
 -1       589 6.07256E+00-2.36284E+00 1.69807E-01 3.61854E+00-1.30750E-13-2.72643E-13
 -1       590 3.09999E+01 5.30111E+00-2.60803E-01-1.33494E+00 6.17062E-13-3.03715E-13
 -1       591 1.84114E+01 2.98708E+00-4.79562E-03-7.99376E-01-1.88761E-13-3.62941E-13
 -1       592 3.04337E+01 7.01713E+00-4.23372E-01 2.48410E-01 3.30042E-13 3.29597E-14
 -1       593 2.81178E+01-3.53175E+00 3.16005E-01-7.55597E-01-1.10328E-14 7.15886E-14
 -1       594 3.04865E+01 4.75605E+00-6.00584E-01 3.04126E+00 2.27152E-13 4.15223E-14
 -1       595 2.55398E+01-5.64851E+00-6.48895E-04 3.71156E+00-4.61159E-14-5.81868E-13
 -1       596 3.02679E+01 7.35660E-01 3.63449E-01 1.77251E+00-1.97009E-13 6.07014E-14
 -1       597 2.45215E+01-5.63453E+00 1.87135E-01-3.66737E+00-2.12279E-13 1.80160E-13
 -1       598 8.56974E+00-3.63549E+00 1.60460E-01-5.62445E+00-2.16820E-13 3.39104E-13
 -1       599 5.21758E+00-1.99439E+00 1.73793E-01-2.30001E+00-3.36817E-13-1.79606E-13
 -1       600 1.11119E+01-4.51149E+00 1.16713E-01 6.57363E+00-1.22541E-14-6.12059E-13
 -1       601 1.85486E+01-5.93565E+00 5.92423E-02 6.49715E+00-9.69572E-14-4.58255E-13
 -1       602 2.99781E+01-2.47136E+00-6.08245E-02 1.74094E-01-1.49259E-13-3.66651E-14
 -1       603 3.16218E+01 1.84901E+00-1.14273E-01-1.68972E+00-8.19927E-13 5.54626E-13
 -1       604 3.04681E+01 5.39390E+00-1.94120E-01-1.92721E+00-1.05850E-12 1.18364E-13
 -1       605 3.04509E+01 7.03941E+00-1.65697E-01 4.24737E-01-7.98112E-13-3.13855E-13
 -1       606 3.05437E+01 4.74937E+00-1.82053E-01 1.93757E+00-3.20466E-13-1.98973E-13
 -1       607 3.10108E+01 4.46897E-02-1.12124E-01 1.24537E+00 5.77573E-13 1.19196E-13
 -1       608 2.43354E+01-6.04004E+00 1.29160E-02-4.79474E+00-1.51407E-14-7.73291E-13
 -1       609 3.09845E+01 8.44503E-01-1.48175E-01-9.76175E-01 4.29046E-13-1.33199E-13
 -1       610 9.57708E+00-3.81853E+00 1.33677E-01-6.04289E+00 2.36665E-13 1.90348E-13
 -1       611 2.16003E+01 1.81248E+00-6.11411E-03-1.87971E+00-4.28140E-13 1.33669E-13
 -1       612 1.52484E+01 1.01616E+00-2.08912E-04 9.66361E-01 3.50913E-13-1.41626E-13
 -1       613 9.95335E+00-3.58698E+00 1.40085E-01 6.33082E+00-9.41330E-14 9.66519E-13
 -1       614 2.02428E+01 2.65914E+00-6.97580E-03-1.66000E+00-3.87762E-13-1.66793E-13
 -1       615 2.08892E+01 2.32423E+00-6.56016E-03-1.82770E+00-4.13371E-13-6.62098E-14
 -1       616 6.88643E+00-8.28151E-01 1.70019E-01 9.43200E-01-1.77774E-13-3.72952E-13
 -1       617 2.13342E+01-5.88921E+00 1.42598E-01-4.93367E+00-3.29278E-13 2.59024E-13
 -1       618 1.38253E+01-4.23394E+00 1.32872E-01-6.25843E+00-5.58165E-14 2.66287E-13
 -1       619 2.06662E+01 5.59268E-01 1.55898E-03-1.73534E+00-2.83671E-13 4.95388E-13
 -1       620 1.74261E+01 2.15101E+00-1.37837E-03-2.08549E-01-6.90706E-15-3.55096E-13
 -1       621 1.78970E+01 2.27110E+00-1.36023E-03-4.46494E-01-9.16344E-14-3.57705E-13
 -1       622 1.65404E+01 1.71491E+00-1.29702E-03 2.27307E-01 1.62100E-13-3.70977E-13
 -1       623 1.61026E+01 1.37601E+00-1.71015E-03 3.87154E-01 2.31452E-13-3.33937E-13
 -1       624 1.57229E+01 8.47111E-01 2.26939E-03 3.03252E-01 2.49039E-13-2.77356E-13
 -1       625 1.55920E+01-3.92432E+00 1.06633E-01-6.27461E+00 2.07175E-13-3.41224E-13
 -1       626 2.85576E+01 2.22545E+00-1.77209E-01-2.15694E+00 4.71789E-13-3.68816E-13
 -1       627 2.08855E+01 6.59968E-01 4.16782E-04-8.21380E-01-2.23323E-13-4.56107E-14
 -1       628 2.07271E+01 3.77655E-01 1.79546E-04-5.76969E-01-1.64567E-13-4.75662E-14
 -1       629 2.05721E+01 2.02135E-01 5.17506E-05-4.21654E-01-1.45690E-13-4.64440E-14
 -1       630 2.04306E+01 9.35615E-02 2.71439E-06-3.30234E-01-1.39537E-13-4.79679E-14
 -1       631 2.03037E+01 2.80902E-02-1.53727E-05-2.82027E-01-1.19118E-13-7.76980E-14
 -1       632 2.01895E+01-8.79012E-03-2.28093E-05-2.61411E-01-1.45034E-13-3.36840E-14
 -1       633 2.00851E+01-2.62420E-02-2.51095E-05-2.56955E-01-1.39802E-13 1.59625E-14
 -1       634 1.99882E+01-3.01733E-02-2.34675E-05-2.60375E-01-1.47564E-13-2.91132E-14
 -1       635 1.98969E+01-2.44119E-02-1.85888E-05-2.65626E-01-1.58628E-13-4.92339E-14
 -1       636 1.98100E+01-1.14015E-02-1.11297E-05-2.68202E-01-1.21417E-13-1.09793E-13
 -1       637 1.97267E+01 7.34969E-03-1.59764E-06-2.64610E-01 3.49859E-15-4.77064E-14
 -1       638 1.96470E+01 3.09432E-02 9.67734E-06-2.51988E-01-1.64504E-14 2.62526E-14
 -1       639 1.95709E+01 5.88254E-02 2.24503E-05-2.27839E-01-1.63928E-13 1.22611E-13
 -1       640 1.94992E+01 9.05425E-02 3.65608E-05-1.89850E-01-1.38916E-13 5.98854E-14
 -1       641 1.94331E+01 1.25493E-01 5.31961E-05-1.35803E-01-7.02349E-14 4.16760E-14
 -1       642 1.93749E+01 1.62699E-01 7.97727E-05-6.35925E-02-5.18065E-14 6.76806E-14
 -1       643 1.93275E+01 2.00679E-01 1.40440E-04 2.85855E-02 2.58536E-15 6.04259E-14
 -1       644 1.92956E+01 2.37676E-01 2.82610E-04 1.41750E-01 4.17276E-14 3.78773E-14
 -1       645 1.92851E+01 2.72748E-01 5.19292E-04 2.75159E-01 5.80794E-16-8.92167E-14
 -1       646 1.93014E+01 3.08779E-01 5.77980E-04 4.25035E-01 1.34135E-14-8.84263E-14
 -1       647 1.93440E+01 3.58432E-01-2.45244E-04 5.85390E-01-1.06273E-13-8.06179E-14
 -1       648 1.93980E+01 4.48459E-01-1.83079E-03 7.58882E-01-1.09913E-13-3.89887E-14
 -1       649 1.94425E+01 5.96667E-01-1.96199E-04 9.82229E-01 6.08163E-14 7.63003E-14
 -1       650 1.95030E+01 7.24977E-01 2.36492E-03 1.31363E+00 6.74922E-14 8.55181E-14
 -1       651 1.96647E+01 6.70120E-01 4.98501E-03 1.71993E+00 1.45874E-13-4.38950E-15
 -1       652 1.99758E+01 3.44809E-01 6.21367E-03 2.08168E+00 1.94112E-13 6.52202E-15
 -1       653 2.04534E+01-2.54303E-01-2.41487E-04 2.30856E+00 2.24903E-13-4.36120E-16
 -1       654 2.12021E+01-1.12643E+00-1.37221E-03 2.34430E+00 1.30796E-13-6.66969E-14
 -1       655 2.23890E+01-2.23954E+00 3.92500E-04 2.06825E+00 9.54448E-14 1.39079E-14
 -1       656 2.41298E+01-3.28317E+00 8.22720E-03 1.24577E+00 1.73586E-13 5.33469E-14
 -1       657 2.61644E+01-3.47615E+00-1.13702E-02-3.34173E-01-4.84868E-14 1.47376E-13
 -1       658 2.77642E+01 2.97494E+00-1.51772E-01-2.64979E+00-8.78207E-13 2.59723E-14
 -1       659 2.81457E+01-2.26252E-01-9.60351E-02 2.31645E+00 6.75633E-13 5.51538E-14
 -1       660 2.68361E+01-3.20658E+00-4.38021E-02 7.38314E-01 3.09929E-13-5.07068E-13
 -1       661 2.47773E+01-3.52573E+00 3.23904E-03-1.07968E+00-1.33029E-13-3.60167E-13
 -1       662 2.29324E+01-2.61001E+00 3.86919E-03-2.13363E+00 2.18572E-13-4.38494E-13
 -1       663 2.16625E+01-1.46381E+00 1.25886E-03-2.53560E+00 2.01299E-13-4.30245E-13
 -1       664 2.09118E+01-4.96167E-01 1.27544E-03-2.55821E+00 3.39058E-13-3.08673E-14
 -1       665 2.05099E+01 2.27369E-01 8.78122E-04-2.36559E+00 9.23086E-14 3.19238E-13
 -1       666 1.58188E+01 8.17898E-02 5.49488E-05-5.07160E-01 7.92513E-14-1.18421E-13
 -1       667 2.90449E+01-8.46571E-01-8.97221E-02-2.09366E+00-4.89369E-13 3.96166E-13
 -1       668 1.57624E+01 1.67104E-01 1.48210E-04-4.19960E-01 1.07594E-13-1.72270E-13
 -1       669 1.59849E+01-2.70965E-03-1.60282E-05-5.73614E-01 9.43563E-14-9.08666E-14
 -1       670 1.60854E+01-1.85215E-02-2.76708E-05-5.77917E-01 7.60504E-14-1.27651E-13
 -1       671 1.61929E+01-2.31867E-02-2.97567E-05-5.74283E-01 7.89132E-14-1.06763E-13
 -1       672 1.63053E+01-1.95859E-02-2.45751E-05-5.68531E-01 1.38757E-14-1.58347E-13
 -1       673 1.64214E+01-9.61321E-03-1.37821E-05-5.65077E-01 5.27641E-14-8.79540E-14
 -1       674 1.65405E+01 5.53565E-03 1.54391E-06-5.67388E-01-3.64439E-14-6.25952E-14
 -1       675 1.66627E+01 2.51318E-02 2.07837E-05-5.78316E-01-4.31284E-15-7.52364E-14
 -1       676 1.67885E+01 4.86876E-02 4.34290E-05-6.00312E-01 5.48183E-14-3.22637E-14
 -1       677 1.69187E+01 7.57077E-02 6.88865E-05-6.35526E-01 2.71649E-14 5.39594E-14
 -1       678 1.70546E+01 1.05395E-01 9.69592E-05-6.85763E-01 5.23260E-15 8.10674E-14
 -1       679 1.71980E+01 1.36295E-01 1.31164E-04-7.52286E-01-4.28922E-14-2.56492E-14
 -1       680 1.73514E+01 1.65904E-01 1.90268E-04-8.35392E-01-1.39869E-14 1.81495E-14
 -1       681 1.75176E+01 1.90373E-01 3.30314E-04-9.33744E-01 4.54806E-14-7.21184E-14
 -1       682 1.77002E+01 2.04499E-01 6.40304E-04-1.04363E+00-2.96286E-15-1.25015E-13
 -1       683 1.79024E+01 2.02027E-01 9.98323E-04-1.15878E+00 2.62585E-14-2.47454E-13
 -1       684 1.81274E+01 1.74806E-01-8.96300E-05-1.27197E+00-1.29911E-13-2.67071E-13
 -1       685 1.83830E+01 1.07775E-01-7.50956E-03-1.37799E+00-1.13553E-13-2.13678E-13
 -1       686 1.86989E+01-4.23357E-02-4.20082E-02-1.46075E+00-1.73507E-13-1.28246E-13
 -1       687 1.91218E+01-2.86656E-01-1.05208E-01-1.40990E+00-1.70468E-13-6.30399E-14
 -1       688 1.94980E+01-2.74694E-01-6.68011E-02-1.20831E+00-2.50112E-14-1.81452E-15
 -1       689 1.98467E+01-2.36120E-01-9.20102E-03-1.16466E+00 1.86318E-13 7.55303E-14
 -1       690 2.03545E+01-5.05713E-01 5.64567E-03-1.07694E+00 1.09439E-13 9.69906E-14
 -1       691 2.09394E+01-9.22490E-01-3.64763E-04-7.82411E-01-1.16046E-13 1.61302E-14
 -1       692 2.15724E+01-1.31666E+00-5.81248E-03-2.60608E-01-7.90724E-14 1.44592E-13
 -1       693 2.22012E+01-1.49842E+00-1.38861E-02 4.67305E-01 2.51114E-14 5.29871E-14
 -1       694 2.26923E+01-1.15516E+00-6.34467E-03 1.30557E+00-5.46282E-14 2.36715E-13
 -1       695 2.28561E+01 3.91948E-02 1.67661E-02 1.85229E+00-7.30969E-14 3.72358E-13
 -1       696 2.27455E+01 1.63259E+00-1.77773E-02 1.53900E+00-1.12219E-13 9.72417E-14
 -1       697 2.24972E+01 2.56655E+00-2.14549E-01 3.63193E-01-1.00392E-13 4.76997E-14
 -1       698 2.27640E+01 2.31621E+00-7.46425E-02-1.07998E+00 4.98733E-14 6.30381E-14
 -1       699 2.32262E+01 1.01194E+00-1.79281E-02-1.92174E+00 4.50571E-14-1.55308E-13
 -1       700 2.34961E+01-4.18607E-01-7.86199E-03-1.85397E+00-3.75620E-14-2.04960E-13
 -1       701 2.33797E+01-1.33750E+00-2.69651E-03-1.14121E+00 2.50213E-14-3.54843E-13
 -1       702 2.29123E+01-1.57620E+00-8.75167E-04-2.46945E-01-6.43993E-14-2.37662E-13
 -1       703 2.22924E+01-1.34318E+00-3.94372E-04 5.12289E-01-1.07714E-14-4.10059E-13
 -1       704 2.16794E+01-8.85874E-01-7.77814E-04 1.01460E+00 9.38289E-14-2.78648E-13
 -1       705 2.11558E+01-3.75597E-01-1.42556E-04 1.24857E+00-7.62708E-14-1.82225E-13
 -1       706 2.07933E+01 1.89571E-02 4.19594E-04 1.34479E+00-2.63150E-13-1.83642E-13
 -1       707 2.28963E+01-5.18763E+00 1.88156E-02 4.48023E+00-2.74669E-13-4.32651E-13
 -1       708 1.83648E+01 1.54195E+00-8.28042E-04 1.24337E+00-1.01717E-13-3.05425E-13
 -1       709 9.91431E+00-1.38141E+00 1.44473E-01 4.23831E+00 4.29899E-14 8.25756E-13
 -1       710 1.97682E+01 6.05778E-01-1.03039E-03 2.07872E+00-4.47843E-13 2.86681E-13
 -1       711 1.79740E+01 1.82027E+00-3.65156E-04 2.84315E-01 2.38806E-14-2.95953E-13
 -1       712 1.90438E+01 1.08167E+00-9.07985E-04 1.86821E+00-3.53548E-13 1.89585E-13
 -1       713 1.80279E+01 1.80998E+00-3.24070E-04-7.62060E-01 1.66814E-13-4.00742E-13
 -1       714 1.85101E+01 1.52848E+00-1.05159E-03-1.65739E+00 2.81444E-13-5.05153E-13
 -1       715 1.92574E+01 1.09865E+00-1.22366E-03-2.17559E+00 3.23948E-13 2.12932E-13
 -1       716 8.25697E+00-2.98580E-01 1.63608E-01-1.29808E-01 5.97247E-13 1.45301E-12
 -1       717 9.64699E+00-1.58044E+00 1.45665E-01-4.16731E+00 4.21482E-13 3.35093E-13
 -1       718 2.70255E+01-4.53740E+00-2.34186E-02 1.51676E+00-7.93679E-14-2.51181E-13
 -1       719 2.86355E+01 1.49009E+00-1.18319E-01 2.60476E+00 3.51073E-13-8.61672E-14
 -1       720 1.57287E+01 3.02268E-01 4.47595E-04-2.72719E-01 1.70199E-13-2.01391E-13
 -1       721 1.58946E+01 2.85551E-02 8.40666E-06-5.53562E-01 8.43675E-14-9.69868E-14
 -1       722 2.10156E+01 1.11307E+00-4.07954E-04-1.17941E+00-3.12440E-13-1.34034E-15
 -1       723 2.83788E+01-1.94385E+00-9.43440E-02-9.61399E-01 1.36136E-13-3.25694E-13
 -1       724 1.55805E+01-3.00963E+00 1.09515E-01 5.89344E+00-2.01171E-13 2.41553E-13
 -1       725 1.57171E+01 5.14266E-01 9.14910E-04-4.17126E-02 1.86352E-13-2.42156E-13
 -1       726 1.69764E+01 1.96775E+00-1.38839E-03 1.97947E-02 7.72624E-14-3.67052E-13
 -1       727 1.94781E+01 2.22126E+00-1.59854E-03-1.13688E+00-2.64934E-13-2.25824E-13
 -1       728 2.74856E+01-4.42797E+00-4.65660E-02 7.00289E-01-1.49790E-13 1.50581E-13
 -1       729 2.26818E+01-5.69956E+00 5.80799E-02-4.86516E+00-3.46556E-13-6.39715E-13
 -1       730 2.03454E+01 6.21337E-01 1.02382E-03-2.15907E+00-2.51402E-14 3.84320E-13
 -1       731 1.11258E+01-2.30623E+00 1.34408E-01 5.16315E+00-1.82156E-13-5.54695E-13
 -1       732 2.56680E+01-4.63376E+00 3.82821E-01-1.03259E+00-1.67276E-13 1.42983E-13
 -1       733 2.75618E+01-1.26539E+00 1.23147E+00 2.43555E+00-2.92710E-13-2.33702E-14
 -1       734 9.35474E+00-1.61078E+00 1.46355E-01-3.97217E+00-4.55823E-13-1.32526E-13
 -1       735 2.75063E+01 1.61592E+00-3.73173E-01 2.70867E+00-1.09412E-13 1.82965E-13
 -1       736 1.65432E+01-4.17929E+00 9.15772E-02 6.04680E+00 4.76355E-14-5.54546E-13
 -1       737 2.86445E+01-2.64186E+00-4.91887E-02 9.20367E-01 4.75092E-13-1.95243E-13
 -1       738 2.66751E+01-5.14551E+00-9.26574E-03-2.12864E+00 1.04989E-13-1.77063E-13
 -1       739 2.77153E+01 5.06915E+00-4.77954E-01 7.43296E-01 2.39586E-13-6.21864E-14
 -1       740 2.27729E+01-5.42652E+00 3.38472E-02 4.28352E+00-2.09728E-14-3.77851E-13
 -1       741 2.10016E+01 1.64179E+00 8.60384E-04-1.49693E+00-3.78892E-13-3.07274E-14
 -1       742 2.77433E+01 5.13923E+00-3.07884E-01-1.23577E+00 2.49939E-13-2.47434E-13
 -1       743 2.00890E+01 2.02322E+00-6.88166E-04-1.31906E+00-3.28394E-13-1.65009E-13
 -1       744 1.83924E+01 2.32747E+00-1.39592E-03-6.85822E-01-1.48897E-13-3.49307E-13
 -1       745 2.77617E+01 3.48649E+00-1.62929E-01 2.27374E+00-3.32047E-13-4.77111E-13
 -1       746 2.05852E+01 1.46628E-01 8.48881E-04 1.71763E+00-3.79097E-13-5.90569E-13
 -1       747 2.33816E+01-5.11847E+00 1.54998E-01-2.49623E+00-2.43049E-13-9.71931E-14
 -1       748 1.97792E+01-3.60081E+00 3.49774E-02 4.93083E+00-3.43786E-13-5.11561E-13
 -1       749 1.00775E+01-7.69457E-01 1.20992E-01 3.15562E+00-2.48362E-13-3.38500E-13
 -1       750 1.85492E+01-4.84643E+00 7.81662E-02-5.31400E+00-1.89192E-13 3.13100E-13
 -1       751 1.28956E+01-2.36133E+00 1.00289E-01-4.99176E+00-1.67951E-13 1.30489E-13
 -1       752 8.96405E+00-3.06773E-01 1.27938E-01-1.37963E+00-5.19744E-13 1.00683E-13
 -1       753 2.02598E+01 3.26029E-01-2.83927E-04 1.96947E+00-3.40925E-13 1.58280E-13
 -1       754 1.89163E+01 2.31473E+00-1.48921E-03-9.18882E-01-2.05493E-13-2.69996E-13
 -1       755 1.98342E+01 6.33150E-01-3.12389E-05-2.39457E+00 3.26012E-13 3.17538E-13
 -1       756 2.53867E+01 3.47608E+00-7.06226E-01 9.78416E-01 1.19238E-13 1.62370E-13
 -1       757 1.64386E+01 1.09606E+00-2.75141E-04 4.01416E-02 1.67890E-13-2.84363E-13
 -1       758 2.05360E+01 1.86435E+00 1.38468E-05-1.42946E+00-3.66090E-13-1.25508E-13
 -1       759 2.46469E+01-4.69652E+00 9.91147E-03-2.53121E+00-2.78323E-13-1.93411E-13
 -1       760 2.48984E+01 4.10491E+00-3.44708E-01-6.54791E-01 1.44936E-14-2.57114E-13
 -1       761 2.03559E+01 4.13687E-01-2.84439E-05-6.04534E-01-1.47063E-13-1.01188E-13
 -1       762 2.02429E+01 2.23144E-01-1.45379E-05-4.81664E-01-1.37889E-13-1.04425E-13
 -1       763 2.01271E+01 1.01643E-01-1.49047E-05-4.07163E-01-1.52889E-13-1.06232E-13
 -1       764 2.00146E+01 2.77556E-02-9.91305E-06-3.66743E-01-8.69205E-14-8.80818E-14
 -1       765 1.99076E+01-1.30198E-02-7.76333E-06-3.48478E-01-9.96294E-14-1.19462E-13
 -1       766 1.98064E+01-3.04792E-02-6.74921E-06-3.43063E-01-1.00524E-13-1.26461E-13
 -1       767 1.97105E+01-3.12180E-02-5.67918E-06-3.43414E-01-1.18922E-13 1.42650E-15
 -1       768 1.96189E+01-1.96097E-02-4.12577E-06-3.44147E-01-1.19919E-13 1.44334E-13
 -1       769 1.95307E+01 1.53964E-03-2.04721E-06-3.41093E-01-2.95070E-14 1.21971E-13
 -1       770 1.94451E+01 3.05154E-02 4.30574E-07-3.30882E-01-6.97121E-14-1.92594E-15
 -1       771 1.93610E+01 6.63161E-02 3.32449E-06-3.10617E-01-6.86401E-14-1.50110E-15
 -1       772 1.92780E+01 1.08338E-01 6.88884E-06-2.77628E-01-1.65842E-13 5.72508E-14
 -1       773 1.91953E+01 1.56072E-01 1.26505E-05-2.29263E-01-1.24509E-13 1.12790E-13
 -1       774 1.91130E+01 2.08774E-01 2.95768E-05-1.62750E-01-6.35701E-14 4.53449E-14
 -1       775 1.90316E+01 2.65139E-01 8.93103E-05-7.51510E-02 8.43653E-15 7.79529E-14
 -1       776 1.89534E+01 3.23020E-01 2.68808E-04 3.64577E-02 1.27685E-14 1.05066E-14
 -1       777 1.88828E+01 3.79362E-01 6.53553E-04 1.74236E-01 9.41110E-14 4.85626E-14
 -1       778 1.88276E+01 4.31028E-01 9.75518E-04 3.37390E-01 4.27210E-14 1.49067E-13
 -1       779 1.87983E+01 4.79014E-01-4.48895E-04 5.17502E-01-7.94422E-14 1.92034E-13
 -1       780 1.87976E+01 5.43478E-01-6.41581E-03 6.94668E-01-2.45114E-13 1.34617E-13
 -1       781 1.87930E+01 6.89745E-01-1.25758E-02 8.62160E-01-2.45576E-14-2.20230E-14
 -1       782 1.87255E+01 9.78768E-01 5.24477E-03 1.11964E+00 1.76506E-13-7.84962E-17
 -1       783 1.86850E+01 1.15235E+00 3.10142E-02 1.60273E+00 6.95275E-14 1.59690E-14
 -1       784 1.88211E+01 9.16569E-01 4.17686E-02 2.12846E+00 1.25948E-13 8.28591E-15
 -1       785 1.90222E+01 3.43895E-01 9.59345E-03 2.53875E+00 3.11893E-13 9.91220E-14
 -1       786 1.93484E+01-4.82844E-01 3.01294E-04 2.90062E+00 1.12164E-13 2.24111E-13
 -1       787 2.00491E+01-1.67345E+00 7.71515E-04 3.22967E+00 7.57536E-14-5.52657E-14
 -1       788 2.14541E+01-3.21257E+00 2.66005E-02 3.37815E+00 2.08800E-13 2.74654E-14
 -1       789 1.52548E+01-2.15110E+00 7.19969E-02 4.90986E+00 5.93969E-14-3.55833E-13
 -1       790 2.05100E+01 1.13864E+00-4.93082E-04-1.04957E+00-2.61774E-13-9.96477E-14
 -1       791 2.21936E+01-3.32646E+00 1.65524E-02-3.27226E+00 2.04530E-13-3.63712E-13
 -1       792 2.07727E+01-1.79834E+00 5.09309E-03-3.25901E+00 2.80531E-13-1.40392E-13
 -1       793 2.00837E+01-5.83815E-01-6.97584E-04-2.96186E+00 4.35208E-13 1.33772E-13
 -1       794 1.98922E+01 8.17415E-02-1.28905E-03-2.68210E+00 3.32710E-13 1.03096E-13
 -1       795 1.65745E+01-2.32562E-02-9.15543E-06-6.53750E-01 5.12598E-14-5.06702E-14
 -1       796 1.65060E+01-5.82599E-03-8.99342E-06-6.48589E-01 1.06295E-13-7.18352E-14
 -1       797 1.67257E+01-1.72067E-02-4.97886E-06-6.50686E-01-1.17779E-15 5.05321E-16
 -1       798 1.68063E+01 3.07410E-04-1.71341E-06-6.52236E-01-3.56561E-16-3.70502E-14
 -1       799 1.68891E+01 2.51929E-02 2.32380E-06-6.60698E-01-2.16985E-15-7.80695E-14
 -1       800 1.69734E+01 5.65143E-02 7.44799E-06-6.78968E-01 2.19568E-14-9.64122E-14
 -1       801 1.70587E+01 9.35574E-02 1.34874E-05-7.09607E-01-4.10701E-14-1.20149E-14
 -1       802 1.71448E+01 1.35455E-01 2.13782E-05-7.54914E-01-2.22347E-14-3.35770E-15
 -1       803 1.72316E+01 1.80726E-01 3.54057E-05-8.16895E-01 1.19277E-14-1.05147E-14
 -1       804 1.73200E+01 2.26690E-01 7.52965E-05-8.97033E-01-9.31922E-14-1.91449E-14
 -1       805 1.74119E+01 2.68838E-01 2.02389E-04-9.95745E-01 3.41126E-14 1.10694E-13
 -1       806 1.75108E+01 3.00435E-01 5.28018E-04-1.11140E+00 2.63582E-14 1.28590E-13
 -1       807 1.76211E+01 3.12973E-01 9.75864E-04-1.23902E+00 3.31573E-14 1.05436E-13
 -1       808 1.77461E+01 2.98364E-01-6.77189E-05-1.36999E+00 2.11372E-14 1.66308E-13
 -1       809 1.78809E+01 2.50430E-01-1.02490E-02-1.49794E+00-1.73905E-13 5.43161E-14
 -1       810 1.80141E+01 1.55924E-01-4.86009E-02-1.64415E+00-1.92734E-13 1.10805E-13
 -1       811 1.82208E+01-1.37863E-01-1.90255E-01-1.86446E+00-2.11244E-13 4.91863E-14
 -1       812 1.87968E+01-7.47416E-01-3.91606E-01-1.70032E+00-2.47025E-14-5.21388E-14
 -1       813 1.91724E+01-1.85672E-01-2.96087E-02-1.50547E+00-7.45896E-14-1.11924E-14
 -1       814 1.96844E+01-3.75545E-01 5.08403E-02-1.62723E+00 2.10457E-13 4.42615E-14
 -1       815 2.02819E+01-9.27713E-01 1.50873E-02-1.51304E+00-3.39177E-14 3.31746E-14
 -1       816 2.10297E+01-1.56173E+00-3.31362E-03-1.19378E+00-1.91388E-13-4.22993E-14
 -1       817 2.19267E+01-2.08683E+00-1.47067E-02-6.08785E-01-9.75799E-14 1.59361E-13
 -1       818 2.28409E+01-2.24252E+00-5.39886E-02 2.23988E-01-7.30735E-14 3.52567E-13
 -1       819 2.38422E+01-1.25442E+00 2.28013E-01 1.25137E+00-1.50498E-13 2.13314E-13
 -1       820 2.51017E+01 3.23868E-02-3.78736E-02-2.13891E+00 1.16764E-13-4.39853E-13
 -1       821 2.48038E+01-1.79242E+00-1.39328E-02-1.23400E+00-9.29515E-14-5.11230E-13
 -1       822 2.39602E+01-2.40103E+00-1.76027E-04-5.97123E-02-6.06110E-14-3.96669E-13
 -1       823 2.29192E+01-2.16639E+00 2.11077E-03 8.74503E-01 4.48257E-14-4.02445E-13
 -1       824 2.19905E+01-1.52015E+00 4.95136E-04 1.42579E+00 2.01877E-13-4.79341E-13
 -1       825 2.12776E+01-7.86149E-01-5.20775E-04 1.65560E+00-6.03900E-14-6.01548E-13
 -1       826 2.08832E+01-3.20177E-01-1.51979E-03 1.73992E+00-4.22566E-13-5.62617E-13
 -1       827 2.31572E+01-2.91047E+00 3.21286E-01 9.38402E-01-1.16344E-13-2.22114E-13
 -1       828 1.68537E+01 1.47664E+00 2.14049E-03-2.51473E-01 9.76306E-14-2.89796E-13
 -1       829 2.68489E+01-1.14507E-01-8.73875E-02-2.08841E+00 2.51941E-13-4.28940E-13
 -1       830 1.71612E+01 1.26311E+00-1.56179E-04 1.10220E+00-1.11409E-13-1.32377E-13
 -1       831 1.12191E+01 3.49701E-02 8.45048E-02 2.01436E+00-8.37429E-14 4.29930E-13
 -1       832 1.10478E+01-1.43555E-01 8.24668E-02-2.33562E+00 7.95074E-13 7.55080E-13
 -1       833 1.63023E+01 3.59670E-01-3.66454E-05-3.84869E-01 9.03426E-14-1.56760E-13
 -1       834 1.73363E+01 1.25814E+00-5.24615E-04-1.54475E+00 1.43613E-13-4.20301E-14
 -1       835 1.83858E+01 7.84777E-01-5.18739E-04-2.38537E+00 3.37712E-13-4.32511E-14
 -1       836 1.44238E+01-1.65142E+00 8.27175E-02-4.74543E+00 3.48241E-13 1.71484E-13
 -1       837 1.66481E+01-2.58517E-02-7.44082E-06-6.52615E-01 6.83262E-14 1.42727E-14
 -1       838 1.63427E+01 2.00700E-01 6.13047E-06-5.11862E-01 5.50429E-14-1.26275E-13
 -1       839 2.02607E+01-4.14224E+00 4.85706E-02-4.96288E+00-1.03546E-14-5.07878E-13
 -1       840 2.04526E+01 7.06505E-01 1.11019E-04-7.90822E-01-2.09548E-13-9.61725E-14
 -1       841 2.64770E+01-3.05813E+00-2.89944E-02-3.64920E-01-1.24591E-13-3.29852E-13
 -1       842 1.43114E+01-1.12760E+00 6.87708E-02 4.29116E+00-2.37328E-13 5.04628E-13
 -1       843 2.72844E+01 3.72732E-01 2.03707E+00 5.11175E-01-1.55542E-13 2.70062E-14
 -1       844 2.58924E+01 2.74638E+00-1.44408E-01-2.11617E+00 3.69260E-13-4.80484E-13
 -1       845 1.61102E+01 7.89745E-01 1.94908E-04 1.57382E-02 1.74634E-13-2.86067E-13
 -1       846 2.47480E+01-4.40127E+00-1.15925E-03 2.16789E+00-4.40427E-13-1.38709E-13
 -1       847 1.78442E+01 1.68432E+00-2.95280E-04-4.25495E-01-5.15039E-14-2.86237E-13
 -1       848 2.01219E+01-3.68305E+00 3.60825E-02 4.44377E+00 2.77752E-13-2.40159E-13
 -1       849 2.39341E+01-4.40802E+00 1.68853E-02 2.46678E+00 1.79101E-13 1.36061E-13
 -1       850 1.83268E+01 1.75539E+00-2.91790E-04-6.07844E-01-1.08690E-13-3.02770E-13
 -1       851 1.69132E+01 1.35409E+00-1.75725E-04-8.58152E-02 9.27589E-14-3.10303E-13
 -1       852 1.91523E+01 4.06667E-01 7.99804E-04-2.63724E+00 3.30621E-13 1.68402E-13
 -1       853 1.63893E+01 9.68375E-02-3.19207E-06-5.88380E-01 6.95024E-14-1.46656E-13
 -1       854 1.64439E+01 3.16837E-02-6.46825E-06-6.29930E-01 6.15537E-14-1.33694E-13
 -1       855 2.49102E+01 4.52066E-01 2.72996E-01 1.91962E+00 5.30270E-14 2.59487E-13
 -1       856 2.33791E+01-3.83334E+00-5.83372E-02-4.19213E-01-1.55959E-13-1.54314E-13
 -1       857 1.92680E+01 1.16803E-01 1.03060E-04 2.47712E+00-4.28047E-13 4.14530E-13
 -1       858 1.22858E+01 5.77114E-01 5.10241E-02-1.16967E-01-1.91663E-13 5.83983E-13
 -1       859 1.81013E+01 7.26715E-01-6.85720E-05 2.08171E+00-2.77919E-13 2.44561E-13
 -1       860 2.12150E+01-4.69659E+00-1.45979E-03-3.49670E+00-1.85983E-13-1.66372E-13
 -1       861 2.23793E+01-3.76537E+00 1.28908E-02 3.40781E+00-1.95504E-13-2.70166E-13
 -1       862 1.78108E+01-1.96856E+00 2.35599E-02 4.43314E+00-3.47774E-13-3.23083E-13
 -1       863 1.37491E+01-8.49770E-01 4.48034E-02 3.82830E+00-2.27770E-13-2.50569E-13
 -1       864 2.01265E+01-2.43417E-01 8.84079E-04 2.38885E+00-5.19388E-13 2.95031E-14
 -1       865 1.66084E+01-3.24559E+00 4.99789E-02-4.94000E+00 7.55767E-14 3.97342E-13
 -1       866 1.02852E+01 1.16374E-01 8.56897E-02 9.76775E-01-4.26319E-13-1.20896E-13
 -1       867 1.73763E+01 1.55014E+00-3.02341E-04-2.47487E-01 2.76219E-14-2.97894E-13
 -1       868 1.62058E+01 5.44082E-01 1.18183E-04-2.15547E-01 1.11640E-13-2.45937E-13
 -1       869 1.21601E+01-6.09432E-01 7.71770E-02-3.14549E+00-3.73854E-13-3.19998E-13
 -1       870 1.93504E+01 1.69006E+00-4.99958E-04-9.38858E-01-2.05444E-13-2.16694E-13
 -1       871 1.98957E+01 1.53771E+00-8.30679E-04-1.05619E+00-2.60240E-13-1.32028E-13
 -1       872 2.00359E+01 6.93860E-01-2.98453E-06-7.47763E-01-1.84575E-13-1.08012E-13
 -1       873 1.47040E+01-1.45242E+00 4.13682E-02-3.98488E+00-4.03280E-13-1.53143E-13
 -1       874 1.82687E+01-2.15635E+00 2.31337E-02-4.42287E+00 3.77129E-13-1.46114E-13
 -1       875 2.46774E+01-3.12573E+00-9.26464E-03 3.58924E-01-2.72531E-13-4.23387E-13
 -1       876 1.98945E+01 2.18175E-01-2.18614E-05-5.28959E-01-1.39799E-13-8.39794E-14
 -1       877 1.98001E+01 9.51514E-02-9.06716E-06-4.74691E-01-1.02076E-13-7.42004E-14
 -1       878 1.97022E+01 2.09769E-02-3.83090E-06-4.44721E-01-1.40480E-13-1.03735E-13
 -1       879 1.96048E+01-1.80173E-02-2.33587E-06-4.30573E-01-1.14255E-13-8.51919E-14
 -1       880 1.95098E+01-3.15121E-02-2.03149E-06-4.25247E-01-1.39721E-14-7.28057E-14
 -1       881 1.94177E+01-2.62167E-02-1.97661E-06-4.23200E-01-7.35762E-14-6.55958E-14
 -1       882 1.93281E+01-6.62721E-03-1.62568E-06-4.20066E-01-6.95402E-14-2.62123E-14
 -1       883 1.92401E+01 2.44045E-02-1.03102E-06-4.12330E-01-9.50092E-14 1.28963E-14
 -1       884 1.91521E+01 6.51830E-02-7.22282E-07-3.97002E-01-6.51972E-14 2.80247E-14
 -1       885 1.90626E+01 1.14771E-01-7.85458E-07-3.71381E-01-9.91831E-14 2.50095E-14
 -1       886 1.89696E+01 1.72685E-01-1.54601E-07-3.32810E-01-8.10099E-14 1.44088E-13
 -1       887 1.88710E+01 2.38543E-01 9.64982E-06-2.78419E-01-1.73901E-13 2.41068E-13
 -1       888 1.87649E+01 3.11672E-01 5.97885E-05-2.04909E-01 2.38097E-14 2.37043E-13
 -1       889 1.86497E+01 3.90722E-01 2.39920E-04-1.08334E-01-8.24772E-14 1.36185E-13
 -1       890 1.85253E+01 4.73089E-01 7.00976E-04 1.60644E-02 1.07375E-13 8.03326E-14
 -1       891 1.83949E+01 5.53903E-01 1.29028E-03 1.73414E-01-6.92523E-15 8.38894E-14
 -1       892 1.82695E+01 6.24581E-01-2.10315E-04 3.66342E-01 8.98691E-14 1.21675E-14
 -1       893 1.81747E+01 6.74442E-01-1.19414E-02 5.83770E-01-1.88483E-13-7.76402E-14
 -1       894 1.81430E+01 7.25846E-01-4.16795E-02 7.72614E-01-1.33365E-13 5.51642E-16
 -1       895 1.81192E+01 9.61545E-01-5.30588E-02 8.77366E-01 1.39298E-14 1.37691E-13
 -1       896 1.79044E+01 1.65824E+00 9.77147E-02 1.25837E+00 7.71865E-14-3.08573E-14
 -1       897 1.79882E+01 1.62451E+00 2.03407E-01 1.98450E+00 1.04382E-13-4.67508E-14
 -1       898 1.79839E+01 1.00432E+00 6.33972E-02 2.40381E+00 2.88464E-13 3.69288E-14
 -1       899 1.77901E+01 3.37867E-01 1.15090E-02 2.78905E+00 2.26200E-13-7.55549E-14
 -1       900 1.76597E+01-5.48894E-01 4.14795E-03 3.36085E+00 4.13961E-14-6.69300E-15
 -1       901 1.68267E+01 3.79880E-01 4.47870E-05-4.92288E-01 3.53419E-14-2.32992E-13
 -1       902 1.81468E+01-6.48334E-01 7.07712E-03-3.46887E+00 7.31090E-13-6.45321E-14
 -1       903 1.69725E+01-1.06339E-02-2.89924E-06-6.98270E-01 4.81515E-14-1.10487E-13
 -1       904 1.71466E+01 1.96039E-02 1.57817E-06-7.11324E-01 2.19680E-14-4.12177E-14
 -1       905 1.71002E+01-7.39009E-03 2.54693E-06-7.05388E-01 1.76969E-14-3.61202E-14
 -1       906 1.72383E+01 1.00645E-01-3.75818E-08-7.48417E-01-6.60850E-14-4.70271E-14
 -1       907 1.72805E+01 1.52734E-01 1.02490E-06-7.84812E-01-5.75062E-14-1.71776E-14
 -1       908 1.73183E+01 2.10969E-01 8.09912E-06-8.36369E-01-3.42788E-15-2.07746E-14
 -1       909 1.73506E+01 2.73089E-01 3.77561E-05-9.05476E-01-6.19540E-14 1.72711E-14
 -1       910 1.73773E+01 3.34905E-01 1.48803E-04-9.94305E-01-6.56656E-14 2.68050E-14
 -1       911 1.74005E+01 3.89276E-01 4.68267E-04-1.10417E+00-3.50027E-15 1.02182E-13
 -1       912 1.74252E+01 4.25256E-01 9.91558E-04-1.23390E+00 8.68866E-14 9.97929E-14
 -1       913 1.74597E+01 4.28713E-01 2.02708E-04-1.37630E+00-2.63283E-14 1.44185E-13
 -1       914 1.75071E+01 3.88463E-01-1.03368E-02-1.51343E+00-5.74836E-14 1.59891E-13
 -1       915 1.75349E+01 3.11083E-01-5.94124E-02-1.62084E+00-1.97313E-13 6.03580E-14
 -1       916 1.73982E+01 2.67652E-01-1.96511E-01-1.75117E+00-1.97791E-13-2.30510E-14
 -1       917 1.66911E+01-9.74401E-02-7.45505E-01-2.59461E+00-1.71307E-13-1.08358E-13
 -1       918 1.94763E+01-1.13357E+00-2.57914E-02-2.20930E+00-8.27949E-14 9.53126E-14
 -1       919 1.94596E+01-9.65270E-02 3.63045E-01-2.02729E+00 6.85528E-14-3.83998E-14
 -1       920 1.95606E+01-6.75218E-01 9.43920E-02-2.04129E+00 1.60573E-13 1.85199E-14
 -1       921 2.00774E+01-1.41752E+00 1.22900E-02-2.02921E+00-2.32496E-13 7.44890E-14
 -1       922 2.10098E+01-2.30133E+00-3.46013E-02-1.77755E+00-1.61351E-13 1.04063E-13
 -1       923 2.23043E+01-3.03329E+00-1.13265E-01-1.14157E+00-1.09695E-13-1.79835E-13
 -1       924 2.21605E+01-2.25277E+00-2.95542E-04 2.09954E+00 1.69584E-13-3.24799E-14
 -1       925 2.11997E+01-1.24652E+00 1.85378E-03 2.22062E+00-6.24033E-14-3.27959E-14
 -1       926 1.70251E+01 4.70333E-01 1.07531E-02-2.54815E+00 5.01037E-13 2.01675E-14
 -1       927 1.77733E+01-2.29977E+00 4.51923E-02 4.49049E+00 2.37711E-13-1.78049E-13
 -1       928 1.40709E+01-1.21376E-01 4.40561E-02-3.10744E+00 3.62536E-13 4.60011E-13
 -1       929 1.55307E+01 1.08073E+00 7.40272E-03 6.69275E-01-2.58281E-13 2.78757E-13
 -1       930 1.88279E+01 1.75950E+00-3.08094E-04-7.83474E-01-1.54409E-13-2.66182E-13
 -1       931 1.42581E+01 2.45756E-01 4.70308E-02 2.40708E+00-4.47453E-13 5.01542E-13
 -1       932 1.18115E+01 2.75412E-01 6.07278E-02-1.26211E+00-1.50627E-13-4.84682E-15
 -1       933 2.06163E+01-3.34851E-01 3.84875E-05 2.09829E+00-1.87121E-13 2.36061E-13
 -1       934 1.71931E+01 5.59630E-02 8.57394E-07-7.24761E-01-1.97334E-14-4.77735E-14
 -1       935 1.99983E+01 1.05750E+00 2.56722E-04-8.95481E-01-2.14147E-13-9.50472E-14
 -1       936 1.56461E+01 1.09306E+00 1.28054E-02-1.16352E+00 2.36713E-13-1.32717E-13
 -1       937 1.99775E+01 4.08901E-01-4.23714E-05-6.17392E-01-1.31055E-13-9.47244E-14
 -1       938 1.67724E+01 8.61109E-01-6.42800E-05-2.25518E-01 8.24751E-14-2.54961E-13
 -1       939 1.82198E+01 1.27054E+00-4.94791E-05-5.72013E-01-6.99919E-14-2.43839E-13
 -1       940 1.63611E+01-4.71012E-01 2.04882E-02-3.49921E+00 5.79141E-13 1.32467E-13
 -1       941 1.68658E+01 2.10086E-01-2.55600E-05-5.90722E-01 3.69619E-14-1.82081E-13
 -1       942 1.69355E+01 2.78862E-02-5.30798E-06-6.83389E-01 8.25345E-14-1.18649E-13
 -1       943 1.70124E+01-2.58025E-02 2.84551E-06-7.03079E-01 6.82770E-15-9.44643E-14
 -1       944 1.70551E+01-2.34009E-02 3.68049E-06-7.03884E-01 5.41159E-14-5.15412E-14
 -1       945 2.58545E+01-1.75622E+00-2.37350E-02-1.34416E+00-8.34202E-14-6.16242E-13
 -1       946 1.93939E+01-3.57203E+00 8.20536E-04-3.87611E+00 1.75453E-13-1.47440E-13
 -1       947 1.66241E+01 4.76735E-01 1.11513E-03 2.23874E+00-7.11667E-13 1.33564E-13
 -1       948 2.38191E+01-3.18691E+00-3.93331E-05 1.30636E+00-4.21904E-14-8.66833E-14
 -1       949 1.67720E+01 6.30134E-01-1.86255E-04-3.40650E-01 3.41991E-14-2.40186E-13
 -1       950 2.04452E+01-2.61899E+00 1.34382E-02 3.78995E+00-2.40774E-13-2.91818E-13
 -1       951 2.00009E+01-9.82621E-01-2.78460E-03 2.89273E+00 6.73321E-15 1.55724E-13
 -1       952 1.30141E+01 1.63385E-01 4.36684E-02 2.29161E+00-2.15361E-13-3.59312E-13
 -1       953 1.91968E+01 1.25679E+00 2.64669E-04-8.01310E-01-1.54717E-13-1.81948E-13
 -1       954 1.83626E+01-3.37715E-01-7.09774E-04 2.97447E+00-5.66543E-13 2.91127E-13
 -1       955 1.41157E+01 1.69350E-02 2.88366E-02-2.39656E+00-6.29262E-14-8.88586E-14
 -1       956 1.65003E+01 6.99783E-01 7.09023E-05-2.14532E-01 8.78709E-14-2.70093E-13
 -1       957 1.77431E+01 1.18675E+00-1.50136E-04-4.44132E-01-1.09933E-14-2.38870E-13
 -1       958 1.95958E+01 1.18118E+00 8.19306E-04-8.63020E-01-1.80623E-13-1.37372E-13
 -1       959 1.71832E+01-2.04390E+00 1.54988E-02-3.85072E+00-4.06803E-14 9.31555E-14
 -1       960 1.96331E+01 6.38175E-01 2.17429E-04-7.10546E-01-1.52768E-13-8.73002E-14
 -1       961 1.94586E+01 7.74337E-02-3.25411E-06-5.35481E-01-8.31798E-14-9.82785E-14
 -1       962 1.93739E+01 9.93828E-03-1.52096E-06-5.16037E-01-9.66171E-14-3.30996E-14
 -1       963 1.92869E+01-2.23150E-02-2.95451E-06-5.06373E-01-1.07311E-13 6.07588E-15
 -1       964 1.92000E+01-2.84402E-02-3.61565E-06-5.01721E-01-7.43953E-14-8.18941E-14
 -1       965 1.91139E+01-1.48174E-02-3.67949E-06-4.98165E-01-5.18917E-14-7.81399E-14
 -1       966 1.90282E+01 1.42767E-02-3.33954E-06-4.92539E-01-2.53681E-14-3.98979E-14
 -1       967 1.89415E+01 5.62657E-02-1.08505E-06-4.82154E-01-9.04442E-15 5.06947E-14
 -1       968 1.88517E+01 1.09644E-01-2.78825E-06-4.64605E-01-2.51175E-14 1.41440E-13
 -1       969 1.87560E+01 1.73701E-01-1.15604E-05-4.37626E-01-2.58947E-14 1.98733E-13
 -1       970 1.86510E+01 2.48300E-01-1.40577E-05-3.98826E-01-9.49223E-14 1.64437E-13
 -1       971 1.85327E+01 3.33373E-01 1.21148E-05-3.45394E-01-5.05529E-14 1.64451E-13
 -1       972 1.83963E+01 4.28671E-01 1.41315E-04-2.73878E-01-6.19806E-14 1.86255E-13
 -1       973 1.82364E+01 5.33489E-01 5.29607E-04-1.79553E-01-1.08362E-14 2.43565E-13
 -1       974 1.80472E+01 6.45846E-01 1.11108E-03-5.54049E-02 6.05517E-14 2.11795E-13
 -1       975 1.78248E+01 7.60129E-01-4.74236E-04 1.09516E-01-4.68568E-14 1.54067E-13
 -1       976 1.75732E+01 8.60059E-01-1.65165E-02 3.31785E-01-8.41630E-14 1.17532E-13
 -1       977 1.73291E+01 9.02814E-01-8.32832E-02 6.26420E-01-7.48360E-14 2.26083E-13
 -1       978 1.72682E+01 8.63167E-01-2.16159E-01 9.10784E-01 1.14152E-13 2.79847E-13
 -1       979 1.73332E+01 1.48719E+00-1.16315E-01 8.15196E-01-6.26305E-14 1.89973E-13
 -1       980 1.76847E+01 2.62964E+00 7.86587E-01 2.05065E+00-2.91434E-14 8.69999E-14
 -1       981 1.77798E+01 1.50531E+00 3.07792E-01 2.15860E+00 1.65708E-13-8.66876E-14
 -1       982 1.70656E+01 9.39911E-01 7.35104E-02 2.15779E+00 1.96065E-13-2.25930E-13
 -1       983 1.61501E+01 4.66425E-01 1.16736E-02 2.49090E+00 2.26916E-13-2.14658E-13
 -1       984 1.74589E+01 2.23107E-01-4.33422E-06-8.21423E-01-3.34422E-14-1.87711E-14
 -1       985 1.74613E+01 1.55331E-01-6.95343E-06-7.83749E-01-7.21895E-14-6.55197E-14
 -1       986 1.74192E+01 3.78181E-01 1.01934E-04-9.43954E-01-2.78637E-14-4.07354E-14
 -1       987 1.73784E+01 4.56814E-01 3.94245E-04-1.03560E+00-2.42426E-14-6.87019E-14
 -1       988 1.73252E+01 5.23956E-01 1.01712E-03-1.15254E+00-6.60217E-14-7.09224E-14
 -1       989 1.72682E+01 5.61767E-01 9.98491E-04-1.29641E+00-1.27812E-14 3.60412E-14
 -1       990 1.72262E+01 5.41816E-01-6.70097E-03-1.45829E+00-8.17253E-14 5.33689E-14
 -1       991 1.72208E+01 4.30935E-01-4.98715E-02-1.59600E+00-7.91829E-14 1.92790E-13
 -1       992 1.72207E+01 2.31940E-01-1.94762E-01-1.58587E+00-5.72251E-14 6.49827E-14
 -1       993 1.70112E+01 2.18271E-01-4.02518E-01-1.32047E+00-1.61524E-13-8.39051E-14
 -1       994 1.66966E+01 1.79253E+00 1.37721E-01-1.03118E+00-6.34770E-14 1.98175E-14
 -1       995 1.94264E+01 6.95853E-01 7.94556E-01-8.01718E-01 4.18970E-14 8.41549E-14
 -1       996 1.88126E+01-1.45330E-01 1.86203E-01-1.96274E+00 1.92693E-14 1.31381E-13
 -1       997 1.88834E+01-8.69081E-01 3.56978E-02-2.43299E+00-1.29563E-13 2.02138E-13
 -1       998 1.94980E+01-1.86710E+00 6.16856E-04-2.74651E+00-9.20509E-14-2.33993E-14
 -1       999 1.72661E+01 1.04811E+00 1.74407E-06-3.25072E-01 4.65234E-14-2.57214E-13
 -1      1000 2.06803E+01-1.65458E+00 1.38752E-03 2.95130E+00 1.49806E-13-8.41265E-15
 -1      1001 1.72647E+01 6.11521E-01 3.30685E-04-4.77662E-01 3.86865E-14-2.38202E-13
 -1      1002 1.31053E+01 6.69551E-01 3.56832E-02 4.04419E-01 1.12041E-14-2.04562E-13
 -1      1003 1.87031E+01 1.29501E+00 1.83308E-05-6.95261E-01-1.01423E-13-2.67468E-13
 -1      1004 1.74316E+01 9.95646E-03-2.79322E-06-7.33617E-01 7.68057E-14-3.17303E-14
 -1      1005 1.69007E+01 9.77898E-02-5.37346E-06-6.50719E-01 4.07111E-14-1.08659E-13
 -1      1006 1.60435E+01-3.50991E-01 2.07840E-02 3.24842E+00-5.74969E-13 2.54380E-13
 -1      1007 1.83616E+01-1.20535E+00 1.55279E-02 3.65047E+00-4.13075E-13-2.35483E-13
 -1      1008 1.74457E+01 2.98375E-01 1.55757E-05-8.73782E-01-6.43158E-14 2.28084E-14
 -1      1009 1.43283E+01 6.54428E-01 1.37145E-02-9.96083E-01 2.59640E-14-5.57070E-14
 -1      1010 1.95993E+01 3.71756E-01 5.00642E-05-6.26284E-01-1.11299E-13-9.37237E-14
 -1      1011 1.95361E+01 1.92616E-01-1.92664E-05-5.70374E-01-1.20090E-13-1.06280E-13
 -1      1012 1.58123E+01-5.45551E-01 8.40696E-03-2.98639E+00 6.43657E-14-2.30155E-13
 -1      1013 1.53210E+01 3.43776E-01 6.97254E-03-1.95870E+00 1.01907E-13-6.22991E-14
 -1      1014 1.73772E+01 1.83952E-02-9.29677E-06-7.13974E-01 4.68539E-14-7.29668E-14
 -1      1015 1.74173E+01-1.52042E-02 4.26769E-07-7.29733E-01 1.09598E-14-1.51761E-14
 -1      1016 1.73902E+01-1.60429E-02-1.89414E-06-7.24051E-01 4.14767E-14-9.57606E-14
 -1      1017 1.74558E+01 9.65231E-02-2.74097E-06-7.58146E-01-5.31753E-14-2.66917E-14
 -1      1018 1.96273E+01 8.78393E-01-6.36749E-04-7.79608E-01-1.83776E-13-1.27034E-13
 -1      1019 1.90176E+01 9.01670E-01-1.42149E-04-7.17856E-01-1.50286E-13-2.13795E-13
 -1      1020 1.85470E+01 9.12483E-01-8.54782E-06-6.52165E-01-8.91911E-14-2.14668E-13
 -1      1021 1.74451E+01 4.77257E-02 1.78166E-06-7.42236E-01 1.31531E-16-2.25930E-14
 -1      1022 1.73130E+01 3.68297E-01 8.90355E-05-5.80993E-01-9.67591E-15-2.29622E-13
 -1      1023 1.80733E+01 8.71658E-01-1.60391E-04-5.73924E-01-3.25819E-14-1.90260E-13
 -1      1024 1.74034E+01-2.52500E-02 1.03397E-05-7.27807E-01 6.32598E-15-7.44295E-14
 -1      1025 1.90348E+01-2.38847E-03-4.80117E-06-5.80509E-01-5.82739E-14-1.36349E-13
 -1      1026 1.89590E+01-2.42854E-02-9.44301E-06-5.74809E-01-1.23725E-13-7.43192E-14
 -1      1027 1.88818E+01-2.07464E-02-1.09250E-05-5.71180E-01-6.09466E-14-6.68919E-14
 -1      1028 1.88038E+01 2.51602E-03-1.68481E-05-5.67202E-01 4.02780E-14-1.14700E-14
 -1      1029 1.87240E+01 4.16941E-02-3.59681E-06-5.61106E-01-8.30350E-15 8.69945E-18
 -1      1030 1.86405E+01 9.47551E-02 1.11484E-05-5.51016E-01 6.17058E-14-1.06798E-13
 -1      1031 1.85501E+01 1.60481E-01-8.60597E-06-5.35359E-01 2.51737E-14-7.34068E-15
 -1      1032 1.84490E+01 2.38371E-01-4.99111E-05-5.12586E-01-2.45505E-14 4.17460E-14
 -1      1033 1.83320E+01 3.29050E-01-5.82838E-05-4.80852E-01-9.14564E-14 9.07476E-14
 -1      1034 1.81928E+01 4.32536E-01-5.16520E-06-4.38225E-01-2.89432E-14 5.13376E-14
 -1      1035 1.80226E+01 5.49534E-01 1.94246E-04-3.82134E-01-6.30190E-14 1.07647E-13
 -1      1036 1.78100E+01 6.80777E-01 4.47946E-04-3.08749E-01 1.30129E-14 1.36210E-13
 -1      1037 1.75372E+01 8.26821E-01-1.54685E-03-2.11428E-01-5.67332E-14 6.20289E-14
 -1      1038 1.71742E+01 9.85286E-01-1.97829E-02-7.61373E-02-5.28605E-14 1.09276E-13
 -1      1039 1.66599E+01 1.13996E+00-1.11118E-01 1.32212E-01 1.45838E-14 7.72524E-14
 -1      1040 1.58489E+01 1.25044E+00-4.26170E-01 5.02203E-01 4.60743E-14 1.70960E-13
 -1      1041 1.42178E+01 1.37806E+00-1.16864E+00 1.56725E+00-2.22877E-14 1.22791E-13
 -1      1042 2.05318E+01 4.28786E+00 2.07987E+00 4.06055E+00-4.54636E-14 5.17364E-14
 -1      1043 1.94057E+01 1.52494E+00 1.20302E+00 1.72898E+00-1.07723E-13 7.44960E-14
 -1      1044 1.74314E+01 1.12884E+00 3.13756E-01 1.16447E+00 7.92161E-14-1.84741E-13
 -1      1045 1.58523E+01 9.55721E-01 5.96749E-02 1.15932E+00 8.44498E-14-2.28203E-13
 -1      1046 1.76027E+01 2.99864E-01-6.01828E-06-8.15450E-01-2.68629E-14 9.74396E-14
 -1      1047 1.73432E+01 1.98152E-01 2.37959E-05-6.49862E-01-1.01822E-14-1.91460E-13
 -1      1048 1.73349E+01 5.88552E-01 8.66456E-04-1.01155E+00-1.23564E-14 1.25811E-14
 -1      1049 1.74494E+01 4.90666E-01 2.61515E-04-9.24865E-01-4.17633E-15-1.33951E-14
 -1      1050 1.70376E+01 7.15689E-01-2.94703E-03-1.29485E+00-8.92126E-14-5.86927E-14
 -1      1051 1.69019E+01 6.56631E-01-3.60142E-02-1.50953E+00-2.23204E-13 2.82680E-14
 -1      1052 1.68828E+01 3.80828E-01-1.66316E-01-1.73317E+00-6.37788E-14 1.20685E-13
 -1      1053 1.71520E+01-1.68313E-01-4.43129E-01-1.67779E+00-1.43358E-14 1.87482E-13
 -1      1054 1.73639E+01 5.84988E-01 3.84017E-02-1.37603E+00-2.38854E-13 7.94087E-14
 -1      1055 1.73551E+01 1.69720E+00 5.10486E-01-1.46193E+00-1.62662E-13 1.78906E-13
 -1      1056 1.76948E+01 8.37111E-01 2.17639E-01-1.62375E+00-2.34049E-14 2.46154E-13
 -1      1057 1.76534E+01 6.86470E-03 4.25805E-02-2.24504E+00 3.34455E-14 1.16716E-13
 -1      1058 1.88206E+01 6.17340E-01 3.92702E-04-6.76235E-01-1.34727E-13-1.82278E-13
 -1      1059 1.71941E+01 6.72824E-01 1.45724E-03-1.13089E+00-4.23710E-14-9.77850E-14
 -1      1060 1.73628E+01 8.59602E-02-1.96050E-06-6.91582E-01 3.47645E-14-1.85355E-13
 -1      1061 1.75374E+01 3.92311E-01 3.42786E-05-8.61563E-01 1.28301E-14 1.38003E-14
 -1      1062 1.92434E+01 5.48256E-01 2.46973E-04-6.79396E-01-1.14204E-13-1.78715E-13
 -1      1063 1.76761E+01 7.50786E-01 5.13664E-05-5.19812E-01 4.80664E-15-2.13185E-13
 -1      1064 1.76497E+01 2.16642E-01-1.08062E-05-7.82448E-01-1.10729E-13 2.28282E-14
 -1      1065 1.91070E+01 5.31695E-02-2.26491E-06-5.91026E-01-4.55129E-14-1.51981E-13
 -1      1066 1.76665E+01-8.15833E-01 4.90649E-03-2.85623E+00-7.08409E-14 7.42082E-14
 -1      1067 1.76830E+01 1.43915E-01-2.28848E-05-7.59548E-01 1.83694E-14 1.51386E-14
 -1      1068 1.77246E+01 3.39023E-02 2.56789E-05-7.36048E-01 4.39220E-14 1.48290E-13
 -1      1069 1.61314E+01 9.67082E-01 9.26182E-02-5.77786E-01 4.33785E-14-1.71901E-13
 -1      1070 1.77388E+01-1.63683E-03-1.97132E-05-7.32353E-01 1.95481E-14 9.61532E-14
 -1      1071 1.83645E+01 6.05716E-01 1.61685E-04-6.44571E-01-7.28288E-14-1.42555E-13
 -1      1072 1.77808E+01 6.49445E-02-1.32607E-05-7.09056E-01-2.01677E-14-8.47647E-14
 -1      1073 1.92193E+01 3.14086E-01 1.15378E-04-6.38392E-01-1.06808E-13-2.10741E-13
 -1      1074 1.91710E+01 1.54010E-01 5.00861E-05-6.09404E-01-1.02484E-13-1.40410E-13
 -1      1075 1.77336E+01 4.66193E-01 3.88593E-05-6.04319E-01-3.71290E-15-1.84715E-13
 -1      1076 1.66110E+01 1.44018E-01 7.80803E-03-2.30391E+00 2.78038E-14-8.16690E-14
 -1      1077 1.77736E+01 6.31922E-03-1.34867E-04-7.22217E-01 1.82911E-14-8.57107E-14
 -1      1078 1.77810E+01 1.66737E-01-1.42216E-04-6.84129E-01-2.81876E-14-1.32098E-13
 -1      1079 1.77067E+01 8.27390E-02-4.87813E-06-7.44668E-01 1.23715E-15 8.83539E-14
 -1      1080 1.86888E+01-1.31551E-02-2.87480E-05-6.36977E-01-8.72913E-14-1.70246E-13
 -1      1081 1.87482E+01 2.69632E-02-4.56320E-05-6.40939E-01-6.23551E-14-1.34030E-13
 -1      1082 1.86258E+01-2.27943E-02 9.53472E-06-6.34464E-01-9.70965E-14-9.03292E-14
 -1      1083 1.85607E+01-8.68294E-03 1.03781E-04-6.32734E-01-1.50520E-14-7.98516E-14
 -1      1084 1.84927E+01 2.47044E-02-8.36497E-07-6.30332E-01-2.08907E-14-1.53286E-13
 -1      1085 1.84216E+01 7.35032E-02-6.94169E-05-6.25838E-01-2.94412E-15-1.43112E-13
 -1      1086 1.83445E+01 1.35882E-01-6.71420E-06-6.19024E-01 1.08667E-13-1.16941E-13
 -1      1087 1.82562E+01 2.12914E-01 2.68735E-04-6.09752E-01 6.60117E-14-1.02220E-13
 -1      1088 1.81506E+01 3.03524E-01 6.87733E-05-5.97848E-01 2.80204E-14-2.02721E-14
 -1      1089 1.80240E+01 4.07442E-01 1.01023E-04-5.81929E-01-6.15882E-14 6.21962E-14
 -1      1090 1.78660E+01 5.26046E-01 2.41122E-04-5.61909E-01-9.09058E-14 4.04057E-14
 -1      1091 1.76641E+01 6.60302E-01 4.30291E-04-5.38255E-01-1.24441E-13-4.53621E-14
 -1      1092 1.73989E+01 8.11797E-01-7.95971E-04-5.12676E-01-5.76106E-14-1.47602E-13
 -1      1093 1.70353E+01 9.81980E-01-1.35780E-02-4.90148E-01-3.69770E-14-7.10903E-14
 -1      1094 1.64948E+01 1.16533E+00-8.62343E-02-4.85324E-01 7.79086E-15 6.64052E-15
 -1      1095 1.55719E+01 1.31664E+00-3.94266E-01-5.50074E-01-1.13016E-14-4.14668E-14
 -1      1096 1.37594E+01 1.18841E+00-1.40462E+00-9.89953E-01-8.53623E-14-2.40752E-13
 -1      1097 1.44356E+01 3.27508E-01-9.52367E-01-2.57110E+00-1.28564E-13-2.84661E-13
 -1      1098 2.02813E+01 1.60728E+00 1.61809E+00-1.03095E+00-7.07906E-14-2.73781E-13
 -1      1099 1.79555E+01 1.18867E+00 4.88111E-01-4.03144E-01-8.31626E-14-2.31648E-13
 -1      1100 1.76045E+01 4.86814E-01 1.32457E-04-7.95637E-01-2.73023E-14-1.07985E-13
 -1      1101 1.77624E+01 2.96064E-01-6.99784E-05-6.51616E-01-1.21262E-14-1.61699E-13
 -1      1102 1.62994E+01 8.32506E-01-1.71097E-01-1.54641E+00-1.42447E-13-1.36807E-13
 -1      1103 1.66829E+01 9.12048E-01-3.20212E-02-1.21074E+00-1.30050E-13 1.29549E-13
 -1      1104 1.64895E+01-1.04121E+00-9.10497E-01-2.34128E+00-8.83182E-14 2.26485E-14
 -1      1105 1.77256E+01 1.31492E+00 6.11763E-01-1.63368E+00-9.17322E-14-8.59104E-14
 -1      1106 1.71628E+01 1.38419E+00 2.37580E-01-1.65452E+00-1.64910E-13-1.59338E-13
 -1      1107 1.68638E+01 8.49164E-01 5.90908E-02-1.78096E+00 1.13540E-13-1.32044E-13
 -1      1108 1.70019E+01 8.41646E-01-2.62108E-03-1.02187E+00-8.01690E-14 1.60147E-13
 -1      1109 1.80528E+01 5.41550E-01 6.13334E-04-6.23480E-01-2.78155E-14-1.62828E-13
 -1      1110 1.72551E+01 7.27611E-01 9.17127E-04-9.10472E-01-1.16281E-17 1.23181E-13
 -1      1111 1.77212E+01 3.77771E-01-9.49388E-07-7.64962E-01-1.41394E-14-1.66883E-13
 -1      1112 1.78112E+01 2.79697E-01 1.55306E-05-7.42898E-01-4.19447E-14-1.26202E-13
 -1      1113 1.59174E+01 2.77949E-01-6.47478E-01-2.15426E+00-1.62724E-13-1.15533E-13
 -1      1114 1.74524E+01 6.05135E-01 5.24122E-04-8.41049E-01-4.96260E-14-2.93606E-14
 -1      1115 1.88280E+01 3.59369E-01-1.73418E-04-6.65366E-01-5.68735E-14-1.47969E-13
 -1      1116 1.88002E+01 1.08629E-01-2.08969E-05-6.47115E-01-6.70245E-14-6.97289E-14
 -1      1117 1.80236E+01 1.73033E-02-3.71955E-05-7.10988E-01-6.95885E-15 2.17284E-14
 -1      1118 1.77518E+01-2.08401E-02-3.87668E-05-7.30751E-01-3.82957E-14 2.65272E-14
 -1      1119 1.65352E+01 7.42597E-01 3.71453E-02-1.71643E+00 1.92733E-13-2.33576E-13
 -1      1120 1.78840E+01 1.93809E-01 2.71715E-04-7.27927E-01-4.66472E-14 5.53960E-15
 -1      1121 1.81590E+01 3.87935E-02 1.82975E-04-7.01397E-01 4.10000E-15-7.91598E-14
 -1      1122 1.77639E+01-2.01697E-02 7.66349E-06-7.28129E-01-4.20918E-15 1.19979E-14
 -1      1123 1.79842E+01 6.28071E-02-6.93534E-06-7.14207E-01 5.40329E-14 6.20907E-14
 -1      1124 1.88210E+01 2.12878E-01-2.67177E-04-6.55420E-01-6.15441E-16-1.16816E-13
 -1      1125 1.81792E+01 1.25938E-01 1.42666E-04-6.91315E-01-6.19343E-14-1.30255E-13
 -1      1126 1.83856E+01 3.88420E-03 3.55045E-05-6.84529E-01-9.42371E-14-7.36106E-14
 -1      1127 1.83399E+01-1.98355E-02 4.55016E-05-6.84874E-01-4.51932E-14-8.30435E-14
 -1      1128 1.82906E+01-1.67891E-02-3.84161E-05-6.84187E-01-5.30754E-14-3.47092E-14
 -1      1129 1.80610E+01 1.75057E-01-3.66678E-04-6.84803E-01 8.12223E-14-5.59445E-15
 -1      1130 1.83297E+01 3.31317E-01-1.94778E-04-6.69046E-01-4.99549E-14-1.10126E-13
 -1      1131 1.79388E+01 1.21456E-01 3.91382E-05-7.18808E-01 5.05735E-14 2.49296E-14
 -1      1132 1.81305E+01 1.05111E-01 5.18804E-05-6.82348E-01 2.97399E-14 9.93574E-14
 -1      1133 1.84811E+01 7.20065E-02-2.92177E-06-6.76540E-01-6.75661E-14-1.42349E-13
 -1      1134 1.85032E+01 1.71147E-01 1.43630E-04-6.75524E-01-1.60173E-14-1.46166E-13
 -1      1135 3.14234E+01 1.02187E+01 2.63857E+00-7.39690E+00-1.99840E-14 2.18325E-12
 -1      1136 2.26331E+01 6.86331E+00 2.44525E-01-4.20358E+00-2.21489E-14 8.66106E-13
 -1      1137 2.08293E+01 6.27283E+00 8.01344E-02-3.07656E+00-2.10110E-14 1.80191E-13
 -1      1138 1.98386E+01 5.96946E+00 5.96192E-02-2.38369E+00-1.64035E-14-1.95548E-13
 -1      1139 1.91173E+01 5.75183E+00 5.54611E-02-1.83798E+00-1.35170E-14-4.15682E-13
 -1      1140 1.85192E+01 5.57149E+00 5.23718E-02-1.37486E+00-9.95037E-15-5.43006E-13
 -1      1141 1.79835E+01 5.41009E+00 5.00802E-02-9.60116E-01-6.75848E-15-6.28012E-13
 -1      1142 1.74785E+01 5.25807E+00 4.83911E-02-5.72316E-01-5.02376E-15-6.79849E-13
 -1      1143 1.69946E+01 5.11265E+00 4.75419E-02-2.02536E-01-3.21271E-15-7.29453E-13
 -1      1144 1.65238E+01 4.97140E+00 4.75057E-02 1.59363E-01-3.33067E-16-7.59252E-13
 -1      1145 1.60624E+01 4.83317E+00 4.81745E-02 5.22446E-01 1.17961E-15-7.91063E-13
 -1      1146 1.56154E+01 4.69944E+00 4.93598E-02 8.92643E-01 3.12250E-15-7.97536E-13
 -1      1147 1.51876E+01 4.57138E+00 5.02883E-02 1.28389E+00 5.46785E-15-7.76542E-13
 -1      1148 1.48029E+01 4.45593E+00 5.01615E-02 1.71527E+00 1.03736E-14-6.95066E-13
 -1      1149 1.45471E+01 4.37975E+00 5.20362E-02 2.21548E+00 1.68546E-14-4.70917E-13
 -1      1150 1.47102E+01 4.44257E+00 9.82956E-02 2.88909E+00 2.44665E-14 4.52936E-14
 -1      1151 1.75162E+01 5.54105E+00 9.53887E-01 4.22361E+00 6.56142E-14 1.27300E-12
 -1      1152 3.27144E+01 4.07713E+00 1.46730E+00-4.68427E+00-1.26399E-13 3.06755E-12
 -1      1153 2.32442E+01-1.92047E-01-6.64048E-01-1.15248E-01-3.43961E-14 2.79179E-12
 -1      1154 2.16586E+01-1.00997E-01-2.51045E-01 6.72132E-02-1.23634E-14 2.26688E-12
 -1      1155 2.11808E+01-4.91924E-02-6.05389E-02 4.16045E-02-4.30905E-15 1.86808E-12
 -1      1156 2.09771E+01-2.45324E-02-1.38122E-02 2.62053E-02-3.75416E-15 1.59375E-12
 -1      1157 2.09034E+01-1.26924E-02-3.79866E-03 1.77170E-02 1.22558E-15 1.44150E-12
 -1      1158 2.08891E+01-6.26266E-03-7.37376E-04 1.24065E-02 7.21992E-15 1.34895E-12
 -1      1159 2.08962E+01-2.61813E-03 9.56236E-04 8.80443E-03-1.99385E-14 1.21746E-12
 -1      1160 2.09039E+01-5.43272E-04 2.00979E-03 6.19461E-03 4.27844E-15 1.01213E-12
 -1      1161 2.09012E+01 5.85872E-04 2.53560E-03 4.22169E-03 2.92420E-15 8.60640E-13
 -1      1162 2.08826E+01 1.11480E-03 2.64412E-03 2.69620E-03-1.46890E-14 7.50709E-13
 -1      1163 2.08468E+01 1.24646E-03 2.44778E-03 1.50758E-03 2.40753E-15 6.84117E-13
 -1      1164 2.07946E+01 1.10462E-03 2.03318E-03 5.85833E-04 1.21601E-15 6.62354E-13
 -1      1165 2.07286E+01 7.65578E-04 1.45686E-03-1.15392E-04-3.45877E-14 6.96146E-13
 -1      1166 2.06529E+01 2.75615E-04 7.51179E-04-6.26304E-04-9.38289E-15 7.52918E-13
 -1      1167 2.05722E+01-3.37921E-04-6.76859E-05-9.64525E-04-3.56248E-14 6.83105E-13
 -1      1168 2.04925E+01-1.05808E-03-9.91313E-04-1.13727E-03-1.60198E-14 4.89791E-13
 -1      1169 2.04201E+01-1.87065E-03-2.00928E-03-1.14397E-03-5.92937E-15 2.94038E-13
 -1      1170 2.03624E+01-2.75662E-03-3.09756E-03-9.81148E-04-3.24125E-14 1.82865E-13
 -1      1171 2.03270E+01-3.68603E-03-4.20708E-03-6.51939E-04 3.00273E-14 1.84416E-13
 -1      1172 2.03220E+01-4.61766E-03-5.26172E-03-1.81683E-04 1.74047E-14 1.97780E-13
 -1      1173 2.03549E+01-5.51468E-03-6.18890E-03 3.63537E-04-1.72258E-14 4.13656E-13
 -1      1174 2.04327E+01-6.39173E-03-7.01838E-03 8.73420E-04-1.79427E-14 4.21332E-13
 -1      1175 2.05616E+01-7.40011E-03-8.06024E-03 1.25017E-03-4.11686E-14 2.17718E-13
 -1      1176 2.07491E+01-8.90406E-03-1.00417E-02 1.58517E-03 4.33171E-15 1.46747E-13
 -1      1177 2.10089E+01-1.13512E-02-1.38742E-02 2.44401E-03 6.43669E-15 5.24390E-13
 -1      1178 2.13668E+01-1.47365E-02-1.96262E-02 4.95756E-03 6.87419E-14 6.37770E-13
 -1      1179 2.18612E+01-1.76435E-02-2.51275E-02 1.02822E-02-1.07119E-15 2.50017E-13
 -1      1180 2.25282E+01-1.71349E-02-2.57966E-02 1.84378E-02 6.65991E-14 3.06057E-13
 -1      1181 2.33708E+01-9.93118E-03-1.61351E-02 2.73849E-02 5.73055E-15 4.21128E-13
 -1      1182 2.43214E+01 6.17106E-03 8.35731E-03 3.29256E-02-7.09617E-14 3.94934E-13
 -1      1183 2.52129E+01 3.15736E-02 4.95125E-02 2.88711E-02 3.30729E-14 3.37699E-13
 -1      1184 2.57661E+01 6.30177E-02 1.02346E-01 7.45710E-03 6.03476E-14 9.51131E-13
 -1      1185 2.56210E+01 8.98175E-02 1.47513E-01-3.74414E-02-7.02303E-15 7.91624E-13
 -1      1186 2.44648E+01 9.09008E-02 1.47104E-01-1.01006E-01-1.65120E-14-2.15661E-14
 -1      1187 2.22908E+01 4.30365E-02 6.30235E-02-1.56276E-01 2.06523E-14 2.08528E-13
 -1      1188 1.96683E+01-5.13656E-02-9.54237E-02-1.58353E-01-8.38522E-15-3.54300E-14
 -1      1189 1.76891E+01-1.40873E-01-2.40954E-01-8.06916E-02-2.39132E-14-3.27231E-13
 -1      1190 1.73609E+01-1.54851E-01-2.63112E-01 4.48964E-02 6.65579E-14-4.06501E-13
 -1      1191 1.88369E+01-7.92258E-02-1.41577E-01 1.42389E-01 1.30868E-14-4.90344E-13
 -1      1192 2.12766E+01 2.18066E-02 2.66314E-02 1.61387E-01 3.86225E-14-4.34208E-13
 -1      1193 2.35172E+01 8.54251E-02 1.36647E-01 1.15136E-01 3.90842E-14 3.23339E-13
 -1      1194 2.48074E+01 9.65566E-02 1.58630E-01 4.85832E-02-7.15053E-14 5.71355E-13
 -1      1195 2.50080E+01 7.44593E-02 1.22636E-01-4.80898E-03 1.57600E-15 3.16674E-13
 -1      1196 2.43727E+01 4.22642E-02 6.91284E-02-3.52079E-02-8.12865E-14-7.12208E-14
 -1      1197 2.32675E+01 1.25182E-02 2.06328E-02-4.67928E-02 6.78034E-14 8.91648E-15
 -1      1198 2.20193E+01-1.17336E-02-1.87211E-02-4.59407E-02 4.63402E-14-2.71179E-13
 -1      1199 2.08923E+01-3.11580E-02-5.08501E-02-3.39956E-02 1.60935E-14-2.19016E-13
 -1      1200 2.01364E+01-4.85594E-02-6.22481E-02-4.48451E-03-1.06655E-14 7.70330E-14
 -1      1201 1.99515E+01 1.54551E-02 2.64384E-02 1.76816E-02 2.39743E-14 1.19640E-13
 -1      1202 1.90574E+01 3.65973E-01 2.37259E-01 1.41066E+00-2.21455E-14 2.33136E-12
 -1      1203 1.34781E+01-5.07414E-02-4.28442E-01 9.96812E-02 2.81442E-14 1.63963E-12
 -1      1204 1.26813E+01-3.23069E-02-1.47689E-01 1.58506E-02 1.71434E-14 1.02772E-12
 -1      1205 1.25153E+01-1.78485E-02-4.11386E-02 1.26507E-03 1.77068E-14 6.12406E-13
 -1      1206 1.26039E+01-1.07979E-02-1.25235E-02-3.53055E-03 1.17432E-14 2.99493E-13
 -1      1207 1.28184E+01-6.75077E-03-5.22098E-03-5.01319E-03 1.09260E-14 8.91578E-14
 -1      1208 1.30944E+01-4.20065E-03-2.62782E-03-5.37779E-03 6.69121E-15-6.33885E-14
 -1      1209 1.33968E+01-2.53895E-03-1.06686E-03-5.27130E-03-1.11670E-15-1.57095E-13
 -1      1210 1.37052E+01-1.46391E-03 7.74790E-06-4.91547E-03 9.85163E-15-2.80120E-13
 -1      1211 1.40079E+01-8.01449E-04 6.64026E-04-4.41727E-03 2.74031E-15-3.76072E-13
 -1      1212 1.42987E+01-4.41070E-04 9.61893E-04-3.84218E-03 7.23440E-15-4.90859E-13
 -1      1213 1.45752E+01-3.10303E-04 9.72315E-04-3.23285E-03-6.26077E-15-5.30146E-13
 -1      1214 1.48377E+01-3.62107E-04 7.54245E-04-2.61625E-03 2.01284E-14-6.67081E-13
 -1      1215 1.50882E+01-5.67666E-04 3.46495E-04-2.00866E-03-1.72174E-14-6.95052E-13
 -1      1216 1.53306E+01-9.11316E-04-2.31308E-04-1.42003E-03 2.28488E-14-7.72063E-13
 -1      1217 1.55698E+01-1.38595E-03-9.74436E-04-8.58469E-04 1.28145E-14-9.19957E-13
 -1      1218 1.58117E+01-1.98785E-03-1.88693E-03-3.35013E-04-2.06794E-15-8.92074E-13
 -1      1219 1.60634E+01-2.71024E-03-2.97326E-03 1.31075E-04 6.81394E-15-1.00866E-12
 -1      1220 1.63333E+01-3.53506E-03-4.22703E-03 5.06879E-04-2.19085E-15-1.11627E-12
 -1      1221 1.66302E+01-4.42331E-03-5.61638E-03 7.40996E-04 1.81843E-14-1.13141E-12
 -1      1222 1.69640E+01-5.30490E-03-7.06550E-03 7.60446E-04 3.13172E-16-1.09241E-12
 -1      1223 1.73441E+01-6.06636E-03-8.42775E-03 4.68868E-04-1.24095E-14-9.53043E-13
 -1      1224 1.77795E+01-6.52706E-03-9.43104E-03-2.59039E-04 1.92691E-14-8.73317E-13
 -1      1225 1.82760E+01-6.36958E-03-9.57650E-03-1.58742E-03-2.99567E-14-7.60499E-13
 -1      1226 1.88345E+01-5.08637E-03-8.05855E-03-3.69030E-03-6.73127E-16-4.77174E-13
 -1      1227 1.94456E+01-2.31659E-03-4.04294E-03-6.47903E-03 2.76856E-14-5.83741E-13
 -1      1228 2.00825E+01 1.37032E-03 2.11065E-03-8.96763E-03-2.01577E-14-6.09204E-13
 -1      1229 2.07005E+01 4.01636E-03 7.68983E-03-9.83615E-03-5.92435E-15-6.57354E-13
 -1      1230 2.12578E+01 5.61446E-03 9.98606E-03-9.85076E-03 1.57437E-14-7.32716E-13
 -1      1231 2.17374E+01 1.01086E-02 1.27220E-02-1.15607E-02-2.63441E-14-7.11479E-13
 -1      1232 2.21231E+01 1.96191E-02 2.34002E-02-1.61191E-02 3.85297E-14-9.84159E-13
 -1      1233 2.23469E+01 3.18124E-02 4.35646E-02-2.03390E-02 2.88376E-14-7.49945E-13
 -1      1234 2.22744E+01 4.14038E-02 6.59017E-02-1.82731E-02 1.45413E-15-3.75332E-13
 -1      1235 2.17542E+01 4.08683E-02 7.68555E-02-4.31081E-03-8.72223E-14 8.33361E-14
 -1      1236 2.07108E+01 2.32030E-02 6.04633E-02 2.29342E-02 3.68451E-14-2.68202E-13
 -1      1237 1.92594E+01-9.70889E-03 9.48184E-03 5.54681E-02 7.39792E-14-8.50028E-13
 -1      1238 1.77686E+01-4.26894E-02-5.96090E-02 7.57343E-02 2.50837E-14-1.06307E-12
 -1      1239 1.67524E+01-5.73015E-02-1.09460E-01 6.88421E-02 5.17381E-14-8.38093E-13
 -1      1240 1.65996E+01-4.89230E-02-1.15926E-01 3.42012E-02-9.85245E-14-3.93335E-13
 -1      1241 1.73450E+01-2.35591E-02-7.78935E-02-9.90459E-03-5.99737E-15-4.97297E-13
 -1      1242 1.86695E+01 3.43005E-03-1.74072E-02-4.52052E-02-7.95554E-14-5.52017E-13
 -1      1243 2.00923E+01 2.16465E-02 3.43200E-02-5.97961E-02-7.30316E-14-2.80699E-13
 -1      1244 2.12041E+01 2.82281E-02 6.13502E-02-5.45380E-02 5.64679E-14-7.35793E-13
 -1      1245 2.17987E+01 2.56160E-02 6.35707E-02-3.74857E-02 8.40157E-14-1.39526E-12
 -1      1246 2.18711E+01 1.75754E-02 4.92568E-02-1.71184E-02-7.52085E-14-1.35105E-12
 -1      1247 2.15458E+01 6.84356E-03 2.68585E-02 1.10480E-03 1.66063E-14-8.56199E-13
 -1      1248 2.10031E+01-5.07771E-03 1.43819E-03 1.46232E-02 3.92933E-14-1.00864E-12
 -1      1249 2.04383E+01-1.60455E-02-2.24786E-02 2.11378E-02 5.49992E-14-9.46177E-13
 -1      1250 2.00460E+01-1.82237E-02-2.95825E-02 1.42234E-02 1.28483E-13-1.08131E-12
 -1      1251 1.99722E+01 1.01871E-02 2.11640E-02-9.87689E-03-7.69935E-15-8.08876E-13
 -1      1252 2.00095E+01-2.89363E-02 1.88334E-02-9.48967E-03-8.10093E-13-5.30429E-14
 -1      1253 1.99755E+01 4.76862E-02-3.56471E-02-4.64325E-03-8.10890E-13-2.59248E-14
 -1      1254 1.99739E+01 4.54869E-01-4.01410E-02 1.41244E-02-1.53018E-13-5.49977E-14
 -1      1255 1.99787E+01 1.14118E+00-3.17407E-02 2.47726E-02 1.16948E-13-6.92770E-14
 -1      1256 1.99877E+01 2.03545E+00-1.85079E-02 3.23394E-02 6.15244E-13 3.29415E-14
 -1      1257 2.00007E+01 3.04300E+00 1.12438E-04 3.66324E-02 1.27381E-12-5.86744E-14
 -1      1258 2.00176E+01 4.04907E+00 2.35065E-02 3.59788E-02 1.10797E-12-1.86201E-15
 -1      1259 2.00350E+01 4.90481E+00 4.79502E-02 2.80735E-02 6.43385E-13-6.35611E-14
 -1      1260 2.00478E+01 5.43631E+00 6.62038E-02 1.33203E-02 3.35417E-13-1.52959E-14
 -1      1261 2.00517E+01 5.52049E+00 7.21373E-02-5.63325E-03 6.09165E-14 1.07917E-13
 -1      1262 2.00449E+01 5.11766E+00 6.32932E-02-2.44466E-02-6.01116E-13-2.44274E-13
 -1      1263 2.00308E+01 4.29604E+00 4.25523E-02-3.90030E-02-1.84305E-12-5.76622E-14
 -1      1264 2.00104E+01 3.19180E+00 1.40747E-02-4.62223E-02-1.30617E-12 1.25844E-13
 -1      1265 1.99889E+01 1.98012E+00-1.88248E-02-4.61608E-02 6.11178E-14-4.75814E-14
 -1      1266 1.99667E+01 8.68601E-01-5.52572E-02-4.12193E-02 2.29448E-13-6.25992E-14
 -1      1267 1.99492E+01 1.61133E-01-5.76820E-02 5.79930E-03 1.18518E-13-1.05694E-13
 -1      1268 2.00189E+01-4.54407E-02 2.77523E-02 1.33451E-02 7.91910E-14 1.11816E-13
 -1      1269-1.08974E+00-2.56663E+01-3.89906E+00-2.29590E+00-4.33265E-13 8.53831E-14
 -1      1270-1.85464E+00-1.63327E+01-3.18079E+00-4.28649E+00 2.38054E-12 9.52238E-13
 -1      1271 1.00571E-01-3.05784E+00-1.93662E+00-3.84386E-01 2.96652E-12 1.66300E-12
 -1      1272 8.39859E+00 7.62213E+00-3.46962E-01 7.95764E+00 2.41984E-12 2.25309E-12
 -1      1273 2.40921E+01 1.16966E+01 1.37706E+00 1.60559E+01 1.54476E-12 1.85696E-12
 -1      1274 4.39562E+01 9.39324E+00 2.86831E+00 1.85536E+01 6.01408E-13 1.30762E-12
 -1      1275 6.12692E+01 4.39665E+00 3.93814E+00 1.29012E+01 3.19661E-13 1.22435E-12
 -1      1276 6.76423E+01 1.78949E+00 4.18046E+00 5.08637E-01 8.24618E-14 3.22437E-13
 -1      1277 6.06316E+01 3.76617E+00 3.74893E+00-1.18230E+01 9.43134E-14-3.48610E-13
 -1      1278 4.34521E+01 8.53245E+00 2.75584E+00-1.76675E+01 4.25993E-13-6.95888E-13
 -1      1279 2.37260E+01 1.09218E+01 1.39597E+00-1.53428E+01 5.77982E-13-8.66418E-13
 -1      1280 8.04225E+00 6.84538E+00-2.96457E-01-7.44659E+00 8.88178E-13-7.46514E-13
 -1      1281-1.94349E-01-4.24767E+00-1.89325E+00 9.34611E-01 1.14042E-12-6.01741E-13
 -1      1282-1.79668E+00-1.74888E+01-3.15090E+00 4.41663E+00 1.87272E-12-6.30496E-13
 -1      1283-1.06267E+00-2.55950E+01-3.80670E+00 1.70265E+00 1.42514E-12-2.88644E-13
 -1      1284-1.41094E+00-2.40539E+01-3.72642E+00-2.90644E+00-7.27196E-14-1.83846E-13
 -1      1285-1.93241E+00-1.41761E+01-3.00912E+00-4.22992E+00-8.81961E-13-4.25160E-13
 -1      1286 6.96163E-01-1.38339E+00-1.72949E+00 3.55890E-01-1.24589E-12-7.90701E-13
 -1      1287 1.00043E+01 8.04754E+00-2.16546E-01 8.84429E+00-1.66445E-12-1.75282E-12
 -1      1288 2.69245E+01 1.09674E+01 1.45660E+00 1.64615E+01-1.72573E-12-2.61746E-12
 -1      1289 4.73256E+01 8.03808E+00 3.03349E+00 1.77987E+01-1.04339E-12-2.47669E-12
 -1      1290 6.36078E+01 3.34698E+00 4.08530E+00 1.05134E+01-2.59959E-13-6.29941E-13
 -1      1291 6.87290E+01 1.65242E+00 4.42521E+00-2.07731E+00-2.24099E-13 1.44171E-12
 -1      1292 6.02918E+01 4.48783E+00 3.88850E+00-1.34891E+01-7.36800E-13 2.70584E-12
 -1      1293 4.24080E+01 9.26100E+00 2.71754E+00-1.84165E+01-7.10654E-13 2.07234E-12
 -1      1294 2.25964E+01 1.10918E+01 1.14699E+00-1.52341E+01-4.76508E-13 4.73399E-13
 -1      1295 7.42251E+00 6.41042E+00-5.68377E-01-6.96194E+00-1.98996E-12 1.39200E-12
 -1      1296-4.22826E-01-4.49335E+00-2.10939E+00 1.15296E+00-3.23075E-12 1.90181E-12
 -1      1297-1.99484E+00-1.73272E+01-3.30125E+00 4.68806E+00-2.98250E-12 1.02190E-12
 -1      1298-1.18620E+00-2.57842E+01-3.90479E+00 2.42250E+00-2.63778E-12 4.14425E-13
 -1      1299 2.51427E+01 2.01926E+00-7.98432E-01-3.04128E+00-4.00235E-14 1.98047E-12
 -1      1300 2.22666E+01 5.09023E+00-5.81448E-02-3.58806E+00-2.07251E-13 5.48825E-13
 -1      1301 2.31279E+01 5.30956E+00-1.17656E-01-4.54458E+00-2.37171E-13 9.05304E-13
 -1      1302 2.07840E+01 5.29813E+00-2.59289E-02-2.88410E+00-2.41696E-13 1.83152E-14
 -1      1303 2.13943E+01 5.48806E+00 3.73543E-04-3.30770E+00-2.62318E-13 2.61083E-13
 -1      1304 2.23088E+01 4.25954E+00-2.78697E-02-3.39671E+00-3.79322E-13 4.90649E-13
 -1      1305 1.98638E+01 5.25811E+00-7.27125E-03-2.27421E+00-2.24133E-13-2.89619E-13
 -1      1306 2.02937E+01 5.39935E+00 1.04062E-02-2.58019E+00-2.46386E-13-1.44960E-13
 -1      1307 2.08837E+01 4.60133E+00-2.65485E-02-2.77766E+00-3.89223E-13 4.26673E-14
 -1      1308 1.91553E+01 5.16872E+00 8.12774E-04-1.76147E+00-1.99965E-13-4.73883E-13
 -1      1309 1.94967E+01 5.27873E+00 1.26377E-02-2.01370E+00-2.10928E-13-3.86302E-13
 -1      1310 1.99452E+01 4.68085E+00-2.12750E-02-2.19820E+00-3.51569E-13-2.24924E-13
 -1      1311 1.85629E+01 5.06396E+00 4.48271E-03-1.32074E+00-1.61419E-13-5.74653E-13
 -1      1312 1.88529E+01 5.15575E+00 1.25670E-02-1.53791E+00-1.79731E-13-5.19961E-13
 -1      1313 1.92281E+01 4.66806E+00-1.69239E-02-1.70774E+00-3.09804E-13-3.72997E-13
 -1      1314 1.80201E+01 4.94777E+00 6.39208E-03-9.14334E-01-1.27759E-13-6.49682E-13
 -1      1315 1.82877E+01 5.03103E+00 1.17474E-02-1.11522E+00-1.35489E-13-6.12600E-13
 -1      1316 1.86210E+01 4.61017E+00-1.41990E-02-1.27574E+00-2.43173E-13-4.73854E-13
 -1      1317 1.75135E+01 4.82467E+00 7.61866E-03-5.34930E-01-8.83321E-14-7.02839E-13
 -1      1318 1.77645E+01 4.90176E+00 1.08420E-02-7.23455E-01-1.01946E-13-6.72986E-13
 -1      1319 1.80720E+01 4.52382E+00-1.25660E-02-8.78413E-01-1.86942E-13-5.31752E-13
 -1      1320 1.70295E+01 4.69511E+00 8.56390E-03-1.70862E-01-5.93692E-14-7.40416E-13
 -1      1321 1.72698E+01 4.76815E+00 1.00236E-02-3.52746E-01-6.73350E-14-7.19293E-13
 -1      1322 1.75621E+01 4.41692E+00-1.16009E-02-5.05413E-01-1.25931E-13-5.80130E-13
 -1      1323 1.65609E+01 4.55914E+00 9.41533E-03 1.87462E-01-2.11914E-14-7.77361E-13
 -1      1324 1.67937E+01 4.62916E+00 9.28953E-03 7.41583E-03-3.39867E-14-7.58487E-13
 -1      1325 1.70780E+01 4.29264E+00-1.10917E-02-1.45677E-01-7.41863E-14-6.18196E-13
 -1      1326 1.61050E+01 4.41649E+00 1.02185E-02 5.48930E-01 1.45266E-14-8.01009E-13
 -1      1327 1.63309E+01 4.48367E+00 8.53174E-03 3.66123E-01 1.67921E-15-7.88022E-13
 -1      1328 1.66128E+01 4.15170E+00-1.09799E-02 2.10145E-01-1.58961E-14-6.50976E-13
 -1      1329 1.56720E+01 4.26971E+00 1.08048E-02 9.16438E-01 5.07372E-14-8.09269E-13
 -1      1330 1.58851E+01 4.33172E+00 7.45232E-03 7.29163E-01 3.99160E-14-8.10053E-13
 -1      1331 1.61693E+01 3.99426E+00-1.12639E-02 5.67842E-01 5.12715E-14-6.73545E-13
 -1      1332 1.52596E+01 4.11389E+00 1.06405E-02 1.31427E+00 1.03792E-13-7.72694E-13
 -1      1333 1.54590E+01 4.16978E+00 5.32827E-03 1.10929E+00 8.39502E-14-7.94169E-13
 -1      1334 1.57493E+01 3.81504E+00-1.23604E-02 9.40162E-01 1.15234E-13-6.68826E-13
 -1      1335 1.49097E+01 3.95264E+00 8.30132E-03 1.75367E+00 1.59624E-13-6.70936E-13
 -1      1336 1.50697E+01 3.99251E+00 3.62026E-04 1.52289E+00 1.33948E-13-7.35679E-13
 -1      1337 1.53703E+01 3.60304E+00-1.46307E-02 1.34288E+00 1.96845E-13-6.15352E-13
 -1      1338 1.47212E+01 3.78536E+00 3.65657E-03 2.26910E+00 2.08618E-13-4.16618E-13
 -1      1339 1.47798E+01 3.78682E+00-1.07055E-02 1.98412E+00 1.75929E-13-5.75921E-13
 -1      1340 1.50931E+01 3.33471E+00-1.75945E-02 1.78884E+00 2.77230E-13-4.72167E-13
 -1      1341 1.50298E+01 3.52423E+00 1.08363E-04 2.95559E+00 2.11942E-13 1.55598E-13
 -1      1342 1.47740E+01 3.47916E+00-3.11111E-02 2.51465E+00 1.96135E-13-1.98973E-13
 -1      1343 1.50832E+01 2.91063E+00-1.70923E-02 2.27979E+00 3.32645E-13-1.66339E-13
 -1      1344 1.88344E+01 2.24801E+00 6.23031E-01 3.27920E+00 1.32422E-13 1.38078E-12
 -1      1345 1.54570E+01 2.53874E+00-1.27527E-01 2.82825E+00 1.22305E-13 5.09148E-13
 -1      1346 1.56472E+01 1.86971E+00-3.15460E-02 2.48926E+00 3.65155E-13 3.59851E-13
 -1      1347 1.46936E+01 2.75323E-01-5.56310E-01 8.73418E-01 2.18544E-13 1.27123E-12
 -1      1348 2.49014E+01 1.31875E-01-4.34866E-01-1.42427E+00-1.66159E-13 1.99887E-12
 -1      1349 2.34320E+01 3.28208E-01-1.77899E-01-9.03518E-01-1.74208E-13 1.82659E-12
 -1      1350 2.27421E+01 1.60948E-01-7.89091E-02-4.75712E-01-1.41047E-13 1.70461E-12
 -1      1351 2.21837E+01 9.38369E-02-1.58122E-02-4.00953E-01-1.51410E-13 1.49290E-12
 -1      1352 2.34474E+01 3.91859E-01-1.11866E-01-1.45292E+00-3.10654E-13 1.13604E-12
 -1      1353 2.17454E+01 6.56937E-02 3.60246E-03-1.99607E-01-1.16808E-13 1.40834E-12
 -1      1354 2.15139E+01 4.13204E-02 1.42976E-02-1.82432E-01-1.13970E-13 1.25656E-12
 -1      1355 2.22178E+01 1.37735E-01-3.66365E-02-6.41512E-01-2.57568E-13 9.53869E-13
 -1      1356 2.12801E+01 3.10797E-02 1.43843E-02-9.26434E-02-7.59089E-14 1.17332E-12
 -1      1357 2.11839E+01 1.87790E-02 1.17420E-02-8.38367E-02-8.16625E-14 1.07384E-12
 -1      1358 2.15908E+01 5.49009E-02-8.18751E-03-2.99487E-01-1.87792E-13 7.94875E-13
 -1      1359 2.10557E+01 1.52392E-02 9.43053E-03-4.14719E-02-5.50710E-14 1.02714E-12
 -1      1360 2.10191E+01 8.49443E-03 6.66777E-03-3.73006E-02-4.66415E-14 9.65375E-13
 -1      1361 2.12382E+01 2.30597E-02-3.10140E-03-1.41978E-01-1.30374E-13 6.67240E-13
 -1      1362 2.09463E+01 7.16254E-03 4.98128E-03-1.74611E-02-2.14153E-14 9.07698E-13
 -1      1363 2.09356E+01 3.12239E-03 3.65985E-03-1.58895E-02-4.40021E-14 8.73012E-13
 -1      1364 2.10378E+01 9.04150E-03-1.95902E-03-6.63842E-02-8.73641E-14 5.72256E-13
 -1      1365 2.08914E+01 2.68854E-03 2.60711E-03-8.04119E-03-5.62697E-14 8.70448E-13
 -1      1366 2.08893E+01 1.86561E-04 2.15154E-03-7.95431E-03-5.41149E-14 7.69946E-13
 -1      1367 2.09188E+01 2.00028E-03-1.17985E-03-3.22557E-02-7.38761E-14 4.88072E-13
 -1      1368 2.08585E+01 1.64911E-04 1.45132E-03-6.72954E-03-4.45073E-14 7.51090E-13
 -1      1369 2.08560E+01-1.37646E-03 1.36141E-03-7.46591E-03-6.05287E-14 6.65831E-13
 -1      1370 2.08411E+01-1.67998E-03-4.99294E-04-2.06573E-02-1.08255E-13 4.89230E-13
 -1      1371 2.08300E+01-1.20108E-03 8.61276E-04-9.81311E-03-3.15040E-14 6.44242E-13
 -1      1372 2.08222E+01-2.10127E-03 8.99422E-04-1.09527E-02-1.92182E-14 6.12095E-13
 -1      1373 2.07817E+01-3.50725E-03-9.82182E-06-2.14799E-02-6.89808E-14 4.64242E-13
 -1      1374 2.07962E+01-1.83544E-03 5.35367E-04-1.49997E-02-5.24795E-14 6.00400E-13
 -1      1375 2.07812E+01-2.28745E-03 6.06727E-04-1.62652E-02-4.89064E-14 5.43803E-13
 -1      1376 2.07276E+01-4.21674E-03 2.77852E-04-2.87779E-02-6.59557E-14 4.45438E-13
 -1      1377 2.07528E+01-1.98620E-03 3.47987E-04-2.08020E-02-4.94472E-14 4.66212E-13
 -1      1378 2.07301E+01-2.11479E-03 4.17313E-04-2.20054E-02-5.16730E-14 4.34108E-13
 -1      1379 2.06716E+01-4.21149E-03 4.02396E-04-3.88134E-02-8.12134E-14 3.62934E-13
 -1      1380 2.06985E+01-1.80436E-03 2.42806E-04-2.62171E-02-1.73664E-14 4.22914E-13
 -1      1381 2.06688E+01-1.69391E-03 2.98860E-04-2.72271E-02-1.27038E-14 3.88357E-13
 -1      1382 2.06104E+01-3.72858E-03 4.06753E-04-4.91234E-02-7.68287E-14 1.70693E-13
 -1      1383 2.06341E+01-1.38262E-03 1.89971E-04-3.05404E-02 2.26704E-14 3.99087E-13
 -1      1384 2.05989E+01-1.09189E-03 2.32288E-04-3.12607E-02-1.10306E-14 4.17463E-13
 -1      1385 2.05433E+01-2.91028E-03 3.23501E-04-5.80161E-02 3.37198E-15 1.39546E-13
 -1      1386 2.05622E+01-7.76227E-04 1.70969E-04-3.32478E-02-1.69747E-14 4.30972E-13
 -1      1387 2.05236E+01-3.47481E-04 2.04773E-04-3.36021E-02-2.25942E-14 4.27912E-13
 -1      1388 2.04713E+01-1.83945E-03 1.74092E-04-6.42705E-02-7.15166E-15 1.93965E-13
 -1      1389 2.04864E+01-1.63202E-05 1.73034E-04-3.39195E-02-8.07671E-14 4.50234E-13
 -1      1390 2.04471E+01 5.17909E-04 2.06985E-04-3.38418E-02-1.03814E-13 3.56132E-13
 -1      1391 2.03971E+01-5.61019E-04-2.85074E-05-6.69454E-02-5.19554E-14 1.72737E-13
 -1      1392 2.04114E+01 8.79736E-04 1.86832E-04-3.21939E-02-9.44518E-14 3.44520E-13
 -1      1393 2.03743E+01 1.49071E-03 2.31918E-04-3.16236E-02-1.10437E-13 2.12412E-13
 -1      1394 2.03240E+01 9.01716E-04-2.76944E-04-6.52613E-02-1.59785E-13 1.83422E-13
 -1      1395 2.03426E+01 1.89840E-03 2.05770E-04-2.77487E-02-6.05634E-14 1.53585E-13
 -1      1396 2.03111E+01 2.55542E-03 2.74840E-04-2.66302E-02-2.08192E-14 1.31039E-13
 -1      1397 2.02565E+01 2.53124E-03-5.66717E-04-5.85373E-02-1.42596E-13 1.32089E-13
 -1      1398 2.02862E+01 3.01915E-03 2.26820E-04-2.03097E-02-3.37271E-14 1.49676E-13
 -1      1399 2.02639E+01 3.68438E-03 3.34679E-04-1.85986E-02-5.19690E-14 9.52416E-14
 -1      1400 2.01997E+01 4.29837E-03-8.93187E-04-4.61833E-02-3.30996E-14 4.15235E-14
 -1      1401 2.02489E+01 4.20349E-03 2.53117E-04-9.68785E-03-3.24418E-14 6.88628E-14
 -1      1402 2.02396E+01 4.82984E-03 4.17079E-04-7.36307E-03-3.02498E-14 3.78382E-14
 -1      1403 2.01593E+01 6.14401E-03-1.24804E-03-2.77455E-02-4.13796E-14 2.91754E-14
 -1      1404 2.02377E+01 5.38905E-03 2.97791E-04 4.16389E-03 5.97618E-14-9.11353E-15
 -1      1405 2.02453E+01 5.92715E-03 5.37738E-04 7.08439E-03 1.21501E-14 1.05843E-13
 -1      1406 2.01415E+01 7.96837E-03-1.61564E-03-2.99758E-03-2.06006E-14-5.72140E-14
 -1      1407 2.02598E+01 6.50345E-03 3.84954E-04 2.11124E-02-3.44625E-15 1.53156E-13
 -1      1408 2.02879E+01 6.92877E-03 7.20010E-04 2.45652E-02 1.19251E-15 1.70028E-13
 -1      1409 2.01529E+01 9.65158E-03-1.97196E-03 2.79741E-02 2.77806E-14-6.95651E-15
 -1      1410 2.03222E+01 7.52574E-03 5.36683E-04 4.09218E-02-1.91995E-14 1.88831E-13
 -1      1411 2.03742E+01 7.89524E-03 9.74543E-04 4.48327E-02-2.55249E-14 1.46759E-13
 -1      1412 2.02000E+01 1.11512E-02-2.29370E-03 6.48235E-02 2.15127E-15-5.35303E-15
 -1      1413 2.04315E+01 8.62289E-03 7.31101E-04 6.36122E-02-3.36959E-14 2.15990E-13
 -1      1414 2.05110E+01 9.14339E-03 1.25161E-03 6.80251E-02-4.92411E-14 1.61627E-13
 -1      1415 2.02894E+01 1.27218E-02-2.58983E-03 1.07394E-01-3.37243E-14 1.55574E-13
 -1      1416 2.05950E+01 1.03194E-02 8.37198E-04 9.02274E-02 3.48643E-14 1.72671E-13
 -1      1417 2.07073E+01 1.13291E-02 1.38826E-03 9.55474E-02 2.47352E-14 2.34595E-13
 -1      1418 2.04278E+01 1.51914E-02-2.95861E-03 1.56836E-01 2.29634E-16 2.50797E-13
 -1      1419 2.08231E+01 1.34624E-02 5.94356E-04 1.23711E-01 8.96102E-14 2.46612E-13
 -1      1420 2.09778E+01 1.51276E-02 1.09950E-03 1.30913E-01 9.23593E-14 4.41347E-13
 -1      1421 2.06234E+01 1.99054E-02-3.62944E-03 2.17197E-01 6.98306E-14 2.82779E-13
 -1      1422 2.11329E+01 1.84685E-02-2.91486E-04 1.68590E-01-3.89651E-14 3.77176E-13
 -1      1423 2.13448E+01 2.01661E-02 1.72100E-04 1.78865E-01-3.04075E-14 2.64873E-13
 -1      1424 2.08882E+01 2.76697E-02-4.87928E-03 2.95854E-01-2.31174E-14 2.67241E-13
 -1      1425 2.15491E+01 2.39776E-02-1.75931E-03 2.27560E-01-3.45505E-14 2.13888E-13
 -1      1426 2.18347E+01 2.38700E-02-1.25362E-03 2.41080E-01-3.88812E-14 1.44493E-13
 -1      1427 2.12393E+01 3.66205E-02-6.66168E-03 3.99515E-01-1.06441E-13 1.12156E-13
 -1      1428 2.20963E+01 2.61320E-02-3.28586E-03 2.95304E-01 6.56740E-14 1.46480E-13
 -1      1429 2.24631E+01 2.16533E-02-2.61074E-03 3.09694E-01 1.36818E-14 2.29514E-13
 -1      1430 2.16955E+01 4.12536E-02-8.02962E-03 5.24298E-01 1.96288E-14 1.71848E-13
 -1      1431 2.27789E+01 1.98411E-02-4.04351E-03 3.53605E-01-1.44407E-14 2.07504E-13
 -1      1432 2.32096E+01 8.86507E-03-3.10555E-03 3.63520E-01 6.56983E-15 2.48156E-13
 -1      1433 2.22640E+01 3.34396E-02-7.47960E-03 6.45020E-01-3.48829E-14 1.39746E-13
 -1      1434 2.35556E+01 7.63704E-04-3.05515E-03 3.71725E-01-4.53366E-14 2.87281E-13
 -1      1435 2.39928E+01-1.74279E-02-1.86425E-03 3.69571E-01-7.32327E-14 3.00510E-13
 -1      1436 2.29209E+01 5.05601E-03-3.77019E-03 7.12183E-01 1.32421E-14 1.30964E-13
 -1      1437 2.43188E+01-3.34997E-02 8.55579E-04 3.11306E-01 2.92110E-14 3.75297E-13
 -1      1438 2.46567E+01-5.71490E-02 2.05414E-03 2.88310E-01 9.27314E-14 4.93728E-13
 -1      1439 2.35963E+01-4.91103E-02 3.83996E-03 6.58595E-01-1.83742E-14 3.60024E-13
 -1      1440 2.48867E+01-8.12250E-02 8.56755E-03 1.35703E-01 2.15842E-13 4.47444E-13
 -1      1441 2.49771E+01-1.03651E-01 8.84361E-03 8.43226E-02 9.33229E-14 6.82360E-13
 -1      1442 2.41691E+01-1.27237E-01 1.53492E-02 4.13519E-01 2.48024E-13 3.36613E-13
 -1      1443 2.50188E+01-1.30057E-01 1.88395E-02-1.68801E-01-2.38563E-13 6.88201E-13
 -1      1444 2.47095E+01-1.36680E-01 1.62156E-02-2.47756E-01-3.01937E-13 2.81004E-13
 -1      1445 2.44750E+01-2.10128E-01 2.91271E-02-6.73262E-02-1.27934E-13 3.46568E-13
 -1      1446 2.44837E+01-1.49425E-01 2.57202E-02-5.53047E-01-7.72611E-14 3.39909E-13
 -1      1447 2.37062E+01-1.20567E-01 1.71974E-02-6.38178E-01 6.53366E-14 1.86330E-13
 -1      1448 2.43395E+01-2.50017E-01 3.91050E-02-7.41415E-01-2.59039E-13 2.81673E-13
 -1      1449 2.32052E+01-9.81821E-02 1.88158E-02-8.67667E-01 6.93534E-14 1.58318E-13
 -1      1450 2.20931E+01-2.54706E-02 3.50909E-03-9.11667E-01-1.98999E-14 1.92762E-13
 -1      1451 2.36611E+01-1.80278E-01 3.35076E-02-1.40411E+00 6.40599E-14 3.10977E-13
 -1      1452 2.14508E+01 3.65553E-02-6.56355E-03-8.96107E-01-2.71068E-14 1.21875E-13
 -1      1453 2.03867E+01 1.26659E-01-2.40353E-02-8.49222E-01-5.42986E-14 8.40855E-14
 -1      1454 2.25454E+01 2.66262E-02 1.98261E-03-1.69037E+00-1.18411E-13 1.61149E-13
 -1      1455 1.98831E+01 1.90548E-01-3.78365E-02-5.11719E-01-1.78902E-13-2.66287E-13
 -1      1456 1.93488E+01 2.40682E-01-4.75042E-02-3.75818E-01-1.45071E-13-3.44561E-13
 -1      1457 2.13987E+01 2.85103E-01-4.70481E-02-1.27559E+00-2.84144E-13-3.59227E-14
 -1      1458 1.92574E+01 2.51096E-01-4.95015E-02 1.44418E-01-1.82354E-14-3.29030E-13
 -1      1459 1.95198E+01 2.21743E-01-4.42562E-02 2.94708E-01 5.76934E-14-3.95829E-13
 -1      1460 2.07955E+01 4.26865E-01-7.70125E-02-2.18658E-01-1.58092E-13-3.48866E-13
 -1      1461 1.98840E+01 1.66787E-01-3.17640E-02 7.06742E-01-2.53721E-14-3.58755E-13
 -1      1462 2.07858E+01 8.11649E-02-1.55508E-02 7.81620E-01-6.82718E-14-4.75842E-13
 -1      1463 2.10759E+01 3.45118E-01-5.78648E-02 9.35705E-01 6.32064E-14-2.80052E-13
 -1      1464 2.13729E+01 1.16911E-02-2.87529E-03 8.83241E-01 8.71790E-14-3.55951E-13
 -1      1465 2.24528E+01-7.05506E-02 1.32996E-02 8.59235E-01 1.11840E-13-2.30899E-13
 -1      1466 2.20360E+01 9.66301E-02-1.06062E-02 1.55342E+00 1.15311E-13-1.98237E-13
 -1      1467 2.29599E+01-1.06009E-01 1.54458E-02 6.75199E-01 1.67351E-13-8.49876E-14
 -1      1468 2.37782E+01-1.47222E-01 2.55193E-02 5.93934E-01 1.34462E-13 8.86582E-14
 -1      1469 2.31144E+01-1.41116E-01 2.77787E-02 1.42728E+00 2.76945E-13-1.43309E-13
 -1      1470 2.40240E+01-1.43244E-01 1.82122E-02 2.85116E-01-1.95555E-14 2.12635E-13
 -1      1471 2.43728E+01-1.44122E-01 2.18439E-02 1.98769E-01-8.87172E-14 9.76962E-14
 -1      1472 2.38269E+01-2.51334E-01 4.04763E-02 8.10852E-01 1.48577E-13-2.50435E-13
 -1      1473 2.43309E+01-1.20563E-01 1.22872E-02-8.66859E-02-1.93323E-13 2.82990E-13
 -1      1474 2.42313E+01-9.97792E-02 1.20993E-02-1.49177E-01-1.17016E-13 8.88439E-14
 -1      1475 2.39849E+01-2.36952E-01 3.37089E-02 8.96896E-02-7.22668E-14-4.86846E-14
 -1      1476 2.39687E+01-7.52168E-02 5.55208E-03-3.40624E-01 1.61650E-14 2.12504E-14
 -1      1477 2.35605E+01-4.89796E-02 3.88477E-03-3.73796E-01 4.88940E-14 3.79349E-14
 -1      1478 2.36471E+01-1.60466E-01 2.02241E-02-4.77939E-01-1.36273E-13 1.16280E-13
 -1      1479 2.31725E+01-3.08629E-02 1.27431E-03-4.62613E-01-1.04475E-13 1.75845E-13
 -1      1480 2.26164E+01-6.62427E-03-9.76028E-04-4.71543E-01 2.48675E-14 1.18936E-13
 -1      1481 2.29813E+01-7.58009E-02 7.60766E-03-8.06221E-01 3.37959E-14 3.11327E-13
 -1      1482 2.21921E+01 5.72018E-03-1.37695E-03-4.73560E-01 6.03313E-14-1.87097E-13
 -1      1483 2.16275E+01 2.67295E-02-4.11576E-03-4.63873E-01-1.24609E-13-1.97939E-13
 -1      1484 2.21678E+01-4.34877E-03-2.21829E-03-9.09485E-01-5.82283E-14-6.84626E-14
 -1      1485 2.12392E+01 3.72789E-02-4.65656E-03-3.94649E-01-4.07985E-14-2.75922E-13
 -1      1486 2.07835E+01 5.57750E-02-6.25272E-03-3.67958E-01 9.05985E-14-1.98236E-13
 -1      1487 2.13614E+01 5.58603E-02-9.66047E-03-8.26661E-01-6.41791E-14-3.76253E-13
 -1      1488 2.04813E+01 7.14466E-02-7.09325E-03-2.34516E-01 2.21758E-13-1.70032E-13
 -1      1489 2.02292E+01 7.43332E-02-2.75864E-03-1.94462E-01 4.80662E-14 3.16826E-14
 -1      1490 2.06783E+01 1.16447E-01-1.40642E-02-5.89032E-01 2.38133E-13-4.43128E-13
 -1      1491 2.00120E+01 3.42588E-02-2.58015E-03-3.14580E-03-1.45183E-13 1.85287E-13
 -1      1492 2.01495E+01 1.39426E-01-8.67846E-03-1.92803E-01 6.31474E-14-1.19522E-13
 -1      1493 1.38751E+01 5.94101E-02-1.14163E-01 3.29833E-01 1.74343E-13 8.85535E-13
 -1      1494 1.47769E+01 1.62146E-01-1.73853E-01 5.09273E-01 1.51462E-13 1.18085E-12
 -1      1495 1.51685E+01 6.53625E-01-6.25641E-02 1.47078E+00 3.17454E-13 6.68923E-13
 -1      1496 1.32853E+01 2.62599E-02-1.67816E-02 9.75224E-02 1.36204E-13 5.44554E-13
 -1      1497 1.35472E+01 8.79823E-02-4.71940E-02 1.39487E-01 1.31102E-13 7.65450E-13
 -1      1498 1.41904E+01 1.45992E-01-4.13740E-02 5.14620E-01 2.69316E-13 4.49715E-13
 -1      1499 1.31226E+01 1.27458E-02 3.83264E-03-9.50945E-03 9.66501E-14 2.96405E-13
 -1      1500 1.31616E+01 4.17037E-02 6.31610E-04 1.24917E-02 9.01527E-14 4.51566E-13
 -1      1501 1.37383E+01 5.79888E-02-9.90680E-03 1.35589E-01 2.09954E-13 2.60039E-13
 -1      1502 1.31794E+01 6.30841E-03 5.18111E-03-6.20183E-02 6.86048E-14 1.12514E-13
 -1      1503 1.31164E+01 2.18306E-02 8.45695E-03-4.94526E-02 6.96006E-14 2.27405E-13
 -1      1504 1.36084E+01 2.60199E-02-2.66607E-03-3.87604E-02 1.49635E-13 1.21585E-13
 -1      1505 1.33505E+01 3.02371E-03 3.75827E-03-8.85138E-02 5.49235E-14-6.49654E-15
 -1      1506 1.32374E+01 1.22035E-02 6.70528E-03-8.10702E-02 5.34453E-14 6.67487E-14
 -1      1507 1.36557E+01 1.15897E-02-1.91560E-03-1.26919E-01 1.16945E-13 2.37674E-14
 -1      1508 1.35808E+01 1.15219E-03 2.75676E-03-1.00939E-01 2.71918E-14-1.06014E-13
 -1      1509 1.34437E+01 6.81260E-03 4.41066E-03-9.65604E-02 3.70263E-14-5.27113E-14
 -1      1510 1.38011E+01 4.20830E-03-1.82470E-03-1.71866E-01 8.18950E-14-3.39412E-14
 -1      1511 1.38387E+01 4.62609E-05 2.22270E-03-1.05205E-01 3.39607E-14-1.77077E-13
 -1      1512 1.36920E+01 3.56382E-03 2.96853E-03-1.02768E-01 2.69009E-14-1.32086E-13
 -1      1513 1.39996E+01 1.31530E-04-1.55690E-03-1.92745E-01 6.12240E-14-1.12752E-13
 -1      1514 1.41057E+01-5.79810E-04 1.89115E-03-1.04699E-01 2.88748E-14-2.55396E-13
 -1      1515 1.39578E+01 1.56004E-03 2.12720E-03-1.03498E-01 3.56074E-14-2.04498E-13
 -1      1516 1.42243E+01-2.13340E-03-1.22068E-03-1.99559E-01 5.98846E-14-1.50429E-13
 -1      1517 1.43711E+01-8.80495E-04 1.62656E-03-1.01573E-01 2.34833E-14-3.23418E-13
 -1      1518 1.42267E+01 3.62675E-04 1.59693E-03-1.01130E-01 1.93751E-14-2.99295E-13
 -1      1519 1.44594E+01-3.28019E-03-9.28712E-04-1.98216E-01 6.27513E-14-2.19571E-13
 -1      1520 1.46292E+01-9.51363E-04 1.38569E-03-9.72792E-02 8.00426E-15-3.63340E-13
 -1      1521 1.44907E+01-2.76914E-04 1.23098E-03-9.72544E-02 2.03682E-14-3.35487E-13
 -1      1522 1.46956E+01-3.69002E-03-7.15795E-04-1.92520E-01 3.41984E-14-2.92585E-13
 -1      1523 1.48779E+01-8.54781E-04 1.15880E-03-9.28379E-02 4.94106E-14-4.30342E-13
 -1      1524 1.47458E+01-5.13372E-04 9.66237E-04-9.29806E-02 2.91394E-14-3.89007E-13
 -1      1525 1.49278E+01-3.59624E-03-5.81040E-04-1.85064E-01 5.04436E-14-2.86518E-13
 -1      1526 1.51173E+01-6.30931E-04 9.44179E-04-8.89897E-02 1.97380E-14-5.09636E-13
 -1      1527 1.49912E+01-4.46094E-04 7.73466E-04-8.91073E-02 3.89607E-14-4.67910E-13
 -1      1528 1.51542E+01-3.14786E-03-5.15841E-04-1.77684E-01 6.87562E-14-3.32142E-13
 -1      1529 1.53495E+01-3.04017E-04 7.40269E-04-8.62999E-02-2.22032E-15-5.28191E-13
 -1      1530 1.52280E+01-1.37544E-04 6.36164E-04-8.62356E-02-8.10756E-15-5.29952E-13
 -1      1531 1.53751E+01-2.43885E-03-5.13297E-04-1.71736E-01 1.35673E-14-3.36533E-13
 -1      1532 1.55779E+01 1.13268E-04 5.44015E-04-8.52307E-02 3.70835E-14-6.10703E-13
 -1      1533 1.54590E+01 3.76177E-04 5.43030E-04-8.48471E-02 3.22192E-14-5.50209E-13
 -1      1534 1.55923E+01-1.52468E-03-5.70200E-04-1.68275E-01 4.23587E-14-4.13002E-13
 -1      1535 1.58072E+01 6.15535E-04 3.50945E-04-8.61899E-02-6.75564E-15-6.47125E-13
 -1      1536 1.56881E+01 1.07747E-03 4.85228E-04-8.53570E-02 1.47681E-14-6.16300E-13
 -1      1537 1.58091E+01-4.33982E-04-6.86802E-04-1.68182E-01 2.33341E-14-3.97230E-13
 -1      1538 1.60430E+01 1.19993E-03 1.55987E-04-8.95602E-02 2.97841E-14-6.95742E-13
 -1      1539 1.59206E+01 1.95955E-03 4.55173E-04-8.81476E-02 1.28275E-14-6.75564E-13
 -1      1540 1.60298E+01 8.20655E-04-8.65816E-04-1.72242E-01 3.06868E-14-4.46116E-13
 -1      1541 1.62920E+01 1.86021E-03-4.51651E-05-9.57033E-02 2.01201E-14-7.88317E-13
 -1      1542 1.61627E+01 3.01744E-03 4.45842E-04-9.35783E-02 4.59912E-14-7.12971E-13
 -1      1543 1.62597E+01 2.23074E-03-1.11078E-03-1.81186E-01 7.22877E-14-5.18905E-13
 -1      1544 1.65619E+01 2.57931E-03-2.53980E-04-1.04935E-01-4.55020E-14-8.03641E-13
 -1      1545 1.64213E+01 4.23652E-03 4.50401E-04-1.01968E-01-2.28438E-14-8.29912E-13
 -1      1546 1.65049E+01 3.77725E-03-1.42353E-03-1.95670E-01 2.20834E-14-5.02803E-13
 -1      1547 1.68607E+01 3.32068E-03-4.65912E-04-1.17464E-01 3.94866E-15-7.95314E-13
 -1      1548 1.67043E+01 5.57837E-03 4.62305E-04-1.13546E-01-1.47256E-15-7.80129E-13
 -1      1549 1.67721E+01 5.41287E-03-1.80044E-03-2.16204E-01-1.27936E-14-4.86946E-13
 -1      1550 1.71968E+01 4.01983E-03-6.64836E-04-1.33294E-01-1.09763E-13-6.91629E-13
 -1      1551 1.70200E+01 6.96509E-03 4.76624E-04-1.28358E-01-6.85621E-14-7.49988E-13
 -1      1552 1.70684E+01 7.04215E-03-2.22690E-03-2.43002E-01-7.85678E-14-4.35748E-13
 -1      1553 1.75780E+01 4.57631E-03-8.11369E-04-1.52081E-01-1.12324E-14-5.78530E-13
 -1      1554 1.73763E+01 8.26277E-03 4.94666E-04-1.46144E-01-6.18028E-14-6.51294E-13
 -1      1555 1.74007E+01 8.50221E-03-2.66827E-03-2.75761E-01-1.34605E-13-3.87042E-13
 -1      1556 1.80104E+01 4.83610E-03-8.19148E-04-1.72945E-01-8.45669E-14-5.56553E-13
 -1      1557 1.77804E+01 9.25498E-03 5.34503E-04-1.66166E-01 1.09677E-14-5.30269E-13
 -1      1558 1.77749E+01 9.54028E-03-3.05356E-03-3.13362E-01-5.14805E-14-2.73796E-13
 -1      1559 1.84964E+01 4.54329E-03-5.38981E-04-1.94159E-01-5.74233E-14-4.47026E-13
 -1      1560 1.82367E+01 9.58141E-03 6.47764E-04-1.86940E-01-1.04286E-13-6.37928E-13
 -1      1561 1.81945E+01 9.74752E-03-3.25475E-03-3.53432E-01-8.87651E-14-3.30733E-13
 -1      1562 1.90322E+01 3.24299E-03 1.75157E-04-2.12561E-01 4.74842E-14-3.33225E-13
 -1      1563 1.87450E+01 8.60212E-03 8.79634E-04-2.05767E-01-3.87636E-14-4.00052E-13
 -1      1564 1.86595E+01 8.45771E-03-3.07948E-03-3.91583E-01-6.51280E-14-3.66717E-13
 -1      1565 1.96035E+01 3.72905E-04 1.33532E-03-2.22780E-01-4.44233E-14-3.30011E-13
 -1      1566 1.92973E+01 5.37484E-03 1.16252E-03-2.18088E-01 6.13756E-14-2.80866E-13
 -1      1567 1.91634E+01 4.48598E-03-2.48883E-03-4.20294E-01 3.75070E-14-1.75722E-13
 -1      1568 2.01813E+01-3.40735E-03 2.72905E-03-2.18399E-01-1.44840E-14-2.79679E-13
 -1      1569 1.98734E+01-1.32682E-04 1.54777E-03-2.17802E-01-6.82733E-15-2.95912E-13
 -1      1570 1.96905E+01-3.10971E-03-1.68266E-03-4.28680E-01-2.67256E-14-6.12479E-14
 -1      1571 2.07272E+01-5.62839E-03 3.45382E-03-1.98707E-01 2.97574E-14-4.16062E-13
 -1      1572 2.04391E+01-5.44988E-03 1.87870E-03-2.02027E-01 6.62686E-15-3.79010E-13
 -1      1573 2.02127E+01-1.08775E-02-4.77713E-04-4.08194E-01 2.86375E-14-1.43914E-13
 -1      1574 2.12113E+01-6.22592E-03 2.23536E-03-1.71659E-01-9.25360E-14-4.24372E-13
 -1      1575 2.09583E+01-8.19917E-03 1.23311E-03-1.76597E-01-1.20531E-14-4.50254E-13
 -1      1576 2.06973E+01-1.52032E-02-1.91663E-04-3.65179E-01-2.64931E-14-1.84191E-13
 -1      1577 2.16187E+01-9.13800E-03 1.71691E-03-1.39903E-01 1.01125E-13-5.51093E-13
 -1      1578 2.14081E+01-1.14559E-02-2.47024E-04-1.46304E-01 1.67407E-14-4.91991E-13
 -1      1579 2.11240E+01-1.62335E-02 8.21670E-04-3.10636E-01 7.92248E-15-2.94801E-13
 -1      1580 2.19155E+01-1.73795E-02 4.76072E-03-8.75180E-02-1.66503E-14-7.15107E-13
 -1      1581 2.17672E+01-2.14217E-02-6.84313E-04-1.00601E-01 6.07578E-14-7.03449E-13
 -1      1582 2.14746E+01-2.42486E-02 4.27051E-03-2.34047E-01 1.25035E-13-4.79184E-13
 -1      1583 2.20188E+01-2.89585E-02 1.05730E-02 7.78286E-03-9.81823E-14-3.88711E-13
 -1      1584 2.19821E+01-3.92995E-02 8.69292E-04-1.88156E-02-1.13059E-13-5.63946E-13
 -1      1585 2.17053E+01-4.52369E-02 1.00318E-02-1.00180E-01-1.06156E-13-4.78327E-13
 -1      1586 2.18148E+01-3.82591E-02 1.58612E-02 1.52994E-01-1.79162E-13-5.26159E-14
 -1      1587 2.19580E+01-5.92100E-02 3.49353E-03 1.10016E-01-9.28641E-14-3.13342E-13
 -1      1588 2.17400E+01-7.21881E-02 1.65116E-02 1.18848E-01-2.10825E-13-2.06097E-13
 -1      1589 2.12157E+01-3.72528E-02 1.63029E-02 3.26043E-01 1.64517E-13-1.29237E-13
 -1      1590 2.15914E+01-6.99566E-02 5.39756E-03 2.72064E-01 6.07171E-14-6.93924E-14
 -1      1591 2.14992E+01-8.94178E-02 2.10848E-02 4.12038E-01-2.14950E-14-1.84680E-13
 -1      1592 2.02371E+01-1.80790E-02 6.98588E-03 4.68346E-01 1.27413E-13-4.38899E-13
 -1      1593 2.08348E+01-5.74173E-02 4.12257E-03 4.20106E-01 1.45147E-13-2.32529E-13
 -1      1594 2.09466E+01-7.72224E-02 1.95924E-02 7.09704E-01 2.48819E-13-2.88911E-13
 -1      1595 1.90690E+01 1.83157E-02-1.27965E-02 4.96481E-01 1.22885E-13-6.27540E-13
 -1      1596 1.97723E+01-1.37105E-02-2.53671E-03 4.78898E-01 9.53972E-14-5.45855E-13
 -1      1597 2.01478E+01-1.97203E-02 9.23395E-03 8.83358E-01 1.67572E-13-3.84130E-13
 -1      1598 1.80689E+01 5.50014E-02-3.36599E-02 3.54809E-01-4.73710E-14-6.35485E-13
 -1      1599 1.86633E+01 4.82274E-02-1.29553E-02 3.84728E-01-5.38441E-14-6.58015E-13
 -1      1600 1.93063E+01 7.33510E-02-6.81910E-03 7.99185E-01-6.34562E-15-3.13064E-13
 -1      1601 1.76092E+01 7.05204E-02-4.06303E-02 7.52576E-02-2.41408E-13-2.86574E-13
 -1      1602 1.78755E+01 9.65306E-02-1.99100E-02 1.45485E-01-1.52843E-13-5.10154E-13
 -1      1603 1.87126E+01 1.55363E-01-1.99488E-02 4.25631E-01-2.61319E-13-1.09926E-13
 -1      1604 1.78619E+01 5.54035E-02-3.27763E-02-2.26830E-01 7.48134E-14-1.83215E-13
 -1      1605 1.77039E+01 1.04654E-01-1.82821E-02-1.47654E-01-6.62387E-14-2.38861E-13
 -1      1606 1.85971E+01 1.74467E-01-2.51093E-02-1.08491E-01-1.80623E-13-4.19552E-14
 -1      1607 1.87091E+01 2.18355E-02-1.01471E-02-4.30470E-01-1.46046E-14-2.41460E-13
 -1      1608 1.82003E+01 7.20497E-02-9.66018E-03-3.73054E-01 5.09176E-14-1.20980E-13
 -1      1609 1.89964E+01 1.23381E-01-1.94709E-02-5.83959E-01 8.82436E-14-6.77410E-14
 -1      1610 1.98209E+01-1.29795E-02 1.21397E-02-4.74841E-01-7.16440E-14-2.25070E-13
 -1      1611 1.91586E+01 1.96059E-02 3.10477E-03-4.56065E-01-1.35132E-14-2.33903E-13
 -1      1612 1.97441E+01 3.18955E-02-8.16618E-03-8.28165E-01-3.51628E-14 1.55126E-13
 -1      1613 2.08340E+01-3.46343E-02 2.48783E-02-3.78562E-01 2.05132E-13-2.58710E-13
 -1      1614 2.02319E+01-2.69109E-02 1.19141E-02-3.94679E-01-3.82550E-14-2.86521E-13
 -1      1615 2.05669E+01-5.29185E-02 1.50146E-03-7.93814E-01 1.39819E-15-8.52582E-14
 -1      1616 2.15016E+01-4.00197E-02 2.66017E-02-2.08151E-01 1.35646E-13-5.00582E-13
 -1      1617 2.11036E+01-5.24393E-02 1.45065E-02-2.43828E-01 1.40616E-13-2.12375E-13
 -1      1618 2.12200E+01-9.98748E-02 7.12138E-03-5.55140E-01 2.40728E-13 6.62664E-16
 -1      1619 2.17425E+01-3.35454E-02 2.08398E-02-3.19731E-02 3.39034E-14-8.02225E-13
 -1      1620 2.15946E+01-5.61786E-02 1.21577E-02-7.12763E-02 1.62375E-13-5.25307E-13
 -1      1621 2.15683E+01-1.05490E-01 8.83406E-03-2.35552E-01 2.52420E-13 7.03465E-14
 -1      1622 2.16084E+01-2.12294E-02 1.21341E-02 1.04878E-01-5.42283E-14-7.15625E-13
 -1      1623 2.16789E+01-4.49575E-02 7.54620E-03 7.27721E-02-8.25832E-14-8.73147E-13
 -1      1624 2.15951E+01-8.31838E-02 7.77288E-03 5.85612E-02-2.53868E-14-1.81423E-13
 -1      1625 2.12243E+01-7.23591E-03 3.24083E-03 1.82321E-01 8.48388E-15-5.02451E-13
 -1      1626 2.14388E+01-2.61264E-02 2.80868E-03 1.62858E-01-7.80495E-15-5.25512E-13
 -1      1627 2.13666E+01-4.85426E-02 4.93407E-03 2.64406E-01-1.14647E-13-2.02002E-13
 -1      1628 2.07418E+01 6.62402E-03-4.77334E-03 1.95732E-01 5.05056E-14-6.57353E-13
 -1      1629 2.10106E+01-4.25233E-03-1.31871E-03 1.91292E-01 2.86047E-14-6.30931E-13
 -1      1630 2.09897E+01-1.14177E-02 7.45636E-04 3.57115E-01 1.26214E-13-2.60232E-13
 -1      1631 2.03125E+01 1.91319E-02-9.81034E-03 1.47222E-01 1.63498E-16-6.70655E-13
 -1      1632 2.05440E+01 1.83664E-02-4.53839E-03 1.59363E-01 8.15428E-14-6.14932E-13
 -1      1633 2.05809E+01 2.51192E-02-3.84765E-03 3.33727E-01 5.45811E-14-2.76948E-13
 -1      1634 2.00637E+01 2.85051E-02-7.14464E-04 5.35306E-02-1.56775E-14-7.44140E-13
 -1      1635 2.01759E+01 3.58055E-02-4.24296E-03 7.80004E-02 6.65444E-14-7.09729E-13
 -1      1636 2.02419E+01 5.67601E-02-5.79727E-03 2.07077E-01 1.34815E-13-4.33744E-13
 -1      1637 2.00057E+01 1.70335E-02 2.83108E-03 1.13906E-03-4.11067E-13-4.30699E-13
 -1      1638 2.00407E+01 2.59675E-01-4.74988E-03 1.28819E-01-2.55114E-13 3.00729E-13
 -1      1639 2.00436E+01 1.30152E-01 1.28190E-03 1.01820E-01-5.60403E-13 1.20974E-13
 -1      1640 2.00346E+01 7.07133E-01-2.68216E-03 2.36936E-01 1.21656E-14 7.72707E-14
 -1      1641 2.00401E+01 4.37662E-01-3.72032E-03 2.16738E-01-1.24798E-13 6.42693E-14
 -1      1642 2.00782E+01 3.90413E-01-9.19512E-03 3.36814E-01-2.16407E-15 2.48341E-13
 -1      1643 2.00253E+01 1.34112E+00-1.47766E-03 3.26333E-01 7.75664E-14-7.63716E-14
 -1      1644 2.00329E+01 9.59631E-01-3.40049E-03 3.10356E-01 1.81027E-13-8.04244E-14
 -1      1645 2.00594E+01 8.11059E-01-9.37013E-03 5.30429E-01 1.89051E-13 9.99695E-14
 -1      1646 2.00119E+01 2.11598E+00-9.88249E-04 3.87822E-01 6.30017E-13 2.58500E-13
 -1      1647 2.00222E+01 1.65791E+00-2.92966E-03 3.77884E-01 1.33024E-13 3.33238E-13
 -1      1648 2.00401E+01 1.36975E+00-7.41200E-03 6.81133E-01 9.97379E-14 1.86261E-13
 -1      1649 1.99927E+01 2.94087E+00-5.60726E-04 4.07066E-01 6.32688E-13 1.44472E-14
 -1      1650 2.00059E+01 2.46402E+00-2.34599E-03 4.06475E-01 5.67366E-13 2.27146E-14
 -1      1651 2.00143E+01 2.02599E+00-3.19522E-03 7.66666E-01 2.09137E-13 1.36336E-13
 -1      1652 1.99688E+01 3.73618E+00 4.53666E-04 3.69079E-01 4.93498E-13-2.36827E-13
 -1      1653 1.99839E+01 3.29147E+00-1.08384E-03 3.81021E-01 6.48252E-13-1.01404E-13
 -1      1654 1.99801E+01 2.71746E+00 2.89176E-03 7.59851E-01 9.02030E-14-7.87053E-14
 -1      1655 1.99462E+01 4.35726E+00 1.80811E-03 2.65808E-01 2.14691E-13-1.03259E-13
 -1      1656 1.99593E+01 4.02889E+00 6.86278E-04 2.91126E-01 3.51358E-13-1.21971E-13
 -1      1657 1.99403E+01 3.35685E+00 1.02782E-02 6.35760E-01 6.71251E-15-3.50888E-13
 -1      1658 1.99316E+01 4.68272E+00 2.90339E-03 1.06364E-01 2.49986E-13-6.60010E-14
 -1      1659 1.99387E+01 4.53796E+00 2.42355E-03 1.41808E-01 1.76598E-13-4.02213E-14
 -1      1660 1.99051E+01 3.82974E+00 1.70551E-02 3.92100E-01 1.54809E-13-1.85346E-13
 -1      1661 1.99302E+01 4.63464E+00 3.11269E-03-8.22781E-02-3.55636E-14-1.14532E-13
 -1      1662 1.99289E+01 4.71134E+00 3.46214E-03-4.35544E-02-2.62326E-14 5.18171E-14
 -1      1663 1.98852E+01 4.04052E+00 2.09305E-02 6.01846E-02 7.73161E-14-2.34788E-13
 -1      1664 1.99428E+01 4.20593E+00 2.26165E-03-2.62619E-01-7.82461E-13-5.31750E-13
 -1      1665 1.99337E+01 4.49916E+00 3.58696E-03-2.28797E-01-7.57953E-14-5.46460E-13
 -1      1666 1.98874E+01 3.93616E+00 2.03854E-02-2.99375E-01-1.59701E-13-4.28808E-13
 -1      1667 1.99659E+01 3.47961E+00 9.01529E-04-3.97194E-01-9.95263E-13 7.66470E-14
 -1      1668 1.99508E+01 3.93277E+00 2.73994E-03-3.75236E-01-8.28108E-13-3.09389E-13
 -1      1669 1.99124E+01 3.53018E+00 1.58142E-02-6.12876E-01-3.79653E-13-6.44156E-13
 -1      1670 1.99950E+01 2.55508E+00-1.05918E-03-4.66516E-01-5.44103E-13 1.39564E-13
 -1      1671 1.99765E+01 3.10658E+00 1.45577E-03-4.58778E-01-9.25964E-13 4.09799E-13
 -1      1672 1.99519E+01 2.88991E+00 8.20954E-03-8.23108E-01-2.88965E-13 1.98559E-13
 -1      1673 2.00248E+01 1.60095E+00-3.61364E-03-4.58039E-01 7.58976E-14 1.71035E-13
 -1      1674 2.00056E+01 2.14914E+00-6.58786E-04-4.65304E-01-2.02928E-13 1.40028E-13
 -1      1675 2.00010E+01 2.11739E+00-3.51785E-04-8.95863E-01-1.65239E-13 4.28092E-13
 -1      1676 2.00569E+01 7.93678E-01-1.31191E-03-3.66795E-01 4.52763E-14-6.13251E-14
 -1      1677 2.00341E+01 1.22843E+00-4.11912E-03-3.90467E-01 2.55018E-13-2.87192E-14
 -1      1678 2.00561E+01 1.34302E+00-7.89912E-03-8.15036E-01 1.29223E-13 9.45199E-14
 -1      1679 2.01151E+01 3.17293E-01 6.18302E-03-2.82707E-01 1.40702E-13-6.41267E-14
 -1      1680 2.01023E+01 5.61765E-01-3.12304E-03-3.50679E-01 2.09119E-13-4.82826E-14
 -1      1681 2.01531E+01 7.39772E-01-1.33218E-02-6.86282E-01 1.80647E-13 5.28119E-14
 -1      1682 2.03299E+01 3.36325E-01-3.63039E-03-5.43375E-01 2.43110E-13-3.50287E-13
 -1      1683-6.81936E-01-1.59938E+01-1.79856E+00-1.06307E+00 3.71370E-13 7.22006E-13
 -1      1684-6.70137E-01-1.82746E+01-2.00711E+00 3.71059E-01-8.77243E-13 5.05318E-13
 -1      1685 1.34192E+00-8.90523E+00-1.24340E+00 4.72841E-01 1.72640E-12 1.26857E-12
 -1      1686 5.80609E-01-1.43080E+01-1.80591E+00-1.18073E-01 7.06990E-13 9.22155E-13
 -1      1687 6.99354E+00-1.00826E+00-5.42140E-01 4.54978E+00 1.90958E-12 1.16551E-12
 -1      1688 3.93682E+00-6.77978E+00-1.34226E+00 1.68675E+00 2.05080E-12 9.70002E-13
 -1      1689 1.66209E+01 4.86666E+00 2.09202E-01 9.55059E+00 1.62559E-12 1.60383E-12
 -1      1690 1.05313E+01 1.13501E+00-6.99139E-01 5.84760E+00 1.76392E-12 1.49047E-12
 -1      1691 3.00342E+01 6.72602E+00 8.97596E-01 1.28571E+01 1.06137E-12 1.01985E-12
 -1      1692 2.14470E+01 6.01398E+00 7.34361E-02 1.04950E+01 1.52234E-12 1.31539E-12
 -1      1693 4.38918E+01 5.50843E+00 1.42405E+00 1.13049E+01 5.52891E-13 9.90097E-13
 -1      1694 3.51660E+01 6.82068E+00 7.96346E-01 1.21029E+01 8.12017E-13 1.03473E-12
 -1      1695 5.34748E+01 4.00854E+00 1.73492E+00 5.92237E+00 3.71952E-13 6.26055E-13
 -1      1696 4.78427E+01 5.57796E+00 1.39337E+00 1.01062E+01 3.96322E-13 8.94951E-13
 -1      1697 5.44641E+01 3.80607E+00 1.64667E+00-2.29936E+00 3.17080E-13-1.07414E-13
 -1      1698 5.46071E+01 3.91034E+00 1.66744E+00 3.41496E+00 4.05898E-13 4.49335E-13
 -1      1699 4.78743E+01 5.09338E+00 1.40716E+00-9.33731E+00 2.34042E-13-4.92495E-13
 -1      1700 5.36183E+01 3.67871E+00 1.76366E+00-5.10752E+00 1.05790E-13-3.46223E-13
 -1      1701 3.48748E+01 6.43351E+00 8.72516E-01-1.16682E+01 3.40172E-13-3.87690E-13
 -1      1702 4.37565E+01 5.19153E+00 1.50922E+00-1.07762E+01 2.39031E-13-3.45834E-13
 -1      1703 2.12640E+01 5.31065E+00 1.86306E-01-9.77239E+00 4.28768E-13-4.51195E-13
 -1      1704 2.97560E+01 6.01637E+00 9.76497E-01-1.19613E+01 3.76033E-13-3.95906E-13
 -1      1705 9.94394E+00 7.37589E-01-5.92941E-01-5.31790E+00 5.81757E-13-4.41869E-13
 -1      1706 1.60398E+01 4.42994E+00 2.81705E-01-9.01590E+00 4.70957E-13-4.36762E-13
 -1      1707 3.74284E+00-7.66531E+00-1.21860E+00-1.42045E+00 7.06213E-13-2.25209E-13
 -1      1708 6.70619E+00-1.86483E+00-4.78667E-01-4.19800E+00 5.24913E-13-3.91798E-13
 -1      1709 1.62215E-01-1.48875E+01-1.78567E+00 4.66242E-01 1.03373E-12-1.96738E-13
 -1      1710 5.84021E-01-9.89731E+00-1.29457E+00 2.85561E-01 9.21929E-13-1.59012E-13
 -1      1711-7.21315E-01-1.74793E+01-1.81670E+00-5.14320E-01 4.65648E-13-4.51056E-13
 -1      1712-7.36728E-01-1.59506E+01-1.70263E+00 1.04026E+00 1.04866E-12-3.98764E-13
 -1      1713-4.03897E-01-1.40250E+01-1.52179E+00-8.46913E-01-1.76970E-13-2.67480E-13
 -1      1714-4.79771E-01-1.67268E+01-1.74414E+00 2.35152E-01 3.73701E-13-3.73923E-13
 -1      1715 1.61163E+00-7.68735E+00-1.19602E+00 4.44225E-01-5.82201E-13-4.55552E-13
 -1      1716 7.62958E-01-1.30366E+01-1.71056E+00-3.61576E-01-2.76890E-13-3.04395E-13
 -1      1717 7.58756E+00-1.80599E-01-5.30524E-01 4.78068E+00-8.37108E-13-8.72191E-13
 -1      1718 4.28152E+00-5.53580E+00-1.28914E+00 1.76874E+00-7.43405E-13-4.75953E-13
 -1      1719 1.82760E+01 4.89381E+00 2.55079E-01 9.78805E+00-1.06581E-12-1.46838E-12
 -1      1720 1.16630E+01 1.64600E+00-6.43116E-01 6.13699E+00-8.80185E-13-1.06426E-12
 -1      1721 3.26607E+01 6.31039E+00 1.03801E+00 1.25872E+01-9.76996E-13-1.87050E-12
 -1      1722 2.34328E+01 5.93490E+00 1.53015E-01 1.05782E+01-9.84768E-13-1.54410E-12
 -1      1723 4.64700E+01 5.05602E+00 1.64490E+00 1.07223E+01-8.04523E-13-9.73666E-13
 -1      1724 3.78256E+01 6.53264E+00 9.80159E-01 1.21335E+01-1.11150E-12-1.56586E-12
 -1      1725 5.51238E+01 3.67769E+00 1.96335E+00 3.94964E+00-5.34711E-13 3.56715E-13
 -1      1726 4.99829E+01 4.98761E+00 1.60597E+00 8.66292E+00-7.34038E-13-5.06484E-13
 -1      1727 5.57269E+01 3.78712E+00 1.95361E+00-4.07960E+00-7.47236E-13 1.55748E-12
 -1      1728 5.65416E+01 3.51119E+00 1.99057E+00 1.39876E+00-5.67879E-13 7.39492E-13
 -1      1729 4.76625E+01 5.45656E+00 1.51737E+00-1.02944E+01-7.15164E-13 1.96143E-12
 -1      1730 5.39502E+01 3.92369E+00 1.97834E+00-6.46642E+00-5.27384E-13 1.80567E-12
 -1      1731 3.43541E+01 6.78238E+00 8.34480E-01-1.23265E+01-1.71252E-13 1.41132E-12
 -1      1732 4.34778E+01 5.62089E+00 1.57107E+00-1.18702E+01-4.55608E-13 2.00973E-12
 -1      1733 2.06943E+01 5.33445E+00 2.35369E-02-9.85808E+00-8.63198E-13 8.20677E-13
 -1      1734 2.91142E+01 6.33078E+00 8.79454E-01-1.23597E+01-4.92273E-13 1.01408E-12
 -1      1735 9.86362E+00 2.26421E-01-7.54741E-01-5.15627E+00-1.96709E-12 9.41358E-13
 -1      1736 1.57464E+01 4.10225E+00 1.09924E-01-8.86537E+00-1.23768E-12 4.85056E-13
 -1      1737 3.74979E+00-7.74292E+00-1.36983E+00-1.32866E+00-2.22355E-12 1.05255E-12
 -1      1738 6.55343E+00-2.18165E+00-6.50027E-01-3.97284E+00-2.04015E-12 9.50684E-13
 -1      1739 2.90904E-01-1.48474E+01-1.87125E+00 5.89183E-01-2.36822E-12 6.40089E-13
 -1      1740 8.33799E-01-9.80047E+00-1.36648E+00 2.19238E-01-2.40719E-12 1.15188E-12
 -1      1741-6.62879E-01-1.80230E+01-1.95267E+00-1.81237E-01-1.28313E-12 7.30999E-13
 -1      1742-6.99107E-01-1.59957E+01-1.77697E+00 1.20027E+00-2.08256E-12 6.94500E-13
 -1      1743 2.37213E+01 7.79995E-01 2.42494E-01 7.82894E+00 1.06648E-12 6.91003E-13
 -1      1744 1.40250E+01-3.69881E+00-4.02495E-01 6.58135E+00 1.19216E-12 8.12683E-13
 -1      1745 2.00446E+01 4.84600E-02-3.55483E-03 5.03886E-02-5.06927E-13-2.74217E-13
 -1      1746 2.01033E+01 1.49353E-01-3.97705E-03 1.73187E-01-1.23331E-13 3.85409E-14
 -1      1747 4.52048E-01-1.12851E+01-1.26683E+00 2.45801E+00 1.78579E-13 1.40393E-12
 -1      1748 6.01592E+00-7.92160E+00-8.74343E-01 4.80163E+00 8.80296E-13 9.91367E-13
 -1      1749-1.46307E+00-1.26219E+01-1.40842E+00 1.10641E-01-6.50958E-13 1.15569E-12
 -1      1750 3.39306E+01 3.95461E+00 8.07969E-01 7.31889E+00 9.26148E-13 7.49067E-13
 -1      1751 4.20331E+01 6.18023E+00 1.17918E+00 5.16564E+00 5.29604E-13 7.23088E-13
 -1      1752 4.66710E+01 7.51995E+00 1.42498E+00 2.31299E+00 5.15477E-13 2.13662E-13
 -1      1753 4.68493E+01 7.40079E+00 1.46879E+00-1.38625E+00 4.05065E-13-9.81160E-14
 -1      1754 4.22115E+01 5.96229E+00 1.29571E+00-4.60005E+00 1.72751E-13-2.54019E-13
 -1      1755 3.34949E+01 3.54157E+00 8.83331E-01-6.54697E+00 1.75499E-13-7.73825E-14
 -1      1756 2.31529E+01 3.41754E-01 3.15525E-01-7.13800E+00 9.69225E-14-3.77476E-14
 -1      1757 1.33432E+01-4.31211E+00-3.79777E-01-6.05816E+00 1.27454E-13-1.58151E-13
 -1      1758 5.36965E+00-8.15608E+00-7.52961E-01-4.41852E+00 2.40696E-13 1.34035E-13
 -1      1759-1.09218E-01-1.14375E+01-1.24863E+00-1.85851E+00 3.83360E-13-2.17271E-13
 -1      1760-1.30031E+00-1.15136E+01-1.21745E+00 4.02180E-01 2.31253E-13-5.38902E-13
 -1      1761 1.07323E+00-1.03376E+01-1.13955E+00 2.52934E+00 7.07767E-14-4.02373E-13
 -1      1762 6.58766E+00-7.33954E+00-8.57604E-01 4.44868E+00-2.35034E-13-4.26839E-13
 -1      1763 1.50042E+01-3.08997E+00-3.24996E-01 6.31475E+00-3.63487E-13-8.95617E-13
 -1      1764 2.52062E+01 9.23812E-01 2.76273E-01 7.37083E+00-3.53717E-13-9.18821E-13
 -1      1765 3.56331E+01 4.12280E+00 8.98232E-01 6.95751E+00-7.21034E-13-8.14571E-13
 -1      1766 4.38106E+01 6.24316E+00 1.36779E+00 4.57341E+00-9.65478E-13-3.08642E-14
 -1      1767 4.80405E+01 7.34287E+00 1.62773E+00 1.11345E+00-1.00786E-12 5.40068E-13
 -1      1768 4.78558E+01 7.04513E+00 1.64017E+00-2.53984E+00-8.95617E-13 1.23573E-12
 -1      1769 4.22796E+01 5.92544E+00 1.32515E+00-5.52230E+00-3.14332E-13 1.45239E-12
 -1      1770 3.34028E+01 3.45841E+00 7.88687E-01-7.30234E+00-2.50744E-13 1.44817E-12
 -1      1771 2.29508E+01 5.50346E-02 1.48564E-01-7.32208E+00-1.13720E-12 5.47784E-13
 -1      1772 1.33900E+01-4.41341E+00-4.62348E-01-6.10252E+00-1.32916E-12 1.99896E-13
 -1      1773 5.57546E+00-8.39186E+00-8.94749E-01-4.39994E+00-1.60427E-12 7.91922E-13
 -1      1774 1.84960E-01-1.14803E+01-1.29440E+00-1.95746E+00-1.44901E-12 8.36275E-13
 -1      1775 2.56648E+01 2.17492E+00-1.49734E-02-3.00028E+00-2.14370E-13 1.67455E-12
 -1      1776 2.08000E+01 3.87414E+00-3.94972E-02-2.46715E+00-4.25073E-13 1.67366E-14
 -1      1777 2.13314E+01 3.76183E+00-4.75506E-02-2.76736E+00-4.49831E-13 1.81258E-13
 -1      1778 2.19645E+01 3.38621E+00-5.23332E-02-2.90412E+00-4.26372E-13 3.61662E-13
 -1      1779 2.25036E+01 3.02787E+00-1.57451E-01-3.18978E+00-4.15723E-13 5.99479E-13
 -1      1780 2.18800E+01 2.83725E+00-3.07690E-03-2.55793E+00-4.52265E-13 2.75419E-13
 -1      1781 1.92446E+01 4.15841E+00-2.14699E-02-1.58478E+00-3.38334E-13-2.96412E-13
 -1      1782 1.95752E+01 4.18008E+00-1.73342E-02-1.80801E+00-3.72219E-13-2.42022E-13
 -1      1783 1.86411E+01 4.15359E+00-1.73052E-02-1.18742E+00-2.69639E-13-3.74287E-13
 -1      1784 1.89355E+01 4.19324E+00-1.37841E-02-1.39170E+00-3.07756E-13-3.32755E-13
 -1      1785 1.92833E+01 3.72838E+00-9.07953E-03-1.48633E+00-3.49596E-13-2.89676E-13
 -1      1786 1.80961E+01 4.10049E+00-1.47701E-02-8.15719E-01-1.97055E-13-4.27287E-13
 -1      1787 1.83641E+01 4.15135E+00-1.22526E-02-1.00503E+00-2.34346E-13-4.01455E-13
 -1      1788 1.86789E+01 3.74939E+00-8.79548E-03-1.11656E+00-2.68259E-13-3.65024E-13
 -1      1789 1.75890E+01 4.01234E+00-1.32208E-02-4.61091E-01-1.31270E-13-4.64000E-13
 -1      1790 1.78394E+01 4.07172E+00-1.17089E-02-6.41322E-01-1.61661E-13-4.47448E-13
 -1      1791 1.81330E+01 3.71144E+00-8.53859E-03-7.64602E-01-1.89260E-13-4.21010E-13
 -1      1792 1.71081E+01 3.89520E+00-1.23385E-02-1.15552E-01-6.60574E-14-4.95550E-13
 -1      1793 1.73460E+01 3.96221E+00-1.17573E-02-2.91504E-01-1.00068E-13-4.75711E-13
 -1      1794 1.76266E+01 3.62903E+00-8.31915E-03-4.25165E-01-1.19887E-13-4.58073E-13
 -1      1795 1.66480E+01 3.75050E+00-1.20252E-02 2.28250E-01 3.02753E-15-5.28159E-13
 -1      1796 1.68755E+01 3.82543E+00-1.22916E-02 5.22667E-02-2.93953E-14-5.12054E-13
 -1      1797 1.71491E+01 3.50840E+00-8.15177E-03-9.24095E-02-4.92521E-14-4.79340E-13
 -1      1798 1.62158E+01 3.57889E+00-1.24162E-02 5.71434E-01 7.97047E-14-5.41714E-13
 -1      1799 1.64286E+01 3.66150E+00-1.34207E-02 3.94181E-01 4.34895E-14-5.34919E-13
 -1      1800 1.66997E+01 3.35149E+00-7.97185E-03 2.36276E-01 3.32242E-14-5.09242E-13
 -1      1801 1.58046E+01 3.36562E+00-1.41378E-02 9.32867E-01 1.66335E-13-5.30066E-13
 -1      1802 1.60049E+01 3.46281E+00-1.55116E-02 7.43213E-01 1.19973E-13-5.34217E-13
 -1      1803 1.62763E+01 3.15163E+00-7.80693E-03 5.68185E-01 1.15709E-13-5.11756E-13
 -1      1804 1.54440E+01 3.09049E+00-1.90999E-02 1.31295E+00 2.55708E-13-4.65145E-13
 -1      1805 1.56145E+01 3.21145E+00-1.93997E-02 1.10748E+00 2.04480E-13-5.05516E-13
 -1      1806 1.58871E+01 2.89158E+00-7.21092E-03 9.07280E-01 2.07336E-13-4.84845E-13
 -1      1807 1.51856E+01 2.69285E+00-3.25433E-02 1.70503E+00 3.41993E-13-3.17600E-13
 -1      1808 1.52936E+01 2.87044E+00-2.74632E-02 1.48189E+00 2.90805E-13-4.05544E-13
 -1      1809 1.55643E+01 2.53871E+00-4.54108E-03 1.24165E+00 2.97815E-13-3.96985E-13
 -1      1810 1.52039E+01 1.99953E+00-4.06327E-02 2.01352E+00 3.81003E-13 6.27276E-15
 -1      1811 1.51392E+01 2.34759E+00-3.38089E-02 1.82983E+00 3.51743E-13-1.91062E-13
 -1      1812 1.53687E+01 2.00401E+00 2.26634E-03 1.50936E+00 3.66398E-13-2.25868E-13
 -1      1813 1.53658E+01 9.08527E-01-8.75944E-02 1.65168E+00 3.56076E-13 4.49835E-13
 -1      1814 1.52691E+01 1.67850E+00 6.23335E-04 1.93818E+00 3.70044E-13 1.56604E-13
 -1      1815 1.51909E+01 1.27676E+00-1.68288E-02 1.46702E+00 3.95607E-13 2.76203E-14
 -1      1816 1.48213E+01 5.89388E-01-4.59020E-02 1.04844E+00 3.56243E-13 3.42523E-13
 -1      1817 2.41935E+01 2.67499E+00 1.00404E-01-3.37813E+00-3.18674E-13 9.83838E-13
 -1      1818 1.42766E+01 2.35035E-01-6.07975E-03 3.80498E-01 2.83320E-13 2.06706E-13
 -1      1819 1.46404E+01 3.42342E-01-8.20706E-03 6.71147E-01 2.94896E-13 3.05190E-13
 -1      1820 1.48963E+01 6.46680E-01 1.67670E-03 9.31286E-01 3.46438E-13 1.31162E-13
 -1      1821 2.37093E+01 1.86651E+00 8.78909E-02-2.63358E+00-3.66103E-13 8.04870E-13
 -1      1822 2.26211E+01 5.17817E-01 3.38440E-02-1.12769E+00-3.06977E-13 7.09603E-13
 -1      1823 2.21035E+01 3.59839E-01 7.26134E-03-8.23585E-01-2.79322E-13 6.31588E-13
 -1      1824 2.18467E+01 2.59791E-01 2.88332E-02-5.80789E-01-2.40748E-13 5.99298E-13
 -1      1825 2.15814E+01 1.76882E-01 1.04298E-02-4.41757E-01-2.10618E-13 5.21956E-13
 -1      1826 2.19403E+01 4.93799E-01-5.59095E-03-9.75691E-01-3.17179E-13 3.96872E-13
 -1      1827 2.13967E+01 1.30442E-01 1.74238E-02-3.08467E-01-1.65989E-13 5.09245E-13
 -1      1828 2.12462E+01 8.99033E-02 6.79512E-03-2.39056E-01-1.41158E-13 4.63574E-13
 -1      1829 2.14882E+01 2.42425E-01-5.61795E-03-5.42982E-01-2.23685E-13 3.28219E-13
 -1      1830 2.11184E+01 6.53304E-02 9.02923E-03-1.67324E-01-1.15895E-13 4.33664E-13
 -1      1831 2.10315E+01 4.37116E-02 3.83953E-03-1.32868E-01-9.91323E-14 3.83637E-13
 -1      1832 2.11800E+01 1.20988E-01-4.51450E-03-3.08250E-01-1.66288E-13 2.96503E-13
 -1      1833 2.09420E+01 2.99083E-02 4.43829E-03-9.59690E-02-1.03146E-13 3.55755E-13
 -1      1834 2.08886E+01 1.78591E-02 2.14668E-03-8.05201E-02-1.05746E-13 3.14495E-13
 -1      1835 2.09670E+01 5.69804E-02-3.37893E-03-1.82611E-01-1.27674E-13 2.54008E-13
 -1      1836 2.08230E+01 9.88506E-03 2.04539E-03-6.38050E-02-1.04775E-13 3.41266E-13
 -1      1837 2.07864E+01 3.17505E-03 1.19134E-03-5.90769E-02-9.93186E-14 3.59906E-13
 -1      1838 2.08153E+01 2.14772E-02-2.29418E-03-1.19530E-01-1.16909E-13 2.20245E-13
 -1      1839 2.07348E+01-1.33980E-03 7.82909E-04-5.40860E-02-1.02361E-13 3.49044E-13
 -1      1840 2.07051E+01-4.84996E-03 6.26770E-04-5.53237E-02-6.49002E-14 3.37248E-13
 -1      1841 2.07007E+01 1.61742E-03-1.43395E-03-9.29688E-02-1.01064E-13 2.44977E-13
 -1      1842 2.06612E+01-7.17106E-03 1.14105E-04-5.68795E-02-6.58405E-14 3.38748E-13
 -1      1843 2.06330E+01-8.66040E-03 2.92891E-04-6.11451E-02-7.49990E-14 3.20822E-13
 -1      1844 2.06070E+01-8.93863E-03-8.31805E-04-8.74787E-02-7.21808E-14 1.81629E-13
 -1      1845 2.05928E+01-9.52512E-03-2.17912E-04-6.59207E-02-1.24354E-13 2.87726E-13
 -1      1846 2.05632E+01-9.68622E-03 1.15785E-04-7.13042E-02-1.26635E-13 2.34162E-13
 -1      1847 2.05242E+01-1.36219E-02-4.47445E-04-9.33763E-02-1.35399E-13 1.59698E-13
 -1      1848 2.05244E+01-9.54921E-03-3.45158E-04-7.70777E-02-1.26626E-13 1.92403E-13
 -1      1849 2.04923E+01-8.80274E-03 5.59712E-05-8.22870E-02-7.72899E-14 1.22676E-13
 -1      1850 2.04460E+01-1.44296E-02-2.27884E-04-1.04321E-01-1.63153E-13 1.58544E-13
 -1      1851 2.04538E+01-7.95062E-03-3.42916E-04-8.75204E-02-2.94930E-14 1.07029E-13
 -1      1852 2.04193E+01-6.55158E-03 8.96911E-05-9.16449E-02-1.87588E-14 8.63477E-14
 -1      1853 2.03693E+01-1.25744E-02-1.29518E-04-1.16007E-01-6.24176E-14 1.08768E-13
 -1      1854 2.03810E+01-5.16382E-03-2.57406E-04-9.52269E-02 5.30857E-15 7.34314E-14
 -1      1855 2.03449E+01-3.26094E-03 2.02045E-04-9.75894E-02 4.30457E-15 1.15719E-13
 -1      1856 2.02928E+01-8.79941E-03-1.21025E-04-1.25396E-01-1.26148E-14 1.21339E-14
 -1      1857 2.03071E+01-1.44723E-03-1.17967E-04-9.86705E-02-1.71406E-14 9.86791E-14
 -1      1858 2.02708E+01 8.78246E-04 3.83498E-04-9.87326E-02-6.82830E-14 1.19047E-13
 -1      1859 2.02169E+01-3.55009E-03-1.81163E-04-1.30237E-01-2.31052E-14 1.29401E-14
 -1      1860 2.02347E+01 3.05054E-03 5.66966E-05-9.66195E-02-1.31891E-13 4.40694E-14
 -1      1861 2.02002E+01 5.75434E-03 6.27187E-04-9.39241E-02-1.79791E-13 4.71304E-14
 -1      1862 2.01431E+01 2.91474E-03-2.96194E-04-1.28764E-01-1.43177E-13-1.23155E-13
 -1      1863 2.01670E+01 8.23596E-03 2.54885E-04-8.80192E-02-1.95461E-13 6.79977E-14
 -1      1864 2.01367E+01 1.12821E-02 9.26400E-04-8.21659E-02-1.28120E-13 6.86958E-14
 -1      1865 2.00738E+01 1.04364E-02-4.57915E-04-1.19498E-01-1.88534E-13-6.44818E-14
 -1      1866 2.01082E+01 1.40173E-02 4.69789E-04-7.19467E-02-7.11502E-14 6.62493E-14
 -1      1867 2.00848E+01 1.73485E-02 1.27239E-03-6.25975E-02-3.10307E-14 4.55654E-14
 -1      1868 2.00121E+01 1.88757E-02-6.62286E-04-1.01158E-01-1.13156E-13 1.06220E-14
 -1      1869 2.00631E+01 2.02503E-02 6.98564E-04-4.76348E-02-1.21895E-14 5.81443E-14
 -1      1870 2.00495E+01 2.37612E-02 1.65361E-03-3.45506E-02-5.05628E-14 5.51859E-14
 -1      1871 1.99619E+01 2.80320E-02-9.08129E-04-7.26445E-02-4.76205E-14 2.70882E-14
 -1      1872 2.00371E+01 2.66936E-02 9.42305E-04-1.45611E-02-9.14828E-14 3.63880E-14
 -1      1873 2.00366E+01 3.02243E-02 2.05863E-03 2.34539E-03-2.95119E-14-2.54648E-15
 -1      1874 1.99277E+01 3.75751E-02-1.19480E-03-3.31177E-02-8.48475E-14 4.24058E-14
 -1      1875 2.00361E+01 3.30166E-02 1.20561E-03 2.74330E-02 1.84464E-14 3.01725E-14
 -1      1876 2.00519E+01 3.64080E-02 2.48611E-03 4.80697E-02 2.99846E-14 5.43416E-16
 -1      1877 1.99148E+01 4.70416E-02-1.51694E-03 1.78818E-02-3.17568E-14-1.19179E-14
 -1      1878 2.00664E+01 3.89480E-02 1.49126E-03 7.81028E-02 8.00034E-14 5.78712E-14
 -1      1879 2.01018E+01 4.22300E-02 2.96279E-03 1.02296E-01 7.49975E-15 1.18491E-13
 -1      1880 1.99288E+01 5.60170E-02-1.85480E-03 8.03387E-02 7.09743E-14 1.09892E-13
 -1      1881 2.01341E+01 4.47030E-02 1.78112E-03 1.37086E-01-7.36182E-14 1.90624E-13
 -1      1882 2.01925E+01 4.84643E-02 3.56289E-03 1.64958E-01 3.61267E-15 1.83232E-13
 -1      1883 1.99757E+01 6.46874E-02-2.16432E-03 1.53913E-01 3.09003E-14 1.63027E-13
 -1      1884 2.02451E+01 5.17281E-02 2.00757E-03 2.04908E-01 5.21351E-14 1.69985E-13
 -1      1885 2.03304E+01 5.74981E-02 4.40408E-03 2.37648E-01 3.13840E-14 1.86959E-13
 -1      1886 2.00610E+01 7.48455E-02-2.38617E-03 2.38724E-01 2.64906E-14 1.32685E-13
 -1      1887 2.04047E+01 6.32580E-02 2.06730E-03 2.84926E-01-2.27444E-15 2.33910E-13
 -1      1888 2.05222E+01 7.31510E-02 5.56692E-03 3.25616E-01 1.05601E-15 1.91955E-13
 -1      1889 2.01891E+01 9.07401E-02-2.50497E-03 3.37198E-01 3.48337E-14 3.26052E-15
 -1      1890 2.06195E+01 8.30098E-02 1.97347E-03 3.85117E-01-2.64023E-14 1.64394E-13
 -1      1891 2.07765E+01 9.73218E-02 6.75784E-03 4.38340E-01-1.18005E-13 7.11474E-14
 -1      1892 2.03630E+01 1.17541E-01-2.67078E-03 4.56551E-01-6.03122E-14 3.45407E-14
 -1      1893 2.09007E+01 1.09612E-01 1.83442E-03 5.15707E-01-1.30861E-13 8.46150E-14
 -1      1894 2.11053E+01 1.23047E-01 7.03668E-03 5.83612E-01-4.54758E-14 8.58240E-14
 -1      1895 2.05875E+01 1.54575E-01-3.34750E-03 6.08616E-01-6.53069E-14-4.30599E-15
 -1      1896 2.12662E+01 1.30007E-01 2.02369E-03 6.77661E-01-6.71425E-15 1.10204E-13
 -1      1897 2.15225E+01 1.30759E-01 5.32278E-03 7.52986E-01-3.41771E-14 5.65748E-14
 -1      1898 2.08756E+01 1.85853E-01-4.81319E-03 7.99926E-01-8.34532E-15 1.22198E-14
 -1      1899 2.17314E+01 1.20341E-01 2.46213E-03 8.46799E-01-3.49950E-14 8.70866E-14
 -1      1900 2.20330E+01 9.49777E-02 9.96298E-04 9.08021E-01 5.53205E-14 7.81944E-14
 -1      1901 2.12475E+01 1.80606E-01-5.97661E-03 1.01179E+00-3.58439E-14-6.49833E-14
 -1      1902 2.22931E+01 5.69314E-02 2.64297E-03 9.67416E-01 8.42071E-14 1.20290E-13
 -1      1903 2.26151E+01-4.06742E-03-6.05482E-03 9.80809E-01-5.12234E-14 1.35380E-13
 -1      1904 2.17159E+01 1.03615E-01-6.05983E-03 1.18732E+00 5.42238E-14 5.77713E-14
 -1      1905 2.29187E+01-7.48422E-02 2.40365E-03 9.60881E-01 1.81231E-14 2.43221E-13
 -1      1906 2.32133E+01-1.74596E-01-1.54000E-02 8.86977E-01 1.00252E-13 2.67372E-13
 -1      1907 2.22730E+01-7.10602E-02-5.30205E-03 1.23932E+00 1.18888E-13 1.92623E-13
 -1      1908 2.35433E+01-2.76257E-01 1.90042E-03 7.40146E-01 1.70943E-13 2.65388E-13
 -1      1909 2.37407E+01-4.04961E-01-2.55560E-02 5.43568E-01 2.32758E-13 3.44361E-13
 -1      1910 2.28915E+01-3.50692E-01-4.46604E-03 1.06801E+00 1.67400E-13 3.00285E-13
 -1      1911 2.40649E+01-5.18068E-01 7.13179E-04 2.33524E-01 1.73481E-14 3.04130E-13
 -1      1912 2.40866E+01-6.35054E-01-3.16879E-02-9.48133E-02-1.82066E-13 3.30779E-13
 -1      1913 2.35239E+01-6.99668E-01-2.00566E-03 5.82089E-01 1.23742E-13 3.30366E-13
 -1      1914 2.43388E+01-7.04255E-01-3.41679E-03-5.57731E-01-3.29100E-13 4.50946E-13
 -1      1915 2.41284E+01-7.21751E-01-2.63071E-02-9.60544E-01-9.63899E-14 5.18549E-13
 -1      1916 2.40826E+01-9.95468E-01 4.19999E-03-2.54242E-01-1.25437E-13 5.15048E-13
 -1      1917 2.42015E+01-6.52726E-01-1.27824E-02-1.45665E+00 4.20185E-14 4.93206E-13
 -1      1918 2.37738E+01-4.68510E-01-5.87882E-03-1.77260E+00-4.04451E-14 3.52374E-13
 -1      1919 2.44114E+01-9.95477E-01 1.35056E-02-1.31863E+00-1.72562E-14 5.29314E-13
 -1      1920 2.35847E+01-1.94627E-01-2.56151E-02-2.04064E+00-1.53132E-13 3.60722E-13
 -1      1921 2.30689E+01 1.91271E-01 1.81137E-02-2.04325E+00-3.07924E-13 3.26119E-13
 -1      1922 2.43254E+01-4.48862E-01 1.50013E-02-2.20856E+00-1.20122E-13 4.85425E-13
 -1      1923 2.27006E+01 5.83600E-01-2.92198E-02-1.80311E+00-4.50862E-13 1.90049E-13
 -1      1924 2.23101E+01 9.53866E-01 1.94123E-02-1.36943E+00-5.62654E-13-9.37453E-14
 -1      1925 2.38069E+01 5.92619E-01-9.04454E-03-2.30259E+00-4.44481E-13 3.21333E-13
 -1      1926 2.20696E+01 1.18943E+00-1.10655E-02-6.24665E-01-3.11064E-13-1.47646E-13
 -1      1927 2.19919E+01 1.24794E+00-4.07458E-03 6.57058E-02-4.65079E-14-1.53847E-13
 -1      1928 2.32171E+01 1.55815E+00-4.39063E-02-1.21312E+00-4.90316E-13-1.54364E-14
 -1      1929 2.21186E+01 1.10837E+00 1.81673E-02 8.95056E-01 6.20892E-14-3.94151E-13
 -1      1930 2.23898E+01 7.94215E-01-2.50594E-02 1.43109E+00 7.22616E-14-3.49793E-13
 -1      1931 2.30995E+01 1.71413E+00-4.48113E-02 5.85015E-01-1.22263E-13-3.88560E-13
 -1      1932 2.27293E+01 4.09831E-01 2.22631E-02 1.82802E+00 2.26416E-13-2.35808E-13
 -1      1933 2.31864E+01-6.85009E-03-2.95614E-02 1.93977E+00 3.68080E-13-7.84390E-14
 -1      1934 2.35507E+01 8.96614E-01-1.72524E-02 1.95603E+00 2.11286E-13-5.95030E-13
 -1      1935 2.34155E+01-3.34749E-01 1.10956E-03 1.78180E+00 2.41854E-13 5.94143E-15
 -1      1936 2.38324E+01-5.85922E-01-1.83131E-02 1.52220E+00 1.71372E-13 6.04725E-15
 -1      1937 2.40856E+01-2.13387E-01 9.68867E-03 2.16813E+00 3.45365E-13-4.55853E-14
 -1      1938 2.37984E+01-7.10930E-01-2.17462E-02 1.04684E+00-2.33633E-14-2.18450E-13
 -1      1939 2.40159E+01-7.42885E-01-6.75589E-03 6.36628E-01 1.31735E-14-2.74068E-13
 -1      1940 2.42446E+01-9.29730E-01 1.53671E-02 1.41410E+00 1.09474E-14-3.54621E-15
 -1      1941 2.37706E+01-7.02453E-01-3.10187E-02 1.33189E-01 2.22131E-13-2.74052E-13
 -1      1942 2.37439E+01-6.03598E-01-1.18789E-03-2.37631E-01 6.91808E-14-3.15186E-14
 -1      1943 2.39516E+01-1.06838E+00 6.63915E-03 3.17713E-01 3.71569E-14-1.90911E-13
 -1      1944 2.34013E+01-4.94772E-01-2.68725E-02-6.07589E-01-2.02338E-14 1.90283E-13
 -1      1945 2.31732E+01-3.62691E-01 9.19038E-04-8.53413E-01 8.83330E-14 3.27851E-13
 -1      1946 2.33748E+01-8.28147E-01-1.08543E-03-6.31770E-01 2.13928E-13-1.72005E-13
 -1      1947 2.28132E+01-2.51359E-01-1.68045E-02-1.05375E+00 5.95626E-14 3.65079E-13
 -1      1948 2.24635E+01-1.35027E-01 2.62675E-03-1.16570E+00-5.82650E-15 2.16657E-13
 -1      1949 2.26922E+01-4.71975E-01-4.42581E-03-1.24014E+00 4.79885E-14 7.44049E-14
 -1      1950 2.21242E+01-4.35734E-02-6.86813E-03-1.21809E+00-2.96120E-13 1.01759E-13
 -1      1951 2.17342E+01 4.83878E-02 4.91197E-03-1.21677E+00-1.45429E-13-9.19308E-14
 -1      1952 2.20099E+01-1.44205E-01-5.20232E-03-1.50328E+00-2.35938E-13 6.30828E-14
 -1      1953 2.14306E+01 1.23173E-01 1.36223E-05-1.15388E+00-7.06024E-14-2.11385E-13
 -1      1954 2.10691E+01 1.99202E-01 7.16973E-03-1.05962E+00-1.36307E-13-2.50041E-13
 -1      1955 2.13811E+01 1.21322E-01-4.76719E-03-1.48201E+00-2.87380E-13 5.66942E-14
 -1      1956 2.08364E+01 2.51105E-01 3.04554E-03-9.12368E-01 7.68214E-14-2.91225E-13
 -1      1957 2.05497E+01 3.15261E-01 1.04376E-02-7.46585E-01 1.83274E-13-2.98649E-13
 -1      1958 2.04461E+01 4.59206E-01-3.28764E-03-8.75875E-01 1.55265E-13 7.32400E-15
 -1      1959 2.08569E+01 3.30734E-01-4.55425E-03-1.24641E+00-5.37567E-14-7.36108E-15
 -1      1960 1.40222E+01 1.16206E-01 6.35120E-03 6.33106E-02 2.15197E-13 1.01107E-13
 -1      1961 1.41692E+01 1.64232E-01 1.28980E-02 2.01983E-01 2.32711E-13 1.82427E-13
 -1      1962 1.45079E+01 2.78010E-01-1.56472E-03 3.38277E-01 2.81148E-13 7.01505E-14
 -1      1963 1.39616E+01 6.10161E-02 5.70991E-03-1.03933E-01 1.58761E-13 1.60497E-14
 -1      1964 1.39836E+01 8.48590E-02 1.11057E-02-3.02605E-02 1.67328E-13 7.15877E-14
 -1      1965 1.43203E+01 1.35803E-01-1.99542E-03 1.81469E-02 2.05981E-13 1.72232E-14
 -1      1966 1.40258E+01 3.18954E-02 3.85698E-03-1.93733E-01 1.23261E-13-4.30675E-14
 -1      1967 1.39783E+01 4.49316E-02 6.63191E-03-1.52897E-01 1.26455E-13 1.07900E-15
 -1      1968 1.42887E+01 6.88242E-02-2.60810E-03-1.57253E-01 1.59529E-13-5.25244E-14
 -1      1969 1.41645E+01 1.51714E-02 2.67987E-03-2.40152E-01 8.11534E-14-1.06412E-13
 -1      1970 1.40788E+01 2.26850E-02 3.54194E-03-2.17830E-01 1.05155E-13-4.53923E-14
 -1      1971 1.43572E+01 3.33833E-02-2.56527E-03-2.52770E-01 1.24669E-13-8.79164E-14
 -1      1972 1.43455E+01 5.19377E-03 2.00819E-03-2.61018E-01 7.14854E-14-1.46775E-13
 -1      1973 1.42396E+01 9.55697E-03 1.79178E-03-2.49792E-01 6.19530E-14-1.26195E-13
 -1      1974 1.44868E+01 1.32444E-02-2.11832E-03-3.02041E-01 8.84897E-14-1.37009E-13
 -1      1975 1.45484E+01-6.69657E-04 1.58711E-03-2.66605E-01 8.49771E-14-1.77338E-13
 -1      1976 1.44331E+01 1.73164E-03 8.17553E-04-2.62148E-01 7.33866E-14-1.37721E-13
 -1      1977 1.46520E+01 1.53404E-03-1.61138E-03-3.23616E-01 9.59315E-14-1.72887E-13
 -1      1978 1.47606E+01-3.82400E-03 1.29519E-03-2.63404E-01 6.78984E-14-2.53169E-13
 -1      1979 1.46423E+01-2.70465E-03 2.65296E-04-2.62947E-01 8.92175E-14-1.91539E-13
 -1      1980 1.48364E+01-5.01032E-03-1.18967E-03-3.28645E-01 1.03438E-13-1.80356E-13
 -1      1981 1.49747E+01-5.10723E-03 1.08858E-03-2.55769E-01 2.85064E-14-2.80207E-13
 -1      1982 1.48569E+01-4.84640E-03-4.12260E-05-2.57427E-01 2.83920E-14-2.90767E-13
 -1      1983 1.50295E+01-8.15052E-03-8.79357E-04-3.24348E-01 6.63248E-14-2.28568E-13
 -1      1984 1.51866E+01-5.05135E-03 9.50879E-04-2.46744E-01 6.65050E-14-2.88646E-13
 -1      1985 1.50712E+01-5.37299E-03-1.89612E-04-2.49176E-01 5.88655E-14-2.75332E-13
 -1      1986 1.52252E+01-8.94109E-03-6.67709E-04-3.15641E-01 5.69443E-14-2.73437E-13
 -1      1987 1.53951E+01-3.99901E-03 8.74387E-04-2.38532E-01 5.39914E-14-2.50600E-13
 -1      1988 1.52826E+01-4.72114E-03-2.28711E-04-2.40748E-01 5.81021E-14-2.65775E-13
 -1      1989 1.54204E+01-8.04676E-03-5.36566E-04-3.06006E-01 4.95312E-14-2.53661E-13
 -1      1990 1.56008E+01-2.16441E-03 8.54765E-04-2.32798E-01 5.49362E-14-2.83413E-13
 -1      1991 1.54906E+01-3.16897E-03-1.88813E-04-2.34030E-01 4.32819E-14-2.57830E-13
 -1      1992 1.56141E+01-5.88818E-03-4.70976E-04-2.98000E-01 6.83036E-14-2.26007E-13
 -1      1993 1.58056E+01 3.28276E-04 8.89406E-04-2.30875E-01 5.88664E-14-3.19701E-13
 -1      1994 1.56963E+01-8.84375E-04-8.97804E-05-2.30490E-01 4.50642E-14-2.94107E-13
 -1      1995 1.58071E+01-2.72089E-03-4.60281E-04-2.93593E-01 7.27287E-14-2.05628E-13
 -1      1996 1.60126E+01 3.41351E-03 9.76299E-04-2.33904E-01-1.57453E-14-3.42193E-13
 -1      1997 1.59025E+01 2.04001E-03 5.49450E-05-2.31344E-01 1.84241E-14-3.32509E-13
 -1      1998 1.60012E+01 1.31166E-03-4.97422E-04-2.94391E-01 3.05287E-14-2.76810E-13
 -1      1999 1.62260E+01 7.05230E-03 1.11264E-03-2.42914E-01 9.83879E-14-3.91899E-13
 -1      2000 1.61126E+01 5.55444E-03 2.35585E-04-2.37659E-01 4.23062E-14-3.35772E-13
 -1      2001 1.61995E+01 6.13173E-03-5.77950E-04-3.01785E-01 3.15596E-14-2.96076E-13
 -1      2002 1.64508E+01 1.11946E-02 1.29294E-03-2.58843E-01 3.44748E-14-4.13560E-13
 -1      2003 1.63312E+01 9.61604E-03 4.43563E-04-2.50403E-01 6.39332E-14-4.11442E-13
 -1      2004 1.64058E+01 1.16776E-02-6.98924E-04-3.17022E-01 8.89916E-14-2.95545E-13
 -1      2005 1.66926E+01 1.57333E-02 1.50683E-03-2.82477E-01 2.93266E-15-3.79738E-13
 -1      2006 1.65636E+01 1.41452E-02 6.69048E-04-2.70422E-01 5.91994E-14-3.76954E-13
 -1      2007 1.66246E+01 1.78444E-02-8.57559E-04-3.41188E-01 4.09442E-14-2.85360E-13
 -1      2008 1.69574E+01 2.04501E-02 1.73722E-03-3.14313E-01-2.44287E-14-3.82652E-13
 -1      2009 1.68156E+01 1.89729E-02 8.98629E-04-2.98339E-01-7.61652E-15-3.76894E-13
 -1      2010 1.68611E+01 2.44131E-02-1.04904E-03-3.75094E-01-2.80418E-15-2.45354E-13
 -1      2011 1.72516E+01 2.49604E-02 1.96056E-03-3.54307E-01-1.17639E-13-3.78939E-13
 -1      2012 1.70934E+01 2.37830E-02 1.11398E-03-3.34351E-01-6.90158E-14-3.68202E-13
 -1      2013 1.71205E+01 3.09732E-02-1.26242E-03-4.19052E-01-6.96403E-14-2.90776E-13
 -1      2014 1.75806E+01 2.86609E-02 2.15079E-03-4.01543E-01-1.53526E-13-3.01411E-13
 -1      2015 1.74030E+01 2.80580E-02 1.29359E-03-3.77947E-01-1.79121E-13-3.52873E-13
 -1      2016 1.74082E+01 3.68471E-02-1.47353E-03-4.72518E-01-1.45403E-13-3.01546E-13
 -1      2017 1.79489E+01 3.06503E-02 2.27875E-03-4.53797E-01-2.45566E-14-2.25559E-13
 -1      2018 1.77495E+01 3.10209E-02 1.41978E-03-4.27516E-01-5.33165E-14-2.39383E-13
 -1      2019 1.77288E+01 4.10057E-02-1.63766E-03-5.33646E-01-9.31627E-14-1.98364E-13
 -1      2020 1.83582E+01 2.95066E-02 2.28789E-03-5.06932E-01-6.28144E-14-3.33015E-13
 -1      2021 1.81363E+01 3.14873E-02 1.47437E-03-4.79861E-01-4.93520E-14-2.82955E-13
 -1      2022 1.80854E+01 4.18759E-02-1.70437E-03-5.98713E-01-1.73576E-14-2.41573E-13
 -1      2023 1.88062E+01 2.29055E-02 1.94571E-03-5.53841E-01-4.23080E-14-3.14921E-13
 -1      2024 1.85639E+01 2.75567E-02 1.41583E-03-5.29375E-01-1.37787E-13-3.64103E-13
 -1      2025 1.84789E+01 3.68345E-02-1.70372E-03-6.61276E-01-1.09679E-13-2.66884E-13
 -1      2026 1.92856E+01 7.70031E-03 5.34063E-04-5.82811E-01-2.28896E-14-1.36632E-13
 -1      2027 1.90286E+01 1.61066E-02 7.52909E-04-5.66807E-01-1.29112E-15-1.95963E-13
 -1      2028 1.89075E+01 2.19407E-02-2.05949E-03-7.10813E-01-8.19925E-14-1.46448E-13
 -1      2029 1.97817E+01-1.53730E-02-1.60769E-03-5.77862E-01-3.42428E-14-2.19096E-14
 -1      2030 1.95194E+01-5.15906E-03-1.37456E-03-5.78452E-01-1.85478E-14-2.94231E-14
 -1      2031 1.93646E+01-5.65869E-03-3.58737E-03-7.31335E-01-5.87535E-14-1.14138E-14
 -1      2032 2.02645E+01-3.31129E-02-2.09566E-03-5.32956E-01 4.08482E-14 4.25812E-14
 -1      2033 2.00122E+01-2.75082E-02-3.16846E-03-5.51637E-01 3.73584E-14 5.81703E-14
 -1      2034 1.98316E+01-3.70041E-02-4.52191E-03-7.05446E-01 2.34539E-14 1.05767E-13
 -1      2035 2.07004E+01-3.95501E-02-3.14160E-03-4.66119E-01-4.64158E-14-3.74223E-14
 -1      2036 2.04728E+01-3.86130E-02-4.37066E-03-4.93444E-01 9.93888E-15-9.42237E-15
 -1      2037 2.02742E+01-5.30397E-02-2.91842E-03-6.36318E-01 4.39074E-14 1.95718E-13
 -1      2038 2.10764E+01-5.36329E-02-5.50685E-03-3.86302E-01 1.58240E-13-2.40091E-13
 -1      2039 2.08862E+01-4.63414E-02-4.45417E-03-4.20515E-01 3.35593E-14-1.33082E-13
 -1      2040 2.06725E+01-6.74171E-02-3.20351E-03-5.48071E-01 7.25949E-14 1.66919E-14
 -1      2041 2.13812E+01-9.75634E-02-7.80851E-03-2.60105E-01 8.63060E-14-2.16458E-13
 -1      2042 2.12423E+01-7.70505E-02-4.46483E-03-3.19807E-01 1.60057E-13-2.07595E-13
 -1      2043 2.10291E+01-1.03809E-01-9.40484E-04-4.31027E-01 1.61058E-13 7.44452E-14
 -1      2044 2.15675E+01-1.64350E-01-9.21077E-03-3.75796E-02-2.52341E-13-3.54325E-13
 -1      2045 2.15076E+01-1.37766E-01-5.45101E-03-1.45970E-01-1.53678E-13-3.60016E-13
 -1      2046 2.13251E+01-1.79254E-01 2.60575E-03-2.31016E-01-4.19729E-14-9.13419E-15
 -1      2047 2.15650E+01-2.23857E-01-9.01484E-03 2.97624E-01-1.76236E-13-3.21629E-13
 -1      2048 2.16203E+01-2.06852E-01-7.09600E-03 1.33385E-01-2.65846E-13-3.23043E-13
 -1      2049 2.15069E+01-2.71695E-01 5.31073E-03 9.54508E-02-2.27177E-13-2.00710E-13
 -1      2050 2.13165E+01-2.31897E-01-5.73525E-03 6.99123E-01 1.16843E-13-2.98452E-13
 -1      2051 2.15125E+01-2.44716E-01-7.98318E-03 5.01463E-01-3.00020E-14-3.07257E-13
 -1      2052 2.15123E+01-3.28178E-01 7.33737E-03 5.35171E-01-3.54829E-14-4.15818E-13
 -1      2053 2.08135E+01-1.40782E-01-2.16950E-04 1.04037E+00 2.58681E-13-1.61763E-13
 -1      2054 2.11420E+01-2.00974E-01-7.06788E-03 8.71428E-01 2.37588E-13-1.50087E-13
 -1      2055 2.12950E+01-2.80241E-01 8.51357E-03 9.94525E-01 1.80344E-13-3.07173E-13
 -1      2056 2.01406E+01 5.94613E-02 2.70505E-03 1.13283E+00 1.05114E-13-1.63154E-13
 -1      2057 2.05421E+01-4.04218E-02-3.71949E-03 1.08431E+00 1.11799E-13-1.15082E-13
 -1      2058 2.08597E+01-8.07070E-02 5.30809E-03 1.29023E+00 1.03769E-13 1.78859E-14
 -1      2059 1.95080E+01 2.88280E-01-6.23999E-04 8.38052E-01-1.84459E-13-3.85282E-14
 -1      2060 1.98692E+01 1.97188E-01 1.91128E-03 9.72167E-01-2.14334E-14-1.21800E-13
 -1      2061 2.03206E+01 2.30549E-01-2.96862E-03 1.20945E+00-1.67782E-14 2.05265E-13
 -1      2062 1.91848E+01 4.13247E-01-5.62833E-03 2.13451E-01-4.57951E-13 5.99252E-14
 -1      2063 1.93714E+01 3.86738E-01 7.69399E-03 4.97531E-01-2.72492E-13-5.91714E-15
 -1      2064 1.99018E+01 5.06445E-01-8.95706E-03 6.76846E-01-2.43133E-13 1.45568E-13
 -1      2065 1.93133E+01 3.61045E-01-1.05677E-02-4.82608E-01 4.07660E-14-1.70445E-14
 -1      2066 1.92574E+01 4.15920E-01 1.01794E-02-1.69925E-01-2.06809E-13 1.19657E-14
 -1      2067 1.98108E+01 5.79141E-01-1.41941E-02-1.22799E-01-1.72744E-13 1.52618E-13
 -1      2068 1.98421E+01 1.77540E-01-5.34680E-03-9.68879E-01-9.79715E-14 1.75358E-13
 -1      2069 1.95624E+01 2.77687E-01 9.25553E-03-7.50998E-01-1.01828E-15-1.14631E-14
 -1      2070 2.00907E+01 4.27712E-01-7.31943E-03-8.53387E-01-1.84106E-14 1.23442E-13
 -1      2071 2.05495E+01-3.74405E-02 9.13600E-04-1.09104E+00 4.05778E-14 1.58594E-13
 -1      2072 2.01541E+01 5.77592E-02 4.75870E-03-1.03369E+00 4.00910E-14 2.19134E-13
 -1      2073 2.06134E+01 1.36773E-01 2.19523E-03-1.23794E+00-9.15600E-14 1.82119E-13
 -1      2074 2.11822E+01-1.88451E-01 5.33676E-03-8.81419E-01 6.14426E-14 2.92301E-14
 -1      2075 2.08033E+01-1.34914E-01-2.50495E-03-9.67359E-01-9.23567E-15 7.56322E-14
 -1      2076 2.11576E+01-1.45698E-01 5.74612E-03-1.19310E+00 2.21104E-14 1.10739E-13
 -1      2077 2.15718E+01-2.42458E-01 6.73005E-03-4.89186E-01 2.41729E-13 2.12566E-13
 -1      2078 2.13097E+01-2.35836E-01-8.00384E-03-6.53725E-01 1.91204E-13 7.72203E-14
 -1      2079 2.15424E+01-3.14653E-01 4.84191E-03-8.30464E-01 1.43482E-13 2.74259E-13
 -1      2080 2.16686E+01-2.17566E-01 5.71189E-03-7.40295E-02 7.04896E-14 1.34983E-13
 -1      2081 2.15651E+01-2.43194E-01-9.99303E-03-2.49568E-01 2.24527E-13 1.93743E-13
 -1      2082 2.16880E+01-3.49567E-01 2.35264E-03-3.40249E-01 2.68848E-13 2.39229E-13
 -1      2083 2.15134E+01-1.48878E-01 3.93814E-03 2.55009E-01 6.90819E-14 3.55731E-14
 -1      2084 2.15572E+01-1.88810E-01-8.90884E-03 1.14760E-01 4.35103E-14 1.40148E-13
 -1      2085 2.16039E+01-2.86465E-01 3.56609E-04 1.13575E-01 9.04138E-14 2.90065E-13
 -1      2086 2.11922E+01-6.46417E-02 2.60040E-03 4.47309E-01-1.72872E-13-2.36824E-14
 -1      2087 2.13393E+01-1.06736E-01-6.04157E-03 3.64795E-01-1.88259E-13 2.36863E-14
 -1      2088 2.13499E+01-1.74453E-01-8.08677E-04 4.34380E-01-1.04151E-13 1.56155E-13
 -1      2089 2.08018E+01 2.05305E-02 1.86955E-03 4.90768E-01 9.24672E-14-2.95215E-14
 -1      2090 2.09956E+01-1.82066E-02-2.73424E-03 4.73421E-01 1.08612E-13-3.32078E-14
 -1      2091 2.10018E+01-4.80287E-02-1.42215E-03 5.85331E-01 5.40930E-15 1.36792E-13
 -1      2092 2.04331E+01 9.88206E-02 2.43652E-03 3.94357E-01 8.03156E-14-7.60592E-14
 -1      2093 2.06167E+01 6.47968E-02-2.88156E-04 4.41755E-01 1.11820E-13 3.86123E-14
 -1      2094 2.06324E+01 7.25097E-02-2.18322E-03 5.65602E-01 2.41125E-14 2.83239E-13
 -1      2095 2.01942E+01 1.47133E-01 4.29527E-03 2.49689E-01 1.14591E-13-4.32555E-14
 -1      2096 2.03333E+01 1.23737E-01 6.16275E-04 3.39554E-01 4.52121E-14-3.12749E-14
 -1      2097 2.03552E+01 1.59500E-01-3.08815E-03 4.49167E-01 1.25987E-13 3.10471E-13
 -1      2098 2.01806E+01 2.27562E-01 1.37986E-03 3.12268E-01 3.03320E-14 3.66587E-13
 -1      2099 2.01091E+01 1.36008E+00 3.24506E-03 9.43400E-01 1.37030E-13 1.82483E-13
 -1      2100 2.01399E+01 1.06008E+00 4.07085E-03 8.72137E-01-4.45061E-14 1.45267E-13
 -1      2101 2.01633E+01 8.66036E-01 5.28547E-03 7.64910E-01 1.46510E-13-2.33437E-14
 -1      2102 2.01835E+01 6.23685E-01 4.26278E-03 6.64485E-01 1.30132E-13 5.26809E-14
 -1      2103 2.02232E+01 8.07518E-01-4.71908E-03 1.02448E+00-9.76851E-14 3.15772E-14
 -1      2104 2.01794E+01 5.12087E-01 5.19056E-03 5.44344E-01 4.03549E-14 1.97282E-13
 -1      2105 2.01908E+01 3.34550E-01 4.34944E-03 4.30794E-01-2.44900E-14 4.16684E-13
 -1      2106 2.02689E+01 3.05472E-01 2.29654E-03 5.13936E-01 8.18993E-14 3.81722E-13
 -1      2107 2.02659E+01 5.13201E-01-9.75975E-04 7.72167E-01 1.08195E-13 1.81850E-13
 -1      2108 2.00239E+01 1.91435E+00-1.77937E-03 1.03454E+00-1.81734E-13-2.00175E-13
 -1      2109 2.00715E+01 1.58994E+00 2.88953E-03 1.00838E+00-3.26219E-14-4.00786E-15
 -1      2110 2.01301E+01 1.23085E+00-3.85463E-03 1.21910E+00-2.53532E-13-5.66009E-14
 -1      2111 1.99065E+01 2.49457E+00-7.78789E-03 9.97109E-01-1.28449E-13-5.61513E-14
 -1      2112 1.99699E+01 2.17378E+00 7.25138E-04 1.03310E+00-2.63067E-13 1.46453E-13
 -1      2113 1.99906E+01 1.72139E+00-1.33957E-03 1.29405E+00-5.02717E-13-6.64757E-15
 -1      2114 1.97781E+01 3.00923E+00-1.28854E-02 7.97888E-01 9.85800E-15-3.04908E-13
 -1      2115 1.98441E+01 2.74523E+00-2.65489E-03 9.06389E-01-3.56100E-14-3.48317E-13
 -1      2116 1.98120E+01 2.23285E+00 3.00577E-03 1.19424E+00-1.57274E-13-1.42106E-13
 -1      2117 1.96730E+01 3.36534E+00-1.53849E-02 4.41671E-01-7.45534E-14-2.14728E-13
 -1      2118 1.97224E+01 3.20496E+00-6.99013E-03 6.14760E-01-8.62903E-14-1.53997E-13
 -1      2119 1.96308E+01 2.68048E+00 8.37188E-03 8.88911E-01-9.57134E-14-2.14643E-13
 -1      2120 1.96258E+01 3.48410E+00-1.46239E-02-1.96580E-02-1.56807E-13-3.10923E-13
 -1      2121 1.96417E+01 3.46090E+00-1.12846E-02 1.89724E-01-9.71634E-14-2.01731E-13
 -1      2122 1.94971E+01 2.97225E+00 1.27006E-02 3.99849E-01-3.77269E-13-2.50341E-13
 -1      2123 1.96544E+01 3.32939E+00-1.11728E-02-4.97131E-01-4.35208E-13-6.86647E-13
 -1      2124 1.96307E+01 3.45335E+00-1.39063E-02-2.93001E-01-3.08170E-13-4.55342E-13
 -1      2125 1.94551E+01 3.03634E+00 1.39513E-02-1.92315E-01-3.37829E-13-5.84002E-13
 -1      2126 1.97494E+01 2.93257E+00-6.02656E-03-8.88042E-01-1.96259E-13-2.76708E-13
 -1      2127 1.96935E+01 3.17995E+00-1.37537E-02-7.32060E-01-3.53113E-13-5.80733E-13
 -1      2128 1.95217E+01 2.85350E+00 1.18530E-02-7.64743E-01-4.48576E-13-6.72472E-13
 -1      2129 1.98881E+01 2.35251E+00-6.36150E-04-1.13248E+00 2.23458E-14 4.17714E-13
 -1      2130 1.98134E+01 2.69152E+00-1.04582E-02-1.04757E+00-9.67403E-14 2.16265E-13
 -1      2131 1.96768E+01 2.46113E+00 6.90962E-03-1.20723E+00-3.98373E-14 2.81984E-14
 -1      2132 2.00414E+01 1.69553E+00 4.28662E-03-1.18611E+00 7.97292E-14 5.97447E-13
 -1      2133 1.99619E+01 2.06748E+00-5.30291E-03-1.18765E+00 2.92613E-14 4.71792E-13
 -1      2134 1.98871E+01 1.93384E+00 1.76683E-03-1.44582E+00 7.21359E-14 5.79316E-13
 -1      2135 2.01954E+01 1.05272E+00 4.57550E-03-1.05147E+00 4.94257E-14-5.38718E-15
 -1      2136 2.01097E+01 1.40845E+00-1.87994E-03-1.13492E+00 2.68466E-14 3.28268E-13
 -1      2137 2.01136E+01 1.36560E+00-1.78020E-03-1.44758E+00 6.05015E-14 4.29377E-13
 -1      2138 1.08970E+01-5.65476E+00-9.78777E-02 6.89507E+00 5.85532E-13 6.80747E-13
 -1      2139 7.19915E+00-7.14419E+00-3.30962E-01 5.68355E+00 2.05502E-13 1.03911E-12
 -1      2140 1.90182E-01-8.18729E+00-4.46673E-01 1.04489E+00-5.88418E-14 1.34159E-12
 -1      2141 1.31505E-01-7.96797E+00-4.11974E-01-5.55164E-01-5.10314E-13 1.33282E-12
 -1      2142 3.56943E+00-6.85796E+00-2.62662E-01 4.45756E+00 2.38198E-13 1.38806E-12
 -1      2143 1.52246E+00-8.06307E+00-4.49843E-01 2.81713E+00-4.95159E-14 1.36446E-12
 -1      2144 1.95557E+01-3.77165E+00 5.05152E-02 7.18084E+00 6.67466E-13 4.08451E-13
 -1      2145 1.50863E+01-5.75025E+00-2.61543E-01 6.55938E+00 6.13398E-13 4.37678E-13
 -1      2146 2.69740E+01-1.08900E+00 1.39709E-01 6.44907E+00 7.26474E-13 2.47580E-13
 -1      2147 2.21846E+01-3.13849E+00-2.10160E-01 6.18077E+00 6.53533E-13 3.07476E-13
 -1      2148 2.31147E+01-5.20904E+00 2.99399E-02 5.99577E+00 3.49942E-13-9.28146E-14
 -1      2149 1.99365E+01 4.08680E+00-2.81952E-02-2.00987E+00-3.88834E-13-1.84509E-13
 -1      2150 2.03424E+01 4.07144E+00-2.59561E-02-2.27058E+00-4.24575E-13-8.56260E-14
 -1      2151 2.08158E+01 3.36160E+00-8.21060E-03-2.25811E+00-4.41908E-13-1.26010E-14
 -1      2152 1.99775E+01 3.61906E+00-9.31250E-03-1.87364E+00-3.94608E-13-1.88143E-13
 -1      2153 3.93557E+01 5.57585E+00 3.04619E-01 2.42406E+00 4.24050E-13 2.93487E-13
 -1      2154 3.62980E+01 4.39827E+00 1.23382E-01 3.02591E+00 5.27245E-13 4.30211E-13
 -1      2155 4.02614E+01 7.27764E+00 1.34775E-01 6.14640E-01 5.35461E-13-5.73569E-14
 -1      2156 3.98481E+01 6.79153E+00 2.03885E-01 1.74226E+00 4.71845E-13 9.65894E-15
 -1      2157 3.88647E+01 6.49447E+00 7.13382E-02-4.88967E-01 3.75477E-13-6.30607E-14
 -1      2158 3.92482E+01 7.13959E+00 1.54535E-02 5.77137E-01 4.36595E-13 7.29972E-15
 -1      2159 3.55208E+01 4.32933E+00 1.18504E-01-1.76041E+00-2.19824E-14-4.82947E-14
 -1      2160 3.85715E+01 5.43085E+00 2.27337E-01-9.54207E-01 1.21514E-13-6.45595E-14
 -1      2161 3.47671E+01 6.55404E+00 1.41813E-01 1.27648E+00 2.52770E-13 3.66374E-14
 -1      2162 2.97754E+01 6.74299E-01 1.62728E-01-4.17403E+00 2.43139E-14 1.39777E-13
 -1      2163 3.41371E+01 2.33307E+00 3.88192E-01-3.63072E+00-1.33782E-14-1.35447E-14
 -1      2164 2.16052E+01-2.77754E+00-6.03661E-02-5.70307E+00 5.60663E-15 1.21236E-13
 -1      2165 2.66561E+01-8.86737E-01 3.01654E-01-5.83388E+00 3.69704E-14 1.98230E-13
 -1      2166 1.44080E+01-5.70910E+00-8.45167E-02-6.20982E+00-1.67144E-13 4.39232E-14
 -1      2167 1.85463E+01-3.73729E+00 1.35883E-01-6.68354E+00-8.92619E-14-1.42220E-13
 -1      2168 5.27127E+00-7.76691E+00-4.51095E-01-4.61568E+00 3.63043E-14 2.57461E-13
 -1      2169 9.11742E+00-6.19926E+00-2.05539E-01-6.10100E+00-3.65818E-14 2.72268E-13
 -1      2170 9.53089E-01-7.99594E+00-4.00451E-01-2.34079E+00 1.02696E-14-2.17049E-13
 -1      2171 2.63655E+00-7.49605E+00-3.39388E-01-3.69585E+00 7.74936E-14 1.94345E-13
 -1      2172 8.38970E-01-6.60040E+00-2.07235E-01 1.30003E+00-1.01585E-14-4.16167E-13
 -1      2173 4.82918E-01-7.23222E+00-3.11482E-01-5.73888E-01 3.21548E-14-4.76230E-13
 -1      2174 4.52001E+00-7.13045E+00-3.17611E-01 4.55207E+00 1.11022E-14-4.03566E-13
 -1      2175 2.27525E+00-7.45282E+00-3.40519E-01 3.38300E+00 1.46105E-13-4.04454E-13
 -1      2176 1.05692E+01-5.62823E+00-2.21031E-01 6.22311E+00-1.47771E-13-4.85022E-13
 -1      2177 6.98054E+00-7.39140E+00-4.56975E-01 5.03779E+00-1.88183E-14-4.41036E-13
 -1      2178 7.66296E+00-6.23636E+00-1.80153E-01 5.91807E+00-3.99680E-15-5.18752E-13
 -1      2179 2.02608E+01-3.59734E+00 1.23694E-02 6.67215E+00-2.08500E-13-6.68743E-13
 -1      2180 1.55935E+01-5.50496E+00-3.03384E-01 6.00247E+00-2.02616E-13-6.55115E-13
 -1      2181 2.88071E+01-6.02246E-01 1.91098E-01 5.50858E+00-1.84186E-13-7.37410E-13
 -1      2182 2.38078E+01-2.57264E+00-1.71397E-01 5.39078E+00-2.37810E-13-6.93390E-13
 -1      2183 3.60224E+01 2.92458E+00 3.58176E-01 3.93659E+00-7.33077E-13-2.20823E-13
 -1      2184 3.15215E+01 1.34705E+00 3.83062E-02 4.38470E+00-4.13475E-13-4.78062E-13
 -1      2185 4.02507E+01 5.72241E+00 3.89108E-01 1.61938E+00-1.09768E-12 4.63463E-13
 -1      2186 3.77607E+01 4.65638E+00 2.72752E-01 2.74855E+00-9.73666E-13 7.09433E-14
 -1      2187 4.17173E+01 7.17057E+00 4.51674E-01-1.53852E-01-1.12321E-12 6.47971E-13
 -1      2188 4.05483E+01 6.92579E+00 3.35700E-01 8.24949E-01-1.14531E-12 3.92519E-13
 -1      2189 4.05776E+01 6.45915E+00 3.35753E-01-1.74756E+00-8.34777E-13 9.13492E-13
 -1      2190 4.20756E+01 6.92241E+00 4.54862E-01-5.67213E-01-1.00786E-12 7.54091E-13
 -1      2191 3.59100E+01 3.68660E+00 1.41979E-01-2.64365E+00 6.87783E-14 8.47322E-13
 -1      2192 3.89810E+01 4.99114E+00 3.68919E-01-1.89950E+00-2.77639E-13 7.96641E-13
 -1      2193 2.98887E+01 4.56948E-01-7.21649E-03-4.80991E+00-2.42861E-13 1.03495E-12
 -1      2194 3.44624E+01 2.07633E+00 2.80449E-01-4.45713E+00 6.55448E-14 1.15885E-12
 -1      2195 2.18988E+01-3.10716E+00-2.02866E-01-5.90157E+00-1.03340E-12 4.68514E-14
 -1      2196 2.68662E+01-1.09156E+00 1.64210E-01-6.20768E+00-6.34270E-13 5.60441E-13
 -1      2197 1.40533E+01-5.89936E+00-3.02236E-01-6.11804E+00-9.58233E-13 9.58122E-14
 -1      2198 1.84763E+01-3.84676E+00-9.99366E-03-6.83848E+00-1.08269E-12-4.82947E-14
 -1      2199 2.26183E+01-4.93748E+00-3.74280E-03-5.82955E+00-6.33271E-13-1.83908E-13
 -1      2200 6.19987E+00-7.65194E+00-4.21770E-01-5.00925E+00-1.12499E-12 4.82725E-13
 -1      2201 9.87027E+00-6.10641E+00-1.54014E-01-6.38047E+00-9.45355E-13 2.05086E-13
 -1      2202 1.56184E+00-7.99093E+00-4.18748E-01-2.67324E+00-6.63275E-13 9.20708E-13
 -1      2203 3.51831E+00-7.34934E+00-3.08523E-01-4.09611E+00-1.03856E-12 7.75657E-13
 -1      2204 6.94401E+00-5.96829E+00-1.25658E-01-5.72547E+00-5.87475E-13 5.06178E-13
 -1      2205 3.44094E+01 2.36808E+00 2.16662E-01 4.48507E+00 6.11108E-13 4.15334E-13
 -1      2206 3.02593E+01 8.95738E-01 3.27855E-02 5.16673E+00 8.48155E-13 2.81219E-13
 -1      2207 2.28288E+01 1.17273E+00-2.35489E-02-1.86385E+00-3.65478E-13 7.01770E-13
 -1      2208 2.93216E+01-2.02301E+00 1.32007E-01 3.91307E+00 4.72539E-13 6.66134E-15
 -1      2209 3.43358E+01 2.69591E+00 2.13866E-01 1.64970E+00 4.88359E-13 9.91429E-14
 -1      2210 2.24227E+01 1.39927E+00-2.02301E-02-1.97379E+00-4.03315E-13 4.35443E-13
 -1      2211 7.50151E+00-5.69630E+00-8.27203E-02 6.16488E+00 1.08469E-13 1.17203E-12
 -1      2212 2.23786E+00-5.45428E+00-1.92354E-01 2.53957E+00-2.16493E-14 1.51462E-12
 -1      2213 2.02634E+01 8.26843E-01 5.72472E-03-1.02057E+00 7.75911E-14 7.67615E-15
 -1      2214 1.58048E+01-6.18741E+00-2.04563E-02 7.26307E+00 2.15050E-13 4.07311E-13
 -1      2215 2.21691E+00-5.64652E+00-1.98625E-01-2.15082E+00-1.02862E-13 1.20154E-12
 -1      2216 1.42646E+01-6.34424E+00-9.76686E-02-6.75103E+00-7.09655E-13-5.80785E-14
 -1      2217 2.95015E+01-1.93453E+00 1.54816E-01-3.67286E+00-6.68354E-14 3.34344E-13
 -1      2218 3.40034E+01 2.09902E+00 2.38233E-01-1.00381E+00 2.82288E-13 3.74367E-13
 -1      2219 3.63155E+01 6.01880E+00 3.03002E-01 2.86272E-01-4.47975E-13 2.69007E-13
 -1      2220 3.75771E+01 8.06114E+00 4.06510E-01-1.21698E-01-1.15258E-12 4.40037E-13
 -1      2221 3.70381E+01 6.90824E+00 3.68663E-01-1.78323E-01-1.18283E-12 4.79422E-13
 -1      2222 3.52752E+01 3.29825E+00 3.12277E-01 8.78210E-01-8.23563E-13 1.85740E-13
 -1      2223 3.07170E+01-1.21274E+00 1.40926E-01 2.66630E+00-1.81646E-13-3.18578E-13
 -1      2224 1.56392E+01-6.13825E+00-3.89001E-02 6.69368E+00-2.43139E-14-5.83728E-13
 -1      2225 2.98986E+00-5.12095E+00-1.23354E-01 2.78756E+00-8.77354E-14-4.29601E-13
 -1      2226 2.09467E+00-5.07604E+00-1.48558E-01-1.81528E+00-2.03879E-13-3.22853E-13
 -1      2227 5.72293E+00-6.02455E+00-1.30534E-01-5.27665E+00-1.94955E-13 2.08000E-13
 -1      2228 1.32481E+01-6.04300E+00-2.78862E-02-6.47303E+00-1.76636E-13 2.04357E-13
 -1      2229 1.70848E+01-6.28470E+00-8.90917E-02-6.51065E+00-3.12472E-13 4.97935E-14
 -1      2230 1.26744E+01-5.70173E+00 1.87014E-01-6.83659E+00-2.29428E-13 3.49221E-13
 -1      2231 2.22411E+01-4.97830E+00 7.38552E-02-5.41995E+00-1.69670E-13 1.56958E-13
 -1      2232 3.35942E+01 2.96849E+00 3.77821E-01-1.94725E-01-6.20060E-14-1.61759E-13
 -1      2233 3.62700E+01 6.60822E+00 2.24221E-01 3.73391E-01 5.33462E-13-4.66294E-15
 -1      2234 3.58449E+01 7.93709E+00 7.87672E-02 7.28073E-01 4.54692E-13-2.41057E-14
 -1      2235 2.90520E+01-1.63676E+00 3.35920E-01-3.21312E+00-8.17263E-14 2.35201E-13
 -1      2236 2.43163E+01-4.78512E+00 3.61259E-02 5.02652E+00-5.21805E-14-5.04319E-13
 -1      2237 1.48277E+01 4.07764E-01 3.52496E-03 3.08626E-01 2.65274E-13-6.42138E-14
 -1      2238 1.49788E+01 5.55218E-01 1.63340E-02 5.40374E-01 3.02217E-13-3.30964E-14
 -1      2239 1.86737E+01 3.34769E+00-1.13501E-02-1.01956E+00-2.48515E-13-3.58150E-13
 -1      2240 1.89601E+01 3.35302E+00-9.94916E-03-1.19408E+00-2.93603E-13-3.20100E-13
 -1      2241 1.92603E+01 3.30155E+00-1.34312E-02-1.34740E+00-3.18457E-13-2.92502E-13
 -1      2242 1.95795E+01 3.26916E+00-1.28776E-02-1.52963E+00-3.61804E-13-2.48659E-13
 -1      2243 1.92708E+01 2.93961E+00 5.96894E-04-1.24317E+00-2.86438E-13-2.67612E-13
 -1      2244 1.76382E+01 3.25002E+00-9.20938E-03-3.83449E-01-1.07039E-13-4.33819E-13
 -1      2245 1.78846E+01 3.30164E+00-8.31235E-03-5.46987E-01-1.42858E-13-4.27431E-13
 -1      2246 1.71658E+01 3.12711E+00-8.93527E-03-7.21133E-02-2.64972E-14-4.60474E-13
 -1      2247 1.73991E+01 3.19752E+00-8.42838E-03-2.33627E-01-7.44677E-14-4.41246E-13
 -1      2248 1.76646E+01 2.89392E+00-8.92781E-04-3.58676E-01-8.21802E-14-4.06967E-13
 -1      2249 1.67248E+01 2.95942E+00-9.27293E-03 2.32664E-01 5.93046E-14-4.89248E-13
 -1      2250 1.69425E+01 3.04829E+00-8.97389E-03 7.37964E-02 1.19486E-14-4.75390E-13
 -1      2251 1.72012E+01 2.76282E+00-6.88023E-04-7.10795E-02-6.25871E-15-4.37527E-13
 -1      2252 1.63013E+01 2.73244E+00-1.06335E-02 5.41611E-01 1.50364E-13-4.78971E-13
 -1      2253 1.65096E+01 2.84879E+00-9.92403E-03 3.78984E-01 9.74147E-14-4.81058E-13
 -1      2254 1.67628E+01 2.57627E+00-1.97118E-04 2.12041E-01 8.50342E-14-4.49781E-13
 -1      2255 1.59115E+01 2.42691E+00-1.38857E-02 8.43055E-01 2.37713E-13-4.42221E-13
 -1      2256 1.61019E+01 2.58349E+00-1.12442E-02 6.81730E-01 1.81413E-13-4.68487E-13
 -1      2257 1.63470E+01 2.32192E+00 9.52485E-04 4.87039E-01 1.69010E-13-4.35013E-13
 -1      2258 1.55701E+01 2.00185E+00-2.09239E-02 1.11164E+00 3.21350E-13-3.54871E-13
 -1      2259 1.57356E+01 2.22598E+00-1.21307E-02 9.63915E-01 2.65870E-13-4.00717E-13
 -1      2260 1.59613E+01 1.98011E+00 3.70145E-03 7.32219E-01 2.44988E-13-3.83504E-13
 -1      2261 1.47210E+01 2.22754E-01 4.14834E-03-1.09448E-02 2.05738E-13-9.62867E-14
 -1      2262 1.47856E+01 3.00789E-01 1.57102E-02 1.17540E-01 2.32956E-13-5.75833E-14
 -1      2263 1.51485E+01 5.11900E-01-2.53874E-03 2.78692E-01 2.67687E-13-1.58229E-13
 -1      2264 2.19246E+01 8.72747E-01 1.27617E-02-1.30406E+00-3.53641E-13 2.77775E-13
 -1      2265 2.16502E+01 6.33792E-01-5.53886E-03-9.87068E-01-3.07213E-13 2.50528E-13
 -1      2266 3.03690E+01-1.84210E+00-7.74920E-02 2.23047E+00 3.50386E-13-2.83107E-15
 -1      2267 2.75847E+01-3.82402E+00-5.27245E-02 3.33111E+00 1.99452E-13-1.72834E-13
 -1      2268 2.15384E+01 4.69052E-01 1.67297E-02-7.71904E-01-2.32782E-13 2.41691E-13
 -1      2269 2.13338E+01 3.39991E-01-5.37746E-04-5.99987E-01-2.09292E-13 2.19246E-13
 -1      2270 2.14427E+01 7.51385E-01-1.68406E-03-1.03748E+00-2.99109E-13 1.30939E-13
 -1      2271 2.12189E+01 2.53486E-01 1.11975E-02-4.64822E-01-1.88748E-13 2.36147E-13
 -1      2272 2.10768E+01 1.81278E-01 3.34573E-04-3.69452E-01-1.56957E-13 2.04185E-13
 -1      2273 2.11784E+01 4.10521E-01-3.50788E-03-6.57855E-01-1.99406E-13 1.19431E-13
 -1      2274 2.09789E+01 1.32297E-01 6.60296E-03-2.89986E-01-1.37040E-13 2.07766E-13
 -1      2275 2.08802E+01 9.06399E-02 4.30712E-04-2.38656E-01-1.29091E-13 1.84242E-13
 -1      2276 2.09518E+01 2.19190E-01-3.52185E-03-4.24050E-01-1.64807E-13 1.38303E-13
 -1      2277 2.08000E+01 6.19859E-02 3.75304E-03-1.94898E-01-1.23684E-13 1.60866E-13
 -1      2278 2.07287E+01 3.76184E-02 3.81173E-04-1.69643E-01-1.10889E-13 1.58491E-13
 -1      2279 2.07678E+01 1.08543E-01-2.86736E-03-2.88091E-01-1.56904E-13 1.06658E-13
 -1      2280 2.06623E+01 2.08284E-02 2.04282E-03-1.48321E-01-1.20077E-13 1.53131E-13
 -1      2281 2.06073E+01 6.87264E-03 3.03370E-04-1.38542E-01-1.05568E-13 1.38737E-13
 -1      2282 2.06188E+01 4.36028E-02-2.10083E-03-2.14877E-01-1.30082E-13 6.55925E-14
 -1      2283 2.05506E+01-2.54060E-03 1.01213E-03-1.30909E-01-9.12048E-14 1.14318E-13
 -1      2284 2.05049E+01-9.90348E-03 2.34050E-04-1.30018E-01-7.59906E-14 1.01447E-13
 -1      2285 2.04950E+01 6.14294E-03-1.45105E-03-1.80951E-01-1.29281E-13 6.06804E-14
 -1      2286 2.04545E+01-1.45083E-02 3.95726E-04-1.30223E-01-1.12446E-13 7.17737E-14
 -1      2287 2.04134E+01-1.75319E-02 1.93815E-04-1.33941E-01-1.70478E-13 6.50887E-14
 -1      2288 2.03880E+01-1.39351E-02-9.70245E-04-1.70644E-01-1.24126E-13 2.02507E-14
 -1      2289 2.03671E+01-1.88888E-02 4.22221E-05-1.37993E-01-1.40526E-13 8.95017E-14
 -1      2290 2.03281E+01-1.89603E-02 1.93178E-04-1.43440E-01-1.28610E-13 1.11103E-13
 -1      2291 2.02919E+01-2.25674E-02-6.42840E-04-1.73333E-01-1.52286E-13-1.60592E-14
 -1      2292 2.02843E+01-1.80490E-02-1.41017E-04-1.48556E-01-1.32024E-13 1.30339E-13
 -1      2293 2.02461E+01-1.60351E-02 2.36721E-04-1.53728E-01-4.97032E-14 7.01992E-14
 -1      2294 2.02024E+01-2.34005E-02-4.38713E-04-1.81683E-01-1.26038E-13 2.84541E-14
 -1      2295 2.02040E+01-1.34739E-02-2.13924E-04-1.57913E-01 1.34545E-15-2.58038E-15
 -1      2296 2.01663E+01-9.90927E-03 3.26464E-04-1.61359E-01 7.13777E-15 2.22668E-14
 -1      2297 2.01173E+01-1.87182E-02-3.30080E-04-1.90509E-01-6.98164E-14 1.20085E-14
 -1      2298 2.01256E+01-6.08114E-03-2.16290E-04-1.63126E-01-3.62792E-14-2.73823E-14
 -1      2299 2.00888E+01-1.28359E-03 4.63650E-04-1.63740E-01-9.50128E-14-1.01663E-13
 -1      2300 2.00355E+01-9.94134E-03-2.95324E-04-1.96024E-01-5.94085E-14-9.97522E-14
 -1      2301 2.00498E+01 3.58034E-03-1.74405E-04-1.61912E-01-1.35679E-13-6.83488E-14
 -1      2302 2.00148E+01 9.42841E-03 6.49101E-04-1.58800E-01-1.57566E-13-1.04341E-13
 -1      2303 1.99567E+01 2.06857E-03-3.19032E-04-1.95333E-01-1.09870E-13-1.34838E-13
 -1      2304 1.99779E+01 1.51841E-02-1.04864E-04-1.52390E-01-1.71769E-13-4.76519E-14
 -1      2305 1.99462E+01 2.19674E-02 8.82709E-04-1.44785E-01-1.74289E-13 1.08153E-14
 -1      2306 1.98818E+01 1.67974E-02-3.91308E-04-1.86090E-01-1.28808E-13 2.51792E-14
 -1      2307 1.99123E+01 2.84986E-02-1.67197E-05-1.32923E-01-1.24638E-13 6.39878E-14
 -1      2308 1.98855E+01 3.61041E-02 1.16241E-03-1.20155E-01-7.90195E-14 7.88853E-14
 -1      2309 1.98122E+01 3.39033E-02-5.07458E-04-1.66282E-01-1.40529E-13 3.97275E-14
 -1      2310 1.98559E+01 4.32634E-02 8.76119E-05-1.02060E-01-6.22075E-14 3.76553E-14
 -1      2311 1.98362E+01 5.15149E-02 1.48312E-03-8.35643E-02-4.83305E-14 6.61310E-14
 -1      2312 1.97500E+01 5.30522E-02-6.68120E-04-1.34109E-01-9.75427E-14 4.09404E-14
 -1      2313 1.98123E+01 5.90694E-02 2.12313E-04-5.85688E-02-1.12010E-13 3.59658E-14
 -1      2314 1.98021E+01 6.76790E-02 1.83677E-03-3.39335E-02-1.26292E-13 1.58284E-14
 -1      2315 1.96979E+01 7.37586E-02-8.78665E-04-8.79784E-02-9.92364E-14 1.58782E-14
 -1      2316 1.97861E+01 7.52875E-02 3.68029E-04-1.55840E-03-4.87233E-14-6.68745E-15
 -1      2317 1.97880E+01 8.38696E-02 2.21481E-03 2.94124E-02 1.50833E-14 3.84650E-14
 -1      2318 1.96595E+01 9.52710E-02-1.14538E-03-2.65798E-02-9.23853E-14 6.43741E-14
 -1      2319 1.97823E+01 9.11602E-02 5.67788E-04 6.93414E-02 4.03518E-14 4.44918E-14
 -1      2320 1.97993E+01 9.94124E-02 2.61458E-03 1.06606E-01 1.20023E-13 5.69824E-14
 -1      2321 1.96391E+01 1.16620E-01-1.46425E-03 5.09228E-02 5.07145E-14-3.80723E-15
 -1      2322 1.98067E+01 1.06283E-01 8.06168E-04 1.53852E-01 7.98522E-14 2.03602E-14
 -1      2323 1.98417E+01 1.14494E-01 3.04669E-03 1.97279E-01-1.10473E-14 3.22969E-14
 -1      2324 1.96421E+01 1.37086E-01-1.79995E-03 1.44641E-01 5.15934E-14-7.10113E-14
 -1      2325 1.98645E+01 1.21767E-01 9.97447E-04 2.51296E-01-2.10085E-14 3.56691E-14
 -1      2326 1.99200E+01 1.31737E-01 3.54891E-03 3.01186E-01 8.72921E-14 4.40321E-14
 -1      2327 1.96740E+01 1.57483E-01-2.06948E-03 2.53828E-01 6.91682E-15 9.60543E-15
 -1      2328 1.99590E+01 1.42054E-01 9.09600E-04 3.61957E-01 6.10423E-14 1.48296E-14
 -1      2329 2.00371E+01 1.57857E-01 4.24050E-03 4.20155E-01-4.10073E-14 1.24887E-14
 -1      2330 1.97386E+01 1.82420E-01-2.16215E-03 3.77513E-01 4.35245E-14-4.33572E-14
 -1      2331 2.00899E+01 1.75672E-01 3.18817E-04 4.90542E-01-7.08555E-14-9.43371E-14
 -1      2332 2.01931E+01 2.01941E-01 5.38705E-03 5.61717E-01-3.41075E-14-5.07732E-16
 -1      2333 1.98354E+01 2.21976E-01-2.01414E-03 5.17374E-01-6.87645E-14-1.54110E-13
 -1      2334 2.02560E+01 2.29782E-01-2.91891E-04 6.50292E-01-4.99243E-14-2.49259E-14
 -1      2335 2.03885E+01 2.63579E-01 6.59584E-03 7.41174E-01-4.04001E-14-7.80211E-15
 -1      2336 1.99587E+01 2.86347E-01-1.79974E-03 6.83675E-01-5.96034E-14-1.64323E-13
 -1      2337 2.04670E+01 2.91676E-01-2.14765E-04 8.58135E-01 2.24908E-14-4.85613E-14
 -1      2338 2.06351E+01 3.13185E-01 6.22122E-03 9.68813E-01-4.31187E-14-5.77575E-14
 -1      2339 2.01075E+01 3.65485E-01-2.62082E-03 8.97684E-01 1.63922E-14-1.57238E-13
 -1      2340 2.07518E+01 3.15432E-01 1.77737E-03 1.10890E+00-2.51836E-14-4.35887E-14
 -1      2341 2.09602E+01 2.92986E-01 3.35017E-03 1.22039E+00 4.61176E-14-1.57506E-14
 -1      2342 2.03059E+01 4.08688E-01-5.08861E-03 1.17000E+00-1.92667E-14-7.45725E-14
 -1      2343 2.11396E+01 2.40652E-01 4.99836E-03 1.35104E+00 1.37807E-13 1.13887E-13
 -1      2344 2.13869E+01 1.49291E-01-1.60024E-03 1.42402E+00 1.53303E-13 1.39829E-13
 -1      2345 2.05972E+01 3.44325E-01-6.56509E-03 1.46198E+00 1.44320E-13 3.26745E-14
 -1      2346 2.16429E+01 2.70497E-02 8.41308E-03 1.49591E+00 1.07922E-13 1.56180E-13
 -1      2347 2.19211E+01-1.44150E-01-7.82896E-03 1.48249E+00 2.09528E-13 2.74096E-13
 -1      2348 2.10126E+01 1.12431E-01-7.15145E-03 1.68572E+00 1.43662E-13 1.59528E-13
 -1      2349 2.22683E+01-3.40428E-01 1.17782E-02 1.44268E+00 1.53006E-13 2.62362E-13
 -1      2350 2.25582E+01-5.88865E-01-1.64399E-02 1.29442E+00 1.90603E-13 2.92693E-13
 -1      2351 2.15733E+01-3.19586E-01-1.15147E-02 1.73870E+00 1.83470E-13 1.74001E-13
 -1      2352 2.30183E+01-8.43522E-01 1.53765E-02 1.08686E+00 2.15289E-13 2.20523E-13
 -1      2353 2.32888E+01-1.13150E+00-2.55264E-02 7.65988E-01 8.74674E-14 2.74602E-13
 -1      2354 2.23157E+01-9.37522E-01-1.75087E-02 1.51710E+00 1.66425E-13 1.34585E-13
 -1      2355 2.38579E+01-1.37757E+00 1.49805E-02 3.37247E-01 5.48875E-14 2.99512E-13
 -1      2356 2.40559E+01-1.58360E+00-3.14555E-02-1.53444E-01-3.54630E-14 3.52674E-13
 -1      2357 2.32745E+01-1.63865E+00-2.05821E-02 9.09509E-01 6.27209E-14 1.43312E-13
 -1      2358 2.46384E+01-1.65507E+00 9.96484E-04-7.99780E-01-2.98847E-14 5.33697E-13
 -1      2359 2.46981E+01-1.54474E+00-2.34574E-02-1.35363E+00 5.74285E-14 5.43318E-13
 -1      2360 2.43920E+01-2.11384E+00-1.64238E-02-1.58105E-01 4.84916E-14 2.28258E-13
 -1      2361 2.50543E+01-1.19925E+00-3.37804E-02-2.02241E+00-1.01015E-13 4.38222E-13
 -1      2362 2.49513E+01-5.67141E-01 2.27648E-03-2.36120E+00-2.87111E-13 4.17760E-13
 -1      2363 2.53852E+01-1.78696E+00-8.52563E-03-1.55954E+00-1.32400E-13 4.24194E-13
 -1      2364 2.48690E+01 2.49991E-01-8.14817E-02-2.60757E+00-4.41347E-13 3.40894E-13
 -1      2365 2.46514E+01 1.23875E+00 5.57413E-03-2.39721E+00-6.36408E-13 2.22938E-13
 -1      2366 2.58354E+01-2.26386E-01-1.01842E-02-2.66133E+00-4.37813E-13 1.62037E-13
 -1      2367 2.43331E+01 2.09320E+00-9.21418E-02-1.79443E+00-6.79803E-13 1.80272E-13
 -1      2368 2.41278E+01 2.69615E+00-5.43287E-02-1.00623E+00-5.22145E-13 5.08452E-14
 -1      2369 2.56498E+01 2.13277E+00-4.77342E-02-2.35235E+00-6.33049E-13 1.78045E-13
 -1      2370 2.41271E+01 2.86464E+00-3.73483E-02 2.43329E-01-4.58154E-13-1.61992E-13
 -1      2371 2.41905E+01 2.47669E+00-7.71175E-02 1.13328E+00-2.86687E-13-4.68427E-13
 -1      2372 2.52650E+01 3.62873E+00-5.66898E-02-3.90476E-01-6.50521E-13-1.33418E-13
 -1      2373 2.44665E+01 1.74436E+00 1.87081E-03 1.97181E+00 1.11217E-13-7.32772E-13
 -1      2374 2.46743E+01 7.73894E-01-8.40491E-02 2.36403E+00 3.73188E-13-5.54403E-13
 -1      2375 2.55072E+01 2.75627E+00-4.88230E-02 1.75271E+00-2.36061E-13-3.41163E-13
 -1      2376 2.48359E+01-1.48897E-01 4.71346E-04 2.32209E+00 6.80477E-13-5.37470E-13
 -1      2377 2.49654E+01-9.22466E-01-4.93861E-02 2.09416E+00 4.35080E-13-2.62040E-13
 -1      2378 2.57987E+01 3.79095E-01-2.72391E-02 2.52179E+00 4.46504E-13-6.25607E-13
 -1      2379 2.47109E+01-1.41563E+00-1.77688E-02 1.48049E+00-4.95123E-14-2.17530E-13
 -1      2380 2.46671E+01-1.66411E+00-7.48791E-03 9.36897E-01-6.68909E-14-2.90103E-13
 -1      2381 2.55445E+01-1.50905E+00-6.95504E-04 1.70585E+00 2.81643E-13-5.27793E-13
 -1      2382 2.41132E+01-1.68423E+00-2.96597E-02 2.41523E-01 1.98140E-14-3.70265E-13
 -1      2383 2.39141E+01-1.54155E+00 1.22354E-02-2.97490E-01 3.57474E-14-3.88894E-13
 -1      2384 2.46356E+01-2.18315E+00-1.32448E-02 2.87114E-01-5.77444E-14-5.24110E-13
 -1      2385 2.33268E+01-1.32146E+00-2.62738E-02-8.02671E-01 8.43318E-14-2.62184E-13
 -1      2386 2.30388E+01-1.03911E+00 1.56323E-02-1.18614E+00 1.28724E-13-3.51429E-13
 -1      2387 2.35028E+01-1.86749E+00-2.07854E-02-9.20742E-01 1.14840E-13-4.00549E-13
 -1      2388 2.25546E+01-7.72488E-01-1.70799E-02-1.45969E+00 1.00893E-13-3.32009E-13
 -1      2389 2.22380E+01-5.00256E-01 1.30191E-02-1.66114E+00 4.16485E-15-1.59352E-13
 -1      2390 2.24934E+01-1.18112E+00-1.91312E-02-1.67008E+00 5.06973E-14-4.32251E-13
 -1      2391 2.18782E+01-2.71580E-01-8.60103E-03-1.74767E+00 3.04945E-14-1.58174E-13
 -1      2392 2.15696E+01-5.40699E-02 1.00647E-02-1.79240E+00-1.73667E-13 3.09950E-14
 -1      2393 2.17171E+01-5.03142E-01-1.35685E-02-1.99830E+00 2.92470E-14-3.09798E-13
 -1      2394 2.13047E+01 1.26846E-01-2.78928E-03-1.74309E+00-4.14449E-13 2.64081E-13
 -1      2395 2.10272E+01 2.93541E-01 7.51554E-03-1.66189E+00-1.92033E-13 3.33013E-13
 -1      2396 2.11483E+01 4.68355E-02-7.73092E-03-2.01045E+00-7.51189E-14-5.32551E-14
 -1      2397 1.47659E+01 6.44789E-02 2.02486E-03-3.07216E-01 1.22060E-13-1.59493E-13
 -1      2398 1.47212E+01 9.06717E-02 5.47903E-03-2.67110E-01 1.45709E-13-1.23888E-13
 -1      2399 1.48733E+01 2.92220E-02 1.43466E-03-3.65453E-01 9.36862E-14-1.89427E-13
 -1      2400 1.48028E+01 4.51303E-02 2.91013E-03-3.44967E-01 1.08368E-13-1.53178E-13
 -1      2401 1.51265E+01 7.99531E-02-2.74730E-03-3.67527E-01 1.35417E-13-1.85871E-13
 -1      2402 1.50117E+01 7.87531E-03 1.06511E-03-3.92452E-01 9.72069E-14-2.05414E-13
 -1      2403 1.49263E+01 1.73689E-02 1.38590E-03-3.83992E-01 9.56616E-14-1.96289E-13
 -1      2404 1.52168E+01 3.45334E-02-1.99866E-03-4.31797E-01 1.10022E-13-2.02950E-13
 -1      2405 1.51683E+01-4.40786E-03 8.28418E-04-4.00328E-01 1.05784E-13-2.06990E-13
 -1      2406 1.50751E+01 8.43605E-04 4.67578E-04-3.99036E-01 1.02083E-13-1.78162E-13
 -1      2407 1.53340E+01 7.27989E-03-1.36463E-03-4.62124E-01 9.48272E-14-1.96908E-13
 -1      2408 1.53347E+01-1.04954E-02 6.89474E-04-3.97292E-01 6.53708E-14-2.23601E-13
 -1      2409 1.52381E+01-8.16780E-03-8.46420E-05-3.99893E-01 1.00420E-13-1.98311E-13
 -1      2410 1.54680E+01-8.06616E-03-8.98739E-04-4.71572E-01 1.03136E-13-1.89830E-13
 -1      2411 1.55055E+01-1.21972E-02 6.32279E-04-3.89099E-01 6.21028E-14-2.17532E-13
 -1      2412 1.54080E+01-1.19519E-02-3.99951E-04-3.93290E-01 6.46041E-14-2.19053E-13
 -1      2413 1.56119E+01-1.52479E-02-5.84862E-04-4.69194E-01 6.90646E-14-1.66378E-13
 -1      2414 1.56782E+01-1.06880E-02 6.47209E-04-3.79894E-01 5.21493E-14-2.31872E-13
 -1      2415 1.55808E+01-1.19794E-02-5.55885E-04-3.84005E-01 5.01579E-14-2.27466E-13
 -1      2416 1.57613E+01-1.66320E-02-3.93140E-04-4.61418E-01 7.99575E-14-1.90860E-13
 -1      2417 1.58516E+01-6.72464E-03 7.28014E-04-3.72765E-01 6.66700E-14-2.29527E-13
 -1      2418 1.57546E+01-9.20624E-03-6.03209E-04-3.75536E-01 6.62906E-14-2.25422E-13
 -1      2419 1.59138E+01-1.37483E-02-2.96221E-04-4.52932E-01 4.90751E-14-2.03902E-13
 -1      2420 1.60264E+01-7.74379E-04 8.70875E-04-3.70114E-01 5.12012E-14-2.12225E-13
 -1      2421 1.59291E+01-4.23819E-03-5.76782E-04-3.70544E-01 6.54221E-14-2.13546E-13
 -1      2422 1.60684E+01-7.57455E-03-2.72665E-04-4.47262E-01 4.31553E-14-2.08599E-13
 -1      2423 1.62039E+01 6.89071E-03 1.07312E-03-3.73912E-01 1.08447E-14-1.68493E-13
 -1      2424 1.61051E+01 2.56152E-03-5.00768E-04-3.71159E-01 4.26530E-14-1.70923E-13
 -1      2425 1.62253E+01 1.28962E-03-3.06537E-04-4.47179E-01 3.08435E-14-1.57615E-13
 -1      2426 1.63867E+01 1.61054E-02 1.33122E-03-3.85866E-01 4.11784E-14-1.81887E-13
 -1      2427 1.62847E+01 1.09828E-02-3.91760E-04-3.79186E-01 1.98482E-15-1.65462E-13
 -1      2428 1.63856E+01 1.24900E-02-3.86248E-04-4.54973E-01 2.82985E-14-1.00069E-13
 -1      2429 1.65778E+01 2.67142E-02 1.63798E-03-4.07482E-01 7.35070E-14-1.89392E-13
 -1      2430 1.64706E+01 2.08777E-02-2.60950E-04-3.96212E-01 8.50925E-14-1.70251E-13
 -1      2431 1.65510E+01 2.57902E-02-5.03311E-04-4.72621E-01 5.60368E-14-1.09503E-13
 -1      2432 1.67810E+01 3.84564E-02 1.97903E-03-4.40034E-01 3.36196E-14-2.01229E-13
 -1      2433 1.66661E+01 3.20556E-02-1.15783E-04-4.23627E-01 4.84658E-14-1.78855E-13
 -1      2434 1.67240E+01 4.09289E-02-6.51077E-04-5.01845E-01 6.15775E-14-1.07385E-13
 -1      2435 1.70004E+01 5.08279E-02 2.32936E-03-4.84406E-01-4.49216E-14-1.70790E-13
 -1      2436 1.68754E+01 4.41572E-02 3.90122E-05-4.62520E-01-9.25155E-15-1.66940E-13
 -1      2437 1.69076E+01 5.74512E-02-8.23072E-04-5.44042E-01-1.70327E-14-8.69026E-14
 -1      2438 1.72404E+01 6.29330E-02 2.65293E-03-5.40788E-01-7.05191E-14-1.85455E-13
 -1      2439 1.71026E+01 5.65081E-02 2.01634E-04-5.13448E-01-2.29533E-14-1.50419E-13
 -1      2440 1.71052E+01 7.45122E-02-1.00882E-03-6.00065E-01-4.54609E-14-6.77198E-14
 -1      2441 1.75053E+01 7.33532E-02 2.91117E-03-6.08232E-01-1.64200E-13-2.02015E-13
 -1      2442 1.73524E+01 6.79750E-02 3.76460E-04-5.76050E-01-1.13787E-13-2.12766E-13
 -1      2443 1.73202E+01 9.06777E-02-1.18400E-03-6.69831E-01-6.76331E-14-1.02158E-13
 -1      2444 1.77986E+01 8.00406E-02 3.08118E-03-6.84103E-01-2.95825E-14-2.70117E-13
 -1      2445 1.76288E+01 7.68495E-02 5.82176E-04-6.48555E-01-1.04380E-13-2.74680E-13
 -1      2446 1.75565E+01 1.03766E-01-1.29594E-03-7.51784E-01-9.95827E-14-2.20530E-13
 -1      2447 1.81229E+01 8.00897E-02 3.13024E-03-7.63516E-01-2.89698E-14-2.67257E-13
 -1      2448 1.79353E+01 8.07270E-02 8.52804E-04-7.27259E-01-4.62887E-14-2.76472E-13
 -1      2449 1.78174E+01 1.10708E-01-1.27336E-03-8.42322E-01-4.51300E-14-3.56359E-13
 -1      2450 1.84793E+01 6.90283E-02 2.84152E-03-8.38662E-01-1.49974E-13-2.09550E-13
 -1      2451 1.82743E+01 7.60740E-02 1.14608E-03-8.06022E-01-7.65792E-14-2.10661E-13
 -1      2452 1.81056E+01 1.07140E-01-1.18873E-03-9.35390E-01-8.89315E-14-2.33000E-13
 -1      2453 1.88671E+01 3.95385E-02 6.95575E-04-8.97773E-01-1.01127E-13-9.14559E-14
 -1      2454 1.86474E+01 5.74060E-02 1.09035E-03-8.75202E-01-1.37871E-13-1.48709E-13
 -1      2455 1.84240E+01 8.59223E-02-1.78693E-03-1.02197E+00-1.47913E-13-1.65927E-13
 -1      2456 1.92836E+01-1.55551E-02-6.61259E-03-9.21491E-01-1.12108E-13-6.78704E-14
 -1      2457 1.90563E+01 1.59391E-02-1.86718E-03-9.18524E-01-7.97580E-14-1.31188E-13
 -1      2458 1.87774E+01 3.58494E-02-5.92634E-03-1.08788E+00-7.60702E-14-2.09832E-13
 -1      2459 1.97202E+01-7.87747E-02-1.38832E-02-8.80884E-01 7.07594E-15 2.44271E-14
 -1      2460 1.94946E+01-5.02204E-02-1.00308E-02-9.08474E-01-3.59105E-14-4.68046E-14
 -1      2461 1.91728E+01-5.00521E-02-1.70621E-02-1.10592E+00-7.16736E-14-1.99891E-13
 -1      2462 2.01308E+01-1.04208E-01-1.22871E-02-7.85843E-01 6.57087E-14 7.25918E-14
 -1      2463 1.99247E+01-9.62434E-02-1.20656E-02-8.31107E-01 6.41770E-14 4.15835E-14
 -1      2464 1.95916E+01-1.26975E-01-2.27729E-02-1.03899E+00-1.07726E-15-1.57097E-13
 -1      2465 2.04961E+01-1.19472E-01-9.85731E-03-6.81929E-01 9.30571E-14 3.33792E-14
 -1      2466 2.03106E+01-1.05851E-01-9.28642E-03-7.31883E-01 4.32814E-14 8.56343E-14
 -1      2467 1.99741E+01-1.50100E-01-1.58272E-02-9.20529E-01 8.46025E-14-3.09722E-14
 -1      2468 2.08466E+01-2.02652E-01-1.04742E-02-5.45580E-01 7.35319E-14 1.60359E-13
 -1      2469 2.06897E+01-1.47605E-01-2.07988E-03-6.23518E-01 1.13389E-13 8.13100E-14
 -1      2470 2.03423E+01-1.94769E-01-9.18857E-03-8.10527E-01 7.09797E-14 6.63946E-14
 -1      2471 2.11731E+01-3.59641E-01-1.37624E-02-2.95855E-01-7.38160E-14 3.83502E-14
 -1      2472 2.10617E+01-2.72283E-01 1.55960E-03-4.35299E-01 6.41388E-14 1.39858E-13
 -1      2473 2.07453E+01-3.33738E-01-1.32010E-03-6.43416E-01 5.51604E-14 8.78150E-14
 -1      2474 2.14222E+01-5.25246E-01-1.71525E-02 1.10134E-01-1.28842E-13-1.13910E-13
 -1      2475 2.13819E+01-4.43704E-01 2.80628E-04-9.95656E-02-1.80403E-13 2.54549E-14
 -1      2476 2.11580E+01-5.56605E-01 3.93612E-04-3.23566E-01-9.98472E-14 1.15775E-13
 -1      2477 2.15402E+01-6.04474E-01-1.65025E-02 6.41802E-01 4.08751E-14-2.96374E-13
 -1      2478 2.15925E+01-5.81585E-01-4.17204E-03 3.88161E-01-6.10211E-14-1.88953E-13
 -1      2479 2.15269E+01-7.58274E-01 4.00521E-04 1.75574E-01-5.07368E-14 5.69070E-14
 -1      2480 2.14787E+01-4.76474E-01-7.15649E-03 1.17902E+00 9.44317E-14-5.02148E-14
 -1      2481 2.16296E+01-5.76643E-01-9.63633E-03 9.53326E-01 7.37816E-14-2.50897E-13
 -1      2482 2.17894E+01-8.02051E-01 1.57020E-03 8.02261E-01 5.58473E-15 6.08986E-14
 -1      2483 2.12140E+01-5.44173E-02 7.95444E-03 1.48955E+00 2.97835E-14 2.04736E-13
 -1      2484 2.14362E+01-3.07063E-01-1.50500E-02 1.40844E+00 7.62728E-14 8.65913E-14
 -1      2485 2.18607E+01-5.21089E-01 5.27314E-03 1.39759E+00-8.19917E-15 2.25475E-13
 -1      2486 2.08268E+01 5.50090E-01 1.43279E-02 1.30440E+00-1.18643E-13 2.61579E-13
 -1      2487 2.10479E+01 2.40239E-01-1.70650E-02 1.46865E+00 4.82774E-14 2.93163E-13
 -1      2488 2.16862E+01 1.41874E-01 1.43851E-03 1.65649E+00-3.84120E-14 2.79283E-13
 -1      2489 2.05567E+01 9.98963E-01 6.55932E-03 5.68882E-01-2.51485E-13 2.44957E-13
 -1      2490 2.06652E+01 8.18906E-01-1.23884E-02 9.54467E-01-1.94308E-13 2.46574E-13
 -1      2491 2.13831E+01 9.45929E-01-8.92090E-03 1.27793E+00-1.25470E-13 2.91742E-13
 -1      2492 2.05767E+01 1.00377E+00-1.64213E-02-4.01679E-01-1.09530E-14 1.44702E-13
 -1      2493 2.05435E+01 1.05994E+00-4.60037E-03 3.19565E-02-1.99302E-13 2.52731E-13
 -1      2494 2.12241E+01 1.37711E+00-4.20854E-02 3.25294E-01-1.53606E-13 2.13127E-13
 -1      2495 2.09202E+01 6.11557E-01-1.53992E-02-1.18879E+00-7.44084E-14 6.77518E-14
 -1      2496 2.07408E+01 8.51784E-01 1.10314E-02-8.82295E-01 7.31464E-14 1.39554E-13
 -1      2497 2.13634E+01 1.26381E+00-2.93395E-02-7.66981E-01 5.42968E-15 1.20433E-13
 -1      2498 2.14030E+01 4.51861E-02-1.47231E-02-1.48529E+00 3.12465E-14-5.52197E-14
 -1      2499 2.11603E+01 3.32794E-01 1.60488E-02-1.41143E+00-4.05236E-14 3.85048E-14
 -1      2500 2.17450E+01 6.51840E-01-2.94538E-03-1.50550E+00-3.94823E-15 1.57652E-14
 -1      2501 2.17958E+01-4.08829E-01-1.07980E-02-1.27347E+00-5.58420E-14 5.08907E-14
 -1      2502 2.15780E+01-2.06983E-01 5.32486E-03-1.40799E+00-5.09815E-14-4.18979E-14
 -1      2503 2.21299E+01-9.61128E-02 1.05767E-02-1.63072E+00-2.80084E-14-8.33878E-14
 -1      2504 2.19606E+01-6.15514E-01-5.00747E-03-7.51263E-01 1.78841E-13 5.90951E-14
 -1      2505 2.18299E+01-5.44612E-01-7.13736E-03-9.97664E-01 3.62605E-14 9.86424E-14
 -1      2506 2.23116E+01-6.41138E-01 1.20530E-02-1.22966E+00-5.85393E-14-4.41803E-14
 -1      2507 2.18855E+01-5.96786E-01-4.24563E-04-1.57863E-01 1.68253E-13 2.88091E-13
 -1      2508 2.18632E+01-6.31047E-01-1.42357E-02-4.16692E-01 2.78845E-13 1.60362E-13
 -1      2509 2.22339E+01-8.52120E-01 7.08039E-03-5.74714E-01 1.16149E-13-8.10770E-14
 -1      2510 2.16337E+01-4.41405E-01 2.57950E-03 3.36459E-01 1.00477E-13 2.38555E-13
 -1      2511 2.17071E+01-5.32906E-01-1.52041E-02 1.31644E-01 8.66199E-14 3.00835E-13
 -1      2512 2.19594E+01-7.79480E-01 1.82167E-03 7.75142E-02 7.97392E-14 2.50984E-13
 -1      2513 2.12841E+01-2.31762E-01 4.41519E-03 6.50056E-01-9.64994E-14 9.23500E-14
 -1      2514 2.14228E+01-3.42216E-01-1.24240E-02 5.29758E-01 6.56428E-14 2.46170E-13
 -1      2515 2.15819E+01-5.45089E-01-1.55443E-03 5.73121E-01 1.03050E-13 2.83020E-13
 -1      2516 2.09044E+01-1.58958E-02 6.15747E-03 7.64477E-01-2.81046E-14 2.49151E-13
 -1      2517 2.10728E+01-1.26058E-01-8.44800E-03 7.34485E-01-1.18035E-13 1.66911E-13
 -1      2518 2.11763E+01-2.51980E-01-2.82928E-03 8.52525E-01-1.21577E-13 1.74478E-13
 -1      2519 2.05380E+01 1.78139E-01 5.77847E-03 6.90811E-01 3.40713E-14 3.93650E-13
 -1      2520 2.07073E+01 8.38771E-02-4.31424E-03 7.44662E-01-9.89318E-15 3.65646E-13
 -1      2521 2.07884E+01 4.59949E-02-1.18711E-03 9.14165E-01-2.80205E-14 3.23155E-13
 -1      2522 2.03684E+01 2.59850E-01 6.03698E-04 5.77615E-01 1.31048E-13 3.62570E-13
 -1      2523 1.99316E+01 1.51655E+00-7.61844E-03 1.49388E+00-2.63924E-13 2.14918E-13
 -1      2524 2.00675E+01 1.28182E+00 6.33154E-03 1.49341E+00-4.09070E-13-7.10242E-14
 -1      2525 1.96266E+01 1.97054E+00-1.34081E-02 1.34276E+00-6.55458E-14-1.17297E-13
 -1      2526 1.97881E+01 1.75214E+00 5.94609E-03 1.44757E+00-2.55833E-13 2.10394E-13
 -1      2527 1.98106E+01 1.29384E+00-2.12180E-03 1.67675E+00-1.99387E-13 2.85948E-13
 -1      2528 2.03324E+01 7.26543E-01 3.20149E-03 1.22140E+00-2.00099E-13-1.00400E-13
 -1      2529 2.03837E+01 5.36594E-01 3.66514E-03 1.09579E+00-5.10698E-14-2.26589E-13
 -1      2530 2.01752E+01 1.08632E+00-1.31016E-03 1.42913E+00-5.20443E-13-3.28672E-13
 -1      2531 2.02650E+01 8.70744E-01 5.43922E-03 1.35189E+00-3.50681E-13 1.94517E-14
 -1      2532 2.03942E+01 5.57881E-01-3.43090E-03 1.43738E+00-3.71145E-13-1.97905E-13
 -1      2533 2.01599E+01 8.82675E-01-2.87981E-03 1.64822E+00-4.48692E-13-9.19188E-14
 -1      2534 1.93295E+01 2.36745E+00-1.62384E-02 9.43709E-01-1.95017E-13-2.79441E-13
 -1      2535 1.94758E+01 2.20248E+00 2.75059E-03 1.15982E+00-4.13311E-14-3.94565E-13
 -1      2536 1.94089E+01 1.74028E+00 2.96688E-03 1.44160E+00-1.94442E-13-1.51610E-13
 -1      2537 1.91331E+01 2.61277E+00-1.45710E-02 3.33830E-01-2.24927E-13-2.12500E-13
 -1      2538 1.92162E+01 2.53528E+00-3.04092E-03 6.33505E-01-2.94550E-13-1.72161E-13
 -1      2539 1.90495E+01 2.12266E+00 9.35825E-03 9.18937E-01-1.95740E-13-2.96379E-13
 -1      2540 1.91093E+01 2.63480E+00-9.19349E-03-3.74606E-01-3.26019E-13-5.24953E-13
 -1      2541 1.90982E+01 2.66403E+00-9.63135E-03-4.93341E-02-2.02734E-13-3.68925E-13
 -1      2542 1.88473E+01 2.33179E+00 1.33741E-02 1.76473E-01-1.69405E-13-2.53462E-13
 -1      2543 1.92668E+01 2.42623E+00-2.11102E-03-1.01934E+00-9.85158E-14-4.16270E-13
 -1      2544 1.91654E+01 2.55471E+00-1.43443E-02-7.41068E-01-2.60105E-13-6.20918E-13
 -1      2545 1.88757E+01 2.30207E+00 1.27403E-02-6.27611E-01 3.46579E-14-4.56171E-13
 -1      2546 1.95619E+01 2.02958E+00 3.77058E-03-1.48811E+00 3.28340E-15 2.81492E-13
 -1      2547 1.93987E+01 2.23865E+00-1.50084E-02-1.30212E+00-4.50098E-14-1.43055E-13
 -1      2548 1.91277E+01 2.04522E+00 7.64496E-03-1.32138E+00 1.00566E-13-3.07620E-13
 -1      2549 1.99158E+01 1.53575E+00 6.78924E-03-1.69435E+00-7.10632E-14 5.80001E-13
 -1      2550 1.97323E+01 1.78991E+00-1.14716E-02-1.63251E+00-1.23231E-13 6.47702E-13
 -1      2551 1.95332E+01 1.63598E+00 1.00788E-03-1.77090E+00-9.05127E-14 3.45982E-13
 -1      2552 2.02631E+01 1.03960E+00 9.10125E-03-1.62989E+00-1.57721E-13 3.18974E-13
 -1      2553 2.00905E+01 1.30157E+00-4.66534E-03-1.69145E+00-1.32315E-13 5.20605E-13
 -1      2554 1.99938E+01 1.18248E+00-5.01385E-04-1.91254E+00-2.31667E-13 4.38198E-13
 -1      2555 4.58891E+00-3.42711E+00 6.70969E-02 3.59885E+00 1.39222E-13 1.39183E-12
 -1      2556 3.36033E+00-3.39140E+00 8.03315E-02 1.31700E+00 1.21649E-13 1.58862E-12
 -1      2557 1.91824E+01-5.83868E+00 1.56515E-02 7.00720E+00 1.19071E-13-1.47519E-13
 -1      2558 1.53488E+01-5.49034E+00 1.32440E-01 7.07540E+00-3.90799E-14 4.20691E-13
 -1      2559 1.47075E+01 1.22747E-01 2.97418E-03-1.99138E-01 1.59948E-13-1.27041E-13
 -1      2560 1.47052E+01 1.66902E-01 9.73303E-03-1.26566E-01 1.76979E-13-9.25059E-14
 -1      2561 1.50764E+01 1.55044E-01-3.35256E-03-2.49910E-01 1.73843E-13-1.77918E-13
 -1      2562 2.04407E+01 7.34106E-01 7.04586E-04-1.24582E+00-1.60937E-14 1.43782E-13
 -1      2563 3.16599E+00-3.52016E+00 6.33215E-02-9.50731E-01 2.60968E-13 1.32444E-12
 -1      2564 4.59999E+00-3.69779E+00 7.14856E-02-3.51494E+00 5.26246E-14 9.50906E-13
 -1      2565 5.29844E+00-2.06296E+00 1.75551E-01 7.86321E-02 2.79285E-13 1.34015E-12
 -1      2566 2.53802E+01-5.17616E+00-2.59899E-02 4.91930E+00 2.03615E-13-3.59240E-13
 -1      2567 2.26314E+01-5.80961E+00 2.33012E-02 5.66044E+00 1.58235E-13-2.65218E-13
 -1      2568 1.40297E+01-5.86218E+00 6.81208E-02-6.82568E+00-4.45033E-13-5.11466E-13
 -1      2569 1.83026E+01-6.07877E+00-6.12209E-03-6.83077E+00-3.59379E-13-5.03871E-13
 -1      2570 2.77537E+01-3.79110E+00-3.14294E-02-3.05035E+00-2.63678E-15-1.63758E-14
 -1      2571 3.03710E+01-2.10164E+00-8.23590E-02-1.95076E+00 3.25170E-13 1.04805E-13
 -1      2572 5.48714E+00-3.95804E+00 7.39191E-02 4.44986E+00-1.19849E-13-3.88967E-13
 -1      2573 3.90241E+00-3.08441E+00 1.12785E-01 2.02913E+00-1.96836E-13-3.54605E-13
 -1      2574 3.31876E+01 6.34324E+00-2.61686E-01-4.29232E-01 6.08291E-13-2.13274E-13
 -1      2575 3.30682E+01 5.05291E+00-1.51193E-01-6.04687E-01 6.35686E-13-2.86438E-14
 -1      2576 1.81379E+01 3.32558E+00-9.99507E-03-6.98457E-01-1.69425E-13-4.11515E-13
 -1      2577 1.84011E+01 3.35679E+00-8.71123E-03-8.66372E-01-2.16106E-13-3.86116E-13
 -1      2578 1.86914E+01 2.99213E+00-3.31003E-04-9.47653E-01-2.25550E-13-3.37350E-13
 -1      2579 1.81601E+01 2.97246E+00-7.81741E-04-6.51874E-01-1.54370E-13-3.85071E-13
 -1      2580 3.21844E+01 7.18120E+00-4.33819E-01 7.46369E-01 3.49387E-13 1.04805E-13
 -1      2581 3.31464E+01 7.28094E+00-2.56461E-01 9.03134E-02 4.03788E-13-9.49241E-14
 -1      2582 2.69819E+01-3.64727E+00 1.96496E-01-2.57443E+00-9.57567E-15 1.85352E-13
 -1      2583 2.96273E+01-1.82905E+00 2.25192E-01-1.26967E+00-6.04516E-14 3.85803E-15
 -1      2584 3.22005E+01 4.94245E+00-2.28155E-01 2.16840E+00 2.33417E-13 3.09058E-14
 -1      2585 3.21012E+01 5.92829E+00-4.73878E-01 1.75336E+00 2.69354E-13 5.88418E-14
 -1      2586 2.64026E+01-4.73681E+00-7.39364E-02 3.83744E+00-2.92544E-14-5.68157E-13
 -1      2587 2.31474E+01-5.63309E+00 2.14422E-02 4.85459E+00 7.10543E-15-4.10144E-13
 -1      2588 3.11010E+01 5.29239E-01 3.12625E-01 4.57638E-01-1.57097E-13-1.08136E-13
 -1      2589 3.18644E+01 2.88639E+00 6.56261E-02 1.62674E+00-3.36398E-14 2.49800E-15
 -1      2590 2.18938E+01-5.66545E+00 1.37874E-01-5.03510E+00-2.52798E-13 1.08483E-13
 -1      2591 2.50368E+01-4.71473E+00 1.79409E-01-4.19825E+00-6.92502E-14 1.66422E-13
 -1      2592 2.64653E+01-4.62481E+00 2.80356E-01-2.22659E+00-3.85941E-14 1.19946E-13
 -1      2593 5.82876E+00-4.50702E+00 5.37802E-02-4.74010E+00-2.41696E-13 1.95288E-13
 -1      2594 8.55382E+00-4.88363E+00 3.99643E-02-6.09575E+00-2.85411E-13 4.01790E-13
 -1      2595 3.50267E+00-2.86938E+00 1.12966E-01-9.94413E-01-2.42469E-13-3.52662E-13
 -1      2596 4.12318E+00-3.73359E+00 6.82270E-02-3.21508E+00-2.70201E-13-1.03029E-13
 -1      2597 6.73654E+00-2.93435E+00 1.43158E-01-4.01229E+00-3.07018E-13 5.98133E-14
 -1      2598 1.08421E+01-5.44923E+00-5.47076E-03 6.74765E+00-2.58682E-14-5.64437E-13
 -1      2599 8.08033E+00-4.90416E+00 4.18750E-02 5.80164E+00 1.83187E-14-5.19890E-13
 -1      2600 1.92777E+01-5.96959E+00-4.16674E-02 6.45221E+00-6.07847E-14-4.85181E-13
 -1      2601 1.47667E+01-5.98399E+00 1.55508E-02 6.62683E+00-4.91274E-14-5.05415E-13
 -1      2602 1.48926E+01-5.28305E+00 1.03313E-01 6.62728E+00-9.58122E-14-5.06942E-13
 -1      2603 3.13486E+01-9.49803E-01-6.29992E-02 9.90823E-01-2.77977E-13-6.55032E-14
 -1      2604 2.89155E+01-2.89297E+00-3.05768E-02 1.86603E+00-3.59296E-14-2.54130E-13
 -1      2605 3.34763E+01 3.32421E+00-1.28368E-01-7.52370E-01-9.96786E-13 4.77840E-13
 -1      2606 3.23884E+01 1.35234E+00-5.65465E-02-1.30124E-01-6.68160E-13 2.52520E-13
 -1      2607 3.31084E+01 6.59777E+00-1.43629E-01-9.24060E-01-1.13382E-12 3.21757E-13
 -1      2608 3.32524E+01 5.23247E+00-7.90395E-02-1.19768E+00-1.10356E-12 3.39728E-13
 -1      2609 3.36493E+01 7.00542E+00-1.32397E-01 4.34880E-01-9.63785E-13 2.72005E-15
 -1      2610 3.31365E+01 7.38390E+00-1.61020E-01-1.32078E-01-1.01857E-12 1.16917E-13
 -1      2611 3.23281E+01 4.37013E+00-1.40222E-01 1.34282E+00-1.14436E-13-3.77476E-14
 -1      2612 3.35624E+01 5.99083E+00-8.39971E-02 8.64383E-01-6.37268E-13 8.64309E-14
 -1      2613 3.08539E+01 6.13503E+00-2.59226E-02 1.14037E+00-7.07073E-13-2.51438E-13
 -1      2614 3.17322E+01-9.05145E-02-1.52831E-02-3.70145E-01 5.22492E-13 1.95011E-13
 -1      2615 3.23814E+01 1.80360E+00-1.75107E-01 7.66867E-01 4.16667E-13 4.87943E-14
 -1      2616 3.03836E+01-1.77798E+00 1.10757E-02-1.03192E-01 4.35227E-13 1.17406E-14
 -1      2617 2.17023E+01-5.87967E+00-8.05931E-03-5.64458E+00-3.89022E-13-5.72487E-13
 -1      2618 2.50270E+01-5.08731E+00-4.71031E-02-4.90837E+00-3.00260E-13-5.14755E-13
 -1      2619 3.28090E+01 2.66232E+00-1.73776E-01-1.69115E-01 4.73843E-13-4.56857E-14
 -1      2620 3.16249E+01 4.73209E-01-7.23188E-02 6.60792E-01 4.86472E-13-1.02141E-14
 -1      2621 6.99818E+00-4.48977E+00 8.00588E-02-5.19044E+00-7.22200E-14 5.66214E-13
 -1      2622 9.62098E+00-4.95859E+00 9.80607E-03-6.51059E+00-2.61985E-13 4.31599E-14
 -1      2623 2.20331E+01 2.04709E+00-1.67749E-02-2.23875E+00-4.33294E-13 2.69753E-13
 -1      2624 2.19166E+01 1.25714E+00-7.00070E-03-1.59957E+00-4.03679E-13 2.74274E-13
 -1      2625 2.16057E+01 1.41426E+00 5.15159E-03-1.58273E+00-3.93653E-13 1.44233E-13
 -1      2626 2.14617E+01 2.45620E+00-8.92174E-03-2.17854E+00-4.35253E-13 1.24050E-13
 -1      2627 1.49655E+01 6.83865E-01-4.29533E-03 7.52202E-01 3.36219E-13-2.99908E-14
 -1      2628 1.51854E+01 9.67596E-01-3.14405E-03 1.14007E+00 3.57540E-13 3.22832E-15
 -1      2629 1.52292E+01 1.31534E+00-1.13191E-02 1.26678E+00 3.72707E-13-1.20431E-13
 -1      2630 1.52151E+01 8.30538E-01-7.55407E-03 7.17309E-01 3.31148E-13-1.46820E-13
 -1      2631 1.04076E+01-4.77054E+00 3.13134E-03 6.93025E+00-1.78746E-14 9.15018E-13
 -1      2632 7.11419E+00-4.22540E+00 1.11126E-01 5.38652E+00 6.80012E-15 1.14922E-12
 -1      2633 3.09492E+01 6.30204E+00-2.51182E-01-5.50759E-01 4.32265E-13-2.01811E-13
 -1      2634 1.99136E+01 2.78945E+00 1.69215E-03-1.52705E+00-3.50023E-13-2.06065E-13
 -1      2635 1.99208E+01 3.15998E+00-1.58618E-02-1.67551E+00-3.79108E-13-2.11049E-13
 -1      2636 2.02864E+01 3.06483E+00-1.81502E-02-1.86018E+00-4.14160E-13-1.48236E-13
 -1      2637 1.50817E+01 2.82731E-01-3.26448E-03-4.93492E-02 2.13775E-13-1.61938E-13
 -1      2638 1.53629E+01 1.64545E+00-8.03693E-03 1.21016E+00 3.41989E-13-2.51053E-13
 -1      2639 1.43931E+01-4.58209E+00 1.35151E-01 6.81940E+00-1.28342E-13 5.20750E-13
 -1      2640 2.06270E+01 2.89580E+00-1.65637E-02-1.95984E+00-4.15066E-13-9.28320E-14
 -1      2641 2.10574E+01 2.69737E+00-2.44594E-02-2.12023E+00-4.35980E-13 1.03736E-15
 -1      2642 2.12482E+01 2.10242E+00 1.72327E-03-1.86024E+00-4.22370E-13 4.21828E-14
 -1      2643 2.05789E+01 2.51950E+00 3.30120E-03-1.74615E+00-3.99728E-13-1.08897E-13
 -1      2644 2.71878E+01-4.71368E+00 1.84672E-02 3.04244E+00 6.27415E-14-1.65340E-13
 -1      2645 7.34330E+00-3.00007E+00 1.61795E-01-4.24556E+00 2.13024E-13 7.27751E-13
 -1      2646 3.12811E+01 3.20674E+00-1.14486E-01-1.19648E+00 5.48117E-13-2.35006E-13
 -1      2647 3.11179E+01 2.58334E+00-6.44092E-02 1.67449E+00 2.13163E-13-4.11338E-14
 -1      2648 2.04361E+01 2.93903E-01 3.11361E-04 7.73357E-01 4.67963E-14 3.21762E-13
 -1      2649 2.19229E+01-5.83478E+00 6.27071E-02 5.73467E+00 1.09995E-13-3.34288E-13
 -1      2650 2.04328E+01 4.00838E-01 2.57354E-03 9.00031E-01 6.25094E-14 1.83464E-13
 -1      2651 2.05453E+01 2.92712E-01-3.07780E-03 1.09269E+00-6.51623E-14 7.50331E-14
 -1      2652 7.60221E+00-2.77270E+00 1.72394E-01 4.43276E+00 6.86673E-14 1.24820E-12
 -1      2653 3.08133E+01 6.53942E+00-4.27627E-02-7.43982E-01-9.35807E-13-3.82819E-14
 -1      2654 3.15380E+01 3.86977E+00 6.19433E-03-1.89117E+00-9.21180E-13 4.21274E-13
 -1      2655 1.55356E+01 1.42683E+00 9.54800E-03 9.34761E-01 3.16868E-13-2.50877E-13
 -1      2656 1.37387E+01-4.95616E+00 1.26914E-01-6.58437E+00-4.31877E-14-4.33667E-13
 -1      2657 2.22460E+01-5.88362E+00 6.68633E-02 5.18459E+00-2.52576E-14-5.21784E-13
 -1      2658 2.12199E+01-6.07660E+00 7.93478E-02-5.78701E+00-4.56857E-14-7.38791E-13
 -1      2659 2.69941E+01-4.88374E+00 3.67704E-02-3.16391E+00 1.67616E-13-3.66873E-13
 -1      2660 4.69375E+00-2.24127E+00 1.70180E-01 6.54790E-01-2.02005E-13-4.52888E-13
 -1      2661 5.98322E+00-1.43495E+00 1.51715E-01-5.52527E-01-2.59226E-13-3.37896E-13
 -1      2662 6.36485E+00-1.59642E+00 1.31774E-01 2.16317E+00-1.42143E-13-2.86465E-13
 -1      2663 2.04246E+01-5.99611E+00 1.35603E-01-5.61232E+00-3.08975E-13 2.44388E-14
 -1      2664 2.27518E+01-5.92302E+00 9.08317E-02-4.25248E+00-3.25077E-13 2.81455E-13
 -1      2665 1.88084E+01-5.70655E+00 2.07155E-01-5.99095E+00-2.86882E-13 1.18502E-13
 -1      2666 2.95081E+01-1.48030E+00 3.99391E-01 7.31169E-01-1.40665E-13-2.05391E-15
 -1      2667 2.79787E+01-4.12638E+00 1.18128E-02 1.91341E+00-1.23360E-13-3.31124E-13
 -1      2668 3.04329E+01 3.45456E+00 6.70632E-02 2.25665E+00 1.42386E-14 7.91728E-14
 -1      2669 8.41194E+00-3.54039E+00 1.24674E-01 5.14457E+00-4.38816E-14-4.56718E-13
 -1      2670 1.16319E+01-5.02755E+00 1.28246E-01-6.45251E+00-2.03754E-13 3.06977E-13
 -1      2671 1.45379E+01-5.23691E+00 6.48262E-03-6.42928E+00-1.80189E-13 2.18853E-13
 -1      2672 1.13336E+01-3.90373E+00 1.82198E-01-6.05873E+00-1.27703E-13 3.60101E-13
 -1      2673 3.03870E+01-1.29055E+00-1.81170E-02 3.12524E-01 2.84061E-13-4.07729E-14
 -1      2674 3.05954E+01 6.00571E+00-4.78583E-01 1.52552E+00 2.82496E-13 6.95000E-14
 -1      2675 2.06797E+01 5.06992E-01 9.47507E-03-1.40534E+00-1.37612E-13 2.08028E-13
 -1      2676 2.04243E+01 8.21551E-01-2.21003E-03-1.56891E+00-2.41858E-13 4.18105E-13
 -1      2677 2.04527E+01 7.47385E-01-6.38113E-04-1.81960E+00-2.59199E-13 3.51562E-13
 -1      2678 2.08957E+01 3.92902E-01 2.03799E-03-1.56393E+00-2.23215E-13 3.95544E-13
 -1      2679 3.10454E+01-2.85166E-01-9.38552E-03-7.82510E-01-4.66835E-13 2.06862E-13
 -1      2680 2.07848E+01 4.21011E-01-4.34734E-03-1.83612E+00-1.21677E-13 3.97563E-13
 -1      2681 1.71966E+01 2.40570E+00-5.52163E-03-7.20231E-02 1.50662E-14-3.98757E-13
 -1      2682 1.74221E+01 2.48552E+00-4.55360E-03-2.08125E-01-3.46547E-14-3.88358E-13
 -1      2683 1.76564E+01 2.54523E+00-5.23965E-03-3.32514E-01-6.98685E-14-3.90375E-13
 -1      2684 1.78973E+01 2.59859E+00-4.54578E-03-4.72929E-01-1.03107E-13-3.83461E-13
 -1      2685 1.76662E+01 2.22321E+00 3.02131E-03-3.27366E-01-5.34944E-14-3.59424E-13
 -1      2686 1.63312E+01 1.92418E+00-8.13350E-03 4.17895E-01 1.90025E-13-3.99861E-13
 -1      2687 1.65425E+01 2.07695E+00-4.69656E-03 2.93691E-01 1.41793E-13-4.12958E-13
 -1      2688 1.59273E+01 1.54700E+00-8.10861E-03 6.04795E-01 2.53174E-13-3.53604E-13
 -1      2689 1.61273E+01 1.76050E+00-3.42812E-03 5.10719E-01 2.15884E-13-3.73371E-13
 -1      2690 1.63287E+01 1.56409E+00 4.31485E-03 3.11114E-01 2.02750E-13-3.55258E-13
 -1      2691 1.54216E+01 5.95530E-01-2.18517E-03 1.89321E-01 2.39231E-13-2.25762E-13
 -1      2692 1.54849E+01 7.70339E-01 7.98361E-03 4.03379E-01 2.62036E-13-2.21856E-13
 -1      2693 1.27842E+01-3.76906E+00 1.70787E-01-6.12369E+00 2.69271E-13-1.09635E-13
 -1      2694 1.64274E+01-5.05378E+00-9.01874E-03-6.61277E+00-9.33142E-14-6.54005E-13
 -1      2695 1.55301E+01 1.19722E+00-9.68384E-04 6.92236E-01 2.87133E-13-2.63230E-13
 -1      2696 2.96364E+01 3.63909E+00-2.69370E-01-1.67433E+00 5.36210E-13-3.63404E-13
 -1      2697 2.98046E+01 1.68477E+00-1.22611E-01-1.64053E+00 4.65128E-13-2.68313E-13
 -1      2698 2.11140E+01 6.19316E-01 8.64996E-03-8.23322E-01-2.23470E-13 3.33313E-14
 -1      2699 2.09775E+01 4.64412E-01-3.82317E-03-6.67406E-01-1.94047E-13 2.09358E-14
 -1      2700 2.09087E+01 3.51121E-01 6.72031E-03-5.52043E-01-1.73488E-13 2.50140E-14
 -1      2701 2.07959E+01 2.57009E-01-2.07217E-03-4.57081E-01-1.54971E-13 2.03165E-14
 -1      2702 2.07987E+01 5.15282E-01-1.37574E-03-6.94664E-01-1.96835E-13-4.41909E-14
 -1      2703 2.07251E+01 1.88407E-01 4.65064E-03-3.84898E-01-1.58395E-13 1.81833E-14
 -1      2704 2.06349E+01 1.30797E-01-1.05775E-03-3.30307E-01-1.54997E-13 2.07695E-14
 -1      2705 2.06418E+01 2.86737E-01-1.93592E-03-4.96033E-01-1.57811E-13-5.57773E-14
 -1      2706 2.05683E+01 8.90578E-02 3.04042E-03-2.88641E-01-1.35955E-13 1.90229E-14
 -1      2707 2.04956E+01 5.41586E-02-4.72727E-04-2.60038E-01-1.09223E-13 5.88993E-17
 -1      2708 2.04946E+01 1.45316E-01-1.83433E-03-3.73718E-01-1.45211E-13-3.92834E-14
 -1      2709 2.04346E+01 2.93134E-02 1.89599E-03-2.38793E-01-1.28659E-13 1.03450E-14
 -1      2710 2.03741E+01 9.06516E-03-1.38709E-04-2.26415E-01-1.37238E-13-2.48706E-15
 -1      2711 2.03619E+01 5.89042E-02-1.50349E-03-3.04685E-01-1.31735E-13-3.49997E-14
 -1      2712 2.03183E+01-4.72400E-03 1.10818E-03-2.18076E-01-1.38606E-13 1.19858E-14
 -1      2713 2.02659E+01-1.52244E-02 5.72410E-05-2.15262E-01-1.26718E-13-2.64317E-14
 -1      2714 2.02427E+01 8.23614E-03-1.15604E-03-2.70842E-01-1.30384E-13-8.47332E-14
 -1      2715 2.02144E+01-2.15562E-02 5.79562E-04-2.14376E-01-1.39297E-13-1.55347E-14
 -1      2716 2.01671E+01-2.54014E-02 1.83578E-04-2.16522E-01-1.36944E-13-9.36441E-15
 -1      2717 2.01344E+01-1.85400E-02-8.63488E-04-2.58714E-01-1.42291E-13 1.27378E-14
 -1      2718 2.01188E+01-2.65637E-02 2.33204E-04-2.19156E-01-1.45214E-13-1.21629E-15
 -1      2719 2.00749E+01-2.57372E-02 2.81466E-04-2.23026E-01-1.46686E-13-3.09506E-14
 -1      2720 2.00345E+01-2.89513E-02-6.41515E-04-2.58491E-01-1.33268E-13-8.09946E-15
 -1      2721 2.00291E+01-2.32009E-02 1.12806E-05-2.26319E-01-1.35617E-13-1.69791E-14
 -1      2722 1.99875E+01-1.89700E-02 3.75972E-04-2.29580E-01-8.11122E-14-6.47872E-14
 -1      2723 1.99410E+01-2.78481E-02-4.85515E-04-2.63044E-01-1.63385E-13-5.89820E-14
 -1      2724 1.99436E+01-1.36700E-02-1.28949E-04-2.31403E-01-7.41874E-14-1.18539E-13
 -1      2725 1.99039E+01-6.82402E-03 4.83273E-04-2.32309E-01-8.52360E-14-1.38956E-13
 -1      2726 1.98522E+01-1.83484E-02-3.85425E-04-2.67122E-01-1.37867E-13-8.47664E-14
 -1      2727 1.98616E+01 6.62556E-04-2.18350E-04-2.31013E-01-2.06675E-14-1.31777E-13
 -1      2728 1.98240E+01 9.65192E-03 6.14517E-04-2.28191E-01-5.46588E-14-6.75543E-14
 -1      2729 1.97673E+01-2.41291E-03-3.31373E-04-2.66745E-01-4.20530E-14-7.28473E-14
 -1      2730 1.97832E+01 1.89777E-02-2.78275E-04-2.22422E-01-6.29306E-14-2.11665E-14
 -1      2731 1.97482E+01 2.98331E-02 7.77841E-04-2.14725E-01-8.31542E-14 8.23036E-14
 -1      2732 1.96858E+01 1.87664E-02-3.15837E-04-2.58748E-01-1.92981E-14-2.74619E-14
 -1      2733 1.97090E+01 4.07746E-02-3.22199E-04-2.03299E-01-1.62422E-13 9.34027E-14
 -1      2734 1.96774E+01 5.33054E-02 9.79432E-04-1.89717E-01-1.25148E-13 8.67184E-14
 -1      2735 1.96078E+01 4.44710E-02-3.34507E-04-2.40462E-01-9.79596E-14 6.90717E-14
 -1      2736 1.96402E+01 6.56648E-02-3.56198E-04-1.71538E-01-1.24364E-13 3.11805E-14
 -1      2737 1.96132E+01 7.96613E-02 1.22386E-03-1.51157E-01-1.05525E-13 2.53764E-14
 -1      2738 1.95337E+01 7.41998E-02-3.87760E-04-2.09487E-01-1.40804E-13 1.12732E-13
 -1      2739 1.95787E+01 9.31674E-02-3.77613E-04-1.25184E-01-9.27421E-14 1.99016E-14
 -1      2740 1.95578E+01 1.08298E-01 1.51431E-03-9.71911E-02-1.01273E-13 4.17958E-14
 -1      2741 1.94646E+01 1.07421E-01-4.81986E-04-1.63559E-01-1.12249E-13 4.31376E-14
 -1      2742 1.95271E+01 1.22521E-01-3.71221E-04-6.24562E-02-9.25001E-14 8.92299E-14
 -1      2743 1.95144E+01 1.38258E-01 1.85327E-03-2.61969E-02-3.44766E-14 8.67408E-14
 -1      2744 1.94020E+01 1.43328E-01-6.28157E-04-1.00514E-01-5.88704E-14 7.27176E-14
 -1      2745 1.94889E+01 1.52589E-01-3.03018E-04 1.80843E-02-8.63140E-15 7.94782E-14
 -1      2746 1.94868E+01 1.68245E-01 2.24109E-03 6.30019E-02 2.70746E-14 2.18930E-14
 -1      2747 1.93484E+01 1.80665E-01-8.35343E-04-1.83823E-02-1.91136E-14 4.90606E-14
 -1      2748 1.94690E+01 1.82051E-01-1.22267E-04 1.17184E-01 2.53675E-14 1.46704E-14
 -1      2749 1.94802E+01 1.97093E-01 2.65936E-03 1.70747E-01 2.73015E-14-9.55293E-15
 -1      2750 1.93078E+01 2.17765E-01-1.09696E-03 8.42784E-02 2.82348E-14 4.27094E-14
 -1      2751 1.94730E+01 2.10277E-01 1.78932E-04 2.34312E-01 4.24250E-15-5.05999E-14
 -1      2752 1.94996E+01 2.25243E-01 3.00717E-03 2.96039E-01 2.74838E-14-6.90288E-14
 -1      2753 1.92853E+01 2.53227E-01-1.38542E-03 2.07671E-01 2.94842E-14-4.88983E-14
 -1      2754 1.95058E+01 2.39494E-01 3.45447E-04 3.67142E-01 5.11625E-14-8.56407E-14
 -1      2755 1.95487E+01 2.57881E-01 3.05798E-03 4.36508E-01-3.46931E-14-1.08385E-13
 -1      2756 1.92869E+01 2.88057E-01-1.70740E-03 3.49618E-01 5.47528E-15-1.16992E-13
 -1      2757 1.95675E+01 2.78609E-01-3.61514E-04 5.12861E-01-1.03747E-13-1.46097E-13
 -1      2758 1.96254E+01 3.08965E-01 2.88870E-03 5.91155E-01-1.43024E-13-1.94505E-13
 -1      2759 1.93162E+01 3.30408E-01-2.14885E-03 5.05141E-01-5.20580E-14-7.55244E-14
 -1      2760 1.96485E+01 3.45592E-01-2.41152E-03 6.75794E-01-1.33761E-13-1.88988E-13
 -1      2761 1.97210E+01 3.97715E-01 4.05568E-03 7.69970E-01-9.08606E-14-1.71642E-13
 -1      2762 1.93667E+01 4.01186E-01-2.44451E-03 6.71641E-01-1.32087E-13-4.60667E-14
 -1      2763 1.97365E+01 4.54269E-01-3.15505E-03 8.81649E-01 1.31932E-14-1.28908E-13
 -1      2764 1.98283E+01 5.15465E-01 6.66121E-03 1.00591E+00 1.29072E-13-2.60090E-14
 -1      2765 1.94184E+01 5.22526E-01-1.48041E-03 8.66665E-01-3.16253E-14 4.63054E-14
 -1      2766 1.98522E+01 5.59938E-01-9.19439E-04 1.16760E+00 7.81613E-14-6.17412E-14
 -1      2767 1.99775E+01 5.77571E-01 6.96707E-03 1.32085E+00 3.36749E-14 2.82392E-14
 -1      2768 1.94669E+01 6.59215E-01-1.19411E-03 1.14157E+00 8.34684E-14 6.24704E-14
 -1      2769 2.00591E+01 5.48956E-01 4.97114E-03 1.51545E+00 8.99216E-14 6.59282E-15
 -1      2770 2.02304E+01 4.67493E-01 4.52705E-03 1.66059E+00 2.05958E-13-1.89224E-14
 -1      2771 1.95743E+01 6.90891E-01-2.37727E-03 1.51583E+00 8.32151E-14 6.17854E-14
 -1      2772 2.03948E+01 3.31293E-01 1.01313E-02 1.83339E+00 1.50300E-13 4.63802E-14
 -1      2773 2.06303E+01 1.31709E-01 2.65952E-03 1.92054E+00 1.58581E-13 1.37322E-13
 -1      2774 1.98086E+01 5.07694E-01 1.72715E-03 1.90591E+00 1.99772E-13-4.76590E-14
 -1      2775 2.08878E+01-1.19687E-01 1.28883E-02 2.02291E+00 2.02278E-13 9.59548E-14
 -1      2776 2.12001E+01-4.40438E-01-2.49687E-03 2.00664E+00 1.80518E-13 1.46455E-13
 -1      2777 2.01912E+01 3.90464E-02-6.31704E-03 2.20210E+00 2.10154E-13-3.21592E-14
 -1      2778 2.16028E+01-8.02973E-01 1.97214E-02 2.00023E+00 1.49749E-13 2.40201E-14
 -1      2779 2.20114E+01-1.23670E+00-7.16135E-03 1.83534E+00 1.76593E-13 7.28453E-14
 -1      2780 2.07752E+01-7.07594E-01-2.00669E-02 2.33625E+00 1.43073E-13-7.48247E-14
 -1      2781 2.26449E+01-1.68323E+00 3.14971E-02 1.65265E+00 8.56125E-14 1.05328E-13
 -1      2782 2.31439E+01-2.15891E+00-1.61953E-02 1.28427E+00 6.33365E-14 7.77208E-14
 -1      2783 2.17012E+01-1.71848E+00-3.38311E-02 2.22431E+00 1.45528E-13 1.39732E-14
 -1      2784 2.40564E+01-2.54249E+00 3.75584E-02 8.08618E-01 1.21136E-13 3.22077E-14
 -1      2785 2.45761E+01-2.80676E+00-2.58590E-02 2.13880E-01 1.37059E-13 1.72646E-13
 -1      2786 2.31377E+01-2.81966E+00-3.79668E-02 1.68983E+00 1.15253E-13 3.37889E-14
 -1      2787 2.56396E+01-2.79995E+00 8.35352E-03-6.04734E-01-4.12526E-14 3.24680E-13
 -1      2788 2.60023E+01-2.39585E+00-1.95556E-02-1.29317E+00-2.42349E-13 2.50826E-13
 -1      2789 2.50386E+01-3.44431E+00-4.03086E-02 5.10879E-01 1.35931E-13 5.55502E-14
 -1      2790 2.65759E+01 1.74540E+00-1.97964E-01-2.68138E+00-6.63636E-13 3.04218E-14
 -1      2791 2.66019E+01 3.35210E+00-2.47978E-02-2.10017E+00-7.51482E-13 2.31594E-14
 -1      2792 2.74551E+01 5.20729E+00-1.67661E-01-6.44270E-01-6.75404E-13-3.31277E-13
 -1      2793 2.75036E+01 5.14209E+00-1.81037E-01 5.74744E-01-6.63608E-13-3.80833E-13
 -1      2794 2.69177E+01 8.60755E-01-7.44147E-02 2.44282E+00 3.68650E-13-3.05457E-13
 -1      2795 2.68893E+01-7.11954E-01-1.08240E-01 2.32293E+00 6.89164E-13-3.57436E-13
 -1      2796 2.63511E+01-1.92789E+00-2.38906E-02 1.54948E+00 5.70603E-13-5.84019E-13
 -1      2797 2.60144E+01-2.67537E+00-1.63927E-02 8.72633E-01-2.08410E-14-5.54484E-13
 -1      2798 2.75488E+01-1.72887E+00-2.03465E-02 1.61480E+00 5.23671E-13-1.34448E-13
 -1      2799 2.50059E+01-2.88050E+00-2.74811E-02-4.44602E-02-2.62886E-13-4.21009E-13
 -1      2800 2.45004E+01-2.75803E+00 3.34402E-02-6.92514E-01 2.53825E-14-5.46404E-13
 -1      2801 2.56840E+01-3.44274E+00-4.94918E-02-2.37444E-01-5.95210E-14-5.39889E-13
 -1      2802 2.35504E+01-2.44690E+00-1.74361E-02-1.28287E+00 2.02369E-13-5.64211E-13
 -1      2803 2.30297E+01-1.99201E+00 3.39870E-02-1.72010E+00 1.81848E-13-4.30208E-13
 -1      2804 2.37372E+01-3.14241E+00-3.79308E-02-1.65353E+00 1.07416E-13-3.76816E-13
 -1      2805 2.23580E+01-1.54125E+00-6.35925E-03-1.97473E+00 1.49465E-13-3.82361E-13
 -1      2806 2.19259E+01-1.07857E+00 2.30148E-02-2.19670E+00 1.88753E-13-3.30084E-13
 -1      2807 2.22080E+01-2.07373E+00-2.85991E-02-2.35600E+00 1.79240E-13-4.14863E-13
 -1      2808 2.15187E+01-6.77071E-01-6.42396E-04-2.24085E+00 1.54851E-13-1.02159E-13
 -1      2809 2.11954E+01-3.08113E-01 1.37105E-02-2.29463E+00 1.19992E-13-2.81361E-15
 -1      2810 2.12323E+01-9.94210E-01-1.69528E-02-2.55790E+00 2.64770E-13-2.03766E-13
 -1      2811 2.09674E+01 3.38585E-03 8.75886E-04-2.21814E+00 4.89536E-14 9.78405E-14
 -1      2812 2.07372E+01 2.80215E-01 7.90720E-03-2.14537E+00-3.24286E-14 2.51674E-13
 -1      2813 2.06755E+01-1.37439E-01-9.67571E-03-2.46797E+00 2.24141E-13 4.34095E-14
 -1      2814 1.55491E+01 4.77230E-02 3.59395E-04-4.80660E-01 8.84170E-14-1.53580E-13
 -1      2815 1.55008E+01 7.45346E-02 2.44188E-03-4.54984E-01 9.72575E-14-1.46194E-13
 -1      2816 3.00591E+01 3.12847E-01-2.14160E-01-1.78094E+00-6.30010E-13 4.33320E-13
 -1      2817 2.95523E+01-1.44140E+00-3.48704E-02-1.03691E+00-2.87145E-13 2.52270E-13
 -1      2818 1.54695E+01 1.06347E-01 1.10306E-04-4.15414E-01 1.05372E-13-1.74851E-13
 -1      2819 1.54400E+01 1.49287E-01 4.10997E-03-3.67084E-01 1.28298E-13-1.75322E-13
 -1      2820 1.57834E+01 1.21776E-01-2.04522E-03-4.65685E-01 9.18394E-14-1.49064E-13
 -1      2821 1.57636E+01-8.42034E-03 5.88545E-04-5.23243E-01 7.20646E-14-1.32859E-13
 -1      2822 1.56953E+01 2.42461E-04 5.09567E-04-5.20656E-01 9.70298E-14-1.39451E-13
 -1      2823 1.58870E+01-1.77515E-02 6.57347E-04-5.22188E-01 6.02550E-14-1.51457E-13
 -1      2824 1.58141E+01-1.43324E-02-4.31703E-06-5.24252E-01 6.12676E-14-1.40420E-13
 -1      2825 1.60325E+01-1.15392E-02-8.01251E-04-5.76264E-01 8.31975E-14-1.19032E-13
 -1      2826 1.60162E+01-1.91447E-02 7.30197E-04-5.15847E-01 6.71844E-14-1.57357E-13
 -1      2827 1.59406E+01-1.95432E-02-3.34542E-04-5.19640E-01 7.47862E-14-1.49845E-13
 -1      2828 1.61373E+01-2.14892E-02-5.67241E-04-5.76316E-01 7.44230E-14-1.32192E-13
 -1      2829 1.61492E+01-1.46034E-02 8.20469E-04-5.09122E-01 3.49061E-14-1.48133E-13
 -1      2830 1.60719E+01-1.78791E-02-5.37824E-04-5.12474E-01 2.64132E-14-1.69485E-13
 -1      2831 1.62478E+01-2.18418E-02-4.13784E-04-5.71411E-01 5.15288E-14-1.17886E-13
 -1      2832 1.62851E+01-5.42500E-03 9.37081E-04-5.05748E-01 2.77093E-14-1.56895E-13
 -1      2833 1.62064E+01-1.09779E-02-6.56249E-04-5.06996E-01 6.36977E-14-1.36899E-13
 -1      2834 1.63623E+01-1.49604E-02-3.24543E-04-5.66644E-01 4.64783E-14-1.27367E-13
 -1      2835 1.64241E+01 7.58742E-03 1.08625E-03-5.08694E-01-8.35187E-15-1.09968E-13
 -1      2836 1.63437E+01 1.20622E-04-7.20795E-04-5.06500E-01-5.47068E-15-1.39394E-13
 -1      2837 1.64800E+01-2.37024E-03-2.85307E-04-5.65941E-01 2.80349E-15-6.70522E-14
 -1      2838 1.65668E+01 2.39462E-02 1.27142E-03-5.20433E-01 7.82692E-15-1.09486E-13
 -1      2839 1.64840E+01 1.47842E-02-7.53434E-04-5.13670E-01 2.06971E-14-8.36165E-14
 -1      2840 1.66007E+01 1.49817E-02-2.84747E-04-5.72450E-01-2.04729E-14-9.24240E-14
 -1      2841 1.67145E+01 4.32984E-02 1.49216E-03-5.43111E-01 8.82011E-14-7.61487E-14
 -1      2842 1.66283E+01 3.26113E-02-7.68402E-04-5.30798E-01 4.38468E-14-5.98382E-14
 -1      2843 1.67245E+01 3.64983E-02-3.14796E-04-5.88815E-01 1.87207E-14-6.38468E-14
 -1      2844 1.68690E+01 6.52209E-02 1.74225E-03-5.78587E-01 1.74208E-14-2.01697E-14
 -1      2845 1.67780E+01 5.32413E-02-7.72639E-04-5.59891E-01 6.76192E-14-3.40564E-14
 -1      2846 1.68523E+01 6.16964E-02-3.70398E-04-6.17335E-01 4.88939E-14 1.66356E-14
 -1      2847 1.70324E+01 8.89746E-02 2.00735E-03-6.28346E-01-3.76793E-14 2.33651E-14
 -1      2848 1.69352E+01 7.61315E-02-7.65152E-04-6.02648E-01 3.18135E-14 8.79484E-15
 -1      2849 1.69851E+01 8.99355E-02-4.49322E-04-6.59993E-01 2.04219E-14 8.91166E-14
 -1      2850 1.72074E+01 1.13215E-01 2.26442E-03-6.93247E-01-3.59044E-14-3.85795E-14
 -1      2851 1.71023E+01 1.00289E-01-7.34092E-04-6.60293E-01-5.87268E-14-4.87672E-14
 -1      2852 1.71244E+01 1.20091E-01-5.50709E-04-7.18336E-01-1.45340E-14-5.49103E-15
 -1      2853 1.73970E+01 1.35700E-01 2.49003E-03-7.73065E-01-8.19196E-14-4.22499E-14
 -1      2854 1.72822E+01 1.23971E-01-6.50420E-04-7.33212E-01-2.94954E-14-2.80722E-14
 -1      2855 1.72725E+01 1.50181E-01-6.65953E-04-7.93169E-01-4.92880E-14 2.52926E-14
 -1      2856 1.76043E+01 1.53099E-01 2.68521E-03-8.65865E-01-1.51987E-14-1.82623E-13
 -1      2857 1.74783E+01 1.44420E-01-4.59245E-04-8.20391E-01-4.74191E-14-9.82958E-14
 -1      2858 1.74319E+01 1.77031E-01-7.57125E-04-8.84007E-01 2.41725E-14-3.23424E-14
 -1      2859 1.78325E+01 1.60979E-01 2.89489E-03-9.67364E-01-3.45654E-14-2.21779E-13
 -1      2860 1.76941E+01 1.57750E-01-9.00511E-05-9.18756E-01-9.83553E-15-2.04267E-13
 -1      2861 1.76059E+01 1.96129E-01-7.38428E-04-9.88365E-01 1.82803E-14-8.77761E-14
 -1      2862 1.80848E+01 1.53696E-01 2.99958E-03-1.07079E+00-3.54413E-14-2.62165E-13
 -1      2863 1.79327E+01 1.58977E-01 4.16571E-04-1.02282E+00-5.36865E-14-2.79011E-13
 -1      2864 1.77981E+01 2.01823E-01-5.89831E-04-1.10122E+00 1.51913E-15-1.70694E-13
 -1      2865 1.83654E+01 1.22922E-01 1.97516E-03-1.16730E+00-1.27274E-13-2.76343E-13
 -1      2866 1.81974E+01 1.41393E-01 3.29095E-04-1.12523E+00-1.08339E-13-2.51621E-13
 -1      2867 1.80116E+01 1.87243E-01-1.09264E-03-1.21566E+00-3.26034E-14-2.90511E-13
 -1      2868 1.86798E+01 5.15113E-02-6.86276E-03-1.24648E+00-1.05393E-13-2.32819E-13
 -1      2869 1.84951E+01 9.47428E-02-2.55366E-03-1.21721E+00-9.89239E-14-2.53420E-13
 -1      2870 1.82504E+01 1.40354E-01-5.93967E-03-1.32476E+00-1.28352E-13-2.01783E-13
 -1      2871 1.90390E+01-8.46018E-02-3.73663E-02-1.28005E+00-1.13401E-13-1.46643E-13
 -1      2872 1.88441E+01-4.93534E-03-1.85234E-02-1.27955E+00-1.12051E-13-1.58269E-13
 -1      2873 1.85295E+01 3.25838E-02-2.78656E-02-1.41947E+00-1.38838E-13-1.83279E-13
 -1      2874 1.94645E+01-2.14587E-01-5.72131E-02-1.18252E+00-8.92897E-14-5.63473E-14
 -1      2875 1.92607E+01-1.69511E-01-5.23382E-02-1.24568E+00-9.63604E-14-1.11893E-13
 -1      2876 1.88944E+01-1.75706E-01-8.03676E-02-1.44950E+00-1.75075E-13-8.11087E-14
 -1      2877 1.98231E+01-1.98016E-01-3.19715E-02-1.04051E+00 7.66054E-14 4.47177E-14
 -1      2878 1.96483E+01-2.11463E-01-4.22751E-02-1.09986E+00-2.04246E-14-1.88773E-14
 -1      2879 1.93160E+01-2.90487E-01-9.21470E-02-1.30529E+00-8.98240E-14-4.90146E-14
 -1      2880 2.01900E+01-2.49326E-01-9.10642E-03-9.58499E-01 1.55960E-13 2.93428E-15
 -1      2881 2.00007E+01-1.96599E-01-1.07922E-02-1.01031E+00 1.50909E-13 1.14818E-13
 -1      2882 1.96598E+01-2.54115E-01-4.14087E-02-1.17862E+00 8.41688E-14 4.62998E-14
 -1      2883 2.06456E+01-4.96661E-01-6.69880E-03-7.95778E-01 2.04611E-14 7.31533E-14
 -1      2884 2.04518E+01-3.50525E-01 9.08479E-03-9.09611E-01 1.60557E-13 2.79629E-14
 -1      2885 2.00958E+01-3.66489E-01-1.97950E-03-1.13125E+00 1.56433E-13 7.16597E-14
 -1      2886 2.11360E+01-8.28103E-01-1.31926E-02-4.42723E-01-1.14925E-13 4.80763E-14
 -1      2887 2.09549E+01-6.54329E-01 9.90005E-03-6.46995E-01-1.00006E-13 4.68018E-14
 -1      2888 2.06380E+01-7.18931E-01-1.00239E-03-9.40179E-01-3.28036E-14 7.19548E-14
 -1      2889 2.16171E+01-1.10160E+00-1.85689E-02 1.08378E-01-3.58616E-14 6.86300E-14
 -1      2890 2.14710E+01-9.75616E-01 5.75961E-03-1.79851E-01-5.05009E-14 1.44149E-13
 -1      2891 2.12430E+01-1.12591E+00-6.88832E-03-5.31637E-01-9.73623E-14 5.00925E-14
 -1      2892 2.20283E+01-1.13415E+00-1.76887E-02 8.00783E-01 5.35188E-14 1.11348E-13
 -1      2893 2.19405E+01-1.16021E+00-3.92437E-03 4.72013E-01-3.18972E-14 1.29502E-13
 -1      2894 2.18736E+01-1.40875E+00-9.55977E-03 9.38263E-02-3.74128E-14 1.22949E-13
 -1      2895 2.22552E+01-6.73526E-01 2.06357E-03 1.46905E+00 1.46818E-14 2.69641E-13
 -1      2896 2.22655E+01-9.87395E-01-1.12690E-02 1.20698E+00-2.25462E-14 1.67734E-13
 -1      2897 2.24477E+01-1.33730E+00-5.98460E-03 8.82559E-01-7.27023E-15 4.27206E-14
 -1      2898 2.21942E+01 3.93455E-01 2.13426E-02 1.72747E+00-1.16421E-13 2.87632E-13
 -1      2899 2.22995E+01-2.09890E-01-1.71949E-02 1.72181E+00 7.94547E-15 3.02095E-13
 -1      2900 2.27938E+01-5.61897E-01 1.63255E-02 1.60154E+00-5.16722E-14 3.97673E-13
 -1      2901 2.20195E+01 1.58143E+00 1.24845E-03 1.19242E+00-1.35246E-13 1.65090E-13
 -1      2902 2.20662E+01 1.01191E+00-4.71839E-02 1.54929E+00-9.67004E-14 2.32259E-13
 -1      2903 2.28046E+01 9.15798E-01 1.72249E-02 1.75954E+00-9.13367E-14 2.12552E-13
 -1      2904 2.19050E+01 2.01538E+00-9.52018E-02 4.52186E-02 1.92901E-15 6.36956E-14
 -1      2905 2.19075E+01 1.88877E+00-1.00061E-01 5.78668E-01-1.23151E-13 1.90063E-13
 -1      2906 2.26656E+01 2.07733E+00-1.29804E-01 1.01365E+00-1.44884E-13 6.68077E-14
 -1      2907 2.21282E+01 1.59805E+00-6.14208E-02-1.14433E+00 1.44329E-14-9.40133E-15
 -1      2908 2.20212E+01 1.93446E+00-4.04383E-02-6.48447E-01 4.77882E-14 4.43725E-14
 -1      2909 2.27440E+01 2.48333E+00-1.01692E-01-3.78669E-01-1.86656E-14 8.11365E-14
 -1      2910 2.25469E+01 5.41378E-01-4.07049E-02-1.78484E+00 2.44518E-14-1.72643E-13
 -1      2911 2.23937E+01 1.12724E+00 8.66748E-03-1.57821E+00-5.48173E-16-7.78704E-14
 -1      2912 2.30342E+01 1.69271E+00-3.32477E-02-1.55696E+00 8.94562E-14-3.30638E-14
 -1      2913 2.28422E+01-5.07221E-01-2.49129E-02-1.66057E+00-1.12331E-13-1.27439E-13
 -1      2914 2.27319E+01-9.34719E-03 1.03225E-02-1.77353E+00-6.21248E-15-1.22678E-13
 -1      2915 2.34063E+01 3.18604E-01 1.25652E-03-1.92923E+00-2.74884E-14-1.76882E-13
 -1      2916 2.28284E+01-1.10866E+00-7.18706E-03-1.02273E+00 6.55383E-14-2.95980E-13
 -1      2917 2.28127E+01-8.68683E-01-2.59888E-03-1.33165E+00-5.13603E-14-1.89829E-13
 -1      2918 2.34744E+01-8.61327E-01 1.29120E-02-1.51684E+00-2.99140E-14-2.77797E-13
 -1      2919 2.25177E+01-1.21278E+00 4.99797E-03-2.38625E-01-9.60109E-14-4.07278E-14
 -1      2920 2.25983E+01-1.21512E+00-1.22212E-02-5.90256E-01 1.80531E-14-2.91064E-13
 -1      2921 2.31569E+01-1.45433E+00 5.92474E-03-6.91560E-01 1.26392E-14-3.43881E-13
 -1      2922 2.20486E+01-9.86589E-01 1.05731E-02 4.32659E-01 8.52690E-14-1.75771E-15
 -1      2923 2.21945E+01-1.13445E+00-1.46308E-02 1.39115E-01-5.43628E-14-6.13240E-14
 -1      2924 2.25918E+01-1.46532E+00-1.87679E-03 1.43549E-01-1.91832E-14-3.29557E-13
 -1      2925 2.15451E+01-6.11781E-01 1.11889E-02 8.78890E-01 5.65020E-14 4.72085E-14
 -1      2926 2.17221E+01-8.15910E-01-1.27130E-02 6.88881E-01 1.94450E-13 3.75715E-14
 -1      2927 2.19652E+01-1.12458E+00-7.36772E-03 7.76078E-01 3.77254E-14-3.62431E-13
 -1      2928 2.10815E+01-2.11991E-01 9.38032E-03 1.08041E+00-1.34349E-13 1.94626E-14
 -1      2929 2.12613E+01-4.15741E-01-9.41673E-03 1.00474E+00-1.96398E-14 2.30055E-14
 -1      2930 2.13961E+01-6.39443E-01-7.63528E-03 1.14426E+00-3.99474E-15-1.77306E-13
 -1      2931 2.07125E+01 1.23468E-01 6.61026E-03 1.10643E+00-5.41261E-14 2.69945E-14
 -1      2932 2.08830E+01-6.15554E-02-6.23659E-03 1.13378E+00-1.63577E-13-3.67796E-14
 -1      2933 2.09617E+01-1.81315E-01-2.78157E-03 1.30410E+00-1.84185E-13-1.89552E-13
 -1      2934 2.06288E+01 2.32386E-01 3.22159E-04 1.32540E+00-2.29346E-13-7.58548E-14
 -1      2935 2.37739E+01-5.62890E+00-3.44331E-02 4.61285E+00-7.94642E-14-3.07712E-13
 -1      2936 2.09021E+01-5.23011E+00 7.03421E-02 5.59621E+00-4.90025E-14-4.58647E-13
 -1      2937 1.85876E+01 1.87250E+00-1.70523E-02 8.98836E-01-1.86130E-13-3.14716E-13
 -1      2938 1.88141E+01 1.74798E+00 7.73164E-03 1.23774E+00-3.54909E-14-3.76587E-13
 -1      2939 9.69159E+00-2.55652E+00 5.49504E-02 5.27791E+00-2.63539E-14 9.47881E-13
 -1      2940 7.73888E+00-1.61944E+00 1.73646E-01 3.31090E+00 9.93927E-14 1.17495E-12
 -1      2941 1.96515E+01 1.04684E+00-1.26281E-02 1.84619E+00-3.42002E-13 1.61734E-13
 -1      2942 1.99228E+01 8.55393E-01 1.00986E-02 1.88546E+00-3.18635E-13 2.74817E-13
 -1      2943 1.83672E+01 2.06443E+00-9.94914E-03 1.47186E-02-6.48629E-14-2.77260E-13
 -1      2944 1.84384E+01 2.02794E+00-1.24106E-03 4.38089E-01-6.36672E-14-2.64858E-13
 -1      2945 1.81827E+01 1.70792E+00 1.28507E-02 7.75846E-01-1.60384E-13-3.00307E-13
 -1      2946 1.90747E+01 1.49095E+00-1.77340E-02 1.54222E+00-2.26260E-13-1.45388E-13
 -1      2947 1.93706E+01 1.31256E+00 1.21713E-02 1.73568E+00-2.54109E-13 8.76523E-14
 -1      2948 1.94006E+01 8.36859E-01-4.18437E-03 1.99349E+00-4.28066E-13 1.70712E-13
 -1      2949 1.87083E+01 1.32166E+00 4.10270E-03 1.57527E+00-1.68072E-13-5.84038E-14
 -1      2950 1.84995E+01 1.99883E+00 4.01801E-04-8.90163E-01 1.77074E-13-4.93020E-13
 -1      2951 1.83887E+01 2.05736E+00-1.10819E-02-4.86823E-01 9.20404E-14-4.26275E-13
 -1      2952 1.80202E+01 1.84640E+00 1.63884E-02-2.40642E-01 1.28752E-13-3.11618E-13
 -1      2953 1.89431E+01 1.69824E+00 8.63792E-03-1.62788E+00 1.43312E-13-3.47984E-13
 -1      2954 1.86851E+01 1.83938E+00-1.69227E-02-1.32196E+00 2.52464E-13-4.86011E-13
 -1      2955 1.82796E+01 1.69153E+00 1.07293E-02-1.22418E+00 2.60070E-13-4.12246E-13
 -1      2956 1.95432E+01 1.26954E+00 9.33416E-03-2.03044E+00-8.53567E-14 4.16615E-13
 -1      2957 1.92344E+01 1.45807E+00-1.49881E-02-1.88738E+00 1.25523E-13 6.64371E-14
 -1      2958 1.88805E+01 1.32031E+00 1.57314E-03-1.94017E+00 3.13672E-13-1.33050E-13
 -1      2959 6.75675E+00-1.08922E+00 1.39416E-01 1.15019E+00 4.15917E-13 1.41168E-12
 -1      2960 6.77692E+00-1.15978E+00 1.69969E-01-1.24832E+00 4.34201E-13 1.26707E-12
 -1      2961 7.48488E+00-1.81648E+00 1.57462E-01-3.22048E+00 3.36120E-13 7.65665E-13
 -1      2962 9.43397E+00-2.76986E+00 6.74692E-02-5.13571E+00 3.17926E-13 3.21160E-13
 -1      2963 2.78945E+01-4.16993E+00-1.08690E-01 1.64761E+00 1.79995E-14-1.30229E-13
 -1      2964 2.60787E+01-5.03142E+00 2.33237E-02 2.94206E+00-6.69534E-14-1.57908E-13
 -1      2965 2.98761E+01 9.13395E-01-7.57457E-02 2.01331E+00 4.30045E-13 4.87943E-14
 -1      2966 2.94567E+01 2.99029E+00-2.01658E-01 2.24730E+00 7.11375E-14-1.77552E-13
 -1      2967 1.54186E+01 1.99629E-01-3.03807E-04-2.99352E-01 1.57544E-13-1.96438E-13
 -1      2968 1.54147E+01 2.68061E-01 6.24274E-03-2.16455E-01 1.74367E-13-1.88077E-13
 -1      2969 1.57370E+01 2.30275E-01-2.40975E-03-3.49354E-01 1.41610E-13-1.87106E-13
 -1      2970 1.56493E+01 1.18719E-02 5.01497E-04-5.12415E-01 8.93174E-14-1.47251E-13
 -1      2971 1.55887E+01 2.79365E-02 1.28607E-03-5.01138E-01 9.08872E-14-1.44129E-13
 -1      2972 1.58514E+01 5.32382E-02-1.55785E-03-5.31765E-01 8.14286E-14-1.07712E-13
 -1      2973 1.59360E+01 1.15742E-02-1.13074E-03-5.64469E-01 9.65996E-14-9.07895E-14
 -1      2974 2.13042E+01 1.06602E+00 5.52437E-03-1.23626E+00-3.28795E-13 7.21479E-14
 -1      2975 2.11632E+01 8.11774E-01-6.38607E-03-9.95615E-01-2.75833E-13 5.67299E-14
 -1      2976 2.09466E+01 8.85406E-01 6.61449E-04-9.94010E-01-2.77405E-13-1.42199E-14
 -1      2977 2.94440E+01-7.62795E-01-2.04601E-01-8.74689E-01 2.61326E-13-2.00492E-13
 -1      2978 2.88385E+01-2.57120E+00-4.75359E-02 2.23155E-01 7.82811E-14-1.51074E-13
 -1      2979 2.78640E+01-3.23895E+00-1.95041E-02 2.43748E-01 3.30426E-14-2.60375E-13
 -1      2980 1.67807E+01-4.30121E+00 3.05006E-02 6.36432E+00-1.57152E-13 6.35464E-14
 -1      2981 1.31032E+01-3.20282E+00 2.00801E-01 6.09567E+00-1.54085E-13 6.12649E-13
 -1      2982 1.54031E+01 3.49515E-01-8.75004E-04-1.07931E-01 1.82424E-13-2.04363E-13
 -1      2983 1.54301E+01 4.59851E-01 8.43888E-03 2.74018E-02 2.00062E-13-2.05708E-13
 -1      2984 1.57121E+01 6.77531E-01 1.87078E-04 1.24416E-01 2.19554E-13-2.64255E-13
 -1      2985 1.57144E+01 4.03232E-01-1.81351E-03-1.60879E-01 1.80244E-13-2.18094E-13
 -1      2986 1.67547E+01 2.20212E+00-6.44075E-03 1.82457E-01 1.08196E-13-4.15767E-13
 -1      2987 1.69742E+01 2.31466E+00-4.70664E-03 4.81332E-02 5.60838E-14-4.06605E-13
 -1      2988 1.72063E+01 2.07255E+00 3.31713E-03-9.38646E-02 3.71560E-14-3.63304E-13
 -1      2989 1.67642E+01 1.85672E+00 4.02091E-03 1.24724E-01 1.17420E-13-3.68021E-13
 -1      2990 1.92191E+01 2.58871E+00-6.40731E-03-1.12021E+00-2.60652E-13-2.71156E-13
 -1      2991 1.95163E+01 2.53612E+00-7.76564E-03-1.25795E+00-2.96865E-13-2.31476E-13
 -1      2992 2.85161E+01-3.61843E+00-1.43035E-01 5.29637E-01-1.92159E-13 7.34413E-14
 -1      2993 2.66822E+01-4.80260E+00 4.69738E-02 2.05560E+00-1.34733E-13-2.23238E-13
 -1      2994 2.04809E+01-5.67855E+00 1.31177E-01-5.74750E+00-2.99094E-13-7.02636E-13
 -1      2995 2.32861E+01-5.98992E+00-4.22951E-02-4.89504E+00-1.21125E-13-6.70561E-13
 -1      2996 2.05216E+01 6.05217E-01 4.93921E-03-1.94087E+00-8.23700E-14 3.57907E-13
 -1      2997 2.02869E+01 7.88304E-01-1.39636E-04-2.02881E+00-8.16697E-14 2.15335E-13
 -1      2998 2.06480E+01 4.51971E-01 2.81926E-03-2.04635E+00-1.75733E-14 2.93448E-13
 -1      2999 1.09796E+01-3.42764E+00 9.68007E-02 5.89137E+00-1.07359E-13-5.72292E-13
 -1      3000 8.59899E+00-2.31232E+00 1.49436E-01 4.41318E+00-1.50865E-13-3.93435E-13
 -1      3001 2.50770E+01-5.02708E+00 2.80795E-01-2.29327E+00-1.82215E-13 2.00936E-13
 -1      3002 2.66410E+01-4.14429E+00 3.05523E-01-1.01657E+00-1.04805E-13 2.04906E-13
 -1      3003 2.76450E+01-2.30964E+00 6.17302E-01 8.22542E-01-2.24265E-13 3.74700E-15
 -1      3004 2.89389E+01-4.39024E-01 8.42788E-01 1.85441E+00-2.37699E-13 5.41234E-15
 -1      3005 2.66937E+01-3.04875E+00 7.28392E-01 4.61516E-01-2.78388E-13 8.62643E-14
 -1      3006 7.24678E+00-1.80892E+00 1.38970E-01-3.15860E+00-4.21170E-13-1.23596E-13
 -1      3007 8.90094E+00-2.65030E+00 1.34896E-01-4.80249E+00-3.20244E-13 4.98213E-14
 -1      3008 2.88918E+01 1.09253E+00 4.19116E-02 3.53977E+00-1.55431E-13 1.32339E-13
 -1      3009 3.20094E+01 3.52370E+00 3.05199E-01 3.52775E+00 7.16371E-14 9.50351E-14
 -1      3010 1.72449E+01-5.16521E+00-1.53423E-02 6.32462E+00-8.43492E-14-4.55400E-13
 -1      3011 1.39980E+01-4.24889E+00 1.40047E-01 6.24344E+00-1.38778E-17-6.19560E-13
 -1      3012 2.88131E+01 4.03452E+00-2.63031E-01-2.27177E+00-9.51739E-13 2.62429E-14
 -1      3013 2.97894E+01 2.57857E+00-8.84693E-02-2.36604E+00-8.91981E-13 3.36814E-13
 -1      3014 2.90089E+01-3.08480E+00-1.03991E-02-1.12623E-01 4.03907E-13-6.70297E-14
 -1      3015 2.95182E+01-1.52151E+00-1.83431E-01 9.77175E-01 4.47004E-13 2.01783E-14
 -1      3016 2.56155E+01-5.48383E+00 3.40174E-02-3.38140E+00 1.10661E-13-4.28504E-13
 -1      3017 2.76177E+01-4.58121E+00-1.21434E-01-1.86113E+00 2.17590E-13-6.94445E-14
 -1      3018 2.48277E+01-5.46107E+00 6.22273E-02-3.48218E+00-6.05904E-14-4.25673E-13
 -1      3019 2.94273E+01 4.88166E+00-4.91086E-01 1.75899E+00 2.73025E-13 2.49800E-14
 -1      3020 2.90592E+01 5.96322E+00-4.53554E-01 5.32833E-01 3.03202E-13 1.42109E-14
 -1      3021 2.38548E+01-5.75418E+00-9.99011E-02 4.09282E+00-4.14946E-14-4.96238E-13
 -1      3022 2.09343E+01-5.52204E+00 1.25319E-01 5.25811E+00-5.46785E-14-4.57479E-13
 -1      3023 2.12827E+01 1.72205E+00-8.27915E-03-1.67506E+00-4.02748E-13 4.50798E-14
 -1      3024 2.12852E+01 1.31868E+00-3.29563E-03-1.39788E+00-3.79108E-13 5.85752E-14
 -1      3025 2.10095E+01 1.38109E+00 1.41973E-03-1.33612E+00-3.45039E-13-1.17975E-14
 -1      3026 2.09538E+01 1.98030E+00-2.78721E-04-1.66612E+00-3.94010E-13-4.48586E-14
 -1      3027 2.90567E+01 6.07205E+00-3.50630E-01-4.30802E-01 3.30597E-13-1.47909E-13
 -1      3028 2.93745E+01 5.25339E+00-2.65578E-01-1.34243E+00 4.25382E-13-2.89824E-13
 -1      3029 1.98277E+01 2.44122E+00-6.42989E-03-1.36005E+00-3.20964E-13-2.02715E-13
 -1      3030 2.01541E+01 2.32780E+00-9.37487E-03-1.47971E+00-3.63371E-13-1.70077E-13
 -1      3031 1.97897E+01 2.14678E+00 6.68732E-03-1.23145E+00-2.87751E-13-1.79300E-13
 -1      3032 1.81494E+01 2.31158E+00 3.12159E-03-5.66221E-01-1.15221E-13-3.49418E-13
 -1      3033 1.81444E+01 2.62634E+00-5.39218E-03-5.98031E-01-1.33522E-13-3.76176E-13
 -1      3034 1.83997E+01 2.65109E+00-4.90881E-03-7.39661E-01-1.70365E-13-3.52828E-13
 -1      3035 1.92559E+01-4.89664E+00 1.21952E-01-5.68549E+00-2.04337E-13-4.46219E-13
 -1      3036 1.57572E+01 1.27846E+00-1.52545E-03 5.73841E-01 2.74019E-13-3.05051E-13
 -1      3037 2.52528E+01-5.06819E+00 1.52229E-04 2.53147E+00-8.00610E-14-1.24484E-13
 -1      3038 2.82553E+01 3.74362E+00-2.18865E-01-1.73491E+00 3.64819E-13-2.80914E-13
 -1      3039 2.78726E+01-3.88189E+00 1.84984E-02-5.71628E-01 2.57482E-13-1.60483E-13
 -1      3040 1.98129E+01-4.82897E+00 1.01295E-01 5.26581E+00-1.59872E-14-4.34229E-13
 -1      3041 2.74768E+01-2.39474E+00-6.01482E-02-1.21267E+00-3.42608E-13 2.67251E-13
 -1      3042 2.72623E+01-1.30078E+00-7.62979E-02-2.17979E+00-4.41716E-13 3.41144E-13
 -1      3043 2.74327E+01 3.06442E-01-4.35062E-02-2.58002E+00-5.03264E-13 2.03372E-13
 -1      3044 2.87239E+01 1.23621E+00-5.08174E-02-2.51781E+00-7.19536E-13 1.77802E-13
 -1      3045 2.91344E+01 5.33924E+00-1.31704E-01 1.46781E+00-5.83922E-13-3.07948E-13
 -1      3046 2.64127E+01 3.78090E+00-1.00663E-01 1.51307E+00-5.40235E-13-3.20236E-13
 -1      3047 2.04093E+01 4.16894E-01-7.80780E-03-2.26424E+00 2.37542E-14 4.37356E-13
 -1      3048 2.65872E+01 2.40834E+00-1.69147E-01 2.32402E+00-1.14866E-13-5.92720E-13
 -1      3049 2.77584E+01 5.15652E+00-3.89154E-01-1.71477E-01 1.95427E-13-1.67588E-13
 -1      3050 2.84237E+01-2.73523E+00-6.42783E-02-6.73914E-01-3.12234E-13 3.15456E-13
 -1      3051 2.57418E+01 2.12109E-01 1.76491E-01 3.76317E+00-2.06057E-13 9.30367E-14
 -1      3052 2.50939E+01-5.00199E+00 1.88072E-02 3.06480E+00-2.17291E-13-2.66728E-13
 -1      3053 2.05508E+01 3.03818E-01 6.03428E-03 1.50031E+00-2.57693E-13-2.92598E-13
 -1      3054 2.06909E+01 6.86882E-02-3.22452E-03 1.53254E+00-3.89045E-13-3.22646E-13
 -1      3055 2.04301E+01 4.30215E-01-1.88929E-03 1.64508E+00-4.27738E-13-4.45563E-13
 -1      3056 8.93321E+00-7.96018E-01 1.76093E-01 2.07415E+00 3.25961E-13 1.08702E-12
 -1      3057 8.87577E+00-8.95172E-01 1.84592E-01-2.14281E+00 4.56205E-13 9.85823E-13
 -1      3058 2.39675E+01-5.43599E+00 1.86916E-01-3.10842E+00-3.12113E-13 7.26433E-14
 -1      3059 2.45182E+01-4.92342E+00 2.63816E-01-1.71365E+00-1.99993E-13-5.91194E-15
 -1      3060 2.23456E+01-5.40246E+00 1.58001E-01-3.76552E+00-2.90630E-13 1.63466E-13
 -1      3061 2.12429E+01-4.38501E+00 2.49353E-02 4.68358E+00-2.94029E-13-4.77368E-13
 -1      3062 1.93642E+01-4.49674E+00 9.09881E-02 5.80836E+00-1.87475E-13-3.49495E-13
 -1      3063 1.76992E+01-3.32536E+00 5.29912E-02 5.46977E+00-3.09308E-13-1.50116E-13
 -1      3064 2.00310E+01 9.99335E-01-8.46974E-04-2.04438E+00-1.91906E-13 4.59014E-13
 -1      3065 1.59119E+01 1.11720E+00 8.37470E-04 3.49866E-01 2.43175E-13-3.03360E-13
 -1      3066 1.28655E+01-2.22879E+00 1.55298E-01 5.21999E+00-3.33622E-14 6.02518E-13
 -1      3067 1.26655E+01-2.71716E+00 1.75242E-01-5.33784E+00 3.83152E-13-8.72913E-15
 -1      3068 8.31563E+00-1.51573E+00 1.84478E-01 3.36746E+00-1.78343E-13-2.99538E-13
 -1      3069 8.40602E+00-8.33048E-01 1.23748E-01 2.14810E+00-2.47802E-13-2.98261E-13
 -1      3070 1.05185E+01-1.53691E+00 1.16327E-01 4.07436E+00-2.12802E-13-4.42771E-13
 -1      3071 1.74291E+01-5.31801E+00 1.47387E-01-6.02771E+00-2.25320E-13 1.74707E-13
 -1      3072 1.97235E+01-5.48855E+00 3.52202E-02-5.06495E+00-3.15595E-13 2.67897E-13
 -1      3073 1.62997E+01-4.50347E+00 1.42326E-01-5.89407E+00-1.74305E-14 2.37296E-13
 -1      3074 2.74330E+01 4.27399E+00-2.21105E-01-1.89529E+00-8.71581E-13-1.40034E-13
 -1      3075 2.83492E+01 2.52863E+00-7.57200E-02 2.36584E+00 6.22419E-14-3.98764E-13
 -1      3076 2.91031E+01 3.96372E+00-2.04544E-01 2.17619E+00-3.29570E-13-3.20938E-13
 -1      3077 1.09811E+01-2.94615E+00 1.65333E-01-5.28619E+00-1.43441E-13 2.51049E-13
 -1      3078 1.31598E+01-3.36157E+00 5.14796E-02-5.56933E+00-8.15320E-14 2.54824E-13
 -1      3079 1.11538E+01-2.02822E+00 1.16154E-01-4.56504E+00-3.34496E-13-2.89213E-14
 -1      3080 7.79986E+00-6.00661E-01 1.10497E-01-2.78476E-01-3.16068E-13-1.38112E-13
 -1      3081 7.31790E+00-1.08898E+00 1.95855E-01-1.80984E+00-3.94004E-13-5.77871E-14
 -1      3082 9.07171E+00-9.73696E-01 1.23403E-01-2.60986E+00-4.90229E-13 1.48215E-14
 -1      3083 2.01119E+01 6.97439E-01-5.90339E-03 1.83840E+00-2.96046E-13 7.09129E-14
 -1      3084 2.03063E+01 5.30394E-01 7.10634E-03 1.76334E+00-4.54502E-13-5.15248E-14
 -1      3085 2.04247E+01 2.25283E-01-2.37569E-03 1.84901E+00-3.84290E-13-1.94610E-13
 -1      3086 2.00102E+01 4.55665E-01-5.08507E-03 2.03336E+00-3.35180E-13 2.10509E-13
 -1      3087 2.86387E+01 1.34977E-01-9.47911E-02-1.62396E+00 3.20355E-13-4.17028E-13
 -1      3088 1.86620E+01 2.64427E+00-5.82791E-03-8.62225E-01-1.94904E-13-3.10177E-13
 -1      3089 1.89356E+01 2.63561E+00-5.84306E-03-1.00379E+00-2.42608E-13-2.90834E-13
 -1      3090 1.92036E+01 2.28437E+00 4.51817E-03-1.02883E+00-2.37974E-13-2.58139E-13
 -1      3091 1.86596E+01 2.33476E+00 3.60020E-03-8.02720E-01-1.70650E-13-3.09252E-13
 -1      3092 2.00985E+01 6.35733E-01 4.21013E-03-2.27267E+00 9.17640E-14 4.67684E-13
 -1      3093 1.97672E+01 1.01560E+00-6.60825E-03-2.15488E+00-1.07878E-13 4.94246E-13
 -1      3094 1.95491E+01 8.58828E-01 5.96304E-04-2.29419E+00 2.31132E-13 2.67575E-13
 -1      3095 2.01880E+01 4.26831E-01 5.70158E-03-2.37840E+00 2.65525E-13 3.61266E-13
 -1      3096 1.38494E+01-3.25079E+00 1.40072E-01 5.69094E+00-3.57353E-14-6.21225E-13
 -1      3097 2.89359E+01 3.08180E+00 6.92563E-02 5.04103E-01 4.21885E-14 2.52687E-13
 -1      3098 2.71695E+01 2.93813E+00-1.33103E+00 1.95424E+00 1.72140E-13 1.70308E-13
 -1      3099 2.69056E+01 4.23522E+00-5.16852E-01 7.63573E-01 1.47993E-13 3.18634E-14
 -1      3100 1.62626E+01 1.22944E+00-4.61706E-03 2.08355E-01 2.00789E-13-3.14094E-13
 -1      3101 1.64946E+01 1.40144E+00-2.93849E-04 1.38829E-01 1.57812E-13-3.20867E-13
 -1      3102 2.03910E+01 2.24853E+00-6.50907E-03-1.54804E+00-3.72457E-13-1.44817E-13
 -1      3103 2.06976E+01 2.08350E+00-9.01731E-03-1.61693E+00-3.91150E-13-1.01150E-13
 -1      3104 2.07733E+01 1.77076E+00 6.04477E-03-1.46491E+00-3.65362E-13-8.10463E-14
 -1      3105 2.03278E+01 1.96014E+00 8.70981E-03-1.37539E+00-3.47706E-13-1.49944E-13
 -1      3106 2.38179E+01-5.02116E+00 9.66677E-02-3.54267E+00-2.32567E-13-4.82780E-13
 -1      3107 2.54380E+01-5.07395E+00-8.81056E-02-2.38364E+00-4.03289E-14-1.66870E-13
 -1      3108 2.63249E+01 4.67904E+00-3.80178E-01 5.58290E-02 1.21320E-13-2.16688E-13
 -1      3109 2.62979E+01 4.55003E+00-3.33141E-01-9.89033E-01 9.03305E-14-2.66259E-13
 -1      3110 2.68888E+01-3.84568E+00 3.23574E-02 8.41051E-02-7.97167E-14 1.53516E-13
 -1      3111 2.05476E+01 4.05809E-01 4.11076E-03-5.94021E-01-1.59382E-13-6.26691E-14
 -1      3112 2.04637E+01 3.00712E-01-2.51408E-03-5.12639E-01-1.43980E-13-8.22786E-14
 -1      3113 2.04129E+01 2.20498E-01 3.24421E-03-4.54418E-01-1.35763E-13-6.29043E-14
 -1      3114 2.03371E+01 1.53463E-01-1.47738E-03-4.05366E-01-1.54966E-13-8.97967E-14
 -1      3115 2.02954E+01 3.16753E-01-7.42131E-04-5.40657E-01-1.42551E-13-1.02291E-13
 -1      3116 2.02831E+01 1.03213E-01 2.34568E-03-3.70834E-01-1.68576E-13-6.77003E-14
 -1      3117 2.02162E+01 6.17749E-02-7.76078E-04-3.44004E-01-1.34277E-13-9.79477E-14
 -1      3118 2.01809E+01 1.60829E-01-9.57218E-04-4.42672E-01-1.48604E-13-9.38918E-14
 -1      3119 2.01624E+01 3.16797E-02 1.59649E-03-3.25964E-01-8.66135E-14-1.05355E-13
 -1      3120 2.01029E+01 7.72378E-03-3.19562E-04-3.13522E-01-1.20678E-13-7.94211E-14
 -1      3121 2.00672E+01 6.33252E-02-9.45983E-04-3.85795E-01-1.15811E-13-1.01678E-13
 -1      3122 2.00508E+01-8.57683E-03 1.01927E-03-3.06068E-01-1.26177E-13-4.43157E-14
 -1      3123 1.99973E+01-2.04223E-02-2.58588E-05-3.02207E-01-1.15061E-13-3.04180E-14
 -1      3124 1.99581E+01 6.22979E-03-8.34877E-04-3.56905E-01-9.83289E-14-9.08528E-14
 -1      3125 1.99473E+01-2.71053E-02 5.90599E-04-3.00779E-01-1.21183E-13-4.07083E-14
 -1      3126 1.98982E+01-3.04115E-02 1.68373E-04-3.01250E-01-1.05455E-13-4.53157E-14
 -1      3127 1.98545E+01-2.26644E-02-6.97300E-04-3.45409E-01-1.06864E-13-1.40473E-13
 -1      3128 1.98503E+01-3.02411E-02 2.76750E-04-3.02399E-01-1.45508E-13-2.64824E-14
 -1      3129 1.98046E+01-2.73722E-02 3.06630E-04-3.04077E-01-1.57221E-13-5.81716E-15
 -1      3130 1.97565E+01-3.15712E-02-5.63421E-04-3.43136E-01-1.15863E-13-8.54878E-14
 -1      3131 1.97585E+01-2.21609E-02 4.41704E-05-3.05196E-01-1.58834E-13 4.92361E-14
 -1      3132 1.97153E+01-1.46489E-02 4.18824E-04-3.05742E-01-1.32928E-13 1.48973E-14
 -1      3133 1.96631E+01-2.59782E-02-4.44241E-04-3.43875E-01-1.24571E-13 9.34424E-14
 -1      3134 1.96706E+01-5.55267E-03-1.36093E-04-3.04813E-01-7.55073E-14 4.98677E-14
 -1      3135 1.96297E+01 5.64946E-03 5.26214E-04-3.02414E-01-7.01438E-15 3.72040E-14
 -1      3136 1.95736E+01-9.47157E-03-3.41864E-04-3.42870E-01-6.59002E-14 1.64689E-13
 -1      3137 1.95859E+01 1.79234E-02-2.87018E-04-2.97807E-01-2.37579E-14 1.70738E-14
 -1      3138 1.95470E+01 3.22515E-02 6.44436E-04-2.90978E-01-1.72340E-14 1.48328E-14
 -1      3139 1.94870E+01 1.56933E-02-2.55625E-04-3.36366E-01-5.52571E-14 2.59104E-14
 -1      3140 1.95039E+01 4.72816E-02-4.25600E-04-2.81288E-01-4.17997E-14 1.68763E-14
 -1      3141 1.94671E+01 6.44061E-02 7.86324E-04-2.68735E-01-1.31421E-13 4.57665E-14
 -1      3142 1.94023E+01 4.81631E-02-1.84186E-04-3.21242E-01-6.00960E-14-4.50493E-15
 -1      3143 1.94242E+01 8.19183E-02-5.63328E-04-2.52665E-01-1.64416E-13 8.29240E-14
 -1      3144 1.93898E+01 1.01605E-01 9.64202E-04-2.33191E-01-1.67779E-13 7.29918E-14
 -1      3145 1.93190E+01 8.71396E-02-1.26872E-04-2.94725E-01-8.73334E-14-4.91432E-16
 -1      3146 1.93469E+01 1.21339E-01-7.04562E-04-2.09458E-01-1.38793E-13 9.06912E-14
 -1      3147 1.93157E+01 1.43305E-01 1.19191E-03-1.81906E-01-8.75171E-14 7.81856E-14
 -1      3148 1.92362E+01 1.32065E-01-8.71543E-05-2.54160E-01-1.61225E-13 1.08176E-13
 -1      3149 1.92727E+01 1.64875E-01-8.40338E-04-1.49178E-01-5.76462E-14 6.34572E-14
 -1      3150 1.92457E+01 1.88648E-01 1.48997E-03-1.12426E-01-4.88108E-14 5.08469E-14
 -1      3151 1.91537E+01 1.82305E-01-7.22184E-05-1.96839E-01-1.07872E-13 8.48856E-14
 -1      3152 1.92029E+01 2.11418E-01-9.34073E-04-6.93296E-02-1.15909E-14 7.74679E-14
 -1      3153 1.91819E+01 2.36214E-01 1.89303E-03-2.23594E-02 2.89757E-14 6.38568E-14
 -1      3154 1.90718E+01 2.36812E-01-8.80775E-05-1.19909E-01-2.45101E-14 5.92116E-14
 -1      3155 1.91404E+01 2.59245E-01-8.97239E-04 3.24070E-02-9.89168E-15 8.15214E-14
 -1      3156 1.91275E+01 2.83954E-01 2.44135E-03 9.02996E-02 4.26062E-14 3.77897E-14
 -1      3157 1.89916E+01 2.93812E-01-1.33255E-04-2.04247E-02-1.38289E-14 5.27911E-14
 -1      3158 1.90897E+01 3.06148E-01-5.95981E-04 1.57539E-01 5.57366E-14 6.87372E-14
 -1      3159 1.90876E+01 3.29620E-01 3.07126E-03 2.26293E-01 4.58137E-14 2.68566E-14
 -1      3160 1.89161E+01 3.50606E-01-2.18040E-04 1.04207E-01 6.61249E-14-1.26330E-14
 -1      3161 1.90577E+01 3.50421E-01-6.89289E-05 3.05199E-01-2.14576E-14 8.82253E-14
 -1      3162 1.90687E+01 3.72684E-01 3.19773E-03 3.83314E-01 2.82083E-14 4.65914E-14
 -1      3163 1.88513E+01 4.03926E-01-5.41536E-04 2.54809E-01 3.40954E-14 1.33482E-13
 -1      3164 1.90520E+01 3.94136E-01-2.95056E-04 4.69387E-01-4.89009E-14 8.26615E-14
 -1      3165 1.90746E+01 4.20276E-01 1.32582E-03 5.53785E-01-6.95645E-14 1.04203E-13
 -1      3166 1.88065E+01 4.52531E-01-2.01547E-03 4.27114E-01 1.59876E-15 1.43030E-13
 -1      3167 1.90720E+01 4.51933E-01-3.62621E-03 6.38321E-01-1.80713E-13 7.23074E-14
 -1      3168 1.90999E+01 5.00111E-01-2.49914E-03 7.27874E-01-1.90886E-13 6.83290E-14
 -1      3169 1.87905E+01 5.07166E-01-6.18361E-03 6.07295E-01-1.43722E-13 1.90256E-13
 -1      3170 1.90922E+01 5.64006E-01-9.70624E-03 8.12700E-01-6.48492E-14-1.84297E-14
 -1      3171 1.91241E+01 6.61126E-01 8.04327E-04 9.20511E-01-1.70879E-14 9.05808E-15
 -1      3172 1.87925E+01 6.13745E-01-1.05713E-02 7.79691E-01-1.59729E-13 7.89507E-14
 -1      3173 1.90775E+01 7.70468E-01-4.08189E-03 1.05646E+00 9.54419E-14 3.80191E-14
 -1      3174 1.91210E+01 8.71962E-01 1.32944E-02 1.22299E+00 1.15149E-13 9.90319E-14
 -1      3175 1.87623E+01 8.36482E-01-2.65757E-03 9.80600E-01 9.59350E-14-8.52996E-14
 -1      3176 1.90969E+01 9.23245E-01 1.24533E-02 1.45510E+00 5.33532E-14 1.12853E-13
 -1      3177 1.91781E+01 9.03982E-01 1.99072E-02 1.66310E+00 9.92496E-14 9.32483E-14
 -1      3178 1.87020E+01 1.05597E+00 1.27663E-02 1.35081E+00 1.27204E-13 1.33123E-14
 -1      3179 1.92460E+01 8.00174E-01 2.45468E-02 1.91940E+00 1.05867E-13 4.14235E-14
 -1      3180 1.94003E+01 6.17514E-01 2.30331E-02 2.10181E+00 1.72813E-13 4.35572E-14
 -1      3181 1.87583E+01 1.05097E+00 4.34051E-02 1.87176E+00 1.03625E-13 1.58510E-14
 -1      3182 1.95136E+01 3.59369E-01 1.45983E-02 2.30830E+00 2.36228E-13 4.05188E-14
 -1      3183 1.97502E+01 3.64709E-02 1.04846E-02 2.42563E+00 2.80615E-13 4.22080E-14
 -1      3184 1.89262E+01 6.33460E-01 2.57162E-02 2.33850E+00 1.97056E-13 3.91596E-14
 -1      3185 1.99311E+01-3.47519E-01 1.05041E-02 2.59281E+00 1.46217E-13 7.41403E-14
 -1      3186 2.03083E+01-8.14404E-01 1.08077E-02 2.63696E+00 1.04430E-13 6.44808E-14
 -1      3187 1.91620E+01-7.42391E-02-3.98395E-03 2.71834E+00 2.07504E-13 1.55709E-13
 -1      3188 2.06844E+01-1.34701E+00 2.66838E-02 2.75886E+00 9.28524E-14-1.85676E-14
 -1      3189 2.12691E+01-1.97978E+00 1.33582E-02 2.68306E+00 1.26501E-13-4.59719E-14
 -1      3190 1.96138E+01-1.10472E+00-2.84391E-02 3.06960E+00 9.01269E-14 1.12762E-13
 -1      3191 2.20203E+01-2.65013E+00 5.10213E-02 2.64964E+00 1.45073E-13 4.85241E-14
 -1      3192 2.28309E+01-3.34044E+00-2.62048E-03 2.34047E+00 1.31183E-13 9.76860E-14
 -1      3193 2.05992E+01-2.50347E+00-4.49615E-02 3.31526E+00 1.82352E-13-4.05162E-14
 -1      3194 1.56575E+01-3.21700E+00 6.75996E-03 5.49059E+00 4.91968E-14-4.91426E-13
 -1      3195 1.32863E+01-2.19274E+00 1.12694E-01 5.00376E+00-8.74162E-14-4.89775E-13
 -1      3196 2.07682E+01 1.14018E+00 5.52276E-03-1.11559E+00-2.88761E-13-6.47866E-14
 -1      3197 2.06925E+01 8.91249E-01-5.14539E-03-9.35859E-01-2.47633E-13-7.62304E-14
 -1      3198 2.59152E+01-3.99995E+00 3.26789E-03-8.95127E-01-9.11771E-15-3.35620E-13
 -1      3199 2.48456E+01-3.99199E+00 7.16231E-02-1.73444E+00-1.76522E-13-2.24983E-13
 -1      3200 2.35199E+01-3.50359E+00 6.16385E-03-2.21950E+00 7.29104E-14-3.80240E-13
 -1      3201 2.26437E+01-2.87803E+00 5.41609E-02-2.64687E+00 1.85577E-13-4.24004E-13
 -1      3202 2.31459E+01-4.11136E+00-7.07179E-02-2.97411E+00-5.13201E-14-2.60007E-13
 -1      3203 2.18721E+01-2.22117E+00 1.62527E-02-2.73193E+00 1.89056E-13-2.94802E-13
 -1      3204 2.12488E+01-1.58620E+00 2.41895E-02-2.87226E+00 1.94176E-13-4.15318E-13
 -1      3205 2.13154E+01-2.63653E+00-5.51520E-02-3.28772E+00 2.51496E-13-2.12037E-13
 -1      3206 2.08892E+01-1.02731E+00 1.25165E-02-2.77085E+00 3.15603E-13-2.04150E-13
 -1      3207 2.05191E+01-5.28527E-01 8.33119E-03-2.75495E+00 4.47586E-13-2.92002E-14
 -1      3208 2.03394E+01-1.22753E+00-3.18999E-02-3.11519E+00 3.61290E-13 3.82741E-14
 -1      3209 2.04166E+01-2.04798E-01 8.66262E-03-2.62181E+00 3.96913E-13-5.46665E-14
 -1      3210 2.02211E+01 1.67886E-01 5.34368E-03-2.51471E+00 2.83495E-13 1.77049E-13
 -1      3211 1.98445E+01 3.53013E-01-9.31221E-03-2.53644E+00 4.32097E-13 1.55365E-13
 -1      3212 1.99722E+01-2.46123E-01-2.23509E-03-2.82027E+00 2.86538E-13 1.03458E-13
 -1      3213 1.63847E+01-2.32414E-02 6.51735E-04-6.14401E-01 5.59106E-14-8.70110E-14
 -1      3214 1.63312E+01-1.97768E-02 4.58351E-05-6.15100E-01 7.59506E-14-8.80719E-14
 -1      3215 1.62967E+01-1.28785E-02 4.83002E-04-6.13680E-01 8.50048E-14-9.39328E-14
 -1      3216 1.62475E+01-2.08833E-03 4.83538E-04-6.10008E-01 1.00412E-13-7.85815E-14
 -1      3217 1.65379E+01-1.53958E-02-6.71216E-04-6.51588E-01 8.44459E-14-7.16836E-14
 -1      3218 1.65745E+01-1.24802E-02 8.98148E-04-6.08248E-01 2.26400E-14-6.56870E-14
 -1      3219 1.65158E+01-1.86826E-02-4.92438E-04-6.09324E-01 1.52763E-14-1.15252E-13
 -1      3220 1.66745E+01 4.21068E-03 1.01362E-03-6.10198E-01-1.66883E-14-2.19268E-14
 -1      3221 1.66139E+01-5.40446E-03-6.61177E-04-6.08502E-01 1.73502E-14-4.31345E-14
 -1      3222 1.67649E+01-8.84016E-03-3.05850E-04-6.51253E-01-1.58671E-14-2.49198E-14
 -1      3223 1.67770E+01 2.67756E-02 1.14104E-03-6.19925E-01-1.37993E-14-7.05379E-14
 -1      3224 1.67146E+01 1.42366E-02-7.97398E-04-6.13979E-01-8.83378E-15-3.98133E-14
 -1      3225 1.68468E+01 1.24424E-02-2.33246E-04-6.56128E-01 3.08107E-16-5.41845E-14
 -1      3226 1.68822E+01 5.45183E-02 1.28784E-03-6.40103E-01 3.30246E-14-7.58638E-14
 -1      3227 1.68177E+01 3.93767E-02-9.18098E-04-6.28641E-01 7.31109E-15-7.41904E-14
 -1      3228 1.69306E+01 4.06080E-02-1.76009E-04-6.69380E-01 5.06120E-15-1.19450E-13
 -1      3229 1.69901E+01 8.68355E-02 1.45698E-03-6.73079E-01-9.99975E-15 1.71443E-14
 -1      3230 1.69232E+01 6.94002E-02-1.03273E-03-6.55000E-01-4.20753E-15-3.63903E-14
 -1      3231 1.70155E+01 7.48367E-02-1.32046E-04-6.93733E-01-1.90704E-14-5.57476E-14
 -1      3232 1.71012E+01 1.22881E-01 1.64734E-03-7.20903E-01-2.02065E-14 4.93399E-15
 -1      3233 1.70312E+01 1.03629E-01-1.14193E-03-6.95283E-01 1.18836E-14 1.05872E-14
 -1      3234 1.71013E+01 1.14342E-01-1.01773E-04-7.31615E-01-1.87248E-14 2.71700E-14
 -1      3235 1.72165E+01 1.61146E-01 1.85315E-03-7.85206E-01-9.21552E-15-3.66926E-14
 -1      3236 1.71425E+01 1.40951E-01-1.23320E-03-7.51391E-01 3.39242E-15-2.97700E-15
 -1      3237 1.71878E+01 1.57945E-01-9.05815E-05-7.85182E-01-1.47057E-14-3.21336E-14
 -1      3238 1.73376E+01 1.98966E-01 2.06948E-03-8.66874E-01-5.24653E-14-1.71064E-14
 -1      3239 1.72585E+01 1.79360E-01-1.26983E-03-8.24685E-01-8.93644E-14-1.65111E-14
 -1      3240 1.72754E+01 2.03551E-01-1.05019E-04-8.56194E-01-4.35846E-14-7.58475E-15
 -1      3241 1.74667E+01 2.32045E-01 2.30713E-03-9.65438E-01 4.26342E-14 8.53370E-15
 -1      3242 1.73813E+01 2.15448E-01-1.17400E-03-9.15495E-01 3.26269E-14 4.29746E-14
 -1      3243 1.73654E+01 2.47533E-01-1.33769E-04-9.45635E-01-1.96907E-14 4.56062E-14
 -1      3244 1.76074E+01 2.54298E-01 2.59039E-03-1.07820E+00 7.56326E-15-6.08527E-14
 -1      3245 1.75141E+01 2.44031E-01-8.30153E-04-1.02232E+00 7.34391E-14 2.29897E-15
 -1      3246 1.74604E+01 2.84224E-01-1.20926E-04-1.05296E+00 4.60238E-14 1.35791E-13
 -1      3247 1.77633E+01 2.58417E-01 2.77132E-03-1.19943E+00 6.27659E-14-3.02079E-14
 -1      3248 1.76609E+01 2.58248E-01-2.56553E-04-1.14083E+00 3.12867E-14-1.62413E-16
 -1      3249 1.75646E+01 3.05985E-01-3.08396E-05-1.17492E+00 7.10705E-15 1.04758E-13
 -1      3250 1.79379E+01 2.37047E-01 1.43550E-03-1.32117E+00-8.02430E-14-2.22773E-14
 -1      3251 1.78250E+01 2.50556E-01-4.22042E-04-1.26370E+00 1.53577E-14-1.36499E-14
 -1      3252 1.76825E+01 3.04712E-01-4.76975E-04-1.30465E+00 3.09805E-14 1.38163E-13
 -1      3253 1.81366E+01 1.81408E-01-5.86856E-03-1.43700E+00-1.38497E-13-4.77304E-14
 -1      3254 1.80064E+01 2.12748E-01-5.81775E-03-1.38442E+00-1.74852E-13-8.04301E-14
 -1      3255 1.78145E+01 2.74761E-01-5.34021E-03-1.43419E+00-1.02646E-13 8.85335E-14
 -1      3256 1.83670E+01 5.42623E-02-4.32687E-02-1.55586E+00-1.79082E-13-3.94372E-14
 -1      3257 1.82099E+01 1.33520E-01-2.58797E-02-1.50821E+00-1.12298E-13-4.21703E-14
 -1      3258 1.79521E+01 2.06950E-01-2.79095E-02-1.56630E+00-1.57489E-13 1.38054E-13
 -1      3259 1.86657E+01-2.61284E-01-1.63979E-01-1.65836E+00-2.21809E-13 2.01020E-14
 -1      3260 1.84876E+01-6.05572E-02-9.63345E-02-1.64038E+00-2.29441E-13-2.85744E-14
 -1      3261 1.81015E+01 3.49262E-02-1.13244E-01-1.73972E+00-2.17042E-13 5.52891E-14
 -1      3262 1.91882E+01-4.37861E-01-1.76129E-01-1.39792E+00-5.64548E-14-9.25371E-14
 -1      3263 1.89833E+01-4.63894E-01-2.05499E-01-1.54913E+00-1.12022E-13-9.63118E-14
 -1      3264 1.84675E+01-5.11557E-01-3.08152E-01-1.85249E+00-1.06387E-13 4.92661E-15
 -1      3265 1.95002E+01-1.99870E-01-1.56964E-02-1.33258E+00 8.19561E-14 2.49731E-14
 -1      3266 1.93311E+01-2.56388E-01-6.18409E-02-1.33161E+00-2.84599E-14-2.49800E-14
 -1      3267 1.89870E+01-4.81576E-01-2.34064E-01-1.54385E+00-5.67879E-14-3.75880E-14
 -1      3268 2.00140E+01-4.61963E-01 1.93294E-02-1.34470E+00 1.77389E-13 5.64193E-14
 -1      3269 1.97659E+01-2.82998E-01 2.55872E-02-1.38794E+00 1.95607E-13 1.03193E-13
 -1      3270 1.94121E+01-2.39430E-01 2.58502E-02-1.58697E+00 4.85792E-14 8.28573E-14
 -1      3271 2.06085E+01-9.49334E-01 4.98275E-05-1.14815E+00-7.61158E-14 9.73741E-14
 -1      3272 2.03326E+01-6.87253E-01 2.21473E-02-1.28713E+00 3.02688E-14 1.21825E-13
 -1      3273 1.99648E+01-6.66039E-01 2.33930E-02-1.57707E+00 1.03657E-13-1.51537E-14
 -1      3274 2.13003E+01-1.46444E+00-1.34700E-02-7.30019E-01-1.79876E-13 1.26600E-13
 -1      3275 2.10057E+01-1.20633E+00 1.34848E-02-9.75210E-01-1.65835E-13 9.71977E-14
 -1      3276 2.06180E+01-1.26178E+00-8.14856E-03-1.36365E+00-1.20027E-13 1.91920E-15
 -1      3277 2.20712E+01-1.81114E+00-2.21412E-02-7.19793E-02 7.00481E-15 1.24695E-13
 -1      3278 2.17751E+01-1.66904E+00 6.54216E-03-4.19633E-01-8.99298E-14 1.99012E-13
 -1      3279 2.14391E+01-1.84634E+00-2.25837E-02-9.13019E-01-1.41599E-13-4.00743E-15
 -1      3280 2.28029E+01-1.70100E+00-1.73968E-02 7.63438E-01-5.91263E-14 2.78826E-13
 -1      3281 2.25479E+01-1.84650E+00-7.98193E-03 3.57247E-01-2.07334E-14 1.73033E-13
 -1      3282 2.23573E+01-2.13457E+00-1.54213E-02-2.00913E-01-5.59414E-14 3.31749E-13
 -1      3283 2.32809E+01-5.23309E-01 9.88363E-02 1.55990E+00-9.73666E-14 3.61128E-13
 -1      3284 2.32168E+01-1.24762E+00 6.55550E-02 1.30456E+00-1.12084E-13 2.95130E-13
 -1      3285 2.32786E+01-1.89024E+00 3.87468E-02 6.92297E-01-1.46189E-13 2.59015E-13
 -1      3286 2.39491E+01 3.08143E+00-3.94647E-01 8.34583E-01-4.00791E-14 1.88738E-14
 -1      3287 2.40953E+01 2.38048E+00-2.46150E-01 1.38837E+00 1.24900E-14 8.65419E-14
 -1      3288 2.37599E+01 3.17607E+00-1.97998E-01-8.49373E-01 1.79440E-14-5.70932E-14
 -1      3289 2.35292E+01 3.31785E+00-3.36984E-01-1.17409E-01-8.30169E-14-2.97540E-14
 -1      3290 2.42551E+01-2.81614E-01-5.02369E-02-1.96353E+00 3.64431E-14-4.03738E-13
 -1      3291 2.41335E+01 6.09645E-01-1.99321E-02-2.00547E+00 9.91637E-14-2.79689E-13
 -1      3292 2.40735E+01-1.58695E+00-1.49564E-02-1.18033E+00-3.46265E-14-4.53456E-13
 -1      3293 2.41464E+01-1.04731E+00-9.93135E-03-1.55737E+00 3.61343E-15-3.76845E-13
 -1      3294 2.50017E+01-9.02147E-01-1.43713E-02-1.71485E+00 2.54102E-14-4.22620E-13
 -1      3295 2.34471E+01-1.96735E+00 9.84152E-03-1.60877E-01-1.12846E-13-3.04124E-13
 -1      3296 2.36640E+01-1.87985E+00-1.52013E-02-6.05465E-01-8.47052E-14-3.69526E-13
 -1      3297 2.43817E+01-2.12017E+00-3.55960E-03-6.38167E-01-1.55832E-13-5.25969E-13
 -1      3298 2.26369E+01-1.71293E+00 1.99511E-02 6.75375E-01 6.35880E-14-4.15747E-13
 -1      3299 2.29171E+01-1.90126E+00-1.32738E-02 3.12213E-01 7.25665E-14-3.02439E-13
 -1      3300 2.34122E+01-2.28546E+00 1.89752E-04 4.21400E-01 7.18978E-14-3.95405E-13
 -1      3301 2.18648E+01-1.16145E+00 1.84930E-02 1.20438E+00 1.09330E-13-5.07524E-13
 -1      3302 2.21441E+01-1.46338E+00-9.75075E-03 9.74703E-01 8.23681E-14-4.48973E-13
 -1      3303 2.24040E+01-1.86757E+00-1.65773E-02 1.16769E+00 5.34026E-14-3.69831E-13
 -1      3304 2.12435E+01-5.50857E-01 1.34504E-02 1.43887E+00-7.53866E-14-4.12812E-13
 -1      3305 2.14823E+01-8.59902E-01-5.81136E-03 1.34231E+00 1.51702E-15-4.78366E-13
 -1      3306 2.15872E+01-1.17035E+00-1.58978E-02 1.55588E+00 9.97351E-14-6.40289E-13
 -1      3307 2.08594E+01-1.36355E-01 6.99957E-03 1.53554E+00-3.97491E-13-3.06182E-13
 -1      3308 2.10285E+01-3.67551E-01-4.68862E-03 1.49556E+00-2.06835E-13-4.19784E-13
 -1      3309 2.10590E+01-5.66002E-01-9.16737E-03 1.70406E+00-2.56808E-13-6.01218E-13
 -1      3310 2.07222E+01-8.05809E-02-8.26237E-04 1.72557E+00-4.60234E-13-4.77859E-13
 -1      3311 2.50997E+01-3.75563E+00 4.87178E-01 2.22428E-01-1.78690E-13-1.10467E-13
 -1      3312 2.54440E+01-2.49462E+00 7.60155E-01 1.95013E+00-1.77525E-13-1.66714E-13
 -1      3313 1.74552E+01 1.63352E+00-6.44575E-04-5.13960E-01 9.24970E-14-3.56354E-13
 -1      3314 1.74171E+01 1.63434E+00-4.12857E-03 2.69917E-02 1.14132E-13-3.17400E-13
 -1      3315 2.75921E+01 9.06884E-01-1.80988E-01-2.04934E+00 3.35690E-13-3.62682E-13
 -1      3316 2.76706E+01-8.26306E-01-3.58623E-02-1.57330E+00 2.55559E-13-4.06890E-13
 -1      3317 1.75343E+01 1.51803E+00-1.68210E-02 6.78084E-01-6.69072E-15-2.56178E-13
 -1      3318 1.78044E+01 1.41089E+00 1.05737E-02 1.17149E+00-5.88317E-14-1.76845E-13
 -1      3319 1.70267E+01 1.40092E+00 2.00273E-02 4.36480E-01-3.98665E-14-1.19432E-13
 -1      3320 1.04355E+01-6.99065E-01 6.99301E-02 3.08174E+00-1.77358E-14 6.13523E-13
 -1      3321 9.73039E+00-1.29473E-01 1.13543E-01 9.96614E-01 2.96691E-13 9.77121E-13
 -1      3322 2.70647E+01 1.65564E+00-8.50160E-02 2.57862E+00 1.95219E-13-3.65478E-13
 -1      3323 9.62095E+00-2.39781E-01 9.99163E-02-1.29614E+00 6.46733E-13 1.20931E-12
 -1      3324 1.02871E+01-8.75250E-01 8.32578E-02-3.21889E+00 6.55441E-13 4.73788E-13
 -1      3325 1.60328E+01 2.56990E-01-1.36650E-03-4.03341E-01 1.02970E-13-1.70701E-13
 -1      3326 1.60214E+01 3.40697E-01 3.59366E-03-3.24894E-01 1.38340E-13-1.70465E-13
 -1      3327 2.87849E+01-5.22737E-01-4.95929E-02 1.81368E+00 4.55525E-13-1.07386E-13
 -1      3328 1.79712E+01 1.40692E+00 1.27678E-02-1.59632E+00 2.27071E-13-2.11605E-13
 -1      3329 1.76419E+01 1.50955E+00-1.83126E-02-1.13802E+00 1.52430E-13-1.35663E-13
 -1      3330 1.71127E+01 1.39330E+00 1.75736E-02-9.14265E-01 1.49489E-13-1.89910E-13
 -1      3331 1.88732E+01 9.61610E-01 1.56338E-02-2.26665E+00 4.64499E-13 3.82659E-14
 -1      3332 1.83952E+01 1.12592E+00-2.06682E-02-2.01801E+00 3.13267E-13-3.56179E-13
 -1      3333 1.78586E+01 1.01807E+00 2.07125E-03-2.00086E+00 2.32555E-13-4.50323E-14
 -1      3334 1.21830E+01-1.56064E+00 1.42445E-01-4.44763E+00 4.83863E-13 5.98133E-14
 -1      3335 1.47066E+01-2.87704E+00-7.61708E-03-5.55082E+00 3.51434E-13-9.71861E-14
 -1      3336 1.64777E+01-2.22120E-02 7.82870E-04-6.10938E-01 4.12088E-14-9.51336E-14
 -1      3337 1.64212E+01-2.42047E-02-2.67070E-04-6.12978E-01 7.55555E-14-5.43782E-14
 -1      3338 1.66095E+01-2.52069E-02-5.18892E-04-6.53336E-01 4.46779E-14-3.30346E-14
 -1      3339 1.66855E+01-2.20306E-02-3.98602E-04-6.51602E-01 5.19121E-14 2.97381E-14
 -1      3340 1.60817E+01 1.36745E-01-6.47937E-04-5.10191E-01 6.37053E-14-1.24259E-13
 -1      3341 1.60582E+01 1.91703E-01 2.92977E-03-4.62987E-01 7.83141E-14-1.33020E-13
 -1      3342 1.63170E+01 2.78008E-01-1.31845E-03-4.51280E-01 7.17344E-14-1.36474E-13
 -1      3343 1.81429E+01-3.93354E+00 1.39940E-01-5.55274E+00 6.25541E-14-3.90007E-13
 -1      3344 2.11823E+01-5.07910E+00-5.75065E-02-4.97138E+00-2.33841E-13-5.90760E-13
 -1      3345 2.25794E+01-4.48056E+00 4.67556E-02-3.78568E+00-2.20393E-13-4.33115E-13
 -1      3346 2.06744E+01 6.94216E-01 4.45899E-03-8.09257E-01-2.18605E-13-6.92961E-14
 -1      3347 2.05883E+01 5.32005E-01-3.79914E-03-6.83541E-01-1.85101E-13-6.80501E-14
 -1      3348 2.04020E+01 5.57825E-01-4.25944E-05-6.94439E-01-1.73530E-13-8.84472E-14
 -1      3349 2.72498E+01-2.66445E+00-1.36889E-01-5.67795E-01 1.64313E-14-3.06408E-13
 -1      3350 2.68139E+01-3.59999E+00 2.49612E-02 4.75982E-01-6.94150E-14-3.12923E-13
 -1      3351 1.47263E+01-2.13860E+00 1.97155E-02 5.06637E+00-2.18252E-13 3.54730E-13
 -1      3352 1.23568E+01-1.19123E+00 1.56906E-01 4.27358E+00-7.65880E-14 6.10290E-13
 -1      3353 1.28289E+01-5.50472E-01 1.09399E-01 3.24834E+00-1.15796E-13 4.79713E-13
 -1      3354 2.83094E+01-1.51579E-01 2.10175E+00 1.99150E+00-1.35392E-13 5.02098E-14
 -1      3355 2.45623E+01 5.55943E-01 5.12447E-02 1.02524E+00-1.42275E-13 1.48548E-13
 -1      3356 2.50201E+01-1.31491E+00 1.36606E+00 1.02018E+00-1.07081E-13-1.24234E-13
 -1      3357 2.67452E+01 3.90601E+00-2.41630E-01-1.65551E+00 2.95777E-13-4.06619E-13
 -1      3358 2.72369E+01 2.60098E+00-1.34278E-01-2.15986E+00 3.93019E-13-4.05828E-13
 -1      3359 1.59125E+01 8.19790E-01 3.64491E-04 1.59068E-01 2.08681E-13-2.84112E-13
 -1      3360 1.61117E+01 1.08150E+00 2.28171E-03 2.00074E-01 2.06307E-13-2.93847E-13
 -1      3361 1.62756E+01 9.45309E-01 7.04725E-04 3.02802E-02 1.77833E-13-2.85194E-13
 -1      3362 1.59074E+01 6.48773E-01-2.81698E-03-1.43720E-02 1.84924E-13-2.73301E-13
 -1      3363 2.57053E+01-4.60743E+00-7.13531E-02 1.92993E+00-2.78041E-13-2.15763E-13
 -1      3364 2.38832E+01-4.72641E+00 2.44738E-02 3.29068E+00-4.47725E-13-2.62172E-13
 -1      3365 2.57426E+01-3.80951E+00 1.46194E-04 9.17999E-01-2.79075E-13-2.07157E-13
 -1      3366 1.76318E+01 1.91073E+00-3.69402E-03-3.20283E-01-2.60961E-14-3.19699E-13
 -1      3367 1.78685E+01 1.97144E+00-2.80438E-03-4.32897E-01-7.78469E-14-3.21218E-13
 -1      3368 2.11373E+01-4.61494E+00-5.11257E-02 4.42168E+00 8.07895E-14-2.34701E-13
 -1      3369 1.85802E+01-3.82107E+00 1.29753E-01 5.15404E+00 2.15133E-13-3.91832E-13
 -1      3370 2.51107E+01-4.03889E+00-1.84354E-02 1.12143E+00 1.39555E-13 6.75042E-14
 -1      3371 2.54825E+01-4.54552E+00-5.64098E-02 1.66421E+00 3.35704E-14 4.96912E-14
 -1      3372 2.34979E+01-4.74993E+00 1.02322E-01 3.26437E+00 1.04462E-13-1.00534E-13
 -1      3373 2.41899E+01-3.69346E+00 8.78090E-02 1.79564E+00 1.81175E-13 1.63610E-13
 -1      3374 1.81096E+01 2.00670E+00-3.39254E-03-5.30235E-01-1.02233E-13-3.24736E-13
 -1      3375 1.83564E+01 2.03447E+00-3.26771E-03-6.43450E-01-1.37210E-13-3.24401E-13
 -1      3376 1.80905E+01 1.73277E+00 4.37141E-03-5.16727E-01-7.52949E-14-2.99625E-13
 -1      3377 1.67192E+01 1.52498E+00-5.23141E-03 6.59302E-02 1.24348E-13-3.40310E-13
 -1      3378 1.69457E+01 1.65476E+00-1.91983E-03-2.98012E-02 8.07357E-14-3.33389E-13
 -1      3379 1.66822E+01 1.23870E+00 4.26260E-03-2.03005E-02 1.27980E-13-2.92575E-13
 -1      3380 2.54800E+01 3.49043E+00-2.12810E-01-1.42496E+00 1.56222E-13-4.36845E-13
 -1      3381 1.95119E+01 5.32096E-01 5.15548E-03-2.50210E+00 4.26548E-13 2.04523E-13
 -1      3382 1.91738E+01 7.39698E-01-1.21393E-02-2.40427E+00 4.39533E-13 2.10367E-13
 -1      3383 1.87750E+01 5.87136E-01-1.24994E-03-2.52975E+00 3.28761E-13 1.30228E-13
 -1      3384 1.95045E+01 2.35274E-01-4.75856E-03-2.66422E+00 2.88642E-13 1.74630E-13
 -1      3385 2.24816E+01-3.89259E+00-5.36652E-02 2.97223E+00 1.16195E-13 1.59820E-13
 -1      3386 1.77860E+01-2.93382E+00 8.05268E-02 4.77320E+00 2.67175E-13-3.17229E-13
 -1      3387 2.04810E+01 9.24436E-01 1.51706E-03-9.16098E-01-2.39939E-13-8.90208E-14
 -1      3388 1.61431E+01 5.98548E-02-1.09235E-04-5.71554E-01 6.69301E-14-1.25251E-13
 -1      3389 1.61083E+01 9.47720E-02 1.89196E-03-5.45584E-01 7.09002E-14-1.32423E-13
 -1      3390 1.63613E+01 1.46969E-01-1.24152E-03-5.51937E-01 6.23571E-14-1.40686E-13
 -1      3391 1.64719E+01 1.18134E-02-8.56044E-04-6.40026E-01 9.35929E-14-9.28624E-14
 -1      3392 1.62155E+01 1.28712E-02 2.45511E-04-6.02267E-01 8.71559E-14-1.07169E-13
 -1      3393 1.61723E+01 3.37184E-02 1.08593E-03-5.90173E-01 7.42856E-14-1.21956E-13
 -1      3394 2.50470E+01 1.92277E+00-2.14809E-01 1.92995E+00 9.89764E-14 2.46345E-13
 -1      3395 2.38583E+01 1.39570E+00 1.81798E-01 1.58014E+00-2.19408E-14 1.63314E-13
 -1      3396 2.36020E+01 3.40450E-01 6.61078E-02 1.73271E+00 2.61735E-14 3.35454E-13
 -1      3397 2.56253E+01 4.36753E-01-3.10473E-01 1.21096E+00-4.71845E-14 2.04947E-13
 -1      3398 2.39421E+01-2.41308E-01 1.67732E-01 1.54201E+00-1.64868E-14 2.53575E-13
 -1      3399 2.54878E+01 1.33245E+00-8.65770E-02-2.17573E+00 2.90046E-13-3.77975E-13
 -1      3400 2.44720E+01 1.73136E+00-9.94040E-02-1.98482E+00 2.46782E-13-2.26683E-13
 -1      3401 2.42540E+01 2.63231E+00-1.08602E-01-1.57886E+00 2.03212E-13-1.89120E-13
 -1      3402 2.44497E+01-4.36186E+00 1.30571E-01-6.90269E-01-1.43604E-13-6.76265E-14
 -1      3403 2.30188E+01-3.50521E+00-6.95536E-02 4.38772E-01-1.88866E-13-1.44995E-13
 -1      3404 2.37629E+01-4.38104E+00 1.86653E-01-1.40044E+00-1.46091E-13-1.49492E-13
 -1      3405 2.64661E+01 1.32537E+00-1.07489E-01-2.12401E+00 2.77736E-13-4.40266E-13
 -1      3406 1.90991E+01 5.80442E-01-1.84258E-02 2.16955E+00-4.41964E-13 3.48131E-13
 -1      3407 1.95643E+01 3.83916E-01 1.60185E-02 2.26214E+00-4.78825E-13 3.50266E-13
 -1      3408 1.16448E+01 2.75079E-01 2.98741E-02 9.02774E-01-2.47174E-13 5.06678E-13
 -1      3409 1.05425E+01 1.07201E-01 1.23455E-01-1.03882E-01 2.32630E-13 1.01698E-12
 -1      3410 1.15363E+01 1.80240E-01 2.07300E-02-1.19084E+00 3.22568E-13 7.10043E-13
 -1      3411 2.67559E+01-1.58095E+00-3.31052E-02-1.28056E+00 9.24608E-14-3.60052E-13
 -1      3412 1.81731E+01 1.10809E+00-2.31017E-02 1.65010E+00-1.48504E-13-8.70613E-14
 -1      3413 1.86316E+01 9.27301E-01 1.95016E-02 1.96378E+00-2.89326E-13 2.73150E-13
 -1      3414 1.86814E+01 4.11142E-01-2.80568E-03 2.31088E+00-3.28548E-13 4.12303E-13
 -1      3415 1.76365E+01 1.00991E+00 8.79286E-03 1.61846E+00-1.53034E-13-7.55110E-14
 -1      3416 2.12856E+01-5.24038E+00 1.09990E-01-4.22877E+00-2.40336E-13 1.52246E-13
 -1      3417 2.21203E+01-5.06567E+00-1.19385E-02-3.00020E+00-1.87184E-13-1.45446E-13
 -1      3418 1.98261E+01-4.68316E+00 5.20053E-02-4.48493E+00-2.25375E-13 2.01818E-13
 -1      3419 2.26461E+01-4.45557E+00 2.58734E-02 3.94392E+00-2.98483E-13-3.55778E-13
 -1      3420 2.10248E+01-3.70744E+00-2.63531E-03 4.20386E+00-3.07514E-13-4.50660E-13
 -1      3421 2.35331E+01-4.07069E+00 1.74543E-02 2.79340E+00-3.02181E-13-1.74745E-13
 -1      3422 1.73220E+01-2.89356E+00 9.89933E-02-5.02613E+00 1.62759E-13-1.35246E-13
 -1      3423 1.28050E+01-8.39168E-01 1.38987E-01-3.56046E+00 6.38902E-13 3.18127E-13
 -1      3424 1.68888E+01-2.45674E+00 9.97364E-02 5.09484E+00-2.87041E-13-6.38239E-14
 -1      3425 1.60595E+01-1.59601E+00 2.20358E-02 4.42263E+00-3.23706E-13 3.69912E-14
 -1      3426 1.86820E+01-2.79502E+00 2.81710E-03 4.64384E+00-3.38948E-13-3.91052E-13
 -1      3427 1.25283E+01-1.54362E+00 1.02019E-01 4.46597E+00-1.88925E-13-4.32876E-13
 -1      3428 1.18734E+01-8.09832E-01 6.51963E-02 3.51025E+00-2.24168E-13-3.39132E-13
 -1      3429 1.42943E+01-1.58496E+00-1.06634E-02 4.35482E+00-8.18338E-14-2.91184E-13
 -1      3430 1.96785E+01-7.98568E-02-1.08014E-02 2.44700E+00-5.12340E-13 1.82103E-13
 -1      3431 1.99156E+01 1.79586E-01-7.89606E-03 2.22888E+00-4.64783E-13 1.76758E-13
 -1      3432 2.02176E+01 5.26131E-02 7.37335E-03 2.16586E+00-3.86588E-13 9.52662E-14
 -1      3433 1.53898E+01-3.68809E+00 1.29601E-01-5.54276E+00-6.03684E-15 3.23047E-13
 -1      3434 1.74151E+01-4.09394E+00 1.53125E-02-5.08929E+00-4.29518E-14 3.65881E-13
 -1      3435 1.47787E+01-2.85542E+00 6.83619E-02-5.05458E+00 1.16643E-14 2.35534E-13
 -1      3436 8.77895E+00-3.07654E-01 1.79352E-01 9.61584E-01-3.00485E-13-2.70201E-13
 -1      3437 9.50240E+00-1.39489E-01 7.16909E-02-1.18590E-01-5.27597E-13-4.22856E-14
 -1      3438 1.00820E+01-3.45303E-01 8.36528E-02 2.01483E+00-2.92415E-13-2.53367E-13
 -1      3439 1.71713E+01 1.75093E+00-4.34060E-03-1.17663E-01 5.82142E-14-3.29942E-13
 -1      3440 1.74003E+01 1.84451E+00-2.45559E-03-2.24998E-01 1.23511E-14-3.27472E-13
 -1      3441 1.76153E+01 1.63013E+00 4.30249E-03-3.36077E-01-1.26944E-14-2.92584E-13
 -1      3442 1.71500E+01 1.46554E+00 4.44659E-03-1.65560E-01 6.66545E-14-2.99971E-13
 -1      3443 1.59668E+01 4.15725E-01-2.00233E-03-2.45430E-01 1.45235E-13-2.25723E-13
 -1      3444 1.59650E+01 5.36980E-01 3.16802E-03-1.25910E-01 1.47873E-13-2.43503E-13
 -1      3445 1.61553E+01 6.69983E-01 9.97895E-04-1.01445E-01 1.38705E-13-2.70513E-13
 -1      3446 1.62498E+01 4.49119E-01-1.36542E-03-3.03055E-01 1.10268E-13-1.93345E-13
 -1      3447 2.20678E+01-4.10895E+00 2.35941E-02 3.50957E+00 1.08427E-13 5.77090E-14
 -1      3448 1.05025E+01-5.06486E-01 7.13697E-02-2.35297E+00-4.41914E-13-1.01863E-13
 -1      3449 1.09539E+01-1.03319E+00 1.71506E-01-3.54437E+00-4.01762E-13-2.52548E-13
 -1      3450 2.53807E+01 3.96541E+00-4.57615E-01 3.02767E-01 3.93019E-14-8.39329E-14
 -1      3451 1.23745E+01-1.49576E+00 6.10263E-02-4.01267E+00-3.07872E-13-1.29091E-13
 -1      3452 1.91343E+01 1.99529E+00-3.02868E-03-9.32501E-01-1.99664E-13-2.45701E-13
 -1      3453 1.94073E+01 1.94502E+00-5.35717E-03-1.03365E+00-2.41200E-13-2.26161E-13
 -1      3454 2.69193E+01-3.98175E+00 2.45817E-02-5.86211E-01 2.38837E-13-3.06068E-13
 -1      3455 1.96291E+01 1.62986E+00 4.88949E-03-9.99073E-01-2.40706E-13-1.69921E-13
 -1      3456 1.96915E+01 1.87051E+00-2.63989E-03-1.10144E+00-2.60335E-13-1.70885E-13
 -1      3457 1.99825E+01 1.76506E+00-7.19225E-03-1.18448E+00-2.95352E-13-1.49796E-13
 -1      3458 2.07731E+01 1.47931E+00-5.57325E-03-1.30921E+00-3.41844E-13-6.72105E-14
 -1      3459 2.05208E+01 1.48748E+00-2.62187E-03-1.23389E+00-3.16942E-13-1.08636E-13
 -1      3460 2.75275E+01-3.16356E+00-1.57802E-01 7.57173E-01 4.18196E-13-2.65600E-13
 -1      3461 2.03065E+01 1.56619E+00-2.58069E-03-1.19039E+00-2.95661E-13-1.31379E-13
 -1      3462 2.02449E+01 7.05100E-01 1.24596E-03-7.71109E-01-1.94852E-13-1.06847E-13
 -1      3463 2.01940E+01 5.46911E-01-3.01546E-03-6.76323E-01-1.64559E-13-1.17469E-13
 -1      3464 1.33634E+01-1.10238E+00 2.30542E-02-3.62458E+00-3.61690E-13-2.59265E-13
 -1      3465 1.39304E+01-1.83364E+00 1.22311E-01-4.46229E+00-2.38504E-13-6.30052E-14
 -1      3466 1.55555E+01-2.35841E+00 3.33974E-02-4.44814E+00-1.04378E-13 1.08906E-13
 -1      3467 1.64602E+01-1.89315E+00 7.46165E-02-4.60537E+00 2.66856E-13 6.88546E-14
 -1      3468 1.90040E+01-3.22365E+00-4.31072E-02-4.73497E+00 2.15925E-13-3.37716E-13
 -1      3469 2.54595E+01-3.22029E+00-6.89315E-02 7.37609E-02-2.48367E-13-4.16724E-13
 -1      3470 2.47748E+01-3.66943E+00 1.34884E-02 1.21438E+00-3.32614E-13-2.71981E-13
 -1      3471 2.00722E+01 2.26249E-01 2.19538E-03-5.07085E-01-1.41679E-13-9.69051E-14
 -1      3472 2.00107E+01 1.56089E-01-1.42692E-03-4.67793E-01-1.39452E-13-9.86273E-14
 -1      3473 1.99666E+01 1.02536E-01 1.69857E-03-4.42443E-01-1.17561E-13-1.03512E-13
 -1      3474 1.99078E+01 5.90268E-02-7.90435E-04-4.20306E-01-9.15955E-14-8.19251E-14
 -1      3475 1.98449E+01 1.55711E-01-3.89028E-04-5.00599E-01-1.22396E-13-7.28264E-14
 -1      3476 1.98608E+01 2.72162E-02 1.23310E-03-4.06937E-01-1.18412E-13-7.90458E-14
 -1      3477 1.98056E+01 2.63697E-03-3.50683E-04-3.96132E-01-1.26043E-13-1.22808E-13
 -1      3478 1.97486E+01 5.70988E-02-5.47169E-04-4.58876E-01-1.08691E-13-8.58244E-14
 -1      3479 1.97580E+01-1.37388E-02 8.30558E-04-3.90436E-01-1.13036E-13-1.44472E-13
 -1      3480 1.97064E+01-2.47703E-02-5.49038E-05-3.86339E-01-1.05538E-13-1.43252E-13
 -1      3481 1.96511E+01 5.86304E-04-5.76883E-04-4.37152E-01-1.39791E-13-1.04824E-13
 -1      3482 1.96594E+01-3.00694E-02 5.01084E-04-3.84809E-01-6.36320E-14-1.24303E-13
 -1      3483 1.96109E+01-3.12758E-02 1.43108E-04-3.83864E-01-4.83989E-14-4.56636E-14
 -1      3484 1.95552E+01-2.55382E-02-5.33923E-04-4.27680E-01-7.85161E-14-7.89090E-14
 -1      3485 1.95649E+01-2.84668E-02 2.33168E-04-3.83744E-01-9.68963E-14-6.82690E-16
 -1      3486 1.95191E+01-2.23624E-02 2.79374E-04-3.83232E-01-9.44435E-14 5.43846E-14
 -1      3487 1.94620E+01-2.94962E-02-4.49924E-04-4.24200E-01-3.77551E-14-5.31583E-14
 -1      3488 1.94739E+01-1.34127E-02 8.48679E-06-3.82360E-01-8.81514E-14 6.82660E-14
 -1      3489 1.94302E+01-1.62932E-03 3.81832E-04-3.80169E-01-5.18687E-14 6.43343E-14
 -1      3490 1.93716E+01-1.69042E-02-3.42447E-04-4.21772E-01-7.20986E-14-4.54107E-14
 -1      3491 1.93855E+01 1.22174E-02-1.92334E-04-3.76805E-01-7.68052E-14 2.05892E-14
 -1      3492 1.93433E+01 2.86817E-02 4.71594E-04-3.71226E-01-1.06147E-13-1.70842E-14
 -1      3493 1.92832E+01 8.56295E-03-2.18557E-04-4.16471E-01-8.44579E-14-1.31189E-14
 -1      3494 1.92984E+01 4.66811E-02-3.86283E-04-3.63892E-01-7.35146E-14 7.54647E-16
 -1      3495 1.92574E+01 6.72534E-02 5.64632E-04-3.53461E-01-8.68680E-14 1.00749E-14
 -1      3496 1.91956E+01 4.46278E-02-8.40954E-05-4.05056E-01-4.51553E-14 1.72027E-14
 -1      3497 1.92113E+01 8.89779E-02-5.87958E-04-3.40814E-01-8.34532E-14 5.03266E-15
 -1      3498 1.91710E+01 1.13346E-01 6.76621E-04-3.24184E-01-1.05201E-13 2.30973E-14
 -1      3499 1.91073E+01 8.99783E-02 6.06955E-05-3.84691E-01-1.18711E-13 1.87166E-14
 -1      3500 1.91230E+01 1.38534E-01-8.09492E-04-3.04902E-01-1.34634E-13 1.10203E-13
 -1      3501 1.90832E+01 1.66490E-01 8.25998E-04-2.80737E-01-1.14483E-13 1.34404E-13
 -1      3502 1.90165E+01 1.43908E-01 2.16700E-04-3.52708E-01-6.65515E-14 6.68415E-14
 -1      3503 1.90321E+01 1.94883E-01-1.05441E-03-2.53394E-01-1.42628E-13 1.33155E-13
 -1      3504 1.89928E+01 2.26148E-01 1.04201E-03-2.20291E-01-1.18081E-13 1.03620E-13
 -1      3505 1.89212E+01 2.05985E-01 3.84912E-04-3.06353E-01-1.41989E-13 1.81840E-13
 -1      3506 1.89376E+01 2.57308E-01-1.30428E-03-1.83264E-01-2.05825E-14 1.13464E-13
 -1      3507 1.88993E+01 2.91354E-01 1.38549E-03-1.39710E-01 3.93928E-14 1.20031E-13
 -1      3508 1.88193E+01 2.75679E-01 5.75270E-04-2.42552E-01-9.02476E-14 2.69717E-13
 -1      3509 1.88392E+01 3.24500E-01-1.48649E-03-9.10958E-02-5.22328E-14 1.11018E-13
 -1      3510 1.88031E+01 3.60363E-01 1.97754E-03-3.55197E-02-2.36357E-14 4.63896E-14
 -1      3511 1.87090E+01 3.51961E-01 8.15981E-04-1.57692E-01-6.43327E-15 1.95326E-13
 -1      3512 1.87379E+01 3.94197E-01-1.43702E-03 2.68754E-02 7.57530E-14 2.66078E-14
 -1      3513 1.87063E+01 4.30243E-01 2.95412E-03 9.58205E-02 1.33049E-13 2.79804E-14
 -1      3514 1.85893E+01 4.32800E-01 1.14026E-03-4.74285E-02-7.10695E-16 9.23337E-14
 -1      3515 1.86381E+01 4.62818E-01-1.03435E-03 1.74097E-01 4.81186E-14 3.66011E-14
 -1      3516 1.86150E+01 4.96537E-01 3.97114E-03 2.56643E-01 4.28694E-16 4.14002E-14
 -1      3517 1.84610E+01 5.14331E-01 1.35080E-03 9.31996E-02 9.00972E-14 8.18781E-14
 -1      3518 1.85498E+01 5.25589E-01-1.08916E-03 3.51019E-01 9.10065E-14 4.19729E-14
 -1      3519 1.85393E+01 5.54166E-01 2.34486E-03 4.44388E-01 1.93081E-14 4.22513E-14
 -1      3520 1.83304E+01 5.89553E-01-9.43123E-05 2.68183E-01 2.67971E-15 6.88399E-14
 -1      3521 1.84906E+01 5.79675E-01-5.72685E-03 5.47330E-01-1.23912E-13 6.09972E-14
 -1      3522 1.84906E+01 6.07045E-01-8.72007E-03 6.43382E-01-1.95436E-13 1.41163E-14
 -1      3523 1.82137E+01 6.48352E-01-8.76625E-03 4.74128E-01-2.32353E-14-5.24965E-14
 -1      3524 1.84726E+01 6.44317E-01-2.11734E-02 7.29391E-01-2.06234E-13 4.19526E-14
 -1      3525 1.84688E+01 7.12421E-01-2.70326E-02 8.19338E-01-1.16197E-13 3.19553E-14
 -1      3526 1.81414E+01 6.93253E-01-3.29285E-02 6.82375E-01-1.53199E-13-4.30628E-14
 -1      3527 1.84456E+01 8.21294E-01-3.40258E-02 8.79179E-01-1.41553E-15 6.08359E-14
 -1      3528 1.84380E+01 1.02284E+00-2.69958E-03 9.89131E-01 8.63962E-14 6.17395E-14
 -1      3529 1.81181E+01 8.29743E-01-5.37510E-02 8.34625E-01-6.97845E-14 7.14082E-14
 -1      3530 1.83174E+01 1.25627E+00 3.13890E-02 1.18661E+00 1.18610E-13-1.19973E-14
 -1      3531 1.82888E+01 1.39186E+00 6.40265E-02 1.44079E+00 6.98538E-14-5.08343E-14
 -1      3532 1.80328E+01 1.28261E+00 1.31112E-02 1.02307E+00 6.60340E-14 4.64073E-14
 -1      3533 1.83124E+01 1.38100E+00 1.03397E-01 1.78099E+00 4.97380E-14-5.91888E-14
 -1      3534 1.83907E+01 1.23755E+00 1.04459E-01 2.04108E+00 1.27176E-13-5.39915E-14
 -1      3535 1.79665E+01 1.71165E+00 1.86413E-01 1.63666E+00 1.07012E-13-3.98397E-14
 -1      3536 1.84021E+01 9.70373E-01 5.71374E-02 2.28077E+00 2.18121E-13-8.91648E-16
 -1      3537 1.84942E+01 6.67232E-01 3.72799E-02 2.46089E+00 3.21469E-13 7.48360E-14
 -1      3538 1.80407E+01 1.32508E+00 1.46011E-01 2.20894E+00 1.82840E-13-2.59098E-14
 -1      3539 1.84052E+01 3.30439E-01 4.03115E-03 2.66650E+00 2.99770E-13-2.95098E-14
 -1      3540 1.85881E+01-5.91947E-02 2.21167E-02 2.84856E+00 2.21774E-13 4.60357E-14
 -1      3541 1.79179E+01 6.80587E-01 4.62359E-02 2.58448E+00 2.62920E-13-2.34882E-14
 -1      3542 1.85135E+01-5.10563E-01 6.79437E-03 3.12420E+00 9.53738E-14 8.10498E-14
 -1      3543 1.88977E+01-1.08891E+00 3.53114E-02 3.33096E+00 2.43035E-14-8.07340E-15
 -1      3544 1.77050E+01-1.14012E-01 4.83943E-03 3.06656E+00 1.37898E-13-4.92393E-14
 -1      3545 2.09838E+01-3.29838E+00 1.29648E-01 3.86611E+00 2.13204E-13-1.35697E-13
 -1      3546 1.65843E+01 2.84838E-01-1.54549E-03-5.02196E-01 4.73889E-14-1.81882E-13
 -1      3547 1.65691E+01 3.77261E-01 2.67964E-03-4.36696E-01 5.38938E-14-1.95068E-13
 -1      3548 2.03690E+01-2.78004E+00 4.83290E-02-3.92485E+00 3.45002E-13-2.84339E-13
 -1      3549 1.96870E+01-1.94053E+00 4.59627E-02-3.80913E+00 3.99667E-13-1.39140E-13
 -1      3550 1.95639E+01-1.22955E+00 3.95371E-02-3.41119E+00 5.46088E-13-6.74417E-14
 -1      3551 1.92024E+01-6.34922E-01 7.90643E-03-3.22517E+00 5.88474E-13 9.63619E-14
 -1      3552 1.81301E+01-1.42348E+00-1.19287E-02-3.93756E+00 5.70555E-13-1.31246E-13
 -1      3553 1.67744E+01-1.74330E-02 4.38701E-04-6.76417E-01 6.00545E-14-6.05801E-14
 -1      3554 1.67409E+01-6.48187E-03 3.39135E-04-6.72511E-01 8.88081E-14-7.78934E-14
 -1      3555 2.63679E+01 5.85358E-01 1.20132E+00 9.87969E-01-1.24234E-13 1.23901E-13
 -1      3556 1.70188E+01 2.37401E-02 9.81699E-04-6.86358E-01-1.40954E-14-6.74771E-14
 -1      3557 1.69763E+01 9.06608E-03-7.13660E-04-6.81684E-01 9.18297E-15-3.87272E-14
 -1      3558 1.69542E+01-2.52017E-03 8.86864E-04-6.79180E-01 1.07514E-14-2.97129E-14
 -1      3559 1.69131E+01-1.27274E-02-5.18837E-04-6.77790E-01 9.14379E-15-9.23741E-15
 -1      3560 1.71225E+01 5.79566E-03-2.04063E-04-7.08118E-01 1.37928E-14-4.92329E-15
 -1      3561 1.71494E+01 9.89940E-02 1.18610E-03-7.29315E-01-4.67642E-14-3.02128E-14
 -1      3562 1.71052E+01 7.69159E-02-1.08085E-03-7.13854E-01-1.81380E-14-3.89847E-14
 -1      3563 1.72136E+01 1.46241E-01 1.31515E-03-7.70139E-01-3.07012E-14 3.59239E-14
 -1      3564 1.71687E+01 1.21133E-01-1.27004E-03-7.47489E-01-3.89349E-14 3.03118E-14
 -1      3565 1.72597E+01 1.26828E-01 1.71919E-04-7.66047E-01-7.34997E-14-3.28205E-14
 -1      3566 1.72759E+01 1.98233E-01 1.47679E-03-8.26881E-01-1.02300E-14-5.11550E-15
 -1      3567 1.72304E+01 1.70874E-01-1.45972E-03-7.96032E-01-1.81508E-14 5.13379E-15
 -1      3568 1.73001E+01 1.82152E-01 3.03266E-04-8.09922E-01-1.70775E-14-1.88060E-14
 -1      3569 1.73364E+01 2.52463E-01 1.68969E-03-9.01488E-01-6.73505E-14 1.59919E-15
 -1      3570 1.72897E+01 2.24300E-01-1.62204E-03-8.61666E-01-1.27085E-14 2.44284E-17
 -1      3571 1.73355E+01 2.42482E-01 4.23699E-04-8.70155E-01-2.93656E-14-2.50123E-14
 -1      3572 1.73958E+01 3.04495E-01 1.99425E-03-9.95267E-01-3.37705E-14 9.65460E-14
 -1      3573 1.73472E+01 2.78064E-01-1.67798E-03-9.46187E-01-8.19691E-14 3.49627E-14
 -1      3574 1.73652E+01 3.04556E-01 5.27495E-04-9.49038E-01-8.68739E-14 3.27188E-14
 -1      3575 1.74569E+01 3.47194E-01 2.42855E-03-1.10808E+00-1.50691E-14 1.89350E-13
 -1      3576 1.74049E+01 3.26503E-01-1.46926E-03-1.05040E+00-1.34907E-15 1.07772E-13
 -1      3577 1.73901E+01 3.62639E-01 6.32115E-04-1.04835E+00-2.73632E-14 2.33833E-14
 -1      3578 1.75243E+01 3.70485E-01 2.71338E-03-1.23684E+00 4.76649E-14 4.84324E-14
 -1      3579 1.74670E+01 3.61038E-01-8.69958E-04-1.17282E+00 4.88644E-14 1.11737E-13
 -1      3580 1.74134E+01 4.07556E-01 7.01493E-04-1.16827E+00 4.38844E-14 1.33936E-13
 -1      3581 1.76025E+01 3.63009E-01 8.04177E-04-1.37343E+00 2.22366E-14 1.48216E-13
 -1      3582 1.75399E+01 3.70556E-01-6.71838E-04-1.30733E+00-2.95879E-14 1.09382E-13
 -1      3583 1.74422E+01 4.26644E-01 1.22439E-05-1.30482E+00 2.49496E-14 1.40293E-13
 -1      3584 1.76893E+01 3.17772E-01-1.19538E-02-1.50538E+00-1.24976E-13 7.38723E-14
 -1      3585 1.76263E+01 3.44833E-01-6.01543E-03-1.44105E+00-2.26289E-15 1.48501E-13
 -1      3586 1.74843E+01 4.07484E-01-5.52613E-03-1.44552E+00-2.38530E-14 1.40311E-13
 -1      3587 1.77712E+01 2.42381E-01-5.25325E-02-1.62559E+00-2.12323E-13 7.64805E-14
 -1      3588 1.77071E+01 2.79094E-01-3.55436E-02-1.56163E+00-1.50251E-13 5.59171E-14
 -1      3589 1.75322E+01 3.51897E-01-3.07911E-02-1.56978E+00-1.18711E-13 9.76649E-14
 -1      3590 1.78331E+01 1.02568E-01-1.80632E-01-1.80826E+00-1.72043E-13-1.54321E-14
 -1      3591 1.77271E+01 1.95746E-01-1.18878E-01-1.71061E+00-2.08207E-13 3.85803E-14
 -1      3592 1.75170E+01 2.92340E-01-1.09963E-01-1.67867E+00-1.96961E-13 2.77348E-14
 -1      3593 1.78111E+01-7.80573E-01-6.59553E-01-2.28058E+00-9.14824E-14-3.44169E-14
 -1      3594 1.77109E+01-1.23084E-01-3.71351E-01-2.15588E+00-1.60871E-13-4.22995E-14
 -1      3595 1.71749E+01 2.25534E-01-3.68308E-01-2.00911E+00-1.59706E-13-9.07607E-14
 -1      3596 1.90570E+01-3.96020E-01-4.28075E-02-1.70372E+00-1.13187E-13 6.43929E-14
 -1      3597 1.87079E+01-9.54202E-01-4.32807E-01-1.85664E+00-6.03961E-14 7.21645E-14
 -1      3598 1.73604E+01-1.52651E+00-9.42283E-01-2.93239E+00-1.52545E-13-3.46390E-14
 -1      3599 1.94705E+01-2.36874E-01 1.61079E-01-1.84055E+00 1.19245E-13 2.75890E-14
 -1      3600 1.92732E+01-8.36416E-02 1.85020E-01-1.78896E+00-3.92186E-14 1.91513E-14
 -1      3601 1.94510E+01-7.52188E-02 3.95777E-01-1.96569E+00-4.77396E-15 8.71525E-14
 -1      3602 1.99134E+01-8.12553E-01 4.98198E-02-1.78812E+00 6.08142E-14-1.02002E-14
 -1      3603 1.96412E+01-5.05023E-01 8.68291E-02-1.83641E+00 1.81057E-13 8.42382E-15
 -1      3604 1.94424E+01-4.19613E-01 1.79202E-01-2.02974E+00 1.11498E-13-4.90163E-14
 -1      3605 2.05654E+01-1.51392E+00 1.48090E-03-1.62598E+00-2.12742E-13-5.72910E-14
 -1      3606 2.02139E+01-1.14021E+00 3.14403E-02-1.75595E+00-1.17256E-13-6.07327E-14
 -1      3607 1.97573E+01-1.07080E+00 2.63667E-02-2.03755E+00-7.59332E-15 9.02750E-15
 -1      3608 2.14608E+01-2.22773E+00-3.05480E-02-1.24025E+00-2.29238E-13 7.15018E-14
 -1      3609 2.10429E+01-1.87000E+00 1.15977E-02-1.48472E+00-1.87030E-13-2.54831E-14
 -1      3610 2.04264E+01-1.89527E+00-4.34571E-02-1.92091E+00-1.96198E-13 1.60854E-13
 -1      3611 2.25201E+01-2.66096E+00-1.08412E-01-4.73742E-01-7.62723E-14 9.58816E-14
 -1      3612 2.21287E+01-2.49614E+00-9.10817E-03-8.53303E-01-1.71977E-13 2.75613E-14
 -1      3613 2.15467E+01-2.74128E+00-9.81240E-02-1.47280E+00-1.68705E-13-2.37727E-14
 -1      3614 2.59763E+01-1.00069E-03-4.82394E-02-2.13285E+00 1.75915E-13-4.65954E-13
 -1      3615 2.21052E+01-1.82088E+00 2.83080E-02 1.73952E+00 2.24169E-13-2.18785E-13
 -1      3616 2.25242E+01-2.24816E+00-9.97708E-03 1.51460E+00 2.17803E-14-1.61420E-13
 -1      3617 2.12692E+01-9.80907E-01 1.61431E-02 1.91880E+00-6.29913E-14-3.67664E-13
 -1      3618 2.16107E+01-1.40980E+00-1.27717E-03 1.83199E+00 1.70036E-13-2.53294E-13
 -1      3619 2.15760E+01-1.76218E+00-2.38322E-02 2.17531E+00 2.00406E-13-4.25662E-14
 -1      3620 1.77507E+01 6.34589E-01 1.26208E-02-2.44843E+00 3.19060E-13 1.12342E-13
 -1      3621 1.70930E+01 8.29415E-01-2.91254E-02-2.05701E+00 2.28717E-13-6.39818E-14
 -1      3622 2.83349E+01 5.07054E-01-1.72165E-01 2.41917E+00 5.26967E-13 6.10900E-14
 -1      3623 2.02075E+01 1.35413E+00 3.11818E-03-1.05967E+00-2.62488E-13-1.16393E-13
 -1      3624 1.86603E+01-3.12439E+00-7.00306E-02 4.49805E+00 3.39000E-13-2.42122E-13
 -1      3625 1.67235E+01-2.13117E+00 1.50002E-01 4.71776E+00 1.84516E-13-2.34555E-13
 -1      3626 1.96572E+01-2.80042E+00 3.53050E-02 3.98115E+00 3.10044E-13-1.31138E-13
 -1      3627 1.26842E+01-1.09923E-01 9.96810E-02-2.75774E+00 5.33820E-13 6.22863E-13
 -1      3628 1.41456E+01-8.77842E-01 3.63551E-02-3.83456E+00 3.33933E-13 3.69059E-13
 -1      3629 2.14478E+01-3.60520E+00 1.04753E-01-4.00236E+00 1.11678E-13-3.60143E-13
 -1      3630 2.84662E+01-1.24905E+00-1.60449E-02 1.63724E+00 6.18360E-13-1.02057E-13
 -1      3631 1.61708E+01 1.25065E+00-8.26614E-03 1.96454E-01-1.24777E-13-4.98234E-14
 -1      3632 1.63824E+01 1.17672E+00 1.43494E-02 8.86591E-01-2.78845E-13 1.24097E-13
 -1      3633 1.86088E+01 2.03680E+00-3.27737E-03-7.37725E-01-1.50217E-13-3.12381E-13
 -1      3634 1.88671E+01 2.02875E+00-4.11675E-03-8.47208E-01-1.82344E-13-2.67300E-13
 -1      3635 1.90953E+01 1.74001E+00 5.12161E-03-8.62221E-01-1.76764E-13-2.34564E-13
 -1      3636 1.41322E+01-4.82235E-01 1.47676E-02 3.29282E+00-3.52181E-13 5.55347E-13
 -1      3637 1.28954E+01 2.26445E-01 1.26265E-01 2.23970E+00-3.00355E-13 4.10338E-13
 -1      3638 2.43481E+01-2.72054E+00 1.04911E-02 1.45395E-01-1.06557E-13-4.25387E-13
 -1      3639 2.47935E+01-2.48379E+00-1.03648E-02-4.30073E-01-2.05409E-13-5.23355E-13
 -1      3640 1.05567E+01 5.04204E-02 1.49856E-01-1.32536E+00-3.97214E-13 2.45637E-14
 -1      3641 1.18856E+01-1.96369E-01 4.34198E-02-2.15942E+00-2.86061E-13-1.64931E-13
 -1      3642 1.09649E+01 1.81451E-01 5.84944E-02-2.10630E-01-3.27020E-13-4.05301E-14
 -1      3643 2.50492E+01-3.83527E-01 9.27045E-01 8.16203E-01-1.85851E-13 5.07372E-14
 -1      3644 2.04181E+01 3.56191E-03-2.42394E-03 2.02484E+00-2.77277E-13 1.62416E-13
 -1      3645 2.06161E+01-8.41030E-02 4.68068E-03 1.89947E+00-2.76024E-13-2.42413E-13
 -1      3646 2.07733E+01-3.24872E-01 5.70520E-03 1.91750E+00-2.80016E-13-1.63526E-13
 -1      3647 2.03661E+01-2.94249E-01-3.04946E-03 2.23837E+00-3.37130E-13 1.24664E-13
 -1      3648 1.70842E+01 5.78655E-02 1.07829E-03-7.02191E-01-2.71245E-15-6.77876E-14
 -1      3649 1.70407E+01 3.92848E-02-8.97000E-04-6.92767E-01-4.98463E-15-7.16492E-14
 -1      3650 1.71694E+01 3.76195E-02-8.36383E-05-7.17685E-01-2.02508E-15-6.31412E-14
 -1      3651 1.72156E+01 7.82873E-02 4.14592E-05-7.36123E-01-4.44578E-14-2.17246E-14
 -1      3652 2.02492E+01 1.10057E+00-1.37126E-03-9.71204E-01-2.40089E-13-1.06336E-13
 -1      3653 2.02226E+01 8.79129E-01-2.73098E-03-8.45238E-01-2.14341E-13-9.83237E-14
 -1      3654 2.00203E+01 8.76684E-01 1.99217E-03-8.21136E-01-1.94914E-13-8.10005E-14
 -1      3655 1.99505E+01 1.30039E+00 2.13699E-03-9.78136E-01-2.33243E-13-1.16821E-13
 -1      3656 1.65702E+01 1.17930E+00 2.44220E-02-1.34527E+00 1.52392E-13-1.72950E-13
 -1      3657 1.62422E+01 1.23619E+00-1.03546E-02-6.95235E-01 1.56905E-13-2.49777E-13
 -1      3658 1.56616E+01 1.09212E+00 3.42252E-02-2.56529E-01-1.86552E-14 4.22803E-14
 -1      3659 1.62393E+01 7.67579E-01-5.87996E-03-1.91586E+00 3.27563E-13-1.31940E-13
 -1      3660 2.31119E+01-1.89317E+00 2.73229E-01 6.80914E-01-1.31450E-13-5.04041E-14
 -1      3661 2.01701E+01 4.17853E-01 2.40152E-03-6.12911E-01-1.38035E-13-1.08945E-13
 -1      3662 2.01092E+01 3.10639E-01-2.26997E-03-5.49485E-01-1.37051E-13-1.09227E-13
 -1      3663 1.99342E+01 3.12923E-01 9.41962E-06-5.71399E-01-1.39549E-13-8.41207E-14
 -1      3664 2.30859E+01-2.33271E+00 1.14947E-01 1.92381E-01-6.57183E-14 2.64788E-14
 -1      3665 1.66004E+01 9.74248E-01-2.57013E-03-9.55175E-02 1.29592E-13-2.66607E-13
 -1      3666 1.68452E+01 1.10348E+00-4.53837E-05-1.50845E-01 9.06452E-14-2.79766E-13
 -1      3667 1.80293E+01 1.47084E+00-2.80899E-03-5.01901E-01-5.56348E-14-2.66479E-13
 -1      3668 1.82701E+01 1.50621E+00-2.53783E-03-5.86571E-01-8.90510E-14-2.77253E-13
 -1      3669 1.55242E+01-1.07527E+00 5.03690E-02-4.06034E+00 3.62968E-13 1.95836E-13
 -1      3670 1.73374E+01-1.26984E+00 5.09737E-02-3.93263E+00 4.41272E-13 7.18193E-14
 -1      3671 1.71831E+01-6.10699E-01-2.14549E-02-3.48949E+00 7.30332E-13-2.90740E-14
 -1      3672 1.51816E+01-3.32597E-01 2.46558E-03-3.29675E+00 4.20419E-13 2.13329E-13
 -1      3673 2.00068E+01 5.49238E-01 4.31931E-04-6.80232E-01-1.59404E-13-1.06414E-13
 -1      3674 1.75837E+01-1.44886E+00-2.93035E-02 3.90435E+00 4.78888E-14-1.01034E-13
 -1      3675 1.89902E+01-1.95630E+00 2.84636E-02 3.77866E+00 1.24196E-13-1.41956E-13
 -1      3676 1.85827E+01 1.77109E+00 4.68455E-03-6.96105E-01-1.25927E-13-2.88365E-13
 -1      3677 1.64128E+01 6.28266E-02-1.06044E-03-6.10374E-01 6.67866E-14-1.55086E-13
 -1      3678 1.66080E+01 2.11364E-01 1.96781E-03-5.49255E-01 4.32833E-14-1.56577E-13
 -1      3679 1.68433E+01 2.93723E-01-5.04445E-04-5.43300E-01 3.84254E-14-2.06650E-13
 -1      3680 1.66278E+01 1.49631E-01-8.10496E-04-5.89848E-01 5.03143E-14-1.60892E-13
 -1      3681 1.69516E+01 7.73954E-03-6.01821E-04-6.91420E-01 6.64363E-14-1.18607E-13
 -1      3682 1.67216E+01 9.69845E-03 1.56857E-04-6.66394E-01 9.42160E-14-9.06610E-14
 -1      3683 1.66920E+01 3.26887E-02 7.92608E-04-6.55409E-01 6.16490E-14-1.08863E-13
 -1      3684 1.67945E+01-2.36915E-02-1.51032E-05-6.77769E-01 2.52703E-14-5.12033E-14
 -1      3685 1.69904E+01-1.89489E-02-5.13990E-04-7.00973E-01 3.64822E-14-9.71827E-14
 -1      3686 1.68312E+01-2.56781E-02 6.37291E-04-6.78247E-01 3.01359E-14-2.68960E-14
 -1      3687 1.96129E+01-6.69428E-02 9.16586E-03-2.78866E+00 2.95486E-13 1.04855E-13
 -1      3688 1.70764E+01-1.58455E-02-3.13586E-04-7.04536E-01 5.28225E-14-4.60709E-14
 -1      3689 1.68914E+01-1.96667E-02 7.78724E-04-6.77670E-01 2.51575E-14 1.50084E-14
 -1      3690 1.68522E+01-2.44946E-02-2.92903E-04-6.77824E-01 6.40518E-14 2.99094E-15
 -1      3691 2.55110E+01-8.58837E-01-3.61164E-02-1.72937E+00-6.57460E-15-5.10614E-13
 -1      3692 2.62810E+01-1.02736E+00-8.85605E-02-1.67539E+00 1.17691E-13-5.36918E-13
 -1      3693 2.53271E+01-1.80199E+00-2.39092E-02-1.28327E+00-1.32835E-13-5.46519E-13
 -1      3694 2.09611E+01-5.78188E-01 1.13942E-03 1.88653E+00-1.25293E-13-8.37008E-14
 -1      3695 1.32329E+01 4.49857E-01 6.92850E-02 1.24750E+00-4.14379E-13 5.72563E-13
 -1      3696 1.90126E+01-4.15515E+00 6.99263E-02-4.56458E+00-3.95517E-15 1.54841E-13
 -1      3697 2.01255E+01-4.21199E+00-5.91194E-02-3.73772E+00 4.00652E-14-1.92337E-13
 -1      3698 1.79274E+01-3.38559E+00 1.87836E-02-4.45409E+00 9.00738E-14 2.23668E-13
 -1      3699 1.31517E+01 2.69498E-01 8.22474E-02-1.69916E+00 1.39855E-13 5.28983E-13
 -1      3700 1.68065E+01 8.38168E-01-2.98210E-02 1.65628E+00-4.53097E-13-8.43663E-14
 -1      3701 1.74398E+01 6.29519E-01 2.66953E-02 2.14863E+00-5.66513E-13 1.75933E-13
 -1      3702 1.60544E+01 8.16442E-01 2.13919E-02 1.48983E+00-4.31049E-13 1.92755E-13
 -1      3703 2.38850E+01-2.81840E+00-1.58323E-02 6.23059E-01 6.49494E-14-1.50053E-13
 -1      3704 2.42236E+01-3.09716E+00 1.57909E-05 8.09132E-01-1.76344E-13-1.57492E-13
 -1      3705 2.43090E+01-3.75797E+00 1.12379E-02 1.72770E+00-2.48795E-13-1.47292E-13
 -1      3706 2.33977E+01-2.62817E+00 2.78402E-02 1.07648E+00 3.44711E-14-2.17374E-13
 -1      3707 2.31509E+01-3.52406E+00-7.60370E-03 2.37181E+00-7.96203E-14-2.33445E-13
 -1      3708 2.62022E+01-2.29179E+00 1.13272E-02-8.92531E-01-6.99024E-14-4.80779E-13
 -1      3709 1.67974E+01 5.03921E-01 8.29508E-05-4.20195E-01 4.16206E-14-2.41205E-13
 -1      3710 1.65375E+01 4.88529E-01-1.80266E-03-3.62433E-01 5.88501E-14-2.11284E-13
 -1      3711 2.01814E+01-3.04870E+00 5.80777E-02 4.32019E+00-2.81592E-13-4.56442E-13
 -1      3712 1.90558E+01-2.34571E+00-1.44506E-02 4.15015E+00-2.87928E-13-3.85669E-13
 -1      3713 2.13613E+01-3.15801E+00 1.46216E-02 3.58636E+00-2.77003E-13-2.39685E-13
 -1      3714 1.86889E+01-9.79661E-02 5.43369E-03-3.00980E+00 3.74843E-13 8.81092E-14
 -1      3715 1.95684E+01-4.35152E-01-1.29678E-02 2.67297E+00-1.59221E-13 3.05967E-13
 -1      3716 2.00790E+01-5.87215E-01 1.22829E-02 2.63148E+00-2.77751E-13 1.99683E-13
 -1      3717 1.16483E+01-2.85363E-01 1.02918E-01 2.73150E+00-2.41154E-13-4.00048E-13
 -1      3718 1.15537E+01 1.05354E-01 3.05052E-02 1.70024E+00-3.26622E-13-2.03948E-13
 -1      3719 1.33899E+01-3.06628E-01 7.38364E-02 3.00238E+00-2.09509E-13-3.83863E-13
 -1      3720 1.90122E+01 1.50146E+00-1.97113E-03-7.96020E-01-1.53964E-13-2.19382E-13
 -1      3721 1.92664E+01 1.46407E+00-4.02792E-03-8.65166E-01-1.82045E-13-2.01415E-13
 -1      3722 1.81331E+01 1.77058E-01-2.70965E-02 2.51373E+00-4.76757E-13 4.13235E-13
 -1      3723 1.88829E+01-7.26595E-02 2.72674E-02 2.71055E+00-3.86237E-13 3.72365E-13
 -1      3724 1.92223E+01-6.71669E-01 6.79287E-03 2.95657E+00-1.87125E-13 2.02934E-13
 -1      3725 1.75078E+01 8.19854E-02 1.31884E-02 2.64305E+00-6.82086E-13 3.01082E-13
 -1      3726 2.53247E+01-2.52555E+00-3.76605E-03-5.02301E-01-1.88373E-13-5.38495E-13
 -1      3727 1.29250E+01 9.32435E-02 1.42446E-02-1.88395E+00-7.00100E-14-4.21642E-14
 -1      3728 1.32822E+01-2.34460E-01 1.02762E-01-2.74874E+00-2.24522E-13-1.93786E-13
 -1      3729 1.63036E+01 7.45359E-01-5.34550E-04-9.98267E-02 1.25799E-13-2.81986E-13
 -1      3730 1.64707E+01 8.96483E-01 1.17066E-03-8.89459E-02 1.33770E-13-2.69756E-13
 -1      3731 1.66373E+01 7.85023E-01 1.66979E-03-2.19757E-01 9.07016E-14-2.53812E-13
 -1      3732 1.63517E+01 6.21761E-01-8.64889E-04-2.13978E-01 9.50025E-14-2.62468E-13
 -1      3733 2.29020E+01-2.73496E+00-1.15953E-02 1.72494E+00 4.80599E-14-6.36626E-14
 -1      3734 1.64923E+01 5.93702E-01 1.47644E-03-2.75593E-01 7.63113E-14-2.45140E-13
 -1      3735 1.75558E+01 1.36119E+00-3.41921E-03-3.49240E-01 6.66805E-15-2.70747E-13
 -1      3736 1.77924E+01 1.42996E+00-1.77431E-03-4.31904E-01-3.60102E-14-2.61372E-13
 -1      3737 1.79861E+01 1.24139E+00 4.29344E-03-5.07909E-01-4.35094E-14-2.39064E-13
 -1      3738 1.43170E+01-7.11380E-01 2.19712E-02-3.15900E+00-2.88927E-13-1.17076E-13
 -1      3739 1.94766E+01 1.42846E+00-5.67437E-04-9.03465E-01-1.91246E-13-1.82514E-13
 -1      3740 1.97383E+01 1.35134E+00-3.56663E-03-9.52972E-01-2.22064E-13-1.40603E-13
 -1      3741 1.97939E+01 1.12549E+00 1.09514E-03-8.78349E-01-2.04655E-13-1.15743E-13
 -1      3742 1.94019E+01 1.22835E+00 4.36416E-03-8.34015E-01-1.65582E-13-1.64491E-13
 -1      3743 2.26455E+01-2.98907E+00-5.71042E-02-3.82148E-01-6.40876E-14-1.41165E-13
 -1      3744 2.08646E+01-7.87112E-01-5.90690E-03 2.17168E+00-2.47440E-13 8.38691E-14
 -1      3745 1.58800E+01-1.80785E+00-7.70449E-03-3.96651E+00-2.51060E-13-1.98661E-14
 -1      3746 1.69412E+01-2.59623E+00 6.04657E-02-4.39000E+00-2.14412E-15 2.45134E-13
 -1      3747 1.82035E+01-2.75030E+00 2.74649E-02-3.85985E+00 4.00062E-14 3.65437E-14
 -1      3748 2.23491E+01-2.96055E+00 2.64931E-02 2.68690E+00-1.45279E-14-1.39946E-13
 -1      3749 1.98342E+01 6.67220E-01 6.10993E-06-7.30005E-01-1.63268E-13-1.02085E-13
 -1      3750 1.98036E+01 5.18990E-01-2.29413E-03-6.64672E-01-1.38425E-13-7.66955E-14
 -1      3751 1.96314E+01 8.90950E-02 1.15604E-03-5.06137E-01-9.57147E-14-7.27659E-14
 -1      3752 1.95806E+01 4.75476E-02-6.63771E-04-4.89771E-01-1.02733E-13-8.79306E-14
 -1      3753 1.95398E+01 1.74163E-02 8.86817E-04-4.81270E-01-1.18703E-13-5.05393E-14
 -1      3754 1.94899E+01-4.89020E-03-3.04072E-04-4.72884E-01-1.03403E-13-3.20703E-14
 -1      3755 1.94144E+01 4.29759E-02-3.07344E-04-5.25242E-01-8.85025E-14-6.66059E-14
 -1      3756 1.94472E+01-1.89539E-02 6.23544E-04-4.69180E-01-9.24084E-14-1.25972E-14
 -1      3757 1.93990E+01-2.71458E-02-5.93116E-05-4.65365E-01-6.53092E-14-2.96892E-14
 -1      3758 1.93285E+01-6.89585E-03-3.98248E-04-5.10912E-01-9.76005E-14-1.76738E-14
 -1      3759 1.93559E+01-2.93961E-02 3.82741E-04-4.64003E-01-4.10800E-14-7.31434E-14
 -1      3760 1.93096E+01-2.70958E-02 1.01210E-04-4.62032E-01-6.88544E-14-9.15259E-14
 -1      3761 1.92418E+01-2.60098E-02-3.93904E-04-5.03938E-01-1.05927E-13-3.92402E-14
 -1      3762 1.92664E+01-2.04715E-02 1.62927E-04-4.61019E-01-6.45242E-14-8.79842E-14
 -1      3763 1.92217E+01-1.01435E-02 2.03511E-04-4.58731E-01-6.27758E-14-6.22874E-14
 -1      3764 1.91556E+01-2.21346E-02-3.22377E-04-4.99985E-01-6.59502E-14-6.85314E-14
 -1      3765 1.91784E+01 3.40851E-03-4.52777E-05-4.56458E-01-4.69772E-14-6.99949E-14
 -1      3766 1.91347E+01 2.01959E-02 2.72357E-04-4.52115E-01-5.91089E-14-1.65028E-14
 -1      3767 1.90701E+01-6.12141E-04-2.00568E-04-4.95510E-01-4.07037E-14-6.88279E-14
 -1      3768 1.90907E+01 3.94899E-02-2.55474E-04-4.47218E-01-5.75588E-14 6.85069E-14
 -1      3769 1.90473E+01 6.18086E-02 3.24473E-04-4.39339E-01-3.52083E-14 6.79844E-14
 -1      3770 1.89844E+01 3.51297E-02-3.67590E-05-4.87613E-01-1.18384E-14-7.74444E-15
 -1      3771 1.90014E+01 8.61513E-02-4.81265E-04-4.30594E-01-6.56276E-14 1.17642E-13
 -1      3772 1.89575E+01 1.13501E-01 3.70873E-04-4.17847E-01-8.58731E-14 1.15150E-13
 -1      3773 1.88968E+01 8.30460E-02 1.62651E-04-4.73743E-01-1.24341E-14 8.27186E-14
 -1      3774 1.89084E+01 1.42540E-01-7.39530E-04-4.04094E-01-6.33313E-14 1.40102E-13
 -1      3775 1.88630E+01 1.74715E-01 4.27312E-04-3.85182E-01-4.31740E-14 1.79299E-13
 -1      3776 1.88047E+01 1.42023E-01 3.89867E-04-4.51569E-01-3.23905E-14 1.66515E-13
 -1      3777 1.88089E+01 2.08298E-01-1.04241E-03-3.65184E-01-7.06983E-14 1.66784E-13
 -1      3778 1.87610E+01 2.45213E-01 5.20758E-04-3.38707E-01-1.24855E-13 2.33234E-13
 -1      3779 1.87052E+01 2.11664E-01 6.62179E-04-4.18788E-01-5.43554E-14 1.80533E-13
 -1      3780 1.86999E+01 2.83171E-01-1.39108E-03-3.11020E-01-1.28322E-13 2.71487E-13
 -1      3781 1.86486E+01 3.24665E-01 7.04041E-04-2.75373E-01-4.87501E-14 2.37293E-13
 -1      3782 1.85945E+01 2.91865E-01 1.00112E-03-3.72800E-01-5.37630E-14 1.79026E-13
 -1      3783 1.85780E+01 3.66649E-01-1.75858E-03-2.38215E-01 8.25139E-15 2.42019E-13
 -1      3784 1.85227E+01 4.12347E-01 1.11011E-03-1.91465E-01-4.25445E-14 1.81832E-13
 -1      3785 1.84683E+01 3.82498E-01 1.46673E-03-3.10488E-01-5.39674E-14 1.51161E-13
 -1      3786 1.84398E+01 4.57638E-01-2.05233E-03-1.42448E-01-8.05355E-14 1.81397E-13
 -1      3787 1.83807E+01 5.06710E-01 1.98555E-03-8.22043E-02 2.85305E-14 1.79049E-13
 -1      3788 1.83214E+01 4.83087E-01 2.15704E-03-2.27802E-01-5.15924E-14 2.17378E-13
 -1      3789 1.82826E+01 5.53832E-01-2.22890E-03-1.79167E-02 9.34529E-14 1.45746E-13
 -1      3790 1.82218E+01 6.04423E-01 3.37308E-03 5.85875E-02 6.50204E-14 1.70223E-13
 -1      3791 1.81482E+01 5.92318E-01 3.05817E-03-1.18945E-01 2.10318E-14 2.30704E-13
 -1      3792 1.81071E+01 6.50324E-01-3.30319E-03 1.43047E-01-1.28821E-14 1.59134E-13
 -1      3793 1.80509E+01 6.98061E-01 3.11677E-03 2.37995E-01 3.35951E-14 1.47983E-13
 -1      3794 1.79434E+01 7.06472E-01 2.80659E-03 2.48632E-02-2.59797E-15 1.76477E-13
 -1      3795 1.79238E+01 7.36646E-01-1.11000E-02 3.48531E-01-1.20222E-14 9.65021E-14
 -1      3796 1.78846E+01 7.71543E-01-9.60584E-03 4.59939E-01-1.39809E-13 4.17059E-14
 -1      3797 1.77057E+01 8.15015E-01-6.12205E-03 2.16727E-01-5.15558E-14 1.50018E-13
 -1      3798 1.77692E+01 7.92683E-01-4.30651E-02 5.95280E-01-1.31015E-13 8.49199E-14
 -1      3799 1.77575E+01 8.05219E-01-5.95185E-02 7.07294E-01-7.44231E-14 1.45944E-13
 -1      3800 1.74496E+01 8.90984E-01-4.80149E-02 4.71724E-01-6.02764E-14 1.22787E-13
 -1      3801 1.77231E+01 8.25729E-01-1.09084E-01 8.10715E-01 1.76664E-14 1.75596E-13
 -1      3802 1.77152E+01 9.06137E-01-1.30007E-01 8.94091E-01 8.91093E-14 2.21861E-13
 -1      3803 1.72582E+01 8.91390E-01-1.54607E-01 7.72572E-01 1.72223E-14 3.14831E-13
 -1      3804 1.77456E+01 1.16037E+00-8.20897E-02 8.66597E-01-3.73035E-14 1.86930E-13
 -1      3805 1.76200E+01 1.70802E+00 5.40170E-02 9.92771E-01-2.17187E-14 1.19030E-13
 -1      3806 1.72990E+01 1.05024E+00-2.06275E-01 9.08393E-01 3.21965E-14 2.02427E-13
 -1      3807 1.76423E+01 2.12539E+00 3.45286E-01 1.53245E+00 2.20379E-14 3.08503E-14
 -1      3808 1.78011E+01 2.05227E+00 4.23096E-01 1.91755E+00 6.77791E-14 1.79023E-14
 -1      3809 1.73788E+01 2.22101E+00 3.62162E-01 1.33025E+00-5.46230E-14 1.48062E-13
 -1      3810 1.78610E+01 1.61760E+00 2.72534E-01 2.11440E+00 1.61260E-13-6.58917E-14
 -1      3811 1.78065E+01 1.23586E+00 1.57949E-01 2.23710E+00 2.55365E-13-1.96371E-14
 -1      3812 1.78579E+01 2.00989E+00 5.38571E-01 2.16351E+00 4.56302E-14-7.11098E-14
 -1      3813 1.74794E+01 9.42873E-01 4.54208E-02 2.29289E+00 2.38202E-13-1.17840E-13
 -1      3814 1.74044E+01 6.62250E-01 4.92899E-02 2.46198E+00 2.01554E-13-9.35623E-14
 -1      3815 1.74681E+01 1.21597E+00 1.94083E-01 2.11971E+00 1.80397E-13-1.74159E-13
 -1      3816 1.69163E+01 3.57932E-01-8.56533E-03 2.65536E+00 2.13520E-13-8.44693E-14
 -1      3817 1.69174E+01-6.55918E-03 3.39771E-02 2.92973E+00 1.83090E-13-3.94942E-14
 -1      3818 1.66463E+01 7.00907E-01 6.01942E-02 2.31206E+00 1.95847E-13-2.12339E-13
 -1      3819 1.47820E+01 6.12506E-01-2.25496E-02 1.51108E+00-3.11171E-13 3.84377E-13
 -1      3820 1.39873E+01 8.47243E-01 2.94042E-02 2.95968E-01-2.16452E-13 4.70906E-13
 -1      3821 1.73889E+01 2.18956E-01 1.07441E-03-8.28842E-01-2.89332E-14-3.21984E-14
 -1      3822 1.73682E+01 1.85686E-01-1.47707E-03-8.03689E-01-6.48576E-14-6.75836E-14
 -1      3823 1.73713E+01 1.55712E-01 9.76289E-04-7.84333E-01-6.48937E-14-6.87847E-14
 -1      3824 1.73487E+01 1.26177E-01-1.22320E-03-7.66455E-01-7.38244E-14-5.55775E-14
 -1      3825 1.74615E+01 1.89794E-01 5.65979E-04-8.02052E-01-5.06320E-14-6.47374E-14
 -1      3826 1.73985E+01 3.59041E-01 1.55841E-03-9.68895E-01-2.10065E-14-3.44875E-14
 -1      3827 1.73826E+01 3.22483E-01-1.97107E-03-9.25695E-01-4.78184E-14 6.07886E-14
 -1      3828 1.73899E+01 4.25797E-01 2.16021E-03-1.06965E+00-1.26218E-14-2.94949E-14
 -1      3829 1.73753E+01 3.92339E-01-2.01129E-03-1.01608E+00-1.75679E-14-1.76720E-14
 -1      3830 1.74022E+01 4.18935E-01 1.40400E-03-9.88812E-01-8.50746E-15-7.59786E-14
 -1      3831 1.73762E+01 4.77207E-01 2.98473E-03-1.19314E+00 2.69317E-14 2.75511E-14
 -1      3832 1.73604E+01 4.53102E-01-1.62440E-03-1.12943E+00 1.06436E-15 2.83094E-14
 -1      3833 1.73551E+01 4.91919E-01 1.73140E-03-1.09293E+00-5.17646E-14-7.75082E-14
 -1      3834 1.73651E+01 4.96215E-01 2.18163E-03-1.33672E+00-3.01356E-14 1.02024E-13
 -1      3835 1.73452E+01 4.91126E-01-1.04724E-03-1.26572E+00 2.16336E-14 1.06613E-13
 -1      3836 1.72987E+01 5.44099E-01 1.38907E-03-1.22327E+00-3.46739E-14-1.28125E-14
 -1      3837 1.73650E+01 4.60666E-01-9.84788E-03-1.48677E+00-7.61412E-14 1.64996E-13
 -1      3838 1.73432E+01 4.86778E-01-4.06081E-03-1.41645E+00-3.93023E-14 8.56681E-14
 -1      3839 1.72462E+01 5.52001E-01-3.75058E-03-1.37665E+00-3.48385E-14 1.08019E-14
 -1      3840 1.73597E+01 3.57241E-01-6.60828E-02-1.61046E+00-1.59098E-13 1.48249E-13
 -1      3841 1.73647E+01 4.20255E-01-2.78762E-02-1.55152E+00-7.31403E-14 1.92788E-13
 -1      3842 1.72201E+01 4.84470E-01-2.94846E-02-1.52854E+00-1.07050E-13 1.28973E-13
 -1      3843 1.72652E+01 2.53856E-01-2.05840E-01-1.64835E+00-1.48805E-13-7.25808E-15
 -1      3844 1.73587E+01 2.87278E-01-1.23525E-01-1.60729E+00-1.38306E-13 8.96783E-14
 -1      3845 1.72271E+01 3.36382E-01-1.14223E-01-1.60608E+00-6.80740E-14 1.82548E-13
 -1      3846 1.65179E+01 1.70018E-01-6.46012E-01-1.82306E+00-1.49547E-13-1.05416E-13
 -1      3847 1.70814E+01 2.60101E-01-3.18652E-01-1.56328E+00-1.60004E-13-5.84532E-14
 -1      3848 1.71646E+01 2.29540E-01-2.69852E-01-1.46407E+00-9.79321E-14-6.66134E-14
 -1      3849 1.81058E+01 3.47096E-01 9.44498E-02-1.62638E+00-5.32907E-14-8.54872E-15
 -1      3850 1.54937E+01 4.21623E-01-8.61595E-01-2.05462E+00-1.50435E-13-8.31557E-14
 -1      3851 1.68551E+01 4.68584E-01-3.79061E-01-1.30875E+00-1.46994E-13-2.43139E-14
 -1      3852 1.97860E+01 2.24744E-01 6.68371E-01-1.55176E+00 8.44186E-14 1.52656E-14
 -1      3853 2.06510E+01 1.71097E-01 9.39730E-01-1.26276E+00-2.27596E-15 5.89528E-14
 -1      3854 1.87842E+01 2.16336E+00 1.03211E+00-3.76251E-01-8.88178E-15 6.15064E-14
 -1      3855 1.92545E+01-4.11740E-01 1.64222E-01-2.01526E+00 7.09875E-14 6.15064E-14
 -1      3856 1.92688E+01-1.29231E-01 2.97405E-01-1.97303E+00 3.41480E-14 2.10942E-15
 -1      3857 1.89847E+01 1.38184E-01 3.82228E-01-1.54253E+00 2.91156E-14 1.08524E-13
 -1      3858 1.95230E+01-1.15319E+00 3.74634E-02-2.24010E+00-2.03439E-13 1.59820E-13
 -1      3859 1.92736E+01-7.52523E-01 8.06833E-02-2.21653E+00 3.92468E-14 1.00170E-13
 -1      3860 1.87725E+01-5.20443E-01 8.00844E-02-2.20762E+00 8.28157E-15 1.76519E-13
 -1      3861 2.03543E+01-2.08831E+00 8.82705E-03-2.23391E+00-1.22699E-13 5.91818E-14
 -1      3862 1.98370E+01-1.60426E+00 3.14117E-02-2.35301E+00-1.91469E-13 1.28330E-13
 -1      3863 1.91053E+01-1.39150E+00-4.66347E-03-2.60047E+00-1.34058E-13 1.12192E-13
 -1      3864 2.11224E+01-3.38892E+00-2.34582E-02-2.45267E+00 3.32165E-14-2.50792E-13
 -1      3865 2.04106E+01-2.88929E+00 3.71449E-03-2.73102E+00 7.09831E-14-1.01155E-13
 -1      3866 2.06417E+01-7.54851E-01 2.89402E-04 2.32703E+00-3.55274E-13-1.00482E-14
 -1      3867 1.70245E+01 9.64540E-01 3.46214E-03-2.74094E-01 7.12081E-14-2.66449E-13
 -1      3868 1.70841E+01 1.19327E+00-3.87297E-03-2.08593E-01 7.36023E-14-2.92960E-13
 -1      3869 1.73217E+01 1.29433E+00-1.00290E-03-2.82837E-01 3.08912E-14-2.77695E-13
 -1      3870 2.25921E+01-4.32200E+00 6.27583E-03-1.93014E+00-1.81605E-13-2.02102E-13
 -1      3871 2.10097E+01-1.42035E+00 2.71612E-02 2.55099E+00 1.06163E-13 7.02979E-14
 -1      3872 2.14554E+01-1.96776E+00 9.26935E-03 2.53589E+00 1.81187E-13-4.63323E-14
 -1      3873 1.82037E+01 1.18786E-01 1.46295E-04-2.87718E+00 4.00527E-13 4.82969E-14
 -1      3874 1.75799E+01-5.18230E-02 2.65942E-02-2.99599E+00 7.06720E-13-1.60939E-14
 -1      3875 1.70445E+01 4.90338E-01-1.78276E-03-4.83255E-01 3.37240E-14-2.49258E-13
 -1      3876 1.70202E+01 6.30022E-01 2.65696E-03-4.09933E-01 3.90026E-14-2.46171E-13
 -1      3877 1.18174E+01 4.34060E-01 9.22641E-02 6.91232E-01-2.16657E-13-9.55278E-14
 -1      3878 1.23589E+01 4.62208E-01 2.23657E-02-3.78028E-01-9.70010E-14-9.23150E-14
 -1      3879 1.30479E+01 4.20814E-01 5.08451E-02 1.31787E+00-8.27359E-14-2.45422E-13
 -1      3880 2.13943E+01-2.47186E+00-5.09736E-03 2.93348E+00-6.18477E-14-1.23270E-13
 -1      3881 1.85137E+01 1.51884E+00-2.34084E-03-6.54654E-01-1.03875E-13-2.86913E-13
 -1      3882 1.87608E+01 1.51944E+00-3.21574E-03-7.35445E-01-1.27560E-13-2.60483E-13
 -1      3883 1.89555E+01 1.28881E+00 4.94445E-03-7.49588E-01-1.20650E-13-2.11120E-13
 -1      3884 1.84665E+01 1.29550E+00 4.56163E-03-6.34156E-01-9.00058E-14-2.65419E-13
 -1      3885 1.58317E+01-1.54232E+00 1.00864E-01 4.25349E+00-4.68028E-15-1.72976E-13
 -1      3886 1.72899E+01 1.57913E-02 7.99601E-04-7.22761E-01 5.90045E-14-4.21488E-14
 -1      3887 1.72659E+01 7.38133E-04-5.69757E-04-7.19329E-01 3.59645E-14-5.62054E-14
 -1      3888 1.66729E+01 6.22994E-02-2.43104E-04-6.40700E-01 4.56380E-14-1.17773E-13
 -1      3889 1.66481E+01 1.01634E-01 1.34886E-03-6.17907E-01 6.05567E-14-1.23688E-13
 -1      3890 1.69154E+01 6.18094E-02-6.47118E-04-6.68016E-01 6.00917E-14-1.04931E-13
 -1      3891 1.68251E+01-1.15742E+00 1.41137E-02 3.82818E+00-4.97775E-13-6.10605E-14
 -1      3892 1.52720E+01-6.89887E-01 7.69595E-02 3.72706E+00-4.05544E-13 3.29278E-13
 -1      3893 1.51578E+01-7.49196E-02 3.02957E-02 2.85826E+00-4.47749E-13 3.88533E-13
 -1      3894 1.58305E+01-7.01184E-01 2.16819E-02 3.58971E+00-1.16207E-13-7.29295E-14
 -1      3895 1.40348E+01 8.51663E-01 2.49723E-02-6.88507E-01 9.26715E-14 2.25122E-13
 -1      3896 1.55400E+01 3.54423E-01 3.44245E-02 2.28457E+00-5.44559E-13 3.48279E-13
 -1      3897 1.67036E+01 5.17028E-02 3.49458E-02-3.00435E+00 6.68298E-13 3.63078E-14
 -1      3898 1.80984E+01-1.51245E+00 5.33921E-02 4.03603E+00-3.60662E-13-2.34281E-13
 -1      3899 1.71780E+01-7.84679E-01 1.59427E-02 3.48505E+00-5.31936E-13 5.05863E-14
 -1      3900 1.93413E+01-1.90005E+00 1.84296E-02 3.74041E+00-2.72454E-13-2.66356E-13
 -1      3901 1.62734E+01 1.58293E-02-2.52194E-02 2.72832E+00-6.60139E-13 2.50622E-13
 -1      3902 1.48125E+01 5.01638E-01 1.28488E-02-2.08564E+00 3.72848E-13 2.00371E-13
 -1      3903 1.73984E+01 2.87925E-01 1.24240E-03-8.89472E-01-6.42321E-14 4.20136E-15
 -1      3904 1.73801E+01 2.51982E-01-1.74383E-03-8.55856E-01-7.30576E-15-3.24353E-15
 -1      3905 1.74353E+01 3.39450E-01 1.08872E-03-9.08069E-01-7.26079E-14 1.30441E-14
 -1      3906 1.49962E+01-1.57443E-01 1.69895E-02 3.10788E+00-2.94278E-14-2.21188E-13
 -1      3907 1.32326E+01 4.92913E-01 7.39497E-02-1.11975E+00-6.27467E-14-3.35443E-14
 -1      3908 1.41754E+01 3.15601E-01 6.82286E-03-1.68082E+00-1.59879E-14-8.34801E-14
 -1      3909 1.36342E+01 6.37937E-01-1.48167E-03-3.15823E-01-9.56873E-15-1.52146E-13
 -1      3910 1.97904E+01 3.94983E-01 1.62249E-03-6.22684E-01-1.23364E-13-8.77992E-14
 -1      3911 1.97457E+01 2.91289E-01-1.80519E-03-5.77813E-01-1.31688E-13-9.13674E-14
 -1      3912 1.96168E+01 5.05418E-01 1.13902E-03-6.66219E-01-1.32198E-13-8.21369E-14
 -1      3913 1.97174E+01 2.09001E-01 1.35225E-03-5.50813E-01-1.20825E-13-9.78856E-14
 -1      3914 1.96679E+01 1.41245E-01-1.16339E-03-5.22372E-01-1.13408E-13-9.20382E-14
 -1      3915 1.94958E+01 1.34412E-01-9.44681E-05-5.52151E-01-1.03230E-13-1.02842E-13
 -1      3916 1.95668E+01 2.81780E-01 2.99341E-04-5.97480E-01-1.18626E-13-9.60090E-14
 -1      3917 1.48968E+01-3.29618E-01-1.64042E-02-2.72834E+00 2.34188E-14-1.43215E-13
 -1      3918 1.53472E+01-9.41080E-01 5.97959E-02-3.45501E+00-1.73471E-13-1.70943E-13
 -1      3919 1.64557E+01-1.25404E+00 2.57883E-02-3.41546E+00 1.19757E-14-9.81489E-14
 -1      3920 1.82914E+01-8.09605E-01-2.62028E-02 3.30163E+00-5.67865E-13-5.15950E-14
 -1      3921 1.72860E+01-3.38907E-01 2.07517E-02 3.09180E+00-6.47296E-13 2.77657E-13
 -1      3922 1.58548E+01 3.60832E-01 1.90535E-02-2.33691E+00 4.48197E-13 2.16875E-14
 -1      3923 1.48205E+01 2.25675E-01 6.17674E-02-2.15455E+00 3.21054E-14-7.14376E-14
 -1      3924 1.55378E+01-1.05763E-01 7.12352E-03-2.46414E+00 6.25303E-14-1.61426E-13
 -1      3925 1.47316E+01 4.50497E-01-2.34778E-02-1.52028E+00 1.49800E-13-6.53002E-14
 -1      3926 1.70321E+01-2.51891E-02-4.16214E-04-7.03557E-01 1.87462E-14-8.49510E-14
 -1      3927 1.74544E+01 2.61612E-01 8.17392E-04-8.46948E-01-2.67730E-14 2.20225E-14
 -1      3928 1.68803E+01 1.52756E-01-6.44066E-04-6.22111E-01 4.10251E-14-1.53775E-13
 -1      3929 1.71755E+01 2.96239E-03 1.66800E-04-7.06478E-01 4.24776E-14-1.05405E-13
 -1      3930 1.71580E+01 2.52494E-02 4.72588E-04-6.97726E-01 8.13118E-14-1.01242E-13
 -1      3931 2.06203E+01-1.14589E+00-7.34397E-03 2.56540E+00-7.85906E-14 1.50713E-13
 -1      3932 1.72596E+01-1.05927E-02 7.29863E-04-7.17915E-01 1.56900E-14-4.94698E-14
 -1      3933 1.72366E+01-1.93828E-02-3.60236E-04-7.16474E-01 3.60332E-14-5.32007E-14
 -1      3934 1.74235E+01-3.03022E-03-2.26555E-04-7.31551E-01 4.37116E-14-2.46259E-14
 -1      3935 1.72021E+01-2.11081E-02 4.40260E-04-7.13948E-01 3.23712E-14-1.10836E-13
 -1      3936 1.71825E+01-1.20939E-02 1.50945E-04-7.10441E-01 4.01207E-14-1.11574E-13
 -1      3937 1.73818E+01 4.89830E-04-4.10940E-04-7.19425E-01 4.46273E-14-6.86464E-14
 -1      3938 1.74593E+01 1.26232E-01 3.37310E-04-7.70510E-01-7.29941E-14-1.72829E-14
 -1      3939 1.73476E+01 1.00051E-01 9.12080E-04-7.53428E-01-7.04765E-14-5.34368E-14
 -1      3940 1.73238E+01 7.48429E-02-9.89920E-04-7.41638E-01-3.91854E-14-8.36629E-14
 -1      3941 1.93491E+01-2.68559E+00-2.78323E-02-3.28481E+00-7.48013E-15-1.21704E-13
 -1      3942 2.05721E+01-2.12961E+00 7.77387E-03 3.35488E+00-3.27199E-14-1.81656E-13
 -1      3943 1.98103E+01 9.66995E-01-7.82619E-04-8.34713E-01-1.97751E-13-1.11606E-13
 -1      3944 1.98300E+01 7.89560E-01-4.85382E-04-7.63810E-01-1.85518E-13-1.15124E-13
 -1      3945 1.96298E+01 7.55465E-01-5.53155E-04-7.43171E-01-1.78275E-13-1.18497E-13
 -1      3946 1.96107E+01 1.02811E+00-5.17064E-04-8.22807E-01-1.80063E-13-1.18069E-13
 -1      3947 1.88607E+01 1.09311E+00-1.39932E-03-7.08946E-01-1.16537E-13-2.44499E-13
 -1      3948 1.91023E+01 1.07451E+00-2.37471E-03-7.55164E-01-1.49914E-13-1.88033E-13
 -1      3949 1.83819E+01 1.08580E+00-2.05739E-03-6.14908E-01-7.04465E-14-2.25474E-13
 -1      3950 1.86207E+01 1.09689E+00-2.71132E-03-6.70355E-01-9.45295E-14-2.47731E-13
 -1      3951 1.87873E+01 9.18824E-01 4.23033E-03-6.85934E-01-1.18232E-13-2.25298E-13
 -1      3952 1.72955E+01 3.26778E-02-7.73100E-04-7.26789E-01 2.11040E-14-6.62001E-14
 -1      3953 1.74379E+01 2.87016E-02-4.83671E-05-7.37681E-01 4.83441E-14-2.17946E-14
 -1      3954 1.73198E+01 5.30879E-02 8.59065E-04-7.33727E-01-2.78025E-14-7.16237E-14
 -1      3955 1.92824E+01-1.09417E+00 1.86848E-02 3.23268E+00-1.94752E-13-1.49093E-13
 -1      3956 1.70892E+01 2.84878E-01-1.08055E-03-5.85666E-01 1.27279E-14-2.19470E-13
 -1      3957 1.70717E+01 3.78856E-01 1.31566E-03-5.34593E-01 7.91080E-15-2.37655E-13
 -1      3958 1.72869E+01 4.88766E-01 2.01242E-05-5.29247E-01 1.58478E-14-2.26728E-13
 -1      3959 1.75093E+01 1.12994E+00 4.11340E-03-3.83995E-01 2.19787E-14-2.46482E-13
 -1      3960 1.79054E+01 1.02202E+00-2.97315E-03-5.10970E-01-2.60480E-14-2.17211E-13
 -1      3961 1.81448E+01 1.06558E+00-1.77809E-03-5.69755E-01-5.35434E-14-2.17545E-13
 -1      3962 1.83142E+01 9.03726E-01 3.77098E-03-6.13341E-01-5.52337E-14-2.03937E-13
 -1      3963 1.94149E+01 1.06531E+00-9.08263E-04-7.96765E-01-1.65503E-13-1.55996E-13
 -1      3964 2.02862E+01-1.33443E+00-2.04094E-02 2.93522E+00 3.18014E-14 5.04930E-14
 -1      3965 1.93255E+01 9.03144E-01 3.12368E-03-7.50630E-01-1.61877E-13-1.59734E-13
 -1      3966 1.72301E+01-2.39920E-02 6.22110E-04-7.16215E-01 1.70829E-14-7.75522E-14
 -1      3967 1.72086E+01-2.49995E-02-1.21023E-04-7.14913E-01 6.08396E-15-1.05359E-13
 -1      3968 1.73951E+01-2.12545E-02-3.92627E-04-7.26090E-01 2.14490E-14-9.11470E-14
 -1      3969 1.74090E+01-2.07258E-02-3.08432E-04-7.28740E-01-2.66296E-15-4.17768E-14
 -1      3970 1.92056E+01 4.97267E-03 6.08100E-04-5.48925E-01-7.83169E-14-9.50677E-14
 -1      3971 1.91614E+01-1.27538E-02-2.36788E-04-5.43037E-01-9.24420E-14-6.84724E-14
 -1      3972 1.91240E+01-2.25707E-02 4.50916E-04-5.41127E-01-1.10259E-13-4.07777E-14
 -1      3973 1.90801E+01-2.63650E-02-7.06898E-05-5.37860E-01-9.12559E-14-5.60775E-14
 -1      3974 1.89954E+01-1.39153E-02-2.89445E-04-5.77528E-01-8.79030E-14-1.17193E-13
 -1      3975 1.90416E+01-2.42810E-02 2.82877E-04-5.36833E-01-6.83967E-14-6.34401E-14
 -1      3976 1.89984E+01-1.74756E-02 2.78577E-05-5.34304E-01-4.67269E-14-5.32198E-14
 -1      3977 1.89191E+01-2.30062E-02-2.82284E-04-5.72965E-01-9.88856E-14-5.34255E-14
 -1      3978 1.89592E+01-6.23721E-03 1.08061E-04-5.32915E-01-8.71781E-15-4.06409E-14
 -1      3979 1.89164E+01 8.88370E-03 7.00593E-05-5.29596E-01 5.29457E-15 4.02484E-15
 -1      3980 1.88418E+01-9.51511E-03-2.16681E-04-5.69272E-01-9.32542E-15-2.92147E-14
 -1      3981 1.88761E+01 2.75368E-02-7.73824E-05-5.26866E-01-9.99987E-15 1.50242E-14
 -1      3982 1.88330E+01 4.96473E-02 9.07896E-05-5.21462E-01-5.48159E-16 1.62913E-14
 -1      3983 1.87634E+01 2.19257E-02-4.64338E-05-5.64277E-01 1.93640E-14 1.47335E-15
 -1      3984 1.87906E+01 7.46679E-02-2.85441E-04-5.16423E-01 2.53522E-14-2.15789E-14
 -1      3985 1.87461E+01 1.02963E-01 8.87272E-05-5.07783E-01 3.27901E-14 1.59364E-14
 -1      3986 1.86825E+01 6.83484E-02 1.94185E-04-5.56291E-01 1.52116E-14-6.80016E-14
 -1      3987 1.87000E+01 1.33800E-01-5.38920E-04-4.99599E-01 3.80924E-16 3.04855E-14
 -1      3988 1.86528E+01 1.67913E-01 4.36948E-05-4.86632E-01-1.01805E-14 5.91871E-14
 -1      3989 1.85963E+01 1.27986E-01 4.62403E-04-5.43493E-01 5.97557E-14-7.19135E-14
 -1      3990 1.86011E+01 2.04364E-01-8.54680E-04-4.74450E-01-1.96892E-14 8.20752E-14
 -1      3991 1.85493E+01 2.44307E-01-8.69310E-07-4.56052E-01-7.77345E-14 5.41778E-14
 -1      3992 1.85015E+01 2.00201E-01 7.75840E-04-5.24278E-01-4.88428E-15 2.30796E-14
 -1      3993 1.84894E+01 2.86417E-01-1.23048E-03-4.38876E-01-1.20483E-13 9.09844E-14
 -1      3994 1.84312E+01 3.32260E-01-1.81957E-05-4.13734E-01-4.31766E-14 6.17853E-14
 -1      3995 1.83937E+01 2.84976E-01 1.17264E-03-4.97178E-01-6.54587E-14 6.90559E-14
 -1      3996 1.83598E+01 3.79998E-01-1.66818E-03-3.90446E-01-2.03765E-14 6.10359E-14
 -1      3997 1.82928E+01 4.31818E-01 5.83090E-05-3.56995E-01-5.02923E-14 8.05707E-14
 -1      3998 1.82671E+01 3.82648E-01 1.75615E-03-4.60072E-01-6.21849E-14 6.18148E-14
 -1      3999 1.82054E+01 4.85161E-01-2.16319E-03-3.26141E-01-1.09434E-13 1.33113E-13
 -1      4000 1.81270E+01 5.43033E-01 3.79497E-04-2.82219E-01-2.48494E-14 1.59031E-13
 -1      4001 1.81145E+01 4.93656E-01 2.59836E-03-4.10860E-01-4.21612E-14 5.72144E-14
 -1      4002 1.80176E+01 6.01709E-01-2.80518E-03-2.41634E-01 1.27861E-15 1.62234E-13
 -1      4003 1.79251E+01 6.65473E-01 9.11522E-04-1.84013E-01 1.90475E-14 1.54315E-13
 -1      4004 1.79261E+01 6.18832E-01 3.81081E-03-3.46356E-01-1.22605E-14 1.15242E-13
 -1      4005 1.77851E+01 7.28504E-01-4.92959E-03-1.30090E-01 1.44320E-14 1.43552E-13
 -1      4006 1.76766E+01 7.96979E-01-6.27655E-04-5.35772E-02-6.00161E-14 1.02185E-13
 -1      4007 1.76881E+01 7.59079E-01 4.46566E-03-2.61499E-01-2.36784E-14 1.01017E-13
 -1      4008 1.74927E+01 8.61025E-01-1.63124E-02 2.07405E-02-4.16806E-14 1.30124E-13
 -1      4009 1.73694E+01 9.28476E-01-1.74691E-02 1.24553E-01-5.86536E-14 1.16024E-13
 -1      4010 1.73790E+01 9.14312E-01-2.55747E-03-1.46604E-01-5.28596E-14 1.07173E-13
 -1      4011 1.71228E+01 9.83356E-01-6.71436E-02 2.35251E-01-4.23966E-14 6.69881E-14
 -1      4012 1.69959E+01 1.02891E+00-9.69345E-02 3.77503E-01-4.43395E-14 1.20216E-13
 -1      4013 1.69600E+01 1.07778E+00-4.86337E-02 2.03770E-02-2.73878E-14 8.56884E-14
 -1      4014 1.66698E+01 1.04715E+00-2.32875E-01 5.65789E-01-1.84575E-14 2.39378E-13
 -1      4015 1.66371E+01 1.06670E+00-3.03066E-01 7.21085E-01 6.02018E-14 2.27318E-13
 -1      4016 1.63496E+01 1.22641E+00-2.25306E-01 3.00334E-01 4.05370E-14 1.58429E-13
 -1      4017 1.63096E+01 9.49634E-01-5.45528E-01 1.12785E+00 8.74301E-15 1.55542E-13
 -1      4018 1.62459E+01 1.12914E+00-6.35327E-01 1.15153E+00 6.77236E-15 1.30229E-13
 -1      4019 1.53456E+01 1.41743E+00-6.33164E-01 9.06808E-01-3.03368E-14 1.27232E-13
 -1      4020 1.67625E+01 2.90610E+00 2.37846E-01 1.44055E+00-2.93099E-14 8.81517E-14
 -1      4021 1.87233E+01 4.01844E+00 1.59548E+00 2.83012E+00-3.10862E-14 1.08580E-13
 -1      4022 1.51035E+01 2.90429E+00-3.64885E-01 2.79255E+00 3.77476E-15 7.74936E-14
 -1      4023 1.85196E+01 2.06916E+00 1.05921E+00 2.09287E+00-7.26641E-14 1.13687E-13
 -1      4024 1.83262E+01 1.51607E+00 6.39739E-01 1.99193E+00 1.93318E-14 1.88738E-14
 -1      4025 2.04185E+01 2.06310E+00 1.69189E+00 2.89004E+00-6.47260E-14 3.01981E-14
 -1      4026 1.75827E+01 1.25895E+00 2.96827E-01 1.67642E+00 1.02147E-13-1.01641E-13
 -1      4027 1.71965E+01 1.06279E+00 1.87601E-01 1.66728E+00 1.35985E-13-1.81466E-13
 -1      4028 1.82968E+01 1.28055E+00 6.53630E-01 1.38774E+00-2.34326E-14-7.11653E-14
 -1      4029 1.64170E+01 8.85818E-01 4.76024E-02 1.68128E+00 1.37553E-13-1.80800E-13
 -1      4030 1.59975E+01 7.29685E-01 5.10455E-02 1.81072E+00 1.80607E-13-2.04333E-13
 -1      4031 1.66666E+01 1.05199E+00 1.92774E-01 1.15713E+00 6.93196E-14-2.22419E-13
 -1      4032 1.75237E+01 3.00623E-01 7.24952E-04-8.44147E-01-4.44546E-14 7.64284E-14
 -1      4033 1.75287E+01 2.59098E-01-1.65435E-03-8.19319E-01 1.53926E-15 5.10443E-14
 -1      4034 1.71220E+01 1.44850E-01-6.43304E-04-6.50458E-01 9.81593E-15-1.58521E-13
 -1      4035 1.71067E+01 2.07979E-01 1.07635E-03-6.18797E-01 1.53586E-14-1.79006E-13
 -1      4036 1.73268E+01 2.81239E-01-1.77683E-04-6.16498E-01-6.83978E-15-2.15536E-13
 -1      4037 1.73298E+01 5.59423E-01 2.65443E-03-1.08115E+00-7.42650E-14-1.18669E-14
 -1      4038 1.73526E+01 5.17806E-01-2.38405E-03-1.02545E+00-2.15804E-14-4.74652E-14
 -1      4039 1.74132E+01 4.76115E-01 1.48331E-03-9.79396E-01-2.23586E-14-2.57302E-14
 -1      4040 1.74309E+01 4.30524E-01-2.32213E-03-9.35967E-01-1.46703E-14-5.69976E-14
 -1      4041 1.73986E+01 5.42320E-01 2.79619E-03-9.67017E-01-9.66637E-15-2.52296E-14
 -1      4042 1.71373E+01 6.31224E-01-1.70513E-03-1.37685E+00-8.23382E-14-4.06922E-14
 -1      4043 1.71515E+01 6.33738E-01-3.99300E-03-1.29654E+00-4.27601E-14-5.38621E-14
 -1      4044 1.70727E+01 5.34954E-01-4.21237E-02-1.55479E+00-1.38585E-13 6.70505E-14
 -1      4045 1.70709E+01 6.01372E-01-2.06544E-02-1.48010E+00-1.36454E-13 2.55317E-14
 -1      4046 1.69696E+01 6.90891E-01-1.93858E-02-1.39786E+00-1.40198E-13 1.09045E-14
 -1      4047 1.70600E+01 2.65024E-01-1.94133E-01-1.67011E+00-7.84928E-14 1.12854E-13
 -1      4048 1.70758E+01 4.34562E-01-9.30847E-02-1.64398E+00-6.42646E-14 1.51101E-13
 -1      4049 1.68773E+01 5.25252E-01-1.01909E-01-1.61446E+00-1.69399E-13 5.08413E-14
 -1      4050 1.72548E+01 5.27257E-02-3.25074E-01-1.43249E+00-1.02945E-13 2.09277E-14
 -1      4051 1.71970E+01 6.69824E-02-2.88825E-01-1.59981E+00-4.57967E-15 1.12993E-13
 -1      4052 1.69843E+01 1.26252E-01-2.93998E-01-1.74245E+00-1.44329E-15 1.67963E-13
 -1      4053 1.72816E+01 9.71384E-01 9.37046E-02-1.37753E+00-1.66089E-13 1.12910E-13
 -1      4054 1.72331E+01 2.97772E-01-2.24750E-01-1.32431E+00-2.39572E-13 4.20011E-14
 -1      4055 1.73301E+01 9.37604E-02-2.46784E-01-1.46856E+00-1.69975E-13 9.26065E-14
 -1      4056 1.83342E+01 1.55914E+00 7.46730E-01-1.00039E+00-5.11258E-14 1.58873E-13
 -1      4057 1.74253E+01 1.71706E+00 5.11395E-01-1.33900E+00-8.40439E-14 1.41664E-13
 -1      4058 1.73447E+01 1.22302E+00 3.25040E-01-1.46954E+00-1.97481E-13 1.42122E-13
 -1      4059 1.82326E+01 3.16675E-01 1.97842E-01-1.79197E+00 4.06897E-14 1.76900E-13
 -1      4060 1.82968E+01 7.54456E-01 4.00397E-01-1.30025E+00 1.98452E-14 2.31148E-13
 -1      4061 1.76006E+01 1.34299E+00 3.88339E-01-1.47392E+00-1.04611E-13 2.58848E-13
 -1      4062 1.82870E+01-4.29812E-01 5.16589E-02-2.35213E+00-5.29420E-14 1.64107E-13
 -1      4063 1.82158E+01-5.58258E-02 1.07475E-01-2.09688E+00 3.36606E-14 1.77539E-13
 -1      4064 1.77062E+01 3.99305E-01 1.26058E-01-1.94428E+00 3.27169E-14 1.56458E-13
 -1      4065 1.70154E+01 7.34737E-01-1.43081E-03-3.56976E-01 5.09661E-14-2.52743E-13
 -1      4066 1.72656E+01 8.23921E-01-1.03169E-04-4.00541E-01 3.52660E-14-2.30088E-13
 -1      4067 1.83562E+01-1.98906E+00-1.72085E-02-3.29119E+00-1.97498E-14 3.09908E-14
 -1      4068 1.66342E+01 6.64733E-01-1.26880E-03-2.77122E-01 5.93280E-14-2.49879E-13
 -1      4069 1.95378E+01-1.47166E+00-7.20693E-03 3.32167E+00-1.19661E-13-1.75905E-13
 -1      4070 1.86850E+01 7.58848E-01-1.15296E-03-6.66664E-01-1.13375E-13-1.97308E-13
 -1      4071 1.89149E+01 7.50363E-01-3.08698E-03-6.94426E-01-1.49955E-13-2.07986E-13
 -1      4072 1.72327E+01 6.21159E-01 3.77885E-03-1.21300E+00-3.34832E-14-3.58502E-14
 -1      4073 1.72558E+01 5.92688E-01-2.17741E-03-1.14363E+00-8.96054E-14-9.60822E-14
 -1      4074 1.72715E+01 6.33976E-01 3.46066E-03-1.06946E+00-2.78357E-14-4.11086E-15
 -1      4075 1.71496E+01 5.51123E-02-1.99451E-04-6.87763E-01 6.12503E-14-1.50504E-13
 -1      4076 1.71338E+01 9.50071E-02 8.36327E-04-6.69956E-01 3.38624E-14-1.60358E-13
 -1      4077 1.73513E+01 1.40878E-01-2.66712E-04-6.71795E-01 1.31623E-14-2.06916E-13
 -1      4078 1.73680E+01 5.14687E-02-3.63335E-04-7.03458E-01 4.28964E-14-1.10930E-13
 -1      4079 1.74776E+01 3.87070E-01 9.27190E-04-9.02090E-01-4.00011E-14-3.40035E-14
 -1      4080 1.74888E+01 3.42264E-01-2.01716E-03-8.68874E-01-4.37783E-14-5.15433E-15
 -1      4081 1.75740E+01 3.47664E-01 1.46531E-03-8.37861E-01 2.95327E-15 4.90773E-14
 -1      4082 1.45418E+01 8.15098E-01 4.52458E-02 7.85025E-01 7.24598E-14-2.24161E-13
 -1      4083 1.50366E+01 8.12550E-01 3.66232E-02 1.33678E-01 1.19627E-14-1.75778E-13
 -1      4084 1.94384E+01 5.99681E-01 2.14713E-03-6.93599E-01-1.30659E-13-1.28137E-13
 -1      4085 1.94205E+01 4.57432E-01-1.57438E-03-6.54718E-01-9.76485E-14-1.41741E-13
 -1      4086 1.67702E+01 7.41507E-01-1.47665E-03-2.83443E-01 4.56071E-14-2.36470E-13
 -1      4087 1.74676E+01 8.92227E-01-2.95559E-03-4.25394E-01 1.77274E-14-2.29869E-13
 -1      4088 1.77100E+01 9.63160E-01-6.88219E-04-4.79450E-01-7.02266E-15-2.31845E-13
 -1      4089 1.78787E+01 8.19540E-01 3.12767E-03-5.46405E-01-1.34903E-14-2.07329E-13
 -1      4090 1.74726E+01 6.87120E-01 2.16720E-03-4.98317E-01 2.68174E-14-2.20445E-13
 -1      4091 1.75541E+01 2.21144E-01 6.56575E-04-8.01640E-01-5.83996E-14 2.17547E-14
 -1      4092 1.75540E+01 1.84135E-01-1.32549E-03-7.83691E-01-8.37740E-14-2.67060E-14
 -1      4093 1.76289E+01 2.59402E-01 1.05975E-03-7.98488E-01-6.62212E-14 5.78231E-14
 -1      4094 1.92841E+01 6.69500E-02 7.21347E-04-5.63987E-01-5.80923E-14-1.35249E-13
 -1      4095 1.92408E+01 3.06316E-02-4.87533E-04-5.53194E-01-6.13935E-14-1.05336E-13
 -1      4096 1.90695E+01 2.48406E-02-1.88555E-04-5.85498E-01-4.90735E-14-1.37280E-13
 -1      4097 1.74321E+01-1.42317E+00 4.80459E-03-3.32769E+00-3.12862E-14 8.33960E-14
 -1      4098 1.85967E+01-1.32828E+00 2.20375E-02-2.82639E+00-2.25280E-14 5.08508E-14
 -1      4099 1.82880E+01-8.40332E-01 2.25841E-02-2.63352E+00-9.18180E-14 1.89021E-13
 -1      4100 1.67099E+01-7.19271E-01-1.91103E-02-2.93554E+00-4.39963E-14-7.82551E-14
 -1      4101 1.75722E+01 1.50771E-01 6.37991E-04-7.71534E-01-4.27825E-14-3.50075E-14
 -1      4102 1.75684E+01 1.18837E-01-1.04650E-03-7.59211E-01-9.79781E-15 1.21356E-14
 -1      4103 1.76680E+01 1.80958E-01 6.70831E-04-7.70627E-01-4.84923E-14 9.43015E-15
 -1      4104 1.75853E+01 4.16770E-02 6.53307E-04-7.39314E-01 2.36782E-14 7.51006E-14
 -1      4105 1.75779E+01 2.13377E-02-5.94168E-04-7.34738E-01 5.66507E-14 7.42519E-14
 -1      4106 1.59546E+01 9.28718E-01 7.55658E-02 2.71819E-01 5.14712E-14-2.64989E-13
 -1      4107 1.53152E+01 8.65058E-01 8.62665E-02-7.58105E-01 5.64761E-14-9.81749E-14
 -1      4108 1.74986E+01 4.43611E-01 2.02849E-03-8.92374E-01 4.07436E-16-1.24677E-15
 -1      4109 1.75857E+01 5.15170E-03 6.12465E-04-7.32787E-01 6.49597E-14 5.00829E-14
 -1      4110 1.75780E+01-8.41913E-03-4.61710E-04-7.30133E-01 2.98212E-14 5.31715E-14
 -1      4111 1.77307E+01 1.59303E-02-2.61481E-04-7.34056E-01 3.34132E-14 1.24584E-13
 -1      4112 1.76487E+01-4.12205E-01 1.98796E-02-2.55420E+00-3.06040E-14 6.66221E-14
 -1      4113 1.45979E+01 2.87113E-01-2.55042E-03 2.38072E+00 2.72948E-14-3.25271E-13
 -1      4114 1.44662E+01 5.98961E-01 3.74548E-02 1.67075E+00-1.33270E-15-2.39579E-13
 -1      4115 1.56236E+01 6.65011E-01 2.31095E-02-1.24721E+00 8.31644E-14-7.17482E-14
 -1      4116 2.19925E+01-3.72338E+00 4.95932E-03-2.14914E+00-1.58630E-13-2.41890E-13
 -1      4117 1.91326E+01 7.18934E-01-7.57052E-04-7.01428E-01-1.42045E-13-1.89949E-13
 -1      4118 1.94302E+01 7.10480E-01-1.27363E-03-7.22991E-01-1.53967E-13-1.42332E-13
 -1      4119 1.71216E+01 6.98088E-01 9.40985E-04-1.21014E+00-6.76401E-14-9.40227E-14
 -1      4120 1.84518E+01 7.53843E-01-2.07839E-03-6.44651E-01-8.92562E-14-1.76475E-13
 -1      4121 1.85961E+01 6.20076E-01 3.00778E-03-6.62093E-01-1.02524E-13-1.58812E-13
 -1      4122 1.82160E+01 7.33785E-01-2.17113E-03-6.10755E-01-4.64506E-14-1.63749E-13
 -1      4123 1.74506E+01 7.21761E-02 1.31169E-04-7.49851E-01-3.45133E-14-3.20846E-14
 -1      4124 2.25337E+01-3.41649E+00-2.01193E-01-8.69741E-01-9.45632E-14-1.89959E-13
 -1      4125 1.75794E+01 4.05100E-02-6.87273E-05-7.11734E-01-2.47794E-15-9.01747E-14
 -1      4126 1.75733E+01 7.75325E-02 4.34024E-04-6.99485E-01 3.34014E-15-1.20561E-13
 -1      4127 1.92307E+01 4.30064E-01 1.94133E-04-6.59746E-01-1.13055E-13-1.84999E-13
 -1      4128 1.94099E+01 3.44861E-01 6.02986E-04-6.33564E-01-1.15952E-13-1.39118E-13
 -1      4129 1.93776E+01 2.51175E-01-1.07115E-03-6.04635E-01-1.28213E-13-1.47034E-13
 -1      4130 1.93547E+01 1.75157E-01 7.05779E-04-5.90670E-01-1.16091E-13-1.24163E-13
 -1      4131 1.93148E+01 1.14058E-01-7.93646E-04-5.72221E-01-9.35190E-14-1.33726E-13
 -1      4132 1.91952E+01 2.32843E-01 3.34892E-04-6.23518E-01-1.04994E-13-1.78434E-13
 -1      4133 1.74983E+01 5.37790E-01-8.64335E-04-5.41371E-01 2.92599E-14-2.05247E-13
 -1      4134 1.77038E+01 6.08115E-01 4.46704E-04-5.61022E-01 3.40595E-15-1.86726E-13
 -1      4135 1.75232E+01 4.19120E-01 3.51545E-04-5.93342E-01 2.44375E-15-1.92754E-13
 -1      4136 1.91380E+01 1.02779E-01-6.23964E-06-5.99761E-01-7.18728E-14-1.55127E-13
 -1      4137 1.90341E+01 5.90122E-01 2.44724E-03-6.77980E-01-1.29513E-13-1.84199E-13
 -1      4138 1.62541E+01-1.91810E-01 1.77409E-02-2.63601E+00-2.01951E-14-1.67390E-13
 -1      4139 1.71265E+01-3.18794E-01 1.69480E-02-2.58306E+00-9.00861E-14-4.86867E-14
 -1      4140 1.70953E+01 4.93434E-02 7.74626E-03-2.27393E+00 6.20051E-14-2.07386E-15
 -1      4141 1.59601E+01 1.93370E-01-1.19876E-02-2.16974E+00 1.70697E-14-9.07954E-14
 -1      4142 1.75829E+01-5.68701E-03 2.83805E-04-7.23238E-01 2.57601E-14-7.63740E-14
 -1      4143 1.75767E+01 1.33733E-02 1.67807E-04-7.17101E-01 1.89472E-14-8.46849E-14
 -1      4144 1.77759E+01 3.49980E-02-1.04731E-04-7.15913E-01-4.54246E-15-9.85434E-14
 -1      4145 1.75715E+01 1.25091E-01-4.29888E-04-6.87945E-01 8.42054E-15-1.56118E-13
 -1      4146 1.75639E+01 1.85349E-01 5.75880E-04-6.65969E-01-1.13686E-14-1.63218E-13
 -1      4147 1.77792E+01 1.16042E-01-5.10885E-05-6.97505E-01-2.18641E-14-1.01054E-13
 -1      4148 1.75753E+01 6.42283E-02-8.15517E-04-7.43582E-01 1.42243E-14 4.78187E-14
 -1      4149 1.77157E+01 5.82328E-02 1.01105E-04-7.40156E-01 3.38574E-14 1.14777E-13
 -1      4150 1.75815E+01 9.06398E-02 6.41753E-04-7.51465E-01-1.62348E-14 2.99521E-14
 -1      4151 1.88627E+01-7.11293E-03 4.20275E-04-6.09230E-01-6.24342E-14-1.40765E-13
 -1      4152 1.88244E+01-1.87931E-02-1.99965E-04-6.05511E-01-1.18521E-13-1.34727E-13
 -1      4153 1.89286E+01 4.10412E-02 4.44134E-04-6.16450E-01-5.81974E-14-1.39141E-13
 -1      4154 1.88919E+01 1.20871E-02-3.44623E-04-6.10373E-01-5.26758E-14-1.52500E-13
 -1      4155 1.87172E+01 6.52510E-03-2.02207E-04-6.38944E-01-6.99539E-14-1.66747E-13
 -1      4156 1.87931E+01-2.30871E-02 3.52745E-04-6.05037E-01-1.32111E-13-8.28948E-14
 -1      4157 1.87543E+01-2.16026E-02-9.81502E-05-6.02454E-01-7.87050E-14-8.40104E-14
 -1      4158 1.86560E+01-1.85242E-02-2.63962E-04-6.35661E-01-9.30017E-14-1.44937E-13
 -1      4159 1.87215E+01-1.43472E-02 2.33699E-04-6.01925E-01-1.98049E-14-7.31251E-14
 -1      4160 1.86824E+01-2.67329E-03-8.29715E-05-5.99226E-01 3.39734E-14-6.46443E-14
 -1      4161 1.85917E+01-1.61520E-02-3.38249E-04-6.33651E-01-4.91688E-14-5.75622E-14
 -1      4162 1.86488E+01 1.33600E-02 1.39111E-04-5.98452E-01-6.33587E-16-9.54651E-14
 -1      4163 1.86085E+01 3.33138E-02-1.75353E-04-5.95094E-01-2.97686E-14-1.04811E-13
 -1      4164 1.85265E+01 7.71449E-03 4.05016E-05-6.31734E-01-1.33270E-14-1.22243E-13
 -1      4165 1.85729E+01 5.70881E-02-2.52551E-05-5.92932E-01-2.09234E-14-9.38992E-14
 -1      4166 1.85313E+01 8.42865E-02-8.59365E-05-5.88004E-01 1.50441E-14-1.22911E-13
 -1      4167 1.84575E+01 4.95394E-02 3.68470E-04-6.28218E-01-1.15480E-14-1.71704E-13
 -1      4168 1.84919E+01 1.14626E-01-2.66652E-04-5.84693E-01 8.88638E-14-9.83601E-14
 -1      4169 1.84468E+01 1.48456E-01-2.63468E-04-5.77435E-01 8.11250E-14-5.24926E-14
 -1      4170 1.83844E+01 1.05046E-01 5.81868E-04-6.22458E-01 5.00399E-14-1.21396E-13
 -1      4171 1.84024E+01 1.85290E-01-4.86963E-04-5.72343E-01 4.53874E-14-2.64253E-15
 -1      4172 1.83514E+01 2.25336E-01-5.99332E-04-5.62208E-01 7.68569E-15 2.04062E-14
 -1      4173 1.83031E+01 1.74904E-01 9.68878E-04-6.14554E-01 1.06544E-13-1.37014E-13
 -1      4174 1.82992E+01 2.68677E-01-9.27174E-04-5.54352E-01 9.55768E-15 5.50297E-14
 -1      4175 1.82407E+01 3.15508E-01-6.97277E-04-5.40507E-01-1.59176E-14 8.76853E-14
 -1      4176 1.82083E+01 2.60811E-01 2.21891E-03-6.03839E-01 3.77494E-14-8.44179E-14
 -1      4177 1.81770E+01 3.64996E-01-1.41319E-03-5.30127E-01-8.86009E-14 1.36485E-13
 -1      4178 1.81075E+01 4.18632E-01-9.25187E-04-5.11911E-01-6.24900E-14 1.17339E-13
 -1      4179 1.80968E+01 3.59395E-01 3.71069E-03-5.89698E-01-2.34746E-14 3.34171E-14
 -1      4180 1.80279E+01 4.74796E-01-1.96223E-03-4.98424E-01-8.20622E-14 1.37502E-13
 -1      4181 1.79430E+01 5.35596E-01-1.19042E-03-4.74884E-01-8.90127E-14 1.12722E-13
 -1      4182 1.79587E+01 4.72424E-01 5.38350E-03-5.71474E-01-4.86479E-14 1.01858E-13
 -1      4183 1.78412E+01 5.98613E-01-2.71134E-03-4.57998E-01-7.12569E-14 1.24925E-13
 -1      4184 1.77347E+01 6.67006E-01-1.75612E-03-4.27868E-01-7.05100E-15 8.06233E-14
 -1      4185 1.77850E+01 6.01325E-01 7.79605E-03-5.49196E-01-1.16620E-13-2.39664E-14
 -1      4186 1.76015E+01 7.37110E-01-4.68299E-03-4.07562E-01-1.20262E-14 1.16785E-14
 -1      4187 1.74635E+01 8.13466E-01-5.04289E-03-3.68678E-01-5.55285E-14-2.93811E-14
 -1      4188 1.75613E+01 7.48038E-01 1.08484E-02-5.23718E-01-8.29623E-14-1.27732E-13
 -1      4189 1.72828E+01 8.90479E-01-1.43616E-02-3.45522E-01-6.83086E-14 2.48239E-15
 -1      4190 1.70940E+01 9.73468E-01-2.47212E-02-2.93104E-01-7.00308E-14 2.95649E-14
 -1      4191 1.72647E+01 9.15498E-01 1.04901E-02-4.97833E-01-5.04540E-14-1.40842E-13
 -1      4192 1.68329E+01 1.05443E+00-6.18319E-02-2.69153E-01-4.29526E-14 7.63278E-17
 -1      4193 1.65445E+01 1.13306E+00-1.18542E-01-1.90379E-01 2.42965E-14 4.94049E-14
 -1      4194 1.68498E+01 1.10525E+00-1.68491E-02-4.79823E-01-1.48332E-14-1.99181E-14
 -1      4195 1.61233E+01 1.20423E+00-2.54031E-01-1.74708E-01 6.98712E-14-9.29812E-15
 -1      4196 1.55683E+01 1.23777E+00-4.73658E-01-3.01702E-02 6.31162E-14 4.65461E-14
 -1      4197 1.62043E+01 1.30163E+00-1.64327E-01-4.97319E-01 2.16216E-14 1.43774E-14
 -1      4198 1.47481E+01 1.20840E+00-8.64998E-01-1.36712E-01-1.48076E-14-6.47260E-14
 -1      4199 1.30658E+01 1.15199E+00-1.56456E+00 2.16345E-01-2.41196E-14-4.16334E-14
 -1      4200 1.50455E+01 1.41083E+00-6.79347E-01-6.73914E-01-9.50351E-14-1.37446E-13
 -1      4201 1.02890E+01 1.18840E+00-2.25552E+00-1.26912E+00-6.72795E-14-7.14984E-14
 -1      4202 1.70760E+01 2.15277E+00 4.47860E-01 4.06611E-01-1.15907E-13-7.54952E-14
 -1      4203 1.33872E+01 1.25303E+00-1.49137E+00-2.03657E+00-7.32747E-14-2.87770E-13
 -1      4204 2.39833E+01 2.51940E+00 2.88242E+00 1.78918E+00-7.61613E-14-1.00808E-13
 -1      4205 2.08452E+01 1.62385E+00 1.70577E+00 3.28821E-01-6.62387E-14-1.25011E-13
 -1      4206 1.92743E+01 7.04070E-01 1.04886E+00-1.73259E+00-1.18794E-13-2.52687E-13
 -1      4207 1.89757E+01 1.27107E+00 8.69023E-01 6.32231E-01-1.36686E-13-6.86118E-14
 -1      4208 1.78763E+01 1.14251E+00 4.56782E-01 4.03472E-01-2.01991E-14-1.76081E-13
 -1      4209 1.89691E+01 1.27349E+00 9.19369E-01-6.07425E-01-9.70612E-14-2.54241E-13
 -1      4210 1.67856E+01 1.02842E+00 1.99228E-01 3.00780E-01 6.93226E-14-1.77441E-13
 -1      4211 1.75273E+01 4.88933E-01 4.56272E-04-8.58078E-01-4.77548E-15-4.49788E-14
 -1      4212 1.75689E+01 4.34764E-01-2.54716E-03-8.30218E-01 1.08458E-14-2.81852E-16
 -1      4213 1.75529E+01 2.45640E-01-4.38973E-04-6.51184E-01-1.17674E-14-1.82295E-13
 -1      4214 1.75387E+01 3.31718E-01-4.15434E-04-6.15797E-01-1.44502E-14-1.92628E-13
 -1      4215 1.77473E+01 3.81059E-01-3.96473E-05-6.26890E-01-1.16164E-14-1.73104E-13
 -1      4216 1.77710E+01 2.30484E-01-1.84108E-04-6.69183E-01-1.46490E-14-1.51256E-13
 -1      4217 1.66505E+01 6.03407E-01-1.56035E-01-1.62632E+00-1.04129E-13-4.00166E-14
 -1      4218 1.66402E+01 7.20585E-01-1.00985E-01-1.52095E+00-1.75481E-13-2.73254E-14
 -1      4219 1.68176E+01 7.91436E-01-2.63350E-02-1.35104E+00-1.86733E-13 7.95822E-14
 -1      4220 1.68673E+01 7.92154E-01-2.42896E-02-1.25453E+00-1.01101E-13 3.24298E-14
 -1      4221 1.65640E+01 9.21321E-01-6.54994E-02-1.35947E+00-1.40700E-13 1.69031E-14
 -1      4222 1.75047E+01-7.84862E-02-1.60155E-01-1.45243E+00-1.19904E-13 1.82077E-14
 -1      4223 1.68701E+01-7.02109E-01-7.12902E-01-1.93228E+00-3.59712E-14 1.44329E-13
 -1      4224 1.73168E+01 1.53800E+00 4.43829E-01-1.53453E+00-1.37196E-13 2.86299E-14
 -1      4225 1.73751E+01 1.02622E+00 3.04375E-01-1.43254E+00-1.43274E-13 3.85803E-15
 -1      4226 1.77048E+01 2.74527E-01 1.58526E-01-1.70437E+00-1.24234E-13-2.56462E-14
 -1      4227 1.74327E+01 1.16519E+00 2.53338E-01-1.54772E+00-1.18724E-13 2.17049E-14
 -1      4228 1.72235E+01 1.48483E+00 3.34636E-01-1.55109E+00-1.65229E-13 2.21281E-14
 -1      4229 1.73232E+01 1.32243E+00 3.23727E-01-1.67648E+00-1.24178E-13-1.06640E-13
 -1      4230 1.72368E+01 4.38484E-01 5.92253E-02-2.00531E+00 1.40233E-13-2.63158E-15
 -1      4231 1.72160E+01 7.88394E-01 9.79076E-02-1.73810E+00 2.64788E-14 3.19050E-14
 -1      4232 1.70877E+01 1.16468E+00 1.73950E-01-1.68078E+00-5.38753E-14-1.63800E-13
 -1      4233 1.70292E+01 7.82982E-01 7.48727E-04-1.15250E+00-1.20196E-13 6.83689E-14
 -1      4234 1.70970E+01 7.42265E-01-6.94342E-03-1.07965E+00-9.17126E-14-1.14494E-14
 -1      4235 1.68895E+01 9.01582E-01 1.69179E-03-1.10780E+00-7.89121E-14 1.83535E-13
 -1      4236 1.78616E+01 6.42422E-01-1.90179E-03-5.72142E-01-6.35467E-15-1.85161E-13
 -1      4237 1.80624E+01 7.03288E-01-1.11839E-04-5.96603E-01-3.69281E-14-1.74993E-13
 -1      4238 1.82121E+01 5.79545E-01 3.25866E-03-6.33924E-01-4.27808E-14-1.57239E-13
 -1      4239 1.78935E+01 5.06096E-01 7.44257E-04-6.14448E-01-1.90554E-14-1.78667E-13
 -1      4240 1.72279E+01 7.02107E-01 2.65886E-03-1.01669E+00 3.40841E-14 1.81821E-14
 -1      4241 1.72925E+01 6.48097E-01-3.87531E-03-9.63998E-01 3.81071E-14 6.26172E-14
 -1      4242 1.71603E+01 7.99276E-01 1.10248E-02-9.61877E-01-5.41714E-14 1.44332E-13
 -1      4243 1.76295E+01 3.85160E-01 2.22177E-04-8.11537E-01 1.76342E-14-1.42248E-14
 -1      4244 1.76604E+01 3.35404E-01-1.99090E-03-7.91155E-01-1.74957E-14 1.57020E-15
 -1      4245 1.76742E+01 4.36915E-01 4.26802E-03-7.79406E-01-1.58587E-14-1.09539E-13
 -1      4246 1.77071E+01 2.90061E-01 2.06960E-04-7.78078E-01-7.05262E-14 9.67664E-16
 -1      4247 1.77298E+01 2.45870E-01-1.35361E-03-7.63364E-01-7.94437E-14-2.80806E-14
 -1      4248 1.77737E+01 3.32033E-01 2.81137E-03-7.53857E-01-4.02390E-14-1.65147E-13
 -1      4249 1.65861E+01-5.44983E-02-5.86778E-01-1.94982E+00-1.00503E-13 7.78266E-14
 -1      4250 1.65476E+01 3.50762E-01-3.42035E-01-1.88900E+00-1.05471E-13 1.43774E-14
 -1      4251 1.61467E+01-2.39813E-01-8.07181E-01-2.39176E+00-1.02474E-13-1.79856E-14
 -1      4252 1.73947E+01 5.97508E-01 1.27571E-03-9.23417E-01-1.32727E-14 1.83008E-14
 -1      4253 1.74485E+01 5.41088E-01-3.11329E-03-8.85265E-01-1.91459E-15 3.07665E-14
 -1      4254 1.75443E+01 5.52607E-01 6.18123E-03-8.16936E-01-3.79433E-14-5.91366E-14
 -1      4255 1.73760E+01 6.75984E-01 8.90020E-03-8.73391E-01-3.23705E-14 3.72927E-14
 -1      4256 1.88237E+01 4.84253E-01-6.35033E-04-6.70431E-01-1.00399E-13-1.54568E-13
 -1      4257 1.90345E+01 4.51643E-01-5.40459E-04-6.69607E-01-9.76276E-14-1.77186E-13
 -1      4258 1.90215E+01 3.40873E-01 1.46421E-04-6.50284E-01-7.59700E-14-1.96527E-13
 -1      4259 1.89863E+01 1.31999E-01 2.83106E-04-6.28578E-01-7.50366E-14-8.85699E-14
 -1      4260 1.89538E+01 8.02402E-02-4.94403E-04-6.18875E-01-6.11453E-14-1.07515E-13
 -1      4261 1.87732E+01 6.72931E-02-2.68153E-06-6.43696E-01-6.69311E-14-1.00629E-13
 -1      4262 1.70928E+01 1.10123E+00 2.93685E-01-4.45833E-01-1.45162E-14-1.90625E-13
 -1      4263 1.76956E+01 1.13661E-01 3.64299E-04-7.51857E-01 3.38517E-15 4.57568E-14
 -1      4264 1.85989E+01 4.79708E-01-8.02968E-04-6.59460E-01-6.71208E-14-1.34912E-13
 -1      4265 1.78758E+01 2.60156E-02 6.88195E-04-7.22765E-01 2.34185E-14 8.17832E-14
 -1      4266 1.78830E+01 7.29851E-03 3.34581E-05-7.20810E-01-6.30755E-15 4.81574E-14
 -1      4267 1.77443E+01-1.18344E-02-3.38414E-04-7.31777E-01-1.43336E-14 7.13525E-14
 -1      4268 1.75855E+01-1.74348E-02 6.91454E-04-7.29891E-01-1.93535E-14 1.88315E-14
 -1      4269 1.75778E+01-2.28637E-02-3.14559E-04-7.28065E-01-1.16771E-14-2.27344E-14
 -1      4270 1.67599E+01 4.87512E-01 4.21919E-02-2.02646E+00 1.44886E-13-5.70238E-14
 -1      4271 1.62403E+01 8.28563E-01 3.48985E-02-1.19914E+00 9.17669E-14-1.85381E-13
 -1      4272 1.60480E+01 5.87154E-01 5.82770E-02-1.81404E+00 8.78030E-14-1.12299E-13
 -1      4273 1.77657E+01 2.05971E-01 2.70021E-04-7.54975E-01-8.65484E-14 5.12491E-15
 -1      4274 1.77820E+01 1.67742E-01-9.55566E-04-7.44341E-01-1.10401E-14 4.88964E-14
 -1      4275 1.78507E+01 2.35922E-01 6.01828E-04-7.33822E-01-3.60861E-14-9.06956E-14
 -1      4276 1.79659E+01 2.20757E-02-3.21793E-04-7.11541E-01 1.33111E-14-9.26019E-14
 -1      4277 1.79700E+01 5.28734E-02-7.91537E-05-7.04413E-01-1.17762E-15-7.66801E-14
 -1      4278 1.75845E+01-2.24476E-02 6.08090E-04-7.27821E-01 1.14373E-14-3.05856E-14
 -1      4279 1.75776E+01-1.73523E-02-3.96101E-05-7.24814E-01 2.51564E-14-4.45007E-14
 -1      4280 1.77673E+01-7.77948E-03-3.55918E-04-7.25703E-01 2.07543E-14-2.41147E-14
 -1      4281 1.77560E+01-2.12091E-02-4.74732E-04-7.29825E-01-2.63799E-14 1.45277E-14
 -1      4282 1.62194E+01 6.78584E-01-3.21223E-01-1.79377E+00-1.81466E-13-2.01034E-13
 -1      4283 1.78453E+01 7.31476E-02 3.15517E-04-7.28907E-01 2.34731E-14 7.96700E-14
 -1      4284 1.78540E+01 4.77160E-02-5.80620E-04-7.24500E-01 6.73418E-14 9.62192E-14
 -1      4285 1.80044E+01 4.00945E-02 1.60650E-04-7.12450E-01 4.24779E-14 3.61327E-14
 -1      4286 1.90203E+01 2.62594E-01-9.41554E-05-6.45874E-01-4.29047E-14-1.71299E-13
 -1      4287 1.89953E+01 1.84257E-01-4.01460E-04-6.32021E-01-5.69408E-14-1.06989E-13
 -1      4288 1.88095E+01 1.62001E-01 3.27106E-04-6.51134E-01-3.85982E-14-7.90437E-14
 -1      4289 1.88227E+01 2.87677E-01-1.11071E-04-6.59646E-01-2.38388E-14-1.42497E-13
 -1      4290 1.81680E+01 8.20589E-02 1.05583E-04-6.96820E-01-3.24728E-14-8.86668E-14
 -1      4291 1.79803E+01 9.45757E-02-2.05104E-04-7.00605E-01-3.16651E-14-1.06480E-13
 -1      4292 1.79811E+01 1.47440E-01 1.47208E-04-6.87097E-01-4.62555E-14-1.32381E-13
 -1      4293 1.70240E+01 1.01959E+00 2.00336E-01-1.07391E+00 7.04090E-14-2.60403E-13
 -1      4294 1.85668E+01 1.61537E-02 3.41620E-04-6.62465E-01-8.01745E-14-9.70143E-14
 -1      4295 1.85373E+01-4.32883E-03-1.73895E-04-6.59388E-01-9.87799E-14-1.18310E-13
 -1      4296 1.85151E+01-1.62052E-02 4.22811E-04-6.60746E-01-6.98124E-14-1.30480E-13
 -1      4297 1.84832E+01-2.12036E-02-1.44763E-04-6.58501E-01-5.41336E-14-1.09036E-13
 -1      4298 1.83613E+01-8.87408E-03-2.68882E-04-6.85064E-01-8.77962E-14-5.65391E-14
 -1      4299 1.84600E+01-1.97091E-02 5.09859E-04-6.58764E-01-6.54067E-14-6.53219E-14
 -1      4300 1.84274E+01-1.29245E-02 2.74797E-04-6.57330E-01-3.83465E-14-3.88824E-14
 -1      4301 1.83142E+01-1.89950E-02-3.40539E-04-6.84551E-01-4.17134E-14-7.65934E-14
 -1      4302 1.82911E+01 4.34769E-03 1.56540E-04-6.73655E-01-4.17166E-14-2.65038E-14
 -1      4303 1.82584E+01 2.16727E-02-3.05168E-04-6.72022E-01-3.84587E-15-3.52927E-14
 -1      4304 1.82370E+01 4.34680E-02-4.69558E-05-6.73182E-01 2.32422E-14-2.09082E-14
 -1      4305 1.82027E+01 6.87746E-02-2.95723E-04-6.71480E-01 3.45035E-14-8.32690E-15
 -1      4306 1.82021E+01 1.55349E-01-2.93147E-04-6.51381E-01 1.02491E-13-4.85457E-14
 -1      4307 1.81568E+01 1.93613E-01-7.27417E-04-6.46879E-01 9.82177E-14-7.20456E-14
 -1      4308 1.80268E+01 2.46626E-01-8.58365E-04-6.76496E-01 3.42502E-14-1.13043E-13
 -1      4309 1.79736E+01 2.91640E-01-1.81404E-03-6.73111E-01 2.50645E-15-9.59428E-14
 -1      4310 1.79260E+01 3.39393E-01-2.14663E-03-6.80622E-01-2.15436E-14-1.35281E-13
 -1      4311 1.78612E+01 3.91834E-01-2.83709E-03-6.75930E-01-4.47829E-14-1.34472E-13
 -1      4312 1.77998E+01 4.45512E-01-3.18107E-03-6.87410E-01-4.63090E-14-9.17261E-14
 -1      4313 1.77187E+01 5.05004E-01-3.93953E-03-6.81991E-01-5.69712E-14-1.10230E-13
 -1      4314 1.76385E+01 5.63650E-01-4.41032E-03-6.99525E-01-9.29578E-14-9.17320E-14
 -1      4315 1.75341E+01 6.30033E-01-5.58953E-03-6.94135E-01-1.16022E-13-1.26713E-13
 -1      4316 1.74292E+01 6.91859E-01-6.44461E-03-7.22048E-01-1.21977E-13-1.04805E-14
 -1      4317 1.72906E+01 7.64499E-01-9.41801E-03-7.18442E-01-7.95392E-14 1.11597E-14
 -1      4318 1.71532E+01 8.25063E-01-1.28751E-02-7.65461E-01-5.13411E-14 3.12211E-14
 -1      4319 1.69615E+01 9.01285E-01-2.41264E-02-7.68023E-01-2.12911E-14 2.78215E-14
 -1      4320 1.67807E+01 9.48006E-01-4.15831E-02-8.52033E-01-5.59149E-14 8.49694E-14
 -1      4321 1.64967E+01 1.01645E+00-8.77561E-02-8.73260E-01-6.68571E-14 6.47642E-14
 -1      4322 1.62579E+01 1.01136E+00-1.61429E-01-1.02968E+00-7.19737E-14-4.98213E-15
 -1      4323 1.57934E+01 1.02734E+00-3.29696E-01-1.11297E+00-1.24321E-13-6.16174E-14
 -1      4324 1.54755E+01 8.57809E-01-5.70361E-01-1.39727E+00-1.33782E-13-7.97140E-14
 -1      4325 1.46519E+01 6.53676E-01-1.07603E+00-1.73473E+00-1.20348E-13-1.64868E-13
 -1      4326 1.41638E+01-9.57102E-02-1.61638E+00-2.16555E+00-1.13465E-13-1.20570E-13
 -1      4327 1.61719E+01-6.67431E-01-9.12285E-01-1.93218E+00-1.11466E-13-1.70308E-13
 -1      4328 1.92900E+01 1.35811E+00 1.08745E+00-5.63693E-01-8.09353E-14-1.94289E-13
 -1      4329 1.88833E+01 1.68566E+00 1.16799E+00-1.20394E+00-5.33462E-14-1.91736E-13
 -1      4330 1.81845E+01 1.51807E+00 7.14319E-01-1.27584E+00-1.22360E-13-2.11831E-13
 -1      4331 1.74715E+01 1.24651E+00 3.39364E-01-1.13329E+00-1.29875E-13-2.08888E-13
 -1      4332 1.83442E+01 4.64483E-01-9.69873E-04-6.54933E-01-6.23160E-14-1.24739E-13
 -1      4333 1.85811E+01 3.52690E-01 1.71338E-03-6.69398E-01-3.74429E-14-1.29834E-13
 -1      4334 1.80825E+01 7.21539E-03 1.84579E-04-7.04428E-01-3.05214E-14-8.61732E-14
 -1      4335 1.82737E+01 2.11319E-02 1.42949E-04-6.93574E-01-3.47007E-14-8.89150E-14
 -1      4336 1.81528E+01-9.56922E-04-7.30937E-04-6.97541E-01-3.40664E-14-1.48091E-15
 -1      4337 1.80142E+01-8.97943E-03 3.17657E-04-7.10341E-01-3.76619E-14 8.98039E-15
 -1      4338 1.78103E+01 1.33290E-01 2.93561E-04-7.39277E-01 4.75689E-14 7.50523E-15
 -1      4339 1.78220E+01 1.01511E-01-6.64138E-04-7.32110E-01 3.33152E-14 5.56996E-14
 -1      4340 1.79122E+01 1.57624E-01 3.69916E-04-7.23244E-01 6.37747E-15 1.91805E-14
 -1      4341 1.80229E+01-1.78809E-02-8.50980E-05-7.08823E-01-4.99948E-14-1.01487E-14
 -1      4342 1.82741E+01 8.88035E-02-6.31260E-04-6.54271E-01 3.66149E-14-3.46603E-14
 -1      4343 1.82362E+01 1.20550E-01-4.92458E-04-6.50851E-01 7.22107E-14 1.35514E-14
 -1      4344 1.80969E+01 1.40435E-01 2.52988E-04-6.83522E-01 4.63672E-14 7.56491E-14
 -1      4345 1.85783E+01 2.73825E-01-7.29741E-05-6.64279E-01-1.15584E-14-1.38274E-13
 -1      4346 1.80549E+01 2.47202E-01-2.23331E-04-6.74679E-01-4.92452E-14-1.19190E-13
 -1      4347 1.80477E+01 3.19816E-01 1.12598E-03-6.60189E-01-3.42968E-14-1.37998E-13
 -1      4348 1.80337E+01 4.01195E-01-4.35816E-04-6.39048E-01-4.12737E-14-1.55812E-13
 -1      4349 1.80755E+01-8.79848E-03 2.30728E-04-7.07765E-01-5.52429E-14-3.22967E-14
 -1      4350 1.84306E+01 3.67739E-02-3.38488E-04-6.79804E-01-7.23334E-14-1.19120E-13
 -1      4351 1.83205E+01 5.57270E-02 4.37671E-04-6.89705E-01-2.98097E-14-1.24335E-13
 -1      4352 1.83304E+01 9.86747E-02-5.13800E-04-6.83992E-01-6.58823E-14-1.37834E-13
 -1      4353 1.86149E+01 4.88524E-02-3.90725E-04-6.58394E-01-7.26501E-14-1.04060E-13
 -1      4354 1.66009E+01 4.40714E-01 3.05732E-02-1.98153E+00 1.38410E-13-1.29742E-13
 -1      4355 1.79365E+01 2.27972E-01 6.11546E-04-7.12177E-01 3.49127E-14-9.79197E-14
 -1      4356 1.82523E+01 2.23693E-01-2.38637E-04-6.79143E-01-5.07271E-14-1.22011E-13
 -1      4357 1.79614E+01 9.20389E-02 6.42047E-05-7.15985E-01 4.45314E-14 3.52664E-14
 -1      4358 1.86413E+01 9.11543E-02 3.79921E-04-6.62097E-01-7.11495E-14-1.06721E-13
 -1      4359 1.86511E+01 1.39462E-01-6.17007E-04-6.60690E-01-4.43611E-14-1.15143E-13
 -1      4360 1.84914E+01 1.22027E-01 2.62468E-04-6.75401E-01-5.12707E-14-1.39487E-13
 -1      4361 1.83418E+01 1.49826E-01 8.64485E-04-6.83699E-01-4.61343E-14-1.41848E-13
 -1      4362 1.86624E+01 1.92318E-01-1.47454E-04-6.65999E-01 3.21268E-15-1.45913E-13
 -1      4363 1.80593E+01 8.41912E-02 3.60617E-04-6.98749E-01 3.34545E-14 6.27214E-14
 -1      4364 1.80465E+01-2.04183E-02 4.43569E-04-7.09203E-01-3.98780E-14-3.71163E-14
 -1      4365 1.80537E+01-1.89368E-02-6.21587E-06-7.07273E-01-4.19078E-14-2.31981E-14
 -1      4366 1.80360E+01 1.13338E-01 5.25569E-04-7.00388E-01 1.32004E-14 8.73157E-14
 -1      4367 1.80006E+01 1.47559E-01-5.26697E-04-7.02116E-01 4.56563E-14 2.90599E-14
 -1      4368 1.71413E+01 1.03848E+00 1.95056E-01-1.14584E+00-1.96926E-14-2.34757E-13
 -1      4369 1.81893E+01 4.33723E-01-1.19306E-03-6.47451E-01-4.48594E-14-1.28826E-13
 -1      4370 1.84169E+01 2.47860E-01-3.24825E-04-6.72932E-01-2.06658E-14-1.27618E-13
 -1      4371 1.79731E+01 1.84432E-01 2.31226E-04-7.06569E-01 1.46103E-14-2.04292E-14
 -1      4372 1.67025E+01 7.70198E-01 4.74554E-02-1.74356E+00 1.54037E-13-2.13586E-13
 -3
    1PSTEP                         3           1           1          
  100CL  101 1.000000000        4372                     0    1           1
 -4  TOSTRAIN    6    1
 -5  EXX         1    4    1    1
 -5  EYY         1    4    2    2
 -5  EZZ         1    4    3    3
 -5  EXY         1    4    1    2
 -5  EYZ         1    4    2    3
 -5  EZX         1    4    3    1
 -1         1 1.56861E-04-7.91420E-06-5.70616E-05 1.14135E-04-9.00354E-18-1.75560E-17
 -1         2 3.92017E-05-1.19325E-04 2.17533E-05 5.44202E-07-1.03183E-17 9.12122E-19
 -1         3 9.51057E-05-2.87110E-05-2.83082E-05-1.44957E-07-2.75649E-18-2.67228E-18
 -1         4 9.50174E-05-2.87985E-05-2.81484E-05 2.46253E-07 1.78259E-18 6.23790E-19
 -1         5 9.89265E-05-1.48419E-05-2.94359E-05 2.74387E-05-1.52175E-19 1.43501E-17
 -1         6 1.64165E-04 2.94162E-10-4.98327E-05-5.95647E-05-6.40780E-19 2.00625E-17
 -1         7 1.01008E-04-6.24908E-07-4.34813E-05-3.17934E-05-9.17972E-20 7.33673E-18
 -1         8 9.24538E-05 9.08896E-08-3.94691E-05-2.16498E-05-2.41351E-19 2.52622E-18
 -1         9 8.75195E-05 9.21186E-08-3.73770E-05-1.66363E-05-2.45004E-19-4.57993E-19
 -1        10 8.40990E-05 5.11985E-08-3.58894E-05-1.29347E-05-1.87777E-19-2.15353E-18
 -1        11 8.13338E-05 2.88115E-08-3.47000E-05-9.85495E-06-1.74912E-19-3.16782E-18
 -1        12 7.89471E-05 1.53549E-08-3.36790E-05-7.18886E-06-1.06144E-19-3.74742E-18
 -1        13 7.67079E-05 8.02573E-09-3.27226E-05-4.71222E-06-9.98440E-20-4.16286E-18
 -1        14 7.45805E-05 3.59936E-09-3.18131E-05-2.38173E-06-6.11717E-20-4.47460E-18
 -1        15 7.25196E-05 9.82006E-10-3.09303E-05-1.29089E-07-4.15840E-20-4.70541E-18
 -1        16 7.05006E-05-8.70529E-11-3.00638E-05 2.10334E-06-2.24993E-21-4.90648E-18
 -1        17 6.85172E-05 6.70330E-10-2.92114E-05 4.37060E-06 1.24408E-20-5.04396E-18
 -1        18 6.66176E-05 5.65697E-09-2.83964E-05 6.69070E-06 3.41460E-20-5.03453E-18
 -1        19 6.47966E-05 1.88521E-08-2.76223E-05 9.21952E-06 8.73767E-20-4.78407E-18
 -1        20 6.32558E-05 5.12539E-08-2.69881E-05 1.20383E-05 1.36531E-19-4.02544E-18
 -1        21 6.24793E-05 1.26673E-07-2.67111E-05 1.54346E-05 1.99186E-19-2.04978E-18
 -1        22 6.46910E-05-3.14143E-09-2.74113E-05 2.05960E-05 5.49513E-20 2.57947E-18
 -1        23 1.29091E-04-4.35577E-05-4.02830E-05-4.79760E-06-3.61683E-19 1.75750E-17
 -1        24 1.06718E-04-3.18600E-05-3.32589E-05 4.31433E-07-1.23521E-19 1.53779E-17
 -1        25 1.02259E-04-3.08014E-05-3.08779E-05 3.96102E-07-4.72254E-20 1.24809E-17
 -1        26 1.00442E-04-3.02204E-05-3.01130E-05 2.04638E-07-1.65114E-20 1.04120E-17
 -1        27 9.97418E-05-2.99785E-05-2.98886E-05 1.33641E-07-2.64189E-20 9.19821E-18
 -1        28 9.95220E-05-2.98874E-05-2.98345E-05 9.14314E-08 1.21307E-19 8.38258E-18
 -1        29 9.95001E-05-2.98666E-05-2.98355E-05 6.42274E-08-1.38300E-19 8.05274E-18
 -1        30 9.95325E-05-2.98685E-05-2.98486E-05 4.52412E-08 3.04095E-20 6.71981E-18
 -1        31 9.95423E-05-2.98672E-05-2.98533E-05 3.12368E-08-1.10036E-19 5.53680E-18
 -1        32 9.94901E-05-2.98491E-05-2.98390E-05 2.05631E-08-7.52176E-21 5.05051E-18
 -1        33 9.93595E-05-2.98086E-05-2.98011E-05 1.22994E-08-1.27644E-20 4.30760E-18
 -1        34 9.91489E-05-2.97448E-05-2.97392E-05 5.88425E-09-1.73412E-20 4.21243E-18
 -1        35 9.88668E-05-2.96601E-05-2.96558E-05 9.52343E-10-3.33559E-20 4.07916E-18
 -1        36 9.85289E-05-2.95590E-05-2.95558E-05-2.73863E-09-1.85263E-19 4.34400E-18
 -1        37 9.81561E-05-2.94477E-05-2.94453E-05-5.34074E-09-1.60015E-19 4.74380E-18
 -1        38 9.77738E-05-2.93337E-05-2.93321E-05-6.93237E-09-2.05484E-19 3.62269E-18
 -1        39 9.74112E-05-2.92258E-05-2.92248E-05-7.53111E-09-2.64125E-19 1.87394E-18
 -1        40 9.71011E-05-2.91338E-05-2.91335E-05-7.11382E-09-3.95361E-21 1.66403E-18
 -1        41 9.68790E-05-2.90683E-05-2.90685E-05-5.65795E-09-8.98880E-20 7.92243E-19
 -1        42 9.67825E-05-2.90406E-05-2.90411E-05-3.22016E-09 2.11854E-19 8.14042E-19
 -1        43 9.68488E-05-2.90618E-05-2.90622E-05-5.89165E-11-1.56663E-19 1.99328E-18
 -1        44 9.71126E-05-2.91426E-05-2.91421E-05 3.24468E-09-1.82101E-19 2.55079E-18
 -1        45 9.76054E-05-2.92923E-05-2.92903E-05 5.85370E-09-1.64722E-19 1.98172E-18
 -1        46 9.83594E-05-2.95206E-05-2.95180E-05 7.33044E-09-1.55893E-20 7.00159E-19
 -1        47 9.94236E-05-2.98419E-05-2.98422E-05 9.27309E-09-8.17205E-20 1.54268E-18
 -1        48 1.00890E-04-3.02827E-05-3.02930E-05 1.72790E-08 1.57144E-19 4.07823E-18
 -1        49 1.02910E-04-3.08873E-05-3.09148E-05 4.01130E-08 3.03105E-19 2.66157E-18
 -1        50 1.05665E-04-3.17092E-05-3.17544E-05 8.36715E-08 2.17603E-19 9.83339E-19
 -1        51 1.09254E-04-3.27779E-05-3.28294E-05 1.42719E-07 2.56430E-20 2.32058E-18
 -1        52 1.13531E-04-3.40496E-05-3.40827E-05 1.97774E-07-1.45242E-19 2.70860E-18
 -1        53 1.17943E-04-3.53611E-05-3.53379E-05 2.16447E-07-3.52620E-19 1.73362E-18
 -1        54 1.21434E-04-3.64015E-05-3.62754E-05 1.53327E-07 6.26081E-19 3.51642E-18
 -1        55 1.22485E-04-3.67215E-05-3.64596E-05-4.49350E-08-9.61912E-20 6.91810E-18
 -1        56 1.19462E-04-3.58325E-05-3.54686E-05-4.02733E-07-6.06323E-19 1.75635E-18
 -1        57 1.11524E-04-3.34696E-05-3.31646E-05-8.34055E-07 4.90409E-19 8.06269E-20
 -1        58 9.99304E-05-2.99894E-05-2.99947E-05-1.08533E-06-9.37333E-20 7.26225E-19
 -1        59 8.86896E-05-2.65901E-05-2.70475E-05-8.56502E-07-2.07050E-19-9.98440E-19
 -1        60 8.30175E-05-2.48660E-05-2.55925E-05-1.30044E-07 6.21411E-20-2.32273E-18
 -1        61 8.58542E-05-2.57294E-05-2.62987E-05 6.79890E-07 4.03277E-19-2.60944E-18
 -1        62 9.54627E-05-2.86427E-05-2.87674E-05 1.06586E-06-8.58014E-20-3.66966E-18
 -1        63 1.06826E-04-3.20616E-05-3.18121E-05 9.17543E-07 1.66899E-19-5.94352E-19
 -1        64 1.15283E-04-3.45839E-05-3.42066E-05 4.96416E-07-1.27065E-19 3.45759E-18
 -1        65 1.18773E-04-3.56119E-05-3.53008E-05 9.20852E-08-7.16596E-19 2.73343E-18
 -1        66 1.17658E-04-3.52708E-05-3.50901E-05-1.65762E-07 6.34481E-20 2.28123E-19
 -1        67 1.13457E-04-3.40185E-05-3.39491E-05-2.81941E-07-2.42635E-19-1.95175E-19
 -1        68 1.07822E-04-3.23430E-05-3.23504E-05-3.04980E-07 1.29527E-18-8.35214E-19
 -1        69 1.02138E-04-3.06502E-05-3.07212E-05-2.67177E-07-6.90256E-19-1.47592E-18
 -1        70 9.75705E-05-2.92752E-05-2.94115E-05-1.39614E-07 7.09649E-19-6.14569E-19
 -1        71 9.51511E-05-2.84876E-05-2.86373E-05 7.07134E-08-1.19418E-18 1.41276E-18
 -1        72 6.89774E-05-2.05852E-05-2.32763E-05-1.23074E-06 3.03119E-19 1.21375E-17
 -1        73 6.20537E-05-1.84235E-05-1.94716E-05-2.30124E-07 1.40993E-19 7.87751E-18
 -1        74 5.99671E-05-1.79666E-05-1.81785E-05-9.52117E-08 7.91786E-20 4.78858E-18
 -1        75 5.98008E-05-1.79592E-05-1.79628E-05-7.81068E-08 1.11535E-19 2.65595E-18
 -1        76 6.05431E-05-1.81809E-05-1.81570E-05-6.64223E-08 4.98792E-20 1.06890E-18
 -1        77 6.17225E-05-1.85282E-05-1.85091E-05-5.70442E-08 7.92904E-20-4.18355E-20
 -1        78 6.31044E-05-1.89382E-05-1.89241E-05-4.92853E-08-3.78948E-20-7.22072E-19
 -1        79 6.45595E-05-1.93722E-05-1.93605E-05-4.24232E-08 6.54971E-20-1.37450E-18
 -1        80 6.60130E-05-1.98068E-05-1.97965E-05-3.61398E-08-2.43136E-20-2.12956E-18
 -1        81 6.74235E-05-2.02292E-05-2.02199E-05-3.03559E-08 8.80996E-20-2.53926E-18
 -1        82 6.87711E-05-2.06330E-05-2.06248E-05-2.50673E-08-7.00427E-20-3.10238E-18
 -1        83 7.00510E-05-2.10167E-05-2.10096E-05-2.02782E-08 9.90368E-20-3.55641E-18
 -1        84 7.12691E-05-2.13820E-05-2.13763E-05-1.59846E-08 6.83729E-21-4.41281E-18
 -1        85 7.24396E-05-2.17333E-05-2.17288E-05-1.21786E-08-2.71206E-20-4.24101E-18
 -1        86 7.35830E-05-2.20765E-05-2.20735E-05-8.86372E-09 1.86249E-19-5.27839E-18
 -1        87 7.47255E-05-2.24195E-05-2.24181E-05-6.07503E-09-8.94400E-20-5.53011E-18
 -1        88 7.58984E-05-2.27717E-05-2.27721E-05-3.90324E-09 8.81501E-20-5.63156E-18
 -1        89 7.71383E-05-2.31439E-05-2.31465E-05-2.51930E-09-5.28119E-21-6.88330E-18
 -1        90 7.84862E-05-2.35485E-05-2.35536E-05-2.19443E-09-7.85205E-20-6.78805E-18
 -1        91 7.99870E-05-2.39987E-05-2.40069E-05-3.30730E-09 1.37629E-19-7.08045E-18
 -1        92 8.16871E-05-2.45085E-05-2.45200E-05-6.33210E-09-2.46078E-19-6.22872E-18
 -1        93 8.36305E-05-2.50910E-05-2.51057E-05-1.18238E-08 3.37699E-19-5.29012E-18
 -1        94 8.58525E-05-2.57566E-05-2.57738E-05-2.04339E-08-5.33033E-19-5.73636E-18
 -1        95 8.83696E-05-2.65104E-05-2.65276E-05-3.28919E-08-1.13491E-19-3.29878E-18
 -1        96 9.11622E-05-2.73469E-05-2.73592E-05-4.92684E-08 6.21251E-19-2.90421E-18
 -1        97 9.41470E-05-2.82421E-05-2.82415E-05-6.53466E-08-2.66430E-19-3.78594E-18
 -1        98 9.71510E-05-2.91453E-05-2.91264E-05-7.04223E-08-1.84573E-19-3.60425E-18
 -1        99 9.99540E-05-2.99867E-05-2.99582E-05-6.19024E-08 2.70082E-19-4.33588E-18
 -1       100 1.02412E-04-3.07164E-05-3.07001E-05-5.77496E-08-4.79757E-19-4.19529E-18
 -1       101 1.04467E-04-3.13232E-05-3.13128E-05-7.56471E-08 4.63315E-19-5.07269E-18
 -1       102 1.05936E-04-3.17626E-05-3.17190E-05-9.92397E-08-2.08876E-20-5.75138E-18
 -1       103 1.06322E-04-3.18898E-05-3.17760E-05-8.86485E-08 3.12982E-19-3.52308E-18
 -1       104 1.04917E-04-3.14909E-05-3.12992E-05-7.94178E-09-6.37830E-19 1.00949E-19
 -1       105 1.01151E-04-3.03879E-05-3.01591E-05 1.57341E-07 1.59995E-19-1.63994E-19
 -1       106 9.50870E-05-2.85818E-05-2.84199E-05 3.71226E-07 2.04987E-19-3.90572E-18
 -1       107 8.78936E-05-2.64030E-05-2.64355E-05 5.23544E-07 3.51241E-19-6.07047E-18
 -1       108 8.17715E-05-2.45189E-05-2.47846E-05 4.91004E-07 4.25063E-19-6.43528E-18
 -1       109 7.89908E-05-2.36449E-05-2.40317E-05 2.50333E-07-7.67263E-19-3.31029E-18
 -1       110 8.05849E-05-2.41063E-05-2.44653E-05-7.57312E-08 1.57398E-19-1.81481E-18
 -1       111 8.57773E-05-2.56832E-05-2.58602E-05-3.38207E-07-2.17412E-19-3.77615E-18
 -1       112 9.25405E-05-2.77464E-05-2.77129E-05-4.42929E-07-1.10145E-18-2.73406E-18
 -1       113 9.86742E-05-2.96144E-05-2.94380E-05-3.94023E-07 7.18900E-19-2.31359E-18
 -1       114 1.02713E-04-3.08397E-05-3.06161E-05-2.59032E-07 4.12316E-19-6.78150E-18
 -1       115 1.04205E-04-3.12889E-05-3.10919E-05-1.07591E-07-2.21368E-19-9.40093E-18
 -1       116 1.03488E-04-3.10694E-05-3.09357E-05 1.86537E-08 1.34622E-19-6.48849E-18
 -1       117 1.01320E-04-3.04124E-05-3.03549E-05 1.04979E-07-1.63580E-19-5.54365E-18
 -1       118 9.86052E-05-2.95881E-05-2.96114E-05 1.46818E-07 7.39856E-19-6.12505E-18
 -1       119 9.62648E-05-2.88734E-05-2.89629E-05 1.25346E-07 1.24549E-19-5.85018E-18
 -1       120 9.51229E-05-2.84865E-05-2.85735E-05-2.06483E-08 1.06043E-18-6.61678E-18
 -1       121 9.52465E-05-2.85962E-05-2.85866E-05-7.74526E-08-6.27580E-18-1.60838E-19
 -1       122 9.48797E-05-2.74305E-05-2.90023E-05 4.59554E-08-2.35862E-18 4.21135E-19
 -1       123 9.40896E-05-2.47932E-05-2.97806E-05 1.24325E-07 4.26977E-19-3.02768E-19
 -1       124 9.29633E-05-2.10239E-05-3.08889E-05 1.79542E-07 3.01570E-19 5.98419E-19
 -1       125 9.16087E-05-1.64747E-05-3.22245E-05 2.20517E-07 6.81238E-18-1.14943E-19
 -1       126 9.01923E-05-1.17090E-05-3.36144E-05 2.35311E-07 7.59934E-18-7.83619E-20
 -1       127 8.88631E-05-7.23945E-06-3.49064E-05 2.10905E-07 5.42943E-18-3.73836E-19
 -1       128 8.78765E-05-3.91967E-06-3.58571E-05 1.38599E-07 1.99247E-18 2.18586E-19
 -1       129 8.74378E-05-2.44293E-06-3.62735E-05 2.79226E-08 1.05600E-18 1.10321E-18
 -1       130 8.76641E-05-3.20190E-06-3.60477E-05-9.65911E-08 6.21907E-19-1.36898E-18
 -1       131 8.85388E-05-6.14702E-06-3.51942E-05-2.08225E-07-8.95881E-18-1.40179E-18
 -1       132 8.98959E-05-1.07103E-05-3.38743E-05-2.74491E-07-1.10328E-17 2.01614E-18
 -1       133 9.15454E-05-1.62550E-05-3.22728E-05-2.97881E-07-3.59665E-18-9.93200E-19
 -1       134 9.31839E-05-2.17777E-05-3.06895E-05-2.84372E-07 1.61489E-18-1.30746E-19
 -1       135 9.45033E-05-2.61614E-05-2.94149E-05-2.22196E-07 5.76598E-19-7.15267E-19
 -1       136 9.51216E-05-2.83841E-05-2.86455E-05 1.83603E-07-3.51850E-19 4.73915E-19
 -1       137 2.80674E-05-9.44959E-05 1.70471E-05-2.50270E-05 6.33771E-18 2.31965E-18
 -1       138 8.78058E-06-3.78576E-05 4.15265E-06-1.95643E-05 1.93708E-17 8.36805E-18
 -1       139 1.09055E-05 1.37672E-05-1.43766E-05 2.19259E-05 1.57853E-17 1.20342E-17
 -1       140 5.43284E-05 2.96164E-05-3.47173E-05 7.73018E-05 1.32167E-17 1.40641E-17
 -1       141 1.38940E-04 2.37982E-06-5.43267E-05 1.14157E-04 5.82145E-18 8.70199E-18
 -1       142 2.37210E-04-4.90554E-05-7.04115E-05 1.05285E-04 2.30753E-18 7.96677E-18
 -1       143 3.03305E-04-8.97921E-05-7.91872E-05 4.52246E-05 1.34200E-18 5.73685E-18
 -1       144 3.02095E-04-9.06086E-05-7.86276E-05-3.89178E-05 5.51895E-21-1.68051E-18
 -1       145 2.36190E-04-5.17046E-05-6.92372E-05-9.90802E-05 1.82451E-18-3.40084E-18
 -1       146 1.38327E-04-8.03240E-07-5.26878E-05-1.09601E-04 3.22720E-18-4.50706E-18
 -1       147 5.39882E-05 2.65287E-05-3.29363E-05-7.40902E-05 4.67350E-18-5.36172E-18
 -1       148 1.02991E-05 1.02235E-05-1.24093E-05-1.88475E-05 6.02452E-18-4.42321E-18
 -1       149 9.62139E-06-4.45029E-05 6.68832E-06 2.31008E-05 9.26993E-18-3.15266E-18
 -1       150 2.95106E-05-9.73764E-05 1.79680E-05 2.28556E-05 1.16065E-17-2.59785E-18
 -1       151 3.72376E-05-1.15310E-04 2.13862E-05-4.84832E-06 3.94934E-18-1.89000E-18
 -1       152 2.38208E-05-8.44192E-05 1.52233E-05-2.62794E-05-3.36759E-18-9.64400E-19
 -1       153 6.28646E-06-2.83904E-05 1.82160E-06-1.68137E-05-7.27474E-18-3.04678E-18
 -1       154 1.37382E-05 1.69624E-05-1.65540E-05 2.73296E-05-8.55757E-18-7.39629E-18
 -1       155 6.48438E-05 2.55323E-05-3.71358E-05 8.22570E-05-1.09653E-17-1.33899E-17
 -1       156 2.53089E-04-5.97756E-05-7.19097E-05 9.56818E-05-3.65701E-18-9.87259E-18
 -1       157 3.13080E-04-9.58868E-05-7.98542E-05 2.76016E-05-3.44292E-19 2.81776E-18
 -1       158 3.02885E-04-8.94571E-05-7.86014E-05-5.18993E-05-2.70916E-18 1.41702E-17
 -1       159 2.31446E-04-4.67538E-05-6.89560E-05-1.06763E-04-5.79434E-18 1.67933E-17
 -1       160 1.31939E-04 3.90847E-06-5.24508E-05-1.11193E-04-2.12923E-18 6.68563E-18
 -1       161 5.05378E-05 2.75302E-05-3.27635E-05-7.17910E-05-6.16132E-18 4.24321E-18
 -1       162 9.68742E-06 8.38114E-06-1.21980E-05-1.61008E-05-1.72757E-17 1.12727E-17
 -1       163 9.41652E-06-4.35050E-05 5.84797E-06 2.34100E-05-1.92132E-17 1.00287E-17
 -1       164 2.86387E-05-9.65739E-05 1.75308E-05 2.58040E-05-1.94153E-17 2.70569E-18
 -1       165 1.04538E-04-1.38055E-05-3.91108E-05-2.46336E-05-2.33035E-18 4.35748E-18
 -1       166 9.56647E-05-9.15732E-06-3.72573E-05-1.92700E-05-2.61725E-18 1.24264E-18
 -1       167 9.02369E-05-6.81226E-06-3.58752E-05-1.52844E-05-2.46367E-18-8.26850E-19
 -1       168 8.64176E-05-5.58569E-06-3.47303E-05-1.19888E-05-2.16961E-18-2.04205E-18
 -1       169 8.34186E-05-4.86570E-06-3.37359E-05-9.18713E-06-1.80465E-18-2.69375E-18
 -1       170 8.07938E-05-4.40584E-06-3.27982E-05-6.62846E-06-1.40030E-18-3.18960E-18
 -1       171 7.84311E-05-4.12326E-06-3.19011E-05-4.25983E-06-1.00163E-18-3.51559E-18
 -1       172 7.62404E-05-3.97094E-06-3.10246E-05-2.00450E-06-6.69755E-19-3.72563E-18
 -1       173 7.41739E-05-3.92711E-06-3.01568E-05 1.98978E-07-2.87214E-19-3.98279E-18
 -1       174 7.22129E-05-3.98754E-06-2.92914E-05 2.40562E-06 9.67024E-20-4.15132E-18
 -1       175 7.03991E-05-4.16166E-06-2.84433E-05 4.63275E-06 5.05645E-19-4.24887E-18
 -1       176 6.87301E-05-4.49843E-06-2.75925E-05 7.02318E-06 1.01260E-18-4.10089E-18
 -1       177 6.74048E-05-5.10829E-06-2.67827E-05 9.63384E-06 1.54737E-18-3.58875E-18
 -1       178 6.68995E-05-6.32806E-06-2.60764E-05 1.25820E-05 2.01810E-18-2.39802E-18
 -1       179 6.87781E-05-9.53893E-06-2.55408E-05 1.57481E-05 2.27670E-18 2.05829E-19
 -1       180 7.35771E-05-1.78978E-05-2.47159E-05 1.34704E-05 1.99081E-18 3.95803E-18
 -1       181 1.15697E-04-3.07134E-05-3.64163E-05-1.35421E-05-1.86395E-18 7.46376E-18
 -1       182 1.08471E-04-3.16762E-05-3.29521E-05-5.64440E-06-1.76601E-18 6.23109E-18
 -1       183 1.04086E-04-3.08098E-05-3.13532E-05-2.57334E-06-1.35719E-18 5.28274E-18
 -1       184 1.01858E-04-3.03789E-05-3.05965E-05-1.22062E-06-9.61066E-19 4.36817E-18
 -1       185 1.00600E-04-3.00990E-05-3.01959E-05-5.74681E-07-6.33477E-19 3.75771E-18
 -1       186 9.98717E-05-2.99299E-05-2.99663E-05-2.68169E-07-4.43921E-19 3.08420E-18
 -1       187 9.94205E-05-2.98220E-05-2.98240E-05-1.43430E-07-6.07968E-19 2.90271E-18
 -1       188 9.91034E-05-2.97419E-05-2.97246E-05-1.19549E-07-6.39352E-19 2.84630E-18
 -1       189 9.88380E-05-2.96698E-05-2.96429E-05-1.50439E-07-2.79251E-19 2.78500E-18
 -1       190 9.85778E-05-2.95942E-05-2.95644E-05-2.07772E-07-4.87418E-19 2.61480E-18
 -1       191 9.82988E-05-2.95096E-05-2.94813E-05-2.73199E-07-6.04737E-19 1.56030E-18
 -1       192 9.79920E-05-2.94144E-05-2.93906E-05-3.34348E-07-2.07195E-19 8.48823E-19
 -1       193 9.76588E-05-2.93096E-05-2.92927E-05-3.82503E-07 1.39200E-19 9.18138E-19
 -1       194 9.73079E-05-2.91982E-05-2.91898E-05-4.11166E-07-2.75155E-20 1.08933E-18
 -1       195 9.69538E-05-2.90847E-05-2.90864E-05-4.15126E-07-7.09152E-19 1.21068E-18
 -1       196 9.66151E-05-2.89748E-05-2.89880E-05-3.89908E-07-1.16960E-18 9.36040E-19
 -1       197 9.63147E-05-2.88755E-05-2.89014E-05-3.31558E-07-4.65249E-19 4.15204E-19
 -1       198 9.60784E-05-2.87947E-05-2.88344E-05-2.36753E-07-1.41312E-19 3.51121E-19
 -1       199 9.59349E-05-2.87414E-05-2.87953E-05-1.03261E-07-4.99952E-19-4.48816E-20
 -1       200 9.59148E-05-2.87255E-05-2.87930E-05 6.94185E-08 2.76706E-19-2.37098E-19
 -1       201 9.60496E-05-2.87569E-05-2.88367E-05 2.79707E-07 2.22911E-19-2.33650E-19
 -1       202 9.63703E-05-2.88451E-05-2.89357E-05 5.25120E-07-3.51515E-19 4.22913E-19
 -1       203 9.69079E-05-2.89970E-05-2.91001E-05 8.06891E-07-2.61583E-20 1.28866E-18
 -1       204 9.76959E-05-2.92169E-05-2.93426E-05 1.13925E-06 2.06399E-19 1.87467E-18
 -1       205 9.87783E-05-2.95099E-05-2.96801E-05 1.55892E-06 5.99066E-19 1.76654E-18
 -1       206 1.00223E-04-2.98948E-05-3.01346E-05 2.11848E-06-8.62639E-19 9.19826E-19
 -1       207 1.02124E-04-3.04174E-05-3.07269E-05 2.84153E-06-2.80830E-19 9.24527E-19
 -1       208 1.04561E-04-3.11422E-05-3.14642E-05 3.64834E-06 8.99724E-21 8.41728E-19
 -1       209 1.07516E-04-3.21109E-05-3.23207E-05 4.30507E-06 3.34698E-19 7.88047E-19
 -1       210 1.10780E-04-3.32965E-05-3.32180E-05 4.43794E-06-5.64788E-19 1.41145E-18
 -1       211 1.13904E-04-3.45795E-05-3.40128E-05 3.59649E-06 6.42071E-19 2.33120E-18
 -1       212 1.16195E-04-3.57203E-05-3.45085E-05 1.37085E-06 1.34340E-18 1.96394E-18
 -1       213 1.16793E-04-3.63115E-05-3.45064E-05-2.33926E-06-2.63981E-18 1.64646E-18
 -1       214 1.14901E-04-3.57908E-05-3.39076E-05-6.84559E-06 2.50920E-19 2.70000E-18
 -1       215 1.10344E-04-3.37326E-05-3.28313E-05-1.02795E-05-3.43247E-20 1.43036E-18
 -1       216 1.04312E-04-3.05052E-05-3.16390E-05-1.01207E-05-1.14919E-18 1.22100E-18
 -1       217 9.95004E-05-2.77096E-05-3.07958E-05-5.16571E-06-2.27892E-18-1.98240E-18
 -1       218 9.86215E-05-2.72308E-05-3.06257E-05 2.54056E-06 3.06044E-19-2.03327E-18
 -1       219 1.02129E-04-2.94245E-05-3.11701E-05 8.61526E-06-1.90285E-20-1.54875E-18
 -1       220 1.07691E-04-3.26197E-05-3.21736E-05 1.00499E-05 1.57580E-18-8.32640E-19
 -1       221 1.12354E-04-3.49520E-05-3.31747E-05 7.27555E-06 1.45012E-18-1.18207E-18
 -1       222 1.14458E-04-3.57181E-05-3.37580E-05 2.70634E-06 4.37099E-19-1.67237E-18
 -1       223 1.13863E-04-3.51948E-05-3.37332E-05-1.48274E-06-1.56232E-18 1.03798E-18
 -1       224 1.11266E-04-3.39516E-05-3.31510E-05-4.27687E-06 4.74904E-19 1.56932E-18
 -1       225 1.07568E-04-3.24380E-05-3.22074E-05-5.56411E-06-8.22036E-19 1.62726E-18
 -1       226 1.03572E-04-3.09185E-05-3.11385E-05-5.58165E-06-1.84345E-19-1.60704E-18
 -1       227 9.99144E-05-2.95314E-05-3.01599E-05-4.55744E-06 2.13843E-19-2.64340E-18
 -1       228 9.69822E-05-2.83655E-05-2.94036E-05-2.65424E-06 1.61368E-18-2.51180E-18
 -1       229 6.94365E-05-1.98333E-05-2.13917E-05 4.97483E-06 1.88469E-18 3.25312E-18
 -1       230 6.61179E-05-1.94111E-05-1.99950E-05 1.55102E-06 1.51032E-18 2.04069E-18
 -1       231 6.49271E-05-1.92887E-05-1.95253E-05 1.01377E-07 1.07802E-18 1.03648E-18
 -1       232 6.48318E-05-1.93572E-05-1.94684E-05-6.14102E-07 7.97133E-19 3.87263E-19
 -1       233 6.53433E-05-1.95576E-05-1.96118E-05-9.82869E-07 6.51382E-19-4.42194E-20
 -1       234 6.61900E-05-1.98382E-05-1.98596E-05-1.16394E-06 3.51615E-19-5.79546E-19
 -1       235 6.72124E-05-2.01607E-05-2.01620E-05-1.23630E-06 3.77872E-19-8.01055E-19
 -1       236 6.83146E-05-2.05006E-05-2.04900E-05-1.24468E-06 4.32376E-19-1.08679E-18
 -1       237 6.94395E-05-2.08428E-05-2.08262E-05-1.21714E-06 2.55311E-19-1.71622E-18
 -1       238 7.05546E-05-2.11789E-05-2.11605E-05-1.17247E-06 1.77109E-19-1.64699E-18
 -1       239 7.16446E-05-2.15052E-05-2.14880E-05-1.12379E-06 4.60755E-19-1.90605E-18
 -1       240 7.27062E-05-2.18213E-05-2.18076E-05-1.08060E-06 2.40844E-19-1.97646E-18
 -1       241 7.37450E-05-2.21293E-05-2.21208E-05-1.05012E-06 1.04691E-19-2.34196E-18
 -1       242 7.47735E-05-2.24331E-05-2.24313E-05-1.03817E-06 3.31064E-19-2.49724E-18
 -1       243 7.58099E-05-2.27382E-05-2.27446E-05-1.04981E-06-1.94088E-20-2.38019E-18
 -1       244 7.68771E-05-2.30515E-05-2.30675E-05-1.08971E-06 4.23968E-19-3.08372E-18
 -1       245 7.80024E-05-2.33813E-05-2.34083E-05-1.16222E-06 3.96835E-19-3.10390E-18
 -1       246 7.92167E-05-2.37370E-05-2.37761E-05-1.27108E-06-1.87485E-19-3.22428E-18
 -1       247 8.05531E-05-2.41288E-05-2.41808E-05-1.41876E-06-1.09525E-19-2.89310E-18
 -1       248 8.20456E-05-2.45677E-05-2.46323E-05-1.60528E-06-9.74427E-19-2.58408E-18
 -1       249 8.37255E-05-2.50640E-05-2.51396E-05-1.82659E-06-5.19036E-19-1.96174E-18
 -1       250 8.56166E-05-2.56267E-05-2.57089E-05-2.07241E-06-3.61159E-19-1.56421E-18
 -1       251 8.77285E-05-2.62615E-05-2.63418E-05-2.32283E-06-6.49258E-19-2.42902E-18
 -1       252 9.00479E-05-2.69695E-05-2.70322E-05-2.54225E-06 8.05806E-20-1.73232E-18
 -1       253 9.25262E-05-2.77431E-05-2.77640E-05-2.67132E-06-1.32320E-20-6.48269E-19
 -1       254 9.50595E-05-2.85480E-05-2.85063E-05-2.63454E-06-4.68794E-20-2.94711E-19
 -1       255 9.74827E-05-2.93080E-05-2.92207E-05-2.41541E-06 2.21287E-19-1.08731E-18
 -1       256 9.96553E-05-2.99653E-05-2.98735E-05-2.10181E-06-6.02642E-19-1.22920E-18
 -1       257 1.01514E-04-3.05439E-05-3.04240E-05-1.72750E-06 9.09054E-19-2.48857E-18
 -1       258 1.02947E-04-3.10616E-05-3.08139E-05-1.12004E-06 7.94639E-20-3.15176E-18
 -1       259 1.03652E-04-3.14166E-05-3.09588E-05-3.21380E-08-1.48870E-18-2.03009E-18
 -1       260 1.03211E-04-3.14214E-05-3.07626E-05 1.61854E-06-1.20984E-18-8.70819E-19
 -1       261 1.01293E-04-3.08812E-05-3.01682E-05 3.59470E-06 1.37428E-18-1.36652E-18
 -1       262 9.79105E-05-2.96888E-05-2.92318E-05 5.25075E-06 1.44266E-18-2.00704E-18
 -1       263 9.36969E-05-2.80019E-05-2.81608E-05 5.64752E-06 8.98123E-19-2.56647E-18
 -1       264 8.99598E-05-2.63836E-05-2.72675E-05 4.12909E-06-9.52892E-19-1.42458E-18
 -1       265 8.81534E-05-2.55657E-05-2.68467E-05 1.01612E-06-2.51300E-18-2.55830E-19
 -1       266 8.89943E-05-2.59165E-05-2.70531E-05-2.42166E-06 5.07793E-19-6.68206E-19
 -1       267 9.20829E-05-2.72346E-05-2.77919E-05-4.80571E-06 3.05494E-20 8.20312E-19
 -1       268 9.61912E-05-2.89265E-05-2.88143E-05-5.40226E-06-8.28736E-20 4.13180E-19
 -1       269 9.99318E-05-3.03708E-05-2.97966E-05-4.37791E-06 9.73302E-19-9.31491E-19
 -1       270 1.02360E-04-3.12142E-05-3.04812E-05-2.46316E-06 1.48766E-18 6.76711E-19
 -1       271 1.03164E-04-3.14033E-05-3.07513E-05-4.37969E-07 6.12446E-19-1.36498E-19
 -1       272 1.02532E-04-3.10715E-05-3.06275E-05 1.16543E-06-3.97272E-19-1.46810E-18
 -1       273 1.00932E-04-3.04180E-05-3.02247E-05 2.09858E-06-8.42467E-20-1.09320E-18
 -1       274 9.89248E-05-2.96390E-05-2.97013E-05 2.29665E-06 5.29810E-19-1.71432E-18
 -1       275 9.70492E-05-2.89017E-05-2.92131E-05 1.78258E-06 2.33765E-19-2.18707E-18
 -1       276 9.57139E-05-2.84086E-05-2.88422E-05 7.35837E-07 6.06588E-20-2.77562E-18
 -1       277 9.53416E-05-2.75348E-05-2.90532E-05 1.44637E-06-5.03689E-19 2.61603E-18
 -1       278 9.47802E-05-2.58615E-05-2.95299E-05 2.72423E-06 4.97166E-19 6.15898E-19
 -1       279 9.39843E-05-2.34977E-05-3.02039E-05 3.81371E-06 9.85711E-19-1.25999E-19
 -1       280 9.29904E-05-2.05445E-05-3.10464E-05 4.57749E-06 1.63263E-18 2.35155E-18
 -1       281 9.18567E-05-1.72942E-05-3.19586E-05 4.85602E-06 3.13177E-19-2.68214E-20
 -1       282 9.06633E-05-1.40159E-05-3.28573E-05 4.47260E-06 5.40536E-19-2.09828E-18
 -1       283 8.96208E-05-1.12689E-05-3.35922E-05 3.31775E-06 2.92786E-19-1.39161E-18
 -1       284 8.89462E-05-9.56677E-06-3.40353E-05 1.47690E-06 1.08542E-18-1.13860E-18
 -1       285 8.88103E-05-9.28989E-06-3.40963E-05-7.50045E-07-5.20831E-19-1.26019E-18
 -1       286 8.92696E-05-1.05541E-05-3.37493E-05-2.92571E-06-1.79796E-18-4.94375E-18
 -1       287 9.02200E-05-1.31063E-05-3.30583E-05-4.59323E-06-1.72379E-18-1.23113E-18
 -1       288 9.15156E-05-1.65925E-05-3.21139E-05-5.50475E-06-1.27951E-18 2.42910E-18
 -1       289 9.29244E-05-2.03908E-05-3.10841E-05-5.48847E-06-5.26252E-21 2.56421E-18
 -1       290 9.43036E-05-2.39385E-05-3.01483E-05-4.45915E-06 9.19798E-19-2.77954E-19
 -1       291 9.56218E-05-2.63456E-05-2.96782E-05-4.05202E-06 1.71013E-18-4.11273E-19
 -1       292 1.38969E-05-5.34711E-05 1.32845E-05 7.73247E-06-9.08125E-19 7.28438E-18
 -1       293 2.77806E-05-4.63211E-05 5.20382E-06 2.36872E-05 2.52712E-18 8.38377E-18
 -1       294 5.57899E-05-4.01336E-05-8.39443E-06 3.69223E-05 7.16526E-18 3.91467E-18
 -1       295 9.02457E-05-3.26634E-05-2.51050E-05 4.57333E-05 6.61533E-18 5.47564E-18
 -1       296 1.31684E-04-2.98677E-05-4.25453E-05 4.96320E-05 6.97913E-18 3.44764E-18
 -1       297 1.71768E-04-3.27759E-05-5.75784E-05 3.75355E-05 4.35101E-18 4.88357E-18
 -1       298 2.00898E-04-3.38702E-05-6.86792E-05 2.47822E-05 2.62453E-18 2.63946E-18
 -1       299 2.07364E-04-3.27017E-05-7.20364E-05 3.24193E-06 3.40295E-18 3.17505E-19
 -1       300 2.02796E-04-3.59547E-05-6.84042E-05-2.00574E-05 1.61635E-18-1.97846E-18
 -1       301 1.71179E-04-3.33688E-05-5.65874E-05-3.51456E-05 7.24465E-19-6.06899E-19
 -1       302 1.30765E-04-3.25130E-05-4.06901E-05-4.37898E-05 9.88699E-19-1.01856E-19
 -1       303 8.63819E-05-3.24038E-05-2.32716E-05-4.23648E-05 9.14372E-19-1.03232E-18
 -1       304 5.54589E-05-4.26888E-05-6.68238E-06-3.59635E-05 4.00647E-19 4.02499E-19
 -1       305 2.39569E-05-4.77763E-05 7.28542E-06-1.82265E-05 1.94881E-18 1.04587E-18
 -1       306 1.20672E-05-5.06262E-05 1.33188E-05-5.92000E-06 1.68644E-18-3.38898E-18
 -1       307 1.35527E-05-4.59453E-05 1.12504E-05 1.11690E-05 1.24630E-18-2.79076E-18
 -1       308 3.02022E-05-4.57307E-05 3.83551E-06 2.14673E-05-2.97732E-19-2.30861E-18
 -1       309 5.73073E-05-3.77906E-05-1.01117E-05 3.45649E-05-2.24908E-18-3.63239E-18
 -1       310 9.56441E-05-3.30746E-05-2.71256E-05 4.39610E-05-2.35539E-18-5.57136E-18
 -1       311 1.39498E-04-3.19878E-05-4.48156E-05 4.60097E-05-2.23744E-18-6.08212E-18
 -1       312 1.80884E-04-3.46300E-05-5.99739E-05 3.76881E-05-5.72205E-18-2.41150E-18
 -1       313 2.05993E-04-3.56149E-05-6.95593E-05 1.71981E-05-6.37636E-18 2.16523E-18
 -1       314 2.17241E-04-3.81669E-05-7.27447E-05-4.20299E-06-6.51612E-18 5.79746E-18
 -1       315 2.03496E-04-3.64211E-05-6.80412E-05-2.56888E-05-3.92547E-18 8.55249E-18
 -1       316 1.71972E-04-3.38562E-05-5.67213E-05-4.11614E-05 1.42407E-20 9.63712E-18
 -1       317 1.29792E-04-3.21177E-05-4.09064E-05-4.68488E-05-4.42077E-18 6.95012E-18
 -1       318 8.73056E-05-3.41865E-05-2.33744E-05-4.27256E-05-8.79517E-18 7.34589E-19
 -1       319 5.50518E-05-4.27206E-05-7.00564E-06-3.49758E-05-7.93945E-18 2.18746E-18
 -1       320 2.62570E-05-4.83496E-05 6.41960E-06-1.93275E-05-1.08331E-17 4.95594E-18
 -1       321 1.30509E-05-5.15290E-05 1.30594E-05-6.35127E-06-6.41257E-18 6.57245E-18
 -1       322 9.68315E-05-1.54254E-05-3.49743E-05-1.51212E-05-2.85937E-18 5.76955E-19
 -1       323 1.03956E-04-2.09775E-05-3.56353E-05-1.66811E-05-2.76695E-18 2.57972E-18
 -1       324 8.80816E-05-1.04280E-05-3.33365E-05-1.03845E-05-2.37690E-18-1.54281E-18
 -1       325 8.49515E-05-9.22954E-06-3.25001E-05-8.03179E-06-1.96661E-18-2.04145E-18
 -1       326 8.22587E-05-8.47064E-06-3.16663E-05-5.80306E-06-1.44031E-18-2.46690E-18
 -1       327 7.98586E-05-8.01810E-06-3.08290E-05-3.67039E-06-9.55490E-19-2.74772E-18
 -1       328 7.76705E-05-7.80473E-06-2.99815E-05-1.59702E-06-5.66659E-19-2.85802E-18
 -1       329 7.56552E-05-7.80512E-06-2.91177E-05 4.52471E-07-5.63776E-20-3.06876E-18
 -1       330 7.38385E-05-8.02298E-06-2.82473E-05 2.47568E-06 4.45147E-19-3.19565E-18
 -1       331 7.21975E-05-8.51985E-06-2.73347E-05 4.56406E-06 1.00825E-18-3.13150E-18
 -1       332 7.08808E-05-9.43288E-06-2.63854E-05 6.67413E-06 1.58598E-18-2.81774E-18
 -1       333 7.01581E-05-1.10701E-05-2.53813E-05 8.68316E-06 2.13333E-18-2.15996E-18
 -1       334 7.03010E-05-1.40378E-05-2.41875E-05 9.82292E-06 2.45559E-18-6.19942E-19
 -1       335 7.07265E-05-1.72804E-05-2.29662E-05 8.18522E-06 2.38452E-18 9.76318E-19
 -1       336 6.93258E-05-1.91426E-05-2.14829E-05 3.43129E-06 1.95792E-18 5.34306E-19
 -1       337 1.05004E-04-2.85089E-05-3.27374E-05-7.96532E-06-2.20812E-18 2.58975E-18
 -1       338 1.02909E-04-2.94217E-05-3.14681E-05-4.36728E-06-1.61839E-18 2.18307E-18
 -1       339 1.01340E-04-2.96625E-05-3.07040E-05-2.45359E-06-1.18615E-18 1.95074E-18
 -1       340 1.00222E-04-2.96975E-05-3.02179E-05-1.41640E-06-8.03573E-19 1.62834E-18
 -1       341 9.94236E-05-2.96636E-05-2.98944E-05-8.75201E-07-7.46542E-19 1.33481E-18
 -1       342 9.88301E-05-2.96026E-05-2.96680E-05-6.22665E-07-6.44224E-19 1.45224E-18
 -1       343 9.83572E-05-2.95259E-05-2.94990E-05-5.38760E-07-5.19092E-19 1.26029E-18
 -1       344 9.79487E-05-2.94362E-05-2.93628E-05-5.49861E-07-4.49093E-19 1.11124E-18
 -1       345 9.75696E-05-2.93342E-05-2.92442E-05-6.08565E-07-1.04879E-18 9.59996E-19
 -1       346 9.72000E-05-2.92207E-05-2.91345E-05-6.83159E-07-8.81663E-19 9.73565E-19
 -1       347 9.68309E-05-2.90973E-05-2.90291E-05-7.51670E-07-1.06896E-19 2.49052E-19
 -1       348 9.64611E-05-2.89661E-05-2.89266E-05-7.98218E-07 1.06258E-19 2.67446E-19
 -1       349 9.60956E-05-2.88302E-05-2.88280E-05-8.10681E-07-4.85033E-19-2.11472E-19
 -1       350 9.57437E-05-2.86933E-05-2.87356E-05-7.79195E-07-1.07732E-18-8.72934E-19
 -1       351 9.54190E-05-2.85599E-05-2.86533E-05-6.95285E-07-1.11174E-18-2.48333E-20
 -1       352 9.51385E-05-2.84360E-05-2.85858E-05-5.51546E-07-3.92118E-19 1.04726E-19
 -1       353 9.49225E-05-2.83286E-05-2.85389E-05-3.41842E-07-2.86811E-19 4.60631E-19
 -1       354 9.47948E-05-2.82468E-05-2.85189E-05-6.19835E-08-5.49925E-19-5.84098E-20
 -1       355 9.47821E-05-2.82006E-05-2.85328E-05 2.89435E-07 5.54206E-20 3.40996E-19
 -1       356 9.49128E-05-2.82002E-05-2.85885E-05 7.10837E-07 7.52207E-19 8.25791E-19
 -1       357 9.52142E-05-2.82509E-05-2.86953E-05 1.19996E-06-2.56441E-19 9.43798E-19
 -1       358 9.57061E-05-2.83464E-05-2.88644E-05 1.76165E-06 5.51940E-19 4.07206E-19
 -1       359 9.63971E-05-2.84652E-05-2.91087E-05 2.42308E-06-3.17994E-19 2.07251E-19
 -1       360 9.72946E-05-2.85880E-05-2.94398E-05 3.24783E-06-3.78876E-19 9.93289E-20
 -1       361 9.84440E-05-2.87521E-05-2.98624E-05 4.31357E-06-2.30630E-19 9.56468E-20
 -1       362 9.99647E-05-2.91041E-05-3.03649E-05 5.60850E-06-3.30401E-19-1.14659E-19
 -1       363 1.02002E-04-2.98577E-05-3.09184E-05 6.90235E-06 1.44271E-19 5.32646E-20
 -1       364 1.04619E-04-3.11773E-05-3.14803E-05 7.72838E-06 3.03106E-19 5.65592E-19
 -1       365 1.07759E-04-3.31213E-05-3.20010E-05 7.48591E-06 1.04670E-18 1.82775E-18
 -1       366 1.11246E-04-3.56099E-05-3.24392E-05 5.54788E-06 1.51307E-18 2.12887E-18
 -1       367 1.14695E-04-3.82559E-05-3.27915E-05 1.43130E-06-8.19157E-20 2.27451E-18
 -1       368 1.17284E-04-4.00365E-05-3.31399E-05-4.76080E-06-1.13947E-18 3.61093E-18
 -1       369 1.17687E-04-3.92436E-05-3.36466E-05-1.15068E-05 2.02666E-19 3.28910E-18
 -1       370 1.14913E-04-3.46447E-05-3.44349E-05-1.53196E-05-1.73271E-18 3.07905E-18
 -1       371 1.10020E-04-2.77192E-05-3.53368E-05-1.22617E-05-4.05434E-18 8.59475E-19
 -1       372 1.06912E-04-2.35353E-05-3.58182E-05-2.19237E-06-1.65656E-18-4.07391E-19
 -1       373 1.08589E-04-2.60047E-05-3.54503E-05 9.05266E-06 1.95321E-19-4.36777E-18
 -1       374 1.13163E-04-3.26972E-05-3.45291E-05 1.42683E-05 2.88730E-18-1.98422E-18
 -1       375 1.16504E-04-3.82244E-05-3.35816E-05 1.19191E-05 7.68865E-19 7.88050E-19
 -1       376 1.16662E-04-3.99743E-05-3.28992E-05 5.41195E-06-4.94733E-19-1.10234E-18
 -1       377 1.14237E-04-3.86476E-05-3.24293E-05-1.34041E-06 1.07321E-18-1.39186E-18
 -1       378 1.10629E-04-3.60175E-05-3.20029E-05-6.25332E-06 9.91326E-19-1.00260E-19
 -1       379 1.06822E-04-3.32996E-05-3.15244E-05-8.89244E-06-6.70248E-20 5.59807E-19
 -1       380 1.03266E-04-3.09432E-05-3.09988E-05-9.55540E-06-2.92917E-18 9.82004E-19
 -1       381 1.00124E-04-2.89539E-05-3.04937E-05-8.66370E-06-1.03765E-18 4.01193E-19
 -1       382 9.77562E-05-2.75340E-05-3.00803E-05-6.71697E-06 4.26146E-19-1.75017E-19
 -1       383 6.82964E-05-1.96978E-05-2.07984E-05 8.33015E-07 1.48439E-18 2.54136E-19
 -1       384 6.79366E-05-1.99682E-05-2.05408E-05-5.77953E-07 1.07858E-18-1.55554E-19
 -1       385 6.81143E-05-2.02197E-05-2.05182E-05-1.35467E-06 8.55069E-19-4.48053E-19
 -1       386 6.86374E-05-2.04900E-05-2.06311E-05-1.76930E-06 6.38046E-19-6.98621E-19
 -1       387 6.93696E-05-2.07771E-05-2.08239E-05-1.96892E-06 4.96558E-19-1.03753E-18
 -1       388 7.02193E-05-2.10717E-05-2.10629E-05-2.03872E-06 6.24251E-19-1.04867E-18
 -1       389 7.11270E-05-2.13653E-05-2.13265E-05-2.03253E-06 6.21736E-19-1.26538E-18
 -1       390 7.20562E-05-2.16529E-05-2.16017E-05-1.98636E-06 2.25194E-19-1.67333E-18
 -1       391 7.29863E-05-2.19319E-05-2.18809E-05-1.92534E-06 3.56958E-19-1.67096E-18
 -1       392 7.39090E-05-2.22020E-05-2.21605E-05-1.86758E-06 3.62393E-19-1.37657E-18
 -1       393 7.48241E-05-2.24648E-05-2.24399E-05-1.82674E-06 4.74104E-19-1.36423E-18
 -1       394 7.57385E-05-2.27231E-05-2.27208E-05-1.81363E-06 3.76746E-19-1.43770E-18
 -1       395 7.66642E-05-2.29810E-05-2.30067E-05-1.83739E-06-8.25005E-20-1.68055E-18
 -1       396 7.76174E-05-2.32436E-05-2.33023E-05-1.90613E-06 5.84344E-19-1.69721E-18
 -1       397 7.86183E-05-2.35173E-05-2.36136E-05-2.02716E-06 2.86411E-19-1.90931E-18
 -1       398 7.96902E-05-2.38097E-05-2.39472E-05-2.20657E-06 1.96004E-19-1.56558E-18
 -1       399 8.08586E-05-2.41298E-05-2.43103E-05-2.44819E-06-1.52723E-19-1.63024E-18
 -1       400 8.21499E-05-2.44878E-05-2.47099E-05-2.75182E-06-6.71446E-19-1.84132E-18
 -1       401 8.35891E-05-2.48951E-05-2.51518E-05-3.11066E-06-1.15708E-18-1.54028E-18
 -1       402 8.51966E-05-2.53634E-05-2.56398E-05-3.50823E-06-7.41123E-20-1.14169E-18
 -1       403 8.69851E-05-2.59051E-05-2.61738E-05-3.91433E-06-1.71173E-19-1.56933E-18
 -1       404 8.89573E-05-2.65350E-05-2.67492E-05-4.27829E-06-8.80539E-19-1.57890E-18
 -1       405 9.11035E-05-2.72697E-05-2.73582E-05-4.51829E-06-3.73779E-19-4.89691E-19
 -1       406 9.33763E-05-2.80987E-05-2.79885E-05-4.51656E-06-2.80667E-19 3.72747E-19
 -1       407 9.56118E-05-2.88982E-05-2.86070E-05-4.19567E-06 3.72041E-19 1.38898E-18
 -1       408 9.76151E-05-2.95371E-05-2.91923E-05-3.68450E-06 1.43282E-19 8.81246E-19
 -1       409 9.94168E-05-3.01467E-05-2.97019E-05-3.09336E-06 1.07927E-18-5.14717E-20
 -1       410 1.01070E-04-3.09076E-05-3.00826E-05-2.18455E-06 8.19370E-19 6.48761E-19
 -1       411 1.02385E-04-3.17329E-05-3.02938E-05-5.75410E-07-1.53826E-18-7.64146E-19
 -1       412 1.03003E-04-3.23268E-05-3.03078E-05 1.86729E-06-1.15865E-18-2.13438E-18
 -1       413 1.02558E-04-3.23039E-05-3.01271E-05 4.83539E-06 5.82401E-19-2.81392E-18
 -1       414 1.00807E-04-3.12671E-05-2.98159E-05 7.45254E-06 1.51312E-18-6.27354E-19
 -1       415 9.79370E-05-2.91399E-05-2.94900E-05 8.33851E-06 5.20405E-19 8.83750E-19
 -1       416 9.49447E-05-2.66857E-05-2.92521E-05 6.36659E-06-1.12052E-18 1.08182E-18
 -1       417 9.33351E-05-2.52773E-05-2.91582E-05 1.84691E-06-2.19446E-18 1.31118E-18
 -1       418 9.39170E-05-2.56835E-05-2.92439E-05-3.33288E-06 3.52280E-19 6.82884E-19
 -1       419 9.63922E-05-2.76098E-05-2.94647E-05-7.04626E-06-9.60036E-19 9.58441E-19
 -1       420 9.96024E-05-3.00266E-05-2.98094E-05-8.06235E-06 2.52711E-19 7.74936E-19
 -1       421 1.02277E-04-3.18877E-05-3.01701E-05-6.57219E-06 1.19481E-19 1.24772E-18
 -1       422 1.03691E-04-3.27210E-05-3.04285E-05-3.67764E-06 1.62618E-18 1.59324E-18
 -1       423 1.03745E-04-3.26020E-05-3.05065E-05-5.76177E-07 9.30221E-19 1.95715E-18
 -1       424 1.02723E-04-3.18521E-05-3.03877E-05 1.90831E-06 6.25635E-19 1.53638E-18
 -1       425 1.01040E-04-3.07932E-05-3.01147E-05 3.38906E-06-1.35432E-18 6.46092E-19
 -1       426 9.90909E-05-2.96463E-05-2.97646E-05 3.77646E-06 4.20165E-19 1.40651E-18
 -1       427 9.72224E-05-2.85841E-05-2.94145E-05 3.14320E-06 8.33839E-19 2.15422E-18
 -1       428 9.61904E-05-2.79734E-05-2.92304E-05 2.42072E-06 7.69754E-19 1.92622E-18
 -1       429 9.47137E-05-2.40181E-05-3.02919E-05 7.06314E-06-9.06288E-19 1.15281E-18
 -1       430 9.56061E-05-2.59476E-05-2.98451E-05 5.57732E-06 6.26918E-19-2.37856E-19
 -1       431 9.59540E-05-2.70259E-05-2.95315E-05 3.99802E-06 3.17684E-19 2.32785E-18
 -1       432 9.35086E-05-2.16898E-05-3.07782E-05 7.96382E-06-2.89848E-18-1.84874E-18
 -1       433 9.19715E-05-1.90296E-05-3.12657E-05 7.95125E-06-2.36479E-18 1.32685E-18
 -1       434 9.03287E-05-1.64281E-05-3.16826E-05 6.70713E-06 5.05957E-20-2.18825E-18
 -1       435 8.89400E-05-1.43770E-05-3.19710E-05 4.18234E-06-1.83871E-18-9.90506E-19
 -1       436 8.81989E-05-1.33639E-05-3.20900E-05 7.02265E-07-1.73435E-18-2.10659E-18
 -1       437 8.83534E-05-1.36765E-05-3.20218E-05-3.07333E-06-3.36919E-18-4.55415E-18
 -1       438 8.93562E-05-1.52339E-05-3.17805E-05-6.31424E-06-1.13188E-18-2.46630E-18
 -1       439 9.09875E-05-1.77503E-05-3.13953E-05-8.50359E-06 2.30453E-19 3.40764E-18
 -1       440 9.28940E-05-2.07225E-05-3.09300E-05-9.25558E-06 6.57831E-19 3.74493E-18
 -1       441 9.47971E-05-2.36921E-05-3.04615E-05-8.58391E-06-2.52623E-19 1.20508E-18
 -1       442 6.26619E-05-4.40276E-05-7.87052E-06 4.62077E-05 4.99644E-19 5.04270E-18
 -1       443 1.24645E-05-2.59726E-05 5.50918E-06 2.13888E-06 2.11401E-19 9.79636E-18
 -1       444 2.59576E-05-2.97464E-05 1.57534E-06 2.88549E-05 2.24993E-19 8.75483E-18
 -1       445 1.04394E-04-5.74372E-05-2.00322E-05 4.32470E-05 1.60439E-18 8.52327E-21
 -1       446 1.29630E-04-5.77044E-05-3.09325E-05 3.15155E-05 2.17582E-18-9.51218E-19
 -1       447 9.18906E-05-1.23247E-05-3.41699E-05-1.28290E-05-2.68938E-18-7.52265E-19
 -1       448 1.61471E-04-2.76142E-05-5.73177E-05 3.19001E-06 2.94016E-18 7.83505E-19
 -1       449 1.60530E-04-1.48637E-05-6.27496E-05 1.49637E-06 3.32111E-18-1.15276E-18
 -1       450 1.52718E-04-1.31918E-05-6.08375E-05 7.51872E-06 2.30610E-18 4.71691E-19
 -1       451 1.55035E-04-2.48013E-05-5.58388E-05 8.21200E-06 4.00329E-19-1.79995E-19
 -1       452 1.50334E-04-4.45847E-05-4.43764E-05-1.01223E-05-6.68521E-19-4.54221E-20
 -1       453 1.27053E-04-5.44303E-05-3.06089E-05-2.82692E-05-3.78041E-19 1.86930E-18
 -1       454 9.88675E-05-5.54835E-05-1.83528E-05-3.92562E-05-1.95538E-18-1.94262E-19
 -1       455 5.04109E-05-4.09778E-05-4.06747E-06-4.02113E-05-1.35758E-18 2.33553E-18
 -1       456 2.22224E-05-3.04929E-05 3.31266E-06-2.46272E-05-1.34493E-18 2.76133E-19
 -1       457 1.42537E-05-2.13230E-05 3.27265E-06 2.20248E-06-1.23131E-18-2.93571E-18
 -1       458 3.16800E-05-3.36174E-05 6.33254E-07 3.19416E-05 9.41265E-20-2.86699E-18
 -1       459 5.95805E-05-4.50506E-05-6.58859E-06 4.17500E-05 6.96685E-20-3.26875E-18
 -1       460 1.06269E-04-5.73849E-05-2.09588E-05 3.89368E-05-2.97203E-19-2.96133E-18
 -1       461 1.37148E-04-5.65218E-05-3.46021E-05 2.32240E-05-1.10644E-19-3.54886E-18
 -1       462 1.56583E-04-4.31417E-05-4.83981E-05 1.02940E-05-2.92883E-18-9.24325E-20
 -1       463 1.64812E-04-2.74297E-05-5.84989E-05-1.99850E-08-7.07177E-18 2.97594E-18
 -1       464 1.62085E-04-1.44529E-05-6.29452E-05-2.03217E-06-7.63738E-18 2.71657E-18
 -1       465 1.66507E-04-1.82189E-05-6.31325E-05 5.03015E-07-5.99255E-18 2.31928E-18
 -1       466 1.58335E-04-3.06503E-05-5.47775E-05 3.07067E-06 7.46236E-19 8.57833E-19
 -1       467 1.53498E-04-4.68816E-05-4.55089E-05-1.45723E-05 1.73623E-18 3.59735E-18
 -1       468 1.30022E-04-5.60543E-05-3.17166E-05-3.03353E-05-2.97372E-18-2.62792E-19
 -1       469 9.83159E-05-5.49395E-05-1.87213E-05-4.13713E-05-4.44184E-18-1.10204E-18
 -1       470 5.59621E-05-4.32237E-05-5.59921E-06-4.22939E-05-4.06290E-18-6.43745E-20
 -1       471 2.72981E-05-3.13985E-05 1.66485E-06-2.82974E-05-2.16046E-18 5.21635E-18
 -1       472 1.52711E-04-4.54411E-05-4.58926E-05 1.65367E-05 3.44331E-18 3.15520E-19
 -1       473 8.41913E-05-5.10842E-05-1.37552E-05-4.22890E-05-1.84193E-18 1.28897E-18
 -1       474 7.15656E-05-1.85959E-05-2.26896E-05 3.06544E-06 1.80506E-18-1.00774E-18
 -1       475 8.60566E-05-1.29272E-05-3.13597E-05-6.78560E-06-1.63134E-18-1.89990E-18
 -1       476 8.90826E-05-1.42617E-05-3.20873E-05-8.60597E-06-1.99172E-18-1.51181E-18
 -1       477 8.10529E-05-1.15802E-05-2.97902E-05-3.12401E-06-7.59264E-19-2.49489E-18
 -1       478 7.89180E-05-1.13991E-05-2.89526E-05-1.31822E-06-3.06726E-19-2.59072E-18
 -1       479 7.70131E-05-1.15094E-05-2.80894E-05 4.36906E-07 2.35448E-19-2.76795E-18
 -1       480 7.52771E-05-1.19427E-05-2.71606E-05 2.18524E-06 8.12740E-19-2.76684E-18
 -1       481 7.37789E-05-1.27779E-05-2.61613E-05 3.83412E-06 1.29885E-18-2.58794E-18
 -1       482 7.26422E-05-1.42079E-05-2.50578E-05 5.25417E-06 1.76959E-18-2.19890E-18
 -1       483 7.14684E-05-1.98309E-05-2.21164E-05 5.13591E-07 1.44219E-18-1.01585E-18
 -1       484 1.01391E-04-2.61391E-05-3.22414E-05-7.96027E-06-2.21641E-18 9.02290E-19
 -1       485 1.43824E-04-5.81606E-05-3.69227E-05 1.00880E-05 5.20164E-19-3.12238E-19
 -1       486 1.00757E-04-2.78896E-05-3.12219E-05-5.03205E-06-1.41688E-18 7.17343E-19
 -1       487 9.99102E-05-2.86956E-05-3.05168E-05-3.19587E-06-1.10504E-18 7.72406E-19
 -1       488 9.91221E-05-2.90702E-05-3.00207E-05-2.10484E-06-9.45498E-19 7.92068E-19
 -1       489 9.84434E-05-2.92271E-05-2.96636E-05-1.49372E-06-8.89647E-19 5.22995E-19
 -1       490 9.78618E-05-2.92649E-05-2.93986E-05-1.18632E-06-7.70159E-19 3.58493E-19
 -1       491 9.73510E-05-2.92314E-05-2.91943E-05-1.06573E-06-7.69000E-19 3.06942E-19
 -1       492 9.68866E-05-2.91515E-05-2.90296E-05-1.05332E-06-9.01794E-19-1.40692E-19
 -1       493 9.64506E-05-2.90395E-05-2.88907E-05-1.09530E-06-7.87669E-19 1.57297E-19
 -1       494 9.60317E-05-2.89042E-05-2.87691E-05-1.15406E-06-7.83832E-19 2.75209E-19
 -1       495 9.56239E-05-2.87518E-05-2.86596E-05-1.20263E-06-9.71615E-20-3.61446E-19
 -1       496 9.52260E-05-2.85867E-05-2.85598E-05-1.22085E-06-5.01925E-19-1.03454E-18
 -1       497 9.48405E-05-2.84123E-05-2.84692E-05-1.19286E-06-7.69528E-19-3.45240E-19
 -1       498 9.44730E-05-2.82322E-05-2.83887E-05-1.10538E-06-1.00206E-18 3.46259E-19
 -1       499 9.41322E-05-2.80502E-05-2.83205E-05-9.46680E-07-6.36996E-19 4.31768E-19
 -1       500 9.38302E-05-2.78715E-05-2.82675E-05-7.06231E-07-4.33016E-19 2.42109E-19
 -1       501 9.35826E-05-2.77036E-05-2.82332E-05-3.74868E-07-8.73397E-19 2.23615E-19
 -1       502 9.34099E-05-2.75562E-05-2.82222E-05 5.43403E-08-7.66005E-21 2.88968E-19
 -1       503 9.33366E-05-2.74412E-05-2.82398E-05 5.84643E-07 4.40458E-19-1.62343E-19
 -1       504 9.33897E-05-2.73686E-05-2.82932E-05 1.21399E-06 1.16980E-19-3.31319E-19
 -1       505 9.35904E-05-2.73362E-05-2.83925E-05 1.93528E-06 3.64340E-19-8.48887E-20
 -1       506 9.39383E-05-2.73139E-05-2.85510E-05 2.74494E-06-2.31644E-19-4.43760E-19
 -1       507 9.43973E-05-2.72367E-05-2.87812E-05 3.67164E-06-5.48039E-19-1.22644E-18
 -1       508 9.49255E-05-2.70575E-05-2.90839E-05 4.81987E-06-4.36096E-19-1.16309E-18
 -1       509 9.56028E-05-2.69095E-05-2.94385E-05 6.33607E-06 2.88661E-19-8.37782E-19
 -1       510 9.67179E-05-2.71971E-05-2.97940E-05 8.16983E-06 1.68817E-19-6.60164E-20
 -1       511 9.85791E-05-2.83534E-05-3.00972E-05 9.89381E-06 1.23971E-18 6.34731E-19
 -1       512 1.01367E-04-3.06116E-05-3.03258E-05 1.08806E-05 1.10111E-18 1.20366E-18
 -1       513 1.05224E-04-3.40554E-05-3.05115E-05 1.04941E-05 9.73756E-19 1.20985E-18
 -1       514 1.10315E-04-3.85895E-05-3.07549E-05 8.06773E-06 8.45314E-19 8.49397E-19
 -1       515 1.16422E-04-4.34253E-05-3.13066E-05 2.89595E-06 3.76368E-19 5.75822E-19
 -1       516 1.22210E-04-4.62685E-05-3.25850E-05-5.15823E-06 1.82914E-19 2.96439E-18
 -1       517 1.24725E-04-4.33755E-05-3.49242E-05-1.39887E-05-1.87485E-18 1.92609E-18
 -1       518 1.21340E-04-3.23216E-05-3.84145E-05-1.78209E-05-3.50043E-18 7.99043E-19
 -1       519 1.15130E-04-1.98024E-05-4.11953E-05-1.04196E-05-4.28027E-18 1.04258E-19
 -1       520 1.14922E-04-1.84261E-05-4.16353E-05 5.04666E-06-3.82216E-18-1.25939E-18
 -1       521 1.19685E-04-2.86237E-05-3.93048E-05 1.56537E-05 9.43184E-19-3.72943E-18
 -1       522 1.24174E-04-4.09950E-05-3.57729E-05 1.44774E-05 4.88885E-18-4.00175E-18
 -1       523 1.23170E-04-4.63359E-05-3.29754E-05 6.27343E-06-1.30003E-18-2.80839E-18
 -1       524 1.17902E-04-4.47165E-05-3.13896E-05-2.47593E-06 6.08338E-19-3.83500E-18
 -1       525 1.11674E-04-4.01158E-05-3.06834E-05-8.60902E-06 5.39183E-19-2.35688E-18
 -1       526 1.06310E-04-3.53480E-05-3.04209E-05-1.18230E-05 3.55988E-19-2.25858E-18
 -1       527 1.02240E-04-3.14715E-05-3.03320E-05-1.27484E-05 3.55383E-19-1.25029E-18
 -1       528 9.92330E-05-2.85002E-05-3.03111E-05-1.19982E-05-9.54061E-19 1.53969E-18
 -1       529 7.17517E-05-2.10385E-05-2.17313E-05-1.99514E-06 9.27466E-19-1.16229E-18
 -1       530 7.21684E-05-2.14141E-05-2.17507E-05-2.52801E-06 7.12463E-19-1.14952E-18
 -1       531 7.27132E-05-2.17307E-05-2.18493E-05-2.80066E-06 6.00116E-19-1.29370E-18
 -1       532 7.33414E-05-2.20095E-05-2.19995E-05-2.90999E-06 6.35085E-19-1.20912E-18
 -1       533 7.40191E-05-2.22605E-05-2.21826E-05-2.92219E-06 4.79701E-19-1.08108E-18
 -1       534 7.47235E-05-2.24896E-05-2.23863E-05-2.88380E-06 4.54099E-19-1.08442E-18
 -1       535 7.54410E-05-2.27009E-05-2.26032E-05-2.82831E-06 3.16147E-19-1.28987E-18
 -1       536 7.61653E-05-2.28979E-05-2.28291E-05-2.78055E-06 3.69186E-19-1.21873E-18
 -1       537 7.68955E-05-2.30837E-05-2.30623E-05-2.75955E-06 2.03589E-19-1.27616E-18
 -1       538 7.76355E-05-2.32615E-05-2.33031E-05-2.78071E-06 1.77200E-19-6.09460E-19
 -1       539 7.83925E-05-2.34346E-05-2.35531E-05-2.85708E-06 1.33519E-19-6.06501E-19
 -1       540 7.91770E-05-2.36071E-05-2.38151E-05-3.00012E-06 5.97711E-19-7.19514E-19
 -1       541 8.00021E-05-2.37844E-05-2.40925E-05-3.21965E-06 2.00698E-19-6.77964E-19
 -1       542 8.08836E-05-2.39737E-05-2.43889E-05-3.52302E-06-4.29518E-19-4.01186E-19
 -1       543 8.18399E-05-2.41855E-05-2.47076E-05-3.91323E-06-1.02645E-19-3.98931E-19
 -1       544 8.28908E-05-2.44335E-05-2.50514E-05-4.38594E-06-8.42762E-19-7.36332E-19
 -1       545 8.40569E-05-2.47354E-05-2.54213E-05-4.92587E-06-2.33148E-19-2.05416E-18
 -1       546 8.53576E-05-2.51128E-05-2.58162E-05-5.50349E-06-4.70633E-19-2.00889E-18
 -1       547 8.68128E-05-2.55941E-05-2.62330E-05-6.07341E-06-7.88165E-19-1.14686E-18
 -1       548 8.84539E-05-2.62239E-05-2.66696E-05-6.56994E-06-7.19202E-19-1.19172E-18
 -1       549 9.03409E-05-2.70710E-05-2.71397E-05-6.87793E-06-6.10325E-19-1.25643E-18
 -1       550 9.24821E-05-2.81274E-05-2.76591E-05-6.75468E-06-2.22445E-19-1.04744E-18
 -1       551 9.45032E-05-2.89766E-05-2.81574E-05-6.07193E-06 1.38270E-19-4.99253E-19
 -1       552 9.61882E-05-2.94943E-05-2.86261E-05-5.36136E-06 6.31043E-19 4.71493E-19
 -1       553 9.81143E-05-3.04443E-05-2.90148E-05-4.64364E-06 6.85274E-19 3.18459E-19
 -1       554 1.00386E-04-3.20119E-05-2.93099E-05-3.22200E-06-1.53011E-19 6.53306E-19
 -1       555 1.02647E-04-3.37414E-05-2.95453E-05-6.73669E-07-7.69342E-19 6.95855E-19
 -1       556 1.04454E-04-3.49899E-05-2.97968E-05 2.93361E-06-2.03648E-19 9.37204E-20
 -1       557 1.05233E-04-3.49043E-05-3.01683E-05 7.01102E-06 9.29445E-20 7.30084E-19
 -1       558 1.04284E-04-3.25345E-05-3.07689E-05 1.01083E-05 1.26812E-19 1.65932E-18
 -1       559 1.01704E-04-2.80806E-05-3.15728E-05 9.95484E-06-5.57973E-19 2.07583E-18
 -1       560 9.93521E-05-2.40865E-05-3.23028E-05 5.43327E-06-1.25581E-18 1.66955E-18
 -1       561 9.89882E-05-2.31689E-05-3.26084E-05-1.50306E-06-2.87343E-19 8.36786E-19
 -1       562 1.01009E-04-2.57517E-05-3.22844E-05-7.71722E-06-5.51647E-20 3.82175E-19
 -1       563 1.04172E-04-3.01765E-05-3.17155E-05-1.04974E-05 4.14813E-19-6.88480E-19
 -1       564 1.06656E-04-3.40195E-05-3.11340E-05-9.36339E-06-8.00508E-19-4.13050E-19
 -1       565 1.07439E-04-3.58872E-05-3.06732E-05-5.72346E-06 5.15538E-19-9.64318E-19
 -1       566 1.06587E-04-3.57767E-05-3.03586E-05-1.41077E-06 3.53676E-19 1.16590E-18
 -1       567 1.04703E-04-3.43910E-05-3.01442E-05 2.27023E-06 8.65566E-19 1.64434E-18
 -1       568 1.02388E-04-3.24544E-05-2.99792E-05 4.69950E-06-4.34890E-20 1.31958E-18
 -1       569 1.00048E-04-3.04359E-05-2.98354E-05 5.73506E-06-9.95726E-19 1.24281E-18
 -1       570 9.78591E-05-2.85584E-05-2.96969E-05 5.48680E-06 4.75749E-20 2.44989E-18
 -1       571 9.37632E-05-2.34669E-05-3.01286E-05 1.05846E-05-1.44166E-18 1.21808E-18
 -1       572 9.12371E-05-2.08054E-05-3.01895E-05 1.00206E-05-1.34350E-18 1.11197E-18
 -1       573 9.69305E-05-2.72061E-05-2.98771E-05 8.03377E-06-1.03901E-18-1.15680E-18
 -1       574 9.56913E-05-2.56395E-05-3.00200E-05 9.72679E-06-3.46927E-18-1.60740E-18
 -1       575 8.86312E-05-1.81682E-05-3.02050E-05 7.65027E-06-8.33952E-19-2.70224E-18
 -1       576 8.66894E-05-1.62525E-05-3.01948E-05 3.58830E-06-1.14835E-18-1.17217E-18
 -1       577 8.60900E-05-1.56705E-05-3.01877E-05-1.44654E-06-8.22566E-19-2.17501E-18
 -1       578 8.70369E-05-1.65928E-05-3.01977E-05-6.25640E-06 6.67557E-19-2.96406E-18
 -1       579 8.92644E-05-1.87581E-05-3.02229E-05-9.94498E-06 1.86892E-19-1.84010E-19
 -1       580 9.20907E-05-2.15335E-05-3.02409E-05-1.18205E-05-1.69375E-18 3.86367E-18
 -1       581 9.49819E-05-2.43445E-05-3.02745E-05-1.17263E-05-1.52794E-18 2.09213E-18
 -1       582 2.83251E-05-1.70187E-05-4.19699E-06 1.51744E-05 1.32840E-18 9.35866E-18
 -1       583 9.67426E-05-5.29399E-05-1.83940E-05 4.24904E-05-1.89100E-19-1.08128E-18
 -1       584 7.15117E-05-2.05532E-05-2.18325E-05-1.05684E-06 1.13641E-18-1.04788E-18
 -1       585 2.77225E-05-1.77228E-05-3.64710E-06-1.45306E-05 1.98286E-18 6.94959E-18
 -1       586 1.27374E-04-6.35926E-05-2.72751E-05 2.80477E-05 3.09458E-19-1.96520E-18
 -1       587 9.35092E-05-5.38810E-05-1.66444E-05-4.23348E-05-1.09447E-18-5.39354E-18
 -1       588 1.44354E-04-5.92699E-05-3.66231E-05-8.85378E-06 2.22108E-18-2.16787E-19
 -1       589 3.20498E-05-2.01693E-05-4.49099E-06 2.24005E-05-8.09393E-19-1.68803E-18
 -1       590 1.40418E-04-1.86697E-05-5.31006E-05-8.26393E-06 3.81985E-18-1.88020E-18
 -1       591 8.34131E-05-1.20710E-05-3.05921E-05-4.94852E-06-1.16852E-18-2.24678E-18
 -1       592 1.35503E-04-9.45702E-06-5.55172E-05 1.53778E-06 2.04304E-18 2.03870E-19
 -1       593 1.38488E-04-5.74375E-05-3.36181E-05-4.67750E-06-6.82920E-20 4.43184E-19
 -1       594 1.39237E-04-2.00463E-05-5.32064E-05 1.88268E-05 1.40607E-18 2.57498E-19
 -1       595 1.29689E-04-6.33822E-05-2.84193E-05 2.29763E-05-2.85556E-19-3.60203E-18
 -1       596 1.42563E-04-4.02559E-05-4.25601E-05 1.09727E-05-1.21973E-18 3.75659E-19
 -1       597 1.24551E-04-6.21292E-05-2.60903E-05-2.27028E-05-1.31412E-18 1.11525E-18
 -1       598 4.57726E-05-2.97836E-05-6.28483E-06-3.48180E-05-1.34239E-18 2.09932E-18
 -1       599 2.74465E-05-1.71991E-05-3.77696E-06-1.42381E-05-2.08506E-18-1.11194E-18
 -1       600 5.91920E-05-3.75242E-05-8.87336E-06 4.06939E-05-7.57036E-20-3.78910E-18
 -1       601 9.67217E-05-5.48477E-05-1.77364E-05 4.02204E-05-6.00017E-19-2.83682E-18
 -1       602 1.46370E-04-5.45073E-05-3.95849E-05 1.07773E-06-9.23981E-19-2.26899E-19
 -1       603 1.48102E-04-3.62059E-05-4.83596E-05-1.04602E-05-5.07574E-18 3.43350E-18
 -1       604 1.37658E-04-1.75633E-05-5.21558E-05-1.19304E-05-6.55249E-18 7.32789E-19
 -1       605 1.35185E-04-9.74355E-06-5.43466E-05 2.62933E-06-4.94074E-18-1.94292E-18
 -1       606 1.38922E-04-2.07578E-05-5.12856E-05 1.19945E-05-1.98375E-18-1.23174E-18
 -1       607 1.47767E-04-4.39282E-05-4.48989E-05 7.70946E-06 3.57527E-18 7.37872E-19
 -1       608 1.24493E-04-6.35455E-05-2.60748E-05-2.96818E-05-9.35442E-20-4.78711E-18
 -1       609 1.46551E-04-4.00305E-05-4.61756E-05-6.04299E-06 2.65592E-18-8.24640E-19
 -1       610 5.08692E-05-3.20560E-05-7.58993E-06-3.74084E-05 1.46505E-18 1.17833E-18
 -1       611 1.00278E-04-2.22180E-05-3.34760E-05-1.16363E-05-2.65039E-18 8.27473E-19
 -1       612 7.11602E-05-1.69443E-05-2.32361E-05 5.98224E-06 2.17232E-18-8.76732E-19
 -1       613 5.23210E-05-3.15000E-05-8.42775E-06 3.91908E-05-5.82600E-19 5.98307E-18
 -1       614 9.26056E-05-1.62458E-05-3.27503E-05-1.02762E-05-2.40043E-18-1.03253E-18
 -1       615 9.61615E-05-1.87646E-05-3.31933E-05-1.13143E-05-2.55896E-18-4.09871E-19
 -1       616 3.37327E-05-1.40242E-05-7.84507E-06 5.83886E-06-1.10050E-18-2.30885E-18
 -1       617 1.09801E-04-5.87249E-05-2.13852E-05-3.05418E-05-2.03841E-18 1.60349E-18
 -1       618 7.16935E-05-4.01019E-05-1.30692E-05-3.87426E-05-3.45404E-19 1.64838E-18
 -1       619 9.76093E-05-2.68622E-05-3.03147E-05-1.07426E-05-1.75606E-18 3.06669E-18
 -1       620 7.99103E-05-1.46495E-05-2.79738E-05-1.29102E-06-4.27581E-20-2.19821E-18
 -1       621 8.19813E-05-1.47504E-05-2.88180E-05-2.76401E-06-5.67261E-19-2.21436E-18
 -1       622 7.63156E-05-1.54610E-05-2.60851E-05 1.40714E-06 1.00348E-18-2.29652E-18
 -1       623 7.47158E-05-1.64489E-05-2.49776E-05 2.39667E-06 1.43280E-18-2.06723E-18
 -1       624 7.36575E-05-1.84307E-05-2.36606E-05 1.87727E-06 1.54167E-18-1.71697E-18
 -1       625 7.97017E-05-4.11139E-05-1.61604E-05-3.88428E-05 1.28254E-18-2.11231E-18
 -1       626 1.33063E-04-2.99461E-05-4.48197E-05-1.33525E-05 2.92057E-18-2.28320E-18
 -1       627 9.85116E-05-2.66944E-05-3.07773E-05-5.08473E-06-1.38248E-18-2.82352E-19
 -1       628 9.81607E-05-2.78120E-05-3.01488E-05-3.57171E-06-1.01875E-18-2.94458E-19
 -1       629 9.76735E-05-2.84262E-05-2.96772E-05-2.61024E-06-9.01889E-19-2.87511E-19
 -1       630 9.71547E-05-2.87410E-05-2.93202E-05-2.04430E-06-8.63800E-19-2.96944E-19
 -1       631 9.66442E-05-2.88715E-05-2.90455E-05-1.74588E-06-7.37399E-19-4.80988E-19
 -1       632 9.61528E-05-2.88839E-05-2.88296E-05-1.61826E-06-8.97828E-19-2.08520E-19
 -1       633 9.56808E-05-2.88179E-05-2.86556E-05-1.59067E-06-8.65439E-19 9.88156E-20
 -1       634 9.52249E-05-2.86982E-05-2.85115E-05-1.61184E-06-9.13493E-19-1.80225E-19
 -1       635 9.47820E-05-2.85403E-05-2.83893E-05-1.64435E-06-9.81984E-19-3.04781E-19
 -1       636 9.43495E-05-2.83542E-05-2.82837E-05-1.66030E-06-7.51631E-19-6.79668E-19
 -1       637 9.39264E-05-2.81461E-05-2.81916E-05-1.63806E-06 2.16579E-20-2.95325E-19
 -1       638 9.35128E-05-2.79198E-05-2.81113E-05-1.55993E-06-1.01836E-19 1.62516E-19
 -1       639 9.31106E-05-2.76783E-05-2.80423E-05-1.41043E-06-1.01479E-18 7.59020E-19
 -1       640 9.27238E-05-2.74249E-05-2.79851E-05-1.17526E-06-8.59959E-19 3.70719E-19
 -1       641 9.23594E-05-2.71641E-05-2.79407E-05-8.40684E-07-4.34788E-19 2.57994E-19
 -1       642 9.20287E-05-2.69037E-05-2.79104E-05-3.93668E-07-3.20707E-19 4.18975E-19
 -1       643 9.17487E-05-2.66553E-05-2.78967E-05 1.76958E-07 1.60046E-20 3.74065E-19
 -1       644 9.15438E-05-2.64337E-05-2.79033E-05 8.77501E-07 2.58313E-19 2.34479E-19
 -1       645 9.14434E-05-2.62521E-05-2.79373E-05 1.70337E-06 3.59555E-21-5.52294E-19
 -1       646 9.14696E-05-2.61039E-05-2.80118E-05 2.63117E-06 8.30356E-20-5.47401E-19
 -1       647 9.16026E-05-2.59271E-05-2.81475E-05 3.62384E-06-6.57883E-19-4.99064E-19
 -1       648 9.17335E-05-2.55733E-05-2.83608E-05 4.69784E-06-6.80415E-19-2.41360E-19
 -1       649 9.17311E-05-2.49334E-05-2.86283E-05 6.08046E-06 3.76482E-19 4.72335E-19
 -1       650 9.18323E-05-2.44125E-05-2.88858E-05 8.13198E-06 4.17810E-19 5.29396E-19
 -1       651 9.26772E-05-2.49086E-05-2.90261E-05 1.06472E-05 9.03028E-19-2.71745E-20
 -1       652 9.46213E-05-2.69037E-05-2.89998E-05 1.28866E-05 1.20165E-18 4.03763E-20
 -1       653 9.77609E-05-3.04298E-05-2.88570E-05 1.42911E-05 1.39226E-18-2.69868E-21
 -1       654 1.02573E-04-3.56507E-05-2.86860E-05 1.45123E-05 8.09694E-19-4.12882E-19
 -1       655 1.09813E-04-4.26493E-05-2.87830E-05 1.28035E-05 5.90851E-19 8.60913E-20
 -1       656 1.19582E-04-5.01171E-05-2.97417E-05 7.71193E-06 1.07457E-18 3.30236E-19
 -1       657 1.29575E-04-5.39146E-05-3.24659E-05-2.06869E-06-3.00155E-19 9.12331E-19
 -1       658 1.28178E-04-2.52800E-05-4.46359E-05-1.64034E-05-5.43652E-18 1.60791E-19
 -1       659 1.34488E-04-4.11483E-05-4.03422E-05 1.43399E-05 4.18244E-18 3.41381E-19
 -1       660 1.32434E-04-5.35441E-05-3.39651E-05 4.57051E-06 1.91861E-18-3.13901E-18
 -1       661 1.23019E-04-5.21900E-05-3.03440E-05-6.68371E-06-8.23507E-19-2.22960E-18
 -1       662 1.12925E-04-4.51947E-05-2.90135E-05-1.32082E-05 1.35307E-18-2.71449E-18
 -1       663 1.05244E-04-3.79188E-05-2.88493E-05-1.56966E-05 1.24614E-18-2.66343E-18
 -1       664 1.00287E-04-3.22385E-05-2.91591E-05-1.58366E-05 2.09893E-18-1.91083E-19
 -1       665 9.73399E-05-2.82183E-05-2.96204E-05-1.46441E-05 5.71435E-19 1.97623E-18
 -1       666 7.52107E-05-2.22089E-05-2.27149E-05-3.13956E-06 4.90603E-19-7.33081E-19
 -1       667 1.39646E-04-4.53958E-05-4.07105E-05-1.29608E-05-3.02939E-18 2.45237E-18
 -1       668 7.48199E-05-2.17221E-05-2.27557E-05-2.59975E-06 6.66061E-19-1.06643E-18
 -1       669 7.61224E-05-2.28484E-05-2.28318E-05-3.55094E-06 5.84110E-19-5.62507E-19
 -1       670 7.66236E-05-2.30673E-05-2.29528E-05-3.57758E-06 4.70788E-19-7.90218E-19
 -1       671 7.71423E-05-2.32431E-05-2.30997E-05-3.55509E-06 4.88510E-19-6.60914E-19
 -1       672 7.76725E-05-2.33866E-05-2.32655E-05-3.51948E-06 8.58970E-20-9.80243E-19
 -1       673 7.82108E-05-2.35049E-05-2.34455E-05-3.49809E-06 3.26635E-19-5.44477E-19
 -1       674 7.87565E-05-2.36030E-05-2.36372E-05-3.51240E-06-2.25605E-19-3.87494E-19
 -1       675 7.93104E-05-2.36842E-05-2.38397E-05-3.58005E-06-2.66986E-20-4.65749E-19
 -1       676 7.98755E-05-2.37517E-05-2.40529E-05-3.71622E-06 3.39352E-19-1.99728E-19
 -1       677 8.04568E-05-2.38091E-05-2.42773E-05-3.93421E-06 1.68164E-19 3.34034E-19
 -1       678 8.10616E-05-2.38619E-05-2.45138E-05-4.24520E-06 3.23922E-20 5.01846E-19
 -1       679 8.17005E-05-2.39198E-05-2.47627E-05-4.65701E-06-2.65523E-19-1.58781E-19
 -1       680 8.23884E-05-2.39979E-05-2.50238E-05-5.17147E-06-8.65856E-20 1.12354E-19
 -1       681 8.31448E-05-2.41191E-05-2.52956E-05-5.78032E-06 2.81546E-19-4.46447E-19
 -1       682 8.39936E-05-2.43131E-05-2.55751E-05-6.46058E-06-1.83415E-20-7.73904E-19
 -1       683 8.49597E-05-2.46143E-05-2.58588E-05-7.17343E-06 1.62552E-19-1.53186E-18
 -1       684 8.60715E-05-2.50638E-05-2.61465E-05-7.87412E-06-8.04214E-19-1.65330E-18
 -1       685 8.73948E-05-2.57375E-05-2.64511E-05-8.53042E-06-7.02950E-19-1.32277E-18
 -1       686 8.91628E-05-2.68543E-05-2.68523E-05-9.04271E-06-1.07408E-18-7.93908E-19
 -1       687 9.16159E-05-2.85316E-05-2.74083E-05-8.72795E-06-1.05524E-18-3.90244E-19
 -1       688 9.33357E-05-2.90670E-05-2.77800E-05-7.48004E-06-1.54809E-19-1.11967E-20
 -1       689 9.48584E-05-2.94636E-05-2.80589E-05-7.20981E-06 1.15340E-18 4.67556E-19
 -1       690 9.76407E-05-3.14941E-05-2.83286E-05-6.66679E-06 6.77484E-19 6.00421E-19
 -1       691 1.01030E-04-3.43057E-05-2.85973E-05-4.84350E-06-7.18381E-19 9.98527E-20
 -1       692 1.04615E-04-3.70792E-05-2.89644E-05-1.61329E-06-4.89495E-19 8.95094E-19
 -1       693 1.07880E-04-3.88314E-05-2.96415E-05 2.89284E-06 1.55454E-19 3.28030E-19
 -1       694 1.09718E-04-3.79093E-05-3.07975E-05 8.08213E-06-3.38181E-19 1.46538E-18
 -1       695 1.08759E-04-3.24889E-05-3.26277E-05 1.14665E-05-4.52479E-19 2.30505E-18
 -1       696 1.06005E-04-2.46939E-05-3.49104E-05 9.52716E-06-6.94699E-19 6.01976E-19
 -1       697 1.03770E-04-1.96107E-05-3.68270E-05 2.24834E-06-6.21510E-19 2.95257E-19
 -1       698 1.05198E-04-2.13838E-05-3.61843E-05-6.68559E-06 3.08710E-19 3.90221E-19
 -1       699 1.09181E-04-2.83359E-05-3.47113E-05-1.18965E-05 2.78922E-19-9.61431E-19
 -1       700 1.12495E-04-3.55480E-05-3.30053E-05-1.14770E-05-2.32531E-19-1.26880E-18
 -1       701 1.13247E-04-3.97648E-05-3.15017E-05-7.06461E-06 1.54893E-19-2.19665E-18
 -1       702 1.11359E-04-4.02364E-05-3.04844E-05-1.52871E-06-3.98661E-19-1.47124E-18
 -1       703 1.08074E-04-3.82419E-05-2.99294E-05 3.17132E-06-6.66815E-20-2.53846E-18
 -1       704 1.04502E-04-3.51879E-05-2.97087E-05 6.28084E-06 5.80847E-19-1.72496E-18
 -1       705 1.01279E-04-3.20110E-05-2.96867E-05 7.72924E-06-4.72153E-19-1.12806E-18
 -1       706 9.89880E-05-2.96150E-05-2.97298E-05 8.32491E-06-1.62902E-18-1.13683E-18
 -1       707 1.16414E-04-5.74389E-05-2.52086E-05 2.77348E-05-1.70036E-18-2.67832E-18
 -1       708 8.52497E-05-1.88916E-05-2.84421E-05 7.69707E-06-6.29673E-19-1.89073E-18
 -1       709 4.89780E-05-2.09478E-05-1.15019E-05 2.62372E-05 2.66140E-19 5.11179E-18
 -1       710 9.32706E-05-2.53542E-05-2.91107E-05 1.28683E-05-2.77236E-18 1.77469E-18
 -1       711 8.29905E-05-1.70086E-05-2.82792E-05 1.76004E-06 1.47832E-19-1.83209E-18
 -1       712 8.91407E-05-2.20533E-05-2.87550E-05 1.15651E-05-2.18863E-18 1.17362E-18
 -1       713 8.32619E-05-1.71347E-05-2.83414E-05-4.71751E-06 1.03265E-18-2.48079E-18
 -1       714 8.59611E-05-1.91630E-05-2.86315E-05-1.02601E-05 1.74227E-18-3.12714E-18
 -1       715 9.01343E-05-2.22772E-05-2.90860E-05-1.34679E-05 2.00539E-18 1.31815E-18
 -1       716 3.95117E-05-1.34512E-05-1.05900E-05-8.03573E-07 3.69727E-18 8.99470E-18
 -1       717 4.79877E-05-2.15154E-05-1.08300E-05-2.57976E-05 2.60923E-18 2.07438E-18
 -1       718 1.35209E-04-6.01811E-05-3.22374E-05 9.38948E-06-4.91279E-19-1.55497E-18
 -1       719 1.34400E-04-3.36432E-05-4.36000E-05 1.61247E-05 2.17338E-18-5.33366E-19
 -1       720 7.44659E-05-2.10308E-05-2.28992E-05-1.68826E-06 1.05362E-18-1.24670E-18
 -1       721 7.56478E-05-2.25706E-05-2.27473E-05-3.42682E-06 5.22275E-19-6.00394E-19
 -1       722 9.84849E-05-2.47214E-05-3.16144E-05-7.30111E-06-1.93416E-18-8.29776E-21
 -1       723 1.38049E-04-4.96627E-05-3.82134E-05-5.95152E-06 8.42718E-19-2.01631E-18
 -1       724 7.83358E-05-3.67458E-05-1.74369E-05 3.64832E-05-1.24534E-18 1.49530E-18
 -1       725 7.41071E-05-2.00054E-05-2.31832E-05-2.58221E-07 1.15361E-18-1.49906E-18
 -1       726 7.80310E-05-1.48798E-05-2.70697E-05 1.22538E-07 4.78291E-19-2.27222E-18
 -1       727 8.95818E-05-1.72461E-05-3.10067E-05-7.03785E-06-1.64007E-18-1.39796E-18
 -1       728 1.37276E-04-6.02842E-05-3.31613E-05 4.33512E-06-9.27250E-19 9.32266E-19
 -1       729 1.16068E-04-5.96264E-05-2.39838E-05-3.01176E-05-2.14546E-18-3.96016E-18
 -1       730 9.59935E-05-2.61075E-05-2.99475E-05-1.33657E-05-1.55630E-19 2.37912E-18
 -1       731 5.60828E-05-2.70681E-05-1.19594E-05 3.19623E-05-1.12764E-18-3.43377E-18
 -1       732 1.28301E-04-5.92809E-05-2.82259E-05-6.39221E-06-1.03555E-18 8.85096E-19
 -1       733 1.31295E-04-4.71589E-05-3.17022E-05 1.50772E-05-1.81223E-18-1.44843E-19
 -1       734 4.66384E-05-2.12434E-05-1.03659E-05-2.45896E-05-2.82174E-18-8.20351E-19
 -1       735 1.29207E-04-3.10668E-05-4.33802E-05 1.67680E-05-6.77203E-19 1.13248E-18
 -1       736 8.46166E-05-4.36653E-05-1.72266E-05 3.74326E-05 2.94820E-19-3.43292E-18
 -1       737 1.40247E-04-5.34308E-05-3.73809E-05 5.69751E-06 2.94103E-18-1.20866E-18
 -1       738 1.34388E-04-6.25965E-05-3.08007E-05-1.31773E-05 6.49926E-19-1.09606E-18
 -1       739 1.25419E-04-1.47716E-05-4.91109E-05 4.60136E-06 1.48305E-18-3.84871E-19
 -1       740 1.16146E-04-5.84216E-05-2.46193E-05 2.65171E-05-1.29861E-19-2.33909E-18
 -1       741 9.76610E-05-2.21855E-05-3.23436E-05-9.26672E-06-2.34552E-18-1.90218E-19
 -1       742 1.25209E-04-1.47210E-05-4.84412E-05-7.65003E-06 1.54737E-18-1.53165E-18
 -1       743 9.27724E-05-1.90632E-05-3.15921E-05-8.16560E-06-2.03291E-18-1.02149E-18
 -1       744 8.42599E-05-1.51897E-05-2.96065E-05-4.24556E-06-9.21744E-19-2.16238E-18
 -1       745 1.27451E-04-2.28245E-05-4.54162E-05 1.40755E-05-2.05559E-18-2.95360E-18
 -1       746 9.78142E-05-2.87104E-05-2.96129E-05 1.06330E-05-2.34679E-18-3.65590E-18
 -1       747 1.18432E-04-5.79974E-05-2.53521E-05-1.54529E-05-1.50460E-18-6.01737E-19
 -1       748 9.92807E-05-4.54527E-05-2.29454E-05 3.05242E-05-2.12820E-18-3.16680E-18
 -1       749 4.89143E-05-1.82333E-05-1.27210E-05 1.95348E-05-1.53748E-18-2.09543E-18
 -1       750 9.51414E-05-4.96888E-05-1.92032E-05-3.28962E-05-1.17123E-18 1.93818E-18
 -1       751 6.46377E-05-2.98100E-05-1.45714E-05-3.09014E-05-1.03969E-18 8.07805E-19
 -1       752 4.29414E-05-1.44494E-05-1.17583E-05-8.54054E-06-3.21745E-18 6.23284E-19
 -1       753 9.60100E-05-2.73897E-05-2.94097E-05 1.21920E-05-2.11049E-18 9.79826E-19
 -1       754 8.67732E-05-1.59987E-05-3.03372E-05-5.68832E-06-1.27210E-18-1.67140E-18
 -1       755 9.35440E-05-2.53195E-05-2.92392E-05-1.48235E-05 2.01817E-18 1.96571E-18
 -1       756 1.16932E-04-1.87050E-05-4.45955E-05 6.05686E-06 7.37766E-19 1.00437E-18
 -1       757 7.67138E-05-1.82640E-05-2.50509E-05 2.48496E-07 1.03932E-18-1.76034E-18
 -1       758 9.51273E-05-2.04593E-05-3.20005E-05-8.84903E-06-2.26627E-18-7.76958E-19
 -1       759 1.24061E-04-5.75884E-05-2.84533E-05-1.56694E-05-1.72294E-18-1.19732E-18
 -1       760 1.13192E-04-1.55295E-05-4.30748E-05-4.05347E-06 8.98252E-20-1.59173E-18
 -1       761 9.63421E-05-2.71099E-05-2.96710E-05-3.74235E-06-9.10392E-19-6.26405E-19
 -1       762 9.60758E-05-2.78558E-05-2.92372E-05-2.98173E-06-8.53597E-19-6.46439E-19
 -1       763 9.56980E-05-2.82689E-05-2.88982E-05-2.52053E-06-9.46456E-19-6.57627E-19
 -1       764 9.52681E-05-2.84601E-05-2.86320E-05-2.27031E-06-5.38079E-19-5.45268E-19
 -1       765 9.48169E-05-2.85015E-05-2.84209E-05-2.15724E-06-6.16754E-19-7.39527E-19
 -1       766 9.43599E-05-2.84400E-05-2.82514E-05-2.12372E-06-6.22289E-19-7.82854E-19
 -1       767 9.39039E-05-2.83064E-05-2.81132E-05-2.12590E-06-7.36184E-19 8.83074E-21
 -1       768 9.34512E-05-2.81203E-05-2.79990E-05-2.13043E-06-7.42358E-19 8.93496E-19
 -1       769 9.30012E-05-2.78937E-05-2.79032E-05-2.11153E-06-1.82662E-19 7.55056E-19
 -1       770 9.25519E-05-2.76333E-05-2.78222E-05-2.04832E-06-4.31551E-19-1.19225E-20
 -1       771 9.21007E-05-2.73428E-05-2.77534E-05-1.92287E-06-4.24915E-19-9.29248E-21
 -1       772 9.16450E-05-2.70241E-05-2.76947E-05-1.71865E-06-1.02664E-18 3.54410E-19
 -1       773 9.11832E-05-2.66787E-05-2.76447E-05-1.41925E-06-7.70769E-19 6.98222E-19
 -1       774 9.07158E-05-2.63101E-05-2.76023E-05-1.00750E-06-3.93529E-19 2.80707E-19
 -1       775 9.02480E-05-2.59256E-05-2.75664E-05-4.65221E-07 5.22262E-20 4.82565E-19
 -1       776 8.97926E-05-2.55385E-05-2.75365E-05 2.25691E-07 7.90428E-20 6.50407E-20
 -1       777 8.93750E-05-2.51698E-05-2.75142E-05 1.07860E-06 5.82592E-19 3.00626E-19
 -1       778 8.90379E-05-2.48454E-05-2.75076E-05 2.08860E-06 2.64465E-19 9.22795E-19
 -1       779 8.88319E-05-2.45730E-05-2.75411E-05 3.20358E-06-4.91786E-19 1.18878E-18
 -1       780 8.87453E-05-2.42566E-05-2.76607E-05 4.30033E-06-1.51737E-18 8.33340E-19
 -1       781 8.85232E-05-2.35447E-05-2.78924E-05 5.33718E-06-1.52016E-19-1.36331E-19
 -1       782 8.77632E-05-2.20974E-05-2.81239E-05 6.93113E-06 1.09266E-18-4.81419E-22
 -1       783 8.72855E-05-2.12497E-05-2.81913E-05 9.92165E-06 4.30382E-19 9.88646E-20
 -1       784 8.82552E-05-2.25823E-05-2.79978E-05 1.31762E-05 7.79641E-19 5.12521E-20
 -1       785 9.00769E-05-2.55507E-05-2.76202E-05 1.57160E-05 1.93077E-18 6.13613E-19
 -1       786 9.28248E-05-2.99403E-05-2.69494E-05 1.79562E-05 6.94352E-19 1.38736E-18
 -1       787 9.78613E-05-3.66115E-05-2.62472E-05 1.99932E-05 4.68960E-19-3.42122E-19
 -1       788 1.06714E-04-4.59846E-05-2.59326E-05 2.09124E-05 1.29256E-18 1.70027E-19
 -1       789 7.56121E-05-3.21387E-05-1.83767E-05 3.03944E-05 3.67678E-19-2.20282E-18
 -1       790 9.60408E-05-2.38772E-05-3.09290E-05-6.49733E-06-1.62050E-18-6.16867E-19
 -1       791 1.10412E-04-4.75691E-05-2.68743E-05-2.02568E-05 1.26613E-18-2.25155E-18
 -1       792 1.01479E-04-3.82461E-05-2.70820E-05-2.01749E-05 1.73663E-18-8.69094E-19
 -1       793 9.64719E-05-3.14701E-05-2.78604E-05-1.83353E-05 2.69414E-18 8.28112E-19
 -1       794 9.46098E-05-2.80263E-05-2.85403E-05-1.66035E-05 2.05964E-18 6.38216E-19
 -1       795 7.89594E-05-2.37886E-05-2.36447E-05-4.04702E-06 3.17322E-19-3.13673E-19
 -1       796 7.86084E-05-2.36078E-05-2.35717E-05-4.01508E-06 6.58017E-19-4.44694E-19
 -1       797 7.96707E-05-2.39758E-05-2.38693E-05-4.02806E-06-7.29112E-21 3.12823E-21
 -1       798 8.00295E-05-2.40075E-05-2.40094E-05-4.03765E-06-2.20724E-21-2.29359E-19
 -1       799 8.03882E-05-2.40073E-05-2.41632E-05-4.09003E-06-1.34324E-20-4.83288E-19
 -1       800 8.07450E-05-2.39786E-05-2.43284E-05-4.20314E-06 1.35923E-19-5.96838E-19
 -1       801 8.10984E-05-2.39241E-05-2.45032E-05-4.39280E-06-2.54243E-19-7.43777E-20
 -1       802 8.14482E-05-2.38475E-05-2.46859E-05-4.67328E-06-1.37643E-19-2.07857E-20
 -1       803 8.17971E-05-2.37560E-05-2.48746E-05-5.05697E-06 7.38380E-20-6.50906E-20
 -1       804 8.21524E-05-2.36635E-05-2.50664E-05-5.55306E-06-5.76904E-19-1.18516E-19
 -1       805 8.25297E-05-2.35943E-05-2.52573E-05-6.16413E-06 2.11173E-19 6.85247E-19
 -1       806 8.29546E-05-2.35855E-05-2.54420E-05-6.88013E-06 1.63170E-19 7.96034E-19
 -1       807 8.34614E-05-2.36840E-05-2.56154E-05-7.67014E-06 2.05259E-19 6.52698E-19
 -1       808 8.40789E-05-2.39306E-05-2.57781E-05-8.48092E-06 1.30850E-19 1.02952E-18
 -1       809 8.48041E-05-2.43370E-05-2.59507E-05-9.27294E-06-1.07655E-18 3.36241E-19
 -1       810 8.56281E-05-2.49225E-05-2.61886E-05-1.01781E-05-1.19311E-18 6.85944E-19
 -1       811 8.72346E-05-2.64145E-05-2.67388E-05-1.15419E-05-1.30769E-18 3.04429E-19
 -1       812 9.11358E-05-2.98523E-05-2.76497E-05-1.05258E-05-1.52889E-19-3.22720E-19
 -1       813 9.16047E-05-2.82310E-05-2.72649E-05-9.31955E-06-4.61666E-19-6.92714E-20
 -1       814 9.41989E-05-2.99815E-05-2.73419E-05-1.00733E-05 1.30282E-18 2.73991E-19
 -1       815 9.78843E-05-3.34134E-05-2.75770E-05-9.36645E-06-2.09963E-19 2.05372E-19
 -1       816 1.02377E-04-3.74745E-05-2.78271E-05-7.39006E-06-1.18478E-18-2.61854E-19
 -1       817 1.07415E-04-4.12401E-05-2.84127E-05-3.76867E-06-6.04087E-19 9.86516E-19
 -1       818 1.12047E-04-4.32314E-05-2.96833E-05 1.38659E-06-4.52369E-19 2.18258E-18
 -1       819 1.15001E-04-4.03595E-05-3.11825E-05 7.74656E-06-9.31683E-19 1.32044E-18
 -1       820 1.19540E-04-3.56512E-05-3.60861E-05-1.32409E-05 7.22817E-19-2.72291E-18
 -1       821 1.20694E-04-4.39494E-05-3.29397E-05-7.63908E-06-5.75414E-19-3.16476E-18
 -1       822 1.17526E-04-4.56621E-05-3.07996E-05-3.69648E-07-3.75212E-19-2.45557E-18
 -1       823 1.12231E-04-4.30609E-05-2.96369E-05 5.41359E-06 2.77492E-19-2.49133E-18
 -1       824 1.06888E-04-3.86545E-05-2.92410E-05 8.82634E-06 1.24971E-18-2.96735E-18
 -1       825 1.02446E-04-3.41393E-05-2.92759E-05 1.02490E-05-3.73843E-19-3.72387E-18
 -1       826 9.99032E-05-3.13556E-05-2.93829E-05 1.07709E-05-2.61588E-18-3.48287E-18
 -1       827 1.13971E-04-4.74001E-05-2.73940E-05 5.80916E-06-7.20560E-19-1.37532E-18
 -1       828 7.81433E-05-1.70482E-05-2.61760E-05-1.55674E-06 6.04377E-19-1.79397E-18
 -1       829 1.28140E-04-3.87760E-05-3.86082E-05-1.29282E-05 1.55964E-18-2.65530E-18
 -1       830 7.99156E-05-1.85009E-05-2.63211E-05 6.82311E-06-6.89677E-19-8.19478E-19
 -1       831 5.32538E-05-1.59815E-05-1.56749E-05 1.24698E-05-5.18394E-19 2.66151E-18
 -1       832 5.26958E-05-1.65840E-05-1.51848E-05-1.44586E-05 4.92188E-18 4.67435E-18
 -1       833 7.71162E-05-2.15762E-05-2.38030E-05-2.38252E-06 5.59264E-19-9.70422E-19
 -1       834 8.07574E-05-1.87743E-05-2.65661E-05-9.56272E-06 8.89033E-19-2.60185E-19
 -1       835 8.64313E-05-2.25277E-05-2.73891E-05-1.47666E-05 2.09060E-18-2.67745E-19
 -1       836 7.09256E-05-2.85875E-05-1.78523E-05-2.93765E-05 2.15574E-18 1.06157E-18
 -1       837 7.93136E-05-2.39061E-05-2.37461E-05-4.04000E-06 4.22972E-19 8.83552E-20
 -1       838 7.75355E-05-2.23910E-05-2.36334E-05-3.16867E-06 3.40741E-19-7.81702E-19
 -1       839 1.02328E-04-4.87382E-05-2.27951E-05-3.07226E-05-6.41495E-20-3.14402E-18
 -1       840 9.63840E-05-2.58539E-05-3.02268E-05-4.89557E-06-1.29720E-18-5.95353E-19
 -1       841 1.30491E-04-5.23454E-05-3.35936E-05-2.25903E-06-7.71280E-19-2.04191E-18
 -1       842 6.96623E-05-2.59127E-05-1.85066E-05 2.65643E-05-1.46916E-18 3.12386E-18
 -1       843 1.26483E-04-4.01129E-05-2.98098E-05 3.16441E-06-9.62865E-19 1.66654E-19
 -1       844 1.19580E-04-2.37049E-05-4.16002E-05-1.31001E-05 2.28593E-18-2.97436E-18
 -1       845 7.55866E-05-1.92541E-05-2.41418E-05 9.74268E-08 1.08107E-18-1.77089E-18
 -1       846 1.24137E-04-5.63111E-05-2.90723E-05 1.34203E-05-2.72644E-18-8.58670E-19
 -1       847 8.25666E-05-1.74707E-05-2.78993E-05-2.63402E-06-3.18833E-19-1.77194E-18
 -1       848 1.01029E-04-4.63355E-05-2.33123E-05 2.75090E-05 1.71941E-18-1.48668E-18
 -1       849 1.20245E-04-5.52063E-05-2.78140E-05 1.52705E-05 1.10870E-18 8.42279E-19
 -1       850 8.47630E-05-1.78217E-05-2.86902E-05-3.76284E-06-6.72845E-19-1.87429E-18
 -1       851 7.86047E-05-1.77134E-05-2.60969E-05-5.31237E-07 5.74222E-19-1.92092E-18
 -1       852 9.06192E-05-2.54250E-05-2.79375E-05-1.63258E-05 2.04670E-18 1.04249E-18
 -1       853 7.79061E-05-2.29522E-05-2.35517E-05-3.64235E-06 4.30253E-19-9.07870E-19
 -1       854 7.82591E-05-2.33404E-05-2.35366E-05-3.89956E-06 3.81047E-19-8.27631E-19
 -1       855 1.17584E-04-3.38233E-05-3.49319E-05 1.18833E-05 3.28225E-19 1.60619E-18
 -1       856 1.16889E-04-5.15694E-05-2.82003E-05-2.59513E-06-9.65300E-19-9.55347E-19
 -1       857 9.15852E-05-2.69696E-05-2.76920E-05 1.53346E-05-2.64982E-18 2.56614E-18
 -1       858 5.76063E-05-1.48758E-05-1.81326E-05-7.24084E-07-1.18647E-18 3.61512E-18
 -1       859 8.51585E-05-2.23983E-05-2.68975E-05 1.28868E-05-1.72045E-18 1.51395E-18
 -1       860 1.07735E-04-5.26698E-05-2.36047E-05-2.16462E-05-1.15122E-18-1.02990E-18
 -1       861 1.11929E-04-4.99192E-05-2.65300E-05 2.10959E-05-1.21026E-18-1.67245E-18
 -1       862 8.75920E-05-3.48518E-05-2.25196E-05 2.74432E-05-2.15287E-18-2.00002E-18
 -1       863 6.66217E-05-2.37521E-05-1.82142E-05 2.36990E-05-1.41002E-18-1.55112E-18
 -1       864 9.61868E-05-2.99125E-05-2.84001E-05 1.47881E-05-3.21526E-18 1.82641E-19
 -1       865 8.36528E-05-3.92529E-05-1.88518E-05-3.05810E-05 4.67867E-19 2.45972E-18
 -1       866 4.86887E-05-1.42615E-05-1.44514E-05 6.04670E-06-2.63912E-18-7.48380E-19
 -1       867 8.05302E-05-1.74412E-05-2.70392E-05-1.53206E-06 1.70993E-19-1.84411E-18
 -1       868 7.63931E-05-2.05605E-05-2.39279E-05-1.33434E-06 6.91102E-19-1.52247E-18
 -1       869 5.86656E-05-2.03839E-05-1.61335E-05-1.94721E-05-2.31433E-18-1.98084E-18
 -1       870 8.97312E-05-1.95948E-05-3.00602E-05-5.81198E-06-1.27179E-18-1.34144E-18
 -1       871 9.25460E-05-2.10988E-05-3.06232E-05-6.53834E-06-1.61101E-18-8.17317E-19
 -1       872 9.44176E-05-2.53186E-05-2.96139E-05-4.62901E-06-1.14261E-18-6.68648E-19
 -1       873 7.20349E-05-2.79811E-05-1.87339E-05-2.46683E-05-2.49650E-18-9.47982E-19
 -1       874 9.00414E-05-3.63996E-05-2.29075E-05-2.73797E-05 2.33460E-18-9.04505E-19
 -1       875 1.21990E-04-5.01246E-05-3.08322E-05 2.22191E-06-1.68709E-18-2.62096E-18
 -1       876 9.44243E-05-2.73818E-05-2.87326E-05-3.27451E-06-8.65421E-19-5.19873E-19
 -1       877 9.41505E-05-2.78328E-05-2.84219E-05-2.93856E-06-6.31899E-19-4.59336E-19
 -1       878 9.37899E-05-2.80461E-05-2.81759E-05-2.75304E-06-8.69641E-19-6.42168E-19
 -1       879 9.33817E-05-2.80926E-05-2.79811E-05-2.66545E-06-7.07295E-19-5.27378E-19
 -1       880 9.29487E-05-2.80211E-05-2.78261E-05-2.63248E-06-8.64938E-20-4.50702E-19
 -1       881 9.25026E-05-2.78644E-05-2.77021E-05-2.61981E-06-4.55471E-19-4.06070E-19
 -1       882 9.20481E-05-2.76432E-05-2.76021E-05-2.60041E-06-4.30487E-19-1.62267E-19
 -1       883 9.15845E-05-2.73696E-05-2.75207E-05-2.55252E-06-5.88152E-19 7.98343E-20
 -1       884 9.11075E-05-2.70498E-05-2.74533E-05-2.45763E-06-4.03602E-19 1.73486E-19
 -1       885 9.06104E-05-2.66858E-05-2.73963E-05-2.29902E-06-6.13991E-19 1.54821E-19
 -1       886 9.00847E-05-2.62771E-05-2.73461E-05-2.06025E-06-5.01490E-19 8.91976E-19
 -1       887 8.95212E-05-2.58227E-05-2.72993E-05-1.72354E-06-1.07653E-18 1.49232E-18
 -1       888 8.89114E-05-2.53230E-05-2.72520E-05-1.26849E-06 1.47394E-19 1.46741E-18
 -1       889 8.82497E-05-2.47822E-05-2.71995E-05-6.70641E-07-5.10573E-19 8.43053E-19
 -1       890 8.75388E-05-2.42129E-05-2.71372E-05 9.94462E-08 6.64700E-19 4.97297E-19
 -1       891 8.68014E-05-2.36426E-05-2.70635E-05 1.07352E-06-4.28699E-20 5.19315E-19
 -1       892 8.61059E-05-2.31249E-05-2.69926E-05 2.26783E-06 5.56333E-19 7.53231E-20
 -1       893 8.55996E-05-2.27351E-05-2.69842E-05 3.61381E-06-1.16680E-18-4.80632E-19
 -1       894 8.54177E-05-2.24026E-05-2.71539E-05 4.78285E-06-8.25586E-19 3.41460E-21
 -1       895 8.49843E-05-2.12300E-05-2.75109E-05 5.43131E-06 8.61724E-20 8.52360E-19
 -1       896 8.27506E-05-1.78210E-05-2.74813E-05 7.78992E-06 4.77832E-19-1.90953E-19
 -1       897 8.30466E-05-1.82522E-05-2.70495E-05 1.22850E-05 6.46127E-19-2.89368E-19
 -1       898 8.41121E-05-2.09993E-05-2.68241E-05 1.48807E-05 1.78573E-18 2.28600E-19
 -1       899 8.42154E-05-2.38219E-05-2.58422E-05 1.72655E-05 1.40028E-18-4.67721E-19
 -1       900 8.48722E-05-2.78479E-05-2.44243E-05 2.08053E-05 2.56266E-19-4.14219E-20
 -1       901 7.95846E-05-2.22293E-05-2.45807E-05-3.04749E-06 2.18783E-19-1.44233E-18
 -1       902 8.73292E-05-2.90214E-05-2.49641E-05-2.14739E-05 4.52580E-18-3.99484E-19
 -1       903 8.08366E-05-2.42971E-05-2.42312E-05-4.32262E-06 2.98080E-19-6.83968E-19
 -1       904 8.16224E-05-2.44018E-05-2.45231E-05-4.40343E-06 1.35992E-19-2.55157E-19
 -1       905 8.14399E-05-2.44640E-05-2.44182E-05-4.36669E-06 1.09552E-19-2.23601E-19
 -1       906 8.19432E-05-2.41468E-05-2.47699E-05-4.63306E-06-4.09097E-19-2.91120E-19
 -1       907 8.20698E-05-2.39591E-05-2.49046E-05-4.85836E-06-3.55991E-19-1.06338E-19
 -1       908 8.21666E-05-2.37358E-05-2.50417E-05-5.17752E-06-2.12202E-20-1.28604E-19
 -1       909 8.22316E-05-2.34862E-05-2.51765E-05-5.60533E-06-3.83525E-19 1.06916E-19
 -1       910 8.22704E-05-2.32301E-05-2.53024E-05-6.15522E-06-4.06501E-19 1.65936E-19
 -1       911 8.23025E-05-2.30048E-05-2.54117E-05-6.83533E-06-2.16683E-20 6.32556E-19
 -1       912 8.23682E-05-2.28695E-05-2.54959E-05-7.63843E-06 5.37870E-19 6.17765E-19
 -1       913 8.25286E-05-2.29012E-05-2.55539E-05-8.51997E-06-1.62985E-19 8.92575E-19
 -1       914 8.28268E-05-2.31455E-05-2.56143E-05-9.36887E-06-3.55851E-19 9.89806E-19
 -1       915 8.31400E-05-2.34836E-05-2.57772E-05-1.00338E-05-1.22147E-18 3.73641E-19
 -1       916 8.27469E-05-2.32993E-05-2.61727E-05-1.08406E-05-1.22445E-18-1.42725E-19
 -1       917 8.06856E-05-2.32434E-05-2.72552E-05-1.60619E-05-1.06038E-18-6.70321E-19
 -1       918 9.44006E-05-3.31844E-05-2.63268E-05-1.36766E-05-5.13090E-19 5.92076E-19
 -1       919 9.22842E-05-2.87778E-05-2.59328E-05-1.25499E-05 4.24337E-19-2.38016E-19
 -1       920 9.39754E-05-3.12939E-05-2.65296E-05-1.26365E-05 9.94015E-19 1.14694E-19
 -1       921 9.76142E-05-3.54497E-05-2.65985E-05-1.25618E-05-1.43926E-18 4.61110E-19
 -1       922 1.03384E-04-4.09233E-05-2.68912E-05-1.10039E-05-9.98854E-19 6.44195E-19
 -1       923 1.10706E-04-4.61457E-05-2.80694E-05-7.06687E-06-6.79089E-19-1.11321E-18
 -1       924 1.08745E-04-4.23849E-05-2.84410E-05 1.29971E-05 1.04981E-18-2.01065E-19
 -1       925 1.02729E-04-3.62238E-05-2.84957E-05 1.37467E-05-3.86308E-19-2.03018E-19
 -1       926 8.03846E-05-2.20972E-05-2.49423E-05-1.57742E-05 3.10166E-18 1.24850E-19
 -1       927 8.78554E-05-3.64062E-05-2.18898E-05 2.77982E-05 1.47155E-18-1.10221E-18
 -1       928 6.71148E-05-2.07422E-05-1.97181E-05-1.92365E-05 2.24427E-18 2.84771E-18
 -1       929 7.24012E-05-1.70509E-05-2.36954E-05 4.14313E-06-1.59887E-18 1.72564E-18
 -1       930 8.71436E-05-1.85180E-05-2.94121E-05-4.85007E-06-9.55867E-19-1.64779E-18
 -1       931 6.74776E-05-1.92657E-05-2.04959E-05 1.49010E-05-2.76996E-18 3.10479E-18
 -1       932 5.57649E-05-1.56488E-05-1.69778E-05-7.81308E-06-9.32461E-19-2.99770E-20
 -1       933 9.86512E-05-3.10464E-05-2.89733E-05 1.29894E-05-1.15837E-18 1.46133E-18
 -1       934 8.17920E-05-2.42951E-05-2.46415E-05-4.48662E-06-1.22159E-19-2.95741E-19
 -1       935 9.37189E-05-2.35336E-05-3.00785E-05-5.54346E-06-1.32567E-18-5.88388E-19
 -1       936 7.29256E-05-1.71649E-05-2.38522E-05-7.20273E-06 1.46536E-18-8.21572E-19
 -1       937 9.45470E-05-2.65921E-05-2.91237E-05-3.82195E-06-8.11294E-19-5.86389E-19
 -1       938 7.86387E-05-1.98600E-05-2.51911E-05-1.39606E-06 5.10560E-19-1.57833E-18
 -1       939 8.49459E-05-1.99780E-05-2.78436E-05-3.54103E-06-4.33283E-19-1.50948E-18
 -1       940 7.85535E-05-2.56451E-05-2.26025E-05-2.16618E-05 3.58516E-18 8.20026E-19
 -1       941 8.00132E-05-2.30935E-05-2.43942E-05-3.65685E-06 2.28812E-19-1.12717E-18
 -1       942 8.06055E-05-2.40608E-05-2.42335E-05-4.23050E-06 5.10928E-19-7.34493E-19
 -1       943 8.10481E-05-2.44263E-05-2.42665E-05-4.35239E-06 4.22667E-20-5.84779E-19
 -1       944 8.12482E-05-2.44759E-05-2.43310E-05-4.35738E-06 3.35003E-19-3.19065E-19
 -1       945 1.25660E-04-4.52641E-05-3.45392E-05-8.32099E-06-5.16419E-19-3.81482E-18
 -1       946 9.74534E-05-4.47163E-05-2.25987E-05-2.39950E-05 1.08612E-18-9.12728E-19
 -1       947 7.84796E-05-2.14801E-05-2.44244E-05 1.38589E-05-4.40555E-18 8.26832E-19
 -1       948 1.17977E-04-4.92030E-05-2.94748E-05 8.08701E-06-2.61179E-19-5.36610E-19
 -1       949 7.89669E-05-2.09591E-05-2.48611E-05-2.10879E-06 2.11709E-19-1.48687E-18
 -1       950 1.01080E-04-4.16980E-05-2.54020E-05 2.34616E-05-1.49050E-18-1.80649E-18
 -1       951 9.66502E-05-3.32479E-05-2.71823E-05 1.79074E-05 4.16817E-20 9.64010E-19
 -1       952 6.16760E-05-1.78759E-05-1.86170E-05 1.41862E-05-1.33319E-18-2.22432E-18
 -1       953 8.96174E-05-2.14396E-05-2.92181E-05-4.96049E-06-9.57773E-19-1.12634E-18
 -1       954 8.79244E-05-2.78394E-05-2.57532E-05 1.84134E-05-3.50717E-18 1.80222E-18
 -1       955 6.71525E-05-2.01259E-05-2.00522E-05-1.48358E-05-3.89545E-19-5.50068E-19
 -1       956 7.75730E-05-2.02396E-05-2.45712E-05-1.32805E-06 5.43962E-19-1.67200E-18
 -1       957 8.27959E-05-1.96959E-05-2.70434E-05-2.74939E-06-6.80538E-20-1.47872E-18
 -1       958 9.16246E-05-2.23705E-05-2.96775E-05-5.34251E-06-1.11814E-18-8.50400E-19
 -1       959 8.47224E-05-3.43024E-05-2.15537E-05-2.38378E-05-2.51828E-19 5.76687E-19
 -1       960 9.25788E-05-2.50086E-05-2.89579E-05-4.39862E-06-9.45707E-19-5.40430E-19
 -1       961 9.25493E-05-2.74292E-05-2.79086E-05-3.31488E-06-5.14923E-19-6.08391E-19
 -1       962 9.22426E-05-2.76297E-05-2.76912E-05-3.19452E-06-5.98106E-19-2.04903E-19
 -1       963 9.18743E-05-2.76590E-05-2.75209E-05-3.13469E-06-6.64307E-19 3.76126E-20
 -1       964 9.14691E-05-2.75640E-05-2.73879E-05-3.10589E-06-4.60542E-19-5.06963E-19
 -1       965 9.10396E-05-2.73761E-05-2.72844E-05-3.08388E-06-3.21234E-19-4.83723E-19
 -1       966 9.05901E-05-2.71151E-05-2.72035E-05-3.04905E-06-1.57040E-19-2.46987E-19
 -1       967 9.01172E-05-2.67913E-05-2.71397E-05-2.98476E-06-5.59893E-20 3.13824E-19
 -1       968 8.96133E-05-2.64089E-05-2.70876E-05-2.87613E-06-1.55489E-19 8.75579E-19
 -1       969 8.90662E-05-2.59671E-05-2.70425E-05-2.70912E-06-1.60301E-19 1.23025E-18
 -1       970 8.84598E-05-2.54619E-05-2.69991E-05-2.46892E-06-5.87615E-19 1.01795E-18
 -1       971 8.77749E-05-2.48879E-05-2.69515E-05-2.13816E-06-3.12946E-19 1.01803E-18
 -1       972 8.69890E-05-2.42394E-05-2.68922E-05-1.69544E-06-3.83689E-19 1.15300E-18
 -1       973 8.60771E-05-2.35123E-05-2.68116E-05-1.11152E-06-6.70812E-20 1.50778E-18
 -1       974 8.50149E-05-2.27079E-05-2.66991E-05-3.42983E-07 3.74844E-19 1.31111E-18
 -1       975 8.37947E-05-2.18436E-05-2.65521E-05 6.77954E-07-2.90064E-19 9.53744E-19
 -1       976 8.24769E-05-2.09855E-05-2.64119E-05 2.05391E-06-5.21007E-19 7.27578E-19
 -1       977 8.13490E-05-2.03378E-05-2.64422E-05 3.87784E-06-4.63281E-19 1.39960E-18
 -1       978 8.13054E-05-2.02498E-05-2.69313E-05 5.63818E-06 7.06690E-19 1.73237E-18
 -1       979 8.05805E-05-1.75137E-05-2.74401E-05 5.04645E-06-3.87412E-19 1.17616E-18
 -1       980 7.93325E-05-1.38654E-05-2.52748E-05 1.26945E-05-1.81689E-19 5.38607E-19
 -1       981 8.20756E-05-1.86713E-05-2.60845E-05 1.33628E-05 1.02576E-18-5.36595E-19
 -1       982 7.98171E-05-2.00087E-05-2.53721E-05 1.33577E-05 1.21374E-18-1.39861E-18
 -1       983 7.62221E-05-2.08671E-05-2.36823E-05 1.54198E-05 1.40472E-18-1.32884E-18
 -1       984 8.28189E-05-2.38789E-05-2.52600E-05-5.08500E-06-2.07023E-19-1.16202E-19
 -1       985 8.29271E-05-2.42050E-05-2.51666E-05-4.85178E-06-4.46887E-19-4.05598E-19
 -1       986 8.24083E-05-2.30839E-05-2.54244E-05-5.84352E-06-1.72490E-19-2.52172E-19
 -1       987 8.21010E-05-2.26515E-05-2.54770E-05-6.41087E-06-1.50073E-19-4.25298E-19
 -1       988 8.17509E-05-2.22567E-05-2.54939E-05-7.13475E-06-4.08706E-19-4.39044E-19
 -1       989 8.14258E-05-2.19953E-05-2.54667E-05-8.02536E-06-7.91219E-20 2.23112E-19
 -1       990 8.12650E-05-2.20192E-05-2.54148E-05-9.02750E-06-5.05918E-19 3.30379E-19
 -1       991 8.14592E-05-2.24778E-05-2.54542E-05-9.87999E-06-4.90176E-19 1.19346E-18
 -1       992 8.19503E-05-2.32183E-05-2.58598E-05-9.81727E-06-3.54219E-19 4.02420E-19
 -1       993 8.12690E-05-2.26873E-05-2.65303E-05-8.17436E-06-9.99896E-19-5.19231E-19
 -1       994 7.67499E-05-1.55131E-05-2.57572E-05-6.38351E-06-3.92600E-19 1.22185E-19
 -1       995 9.03775E-05-2.55735E-05-2.49625E-05-4.96301E-06 2.59298E-19 5.20714E-19
 -1       996 8.95254E-05-2.78332E-05-2.57809E-05-1.21503E-05 1.19273E-19 8.13231E-19
 -1       997 9.11115E-05-3.11658E-05-2.55648E-05-1.50614E-05-8.02064E-19 1.25135E-18
 -1       998 9.55141E-05-3.67461E-05-2.51841E-05-1.70022E-05-5.69841E-19-1.44838E-19
 -1       999 8.07224E-05-1.96749E-05-2.61632E-05-2.01235E-06 2.88002E-19-1.59228E-18
 -1      1000 1.00839E-04-3.74242E-05-2.71730E-05 1.82699E-05 9.27369E-19-5.20793E-20
 -1      1001 8.13386E-05-2.17523E-05-2.55358E-05-2.95695E-06 2.39488E-19-1.47458E-18
 -1      1002 6.13989E-05-1.55845E-05-1.95085E-05 2.50355E-06 6.93409E-20-1.26634E-18
 -1      1003 8.72124E-05-2.05520E-05-2.85687E-05-4.30399E-06-6.27860E-19-1.65575E-18
 -1      1004 8.29935E-05-2.48549E-05-2.49165E-05-4.54144E-06 4.75464E-19-1.96426E-19
 -1      1005 8.03397E-05-2.36781E-05-2.42835E-05-4.02826E-06 2.52021E-19-6.72653E-19
 -1      1006 7.68692E-05-2.46203E-05-2.23189E-05 2.01093E-05-3.55934E-18 1.57473E-18
 -1      1007 8.91360E-05-3.19928E-05-2.44350E-05 2.25982E-05-2.55713E-18-1.45775E-18
 -1      1008 8.26485E-05-2.35016E-05-2.53486E-05-5.40913E-06-3.98146E-19 1.41195E-19
 -1      1009 6.72754E-05-1.73722E-05-2.13386E-05-6.16623E-06 1.60726E-19-3.44857E-19
 -1      1010 9.27990E-05-2.62289E-05-2.85299E-05-3.87700E-06-6.88992E-19-5.80194E-19
 -1      1011 9.27541E-05-2.69915E-05-2.81840E-05-3.53089E-06-7.43415E-19-6.57921E-19
 -1      1012 7.60639E-05-2.51988E-05-2.17696E-05-1.84872E-05 3.98453E-19-1.42478E-18
 -1      1013 7.24559E-05-2.02600E-05-2.23450E-05-1.21253E-05 6.30851E-19-3.85665E-19
 -1      1014 8.27223E-05-2.47370E-05-2.48509E-05-4.41984E-06 2.90048E-19-4.51699E-19
 -1      1015 8.29611E-05-2.49542E-05-2.48601E-05-4.51739E-06 6.78465E-20-9.39474E-20
 -1      1016 8.28333E-05-2.49195E-05-2.48202E-05-4.48222E-06 2.56761E-19-5.92803E-19
 -1      1017 8.29849E-05-2.44772E-05-2.50747E-05-4.69329E-06-3.29181E-19-1.65235E-19
 -1      1018 9.22095E-05-2.38553E-05-2.92969E-05-4.82614E-06-1.13766E-18-7.86402E-19
 -1      1019 8.92723E-05-2.28742E-05-2.84568E-05-4.44387E-06-9.30343E-19-1.32349E-18
 -1      1020 8.70154E-05-2.21505E-05-2.77993E-05-4.03721E-06-5.52135E-19-1.32890E-18
 -1      1021 8.30037E-05-2.46943E-05-2.49897E-05-4.59479E-06 8.14253E-22-1.39861E-19
 -1      1022 8.19164E-05-2.29791E-05-2.52585E-05-3.59663E-06-5.98984E-20-1.42147E-18
 -1      1023 8.48186E-05-2.16681E-05-2.70651E-05-3.55287E-06-2.01697E-19-1.17780E-18
 -1      1024 8.29092E-05-2.49822E-05-2.48258E-05-4.50547E-06 3.91608E-20-4.60754E-19
 -1      1025 9.06454E-05-2.72040E-05-2.71892E-05-3.59363E-06-3.60743E-19-8.44063E-19
 -1      1026 9.03157E-05-2.71999E-05-2.70496E-05-3.55834E-06-7.65916E-19-4.60071E-19
 -1      1027 8.99431E-05-2.70728E-05-2.69444E-05-3.53587E-06-3.77288E-19-4.14093E-19
 -1      1028 8.95381E-05-2.68505E-05-2.68662E-05-3.51125E-06 2.49340E-19-7.10046E-20
 -1      1029 8.91026E-05-2.65501E-05-2.68082E-05-3.47351E-06-5.14027E-20 5.38766E-23
 -1      1030 8.86289E-05-2.61781E-05-2.67646E-05-3.41105E-06 3.81988E-19-6.61128E-19
 -1      1031 8.81045E-05-2.57359E-05-2.67294E-05-3.31412E-06 1.55837E-19-4.54423E-20
 -1      1032 8.75121E-05-2.52206E-05-2.66965E-05-3.17315E-06-1.51979E-19 2.58428E-19
 -1      1033 8.68252E-05-2.46216E-05-2.66589E-05-2.97671E-06-5.66159E-19 5.61771E-19
 -1      1034 8.60143E-05-2.39300E-05-2.66076E-05-2.71282E-06-1.79172E-19 3.17804E-19
 -1      1035 8.50368E-05-2.31301E-05-2.65308E-05-2.36559E-06-3.90118E-19 6.66387E-19
 -1      1036 8.38362E-05-2.22017E-05-2.64132E-05-1.91130E-06 8.05565E-20 8.43202E-19
 -1      1037 8.23315E-05-2.11137E-05-2.62417E-05-1.30884E-06-3.51205E-19 3.83990E-19
 -1      1038 8.04025E-05-1.98144E-05-2.60363E-05-4.71326E-07-3.27235E-19 6.76483E-19
 -1      1039 7.78631E-05-1.82127E-05-2.59575E-05 8.18454E-07 9.02752E-20 4.78190E-19
 -1      1040 7.42933E-05-1.60780E-05-2.64570E-05 3.10888E-06 2.85106E-19 1.05842E-18
 -1      1041 6.74044E-05-1.20794E-05-2.78447E-05 9.70203E-06-1.38278E-19 7.61059E-19
 -1      1042 8.86739E-05-1.18841E-05-2.55526E-05 2.51367E-05-2.82485E-19 3.21025E-19
 -1      1043 8.85112E-05-2.21795E-05-2.41723E-05 1.07032E-05-6.66813E-19 4.60362E-19
 -1      1044 8.09457E-05-1.99748E-05-2.50205E-05 7.20865E-06 4.90366E-19-1.14392E-18
 -1      1045 7.40366E-05-1.81804E-05-2.37273E-05 7.17676E-06 5.22791E-19-1.41269E-18
 -1      1046 8.33941E-05-2.37188E-05-2.55751E-05-5.04803E-06-1.66294E-19 6.03198E-19
 -1      1047 8.23037E-05-2.38325E-05-2.50590E-05-4.02295E-06-6.30326E-20-1.18523E-18
 -1      1048 8.17051E-05-2.19628E-05-2.56008E-05-6.26195E-06-7.64923E-20 7.78828E-20
 -1      1049 8.23911E-05-2.25916E-05-2.56274E-05-5.72536E-06-2.58534E-20-8.29221E-20
 -1      1050 8.01130E-05-2.09271E-05-2.53758E-05-8.01574E-06-5.52269E-19-3.63338E-19
 -1      1051 7.95985E-05-2.09673E-05-2.52551E-05-9.34469E-06-1.38174E-18 1.74997E-19
 -1      1052 8.00878E-05-2.20672E-05-2.54543E-05-1.07291E-05-3.94810E-19 7.47004E-19
 -1      1053 8.25496E-05-2.46713E-05-2.63725E-05-1.03863E-05-8.88326E-20 1.16033E-18
 -1      1054 8.17946E-05-2.20747E-05-2.54584E-05-8.51831E-06-1.47868E-18 4.91491E-19
 -1      1055 7.94895E-05-1.74404E-05-2.47867E-05-9.05005E-06-1.00702E-18 1.10728E-18
 -1      1056 8.27543E-05-2.16030E-05-2.54378E-05-1.00518E-05-1.44790E-19 1.52389E-18
 -1      1057 8.39931E-05-2.52473E-05-2.50262E-05-1.38979E-05 2.07043E-19 7.22546E-19
 -1      1058 8.87394E-05-2.39474E-05-2.77666E-05-4.18622E-06-8.34024E-19-1.12839E-18
 -1      1059 8.09133E-05-2.13611E-05-2.55172E-05-7.00072E-06-2.62296E-19-6.05334E-19
 -1      1060 8.25572E-05-2.43947E-05-2.49268E-05-4.28122E-06 2.15208E-19-1.14744E-18
 -1      1061 8.29511E-05-2.31854E-05-2.56138E-05-5.33349E-06 7.94244E-20 8.54301E-20
 -1      1062 9.08515E-05-2.48801E-05-2.82726E-05-4.20578E-06-7.06976E-19-1.10633E-18
 -1      1063 8.30994E-05-2.16765E-05-2.63239E-05-3.21788E-06 2.97554E-20-1.31971E-18
 -1      1064 8.37367E-05-2.41822E-05-2.55234E-05-4.84373E-06-6.85464E-19 1.41317E-19
 -1      1065 9.09099E-05-2.70426E-05-2.73717E-05-3.65873E-06-2.81746E-19-9.40832E-19
 -1      1066 8.52849E-05-2.91298E-05-2.40491E-05-1.76814E-05-4.38542E-19 4.59382E-19
 -1      1067 8.39993E-05-2.45761E-05-2.54672E-05-4.70196E-06 1.13715E-19 9.37154E-20
 -1      1068 8.43542E-05-2.51594E-05-2.53691E-05-4.55649E-06 2.71898E-19 9.17985E-19
 -1      1069 7.53025E-05-1.85721E-05-2.39854E-05-3.57677E-06 2.68536E-19-1.06419E-18
 -1      1070 8.44729E-05-2.53489E-05-2.53389E-05-4.53361E-06 1.21012E-19 5.95234E-19
 -1      1071 8.65845E-05-2.33509E-05-2.70995E-05-3.99020E-06-4.50845E-19-8.82485E-19
 -1      1072 8.45778E-05-2.50919E-05-2.54940E-05-4.38939E-06-1.24848E-19-5.24734E-19
 -1      1073 9.10718E-05-2.59607E-05-2.79043E-05-3.95195E-06-6.61189E-19-1.30459E-18
 -1      1074 9.10705E-05-2.66539E-05-2.76070E-05-3.77250E-06-6.34426E-19-8.69208E-19
 -1      1075 8.37799E-05-2.31139E-05-2.59996E-05-3.74102E-06-2.29847E-20-1.14347E-18
 -1      1076 7.88829E-05-2.30553E-05-2.38985E-05-1.42623E-05 1.72117E-19-5.05573E-19
 -1      1077 8.46275E-05-2.53606E-05-2.54006E-05-4.47086E-06 1.13231E-19-5.30590E-19
 -1      1078 8.44336E-05-2.46073E-05-2.56404E-05-4.23508E-06-1.74495E-19-8.17750E-19
 -1      1079 8.41995E-05-2.49013E-05-2.54135E-05-4.60985E-06 7.65854E-21 5.46953E-19
 -1      1080 8.90131E-05-2.67609E-05-2.66796E-05-3.94319E-06-5.40375E-19-1.05390E-18
 -1      1081 8.92388E-05-2.66547E-05-2.68219E-05-3.96772E-06-3.86008E-19-8.29708E-19
 -1      1082 8.87271E-05-2.67169E-05-2.65757E-05-3.92763E-06-6.01074E-19-5.59181E-19
 -1      1083 8.83965E-05-2.65568E-05-2.65024E-05-3.91692E-06-9.31791E-20-4.94319E-19
 -1      1084 8.80251E-05-2.63005E-05-2.64534E-05-3.90206E-06-1.29323E-19-9.48915E-19
 -1      1085 8.76169E-05-2.59664E-05-2.64219E-05-3.87424E-06-1.82255E-20-8.85929E-19
 -1      1086 8.71609E-05-2.55594E-05-2.64006E-05-3.83205E-06 6.72701E-19-7.23918E-19
 -1      1087 8.66298E-05-2.50668E-05-2.63832E-05-3.77465E-06 4.08644E-19-6.32793E-19
 -1      1088 8.59976E-05-2.44841E-05-2.63627E-05-3.70096E-06 1.73460E-19-1.25494E-19
 -1      1089 8.52461E-05-2.38084E-05-2.63301E-05-3.60242E-06-3.81260E-19 3.85024E-19
 -1      1090 8.43242E-05-2.30182E-05-2.62732E-05-3.47849E-06-5.62750E-19 2.50130E-19
 -1      1091 8.31708E-05-2.20907E-05-2.61757E-05-3.33206E-06-7.70346E-19-2.80812E-19
 -1      1092 8.16935E-05-2.09888E-05-2.60191E-05-3.17371E-06-3.56636E-19-9.13724E-19
 -1      1093 7.97372E-05-1.96407E-05-2.58037E-05-3.03425E-06-2.28906E-19-4.40090E-19
 -1      1094 7.70051E-05-1.78916E-05-2.56394E-05-3.00439E-06 4.82221E-20 4.10943E-20
 -1      1095 7.28341E-05-1.54126E-05-2.60039E-05-3.40522E-06-6.99745E-20-2.56863E-19
 -1      1096 6.58299E-05-1.19906E-05-2.80427E-05-6.12828E-06-5.28469E-19-1.49035E-18
 -1      1097 6.96337E-05-1.77022E-05-2.56253E-05-1.59163E-05-7.98752E-19-1.75505E-18
 -1      1098 9.19699E-05-2.36311E-05-2.35642E-05-6.38206E-06-4.38181E-19-1.69661E-18
 -1      1099 8.31072E-05-2.06877E-05-2.50246E-05-2.49565E-06-5.14864E-19-1.43403E-18
 -1      1100 8.31351E-05-2.28313E-05-2.58441E-05-4.92537E-06-1.69015E-19-6.68481E-19
 -1      1101 8.41599E-05-2.39649E-05-2.57981E-05-4.03381E-06-7.50667E-20-1.00100E-18
 -1      1102 7.66715E-05-1.90762E-05-2.52889E-05-9.57304E-06-8.81834E-19-8.46874E-19
 -1      1103 7.81853E-05-1.94439E-05-2.52882E-05-7.49506E-06-8.05071E-19 8.01965E-19
 -1      1104 8.13095E-05-2.72138E-05-2.64047E-05-1.44937E-05-5.47183E-19 1.40396E-19
 -1      1105 8.16554E-05-1.99347E-05-2.42876E-05-1.01133E-05-5.67936E-19-5.32069E-19
 -1      1106 7.94107E-05-1.82663E-05-2.53643E-05-1.02423E-05-1.02089E-18-9.86383E-19
 -1      1107 7.90061E-05-2.01319E-05-2.50228E-05-1.10250E-05 7.02872E-19-8.17400E-19
 -1      1108 7.97627E-05-2.02768E-05-2.55032E-05-6.32586E-06-4.96283E-19 9.91383E-19
 -1      1109 8.51912E-05-2.32118E-05-2.65604E-05-3.85964E-06-1.72191E-19-1.00799E-18
 -1      1110 8.11266E-05-2.11867E-05-2.56853E-05-5.63626E-06-7.13443E-23 7.62550E-19
 -1      1111 8.38471E-05-2.35171E-05-2.58557E-05-4.73548E-06-8.75296E-20-1.03309E-18
 -1      1112 8.44155E-05-2.41127E-05-2.58440E-05-4.59889E-06-2.59658E-19-7.81248E-19
 -1      1113 7.63252E-05-2.04906E-05-2.62195E-05-1.33359E-05-1.00728E-18-7.15531E-19
 -1      1114 8.22414E-05-2.20511E-05-2.57940E-05-5.20649E-06-3.07209E-19-1.81756E-19
 -1      1115 8.91442E-05-2.51857E-05-2.74114E-05-4.11893E-06-3.52074E-19-9.15996E-19
 -1      1116 8.93695E-05-2.63401E-05-2.70127E-05-4.00595E-06-4.14914E-19-4.31655E-19
 -1      1117 8.58019E-05-2.56655E-05-2.57729E-05-4.40135E-06-4.30785E-20 1.34509E-19
 -1      1118 8.45623E-05-2.54589E-05-2.53301E-05-4.52370E-06-2.37069E-19 1.64216E-19
 -1      1119 7.76251E-05-2.01386E-05-2.45057E-05-1.06255E-05 1.19311E-18-1.44593E-18
 -1      1120 8.48848E-05-2.46261E-05-2.58242E-05-4.50621E-06-2.88768E-19 3.42928E-20
 -1      1121 8.64160E-05-2.57570E-05-2.59960E-05-4.34198E-06 2.53810E-20-4.90037E-19
 -1      1122 8.46187E-05-2.54730E-05-2.53481E-05-4.50746E-06-2.60568E-20 7.42725E-20
 -1      1123 8.55492E-05-2.53926E-05-2.57814E-05-4.42128E-06 3.34489E-19 3.84371E-19
 -1      1124 8.93202E-05-2.58731E-05-2.71926E-05-4.05736E-06-3.80993E-21-7.23144E-19
 -1      1125 8.63876E-05-2.53708E-05-2.61495E-05-4.27957E-06-3.83403E-19-8.06339E-19
 -1      1126 8.75449E-05-2.62467E-05-2.62705E-05-4.23756E-06-5.83373E-19-4.55685E-19
 -1      1127 8.73614E-05-2.62944E-05-2.61714E-05-4.23970E-06-2.79767E-19-5.14079E-19
 -1      1128 8.71219E-05-2.62093E-05-2.61056E-05-4.23544E-06-3.28562E-19-2.14867E-19
 -1      1129 8.57554E-05-2.49674E-05-2.60533E-05-4.23926E-06 5.02805E-19-3.46323E-20
 -1      1130 8.68115E-05-2.46074E-05-2.66596E-05-4.14171E-06-3.09245E-19-6.81729E-19
 -1      1131 8.52494E-05-2.50486E-05-2.58002E-05-4.44976E-06 3.13074E-19 1.54326E-19
 -1      1132 8.61855E-05-2.54003E-05-2.60506E-05-4.22406E-06 1.84104E-19 6.15069E-19
 -1      1133 8.79025E-05-2.60587E-05-2.65045E-05-4.18810E-06-4.18267E-19-8.81205E-19
 -1      1134 8.78657E-05-2.56183E-05-2.66769E-05-4.18182E-06-9.91549E-20-9.04837E-19
 -1      1135 1.31268E-04 2.94162E-10-4.69240E-05-4.57903E-05-1.23243E-19 1.35153E-17
 -1      1136 9.76226E-05 8.07300E-11-4.09733E-05-2.60221E-05-1.37219E-19 5.36167E-18
 -1      1137 9.01113E-05 4.48810E-11-3.83357E-05-1.90454E-05-1.29914E-19 1.11544E-18
 -1      1138 8.58564E-05 3.34300E-11-3.65847E-05-1.47562E-05-1.01750E-19-1.21054E-18
 -1      1139 8.27385E-05 2.76073E-11-3.52632E-05-1.13780E-05-8.37504E-20-2.57327E-18
 -1      1140 8.01527E-05 2.41475E-11-3.41659E-05-8.51106E-06-6.15687E-20-3.36146E-18
 -1      1141 7.78356E-05 2.19445E-11-3.31810E-05-5.94358E-06-4.17693E-20-3.88768E-18
 -1      1142 7.56502E-05 2.05801E-11-3.22504E-05-3.54291E-06-3.10226E-20-4.20859E-18
 -1      1143 7.35550E-05 1.98469E-11-3.13554E-05-1.25380E-06-1.99582E-20-4.51565E-18
 -1      1144 7.15149E-05 1.96423E-11-3.04812E-05 9.86533E-07-2.06464E-21-4.70014E-18
 -1      1145 6.95141E-05 1.99439E-11-2.96214E-05 3.23419E-06 7.30566E-21-4.89706E-18
 -1      1146 6.75752E-05 2.07928E-11-2.87862E-05 5.52589E-06 1.92700E-20-4.93712E-18
 -1      1147 6.57197E-05 2.23893E-11-2.79877E-05 7.94791E-06 3.38813E-20-4.80717E-18
 -1      1148 6.40528E-05 2.52120E-11-2.72738E-05 1.06184E-05 6.41627E-20-4.30279E-18
 -1      1149 6.29408E-05 3.08658E-11-2.67906E-05 1.37149E-05 1.04344E-19-2.91519E-18
 -1      1150 6.35618E-05 4.63812E-11-2.68931E-05 1.78848E-05 1.51460E-19 2.80434E-19
 -1      1151 7.41321E-05 1.11474E-10-2.83966E-05 2.61462E-05 4.06152E-19 7.88037E-18
 -1      1152 1.47862E-04-2.94161E-05-4.55722E-05-2.89978E-05-7.82023E-19 1.89901E-17
 -1      1153 1.11910E-04-3.31719E-05-3.60939E-05-7.13439E-07-2.13029E-19 1.72824E-17
 -1      1154 1.03639E-04-3.10631E-05-3.19920E-05 4.16082E-07-7.65506E-20 1.40331E-17
 -1      1155 1.01018E-04-3.04061E-05-3.04763E-05 2.57552E-07-2.66782E-20 1.15643E-17
 -1      1156 9.99455E-05-3.00643E-05-2.99979E-05 1.62223E-07-2.32355E-20 9.86605E-18
 -1      1157 9.95637E-05-2.99170E-05-2.98620E-05 1.09677E-07 7.58525E-21 8.92360E-18
 -1      1158 9.94818E-05-2.98703E-05-2.98361E-05 7.68023E-08 4.46951E-20 8.35065E-18
 -1      1159 9.95079E-05-2.98655E-05-2.98434E-05 5.45036E-08-1.23429E-19 7.53664E-18
 -1      1160 9.95404E-05-2.98682E-05-2.98524E-05 3.83476E-08 2.64855E-20 6.26559E-18
 -1      1161 9.95249E-05-2.98597E-05-2.98476E-05 2.61343E-08 1.81022E-20 5.32777E-18
 -1      1162 9.94358E-05-2.98308E-05-2.98214E-05 1.66907E-08-9.09319E-20 4.64724E-18
 -1      1163 9.92652E-05-2.97787E-05-2.97713E-05 9.33265E-09 1.49037E-20 4.23501E-18
 -1      1164 9.90172E-05-2.97042E-05-2.96984E-05 3.62659E-09 7.52765E-21 4.10029E-18
 -1      1165 9.87045E-05-2.96107E-05-2.96065E-05-7.14330E-10-2.14114E-19 4.30948E-18
 -1      1166 9.83455E-05-2.95039E-05-2.95009E-05-3.87712E-09-5.80845E-20 4.66092E-18
 -1      1167 9.79636E-05-2.93904E-05-2.93888E-05-5.97087E-09-2.20534E-19 4.22874E-18
 -1      1168 9.75862E-05-2.92786E-05-2.92782E-05-7.04025E-09-9.91700E-20 3.03204E-18
 -1      1169 9.72442E-05-2.91776E-05-2.91785E-05-7.08169E-09-3.67055E-20 1.82023E-18
 -1      1170 9.69721E-05-2.90978E-05-2.90999E-05-6.07377E-09-2.00649E-19 1.13202E-18
 -1      1171 9.68066E-05-2.90501E-05-2.90534E-05-4.03581E-09 1.85883E-19 1.14162E-18
 -1      1172 9.67854E-05-2.90459E-05-2.90498E-05-1.12470E-09 1.07743E-19 1.22436E-18
 -1      1173 9.69448E-05-2.90958E-05-2.91000E-05 2.25047E-09-1.06636E-19 2.56073E-18
 -1      1174 9.73176E-05-2.92100E-05-2.92138E-05 5.40689E-09-1.11073E-19 2.60824E-18
 -1      1175 9.79342E-05-2.93974E-05-2.94015E-05 7.73916E-09-2.54853E-19 1.34778E-18
 -1      1176 9.88322E-05-2.96696E-05-2.96766E-05 9.81294E-09 2.68147E-20 9.08435E-19
 -1      1177 1.00078E-04-3.00469E-05-3.00625E-05 1.51296E-08 3.98453E-20 3.24623E-18
 -1      1178 1.01796E-04-3.05662E-05-3.05964E-05 3.06897E-08 4.25546E-19 3.94810E-18
 -1      1179 1.04162E-04-3.12784E-05-3.13247E-05 6.36515E-08-6.63068E-21 1.54771E-18
 -1      1180 1.07339E-04-3.22279E-05-3.22816E-05 1.14139E-07 4.12278E-19 1.89463E-18
 -1      1181 1.11327E-04-3.34111E-05-3.34495E-05 1.69525E-07 3.54753E-20 2.60701E-18
 -1      1182 1.15796E-04-3.47275E-05-3.47139E-05 2.03825E-07-4.39288E-19 2.44480E-18
 -1      1183 1.19945E-04-3.59388E-05-3.58277E-05 1.78726E-07 2.04737E-19 2.09053E-18
 -1      1184 1.22459E-04-3.66548E-05-3.64113E-05 4.61630E-08 3.73575E-19 5.88795E-18
 -1      1185 1.21666E-04-3.63845E-05-3.60274E-05-2.31780E-07-4.34700E-20 4.90061E-18
 -1      1186 1.16159E-04-3.47270E-05-3.43791E-05-6.25277E-07-1.02220E-19-1.33514E-19
 -1      1187 1.05995E-04-3.17291E-05-3.16053E-05-9.67420E-07 1.27856E-19 1.29088E-18
 -1      1188 9.38680E-05-2.82058E-05-2.84785E-05-9.80282E-07-5.19072E-20-2.19593E-19
 -1      1189 8.47793E-05-2.55968E-05-2.62163E-05-4.99519E-07-1.48019E-19-2.02557E-18
 -1      1190 8.32681E-05-2.51628E-05-2.58330E-05 2.77930E-07 4.11976E-19-2.51646E-18
 -1      1191 9.00148E-05-2.70848E-05-2.74708E-05 8.81455E-07 8.10174E-20-3.03555E-18
 -1      1192 1.01248E-04-3.03293E-05-3.02994E-05 9.99060E-07 2.39092E-19-2.68785E-18
 -1      1193 1.11670E-04-3.33845E-05-3.30674E-05 7.12749E-07 2.41954E-19 2.00154E-18
 -1      1194 1.17766E-04-3.52060E-05-3.48218E-05 3.00753E-07-4.42674E-19 3.53684E-18
 -1      1195 1.18804E-04-3.55464E-05-3.52481E-05-2.97699E-08 9.76073E-21 1.96037E-18
 -1      1196 1.15901E-04-3.47157E-05-3.45493E-05-2.17953E-07-5.03200E-19-4.40907E-19
 -1      1197 1.10750E-04-3.32092E-05-3.31590E-05-2.89670E-07 4.19735E-19 5.51101E-20
 -1      1198 1.04897E-04-3.14852E-05-3.15285E-05-2.84395E-07 2.86868E-19-1.67871E-18
 -1      1199 9.96045E-05-2.99219E-05-3.00438E-05-2.10449E-07 9.96273E-20-1.35586E-18
 -1      1200 9.60457E-05-2.89085E-05-2.89933E-05-2.77612E-08-6.60256E-20 4.76866E-19
 -1      1201 9.49475E-05-2.84664E-05-2.83984E-05 1.09457E-07 1.48411E-19 7.40631E-19
 -1      1202 8.98877E-05-2.58210E-05-2.66178E-05 8.73267E-06-1.37140E-19 1.44317E-17
 -1      1203 6.48659E-05-1.88840E-05-2.12221E-05 6.17074E-07 1.74251E-19 1.01502E-17
 -1      1204 6.06443E-05-1.80590E-05-1.87733E-05 9.81227E-08 1.06117E-19 6.36208E-18
 -1      1205 5.96808E-05-1.79052E-05-1.80493E-05 7.83142E-09 1.09615E-19 3.79108E-18
 -1      1206 6.00517E-05-1.80390E-05-1.80497E-05-2.18558E-08 7.26943E-20 1.85394E-18
 -1      1207 6.10570E-05-1.83366E-05-1.83272E-05-3.10340E-08 6.76386E-20 5.51895E-19
 -1      1208 6.23640E-05-1.87225E-05-1.87128E-05-3.32911E-08 4.14211E-20-3.92414E-19
 -1      1209 6.37994E-05-1.91489E-05-1.91397E-05-3.26318E-08-6.91316E-21-9.72500E-19
 -1      1210 6.52650E-05-1.95859E-05-1.95768E-05-3.04291E-08 6.09863E-20-1.73408E-18
 -1      1211 6.67045E-05-2.00161E-05-2.00070E-05-2.73450E-08 1.69638E-20-2.32807E-18
 -1      1212 6.80884E-05-2.04302E-05-2.04215E-05-2.37849E-08 4.47845E-20-3.03865E-18
 -1      1213 6.94048E-05-2.08246E-05-2.08167E-05-2.00129E-08-3.87572E-20-3.28186E-18
 -1      1214 7.06550E-05-2.11995E-05-2.11926E-05-1.61958E-08 1.24604E-19-4.12954E-18
 -1      1215 7.18491E-05-2.15578E-05-2.15522E-05-1.24346E-08-1.06584E-19-4.30270E-18
 -1      1216 7.30047E-05-2.19049E-05-2.19007E-05-8.79069E-09 1.41445E-19-4.77943E-18
 -1      1217 7.41451E-05-2.22477E-05-2.22452E-05-5.31433E-09 7.93281E-20-5.69497E-18
 -1      1218 7.52991E-05-2.25949E-05-2.25942E-05-2.07389E-09-1.28016E-20-5.52236E-18
 -1      1219 7.65007E-05-2.29564E-05-2.29581E-05 8.11417E-10 4.21817E-20-6.24410E-18
 -1      1220 7.77886E-05-2.33440E-05-2.33483E-05 3.13782E-09-1.35616E-20-6.91022E-18
 -1      1221 7.92059E-05-2.37705E-05-2.37779E-05 4.58712E-09 1.12570E-19-7.00399E-18
 -1      1222 8.07984E-05-2.42494E-05-2.42603E-05 4.70752E-09 1.93808E-21-6.76255E-18
 -1      1223 8.26119E-05-2.47942E-05-2.48088E-05 2.90252E-09-7.68203E-20-5.89979E-18
 -1      1224 8.46870E-05-2.54169E-05-2.54348E-05-1.60358E-09 1.19285E-19-5.40624E-18
 -1      1225 8.70514E-05-2.61252E-05-2.61451E-05-9.82686E-09-1.85446E-19-4.70785E-18
 -1      1226 8.97070E-05-2.69192E-05-2.69376E-05-2.28447E-08-4.16692E-21-2.95393E-18
 -1      1227 9.26073E-05-2.77847E-05-2.77954E-05-4.01083E-08 1.71387E-19-3.61365E-18
 -1      1228 9.56260E-05-2.86858E-05-2.86812E-05-5.55139E-08-1.24786E-19-3.77124E-18
 -1      1229 9.85571E-05-2.95640E-05-2.95413E-05-6.08904E-08-3.66747E-20-4.06932E-18
 -1      1230 1.01205E-04-3.03559E-05-3.03288E-05-6.09809E-08 9.74609E-20-4.53585E-18
 -1      1231 1.03479E-04-3.10234E-05-3.10072E-05-7.15663E-08-1.63084E-19-4.40439E-18
 -1      1232 1.05287E-04-3.15445E-05-3.15210E-05-9.97848E-08 2.38518E-19-6.09243E-18
 -1      1233 1.06306E-04-3.18349E-05-3.17621E-05-1.25908E-07 1.78522E-19-4.64252E-18
 -1      1234 1.05915E-04-3.17176E-05-3.15659E-05-1.13119E-07 8.99311E-21-2.32346E-18
 -1      1235 1.03423E-04-3.09927E-05-3.07699E-05-2.66859E-08-5.39947E-19 5.15922E-19
 -1      1236 9.85035E-05-2.95628E-05-2.93321E-05 1.41974E-07 2.28093E-19-1.66040E-18
 -1      1237 9.17115E-05-2.75731E-05-2.74543E-05 3.43374E-07 4.57967E-19-5.26225E-18
 -1      1238 8.47584E-05-2.55018E-05-2.56066E-05 4.68832E-07 1.55278E-19-6.58081E-18
 -1      1239 8.00115E-05-2.40485E-05-2.43714E-05 4.26165E-07 3.20291E-19-5.18826E-18
 -1      1240 7.92812E-05-2.37811E-05-2.41958E-05 2.11722E-07-6.09917E-19-2.43494E-18
 -1      1241 8.27400E-05-2.47794E-05-2.51158E-05-6.13141E-08-3.71272E-20-3.07849E-18
 -1      1242 8.89223E-05-2.66295E-05-2.67585E-05-2.79842E-07-4.92484E-19-3.41714E-18
 -1      1243 9.55975E-05-2.86492E-05-2.85707E-05-3.70166E-07-4.52099E-19-1.73774E-18
 -1      1244 1.00844E-04-3.02447E-05-3.00397E-05-3.37616E-07 3.49563E-19-4.55492E-18
 -1      1245 1.03676E-04-3.11098E-05-3.08749E-05-2.32054E-07 5.20098E-19-8.63733E-18
 -1      1246 1.04053E-04-3.12312E-05-3.10350E-05-1.05971E-07-4.65577E-19-8.36368E-18
 -1      1247 1.02551E-04-3.07854E-05-3.06616E-05 6.83924E-09 1.02800E-19-5.30026E-18
 -1      1248 1.00020E-04-3.00307E-05-2.99904E-05 9.05244E-08 2.43244E-19-6.24396E-18
 -1      1249 9.73801E-05-2.92418E-05-2.92816E-05 1.30853E-07 3.40470E-19-5.85727E-18
 -1      1250 9.55256E-05-2.86817E-05-2.87520E-05 8.80494E-08 7.95372E-19-6.69383E-18
 -1      1251 9.50609E-05-2.85134E-05-2.84455E-05-6.11426E-08-4.76621E-20-5.00733E-18
 -1      1252 9.52976E-05-2.87497E-05-2.84539E-05-5.87456E-08-5.01487E-18-3.28361E-19
 -1      1253 9.51043E-05-2.82585E-05-2.87743E-05-2.87439E-08-5.01980E-18-1.60485E-19
 -1      1254 9.45214E-05-2.63108E-05-2.93751E-05 8.74366E-08-9.47248E-19-3.40463E-19
 -1      1255 9.35518E-05-2.30615E-05-3.03224E-05 1.53354E-07 7.24001E-19-4.28862E-19
 -1      1256 9.22981E-05-1.88348E-05-3.15498E-05 2.00196E-07 3.80868E-18 2.03924E-19
 -1      1257 9.08940E-05-1.40821E-05-3.29190E-05 2.26772E-07 7.88548E-18-3.63223E-19
 -1      1258 8.95042E-05-9.34896E-06-3.42691E-05 2.22726E-07 6.85890E-18-1.15276E-20
 -1      1259 8.83293E-05-5.33366E-06-3.53999E-05 1.73788E-07 3.98283E-18-3.93477E-19
 -1      1260 8.76049E-05-2.84705E-06-3.60906E-05 8.24588E-08 2.07641E-18-9.46791E-20
 -1      1261 8.74949E-05-2.46031E-06-3.61882E-05-3.48725E-08 3.77102E-19 6.68064E-19
 -1      1262 8.80506E-05-4.35620E-06-3.56451E-05-1.51336E-07-3.72117E-18-1.51218E-18
 -1      1263 8.91866E-05-8.21883E-06-3.45500E-05-2.41447E-07-1.14094E-17-3.56960E-19
 -1      1264 9.07076E-05-1.34073E-05-3.30789E-05-2.86138E-07-8.08578E-18 7.79033E-19
 -1      1265 9.23835E-05-1.90996E-05-3.14740E-05-2.85758E-07 3.78359E-19-2.94553E-19
 -1      1266 9.39177E-05-2.43088E-05-3.00279E-05-2.55167E-07 1.42037E-18-3.87521E-19
 -1      1267 9.48482E-05-2.76491E-05-2.90037E-05 3.59004E-08 7.33663E-19-6.54303E-19
 -1      1268 9.53532E-05-2.88544E-05-2.84013E-05 8.26124E-08 4.90227E-19 6.92195E-19
 -1      1269 3.70470E-05-1.15094E-04 1.96560E-05-1.42127E-05-2.68255E-18 5.28575E-19
 -1      1270 1.90448E-05-7.05814E-05 1.08353E-05-2.65354E-05 1.47341E-17 5.89535E-18
 -1      1271 7.61386E-06-1.19382E-05-4.99733E-06-2.37953E-06 1.83637E-17 1.02940E-17
 -1      1272 2.96002E-05 2.47936E-05-2.45389E-05 4.92616E-05 1.49789E-17 1.39489E-17
 -1      1273 9.60478E-05 1.93135E-05-4.45693E-05 9.93936E-05 9.56215E-18 1.14942E-17
 -1      1274 1.91799E-04-2.21624E-05-6.25548E-05 1.14855E-04 3.72356E-18 8.09425E-18
 -1      1275 2.79851E-04-7.22169E-05-7.50553E-05 7.98646E-05 1.97877E-18 7.57925E-18
 -1      1276 3.13578E-04-9.40825E-05-7.92813E-05 3.14871E-06 5.10231E-19 1.99624E-18
 -1      1277 2.77986E-04-7.40380E-05-7.41447E-05-7.31899E-05 5.83923E-19-2.15824E-18
 -1      1278 1.90788E-04-2.53806E-05-6.11405E-05-1.09371E-04 2.63681E-18-4.30801E-18
 -1      1279 9.53841E-05 1.61199E-05-4.28493E-05-9.49792E-05 3.57956E-18-5.36341E-18
 -1      1280 2.89408E-05 2.15316E-05-2.26798E-05-4.60979E-05 5.49894E-18-4.62226E-18
 -1      1281 7.84726E-06-1.72447E-05-2.66973E-06 5.78569E-06 7.05917E-18-3.72525E-18
 -1      1282 2.09297E-05-7.62121E-05 1.25464E-05 2.73410E-05 1.15925E-17-3.90292E-18
 -1      1283 3.69421E-05-1.14925E-04 1.99553E-05 1.05402E-05 8.82312E-18-1.78682E-18
 -1      1284 3.29674E-05-1.07203E-04 1.86335E-05-1.79922E-05-4.49351E-19-1.13817E-18
 -1      1285 1.53483E-05-6.04458E-05 8.68300E-06-2.61852E-05-5.45997E-18-2.63258E-18
 -1      1286 7.76204E-06-5.11140E-06-7.25392E-06 2.20313E-06-7.71478E-18-4.89585E-18
 -1      1287 3.64525E-05 2.43391E-05-2.68195E-05 5.47503E-05-1.02999E-17-1.08505E-17
 -1      1288 1.10463E-04 1.16812E-05-4.71950E-05 1.01905E-04-1.06828E-17-1.62020E-17
 -1      1289 2.09544E-04-3.36650E-05-6.46458E-05 1.10182E-04-6.45947E-18-1.53330E-17
 -1      1290 2.92277E-04-8.07664E-05-7.61958E-05 6.50829E-05-1.60915E-18-3.90059E-18
 -1      1291 3.18599E-04-9.66374E-05-7.94725E-05-1.28595E-05-1.38728E-18 8.92455E-18
 -1      1292 2.75138E-04-7.03156E-05-7.40257E-05-8.35038E-05-4.56106E-18 1.67518E-17
 -1      1293 1.84831E-04-2.03651E-05-6.08723E-05-1.14007E-04-4.39907E-18 1.28309E-17
 -1      1294 9.01178E-05 1.88990E-05-4.26641E-05-9.43065E-05-2.95276E-18 2.92904E-18
 -1      1295 2.69995E-05 2.07342E-05-2.24679E-05-4.30977E-05-1.23176E-17 8.61771E-18
 -1      1296 7.41902E-06-1.77795E-05-3.02160E-06 7.13735E-06-2.00018E-17 1.17729E-17
 -1      1297 1.99700E-05-7.49446E-05 1.18827E-05 2.90213E-05-1.84645E-17 6.32607E-18
 -1      1298 3.67643E-05-1.15509E-04 1.99349E-05 1.49964E-05-1.63291E-17 2.56553E-18
 -1      1299 1.17983E-04-2.51619E-05-4.26048E-05-1.88269E-05-2.48181E-19 1.22600E-17
 -1      1300 9.88430E-05-7.48723E-06-3.93581E-05-2.22118E-05-1.28304E-18 3.39756E-18
 -1      1301 1.02716E-04-7.58818E-06-4.11852E-05-2.81331E-05-1.46812E-18 5.60439E-18
 -1      1302 9.14397E-05-4.42520E-06-3.73837E-05-1.78540E-05-1.49618E-18 1.13344E-19
 -1      1303 9.40371E-05-4.43024E-06-3.84016E-05-2.04763E-05-1.62376E-18 1.61619E-18
 -1      1304 1.00187E-04-1.15464E-05-3.80875E-05-2.10273E-05-2.34819E-18 3.03725E-18
 -1      1305 8.70886E-05-3.32792E-06-3.59231E-05-1.40784E-05-1.38755E-18-1.79285E-18
 -1      1306 8.89083E-05-3.29465E-06-3.66548E-05-1.59726E-05-1.52519E-18-8.97378E-19
 -1      1307 9.29110E-05-7.88488E-06-3.65337E-05-1.71950E-05-2.40945E-18 2.64115E-19
 -1      1308 8.38307E-05-2.75292E-06-3.47447E-05-1.09043E-05-1.23783E-18-2.93355E-18
 -1      1309 8.52821E-05-2.73363E-06-3.53332E-05-1.24658E-05-1.30575E-18-2.39137E-18
 -1      1310 8.83204E-05-6.17290E-06-3.52813E-05-1.36079E-05-2.17638E-18-1.39239E-18
 -1      1311 8.11542E-05-2.41077E-06-3.37313E-05-8.17598E-06-9.99234E-19-3.55738E-18
 -1      1312 8.23924E-05-2.39947E-06-3.42382E-05-9.52039E-06-1.11268E-18-3.21882E-18
 -1      1313 8.49180E-05-5.21570E-06-3.42180E-05-1.05717E-05-1.91786E-18-2.30899E-18
 -1      1314 7.87325E-05-2.19126E-06-3.27808E-05-5.66016E-06-7.90838E-19-4.02187E-18
 -1      1315 7.98805E-05-2.18484E-06-3.32566E-05-6.90377E-06-8.38695E-19-3.79230E-18
 -1      1316 8.21060E-05-4.62802E-06-3.32551E-05-7.89746E-06-1.50533E-18-2.93334E-18
 -1      1317 7.64942E-05-2.05552E-06-3.18753E-05-3.31147E-06-5.46839E-19-4.35092E-18
 -1      1318 7.75747E-05-2.05159E-06-3.23287E-05-4.47853E-06-6.31092E-19-4.16609E-18
 -1      1319 7.96126E-05-4.25726E-06-3.23396E-05-5.43779E-06-1.15726E-18-3.29180E-18
 -1      1320 7.43734E-05-1.98243E-06-3.09944E-05-1.05772E-06-3.67506E-19-4.58353E-18
 -1      1321 7.54114E-05-1.98007E-06-3.14351E-05-2.18366E-06-4.16899E-19-4.45276E-18
 -1      1322 7.73359E-05-4.03924E-06-3.14539E-05-3.12875E-06-7.79565E-19-3.59127E-18
 -1      1323 7.23348E-05-1.96165E-06-3.01266E-05 1.16048E-06-1.31184E-19-4.81226E-18
 -1      1324 7.33435E-05-1.96064E-06-3.05598E-05 4.59075E-08-2.10382E-19-4.69539E-18
 -1      1325 7.52073E-05-3.94013E-06-3.05823E-05-9.01809E-07-4.59247E-19-3.82689E-18
 -1      1326 7.03664E-05-1.99076E-06-2.92677E-05 3.39814E-06 8.99178E-20-4.95861E-18
 -1      1327 7.13489E-05-1.99128E-06-2.96945E-05 2.26648E-06 1.03762E-20-4.87823E-18
 -1      1328 7.31934E-05-3.94693E-06-2.97159E-05 1.30090E-06-9.84113E-20-4.02984E-18
 -1      1329 6.85135E-05-2.07204E-06-2.84367E-05 5.67319E-06 3.14064E-19-5.00976E-18
 -1      1330 6.94445E-05-2.07639E-06-2.88457E-05 4.51386E-06 2.47069E-19-5.01462E-18
 -1      1331 7.13066E-05-4.06261E-06-2.88587E-05 3.51521E-06 3.17406E-19-4.16956E-18
 -1      1332 6.67725E-05-2.22467E-06-2.76257E-05 8.13594E-06 6.42527E-19-4.78334E-18
 -1      1333 6.76500E-05-2.23584E-06-2.80158E-05 6.86704E-06 5.19655E-19-4.91629E-18
 -1      1334 6.95643E-05-4.31448E-06-2.80079E-05 5.82005E-06 7.13354E-19-4.14035E-18
 -1      1335 6.53400E-05-2.48932E-06-2.69067E-05 1.08560E-05 9.88130E-19-4.15341E-18
 -1      1336 6.60566E-05-2.51679E-06-2.72301E-05 9.42742E-06 8.29192E-19-4.55418E-18
 -1      1337 6.80655E-05-4.77930E-06-2.71744E-05 8.31304E-06 1.21856E-18-3.80932E-18
 -1      1338 6.46880E-05-3.00995E-06-2.64205E-05 1.40468E-05 1.29143E-18-2.57903E-18
 -1      1339 6.49853E-05-3.06615E-06-2.65747E-05 1.22826E-05 1.08909E-18-3.56521E-18
 -1      1340 6.71331E-05-5.65686E-06-2.64092E-05 1.10738E-05 1.71619E-18-2.92298E-18
 -1      1341 6.65358E-05-4.68927E-06-2.65053E-05 1.82965E-05 1.31205E-18 9.63288E-19
 -1      1342 6.54267E-05-4.49388E-06-2.62241E-05 1.55669E-05 1.21418E-18-1.23167E-18
 -1      1343 6.76913E-05-7.66292E-06-2.57869E-05 1.41130E-05 2.05927E-18-1.02973E-18
 -1      1344 8.55864E-05-1.70916E-05-2.71510E-05 2.02998E-05 8.19663E-19 8.54762E-18
 -1      1345 7.01604E-05-9.81007E-06-2.63155E-05 1.75082E-05 7.57142E-19 3.15181E-18
 -1      1346 7.18848E-05-1.34048E-05-2.51744E-05 1.54097E-05 2.26048E-18 2.22748E-18
 -1      1347 7.03711E-05-1.88851E-05-2.40333E-05 5.40688E-06 1.35290E-18 7.86894E-18
 -1      1348 1.19011E-04-3.43243E-05-3.78327E-05-8.81691E-06-1.02862E-18 1.23741E-17
 -1      1349 1.11366E-04-3.16573E-05-3.47904E-05-5.59321E-06-1.07843E-18 1.13074E-17
 -1      1350 1.08178E-04-3.16095E-05-3.30944E-05-2.94488E-06-8.73185E-19 1.05524E-17
 -1      1351 1.05525E-04-3.12216E-05-3.19004E-05-2.48209E-06-9.37295E-19 9.24176E-18
 -1      1352 1.11254E-04-3.14705E-05-3.45888E-05-8.99430E-06-1.92314E-18 7.03260E-18
 -1      1353 1.03450E-04-3.07571E-05-3.11415E-05-1.23566E-06-7.23101E-19 8.71835E-18
 -1      1354 1.02368E-04-3.05579E-05-3.07251E-05-1.12934E-06-7.05512E-19 7.77870E-18
 -1      1355 1.05655E-04-3.10315E-05-3.21109E-05-3.97126E-06-1.59449E-18 5.90490E-18
 -1      1356 1.01269E-04-3.02728E-05-3.03761E-05-5.73507E-07-4.69915E-19 7.26344E-18
 -1      1357 1.00832E-04-3.01901E-05-3.02336E-05-5.18989E-07-5.05533E-19 6.64754E-18
 -1      1358 1.02746E-04-3.05708E-05-3.09614E-05-1.85396E-06-1.16253E-18 4.92064E-18
 -1      1359 1.00230E-04-3.00204E-05-3.00564E-05-2.56731E-07-3.40918E-19 6.35849E-18
 -1      1360 1.00069E-04-2.99964E-05-3.00077E-05-2.30908E-07-2.88734E-19 5.97614E-18
 -1      1361 1.01106E-04-3.02260E-05-3.03880E-05-8.78911E-07-8.07074E-19 4.13054E-18
 -1      1362 9.97272E-05-2.98964E-05-2.99099E-05-1.08093E-07-1.32571E-19 5.61908E-18
 -1      1363 9.96837E-05-2.98984E-05-2.98951E-05-9.83635E-08-2.72395E-19 5.40435E-18
 -1      1364 1.00170E-04-3.00082E-05-3.00763E-05-4.10950E-07-5.40824E-19 3.54253E-18
 -1      1365 9.94751E-05-2.98357E-05-2.98362E-05-4.97788E-08-3.48336E-19 5.38848E-18
 -1      1366 9.94696E-05-2.98441E-05-2.98319E-05-4.92409E-08-3.34997E-19 4.76633E-18
 -1      1367 9.96121E-05-2.98728E-05-2.98925E-05-1.99678E-07-4.57327E-19 3.02140E-18
 -1      1368 9.93238E-05-2.97991E-05-2.97912E-05-4.16590E-08-2.75522E-19 4.64961E-18
 -1      1369 9.93141E-05-2.98027E-05-2.97858E-05-4.62175E-08-3.74701E-19 4.12181E-18
 -1      1370 9.92463E-05-2.97802E-05-2.97729E-05-1.27879E-07-6.70147E-19 3.02857E-18
 -1      1371 9.91908E-05-2.97640E-05-2.97513E-05-6.07478E-08-1.95024E-19 3.98816E-18
 -1      1372 9.91552E-05-2.97573E-05-2.97387E-05-6.78022E-08-1.18970E-19 3.78916E-18
 -1      1373 9.89656E-05-2.97049E-05-2.96832E-05-1.32971E-07-4.27024E-19 2.87388E-18
 -1      1374 9.90316E-05-2.97184E-05-2.97037E-05-9.28554E-08-3.24874E-19 3.71676E-18
 -1      1375 9.89606E-05-2.96992E-05-2.96813E-05-1.00689E-07-3.02754E-19 3.36640E-18
 -1      1376 9.87086E-05-2.96314E-05-2.96035E-05-1.78149E-07-4.08297E-19 2.75748E-18
 -1      1377 9.88254E-05-2.96569E-05-2.96424E-05-1.28774E-07-3.06102E-19 2.88607E-18
 -1      1378 9.87172E-05-2.96251E-05-2.96094E-05-1.36224E-07-3.19881E-19 2.68733E-18
 -1      1379 9.84417E-05-2.95515E-05-2.95229E-05-2.40273E-07-5.02750E-19 2.24673E-18
 -1      1380 9.85663E-05-2.95782E-05-2.95655E-05-1.62296E-07-1.07506E-19 2.61804E-18
 -1      1381 9.84246E-05-2.95353E-05-2.95230E-05-1.68549E-07-7.86425E-20 2.40412E-18
 -1      1382 9.81495E-05-2.94618E-05-2.94362E-05-3.04097E-07-4.75606E-19 1.05667E-18
 -1      1383 9.82592E-05-2.94841E-05-2.94744E-05-1.89060E-07 1.40340E-19 2.47054E-18
 -1      1384 9.80912E-05-2.94325E-05-2.94243E-05-1.93519E-07-6.82846E-20 2.58429E-18
 -1      1385 9.78287E-05-2.93618E-05-2.93418E-05-3.59148E-07 2.08737E-20 8.63855E-19
 -1      1386 9.79159E-05-2.93785E-05-2.93726E-05-2.05820E-07-1.05081E-19 2.66792E-18
 -1      1387 9.77317E-05-2.93214E-05-2.93180E-05-2.08013E-07-1.39869E-19 2.64898E-18
 -1      1388 9.74849E-05-2.92538E-05-2.92413E-05-3.97865E-07-4.42722E-20 1.20074E-18
 -1      1389 9.75541E-05-2.92666E-05-2.92654E-05-2.09978E-07-4.99987E-19 2.78717E-18
 -1      1390 9.73659E-05-2.92079E-05-2.92098E-05-2.09497E-07-6.42655E-19 2.20463E-18
 -1      1391 9.71298E-05-2.91413E-05-2.91380E-05-4.14424E-07-3.21628E-19 1.06933E-18
 -1      1392 9.71957E-05-2.91552E-05-2.91595E-05-1.99296E-07-5.84702E-19 2.13274E-18
 -1      1393 9.70179E-05-2.90993E-05-2.91071E-05-1.95765E-07-6.83660E-19 1.31493E-18
 -1      1394 9.67801E-05-2.90296E-05-2.90369E-05-4.03999E-07-9.89146E-19 1.13547E-18
 -1      1395 9.68667E-05-2.90522E-05-2.90626E-05-1.71778E-07-3.74916E-19 9.50766E-19
 -1      1396 9.67153E-05-2.90040E-05-2.90181E-05-1.64854E-07-1.28881E-19 8.11190E-19
 -1      1397 9.64567E-05-2.89250E-05-2.89442E-05-3.62374E-07-8.82739E-19 8.17697E-19
 -1      1398 9.65964E-05-2.89662E-05-2.89835E-05-1.25727E-07-2.08787E-19 9.26568E-19
 -1      1399 9.64888E-05-2.89313E-05-2.89520E-05-1.15134E-07-3.21712E-19 5.89590E-19
 -1      1400 9.61840E-05-2.88349E-05-2.88671E-05-2.85897E-07-2.04902E-19 2.57050E-19
 -1      1401 9.64168E-05-2.89073E-05-2.89317E-05-5.99724E-08-2.00831E-19 4.26293E-19
 -1      1402 9.63714E-05-2.88913E-05-2.89186E-05-4.55809E-08-1.87261E-19 2.34236E-19
 -1      1403 9.59895E-05-2.87679E-05-2.88137E-05-1.71758E-07-2.56159E-19 1.80610E-19
 -1      1404 9.63617E-05-2.88857E-05-2.89172E-05 2.57765E-08 3.69954E-19-5.64168E-20
 -1      1405 9.63969E-05-2.88944E-05-2.89277E-05 4.38558E-08 7.52147E-20 6.55217E-19
 -1      1406 9.59028E-05-2.87333E-05-2.87927E-05-1.85564E-08-1.27528E-19-3.54181E-19
 -1      1407 9.64654E-05-2.89122E-05-2.89500E-05 1.30696E-07-2.13338E-20 9.48106E-19
 -1      1408 9.65983E-05-2.89508E-05-2.89892E-05 1.52070E-07 7.38176E-21 1.05256E-18
 -1      1409 9.59552E-05-2.87411E-05-2.88130E-05 1.73173E-07 1.71976E-19-4.30645E-20
 -1      1410 9.67607E-05-2.89966E-05-2.90399E-05 2.53325E-07-1.18855E-19 1.16895E-18
 -1      1411 9.70072E-05-2.90698E-05-2.91126E-05 2.77536E-07-1.58011E-19 9.08507E-19
 -1      1412 9.61779E-05-2.88008E-05-2.88840E-05 4.01288E-07 1.33176E-20-3.31379E-20
 -1      1413 9.72793E-05-2.91478E-05-2.91966E-05 3.93790E-07-2.08593E-19 1.33708E-18
 -1      1414 9.76563E-05-2.92596E-05-2.93085E-05 4.21108E-07-3.04826E-19 1.00055E-18
 -1      1415 9.66017E-05-2.89206E-05-2.90153E-05 6.64819E-07-2.08767E-19 9.63078E-19
 -1      1416 9.80554E-05-2.93735E-05-2.94322E-05 5.58551E-07 2.15827E-19 1.06891E-18
 -1      1417 9.85882E-05-2.95299E-05-2.95915E-05 5.91484E-07 1.53123E-19 1.45226E-18
 -1      1418 9.72577E-05-2.91060E-05-2.92183E-05 9.70892E-07 1.41944E-21 1.55255E-18
 -1      1419 9.91377E-05-2.96841E-05-2.97637E-05 7.65828E-07 5.54729E-19 1.52664E-18
 -1      1420 9.98712E-05-2.98979E-05-2.99847E-05 8.10411E-07 5.71747E-19 2.73214E-18
 -1      1421 9.81835E-05-2.93621E-05-2.95077E-05 1.34455E-06 4.32286E-19 1.75054E-18
 -1      1422 1.00607E-04-3.01015E-05-3.02176E-05 1.04365E-06-2.41212E-19 2.33489E-18
 -1      1423 1.01613E-04-3.03968E-05-3.05206E-05 1.10726E-06-1.88233E-19 1.63970E-18
 -1      1424 9.94350E-05-2.97015E-05-2.99030E-05 1.83148E-06-1.43107E-19 1.65435E-18
 -1      1425 1.02583E-04-3.06678E-05-3.08271E-05 1.40870E-06-2.13884E-19 1.32407E-18
 -1      1426 1.03943E-04-3.10770E-05-3.12325E-05 1.49240E-06-2.40693E-19 8.94487E-19
 -1      1427 1.01096E-04-3.01579E-05-3.04258E-05 2.47319E-06-6.58919E-19 6.94301E-19
 -1      1428 1.05188E-04-3.14370E-05-3.16191E-05 1.82807E-06 4.06553E-19 9.06795E-19
 -1      1429 1.06940E-04-3.19834E-05-3.21336E-05 1.91715E-06 8.46983E-20 1.42079E-18
 -1      1430 1.03264E-04-3.07856E-05-3.10907E-05 3.24565E-06 1.21513E-19 1.06382E-18
 -1      1431 1.08448E-04-3.24411E-05-3.25889E-05 2.18898E-06-8.93959E-20 1.28455E-18
 -1      1432 1.10514E-04-3.31099E-05-3.31840E-05 2.25036E-06 4.06700E-20 1.53620E-18
 -1      1433 1.05982E-04-3.16357E-05-3.18890E-05 3.99298E-06-2.15944E-19 8.65092E-19
 -1      1434 1.12173E-04-3.36429E-05-3.36665E-05 2.30116E-06-2.80655E-19 1.77841E-18
 -1      1435 1.14279E-04-3.43557E-05-3.42594E-05 2.28782E-06-4.53345E-19 1.86027E-18
 -1      1436 1.09145E-04-3.27147E-05-3.27693E-05 4.40875E-06 8.19761E-20 8.10730E-19
 -1      1437 1.15851E-04-3.49019E-05-3.46893E-05 1.92713E-06 1.80835E-19 2.32325E-18
 -1      1438 1.17492E-04-3.54989E-05-3.51324E-05 1.78478E-06 5.74057E-19 3.05643E-18
 -1      1439 1.12428E-04-3.39484E-05-3.36206E-05 4.07702E-06-1.13744E-19 2.22871E-18
 -1      1440 1.18612E-04-3.59514E-05-3.53956E-05 8.40069E-07 1.33616E-18 2.76989E-18
 -1      1441 1.19074E-04-3.61878E-05-3.54914E-05 5.21997E-07 5.77703E-19 4.22413E-18
 -1      1442 1.15251E-04-3.51552E-05-3.42725E-05 2.55988E-06 1.53539E-18 2.08379E-18
 -1      1443 1.19296E-04-3.63874E-05-3.54657E-05-1.04496E-06-1.47682E-18 4.26028E-18
 -1      1444 1.17836E-04-3.59733E-05-3.50268E-05-1.53373E-06-1.86914E-18 1.73954E-18
 -1      1445 1.16806E-04-3.60064E-05-3.45253E-05-4.16781E-07-7.91976E-19 2.14542E-18
 -1      1446 1.16766E-04-3.57250E-05-3.46408E-05-3.42362E-06-4.78282E-19 2.10414E-18
 -1      1447 1.13034E-04-3.44646E-05-3.36118E-05-3.95062E-06 4.04458E-19 1.15361E-18
 -1      1448 1.16204E-04-3.60171E-05-3.42273E-05-4.58971E-06-1.60358E-18 1.74368E-18
 -1      1449 1.10614E-04-3.36447E-05-3.29204E-05-5.37127E-06 4.29340E-19 9.80176E-19
 -1      1450 1.05236E-04-3.16878E-05-3.15084E-05-5.64365E-06-1.23190E-19 1.19315E-18
 -1      1451 1.12882E-04-3.47079E-05-3.33845E-05-8.69213E-06 3.96570E-19 1.92507E-18
 -1      1452 1.02104E-04-3.04605E-05-3.07274E-05-5.54733E-06-1.67805E-19 7.54177E-19
 -1      1453 9.69330E-05-2.84864E-05-2.94193E-05-5.25709E-06-3.36146E-19 5.20502E-19
 -1      1454 1.07318E-04-3.20837E-05-3.22363E-05-1.04642E-05-7.33011E-19 9.97540E-19
 -1      1455 9.44635E-05-2.74431E-05-2.88569E-05-3.16778E-06-1.10754E-18-1.64843E-18
 -1      1456 9.18613E-05-2.64272E-05-2.82112E-05-2.32650E-06-8.98067E-19-2.13303E-18
 -1      1457 1.01558E-04-2.91447E-05-3.12008E-05-7.89649E-06-1.75900E-18-2.22412E-19
 -1      1458 9.14137E-05-2.62441E-05-2.81049E-05 8.94017E-07-1.12894E-19-2.03685E-18
 -1      1459 9.26979E-05-2.67663E-05-2.84130E-05 1.82438E-06 3.57144E-19-2.45036E-18
 -1      1460 9.85264E-05-2.75652E-05-3.06844E-05-1.35360E-06-9.78667E-19-2.15966E-18
 -1      1461 9.44929E-05-2.75661E-05-2.87953E-05 4.37507E-06-1.57072E-19-2.22076E-18
 -1      1462 9.88863E-05-2.92853E-05-2.98840E-05 4.83860E-06-4.22643E-19-2.94566E-18
 -1      1463 9.99511E-05-2.83824E-05-3.08770E-05 5.79246E-06 3.91276E-19-1.73365E-18
 -1      1464 1.01763E-04-3.04730E-05-3.05632E-05 5.46768E-06 5.39678E-19-2.20334E-18
 -1      1465 1.07000E-04-3.24303E-05-3.19113E-05 5.31907E-06 6.92339E-19-1.42932E-18
 -1      1466 1.04810E-04-3.10047E-05-3.16686E-05 9.61640E-06 7.13824E-19-1.22719E-18
 -1      1467 1.09462E-04-3.33268E-05-3.25749E-05 4.17980E-06 1.03597E-18-5.26007E-19
 -1      1468 1.13403E-04-3.47064E-05-3.36370E-05 3.67674E-06 8.32395E-19 5.48824E-19
 -1      1469 1.10230E-04-3.37322E-05-3.26867E-05 8.83555E-06 1.71442E-18-8.87108E-19
 -1      1470 1.14579E-04-3.50282E-05-3.40287E-05 1.76501E-06-1.21046E-19 1.31632E-18
 -1      1471 1.16236E-04-3.55358E-05-3.45084E-05 1.23047E-06-5.49208E-19 6.04808E-19
 -1      1472 1.13763E-04-3.52930E-05-3.34866E-05 5.01956E-06 9.19745E-19-1.55033E-18
 -1      1473 1.16016E-04-3.53501E-05-3.45276E-05-5.36627E-07-1.19675E-18 1.75184E-18
 -1      1474 1.15512E-04-3.51085E-05-3.44159E-05-9.23478E-07-7.24379E-19 5.49989E-19
 -1      1475 1.14504E-04-3.54407E-05-3.37652E-05 5.55221E-07-4.47379E-19-3.01382E-19
 -1      1476 1.14236E-04-3.46071E-05-3.41071E-05-2.10862E-06 1.00056E-19 1.31555E-19
 -1      1477 1.12257E-04-3.38967E-05-3.35694E-05-2.31398E-06 3.02675E-19 2.34813E-19
 -1      1478 1.12806E-04-3.45746E-05-3.34560E-05-2.95867E-06-8.43592E-19 7.19846E-19
 -1      1479 1.10388E-04-3.32524E-05-3.30534E-05-2.86380E-06-6.46751E-19 1.08852E-18
 -1      1480 1.07708E-04-3.23394E-05-3.23044E-05-2.91908E-06 1.53938E-19 7.36230E-19
 -1      1481 1.09532E-04-3.32022E-05-3.26859E-05-4.99089E-06 2.09204E-19 1.92725E-18
 -1      1482 1.05670E-04-3.16738E-05-3.17177E-05-2.93156E-06 3.73480E-19-1.15826E-18
 -1      1483 1.02956E-04-3.07633E-05-3.09542E-05-2.87159E-06-7.71389E-19-1.22537E-18
 -1      1484 1.05570E-04-3.16859E-05-3.16727E-05-5.63015E-06-3.60462E-19-4.23821E-19
 -1      1485 1.01093E-04-3.01576E-05-3.04172E-05-2.44307E-06-2.52561E-19-1.70812E-18
 -1      1486 9.88982E-05-2.94162E-05-2.98001E-05-2.27784E-06 5.60852E-19-1.22719E-18
 -1      1487 1.01655E-04-3.02365E-05-3.06421E-05-5.11742E-06-3.97301E-19-2.32920E-18
 -1      1488 9.74381E-05-2.89086E-05-2.93948E-05-1.45177E-06 1.37279E-18-1.05258E-18
 -1      1489 9.62272E-05-2.85409E-05-2.90182E-05-1.20381E-06 2.97550E-19 1.96131E-19
 -1      1490 9.83216E-05-2.89658E-05-2.97737E-05-3.64639E-06 1.47416E-18-2.74318E-18
 -1      1491 9.52498E-05-2.84217E-05-2.86497E-05-1.94740E-08-8.98752E-19 1.14701E-18
 -1      1492 9.57634E-05-2.81087E-05-2.90256E-05-1.19354E-06 3.90916E-19-7.39897E-19
 -1      1493 6.61503E-05-1.93756E-05-2.04501E-05 2.04182E-06 1.07923E-18 5.48189E-18
 -1      1494 7.03830E-05-2.00894E-05-2.21694E-05 3.15264E-06 9.37613E-19 7.30979E-18
 -1      1495 7.13867E-05-1.84674E-05-2.29010E-05 9.10483E-06 1.96517E-18 4.14104E-18
 -1      1496 6.32499E-05-1.88300E-05-1.90965E-05 6.03710E-07 8.43149E-19 3.37106E-18
 -1      1497 6.44520E-05-1.88667E-05-1.97035E-05 8.63494E-07 8.11590E-19 4.73851E-18
 -1      1498 6.74240E-05-1.95177E-05-2.06776E-05 3.18574E-06 1.66717E-18 2.78395E-18
 -1      1499 6.24651E-05-1.86914E-05-1.87466E-05-5.88680E-08 5.98316E-19 1.83489E-18
 -1      1500 6.26140E-05-1.86047E-05-1.88589E-05 7.73294E-08 5.58086E-19 2.79541E-18
 -1      1501 6.53517E-05-1.93358E-05-1.97561E-05 8.39358E-07 1.29971E-18 1.60977E-18
 -1      1502 6.27427E-05-1.88051E-05-1.88121E-05-3.83923E-07 4.24701E-19 6.96513E-19
 -1      1503 6.24158E-05-1.86458E-05-1.87286E-05-3.06135E-07 4.30863E-19 1.40772E-18
 -1      1504 6.47685E-05-1.93128E-05-1.94904E-05-2.39946E-07 9.26307E-19 7.52662E-19
 -1      1505 6.35643E-05-1.90632E-05-1.90586E-05-5.47943E-07 3.39999E-19-4.02208E-20
 -1      1506 6.30085E-05-1.88621E-05-1.88961E-05-5.01863E-07 3.30852E-19 4.13180E-19
 -1      1507 6.50131E-05-1.94502E-05-1.95338E-05-7.85692E-07 7.23947E-19 1.47132E-19
 -1      1508 6.46649E-05-1.93996E-05-1.93897E-05-6.24861E-07 1.68330E-19-6.56278E-19
 -1      1509 6.40015E-05-1.91791E-05-1.91940E-05-5.97755E-07 2.29210E-19-3.26306E-19
 -1      1510 6.57163E-05-1.96933E-05-1.97306E-05-1.06394E-06 5.06967E-19-2.10110E-19
 -1      1511 6.58953E-05-1.97725E-05-1.97590E-05-6.51272E-07 2.10233E-19-1.09618E-18
 -1      1512 6.51908E-05-1.95473E-05-1.95510E-05-6.36183E-07 1.66530E-19-8.17685E-19
 -1      1513 6.66666E-05-1.99965E-05-2.00070E-05-1.19318E-06 3.79006E-19-6.97988E-19
 -1      1514 6.71681E-05-2.01564E-05-2.01412E-05-6.48137E-07 1.78749E-19-1.58102E-18
 -1      1515 6.64606E-05-1.99354E-05-1.99319E-05-6.40703E-07 2.20426E-19-1.26594E-18
 -1      1516 6.77396E-05-2.03289E-05-2.03232E-05-1.23537E-06 3.70714E-19-9.31230E-19
 -1      1517 6.84327E-05-2.05367E-05-2.05211E-05-6.28783E-07 1.45373E-19-2.00212E-18
 -1      1518 6.77435E-05-2.03245E-05-2.03168E-05-6.26041E-07 1.19941E-19-1.85278E-18
 -1      1519 6.88604E-05-2.06706E-05-2.06560E-05-1.22705E-06 3.88460E-19-1.35925E-18
 -1      1520 6.96625E-05-2.09054E-05-2.08910E-05-6.02205E-07 4.95502E-20-2.24924E-18
 -1      1521 6.90019E-05-2.07040E-05-2.06947E-05-6.02051E-07 1.26089E-19-2.07683E-18
 -1      1522 6.99852E-05-2.10102E-05-2.09918E-05-1.19179E-06 2.11704E-19-1.81124E-18
 -1      1523 7.08468E-05-2.12599E-05-2.12474E-05-5.74711E-07 3.05875E-19-2.66402E-18
 -1      1524 7.02175E-05-2.10693E-05-2.10601E-05-5.75594E-07 1.80387E-19-2.40813E-18
 -1      1525 7.10907E-05-2.13417E-05-2.13231E-05-1.14563E-06 3.12270E-19-1.77368E-18
 -1      1526 7.19868E-05-2.16005E-05-2.15908E-05-5.50888E-07 1.22188E-19-3.15489E-18
 -1      1527 7.13862E-05-2.14192E-05-2.14117E-05-5.51616E-07 2.41185E-19-2.89658E-18
 -1      1528 7.21681E-05-2.16631E-05-2.16468E-05-1.09995E-06 4.25634E-19-2.05612E-18
 -1      1529 7.30923E-05-2.19304E-05-2.19239E-05-5.34238E-07-1.37448E-20-3.26976E-18
 -1      1530 7.25136E-05-2.17558E-05-2.17511E-05-5.33840E-07-5.01895E-20-3.28066E-18
 -1      1531 7.32188E-05-2.19753E-05-2.19633E-05-1.06313E-06 8.39883E-20-2.08330E-18
 -1      1532 7.41796E-05-2.22544E-05-2.22517E-05-5.27619E-07 2.29564E-19-3.78054E-18
 -1      1533 7.36128E-05-2.20832E-05-2.20822E-05-5.25244E-07 1.99452E-19-3.40606E-18
 -1      1534 7.42520E-05-2.22811E-05-2.22752E-05-1.04170E-06 2.62220E-19-2.55668E-18
 -1      1535 7.52709E-05-2.25792E-05-2.25809E-05-5.33557E-07-4.18206E-20-4.00601E-18
 -1      1536 7.47031E-05-2.24072E-05-2.24108E-05-5.28400E-07 9.14217E-20-3.81519E-18
 -1      1537 7.52830E-05-2.25855E-05-2.25871E-05-1.04112E-06 1.44449E-19-2.45905E-18
 -1      1538 7.63932E-05-2.29131E-05-2.29195E-05-5.54421E-07 1.84378E-19-4.30698E-18
 -1      1539 7.58091E-05-2.27351E-05-2.27444E-05-5.45675E-07 7.94083E-20-4.18206E-18
 -1      1540 7.63326E-05-2.28946E-05-2.29050E-05-1.06626E-06 1.89966E-19-2.76167E-18
 -1      1541 7.75786E-05-2.32654E-05-2.32772E-05-5.92449E-07 1.24553E-19-4.88006E-18
 -1      1542 7.69601E-05-2.30758E-05-2.30917E-05-5.79294E-07 2.84707E-19-4.41363E-18
 -1      1543 7.74257E-05-2.32160E-05-2.32367E-05-1.12163E-06 4.47494E-19-3.21227E-18
 -1      1544 7.88627E-05-2.36472E-05-2.36647E-05-6.49597E-07-2.81679E-19-4.97492E-18
 -1      1545 7.81899E-05-2.34394E-05-2.34629E-05-6.31233E-07-1.41413E-19-5.13755E-18
 -1      1546 7.85915E-05-2.35584E-05-2.35906E-05-1.21129E-06 1.36706E-19-3.11259E-18
 -1      1547 8.02847E-05-2.40702E-05-2.40936E-05-7.27161E-07 2.44440E-20-4.92337E-18
 -1      1548 7.95357E-05-2.38374E-05-2.38691E-05-7.02901E-07-9.11594E-21-4.82936E-18
 -1      1549 7.98622E-05-2.39318E-05-2.39765E-05-1.33840E-06-7.91976E-20-3.01443E-18
 -1      1550 8.18845E-05-2.45467E-05-2.45757E-05-8.25155E-07-6.79484E-19-4.28151E-18
 -1      1551 8.10368E-05-2.42817E-05-2.43219E-05-7.94595E-07-4.24433E-19-4.64278E-18
 -1      1552 8.12715E-05-2.43468E-05-2.44042E-05-1.50430E-06-4.86374E-19-2.69749E-18
 -1      1553 8.36992E-05-2.50884E-05-2.51218E-05-9.41451E-07-6.95328E-20-3.58139E-18
 -1      1554 8.27319E-05-2.47847E-05-2.48328E-05-9.04703E-07-3.82589E-19-4.03182E-18
 -1      1555 8.28523E-05-2.48139E-05-2.48831E-05-1.70709E-06-8.33269E-19-2.39598E-18
 -1      1556 8.57578E-05-2.57049E-05-2.57399E-05-1.07061E-06-5.23511E-19-3.44532E-18
 -1      1557 8.46545E-05-2.53572E-05-2.54112E-05-1.02865E-06 6.78958E-20-3.28262E-18
 -1      1558 8.46330E-05-2.53429E-05-2.54208E-05-1.93986E-06-3.18689E-19-1.69493E-18
 -1      1559 8.80724E-05-2.64010E-05-2.64325E-05-1.20194E-06-3.55478E-19-2.76731E-18
 -1      1560 8.68266E-05-2.60077E-05-2.60630E-05-1.15725E-06-6.45580E-19-3.94908E-18
 -1      1561 8.66312E-05-2.59411E-05-2.60216E-05-2.18791E-06-5.49498E-19-2.04739E-18
 -1      1562 9.06247E-05-2.71737E-05-2.71927E-05-1.31585E-06 2.93950E-19-2.06284E-18
 -1      1563 8.92482E-05-2.67388E-05-2.67866E-05-1.27379E-06-2.39965E-19-2.47651E-18
 -1      1564 8.88470E-05-2.66117E-05-2.66831E-05-2.42408E-06-4.03174E-19-2.27015E-18
 -1      1565 9.33474E-05-2.80051E-05-2.79991E-05-1.37912E-06-2.75002E-19-2.04294E-18
 -1      1566 9.18825E-05-2.75436E-05-2.75697E-05-1.35007E-06 3.79944E-19-1.73871E-18
 -1      1567 9.12517E-05-2.73514E-05-2.73946E-05-2.60182E-06 2.32186E-19-1.08781E-18
 -1      1568 9.61024E-05-2.88505E-05-2.88126E-05-1.35200E-06-8.96627E-20-1.73134E-18
 -1      1569 9.46332E-05-2.83934E-05-2.83830E-05-1.34830E-06-4.22648E-20-1.83184E-18
 -1      1570 9.37713E-05-2.81417E-05-2.81329E-05-2.65373E-06-1.65444E-19-3.79151E-19
 -1      1571 9.87039E-05-2.96420E-05-2.95857E-05-1.23009E-06 1.84213E-19-2.57563E-18
 -1      1572 9.73342E-05-2.92274E-05-2.91820E-05-1.25064E-06 4.10232E-20-2.34624E-18
 -1      1573 9.62673E-05-2.89264E-05-2.88621E-05-2.52691E-06 1.77278E-19-8.90890E-19
 -1      1574 1.01012E-04-3.03347E-05-3.02823E-05-1.06265E-06-5.72844E-19-2.62707E-18
 -1      1575 9.98112E-05-2.99812E-05-2.99228E-05-1.09322E-06-7.46133E-20-2.78729E-18
 -1      1576 9.85805E-05-2.96397E-05-2.95467E-05-2.26063E-06-1.64003E-19-1.14023E-18
 -1      1577 1.02957E-04-3.09298E-05-3.08626E-05-8.66063E-07 6.26014E-19-3.41153E-18
 -1      1578 1.01960E-04-3.06372E-05-3.05678E-05-9.05694E-07 1.03629E-19-3.04565E-18
 -1      1579 1.00612E-04-3.02556E-05-3.01500E-05-1.92298E-06 4.90402E-20-1.82496E-18
 -1      1580 1.04378E-04-3.13974E-05-3.12604E-05-5.41778E-07-1.03075E-19-4.42686E-18
 -1      1581 1.03685E-04-3.11971E-05-3.10687E-05-6.22769E-07 3.76116E-19-4.35469E-18
 -1      1582 1.02289E-04-3.07996E-05-3.06231E-05-1.44886E-06 7.74023E-19-2.96637E-18
 -1      1583 1.04878E-04-3.16084E-05-3.13637E-05 4.81796E-08-6.07799E-19-2.40630E-18
 -1      1584 1.04732E-04-3.15914E-05-3.13428E-05-1.16477E-07-6.99887E-19-3.49110E-18
 -1      1585 1.03409E-04-3.12373E-05-3.08951E-05-6.20159E-07-6.57165E-19-2.96107E-18
 -1      1586 1.03912E-04-3.13689E-05-3.10338E-05 9.47108E-07-1.10910E-18-3.25711E-19
 -1      1587 1.04641E-04-3.16555E-05-3.12673E-05 6.81052E-07-5.74884E-19-1.93973E-18
 -1      1588 1.03603E-04-3.14245E-05-3.08754E-05 7.35724E-07-1.30512E-18-1.27584E-18
 -1      1589 1.01057E-04-3.05089E-05-3.01773E-05 2.01836E-06 1.01844E-18-8.00049E-19
 -1      1590 1.02909E-04-3.11858E-05-3.07193E-05 1.68421E-06 3.75871E-19-4.29605E-19
 -1      1591 1.02475E-04-3.11690E-05-3.04850E-05 2.55071E-06-1.33064E-19-1.14326E-18
 -1      1592 9.63829E-05-2.90062E-05-2.88510E-05 2.89928E-06 7.88746E-19-2.71696E-18
 -1      1593 9.92896E-05-3.00433E-05-2.96624E-05 2.60066E-06 8.98530E-19-1.43959E-18
 -1      1594 9.98281E-05-3.03195E-05-2.97201E-05 4.39340E-06 1.54030E-18-1.78850E-18
 -1      1595 9.07971E-05-2.71360E-05-2.73286E-05 3.07345E-06 7.60715E-19-3.88476E-18
 -1      1596 9.41769E-05-2.83078E-05-2.82386E-05 2.96461E-06 5.90554E-19-3.37913E-18
 -1      1597 9.59570E-05-2.88897E-05-2.87105E-05 5.46841E-06 1.03735E-18-2.37793E-18
 -1      1598 8.60117E-05-2.55027E-05-2.60515E-05 2.19644E-06-2.93245E-19-3.93389E-18
 -1      1599 8.88223E-05-2.64137E-05-2.67924E-05 2.38165E-06-3.33314E-19-4.07328E-18
 -1      1600 9.18399E-05-2.72214E-05-2.77177E-05 4.94733E-06-3.92878E-20-1.93801E-18
 -1      1601 8.38106E-05-2.47621E-05-2.54502E-05 4.65880E-07-1.49442E-18-1.77404E-18
 -1      1602 8.50121E-05-2.50484E-05-2.57692E-05 9.00622E-07-9.46169E-19-3.15808E-18
 -1      1603 8.89142E-05-2.59640E-05-2.70492E-05 2.63486E-06-1.61769E-18-6.80498E-19
 -1      1604 8.50242E-05-2.52063E-05-2.57522E-05-1.40419E-06 4.63128E-19-1.13415E-18
 -1      1605 8.41808E-05-2.47668E-05-2.55278E-05-9.14046E-07-4.10050E-19-1.47868E-18
 -1      1606 8.83445E-05-2.57007E-05-2.69362E-05-6.71611E-07-1.11814E-18-2.59721E-19
 -1      1607 8.90742E-05-2.66088E-05-2.68068E-05-2.66482E-06-9.04075E-20-1.49475E-18
 -1      1608 8.65791E-05-2.56436E-05-2.61494E-05-2.30938E-06 3.15189E-19-7.48936E-19
 -1      1609 9.03106E-05-2.65224E-05-2.74067E-05-3.61499E-06 5.46270E-19-4.19334E-19
 -1      1610 9.43864E-05-2.83947E-05-2.82392E-05-2.93949E-06-4.43509E-19-1.39326E-18
 -1      1611 9.11988E-05-2.72805E-05-2.73826E-05-2.82326E-06-8.36528E-20-1.44800E-18
 -1      1612 9.39856E-05-2.80423E-05-2.82903E-05-5.12673E-06-2.17676E-19 9.60297E-19
 -1      1613 9.92233E-05-2.99633E-05-2.95949E-05-2.34348E-06 1.26987E-18-1.60150E-18
 -1      1614 9.63638E-05-2.90479E-05-2.88075E-05-2.44325E-06-2.36819E-19-1.77377E-18
 -1      1615 9.80111E-05-2.96354E-05-2.92986E-05-4.91409E-06 8.66224E-21-5.27821E-19
 -1      1616 1.02408E-04-3.09451E-05-3.05327E-05-1.28856E-06 8.39707E-19-3.09883E-18
 -1      1617 1.00547E-04-3.04184E-05-3.00040E-05-1.50941E-06 8.70472E-19-1.31467E-18
 -1      1618 1.01180E-04-3.08000E-05-3.01376E-05-3.43658E-06 1.49021E-18 4.09620E-21
 -1      1619 1.03554E-04-3.12503E-05-3.09136E-05-1.97929E-07 2.09872E-19-4.96615E-18
 -1      1620 1.02895E-04-3.11344E-05-3.07113E-05-4.41234E-07 1.00518E-18-3.25192E-18
 -1      1621 1.02844E-04-3.13268E-05-3.06191E-05-1.45818E-06 1.56260E-18 4.35481E-19
 -1      1622 1.02910E-04-3.09876E-05-3.07810E-05 6.49248E-07-3.35700E-19-4.43006E-18
 -1      1623 1.03286E-04-3.11947E-05-3.08697E-05 4.50494E-07-5.11231E-19-5.40520E-18
 -1      1624 1.02941E-04-3.12573E-05-3.06943E-05 3.62522E-07-1.57158E-19-1.12309E-18
 -1      1625 1.01074E-04-3.03595E-05-3.02946E-05 1.12865E-06 5.25194E-20-3.11041E-18
 -1      1626 1.02123E-04-3.07553E-05-3.05762E-05 1.00817E-06-4.83189E-20-3.25317E-18
 -1      1627 1.01808E-04-3.07619E-05-3.04308E-05 1.63680E-06-7.09721E-19-1.25049E-18
 -1      1628 9.87680E-05-2.95928E-05-2.96634E-05 1.21168E-06 3.12654E-19-4.06933E-18
 -1      1629 1.00059E-04-3.00336E-05-3.00154E-05 1.18419E-06 1.77077E-19-3.90576E-18
 -1      1630 9.99663E-05-3.00408E-05-2.99655E-05 2.21071E-06 7.81328E-19-1.61096E-18
 -1      1631 9.67127E-05-2.89127E-05-2.90919E-05 9.11373E-07 1.01330E-21-4.15167E-18
 -1      1632 9.78087E-05-2.92546E-05-2.93964E-05 9.86536E-07 5.04789E-19-3.80671E-18
 -1      1633 9.79737E-05-2.92761E-05-2.94554E-05 2.06593E-06 3.37885E-19-1.71444E-18
 -1      1634 9.55019E-05-2.85257E-05-2.87066E-05 3.31380E-07-9.70498E-20-4.60658E-18
 -1      1635 9.60304E-05-2.86461E-05-2.88940E-05 4.82859E-07 4.11943E-19-4.39356E-18
 -1      1636 9.63171E-05-2.86384E-05-2.90257E-05 1.28191E-06 8.34570E-19-2.68508E-18
 -1      1637 9.52370E-05-2.85025E-05-2.85905E-05 7.05135E-09-2.54470E-18-2.66624E-18
 -1      1638 9.50678E-05-2.73863E-05-2.90232E-05 7.97450E-07-1.57927E-18 1.86166E-18
 -1      1639 9.52579E-05-2.80157E-05-2.88135E-05 6.30315E-07-3.46916E-18 7.48890E-19
 -1      1640 9.43964E-05-2.52497E-05-2.96438E-05 1.46674E-06 7.53330E-20 4.78342E-19
 -1      1641 9.48089E-05-2.65392E-05-2.92716E-05 1.34171E-06-7.72560E-19 3.97861E-19
 -1      1642 9.50659E-05-2.68109E-05-2.92847E-05 2.08504E-06-1.33970E-20 1.53736E-18
 -1      1643 9.34449E-05-2.22192E-05-3.05305E-05 2.02016E-06 4.80188E-19-4.72777E-19
 -1      1644 9.40287E-05-2.40439E-05-3.00055E-05 1.92125E-06 1.12066E-18-4.97867E-19
 -1      1645 9.43756E-05-2.47807E-05-2.98595E-05 3.28361E-06 1.17031E-18 6.18857E-19
 -1      1646 9.22732E-05-1.85109E-05-3.16159E-05 2.40080E-06 3.90012E-18 1.60024E-18
 -1      1647 9.29794E-05-2.07041E-05-3.09855E-05 2.33928E-06 8.23515E-19 2.06290E-18
 -1      1648 9.34828E-05-2.20955E-05-3.06208E-05 4.21654E-06 6.17424E-19 1.15304E-18
 -1      1649 9.10027E-05-1.45560E-05-3.27649E-05 2.51993E-06 3.91663E-18 8.94356E-20
 -1      1650 9.17496E-05-1.68431E-05-3.21111E-05 2.51627E-06 3.51226E-18 1.40614E-19
 -1      1651 9.24164E-05-1.89397E-05-3.15013E-05 4.74603E-06 1.29465E-18 8.43986E-19
 -1      1652 8.97515E-05-1.07362E-05-3.38621E-05 2.28478E-06 3.05497E-18-1.46608E-18
 -1      1653 9.04609E-05-1.28732E-05-3.32557E-05 2.35870E-06 4.01298E-18-6.27737E-19
 -1      1654 9.12569E-05-1.56068E-05-3.24113E-05 4.70384E-06 5.58400E-19-4.87226E-19
 -1      1655 8.87548E-05-7.74834E-06-3.47107E-05 1.64548E-06 1.32902E-18-6.39225E-19
 -1      1656 8.92877E-05-9.32904E-06-3.42656E-05 1.80221E-06 2.17506E-18-7.55057E-19
 -1      1657 9.01436E-05-1.25158E-05-3.32327E-05 3.93566E-06 4.15576E-20-2.17216E-18
 -1      1658 8.82188E-05-6.17923E-06-3.51495E-05 6.58442E-07 1.54753E-18-4.08574E-19
 -1      1659 8.84600E-05-6.87799E-06-3.49551E-05 8.77857E-07 1.09323E-18-2.48981E-19
 -1      1660 8.92910E-05-1.02234E-05-3.38258E-05 2.42728E-06 9.58345E-19-1.14737E-18
 -1      1661 8.82804E-05-6.40648E-06-3.50778E-05-5.09341E-07-2.20156E-19-7.09000E-19
 -1      1662 8.81641E-05-6.03986E-06-3.51839E-05-2.69623E-07-1.62394E-19 3.20767E-19
 -1      1663 8.88896E-05-9.19685E-06-3.40800E-05 3.72572E-07 4.78627E-19-1.45346E-18
 -1      1664 8.89540E-05-8.46471E-06-3.44874E-05-1.62574E-06-4.84381E-18-3.29178E-18
 -1      1665 8.84898E-05-7.05724E-06-3.48870E-05-1.41636E-06-4.69203E-19-3.38284E-18
 -1      1666 8.90497E-05-9.69609E-06-3.39366E-05-1.85327E-06-9.88623E-19-2.65452E-18
 -1      1667 9.01036E-05-1.19544E-05-3.34893E-05-2.45882E-06-6.16116E-18 4.74477E-19
 -1      1668 8.93815E-05-9.77754E-06-3.41063E-05-2.32289E-06-5.12638E-18-1.91527E-18
 -1      1669 8.97551E-05-1.16584E-05-3.34141E-05-3.79399E-06-2.35024E-18-3.98764E-18
 -1      1670 9.15655E-05-1.63957E-05-3.22194E-05-2.88796E-06-3.36823E-18 8.63970E-19
 -1      1671 9.06863E-05-1.37468E-05-3.29689E-05-2.84005E-06-5.73214E-18 2.53685E-18
 -1      1672 9.08690E-05-1.47530E-05-3.25921E-05-5.09543E-06-1.78883E-18 1.22917E-18
 -1      1673 9.30741E-05-2.09781E-05-3.09111E-05-2.83548E-06 4.69812E-19 1.05879E-18
 -1      1674 9.21954E-05-1.83445E-05-3.16528E-05-2.88045E-06-1.25615E-18 8.66842E-19
 -1      1675 9.22183E-05-1.84895E-05-3.15993E-05-5.54582E-06-1.02290E-18 2.65009E-18
 -1      1676 9.43772E-05-2.48714E-05-2.97928E-05-2.27064E-06 2.80275E-19-3.79636E-19
 -1      1677 9.36513E-05-2.27645E-05-3.03946E-05-2.41718E-06 1.57864E-18-1.77791E-19
 -1      1678 9.35978E-05-2.22449E-05-3.06077E-05-5.04546E-06 7.99950E-19 5.85118E-19
 -1      1679 9.53240E-05-2.72338E-05-2.91597E-05-1.75009E-06 8.71017E-19-3.96977E-19
 -1      1680 9.49274E-05-2.60381E-05-2.95350E-05-2.17087E-06 1.29454E-18-2.98890E-19
 -1      1681 9.49295E-05-2.52484E-05-2.99104E-05-4.24841E-06 1.11829E-18 3.26941E-19
 -1      1682 9.63336E-05-2.74359E-05-2.95404E-05-3.36375E-06 1.50497E-18-2.16845E-18
 -1      1683 2.21704E-05-7.26174E-05 1.52579E-05-6.58090E-06 2.29927E-18 4.46958E-18
 -1      1684 2.57828E-05-8.31974E-05 1.75063E-05 2.29703E-06-5.43065E-18 3.12830E-18
 -1      1685 2.08881E-05-4.25466E-05 4.88379E-06 2.92711E-06 1.06862E-17 7.85284E-18
 -1      1686 2.57847E-05-6.63828E-05 1.10110E-05-7.30927E-07 4.37662E-18 5.70855E-18
 -1      1687 3.55174E-05-1.40175E-05-1.11320E-05 2.81653E-05 1.18220E-17 7.21503E-18
 -1      1688 3.03497E-05-3.59912E-05-2.33033E-06 1.04418E-05 1.26970E-17 6.00462E-18
 -1      1689 7.18958E-05-8.68416E-07-2.97003E-05 5.91227E-05 1.00628E-17 9.92892E-18
 -1      1690 4.95263E-05-8.64113E-06-1.99954E-05 3.61994E-05 1.09183E-17 9.22758E-18
 -1      1691 1.32129E-04-1.21596E-05-4.82403E-05 7.95915E-05 6.56959E-18 6.31378E-18
 -1      1692 9.34324E-05-2.10550E-06-3.88803E-05 6.49690E-05 9.42409E-18 8.14337E-18
 -1      1693 1.99105E-04-3.85062E-05-6.37905E-05 6.99825E-05 3.42244E-18 6.13082E-18
 -1      1694 1.56576E-04-1.88953E-05-5.61888E-05 7.49226E-05 5.02672E-18 6.40442E-18
 -1      1695 2.46437E-04-5.97827E-05-7.38575E-05 3.66623E-05 2.30287E-18 3.87560E-18
 -1      1696 2.17864E-04-4.37756E-05-6.96802E-05 6.25622E-05 2.45359E-18 5.54044E-18
 -1      1697 2.51563E-04-6.20341E-05-7.54019E-05-1.42341E-05 1.96236E-18-6.65133E-19
 -1      1698 2.52066E-04-6.17716E-05-7.56561E-05 2.11403E-05 2.51272E-18 2.78144E-18
 -1      1699 2.18686E-04-4.61478E-05-6.89673E-05-5.78024E-05 1.44890E-18-3.04847E-18
 -1      1700 2.47550E-04-6.15994E-05-7.34544E-05-3.16180E-05 6.54756E-19-2.14384E-18
 -1      1701 1.55633E-04-2.04319E-05-5.48571E-05-7.22316E-05 2.10572E-18-2.40134E-18
 -1      1702 1.98792E-04-3.99437E-05-6.27389E-05-6.67100E-05 1.47977E-18-2.13961E-18
 -1      1703 9.34044E-05-5.35452E-06-3.70766E-05-6.04957E-05 2.65460E-18-2.79267E-18
 -1      1704 1.31706E-04-1.52542E-05-4.64534E-05-7.40462E-05 2.32807E-18-2.45131E-18
 -1      1705 4.71454E-05-9.84624E-06-1.80829E-05-3.29203E-05 3.60158E-18-2.73592E-18
 -1      1706 6.96491E-05-2.22147E-06-2.79010E-05-5.58127E-05 2.91633E-18-2.70542E-18
 -1      1707 3.05144E-05-4.01075E-05-1.99314E-07-8.79324E-06 4.37154E-18-1.39443E-18
 -1      1708 3.52821E-05-1.77766E-05-9.19561E-06-2.59876E-05 3.24922E-18-2.42590E-18
 -1      1709 2.45913E-05-6.85738E-05 1.25330E-05 2.88626E-06 6.39933E-18-1.21782E-18
 -1      1710 1.87695E-05-4.61150E-05 7.14005E-06 1.76776E-06 5.70731E-18-9.84464E-19
 -1      1711 2.41309E-05-7.96091E-05 1.73499E-05-3.18389E-06 2.88245E-18-2.79224E-18
 -1      1712 2.17107E-05-7.24704E-05 1.57313E-05 6.43970E-06 6.49166E-18-2.46847E-18
 -1      1713 2.02864E-05-6.40350E-05 1.33662E-05-5.24279E-06-1.09437E-18-1.65595E-18
 -1      1714 2.41024E-05-7.64742E-05 1.62753E-05 1.45570E-06 2.31325E-18-2.31473E-18
 -1      1715 2.03650E-05-3.72002E-05 2.98428E-06 2.74996E-06-3.60497E-18-2.82083E-18
 -1      1716 2.47006E-05-6.07255E-05 9.38828E-06-2.23833E-06-1.71355E-18-1.88433E-18
 -1      1717 3.71471E-05-1.09415E-05-1.31077E-05 2.95947E-05-5.18299E-18-5.39899E-18
 -1      1718 3.01381E-05-3.06358E-05-4.34694E-06 1.09494E-05-4.60278E-18-2.94640E-18
 -1      1719 7.96731E-05-3.16914E-06-3.18851E-05 6.05927E-05-6.59669E-18-9.09036E-18
 -1      1720 5.41052E-05-7.90453E-06-2.20753E-05 3.79909E-05-5.44812E-18-6.58822E-18
 -1      1721 1.45029E-04-1.80915E-05-5.07300E-05 7.79206E-05-6.04866E-18-1.15781E-17
 -1      1722 1.02888E-04-5.43264E-06-4.12253E-05 6.54841E-05-6.09525E-18-9.55877E-18
 -1      1723 2.11713E-04-4.46593E-05-6.57758E-05 6.63762E-05-4.98034E-18-6.02749E-18
 -1      1724 1.69390E-04-2.43291E-05-5.87016E-05 7.51123E-05-6.88045E-18-9.69090E-18
 -1      1725 2.54436E-04-6.40402E-05-7.46528E-05 2.44501E-05-3.31042E-18 2.20821E-18
 -1      1726 2.28595E-04-4.99479E-05-7.08819E-05 5.36276E-05-4.54412E-18-3.13487E-18
 -1      1727 2.57165E-04-6.43668E-05-7.57171E-05-2.52547E-05-4.62586E-18 9.64135E-18
 -1      1728 2.61386E-04-6.68974E-05-7.63108E-05 8.65900E-06-3.51561E-18 4.57800E-18
 -1      1729 2.17002E-04-4.42733E-05-6.86588E-05-6.37273E-05-4.42712E-18 1.21431E-17
 -1      1730 2.48474E-04-6.12136E-05-7.32563E-05-4.00302E-05-3.26478E-18 1.11791E-17
 -1      1731 1.52710E-04-1.79724E-05-5.47927E-05-7.63066E-05-1.05964E-18 8.73545E-18
 -1      1732 1.96763E-04-3.75894E-05-6.26597E-05-7.34821E-05-2.82041E-18 1.24429E-17
 -1      1733 9.08902E-05-4.19485E-06-3.70719E-05-6.10262E-05-5.34478E-18 5.07796E-18
 -1      1734 1.28338E-04-1.27014E-05-4.64477E-05-7.65123E-05-3.04847E-18 6.27651E-18
 -1      1735 4.77243E-05-1.19345E-05-1.80083E-05-3.19198E-05-1.21769E-17 5.82759E-18
 -1      1736 6.89653E-05-3.11729E-06-2.78317E-05-5.48808E-05-7.66226E-18 3.00358E-18
 -1      1737 3.08744E-05-4.02710E-05-8.18517E-07-8.22502E-06-1.37651E-17 6.51538E-18
 -1      1738 3.52521E-05-1.88223E-05-9.34076E-06-2.45938E-05-1.26284E-17 5.88603E-18
 -1      1739 2.52691E-05-6.84445E-05 1.18843E-05 3.64732E-06-1.46604E-17 3.96231E-18
 -1      1740 1.99232E-05-4.59079E-05 6.30248E-06 1.35718E-06-1.49027E-17 7.13075E-18
 -1      1741 2.53801E-05-8.20874E-05 1.73957E-05-1.12194E-06-7.94337E-18 4.52527E-18
 -1      1742 2.20604E-05-7.26326E-05 1.53879E-05 7.43026E-06-1.28918E-17 4.29912E-18
 -1      1743 1.11498E-04-3.05198E-05-3.38472E-05 4.84648E-05 6.60262E-18 4.27752E-18
 -1      1744 7.26448E-05-3.70742E-05-1.66684E-05 4.07417E-05 7.38105E-18 5.03011E-18
 -1      1745 9.53864E-05-2.83993E-05-2.87213E-05 3.11929E-07-3.13812E-18-1.69754E-18
 -1      1746 9.55224E-05-2.80021E-05-2.89513E-05 1.07211E-06-7.63481E-19 2.38588E-19
 -1      1747 2.00839E-05-5.25746E-05 9.44327E-06 1.52162E-05 1.10538E-18 8.69098E-18
 -1      1748 4.12129E-05-4.50670E-05-1.44114E-06 2.97244E-05 5.44981E-18 6.13707E-18
 -1      1749 1.30763E-05-5.60021E-05 1.34146E-05 6.84921E-07-4.02944E-18 7.15404E-18
 -1      1750 1.54770E-04-3.07950E-05-5.02742E-05 4.53074E-05 5.73357E-18 4.63751E-18
 -1      1751 1.89644E-04-3.23022E-05-6.32611E-05 3.19778E-05 3.27865E-18 4.47572E-18
 -1      1752 2.09464E-04-3.28992E-05-7.06300E-05 1.43185E-05 3.19204E-18 1.32264E-18
 -1      1753 2.10421E-04-3.37841E-05-7.05060E-05-8.58156E-06 2.50722E-18-6.07534E-19
 -1      1754 1.90638E-04-3.37612E-05-6.26496E-05-2.84765E-05 1.06948E-18-1.57379E-18
 -1      1755 1.53178E-04-3.22471E-05-4.87029E-05-4.05288E-05 1.08653E-18-4.78574E-19
 -1      1756 1.09313E-04-3.18989E-05-3.20613E-05-4.41876E-05 6.00970E-19-2.33781E-19
 -1      1757 7.02420E-05-3.90531E-05-1.47101E-05-3.75029E-05 7.89435E-19-9.78323E-19
 -1      1758 3.82970E-05-4.54338E-05 3.95094E-07-2.73528E-05 1.49078E-18 8.29920E-19
 -1      1759 1.76030E-05-5.25245E-05 1.05495E-05-1.15051E-05 2.37339E-18-1.34530E-18
 -1      1760 1.19952E-05-5.12297E-05 1.25082E-05 2.48968E-06 1.43175E-18-3.33562E-18
 -1      1761 2.15065E-05-4.91319E-05 7.80839E-06 1.56578E-05 4.37916E-19-2.49091E-18
 -1      1762 4.30800E-05-4.31360E-05-3.00971E-06 2.75395E-05-1.45436E-18-2.64211E-18
 -1      1763 7.63272E-05-3.56845E-05-1.85680E-05 3.90913E-05-2.24972E-18-5.54383E-18
 -1      1764 1.18315E-04-3.20044E-05-3.60130E-05 4.56290E-05-2.19043E-18-5.68698E-18
 -1      1765 1.62509E-04-3.25552E-05-5.25168E-05 4.30703E-05-4.46386E-18-5.04239E-18
 -1      1766 1.97749E-04-3.48112E-05-6.49921E-05 2.83116E-05-5.97709E-18-1.91853E-19
 -1      1767 2.15949E-04-3.59885E-05-7.13680E-05 6.89278E-06-6.24009E-18 3.34324E-18
 -1      1768 2.15477E-04-3.71603E-05-7.06196E-05-1.57228E-05-5.54383E-18 7.64977E-18
 -1      1769 1.90974E-04-3.40762E-05-6.25542E-05-3.41857E-05-1.94585E-18 8.99041E-18
 -1      1770 1.52994E-04-3.23763E-05-4.89032E-05-4.52049E-05-1.55219E-18 8.96500E-18
 -1      1771 1.08998E-04-3.27370E-05-3.21580E-05-4.53271E-05-7.04054E-18 3.39152E-18
 -1      1772 7.07275E-05-3.94844E-05-1.50254E-05-3.77775E-05-8.22808E-18 1.23752E-18
 -1      1773 3.98164E-05-4.66480E-05-2.37283E-07-2.72377E-05-9.93061E-18 4.90220E-18
 -1      1774 1.91304E-05-5.30833E-05 9.97243E-06-1.21176E-05-8.96966E-18 5.17622E-18
 -1      1775 1.19128E-04-2.62858E-05-3.98423E-05-1.85732E-05-1.32693E-18 1.03658E-17
 -1      1776 9.35694E-05-1.12096E-05-3.54368E-05-1.52728E-05-2.63139E-18 1.03603E-19
 -1      1777 9.62722E-05-1.24921E-05-3.60740E-05-1.71313E-05-2.78465E-18 1.12200E-18
 -1      1778 9.98301E-05-1.51783E-05-3.64645E-05-1.79779E-05-2.63941E-18 2.23881E-18
 -1      1779 1.03059E-04-1.75046E-05-3.72232E-05-1.97462E-05-2.57352E-18 3.71096E-18
 -1      1780 1.00142E-04-1.77420E-05-3.53250E-05-1.58348E-05-2.79973E-18 1.70494E-18
 -1      1781 8.57309E-05-7.65962E-06-3.35351E-05-9.81054E-06-2.09443E-18-1.83491E-18
 -1      1782 8.72684E-05-8.03467E-06-3.40186E-05-1.11925E-05-2.30422E-18-1.49823E-18
 -1      1783 8.28584E-05-6.82646E-06-3.26463E-05-7.35072E-06-1.66919E-18-2.31702E-18
 -1      1784 8.41985E-05-7.06324E-06-3.31067E-05-8.61526E-06-1.90515E-18-2.05988E-18
 -1      1785 8.65121E-05-9.78047E-06-3.29171E-05-9.20107E-06-2.16417E-18-1.79322E-18
 -1      1786 8.03353E-05-6.30438E-06-3.17798E-05-5.04969E-06-1.21987E-18-2.64510E-18
 -1      1787 8.15350E-05-6.44859E-06-3.22232E-05-6.22159E-06-1.45071E-18-2.48518E-18
 -1      1788 8.36034E-05-8.81734E-06-3.20823E-05-6.91206E-06-1.66066E-18-2.25967E-18
 -1      1789 7.80440E-05-6.00184E-06-3.09220E-05-2.85437E-06-8.12619E-19-2.87238E-18
 -1      1790 7.91496E-05-6.07902E-06-3.13574E-05-3.97009E-06-1.00076E-18-2.76990E-18
 -1      1791 8.10577E-05-8.21855E-06-3.12470E-05-4.73325E-06-1.17161E-18-2.60625E-18
 -1      1792 7.59202E-05-5.87393E-06-3.00635E-05-7.15320E-07-4.08928E-19-3.06769E-18
 -1      1793 7.69566E-05-5.89557E-06-3.04963E-05-1.80455E-06-6.19471E-19-2.94490E-18
 -1      1794 7.87639E-05-7.88793E-06-3.04049E-05-2.63198E-06-7.42156E-19-2.83570E-18
 -1      1795 7.39353E-05-5.90610E-06-2.91979E-05 1.41297E-06 1.87406E-20-3.26957E-18
 -1      1796 7.49123E-05-5.87399E-06-2.96313E-05 3.23556E-07-1.81976E-19-3.16986E-18
 -1      1797 7.66619E-05-7.78039E-06-2.95495E-05-5.72059E-07-3.04894E-19-2.96735E-18
 -1      1798 7.21233E-05-6.10543E-06-2.83373E-05 3.53745E-06 4.93410E-19-3.35347E-18
 -1      1799 7.30201E-05-6.01459E-06-2.87641E-05 2.44017E-06 2.69218E-19-3.31141E-18
 -1      1800 7.47461E-05-7.88593E-06-2.86826E-05 1.46266E-06 2.05673E-19-3.15246E-18
 -1      1801 7.04720E-05-6.53101E-06-2.74533E-05 5.77489E-06 1.02970E-18-3.28137E-18
 -1      1802 7.12890E-05-6.35239E-06-2.78849E-05 4.60084E-06 7.42692E-19-3.30707E-18
 -1      1803 7.30151E-05-8.23295E-06-2.77914E-05 3.51733E-06 7.16295E-19-3.16800E-18
 -1      1804 6.91552E-05-7.31897E-06-2.65688E-05 8.12776E-06 1.58295E-18-2.87946E-18
 -1      1805 6.97948E-05-6.98612E-06-2.69866E-05 6.85585E-06 1.26583E-18-3.12938E-18
 -1      1806 7.15325E-05-8.91616E-06-2.68611E-05 5.61649E-06 1.28351E-18-3.00142E-18
 -1      1807 6.85121E-05-8.82420E-06-2.56957E-05 1.05550E-05 2.11710E-18-1.96607E-18
 -1      1808 6.87653E-05-8.14002E-06-2.60794E-05 9.17360E-06 1.80022E-18-2.51053E-18
 -1      1809 7.04955E-05-1.01392E-05-2.58831E-05 7.68639E-06 1.84362E-18-2.45755E-18
 -1      1810 6.96009E-05-1.21402E-05-2.47697E-05 1.24646E-05 2.35859E-18 3.88576E-20
 -1      1811 6.87861E-05-1.04002E-05-2.51421E-05 1.13275E-05 2.17746E-18-1.18283E-18
 -1      1812 7.03180E-05-1.24156E-05-2.48073E-05 9.34363E-06 2.26818E-18-1.39824E-18
 -1      1813 7.19976E-05-1.74996E-05-2.36661E-05 1.02247E-05 2.20427E-18 2.78473E-18
 -1      1814 7.03114E-05-1.38211E-05-2.42079E-05 1.19982E-05 2.29073E-18 9.69429E-19
 -1      1815 7.05379E-05-1.55975E-05-2.36054E-05 9.08156E-06 2.44898E-18 1.70955E-19
 -1      1816 6.98012E-05-1.83011E-05-2.22339E-05 6.49032E-06 2.20530E-18 2.12037E-18
 -1      1817 1.11242E-04-2.19675E-05-3.79055E-05-2.09122E-05-1.97266E-18 6.09027E-18
 -1      1818 6.76568E-05-1.92673E-05-2.07599E-05 2.35547E-06 1.75387E-18 1.27962E-18
 -1      1819 6.92389E-05-1.92729E-05-2.14430E-05 4.15472E-06 1.82551E-18 1.88926E-18
 -1      1820 7.00087E-05-1.82034E-05-2.21963E-05 5.76511E-06 2.14461E-18 8.11947E-19
 -1      1821 1.10110E-04-2.51079E-05-3.61184E-05-1.63031E-05-2.26634E-18 4.98251E-18
 -1      1822 1.06931E-04-2.98984E-05-3.28944E-05-6.98093E-06-1.90037E-18 4.39278E-18
 -1      1823 1.04731E-04-2.98733E-05-3.20560E-05-5.09838E-06-1.72915E-18 3.90983E-18
 -1      1824 1.03620E-04-3.00137E-05-3.14434E-05-3.59536E-06-1.49035E-18 3.70995E-18
 -1      1825 1.02501E-04-3.00032E-05-3.10336E-05-2.73469E-06-1.30382E-18 3.23115E-18
 -1      1826 1.03780E-04-2.89838E-05-3.20753E-05-6.03999E-06-1.96348E-18 2.45682E-18
 -1      1827 1.01678E-04-2.99704E-05-3.06700E-05-1.90956E-06-1.02754E-18 3.15246E-18
 -1      1828 1.01034E-04-2.99333E-05-3.04478E-05-1.47987E-06-8.73844E-19 2.86974E-18
 -1      1829 1.01987E-04-2.95350E-05-3.10705E-05-3.36131E-06-1.38472E-18 2.03183E-18
 -1      1830 1.00458E-04-2.98709E-05-3.02195E-05-1.03582E-06-7.17444E-19 2.68458E-18
 -1      1831 1.00082E-04-2.98423E-05-3.00891E-05-8.22517E-07-6.13674E-19 2.37489E-18
 -1      1832 1.00691E-04-2.96746E-05-3.04515E-05-1.90821E-06-1.02940E-18 1.83549E-18
 -1      1833 9.96747E-05-2.97810E-05-2.99387E-05-5.94094E-07-6.38521E-19 2.20229E-18
 -1      1834 9.94411E-05-2.97589E-05-2.98562E-05-4.98458E-07-6.54620E-19 1.94688E-18
 -1      1835 9.97665E-05-2.96767E-05-3.00504E-05-1.13045E-06-7.90363E-19 1.57243E-18
 -1      1836 9.91403E-05-2.97031E-05-2.97516E-05-3.94983E-07-6.48608E-19 2.11260E-18
 -1      1837 9.89764E-05-2.96814E-05-2.96937E-05-3.65714E-07-6.14829E-19 2.22799E-18
 -1      1838 9.90931E-05-2.96306E-05-2.97778E-05-7.39945E-07-7.23720E-19 1.36342E-18
 -1      1839 9.87380E-05-2.96287E-05-2.96155E-05-3.34818E-07-6.33662E-19 2.16075E-18
 -1      1840 9.86018E-05-2.96027E-05-2.95688E-05-3.42480E-07-4.01763E-19 2.08773E-18
 -1      1841 9.85743E-05-2.95626E-05-2.95815E-05-5.75521E-07-6.25634E-19 1.51653E-18
 -1      1842 9.83967E-05-2.95503E-05-2.95052E-05-3.52111E-07-4.07584E-19 2.09701E-18
 -1      1843 9.82643E-05-2.95174E-05-2.94619E-05-3.78517E-07-4.64280E-19 1.98604E-18
 -1      1844 9.81426E-05-2.94800E-05-2.94298E-05-5.41535E-07-4.46834E-19 1.12437E-18
 -1      1845 9.80747E-05-2.94633E-05-2.94057E-05-4.08081E-07-7.69811E-19 1.78116E-18
 -1      1846 9.79337E-05-2.94223E-05-2.93616E-05-4.41407E-07-7.83930E-19 1.44957E-18
 -1      1847 9.77542E-05-2.93845E-05-2.93029E-05-5.78044E-07-8.38186E-19 9.88607E-19
 -1      1848 9.77493E-05-2.93655E-05-2.93085E-05-4.77148E-07-7.83872E-19 1.19107E-18
 -1      1849 9.75951E-05-2.93168E-05-2.92619E-05-5.09396E-07-4.78461E-19 7.59424E-19
 -1      1850 9.73828E-05-2.92769E-05-2.91890E-05-6.45799E-07-1.00999E-18 9.81464E-19
 -1      1851 9.74111E-05-2.92571E-05-2.92100E-05-5.41793E-07-1.82576E-19 6.62561E-19
 -1      1852 9.72441E-05-2.92018E-05-2.91607E-05-5.67326E-07-1.16126E-19 5.34534E-19
 -1      1853 9.70146E-05-2.91586E-05-2.90816E-05-7.18140E-07-3.86395E-19 6.73328E-19
 -1      1854 9.70600E-05-2.91399E-05-2.91095E-05-5.89500E-07 3.28627E-20 4.54575E-19
 -1      1855 9.68846E-05-2.90799E-05-2.90585E-05-6.04125E-07 2.66474E-20 7.16356E-19
 -1      1856 9.66451E-05-2.90314E-05-2.89777E-05-7.76259E-07-7.80915E-20 7.51144E-20
 -1      1857 9.67027E-05-2.90169E-05-2.90086E-05-6.10817E-07-1.06108E-19 6.10871E-19
 -1      1858 9.65259E-05-2.89547E-05-2.89577E-05-6.11202E-07-4.22704E-19 7.36955E-19
 -1      1859 9.62763E-05-2.88979E-05-2.88771E-05-8.06230E-07-1.43032E-19 8.01055E-20
 -1      1860 9.63511E-05-2.88922E-05-2.89107E-05-5.98120E-07-8.16468E-19 2.72810E-19
 -1      1861 9.61822E-05-2.88309E-05-2.88626E-05-5.81435E-07-1.11299E-18 2.91759E-19
 -1      1862 9.59158E-05-2.87616E-05-2.87814E-05-7.97109E-07-8.86336E-19-7.62388E-19
 -1      1863 9.60211E-05-2.87711E-05-2.88205E-05-5.44881E-07-1.21000E-18 4.20938E-19
 -1      1864 9.58714E-05-2.87143E-05-2.87784E-05-5.08646E-07-7.93122E-19 4.25260E-19
 -1      1865 9.55751E-05-2.86264E-05-2.86939E-05-7.39751E-07-1.16711E-18-3.99173E-19
 -1      1866 9.57325E-05-2.86599E-05-2.87438E-05-4.45384E-07-4.40454E-19 4.10115E-19
 -1      1867 9.56151E-05-2.86117E-05-2.87112E-05-3.87508E-07-1.92095E-19 2.82071E-19
 -1      1868 9.52695E-05-2.84978E-05-2.86188E-05-6.26214E-07-7.00487E-19 6.57555E-20
 -1      1869 9.55085E-05-2.85661E-05-2.86871E-05-2.94882E-07-7.54587E-20 3.59941E-19
 -1      1870 9.54376E-05-2.85314E-05-2.86683E-05-2.13884E-07-3.13008E-19 3.41627E-19
 -1      1871 9.50178E-05-2.83822E-05-2.85613E-05-4.49704E-07-2.94794E-19 1.67689E-19
 -1      1872 9.53752E-05-2.84987E-05-2.86581E-05-9.01402E-08-5.66322E-19 2.25260E-19
 -1      1873 9.53662E-05-2.84827E-05-2.86571E-05 1.45191E-08-1.82692E-19-1.57638E-20
 -1      1874 9.48420E-05-2.82876E-05-2.85276E-05-2.05014E-07-5.25246E-19 2.62512E-19
 -1      1875 9.53613E-05-2.84675E-05-2.86645E-05 1.69823E-07 1.14193E-19 1.86782E-19
 -1      1876 9.54297E-05-2.84758E-05-2.86858E-05 2.97574E-07 1.85618E-19 3.36409E-21
 -1      1877 9.47674E-05-2.82236E-05-2.85242E-05 1.10697E-07-1.96590E-19-7.37773E-20
 -1      1878 9.54966E-05-2.84830E-05-2.87148E-05 4.83494E-07 4.95259E-19 3.58250E-19
 -1      1879 9.56581E-05-2.85199E-05-2.87630E-05 6.33258E-07 4.64272E-20 7.33517E-19
 -1      1880 9.48218E-05-2.82003E-05-2.85586E-05 4.97335E-07 4.39365E-19 6.80282E-19
 -1      1881 9.58104E-05-2.85527E-05-2.88184E-05 8.48628E-07-4.55732E-19 1.18005E-18
 -1      1882 9.60802E-05-2.86207E-05-2.88986E-05 1.02117E-06 2.23637E-20 1.13429E-18
 -1      1883 9.50331E-05-2.82256E-05-2.86394E-05 9.52796E-07 1.91287E-19 1.00921E-18
 -1      1884 9.63284E-05-2.86781E-05-2.89859E-05 1.26848E-06 3.22741E-19 1.05229E-18
 -1      1885 9.67228E-05-2.87759E-05-2.91045E-05 1.47116E-06 1.94280E-19 1.15736E-18
 -1      1886 9.54252E-05-2.82988E-05-2.87769E-05 1.47782E-06 1.63990E-19 8.21383E-19
 -1      1887 9.70719E-05-2.88513E-05-2.92301E-05 1.76382E-06-1.40786E-20 1.44801E-18
 -1      1888 9.76125E-05-2.89771E-05-2.93955E-05 2.01572E-06 6.53804E-21 1.18829E-18
 -1      1889 9.60126E-05-2.84059E-05-2.89831E-05 2.08742E-06 2.15639E-19 2.01842E-20
 -1      1890 9.80667E-05-2.90640E-05-2.95656E-05 2.38406E-06-1.63443E-19 1.01768E-18
 -1      1891 9.87871E-05-2.92270E-05-2.97876E-05 2.71353E-06-7.30508E-19 4.40436E-19
 -1      1892 9.68024E-05-2.85264E-05-2.92706E-05 2.82627E-06-3.73363E-19 2.13823E-19
 -1      1893 9.93681E-05-2.93388E-05-3.00060E-05 3.19247E-06-8.10093E-19 5.23808E-19
 -1      1894 1.00315E-04-2.95745E-05-3.02927E-05 3.61284E-06-2.81519E-19 5.31293E-19
 -1      1895 9.78196E-05-2.86698E-05-2.96474E-05 3.76762E-06-4.04281E-19-2.66562E-20
 -1      1896 1.01079E-04-2.97641E-05-3.05564E-05 4.19505E-06-4.15642E-20 6.82215E-19
 -1      1897 1.02294E-04-3.01314E-05-3.09079E-05 4.66134E-06-2.11570E-19 3.50223E-19
 -1      1898 9.91491E-05-2.89304E-05-3.01107E-05 4.95192E-06-5.16624E-20 7.56457E-20
 -1      1899 1.03307E-04-3.04753E-05-3.12050E-05 5.24209E-06-2.16635E-19 5.39107E-19
 -1      1900 1.04782E-04-3.10249E-05-3.16067E-05 5.62108E-06 3.42463E-19 4.84059E-19
 -1      1901 1.00929E-04-2.94850E-05-3.06400E-05 6.26348E-06-2.21891E-19-4.02279E-19
 -1      1902 1.06072E-04-3.15799E-05-3.19160E-05 5.98877E-06 5.21283E-19 7.44654E-19
 -1      1903 1.07706E-04-3.23181E-05-3.23304E-05 6.07167E-06-3.17098E-19 8.38063E-19
 -1      1904 1.03270E-04-3.05206E-05-3.11996E-05 7.35007E-06 3.35668E-19 3.57632E-19
 -1      1905 1.09240E-04-3.31008E-05-3.26226E-05 5.94831E-06 1.12192E-19 1.50564E-18
 -1      1906 1.10811E-04-3.39713E-05-3.29858E-05 5.49081E-06 6.20610E-19 1.65516E-18
 -1      1907 1.06171E-04-3.21494E-05-3.17423E-05 7.67197E-06 7.35974E-19 1.19243E-18
 -1      1908 1.12503E-04-3.49516E-05-3.32296E-05 4.58185E-06 1.05822E-18 1.64288E-18
 -1      1909 1.13666E-04-3.58072E-05-3.34585E-05 3.36495E-06 1.44089E-18 2.13176E-18
 -1      1910 1.09515E-04-3.43657E-05-3.22224E-05 6.61148E-06 1.03628E-18 1.85890E-18
 -1      1911 1.15334E-04-3.68465E-05-3.36350E-05 1.44562E-06 1.07388E-19 1.88272E-18
 -1      1912 1.15650E-04-3.73882E-05-3.36531E-05-5.86939E-07-1.12708E-18 2.04768E-18
 -1      1913 1.13021E-04-3.69345E-05-3.26156E-05 3.60341E-06 7.66032E-19 2.04512E-18
 -1      1914 1.16910E-04-3.81184E-05-3.37799E-05-3.45262E-06-2.03727E-18 2.79157E-18
 -1      1915 1.15966E-04-3.78685E-05-3.35633E-05-5.94623E-06-5.96682E-19 3.21006E-18
 -1      1916 1.16095E-04-3.91500E-05-3.29616E-05-1.57388E-06-7.76517E-19 3.18839E-18
 -1      1917 1.16196E-04-3.76635E-05-3.37020E-05-9.01736E-06 2.60125E-19 3.05317E-18
 -1      1918 1.13886E-04-3.61852E-05-3.33213E-05-1.09733E-05-2.50364E-19 2.18135E-18
 -1      1919 1.17647E-04-3.96331E-05-3.33870E-05-8.16298E-06-1.06832E-19 3.27670E-18
 -1      1920 1.12623E-04-3.45826E-05-3.35363E-05-1.26325E-05-9.47952E-19 2.23304E-18
 -1      1921 1.09553E-04-3.20707E-05-3.31426E-05-1.26487E-05-1.90619E-18 2.01884E-18
 -1      1922 1.16455E-04-3.69095E-05-3.40379E-05-1.36721E-05-7.43614E-19 3.00501E-18
 -1      1923 1.07306E-04-2.96086E-05-3.34023E-05-1.11621E-05-2.79107E-18 1.17652E-18
 -1      1924 1.04848E-04-2.73570E-05-3.31417E-05-8.47740E-06-3.48311E-18-5.80330E-19
 -1      1925 1.12532E-04-3.11749E-05-3.48995E-05-1.42541E-05-2.75153E-18 1.98921E-18
 -1      1926 1.03410E-04-2.58483E-05-3.32799E-05-3.86697E-06-1.92562E-18-9.13995E-19
 -1      1927 1.02946E-04-2.54685E-05-3.32191E-05 4.06750E-07-2.87859E-19-9.52379E-19
 -1      1928 1.08394E-04-2.56848E-05-3.56023E-05-7.50977E-06-3.03529E-18-9.55559E-20
 -1      1929 1.03717E-04-2.63459E-05-3.30948E-05 5.54082E-06 3.84394E-19-2.43998E-18
 -1      1930 1.05519E-04-2.81676E-05-3.32393E-05 8.85914E-06 4.47326E-19-2.16536E-18
 -1      1931 1.07613E-04-2.47727E-05-3.56614E-05 3.62152E-06-7.56850E-19-2.40537E-18
 -1      1932 1.07617E-04-3.05506E-05-3.29498E-05 1.13163E-05 1.40163E-18-1.45977E-18
 -1      1933 1.10463E-04-3.31138E-05-3.32544E-05 1.20081E-05 2.27859E-18-4.85588E-19
 -1      1934 1.10890E-04-2.93497E-05-3.50069E-05 1.21088E-05 1.30798E-18-3.68351E-18
 -1      1935 1.11979E-04-3.50463E-05-3.29672E-05 1.10302E-05 1.49719E-18 3.67665E-20
 -1      1936 1.14351E-04-3.68102E-05-3.32964E-05 9.42315E-06 1.06087E-18 3.74481E-20
 -1      1937 1.14985E-04-3.54380E-05-3.40571E-05 1.34218E-05 2.13798E-18-2.82198E-19
 -1      1938 1.14372E-04-3.73520E-05-3.30856E-05 6.48044E-06-1.44637E-19-1.35230E-18
 -1      1939 1.15432E-04-3.78363E-05-3.32793E-05 3.94103E-06 8.15468E-20-1.69661E-18
 -1      1940 1.16757E-04-3.90844E-05-3.32338E-05 8.75396E-06 6.77693E-20-2.19501E-20
 -1      1941 1.14241E-04-3.72586E-05-3.31021E-05 8.24503E-07 1.37511E-18-1.69652E-18
 -1      1942 1.13930E-04-3.67924E-05-3.30632E-05-1.47105E-06 4.28255E-19-1.95112E-19
 -1      1943 1.15572E-04-3.93136E-05-3.26587E-05 1.96680E-06 2.30029E-19-1.18183E-18
 -1      1944 1.12180E-04-3.57481E-05-3.28516E-05-3.76126E-06-1.25262E-19 1.17794E-18
 -1      1945 1.10865E-04-3.48330E-05-3.25821E-05-5.28303E-06 5.46833E-19 2.02956E-18
 -1      1946 1.12493E-04-3.73345E-05-3.22146E-05-3.91096E-06 1.32433E-18-1.06479E-18
 -1      1947 1.09017E-04-3.37632E-05-3.23112E-05-6.52323E-06 3.68714E-19 2.26001E-18
 -1      1948 1.07158E-04-3.27374E-05-3.18853E-05-7.21623E-06-3.60717E-20 1.34121E-18
 -1      1949 1.08739E-04-3.46586E-05-3.17642E-05-7.67707E-06 2.97074E-19 4.60601E-19
 -1      1950 1.05425E-04-3.18036E-05-3.15764E-05-7.54056E-06-1.83312E-18 6.29938E-19
 -1      1951 1.03420E-04-3.08255E-05-3.10947E-05-7.53236E-06-9.00274E-19-5.69094E-19
 -1      1952 1.05022E-04-3.21220E-05-3.12615E-05-9.30599E-06-1.46057E-18 3.90514E-19
 -1      1953 1.01874E-04-3.00286E-05-3.07910E-05-7.14307E-06-4.37062E-19-1.30857E-18
 -1      1954 1.00034E-04-2.91604E-05-3.03491E-05-6.55953E-06-8.43804E-19-1.54788E-18
 -1      1955 1.01648E-04-2.99599E-05-3.07405E-05-9.17437E-06-1.77901E-18 3.50964E-19
 -1      1956 9.88577E-05-2.85748E-05-3.01105E-05-5.64799E-06 4.75563E-19-1.80282E-18
 -1      1957 9.73906E-05-2.78704E-05-2.97574E-05-4.62171E-06 1.13454E-18-1.84878E-18
 -1      1958 9.67112E-05-2.70174E-05-2.98804E-05-5.42208E-06 9.61162E-19 4.53369E-20
 -1      1959 9.88526E-05-2.82142E-05-3.02897E-05-7.71588E-06-3.32780E-19-4.55710E-20
 -1      1960 6.65974E-05-1.94875E-05-2.01675E-05 3.91923E-07 1.33217E-18 6.25885E-19
 -1      1961 6.72192E-05-1.94780E-05-2.04149E-05 1.25037E-06 1.44060E-18 1.12933E-18
 -1      1962 6.86904E-05-1.93995E-05-2.11302E-05 2.09409E-06 1.74044E-18 4.34263E-19
 -1      1963 6.63887E-05-1.96628E-05-2.00052E-05-6.43394E-07 9.82803E-19 9.93543E-20
 -1      1964 6.64517E-05-1.95884E-05-2.00450E-05-1.87327E-07 1.03584E-18 4.43164E-19
 -1      1965 6.80010E-05-1.98081E-05-2.06611E-05 1.12338E-07 1.27512E-18 1.06617E-19
 -1      1966 6.67384E-05-1.98905E-05-2.00640E-05-1.19930E-06 7.63048E-19-2.66607E-19
 -1      1967 6.64898E-05-1.97646E-05-2.00016E-05-9.46504E-07 7.82816E-19 6.68362E-21
 -1      1968 6.79470E-05-2.00810E-05-2.05232E-05-9.73472E-07 9.87563E-19-3.25145E-19
 -1      1969 6.74245E-05-2.01666E-05-2.02439E-05-1.48666E-06 5.02377E-19-6.58742E-19
 -1      1970 6.70044E-05-2.00096E-05-2.01281E-05-1.34847E-06 6.50960E-19-2.81002E-19
 -1      1971 6.83235E-05-2.03476E-05-2.05702E-05-1.56477E-06 7.71760E-19-5.44243E-19
 -1      1972 6.83017E-05-2.04717E-05-2.04914E-05-1.61583E-06 4.42528E-19-9.08605E-19
 -1      1973 6.77913E-05-2.02993E-05-2.03474E-05-1.54633E-06 3.83519E-19-7.81203E-19
 -1      1974 6.89688E-05-2.06293E-05-2.07244E-05-1.86978E-06 5.47794E-19-8.48150E-19
 -1      1975 6.92769E-05-2.07889E-05-2.07750E-05-1.65041E-06 5.26049E-19-1.09781E-18
 -1      1976 6.87252E-05-2.06116E-05-2.06172E-05-1.62282E-06 4.54298E-19-8.52558E-19
 -1      1977 6.97717E-05-2.09219E-05-2.09413E-05-2.00334E-06 5.93862E-19-1.07025E-18
 -1      1978 7.02924E-05-2.11067E-05-2.10750E-05-1.63060E-06 4.20324E-19-1.56724E-18
 -1      1979 6.97285E-05-2.09308E-05-2.09124E-05-1.62777E-06 5.52299E-19-1.18572E-18
 -1      1980 7.06583E-05-2.12170E-05-2.11933E-05-2.03447E-06 6.40331E-19-1.11649E-18
 -1      1981 7.13136E-05-2.14182E-05-2.13799E-05-1.58333E-06 1.76468E-19-1.73462E-18
 -1      1982 7.07541E-05-2.12472E-05-2.12174E-05-1.59360E-06 1.75760E-19-1.79998E-18
 -1      1983 7.15819E-05-2.15082E-05-2.14632E-05-2.00787E-06 4.10582E-19-1.41494E-18
 -1      1984 7.23230E-05-2.17206E-05-2.16834E-05-1.52746E-06 4.11698E-19-1.78685E-18
 -1      1985 7.17758E-05-2.15557E-05-2.15236E-05-1.54252E-06 3.64406E-19-1.70444E-18
 -1      1986 7.25146E-05-2.17919E-05-2.17407E-05-1.95397E-06 3.52513E-19-1.69271E-18
 -1      1987 7.33146E-05-2.20133E-05-2.19832E-05-1.47663E-06 3.34232E-19-1.55133E-18
 -1      1988 7.27814E-05-2.18544E-05-2.18266E-05-1.49034E-06 3.59680E-19-1.64527E-18
 -1      1989 7.34427E-05-2.20667E-05-2.20202E-05-1.89432E-06 3.06622E-19-1.57028E-18
 -1      1990 7.42913E-05-2.22984E-05-2.22797E-05-1.44113E-06 3.40081E-19-1.75446E-18
 -1      1991 7.37694E-05-2.21442E-05-2.21257E-05-1.44876E-06 2.67935E-19-1.59609E-18
 -1      1992 7.43621E-05-2.23333E-05-2.22997E-05-1.84476E-06 4.22832E-19-1.39909E-18
 -1      1993 7.52628E-05-2.25791E-05-2.25756E-05-1.42923E-06 3.64411E-19-1.97910E-18
 -1      1994 7.47459E-05-2.24274E-05-2.24225E-05-1.42684E-06 2.78969E-19-1.82066E-18
 -1      1995 7.52764E-05-2.25938E-05-2.25799E-05-1.81748E-06 4.50225E-19-1.27293E-18
 -1      1996 7.62442E-05-2.28603E-05-2.28754E-05-1.44798E-06-9.74708E-20-2.11834E-18
 -1      1997 7.57232E-05-2.27082E-05-2.27205E-05-1.43213E-06 1.14054E-19-2.05839E-18
 -1      1998 7.61951E-05-2.28519E-05-2.28631E-05-1.82242E-06 1.88987E-19-1.71359E-18
 -1      1999 7.72552E-05-2.31481E-05-2.31848E-05-1.50376E-06 6.09067E-19-2.42604E-18
 -1      2000 7.67185E-05-2.29919E-05-2.30248E-05-1.47122E-06 2.61896E-19-2.07859E-18
 -1      2001 7.71326E-05-2.31122E-05-2.31537E-05-1.86820E-06 1.95369E-19-1.83285E-18
 -1      2002 7.83194E-05-2.34497E-05-2.35110E-05-1.60236E-06 2.13415E-19-2.56014E-18
 -1      2003 7.77534E-05-2.32852E-05-2.33420E-05-1.55011E-06 3.95777E-19-2.54702E-18
 -1      2004 7.81072E-05-2.33803E-05-2.34569E-05-1.96252E-06 5.50900E-19-1.82956E-18
 -1      2005 7.94638E-05-2.37738E-05-2.38618E-05-1.74867E-06 1.81541E-20-2.35076E-18
 -1      2006 7.88532E-05-2.35959E-05-2.36793E-05-1.67404E-06 3.66472E-19-2.33352E-18
 -1      2007 7.91406E-05-2.36633E-05-2.37790E-05-2.11211E-06 2.53464E-19-1.76652E-18
 -1      2008 8.07180E-05-2.41300E-05-2.42458E-05-1.94575E-06-1.51226E-19-2.36880E-18
 -1      2009 8.00461E-05-2.39333E-05-2.40452E-05-1.84686E-06-4.71501E-20-2.33315E-18
 -1      2010 8.02574E-05-2.39695E-05-2.41271E-05-2.32201E-06-1.73588E-20-1.51886E-18
 -1      2011 8.21118E-05-2.45290E-05-2.46714E-05-2.19333E-06-7.28244E-19-2.34582E-18
 -1      2012 8.13617E-05-2.43075E-05-2.44479E-05-2.06979E-06-4.27241E-19-2.27934E-18
 -1      2013 8.14838E-05-2.43086E-05-2.45081E-05-2.59413E-06-4.31106E-19-1.80004E-18
 -1      2014 8.36732E-05-2.49818E-05-2.51459E-05-2.48574E-06-9.50399E-19-1.86588E-18
 -1      2015 8.28296E-05-2.47297E-05-2.48954E-05-2.33967E-06-1.10884E-18-2.18445E-18
 -1      2016 8.28459E-05-2.46913E-05-2.49286E-05-2.92511E-06-9.00111E-19-1.86672E-18
 -1      2017 8.54239E-05-2.54986E-05-2.56742E-05-2.80922E-06-1.52017E-19-1.39632E-18
 -1      2018 8.44752E-05-2.52108E-05-2.53940E-05-2.64653E-06-3.30056E-19-1.48189E-18
 -1      2019 8.43668E-05-2.51293E-05-2.53933E-05-3.30352E-06-5.76721E-19-1.22797E-18
 -1      2020 8.73744E-05-2.60887E-05-2.62572E-05-3.13815E-06-3.88851E-19-2.06152E-18
 -1      2021 8.63162E-05-2.57612E-05-2.59470E-05-2.97057E-06-3.05513E-19-1.75162E-18
 -1      2022 8.60636E-05-2.56344E-05-2.59042E-05-3.70632E-06-1.07452E-19-1.49545E-18
 -1      2023 8.95179E-05-2.67597E-05-2.68895E-05-3.42854E-06-2.61906E-19-1.94951E-18
 -1      2024 8.83582E-05-2.63907E-05-2.65525E-05-3.27708E-06-8.52965E-19-2.25397E-18
 -1      2025 8.79447E-05-2.62206E-05-2.64592E-05-4.09362E-06-6.78966E-19-1.65214E-18
 -1      2026 9.18245E-05-2.75150E-05-2.75593E-05-3.60788E-06-1.41697E-19-8.45815E-19
 -1      2027 9.05885E-05-2.71081E-05-2.72032E-05-3.50881E-06-7.99266E-21-1.21310E-18
 -1      2028 9.00075E-05-2.69033E-05-2.70519E-05-4.40027E-06-5.07572E-19-9.06585E-19
 -1      2029 9.42229E-05-2.83305E-05-2.82453E-05-3.57724E-06-2.11978E-19-1.35631E-19
 -1      2030 9.29590E-05-2.79075E-05-2.78841E-05-3.58090E-06-1.14819E-19-1.82140E-19
 -1      2031 9.22254E-05-2.76855E-05-2.76726E-05-4.52731E-06-3.63711E-19-7.06578E-20
 -1      2032 9.65481E-05-2.91040E-05-2.89120E-05-3.29925E-06 2.52869E-19 2.63597E-19
 -1      2033 9.53402E-05-2.87154E-05-2.85647E-05-3.41489E-06 2.31266E-19 3.60101E-19
 -1      2034 9.44956E-05-2.85006E-05-2.82996E-05-4.36705E-06 1.45193E-19 6.54749E-19
 -1      2035 9.86344E-05-2.97559E-05-2.95305E-05-2.88550E-06-2.87332E-19-2.31662E-19
 -1      2036 9.75508E-05-2.94244E-05-2.92125E-05-3.05466E-06 6.15273E-20-5.83328E-20
 -1      2037 9.66237E-05-2.92115E-05-2.89013E-05-3.93911E-06 2.71810E-19 1.21159E-18
 -1      2038 1.00448E-04-3.03566E-05-3.00587E-05-2.39139E-06 9.79582E-19-1.48628E-18
 -1      2039 9.95308E-05-3.00518E-05-2.97925E-05-2.60319E-06 2.07748E-19-8.23842E-19
 -1      2040 9.85415E-05-2.98486E-05-2.94511E-05-3.39282E-06 4.49399E-19 1.03328E-19
 -1      2041 1.01966E-04-3.09980E-05-3.04424E-05-1.61018E-06 5.34269E-19-1.33998E-18
 -1      2042 1.01270E-04-3.07067E-05-3.02574E-05-1.97976E-06 9.90827E-19-1.28511E-18
 -1      2043 1.00288E-04-3.05346E-05-2.98978E-05-2.66826E-06 9.97026E-19 4.60852E-19
 -1      2044 1.02950E-04-3.15802E-05-3.06198E-05-2.32636E-07-1.56210E-18-2.19344E-18
 -1      2045 1.02622E-04-3.13733E-05-3.05542E-05-9.03625E-07-9.51337E-19-2.22867E-18
 -1      2046 1.01800E-04-3.13217E-05-3.01959E-05-1.43010E-06-2.59831E-19-5.65444E-20
 -1      2047 1.03023E-04-3.18602E-05-3.05302E-05 1.84243E-06-1.09097E-18-1.99103E-18
 -1      2048 1.03259E-04-3.18609E-05-3.06244E-05 8.25718E-07-1.64572E-18-1.99979E-18
 -1      2049 1.02794E-04-3.20254E-05-3.03106E-05 5.90886E-07-1.40634E-18-1.24249E-18
 -1      2050 1.01847E-04-3.15482E-05-3.01482E-05 4.32790E-06 7.23310E-19-1.84756E-18
 -1      2051 1.02801E-04-3.18861E-05-3.04206E-05 3.10430E-06-1.85732E-19-1.90207E-18
 -1      2052 1.02898E-04-3.23052E-05-3.02282E-05 3.31296E-06-2.19656E-19-2.57412E-18
 -1      2053 9.93133E-05-3.04037E-05-2.95335E-05 6.44040E-06 1.60136E-18-1.00135E-18
 -1      2054 1.00974E-04-3.11498E-05-2.99495E-05 5.39456E-06 1.47078E-18-9.29109E-19
 -1      2055 1.01793E-04-3.17681E-05-2.99805E-05 6.15658E-06 1.11642E-18-1.90155E-18
 -1      2056 9.58186E-05-2.84929E-05-2.88443E-05 7.01273E-06 6.50703E-19-1.01001E-18
 -1      2057 9.78825E-05-2.95330E-05-2.93058E-05 6.71238E-06 6.92090E-19-7.12408E-19
 -1      2058 9.94398E-05-3.01915E-05-2.96591E-05 7.98714E-06 6.42383E-19 1.10730E-19
 -1      2059 9.24843E-05-2.64949E-05-2.82834E-05 5.18794E-06-1.14190E-18-2.38499E-19
 -1      2060 9.43307E-05-2.74483E-05-2.86571E-05 6.01818E-06-1.32680E-19-7.54005E-19
 -1      2061 9.64397E-05-2.79273E-05-2.93729E-05 7.48704E-06-1.03874E-19 1.27070E-18
 -1      2062 9.07740E-05-2.54310E-05-2.80241E-05 1.32136E-06-2.83494E-18 3.70967E-19
 -1      2063 9.16814E-05-2.58428E-05-2.81893E-05 3.07995E-06-1.68687E-18-3.66342E-20
 -1      2064 9.40599E-05-2.60067E-05-2.91973E-05 4.19000E-06-1.50510E-18 9.01140E-19
 -1      2065 9.14676E-05-2.58561E-05-2.81566E-05-2.98757E-06 2.52356E-19-1.05509E-19
 -1      2066 9.10933E-05-2.55446E-05-2.80563E-05-1.05192E-06-1.28025E-18 7.40757E-20
 -1      2067 9.35300E-05-2.55230E-05-2.91960E-05-7.60181E-07-1.06937E-18 9.44776E-19
 -1      2068 9.42403E-05-2.74928E-05-2.86250E-05-5.99782E-06-6.06489E-19 1.08553E-18
 -1      2069 9.27444E-05-2.66372E-05-2.82989E-05-4.64904E-06-6.28657E-21-7.09589E-20
 -1      2070 9.50695E-05-2.66538E-05-2.93469E-05-5.28287E-06-1.13966E-19 7.64163E-19
 -1      2071 9.79068E-05-2.95360E-05-2.92985E-05-6.75407E-06 2.51197E-19 9.81777E-19
 -1      2072 9.58825E-05-2.85233E-05-2.88514E-05-6.39906E-06 2.48184E-19 1.35652E-18
 -1      2073 9.79605E-05-2.87995E-05-2.96327E-05-7.66342E-06-5.66797E-19 1.12739E-18
 -1      2074 1.01129E-04-3.11653E-05-2.99656E-05-5.45641E-06 3.80361E-19 1.80961E-19
 -1      2075 9.92596E-05-3.03579E-05-2.95382E-05-5.98841E-06-5.71714E-20 4.68197E-19
 -1      2076 1.00950E-04-3.09271E-05-2.99896E-05-7.38583E-06 1.36875E-19 6.85528E-19
 -1      2077 1.03059E-04-3.19810E-05-3.04384E-05-3.02829E-06 1.49642E-18 1.31589E-18
 -1      2078 1.01823E-04-3.15540E-05-3.01436E-05-4.04687E-06 1.18365E-18 4.78031E-19
 -1      2079 1.03025E-04-3.22801E-05-3.03023E-05-5.14097E-06 8.88227E-19 1.69778E-18
 -1      2080 1.03487E-04-3.19994E-05-3.06172E-05-4.58278E-07 4.36374E-19 8.35608E-19
 -1      2081 1.03053E-04-3.19511E-05-3.05075E-05-1.54494E-06 1.38992E-18 1.19936E-18
 -1      2082 1.03772E-04-3.26508E-05-3.04723E-05-2.10631E-06 1.66430E-18 1.48094E-18
 -1      2083 1.02652E-04-3.14480E-05-3.05020E-05 1.57863E-06 4.27642E-19 2.20215E-19
 -1      2084 1.02936E-04-3.16824E-05-3.05687E-05 7.10420E-07 2.69356E-19 8.67585E-19
 -1      2085 1.03284E-04-3.22274E-05-3.04518E-05 7.03084E-07 5.59710E-19 1.79564E-18
 -1      2086 1.01004E-04-3.05861E-05-3.01698E-05 2.76906E-06-1.07016E-18-1.46606E-19
 -1      2087 1.01777E-04-3.09843E-05-3.03609E-05 2.25825E-06-1.16541E-18 1.46629E-19
 -1      2088 1.01916E-04-3.13294E-05-3.02545E-05 2.68902E-06-6.44744E-19 9.66673E-19
 -1      2089 9.90241E-05-2.96217E-05-2.97373E-05 3.03809E-06 5.72416E-19-1.82751E-19
 -1      2090 1.00009E-04-3.00765E-05-2.99807E-05 2.93070E-06 6.72361E-19-2.05574E-19
 -1      2091 1.00079E-04-3.02292E-05-2.99407E-05 3.62348E-06 3.34876E-20 8.46808E-19
 -1      2092 9.71559E-05-2.87231E-05-2.93197E-05 2.44126E-06 4.97193E-19-4.70841E-19
 -1      2093 9.80824E-05-2.91434E-05-2.95463E-05 2.73467E-06 6.92221E-19 2.39032E-19
 -1      2094 9.81492E-05-2.91265E-05-2.95889E-05 3.50134E-06 1.49268E-19 1.75338E-18
 -1      2095 9.59464E-05-2.81543E-05-2.90386E-05 1.54569E-06 7.09375E-19-2.67772E-19
 -1      2096 9.66478E-05-2.84593E-05-2.92215E-05 2.10200E-06 2.79886E-19-1.93605E-19
 -1      2097 9.67059E-05-2.83149E-05-2.93214E-05 2.78056E-06 7.79919E-19 1.92196E-18
 -1      2098 9.57711E-05-2.77478E-05-2.91480E-05 1.93309E-06 1.87770E-19 2.26935E-18
 -1      2099 9.38100E-05-2.22553E-05-3.06548E-05 5.84010E-06 8.48285E-19 1.12966E-18
 -1      2100 9.43841E-05-2.37291E-05-3.02663E-05 5.39894E-06-2.75511E-19 8.99278E-19
 -1      2101 9.47708E-05-2.46882E-05-3.00167E-05 4.73516E-06 9.06962E-19-1.44502E-19
 -1      2102 9.52151E-05-2.58698E-05-2.97043E-05 4.11348E-06 8.05578E-19 3.26121E-19
 -1      2103 9.51543E-05-2.50383E-05-3.00664E-05 6.34204E-06-6.04717E-19 1.95478E-19
 -1      2104 9.53534E-05-2.63966E-05-2.95346E-05 3.36975E-06 2.49814E-19 1.22128E-18
 -1      2105 9.56626E-05-2.72571E-05-2.93012E-05 2.66682E-06-1.51607E-19 2.57948E-18
 -1      2106 9.60790E-05-2.75043E-05-2.93811E-05 3.18151E-06 5.06996E-19 2.36304E-18
 -1      2107 9.57723E-05-2.65060E-05-2.96890E-05 4.78008E-06 6.69778E-19 1.12574E-18
 -1      2108 9.26196E-05-1.94870E-05-3.13488E-05 6.40427E-06-1.12503E-18-1.23918E-18
 -1      2109 9.33030E-05-2.11065E-05-3.09311E-05 6.24238E-06-2.01945E-19-2.48113E-20
 -1      2110 9.41047E-05-2.28906E-05-3.05340E-05 7.54681E-06-1.56948E-18-3.50388E-19
 -1      2111 9.12402E-05-1.65478E-05-3.20386E-05 6.17258E-06-7.95159E-19-3.47603E-19
 -1      2112 9.19882E-05-1.81781E-05-3.16303E-05 6.39539E-06-1.62851E-18 9.06611E-19
 -1      2113 9.27359E-05-2.03589E-05-3.10234E-05 8.01081E-06-3.11206E-18-4.11520E-20
 -1      2114 8.99010E-05-1.39064E-05-3.26147E-05 4.93931E-06 6.10261E-20-1.88753E-18
 -1      2115 9.05779E-05-1.52724E-05-3.22831E-05 5.61098E-06-2.20437E-19-2.15625E-18
 -1      2116 9.11488E-05-1.76746E-05-3.14783E-05 7.39288E-06-9.73598E-19-8.79703E-19
 -1      2117 8.88954E-05-1.20569E-05-3.29852E-05 2.73415E-06-4.61522E-19-1.32927E-18
 -1      2118 8.93477E-05-1.29032E-05-3.27867E-05 3.80566E-06-5.34180E-19-9.53306E-19
 -1      2119 8.96388E-05-1.52918E-05-3.18334E-05 5.50278E-06-5.92508E-19-1.32874E-18
 -1      2120 8.85000E-05-1.14250E-05-3.30838E-05-1.21692E-07-9.70713E-19-1.92476E-18
 -1      2121 8.86037E-05-1.15629E-05-3.30574E-05 1.17448E-06-6.01488E-19-1.24882E-18
 -1      2122 8.85791E-05-1.37176E-05-3.20386E-05 2.47525E-06-2.33548E-18-1.54973E-18
 -1      2123 8.88520E-05-1.22075E-05-3.28872E-05-3.07748E-06-2.69414E-18-4.25066E-18
 -1      2124 8.85660E-05-1.15795E-05-3.30434E-05-1.81381E-06-1.90772E-18-2.81878E-18
 -1      2125 8.82858E-05-1.33542E-05-3.20642E-05-1.19052E-06-2.09132E-18-3.61524E-18
 -1      2126 8.98639E-05-1.42402E-05-3.24315E-05-5.49740E-06-1.21493E-18-1.71296E-18
 -1      2127 8.92553E-05-1.29713E-05-3.27418E-05-4.53180E-06-2.18594E-18-3.59500E-18
 -1      2128 8.88670E-05-1.43169E-05-3.19081E-05-4.73412E-06-2.77690E-18-4.16293E-18
 -1      2129 9.13454E-05-1.72082E-05-3.17753E-05-7.01057E-06 1.38331E-19 2.58585E-18
 -1      2130 9.05196E-05-1.54732E-05-3.21997E-05-6.48495E-06-5.98872E-19 1.33878E-18
 -1      2131 9.01733E-05-1.63999E-05-3.15927E-05-7.47335E-06-2.46611E-19 1.74560E-19
 -1      2132 9.30069E-05-2.05627E-05-3.10323E-05-7.34257E-06 4.93562E-19 3.69848E-18
 -1      2133 9.21105E-05-1.86642E-05-3.14957E-05-7.35212E-06 1.81136E-19 2.92062E-18
 -1      2134 9.19355E-05-1.92040E-05-3.11644E-05-8.95034E-06 4.46555E-19 3.58624E-18
 -1      2135 9.46581E-05-2.38441E-05-3.03327E-05-6.50910E-06 3.05971E-19-3.33503E-20
 -1      2136 9.37510E-05-2.20186E-05-3.07491E-05-7.02567E-06 1.66191E-19 2.03214E-18
 -1      2137 9.38308E-05-2.22283E-05-3.06931E-05-8.96120E-06 3.74534E-19 2.65805E-18
 -1      2138 6.01087E-05-4.23548E-05-7.95507E-06 4.26838E-05 3.62445E-18 4.21423E-18
 -1      2139 4.49605E-05-4.38316E-05-1.65453E-06 3.51839E-05 1.27182E-18 6.43258E-18
 -1      2140 1.32399E-05-3.86207E-05 9.29742E-06 6.46836E-06-3.64118E-19 8.30473E-18
 -1      2141 1.25976E-05-3.75420E-05 9.23317E-06-3.43673E-06-3.15901E-18 8.25095E-18
 -1      2142 2.71696E-05-3.73809E-05 3.44712E-06 2.75944E-05 1.47511E-18 8.59230E-18
 -1      2143 1.94111E-05-3.99279E-05 7.20162E-06 1.74394E-05-3.06626E-19 8.44661E-18
 -1      2144 9.84383E-05-4.59691E-05-2.23081E-05 4.44528E-05 4.13310E-18 2.52861E-18
 -1      2145 8.04279E-05-4.85604E-05-1.45827E-05 4.06057E-05 3.79767E-18 2.70902E-18
 -1      2146 1.29804E-04-4.39196E-05-3.63133E-05 3.99228E-05 4.49732E-18 1.53271E-18
 -1      2147 1.10425E-04-4.63373E-05-2.82095E-05 3.82619E-05 4.04543E-18 1.90328E-18
 -1      2148 1.17469E-04-5.78687E-05-2.54369E-05 3.71167E-05 2.16671E-18-5.74500E-19
 -1      2149 8.91378E-05-8.97952E-06-3.44533E-05-1.24420E-05-2.40707E-18-1.14218E-18
 -1      2150 9.10892E-05-9.63564E-06-3.50005E-05-1.40560E-05-2.62832E-18-5.30057E-19
 -1      2151 9.43324E-05-1.37175E-05-3.45783E-05-1.39788E-05-2.73562E-18-7.80064E-20
 -1      2152 8.99741E-05-1.12924E-05-3.37537E-05-1.15988E-05-2.44281E-18-1.16470E-18
 -1      2153 1.79007E-04-3.01060E-05-6.27374E-05 1.50061E-05 2.62559E-18 1.81562E-18
 -1      2154 1.66388E-04-3.10864E-05-5.75500E-05 1.87318E-05 3.26415E-18 2.66307E-18
 -1      2155 1.81132E-04-2.30534E-05-6.72711E-05 3.80491E-06 3.31486E-18-3.55013E-19
 -1      2156 1.79759E-04-2.48765E-05-6.56572E-05 1.07854E-05 2.92057E-18 5.97158E-20
 -1      2157 1.75690E-04-2.46969E-05-6.44591E-05-3.02694E-06 2.32383E-18-3.90482E-19
 -1      2158 1.76675E-04-2.20929E-05-6.61947E-05 3.57276E-06 2.70267E-18 4.52369E-20
 -1      2159 1.62793E-04-3.02975E-05-5.63645E-05-1.08978E-05-1.35949E-19-2.99003E-19
 -1      2160 1.75591E-04-2.95657E-05-6.17779E-05-5.90700E-06 7.52377E-19-4.00223E-19
 -1      2161 1.55992E-04-1.86601E-05-5.83548E-05 7.90203E-06 1.56458E-18 2.26793E-19
 -1      2162 1.40592E-04-3.95578E-05-4.27247E-05-2.58392E-05 1.50507E-19 8.65668E-19
 -1      2163 1.58670E-04-3.82120E-05-5.02517E-05-2.24759E-05-8.32210E-20-8.30092E-20
 -1      2164 1.06936E-04-4.40046E-05-2.71841E-05-3.53047E-05 3.47284E-20 7.50471E-19
 -1      2165 1.27770E-04-4.27336E-05-3.53769E-05-3.61145E-05 2.29122E-19 1.22735E-18
 -1      2166 7.68861E-05-4.76483E-05-1.28294E-05-3.84417E-05-1.03465E-18 2.71898E-19
 -1      2167 9.34604E-05-4.44854E-05-2.05086E-05-4.13743E-05-5.52689E-19-8.80914E-19
 -1      2168 3.68413E-05-4.38712E-05 1.41712E-06-2.85733E-05 2.24464E-19 1.59390E-18
 -1      2169 5.25660E-05-4.22515E-05-5.14756E-06-3.77681E-05-2.25734E-19 1.68533E-18
 -1      2170 1.65334E-05-3.88654E-05 8.15431E-06-1.44906E-05 6.37392E-20-1.34297E-18
 -1      2171 2.37485E-05-3.89771E-05 5.32601E-06-2.28791E-05 4.79421E-19 1.20363E-18
 -1      2172 1.37203E-05-3.23329E-05 7.24378E-06 8.04781E-06-6.26804E-20-2.57583E-18
 -1      2173 1.30763E-05-3.46840E-05 8.15861E-06-3.55264E-06 1.99053E-19-2.94767E-18
 -1      2174 3.21639E-05-3.99580E-05 2.21677E-06 2.81795E-05 6.86097E-20-2.49790E-18
 -1      2175 2.19679E-05-3.82535E-05 5.77501E-06 2.09424E-05 9.04419E-19-2.50383E-18
 -1      2176 5.86856E-05-4.15842E-05-8.11106E-06 3.85240E-05-9.15219E-19-3.00241E-18
 -1      2177 4.44526E-05-4.45165E-05-1.58913E-06 3.11863E-05-1.16044E-19-2.73015E-18
 -1      2178 4.56567E-05-4.03867E-05-2.89587E-06 3.66357E-05-2.54110E-20-3.21153E-18
 -1      2179 1.01602E-04-4.60919E-05-2.37461E-05 4.13038E-05-1.29173E-18-4.13987E-18
 -1      2180 8.25522E-05-4.80571E-05-1.58568E-05 3.71581E-05-1.25530E-18-4.05559E-18
 -1      2181 1.37764E-04-4.42939E-05-3.93827E-05 3.41007E-05-1.14074E-18-4.56593E-18
 -1      2182 1.17291E-04-4.60170E-05-3.11522E-05 3.33715E-05-1.47299E-18-4.29234E-18
 -1      2183 1.66846E-04-3.80457E-05-5.39329E-05 2.43693E-05-4.53812E-18-1.36711E-18
 -1      2184 1.48123E-04-3.86709E-05-4.67727E-05 2.71434E-05-2.55973E-18-2.95953E-18
 -1      2185 1.82939E-04-3.08073E-05-6.38230E-05 1.00247E-05-6.79511E-18 2.86721E-18
 -1      2186 1.72771E-04-3.21602E-05-5.92970E-05 1.70148E-05-6.02706E-18 4.40034E-19
 -1      2187 1.87765E-04-2.60958E-05-6.76889E-05-9.52416E-07-6.95245E-18 4.01135E-18
 -1      2188 1.82713E-04-2.54257E-05-6.62215E-05 5.10683E-06-7.08967E-18 2.42950E-18
 -1      2189 1.83520E-04-2.76898E-05-6.55965E-05-1.08182E-05-5.16817E-18 5.65479E-18
 -1      2190 1.89821E-04-2.77940E-05-6.78312E-05-3.51132E-06-6.24009E-18 4.66832E-18
 -1      2191 1.65531E-04-3.39476E-05-5.58905E-05-1.63654E-05 4.25740E-19 5.24525E-18
 -1      2192 1.77967E-04-3.24469E-05-6.10606E-05-1.17588E-05-1.71863E-18 4.93143E-18
 -1      2193 1.41685E-04-4.05119E-05-4.33853E-05-2.97756E-05-1.50370E-18 6.40696E-18
 -1      2194 1.60740E-04-3.97454E-05-5.08628E-05-2.75918E-05 4.05676E-19 7.17395E-18
 -1      2195 1.09009E-04-4.57902E-05-2.78113E-05-3.65335E-05-6.39637E-18 2.89685E-19
 -1      2196 1.29259E-04-4.38128E-05-3.60390E-05-3.84285E-05-3.92642E-18 3.46945E-18
 -1      2197 7.57801E-05-4.77366E-05-1.30878E-05-3.78736E-05-5.93092E-18 5.93135E-19
 -1      2198 9.34922E-05-4.46984E-05-2.09470E-05-4.23334E-05-6.70257E-18-2.98156E-19
 -1      2199 1.14765E-04-5.58183E-05-2.52761E-05-3.60877E-05-3.91964E-18-1.13862E-18
 -1      2200 4.10570E-05-4.46922E-05 6.59533E-08-3.10097E-05-6.96303E-18 2.98823E-18
 -1      2201 5.59447E-05-4.29585E-05-6.11033E-06-3.94982E-05-5.85130E-18 1.26970E-18
 -1      2202 1.94512E-05-3.96850E-05 7.19037E-06-1.65486E-05-4.10642E-18 5.69926E-18
 -1      2203 2.76937E-05-3.95823E-05 4.00374E-06-2.53569E-05-6.42813E-18 4.80183E-18
 -1      2204 4.17723E-05-3.81609E-05-1.99226E-06-3.54434E-05-3.63631E-18 3.13402E-18
 -1      2205 1.60162E-04-3.81892E-05-5.15075E-05 2.77647E-05 3.78311E-18 2.57074E-18
 -1      2206 1.42765E-04-3.90089E-05-4.43510E-05 3.19845E-05 5.25055E-18 1.74065E-18
 -1      2207 1.07067E-04-2.69946E-05-3.44001E-05-1.15381E-05-2.26243E-18 4.34427E-18
 -1      2208 1.42328E-04-5.17099E-05-3.83693E-05 2.42238E-05 2.92565E-18 4.15046E-20
 -1      2209 1.59347E-04-3.65190E-05-5.18840E-05 1.02124E-05 3.02348E-18 6.13675E-19
 -1      2210 1.04805E-04-2.53403E-05-3.41277E-05-1.22187E-05-2.49671E-18 2.69562E-18
 -1      2211 4.39772E-05-3.77235E-05-2.97277E-06 3.81635E-05 6.71274E-19 7.25505E-18
 -1      2212 1.87231E-05-2.88949E-05 3.67891E-06 1.57212E-05-1.34255E-19 9.37623E-18
 -1      2213 9.53031E-05-2.50186E-05-3.01017E-05-6.31781E-06 4.80327E-19 4.75232E-20
 -1      2214 8.41294E-05-5.20130E-05-1.38366E-05 4.49619E-05 1.33111E-18 2.52143E-18
 -1      2215 1.89069E-05-2.97714E-05 3.95361E-06-1.33146E-05-6.36863E-19 7.43822E-18
 -1      2216 7.71292E-05-5.04491E-05-1.17798E-05-4.17921E-05-4.39314E-18-3.59433E-19
 -1      2217 1.43026E-04-5.15783E-05-3.86442E-05-2.27367E-05-4.13987E-19 2.06930E-18
 -1      2218 1.58582E-04-3.89213E-05-5.04404E-05-6.21407E-06 1.74753E-18 2.31748E-18
 -1      2219 1.63900E-04-2.36511E-05-5.90346E-05 1.77216E-06-2.77361E-18 1.66527E-18
 -1      2220 1.66842E-04-1.58759E-05-6.32617E-05-7.53371E-07-7.13456E-18 2.72395E-18
 -1      2221 1.65976E-04-2.05419E-05-6.10250E-05-1.10390E-06-7.32218E-18 2.96758E-18
 -1      2222 1.62819E-04-3.51333E-05-5.36179E-05 5.43654E-06-5.09787E-18 1.14942E-18
 -1      2223 1.47803E-04-4.98577E-05-4.14778E-05 1.65057E-05-1.12475E-18-1.97232E-18
 -1      2224 8.32969E-05-5.15159E-05-1.37580E-05 4.14370E-05-1.50772E-19-3.61355E-18
 -1      2225 2.17293E-05-2.84805E-05 2.45702E-06 1.72563E-05-5.43160E-19-2.65968E-18
 -1      2226 1.74383E-05-2.69518E-05 3.55167E-06-1.12375E-05-1.26208E-18-1.99857E-18
 -1      2227 3.60450E-05-3.66775E-05-1.90693E-07-3.26650E-05-1.20723E-18 1.28770E-18
 -1      2228 7.17588E-05-4.76622E-05-1.04258E-05-4.00711E-05-1.09352E-18 1.26504E-18
 -1      2229 9.04618E-05-5.42068E-05-1.58530E-05-4.03040E-05-1.93441E-18 3.08135E-19
 -1      2230 6.82324E-05-4.55245E-05-9.07041E-06-4.23217E-05-1.42005E-18 2.16173E-18
 -1      2231 1.12917E-04-5.55848E-05-2.43095E-05-3.35521E-05-1.05032E-18 9.71547E-19
 -1      2232 1.55192E-04-3.43958E-05-5.04333E-05-1.20544E-06-3.83918E-19-1.00119E-18
 -1      2233 1.62954E-04-2.06669E-05-6.01870E-05 2.31147E-06 3.30216E-18-2.94344E-20
 -1      2234 1.59239E-04-1.35238E-05-6.21706E-05 4.50712E-06 2.81469E-18-1.49290E-19
 -1      2235 1.40201E-04-4.97769E-05-3.75651E-05-1.98907E-05-5.05996E-19 1.45605E-18
 -1      2236 1.22576E-04-5.75755E-05-2.77297E-05 3.11165E-05-3.23567E-19-3.12195E-18
 -1      2237 7.00205E-05-1.92457E-05-2.17482E-05 1.91054E-06 1.64218E-18-3.97517E-19
 -1      2238 7.05112E-05-1.87777E-05-2.21137E-05 3.34517E-06 1.87087E-18-2.04883E-19
 -1      2239 8.41561E-05-1.07191E-05-3.15132E-05-6.31153E-06-1.53843E-18-2.21711E-18
 -1      2240 8.55103E-05-1.11049E-05-3.19232E-05-7.39195E-06-1.81754E-18-1.98158E-18
 -1      2241 8.70182E-05-1.17738E-05-3.22951E-05-8.34105E-06-1.97140E-18-1.81072E-18
 -1      2242 8.85840E-05-1.23849E-05-3.27023E-05-9.46911E-06-2.23974E-18-1.53931E-18
 -1      2243 8.75654E-05-1.35324E-05-3.17263E-05-7.69582E-06-1.77319E-18-1.65665E-18
 -1      2244 7.93615E-05-9.70793E-06-2.98841E-05-2.37373E-06-6.62623E-19-2.68554E-18
 -1      2245 8.04600E-05-9.81543E-06-3.03056E-05-3.38611E-06-8.84359E-19-2.64600E-18
 -1      2246 7.72875E-05-9.61885E-06-2.90325E-05-4.46415E-07-1.64030E-19-2.85056E-18
 -1      2247 7.82971E-05-9.61755E-06-2.94639E-05-1.44626E-06-4.60990E-19-2.73153E-18
 -1      2248 7.99841E-05-1.14533E-05-2.93735E-05-2.22037E-06-5.08734E-19-2.51931E-18
 -1      2249 7.54273E-05-9.78684E-06-2.81644E-05 1.44030E-06 3.67124E-19-3.02867E-18
 -1      2250 7.63366E-05-9.67505E-06-2.86010E-05 4.56835E-07 7.39675E-20-2.94288E-18
 -1      2251 7.79647E-05-1.14159E-05-2.85233E-05-4.40016E-07-3.87444E-20-2.70850E-18
 -1      2252 7.37371E-05-1.02608E-05-2.72418E-05 3.35283E-06 9.30826E-19-2.96507E-18
 -1      2253 7.45618E-05-1.00054E-05-2.77021E-05 2.34609E-06 6.03043E-19-2.97798E-18
 -1      2254 7.61425E-05-1.16785E-05-2.76281E-05 1.31263E-06 5.26402E-19-2.78436E-18
 -1      2255 7.23217E-05-1.11541E-05-2.62638E-05 5.21891E-06 1.47156E-18-2.73756E-18
 -1      2256 7.30011E-05-1.06843E-05-2.67470E-05 4.22024E-06 1.12303E-18-2.90016E-18
 -1      2257 7.45246E-05-1.22975E-05-2.66654E-05 3.01500E-06 1.04625E-18-2.69293E-18
 -1      2258 7.13136E-05-1.26805E-05-2.52025E-05 6.88159E-06 1.98931E-18-2.19682E-18
 -1      2259 7.17686E-05-1.18621E-05-2.57171E-05 5.96709E-06 1.64586E-18-2.48063E-18
 -1      2260 7.31720E-05-1.33780E-05-2.56129E-05 4.53279E-06 1.51659E-18-2.37407E-18
 -1      2261 6.97760E-05-1.99752E-05-2.13285E-05-6.77535E-08 1.27362E-18-5.96063E-19
 -1      2262 6.99552E-05-1.97123E-05-2.14771E-05 7.27626E-07 1.44212E-18-3.56465E-19
 -1      2263 7.14083E-05-1.91995E-05-2.23842E-05 1.72524E-06 1.65711E-18-9.79511E-19
 -1      2264 1.03138E-04-2.71831E-05-3.25068E-05-8.07277E-06-2.18920E-18 1.71956E-18
 -1      2265 1.02199E-04-2.79029E-05-3.18607E-05-6.11042E-06-1.90179E-18 1.55089E-18
 -1      2266 1.47357E-04-5.20455E-05-4.11217E-05 1.38077E-05 2.16909E-18-1.71524E-20
 -1      2267 1.36894E-04-5.75410E-05-3.41949E-05 2.06212E-05 1.23476E-18-1.06959E-18
 -1      2268 1.01870E-04-2.85595E-05-3.13596E-05-4.77845E-06-1.44103E-18 1.49618E-18
 -1      2269 1.01105E-04-2.88571E-05-3.09651E-05-3.71420E-06-1.29561E-18 1.35724E-18
 -1      2270 1.01037E-04-2.70520E-05-3.17139E-05-6.42250E-06-1.85162E-18 8.10575E-19
 -1      2271 1.00664E-04-2.91216E-05-3.06215E-05-2.87747E-06-1.16844E-18 1.46186E-18
 -1      2272 1.00106E-04-2.92470E-05-3.03671E-05-2.28708E-06-9.71636E-19 1.26400E-18
 -1      2273 1.00268E-04-2.82949E-05-3.08580E-05-4.07244E-06-1.23442E-18 7.39336E-19
 -1      2274 9.97011E-05-2.93493E-05-3.01274E-05-1.79515E-06-8.48343E-19 1.28617E-18
 -1      2275 9.92996E-05-2.93979E-05-2.99563E-05-1.47740E-06-7.99134E-19 1.14054E-18
 -1      2276 9.94624E-05-2.88824E-05-3.02610E-05-2.62507E-06-1.02023E-18 8.56158E-19
 -1      2277 9.89536E-05-2.94244E-05-2.97849E-05-1.20651E-06-7.65662E-19 9.95836E-19
 -1      2278 9.86538E-05-2.94338E-05-2.96644E-05-1.05017E-06-6.86452E-19 9.81138E-19
 -1      2279 9.87434E-05-2.91473E-05-2.98370E-05-1.78342E-06-9.71313E-19 6.60266E-19
 -1      2280 9.83590E-05-2.94212E-05-2.95375E-05-9.18175E-07-7.43336E-19 9.47951E-19
 -1      2281 9.81200E-05-2.94068E-05-2.94474E-05-8.57639E-07-6.53519E-19 8.58851E-19
 -1      2282 9.81255E-05-2.92448E-05-2.95277E-05-1.33019E-06-8.05272E-19 4.06049E-19
 -1      2283 9.78623E-05-2.93716E-05-2.93496E-05-8.10387E-07-5.64601E-19 7.07682E-19
 -1      2284 9.76561E-05-2.93402E-05-2.92774E-05-8.04874E-07-4.70418E-19 6.28006E-19
 -1      2285 9.75884E-05-2.92472E-05-2.92942E-05-1.12017E-06-8.00309E-19 3.75640E-19
 -1      2286 9.74226E-05-2.92904E-05-2.91981E-05-8.06145E-07-6.96093E-19 4.44314E-19
 -1      2287 9.72316E-05-2.92458E-05-2.91361E-05-8.29161E-07-1.05534E-18 4.02930E-19
 -1      2288 9.71071E-05-2.91907E-05-2.91105E-05-1.05637E-06-7.68400E-19 1.25362E-19
 -1      2289 9.70131E-05-2.91859E-05-2.90687E-05-8.54244E-07-8.69924E-19 5.54058E-19
 -1      2290 9.68273E-05-2.91307E-05-2.90122E-05-8.87962E-07-7.96159E-19 6.87780E-19
 -1      2291 9.66611E-05-2.90949E-05-2.89592E-05-1.07301E-06-9.42722E-19-9.94140E-20
 -1      2292 9.66178E-05-2.90633E-05-2.89524E-05-9.19633E-07-8.17291E-19 8.06860E-19
 -1      2293 9.64326E-05-2.89997E-05-2.88990E-05-9.51648E-07-3.07686E-19 4.34567E-19
 -1      2294 9.62362E-05-2.89714E-05-2.88293E-05-1.12471E-06-7.80237E-19 1.76145E-19
 -1      2295 9.62290E-05-2.89267E-05-2.88446E-05-9.77559E-07 8.32893E-21-1.59737E-20
 -1      2296 9.60437E-05-2.88567E-05-2.87933E-05-9.98892E-07 4.41861E-20 1.37842E-19
 -1      2297 9.58241E-05-2.88277E-05-2.87139E-05-1.17934E-06-4.32197E-19 7.43385E-20
 -1      2298 9.58453E-05-2.87795E-05-2.87432E-05-1.00983E-06-2.24585E-19-1.69509E-19
 -1      2299 9.56623E-05-2.87051E-05-2.86943E-05-1.01363E-06-5.88174E-19-6.29341E-19
 -1      2300 9.54216E-05-2.86690E-05-2.86093E-05-1.21348E-06-3.67767E-19-6.17514E-19
 -1      2301 9.54702E-05-2.86252E-05-2.86485E-05-1.00231E-06-8.39919E-19-4.23112E-19
 -1      2302 9.52943E-05-2.85486E-05-2.86030E-05-9.83046E-07-9.75409E-19-6.45921E-19
 -1      2303 9.50295E-05-2.84993E-05-2.85141E-05-1.20921E-06-6.80146E-19-8.34713E-19
 -1      2304 9.51114E-05-2.84674E-05-2.85621E-05-9.43368E-07-1.06333E-18-2.94988E-19
 -1      2305 9.49492E-05-2.83912E-05-2.85217E-05-8.96288E-07-1.07893E-18 6.69521E-20
 -1      2306 9.46519E-05-2.83221E-05-2.84285E-05-1.15199E-06-7.97382E-19 1.55872E-19
 -1      2307 9.47798E-05-2.83104E-05-2.84869E-05-8.22859E-07-7.71572E-19 3.96115E-19
 -1      2308 9.46397E-05-2.82376E-05-2.84539E-05-7.43817E-07-4.89169E-19 4.88338E-19
 -1      2309 9.42962E-05-2.81410E-05-2.83540E-05-1.02936E-06-8.69939E-19 2.45932E-19
 -1      2310 9.44899E-05-2.81597E-05-2.84269E-05-6.31801E-07-3.85094E-19 2.33105E-19
 -1      2311 9.43823E-05-2.80942E-05-2.84039E-05-5.17303E-07-2.99189E-19 4.09382E-19
 -1      2312 9.39728E-05-2.79607E-05-2.82932E-05-8.30201E-07-6.03836E-19 2.53440E-19
 -1      2313 9.42598E-05-2.80224E-05-2.83867E-05-3.62569E-07-6.93398E-19 2.22645E-19
 -1      2314 9.41964E-05-2.79691E-05-2.83767E-05-2.10065E-07-7.81807E-19 9.79854E-20
 -1      2315 9.36954E-05-2.77874E-05-2.82494E-05-5.44629E-07-6.14321E-19 9.82934E-20
 -1      2316 9.41114E-05-2.79079E-05-2.83716E-05-9.64725E-09-3.01621E-19-4.13986E-20
 -1      2317 9.41058E-05-2.78724E-05-2.83779E-05 1.82077E-07 9.33726E-20 2.38117E-19
 -1      2318 9.34821E-05-2.76297E-05-2.82265E-05-1.64541E-07-5.71909E-19 3.98506E-19
 -1      2319 9.40705E-05-2.78272E-05-2.83880E-05 4.29256E-07 2.49798E-19 2.75425E-19
 -1      2320 9.41368E-05-2.78151E-05-2.84143E-05 6.59943E-07 7.42997E-19 3.52748E-19
 -1      2321 9.33552E-05-2.74985E-05-2.82295E-05 3.15236E-07 3.13947E-19-2.35687E-20
 -1      2322 9.41646E-05-2.77903E-05-2.84433E-05 9.52420E-07 4.94323E-19 1.26039E-19
 -1      2323 9.43162E-05-2.78044E-05-2.84943E-05 1.22125E-06-6.83880E-20 1.99933E-19
 -1      2324 9.33407E-05-2.74048E-05-2.82646E-05 8.95394E-07 3.19387E-19-4.39594E-19
 -1      2325 9.44175E-05-2.77994E-05-2.85471E-05 1.55564E-06-1.30053E-19 2.20809E-19
 -1      2326 9.46638E-05-2.78349E-05-2.86284E-05 1.86448E-06 5.40379E-19 2.72580E-19
 -1      2327 9.34635E-05-2.73528E-05-2.83405E-05 1.57131E-06 4.28183E-20 5.94621E-20
 -1      2328 9.48387E-05-2.78377E-05-2.87115E-05 2.24069E-06 3.77881E-19 9.18025E-20
 -1      2329 9.51833E-05-2.78788E-05-2.88298E-05 2.60096E-06-2.53855E-19 7.73111E-20
 -1      2330 9.37357E-05-2.73262E-05-2.84688E-05 2.33699E-06 2.69438E-19-2.68402E-19
 -1      2331 9.54147E-05-2.78637E-05-2.89493E-05 3.03669E-06-4.38630E-19-5.83992E-19
 -1      2332 9.58615E-05-2.78934E-05-2.91102E-05 3.47730E-06-2.11143E-19-3.14277E-21
 -1      2333 9.41401E-05-2.72764E-05-2.86630E-05 3.20279E-06-4.25684E-19-9.54017E-19
 -1      2334 9.61293E-05-2.78425E-05-2.92668E-05 4.02562E-06-3.09055E-19-1.54304E-19
 -1      2335 9.67019E-05-2.78806E-05-2.94715E-05 4.58822E-06-2.50095E-19-4.82992E-20
 -1      2336 9.46349E-05-2.71463E-05-2.89301E-05 4.23227E-06-3.68973E-19-1.01724E-18
 -1      2337 9.70456E-05-2.78494E-05-2.96563E-05 5.31226E-06 1.39229E-19-3.00617E-19
 -1      2338 9.78062E-05-2.79963E-05-2.98965E-05 5.99742E-06-2.66926E-19-3.57546E-19
 -1      2339 9.52319E-05-2.69809E-05-2.92597E-05 5.55709E-06 1.01476E-19-9.73377E-19
 -1      2340 9.83649E-05-2.81459E-05-3.00876E-05 6.86464E-06-1.55899E-19-2.69835E-19
 -1      2341 9.93871E-05-2.85527E-05-3.03457E-05 7.55480E-06 2.85493E-19-9.75047E-20
 -1      2342 9.61184E-05-2.70551E-05-2.96166E-05 7.24284E-06-1.19270E-19-4.61641E-19
 -1      2343 1.00314E-04-2.90605E-05-3.05194E-05 8.36361E-06 8.53093E-19 7.05013E-19
 -1      2344 1.01632E-04-2.98396E-05-3.07737E-05 8.81534E-06 9.49015E-19 8.65608E-19
 -1      2345 9.75993E-05-2.77755E-05-2.99477E-05 9.05034E-06 8.93413E-19 2.02271E-19
 -1      2346 1.03011E-04-3.08017E-05-3.09171E-05 9.26040E-06 6.68089E-19 9.66829E-19
 -1      2347 1.04603E-04-3.19911E-05-3.11472E-05 9.17734E-06 1.29708E-18 1.69678E-18
 -1      2348 9.99094E-05-2.94723E-05-3.02126E-05 1.04354E-05 8.89333E-19 9.87551E-19
 -1      2349 1.06509E-04-3.34498E-05-3.12695E-05 8.93090E-06 9.47179E-19 1.62414E-18
 -1      2350 1.08285E-04-3.50067E-05-3.14631E-05 8.01305E-06 1.17992E-18 1.81191E-18
 -1      2351 1.03203E-04-3.23245E-05-3.04173E-05 1.07634E-05 1.13577E-18 1.07715E-18
 -1      2352 1.10794E-04-3.69220E-05-3.16050E-05 6.72818E-06 1.33274E-18 1.36514E-18
 -1      2353 1.12552E-04-3.86214E-05-3.17749E-05 4.74183E-06 5.41472E-19 1.69992E-18
 -1      2354 1.07630E-04-3.63190E-05-3.06237E-05 9.39155E-06 1.03025E-18 8.33146E-19
 -1      2355 1.15555E-04-4.06639E-05-3.20434E-05 2.08772E-06 3.39779E-19 1.85413E-18
 -1      2356 1.16859E-04-4.18616E-05-3.22531E-05-9.49895E-07-2.19534E-19 2.18322E-18
 -1      2357 1.13201E-04-4.10230E-05-3.10064E-05 5.63030E-06 3.88278E-19 8.87169E-19
 -1      2358 1.19689E-04-4.30804E-05-3.28286E-05-4.95102E-06-1.85001E-19 3.30384E-18
 -1      2359 1.19850E-04-4.26054E-05-3.31879E-05-8.37959E-06 3.55501E-19 3.36340E-18
 -1      2360 1.19196E-04-4.48881E-05-3.19042E-05-9.78743E-07 3.00180E-19 1.41303E-18
 -1      2361 1.21067E-04-4.14543E-05-3.42394E-05-1.25197E-05-6.25332E-19 2.71279E-18
 -1      2362 1.19623E-04-3.83486E-05-3.48237E-05-1.46169E-05-1.77735E-18 2.58613E-18
 -1      2363 1.23447E-04-4.47617E-05-3.37524E-05-9.65431E-06-8.19617E-19 2.62596E-18
 -1      2364 1.18183E-04-3.42203E-05-3.62723E-05-1.61421E-05-2.73216E-18 2.11030E-18
 -1      2365 1.15610E-04-2.93254E-05-3.69594E-05-1.48399E-05-3.93968E-18 1.38009E-18
 -1      2366 1.23364E-04-3.79712E-05-3.66328E-05-1.64749E-05-2.71019E-18 1.00310E-18
 -1      2367 1.13013E-04-2.46623E-05-3.81906E-05-1.11084E-05-4.20822E-18 1.11598E-18
 -1      2368 1.11120E-04-2.15518E-05-3.85786E-05-6.22904E-06-3.23222E-18 3.14759E-19
 -1      2369 1.19163E-04-2.64183E-05-3.99166E-05-1.45622E-05-3.91896E-18 1.10220E-18
 -1      2370 1.10852E-04-2.07728E-05-3.87375E-05 1.50632E-06-2.83618E-18-1.00281E-18
 -1      2371 1.11765E-04-2.26539E-05-3.84632E-05 7.01557E-06-1.77475E-18-2.89979E-18
 -1      2372 1.15207E-04-1.87322E-05-4.15467E-05-2.41724E-06-4.02690E-18-8.25930E-19
 -1      2373 1.14013E-04-2.66484E-05-3.74352E-05 1.22065E-05 6.88532E-19-4.53619E-18
 -1      2374 1.16511E-04-3.14438E-05-3.67549E-05 1.46345E-05 2.31020E-18-3.43203E-18
 -1      2375 1.17595E-04-2.32441E-05-4.06089E-05 1.08501E-05-1.46129E-18-2.11198E-18
 -1      2376 1.18478E-04-3.61895E-05-3.52648E-05 1.43748E-05 4.21247E-18-3.32721E-18
 -1      2377 1.20271E-04-3.99870E-05-3.45822E-05 1.29639E-05 2.69334E-18-1.62214E-18
 -1      2378 1.22348E-04-3.50111E-05-3.75265E-05 1.56111E-05 2.76413E-18-3.87282E-18
 -1      2379 1.19719E-04-4.20169E-05-3.33635E-05 9.16492E-06-3.06510E-19-1.34662E-18
 -1      2380 1.19850E-04-4.31524E-05-3.28971E-05 5.79984E-06-4.14087E-19-1.79589E-18
 -1      2381 1.23797E-04-4.36772E-05-3.43397E-05 1.05600E-05 1.74348E-18-3.26728E-18
 -1      2382 1.17273E-04-4.24253E-05-3.21827E-05 1.49514E-06 1.22661E-19-2.29212E-18
 -1      2383 1.16062E-04-4.15212E-05-3.19025E-05-1.84160E-06 2.21296E-19-2.40744E-18
 -1      2384 1.20450E-04-4.55708E-05-3.21380E-05 1.77737E-06-3.57460E-19-3.24449E-18
 -1      2385 1.13005E-04-3.95791E-05-3.15613E-05-4.96892E-06 5.22057E-19-1.62303E-18
 -1      2386 1.11171E-04-3.78830E-05-3.13537E-05-7.34274E-06 7.96863E-19-2.17550E-18
 -1      2387 1.14616E-04-4.24386E-05-3.10066E-05-5.69983E-06 7.10919E-19-2.47959E-18
 -1      2388 1.08531E-04-3.58749E-05-3.11986E-05-9.03621E-06 6.24574E-19-2.05529E-18
 -1      2389 1.06591E-04-3.41694E-05-3.09920E-05-1.02833E-05 2.57816E-20-9.86464E-19
 -1      2390 1.08826E-04-3.77305E-05-3.05373E-05-1.03386E-05 3.13844E-19-2.67584E-18
 -1      2391 1.04582E-04-3.25355E-05-3.09076E-05-1.08189E-05 1.88773E-19-9.79170E-19
 -1      2392 1.02775E-04-3.10855E-05-3.06885E-05-1.10958E-05-1.07508E-18 1.91874E-19
 -1      2393 1.04153E-04-3.34010E-05-3.03703E-05-1.23704E-05 1.81052E-19-1.91780E-18
 -1      2394 1.01274E-04-2.98272E-05-3.06298E-05-1.07906E-05-2.56564E-18 1.63479E-18
 -1      2395 9.96996E-05-2.86518E-05-3.04224E-05-1.02879E-05-1.18878E-18 2.06151E-18
 -1      2396 1.00650E-04-2.99777E-05-3.03155E-05-1.24456E-05-4.65021E-19-3.29674E-19
 -1      2397 7.02190E-05-2.07900E-05-2.11767E-05-1.90181E-06 7.55613E-19-9.87339E-19
 -1      2398 6.99638E-05-2.06064E-05-2.11338E-05-1.65354E-06 9.02007E-19-7.66924E-19
 -1      2399 7.07816E-05-2.11105E-05-2.12825E-05-2.26233E-06 5.79962E-19-1.17264E-18
 -1      2400 7.04209E-05-2.09361E-05-2.11975E-05-2.13551E-06 6.70847E-19-9.48243E-19
 -1      2401 7.19206E-05-2.12246E-05-2.17366E-05-2.27517E-06 8.38295E-19-1.15063E-18
 -1      2402 7.14716E-05-2.14093E-05-2.14515E-05-2.42947E-06 6.01757E-19-1.27161E-18
 -1      2403 7.10510E-05-2.12426E-05-2.13416E-05-2.37709E-06 5.92191E-19-1.21512E-18
 -1      2404 7.24144E-05-2.15710E-05-2.17971E-05-2.67303E-06 6.81088E-19-1.25636E-18
 -1      2405 7.22352E-05-2.16912E-05-2.16588E-05-2.47822E-06 6.54850E-19-1.28136E-18
 -1      2406 7.17845E-05-2.15326E-05-2.15349E-05-2.47022E-06 6.31945E-19-1.10291E-18
 -1      2407 7.30104E-05-2.18690E-05-2.19225E-05-2.86077E-06 5.87025E-19-1.21896E-18
 -1      2408 7.30361E-05-2.19576E-05-2.18884E-05-2.45943E-06 4.04677E-19-1.38420E-18
 -1      2409 7.25740E-05-2.18074E-05-2.17574E-05-2.47553E-06 6.21648E-19-1.22764E-18
 -1      2410 7.36698E-05-2.21342E-05-2.20898E-05-2.91926E-06 6.38463E-19-1.17514E-18
 -1      2411 7.38524E-05-2.22097E-05-2.21303E-05-2.40871E-06 3.84446E-19-1.34662E-18
 -1      2412 7.33890E-05-2.20678E-05-2.19962E-05-2.43465E-06 3.99930E-19-1.35604E-18
 -1      2413 7.43650E-05-2.23745E-05-2.22837E-05-2.90453E-06 4.27543E-19-1.02996E-18
 -1      2414 7.46723E-05-2.24492E-05-2.23790E-05-2.35172E-06 3.22829E-19-1.43540E-18
 -1      2415 7.42123E-05-2.23146E-05-2.22438E-05-2.37718E-06 3.10501E-19-1.40812E-18
 -1      2416 7.50783E-05-2.25948E-05-2.24943E-05-2.85640E-06 4.94975E-19-1.18152E-18
 -1      2417 7.54925E-05-2.26782E-05-2.26321E-05-2.30759E-06 4.12719E-19-1.42088E-18
 -1      2418 7.50359E-05-2.25496E-05-2.24963E-05-2.32475E-06 4.10370E-19-1.39547E-18
 -1      2419 7.58002E-05-2.27991E-05-2.27158E-05-2.80386E-06 3.03798E-19-1.26225E-18
 -1      2420 7.63159E-05-2.28997E-05-2.28895E-05-2.29118E-06 3.16960E-19-1.31377E-18
 -1      2421 7.58595E-05-2.27751E-05-2.27525E-05-2.29384E-06 4.04994E-19-1.32195E-18
 -1      2422 7.65275E-05-2.29906E-05-2.29454E-05-2.76876E-06 2.67152E-19-1.29133E-18
 -1      2423 7.71500E-05-2.31171E-05-2.31532E-05-2.31470E-06 6.71337E-20-1.04305E-18
 -1      2424 7.66880E-05-2.29944E-05-2.30133E-05-2.29765E-06 2.64042E-19-1.05809E-18
 -1      2425 7.72620E-05-2.31724E-05-2.31823E-05-2.76825E-06 1.90936E-19-9.75709E-19
 -1      2426 7.80068E-05-2.33347E-05-2.34262E-05-2.38870E-06 2.54914E-19-1.12597E-18
 -1      2427 7.75310E-05-2.32110E-05-2.32814E-05-2.34734E-06 1.22870E-20-1.02429E-18
 -1      2428 7.80092E-05-2.33479E-05-2.34276E-05-2.81650E-06 1.75181E-19-6.19475E-19
 -1      2429 7.89013E-05-2.35577E-05-2.37129E-05-2.52251E-06 4.55044E-19-1.17243E-18
 -1      2430 7.84018E-05-2.34296E-05-2.35605E-05-2.45274E-06 5.26764E-19-1.05394E-18
 -1      2431 7.87781E-05-2.35207E-05-2.36835E-05-2.92575E-06 3.46894E-19-6.77873E-19
 -1      2432 7.98516E-05-2.37925E-05-2.40183E-05-2.72402E-06 2.08121E-19-1.24570E-18
 -1      2433 7.93170E-05-2.36560E-05-2.38551E-05-2.62245E-06 3.00026E-19-1.10719E-18
 -1      2434 7.95807E-05-2.36956E-05-2.39530E-05-3.10666E-06 3.81194E-19-6.64764E-19
 -1      2435 8.08783E-05-2.40475E-05-2.43478E-05-2.99870E-06-2.78087E-19-1.05727E-18
 -1      2436 8.02958E-05-2.38975E-05-2.41706E-05-2.86322E-06-5.72723E-20-1.03344E-18
 -1      2437 8.04316E-05-2.38790E-05-2.42398E-05-3.36788E-06-1.05440E-19-5.37968E-19
 -1      2438 8.20035E-05-2.43333E-05-2.47064E-05-3.34774E-06-4.36546E-19-1.14805E-18
 -1      2439 8.13601E-05-2.41635E-05-2.45121E-05-3.17849E-06-1.42092E-19-9.31166E-19
 -1      2440 8.13481E-05-2.40797E-05-2.45472E-05-3.71469E-06-2.81425E-19-4.19218E-19
 -1      2441 8.32495E-05-2.46624E-05-2.50985E-05-3.76524E-06-1.01648E-18-1.25057E-18
 -1      2442 8.25328E-05-2.44660E-05-2.48844E-05-3.56602E-06-7.04393E-19-1.31712E-18
 -1      2443 8.23494E-05-2.43097E-05-2.48784E-05-4.14657E-06-4.18681E-19-6.32404E-19
 -1      2444 8.46365E-05-2.50498E-05-2.55262E-05-4.23492E-06-1.83128E-19-1.67215E-18
 -1      2445 8.38361E-05-2.48189E-05-2.52910E-05-4.01486E-06-6.46165E-19-1.70040E-18
 -1      2446 8.34562E-05-2.45848E-05-2.52352E-05-4.65390E-06-6.16464E-19-1.36519E-18
 -1      2447 8.61806E-05-2.55129E-05-2.59893E-05-4.72653E-06-1.79336E-19-1.65445E-18
 -1      2448 8.52898E-05-2.52387E-05-2.57332E-05-4.50208E-06-2.86549E-19-1.71149E-18
 -1      2449 8.46886E-05-2.49245E-05-2.56177E-05-5.21437E-06-2.79376E-19-2.20603E-18
 -1      2450 8.78939E-05-2.60743E-05-2.64840E-05-5.19172E-06-9.28413E-19-1.29721E-18
 -1      2451 8.69100E-05-2.57455E-05-2.62093E-05-4.98966E-06-4.74062E-19-1.30409E-18
 -1      2452 8.60660E-05-2.53533E-05-2.60239E-05-5.79051E-06-5.50528E-19-1.44238E-18
 -1      2453 8.97859E-05-2.67657E-05-2.70062E-05-5.55764E-06-6.26024E-19-5.66156E-19
 -1      2454 8.87138E-05-2.63674E-05-2.67160E-05-5.41792E-06-8.53487E-19-9.20577E-19
 -1      2455 8.76129E-05-2.59082E-05-2.64512E-05-6.32647E-06-9.15650E-19-1.02717E-18
 -1      2456 9.18584E-05-2.76126E-05-2.75573E-05-5.70447E-06-6.93996E-19-4.20152E-19
 -1      2457 9.07242E-05-2.71447E-05-2.72550E-05-5.68610E-06-4.93739E-19-8.12119E-19
 -1      2458 8.93735E-05-2.66457E-05-2.69043E-05-6.73452E-06-4.70911E-19-1.29896E-18
 -1      2459 9.40379E-05-2.85269E-05-2.81252E-05-5.45309E-06 4.38075E-20 1.51209E-19
 -1      2460 9.29175E-05-2.80742E-05-2.78255E-05-5.62389E-06-2.22293E-19-2.89748E-19
 -1      2461 9.13949E-05-2.76037E-05-2.73994E-05-6.84618E-06-4.43693E-19-1.23742E-18
 -1      2462 9.60276E-05-2.92370E-05-2.86680E-05-4.86474E-06 4.06766E-19 4.49379E-19
 -1      2463 9.50343E-05-2.89049E-05-2.83838E-05-5.14495E-06 3.97290E-19 2.57425E-19
 -1      2464 9.35072E-05-2.85601E-05-2.79150E-05-6.43186E-06-6.65715E-21-9.72510E-19
 -1      2465 9.77854E-05-2.98350E-05-2.91565E-05-4.22147E-06 5.76070E-19 2.06632E-19
 -1      2466 9.68816E-05-2.95059E-05-2.89081E-05-4.53070E-06 2.67934E-19 5.30115E-19
 -1      2467 9.53518E-05-2.92266E-05-2.83954E-05-5.69851E-06 5.23731E-19-1.91731E-19
 -1      2468 9.95739E-05-3.07309E-05-2.95412E-05-3.37740E-06 4.55199E-19 9.92697E-19
 -1      2469 9.87361E-05-3.02566E-05-2.93557E-05-3.85987E-06 7.01933E-19 5.03348E-19
 -1      2470 9.71594E-05-2.99748E-05-2.88259E-05-5.01755E-06 4.39398E-19 4.11011E-19
 -1      2471 1.01358E-04-3.19402E-05-2.97991E-05-1.83148E-06-4.56954E-19 2.37407E-19
 -1      2472 1.00680E-04-3.13869E-05-2.96917E-05-2.69471E-06 3.97047E-19 8.65788E-19
 -1      2473 9.92660E-05-3.12235E-05-2.91657E-05-3.98305E-06 3.41471E-19 5.43617E-19
 -1      2474 1.02785E-04-3.30798E-05-2.99345E-05 6.81782E-07-7.97597E-19-7.05156E-19
 -1      2475 1.02452E-04-3.26588E-05-2.99104E-05-6.16359E-07-1.11678E-18 1.57576E-19
 -1      2476 1.01547E-04-3.28768E-05-2.94288E-05-2.00303E-06-6.18101E-19 7.16701E-19
 -1      2477 1.03460E-04-3.36266E-05-2.99868E-05 3.97306E-06 2.53035E-19-1.83470E-18
 -1      2478 1.03658E-04-3.36099E-05-3.00354E-05 2.40290E-06-3.77754E-19-1.16971E-18
 -1      2479 1.03592E-04-3.43641E-05-2.96676E-05 1.08689E-06-3.14085E-19 3.52281E-19
 -1      2480 1.02970E-04-3.29426E-05-3.00373E-05 7.29868E-06 5.84579E-19-3.10854E-19
 -1      2481 1.03836E-04-3.36316E-05-3.01215E-05 5.90154E-06 4.56741E-19-1.55317E-18
 -1      2482 1.04902E-04-3.49492E-05-2.99744E-05 4.96637E-06 3.45662E-20 3.76993E-19
 -1      2483 1.01086E-04-3.05762E-05-3.01901E-05 9.22102E-06 1.84372E-19 1.26741E-18
 -1      2484 1.02537E-04-3.20638E-05-3.02561E-05 8.71894E-06 4.72168E-19 5.36043E-19
 -1      2485 1.04836E-04-3.37185E-05-3.04601E-05 8.65175E-06-5.07492E-20 1.39580E-18
 -1      2486 9.83688E-05-2.71535E-05-3.04701E-05 8.07483E-06-7.34464E-19 1.61931E-18
 -1      2487 9.99092E-05-2.89000E-05-3.04929E-05 9.09165E-06 2.98857E-19 1.81482E-18
 -1      2488 1.03063E-04-3.03067E-05-3.11761E-05 1.02545E-05-2.37804E-19 1.72890E-18
 -1      2489 9.64524E-05-2.46191E-05-3.07625E-05 3.52165E-06-1.55680E-18 1.51637E-18
 -1      2490 9.72533E-05-2.56044E-05-3.07505E-05 5.90860E-06-1.20286E-18 1.52641E-18
 -1      2491 1.00485E-04-2.60300E-05-3.19410E-05 7.91099E-06-7.76729E-19 1.80603E-18
 -1      2492 9.65739E-05-2.45920E-05-3.09075E-05-2.48658E-06-6.78420E-20 8.95780E-19
 -1      2493 9.63186E-05-2.42940E-05-3.08840E-05 1.97826E-07-1.23378E-18 1.56452E-18
 -1      2494 9.91598E-05-2.37023E-05-3.24878E-05 2.01373E-06-9.50874E-19 1.31934E-18
 -1      2495 9.87683E-05-2.69518E-05-3.08330E-05-7.35917E-06-4.60627E-19 4.19420E-19
 -1      2496 9.75332E-05-2.55894E-05-3.07940E-05-5.46182E-06 4.52799E-19 8.63910E-19
 -1      2497 9.99670E-05-2.44591E-05-3.24643E-05-4.74798E-06 3.36299E-20 7.45535E-19
 -1      2498 1.01876E-04-3.03395E-05-3.07104E-05-9.19466E-06 1.93432E-19-3.41841E-19
 -1      2499 1.00265E-04-2.86672E-05-3.06280E-05-8.73740E-06-2.50857E-19 2.38374E-19
 -1      2500 1.02621E-04-2.79561E-05-3.20095E-05-9.31979E-06-2.44349E-20 9.75941E-20
 -1      2501 1.04389E-04-3.30683E-05-3.06043E-05-7.88339E-06-3.45687E-19 3.15033E-19
 -1      2502 1.03040E-04-3.18189E-05-3.05046E-05-8.71616E-06-3.15601E-19-2.59361E-19
 -1      2503 1.05503E-04-3.20869E-05-3.14265E-05-1.00950E-05-1.73383E-19-5.16210E-19
 -1      2504 1.05461E-04-3.42961E-05-3.05168E-05-4.65068E-06 1.10711E-18 3.65827E-19
 -1      2505 1.04740E-04-3.37687E-05-3.04415E-05-6.17602E-06 2.24467E-19 6.10635E-19
 -1      2506 1.07144E-04-3.49439E-05-3.09003E-05-7.61217E-06-3.62386E-19-2.73497E-19
 -1      2507 1.05070E-04-3.41063E-05-3.04145E-05-9.77247E-07 1.04158E-18 1.78342E-18
 -1      2508 1.05032E-04-3.42178E-05-3.03995E-05-2.57952E-06 1.72619E-18 9.92718E-19
 -1      2509 1.07083E-04-3.58305E-05-3.05116E-05-3.55775E-06 7.19018E-19-5.01904E-19
 -1      2510 1.03644E-04-3.30109E-05-3.02624E-05 2.08284E-06 6.21997E-19 1.47677E-18
 -1      2511 1.04150E-04-3.35261E-05-3.03213E-05 8.14938E-07 5.36221E-19 1.86231E-18
 -1      2512 1.05679E-04-3.50849E-05-3.02483E-05 4.79850E-07 4.93623E-19 1.55371E-18
 -1      2513 1.01678E-04-3.15159E-05-3.00538E-05 4.02415E-06-5.97377E-19 5.71691E-19
 -1      2514 1.02520E-04-3.22158E-05-3.01743E-05 3.27946E-06 4.06364E-19 1.52391E-18
 -1      2515 1.03552E-04-3.34248E-05-3.00601E-05 3.54789E-06 6.37928E-19 1.75203E-18
 -1      2516 9.95588E-05-2.99480E-05-2.98114E-05 4.73248E-06-1.73981E-19 1.54236E-18
 -1      2517 1.00539E-04-3.06922E-05-2.99641E-05 4.54681E-06-7.30692E-19 1.03326E-18
 -1      2518 1.01204E-04-3.14478E-05-2.99054E-05 5.27753E-06-7.52618E-19 1.08010E-18
 -1      2519 9.75374E-05-2.85000E-05-2.95670E-05 4.27645E-06 2.10917E-19 2.43688E-18
 -1      2520 9.84927E-05-2.91763E-05-2.97223E-05 4.60981E-06-6.12431E-20 2.26352E-18
 -1      2521 9.89284E-05-2.94770E-05-2.97691E-05 5.65912E-06-1.73460E-19 2.00049E-18
 -1      2522 9.66201E-05-2.78611E-05-2.94660E-05 3.57571E-06 8.11249E-19 2.24448E-18
 -1      2523 9.27570E-05-2.12413E-05-3.06766E-05 9.24784E-06-1.63381E-18 1.33044E-18
 -1      2524 9.37193E-05-2.25730E-05-3.04689E-05 9.24491E-06-2.53234E-18-4.39674E-19
 -1      2525 9.06643E-05-1.86354E-05-3.09170E-05 8.31235E-06-4.05760E-19-7.26125E-19
 -1      2526 9.17173E-05-1.99336E-05-3.07434E-05 8.96113E-06-1.58373E-18 1.30244E-18
 -1      2527 9.24910E-05-2.21367E-05-3.01593E-05 1.03799E-05-1.23430E-18 1.77015E-18
 -1      2528 9.57786E-05-2.55912E-05-3.00690E-05 7.56106E-06-1.23871E-18-6.21524E-19
 -1      2529 9.62935E-05-2.65696E-05-2.98687E-05 6.78346E-06-3.16146E-19-1.40270E-18
 -1      2530 9.45226E-05-2.36469E-05-3.03799E-05 8.84697E-06-3.22179E-18-2.03464E-18
 -1      2531 9.52482E-05-2.48113E-05-3.01680E-05 8.36883E-06-2.17088E-18 1.20416E-19
 -1      2532 9.63233E-05-2.64731E-05-2.99479E-05 8.89809E-06-2.29757E-18-1.22513E-18
 -1      2533 9.47427E-05-2.45925E-05-3.00745E-05 1.02033E-05-2.77762E-18-5.69021E-19
 -1      2534 8.86862E-05-1.63167E-05-3.10729E-05 5.84201E-06-1.20725E-18-1.72987E-18
 -1      2535 8.95914E-05-1.73384E-05-3.09558E-05 7.17985E-06-2.55859E-19-2.44255E-18
 -1      2536 8.99332E-05-1.94443E-05-3.01990E-05 8.92419E-06-1.20369E-18-9.38541E-19
 -1      2537 8.73983E-05-1.48704E-05-3.11349E-05 2.06657E-06-1.39241E-18-1.31547E-18
 -1      2538 8.78884E-05-1.53747E-05-3.10881E-05 3.92170E-06-1.82340E-18-1.06576E-18
 -1      2539 8.76661E-05-1.71190E-05-3.02013E-05 5.68866E-06-1.21172E-18-1.83473E-18
 -1      2540 8.72458E-05-1.47392E-05-3.11068E-05-2.31899E-06-2.01821E-18-3.24971E-18
 -1      2541 8.71520E-05-1.45836E-05-3.11348E-05-3.05401E-07-1.25502E-18-2.28383E-18
 -1      2542 8.63986E-05-1.58400E-05-3.01921E-05 1.09245E-06-1.04870E-18-1.56905E-18
 -1      2543 8.82838E-05-1.59675E-05-3.10001E-05-6.31018E-06-6.09859E-19-2.57691E-18
 -1      2544 8.76349E-05-1.51934E-05-3.10971E-05-4.58756E-06-1.61017E-18-3.84378E-18
 -1      2545 8.65774E-05-1.60213E-05-3.01933E-05-3.88521E-06 2.14548E-19-2.82392E-18
 -1      2546 9.02473E-05-1.82863E-05-3.08271E-05-9.21208E-06 2.03255E-20 1.74257E-18
 -1      2547 8.91982E-05-1.70308E-05-3.09820E-05-8.06077E-06-2.78632E-19-8.85578E-19
 -1      2548 8.81516E-05-1.75971E-05-3.02106E-05-8.17999E-06 6.22552E-19-1.90432E-18
 -1      2549 9.26336E-05-2.11478E-05-3.06128E-05-1.04888E-05-4.39916E-19 3.59048E-18
 -1      2550 9.14226E-05-1.96492E-05-3.08006E-05-1.01060E-05-7.62857E-19 4.00959E-18
 -1      2551 9.06765E-05-2.01156E-05-3.02369E-05-1.09627E-05-5.60316E-19 2.14179E-18
 -1      2552 9.49930E-05-2.40099E-05-3.03892E-05-1.00898E-05-9.76367E-19 1.97460E-18
 -1      2553 9.38166E-05-2.24962E-05-3.05824E-05-1.04709E-05-8.19088E-19 3.22279E-18
 -1      2554 9.35199E-05-2.29310E-05-3.02542E-05-1.18395E-05-1.43413E-18 2.71265E-18
 -1      2555 2.66520E-05-2.29710E-05-1.34021E-06 2.22786E-05 8.61644E-19 8.61602E-18
 -1      2556 2.07317E-05-2.10647E-05 4.26912E-07 8.15283E-06 7.53092E-19 9.83405E-18
 -1      2557 9.96634E-05-5.52291E-05-1.89879E-05 4.33779E-05 7.36919E-19-9.13168E-19
 -1      2558 8.07439E-05-4.82606E-05-1.34529E-05 4.38001E-05-2.41828E-19 2.60420E-18
 -1      2559 6.98562E-05-2.04305E-05-2.11719E-05-1.23276E-06 9.90152E-19-7.86443E-19
 -1      2560 6.97726E-05-2.02266E-05-2.11996E-05-7.83502E-07 1.09558E-18-5.72654E-19
 -1      2561 7.15758E-05-2.07947E-05-2.17752E-05-1.54706E-06 1.07617E-18-1.10140E-18
 -1      2562 9.62869E-05-2.57062E-05-3.02463E-05-7.71220E-06-9.96265E-20 8.90079E-19
 -1      2563 2.00145E-05-2.13760E-05 8.07489E-07-5.88548E-06 1.61558E-18 8.19886E-18
 -1      2564 2.70852E-05-2.42821E-05-9.48456E-07-2.17592E-05 3.25684E-19 5.88603E-18
 -1      2565 2.79270E-05-1.76436E-05-3.78617E-06 4.86770E-07 1.72894E-18 8.29626E-18
 -1      2566 1.28290E-04-6.08687E-05-2.89867E-05 3.04528E-05 1.26060E-18-2.22431E-18
 -1      2567 1.16035E-04-6.00287E-05-2.39202E-05 3.50408E-05 9.79594E-19-1.64187E-18
 -1      2568 7.50853E-05-4.80549E-05-1.13435E-05-4.22542E-05-2.75519E-18-3.16600E-18
 -1      2569 9.58480E-05-5.50844E-05-1.74918E-05-4.22857E-05-2.22516E-18-3.11923E-18
 -1      2570 1.37621E-04-5.76561E-05-3.43820E-05-1.88831E-05-1.63054E-20-1.01432E-19
 -1      2571 1.47744E-04-5.32773E-05-4.07770E-05-1.20761E-05 2.01297E-18 6.49039E-19
 -1      2572 3.16780E-05-2.67922E-05-1.83244E-06 2.75468E-05-7.41577E-19-2.40748E-18
 -1      2573 2.28281E-05-2.04237E-05-6.31505E-07 1.25613E-05-1.21846E-18-2.19551E-18
 -1      2574 1.49348E-04-1.68311E-05-5.77187E-05-2.65715E-06 3.76570E-18-1.32031E-18
 -1      2575 1.50465E-04-2.29628E-05-5.51787E-05-3.74330E-06 3.93510E-18-1.77453E-19
 -1      2576 8.16345E-05-1.00609E-05-3.07097E-05-4.32378E-06-1.04882E-18-2.54747E-18
 -1      2577 8.28415E-05-1.02902E-05-3.11242E-05-5.36326E-06-1.33780E-18-2.39024E-18
 -1      2578 8.47327E-05-1.24533E-05-3.09780E-05-5.86642E-06-1.39626E-18-2.08836E-18
 -1      2579 8.22316E-05-1.17873E-05-3.01931E-05-4.03541E-06-9.55623E-19-2.38378E-18
 -1      2580 1.43620E-04-1.11618E-05-5.83024E-05 4.62038E-06 2.16290E-18 6.48933E-19
 -1      2581 1.47805E-04-1.23145E-05-5.89746E-05 5.59083E-07 2.50002E-18-5.87629E-19
 -1      2582 1.33415E-04-5.61942E-05-3.23995E-05-1.59370E-05-5.93452E-20 1.14709E-18
 -1      2583 1.43374E-04-5.13562E-05-3.86395E-05-7.85984E-06-3.74389E-19 2.37169E-20
 -1      2584 1.46601E-04-2.21393E-05-5.41478E-05 1.34234E-05 1.44488E-18 1.91588E-19
 -1      2585 1.45071E-04-1.69519E-05-5.65844E-05 1.08541E-05 1.66741E-18 3.63801E-19
 -1      2586 1.32599E-04-6.01686E-05-3.13032E-05 2.37556E-05-1.81477E-19-3.51752E-18
 -1      2587 1.18242E-04-5.99225E-05-2.49183E-05 3.00522E-05 4.38340E-20-2.53898E-18
 -1      2588 1.46897E-04-4.23564E-05-4.36974E-05 2.83300E-06-9.72394E-19-6.69156E-19
 -1      2589 1.47518E-04-3.18697E-05-4.93315E-05 1.00703E-05-2.07947E-19 1.52466E-20
 -1      2590 1.12153E-04-5.84522E-05-2.25269E-05-3.11697E-05-1.56511E-18 6.71538E-19
 -1      2591 1.25702E-04-5.84743E-05-2.81772E-05-2.59892E-05-4.28705E-19 1.03042E-18
 -1      2592 1.32232E-04-6.02310E-05-2.98657E-05-1.37836E-05-2.38863E-19 7.42530E-19
 -1      2593 3.41178E-05-2.98656E-05-1.63211E-06-2.93435E-05-1.49628E-18 1.20872E-18
 -1      2594 4.76520E-05-3.55322E-05-5.05282E-06-3.77356E-05-1.76691E-18 2.48689E-18
 -1      2595 2.06171E-05-1.88289E-05-3.66762E-07-6.15589E-06-1.50105E-18-2.18280E-18
 -1      2596 2.48704E-05-2.37667E-05-2.31659E-07-1.99029E-05-1.67268E-18-6.38028E-19
 -1      2597 3.60662E-05-2.38012E-05-4.74999E-06-2.48380E-05-1.90074E-18 3.70365E-19
 -1      2598 5.94215E-05-4.14296E-05-7.73017E-06 4.17712E-05-1.60089E-19-3.49443E-18
 -1      2599 4.54239E-05-3.49563E-05-4.33799E-06 3.59149E-05 1.13291E-19-3.21851E-18
 -1      2600 1.00386E-04-5.59066E-05-1.92100E-05 3.99422E-05-3.76294E-19-3.00355E-18
 -1      2601 7.88439E-05-4.96127E-05-1.24727E-05 4.10232E-05-3.03661E-19-3.12878E-18
 -1      2602 7.83166E-05-4.65801E-05-1.32359E-05 4.10260E-05-5.92711E-19-3.13836E-18
 -1      2603 1.50726E-04-4.92165E-05-4.37268E-05 6.13367E-06-1.72082E-18-4.05729E-19
 -1      2604 1.41869E-04-5.50403E-05-3.73207E-05 1.15516E-05-2.22452E-19-1.57315E-18
 -1      2605 1.54845E-04-3.18103E-05-5.31834E-05-4.65753E-06-6.17042E-18 2.95784E-18
 -1      2606 1.52379E-04-3.97486E-05-4.84703E-05-8.05532E-07-4.13617E-18 1.56320E-18
 -1      2607 1.48439E-04-1.56746E-05-5.74071E-05-5.72037E-06-7.01852E-18 1.99180E-18
 -1      2608 1.50983E-04-2.24740E-05-5.53547E-05-7.41424E-06-6.83196E-18 2.10297E-18
 -1      2609 1.50416E-04-1.45221E-05-5.87086E-05 2.69211E-06-5.96608E-18 1.68348E-20
 -1      2610 1.47474E-04-1.19463E-05-5.86530E-05-8.17627E-07-6.30531E-18 7.23750E-19
 -1      2611 1.47900E-04-2.51725E-05-5.30937E-05 8.31272E-06-7.08120E-19-2.33781E-19
 -1      2612 1.51383E-04-1.92986E-05-5.69047E-05 5.35095E-06-3.94506E-18 5.35219E-19
 -1      2613 1.38196E-04-1.48256E-05-5.29648E-05 7.05942E-06-4.37662E-18-1.55653E-18
 -1      2614 1.51257E-04-4.57409E-05-4.52752E-05-2.29138E-06 3.23440E-18 1.20745E-18
 -1      2615 1.51871E-04-3.74204E-05-4.96695E-05 4.74727E-06 2.57964E-18 3.01967E-19
 -1      2616 1.47208E-04-5.18876E-05-4.08125E-05-6.38809E-07 2.69421E-18 7.26331E-20
 -1      2617 1.11756E-04-5.89902E-05-2.26422E-05-3.49426E-05-2.40811E-18-3.54399E-18
 -1      2618 1.26511E-04-5.99108E-05-2.87095E-05-3.03851E-05-1.85903E-18-3.18633E-18
 -1      2619 1.52678E-04-3.39440E-05-5.15008E-05-1.04690E-06 2.93370E-18-2.83121E-19
 -1      2620 1.50022E-04-4.28217E-05-4.61988E-05 4.09062E-06 3.01141E-18-6.31040E-20
 -1      2621 3.96243E-05-3.14916E-05-3.20221E-06-3.21313E-05-4.47233E-19 3.50545E-18
 -1      2622 5.28839E-05-3.73706E-05-6.61386E-06-4.03037E-05-1.62186E-18 2.67027E-19
 -1      2623 1.02019E-04-2.17039E-05-3.44802E-05-1.38589E-05-2.68230E-18 1.66989E-18
 -1      2624 1.02579E-04-2.53131E-05-3.31387E-05-9.90209E-06-2.49896E-18 1.69789E-18
 -1      2625 1.00857E-04-2.41380E-05-3.28611E-05-9.79783E-06-2.43691E-18 8.92869E-19
 -1      2626 9.87026E-05-1.89507E-05-3.42109E-05-1.34862E-05-2.69442E-18 7.67928E-19
 -1      2627 7.02937E-05-1.81167E-05-2.23768E-05 4.65649E-06 2.08136E-18-1.85654E-19
 -1      2628 7.09334E-05-1.70813E-05-2.30906E-05 7.05758E-06 2.21335E-18 1.99847E-20
 -1      2629 7.06570E-05-1.54763E-05-2.36889E-05 7.84196E-06 2.30723E-18-7.45561E-19
 -1      2630 7.12772E-05-1.77701E-05-2.29583E-05 4.44048E-06 2.04998E-18-9.08886E-19
 -1      2631 5.63705E-05-3.75893E-05-8.03800E-06 4.29015E-05-1.10326E-19 5.66432E-18
 -1      2632 3.97546E-05-3.04428E-05-3.59767E-06 3.33451E-05 4.17164E-20 7.11402E-18
 -1      2633 1.38733E-04-1.38446E-05-5.44122E-05-3.40946E-06 2.67557E-18-1.24937E-18
 -1      2634 9.08395E-05-1.51674E-05-3.24249E-05-9.45318E-06-2.16681E-18-1.27564E-18
 -1      2635 9.03692E-05-1.33881E-05-3.30480E-05-1.03722E-05-2.34686E-18-1.30650E-18
 -1      2636 9.22495E-05-1.43602E-05-3.34453E-05-1.15154E-05-2.56385E-18-9.17654E-19
 -1      2637 7.14184E-05-2.01943E-05-2.19647E-05-3.05495E-07 1.32337E-18-1.00248E-18
 -1      2638 7.08176E-05-1.41001E-05-2.43360E-05 7.49148E-06 2.11708E-18-1.55413E-18
 -1      2639 7.48916E-05-4.25742E-05-1.33722E-05 4.22154E-05-7.94729E-19 3.22391E-18
 -1      2640 9.41108E-05-1.56540E-05-3.36829E-05-1.21324E-05-2.56945E-18-5.74679E-19
 -1      2641 9.64550E-05-1.72025E-05-3.40519E-05-1.31252E-05-2.69892E-18 6.41892E-21
 -1      2642 9.81760E-05-2.03455E-05-3.33498E-05-1.15158E-05-2.61467E-18 2.61134E-19
 -1      2643 9.43907E-05-1.74055E-05-3.29820E-05-1.08095E-05-2.47451E-18-6.74122E-19
 -1      2644 1.36173E-04-6.13122E-05-3.20180E-05 1.88341E-05 3.88206E-19-1.02343E-18
 -1      2645 3.90228E-05-2.50076E-05-5.43417E-06-2.62820E-05 1.31883E-18 4.50516E-18
 -1      2646 1.44540E-04-2.92535E-05-4.98135E-05-7.40675E-06 3.39311E-18-1.45499E-18
 -1      2647 1.44582E-04-3.20604E-05-4.84513E-05 1.03659E-05 1.31947E-18-2.54745E-19
 -1      2648 9.68947E-05-2.77954E-05-2.96129E-05 4.78745E-06 2.89692E-19 1.99186E-18
 -1      2649 1.12640E-04-5.91926E-05-2.26844E-05 3.55003E-05 6.80803E-19-2.06941E-18
 -1      2650 9.67229E-05-2.72847E-05-2.97501E-05 5.57162E-06 3.86963E-19 1.13573E-18
 -1      2651 9.74210E-05-2.79522E-05-2.97832E-05 6.76427E-06-4.03386E-19 4.64492E-19
 -1      2652 3.99157E-05-2.43099E-05-6.07838E-06 2.74409E-05 4.25211E-19 7.72663E-18
 -1      2653 1.37449E-04-1.28179E-05-5.35647E-05-4.60560E-06-5.79307E-18-2.36957E-19
 -1      2654 1.44644E-04-2.66357E-05-5.05531E-05-1.17072E-05-5.70265E-18 2.60823E-18
 -1      2655 7.19271E-05-1.54129E-05-2.41866E-05 5.78662E-06 1.96156E-18-1.55304E-18
 -1      2656 7.23211E-05-4.34087E-05-1.19421E-05-4.07604E-05-2.67451E-19-2.68488E-18
 -1      2657 1.14243E-04-5.98928E-05-2.30565E-05 3.20951E-05-1.56278E-19-3.23005E-18
 -1      2658 1.09615E-04-5.93637E-05-2.12554E-05-3.58243E-05-2.82909E-19-4.57361E-18
 -1      2659 1.35467E-04-6.18714E-05-3.14111E-05-1.95861E-05 1.03751E-18-2.27111E-18
 -1      2660 2.53099E-05-1.76212E-05-2.69315E-06 4.05346E-06-1.25051E-18-2.80326E-18
 -1      2661 3.03247E-05-1.55973E-05-5.77507E-06-3.42041E-06-1.60473E-18-2.09154E-18
 -1      2662 3.24012E-05-1.68829E-05-6.18455E-06 1.33910E-05-8.79961E-19-1.77390E-18
 -1      2663 1.05632E-04-5.79246E-05-1.99663E-05-3.47430E-05-1.91302E-18 1.51301E-19
 -1      2664 1.16673E-04-6.08371E-05-2.36085E-05-2.63249E-05-2.01239E-18 1.74235E-18
 -1      2665 9.74202E-05-5.43392E-05-1.77305E-05-3.70869E-05-1.77580E-18 7.33478E-19
 -1      2666 1.42059E-04-4.97741E-05-3.81379E-05 4.52628E-06-8.70750E-19-1.29173E-20
 -1      2667 1.39110E-04-5.96359E-05-3.40184E-05 1.18449E-05-7.63653E-19-2.05003E-18
 -1      2668 1.39888E-04-2.71211E-05-4.80913E-05 1.39697E-05 8.85149E-20 4.90432E-19
 -1      2669 4.49364E-05-2.90541E-05-6.36567E-06 3.18473E-05-2.71686E-19-2.82740E-18
 -1      2670 6.23891E-05-4.07410E-05-8.82413E-06-3.99441E-05-1.26144E-18 1.90021E-18
 -1      2671 7.67001E-05-4.57154E-05-1.32562E-05-3.98003E-05-1.11544E-18 1.35472E-18
 -1      2672 5.92861E-05-3.50404E-05-9.74651E-06-3.75064E-05-7.90705E-19 2.22907E-18
 -1      2673 1.46569E-04-4.95296E-05-4.16526E-05 1.93467E-06 1.75849E-18-2.52416E-19
 -1      2674 1.37796E-04-1.44254E-05-5.45662E-05 9.44367E-06 1.74838E-18 4.30293E-19
 -1      2675 9.77371E-05-2.71418E-05-3.02216E-05-8.69973E-06-8.51882E-19 1.28779E-18
 -1      2676 9.60879E-05-2.52622E-05-3.03617E-05-9.71232E-06-1.49722E-18 2.58827E-18
 -1      2677 9.63269E-05-2.56582E-05-3.02888E-05-1.12642E-05-1.60456E-18 2.17634E-18
 -1      2678 9.89392E-05-2.79830E-05-3.04026E-05-9.68146E-06-1.38181E-18 2.44861E-18
 -1      2679 1.48256E-04-4.56952E-05-4.39880E-05-4.84411E-06-2.89008E-18 1.28071E-18
 -1      2680 9.83802E-05-2.76816E-05-3.03148E-05-1.13664E-05-7.53239E-19 2.46111E-18
 -1      2681 7.84599E-05-1.31030E-05-2.80296E-05-4.45857E-07 9.32667E-20-2.46849E-18
 -1      2682 7.94181E-05-1.30464E-05-2.84611E-05-1.28840E-06-2.14529E-19-2.40412E-18
 -1      2683 8.04495E-05-1.30958E-05-2.88844E-05-2.05842E-06-4.32519E-19-2.41661E-18
 -1      2684 8.15194E-05-1.31868E-05-2.93015E-05-2.92766E-06-6.38280E-19-2.37380E-18
 -1      2685 8.09443E-05-1.46550E-05-2.83990E-05-2.02655E-06-3.31156E-19-2.22500E-18
 -1      2686 7.50302E-05-1.41558E-05-2.61178E-05 2.58697E-06 1.17634E-18-2.47533E-18
 -1      2687 7.58133E-05-1.37351E-05-2.66215E-05 1.81809E-06 8.77768E-19-2.55640E-18
 -1      2688 7.36457E-05-1.53750E-05-2.50019E-05 3.74397E-06 1.56727E-18-2.18898E-18
 -1      2689 7.42867E-05-1.46508E-05-2.55704E-05 3.16159E-06 1.33643E-18-2.31134E-18
 -1      2690 7.55149E-05-1.58848E-05-2.55405E-05 1.92594E-06 1.25512E-18-2.19921E-18
 -1      2691 7.25887E-05-1.91919E-05-2.28921E-05 1.17199E-06 1.48095E-18-1.39757E-18
 -1      2692 7.26257E-05-1.84644E-05-2.31837E-05 2.49711E-06 1.62213E-18-1.37339E-18
 -1      2693 6.60174E-05-3.64550E-05-1.20655E-05-3.79086E-05 1.66685E-18-6.78685E-19
 -1      2694 8.54582E-05-4.75204E-05-1.62909E-05-4.09362E-05-5.77676E-19-4.04839E-18
 -1      2695 7.22441E-05-1.64835E-05-2.39008E-05 4.28527E-06 1.77750E-18-1.62952E-18
 -1      2696 1.36312E-04-2.46238E-05-4.88191E-05-1.03649E-05 3.31942E-18-2.24961E-18
 -1      2697 1.39695E-04-3.43801E-05-4.55687E-05-1.01556E-05 2.87938E-18-1.66093E-18
 -1      2698 9.96459E-05-2.72261E-05-3.10064E-05-5.09676E-06-1.38339E-18 2.06336E-19
 -1      2699 9.92350E-05-2.77509E-05-3.06495E-05-4.13156E-06-1.20124E-18 1.29602E-19
 -1      2700 9.90541E-05-2.82072E-05-3.03392E-05-3.41741E-06-1.07398E-18 1.54848E-19
 -1      2701 9.86641E-05-2.84817E-05-3.00855E-05-2.82955E-06-9.59347E-19 1.25769E-19
 -1      2702 9.83075E-05-2.72568E-05-3.04552E-05-4.30030E-06-1.21850E-18-2.73563E-19
 -1      2703 9.84151E-05-2.87167E-05-2.98543E-05-2.38270E-06-9.80538E-19 1.12563E-19
 -1      2704 9.80761E-05-2.88541E-05-2.96703E-05-2.04476E-06-9.59502E-19 1.28573E-19
 -1      2705 9.78873E-05-2.81201E-05-2.99071E-05-3.07068E-06-9.76926E-19-3.45288E-19
 -1      2706 9.78128E-05-2.89636E-05-2.94961E-05-1.78683E-06-8.41625E-19 1.17761E-19
 -1      2707 9.75212E-05-2.90208E-05-2.93590E-05-1.60976E-06-6.76144E-19 3.64683E-22
 -1      2708 9.73886E-05-2.85835E-05-2.94944E-05-2.31350E-06-8.98923E-19-2.43182E-19
 -1      2709 9.72632E-05-2.90555E-05-2.92252E-05-1.47824E-06-7.96460E-19 6.40406E-20
 -1      2710 9.70066E-05-2.90625E-05-2.91194E-05-1.40162E-06-8.49566E-19-1.53961E-20
 -1      2711 9.68795E-05-2.88058E-05-2.91798E-05-1.88615E-06-8.15504E-19-2.16665E-19
 -1      2712 9.67592E-05-2.90503E-05-2.90142E-05-1.35000E-06-8.58036E-19 7.41977E-20
 -1      2713 9.65259E-05-2.90238E-05-2.89292E-05-1.33257E-06-7.84443E-19-1.63625E-19
 -1      2714 9.63836E-05-2.88772E-05-2.89354E-05-1.67664E-06-8.07141E-19-5.24539E-19
 -1      2715 9.62888E-05-2.89811E-05-2.88441E-05-1.32709E-06-8.62317E-19-9.61669E-20
 -1      2716 9.60699E-05-2.89314E-05-2.87730E-05-1.34038E-06-8.47746E-19-5.79701E-20
 -1      2717 9.59058E-05-2.88505E-05-2.87411E-05-1.60156E-06-8.80847E-19 7.88533E-20
 -1      2718 9.58415E-05-2.88680E-05-2.87021E-05-1.35668E-06-8.98946E-19-7.52942E-21
 -1      2719 9.56313E-05-2.88014E-05-2.86404E-05-1.38064E-06-9.08057E-19-1.91599E-19
 -1      2720 9.54448E-05-2.87577E-05-2.85824E-05-1.60018E-06-8.24993E-19-5.01396E-20
 -1      2721 9.54096E-05-2.87234E-05-2.85798E-05-1.40102E-06-8.39536E-19-1.05108E-19
 -1      2722 9.52052E-05-2.86445E-05-2.85247E-05-1.42121E-06-5.02123E-19-4.01064E-19
 -1      2723 9.49974E-05-2.86190E-05-2.84496E-05-1.62837E-06-1.01143E-18-3.65127E-19
 -1      2724 9.49891E-05-2.85557E-05-2.84719E-05-1.43249E-06-4.59255E-19-7.33810E-19
 -1      2725 9.47897E-05-2.84674E-05-2.84222E-05-1.43810E-06-5.27651E-19-8.60204E-19
 -1      2726 9.45610E-05-2.84471E-05-2.83359E-05-1.65361E-06-8.53463E-19-5.24745E-19
 -1      2727 9.45785E-05-2.83703E-05-2.83757E-05-1.43008E-06-1.27942E-19-8.15763E-19
 -1      2728 9.43854E-05-2.82749E-05-2.83309E-05-1.41261E-06-3.38364E-19-4.18193E-19
 -1      2729 9.41338E-05-2.82500E-05-2.82371E-05-1.65128E-06-2.60328E-19-4.50959E-19
 -1      2730 9.41791E-05-2.81710E-05-2.82902E-05-1.37690E-06-3.89571E-19-1.31030E-19
 -1      2731 9.39951E-05-2.80707E-05-2.82506E-05-1.32925E-06-5.14764E-19 5.09499E-19
 -1      2732 9.37156E-05-2.80328E-05-2.81509E-05-1.60178E-06-1.19465E-19-1.70002E-19
 -1      2733 9.37947E-05-2.79611E-05-2.82155E-05-1.25852E-06-1.00547E-18 5.78207E-19
 -1      2734 9.36242E-05-2.78581E-05-2.81820E-05-1.17444E-06-7.74727E-19 5.36828E-19
 -1      2735 9.33075E-05-2.77989E-05-2.80763E-05-1.48858E-06-6.06417E-19 4.27587E-19
 -1      2736 9.34316E-05-2.77443E-05-2.81530E-05-1.06190E-06-7.69873E-19 1.93022E-19
 -1      2737 9.32805E-05-2.76412E-05-2.81268E-05-9.35734E-07-6.53249E-19 1.57092E-19
 -1      2738 9.29124E-05-2.75515E-05-2.80132E-05-1.29683E-06-8.71643E-19 6.97865E-19
 -1      2739 9.30993E-05-2.75254E-05-2.81045E-05-7.74947E-07-5.74118E-19 1.23201E-19
 -1      2740 9.29757E-05-2.74262E-05-2.80873E-05-6.01659E-07-6.26927E-19 2.58736E-19
 -1      2741 9.25357E-05-2.72943E-05-2.79623E-05-1.01251E-06-6.94874E-19 2.67042E-19
 -1      2742 9.28115E-05-2.73118E-05-2.80726E-05-3.86634E-07-5.72619E-19 5.52375E-19
 -1      2743 9.27254E-05-2.72220E-05-2.80664E-05-1.62171E-07-2.13427E-19 5.36967E-19
 -1      2744 9.21864E-05-2.70337E-05-2.79248E-05-6.22227E-07-3.64436E-19 4.50156E-19
 -1      2745 9.25868E-05-2.71142E-05-2.80607E-05 1.11950E-07-5.34325E-20 4.92008E-19
 -1      2746 9.25508E-05-2.70403E-05-2.80680E-05 3.90012E-07 1.67605E-19 1.35528E-19
 -1      2747 9.18785E-05-2.67791E-05-2.79027E-05-1.13795E-07-1.18322E-19 3.03708E-19
 -1      2748 9.24496E-05-2.69458E-05-2.80735E-05 7.25428E-07 1.57037E-19 9.08167E-20
 -1      2749 9.24773E-05-2.68941E-05-2.80977E-05 1.05700E-06 1.69009E-19-5.91374E-20
 -1      2750 9.16324E-05-2.65441E-05-2.78989E-05 5.21723E-07 1.74787E-19 2.64391E-19
 -1      2751 9.24279E-05-2.68175E-05-2.81181E-05 1.45050E-06 2.62630E-20-3.13237E-19
 -1      2752 9.25293E-05-2.67883E-05-2.81641E-05 1.83262E-06 1.70138E-19-4.27321E-19
 -1      2753 9.14751E-05-2.63426E-05-2.79188E-05 1.28558E-06 1.82521E-19-3.02704E-19
 -1      2754 9.25421E-05-2.67255E-05-2.82059E-05 2.27278E-06 3.16720E-19-5.30156E-19
 -1      2755 9.27163E-05-2.67031E-05-2.82806E-05 2.70219E-06-2.14767E-19-6.70954E-19
 -1      2756 9.14335E-05-2.61786E-05-2.79724E-05 2.16430E-06 3.38943E-20-7.24234E-19
 -1      2757 9.27813E-05-2.66264E-05-2.83534E-05 3.17485E-06-6.42246E-19-9.04409E-19
 -1      2758 9.30089E-05-2.65692E-05-2.84639E-05 3.65953E-06-8.85387E-19-1.20408E-18
 -1      2759 9.15130E-05-2.60181E-05-2.80768E-05 3.12707E-06-3.22265E-19-4.67532E-19
 -1      2760 9.30740E-05-2.64201E-05-2.85745E-05 4.18349E-06-8.28045E-19-1.16992E-18
 -1      2761 9.33357E-05-2.62848E-05-2.87218E-05 4.76648E-06-5.62472E-19-1.06255E-18
 -1      2762 9.16528E-05-2.57528E-05-2.82515E-05 4.15778E-06-8.17682E-19-2.85176E-19
 -1      2763 9.33389E-05-2.60273E-05-2.88590E-05 5.45783E-06 8.16725E-20-7.98003E-19
 -1      2764 9.36744E-05-2.58810E-05-2.90307E-05 6.22705E-06 7.99015E-19-1.61008E-19
 -1      2765 9.17241E-05-2.52502E-05-2.84940E-05 5.36507E-06-1.95776E-19 2.86652E-19
 -1      2766 9.37357E-05-2.56926E-05-2.91646E-05 7.22802E-06 4.83856E-19-3.82209E-19
 -1      2767 9.42957E-05-2.57988E-05-2.93312E-05 8.17668E-06 2.08466E-19 1.74815E-19
 -1      2768 9.17597E-05-2.46691E-05-2.87573E-05 7.06684E-06 5.16710E-19 3.86723E-19
 -1      2769 9.47280E-05-2.60488E-05-2.94163E-05 9.38134E-06 5.56656E-19 4.08139E-20
 -1      2770 9.56611E-05-2.66809E-05-2.95469E-05 1.02798E-05 1.27498E-18-1.17139E-19
 -1      2771 9.22271E-05-2.46699E-05-2.89615E-05 9.38369E-06 5.15140E-19 3.82482E-19
 -1      2772 9.66302E-05-2.75723E-05-2.95604E-05 1.13495E-05 9.30433E-19 2.87117E-19
 -1      2773 9.80474E-05-2.88484E-05-2.96473E-05 1.18891E-05 9.81693E-19 8.50094E-19
 -1      2774 9.35988E-05-2.58828E-05-2.90150E-05 1.17985E-05 1.23669E-18-2.95030E-19
 -1      2775 9.96184E-05-3.04281E-05-2.96074E-05 1.25228E-05 1.25220E-18 5.94007E-19
 -1      2776 1.01586E-04-3.23796E-05-2.96685E-05 1.24220E-05 1.11749E-18 9.06626E-19
 -1      2777 9.61019E-05-2.86496E-05-2.89304E-05 1.36320E-05 1.30095E-18-1.99079E-19
 -1      2778 1.03989E-04-3.47130E-05-2.96201E-05 1.23824E-05 9.27016E-19 1.48693E-19
 -1      2779 1.06593E-04-3.73237E-05-2.97123E-05 1.13616E-05 1.09320E-18 4.50950E-19
 -1      2780 9.99693E-05-3.30198E-05-2.87636E-05 1.44625E-05 8.85695E-19-4.63200E-19
 -1      2781 1.10193E-04-4.04102E-05-2.97953E-05 1.02307E-05 5.29981E-19 6.52030E-19
 -1      2782 1.13316E-04-4.33201E-05-3.00557E-05 7.95021E-06 3.92090E-19 4.81128E-19
 -1      2783 1.05842E-04-3.91366E-05-2.87078E-05 1.37696E-05 9.00889E-19 8.65099E-20
 -1      2784 1.18133E-04-4.65270E-05-3.05553E-05 5.00573E-06 7.49892E-19 1.99377E-19
 -1      2785 1.21076E-04-4.84373E-05-3.12222E-05 1.32402E-06 8.48456E-19 1.06876E-18
 -1      2786 1.14262E-04-4.64265E-05-2.92065E-05 1.04608E-05 7.13466E-19 2.09171E-19
 -1      2787 1.26081E-04-4.99730E-05-3.25883E-05-3.74359E-06-2.55374E-19 2.00993E-18
 -1      2788 1.27271E-04-4.85270E-05-3.38166E-05-8.00536E-06-1.50026E-18 1.55274E-18
 -1      2789 1.24210E-04-5.21134E-05-3.10410E-05 3.16259E-06 8.41463E-19 3.43876E-19
 -1      2790 1.24341E-04-2.93714E-05-4.14017E-05-1.65990E-05-4.10822E-18 1.88332E-19
 -1      2791 1.21923E-04-2.20050E-05-4.29096E-05-1.30011E-05-4.65190E-18 1.43367E-19
 -1      2792 1.23539E-04-1.41855E-05-4.74590E-05-3.98834E-06-4.18095E-18-2.05076E-18
 -1      2793 1.23882E-04-1.45461E-05-4.74988E-05 3.55794E-06-4.10790E-18-2.35752E-18
 -1      2794 1.27056E-04-3.42487E-05-4.00379E-05 1.51222E-05 2.28212E-18-1.89090E-18
 -1      2795 1.29216E-04-4.16489E-05-3.79116E-05 1.43800E-05 4.26629E-18-2.21277E-18
 -1      2796 1.28270E-04-4.67908E-05-3.50041E-05 9.59204E-06 3.53230E-18-3.61536E-18
 -1      2797 1.27724E-04-4.98799E-05-3.34196E-05 5.40201E-06-1.29010E-19-3.43251E-18
 -1      2798 1.33684E-04-4.75591E-05-3.69825E-05 9.99636E-06 3.24178E-18-8.32263E-19
 -1      2799 1.23230E-04-4.94001E-05-3.17385E-05-2.75230E-07-1.62739E-18-2.60625E-18
 -1      2800 1.20561E-04-4.81819E-05-3.09013E-05-4.28699E-06 1.57131E-19-3.38251E-18
 -1      2801 1.27294E-04-5.30147E-05-3.20089E-05-1.46989E-06-3.68459E-19-3.34217E-18
 -1      2802 1.15665E-04-4.52704E-05-3.02309E-05-7.94161E-06 1.25276E-18-3.49274E-18
 -1      2803 1.12462E-04-4.24339E-05-2.98920E-05-1.06482E-05 1.12573E-18-2.66319E-18
 -1      2804 1.17578E-04-4.88200E-05-2.96018E-05-1.02361E-05 6.64967E-19-2.33266E-18
 -1      2805 1.08678E-04-3.92702E-05-2.97685E-05-1.22245E-05 9.25261E-19-2.36700E-18
 -1      2806 1.05917E-04-3.64916E-05-2.96723E-05-1.35986E-05 1.16847E-18-2.04338E-18
 -1      2807 1.08756E-04-4.15598E-05-2.88994E-05-1.45848E-05 1.10959E-18-2.56820E-18
 -1      2808 1.03438E-04-3.39642E-05-2.97768E-05-1.38719E-05 9.58600E-19-6.32409E-19
 -1      2809 1.01351E-04-3.17659E-05-2.97737E-05-1.42048E-05 7.42805E-19-1.74184E-20
 -1      2810 1.02551E-04-3.50420E-05-2.89923E-05-1.58346E-05 1.63905E-18-1.26141E-18
 -1      2811 9.98388E-05-2.99386E-05-2.99541E-05-1.37313E-05 3.03048E-19 6.05679E-19
 -1      2812 9.83370E-05-2.83015E-05-2.99872E-05-1.32808E-05-2.00748E-19 1.55798E-18
 -1      2813 9.86651E-05-3.01771E-05-2.93862E-05-1.52779E-05 1.38754E-18 2.68728E-19
 -1      2814 7.39745E-05-2.19862E-05-2.22794E-05-2.97552E-06 5.47343E-19-9.50732E-19
 -1      2815 7.37035E-05-2.17926E-05-2.22389E-05-2.81657E-06 6.02070E-19-9.05010E-19
 -1      2816 1.42998E-04-4.11459E-05-4.44083E-05-1.10248E-05-3.90006E-18 2.68234E-18
 -1      2817 1.42834E-04-4.90316E-05-4.03245E-05-6.41895E-06-1.77750E-18 1.56151E-18
 -1      2818 7.35123E-05-2.15930E-05-2.22507E-05-2.57161E-06 6.52305E-19-1.08241E-18
 -1      2819 7.33045E-05-2.13521E-05-2.22508E-05-2.27242E-06 7.94229E-19-1.08533E-18
 -1      2820 7.49879E-05-2.19649E-05-2.27314E-05-2.88281E-06 5.68530E-19-9.22779E-19
 -1      2821 7.50761E-05-2.25604E-05-2.25047E-05-3.23912E-06 4.46114E-19-8.22460E-19
 -1      2822 7.47385E-05-2.24215E-05-2.24198E-05-3.22311E-06 6.00660E-19-8.63268E-19
 -1      2823 7.56770E-05-2.27812E-05-2.26673E-05-3.23259E-06 3.73007E-19-9.37592E-19
 -1      2824 7.53258E-05-2.26598E-05-2.25711E-05-3.24537E-06 3.79276E-19-8.69269E-19
 -1      2825 7.63629E-05-2.29574E-05-2.28909E-05-3.56735E-06 5.15032E-19-7.36867E-19
 -1      2826 7.62939E-05-2.29725E-05-2.28494E-05-3.19334E-06 4.15903E-19-9.74113E-19
 -1      2827 7.59359E-05-2.28648E-05-2.27459E-05-3.21682E-06 4.62962E-19-9.27613E-19
 -1      2828 7.68758E-05-2.31548E-05-2.30253E-05-3.56767E-06 4.60713E-19-8.18330E-19
 -1      2829 7.69205E-05-2.31409E-05-2.30455E-05-3.15170E-06 2.16086E-19-9.17012E-19
 -1      2830 7.65589E-05-2.30442E-05-2.29368E-05-3.17246E-06 1.63510E-19-1.04919E-18
 -1      2831 7.74022E-05-2.33145E-05-2.31819E-05-3.53731E-06 3.18988E-19-7.29770E-19
 -1      2832 7.75546E-05-2.32916E-05-2.32523E-05-3.13082E-06 1.71534E-19-9.71252E-19
 -1      2833 7.71899E-05-2.32033E-05-2.31394E-05-3.13854E-06 3.94319E-19-8.47471E-19
 -1      2834 7.79376E-05-2.34455E-05-2.33549E-05-3.50780E-06 2.87723E-19-7.88459E-19
 -1      2835 7.81976E-05-2.34284E-05-2.34687E-05-3.14906E-06-5.17021E-20-6.80754E-19
 -1      2836 7.78279E-05-2.33465E-05-2.33517E-05-3.13547E-06-3.38662E-20-8.62916E-19
 -1      2837 7.84800E-05-2.35538E-05-2.35408E-05-3.50344E-06 1.73551E-20-4.15085E-19
 -1      2838 7.88534E-05-2.35546E-05-2.36950E-05-3.22173E-06 4.84522E-20-6.77769E-19
 -1      2839 7.84752E-05-2.34771E-05-2.35733E-05-3.17986E-06 1.28125E-19-5.17626E-19
 -1      2840 7.90297E-05-2.36435E-05-2.37380E-05-3.54374E-06-1.26737E-19-5.72149E-19
 -1      2841 7.95288E-05-2.36738E-05-2.39326E-05-3.36212E-06 5.46007E-19-4.71397E-19
 -1      2842 7.91369E-05-2.35983E-05-2.38050E-05-3.28590E-06 2.71433E-19-3.70427E-19
 -1      2843 7.95888E-05-2.37179E-05-2.39458E-05-3.64504E-06 1.15890E-19-3.95242E-19
 -1      2844 8.02327E-05-2.37904E-05-2.41834E-05-3.58173E-06 1.07843E-19-1.24860E-19
 -1      2845 7.98205E-05-2.37140E-05-2.40484E-05-3.46599E-06 4.18595E-19-2.10825E-19
 -1      2846 8.01613E-05-2.37804E-05-2.41646E-05-3.82160E-06 3.02676E-19 1.02982E-19
 -1      2847 8.09767E-05-2.39112E-05-2.44496E-05-3.88976E-06-2.33253E-19 1.44641E-19
 -1      2848 8.05362E-05-2.38295E-05-2.43056E-05-3.73068E-06 1.96941E-19 5.44444E-20
 -1      2849 8.07535E-05-2.38355E-05-2.43950E-05-4.08567E-06 1.26421E-19 5.51674E-19
 -1      2850 8.17752E-05-2.40462E-05-2.47330E-05-4.29153E-06-2.22266E-19-2.38826E-19
 -1      2851 8.12973E-05-2.39532E-05-2.45786E-05-4.08753E-06-3.63547E-19-3.01892E-19
 -1      2852 8.13742E-05-2.38909E-05-2.46377E-05-4.44684E-06-8.99723E-20-3.39921E-20
 -1      2853 8.26454E-05-2.42102E-05-2.50349E-05-4.78564E-06-5.07121E-19-2.61547E-19
 -1      2854 8.21202E-05-2.40976E-05-2.48691E-05-4.53893E-06-1.82591E-19-1.73781E-19
 -1      2855 8.20363E-05-2.39589E-05-2.48927E-05-4.91009E-06-3.05116E-19 1.56574E-19
 -1      2856 8.36074E-05-2.44238E-05-2.53549E-05-5.36012E-06-9.40868E-20-1.13052E-18
 -1      2857 8.30245E-05-2.42807E-05-2.51775E-05-5.07861E-06-2.93546E-19-6.08498E-19
 -1      2858 8.27572E-05-2.40586E-05-2.51592E-05-5.47242E-06 1.49639E-19-2.00215E-19
 -1      2859 8.46827E-05-2.47126E-05-2.56912E-05-5.98844E-06-2.13976E-19-1.37292E-18
 -1      2860 8.40323E-05-2.45259E-05-2.55031E-05-5.68754E-06-6.08868E-20-1.26451E-18
 -1      2861 8.35587E-05-2.42163E-05-2.54350E-05-6.11845E-06 1.13164E-19-5.43376E-19
 -1      2862 8.58944E-05-2.51079E-05-2.60408E-05-6.62869E-06-2.19398E-19-1.62292E-18
 -1      2863 8.51662E-05-2.48617E-05-2.58433E-05-6.33172E-06-3.32345E-19-1.72721E-18
 -1      2864 8.44656E-05-2.44640E-05-2.57170E-05-6.81708E-06 9.40442E-21-1.05667E-18
 -1      2865 8.72757E-05-2.56537E-05-2.64024E-05-7.22615E-06-7.87885E-19-1.71069E-18
 -1      2866 8.64518E-05-2.53235E-05-2.61967E-05-6.96574E-06-6.70669E-19-1.55765E-18
 -1      2867 8.55034E-05-2.48376E-05-2.60035E-05-7.52554E-06-2.01830E-19-1.79840E-18
 -1      2868 8.88875E-05-2.64303E-05-2.67917E-05-7.71629E-06-6.52434E-19-1.44126E-18
 -1      2869 8.79404E-05-2.59668E-05-2.65692E-05-7.53514E-06-6.12387E-19-1.56879E-18
 -1      2870 8.67145E-05-2.53951E-05-2.63007E-05-8.20092E-06-7.94559E-19-1.24913E-18
 -1      2871 9.08361E-05-2.75480E-05-2.72556E-05-7.92410E-06-7.02018E-19-9.07781E-19
 -1      2872 8.97674E-05-2.69172E-05-2.70013E-05-7.92103E-06-6.93647E-19-9.79759E-19
 -1      2873 8.82290E-05-2.62758E-05-2.66500E-05-8.78721E-06-8.59474E-19-1.13460E-18
 -1      2874 9.30762E-05-2.87465E-05-2.77723E-05-7.32038E-06-5.52742E-19-3.48806E-19
 -1      2875 9.20345E-05-2.82477E-05-2.75224E-05-7.71137E-06-5.96523E-19-6.92701E-19
 -1      2876 9.03391E-05-2.77139E-05-2.71237E-05-8.97311E-06-1.08373E-18-5.02079E-19
 -1      2877 9.47243E-05-2.92160E-05-2.81881E-05-6.44124E-06 4.74219E-19 2.76808E-19
 -1      2878 9.39260E-05-2.90156E-05-2.79683E-05-6.80866E-06-1.26446E-19-1.16877E-19
 -1      2879 9.25278E-05-2.88460E-05-2.76182E-05-8.08036E-06-5.56077E-19-3.03403E-19
 -1      2880 9.65121E-05-3.00171E-05-2.85301E-05-5.93356E-06 9.65470E-19 1.81583E-20
 -1      2881 9.55379E-05-2.94933E-05-2.83430E-05-6.25433E-06 9.34211E-19 7.10767E-19
 -1      2882 9.40404E-05-2.92364E-05-2.79196E-05-7.29623E-06 5.21018E-19 2.86615E-19
 -1      2883 9.90316E-05-3.18493E-05-2.88162E-05-4.92625E-06 1.26665E-19 4.52853E-19
 -1      2884 9.78773E-05-3.08990E-05-2.86728E-05-5.63092E-06 9.93929E-19 1.73103E-19
 -1      2885 9.62209E-05-3.04507E-05-2.81942E-05-7.00298E-06 9.68399E-19 4.43604E-19
 -1      2886 1.01849E-04-3.41188E-05-2.90741E-05-2.74066E-06-7.11438E-19 2.97615E-19
 -1      2887 1.00706E-04-3.30656E-05-2.89537E-05-4.00521E-06-6.19087E-19 2.89725E-19
 -1      2888 9.93048E-05-3.29049E-05-2.84606E-05-5.82016E-06-2.03068E-19 4.45433E-19
 -1      2889 1.04539E-04-3.61008E-05-2.93963E-05 6.70909E-07-2.22000E-19 4.24857E-19
 -1      2890 1.03628E-04-3.53269E-05-2.92517E-05-1.11336E-06-3.12624E-19 8.92351E-19
 -1      2891 1.02775E-04-3.56987E-05-2.87714E-05-3.29108E-06-6.02720E-19 3.10097E-19
 -1      2892 1.06542E-04-3.68444E-05-2.99330E-05 4.95723E-06 3.31302E-19 6.89300E-19
 -1      2893 1.06142E-04-3.68627E-05-2.97048E-05 2.92198E-06-1.97465E-19 8.01677E-19
 -1      2894 1.06186E-04-3.79427E-05-2.92811E-05 5.80829E-07-2.31604E-19 7.61109E-19
 -1      2895 1.06937E-04-3.50034E-05-3.08212E-05 9.09410E-06 9.08906E-20 1.66920E-18
 -1      2896 1.07453E-04-3.64936E-05-3.04510E-05 7.47180E-06-1.39582E-19 1.03836E-18
 -1      2897 1.08813E-04-3.84277E-05-3.01862E-05 5.46346E-06-4.49986E-20 2.64458E-19
 -1      2898 1.05094E-04-2.98629E-05-3.21664E-05 1.06939E-05-7.20703E-19 1.78056E-18
 -1      2899 1.06512E-04-3.28313E-05-3.16385E-05 1.06589E-05 4.91809E-20 1.87010E-18
 -1      2900 1.09321E-04-3.52615E-05-3.16821E-05 9.91432E-06-3.19887E-19 2.46179E-18
 -1      2901 1.02594E-04-2.39276E-05-3.37097E-05 7.38164E-06-8.37246E-19 1.02205E-18
 -1      2902 1.03699E-04-2.66371E-05-3.31934E-05 9.59083E-06-5.98588E-19 1.43789E-18
 -1      2903 1.07260E-04-2.82416E-05-3.38042E-05 1.08924E-05-5.65421E-19 1.31587E-18
 -1      2904 1.01567E-04-2.15599E-05-3.46254E-05 2.79925E-07 1.17526E-20 3.94254E-19
 -1      2905 1.01766E-04-2.21594E-05-3.44712E-05 3.58223E-06-7.62436E-19 1.17660E-18
 -1      2906 1.05149E-04-2.23019E-05-3.59651E-05 6.27498E-06-8.96955E-19 4.13564E-19
 -1      2907 1.03177E-04-2.39142E-05-3.41871E-05-7.08396E-06 8.93355E-20-5.82137E-20
 -1      2908 1.02157E-04-2.21894E-05-3.44149E-05-4.01420E-06 2.95800E-19 2.74690E-19
 -1      2909 1.04902E-04-2.05207E-05-3.65233E-05-2.34414E-06-1.15620E-19 5.02211E-19
 -1      2910 1.06651E-04-2.95738E-05-3.31771E-05-1.10490E-05 1.51364E-19-1.06875E-18
 -1      2911 1.05014E-04-2.66356E-05-3.35601E-05-9.76987E-06-3.39475E-21-4.82059E-19
 -1      2912 1.07316E-04-2.47980E-05-3.54825E-05-9.63834E-06 5.53787E-19-2.04678E-19
 -1      2913 1.09532E-04-3.50114E-05-3.20257E-05-1.02797E-05-6.95380E-19-7.88909E-19
 -1      2914 1.08246E-04-3.25334E-05-3.24116E-05-1.09790E-05-3.84639E-20-7.59438E-19
 -1      2915 1.11001E-04-3.19221E-05-3.38867E-05-1.19429E-05-1.70154E-19-1.09499E-18
 -1      2916 1.10301E-04-3.78810E-05-3.10624E-05-6.33116E-06 4.05716E-19-1.83226E-18
 -1      2917 1.09877E-04-3.67225E-05-3.13610E-05-8.24357E-06-3.17946E-19-1.17514E-18
 -1      2918 1.12995E-04-3.76549E-05-3.22430E-05-9.38995E-06-1.85183E-19-1.71970E-18
 -1      2919 1.08953E-04-3.79504E-05-3.04118E-05-1.47721E-06-5.94351E-19-2.52123E-19
 -1      2920 1.09364E-04-3.80521E-05-3.06056E-05-3.65397E-06 1.11757E-19-1.80182E-18
 -1      2921 1.12340E-04-4.00151E-05-3.09754E-05-4.28109E-06 7.82422E-20-2.12879E-18
 -1      2922 1.06388E-04-3.62112E-05-3.00383E-05 2.67836E-06 5.27860E-19-1.08816E-20
 -1      2923 1.07330E-04-3.70877E-05-3.01555E-05 8.61190E-07-3.36530E-19-3.79623E-19
 -1      2924 1.09676E-04-3.92490E-05-3.01896E-05 8.88635E-07-1.18753E-19-2.04011E-18
 -1      2925 1.03454E-04-3.37080E-05-2.98515E-05 5.44075E-06 3.49774E-19 2.92242E-19
 -1      2926 1.04622E-04-3.48986E-05-2.99265E-05 4.26450E-06 1.20374E-18 2.32586E-19
 -1      2927 1.06213E-04-3.67234E-05-2.98074E-05 4.80429E-06 2.33537E-19-2.24362E-18
 -1      2928 1.00677E-04-3.11393E-05-2.97689E-05 6.68826E-06-8.31684E-19 1.20484E-19
 -1      2929 1.01852E-04-3.23395E-05-2.98242E-05 6.21981E-06-1.21579E-19 1.42414E-19
 -1      2930 1.02811E-04-3.35999E-05-2.96888E-05 7.08352E-06-2.47290E-20-1.09761E-18
 -1      2931 9.84451E-05-2.90108E-05-2.97342E-05 6.84935E-06-3.35066E-19 1.67110E-19
 -1      2932 9.95399E-05-3.01171E-05-2.97747E-05 7.01864E-06-1.01262E-18-2.27682E-19
 -1      2933 1.00081E-04-3.08048E-05-2.96996E-05 8.07297E-06-1.14019E-18-1.17342E-18
 -1      2934 9.79000E-05-2.83636E-05-2.98002E-05 8.20489E-06-1.41976E-18-4.69577E-19
 -1      2935 1.21299E-04-6.07178E-05-2.60853E-05 2.85558E-05-4.92126E-19-1.90488E-18
 -1      2936 1.06905E-04-5.48659E-05-2.20535E-05 3.46432E-05-3.03450E-19-2.83923E-18
 -1      2937 8.58616E-05-1.76126E-05-2.93099E-05 5.56422E-06-1.15223E-18-1.94824E-18
 -1      2938 8.70828E-05-1.85646E-05-2.93376E-05 7.66222E-06-2.19707E-19-2.33125E-18
 -1      2939 4.97241E-05-2.60975E-05-9.93129E-06 3.26728E-05-1.63054E-19 5.86782E-18
 -1      2940 3.89172E-05-1.90153E-05-7.91516E-06 2.04961E-05 6.15316E-19 7.27326E-18
 -1      2941 9.21009E-05-2.30705E-05-2.96291E-05 1.14288E-05-2.11716E-18 1.00121E-18
 -1      2942 9.36339E-05-2.44022E-05-2.96350E-05 1.16719E-05-1.97250E-18 1.70125E-18
 -1      2943 8.45280E-05-1.63940E-05-2.92354E-05 9.11150E-08-4.01533E-19-1.71637E-18
 -1      2944 8.49068E-05-1.66820E-05-2.92436E-05 2.71198E-06-3.94129E-19-1.63959E-18
 -1      2945 8.41261E-05-1.78607E-05-2.83540E-05 4.80286E-06-9.92856E-19-1.85905E-18
 -1      2946 8.87272E-05-2.01244E-05-2.94639E-05 9.54710E-06-1.40066E-18-9.00020E-19
 -1      2947 9.03485E-05-2.14394E-05-2.94894E-05 1.07447E-05-1.57305E-18 5.42610E-19
 -1      2948 9.11941E-05-2.37241E-05-2.89305E-05 1.23407E-05-2.64994E-18 1.05679E-18
 -1      2949 8.71934E-05-2.04385E-05-2.85947E-05 9.75170E-06-1.04045E-18-3.61549E-19
 -1      2950 8.52370E-05-1.69102E-05-2.92815E-05-5.51053E-06 1.09617E-18-3.05203E-18
 -1      2951 8.46418E-05-1.64567E-05-2.92614E-05-3.01367E-06 5.69774E-19-2.63885E-18
 -1      2952 8.31492E-05-1.69741E-05-2.83028E-05-1.48969E-06 7.97035E-19-1.92906E-18
 -1      2953 8.77666E-05-1.89870E-05-2.94464E-05-1.00773E-05 8.87173E-19-2.15418E-18
 -1      2954 8.63732E-05-1.79099E-05-2.94013E-05-8.18359E-06 1.56287E-18-3.00864E-18
 -1      2955 8.46141E-05-1.80742E-05-2.84792E-05-7.57826E-06 1.60996E-18-2.55200E-18
 -1      2956 9.12357E-05-2.18867E-05-2.96880E-05-1.25694E-05-5.28399E-19 2.57904E-18
 -1      2957 8.95308E-05-2.05131E-05-2.96320E-05-1.16838E-05 7.77049E-19 4.11276E-19
 -1      2958 8.80188E-05-2.06872E-05-2.88508E-05-1.20106E-05 1.94178E-18-8.23643E-19
 -1      2959 3.35319E-05-1.50384E-05-7.43259E-06 7.12021E-06 2.57472E-18 8.73905E-18
 -1      2960 3.36851E-05-1.54469E-05-7.21512E-06-7.72767E-06 2.68793E-18 7.84353E-18
 -1      2961 3.80123E-05-1.95675E-05-7.34790E-06-1.99363E-05 2.08074E-18 4.73957E-18
 -1      2962 4.87842E-05-2.67633E-05-9.19888E-06-3.17925E-05 1.96829E-18 1.98799E-18
 -1      2963 1.38943E-04-5.95508E-05-3.44098E-05 1.01995E-05 1.11438E-19-8.06164E-19
 -1      2964 1.31339E-04-6.12477E-05-2.99565E-05 1.82128E-05-4.14411E-19-9.77370E-19
 -1      2965 1.41071E-04-3.82224E-05-4.43457E-05 1.24633E-05 2.66212E-18 3.01967E-19
 -1      2966 1.36286E-04-2.75535E-05-4.73132E-05 1.39119E-05 4.40034E-19-1.09913E-18
 -1      2967 7.31374E-05-2.10756E-05-2.23133E-05-1.85313E-06 9.75273E-19-1.21604E-18
 -1      2968 7.30115E-05-2.07535E-05-2.23742E-05-1.33996E-06 1.07941E-18-1.16428E-18
 -1      2969 7.46127E-05-2.13815E-05-2.28219E-05-2.16267E-06 8.76636E-19-1.15827E-18
 -1      2970 7.45029E-05-2.23004E-05-2.23708E-05-3.17209E-06 5.52918E-19-9.11554E-19
 -1      2971 7.41903E-05-2.21384E-05-2.23034E-05-3.10228E-06 5.62635E-19-8.92227E-19
 -1      2972 7.54091E-05-2.23891E-05-2.27284E-05-3.29188E-06 5.04082E-19-6.66791E-19
 -1      2973 7.58708E-05-2.27090E-05-2.27876E-05-3.49433E-06 5.97997E-19-5.62030E-19
 -1      2974 9.99178E-05-2.53662E-05-3.19311E-05-7.65305E-06-2.03540E-18 4.46630E-19
 -1      2975 9.96265E-05-2.63584E-05-3.14232E-05-6.16333E-06-1.70754E-18 3.51185E-19
 -1      2976 9.84800E-05-2.57085E-05-3.11855E-05-6.15339E-06-1.71727E-18-8.80277E-20
 -1      2977 1.41592E-04-4.54030E-05-4.19475E-05-5.41474E-06 1.61773E-18-1.24122E-18
 -1      2978 1.41067E-04-5.33738E-05-3.77511E-05 1.38143E-06 4.84609E-19-9.35336E-19
 -1      2979 1.37341E-04-5.52015E-05-3.52716E-05 1.50891E-06 2.04585E-19-1.61190E-18
 -1      2980 8.60090E-05-4.44979E-05-1.76826E-05 3.93982E-05-9.73029E-19 3.93394E-19
 -1      2981 6.66850E-05-3.42573E-05-1.31873E-05 3.77351E-05-9.53971E-19 3.79280E-18
 -1      2982 7.28500E-05-2.03388E-05-2.25079E-05-6.68142E-07 1.12929E-18-1.26511E-18
 -1      2983 7.28076E-05-1.98653E-05-2.26597E-05 1.69630E-07 1.23848E-18-1.27343E-18
 -1      2984 7.38511E-05-1.92197E-05-2.34128E-05 7.70191E-07 1.35914E-18-1.63586E-18
 -1      2985 7.42572E-05-2.05265E-05-2.30339E-05-9.95918E-07 1.11579E-18-1.35011E-18
 -1      2986 7.66477E-05-1.34398E-05-2.71119E-05 1.12949E-06 6.69782E-19-2.57380E-18
 -1      2987 7.75297E-05-1.32200E-05-2.75780E-05 2.97967E-07 3.47185E-19-2.51708E-18
 -1      2988 7.89691E-05-1.47158E-05-2.75254E-05-5.81067E-07 2.30013E-19-2.24902E-18
 -1      2989 7.71713E-05-1.51131E-05-2.65822E-05 7.72101E-07 7.26883E-19-2.27822E-18
 -1      2990 8.78304E-05-1.51195E-05-3.11845E-05-6.93465E-06-1.61356E-18-1.67859E-18
 -1      2991 8.93229E-05-1.57926E-05-3.15405E-05-7.78733E-06-1.83774E-18-1.43294E-18
 -1      2992 1.41165E-04-5.77636E-05-3.62493E-05 3.27871E-06-1.18950E-18 4.54539E-19
 -1      2993 1.33852E-04-6.10540E-05-3.10328E-05 1.27251E-05-8.34010E-19-1.38193E-18
 -1      2994 1.05453E-04-5.64866E-05-2.05216E-05-3.55797E-05-1.85151E-18-4.34965E-18
 -1      2995 1.19504E-04-6.17289E-05-2.49103E-05-3.03026E-05-7.49624E-19-4.15110E-18
 -1      2996 9.68502E-05-2.64416E-05-3.01576E-05-1.20149E-05-5.09909E-19 2.21562E-18
 -1      2997 9.54781E-05-2.52272E-05-3.01080E-05-1.25593E-05-5.05574E-19 1.33303E-18
 -1      2998 9.76742E-05-2.73490E-05-3.01294E-05-1.26679E-05-1.08787E-19 1.81659E-18
 -1      2999 5.70423E-05-3.21456E-05-1.03276E-05 3.64704E-05-6.64603E-19-3.54261E-18
 -1      3000 4.40374E-05-2.35088E-05-8.26936E-06 2.73197E-05-9.33960E-19-2.43564E-18
 -1      3001 1.26195E-04-6.01639E-05-2.73056E-05-1.41964E-05-1.12793E-18 1.24376E-18
 -1      3002 1.32346E-04-5.82297E-05-3.06833E-05-6.29303E-06-6.48827E-19 1.26833E-18
 -1      3003 1.34060E-04-5.13730E-05-3.32538E-05 5.09193E-06-1.38829E-18 2.26581E-20
 -1      3004 1.37227E-04-4.46358E-05-3.67008E-05 1.14797E-05-1.47214E-18 3.31402E-20
 -1      3005 1.30428E-04-5.36923E-05-3.03100E-05 2.85701E-06-1.72371E-18 5.34054E-19
 -1      3006 3.68941E-05-1.91650E-05-7.10661E-06-1.95533E-05-2.60727E-18-7.65083E-19
 -1      3007 4.59789E-05-2.55288E-05-8.28713E-06-2.97297E-05-1.98248E-18 3.08744E-19
 -1      3008 1.35960E-04-3.61314E-05-4.26352E-05 2.19129E-05-9.62229E-19 8.19928E-19
 -1      3009 1.46956E-04-2.93842E-05-4.93083E-05 2.18384E-05 4.43845E-19 5.87841E-19
 -1      3010 8.95193E-05-4.92099E-05-1.73297E-05 3.91524E-05-5.22408E-19-2.81914E-18
 -1      3011 7.25270E-05-4.04300E-05-1.32604E-05 3.86499E-05 0.00000E+00-3.83515E-18
 -1      3012 1.31818E-04-2.15739E-05-4.81777E-05-1.40633E-05-5.89175E-18 1.62472E-19
 -1      3013 1.38297E-04-3.01510E-05-4.66612E-05-1.46469E-05-5.52223E-18 2.08518E-18
 -1      3014 1.42559E-04-5.61159E-05-3.70839E-05-6.97192E-07 2.50037E-18-4.14834E-19
 -1      3015 1.42999E-04-4.91521E-05-4.08688E-05 6.04918E-06 2.76715E-18 1.24831E-19
 -1      3016 1.29764E-04-6.27556E-05-2.85975E-05-2.09325E-05 6.85144E-19-2.65270E-18
 -1      3017 1.38231E-04-6.10957E-05-3.34875E-05-1.15213E-05 1.34699E-18-4.29975E-19
 -1      3018 1.25940E-04-6.15621E-05-2.73702E-05-2.15563E-05-3.75183E-19-2.63507E-18
 -1      3019 1.33858E-04-1.80914E-05-5.13513E-05 1.08890E-05 1.68999E-18 1.55854E-19
 -1      3020 1.30506E-04-1.24690E-05-5.21919E-05 3.29849E-06 1.87660E-18 8.76679E-20
 -1      3021 1.21957E-04-6.13365E-05-2.63338E-05 2.53365E-05-2.57074E-19-3.07195E-18
 -1      3022 1.07397E-04-5.63807E-05-2.14208E-05 3.25502E-05-3.38496E-19-2.83199E-18
 -1      3023 9.88982E-05-2.21918E-05-3.29034E-05-1.03694E-05-2.49320E-18 2.79068E-19
 -1      3024 9.94791E-05-2.41233E-05-3.23070E-05-8.65357E-06-2.34686E-18 3.62609E-19
 -1      3025 9.80702E-05-2.34390E-05-3.19798E-05-8.27120E-06-2.13596E-18-7.30322E-20
 -1      3026 9.69512E-05-2.05035E-05-3.27643E-05-1.03141E-05-2.43911E-18-2.77698E-19
 -1      3027 1.30192E-04-1.20941E-05-5.18535E-05-2.66687E-06 2.04664E-18-9.15431E-19
 -1      3028 1.32753E-04-1.65680E-05-5.07330E-05-8.31029E-06 2.63343E-18-1.79402E-18
 -1      3029 9.09392E-05-1.66912E-05-3.18433E-05-8.41936E-06-1.98692E-18-1.25490E-18
 -1      3030 9.26600E-05-1.76935E-05-3.21617E-05-9.16008E-06-2.24944E-18-1.05286E-18
 -1      3031 9.11605E-05-1.80579E-05-3.13061E-05-7.62327E-06-1.78132E-18-1.10996E-18
 -1      3032 8.31191E-05-1.49247E-05-2.92151E-05-3.50518E-06-7.13270E-19-2.16306E-18
 -1      3033 8.26578E-05-1.34065E-05-2.96982E-05-3.70210E-06-8.26565E-19-2.32871E-18
 -1      3034 8.38372E-05-1.36540E-05-3.00959E-05-4.57885E-06-1.05464E-18-2.18418E-18
 -1      3035 9.85159E-05-5.10000E-05-1.99326E-05-3.51959E-05-1.26504E-18-2.76228E-18
 -1      3036 7.32101E-05-1.64202E-05-2.43439E-05 3.55235E-06 1.69631E-18-1.88841E-18
 -1      3037 1.27492E-04-6.02100E-05-2.88345E-05 1.56710E-05-4.95673E-19-7.70641E-19
 -1      3038 1.29514E-04-2.22253E-05-4.67550E-05-1.07399E-05 2.25851E-18-1.73896E-18
 -1      3039 1.38246E-04-5.83295E-05-3.41843E-05-3.53865E-06 1.59397E-18-9.93464E-19
 -1      3040 1.01101E-04-5.14440E-05-2.09233E-05 3.25979E-05-9.91029E-20-2.68803E-18
 -1      3041 1.34349E-04-5.05701E-05-3.61179E-05-7.50700E-06-2.12092E-18 1.65447E-18
 -1      3042 1.31788E-04-4.50313E-05-3.74512E-05-1.34939E-05-2.73441E-18 2.11186E-18
 -1      3043 1.30256E-04-3.76682E-05-3.98345E-05-1.59715E-05-3.11544E-18 1.25896E-18
 -1      3044 1.35087E-04-3.50749E-05-4.30422E-05-1.55864E-05-4.45423E-18 1.10083E-18
 -1      3045 1.31296E-04-1.60075E-05-4.98753E-05 9.08647E-06-3.61492E-18-1.90646E-18
 -1      3046 1.20517E-04-1.95843E-05-4.36130E-05 9.36664E-06-3.34451E-18-1.98244E-18
 -1      3047 9.66025E-05-2.71597E-05-2.97888E-05-1.40167E-05 1.47049E-19 2.70744E-18
 -1      3048 1.23407E-04-2.62717E-05-4.22276E-05 1.43868E-05-7.11084E-19-3.66924E-18
 -1      3049 1.25372E-04-1.45440E-05-4.88744E-05-1.06153E-06 1.20956E-18-1.03762E-18
 -1      3050 1.39350E-04-5.35384E-05-3.70039E-05-4.17185E-06-1.93283E-18 1.95283E-18
 -1      3051 1.22025E-04-3.60161E-05-3.62366E-05 2.32958E-05-1.27478E-18 5.76829E-19
 -1      3052 1.26614E-04-5.96943E-05-2.86132E-05 1.89725E-05-1.34514E-18-1.65116E-18
 -1      3053 9.74182E-05-2.79201E-05-2.97635E-05 9.28764E-06-1.59524E-18-1.81132E-18
 -1      3054 9.84346E-05-2.92268E-05-2.96719E-05 9.48717E-06-2.40837E-18-1.99733E-18
 -1      3055 9.66744E-05-2.71345E-05-2.98095E-05 1.01838E-05-2.64790E-18-2.75825E-18
 -1      3056 4.34247E-05-1.68039E-05-1.07860E-05 1.28400E-05 2.01784E-18 6.72925E-18
 -1      3057 4.32807E-05-1.72061E-05-1.05219E-05-1.32650E-05 2.82411E-18 6.10255E-18
 -1      3058 1.21630E-04-6.03920E-05-2.55835E-05-1.92426E-05-1.93214E-18 4.49563E-19
 -1      3059 1.23410E-04-5.88478E-05-2.67363E-05-1.06083E-05-1.23815E-18-3.65283E-20
 -1      3060 1.13900E-04-5.78741E-05-2.34522E-05-2.33103E-05-1.79918E-18 1.01194E-18
 -1      3061 1.07385E-04-5.12636E-05-2.39640E-05 2.89936E-05-1.82019E-18-2.95515E-18
 -1      3062 9.85046E-05-4.92062E-05-2.08060E-05 3.59565E-05-1.16049E-18-2.16348E-18
 -1      3063 8.89567E-05-4.11953E-05-2.02817E-05 3.38605E-05-1.91480E-18-9.29354E-19
 -1      3064 9.39594E-05-2.38558E-05-3.00474E-05-1.26557E-05-1.18799E-18 2.84152E-18
 -1      3065 7.41736E-05-1.74124E-05-2.43233E-05 2.16584E-06 1.50537E-18-1.87794E-18
 -1      3066 6.42266E-05-2.92145E-05-1.44558E-05 3.23142E-05-2.06411E-19 3.73002E-18
 -1      3067 6.39433E-05-3.12828E-05-1.33774E-05-3.30438E-05 2.37201E-18-5.39984E-20
 -1      3068 4.15000E-05-1.93607E-05-8.83568E-06 2.08462E-05-1.10405E-18-1.85416E-18
 -1      3069 4.10420E-05-1.61523E-05-1.02293E-05 1.32978E-05-1.53403E-18-1.84664E-18
 -1      3070 5.21176E-05-2.25112E-05-1.22770E-05 2.52222E-05-1.31735E-18-2.74079E-18
 -1      3071 9.03823E-05-5.04331E-05-1.65997E-05-3.73144E-05-1.39464E-18 1.08150E-18
 -1      3072 1.01712E-04-5.43627E-05-2.01679E-05-3.13545E-05-1.95368E-18 1.65838E-18
 -1      3073 8.38478E-05-4.49337E-05-1.61740E-05-3.64871E-05-1.07891E-19 1.46897E-18
 -1      3074 1.24843E-04-1.85218E-05-4.63486E-05-1.17327E-05-5.39549E-18-8.66832E-19
 -1      3075 1.31492E-04-2.83496E-05-4.44718E-05 1.46457E-05 3.85188E-19-2.46862E-18
 -1      3076 1.33216E-04-2.24088E-05-4.82124E-05 1.34716E-05-2.03997E-18-1.98682E-18
 -1      3077 5.62635E-05-2.99527E-05-1.06912E-05-3.27240E-05-8.87902E-19 1.55431E-18
 -1      3078 6.73942E-05-3.48807E-05-1.37523E-05-3.44768E-05-5.04620E-19 1.57749E-18
 -1      3079 5.58447E-05-2.57581E-05-1.24834E-05-2.82598E-05-2.07062E-18-1.78936E-19
 -1      3080 3.78424E-05-1.41608E-05-9.75840E-06-1.72390E-06-1.95658E-18-8.54762E-19
 -1      3081 3.61230E-05-1.59196E-05-7.96581E-06-1.12038E-05-2.43903E-18-3.57448E-19
 -1      3082 4.44133E-05-1.77725E-05-1.09810E-05-1.61563E-05-3.03476E-18 9.15854E-20
 -1      3083 9.47831E-05-2.54017E-05-2.97558E-05 1.13806E-05-1.83267E-18 4.38985E-19
 -1      3084 9.59286E-05-2.64934E-05-2.97328E-05 1.09159E-05-2.81358E-18-3.18963E-19
 -1      3085 9.69421E-05-2.81020E-05-2.95113E-05 1.14462E-05-2.37894E-18-1.20473E-18
 -1      3086 9.46429E-05-2.64089E-05-2.92611E-05 1.25875E-05-2.07493E-18 1.30315E-18
 -1      3087 1.36317E-04-4.01343E-05-4.15566E-05-1.00531E-05 1.98312E-18-2.58165E-18
 -1      3088 8.50974E-05-1.40599E-05-3.04653E-05-5.33758E-06-1.20655E-18-1.92014E-18
 -1      3089 8.64126E-05-1.44919E-05-3.08438E-05-6.21397E-06-1.50186E-18-1.80040E-18
 -1      3090 8.81760E-05-1.65623E-05-3.06756E-05-6.36894E-06-1.47317E-18-1.59800E-18
 -1      3091 8.55149E-05-1.55439E-05-2.99749E-05-4.96922E-06-1.05640E-18-1.91442E-18
 -1      3092 9.47928E-05-2.56908E-05-2.96002E-05-1.40689E-05 5.68063E-19 2.89519E-18
 -1      3093 9.26879E-05-2.33932E-05-2.97211E-05-1.33398E-05-6.67814E-19 3.05962E-18
 -1      3094 9.18631E-05-2.38384E-05-2.91513E-05-1.42021E-05 1.43082E-18 1.65642E-18
 -1      3095 9.55155E-05-2.68156E-05-2.94226E-05-1.47234E-05 1.64373E-18 2.23641E-18
 -1      3096 7.03935E-05-3.54649E-05-1.44739E-05 3.52296E-05-2.21287E-19-3.84564E-18
 -1      3097 1.33289E-04-2.67607E-05-4.54098E-05 3.12064E-06 2.60886E-19 1.56193E-18
 -1      3098 1.27083E-04-2.29210E-05-4.93492E-05 1.20977E-05 1.06599E-18 1.05540E-18
 -1      3099 1.22810E-04-1.75305E-05-4.69480E-05 4.72688E-06 9.16490E-19 1.98206E-19
 -1      3100 7.56911E-05-1.73712E-05-2.50106E-05 1.28982E-06 1.24298E-18-1.94439E-18
 -1      3101 7.65441E-05-1.68898E-05-2.55672E-05 8.59418E-07 9.76934E-19-1.98632E-18
 -1      3102 9.38973E-05-1.84135E-05-3.23732E-05-9.58309E-06-2.30569E-18-8.96485E-19
 -1      3103 9.55963E-05-1.96336E-05-3.25873E-05-1.00095E-05-2.42140E-18-6.26164E-19
 -1      3104 9.63823E-05-2.12526E-05-3.21770E-05-9.06851E-06-2.26177E-18-5.01715E-19
 -1      3105 9.39865E-05-1.97182E-05-3.17984E-05-8.51429E-06-2.15247E-18-9.28228E-19
 -1      3106 1.20453E-04-5.80739E-05-2.63921E-05-2.19308E-05-1.43977E-18-2.98869E-18
 -1      3107 1.28507E-04-6.03757E-05-2.95110E-05-1.47559E-05-2.49663E-19-1.03301E-18
 -1      3108 1.19215E-04-1.47827E-05-4.61017E-05 3.45608E-07 7.51424E-19-1.34149E-18
 -1      3109 1.19204E-04-1.54257E-05-4.56549E-05-6.12258E-06 5.59148E-19-1.64811E-18
 -1      3110 1.33490E-04-5.67716E-05-3.27647E-05 5.20651E-07-4.93462E-19 9.50371E-19
 -1      3111 9.72601E-05-2.74271E-05-2.99139E-05-3.67727E-06-9.86652E-19-3.87952E-19
 -1      3112 9.70201E-05-2.77983E-05-2.96754E-05-3.17348E-06-8.91307E-19-5.09344E-19
 -1      3113 9.68844E-05-2.81159E-05-2.94608E-05-2.81307E-06-8.40440E-19-3.89408E-19
 -1      3114 9.66263E-05-2.83201E-05-2.92793E-05-2.50941E-06-9.59315E-19-5.55884E-19
 -1      3115 9.61935E-05-2.74841E-05-2.94495E-05-3.34692E-06-8.82459E-19-6.33227E-19
 -1      3116 9.64354E-05-2.84877E-05-2.91121E-05-2.29564E-06-1.04357E-18-4.19097E-19
 -1      3117 9.61803E-05-2.85849E-05-2.89722E-05-2.12955E-06-8.31236E-19-6.06343E-19
 -1      3118 9.58711E-05-2.80626E-05-2.90641E-05-2.74035E-06-9.19930E-19-5.81235E-19
 -1      3119 9.59637E-05-2.86548E-05-2.88410E-05-2.01787E-06-5.36179E-19-6.52198E-19
 -1      3120 9.57176E-05-2.86812E-05-2.87310E-05-1.94085E-06-7.47054E-19-4.91654E-19
 -1      3121 9.54689E-05-2.83645E-05-2.87624E-05-2.38825E-06-7.16924E-19-6.29438E-19
 -1      3122 9.54909E-05-2.86863E-05-2.86269E-05-1.89470E-06-7.81095E-19-2.74335E-19
 -1      3123 9.52543E-05-2.86647E-05-2.85385E-05-1.87081E-06-7.12285E-19-1.88302E-19
 -1      3124 9.50307E-05-2.84807E-05-2.85244E-05-2.20941E-06-6.08703E-19-5.62422E-19
 -1      3125 9.50250E-05-2.86261E-05-2.84546E-05-1.86197E-06-7.50182E-19-2.52004E-19
 -1      3126 9.47965E-05-2.85711E-05-2.83817E-05-1.86488E-06-6.52818E-19-2.80526E-19
 -1      3127 9.45788E-05-2.84706E-05-2.83346E-05-2.13825E-06-6.61542E-19-8.69596E-19
 -1      3128 9.45681E-05-2.85020E-05-2.83131E-05-1.87200E-06-9.00761E-19-1.63939E-19
 -1      3129 9.43461E-05-2.84230E-05-2.82517E-05-1.88238E-06-9.73272E-19-3.60110E-20
 -1      3130 9.41243E-05-2.83731E-05-2.81811E-05-2.12418E-06-7.17244E-19-5.29210E-19
 -1      3131 9.41195E-05-2.83320E-05-2.81945E-05-1.88931E-06-9.83257E-19 3.04795E-19
 -1      3132 9.39028E-05-2.82351E-05-2.81418E-05-1.89269E-06-8.22889E-19 9.22213E-20
 -1      3133 9.36716E-05-2.82132E-05-2.80552E-05-2.12875E-06-7.71155E-19 5.78453E-19
 -1      3134 9.36778E-05-2.81271E-05-2.80936E-05-1.88694E-06-4.67426E-19 3.08705E-19
 -1      3135 9.34657E-05-2.80162E-05-2.80479E-05-1.87209E-06-4.34224E-20 2.30311E-19
 -1      3136 9.32216E-05-2.80069E-05-2.79504E-05-2.12253E-06-4.07954E-19 1.01950E-18
 -1      3137 9.32412E-05-2.78942E-05-2.80069E-05-1.84357E-06-1.47073E-19 1.05695E-19
 -1      3138 9.30340E-05-2.77716E-05-2.79673E-05-1.80129E-06-1.06687E-19 9.18218E-20
 -1      3139 9.27730E-05-2.77634E-05-2.78621E-05-2.08227E-06-3.42068E-19 1.60398E-19
 -1      3140 9.28087E-05-2.76369E-05-2.79323E-05-1.74130E-06-2.58760E-19 1.04473E-19
 -1      3141 9.26072E-05-2.75045E-05-2.78984E-05-1.66360E-06-8.13557E-19 2.83316E-19
 -1      3142 9.23236E-05-2.74880E-05-2.77873E-05-1.98864E-06-3.72023E-19-2.78877E-20
 -1      3143 9.23798E-05-2.73579E-05-2.78685E-05-1.56412E-06-1.01781E-18 5.13339E-19
 -1      3144 9.21860E-05-2.72173E-05-2.78403E-05-1.44357E-06-1.03863E-18 4.51854E-19
 -1      3145 9.18708E-05-2.71834E-05-2.77236E-05-1.82449E-06-5.40635E-19-3.04218E-21
 -1      3146 9.19557E-05-2.70596E-05-2.78151E-05-1.29664E-06-8.59196E-19 5.61422E-19
 -1      3147 9.17731E-05-2.69132E-05-2.77929E-05-1.12608E-06-5.41772E-19 4.84006E-19
 -1      3148 9.14124E-05-2.68513E-05-2.76694E-05-1.57337E-06-9.98061E-19 6.69664E-19
 -1      3149 9.15403E-05-2.67461E-05-2.77719E-05-9.23485E-07-3.56857E-19 3.92830E-19
 -1      3150 9.13747E-05-2.65977E-05-2.77563E-05-6.95969E-07-3.02162E-19 3.14767E-19
 -1      3151 9.09479E-05-2.64942E-05-2.76232E-05-1.21853E-06-6.67778E-19 5.25482E-19
 -1      3152 9.11419E-05-2.64247E-05-2.77392E-05-4.29183E-07-7.17531E-20 4.79563E-19
 -1      3153 9.10020E-05-2.62805E-05-2.77311E-05-1.38415E-07 1.79373E-19 3.95304E-19
 -1      3154 9.04797E-05-2.61176E-05-2.75841E-05-7.42294E-07-1.51729E-19 3.66548E-19
 -1      3155 9.07757E-05-2.61077E-05-2.77181E-05 2.00615E-07-6.12342E-20 5.04656E-19
 -1      3156 9.06740E-05-2.59763E-05-2.77190E-05 5.58997E-07 2.63752E-19 2.33936E-19
 -1      3157 9.00164E-05-2.57315E-05-2.75512E-05-1.26438E-07-8.56076E-20 3.26802E-19
 -1      3158 9.04668E-05-2.58123E-05-2.77112E-05 9.75243E-07 3.45036E-19 4.25516E-19
 -1      3159 9.04183E-05-2.57028E-05-2.77243E-05 1.40086E-06 2.83608E-19 1.66255E-19
 -1      3160 8.95761E-05-2.53531E-05-2.75249E-05 6.45090E-07 4.09344E-19-7.82037E-20
 -1      3161 9.02505E-05-2.55565E-05-2.77262E-05 1.88933E-06-1.32832E-19 5.46156E-19
 -1      3162 9.02662E-05-2.54708E-05-2.77581E-05 2.37290E-06 1.74624E-19 2.88423E-19
 -1      3163 8.91919E-05-2.50062E-05-2.75101E-05 1.57739E-06 2.11067E-19 8.26319E-19
 -1      3164 9.01609E-05-2.53398E-05-2.77815E-05 2.90573E-06-3.02720E-19 5.11714E-19
 -1      3165 9.02290E-05-2.52500E-05-2.78435E-05 3.42819E-06-4.30638E-19 6.45065E-19
 -1      3166 8.89114E-05-2.47087E-05-2.75226E-05 2.64404E-06 9.89639E-21 8.85426E-19
 -1      3167 9.01784E-05-2.50884E-05-2.79085E-05 3.95151E-06-1.11870E-18 4.47617E-19
 -1      3168 9.02410E-05-2.49005E-05-2.80119E-05 4.50589E-06-1.18167E-18 4.22987E-19
 -1      3169 8.87628E-05-2.44197E-05-2.75975E-05 3.75945E-06-8.89705E-19 1.17777E-18
 -1      3170 9.01232E-05-2.45749E-05-2.81265E-05 5.03100E-06-4.01434E-19-1.14090E-19
 -1      3171 9.01213E-05-2.41730E-05-2.82607E-05 5.69840E-06-1.05777E-19 5.60762E-20
 -1      3172 8.86263E-05-2.39087E-05-2.77735E-05 4.82666E-06-9.88792E-19 4.88745E-19
 -1      3173 8.97502E-05-2.35788E-05-2.83736E-05 6.53999E-06 5.90830E-19 2.35356E-19
 -1      3174 8.97878E-05-2.31825E-05-2.84981E-05 7.57090E-06 7.12830E-19 6.13048E-19
 -1      3175 8.81530E-05-2.28162E-05-2.80109E-05 6.07038E-06 5.93881E-19-5.28049E-19
 -1      3176 8.96010E-05-2.29027E-05-2.85409E-05 9.00774E-06 3.30285E-19 6.98610E-19
 -1      3177 9.00045E-05-2.31211E-05-2.85939E-05 1.02954E-05 6.14397E-19 5.77253E-19
 -1      3178 8.75306E-05-2.17070E-05-2.81649E-05 8.36218E-06 7.87453E-19 8.24004E-20
 -1      3179 9.04695E-05-2.37190E-05-2.85205E-05 1.18820E-05 6.55339E-19 2.56419E-19
 -1      3180 9.14673E-05-2.48071E-05-2.84872E-05 1.30112E-05 1.06979E-18 2.69628E-19
 -1      3181 8.77617E-05-2.18549E-05-2.80922E-05 1.15871E-05 6.41482E-19 9.81102E-20
 -1      3182 9.23876E-05-2.61861E-05-2.83204E-05 1.42895E-05 1.46236E-18 2.50831E-19
 -1      3183 9.39816E-05-2.80559E-05-2.82168E-05 1.50158E-05 1.73714E-18 2.61288E-19
 -1      3184 8.91830E-05-2.40577E-05-2.78199E-05 1.44764E-05 1.21989E-18 2.42423E-19
 -1      3185 9.53913E-05-3.01428E-05-2.79265E-05 1.60507E-05 9.05147E-19 4.58964E-19
 -1      3186 9.78543E-05-3.29054E-05-2.77970E-05 1.63240E-05 6.46472E-19 3.99164E-19
 -1      3187 9.13591E-05-2.77220E-05-2.72871E-05 1.68278E-05 1.28455E-18 9.63911E-19
 -1      3188 1.00383E-04-3.60016E-05-2.74977E-05 1.70786E-05 5.74804E-19-1.14945E-19
 -1      3189 1.04090E-04-3.98310E-05-2.74925E-05 1.66094E-05 7.83108E-19-2.84596E-19
 -1      3190 9.50179E-05-3.32396E-05-2.65770E-05 1.90023E-05 5.57930E-19 6.98061E-19
 -1      3191 1.08572E-04-4.41502E-05-2.74288E-05 1.64025E-05 8.98068E-19 3.00389E-19
 -1      3192 1.13495E-04-4.85188E-05-2.78561E-05 1.44886E-05 8.12093E-19 6.04711E-19
 -1      3193 1.01732E-04-4.12845E-05-2.60651E-05 2.05230E-05 1.12886E-18-2.50801E-19
 -1      3194 7.91455E-05-3.76965E-05-1.77399E-05 3.39894E-05 3.04508E-19-3.04222E-18
 -1      3195 6.62395E-05-2.95830E-05-1.53113E-05 3.09757E-05-5.41148E-19-3.03195E-18
 -1      3196 9.72595E-05-2.42473E-05-3.12714E-05-6.90604E-06-1.78757E-18-4.01060E-19
 -1      3197 9.72700E-05-2.53094E-05-3.08585E-05-5.79341E-06-1.53297E-18-4.71903E-19
 -1      3198 1.29115E-04-5.60738E-05-3.12920E-05-5.54126E-06-5.64865E-20-2.07764E-18
 -1      3199 1.23913E-04-5.46055E-05-2.94498E-05-1.07370E-05-1.09276E-18-1.39272E-18
 -1      3200 1.16996E-04-5.02924E-05-2.85653E-05-1.37398E-05 4.51349E-19-2.35384E-18
 -1      3201 1.11861E-04-4.61305E-05-2.79788E-05-1.63854E-05 1.14881E-18-2.62479E-18
 -1      3202 1.16193E-04-5.25425E-05-2.75290E-05-1.84112E-05-3.17664E-19-1.60957E-18
 -1      3203 1.07303E-04-4.18461E-05-2.79954E-05-1.69119E-05 1.17037E-18-1.82497E-18
 -1      3204 1.03416E-04-3.79433E-05-2.79743E-05-1.77807E-05 1.20204E-18-2.57102E-18
 -1      3205 1.05347E-04-4.29267E-05-2.69467E-05-2.03526E-05 1.55689E-18-1.31261E-18
 -1      3206 1.00922E-04-3.47515E-05-2.83145E-05-1.71529E-05 1.95373E-18-1.26379E-18
 -1      3207 9.84531E-05-3.18417E-05-2.85183E-05-1.70545E-05 2.77077E-18-1.80762E-19
 -1      3208 9.86537E-05-3.48561E-05-2.74547E-05-1.92845E-05 2.23656E-18 2.36934E-19
 -1      3209 9.75020E-05-3.01542E-05-2.88327E-05-1.62303E-05 2.45708E-18-3.38412E-19
 -1      3210 9.60435E-05-2.80955E-05-2.91017E-05-1.55673E-05 1.75497E-18 1.09602E-18
 -1      3211 9.40066E-05-2.66550E-05-2.88979E-05-1.57018E-05 2.67489E-18 9.61784E-19
 -1      3212 9.54606E-05-2.97006E-05-2.81908E-05-1.74588E-05 1.77381E-18 6.40455E-19
 -1      3213 7.80546E-05-2.35183E-05-2.33704E-05-3.80343E-06 3.46113E-19-5.38639E-19
 -1      3214 7.77959E-05-2.34245E-05-2.33018E-05-3.80776E-06 4.70170E-19-5.45207E-19
 -1      3215 7.76211E-05-2.33430E-05-2.32603E-05-3.79897E-06 5.26220E-19-5.81489E-19
 -1      3216 7.73712E-05-2.32213E-05-2.32054E-05-3.77624E-06 6.21600E-19-4.86457E-19
 -1      3217 7.87749E-05-2.36979E-05-2.36068E-05-4.03364E-06 5.22760E-19-4.43756E-19
 -1      3218 7.89429E-05-2.37386E-05-2.36558E-05-3.76535E-06 1.40152E-19-4.06634E-19
 -1      3219 7.86742E-05-2.36823E-05-2.35697E-05-3.77200E-06 9.45677E-20-7.13464E-19
 -1      3220 7.93947E-05-2.38020E-05-2.38218E-05-3.77741E-06-1.03309E-19-1.35738E-19
 -1      3221 7.91224E-05-2.37589E-05-2.37295E-05-3.76692E-06 1.07406E-19-2.67023E-19
 -1      3222 7.98459E-05-2.39915E-05-2.39387E-05-4.03156E-06-9.82247E-20-1.54265E-19
 -1      3223 7.98508E-05-2.38413E-05-2.40000E-05-3.83763E-06-8.54241E-20-4.36663E-19
 -1      3224 7.95743E-05-2.38091E-05-2.39022E-05-3.80082E-06-5.46853E-20-2.46463E-19
 -1      3225 8.02056E-05-2.40073E-05-2.40858E-05-4.06174E-06 1.90727E-21-3.35428E-19
 -1      3226 8.03117E-05-2.38597E-05-2.41892E-05-3.96254E-06 2.04438E-19-4.69633E-19
 -1      3227 8.00295E-05-2.38365E-05-2.40860E-05-3.89159E-06 4.52591E-20-4.59274E-19
 -1      3228 8.05640E-05-2.39929E-05-2.42454E-05-4.14378E-06 3.13313E-20-7.39451E-19
 -1      3229 8.07791E-05-2.38601E-05-2.43887E-05-4.16668E-06-6.19033E-20 1.06131E-19
 -1      3230 8.04888E-05-2.38440E-05-2.42800E-05-4.05476E-06-2.60467E-20-2.25273E-19
 -1      3231 8.09196E-05-2.39513E-05-2.44154E-05-4.29454E-06-1.18055E-19-3.45104E-19
 -1      3232 8.12565E-05-2.38475E-05-2.45980E-05-4.46273E-06-1.25088E-19 3.05437E-20
 -1      3233 8.09545E-05-2.38352E-05-2.44838E-05-4.30413E-06 7.35651E-20 6.55399E-20
 -1      3234 8.12716E-05-2.38858E-05-2.45943E-05-4.52904E-06-1.15915E-19 1.68195E-19
 -1      3235 8.17507E-05-2.38303E-05-2.48164E-05-4.86080E-06-5.70484E-20-2.27145E-19
 -1      3236 8.14316E-05-2.38164E-05-2.46966E-05-4.65147E-06 2.10007E-20-1.84290E-20
 -1      3237 8.16212E-05-2.38018E-05-2.47801E-05-4.86065E-06-9.10352E-20-1.98922E-19
 -1      3238 8.22727E-05-2.38235E-05-2.50424E-05-5.36637E-06-3.24785E-19-1.05897E-19
 -1      3239 8.19290E-05-2.37991E-05-2.49173E-05-5.10519E-06-5.53208E-19-1.02211E-19
 -1      3240 8.19732E-05-2.37097E-05-2.49704E-05-5.30025E-06-2.69809E-19-4.69533E-20
 -1      3241 8.28402E-05-2.38508E-05-2.52730E-05-5.97652E-06 2.63926E-19 5.28279E-20
 -1      3242 8.24620E-05-2.38028E-05-2.51438E-05-5.66735E-06 2.01976E-19 2.66033E-19
 -1      3243 8.23389E-05-2.36288E-05-2.51620E-05-5.85393E-06-1.21895E-19 2.82324E-19
 -1      3244 8.34776E-05-2.39461E-05-2.55043E-05-6.67457E-06 4.68200E-20-3.76708E-19
 -1      3245 8.30530E-05-2.38569E-05-2.53727E-05-6.32865E-06 4.54623E-19 1.42321E-20
 -1      3246 8.27389E-05-2.35898E-05-2.53500E-05-6.51830E-06 2.84909E-19 8.40612E-19
 -1      3247 8.42140E-05-2.41495E-05-2.57321E-05-7.42506E-06 3.88551E-19-1.87002E-19
 -1      3248 8.37311E-05-2.39998E-05-2.56000E-05-7.06226E-06 1.93680E-19-1.00585E-21
 -1      3249 8.32038E-05-2.36351E-05-2.55295E-05-7.27333E-06 4.39957E-20 6.48504E-19
 -1      3250 8.50781E-05-2.44989E-05-2.59574E-05-8.17864E-06-4.96742E-19-1.37907E-19
 -1      3251 8.45237E-05-2.42706E-05-2.58243E-05-7.82290E-06 9.50712E-20-8.45006E-20
 -1      3252 8.37676E-05-2.38090E-05-2.56982E-05-8.07643E-06 1.91785E-19 8.55294E-19
 -1      3253 8.61142E-05-2.50373E-05-2.61966E-05-8.89571E-06-8.57363E-19-2.95471E-19
 -1      3254 8.54492E-05-2.47020E-05-2.60551E-05-8.57021E-06-1.08242E-18-4.97900E-19
 -1      3255 8.44462E-05-2.41333E-05-2.58673E-05-8.87832E-06-6.35429E-19 5.48064E-19
 -1      3256 8.74462E-05-2.59184E-05-2.65221E-05-9.63152E-06-1.10861E-18-2.44131E-19
 -1      3257 8.65601E-05-2.53414E-05-2.63282E-05-9.33651E-06-6.95177E-19-2.61071E-19
 -1      3258 8.52304E-05-2.46205E-05-2.60744E-05-9.69617E-06-9.74922E-19 8.54610E-19
 -1      3259 8.94918E-05-2.76753E-05-2.70729E-05-1.02661E-05-1.37299E-18 1.24514E-19
 -1      3260 8.82602E-05-2.65616E-05-2.67831E-05-1.01547E-05-1.42026E-18-1.76818E-19
 -1      3261 8.63096E-05-2.55312E-05-2.64485E-05-1.07697E-05-1.34350E-18 3.42254E-19
 -1      3262 9.22497E-05-2.92452E-05-2.76250E-05-8.65381E-06-3.49189E-19-5.72806E-19
 -1      3263 9.13531E-05-2.90345E-05-2.74349E-05-9.58982E-06-6.93508E-19-5.96311E-19
 -1      3264 8.91113E-05-2.83779E-05-2.71187E-05-1.14678E-05-6.58780E-19 3.03873E-20
 -1      3265 9.31663E-05-2.87868E-05-2.76467E-05-8.24928E-06 5.07346E-19 1.54584E-19
 -1      3266 9.25072E-05-2.87483E-05-2.75440E-05-8.24330E-06-1.76183E-19-1.54584E-19
 -1      3267 9.14368E-05-2.90832E-05-2.75510E-05-9.55719E-06-3.51942E-19-2.32590E-19
 -1      3268 9.59369E-05-3.08188E-05-2.78394E-05-8.32433E-06 1.09813E-18 3.49262E-19
 -1      3269 9.44909E-05-2.96211E-05-2.77108E-05-8.59200E-06 1.21090E-18 6.38815E-19
 -1      3270 9.27435E-05-2.89086E-05-2.72664E-05-9.82408E-06 3.00803E-19 5.12878E-19
 -1      3271 9.94917E-05-3.39614E-05-2.80842E-05-7.10762E-06-4.71195E-19 6.02793E-19
 -1      3272 9.77721E-05-3.23509E-05-2.79593E-05-7.96797E-06 1.87386E-19 7.54157E-19
 -1      3273 9.59884E-05-3.17261E-05-2.74582E-05-9.76282E-06 6.41707E-19-9.38188E-20
 -1      3274 1.03541E-04-3.73834E-05-2.84011E-05-4.51916E-06-1.11352E-18 7.83711E-19
 -1      3275 1.01731E-04-3.57719E-05-2.82207E-05-6.03702E-06-1.02659E-18 6.01699E-19
 -1      3276 9.99953E-05-3.54512E-05-2.76906E-05-8.44165E-06-7.43023E-19 1.18824E-20
 -1      3277 1.07720E-04-4.01231E-05-2.90483E-05-4.45586E-07 4.33707E-20 7.71938E-19
 -1      3278 1.06066E-04-3.90645E-05-2.86918E-05-2.59773E-06-5.56706E-19 1.23197E-18
 -1      3279 1.04761E-04-3.93871E-05-2.80972E-05-5.65202E-06-8.76567E-19-2.48055E-20
 -1      3280 1.11040E-04-4.06507E-05-3.02283E-05 4.72604E-06-3.66024E-19 1.72607E-18
 -1      3281 1.10020E-04-4.09928E-05-2.96115E-05 2.21153E-06-1.28352E-19 1.07117E-18
 -1      3282 1.09535E-04-4.20816E-05-2.89630E-05-1.24375E-06-3.46278E-19 2.05366E-18
 -1      3283 1.11468E-04-3.58916E-05-3.20402E-05 9.65653E-06-6.02717E-19 2.23548E-18
 -1      3284 1.12245E-04-3.92016E-05-3.10724E-05 8.07585E-06-6.94038E-19 1.82694E-18
 -1      3285 1.13495E-04-4.23116E-05-3.03703E-05 4.28565E-06-9.05002E-19 1.60343E-18
 -1      3286 1.10205E-04-1.89757E-05-4.04942E-05 5.16646E-06-2.47334E-19 1.16679E-19
 -1      3287 1.11691E-04-2.27346E-05-3.89947E-05 8.59468E-06 7.70800E-20 5.35642E-19
 -1      3288 1.08888E-04-1.85356E-05-3.94227E-05-5.25802E-06 1.11067E-19-3.53319E-19
 -1      3289 1.07785E-04-1.73325E-05-3.99576E-05-7.26820E-07-5.13725E-19-1.84124E-19
 -1      3290 1.15975E-04-3.59194E-05-3.44871E-05-1.21552E-05 2.25602E-19-2.49933E-18
 -1      3291 1.14079E-04-3.15448E-05-3.54422E-05-1.24148E-05 6.13861E-19-1.73140E-18
 -1      3292 1.16924E-04-4.19263E-05-3.21949E-05-7.30682E-06-2.14354E-19-2.80711E-18
 -1      3293 1.16493E-04-3.94679E-05-3.30460E-05-9.64087E-06 2.23670E-20-2.33285E-18
 -1      3294 1.20365E-04-3.99922E-05-3.44964E-05-1.06157E-05 1.57283E-19-2.61622E-18
 -1      3295 1.14449E-04-4.28782E-05-3.06384E-05-9.95907E-07-6.98577E-19-1.88267E-18
 -1      3296 1.15393E-04-4.27357E-05-3.11926E-05-3.74812E-06-5.24371E-19-2.28754E-18
 -1      3297 1.19137E-04-4.49220E-05-3.18192E-05-3.95056E-06-9.64675E-19-3.25600E-18
 -1      3298 1.10214E-04-4.05238E-05-2.97964E-05 4.18089E-06 3.93642E-19-2.57367E-18
 -1      3299 1.11864E-04-4.17733E-05-3.00858E-05 1.93274E-06 4.49225E-19-1.87224E-18
 -1      3300 1.14751E-04-4.43294E-05-3.01802E-05 2.60866E-06 4.45081E-19-2.44774E-18
 -1      3301 1.05751E-04-3.67926E-05-2.94882E-05 7.45567E-06 6.76802E-19-3.14181E-18
 -1      3302 1.07552E-04-3.85889E-05-2.95903E-05 6.03388E-06 5.09894E-19-2.77935E-18
 -1      3303 1.09377E-04-4.08752E-05-2.94167E-05 7.22855E-06 3.30583E-19-2.28943E-18
 -1      3304 1.01927E-04-3.29902E-05-2.94969E-05 8.90729E-06-4.66680E-19-2.55550E-18
 -1      3305 1.03533E-04-3.47755E-05-2.94883E-05 8.30956E-06 9.39346E-21-2.96131E-18
 -1      3306 1.04491E-04-3.63892E-05-2.92426E-05 9.63166E-06 6.17406E-19-3.96370E-18
 -1      3307 9.95155E-05-3.04585E-05-2.95711E-05 9.50571E-06-2.46066E-18-1.89541E-18
 -1      3308 1.00668E-04-3.17843E-05-2.95380E-05 9.25824E-06-1.28041E-18-2.59866E-18
 -1      3309 1.01103E-04-3.27665E-05-2.93194E-05 1.05490E-05-1.58976E-18-3.72182E-18
 -1      3310 9.87935E-05-2.99857E-05-2.94920E-05 1.06821E-05-2.84907E-18-2.95817E-18
 -1      3311 1.24191E-04-5.44366E-05-2.81716E-05 1.37694E-06-1.10601E-18-6.84403E-19
 -1      3312 1.23640E-04-4.93137E-05-2.91651E-05 1.20722E-05-1.09945E-18-1.03200E-18
 -1      3313 8.07874E-05-1.71564E-05-2.72727E-05-3.18166E-06 5.72599E-19-2.20600E-18
 -1      3314 8.06095E-05-1.70930E-05-2.72360E-05 1.67091E-07 7.06532E-19-1.96486E-18
 -1      3315 1.30354E-04-3.48402E-05-4.15747E-05-1.26864E-05 2.07798E-18-2.24522E-18
 -1      3316 1.32996E-04-4.34130E-05-3.85198E-05-9.73950E-06 1.58205E-18-2.51881E-18
 -1      3317 8.13519E-05-1.77962E-05-2.72977E-05 4.19767E-06-4.14182E-20-1.58586E-18
 -1      3318 8.27520E-05-1.87314E-05-2.74000E-05 7.25209E-06-3.64195E-19-1.09475E-18
 -1      3319 7.90498E-05-1.76815E-05-2.62299E-05 2.70202E-06-2.46795E-19-7.39341E-19
 -1      3320 5.05914E-05-1.83366E-05-1.35761E-05 1.90774E-05-1.09850E-19 3.79788E-18
 -1      3321 4.63579E-05-1.46793E-05-1.31749E-05 6.16951E-06 1.83667E-18 6.04898E-18
 -1      3322 1.26636E-04-3.06584E-05-4.14339E-05 1.59629E-05 1.20861E-18-2.26243E-18
 -1      3323 4.60139E-05-1.50288E-05-1.29259E-05-8.02375E-06 4.00362E-18 7.48629E-18
 -1      3324 5.01176E-05-1.89826E-05-1.30490E-05-1.99264E-05 4.05747E-18 2.93285E-18
 -1      3325 7.59814E-05-2.16782E-05-2.32776E-05-2.49687E-06 6.37435E-19-1.05672E-18
 -1      3326 7.58007E-05-2.12705E-05-2.33574E-05-2.01125E-06 8.56393E-19-1.05526E-18
 -1      3327 1.37888E-04-4.35396E-05-4.06106E-05 1.12275E-05 2.81998E-18-6.64815E-19
 -1      3328 8.35492E-05-1.89918E-05-2.76223E-05-9.88200E-06 1.40568E-18-1.30994E-18
 -1      3329 8.18787E-05-1.79882E-05-2.74464E-05-7.04489E-06 9.43611E-19-8.39817E-19
 -1      3330 7.94733E-05-1.78370E-05-2.63534E-05-5.65974E-06 9.25407E-19-1.17563E-18
 -1      3331 8.84764E-05-2.24050E-05-2.82610E-05-1.40316E-05 2.87547E-18 2.36884E-19
 -1      3332 8.60174E-05-2.08879E-05-2.79858E-05-1.24924E-05 1.93927E-18-2.20492E-18
 -1      3333 8.35836E-05-2.06673E-05-2.69568E-05-1.23863E-05 1.43963E-18-2.78771E-19
 -1      3334 6.00402E-05-2.50394E-05-1.44965E-05-2.75329E-05 2.99527E-18 3.70153E-19
 -1      3335 7.41524E-05-3.46987E-05-1.69357E-05-3.43622E-05 2.17545E-18-6.01711E-19
 -1      3336 7.84958E-05-2.36464E-05-2.35041E-05-3.78200E-06 2.55102E-19-5.88923E-19
 -1      3337 7.82313E-05-2.35738E-05-2.34256E-05-3.79462E-06 4.67725E-19-3.36627E-19
 -1      3338 7.91296E-05-2.38471E-05-2.36943E-05-4.04446E-06 2.76577E-19-2.04500E-19
 -1      3339 7.94868E-05-2.39408E-05-2.38069E-05-4.03372E-06 3.21361E-19 1.84093E-19
 -1      3340 7.63853E-05-2.23218E-05-2.31723E-05-3.15833E-06 3.94366E-19-7.69224E-19
 -1      3341 7.61895E-05-2.20316E-05-2.32002E-05-2.86611E-06 4.84802E-19-8.23457E-19
 -1      3342 7.73047E-05-2.19843E-05-2.37134E-05-2.79364E-06 4.44070E-19-8.44836E-19
 -1      3343 9.18144E-05-4.48496E-05-1.96328E-05-3.43741E-05 3.87200E-19-2.41436E-18
 -1      3344 1.08206E-04-5.43645E-05-2.32785E-05-3.07752E-05-1.44774E-18-3.65712E-18
 -1      3345 1.13855E-04-5.36591E-05-2.56329E-05-2.34351E-05-1.36436E-18-2.68122E-18
 -1      3346 9.74514E-05-2.62354E-05-3.05054E-05-5.00968E-06-1.35327E-18-4.28976E-19
 -1      3347 9.72848E-05-2.68730E-05-3.01899E-05-4.23144E-06-1.14586E-18-4.21263E-19
 -1      3348 9.63556E-05-2.64894E-05-2.99428E-05-4.29891E-06-1.07423E-18-5.47530E-19
 -1      3349 1.33763E-04-5.14206E-05-3.57738E-05-3.51492E-06 1.01697E-19-1.89688E-18
 -1      3350 1.32792E-04-5.54840E-05-3.30438E-05 2.94656E-06-4.29710E-19-1.93716E-18
 -1      3351 7.31520E-05-3.12495E-05-1.78885E-05 3.13633E-05-1.35107E-18 2.19577E-18
 -1      3352 6.03197E-05-2.35493E-05-1.52037E-05 2.64555E-05-4.74127E-19 3.77782E-18
 -1      3353 6.17200E-05-2.11045E-05-1.70196E-05 2.01088E-05-7.16855E-19 2.96964E-18
 -1      3354 1.32021E-04-4.41663E-05-3.02172E-05 1.23283E-05-8.37716E-19 3.10861E-19
 -1      3355 1.16096E-04-3.25149E-05-3.56392E-05 6.34673E-06-8.79644E-19 9.19031E-19
 -1      3356 1.19070E-04-4.39559E-05-2.73594E-05 6.31537E-06-6.63015E-19-7.68259E-19
 -1      3357 1.22123E-04-1.92622E-05-4.49381E-05-1.02484E-05 1.83118E-18-2.51717E-18
 -1      3358 1.26176E-04-2.63324E-05-4.32650E-05-1.33705E-05 2.43310E-18-2.51241E-18
 -1      3359 7.46022E-05-1.88289E-05-2.39016E-05 9.84708E-07 1.29183E-18-1.75879E-18
 -1      3360 7.51742E-05-1.78700E-05-2.45509E-05 1.23855E-06 1.27714E-18-1.81905E-18
 -1      3361 7.61515E-05-1.87504E-05-2.45980E-05 1.87449E-07 1.10087E-18-1.76548E-18
 -1      3362 7.48266E-05-1.96314E-05-2.36651E-05-8.89693E-08 1.14477E-18-1.69186E-18
 -1      3363 1.29090E-04-5.85601E-05-3.04796E-05 1.19472E-05-1.72117E-18-1.33567E-18
 -1      3364 1.20447E-04-5.66606E-05-2.72503E-05 2.03709E-05-2.77165E-18-1.62297E-18
 -1      3365 1.28026E-04-5.49159E-05-3.13323E-05 5.68285E-06-1.72760E-18-1.28235E-18
 -1      3366 8.12365E-05-1.60843E-05-2.79355E-05-1.98270E-06-1.61548E-19-1.97909E-18
 -1      3367 8.22759E-05-1.61347E-05-2.83562E-05-2.67984E-06-4.81909E-19-1.98849E-18
 -1      3368 1.07320E-04-5.20991E-05-2.38469E-05 2.73723E-05 5.00199E-19-1.45293E-18
 -1      3369 9.37504E-05-4.49240E-05-2.04666E-05 3.19059E-05 1.33177E-18-2.42561E-18
 -1      3370 1.25371E-04-5.50789E-05-3.01904E-05 6.94216E-06 8.63921E-19 4.17875E-19
 -1      3371 1.27920E-04-5.79684E-05-3.01786E-05 1.03023E-05 2.07814E-19 3.07619E-19
 -1      3372 1.18534E-04-5.63333E-05-2.62956E-05 2.02080E-05 6.46630E-19-6.22377E-19
 -1      3373 1.20341E-04-5.22704E-05-2.88625E-05 1.11159E-05 1.12155E-18 1.01281E-18
 -1      3374 8.33742E-05-1.63103E-05-2.87537E-05-3.28241E-06-6.32874E-19-2.01027E-18
 -1      3375 8.45096E-05-1.65308E-05-2.91453E-05-3.98326E-06-8.49394E-19-2.00819E-18
 -1      3376 8.36635E-05-1.75985E-05-2.82981E-05-3.19879E-06-4.66112E-19-1.85482E-18
 -1      3377 7.74441E-05-1.66152E-05-2.60880E-05 4.08139E-07 7.69772E-19-2.10668E-18
 -1      3378 7.83327E-05-1.63256E-05-2.65812E-05-1.84484E-07 4.99793E-19-2.06384E-18
 -1      3379 7.76635E-05-1.79393E-05-2.55810E-05-1.25669E-07 7.92256E-19-1.81118E-18
 -1      3380 1.16651E-04-1.94749E-05-4.23997E-05-8.82119E-06 9.67153E-19-2.70394E-18
 -1      3381 9.21462E-05-2.53477E-05-2.86097E-05-1.54892E-05 2.64054E-18 1.26610E-18
 -1      3382 9.02645E-05-2.38515E-05-2.85057E-05-1.48836E-05 2.72092E-18 1.30227E-18
 -1      3383 8.85679E-05-2.40238E-05-2.76662E-05-1.56603E-05 2.03519E-18 8.06172E-19
 -1      3384 9.25493E-05-2.67364E-05-2.82223E-05-1.64928E-05 1.78683E-18 1.08104E-18
 -1      3385 1.12693E-04-5.05761E-05-2.68113E-05 1.83995E-05 7.19277E-19 9.89348E-19
 -1      3386 8.87712E-05-3.94941E-05-2.08339E-05 2.95484E-05 1.65388E-18-1.96377E-18
 -1      3387 9.62059E-05-2.48587E-05-3.05720E-05-5.67108E-06-1.48534E-18-5.51081E-19
 -1      3388 7.67864E-05-2.27763E-05-2.31475E-05-3.53819E-06 4.14329E-19-7.75361E-19
 -1      3389 7.65681E-05-2.25633E-05-2.31382E-05-3.37742E-06 4.38906E-19-8.19760E-19
 -1      3390 7.77029E-05-2.26717E-05-2.35892E-05-3.41675E-06 3.86020E-19-8.70912E-19
 -1      3391 7.84221E-05-2.34738E-05-2.35523E-05-3.96206E-06 5.79385E-19-5.74862E-19
 -1      3392 7.71978E-05-2.31040E-05-2.31822E-05-3.72832E-06 5.39537E-19-6.63428E-19
 -1      3393 7.69611E-05-2.29442E-05-2.31462E-05-3.65345E-06 4.59863E-19-7.54969E-19
 -1      3394 1.16831E-04-2.63185E-05-3.95511E-05 1.19473E-05 6.11558E-19 1.52487E-18
 -1      3395 1.11357E-04-2.76968E-05-3.52115E-05 9.78180E-06-1.35843E-19 1.01093E-18
 -1      3396 1.11810E-04-3.21904E-05-3.38888E-05 1.07263E-05 1.61889E-19 2.07629E-18
 -1      3397 1.21845E-04-3.40843E-05-3.87100E-05 7.49644E-06-2.92226E-19 1.26801E-18
 -1      3398 1.14115E-04-3.55917E-05-3.30595E-05 9.54577E-06-1.02067E-19 1.56934E-18
 -1      3399 1.19591E-04-2.99425E-05-3.87270E-05-1.34688E-05 1.79545E-18-2.33982E-18
 -1      3400 1.14202E-04-2.65734E-05-3.79067E-05-1.22870E-05 1.52768E-18-1.40327E-18
 -1      3401 1.11890E-04-2.19586E-05-3.89262E-05-9.77388E-06 1.25806E-18-1.17073E-18
 -1      3402 1.22472E-04-5.58855E-05-2.80752E-05-4.27309E-06-8.89040E-19-4.18646E-19
 -1      3403 1.14720E-04-4.94762E-05-2.82078E-05 2.71621E-06-1.16906E-18-8.98067E-19
 -1      3404 1.19149E-04-5.50758E-05-2.67996E-05-8.66937E-06-9.04419E-19-9.25278E-19
 -1      3405 1.24289E-04-3.13439E-05-4.02139E-05-1.31486E-05 1.71932E-18-2.72543E-18
 -1      3406 9.01451E-05-2.44940E-05-2.82013E-05 1.34306E-05-2.73597E-18 2.15510E-18
 -1      3407 9.25919E-05-2.61437E-05-2.84211E-05 1.40037E-05-2.96415E-18 2.16832E-18
 -1      3408 5.50158E-05-1.53682E-05-1.68861E-05 5.58860E-06-1.53011E-18 3.13662E-18
 -1      3409 4.98728E-05-1.47266E-05-1.46259E-05-6.43077E-07 1.44014E-18 6.29552E-18
 -1      3410 5.46475E-05-1.56517E-05-1.66391E-05-7.37187E-06 1.99688E-18 4.39552E-18
 -1      3411 1.29715E-04-4.57038E-05-3.61219E-05-7.92727E-06 5.72369E-19-2.22891E-18
 -1      3412 8.49888E-05-2.06520E-05-2.76546E-05 1.02149E-05-9.19308E-19-5.38952E-19
 -1      3413 8.73692E-05-2.22287E-05-2.78484E-05 1.21567E-05-1.79107E-18 1.69093E-18
 -1      3414 8.83759E-05-2.47260E-05-2.72885E-05 1.43055E-05-2.03387E-18 2.55235E-18
 -1      3415 8.25280E-05-2.03985E-05-2.65959E-05 1.00190E-05-9.47354E-19-4.67446E-19
 -1      3416 1.08689E-04-5.55193E-05-2.23980E-05-2.61781E-05-1.48771E-18 9.42457E-19
 -1      3417 1.12588E-04-5.57056E-05-2.44205E-05-1.85726E-05-1.15869E-18-9.00396E-19
 -1      3418 1.01026E-04-5.06981E-05-2.13852E-05-2.77638E-05-1.39522E-18 1.24932E-18
 -1      3419 1.14167E-04-5.36056E-05-2.58633E-05 2.44148E-05-1.84775E-18-2.20243E-18
 -1      3420 1.05418E-04-4.76861E-05-2.47516E-05 2.60239E-05-1.90365E-18-2.78978E-18
 -1      3421 1.17853E-04-5.30278E-05-2.77203E-05 1.72925E-05-1.87065E-18-1.08175E-18
 -1      3422 8.64780E-05-3.86660E-05-2.01407E-05-3.11141E-05 1.00749E-18-8.37239E-19
 -1      3423 6.19767E-05-2.24875E-05-1.64323E-05-2.20410E-05 3.95506E-18 1.96940E-18
 -1      3424 8.37900E-05-3.59681E-05-2.01423E-05 3.15395E-05-1.77692E-18-3.95114E-19
 -1      3425 7.87223E-05-3.05737E-05-2.05572E-05 2.73782E-05-2.00389E-18 2.28964E-19
 -1      3426 9.29507E-05-4.00022E-05-2.26823E-05 2.87476E-05-2.09825E-18-2.42077E-18
 -1      3427 6.17181E-05-2.53939E-05-1.52066E-05 2.76465E-05-1.16954E-18-2.67969E-18
 -1      3428 5.76036E-05-2.09114E-05-1.54946E-05 2.17301E-05-1.38765E-18-2.09927E-18
 -1      3429 7.03473E-05-2.79525E-05-1.82069E-05 2.69584E-05-5.06579E-19-1.80254E-18
 -1      3430 9.38367E-05-2.84770E-05-2.80495E-05 1.51481E-05-3.17163E-18 1.12730E-18
 -1      3431 9.45908E-05-2.75844E-05-2.87450E-05 1.37978E-05-2.87723E-18 1.09422E-18
 -1      3432 9.61888E-05-2.86423E-05-2.89224E-05 1.34077E-05-2.39317E-18 5.89743E-19
 -1      3433 7.83682E-05-3.97329E-05-1.60996E-05-3.43123E-05-3.73753E-20 1.99984E-18
 -1      3434 8.87555E-05-4.43955E-05-1.89573E-05-3.15051E-05-2.65968E-19 2.26486E-18
 -1      3435 7.43563E-05-3.48073E-05-1.67077E-05-3.12903E-05 7.22096E-20 1.45811E-18
 -1      3436 4.19878E-05-1.42626E-05-1.12478E-05 5.95266E-06-1.86014E-18-1.67268E-18
 -1      3437 4.53464E-05-1.43415E-05-1.30342E-05-7.34132E-07-3.26608E-18-2.61627E-19
 -1      3438 4.83832E-05-1.61666E-05-1.35112E-05 1.24727E-05-1.81018E-18-1.56839E-18
 -1      3439 7.92732E-05-1.61865E-05-2.70525E-05-7.28391E-07 3.60374E-19-2.04250E-18
 -1      3440 8.02272E-05-1.60707E-05-2.75043E-05-1.39284E-06 7.64589E-20-2.02721E-18
 -1      3441 8.15473E-05-1.74083E-05-2.74729E-05-2.08048E-06-7.85842E-20-1.81124E-18
 -1      3442 7.95667E-05-1.75276E-05-2.65725E-05-1.02490E-06 4.12623E-19-1.85697E-18
 -1      3443 7.54411E-05-2.08272E-05-2.34131E-05-1.51933E-06 8.99076E-19-1.39734E-18
 -1      3444 7.52524E-05-2.02547E-05-2.35592E-05-7.79445E-07 9.15407E-19-1.50740E-18
 -1      3445 7.59715E-05-1.98900E-05-2.40314E-05-6.27992E-07 8.58649E-19-1.67461E-18
 -1      3446 7.67406E-05-2.10735E-05-2.38622E-05-1.87605E-06 6.82611E-19-1.19690E-18
 -1      3447 1.10921E-04-5.11256E-05-2.55432E-05 2.17259E-05 6.71221E-19 3.57256E-19
 -1      3448 5.06333E-05-1.75173E-05-1.39401E-05-1.45660E-05-2.73568E-18-6.30616E-19
 -1      3449 5.33922E-05-2.08133E-05-1.33557E-05-2.19413E-05-2.48702E-18-1.56341E-18
 -1      3450 1.15849E-04-1.67214E-05-4.41021E-05 1.87427E-06 2.43522E-19-5.19231E-19
 -1      3451 6.09756E-05-2.48877E-05-1.52504E-05-2.48403E-05-1.90588E-18-7.99123E-19
 -1      3452 8.82696E-05-1.78290E-05-3.01995E-05-5.77262E-06-1.23602E-18-1.52101E-18
 -1      3453 8.96446E-05-1.84550E-05-3.05288E-05-6.39876E-06-1.49314E-18-1.40004E-18
 -1      3454 1.33840E-04-5.74519E-05-3.26509E-05-3.62892E-06 1.47852E-18-1.89471E-18
 -1      3455 9.11363E-05-2.02872E-05-3.03466E-05-6.18474E-06-1.49008E-18-1.05189E-18
 -1      3456 9.11008E-05-1.92198E-05-3.08155E-05-6.81843E-06-1.61160E-18-1.05786E-18
 -1      3457 9.26437E-05-2.01312E-05-3.11022E-05-7.33247E-06-1.82837E-18-9.27310E-19
 -1      3458 9.68141E-05-2.26235E-05-3.18157E-05-8.10464E-06-2.11618E-18-4.16065E-19
 -1      3459 9.55968E-05-2.22284E-05-3.14529E-05-7.63837E-06-1.96202E-18-6.72510E-19
 -1      3460 1.35828E-04-5.41642E-05-3.55571E-05 4.68726E-06 2.58884E-18-1.64420E-18
 -1      3461 9.44641E-05-2.15476E-05-3.12591E-05-7.36907E-06-1.83028E-18-8.13299E-19
 -1      3462 9.53953E-05-2.55655E-05-2.99227E-05-4.77353E-06-1.20623E-18-6.61437E-19
 -1      3463 9.53849E-05-2.62399E-05-2.96442E-05-4.18676E-06-1.01870E-18-7.27190E-19
 -1      3464 6.51769E-05-2.43729E-05-1.74059E-05-2.24379E-05-2.23903E-18-1.60497E-18
 -1      3465 6.87800E-05-2.88069E-05-1.66987E-05-2.76237E-05-1.47643E-18-3.89953E-19
 -1      3466 7.73951E-05-3.35004E-05-1.86939E-05-2.75361E-05-6.46154E-19 6.74132E-19
 -1      3467 8.09799E-05-3.26362E-05-2.04548E-05-2.85095E-05 1.65198E-18 4.26269E-19
 -1      3468 9.51619E-05-4.24376E-05-2.27486E-05-2.93117E-05 1.33659E-18-2.09064E-18
 -1      3469 1.25935E-04-5.16069E-05-3.20985E-05 4.56615E-07-1.53751E-18-2.57970E-18
 -1      3470 1.23198E-04-5.28854E-05-3.00864E-05 7.51761E-06-2.05903E-18-1.68368E-18
 -1      3471 9.52554E-05-2.76003E-05-2.89873E-05-3.13910E-06-8.77060E-19-5.99889E-19
 -1      3472 9.50679E-05-2.78413E-05-2.88164E-05-2.89586E-06-8.63272E-19-6.10550E-19
 -1      3473 9.49301E-05-2.80379E-05-2.86621E-05-2.73893E-06-7.27757E-19-6.40789E-19
 -1      3474 9.47156E-05-2.81574E-05-2.85277E-05-2.60189E-06-5.67020E-19-5.07155E-19
 -1      3475 9.42776E-05-2.76078E-05-2.85741E-05-3.09895E-06-7.57688E-19-4.50830E-19
 -1      3476 9.45345E-05-2.82447E-05-2.84056E-05-2.51913E-06-7.33024E-19-4.89331E-19
 -1      3477 9.43089E-05-2.82806E-05-2.82991E-05-2.45225E-06-7.80267E-19-7.60239E-19
 -1      3478 9.39602E-05-2.79396E-05-2.82965E-05-2.84066E-06-6.72848E-19-5.31294E-19
 -1      3479 9.41042E-05-2.82923E-05-2.82021E-05-2.41698E-06-6.99747E-19-8.94353E-19
 -1      3480 9.38754E-05-2.82698E-05-2.81168E-05-2.39162E-06-6.53329E-19-8.86800E-19
 -1      3481 9.35766E-05-2.80694E-05-2.80766E-05-2.70618E-06-8.65373E-19-6.48908E-19
 -1      3482 9.36583E-05-2.82287E-05-2.80395E-05-2.38215E-06-3.93912E-19-7.69495E-19
 -1      3483 9.34299E-05-2.81648E-05-2.79703E-05-2.37630E-06-2.99612E-19-2.82679E-19
 -1      3484 9.31572E-05-2.80568E-05-2.79021E-05-2.64754E-06-4.86052E-19-4.88485E-19
 -1      3485 9.32066E-05-2.80858E-05-2.79081E-05-2.37556E-06-5.99834E-19-4.22617E-21
 -1      3486 9.29797E-05-2.79913E-05-2.78512E-05-2.37239E-06-5.84650E-19 3.36667E-19
 -1      3487 9.27192E-05-2.79427E-05-2.77629E-05-2.62600E-06-2.33722E-19-3.29075E-19
 -1      3488 9.27522E-05-2.78838E-05-2.78007E-05-2.36699E-06-5.45699E-19 4.22599E-19
 -1      3489 9.25267E-05-2.77658E-05-2.77533E-05-2.35343E-06-3.21092E-19 3.98260E-19
 -1      3490 9.22704E-05-2.77537E-05-2.76512E-05-2.61097E-06-4.46325E-19-2.81114E-19
 -1      3491 9.22947E-05-2.76351E-05-2.77119E-05-2.33260E-06-4.75460E-19 1.27457E-19
 -1      3492 9.20695E-05-2.74974E-05-2.76721E-05-2.29807E-06-6.57102E-19-1.05759E-19
 -1      3493 9.18129E-05-2.75064E-05-2.75607E-05-2.57816E-06-5.22835E-19-8.12125E-20
 -1      3494 9.18310E-05-2.73463E-05-2.76377E-05-2.25266E-06-4.55090E-19 4.67166E-21
 -1      3495 9.16048E-05-2.71911E-05-2.76039E-05-2.18809E-06-5.37754E-19 6.23684E-20
 -1      3496 9.13441E-05-2.72097E-05-2.74865E-05-2.50749E-06-2.79533E-19 1.06493E-19
 -1      3497 9.13563E-05-2.70202E-05-2.75747E-05-2.10980E-06-5.16615E-19 3.11547E-20
 -1      3498 9.11278E-05-2.68484E-05-2.75459E-05-2.00685E-06-6.51245E-19 1.42983E-19
 -1      3499 9.08586E-05-2.68678E-05-2.74244E-05-2.38142E-06-7.34875E-19 1.15865E-19
 -1      3500 9.08651E-05-2.66577E-05-2.75203E-05-1.88749E-06-8.33447E-19 6.82208E-19
 -1      3501 9.06334E-05-2.64701E-05-2.74957E-05-1.73790E-06-7.08703E-19 8.32025E-19
 -1      3502 9.03489E-05-2.64815E-05-2.73710E-05-2.18343E-06-4.11986E-19 4.13780E-19
 -1      3503 9.03521E-05-2.62592E-05-2.74721E-05-1.56863E-06-8.82936E-19 8.24291E-19
 -1      3504 9.01176E-05-2.60572E-05-2.74507E-05-1.36370E-06-7.30979E-19 6.41454E-19
 -1      3505 8.98060E-05-2.60499E-05-2.73227E-05-1.89647E-06-8.78978E-19 1.12568E-18
 -1      3506 8.98133E-05-2.58266E-05-2.74275E-05-1.13449E-06-1.27416E-19 7.02395E-19
 -1      3507 8.95786E-05-2.56136E-05-2.74087E-05-8.64871E-07 2.43860E-19 7.43047E-19
 -1      3508 8.92211E-05-2.55728E-05-2.72758E-05-1.50151E-06-5.58676E-19 1.66968E-18
 -1      3509 8.92489E-05-2.53657E-05-2.73838E-05-5.63926E-07-3.23346E-19 6.87253E-19
 -1      3510 8.90208E-05-2.51483E-05-2.73669E-05-2.19884E-07-1.46316E-19 2.87173E-19
 -1      3511 8.85867E-05-2.50524E-05-2.72261E-05-9.76186E-07-3.98250E-20 1.20916E-18
 -1      3512 8.86672E-05-2.48893E-05-2.73385E-05 1.66371E-07 4.68947E-19 1.64715E-19
 -1      3513 8.84590E-05-2.46788E-05-2.73239E-05 5.93174E-07 8.23639E-19 1.73212E-19
 -1      3514 8.79004E-05-2.44968E-05-2.71690E-05-2.93605E-07-4.39936E-21 5.71590E-19
 -1      3515 8.80933E-05-2.44205E-05-2.72920E-05 1.07774E-06 2.97877E-19 2.26578E-19
 -1      3516 8.79278E-05-2.42341E-05-2.72833E-05 1.58874E-06 2.65525E-21 2.56286E-19
 -1      3517 8.71730E-05-2.39256E-05-2.71012E-05 5.76950E-07 5.57746E-19 5.06864E-19
 -1      3518 8.75833E-05-2.39954E-05-2.72558E-05 2.17297E-06 5.63375E-19 2.59831E-19
 -1      3519 8.74873E-05-2.38491E-05-2.72652E-05 2.75098E-06 1.19521E-19 2.61555E-19
 -1      3520 8.64454E-05-2.33787E-05-2.70289E-05 1.66018E-06 1.65916E-20 4.26154E-19
 -1      3521 8.72306E-05-2.36466E-05-2.72705E-05 3.38824E-06-7.67073E-19 3.77603E-19
 -1      3522 8.71958E-05-2.35120E-05-2.73239E-05 3.98284E-06-1.20984E-18 8.73867E-20
 -1      3523 8.58184E-05-2.29197E-05-2.69876E-05 2.93508E-06-1.43840E-19-3.24978E-19
 -1      3524 8.70748E-05-2.32911E-05-2.74108E-05 4.51528E-06-1.27667E-18 2.59702E-19
 -1      3525 8.69677E-05-2.29529E-05-2.75305E-05 5.07209E-06-7.19303E-19 1.97822E-19
 -1      3526 8.54444E-05-2.25681E-05-2.70635E-05 4.22422E-06-9.48372E-19-2.66597E-19
 -1      3527 8.67117E-05-2.23914E-05-2.76862E-05 5.44254E-06-8.73503E-21 3.76592E-19
 -1      3528 8.63426E-05-2.14654E-05-2.78140E-05 6.12319E-06 5.34795E-19 3.82210E-19
 -1      3529 8.51681E-05-2.18551E-05-2.73243E-05 5.16673E-06-4.31987E-19 4.42072E-19
 -1      3530 8.53863E-05-2.02304E-05-2.78129E-05 7.34567E-06 7.34245E-19-7.42213E-20
 -1      3531 8.50095E-05-1.95904E-05-2.78103E-05 8.91917E-06 4.32384E-19-3.14620E-19
 -1      3532 8.40192E-05-1.96721E-05-2.75309E-05 6.33330E-06 4.08720E-19 2.87250E-19
 -1      3533 8.50815E-05-1.97322E-05-2.76411E-05 1.10252E-05 3.08002E-19-3.66368E-19
 -1      3534 8.56578E-05-2.05286E-05-2.75430E-05 1.26353E-05 7.87317E-19-3.34313E-19
 -1      3535 8.28434E-05-1.77821E-05-2.72240E-05 1.01317E-05 6.62380E-19-2.46592E-19
 -1      3536 8.61610E-05-2.17495E-05-2.74028E-05 1.41190E-05 1.35026E-18-5.55865E-21
 -1      3537 8.70609E-05-2.32962E-05-2.71959E-05 1.52341E-05 1.99003E-18 4.63261E-19
 -1      3538 8.38066E-05-1.96711E-05-2.69701E-05 1.36744E-05 1.13195E-18-1.60407E-19
 -1      3539 8.71662E-05-2.47254E-05-2.67461E-05 1.65069E-05 1.85572E-18-1.82680E-19
 -1      3540 8.85676E-05-2.68679E-05-2.63645E-05 1.76340E-05 1.37288E-18 2.84983E-19
 -1      3541 8.42851E-05-2.24222E-05-2.63491E-05 1.59992E-05 1.62759E-18-1.45405E-19
 -1      3542 8.88792E-05-2.88888E-05-2.56861E-05 1.93403E-05 5.90408E-19 5.01741E-19
 -1      3543 9.14941E-05-3.22325E-05-2.52730E-05 2.06202E-05 1.50455E-19-4.99683E-20
 -1      3544 8.44655E-05-2.58427E-05-2.51070E-05 1.89835E-05 8.53649E-19-3.04813E-19
 -1      3545 1.04449E-04-4.58686E-05-2.46475E-05 2.39331E-05 1.31985E-18-8.40025E-19
 -1      3546 7.85680E-05-2.23332E-05-2.41061E-05-3.10883E-06 2.93360E-19-1.12594E-18
 -1      3547 7.83575E-05-2.18774E-05-2.41963E-05-2.70336E-06 3.33629E-19-1.20757E-18
 -1      3548 1.00898E-04-4.24059E-05-2.48969E-05-2.42967E-05 2.13571E-18-1.76020E-18
 -1      3549 9.64544E-05-3.74306E-05-2.51333E-05-2.35803E-05 2.47413E-18-8.61333E-19
 -1      3550 9.48613E-05-3.38599E-05-2.60036E-05-2.11169E-05 3.38055E-18-4.17488E-19
 -1      3551 9.23356E-05-3.04667E-05-2.64873E-05-1.99654E-05 3.64294E-18 5.96523E-19
 -1      3552 8.83846E-05-3.26616E-05-2.39235E-05-2.43754E-05 3.53201E-18-8.12477E-19
 -1      3553 7.99024E-05-2.40471E-05-2.39364E-05-4.18734E-06 3.71766E-19-3.75019E-19
 -1      3554 7.97273E-05-2.39469E-05-2.39047E-05-4.16316E-06 5.49765E-19-4.82197E-19
 -1      3555 1.23009E-04-3.65971E-05-3.27841E-05 6.11600E-06-7.69529E-19 7.66353E-19
 -1      3556 8.10065E-05-2.42009E-05-2.43418E-05-4.24888E-06-8.72573E-20-4.17715E-19
 -1      3557 8.08277E-05-2.42077E-05-2.42682E-05-4.21995E-06 5.68470E-20-2.39740E-19
 -1      3558 8.07366E-05-2.42335E-05-2.42124E-05-4.20445E-06 6.65562E-20-1.83937E-19
 -1      3559 8.05577E-05-2.42215E-05-2.41459E-05-4.19584E-06 5.66044E-20-5.71840E-20
 -1      3560 8.15279E-05-2.44329E-05-2.44700E-05-4.38359E-06 8.53839E-20-3.04775E-20
 -1      3561 8.15209E-05-2.40295E-05-2.46350E-05-4.51480E-06-2.89493E-19-1.87031E-19
 -1      3562 8.13448E-05-2.40681E-05-2.45510E-05-4.41910E-06-1.12283E-19-2.41334E-19
 -1      3563 8.17586E-05-2.38963E-05-2.47935E-05-4.76752E-06-1.90055E-19 2.22386E-19
 -1      3564 8.15844E-05-2.39480E-05-2.47058E-05-4.62731E-06-2.41026E-19 1.87644E-19
 -1      3565 8.20075E-05-2.40530E-05-2.48371E-05-4.74219E-06-4.54998E-19-2.03174E-19
 -1      3566 8.19810E-05-2.37380E-05-2.49561E-05-5.11879E-06-6.33288E-20-3.16671E-20
 -1      3567 8.18073E-05-2.37990E-05-2.48658E-05-4.92782E-06-1.12362E-19 3.17806E-20
 -1      3568 8.21207E-05-2.38475E-05-2.49732E-05-5.01381E-06-1.05718E-19-1.16418E-19
 -1      3569 8.21910E-05-2.35664E-05-2.51188E-05-5.58064E-06-4.16932E-19 9.89985E-21
 -1      3570 8.20139E-05-2.36292E-05-2.50278E-05-5.33412E-06-7.86718E-20 1.51348E-22
 -1      3571 8.22029E-05-2.36109E-05-2.51094E-05-5.38667E-06-1.81787E-19-1.54838E-19
 -1      3572 8.23993E-05-2.34040E-05-2.52766E-05-6.16118E-06-2.09055E-19 5.97666E-19
 -1      3573 8.22110E-05-2.34552E-05-2.51870E-05-5.85735E-06-5.07428E-19 2.16436E-19
 -1      3574 8.22556E-05-2.33579E-05-2.52400E-05-5.87500E-06-5.37791E-19 2.02545E-19
 -1      3575 8.26287E-05-2.32886E-05-2.54229E-05-6.85955E-06-9.32850E-20 1.17216E-18
 -1      3576 8.24160E-05-2.33072E-05-2.53375E-05-6.50247E-06-8.35132E-21 6.67163E-19
 -1      3577 8.22908E-05-2.31170E-05-2.53580E-05-6.48981E-06-1.69391E-19 1.44754E-19
 -1      3578 8.29157E-05-2.32743E-05-2.55510E-05-7.65663E-06 2.95068E-19 2.99819E-19
 -1      3579 8.26618E-05-2.32324E-05-2.54728E-05-7.26030E-06 3.02494E-19 6.91705E-19
 -1      3580 8.23378E-05-2.29366E-05-2.54552E-05-7.23215E-06 2.71665E-19 8.29129E-19
 -1      3581 8.33019E-05-2.34190E-05-2.56612E-05-8.50217E-06 1.37654E-19 9.17529E-19
 -1      3582 8.29951E-05-2.32915E-05-2.55896E-05-8.09300E-06-1.83164E-19 6.77125E-19
 -1      3583 8.24485E-05-2.28858E-05-2.55268E-05-8.07743E-06 1.54450E-19 8.68478E-19
 -1      3584 8.37977E-05-2.37401E-05-2.57812E-05-9.31903E-06-7.73655E-19 4.57310E-19
 -1      3585 8.34508E-05-2.35298E-05-2.57017E-05-8.92082E-06-1.40087E-20 9.19290E-19
 -1      3586 8.26841E-05-2.30292E-05-2.55859E-05-8.94846E-06-1.47661E-19 8.68596E-19
 -1      3587 8.43533E-05-2.41581E-05-2.59838E-05-1.00632E-05-1.31441E-18 4.73478E-19
 -1      3588 8.39714E-05-2.39160E-05-2.58638E-05-9.66725E-06-9.30122E-19 3.46119E-19
 -1      3589 8.30280E-05-2.33263E-05-2.56953E-05-9.71769E-06-7.34887E-19 6.04596E-19
 -1      3590 8.50311E-05-2.47294E-05-2.64825E-05-1.11940E-05-1.06504E-18-9.56088E-20
 -1      3591 8.43049E-05-2.42225E-05-2.61701E-05-1.05895E-05-1.28888E-18 2.38757E-19
 -1      3592 8.31536E-05-2.34751E-05-2.59655E-05-1.03918E-05-1.21930E-18 1.71736E-19
 -1      3593 8.68722E-05-2.82193E-05-2.74701E-05-1.41179E-05-5.66242E-19-2.13029E-19
 -1      3594 8.50439E-05-2.53569E-05-2.68938E-05-1.33459E-05-9.96111E-19-2.62368E-19
 -1      3595 8.19892E-05-2.29354E-05-2.66116E-05-1.24373E-05-9.88382E-19-5.62006E-19
 -1      3596 9.13746E-05-2.90490E-05-2.68624E-05-1.05468E-05-7.01343E-19 3.98953E-19
 -1      3597 9.10666E-05-3.06511E-05-2.74234E-05-1.14935E-05-3.74389E-19 4.47233E-19
 -1      3598 8.61956E-05-3.07236E-05-2.71070E-05-1.81529E-05-9.44442E-19-2.14299E-19
 -1      3599 9.28249E-05-2.91731E-05-2.67095E-05-1.13939E-05 7.38242E-19 1.70889E-19
 -1      3600 9.16323E-05-2.81957E-05-2.65326E-05-1.10745E-05-2.42675E-19 1.18161E-19
 -1      3601 9.21656E-05-2.87107E-05-2.57950E-05-1.21686E-05-2.96462E-20 5.39560E-19
 -1      3602 9.59154E-05-3.23882E-05-2.70497E-05-1.10693E-05 3.76453E-19-6.31040E-20
 -1      3603 9.41270E-05-3.05878E-05-2.69239E-05-1.13683E-05 1.12081E-18 5.20925E-20
 -1      3604 9.29263E-05-3.00290E-05-2.63220E-05-1.25651E-05 6.90226E-19-3.03661E-19
 -1      3605 1.00091E-04-3.65905E-05-2.72094E-05-1.00656E-05-1.31697E-18-3.54669E-19
 -1      3606 9.78405E-05-3.43515E-05-2.70984E-05-1.08702E-05-7.25874E-19-3.75977E-19
 -1      3607 9.55746E-05-3.33615E-05-2.65695E-05-1.26134E-05-4.70103E-20 5.58512E-20
 -1      3608 1.05420E-04-4.12228E-05-2.76212E-05-7.67773E-06-1.41909E-18 4.42641E-19
 -1      3609 1.02859E-04-3.89826E-05-2.73346E-05-9.19114E-06-1.15780E-18-1.57747E-19
 -1      3610 1.00038E-04-3.81435E-05-2.66799E-05-1.18913E-05-1.21456E-18 9.95753E-19
 -1      3611 1.11195E-04-4.46880E-05-2.88865E-05-2.93269E-06-4.72221E-19 5.93717E-19
 -1      3612 1.08954E-04-4.34858E-05-2.80899E-05-5.28235E-06-1.06464E-18 1.70677E-19
 -1      3613 1.06660E-04-4.36946E-05-2.73322E-05-9.11732E-06-1.04437E-18-1.47119E-19
 -1      3614 1.23767E-04-3.70449E-05-3.73373E-05-1.32033E-05 1.08899E-18-2.88452E-18
 -1      3615 1.07824E-04-4.02902E-05-2.88428E-05 1.07685E-05 1.38771E-18-1.35438E-18
 -1      3616 1.10484E-04-4.28688E-05-2.90133E-05 9.37612E-06 1.34830E-19-9.99268E-19
 -1      3617 1.02660E-04-3.50787E-05-2.89065E-05 1.18783E-05-3.89946E-19-2.27602E-18
 -1      3618 1.04924E-04-3.75839E-05-2.88645E-05 1.13409E-05 1.05260E-18-1.56800E-18
 -1      3619 1.05294E-04-3.91801E-05-2.84189E-05 1.34662E-05 1.24061E-18-2.63497E-19
 -1      3620 8.36025E-05-2.23543E-05-2.62046E-05-1.51569E-05 1.97513E-18 6.95454E-19
 -1      3621 8.02518E-05-2.04273E-05-2.57421E-05-1.27339E-05 1.41587E-18-3.96077E-19
 -1      3622 1.34450E-04-3.78179E-05-4.20226E-05 1.49758E-05 3.26214E-18 3.77988E-19
 -1      3623 9.42872E-05-2.24240E-05-3.07875E-05-6.55984E-06-1.62493E-18-7.20530E-19
 -1      3624 9.34222E-05-4.14356E-05-2.25277E-05 2.78451E-05 2.09858E-18-1.49885E-18
 -1      3625 8.24658E-05-3.42534E-05-2.01318E-05 2.92052E-05 1.14225E-18-1.45203E-18
 -1      3626 9.75560E-05-4.14675E-05-2.39130E-05 2.46452E-05 1.91932E-18-8.11795E-19
 -1      3627 6.04157E-05-1.87862E-05-1.74886E-05-1.70717E-05 3.30462E-18 3.85585E-18
 -1      3628 6.85623E-05-2.44402E-05-1.87809E-05-2.37377E-05 2.06722E-18 2.28466E-18
 -1      3629 1.07133E-04-4.79570E-05-2.49906E-05-2.47765E-05 6.91311E-19-2.22946E-18
 -1      3630 1.37361E-04-4.65910E-05-3.89581E-05 1.01353E-05 3.82795E-18-6.31887E-19
 -1      3631 7.52289E-05-1.71338E-05-2.49271E-05 1.21614E-06-7.72433E-19-3.08426E-19
 -1      3632 7.63097E-05-1.78204E-05-2.50161E-05 5.48842E-06-1.72618E-18 7.68218E-19
 -1      3633 8.57084E-05-1.68803E-05-2.95093E-05-4.56687E-06-9.29916E-19-1.93379E-18
 -1      3634 8.69510E-05-1.72864E-05-2.98708E-05-5.24462E-06-1.12879E-18-1.65471E-18
 -1      3635 8.84369E-05-1.90005E-05-2.97403E-05-5.33756E-06-1.09426E-18-1.45207E-18
 -1      3636 6.79640E-05-2.25063E-05-1.94296E-05 2.03841E-05-2.18017E-18 3.43789E-18
 -1      3637 6.09026E-05-1.75240E-05-1.81442E-05 1.38648E-05-1.85934E-18 2.54020E-18
 -1      3638 1.19815E-04-4.77530E-05-3.08466E-05 9.00066E-07-6.59640E-19-2.63335E-18
 -1      3639 1.21628E-04-4.72321E-05-3.19204E-05-2.66236E-06-1.27158E-18-3.23982E-18
 -1      3640 4.99840E-05-1.50550E-05-1.44395E-05-8.20462E-06-2.45896E-18 1.52042E-19
 -1      3641 5.68167E-05-1.79766E-05-1.64922E-05-1.33678E-05-1.77085E-18-1.02094E-18
 -1      3642 5.18713E-05-1.48837E-05-1.56449E-05-1.30390E-06-2.02441E-18-2.50828E-19
 -1      3643 1.18505E-04-3.89352E-05-3.08221E-05 5.05269E-06-1.15069E-18 3.13826E-19
 -1      3644 9.72276E-05-2.91484E-05-2.91854E-05 1.25348E-05-1.71648E-18 1.00543E-18
 -1      3645 9.82852E-05-2.98587E-05-2.93091E-05 1.17586E-05-1.70872E-18-1.50065E-18
 -1      3646 9.93765E-05-3.12313E-05-2.91849E-05 1.18702E-05-1.73343E-18-1.01230E-18
 -1      3647 9.74060E-05-3.04912E-05-2.86886E-05 1.38566E-05-2.08700E-18 7.71728E-19
 -1      3648 8.12692E-05-2.41320E-05-2.44835E-05-4.34689E-06-1.67914E-20-4.19638E-19
 -1      3649 8.10914E-05-2.41555E-05-2.44043E-05-4.28856E-06-3.08572E-20-4.43542E-19
 -1      3650 8.17053E-05-2.43484E-05-2.45818E-05-4.44281E-06-1.25363E-20-3.90874E-19
 -1      3651 8.18672E-05-2.42210E-05-2.47054E-05-4.55695E-06-2.75215E-19-1.34485E-19
 -1      3652 9.48543E-05-2.36846E-05-3.05061E-05-6.01222E-06-1.48626E-18-6.58270E-19
 -1      3653 9.50459E-05-2.46991E-05-3.01583E-05-5.23242E-06-1.32687E-18-6.08670E-19
 -1      3654 9.40797E-05-2.44287E-05-2.98434E-05-5.08322E-06-1.20661E-18-5.01431E-19
 -1      3655 9.31414E-05-2.23114E-05-3.03482E-05-6.05513E-06-1.44389E-18-7.23180E-19
 -1      3656 7.71859E-05-1.80908E-05-2.52401E-05-8.32785E-06 9.43380E-19-1.07064E-18
 -1      3657 7.55925E-05-1.73017E-05-2.50184E-05-4.30383E-06 9.71317E-19-1.54624E-18
 -1      3658 7.29701E-05-1.72221E-05-2.37709E-05-1.58804E-06-1.15493E-19 2.61738E-19
 -1      3659 7.62421E-05-1.95355E-05-2.43236E-05-1.18601E-05 2.02777E-18-8.16768E-19
 -1      3660 1.12371E-04-4.24224E-05-2.90114E-05 4.21518E-06-8.13787E-19-3.11867E-19
 -1      3661 9.54477E-05-2.68281E-05-2.93999E-05-3.79421E-06-8.54500E-19-6.74424E-19
 -1      3662 9.53174E-05-2.72449E-05-2.91820E-05-3.40157E-06-8.48411E-19-6.76168E-19
 -1      3663 9.44777E-05-2.69873E-05-2.89244E-05-3.53723E-06-8.63876E-19-5.20747E-19
 -1      3664 1.13101E-04-4.42522E-05-2.91001E-05 1.19093E-06-4.06893E-19 1.64324E-19
 -1      3665 7.76614E-05-1.90719E-05-2.51189E-05-5.91299E-07 8.02239E-19-1.65042E-18
 -1      3666 7.86390E-05-1.88099E-05-2.56412E-05-9.33800E-07 5.61137E-19-1.73189E-18
 -1      3667 8.37567E-05-1.87482E-05-2.78707E-05-3.10701E-06-3.44406E-19-1.64963E-18
 -1      3668 8.48525E-05-1.89241E-05-2.82640E-05-3.63115E-06-5.51268E-19-1.71633E-18
 -1      3669 7.53889E-05-2.73697E-05-2.04015E-05-2.51354E-05 2.24695E-18 1.21232E-18
 -1      3670 8.43003E-05-3.08874E-05-2.27109E-05-2.43448E-05 2.73168E-18 4.44573E-19
 -1      3671 8.27275E-05-2.74248E-05-2.37771E-05-2.16016E-05 4.52110E-18-1.79968E-19
 -1      3672 7.27650E-05-2.32753E-05-2.12011E-05-2.04084E-05 2.60260E-18 1.32060E-18
 -1      3673 9.44855E-05-2.59664E-05-2.93638E-05-4.21096E-06-9.86786E-19-6.58752E-19
 -1      3674 8.58434E-05-3.19770E-05-2.31893E-05 2.41698E-05 2.96455E-19-6.25441E-19
 -1      3675 9.31834E-05-3.64852E-05-2.41986E-05 2.33917E-05 7.68836E-19-8.78777E-19
 -1      3676 8.59523E-05-1.81197E-05-2.90545E-05-4.30922E-06-7.79546E-19-1.78512E-18
 -1      3677 7.80678E-05-2.31461E-05-2.35416E-05-3.77851E-06 4.13441E-19-9.60056E-19
 -1      3678 7.87812E-05-2.27221E-05-2.40184E-05-3.40015E-06 2.67945E-19-9.69286E-19
 -1      3679 7.97873E-05-2.26625E-05-2.44839E-05-3.36329E-06 2.37872E-19-1.27926E-18
 -1      3680 7.89675E-05-2.30404E-05-2.39717E-05-3.65144E-06 3.11469E-19-9.95998E-19
 -1      3681 8.07118E-05-2.41789E-05-2.42305E-05-4.28022E-06 4.11272E-19-7.34231E-19
 -1      3682 7.96125E-05-2.38420E-05-2.39011E-05-4.12530E-06 5.83242E-19-5.61235E-19
 -1      3683 7.94380E-05-2.36912E-05-2.38887E-05-4.05729E-06 3.81636E-19-6.73914E-19
 -1      3684 8.00076E-05-2.41049E-05-2.39584E-05-4.19571E-06 1.56435E-19-3.16973E-19
 -1      3685 8.09347E-05-2.43616E-05-2.42474E-05-4.33935E-06 2.25842E-19-6.01607E-19
 -1      3686 8.01843E-05-2.41677E-05-2.40048E-05-4.19867E-06 1.86555E-19-1.66499E-19
 -1      3687 9.34773E-05-2.83503E-05-2.78791E-05-1.72631E-05 1.82920E-18 6.49106E-19
 -1      3688 8.13394E-05-2.44699E-05-2.43738E-05-4.36141E-06 3.26996E-19-2.85201E-19
 -1      3689 8.04621E-05-2.42253E-05-2.40987E-05-4.19510E-06 1.55737E-19 9.29091E-20
 -1      3690 8.02840E-05-2.41908E-05-2.40410E-05-4.19605E-06 3.96511E-19 1.85154E-20
 -1      3691 1.22759E-04-4.04824E-05-3.53893E-05-1.07056E-05-4.07370E-20-3.16093E-18
 -1      3692 1.26742E-04-4.23100E-05-3.64984E-05-1.03715E-05 7.28541E-19-3.32376E-18
 -1      3693 1.23214E-04-4.47284E-05-3.37212E-05-7.94405E-06-8.22317E-19-3.38322E-18
 -1      3694 1.00639E-04-3.26993E-05-2.91130E-05 1.16785E-05-7.75622E-19-5.18148E-19
 -1      3695 6.22722E-05-1.68609E-05-1.92169E-05 7.72261E-06-2.56521E-18 3.54446E-18
 -1      3696 9.63721E-05-4.70471E-05-2.08919E-05-2.82569E-05-2.45110E-20 9.58524E-19
 -1      3697 1.01937E-04-4.87234E-05-2.30152E-05-2.31383E-05 2.48075E-19-1.19065E-18
 -1      3698 9.01783E-05-4.17593E-05-2.06846E-05-2.75729E-05 5.57559E-19 1.38463E-18
 -1      3699 6.21249E-05-1.76224E-05-1.87815E-05-1.05186E-05 8.65774E-19 3.27466E-18
 -1      3700 7.88762E-05-1.99754E-05-2.53487E-05 1.02531E-05-2.80489E-18-5.22269E-19
 -1      3701 8.21092E-05-2.19544E-05-2.56862E-05 1.33010E-05-3.50698E-18 1.08911E-18
 -1      3702 7.52526E-05-1.90776E-05-2.39993E-05 9.22276E-06-2.66840E-18 1.19324E-18
 -1      3703 1.17787E-04-4.75198E-05-3.01706E-05 3.85703E-06 4.02066E-19-9.28901E-19
 -1      3704 1.19775E-04-4.93535E-05-3.01805E-05 5.00891E-06-1.09164E-18-9.74952E-19
 -1      3705 1.21110E-04-5.26383E-05-2.93051E-05 1.06953E-05-1.54016E-18-9.11808E-19
 -1      3706 1.15133E-04-4.59802E-05-2.95382E-05 6.66390E-06 2.13393E-19-1.34565E-18
 -1      3707 1.15288E-04-4.98432E-05-2.80746E-05 1.46826E-05-4.92894E-19-1.44514E-18
 -1      3708 1.28030E-04-4.83612E-05-3.41038E-05-5.52519E-06-4.32715E-19-2.97624E-18
 -1      3709 7.92676E-05-2.15968E-05-2.47158E-05-2.60121E-06 2.57652E-19-1.49318E-18
 -1      3710 7.80548E-05-2.12961E-05-2.43315E-05-2.24363E-06 3.64310E-19-1.30795E-18
 -1      3711 1.00374E-04-4.34311E-05-2.41987E-05 2.67440E-05-1.74319E-18-2.82558E-18
 -1      3712 9.41134E-05-3.83720E-05-2.39403E-05 2.56914E-05-1.78241E-18-2.38747E-18
 -1      3713 1.06211E-04-4.55752E-05-2.59351E-05 2.22013E-05-1.71478E-18-1.48377E-18
 -1      3714 8.91271E-05-2.71727E-05-2.65326E-05-1.86321E-05 2.32046E-18 5.45440E-19
 -1      3715 9.38230E-05-3.00085E-05-2.73949E-05 1.65469E-05-9.85658E-19 1.89408E-18
 -1      3716 9.64355E-05-3.14981E-05-2.77869E-05 1.62901E-05-1.71941E-18 1.23613E-18
 -1      3717 5.57285E-05-1.81463E-05-1.57426E-05 1.69093E-05-1.49286E-18-2.47641E-18
 -1      3718 5.48237E-05-1.60472E-05-1.65106E-05 1.05253E-05-2.02193E-18-1.26256E-18
 -1      3719 6.40942E-05-2.06941E-05-1.83388E-05 1.85862E-05-1.29697E-18-2.37627E-18
 -1      3720 8.83920E-05-2.00076E-05-2.93146E-05-4.92775E-06-9.53110E-19-1.35808E-18
 -1      3721 8.96591E-05-2.05459E-05-2.96342E-05-5.35579E-06-1.12695E-18-1.24685E-18
 -1      3722 8.61338E-05-2.50226E-05-2.62864E-05 1.55612E-05-2.95135E-18 2.55812E-18
 -1      3723 8.99834E-05-2.73605E-05-2.67419E-05 1.67796E-05-2.39099E-18 2.30512E-18
 -1      3724 9.24846E-05-3.06686E-05-2.64686E-05 1.83025E-05-1.15840E-18 1.25626E-18
 -1      3725 8.32346E-05-2.46396E-05-2.50655E-05 1.63617E-05-4.22244E-18 1.86384E-18
 -1      3726 1.24207E-04-4.81991E-05-3.25881E-05-3.10949E-06-1.16612E-18-3.33352E-18
 -1      3727 6.13941E-05-1.80406E-05-1.85297E-05-1.16625E-05-4.33416E-19-2.60992E-19
 -1      3728 6.34368E-05-2.02379E-05-1.81503E-05-1.70160E-05-1.38990E-18-1.19961E-18
 -1      3729 7.65722E-05-1.97408E-05-2.43582E-05-6.17975E-07 7.78757E-19-1.74562E-18
 -1      3730 7.71496E-05-1.92623E-05-2.48047E-05-5.50617E-07 8.28099E-19-1.66992E-18
 -1      3731 7.81014E-05-2.00317E-05-2.48811E-05-1.36040E-06 5.61486E-19-1.57122E-18
 -1      3732 7.69781E-05-2.03975E-05-2.42519E-05-1.32463E-06 5.88111E-19-1.62480E-18
 -1      3733 1.12981E-04-4.57242E-05-2.88653E-05 1.06782E-05 2.97514E-19-3.94109E-19
 -1      3734 7.76846E-05-2.07354E-05-2.44016E-05-1.70605E-06 4.72403E-19-1.51753E-18
 -1      3735 8.16592E-05-1.85929E-05-2.70405E-05-2.16196E-06 4.12786E-20-1.67606E-18
 -1      3736 8.26856E-05-1.86059E-05-2.74690E-05-2.67369E-06-2.22920E-19-1.61802E-18
 -1      3737 8.38685E-05-1.97891E-05-2.74474E-05-3.14420E-06-2.69343E-19-1.47992E-18
 -1      3738 6.91611E-05-2.38718E-05-1.93320E-05-1.95557E-05-1.78863E-18-7.24690E-19
 -1      3739 9.07059E-05-2.10207E-05-2.98671E-05-5.59288E-06-1.18390E-18-1.12985E-18
 -1      3740 9.20664E-05-2.17575E-05-3.01450E-05-5.89935E-06-1.37468E-18-8.70399E-19
 -1      3741 9.26474E-05-2.29191E-05-2.98797E-05-5.43740E-06-1.26691E-18-7.16506E-19
 -1      3742 9.06288E-05-2.18739E-05-2.94510E-05-5.16295E-06-1.02503E-18-1.01828E-18
 -1      3743 1.12187E-04-4.65028E-05-2.83525E-05-2.36568E-06-3.96782E-19-8.73714E-19
 -1      3744 1.00488E-04-3.35463E-05-2.87103E-05 1.34437E-05-1.53177E-18 5.19187E-19
 -1      3745 7.82129E-05-3.12836E-05-2.01398E-05-2.45546E-05-1.55419E-18-1.22926E-19
 -1      3746 8.42950E-05-3.66512E-05-2.02049E-05-2.71762E-05-1.32878E-20 1.51751E-18
 -1      3747 9.05729E-05-3.91408E-05-2.19451E-05-2.38943E-05 2.47691E-19 2.26224E-19
 -1      3748 1.10616E-04-4.60631E-05-2.75718E-05 1.66332E-05-8.99311E-20-8.66333E-19
 -1      3749 9.34956E-05-2.51574E-05-2.92878E-05-4.51908E-06-1.01071E-18-6.31956E-19
 -1      3750 9.35647E-05-2.58162E-05-2.90432E-05-4.11464E-06-8.56914E-19-4.74782E-19
 -1      3751 9.33538E-05-2.76222E-05-2.81666E-05-3.13323E-06-5.92519E-19-4.50455E-19
 -1      3752 9.31741E-05-2.77450E-05-2.80434E-05-3.03191E-06-6.35967E-19-5.44332E-19
 -1      3753 9.30204E-05-2.78323E-05-2.79346E-05-2.97929E-06-7.34826E-19-3.12862E-19
 -1      3754 9.28164E-05-2.78655E-05-2.78371E-05-2.92738E-06-6.40117E-19-1.98530E-19
 -1      3755 9.23885E-05-2.75298E-05-2.77977E-05-3.25150E-06-5.47872E-19-4.12322E-19
 -1      3756 9.26319E-05-2.78729E-05-2.77517E-05-2.90445E-06-5.72052E-19-7.79827E-20
 -1      3757 9.24152E-05-2.78421E-05-2.76744E-05-2.88083E-06-4.04295E-19-1.83791E-19
 -1      3758 9.20511E-05-2.76445E-05-2.76042E-05-3.16279E-06-6.04194E-19-1.09409E-19
 -1      3759 9.22122E-05-2.77918E-05-2.76074E-05-2.87240E-06-2.54305E-19-4.52793E-19
 -1      3760 9.19888E-05-2.77142E-05-2.75459E-05-2.86020E-06-4.26242E-19-5.66589E-19
 -1      3761 9.16652E-05-2.76115E-05-2.74530E-05-3.11962E-06-6.55741E-19-2.42916E-19
 -1      3762 9.17738E-05-2.76211E-05-2.74934E-05-2.85393E-06-3.99435E-19-5.44664E-19
 -1      3763 9.15460E-05-2.75081E-05-2.74441E-05-2.83976E-06-3.88612E-19-3.85589E-19
 -1      3764 9.12492E-05-2.74701E-05-2.73350E-05-3.09514E-06-4.08263E-19-4.24242E-19
 -1      3765 9.13209E-05-2.73814E-05-2.74028E-05-2.82569E-06-2.90812E-19-4.33302E-19
 -1      3766 9.10885E-05-2.72395E-05-2.73629E-05-2.79881E-06-3.65912E-19-1.02160E-19
 -1      3767 9.08113E-05-2.72457E-05-2.72431E-05-3.06744E-06-2.51975E-19-4.26078E-19
 -1      3768 9.08518E-05-2.70840E-05-2.73300E-05-2.76849E-06-3.56316E-19 4.24090E-19
 -1      3769 9.06126E-05-2.69166E-05-2.72972E-05-2.71971E-06-2.17956E-19 4.20856E-19
 -1      3770 9.03520E-05-2.69533E-05-2.71710E-05-3.01856E-06-7.32852E-20-4.79417E-20
 -1      3771 9.03604E-05-2.67339E-05-2.72702E-05-2.66558E-06-4.06266E-19 7.28259E-19
 -1      3772 9.01110E-05-2.65422E-05-2.72425E-05-2.58667E-06-5.31596E-19 7.12831E-19
 -1      3773 8.98658E-05-2.66002E-05-2.71133E-05-2.93269E-06-7.69728E-20 5.12067E-19
 -1      3774 8.98372E-05-2.63321E-05-2.72191E-05-2.50153E-06-3.92051E-19 8.67295E-19
 -1      3775 8.95734E-05-2.61157E-05-2.71946E-05-2.38446E-06-2.67268E-19 1.10994E-18
 -1      3776 8.93428E-05-2.61881E-05-2.70649E-05-2.79543E-06-2.00513E-19 1.03081E-18
 -1      3777 8.92700E-05-2.58764E-05-2.71724E-05-2.26067E-06-4.37656E-19 1.03247E-18
 -1      3778 8.89871E-05-2.56345E-05-2.71493E-05-2.09676E-06-7.72914E-19 1.44383E-18
 -1      3779 8.87690E-05-2.57147E-05-2.70209E-05-2.59250E-06-3.36486E-19 1.11759E-18
 -1      3780 8.86446E-05-2.53637E-05-2.71253E-05-1.92536E-06-7.94373E-19 1.68063E-18
 -1      3781 8.83382E-05-2.50959E-05-2.71014E-05-1.70469E-06-3.01787E-19 1.46896E-18
 -1      3782 8.81268E-05-2.51751E-05-2.69757E-05-2.30781E-06-3.32819E-19 1.10826E-18
 -1      3783 8.79455E-05-2.47916E-05-2.70722E-05-1.47466E-06 5.10801E-20 1.49821E-18
 -1      3784 8.76129E-05-2.44991E-05-2.70448E-05-1.18526E-06-2.63371E-19 1.12563E-18
 -1      3785 8.73955E-05-2.45639E-05-2.69227E-05-1.92207E-06-3.34084E-19 9.35756E-19
 -1      3786 8.71578E-05-2.41604E-05-2.70061E-05-8.81822E-07-4.98553E-19 1.12293E-18
 -1      3787 8.68004E-05-2.38481E-05-2.69726E-05-5.08884E-07 1.76617E-19 1.10840E-18
 -1      3788 8.65515E-05-2.38761E-05-2.68533E-05-1.41020E-06-3.19382E-19 1.34568E-18
 -1      3789 8.62721E-05-2.34776E-05-2.69198E-05-1.10913E-07 5.78517E-19 9.02235E-19
 -1      3790 8.59023E-05-2.31578E-05-2.68786E-05 3.62685E-07 4.02507E-19 1.05376E-18
 -1      3791 8.55694E-05-2.31098E-05-2.67576E-05-7.36323E-07 1.30196E-19 1.42817E-18
 -1      3792 8.52998E-05-2.27657E-05-2.68120E-05 8.85528E-07-7.97460E-20 9.85113E-19
 -1      3793 8.49549E-05-2.24673E-05-2.67694E-05 1.47330E-06 2.07968E-19 9.16079E-19
 -1      3794 8.44316E-05-2.22733E-05-2.66293E-05 1.53915E-07-1.60833E-20 1.09248E-18
 -1      3795 8.43151E-05-2.20818E-05-2.67107E-05 2.15758E-06-7.44239E-20 5.97395E-19
 -1      3796 8.40761E-05-2.18617E-05-2.66973E-05 2.84724E-06-8.65487E-19 2.58181E-19
 -1      3797 8.31573E-05-2.14041E-05-2.64873E-05 1.34164E-06-3.19153E-19 9.28679E-19
 -1      3798 8.35442E-05-2.15483E-05-2.67220E-05 3.68506E-06-8.11061E-19 5.25690E-19
 -1      3799 8.34941E-05-2.14484E-05-2.68016E-05 4.37849E-06-4.60733E-19 9.03480E-19
 -1      3800 8.18892E-05-2.06166E-05-2.64295E-05 2.92019E-06-3.73144E-19 7.60119E-19
 -1      3801 8.33719E-05-2.12308E-05-2.70178E-05 5.01871E-06 1.09267E-19 1.08701E-18
 -1      3802 8.32491E-05-2.08067E-05-2.72209E-05 5.53485E-06 5.51630E-19 1.37346E-18
 -1      3803 8.11294E-05-2.01890E-05-2.66642E-05 4.78259E-06 1.06514E-19 1.94894E-18
 -1      3804 8.29625E-05-1.97080E-05-2.73994E-05 5.36465E-06-2.31028E-19 1.15715E-18
 -1      3805 8.13875E-05-1.71151E-05-2.73542E-05 6.14573E-06-1.34414E-19 7.36601E-19
 -1      3806 8.11706E-05-1.94171E-05-2.71955E-05 5.62338E-06 1.99476E-19 1.25312E-18
 -1      3807 8.04814E-05-1.55756E-05-2.65953E-05 9.48662E-06 1.36372E-19 1.90953E-19
 -1      3808 8.12309E-05-1.62619E-05-2.63472E-05 1.18705E-05 4.19281E-19 1.10750E-19
 -1      3809 7.90661E-05-1.47680E-05-2.62752E-05 8.23489E-06-3.38601E-19 9.16966E-19
 -1      3810 8.23522E-05-1.82022E-05-2.65288E-05 1.30891E-05 9.98228E-19-4.07846E-19
 -1      3811 8.28015E-05-1.97784E-05-2.64512E-05 1.38487E-05 1.58083E-18-1.21602E-19
 -1      3812 8.13967E-05-1.67097E-05-2.58179E-05 1.33932E-05 2.82485E-19-4.39822E-19
 -1      3813 8.18232E-05-2.05455E-05-2.61012E-05 1.41941E-05 1.47458E-18-7.29494E-19
 -1      3814 8.18615E-05-2.17802E-05-2.55748E-05 1.52409E-05 1.24771E-18-5.79185E-19
 -1      3815 8.11673E-05-1.94414E-05-2.57674E-05 1.31220E-05 1.11665E-18-1.07811E-18
 -1      3816 8.00546E-05-2.24494E-05-2.47182E-05 1.64380E-05 1.32179E-18-5.22909E-19
 -1      3817 8.05200E-05-2.42475E-05-2.39966E-05 1.81365E-05 1.13342E-18-2.44485E-19
 -1      3818 7.81806E-05-2.05287E-05-2.44950E-05 1.43128E-05 1.21240E-18-1.31448E-18
 -1      3819 6.95476E-05-1.81682E-05-2.20995E-05 9.35429E-06-1.92628E-18 2.37947E-18
 -1      3820 6.53537E-05-1.59893E-05-2.10521E-05 1.83218E-06-1.33993E-18 2.91512E-18
 -1      3821 8.24899E-05-2.38002E-05-2.51490E-05-5.13092E-06-1.79110E-19-1.99323E-19
 -1      3822 8.24425E-05-2.39254E-05-2.50840E-05-4.97522E-06-4.01499E-19-4.18375E-19
 -1      3823 8.24968E-05-2.40761E-05-2.50340E-05-4.85539E-06-4.01723E-19-4.25810E-19
 -1      3824 8.24343E-05-2.41813E-05-2.49699E-05-4.74472E-06-4.57008E-19-3.44051E-19
 -1      3825 8.28781E-05-2.40420E-05-2.52134E-05-4.96508E-06-3.13437E-19-4.00755E-19
 -1      3826 8.23349E-05-2.31475E-05-2.53605E-05-5.99792E-06-1.30040E-19-2.13494E-19
 -1      3827 8.23163E-05-2.32938E-05-2.53023E-05-5.73049E-06-2.96018E-19 3.76310E-19
 -1      3828 8.21977E-05-2.28182E-05-2.54407E-05-6.62165E-06-7.81349E-20-1.82587E-19
 -1      3829 8.21818E-05-2.29507E-05-2.53919E-05-6.28999E-06-1.08754E-19-1.09398E-19
 -1      3830 8.22669E-05-2.28673E-05-2.54520E-05-6.12122E-06-5.26652E-20-4.70344E-19
 -1      3831 8.20576E-05-2.25549E-05-2.54906E-05-7.38613E-06 1.66720E-19 1.70555E-19
 -1      3832 8.20237E-05-2.26406E-05-2.54556E-05-6.99170E-06 6.58891E-21 1.75249E-19
 -1      3833 8.19380E-05-2.24530E-05-2.54875E-05-6.76574E-06-3.20447E-19-4.79814E-19
 -1      3834 8.19792E-05-2.24475E-05-2.55058E-05-8.27495E-06-1.86555E-19 6.31576E-19
 -1      3835 8.18961E-05-2.24387E-05-2.54855E-05-7.83542E-06 1.33921E-19 6.59988E-19
 -1      3836 8.15957E-05-2.21235E-05-2.54832E-05-7.57260E-06-2.14647E-19-7.93150E-20
 -1      3837 8.20463E-05-2.25994E-05-2.55121E-05-9.20380E-06-4.71350E-19 1.02141E-18
 -1      3838 8.18970E-05-2.24522E-05-2.54907E-05-8.76852E-06-2.43301E-19 5.30328E-19
 -1      3839 8.13417E-05-2.20035E-05-2.54439E-05-8.52211E-06-2.15665E-19 6.68685E-20
 -1      3840 8.22493E-05-2.30040E-05-2.56246E-05-9.96953E-06-9.84888E-19 9.17707E-19
 -1      3841 8.21284E-05-2.27656E-05-2.55398E-05-9.60467E-06-4.52772E-19 1.19344E-18
 -1      3842 8.13506E-05-2.22511E-05-2.54327E-05-9.46237E-06-6.62687E-19 7.98408E-19
 -1      3843 8.21468E-05-2.31617E-05-2.60075E-05-1.02040E-05-9.21148E-19-4.49986E-20
 -1      3844 8.24264E-05-2.32536E-05-2.57967E-05-9.94986E-06-8.56086E-19 5.55177E-19
 -1      3845 8.17165E-05-2.28452E-05-2.56346E-05-9.94242E-06-4.21399E-19 1.13015E-18
 -1      3846 7.93367E-05-2.18645E-05-2.69161E-05-1.12856E-05-9.25807E-19-6.52215E-19
 -1      3847 8.14235E-05-2.27082E-05-2.62909E-05-9.67744E-06-9.90529E-19-3.61683E-19
 -1      3848 8.17939E-05-2.30423E-05-2.61338E-05-9.06330E-06-6.06264E-19-4.12505E-19
 -1      3849 8.55875E-05-2.43476E-05-2.59116E-05-1.00681E-05-3.29496E-19-5.16690E-20
 -1      3850 7.44082E-05-1.88953E-05-2.68391E-05-1.27191E-05-9.31313E-19-5.14149E-19
 -1      3851 8.01344E-05-2.13058E-05-2.65532E-05-8.10181E-06-9.09925E-19-1.50772E-19
 -1      3852 9.29430E-05-2.81503E-05-2.54040E-05-9.60612E-06 5.22408E-19 9.48677E-20
 -1      3853 9.67511E-05-3.00291E-05-2.52709E-05-7.81706E-06-1.35525E-20 3.66765E-19
 -1      3854 8.48838E-05-1.80073E-05-2.50103E-05-2.32917E-06-5.50571E-20 3.80318E-19
 -1      3855 9.20418E-05-2.97017E-05-2.61362E-05-1.24754E-05 4.39458E-19 3.80847E-19
 -1      3856 9.15157E-05-2.85670E-05-2.59260E-05-1.22140E-05 2.11388E-19 1.31290E-20
 -1      3857 8.96600E-05-2.70090E-05-2.54983E-05-9.54901E-06 1.80206E-19 6.71485E-19
 -1      3858 9.45604E-05-3.34349E-05-2.60641E-05-1.38673E-05-1.25939E-18 9.89374E-19
 -1      3859 9.27389E-05-3.12324E-05-2.60745E-05-1.37214E-05 2.42966E-19 6.20134E-19
 -1      3860 9.00219E-05-2.94105E-05-2.56930E-05-1.36662E-05 5.12984E-20 1.09278E-18
 -1      3861 9.98958E-05-3.90345E-05-2.60522E-05-1.38290E-05-7.59575E-19 3.66368E-19
 -1      3862 9.67089E-05-3.60228E-05-2.58972E-05-1.45662E-05-1.18528E-18 7.94437E-19
 -1      3863 9.29720E-05-3.39128E-05-2.53276E-05-1.60981E-05-8.29890E-19 6.94514E-19
 -1      3864 1.05458E-04-4.62791E-05-2.54453E-05-1.51832E-05 2.05591E-19-1.55256E-18
 -1      3865 1.01315E-04-4.29218E-05-2.50127E-05-1.69063E-05 4.39372E-19-6.26169E-19
 -1      3866 9.93719E-05-3.30831E-05-2.84085E-05 1.44054E-05-2.19932E-18-6.22007E-20
 -1      3867 7.96863E-05-1.97327E-05-2.56822E-05-1.69677E-06 4.40812E-19-1.64944E-18
 -1      3868 7.96537E-05-1.87181E-05-2.61290E-05-1.29129E-06 4.55634E-19-1.81356E-18
 -1      3869 8.06367E-05-1.85804E-05-2.65991E-05-1.75089E-06 1.91231E-19-1.71907E-18
 -1      3870 1.13747E-04-5.28643E-05-2.60702E-05-1.19485E-05-1.12412E-18-1.25096E-18
 -1      3871 1.02037E-04-3.68162E-05-2.78555E-05 1.57918E-05 6.57196E-19 4.35181E-19
 -1      3872 1.04966E-04-4.00340E-05-2.77953E-05 1.56984E-05 1.12163E-18-2.86823E-19
 -1      3873 8.65143E-05-2.54398E-05-2.61743E-05-1.78111E-05 2.47946E-18 2.98983E-19
 -1      3874 8.37497E-05-2.53989E-05-2.49134E-05-1.85466E-05 4.37493E-18-9.96273E-20
 -1      3875 8.04663E-05-2.20118E-05-2.50582E-05-2.99158E-06 2.08768E-19-1.54303E-18
 -1      3876 8.01447E-05-2.13183E-05-2.52019E-05-2.53768E-06 2.41445E-19-1.52392E-18
 -1      3877 5.55214E-05-1.49468E-05-1.70627E-05 4.27906E-06-1.34120E-18-5.91361E-19
 -1      3878 5.81596E-05-1.54865E-05-1.82094E-05-2.34018E-06-6.00503E-19-5.71483E-19
 -1      3879 6.14591E-05-1.67086E-05-1.89989E-05 8.15827E-06-5.12177E-19-1.51925E-18
 -1      3880 1.05416E-04-4.23268E-05-2.70563E-05 1.81596E-05-3.82867E-19-7.63097E-19
 -1      3881 8.59939E-05-1.92122E-05-2.86290E-05-4.05262E-06-6.43036E-19-1.77613E-18
 -1      3882 8.71709E-05-1.95611E-05-2.89870E-05-4.55275E-06-7.89656E-19-1.61251E-18
 -1      3883 8.84160E-05-2.09491E-05-2.88969E-05-4.64031E-06-7.46881E-19-1.30693E-18
 -1      3884 8.60783E-05-2.02181E-05-2.82096E-05-3.92573E-06-5.57179E-19-1.64307E-18
 -1      3885 7.74483E-05-3.01052E-05-1.99331E-05 2.63311E-05-2.89844E-20-1.07086E-18
 -1      3886 8.23091E-05-2.46258E-05-2.47186E-05-4.47424E-06 3.65266E-19-2.60921E-19
 -1      3887 8.22184E-05-2.46613E-05-2.46694E-05-4.45299E-06 2.22637E-19-3.47938E-19
 -1      3888 7.93061E-05-2.35214E-05-2.39086E-05-3.96624E-06 2.82521E-19-7.29070E-19
 -1      3889 7.91295E-05-2.33009E-05-2.39217E-05-3.82514E-06 3.74875E-19-7.65686E-19
 -1      3890 8.04620E-05-2.38696E-05-2.42562E-05-4.13534E-06 3.71996E-19-6.49573E-19
 -1      3891 8.17530E-05-2.95676E-05-2.23152E-05 2.36983E-05-3.08145E-18-3.77975E-19
 -1      3892 7.35992E-05-2.52122E-05-2.04651E-05 2.30723E-05-2.51051E-18 2.03838E-18
 -1      3893 7.22436E-05-2.20540E-05-2.14027E-05 1.76940E-05-2.77178E-18 2.40520E-18
 -1      3894 7.63538E-05-2.59849E-05-2.15100E-05 2.22220E-05-7.19399E-19-4.51469E-19
 -1      3895 6.55799E-05-1.60298E-05-2.11474E-05-4.26218E-06 5.73670E-19 1.39360E-18
 -1      3896 7.34446E-05-2.05615E-05-2.25424E-05 1.41426E-05-3.37108E-18 2.15599E-18
 -1      3897 7.94174E-05-2.36661E-05-2.37698E-05-1.85984E-05 4.13708E-18 2.24752E-19
 -1      3898 8.82674E-05-3.31333E-05-2.34400E-05 2.49850E-05-2.23266E-18-1.45031E-18
 -1      3899 8.28982E-05-2.82993E-05-2.33431E-05 2.15741E-05-3.29295E-18 3.13161E-19
 -1      3900 9.47895E-05-3.67046E-05-2.48283E-05 2.31549E-05-1.68662E-18-1.64887E-18
 -1      3901 7.75057E-05-2.31363E-05-2.33904E-05 1.68896E-05-4.08657E-18 1.55149E-18
 -1      3902 6.98009E-05-1.87904E-05-2.18162E-05-1.29111E-05 2.30810E-18 1.24040E-18
 -1      3903 8.24362E-05-2.34855E-05-2.52602E-05-5.50626E-06-3.97627E-19 2.60084E-20
 -1      3904 8.24047E-05-2.36263E-05-2.51969E-05-5.29816E-06-4.52262E-20-2.00791E-20
 -1      3905 8.25388E-05-2.32927E-05-2.53873E-05-5.62138E-06-4.49478E-19 8.07492E-20
 -1      3906 7.16110E-05-2.21971E-05-2.11173E-05 1.92392E-05-1.82185E-19-1.36926E-18
 -1      3907 6.22024E-05-1.66621E-05-1.92557E-05-6.93178E-06-3.88437E-19-2.07669E-19
 -1      3908 6.70411E-05-1.87574E-05-2.06689E-05-1.04051E-05-9.89738E-20-5.16770E-19
 -1      3909 6.40155E-05-1.64375E-05-2.03958E-05-1.95510E-06-5.92658E-20-9.41861E-19
 -1      3910 9.36735E-05-2.63935E-05-2.88285E-05-3.85471E-06-7.63683E-19-5.43519E-19
 -1      3911 9.36138E-05-2.68185E-05-2.86329E-05-3.57694E-06-8.15209E-19-5.65608E-19
 -1      3912 9.26895E-05-2.56188E-05-2.87405E-05-4.12422E-06-8.18369E-19-5.08467E-19
 -1      3913 9.35920E-05-2.71744E-05-2.84599E-05-3.40979E-06-7.47966E-19-6.05958E-19
 -1      3914 9.34565E-05-2.74227E-05-2.83043E-05-3.23373E-06-7.02048E-19-5.69761E-19
 -1      3915 9.26453E-05-2.72110E-05-2.80436E-05-3.41808E-06-6.39044E-19-6.36639E-19
 -1      3916 9.27724E-05-2.66112E-05-2.83537E-05-3.69869E-06-7.34352E-19-5.94342E-19
 -1      3917 7.14314E-05-2.28273E-05-2.08883E-05-1.68897E-05 1.44975E-19-8.86552E-19
 -1      3918 7.43408E-05-2.64913E-05-2.02954E-05-2.13882E-05-1.07388E-18-1.05820E-18
 -1      3919 8.01153E-05-2.95167E-05-2.15939E-05-2.11433E-05 7.41361E-20-6.07561E-19
 -1      3920 8.82958E-05-2.99484E-05-2.50987E-05 2.04386E-05-3.51536E-18-3.19398E-19
 -1      3921 8.27688E-05-2.63378E-05-2.41113E-05 1.91397E-05-4.00707E-18 1.71883E-18
 -1      3922 7.49563E-05-2.09587E-05-2.30745E-05-1.44666E-05 2.77456E-18 1.34255E-19
 -1      3923 7.01632E-05-2.01857E-05-2.12004E-05-1.33377E-05 1.98748E-19-4.42231E-19
 -1      3924 7.41304E-05-2.27107E-05-2.20118E-05-1.52542E-05 3.87091E-19-9.99314E-19
 -1      3925 6.95406E-05-1.88664E-05-2.18005E-05-9.41128E-06 9.27342E-19-4.04233E-19
 -1      3926 8.11420E-05-2.44510E-05-2.42976E-05-4.35535E-06 1.16048E-19-5.25887E-19
 -1      3927 8.27414E-05-2.36903E-05-2.53047E-05-5.24301E-06-1.65738E-19 1.36330E-19
 -1      3928 8.01650E-05-2.33864E-05-2.43360E-05-3.85116E-06 2.53965E-19-9.51939E-19
 -1      3929 8.17837E-05-2.45226E-05-2.45399E-05-4.37344E-06 2.62957E-19-6.52505E-19
 -1      3930 8.16682E-05-2.43919E-05-2.45453E-05-4.31925E-06 5.03359E-19-6.26734E-19
 -1      3931 9.98395E-05-3.49037E-05-2.78556E-05 1.58811E-05-4.86513E-19 9.32989E-19
 -1      3932 8.22026E-05-2.47080E-05-2.46379E-05-4.44423E-06 9.71283E-20-3.06242E-19
 -1      3933 8.21072E-05-2.47155E-05-2.45977E-05-4.43532E-06 2.23063E-19-3.29338E-19
 -1      3934 8.29738E-05-2.49048E-05-2.48875E-05-4.52865E-06 2.70596E-19-1.52446E-19
 -1      3935 8.19442E-05-2.46756E-05-2.45422E-05-4.41968E-06 2.00393E-19-6.86128E-19
 -1      3936 8.18387E-05-2.46043E-05-2.45285E-05-4.39797E-06 2.48366E-19-6.90697E-19
 -1      3937 8.27704E-05-2.48282E-05-2.48338E-05-4.45358E-06 2.76264E-19-4.24954E-19
 -1      3938 8.29586E-05-2.43412E-05-2.51205E-05-4.76982E-06-4.51868E-19-1.06990E-19
 -1      3939 8.24634E-05-2.43071E-05-2.49209E-05-4.66408E-06-4.36283E-19-3.30799E-19
 -1      3940 8.23886E-05-2.43904E-05-2.48599E-05-4.59109E-06-2.42576E-19-5.17913E-19
 -1      3941 9.60147E-05-4.03903E-05-2.39375E-05-2.03345E-05-4.62956E-20-7.53409E-19
 -1      3942 1.00993E-04-3.95407E-05-2.63093E-05 2.07683E-05-2.02550E-19-1.12454E-18
 -1      3943 9.29543E-05-2.36945E-05-2.96855E-05-5.16727E-06-1.22417E-18-6.90897E-19
 -1      3944 9.33013E-05-2.45681E-05-2.94588E-05-4.72834E-06-1.14845E-18-7.12675E-19
 -1      3945 9.23968E-05-2.44443E-05-2.91244E-05-4.60058E-06-1.10360E-18-7.33550E-19
 -1      3946 9.19164E-05-2.31188E-05-2.94865E-05-5.09357E-06-1.11468E-18-7.30905E-19
 -1      3947 8.82534E-05-2.17366E-05-2.85121E-05-4.38872E-06-7.21418E-19-1.51357E-18
 -1      3948 8.94319E-05-2.21690E-05-2.88354E-05-4.67482E-06-9.28039E-19-1.16401E-18
 -1      3949 8.59849E-05-2.10865E-05-2.78209E-05-3.80657E-06-4.36097E-19-1.39579E-18
 -1      3950 8.71070E-05-2.13739E-05-2.81809E-05-4.14982E-06-5.85183E-19-1.53357E-18
 -1      3951 8.81447E-05-2.24697E-05-2.81315E-05-4.24626E-06-7.31913E-19-1.39470E-18
 -1      3952 8.23140E-05-2.45512E-05-2.47582E-05-4.49917E-06 1.30644E-19-4.09810E-19
 -1      3953 8.29968E-05-2.47746E-05-2.49525E-05-4.56659E-06 2.99273E-19-1.34919E-19
 -1      3954 8.23982E-05-2.44910E-05-2.48143E-05-4.54212E-06-1.72111E-19-4.43385E-19
 -1      3955 9.33572E-05-3.27833E-05-2.58942E-05 2.00118E-05-1.20561E-18-9.22954E-19
 -1      3956 8.09717E-05-2.30550E-05-2.48253E-05-3.62555E-06 7.87915E-20-1.35862E-18
 -1      3957 8.07507E-05-2.25860E-05-2.49231E-05-3.30939E-06 4.89717E-20-1.47120E-18
 -1      3958 8.16204E-05-2.23682E-05-2.53938E-05-3.27629E-06 9.81058E-20-1.40356E-18
 -1      3959 8.17575E-05-1.96385E-05-2.66079E-05-2.37711E-06 1.36058E-19-1.52584E-18
 -1      3960 8.38082E-05-2.07082E-05-2.70534E-05-3.16315E-06-1.61249E-19-1.34464E-18
 -1      3961 8.48841E-05-2.08444E-05-2.74519E-05-3.52706E-06-3.31459E-19-1.34671E-18
 -1      3962 8.59140E-05-2.18651E-05-2.74362E-05-3.79687E-06-3.41923E-19-1.26247E-18
 -1      3963 9.09313E-05-2.26613E-05-2.92618E-05-4.93236E-06-1.02454E-18-9.65688E-19
 -1      3964 9.85365E-05-3.53056E-05-2.71712E-05 1.81704E-05 1.96867E-19 3.12576E-19
 -1      3965 9.07317E-05-2.33117E-05-2.88833E-05-4.64675E-06-1.00210E-18-9.88831E-19
 -1      3966 8.20815E-05-2.47296E-05-2.45772E-05-4.43371E-06 1.05751E-19-4.80085E-19
 -1      3967 8.19817E-05-2.47026E-05-2.45486E-05-4.42565E-06 3.76626E-20-6.52220E-19
 -1      3968 8.28647E-05-2.49508E-05-2.48216E-05-4.49484E-06 1.32780E-19-5.64243E-19
 -1      3969 8.29301E-05-2.49683E-05-2.48419E-05-4.51125E-06-1.64850E-20-2.58619E-19
 -1      3970 9.14473E-05-2.74138E-05-2.74408E-05-3.39811E-06-4.84819E-19-5.88514E-19
 -1      3971 9.12632E-05-2.74338E-05-2.73563E-05-3.36166E-06-5.72260E-19-4.23877E-19
 -1      3972 9.10981E-05-2.74281E-05-2.72856E-05-3.34983E-06-6.82553E-19-2.52433E-19
 -1      3973 9.08953E-05-2.73827E-05-2.72199E-05-3.32961E-06-5.64918E-19-3.47147E-19
 -1      3974 9.04746E-05-2.72021E-05-2.71178E-05-3.57517E-06-5.44161E-19-7.25483E-19
 -1      3975 9.07086E-05-2.73183E-05-2.71663E-05-3.32325E-06-4.23408E-19-3.92724E-19
 -1      3976 9.04935E-05-2.72238E-05-2.71155E-05-3.30760E-06-2.89262E-19-3.29456E-19
 -1      3977 9.01242E-05-2.71364E-05-2.69957E-05-3.54692E-06-6.12149E-19-3.30729E-19
 -1      3978 9.02908E-05-2.71145E-05-2.70752E-05-3.29900E-06-5.39675E-20-2.51587E-19
 -1      3979 9.00654E-05-2.69813E-05-2.70358E-05-3.27845E-06 3.27759E-20 2.49157E-20
 -1      3980 8.97368E-05-2.69619E-05-2.69043E-05-3.52406E-06-5.77288E-20-1.80853E-19
 -1      3981 8.98471E-05-2.68347E-05-2.70056E-05-3.26155E-06-6.19040E-20 9.30072E-20
 -1      3982 8.96100E-05-2.66680E-05-2.69748E-05-3.22810E-06-3.39338E-21 1.00851E-19
 -1      3983 8.93185E-05-2.67004E-05-2.68365E-05-3.49314E-06 1.19872E-19 9.12067E-21
 -1      3984 8.93728E-05-2.64877E-05-2.69517E-05-3.19690E-06 1.56942E-19-1.33583E-19
 -1      3985 8.91200E-05-2.62900E-05-2.69268E-05-3.14342E-06 2.02987E-19 9.86539E-20
 -1      3986 8.88662E-05-2.63640E-05-2.67859E-05-3.44370E-06 9.41670E-20-4.20962E-19
 -1      3987 8.88574E-05-2.60764E-05-2.69081E-05-3.09276E-06 2.35806E-21 1.88720E-19
 -1      3988 8.85828E-05-2.58473E-05-2.68865E-05-3.01248E-06-6.30224E-20 3.66396E-19
 -1      3989 8.83705E-05-2.59574E-05-2.67468E-05-3.36448E-06 3.69916E-19-4.45179E-19
 -1      3990 8.82858E-05-2.55986E-05-2.68690E-05-2.93707E-06-1.21886E-19 5.08084E-19
 -1      3991 8.79812E-05-2.53357E-05-2.68481E-05-2.82318E-06-4.81213E-19 3.35387E-19
 -1      3992 8.78155E-05-2.54785E-05-2.67131E-05-3.24553E-06-3.02360E-20 1.42874E-19
 -1      3993 8.76373E-05-2.50478E-05-2.68285E-05-2.71685E-06-7.45850E-19 5.63236E-19
 -1      3994 8.72931E-05-2.47481E-05-2.68051E-05-2.56121E-06-2.67284E-19 3.82481E-19
 -1      3995 8.71801E-05-2.49213E-05-2.66782E-05-3.07777E-06-4.05221E-19 4.27489E-19
 -1      3996 8.68869E-05-2.44163E-05-2.67790E-05-2.41705E-06-1.26140E-19 3.77841E-19
 -1      3997 8.64916E-05-2.40764E-05-2.67492E-05-2.20997E-06-3.11333E-19 4.98771E-19
 -1      3998 8.64372E-05-2.42763E-05-2.66342E-05-2.84807E-06-3.84954E-19 3.82663E-19
 -1      3999 8.60022E-05-2.36943E-05-2.67111E-05-2.01897E-06-6.77449E-19 8.24033E-19
 -1      4000 8.55427E-05-2.33104E-05-2.66696E-05-1.74707E-06-1.53830E-19 9.84476E-19
 -1      4001 8.55508E-05-2.35309E-05-2.65708E-05-2.54342E-06-2.60998E-19 3.54184E-19
 -1      4002 8.49425E-05-2.28701E-05-2.66124E-05-1.49583E-06 7.91534E-21 1.00431E-18
 -1      4003 8.44058E-05-2.24397E-05-2.65537E-05-1.13913E-06 1.17913E-19 9.55285E-19
 -1      4004 8.44731E-05-2.26674E-05-2.64747E-05-2.14411E-06-7.58976E-20 7.13401E-19
 -1      4005 8.36572E-05-2.19311E-05-2.64714E-05-8.05316E-07 8.93407E-20 8.88655E-19
 -1      4006 8.30369E-05-2.14563E-05-2.63939E-05-3.31668E-07-3.71529E-19 6.32573E-19
 -1      4007 8.31385E-05-2.16605E-05-2.63319E-05-1.61881E-06-1.46580E-19 6.25345E-19
 -1      4008 8.20920E-05-2.08662E-05-2.62973E-05 1.28393E-07-2.58024E-19 8.05528E-19
 -1      4009 8.14101E-05-2.03672E-05-2.62230E-05 7.71040E-07-3.63096E-19 7.18239E-19
 -1      4010 8.14548E-05-2.04697E-05-2.61455E-05-9.07547E-07-3.27226E-19 6.63455E-19
 -1      4011 8.02284E-05-1.96826E-05-2.61857E-05 1.45632E-06-2.62421E-19 4.14676E-19
 -1      4012 7.96016E-05-1.92418E-05-2.62114E-05 2.33692E-06-2.74492E-19 7.44224E-19
 -1      4013 7.92917E-05-1.90268E-05-2.59999E-05 1.26143E-07-1.69552E-19 5.30507E-19
 -1      4014 7.82167E-05-1.84949E-05-2.64189E-05 3.50250E-06-1.14455E-19 1.48188E-18
 -1      4015 7.81336E-05-1.82549E-05-2.67344E-05 4.46386E-06 3.72694E-19 1.40703E-18
 -1      4016 7.64253E-05-1.71947E-05-2.61815E-05 1.85921E-06 2.50828E-19 9.80441E-19
 -1      4017 7.70875E-05-1.79980E-05-2.72538E-05 6.98192E-06 5.37866E-20 9.63076E-19
 -1      4018 7.66560E-05-1.69240E-05-2.78469E-05 7.12849E-06 4.21399E-20 8.06799E-19
 -1      4019 7.19541E-05-1.42681E-05-2.69623E-05 5.61358E-06-1.88041E-19 7.88164E-19
 -1      4020 7.53300E-05-1.04476E-05-2.69654E-05 8.91768E-06-1.80418E-19 5.43795E-19
 -1      4021 8.11386E-05-9.89138E-06-2.48907E-05 1.75198E-05-1.93124E-19 6.72544E-19
 -1      4022 6.82937E-05-7.22520E-06-2.74630E-05 1.72872E-05 2.28699E-20 4.77727E-19
 -1      4023 8.37195E-05-1.81166E-05-2.43687E-05 1.29559E-05-4.49774E-19 7.03037E-19
 -1      4024 8.41880E-05-1.98748E-05-2.52998E-05 1.23310E-05 1.19538E-19 1.16044E-19
 -1      4025 9.18669E-05-2.17620E-05-2.40600E-05 1.78907E-05-3.99800E-19 1.89735E-19
 -1      4026 8.15047E-05-1.95472E-05-2.55032E-05 1.03779E-05 6.32310E-19-6.29134E-19
 -1      4027 8.01018E-05-1.97735E-05-2.51914E-05 1.03213E-05 8.41818E-19-1.12338E-18
 -1      4028 8.43644E-05-2.09741E-05-2.48551E-05 8.59077E-06-1.45054E-19-4.40457E-19
 -1      4029 7.68426E-05-1.93026E-05-2.44916E-05 1.04079E-05 8.51533E-19-1.11925E-18
 -1      4030 7.50634E-05-1.94518E-05-2.36529E-05 1.12092E-05 1.11805E-18-1.26494E-18
 -1      4031 7.75865E-05-1.90753E-05-2.43943E-05 7.16318E-06 4.29102E-19-1.37706E-18
 -1      4032 8.30156E-05-2.36033E-05-2.54598E-05-5.22567E-06-2.75195E-19 4.73128E-19
 -1      4033 8.31020E-05-2.38048E-05-2.54190E-05-5.07198E-06 9.52866E-21 3.15989E-19
 -1      4034 8.13275E-05-2.37694E-05-2.46701E-05-4.02664E-06 6.07652E-20-9.81323E-19
 -1      4035 8.11618E-05-2.34493E-05-2.47301E-05-3.83065E-06 9.50774E-20-1.10813E-18
 -1      4036 8.21072E-05-2.34131E-05-2.51552E-05-3.81642E-06-4.23415E-20-1.33427E-18
 -1      4037 8.17200E-05-2.20968E-05-2.55434E-05-6.69283E-06-4.59736E-19-7.34611E-20
 -1      4038 8.18952E-05-2.23203E-05-2.55405E-05-6.34801E-06-1.33593E-19-2.93833E-19
 -1      4039 8.22375E-05-2.26108E-05-2.55490E-05-6.06293E-06-1.38410E-19-1.59283E-19
 -1      4040 8.23923E-05-2.28478E-05-2.55273E-05-5.79408E-06-9.08161E-20-3.52842E-19
 -1      4041 8.20716E-05-2.22766E-05-2.56165E-05-5.98630E-06-5.98395E-20-1.56183E-19
 -1      4042 8.07071E-05-2.14737E-05-2.53918E-05-8.52333E-06-5.09714E-19-2.51905E-19
 -1      4043 8.07740E-05-2.14786E-05-2.54265E-05-8.02619E-06-2.64705E-19-3.33432E-19
 -1      4044 8.05945E-05-2.17820E-05-2.53544E-05-9.62490E-06-8.57907E-19 4.15046E-19
 -1      4045 8.04605E-05-2.14939E-05-2.53445E-05-9.16255E-06-8.44715E-19 1.58044E-19
 -1      4046 7.98484E-05-2.09246E-05-2.53216E-05-8.65343E-06-8.67896E-19 6.75046E-20
 -1      4047 8.11366E-05-2.28320E-05-2.56744E-05-1.03388E-05-4.85773E-19 6.98802E-19
 -1      4048 8.08257E-05-2.21917E-05-2.54581E-05-1.01770E-05-3.97788E-19 9.35442E-19
 -1      4049 7.97631E-05-2.14636E-05-2.53460E-05-9.99427E-06-1.04865E-18 3.14726E-19
 -1      4050 8.25547E-05-2.39342E-05-2.62730E-05-8.86782E-06-6.37392E-19 1.29596E-19
 -1      4051 8.22074E-05-2.38356E-05-2.60382E-05-9.90359E-06-2.81638E-20 6.99437E-19
 -1      4052 8.11171E-05-2.32420E-05-2.58436E-05-1.07866E-05-8.68209E-21 1.03973E-18
 -1      4053 8.07717E-05-2.01962E-05-2.56295E-05-8.52758E-06-1.02809E-18 6.98379E-19
 -1      4054 8.19582E-05-2.28797E-05-2.61144E-05-8.19809E-06-1.48300E-18 2.59986E-19
 -1      4055 8.27431E-05-2.39583E-05-2.60665E-05-9.09111E-06-1.05212E-18 5.73335E-19
 -1      4056 8.40116E-05-1.98340E-05-2.48632E-05-6.19291E-06-3.16790E-19 9.83405E-19
 -1      4057 7.97940E-05-1.74474E-05-2.49110E-05-8.28907E-06-5.20078E-19 8.76256E-19
 -1      4058 8.03821E-05-1.94185E-05-2.49774E-05-9.09712E-06-1.22237E-18 8.79750E-19
 -1      4059 8.60870E-05-2.48213E-05-2.55569E-05-1.10932E-05 2.51833E-19 1.09500E-18
 -1      4060 8.54779E-05-2.31177E-05-2.53095E-05-8.04914E-06 1.22820E-19 1.43085E-18
 -1      4061 8.13393E-05-1.93034E-05-2.52131E-05-9.12426E-06-6.47557E-19 1.60237E-18
 -1      4062 8.76213E-05-2.82449E-05-2.52643E-05-1.45608E-05-3.27749E-19 1.01592E-18
 -1      4063 8.66680E-05-2.64419E-05-2.54310E-05-1.29807E-05 2.08370E-19 1.09903E-18
 -1      4064 8.35648E-05-2.35732E-05-2.52648E-05-1.20360E-05 2.02547E-19 9.68582E-19
 -1      4065 7.99784E-05-2.08070E-05-2.53642E-05-2.20985E-06 3.15505E-19-1.56460E-18
 -1      4066 8.10401E-05-2.07415E-05-2.58426E-05-2.47954E-06 2.18313E-19-1.42436E-18
 -1      4067 9.02764E-05-3.56702E-05-2.34635E-05-2.03740E-05-1.22261E-19 1.91856E-19
 -1      4068 7.82629E-05-2.05960E-05-2.47189E-05-1.71552E-06 3.67269E-19-1.54687E-18
 -1      4069 9.51500E-05-3.49088E-05-2.58432E-05 2.05627E-05-7.40757E-19-1.08893E-18
 -1      4070 8.78936E-05-2.30776E-05-2.77824E-05-4.12697E-06-7.01844E-19-1.22143E-18
 -1      4071 8.90035E-05-2.34437E-05-2.81080E-05-4.29883E-06-9.28295E-19-1.28753E-18
 -1      4072 8.11676E-05-2.16656E-05-2.54875E-05-7.50904E-06-2.07276E-19-2.21929E-19
 -1      4073 8.13268E-05-2.18257E-05-2.55082E-05-7.07963E-06-5.54700E-19-5.94794E-19
 -1      4074 8.13346E-05-2.16596E-05-2.55628E-05-6.62044E-06-1.72317E-19-2.54490E-20
 -1      4075 8.15861E-05-2.42366E-05-2.45790E-05-4.25758E-06 3.79168E-19-9.31694E-19
 -1      4076 8.14528E-05-2.40257E-05-2.46087E-05-4.14735E-06 2.09624E-19-9.92694E-19
 -1      4077 8.24243E-05-2.41163E-05-2.49901E-05-4.15873E-06 8.14810E-20-1.28091E-18
 -1      4078 8.26318E-05-2.45658E-05-2.48867E-05-4.35474E-06 2.65549E-19-6.86710E-19
 -1      4079 8.26725E-05-2.31262E-05-2.55166E-05-5.58436E-06-2.47626E-19-2.10498E-19
 -1      4080 8.27939E-05-2.33513E-05-2.54825E-05-5.37874E-06-2.71008E-19-3.19079E-20
 -1      4081 8.31868E-05-2.34522E-05-2.55953E-05-5.18676E-06 1.82822E-20 3.03812E-19
 -1      4082 6.80174E-05-1.69571E-05-2.17229E-05 4.85968E-06 4.48550E-19-1.38765E-18
 -1      4083 7.03897E-05-1.76639E-05-2.24672E-05 8.27529E-07 7.40360E-20-1.08815E-18
 -1      4084 9.17040E-05-2.49166E-05-2.86156E-05-4.29371E-06-8.08841E-19-7.93229E-19
 -1      4085 9.18275E-05-2.55631E-05-2.84046E-05-4.05302E-06-6.04491E-19-8.77442E-19
 -1      4086 7.88009E-05-2.04243E-05-2.50238E-05-1.75465E-06 2.82330E-19-1.46386E-18
 -1      4087 8.19088E-05-2.07008E-05-2.62424E-05-2.63339E-06 1.09741E-19-1.42300E-18
 -1      4088 8.29585E-05-2.07126E-05-2.66793E-05-2.96803E-06-4.34736E-20-1.43523E-18
 -1      4089 8.39615E-05-2.16429E-05-2.66969E-05-3.38251E-06-8.35111E-20-1.28346E-18
 -1      4090 8.22181E-05-2.16919E-05-2.59321E-05-3.08482E-06 1.66012E-19-1.36466E-18
 -1      4091 8.32739E-05-2.40251E-05-2.53900E-05-4.96253E-06-3.61521E-19 1.34672E-19
 -1      4092 8.33291E-05-2.41984E-05-2.53464E-05-4.85142E-06-5.18601E-19-1.65323E-19
 -1      4093 8.35751E-05-2.39504E-05-2.55497E-05-4.94302E-06-4.09941E-19 3.57952E-19
 -1      4094 9.17325E-05-2.72310E-05-2.76410E-05-3.49135E-06-3.59619E-19-8.37255E-19
 -1      4095 9.15796E-05-2.73402E-05-2.75329E-05-3.42453E-06-3.80055E-19-6.52077E-19
 -1      4096 9.07717E-05-2.71235E-05-2.72785E-05-3.62451E-06-3.03789E-19-8.49830E-19
 -1      4097 8.50363E-05-3.16869E-05-2.28470E-05-2.06000E-05-1.93676E-19 5.16267E-19
 -1      4098 9.04216E-05-3.29233E-05-2.45642E-05-1.74967E-05-1.39456E-19 3.14789E-19
 -1      4099 8.82540E-05-3.01596E-05-2.48177E-05-1.63028E-05-5.68409E-19 1.17012E-18
 -1      4100 8.06255E-05-2.72690E-05-2.29347E-05-1.81724E-05-2.72359E-19-4.84430E-19
 -1      4101 8.34608E-05-2.43861E-05-2.53155E-05-4.77616E-06-2.64844E-19-2.16713E-19
 -1      4102 8.34907E-05-2.45303E-05-2.52724E-05-4.69988E-06-6.06530E-20 7.51250E-20
 -1      4103 8.38740E-05-2.43793E-05-2.54954E-05-4.77055E-06-3.00190E-19 5.83771E-20
 -1      4104 8.36790E-05-2.49243E-05-2.51783E-05-4.57670E-06 1.46579E-19 4.64909E-19
 -1      4105 8.36745E-05-2.50088E-05-2.51446E-05-4.54838E-06 3.50695E-19 4.59654E-19
 -1      4106 7.45397E-05-1.84778E-05-2.37592E-05 1.68269E-06 3.18623E-19-1.64044E-18
 -1      4107 7.15707E-05-1.78828E-05-2.27039E-05-4.69303E-06 3.49606E-19-6.07773E-19
 -1      4108 8.26902E-05-2.28885E-05-2.56221E-05-5.52422E-06 2.52238E-21-7.71827E-21
 -1      4109 8.37332E-05-2.50988E-05-2.51269E-05-4.53630E-06 4.02131E-19 3.10037E-19
 -1      4110 8.37175E-05-2.51509E-05-2.51016E-05-4.51987E-06 1.84607E-19 3.29157E-19
 -1      4111 8.44093E-05-2.52533E-05-2.53535E-05-4.54415E-06 2.06844E-19 7.71236E-19
 -1      4112 8.46017E-05-2.72036E-05-2.45288E-05-1.58117E-05-1.89451E-19 4.12426E-19
 -1      4113 6.91073E-05-1.94833E-05-2.12764E-05 1.47378E-05 1.68967E-19-2.01361E-18
 -1      4114 6.79777E-05-1.78674E-05-2.13434E-05 1.03427E-05-8.24534E-21-1.48314E-18
 -1      4115 7.34151E-05-1.91857E-05-2.31594E-05-7.72082E-06 5.14824E-19-4.44176E-19
 -1      4116 1.10038E-04-4.91553E-05-2.60751E-05-1.33042E-05-9.81976E-19-1.49734E-18
 -1      4117 9.00817E-05-2.39077E-05-2.83630E-05-4.34217E-06-8.79328E-19-1.17587E-18
 -1      4118 9.15114E-05-2.43723E-05-2.87784E-05-4.47566E-06-9.53129E-19-8.81106E-19
 -1      4119 8.05327E-05-2.11365E-05-2.54522E-05-7.49134E-06-4.18723E-19-5.82046E-19
 -1      4120 8.67916E-05-2.27670E-05-2.74465E-05-3.99070E-06-5.52538E-19-1.09247E-18
 -1      4121 8.76629E-05-2.36175E-05-2.74374E-05-4.09867E-06-6.34670E-19-9.83120E-19
 -1      4122 8.56979E-05-2.25256E-05-2.70815E-05-3.78086E-06-2.87552E-19-1.01368E-18
 -1      4123 8.29946E-05-2.45859E-05-2.50319E-05-4.64194E-06-2.13653E-19-1.98619E-19
 -1      4124 1.12471E-04-4.81725E-05-2.82684E-05-5.38411E-06-5.85300E-19-1.17653E-18
 -1      4125 8.36538E-05-2.49205E-05-2.51717E-05-4.40597E-06-1.53397E-20-5.58224E-19
 -1      4126 8.35710E-05-2.47361E-05-2.52134E-05-4.33015E-06 2.06770E-20-7.46331E-19
 -1      4127 9.09600E-05-2.54247E-05-2.80858E-05-4.08414E-06-6.99863E-19-1.14523E-18
 -1      4128 9.19347E-05-2.60871E-05-2.82183E-05-3.92206E-06-7.17797E-19-8.61206E-19
 -1      4129 9.19169E-05-2.64846E-05-2.80462E-05-3.74298E-06-7.93702E-19-9.10209E-19
 -1      4130 9.19139E-05-2.68165E-05-2.78964E-05-3.65653E-06-7.18656E-19-7.68627E-19
 -1      4131 9.18135E-05-2.70483E-05-2.77593E-05-3.54232E-06-5.78927E-19-8.27830E-19
 -1      4132 9.10724E-05-2.63134E-05-2.77527E-05-3.85987E-06-6.49964E-19-1.10459E-18
 -1      4133 8.25580E-05-2.24354E-05-2.57699E-05-3.35134E-06 1.81133E-19-1.27058E-18
 -1      4134 8.34346E-05-2.23961E-05-2.61578E-05-3.47300E-06 2.10844E-20-1.15592E-18
 -1      4135 8.28448E-05-2.30379E-05-2.56303E-05-3.67307E-06 1.51280E-20-1.19324E-18
 -1      4136 9.09865E-05-2.68506E-05-2.74869E-05-3.71281E-06-4.44927E-19-9.60308E-19
 -1      4137 8.97920E-05-2.43849E-05-2.80229E-05-4.19702E-06-8.01746E-19-1.14028E-18
 -1      4138 7.76491E-05-2.41589E-05-2.28616E-05-1.63182E-05-1.25018E-19-1.03623E-18
 -1      4139 8.19859E-05-2.60087E-05-2.39303E-05-1.59903E-05-5.57679E-19-3.01411E-19
 -1      4140 8.13247E-05-2.41980E-05-2.44555E-05-1.40767E-05 3.83838E-19-1.28213E-20
 -1      4141 7.57413E-05-2.18622E-05-2.31334E-05-1.34317E-05 1.05674E-19-5.62073E-19
 -1      4142 8.37357E-05-2.51459E-05-2.51089E-05-4.47719E-06 1.59468E-19-4.72791E-19
 -1      4143 8.36791E-05-2.50461E-05-2.51278E-05-4.43920E-06 1.17292E-19-5.24240E-19
 -1      4144 8.45975E-05-2.52274E-05-2.54447E-05-4.43184E-06-2.81200E-20-6.10030E-19
 -1      4145 8.34958E-05-2.45059E-05-2.52829E-05-4.25870E-06 5.21270E-20-9.66447E-19
 -1      4146 8.33720E-05-2.42095E-05-2.53533E-05-4.12266E-06-7.03771E-20-1.01040E-18
 -1      4147 8.44969E-05-2.48461E-05-2.55648E-05-4.31789E-06-1.35349E-19-6.25574E-19
 -1      4148 8.36015E-05-2.48006E-05-2.52033E-05-4.60313E-06 8.80551E-20 2.96020E-19
 -1      4149 8.42770E-05-2.50309E-05-2.53908E-05-4.58192E-06 2.09593E-19 7.10526E-19
 -1      4150 8.35912E-05-2.46858E-05-2.52429E-05-4.65193E-06-1.00501E-19 1.85418E-19
 -1      4151 8.98320E-05-2.69812E-05-2.69346E-05-3.77142E-06-3.86497E-19-8.71401E-19
 -1      4152 8.96671E-05-2.69812E-05-2.68661E-05-3.74840E-06-7.33704E-19-8.34026E-19
 -1      4153 9.00769E-05-2.68460E-05-2.70974E-05-3.81612E-06-3.60270E-19-8.61352E-19
 -1      4154 8.99447E-05-2.69304E-05-2.70074E-05-3.77850E-06-3.26089E-19-9.44045E-19
 -1      4155 8.91204E-05-2.67075E-05-2.67491E-05-3.95537E-06-4.33048E-19-1.03225E-18
 -1      4156 8.95236E-05-2.69578E-05-2.68127E-05-3.74547E-06-8.17831E-19-5.13158E-19
 -1      4157 8.93371E-05-2.68945E-05-2.67614E-05-3.72947E-06-4.87222E-19-5.20064E-19
 -1      4158 8.88648E-05-2.67392E-05-2.66262E-05-3.93504E-06-5.75725E-19-8.97231E-19
 -1      4159 8.91704E-05-2.68137E-05-2.67235E-05-3.72620E-06-1.22602E-19-4.52680E-19
 -1      4160 8.89678E-05-2.67018E-05-2.66857E-05-3.70949E-06 2.10312E-19-4.00179E-19
 -1      4161 8.85556E-05-2.66360E-05-2.65382E-05-3.92260E-06-3.04378E-19-3.56337E-19
 -1      4162 8.87843E-05-2.65777E-05-2.66595E-05-3.70470E-06-3.92221E-21-5.90974E-19
 -1      4163 8.85645E-05-2.64247E-05-2.66320E-05-3.68391E-06-1.84282E-19-6.48830E-19
 -1      4164 8.82104E-05-2.64298E-05-2.64773E-05-3.91074E-06-8.25007E-20-7.56740E-19
 -1      4165 8.83610E-05-2.62609E-05-2.66144E-05-3.67053E-06-1.29526E-19-5.81281E-19
 -1      4166 8.81238E-05-2.60717E-05-2.65940E-05-3.64003E-06 9.31300E-20-7.60878E-19
 -1      4167 8.78214E-05-2.61324E-05-2.64368E-05-3.88897E-06-7.14878E-20-1.06293E-18
 -1      4168 8.78933E-05-2.58708E-05-2.65820E-05-3.61953E-06 5.50109E-19-6.08896E-19
 -1      4169 8.76300E-05-2.56452E-05-2.65658E-05-3.57460E-06 5.02202E-19-3.24954E-19
 -1      4170 8.73941E-05-2.57641E-05-2.64108E-05-3.85331E-06 3.09771E-19-7.51498E-19
 -1      4171 8.73666E-05-2.54061E-05-2.65562E-05-3.54308E-06 2.80970E-19-1.63585E-20
 -1      4172 8.70665E-05-2.51424E-05-2.65410E-05-3.48034E-06 4.75781E-20 1.26324E-19
 -1      4173 8.69063E-05-2.53158E-05-2.63925E-05-3.80438E-06 6.59556E-19-8.48182E-19
 -1      4174 8.67564E-05-2.48609E-05-2.65299E-05-3.43170E-06 5.91666E-20 3.40660E-19
 -1      4175 8.64108E-05-2.45548E-05-2.65122E-05-3.34599E-06-9.85371E-20 5.42814E-19
 -1      4176 8.63303E-05-2.47730E-05-2.63738E-05-3.73805E-06 2.33687E-19-5.22587E-19
 -1      4177 8.60376E-05-2.42270E-05-2.64953E-05-3.28174E-06-5.48482E-19 8.44910E-19
 -1      4178 8.56297E-05-2.38731E-05-2.64704E-05-3.16897E-06-3.86843E-19 7.26387E-19
 -1      4179 8.56563E-05-2.41464E-05-2.63483E-05-3.65051E-06-1.45319E-19 2.06868E-19
 -1      4180 8.51715E-05-2.34903E-05-2.64417E-05-3.08548E-06-5.08004E-19 8.51205E-19
 -1      4181 8.46793E-05-2.30807E-05-2.64036E-05-2.93976E-06-5.51031E-19 6.97804E-19
 -1      4182 8.48353E-05-2.34134E-05-2.63046E-05-3.53770E-06-3.01153E-19 6.30550E-19
 -1      4183 8.41069E-05-2.26330E-05-2.63555E-05-2.83523E-06-4.41114E-19 7.73344E-19
 -1      4184 8.35006E-05-2.21566E-05-2.62965E-05-2.64871E-06-4.36487E-20 4.99097E-19
 -1      4185 8.38202E-05-2.25548E-05-2.62290E-05-3.39978E-06-7.21935E-19-1.48363E-19
 -1      4186 8.27704E-05-2.16283E-05-2.62203E-05-2.52300E-06-7.44481E-20 7.22953E-20
 -1      4187 8.20047E-05-2.10670E-05-2.61340E-05-2.28229E-06-3.43747E-19-1.81882E-19
 -1      4188 8.25411E-05-2.15410E-05-2.61045E-05-3.24206E-06-5.13575E-19-7.90725E-19
 -1      4189 8.10474E-05-2.04288E-05-2.60302E-05-2.13894E-06-4.22865E-19 1.53591E-20
 -1      4190 8.00449E-05-1.97492E-05-2.59285E-05-1.81445E-06-4.33522E-19 1.83012E-19
 -1      4191 8.08901E-05-2.03194E-05-2.59218E-05-3.08182E-06-3.12334E-19-8.71888E-19
 -1      4192 7.87386E-05-1.89376E-05-2.58477E-05-1.66618E-06-2.65902E-19 4.76456E-22
 -1      4193 7.73343E-05-1.80702E-05-2.58182E-05-1.17853E-06 1.50401E-19 3.05885E-19
 -1      4194 7.86821E-05-1.87839E-05-2.57302E-05-2.97033E-06-9.18237E-20-1.23296E-19
 -1      4195 7.54203E-05-1.69360E-05-2.59633E-05-1.08153E-06 4.32516E-19-5.75982E-20
 -1      4196 7.30432E-05-1.56696E-05-2.62642E-05-1.86768E-07 3.90747E-19 2.87568E-19
 -1      4197 7.55387E-05-1.67160E-05-2.57910E-05-3.07864E-06 1.33864E-19 8.89385E-20
 -1      4198 6.97383E-05-1.40787E-05-2.69140E-05-8.46310E-07-9.16913E-20-3.99800E-19
 -1      4199 6.28073E-05-1.09446E-05-2.77614E-05 1.33928E-06-1.49501E-19-2.57498E-19
 -1      4200 7.06005E-05-1.38049E-05-2.67441E-05-4.17185E-06-5.88238E-19-8.51268E-19
 -1      4201 5.05195E-05-5.81727E-06-2.71368E-05-7.85644E-06-4.16740E-19-4.38763E-19
 -1      4202 7.75990E-05-1.47828E-05-2.53370E-05 2.51711E-06-7.18284E-19-4.64174E-19
 -1      4203 6.40889E-05-1.10272E-05-2.80163E-05-1.26073E-05-4.54010E-19-1.78046E-18
 -1      4204 1.06489E-04-2.63824E-05-2.41351E-05 1.10758E-05-4.70950E-19-6.23416E-19
 -1      4205 9.45064E-05-2.44831E-05-2.39760E-05 2.03556E-06-4.10017E-19-7.76729E-19
 -1      4206 8.92781E-05-2.56803E-05-2.35459E-05-1.07256E-05-7.36919E-19-1.56193E-18
 -1      4207 8.73032E-05-2.22969E-05-2.47858E-05 3.91381E-06-8.46173E-19-4.24787E-19
 -1      4208 8.28405E-05-2.07496E-05-2.49946E-05 2.49769E-06-1.25070E-19-1.08992E-18
 -1      4209 8.71965E-05-2.23479E-05-2.45401E-05-3.76025E-06-6.00758E-19-1.57379E-18
 -1      4210 7.81779E-05-1.93669E-05-2.45000E-05 1.86197E-06 4.29128E-19-1.09871E-18
 -1      4211 8.27642E-05-2.27114E-05-2.57353E-05-5.31191E-06-2.95624E-20-2.78440E-19
 -1      4212 8.30442E-05-2.30246E-05-2.57317E-05-5.13944E-06 6.71411E-20-1.74494E-21
 -1      4213 8.32350E-05-2.39053E-05-2.54286E-05-4.03114E-06-7.28457E-20-1.12850E-18
 -1      4214 8.30443E-05-2.34751E-05-2.55311E-05-3.81207E-06-8.94534E-20-1.19246E-18
 -1      4215 8.39666E-05-2.35386E-05-2.58978E-05-3.88075E-06-7.19109E-20-1.07159E-18
 -1      4216 8.42949E-05-2.42894E-05-2.57173E-05-4.14256E-06-9.06843E-20-9.36349E-19
 -1      4217 7.86490E-05-2.06902E-05-2.53915E-05-1.00677E-05-6.44619E-19-2.47757E-19
 -1      4218 7.83538E-05-2.01960E-05-2.52820E-05-9.41538E-06-1.08632E-18-1.69036E-19
 -1      4219 7.89907E-05-2.02187E-05-2.52811E-05-8.36358E-06-1.15597E-18 4.92642E-19
 -1      4220 7.92237E-05-2.02893E-05-2.53435E-05-7.76617E-06-6.25868E-19 2.00755E-19
 -1      4221 7.76535E-05-1.91820E-05-2.52909E-05-8.41574E-06-8.71001E-19 1.04714E-19
 -1      4222 8.36965E-05-2.51516E-05-2.56572E-05-8.99124E-06-7.42424E-19 1.13926E-19
 -1      4223 8.23553E-05-2.64251E-05-2.64919E-05-1.19618E-05-2.22770E-19 8.92773E-19
 -1      4224 7.96297E-05-1.80485E-05-2.48219E-05-9.49945E-06-8.49362E-19 1.77136E-19
 -1      4225 8.08378E-05-2.03696E-05-2.48382E-05-8.86813E-06-8.87055E-19 2.40346E-20
 -1      4226 8.36901E-05-2.42118E-05-2.49299E-05-1.05509E-05-7.68259E-19-1.58819E-19
 -1      4227 8.09863E-05-1.97172E-05-2.53620E-05-9.58115E-06-7.34986E-19 1.34414E-19
 -1      4228 7.94173E-05-1.80124E-05-2.51326E-05-9.60200E-06-1.02279E-18 1.36955E-19
 -1      4229 8.01398E-05-1.89126E-05-2.50951E-05-1.03782E-05-7.69106E-19-6.60209E-19
 -1      4230 8.13688E-05-2.26205E-05-2.49683E-05-1.24138E-05 8.68116E-19-1.62921E-20
 -1      4231 8.07149E-05-2.09799E-05-2.52544E-05-1.07597E-05 1.63795E-19 1.97570E-19
 -1      4232 7.94576E-05-1.91134E-05-2.52465E-05-1.04048E-05-3.33546E-19-1.01395E-18
 -1      4233 7.99716E-05-2.05999E-05-2.54423E-05-7.13453E-06-7.44073E-19 4.23239E-19
 -1      4234 8.03637E-05-2.08797E-05-2.55177E-05-6.68356E-06-5.67743E-19-7.08761E-20
 -1      4235 7.91357E-05-1.98370E-05-2.54077E-05-6.85778E-06-4.88501E-19 1.13617E-18
 -1      4236 8.41400E-05-2.24546E-05-2.64433E-05-3.54183E-06-3.93386E-20-1.14623E-18
 -1      4237 8.50070E-05-2.24543E-05-2.68087E-05-3.69326E-06-2.28603E-19-1.08329E-18
 -1      4238 8.58916E-05-2.32622E-05-2.68297E-05-3.92429E-06-2.64834E-19-9.73387E-19
 -1      4239 8.44831E-05-2.31532E-05-2.62816E-05-3.80372E-06-1.17962E-19-1.10603E-18
 -1      4240 8.10310E-05-2.12718E-05-2.56017E-05-6.29380E-06 2.10996E-19 1.12559E-19
 -1      4241 8.14250E-05-2.16119E-05-2.56479E-05-5.96761E-06 2.35901E-19 3.87631E-19
 -1      4242 8.05580E-05-2.07243E-05-2.56040E-05-5.95448E-06-3.35345E-19 8.93486E-19
 -1      4243 8.33995E-05-2.33512E-05-2.57342E-05-5.02380E-06 1.09164E-19-8.80584E-20
 -1      4244 8.36208E-05-2.36291E-05-2.57178E-05-4.89763E-06-1.08307E-19 9.72004E-21
 -1      4245 8.35327E-05-2.31744E-05-2.58527E-05-4.82490E-06-9.81725E-20-6.78101E-19
 -1      4246 8.39049E-05-2.39149E-05-2.57093E-05-4.81667E-06-4.36591E-19 5.99003E-21
 -1      4247 8.40785E-05-2.41556E-05-2.56860E-05-4.72558E-06-4.91795E-19-1.73832E-19
 -1      4248 8.41584E-05-2.38139E-05-2.58520E-05-4.66674E-06-2.49099E-19-1.02234E-18
 -1      4249 7.98976E-05-2.31157E-05-2.64108E-05-1.20703E-05-6.22357E-19 4.81538E-19
 -1      4250 7.87855E-05-2.14805E-05-2.57692E-05-1.16938E-05-6.52957E-19 8.89385E-20
 -1      4251 7.83847E-05-2.30555E-05-2.65678E-05-1.48061E-05-6.34004E-19-1.11808E-19
 -1      4252 8.19767E-05-2.20062E-05-2.56971E-05-5.71639E-06-8.21646E-20 1.13291E-19
 -1      4253 8.23195E-05-2.23454E-05-2.57142E-05-5.48021E-06-1.18523E-20 1.90459E-19
 -1      4254 8.27462E-05-2.24407E-05-2.58233E-05-5.05722E-06-2.34887E-19-3.66084E-19
 -1      4255 8.17646E-05-2.16166E-05-2.57462E-05-5.40670E-06-2.00388E-19 2.30860E-19
 -1      4256 8.89459E-05-2.45842E-05-2.75859E-05-4.15029E-06-6.21517E-19-9.56848E-19
 -1      4257 8.99962E-05-2.50407E-05-2.78400E-05-4.14519E-06-6.04361E-19-1.09686E-18
 -1      4258 9.00914E-05-2.55506E-05-2.76598E-05-4.02556E-06-4.70291E-19-1.21660E-18
 -1      4259 9.02222E-05-2.64952E-05-2.73106E-05-3.89120E-06-4.64513E-19-5.48290E-19
 -1      4260 9.01425E-05-2.66941E-05-2.71939E-05-3.83113E-06-3.78518E-19-6.65567E-19
 -1      4261 8.93000E-05-2.64984E-05-2.69150E-05-3.98479E-06-4.14336E-19-6.22939E-19
 -1      4262 7.94017E-05-1.95939E-05-2.45930E-05-2.75992E-06-8.98649E-20-1.17992E-18
 -1      4263 8.41021E-05-2.47388E-05-2.54401E-05-4.65436E-06 2.09558E-20 2.83256E-19
 -1      4264 8.78822E-05-2.42844E-05-2.72590E-05-4.08237E-06-4.15510E-19-8.35169E-19
 -1      4265 8.50849E-05-2.54140E-05-2.55708E-05-4.47426E-06 1.44971E-19 5.06277E-19
 -1      4266 8.51468E-05-2.55125E-05-2.55574E-05-4.46216E-06-3.90466E-20 2.98117E-19
 -1      4267 8.45142E-05-2.54049E-05-2.53337E-05-4.53005E-06-8.87318E-20 4.41706E-19
 -1      4268 8.37644E-05-2.52062E-05-2.50940E-05-4.51837E-06-1.19808E-19 1.16576E-19
 -1      4269 8.37367E-05-2.52195E-05-2.50799E-05-4.50707E-06-7.22871E-20-1.40737E-19
 -1      4270 7.90522E-05-2.16815E-05-2.44382E-05-1.25447E-05 8.96904E-19-3.53027E-19
 -1      4271 7.61014E-05-1.93048E-05-2.42179E-05-7.42325E-06 5.68094E-19-1.14757E-18
 -1      4272 7.54971E-05-2.02130E-05-2.34870E-05-1.12297E-05 5.43544E-19-6.95202E-19
 -1      4273 8.43039E-05-2.43991E-05-2.56725E-05-4.67365E-06-5.35776E-19 3.17257E-20
 -1      4274 8.44378E-05-2.46027E-05-2.56470E-05-4.60782E-06-6.83433E-20 3.02692E-19
 -1      4275 8.46654E-05-2.43784E-05-2.58351E-05-4.54271E-06-2.23390E-19-5.61449E-19
 -1      4276 8.55209E-05-2.55600E-05-2.56986E-05-4.40478E-06 8.24020E-20-5.73250E-19
 -1      4277 8.54959E-05-2.54195E-05-2.57473E-05-4.36065E-06-7.29010E-21-4.74686E-19
 -1      4278 8.37667E-05-2.52284E-05-2.50857E-05-4.50556E-06 7.08025E-20-1.89339E-19
 -1      4279 8.37275E-05-2.51934E-05-2.50862E-05-4.48694E-06 1.55730E-19-2.75481E-19
 -1      4280 8.46177E-05-2.54184E-05-2.53724E-05-4.49245E-06 1.28479E-19-1.49281E-19
 -1      4281 8.45834E-05-2.54660E-05-2.53377E-05-4.51796E-06-1.63304E-19 8.99331E-20
 -1      4282 7.67247E-05-1.94803E-05-2.56696E-05-1.11043E-05-1.12317E-18-1.24429E-18
 -1      4283 8.48727E-05-2.51454E-05-2.55963E-05-4.51228E-06 1.45310E-19 4.93195E-19
 -1      4284 8.49518E-05-2.52777E-05-2.55767E-05-4.48500E-06 4.16878E-19 5.95643E-19
 -1      4285 8.56776E-05-2.55298E-05-2.57770E-05-4.41041E-06 2.62958E-19 2.23678E-19
 -1      4286 9.01980E-05-2.59213E-05-2.75475E-05-3.99827E-06-2.65601E-19-1.06042E-18
 -1      4287 9.01912E-05-2.62582E-05-2.74013E-05-3.91251E-06-3.52491E-19-6.62312E-19
 -1      4288 8.93373E-05-2.60998E-05-2.71006E-05-4.03083E-06-2.38941E-19-4.89318E-19
 -1      4289 8.92210E-05-2.55195E-05-2.73011E-05-4.08352E-06-1.47574E-19-8.82127E-19
 -1      4290 8.63968E-05-2.55636E-05-2.60710E-05-4.31365E-06-2.01022E-19-5.48889E-19
 -1      4291 8.54855E-05-2.52354E-05-2.58222E-05-4.33708E-06-1.96022E-19-6.59162E-19
 -1      4292 8.54133E-05-2.49853E-05-2.58972E-05-4.25346E-06-2.86344E-19-8.19504E-19
 -1      4293 7.93239E-05-1.97510E-05-2.48226E-05-6.64801E-06 4.35851E-19-1.61201E-18
 -1      4294 8.83897E-05-2.64475E-05-2.65454E-05-4.10098E-06-4.96318E-19-6.00564E-19
 -1      4295 8.82791E-05-2.65022E-05-2.64765E-05-4.08193E-06-6.11495E-19-7.32395E-19
 -1      4296 8.81899E-05-2.65280E-05-2.64250E-05-4.09033E-06-4.32172E-19-8.07735E-19
 -1      4297 8.80457E-05-2.65053E-05-2.63749E-05-4.07643E-06-3.35112E-19-6.74988E-19
 -1      4298 8.74477E-05-2.62723E-05-2.62190E-05-4.24087E-06-5.43500E-19-3.50004E-19
 -1      4299 8.79322E-05-2.64660E-05-2.63408E-05-4.07806E-06-4.04898E-19-4.04373E-19
 -1      4300 8.77676E-05-2.63868E-05-2.63051E-05-4.06918E-06-2.37383E-19-2.40701E-19
 -1      4301 8.72379E-05-2.62530E-05-2.61376E-05-4.23769E-06-2.58226E-19-4.74150E-19
 -1      4302 8.70943E-05-2.61097E-05-2.61357E-05-4.17024E-06-2.58246E-19-1.64071E-19
 -1      4303 8.69144E-05-2.59799E-05-2.61159E-05-4.16014E-06-2.38078E-20-2.18479E-19
 -1      4304 8.67810E-05-2.58459E-05-2.61152E-05-4.16732E-06 1.43880E-19-1.29432E-19
 -1      4305 8.65818E-05-2.56760E-05-2.61036E-05-4.15678E-06 2.13593E-19-5.15475E-20
 -1      4306 8.64552E-05-2.52628E-05-2.62263E-05-4.03236E-06 6.34469E-19-3.00521E-19
 -1      4307 8.61852E-05-2.50152E-05-2.62183E-05-4.00449E-06 6.08015E-19-4.45996E-19
 -1      4308 8.54908E-05-2.45769E-05-2.61090E-05-4.18783E-06 2.12025E-19-6.99793E-19
 -1      4309 8.51747E-05-2.42853E-05-2.61019E-05-4.16688E-06 1.55161E-20-5.93931E-19
 -1      4310 8.48802E-05-2.39894E-05-2.61037E-05-4.21338E-06-1.33365E-19-8.37452E-19
 -1      4311 8.44977E-05-2.36461E-05-2.60893E-05-4.18433E-06-2.77227E-19-8.32448E-19
 -1      4312 8.41291E-05-2.33023E-05-2.60799E-05-4.25539E-06-2.86674E-19-5.67829E-19
 -1      4313 8.36588E-05-2.29020E-05-2.60526E-05-4.22185E-06-3.52679E-19-6.82378E-19
 -1      4314 8.31942E-05-2.25076E-05-2.60241E-05-4.33039E-06-5.75454E-19-5.67865E-19
 -1      4315 8.26035E-05-2.20405E-05-2.59753E-05-4.29702E-06-7.18233E-19-7.84411E-19
 -1      4316 8.20171E-05-2.15951E-05-2.59179E-05-4.46982E-06-7.55095E-19-6.48791E-20
 -1      4317 8.12577E-05-2.10470E-05-2.58379E-05-4.44750E-06-4.92383E-19 6.90828E-20
 -1      4318 8.05215E-05-2.05573E-05-2.57445E-05-4.73857E-06-3.17823E-19 1.93272E-19
 -1      4319 7.95158E-05-1.99044E-05-2.56331E-05-4.75443E-06-1.31803E-19 1.72227E-19
 -1      4320 7.86134E-05-1.93988E-05-2.55248E-05-5.27449E-06-3.46142E-19 5.26007E-19
 -1      4321 7.72289E-05-1.86011E-05-2.54366E-05-5.40590E-06-4.13875E-19 4.00911E-19
 -1      4322 7.62044E-05-1.81789E-05-2.54391E-05-6.37422E-06-4.45579E-19-3.08108E-20
 -1      4323 7.42098E-05-1.71989E-05-2.55996E-05-6.88981E-06-7.69662E-19-3.81377E-19
 -1      4324 7.32822E-05-1.72083E-05-2.60493E-05-8.64977E-06-8.28292E-19-4.93185E-19
 -1      4325 7.03743E-05-1.62814E-05-2.69891E-05-1.07388E-05-7.45071E-19-1.02067E-18
 -1      4326 6.98924E-05-1.83806E-05-2.77943E-05-1.34058E-05-7.03037E-19-7.45389E-19
 -1      4327 7.92658E-05-2.49777E-05-2.64935E-05-1.19611E-05-6.94567E-19-1.05032E-18
 -1      4328 8.83637E-05-2.26435E-05-2.43190E-05-3.48953E-06-5.01020E-19-1.19940E-18
 -1      4329 8.58441E-05-2.06178E-05-2.38224E-05-7.45296E-06-3.30555E-19-1.18754E-18
 -1      4330 8.34036E-05-1.97694E-05-2.47450E-05-7.89805E-06-7.57459E-19-1.31205E-18
 -1      4331 8.09321E-05-1.95084E-05-2.51240E-05-7.01562E-06-8.04046E-19-1.29300E-18
 -1      4332 8.66910E-05-2.39927E-05-2.68741E-05-4.05435E-06-3.85766E-19-7.72192E-19
 -1      4333 8.79751E-05-2.48674E-05-2.70401E-05-4.14389E-06-2.31789E-19-8.03734E-19
 -1      4334 8.60968E-05-2.57981E-05-2.58416E-05-4.36075E-06-1.88942E-19-5.33453E-19
 -1      4335 8.69872E-05-2.60048E-05-2.61348E-05-4.29355E-06-2.14814E-19-5.50426E-19
 -1      4336 8.64442E-05-2.59360E-05-2.59347E-05-4.31811E-06-2.10887E-19-9.16764E-21
 -1      4337 8.57944E-05-2.57778E-05-2.57203E-05-4.39735E-06-2.33145E-19 5.55928E-20
 -1      4338 8.46202E-05-2.48090E-05-2.56323E-05-4.57648E-06 2.94474E-19 4.64609E-20
 -1      4339 8.47224E-05-2.49756E-05-2.56081E-05-4.53211E-06 2.06237E-19 3.44807E-19
 -1      4340 8.50704E-05-2.48388E-05-2.58123E-05-4.47722E-06 3.94796E-20 1.18736E-19
 -1      4341 8.58491E-05-2.58321E-05-2.57219E-05-4.38795E-06-3.09492E-19-6.28255E-20
 -1      4342 8.68935E-05-2.56821E-05-2.62357E-05-4.05025E-06 2.26664E-19-2.14564E-19
 -1      4343 8.66677E-05-2.54770E-05-2.62263E-05-4.02908E-06 4.47019E-19 8.38896E-20
 -1      4344 8.59748E-05-2.51844E-05-2.60521E-05-4.23132E-06 2.87035E-19 4.68304E-19
 -1      4345 8.80771E-05-2.52364E-05-2.69320E-05-4.11220E-06-7.15523E-20-8.55983E-19
 -1      4346 8.56227E-05-2.46152E-05-2.61469E-05-4.17659E-06-3.04851E-19-7.37844E-19
 -1      4347 8.54831E-05-2.42611E-05-2.62340E-05-4.08688E-06-2.12314E-19-8.54272E-19
 -1      4348 8.53021E-05-2.38513E-05-2.63376E-05-3.95601E-06-2.55504E-19-9.64549E-19
 -1      4349 8.60861E-05-2.58644E-05-2.58085E-05-4.38140E-06-3.41980E-19-1.99932E-19
 -1      4350 8.77127E-05-2.61538E-05-2.63836E-05-4.20831E-06-4.47778E-19-7.37411E-19
 -1      4351 8.71602E-05-2.59074E-05-2.62497E-05-4.26960E-06-1.84536E-19-7.69693E-19
 -1      4352 8.71476E-05-2.57157E-05-2.63298E-05-4.23423E-06-4.07843E-19-8.53258E-19
 -1      4353 8.85732E-05-2.63595E-05-2.66644E-05-4.07577E-06-4.49739E-19-6.44183E-19
 -1      4354 7.83785E-05-2.16606E-05-2.41995E-05-1.22666E-05 8.56827E-19-8.03173E-19
 -1      4355 8.50854E-05-2.45389E-05-2.59463E-05-4.40872E-06 2.16126E-19-6.06170E-19
 -1      4356 8.65965E-05-2.50092E-05-2.63954E-05-4.20422E-06-3.14025E-19-7.55309E-19
 -1      4357 8.53990E-05-2.52210E-05-2.57903E-05-4.43229E-06 2.75670E-19 2.18316E-19
 -1      4358 8.86373E-05-2.61969E-05-2.67588E-05-4.09869E-06-4.40449E-19-6.60655E-19
 -1      4359 8.86164E-05-2.59794E-05-2.68466E-05-4.08999E-06-2.74617E-19-7.12789E-19
 -1      4360 8.78795E-05-2.58356E-05-2.65893E-05-4.18105E-06-3.17390E-19-8.63493E-19
 -1      4361 8.71268E-05-2.54904E-05-2.64126E-05-4.23242E-06-2.85594E-19-8.78109E-19
 -1      4362 8.85940E-05-2.57445E-05-2.69360E-05-4.12285E-06 1.98880E-20-9.03272E-19
 -1      4363 8.58760E-05-2.53986E-05-2.59176E-05-4.32559E-06 2.07100E-19 3.88275E-19
 -1      4364 8.59644E-05-2.58786E-05-2.57495E-05-4.39031E-06-2.46864E-19-2.29768E-19
 -1      4365 8.59970E-05-2.58811E-05-2.57640E-05-4.37836E-06-2.59429E-19-1.43607E-19
 -1      4366 8.57228E-05-2.52267E-05-2.59251E-05-4.33573E-06 8.17168E-20 5.40526E-19
 -1      4367 8.55071E-05-2.50117E-05-2.59285E-05-4.34643E-06 2.82634E-19 1.79895E-19
 -1      4368 7.98630E-05-1.98211E-05-2.50423E-05-7.09328E-06-1.22026E-19-1.45319E-18
 -1      4369 8.59980E-05-2.39177E-05-2.66101E-05-4.00803E-06-2.77701E-19-7.97494E-19
 -1      4370 8.73460E-05-2.51291E-05-2.66655E-05-4.16577E-06-1.27931E-19-7.90019E-19
 -1      4371 8.53226E-05-2.47980E-05-2.59383E-05-4.37400E-06 9.04448E-20-1.26467E-19
 -1      4372 7.83674E-05-2.02608E-05-2.47350E-05-1.07935E-05 9.53561E-19-1.32222E-18
 -3
    1PSTEP                         4           1           1          
  100CL  101 1.000000000        4372                     0    1           1
 -4  ERROR       1    1
 -5  STR(%)      1    1    0    0
 -1         1 1.19456E+01
 -1         2 2.40596E+01
 -1         3 9.13497E-02
 -1         4 1.79536E-01
 -1         5 1.44694E+01
 -1         6 1.32779E+01
 -1         7 1.32779E+01
 -1         8 4.26497E+00
 -1         9 2.49354E+00
 -1        10 1.77521E+00
 -1        11 1.43049E+00
 -1        12 1.27183E+00
 -1        13 1.16840E+00
 -1        14 1.10210E+00
 -1        15 1.06688E+00
 -1        16 1.05448E+00
 -1        17 1.05370E+00
 -1        18 1.06292E+00
 -1        19 1.08597E+00
 -1        20 1.17813E+00
 -1        21 2.56625E+00
 -1        22 8.35534E+00
 -1        23 1.32779E+01
 -1        24 3.65799E+00
 -1        25 2.67155E+00
 -1        26 1.49971E+00
 -1        27 8.13870E-01
 -1        28 4.08604E-01
 -1        29 1.62052E-01
 -1        30 1.19103E-01
 -1        31 1.75870E-01
 -1        32 2.28621E-01
 -1        33 2.63691E-01
 -1        34 2.84143E-01
 -1        35 2.92392E-01
 -1        36 2.92392E-01
 -1        37 2.90413E-01
 -1        38 2.83438E-01
 -1        39 2.73820E-01
 -1        40 2.63783E-01
 -1        41 2.52791E-01
 -1        42 2.42156E-01
 -1        43 2.63010E-01
 -1        44 3.00595E-01
 -1        45 3.48121E-01
 -1        46 4.06572E-01
 -1        47 4.79869E-01
 -1        48 5.75995E-01
 -1        49 7.05638E-01
 -1        50 9.15845E-01
 -1        51 1.16605E+00
 -1        52 1.49353E+00
 -1        53 1.77145E+00
 -1        54 1.80511E+00
 -1        55 1.81871E+00
 -1        56 1.81871E+00
 -1        57 2.35380E+00
 -1        58 4.21150E+00
 -1        59 5.43383E+00
 -1        60 5.43383E+00
 -1        61 5.38748E+00
 -1        62 4.70819E+00
 -1        63 2.61866E+00
 -1        64 1.76193E+00
 -1        65 1.68592E+00
 -1        66 1.69045E+00
 -1        67 1.69045E+00
 -1        68 1.32821E+00
 -1        69 1.23094E+00
 -1        70 1.11642E+00
 -1        71 8.72312E-01
 -1        72 1.44694E+01
 -1        73 4.36450E+00
 -1        74 3.40268E+00
 -1        75 2.58887E+00
 -1        76 2.21339E+00
 -1        77 1.94140E+00
 -1        78 1.70430E+00
 -1        79 1.49850E+00
 -1        80 1.32053E+00
 -1        81 1.16846E+00
 -1        82 1.04465E+00
 -1        83 9.43067E-01
 -1        84 8.57958E-01
 -1        85 7.88346E-01
 -1        86 7.33197E-01
 -1        87 6.97133E-01
 -1        88 6.73486E-01
 -1        89 6.60146E-01
 -1        90 6.54562E-01
 -1        91 6.53419E-01
 -1        92 6.52308E-01
 -1        93 6.45451E-01
 -1        94 6.70169E-01
 -1        95 7.12808E-01
 -1        96 7.27098E-01
 -1        97 7.27098E-01
 -1        98 7.03973E-01
 -1        99 6.76034E-01
 -1       100 7.49643E-01
 -1       101 8.30075E-01
 -1       102 8.83587E-01
 -1       103 1.06839E+00
 -1       104 1.23327E+00
 -1       105 1.37820E+00
 -1       106 1.68016E+00
 -1       107 2.42874E+00
 -1       108 3.12442E+00
 -1       109 3.44834E+00
 -1       110 3.53036E+00
 -1       111 3.53036E+00
 -1       112 2.76010E+00
 -1       113 1.73049E+00
 -1       114 9.76573E-01
 -1       115 6.77797E-01
 -1       116 7.56830E-01
 -1       117 7.56830E-01
 -1       118 6.17674E-01
 -1       119 5.70413E-01
 -1       120 3.39792E-01
 -1       121 1.89838E-01
 -1       122 1.89838E-01
 -1       123 1.84903E-01
 -1       124 1.61103E-01
 -1       125 1.18716E-01
 -1       126 8.37034E-02
 -1       127 2.03985E-01
 -1       128 2.97065E-01
 -1       129 3.23271E-01
 -1       130 3.23271E-01
 -1       131 2.72904E-01
 -1       132 1.64772E-01
 -1       133 1.28970E-01
 -1       134 2.46462E-01
 -1       135 4.39609E-01
 -1       136 5.21649E-01
 -1       137 2.42256E+01
 -1       138 4.77983E+01
 -1       139 4.77983E+01
 -1       140 2.09278E+01
 -1       141 1.24102E+01
 -1       142 1.26274E+01
 -1       143 1.26274E+01
 -1       144 1.22790E+01
 -1       145 1.21209E+01
 -1       146 1.19113E+01
 -1       147 2.26518E+01
 -1       148 4.83841E+01
 -1       149 4.83841E+01
 -1       150 2.41717E+01
 -1       151 2.56058E+01
 -1       152 2.56058E+01
 -1       153 4.64020E+01
 -1       154 4.64020E+01
 -1       155 1.90205E+01
 -1       156 1.24487E+01
 -1       157 1.24487E+01
 -1       158 1.20982E+01
 -1       159 1.20982E+01
 -1       160 1.16892E+01
 -1       161 2.34995E+01
 -1       162 4.82652E+01
 -1       163 4.82652E+01
 -1       164 2.41897E+01
 -1       165 6.78178E+00
 -1       166 2.92372E+00
 -1       167 1.91451E+00
 -1       168 1.53481E+00
 -1       169 1.33418E+00
 -1       170 1.21669E+00
 -1       171 1.14104E+00
 -1       172 1.09401E+00
 -1       173 1.06688E+00
 -1       174 1.05448E+00
 -1       175 1.06292E+00
 -1       176 1.08597E+00
 -1       177 1.12688E+00
 -1       178 1.65710E+00
 -1       179 3.23810E+00
 -1       180 1.44694E+01
 -1       181 3.65799E+00
 -1       182 2.67155E+00
 -1       183 1.49971E+00
 -1       184 8.94242E-01
 -1       185 5.16021E-01
 -1       186 2.62545E-01
 -1       187 1.83950E-01
 -1       188 2.02866E-01
 -1       189 2.25412E-01
 -1       190 2.46705E-01
 -1       191 2.68534E-01
 -1       192 2.84143E-01
 -1       193 2.92392E-01
 -1       194 2.91890E-01
 -1       195 2.93864E-01
 -1       196 2.93774E-01
 -1       197 2.92765E-01
 -1       198 2.91996E-01
 -1       199 2.92516E-01
 -1       200 2.95156E-01
 -1       201 3.31259E-01
 -1       202 3.81382E-01
 -1       203 4.42920E-01
 -1       204 5.25810E-01
 -1       205 6.35979E-01
 -1       206 7.78313E-01
 -1       207 9.44550E-01
 -1       208 1.10583E+00
 -1       209 1.24580E+00
 -1       210 1.49353E+00
 -1       211 1.77145E+00
 -1       212 1.80511E+00
 -1       213 1.81871E+00
 -1       214 1.62019E+00
 -1       215 2.48335E+00
 -1       216 4.21150E+00
 -1       217 5.43383E+00
 -1       218 5.38748E+00
 -1       219 4.70819E+00
 -1       220 2.88475E+00
 -1       221 1.76193E+00
 -1       222 1.64708E+00
 -1       223 1.68592E+00
 -1       224 1.69045E+00
 -1       225 1.32821E+00
 -1       226 1.23094E+00
 -1       227 1.11642E+00
 -1       228 8.72312E-01
 -1       229 4.36450E+00
 -1       230 3.40268E+00
 -1       231 2.58887E+00
 -1       232 2.21339E+00
 -1       233 1.94140E+00
 -1       234 1.70430E+00
 -1       235 1.49850E+00
 -1       236 1.32053E+00
 -1       237 1.16846E+00
 -1       238 1.04465E+00
 -1       239 9.43067E-01
 -1       240 8.57958E-01
 -1       241 7.88346E-01
 -1       242 7.33197E-01
 -1       243 6.97133E-01
 -1       244 6.73486E-01
 -1       245 6.60146E-01
 -1       246 6.54562E-01
 -1       247 6.53419E-01
 -1       248 6.52308E-01
 -1       249 6.45451E-01
 -1       250 6.25528E-01
 -1       251 6.70169E-01
 -1       252 7.12808E-01
 -1       253 7.27098E-01
 -1       254 7.03973E-01
 -1       255 6.55190E-01
 -1       256 6.76034E-01
 -1       257 7.49643E-01
 -1       258 8.30075E-01
 -1       259 8.83587E-01
 -1       260 1.06839E+00
 -1       261 1.23327E+00
 -1       262 1.37820E+00
 -1       263 1.74388E+00
 -1       264 2.42874E+00
 -1       265 3.12442E+00
 -1       266 3.44834E+00
 -1       267 3.53036E+00
 -1       268 2.76010E+00
 -1       269 1.73049E+00
 -1       270 9.76573E-01
 -1       271 5.66359E-01
 -1       272 6.77797E-01
 -1       273 7.56830E-01
 -1       274 6.17674E-01
 -1       275 5.70413E-01
 -1       276 3.62900E-01
 -1       277 2.56244E-01
 -1       278 3.09362E-01
 -1       279 3.09362E-01
 -1       280 2.85595E-01
 -1       281 2.11331E-01
 -1       282 3.33896E-01
 -1       283 5.27102E-01
 -1       284 6.18979E-01
 -1       285 6.18979E-01
 -1       286 6.06111E-01
 -1       287 4.71765E-01
 -1       288 2.57229E-01
 -1       289 3.79528E-01
 -1       290 3.79528E-01
 -1       291 5.19485E-01
 -1       292 2.88090E+01
 -1       293 2.91599E+01
 -1       294 4.77983E+01
 -1       295 2.23281E+01
 -1       296 1.13613E+01
 -1       297 1.24102E+01
 -1       298 1.26274E+01
 -1       299 1.22790E+01
 -1       300 1.21209E+01
 -1       301 1.19113E+01
 -1       302 1.13173E+01
 -1       303 2.35998E+01
 -1       304 4.83841E+01
 -1       305 3.06285E+01
 -1       306 3.14589E+01
 -1       307 3.14589E+01
 -1       308 2.72105E+01
 -1       309 4.64020E+01
 -1       310 2.03122E+01
 -1       311 1.12048E+01
 -1       312 1.19456E+01
 -1       313 1.24487E+01
 -1       314 1.17092E+01
 -1       315 1.20982E+01
 -1       316 1.16892E+01
 -1       317 1.16456E+01
 -1       318 2.46648E+01
 -1       319 4.82652E+01
 -1       320 3.03094E+01
 -1       321 2.88090E+01
 -1       322 1.66378E+00
 -1       323 3.10631E+00
 -1       324 1.12600E+00
 -1       325 1.00635E+00
 -1       326 9.46830E-01
 -1       327 9.07612E-01
 -1       328 8.83502E-01
 -1       329 8.70115E-01
 -1       330 8.63888E-01
 -1       331 8.59338E-01
 -1       332 8.48546E-01
 -1       333 8.11532E-01
 -1       334 7.73490E-01
 -1       335 2.26361E+00
 -1       336 2.03920E+00
 -1       337 1.40221E+00
 -1       338 9.01420E-01
 -1       339 5.73364E-01
 -1       340 3.68037E-01
 -1       341 2.79766E-01
 -1       342 2.65395E-01
 -1       343 2.65207E-01
 -1       344 2.71649E-01
 -1       345 2.80316E-01
 -1       346 2.88802E-01
 -1       347 2.95998E-01
 -1       348 3.01651E-01
 -1       349 3.06092E-01
 -1       350 3.10044E-01
 -1       351 3.14490E-01
 -1       352 3.20538E-01
 -1       353 3.29277E-01
 -1       354 3.41608E-01
 -1       355 3.58092E-01
 -1       356 4.11454E-01
 -1       357 4.77183E-01
 -1       358 5.55980E-01
 -1       359 6.53137E-01
 -1       360 7.76489E-01
 -1       361 9.22549E-01
 -1       362 1.06842E+00
 -1       363 1.17350E+00
 -1       364 1.28400E+00
 -1       365 1.36186E+00
 -1       366 1.34695E+00
 -1       367 1.23039E+00
 -1       368 1.46635E+00
 -1       369 1.68901E+00
 -1       370 2.35012E+00
 -1       371 3.08033E+00
 -1       372 3.34314E+00
 -1       373 3.12644E+00
 -1       374 2.56939E+00
 -1       375 1.94714E+00
 -1       376 1.47837E+00
 -1       377 1.30942E+00
 -1       378 1.07781E+00
 -1       379 1.07153E+00
 -1       380 8.70080E-01
 -1       381 8.83431E-01
 -1       382 7.59750E-01
 -1       383 1.77339E+00
 -1       384 1.59083E+00
 -1       385 1.41035E+00
 -1       386 1.33315E+00
 -1       387 1.23408E+00
 -1       388 1.12860E+00
 -1       389 1.02541E+00
 -1       390 9.29394E-01
 -1       391 8.43384E-01
 -1       392 7.68049E-01
 -1       393 6.99881E-01
 -1       394 6.40628E-01
 -1       395 5.94240E-01
 -1       396 5.69577E-01
 -1       397 5.52222E-01
 -1       398 5.40465E-01
 -1       399 5.32087E-01
 -1       400 5.24181E-01
 -1       401 5.12983E-01
 -1       402 5.44021E-01
 -1       403 5.90183E-01
 -1       404 6.25425E-01
 -1       405 6.92877E-01
 -1       406 7.64687E-01
 -1       407 7.98399E-01
 -1       408 8.18924E-01
 -1       409 8.18924E-01
 -1       410 7.78859E-01
 -1       411 6.40524E-01
 -1       412 4.96226E-01
 -1       413 7.22074E-01
 -1       414 1.27607E+00
 -1       415 1.76739E+00
 -1       416 1.92848E+00
 -1       417 1.92848E+00
 -1       418 2.03677E+00
 -1       419 2.20233E+00
 -1       420 1.93930E+00
 -1       421 1.38869E+00
 -1       422 9.02137E-01
 -1       423 5.94201E-01
 -1       424 4.80823E-01
 -1       425 4.83385E-01
 -1       426 4.71156E-01
 -1       427 4.61457E-01
 -1       428 3.62900E-01
 -1       429 4.06710E-01
 -1       430 4.06710E-01
 -1       431 3.99304E-01
 -1       432 3.83002E-01
 -1       433 4.08164E-01
 -1       434 6.79442E-01
 -1       435 8.97964E-01
 -1       436 9.03102E-01
 -1       437 9.03102E-01
 -1       438 8.66096E-01
 -1       439 5.99088E-01
 -1       440 4.46836E-01
 -1       441 6.21755E-01
 -1       442 2.91599E+01
 -1       443 2.96324E+01
 -1       444 2.96324E+01
 -1       445 1.69946E+01
 -1       446 9.50109E+00
 -1       447 1.34977E+00
 -1       448 9.37282E+00
 -1       449 1.05312E+01
 -1       450 1.15577E+01
 -1       451 1.03532E+01
 -1       452 7.00234E+00
 -1       453 1.02307E+01
 -1       454 1.76280E+01
 -1       455 3.06285E+01
 -1       456 2.98764E+01
 -1       457 3.14589E+01
 -1       458 2.44527E+01
 -1       459 2.72105E+01
 -1       460 1.61774E+01
 -1       461 9.13883E+00
 -1       462 7.19889E+00
 -1       463 9.35574E+00
 -1       464 1.08819E+01
 -1       465 1.03669E+01
 -1       466 9.88243E+00
 -1       467 7.29028E+00
 -1       468 1.04565E+01
 -1       469 1.78290E+01
 -1       470 3.03094E+01
 -1       471 2.94929E+01
 -1       472 6.46930E+00
 -1       473 1.66439E+01
 -1       474 1.77339E+00
 -1       475 8.14061E-01
 -1       476 8.87233E-01
 -1       477 7.53188E-01
 -1       478 7.40410E-01
 -1       479 7.27973E-01
 -1       480 7.10249E-01
 -1       481 6.76002E-01
 -1       482 1.22751E+00
 -1       483 1.59083E+00
 -1       484 9.01420E-01
 -1       485 4.84350E+00
 -1       486 7.47300E-01
 -1       487 5.25793E-01
 -1       488 3.94321E-01
 -1       489 3.40439E-01
 -1       490 3.19893E-01
 -1       491 3.10908E-01
 -1       492 3.08548E-01
 -1       493 3.09607E-01
 -1       494 3.12223E-01
 -1       495 3.15527E-01
 -1       496 3.19385E-01
 -1       497 3.24206E-01
 -1       498 3.30802E-01
 -1       499 3.40271E-01
 -1       500 3.53880E-01
 -1       501 3.72918E-01
 -1       502 3.98486E-01
 -1       503 4.31187E-01
 -1       504 4.93071E-01
 -1       505 5.71057E-01
 -1       506 6.55136E-01
 -1       507 7.50467E-01
 -1       508 8.76320E-01
 -1       509 1.02406E+00
 -1       510 1.16301E+00
 -1       511 1.33950E+00
 -1       512 1.41335E+00
 -1       513 1.60988E+00
 -1       514 1.84921E+00
 -1       515 2.05628E+00
 -1       516 2.62794E+00
 -1       517 3.19439E+00
 -1       518 3.82753E+00
 -1       519 7.28657E+00
 -1       520 5.79491E+00
 -1       521 3.57047E+00
 -1       522 2.49849E+00
 -1       523 2.59696E+00
 -1       524 2.16412E+00
 -1       525 1.62891E+00
 -1       526 1.36284E+00
 -1       527 1.05785E+00
 -1       528 8.50014E-01
 -1       529 1.33315E+00
 -1       530 1.23408E+00
 -1       531 1.12860E+00
 -1       532 1.02541E+00
 -1       533 9.29394E-01
 -1       534 8.43647E-01
 -1       535 7.68505E-01
 -1       536 6.99923E-01
 -1       537 6.40628E-01
 -1       538 5.88858E-01
 -1       539 5.42053E-01
 -1       540 4.98084E-01
 -1       541 4.54603E-01
 -1       542 4.09064E-01
 -1       543 3.89426E-01
 -1       544 4.27487E-01
 -1       545 4.67390E-01
 -1       546 5.05464E-01
 -1       547 5.50411E-01
 -1       548 6.58829E-01
 -1       549 7.45639E-01
 -1       550 9.44488E-01
 -1       551 9.42649E-01
 -1       552 8.56621E-01
 -1       553 8.28526E-01
 -1       554 7.02992E-01
 -1       555 7.66624E-01
 -1       556 7.98004E-01
 -1       557 1.14495E+00
 -1       558 1.51360E+00
 -1       559 2.10176E+00
 -1       560 1.92848E+00
 -1       561 2.51314E+00
 -1       562 2.20732E+00
 -1       563 1.88308E+00
 -1       564 1.63256E+00
 -1       565 1.33373E+00
 -1       566 9.67004E-01
 -1       567 7.58713E-01
 -1       568 6.38007E-01
 -1       569 4.83385E-01
 -1       570 4.71156E-01
 -1       571 6.60139E-01
 -1       572 7.43061E-01
 -1       573 4.06710E-01
 -1       574 4.55859E-01
 -1       575 1.16945E+00
 -1       576 1.30568E+00
 -1       577 1.32298E+00
 -1       578 1.32298E+00
 -1       579 1.09528E+00
 -1       580 7.99948E-01
 -1       581 7.68059E-01
 -1       582 2.96324E+01
 -1       583 1.43280E+01
 -1       584 1.41035E+00
 -1       585 2.94929E+01
 -1       586 7.62622E+00
 -1       587 1.44572E+01
 -1       588 5.82652E+00
 -1       589 2.44527E+01
 -1       590 7.04261E+00
 -1       591 7.68703E-01
 -1       592 8.18098E+00
 -1       593 5.22190E+00
 -1       594 2.34418E+01
 -1       595 8.60854E+00
 -1       596 1.06321E+01
 -1       597 8.42361E+00
 -1       598 2.20128E+01
 -1       599 2.98764E+01
 -1       600 1.92927E+01
 -1       601 1.36671E+01
 -1       602 5.19224E+00
 -1       603 5.43981E+00
 -1       604 7.76985E+00
 -1       605 8.86322E+00
 -1       606 7.76061E+00
 -1       607 4.05504E+00
 -1       608 8.22698E+00
 -1       609 4.99093E+00
 -1       610 1.97830E+01
 -1       611 1.40221E+00
 -1       612 1.37305E+00
 -1       613 2.02024E+01
 -1       614 9.25023E-01
 -1       615 1.00941E+00
 -1       616 1.99701E+01
 -1       617 9.40147E+00
 -1       618 1.31760E+01
 -1       619 6.21755E-01
 -1       620 6.51763E-01
 -1       621 6.66813E-01
 -1       622 7.12353E-01
 -1       623 7.12353E-01
 -1       624 1.15981E+00
 -1       625 1.21570E+01
 -1       626 3.78872E+00
 -1       627 6.63421E-01
 -1       628 5.34326E-01
 -1       629 4.41231E-01
 -1       630 3.82471E-01
 -1       631 3.56981E-01
 -1       632 3.44773E-01
 -1       633 3.37972E-01
 -1       634 3.34624E-01
 -1       635 3.33601E-01
 -1       636 3.34482E-01
 -1       637 3.37431E-01
 -1       638 3.43087E-01
 -1       639 3.52501E-01
 -1       640 3.67091E-01
 -1       641 3.88579E-01
 -1       642 4.18955E-01
 -1       643 4.60338E-01
 -1       644 5.14409E-01
 -1       645 5.80238E-01
 -1       646 6.62822E-01
 -1       647 7.36316E-01
 -1       648 8.03914E-01
 -1       649 9.56362E-01
 -1       650 1.14335E+00
 -1       651 1.41020E+00
 -1       652 1.45990E+00
 -1       653 1.70773E+00
 -1       654 2.13425E+00
 -1       655 2.80665E+00
 -1       656 3.58530E+00
 -1       657 4.07079E+00
 -1       658 5.43981E+00
 -1       659 2.57161E+00
 -1       660 3.23752E+00
 -1       661 3.35338E+00
 -1       662 2.52693E+00
 -1       663 1.88183E+00
 -1       664 1.50889E+00
 -1       665 1.05785E+00
 -1       666 1.01696E+00
 -1       667 3.82753E+00
 -1       668 1.06656E+00
 -1       669 8.82911E-01
 -1       670 8.13132E-01
 -1       671 7.46314E-01
 -1       672 6.83748E-01
 -1       673 6.25595E-01
 -1       674 5.71240E-01
 -1       675 5.19524E-01
 -1       676 4.68902E-01
 -1       677 4.17577E-01
 -1       678 3.63631E-01
 -1       679 3.05199E-01
 -1       680 3.26409E-01
 -1       681 3.55374E-01
 -1       682 3.85790E-01
 -1       683 4.75890E-01
 -1       684 6.06549E-01
 -1       685 7.45639E-01
 -1       686 1.21235E+00
 -1       687 1.91119E+00
 -1       688 1.29298E+00
 -1       689 1.04087E+00
 -1       690 8.28526E-01
 -1       691 8.78275E-01
 -1       692 1.12555E+00
 -1       693 1.20584E+00
 -1       694 1.29324E+00
 -1       695 2.10176E+00
 -1       696 6.67483E+00
 -1       697 7.50799E+00
 -1       698 4.77072E+00
 -1       699 2.80872E+00
 -1       700 1.88203E+00
 -1       701 1.73000E+00
 -1       702 1.34364E+00
 -1       703 1.15124E+00
 -1       704 8.65302E-01
 -1       705 6.38007E-01
 -1       706 4.60880E-01
 -1       707 6.60585E+00
 -1       708 1.85139E+00
 -1       709 1.50482E+01
 -1       710 1.13585E+00
 -1       711 1.85139E+00
 -1       712 1.28725E+00
 -1       713 1.82096E+00
 -1       714 1.77939E+00
 -1       715 1.29108E+00
 -1       716 1.28341E+01
 -1       717 1.57797E+01
 -1       718 4.48328E+00
 -1       719 3.57047E+00
 -1       720 1.08678E+00
 -1       721 9.52682E-01
 -1       722 7.47300E-01
 -1       723 2.39530E+00
 -1       724 1.15144E+01
 -1       725 1.13796E+00
 -1       726 6.56135E-01
 -1       727 7.71204E-01
 -1       728 5.58641E+00
 -1       729 9.02184E+00
 -1       730 7.99948E-01
 -1       731 1.50908E+01
 -1       732 9.63222E+00
 -1       733 2.49281E+01
 -1       734 1.50356E+01
 -1       735 2.49281E+01
 -1       736 1.04109E+01
 -1       737 3.46927E+00
 -1       738 5.08308E+00
 -1       739 8.14907E+00
 -1       740 8.22763E+00
 -1       741 8.75722E-01
 -1       742 5.86498E+00
 -1       743 8.12242E-01
 -1       744 6.84831E-01
 -1       745 5.79491E+00
 -1       746 5.11612E-01
 -1       747 5.25888E+00
 -1       748 6.63547E+00
 -1       749 1.20657E+01
 -1       750 8.75545E+00
 -1       751 8.95831E+00
 -1       752 1.01538E+01
 -1       753 7.00941E-01
 -1       754 7.22815E-01
 -1       755 8.54813E-01
 -1       756 2.34418E+01
 -1       757 7.27968E-01
 -1       758 7.34107E-01
 -1       759 5.36701E+00
 -1       760 7.50799E+00
 -1       761 5.24340E-01
 -1       762 4.59768E-01
 -1       763 4.14256E-01
 -1       764 3.83731E-01
 -1       765 3.70709E-01
 -1       766 3.61585E-01
 -1       767 3.55446E-01
 -1       768 3.51862E-01
 -1       769 3.50898E-01
 -1       770 3.53063E-01
 -1       771 3.59296E-01
 -1       772 3.71012E-01
 -1       773 3.91341E-01
 -1       774 4.23736E-01
 -1       775 4.69794E-01
 -1       776 5.31751E-01
 -1       777 6.09571E-01
 -1       778 7.22277E-01
 -1       779 8.30391E-01
 -1       780 8.52288E-01
 -1       781 9.30903E-01
 -1       782 1.32578E+00
 -1       783 1.85926E+00
 -1       784 1.42387E+00
 -1       785 1.80611E+00
 -1       786 2.54729E+00
 -1       787 3.38050E+00
 -1       788 5.10755E+00
 -1       789 8.08969E+00
 -1       790 7.81420E-01
 -1       791 4.99904E+00
 -1       792 3.38957E+00
 -1       793 2.51747E+00
 -1       794 1.33675E+00
 -1       795 7.10621E-01
 -1       796 7.64826E-01
 -1       797 6.02628E-01
 -1       798 5.50104E-01
 -1       799 4.98063E-01
 -1       800 4.45449E-01
 -1       801 3.90860E-01
 -1       802 3.32725E-01
 -1       803 2.69526E-01
 -1       804 2.29328E-01
 -1       805 2.47969E-01
 -1       806 2.70298E-01
 -1       807 3.81845E-01
 -1       808 5.06977E-01
 -1       809 6.54492E-01
 -1       810 1.21235E+00
 -1       811 4.24626E+00
 -1       812 8.86736E+00
 -1       813 6.09719E+00
 -1       814 1.97163E+00
 -1       815 1.22113E+00
 -1       816 1.22807E+00
 -1       817 1.45071E+00
 -1       818 2.98287E+00
 -1       819 8.69396E+00
 -1       820 2.69447E+00
 -1       821 1.88203E+00
 -1       822 1.73000E+00
 -1       823 2.03821E+00
 -1       824 1.15124E+00
 -1       825 8.65302E-01
 -1       826 5.52944E-01
 -1       827 1.05765E+01
 -1       828 2.79243E+00
 -1       829 2.12064E+00
 -1       830 2.79243E+00
 -1       831 8.80842E+00
 -1       832 8.63469E+00
 -1       833 8.98844E-01
 -1       834 2.76682E+00
 -1       835 2.02224E+00
 -1       836 9.91866E+00
 -1       837 6.56185E-01
 -1       838 8.92332E-01
 -1       839 8.15800E+00
 -1       840 6.63571E-01
 -1       841 2.55812E+00
 -1       842 8.00974E+00
 -1       843 2.49281E+01
 -1       844 4.77072E+00
 -1       845 7.53524E-01
 -1       846 3.72432E+00
 -1       847 6.55487E-01
 -1       848 6.83419E+00
 -1       849 4.81897E+00
 -1       850 6.66813E-01
 -1       851 7.27968E-01
 -1       852 1.97521E+00
 -1       853 8.61098E-01
 -1       854 8.16386E-01
 -1       855 1.93442E+01
 -1       856 5.37672E+00
 -1       857 1.84074E+00
 -1       858 8.80842E+00
 -1       859 2.25298E+00
 -1       860 4.89905E+00
 -1       861 4.13904E+00
 -1       862 5.82620E+00
 -1       863 7.95957E+00
 -1       864 1.19851E+00
 -1       865 7.01137E+00
 -1       866 9.34468E+00
 -1       867 6.77350E-01
 -1       868 8.55027E-01
 -1       869 9.17874E+00
 -1       870 7.08783E-01
 -1       871 7.81420E-01
 -1       872 5.24340E-01
 -1       873 5.69117E+00
 -1       874 6.42749E+00
 -1       875 2.13788E+00
 -1       876 4.67254E-01
 -1       877 4.33737E-01
 -1       878 4.08140E-01
 -1       879 3.91162E-01
 -1       880 3.80265E-01
 -1       881 3.71717E-01
 -1       882 3.65656E-01
 -1       883 3.62574E-01
 -1       884 3.63245E-01
 -1       885 3.72089E-01
 -1       886 3.91034E-01
 -1       887 4.23736E-01
 -1       888 4.69794E-01
 -1       889 5.31751E-01
 -1       890 6.14393E-01
 -1       891 7.43474E-01
 -1       892 9.22890E-01
 -1       893 1.15161E+00
 -1       894 1.41692E+00
 -1       895 1.42393E+00
 -1       896 2.57681E+00
 -1       897 3.26927E+00
 -1       898 1.42387E+00
 -1       899 2.41127E+00
 -1       900 5.11607E+00
 -1       901 7.83441E-01
 -1       902 3.38957E+00
 -1       903 6.65297E-01
 -1       904 4.76617E-01
 -1       905 5.25574E-01
 -1       906 3.71933E-01
 -1       907 3.13660E-01
 -1       908 2.49460E-01
 -1       909 1.78077E-01
 -1       910 1.47573E-01
 -1       911 1.60167E-01
 -1       912 2.75695E-01
 -1       913 3.84074E-01
 -1       914 5.48610E-01
 -1       915 1.07673E+00
 -1       916 4.24626E+00
 -1       917 1.28181E+01
 -1       918 1.28181E+01
 -1       919 8.09918E+00
 -1       920 1.98483E+00
 -1       921 1.59658E+00
 -1       922 2.04153E+00
 -1       923 4.19287E+00
 -1       924 2.40872E+00
 -1       925 1.55874E+00
 -1       926 2.94096E+00
 -1       927 7.10234E+00
 -1       928 6.67608E+00
 -1       929 6.24109E+00
 -1       930 6.84831E-01
 -1       931 6.34944E+00
 -1       932 6.70445E+00
 -1       933 1.18673E+00
 -1       934 4.25783E-01
 -1       935 6.89215E-01
 -1       936 6.24109E+00
 -1       937 5.08097E-01
 -1       938 7.33198E-01
 -1       939 6.51050E-01
 -1       940 4.30127E+00
 -1       941 7.70435E-01
 -1       942 7.07351E-01
 -1       943 6.20139E-01
 -1       944 5.73370E-01
 -1       945 1.76718E+00
 -1       946 4.36400E+00
 -1       947 3.79256E+00
 -1       948 2.82180E+00
 -1       949 8.55027E-01
 -1       950 3.64238E+00
 -1       951 2.14822E+00
 -1       952 6.42492E+00
 -1       953 7.71230E-01
 -1       954 3.19592E+00
 -1       955 5.08969E+00
 -1       956 8.28482E-01
 -1       957 6.72406E-01
 -1       958 6.48366E-01
 -1       959 4.14091E+00
 -1       960 5.08097E-01
 -1       961 4.48215E-01
 -1       962 4.26831E-01
 -1       963 4.08943E-01
 -1       964 3.94254E-01
 -1       965 3.82560E-01
 -1       966 3.73812E-01
 -1       967 3.68306E-01
 -1       968 3.70045E-01
 -1       969 3.83350E-01
 -1       970 4.10248E-01
 -1       971 4.51072E-01
 -1       972 5.10820E-01
 -1       973 5.95384E-01
 -1       974 7.16374E-01
 -1       975 9.27764E-01
 -1       976 1.29220E+00
 -1       977 2.96004E+00
 -1       978 8.24650E+00
 -1       979 2.00231E+01
 -1       980 2.38516E+01
 -1       981 6.97994E+00
 -1       982 2.76885E+00
 -1       983 5.11607E+00
 -1       984 2.56900E-01
 -1       985 3.03403E-01
 -1       986 1.72317E-01
 -1       987 1.56510E-01
 -1       988 1.98035E-01
 -1       989 3.10245E-01
 -1       990 4.64559E-01
 -1       991 8.84271E-01
 -1       992 2.58253E+00
 -1       993 9.36738E+00
 -1       994 1.28181E+01
 -1       995 1.10560E+01
 -1       996 4.44819E+00
 -1       997 2.07620E+00
 -1       998 2.93737E+00
 -1       999 7.12959E-01
 -1      1000 2.83077E+00
 -1      1001 7.33198E-01
 -1      1002 5.88776E+00
 -1      1003 6.52419E-01
 -1      1004 4.54632E-01
 -1      1005 7.43698E-01
 -1      1006 3.87571E+00
 -1      1007 3.55044E+00
 -1      1008 2.17960E-01
 -1      1009 4.92206E+00
 -1      1010 4.96485E-01
 -1      1011 4.73642E-01
 -1      1012 3.19602E+00
 -1      1013 2.80838E+00
 -1      1014 6.16925E-01
 -1      1015 4.98475E-01
 -1      1016 5.79951E-01
 -1      1017 3.58263E-01
 -1      1018 7.71230E-01
 -1      1019 7.71230E-01
 -1      1020 6.29852E-01
 -1      1021 4.08241E-01
 -1      1022 6.95978E-01
 -1      1023 6.47491E-01
 -1      1024 5.40262E-01
 -1      1025 4.42375E-01
 -1      1026 4.24294E-01
 -1      1027 4.07876E-01
 -1      1028 3.93419E-01
 -1      1029 3.81519E-01
 -1      1030 3.72466E-01
 -1      1031 3.70045E-01
 -1      1032 3.84948E-01
 -1      1033 4.12265E-01
 -1      1034 4.55760E-01
 -1      1035 5.22219E-01
 -1      1036 6.25022E-01
 -1      1037 8.10779E-01
 -1      1038 1.29220E+00
 -1      1039 2.96004E+00
 -1      1040 8.24650E+00
 -1      1041 3.19153E+01
 -1      1042 3.19153E+01
 -1      1043 2.38516E+01
 -1      1044 6.97994E+00
 -1      1045 4.95017E+00
 -1      1046 2.84489E-01
 -1      1047 6.77377E-01
 -1      1048 2.72424E-01
 -1      1049 2.36978E-01
 -1      1050 4.85500E-01
 -1      1051 1.03060E+00
 -1      1052 2.86166E+00
 -1      1053 8.55364E+00
 -1      1054 8.33878E+00
 -1      1055 9.71943E+00
 -1      1056 4.44819E+00
 -1      1057 1.81077E+00
 -1      1058 6.06893E-01
 -1      1059 3.45946E-01
 -1      1060 6.50049E-01
 -1      1061 2.63780E-01
 -1      1062 7.31578E-01
 -1      1063 6.72406E-01
 -1      1064 3.06558E-01
 -1      1065 4.61309E-01
 -1      1066 2.65482E+00
 -1      1067 3.31662E-01
 -1      1068 4.03875E-01
 -1      1069 3.50093E+00
 -1      1070 7.11154E-01
 -1      1071 6.52867E-01
 -1      1072 5.71075E-01
 -1      1073 5.28818E-01
 -1      1074 5.03102E-01
 -1      1075 8.00140E-01
 -1      1076 2.47790E+00
 -1      1077 8.05203E-01
 -1      1078 7.43543E-01
 -1      1079 3.69020E-01
 -1      1080 4.55274E-01
 -1      1081 4.68678E-01
 -1      1082 4.35288E-01
 -1      1083 6.88664E-01
 -1      1084 6.68336E-01
 -1      1085 6.38694E-01
 -1      1086 3.71584E-01
 -1      1087 5.80791E-01
 -1      1088 5.87140E-01
 -1      1089 6.01678E-01
 -1      1090 6.31575E-01
 -1      1091 6.83602E-01
 -1      1092 7.81859E-01
 -1      1093 1.05979E+00
 -1      1094 2.34693E+00
 -1      1095 7.71132E+00
 -1      1096 2.41782E+01
 -1      1097 3.19153E+01
 -1      1098 2.40659E+01
 -1      1099 9.25065E+00
 -1      1100 6.01678E-01
 -1      1101 8.00140E-01
 -1      1102 3.49466E+00
 -1      1103 1.11642E+00
 -1      1104 2.14161E+01
 -1      1105 1.97266E+01
 -1      1106 9.25065E+00
 -1      1107 1.80418E+00
 -1      1108 7.81859E-01
 -1      1109 7.89047E-01
 -1      1110 6.83602E-01
 -1      1111 5.87140E-01
 -1      1112 5.80791E-01
 -1      1113 9.92634E+00
 -1      1114 6.31575E-01
 -1      1115 6.52867E-01
 -1      1116 4.66123E-01
 -1      1117 6.88664E-01
 -1      1118 7.60687E-01
 -1      1119 3.50093E+00
 -1      1120 3.30159E-01
 -1      1121 7.97320E-01
 -1      1122 8.05203E-01
 -1      1123 6.38694E-01
 -1      1124 6.22616E-01
 -1      1125 7.06741E-01
 -1      1126 8.05203E-01
 -1      1127 7.84838E-01
 -1      1128 7.42214E-01
 -1      1129 5.43457E-01
 -1      1130 8.00140E-01
 -1      1131 3.57188E-01
 -1      1132 5.29520E-01
 -1      1133 4.68678E-01
 -1      1134 6.22616E-01
 -1      1135 1.32779E+01
 -1      1136 8.77141E+00
 -1      1137 3.37926E+00
 -1      1138 2.13438E+00
 -1      1139 1.60285E+00
 -1      1140 1.35116E+00
 -1      1141 1.22012E+00
 -1      1142 1.13525E+00
 -1      1143 1.08449E+00
 -1      1144 1.06068E+00
 -1      1145 1.05409E+00
 -1      1146 1.05831E+00
 -1      1147 1.07445E+00
 -1      1148 1.13205E+00
 -1      1149 1.87219E+00
 -1      1150 5.46079E+00
 -1      1151 1.14124E+01
 -1      1152 1.32779E+01
 -1      1153 8.46792E+00
 -1      1154 3.16477E+00
 -1      1155 2.08563E+00
 -1      1156 1.15679E+00
 -1      1157 6.11237E-01
 -1      1158 2.85328E-01
 -1      1159 1.40577E-01
 -1      1160 1.47486E-01
 -1      1161 2.02246E-01
 -1      1162 2.46156E-01
 -1      1163 2.73917E-01
 -1      1164 2.88267E-01
 -1      1165 2.92392E-01
 -1      1166 2.91403E-01
 -1      1167 2.86926E-01
 -1      1168 2.78629E-01
 -1      1169 2.68801E-01
 -1      1170 2.58287E-01
 -1      1171 2.47473E-01
 -1      1172 2.52583E-01
 -1      1173 2.81802E-01
 -1      1174 3.24358E-01
 -1      1175 3.77346E-01
 -1      1176 4.43220E-01
 -1      1177 5.27932E-01
 -1      1178 6.40817E-01
 -1      1179 8.10742E-01
 -1      1180 1.04095E+00
 -1      1181 1.32979E+00
 -1      1182 1.63249E+00
 -1      1183 1.78828E+00
 -1      1184 1.81191E+00
 -1      1185 1.81871E+00
 -1      1186 2.08625E+00
 -1      1187 3.28265E+00
 -1      1188 4.82267E+00
 -1      1189 5.43383E+00
 -1      1190 5.41065E+00
 -1      1191 5.04783E+00
 -1      1192 3.66343E+00
 -1      1193 2.19030E+00
 -1      1194 1.72393E+00
 -1      1195 1.68819E+00
 -1      1196 1.69045E+00
 -1      1197 1.50933E+00
 -1      1198 1.27958E+00
 -1      1199 1.17368E+00
 -1      1200 9.94368E-01
 -1      1201 5.25924E-01
 -1      1202 1.44694E+01
 -1      1203 9.41694E+00
 -1      1204 3.88359E+00
 -1      1205 2.99577E+00
 -1      1206 2.40113E+00
 -1      1207 2.07740E+00
 -1      1208 1.82285E+00
 -1      1209 1.60140E+00
 -1      1210 1.40951E+00
 -1      1211 1.24449E+00
 -1      1212 1.10655E+00
 -1      1213 9.93857E-01
 -1      1214 9.00513E-01
 -1      1215 8.23152E-01
 -1      1216 7.60771E-01
 -1      1217 7.15165E-01
 -1      1218 6.85309E-01
 -1      1219 6.66816E-01
 -1      1220 6.57354E-01
 -1      1221 6.53991E-01
 -1      1222 6.52864E-01
 -1      1223 6.48880E-01
 -1      1224 6.57810E-01
 -1      1225 6.91488E-01
 -1      1226 7.19953E-01
 -1      1227 7.27098E-01
 -1      1228 7.15536E-01
 -1      1229 6.90004E-01
 -1      1230 7.12839E-01
 -1      1231 7.89859E-01
 -1      1232 8.56831E-01
 -1      1233 9.75991E-01
 -1      1234 1.15083E+00
 -1      1235 1.30573E+00
 -1      1236 1.52918E+00
 -1      1237 2.05445E+00
 -1      1238 2.77658E+00
 -1      1239 3.28638E+00
 -1      1240 3.48935E+00
 -1      1241 3.53036E+00
 -1      1242 3.14523E+00
 -1      1243 2.24529E+00
 -1      1244 1.35353E+00
 -1      1245 8.27185E-01
 -1      1246 7.17313E-01
 -1      1247 7.56830E-01
 -1      1248 6.87252E-01
 -1      1249 5.94044E-01
 -1      1250 4.55103E-01
 -1      1251 2.15571E-01
 -1      1252 1.40594E-01
 -1      1253 1.89838E-01
 -1      1254 1.87370E-01
 -1      1255 1.73003E-01
 -1      1256 1.39909E-01
 -1      1257 1.01210E-01
 -1      1258 1.43844E-01
 -1      1259 2.50525E-01
 -1      1260 3.10168E-01
 -1      1261 3.23271E-01
 -1      1262 2.98087E-01
 -1      1263 2.18838E-01
 -1      1264 1.46871E-01
 -1      1265 1.87716E-01
 -1      1266 3.43036E-01
 -1      1267 4.80629E-01
 -1      1268 3.50592E-01
 -1      1269 2.41426E+01
 -1      1270 3.60120E+01
 -1      1271 4.77983E+01
 -1      1272 3.43630E+01
 -1      1273 1.66690E+01
 -1      1274 1.25188E+01
 -1      1275 1.26274E+01
 -1      1276 1.24532E+01
 -1      1277 1.22000E+01
 -1      1278 1.20161E+01
 -1      1279 1.72815E+01
 -1      1280 3.55179E+01
 -1      1281 4.83841E+01
 -1      1282 3.62779E+01
 -1      1283 2.48888E+01
 -1      1284 2.56058E+01
 -1      1285 3.60039E+01
 -1      1286 4.64020E+01
 -1      1287 3.27112E+01
 -1      1288 1.54831E+01
 -1      1289 1.21972E+01
 -1      1290 1.24487E+01
 -1      1291 1.22734E+01
 -1      1292 1.20982E+01
 -1      1293 1.18937E+01
 -1      1294 1.75944E+01
 -1      1295 3.58823E+01
 -1      1296 4.82652E+01
 -1      1297 3.62274E+01
 -1      1298 2.41246E+01
 -1      1299 1.32779E+01
 -1      1300 5.52337E+00
 -1      1301 1.00298E+01
 -1      1302 2.70863E+00
 -1      1303 3.59434E+00
 -1      1304 4.85275E+00
 -1      1305 1.84486E+00
 -1      1306 2.20402E+00
 -1      1307 2.41911E+00
 -1      1308 1.48265E+00
 -1      1309 1.65501E+00
 -1      1310 1.72466E+00
 -1      1311 1.30301E+00
 -1      1312 1.38234E+00
 -1      1313 1.43449E+00
 -1      1314 1.19255E+00
 -1      1315 1.24426E+00
 -1      1316 1.27544E+00
 -1      1317 1.12157E+00
 -1      1318 1.15472E+00
 -1      1319 1.17887E+00
 -1      1320 1.08045E+00
 -1      1321 1.09805E+00
 -1      1322 1.11752E+00
 -1      1323 1.06068E+00
 -1      1324 1.06688E+00
 -1      1325 1.08045E+00
 -1      1326 1.05409E+00
 -1      1327 1.05448E+00
 -1      1328 1.06068E+00
 -1      1329 1.06292E+00
 -1      1330 1.05831E+00
 -1      1331 1.05870E+00
 -1      1332 1.08597E+00
 -1      1333 1.07445E+00
 -1      1334 1.07445E+00
 -1      1335 1.15251E+00
 -1      1336 1.10643E+00
 -1      1337 1.10643E+00
 -1      1338 2.11167E+00
 -1      1339 1.41762E+00
 -1      1340 1.39199E+00
 -1      1341 5.79672E+00
 -1      1342 2.90217E+00
 -1      1343 2.44760E+00
 -1      1344 1.44694E+01
 -1      1345 1.14124E+01
 -1      1346 8.85374E+00
 -1      1347 1.44694E+01
 -1      1348 8.46792E+00
 -1      1349 3.65799E+00
 -1      1350 3.16477E+00
 -1      1351 2.67155E+00
 -1      1352 3.16477E+00
 -1      1353 2.08563E+00
 -1      1354 1.49971E+00
 -1      1355 2.08563E+00
 -1      1356 1.19697E+00
 -1      1357 8.54056E-01
 -1      1358 1.19697E+00
 -1      1359 6.64946E-01
 -1      1360 4.62313E-01
 -1      1361 7.05132E-01
 -1      1362 3.35574E-01
 -1      1363 2.12298E-01
 -1      1364 3.89283E-01
 -1      1365 1.73001E-01
 -1      1366 1.51526E-01
 -1      1367 2.23247E-01
 -1      1368 1.60984E-01
 -1      1369 1.89368E-01
 -1      1370 1.93408E-01
 -1      1371 2.00641E-01
 -1      1372 2.27016E-01
 -1      1373 2.14139E-01
 -1      1374 2.37663E-01
 -1      1375 2.55198E-01
 -1      1376 2.36058E-01
 -1      1377 2.66112E-01
 -1      1378 2.76338E-01
 -1      1379 2.57619E-01
 -1      1380 2.84143E-01
 -1      1381 2.88267E-01
 -1      1382 2.76338E-01
 -1      1383 2.92392E-01
 -1      1384 2.92392E-01
 -1      1385 2.88267E-01
 -1      1386 2.92141E-01
 -1      1387 2.91152E-01
 -1      1388 2.92141E-01
 -1      1389 2.92139E-01
 -1      1390 2.88651E-01
 -1      1391 2.92877E-01
 -1      1392 2.88606E-01
 -1      1393 2.83797E-01
 -1      1394 2.93819E-01
 -1      1395 2.83292E-01
 -1      1396 2.78274E-01
 -1      1397 2.93269E-01
 -1      1398 2.77889E-01
 -1      1399 2.72393E-01
 -1      1400 2.92380E-01
 -1      1401 2.72653E-01
 -1      1402 2.67336E-01
 -1      1403 2.92256E-01
 -1      1404 2.68656E-01
 -1      1405 2.79083E-01
 -1      1406 2.93836E-01
 -1      1407 2.97134E-01
 -1      1408 3.15927E-01
 -1      1409 3.13208E-01
 -1      1410 3.40989E-01
 -1      1411 3.64752E-01
 -1      1412 3.56321E-01
 -1      1413 3.95521E-01
 -1      1414 4.24746E-01
 -1      1415 4.12151E-01
 -1      1416 4.66191E-01
 -1      1417 5.02840E-01
 -1      1418 4.84365E-01
 -1      1419 5.57924E-01
 -1      1420 6.05987E-01
 -1      1421 5.80895E-01
 -1      1422 6.77154E-01
 -1      1423 7.41975E-01
 -1      1424 7.07146E-01
 -1      1425 8.25094E-01
 -1      1426 9.30198E-01
 -1      1427 8.61432E-01
 -1      1428 1.01084E+00
 -1      1429 1.13594E+00
 -1      1430 1.02519E+00
 -1      1431 1.20592E+00
 -1      1432 1.36966E+00
 -1      1433 1.17581E+00
 -1      1434 1.49353E+00
 -1      1435 1.63249E+00
 -1      1436 1.36966E+00
 -1      1437 1.77145E+00
 -1      1438 1.78828E+00
 -1      1439 1.63249E+00
 -1      1440 1.80511E+00
 -1      1441 1.81191E+00
 -1      1442 1.78828E+00
 -1      1443 1.81871E+00
 -1      1444 1.81871E+00
 -1      1445 1.81191E+00
 -1      1446 1.71945E+00
 -1      1447 1.98699E+00
 -1      1448 1.71945E+00
 -1      1449 2.41857E+00
 -1      1450 3.34742E+00
 -1      1451 2.05177E+00
 -1      1452 4.21150E+00
 -1      1453 4.82267E+00
 -1      1454 3.34742E+00
 -1      1455 5.43383E+00
 -1      1456 5.43383E+00
 -1      1457 4.82267E+00
 -1      1458 5.41065E+00
 -1      1459 5.38748E+00
 -1      1460 5.41065E+00
 -1      1461 5.04783E+00
 -1      1462 4.70819E+00
 -1      1463 5.04783E+00
 -1      1464 3.79647E+00
 -1      1465 2.75171E+00
 -1      1466 3.79647E+00
 -1      1467 2.19030E+00
 -1      1468 1.76193E+00
 -1      1469 2.32334E+00
 -1      1470 1.70451E+00
 -1      1471 1.66650E+00
 -1      1472 1.70451E+00
 -1      1473 1.68592E+00
 -1      1474 1.68819E+00
 -1      1475 1.66650E+00
 -1      1476 1.69045E+00
 -1      1477 1.69045E+00
 -1      1478 1.68819E+00
 -1      1479 1.50933E+00
 -1      1480 1.32821E+00
 -1      1481 1.50933E+00
 -1      1482 1.27958E+00
 -1      1483 1.23094E+00
 -1      1484 1.27958E+00
 -1      1485 1.17368E+00
 -1      1486 1.11642E+00
 -1      1487 1.17368E+00
 -1      1488 9.94368E-01
 -1      1489 8.72312E-01
 -1      1490 9.94368E-01
 -1      1491 6.96980E-01
 -1      1492 6.96980E-01
 -1      1493 4.36450E+00
 -1      1494 9.41694E+00
 -1      1495 9.41694E+00
 -1      1496 3.40268E+00
 -1      1497 3.88359E+00
 -1      1498 3.88359E+00
 -1      1499 2.58887E+00
 -1      1500 2.99577E+00
 -1      1501 2.99577E+00
 -1      1502 2.21339E+00
 -1      1503 2.40113E+00
 -1      1504 2.40113E+00
 -1      1505 1.94140E+00
 -1      1506 2.07740E+00
 -1      1507 2.07740E+00
 -1      1508 1.70430E+00
 -1      1509 1.82285E+00
 -1      1510 1.82285E+00
 -1      1511 1.49850E+00
 -1      1512 1.60140E+00
 -1      1513 1.60140E+00
 -1      1514 1.32053E+00
 -1      1515 1.40951E+00
 -1      1516 1.40951E+00
 -1      1517 1.16846E+00
 -1      1518 1.24449E+00
 -1      1519 1.24449E+00
 -1      1520 1.04465E+00
 -1      1521 1.10655E+00
 -1      1522 1.10655E+00
 -1      1523 9.43067E-01
 -1      1524 9.93857E-01
 -1      1525 9.93857E-01
 -1      1526 8.57958E-01
 -1      1527 9.00513E-01
 -1      1528 9.00513E-01
 -1      1529 7.88346E-01
 -1      1530 8.23152E-01
 -1      1531 8.23152E-01
 -1      1532 7.33197E-01
 -1      1533 7.60771E-01
 -1      1534 7.60771E-01
 -1      1535 6.97133E-01
 -1      1536 7.15165E-01
 -1      1537 7.15165E-01
 -1      1538 6.73486E-01
 -1      1539 6.85309E-01
 -1      1540 6.85309E-01
 -1      1541 6.60146E-01
 -1      1542 6.66816E-01
 -1      1543 6.66816E-01
 -1      1544 6.54562E-01
 -1      1545 6.57354E-01
 -1      1546 6.57354E-01
 -1      1547 6.53419E-01
 -1      1548 6.53991E-01
 -1      1549 6.53991E-01
 -1      1550 6.52308E-01
 -1      1551 6.52864E-01
 -1      1552 6.52864E-01
 -1      1553 6.45451E-01
 -1      1554 6.48880E-01
 -1      1555 6.48880E-01
 -1      1556 6.47849E-01
 -1      1557 6.35490E-01
 -1      1558 6.35490E-01
 -1      1559 6.91488E-01
 -1      1560 6.70169E-01
 -1      1561 6.47849E-01
 -1      1562 7.19953E-01
 -1      1563 7.12808E-01
 -1      1564 6.91488E-01
 -1      1565 7.27098E-01
 -1      1566 7.27098E-01
 -1      1567 7.19953E-01
 -1      1568 7.03973E-01
 -1      1569 7.15536E-01
 -1      1570 7.15536E-01
 -1      1571 6.65612E-01
 -1      1572 6.79582E-01
 -1      1573 6.79582E-01
 -1      1574 7.12839E-01
 -1      1575 6.76034E-01
 -1      1576 6.65612E-01
 -1      1577 7.89859E-01
 -1      1578 7.49643E-01
 -1      1579 7.12839E-01
 -1      1580 8.56831E-01
 -1      1581 8.30075E-01
 -1      1582 7.89859E-01
 -1      1583 9.75991E-01
 -1      1584 8.83587E-01
 -1      1585 8.56831E-01
 -1      1586 1.15083E+00
 -1      1587 1.06839E+00
 -1      1588 9.75991E-01
 -1      1589 1.30573E+00
 -1      1590 1.23327E+00
 -1      1591 1.15083E+00
 -1      1592 1.52918E+00
 -1      1593 1.37820E+00
 -1      1594 1.30573E+00
 -1      1595 2.08631E+00
 -1      1596 1.71202E+00
 -1      1597 1.56104E+00
 -1      1598 2.77658E+00
 -1      1599 2.42874E+00
 -1      1600 2.08631E+00
 -1      1601 3.28638E+00
 -1      1602 3.12442E+00
 -1      1603 2.77658E+00
 -1      1604 3.48935E+00
 -1      1605 3.44834E+00
 -1      1606 3.28638E+00
 -1      1607 3.53036E+00
 -1      1608 3.53036E+00
 -1      1609 3.48935E+00
 -1      1610 2.76010E+00
 -1      1611 3.14523E+00
 -1      1612 3.14523E+00
 -1      1613 1.73049E+00
 -1      1614 2.24529E+00
 -1      1615 2.24529E+00
 -1      1616 9.76573E-01
 -1      1617 1.35353E+00
 -1      1618 1.35353E+00
 -1      1619 6.22078E-01
 -1      1620 7.71466E-01
 -1      1621 7.71466E-01
 -1      1622 7.17313E-01
 -1      1623 6.77797E-01
 -1      1624 6.22078E-01
 -1      1625 7.56830E-01
 -1      1626 7.56830E-01
 -1      1627 7.17313E-01
 -1      1628 6.17674E-01
 -1      1629 6.87252E-01
 -1      1630 6.87252E-01
 -1      1631 5.70413E-01
 -1      1632 5.94044E-01
 -1      1633 5.94044E-01
 -1      1634 3.51346E-01
 -1      1635 4.66657E-01
 -1      1636 4.66657E-01
 -1      1637 2.64815E-01
 -1      1638 2.23041E-01
 -1      1639 2.23041E-01
 -1      1640 2.47133E-01
 -1      1641 2.49600E-01
 -1      1642 2.82803E-01
 -1      1643 2.35232E-01
 -1      1644 2.47133E-01
 -1      1645 3.09362E-01
 -1      1646 2.02156E-01
 -1      1647 2.23349E-01
 -1      1648 2.97479E-01
 -1      1649 1.47517E-01
 -1      1650 1.65024E-01
 -1      1651 2.48463E-01
 -1      1652 2.68941E-01
 -1      1653 2.08800E-01
 -1      1654 2.72614E-01
 -1      1655 4.12084E-01
 -1      1656 3.65544E-01
 -1      1657 4.30499E-01
 -1      1658 4.71125E-01
 -1      1659 4.58022E-01
 -1      1660 5.73040E-01
 -1      1661 4.71125E-01
 -1      1662 4.71125E-01
 -1      1663 6.18979E-01
 -1      1664 4.39508E-01
 -1      1665 4.64691E-01
 -1      1666 6.12545E-01
 -1      1667 3.18268E-01
 -1      1668 3.72334E-01
 -1      1669 5.38938E-01
 -1      1670 1.93100E-01
 -1      1671 2.11001E-01
 -1      1672 3.64497E-01
 -1      1673 3.12995E-01
 -1      1674 2.54249E-01
 -1      1675 3.18379E-01
 -1      1676 4.09569E-01
 -1      1677 3.12995E-01
 -1      1678 3.79528E-01
 -1      1679 5.20567E-01
 -1      1680 4.79547E-01
 -1      1681 4.49507E-01
 -1      1682 6.95899E-01
 -1      1683 2.65173E+01
 -1      1684 2.64343E+01
 -1      1685 3.84791E+01
 -1      1686 2.66927E+01
 -1      1687 4.77983E+01
 -1      1688 4.77983E+01
 -1      1689 2.16279E+01
 -1      1690 3.50632E+01
 -1      1691 1.18857E+01
 -1      1692 1.61445E+01
 -1      1693 1.25188E+01
 -1      1694 1.24102E+01
 -1      1695 1.26274E+01
 -1      1696 1.26274E+01
 -1      1697 1.22790E+01
 -1      1698 1.24532E+01
 -1      1699 1.21209E+01
 -1      1700 1.22000E+01
 -1      1701 1.19113E+01
 -1      1702 1.20161E+01
 -1      1703 1.69845E+01
 -1      1704 1.16143E+01
 -1      1705 3.59920E+01
 -1      1706 2.31258E+01
 -1      1707 4.83841E+01
 -1      1708 4.83841E+01
 -1      1709 2.74001E+01
 -1      1710 3.95063E+01
 -1      1711 2.85323E+01
 -1      1712 2.78153E+01
 -1      1713 2.85323E+01
 -1      1714 2.85323E+01
 -1      1715 3.68062E+01
 -1      1716 2.64081E+01
 -1      1717 4.64020E+01
 -1      1718 4.64020E+01
 -1      1719 1.96663E+01
 -1      1720 3.33571E+01
 -1      1721 1.15752E+01
 -1      1722 1.51127E+01
 -1      1723 1.21972E+01
 -1      1724 1.19456E+01
 -1      1725 1.24487E+01
 -1      1726 1.24487E+01
 -1      1727 1.19037E+01
 -1      1728 1.20790E+01
 -1      1729 1.20982E+01
 -1      1730 1.20982E+01
 -1      1731 1.16892E+01
 -1      1732 1.18937E+01
 -1      1733 1.75725E+01
 -1      1734 1.16674E+01
 -1      1735 3.64650E+01
 -1      1736 2.40821E+01
 -1      1737 4.82652E+01
 -1      1738 4.82652E+01
 -1      1739 2.72495E+01
 -1      1740 3.92873E+01
 -1      1741 2.64343E+01
 -1      1742 2.64993E+01
 -1      1743 1.68447E+01
 -1      1744 3.50632E+01
 -1      1745 2.76369E-01
 -1      1746 3.09572E-01
 -1      1747 2.89844E+01
 -1      1748 3.84791E+01
 -1      1749 2.88090E+01
 -1      1750 1.18857E+01
 -1      1751 1.25188E+01
 -1      1752 1.24532E+01
 -1      1753 1.22000E+01
 -1      1754 1.20161E+01
 -1      1755 1.16143E+01
 -1      1756 1.74585E+01
 -1      1757 3.59920E+01
 -1      1758 3.95063E+01
 -1      1759 3.10437E+01
 -1      1760 3.14589E+01
 -1      1761 2.93347E+01
 -1      1762 3.68062E+01
 -1      1763 3.33571E+01
 -1      1764 1.57585E+01
 -1      1765 1.15752E+01
 -1      1766 1.21972E+01
 -1      1767 1.20790E+01
 -1      1768 1.19037E+01
 -1      1769 1.18937E+01
 -1      1770 1.16674E+01
 -1      1771 1.81552E+01
 -1      1772 3.64650E+01
 -1      1773 3.92873E+01
 -1      1774 2.95592E+01
 -1      1775 1.00298E+01
 -1      1776 1.78914E+00
 -1      1777 2.29375E+00
 -1      1778 3.01501E+00
 -1      1779 4.94404E+00
 -1      1780 2.38504E+00
 -1      1781 1.23009E+00
 -1      1782 1.33040E+00
 -1      1783 1.11152E+00
 -1      1784 1.17026E+00
 -1      1785 1.06617E+00
 -1      1786 1.04393E+00
 -1      1787 1.08176E+00
 -1      1788 9.76588E-01
 -1      1789 1.00081E+00
 -1      1790 1.02432E+00
 -1      1791 9.27221E-01
 -1      1792 9.75193E-01
 -1      1793 9.88757E-01
 -1      1794 8.95557E-01
 -1      1795 9.62296E-01
 -1      1796 9.68500E-01
 -1      1797 8.76809E-01
 -1      1798 9.63405E-01
 -1      1799 9.59182E-01
 -1      1800 8.67002E-01
 -1      1801 9.72656E-01
 -1      1802 9.61130E-01
 -1      1803 8.61613E-01
 -1      1804 9.87712E-01
 -1      1805 9.67259E-01
 -1      1806 8.53942E-01
 -1      1807 1.23432E+00
 -1      1808 9.69205E-01
 -1      1809 8.30039E-01
 -1      1810 2.00579E+00
 -1      1811 1.21529E+00
 -1      1812 7.92511E-01
 -1      1813 8.36650E+00
 -1      1814 2.75085E+00
 -1      1815 1.51855E+00
 -1      1816 3.31406E+00
 -1      1817 5.21989E+00
 -1      1818 2.72094E+00
 -1      1819 3.20185E+00
 -1      1820 2.15141E+00
 -1      1821 3.38215E+00
 -1      1822 2.03688E+00
 -1      1823 1.45096E+00
 -1      1824 1.20056E+00
 -1      1825 8.97831E-01
 -1      1826 1.15181E+00
 -1      1827 7.33803E-01
 -1      1828 5.44692E-01
 -1      1829 7.37392E-01
 -1      1830 4.42029E-01
 -1      1831 3.15291E-01
 -1      1832 4.70700E-01
 -1      1833 2.71155E-01
 -1      1834 2.31858E-01
 -1      1835 3.23902E-01
 -1      1836 2.24673E-01
 -1      1837 2.34130E-01
 -1      1838 2.72581E-01
 -1      1839 2.34036E-01
 -1      1840 2.45309E-01
 -1      1841 2.65301E-01
 -1      1842 2.48530E-01
 -1      1843 2.59177E-01
 -1      1844 2.68428E-01
 -1      1845 2.63510E-01
 -1      1846 2.74425E-01
 -1      1847 2.75983E-01
 -1      1848 2.78668E-01
 -1      1849 2.86473E-01
 -1      1850 2.84559E-01
 -1      1851 2.90070E-01
 -1      1852 2.94195E-01
 -1      1853 2.92400E-01
 -1      1854 2.97022E-01
 -1      1855 2.96771E-01
 -1      1856 2.98824E-01
 -1      1857 2.98991E-01
 -1      1858 2.99978E-01
 -1      1859 3.03871E-01
 -1      1860 3.01954E-01
 -1      1861 3.01909E-01
 -1      1862 3.08068E-01
 -1      1863 3.04132E-01
 -1      1864 3.03628E-01
 -1      1865 3.12267E-01
 -1      1866 3.06652E-01
 -1      1867 3.06267E-01
 -1      1868 3.17514E-01
 -1      1869 3.10636E-01
 -1      1870 3.10897E-01
 -1      1871 3.24908E-01
 -1      1872 3.17062E-01
 -1      1873 3.18382E-01
 -1      1874 3.35442E-01
 -1      1875 3.26624E-01
 -1      1876 3.44675E-01
 -1      1877 3.49850E-01
 -1      1878 3.71357E-01
 -1      1879 3.96418E-01
 -1      1880 3.84773E-01
 -1      1881 4.29283E-01
 -1      1882 4.60052E-01
 -1      1883 4.44319E-01
 -1      1884 4.99450E-01
 -1      1885 5.40895E-01
 -1      1886 5.16582E-01
 -1      1887 5.89473E-01
 -1      1888 6.44558E-01
 -1      1889 6.04558E-01
 -1      1890 7.06234E-01
 -1      1891 7.77401E-01
 -1      1892 7.14813E-01
 -1      1893 8.50431E-01
 -1      1894 9.33550E-01
 -1      1895 8.49519E-01
 -1      1896 1.00648E+00
 -1      1897 1.08713E+00
 -1      1898 9.95484E-01
 -1      1899 1.13967E+00
 -1      1900 1.20965E+00
 -1      1901 1.12096E+00
 -1      1902 1.26490E+00
 -1      1903 1.38876E+00
 -1      1904 1.22875E+00
 -1      1905 1.42769E+00
 -1      1906 1.56666E+00
 -1      1907 1.32293E+00
 -1      1908 1.55920E+00
 -1      1909 1.57603E+00
 -1      1910 1.35441E+00
 -1      1911 1.51775E+00
 -1      1912 1.52455E+00
 -1      1913 1.28867E+00
 -1      1914 1.64253E+00
 -1      1915 1.54327E+00
 -1      1916 1.34837E+00
 -1      1917 1.65460E+00
 -1      1918 2.08618E+00
 -1      1919 1.57768E+00
 -1      1920 2.41673E+00
 -1      1921 3.28081E+00
 -1      1922 2.01957E+00
 -1      1923 3.64591E+00
 -1      1924 4.25708E+00
 -1      1925 2.71522E+00
 -1      1926 4.38849E+00
 -1      1927 4.36531E+00
 -1      1928 3.21173E+00
 -1      1929 4.25696E+00
 -1      1930 3.91732E+00
 -1      1931 3.23479E+00
 -1      1932 3.63879E+00
 -1      1933 2.72707E+00
 -1      1934 2.84791E+00
 -1      1935 2.41594E+00
 -1      1936 1.85453E+00
 -1      1937 2.25826E+00
 -1      1938 1.62015E+00
 -1      1939 1.56272E+00
 -1      1940 1.71275E+00
 -1      1941 1.47825E+00
 -1      1942 1.49767E+00
 -1      1943 1.39389E+00
 -1      1944 1.38187E+00
 -1      1945 1.38413E+00
 -1      1946 1.19361E+00
 -1      1947 1.38099E+00
 -1      1948 1.19987E+00
 -1      1949 1.07467E+00
 -1      1950 1.09915E+00
 -1      1951 1.05051E+00
 -1      1952 9.70807E-01
 -1      1953 1.05719E+00
 -1      1954 9.99927E-01
 -1      1955 8.76755E-01
 -1      1956 9.38087E-01
 -1      1957 8.16031E-01
 -1      1958 6.39618E-01
 -1      1959 8.21590E-01
 -1      1960 2.18113E+00
 -1      1961 2.58804E+00
 -1      1962 1.90630E+00
 -1      1963 1.90211E+00
 -1      1964 2.08985E+00
 -1      1965 1.68211E+00
 -1      1966 1.67588E+00
 -1      1967 1.81187E+00
 -1      1968 1.50059E+00
 -1      1969 1.51872E+00
 -1      1970 1.63727E+00
 -1      1971 1.37175E+00
 -1      1972 1.36629E+00
 -1      1973 1.46919E+00
 -1      1974 1.28361E+00
 -1      1975 1.22456E+00
 -1      1976 1.31355E+00
 -1      1977 1.18134E+00
 -1      1978 1.09694E+00
 -1      1979 1.17297E+00
 -1      1980 1.07701E+00
 -1      1981 9.87021E-01
 -1      1982 1.04893E+00
 -1      1983 9.77403E-01
 -1      1984 8.93225E-01
 -1      1985 9.44016E-01
 -1      1986 8.86389E-01
 -1      1987 8.13004E-01
 -1      1988 8.55558E-01
 -1      1989 8.05716E-01
 -1      1990 7.44114E-01
 -1      1991 7.78920E-01
 -1      1992 7.33965E-01
 -1      1993 6.86912E-01
 -1      1994 7.14487E-01
 -1      1995 6.70255E-01
 -1      1996 6.45686E-01
 -1      1997 6.63718E-01
 -1      1998 6.17434E-01
 -1      1999 6.21532E-01
 -1      2000 6.33355E-01
 -1      2001 5.81908E-01
 -1      2002 6.06184E-01
 -1      2003 6.12854E-01
 -1      2004 5.60900E-01
 -1      2005 5.97513E-01
 -1      2006 6.00305E-01
 -1      2007 5.46343E-01
 -1      2008 5.92753E-01
 -1      2009 5.93324E-01
 -1      2010 5.36276E-01
 -1      2011 5.88244E-01
 -1      2012 5.88800E-01
 -1      2013 5.28134E-01
 -1      2014 5.79217E-01
 -1      2015 5.82645E-01
 -1      2016 5.18582E-01
 -1      2017 5.84774E-01
 -1      2018 5.94736E-01
 -1      2019 5.28502E-01
 -1      2020 6.30176E-01
 -1      2021 6.07856E-01
 -1      2022 5.67102E-01
 -1      2023 6.69116E-01
 -1      2024 6.47797E-01
 -1      2025 6.07804E-01
 -1      2026 7.09988E-01
 -1      2027 7.02842E-01
 -1      2028 6.59151E-01
 -1      2029 7.34330E-01
 -1      2030 7.45892E-01
 -1      2031 7.28782E-01
 -1      2032 7.26795E-01
 -1      2033 7.51186E-01
 -1      2034 7.81543E-01
 -1      2035 7.47479E-01
 -1      2036 7.37057E-01
 -1      2037 8.08662E-01
 -1      2038 7.84284E-01
 -1      2039 7.47479E-01
 -1      2040 8.18924E-01
 -1      2041 8.04467E-01
 -1      2042 7.64251E-01
 -1      2043 7.98892E-01
 -1      2044 7.62055E-01
 -1      2045 7.35299E-01
 -1      2046 7.09692E-01
 -1      2047 7.82310E-01
 -1      2048 6.89906E-01
 -1      2049 5.68375E-01
 -1      2050 9.77673E-01
 -1      2051 8.95234E-01
 -1      2052 6.09150E-01
 -1      2053 1.32713E+00
 -1      2054 1.25467E+00
 -1      2055 9.99070E-01
 -1      2056 1.75563E+00
 -1      2057 1.57279E+00
 -1      2058 1.52173E+00
 -1      2059 2.17861E+00
 -1      2060 1.83618E+00
 -1      2061 1.84793E+00
 -1      2062 2.52645E+00
 -1      2063 2.17861E+00
 -1      2064 1.92848E+00
 -1      2065 2.74256E+00
 -1      2066 2.58060E+00
 -1      2067 1.98263E+00
 -1      2068 2.86634E+00
 -1      2069 2.82534E+00
 -1      2070 2.11955E+00
 -1      2071 2.34970E+00
 -1      2072 2.73483E+00
 -1      2073 2.07082E+00
 -1      2074 1.55959E+00
 -1      2075 2.07439E+00
 -1      2076 1.66399E+00
 -1      2077 9.39355E-01
 -1      2078 1.31631E+00
 -1      2079 1.14541E+00
 -1      2080 5.80280E-01
 -1      2081 7.85387E-01
 -1      2082 7.48169E-01
 -1      2083 5.79310E-01
 -1      2084 5.23591E-01
 -1      2085 5.37512E-01
 -1      2086 6.20108E-01
 -1      2087 5.80591E-01
 -1      2088 4.82104E-01
 -1      2089 5.44415E-01
 -1      2090 6.13993E-01
 -1      2091 4.77271E-01
 -1      2092 5.15935E-01
 -1      2093 5.39566E-01
 -1      2094 4.66307E-01
 -1      2095 3.62900E-01
 -1      2096 4.66657E-01
 -1      2097 4.12178E-01
 -1      2098 3.09572E-01
 -1      2099 3.46153E-01
 -1      2100 3.58036E-01
 -1      2101 3.58036E-01
 -1      2102 3.58036E-01
 -1      2103 4.06710E-01
 -1      2104 3.54333E-01
 -1      2105 3.27774E-01
 -1      2106 3.81102E-01
 -1      2107 4.03007E-01
 -1      2108 2.97167E-01
 -1      2109 3.34299E-01
 -1      2110 3.94856E-01
 -1      2111 3.71030E-01
 -1      2112 3.09748E-01
 -1      2113 3.95583E-01
 -1      2114 6.03272E-01
 -1      2115 5.06669E-01
 -1      2116 5.43803E-01
 -1      2117 7.58471E-01
 -1      2118 7.12533E-01
 -1      2119 7.88703E-01
 -1      2120 7.61040E-01
 -1      2121 7.61040E-01
 -1      2122 9.00533E-01
 -1      2123 7.54607E-01
 -1      2124 7.61040E-01
 -1      2125 9.03102E-01
 -1      2126 6.68930E-01
 -1      2127 7.36104E-01
 -1      2128 8.84599E-01
 -1      2129 4.28159E-01
 -1      2130 5.35426E-01
 -1      2131 7.32592E-01
 -1      2132 4.13182E-01
 -1      2133 3.52033E-01
 -1      2134 5.22962E-01
 -1      2135 5.00642E-01
 -1      2136 5.00642E-01
 -1      2137 5.34295E-01
 -1      2138 3.84791E+01
 -1      2139 2.91599E+01
 -1      2140 2.92207E+01
 -1      2141 2.92207E+01
 -1      2142 2.93961E+01
 -1      2143 2.92207E+01
 -1      2144 1.96613E+01
 -1      2145 3.23965E+01
 -1      2146 1.04312E+01
 -1      2147 1.59146E+01
 -1      2148 1.32479E+01
 -1      2149 1.44229E+00
 -1      2150 1.63214E+00
 -1      2151 1.50677E+00
 -1      2152 1.23788E+00
 -1      2153 1.10001E+01
 -1      2154 1.08915E+01
 -1      2155 1.14051E+01
 -1      2156 1.15793E+01
 -1      2157 1.18393E+01
 -1      2158 1.19184E+01
 -1      2159 1.11322E+01
 -1      2160 1.12370E+01
 -1      2161 1.09555E+01
 -1      2162 9.15981E+00
 -1      2163 9.45682E+00
 -1      2164 1.69153E+01
 -1      2165 1.07740E+01
 -1      2166 3.30061E+01
 -1      2167 2.06139E+01
 -1      2168 3.06285E+01
 -1      2169 3.95063E+01
 -1      2170 3.06676E+01
 -1      2171 3.02524E+01
 -1      2172 3.14589E+01
 -1      2173 3.14589E+01
 -1      2174 2.58316E+01
 -1      2175 2.79558E+01
 -1      2176 3.68062E+01
 -1      2177 2.72105E+01
 -1      2178 2.58316E+01
 -1      2179 1.82448E+01
 -1      2180 3.12897E+01
 -1      2181 1.01718E+01
 -1      2182 1.47255E+01
 -1      2183 9.57227E+00
 -1      2184 9.20187E+00
 -1      2185 1.09022E+01
 -1      2186 1.06507E+01
 -1      2187 1.12956E+01
 -1      2188 1.16653E+01
 -1      2189 1.12325E+01
 -1      2190 1.10381E+01
 -1      2191 1.07858E+01
 -1      2192 1.09903E+01
 -1      2193 9.46792E+00
 -1      2194 9.48975E+00
 -1      2195 1.75606E+01
 -1      2196 1.10510E+01
 -1      2197 3.30471E+01
 -1      2198 2.12469E+01
 -1      2199 1.41427E+01
 -1      2200 3.03094E+01
 -1      2201 3.92873E+01
 -1      2202 2.91510E+01
 -1      2203 2.99011E+01
 -1      2204 2.99011E+01
 -1      2205 9.43974E+00
 -1      2206 8.91528E+00
 -1      2207 2.88893E+00
 -1      2208 7.98520E+00
 -1      2209 7.92106E+00
 -1      2210 2.25426E+00
 -1      2211 2.93961E+01
 -1      2212 2.96324E+01
 -1      2213 5.70620E-01
 -1      2214 2.30772E+01
 -1      2215 2.95626E+01
 -1      2216 2.40692E+01
 -1      2217 8.87338E+00
 -1      2218 8.58636E+00
 -1      2219 1.01247E+01
 -1      2220 1.06244E+01
 -1      2221 1.01188E+01
 -1      2222 8.27732E+00
 -1      2223 8.16886E+00
 -1      2224 2.16939E+01
 -1      2225 2.79558E+01
 -1      2226 3.06676E+01
 -1      2227 3.02524E+01
 -1      2228 3.25140E+01
 -1      2229 1.71359E+01
 -1      2230 2.36362E+01
 -1      2231 1.39294E+01
 -1      2232 8.67775E+00
 -1      2233 9.95203E+00
 -1      2234 1.10445E+01
 -1      2235 8.61653E+00
 -1      2236 1.26581E+01
 -1      2237 1.77339E+00
 -1      2238 1.90630E+00
 -1      2239 8.80446E-01
 -1      2240 9.10204E-01
 -1      2241 9.46790E-01
 -1      2242 1.00662E+00
 -1      2243 8.50647E-01
 -1      2244 8.18345E-01
 -1      2245 8.30400E-01
 -1      2246 8.05262E-01
 -1      2247 8.11956E-01
 -1      2248 7.46799E-01
 -1      2249 7.95931E-01
 -1      2250 7.99044E-01
 -1      2251 7.34192E-01
 -1      2252 7.84793E-01
 -1      2253 7.87068E-01
 -1      2254 7.19111E-01
 -1      2255 7.62274E-01
 -1      2256 7.67670E-01
 -1      2257 6.93125E-01
 -1      2258 1.01952E+00
 -1      2259 1.03803E+00
 -1      2260 9.51758E-01
 -1      2261 1.59083E+00
 -1      2262 1.68211E+00
 -1      2263 1.68211E+00
 -1      2264 1.15181E+00
 -1      2265 9.01420E-01
 -1      2266 5.65640E+00
 -1      2267 7.17230E+00
 -1      2268 8.24360E-01
 -1      2269 6.60332E-01
 -1      2270 8.24360E-01
 -1      2271 5.49578E-01
 -1      2272 4.46915E-01
 -1      2273 6.36546E-01
 -1      2274 3.81179E-01
 -1      2275 3.37044E-01
 -1      2276 4.60057E-01
 -1      2277 3.10103E-01
 -1      2278 3.02917E-01
 -1      2279 3.67380E-01
 -1      2280 2.92644E-01
 -1      2281 2.92550E-01
 -1      2282 3.30166E-01
 -1      2283 2.88057E-01
 -1      2284 2.91278E-01
 -1      2285 3.15400E-01
 -1      2286 2.90098E-01
 -1      2287 2.94432E-01
 -1      2288 3.09728E-01
 -1      2289 2.94962E-01
 -1      2290 2.99205E-01
 -1      2291 3.09078E-01
 -1      2292 3.00513E-01
 -1      2293 3.04111E-01
 -1      2294 3.10915E-01
 -1      2295 3.05762E-01
 -1      2296 3.08589E-01
 -1      2297 3.13875E-01
 -1      2298 3.10518E-01
 -1      2299 3.12738E-01
 -1      2300 3.17456E-01
 -1      2301 3.15149E-01
 -1      2302 3.17125E-01
 -1      2303 3.21795E-01
 -1      2304 3.20423E-01
 -1      2305 3.22646E-01
 -1      2306 3.27504E-01
 -1      2307 3.27380E-01
 -1      2308 3.30404E-01
 -1      2309 3.35536E-01
 -1      2310 3.37209E-01
 -1      2311 3.41579E-01
 -1      2312 3.47075E-01
 -1      2313 3.51097E-01
 -1      2314 3.57263E-01
 -1      2315 3.63399E-01
 -1      2316 3.70047E-01
 -1      2317 3.78289E-01
 -1      2318 3.85702E-01
 -1      2319 3.94640E-01
 -1      2320 4.21321E-01
 -1      2321 4.14837E-01
 -1      2322 4.52262E-01
 -1      2323 4.85127E-01
 -1      2324 4.62129E-01
 -1      2325 5.24120E-01
 -1      2326 5.63518E-01
 -1      2327 5.32064E-01
 -1      2328 6.05558E-01
 -1      2329 6.54136E-01
 -1      2330 6.13097E-01
 -1      2331 7.01802E-01
 -1      2332 7.63478E-01
 -1      2333 7.02802E-01
 -1      2334 8.26404E-01
 -1      2335 8.99434E-01
 -1      2336 8.13394E-01
 -1      2337 9.73306E-01
 -1      2338 1.04624E+00
 -1      2339 9.50191E-01
 -1      2340 1.11571E+00
 -1      2341 1.16825E+00
 -1      2342 1.09354E+00
 -1      2343 1.25650E+00
 -1      2344 1.31175E+00
 -1      2345 1.25125E+00
 -1      2346 1.34868E+00
 -1      2347 1.38761E+00
 -1      2348 1.37642E+00
 -1      2349 1.48587E+00
 -1      2350 1.47842E+00
 -1      2351 1.51161E+00
 -1      2352 1.59808E+00
 -1      2353 1.53980E+00
 -1      2354 1.72954E+00
 -1      2355 1.64334E+00
 -1      2356 1.76132E+00
 -1      2357 1.95275E+00
 -1      2358 2.04715E+00
 -1      2359 2.15848E+00
 -1      2360 2.34211E+00
 -1      2361 2.44170E+00
 -1      2362 2.77226E+00
 -1      2363 2.91117E+00
 -1      2364 3.08883E+00
 -1      2365 3.45393E+00
 -1      2366 3.51096E+00
 -1      2367 5.18345E+00
 -1      2368 5.31486E+00
 -1      2369 5.55705E+00
 -1      2370 4.56903E+00
 -1      2371 4.46068E+00
 -1      2372 6.54074E+00
 -1      2373 3.34845E+00
 -1      2374 3.06993E+00
 -1      2375 4.68269E+00
 -1      2376 2.53394E+00
 -1      2377 2.22281E+00
 -1      2378 3.03448E+00
 -1      2379 2.27205E+00
 -1      2380 2.03766E+00
 -1      2381 2.54772E+00
 -1      2382 1.82125E+00
 -1      2383 1.73677E+00
 -1      2384 2.38054E+00
 -1      2385 1.46916E+00
 -1      2386 1.35336E+00
 -1      2387 1.89651E+00
 -1      2388 1.22032E+00
 -1      2389 1.21719E+00
 -1      2390 1.49587E+00
 -1      2391 1.06469E+00
 -1      2392 9.63967E-01
 -1      2393 1.21035E+00
 -1      2394 8.60047E-01
 -1      2395 8.66722E-01
 -1      2396 9.53934E-01
 -1      2397 1.33315E+00
 -1      2398 1.37175E+00
 -1      2399 1.23408E+00
 -1      2400 1.28361E+00
 -1      2401 1.28361E+00
 -1      2402 1.12860E+00
 -1      2403 1.18134E+00
 -1      2404 1.18134E+00
 -1      2405 1.02541E+00
 -1      2406 1.07701E+00
 -1      2407 1.07701E+00
 -1      2408 9.29394E-01
 -1      2409 9.77403E-01
 -1      2410 9.77403E-01
 -1      2411 8.43515E-01
 -1      2412 8.86520E-01
 -1      2413 8.86520E-01
 -1      2414 7.68277E-01
 -1      2415 8.05944E-01
 -1      2416 8.06076E-01
 -1      2417 6.99902E-01
 -1      2418 7.33986E-01
 -1      2419 7.34214E-01
 -1      2420 6.40628E-01
 -1      2421 6.70255E-01
 -1      2422 6.70275E-01
 -1      2423 5.91549E-01
 -1      2424 6.14743E-01
 -1      2425 6.14743E-01
 -1      2426 5.55815E-01
 -1      2427 5.68146E-01
 -1      2428 5.65456E-01
 -1      2429 5.25153E-01
 -1      2430 5.33831E-01
 -1      2431 5.20069E-01
 -1      2432 4.97534E-01
 -1      2433 5.03413E-01
 -1      2434 4.76344E-01
 -1      2435 4.70575E-01
 -1      2436 4.74764E-01
 -1      2437 4.31834E-01
 -1      2438 4.56803E-01
 -1      2439 4.60756E-01
 -1      2440 3.99245E-01
 -1      2441 4.70235E-01
 -1      2442 4.75834E-01
 -1      2443 4.08456E-01
 -1      2444 5.05705E-01
 -1      2445 4.90187E-01
 -1      2446 4.47438E-01
 -1      2447 5.47824E-01
 -1      2448 5.24742E-01
 -1      2449 4.86427E-01
 -1      2450 5.87918E-01
 -1      2451 5.70297E-01
 -1      2452 5.27937E-01
 -1      2453 6.75853E-01
 -1      2454 6.42127E-01
 -1      2455 6.04620E-01
 -1      2456 7.55163E-01
 -1      2457 7.19258E-01
 -1      2458 7.02234E-01
 -1      2459 8.71444E-01
 -1      2460 8.54587E-01
 -1      2461 8.45063E-01
 -1      2462 8.80786E-01
 -1      2463 8.70524E-01
 -1      2464 9.43568E-01
 -1      2465 8.37773E-01
 -1      2466 8.37773E-01
 -1      2467 8.99635E-01
 -1      2468 8.03692E-01
 -1      2469 8.23725E-01
 -1      2470 8.42573E-01
 -1      2471 6.71758E-01
 -1      2472 7.40926E-01
 -1      2473 7.65759E-01
 -1      2474 6.31425E-01
 -1      2475 7.03574E-01
 -1      2476 7.34808E-01
 -1      2477 7.60039E-01
 -1      2478 6.47115E-01
 -1      2479 7.82314E-01
 -1      2480 1.21051E+00
 -1      2481 9.33510E-01
 -1      2482 9.71475E-01
 -1      2483 1.64049E+00
 -1      2484 1.39483E+00
 -1      2485 1.32927E+00
 -1      2486 2.01512E+00
 -1      2487 1.93458E+00
 -1      2488 1.80768E+00
 -1      2489 1.92848E+00
 -1      2490 1.92848E+00
 -1      2491 2.01512E+00
 -1      2492 2.27495E+00
 -1      2493 2.22081E+00
 -1      2494 2.22081E+00
 -1      2495 2.20483E+00
 -1      2496 2.12205E+00
 -1      2497 2.36023E+00
 -1      2498 1.91119E+00
 -1      2499 2.04271E+00
 -1      2500 2.04520E+00
 -1      2501 1.51062E+00
 -1      2502 1.78593E+00
 -1      2503 1.75782E+00
 -1      2504 1.11793E+00
 -1      2505 1.36121E+00
 -1      2506 1.48314E+00
 -1      2507 7.80602E-01
 -1      2508 9.34570E-01
 -1      2509 1.15037E+00
 -1      2510 6.19768E-01
 -1      2511 6.76457E-01
 -1      2512 8.62858E-01
 -1      2513 5.60696E-01
 -1      2514 5.59415E-01
 -1      2515 6.98360E-01
 -1      2516 4.77271E-01
 -1      2517 4.83385E-01
 -1      2518 5.60696E-01
 -1      2519 4.66307E-01
 -1      2520 4.71156E-01
 -1      2521 4.77271E-01
 -1      2522 4.30380E-01
 -1      2523 5.34151E-01
 -1      2524 5.21570E-01
 -1      2525 7.11251E-01
 -1      2526 5.75612E-01
 -1      2527 7.01600E-01
 -1      2528 4.06710E-01
 -1      2529 4.06710E-01
 -1      2530 4.19430E-01
 -1      2531 4.31284E-01
 -1      2532 4.31284E-01
 -1      2533 5.57999E-01
 -1      2534 1.03371E+00
 -1      2535 9.24444E-01
 -1      2536 9.56254E-01
 -1      2537 1.10439E+00
 -1      2538 1.10182E+00
 -1      2539 1.23756E+00
 -1      2540 1.11304E+00
 -1      2541 1.11304E+00
 -1      2542 1.31433E+00
 -1      2543 1.09454E+00
 -1      2544 1.11304E+00
 -1      2545 1.32298E+00
 -1      2546 8.47184E-01
 -1      2547 9.80688E-01
 -1      2548 1.20913E+00
 -1      2549 6.23392E-01
 -1      2550 6.99518E-01
 -1      2551 9.47614E-01
 -1      2552 6.94907E-01
 -1      2553 6.07448E-01
 -1      2554 7.84004E-01
 -1      2555 2.96324E+01
 -1      2556 2.96324E+01
 -1      2557 1.56613E+01
 -1      2558 2.17439E+01
 -1      2559 1.41035E+00
 -1      2560 1.50059E+00
 -1      2561 1.37175E+00
 -1      2562 6.90753E-01
 -1      2563 2.95626E+01
 -1      2564 2.94929E+01
 -1      2565 2.95626E+01
 -1      2566 8.56366E+00
 -1      2567 1.23104E+01
 -1      2568 2.23833E+01
 -1      2569 1.61431E+01
 -1      2570 8.14151E+00
 -1      2571 6.55840E+00
 -1      2572 2.44527E+01
 -1      2573 2.79558E+01
 -1      2574 8.78693E+00
 -1      2575 8.20771E+00
 -1      2576 8.38158E-01
 -1      2577 8.57767E-01
 -1      2578 7.91382E-01
 -1      2579 7.60945E-01
 -1      2580 9.86936E+00
 -1      2581 9.35611E+00
 -1      2582 7.72631E+00
 -1      2583 6.11212E+00
 -1      2584 1.68975E+01
 -1      2585 1.74997E+01
 -1      2586 8.87368E+00
 -1      2587 1.23930E+01
 -1      2588 8.81724E+00
 -1      2589 1.04927E+01
 -1      2590 1.30258E+01
 -1      2591 9.32717E+00
 -1      2592 6.82275E+00
 -1      2593 2.59446E+01
 -1      2594 2.63207E+01
 -1      2595 3.06676E+01
 -1      2596 2.98764E+01
 -1      2597 2.59446E+01
 -1      2598 2.32516E+01
 -1      2599 2.18727E+01
 -1      2600 1.49223E+01
 -1      2601 2.04388E+01
 -1      2602 1.64799E+01
 -1      2603 6.19557E+00
 -1      2604 7.16554E+00
 -1      2605 7.39778E+00
 -1      2606 6.31935E+00
 -1      2607 9.32586E+00
 -1      2608 8.56280E+00
 -1      2609 9.61506E+00
 -1      2610 9.87254E+00
 -1      2611 8.82152E+00
 -1      2612 9.06376E+00
 -1      2613 8.31191E+00
 -1      2614 5.67266E+00
 -1      2615 6.96874E+00
 -1      2616 4.94078E+00
 -1      2617 1.30280E+01
 -1      2618 9.34173E+00
 -1      2619 7.18187E+00
 -1      2620 5.73012E+00
 -1      2621 2.46380E+01
 -1      2622 2.50462E+01
 -1      2623 2.25426E+00
 -1      2624 1.40221E+00
 -1      2625 1.15181E+00
 -1      2626 1.53299E+00
 -1      2627 1.70613E+00
 -1      2628 1.81833E+00
 -1      2629 1.07327E+00
 -1      2630 1.57322E+00
 -1      2631 2.46811E+01
 -1      2632 2.49174E+01
 -1      2633 7.61179E+00
 -1      2634 9.06128E-01
 -1      2635 1.02551E+00
 -1      2636 1.13739E+00
 -1      2637 1.50059E+00
 -1      2638 1.09229E+00
 -1      2639 1.72652E+01
 -1      2640 1.17959E+00
 -1      2641 1.33660E+00
 -1      2642 1.20581E+00
 -1      2643 9.67218E-01
 -1      2644 6.23486E+00
 -1      2645 2.46380E+01
 -1      2646 6.01677E+00
 -1      2647 5.90782E+00
 -1      2648 4.35230E-01
 -1      2649 1.09771E+01
 -1      2650 4.38933E-01
 -1      2651 4.38933E-01
 -1      2652 2.49174E+01
 -1      2653 8.31653E+00
 -1      2654 6.60483E+00
 -1      2655 1.30028E+00
 -1      2656 1.71201E+01
 -1      2657 1.11378E+01
 -1      2658 1.13421E+01
 -1      2659 7.02675E+00
 -1      2660 2.57145E+01
 -1      2661 2.49232E+01
 -1      2662 2.22114E+01
 -1      2663 1.35147E+01
 -1      2664 8.91254E+00
 -1      2665 1.30227E+01
 -1      2666 7.92702E+00
 -1      2667 6.90039E+00
 -1      2668 1.70369E+01
 -1      2669 2.18727E+01
 -1      2670 2.19023E+01
 -1      2671 1.49099E+01
 -1      2672 1.75944E+01
 -1      2673 4.91721E+00
 -1      2674 1.58114E+01
 -1      2675 6.90753E-01
 -1      2676 6.21755E-01
 -1      2677 6.94907E-01
 -1      2678 7.52593E-01
 -1      2679 5.31603E+00
 -1      2680 7.35885E-01
 -1      2681 6.89868E-01
 -1      2682 6.96086E-01
 -1      2683 7.03611E-01
 -1      2684 7.10000E-01
 -1      2685 6.59288E-01
 -1      2686 6.94177E-01
 -1      2687 7.11301E-01
 -1      2688 9.69933E-01
 -1      2689 6.94177E-01
 -1      2690 7.12353E-01
 -1      2691 1.37532E+00
 -1      2692 1.46660E+00
 -1      2693 1.59700E+01
 -1      2694 1.33071E+01
 -1      2695 1.50045E+00
 -1      2696 5.41566E+00
 -1      2697 4.38982E+00
 -1      2698 7.05361E-01
 -1      2699 5.94607E-01
 -1      2700 5.30060E-01
 -1      2701 4.64324E-01
 -1      2702 5.98874E-01
 -1      2703 4.17776E-01
 -1      2704 3.90835E-01
 -1      2705 4.87779E-01
 -1      2706 3.61455E-01
 -1      2707 3.51182E-01
 -1      2708 4.11851E-01
 -1      2709 3.38437E-01
 -1      2710 3.33945E-01
 -1      2711 3.69726E-01
 -1      2712 3.27840E-01
 -1      2713 3.26660E-01
 -1      2714 3.50877E-01
 -1      2715 3.23260E-01
 -1      2716 3.23790E-01
 -1      2717 3.41373E-01
 -1      2718 3.22115E-01
 -1      2719 3.23423E-01
 -1      2720 3.36298E-01
 -1      2721 3.22912E-01
 -1      2722 3.24564E-01
 -1      2723 3.34112E-01
 -1      2724 3.25004E-01
 -1      2725 3.26933E-01
 -1      2726 3.34041E-01
 -1      2727 3.28408E-01
 -1      2728 3.30818E-01
 -1      2729 3.35956E-01
 -1      2730 3.33646E-01
 -1      2731 3.36944E-01
 -1      2732 3.40259E-01
 -1      2733 3.41652E-01
 -1      2734 3.46386E-01
 -1      2735 3.47794E-01
 -1      2736 3.53681E-01
 -1      2737 3.60486E-01
 -1      2738 3.59796E-01
 -1      2739 3.71229E-01
 -1      2740 3.80748E-01
 -1      2741 3.77835E-01
 -1      2742 3.95936E-01
 -1      2743 4.08721E-01
 -1      2744 4.03767E-01
 -1      2745 4.29412E-01
 -1      2746 4.45763E-01
 -1      2747 4.39646E-01
 -1      2748 4.72798E-01
 -1      2749 5.03740E-01
 -1      2750 4.87373E-01
 -1      2751 5.36654E-01
 -1      2752 5.75647E-01
 -1      2753 5.47323E-01
 -1      2754 6.16939E-01
 -1      2755 6.58979E-01
 -1      2756 6.21530E-01
 -1      2757 6.95726E-01
 -1      2758 7.43392E-01
 -1      2759 6.99569E-01
 -1      2760 7.77191E-01
 -1      2761 8.40117E-01
 -1      2762 7.70115E-01
 -1      2763 9.16341E-01
 -1      2764 9.90212E-01
 -1      2765 8.80138E-01
 -1      2766 1.08371E+00
 -1      2767 1.15318E+00
 -1      2768 1.04986E+00
 -1      2769 1.28661E+00
 -1      2770 1.37485E+00
 -1      2771 1.27678E+00
 -1      2772 1.39970E+00
 -1      2773 1.43662E+00
 -1      2774 1.43505E+00
 -1      2775 1.56054E+00
 -1      2776 1.65881E+00
 -1      2777 1.58382E+00
 -1      2778 1.87207E+00
 -1      2779 1.99173E+00
 -1      2780 1.92099E+00
 -1      2781 2.32793E+00
 -1      2782 2.43147E+00
 -1      2783 2.47045E+00
 -1      2784 2.82079E+00
 -1      2785 3.10662E+00
 -1      2786 3.19597E+00
 -1      2787 3.34937E+00
 -1      2788 3.63259E+00
 -1      2789 3.82804E+00
 -1      2790 4.63367E+00
 -1      2791 6.36319E+00
 -1      2792 8.07490E+00
 -1      2793 7.32907E+00
 -1      2794 3.07104E+00
 -1      2795 2.53505E+00
 -1      2796 2.86800E+00
 -1      2797 2.91724E+00
 -1      2798 2.90456E+00
 -1      2799 2.97517E+00
 -1      2800 2.75875E+00
 -1      2801 3.29545E+00
 -1      2802 2.34553E+00
 -1      2803 2.07792E+00
 -1      2804 2.94016E+00
 -1      2805 1.75537E+00
 -1      2806 1.62234E+00
 -1      2807 2.20438E+00
 -1      2808 1.43586E+00
 -1      2809 1.28337E+00
 -1      2810 1.69536E+00
 -1      2811 1.05785E+00
 -1      2812 9.53934E-01
 -1      2813 1.28337E+00
 -1      2814 1.07278E+00
 -1      2815 1.12552E+00
 -1      2816 4.63367E+00
 -1      2817 4.50989E+00
 -1      2818 1.15032E+00
 -1      2819 1.19985E+00
 -1      2820 1.04176E+00
 -1      2821 9.06152E-01
 -1      2822 9.54162E-01
 -1      2823 8.28389E-01
 -1      2824 8.71263E-01
 -1      2825 8.48021E-01
 -1      2826 7.57409E-01
 -1      2827 7.94980E-01
 -1      2828 7.79723E-01
 -1      2829 6.91835E-01
 -1      2830 7.26126E-01
 -1      2831 7.15031E-01
 -1      2832 6.33111E-01
 -1      2833 6.62759E-01
 -1      2834 6.54671E-01
 -1      2835 5.80049E-01
 -1      2836 6.05934E-01
 -1      2837 5.98418E-01
 -1      2838 5.30788E-01
 -1      2839 5.54191E-01
 -1      2840 5.45382E-01
 -1      2841 4.83493E-01
 -1      2842 5.05478E-01
 -1      2843 4.94213E-01
 -1      2844 4.36090E-01
 -1      2845 4.57831E-01
 -1      2846 4.43240E-01
 -1      2847 3.86347E-01
 -1      2848 4.09117E-01
 -1      2849 3.90604E-01
 -1      2850 3.47313E-01
 -1      2851 3.57131E-01
 -1      2852 3.34415E-01
 -1      2853 3.76948E-01
 -1      2854 3.57918E-01
 -1      2855 3.15804E-01
 -1      2856 4.11382E-01
 -1      2857 3.91430E-01
 -1      2858 3.40892E-01
 -1      2859 4.45627E-01
 -1      2860 4.26590E-01
 -1      2861 3.70582E-01
 -1      2862 5.13150E-01
 -1      2863 4.90677E-01
 -1      2864 4.30840E-01
 -1      2865 6.32689E-01
 -1      2866 5.78480E-01
 -1      2867 5.41220E-01
 -1      2868 7.45639E-01
 -1      2869 7.02234E-01
 -1      2870 6.76094E-01
 -1      2871 1.07842E+00
 -1      2872 9.78995E-01
 -1      2873 9.78995E-01
 -1      2874 1.42692E+00
 -1      2875 1.42784E+00
 -1      2876 1.56177E+00
 -1      2877 1.07480E+00
 -1      2878 1.11781E+00
 -1      2879 1.60208E+00
 -1      2880 9.34698E-01
 -1      2881 9.48745E-01
 -1      2882 1.16692E+00
 -1      2883 7.65759E-01
 -1      2884 8.28526E-01
 -1      2885 9.34698E-01
 -1      2886 8.22449E-01
 -1      2887 7.90633E-01
 -1      2888 8.53400E-01
 -1      2889 9.61776E-01
 -1      2890 9.46085E-01
 -1      2891 1.00191E+00
 -1      2892 1.17540E+00
 -1      2893 1.00192E+00
 -1      2894 1.16570E+00
 -1      2895 1.40342E+00
 -1      2896 1.21909E+00
 -1      2897 1.24954E+00
 -1      2898 2.10176E+00
 -1      2899 1.80768E+00
 -1      2900 1.69750E+00
 -1      2901 4.30165E+00
 -1      2902 4.38829E+00
 -1      2903 4.38829E+00
 -1      2904 5.01056E+00
 -1      2905 4.71823E+00
 -1      2906 7.09141E+00
 -1      2907 3.48902E+00
 -1      2908 3.64193E+00
 -1      2909 6.13935E+00
 -1      2910 2.34590E+00
 -1      2911 2.50802E+00
 -1      2912 3.78972E+00
 -1      2913 1.75730E+00
 -1      2914 1.88256E+00
 -1      2915 2.34538E+00
 -1      2916 1.53187E+00
 -1      2917 1.68128E+00
 -1      2918 1.80602E+00
 -1      2919 1.15532E+00
 -1      2920 1.33869E+00
 -1      2921 1.53682E+00
 -1      2922 9.54977E-01
 -1      2923 1.05912E+00
 -1      2924 1.24744E+00
 -1      2925 7.51654E-01
 -1      2926 8.12008E-01
 -1      2927 1.00827E+00
 -1      2928 5.60696E-01
 -1      2929 6.38007E-01
 -1      2930 7.51654E-01
 -1      2931 4.66018E-01
 -1      2932 4.72133E-01
 -1      2933 5.49443E-01
 -1      2934 4.33795E-01
 -1      2935 7.11604E+00
 -1      2936 1.04669E+01
 -1      2937 1.57854E+00
 -1      2938 1.51042E+00
 -1      2939 1.76253E+01
 -1      2940 2.23403E+01
 -1      2941 9.39455E-01
 -1      2942 8.97994E-01
 -1      2943 1.58719E+00
 -1      2944 1.57854E+00
 -1      2945 1.85139E+00
 -1      2946 1.22835E+00
 -1      2947 1.01515E+00
 -1      2948 1.21155E+00
 -1      2949 1.56932E+00
 -1      2950 1.57197E+00
 -1      2951 1.57197E+00
 -1      2952 1.83618E+00
 -1      2953 1.43734E+00
 -1      2954 1.55119E+00
 -1      2955 1.80018E+00
 -1      2956 1.04551E+00
 -1      2957 1.19318E+00
 -1      2958 1.53524E+00
 -1      2959 2.12332E+01
 -1      2960 2.11635E+01
 -1      2961 2.26363E+01
 -1      2962 1.77814E+01
 -1      2963 4.66339E+00
 -1      2964 6.05475E+00
 -1      2965 3.81275E+00
 -1      2966 5.66554E+00
 -1      2967 1.20996E+00
 -1      2968 1.24856E+00
 -1      2969 1.07667E+00
 -1      2970 9.89047E-01
 -1      2971 1.04064E+00
 -1      2972 9.84820E-01
 -1      2973 9.17797E-01
 -1      2974 8.24360E-01
 -1      2975 7.47300E-01
 -1      2976 7.05361E-01
 -1      2977 3.69311E+00
 -1      2978 3.61940E+00
 -1      2979 3.43929E+00
 -1      2980 1.29212E+01
 -1      2981 1.58584E+01
 -1      2982 1.27415E+00
 -1      2983 1.36440E+00
 -1      2984 1.14888E+00
 -1      2985 1.11237E+00
 -1      2986 6.83192E-01
 -1      2987 6.92054E-01
 -1      2988 6.53949E-01
 -1      2989 6.84244E-01
 -1      2990 7.92633E-01
 -1      2991 8.29219E-01
 -1      2992 5.38933E+00
 -1      2993 7.09748E+00
 -1      2994 1.17395E+01
 -1      2995 8.62441E+00
 -1      2996 7.10852E-01
 -1      2997 7.84004E-01
 -1      2998 8.24981E-01
 -1      2999 1.71918E+01
 -1      3000 1.97717E+01
 -1      3001 9.02792E+00
 -1      3002 7.42706E+00
 -1      3003 1.50750E+01
 -1      3004 1.77801E+01
 -1      3005 1.72801E+01
 -1      3006 2.24560E+01
 -1      3007 1.85242E+01
 -1      3008 1.77801E+01
 -1      3009 2.41849E+01
 -1      3010 1.20390E+01
 -1      3011 1.48518E+01
 -1      3012 6.60483E+00
 -1      3013 5.43981E+00
 -1      3014 4.64790E+00
 -1      3015 3.76215E+00
 -1      3016 6.65503E+00
 -1      3017 5.45480E+00
 -1      3018 7.05246E+00
 -1      3019 1.57954E+01
 -1      3020 8.16502E+00
 -1      3021 8.41808E+00
 -1      3022 1.09474E+01
 -1      3023 1.13896E+00
 -1      3024 8.88571E-01
 -1      3025 8.11511E-01
 -1      3026 9.42568E-01
 -1      3027 7.02298E+00
 -1      3028 6.45379E+00
 -1      3029 8.49738E-01
 -1      3030 8.68633E-01
 -1      3031 7.91723E-01
 -1      3032 6.75822E-01
 -1      3033 7.19009E-01
 -1      3034 7.26767E-01
 -1      3035 1.05894E+01
 -1      3036 1.19366E+00
 -1      3037 6.90702E+00
 -1      3038 4.82685E+00
 -1      3039 4.27617E+00
 -1      3040 9.31925E+00
 -1      3041 3.94916E+00
 -1      3042 3.51096E+00
 -1      3043 3.82753E+00
 -1      3044 4.63367E+00
 -1      3045 7.32907E+00
 -1      3046 5.79491E+00
 -1      3047 9.28901E-01
 -1      3048 4.68269E+00
 -1      3049 7.00702E+00
 -1      3050 4.70697E+00
 -1      3051 2.49281E+01
 -1      3052 5.54457E+00
 -1      3053 4.59161E-01
 -1      3054 4.86246E-01
 -1      3055 4.83735E-01
 -1      3056 1.39411E+01
 -1      3057 1.43069E+01
 -1      3058 6.84125E+00
 -1      3059 7.44555E+00
 -1      3060 7.33018E+00
 -1      3061 6.62066E+00
 -1      3062 1.04817E+01
 -1      3063 9.07491E+00
 -1      3064 7.99948E-01
 -1      3065 9.36080E-01
 -1      3066 1.32813E+01
 -1      3067 1.39684E+01
 -1      3068 1.82592E+01
 -1      3069 1.60179E+01
 -1      3070 1.35783E+01
 -1      3071 1.26997E+01
 -1      3072 9.07846E+00
 -1      3073 1.09657E+01
 -1      3074 7.52821E+00
 -1      3075 4.68269E+00
 -1      3076 6.77776E+00
 -1      3077 1.54855E+01
 -1      3078 1.10672E+01
 -1      3079 1.19970E+01
 -1      3080 1.50620E+01
 -1      3081 2.00151E+01
 -1      3082 1.25947E+01
 -1      3083 6.80540E-01
 -1      3084 5.78400E-01
 -1      3085 6.06276E-01
 -1      3086 9.18395E-01
 -1      3087 3.09201E+00
 -1      3088 7.45759E-01
 -1      3089 7.68438E-01
 -1      3090 7.47010E-01
 -1      3091 7.03823E-01
 -1      3092 8.27381E-01
 -1      3093 8.27381E-01
 -1      3094 1.07295E+00
 -1      3095 9.56334E-01
 -1      3096 1.27508E+01
 -1      3097 2.41849E+01
 -1      3098 2.34418E+01
 -1      3099 1.57954E+01
 -1      3100 7.20160E-01
 -1      3101 7.20160E-01
 -1      3102 8.29565E-01
 -1      3103 8.71760E-01
 -1      3104 8.04915E-01
 -1      3105 7.73175E-01
 -1      3106 7.19443E+00
 -1      3107 5.22504E+00
 -1      3108 7.82853E+00
 -1      3109 6.68648E+00
 -1      3110 4.82860E+00
 -1      3111 5.29333E-01
 -1      3112 4.82786E-01
 -1      3113 4.50500E-01
 -1      3114 4.21119E-01
 -1      3115 4.92054E-01
 -1      3116 3.98364E-01
 -1      3117 3.85619E-01
 -1      3118 4.37012E-01
 -1      3119 3.70356E-01
 -1      3120 3.64252E-01
 -1      3121 3.98993E-01
 -1      3122 3.57741E-01
 -1      3123 3.54341E-01
 -1      3124 3.77220E-01
 -1      3125 3.49779E-01
 -1      3126 3.48104E-01
 -1      3127 3.66147E-01
 -1      3128 3.45035E-01
 -1      3129 3.44523E-01
 -1      3130 3.58515E-01
 -1      3131 3.42731E-01
 -1      3132 3.43172E-01
 -1      3133 3.53654E-01
 -1      3134 3.42690E-01
 -1      3135 3.44164E-01
 -1      3136 3.51380E-01
 -1      3137 3.45247E-01
 -1      3138 3.48075E-01
 -1      3139 3.51981E-01
 -1      3140 3.51191E-01
 -1      3141 3.55899E-01
 -1      3142 3.56180E-01
 -1      3143 3.61757E-01
 -1      3144 3.69052E-01
 -1      3145 3.65154E-01
 -1      3146 3.79216E-01
 -1      3147 3.89960E-01
 -1      3148 3.81177E-01
 -1      3149 4.06158E-01
 -1      3150 4.21346E-01
 -1      3151 4.07539E-01
 -1      3152 4.44374E-01
 -1      3153 4.65066E-01
 -1      3154 4.46765E-01
 -1      3155 4.96044E-01
 -1      3156 5.23080E-01
 -1      3157 5.00772E-01
 -1      3158 5.61990E-01
 -1      3159 5.94904E-01
 -1      3160 5.70661E-01
 -1      3161 6.51258E-01
 -1      3162 6.92550E-01
 -1      3163 6.65924E-01
 -1      3164 7.46607E-01
 -1      3165 7.83353E-01
 -1      3166 7.76334E-01
 -1      3167 7.94302E-01
 -1      3168 8.28101E-01
 -1      3169 8.41339E-01
 -1      3170 8.67409E-01
 -1      3171 9.43632E-01
 -1      3172 8.91596E-01
 -1      3173 1.14107E+00
 -1      3174 1.23457E+00
 -1      3175 1.12834E+00
 -1      3176 1.50130E+00
 -1      3177 1.63473E+00
 -1      3178 1.59252E+00
 -1      3179 1.41704E+00
 -1      3180 1.44188E+00
 -1      3181 1.64156E+00
 -1      3182 1.63300E+00
 -1      3183 1.75692E+00
 -1      3184 1.61499E+00
 -1      3185 2.12751E+00
 -1      3186 2.34077E+00
 -1      3187 2.17670E+00
 -1      3188 2.75738E+00
 -1      3189 3.09358E+00
 -1      3190 2.96389E+00
 -1      3191 3.95710E+00
 -1      3192 4.34642E+00
 -1      3193 4.24403E+00
 -1      3194 9.25028E+00
 -1      3195 1.15903E+01
 -1      3196 7.64360E-01
 -1      3197 7.22421E-01
 -1      3198 4.30226E+00
 -1      3199 4.36020E+00
 -1      3200 4.17621E+00
 -1      3201 3.76299E+00
 -1      3202 5.18303E+00
 -1      3203 2.95825E+00
 -1      3204 2.63570E+00
 -1      3205 4.19431E+00
 -1      3206 2.19965E+00
 -1      3207 2.01318E+00
 -1      3208 2.95352E+00
 -1      3209 1.42282E+00
 -1      3210 1.19730E+00
 -1      3211 1.09578E+00
 -1      3212 1.92711E+00
 -1      3213 7.28467E-01
 -1      3214 7.61876E-01
 -1      3215 7.88979E-01
 -1      3216 8.23868E-01
 -1      3217 7.37723E-01
 -1      3218 6.14112E-01
 -1      3219 6.43188E-01
 -1      3220 5.60672E-01
 -1      3221 5.87849E-01
 -1      3222 5.76366E-01
 -1      3223 5.08793E-01
 -1      3224 5.34652E-01
 -1      3225 5.24083E-01
 -1      3226 4.57176E-01
 -1      3227 4.82486E-01
 -1      3228 4.71756E-01
 -1      3229 4.04219E-01
 -1      3230 4.29881E-01
 -1      3231 4.18154E-01
 -1      3232 3.48178E-01
 -1      3233 3.75151E-01
 -1      3234 3.61792E-01
 -1      3235 2.87362E-01
 -1      3236 3.16578E-01
 -1      3237 3.01125E-01
 -1      3238 2.77869E-01
 -1      3239 2.67264E-01
 -1      3240 2.49427E-01
 -1      3241 3.01672E-01
 -1      3242 2.87189E-01
 -1      3243 2.38649E-01
 -1      3244 3.28044E-01
 -1      3245 3.12836E-01
 -1      3246 2.59133E-01
 -1      3247 4.28868E-01
 -1      3248 3.83818E-01
 -1      3249 3.26072E-01
 -1      3250 5.56763E-01
 -1      3251 4.91434E-01
 -1      3252 4.44411E-01
 -1      3253 7.00066E-01
 -1      3254 6.30521E-01
 -1      3255 5.80735E-01
 -1      3256 1.21235E+00
 -1      3257 9.78995E-01
 -1      3258 9.33422E-01
 -1      3259 3.07872E+00
 -1      3260 2.72930E+00
 -1      3261 2.72930E+00
 -1      3262 5.08017E+00
 -1      3263 5.38927E+00
 -1      3264 6.55681E+00
 -1      3265 3.56903E+00
 -1      3266 3.69509E+00
 -1      3267 7.48228E+00
 -1      3268 1.40008E+00
 -1      3269 1.50625E+00
 -1      3270 4.03441E+00
 -1      3271 1.04970E+00
 -1      3272 1.02483E+00
 -1      3273 1.59638E+00
 -1      3274 1.17681E+00
 -1      3275 1.05317E+00
 -1      3276 1.22460E+00
 -1      3277 1.32828E+00
 -1      3278 1.28813E+00
 -1      3279 1.33939E+00
 -1      3280 2.13806E+00
 -1      3281 2.09436E+00
 -1      3282 2.21679E+00
 -1      3283 5.39786E+00
 -1      3284 4.99360E+00
 -1      3285 5.83842E+00
 -1      3286 1.54749E+01
 -1      3287 1.50583E+01
 -1      3288 6.13935E+00
 -1      3289 7.50799E+00
 -1      3290 2.28825E+00
 -1      3291 2.75159E+00
 -1      3292 1.80602E+00
 -1      3293 1.88203E+00
 -1      3294 2.28825E+00
 -1      3295 1.53682E+00
 -1      3296 1.73000E+00
 -1      3297 1.80602E+00
 -1      3298 1.59472E+00
 -1      3299 1.69092E+00
 -1      3300 1.88411E+00
 -1      3301 1.00827E+00
 -1      3302 1.15124E+00
 -1      3303 1.59472E+00
 -1      3304 7.51654E-01
 -1      3305 8.65302E-01
 -1      3306 1.00827E+00
 -1      3307 5.06912E-01
 -1      3308 5.95475E-01
 -1      3309 7.09123E-01
 -1      3310 5.32278E-01
 -1      3311 1.01044E+01
 -1      3312 1.77523E+01
 -1      3313 2.30669E+00
 -1      3314 2.32191E+00
 -1      3315 2.95468E+00
 -1      3316 2.25797E+00
 -1      3317 2.32191E+00
 -1      3318 2.32191E+00
 -1      3319 2.79243E+00
 -1      3320 1.19283E+01
 -1      3321 1.08213E+01
 -1      3322 3.57047E+00
 -1      3323 1.07344E+01
 -1      3324 1.22072E+01
 -1      3325 9.82703E-01
 -1      3326 9.92810E-01
 -1      3327 3.51987E+00
 -1      3328 2.27311E+00
 -1      3329 2.29389E+00
 -1      3330 2.77963E+00
 -1      3331 1.65666E+00
 -1      3332 1.90082E+00
 -1      3333 2.39453E+00
 -1      3334 1.28492E+01
 -1      3335 1.10378E+01
 -1      3336 6.69967E-01
 -1      3337 7.01250E-01
 -1      3338 6.83403E-01
 -1      3339 6.29407E-01
 -1      3340 9.54645E-01
 -1      3341 9.79448E-01
 -1      3342 8.95588E-01
 -1      3343 1.01575E+01
 -1      3344 8.58992E+00
 -1      3345 6.76251E+00
 -1      3346 6.63496E-01
 -1      3347 5.98949E-01
 -1      3348 5.93955E-01
 -1      3349 2.47671E+00
 -1      3350 3.52070E+00
 -1      3351 9.76205E+00
 -1      3352 1.15289E+01
 -1      3353 8.40908E+00
 -1      3354 2.49281E+01
 -1      3355 2.49281E+01
 -1      3356 1.77523E+01
 -1      3357 5.31785E+00
 -1      3358 4.27972E+00
 -1      3359 9.56666E-01
 -1      3360 7.32938E-01
 -1      3361 7.40746E-01
 -1      3362 9.45742E-01
 -1      3363 4.10380E+00
 -1      3364 5.16509E+00
 -1      3365 3.14122E+00
 -1      3366 6.53625E-01
 -1      3367 6.61150E-01
 -1      3368 7.53091E+00
 -1      3369 8.62253E+00
 -1      3370 4.44488E+00
 -1      3371 5.20269E+00
 -1      3372 6.52330E+00
 -1      3373 4.20213E+00
 -1      3374 6.66813E-01
 -1      3375 6.75822E-01
 -1      3376 6.61150E-01
 -1      3377 7.20160E-01
 -1      3378 6.92051E-01
 -1      3379 7.27968E-01
 -1      3380 6.13935E+00
 -1      3381 1.41501E+00
 -1      3382 1.63314E+00
 -1      3383 1.99873E+00
 -1      3384 1.65598E+00
 -1      3385 4.96326E+00
 -1      3386 7.46194E+00
 -1      3387 7.22495E-01
 -1      3388 9.06890E-01
 -1      3389 9.39028E-01
 -1      3390 8.76715E-01
 -1      3391 7.90606E-01
 -1      3392 8.49649E-01
 -1      3393 8.84534E-01
 -1      3394 2.13930E+01
 -1      3395 1.30095E+01
 -1      3396 1.07230E+01
 -1      3397 2.21361E+01
 -1      3398 1.40191E+01
 -1      3399 3.73259E+00
 -1      3400 3.78972E+00
 -1      3401 4.77072E+00
 -1      3402 7.50447E+00
 -1      3403 7.97660E+00
 -1      3404 5.31780E+00
 -1      3405 3.44568E+00
 -1      3406 1.56399E+00
 -1      3407 1.48829E+00
 -1      3408 8.80842E+00
 -1      3409 1.08213E+01
 -1      3410 8.72155E+00
 -1      3411 2.33938E+00
 -1      3412 2.05219E+00
 -1      3413 1.77011E+00
 -1      3414 2.04686E+00
 -1      3415 2.52271E+00
 -1      3416 7.15026E+00
 -1      3417 5.07897E+00
 -1      3418 6.82725E+00
 -1      3419 5.37245E+00
 -1      3420 5.38726E+00
 -1      3421 3.93168E+00
 -1      3422 9.03833E+00
 -1      3423 9.27667E+00
 -1      3424 8.67028E+00
 -1      3425 6.91797E+00
 -1      3426 6.23083E+00
 -1      3427 1.15252E+01
 -1      3428 1.00126E+01
 -1      3429 8.02463E+00
 -1      3430 1.51962E+00
 -1      3431 1.16718E+00
 -1      3432 9.49725E-01
 -1      3433 1.00937E+01
 -1      3434 7.88341E+00
 -1      3435 7.98484E+00
 -1      3436 1.46574E+01
 -1      3437 9.74925E+00
 -1      3438 1.07052E+01
 -1      3439 6.66742E-01
 -1      3440 6.64556E-01
 -1      3441 6.66418E-01
 -1      3442 7.02659E-01
 -1      3443 9.70902E-01
 -1      3444 9.96494E-01
 -1      3445 8.04275E-01
 -1      3446 8.76935E-01
 -1      3447 5.82658E+00
 -1      3448 9.66628E+00
 -1      3449 1.21072E+01
 -1      3450 1.54749E+01
 -1      3451 9.06852E+00
 -1      3452 7.15799E-01
 -1      3453 7.39994E-01
 -1      3454 4.16030E+00
 -1      3455 7.45102E-01
 -1      3456 7.76312E-01
 -1      3457 7.96831E-01
 -1      3458 7.40704E-01
 -1      3459 7.57764E-01
 -1      3460 3.35339E+00
 -1      3461 7.96831E-01
 -1      3462 5.93955E-01
 -1      3463 5.24340E-01
 -1      3464 7.43495E+00
 -1      3465 7.32474E+00
 -1      3466 6.35127E+00
 -1      3467 8.17307E+00
 -1      3468 7.29274E+00
 -1      3469 2.34800E+00
 -1      3470 2.93110E+00
 -1      3471 4.63511E-01
 -1      3472 4.40755E-01
 -1      3473 4.23997E-01
 -1      3474 4.08734E-01
 -1      3475 4.50496E-01
 -1      3476 3.95935E-01
 -1      3477 3.89425E-01
 -1      3478 4.20939E-01
 -1      3479 3.80935E-01
 -1      3480 3.76373E-01
 -1      3481 3.99651E-01
 -1      3482 3.70925E-01
 -1      3483 3.67855E-01
 -1      3484 3.85713E-01
 -1      3485 3.63582E-01
 -1      3486 3.61790E-01
 -1      3487 3.75991E-01
 -1      3488 3.58759E-01
 -1      3489 3.58277E-01
 -1      3490 3.68687E-01
 -1      3491 3.56736E-01
 -1      3492 3.57819E-01
 -1      3493 3.64115E-01
 -1      3494 3.58154E-01
 -1      3495 3.61271E-01
 -1      3496 3.62909E-01
 -1      3497 3.65693E-01
 -1      3498 3.71551E-01
 -1      3499 3.67667E-01
 -1      3500 3.81023E-01
 -1      3501 3.91187E-01
 -1      3502 3.81561E-01
 -1      3503 4.07539E-01
 -1      3504 4.23736E-01
 -1      3505 4.07385E-01
 -1      3506 4.46765E-01
 -1      3507 4.69794E-01
 -1      3508 4.46765E-01
 -1      3509 5.00772E-01
 -1      3510 5.31751E-01
 -1      3511 5.00772E-01
 -1      3512 5.73072E-01
 -1      3513 6.11982E-01
 -1      3514 5.73072E-01
 -1      3515 6.76523E-01
 -1      3516 7.32876E-01
 -1      3517 6.78934E-01
 -1      3518 8.22584E-01
 -1      3519 8.76640E-01
 -1      3520 8.33182E-01
 -1      3521 9.91002E-01
 -1      3522 1.00195E+00
 -1      3523 1.03725E+00
 -1      3524 1.13460E+00
 -1      3525 1.17391E+00
 -1      3526 1.28426E+00
 -1      3527 1.17742E+00
 -1      3528 1.37486E+00
 -1      3529 1.42042E+00
 -1      3530 1.95130E+00
 -1      3531 2.21803E+00
 -1      3532 2.00037E+00
 -1      3533 2.56426E+00
 -1      3534 2.34657E+00
 -1      3535 2.92304E+00
 -1      3536 1.42387E+00
 -1      3537 1.61499E+00
 -1      3538 2.34657E+00
 -1      3539 2.10869E+00
 -1      3540 2.47928E+00
 -1      3541 1.91757E+00
 -1      3542 3.83168E+00
 -1      3543 4.24829E+00
 -1      3544 3.76367E+00
 -1      3545 5.97087E+00
 -1      3546 8.37887E-01
 -1      3547 8.41143E-01
 -1      3548 5.71327E+00
 -1      3549 4.90853E+00
 -1      3550 3.38957E+00
 -1      3551 2.95352E+00
 -1      3552 4.90853E+00
 -1      3553 6.87959E-01
 -1      3554 7.15061E-01
 -1      3555 2.21361E+01
 -1      3556 4.87340E-01
 -1      3557 5.13360E-01
 -1      3558 5.37839E-01
 -1      3559 5.64101E-01
 -1      3560 5.01096E-01
 -1      3561 3.81397E-01
 -1      3562 4.08691E-01
 -1      3563 3.23192E-01
 -1      3564 3.52260E-01
 -1      3565 3.42796E-01
 -1      3566 2.59493E-01
 -1      3567 2.91093E-01
 -1      3568 2.81560E-01
 -1      3569 2.03702E-01
 -1      3570 2.23801E-01
 -1      3571 2.13768E-01
 -1      3572 1.97771E-01
 -1      3573 1.88450E-01
 -1      3574 1.62825E-01
 -1      3575 2.15232E-01
 -1      3576 2.04068E-01
 -1      3577 1.53870E-01
 -1      3578 3.28770E-01
 -1      3579 2.72997E-01
 -1      3580 2.17931E-01
 -1      3581 4.45526E-01
 -1      3582 3.82960E-01
 -1      3583 3.29885E-01
 -1      3584 6.01551E-01
 -1      3585 5.27794E-01
 -1      3586 4.66342E-01
 -1      3587 1.14454E+00
 -1      3588 8.65612E-01
 -1      3589 8.12671E-01
 -1      3590 4.24626E+00
 -1      3591 2.72930E+00
 -1      3592 2.66149E+00
 -1      3593 1.08427E+01
 -1      3594 8.53217E+00
 -1      3595 8.53217E+00
 -1      3596 9.45763E+00
 -1      3597 1.08427E+01
 -1      3598 1.28181E+01
 -1      3599 5.03541E+00
 -1      3600 7.09819E+00
 -1      3601 1.04586E+01
 -1      3602 1.60298E+00
 -1      3603 1.97823E+00
 -1      3604 5.04201E+00
 -1      3605 1.41233E+00
 -1      3606 1.40886E+00
 -1      3607 1.79071E+00
 -1      3608 1.74612E+00
 -1      3609 1.63480E+00
 -1      3610 1.81906E+00
 -1      3611 3.58787E+00
 -1      3612 2.82179E+00
 -1      3613 3.11720E+00
 -1      3614 2.40755E+00
 -1      3615 1.77998E+00
 -1      3616 2.22346E+00
 -1      3617 1.21202E+00
 -1      3618 1.35499E+00
 -1      3619 1.98373E+00
 -1      3620 2.48160E+00
 -1      3621 2.85389E+00
 -1      3622 3.07104E+00
 -1      3623 7.81420E-01
 -1      3624 6.96827E+00
 -1      3625 7.59602E+00
 -1      3626 6.10494E+00
 -1      3627 7.65538E+00
 -1      3628 8.29737E+00
 -1      3629 6.57852E+00
 -1      3630 3.02044E+00
 -1      3631 4.51676E+00
 -1      3632 4.51676E+00
 -1      3633 6.84831E-01
 -1      3634 7.03823E-01
 -1      3635 6.96807E-01
 -1      3636 7.17959E+00
 -1      3637 7.57893E+00
 -1      3638 1.93394E+00
 -1      3639 2.00996E+00
 -1      3640 8.42914E+00
 -1      3641 7.94159E+00
 -1      3642 8.02456E+00
 -1      3643 1.68110E+01
 -1      3644 9.43838E-01
 -1      3645 8.49173E-01
 -1      3646 8.69839E-01
 -1      3647 1.19262E+00
 -1      3648 4.35616E-01
 -1      3649 4.61923E-01
 -1      3650 4.51200E-01
 -1      3651 3.98858E-01
 -1      3652 7.35318E-01
 -1      3653 6.76393E-01
 -1      3654 6.06777E-01
 -1      3655 7.35318E-01
 -1      3656 4.50396E+00
 -1      3657 4.51676E+00
 -1      3658 6.24109E+00
 -1      3659 4.59102E+00
 -1      3660 9.63523E+00
 -1      3661 5.16218E-01
 -1      3662 4.83932E-01
 -1      3663 4.87675E-01
 -1      3664 6.77968E+00
 -1      3665 7.30583E-01
 -1      3666 7.30583E-01
 -1      3667 6.53268E-01
 -1      3668 6.58931E-01
 -1      3669 7.10996E+00
 -1      3670 5.36438E+00
 -1      3671 3.84542E+00
 -1      3672 5.48868E+00
 -1      3673 5.16218E-01
 -1      3674 6.10921E+00
 -1      3675 5.24142E+00
 -1      3676 6.75822E-01
 -1      3677 8.38742E-01
 -1      3678 8.31384E-01
 -1      3679 7.76938E-01
 -1      3680 8.15767E-01
 -1      3681 6.86324E-01
 -1      3682 7.36088E-01
 -1      3683 7.61869E-01
 -1      3684 6.65380E-01
 -1      3685 6.42718E-01
 -1      3686 6.38162E-01
 -1      3687 2.24634E+00
 -1      3688 5.49472E-01
 -1      3689 5.87999E-01
 -1      3690 6.14778E-01
 -1      3691 2.23083E+00
 -1      3692 1.94391E+00
 -1      3693 1.82461E+00
 -1      3694 1.02602E+00
 -1      3695 7.57893E+00
 -1      3696 6.55972E+00
 -1      3697 4.63152E+00
 -1      3698 5.68768E+00
 -1      3699 7.74225E+00
 -1      3700 3.29250E+00
 -1      3701 3.02277E+00
 -1      3702 5.01683E+00
 -1      3703 2.27590E+00
 -1      3704 2.47984E+00
 -1      3705 3.27306E+00
 -1      3706 2.43000E+00
 -1      3707 3.48042E+00
 -1      3708 2.16265E+00
 -1      3709 8.19234E-01
 -1      3710 8.76935E-01
 -1      3711 5.13892E+00
 -1      3712 4.73429E+00
 -1      3713 3.89071E+00
 -1      3714 2.68239E+00
 -1      3715 1.99448E+00
 -1      3716 1.67336E+00
 -1      3717 9.24532E+00
 -1      3718 7.88480E+00
 -1      3719 7.19225E+00
 -1      3720 7.28030E-01
 -1      3721 7.40007E-01
 -1      3722 2.72445E+00
 -1      3723 2.51833E+00
 -1      3724 2.67207E+00
 -1      3725 3.49424E+00
 -1      3726 1.95253E+00
 -1      3727 5.89707E+00
 -1      3728 7.13421E+00
 -1      3729 7.91003E-01
 -1      3730 7.78225E-01
 -1      3731 7.80840E-01
 -1      3732 8.41754E-01
 -1      3733 2.61526E+00
 -1      3734 8.55027E-01
 -1      3735 6.74878E-01
 -1      3736 6.63946E-01
 -1      3737 6.61728E-01
 -1      3738 5.39043E+00
 -1      3739 6.78575E-01
 -1      3740 7.14893E-01
 -1      3741 6.68791E-01
 -1      3742 7.09798E-01
 -1      3743 7.38468E+00
 -1      3744 1.37274E+00
 -1      3745 4.91604E+00
 -1      3746 5.57614E+00
 -1      3747 4.25245E+00
 -1      3748 3.27388E+00
 -1      3749 5.16218E-01
 -1      3750 5.08097E-01
 -1      3751 4.40976E-01
 -1      3752 4.28178E-01
 -1      3753 4.17485E-01
 -1      3754 4.08996E-01
 -1      3755 4.37523E-01
 -1      3756 4.00052E-01
 -1      3757 3.94604E-01
 -1      3758 4.17887E-01
 -1      3759 3.87260E-01
 -1      3760 3.82986E-01
 -1      3761 4.01598E-01
 -1      3762 3.77138E-01
 -1      3763 3.74108E-01
 -1      3764 3.88407E-01
 -1      3765 3.69734E-01
 -1      3766 3.68193E-01
 -1      3767 3.78186E-01
 -1      3768 3.65440E-01
 -1      3769 3.65776E-01
 -1      3770 3.71059E-01
 -1      3771 3.66645E-01
 -1      3772 3.71067E-01
 -1      3773 3.69176E-01
 -1      3774 3.77719E-01
 -1      3775 3.87192E-01
 -1      3776 3.76697E-01
 -1      3777 4.00641E-01
 -1      3778 4.16992E-01
 -1      3779 3.96799E-01
 -1      3780 4.37404E-01
 -1      3781 4.60433E-01
 -1      3782 4.30660E-01
 -1      3783 4.90307E-01
 -1      3784 5.21285E-01
 -1      3785 4.80946E-01
 -1      3786 5.63567E-01
 -1      3787 6.04889E-01
 -1      3788 5.53102E-01
 -1      3789 6.65384E-01
 -1      3790 7.29924E-01
 -1      3791 6.55879E-01
 -1      3792 8.35619E-01
 -1      3793 9.25327E-01
 -1      3794 8.22069E-01
 -1      3795 1.10755E+00
 -1      3796 1.22191E+00
 -1      3797 1.10998E+00
 -1      3798 2.05583E+00
 -1      3799 2.18848E+00
 -1      3800 2.12612E+00
 -1      3801 4.83171E+00
 -1      3802 4.83521E+00
 -1      3803 5.60327E+00
 -1      3804 1.07235E+01
 -1      3805 1.12999E+01
 -1      3806 1.41348E+01
 -1      3807 1.32142E+01
 -1      3808 1.35604E+01
 -1      3809 2.19373E+01
 -1      3810 5.12460E+00
 -1      3811 4.20191E+00
 -1      3812 1.54157E+01
 -1      3813 2.09636E+00
 -1      3814 2.59006E+00
 -1      3815 4.87439E+00
 -1      3816 3.76367E+00
 -1      3817 5.11607E+00
 -1      3818 3.94246E+00
 -1      3819 6.29526E+00
 -1      3820 7.52476E+00
 -1      3821 2.53180E-01
 -1      3822 2.85280E-01
 -1      3823 3.08531E-01
 -1      3824 3.37668E-01
 -1      3825 2.80151E-01
 -1      3826 1.59945E-01
 -1      3827 1.75197E-01
 -1      3828 1.58338E-01
 -1      3829 1.52042E-01
 -1      3830 1.64414E-01
 -1      3831 2.36865E-01
 -1      3832 1.79101E-01
 -1      3833 1.77273E-01
 -1      3834 3.47159E-01
 -1      3835 2.92970E-01
 -1      3836 2.54140E-01
 -1      3837 5.06585E-01
 -1      3838 4.24317E-01
 -1      3839 3.87402E-01
 -1      3840 9.80501E-01
 -1      3841 7.16440E-01
 -1      3842 6.74415E-01
 -1      3843 3.41439E+00
 -1      3844 1.82963E+00
 -1      3845 1.73340E+00
 -1      3846 1.10927E+01
 -1      3847 6.80682E+00
 -1      3848 5.97495E+00
 -1      3849 1.28181E+01
 -1      3850 1.28181E+01
 -1      3851 1.10927E+01
 -1      3852 9.57761E+00
 -1      3853 1.19371E+01
 -1      3854 1.19371E+01
 -1      3855 3.21651E+00
 -1      3856 6.27369E+00
 -1      3857 7.75212E+00
 -1      3858 1.83639E+00
 -1      3859 2.03052E+00
 -1      3860 3.26220E+00
 -1      3861 2.48945E+00
 -1      3862 2.26697E+00
 -1      3863 2.50678E+00
 -1      3864 4.27843E+00
 -1      3865 3.20277E+00
 -1      3866 1.37863E+00
 -1      3867 7.23079E-01
 -1      3868 7.20464E-01
 -1      3869 6.95154E-01
 -1      3870 5.13788E+00
 -1      3871 2.19476E+00
 -1      3872 2.61975E+00
 -1      3873 2.70590E+00
 -1      3874 3.16526E+00
 -1      3875 7.58320E-01
 -1      3876 7.94112E-01
 -1      3877 7.61622E+00
 -1      3878 6.29611E+00
 -1      3879 6.15634E+00
 -1      3880 3.02555E+00
 -1      3881 6.59616E-01
 -1      3882 6.68625E-01
 -1      3883 7.11825E-01
 -1      3884 6.51735E-01
 -1      3885 7.53095E+00
 -1      3886 4.65625E-01
 -1      3887 4.90103E-01
 -1      3888 7.80042E-01
 -1      3889 8.02398E-01
 -1      3890 7.25524E-01
 -1      3891 4.85096E+00
 -1      3892 5.94273E+00
 -1      3893 5.11258E+00
 -1      3894 6.53782E+00
 -1      3895 7.52476E+00
 -1      3896 5.07100E+00
 -1      3897 3.62112E+00
 -1      3898 4.68832E+00
 -1      3899 3.71308E+00
 -1      3900 3.59641E+00
 -1      3901 3.83414E+00
 -1      3902 6.45858E+00
 -1      3903 1.98018E-01
 -1      3904 2.33710E-01
 -1      3905 1.95138E-01
 -1      3906 6.53782E+00
 -1      3907 5.81325E+00
 -1      3908 5.00587E+00
 -1      3909 5.40491E+00
 -1      3910 5.02291E-01
 -1      3911 4.81870E-01
 -1      3912 5.02291E-01
 -1      3913 4.70448E-01
 -1      3914 4.53690E-01
 -1      3915 4.60928E-01
 -1      3916 4.85063E-01
 -1      3917 4.14285E+00
 -1      3918 4.44360E+00
 -1      3919 3.66847E+00
 -1      3920 3.37318E+00
 -1      3921 3.53582E+00
 -1      3922 5.27118E+00
 -1      3923 3.94904E+00
 -1      3924 3.00220E+00
 -1      3925 3.86522E+00
 -1      3926 5.96755E-01
 -1      3927 2.37430E-01
 -1      3928 7.57066E-01
 -1      3929 6.41111E-01
 -1      3930 6.62138E-01
 -1      3931 1.85348E+00
 -1      3932 5.12024E-01
 -1      3933 5.35922E-01
 -1      3934 4.76554E-01
 -1      3935 6.00045E-01
 -1      3936 6.22624E-01
 -1      3937 5.98438E-01
 -1      3938 3.30833E-01
 -1      3939 3.65098E-01
 -1      3940 3.92023E-01
 -1      3941 3.65068E+00
 -1      3942 3.23657E+00
 -1      3943 7.30223E-01
 -1      3944 6.47785E-01
 -1      3945 6.39664E-01
 -1      3946 7.09798E-01
 -1      3947 7.11825E-01
 -1      3948 7.71230E-01
 -1      3949 6.40451E-01
 -1      3950 6.41136E-01
 -1      3951 7.00541E-01
 -1      3952 4.42429E-01
 -1      3953 4.31437E-01
 -1      3954 4.17012E-01
 -1      3955 2.84933E+00
 -1      3956 7.33207E-01
 -1      3957 7.39710E-01
 -1      3958 7.14588E-01
 -1      3959 6.92683E-01
 -1      3960 6.59948E-01
 -1      3961 6.49270E-01
 -1      3962 6.38671E-01
 -1      3963 7.71230E-01
 -1      3964 2.48949E+00
 -1      3965 7.71230E-01
 -1      3966 5.56816E-01
 -1      3967 5.80201E-01
 -1      3968 5.60106E-01
 -1      3969 5.19368E-01
 -1      3970 4.34603E-01
 -1      3971 4.25659E-01
 -1      3972 4.16618E-01
 -1      3973 4.09274E-01
 -1      3974 4.33335E-01
 -1      3975 4.01065E-01
 -1      3976 3.95218E-01
 -1      3977 4.16085E-01
 -1      3978 3.87989E-01
 -1      3979 3.83615E-01
 -1      3980 4.00647E-01
 -1      3981 3.77665E-01
 -1      3982 3.74913E-01
 -1      3983 3.87469E-01
 -1      3984 3.70386E-01
 -1      3985 3.71256E-01
 -1      3986 3.76993E-01
 -1      3987 3.70045E-01
 -1      3988 3.76697E-01
 -1      3989 3.71256E-01
 -1      3990 3.84149E-01
 -1      3991 3.97598E-01
 -1      3992 3.77496E-01
 -1      3993 4.11256E-01
 -1      3994 4.31669E-01
 -1      3995 3.98606E-01
 -1      3996 4.53416E-01
 -1      3997 4.83290E-01
 -1      3998 4.34013E-01
 -1      3999 5.16519E-01
 -1      4000 5.58801E-01
 -1      4001 4.88989E-01
 -1      4002 6.10203E-01
 -1      4003 6.70698E-01
 -1      4004 5.73620E-01
 -1      4005 7.63576E-01
 -1      4006 8.69271E-01
 -1      4007 7.17900E-01
 -1      4008 1.10998E+00
 -1      4009 1.29220E+00
 -1      4010 1.05149E+00
 -1      4011 2.12612E+00
 -1      4012 2.96004E+00
 -1      4013 2.12612E+00
 -1      4014 5.60327E+00
 -1      4015 8.24650E+00
 -1      4016 5.60327E+00
 -1      4017 2.00809E+01
 -1      4018 2.59692E+01
 -1      4019 2.00809E+01
 -1      4020 2.59692E+01
 -1      4021 2.78834E+01
 -1      4022 3.19153E+01
 -1      4023 2.38516E+01
 -1      4024 1.54157E+01
 -1      4025 2.78834E+01
 -1      4026 6.97994E+00
 -1      4027 4.87439E+00
 -1      4028 1.54157E+01
 -1      4029 3.85951E+00
 -1      4030 5.03312E+00
 -1      4031 5.96505E+00
 -1      4032 2.51224E-01
 -1      4033 2.70694E-01
 -1      4034 7.10537E-01
 -1      4035 7.23906E-01
 -1      4036 6.86677E-01
 -1      4037 2.35230E-01
 -1      4038 2.14467E-01
 -1      4039 1.96744E-01
 -1      4040 2.04648E-01
 -1      4041 2.54701E-01
 -1      4042 4.75030E-01
 -1      4043 3.97872E-01
 -1      4044 9.57438E-01
 -1      4045 7.47582E-01
 -1      4046 7.58052E-01
 -1      4047 2.72209E+00
 -1      4048 1.87297E+00
 -1      4049 1.94613E+00
 -1      4050 8.96051E+00
 -1      4051 5.56808E+00
 -1      4052 5.70765E+00
 -1      4053 1.05784E+01
 -1      4054 8.85308E+00
 -1      4055 8.44621E+00
 -1      4056 1.03877E+01
 -1      4057 1.12688E+01
 -1      4058 9.02910E+00
 -1      4059 4.44819E+00
 -1      4060 7.75212E+00
 -1      4061 7.08381E+00
 -1      4062 1.94348E+00
 -1      4063 3.12948E+00
 -1      4064 3.12948E+00
 -1      4065 7.33198E-01
 -1      4066 7.23079E-01
 -1      4067 3.53914E+00
 -1      4068 8.41754E-01
 -1      4069 3.19061E+00
 -1      4070 6.18372E-01
 -1      4071 6.89062E-01
 -1      4072 3.28095E-01
 -1      4073 2.71991E-01
 -1      4074 3.09185E-01
 -1      4075 6.78700E-01
 -1      4076 6.96874E-01
 -1      4077 6.63713E-01
 -1      4078 6.33487E-01
 -1      4079 2.18049E-01
 -1      4080 2.40870E-01
 -1      4081 2.74134E-01
 -1      4082 5.41897E+00
 -1      4083 4.93611E+00
 -1      4084 6.19837E-01
 -1      4085 6.14032E-01
 -1      4086 7.94112E-01
 -1      4087 6.92683E-01
 -1      4088 6.72406E-01
 -1      4089 6.59948E-01
 -1      4090 7.02802E-01
 -1      4091 2.81729E-01
 -1      4092 3.04981E-01
 -1      4093 2.95524E-01
 -1      4094 4.54762E-01
 -1      4095 4.44070E-01
 -1      4096 4.51842E-01
 -1      4097 3.39787E+00
 -1      4098 2.79609E+00
 -1      4099 2.36551E+00
 -1      4100 2.92542E+00
 -1      4101 3.17532E-01
 -1      4102 3.44962E-01
 -1      4103 3.19110E-01
 -1      4104 4.06058E-01
 -1      4105 4.29254E-01
 -1      4106 4.22555E+00
 -1      4107 4.21149E+00
 -1      4108 2.50379E-01
 -1      4109 5.82893E-01
 -1      4110 6.04814E-01
 -1      4111 5.57514E-01
 -1      4112 2.23279E+00
 -1      4113 5.77050E+00
 -1      4114 5.68754E+00
 -1      4115 3.15466E+00
 -1      4116 4.54596E+00
 -1      4117 7.51404E-01
 -1      4118 7.51404E-01
 -1      4119 4.15723E-01
 -1      4120 6.41359E-01
 -1      4121 6.29880E-01
 -1      4122 6.50179E-01
 -1      4123 3.83252E-01
 -1      4124 4.78479E+00
 -1      4125 5.94000E-01
 -1      4126 6.10562E-01
 -1      4127 6.30198E-01
 -1      4128 5.12652E-01
 -1      4129 5.01230E-01
 -1      4130 4.88372E-01
 -1      4131 4.75659E-01
 -1      4132 5.15960E-01
 -1      4133 7.66669E-01
 -1      4134 7.36273E-01
 -1      4135 7.48059E-01
 -1      4136 4.82205E-01
 -1      4137 6.69235E-01
 -1      4138 2.83696E+00
 -1      4139 2.56636E+00
 -1      4140 2.14434E+00
 -1      4141 2.64314E+00
 -1      4142 6.92577E-01
 -1      4143 7.11064E-01
 -1      4144 6.88139E-01
 -1      4145 6.96796E-01
 -1      4146 7.10460E-01
 -1      4147 6.57309E-01
 -1      4148 3.88631E-01
 -1      4149 3.86448E-01
 -1      4150 3.63642E-01
 -1      4151 4.48824E-01
 -1      4152 4.39784E-01
 -1      4153 4.64993E-01
 -1      4154 4.55527E-01
 -1      4155 4.61976E-01
 -1      4156 4.29791E-01
 -1      4157 4.21582E-01
 -1      4158 4.45281E-01
 -1      4159 5.48270E-01
 -1      4160 5.41041E-01
 -1      4161 5.61976E-01
 -1      4162 5.30877E-01
 -1      4163 5.24927E-01
 -1      4164 6.78500E-01
 -1      4165 5.10106E-01
 -1      4166 5.05580E-01
 -1      4167 6.53515E-01
 -1      4168 3.72025E-01
 -1      4169 3.70814E-01
 -1      4170 5.05139E-01
 -1      4171 4.75418E-01
 -1      4172 4.82869E-01
 -1      4173 4.76187E-01
 -1      4174 4.86044E-01
 -1      4175 4.99702E-01
 -1      4176 5.83965E-01
 -1      4177 5.06971E-01
 -1      4178 5.28719E-01
 -1      4179 5.94409E-01
 -1      4180 5.43667E-01
 -1      4181 5.76897E-01
 -1      4182 6.16626E-01
 -1      4183 6.02910E-01
 -1      4184 6.54312E-01
 -1      4185 6.57588E-01
 -1      4186 7.03440E-01
 -1      4187 7.96319E-01
 -1      4188 7.32730E-01
 -1      4189 9.35283E-01
 -1      4190 1.17600E+00
 -1      4191 9.20823E-01
 -1      4192 1.81957E+00
 -1      4193 2.65349E+00
 -1      4194 1.70336E+00
 -1      4195 5.33568E+00
 -1      4196 7.97891E+00
 -1      4197 5.02912E+00
 -1      4198 1.62124E+01
 -1      4199 2.80468E+01
 -1      4200 1.59448E+01
 -1      4201 3.19153E+01
 -1      4202 3.19153E+01
 -1      4203 2.80468E+01
 -1      4204 2.79906E+01
 -1      4205 2.39587E+01
 -1      4206 2.79906E+01
 -1      4207 1.65511E+01
 -1      4208 8.11529E+00
 -1      4209 1.66583E+01
 -1      4210 5.24044E+00
 -1      4211 4.19328E-01
 -1      4212 4.32729E-01
 -1      4213 7.38759E-01
 -1      4214 7.48059E-01
 -1      4215 8.00140E-01
 -1      4216 7.71842E-01
 -1      4217 3.17816E+00
 -1      4218 2.26263E+00
 -1      4219 1.07351E+00
 -1      4220 8.00960E-01
 -1      4221 2.30554E+00
 -1      4222 1.48774E+01
 -1      4223 1.49849E+01
 -1      4224 1.47230E+01
 -1      4225 1.40327E+01
 -1      4226 2.05713E+01
 -1      4227 6.84942E+00
 -1      4228 9.48504E+00
 -1      4229 1.44886E+01
 -1      4230 1.80747E+00
 -1      4231 3.12619E+00
 -1      4232 5.52741E+00
 -1      4233 6.33680E-01
 -1      4234 5.63903E-01
 -1      4235 9.49139E-01
 -1      4236 7.30726E-01
 -1      4237 7.18269E-01
 -1      4238 7.20957E-01
 -1      4239 7.94593E-01
 -1      4240 5.14774E-01
 -1      4241 4.78013E-01
 -1      4242 7.32730E-01
 -1      4243 4.25460E-01
 -1      4244 4.35814E-01
 -1      4245 5.94409E-01
 -1      4246 4.32640E-01
 -1      4247 4.43675E-01
 -1      4248 5.83965E-01
 -1      4249 9.23999E+00
 -1      4250 6.39400E+00
 -1      4251 1.56712E+01
 -1      4252 4.51999E-01
 -1      4253 4.34276E-01
 -1      4254 6.16626E-01
 -1      4255 6.57588E-01
 -1      4256 6.29880E-01
 -1      4257 6.92222E-01
 -1      4258 5.90842E-01
 -1      4259 4.84613E-01
 -1      4260 4.63716E-01
 -1      4261 4.67401E-01
 -1      4262 6.37579E+00
 -1      4263 3.50341E-01
 -1      4264 6.52867E-01
 -1      4265 5.46270E-01
 -1      4266 6.99909E-01
 -1      4267 7.35920E-01
 -1      4268 6.29581E-01
 -1      4269 6.50474E-01
 -1      4270 2.14104E+00
 -1      4271 3.50093E+00
 -1      4272 3.15466E+00
 -1      4273 3.18359E-01
 -1      4274 3.30911E-01
 -1      4275 4.55475E-01
 -1      4276 8.01262E-01
 -1      4277 6.84198E-01
 -1      4278 6.72733E-01
 -1      4279 6.92577E-01
 -1      4280 8.05203E-01
 -1      4281 7.82945E-01
 -1      4282 6.71050E+00
 -1      4283 5.03857E-01
 -1      4284 5.21285E-01
 -1      4285 6.63679E-01
 -1      4286 5.75717E-01
 -1      4287 5.62859E-01
 -1      4288 5.44370E-01
 -1      4289 6.37741E-01
 -1      4290 7.52031E-01
 -1      4291 6.38908E-01
 -1      4292 7.25142E-01
 -1      4293 6.37579E+00
 -1      4294 6.36941E-01
 -1      4295 6.30238E-01
 -1      4296 6.20056E-01
 -1      4297 6.10063E-01
 -1      4298 7.95021E-01
 -1      4299 5.88751E-01
 -1      4300 7.15439E-01
 -1      4301 7.63526E-01
 -1      4302 6.88664E-01
 -1      4303 6.78500E-01
 -1      4304 6.53515E-01
 -1      4305 6.38694E-01
 -1      4306 4.57520E-01
 -1      4307 5.62124E-01
 -1      4308 5.80791E-01
 -1      4309 5.83965E-01
 -1      4310 5.87140E-01
 -1      4311 5.94409E-01
 -1      4312 6.01678E-01
 -1      4313 6.16626E-01
 -1      4314 6.31575E-01
 -1      4315 6.57588E-01
 -1      4316 6.83602E-01
 -1      4317 7.32730E-01
 -1      4318 7.81859E-01
 -1      4319 9.20823E-01
 -1      4320 1.08810E+00
 -1      4321 1.73167E+00
 -1      4322 2.92080E+00
 -1      4323 5.60299E+00
 -1      4324 8.81883E+00
 -1      4325 1.70523E+01
 -1      4326 2.27972E+01
 -1      4327 2.66657E+01
 -1      4328 2.58209E+01
 -1      4329 2.18962E+01
 -1      4330 1.66583E+01
 -1      4331 9.25065E+00
 -1      4332 7.26503E-01
 -1      4333 7.26503E-01
 -1      4334 8.05203E-01
 -1      4335 8.01262E-01
 -1      4336 7.15439E-01
 -1      4337 7.26684E-01
 -1      4338 3.44425E-01
 -1      4339 3.63104E-01
 -1      4340 3.43674E-01
 -1      4341 7.51450E-01
 -1      4342 5.84107E-01
 -1      4343 4.50552E-01
 -1      4344 5.36488E-01
 -1      4345 7.11378E-01
 -1      4346 7.71842E-01
 -1      4347 8.00140E-01
 -1      4348 8.00140E-01
 -1      4349 8.05203E-01
 -1      4350 6.36941E-01
 -1      4351 6.32999E-01
 -1      4352 5.87710E-01
 -1      4353 4.68678E-01
 -1      4354 2.98942E+00
 -1      4355 5.62124E-01
 -1      4356 7.53441E-01
 -1      4357 4.97941E-01
 -1      4358 4.67401E-01
 -1      4359 5.44370E-01
 -1      4360 5.45647E-01
 -1      4361 6.64679E-01
 -1      4362 6.22616E-01
 -1      4363 5.84107E-01
 -1      4364 7.72762E-01
 -1      4365 7.95021E-01
 -1      4366 4.43354E-01
 -1      4367 4.50322E-01
 -1      4368 5.52741E+00
 -1      4369 7.94593E-01
 -1      4370 7.11378E-01
 -1      4371 4.36808E-01
 -1      4372 2.65256E+00
 -3
 9999
