    1C
    1UUSER                                                              
    1UDATE              26.october.2022                                 
    1UTIME              23:53:16                                        
    1UHOST                                                              
    1UPGM               CalculiX                                        
    1UVERSION           Version 2.17                             
    1UCOMPILETIME       Thu Jul 23 21:43:50 CEST 2020                    
    1UDIR                                                               
    1UDBN                                                               
    1UMAT    1SOLIDMATERIAL                                             
    2C                          4320                                     1
 -1         1 3.05212E+01 2.81276E+01 0.00000E+00
 -1         2 3.75325E+01 2.11276E+01 0.00000E+00
 -1         3 1.50000E+02 0.00000E+00 0.00000E+00
 -1         4 1.50000E+02 5.00000E+01 0.00000E+00
 -1         5 0.00000E+00 0.00000E+00 0.00000E+00
 -1         6 0.00000E+00 5.00000E+01 0.00000E+00
 -1         7 0.00000E+00 4.70500E+01 0.00000E+00
 -1         8 0.00000E+00 4.41000E+01 0.00000E+00
 -1         9 0.00000E+00 4.11500E+01 0.00000E+00
 -1        10 0.00000E+00 3.82000E+01 0.00000E+00
 -1        11 0.00000E+00 3.52500E+01 0.00000E+00
 -1        12 0.00000E+00 3.23500E+01 0.00000E+00
 -1        13 0.00000E+00 2.94000E+01 0.00000E+00
 -1        14 0.00000E+00 2.64500E+01 0.00000E+00
 -1        15 0.00000E+00 2.35000E+01 0.00000E+00
 -1        16 0.00000E+00 2.05500E+01 0.00000E+00
 -1        17 0.00000E+00 1.76000E+01 0.00000E+00
 -1        18 0.00000E+00 1.47000E+01 0.00000E+00
 -1        19 0.00000E+00 1.17500E+01 0.00000E+00
 -1        20 0.00000E+00 8.80000E+00 0.00000E+00
 -1        21 0.00000E+00 5.85000E+00 0.00000E+00
 -1        22 0.00000E+00 2.90000E+00 0.00000E+00
 -1        23 3.15000E+00 5.00000E+01 0.00000E+00
 -1        24 6.15000E+00 5.00000E+01 0.00000E+00
 -1        25 9.15000E+00 5.00000E+01 0.00000E+00
 -1        26 1.21500E+01 5.00000E+01 0.00000E+00
 -1        27 1.51500E+01 5.00000E+01 0.00000E+00
 -1        28 1.81500E+01 5.00000E+01 0.00000E+00
 -1        29 2.11500E+01 5.00000E+01 0.00000E+00
 -1        30 2.41500E+01 5.00000E+01 0.00000E+00
 -1        31 2.71500E+01 5.00000E+01 0.00000E+00
 -1        32 3.01500E+01 5.00000E+01 0.00000E+00
 -1        33 3.31500E+01 5.00000E+01 0.00000E+00
 -1        34 3.61500E+01 5.00000E+01 0.00000E+00
 -1        35 3.91500E+01 5.00000E+01 0.00000E+00
 -1        36 4.21500E+01 5.00000E+01 0.00000E+00
 -1        37 4.51500E+01 5.00000E+01 0.00000E+00
 -1        38 4.81500E+01 5.00000E+01 0.00000E+00
 -1        39 5.11500E+01 5.00000E+01 0.00000E+00
 -1        40 5.41500E+01 5.00000E+01 0.00000E+00
 -1        41 5.71500E+01 5.00000E+01 0.00000E+00
 -1        42 6.01500E+01 5.00000E+01 0.00000E+00
 -1        43 6.31500E+01 5.00000E+01 0.00000E+00
 -1        44 6.61500E+01 5.00000E+01 0.00000E+00
 -1        45 6.91500E+01 5.00000E+01 0.00000E+00
 -1        46 7.21500E+01 5.00000E+01 0.00000E+00
 -1        47 7.51500E+01 5.00000E+01 0.00000E+00
 -1        48 7.81500E+01 5.00000E+01 0.00000E+00
 -1        49 8.11500E+01 5.00000E+01 0.00000E+00
 -1        50 8.41500E+01 5.00000E+01 0.00000E+00
 -1        51 8.71500E+01 5.00000E+01 0.00000E+00
 -1        52 9.01500E+01 5.00000E+01 0.00000E+00
 -1        53 9.31500E+01 5.00000E+01 0.00000E+00
 -1        54 9.61500E+01 5.00000E+01 0.00000E+00
 -1        55 9.91500E+01 5.00000E+01 0.00000E+00
 -1        56 1.02150E+02 5.00000E+01 0.00000E+00
 -1        57 1.05150E+02 5.00000E+01 0.00000E+00
 -1        58 1.08150E+02 5.00000E+01 0.00000E+00
 -1        59 1.11150E+02 5.00000E+01 0.00000E+00
 -1        60 1.14150E+02 5.00000E+01 0.00000E+00
 -1        61 1.17150E+02 5.00000E+01 0.00000E+00
 -1        62 1.20150E+02 5.00000E+01 0.00000E+00
 -1        63 1.23150E+02 5.00000E+01 0.00000E+00
 -1        64 1.26150E+02 5.00000E+01 0.00000E+00
 -1        65 1.29150E+02 5.00000E+01 0.00000E+00
 -1        66 1.32150E+02 5.00000E+01 0.00000E+00
 -1        67 1.35150E+02 5.00000E+01 0.00000E+00
 -1        68 1.38150E+02 5.00000E+01 0.00000E+00
 -1        69 1.41150E+02 5.00000E+01 0.00000E+00
 -1        70 1.44150E+02 5.00000E+01 0.00000E+00
 -1        71 1.47150E+02 5.00000E+01 0.00000E+00
 -1        72 3.15000E+00 0.00000E+00 0.00000E+00
 -1        73 6.15000E+00 0.00000E+00 0.00000E+00
 -1        74 9.15000E+00 0.00000E+00 0.00000E+00
 -1        75 1.21500E+01 0.00000E+00 0.00000E+00
 -1        76 1.51500E+01 0.00000E+00 0.00000E+00
 -1        77 1.81500E+01 0.00000E+00 0.00000E+00
 -1        78 2.11500E+01 0.00000E+00 0.00000E+00
 -1        79 2.41500E+01 0.00000E+00 0.00000E+00
 -1        80 2.71500E+01 0.00000E+00 0.00000E+00
 -1        81 3.01500E+01 0.00000E+00 0.00000E+00
 -1        82 3.31500E+01 0.00000E+00 0.00000E+00
 -1        83 3.61500E+01 0.00000E+00 0.00000E+00
 -1        84 3.91500E+01 0.00000E+00 0.00000E+00
 -1        85 4.21500E+01 0.00000E+00 0.00000E+00
 -1        86 4.51500E+01 0.00000E+00 0.00000E+00
 -1        87 4.81500E+01 0.00000E+00 0.00000E+00
 -1        88 5.11500E+01 0.00000E+00 0.00000E+00
 -1        89 5.41500E+01 0.00000E+00 0.00000E+00
 -1        90 5.71500E+01 0.00000E+00 0.00000E+00
 -1        91 6.01500E+01 0.00000E+00 0.00000E+00
 -1        92 6.31500E+01 0.00000E+00 0.00000E+00
 -1        93 6.61500E+01 0.00000E+00 0.00000E+00
 -1        94 6.91500E+01 0.00000E+00 0.00000E+00
 -1        95 7.21500E+01 0.00000E+00 0.00000E+00
 -1        96 7.51500E+01 0.00000E+00 0.00000E+00
 -1        97 7.81500E+01 0.00000E+00 0.00000E+00
 -1        98 8.11500E+01 0.00000E+00 0.00000E+00
 -1        99 8.41500E+01 0.00000E+00 0.00000E+00
 -1       100 8.71500E+01 0.00000E+00 0.00000E+00
 -1       101 9.01500E+01 0.00000E+00 0.00000E+00
 -1       102 9.31500E+01 0.00000E+00 0.00000E+00
 -1       103 9.61500E+01 0.00000E+00 0.00000E+00
 -1       104 9.91500E+01 0.00000E+00 0.00000E+00
 -1       105 1.02150E+02 0.00000E+00 0.00000E+00
 -1       106 1.05150E+02 0.00000E+00 0.00000E+00
 -1       107 1.08150E+02 0.00000E+00 0.00000E+00
 -1       108 1.11150E+02 0.00000E+00 0.00000E+00
 -1       109 1.14150E+02 0.00000E+00 0.00000E+00
 -1       110 1.17150E+02 0.00000E+00 0.00000E+00
 -1       111 1.20150E+02 0.00000E+00 0.00000E+00
 -1       112 1.23150E+02 0.00000E+00 0.00000E+00
 -1       113 1.26150E+02 0.00000E+00 0.00000E+00
 -1       114 1.29150E+02 0.00000E+00 0.00000E+00
 -1       115 1.32150E+02 0.00000E+00 0.00000E+00
 -1       116 1.35150E+02 0.00000E+00 0.00000E+00
 -1       117 1.38150E+02 0.00000E+00 0.00000E+00
 -1       118 1.41150E+02 0.00000E+00 0.00000E+00
 -1       119 1.44150E+02 0.00000E+00 0.00000E+00
 -1       120 1.47150E+02 0.00000E+00 0.00000E+00
 -1       121 1.50000E+02 2.95000E+00 0.00000E+00
 -1       122 1.50000E+02 5.90000E+00 0.00000E+00
 -1       123 1.50000E+02 8.85000E+00 0.00000E+00
 -1       124 1.50000E+02 1.18000E+01 0.00000E+00
 -1       125 1.50000E+02 1.47500E+01 0.00000E+00
 -1       126 1.50000E+02 1.76500E+01 0.00000E+00
 -1       127 1.50000E+02 2.06000E+01 0.00000E+00
 -1       128 1.50000E+02 2.35500E+01 0.00000E+00
 -1       129 1.50000E+02 2.65000E+01 0.00000E+00
 -1       130 1.50000E+02 2.94500E+01 0.00000E+00
 -1       131 1.50000E+02 3.24000E+01 0.00000E+00
 -1       132 1.50000E+02 3.53000E+01 0.00000E+00
 -1       133 1.50000E+02 3.82500E+01 0.00000E+00
 -1       134 1.50000E+02 4.12000E+01 0.00000E+00
 -1       135 1.50000E+02 4.41500E+01 0.00000E+00
 -1       136 1.50000E+02 4.71000E+01 0.00000E+00
 -1       137 3.73821E+01 1.96845E+01 0.00000E+00
 -1       138 3.69003E+01 1.82206E+01 0.00000E+00
 -1       139 3.61227E+01 1.69146E+01 0.00000E+00
 -1       140 3.51569E+01 1.58727E+01 0.00000E+00
 -1       141 3.38776E+01 1.49786E+01 0.00000E+00
 -1       142 3.25728E+01 1.44316E+01 0.00000E+00
 -1       143 3.11505E+01 1.41549E+01 0.00000E+00
 -1       144 2.95583E+01 1.41957E+01 0.00000E+00
 -1       145 2.81654E+01 1.45400E+01 0.00000E+00
 -1       146 2.69068E+01 1.51397E+01 0.00000E+00
 -1       147 2.56636E+01 1.60983E+01 0.00000E+00
 -1       148 2.47250E+01 1.72194E+01 0.00000E+00
 -1       149 2.40144E+01 1.85751E+01 0.00000E+00
 -1       150 2.36156E+01 2.00518E+01 0.00000E+00
 -1       151 2.35423E+01 2.14980E+01 0.00000E+00
 -1       152 2.37853E+01 2.29918E+01 0.00000E+00
 -1       153 2.43087E+01 2.43314E+01 0.00000E+00
 -1       154 2.50789E+01 2.55160E+01 0.00000E+00
 -1       155 2.62217E+01 2.66428E+01 0.00000E+00
 -1       156 2.75487E+01 2.74598E+01 0.00000E+00
 -1       157 2.89852E+01 2.79545E+01 0.00000E+00
 -1       158 3.18925E+01 2.79942E+01 0.00000E+00
 -1       159 3.32723E+01 2.75691E+01 0.00000E+00
 -1       160 3.44363E+01 2.69380E+01 0.00000E+00
 -1       161 3.54964E+01 2.60631E+01 0.00000E+00
 -1       162 3.63818E+01 2.49727E+01 0.00000E+00
 -1       163 3.70086E+01 2.37846E+01 0.00000E+00
 -1       164 3.74027E+01 2.24693E+01 0.00000E+00
 -1       165 2.59800E+00 4.55750E+01 0.00000E+00
 -1       166 2.59800E+00 4.26250E+01 0.00000E+00
 -1       167 2.59800E+00 3.96750E+01 0.00000E+00
 -1       168 2.59800E+00 3.67250E+01 0.00000E+00
 -1       169 2.59800E+00 3.38250E+01 0.00000E+00
 -1       170 2.59800E+00 3.08750E+01 0.00000E+00
 -1       171 2.59800E+00 2.79250E+01 0.00000E+00
 -1       172 2.59800E+00 2.49750E+01 0.00000E+00
 -1       173 2.59800E+00 2.20250E+01 0.00000E+00
 -1       174 2.59800E+00 1.90750E+01 0.00000E+00
 -1       175 2.59800E+00 1.61750E+01 0.00000E+00
 -1       176 2.59800E+00 1.32250E+01 0.00000E+00
 -1       177 2.59800E+00 1.02750E+01 0.00000E+00
 -1       178 2.59800E+00 7.32500E+00 0.00000E+00
 -1       179 2.59800E+00 4.37500E+00 0.00000E+00
 -1       180 2.87400E+00 2.18750E+00 0.00000E+00
 -1       181 4.65000E+00 4.74020E+01 0.00000E+00
 -1       182 7.65000E+00 4.74020E+01 0.00000E+00
 -1       183 1.06500E+01 4.74020E+01 0.00000E+00
 -1       184 1.36500E+01 4.74020E+01 0.00000E+00
 -1       185 1.66500E+01 4.74020E+01 0.00000E+00
 -1       186 1.96500E+01 4.74020E+01 0.00000E+00
 -1       187 2.26500E+01 4.74020E+01 0.00000E+00
 -1       188 2.56500E+01 4.74020E+01 0.00000E+00
 -1       189 2.86500E+01 4.74020E+01 0.00000E+00
 -1       190 3.16500E+01 4.74020E+01 0.00000E+00
 -1       191 3.46500E+01 4.74020E+01 0.00000E+00
 -1       192 3.76500E+01 4.74020E+01 0.00000E+00
 -1       193 4.06500E+01 4.74020E+01 0.00000E+00
 -1       194 4.36500E+01 4.74020E+01 0.00000E+00
 -1       195 4.66500E+01 4.74020E+01 0.00000E+00
 -1       196 4.96500E+01 4.74020E+01 0.00000E+00
 -1       197 5.26500E+01 4.74020E+01 0.00000E+00
 -1       198 5.56500E+01 4.74020E+01 0.00000E+00
 -1       199 5.86500E+01 4.74020E+01 0.00000E+00
 -1       200 6.16500E+01 4.74020E+01 0.00000E+00
 -1       201 6.46500E+01 4.74020E+01 0.00000E+00
 -1       202 6.76500E+01 4.74020E+01 0.00000E+00
 -1       203 7.06500E+01 4.74020E+01 0.00000E+00
 -1       204 7.36500E+01 4.74020E+01 0.00000E+00
 -1       205 7.66500E+01 4.74020E+01 0.00000E+00
 -1       206 7.96500E+01 4.74020E+01 0.00000E+00
 -1       207 8.26500E+01 4.74020E+01 0.00000E+00
 -1       208 8.56500E+01 4.74020E+01 0.00000E+00
 -1       209 8.86500E+01 4.74020E+01 0.00000E+00
 -1       210 9.16500E+01 4.74020E+01 0.00000E+00
 -1       211 9.46500E+01 4.74020E+01 0.00000E+00
 -1       212 9.76500E+01 4.74020E+01 0.00000E+00
 -1       213 1.00650E+02 4.74020E+01 0.00000E+00
 -1       214 1.03650E+02 4.74020E+01 0.00000E+00
 -1       215 1.06650E+02 4.74020E+01 0.00000E+00
 -1       216 1.09650E+02 4.74020E+01 0.00000E+00
 -1       217 1.12650E+02 4.74020E+01 0.00000E+00
 -1       218 1.15650E+02 4.74020E+01 0.00000E+00
 -1       219 1.18650E+02 4.74020E+01 0.00000E+00
 -1       220 1.21650E+02 4.74020E+01 0.00000E+00
 -1       221 1.24650E+02 4.74020E+01 0.00000E+00
 -1       222 1.27650E+02 4.74020E+01 0.00000E+00
 -1       223 1.30650E+02 4.74020E+01 0.00000E+00
 -1       224 1.33650E+02 4.74020E+01 0.00000E+00
 -1       225 1.36650E+02 4.74020E+01 0.00000E+00
 -1       226 1.39650E+02 4.74020E+01 0.00000E+00
 -1       227 1.42650E+02 4.74020E+01 0.00000E+00
 -1       228 1.45650E+02 4.74020E+01 0.00000E+00
 -1       229 5.87400E+00 2.18750E+00 0.00000E+00
 -1       230 8.87400E+00 2.18750E+00 0.00000E+00
 -1       231 1.18740E+01 2.18750E+00 0.00000E+00
 -1       232 1.48740E+01 2.18750E+00 0.00000E+00
 -1       233 1.78740E+01 2.18750E+00 0.00000E+00
 -1       234 2.08740E+01 2.18750E+00 0.00000E+00
 -1       235 2.38740E+01 2.18750E+00 0.00000E+00
 -1       236 2.68740E+01 2.18750E+00 0.00000E+00
 -1       237 2.98740E+01 2.18750E+00 0.00000E+00
 -1       238 3.28740E+01 2.18750E+00 0.00000E+00
 -1       239 3.58740E+01 2.18750E+00 0.00000E+00
 -1       240 3.88740E+01 2.18750E+00 0.00000E+00
 -1       241 4.18740E+01 2.18750E+00 0.00000E+00
 -1       242 4.48740E+01 2.18750E+00 0.00000E+00
 -1       243 4.78740E+01 2.18750E+00 0.00000E+00
 -1       244 5.08740E+01 2.18750E+00 0.00000E+00
 -1       245 5.38740E+01 2.18750E+00 0.00000E+00
 -1       246 5.68740E+01 2.18750E+00 0.00000E+00
 -1       247 5.98740E+01 2.18750E+00 0.00000E+00
 -1       248 6.28740E+01 2.18750E+00 0.00000E+00
 -1       249 6.58740E+01 2.18750E+00 0.00000E+00
 -1       250 6.88740E+01 2.18750E+00 0.00000E+00
 -1       251 7.18740E+01 2.18750E+00 0.00000E+00
 -1       252 7.48740E+01 2.18750E+00 0.00000E+00
 -1       253 7.78740E+01 2.18750E+00 0.00000E+00
 -1       254 8.08740E+01 2.18750E+00 0.00000E+00
 -1       255 8.38740E+01 2.18750E+00 0.00000E+00
 -1       256 8.68740E+01 2.18750E+00 0.00000E+00
 -1       257 8.98740E+01 2.18750E+00 0.00000E+00
 -1       258 9.28740E+01 2.18750E+00 0.00000E+00
 -1       259 9.58740E+01 2.18750E+00 0.00000E+00
 -1       260 9.88740E+01 2.18750E+00 0.00000E+00
 -1       261 1.01874E+02 2.18750E+00 0.00000E+00
 -1       262 1.04874E+02 2.18750E+00 0.00000E+00
 -1       263 1.07874E+02 2.18750E+00 0.00000E+00
 -1       264 1.10874E+02 2.18750E+00 0.00000E+00
 -1       265 1.13874E+02 2.18750E+00 0.00000E+00
 -1       266 1.16874E+02 2.18750E+00 0.00000E+00
 -1       267 1.19874E+02 2.18750E+00 0.00000E+00
 -1       268 1.22874E+02 2.18750E+00 0.00000E+00
 -1       269 1.25874E+02 2.18750E+00 0.00000E+00
 -1       270 1.28874E+02 2.18750E+00 0.00000E+00
 -1       271 1.31874E+02 2.18750E+00 0.00000E+00
 -1       272 1.34874E+02 2.18750E+00 0.00000E+00
 -1       273 1.37874E+02 2.18750E+00 0.00000E+00
 -1       274 1.40874E+02 2.18750E+00 0.00000E+00
 -1       275 1.43874E+02 2.18750E+00 0.00000E+00
 -1       276 1.46874E+02 2.18750E+00 0.00000E+00
 -1       277 1.47402E+02 4.42500E+00 0.00000E+00
 -1       278 1.47402E+02 7.37500E+00 0.00000E+00
 -1       279 1.47402E+02 1.03250E+01 0.00000E+00
 -1       280 1.47402E+02 1.32750E+01 0.00000E+00
 -1       281 1.47402E+02 1.61750E+01 0.00000E+00
 -1       282 1.47402E+02 1.91250E+01 0.00000E+00
 -1       283 1.47402E+02 2.20750E+01 0.00000E+00
 -1       284 1.47402E+02 2.50250E+01 0.00000E+00
 -1       285 1.47402E+02 2.79750E+01 0.00000E+00
 -1       286 1.47402E+02 3.09250E+01 0.00000E+00
 -1       287 1.47402E+02 3.38250E+01 0.00000E+00
 -1       288 1.47402E+02 3.67750E+01 0.00000E+00
 -1       289 1.47402E+02 3.97250E+01 0.00000E+00
 -1       290 1.47402E+02 4.26750E+01 0.00000E+00
 -1       291 1.46526E+02 4.50385E+01 0.00000E+00
 -1       292 3.87465E+01 2.02717E+01 0.00000E+00
 -1       293 3.85316E+01 1.84949E+01 0.00000E+00
 -1       294 3.76252E+01 1.69045E+01 0.00000E+00
 -1       295 3.65290E+01 1.55695E+01 0.00000E+00
 -1       296 3.54038E+01 1.41572E+01 0.00000E+00
 -1       297 3.36940E+01 1.35870E+01 0.00000E+00
 -1       298 3.20931E+01 1.31032E+01 0.00000E+00
 -1       299 3.03148E+01 1.26283E+01 0.00000E+00
 -1       300 2.85509E+01 1.31095E+01 0.00000E+00
 -1       301 2.70145E+01 1.37454E+01 0.00000E+00
 -1       302 2.54426E+01 1.45261E+01 0.00000E+00
 -1       303 2.42647E+01 1.58806E+01 0.00000E+00
 -1       304 2.30733E+01 1.72177E+01 0.00000E+00
 -1       305 2.26446E+01 1.89974E+01 0.00000E+00
 -1       306 2.23681E+01 2.07135E+01 0.00000E+00
 -1       307 2.23017E+01 2.24665E+01 0.00000E+00
 -1       308 2.29177E+01 2.41028E+01 0.00000E+00
 -1       309 2.36773E+01 2.55846E+01 0.00000E+00
 -1       310 2.46814E+01 2.70621E+01 0.00000E+00
 -1       311 2.60738E+01 2.83691E+01 0.00000E+00
 -1       312 2.78177E+01 2.90119E+01 0.00000E+00
 -1       313 2.95986E+01 2.94123E+01 0.00000E+00
 -1       314 3.13242E+01 2.92676E+01 0.00000E+00
 -1       315 3.29887E+01 2.91005E+01 0.00000E+00
 -1       316 3.44322E+01 2.83193E+01 0.00000E+00
 -1       317 3.57380E+01 2.74356E+01 0.00000E+00
 -1       318 3.70104E+01 2.63878E+01 0.00000E+00
 -1       319 3.77676E+01 2.49444E+01 0.00000E+00
 -1       320 3.84473E+01 2.34990E+01 0.00000E+00
 -1       321 3.86743E+01 2.19152E+01 0.00000E+00
 -1       322 5.19600E+00 4.11500E+01 0.00000E+00
 -1       323 5.19600E+00 4.41000E+01 0.00000E+00
 -1       324 5.19600E+00 3.52750E+01 0.00000E+00
 -1       325 5.19600E+00 3.23250E+01 0.00000E+00
 -1       326 5.19600E+00 2.93750E+01 0.00000E+00
 -1       327 5.19600E+00 2.64250E+01 0.00000E+00
 -1       328 5.19600E+00 2.34750E+01 0.00000E+00
 -1       329 5.19600E+00 2.05250E+01 0.00000E+00
 -1       330 5.19600E+00 1.76250E+01 0.00000E+00
 -1       331 5.19600E+00 1.46750E+01 0.00000E+00
 -1       332 5.19600E+00 1.17250E+01 0.00000E+00
 -1       333 5.19600E+00 8.77500E+00 0.00000E+00
 -1       334 5.19600E+00 5.82500E+00 0.00000E+00
 -1       335 5.53500E+00 4.00625E+00 0.00000E+00
 -1       336 8.53500E+00 4.00625E+00 0.00000E+00
 -1       337 9.15000E+00 4.48040E+01 0.00000E+00
 -1       338 1.21500E+01 4.48040E+01 0.00000E+00
 -1       339 1.51500E+01 4.48040E+01 0.00000E+00
 -1       340 1.81500E+01 4.48040E+01 0.00000E+00
 -1       341 2.11500E+01 4.48040E+01 0.00000E+00
 -1       342 2.41500E+01 4.48040E+01 0.00000E+00
 -1       343 2.71500E+01 4.48040E+01 0.00000E+00
 -1       344 3.01500E+01 4.48040E+01 0.00000E+00
 -1       345 3.31500E+01 4.48040E+01 0.00000E+00
 -1       346 3.61500E+01 4.48040E+01 0.00000E+00
 -1       347 3.91500E+01 4.48040E+01 0.00000E+00
 -1       348 4.21500E+01 4.48040E+01 0.00000E+00
 -1       349 4.51500E+01 4.48040E+01 0.00000E+00
 -1       350 4.81500E+01 4.48040E+01 0.00000E+00
 -1       351 5.11500E+01 4.48040E+01 0.00000E+00
 -1       352 5.41500E+01 4.48040E+01 0.00000E+00
 -1       353 5.71500E+01 4.48040E+01 0.00000E+00
 -1       354 6.01500E+01 4.48040E+01 0.00000E+00
 -1       355 6.31500E+01 4.48040E+01 0.00000E+00
 -1       356 6.61500E+01 4.48040E+01 0.00000E+00
 -1       357 6.91500E+01 4.48040E+01 0.00000E+00
 -1       358 7.21500E+01 4.48040E+01 0.00000E+00
 -1       359 7.51500E+01 4.48040E+01 0.00000E+00
 -1       360 7.81500E+01 4.48040E+01 0.00000E+00
 -1       361 8.11500E+01 4.48040E+01 0.00000E+00
 -1       362 8.41500E+01 4.48040E+01 0.00000E+00
 -1       363 8.71500E+01 4.48040E+01 0.00000E+00
 -1       364 9.01500E+01 4.48040E+01 0.00000E+00
 -1       365 9.31500E+01 4.48040E+01 0.00000E+00
 -1       366 9.61500E+01 4.48040E+01 0.00000E+00
 -1       367 9.91500E+01 4.48040E+01 0.00000E+00
 -1       368 1.02150E+02 4.48040E+01 0.00000E+00
 -1       369 1.05150E+02 4.48040E+01 0.00000E+00
 -1       370 1.08150E+02 4.48040E+01 0.00000E+00
 -1       371 1.11150E+02 4.48040E+01 0.00000E+00
 -1       372 1.14150E+02 4.48040E+01 0.00000E+00
 -1       373 1.17150E+02 4.48040E+01 0.00000E+00
 -1       374 1.20150E+02 4.48040E+01 0.00000E+00
 -1       375 1.23150E+02 4.48040E+01 0.00000E+00
 -1       376 1.26150E+02 4.48040E+01 0.00000E+00
 -1       377 1.29150E+02 4.48040E+01 0.00000E+00
 -1       378 1.32150E+02 4.48040E+01 0.00000E+00
 -1       379 1.35150E+02 4.48040E+01 0.00000E+00
 -1       380 1.38150E+02 4.48040E+01 0.00000E+00
 -1       381 1.41150E+02 4.48040E+01 0.00000E+00
 -1       382 1.43838E+02 4.49212E+01 0.00000E+00
 -1       383 1.15350E+01 4.00625E+00 0.00000E+00
 -1       384 1.45350E+01 4.00625E+00 0.00000E+00
 -1       385 1.75350E+01 4.00625E+00 0.00000E+00
 -1       386 2.05350E+01 4.00625E+00 0.00000E+00
 -1       387 2.35350E+01 4.00625E+00 0.00000E+00
 -1       388 2.65350E+01 4.00625E+00 0.00000E+00
 -1       389 2.95350E+01 4.00625E+00 0.00000E+00
 -1       390 3.25350E+01 4.00625E+00 0.00000E+00
 -1       391 3.55350E+01 4.00625E+00 0.00000E+00
 -1       392 3.85350E+01 4.00625E+00 0.00000E+00
 -1       393 4.15350E+01 4.00625E+00 0.00000E+00
 -1       394 4.45350E+01 4.00625E+00 0.00000E+00
 -1       395 4.75350E+01 4.00625E+00 0.00000E+00
 -1       396 5.05350E+01 4.00625E+00 0.00000E+00
 -1       397 5.35350E+01 4.00625E+00 0.00000E+00
 -1       398 5.65350E+01 4.00625E+00 0.00000E+00
 -1       399 5.95350E+01 4.00625E+00 0.00000E+00
 -1       400 6.25350E+01 4.00625E+00 0.00000E+00
 -1       401 6.55350E+01 4.00625E+00 0.00000E+00
 -1       402 6.85350E+01 4.00625E+00 0.00000E+00
 -1       403 7.15350E+01 4.00625E+00 0.00000E+00
 -1       404 7.45350E+01 4.00625E+00 0.00000E+00
 -1       405 7.75350E+01 4.00625E+00 0.00000E+00
 -1       406 8.05350E+01 4.00625E+00 0.00000E+00
 -1       407 8.35350E+01 4.00625E+00 0.00000E+00
 -1       408 8.65350E+01 4.00625E+00 0.00000E+00
 -1       409 8.95350E+01 4.00625E+00 0.00000E+00
 -1       410 9.25350E+01 4.00625E+00 0.00000E+00
 -1       411 9.55350E+01 4.00625E+00 0.00000E+00
 -1       412 9.85350E+01 4.00625E+00 0.00000E+00
 -1       413 1.01535E+02 4.00625E+00 0.00000E+00
 -1       414 1.04535E+02 4.00625E+00 0.00000E+00
 -1       415 1.07535E+02 4.00625E+00 0.00000E+00
 -1       416 1.10535E+02 4.00625E+00 0.00000E+00
 -1       417 1.13535E+02 4.00625E+00 0.00000E+00
 -1       418 1.16535E+02 4.00625E+00 0.00000E+00
 -1       419 1.19535E+02 4.00625E+00 0.00000E+00
 -1       420 1.22535E+02 4.00625E+00 0.00000E+00
 -1       421 1.25535E+02 4.00625E+00 0.00000E+00
 -1       422 1.28535E+02 4.00625E+00 0.00000E+00
 -1       423 1.31535E+02 4.00625E+00 0.00000E+00
 -1       424 1.34535E+02 4.00625E+00 0.00000E+00
 -1       425 1.37535E+02 4.00625E+00 0.00000E+00
 -1       426 1.40535E+02 4.00625E+00 0.00000E+00
 -1       427 1.43535E+02 4.00625E+00 0.00000E+00
 -1       428 1.45469E+02 4.21562E+00 0.00000E+00
 -1       429 1.44804E+02 1.18000E+01 0.00000E+00
 -1       430 1.44804E+02 8.85000E+00 0.00000E+00
 -1       431 1.45136E+02 6.53281E+00 0.00000E+00
 -1       432 1.44804E+02 1.47000E+01 0.00000E+00
 -1       433 1.44804E+02 1.76500E+01 0.00000E+00
 -1       434 1.44804E+02 2.06000E+01 0.00000E+00
 -1       435 1.44804E+02 2.35500E+01 0.00000E+00
 -1       436 1.44804E+02 2.65000E+01 0.00000E+00
 -1       437 1.44804E+02 2.94500E+01 0.00000E+00
 -1       438 1.44804E+02 3.23500E+01 0.00000E+00
 -1       439 1.44804E+02 3.53000E+01 0.00000E+00
 -1       440 1.44804E+02 3.82500E+01 0.00000E+00
 -1       441 1.44804E+02 4.12000E+01 0.00000E+00
 -1       442 3.93501E+01 1.69750E+01 0.00000E+00
 -1       443 4.02565E+01 2.11613E+01 0.00000E+00
 -1       444 4.00416E+01 1.93845E+01 0.00000E+00
 -1       445 3.81436E+01 1.53612E+01 0.00000E+00
 -1       446 3.70184E+01 1.39489E+01 0.00000E+00
 -1       447 5.19600E+00 3.82125E+01 0.00000E+00
 -1       448 3.32928E+01 1.20241E+01 0.00000E+00
 -1       449 3.15145E+01 1.15493E+01 0.00000E+00
 -1       450 2.90917E+01 1.16184E+01 0.00000E+00
 -1       451 2.72229E+01 1.20750E+01 0.00000E+00
 -1       452 2.56510E+01 1.28557E+01 0.00000E+00
 -1       453 2.37491E+01 1.42428E+01 0.00000E+00
 -1       454 2.25578E+01 1.55799E+01 0.00000E+00
 -1       455 2.11915E+01 1.77058E+01 0.00000E+00
 -1       456 2.09151E+01 1.94220E+01 0.00000E+00
 -1       457 2.07047E+01 2.15282E+01 0.00000E+00
 -1       458 2.13966E+01 2.37413E+01 0.00000E+00
 -1       459 2.20695E+01 2.54732E+01 0.00000E+00
 -1       460 2.28301E+01 2.72402E+01 0.00000E+00
 -1       461 2.43185E+01 2.88439E+01 0.00000E+00
 -1       462 2.64974E+01 2.99067E+01 0.00000E+00
 -1       463 2.83687E+01 3.07220E+01 0.00000E+00
 -1       464 3.05767E+01 3.07151E+01 0.00000E+00
 -1       465 3.22412E+01 3.05480E+01 0.00000E+00
 -1       466 3.43672E+01 2.99236E+01 0.00000E+00
 -1       467 3.56730E+01 2.90399E+01 0.00000E+00
 -1       468 3.72515E+01 2.79770E+01 0.00000E+00
 -1       469 3.87594E+01 2.63850E+01 0.00000E+00
 -1       470 3.94392E+01 2.49396E+01 0.00000E+00
 -1       471 4.00294E+01 2.27451E+01 0.00000E+00
 -1       472 3.50025E+01 1.25943E+01 0.00000E+00
 -1       473 3.66171E+01 1.23861E+01 0.00000E+00
 -1       474 4.08601E+01 1.78646E+01 0.00000E+00
 -1       475 2.47421E+01 3.03815E+01 0.00000E+00
 -1       476 3.02914E+01 1.05394E+01 0.00000E+00
 -1       477 1.00350E+01 6.60425E+00 0.00000E+00
 -1       478 7.79400E+00 3.08500E+01 0.00000E+00
 -1       479 7.79400E+00 3.38000E+01 0.00000E+00
 -1       480 7.79400E+00 2.49500E+01 0.00000E+00
 -1       481 7.79400E+00 2.20000E+01 0.00000E+00
 -1       482 7.79400E+00 1.91000E+01 0.00000E+00
 -1       483 7.79400E+00 1.61500E+01 0.00000E+00
 -1       484 7.79400E+00 1.32000E+01 0.00000E+00
 -1       485 7.79400E+00 1.02500E+01 0.00000E+00
 -1       486 1.30350E+01 6.60425E+00 0.00000E+00
 -1       487 1.06500E+01 4.22060E+01 0.00000E+00
 -1       488 2.37388E+01 1.22312E+01 0.00000E+00
 -1       489 1.36500E+01 4.22060E+01 0.00000E+00
 -1       490 1.66500E+01 4.22060E+01 0.00000E+00
 -1       491 1.96500E+01 4.22060E+01 0.00000E+00
 -1       492 2.26500E+01 4.22060E+01 0.00000E+00
 -1       493 2.56500E+01 4.22060E+01 0.00000E+00
 -1       494 2.86500E+01 4.22060E+01 0.00000E+00
 -1       495 3.16500E+01 4.22060E+01 0.00000E+00
 -1       496 3.46500E+01 4.22060E+01 0.00000E+00
 -1       497 3.76500E+01 4.22060E+01 0.00000E+00
 -1       498 4.06500E+01 4.22060E+01 0.00000E+00
 -1       499 4.36500E+01 4.22060E+01 0.00000E+00
 -1       500 4.66500E+01 4.22060E+01 0.00000E+00
 -1       501 4.96500E+01 4.22060E+01 0.00000E+00
 -1       502 5.26500E+01 4.22060E+01 0.00000E+00
 -1       503 5.56500E+01 4.22060E+01 0.00000E+00
 -1       504 5.86500E+01 4.22060E+01 0.00000E+00
 -1       505 6.16500E+01 4.22060E+01 0.00000E+00
 -1       506 6.46500E+01 4.22060E+01 0.00000E+00
 -1       507 6.76500E+01 4.22060E+01 0.00000E+00
 -1       508 7.06500E+01 4.22060E+01 0.00000E+00
 -1       509 7.36500E+01 4.22060E+01 0.00000E+00
 -1       510 7.66500E+01 4.22060E+01 0.00000E+00
 -1       511 7.96500E+01 4.22060E+01 0.00000E+00
 -1       512 8.26500E+01 4.22060E+01 0.00000E+00
 -1       513 8.56500E+01 4.22060E+01 0.00000E+00
 -1       514 8.86500E+01 4.22060E+01 0.00000E+00
 -1       515 9.16500E+01 4.22060E+01 0.00000E+00
 -1       516 9.46500E+01 4.22060E+01 0.00000E+00
 -1       517 9.76500E+01 4.22060E+01 0.00000E+00
 -1       518 1.00650E+02 4.22060E+01 0.00000E+00
 -1       519 1.03650E+02 4.22060E+01 0.00000E+00
 -1       520 1.06650E+02 4.22060E+01 0.00000E+00
 -1       521 1.09650E+02 4.22060E+01 0.00000E+00
 -1       522 1.12650E+02 4.22060E+01 0.00000E+00
 -1       523 1.15650E+02 4.22060E+01 0.00000E+00
 -1       524 1.18650E+02 4.22060E+01 0.00000E+00
 -1       525 1.21650E+02 4.22060E+01 0.00000E+00
 -1       526 1.24650E+02 4.22060E+01 0.00000E+00
 -1       527 1.27650E+02 4.22060E+01 0.00000E+00
 -1       528 1.30650E+02 4.22060E+01 0.00000E+00
 -1       529 1.33650E+02 4.22060E+01 0.00000E+00
 -1       530 1.36650E+02 4.22060E+01 0.00000E+00
 -1       531 1.39650E+02 4.22060E+01 0.00000E+00
 -1       532 1.90350E+01 6.60425E+00 0.00000E+00
 -1       533 2.20350E+01 6.60425E+00 0.00000E+00
 -1       534 2.50350E+01 6.60425E+00 0.00000E+00
 -1       535 2.80350E+01 6.60425E+00 0.00000E+00
 -1       536 3.10350E+01 6.60425E+00 0.00000E+00
 -1       537 3.40350E+01 6.60425E+00 0.00000E+00
 -1       538 3.70350E+01 6.60425E+00 0.00000E+00
 -1       539 4.00350E+01 6.60425E+00 0.00000E+00
 -1       540 4.30350E+01 6.60425E+00 0.00000E+00
 -1       541 4.60350E+01 6.60425E+00 0.00000E+00
 -1       542 4.90350E+01 6.60425E+00 0.00000E+00
 -1       543 5.20350E+01 6.60425E+00 0.00000E+00
 -1       544 5.50350E+01 6.60425E+00 0.00000E+00
 -1       545 5.80350E+01 6.60425E+00 0.00000E+00
 -1       546 6.10350E+01 6.60425E+00 0.00000E+00
 -1       547 6.40350E+01 6.60425E+00 0.00000E+00
 -1       548 6.70350E+01 6.60425E+00 0.00000E+00
 -1       549 7.00350E+01 6.60425E+00 0.00000E+00
 -1       550 7.30350E+01 6.60425E+00 0.00000E+00
 -1       551 7.60350E+01 6.60425E+00 0.00000E+00
 -1       552 7.90350E+01 6.60425E+00 0.00000E+00
 -1       553 8.20350E+01 6.60425E+00 0.00000E+00
 -1       554 8.50350E+01 6.60425E+00 0.00000E+00
 -1       555 8.80350E+01 6.60425E+00 0.00000E+00
 -1       556 9.10350E+01 6.60425E+00 0.00000E+00
 -1       557 9.40350E+01 6.60425E+00 0.00000E+00
 -1       558 9.70350E+01 6.60425E+00 0.00000E+00
 -1       559 1.00035E+02 6.60425E+00 0.00000E+00
 -1       560 1.03035E+02 6.60425E+00 0.00000E+00
 -1       561 1.06035E+02 6.60425E+00 0.00000E+00
 -1       562 1.09035E+02 6.60425E+00 0.00000E+00
 -1       563 1.12035E+02 6.60425E+00 0.00000E+00
 -1       564 1.15035E+02 6.60425E+00 0.00000E+00
 -1       565 1.18035E+02 6.60425E+00 0.00000E+00
 -1       566 1.21035E+02 6.60425E+00 0.00000E+00
 -1       567 1.24035E+02 6.60425E+00 0.00000E+00
 -1       568 1.27035E+02 6.60425E+00 0.00000E+00
 -1       569 1.30035E+02 6.60425E+00 0.00000E+00
 -1       570 1.33035E+02 6.60425E+00 0.00000E+00
 -1       571 1.36035E+02 6.60425E+00 0.00000E+00
 -1       572 1.39035E+02 6.60425E+00 0.00000E+00
 -1       573 1.42035E+02 6.60425E+00 0.00000E+00
 -1       574 1.42206E+02 1.61750E+01 0.00000E+00
 -1       575 1.42206E+02 1.91250E+01 0.00000E+00
 -1       576 1.42206E+02 1.03250E+01 0.00000E+00
 -1       577 1.42206E+02 1.32500E+01 0.00000E+00
 -1       578 1.42206E+02 2.20750E+01 0.00000E+00
 -1       579 1.42206E+02 2.50250E+01 0.00000E+00
 -1       580 1.42206E+02 2.79750E+01 0.00000E+00
 -1       581 1.42206E+02 3.08750E+01 0.00000E+00
 -1       582 1.42206E+02 3.38250E+01 0.00000E+00
 -1       583 1.42206E+02 3.67750E+01 0.00000E+00
 -1       584 1.42206E+02 3.97250E+01 0.00000E+00
 -1       585 4.00534E+01 1.51912E+01 0.00000E+00
 -1       586 4.12287E+01 2.42443E+01 0.00000E+00
 -1       587 1.60350E+01 6.60425E+00 0.00000E+00
 -1       588 4.16022E+01 2.00972E+01 0.00000E+00
 -1       589 3.89281E+01 1.37789E+01 0.00000E+00
 -1       590 3.73734E+01 2.98616E+01 0.00000E+00
 -1       591 2.94775E+01 3.22661E+01 0.00000E+00
 -1       592 7.92300E+00 4.16780E+01 0.00000E+00
 -1       593 7.79400E+00 2.79000E+01 0.00000E+00
 -1       594 2.77900E+01 1.03434E+01 0.00000E+00
 -1       595 3.28029E+01 1.02915E+01 0.00000E+00
 -1       596 1.95737E+01 2.30965E+01 0.00000E+00
 -1       597 2.57113E+01 1.10043E+01 0.00000E+00
 -1       598 2.19355E+01 1.38261E+01 0.00000E+00
 -1       599 2.06432E+01 1.58515E+01 0.00000E+00
 -1       600 1.94427E+01 1.83045E+01 0.00000E+00
 -1       601 3.93723E+01 2.84756E+01 0.00000E+00
 -1       602 1.92324E+01 2.04107E+01 0.00000E+00
 -1       603 2.01344E+01 2.52284E+01 0.00000E+00
 -1       604 2.08950E+01 2.69954E+01 0.00000E+00
 -1       605 2.21944E+01 2.93228E+01 0.00000E+00
 -1       606 2.68149E+01 3.17331E+01 0.00000E+00
 -1       607 3.15468E+01 3.20046E+01 0.00000E+00
 -1       608 3.37403E+01 3.17206E+01 0.00000E+00
 -1       609 3.60676E+01 3.07452E+01 0.00000E+00
 -1       610 4.06513E+01 2.63922E+01 0.00000E+00
 -1       611 4.20066E+01 2.22204E+01 0.00000E+00
 -1       612 3.45126E+01 1.08617E+01 0.00000E+00
 -1       613 7.61550E+00 6.21462E+00 0.00000E+00
 -1       614 2.89897E+01 9.26432E+00 0.00000E+00
 -1       615 7.79400E+00 3.67375E+01 0.00000E+00
 -1       616 2.79238E+01 3.32772E+01 0.00000E+00
 -1       617 1.81013E+01 2.19790E+01 0.00000E+00
 -1       618 3.85269E+01 1.22161E+01 0.00000E+00
 -1       619 4.15634E+01 1.60809E+01 0.00000E+00
 -1       620 1.41678E+02 4.22645E+01 0.00000E+00
 -1       621 1.88945E+01 1.64501E+01 0.00000E+00
 -1       622 7.85850E+00 3.92077E+01 0.00000E+00
 -1       623 3.15798E+01 9.28167E+00 0.00000E+00
 -1       624 2.26180E+01 3.08604E+01 0.00000E+00
 -1       625 3.61272E+01 1.06535E+01 0.00000E+00
 -1       626 1.03470E+01 2.05500E+01 0.00000E+00
 -1       627 1.03470E+01 2.35000E+01 0.00000E+00
 -1       628 1.03920E+01 1.46750E+01 0.00000E+00
 -1       629 1.03920E+01 1.17250E+01 0.00000E+00
 -1       630 1.15350E+01 9.20225E+00 0.00000E+00
 -1       631 4.27792E+01 1.84663E+01 0.00000E+00
 -1       632 1.51500E+01 3.96080E+01 0.00000E+00
 -1       633 1.81500E+01 3.96080E+01 0.00000E+00
 -1       634 2.11500E+01 3.96080E+01 0.00000E+00
 -1       635 2.41500E+01 3.96080E+01 0.00000E+00
 -1       636 2.71500E+01 3.96080E+01 0.00000E+00
 -1       637 3.01500E+01 3.96080E+01 0.00000E+00
 -1       638 3.31500E+01 3.96080E+01 0.00000E+00
 -1       639 3.61500E+01 3.96080E+01 0.00000E+00
 -1       640 3.91500E+01 3.96080E+01 0.00000E+00
 -1       641 4.21500E+01 3.96080E+01 0.00000E+00
 -1       642 4.51500E+01 3.96080E+01 0.00000E+00
 -1       643 4.81500E+01 3.96080E+01 0.00000E+00
 -1       644 5.11500E+01 3.96080E+01 0.00000E+00
 -1       645 5.41500E+01 3.96080E+01 0.00000E+00
 -1       646 5.71500E+01 3.96080E+01 0.00000E+00
 -1       647 6.01500E+01 3.96080E+01 0.00000E+00
 -1       648 6.31500E+01 3.96080E+01 0.00000E+00
 -1       649 6.61500E+01 3.96080E+01 0.00000E+00
 -1       650 6.91500E+01 3.96080E+01 0.00000E+00
 -1       651 7.21500E+01 3.96080E+01 0.00000E+00
 -1       652 7.51500E+01 3.96080E+01 0.00000E+00
 -1       653 7.81500E+01 3.96080E+01 0.00000E+00
 -1       654 8.11500E+01 3.96080E+01 0.00000E+00
 -1       655 8.41500E+01 3.96080E+01 0.00000E+00
 -1       656 8.71500E+01 3.96080E+01 0.00000E+00
 -1       657 9.01500E+01 3.96080E+01 0.00000E+00
 -1       658 9.31500E+01 3.96080E+01 0.00000E+00
 -1       659 9.61500E+01 3.96080E+01 0.00000E+00
 -1       660 9.91500E+01 3.96080E+01 0.00000E+00
 -1       661 1.02150E+02 3.96080E+01 0.00000E+00
 -1       662 1.05150E+02 3.96080E+01 0.00000E+00
 -1       663 1.08150E+02 3.96080E+01 0.00000E+00
 -1       664 1.11150E+02 3.96080E+01 0.00000E+00
 -1       665 1.14150E+02 3.96080E+01 0.00000E+00
 -1       666 1.17150E+02 3.96080E+01 0.00000E+00
 -1       667 1.20150E+02 3.96080E+01 0.00000E+00
 -1       668 1.23150E+02 3.96080E+01 0.00000E+00
 -1       669 1.26150E+02 3.96080E+01 0.00000E+00
 -1       670 1.29150E+02 3.96080E+01 0.00000E+00
 -1       671 1.32150E+02 3.96080E+01 0.00000E+00
 -1       672 1.35150E+02 3.96080E+01 0.00000E+00
 -1       673 1.38150E+02 3.96080E+01 0.00000E+00
 -1       674 2.35350E+01 9.20225E+00 0.00000E+00
 -1       675 2.05350E+01 9.20225E+00 0.00000E+00
 -1       676 3.55350E+01 8.65450E+00 0.00000E+00
 -1       677 3.85350E+01 9.20225E+00 0.00000E+00
 -1       678 4.15350E+01 9.20225E+00 0.00000E+00
 -1       679 4.45350E+01 9.20225E+00 0.00000E+00
 -1       680 4.75350E+01 9.20225E+00 0.00000E+00
 -1       681 5.05350E+01 9.20225E+00 0.00000E+00
 -1       682 5.35350E+01 9.20225E+00 0.00000E+00
 -1       683 5.65350E+01 9.20225E+00 0.00000E+00
 -1       684 5.95350E+01 9.20225E+00 0.00000E+00
 -1       685 6.25350E+01 9.20225E+00 0.00000E+00
 -1       686 6.55350E+01 9.20225E+00 0.00000E+00
 -1       687 6.85350E+01 9.20225E+00 0.00000E+00
 -1       688 7.15350E+01 9.20225E+00 0.00000E+00
 -1       689 7.45350E+01 9.20225E+00 0.00000E+00
 -1       690 7.75350E+01 9.20225E+00 0.00000E+00
 -1       691 8.05350E+01 9.20225E+00 0.00000E+00
 -1       692 8.35350E+01 9.20225E+00 0.00000E+00
 -1       693 8.65350E+01 9.20225E+00 0.00000E+00
 -1       694 8.95350E+01 9.20225E+00 0.00000E+00
 -1       695 9.25350E+01 9.20225E+00 0.00000E+00
 -1       696 9.55350E+01 9.20225E+00 0.00000E+00
 -1       697 9.85350E+01 9.20225E+00 0.00000E+00
 -1       698 1.01535E+02 9.20225E+00 0.00000E+00
 -1       699 1.04535E+02 9.20225E+00 0.00000E+00
 -1       700 1.07535E+02 9.20225E+00 0.00000E+00
 -1       701 1.10535E+02 9.20225E+00 0.00000E+00
 -1       702 1.13535E+02 9.20225E+00 0.00000E+00
 -1       703 1.16535E+02 9.20225E+00 0.00000E+00
 -1       704 1.19535E+02 9.20225E+00 0.00000E+00
 -1       705 1.22535E+02 9.20225E+00 0.00000E+00
 -1       706 1.25535E+02 9.20225E+00 0.00000E+00
 -1       707 1.28535E+02 9.20225E+00 0.00000E+00
 -1       708 1.31535E+02 9.20225E+00 0.00000E+00
 -1       709 1.34535E+02 9.20225E+00 0.00000E+00
 -1       710 1.37535E+02 9.20225E+00 0.00000E+00
 -1       711 1.39870E+02 9.76363E+00 0.00000E+00
 -1       712 1.39608E+02 2.35500E+01 0.00000E+00
 -1       713 1.40178E+02 3.96665E+01 0.00000E+00
 -1       714 1.39608E+02 1.76500E+01 0.00000E+00
 -1       715 1.39608E+02 2.65000E+01 0.00000E+00
 -1       716 1.39608E+02 2.06000E+01 0.00000E+00
 -1       717 1.75350E+01 9.20225E+00 0.00000E+00
 -1       718 1.39608E+02 2.94000E+01 0.00000E+00
 -1       719 1.39608E+02 3.23500E+01 0.00000E+00
 -1       720 1.39608E+02 3.53000E+01 0.00000E+00
 -1       721 4.25963E+01 2.57635E+01 0.00000E+00
 -1       722 1.83574E+01 2.45561E+01 0.00000E+00
 -1       723 4.08322E+01 1.34163E+01 0.00000E+00
 -1       724 3.41738E+01 9.02909E+00 0.00000E+00
 -1       725 3.78696E+01 3.20014E+01 0.00000E+00
 -1       726 1.97545E+01 2.91585E+01 0.00000E+00
 -1       727 1.05855E+01 3.97357E+01 0.00000E+00
 -1       728 1.28678E+01 3.96719E+01 0.00000E+00
 -1       729 3.98685E+01 3.06155E+01 0.00000E+00
 -1       730 1.45350E+01 9.20225E+00 0.00000E+00
 -1       731 1.03920E+01 1.76250E+01 0.00000E+00
 -1       732 1.03920E+01 3.23250E+01 0.00000E+00
 -1       733 3.07902E+01 3.43357E+01 0.00000E+00
 -1       734 4.33742E+01 2.37396E+01 0.00000E+00
 -1       735 4.38184E+01 2.07752E+01 0.00000E+00
 -1       736 1.76309E+01 1.91872E+01 0.00000E+00
 -1       737 1.90560E+01 2.68573E+01 0.00000E+00
 -1       738 2.17009E+01 1.17439E+01 0.00000E+00
 -1       739 2.48417E+01 3.24940E+01 0.00000E+00
 -1       740 1.98435E+01 1.39163E+01 0.00000E+00
 -1       741 3.29837E+01 3.40517E+01 0.00000E+00
 -1       742 4.17591E+01 2.85066E+01 0.00000E+00
 -1       743 3.56317E+01 3.29693E+01 0.00000E+00
 -1       744 1.03920E+01 3.52625E+01 0.00000E+00
 -1       745 1.03470E+01 2.64500E+01 0.00000E+00
 -1       746 2.64125E+01 8.47380E+00 0.00000E+00
 -1       747 4.23422E+01 1.43060E+01 0.00000E+00
 -1       748 1.39608E+02 1.47250E+01 0.00000E+00
 -1       749 1.39739E+02 1.22443E+01 0.00000E+00
 -1       750 1.64999E+01 2.07555E+01 0.00000E+00
 -1       751 1.70827E+01 1.73329E+01 0.00000E+00
 -1       752 2.01781E+01 3.06961E+01 0.00000E+00
 -1       753 4.04309E+01 1.18535E+01 0.00000E+00
 -1       754 1.38879E+02 3.74540E+01 0.00000E+00
 -1       755 1.03920E+01 2.93750E+01 0.00000E+00
 -1       756 2.59506E+01 3.40381E+01 0.00000E+00
 -1       757 1.33920E+01 1.17250E+01 0.00000E+00
 -1       758 1.29900E+01 1.61500E+01 0.00000E+00
 -1       759 2.86468E+01 3.57297E+01 0.00000E+00
 -1       760 4.48628E+01 1.89168E+01 0.00000E+00
 -1       761 1.76059E+01 1.45229E+01 0.00000E+00
 -1       762 1.96500E+01 3.70100E+01 0.00000E+00
 -1       763 2.26500E+01 3.70100E+01 0.00000E+00
 -1       764 2.56500E+01 3.70100E+01 0.00000E+00
 -1       765 3.46500E+01 3.70550E+01 0.00000E+00
 -1       766 3.76500E+01 3.70550E+01 0.00000E+00
 -1       767 4.06500E+01 3.70550E+01 0.00000E+00
 -1       768 4.36500E+01 3.70550E+01 0.00000E+00
 -1       769 4.66500E+01 3.70550E+01 0.00000E+00
 -1       770 4.96500E+01 3.70550E+01 0.00000E+00
 -1       771 5.26500E+01 3.70550E+01 0.00000E+00
 -1       772 5.56500E+01 3.70550E+01 0.00000E+00
 -1       773 5.86500E+01 3.70550E+01 0.00000E+00
 -1       774 6.16500E+01 3.70550E+01 0.00000E+00
 -1       775 6.46500E+01 3.70550E+01 0.00000E+00
 -1       776 6.76500E+01 3.70550E+01 0.00000E+00
 -1       777 7.06500E+01 3.70550E+01 0.00000E+00
 -1       778 7.36500E+01 3.70550E+01 0.00000E+00
 -1       779 7.66500E+01 3.70550E+01 0.00000E+00
 -1       780 7.96500E+01 3.70550E+01 0.00000E+00
 -1       781 8.26500E+01 3.70550E+01 0.00000E+00
 -1       782 8.56500E+01 3.70550E+01 0.00000E+00
 -1       783 8.86500E+01 3.70550E+01 0.00000E+00
 -1       784 9.16500E+01 3.70550E+01 0.00000E+00
 -1       785 9.46500E+01 3.70550E+01 0.00000E+00
 -1       786 9.76500E+01 3.70550E+01 0.00000E+00
 -1       787 1.00650E+02 3.70550E+01 0.00000E+00
 -1       788 1.03650E+02 3.70550E+01 0.00000E+00
 -1       789 1.06650E+02 3.70550E+01 0.00000E+00
 -1       790 1.09650E+02 3.70550E+01 0.00000E+00
 -1       791 1.12650E+02 3.70550E+01 0.00000E+00
 -1       792 1.15650E+02 3.70550E+01 0.00000E+00
 -1       793 1.18650E+02 3.70550E+01 0.00000E+00
 -1       794 1.21650E+02 3.70550E+01 0.00000E+00
 -1       795 1.24650E+02 3.70550E+01 0.00000E+00
 -1       796 1.27650E+02 3.70550E+01 0.00000E+00
 -1       797 1.30650E+02 3.70550E+01 0.00000E+00
 -1       798 1.33650E+02 3.70550E+01 0.00000E+00
 -1       799 1.36264E+02 3.72545E+01 0.00000E+00
 -1       800 1.37010E+02 2.79500E+01 0.00000E+00
 -1       801 4.90350E+01 1.18003E+01 0.00000E+00
 -1       802 5.20350E+01 1.18003E+01 0.00000E+00
 -1       803 5.50350E+01 1.18003E+01 0.00000E+00
 -1       804 5.80350E+01 1.18003E+01 0.00000E+00
 -1       805 6.10350E+01 1.18003E+01 0.00000E+00
 -1       806 6.40350E+01 1.18003E+01 0.00000E+00
 -1       807 6.70350E+01 1.18003E+01 0.00000E+00
 -1       808 7.00350E+01 1.18003E+01 0.00000E+00
 -1       809 7.30350E+01 1.18003E+01 0.00000E+00
 -1       810 7.60350E+01 1.18003E+01 0.00000E+00
 -1       811 7.90350E+01 1.18003E+01 0.00000E+00
 -1       812 8.20350E+01 1.18003E+01 0.00000E+00
 -1       813 8.50350E+01 1.18003E+01 0.00000E+00
 -1       814 8.80350E+01 1.18003E+01 0.00000E+00
 -1       815 9.10350E+01 1.18003E+01 0.00000E+00
 -1       816 9.40350E+01 1.18003E+01 0.00000E+00
 -1       817 9.70350E+01 1.18003E+01 0.00000E+00
 -1       818 1.00035E+02 1.18003E+01 0.00000E+00
 -1       819 1.03035E+02 1.18003E+01 0.00000E+00
 -1       820 1.06035E+02 1.18003E+01 0.00000E+00
 -1       821 1.09035E+02 1.18003E+01 0.00000E+00
 -1       822 1.12035E+02 1.18003E+01 0.00000E+00
 -1       823 1.15035E+02 1.18003E+01 0.00000E+00
 -1       824 1.18035E+02 1.18003E+01 0.00000E+00
 -1       825 1.21035E+02 1.18003E+01 0.00000E+00
 -1       826 1.24035E+02 1.18003E+01 0.00000E+00
 -1       827 1.27035E+02 1.18003E+01 0.00000E+00
 -1       828 1.30035E+02 1.18003E+01 0.00000E+00
 -1       829 1.33035E+02 1.18003E+01 0.00000E+00
 -1       830 1.36035E+02 1.18003E+01 0.00000E+00
 -1       831 1.37887E+02 1.20223E+01 0.00000E+00
 -1       832 1.27324E+01 2.20250E+01 0.00000E+00
 -1       833 1.90350E+01 1.15876E+01 0.00000E+00
 -1       834 1.37010E+02 2.50000E+01 0.00000E+00
 -1       835 1.37010E+02 3.38250E+01 0.00000E+00
 -1       836 3.77641E+01 3.48285E+01 0.00000E+00
 -1       837 1.04888E+01 3.74991E+01 0.00000E+00
 -1       838 4.60350E+01 1.18003E+01 0.00000E+00
 -1       839 4.32330E+01 1.18269E+01 0.00000E+00
 -1       840 3.97629E+01 3.34426E+01 0.00000E+00
 -1       841 1.37010E+02 3.08875E+01 0.00000E+00
 -1       842 1.66500E+01 3.70100E+01 0.00000E+00
 -1       843 4.38487E+01 1.64187E+01 0.00000E+00
 -1       844 4.24652E+01 3.10414E+01 0.00000E+00
 -1       845 1.60224E+01 2.34869E+01 0.00000E+00
 -1       846 4.48991E+01 2.54871E+01 0.00000E+00
 -1       847 1.29450E+01 1.90750E+01 0.00000E+00
 -1       848 2.25161E+01 3.33295E+01 0.00000E+00
 -1       849 3.16484E+01 3.63924E+01 0.00000E+00
 -1       850 4.54582E+01 2.25364E+01 0.00000E+00
 -1       851 4.40618E+01 2.82301E+01 0.00000E+00
 -1       852 1.27324E+01 2.49750E+01 0.00000E+00
 -1       853 4.65026E+01 2.06780E+01 0.00000E+00
 -1       854 2.00762E+01 3.31653E+01 0.00000E+00
 -1       855 1.37010E+02 1.61875E+01 0.00000E+00
 -1       856 1.37010E+02 1.91375E+01 0.00000E+00
 -1       857 1.71227E+01 2.87008E+01 0.00000E+00
 -1       858 1.60704E+01 1.18626E+01 0.00000E+00
 -1       859 1.37010E+02 2.20688E+01 0.00000E+00
 -1       860 1.59516E+01 1.89012E+01 0.00000E+00
 -1       861 1.27710E+01 3.74352E+01 0.00000E+00
 -1       862 1.62665E+01 2.60380E+01 0.00000E+00
 -1       863 1.36637E+02 3.55398E+01 0.00000E+00
 -1       864 1.75463E+01 3.02384E+01 0.00000E+00
 -1       865 1.29900E+01 3.08500E+01 0.00000E+00
 -1       866 1.29900E+01 3.37875E+01 0.00000E+00
 -1       867 4.71930E+01 2.43935E+01 0.00000E+00
 -1       868 1.45832E+01 2.80483E+01 0.00000E+00
 -1       869 1.81500E+01 3.44120E+01 0.00000E+00
 -1       870 4.21500E+01 3.44570E+01 0.00000E+00
 -1       871 4.51500E+01 3.44570E+01 0.00000E+00
 -1       872 4.81500E+01 3.44570E+01 0.00000E+00
 -1       873 5.11500E+01 3.44570E+01 0.00000E+00
 -1       874 5.41500E+01 3.44570E+01 0.00000E+00
 -1       875 5.71500E+01 3.44570E+01 0.00000E+00
 -1       876 6.01500E+01 3.44570E+01 0.00000E+00
 -1       877 6.31500E+01 3.44570E+01 0.00000E+00
 -1       878 6.61500E+01 3.44570E+01 0.00000E+00
 -1       879 6.91500E+01 3.44570E+01 0.00000E+00
 -1       880 7.21500E+01 3.44570E+01 0.00000E+00
 -1       881 7.51500E+01 3.44570E+01 0.00000E+00
 -1       882 7.81500E+01 3.44570E+01 0.00000E+00
 -1       883 8.11500E+01 3.44570E+01 0.00000E+00
 -1       884 8.41500E+01 3.44570E+01 0.00000E+00
 -1       885 8.71500E+01 3.44570E+01 0.00000E+00
 -1       886 9.01500E+01 3.44570E+01 0.00000E+00
 -1       887 9.31500E+01 3.44570E+01 0.00000E+00
 -1       888 9.61500E+01 3.44570E+01 0.00000E+00
 -1       889 9.91500E+01 3.44570E+01 0.00000E+00
 -1       890 1.02150E+02 3.44570E+01 0.00000E+00
 -1       891 1.05150E+02 3.44570E+01 0.00000E+00
 -1       892 1.08150E+02 3.44570E+01 0.00000E+00
 -1       893 1.11150E+02 3.44570E+01 0.00000E+00
 -1       894 1.14150E+02 3.44570E+01 0.00000E+00
 -1       895 1.17150E+02 3.44570E+01 0.00000E+00
 -1       896 1.20150E+02 3.44570E+01 0.00000E+00
 -1       897 1.23150E+02 3.44570E+01 0.00000E+00
 -1       898 1.26150E+02 3.44570E+01 0.00000E+00
 -1       899 1.29150E+02 3.44570E+01 0.00000E+00
 -1       900 1.32150E+02 3.44570E+01 0.00000E+00
 -1       901 5.65350E+01 1.43982E+01 0.00000E+00
 -1       902 5.35350E+01 1.43982E+01 0.00000E+00
 -1       903 1.37449E+02 1.41049E+01 0.00000E+00
 -1       904 1.48836E+01 2.06974E+01 0.00000E+00
 -1       905 5.05350E+01 1.43982E+01 0.00000E+00
 -1       906 5.95350E+01 1.43982E+01 0.00000E+00
 -1       907 6.25350E+01 1.43982E+01 0.00000E+00
 -1       908 6.55350E+01 1.43982E+01 0.00000E+00
 -1       909 6.85350E+01 1.43982E+01 0.00000E+00
 -1       910 7.15350E+01 1.43982E+01 0.00000E+00
 -1       911 7.45350E+01 1.43982E+01 0.00000E+00
 -1       912 7.75350E+01 1.43982E+01 0.00000E+00
 -1       913 8.05350E+01 1.43982E+01 0.00000E+00
 -1       914 8.35350E+01 1.43982E+01 0.00000E+00
 -1       915 8.65350E+01 1.43982E+01 0.00000E+00
 -1       916 8.95350E+01 1.43982E+01 0.00000E+00
 -1       917 9.25350E+01 1.43982E+01 0.00000E+00
 -1       918 9.55350E+01 1.43982E+01 0.00000E+00
 -1       919 9.85350E+01 1.43982E+01 0.00000E+00
 -1       920 1.01535E+02 1.43982E+01 0.00000E+00
 -1       921 1.04535E+02 1.43982E+01 0.00000E+00
 -1       922 1.07535E+02 1.43982E+01 0.00000E+00
 -1       923 1.10535E+02 1.43982E+01 0.00000E+00
 -1       924 1.13535E+02 1.43982E+01 0.00000E+00
 -1       925 1.16535E+02 1.43982E+01 0.00000E+00
 -1       926 1.19535E+02 1.43982E+01 0.00000E+00
 -1       927 1.22535E+02 1.43982E+01 0.00000E+00
 -1       928 1.25535E+02 1.43982E+01 0.00000E+00
 -1       929 1.28535E+02 1.43982E+01 0.00000E+00
 -1       930 1.31535E+02 1.43982E+01 0.00000E+00
 -1       931 4.65660E+01 1.67705E+01 0.00000E+00
 -1       932 1.34412E+02 2.64750E+01 0.00000E+00
 -1       933 4.67619E+01 2.75550E+01 0.00000E+00
 -1       934 4.49418E+01 1.41095E+01 0.00000E+00
 -1       935 1.53287E+01 1.55526E+01 0.00000E+00
 -1       936 4.55226E+01 3.09188E+01 0.00000E+00
 -1       937 1.44274E+01 3.46401E+01 0.00000E+00
 -1       938 4.82057E+01 1.85317E+01 0.00000E+00
 -1       939 4.82374E+01 2.25351E+01 0.00000E+00
 -1       940 1.34394E+02 3.49984E+01 0.00000E+00
 -1       941 1.34412E+02 2.94125E+01 0.00000E+00
 -1       942 1.34535E+02 1.43982E+01 0.00000E+00
 -1       943 1.34412E+02 2.35438E+01 0.00000E+00
 -1       944 4.78005E+01 1.42854E+01 0.00000E+00
 -1       945 1.55295E+01 3.15026E+01 0.00000E+00
 -1       946 1.34412E+02 1.76625E+01 0.00000E+00
 -1       947 1.78482E+01 3.23252E+01 0.00000E+00
 -1       948 1.34580E+02 3.26723E+01 0.00000E+00
 -1       949 5.50350E+01 1.69963E+01 0.00000E+00
 -1       950 4.96500E+01 3.18590E+01 0.00000E+00
 -1       951 5.26500E+01 3.18590E+01 0.00000E+00
 -1       952 5.56500E+01 3.18590E+01 0.00000E+00
 -1       953 5.86500E+01 3.18590E+01 0.00000E+00
 -1       954 6.16500E+01 3.18590E+01 0.00000E+00
 -1       955 6.46500E+01 3.18590E+01 0.00000E+00
 -1       956 6.76500E+01 3.18590E+01 0.00000E+00
 -1       957 7.06500E+01 3.18590E+01 0.00000E+00
 -1       958 7.36500E+01 3.18590E+01 0.00000E+00
 -1       959 7.66500E+01 3.18590E+01 0.00000E+00
 -1       960 7.96500E+01 3.18590E+01 0.00000E+00
 -1       961 8.26500E+01 3.18590E+01 0.00000E+00
 -1       962 8.56500E+01 3.18590E+01 0.00000E+00
 -1       963 8.86500E+01 3.18590E+01 0.00000E+00
 -1       964 9.16500E+01 3.18590E+01 0.00000E+00
 -1       965 9.46500E+01 3.18590E+01 0.00000E+00
 -1       966 9.76500E+01 3.18590E+01 0.00000E+00
 -1       967 1.00650E+02 3.18590E+01 0.00000E+00
 -1       968 1.03650E+02 3.18590E+01 0.00000E+00
 -1       969 1.06650E+02 3.18590E+01 0.00000E+00
 -1       970 1.09650E+02 3.18590E+01 0.00000E+00
 -1       971 1.12650E+02 3.18590E+01 0.00000E+00
 -1       972 1.15650E+02 3.18590E+01 0.00000E+00
 -1       973 1.18650E+02 3.18590E+01 0.00000E+00
 -1       974 1.21650E+02 3.18590E+01 0.00000E+00
 -1       975 1.24650E+02 3.18590E+01 0.00000E+00
 -1       976 1.27650E+02 3.18590E+01 0.00000E+00
 -1       977 1.30650E+02 3.18590E+01 0.00000E+00
 -1       978 6.10350E+01 1.69963E+01 0.00000E+00
 -1       979 5.80350E+01 1.69963E+01 0.00000E+00
 -1       980 5.20350E+01 1.69963E+01 0.00000E+00
 -1       981 6.40350E+01 1.69963E+01 0.00000E+00
 -1       982 6.70350E+01 1.69963E+01 0.00000E+00
 -1       983 7.00350E+01 1.69963E+01 0.00000E+00
 -1       984 7.30350E+01 1.69963E+01 0.00000E+00
 -1       985 7.60350E+01 1.69963E+01 0.00000E+00
 -1       986 7.90350E+01 1.69963E+01 0.00000E+00
 -1       987 8.20350E+01 1.69963E+01 0.00000E+00
 -1       988 8.50350E+01 1.69963E+01 0.00000E+00
 -1       989 8.80350E+01 1.69963E+01 0.00000E+00
 -1       990 9.10350E+01 1.69963E+01 0.00000E+00
 -1       991 9.40350E+01 1.69963E+01 0.00000E+00
 -1       992 9.70350E+01 1.69963E+01 0.00000E+00
 -1       993 1.00035E+02 1.69963E+01 0.00000E+00
 -1       994 1.03035E+02 1.69963E+01 0.00000E+00
 -1       995 1.06035E+02 1.69963E+01 0.00000E+00
 -1       996 1.09035E+02 1.69963E+01 0.00000E+00
 -1       997 1.12035E+02 1.69963E+01 0.00000E+00
 -1       998 1.15035E+02 1.69963E+01 0.00000E+00
 -1       999 1.18035E+02 1.69963E+01 0.00000E+00
 -1      1000 1.21035E+02 1.69963E+01 0.00000E+00
 -1      1001 1.24035E+02 1.69963E+01 0.00000E+00
 -1      1002 1.27035E+02 1.69963E+01 0.00000E+00
 -1      1003 1.30035E+02 1.69963E+01 0.00000E+00
 -1      1004 4.93005E+01 1.68834E+01 0.00000E+00
 -1      1005 1.34412E+02 2.06031E+01 0.00000E+00
 -1      1006 4.85801E+01 3.01350E+01 0.00000E+00
 -1      1007 4.93410E+01 2.62965E+01 0.00000E+00
 -1      1008 5.03854E+01 2.44382E+01 0.00000E+00
 -1      1009 1.31814E+02 2.50094E+01 0.00000E+00
 -1      1010 1.30035E+02 1.99369E+01 0.00000E+00
 -1      1011 4.99406E+01 2.03888E+01 0.00000E+00
 -1      1012 1.31814E+02 2.79469E+01 0.00000E+00
 -1      1013 6.25350E+01 1.95942E+01 0.00000E+00
 -1      1014 5.41500E+01 2.92610E+01 0.00000E+00
 -1      1015 5.71500E+01 2.92610E+01 0.00000E+00
 -1      1016 6.01500E+01 2.92610E+01 0.00000E+00
 -1      1017 6.31500E+01 2.92610E+01 0.00000E+00
 -1      1018 6.61500E+01 2.92610E+01 0.00000E+00
 -1      1019 6.91500E+01 2.92610E+01 0.00000E+00
 -1      1020 7.21500E+01 2.92610E+01 0.00000E+00
 -1      1021 7.51500E+01 2.92610E+01 0.00000E+00
 -1      1022 7.81500E+01 2.92610E+01 0.00000E+00
 -1      1023 8.11500E+01 2.92610E+01 0.00000E+00
 -1      1024 8.41500E+01 2.92610E+01 0.00000E+00
 -1      1025 8.71500E+01 2.92610E+01 0.00000E+00
 -1      1026 9.01500E+01 2.92610E+01 0.00000E+00
 -1      1027 9.31500E+01 2.92610E+01 0.00000E+00
 -1      1028 9.61500E+01 2.92610E+01 0.00000E+00
 -1      1029 9.91500E+01 2.92610E+01 0.00000E+00
 -1      1030 1.02150E+02 2.92610E+01 0.00000E+00
 -1      1031 1.05150E+02 2.92610E+01 0.00000E+00
 -1      1032 1.08150E+02 2.92610E+01 0.00000E+00
 -1      1033 1.11150E+02 2.92610E+01 0.00000E+00
 -1      1034 1.14150E+02 2.92610E+01 0.00000E+00
 -1      1035 1.17150E+02 2.92610E+01 0.00000E+00
 -1      1036 1.20150E+02 2.92610E+01 0.00000E+00
 -1      1037 1.23150E+02 2.92610E+01 0.00000E+00
 -1      1038 1.26150E+02 2.92610E+01 0.00000E+00
 -1      1039 1.29150E+02 2.92610E+01 0.00000E+00
 -1      1040 6.55350E+01 1.95942E+01 0.00000E+00
 -1      1041 5.65350E+01 1.95942E+01 0.00000E+00
 -1      1042 5.35350E+01 1.95942E+01 0.00000E+00
 -1      1043 6.85350E+01 1.95942E+01 0.00000E+00
 -1      1044 7.15350E+01 1.95942E+01 0.00000E+00
 -1      1045 7.45350E+01 1.95942E+01 0.00000E+00
 -1      1046 7.75350E+01 1.95942E+01 0.00000E+00
 -1      1047 8.05350E+01 1.95942E+01 0.00000E+00
 -1      1048 8.35350E+01 1.95942E+01 0.00000E+00
 -1      1049 8.65350E+01 1.95942E+01 0.00000E+00
 -1      1050 8.95350E+01 1.95942E+01 0.00000E+00
 -1      1051 9.25350E+01 1.95942E+01 0.00000E+00
 -1      1052 9.55350E+01 1.95942E+01 0.00000E+00
 -1      1053 9.85350E+01 1.95942E+01 0.00000E+00
 -1      1054 1.01535E+02 1.95942E+01 0.00000E+00
 -1      1055 1.04535E+02 1.95942E+01 0.00000E+00
 -1      1056 1.07535E+02 1.95942E+01 0.00000E+00
 -1      1057 1.10535E+02 1.95942E+01 0.00000E+00
 -1      1058 1.13535E+02 1.95942E+01 0.00000E+00
 -1      1059 1.16535E+02 1.95942E+01 0.00000E+00
 -1      1060 1.19535E+02 1.95942E+01 0.00000E+00
 -1      1061 1.22535E+02 1.95942E+01 0.00000E+00
 -1      1062 1.25535E+02 1.95942E+01 0.00000E+00
 -1      1063 1.27785E+02 1.97656E+01 0.00000E+00
 -1      1064 5.08704E+01 1.90630E+01 0.00000E+00
 -1      1065 5.15089E+01 2.87210E+01 0.00000E+00
 -1      1066 5.95350E+01 1.95942E+01 0.00000E+00
 -1      1067 1.30924E+02 2.24731E+01 0.00000E+00
 -1      1068 1.29216E+02 2.64781E+01 0.00000E+00
 -1      1069 1.28327E+02 2.39419E+01 0.00000E+00
 -1      1070 5.20885E+01 2.22918E+01 0.00000E+00
 -1      1071 6.40350E+01 2.21922E+01 0.00000E+00
 -1      1072 5.33500E+01 2.64457E+01 0.00000E+00
 -1      1073 5.86500E+01 2.66630E+01 0.00000E+00
 -1      1074 6.16500E+01 2.66630E+01 0.00000E+00
 -1      1075 6.46500E+01 2.66630E+01 0.00000E+00
 -1      1076 6.76500E+01 2.66630E+01 0.00000E+00
 -1      1077 7.06500E+01 2.66630E+01 0.00000E+00
 -1      1078 7.36500E+01 2.66630E+01 0.00000E+00
 -1      1079 7.66500E+01 2.66630E+01 0.00000E+00
 -1      1080 7.96500E+01 2.66630E+01 0.00000E+00
 -1      1081 8.26500E+01 2.66630E+01 0.00000E+00
 -1      1082 8.56500E+01 2.66630E+01 0.00000E+00
 -1      1083 8.86500E+01 2.66630E+01 0.00000E+00
 -1      1084 9.16500E+01 2.66630E+01 0.00000E+00
 -1      1085 9.46500E+01 2.66630E+01 0.00000E+00
 -1      1086 9.76500E+01 2.66630E+01 0.00000E+00
 -1      1087 1.00650E+02 2.66630E+01 0.00000E+00
 -1      1088 1.03650E+02 2.66630E+01 0.00000E+00
 -1      1089 1.06650E+02 2.66630E+01 0.00000E+00
 -1      1090 1.09650E+02 2.66630E+01 0.00000E+00
 -1      1091 1.12650E+02 2.66630E+01 0.00000E+00
 -1      1092 1.15650E+02 2.66630E+01 0.00000E+00
 -1      1093 1.18650E+02 2.66630E+01 0.00000E+00
 -1      1094 1.21650E+02 2.66630E+01 0.00000E+00
 -1      1095 1.24650E+02 2.66630E+01 0.00000E+00
 -1      1096 7.00350E+01 2.21922E+01 0.00000E+00
 -1      1097 7.30350E+01 2.21922E+01 0.00000E+00
 -1      1098 7.60350E+01 2.21922E+01 0.00000E+00
 -1      1099 7.90350E+01 2.21922E+01 0.00000E+00
 -1      1100 8.20350E+01 2.21922E+01 0.00000E+00
 -1      1101 8.50350E+01 2.21922E+01 0.00000E+00
 -1      1102 8.80350E+01 2.21922E+01 0.00000E+00
 -1      1103 9.10350E+01 2.21922E+01 0.00000E+00
 -1      1104 9.40350E+01 2.21922E+01 0.00000E+00
 -1      1105 9.70350E+01 2.21922E+01 0.00000E+00
 -1      1106 1.00035E+02 2.21922E+01 0.00000E+00
 -1      1107 1.03035E+02 2.21922E+01 0.00000E+00
 -1      1108 1.06035E+02 2.21922E+01 0.00000E+00
 -1      1109 1.09035E+02 2.21922E+01 0.00000E+00
 -1      1110 1.12035E+02 2.21922E+01 0.00000E+00
 -1      1111 1.15035E+02 2.21922E+01 0.00000E+00
 -1      1112 1.18035E+02 2.21922E+01 0.00000E+00
 -1      1113 1.21035E+02 2.21922E+01 0.00000E+00
 -1      1114 1.24035E+02 2.21922E+01 0.00000E+00
 -1      1115 6.10350E+01 2.21922E+01 0.00000E+00
 -1      1116 5.50350E+01 2.21922E+01 0.00000E+00
 -1      1117 1.28056E+02 2.18537E+01 0.00000E+00
 -1      1118 5.60000E+01 2.65544E+01 0.00000E+00
 -1      1119 5.80350E+01 2.21922E+01 0.00000E+00
 -1      1120 6.70350E+01 2.21922E+01 0.00000E+00
 -1      1121 1.26045E+02 2.20230E+01 0.00000E+00
 -1      1122 0.00000E+00 4.85250E+01 0.00000E+00
 -1      1123 0.00000E+00 4.55750E+01 0.00000E+00
 -1      1124 0.00000E+00 4.26250E+01 0.00000E+00
 -1      1125 0.00000E+00 3.96750E+01 0.00000E+00
 -1      1126 0.00000E+00 3.67250E+01 0.00000E+00
 -1      1127 0.00000E+00 3.38000E+01 0.00000E+00
 -1      1128 0.00000E+00 3.08750E+01 0.00000E+00
 -1      1129 0.00000E+00 2.79250E+01 0.00000E+00
 -1      1130 0.00000E+00 2.49750E+01 0.00000E+00
 -1      1131 0.00000E+00 2.20250E+01 0.00000E+00
 -1      1132 0.00000E+00 1.90750E+01 0.00000E+00
 -1      1133 0.00000E+00 1.61500E+01 0.00000E+00
 -1      1134 0.00000E+00 1.32250E+01 0.00000E+00
 -1      1135 0.00000E+00 1.02750E+01 0.00000E+00
 -1      1136 0.00000E+00 7.32500E+00 0.00000E+00
 -1      1137 0.00000E+00 4.37500E+00 0.00000E+00
 -1      1138 0.00000E+00 1.45000E+00 0.00000E+00
 -1      1139 1.57500E+00 5.00000E+01 0.00000E+00
 -1      1140 4.65000E+00 5.00000E+01 0.00000E+00
 -1      1141 7.65000E+00 5.00000E+01 0.00000E+00
 -1      1142 1.06500E+01 5.00000E+01 0.00000E+00
 -1      1143 1.36500E+01 5.00000E+01 0.00000E+00
 -1      1144 1.66500E+01 5.00000E+01 0.00000E+00
 -1      1145 1.96500E+01 5.00000E+01 0.00000E+00
 -1      1146 2.26500E+01 5.00000E+01 0.00000E+00
 -1      1147 2.56500E+01 5.00000E+01 0.00000E+00
 -1      1148 2.86500E+01 5.00000E+01 0.00000E+00
 -1      1149 3.16500E+01 5.00000E+01 0.00000E+00
 -1      1150 3.46500E+01 5.00000E+01 0.00000E+00
 -1      1151 3.76500E+01 5.00000E+01 0.00000E+00
 -1      1152 4.06500E+01 5.00000E+01 0.00000E+00
 -1      1153 4.36500E+01 5.00000E+01 0.00000E+00
 -1      1154 4.66500E+01 5.00000E+01 0.00000E+00
 -1      1155 4.96500E+01 5.00000E+01 0.00000E+00
 -1      1156 5.26500E+01 5.00000E+01 0.00000E+00
 -1      1157 5.56500E+01 5.00000E+01 0.00000E+00
 -1      1158 5.86500E+01 5.00000E+01 0.00000E+00
 -1      1159 6.16500E+01 5.00000E+01 0.00000E+00
 -1      1160 6.46500E+01 5.00000E+01 0.00000E+00
 -1      1161 6.76500E+01 5.00000E+01 0.00000E+00
 -1      1162 7.06500E+01 5.00000E+01 0.00000E+00
 -1      1163 7.36500E+01 5.00000E+01 0.00000E+00
 -1      1164 7.66500E+01 5.00000E+01 0.00000E+00
 -1      1165 7.96500E+01 5.00000E+01 0.00000E+00
 -1      1166 8.26500E+01 5.00000E+01 0.00000E+00
 -1      1167 8.56500E+01 5.00000E+01 0.00000E+00
 -1      1168 8.86500E+01 5.00000E+01 0.00000E+00
 -1      1169 9.16500E+01 5.00000E+01 0.00000E+00
 -1      1170 9.46500E+01 5.00000E+01 0.00000E+00
 -1      1171 9.76500E+01 5.00000E+01 0.00000E+00
 -1      1172 1.00650E+02 5.00000E+01 0.00000E+00
 -1      1173 1.03650E+02 5.00000E+01 0.00000E+00
 -1      1174 1.06650E+02 5.00000E+01 0.00000E+00
 -1      1175 1.09650E+02 5.00000E+01 0.00000E+00
 -1      1176 1.12650E+02 5.00000E+01 0.00000E+00
 -1      1177 1.15650E+02 5.00000E+01 0.00000E+00
 -1      1178 1.18650E+02 5.00000E+01 0.00000E+00
 -1      1179 1.21650E+02 5.00000E+01 0.00000E+00
 -1      1180 1.24650E+02 5.00000E+01 0.00000E+00
 -1      1181 1.27650E+02 5.00000E+01 0.00000E+00
 -1      1182 1.30650E+02 5.00000E+01 0.00000E+00
 -1      1183 1.33650E+02 5.00000E+01 0.00000E+00
 -1      1184 1.36650E+02 5.00000E+01 0.00000E+00
 -1      1185 1.39650E+02 5.00000E+01 0.00000E+00
 -1      1186 1.42650E+02 5.00000E+01 0.00000E+00
 -1      1187 1.45650E+02 5.00000E+01 0.00000E+00
 -1      1188 1.48575E+02 5.00000E+01 0.00000E+00
 -1      1189 1.57500E+00 0.00000E+00 0.00000E+00
 -1      1190 4.65000E+00 0.00000E+00 0.00000E+00
 -1      1191 7.65000E+00 0.00000E+00 0.00000E+00
 -1      1192 1.06500E+01 0.00000E+00 0.00000E+00
 -1      1193 1.36500E+01 0.00000E+00 0.00000E+00
 -1      1194 1.66500E+01 0.00000E+00 0.00000E+00
 -1      1195 1.96500E+01 0.00000E+00 0.00000E+00
 -1      1196 2.26500E+01 0.00000E+00 0.00000E+00
 -1      1197 2.56500E+01 0.00000E+00 0.00000E+00
 -1      1198 2.86500E+01 0.00000E+00 0.00000E+00
 -1      1199 3.16500E+01 0.00000E+00 0.00000E+00
 -1      1200 3.46500E+01 0.00000E+00 0.00000E+00
 -1      1201 3.76500E+01 0.00000E+00 0.00000E+00
 -1      1202 4.06500E+01 0.00000E+00 0.00000E+00
 -1      1203 4.36500E+01 0.00000E+00 0.00000E+00
 -1      1204 4.66500E+01 0.00000E+00 0.00000E+00
 -1      1205 4.96500E+01 0.00000E+00 0.00000E+00
 -1      1206 5.26500E+01 0.00000E+00 0.00000E+00
 -1      1207 5.56500E+01 0.00000E+00 0.00000E+00
 -1      1208 5.86500E+01 0.00000E+00 0.00000E+00
 -1      1209 6.16500E+01 0.00000E+00 0.00000E+00
 -1      1210 6.46500E+01 0.00000E+00 0.00000E+00
 -1      1211 6.76500E+01 0.00000E+00 0.00000E+00
 -1      1212 7.06500E+01 0.00000E+00 0.00000E+00
 -1      1213 7.36500E+01 0.00000E+00 0.00000E+00
 -1      1214 7.66500E+01 0.00000E+00 0.00000E+00
 -1      1215 7.96500E+01 0.00000E+00 0.00000E+00
 -1      1216 8.26500E+01 0.00000E+00 0.00000E+00
 -1      1217 8.56500E+01 0.00000E+00 0.00000E+00
 -1      1218 8.86500E+01 0.00000E+00 0.00000E+00
 -1      1219 9.16500E+01 0.00000E+00 0.00000E+00
 -1      1220 9.46500E+01 0.00000E+00 0.00000E+00
 -1      1221 9.76500E+01 0.00000E+00 0.00000E+00
 -1      1222 1.00650E+02 0.00000E+00 0.00000E+00
 -1      1223 1.03650E+02 0.00000E+00 0.00000E+00
 -1      1224 1.06650E+02 0.00000E+00 0.00000E+00
 -1      1225 1.09650E+02 0.00000E+00 0.00000E+00
 -1      1226 1.12650E+02 0.00000E+00 0.00000E+00
 -1      1227 1.15650E+02 0.00000E+00 0.00000E+00
 -1      1228 1.18650E+02 0.00000E+00 0.00000E+00
 -1      1229 1.21650E+02 0.00000E+00 0.00000E+00
 -1      1230 1.24650E+02 0.00000E+00 0.00000E+00
 -1      1231 1.27650E+02 0.00000E+00 0.00000E+00
 -1      1232 1.30650E+02 0.00000E+00 0.00000E+00
 -1      1233 1.33650E+02 0.00000E+00 0.00000E+00
 -1      1234 1.36650E+02 0.00000E+00 0.00000E+00
 -1      1235 1.39650E+02 0.00000E+00 0.00000E+00
 -1      1236 1.42650E+02 0.00000E+00 0.00000E+00
 -1      1237 1.45650E+02 0.00000E+00 0.00000E+00
 -1      1238 1.48575E+02 0.00000E+00 0.00000E+00
 -1      1239 1.50000E+02 1.47500E+00 0.00000E+00
 -1      1240 1.50000E+02 4.42500E+00 0.00000E+00
 -1      1241 1.50000E+02 7.37500E+00 0.00000E+00
 -1      1242 1.50000E+02 1.03250E+01 0.00000E+00
 -1      1243 1.50000E+02 1.32750E+01 0.00000E+00
 -1      1244 1.50000E+02 1.62000E+01 0.00000E+00
 -1      1245 1.50000E+02 1.91250E+01 0.00000E+00
 -1      1246 1.50000E+02 2.20750E+01 0.00000E+00
 -1      1247 1.50000E+02 2.50250E+01 0.00000E+00
 -1      1248 1.50000E+02 2.79750E+01 0.00000E+00
 -1      1249 1.50000E+02 3.09250E+01 0.00000E+00
 -1      1250 1.50000E+02 3.38500E+01 0.00000E+00
 -1      1251 1.50000E+02 3.67750E+01 0.00000E+00
 -1      1252 1.50000E+02 3.97250E+01 0.00000E+00
 -1      1253 1.50000E+02 4.26750E+01 0.00000E+00
 -1      1254 1.50000E+02 4.56250E+01 0.00000E+00
 -1      1255 1.50000E+02 4.85500E+01 0.00000E+00
 -1      1256 3.74948E+01 2.04021E+01 0.00000E+00
 -1      1257 3.71816E+01 1.89392E+01 0.00000E+00
 -1      1258 3.65471E+01 1.75464E+01 0.00000E+00
 -1      1259 3.56663E+01 1.63691E+01 0.00000E+00
 -1      1260 3.45423E+01 1.53899E+01 0.00000E+00
 -1      1261 3.32391E+01 1.46720E+01 0.00000E+00
 -1      1262 3.18688E+01 1.42563E+01 0.00000E+00
 -1      1263 3.03532E+01 1.41299E+01 0.00000E+00
 -1      1264 2.88530E+01 1.43321E+01 0.00000E+00
 -1      1265 2.75211E+01 1.48084E+01 0.00000E+00
 -1      1266 2.62583E+01 1.55840E+01 0.00000E+00
 -1      1267 2.51650E+01 1.66343E+01 0.00000E+00
 -1      1268 2.43326E+01 1.78778E+01 0.00000E+00
 -1      1269 2.37746E+01 1.93025E+01 0.00000E+00
 -1      1270 2.35415E+01 2.07730E+01 0.00000E+00
 -1      1271 2.36233E+01 2.22515E+01 0.00000E+00
 -1      1272 2.40125E+01 2.36751E+01 0.00000E+00
 -1      1273 2.46638E+01 2.49432E+01 0.00000E+00
 -1      1274 2.56179E+01 2.61122E+01 0.00000E+00
 -1      1275 2.68624E+01 2.70883E+01 0.00000E+00
 -1      1276 2.82535E+01 2.77462E+01 0.00000E+00
 -1      1277 2.97484E+01 2.80836E+01 0.00000E+00
 -1      1278 3.12101E+01 2.80947E+01 0.00000E+00
 -1      1279 3.25934E+01 2.78173E+01 0.00000E+00
 -1      1280 3.38693E+01 2.72811E+01 0.00000E+00
 -1      1281 3.49879E+01 2.65266E+01 0.00000E+00
 -1      1282 3.59665E+01 2.55402E+01 0.00000E+00
 -1      1283 3.67238E+01 2.43937E+01 0.00000E+00
 -1      1284 3.72380E+01 2.31367E+01 0.00000E+00
 -1      1285 3.74999E+01 2.18016E+01 0.00000E+00
 -1      1286 1.57500E+00 4.85250E+01 0.00000E+00
 -1      1287 1.29900E+00 4.48375E+01 0.00000E+00
 -1      1288 1.29900E+00 4.63125E+01 0.00000E+00
 -1      1289 1.29900E+00 4.18875E+01 0.00000E+00
 -1      1290 1.29900E+00 4.33625E+01 0.00000E+00
 -1      1291 2.59800E+00 4.41000E+01 0.00000E+00
 -1      1292 1.29900E+00 3.89375E+01 0.00000E+00
 -1      1293 1.29900E+00 4.04125E+01 0.00000E+00
 -1      1294 2.59800E+00 4.11500E+01 0.00000E+00
 -1      1295 1.29900E+00 3.59875E+01 0.00000E+00
 -1      1296 1.29900E+00 3.74625E+01 0.00000E+00
 -1      1297 2.59800E+00 3.82000E+01 0.00000E+00
 -1      1298 1.29900E+00 3.30875E+01 0.00000E+00
 -1      1299 1.29900E+00 3.45375E+01 0.00000E+00
 -1      1300 2.59800E+00 3.52750E+01 0.00000E+00
 -1      1301 1.29900E+00 3.01375E+01 0.00000E+00
 -1      1302 1.29900E+00 3.16125E+01 0.00000E+00
 -1      1303 2.59800E+00 3.23500E+01 0.00000E+00
 -1      1304 1.29900E+00 2.71875E+01 0.00000E+00
 -1      1305 1.29900E+00 2.86625E+01 0.00000E+00
 -1      1306 2.59800E+00 2.94000E+01 0.00000E+00
 -1      1307 1.29900E+00 2.42375E+01 0.00000E+00
 -1      1308 1.29900E+00 2.57125E+01 0.00000E+00
 -1      1309 2.59800E+00 2.64500E+01 0.00000E+00
 -1      1310 1.29900E+00 2.12875E+01 0.00000E+00
 -1      1311 1.29900E+00 2.27625E+01 0.00000E+00
 -1      1312 2.59800E+00 2.35000E+01 0.00000E+00
 -1      1313 1.29900E+00 1.83375E+01 0.00000E+00
 -1      1314 1.29900E+00 1.98125E+01 0.00000E+00
 -1      1315 2.59800E+00 2.05500E+01 0.00000E+00
 -1      1316 1.29900E+00 1.54375E+01 0.00000E+00
 -1      1317 1.29900E+00 1.68875E+01 0.00000E+00
 -1      1318 2.59800E+00 1.76250E+01 0.00000E+00
 -1      1319 1.29900E+00 1.24875E+01 0.00000E+00
 -1      1320 1.29900E+00 1.39625E+01 0.00000E+00
 -1      1321 2.59800E+00 1.47000E+01 0.00000E+00
 -1      1322 1.29900E+00 9.53750E+00 0.00000E+00
 -1      1323 1.29900E+00 1.10125E+01 0.00000E+00
 -1      1324 2.59800E+00 1.17500E+01 0.00000E+00
 -1      1325 1.29900E+00 6.58750E+00 0.00000E+00
 -1      1326 1.29900E+00 8.06250E+00 0.00000E+00
 -1      1327 2.59800E+00 8.80000E+00 0.00000E+00
 -1      1328 1.29900E+00 3.63750E+00 0.00000E+00
 -1      1329 1.29900E+00 5.11250E+00 0.00000E+00
 -1      1330 2.59800E+00 5.85000E+00 0.00000E+00
 -1      1331 1.43700E+00 1.09375E+00 0.00000E+00
 -1      1332 1.43700E+00 2.54375E+00 0.00000E+00
 -1      1333 2.73600E+00 3.28125E+00 0.00000E+00
 -1      1334 3.01200E+00 1.09375E+00 0.00000E+00
 -1      1335 3.90000E+00 4.87010E+01 0.00000E+00
 -1      1336 5.40000E+00 4.87010E+01 0.00000E+00
 -1      1337 6.90000E+00 4.87010E+01 0.00000E+00
 -1      1338 8.40000E+00 4.87010E+01 0.00000E+00
 -1      1339 6.15000E+00 4.74020E+01 0.00000E+00
 -1      1340 9.90000E+00 4.87010E+01 0.00000E+00
 -1      1341 1.14000E+01 4.87010E+01 0.00000E+00
 -1      1342 9.15000E+00 4.74020E+01 0.00000E+00
 -1      1343 1.29000E+01 4.87010E+01 0.00000E+00
 -1      1344 1.44000E+01 4.87010E+01 0.00000E+00
 -1      1345 1.21500E+01 4.74020E+01 0.00000E+00
 -1      1346 1.59000E+01 4.87010E+01 0.00000E+00
 -1      1347 1.74000E+01 4.87010E+01 0.00000E+00
 -1      1348 1.51500E+01 4.74020E+01 0.00000E+00
 -1      1349 1.89000E+01 4.87010E+01 0.00000E+00
 -1      1350 2.04000E+01 4.87010E+01 0.00000E+00
 -1      1351 1.81500E+01 4.74020E+01 0.00000E+00
 -1      1352 2.19000E+01 4.87010E+01 0.00000E+00
 -1      1353 2.34000E+01 4.87010E+01 0.00000E+00
 -1      1354 2.11500E+01 4.74020E+01 0.00000E+00
 -1      1355 2.49000E+01 4.87010E+01 0.00000E+00
 -1      1356 2.64000E+01 4.87010E+01 0.00000E+00
 -1      1357 2.41500E+01 4.74020E+01 0.00000E+00
 -1      1358 2.79000E+01 4.87010E+01 0.00000E+00
 -1      1359 2.94000E+01 4.87010E+01 0.00000E+00
 -1      1360 2.71500E+01 4.74020E+01 0.00000E+00
 -1      1361 3.09000E+01 4.87010E+01 0.00000E+00
 -1      1362 3.24000E+01 4.87010E+01 0.00000E+00
 -1      1363 3.01500E+01 4.74020E+01 0.00000E+00
 -1      1364 3.39000E+01 4.87010E+01 0.00000E+00
 -1      1365 3.54000E+01 4.87010E+01 0.00000E+00
 -1      1366 3.31500E+01 4.74020E+01 0.00000E+00
 -1      1367 3.69000E+01 4.87010E+01 0.00000E+00
 -1      1368 3.84000E+01 4.87010E+01 0.00000E+00
 -1      1369 3.61500E+01 4.74020E+01 0.00000E+00
 -1      1370 3.99000E+01 4.87010E+01 0.00000E+00
 -1      1371 4.14000E+01 4.87010E+01 0.00000E+00
 -1      1372 3.91500E+01 4.74020E+01 0.00000E+00
 -1      1373 4.29000E+01 4.87010E+01 0.00000E+00
 -1      1374 4.44000E+01 4.87010E+01 0.00000E+00
 -1      1375 4.21500E+01 4.74020E+01 0.00000E+00
 -1      1376 4.59000E+01 4.87010E+01 0.00000E+00
 -1      1377 4.74000E+01 4.87010E+01 0.00000E+00
 -1      1378 4.51500E+01 4.74020E+01 0.00000E+00
 -1      1379 4.89000E+01 4.87010E+01 0.00000E+00
 -1      1380 5.04000E+01 4.87010E+01 0.00000E+00
 -1      1381 4.81500E+01 4.74020E+01 0.00000E+00
 -1      1382 5.19000E+01 4.87010E+01 0.00000E+00
 -1      1383 5.34000E+01 4.87010E+01 0.00000E+00
 -1      1384 5.11500E+01 4.74020E+01 0.00000E+00
 -1      1385 5.49000E+01 4.87010E+01 0.00000E+00
 -1      1386 5.64000E+01 4.87010E+01 0.00000E+00
 -1      1387 5.41500E+01 4.74020E+01 0.00000E+00
 -1      1388 5.79000E+01 4.87010E+01 0.00000E+00
 -1      1389 5.94000E+01 4.87010E+01 0.00000E+00
 -1      1390 5.71500E+01 4.74020E+01 0.00000E+00
 -1      1391 6.09000E+01 4.87010E+01 0.00000E+00
 -1      1392 6.24000E+01 4.87010E+01 0.00000E+00
 -1      1393 6.01500E+01 4.74020E+01 0.00000E+00
 -1      1394 6.39000E+01 4.87010E+01 0.00000E+00
 -1      1395 6.54000E+01 4.87010E+01 0.00000E+00
 -1      1396 6.31500E+01 4.74020E+01 0.00000E+00
 -1      1397 6.69000E+01 4.87010E+01 0.00000E+00
 -1      1398 6.84000E+01 4.87010E+01 0.00000E+00
 -1      1399 6.61500E+01 4.74020E+01 0.00000E+00
 -1      1400 6.99000E+01 4.87010E+01 0.00000E+00
 -1      1401 7.14000E+01 4.87010E+01 0.00000E+00
 -1      1402 6.91500E+01 4.74020E+01 0.00000E+00
 -1      1403 7.29000E+01 4.87010E+01 0.00000E+00
 -1      1404 7.44000E+01 4.87010E+01 0.00000E+00
 -1      1405 7.21500E+01 4.74020E+01 0.00000E+00
 -1      1406 7.59000E+01 4.87010E+01 0.00000E+00
 -1      1407 7.74000E+01 4.87010E+01 0.00000E+00
 -1      1408 7.51500E+01 4.74020E+01 0.00000E+00
 -1      1409 7.89000E+01 4.87010E+01 0.00000E+00
 -1      1410 8.04000E+01 4.87010E+01 0.00000E+00
 -1      1411 7.81500E+01 4.74020E+01 0.00000E+00
 -1      1412 8.19000E+01 4.87010E+01 0.00000E+00
 -1      1413 8.34000E+01 4.87010E+01 0.00000E+00
 -1      1414 8.11500E+01 4.74020E+01 0.00000E+00
 -1      1415 8.49000E+01 4.87010E+01 0.00000E+00
 -1      1416 8.64000E+01 4.87010E+01 0.00000E+00
 -1      1417 8.41500E+01 4.74020E+01 0.00000E+00
 -1      1418 8.79000E+01 4.87010E+01 0.00000E+00
 -1      1419 8.94000E+01 4.87010E+01 0.00000E+00
 -1      1420 8.71500E+01 4.74020E+01 0.00000E+00
 -1      1421 9.09000E+01 4.87010E+01 0.00000E+00
 -1      1422 9.24000E+01 4.87010E+01 0.00000E+00
 -1      1423 9.01500E+01 4.74020E+01 0.00000E+00
 -1      1424 9.39000E+01 4.87010E+01 0.00000E+00
 -1      1425 9.54000E+01 4.87010E+01 0.00000E+00
 -1      1426 9.31500E+01 4.74020E+01 0.00000E+00
 -1      1427 9.69000E+01 4.87010E+01 0.00000E+00
 -1      1428 9.84000E+01 4.87010E+01 0.00000E+00
 -1      1429 9.61500E+01 4.74020E+01 0.00000E+00
 -1      1430 9.99000E+01 4.87010E+01 0.00000E+00
 -1      1431 1.01400E+02 4.87010E+01 0.00000E+00
 -1      1432 9.91500E+01 4.74020E+01 0.00000E+00
 -1      1433 1.02900E+02 4.87010E+01 0.00000E+00
 -1      1434 1.04400E+02 4.87010E+01 0.00000E+00
 -1      1435 1.02150E+02 4.74020E+01 0.00000E+00
 -1      1436 1.05900E+02 4.87010E+01 0.00000E+00
 -1      1437 1.07400E+02 4.87010E+01 0.00000E+00
 -1      1438 1.05150E+02 4.74020E+01 0.00000E+00
 -1      1439 1.08900E+02 4.87010E+01 0.00000E+00
 -1      1440 1.10400E+02 4.87010E+01 0.00000E+00
 -1      1441 1.08150E+02 4.74020E+01 0.00000E+00
 -1      1442 1.11900E+02 4.87010E+01 0.00000E+00
 -1      1443 1.13400E+02 4.87010E+01 0.00000E+00
 -1      1444 1.11150E+02 4.74020E+01 0.00000E+00
 -1      1445 1.14900E+02 4.87010E+01 0.00000E+00
 -1      1446 1.16400E+02 4.87010E+01 0.00000E+00
 -1      1447 1.14150E+02 4.74020E+01 0.00000E+00
 -1      1448 1.17900E+02 4.87010E+01 0.00000E+00
 -1      1449 1.19400E+02 4.87010E+01 0.00000E+00
 -1      1450 1.17150E+02 4.74020E+01 0.00000E+00
 -1      1451 1.20900E+02 4.87010E+01 0.00000E+00
 -1      1452 1.22400E+02 4.87010E+01 0.00000E+00
 -1      1453 1.20150E+02 4.74020E+01 0.00000E+00
 -1      1454 1.23900E+02 4.87010E+01 0.00000E+00
 -1      1455 1.25400E+02 4.87010E+01 0.00000E+00
 -1      1456 1.23150E+02 4.74020E+01 0.00000E+00
 -1      1457 1.26900E+02 4.87010E+01 0.00000E+00
 -1      1458 1.28400E+02 4.87010E+01 0.00000E+00
 -1      1459 1.26150E+02 4.74020E+01 0.00000E+00
 -1      1460 1.29900E+02 4.87010E+01 0.00000E+00
 -1      1461 1.31400E+02 4.87010E+01 0.00000E+00
 -1      1462 1.29150E+02 4.74020E+01 0.00000E+00
 -1      1463 1.32900E+02 4.87010E+01 0.00000E+00
 -1      1464 1.34400E+02 4.87010E+01 0.00000E+00
 -1      1465 1.32150E+02 4.74020E+01 0.00000E+00
 -1      1466 1.35900E+02 4.87010E+01 0.00000E+00
 -1      1467 1.37400E+02 4.87010E+01 0.00000E+00
 -1      1468 1.35150E+02 4.74020E+01 0.00000E+00
 -1      1469 1.38900E+02 4.87010E+01 0.00000E+00
 -1      1470 1.40400E+02 4.87010E+01 0.00000E+00
 -1      1471 1.38150E+02 4.74020E+01 0.00000E+00
 -1      1472 1.41900E+02 4.87010E+01 0.00000E+00
 -1      1473 1.43400E+02 4.87010E+01 0.00000E+00
 -1      1474 1.41150E+02 4.74020E+01 0.00000E+00
 -1      1475 1.44900E+02 4.87010E+01 0.00000E+00
 -1      1476 1.46400E+02 4.87010E+01 0.00000E+00
 -1      1477 1.44150E+02 4.74020E+01 0.00000E+00
 -1      1478 1.48575E+02 4.85500E+01 0.00000E+00
 -1      1479 1.47825E+02 4.72510E+01 0.00000E+00
 -1      1480 6.01200E+00 1.09375E+00 0.00000E+00
 -1      1481 4.51200E+00 1.09375E+00 0.00000E+00
 -1      1482 4.37400E+00 2.18750E+00 0.00000E+00
 -1      1483 9.01200E+00 1.09375E+00 0.00000E+00
 -1      1484 7.51200E+00 1.09375E+00 0.00000E+00
 -1      1485 7.37400E+00 2.18750E+00 0.00000E+00
 -1      1486 1.20120E+01 1.09375E+00 0.00000E+00
 -1      1487 1.05120E+01 1.09375E+00 0.00000E+00
 -1      1488 1.03740E+01 2.18750E+00 0.00000E+00
 -1      1489 1.50120E+01 1.09375E+00 0.00000E+00
 -1      1490 1.35120E+01 1.09375E+00 0.00000E+00
 -1      1491 1.33740E+01 2.18750E+00 0.00000E+00
 -1      1492 1.80120E+01 1.09375E+00 0.00000E+00
 -1      1493 1.65120E+01 1.09375E+00 0.00000E+00
 -1      1494 1.63740E+01 2.18750E+00 0.00000E+00
 -1      1495 2.10120E+01 1.09375E+00 0.00000E+00
 -1      1496 1.95120E+01 1.09375E+00 0.00000E+00
 -1      1497 1.93740E+01 2.18750E+00 0.00000E+00
 -1      1498 2.40120E+01 1.09375E+00 0.00000E+00
 -1      1499 2.25120E+01 1.09375E+00 0.00000E+00
 -1      1500 2.23740E+01 2.18750E+00 0.00000E+00
 -1      1501 2.70120E+01 1.09375E+00 0.00000E+00
 -1      1502 2.55120E+01 1.09375E+00 0.00000E+00
 -1      1503 2.53740E+01 2.18750E+00 0.00000E+00
 -1      1504 3.00120E+01 1.09375E+00 0.00000E+00
 -1      1505 2.85120E+01 1.09375E+00 0.00000E+00
 -1      1506 2.83740E+01 2.18750E+00 0.00000E+00
 -1      1507 3.30120E+01 1.09375E+00 0.00000E+00
 -1      1508 3.15120E+01 1.09375E+00 0.00000E+00
 -1      1509 3.13740E+01 2.18750E+00 0.00000E+00
 -1      1510 3.60120E+01 1.09375E+00 0.00000E+00
 -1      1511 3.45120E+01 1.09375E+00 0.00000E+00
 -1      1512 3.43740E+01 2.18750E+00 0.00000E+00
 -1      1513 3.90120E+01 1.09375E+00 0.00000E+00
 -1      1514 3.75120E+01 1.09375E+00 0.00000E+00
 -1      1515 3.73740E+01 2.18750E+00 0.00000E+00
 -1      1516 4.20120E+01 1.09375E+00 0.00000E+00
 -1      1517 4.05120E+01 1.09375E+00 0.00000E+00
 -1      1518 4.03740E+01 2.18750E+00 0.00000E+00
 -1      1519 4.50120E+01 1.09375E+00 0.00000E+00
 -1      1520 4.35120E+01 1.09375E+00 0.00000E+00
 -1      1521 4.33740E+01 2.18750E+00 0.00000E+00
 -1      1522 4.80120E+01 1.09375E+00 0.00000E+00
 -1      1523 4.65120E+01 1.09375E+00 0.00000E+00
 -1      1524 4.63740E+01 2.18750E+00 0.00000E+00
 -1      1525 5.10120E+01 1.09375E+00 0.00000E+00
 -1      1526 4.95120E+01 1.09375E+00 0.00000E+00
 -1      1527 4.93740E+01 2.18750E+00 0.00000E+00
 -1      1528 5.40120E+01 1.09375E+00 0.00000E+00
 -1      1529 5.25120E+01 1.09375E+00 0.00000E+00
 -1      1530 5.23740E+01 2.18750E+00 0.00000E+00
 -1      1531 5.70120E+01 1.09375E+00 0.00000E+00
 -1      1532 5.55120E+01 1.09375E+00 0.00000E+00
 -1      1533 5.53740E+01 2.18750E+00 0.00000E+00
 -1      1534 6.00120E+01 1.09375E+00 0.00000E+00
 -1      1535 5.85120E+01 1.09375E+00 0.00000E+00
 -1      1536 5.83740E+01 2.18750E+00 0.00000E+00
 -1      1537 6.30120E+01 1.09375E+00 0.00000E+00
 -1      1538 6.15120E+01 1.09375E+00 0.00000E+00
 -1      1539 6.13740E+01 2.18750E+00 0.00000E+00
 -1      1540 6.60120E+01 1.09375E+00 0.00000E+00
 -1      1541 6.45120E+01 1.09375E+00 0.00000E+00
 -1      1542 6.43740E+01 2.18750E+00 0.00000E+00
 -1      1543 6.90120E+01 1.09375E+00 0.00000E+00
 -1      1544 6.75120E+01 1.09375E+00 0.00000E+00
 -1      1545 6.73740E+01 2.18750E+00 0.00000E+00
 -1      1546 7.20120E+01 1.09375E+00 0.00000E+00
 -1      1547 7.05120E+01 1.09375E+00 0.00000E+00
 -1      1548 7.03740E+01 2.18750E+00 0.00000E+00
 -1      1549 7.50120E+01 1.09375E+00 0.00000E+00
 -1      1550 7.35120E+01 1.09375E+00 0.00000E+00
 -1      1551 7.33740E+01 2.18750E+00 0.00000E+00
 -1      1552 7.80120E+01 1.09375E+00 0.00000E+00
 -1      1553 7.65120E+01 1.09375E+00 0.00000E+00
 -1      1554 7.63740E+01 2.18750E+00 0.00000E+00
 -1      1555 8.10120E+01 1.09375E+00 0.00000E+00
 -1      1556 7.95120E+01 1.09375E+00 0.00000E+00
 -1      1557 7.93740E+01 2.18750E+00 0.00000E+00
 -1      1558 8.40120E+01 1.09375E+00 0.00000E+00
 -1      1559 8.25120E+01 1.09375E+00 0.00000E+00
 -1      1560 8.23740E+01 2.18750E+00 0.00000E+00
 -1      1561 8.70120E+01 1.09375E+00 0.00000E+00
 -1      1562 8.55120E+01 1.09375E+00 0.00000E+00
 -1      1563 8.53740E+01 2.18750E+00 0.00000E+00
 -1      1564 9.00120E+01 1.09375E+00 0.00000E+00
 -1      1565 8.85120E+01 1.09375E+00 0.00000E+00
 -1      1566 8.83740E+01 2.18750E+00 0.00000E+00
 -1      1567 9.30120E+01 1.09375E+00 0.00000E+00
 -1      1568 9.15120E+01 1.09375E+00 0.00000E+00
 -1      1569 9.13740E+01 2.18750E+00 0.00000E+00
 -1      1570 9.60120E+01 1.09375E+00 0.00000E+00
 -1      1571 9.45120E+01 1.09375E+00 0.00000E+00
 -1      1572 9.43740E+01 2.18750E+00 0.00000E+00
 -1      1573 9.90120E+01 1.09375E+00 0.00000E+00
 -1      1574 9.75120E+01 1.09375E+00 0.00000E+00
 -1      1575 9.73740E+01 2.18750E+00 0.00000E+00
 -1      1576 1.02012E+02 1.09375E+00 0.00000E+00
 -1      1577 1.00512E+02 1.09375E+00 0.00000E+00
 -1      1578 1.00374E+02 2.18750E+00 0.00000E+00
 -1      1579 1.05012E+02 1.09375E+00 0.00000E+00
 -1      1580 1.03512E+02 1.09375E+00 0.00000E+00
 -1      1581 1.03374E+02 2.18750E+00 0.00000E+00
 -1      1582 1.08012E+02 1.09375E+00 0.00000E+00
 -1      1583 1.06512E+02 1.09375E+00 0.00000E+00
 -1      1584 1.06374E+02 2.18750E+00 0.00000E+00
 -1      1585 1.11012E+02 1.09375E+00 0.00000E+00
 -1      1586 1.09512E+02 1.09375E+00 0.00000E+00
 -1      1587 1.09374E+02 2.18750E+00 0.00000E+00
 -1      1588 1.14012E+02 1.09375E+00 0.00000E+00
 -1      1589 1.12512E+02 1.09375E+00 0.00000E+00
 -1      1590 1.12374E+02 2.18750E+00 0.00000E+00
 -1      1591 1.17012E+02 1.09375E+00 0.00000E+00
 -1      1592 1.15512E+02 1.09375E+00 0.00000E+00
 -1      1593 1.15374E+02 2.18750E+00 0.00000E+00
 -1      1594 1.20012E+02 1.09375E+00 0.00000E+00
 -1      1595 1.18512E+02 1.09375E+00 0.00000E+00
 -1      1596 1.18374E+02 2.18750E+00 0.00000E+00
 -1      1597 1.23012E+02 1.09375E+00 0.00000E+00
 -1      1598 1.21512E+02 1.09375E+00 0.00000E+00
 -1      1599 1.21374E+02 2.18750E+00 0.00000E+00
 -1      1600 1.26012E+02 1.09375E+00 0.00000E+00
 -1      1601 1.24512E+02 1.09375E+00 0.00000E+00
 -1      1602 1.24374E+02 2.18750E+00 0.00000E+00
 -1      1603 1.29012E+02 1.09375E+00 0.00000E+00
 -1      1604 1.27512E+02 1.09375E+00 0.00000E+00
 -1      1605 1.27374E+02 2.18750E+00 0.00000E+00
 -1      1606 1.32012E+02 1.09375E+00 0.00000E+00
 -1      1607 1.30512E+02 1.09375E+00 0.00000E+00
 -1      1608 1.30374E+02 2.18750E+00 0.00000E+00
 -1      1609 1.35012E+02 1.09375E+00 0.00000E+00
 -1      1610 1.33512E+02 1.09375E+00 0.00000E+00
 -1      1611 1.33374E+02 2.18750E+00 0.00000E+00
 -1      1612 1.38012E+02 1.09375E+00 0.00000E+00
 -1      1613 1.36512E+02 1.09375E+00 0.00000E+00
 -1      1614 1.36374E+02 2.18750E+00 0.00000E+00
 -1      1615 1.41012E+02 1.09375E+00 0.00000E+00
 -1      1616 1.39512E+02 1.09375E+00 0.00000E+00
 -1      1617 1.39374E+02 2.18750E+00 0.00000E+00
 -1      1618 1.44012E+02 1.09375E+00 0.00000E+00
 -1      1619 1.42512E+02 1.09375E+00 0.00000E+00
 -1      1620 1.42374E+02 2.18750E+00 0.00000E+00
 -1      1621 1.47012E+02 1.09375E+00 0.00000E+00
 -1      1622 1.45512E+02 1.09375E+00 0.00000E+00
 -1      1623 1.45374E+02 2.18750E+00 0.00000E+00
 -1      1624 1.48575E+02 1.47500E+00 0.00000E+00
 -1      1625 1.48701E+02 5.16250E+00 0.00000E+00
 -1      1626 1.48701E+02 3.68750E+00 0.00000E+00
 -1      1627 1.48701E+02 8.11250E+00 0.00000E+00
 -1      1628 1.48701E+02 6.63750E+00 0.00000E+00
 -1      1629 1.47402E+02 5.90000E+00 0.00000E+00
 -1      1630 1.48701E+02 1.10625E+01 0.00000E+00
 -1      1631 1.48701E+02 9.58750E+00 0.00000E+00
 -1      1632 1.47402E+02 8.85000E+00 0.00000E+00
 -1      1633 1.48701E+02 1.40125E+01 0.00000E+00
 -1      1634 1.48701E+02 1.25375E+01 0.00000E+00
 -1      1635 1.47402E+02 1.18000E+01 0.00000E+00
 -1      1636 1.48701E+02 1.69125E+01 0.00000E+00
 -1      1637 1.48701E+02 1.54625E+01 0.00000E+00
 -1      1638 1.47402E+02 1.47250E+01 0.00000E+00
 -1      1639 1.48701E+02 1.98625E+01 0.00000E+00
 -1      1640 1.48701E+02 1.83875E+01 0.00000E+00
 -1      1641 1.47402E+02 1.76500E+01 0.00000E+00
 -1      1642 1.48701E+02 2.28125E+01 0.00000E+00
 -1      1643 1.48701E+02 2.13375E+01 0.00000E+00
 -1      1644 1.47402E+02 2.06000E+01 0.00000E+00
 -1      1645 1.48701E+02 2.57625E+01 0.00000E+00
 -1      1646 1.48701E+02 2.42875E+01 0.00000E+00
 -1      1647 1.47402E+02 2.35500E+01 0.00000E+00
 -1      1648 1.48701E+02 2.87125E+01 0.00000E+00
 -1      1649 1.48701E+02 2.72375E+01 0.00000E+00
 -1      1650 1.47402E+02 2.65000E+01 0.00000E+00
 -1      1651 1.48701E+02 3.16625E+01 0.00000E+00
 -1      1652 1.48701E+02 3.01875E+01 0.00000E+00
 -1      1653 1.47402E+02 2.94500E+01 0.00000E+00
 -1      1654 1.48701E+02 3.45625E+01 0.00000E+00
 -1      1655 1.48701E+02 3.31125E+01 0.00000E+00
 -1      1656 1.47402E+02 3.23750E+01 0.00000E+00
 -1      1657 1.48701E+02 3.75125E+01 0.00000E+00
 -1      1658 1.48701E+02 3.60375E+01 0.00000E+00
 -1      1659 1.47402E+02 3.53000E+01 0.00000E+00
 -1      1660 1.48701E+02 4.04625E+01 0.00000E+00
 -1      1661 1.48701E+02 3.89875E+01 0.00000E+00
 -1      1662 1.47402E+02 3.82500E+01 0.00000E+00
 -1      1663 1.48701E+02 4.34125E+01 0.00000E+00
 -1      1664 1.48701E+02 4.19375E+01 0.00000E+00
 -1      1665 1.47402E+02 4.12000E+01 0.00000E+00
 -1      1666 1.48263E+02 4.60692E+01 0.00000E+00
 -1      1667 1.48263E+02 4.45942E+01 0.00000E+00
 -1      1668 1.46964E+02 4.38568E+01 0.00000E+00
 -1      1669 1.46088E+02 4.62202E+01 0.00000E+00
 -1      1670 3.80643E+01 1.99781E+01 0.00000E+00
 -1      1671 3.81395E+01 2.06997E+01 0.00000E+00
 -1      1672 3.77159E+01 1.83577E+01 0.00000E+00
 -1      1673 3.79568E+01 1.90897E+01 0.00000E+00
 -1      1674 3.68740E+01 1.69096E+01 0.00000E+00
 -1      1675 3.72628E+01 1.75625E+01 0.00000E+00
 -1      1676 3.58430E+01 1.57211E+01 0.00000E+00
 -1      1677 3.63259E+01 1.62421E+01 0.00000E+00
 -1      1678 3.46407E+01 1.45679E+01 0.00000E+00
 -1      1679 3.52803E+01 1.50149E+01 0.00000E+00
 -1      1680 3.31334E+01 1.40093E+01 0.00000E+00
 -1      1681 3.37858E+01 1.42828E+01 0.00000E+00
 -1      1682 3.16218E+01 1.36290E+01 0.00000E+00
 -1      1683 3.23329E+01 1.37674E+01 0.00000E+00
 -1      1684 2.99366E+01 1.34120E+01 0.00000E+00
 -1      1685 3.07326E+01 1.33916E+01 0.00000E+00
 -1      1686 2.83581E+01 1.38247E+01 0.00000E+00
 -1      1687 2.90546E+01 1.36526E+01 0.00000E+00
 -1      1688 2.69607E+01 1.44426E+01 0.00000E+00
 -1      1689 2.75899E+01 1.41427E+01 0.00000E+00
 -1      1690 2.55531E+01 1.53122E+01 0.00000E+00
 -1      1691 2.61747E+01 1.48329E+01 0.00000E+00
 -1      1692 2.44949E+01 1.65500E+01 0.00000E+00
 -1      1693 2.49642E+01 1.59894E+01 0.00000E+00
 -1      1694 2.35439E+01 1.78964E+01 0.00000E+00
 -1      1695 2.38992E+01 1.72186E+01 0.00000E+00
 -1      1696 2.31301E+01 1.95246E+01 0.00000E+00
 -1      1697 2.33295E+01 1.87862E+01 0.00000E+00
 -1      1698 2.29552E+01 2.11058E+01 0.00000E+00
 -1      1699 2.29919E+01 2.03826E+01 0.00000E+00
 -1      1700 2.30435E+01 2.27291E+01 0.00000E+00
 -1      1701 2.29220E+01 2.19822E+01 0.00000E+00
 -1      1702 2.36132E+01 2.42171E+01 0.00000E+00
 -1      1703 2.33515E+01 2.35473E+01 0.00000E+00
 -1      1704 2.43781E+01 2.55503E+01 0.00000E+00
 -1      1705 2.39930E+01 2.49580E+01 0.00000E+00
 -1      1706 2.54515E+01 2.68524E+01 0.00000E+00
 -1      1707 2.48801E+01 2.62890E+01 0.00000E+00
 -1      1708 2.68112E+01 2.79144E+01 0.00000E+00
 -1      1709 2.61477E+01 2.75059E+01 0.00000E+00
 -1      1710 2.84015E+01 2.84832E+01 0.00000E+00
 -1      1711 2.76832E+01 2.82359E+01 0.00000E+00
 -1      1712 3.00599E+01 2.87700E+01 0.00000E+00
 -1      1713 2.92919E+01 2.86834E+01 0.00000E+00
 -1      1714 3.16083E+01 2.86309E+01 0.00000E+00
 -1      1715 3.09227E+01 2.86976E+01 0.00000E+00
 -1      1716 3.31305E+01 2.83348E+01 0.00000E+00
 -1      1717 3.24406E+01 2.85473E+01 0.00000E+00
 -1      1718 3.44343E+01 2.76286E+01 0.00000E+00
 -1      1719 3.38523E+01 2.79442E+01 0.00000E+00
 -1      1720 3.56172E+01 2.67494E+01 0.00000E+00
 -1      1721 3.50872E+01 2.71868E+01 0.00000E+00
 -1      1722 3.66961E+01 2.56803E+01 0.00000E+00
 -1      1723 3.62534E+01 2.62255E+01 0.00000E+00
 -1      1724 3.73881E+01 2.43645E+01 0.00000E+00
 -1      1725 3.70747E+01 2.49585E+01 0.00000E+00
 -1      1726 3.79250E+01 2.29842E+01 0.00000E+00
 -1      1727 3.77279E+01 2.36418E+01 0.00000E+00
 -1      1728 3.81034E+01 2.15214E+01 0.00000E+00
 -1      1729 3.80385E+01 2.21923E+01 0.00000E+00
 -1      1730 3.59664E+01 1.48633E+01 0.00000E+00
 -1      1731 3.70771E+01 1.62370E+01 0.00000E+00
 -1      1732 1.48437E+02 2.56875E+00 0.00000E+00
 -1      1733 1.47138E+02 3.30625E+00 0.00000E+00
 -1      1734 3.86390E+01 1.93833E+01 0.00000E+00
 -1      1735 3.80784E+01 1.76997E+01 0.00000E+00
 -1      1736 3.87104E+01 2.10935E+01 0.00000E+00
 -1      1737 3.45489E+01 1.38721E+01 0.00000E+00
 -1      1738 3.28935E+01 1.33451E+01 0.00000E+00
 -1      1739 3.12039E+01 1.28657E+01 0.00000E+00
 -1      1740 2.94328E+01 1.28689E+01 0.00000E+00
 -1      1741 2.77827E+01 1.34274E+01 0.00000E+00
 -1      1742 2.62286E+01 1.41358E+01 0.00000E+00
 -1      1743 2.48537E+01 1.52034E+01 0.00000E+00
 -1      1744 2.36690E+01 1.65492E+01 0.00000E+00
 -1      1745 2.28589E+01 1.81075E+01 0.00000E+00
 -1      1746 2.25063E+01 1.98554E+01 0.00000E+00
 -1      1747 2.23349E+01 2.15900E+01 0.00000E+00
 -1      1748 2.26097E+01 2.32847E+01 0.00000E+00
 -1      1749 2.32975E+01 2.48437E+01 0.00000E+00
 -1      1750 2.41794E+01 2.63233E+01 0.00000E+00
 -1      1751 2.53776E+01 2.77156E+01 0.00000E+00
 -1      1752 2.69457E+01 2.86905E+01 0.00000E+00
 -1      1753 2.87082E+01 2.92121E+01 0.00000E+00
 -1      1754 3.04614E+01 2.93400E+01 0.00000E+00
 -1      1755 3.21564E+01 2.91840E+01 0.00000E+00
 -1      1756 3.37105E+01 2.87099E+01 0.00000E+00
 -1      1757 3.50851E+01 2.78775E+01 0.00000E+00
 -1      1758 3.63742E+01 2.69117E+01 0.00000E+00
 -1      1759 3.73890E+01 2.56661E+01 0.00000E+00
 -1      1760 3.81074E+01 2.42217E+01 0.00000E+00
 -1      1761 3.85608E+01 2.27071E+01 0.00000E+00
 -1      1762 2.87400E+00 4.77875E+01 0.00000E+00
 -1      1763 3.89700E+00 4.04125E+01 0.00000E+00
 -1      1764 3.89700E+00 4.18875E+01 0.00000E+00
 -1      1765 3.89700E+00 4.33625E+01 0.00000E+00
 -1      1766 3.89700E+00 4.48375E+01 0.00000E+00
 -1      1767 5.19600E+00 4.26250E+01 0.00000E+00
 -1      1768 3.89700E+00 3.45500E+01 0.00000E+00
 -1      1769 3.89700E+00 3.60000E+01 0.00000E+00
 -1      1770 3.89700E+00 3.16000E+01 0.00000E+00
 -1      1771 3.89700E+00 3.30750E+01 0.00000E+00
 -1      1772 5.19600E+00 3.38000E+01 0.00000E+00
 -1      1773 3.89700E+00 2.86500E+01 0.00000E+00
 -1      1774 3.89700E+00 3.01250E+01 0.00000E+00
 -1      1775 5.19600E+00 3.08500E+01 0.00000E+00
 -1      1776 3.89700E+00 2.57000E+01 0.00000E+00
 -1      1777 3.89700E+00 2.71750E+01 0.00000E+00
 -1      1778 5.19600E+00 2.79000E+01 0.00000E+00
 -1      1779 3.89700E+00 2.27500E+01 0.00000E+00
 -1      1780 3.89700E+00 2.42250E+01 0.00000E+00
 -1      1781 5.19600E+00 2.49500E+01 0.00000E+00
 -1      1782 3.89700E+00 1.98000E+01 0.00000E+00
 -1      1783 3.89700E+00 2.12750E+01 0.00000E+00
 -1      1784 5.19600E+00 2.20000E+01 0.00000E+00
 -1      1785 3.89700E+00 1.69000E+01 0.00000E+00
 -1      1786 3.89700E+00 1.83500E+01 0.00000E+00
 -1      1787 5.19600E+00 1.90750E+01 0.00000E+00
 -1      1788 3.89700E+00 1.39500E+01 0.00000E+00
 -1      1789 3.89700E+00 1.54250E+01 0.00000E+00
 -1      1790 5.19600E+00 1.61500E+01 0.00000E+00
 -1      1791 3.89700E+00 1.10000E+01 0.00000E+00
 -1      1792 3.89700E+00 1.24750E+01 0.00000E+00
 -1      1793 5.19600E+00 1.32000E+01 0.00000E+00
 -1      1794 3.89700E+00 8.05000E+00 0.00000E+00
 -1      1795 3.89700E+00 9.52500E+00 0.00000E+00
 -1      1796 5.19600E+00 1.02500E+01 0.00000E+00
 -1      1797 3.89700E+00 5.10000E+00 0.00000E+00
 -1      1798 3.89700E+00 6.57500E+00 0.00000E+00
 -1      1799 5.19600E+00 7.30000E+00 0.00000E+00
 -1      1800 4.20450E+00 3.09687E+00 0.00000E+00
 -1      1801 4.06650E+00 4.19063E+00 0.00000E+00
 -1      1802 5.36550E+00 4.91563E+00 0.00000E+00
 -1      1803 5.70450E+00 3.09687E+00 0.00000E+00
 -1      1804 3.62400E+00 4.64885E+01 0.00000E+00
 -1      1805 8.70450E+00 3.09687E+00 0.00000E+00
 -1      1806 7.20450E+00 3.09687E+00 0.00000E+00
 -1      1807 7.03500E+00 4.00625E+00 0.00000E+00
 -1      1808 4.92300E+00 4.57510E+01 0.00000E+00
 -1      1809 8.40000E+00 4.61030E+01 0.00000E+00
 -1      1810 9.90000E+00 4.61030E+01 0.00000E+00
 -1      1811 1.14000E+01 4.61030E+01 0.00000E+00
 -1      1812 1.29000E+01 4.61030E+01 0.00000E+00
 -1      1813 1.06500E+01 4.48040E+01 0.00000E+00
 -1      1814 1.44000E+01 4.61030E+01 0.00000E+00
 -1      1815 1.59000E+01 4.61030E+01 0.00000E+00
 -1      1816 1.36500E+01 4.48040E+01 0.00000E+00
 -1      1817 1.74000E+01 4.61030E+01 0.00000E+00
 -1      1818 1.89000E+01 4.61030E+01 0.00000E+00
 -1      1819 1.66500E+01 4.48040E+01 0.00000E+00
 -1      1820 2.04000E+01 4.61030E+01 0.00000E+00
 -1      1821 2.19000E+01 4.61030E+01 0.00000E+00
 -1      1822 1.96500E+01 4.48040E+01 0.00000E+00
 -1      1823 2.34000E+01 4.61030E+01 0.00000E+00
 -1      1824 2.49000E+01 4.61030E+01 0.00000E+00
 -1      1825 2.26500E+01 4.48040E+01 0.00000E+00
 -1      1826 2.64000E+01 4.61030E+01 0.00000E+00
 -1      1827 2.79000E+01 4.61030E+01 0.00000E+00
 -1      1828 2.56500E+01 4.48040E+01 0.00000E+00
 -1      1829 2.94000E+01 4.61030E+01 0.00000E+00
 -1      1830 3.09000E+01 4.61030E+01 0.00000E+00
 -1      1831 2.86500E+01 4.48040E+01 0.00000E+00
 -1      1832 3.24000E+01 4.61030E+01 0.00000E+00
 -1      1833 3.39000E+01 4.61030E+01 0.00000E+00
 -1      1834 3.16500E+01 4.48040E+01 0.00000E+00
 -1      1835 3.54000E+01 4.61030E+01 0.00000E+00
 -1      1836 3.69000E+01 4.61030E+01 0.00000E+00
 -1      1837 3.46500E+01 4.48040E+01 0.00000E+00
 -1      1838 3.84000E+01 4.61030E+01 0.00000E+00
 -1      1839 3.99000E+01 4.61030E+01 0.00000E+00
 -1      1840 3.76500E+01 4.48040E+01 0.00000E+00
 -1      1841 4.14000E+01 4.61030E+01 0.00000E+00
 -1      1842 4.29000E+01 4.61030E+01 0.00000E+00
 -1      1843 4.06500E+01 4.48040E+01 0.00000E+00
 -1      1844 4.44000E+01 4.61030E+01 0.00000E+00
 -1      1845 4.59000E+01 4.61030E+01 0.00000E+00
 -1      1846 4.36500E+01 4.48040E+01 0.00000E+00
 -1      1847 4.74000E+01 4.61030E+01 0.00000E+00
 -1      1848 4.89000E+01 4.61030E+01 0.00000E+00
 -1      1849 4.66500E+01 4.48040E+01 0.00000E+00
 -1      1850 5.04000E+01 4.61030E+01 0.00000E+00
 -1      1851 5.19000E+01 4.61030E+01 0.00000E+00
 -1      1852 4.96500E+01 4.48040E+01 0.00000E+00
 -1      1853 5.34000E+01 4.61030E+01 0.00000E+00
 -1      1854 5.49000E+01 4.61030E+01 0.00000E+00
 -1      1855 5.26500E+01 4.48040E+01 0.00000E+00
 -1      1856 5.64000E+01 4.61030E+01 0.00000E+00
 -1      1857 5.79000E+01 4.61030E+01 0.00000E+00
 -1      1858 5.56500E+01 4.48040E+01 0.00000E+00
 -1      1859 5.94000E+01 4.61030E+01 0.00000E+00
 -1      1860 6.09000E+01 4.61030E+01 0.00000E+00
 -1      1861 5.86500E+01 4.48040E+01 0.00000E+00
 -1      1862 6.24000E+01 4.61030E+01 0.00000E+00
 -1      1863 6.39000E+01 4.61030E+01 0.00000E+00
 -1      1864 6.16500E+01 4.48040E+01 0.00000E+00
 -1      1865 6.54000E+01 4.61030E+01 0.00000E+00
 -1      1866 6.69000E+01 4.61030E+01 0.00000E+00
 -1      1867 6.46500E+01 4.48040E+01 0.00000E+00
 -1      1868 6.84000E+01 4.61030E+01 0.00000E+00
 -1      1869 6.99000E+01 4.61030E+01 0.00000E+00
 -1      1870 6.76500E+01 4.48040E+01 0.00000E+00
 -1      1871 7.14000E+01 4.61030E+01 0.00000E+00
 -1      1872 7.29000E+01 4.61030E+01 0.00000E+00
 -1      1873 7.06500E+01 4.48040E+01 0.00000E+00
 -1      1874 7.44000E+01 4.61030E+01 0.00000E+00
 -1      1875 7.59000E+01 4.61030E+01 0.00000E+00
 -1      1876 7.36500E+01 4.48040E+01 0.00000E+00
 -1      1877 7.74000E+01 4.61030E+01 0.00000E+00
 -1      1878 7.89000E+01 4.61030E+01 0.00000E+00
 -1      1879 7.66500E+01 4.48040E+01 0.00000E+00
 -1      1880 8.04000E+01 4.61030E+01 0.00000E+00
 -1      1881 8.19000E+01 4.61030E+01 0.00000E+00
 -1      1882 7.96500E+01 4.48040E+01 0.00000E+00
 -1      1883 8.34000E+01 4.61030E+01 0.00000E+00
 -1      1884 8.49000E+01 4.61030E+01 0.00000E+00
 -1      1885 8.26500E+01 4.48040E+01 0.00000E+00
 -1      1886 8.64000E+01 4.61030E+01 0.00000E+00
 -1      1887 8.79000E+01 4.61030E+01 0.00000E+00
 -1      1888 8.56500E+01 4.48040E+01 0.00000E+00
 -1      1889 8.94000E+01 4.61030E+01 0.00000E+00
 -1      1890 9.09000E+01 4.61030E+01 0.00000E+00
 -1      1891 8.86500E+01 4.48040E+01 0.00000E+00
 -1      1892 9.24000E+01 4.61030E+01 0.00000E+00
 -1      1893 9.39000E+01 4.61030E+01 0.00000E+00
 -1      1894 9.16500E+01 4.48040E+01 0.00000E+00
 -1      1895 9.54000E+01 4.61030E+01 0.00000E+00
 -1      1896 9.69000E+01 4.61030E+01 0.00000E+00
 -1      1897 9.46500E+01 4.48040E+01 0.00000E+00
 -1      1898 9.84000E+01 4.61030E+01 0.00000E+00
 -1      1899 9.99000E+01 4.61030E+01 0.00000E+00
 -1      1900 9.76500E+01 4.48040E+01 0.00000E+00
 -1      1901 1.01400E+02 4.61030E+01 0.00000E+00
 -1      1902 1.02900E+02 4.61030E+01 0.00000E+00
 -1      1903 1.00650E+02 4.48040E+01 0.00000E+00
 -1      1904 1.04400E+02 4.61030E+01 0.00000E+00
 -1      1905 1.05900E+02 4.61030E+01 0.00000E+00
 -1      1906 1.03650E+02 4.48040E+01 0.00000E+00
 -1      1907 1.07400E+02 4.61030E+01 0.00000E+00
 -1      1908 1.08900E+02 4.61030E+01 0.00000E+00
 -1      1909 1.06650E+02 4.48040E+01 0.00000E+00
 -1      1910 1.10400E+02 4.61030E+01 0.00000E+00
 -1      1911 1.11900E+02 4.61030E+01 0.00000E+00
 -1      1912 1.09650E+02 4.48040E+01 0.00000E+00
 -1      1913 1.13400E+02 4.61030E+01 0.00000E+00
 -1      1914 1.14900E+02 4.61030E+01 0.00000E+00
 -1      1915 1.12650E+02 4.48040E+01 0.00000E+00
 -1      1916 1.16400E+02 4.61030E+01 0.00000E+00
 -1      1917 1.17900E+02 4.61030E+01 0.00000E+00
 -1      1918 1.15650E+02 4.48040E+01 0.00000E+00
 -1      1919 1.19400E+02 4.61030E+01 0.00000E+00
 -1      1920 1.20900E+02 4.61030E+01 0.00000E+00
 -1      1921 1.18650E+02 4.48040E+01 0.00000E+00
 -1      1922 1.22400E+02 4.61030E+01 0.00000E+00
 -1      1923 1.23900E+02 4.61030E+01 0.00000E+00
 -1      1924 1.21650E+02 4.48040E+01 0.00000E+00
 -1      1925 1.25400E+02 4.61030E+01 0.00000E+00
 -1      1926 1.26900E+02 4.61030E+01 0.00000E+00
 -1      1927 1.24650E+02 4.48040E+01 0.00000E+00
 -1      1928 1.28400E+02 4.61030E+01 0.00000E+00
 -1      1929 1.29900E+02 4.61030E+01 0.00000E+00
 -1      1930 1.27650E+02 4.48040E+01 0.00000E+00
 -1      1931 1.31400E+02 4.61030E+01 0.00000E+00
 -1      1932 1.32900E+02 4.61030E+01 0.00000E+00
 -1      1933 1.30650E+02 4.48040E+01 0.00000E+00
 -1      1934 1.34400E+02 4.61030E+01 0.00000E+00
 -1      1935 1.35900E+02 4.61030E+01 0.00000E+00
 -1      1936 1.33650E+02 4.48040E+01 0.00000E+00
 -1      1937 1.37400E+02 4.61030E+01 0.00000E+00
 -1      1938 1.38900E+02 4.61030E+01 0.00000E+00
 -1      1939 1.36650E+02 4.48040E+01 0.00000E+00
 -1      1940 1.40400E+02 4.61030E+01 0.00000E+00
 -1      1941 1.41900E+02 4.61030E+01 0.00000E+00
 -1      1942 1.39650E+02 4.48040E+01 0.00000E+00
 -1      1943 1.43244E+02 4.61616E+01 0.00000E+00
 -1      1944 1.44744E+02 4.61616E+01 0.00000E+00
 -1      1945 1.45182E+02 4.49799E+01 0.00000E+00
 -1      1946 1.42494E+02 4.48626E+01 0.00000E+00
 -1      1947 1.17045E+01 3.09687E+00 0.00000E+00
 -1      1948 1.02045E+01 3.09687E+00 0.00000E+00
 -1      1949 1.00350E+01 4.00625E+00 0.00000E+00
 -1      1950 1.47045E+01 3.09687E+00 0.00000E+00
 -1      1951 1.32045E+01 3.09687E+00 0.00000E+00
 -1      1952 1.30350E+01 4.00625E+00 0.00000E+00
 -1      1953 1.77045E+01 3.09687E+00 0.00000E+00
 -1      1954 1.62045E+01 3.09687E+00 0.00000E+00
 -1      1955 1.60350E+01 4.00625E+00 0.00000E+00
 -1      1956 2.07045E+01 3.09687E+00 0.00000E+00
 -1      1957 1.92045E+01 3.09687E+00 0.00000E+00
 -1      1958 1.90350E+01 4.00625E+00 0.00000E+00
 -1      1959 2.37045E+01 3.09687E+00 0.00000E+00
 -1      1960 2.22045E+01 3.09687E+00 0.00000E+00
 -1      1961 2.20350E+01 4.00625E+00 0.00000E+00
 -1      1962 2.67045E+01 3.09687E+00 0.00000E+00
 -1      1963 2.52045E+01 3.09687E+00 0.00000E+00
 -1      1964 2.50350E+01 4.00625E+00 0.00000E+00
 -1      1965 2.97045E+01 3.09687E+00 0.00000E+00
 -1      1966 2.82045E+01 3.09687E+00 0.00000E+00
 -1      1967 2.80350E+01 4.00625E+00 0.00000E+00
 -1      1968 3.27045E+01 3.09687E+00 0.00000E+00
 -1      1969 3.12045E+01 3.09687E+00 0.00000E+00
 -1      1970 3.10350E+01 4.00625E+00 0.00000E+00
 -1      1971 3.57045E+01 3.09687E+00 0.00000E+00
 -1      1972 3.42045E+01 3.09687E+00 0.00000E+00
 -1      1973 3.40350E+01 4.00625E+00 0.00000E+00
 -1      1974 3.87045E+01 3.09687E+00 0.00000E+00
 -1      1975 3.72045E+01 3.09687E+00 0.00000E+00
 -1      1976 3.70350E+01 4.00625E+00 0.00000E+00
 -1      1977 4.17045E+01 3.09687E+00 0.00000E+00
 -1      1978 4.02045E+01 3.09687E+00 0.00000E+00
 -1      1979 4.00350E+01 4.00625E+00 0.00000E+00
 -1      1980 4.47045E+01 3.09687E+00 0.00000E+00
 -1      1981 4.32045E+01 3.09687E+00 0.00000E+00
 -1      1982 4.30350E+01 4.00625E+00 0.00000E+00
 -1      1983 4.77045E+01 3.09687E+00 0.00000E+00
 -1      1984 4.62045E+01 3.09687E+00 0.00000E+00
 -1      1985 4.60350E+01 4.00625E+00 0.00000E+00
 -1      1986 5.07045E+01 3.09687E+00 0.00000E+00
 -1      1987 4.92045E+01 3.09687E+00 0.00000E+00
 -1      1988 4.90350E+01 4.00625E+00 0.00000E+00
 -1      1989 5.37045E+01 3.09687E+00 0.00000E+00
 -1      1990 5.22045E+01 3.09687E+00 0.00000E+00
 -1      1991 5.20350E+01 4.00625E+00 0.00000E+00
 -1      1992 5.67045E+01 3.09687E+00 0.00000E+00
 -1      1993 5.52045E+01 3.09687E+00 0.00000E+00
 -1      1994 5.50350E+01 4.00625E+00 0.00000E+00
 -1      1995 5.97045E+01 3.09687E+00 0.00000E+00
 -1      1996 5.82045E+01 3.09687E+00 0.00000E+00
 -1      1997 5.80350E+01 4.00625E+00 0.00000E+00
 -1      1998 6.27045E+01 3.09687E+00 0.00000E+00
 -1      1999 6.12045E+01 3.09687E+00 0.00000E+00
 -1      2000 6.10350E+01 4.00625E+00 0.00000E+00
 -1      2001 6.57045E+01 3.09687E+00 0.00000E+00
 -1      2002 6.42045E+01 3.09687E+00 0.00000E+00
 -1      2003 6.40350E+01 4.00625E+00 0.00000E+00
 -1      2004 6.87045E+01 3.09687E+00 0.00000E+00
 -1      2005 6.72045E+01 3.09687E+00 0.00000E+00
 -1      2006 6.70350E+01 4.00625E+00 0.00000E+00
 -1      2007 7.17045E+01 3.09687E+00 0.00000E+00
 -1      2008 7.02045E+01 3.09687E+00 0.00000E+00
 -1      2009 7.00350E+01 4.00625E+00 0.00000E+00
 -1      2010 7.47045E+01 3.09687E+00 0.00000E+00
 -1      2011 7.32045E+01 3.09687E+00 0.00000E+00
 -1      2012 7.30350E+01 4.00625E+00 0.00000E+00
 -1      2013 7.77045E+01 3.09687E+00 0.00000E+00
 -1      2014 7.62045E+01 3.09687E+00 0.00000E+00
 -1      2015 7.60350E+01 4.00625E+00 0.00000E+00
 -1      2016 8.07045E+01 3.09687E+00 0.00000E+00
 -1      2017 7.92045E+01 3.09687E+00 0.00000E+00
 -1      2018 7.90350E+01 4.00625E+00 0.00000E+00
 -1      2019 8.37045E+01 3.09687E+00 0.00000E+00
 -1      2020 8.22045E+01 3.09687E+00 0.00000E+00
 -1      2021 8.20350E+01 4.00625E+00 0.00000E+00
 -1      2022 8.67045E+01 3.09687E+00 0.00000E+00
 -1      2023 8.52045E+01 3.09687E+00 0.00000E+00
 -1      2024 8.50350E+01 4.00625E+00 0.00000E+00
 -1      2025 8.97045E+01 3.09687E+00 0.00000E+00
 -1      2026 8.82045E+01 3.09687E+00 0.00000E+00
 -1      2027 8.80350E+01 4.00625E+00 0.00000E+00
 -1      2028 9.27045E+01 3.09687E+00 0.00000E+00
 -1      2029 9.12045E+01 3.09687E+00 0.00000E+00
 -1      2030 9.10350E+01 4.00625E+00 0.00000E+00
 -1      2031 9.57045E+01 3.09687E+00 0.00000E+00
 -1      2032 9.42045E+01 3.09687E+00 0.00000E+00
 -1      2033 9.40350E+01 4.00625E+00 0.00000E+00
 -1      2034 9.87045E+01 3.09687E+00 0.00000E+00
 -1      2035 9.72045E+01 3.09687E+00 0.00000E+00
 -1      2036 9.70350E+01 4.00625E+00 0.00000E+00
 -1      2037 1.01704E+02 3.09687E+00 0.00000E+00
 -1      2038 1.00204E+02 3.09687E+00 0.00000E+00
 -1      2039 1.00035E+02 4.00625E+00 0.00000E+00
 -1      2040 1.04704E+02 3.09687E+00 0.00000E+00
 -1      2041 1.03204E+02 3.09687E+00 0.00000E+00
 -1      2042 1.03035E+02 4.00625E+00 0.00000E+00
 -1      2043 1.07704E+02 3.09687E+00 0.00000E+00
 -1      2044 1.06204E+02 3.09687E+00 0.00000E+00
 -1      2045 1.06035E+02 4.00625E+00 0.00000E+00
 -1      2046 1.10704E+02 3.09687E+00 0.00000E+00
 -1      2047 1.09204E+02 3.09687E+00 0.00000E+00
 -1      2048 1.09035E+02 4.00625E+00 0.00000E+00
 -1      2049 1.13704E+02 3.09687E+00 0.00000E+00
 -1      2050 1.12204E+02 3.09687E+00 0.00000E+00
 -1      2051 1.12035E+02 4.00625E+00 0.00000E+00
 -1      2052 1.16704E+02 3.09687E+00 0.00000E+00
 -1      2053 1.15204E+02 3.09687E+00 0.00000E+00
 -1      2054 1.15035E+02 4.00625E+00 0.00000E+00
 -1      2055 1.19704E+02 3.09687E+00 0.00000E+00
 -1      2056 1.18204E+02 3.09687E+00 0.00000E+00
 -1      2057 1.18035E+02 4.00625E+00 0.00000E+00
 -1      2058 1.22704E+02 3.09687E+00 0.00000E+00
 -1      2059 1.21204E+02 3.09687E+00 0.00000E+00
 -1      2060 1.21035E+02 4.00625E+00 0.00000E+00
 -1      2061 1.25704E+02 3.09687E+00 0.00000E+00
 -1      2062 1.24204E+02 3.09687E+00 0.00000E+00
 -1      2063 1.24035E+02 4.00625E+00 0.00000E+00
 -1      2064 1.28704E+02 3.09687E+00 0.00000E+00
 -1      2065 1.27204E+02 3.09687E+00 0.00000E+00
 -1      2066 1.27035E+02 4.00625E+00 0.00000E+00
 -1      2067 1.31704E+02 3.09687E+00 0.00000E+00
 -1      2068 1.30204E+02 3.09687E+00 0.00000E+00
 -1      2069 1.30035E+02 4.00625E+00 0.00000E+00
 -1      2070 1.34704E+02 3.09687E+00 0.00000E+00
 -1      2071 1.33204E+02 3.09687E+00 0.00000E+00
 -1      2072 1.33035E+02 4.00625E+00 0.00000E+00
 -1      2073 1.37704E+02 3.09687E+00 0.00000E+00
 -1      2074 1.36204E+02 3.09687E+00 0.00000E+00
 -1      2075 1.36035E+02 4.00625E+00 0.00000E+00
 -1      2076 1.40704E+02 3.09687E+00 0.00000E+00
 -1      2077 1.39204E+02 3.09687E+00 0.00000E+00
 -1      2078 1.39035E+02 4.00625E+00 0.00000E+00
 -1      2079 1.43704E+02 3.09687E+00 0.00000E+00
 -1      2080 1.42204E+02 3.09687E+00 0.00000E+00
 -1      2081 1.42035E+02 4.00625E+00 0.00000E+00
 -1      2082 1.46171E+02 3.20156E+00 0.00000E+00
 -1      2083 1.44671E+02 3.20156E+00 0.00000E+00
 -1      2084 1.44502E+02 4.11094E+00 0.00000E+00
 -1      2085 1.46435E+02 4.32031E+00 0.00000E+00
 -1      2086 1.46103E+02 1.25375E+01 0.00000E+00
 -1      2087 1.46103E+02 1.10625E+01 0.00000E+00
 -1      2088 1.46103E+02 9.58750E+00 0.00000E+00
 -1      2089 1.46103E+02 8.11250E+00 0.00000E+00
 -1      2090 1.44804E+02 1.03250E+01 0.00000E+00
 -1      2091 1.46269E+02 6.95391E+00 0.00000E+00
 -1      2092 1.46269E+02 5.47891E+00 0.00000E+00
 -1      2093 1.45302E+02 5.37422E+00 0.00000E+00
 -1      2094 1.44970E+02 7.69141E+00 0.00000E+00
 -1      2095 1.46103E+02 1.54375E+01 0.00000E+00
 -1      2096 1.46103E+02 1.39875E+01 0.00000E+00
 -1      2097 1.44804E+02 1.32500E+01 0.00000E+00
 -1      2098 1.46103E+02 1.83875E+01 0.00000E+00
 -1      2099 1.46103E+02 1.69125E+01 0.00000E+00
 -1      2100 1.44804E+02 1.61750E+01 0.00000E+00
 -1      2101 1.46103E+02 2.13375E+01 0.00000E+00
 -1      2102 1.46103E+02 1.98625E+01 0.00000E+00
 -1      2103 1.44804E+02 1.91250E+01 0.00000E+00
 -1      2104 1.46103E+02 2.42875E+01 0.00000E+00
 -1      2105 1.46103E+02 2.28125E+01 0.00000E+00
 -1      2106 1.44804E+02 2.20750E+01 0.00000E+00
 -1      2107 1.46103E+02 2.72375E+01 0.00000E+00
 -1      2108 1.46103E+02 2.57625E+01 0.00000E+00
 -1      2109 1.44804E+02 2.50250E+01 0.00000E+00
 -1      2110 1.46103E+02 3.01875E+01 0.00000E+00
 -1      2111 1.46103E+02 2.87125E+01 0.00000E+00
 -1      2112 1.44804E+02 2.79750E+01 0.00000E+00
 -1      2113 1.46103E+02 3.30875E+01 0.00000E+00
 -1      2114 1.46103E+02 3.16375E+01 0.00000E+00
 -1      2115 1.44804E+02 3.09000E+01 0.00000E+00
 -1      2116 1.46103E+02 3.60375E+01 0.00000E+00
 -1      2117 1.46103E+02 3.45625E+01 0.00000E+00
 -1      2118 1.44804E+02 3.38250E+01 0.00000E+00
 -1      2119 1.46103E+02 3.89875E+01 0.00000E+00
 -1      2120 1.46103E+02 3.75125E+01 0.00000E+00
 -1      2121 1.44804E+02 3.67750E+01 0.00000E+00
 -1      2122 1.46103E+02 4.19375E+01 0.00000E+00
 -1      2123 1.46103E+02 4.04625E+01 0.00000E+00
 -1      2124 1.44804E+02 3.97250E+01 0.00000E+00
 -1      2125 3.84877E+01 1.69397E+01 0.00000E+00
 -1      2126 3.89409E+01 1.77349E+01 0.00000E+00
 -1      2127 3.95015E+01 2.07165E+01 0.00000E+00
 -1      2128 3.94654E+01 2.15383E+01 0.00000E+00
 -1      2129 3.92866E+01 1.89397E+01 0.00000E+00
 -1      2130 3.93940E+01 1.98281E+01 0.00000E+00
 -1      2131 4.01490E+01 2.02729E+01 0.00000E+00
 -1      2132 3.73363E+01 1.54654E+01 0.00000E+00
 -1      2133 3.78844E+01 1.61329E+01 0.00000E+00
 -1      2134 3.62111E+01 1.40531E+01 0.00000E+00
 -1      2135 3.67737E+01 1.47592E+01 0.00000E+00
 -1      2136 3.75810E+01 1.46551E+01 0.00000E+00
 -1      2137 3.89700E+00 3.74688E+01 0.00000E+00
 -1      2138 3.89700E+00 3.89437E+01 0.00000E+00
 -1      2139 5.19600E+00 3.96813E+01 0.00000E+00
 -1      2140 5.19600E+00 3.67438E+01 0.00000E+00
 -1      2141 3.26929E+01 1.25636E+01 0.00000E+00
 -1      2142 3.34934E+01 1.28056E+01 0.00000E+00
 -1      2143 3.09146E+01 1.20888E+01 0.00000E+00
 -1      2144 3.18038E+01 1.23262E+01 0.00000E+00
 -1      2145 3.24036E+01 1.17867E+01 0.00000E+00
 -1      2146 2.88213E+01 1.23640E+01 0.00000E+00
 -1      2147 2.97032E+01 1.21234E+01 0.00000E+00
 -1      2148 2.71187E+01 1.29102E+01 0.00000E+00
 -1      2149 2.78869E+01 1.25922E+01 0.00000E+00
 -1      2150 2.55468E+01 1.36909E+01 0.00000E+00
 -1      2151 2.63328E+01 1.33005E+01 0.00000E+00
 -1      2152 2.64370E+01 1.24653E+01 0.00000E+00
 -1      2153 2.40069E+01 1.50617E+01 0.00000E+00
 -1      2154 2.45959E+01 1.43845E+01 0.00000E+00
 -1      2155 2.28155E+01 1.63988E+01 0.00000E+00
 -1      2156 2.34112E+01 1.57303E+01 0.00000E+00
 -1      2157 2.31535E+01 1.49114E+01 0.00000E+00
 -1      2158 2.19180E+01 1.83516E+01 0.00000E+00
 -1      2159 2.21324E+01 1.74618E+01 0.00000E+00
 -1      2160 2.16416E+01 2.00677E+01 0.00000E+00
 -1      2161 2.17798E+01 1.92097E+01 0.00000E+00
 -1      2162 2.10533E+01 1.85639E+01 0.00000E+00
 -1      2163 2.15032E+01 2.19974E+01 0.00000E+00
 -1      2164 2.15364E+01 2.11209E+01 0.00000E+00
 -1      2165 2.21572E+01 2.39221E+01 0.00000E+00
 -1      2166 2.18492E+01 2.31039E+01 0.00000E+00
 -1      2167 2.28734E+01 2.55289E+01 0.00000E+00
 -1      2168 2.24936E+01 2.47880E+01 0.00000E+00
 -1      2169 2.37558E+01 2.71511E+01 0.00000E+00
 -1      2170 2.32537E+01 2.64124E+01 0.00000E+00
 -1      2171 2.51961E+01 2.86065E+01 0.00000E+00
 -1      2172 2.44999E+01 2.79530E+01 0.00000E+00
 -1      2173 2.71575E+01 2.94593E+01 0.00000E+00
 -1      2174 2.62856E+01 2.91379E+01 0.00000E+00
 -1      2175 2.89837E+01 3.00672E+01 0.00000E+00
 -1      2176 2.80932E+01 2.98670E+01 0.00000E+00
 -1      2177 3.09504E+01 2.99914E+01 0.00000E+00
 -1      2178 3.00877E+01 3.00637E+01 0.00000E+00
 -1      2179 3.26150E+01 2.98242E+01 0.00000E+00
 -1      2180 3.17827E+01 2.99078E+01 0.00000E+00
 -1      2181 3.14090E+01 3.06315E+01 0.00000E+00
 -1      2182 3.43997E+01 2.91214E+01 0.00000E+00
 -1      2183 3.36779E+01 2.95120E+01 0.00000E+00
 -1      2184 3.57055E+01 2.82378E+01 0.00000E+00
 -1      2185 3.50526E+01 2.86796E+01 0.00000E+00
 -1      2186 3.50201E+01 2.94817E+01 0.00000E+00
 -1      2187 3.71309E+01 2.71824E+01 0.00000E+00
 -1      2188 3.64948E+01 2.77063E+01 0.00000E+00
 -1      2189 3.82635E+01 2.56647E+01 0.00000E+00
 -1      2190 3.78849E+01 2.63864E+01 0.00000E+00
 -1      2191 3.89432E+01 2.42193E+01 0.00000E+00
 -1      2192 3.86034E+01 2.49420E+01 0.00000E+00
 -1      2193 3.90993E+01 2.56623E+01 0.00000E+00
 -1      2194 3.93519E+01 2.23302E+01 0.00000E+00
 -1      2195 3.92384E+01 2.31221E+01 0.00000E+00
 -1      2196 4.01429E+01 2.19532E+01 0.00000E+00
 -1      2197 3.43483E+01 1.30906E+01 0.00000E+00
 -1      2198 3.52031E+01 1.33757E+01 0.00000E+00
 -1      2199 3.41476E+01 1.23092E+01 0.00000E+00
 -1      2200 3.60104E+01 1.32716E+01 0.00000E+00
 -1      2201 3.68177E+01 1.31675E+01 0.00000E+00
 -1      2202 3.58098E+01 1.24902E+01 0.00000E+00
 -1      2203 6.42300E+00 4.57510E+01 0.00000E+00
 -1      2204 2.47001E+01 1.35493E+01 0.00000E+00
 -1      2205 7.17300E+00 4.44520E+01 0.00000E+00
 -1      2206 3.96959E+01 1.81798E+01 0.00000E+00
 -1      2207 4.04508E+01 1.86246E+01 0.00000E+00
 -1      2208 4.01051E+01 1.74198E+01 0.00000E+00
 -1      2209 3.87469E+01 1.61681E+01 0.00000E+00
 -1      2210 1.45665E+02 4.31193E+01 0.00000E+00
 -1      2211 3.97343E+01 2.38424E+01 0.00000E+00
 -1      2212 3.64622E+01 2.85084E+01 0.00000E+00
 -1      2213 3.33042E+01 3.02358E+01 0.00000E+00
 -1      2214 2.94727E+01 3.07185E+01 0.00000E+00
 -1      2215 2.74331E+01 3.03143E+01 0.00000E+00
 -1      2216 2.54079E+01 2.93753E+01 0.00000E+00
 -1      2217 2.45303E+01 2.96127E+01 0.00000E+00
 -1      2218 2.56197E+01 3.01441E+01 0.00000E+00
 -1      2219 2.35743E+01 2.80421E+01 0.00000E+00
 -1      2220 2.24498E+01 2.63567E+01 0.00000E+00
 -1      2221 2.17331E+01 2.46073E+01 0.00000E+00
 -1      2222 2.08099E+01 2.04751E+01 0.00000E+00
 -1      2223 2.18746E+01 1.66429E+01 0.00000E+00
 -1      2224 2.96915E+01 1.10789E+01 0.00000E+00
 -1      2225 3.03031E+01 1.15838E+01 0.00000E+00
 -1      2226 3.09029E+01 1.10443E+01 0.00000E+00
 -1      2227 2.81573E+01 1.18467E+01 0.00000E+00
 -1      2228 2.10507E+01 2.26348E+01 0.00000E+00
 -1      2229 3.80054E+01 2.71810E+01 0.00000E+00
 -1      2230 1.07850E+01 5.30525E+00 0.00000E+00
 -1      2231 9.28500E+00 5.30525E+00 0.00000E+00
 -1      2232 6.49500E+00 3.01125E+01 0.00000E+00
 -1      2233 6.49500E+00 3.15875E+01 0.00000E+00
 -1      2234 6.49500E+00 3.30625E+01 0.00000E+00
 -1      2235 6.49500E+00 3.45375E+01 0.00000E+00
 -1      2236 7.79400E+00 3.23250E+01 0.00000E+00
 -1      2237 6.49500E+00 2.42125E+01 0.00000E+00
 -1      2238 6.49500E+00 2.56875E+01 0.00000E+00
 -1      2239 6.49500E+00 2.12625E+01 0.00000E+00
 -1      2240 6.49500E+00 2.27375E+01 0.00000E+00
 -1      2241 7.79400E+00 2.34750E+01 0.00000E+00
 -1      2242 6.49500E+00 1.83625E+01 0.00000E+00
 -1      2243 6.49500E+00 1.98125E+01 0.00000E+00
 -1      2244 7.79400E+00 2.05500E+01 0.00000E+00
 -1      2245 6.49500E+00 1.54125E+01 0.00000E+00
 -1      2246 6.49500E+00 1.68875E+01 0.00000E+00
 -1      2247 7.79400E+00 1.76250E+01 0.00000E+00
 -1      2248 6.49500E+00 1.24625E+01 0.00000E+00
 -1      2249 6.49500E+00 1.39375E+01 0.00000E+00
 -1      2250 7.79400E+00 1.46750E+01 0.00000E+00
 -1      2251 6.49500E+00 9.51250E+00 0.00000E+00
 -1      2252 6.49500E+00 1.09875E+01 0.00000E+00
 -1      2253 7.79400E+00 1.17250E+01 0.00000E+00
 -1      2254 1.37850E+01 5.30525E+00 0.00000E+00
 -1      2255 1.22850E+01 5.30525E+00 0.00000E+00
 -1      2256 1.15350E+01 6.60425E+00 0.00000E+00
 -1      2257 9.90000E+00 4.35050E+01 0.00000E+00
 -1      2258 1.14000E+01 4.35050E+01 0.00000E+00
 -1      2259 2.37440E+01 1.32370E+01 0.00000E+00
 -1      2260 2.46949E+01 1.25435E+01 0.00000E+00
 -1      2261 1.29000E+01 4.35050E+01 0.00000E+00
 -1      2262 1.44000E+01 4.35050E+01 0.00000E+00
 -1      2263 1.21500E+01 4.22060E+01 0.00000E+00
 -1      2264 1.59000E+01 4.35050E+01 0.00000E+00
 -1      2265 1.74000E+01 4.35050E+01 0.00000E+00
 -1      2266 1.51500E+01 4.22060E+01 0.00000E+00
 -1      2267 1.89000E+01 4.35050E+01 0.00000E+00
 -1      2268 2.04000E+01 4.35050E+01 0.00000E+00
 -1      2269 1.81500E+01 4.22060E+01 0.00000E+00
 -1      2270 2.19000E+01 4.35050E+01 0.00000E+00
 -1      2271 2.34000E+01 4.35050E+01 0.00000E+00
 -1      2272 2.11500E+01 4.22060E+01 0.00000E+00
 -1      2273 2.49000E+01 4.35050E+01 0.00000E+00
 -1      2274 2.64000E+01 4.35050E+01 0.00000E+00
 -1      2275 2.41500E+01 4.22060E+01 0.00000E+00
 -1      2276 2.79000E+01 4.35050E+01 0.00000E+00
 -1      2277 2.94000E+01 4.35050E+01 0.00000E+00
 -1      2278 2.71500E+01 4.22060E+01 0.00000E+00
 -1      2279 3.09000E+01 4.35050E+01 0.00000E+00
 -1      2280 3.24000E+01 4.35050E+01 0.00000E+00
 -1      2281 3.01500E+01 4.22060E+01 0.00000E+00
 -1      2282 3.39000E+01 4.35050E+01 0.00000E+00
 -1      2283 3.54000E+01 4.35050E+01 0.00000E+00
 -1      2284 3.31500E+01 4.22060E+01 0.00000E+00
 -1      2285 3.69000E+01 4.35050E+01 0.00000E+00
 -1      2286 3.84000E+01 4.35050E+01 0.00000E+00
 -1      2287 3.61500E+01 4.22060E+01 0.00000E+00
 -1      2288 3.99000E+01 4.35050E+01 0.00000E+00
 -1      2289 4.14000E+01 4.35050E+01 0.00000E+00
 -1      2290 3.91500E+01 4.22060E+01 0.00000E+00
 -1      2291 4.29000E+01 4.35050E+01 0.00000E+00
 -1      2292 4.44000E+01 4.35050E+01 0.00000E+00
 -1      2293 4.21500E+01 4.22060E+01 0.00000E+00
 -1      2294 4.59000E+01 4.35050E+01 0.00000E+00
 -1      2295 4.74000E+01 4.35050E+01 0.00000E+00
 -1      2296 4.51500E+01 4.22060E+01 0.00000E+00
 -1      2297 4.89000E+01 4.35050E+01 0.00000E+00
 -1      2298 5.04000E+01 4.35050E+01 0.00000E+00
 -1      2299 4.81500E+01 4.22060E+01 0.00000E+00
 -1      2300 5.19000E+01 4.35050E+01 0.00000E+00
 -1      2301 5.34000E+01 4.35050E+01 0.00000E+00
 -1      2302 5.11500E+01 4.22060E+01 0.00000E+00
 -1      2303 5.49000E+01 4.35050E+01 0.00000E+00
 -1      2304 5.64000E+01 4.35050E+01 0.00000E+00
 -1      2305 5.41500E+01 4.22060E+01 0.00000E+00
 -1      2306 5.79000E+01 4.35050E+01 0.00000E+00
 -1      2307 5.94000E+01 4.35050E+01 0.00000E+00
 -1      2308 5.71500E+01 4.22060E+01 0.00000E+00
 -1      2309 6.09000E+01 4.35050E+01 0.00000E+00
 -1      2310 6.24000E+01 4.35050E+01 0.00000E+00
 -1      2311 6.01500E+01 4.22060E+01 0.00000E+00
 -1      2312 6.39000E+01 4.35050E+01 0.00000E+00
 -1      2313 6.54000E+01 4.35050E+01 0.00000E+00
 -1      2314 6.31500E+01 4.22060E+01 0.00000E+00
 -1      2315 6.69000E+01 4.35050E+01 0.00000E+00
 -1      2316 6.84000E+01 4.35050E+01 0.00000E+00
 -1      2317 6.61500E+01 4.22060E+01 0.00000E+00
 -1      2318 6.99000E+01 4.35050E+01 0.00000E+00
 -1      2319 7.14000E+01 4.35050E+01 0.00000E+00
 -1      2320 6.91500E+01 4.22060E+01 0.00000E+00
 -1      2321 7.29000E+01 4.35050E+01 0.00000E+00
 -1      2322 7.44000E+01 4.35050E+01 0.00000E+00
 -1      2323 7.21500E+01 4.22060E+01 0.00000E+00
 -1      2324 7.59000E+01 4.35050E+01 0.00000E+00
 -1      2325 7.74000E+01 4.35050E+01 0.00000E+00
 -1      2326 7.51500E+01 4.22060E+01 0.00000E+00
 -1      2327 7.89000E+01 4.35050E+01 0.00000E+00
 -1      2328 8.04000E+01 4.35050E+01 0.00000E+00
 -1      2329 7.81500E+01 4.22060E+01 0.00000E+00
 -1      2330 8.19000E+01 4.35050E+01 0.00000E+00
 -1      2331 8.34000E+01 4.35050E+01 0.00000E+00
 -1      2332 8.11500E+01 4.22060E+01 0.00000E+00
 -1      2333 8.49000E+01 4.35050E+01 0.00000E+00
 -1      2334 8.64000E+01 4.35050E+01 0.00000E+00
 -1      2335 8.41500E+01 4.22060E+01 0.00000E+00
 -1      2336 8.79000E+01 4.35050E+01 0.00000E+00
 -1      2337 8.94000E+01 4.35050E+01 0.00000E+00
 -1      2338 8.71500E+01 4.22060E+01 0.00000E+00
 -1      2339 9.09000E+01 4.35050E+01 0.00000E+00
 -1      2340 9.24000E+01 4.35050E+01 0.00000E+00
 -1      2341 9.01500E+01 4.22060E+01 0.00000E+00
 -1      2342 9.39000E+01 4.35050E+01 0.00000E+00
 -1      2343 9.54000E+01 4.35050E+01 0.00000E+00
 -1      2344 9.31500E+01 4.22060E+01 0.00000E+00
 -1      2345 9.69000E+01 4.35050E+01 0.00000E+00
 -1      2346 9.84000E+01 4.35050E+01 0.00000E+00
 -1      2347 9.61500E+01 4.22060E+01 0.00000E+00
 -1      2348 9.99000E+01 4.35050E+01 0.00000E+00
 -1      2349 1.01400E+02 4.35050E+01 0.00000E+00
 -1      2350 9.91500E+01 4.22060E+01 0.00000E+00
 -1      2351 1.02900E+02 4.35050E+01 0.00000E+00
 -1      2352 1.04400E+02 4.35050E+01 0.00000E+00
 -1      2353 1.02150E+02 4.22060E+01 0.00000E+00
 -1      2354 1.05900E+02 4.35050E+01 0.00000E+00
 -1      2355 1.07400E+02 4.35050E+01 0.00000E+00
 -1      2356 1.05150E+02 4.22060E+01 0.00000E+00
 -1      2357 1.08900E+02 4.35050E+01 0.00000E+00
 -1      2358 1.10400E+02 4.35050E+01 0.00000E+00
 -1      2359 1.08150E+02 4.22060E+01 0.00000E+00
 -1      2360 1.11900E+02 4.35050E+01 0.00000E+00
 -1      2361 1.13400E+02 4.35050E+01 0.00000E+00
 -1      2362 1.11150E+02 4.22060E+01 0.00000E+00
 -1      2363 1.14900E+02 4.35050E+01 0.00000E+00
 -1      2364 1.16400E+02 4.35050E+01 0.00000E+00
 -1      2365 1.14150E+02 4.22060E+01 0.00000E+00
 -1      2366 1.17900E+02 4.35050E+01 0.00000E+00
 -1      2367 1.19400E+02 4.35050E+01 0.00000E+00
 -1      2368 1.17150E+02 4.22060E+01 0.00000E+00
 -1      2369 1.20900E+02 4.35050E+01 0.00000E+00
 -1      2370 1.22400E+02 4.35050E+01 0.00000E+00
 -1      2371 1.20150E+02 4.22060E+01 0.00000E+00
 -1      2372 1.23900E+02 4.35050E+01 0.00000E+00
 -1      2373 1.25400E+02 4.35050E+01 0.00000E+00
 -1      2374 1.23150E+02 4.22060E+01 0.00000E+00
 -1      2375 1.26900E+02 4.35050E+01 0.00000E+00
 -1      2376 1.28400E+02 4.35050E+01 0.00000E+00
 -1      2377 1.26150E+02 4.22060E+01 0.00000E+00
 -1      2378 1.29900E+02 4.35050E+01 0.00000E+00
 -1      2379 1.31400E+02 4.35050E+01 0.00000E+00
 -1      2380 1.29150E+02 4.22060E+01 0.00000E+00
 -1      2381 1.32900E+02 4.35050E+01 0.00000E+00
 -1      2382 1.34400E+02 4.35050E+01 0.00000E+00
 -1      2383 1.32150E+02 4.22060E+01 0.00000E+00
 -1      2384 1.35900E+02 4.35050E+01 0.00000E+00
 -1      2385 1.37400E+02 4.35050E+01 0.00000E+00
 -1      2386 1.35150E+02 4.22060E+01 0.00000E+00
 -1      2387 1.38900E+02 4.35050E+01 0.00000E+00
 -1      2388 1.40400E+02 4.35050E+01 0.00000E+00
 -1      2389 1.38150E+02 4.22060E+01 0.00000E+00
 -1      2390 1.97850E+01 5.30525E+00 0.00000E+00
 -1      2391 1.82850E+01 5.30525E+00 0.00000E+00
 -1      2392 2.27850E+01 5.30525E+00 0.00000E+00
 -1      2393 2.12850E+01 5.30525E+00 0.00000E+00
 -1      2394 2.05350E+01 6.60425E+00 0.00000E+00
 -1      2395 2.57850E+01 5.30525E+00 0.00000E+00
 -1      2396 2.42850E+01 5.30525E+00 0.00000E+00
 -1      2397 2.35350E+01 6.60425E+00 0.00000E+00
 -1      2398 2.87850E+01 5.30525E+00 0.00000E+00
 -1      2399 2.72850E+01 5.30525E+00 0.00000E+00
 -1      2400 2.65350E+01 6.60425E+00 0.00000E+00
 -1      2401 3.17850E+01 5.30525E+00 0.00000E+00
 -1      2402 3.02850E+01 5.30525E+00 0.00000E+00
 -1      2403 2.95350E+01 6.60425E+00 0.00000E+00
 -1      2404 3.47850E+01 5.30525E+00 0.00000E+00
 -1      2405 3.32850E+01 5.30525E+00 0.00000E+00
 -1      2406 3.25350E+01 6.60425E+00 0.00000E+00
 -1      2407 3.77850E+01 5.30525E+00 0.00000E+00
 -1      2408 3.62850E+01 5.30525E+00 0.00000E+00
 -1      2409 3.55350E+01 6.60425E+00 0.00000E+00
 -1      2410 4.07850E+01 5.30525E+00 0.00000E+00
 -1      2411 3.92850E+01 5.30525E+00 0.00000E+00
 -1      2412 3.85350E+01 6.60425E+00 0.00000E+00
 -1      2413 4.37850E+01 5.30525E+00 0.00000E+00
 -1      2414 4.22850E+01 5.30525E+00 0.00000E+00
 -1      2415 4.15350E+01 6.60425E+00 0.00000E+00
 -1      2416 4.67850E+01 5.30525E+00 0.00000E+00
 -1      2417 4.52850E+01 5.30525E+00 0.00000E+00
 -1      2418 4.45350E+01 6.60425E+00 0.00000E+00
 -1      2419 4.97850E+01 5.30525E+00 0.00000E+00
 -1      2420 4.82850E+01 5.30525E+00 0.00000E+00
 -1      2421 4.75350E+01 6.60425E+00 0.00000E+00
 -1      2422 5.27850E+01 5.30525E+00 0.00000E+00
 -1      2423 5.12850E+01 5.30525E+00 0.00000E+00
 -1      2424 5.05350E+01 6.60425E+00 0.00000E+00
 -1      2425 5.57850E+01 5.30525E+00 0.00000E+00
 -1      2426 5.42850E+01 5.30525E+00 0.00000E+00
 -1      2427 5.35350E+01 6.60425E+00 0.00000E+00
 -1      2428 5.87850E+01 5.30525E+00 0.00000E+00
 -1      2429 5.72850E+01 5.30525E+00 0.00000E+00
 -1      2430 5.65350E+01 6.60425E+00 0.00000E+00
 -1      2431 6.17850E+01 5.30525E+00 0.00000E+00
 -1      2432 6.02850E+01 5.30525E+00 0.00000E+00
 -1      2433 5.95350E+01 6.60425E+00 0.00000E+00
 -1      2434 6.47850E+01 5.30525E+00 0.00000E+00
 -1      2435 6.32850E+01 5.30525E+00 0.00000E+00
 -1      2436 6.25350E+01 6.60425E+00 0.00000E+00
 -1      2437 6.77850E+01 5.30525E+00 0.00000E+00
 -1      2438 6.62850E+01 5.30525E+00 0.00000E+00
 -1      2439 6.55350E+01 6.60425E+00 0.00000E+00
 -1      2440 7.07850E+01 5.30525E+00 0.00000E+00
 -1      2441 6.92850E+01 5.30525E+00 0.00000E+00
 -1      2442 6.85350E+01 6.60425E+00 0.00000E+00
 -1      2443 7.37850E+01 5.30525E+00 0.00000E+00
 -1      2444 7.22850E+01 5.30525E+00 0.00000E+00
 -1      2445 7.15350E+01 6.60425E+00 0.00000E+00
 -1      2446 7.67850E+01 5.30525E+00 0.00000E+00
 -1      2447 7.52850E+01 5.30525E+00 0.00000E+00
 -1      2448 7.45350E+01 6.60425E+00 0.00000E+00
 -1      2449 7.97850E+01 5.30525E+00 0.00000E+00
 -1      2450 7.82850E+01 5.30525E+00 0.00000E+00
 -1      2451 7.75350E+01 6.60425E+00 0.00000E+00
 -1      2452 8.27850E+01 5.30525E+00 0.00000E+00
 -1      2453 8.12850E+01 5.30525E+00 0.00000E+00
 -1      2454 8.05350E+01 6.60425E+00 0.00000E+00
 -1      2455 8.57850E+01 5.30525E+00 0.00000E+00
 -1      2456 8.42850E+01 5.30525E+00 0.00000E+00
 -1      2457 8.35350E+01 6.60425E+00 0.00000E+00
 -1      2458 8.87850E+01 5.30525E+00 0.00000E+00
 -1      2459 8.72850E+01 5.30525E+00 0.00000E+00
 -1      2460 8.65350E+01 6.60425E+00 0.00000E+00
 -1      2461 9.17850E+01 5.30525E+00 0.00000E+00
 -1      2462 9.02850E+01 5.30525E+00 0.00000E+00
 -1      2463 8.95350E+01 6.60425E+00 0.00000E+00
 -1      2464 9.47850E+01 5.30525E+00 0.00000E+00
 -1      2465 9.32850E+01 5.30525E+00 0.00000E+00
 -1      2466 9.25350E+01 6.60425E+00 0.00000E+00
 -1      2467 9.77850E+01 5.30525E+00 0.00000E+00
 -1      2468 9.62850E+01 5.30525E+00 0.00000E+00
 -1      2469 9.55350E+01 6.60425E+00 0.00000E+00
 -1      2470 1.00785E+02 5.30525E+00 0.00000E+00
 -1      2471 9.92850E+01 5.30525E+00 0.00000E+00
 -1      2472 9.85350E+01 6.60425E+00 0.00000E+00
 -1      2473 1.03785E+02 5.30525E+00 0.00000E+00
 -1      2474 1.02285E+02 5.30525E+00 0.00000E+00
 -1      2475 1.01535E+02 6.60425E+00 0.00000E+00
 -1      2476 1.06785E+02 5.30525E+00 0.00000E+00
 -1      2477 1.05285E+02 5.30525E+00 0.00000E+00
 -1      2478 1.04535E+02 6.60425E+00 0.00000E+00
 -1      2479 1.09785E+02 5.30525E+00 0.00000E+00
 -1      2480 1.08285E+02 5.30525E+00 0.00000E+00
 -1      2481 1.07535E+02 6.60425E+00 0.00000E+00
 -1      2482 1.12785E+02 5.30525E+00 0.00000E+00
 -1      2483 1.11285E+02 5.30525E+00 0.00000E+00
 -1      2484 1.10535E+02 6.60425E+00 0.00000E+00
 -1      2485 1.15785E+02 5.30525E+00 0.00000E+00
 -1      2486 1.14285E+02 5.30525E+00 0.00000E+00
 -1      2487 1.13535E+02 6.60425E+00 0.00000E+00
 -1      2488 1.18785E+02 5.30525E+00 0.00000E+00
 -1      2489 1.17285E+02 5.30525E+00 0.00000E+00
 -1      2490 1.16535E+02 6.60425E+00 0.00000E+00
 -1      2491 1.21785E+02 5.30525E+00 0.00000E+00
 -1      2492 1.20285E+02 5.30525E+00 0.00000E+00
 -1      2493 1.19535E+02 6.60425E+00 0.00000E+00
 -1      2494 1.24785E+02 5.30525E+00 0.00000E+00
 -1      2495 1.23285E+02 5.30525E+00 0.00000E+00
 -1      2496 1.22535E+02 6.60425E+00 0.00000E+00
 -1      2497 1.27785E+02 5.30525E+00 0.00000E+00
 -1      2498 1.26285E+02 5.30525E+00 0.00000E+00
 -1      2499 1.25535E+02 6.60425E+00 0.00000E+00
 -1      2500 1.30785E+02 5.30525E+00 0.00000E+00
 -1      2501 1.29285E+02 5.30525E+00 0.00000E+00
 -1      2502 1.28535E+02 6.60425E+00 0.00000E+00
 -1      2503 1.33785E+02 5.30525E+00 0.00000E+00
 -1      2504 1.32285E+02 5.30525E+00 0.00000E+00
 -1      2505 1.31535E+02 6.60425E+00 0.00000E+00
 -1      2506 1.36785E+02 5.30525E+00 0.00000E+00
 -1      2507 1.35285E+02 5.30525E+00 0.00000E+00
 -1      2508 1.34535E+02 6.60425E+00 0.00000E+00
 -1      2509 1.39785E+02 5.30525E+00 0.00000E+00
 -1      2510 1.38285E+02 5.30525E+00 0.00000E+00
 -1      2511 1.37535E+02 6.60425E+00 0.00000E+00
 -1      2512 1.42785E+02 5.30525E+00 0.00000E+00
 -1      2513 1.41285E+02 5.30525E+00 0.00000E+00
 -1      2514 1.40535E+02 6.60425E+00 0.00000E+00
 -1      2515 1.44336E+02 5.26953E+00 0.00000E+00
 -1      2516 1.43505E+02 1.69125E+01 0.00000E+00
 -1      2517 1.43505E+02 1.54375E+01 0.00000E+00
 -1      2518 1.43505E+02 1.98625E+01 0.00000E+00
 -1      2519 1.43505E+02 1.83875E+01 0.00000E+00
 -1      2520 1.42206E+02 1.76500E+01 0.00000E+00
 -1      2521 1.43505E+02 1.10625E+01 0.00000E+00
 -1      2522 1.43505E+02 9.58750E+00 0.00000E+00
 -1      2523 1.43505E+02 1.39750E+01 0.00000E+00
 -1      2524 1.43505E+02 1.25250E+01 0.00000E+00
 -1      2525 1.42206E+02 1.17875E+01 0.00000E+00
 -1      2526 1.42206E+02 1.47125E+01 0.00000E+00
 -1      2527 1.43505E+02 2.28125E+01 0.00000E+00
 -1      2528 1.43505E+02 2.13375E+01 0.00000E+00
 -1      2529 1.42206E+02 2.06000E+01 0.00000E+00
 -1      2530 1.43505E+02 2.57625E+01 0.00000E+00
 -1      2531 1.43505E+02 2.42875E+01 0.00000E+00
 -1      2532 1.42206E+02 2.35500E+01 0.00000E+00
 -1      2533 1.43505E+02 2.87125E+01 0.00000E+00
 -1      2534 1.43505E+02 2.72375E+01 0.00000E+00
 -1      2535 1.42206E+02 2.65000E+01 0.00000E+00
 -1      2536 1.43505E+02 3.16125E+01 0.00000E+00
 -1      2537 1.43505E+02 3.01625E+01 0.00000E+00
 -1      2538 1.42206E+02 2.94250E+01 0.00000E+00
 -1      2539 1.43505E+02 3.45625E+01 0.00000E+00
 -1      2540 1.43505E+02 3.30875E+01 0.00000E+00
 -1      2541 1.42206E+02 3.23500E+01 0.00000E+00
 -1      2542 1.43505E+02 3.75125E+01 0.00000E+00
 -1      2543 1.43505E+02 3.60375E+01 0.00000E+00
 -1      2544 1.42206E+02 3.53000E+01 0.00000E+00
 -1      2545 1.43505E+02 4.04625E+01 0.00000E+00
 -1      2546 1.43505E+02 3.89875E+01 0.00000E+00
 -1      2547 1.42206E+02 3.82500E+01 0.00000E+00
 -1      2548 3.90985E+01 1.52762E+01 0.00000E+00
 -1      2549 3.97018E+01 1.60831E+01 0.00000E+00
 -1      2550 1.44321E+02 4.30606E+01 0.00000E+00
 -1      2551 4.06291E+01 2.34947E+01 0.00000E+00
 -1      2552 4.03339E+01 2.45920E+01 0.00000E+00
 -1      2553 1.67850E+01 5.30525E+00 0.00000E+00
 -1      2554 1.52850E+01 5.30525E+00 0.00000E+00
 -1      2555 1.75350E+01 6.60425E+00 0.00000E+00
 -1      2556 4.08219E+01 1.97409E+01 0.00000E+00
 -1      2557 4.09293E+01 2.06293E+01 0.00000E+00
 -1      2558 3.79733E+01 1.38639E+01 0.00000E+00
 -1      2559 3.85359E+01 1.45701E+01 0.00000E+00
 -1      2560 3.94908E+01 1.44851E+01 0.00000E+00
 -1      2561 3.73125E+01 2.89193E+01 0.00000E+00
 -1      2562 3.65232E+01 2.94507E+01 0.00000E+00
 -1      2563 3.00271E+01 3.14906E+01 0.00000E+00
 -1      2564 2.89231E+01 3.14940E+01 0.00000E+00
 -1      2565 6.55950E+00 4.28890E+01 0.00000E+00
 -1      2566 8.53650E+00 4.32410E+01 0.00000E+00
 -1      2567 9.28650E+00 4.19420E+01 0.00000E+00
 -1      2568 6.55950E+00 4.14140E+01 0.00000E+00
 -1      2569 6.49500E+00 2.71625E+01 0.00000E+00
 -1      2570 6.49500E+00 2.86375E+01 0.00000E+00
 -1      2571 7.79400E+00 2.93750E+01 0.00000E+00
 -1      2572 7.79400E+00 2.64250E+01 0.00000E+00
 -1      2573 2.75065E+01 1.12092E+01 0.00000E+00
 -1      2574 2.84409E+01 1.09809E+01 0.00000E+00
 -1      2575 3.21587E+01 1.09204E+01 0.00000E+00
 -1      2576 3.30478E+01 1.11578E+01 0.00000E+00
 -1      2577 2.04851E+01 2.34189E+01 0.00000E+00
 -1      2578 2.01392E+01 2.23124E+01 0.00000E+00
 -1      2579 2.56812E+01 1.19300E+01 0.00000E+00
 -1      2580 2.64671E+01 1.15396E+01 0.00000E+00
 -1      2581 2.22466E+01 1.47030E+01 0.00000E+00
 -1      2582 2.28423E+01 1.40345E+01 0.00000E+00
 -1      2583 2.09174E+01 1.67787E+01 0.00000E+00
 -1      2584 2.16005E+01 1.57157E+01 0.00000E+00
 -1      2585 2.01789E+01 1.88632E+01 0.00000E+00
 -1      2586 2.03171E+01 1.80051E+01 0.00000E+00
 -1      2587 3.90659E+01 2.74303E+01 0.00000E+00
 -1      2588 3.83119E+01 2.82263E+01 0.00000E+00
 -1      2589 1.99686E+01 2.09695E+01 0.00000E+00
 -1      2590 2.00737E+01 1.99163E+01 0.00000E+00
 -1      2591 1.93376E+01 1.93576E+01 0.00000E+00
 -1      2592 2.11019E+01 2.53508E+01 0.00000E+00
 -1      2593 2.07655E+01 2.44848E+01 0.00000E+00
 -1      2594 2.18626E+01 2.71178E+01 0.00000E+00
 -1      2595 2.14823E+01 2.62343E+01 0.00000E+00
 -1      2596 2.05147E+01 2.61119E+01 0.00000E+00
 -1      2597 2.32564E+01 2.90833E+01 0.00000E+00
 -1      2598 2.25122E+01 2.82815E+01 0.00000E+00
 -1      2599 2.75918E+01 3.12275E+01 0.00000E+00
 -1      2600 2.66562E+01 3.08199E+01 0.00000E+00
 -1      2601 3.18940E+01 3.12763E+01 0.00000E+00
 -1      2602 3.10618E+01 3.13599E+01 0.00000E+00
 -1      2603 3.40538E+01 3.08221E+01 0.00000E+00
 -1      2604 3.29908E+01 3.11343E+01 0.00000E+00
 -1      2605 3.58703E+01 2.98926E+01 0.00000E+00
 -1      2606 3.52174E+01 3.03344E+01 0.00000E+00
 -1      2607 3.67205E+01 3.03034E+01 0.00000E+00
 -1      2608 4.00452E+01 2.56659E+01 0.00000E+00
 -1      2609 3.97054E+01 2.63886E+01 0.00000E+00
 -1      2610 4.11315E+01 2.16909E+01 0.00000E+00
 -1      2611 4.10180E+01 2.24828E+01 0.00000E+00
 -1      2612 3.39027E+01 1.14429E+01 0.00000E+00
 -1      2613 3.47576E+01 1.17280E+01 0.00000E+00
 -1      2614 3.36577E+01 1.05766E+01 0.00000E+00
 -1      2615 8.07525E+00 5.11044E+00 0.00000E+00
 -1      2616 6.57525E+00 5.11044E+00 0.00000E+00
 -1      2617 6.40575E+00 6.01981E+00 0.00000E+00
 -1      2618 8.82525E+00 6.40944E+00 0.00000E+00
 -1      2619 2.83899E+01 9.80384E+00 0.00000E+00
 -1      2620 2.90407E+01 1.04414E+01 0.00000E+00
 -1      2621 2.96405E+01 9.90186E+00 0.00000E+00
 -1      2622 7.79400E+00 3.52687E+01 0.00000E+00
 -1      2623 6.49500E+00 3.60062E+01 0.00000E+00
 -1      2624 6.49500E+00 3.74750E+01 0.00000E+00
 -1      2625 1.45350E+01 6.60425E+00 0.00000E+00
 -1      2626 6.40575E+00 7.49481E+00 0.00000E+00
 -1      2627 2.81462E+01 3.19996E+01 0.00000E+00
 -1      2628 2.73694E+01 3.25051E+01 0.00000E+00
 -1      2629 2.87006E+01 3.27716E+01 0.00000E+00
 -1      2630 2.15447E+01 2.81591E+01 0.00000E+00
 -1      2631 1.94030E+01 2.17536E+01 0.00000E+00
 -1      2632 1.86669E+01 2.11949E+01 0.00000E+00
 -1      2633 1.88375E+01 2.25378E+01 0.00000E+00
 -1      2634 2.47250E+01 1.16178E+01 0.00000E+00
 -1      2635 3.75720E+01 1.23011E+01 0.00000E+00
 -1      2636 3.77726E+01 1.30825E+01 0.00000E+00
 -1      2637 3.87275E+01 1.29975E+01 0.00000E+00
 -1      2638 4.04568E+01 1.65279E+01 0.00000E+00
 -1      2639 4.12118E+01 1.69727E+01 0.00000E+00
 -1      2640 4.08084E+01 1.56361E+01 0.00000E+00
 -1      2641 4.09400E+01 2.53183E+01 0.00000E+00
 -1      2642 4.00118E+01 2.74339E+01 0.00000E+00
 -1      2643 1.43586E+02 6.56853E+00 0.00000E+00
 -1      2644 1.43419E+02 7.72713E+00 0.00000E+00
 -1      2645 1.98540E+01 2.41625E+01 0.00000E+00
 -1      2646 1.42758E+02 4.35929E+01 0.00000E+00
 -1      2647 1.43241E+02 4.17323E+01 0.00000E+00
 -1      2648 1.41942E+02 4.09948E+01 0.00000E+00
 -1      2649 1.41414E+02 4.35342E+01 0.00000E+00
 -1      2650 2.00430E+01 1.70780E+01 0.00000E+00
 -1      2651 1.97689E+01 1.61508E+01 0.00000E+00
 -1      2652 1.91686E+01 1.73773E+01 0.00000E+00
 -1      2653 4.16177E+01 2.32324E+01 0.00000E+00
 -1      2654 7.70475E+00 8.23231E+00 0.00000E+00
 -1      2655 4.12312E+01 1.89809E+01 0.00000E+00
 -1      2656 6.52725E+00 3.87101E+01 0.00000E+00
 -1      2657 6.52725E+00 4.01789E+01 0.00000E+00
 -1      2658 7.89075E+00 4.04429E+01 0.00000E+00
 -1      2659 7.82625E+00 3.79726E+01 0.00000E+00
 -1      2660 3.83729E+01 2.91686E+01 0.00000E+00
 -1      2661 4.18044E+01 2.11588E+01 0.00000E+00
 -1      2662 3.49040E+01 3.12329E+01 0.00000E+00
 -1      2663 3.26436E+01 3.18626E+01 0.00000E+00
 -1      2664 2.12894E+01 1.48388E+01 0.00000E+00
 -1      2665 3.05122E+01 3.21353E+01 0.00000E+00
 -1      2666 2.57785E+01 3.10573E+01 0.00000E+00
 -1      2667 2.28371E+01 1.30287E+01 0.00000E+00
 -1      2668 3.15471E+01 1.04155E+01 0.00000E+00
 -1      2669 3.21913E+01 9.78661E+00 0.00000E+00
 -1      2670 3.09356E+01 9.91053E+00 0.00000E+00
 -1      2671 2.67507E+01 1.06738E+01 0.00000E+00
 -1      2672 2.34682E+01 2.98521E+01 0.00000E+00
 -1      2673 2.24062E+01 3.00916E+01 0.00000E+00
 -1      2674 2.36800E+01 3.06209E+01 0.00000E+00
 -1      2675 3.53199E+01 1.07576E+01 0.00000E+00
 -1      2676 3.55649E+01 1.16239E+01 0.00000E+00
 -1      2677 3.63722E+01 1.15198E+01 0.00000E+00
 -1      2678 1.42120E+02 8.46463E+00 0.00000E+00
 -1      2679 1.40664E+02 4.22352E+01 0.00000E+00
 -1      2680 9.07048E+00 1.98250E+01 0.00000E+00
 -1      2681 9.07048E+00 2.12750E+01 0.00000E+00
 -1      2682 9.07048E+00 2.27500E+01 0.00000E+00
 -1      2683 9.07048E+00 2.42250E+01 0.00000E+00
 -1      2684 1.03470E+01 2.20250E+01 0.00000E+00
 -1      2685 9.09300E+00 1.39375E+01 0.00000E+00
 -1      2686 9.09300E+00 1.54125E+01 0.00000E+00
 -1      2687 9.09300E+00 1.09875E+01 0.00000E+00
 -1      2688 9.09300E+00 1.24625E+01 0.00000E+00
 -1      2689 1.03920E+01 1.32000E+01 0.00000E+00
 -1      2690 1.22850E+01 7.90325E+00 0.00000E+00
 -1      2691 1.07850E+01 7.90325E+00 0.00000E+00
 -1      2692 4.18197E+01 1.81655E+01 0.00000E+00
 -1      2693 4.21907E+01 1.92818E+01 0.00000E+00
 -1      2694 1.44000E+01 4.09070E+01 0.00000E+00
 -1      2695 1.59000E+01 4.09070E+01 0.00000E+00
 -1      2696 1.74000E+01 4.09070E+01 0.00000E+00
 -1      2697 1.89000E+01 4.09070E+01 0.00000E+00
 -1      2698 1.66500E+01 3.96080E+01 0.00000E+00
 -1      2699 2.04000E+01 4.09070E+01 0.00000E+00
 -1      2700 2.19000E+01 4.09070E+01 0.00000E+00
 -1      2701 1.96500E+01 3.96080E+01 0.00000E+00
 -1      2702 2.34000E+01 4.09070E+01 0.00000E+00
 -1      2703 2.49000E+01 4.09070E+01 0.00000E+00
 -1      2704 2.26500E+01 3.96080E+01 0.00000E+00
 -1      2705 2.64000E+01 4.09070E+01 0.00000E+00
 -1      2706 2.79000E+01 4.09070E+01 0.00000E+00
 -1      2707 2.56500E+01 3.96080E+01 0.00000E+00
 -1      2708 2.94000E+01 4.09070E+01 0.00000E+00
 -1      2709 3.09000E+01 4.09070E+01 0.00000E+00
 -1      2710 2.86500E+01 3.96080E+01 0.00000E+00
 -1      2711 3.24000E+01 4.09070E+01 0.00000E+00
 -1      2712 3.39000E+01 4.09070E+01 0.00000E+00
 -1      2713 3.16500E+01 3.96080E+01 0.00000E+00
 -1      2714 3.54000E+01 4.09070E+01 0.00000E+00
 -1      2715 3.69000E+01 4.09070E+01 0.00000E+00
 -1      2716 3.46500E+01 3.96080E+01 0.00000E+00
 -1      2717 3.84000E+01 4.09070E+01 0.00000E+00
 -1      2718 3.99000E+01 4.09070E+01 0.00000E+00
 -1      2719 3.76500E+01 3.96080E+01 0.00000E+00
 -1      2720 4.14000E+01 4.09070E+01 0.00000E+00
 -1      2721 4.29000E+01 4.09070E+01 0.00000E+00
 -1      2722 4.06500E+01 3.96080E+01 0.00000E+00
 -1      2723 4.44000E+01 4.09070E+01 0.00000E+00
 -1      2724 4.59000E+01 4.09070E+01 0.00000E+00
 -1      2725 4.36500E+01 3.96080E+01 0.00000E+00
 -1      2726 4.74000E+01 4.09070E+01 0.00000E+00
 -1      2727 4.89000E+01 4.09070E+01 0.00000E+00
 -1      2728 4.66500E+01 3.96080E+01 0.00000E+00
 -1      2729 5.04000E+01 4.09070E+01 0.00000E+00
 -1      2730 5.19000E+01 4.09070E+01 0.00000E+00
 -1      2731 4.96500E+01 3.96080E+01 0.00000E+00
 -1      2732 5.34000E+01 4.09070E+01 0.00000E+00
 -1      2733 5.49000E+01 4.09070E+01 0.00000E+00
 -1      2734 5.26500E+01 3.96080E+01 0.00000E+00
 -1      2735 5.64000E+01 4.09070E+01 0.00000E+00
 -1      2736 5.79000E+01 4.09070E+01 0.00000E+00
 -1      2737 5.56500E+01 3.96080E+01 0.00000E+00
 -1      2738 5.94000E+01 4.09070E+01 0.00000E+00
 -1      2739 6.09000E+01 4.09070E+01 0.00000E+00
 -1      2740 5.86500E+01 3.96080E+01 0.00000E+00
 -1      2741 6.24000E+01 4.09070E+01 0.00000E+00
 -1      2742 6.39000E+01 4.09070E+01 0.00000E+00
 -1      2743 6.16500E+01 3.96080E+01 0.00000E+00
 -1      2744 6.54000E+01 4.09070E+01 0.00000E+00
 -1      2745 6.69000E+01 4.09070E+01 0.00000E+00
 -1      2746 6.46500E+01 3.96080E+01 0.00000E+00
 -1      2747 6.84000E+01 4.09070E+01 0.00000E+00
 -1      2748 6.99000E+01 4.09070E+01 0.00000E+00
 -1      2749 6.76500E+01 3.96080E+01 0.00000E+00
 -1      2750 7.14000E+01 4.09070E+01 0.00000E+00
 -1      2751 7.29000E+01 4.09070E+01 0.00000E+00
 -1      2752 7.06500E+01 3.96080E+01 0.00000E+00
 -1      2753 7.44000E+01 4.09070E+01 0.00000E+00
 -1      2754 7.59000E+01 4.09070E+01 0.00000E+00
 -1      2755 7.36500E+01 3.96080E+01 0.00000E+00
 -1      2756 7.74000E+01 4.09070E+01 0.00000E+00
 -1      2757 7.89000E+01 4.09070E+01 0.00000E+00
 -1      2758 7.66500E+01 3.96080E+01 0.00000E+00
 -1      2759 8.04000E+01 4.09070E+01 0.00000E+00
 -1      2760 8.19000E+01 4.09070E+01 0.00000E+00
 -1      2761 7.96500E+01 3.96080E+01 0.00000E+00
 -1      2762 8.34000E+01 4.09070E+01 0.00000E+00
 -1      2763 8.49000E+01 4.09070E+01 0.00000E+00
 -1      2764 8.26500E+01 3.96080E+01 0.00000E+00
 -1      2765 8.64000E+01 4.09070E+01 0.00000E+00
 -1      2766 8.79000E+01 4.09070E+01 0.00000E+00
 -1      2767 8.56500E+01 3.96080E+01 0.00000E+00
 -1      2768 8.94000E+01 4.09070E+01 0.00000E+00
 -1      2769 9.09000E+01 4.09070E+01 0.00000E+00
 -1      2770 8.86500E+01 3.96080E+01 0.00000E+00
 -1      2771 9.24000E+01 4.09070E+01 0.00000E+00
 -1      2772 9.39000E+01 4.09070E+01 0.00000E+00
 -1      2773 9.16500E+01 3.96080E+01 0.00000E+00
 -1      2774 9.54000E+01 4.09070E+01 0.00000E+00
 -1      2775 9.69000E+01 4.09070E+01 0.00000E+00
 -1      2776 9.46500E+01 3.96080E+01 0.00000E+00
 -1      2777 9.84000E+01 4.09070E+01 0.00000E+00
 -1      2778 9.99000E+01 4.09070E+01 0.00000E+00
 -1      2779 9.76500E+01 3.96080E+01 0.00000E+00
 -1      2780 1.01400E+02 4.09070E+01 0.00000E+00
 -1      2781 1.02900E+02 4.09070E+01 0.00000E+00
 -1      2782 1.00650E+02 3.96080E+01 0.00000E+00
 -1      2783 1.04400E+02 4.09070E+01 0.00000E+00
 -1      2784 1.05900E+02 4.09070E+01 0.00000E+00
 -1      2785 1.03650E+02 3.96080E+01 0.00000E+00
 -1      2786 1.07400E+02 4.09070E+01 0.00000E+00
 -1      2787 1.08900E+02 4.09070E+01 0.00000E+00
 -1      2788 1.06650E+02 3.96080E+01 0.00000E+00
 -1      2789 1.10400E+02 4.09070E+01 0.00000E+00
 -1      2790 1.11900E+02 4.09070E+01 0.00000E+00
 -1      2791 1.09650E+02 3.96080E+01 0.00000E+00
 -1      2792 1.13400E+02 4.09070E+01 0.00000E+00
 -1      2793 1.14900E+02 4.09070E+01 0.00000E+00
 -1      2794 1.12650E+02 3.96080E+01 0.00000E+00
 -1      2795 1.16400E+02 4.09070E+01 0.00000E+00
 -1      2796 1.17900E+02 4.09070E+01 0.00000E+00
 -1      2797 1.15650E+02 3.96080E+01 0.00000E+00
 -1      2798 1.19400E+02 4.09070E+01 0.00000E+00
 -1      2799 1.20900E+02 4.09070E+01 0.00000E+00
 -1      2800 1.18650E+02 3.96080E+01 0.00000E+00
 -1      2801 1.22400E+02 4.09070E+01 0.00000E+00
 -1      2802 1.23900E+02 4.09070E+01 0.00000E+00
 -1      2803 1.21650E+02 3.96080E+01 0.00000E+00
 -1      2804 1.25400E+02 4.09070E+01 0.00000E+00
 -1      2805 1.26900E+02 4.09070E+01 0.00000E+00
 -1      2806 1.24650E+02 3.96080E+01 0.00000E+00
 -1      2807 1.28400E+02 4.09070E+01 0.00000E+00
 -1      2808 1.29900E+02 4.09070E+01 0.00000E+00
 -1      2809 1.27650E+02 3.96080E+01 0.00000E+00
 -1      2810 1.31400E+02 4.09070E+01 0.00000E+00
 -1      2811 1.32900E+02 4.09070E+01 0.00000E+00
 -1      2812 1.30650E+02 3.96080E+01 0.00000E+00
 -1      2813 1.34400E+02 4.09070E+01 0.00000E+00
 -1      2814 1.35900E+02 4.09070E+01 0.00000E+00
 -1      2815 1.33650E+02 3.96080E+01 0.00000E+00
 -1      2816 1.37400E+02 4.09070E+01 0.00000E+00
 -1      2817 1.38900E+02 4.09070E+01 0.00000E+00
 -1      2818 1.36650E+02 3.96080E+01 0.00000E+00
 -1      2819 2.42850E+01 7.90325E+00 0.00000E+00
 -1      2820 2.27850E+01 7.90325E+00 0.00000E+00
 -1      2821 2.12850E+01 7.90325E+00 0.00000E+00
 -1      2822 1.97850E+01 7.90325E+00 0.00000E+00
 -1      2823 2.20350E+01 9.20225E+00 0.00000E+00
 -1      2824 3.00124E+01 7.93429E+00 0.00000E+00
 -1      2825 2.85124E+01 7.93429E+00 0.00000E+00
 -1      2826 3.28074E+01 7.94296E+00 0.00000E+00
 -1      2827 3.13074E+01 7.94296E+00 0.00000E+00
 -1      2828 3.62850E+01 7.62937E+00 0.00000E+00
 -1      2829 3.47850E+01 7.62937E+00 0.00000E+00
 -1      2830 3.92850E+01 7.90325E+00 0.00000E+00
 -1      2831 3.77850E+01 7.90325E+00 0.00000E+00
 -1      2832 4.22850E+01 7.90325E+00 0.00000E+00
 -1      2833 4.07850E+01 7.90325E+00 0.00000E+00
 -1      2834 4.00350E+01 9.20225E+00 0.00000E+00
 -1      2835 4.52850E+01 7.90325E+00 0.00000E+00
 -1      2836 4.37850E+01 7.90325E+00 0.00000E+00
 -1      2837 4.30350E+01 9.20225E+00 0.00000E+00
 -1      2838 4.82850E+01 7.90325E+00 0.00000E+00
 -1      2839 4.67850E+01 7.90325E+00 0.00000E+00
 -1      2840 4.60350E+01 9.20225E+00 0.00000E+00
 -1      2841 5.12850E+01 7.90325E+00 0.00000E+00
 -1      2842 4.97850E+01 7.90325E+00 0.00000E+00
 -1      2843 4.90350E+01 9.20225E+00 0.00000E+00
 -1      2844 5.42850E+01 7.90325E+00 0.00000E+00
 -1      2845 5.27850E+01 7.90325E+00 0.00000E+00
 -1      2846 5.20350E+01 9.20225E+00 0.00000E+00
 -1      2847 5.72850E+01 7.90325E+00 0.00000E+00
 -1      2848 5.57850E+01 7.90325E+00 0.00000E+00
 -1      2849 5.50350E+01 9.20225E+00 0.00000E+00
 -1      2850 6.02850E+01 7.90325E+00 0.00000E+00
 -1      2851 5.87850E+01 7.90325E+00 0.00000E+00
 -1      2852 5.80350E+01 9.20225E+00 0.00000E+00
 -1      2853 6.32850E+01 7.90325E+00 0.00000E+00
 -1      2854 6.17850E+01 7.90325E+00 0.00000E+00
 -1      2855 6.10350E+01 9.20225E+00 0.00000E+00
 -1      2856 6.62850E+01 7.90325E+00 0.00000E+00
 -1      2857 6.47850E+01 7.90325E+00 0.00000E+00
 -1      2858 6.40350E+01 9.20225E+00 0.00000E+00
 -1      2859 6.92850E+01 7.90325E+00 0.00000E+00
 -1      2860 6.77850E+01 7.90325E+00 0.00000E+00
 -1      2861 6.70350E+01 9.20225E+00 0.00000E+00
 -1      2862 7.22850E+01 7.90325E+00 0.00000E+00
 -1      2863 7.07850E+01 7.90325E+00 0.00000E+00
 -1      2864 7.00350E+01 9.20225E+00 0.00000E+00
 -1      2865 7.52850E+01 7.90325E+00 0.00000E+00
 -1      2866 7.37850E+01 7.90325E+00 0.00000E+00
 -1      2867 7.30350E+01 9.20225E+00 0.00000E+00
 -1      2868 7.82850E+01 7.90325E+00 0.00000E+00
 -1      2869 7.67850E+01 7.90325E+00 0.00000E+00
 -1      2870 7.60350E+01 9.20225E+00 0.00000E+00
 -1      2871 8.12850E+01 7.90325E+00 0.00000E+00
 -1      2872 7.97850E+01 7.90325E+00 0.00000E+00
 -1      2873 7.90350E+01 9.20225E+00 0.00000E+00
 -1      2874 8.42850E+01 7.90325E+00 0.00000E+00
 -1      2875 8.27850E+01 7.90325E+00 0.00000E+00
 -1      2876 8.20350E+01 9.20225E+00 0.00000E+00
 -1      2877 8.72850E+01 7.90325E+00 0.00000E+00
 -1      2878 8.57850E+01 7.90325E+00 0.00000E+00
 -1      2879 8.50350E+01 9.20225E+00 0.00000E+00
 -1      2880 9.02850E+01 7.90325E+00 0.00000E+00
 -1      2881 8.87850E+01 7.90325E+00 0.00000E+00
 -1      2882 8.80350E+01 9.20225E+00 0.00000E+00
 -1      2883 9.32850E+01 7.90325E+00 0.00000E+00
 -1      2884 9.17850E+01 7.90325E+00 0.00000E+00
 -1      2885 9.10350E+01 9.20225E+00 0.00000E+00
 -1      2886 9.62850E+01 7.90325E+00 0.00000E+00
 -1      2887 9.47850E+01 7.90325E+00 0.00000E+00
 -1      2888 9.40350E+01 9.20225E+00 0.00000E+00
 -1      2889 9.92850E+01 7.90325E+00 0.00000E+00
 -1      2890 9.77850E+01 7.90325E+00 0.00000E+00
 -1      2891 9.70350E+01 9.20225E+00 0.00000E+00
 -1      2892 1.02285E+02 7.90325E+00 0.00000E+00
 -1      2893 1.00785E+02 7.90325E+00 0.00000E+00
 -1      2894 1.00035E+02 9.20225E+00 0.00000E+00
 -1      2895 1.05285E+02 7.90325E+00 0.00000E+00
 -1      2896 1.03785E+02 7.90325E+00 0.00000E+00
 -1      2897 1.03035E+02 9.20225E+00 0.00000E+00
 -1      2898 1.08285E+02 7.90325E+00 0.00000E+00
 -1      2899 1.06785E+02 7.90325E+00 0.00000E+00
 -1      2900 1.06035E+02 9.20225E+00 0.00000E+00
 -1      2901 1.11285E+02 7.90325E+00 0.00000E+00
 -1      2902 1.09785E+02 7.90325E+00 0.00000E+00
 -1      2903 1.09035E+02 9.20225E+00 0.00000E+00
 -1      2904 1.14285E+02 7.90325E+00 0.00000E+00
 -1      2905 1.12785E+02 7.90325E+00 0.00000E+00
 -1      2906 1.12035E+02 9.20225E+00 0.00000E+00
 -1      2907 1.17285E+02 7.90325E+00 0.00000E+00
 -1      2908 1.15785E+02 7.90325E+00 0.00000E+00
 -1      2909 1.15035E+02 9.20225E+00 0.00000E+00
 -1      2910 1.20285E+02 7.90325E+00 0.00000E+00
 -1      2911 1.18785E+02 7.90325E+00 0.00000E+00
 -1      2912 1.18035E+02 9.20225E+00 0.00000E+00
 -1      2913 1.23285E+02 7.90325E+00 0.00000E+00
 -1      2914 1.21785E+02 7.90325E+00 0.00000E+00
 -1      2915 1.21035E+02 9.20225E+00 0.00000E+00
 -1      2916 1.26285E+02 7.90325E+00 0.00000E+00
 -1      2917 1.24785E+02 7.90325E+00 0.00000E+00
 -1      2918 1.24035E+02 9.20225E+00 0.00000E+00
 -1      2919 1.29285E+02 7.90325E+00 0.00000E+00
 -1      2920 1.27785E+02 7.90325E+00 0.00000E+00
 -1      2921 1.27035E+02 9.20225E+00 0.00000E+00
 -1      2922 1.32285E+02 7.90325E+00 0.00000E+00
 -1      2923 1.30785E+02 7.90325E+00 0.00000E+00
 -1      2924 1.30035E+02 9.20225E+00 0.00000E+00
 -1      2925 1.35285E+02 7.90325E+00 0.00000E+00
 -1      2926 1.33785E+02 7.90325E+00 0.00000E+00
 -1      2927 1.33035E+02 9.20225E+00 0.00000E+00
 -1      2928 1.38285E+02 7.90325E+00 0.00000E+00
 -1      2929 1.36785E+02 7.90325E+00 0.00000E+00
 -1      2930 1.36035E+02 9.20225E+00 0.00000E+00
 -1      2931 1.40953E+02 8.18394E+00 0.00000E+00
 -1      2932 1.39453E+02 8.18394E+00 0.00000E+00
 -1      2933 1.38703E+02 9.48294E+00 0.00000E+00
 -1      2934 1.41038E+02 1.00443E+01 0.00000E+00
 -1      2935 1.40907E+02 2.42875E+01 0.00000E+00
 -1      2936 1.40907E+02 2.28125E+01 0.00000E+00
 -1      2937 1.39914E+02 4.09362E+01 0.00000E+00
 -1      2938 1.40928E+02 4.09655E+01 0.00000E+00
 -1      2939 1.39164E+02 3.96372E+01 0.00000E+00
 -1      2940 1.40907E+02 1.83875E+01 0.00000E+00
 -1      2941 1.40907E+02 1.69125E+01 0.00000E+00
 -1      2942 1.40907E+02 2.72375E+01 0.00000E+00
 -1      2943 1.40907E+02 2.57625E+01 0.00000E+00
 -1      2944 1.39608E+02 2.50250E+01 0.00000E+00
 -1      2945 1.40907E+02 2.13375E+01 0.00000E+00
 -1      2946 1.40907E+02 1.98625E+01 0.00000E+00
 -1      2947 1.39608E+02 1.91250E+01 0.00000E+00
 -1      2948 1.39608E+02 2.20750E+01 0.00000E+00
 -1      2949 1.82850E+01 7.90325E+00 0.00000E+00
 -1      2950 1.67850E+01 7.90325E+00 0.00000E+00
 -1      2951 1.90350E+01 9.20225E+00 0.00000E+00
 -1      2952 1.40907E+02 3.01375E+01 0.00000E+00
 -1      2953 1.40907E+02 2.86875E+01 0.00000E+00
 -1      2954 1.39608E+02 2.79500E+01 0.00000E+00
 -1      2955 1.40907E+02 3.30875E+01 0.00000E+00
 -1      2956 1.40907E+02 3.16125E+01 0.00000E+00
 -1      2957 1.39608E+02 3.08750E+01 0.00000E+00
 -1      2958 1.40907E+02 3.60375E+01 0.00000E+00
 -1      2959 1.40907E+02 3.45625E+01 0.00000E+00
 -1      2960 1.39608E+02 3.38250E+01 0.00000E+00
 -1      2961 4.19125E+01 2.50039E+01 0.00000E+00
 -1      2962 4.16238E+01 2.60779E+01 0.00000E+00
 -1      2963 1.92459E+01 2.48923E+01 0.00000E+00
 -1      2964 1.89655E+01 2.38263E+01 0.00000E+00
 -1      2965 3.98802E+01 1.35976E+01 0.00000E+00
 -1      2966 4.04428E+01 1.43038E+01 0.00000E+00
 -1      2967 3.34883E+01 9.66032E+00 0.00000E+00
 -1      2968 3.43432E+01 9.94541E+00 0.00000E+00
 -1      2969 3.76215E+01 3.09315E+01 0.00000E+00
 -1      2970 3.69686E+01 3.13733E+01 0.00000E+00
 -1      2971 2.09744E+01 2.92407E+01 0.00000E+00
 -1      2972 2.03248E+01 2.80770E+01 0.00000E+00
 -1      2973 9.25425E+00 4.07069E+01 0.00000E+00
 -1      2974 1.06178E+01 4.09709E+01 0.00000E+00
 -1      2975 9.22200E+00 3.94717E+01 0.00000E+00
 -1      2976 1.17589E+01 4.09389E+01 0.00000E+00
 -1      2977 1.32589E+01 4.09389E+01 0.00000E+00
 -1      2978 1.40089E+01 3.96399E+01 0.00000E+00
 -1      2979 1.17266E+01 3.97038E+01 0.00000E+00
 -1      2980 3.96204E+01 2.95455E+01 0.00000E+00
 -1      2981 3.86210E+01 3.02385E+01 0.00000E+00
 -1      2982 3.88691E+01 3.13084E+01 0.00000E+00
 -1      2983 1.41192E+02 3.96958E+01 0.00000E+00
 -1      2984 1.52850E+01 7.90325E+00 0.00000E+00
 -1      2985 1.37850E+01 7.90325E+00 0.00000E+00
 -1      2986 1.30350E+01 9.20225E+00 0.00000E+00
 -1      2987 1.60350E+01 9.20225E+00 0.00000E+00
 -1      2988 9.09300E+00 1.68875E+01 0.00000E+00
 -1      2989 9.09300E+00 1.83625E+01 0.00000E+00
 -1      2990 1.03920E+01 1.61500E+01 0.00000E+00
 -1      2991 2.36369E+01 1.07168E+01 0.00000E+00
 -1      2992 2.46231E+01 1.01033E+01 0.00000E+00
 -1      2993 9.09300E+00 3.15875E+01 0.00000E+00
 -1      2994 9.09300E+00 3.30625E+01 0.00000E+00
 -1      2995 3.11685E+01 3.31701E+01 0.00000E+00
 -1      2996 3.01339E+01 3.33009E+01 0.00000E+00
 -1      2997 4.26904E+01 2.29800E+01 0.00000E+00
 -1      2998 4.23015E+01 2.39920E+01 0.00000E+00
 -1      2999 4.29853E+01 2.47515E+01 0.00000E+00
 -1      3000 4.27103E+01 2.04362E+01 0.00000E+00
 -1      3001 4.29125E+01 2.14978E+01 0.00000E+00
 -1      3002 1.84317E+01 1.97989E+01 0.00000E+00
 -1      3003 1.85368E+01 1.87458E+01 0.00000E+00
 -1      3004 1.99755E+01 2.69264E+01 0.00000E+00
 -1      3005 1.95952E+01 2.60429E+01 0.00000E+00
 -1      3006 1.87067E+01 2.57067E+01 0.00000E+00
 -1      3007 1.94052E+01 2.80079E+01 0.00000E+00
 -1      3008 2.18182E+01 1.27850E+01 0.00000E+00
 -1      3009 2.27199E+01 1.19876E+01 0.00000E+00
 -1      3010 2.58283E+01 3.21135E+01 0.00000E+00
 -1      3011 2.47919E+01 3.14377E+01 0.00000E+00
 -1      3012 2.02434E+01 1.48839E+01 0.00000E+00
 -1      3013 2.08895E+01 1.38712E+01 0.00000E+00
 -1      3014 3.33620E+01 3.28861E+01 0.00000E+00
 -1      3015 3.22653E+01 3.30281E+01 0.00000E+00
 -1      3016 3.18869E+01 3.41937E+01 0.00000E+00
 -1      3017 4.12052E+01 2.74494E+01 0.00000E+00
 -1      3018 4.05657E+01 2.84911E+01 0.00000E+00
 -1      3019 3.58497E+01 3.18573E+01 0.00000E+00
 -1      3020 3.46860E+01 3.23449E+01 0.00000E+00
 -1      3021 8.91450E+00 8.42712E+00 0.00000E+00
 -1      3022 9.09300E+00 3.45313E+01 0.00000E+00
 -1      3023 9.09300E+00 3.60000E+01 0.00000E+00
 -1      3024 1.03920E+01 3.37938E+01 0.00000E+00
 -1      3025 1.03470E+01 2.49750E+01 0.00000E+00
 -1      3026 9.07048E+00 2.57000E+01 0.00000E+00
 -1      3027 9.07048E+00 2.71750E+01 0.00000E+00
 -1      3028 4.32988E+01 1.96208E+01 0.00000E+00
 -1      3029 2.77011E+01 8.86906E+00 0.00000E+00
 -1      3030 2.72238E+01 7.53903E+00 0.00000E+00
 -1      3031 2.57238E+01 7.53903E+00 0.00000E+00
 -1      3032 2.71013E+01 9.40858E+00 0.00000E+00
 -1      3033 2.93570E+01 3.38064E+01 0.00000E+00
 -1      3034 1.82294E+01 2.32676E+01 0.00000E+00
 -1      3035 3.73271E+01 1.14348E+01 0.00000E+00
 -1      3036 2.49738E+01 8.83803E+00 0.00000E+00
 -1      3037 2.60619E+01 9.73905E+00 0.00000E+00
 -1      3038 4.11978E+01 1.47486E+01 0.00000E+00
 -1      3039 4.19528E+01 1.51934E+01 0.00000E+00
 -1      3040 4.15872E+01 1.38611E+01 0.00000E+00
 -1      3041 3.67506E+01 3.24853E+01 0.00000E+00
 -1      3042 3.43077E+01 3.35105E+01 0.00000E+00
 -1      3043 1.39608E+02 1.61875E+01 0.00000E+00
 -1      3044 1.40907E+02 1.54500E+01 0.00000E+00
 -1      3045 1.40907E+02 1.39875E+01 0.00000E+00
 -1      3046 1.93690E+01 1.51832E+01 0.00000E+00
 -1      3047 3.70350E+01 8.92837E+00 0.00000E+00
 -1      3048 1.40973E+02 1.27472E+01 0.00000E+00
 -1      3049 1.40973E+02 1.12847E+01 0.00000E+00
 -1      3050 1.39805E+02 1.10040E+01 0.00000E+00
 -1      3051 1.39674E+02 1.34847E+01 0.00000E+00
 -1      3052 2.07722E+01 1.28301E+01 0.00000E+00
 -1      3053 1.78661E+01 2.05831E+01 0.00000E+00
 -1      3054 1.70654E+01 1.99713E+01 0.00000E+00
 -1      3055 1.73006E+01 2.13673E+01 0.00000E+00
 -1      3056 1.03695E+01 1.90875E+01 0.00000E+00
 -1      3057 4.21777E+01 2.71350E+01 0.00000E+00
 -1      3058 4.35963E+01 2.22574E+01 0.00000E+00
 -1      3059 1.41192E+02 3.82207E+01 0.00000E+00
 -1      3060 1.82627E+01 1.78187E+01 0.00000E+00
 -1      3061 1.79886E+01 1.68915E+01 0.00000E+00
 -1      3062 1.73568E+01 1.82600E+01 0.00000E+00
 -1      3063 2.11862E+01 3.00095E+01 0.00000E+00
 -1      3064 1.99663E+01 2.99273E+01 0.00000E+00
 -1      3065 2.13981E+01 3.07783E+01 0.00000E+00
 -1      3066 3.28768E+01 9.15538E+00 0.00000E+00
 -1      3067 3.51505E+01 9.84129E+00 0.00000E+00
 -1      3068 3.96795E+01 1.28162E+01 0.00000E+00
 -1      3069 4.06316E+01 1.26349E+01 0.00000E+00
 -1      3070 3.94789E+01 1.20348E+01 0.00000E+00
 -1      3071 2.26179E+01 1.04731E+01 0.00000E+00
 -1      3072 4.08138E+01 2.95610E+01 0.00000E+00
 -1      3073 4.21713E+01 1.72736E+01 0.00000E+00
 -1      3074 1.39529E+02 3.85602E+01 0.00000E+00
 -1      3075 1.40542E+02 3.71145E+01 0.00000E+00
 -1      3076 1.39243E+02 3.63770E+01 0.00000E+00
 -1      3077 1.38514E+02 3.85310E+01 0.00000E+00
 -1      3078 3.02847E+01 9.27300E+00 0.00000E+00
 -1      3079 9.09300E+00 2.86375E+01 0.00000E+00
 -1      3080 9.09300E+00 3.01125E+01 0.00000E+00
 -1      3081 1.03920E+01 3.08500E+01 0.00000E+00
 -1      3082 2.69372E+01 3.36576E+01 0.00000E+00
 -1      3083 2.63828E+01 3.28856E+01 0.00000E+00
 -1      3084 2.53962E+01 3.32660E+01 0.00000E+00
 -1      3085 2.37299E+01 3.16772E+01 0.00000E+00
 -1      3086 9.66450E+00 9.72612E+00 0.00000E+00
 -1      3087 1.09635E+01 1.04636E+01 0.00000E+00
 -1      3088 1.24635E+01 1.04636E+01 0.00000E+00
 -1      3089 1.18920E+01 1.17250E+01 0.00000E+00
 -1      3090 1.39635E+01 1.04636E+01 0.00000E+00
 -1      3091 1.18920E+01 1.32000E+01 0.00000E+00
 -1      3092 1.16910E+01 1.54125E+01 0.00000E+00
 -1      3093 1.16910E+01 1.68875E+01 0.00000E+00
 -1      3094 2.97185E+01 3.50327E+01 0.00000E+00
 -1      3095 2.82853E+01 3.45034E+01 0.00000E+00
 -1      3096 4.38210E+01 1.86916E+01 0.00000E+00
 -1      3097 4.43406E+01 1.98460E+01 0.00000E+00
 -1      3098 1.82502E+01 1.54865E+01 0.00000E+00
 -1      3099 1.87247E+01 1.42196E+01 0.00000E+00
 -1      3100 1.89000E+01 3.83090E+01 0.00000E+00
 -1      3101 2.04000E+01 3.83090E+01 0.00000E+00
 -1      3102 2.19000E+01 3.83090E+01 0.00000E+00
 -1      3103 2.34000E+01 3.83090E+01 0.00000E+00
 -1      3104 2.11500E+01 3.70100E+01 0.00000E+00
 -1      3105 2.49000E+01 3.83090E+01 0.00000E+00
 -1      3106 2.64000E+01 3.83090E+01 0.00000E+00
 -1      3107 2.41500E+01 3.70100E+01 0.00000E+00
 -1      3108 2.78984E+01 3.76689E+01 0.00000E+00
 -1      3109 2.93984E+01 3.76689E+01 0.00000E+00
 -1      3110 3.39000E+01 3.83315E+01 0.00000E+00
 -1      3111 3.54000E+01 3.83315E+01 0.00000E+00
 -1      3112 3.69000E+01 3.83315E+01 0.00000E+00
 -1      3113 3.84000E+01 3.83315E+01 0.00000E+00
 -1      3114 3.61500E+01 3.70550E+01 0.00000E+00
 -1      3115 3.99000E+01 3.83315E+01 0.00000E+00
 -1      3116 4.14000E+01 3.83315E+01 0.00000E+00
 -1      3117 3.91500E+01 3.70550E+01 0.00000E+00
 -1      3118 4.29000E+01 3.83315E+01 0.00000E+00
 -1      3119 4.44000E+01 3.83315E+01 0.00000E+00
 -1      3120 4.21500E+01 3.70550E+01 0.00000E+00
 -1      3121 4.59000E+01 3.83315E+01 0.00000E+00
 -1      3122 4.74000E+01 3.83315E+01 0.00000E+00
 -1      3123 4.51500E+01 3.70550E+01 0.00000E+00
 -1      3124 4.89000E+01 3.83315E+01 0.00000E+00
 -1      3125 5.04000E+01 3.83315E+01 0.00000E+00
 -1      3126 4.81500E+01 3.70550E+01 0.00000E+00
 -1      3127 5.19000E+01 3.83315E+01 0.00000E+00
 -1      3128 5.34000E+01 3.83315E+01 0.00000E+00
 -1      3129 5.11500E+01 3.70550E+01 0.00000E+00
 -1      3130 5.49000E+01 3.83315E+01 0.00000E+00
 -1      3131 5.64000E+01 3.83315E+01 0.00000E+00
 -1      3132 5.41500E+01 3.70550E+01 0.00000E+00
 -1      3133 5.79000E+01 3.83315E+01 0.00000E+00
 -1      3134 5.94000E+01 3.83315E+01 0.00000E+00
 -1      3135 5.71500E+01 3.70550E+01 0.00000E+00
 -1      3136 6.09000E+01 3.83315E+01 0.00000E+00
 -1      3137 6.24000E+01 3.83315E+01 0.00000E+00
 -1      3138 6.01500E+01 3.70550E+01 0.00000E+00
 -1      3139 6.39000E+01 3.83315E+01 0.00000E+00
 -1      3140 6.54000E+01 3.83315E+01 0.00000E+00
 -1      3141 6.31500E+01 3.70550E+01 0.00000E+00
 -1      3142 6.69000E+01 3.83315E+01 0.00000E+00
 -1      3143 6.84000E+01 3.83315E+01 0.00000E+00
 -1      3144 6.61500E+01 3.70550E+01 0.00000E+00
 -1      3145 6.99000E+01 3.83315E+01 0.00000E+00
 -1      3146 7.14000E+01 3.83315E+01 0.00000E+00
 -1      3147 6.91500E+01 3.70550E+01 0.00000E+00
 -1      3148 7.29000E+01 3.83315E+01 0.00000E+00
 -1      3149 7.44000E+01 3.83315E+01 0.00000E+00
 -1      3150 7.21500E+01 3.70550E+01 0.00000E+00
 -1      3151 7.59000E+01 3.83315E+01 0.00000E+00
 -1      3152 7.74000E+01 3.83315E+01 0.00000E+00
 -1      3153 7.51500E+01 3.70550E+01 0.00000E+00
 -1      3154 7.89000E+01 3.83315E+01 0.00000E+00
 -1      3155 8.04000E+01 3.83315E+01 0.00000E+00
 -1      3156 7.81500E+01 3.70550E+01 0.00000E+00
 -1      3157 8.19000E+01 3.83315E+01 0.00000E+00
 -1      3158 8.34000E+01 3.83315E+01 0.00000E+00
 -1      3159 8.11500E+01 3.70550E+01 0.00000E+00
 -1      3160 8.49000E+01 3.83315E+01 0.00000E+00
 -1      3161 8.64000E+01 3.83315E+01 0.00000E+00
 -1      3162 8.41500E+01 3.70550E+01 0.00000E+00
 -1      3163 8.79000E+01 3.83315E+01 0.00000E+00
 -1      3164 8.94000E+01 3.83315E+01 0.00000E+00
 -1      3165 8.71500E+01 3.70550E+01 0.00000E+00
 -1      3166 9.09000E+01 3.83315E+01 0.00000E+00
 -1      3167 9.24000E+01 3.83315E+01 0.00000E+00
 -1      3168 9.01500E+01 3.70550E+01 0.00000E+00
 -1      3169 9.39000E+01 3.83315E+01 0.00000E+00
 -1      3170 9.54000E+01 3.83315E+01 0.00000E+00
 -1      3171 9.31500E+01 3.70550E+01 0.00000E+00
 -1      3172 9.69000E+01 3.83315E+01 0.00000E+00
 -1      3173 9.84000E+01 3.83315E+01 0.00000E+00
 -1      3174 9.61500E+01 3.70550E+01 0.00000E+00
 -1      3175 9.99000E+01 3.83315E+01 0.00000E+00
 -1      3176 1.01400E+02 3.83315E+01 0.00000E+00
 -1      3177 9.91500E+01 3.70550E+01 0.00000E+00
 -1      3178 1.02900E+02 3.83315E+01 0.00000E+00
 -1      3179 1.04400E+02 3.83315E+01 0.00000E+00
 -1      3180 1.02150E+02 3.70550E+01 0.00000E+00
 -1      3181 1.05900E+02 3.83315E+01 0.00000E+00
 -1      3182 1.07400E+02 3.83315E+01 0.00000E+00
 -1      3183 1.05150E+02 3.70550E+01 0.00000E+00
 -1      3184 1.08900E+02 3.83315E+01 0.00000E+00
 -1      3185 1.10400E+02 3.83315E+01 0.00000E+00
 -1      3186 1.08150E+02 3.70550E+01 0.00000E+00
 -1      3187 1.11900E+02 3.83315E+01 0.00000E+00
 -1      3188 1.13400E+02 3.83315E+01 0.00000E+00
 -1      3189 1.11150E+02 3.70550E+01 0.00000E+00
 -1      3190 1.14900E+02 3.83315E+01 0.00000E+00
 -1      3191 1.16400E+02 3.83315E+01 0.00000E+00
 -1      3192 1.14150E+02 3.70550E+01 0.00000E+00
 -1      3193 1.17900E+02 3.83315E+01 0.00000E+00
 -1      3194 1.19400E+02 3.83315E+01 0.00000E+00
 -1      3195 1.17150E+02 3.70550E+01 0.00000E+00
 -1      3196 1.20900E+02 3.83315E+01 0.00000E+00
 -1      3197 1.22400E+02 3.83315E+01 0.00000E+00
 -1      3198 1.20150E+02 3.70550E+01 0.00000E+00
 -1      3199 1.23900E+02 3.83315E+01 0.00000E+00
 -1      3200 1.25400E+02 3.83315E+01 0.00000E+00
 -1      3201 1.23150E+02 3.70550E+01 0.00000E+00
 -1      3202 1.26900E+02 3.83315E+01 0.00000E+00
 -1      3203 1.28400E+02 3.83315E+01 0.00000E+00
 -1      3204 1.26150E+02 3.70550E+01 0.00000E+00
 -1      3205 1.29900E+02 3.83315E+01 0.00000E+00
 -1      3206 1.31400E+02 3.83315E+01 0.00000E+00
 -1      3207 1.29150E+02 3.70550E+01 0.00000E+00
 -1      3208 1.32900E+02 3.83315E+01 0.00000E+00
 -1      3209 1.34400E+02 3.83315E+01 0.00000E+00
 -1      3210 1.32150E+02 3.70550E+01 0.00000E+00
 -1      3211 1.35707E+02 3.84313E+01 0.00000E+00
 -1      3212 1.37207E+02 3.84313E+01 0.00000E+00
 -1      3213 1.37572E+02 3.73543E+01 0.00000E+00
 -1      3214 1.34957E+02 3.71548E+01 0.00000E+00
 -1      3215 1.38309E+02 2.86750E+01 0.00000E+00
 -1      3216 1.38309E+02 2.72250E+01 0.00000E+00
 -1      3217 3.48544E+01 8.84179E+00 0.00000E+00
 -1      3218 3.41044E+01 7.81667E+00 0.00000E+00
 -1      3219 4.09830E+01 1.05279E+01 0.00000E+00
 -1      3220 3.94830E+01 1.05279E+01 0.00000E+00
 -1      3221 4.97850E+01 1.05013E+01 0.00000E+00
 -1      3222 4.82850E+01 1.05013E+01 0.00000E+00
 -1      3223 5.27850E+01 1.05013E+01 0.00000E+00
 -1      3224 5.12850E+01 1.05013E+01 0.00000E+00
 -1      3225 5.05350E+01 1.18003E+01 0.00000E+00
 -1      3226 5.57850E+01 1.05013E+01 0.00000E+00
 -1      3227 5.42850E+01 1.05013E+01 0.00000E+00
 -1      3228 5.35350E+01 1.18003E+01 0.00000E+00
 -1      3229 5.87850E+01 1.05013E+01 0.00000E+00
 -1      3230 5.72850E+01 1.05013E+01 0.00000E+00
 -1      3231 5.65350E+01 1.18003E+01 0.00000E+00
 -1      3232 6.17850E+01 1.05013E+01 0.00000E+00
 -1      3233 6.02850E+01 1.05013E+01 0.00000E+00
 -1      3234 5.95350E+01 1.18003E+01 0.00000E+00
 -1      3235 6.47850E+01 1.05013E+01 0.00000E+00
 -1      3236 6.32850E+01 1.05013E+01 0.00000E+00
 -1      3237 6.25350E+01 1.18003E+01 0.00000E+00
 -1      3238 6.77850E+01 1.05013E+01 0.00000E+00
 -1      3239 6.62850E+01 1.05013E+01 0.00000E+00
 -1      3240 6.55350E+01 1.18003E+01 0.00000E+00
 -1      3241 7.07850E+01 1.05013E+01 0.00000E+00
 -1      3242 6.92850E+01 1.05013E+01 0.00000E+00
 -1      3243 6.85350E+01 1.18003E+01 0.00000E+00
 -1      3244 7.37850E+01 1.05013E+01 0.00000E+00
 -1      3245 7.22850E+01 1.05013E+01 0.00000E+00
 -1      3246 7.15350E+01 1.18003E+01 0.00000E+00
 -1      3247 7.67850E+01 1.05013E+01 0.00000E+00
 -1      3248 7.52850E+01 1.05013E+01 0.00000E+00
 -1      3249 7.45350E+01 1.18003E+01 0.00000E+00
 -1      3250 7.97850E+01 1.05013E+01 0.00000E+00
 -1      3251 7.82850E+01 1.05013E+01 0.00000E+00
 -1      3252 7.75350E+01 1.18003E+01 0.00000E+00
 -1      3253 8.27850E+01 1.05013E+01 0.00000E+00
 -1      3254 8.12850E+01 1.05013E+01 0.00000E+00
 -1      3255 8.05350E+01 1.18003E+01 0.00000E+00
 -1      3256 8.57850E+01 1.05013E+01 0.00000E+00
 -1      3257 8.42850E+01 1.05013E+01 0.00000E+00
 -1      3258 8.35350E+01 1.18003E+01 0.00000E+00
 -1      3259 8.87850E+01 1.05013E+01 0.00000E+00
 -1      3260 8.72850E+01 1.05013E+01 0.00000E+00
 -1      3261 8.65350E+01 1.18003E+01 0.00000E+00
 -1      3262 9.17850E+01 1.05013E+01 0.00000E+00
 -1      3263 9.02850E+01 1.05013E+01 0.00000E+00
 -1      3264 8.95350E+01 1.18003E+01 0.00000E+00
 -1      3265 9.47850E+01 1.05013E+01 0.00000E+00
 -1      3266 9.32850E+01 1.05013E+01 0.00000E+00
 -1      3267 9.25350E+01 1.18003E+01 0.00000E+00
 -1      3268 9.77850E+01 1.05013E+01 0.00000E+00
 -1      3269 9.62850E+01 1.05013E+01 0.00000E+00
 -1      3270 9.55350E+01 1.18003E+01 0.00000E+00
 -1      3271 1.00785E+02 1.05013E+01 0.00000E+00
 -1      3272 9.92850E+01 1.05013E+01 0.00000E+00
 -1      3273 9.85350E+01 1.18003E+01 0.00000E+00
 -1      3274 1.03785E+02 1.05013E+01 0.00000E+00
 -1      3275 1.02285E+02 1.05013E+01 0.00000E+00
 -1      3276 1.01535E+02 1.18003E+01 0.00000E+00
 -1      3277 1.06785E+02 1.05013E+01 0.00000E+00
 -1      3278 1.05285E+02 1.05013E+01 0.00000E+00
 -1      3279 1.04535E+02 1.18003E+01 0.00000E+00
 -1      3280 1.09785E+02 1.05013E+01 0.00000E+00
 -1      3281 1.08285E+02 1.05013E+01 0.00000E+00
 -1      3282 1.07535E+02 1.18003E+01 0.00000E+00
 -1      3283 1.12785E+02 1.05013E+01 0.00000E+00
 -1      3284 1.11285E+02 1.05013E+01 0.00000E+00
 -1      3285 1.10535E+02 1.18003E+01 0.00000E+00
 -1      3286 1.15785E+02 1.05013E+01 0.00000E+00
 -1      3287 1.14285E+02 1.05013E+01 0.00000E+00
 -1      3288 1.13535E+02 1.18003E+01 0.00000E+00
 -1      3289 1.18785E+02 1.05013E+01 0.00000E+00
 -1      3290 1.17285E+02 1.05013E+01 0.00000E+00
 -1      3291 1.16535E+02 1.18003E+01 0.00000E+00
 -1      3292 1.21785E+02 1.05013E+01 0.00000E+00
 -1      3293 1.20285E+02 1.05013E+01 0.00000E+00
 -1      3294 1.19535E+02 1.18003E+01 0.00000E+00
 -1      3295 1.24785E+02 1.05013E+01 0.00000E+00
 -1      3296 1.23285E+02 1.05013E+01 0.00000E+00
 -1      3297 1.22535E+02 1.18003E+01 0.00000E+00
 -1      3298 1.27785E+02 1.05013E+01 0.00000E+00
 -1      3299 1.26285E+02 1.05013E+01 0.00000E+00
 -1      3300 1.25535E+02 1.18003E+01 0.00000E+00
 -1      3301 1.30785E+02 1.05013E+01 0.00000E+00
 -1      3302 1.29285E+02 1.05013E+01 0.00000E+00
 -1      3303 1.28535E+02 1.18003E+01 0.00000E+00
 -1      3304 1.33785E+02 1.05013E+01 0.00000E+00
 -1      3305 1.32285E+02 1.05013E+01 0.00000E+00
 -1      3306 1.31535E+02 1.18003E+01 0.00000E+00
 -1      3307 1.36785E+02 1.05013E+01 0.00000E+00
 -1      3308 1.35285E+02 1.05013E+01 0.00000E+00
 -1      3309 1.34535E+02 1.18003E+01 0.00000E+00
 -1      3310 1.38879E+02 1.08930E+01 0.00000E+00
 -1      3311 1.37711E+02 1.06123E+01 0.00000E+00
 -1      3312 1.36961E+02 1.19113E+01 0.00000E+00
 -1      3313 1.38813E+02 1.21333E+01 0.00000E+00
 -1      3314 3.58311E+01 9.65399E+00 0.00000E+00
 -1      3315 1.15397E+01 2.12875E+01 0.00000E+00
 -1      3316 1.15397E+01 2.27625E+01 0.00000E+00
 -1      3317 1.97850E+01 1.03949E+01 0.00000E+00
 -1      3318 1.82850E+01 1.03949E+01 0.00000E+00
 -1      3319 1.38309E+02 2.57500E+01 0.00000E+00
 -1      3320 1.38309E+02 2.42750E+01 0.00000E+00
 -1      3321 1.37010E+02 2.64750E+01 0.00000E+00
 -1      3322 1.38309E+02 3.45625E+01 0.00000E+00
 -1      3323 1.38309E+02 3.30875E+01 0.00000E+00
 -1      3324 3.78168E+01 3.34150E+01 0.00000E+00
 -1      3325 3.66979E+01 3.38989E+01 0.00000E+00
 -1      3326 9.14137E+00 3.71183E+01 0.00000E+00
 -1      3327 9.17362E+00 3.83534E+01 0.00000E+00
 -1      3328 1.05371E+01 3.86174E+01 0.00000E+00
 -1      3329 1.04404E+01 3.63808E+01 0.00000E+00
 -1      3330 4.67850E+01 1.05013E+01 0.00000E+00
 -1      3331 4.52850E+01 1.05013E+01 0.00000E+00
 -1      3332 4.75350E+01 1.18003E+01 0.00000E+00
 -1      3333 3.51408E+01 3.50122E+01 0.00000E+00
 -1      3334 3.38168E+01 3.55533E+01 0.00000E+00
 -1      3335 4.38840E+01 1.05146E+01 0.00000E+00
 -1      3336 4.23840E+01 1.05146E+01 0.00000E+00
 -1      3337 4.18320E+01 1.18402E+01 0.00000E+00
 -1      3338 4.46340E+01 1.18136E+01 0.00000E+00
 -1      3339 3.73311E+01 9.92787E+00 0.00000E+00
 -1      3340 2.11179E+01 1.04731E+01 0.00000E+00
 -1      3341 3.98157E+01 3.20290E+01 0.00000E+00
 -1      3342 3.88163E+01 3.27220E+01 0.00000E+00
 -1      3343 3.87635E+01 3.41356E+01 0.00000E+00
 -1      3344 1.38309E+02 3.16187E+01 0.00000E+00
 -1      3345 1.38309E+02 3.01437E+01 0.00000E+00
 -1      3346 1.37010E+02 2.94188E+01 0.00000E+00
 -1      3347 1.37010E+02 3.23563E+01 0.00000E+00
 -1      3348 1.59000E+01 3.83090E+01 0.00000E+00
 -1      3349 1.74000E+01 3.83090E+01 0.00000E+00
 -1      3350 1.81500E+01 3.70100E+01 0.00000E+00
 -1      3351 4.27060E+01 1.62498E+01 0.00000E+00
 -1      3352 4.33139E+01 1.74425E+01 0.00000E+00
 -1      3353 4.21121E+01 2.97740E+01 0.00000E+00
 -1      3354 4.11668E+01 3.08285E+01 0.00000E+00
 -1      3355 1.71899E+01 2.40215E+01 0.00000E+00
 -1      3356 1.70619E+01 2.27329E+01 0.00000E+00
 -1      3357 4.41366E+01 2.46133E+01 0.00000E+00
 -1      3358 4.37477E+01 2.56253E+01 0.00000E+00
 -1      3359 1.16685E+01 1.83500E+01 0.00000E+00
 -1      3360 1.16460E+01 1.98125E+01 0.00000E+00
 -1      3361 1.29675E+01 1.76125E+01 0.00000E+00
 -1      3362 2.36789E+01 3.29117E+01 0.00000E+00
 -1      3363 2.25670E+01 3.20950E+01 0.00000E+00
 -1      3364 3.23160E+01 3.52220E+01 0.00000E+00
 -1      3365 3.12193E+01 3.53640E+01 0.00000E+00
 -1      3366 3.01476E+01 3.60610E+01 0.00000E+00
 -1      3367 3.31492E+01 3.67237E+01 0.00000E+00
 -1      3368 4.46383E+01 2.16558E+01 0.00000E+00
 -1      3369 4.44162E+01 2.31380E+01 0.00000E+00
 -1      3370 1.94392E+01 1.27520E+01 0.00000E+00
 -1      3371 2.03679E+01 1.16658E+01 0.00000E+00
 -1      3372 4.33291E+01 2.69968E+01 0.00000E+00
 -1      3373 4.29104E+01 2.83683E+01 0.00000E+00
 -1      3374 4.44804E+01 2.68586E+01 0.00000E+00
 -1      3375 1.15397E+01 2.42375E+01 0.00000E+00
 -1      3376 1.15397E+01 2.57125E+01 0.00000E+00
 -1      3377 1.27324E+01 2.35000E+01 0.00000E+00
 -1      3378 4.51605E+01 2.07266E+01 0.00000E+00
 -1      3379 4.59804E+01 2.16072E+01 0.00000E+00
 -1      3380 4.56827E+01 1.97974E+01 0.00000E+00
 -1      3381 1.31910E+01 1.39375E+01 0.00000E+00
 -1      3382 2.72987E+01 3.48839E+01 0.00000E+00
 -1      3383 2.12961E+01 3.32474E+01 0.00000E+00
 -1      3384 2.13471E+01 3.20128E+01 0.00000E+00
 -1      3385 2.01272E+01 3.19307E+01 0.00000E+00
 -1      3386 1.83204E+01 1.30553E+01 0.00000E+00
 -1      3387 4.30954E+01 1.53623E+01 0.00000E+00
 -1      3388 1.38309E+02 1.69188E+01 0.00000E+00
 -1      3389 1.38309E+02 1.54563E+01 0.00000E+00
 -1      3390 3.08992E+01 3.80002E+01 0.00000E+00
 -1      3391 3.23992E+01 3.80002E+01 0.00000E+00
 -1      3392 4.51786E+01 2.40117E+01 0.00000E+00
 -1      3393 1.28387E+01 2.05500E+01 0.00000E+00
 -1      3394 3.85310E+01 1.07092E+01 0.00000E+00
 -1      3395 1.38309E+02 1.98687E+01 0.00000E+00
 -1      3396 1.38309E+02 1.83937E+01 0.00000E+00
 -1      3397 1.37010E+02 1.76625E+01 0.00000E+00
 -1      3398 1.84386E+01 2.89297E+01 0.00000E+00
 -1      3399 1.80893E+01 2.77791E+01 0.00000E+00
 -1      3400 1.75527E+01 1.17251E+01 0.00000E+00
 -1      3401 1.68027E+01 1.05324E+01 0.00000E+00
 -1      3402 1.53027E+01 1.05324E+01 0.00000E+00
 -1      3403 1.68382E+01 1.31927E+01 0.00000E+00
 -1      3404 1.38309E+02 2.28094E+01 0.00000E+00
 -1      3405 1.38309E+02 2.13344E+01 0.00000E+00
 -1      3406 1.37010E+02 2.06031E+01 0.00000E+00
 -1      3407 1.37010E+02 2.35344E+01 0.00000E+00
 -1      3408 1.62611E+01 2.21212E+01 0.00000E+00
 -1      3409 1.67913E+01 1.90442E+01 0.00000E+00
 -1      3410 1.65171E+01 1.81170E+01 0.00000E+00
 -1      3411 1.62257E+01 1.98283E+01 0.00000E+00
 -1      3412 1.16299E+01 3.74672E+01 0.00000E+00
 -1      3413 1.16783E+01 3.85855E+01 0.00000E+00
 -1      3414 1.28194E+01 3.85536E+01 0.00000E+00
 -1      3415 1.73443E+01 1.59279E+01 0.00000E+00
 -1      3416 1.39605E+01 3.85216E+01 0.00000E+00
 -1      3417 1.73119E+01 2.52970E+01 0.00000E+00
 -1      3418 1.61444E+01 2.47624E+01 0.00000E+00
 -1      3419 4.11141E+01 3.22420E+01 0.00000E+00
 -1      3420 4.32635E+01 2.96358E+01 0.00000E+00
 -1      3421 1.47105E+01 3.72226E+01 0.00000E+00
 -1      3422 1.03695E+01 2.79125E+01 0.00000E+00
 -1      3423 1.37758E+02 3.64969E+01 0.00000E+00
 -1      3424 1.38123E+02 3.54199E+01 0.00000E+00
 -1      3425 1.36824E+02 3.46824E+01 0.00000E+00
 -1      3426 1.36451E+02 3.63971E+01 0.00000E+00
 -1      3427 4.43557E+01 1.76677E+01 0.00000E+00
 -1      3428 1.88622E+01 3.04673E+01 0.00000E+00
 -1      3429 1.86504E+01 2.96985E+01 0.00000E+00
 -1      3430 1.73345E+01 2.94696E+01 0.00000E+00
 -1      3431 1.76612E+01 2.64476E+01 0.00000E+00
 -1      3432 4.20326E+01 1.26216E+01 0.00000E+00
 -1      3433 1.16910E+01 3.01125E+01 0.00000E+00
 -1      3434 1.16910E+01 3.15875E+01 0.00000E+00
 -1      3435 1.16910E+01 3.30563E+01 0.00000E+00
 -1      3436 1.16910E+01 3.45250E+01 0.00000E+00
 -1      3437 1.29900E+01 3.23187E+01 0.00000E+00
 -1      3438 4.27876E+01 1.30664E+01 0.00000E+00
 -1      3439 2.71484E+01 3.63699E+01 0.00000E+00
 -1      3440 1.66946E+01 2.73694E+01 0.00000E+00
 -1      3441 4.63256E+01 2.34649E+01 0.00000E+00
 -1      3442 4.60460E+01 2.49403E+01 0.00000E+00
 -1      3443 2.25830E+01 3.51698E+01 0.00000E+00
 -1      3444 2.40830E+01 3.51698E+01 0.00000E+00
 -1      3445 1.58530E+01 2.83745E+01 0.00000E+00
 -1      3446 1.54249E+01 2.70431E+01 0.00000E+00
 -1      3447 1.74000E+01 3.57110E+01 0.00000E+00
 -1      3448 1.89000E+01 3.57110E+01 0.00000E+00
 -1      3449 3.77070E+01 3.59418E+01 0.00000E+00
 -1      3450 3.92070E+01 3.59418E+01 0.00000E+00
 -1      3451 4.14000E+01 3.57560E+01 0.00000E+00
 -1      3452 4.29000E+01 3.57560E+01 0.00000E+00
 -1      3453 4.44000E+01 3.57560E+01 0.00000E+00
 -1      3454 4.59000E+01 3.57560E+01 0.00000E+00
 -1      3455 4.36500E+01 3.44570E+01 0.00000E+00
 -1      3456 4.74000E+01 3.57560E+01 0.00000E+00
 -1      3457 4.89000E+01 3.57560E+01 0.00000E+00
 -1      3458 4.66500E+01 3.44570E+01 0.00000E+00
 -1      3459 5.04000E+01 3.57560E+01 0.00000E+00
 -1      3460 5.19000E+01 3.57560E+01 0.00000E+00
 -1      3461 4.96500E+01 3.44570E+01 0.00000E+00
 -1      3462 5.34000E+01 3.57560E+01 0.00000E+00
 -1      3463 5.49000E+01 3.57560E+01 0.00000E+00
 -1      3464 5.26500E+01 3.44570E+01 0.00000E+00
 -1      3465 5.64000E+01 3.57560E+01 0.00000E+00
 -1      3466 5.79000E+01 3.57560E+01 0.00000E+00
 -1      3467 5.56500E+01 3.44570E+01 0.00000E+00
 -1      3468 5.94000E+01 3.57560E+01 0.00000E+00
 -1      3469 6.09000E+01 3.57560E+01 0.00000E+00
 -1      3470 5.86500E+01 3.44570E+01 0.00000E+00
 -1      3471 6.24000E+01 3.57560E+01 0.00000E+00
 -1      3472 6.39000E+01 3.57560E+01 0.00000E+00
 -1      3473 6.16500E+01 3.44570E+01 0.00000E+00
 -1      3474 6.54000E+01 3.57560E+01 0.00000E+00
 -1      3475 6.69000E+01 3.57560E+01 0.00000E+00
 -1      3476 6.46500E+01 3.44570E+01 0.00000E+00
 -1      3477 6.84000E+01 3.57560E+01 0.00000E+00
 -1      3478 6.99000E+01 3.57560E+01 0.00000E+00
 -1      3479 6.76500E+01 3.44570E+01 0.00000E+00
 -1      3480 7.14000E+01 3.57560E+01 0.00000E+00
 -1      3481 7.29000E+01 3.57560E+01 0.00000E+00
 -1      3482 7.06500E+01 3.44570E+01 0.00000E+00
 -1      3483 7.44000E+01 3.57560E+01 0.00000E+00
 -1      3484 7.59000E+01 3.57560E+01 0.00000E+00
 -1      3485 7.36500E+01 3.44570E+01 0.00000E+00
 -1      3486 7.74000E+01 3.57560E+01 0.00000E+00
 -1      3487 7.89000E+01 3.57560E+01 0.00000E+00
 -1      3488 7.66500E+01 3.44570E+01 0.00000E+00
 -1      3489 8.04000E+01 3.57560E+01 0.00000E+00
 -1      3490 8.19000E+01 3.57560E+01 0.00000E+00
 -1      3491 7.96500E+01 3.44570E+01 0.00000E+00
 -1      3492 8.34000E+01 3.57560E+01 0.00000E+00
 -1      3493 8.49000E+01 3.57560E+01 0.00000E+00
 -1      3494 8.26500E+01 3.44570E+01 0.00000E+00
 -1      3495 8.64000E+01 3.57560E+01 0.00000E+00
 -1      3496 8.79000E+01 3.57560E+01 0.00000E+00
 -1      3497 8.56500E+01 3.44570E+01 0.00000E+00
 -1      3498 8.94000E+01 3.57560E+01 0.00000E+00
 -1      3499 9.09000E+01 3.57560E+01 0.00000E+00
 -1      3500 8.86500E+01 3.44570E+01 0.00000E+00
 -1      3501 9.24000E+01 3.57560E+01 0.00000E+00
 -1      3502 9.39000E+01 3.57560E+01 0.00000E+00
 -1      3503 9.16500E+01 3.44570E+01 0.00000E+00
 -1      3504 9.54000E+01 3.57560E+01 0.00000E+00
 -1      3505 9.69000E+01 3.57560E+01 0.00000E+00
 -1      3506 9.46500E+01 3.44570E+01 0.00000E+00
 -1      3507 9.84000E+01 3.57560E+01 0.00000E+00
 -1      3508 9.99000E+01 3.57560E+01 0.00000E+00
 -1      3509 9.76500E+01 3.44570E+01 0.00000E+00
 -1      3510 1.01400E+02 3.57560E+01 0.00000E+00
 -1      3511 1.02900E+02 3.57560E+01 0.00000E+00
 -1      3512 1.00650E+02 3.44570E+01 0.00000E+00
 -1      3513 1.04400E+02 3.57560E+01 0.00000E+00
 -1      3514 1.05900E+02 3.57560E+01 0.00000E+00
 -1      3515 1.03650E+02 3.44570E+01 0.00000E+00
 -1      3516 1.07400E+02 3.57560E+01 0.00000E+00
 -1      3517 1.08900E+02 3.57560E+01 0.00000E+00
 -1      3518 1.06650E+02 3.44570E+01 0.00000E+00
 -1      3519 1.10400E+02 3.57560E+01 0.00000E+00
 -1      3520 1.11900E+02 3.57560E+01 0.00000E+00
 -1      3521 1.09650E+02 3.44570E+01 0.00000E+00
 -1      3522 1.13400E+02 3.57560E+01 0.00000E+00
 -1      3523 1.14900E+02 3.57560E+01 0.00000E+00
 -1      3524 1.12650E+02 3.44570E+01 0.00000E+00
 -1      3525 1.16400E+02 3.57560E+01 0.00000E+00
 -1      3526 1.17900E+02 3.57560E+01 0.00000E+00
 -1      3527 1.15650E+02 3.44570E+01 0.00000E+00
 -1      3528 1.19400E+02 3.57560E+01 0.00000E+00
 -1      3529 1.20900E+02 3.57560E+01 0.00000E+00
 -1      3530 1.18650E+02 3.44570E+01 0.00000E+00
 -1      3531 1.22400E+02 3.57560E+01 0.00000E+00
 -1      3532 1.23900E+02 3.57560E+01 0.00000E+00
 -1      3533 1.21650E+02 3.44570E+01 0.00000E+00
 -1      3534 1.25400E+02 3.57560E+01 0.00000E+00
 -1      3535 1.26900E+02 3.57560E+01 0.00000E+00
 -1      3536 1.24650E+02 3.44570E+01 0.00000E+00
 -1      3537 1.28400E+02 3.57560E+01 0.00000E+00
 -1      3538 1.29900E+02 3.57560E+01 0.00000E+00
 -1      3539 1.27650E+02 3.44570E+01 0.00000E+00
 -1      3540 1.31400E+02 3.57560E+01 0.00000E+00
 -1      3541 1.32900E+02 3.57560E+01 0.00000E+00
 -1      3542 1.30650E+02 3.44570E+01 0.00000E+00
 -1      3543 5.72850E+01 1.30992E+01 0.00000E+00
 -1      3544 5.57850E+01 1.30992E+01 0.00000E+00
 -1      3545 5.42850E+01 1.30992E+01 0.00000E+00
 -1      3546 5.27850E+01 1.30992E+01 0.00000E+00
 -1      3547 5.50350E+01 1.43982E+01 0.00000E+00
 -1      3548 1.38528E+02 1.44149E+01 0.00000E+00
 -1      3549 1.38594E+02 1.31746E+01 0.00000E+00
 -1      3550 1.37668E+02 1.30636E+01 0.00000E+00
 -1      3551 1.37229E+02 1.51462E+01 0.00000E+00
 -1      3552 1.39143E+01 1.98862E+01 0.00000E+00
 -1      3553 1.38080E+01 2.13612E+01 0.00000E+00
 -1      3554 5.12850E+01 1.30992E+01 0.00000E+00
 -1      3555 4.97850E+01 1.30992E+01 0.00000E+00
 -1      3556 5.20350E+01 1.43982E+01 0.00000E+00
 -1      3557 6.02850E+01 1.30992E+01 0.00000E+00
 -1      3558 5.87850E+01 1.30992E+01 0.00000E+00
 -1      3559 5.80350E+01 1.43982E+01 0.00000E+00
 -1      3560 6.32850E+01 1.30992E+01 0.00000E+00
 -1      3561 6.17850E+01 1.30992E+01 0.00000E+00
 -1      3562 6.10350E+01 1.43982E+01 0.00000E+00
 -1      3563 6.62850E+01 1.30992E+01 0.00000E+00
 -1      3564 6.47850E+01 1.30992E+01 0.00000E+00
 -1      3565 6.40350E+01 1.43982E+01 0.00000E+00
 -1      3566 6.92850E+01 1.30992E+01 0.00000E+00
 -1      3567 6.77850E+01 1.30992E+01 0.00000E+00
 -1      3568 6.70350E+01 1.43982E+01 0.00000E+00
 -1      3569 7.22850E+01 1.30992E+01 0.00000E+00
 -1      3570 7.07850E+01 1.30992E+01 0.00000E+00
 -1      3571 7.00350E+01 1.43982E+01 0.00000E+00
 -1      3572 7.52850E+01 1.30992E+01 0.00000E+00
 -1      3573 7.37850E+01 1.30992E+01 0.00000E+00
 -1      3574 7.30350E+01 1.43982E+01 0.00000E+00
 -1      3575 7.82850E+01 1.30992E+01 0.00000E+00
 -1      3576 7.67850E+01 1.30992E+01 0.00000E+00
 -1      3577 7.60350E+01 1.43982E+01 0.00000E+00
 -1      3578 8.12850E+01 1.30992E+01 0.00000E+00
 -1      3579 7.97850E+01 1.30992E+01 0.00000E+00
 -1      3580 7.90350E+01 1.43982E+01 0.00000E+00
 -1      3581 8.42850E+01 1.30992E+01 0.00000E+00
 -1      3582 8.27850E+01 1.30992E+01 0.00000E+00
 -1      3583 8.20350E+01 1.43982E+01 0.00000E+00
 -1      3584 8.72850E+01 1.30992E+01 0.00000E+00
 -1      3585 8.57850E+01 1.30992E+01 0.00000E+00
 -1      3586 8.50350E+01 1.43982E+01 0.00000E+00
 -1      3587 9.02850E+01 1.30992E+01 0.00000E+00
 -1      3588 8.87850E+01 1.30992E+01 0.00000E+00
 -1      3589 8.80350E+01 1.43982E+01 0.00000E+00
 -1      3590 9.32850E+01 1.30992E+01 0.00000E+00
 -1      3591 9.17850E+01 1.30992E+01 0.00000E+00
 -1      3592 9.10350E+01 1.43982E+01 0.00000E+00
 -1      3593 9.62850E+01 1.30992E+01 0.00000E+00
 -1      3594 9.47850E+01 1.30992E+01 0.00000E+00
 -1      3595 9.40350E+01 1.43982E+01 0.00000E+00
 -1      3596 9.92850E+01 1.30992E+01 0.00000E+00
 -1      3597 9.77850E+01 1.30992E+01 0.00000E+00
 -1      3598 9.70350E+01 1.43982E+01 0.00000E+00
 -1      3599 1.02285E+02 1.30992E+01 0.00000E+00
 -1      3600 1.00785E+02 1.30992E+01 0.00000E+00
 -1      3601 1.00035E+02 1.43982E+01 0.00000E+00
 -1      3602 1.05285E+02 1.30992E+01 0.00000E+00
 -1      3603 1.03785E+02 1.30992E+01 0.00000E+00
 -1      3604 1.03035E+02 1.43982E+01 0.00000E+00
 -1      3605 1.08285E+02 1.30992E+01 0.00000E+00
 -1      3606 1.06785E+02 1.30992E+01 0.00000E+00
 -1      3607 1.06035E+02 1.43982E+01 0.00000E+00
 -1      3608 1.11285E+02 1.30992E+01 0.00000E+00
 -1      3609 1.09785E+02 1.30992E+01 0.00000E+00
 -1      3610 1.09035E+02 1.43982E+01 0.00000E+00
 -1      3611 1.14285E+02 1.30992E+01 0.00000E+00
 -1      3612 1.12785E+02 1.30992E+01 0.00000E+00
 -1      3613 1.12035E+02 1.43982E+01 0.00000E+00
 -1      3614 1.17285E+02 1.30992E+01 0.00000E+00
 -1      3615 1.15785E+02 1.30992E+01 0.00000E+00
 -1      3616 1.15035E+02 1.43982E+01 0.00000E+00
 -1      3617 1.20285E+02 1.30992E+01 0.00000E+00
 -1      3618 1.18785E+02 1.30992E+01 0.00000E+00
 -1      3619 1.18035E+02 1.43982E+01 0.00000E+00
 -1      3620 1.23285E+02 1.30992E+01 0.00000E+00
 -1      3621 1.21785E+02 1.30992E+01 0.00000E+00
 -1      3622 1.21035E+02 1.43982E+01 0.00000E+00
 -1      3623 1.26285E+02 1.30992E+01 0.00000E+00
 -1      3624 1.24785E+02 1.30992E+01 0.00000E+00
 -1      3625 1.24035E+02 1.43982E+01 0.00000E+00
 -1      3626 1.29285E+02 1.30992E+01 0.00000E+00
 -1      3627 1.27785E+02 1.30992E+01 0.00000E+00
 -1      3628 1.27035E+02 1.43982E+01 0.00000E+00
 -1      3629 1.32285E+02 1.30992E+01 0.00000E+00
 -1      3630 1.30785E+02 1.30992E+01 0.00000E+00
 -1      3631 1.30035E+02 1.43982E+01 0.00000E+00
 -1      3632 1.15815E+01 3.63489E+01 0.00000E+00
 -1      3633 4.52073E+01 1.65946E+01 0.00000E+00
 -1      3634 4.57144E+01 1.78436E+01 0.00000E+00
 -1      3635 1.35711E+02 2.72125E+01 0.00000E+00
 -1      3636 1.35711E+02 2.57375E+01 0.00000E+00
 -1      3637 2.58003E+01 3.55240E+01 0.00000E+00
 -1      3638 1.54530E+01 2.20921E+01 0.00000E+00
 -1      3639 1.56917E+01 2.07264E+01 0.00000E+00
 -1      3640 3.62070E+01 3.59418E+01 0.00000E+00
 -1      3641 4.58305E+01 2.65210E+01 0.00000E+00
 -1      3642 4.54119E+01 2.78925E+01 0.00000E+00
 -1      3643 4.40874E+01 1.29682E+01 0.00000E+00
 -1      3644 4.36420E+01 1.42077E+01 0.00000E+00
 -1      3645 4.43953E+01 1.52641E+01 0.00000E+00
 -1      3646 4.54884E+01 1.29549E+01 0.00000E+00
 -1      3647 1.44708E+01 1.75256E+01 0.00000E+00
 -1      3648 1.44483E+01 1.89881E+01 0.00000E+00
 -1      3649 4.23076E+01 3.27492E+01 0.00000E+00
 -1      3650 4.09565E+01 3.39498E+01 0.00000E+00
 -1      3651 4.02065E+01 3.52488E+01 0.00000E+00
 -1      3652 1.62057E+01 1.64427E+01 0.00000E+00
 -1      3653 1.64673E+01 1.50377E+01 0.00000E+00
 -1      3654 4.47922E+01 2.95744E+01 0.00000E+00
 -1      3655 4.39939E+01 3.09801E+01 0.00000E+00
 -1      3656 2.42333E+01 3.36838E+01 0.00000E+00
 -1      3657 1.44994E+01 2.55065E+01 0.00000E+00
 -1      3658 1.43774E+01 2.42309E+01 0.00000E+00
 -1      3659 1.24876E+01 2.87116E+01 0.00000E+00
 -1      3660 1.37866E+01 2.94491E+01 0.00000E+00
 -1      3661 1.98631E+01 3.50876E+01 0.00000E+00
 -1      3662 2.13631E+01 3.50876E+01 0.00000E+00
 -1      3663 1.24651E+01 2.72491E+01 0.00000E+00
 -1      3664 1.35992E+01 3.60377E+01 0.00000E+00
 -1      3665 1.55387E+01 3.58251E+01 0.00000E+00
 -1      3666 1.47312E+01 1.17938E+01 0.00000E+00
 -1      3667 4.65343E+01 1.87242E+01 0.00000E+00
 -1      3668 4.73542E+01 1.96049E+01 0.00000E+00
 -1      3669 4.73858E+01 1.76511E+01 0.00000E+00
 -1      3670 1.43603E+01 1.36388E+01 0.00000E+00
 -1      3671 1.41593E+01 1.58513E+01 0.00000E+00
 -1      3672 1.54176E+01 1.97993E+01 0.00000E+00
 -1      3673 4.68478E+01 2.25357E+01 0.00000E+00
 -1      3674 4.77152E+01 2.34643E+01 0.00000E+00
 -1      3675 4.73700E+01 2.16066E+01 0.00000E+00
 -1      3676 1.36578E+01 2.65116E+01 0.00000E+00
 -1      3677 1.91131E+01 3.37886E+01 0.00000E+00
 -1      3678 1.56996E+01 1.37076E+01 0.00000E+00
 -1      3679 1.34022E+02 3.60267E+01 0.00000E+00
 -1      3680 1.35329E+02 3.61265E+01 0.00000E+00
 -1      3681 1.35515E+02 3.52691E+01 0.00000E+00
 -1      3682 1.33272E+02 3.47277E+01 0.00000E+00
 -1      3683 1.28805E+01 3.56114E+01 0.00000E+00
 -1      3684 1.35711E+02 2.86812E+01 0.00000E+00
 -1      3685 1.34412E+02 2.79438E+01 0.00000E+00
 -1      3686 1.35711E+02 3.01500E+01 0.00000E+00
 -1      3687 1.35285E+02 1.30992E+01 0.00000E+00
 -1      3688 1.33785E+02 1.30992E+01 0.00000E+00
 -1      3689 1.36742E+02 1.29526E+01 0.00000E+00
 -1      3690 4.57539E+01 1.54400E+01 0.00000E+00
 -1      3691 1.34412E+02 2.50094E+01 0.00000E+00
 -1      3692 1.35711E+02 2.42719E+01 0.00000E+00
 -1      3693 1.35711E+02 2.28062E+01 0.00000E+00
 -1      3694 4.69775E+01 2.59742E+01 0.00000E+00
 -1      3695 1.43774E+01 2.27559E+01 0.00000E+00
 -1      3696 4.69177E+01 1.30428E+01 0.00000E+00
 -1      3697 4.63712E+01 1.41974E+01 0.00000E+00
 -1      3698 4.71832E+01 1.55279E+01 0.00000E+00
 -1      3699 4.84177E+01 1.30428E+01 0.00000E+00
 -1      3700 1.35992E+02 1.42516E+01 0.00000E+00
 -1      3701 4.91677E+01 1.43418E+01 0.00000E+00
 -1      3702 1.63261E+01 3.01017E+01 0.00000E+00
 -1      3703 1.50563E+01 2.97754E+01 0.00000E+00
 -1      3704 1.42597E+01 3.11763E+01 0.00000E+00
 -1      3705 1.35711E+02 1.84000E+01 0.00000E+00
 -1      3706 1.35711E+02 1.69250E+01 0.00000E+00
 -1      3707 4.61422E+01 2.92369E+01 0.00000E+00
 -1      3708 4.38076E+01 3.27492E+01 0.00000E+00
 -1      3709 1.33035E+02 1.43982E+01 0.00000E+00
 -1      3710 4.53363E+01 3.26879E+01 0.00000E+00
 -1      3711 1.89622E+01 3.27452E+01 0.00000E+00
 -1      3712 1.90131E+01 3.15107E+01 0.00000E+00
 -1      3713 1.76972E+01 3.12818E+01 0.00000E+00
 -1      3714 1.79991E+01 3.33686E+01 0.00000E+00
 -1      3715 1.62887E+01 3.45261E+01 0.00000E+00
 -1      3716 1.35702E+02 3.44117E+01 0.00000E+00
 -1      3717 1.42597E+01 3.26450E+01 0.00000E+00
 -1      3718 1.34487E+02 3.38353E+01 0.00000E+00
 -1      3719 1.35795E+02 3.32486E+01 0.00000E+00
 -1      3720 1.35795E+02 3.17799E+01 0.00000E+00
 -1      3721 1.33365E+02 3.35647E+01 0.00000E+00
 -1      3722 5.57850E+01 1.56973E+01 0.00000E+00
 -1      3723 5.42850E+01 1.56973E+01 0.00000E+00
 -1      3724 1.37087E+01 3.42138E+01 0.00000E+00
 -1      3725 4.68363E+01 3.26879E+01 0.00000E+00
 -1      3726 4.89000E+01 3.31580E+01 0.00000E+00
 -1      3727 5.04000E+01 3.31580E+01 0.00000E+00
 -1      3728 5.19000E+01 3.31580E+01 0.00000E+00
 -1      3729 5.34000E+01 3.31580E+01 0.00000E+00
 -1      3730 5.11500E+01 3.18590E+01 0.00000E+00
 -1      3731 5.49000E+01 3.31580E+01 0.00000E+00
 -1      3732 5.64000E+01 3.31580E+01 0.00000E+00
 -1      3733 5.41500E+01 3.18590E+01 0.00000E+00
 -1      3734 5.79000E+01 3.31580E+01 0.00000E+00
 -1      3735 5.94000E+01 3.31580E+01 0.00000E+00
 -1      3736 5.71500E+01 3.18590E+01 0.00000E+00
 -1      3737 6.09000E+01 3.31580E+01 0.00000E+00
 -1      3738 6.24000E+01 3.31580E+01 0.00000E+00
 -1      3739 6.01500E+01 3.18590E+01 0.00000E+00
 -1      3740 6.39000E+01 3.31580E+01 0.00000E+00
 -1      3741 6.54000E+01 3.31580E+01 0.00000E+00
 -1      3742 6.31500E+01 3.18590E+01 0.00000E+00
 -1      3743 6.69000E+01 3.31580E+01 0.00000E+00
 -1      3744 6.84000E+01 3.31580E+01 0.00000E+00
 -1      3745 6.61500E+01 3.18590E+01 0.00000E+00
 -1      3746 6.99000E+01 3.31580E+01 0.00000E+00
 -1      3747 7.14000E+01 3.31580E+01 0.00000E+00
 -1      3748 6.91500E+01 3.18590E+01 0.00000E+00
 -1      3749 7.29000E+01 3.31580E+01 0.00000E+00
 -1      3750 7.44000E+01 3.31580E+01 0.00000E+00
 -1      3751 7.21500E+01 3.18590E+01 0.00000E+00
 -1      3752 7.59000E+01 3.31580E+01 0.00000E+00
 -1      3753 7.74000E+01 3.31580E+01 0.00000E+00
 -1      3754 7.51500E+01 3.18590E+01 0.00000E+00
 -1      3755 7.89000E+01 3.31580E+01 0.00000E+00
 -1      3756 8.04000E+01 3.31580E+01 0.00000E+00
 -1      3757 7.81500E+01 3.18590E+01 0.00000E+00
 -1      3758 8.19000E+01 3.31580E+01 0.00000E+00
 -1      3759 8.34000E+01 3.31580E+01 0.00000E+00
 -1      3760 8.11500E+01 3.18590E+01 0.00000E+00
 -1      3761 8.49000E+01 3.31580E+01 0.00000E+00
 -1      3762 8.64000E+01 3.31580E+01 0.00000E+00
 -1      3763 8.41500E+01 3.18590E+01 0.00000E+00
 -1      3764 8.79000E+01 3.31580E+01 0.00000E+00
 -1      3765 8.94000E+01 3.31580E+01 0.00000E+00
 -1      3766 8.71500E+01 3.18590E+01 0.00000E+00
 -1      3767 9.09000E+01 3.31580E+01 0.00000E+00
 -1      3768 9.24000E+01 3.31580E+01 0.00000E+00
 -1      3769 9.01500E+01 3.18590E+01 0.00000E+00
 -1      3770 9.39000E+01 3.31580E+01 0.00000E+00
 -1      3771 9.54000E+01 3.31580E+01 0.00000E+00
 -1      3772 9.31500E+01 3.18590E+01 0.00000E+00
 -1      3773 9.69000E+01 3.31580E+01 0.00000E+00
 -1      3774 9.84000E+01 3.31580E+01 0.00000E+00
 -1      3775 9.61500E+01 3.18590E+01 0.00000E+00
 -1      3776 9.99000E+01 3.31580E+01 0.00000E+00
 -1      3777 1.01400E+02 3.31580E+01 0.00000E+00
 -1      3778 9.91500E+01 3.18590E+01 0.00000E+00
 -1      3779 1.02900E+02 3.31580E+01 0.00000E+00
 -1      3780 1.04400E+02 3.31580E+01 0.00000E+00
 -1      3781 1.02150E+02 3.18590E+01 0.00000E+00
 -1      3782 1.05900E+02 3.31580E+01 0.00000E+00
 -1      3783 1.07400E+02 3.31580E+01 0.00000E+00
 -1      3784 1.05150E+02 3.18590E+01 0.00000E+00
 -1      3785 1.08900E+02 3.31580E+01 0.00000E+00
 -1      3786 1.10400E+02 3.31580E+01 0.00000E+00
 -1      3787 1.08150E+02 3.18590E+01 0.00000E+00
 -1      3788 1.11900E+02 3.31580E+01 0.00000E+00
 -1      3789 1.13400E+02 3.31580E+01 0.00000E+00
 -1      3790 1.11150E+02 3.18590E+01 0.00000E+00
 -1      3791 1.14900E+02 3.31580E+01 0.00000E+00
 -1      3792 1.16400E+02 3.31580E+01 0.00000E+00
 -1      3793 1.14150E+02 3.18590E+01 0.00000E+00
 -1      3794 1.17900E+02 3.31580E+01 0.00000E+00
 -1      3795 1.19400E+02 3.31580E+01 0.00000E+00
 -1      3796 1.17150E+02 3.18590E+01 0.00000E+00
 -1      3797 1.20900E+02 3.31580E+01 0.00000E+00
 -1      3798 1.22400E+02 3.31580E+01 0.00000E+00
 -1      3799 1.20150E+02 3.18590E+01 0.00000E+00
 -1      3800 1.23900E+02 3.31580E+01 0.00000E+00
 -1      3801 1.25400E+02 3.31580E+01 0.00000E+00
 -1      3802 1.23150E+02 3.18590E+01 0.00000E+00
 -1      3803 1.26900E+02 3.31580E+01 0.00000E+00
 -1      3804 1.28400E+02 3.31580E+01 0.00000E+00
 -1      3805 1.26150E+02 3.18590E+01 0.00000E+00
 -1      3806 1.29900E+02 3.31580E+01 0.00000E+00
 -1      3807 1.31400E+02 3.31580E+01 0.00000E+00
 -1      3808 1.29150E+02 3.18590E+01 0.00000E+00
 -1      3809 6.17850E+01 1.56973E+01 0.00000E+00
 -1      3810 6.02850E+01 1.56973E+01 0.00000E+00
 -1      3811 5.87850E+01 1.56973E+01 0.00000E+00
 -1      3812 5.72850E+01 1.56973E+01 0.00000E+00
 -1      3813 5.65350E+01 1.69963E+01 0.00000E+00
 -1      3814 1.35773E+02 1.52929E+01 0.00000E+00
 -1      3815 5.27850E+01 1.56973E+01 0.00000E+00
 -1      3816 5.12850E+01 1.56973E+01 0.00000E+00
 -1      3817 5.35350E+01 1.69963E+01 0.00000E+00
 -1      3818 6.47850E+01 1.56973E+01 0.00000E+00
 -1      3819 6.32850E+01 1.56973E+01 0.00000E+00
 -1      3820 6.25350E+01 1.69963E+01 0.00000E+00
 -1      3821 6.77850E+01 1.56973E+01 0.00000E+00
 -1      3822 6.62850E+01 1.56973E+01 0.00000E+00
 -1      3823 6.55350E+01 1.69963E+01 0.00000E+00
 -1      3824 7.07850E+01 1.56973E+01 0.00000E+00
 -1      3825 6.92850E+01 1.56973E+01 0.00000E+00
 -1      3826 6.85350E+01 1.69963E+01 0.00000E+00
 -1      3827 7.37850E+01 1.56973E+01 0.00000E+00
 -1      3828 7.22850E+01 1.56973E+01 0.00000E+00
 -1      3829 7.15350E+01 1.69963E+01 0.00000E+00
 -1      3830 7.67850E+01 1.56973E+01 0.00000E+00
 -1      3831 7.52850E+01 1.56973E+01 0.00000E+00
 -1      3832 7.45350E+01 1.69963E+01 0.00000E+00
 -1      3833 7.97850E+01 1.56973E+01 0.00000E+00
 -1      3834 7.82850E+01 1.56973E+01 0.00000E+00
 -1      3835 7.75350E+01 1.69963E+01 0.00000E+00
 -1      3836 8.27850E+01 1.56973E+01 0.00000E+00
 -1      3837 8.12850E+01 1.56973E+01 0.00000E+00
 -1      3838 8.05350E+01 1.69963E+01 0.00000E+00
 -1      3839 8.57850E+01 1.56973E+01 0.00000E+00
 -1      3840 8.42850E+01 1.56973E+01 0.00000E+00
 -1      3841 8.35350E+01 1.69963E+01 0.00000E+00
 -1      3842 8.87850E+01 1.56973E+01 0.00000E+00
 -1      3843 8.72850E+01 1.56973E+01 0.00000E+00
 -1      3844 8.65350E+01 1.69963E+01 0.00000E+00
 -1      3845 9.17850E+01 1.56973E+01 0.00000E+00
 -1      3846 9.02850E+01 1.56973E+01 0.00000E+00
 -1      3847 8.95350E+01 1.69963E+01 0.00000E+00
 -1      3848 9.47850E+01 1.56973E+01 0.00000E+00
 -1      3849 9.32850E+01 1.56973E+01 0.00000E+00
 -1      3850 9.25350E+01 1.69963E+01 0.00000E+00
 -1      3851 9.77850E+01 1.56973E+01 0.00000E+00
 -1      3852 9.62850E+01 1.56973E+01 0.00000E+00
 -1      3853 9.55350E+01 1.69963E+01 0.00000E+00
 -1      3854 1.00785E+02 1.56973E+01 0.00000E+00
 -1      3855 9.92850E+01 1.56973E+01 0.00000E+00
 -1      3856 9.85350E+01 1.69963E+01 0.00000E+00
 -1      3857 1.03785E+02 1.56973E+01 0.00000E+00
 -1      3858 1.02285E+02 1.56973E+01 0.00000E+00
 -1      3859 1.01535E+02 1.69963E+01 0.00000E+00
 -1      3860 1.06785E+02 1.56973E+01 0.00000E+00
 -1      3861 1.05285E+02 1.56973E+01 0.00000E+00
 -1      3862 1.04535E+02 1.69963E+01 0.00000E+00
 -1      3863 1.09785E+02 1.56973E+01 0.00000E+00
 -1      3864 1.08285E+02 1.56973E+01 0.00000E+00
 -1      3865 1.07535E+02 1.69963E+01 0.00000E+00
 -1      3866 1.12785E+02 1.56973E+01 0.00000E+00
 -1      3867 1.11285E+02 1.56973E+01 0.00000E+00
 -1      3868 1.10535E+02 1.69963E+01 0.00000E+00
 -1      3869 1.15785E+02 1.56973E+01 0.00000E+00
 -1      3870 1.14285E+02 1.56973E+01 0.00000E+00
 -1      3871 1.13535E+02 1.69963E+01 0.00000E+00
 -1      3872 1.18785E+02 1.56973E+01 0.00000E+00
 -1      3873 1.17285E+02 1.56973E+01 0.00000E+00
 -1      3874 1.16535E+02 1.69963E+01 0.00000E+00
 -1      3875 1.21785E+02 1.56973E+01 0.00000E+00
 -1      3876 1.20285E+02 1.56973E+01 0.00000E+00
 -1      3877 1.19535E+02 1.69963E+01 0.00000E+00
 -1      3878 1.24785E+02 1.56973E+01 0.00000E+00
 -1      3879 1.23285E+02 1.56973E+01 0.00000E+00
 -1      3880 1.22535E+02 1.69963E+01 0.00000E+00
 -1      3881 1.27785E+02 1.56973E+01 0.00000E+00
 -1      3882 1.26285E+02 1.56973E+01 0.00000E+00
 -1      3883 1.25535E+02 1.69963E+01 0.00000E+00
 -1      3884 1.30785E+02 1.56973E+01 0.00000E+00
 -1      3885 1.29285E+02 1.56973E+01 0.00000E+00
 -1      3886 1.28535E+02 1.69963E+01 0.00000E+00
 -1      3887 4.99177E+01 1.56408E+01 0.00000E+00
 -1      3888 4.85505E+01 1.55844E+01 0.00000E+00
 -1      3889 4.79332E+01 1.68269E+01 0.00000E+00
 -1      3890 5.06677E+01 1.69398E+01 0.00000E+00
 -1      3891 1.35711E+02 2.13359E+01 0.00000E+00
 -1      3892 1.35711E+02 1.98703E+01 0.00000E+00
 -1      3893 1.34412E+02 1.91328E+01 0.00000E+00
 -1      3894 1.34412E+02 2.20734E+01 0.00000E+00
 -1      3895 4.76710E+01 2.88450E+01 0.00000E+00
 -1      3896 4.70513E+01 3.05269E+01 0.00000E+00
 -1      3897 1.34473E+02 1.60304E+01 0.00000E+00
 -1      3898 1.32973E+02 1.60304E+01 0.00000E+00
 -1      3899 1.56401E+01 1.72269E+01 0.00000E+00
 -1      3900 4.82670E+01 2.53450E+01 0.00000E+00
 -1      3901 4.80515E+01 2.69257E+01 0.00000E+00
 -1      3902 1.32223E+02 1.73294E+01 0.00000E+00
 -1      3903 4.93114E+01 2.34866E+01 0.00000E+00
 -1      3904 4.87892E+01 2.44158E+01 0.00000E+00
 -1      3905 4.98632E+01 2.53673E+01 0.00000E+00
 -1      3906 1.49784E+01 3.30713E+01 0.00000E+00
 -1      3907 1.32615E+02 3.22657E+01 0.00000E+00
 -1      3908 1.34496E+02 3.10424E+01 0.00000E+00
 -1      3909 4.87531E+01 1.77075E+01 0.00000E+00
 -1      3910 5.95350E+01 1.69963E+01 0.00000E+00
 -1      3911 1.65379E+01 3.08705E+01 0.00000E+00
 -1      3912 1.68397E+01 3.29573E+01 0.00000E+00
 -1      3913 1.33113E+02 2.57422E+01 0.00000E+00
 -1      3914 1.33113E+02 2.42766E+01 0.00000E+00
 -1      3915 4.89605E+01 2.82158E+01 0.00000E+00
 -1      3916 1.32223E+02 2.02700E+01 0.00000E+00
 -1      3917 1.32223E+02 1.87997E+01 0.00000E+00
 -1      3918 1.30035E+02 1.84666E+01 0.00000E+00
 -1      3919 4.90731E+01 1.94602E+01 0.00000E+00
 -1      3920 4.82216E+01 2.05334E+01 0.00000E+00
 -1      3921 4.90890E+01 2.14619E+01 0.00000E+00
 -1      3922 4.83650E+01 3.22960E+01 0.00000E+00
 -1      3923 1.33113E+02 2.72109E+01 0.00000E+00
 -1      3924 1.31814E+02 2.64781E+01 0.00000E+00
 -1      3925 1.33113E+02 2.86797E+01 0.00000E+00
 -1      3926 1.66888E+01 3.19139E+01 0.00000E+00
 -1      3927 6.32850E+01 1.82952E+01 0.00000E+00
 -1      3928 6.17850E+01 1.82952E+01 0.00000E+00
 -1      3929 5.34000E+01 3.05600E+01 0.00000E+00
 -1      3930 5.49000E+01 3.05600E+01 0.00000E+00
 -1      3931 5.64000E+01 3.05600E+01 0.00000E+00
 -1      3932 5.79000E+01 3.05600E+01 0.00000E+00
 -1      3933 5.56500E+01 2.92610E+01 0.00000E+00
 -1      3934 5.94000E+01 3.05600E+01 0.00000E+00
 -1      3935 6.09000E+01 3.05600E+01 0.00000E+00
 -1      3936 5.86500E+01 2.92610E+01 0.00000E+00
 -1      3937 6.24000E+01 3.05600E+01 0.00000E+00
 -1      3938 6.39000E+01 3.05600E+01 0.00000E+00
 -1      3939 6.16500E+01 2.92610E+01 0.00000E+00
 -1      3940 6.54000E+01 3.05600E+01 0.00000E+00
 -1      3941 6.69000E+01 3.05600E+01 0.00000E+00
 -1      3942 6.46500E+01 2.92610E+01 0.00000E+00
 -1      3943 6.84000E+01 3.05600E+01 0.00000E+00
 -1      3944 6.99000E+01 3.05600E+01 0.00000E+00
 -1      3945 6.76500E+01 2.92610E+01 0.00000E+00
 -1      3946 7.14000E+01 3.05600E+01 0.00000E+00
 -1      3947 7.29000E+01 3.05600E+01 0.00000E+00
 -1      3948 7.06500E+01 2.92610E+01 0.00000E+00
 -1      3949 7.44000E+01 3.05600E+01 0.00000E+00
 -1      3950 7.59000E+01 3.05600E+01 0.00000E+00
 -1      3951 7.36500E+01 2.92610E+01 0.00000E+00
 -1      3952 7.74000E+01 3.05600E+01 0.00000E+00
 -1      3953 7.89000E+01 3.05600E+01 0.00000E+00
 -1      3954 7.66500E+01 2.92610E+01 0.00000E+00
 -1      3955 8.04000E+01 3.05600E+01 0.00000E+00
 -1      3956 8.19000E+01 3.05600E+01 0.00000E+00
 -1      3957 7.96500E+01 2.92610E+01 0.00000E+00
 -1      3958 8.34000E+01 3.05600E+01 0.00000E+00
 -1      3959 8.49000E+01 3.05600E+01 0.00000E+00
 -1      3960 8.26500E+01 2.92610E+01 0.00000E+00
 -1      3961 8.64000E+01 3.05600E+01 0.00000E+00
 -1      3962 8.79000E+01 3.05600E+01 0.00000E+00
 -1      3963 8.56500E+01 2.92610E+01 0.00000E+00
 -1      3964 8.94000E+01 3.05600E+01 0.00000E+00
 -1      3965 9.09000E+01 3.05600E+01 0.00000E+00
 -1      3966 8.86500E+01 2.92610E+01 0.00000E+00
 -1      3967 9.24000E+01 3.05600E+01 0.00000E+00
 -1      3968 9.39000E+01 3.05600E+01 0.00000E+00
 -1      3969 9.16500E+01 2.92610E+01 0.00000E+00
 -1      3970 9.54000E+01 3.05600E+01 0.00000E+00
 -1      3971 9.69000E+01 3.05600E+01 0.00000E+00
 -1      3972 9.46500E+01 2.92610E+01 0.00000E+00
 -1      3973 9.84000E+01 3.05600E+01 0.00000E+00
 -1      3974 9.99000E+01 3.05600E+01 0.00000E+00
 -1      3975 9.76500E+01 2.92610E+01 0.00000E+00
 -1      3976 1.01400E+02 3.05600E+01 0.00000E+00
 -1      3977 1.02900E+02 3.05600E+01 0.00000E+00
 -1      3978 1.00650E+02 2.92610E+01 0.00000E+00
 -1      3979 1.04400E+02 3.05600E+01 0.00000E+00
 -1      3980 1.05900E+02 3.05600E+01 0.00000E+00
 -1      3981 1.03650E+02 2.92610E+01 0.00000E+00
 -1      3982 1.07400E+02 3.05600E+01 0.00000E+00
 -1      3983 1.08900E+02 3.05600E+01 0.00000E+00
 -1      3984 1.06650E+02 2.92610E+01 0.00000E+00
 -1      3985 1.10400E+02 3.05600E+01 0.00000E+00
 -1      3986 1.11900E+02 3.05600E+01 0.00000E+00
 -1      3987 1.09650E+02 2.92610E+01 0.00000E+00
 -1      3988 1.13400E+02 3.05600E+01 0.00000E+00
 -1      3989 1.14900E+02 3.05600E+01 0.00000E+00
 -1      3990 1.12650E+02 2.92610E+01 0.00000E+00
 -1      3991 1.16400E+02 3.05600E+01 0.00000E+00
 -1      3992 1.17900E+02 3.05600E+01 0.00000E+00
 -1      3993 1.15650E+02 2.92610E+01 0.00000E+00
 -1      3994 1.19400E+02 3.05600E+01 0.00000E+00
 -1      3995 1.20900E+02 3.05600E+01 0.00000E+00
 -1      3996 1.18650E+02 2.92610E+01 0.00000E+00
 -1      3997 1.22400E+02 3.05600E+01 0.00000E+00
 -1      3998 1.23900E+02 3.05600E+01 0.00000E+00
 -1      3999 1.21650E+02 2.92610E+01 0.00000E+00
 -1      4000 1.25400E+02 3.05600E+01 0.00000E+00
 -1      4001 1.26900E+02 3.05600E+01 0.00000E+00
 -1      4002 1.24650E+02 2.92610E+01 0.00000E+00
 -1      4003 1.28400E+02 3.05600E+01 0.00000E+00
 -1      4004 1.29900E+02 3.05600E+01 0.00000E+00
 -1      4005 1.27650E+02 2.92610E+01 0.00000E+00
 -1      4006 6.62850E+01 1.82952E+01 0.00000E+00
 -1      4007 6.47850E+01 1.82952E+01 0.00000E+00
 -1      4008 6.40350E+01 1.95942E+01 0.00000E+00
 -1      4009 5.72850E+01 1.82952E+01 0.00000E+00
 -1      4010 5.57850E+01 1.82952E+01 0.00000E+00
 -1      4011 5.42850E+01 1.82952E+01 0.00000E+00
 -1      4012 5.27850E+01 1.82952E+01 0.00000E+00
 -1      4013 5.50350E+01 1.95942E+01 0.00000E+00
 -1      4014 6.92850E+01 1.82952E+01 0.00000E+00
 -1      4015 6.77850E+01 1.82952E+01 0.00000E+00
 -1      4016 6.70350E+01 1.95942E+01 0.00000E+00
 -1      4017 7.22850E+01 1.82952E+01 0.00000E+00
 -1      4018 7.07850E+01 1.82952E+01 0.00000E+00
 -1      4019 7.00350E+01 1.95942E+01 0.00000E+00
 -1      4020 7.52850E+01 1.82952E+01 0.00000E+00
 -1      4021 7.37850E+01 1.82952E+01 0.00000E+00
 -1      4022 7.30350E+01 1.95942E+01 0.00000E+00
 -1      4023 7.82850E+01 1.82952E+01 0.00000E+00
 -1      4024 7.67850E+01 1.82952E+01 0.00000E+00
 -1      4025 7.60350E+01 1.95942E+01 0.00000E+00
 -1      4026 8.12850E+01 1.82952E+01 0.00000E+00
 -1      4027 7.97850E+01 1.82952E+01 0.00000E+00
 -1      4028 7.90350E+01 1.95942E+01 0.00000E+00
 -1      4029 8.42850E+01 1.82952E+01 0.00000E+00
 -1      4030 8.27850E+01 1.82952E+01 0.00000E+00
 -1      4031 8.20350E+01 1.95942E+01 0.00000E+00
 -1      4032 8.72850E+01 1.82952E+01 0.00000E+00
 -1      4033 8.57850E+01 1.82952E+01 0.00000E+00
 -1      4034 8.50350E+01 1.95942E+01 0.00000E+00
 -1      4035 9.02850E+01 1.82952E+01 0.00000E+00
 -1      4036 8.87850E+01 1.82952E+01 0.00000E+00
 -1      4037 8.80350E+01 1.95942E+01 0.00000E+00
 -1      4038 9.32850E+01 1.82952E+01 0.00000E+00
 -1      4039 9.17850E+01 1.82952E+01 0.00000E+00
 -1      4040 9.10350E+01 1.95942E+01 0.00000E+00
 -1      4041 9.62850E+01 1.82952E+01 0.00000E+00
 -1      4042 9.47850E+01 1.82952E+01 0.00000E+00
 -1      4043 9.40350E+01 1.95942E+01 0.00000E+00
 -1      4044 9.92850E+01 1.82952E+01 0.00000E+00
 -1      4045 9.77850E+01 1.82952E+01 0.00000E+00
 -1      4046 9.70350E+01 1.95942E+01 0.00000E+00
 -1      4047 1.02285E+02 1.82952E+01 0.00000E+00
 -1      4048 1.00785E+02 1.82952E+01 0.00000E+00
 -1      4049 1.00035E+02 1.95942E+01 0.00000E+00
 -1      4050 1.05285E+02 1.82952E+01 0.00000E+00
 -1      4051 1.03785E+02 1.82952E+01 0.00000E+00
 -1      4052 1.03035E+02 1.95942E+01 0.00000E+00
 -1      4053 1.08285E+02 1.82952E+01 0.00000E+00
 -1      4054 1.06785E+02 1.82952E+01 0.00000E+00
 -1      4055 1.06035E+02 1.95942E+01 0.00000E+00
 -1      4056 1.11285E+02 1.82952E+01 0.00000E+00
 -1      4057 1.09785E+02 1.82952E+01 0.00000E+00
 -1      4058 1.09035E+02 1.95942E+01 0.00000E+00
 -1      4059 1.14285E+02 1.82952E+01 0.00000E+00
 -1      4060 1.12785E+02 1.82952E+01 0.00000E+00
 -1      4061 1.12035E+02 1.95942E+01 0.00000E+00
 -1      4062 1.17285E+02 1.82952E+01 0.00000E+00
 -1      4063 1.15785E+02 1.82952E+01 0.00000E+00
 -1      4064 1.15035E+02 1.95942E+01 0.00000E+00
 -1      4065 1.20285E+02 1.82952E+01 0.00000E+00
 -1      4066 1.18785E+02 1.82952E+01 0.00000E+00
 -1      4067 1.18035E+02 1.95942E+01 0.00000E+00
 -1      4068 1.23285E+02 1.82952E+01 0.00000E+00
 -1      4069 1.21785E+02 1.82952E+01 0.00000E+00
 -1      4070 1.21035E+02 1.95942E+01 0.00000E+00
 -1      4071 1.26285E+02 1.82952E+01 0.00000E+00
 -1      4072 1.24785E+02 1.82952E+01 0.00000E+00
 -1      4073 1.24035E+02 1.95942E+01 0.00000E+00
 -1      4074 1.28910E+02 1.83809E+01 0.00000E+00
 -1      4075 1.27410E+02 1.83809E+01 0.00000E+00
 -1      4076 1.26660E+02 1.96799E+01 0.00000E+00
 -1      4077 1.28910E+02 1.98512E+01 0.00000E+00
 -1      4078 5.14527E+01 1.80296E+01 0.00000E+00
 -1      4079 5.00854E+01 1.79732E+01 0.00000E+00
 -1      4080 4.95381E+01 1.87973E+01 0.00000E+00
 -1      4081 5.22027E+01 1.93286E+01 0.00000E+00
 -1      4082 5.04250E+01 2.75087E+01 0.00000E+00
 -1      4083 5.00445E+01 2.94280E+01 0.00000E+00
 -1      4084 6.02850E+01 1.82952E+01 0.00000E+00
 -1      4085 5.87850E+01 1.82952E+01 0.00000E+00
 -1      4086 6.10350E+01 1.95942E+01 0.00000E+00
 -1      4087 1.32668E+02 2.30084E+01 0.00000E+00
 -1      4088 1.32668E+02 2.15381E+01 0.00000E+00
 -1      4089 1.30480E+02 2.12050E+01 0.00000E+00
 -1      4090 1.31369E+02 2.37412E+01 0.00000E+00
 -1      4091 1.32531E+02 3.06358E+01 0.00000E+00
 -1      4092 1.30515E+02 2.72125E+01 0.00000E+00
 -1      4093 1.30515E+02 2.57437E+01 0.00000E+00
 -1      4094 5.05795E+01 3.02900E+01 0.00000E+00
 -1      4095 5.20795E+01 3.02900E+01 0.00000E+00
 -1      4096 4.91150E+01 3.09970E+01 0.00000E+00
 -1      4097 5.80350E+01 1.95942E+01 0.00000E+00
 -1      4098 5.28295E+01 2.89910E+01 0.00000E+00
 -1      4099 1.30070E+02 2.44756E+01 0.00000E+00
 -1      4100 1.29626E+02 2.32075E+01 0.00000E+00
 -1      4101 1.28771E+02 2.52100E+01 0.00000E+00
 -1      4102 1.31232E+02 2.99030E+01 0.00000E+00
 -1      4103 5.04055E+01 1.97259E+01 0.00000E+00
 -1      4104 5.01630E+01 2.24135E+01 0.00000E+00
 -1      4105 5.12369E+01 2.33650E+01 0.00000E+00
 -1      4106 5.10145E+01 2.13403E+01 0.00000E+00
 -1      4107 6.47850E+01 2.08932E+01 0.00000E+00
 -1      4108 6.32850E+01 2.08932E+01 0.00000E+00
 -1      4109 5.24294E+01 2.75833E+01 0.00000E+00
 -1      4110 5.37500E+01 2.78534E+01 0.00000E+00
 -1      4111 1.30482E+02 2.86040E+01 0.00000E+00
 -1      4112 5.79000E+01 2.79620E+01 0.00000E+00
 -1      4113 5.94000E+01 2.79620E+01 0.00000E+00
 -1      4114 6.09000E+01 2.79620E+01 0.00000E+00
 -1      4115 6.24000E+01 2.79620E+01 0.00000E+00
 -1      4116 6.01500E+01 2.66630E+01 0.00000E+00
 -1      4117 6.39000E+01 2.79620E+01 0.00000E+00
 -1      4118 6.54000E+01 2.79620E+01 0.00000E+00
 -1      4119 6.31500E+01 2.66630E+01 0.00000E+00
 -1      4120 6.69000E+01 2.79620E+01 0.00000E+00
 -1      4121 6.84000E+01 2.79620E+01 0.00000E+00
 -1      4122 6.61500E+01 2.66630E+01 0.00000E+00
 -1      4123 6.99000E+01 2.79620E+01 0.00000E+00
 -1      4124 7.14000E+01 2.79620E+01 0.00000E+00
 -1      4125 6.91500E+01 2.66630E+01 0.00000E+00
 -1      4126 7.29000E+01 2.79620E+01 0.00000E+00
 -1      4127 7.44000E+01 2.79620E+01 0.00000E+00
 -1      4128 7.21500E+01 2.66630E+01 0.00000E+00
 -1      4129 7.59000E+01 2.79620E+01 0.00000E+00
 -1      4130 7.74000E+01 2.79620E+01 0.00000E+00
 -1      4131 7.51500E+01 2.66630E+01 0.00000E+00
 -1      4132 7.89000E+01 2.79620E+01 0.00000E+00
 -1      4133 8.04000E+01 2.79620E+01 0.00000E+00
 -1      4134 7.81500E+01 2.66630E+01 0.00000E+00
 -1      4135 8.19000E+01 2.79620E+01 0.00000E+00
 -1      4136 8.34000E+01 2.79620E+01 0.00000E+00
 -1      4137 8.11500E+01 2.66630E+01 0.00000E+00
 -1      4138 8.49000E+01 2.79620E+01 0.00000E+00
 -1      4139 8.64000E+01 2.79620E+01 0.00000E+00
 -1      4140 8.41500E+01 2.66630E+01 0.00000E+00
 -1      4141 8.79000E+01 2.79620E+01 0.00000E+00
 -1      4142 8.94000E+01 2.79620E+01 0.00000E+00
 -1      4143 8.71500E+01 2.66630E+01 0.00000E+00
 -1      4144 9.09000E+01 2.79620E+01 0.00000E+00
 -1      4145 9.24000E+01 2.79620E+01 0.00000E+00
 -1      4146 9.01500E+01 2.66630E+01 0.00000E+00
 -1      4147 9.39000E+01 2.79620E+01 0.00000E+00
 -1      4148 9.54000E+01 2.79620E+01 0.00000E+00
 -1      4149 9.31500E+01 2.66630E+01 0.00000E+00
 -1      4150 9.69000E+01 2.79620E+01 0.00000E+00
 -1      4151 9.84000E+01 2.79620E+01 0.00000E+00
 -1      4152 9.61500E+01 2.66630E+01 0.00000E+00
 -1      4153 9.99000E+01 2.79620E+01 0.00000E+00
 -1      4154 1.01400E+02 2.79620E+01 0.00000E+00
 -1      4155 9.91500E+01 2.66630E+01 0.00000E+00
 -1      4156 1.02900E+02 2.79620E+01 0.00000E+00
 -1      4157 1.04400E+02 2.79620E+01 0.00000E+00
 -1      4158 1.02150E+02 2.66630E+01 0.00000E+00
 -1      4159 1.05900E+02 2.79620E+01 0.00000E+00
 -1      4160 1.07400E+02 2.79620E+01 0.00000E+00
 -1      4161 1.05150E+02 2.66630E+01 0.00000E+00
 -1      4162 1.08900E+02 2.79620E+01 0.00000E+00
 -1      4163 1.10400E+02 2.79620E+01 0.00000E+00
 -1      4164 1.08150E+02 2.66630E+01 0.00000E+00
 -1      4165 1.11900E+02 2.79620E+01 0.00000E+00
 -1      4166 1.13400E+02 2.79620E+01 0.00000E+00
 -1      4167 1.11150E+02 2.66630E+01 0.00000E+00
 -1      4168 1.14900E+02 2.79620E+01 0.00000E+00
 -1      4169 1.16400E+02 2.79620E+01 0.00000E+00
 -1      4170 1.14150E+02 2.66630E+01 0.00000E+00
 -1      4171 1.17900E+02 2.79620E+01 0.00000E+00
 -1      4172 1.19400E+02 2.79620E+01 0.00000E+00
 -1      4173 1.17150E+02 2.66630E+01 0.00000E+00
 -1      4174 1.20900E+02 2.79620E+01 0.00000E+00
 -1      4175 1.22400E+02 2.79620E+01 0.00000E+00
 -1      4176 1.20150E+02 2.66630E+01 0.00000E+00
 -1      4177 1.23900E+02 2.79620E+01 0.00000E+00
 -1      4178 1.25400E+02 2.79620E+01 0.00000E+00
 -1      4179 1.23150E+02 2.66630E+01 0.00000E+00
 -1      4180 7.07850E+01 2.08932E+01 0.00000E+00
 -1      4181 6.92850E+01 2.08932E+01 0.00000E+00
 -1      4182 7.37850E+01 2.08932E+01 0.00000E+00
 -1      4183 7.22850E+01 2.08932E+01 0.00000E+00
 -1      4184 7.15350E+01 2.21922E+01 0.00000E+00
 -1      4185 7.67850E+01 2.08932E+01 0.00000E+00
 -1      4186 7.52850E+01 2.08932E+01 0.00000E+00
 -1      4187 7.45350E+01 2.21922E+01 0.00000E+00
 -1      4188 7.97850E+01 2.08932E+01 0.00000E+00
 -1      4189 7.82850E+01 2.08932E+01 0.00000E+00
 -1      4190 7.75350E+01 2.21922E+01 0.00000E+00
 -1      4191 8.27850E+01 2.08932E+01 0.00000E+00
 -1      4192 8.12850E+01 2.08932E+01 0.00000E+00
 -1      4193 8.05350E+01 2.21922E+01 0.00000E+00
 -1      4194 8.57850E+01 2.08932E+01 0.00000E+00
 -1      4195 8.42850E+01 2.08932E+01 0.00000E+00
 -1      4196 8.35350E+01 2.21922E+01 0.00000E+00
 -1      4197 8.87850E+01 2.08932E+01 0.00000E+00
 -1      4198 8.72850E+01 2.08932E+01 0.00000E+00
 -1      4199 8.65350E+01 2.21922E+01 0.00000E+00
 -1      4200 9.17850E+01 2.08932E+01 0.00000E+00
 -1      4201 9.02850E+01 2.08932E+01 0.00000E+00
 -1      4202 8.95350E+01 2.21922E+01 0.00000E+00
 -1      4203 9.47850E+01 2.08932E+01 0.00000E+00
 -1      4204 9.32850E+01 2.08932E+01 0.00000E+00
 -1      4205 9.25350E+01 2.21922E+01 0.00000E+00
 -1      4206 9.77850E+01 2.08932E+01 0.00000E+00
 -1      4207 9.62850E+01 2.08932E+01 0.00000E+00
 -1      4208 9.55350E+01 2.21922E+01 0.00000E+00
 -1      4209 1.00785E+02 2.08932E+01 0.00000E+00
 -1      4210 9.92850E+01 2.08932E+01 0.00000E+00
 -1      4211 9.85350E+01 2.21922E+01 0.00000E+00
 -1      4212 1.03785E+02 2.08932E+01 0.00000E+00
 -1      4213 1.02285E+02 2.08932E+01 0.00000E+00
 -1      4214 1.01535E+02 2.21922E+01 0.00000E+00
 -1      4215 1.06785E+02 2.08932E+01 0.00000E+00
 -1      4216 1.05285E+02 2.08932E+01 0.00000E+00
 -1      4217 1.04535E+02 2.21922E+01 0.00000E+00
 -1      4218 1.09785E+02 2.08932E+01 0.00000E+00
 -1      4219 1.08285E+02 2.08932E+01 0.00000E+00
 -1      4220 1.07535E+02 2.21922E+01 0.00000E+00
 -1      4221 1.12785E+02 2.08932E+01 0.00000E+00
 -1      4222 1.11285E+02 2.08932E+01 0.00000E+00
 -1      4223 1.10535E+02 2.21922E+01 0.00000E+00
 -1      4224 1.15785E+02 2.08932E+01 0.00000E+00
 -1      4225 1.14285E+02 2.08932E+01 0.00000E+00
 -1      4226 1.13535E+02 2.21922E+01 0.00000E+00
 -1      4227 1.18785E+02 2.08932E+01 0.00000E+00
 -1      4228 1.17285E+02 2.08932E+01 0.00000E+00
 -1      4229 1.16535E+02 2.21922E+01 0.00000E+00
 -1      4230 1.21785E+02 2.08932E+01 0.00000E+00
 -1      4231 1.20285E+02 2.08932E+01 0.00000E+00
 -1      4232 1.19535E+02 2.21922E+01 0.00000E+00
 -1      4233 1.24785E+02 2.08932E+01 0.00000E+00
 -1      4234 1.23285E+02 2.08932E+01 0.00000E+00
 -1      4235 1.22535E+02 2.21922E+01 0.00000E+00
 -1      4236 5.18677E+01 2.54419E+01 0.00000E+00
 -1      4237 5.13455E+01 2.63711E+01 0.00000E+00
 -1      4238 6.17850E+01 2.08932E+01 0.00000E+00
 -1      4239 6.02850E+01 2.08932E+01 0.00000E+00
 -1      4240 6.25350E+01 2.21922E+01 0.00000E+00
 -1      4241 5.57850E+01 2.08932E+01 0.00000E+00
 -1      4242 5.42850E+01 2.08932E+01 0.00000E+00
 -1      4243 1.29490E+02 2.21634E+01 0.00000E+00
 -1      4244 1.29045E+02 2.08953E+01 0.00000E+00
 -1      4245 1.27920E+02 2.08096E+01 0.00000E+00
 -1      4246 1.28191E+02 2.28978E+01 0.00000E+00
 -1      4247 5.50750E+01 2.79077E+01 0.00000E+00
 -1      4248 5.65750E+01 2.79077E+01 0.00000E+00
 -1      4249 5.73250E+01 2.66087E+01 0.00000E+00
 -1      4250 5.46750E+01 2.65000E+01 0.00000E+00
 -1      4251 5.87850E+01 2.08932E+01 0.00000E+00
 -1      4252 5.72850E+01 2.08932E+01 0.00000E+00
 -1      4253 5.65350E+01 2.21922E+01 0.00000E+00
 -1      4254 1.29183E+02 2.78696E+01 0.00000E+00
 -1      4255 6.77850E+01 2.08932E+01 0.00000E+00
 -1      4256 6.62850E+01 2.08932E+01 0.00000E+00
 -1      4257 6.55350E+01 2.21922E+01 0.00000E+00
 -1      4258 6.85350E+01 2.21922E+01 0.00000E+00
 -1      4259 1.27683E+02 2.78696E+01 0.00000E+00
 -1      4260 5.27192E+01 2.43688E+01 0.00000E+00
 -1      4261 1.26933E+02 2.65706E+01 0.00000E+00
 -1      4262 5.95350E+01 2.21922E+01 0.00000E+00
 -1      4263 1.26915E+02 2.08943E+01 0.00000E+00
 -1      4264 1.25790E+02 2.08086E+01 0.00000E+00
 -1      4265 1.25040E+02 2.21076E+01 0.00000E+00
 -1      4266 1.27051E+02 2.19384E+01 0.00000E+00
 -1      4267 5.28118E+01 2.09430E+01 0.00000E+00
 -1      4268 5.14794E+01 2.06774E+01 0.00000E+00
 -1      4269 5.41925E+01 2.43190E+01 0.00000E+00
 -1      4270 5.55175E+01 2.43733E+01 0.00000E+00
 -1      4271 1.26488E+02 2.53025E+01 0.00000E+00
 -1      4272 5.35618E+01 2.22420E+01 0.00000E+00
 -1      4273 5.70175E+01 2.43733E+01 0.00000E+00
 -1      4274 5.83425E+01 2.44276E+01 0.00000E+00
 -1      4275 6.28425E+01 2.44276E+01 0.00000E+00
 -1      4276 6.43425E+01 2.44276E+01 0.00000E+00
 -1      4277 6.58425E+01 2.44276E+01 0.00000E+00
 -1      4278 6.73425E+01 2.44276E+01 0.00000E+00
 -1      4279 6.88425E+01 2.44276E+01 0.00000E+00
 -1      4280 7.03425E+01 2.44276E+01 0.00000E+00
 -1      4281 7.18425E+01 2.44276E+01 0.00000E+00
 -1      4282 7.33425E+01 2.44276E+01 0.00000E+00
 -1      4283 7.48425E+01 2.44276E+01 0.00000E+00
 -1      4284 7.63425E+01 2.44276E+01 0.00000E+00
 -1      4285 7.78425E+01 2.44276E+01 0.00000E+00
 -1      4286 7.93425E+01 2.44276E+01 0.00000E+00
 -1      4287 8.08425E+01 2.44276E+01 0.00000E+00
 -1      4288 8.23425E+01 2.44276E+01 0.00000E+00
 -1      4289 8.38425E+01 2.44276E+01 0.00000E+00
 -1      4290 8.53425E+01 2.44276E+01 0.00000E+00
 -1      4291 8.68425E+01 2.44276E+01 0.00000E+00
 -1      4292 8.83425E+01 2.44276E+01 0.00000E+00
 -1      4293 8.98425E+01 2.44276E+01 0.00000E+00
 -1      4294 9.13425E+01 2.44276E+01 0.00000E+00
 -1      4295 9.28425E+01 2.44276E+01 0.00000E+00
 -1      4296 9.43425E+01 2.44276E+01 0.00000E+00
 -1      4297 9.58425E+01 2.44276E+01 0.00000E+00
 -1      4298 9.73425E+01 2.44276E+01 0.00000E+00
 -1      4299 9.88425E+01 2.44276E+01 0.00000E+00
 -1      4300 1.00342E+02 2.44276E+01 0.00000E+00
 -1      4301 1.01842E+02 2.44276E+01 0.00000E+00
 -1      4302 1.03342E+02 2.44276E+01 0.00000E+00
 -1      4303 1.04842E+02 2.44276E+01 0.00000E+00
 -1      4304 1.06342E+02 2.44276E+01 0.00000E+00
 -1      4305 1.07842E+02 2.44276E+01 0.00000E+00
 -1      4306 1.09342E+02 2.44276E+01 0.00000E+00
 -1      4307 1.10842E+02 2.44276E+01 0.00000E+00
 -1      4308 1.12342E+02 2.44276E+01 0.00000E+00
 -1      4309 1.13842E+02 2.44276E+01 0.00000E+00
 -1      4310 1.15342E+02 2.44276E+01 0.00000E+00
 -1      4311 1.16842E+02 2.44276E+01 0.00000E+00
 -1      4312 1.18342E+02 2.44276E+01 0.00000E+00
 -1      4313 1.19842E+02 2.44276E+01 0.00000E+00
 -1      4314 1.21342E+02 2.44276E+01 0.00000E+00
 -1      4315 1.22842E+02 2.44276E+01 0.00000E+00
 -1      4316 1.24342E+02 2.44276E+01 0.00000E+00
 -1      4317 6.13425E+01 2.44276E+01 0.00000E+00
 -1      4318 5.98425E+01 2.44276E+01 0.00000E+00
 -1      4319 1.26181E+02 2.30671E+01 0.00000E+00
 -1      4320 1.27186E+02 2.29824E+01 0.00000E+00
 -3
    3C                          2078                                     1
 -1       165    8    0    1
 -2         6         7        23      1122      1286      1139
 -1       166    8    0    1
 -2         7         8       165      1123      1287      1288
 -1       167    8    0    1
 -2         8         9       166      1124      1289      1290
 -1       168    8    0    1
 -2         8       166       165      1290      1291      1287
 -1       169    8    0    1
 -2         9        10       167      1125      1292      1293
 -1       170    8    0    1
 -2         9       167       166      1293      1294      1289
 -1       171    8    0    1
 -2        10        11       168      1126      1295      1296
 -1       172    8    0    1
 -2        10       168       167      1296      1297      1292
 -1       173    8    0    1
 -2        11        12       169      1127      1298      1299
 -1       174    8    0    1
 -2        11       169       168      1299      1300      1295
 -1       175    8    0    1
 -2        12        13       170      1128      1301      1302
 -1       176    8    0    1
 -2        12       170       169      1302      1303      1298
 -1       177    8    0    1
 -2        13        14       171      1129      1304      1305
 -1       178    8    0    1
 -2        13       171       170      1305      1306      1301
 -1       179    8    0    1
 -2        14        15       172      1130      1307      1308
 -1       180    8    0    1
 -2        14       172       171      1308      1309      1304
 -1       181    8    0    1
 -2        15        16       173      1131      1310      1311
 -1       182    8    0    1
 -2        15       173       172      1311      1312      1307
 -1       183    8    0    1
 -2        16        17       174      1132      1313      1314
 -1       184    8    0    1
 -2        16       174       173      1314      1315      1310
 -1       185    8    0    1
 -2        17        18       175      1133      1316      1317
 -1       186    8    0    1
 -2        17       175       174      1317      1318      1313
 -1       187    8    0    1
 -2        18        19       176      1134      1319      1320
 -1       188    8    0    1
 -2        18       176       175      1320      1321      1316
 -1       189    8    0    1
 -2        19        20       177      1135      1322      1323
 -1       190    8    0    1
 -2        19       177       176      1323      1324      1319
 -1       191    8    0    1
 -2        20        21       178      1136      1325      1326
 -1       192    8    0    1
 -2        20       178       177      1326      1327      1322
 -1       193    8    0    1
 -2        21        22       179      1137      1328      1329
 -1       194    8    0    1
 -2        21       179       178      1329      1330      1325
 -1       195    8    0    1
 -2        22         5       180      1138      1331      1332
 -1       196    8    0    1
 -2       179        22       180      1328      1332      1333
 -1       197    8    0    1
 -2         5        72       180      1189      1334      1331
 -1       198    8    0    1
 -2        24        23       181      1140      1335      1336
 -1       199    8    0    1
 -2        25        24       182      1141      1337      1338
 -1       200    8    0    1
 -2        24       181       182      1336      1339      1337
 -1       201    8    0    1
 -2        26        25       183      1142      1340      1341
 -1       202    8    0    1
 -2        25       182       183      1338      1342      1340
 -1       203    8    0    1
 -2        27        26       184      1143      1343      1344
 -1       204    8    0    1
 -2        26       183       184      1341      1345      1343
 -1       205    8    0    1
 -2        28        27       185      1144      1346      1347
 -1       206    8    0    1
 -2        27       184       185      1344      1348      1346
 -1       207    8    0    1
 -2        29        28       186      1145      1349      1350
 -1       208    8    0    1
 -2        28       185       186      1347      1351      1349
 -1       209    8    0    1
 -2        30        29       187      1146      1352      1353
 -1       210    8    0    1
 -2        29       186       187      1350      1354      1352
 -1       211    8    0    1
 -2        31        30       188      1147      1355      1356
 -1       212    8    0    1
 -2        30       187       188      1353      1357      1355
 -1       213    8    0    1
 -2        32        31       189      1148      1358      1359
 -1       214    8    0    1
 -2        31       188       189      1356      1360      1358
 -1       215    8    0    1
 -2        33        32       190      1149      1361      1362
 -1       216    8    0    1
 -2        32       189       190      1359      1363      1361
 -1       217    8    0    1
 -2        34        33       191      1150      1364      1365
 -1       218    8    0    1
 -2        33       190       191      1362      1366      1364
 -1       219    8    0    1
 -2        35        34       192      1151      1367      1368
 -1       220    8    0    1
 -2        34       191       192      1365      1369      1367
 -1       221    8    0    1
 -2        36        35       193      1152      1370      1371
 -1       222    8    0    1
 -2        35       192       193      1368      1372      1370
 -1       223    8    0    1
 -2        37        36       194      1153      1373      1374
 -1       224    8    0    1
 -2        36       193       194      1371      1375      1373
 -1       225    8    0    1
 -2        38        37       195      1154      1376      1377
 -1       226    8    0    1
 -2        37       194       195      1374      1378      1376
 -1       227    8    0    1
 -2        39        38       196      1155      1379      1380
 -1       228    8    0    1
 -2        38       195       196      1377      1381      1379
 -1       229    8    0    1
 -2        40        39       197      1156      1382      1383
 -1       230    8    0    1
 -2        39       196       197      1380      1384      1382
 -1       231    8    0    1
 -2        41        40       198      1157      1385      1386
 -1       232    8    0    1
 -2        40       197       198      1383      1387      1385
 -1       233    8    0    1
 -2        42        41       199      1158      1388      1389
 -1       234    8    0    1
 -2        41       198       199      1386      1390      1388
 -1       235    8    0    1
 -2        43        42       200      1159      1391      1392
 -1       236    8    0    1
 -2        42       199       200      1389      1393      1391
 -1       237    8    0    1
 -2        44        43       201      1160      1394      1395
 -1       238    8    0    1
 -2        43       200       201      1392      1396      1394
 -1       239    8    0    1
 -2        45        44       202      1161      1397      1398
 -1       240    8    0    1
 -2        44       201       202      1395      1399      1397
 -1       241    8    0    1
 -2        46        45       203      1162      1400      1401
 -1       242    8    0    1
 -2        45       202       203      1398      1402      1400
 -1       243    8    0    1
 -2        47        46       204      1163      1403      1404
 -1       244    8    0    1
 -2        46       203       204      1401      1405      1403
 -1       245    8    0    1
 -2        48        47       205      1164      1406      1407
 -1       246    8    0    1
 -2        47       204       205      1404      1408      1406
 -1       247    8    0    1
 -2        49        48       206      1165      1409      1410
 -1       248    8    0    1
 -2        48       205       206      1407      1411      1409
 -1       249    8    0    1
 -2        50        49       207      1166      1412      1413
 -1       250    8    0    1
 -2        49       206       207      1410      1414      1412
 -1       251    8    0    1
 -2        51        50       208      1167      1415      1416
 -1       252    8    0    1
 -2        50       207       208      1413      1417      1415
 -1       253    8    0    1
 -2        52        51       209      1168      1418      1419
 -1       254    8    0    1
 -2        51       208       209      1416      1420      1418
 -1       255    8    0    1
 -2        53        52       210      1169      1421      1422
 -1       256    8    0    1
 -2        52       209       210      1419      1423      1421
 -1       257    8    0    1
 -2        54        53       211      1170      1424      1425
 -1       258    8    0    1
 -2        53       210       211      1422      1426      1424
 -1       259    8    0    1
 -2        55        54       212      1171      1427      1428
 -1       260    8    0    1
 -2        54       211       212      1425      1429      1427
 -1       261    8    0    1
 -2        56        55       213      1172      1430      1431
 -1       262    8    0    1
 -2        55       212       213      1428      1432      1430
 -1       263    8    0    1
 -2        57        56       214      1173      1433      1434
 -1       264    8    0    1
 -2        56       213       214      1431      1435      1433
 -1       265    8    0    1
 -2        58        57       215      1174      1436      1437
 -1       266    8    0    1
 -2        57       214       215      1434      1438      1436
 -1       267    8    0    1
 -2        59        58       216      1175      1439      1440
 -1       268    8    0    1
 -2        58       215       216      1437      1441      1439
 -1       269    8    0    1
 -2        60        59       217      1176      1442      1443
 -1       270    8    0    1
 -2        59       216       217      1440      1444      1442
 -1       271    8    0    1
 -2        61        60       218      1177      1445      1446
 -1       272    8    0    1
 -2        60       217       218      1443      1447      1445
 -1       273    8    0    1
 -2        62        61       219      1178      1448      1449
 -1       274    8    0    1
 -2        61       218       219      1446      1450      1448
 -1       275    8    0    1
 -2        63        62       220      1179      1451      1452
 -1       276    8    0    1
 -2        62       219       220      1449      1453      1451
 -1       277    8    0    1
 -2        64        63       221      1180      1454      1455
 -1       278    8    0    1
 -2        63       220       221      1452      1456      1454
 -1       279    8    0    1
 -2        65        64       222      1181      1457      1458
 -1       280    8    0    1
 -2        64       221       222      1455      1459      1457
 -1       281    8    0    1
 -2        66        65       223      1182      1460      1461
 -1       282    8    0    1
 -2        65       222       223      1458      1462      1460
 -1       283    8    0    1
 -2        67        66       224      1183      1463      1464
 -1       284    8    0    1
 -2        66       223       224      1461      1465      1463
 -1       285    8    0    1
 -2        68        67       225      1184      1466      1467
 -1       286    8    0    1
 -2        67       224       225      1464      1468      1466
 -1       287    8    0    1
 -2        69        68       226      1185      1469      1470
 -1       288    8    0    1
 -2        68       225       226      1467      1471      1469
 -1       289    8    0    1
 -2        70        69       227      1186      1472      1473
 -1       290    8    0    1
 -2        69       226       227      1470      1474      1472
 -1       291    8    0    1
 -2        71        70       228      1187      1475      1476
 -1       292    8    0    1
 -2        70       227       228      1473      1477      1475
 -1       293    8    0    1
 -2         4        71       136      1188      1478      1255
 -1       294    8    0    1
 -2       136        71       228      1478      1476      1479
 -1       295    8    0    1
 -2        72        73       229      1190      1480      1481
 -1       296    8    0    1
 -2        72       229       180      1481      1482      1334
 -1       297    8    0    1
 -2        73        74       230      1191      1483      1484
 -1       298    8    0    1
 -2        73       230       229      1484      1485      1480
 -1       299    8    0    1
 -2        74        75       231      1192      1486      1487
 -1       300    8    0    1
 -2        74       231       230      1487      1488      1483
 -1       301    8    0    1
 -2        75        76       232      1193      1489      1490
 -1       302    8    0    1
 -2        75       232       231      1490      1491      1486
 -1       303    8    0    1
 -2        76        77       233      1194      1492      1493
 -1       304    8    0    1
 -2        76       233       232      1493      1494      1489
 -1       305    8    0    1
 -2        77        78       234      1195      1495      1496
 -1       306    8    0    1
 -2        77       234       233      1496      1497      1492
 -1       307    8    0    1
 -2        78        79       235      1196      1498      1499
 -1       308    8    0    1
 -2        78       235       234      1499      1500      1495
 -1       309    8    0    1
 -2        79        80       236      1197      1501      1502
 -1       310    8    0    1
 -2        79       236       235      1502      1503      1498
 -1       311    8    0    1
 -2        80        81       237      1198      1504      1505
 -1       312    8    0    1
 -2        80       237       236      1505      1506      1501
 -1       313    8    0    1
 -2        81        82       238      1199      1507      1508
 -1       314    8    0    1
 -2        81       238       237      1508      1509      1504
 -1       315    8    0    1
 -2        82        83       239      1200      1510      1511
 -1       316    8    0    1
 -2        82       239       238      1511      1512      1507
 -1       317    8    0    1
 -2        83        84       240      1201      1513      1514
 -1       318    8    0    1
 -2        83       240       239      1514      1515      1510
 -1       319    8    0    1
 -2        84        85       241      1202      1516      1517
 -1       320    8    0    1
 -2        84       241       240      1517      1518      1513
 -1       321    8    0    1
 -2        85        86       242      1203      1519      1520
 -1       322    8    0    1
 -2        85       242       241      1520      1521      1516
 -1       323    8    0    1
 -2        86        87       243      1204      1522      1523
 -1       324    8    0    1
 -2        86       243       242      1523      1524      1519
 -1       325    8    0    1
 -2        87        88       244      1205      1525      1526
 -1       326    8    0    1
 -2        87       244       243      1526      1527      1522
 -1       327    8    0    1
 -2        88        89       245      1206      1528      1529
 -1       328    8    0    1
 -2        88       245       244      1529      1530      1525
 -1       329    8    0    1
 -2        89        90       246      1207      1531      1532
 -1       330    8    0    1
 -2        89       246       245      1532      1533      1528
 -1       331    8    0    1
 -2        90        91       247      1208      1534      1535
 -1       332    8    0    1
 -2        90       247       246      1535      1536      1531
 -1       333    8    0    1
 -2        91        92       248      1209      1537      1538
 -1       334    8    0    1
 -2        91       248       247      1538      1539      1534
 -1       335    8    0    1
 -2        92        93       249      1210      1540      1541
 -1       336    8    0    1
 -2        92       249       248      1541      1542      1537
 -1       337    8    0    1
 -2        93        94       250      1211      1543      1544
 -1       338    8    0    1
 -2        93       250       249      1544      1545      1540
 -1       339    8    0    1
 -2        94        95       251      1212      1546      1547
 -1       340    8    0    1
 -2        94       251       250      1547      1548      1543
 -1       341    8    0    1
 -2        95        96       252      1213      1549      1550
 -1       342    8    0    1
 -2        95       252       251      1550      1551      1546
 -1       343    8    0    1
 -2        96        97       253      1214      1552      1553
 -1       344    8    0    1
 -2        96       253       252      1553      1554      1549
 -1       345    8    0    1
 -2        97        98       254      1215      1555      1556
 -1       346    8    0    1
 -2        97       254       253      1556      1557      1552
 -1       347    8    0    1
 -2        98        99       255      1216      1558      1559
 -1       348    8    0    1
 -2        98       255       254      1559      1560      1555
 -1       349    8    0    1
 -2        99       100       256      1217      1561      1562
 -1       350    8    0    1
 -2        99       256       255      1562      1563      1558
 -1       351    8    0    1
 -2       100       101       257      1218      1564      1565
 -1       352    8    0    1
 -2       100       257       256      1565      1566      1561
 -1       353    8    0    1
 -2       101       102       258      1219      1567      1568
 -1       354    8    0    1
 -2       101       258       257      1568      1569      1564
 -1       355    8    0    1
 -2       102       103       259      1220      1570      1571
 -1       356    8    0    1
 -2       102       259       258      1571      1572      1567
 -1       357    8    0    1
 -2       103       104       260      1221      1573      1574
 -1       358    8    0    1
 -2       103       260       259      1574      1575      1570
 -1       359    8    0    1
 -2       104       105       261      1222      1576      1577
 -1       360    8    0    1
 -2       104       261       260      1577      1578      1573
 -1       361    8    0    1
 -2       105       106       262      1223      1579      1580
 -1       362    8    0    1
 -2       105       262       261      1580      1581      1576
 -1       363    8    0    1
 -2       106       107       263      1224      1582      1583
 -1       364    8    0    1
 -2       106       263       262      1583      1584      1579
 -1       365    8    0    1
 -2       107       108       264      1225      1585      1586
 -1       366    8    0    1
 -2       107       264       263      1586      1587      1582
 -1       367    8    0    1
 -2       108       109       265      1226      1588      1589
 -1       368    8    0    1
 -2       108       265       264      1589      1590      1585
 -1       369    8    0    1
 -2       109       110       266      1227      1591      1592
 -1       370    8    0    1
 -2       109       266       265      1592      1593      1588
 -1       371    8    0    1
 -2       110       111       267      1228      1594      1595
 -1       372    8    0    1
 -2       110       267       266      1595      1596      1591
 -1       373    8    0    1
 -2       111       112       268      1229      1597      1598
 -1       374    8    0    1
 -2       111       268       267      1598      1599      1594
 -1       375    8    0    1
 -2       112       113       269      1230      1600      1601
 -1       376    8    0    1
 -2       112       269       268      1601      1602      1597
 -1       377    8    0    1
 -2       113       114       270      1231      1603      1604
 -1       378    8    0    1
 -2       113       270       269      1604      1605      1600
 -1       379    8    0    1
 -2       114       115       271      1232      1606      1607
 -1       380    8    0    1
 -2       114       271       270      1607      1608      1603
 -1       381    8    0    1
 -2       115       116       272      1233      1609      1610
 -1       382    8    0    1
 -2       115       272       271      1610      1611      1606
 -1       383    8    0    1
 -2       116       117       273      1234      1612      1613
 -1       384    8    0    1
 -2       116       273       272      1613      1614      1609
 -1       385    8    0    1
 -2       117       118       274      1235      1615      1616
 -1       386    8    0    1
 -2       117       274       273      1616      1617      1612
 -1       387    8    0    1
 -2       118       119       275      1236      1618      1619
 -1       388    8    0    1
 -2       118       275       274      1619      1620      1615
 -1       389    8    0    1
 -2       119       120       276      1237      1621      1622
 -1       390    8    0    1
 -2       119       276       275      1622      1623      1618
 -1       391    8    0    1
 -2       120         3       121      1238      1239      1624
 -1       392    8    0    1
 -2       121       122       277      1240      1625      1626
 -1       393    8    0    1
 -2       122       123       278      1241      1627      1628
 -1       394    8    0    1
 -2       122       278       277      1628      1629      1625
 -1       395    8    0    1
 -2       123       124       279      1242      1630      1631
 -1       396    8    0    1
 -2       123       279       278      1631      1632      1627
 -1       397    8    0    1
 -2       124       125       280      1243      1633      1634
 -1       398    8    0    1
 -2       124       280       279      1634      1635      1630
 -1       399    8    0    1
 -2       125       126       281      1244      1636      1637
 -1       400    8    0    1
 -2       125       281       280      1637      1638      1633
 -1       401    8    0    1
 -2       126       127       282      1245      1639      1640
 -1       402    8    0    1
 -2       126       282       281      1640      1641      1636
 -1       403    8    0    1
 -2       127       128       283      1246      1642      1643
 -1       404    8    0    1
 -2       127       283       282      1643      1644      1639
 -1       405    8    0    1
 -2       128       129       284      1247      1645      1646
 -1       406    8    0    1
 -2       128       284       283      1646      1647      1642
 -1       407    8    0    1
 -2       129       130       285      1248      1648      1649
 -1       408    8    0    1
 -2       129       285       284      1649      1650      1645
 -1       409    8    0    1
 -2       130       131       286      1249      1651      1652
 -1       410    8    0    1
 -2       130       286       285      1652      1653      1648
 -1       411    8    0    1
 -2       131       132       287      1250      1654      1655
 -1       412    8    0    1
 -2       131       287       286      1655      1656      1651
 -1       413    8    0    1
 -2       132       133       288      1251      1657      1658
 -1       414    8    0    1
 -2       132       288       287      1658      1659      1654
 -1       415    8    0    1
 -2       133       134       289      1252      1660      1661
 -1       416    8    0    1
 -2       133       289       288      1661      1662      1657
 -1       417    8    0    1
 -2       134       135       290      1253      1663      1664
 -1       418    8    0    1
 -2       134       290       289      1664      1665      1660
 -1       419    8    0    1
 -2       135       136       291      1254      1666      1667
 -1       420    8    0    1
 -2       290       135       291      1663      1667      1668
 -1       421    8    0    1
 -2       136       228       291      1479      1669      1666
 -1       422    8    0    1
 -2         2       137       292      1256      1670      1671
 -1       423    8    0    1
 -2       137       138       293      1257      1672      1673
 -1       424    8    0    1
 -2       138       139       294      1258      1674      1675
 -1       425    8    0    1
 -2       139       140       295      1259      1676      1677
 -1       426    8    0    1
 -2       140       141       296      1260      1678      1679
 -1       427    8    0    1
 -2       141       142       297      1261      1680      1681
 -1       428    8    0    1
 -2       142       143       298      1262      1682      1683
 -1       429    8    0    1
 -2       143       144       299      1263      1684      1685
 -1       430    8    0    1
 -2       144       145       300      1264      1686      1687
 -1       431    8    0    1
 -2       145       146       301      1265      1688      1689
 -1       432    8    0    1
 -2       146       147       302      1266      1690      1691
 -1       433    8    0    1
 -2       147       148       303      1267      1692      1693
 -1       434    8    0    1
 -2       148       149       304      1268      1694      1695
 -1       435    8    0    1
 -2       149       150       305      1269      1696      1697
 -1       436    8    0    1
 -2       150       151       306      1270      1698      1699
 -1       437    8    0    1
 -2       151       152       307      1271      1700      1701
 -1       438    8    0    1
 -2       152       153       308      1272      1702      1703
 -1       439    8    0    1
 -2       153       154       309      1273      1704      1705
 -1       440    8    0    1
 -2       154       155       310      1274      1706      1707
 -1       441    8    0    1
 -2       155       156       311      1275      1708      1709
 -1       442    8    0    1
 -2       156       157       312      1276      1710      1711
 -1       443    8    0    1
 -2       157         1       313      1277      1712      1713
 -1       444    8    0    1
 -2         1       158       314      1278      1714      1715
 -1       445    8    0    1
 -2       158       159       315      1279      1716      1717
 -1       446    8    0    1
 -2       159       160       316      1280      1718      1719
 -1       447    8    0    1
 -2       160       161       317      1281      1720      1721
 -1       448    8    0    1
 -2       161       162       318      1282      1722      1723
 -1       449    8    0    1
 -2       162       163       319      1283      1724      1725
 -1       450    8    0    1
 -2       163       164       320      1284      1726      1727
 -1       451    8    0    1
 -2       164         2       321      1285      1728      1729
 -1       452    8    0    1
 -2       295       140       296      1676      1679      1730
 -1       453    8    0    1
 -2       294       139       295      1674      1677      1731
 -1       454    8    0    1
 -2       120       121       276      1624      1732      1621
 -1       455    8    0    1
 -2       121       277       276      1626      1733      1732
 -1       456    8    0    1
 -2       292       137       293      1670      1673      1734
 -1       457    8    0    1
 -2       293       138       294      1672      1675      1735
 -1       458    8    0    1
 -2         2       292       321      1671      1736      1728
 -1       459    8    0    1
 -2       141       297       296      1681      1737      1678
 -1       460    8    0    1
 -2       142       298       297      1683      1738      1680
 -1       461    8    0    1
 -2       143       299       298      1685      1739      1682
 -1       462    8    0    1
 -2       144       300       299      1687      1740      1684
 -1       463    8    0    1
 -2       145       301       300      1689      1741      1686
 -1       464    8    0    1
 -2       146       302       301      1691      1742      1688
 -1       465    8    0    1
 -2       147       303       302      1693      1743      1690
 -1       466    8    0    1
 -2       148       304       303      1695      1744      1692
 -1       467    8    0    1
 -2       149       305       304      1697      1745      1694
 -1       468    8    0    1
 -2       150       306       305      1699      1746      1696
 -1       469    8    0    1
 -2       151       307       306      1701      1747      1698
 -1       470    8    0    1
 -2       152       308       307      1703      1748      1700
 -1       471    8    0    1
 -2       153       309       308      1705      1749      1702
 -1       472    8    0    1
 -2       154       310       309      1707      1750      1704
 -1       473    8    0    1
 -2       155       311       310      1709      1751      1706
 -1       474    8    0    1
 -2       156       312       311      1711      1752      1708
 -1       475    8    0    1
 -2       157       313       312      1713      1753      1710
 -1       476    8    0    1
 -2         1       314       313      1715      1754      1712
 -1       477    8    0    1
 -2       158       315       314      1717      1755      1714
 -1       478    8    0    1
 -2       159       316       315      1719      1756      1716
 -1       479    8    0    1
 -2       160       317       316      1721      1757      1718
 -1       480    8    0    1
 -2       161       318       317      1723      1758      1720
 -1       481    8    0    1
 -2       162       319       318      1725      1759      1722
 -1       482    8    0    1
 -2       163       320       319      1727      1760      1724
 -1       483    8    0    1
 -2       164       321       320      1729      1761      1726
 -1       484    8    0    1
 -2        23         7       165      1286      1288      1762
 -1       485    8    0    1
 -2       166       167       322      1294      1763      1764
 -1       486    8    0    1
 -2       165       166       323      1291      1765      1766
 -1       487    8    0    1
 -2       166       322       323      1764      1767      1765
 -1       488    8    0    1
 -2       168       169       324      1300      1768      1769
 -1       489    8    0    1
 -2       169       170       325      1303      1770      1771
 -1       490    8    0    1
 -2       169       325       324      1771      1772      1768
 -1       491    8    0    1
 -2       170       171       326      1306      1773      1774
 -1       492    8    0    1
 -2       170       326       325      1774      1775      1770
 -1       493    8    0    1
 -2       171       172       327      1309      1776      1777
 -1       494    8    0    1
 -2       171       327       326      1777      1778      1773
 -1       495    8    0    1
 -2       172       173       328      1312      1779      1780
 -1       496    8    0    1
 -2       172       328       327      1780      1781      1776
 -1       497    8    0    1
 -2       173       174       329      1315      1782      1783
 -1       498    8    0    1
 -2       173       329       328      1783      1784      1779
 -1       499    8    0    1
 -2       174       175       330      1318      1785      1786
 -1       500    8    0    1
 -2       174       330       329      1786      1787      1782
 -1       501    8    0    1
 -2       175       176       331      1321      1788      1789
 -1       502    8    0    1
 -2       175       331       330      1789      1790      1785
 -1       503    8    0    1
 -2       176       177       332      1324      1791      1792
 -1       504    8    0    1
 -2       176       332       331      1792      1793      1788
 -1       505    8    0    1
 -2       177       178       333      1327      1794      1795
 -1       506    8    0    1
 -2       177       333       332      1795      1796      1791
 -1       507    8    0    1
 -2       178       179       334      1330      1797      1798
 -1       508    8    0    1
 -2       178       334       333      1798      1799      1794
 -1       509    8    0    1
 -2       179       180       335      1333      1800      1801
 -1       510    8    0    1
 -2       334       179       335      1797      1801      1802
 -1       511    8    0    1
 -2       180       229       335      1482      1803      1800
 -1       512    8    0    1
 -2       181        23       165      1335      1762      1804
 -1       513    8    0    1
 -2       229       230       336      1485      1805      1806
 -1       514    8    0    1
 -2       229       336       335      1806      1807      1803
 -1       515    8    0    1
 -2       181       165       323      1804      1766      1808
 -1       516    8    0    1
 -2       183       182       337      1342      1809      1810
 -1       517    8    0    1
 -2       184       183       338      1345      1811      1812
 -1       518    8    0    1
 -2       183       337       338      1810      1813      1811
 -1       519    8    0    1
 -2       185       184       339      1348      1814      1815
 -1       520    8    0    1
 -2       184       338       339      1812      1816      1814
 -1       521    8    0    1
 -2       186       185       340      1351      1817      1818
 -1       522    8    0    1
 -2       185       339       340      1815      1819      1817
 -1       523    8    0    1
 -2       187       186       341      1354      1820      1821
 -1       524    8    0    1
 -2       186       340       341      1818      1822      1820
 -1       525    8    0    1
 -2       188       187       342      1357      1823      1824
 -1       526    8    0    1
 -2       187       341       342      1821      1825      1823
 -1       527    8    0    1
 -2       189       188       343      1360      1826      1827
 -1       528    8    0    1
 -2       188       342       343      1824      1828      1826
 -1       529    8    0    1
 -2       190       189       344      1363      1829      1830
 -1       530    8    0    1
 -2       189       343       344      1827      1831      1829
 -1       531    8    0    1
 -2       191       190       345      1366      1832      1833
 -1       532    8    0    1
 -2       190       344       345      1830      1834      1832
 -1       533    8    0    1
 -2       192       191       346      1369      1835      1836
 -1       534    8    0    1
 -2       191       345       346      1833      1837      1835
 -1       535    8    0    1
 -2       193       192       347      1372      1838      1839
 -1       536    8    0    1
 -2       192       346       347      1836      1840      1838
 -1       537    8    0    1
 -2       194       193       348      1375      1841      1842
 -1       538    8    0    1
 -2       193       347       348      1839      1843      1841
 -1       539    8    0    1
 -2       195       194       349      1378      1844      1845
 -1       540    8    0    1
 -2       194       348       349      1842      1846      1844
 -1       541    8    0    1
 -2       196       195       350      1381      1847      1848
 -1       542    8    0    1
 -2       195       349       350      1845      1849      1847
 -1       543    8    0    1
 -2       197       196       351      1384      1850      1851
 -1       544    8    0    1
 -2       196       350       351      1848      1852      1850
 -1       545    8    0    1
 -2       198       197       352      1387      1853      1854
 -1       546    8    0    1
 -2       197       351       352      1851      1855      1853
 -1       547    8    0    1
 -2       199       198       353      1390      1856      1857
 -1       548    8    0    1
 -2       198       352       353      1854      1858      1856
 -1       549    8    0    1
 -2       200       199       354      1393      1859      1860
 -1       550    8    0    1
 -2       199       353       354      1857      1861      1859
 -1       551    8    0    1
 -2       201       200       355      1396      1862      1863
 -1       552    8    0    1
 -2       200       354       355      1860      1864      1862
 -1       553    8    0    1
 -2       202       201       356      1399      1865      1866
 -1       554    8    0    1
 -2       201       355       356      1863      1867      1865
 -1       555    8    0    1
 -2       203       202       357      1402      1868      1869
 -1       556    8    0    1
 -2       202       356       357      1866      1870      1868
 -1       557    8    0    1
 -2       204       203       358      1405      1871      1872
 -1       558    8    0    1
 -2       203       357       358      1869      1873      1871
 -1       559    8    0    1
 -2       205       204       359      1408      1874      1875
 -1       560    8    0    1
 -2       204       358       359      1872      1876      1874
 -1       561    8    0    1
 -2       206       205       360      1411      1877      1878
 -1       562    8    0    1
 -2       205       359       360      1875      1879      1877
 -1       563    8    0    1
 -2       207       206       361      1414      1880      1881
 -1       564    8    0    1
 -2       206       360       361      1878      1882      1880
 -1       565    8    0    1
 -2       208       207       362      1417      1883      1884
 -1       566    8    0    1
 -2       207       361       362      1881      1885      1883
 -1       567    8    0    1
 -2       209       208       363      1420      1886      1887
 -1       568    8    0    1
 -2       208       362       363      1884      1888      1886
 -1       569    8    0    1
 -2       210       209       364      1423      1889      1890
 -1       570    8    0    1
 -2       209       363       364      1887      1891      1889
 -1       571    8    0    1
 -2       211       210       365      1426      1892      1893
 -1       572    8    0    1
 -2       210       364       365      1890      1894      1892
 -1       573    8    0    1
 -2       212       211       366      1429      1895      1896
 -1       574    8    0    1
 -2       211       365       366      1893      1897      1895
 -1       575    8    0    1
 -2       213       212       367      1432      1898      1899
 -1       576    8    0    1
 -2       212       366       367      1896      1900      1898
 -1       577    8    0    1
 -2       214       213       368      1435      1901      1902
 -1       578    8    0    1
 -2       213       367       368      1899      1903      1901
 -1       579    8    0    1
 -2       215       214       369      1438      1904      1905
 -1       580    8    0    1
 -2       214       368       369      1902      1906      1904
 -1       581    8    0    1
 -2       216       215       370      1441      1907      1908
 -1       582    8    0    1
 -2       215       369       370      1905      1909      1907
 -1       583    8    0    1
 -2       217       216       371      1444      1910      1911
 -1       584    8    0    1
 -2       216       370       371      1908      1912      1910
 -1       585    8    0    1
 -2       218       217       372      1447      1913      1914
 -1       586    8    0    1
 -2       217       371       372      1911      1915      1913
 -1       587    8    0    1
 -2       219       218       373      1450      1916      1917
 -1       588    8    0    1
 -2       218       372       373      1914      1918      1916
 -1       589    8    0    1
 -2       220       219       374      1453      1919      1920
 -1       590    8    0    1
 -2       219       373       374      1917      1921      1919
 -1       591    8    0    1
 -2       221       220       375      1456      1922      1923
 -1       592    8    0    1
 -2       220       374       375      1920      1924      1922
 -1       593    8    0    1
 -2       222       221       376      1459      1925      1926
 -1       594    8    0    1
 -2       221       375       376      1923      1927      1925
 -1       595    8    0    1
 -2       223       222       377      1462      1928      1929
 -1       596    8    0    1
 -2       222       376       377      1926      1930      1928
 -1       597    8    0    1
 -2       224       223       378      1465      1931      1932
 -1       598    8    0    1
 -2       223       377       378      1929      1933      1931
 -1       599    8    0    1
 -2       225       224       379      1468      1934      1935
 -1       600    8    0    1
 -2       224       378       379      1932      1936      1934
 -1       601    8    0    1
 -2       226       225       380      1471      1937      1938
 -1       602    8    0    1
 -2       225       379       380      1935      1939      1937
 -1       603    8    0    1
 -2       227       226       381      1474      1940      1941
 -1       604    8    0    1
 -2       226       380       381      1938      1942      1940
 -1       605    8    0    1
 -2       228       227       382      1477      1943      1944
 -1       606    8    0    1
 -2       291       228       382      1669      1944      1945
 -1       607    8    0    1
 -2       227       381       382      1941      1946      1943
 -1       608    8    0    1
 -2       230       231       383      1488      1947      1948
 -1       609    8    0    1
 -2       230       383       336      1948      1949      1805
 -1       610    8    0    1
 -2       231       232       384      1491      1950      1951
 -1       611    8    0    1
 -2       231       384       383      1951      1952      1947
 -1       612    8    0    1
 -2       232       233       385      1494      1953      1954
 -1       613    8    0    1
 -2       232       385       384      1954      1955      1950
 -1       614    8    0    1
 -2       233       234       386      1497      1956      1957
 -1       615    8    0    1
 -2       233       386       385      1957      1958      1953
 -1       616    8    0    1
 -2       234       235       387      1500      1959      1960
 -1       617    8    0    1
 -2       234       387       386      1960      1961      1956
 -1       618    8    0    1
 -2       235       236       388      1503      1962      1963
 -1       619    8    0    1
 -2       235       388       387      1963      1964      1959
 -1       620    8    0    1
 -2       236       237       389      1506      1965      1966
 -1       621    8    0    1
 -2       236       389       388      1966      1967      1962
 -1       622    8    0    1
 -2       237       238       390      1509      1968      1969
 -1       623    8    0    1
 -2       237       390       389      1969      1970      1965
 -1       624    8    0    1
 -2       238       239       391      1512      1971      1972
 -1       625    8    0    1
 -2       238       391       390      1972      1973      1968
 -1       626    8    0    1
 -2       239       240       392      1515      1974      1975
 -1       627    8    0    1
 -2       239       392       391      1975      1976      1971
 -1       628    8    0    1
 -2       240       241       393      1518      1977      1978
 -1       629    8    0    1
 -2       240       393       392      1978      1979      1974
 -1       630    8    0    1
 -2       241       242       394      1521      1980      1981
 -1       631    8    0    1
 -2       241       394       393      1981      1982      1977
 -1       632    8    0    1
 -2       242       243       395      1524      1983      1984
 -1       633    8    0    1
 -2       242       395       394      1984      1985      1980
 -1       634    8    0    1
 -2       243       244       396      1527      1986      1987
 -1       635    8    0    1
 -2       243       396       395      1987      1988      1983
 -1       636    8    0    1
 -2       244       245       397      1530      1989      1990
 -1       637    8    0    1
 -2       244       397       396      1990      1991      1986
 -1       638    8    0    1
 -2       245       246       398      1533      1992      1993
 -1       639    8    0    1
 -2       245       398       397      1993      1994      1989
 -1       640    8    0    1
 -2       246       247       399      1536      1995      1996
 -1       641    8    0    1
 -2       246       399       398      1996      1997      1992
 -1       642    8    0    1
 -2       247       248       400      1539      1998      1999
 -1       643    8    0    1
 -2       247       400       399      1999      2000      1995
 -1       644    8    0    1
 -2       248       249       401      1542      2001      2002
 -1       645    8    0    1
 -2       248       401       400      2002      2003      1998
 -1       646    8    0    1
 -2       249       250       402      1545      2004      2005
 -1       647    8    0    1
 -2       249       402       401      2005      2006      2001
 -1       648    8    0    1
 -2       250       251       403      1548      2007      2008
 -1       649    8    0    1
 -2       250       403       402      2008      2009      2004
 -1       650    8    0    1
 -2       251       252       404      1551      2010      2011
 -1       651    8    0    1
 -2       251       404       403      2011      2012      2007
 -1       652    8    0    1
 -2       252       253       405      1554      2013      2014
 -1       653    8    0    1
 -2       252       405       404      2014      2015      2010
 -1       654    8    0    1
 -2       253       254       406      1557      2016      2017
 -1       655    8    0    1
 -2       253       406       405      2017      2018      2013
 -1       656    8    0    1
 -2       254       255       407      1560      2019      2020
 -1       657    8    0    1
 -2       254       407       406      2020      2021      2016
 -1       658    8    0    1
 -2       255       256       408      1563      2022      2023
 -1       659    8    0    1
 -2       255       408       407      2023      2024      2019
 -1       660    8    0    1
 -2       256       257       409      1566      2025      2026
 -1       661    8    0    1
 -2       256       409       408      2026      2027      2022
 -1       662    8    0    1
 -2       257       258       410      1569      2028      2029
 -1       663    8    0    1
 -2       257       410       409      2029      2030      2025
 -1       664    8    0    1
 -2       258       259       411      1572      2031      2032
 -1       665    8    0    1
 -2       258       411       410      2032      2033      2028
 -1       666    8    0    1
 -2       259       260       412      1575      2034      2035
 -1       667    8    0    1
 -2       259       412       411      2035      2036      2031
 -1       668    8    0    1
 -2       260       261       413      1578      2037      2038
 -1       669    8    0    1
 -2       260       413       412      2038      2039      2034
 -1       670    8    0    1
 -2       261       262       414      1581      2040      2041
 -1       671    8    0    1
 -2       261       414       413      2041      2042      2037
 -1       672    8    0    1
 -2       262       263       415      1584      2043      2044
 -1       673    8    0    1
 -2       262       415       414      2044      2045      2040
 -1       674    8    0    1
 -2       263       264       416      1587      2046      2047
 -1       675    8    0    1
 -2       263       416       415      2047      2048      2043
 -1       676    8    0    1
 -2       264       265       417      1590      2049      2050
 -1       677    8    0    1
 -2       264       417       416      2050      2051      2046
 -1       678    8    0    1
 -2       265       266       418      1593      2052      2053
 -1       679    8    0    1
 -2       265       418       417      2053      2054      2049
 -1       680    8    0    1
 -2       266       267       419      1596      2055      2056
 -1       681    8    0    1
 -2       266       419       418      2056      2057      2052
 -1       682    8    0    1
 -2       267       268       420      1599      2058      2059
 -1       683    8    0    1
 -2       267       420       419      2059      2060      2055
 -1       684    8    0    1
 -2       268       269       421      1602      2061      2062
 -1       685    8    0    1
 -2       268       421       420      2062      2063      2058
 -1       686    8    0    1
 -2       269       270       422      1605      2064      2065
 -1       687    8    0    1
 -2       269       422       421      2065      2066      2061
 -1       688    8    0    1
 -2       270       271       423      1608      2067      2068
 -1       689    8    0    1
 -2       270       423       422      2068      2069      2064
 -1       690    8    0    1
 -2       271       272       424      1611      2070      2071
 -1       691    8    0    1
 -2       271       424       423      2071      2072      2067
 -1       692    8    0    1
 -2       272       273       425      1614      2073      2074
 -1       693    8    0    1
 -2       272       425       424      2074      2075      2070
 -1       694    8    0    1
 -2       273       274       426      1617      2076      2077
 -1       695    8    0    1
 -2       273       426       425      2077      2078      2073
 -1       696    8    0    1
 -2       274       275       427      1620      2079      2080
 -1       697    8    0    1
 -2       274       427       426      2080      2081      2076
 -1       698    8    0    1
 -2       275       276       428      1623      2082      2083
 -1       699    8    0    1
 -2       427       275       428      2079      2083      2084
 -1       700    8    0    1
 -2       276       277       428      1733      2085      2082
 -1       701    8    0    1
 -2       279       280       429      1635      2086      2087
 -1       702    8    0    1
 -2       278       279       430      1632      2088      2089
 -1       703    8    0    1
 -2       279       429       430      2087      2090      2088
 -1       704    8    0    1
 -2       277       278       431      1629      2091      2092
 -1       705    8    0    1
 -2       428       277       431      2085      2092      2093
 -1       706    8    0    1
 -2       278       430       431      2089      2094      2091
 -1       707    8    0    1
 -2       280       281       432      1638      2095      2096
 -1       708    8    0    1
 -2       280       432       429      2096      2097      2086
 -1       709    8    0    1
 -2       281       282       433      1641      2098      2099
 -1       710    8    0    1
 -2       281       433       432      2099      2100      2095
 -1       711    8    0    1
 -2       282       283       434      1644      2101      2102
 -1       712    8    0    1
 -2       282       434       433      2102      2103      2098
 -1       713    8    0    1
 -2       283       284       435      1647      2104      2105
 -1       714    8    0    1
 -2       283       435       434      2105      2106      2101
 -1       715    8    0    1
 -2       284       285       436      1650      2107      2108
 -1       716    8    0    1
 -2       284       436       435      2108      2109      2104
 -1       717    8    0    1
 -2       285       286       437      1653      2110      2111
 -1       718    8    0    1
 -2       285       437       436      2111      2112      2107
 -1       719    8    0    1
 -2       286       287       438      1656      2113      2114
 -1       720    8    0    1
 -2       286       438       437      2114      2115      2110
 -1       721    8    0    1
 -2       287       288       439      1659      2116      2117
 -1       722    8    0    1
 -2       287       439       438      2117      2118      2113
 -1       723    8    0    1
 -2       288       289       440      1662      2119      2120
 -1       724    8    0    1
 -2       288       440       439      2120      2121      2116
 -1       725    8    0    1
 -2       289       290       441      1665      2122      2123
 -1       726    8    0    1
 -2       289       441       440      2123      2124      2119
 -1       727    8    0    1
 -2       293       294       442      1735      2125      2126
 -1       728    8    0    1
 -2       321       292       443      1736      2127      2128
 -1       729    8    0    1
 -2       292       293       444      1734      2129      2130
 -1       730    8    0    1
 -2       292       444       443      2130      2131      2127
 -1       731    8    0    1
 -2       294       295       445      1731      2132      2133
 -1       732    8    0    1
 -2       295       296       446      1730      2134      2135
 -1       733    8    0    1
 -2       295       446       445      2135      2136      2132
 -1       734    8    0    1
 -2       167       168       447      1297      2137      2138
 -1       735    8    0    1
 -2       322       167       447      1763      2138      2139
 -1       736    8    0    1
 -2       168       324       447      1769      2140      2137
 -1       737    8    0    1
 -2       297       298       448      1738      2141      2142
 -1       738    8    0    1
 -2       298       299       449      1739      2143      2144
 -1       739    8    0    1
 -2       298       449       448      2144      2145      2141
 -1       740    8    0    1
 -2       299       300       450      1740      2146      2147
 -1       741    8    0    1
 -2       300       301       451      1741      2148      2149
 -1       742    8    0    1
 -2       301       302       452      1742      2150      2151
 -1       743    8    0    1
 -2       301       452       451      2151      2152      2148
 -1       744    8    0    1
 -2       302       303       453      1743      2153      2154
 -1       745    8    0    1
 -2       303       304       454      1744      2155      2156
 -1       746    8    0    1
 -2       303       454       453      2156      2157      2153
 -1       747    8    0    1
 -2       304       305       455      1745      2158      2159
 -1       748    8    0    1
 -2       305       306       456      1746      2160      2161
 -1       749    8    0    1
 -2       305       456       455      2161      2162      2158
 -1       750    8    0    1
 -2       306       307       457      1747      2163      2164
 -1       751    8    0    1
 -2       307       308       458      1748      2165      2166
 -1       752    8    0    1
 -2       308       309       459      1749      2167      2168
 -1       753    8    0    1
 -2       309       310       460      1750      2169      2170
 -1       754    8    0    1
 -2       310       311       461      1751      2171      2172
 -1       755    8    0    1
 -2       311       312       462      1752      2173      2174
 -1       756    8    0    1
 -2       312       313       463      1753      2175      2176
 -1       757    8    0    1
 -2       313       314       464      1754      2177      2178
 -1       758    8    0    1
 -2       314       315       465      1755      2179      2180
 -1       759    8    0    1
 -2       314       465       464      2180      2181      2177
 -1       760    8    0    1
 -2       315       316       466      1756      2182      2183
 -1       761    8    0    1
 -2       316       317       467      1757      2184      2185
 -1       762    8    0    1
 -2       316       467       466      2185      2186      2182
 -1       763    8    0    1
 -2       317       318       468      1758      2187      2188
 -1       764    8    0    1
 -2       318       319       469      1759      2189      2190
 -1       765    8    0    1
 -2       319       320       470      1760      2191      2192
 -1       766    8    0    1
 -2       319       470       469      2192      2193      2189
 -1       767    8    0    1
 -2       320       321       471      1761      2194      2195
 -1       768    8    0    1
 -2       321       443       471      2128      2196      2194
 -1       769    8    0    1
 -2       296       297       472      1737      2197      2198
 -1       770    8    0    1
 -2       297       448       472      2142      2199      2197
 -1       771    8    0    1
 -2       446       296       473      2134      2200      2201
 -1       772    8    0    1
 -2       296       472       473      2198      2202      2200
 -1       773    8    0    1
 -2       181       323       182      1808      2203      1339
 -1       774    8    0    1
 -2       302       453       452      2154      2204      2150
 -1       775    8    0    1
 -2       337       182       323      1809      2203      2205
 -1       776    8    0    1
 -2       444       293       474      2129      2206      2207
 -1       777    8    0    1
 -2       293       442       474      2126      2208      2206
 -1       778    8    0    1
 -2       294       445       442      2133      2209      2125
 -1       779    8    0    1
 -2       441       290       291      2122      1668      2210
 -1       780    8    0    1
 -2       470       320       471      2191      2195      2211
 -1       781    8    0    1
 -2       467       317       468      2184      2188      2212
 -1       782    8    0    1
 -2       465       315       466      2179      2183      2213
 -1       783    8    0    1
 -2       463       313       464      2175      2178      2214
 -1       784    8    0    1
 -2       462       312       463      2173      2176      2215
 -1       785    8    0    1
 -2       461       311       475      2171      2216      2217
 -1       786    8    0    1
 -2       311       462       475      2174      2218      2216
 -1       787    8    0    1
 -2       460       310       461      2169      2172      2219
 -1       788    8    0    1
 -2       459       309       460      2167      2170      2220
 -1       789    8    0    1
 -2       458       308       459      2165      2168      2221
 -1       790    8    0    1
 -2       456       306       457      2160      2164      2222
 -1       791    8    0    1
 -2       454       304       455      2155      2159      2223
 -1       792    8    0    1
 -2       299       450       476      2147      2224      2225
 -1       793    8    0    1
 -2       299       476       449      2225      2226      2143
 -1       794    8    0    1
 -2       450       300       451      2146      2149      2227
 -1       795    8    0    1
 -2       457       307       458      2163      2166      2228
 -1       796    8    0    1
 -2       468       318       469      2187      2190      2229
 -1       797    8    0    1
 -2       336       383       477      1949      2230      2231
 -1       798    8    0    1
 -2       325       326       478      1775      2232      2233
 -1       799    8    0    1
 -2       324       325       479      1772      2234      2235
 -1       800    8    0    1
 -2       325       478       479      2233      2236      2234
 -1       801    8    0    1
 -2       327       328       480      1781      2237      2238
 -1       802    8    0    1
 -2       328       329       481      1784      2239      2240
 -1       803    8    0    1
 -2       328       481       480      2240      2241      2237
 -1       804    8    0    1
 -2       329       330       482      1787      2242      2243
 -1       805    8    0    1
 -2       329       482       481      2243      2244      2239
 -1       806    8    0    1
 -2       330       331       483      1790      2245      2246
 -1       807    8    0    1
 -2       330       483       482      2246      2247      2242
 -1       808    8    0    1
 -2       331       332       484      1793      2248      2249
 -1       809    8    0    1
 -2       331       484       483      2249      2250      2245
 -1       810    8    0    1
 -2       332       333       485      1796      2251      2252
 -1       811    8    0    1
 -2       332       485       484      2252      2253      2248
 -1       812    8    0    1
 -2       383       384       486      1952      2254      2255
 -1       813    8    0    1
 -2       383       486       477      2255      2256      2230
 -1       814    8    0    1
 -2       338       337       487      1813      2257      2258
 -1       815    8    0    1
 -2       452       453       488      2204      2259      2260
 -1       816    8    0    1
 -2       339       338       489      1816      2261      2262
 -1       817    8    0    1
 -2       338       487       489      2258      2263      2261
 -1       818    8    0    1
 -2       340       339       490      1819      2264      2265
 -1       819    8    0    1
 -2       339       489       490      2262      2266      2264
 -1       820    8    0    1
 -2       341       340       491      1822      2267      2268
 -1       821    8    0    1
 -2       340       490       491      2265      2269      2267
 -1       822    8    0    1
 -2       342       341       492      1825      2270      2271
 -1       823    8    0    1
 -2       341       491       492      2268      2272      2270
 -1       824    8    0    1
 -2       343       342       493      1828      2273      2274
 -1       825    8    0    1
 -2       342       492       493      2271      2275      2273
 -1       826    8    0    1
 -2       344       343       494      1831      2276      2277
 -1       827    8    0    1
 -2       343       493       494      2274      2278      2276
 -1       828    8    0    1
 -2       345       344       495      1834      2279      2280
 -1       829    8    0    1
 -2       344       494       495      2277      2281      2279
 -1       830    8    0    1
 -2       346       345       496      1837      2282      2283
 -1       831    8    0    1
 -2       345       495       496      2280      2284      2282
 -1       832    8    0    1
 -2       347       346       497      1840      2285      2286
 -1       833    8    0    1
 -2       346       496       497      2283      2287      2285
 -1       834    8    0    1
 -2       348       347       498      1843      2288      2289
 -1       835    8    0    1
 -2       347       497       498      2286      2290      2288
 -1       836    8    0    1
 -2       349       348       499      1846      2291      2292
 -1       837    8    0    1
 -2       348       498       499      2289      2293      2291
 -1       838    8    0    1
 -2       350       349       500      1849      2294      2295
 -1       839    8    0    1
 -2       349       499       500      2292      2296      2294
 -1       840    8    0    1
 -2       351       350       501      1852      2297      2298
 -1       841    8    0    1
 -2       350       500       501      2295      2299      2297
 -1       842    8    0    1
 -2       352       351       502      1855      2300      2301
 -1       843    8    0    1
 -2       351       501       502      2298      2302      2300
 -1       844    8    0    1
 -2       353       352       503      1858      2303      2304
 -1       845    8    0    1
 -2       352       502       503      2301      2305      2303
 -1       846    8    0    1
 -2       354       353       504      1861      2306      2307
 -1       847    8    0    1
 -2       353       503       504      2304      2308      2306
 -1       848    8    0    1
 -2       355       354       505      1864      2309      2310
 -1       849    8    0    1
 -2       354       504       505      2307      2311      2309
 -1       850    8    0    1
 -2       356       355       506      1867      2312      2313
 -1       851    8    0    1
 -2       355       505       506      2310      2314      2312
 -1       852    8    0    1
 -2       357       356       507      1870      2315      2316
 -1       853    8    0    1
 -2       356       506       507      2313      2317      2315
 -1       854    8    0    1
 -2       358       357       508      1873      2318      2319
 -1       855    8    0    1
 -2       357       507       508      2316      2320      2318
 -1       856    8    0    1
 -2       359       358       509      1876      2321      2322
 -1       857    8    0    1
 -2       358       508       509      2319      2323      2321
 -1       858    8    0    1
 -2       360       359       510      1879      2324      2325
 -1       859    8    0    1
 -2       359       509       510      2322      2326      2324
 -1       860    8    0    1
 -2       361       360       511      1882      2327      2328
 -1       861    8    0    1
 -2       360       510       511      2325      2329      2327
 -1       862    8    0    1
 -2       362       361       512      1885      2330      2331
 -1       863    8    0    1
 -2       361       511       512      2328      2332      2330
 -1       864    8    0    1
 -2       363       362       513      1888      2333      2334
 -1       865    8    0    1
 -2       362       512       513      2331      2335      2333
 -1       866    8    0    1
 -2       364       363       514      1891      2336      2337
 -1       867    8    0    1
 -2       363       513       514      2334      2338      2336
 -1       868    8    0    1
 -2       365       364       515      1894      2339      2340
 -1       869    8    0    1
 -2       364       514       515      2337      2341      2339
 -1       870    8    0    1
 -2       366       365       516      1897      2342      2343
 -1       871    8    0    1
 -2       365       515       516      2340      2344      2342
 -1       872    8    0    1
 -2       367       366       517      1900      2345      2346
 -1       873    8    0    1
 -2       366       516       517      2343      2347      2345
 -1       874    8    0    1
 -2       368       367       518      1903      2348      2349
 -1       875    8    0    1
 -2       367       517       518      2346      2350      2348
 -1       876    8    0    1
 -2       369       368       519      1906      2351      2352
 -1       877    8    0    1
 -2       368       518       519      2349      2353      2351
 -1       878    8    0    1
 -2       370       369       520      1909      2354      2355
 -1       879    8    0    1
 -2       369       519       520      2352      2356      2354
 -1       880    8    0    1
 -2       371       370       521      1912      2357      2358
 -1       881    8    0    1
 -2       370       520       521      2355      2359      2357
 -1       882    8    0    1
 -2       372       371       522      1915      2360      2361
 -1       883    8    0    1
 -2       371       521       522      2358      2362      2360
 -1       884    8    0    1
 -2       373       372       523      1918      2363      2364
 -1       885    8    0    1
 -2       372       522       523      2361      2365      2363
 -1       886    8    0    1
 -2       374       373       524      1921      2366      2367
 -1       887    8    0    1
 -2       373       523       524      2364      2368      2366
 -1       888    8    0    1
 -2       375       374       525      1924      2369      2370
 -1       889    8    0    1
 -2       374       524       525      2367      2371      2369
 -1       890    8    0    1
 -2       376       375       526      1927      2372      2373
 -1       891    8    0    1
 -2       375       525       526      2370      2374      2372
 -1       892    8    0    1
 -2       377       376       527      1930      2375      2376
 -1       893    8    0    1
 -2       376       526       527      2373      2377      2375
 -1       894    8    0    1
 -2       378       377       528      1933      2378      2379
 -1       895    8    0    1
 -2       377       527       528      2376      2380      2378
 -1       896    8    0    1
 -2       379       378       529      1936      2381      2382
 -1       897    8    0    1
 -2       378       528       529      2379      2383      2381
 -1       898    8    0    1
 -2       380       379       530      1939      2384      2385
 -1       899    8    0    1
 -2       379       529       530      2382      2386      2384
 -1       900    8    0    1
 -2       381       380       531      1942      2387      2388
 -1       901    8    0    1
 -2       380       530       531      2385      2389      2387
 -1       902    8    0    1
 -2       385       386       532      1958      2390      2391
 -1       903    8    0    1
 -2       386       387       533      1961      2392      2393
 -1       904    8    0    1
 -2       386       533       532      2393      2394      2390
 -1       905    8    0    1
 -2       387       388       534      1964      2395      2396
 -1       906    8    0    1
 -2       387       534       533      2396      2397      2392
 -1       907    8    0    1
 -2       388       389       535      1967      2398      2399
 -1       908    8    0    1
 -2       388       535       534      2399      2400      2395
 -1       909    8    0    1
 -2       389       390       536      1970      2401      2402
 -1       910    8    0    1
 -2       389       536       535      2402      2403      2398
 -1       911    8    0    1
 -2       390       391       537      1973      2404      2405
 -1       912    8    0    1
 -2       390       537       536      2405      2406      2401
 -1       913    8    0    1
 -2       391       392       538      1976      2407      2408
 -1       914    8    0    1
 -2       391       538       537      2408      2409      2404
 -1       915    8    0    1
 -2       392       393       539      1979      2410      2411
 -1       916    8    0    1
 -2       392       539       538      2411      2412      2407
 -1       917    8    0    1
 -2       393       394       540      1982      2413      2414
 -1       918    8    0    1
 -2       393       540       539      2414      2415      2410
 -1       919    8    0    1
 -2       394       395       541      1985      2416      2417
 -1       920    8    0    1
 -2       394       541       540      2417      2418      2413
 -1       921    8    0    1
 -2       395       396       542      1988      2419      2420
 -1       922    8    0    1
 -2       395       542       541      2420      2421      2416
 -1       923    8    0    1
 -2       396       397       543      1991      2422      2423
 -1       924    8    0    1
 -2       396       543       542      2423      2424      2419
 -1       925    8    0    1
 -2       397       398       544      1994      2425      2426
 -1       926    8    0    1
 -2       397       544       543      2426      2427      2422
 -1       927    8    0    1
 -2       398       399       545      1997      2428      2429
 -1       928    8    0    1
 -2       398       545       544      2429      2430      2425
 -1       929    8    0    1
 -2       399       400       546      2000      2431      2432
 -1       930    8    0    1
 -2       399       546       545      2432      2433      2428
 -1       931    8    0    1
 -2       400       401       547      2003      2434      2435
 -1       932    8    0    1
 -2       400       547       546      2435      2436      2431
 -1       933    8    0    1
 -2       401       402       548      2006      2437      2438
 -1       934    8    0    1
 -2       401       548       547      2438      2439      2434
 -1       935    8    0    1
 -2       402       403       549      2009      2440      2441
 -1       936    8    0    1
 -2       402       549       548      2441      2442      2437
 -1       937    8    0    1
 -2       403       404       550      2012      2443      2444
 -1       938    8    0    1
 -2       403       550       549      2444      2445      2440
 -1       939    8    0    1
 -2       404       405       551      2015      2446      2447
 -1       940    8    0    1
 -2       404       551       550      2447      2448      2443
 -1       941    8    0    1
 -2       405       406       552      2018      2449      2450
 -1       942    8    0    1
 -2       405       552       551      2450      2451      2446
 -1       943    8    0    1
 -2       406       407       553      2021      2452      2453
 -1       944    8    0    1
 -2       406       553       552      2453      2454      2449
 -1       945    8    0    1
 -2       407       408       554      2024      2455      2456
 -1       946    8    0    1
 -2       407       554       553      2456      2457      2452
 -1       947    8    0    1
 -2       408       409       555      2027      2458      2459
 -1       948    8    0    1
 -2       408       555       554      2459      2460      2455
 -1       949    8    0    1
 -2       409       410       556      2030      2461      2462
 -1       950    8    0    1
 -2       409       556       555      2462      2463      2458
 -1       951    8    0    1
 -2       410       411       557      2033      2464      2465
 -1       952    8    0    1
 -2       410       557       556      2465      2466      2461
 -1       953    8    0    1
 -2       411       412       558      2036      2467      2468
 -1       954    8    0    1
 -2       411       558       557      2468      2469      2464
 -1       955    8    0    1
 -2       412       413       559      2039      2470      2471
 -1       956    8    0    1
 -2       412       559       558      2471      2472      2467
 -1       957    8    0    1
 -2       413       414       560      2042      2473      2474
 -1       958    8    0    1
 -2       413       560       559      2474      2475      2470
 -1       959    8    0    1
 -2       414       415       561      2045      2476      2477
 -1       960    8    0    1
 -2       414       561       560      2477      2478      2473
 -1       961    8    0    1
 -2       415       416       562      2048      2479      2480
 -1       962    8    0    1
 -2       415       562       561      2480      2481      2476
 -1       963    8    0    1
 -2       416       417       563      2051      2482      2483
 -1       964    8    0    1
 -2       416       563       562      2483      2484      2479
 -1       965    8    0    1
 -2       417       418       564      2054      2485      2486
 -1       966    8    0    1
 -2       417       564       563      2486      2487      2482
 -1       967    8    0    1
 -2       418       419       565      2057      2488      2489
 -1       968    8    0    1
 -2       418       565       564      2489      2490      2485
 -1       969    8    0    1
 -2       419       420       566      2060      2491      2492
 -1       970    8    0    1
 -2       419       566       565      2492      2493      2488
 -1       971    8    0    1
 -2       420       421       567      2063      2494      2495
 -1       972    8    0    1
 -2       420       567       566      2495      2496      2491
 -1       973    8    0    1
 -2       421       422       568      2066      2497      2498
 -1       974    8    0    1
 -2       421       568       567      2498      2499      2494
 -1       975    8    0    1
 -2       422       423       569      2069      2500      2501
 -1       976    8    0    1
 -2       422       569       568      2501      2502      2497
 -1       977    8    0    1
 -2       423       424       570      2072      2503      2504
 -1       978    8    0    1
 -2       423       570       569      2504      2505      2500
 -1       979    8    0    1
 -2       424       425       571      2075      2506      2507
 -1       980    8    0    1
 -2       424       571       570      2507      2508      2503
 -1       981    8    0    1
 -2       425       426       572      2078      2509      2510
 -1       982    8    0    1
 -2       425       572       571      2510      2511      2506
 -1       983    8    0    1
 -2       426       427       573      2081      2512      2513
 -1       984    8    0    1
 -2       426       573       572      2513      2514      2509
 -1       985    8    0    1
 -2       427       428       431      2084      2093      2515
 -1       986    8    0    1
 -2       432       433       574      2100      2516      2517
 -1       987    8    0    1
 -2       433       434       575      2103      2518      2519
 -1       988    8    0    1
 -2       433       575       574      2519      2520      2516
 -1       989    8    0    1
 -2       430       429       576      2090      2521      2522
 -1       990    8    0    1
 -2       429       432       577      2097      2523      2524
 -1       991    8    0    1
 -2       576       429       577      2521      2524      2525
 -1       992    8    0    1
 -2       432       574       577      2517      2526      2523
 -1       993    8    0    1
 -2       434       435       578      2106      2527      2528
 -1       994    8    0    1
 -2       434       578       575      2528      2529      2518
 -1       995    8    0    1
 -2       435       436       579      2109      2530      2531
 -1       996    8    0    1
 -2       435       579       578      2531      2532      2527
 -1       997    8    0    1
 -2       436       437       580      2112      2533      2534
 -1       998    8    0    1
 -2       436       580       579      2534      2535      2530
 -1       999    8    0    1
 -2       437       438       581      2115      2536      2537
 -1      1000    8    0    1
 -2       437       581       580      2537      2538      2533
 -1      1001    8    0    1
 -2       438       439       582      2118      2539      2540
 -1      1002    8    0    1
 -2       438       582       581      2540      2541      2536
 -1      1003    8    0    1
 -2       439       440       583      2121      2542      2543
 -1      1004    8    0    1
 -2       439       583       582      2543      2544      2539
 -1      1005    8    0    1
 -2       440       441       584      2124      2545      2546
 -1      1006    8    0    1
 -2       440       584       583      2546      2547      2542
 -1      1007    8    0    1
 -2       442       445       585      2209      2548      2549
 -1      1008    8    0    1
 -2       441       291       382      2210      1945      2550
 -1      1009    8    0    1
 -2       470       471       586      2211      2551      2552
 -1      1010    8    0    1
 -2       384       385       587      1955      2553      2554
 -1      1011    8    0    1
 -2       385       532       587      2391      2555      2553
 -1      1012    8    0    1
 -2       443       444       588      2131      2556      2557
 -1      1013    8    0    1
 -2       445       446       589      2136      2558      2559
 -1      1014    8    0    1
 -2       445       589       585      2559      2560      2548
 -1      1015    8    0    1
 -2       467       468       590      2212      2561      2562
 -1      1016    8    0    1
 -2       463       464       591      2214      2563      2564
 -1      1017    8    0    1
 -2       337       323       592      2205      2565      2566
 -1      1018    8    0    1
 -2       487       337       592      2257      2566      2567
 -1      1019    8    0    1
 -2       323       322       592      1767      2568      2565
 -1      1020    8    0    1
 -2       326       327       593      1778      2569      2570
 -1      1021    8    0    1
 -2       478       326       593      2232      2570      2571
 -1      1022    8    0    1
 -2       327       480       593      2238      2572      2569
 -1      1023    8    0    1
 -2       450       451       594      2227      2573      2574
 -1      1024    8    0    1
 -2       448       449       595      2145      2575      2576
 -1      1025    8    0    1
 -2       457       458       596      2228      2577      2578
 -1      1026    8    0    1
 -2       451       452       597      2152      2579      2580
 -1      1027    8    0    1
 -2       453       454       598      2157      2581      2582
 -1      1028    8    0    1
 -2       454       455       599      2223      2583      2584
 -1      1029    8    0    1
 -2       455       456       600      2162      2585      2586
 -1      1030    8    0    1
 -2       468       469       601      2229      2587      2588
 -1      1031    8    0    1
 -2       456       457       602      2222      2589      2590
 -1      1032    8    0    1
 -2       456       602       600      2590      2591      2585
 -1      1033    8    0    1
 -2       458       459       603      2221      2592      2593
 -1      1034    8    0    1
 -2       459       460       604      2220      2594      2595
 -1      1035    8    0    1
 -2       459       604       603      2595      2596      2592
 -1      1036    8    0    1
 -2       460       461       605      2219      2597      2598
 -1      1037    8    0    1
 -2       462       463       606      2215      2599      2600
 -1      1038    8    0    1
 -2       464       465       607      2181      2601      2602
 -1      1039    8    0    1
 -2       465       466       608      2213      2603      2604
 -1      1040    8    0    1
 -2       466       467       609      2186      2605      2606
 -1      1041    8    0    1
 -2       467       590       609      2562      2607      2605
 -1      1042    8    0    1
 -2       469       470       610      2193      2608      2609
 -1      1043    8    0    1
 -2       471       443       611      2196      2610      2611
 -1      1044    8    0    1
 -2       472       448       612      2199      2612      2613
 -1      1045    8    0    1
 -2       448       595       612      2576      2614      2612
 -1      1046    8    0    1
 -2       335       336       613      1807      2615      2616
 -1      1047    8    0    1
 -2       334       335       613      1802      2616      2617
 -1      1048    8    0    1
 -2       336       477       613      2231      2618      2615
 -1      1049    8    0    1
 -2       450       594       614      2574      2619      2620
 -1      1050    8    0    1
 -2       450       614       476      2620      2621      2224
 -1      1051    8    0    1
 -2       324       479       615      2235      2622      2623
 -1      1052    8    0    1
 -2       324       615       447      2623      2624      2140
 -1      1053    8    0    1
 -2       486       384       587      2254      2554      2625
 -1      1054    8    0    1
 -2       333       334       613      1799      2617      2626
 -1      1055    8    0    1
 -2       606       463       616      2599      2627      2628
 -1      1056    8    0    1
 -2       463       591       616      2564      2629      2627
 -1      1057    8    0    1
 -2       604       460       605      2594      2598      2630
 -1      1058    8    0    1
 -2       602       457       617      2589      2631      2632
 -1      1059    8    0    1
 -2       457       596       617      2578      2633      2631
 -1      1060    8    0    1
 -2       452       488       597      2260      2634      2579
 -1      1061    8    0    1
 -2       446       473       618      2201      2635      2636
 -1      1062    8    0    1
 -2       446       618       589      2636      2637      2558
 -1      1063    8    0    1
 -2       474       442       619      2208      2638      2639
 -1      1064    8    0    1
 -2       442       585       619      2549      2640      2638
 -1      1065    8    0    1
 -2       470       586       610      2552      2641      2608
 -1      1066    8    0    1
 -2       601       469       610      2587      2609      2642
 -1      1067    8    0    1
 -2       427       431       573      2515      2643      2512
 -1      1068    8    0    1
 -2       431       430       573      2094      2644      2643
 -1      1069    8    0    1
 -2       458       603       596      2593      2645      2577
 -1      1070    8    0    1
 -2       441       382       620      2550      2646      2647
 -1      1071    8    0    1
 -2       584       441       620      2545      2647      2648
 -1      1072    8    0    1
 -2       382       381       620      1946      2649      2646
 -1      1073    8    0    1
 -2       599       455       621      2583      2650      2651
 -1      1074    8    0    1
 -2       455       600       621      2586      2652      2650
 -1      1075    8    0    1
 -2       586       471       611      2551      2611      2653
 -1      1076    8    0    1
 -2       333       613       485      2626      2654      2251
 -1      1077    8    0    1
 -2       588       444       474      2556      2207      2655
 -1      1078    8    0    1
 -2       322       447       622      2139      2656      2657
 -1      1079    8    0    1
 -2       592       322       622      2568      2657      2658
 -1      1080    8    0    1
 -2       447       615       622      2624      2659      2656
 -1      1081    8    0    1
 -2       590       468       601      2561      2588      2660
 -1      1082    8    0    1
 -2       611       443       588      2610      2557      2661
 -1      1083    8    0    1
 -2       608       466       609      2603      2606      2662
 -1      1084    8    0    1
 -2       607       465       608      2601      2604      2663
 -1      1085    8    0    1
 -2       598       454       599      2581      2584      2664
 -1      1086    8    0    1
 -2       591       464       607      2563      2602      2665
 -1      1087    8    0    1
 -2       475       462       606      2218      2600      2666
 -1      1088    8    0    1
 -2       488       453       598      2259      2582      2667
 -1      1089    8    0    1
 -2       595       449       623      2575      2668      2669
 -1      1090    8    0    1
 -2       449       476       623      2226      2670      2668
 -1      1091    8    0    1
 -2       451       597       594      2580      2671      2573
 -1      1092    8    0    1
 -2       605       461       624      2597      2672      2673
 -1      1093    8    0    1
 -2       461       475       624      2217      2674      2672
 -1      1094    8    0    1
 -2       472       612       625      2613      2675      2676
 -1      1095    8    0    1
 -2       472       625       473      2676      2677      2202
 -1      1096    8    0    1
 -2       573       430       576      2644      2522      2678
 -1      1097    8    0    1
 -2       620       381       531      2649      2388      2679
 -1      1098    8    0    1
 -2       481       482       626      2244      2680      2681
 -1      1099    8    0    1
 -2       480       481       627      2241      2682      2683
 -1      1100    8    0    1
 -2       481       626       627      2681      2684      2682
 -1      1101    8    0    1
 -2       483       484       628      2250      2685      2686
 -1      1102    8    0    1
 -2       484       485       629      2253      2687      2688
 -1      1103    8    0    1
 -2       484       629       628      2688      2689      2685
 -1      1104    8    0    1
 -2       477       486       630      2256      2690      2691
 -1      1105    8    0    1
 -2       588       474       631      2655      2692      2693
 -1      1106    8    0    1
 -2       490       489       632      2266      2694      2695
 -1      1107    8    0    1
 -2       491       490       633      2269      2696      2697
 -1      1108    8    0    1
 -2       490       632       633      2695      2698      2696
 -1      1109    8    0    1
 -2       492       491       634      2272      2699      2700
 -1      1110    8    0    1
 -2       491       633       634      2697      2701      2699
 -1      1111    8    0    1
 -2       493       492       635      2275      2702      2703
 -1      1112    8    0    1
 -2       492       634       635      2700      2704      2702
 -1      1113    8    0    1
 -2       494       493       636      2278      2705      2706
 -1      1114    8    0    1
 -2       493       635       636      2703      2707      2705
 -1      1115    8    0    1
 -2       495       494       637      2281      2708      2709
 -1      1116    8    0    1
 -2       494       636       637      2706      2710      2708
 -1      1117    8    0    1
 -2       496       495       638      2284      2711      2712
 -1      1118    8    0    1
 -2       495       637       638      2709      2713      2711
 -1      1119    8    0    1
 -2       497       496       639      2287      2714      2715
 -1      1120    8    0    1
 -2       496       638       639      2712      2716      2714
 -1      1121    8    0    1
 -2       498       497       640      2290      2717      2718
 -1      1122    8    0    1
 -2       497       639       640      2715      2719      2717
 -1      1123    8    0    1
 -2       499       498       641      2293      2720      2721
 -1      1124    8    0    1
 -2       498       640       641      2718      2722      2720
 -1      1125    8    0    1
 -2       500       499       642      2296      2723      2724
 -1      1126    8    0    1
 -2       499       641       642      2721      2725      2723
 -1      1127    8    0    1
 -2       501       500       643      2299      2726      2727
 -1      1128    8    0    1
 -2       500       642       643      2724      2728      2726
 -1      1129    8    0    1
 -2       502       501       644      2302      2729      2730
 -1      1130    8    0    1
 -2       501       643       644      2727      2731      2729
 -1      1131    8    0    1
 -2       503       502       645      2305      2732      2733
 -1      1132    8    0    1
 -2       502       644       645      2730      2734      2732
 -1      1133    8    0    1
 -2       504       503       646      2308      2735      2736
 -1      1134    8    0    1
 -2       503       645       646      2733      2737      2735
 -1      1135    8    0    1
 -2       505       504       647      2311      2738      2739
 -1      1136    8    0    1
 -2       504       646       647      2736      2740      2738
 -1      1137    8    0    1
 -2       506       505       648      2314      2741      2742
 -1      1138    8    0    1
 -2       505       647       648      2739      2743      2741
 -1      1139    8    0    1
 -2       507       506       649      2317      2744      2745
 -1      1140    8    0    1
 -2       506       648       649      2742      2746      2744
 -1      1141    8    0    1
 -2       508       507       650      2320      2747      2748
 -1      1142    8    0    1
 -2       507       649       650      2745      2749      2747
 -1      1143    8    0    1
 -2       509       508       651      2323      2750      2751
 -1      1144    8    0    1
 -2       508       650       651      2748      2752      2750
 -1      1145    8    0    1
 -2       510       509       652      2326      2753      2754
 -1      1146    8    0    1
 -2       509       651       652      2751      2755      2753
 -1      1147    8    0    1
 -2       511       510       653      2329      2756      2757
 -1      1148    8    0    1
 -2       510       652       653      2754      2758      2756
 -1      1149    8    0    1
 -2       512       511       654      2332      2759      2760
 -1      1150    8    0    1
 -2       511       653       654      2757      2761      2759
 -1      1151    8    0    1
 -2       513       512       655      2335      2762      2763
 -1      1152    8    0    1
 -2       512       654       655      2760      2764      2762
 -1      1153    8    0    1
 -2       514       513       656      2338      2765      2766
 -1      1154    8    0    1
 -2       513       655       656      2763      2767      2765
 -1      1155    8    0    1
 -2       515       514       657      2341      2768      2769
 -1      1156    8    0    1
 -2       514       656       657      2766      2770      2768
 -1      1157    8    0    1
 -2       516       515       658      2344      2771      2772
 -1      1158    8    0    1
 -2       515       657       658      2769      2773      2771
 -1      1159    8    0    1
 -2       517       516       659      2347      2774      2775
 -1      1160    8    0    1
 -2       516       658       659      2772      2776      2774
 -1      1161    8    0    1
 -2       518       517       660      2350      2777      2778
 -1      1162    8    0    1
 -2       517       659       660      2775      2779      2777
 -1      1163    8    0    1
 -2       519       518       661      2353      2780      2781
 -1      1164    8    0    1
 -2       518       660       661      2778      2782      2780
 -1      1165    8    0    1
 -2       520       519       662      2356      2783      2784
 -1      1166    8    0    1
 -2       519       661       662      2781      2785      2783
 -1      1167    8    0    1
 -2       521       520       663      2359      2786      2787
 -1      1168    8    0    1
 -2       520       662       663      2784      2788      2786
 -1      1169    8    0    1
 -2       522       521       664      2362      2789      2790
 -1      1170    8    0    1
 -2       521       663       664      2787      2791      2789
 -1      1171    8    0    1
 -2       523       522       665      2365      2792      2793
 -1      1172    8    0    1
 -2       522       664       665      2790      2794      2792
 -1      1173    8    0    1
 -2       524       523       666      2368      2795      2796
 -1      1174    8    0    1
 -2       523       665       666      2793      2797      2795
 -1      1175    8    0    1
 -2       525       524       667      2371      2798      2799
 -1      1176    8    0    1
 -2       524       666       667      2796      2800      2798
 -1      1177    8    0    1
 -2       526       525       668      2374      2801      2802
 -1      1178    8    0    1
 -2       525       667       668      2799      2803      2801
 -1      1179    8    0    1
 -2       527       526       669      2377      2804      2805
 -1      1180    8    0    1
 -2       526       668       669      2802      2806      2804
 -1      1181    8    0    1
 -2       528       527       670      2380      2807      2808
 -1      1182    8    0    1
 -2       527       669       670      2805      2809      2807
 -1      1183    8    0    1
 -2       529       528       671      2383      2810      2811
 -1      1184    8    0    1
 -2       528       670       671      2808      2812      2810
 -1      1185    8    0    1
 -2       530       529       672      2386      2813      2814
 -1      1186    8    0    1
 -2       529       671       672      2811      2815      2813
 -1      1187    8    0    1
 -2       531       530       673      2389      2816      2817
 -1      1188    8    0    1
 -2       530       672       673      2814      2818      2816
 -1      1189    8    0    1
 -2       533       534       674      2397      2819      2820
 -1      1190    8    0    1
 -2       532       533       675      2394      2821      2822
 -1      1191    8    0    1
 -2       533       674       675      2820      2823      2821
 -1      1192    8    0    1
 -2       535       536       614      2403      2824      2825
 -1      1193    8    0    1
 -2       536       537       623      2406      2826      2827
 -1      1194    8    0    1
 -2       537       538       676      2409      2828      2829
 -1      1195    8    0    1
 -2       538       539       677      2412      2830      2831
 -1      1196    8    0    1
 -2       539       540       678      2415      2832      2833
 -1      1197    8    0    1
 -2       539       678       677      2833      2834      2830
 -1      1198    8    0    1
 -2       540       541       679      2418      2835      2836
 -1      1199    8    0    1
 -2       540       679       678      2836      2837      2832
 -1      1200    8    0    1
 -2       541       542       680      2421      2838      2839
 -1      1201    8    0    1
 -2       541       680       679      2839      2840      2835
 -1      1202    8    0    1
 -2       542       543       681      2424      2841      2842
 -1      1203    8    0    1
 -2       542       681       680      2842      2843      2838
 -1      1204    8    0    1
 -2       543       544       682      2427      2844      2845
 -1      1205    8    0    1
 -2       543       682       681      2845      2846      2841
 -1      1206    8    0    1
 -2       544       545       683      2430      2847      2848
 -1      1207    8    0    1
 -2       544       683       682      2848      2849      2844
 -1      1208    8    0    1
 -2       545       546       684      2433      2850      2851
 -1      1209    8    0    1
 -2       545       684       683      2851      2852      2847
 -1      1210    8    0    1
 -2       546       547       685      2436      2853      2854
 -1      1211    8    0    1
 -2       546       685       684      2854      2855      2850
 -1      1212    8    0    1
 -2       547       548       686      2439      2856      2857
 -1      1213    8    0    1
 -2       547       686       685      2857      2858      2853
 -1      1214    8    0    1
 -2       548       549       687      2442      2859      2860
 -1      1215    8    0    1
 -2       548       687       686      2860      2861      2856
 -1      1216    8    0    1
 -2       549       550       688      2445      2862      2863
 -1      1217    8    0    1
 -2       549       688       687      2863      2864      2859
 -1      1218    8    0    1
 -2       550       551       689      2448      2865      2866
 -1      1219    8    0    1
 -2       550       689       688      2866      2867      2862
 -1      1220    8    0    1
 -2       551       552       690      2451      2868      2869
 -1      1221    8    0    1
 -2       551       690       689      2869      2870      2865
 -1      1222    8    0    1
 -2       552       553       691      2454      2871      2872
 -1      1223    8    0    1
 -2       552       691       690      2872      2873      2868
 -1      1224    8    0    1
 -2       553       554       692      2457      2874      2875
 -1      1225    8    0    1
 -2       553       692       691      2875      2876      2871
 -1      1226    8    0    1
 -2       554       555       693      2460      2877      2878
 -1      1227    8    0    1
 -2       554       693       692      2878      2879      2874
 -1      1228    8    0    1
 -2       555       556       694      2463      2880      2881
 -1      1229    8    0    1
 -2       555       694       693      2881      2882      2877
 -1      1230    8    0    1
 -2       556       557       695      2466      2883      2884
 -1      1231    8    0    1
 -2       556       695       694      2884      2885      2880
 -1      1232    8    0    1
 -2       557       558       696      2469      2886      2887
 -1      1233    8    0    1
 -2       557       696       695      2887      2888      2883
 -1      1234    8    0    1
 -2       558       559       697      2472      2889      2890
 -1      1235    8    0    1
 -2       558       697       696      2890      2891      2886
 -1      1236    8    0    1
 -2       559       560       698      2475      2892      2893
 -1      1237    8    0    1
 -2       559       698       697      2893      2894      2889
 -1      1238    8    0    1
 -2       560       561       699      2478      2895      2896
 -1      1239    8    0    1
 -2       560       699       698      2896      2897      2892
 -1      1240    8    0    1
 -2       561       562       700      2481      2898      2899
 -1      1241    8    0    1
 -2       561       700       699      2899      2900      2895
 -1      1242    8    0    1
 -2       562       563       701      2484      2901      2902
 -1      1243    8    0    1
 -2       562       701       700      2902      2903      2898
 -1      1244    8    0    1
 -2       563       564       702      2487      2904      2905
 -1      1245    8    0    1
 -2       563       702       701      2905      2906      2901
 -1      1246    8    0    1
 -2       564       565       703      2490      2907      2908
 -1      1247    8    0    1
 -2       564       703       702      2908      2909      2904
 -1      1248    8    0    1
 -2       565       566       704      2493      2910      2911
 -1      1249    8    0    1
 -2       565       704       703      2911      2912      2907
 -1      1250    8    0    1
 -2       566       567       705      2496      2913      2914
 -1      1251    8    0    1
 -2       566       705       704      2914      2915      2910
 -1      1252    8    0    1
 -2       567       568       706      2499      2916      2917
 -1      1253    8    0    1
 -2       567       706       705      2917      2918      2913
 -1      1254    8    0    1
 -2       568       569       707      2502      2919      2920
 -1      1255    8    0    1
 -2       568       707       706      2920      2921      2916
 -1      1256    8    0    1
 -2       569       570       708      2505      2922      2923
 -1      1257    8    0    1
 -2       569       708       707      2923      2924      2919
 -1      1258    8    0    1
 -2       570       571       709      2508      2925      2926
 -1      1259    8    0    1
 -2       570       709       708      2926      2927      2922
 -1      1260    8    0    1
 -2       571       572       710      2511      2928      2929
 -1      1261    8    0    1
 -2       571       710       709      2929      2930      2925
 -1      1262    8    0    1
 -2       572       573       711      2514      2931      2932
 -1      1263    8    0    1
 -2       710       572       711      2928      2932      2933
 -1      1264    8    0    1
 -2       573       576       711      2678      2934      2931
 -1      1265    8    0    1
 -2       578       579       712      2532      2935      2936
 -1      1266    8    0    1
 -2       620       531       713      2679      2937      2938
 -1      1267    8    0    1
 -2       531       673       713      2817      2939      2937
 -1      1268    8    0    1
 -2       574       575       714      2520      2940      2941
 -1      1269    8    0    1
 -2       579       580       715      2535      2942      2943
 -1      1270    8    0    1
 -2       579       715       712      2943      2944      2935
 -1      1271    8    0    1
 -2       575       578       716      2529      2945      2946
 -1      1272    8    0    1
 -2       714       575       716      2940      2946      2947
 -1      1273    8    0    1
 -2       578       712       716      2936      2948      2945
 -1      1274    8    0    1
 -2       587       532       717      2555      2949      2950
 -1      1275    8    0    1
 -2       532       675       717      2822      2951      2949
 -1      1276    8    0    1
 -2       580       581       718      2538      2952      2953
 -1      1277    8    0    1
 -2       580       718       715      2953      2954      2942
 -1      1278    8    0    1
 -2       581       582       719      2541      2955      2956
 -1      1279    8    0    1
 -2       581       719       718      2956      2957      2952
 -1      1280    8    0    1
 -2       582       583       720      2544      2958      2959
 -1      1281    8    0    1
 -2       582       720       719      2959      2960      2955
 -1      1282    8    0    1
 -2       610       586       721      2641      2961      2962
 -1      1283    8    0    1
 -2       596       603       722      2645      2963      2964
 -1      1284    8    0    1
 -2       585       589       723      2560      2965      2966
 -1      1285    8    0    1
 -2       612       595       724      2614      2967      2968
 -1      1286    8    0    1
 -2       609       590       725      2607      2969      2970
 -1      1287    8    0    1
 -2       604       605       726      2630      2971      2972
 -1      1288    8    0    1
 -2       487       592       727      2567      2973      2974
 -1      1289    8    0    1
 -2       592       622       727      2658      2975      2973
 -1      1290    8    0    1
 -2       489       487       728      2263      2976      2977
 -1      1291    8    0    1
 -2       632       489       728      2694      2977      2978
 -1      1292    8    0    1
 -2       487       727       728      2974      2979      2976
 -1      1293    8    0    1
 -2       590       601       729      2660      2980      2981
 -1      1294    8    0    1
 -2       590       729       725      2981      2982      2969
 -1      1295    8    0    1
 -2       584       620       713      2648      2938      2983
 -1      1296    8    0    1
 -2       486       587       730      2625      2984      2985
 -1      1297    8    0    1
 -2       630       486       730      2690      2985      2986
 -1      1298    8    0    1
 -2       587       717       730      2950      2987      2984
 -1      1299    8    0    1
 -2       482       483       731      2247      2988      2989
 -1      1300    8    0    1
 -2       483       628       731      2686      2990      2988
 -1      1301    8    0    1
 -2       597       488       674      2634      2991      2992
 -1      1302    8    0    1
 -2       479       478       732      2236      2993      2994
 -1      1303    8    0    1
 -2       591       607       733      2665      2995      2996
 -1      1304    8    0    1
 -2       586       611       734      2653      2997      2998
 -1      1305    8    0    1
 -2       586       734       721      2998      2999      2961
 -1      1306    8    0    1
 -2       611       588       735      2661      3000      3001
 -1      1307    8    0    1
 -2       600       602       736      2591      3002      3003
 -1      1308    8    0    1
 -2       603       604       737      2596      3004      3005
 -1      1309    8    0    1
 -2       722       603       737      2963      3005      3006
 -1      1310    8    0    1
 -2       604       726       737      2972      3007      3004
 -1      1311    8    0    1
 -2       488       598       738      2667      3008      3009
 -1      1312    8    0    1
 -2       475       606       739      2666      3010      3011
 -1      1313    8    0    1
 -2       598       599       740      2664      3012      3013
 -1      1314    8    0    1
 -2       607       608       741      2663      3014      3015
 -1      1315    8    0    1
 -2       607       741       733      3015      3016      2995
 -1      1316    8    0    1
 -2       601       610       742      2642      3017      3018
 -1      1317    8    0    1
 -2       608       609       743      2662      3019      3020
 -1      1318    8    0    1
 -2       485       613       477      2654      2618      3021
 -1      1319    8    0    1
 -2       615       479       744      2622      3022      3023
 -1      1320    8    0    1
 -2       479       732       744      2994      3024      3022
 -1      1321    8    0    1
 -2       480       627       745      2683      3025      3026
 -1      1322    8    0    1
 -2       480       745       593      3026      3027      2572
 -1      1323    8    0    1
 -2       588       631       735      2693      3028      3000
 -1      1324    8    0    1
 -2       535       614       746      2825      3029      3030
 -1      1325    8    0    1
 -2       534       535       746      2400      3030      3031
 -1      1326    8    0    1
 -2       614       594       746      2619      3032      3029
 -1      1327    8    0    1
 -2       616       591       733      2629      2996      3033
 -1      1328    8    0    1
 -2       617       596       722      2633      2964      3034
 -1      1329    8    0    1
 -2       618       473       625      2635      2677      3035
 -1      1330    8    0    1
 -2       597       674       746      2992      3036      3037
 -1      1331    8    0    1
 -2       619       585       747      2640      3038      3039
 -1      1332    8    0    1
 -2       585       723       747      2966      3040      3038
 -1      1333    8    0    1
 -2       743       609       725      3019      2970      3041
 -1      1334    8    0    1
 -2       741       608       743      3014      3020      3042
 -1      1335    8    0    1
 -2       574       714       748      2941      3043      3044
 -1      1336    8    0    1
 -2       574       748       577      3044      3045      2526
 -1      1337    8    0    1
 -2       674       534       746      2819      3031      3036
 -1      1338    8    0    1
 -2       599       621       740      2651      3046      3012
 -1      1339    8    0    1
 -2       538       677       676      2831      3047      2828
 -1      1340    8    0    1
 -2       576       577       749      2525      3048      3049
 -1      1341    8    0    1
 -2       711       576       749      2934      3049      3050
 -1      1342    8    0    1
 -2       577       748       749      3045      3051      3048
 -1      1343    8    0    1
 -2       738       598       740      3008      3013      3052
 -1      1344    8    0    1
 -2       736       602       750      3002      3053      3054
 -1      1345    8    0    1
 -2       602       617       750      2632      3055      3053
 -1      1346    8    0    1
 -2       626       482       731      2680      2989      3056
 -1      1347    8    0    1
 -2       610       721       742      2962      3057      3017
 -1      1348    8    0    1
 -2       611       735       734      3001      3058      2997
 -1      1349    8    0    1
 -2       583       584       713      2547      2983      3059
 -1      1350    8    0    1
 -2       621       600       751      2652      3060      3061
 -1      1351    8    0    1
 -2       600       736       751      3003      3062      3060
 -1      1352    8    0    1
 -2       726       605       752      2971      3063      3064
 -1      1353    8    0    1
 -2       605       624       752      2673      3065      3063
 -1      1354    8    0    1
 -2       724       595       623      2967      2669      3066
 -1      1355    8    0    1
 -2       612       724       625      2968      3067      2675
 -1      1356    8    0    1
 -2       723       589       753      2965      3068      3069
 -1      1357    8    0    1
 -2       589       618       753      2637      3070      3068
 -1      1358    8    0    1
 -2       488       738       674      3009      3071      2991
 -1      1359    8    0    1
 -2       729       601       742      2980      3018      3072
 -1      1360    8    0    1
 -2       474       619       631      2639      3073      2692
 -1      1361    8    0    1
 -2       583       713       754      3059      3074      3075
 -1      1362    8    0    1
 -2       720       583       754      2958      3075      3076
 -1      1363    8    0    1
 -2       713       673       754      2939      3077      3074
 -1      1364    8    0    1
 -2       623       476       614      2670      2621      3078
 -1      1365    8    0    1
 -2       478       593       755      2571      3079      3080
 -1      1366    8    0    1
 -2       478       755       732      3080      3081      2993
 -1      1367    8    0    1
 -2       606       616       756      2628      3082      3083
 -1      1368    8    0    1
 -2       606       756       739      3083      3084      3010
 -1      1369    8    0    1
 -2       624       475       739      2674      3011      3085
 -1      1370    8    0    1
 -2       594       597       746      2671      3037      3032
 -1      1371    8    0    1
 -2       485       477       630      3021      2691      3086
 -1      1372    8    0    1
 -2       629       485       630      2687      3086      3087
 -1      1373    8    0    1
 -2       629       630       757      3087      3088      3089
 -1      1374    8    0    1
 -2       630       730       757      2986      3090      3088
 -1      1375    8    0    1
 -2       628       629       757      2689      3089      3091
 -1      1376    8    0    1
 -2       731       628       758      2990      3092      3093
 -1      1377    8    0    1
 -2       616       733       759      3033      3094      3095
 -1      1378    8    0    1
 -2       735       631       760      3028      3096      3097
 -1      1379    8    0    1
 -2       740       621       761      3046      3098      3099
 -1      1380    8    0    1
 -2       634       633       762      2701      3100      3101
 -1      1381    8    0    1
 -2       635       634       763      2704      3102      3103
 -1      1382    8    0    1
 -2       634       762       763      3101      3104      3102
 -1      1383    8    0    1
 -2       636       635       764      2707      3105      3106
 -1      1384    8    0    1
 -2       635       763       764      3103      3107      3105
 -1      1385    8    0    1
 -2       637       636       759      2710      3108      3109
 -1      1386    8    0    1
 -2       639       638       765      2716      3110      3111
 -1      1387    8    0    1
 -2       640       639       766      2719      3112      3113
 -1      1388    8    0    1
 -2       639       765       766      3111      3114      3112
 -1      1389    8    0    1
 -2       641       640       767      2722      3115      3116
 -1      1390    8    0    1
 -2       640       766       767      3113      3117      3115
 -1      1391    8    0    1
 -2       642       641       768      2725      3118      3119
 -1      1392    8    0    1
 -2       641       767       768      3116      3120      3118
 -1      1393    8    0    1
 -2       643       642       769      2728      3121      3122
 -1      1394    8    0    1
 -2       642       768       769      3119      3123      3121
 -1      1395    8    0    1
 -2       644       643       770      2731      3124      3125
 -1      1396    8    0    1
 -2       643       769       770      3122      3126      3124
 -1      1397    8    0    1
 -2       645       644       771      2734      3127      3128
 -1      1398    8    0    1
 -2       644       770       771      3125      3129      3127
 -1      1399    8    0    1
 -2       646       645       772      2737      3130      3131
 -1      1400    8    0    1
 -2       645       771       772      3128      3132      3130
 -1      1401    8    0    1
 -2       647       646       773      2740      3133      3134
 -1      1402    8    0    1
 -2       646       772       773      3131      3135      3133
 -1      1403    8    0    1
 -2       648       647       774      2743      3136      3137
 -1      1404    8    0    1
 -2       647       773       774      3134      3138      3136
 -1      1405    8    0    1
 -2       649       648       775      2746      3139      3140
 -1      1406    8    0    1
 -2       648       774       775      3137      3141      3139
 -1      1407    8    0    1
 -2       650       649       776      2749      3142      3143
 -1      1408    8    0    1
 -2       649       775       776      3140      3144      3142
 -1      1409    8    0    1
 -2       651       650       777      2752      3145      3146
 -1      1410    8    0    1
 -2       650       776       777      3143      3147      3145
 -1      1411    8    0    1
 -2       652       651       778      2755      3148      3149
 -1      1412    8    0    1
 -2       651       777       778      3146      3150      3148
 -1      1413    8    0    1
 -2       653       652       779      2758      3151      3152
 -1      1414    8    0    1
 -2       652       778       779      3149      3153      3151
 -1      1415    8    0    1
 -2       654       653       780      2761      3154      3155
 -1      1416    8    0    1
 -2       653       779       780      3152      3156      3154
 -1      1417    8    0    1
 -2       655       654       781      2764      3157      3158
 -1      1418    8    0    1
 -2       654       780       781      3155      3159      3157
 -1      1419    8    0    1
 -2       656       655       782      2767      3160      3161
 -1      1420    8    0    1
 -2       655       781       782      3158      3162      3160
 -1      1421    8    0    1
 -2       657       656       783      2770      3163      3164
 -1      1422    8    0    1
 -2       656       782       783      3161      3165      3163
 -1      1423    8    0    1
 -2       658       657       784      2773      3166      3167
 -1      1424    8    0    1
 -2       657       783       784      3164      3168      3166
 -1      1425    8    0    1
 -2       659       658       785      2776      3169      3170
 -1      1426    8    0    1
 -2       658       784       785      3167      3171      3169
 -1      1427    8    0    1
 -2       660       659       786      2779      3172      3173
 -1      1428    8    0    1
 -2       659       785       786      3170      3174      3172
 -1      1429    8    0    1
 -2       661       660       787      2782      3175      3176
 -1      1430    8    0    1
 -2       660       786       787      3173      3177      3175
 -1      1431    8    0    1
 -2       662       661       788      2785      3178      3179
 -1      1432    8    0    1
 -2       661       787       788      3176      3180      3178
 -1      1433    8    0    1
 -2       663       662       789      2788      3181      3182
 -1      1434    8    0    1
 -2       662       788       789      3179      3183      3181
 -1      1435    8    0    1
 -2       664       663       790      2791      3184      3185
 -1      1436    8    0    1
 -2       663       789       790      3182      3186      3184
 -1      1437    8    0    1
 -2       665       664       791      2794      3187      3188
 -1      1438    8    0    1
 -2       664       790       791      3185      3189      3187
 -1      1439    8    0    1
 -2       666       665       792      2797      3190      3191
 -1      1440    8    0    1
 -2       665       791       792      3188      3192      3190
 -1      1441    8    0    1
 -2       667       666       793      2800      3193      3194
 -1      1442    8    0    1
 -2       666       792       793      3191      3195      3193
 -1      1443    8    0    1
 -2       668       667       794      2803      3196      3197
 -1      1444    8    0    1
 -2       667       793       794      3194      3198      3196
 -1      1445    8    0    1
 -2       669       668       795      2806      3199      3200
 -1      1446    8    0    1
 -2       668       794       795      3197      3201      3199
 -1      1447    8    0    1
 -2       670       669       796      2809      3202      3203
 -1      1448    8    0    1
 -2       669       795       796      3200      3204      3202
 -1      1449    8    0    1
 -2       671       670       797      2812      3205      3206
 -1      1450    8    0    1
 -2       670       796       797      3203      3207      3205
 -1      1451    8    0    1
 -2       672       671       798      2815      3208      3209
 -1      1452    8    0    1
 -2       671       797       798      3206      3210      3208
 -1      1453    8    0    1
 -2       673       672       799      2818      3211      3212
 -1      1454    8    0    1
 -2       754       673       799      3077      3212      3213
 -1      1455    8    0    1
 -2       672       798       799      3209      3214      3211
 -1      1456    8    0    1
 -2       715       718       800      2954      3215      3216
 -1      1457    8    0    1
 -2       614       536       623      2824      2827      3078
 -1      1458    8    0    1
 -2       537       676       724      2829      3217      3218
 -1      1459    8    0    1
 -2       677       678       753      2834      3219      3220
 -1      1460    8    0    1
 -2       680       681       801      2843      3221      3222
 -1      1461    8    0    1
 -2       681       682       802      2846      3223      3224
 -1      1462    8    0    1
 -2       681       802       801      3224      3225      3221
 -1      1463    8    0    1
 -2       682       683       803      2849      3226      3227
 -1      1464    8    0    1
 -2       682       803       802      3227      3228      3223
 -1      1465    8    0    1
 -2       683       684       804      2852      3229      3230
 -1      1466    8    0    1
 -2       683       804       803      3230      3231      3226
 -1      1467    8    0    1
 -2       684       685       805      2855      3232      3233
 -1      1468    8    0    1
 -2       684       805       804      3233      3234      3229
 -1      1469    8    0    1
 -2       685       686       806      2858      3235      3236
 -1      1470    8    0    1
 -2       685       806       805      3236      3237      3232
 -1      1471    8    0    1
 -2       686       687       807      2861      3238      3239
 -1      1472    8    0    1
 -2       686       807       806      3239      3240      3235
 -1      1473    8    0    1
 -2       687       688       808      2864      3241      3242
 -1      1474    8    0    1
 -2       687       808       807      3242      3243      3238
 -1      1475    8    0    1
 -2       688       689       809      2867      3244      3245
 -1      1476    8    0    1
 -2       688       809       808      3245      3246      3241
 -1      1477    8    0    1
 -2       689       690       810      2870      3247      3248
 -1      1478    8    0    1
 -2       689       810       809      3248      3249      3244
 -1      1479    8    0    1
 -2       690       691       811      2873      3250      3251
 -1      1480    8    0    1
 -2       690       811       810      3251      3252      3247
 -1      1481    8    0    1
 -2       691       692       812      2876      3253      3254
 -1      1482    8    0    1
 -2       691       812       811      3254      3255      3250
 -1      1483    8    0    1
 -2       692       693       813      2879      3256      3257
 -1      1484    8    0    1
 -2       692       813       812      3257      3258      3253
 -1      1485    8    0    1
 -2       693       694       814      2882      3259      3260
 -1      1486    8    0    1
 -2       693       814       813      3260      3261      3256
 -1      1487    8    0    1
 -2       694       695       815      2885      3262      3263
 -1      1488    8    0    1
 -2       694       815       814      3263      3264      3259
 -1      1489    8    0    1
 -2       695       696       816      2888      3265      3266
 -1      1490    8    0    1
 -2       695       816       815      3266      3267      3262
 -1      1491    8    0    1
 -2       696       697       817      2891      3268      3269
 -1      1492    8    0    1
 -2       696       817       816      3269      3270      3265
 -1      1493    8    0    1
 -2       697       698       818      2894      3271      3272
 -1      1494    8    0    1
 -2       697       818       817      3272      3273      3268
 -1      1495    8    0    1
 -2       698       699       819      2897      3274      3275
 -1      1496    8    0    1
 -2       698       819       818      3275      3276      3271
 -1      1497    8    0    1
 -2       699       700       820      2900      3277      3278
 -1      1498    8    0    1
 -2       699       820       819      3278      3279      3274
 -1      1499    8    0    1
 -2       700       701       821      2903      3280      3281
 -1      1500    8    0    1
 -2       700       821       820      3281      3282      3277
 -1      1501    8    0    1
 -2       701       702       822      2906      3283      3284
 -1      1502    8    0    1
 -2       701       822       821      3284      3285      3280
 -1      1503    8    0    1
 -2       702       703       823      2909      3286      3287
 -1      1504    8    0    1
 -2       702       823       822      3287      3288      3283
 -1      1505    8    0    1
 -2       703       704       824      2912      3289      3290
 -1      1506    8    0    1
 -2       703       824       823      3290      3291      3286
 -1      1507    8    0    1
 -2       704       705       825      2915      3292      3293
 -1      1508    8    0    1
 -2       704       825       824      3293      3294      3289
 -1      1509    8    0    1
 -2       705       706       826      2918      3295      3296
 -1      1510    8    0    1
 -2       705       826       825      3296      3297      3292
 -1      1511    8    0    1
 -2       706       707       827      2921      3298      3299
 -1      1512    8    0    1
 -2       706       827       826      3299      3300      3295
 -1      1513    8    0    1
 -2       707       708       828      2924      3301      3302
 -1      1514    8    0    1
 -2       707       828       827      3302      3303      3298
 -1      1515    8    0    1
 -2       708       709       829      2927      3304      3305
 -1      1516    8    0    1
 -2       708       829       828      3305      3306      3301
 -1      1517    8    0    1
 -2       709       710       830      2930      3307      3308
 -1      1518    8    0    1
 -2       709       830       829      3308      3309      3304
 -1      1519    8    0    1
 -2       710       711       831      2933      3310      3311
 -1      1520    8    0    1
 -2       830       710       831      3307      3311      3312
 -1      1521    8    0    1
 -2       711       749       831      3050      3313      3310
 -1      1522    8    0    1
 -2       537       724       623      3218      3066      2826
 -1      1523    8    0    1
 -2       724       676       625      3217      3314      3067
 -1      1524    8    0    1
 -2       627       626       832      2684      3315      3316
 -1      1525    8    0    1
 -2       717       675       833      2951      3317      3318
 -1      1526    8    0    1
 -2       712       715       834      2944      3319      3320
 -1      1527    8    0    1
 -2       715       800       834      3216      3321      3319
 -1      1528    8    0    1
 -2       719       720       835      2960      3322      3323
 -1      1529    8    0    1
 -2       743       725       836      3041      3324      3325
 -1      1530    8    0    1
 -2       622       615       837      2659      3326      3327
 -1      1531    8    0    1
 -2       727       622       837      2975      3327      3328
 -1      1532    8    0    1
 -2       615       744       837      3023      3329      3326
 -1      1533    8    0    1
 -2       679       680       838      2840      3330      3331
 -1      1534    8    0    1
 -2       680       801       838      3222      3332      3330
 -1      1535    8    0    1
 -2       741       743       765      3042      3333      3334
 -1      1536    8    0    1
 -2       678       679       839      2837      3335      3336
 -1      1537    8    0    1
 -2       753       678       839      3219      3336      3337
 -1      1538    8    0    1
 -2       679       838       839      3331      3338      3335
 -1      1539    8    0    1
 -2       625       676       677      3314      3047      3339
 -1      1540    8    0    1
 -2       675       674       738      2823      3071      3340
 -1      1541    8    0    1
 -2       725       729       840      2982      3341      3342
 -1      1542    8    0    1
 -2       725       840       836      3342      3343      3324
 -1      1543    8    0    1
 -2       718       719       841      2957      3344      3345
 -1      1544    8    0    1
 -2       800       718       841      3215      3345      3346
 -1      1545    8    0    1
 -2       719       835       841      3323      3347      3344
 -1      1546    8    0    1
 -2       633       632       842      2698      3348      3349
 -1      1547    8    0    1
 -2       633       842       762      3349      3350      3100
 -1      1548    8    0    1
 -2       631       619       843      3073      3351      3352
 -1      1549    8    0    1
 -2       729       742       844      3072      3353      3354
 -1      1550    8    0    1
 -2       617       722       845      3034      3355      3356
 -1      1551    8    0    1
 -2       721       734       846      2999      3357      3358
 -1      1552    8    0    1
 -2       626       731       847      3056      3359      3360
 -1      1553    8    0    1
 -2       731       758       847      3093      3361      3359
 -1      1554    8    0    1
 -2       624       739       848      3085      3362      3363
 -1      1555    8    0    1
 -2       733       741       849      3016      3364      3365
 -1      1556    8    0    1
 -2       759       733       849      3094      3365      3366
 -1      1557    8    0    1
 -2       741       765       849      3334      3367      3364
 -1      1558    8    0    1
 -2       734       735       850      3058      3368      3369
 -1      1559    8    0    1
 -2       738       740       833      3052      3370      3371
 -1      1560    8    0    1
 -2       742       721       851      3057      3372      3373
 -1      1561    8    0    1
 -2       721       846       851      3358      3374      3372
 -1      1562    8    0    1
 -2       675       738       833      3340      3371      3317
 -1      1563    8    0    1
 -2       745       627       852      3025      3375      3376
 -1      1564    8    0    1
 -2       627       832       852      3316      3377      3375
 -1      1565    8    0    1
 -2       850       735       853      3368      3378      3379
 -1      1566    8    0    1
 -2       735       760       853      3097      3380      3378
 -1      1567    8    0    1
 -2       758       628       757      3092      3091      3381
 -1      1568    8    0    1
 -2       616       759       756      3095      3382      3082
 -1      1569    8    0    1
 -2       624       848       854      3363      3383      3384
 -1      1570    8    0    1
 -2       624       854       752      3384      3385      3065
 -1      1571    8    0    1
 -2       740       761       833      3099      3386      3370
 -1      1572    8    0    1
 -2       619       747       843      3039      3387      3351
 -1      1573    8    0    1
 -2       748       714       855      3043      3388      3389
 -1      1574    8    0    1
 -2       637       759       849      3109      3366      3390
 -1      1575    8    0    1
 -2       638       637       849      2713      3390      3391
 -1      1576    8    0    1
 -2       846       734       850      3357      3369      3392
 -1      1577    8    0    1
 -2       832       626       847      3315      3360      3393
 -1      1578    8    0    1
 -2       677       753       618      3220      3070      3394
 -1      1579    8    0    1
 -2       714       716       856      2947      3395      3396
 -1      1580    8    0    1
 -2       714       856       855      3396      3397      3388
 -1      1581    8    0    1
 -2       737       726       857      3007      3398      3399
 -1      1582    8    0    1
 -2       717       833       858      3318      3400      3401
 -1      1583    8    0    1
 -2       730       717       858      2987      3401      3402
 -1      1584    8    0    1
 -2       833       761       858      3386      3403      3400
 -1      1585    8    0    1
 -2       716       712       859      2948      3404      3405
 -1      1586    8    0    1
 -2       856       716       859      3395      3405      3406
 -1      1587    8    0    1
 -2       712       834       859      3320      3407      3404
 -1      1588    8    0    1
 -2       750       617       845      3055      3356      3408
 -1      1589    8    0    1
 -2       751       736       860      3062      3409      3410
 -1      1590    8    0    1
 -2       736       750       860      3054      3411      3409
 -1      1591    8    0    1
 -2       618       625       677      3035      3339      3394
 -1      1592    8    0    1
 -2       727       837       861      3328      3412      3413
 -1      1593    8    0    1
 -2       727       861       728      3413      3414      2979
 -1      1594    8    0    1
 -2       621       751       761      3061      3415      3098
 -1      1595    8    0    1
 -2       632       728       861      2978      3414      3416
 -1      1596    8    0    1
 -2       845       722       862      3355      3417      3418
 -1      1597    8    0    1
 -2       840       729       844      3341      3354      3419
 -1      1598    8    0    1
 -2       844       742       851      3353      3373      3420
 -1      1599    8    0    1
 -2       842       632       861      3348      3416      3421
 -1      1600    8    0    1
 -2       755       593       745      3079      3027      3422
 -1      1601    8    0    1
 -2       720       754       863      3076      3423      3424
 -1      1602    8    0    1
 -2       835       720       863      3322      3424      3425
 -1      1603    8    0    1
 -2       754       799       863      3213      3426      3423
 -1      1604    8    0    1
 -2       765       638       849      3110      3391      3367
 -1      1605    8    0    1
 -2       631       843       760      3352      3427      3096
 -1      1606    8    0    1
 -2       726       752       864      3064      3428      3429
 -1      1607    8    0    1
 -2       726       864       857      3429      3430      3398
 -1      1608    8    0    1
 -2       722       737       862      3006      3431      3417
 -1      1609    8    0    1
 -2       723       753       839      3069      3337      3432
 -1      1610    8    0    1
 -2       732       755       865      3081      3433      3434
 -1      1611    8    0    1
 -2       744       732       866      3024      3435      3436
 -1      1612    8    0    1
 -2       732       865       866      3434      3437      3435
 -1      1613    8    0    1
 -2       723       839       747      3432      3438      3040
 -1      1614    8    0    1
 -2       636       764       759      3106      3439      3108
 -1      1615    8    0    1
 -2       737       857       862      3399      3440      3431
 -1      1616    8    0    1
 -2       846       850       867      3392      3441      3442
 -1      1617    8    0    1
 -2       764       763       848      3107      3443      3444
 -1      1618    8    0    1
 -2       862       857       868      3440      3445      3446
 -1      1619    8    0    1
 -2       762       842       869      3350      3447      3448
 -1      1620    8    0    1
 -2       767       766       836      3117      3449      3450
 -1      1621    8    0    1
 -2       768       767       870      3120      3451      3452
 -1      1622    8    0    1
 -2       769       768       871      3123      3453      3454
 -1      1623    8    0    1
 -2       768       870       871      3452      3455      3453
 -1      1624    8    0    1
 -2       770       769       872      3126      3456      3457
 -1      1625    8    0    1
 -2       769       871       872      3454      3458      3456
 -1      1626    8    0    1
 -2       771       770       873      3129      3459      3460
 -1      1627    8    0    1
 -2       770       872       873      3457      3461      3459
 -1      1628    8    0    1
 -2       772       771       874      3132      3462      3463
 -1      1629    8    0    1
 -2       771       873       874      3460      3464      3462
 -1      1630    8    0    1
 -2       773       772       875      3135      3465      3466
 -1      1631    8    0    1
 -2       772       874       875      3463      3467      3465
 -1      1632    8    0    1
 -2       774       773       876      3138      3468      3469
 -1      1633    8    0    1
 -2       773       875       876      3466      3470      3468
 -1      1634    8    0    1
 -2       775       774       877      3141      3471      3472
 -1      1635    8    0    1
 -2       774       876       877      3469      3473      3471
 -1      1636    8    0    1
 -2       776       775       878      3144      3474      3475
 -1      1637    8    0    1
 -2       775       877       878      3472      3476      3474
 -1      1638    8    0    1
 -2       777       776       879      3147      3477      3478
 -1      1639    8    0    1
 -2       776       878       879      3475      3479      3477
 -1      1640    8    0    1
 -2       778       777       880      3150      3480      3481
 -1      1641    8    0    1
 -2       777       879       880      3478      3482      3480
 -1      1642    8    0    1
 -2       779       778       881      3153      3483      3484
 -1      1643    8    0    1
 -2       778       880       881      3481      3485      3483
 -1      1644    8    0    1
 -2       780       779       882      3156      3486      3487
 -1      1645    8    0    1
 -2       779       881       882      3484      3488      3486
 -1      1646    8    0    1
 -2       781       780       883      3159      3489      3490
 -1      1647    8    0    1
 -2       780       882       883      3487      3491      3489
 -1      1648    8    0    1
 -2       782       781       884      3162      3492      3493
 -1      1649    8    0    1
 -2       781       883       884      3490      3494      3492
 -1      1650    8    0    1
 -2       783       782       885      3165      3495      3496
 -1      1651    8    0    1
 -2       782       884       885      3493      3497      3495
 -1      1652    8    0    1
 -2       784       783       886      3168      3498      3499
 -1      1653    8    0    1
 -2       783       885       886      3496      3500      3498
 -1      1654    8    0    1
 -2       785       784       887      3171      3501      3502
 -1      1655    8    0    1
 -2       784       886       887      3499      3503      3501
 -1      1656    8    0    1
 -2       786       785       888      3174      3504      3505
 -1      1657    8    0    1
 -2       785       887       888      3502      3506      3504
 -1      1658    8    0    1
 -2       787       786       889      3177      3507      3508
 -1      1659    8    0    1
 -2       786       888       889      3505      3509      3507
 -1      1660    8    0    1
 -2       788       787       890      3180      3510      3511
 -1      1661    8    0    1
 -2       787       889       890      3508      3512      3510
 -1      1662    8    0    1
 -2       789       788       891      3183      3513      3514
 -1      1663    8    0    1
 -2       788       890       891      3511      3515      3513
 -1      1664    8    0    1
 -2       790       789       892      3186      3516      3517
 -1      1665    8    0    1
 -2       789       891       892      3514      3518      3516
 -1      1666    8    0    1
 -2       791       790       893      3189      3519      3520
 -1      1667    8    0    1
 -2       790       892       893      3517      3521      3519
 -1      1668    8    0    1
 -2       792       791       894      3192      3522      3523
 -1      1669    8    0    1
 -2       791       893       894      3520      3524      3522
 -1      1670    8    0    1
 -2       793       792       895      3195      3525      3526
 -1      1671    8    0    1
 -2       792       894       895      3523      3527      3525
 -1      1672    8    0    1
 -2       794       793       896      3198      3528      3529
 -1      1673    8    0    1
 -2       793       895       896      3526      3530      3528
 -1      1674    8    0    1
 -2       795       794       897      3201      3531      3532
 -1      1675    8    0    1
 -2       794       896       897      3529      3533      3531
 -1      1676    8    0    1
 -2       796       795       898      3204      3534      3535
 -1      1677    8    0    1
 -2       795       897       898      3532      3536      3534
 -1      1678    8    0    1
 -2       797       796       899      3207      3537      3538
 -1      1679    8    0    1
 -2       796       898       899      3535      3539      3537
 -1      1680    8    0    1
 -2       798       797       900      3210      3540      3541
 -1      1681    8    0    1
 -2       797       899       900      3538      3542      3540
 -1      1682    8    0    1
 -2       803       804       901      3231      3543      3544
 -1      1683    8    0    1
 -2       802       803       902      3228      3545      3546
 -1      1684    8    0    1
 -2       803       901       902      3544      3547      3545
 -1      1685    8    0    1
 -2       749       748       903      3051      3548      3549
 -1      1686    8    0    1
 -2       831       749       903      3313      3549      3550
 -1      1687    8    0    1
 -2       748       855       903      3389      3551      3548
 -1      1688    8    0    1
 -2       832       847       904      3393      3552      3553
 -1      1689    8    0    1
 -2       801       802       905      3225      3554      3555
 -1      1690    8    0    1
 -2       802       902       905      3546      3556      3554
 -1      1691    8    0    1
 -2       804       805       906      3234      3557      3558
 -1      1692    8    0    1
 -2       804       906       901      3558      3559      3543
 -1      1693    8    0    1
 -2       805       806       907      3237      3560      3561
 -1      1694    8    0    1
 -2       805       907       906      3561      3562      3557
 -1      1695    8    0    1
 -2       806       807       908      3240      3563      3564
 -1      1696    8    0    1
 -2       806       908       907      3564      3565      3560
 -1      1697    8    0    1
 -2       807       808       909      3243      3566      3567
 -1      1698    8    0    1
 -2       807       909       908      3567      3568      3563
 -1      1699    8    0    1
 -2       808       809       910      3246      3569      3570
 -1      1700    8    0    1
 -2       808       910       909      3570      3571      3566
 -1      1701    8    0    1
 -2       809       810       911      3249      3572      3573
 -1      1702    8    0    1
 -2       809       911       910      3573      3574      3569
 -1      1703    8    0    1
 -2       810       811       912      3252      3575      3576
 -1      1704    8    0    1
 -2       810       912       911      3576      3577      3572
 -1      1705    8    0    1
 -2       811       812       913      3255      3578      3579
 -1      1706    8    0    1
 -2       811       913       912      3579      3580      3575
 -1      1707    8    0    1
 -2       812       813       914      3258      3581      3582
 -1      1708    8    0    1
 -2       812       914       913      3582      3583      3578
 -1      1709    8    0    1
 -2       813       814       915      3261      3584      3585
 -1      1710    8    0    1
 -2       813       915       914      3585      3586      3581
 -1      1711    8    0    1
 -2       814       815       916      3264      3587      3588
 -1      1712    8    0    1
 -2       814       916       915      3588      3589      3584
 -1      1713    8    0    1
 -2       815       816       917      3267      3590      3591
 -1      1714    8    0    1
 -2       815       917       916      3591      3592      3587
 -1      1715    8    0    1
 -2       816       817       918      3270      3593      3594
 -1      1716    8    0    1
 -2       816       918       917      3594      3595      3590
 -1      1717    8    0    1
 -2       817       818       919      3273      3596      3597
 -1      1718    8    0    1
 -2       817       919       918      3597      3598      3593
 -1      1719    8    0    1
 -2       818       819       920      3276      3599      3600
 -1      1720    8    0    1
 -2       818       920       919      3600      3601      3596
 -1      1721    8    0    1
 -2       819       820       921      3279      3602      3603
 -1      1722    8    0    1
 -2       819       921       920      3603      3604      3599
 -1      1723    8    0    1
 -2       820       821       922      3282      3605      3606
 -1      1724    8    0    1
 -2       820       922       921      3606      3607      3602
 -1      1725    8    0    1
 -2       821       822       923      3285      3608      3609
 -1      1726    8    0    1
 -2       821       923       922      3609      3610      3605
 -1      1727    8    0    1
 -2       822       823       924      3288      3611      3612
 -1      1728    8    0    1
 -2       822       924       923      3612      3613      3608
 -1      1729    8    0    1
 -2       823       824       925      3291      3614      3615
 -1      1730    8    0    1
 -2       823       925       924      3615      3616      3611
 -1      1731    8    0    1
 -2       824       825       926      3294      3617      3618
 -1      1732    8    0    1
 -2       824       926       925      3618      3619      3614
 -1      1733    8    0    1
 -2       825       826       927      3297      3620      3621
 -1      1734    8    0    1
 -2       825       927       926      3621      3622      3617
 -1      1735    8    0    1
 -2       826       827       928      3300      3623      3624
 -1      1736    8    0    1
 -2       826       928       927      3624      3625      3620
 -1      1737    8    0    1
 -2       827       828       929      3303      3626      3627
 -1      1738    8    0    1
 -2       827       929       928      3627      3628      3623
 -1      1739    8    0    1
 -2       828       829       930      3306      3629      3630
 -1      1740    8    0    1
 -2       828       930       929      3630      3631      3626
 -1      1741    8    0    1
 -2       837       744       861      3329      3632      3412
 -1      1742    8    0    1
 -2       760       843       931      3427      3633      3634
 -1      1743    8    0    1
 -2       834       800       932      3321      3635      3636
 -1      1744    8    0    1
 -2       756       759       764      3382      3439      3637
 -1      1745    8    0    1
 -2       750       845       904      3408      3638      3639
 -1      1746    8    0    1
 -2       743       836       765      3325      3640      3333
 -1      1747    8    0    1
 -2       851       846       933      3374      3641      3642
 -1      1748    8    0    1
 -2       747       839       934      3438      3643      3644
 -1      1749    8    0    1
 -2       843       747       934      3387      3644      3645
 -1      1750    8    0    1
 -2       839       838       934      3338      3646      3643
 -1      1751    8    0    1
 -2       847       758       860      3361      3647      3648
 -1      1752    8    0    1
 -2       840       844       870      3419      3649      3650
 -1      1753    8    0    1
 -2       836       840       767      3343      3651      3450
 -1      1754    8    0    1
 -2       761       751       935      3415      3652      3653
 -1      1755    8    0    1
 -2       844       851       936      3420      3654      3655
 -1      1756    8    0    1
 -2       739       756       848      3084      3656      3362
 -1      1757    8    0    1
 -2       766       765       836      3114      3640      3449
 -1      1758    8    0    1
 -2       845       862       852      3418      3657      3658
 -1      1759    8    0    1
 -2       865       755       868      3433      3659      3660
 -1      1760    8    0    1
 -2       763       762       854      3104      3661      3662
 -1      1761    8    0    1
 -2       755       745       868      3422      3663      3659
 -1      1762    8    0    1
 -2       842       861       937      3421      3664      3665
 -1      1763    8    0    1
 -2       757       730       858      3090      3402      3666
 -1      1764    8    0    1
 -2       764       848       756      3444      3656      3637
 -1      1765    8    0    1
 -2       767       840       870      3651      3650      3451
 -1      1766    8    0    1
 -2       853       760       938      3380      3667      3668
 -1      1767    8    0    1
 -2       760       931       938      3634      3669      3667
 -1      1768    8    0    1
 -2       758       757       935      3381      3670      3671
 -1      1769    8    0    1
 -2       750       904       860      3639      3672      3411
 -1      1770    8    0    1
 -2       848       763       854      3443      3662      3383
 -1      1771    8    0    1
 -2       867       850       939      3441      3673      3674
 -1      1772    8    0    1
 -2       850       853       939      3379      3675      3673
 -1      1773    8    0    1
 -2       862       868       852      3446      3676      3657
 -1      1774    8    0    1
 -2       762       869       854      3448      3677      3661
 -1      1775    8    0    1
 -2       761       935       858      3653      3678      3403
 -1      1776    8    0    1
 -2       799       798       940      3214      3679      3680
 -1      1777    8    0    1
 -2       863       799       940      3426      3680      3681
 -1      1778    8    0    1
 -2       798       900       940      3541      3682      3679
 -1      1779    8    0    1
 -2       861       744       866      3632      3436      3683
 -1      1780    8    0    1
 -2       932       800       941      3635      3684      3685
 -1      1781    8    0    1
 -2       800       841       941      3346      3686      3684
 -1      1782    8    0    1
 -2       829       830       942      3309      3687      3688
 -1      1783    8    0    1
 -2       830       831       903      3312      3550      3689
 -1      1784    8    0    1
 -2       931       843       934      3633      3645      3690
 -1      1785    8    0    1
 -2       904       847       860      3552      3648      3672
 -1      1786    8    0    1
 -2       834       932       943      3636      3691      3692
 -1      1787    8    0    1
 -2       834       943       859      3692      3693      3407
 -1      1788    8    0    1
 -2       846       867       933      3442      3694      3641
 -1      1789    8    0    1
 -2       904       845       832      3638      3695      3553
 -1      1790    8    0    1
 -2       934       838       944      3646      3696      3697
 -1      1791    8    0    1
 -2       931       934       944      3690      3697      3698
 -1      1792    8    0    1
 -2       838       801       944      3332      3699      3696
 -1      1793    8    0    1
 -2       832       845       852      3695      3658      3377
 -1      1794    8    0    1
 -2       935       757       858      3670      3666      3678
 -1      1795    8    0    1
 -2       942       830       903      3687      3689      3700
 -1      1796    8    0    1
 -2       944       801       905      3699      3555      3701
 -1      1797    8    0    1
 -2       868       857       945      3445      3702      3703
 -1      1798    8    0    1
 -2       868       945       865      3703      3704      3660
 -1      1799    8    0    1
 -2       855       856       946      3397      3705      3706
 -1      1800    8    0    1
 -2       851       933       936      3642      3707      3654
 -1      1801    8    0    1
 -2       870       844       871      3649      3708      3455
 -1      1802    8    0    1
 -2       829       942       930      3688      3709      3629
 -1      1803    8    0    1
 -2       844       936       871      3655      3710      3708
 -1      1804    8    0    1
 -2       752       854       947      3385      3711      3712
 -1      1805    8    0    1
 -2       864       752       947      3428      3712      3713
 -1      1806    8    0    1
 -2       854       869       947      3677      3714      3711
 -1      1807    8    0    1
 -2       842       937       869      3665      3715      3447
 -1      1808    8    0    1
 -2       835       863       940      3425      3681      3716
 -1      1809    8    0    1
 -2       745       852       868      3376      3676      3663
 -1      1810    8    0    1
 -2       866       865       945      3437      3704      3717
 -1      1811    8    0    1
 -2       835       940       948      3716      3718      3719
 -1      1812    8    0    1
 -2       841       835       948      3347      3719      3720
 -1      1813    8    0    1
 -2       940       900       948      3682      3721      3718
 -1      1814    8    0    1
 -2       902       901       949      3547      3722      3723
 -1      1815    8    0    1
 -2       861       866       937      3683      3724      3664
 -1      1816    8    0    1
 -2       872       871       936      3458      3710      3725
 -1      1817    8    0    1
 -2       873       872       950      3461      3726      3727
 -1      1818    8    0    1
 -2       874       873       951      3464      3728      3729
 -1      1819    8    0    1
 -2       873       950       951      3727      3730      3728
 -1      1820    8    0    1
 -2       875       874       952      3467      3731      3732
 -1      1821    8    0    1
 -2       874       951       952      3729      3733      3731
 -1      1822    8    0    1
 -2       876       875       953      3470      3734      3735
 -1      1823    8    0    1
 -2       875       952       953      3732      3736      3734
 -1      1824    8    0    1
 -2       877       876       954      3473      3737      3738
 -1      1825    8    0    1
 -2       876       953       954      3735      3739      3737
 -1      1826    8    0    1
 -2       878       877       955      3476      3740      3741
 -1      1827    8    0    1
 -2       877       954       955      3738      3742      3740
 -1      1828    8    0    1
 -2       879       878       956      3479      3743      3744
 -1      1829    8    0    1
 -2       878       955       956      3741      3745      3743
 -1      1830    8    0    1
 -2       880       879       957      3482      3746      3747
 -1      1831    8    0    1
 -2       879       956       957      3744      3748      3746
 -1      1832    8    0    1
 -2       881       880       958      3485      3749      3750
 -1      1833    8    0    1
 -2       880       957       958      3747      3751      3749
 -1      1834    8    0    1
 -2       882       881       959      3488      3752      3753
 -1      1835    8    0    1
 -2       881       958       959      3750      3754      3752
 -1      1836    8    0    1
 -2       883       882       960      3491      3755      3756
 -1      1837    8    0    1
 -2       882       959       960      3753      3757      3755
 -1      1838    8    0    1
 -2       884       883       961      3494      3758      3759
 -1      1839    8    0    1
 -2       883       960       961      3756      3760      3758
 -1      1840    8    0    1
 -2       885       884       962      3497      3761      3762
 -1      1841    8    0    1
 -2       884       961       962      3759      3763      3761
 -1      1842    8    0    1
 -2       886       885       963      3500      3764      3765
 -1      1843    8    0    1
 -2       885       962       963      3762      3766      3764
 -1      1844    8    0    1
 -2       887       886       964      3503      3767      3768
 -1      1845    8    0    1
 -2       886       963       964      3765      3769      3767
 -1      1846    8    0    1
 -2       888       887       965      3506      3770      3771
 -1      1847    8    0    1
 -2       887       964       965      3768      3772      3770
 -1      1848    8    0    1
 -2       889       888       966      3509      3773      3774
 -1      1849    8    0    1
 -2       888       965       966      3771      3775      3773
 -1      1850    8    0    1
 -2       890       889       967      3512      3776      3777
 -1      1851    8    0    1
 -2       889       966       967      3774      3778      3776
 -1      1852    8    0    1
 -2       891       890       968      3515      3779      3780
 -1      1853    8    0    1
 -2       890       967       968      3777      3781      3779
 -1      1854    8    0    1
 -2       892       891       969      3518      3782      3783
 -1      1855    8    0    1
 -2       891       968       969      3780      3784      3782
 -1      1856    8    0    1
 -2       893       892       970      3521      3785      3786
 -1      1857    8    0    1
 -2       892       969       970      3783      3787      3785
 -1      1858    8    0    1
 -2       894       893       971      3524      3788      3789
 -1      1859    8    0    1
 -2       893       970       971      3786      3790      3788
 -1      1860    8    0    1
 -2       895       894       972      3527      3791      3792
 -1      1861    8    0    1
 -2       894       971       972      3789      3793      3791
 -1      1862    8    0    1
 -2       896       895       973      3530      3794      3795
 -1      1863    8    0    1
 -2       895       972       973      3792      3796      3794
 -1      1864    8    0    1
 -2       897       896       974      3533      3797      3798
 -1      1865    8    0    1
 -2       896       973       974      3795      3799      3797
 -1      1866    8    0    1
 -2       898       897       975      3536      3800      3801
 -1      1867    8    0    1
 -2       897       974       975      3798      3802      3800
 -1      1868    8    0    1
 -2       899       898       976      3539      3803      3804
 -1      1869    8    0    1
 -2       898       975       976      3801      3805      3803
 -1      1870    8    0    1
 -2       900       899       977      3542      3806      3807
 -1      1871    8    0    1
 -2       899       976       977      3804      3808      3806
 -1      1872    8    0    1
 -2       906       907       978      3562      3809      3810
 -1      1873    8    0    1
 -2       901       906       979      3559      3811      3812
 -1      1874    8    0    1
 -2       901       979       949      3812      3813      3722
 -1      1875    8    0    1
 -2       903       855       942      3551      3814      3700
 -1      1876    8    0    1
 -2       905       902       980      3556      3815      3816
 -1      1877    8    0    1
 -2       902       949       980      3723      3817      3815
 -1      1878    8    0    1
 -2       907       908       981      3565      3818      3819
 -1      1879    8    0    1
 -2       907       981       978      3819      3820      3809
 -1      1880    8    0    1
 -2       908       909       982      3568      3821      3822
 -1      1881    8    0    1
 -2       908       982       981      3822      3823      3818
 -1      1882    8    0    1
 -2       909       910       983      3571      3824      3825
 -1      1883    8    0    1
 -2       909       983       982      3825      3826      3821
 -1      1884    8    0    1
 -2       910       911       984      3574      3827      3828
 -1      1885    8    0    1
 -2       910       984       983      3828      3829      3824
 -1      1886    8    0    1
 -2       911       912       985      3577      3830      3831
 -1      1887    8    0    1
 -2       911       985       984      3831      3832      3827
 -1      1888    8    0    1
 -2       912       913       986      3580      3833      3834
 -1      1889    8    0    1
 -2       912       986       985      3834      3835      3830
 -1      1890    8    0    1
 -2       913       914       987      3583      3836      3837
 -1      1891    8    0    1
 -2       913       987       986      3837      3838      3833
 -1      1892    8    0    1
 -2       914       915       988      3586      3839      3840
 -1      1893    8    0    1
 -2       914       988       987      3840      3841      3836
 -1      1894    8    0    1
 -2       915       916       989      3589      3842      3843
 -1      1895    8    0    1
 -2       915       989       988      3843      3844      3839
 -1      1896    8    0    1
 -2       916       917       990      3592      3845      3846
 -1      1897    8    0    1
 -2       916       990       989      3846      3847      3842
 -1      1898    8    0    1
 -2       917       918       991      3595      3848      3849
 -1      1899    8    0    1
 -2       917       991       990      3849      3850      3845
 -1      1900    8    0    1
 -2       918       919       992      3598      3851      3852
 -1      1901    8    0    1
 -2       918       992       991      3852      3853      3848
 -1      1902    8    0    1
 -2       919       920       993      3601      3854      3855
 -1      1903    8    0    1
 -2       919       993       992      3855      3856      3851
 -1      1904    8    0    1
 -2       920       921       994      3604      3857      3858
 -1      1905    8    0    1
 -2       920       994       993      3858      3859      3854
 -1      1906    8    0    1
 -2       921       922       995      3607      3860      3861
 -1      1907    8    0    1
 -2       921       995       994      3861      3862      3857
 -1      1908    8    0    1
 -2       922       923       996      3610      3863      3864
 -1      1909    8    0    1
 -2       922       996       995      3864      3865      3860
 -1      1910    8    0    1
 -2       923       924       997      3613      3866      3867
 -1      1911    8    0    1
 -2       923       997       996      3867      3868      3863
 -1      1912    8    0    1
 -2       924       925       998      3616      3869      3870
 -1      1913    8    0    1
 -2       924       998       997      3870      3871      3866
 -1      1914    8    0    1
 -2       925       926       999      3619      3872      3873
 -1      1915    8    0    1
 -2       925       999       998      3873      3874      3869
 -1      1916    8    0    1
 -2       926       927      1000      3622      3875      3876
 -1      1917    8    0    1
 -2       926      1000       999      3876      3877      3872
 -1      1918    8    0    1
 -2       927       928      1001      3625      3878      3879
 -1      1919    8    0    1
 -2       927      1001      1000      3879      3880      3875
 -1      1920    8    0    1
 -2       928       929      1002      3628      3881      3882
 -1      1921    8    0    1
 -2       928      1002      1001      3882      3883      3878
 -1      1922    8    0    1
 -2       929       930      1003      3631      3884      3885
 -1      1923    8    0    1
 -2       929      1003      1002      3885      3886      3881
 -1      1924    8    0    1
 -2       944       905      1004      3701      3887      3888
 -1      1925    8    0    1
 -2       931       944      1004      3698      3888      3889
 -1      1926    8    0    1
 -2       905       980      1004      3816      3890      3887
 -1      1927    8    0    1
 -2       856       859      1005      3406      3891      3892
 -1      1928    8    0    1
 -2       946       856      1005      3705      3892      3893
 -1      1929    8    0    1
 -2       859       943      1005      3693      3894      3891
 -1      1930    8    0    1
 -2       936       933      1006      3707      3895      3896
 -1      1931    8    0    1
 -2       942       855       946      3814      3706      3897
 -1      1932    8    0    1
 -2       942       946       930      3897      3898      3709
 -1      1933    8    0    1
 -2       935       751       860      3652      3410      3899
 -1      1934    8    0    1
 -2       933       867      1007      3694      3900      3901
 -1      1935    8    0    1
 -2       935       860       758      3899      3647      3671
 -1      1936    8    0    1
 -2       930       946      1003      3898      3902      3884
 -1      1937    8    0    1
 -2       867       939      1008      3674      3903      3904
 -1      1938    8    0    1
 -2       867      1008      1007      3904      3905      3900
 -1      1939    8    0    1
 -2       937       866       945      3724      3717      3906
 -1      1940    8    0    1
 -2       900       977       948      3807      3907      3721
 -1      1941    8    0    1
 -2       841       948       941      3720      3908      3686
 -1      1942    8    0    1
 -2       931      1004       938      3889      3909      3669
 -1      1943    8    0    1
 -2       906       978       979      3810      3910      3811
 -1      1944    8    0    1
 -2       945       857       864      3702      3430      3911
 -1      1945    8    0    1
 -2       869       937       945      3715      3906      3912
 -1      1946    8    0    1
 -2       943       932      1009      3691      3913      3914
 -1      1947    8    0    1
 -2      1006       933      1007      3895      3901      3915
 -1      1948    8    0    1
 -2       946      1005      1010      3893      3916      3917
 -1      1949    8    0    1
 -2       946      1010      1003      3917      3918      3902
 -1      1950    8    0    1
 -2       853       938      1011      3668      3919      3920
 -1      1951    8    0    1
 -2       853      1011       939      3920      3921      3675
 -1      1952    8    0    1
 -2       872       936      1006      3725      3896      3922
 -1      1953    8    0    1
 -2      1009       932      1012      3913      3923      3924
 -1      1954    8    0    1
 -2       932       941      1012      3685      3925      3923
 -1      1955    8    0    1
 -2       945       864       947      3911      3713      3926
 -1      1956    8    0    1
 -2       978       981      1013      3820      3927      3928
 -1      1957    8    0    1
 -2       952       951      1014      3733      3929      3930
 -1      1958    8    0    1
 -2       953       952      1015      3736      3931      3932
 -1      1959    8    0    1
 -2       952      1014      1015      3930      3933      3931
 -1      1960    8    0    1
 -2       954       953      1016      3739      3934      3935
 -1      1961    8    0    1
 -2       953      1015      1016      3932      3936      3934
 -1      1962    8    0    1
 -2       955       954      1017      3742      3937      3938
 -1      1963    8    0    1
 -2       954      1016      1017      3935      3939      3937
 -1      1964    8    0    1
 -2       956       955      1018      3745      3940      3941
 -1      1965    8    0    1
 -2       955      1017      1018      3938      3942      3940
 -1      1966    8    0    1
 -2       957       956      1019      3748      3943      3944
 -1      1967    8    0    1
 -2       956      1018      1019      3941      3945      3943
 -1      1968    8    0    1
 -2       958       957      1020      3751      3946      3947
 -1      1969    8    0    1
 -2       957      1019      1020      3944      3948      3946
 -1      1970    8    0    1
 -2       959       958      1021      3754      3949      3950
 -1      1971    8    0    1
 -2       958      1020      1021      3947      3951      3949
 -1      1972    8    0    1
 -2       960       959      1022      3757      3952      3953
 -1      1973    8    0    1
 -2       959      1021      1022      3950      3954      3952
 -1      1974    8    0    1
 -2       961       960      1023      3760      3955      3956
 -1      1975    8    0    1
 -2       960      1022      1023      3953      3957      3955
 -1      1976    8    0    1
 -2       962       961      1024      3763      3958      3959
 -1      1977    8    0    1
 -2       961      1023      1024      3956      3960      3958
 -1      1978    8    0    1
 -2       963       962      1025      3766      3961      3962
 -1      1979    8    0    1
 -2       962      1024      1025      3959      3963      3961
 -1      1980    8    0    1
 -2       964       963      1026      3769      3964      3965
 -1      1981    8    0    1
 -2       963      1025      1026      3962      3966      3964
 -1      1982    8    0    1
 -2       965       964      1027      3772      3967      3968
 -1      1983    8    0    1
 -2       964      1026      1027      3965      3969      3967
 -1      1984    8    0    1
 -2       966       965      1028      3775      3970      3971
 -1      1985    8    0    1
 -2       965      1027      1028      3968      3972      3970
 -1      1986    8    0    1
 -2       967       966      1029      3778      3973      3974
 -1      1987    8    0    1
 -2       966      1028      1029      3971      3975      3973
 -1      1988    8    0    1
 -2       968       967      1030      3781      3976      3977
 -1      1989    8    0    1
 -2       967      1029      1030      3974      3978      3976
 -1      1990    8    0    1
 -2       969       968      1031      3784      3979      3980
 -1      1991    8    0    1
 -2       968      1030      1031      3977      3981      3979
 -1      1992    8    0    1
 -2       970       969      1032      3787      3982      3983
 -1      1993    8    0    1
 -2       969      1031      1032      3980      3984      3982
 -1      1994    8    0    1
 -2       971       970      1033      3790      3985      3986
 -1      1995    8    0    1
 -2       970      1032      1033      3983      3987      3985
 -1      1996    8    0    1
 -2       972       971      1034      3793      3988      3989
 -1      1997    8    0    1
 -2       971      1033      1034      3986      3990      3988
 -1      1998    8    0    1
 -2       973       972      1035      3796      3991      3992
 -1      1999    8    0    1
 -2       972      1034      1035      3989      3993      3991
 -1      2000    8    0    1
 -2       974       973      1036      3799      3994      3995
 -1      2001    8    0    1
 -2       973      1035      1036      3992      3996      3994
 -1      2002    8    0    1
 -2       975       974      1037      3802      3997      3998
 -1      2003    8    0    1
 -2       974      1036      1037      3995      3999      3997
 -1      2004    8    0    1
 -2       976       975      1038      3805      4000      4001
 -1      2005    8    0    1
 -2       975      1037      1038      3998      4002      4000
 -1      2006    8    0    1
 -2       977       976      1039      3808      4003      4004
 -1      2007    8    0    1
 -2       976      1038      1039      4001      4005      4003
 -1      2008    8    0    1
 -2       981       982      1040      3823      4006      4007
 -1      2009    8    0    1
 -2       981      1040      1013      4007      4008      3927
 -1      2010    8    0    1
 -2       949       979      1041      3813      4009      4010
 -1      2011    8    0    1
 -2       980       949      1042      3817      4011      4012
 -1      2012    8    0    1
 -2       949      1041      1042      4010      4013      4011
 -1      2013    8    0    1
 -2       982       983      1043      3826      4014      4015
 -1      2014    8    0    1
 -2       982      1043      1040      4015      4016      4006
 -1      2015    8    0    1
 -2       983       984      1044      3829      4017      4018
 -1      2016    8    0    1
 -2       983      1044      1043      4018      4019      4014
 -1      2017    8    0    1
 -2       984       985      1045      3832      4020      4021
 -1      2018    8    0    1
 -2       984      1045      1044      4021      4022      4017
 -1      2019    8    0    1
 -2       985       986      1046      3835      4023      4024
 -1      2020    8    0    1
 -2       985      1046      1045      4024      4025      4020
 -1      2021    8    0    1
 -2       986       987      1047      3838      4026      4027
 -1      2022    8    0    1
 -2       986      1047      1046      4027      4028      4023
 -1      2023    8    0    1
 -2       987       988      1048      3841      4029      4030
 -1      2024    8    0    1
 -2       987      1048      1047      4030      4031      4026
 -1      2025    8    0    1
 -2       988       989      1049      3844      4032      4033
 -1      2026    8    0    1
 -2       988      1049      1048      4033      4034      4029
 -1      2027    8    0    1
 -2       989       990      1050      3847      4035      4036
 -1      2028    8    0    1
 -2       989      1050      1049      4036      4037      4032
 -1      2029    8    0    1
 -2       990       991      1051      3850      4038      4039
 -1      2030    8    0    1
 -2       990      1051      1050      4039      4040      4035
 -1      2031    8    0    1
 -2       991       992      1052      3853      4041      4042
 -1      2032    8    0    1
 -2       991      1052      1051      4042      4043      4038
 -1      2033    8    0    1
 -2       992       993      1053      3856      4044      4045
 -1      2034    8    0    1
 -2       992      1053      1052      4045      4046      4041
 -1      2035    8    0    1
 -2       993       994      1054      3859      4047      4048
 -1      2036    8    0    1
 -2       993      1054      1053      4048      4049      4044
 -1      2037    8    0    1
 -2       994       995      1055      3862      4050      4051
 -1      2038    8    0    1
 -2       994      1055      1054      4051      4052      4047
 -1      2039    8    0    1
 -2       995       996      1056      3865      4053      4054
 -1      2040    8    0    1
 -2       995      1056      1055      4054      4055      4050
 -1      2041    8    0    1
 -2       996       997      1057      3868      4056      4057
 -1      2042    8    0    1
 -2       996      1057      1056      4057      4058      4053
 -1      2043    8    0    1
 -2       997       998      1058      3871      4059      4060
 -1      2044    8    0    1
 -2       997      1058      1057      4060      4061      4056
 -1      2045    8    0    1
 -2       998       999      1059      3874      4062      4063
 -1      2046    8    0    1
 -2       998      1059      1058      4063      4064      4059
 -1      2047    8    0    1
 -2       999      1000      1060      3877      4065      4066
 -1      2048    8    0    1
 -2       999      1060      1059      4066      4067      4062
 -1      2049    8    0    1
 -2      1000      1001      1061      3880      4068      4069
 -1      2050    8    0    1
 -2      1000      1061      1060      4069      4070      4065
 -1      2051    8    0    1
 -2      1001      1002      1062      3883      4071      4072
 -1      2052    8    0    1
 -2      1001      1062      1061      4072      4073      4068
 -1      2053    8    0    1
 -2      1002      1003      1063      3886      4074      4075
 -1      2054    8    0    1
 -2      1062      1002      1063      4071      4075      4076
 -1      2055    8    0    1
 -2      1003      1010      1063      3918      4077      4074
 -1      2056    8    0    1
 -2      1004       980      1064      3890      4078      4079
 -1      2057    8    0    1
 -2       938      1004      1064      3909      4079      4080
 -1      2058    8    0    1
 -2       980      1042      1064      4012      4081      4078
 -1      2059    8    0    1
 -2      1006      1007      1065      3915      4082      4083
 -1      2060    8    0    1
 -2       979       978      1066      3910      4084      4085
 -1      2061    8    0    1
 -2       978      1013      1066      3928      4086      4084
 -1      2062    8    0    1
 -2      1005       943      1067      3894      4087      4088
 -1      2063    8    0    1
 -2      1010      1005      1067      3916      4088      4089
 -1      2064    8    0    1
 -2       943      1009      1067      3914      4090      4087
 -1      2065    8    0    1
 -2       941       948       977      3908      3907      4091
 -1      2066    8    0    1
 -2       869       945       947      3912      3926      3714
 -1      2067    8    0    1
 -2      1009      1012      1068      3924      4092      4093
 -1      2068    8    0    1
 -2       951       950      1065      3730      4094      4095
 -1      2069    8    0    1
 -2       950       872      1006      3726      3922      4096
 -1      2070    8    0    1
 -2      1041       979      1066      4009      4085      4097
 -1      2071    8    0    1
 -2      1006      1065       950      4083      4094      4096
 -1      2072    8    0    1
 -2      1014       951      1065      3929      4095      4098
 -1      2073    8    0    1
 -2      1067      1009      1069      4090      4099      4100
 -1      2074    8    0    1
 -2      1009      1068      1069      4093      4101      4099
 -1      2075    8    0    1
 -2       941       977      1012      4091      4102      3925
 -1      2076    8    0    1
 -2       938      1064      1011      4080      4103      3919
 -1      2077    8    0    1
 -2      1008       939      1070      3903      4104      4105
 -1      2078    8    0    1
 -2       939      1011      1070      3921      4106      4104
 -1      2079    8    0    1
 -2      1013      1040      1071      4008      4107      4108
 -1      2080    8    0    1
 -2      1014      1065      1072      4098      4109      4110
 -1      2081    8    0    1
 -2       977      1039      1012      4004      4111      4102
 -1      2082    8    0    1
 -2      1016      1015      1073      3936      4112      4113
 -1      2083    8    0    1
 -2      1017      1016      1074      3939      4114      4115
 -1      2084    8    0    1
 -2      1016      1073      1074      4113      4116      4114
 -1      2085    8    0    1
 -2      1018      1017      1075      3942      4117      4118
 -1      2086    8    0    1
 -2      1017      1074      1075      4115      4119      4117
 -1      2087    8    0    1
 -2      1019      1018      1076      3945      4120      4121
 -1      2088    8    0    1
 -2      1018      1075      1076      4118      4122      4120
 -1      2089    8    0    1
 -2      1020      1019      1077      3948      4123      4124
 -1      2090    8    0    1
 -2      1019      1076      1077      4121      4125      4123
 -1      2091    8    0    1
 -2      1021      1020      1078      3951      4126      4127
 -1      2092    8    0    1
 -2      1020      1077      1078      4124      4128      4126
 -1      2093    8    0    1
 -2      1022      1021      1079      3954      4129      4130
 -1      2094    8    0    1
 -2      1021      1078      1079      4127      4131      4129
 -1      2095    8    0    1
 -2      1023      1022      1080      3957      4132      4133
 -1      2096    8    0    1
 -2      1022      1079      1080      4130      4134      4132
 -1      2097    8    0    1
 -2      1024      1023      1081      3960      4135      4136
 -1      2098    8    0    1
 -2      1023      1080      1081      4133      4137      4135
 -1      2099    8    0    1
 -2      1025      1024      1082      3963      4138      4139
 -1      2100    8    0    1
 -2      1024      1081      1082      4136      4140      4138
 -1      2101    8    0    1
 -2      1026      1025      1083      3966      4141      4142
 -1      2102    8    0    1
 -2      1025      1082      1083      4139      4143      4141
 -1      2103    8    0    1
 -2      1027      1026      1084      3969      4144      4145
 -1      2104    8    0    1
 -2      1026      1083      1084      4142      4146      4144
 -1      2105    8    0    1
 -2      1028      1027      1085      3972      4147      4148
 -1      2106    8    0    1
 -2      1027      1084      1085      4145      4149      4147
 -1      2107    8    0    1
 -2      1029      1028      1086      3975      4150      4151
 -1      2108    8    0    1
 -2      1028      1085      1086      4148      4152      4150
 -1      2109    8    0    1
 -2      1030      1029      1087      3978      4153      4154
 -1      2110    8    0    1
 -2      1029      1086      1087      4151      4155      4153
 -1      2111    8    0    1
 -2      1031      1030      1088      3981      4156      4157
 -1      2112    8    0    1
 -2      1030      1087      1088      4154      4158      4156
 -1      2113    8    0    1
 -2      1032      1031      1089      3984      4159      4160
 -1      2114    8    0    1
 -2      1031      1088      1089      4157      4161      4159
 -1      2115    8    0    1
 -2      1033      1032      1090      3987      4162      4163
 -1      2116    8    0    1
 -2      1032      1089      1090      4160      4164      4162
 -1      2117    8    0    1
 -2      1034      1033      1091      3990      4165      4166
 -1      2118    8    0    1
 -2      1033      1090      1091      4163      4167      4165
 -1      2119    8    0    1
 -2      1035      1034      1092      3993      4168      4169
 -1      2120    8    0    1
 -2      1034      1091      1092      4166      4170      4168
 -1      2121    8    0    1
 -2      1036      1035      1093      3996      4171      4172
 -1      2122    8    0    1
 -2      1035      1092      1093      4169      4173      4171
 -1      2123    8    0    1
 -2      1037      1036      1094      3999      4174      4175
 -1      2124    8    0    1
 -2      1036      1093      1094      4172      4176      4174
 -1      2125    8    0    1
 -2      1038      1037      1095      4002      4177      4178
 -1      2126    8    0    1
 -2      1037      1094      1095      4175      4179      4177
 -1      2127    8    0    1
 -2      1043      1044      1096      4019      4180      4181
 -1      2128    8    0    1
 -2      1044      1045      1097      4022      4182      4183
 -1      2129    8    0    1
 -2      1044      1097      1096      4183      4184      4180
 -1      2130    8    0    1
 -2      1045      1046      1098      4025      4185      4186
 -1      2131    8    0    1
 -2      1045      1098      1097      4186      4187      4182
 -1      2132    8    0    1
 -2      1046      1047      1099      4028      4188      4189
 -1      2133    8    0    1
 -2      1046      1099      1098      4189      4190      4185
 -1      2134    8    0    1
 -2      1047      1048      1100      4031      4191      4192
 -1      2135    8    0    1
 -2      1047      1100      1099      4192      4193      4188
 -1      2136    8    0    1
 -2      1048      1049      1101      4034      4194      4195
 -1      2137    8    0    1
 -2      1048      1101      1100      4195      4196      4191
 -1      2138    8    0    1
 -2      1049      1050      1102      4037      4197      4198
 -1      2139    8    0    1
 -2      1049      1102      1101      4198      4199      4194
 -1      2140    8    0    1
 -2      1050      1051      1103      4040      4200      4201
 -1      2141    8    0    1
 -2      1050      1103      1102      4201      4202      4197
 -1      2142    8    0    1
 -2      1051      1052      1104      4043      4203      4204
 -1      2143    8    0    1
 -2      1051      1104      1103      4204      4205      4200
 -1      2144    8    0    1
 -2      1052      1053      1105      4046      4206      4207
 -1      2145    8    0    1
 -2      1052      1105      1104      4207      4208      4203
 -1      2146    8    0    1
 -2      1053      1054      1106      4049      4209      4210
 -1      2147    8    0    1
 -2      1053      1106      1105      4210      4211      4206
 -1      2148    8    0    1
 -2      1054      1055      1107      4052      4212      4213
 -1      2149    8    0    1
 -2      1054      1107      1106      4213      4214      4209
 -1      2150    8    0    1
 -2      1055      1056      1108      4055      4215      4216
 -1      2151    8    0    1
 -2      1055      1108      1107      4216      4217      4212
 -1      2152    8    0    1
 -2      1056      1057      1109      4058      4218      4219
 -1      2153    8    0    1
 -2      1056      1109      1108      4219      4220      4215
 -1      2154    8    0    1
 -2      1057      1058      1110      4061      4221      4222
 -1      2155    8    0    1
 -2      1057      1110      1109      4222      4223      4218
 -1      2156    8    0    1
 -2      1058      1059      1111      4064      4224      4225
 -1      2157    8    0    1
 -2      1058      1111      1110      4225      4226      4221
 -1      2158    8    0    1
 -2      1059      1060      1112      4067      4227      4228
 -1      2159    8    0    1
 -2      1059      1112      1111      4228      4229      4224
 -1      2160    8    0    1
 -2      1060      1061      1113      4070      4230      4231
 -1      2161    8    0    1
 -2      1060      1113      1112      4231      4232      4227
 -1      2162    8    0    1
 -2      1061      1062      1114      4073      4233      4234
 -1      2163    8    0    1
 -2      1061      1114      1113      4234      4235      4230
 -1      2164    8    0    1
 -2      1007      1008      1072      3905      4236      4237
 -1      2165    8    0    1
 -2      1066      1013      1115      4086      4238      4239
 -1      2166    8    0    1
 -2      1013      1071      1115      4108      4240      4238
 -1      2167    8    0    1
 -2      1065      1007      1072      4082      4237      4109
 -1      2168    8    0    1
 -2      1042      1041      1116      4013      4241      4242
 -1      2169    8    0    1
 -2      1010      1067      1117      4089      4243      4244
 -1      2170    8    0    1
 -2      1063      1010      1117      4077      4244      4245
 -1      2171    8    0    1
 -2      1067      1069      1117      4100      4246      4243
 -1      2172    8    0    1
 -2      1015      1014      1118      3933      4247      4248
 -1      2173    8    0    1
 -2      1073      1015      1118      4112      4248      4249
 -1      2174    8    0    1
 -2      1014      1072      1118      4110      4250      4247
 -1      2175    8    0    1
 -2      1041      1066      1119      4097      4251      4252
 -1      2176    8    0    1
 -2      1041      1119      1116      4252      4253      4241
 -1      2177    8    0    1
 -2      1068      1012      1039      4092      4111      4254
 -1      2178    8    0    1
 -2      1040      1043      1120      4016      4255      4256
 -1      2179    8    0    1
 -2      1071      1040      1120      4107      4256      4257
 -1      2180    8    0    1
 -2      1043      1096      1120      4181      4258      4255
 -1      2181    8    0    1
 -2      1068      1039      1038      4254      4005      4259
 -1      2182    8    0    1
 -2      1072      1008      1070      4236      4105      4260
 -1      2183    8    0    1
 -2      1068      1038      1095      4259      4178      4261
 -1      2184    8    0    1
 -2      1119      1066      1115      4251      4239      4262
 -1      2185    8    0    1
 -2      1062      1063      1121      4076      4263      4264
 -1      2186    8    0    1
 -2      1114      1062      1121      4233      4264      4265
 -1      2187    8    0    1
 -2      1063      1117      1121      4245      4266      4263
 -1      2188    8    0    1
 -2      1064      1042      1070      4081      4267      4268
 -1      2189    8    0    1
 -2      1118      1072      1116      4250      4269      4270
 -1      2190    8    0    1
 -2      1069      1068      1095      4101      4261      4271
 -1      2191    8    0    1
 -2      1042      1116      1070      4242      4272      4267
 -1      2192    8    0    1
 -2      1011      1064      1070      4103      4268      4106
 -1      2193    8    0    1
 -2      1116      1072      1070      4269      4260      4272
 -1      2194    8    0    1
 -2      1073      1118      1119      4249      4273      4274
 -1      2195    8    0    1
 -2      1116      1119      1118      4253      4273      4270
 -1      2196    8    0    1
 -2      1075      1074      1071      4119      4275      4276
 -1      2197    8    0    1
 -2      1076      1075      1120      4122      4277      4278
 -1      2198    8    0    1
 -2      1077      1076      1096      4125      4279      4280
 -1      2199    8    0    1
 -2      1078      1077      1097      4128      4281      4282
 -1      2200    8    0    1
 -2      1079      1078      1098      4131      4283      4284
 -1      2201    8    0    1
 -2      1080      1079      1099      4134      4285      4286
 -1      2202    8    0    1
 -2      1081      1080      1100      4137      4287      4288
 -1      2203    8    0    1
 -2      1082      1081      1101      4140      4289      4290
 -1      2204    8    0    1
 -2      1083      1082      1102      4143      4291      4292
 -1      2205    8    0    1
 -2      1084      1083      1103      4146      4293      4294
 -1      2206    8    0    1
 -2      1085      1084      1104      4149      4295      4296
 -1      2207    8    0    1
 -2      1086      1085      1105      4152      4297      4298
 -1      2208    8    0    1
 -2      1087      1086      1106      4155      4299      4300
 -1      2209    8    0    1
 -2      1088      1087      1107      4158      4301      4302
 -1      2210    8    0    1
 -2      1089      1088      1108      4161      4303      4304
 -1      2211    8    0    1
 -2      1090      1089      1109      4164      4305      4306
 -1      2212    8    0    1
 -2      1091      1090      1110      4167      4307      4308
 -1      2213    8    0    1
 -2      1092      1091      1111      4170      4309      4310
 -1      2214    8    0    1
 -2      1093      1092      1112      4173      4311      4312
 -1      2215    8    0    1
 -2      1094      1093      1113      4176      4313      4314
 -1      2216    8    0    1
 -2      1095      1094      1114      4179      4315      4316
 -1      2217    8    0    1
 -2      1097      1098      1078      4187      4283      4282
 -1      2218    8    0    1
 -2      1071      1074      1115      4275      4317      4240
 -1      2219    8    0    1
 -2      1096      1097      1077      4184      4281      4280
 -1      2220    8    0    1
 -2      1099      1100      1080      4193      4287      4286
 -1      2221    8    0    1
 -2      1100      1101      1081      4196      4289      4288
 -1      2222    8    0    1
 -2      1101      1102      1082      4199      4291      4290
 -1      2223    8    0    1
 -2      1102      1103      1083      4202      4293      4292
 -1      2224    8    0    1
 -2      1103      1104      1084      4205      4295      4294
 -1      2225    8    0    1
 -2      1104      1105      1085      4208      4297      4296
 -1      2226    8    0    1
 -2      1105      1106      1086      4211      4299      4298
 -1      2227    8    0    1
 -2      1106      1107      1087      4214      4301      4300
 -1      2228    8    0    1
 -2      1107      1108      1088      4217      4303      4302
 -1      2229    8    0    1
 -2      1108      1109      1089      4220      4305      4304
 -1      2230    8    0    1
 -2      1109      1110      1090      4223      4307      4306
 -1      2231    8    0    1
 -2      1110      1111      1091      4226      4309      4308
 -1      2232    8    0    1
 -2      1111      1112      1092      4229      4311      4310
 -1      2233    8    0    1
 -2      1112      1113      1093      4232      4313      4312
 -1      2234    8    0    1
 -2      1113      1114      1094      4235      4315      4314
 -1      2235    8    0    1
 -2      1075      1071      1120      4276      4257      4277
 -1      2236    8    0    1
 -2      1099      1079      1098      4285      4284      4190
 -1      2237    8    0    1
 -2      1074      1073      1115      4116      4318      4317
 -1      2238    8    0    1
 -2      1119      1115      1073      4262      4318      4274
 -1      2239    8    0    1
 -2      1096      1076      1120      4279      4278      4258
 -1      2240    8    0    1
 -2      1095      1114      1069      4316      4319      4271
 -1      2241    8    0    1
 -2      1117      1069      1121      4246      4320      4266
 -1      2242    8    0    1
 -2      1069      1114      1121      4319      4265      4320
 -3
    1PSTEP                         1           1           1          
  100CL  101 1.000000000        4320                     0    1           1
 -4  DISP        4    1
 -5  D1          1    2    1    0
 -5  D2          1    2    2    0
 -5  D3          1    2    3    0
 -5  ALL         1    2    0    0    1ALL
 -1         1 3.29890E-03-5.11185E-04-4.59283E-15
 -1         2 5.59041E-03 3.62211E-04-6.55134E-15
 -1         3 1.56800E-02 2.92142E-03-9.23765E-14
 -1         4 1.47555E-02 1.49236E-03-1.03238E-13
 -1         5 0.00000E+00 0.00000E+00 0.00000E+00
 -1         6 0.00000E+00 0.00000E+00 0.00000E+00
 -1         7 0.00000E+00 0.00000E+00 0.00000E+00
 -1         8 0.00000E+00 0.00000E+00 0.00000E+00
 -1         9 0.00000E+00 0.00000E+00 0.00000E+00
 -1        10 0.00000E+00 0.00000E+00 0.00000E+00
 -1        11 0.00000E+00 0.00000E+00 0.00000E+00
 -1        12 0.00000E+00 0.00000E+00 0.00000E+00
 -1        13 0.00000E+00 0.00000E+00 0.00000E+00
 -1        14 0.00000E+00 0.00000E+00 0.00000E+00
 -1        15 0.00000E+00 0.00000E+00 0.00000E+00
 -1        16 0.00000E+00 0.00000E+00 0.00000E+00
 -1        17 0.00000E+00 0.00000E+00 0.00000E+00
 -1        18 0.00000E+00 0.00000E+00 0.00000E+00
 -1        19 0.00000E+00 0.00000E+00 0.00000E+00
 -1        20 0.00000E+00 0.00000E+00 0.00000E+00
 -1        21 0.00000E+00 0.00000E+00 0.00000E+00
 -1        22 0.00000E+00 0.00000E+00 0.00000E+00
 -1        23 4.54779E-04-2.67117E-04-5.10930E-18
 -1        24 7.94078E-04-4.09921E-04-1.36122E-16
 -1        25 1.11711E-03-5.21198E-04-3.86684E-16
 -1        26 1.43523E-03-6.18683E-04-7.51413E-16
 -1        27 1.74765E-03-7.11292E-04-1.22726E-15
 -1        28 2.05060E-03-8.00658E-04-1.81036E-15
 -1        29 2.33965E-03-8.82815E-04-2.50501E-15
 -1        30 2.61202E-03-9.49220E-04-3.30811E-15
 -1        31 2.86882E-03-9.89063E-04-4.22001E-15
 -1        32 3.11591E-03-9.93025E-04-5.24155E-15
 -1        33 3.36272E-03-9.57185E-04-6.36837E-15
 -1        34 3.61912E-03-8.85035E-04-7.59097E-15
 -1        35 3.89202E-03-7.86379E-04-8.90983E-15
 -1        36 4.18349E-03-6.73857E-04-1.03182E-14
 -1        37 4.49114E-03-5.59163E-04-1.18111E-14
 -1        38 4.80994E-03-4.50634E-04-1.33847E-14
 -1        39 5.13428E-03-3.52679E-04-1.50384E-14
 -1        40 5.45935E-03-2.66468E-04-1.67640E-14
 -1        41 5.78180E-03-1.91083E-04-1.85558E-14
 -1        42 6.09969E-03-1.24585E-04-2.04144E-14
 -1        43 6.41226E-03-6.47638E-05-2.23429E-14
 -1        44 6.71949E-03-9.56874E-06-2.43385E-14
 -1        45 7.02186E-03 4.26993E-05-2.64074E-14
 -1        46 7.32004E-03 9.33405E-05-2.85456E-14
 -1        47 7.61480E-03 1.43288E-04-3.07481E-14
 -1        48 7.90683E-03 1.93168E-04-3.30086E-14
 -1        49 8.19677E-03 2.43371E-04-3.53290E-14
 -1        50 8.48515E-03 2.94115E-04-3.77122E-14
 -1        51 8.77241E-03 3.45494E-04-4.01517E-14
 -1        52 9.05889E-03 3.97526E-04-4.26493E-14
 -1        53 9.34483E-03 4.50175E-04-4.52011E-14
 -1        54 9.63045E-03 5.03381E-04-4.78128E-14
 -1        55 9.91586E-03 5.57070E-04-5.04820E-14
 -1        56 1.02012E-02 6.11166E-04-5.32171E-14
 -1        57 1.04865E-02 6.65597E-04-5.60175E-14
 -1        58 1.07718E-02 7.20297E-04-5.88661E-14
 -1        59 1.10571E-02 7.75208E-04-6.17668E-14
 -1        60 1.13424E-02 8.30284E-04-6.47174E-14
 -1        61 1.16279E-02 8.85483E-04-6.77179E-14
 -1        62 1.19133E-02 9.40774E-04-7.07748E-14
 -1        63 1.21988E-02 9.96131E-04-7.38873E-14
 -1        64 1.24844E-02 1.05153E-03-7.70448E-14
 -1        65 1.27700E-02 1.10697E-03-8.02517E-14
 -1        66 1.30556E-02 1.16242E-03-8.34956E-14
 -1        67 1.33413E-02 1.21788E-03-8.67631E-14
 -1        68 1.36270E-02 1.27334E-03-9.00529E-14
 -1        69 1.39127E-02 1.32880E-03-9.33666E-14
 -1        70 1.41984E-02 1.38426E-03-9.66896E-14
 -1        71 1.44841E-02 1.43970E-03-1.00037E-13
 -1        72 4.72369E-04 2.56044E-04 7.52369E-17
 -1        73 8.39857E-04 3.90585E-04 9.32007E-17
 -1        74 1.20654E-03 5.01970E-04 4.85994E-17
 -1        75 1.58092E-03 6.17030E-04-6.48827E-17
 -1        76 1.96217E-03 7.50588E-04-2.51853E-16
 -1        77 2.34212E-03 9.10738E-04-5.19021E-16
 -1        78 2.70591E-03 1.09488E-03-8.72081E-16
 -1        79 3.03668E-03 1.28419E-03-1.31847E-15
 -1        80 3.32561E-03 1.44359E-03-1.86648E-15
 -1        81 3.58255E-03 1.53451E-03-2.53044E-15
 -1        82 3.83574E-03 1.53719E-03-3.30715E-15
 -1        83 4.11627E-03 1.46452E-03-4.19431E-15
 -1        84 4.43970E-03 1.35366E-03-5.19047E-15
 -1        85 4.80109E-03 1.24406E-03-6.28601E-15
 -1        86 5.18377E-03 1.16141E-03-7.47711E-15
 -1        87 5.57047E-03 1.11481E-03-8.76456E-15
 -1        88 5.94927E-03 1.10217E-03-1.01379E-14
 -1        89 6.31435E-03 1.11657E-03-1.15907E-14
 -1        90 6.66424E-03 1.15041E-03-1.31228E-14
 -1        91 6.99996E-03 1.19719E-03-1.47328E-14
 -1        92 7.32356E-03 1.25205E-03-1.64210E-14
 -1        93 7.63732E-03 1.31155E-03-1.81767E-14
 -1        94 7.94336E-03 1.37343E-03-2.00011E-14
 -1        95 8.24349E-03 1.43623E-03-2.18881E-14
 -1        96 8.53919E-03 1.49906E-03-2.38385E-14
 -1        97 8.83161E-03 1.56140E-03-2.58579E-14
 -1        98 9.12166E-03 1.62301E-03-2.79495E-14
 -1        99 9.41002E-03 1.68377E-03-3.01198E-14
 -1       100 9.69721E-03 1.74370E-03-3.23538E-14
 -1       101 9.98361E-03 1.80283E-03-3.46519E-14
 -1       102 1.02695E-02 1.86125E-03-3.70149E-14
 -1       103 1.05550E-02 1.91906E-03-3.94415E-14
 -1       104 1.08404E-02 1.97635E-03-4.19184E-14
 -1       105 1.11257E-02 2.03321E-03-4.44643E-14
 -1       106 1.14110E-02 2.08972E-03-4.70736E-14
 -1       107 1.16962E-02 2.14596E-03-4.97434E-14
 -1       108 1.19815E-02 2.20199E-03-5.24865E-14
 -1       109 1.22669E-02 2.25785E-03-5.53107E-14
 -1       110 1.25523E-02 2.31358E-03-5.81946E-14
 -1       111 1.28378E-02 2.36922E-03-6.11218E-14
 -1       112 1.31233E-02 2.42480E-03-6.40950E-14
 -1       113 1.34089E-02 2.48033E-03-6.71030E-14
 -1       114 1.36944E-02 2.53583E-03-7.01533E-14
 -1       115 1.39801E-02 2.59131E-03-7.32438E-14
 -1       116 1.42657E-02 2.64678E-03-7.63502E-14
 -1       117 1.45514E-02 2.70225E-03-7.94941E-14
 -1       118 1.48371E-02 2.75773E-03-8.26896E-14
 -1       119 1.51228E-02 2.81321E-03-8.59430E-14
 -1       120 1.54085E-02 2.86870E-03-8.92468E-14
 -1       121 1.56254E-02 2.83714E-03-9.30667E-14
 -1       122 1.55708E-02 2.75285E-03-9.37519E-14
 -1       123 1.55162E-02 2.66856E-03-9.44028E-14
 -1       124 1.54616E-02 2.58426E-03-9.50193E-14
 -1       125 1.54070E-02 2.49994E-03-9.56575E-14
 -1       126 1.53534E-02 2.41704E-03-9.63053E-14
 -1       127 1.52988E-02 2.33270E-03-9.69625E-14
 -1       128 1.52442E-02 2.24835E-03-9.76237E-14
 -1       129 1.51897E-02 2.16400E-03-9.82960E-14
 -1       130 1.51352E-02 2.07966E-03-9.89596E-14
 -1       131 1.50806E-02 1.99532E-03-9.96416E-14
 -1       132 1.50271E-02 1.91242E-03-1.00284E-13
 -1       133 1.49726E-02 1.82810E-03-1.00911E-13
 -1       134 1.49181E-02 1.74380E-03-1.01517E-13
 -1       135 1.48636E-02 1.65951E-03-1.02100E-13
 -1       136 1.48091E-02 1.57522E-03-1.02679E-13
 -1       137 5.56604E-03 5.29846E-04-6.39401E-15
 -1       138 5.43756E-03 7.00162E-04-6.11652E-15
 -1       139 5.21210E-03 8.56485E-04-5.74580E-15
 -1       140 4.91918E-03 9.83260E-04-5.34121E-15
 -1       141 4.52220E-03 1.09345E-03-4.85926E-15
 -1       142 4.10572E-03 1.15820E-03-4.41047E-15
 -1       143 3.64340E-03 1.18294E-03-3.96039E-15
 -1       144 3.12666E-03 1.15728E-03-3.50338E-15
 -1       145 2.66878E-03 1.08857E-03-3.14242E-15
 -1       146 2.25641E-03 9.86445E-04-2.84838E-15
 -1       147 1.85261E-03 8.40138E-04-2.59054E-15
 -1       148 1.54955E-03 6.84411E-04-2.42150E-15
 -1       149 1.32097E-03 5.13595E-04-2.31902E-15
 -1       150 1.19156E-03 3.39413E-04-2.29301E-15
 -1       151 1.16341E-03 1.78065E-04-2.33837E-15
 -1       152 1.23203E-03 1.88681E-05-2.45915E-15
 -1       153 1.38674E-03-1.23156E-04-2.64310E-15
 -1       154 1.61834E-03-2.48127E-04-2.88988E-15
 -1       155 1.96631E-03-3.66777E-04-3.24450E-15
 -1       156 2.37314E-03-4.52681E-04-3.65499E-15
 -1       157 2.81926E-03-5.01319E-04-4.10464E-15
 -1       158 3.73238E-03-4.84814E-04-5.03363E-15
 -1       159 4.16872E-03-4.22577E-04-5.47425E-15
 -1       160 4.54152E-03-3.38057E-04-5.83944E-15
 -1       161 4.88419E-03-2.25851E-04-6.15771E-15
 -1       162 5.17499E-03-9.14749E-05-6.39944E-15
 -1       163 5.38712E-03 5.13934E-05-6.54098E-15
 -1       164 5.52944E-03 2.05700E-04-6.59485E-15
 -1       165 2.68291E-04-1.15509E-04-3.87941E-17
 -1       166 2.46234E-04-7.64669E-05-4.80979E-17
 -1       167 2.32526E-04-4.75766E-05-5.13200E-17
 -1       168 2.20311E-04-2.40255E-05-5.17537E-17
 -1       169 2.08086E-04-5.36684E-06-5.05780E-17
 -1       170 1.95450E-04 8.38853E-06-4.87383E-17
 -1       171 1.83896E-04 1.61199E-05-4.64919E-17
 -1       172 1.75583E-04 1.80079E-05-4.41507E-17
 -1       173 1.72784E-04 1.58052E-05-4.12132E-17
 -1       174 1.76934E-04 1.27232E-05-3.75845E-17
 -1       175 1.87757E-04 1.25201E-05-3.28513E-17
 -1       176 2.04350E-04 1.84553E-05-2.61259E-17
 -1       177 2.24898E-04 3.29730E-05-1.67137E-17
 -1       178 2.48685E-04 5.83322E-05-3.11030E-18
 -1       179 2.78607E-04 9.95371E-05 1.68729E-17
 -1       180 3.50988E-04 1.67138E-04 3.97157E-17
 -1       181 5.28246E-04-2.58254E-04-1.02566E-16
 -1       182 8.69651E-04-3.83427E-04-3.04373E-16
 -1       183 1.19791E-03-4.87294E-04-6.14709E-16
 -1       184 1.51862E-03-5.83267E-04-1.03269E-15
 -1       185 1.83222E-03-6.76617E-04-1.55635E-15
 -1       186 2.13736E-03-7.66321E-04-2.18621E-15
 -1       187 2.43237E-03-8.45660E-04-2.92387E-15
 -1       188 2.71696E-03-9.03741E-04-3.76910E-15
 -1       189 2.99335E-03-9.28846E-04-4.72086E-15
 -1       190 3.26638E-03-9.13056E-04-5.77893E-15
 -1       191 3.54218E-03-8.55985E-04-6.93776E-15
 -1       192 3.82599E-03-7.65358E-04-8.19229E-15
 -1       193 4.12043E-03-6.54075E-04-9.54126E-15
 -1       194 4.42516E-03-5.35735E-04-1.09768E-14
 -1       195 4.73766E-03-4.21075E-04-1.24971E-14
 -1       196 5.05455E-03-3.16508E-04-1.40970E-14
 -1       197 5.37257E-03-2.24464E-04-1.57700E-14
 -1       198 5.68921E-03-1.44593E-04-1.75120E-14
 -1       199 6.00284E-03-7.50369E-05-1.93235E-14
 -1       200 6.31262E-03-1.34086E-05-2.12016E-14
 -1       201 6.61830E-03 4.26224E-05-2.31509E-14
 -1       202 6.92006E-03 9.50387E-05-2.51680E-14
 -1       203 7.21829E-03 1.45385E-04-2.72546E-14
 -1       204 7.51351E-03 1.94782E-04-2.94069E-14
 -1       205 7.80624E-03 2.43995E-04-3.16232E-14
 -1       206 8.09698E-03 2.93506E-04-3.38995E-14
 -1       207 8.38617E-03 3.43590E-04-3.62366E-14
 -1       208 8.67419E-03 3.94373E-04-3.86340E-14
 -1       209 8.96134E-03 4.45887E-04-4.10913E-14
 -1       210 9.24788E-03 4.98102E-04-4.36059E-14
 -1       211 9.53399E-03 5.50952E-04-4.61775E-14
 -1       212 9.81981E-03 6.04356E-04-4.88098E-14
 -1       213 1.01054E-02 6.58229E-04-5.15030E-14
 -1       214 1.03910E-02 7.12488E-04-5.42596E-14
 -1       215 1.06765E-02 7.67058E-04-5.70729E-14
 -1       216 1.09619E-02 8.21875E-04-5.99388E-14
 -1       217 1.12474E-02 8.76882E-04-6.28534E-14
 -1       218 1.15329E-02 9.32033E-04-6.58175E-14
 -1       219 1.18184E-02 9.87292E-04-6.88353E-14
 -1       220 1.21040E-02 1.04263E-03-7.19098E-14
 -1       221 1.23896E-02 1.09802E-03-7.50351E-14
 -1       222 1.26752E-02 1.15345E-03-7.82075E-14
 -1       223 1.29608E-02 1.20890E-03-8.14171E-14
 -1       224 1.32465E-02 1.26436E-03-8.46611E-14
 -1       225 1.35321E-02 1.31983E-03-8.79271E-14
 -1       226 1.38178E-02 1.37530E-03-9.12201E-14
 -1       227 1.41035E-02 1.43076E-03-9.45355E-14
 -1       228 1.43892E-02 1.48621E-03-9.78680E-14
 -1       229 7.24142E-04 3.00309E-04 3.59413E-17
 -1       230 1.08978E-03 4.11582E-04-2.68205E-17
 -1       231 1.45486E-03 5.24171E-04-1.56437E-16
 -1       232 1.82240E-03 6.54594E-04-3.58085E-16
 -1       233 2.18992E-03 8.13064E-04-6.38524E-16
 -1       234 2.55050E-03 9.99475E-04-1.00417E-15
 -1       235 2.89505E-03 1.19671E-03-1.46268E-15
 -1       236 3.21767E-03 1.36850E-03-2.02312E-15
 -1       237 3.52205E-03 1.47131E-03-2.69326E-15
 -1       238 3.82276E-03 1.47980E-03-3.47633E-15
 -1       239 4.13696E-03 1.40534E-03-4.37159E-15
 -1       240 4.47346E-03 1.28813E-03-5.37323E-15
 -1       241 4.82952E-03 1.17174E-03-6.47636E-15
 -1       242 5.19577E-03 1.08427E-03-7.67424E-15
 -1       243 5.56245E-03 1.03530E-03-8.96332E-15
 -1       244 5.92260E-03 1.02226E-03-1.03382E-14
 -1       245 6.27259E-03 1.03749E-03-1.17945E-14
 -1       246 6.61139E-03 1.07275E-03-1.33286E-14
 -1       247 6.93949E-03 1.12115E-03-1.49379E-14
 -1       248 7.25818E-03 1.17758E-03-1.66264E-14
 -1       249 7.56898E-03 1.23850E-03-1.83849E-14
 -1       250 7.87342E-03 1.30158E-03-2.02132E-14
 -1       251 8.17284E-03 1.36538E-03-2.21021E-14
 -1       252 8.46839E-03 1.42901E-03-2.40577E-14
 -1       253 8.76100E-03 1.49199E-03-2.60835E-14
 -1       254 9.05142E-03 1.55409E-03-2.81808E-14
 -1       255 9.34023E-03 1.61524E-03-3.03522E-14
 -1       256 9.62788E-03 1.67545E-03-3.25880E-14
 -1       257 9.91472E-03 1.73479E-03-3.48876E-14
 -1       258 1.02010E-02 1.79337E-03-3.72521E-14
 -1       259 1.04869E-02 1.85129E-03-3.96789E-14
 -1       260 1.07726E-02 1.90865E-03-4.21597E-14
 -1       261 1.10581E-02 1.96557E-03-4.47087E-14
 -1       262 1.13436E-02 2.02212E-03-4.73257E-14
 -1       263 1.16290E-02 2.07838E-03-5.00009E-14
 -1       264 1.19145E-02 2.13441E-03-5.27409E-14
 -1       265 1.21999E-02 2.19028E-03-5.55496E-14
 -1       266 1.24854E-02 2.24601E-03-5.84226E-14
 -1       267 1.27709E-02 2.30165E-03-6.13464E-14
 -1       268 1.30565E-02 2.35722E-03-6.43166E-14
 -1       269 1.33421E-02 2.41275E-03-6.73252E-14
 -1       270 1.36277E-02 2.46825E-03-7.03769E-14
 -1       271 1.39133E-02 2.52372E-03-7.34656E-14
 -1       272 1.41990E-02 2.57919E-03-7.65775E-14
 -1       273 1.44847E-02 2.63466E-03-7.97258E-14
 -1       274 1.47704E-02 2.69013E-03-8.29248E-14
 -1       275 1.50561E-02 2.74560E-03-8.61683E-14
 -1       276 1.53418E-02 2.80109E-03-8.94546E-14
 -1       277 1.53507E-02 2.74693E-03-9.05549E-14
 -1       278 1.52961E-02 2.66264E-03-9.12264E-14
 -1       279 1.52415E-02 2.57834E-03-9.18826E-14
 -1       280 1.51869E-02 2.49403E-03-9.25313E-14
 -1       281 1.51332E-02 2.41114E-03-9.31702E-14
 -1       282 1.50786E-02 2.32681E-03-9.38239E-14
 -1       283 1.50241E-02 2.24248E-03-9.44812E-14
 -1       284 1.49695E-02 2.15814E-03-9.51395E-14
 -1       285 1.49150E-02 2.07381E-03-9.57997E-14
 -1       286 1.48605E-02 1.98947E-03-9.64518E-14
 -1       287 1.48069E-02 1.90658E-03-9.70841E-14
 -1       288 1.47524E-02 1.82226E-03-9.77080E-14
 -1       289 1.46979E-02 1.73795E-03-9.83133E-14
 -1       290 1.46434E-02 1.65365E-03-9.89037E-14
 -1       291 1.45163E-02 1.56993E-03-9.83889E-14
 -1       292 5.61453E-03 4.21712E-04-7.02741E-15
 -1       293 5.50221E-03 5.12872E-04-6.80842E-15
 -1       294 5.26163E-03 6.49452E-04-6.32948E-15
 -1       295 4.94631E-03 8.09705E-04-5.81904E-15
 -1       296 4.55002E-03 9.73164E-04-5.31837E-15
 -1       297 4.18280E-03 1.13827E-03-4.70559E-15
 -1       298 3.80763E-03 1.23672E-03-4.17219E-15
 -1       299 3.41690E-03 1.26554E-03-3.62379E-15
 -1       300 3.01651E-03 1.17352E-03-3.17778E-15
 -1       301 2.62700E-03 1.02228E-03-2.82977E-15
 -1       302 2.23449E-03 8.18420E-04-2.50939E-15
 -1       303 1.82354E-03 6.25355E-04-2.31238E-15
 -1       304 1.49933E-03 4.38093E-04-2.13219E-15
 -1       305 1.24967E-03 3.27143E-04-2.10845E-15
 -1       306 1.14200E-03 2.31861E-04-2.11969E-15
 -1       307 1.16993E-03 1.51564E-04-2.17962E-15
 -1       308 1.32778E-03 5.25237E-05-2.36682E-15
 -1       309 1.57886E-03-6.33605E-05-2.59619E-15
 -1       310 1.92802E-03-2.03531E-04-2.90087E-15
 -1       311 2.33598E-03-3.68774E-04-3.31690E-15
 -1       312 2.71641E-03-5.10587E-04-3.82733E-15
 -1       313 3.09854E-03-5.86193E-04-4.38196E-15
 -1       314 3.46589E-03-5.70967E-04-4.92851E-15
 -1       315 3.81816E-03-4.90985E-04-5.49031E-15
 -1       316 4.19482E-03-3.52718E-04-5.95766E-15
 -1       317 4.55477E-03-1.92369E-04-6.38421E-15
 -1       318 4.89878E-03-1.31103E-05-6.80384E-15
 -1       319 5.21896E-03 1.21970E-04-6.98970E-15
 -1       320 5.45250E-03 2.45542E-04-7.15604E-15
 -1       321 5.59062E-03 3.35588E-04-7.12227E-15
 -1       322 4.93542E-04-1.32686E-04-1.73926E-16
 -1       323 5.27282E-04-1.93514E-04-1.62519E-16
 -1       324 4.39836E-04-4.03402E-05-1.75034E-16
 -1       325 4.11684E-04-6.41335E-06-1.70230E-16
 -1       326 3.83432E-04 1.74968E-05-1.63982E-16
 -1       327 3.59306E-04 3.05391E-05-1.56467E-16
 -1       328 3.45067E-04 3.42592E-05-1.48068E-16
 -1       329 3.45719E-04 3.32796E-05-1.37812E-16
 -1       330 3.62645E-04 3.42523E-05-1.25479E-16
 -1       331 3.94510E-04 4.37628E-05-1.09548E-16
 -1       332 4.36978E-04 6.66943E-05-8.84709E-17
 -1       333 4.86675E-04 1.06142E-04-6.03121E-17
 -1       334 5.44316E-04 1.65657E-04-2.28902E-17
 -1       335 6.27059E-04 2.27504E-04 1.73472E-18
 -1       336 9.81458E-04 3.35873E-04-7.36139E-17
 -1       337 9.69410E-04-3.53855E-04-4.81135E-16
 -1       338 1.29555E-03-4.51221E-04-8.45532E-16
 -1       339 1.61835E-03-5.45778E-04-1.31240E-15
 -1       340 1.93712E-03-6.39603E-04-1.88117E-15
 -1       341 2.25011E-03-7.28865E-04-2.55477E-15
 -1       342 2.55544E-03-8.03901E-04-3.33306E-15
 -1       343 2.85270E-03-8.51281E-04-4.21693E-15
 -1       344 3.14434E-03-8.58583E-04-5.20691E-15
 -1       345 3.43530E-03-8.20251E-04-6.30133E-15
 -1       346 3.73084E-03-7.40800E-04-7.49317E-15
 -1       347 4.03393E-03-6.33011E-04-8.78060E-15
 -1       348 4.34435E-03-5.12528E-04-1.01601E-14
 -1       349 4.65965E-03-3.92712E-04-1.16252E-14
 -1       350 4.97672E-03-2.82103E-04-1.31720E-14
 -1       351 5.29298E-03-1.84449E-04-1.47938E-14
 -1       352 5.60670E-03-1.00029E-04-1.64867E-14
 -1       353 5.91700E-03-2.71605E-05-1.82485E-14
 -1       354 6.22360E-03 3.66273E-05-2.00784E-14
 -1       355 6.52658E-03 9.38649E-05-2.19772E-14
 -1       356 6.82624E-03 1.46767E-04-2.39467E-14
 -1       357 7.12297E-03 1.97096E-04-2.59846E-14
 -1       358 7.41721E-03 2.46156E-04-2.80894E-14
 -1       359 7.70939E-03 2.94850E-04-3.02579E-14
 -1       360 7.99989E-03 3.43764E-04-3.24880E-14
 -1       361 8.28907E-03 3.93241E-04-3.47783E-14
 -1       362 8.57722E-03 4.43451E-04-3.71308E-14
 -1       363 8.86458E-03 4.94451E-04-3.95461E-14
 -1       364 9.15137E-03 5.46220E-04-4.20201E-14
 -1       365 9.43774E-03 5.98695E-04-4.45549E-14
 -1       366 9.72381E-03 6.51791E-04-4.71483E-14
 -1       367 1.00097E-02 7.05417E-04-4.98020E-14
 -1       368 1.02954E-02 7.59483E-04-5.25191E-14
 -1       369 1.05811E-02 8.13904E-04-5.52944E-14
 -1       370 1.08667E-02 8.68607E-04-5.81208E-14
 -1       371 1.11523E-02 9.23531E-04-6.10008E-14
 -1       372 1.14378E-02 9.78622E-04-6.39331E-14
 -1       373 1.17234E-02 1.03384E-03-6.69122E-14
 -1       374 1.20090E-02 1.08915E-03-6.99464E-14
 -1       375 1.22947E-02 1.14452E-03-7.30365E-14
 -1       376 1.25803E-02 1.19994E-03-7.61791E-14
 -1       377 1.28659E-02 1.25539E-03-7.93595E-14
 -1       378 1.31516E-02 1.31085E-03-8.25717E-14
 -1       379 1.34373E-02 1.36632E-03-8.58156E-14
 -1       380 1.37230E-02 1.42179E-03-8.90846E-14
 -1       381 1.40087E-02 1.47726E-03-9.23800E-14
 -1       382 1.42625E-02 1.52360E-03-9.53765E-14
 -1       383 1.33662E-03 4.44883E-04-2.13818E-16
 -1       384 1.69522E-03 5.70184E-04-4.25028E-16
 -1       385 2.05814E-03 7.23533E-04-7.13185E-16
 -1       386 2.42255E-03 9.08101E-04-1.08554E-15
 -1       387 2.78147E-03 1.11075E-03-1.54832E-15
 -1       388 3.12693E-03 1.29615E-03-2.11225E-15
 -1       389 3.45741E-03 1.41508E-03-2.78456E-15
 -1       390 3.78296E-03 1.43313E-03-3.56968E-15
 -1       391 4.11803E-03 1.35843E-03-4.46792E-15
 -1       392 4.46878E-03 1.23557E-03-5.47175E-15
 -1       393 4.83022E-03 1.11335E-03-6.57738E-15
 -1       394 5.19326E-03 1.02206E-03-7.77738E-15
 -1       395 5.55083E-03 9.71172E-04-9.06812E-15
 -1       396 5.89945E-03 9.57450E-04-1.04427E-14
 -1       397 6.23812E-03 9.72722E-04-1.18985E-14
 -1       398 6.56721E-03 1.00843E-03-1.34317E-14
 -1       399 6.88769E-03 1.05750E-03-1.50410E-14
 -1       400 7.20075E-03 1.11467E-03-1.67270E-14
 -1       401 7.50761E-03 1.17633E-03-1.84856E-14
 -1       402 7.80941E-03 1.24012E-03-2.03133E-14
 -1       403 8.10715E-03 1.30454E-03-2.22025E-14
 -1       404 8.40169E-03 1.36872E-03-2.41589E-14
 -1       405 8.69377E-03 1.43216E-03-2.61867E-14
 -1       406 8.98396E-03 1.49463E-03-2.82834E-14
 -1       407 9.27274E-03 1.55608E-03-3.04538E-14
 -1       408 9.56048E-03 1.61653E-03-3.26888E-14
 -1       409 9.84747E-03 1.67607E-03-3.49893E-14
 -1       410 1.01339E-02 1.73479E-03-3.73537E-14
 -1       411 1.04200E-02 1.79282E-03-3.97808E-14
 -1       412 1.07059E-02 1.85026E-03-4.22635E-14
 -1       413 1.09916E-02 1.90724E-03-4.48106E-14
 -1       414 1.12772E-02 1.96383E-03-4.74274E-14
 -1       415 1.15627E-02 2.02012E-03-5.01042E-14
 -1       416 1.18482E-02 2.07617E-03-5.28386E-14
 -1       417 1.21338E-02 2.13205E-03-5.56430E-14
 -1       418 1.24193E-02 2.18779E-03-5.85052E-14
 -1       419 1.27049E-02 2.24343E-03-6.14231E-14
 -1       420 1.29905E-02 2.29901E-03-6.43900E-14
 -1       421 1.32761E-02 2.35453E-03-6.73978E-14
 -1       422 1.35617E-02 2.41002E-03-7.04484E-14
 -1       423 1.38474E-02 2.46550E-03-7.35326E-14
 -1       424 1.41330E-02 2.52096E-03-7.66462E-14
 -1       425 1.44187E-02 2.57643E-03-7.97961E-14
 -1       426 1.47044E-02 2.63190E-03-8.29915E-14
 -1       427 1.49901E-02 2.68737E-03-8.62286E-14
 -1       428 1.51704E-02 2.71715E-03-8.83873E-14
 -1       429 1.49667E-02 2.48813E-03-8.93899E-14
 -1       430 1.50213E-02 2.57244E-03-8.87287E-14
 -1       431 1.50959E-02 2.64479E-03-8.85608E-14
 -1       432 1.49131E-02 2.40525E-03-9.00333E-14
 -1       433 1.48585E-02 2.32093E-03-9.06833E-14
 -1       434 1.48039E-02 2.23660E-03-9.13348E-14
 -1       435 1.47493E-02 2.15228E-03-9.19858E-14
 -1       436 1.46948E-02 2.06794E-03-9.26398E-14
 -1       437 1.46403E-02 1.98362E-03-9.32834E-14
 -1       438 1.45867E-02 1.90072E-03-9.39067E-14
 -1       439 1.45322E-02 1.81640E-03-9.45249E-14
 -1       440 1.44777E-02 1.73209E-03-9.51302E-14
 -1       441 1.44232E-02 1.64779E-03-9.57192E-14
 -1       442 5.37144E-03 5.37300E-04-7.03468E-15
 -1       443 5.63674E-03 3.93456E-04-7.76109E-15
 -1       444 5.60438E-03 4.37803E-04-7.52087E-15
 -1       445 5.06395E-03 6.77220E-04-6.42232E-15
 -1       446 4.73546E-03 8.36950E-04-5.88476E-15
 -1       447 4.66418E-04-8.25249E-05-1.76820E-16
 -1       448 3.95543E-03 1.21646E-03-4.46845E-15
 -1       449 3.63970E-03 1.29400E-03-3.89690E-15
 -1       450 3.22977E-03 1.24832E-03-3.23613E-15
 -1       451 2.88670E-03 1.10134E-03-2.80280E-15
 -1       452 2.54764E-03 9.12394E-04-2.49099E-15
 -1       453 2.07402E-03 6.39172E-04-2.16587E-15
 -1       454 1.73136E-03 4.61664E-04-1.99623E-15
 -1       455 1.34345E-03 2.88553E-04-1.83474E-15
 -1       456 1.17954E-03 2.32909E-04-1.84380E-15
 -1       457 1.11812E-03 1.88466E-04-1.87959E-15
 -1       458 1.24164E-03 1.33076E-04-2.07837E-15
 -1       459 1.46367E-03 5.27260E-05-2.27498E-15
 -1       460 1.76818E-03-6.42625E-05-2.50764E-15
 -1       461 2.15815E-03-2.45298E-04-2.91414E-15
 -1       462 2.58949E-03-4.54422E-04-3.51542E-15
 -1       463 2.93511E-03-5.82696E-04-4.08819E-15
 -1       464 3.29011E-03-6.20127E-04-4.77496E-15
 -1       465 3.56681E-03-5.70776E-04-5.32660E-15
 -1       466 3.95711E-03-4.10835E-04-6.05514E-15
 -1       467 4.26281E-03-2.57425E-04-6.49167E-15
 -1       468 4.63490E-03-5.52682E-05-7.04205E-15
 -1       469 5.04599E-03 1.48523E-04-7.54622E-15
 -1       470 5.30516E-03 2.53045E-04-7.72001E-15
 -1       471 5.56161E-03 3.49596E-04-7.79389E-15
 -1       472 4.27930E-03 1.07409E-03-5.06823E-15
 -1       473 4.50377E-03 9.55325E-04-5.61584E-15
 -1       474 5.53635E-03 4.73568E-04-7.74471E-15
 -1       475 2.37005E-03-3.49270E-04-3.09117E-15
 -1       476 3.45066E-03 1.30732E-03-3.48614E-15
 -1       477 1.05868E-03 3.02872E-04-2.17247E-16
 -1       478 6.07251E-04-8.45012E-08-3.53636E-16
 -1       479 6.54650E-04-4.64896E-05-3.64719E-16
 -1       480 5.25300E-04 4.89480E-05-3.23373E-16
 -1       481 5.11140E-04 5.48959E-05-3.04430E-16
 -1       482 5.25088E-04 5.83955E-05-2.82753E-16
 -1       483 5.67156E-04 6.97930E-05-2.55990E-16
 -1       484 6.30297E-04 9.70890E-05-2.22787E-16
 -1       485 7.06002E-04 1.44054E-04-1.80523E-16
 -1       486 1.39751E-03 4.09656E-04-4.17269E-16
 -1       487 1.08035E-03-3.21051E-04-6.68262E-16
 -1       488 2.34073E-03 7.51966E-04-2.08258E-15
 -1       489 1.40521E-03-4.11439E-04-1.08079E-15
 -1       490 1.73253E-03-5.04314E-04-1.59176E-15
 -1       491 2.05986E-03-5.99079E-04-2.20228E-15
 -1       492 2.38346E-03-6.89033E-04-2.91500E-15
 -1       493 2.69963E-03-7.60354E-04-3.73040E-15
 -1       494 3.00750E-03-7.95467E-04-4.65190E-15
 -1       495 3.31098E-03-7.80815E-04-5.67863E-15
 -1       496 3.61677E-03-7.15221E-04-6.80884E-15
 -1       497 3.92981E-03-6.11089E-04-8.03731E-15
 -1       498 4.25021E-03-4.87568E-04-9.35878E-15
 -1       499 4.57432E-03-3.62059E-04-1.07698E-14
 -1       500 4.89768E-03-2.45693E-04-1.22617E-14
 -1       501 5.21710E-03-1.43263E-04-1.38328E-14
 -1       502 5.53121E-03-5.52361E-05-1.54762E-14
 -1       503 5.83990E-03 2.01932E-05-1.71890E-14
 -1       504 6.14377E-03 8.56863E-05-1.89717E-14
 -1       505 6.44363E-03 1.43951E-04-2.08217E-14
 -1       506 6.74025E-03 1.97358E-04-2.27418E-14
 -1       507 7.03431E-03 2.47804E-04-2.47314E-14
 -1       508 7.32636E-03 2.96710E-04-2.67906E-14
 -1       509 7.61685E-03 3.45079E-04-2.89137E-14
 -1       510 7.90611E-03 3.93572E-04-3.10963E-14
 -1       511 8.19443E-03 4.42589E-04-3.33418E-14
 -1       512 8.48203E-03 4.92343E-04-3.56475E-14
 -1       513 8.76907E-03 5.42914E-04-3.80165E-14
 -1       514 9.05569E-03 5.94299E-04-4.04473E-14
 -1       515 9.34201E-03 6.46440E-04-4.29425E-14
 -1       516 9.62811E-03 6.99255E-04-4.54978E-14
 -1       517 9.91405E-03 7.52649E-04-4.81150E-14
 -1       518 1.01999E-02 8.06526E-04-5.07902E-14
 -1       519 1.04856E-02 8.60799E-04-5.35244E-14
 -1       520 1.07713E-02 9.15387E-04-5.63152E-14
 -1       521 1.10570E-02 9.70222E-04-5.91601E-14
 -1       522 1.13427E-02 1.02525E-03-6.20591E-14
 -1       523 1.16283E-02 1.08042E-03-6.50039E-14
 -1       524 1.19140E-02 1.13569E-03-6.79975E-14
 -1       525 1.21997E-02 1.19104E-03-7.10489E-14
 -1       526 1.24853E-02 1.24644E-03-7.41579E-14
 -1       527 1.27710E-02 1.30188E-03-7.73091E-14
 -1       528 1.30567E-02 1.35734E-03-8.04944E-14
 -1       529 1.33424E-02 1.41281E-03-8.37128E-14
 -1       530 1.36281E-02 1.46829E-03-8.69593E-14
 -1       531 1.39138E-02 1.52376E-03-9.02316E-14
 -1       532 2.11182E-03 7.02557E-04-1.04199E-15
 -1       533 2.48890E-03 9.02030E-04-1.47863E-15
 -1       534 2.86841E-03 1.11807E-03-2.00937E-15
 -1       535 3.23709E-03 1.29835E-03-2.64454E-15
 -1       536 3.59284E-03 1.37658E-03-3.39337E-15
 -1       537 3.95152E-03 1.32986E-03-4.25905E-15
 -1       538 4.32440E-03 1.20214E-03-5.23477E-15
 -1       539 4.70358E-03 1.06225E-03-6.31199E-15
 -1       540 5.07519E-03 9.53721E-04-7.48693E-15
 -1       541 5.43097E-03 8.89627E-04-8.75169E-15
 -1       542 5.77052E-03 8.66312E-04-1.01010E-14
 -1       543 6.09694E-03 8.74754E-04-1.15308E-14
 -1       544 6.41365E-03 9.05806E-04-1.30375E-14
 -1       545 6.72330E-03 9.51931E-04-1.46216E-14
 -1       546 7.02769E-03 1.00749E-03-1.62815E-14
 -1       547 7.32802E-03 1.06848E-03-1.80147E-14
 -1       548 7.62511E-03 1.13224E-03-1.98178E-14
 -1       549 7.91962E-03 1.19703E-03-2.16862E-14
 -1       550 8.21203E-03 1.26178E-03-2.36190E-14
 -1       551 8.50277E-03 1.32589E-03-2.56238E-14
 -1       552 8.79219E-03 1.38905E-03-2.76968E-14
 -1       553 9.08057E-03 1.45114E-03-2.98424E-14
 -1       554 9.36817E-03 1.51217E-03-3.20548E-14
 -1       555 9.65517E-03 1.57220E-03-3.43329E-14
 -1       556 9.94172E-03 1.63135E-03-3.66791E-14
 -1       557 1.02280E-02 1.68972E-03-3.90837E-14
 -1       558 1.05140E-02 1.74745E-03-4.15496E-14
 -1       559 1.07998E-02 1.80465E-03-4.40752E-14
 -1       560 1.10856E-02 1.86141E-03-4.66661E-14
 -1       561 1.13713E-02 1.91784E-03-4.93218E-14
 -1       562 1.16569E-02 1.97399E-03-5.20378E-14
 -1       563 1.19426E-02 2.02994E-03-5.48132E-14
 -1       564 1.22282E-02 2.08574E-03-5.76449E-14
 -1       565 1.25138E-02 2.14142E-03-6.05364E-14
 -1       566 1.27995E-02 2.19702E-03-6.34822E-14
 -1       567 1.30851E-02 2.25256E-03-6.64706E-14
 -1       568 1.33708E-02 2.30807E-03-6.95035E-14
 -1       569 1.36564E-02 2.36354E-03-7.25751E-14
 -1       570 1.39421E-02 2.41901E-03-7.56766E-14
 -1       571 1.42278E-02 2.47447E-03-7.88144E-14
 -1       572 1.45135E-02 2.52993E-03-8.19909E-14
 -1       573 1.47992E-02 2.58540E-03-8.52138E-14
 -1       574 1.46383E-02 2.31505E-03-8.75529E-14
 -1       575 1.45837E-02 2.23073E-03-8.82019E-14
 -1       576 1.47466E-02 2.48224E-03-8.62488E-14
 -1       577 1.46925E-02 2.39865E-03-8.69061E-14
 -1       578 1.45292E-02 2.14640E-03-8.88475E-14
 -1       579 1.44746E-02 2.06208E-03-8.94917E-14
 -1       580 1.44201E-02 1.97775E-03-9.01294E-14
 -1       581 1.43665E-02 1.89485E-03-9.07458E-14
 -1       582 1.43120E-02 1.81053E-03-9.13564E-14
 -1       583 1.42575E-02 1.72622E-03-9.19592E-14
 -1       584 1.42030E-02 1.64191E-03-9.25522E-14
 -1       585 5.22648E-03 5.96910E-04-7.17314E-15
 -1       586 5.47497E-03 3.40163E-04-8.45595E-15
 -1       587 1.74749E-03 5.39211E-04-6.90423E-16
 -1       588 5.66379E-03 4.23535E-04-8.26267E-15
 -1       589 4.95436E-03 7.21515E-04-6.59968E-15
 -1       590 4.40111E-03-1.44637E-04-7.23888E-15
 -1       591 3.12689E-03-6.34363E-04-4.51510E-15
 -1       592 7.80965E-04-2.24516E-04-3.80897E-16
 -1       593 5.60978E-04 3.19402E-05-3.39681E-16
 -1       594 3.08988E-03 1.19636E-03-2.84033E-15
 -1       595 3.81777E-03 1.28266E-03-4.19138E-15
 -1       596 1.14118E-03 1.59749E-04-1.74814E-15
 -1       597 2.74301E-03 1.00144E-03-2.41490E-15
 -1       598 1.91427E-03 5.09153E-04-1.82685E-15
 -1       599 1.53015E-03 3.31940E-04-1.68784E-15
 -1       600 1.21201E-03 2.18105E-04-1.57981E-15
 -1       601 4.81739E-03 7.69441E-05-7.97807E-15
 -1       602 1.09889E-03 1.85868E-04-1.61125E-15
 -1       603 1.31812E-03 1.10538E-04-1.91391E-15
 -1       604 1.55258E-03 2.98791E-05-2.11508E-15
 -1       605 1.93522E-03-1.39125E-04-2.46436E-15
 -1       606 2.74543E-03-5.30064E-04-3.69899E-15
 -1       607 3.41351E-03-6.17463E-04-5.17926E-15
 -1       608 3.73158E-03-5.08316E-04-5.94396E-15
 -1       609 4.13181E-03-2.96914E-04-6.77355E-15
 -1       610 5.20214E-03 2.46022E-04-8.37557E-15
 -1       611 5.64250E-03 3.95662E-04-8.63059E-15
 -1       612 4.08611E-03 1.17795E-03-4.77356E-15
 -1       613 8.02409E-04 2.35413E-04-9.66465E-17
 -1       614 3.29530E-03 1.28586E-03-3.06263E-15
 -1       615 6.98222E-04-1.04074E-04-3.72257E-16
 -1       616 2.93064E-03-6.10955E-04-4.09511E-15
 -1       617 1.06085E-03 1.60657E-04-1.48356E-15
 -1       618 4.75643E-03 8.37672E-04-6.30802E-15
 -1       619 5.43706E-03 5.28584E-04-7.88350E-15
 -1       620 1.41059E-02 1.55958E-03-9.24719E-14
 -1       621 1.33848E-03 2.49440E-04-1.44027E-15
 -1       622 7.38913E-04-1.60961E-04-3.79572E-16
 -1       623 3.64158E-03 1.32944E-03-3.75610E-15
 -1       624 2.11457E-03-2.43432E-04-2.61675E-15
 -1       625 4.31305E-03 1.07914E-03-5.30038E-15
 -1       626 6.74910E-04 8.17304E-05-5.02169E-16
 -1       627 6.78159E-04 7.34243E-05-5.34942E-16
 -1       628 8.01616E-04 1.23189E-04-4.22531E-16
 -1       629 9.03847E-04 1.75130E-04-3.66579E-16
 -1       630 1.11716E-03 2.71115E-04-3.88900E-16
 -1       631 5.65954E-03 4.58894E-04-8.63463E-15
 -1       632 1.52053E-03-3.65408E-04-1.31964E-15
 -1       633 1.85568E-03-4.57569E-04-1.86948E-15
 -1       634 2.19482E-03-5.56243E-04-2.51688E-15
 -1       635 2.53094E-03-6.50802E-04-3.26428E-15
 -1       636 2.85778E-03-7.19902E-04-4.11501E-15
 -1       637 3.17515E-03-7.38317E-04-5.07304E-15
 -1       638 3.49101E-03-6.92855E-04-6.13858E-15
 -1       639 3.81419E-03-5.92437E-04-7.30755E-15
 -1       640 4.14697E-03-4.62371E-04-8.57328E-15
 -1       641 4.48419E-03-3.27840E-04-9.92936E-15
 -1       642 4.81852E-03-2.04433E-04-1.13691E-14
 -1       643 5.14503E-03-9.77899E-05-1.28871E-14
 -1       644 5.46219E-03-7.61928E-06-1.44799E-14
 -1       645 5.77072E-03 6.87922E-05-1.61451E-14
 -1       646 6.07232E-03 1.34722E-04-1.78789E-14
 -1       647 6.36879E-03 1.93182E-04-1.96825E-14
 -1       648 6.66168E-03 2.46658E-04-2.15541E-14
 -1       649 6.95214E-03 2.97082E-04-2.34950E-14
 -1       650 7.24099E-03 3.45887E-04-2.55057E-14
 -1       651 7.52880E-03 3.94086E-04-2.75825E-14
 -1       652 7.81591E-03 4.42358E-04-2.97233E-14
 -1       653 8.10258E-03 4.91122E-04-3.19214E-14
 -1       654 8.38894E-03 5.40609E-04-3.41818E-14
 -1       655 8.67511E-03 5.90916E-04-3.65051E-14
 -1       656 8.96113E-03 6.42050E-04-3.88928E-14
 -1       657 9.24707E-03 6.93963E-04-4.13431E-14
 -1       658 9.53293E-03 7.46576E-04-4.38595E-14
 -1       659 9.81875E-03 7.99796E-04-4.64374E-14
 -1       660 1.01045E-02 8.53527E-04-4.90718E-14
 -1       661 1.03903E-02 9.07679E-04-5.17689E-14
 -1       662 1.06760E-02 9.62169E-04-5.45221E-14
 -1       663 1.09618E-02 1.01693E-03-5.73303E-14
 -1       664 1.12475E-02 1.07189E-03-6.01969E-14
 -1       665 1.15332E-02 1.12702E-03-6.31064E-14
 -1       666 1.18189E-02 1.18226E-03-6.60654E-14
 -1       667 1.21046E-02 1.23758E-03-6.90758E-14
 -1       668 1.23904E-02 1.29297E-03-7.21482E-14
 -1       669 1.26761E-02 1.34839E-03-7.52674E-14
 -1       670 1.29618E-02 1.40384E-03-7.84254E-14
 -1       671 1.32475E-02 1.45931E-03-8.16181E-14
 -1       672 1.35332E-02 1.51479E-03-8.48409E-14
 -1       673 1.38189E-02 1.57026E-03-8.80891E-14
 -1       674 2.55300E-03 8.94907E-04-1.89067E-15
 -1       675 2.15352E-03 6.72681E-04-1.39224E-15
 -1       676 4.16422E-03 1.19897E-03-4.92490E-15
 -1       677 4.58594E-03 1.00701E-03-6.02790E-15
 -1       678 4.97596E-03 8.76697E-04-7.17982E-15
 -1       679 5.33587E-03 8.02384E-04-8.42198E-15
 -1       680 5.66829E-03 7.74585E-04-9.74765E-15
 -1       681 5.98166E-03 7.80040E-04-1.11531E-14
 -1       682 6.28362E-03 8.08346E-04-1.26368E-14
 -1       683 6.57929E-03 8.51952E-04-1.41951E-14
 -1       684 6.87165E-03 9.05443E-04-1.58302E-14
 -1       685 7.16223E-03 9.64958E-04-1.75380E-14
 -1       686 7.45177E-03 1.02780E-03-1.93156E-14
 -1       687 7.74059E-03 1.09214E-03-2.11620E-14
 -1       688 8.02885E-03 1.15678E-03-2.30728E-14
 -1       689 8.31663E-03 1.22102E-03-2.50507E-14
 -1       690 8.60399E-03 1.28444E-03-2.71020E-14
 -1       691 8.89099E-03 1.34686E-03-2.92223E-14
 -1       692 9.17768E-03 1.40824E-03-3.14089E-14
 -1       693 9.46412E-03 1.46861E-03-3.36665E-14
 -1       694 9.75036E-03 1.52807E-03-3.59897E-14
 -1       695 1.00364E-02 1.58671E-03-3.83776E-14
 -1       696 1.03224E-02 1.64468E-03-4.08241E-14
 -1       697 1.06083E-02 1.70206E-03-4.33333E-14
 -1       698 1.08941E-02 1.75899E-03-4.59014E-14
 -1       699 1.11798E-02 1.81553E-03-4.85333E-14
 -1       700 1.14656E-02 1.87178E-03-5.12270E-14
 -1       701 1.17513E-02 1.92781E-03-5.39814E-14
 -1       702 1.20370E-02 1.98366E-03-5.67905E-14
 -1       703 1.23227E-02 2.03938E-03-5.96545E-14
 -1       704 1.26084E-02 2.09501E-03-6.25758E-14
 -1       705 1.28940E-02 2.15057E-03-6.55417E-14
 -1       706 1.31797E-02 2.20609E-03-6.85534E-14
 -1       707 1.34654E-02 2.26158E-03-7.16133E-14
 -1       708 1.37511E-02 2.31705E-03-7.47044E-14
 -1       709 1.40368E-02 2.37251E-03-7.78302E-14
 -1       710 1.43225E-02 2.42797E-03-8.09917E-14
 -1       711 1.45346E-02 2.45510E-03-8.36081E-14
 -1       712 1.42544E-02 2.05621E-03-8.63711E-14
 -1       713 1.40110E-02 1.60609E-03-9.03111E-14
 -1       714 1.43636E-02 2.22486E-03-8.50856E-14
 -1       715 1.41999E-02 1.97188E-03-8.69996E-14
 -1       716 1.43090E-02 2.14053E-03-8.57334E-14
 -1       717 1.78201E-03 5.00680E-04-9.80437E-16
 -1       718 1.41463E-02 1.88898E-03-8.76077E-14
 -1       719 1.40918E-02 1.80466E-03-8.82167E-14
 -1       720 1.40373E-02 1.72034E-03-8.88162E-14
 -1       721 5.41414E-03 3.22547E-04-9.19945E-15
 -1       722 1.16916E-03 1.31428E-04-1.59495E-15
 -1       723 5.14169E-03 6.69104E-04-7.32749E-15
 -1       724 3.98783E-03 1.25556E-03-4.51582E-15
 -1       725 4.28461E-03-2.19103E-04-7.59345E-15
 -1       726 1.63780E-03-4.28791E-05-1.97256E-15
 -1       727 1.02943E-03-2.43882E-04-6.64826E-16
 -1       728 1.27212E-03-3.02980E-04-9.64560E-16
 -1       729 4.65515E-03-1.64749E-05-8.35106E-15
 -1       730 1.43900E-03 3.71928E-04-6.47668E-16
 -1       731 7.20345E-04 9.41554E-05-4.68243E-16
 -1       732 8.62010E-04-4.13532E-05-6.14570E-16
 -1       733 3.28445E-03-6.53980E-04-5.05562E-15
 -1       734 5.61618E-03 3.86355E-04-9.38401E-15
 -1       735 5.73950E-03 4.33254E-04-9.31869E-15
 -1       736 1.08690E-03 1.74492E-04-1.33826E-15
 -1       737 1.38275E-03 6.72652E-05-1.77760E-15
 -1       738 2.11068E-03 6.13139E-04-1.70010E-15
 -1       739 2.50405E-03-4.44244E-04-3.21253E-15
 -1       740 1.67260E-03 3.83669E-04-1.49473E-15
 -1       741 3.55420E-03-5.92525E-04-5.80775E-15
 -1       742 5.07356E-03 1.85214E-04-9.03612E-15
 -1       743 3.92878E-03-4.17158E-04-6.74786E-15
 -1       744 9.26436E-04-1.13183E-04-6.31060E-16
 -1       745 7.21619E-04 5.41539E-05-5.63602E-16
 -1       746 2.97785E-03 1.15163E-03-2.41501E-15
 -1       747 5.36680E-03 5.95908E-04-8.04306E-15
 -1       748 1.44177E-02 2.30846E-03-8.44391E-14
 -1       749 1.44762E-02 2.38178E-03-8.40257E-14
 -1       750 1.00064E-03 1.49479E-04-1.21950E-15
 -1       751 1.15749E-03 1.90616E-04-1.21033E-15
 -1       752 1.79678E-03-1.31284E-04-2.10035E-15
 -1       753 4.97716E-03 7.70346E-04-7.01419E-15
 -1       754 1.39281E-02 1.64530E-03-8.84566E-14
 -1       755 7.90784E-04 1.64788E-05-5.93126E-16
 -1       756 2.69077E-03-5.51098E-04-3.57056E-15
 -1       757 1.18802E-03 2.50052E-04-6.19547E-16
 -1       758 9.44522E-04 1.44592E-04-6.89210E-16
 -1       759 3.02829E-03-6.65963E-04-4.43142E-15
 -1       760 5.77563E-03 4.68729E-04-9.61540E-15
 -1       761 1.40293E-03 2.76347E-04-1.19528E-15
 -1       762 1.97999E-03-4.05737E-04-2.14269E-15
 -1       763 2.33537E-03-5.15335E-04-2.82123E-15
 -1       764 2.68680E-03-6.20822E-04-3.60064E-15
 -1       765 3.69154E-03-5.84734E-04-6.59332E-15
 -1       766 4.03873E-03-4.43560E-04-7.80343E-15
 -1       767 4.39339E-03-2.92963E-04-9.10613E-15
 -1       768 4.74240E-03-1.58649E-04-1.04947E-14
 -1       769 5.07866E-03-4.73517E-05-1.19626E-14
 -1       770 5.40019E-03 4.34942E-05-1.35028E-14
 -1       771 5.70890E-03 1.18873E-04-1.51185E-14
 -1       772 6.00797E-03 1.83423E-04-1.68047E-14
 -1       773 6.30049E-03 2.40747E-04-1.85610E-14
 -1       774 6.58889E-03 2.93469E-04-2.03859E-14
 -1       775 6.87492E-03 3.43461E-04-2.22772E-14
 -1       776 7.15973E-03 3.92050E-04-2.42406E-14
 -1       777 7.44403E-03 4.40154E-04-2.62712E-14
 -1       778 7.72825E-03 4.88383E-04-2.83653E-14
 -1       779 8.01258E-03 5.37117E-04-3.05225E-14
 -1       780 8.29714E-03 5.86567E-04-3.27372E-14
 -1       781 8.58194E-03 6.36825E-04-3.50149E-14
 -1       782 8.86697E-03 6.87897E-04-3.73583E-14
 -1       783 9.15219E-03 7.39740E-04-3.97654E-14
 -1       784 9.43757E-03 7.92279E-04-4.22374E-14
 -1       785 9.72308E-03 8.45425E-04-4.47759E-14
 -1       786 1.00087E-02 8.99087E-04-4.73745E-14
 -1       787 1.02943E-02 9.53175E-04-5.00306E-14
 -1       788 1.05800E-02 1.00761E-03-5.27492E-14
 -1       789 1.08658E-02 1.06232E-03-5.55208E-14
 -1       790 1.11515E-02 1.11724E-03-5.83481E-14
 -1       791 1.14373E-02 1.17233E-03-6.12300E-14
 -1       792 1.17230E-02 1.22754E-03-6.41572E-14
 -1       793 1.20088E-02 1.28285E-03-6.71298E-14
 -1       794 1.22945E-02 1.33822E-03-7.01587E-14
 -1       795 1.25803E-02 1.39363E-03-7.32416E-14
 -1       796 1.28660E-02 1.44907E-03-7.63728E-14
 -1       797 1.31517E-02 1.50453E-03-7.95377E-14
 -1       798 1.34375E-02 1.56001E-03-8.27399E-14
 -1       799 1.36828E-02 1.60265E-03-8.55874E-14
 -1       800 1.39256E-02 1.88239E-03-8.45089E-14
 -1       801 5.89267E-03 6.86982E-04-1.07657E-14
 -1       802 6.17510E-03 7.15829E-04-1.22275E-14
 -1       803 6.45311E-03 7.58257E-04-1.37621E-14
 -1       804 6.73041E-03 8.09769E-04-1.53710E-14
 -1       805 7.00865E-03 8.67206E-04-1.70548E-14
 -1       806 7.28836E-03 9.28251E-04-1.88071E-14
 -1       807 7.56954E-03 9.91214E-04-2.06298E-14
 -1       808 7.85198E-03 1.05491E-03-2.25182E-14
 -1       809 8.13540E-03 1.11854E-03-2.44730E-14
 -1       810 8.41956E-03 1.18164E-03-2.64969E-14
 -1       811 8.70424E-03 1.24392E-03-2.85955E-14
 -1       812 8.98930E-03 1.30528E-03-3.07591E-14
 -1       813 9.27460E-03 1.36571E-03-3.29897E-14
 -1       814 9.56008E-03 1.42527E-03-3.52918E-14
 -1       815 9.84566E-03 1.48403E-03-3.76576E-14
 -1       816 1.01313E-02 1.54211E-03-4.00879E-14
 -1       817 1.04170E-02 1.59961E-03-4.25776E-14
 -1       818 1.07027E-02 1.65663E-03-4.51294E-14
 -1       819 1.09885E-02 1.71327E-03-4.77366E-14
 -1       820 1.12742E-02 1.76959E-03-5.04103E-14
 -1       821 1.15600E-02 1.82567E-03-5.31469E-14
 -1       822 1.18457E-02 1.88157E-03-5.59364E-14
 -1       823 1.21315E-02 1.93733E-03-5.87753E-14
 -1       824 1.24172E-02 1.99299E-03-6.16676E-14
 -1       825 1.27029E-02 2.04857E-03-6.46118E-14
 -1       826 1.29887E-02 2.10410E-03-6.76039E-14
 -1       827 1.32744E-02 2.15960E-03-7.06455E-14
 -1       828 1.35601E-02 2.21507E-03-7.37276E-14
 -1       829 1.38459E-02 2.27054E-03-7.68430E-14
 -1       830 1.41316E-02 2.32599E-03-7.99907E-14
 -1       831 1.43039E-02 2.35389E-03-8.20000E-14
 -1       832 8.11124E-04 1.02166E-04-7.67686E-16
 -1       833 1.79385E-03 4.61020E-04-1.28338E-15
 -1       834 1.39802E-02 1.96672E-03-8.39000E-14
 -1       835 1.38171E-02 1.71446E-03-8.57068E-14
 -1       836 4.12513E-03-3.52683E-04-7.72712E-15
 -1       837 9.79371E-04-1.76334E-04-6.50288E-16
 -1       838 5.59860E-03 6.79031E-04-9.38189E-15
 -1       839 5.30419E-03 7.00716E-04-8.16351E-15
 -1       840 4.44243E-03-1.73691E-04-8.49574E-15
 -1       841 1.38714E-02 1.79842E-03-8.51096E-14
 -1       842 1.63351E-03-3.10662E-04-1.55923E-15
 -1       843 5.62490E-03 5.14330E-04-8.90735E-15
 -1       844 4.93245E-03 8.18035E-05-9.54435E-15
 -1       845 1.00541E-03 1.27938E-04-1.21545E-15
 -1       846 5.59358E-03 3.65061E-04-1.02442E-14
 -1       847 8.50281E-04 1.16229E-04-7.41798E-16
 -1       848 2.22964E-03-3.59125E-04-2.68214E-15
 -1       849 3.36270E-03-6.66652E-04-5.45423E-15
 -1       850 5.77688E-03 4.27249E-04-1.02426E-14
 -1       851 5.32165E-03 2.60736E-04-1.00757E-14
 -1       852 8.51685E-04 8.41465E-05-8.11254E-16
 -1       853 5.86947E-03 4.62494E-04-1.05547E-14
 -1       854 1.91557E-03-2.50433E-04-2.14837E-15
 -1       855 1.41432E-02 2.21863E-03-8.19941E-14
 -1       856 1.40886E-02 2.13431E-03-8.26441E-14
 -1       857 1.34345E-03 1.59248E-05-1.49771E-15
 -1       858 1.44830E-03 3.26690E-04-9.09713E-16
 -1       859 1.40344E-02 2.05052E-03-8.32809E-14
 -1       860 1.02009E-03 1.54593E-04-1.10051E-15
 -1       861 1.21685E-03-2.25907E-04-9.43463E-16
 -1       862 1.12242E-03 9.27041E-05-1.30586E-15
 -1       863 1.37499E-02 1.65855E-03-8.56493E-14
 -1       864 1.47504E-03-4.87159E-05-1.60279E-15
 -1       865 1.05822E-03-2.44347E-05-9.18109E-16
 -1       866 1.15035E-03-1.11224E-04-9.47918E-16
 -1       867 5.80629E-03 4.13475E-04-1.12442E-14
 -1       868 1.08909E-03 4.31244E-05-1.09837E-15
 -1       869 1.73263E-03-2.45665E-04-1.79677E-15
 -1       870 4.68248E-03-1.03785E-04-9.63159E-15
 -1       871 5.02920E-03 1.34459E-05-1.10510E-14
 -1       872 5.35406E-03 1.03004E-04-1.25437E-14
 -1       873 5.66091E-03 1.74654E-04-1.41077E-14
 -1       874 5.95528E-03 2.35310E-04-1.57442E-14
 -1       875 6.24194E-03 2.89624E-04-1.74540E-14
 -1       876 6.52429E-03 3.40369E-04-1.92292E-14
 -1       877 6.80459E-03 3.89249E-04-2.10723E-14
 -1       878 7.08428E-03 4.37342E-04-2.29838E-14
 -1       879 7.36418E-03 4.85337E-04-2.49671E-14
 -1       880 7.64473E-03 5.33675E-04-2.70168E-14
 -1       881 7.92608E-03 5.82618E-04-2.91298E-14
 -1       882 8.20828E-03 6.32305E-04-3.13030E-14
 -1       883 8.49125E-03 6.82785E-04-3.35369E-14
 -1       884 8.77490E-03 7.34048E-04-3.58354E-14
 -1       885 9.05910E-03 7.86041E-04-3.81973E-14
 -1       886 9.34375E-03 8.38692E-04-4.06266E-14
 -1       887 9.62874E-03 8.91916E-04-4.31222E-14
 -1       888 9.91399E-03 9.45628E-04-4.56830E-14
 -1       889 1.01994E-02 9.99746E-04-4.82999E-14
 -1       890 1.04850E-02 1.05419E-03-5.09803E-14
 -1       891 1.07707E-02 1.10891E-03-5.37199E-14
 -1       892 1.10564E-02 1.16383E-03-5.65121E-14
 -1       893 1.13421E-02 1.21891E-03-5.93591E-14
 -1       894 1.16279E-02 1.27411E-03-6.22518E-14
 -1       895 1.19137E-02 1.32940E-03-6.51919E-14
 -1       896 1.21995E-02 1.38476E-03-6.81827E-14
 -1       897 1.24853E-02 1.44016E-03-7.12259E-14
 -1       898 1.27710E-02 1.49560E-03-7.43199E-14
 -1       899 1.30568E-02 1.55106E-03-7.74595E-14
 -1       900 1.33425E-02 1.60652E-03-8.06362E-14
 -1       901 6.60040E-03 7.21460E-04-1.49054E-14
 -1       902 6.34124E-03 6.71817E-04-1.33207E-14
 -1       903 1.42235E-02 2.28626E-03-8.19988E-14
 -1       904 9.28397E-04 1.31132E-04-1.00309E-15
 -1       905 6.08612E-03 6.29353E-04-1.18071E-14
 -1       906 6.86426E-03 7.76288E-04-1.65637E-14
 -1       907 7.13260E-03 8.34691E-04-1.82943E-14
 -1       908 7.40485E-03 8.95334E-04-2.00927E-14
 -1       909 7.68034E-03 9.57153E-04-2.19574E-14
 -1       910 7.95841E-03 1.01936E-03-2.38893E-14
 -1       911 8.23851E-03 1.08141E-03-2.58905E-14
 -1       912 8.52016E-03 1.14296E-03-2.79638E-14
 -1       913 8.80297E-03 1.20382E-03-3.01046E-14
 -1       914 9.08664E-03 1.26394E-03-3.23096E-14
 -1       915 9.37096E-03 1.32329E-03-3.45846E-14
 -1       916 9.65574E-03 1.38195E-03-3.69285E-14
 -1       917 9.94086E-03 1.43997E-03-3.93388E-14
 -1       918 1.02262E-02 1.49745E-03-4.18117E-14
 -1       919 1.05117E-02 1.55448E-03-4.43428E-14
 -1       920 1.07973E-02 1.61113E-03-4.69341E-14
 -1       921 1.10830E-02 1.66747E-03-4.95870E-14
 -1       922 1.13688E-02 1.72358E-03-5.23016E-14
 -1       923 1.16545E-02 1.77950E-03-5.50715E-14
 -1       924 1.19403E-02 1.83528E-03-5.78941E-14
 -1       925 1.22261E-02 1.89095E-03-6.07621E-14
 -1       926 1.25118E-02 1.94655E-03-6.36821E-14
 -1       927 1.27976E-02 2.00210E-03-6.66554E-14
 -1       928 1.30834E-02 2.05760E-03-6.96775E-14
 -1       929 1.33691E-02 2.11309E-03-7.27469E-14
 -1       930 1.36549E-02 2.16855E-03-7.58561E-14
 -1       931 5.82897E-03 5.27595E-04-1.01782E-14
 -1       932 1.37054E-02 1.87652E-03-8.14421E-14
 -1       933 5.60354E-03 3.30385E-04-1.13134E-14
 -1       934 5.59532E-03 5.92796E-04-9.15201E-15
 -1       935 1.14646E-03 1.94785E-04-9.35988E-16
 -1       936 5.27233E-03 1.81579E-04-1.09780E-14
 -1       937 1.32418E-03-1.65335E-04-1.16475E-15
 -1       938 5.97076E-03 5.14002E-04-1.11445E-14
 -1       939 5.93751E-03 4.55567E-04-1.15763E-14
 -1       940 1.35462E-02 1.63254E-03-8.31344E-14
 -1       941 1.36511E-02 1.79255E-03-8.20379E-14
 -1       942 1.39406E-02 2.22401E-03-7.89899E-14
 -1       943 1.37596E-02 1.96032E-03-8.08355E-14
 -1       944 5.85155E-03 6.02633E-04-1.04776E-14
 -1       945 1.32924E-03-6.91716E-05-1.29431E-15
 -1       946 1.38684E-02 2.12844E-03-7.95771E-14
 -1       947 1.61533E-03-1.44932E-04-1.70050E-15
 -1       948 1.36069E-02 1.70247E-03-8.28692E-14
 -1       949 6.47600E-03 6.41459E-04-1.44333E-14
 -1       950 5.63024E-03 2.34581E-04-1.31158E-14
 -1       951 5.91549E-03 2.88811E-04-1.47024E-14
 -1       952 6.19272E-03 3.38173E-04-1.63615E-14
 -1       953 6.46654E-03 3.85732E-04-1.80914E-14
 -1       954 6.73944E-03 4.32820E-04-1.98858E-14
 -1       955 7.01284E-03 4.80123E-04-2.17490E-14
 -1       956 7.28750E-03 5.27986E-04-2.36812E-14
 -1       957 7.56375E-03 5.76580E-04-2.56832E-14
 -1       958 7.84163E-03 6.25978E-04-2.77488E-14
 -1       959 8.12107E-03 6.76193E-04-2.98801E-14
 -1       960 8.40189E-03 7.27197E-04-3.20735E-14
 -1       961 8.68388E-03 7.78934E-04-3.43255E-14
 -1       962 8.96684E-03 8.31336E-04-3.66449E-14
 -1       963 9.25057E-03 8.84321E-04-3.90318E-14
 -1       964 9.53490E-03 9.37811E-04-4.14845E-14
 -1       965 9.81969E-03 9.91726E-04-4.40039E-14
 -1       966 1.01048E-02 1.04599E-03-4.65837E-14
 -1       967 1.03902E-02 1.10055E-03-4.92254E-14
 -1       968 1.06757E-02 1.15534E-03-5.19254E-14
 -1       969 1.09614E-02 1.21031E-03-5.46857E-14
 -1       970 1.12471E-02 1.26542E-03-5.74992E-14
 -1       971 1.15329E-02 1.32064E-03-6.03587E-14
 -1       972 1.18187E-02 1.37594E-03-6.32645E-14
 -1       973 1.21045E-02 1.43130E-03-6.62166E-14
 -1       974 1.23903E-02 1.48670E-03-6.92234E-14
 -1       975 1.26761E-02 1.54213E-03-7.22839E-14
 -1       976 1.29618E-02 1.59759E-03-7.53899E-14
 -1       977 1.32476E-02 1.65305E-03-7.85404E-14
 -1       978 6.98082E-03 7.47716E-04-1.77730E-14
 -1       979 6.72439E-03 6.92858E-04-1.60665E-14
 -1       980 6.23751E-03 5.94391E-04-1.28692E-14
 -1       981 7.24375E-03 8.05105E-04-1.95490E-14
 -1       982 7.51192E-03 8.64142E-04-2.13927E-14
 -1       983 7.78427E-03 9.24077E-04-2.33002E-14
 -1       984 8.05990E-03 9.84334E-04-2.52783E-14
 -1       985 8.33811E-03 1.04451E-03-2.73262E-14
 -1       986 8.61830E-03 1.10434E-03-2.94455E-14
 -1       987 8.90002E-03 1.16368E-03-3.16288E-14
 -1       988 9.18289E-03 1.22248E-03-3.38737E-14
 -1       989 9.46663E-03 1.28073E-03-3.61927E-14
 -1       990 9.75100E-03 1.33847E-03-3.85813E-14
 -1       991 1.00358E-02 1.39576E-03-4.10358E-14
 -1       992 1.03210E-02 1.45265E-03-4.35514E-14
 -1       993 1.06064E-02 1.50921E-03-4.61227E-14
 -1       994 1.08920E-02 1.56550E-03-4.87550E-14
 -1       995 1.11776E-02 1.62158E-03-5.14472E-14
 -1       996 1.14634E-02 1.67748E-03-5.42005E-14
 -1       997 1.17492E-02 1.73326E-03-5.70028E-14
 -1       998 1.20349E-02 1.78893E-03-5.98549E-14
 -1       999 1.23207E-02 1.84454E-03-6.27531E-14
 -1      1000 1.26065E-02 1.90009E-03-6.57039E-14
 -1      1001 1.28923E-02 1.95560E-03-6.87060E-14
 -1      1002 1.31781E-02 2.01109E-03-7.17622E-14
 -1      1003 1.34639E-02 2.06656E-03-7.48577E-14
 -1      1004 6.02891E-03 5.58135E-04-1.14924E-14
 -1      1005 1.38140E-02 2.04438E-03-8.02143E-14
 -1      1006 5.61683E-03 2.74418E-04-1.24292E-14
 -1      1007 5.87551E-03 3.95776E-04-1.24832E-14
 -1      1008 6.02573E-03 4.46804E-04-1.28377E-14
 -1      1009 1.34850E-02 1.87038E-03-7.83949E-14
 -1      1010 1.34094E-02 1.98250E-03-7.54823E-14
 -1      1011 6.08362E-03 5.07457E-04-1.21972E-14
 -1      1012 1.34307E-02 1.78641E-03-7.89907E-14
 -1      1013 7.08242E-03 7.20517E-04-1.89958E-14
 -1      1014 6.15331E-03 3.85083E-04-1.52880E-14
 -1      1015 6.41510E-03 4.28623E-04-1.69680E-14
 -1      1016 6.67843E-03 4.73498E-04-1.87161E-14
 -1      1017 6.94424E-03 5.19889E-04-2.05310E-14
 -1      1018 7.21287E-03 5.67690E-04-2.24166E-14
 -1      1019 7.48432E-03 6.16739E-04-2.43674E-14
 -1      1020 7.75841E-03 6.66870E-04-2.63867E-14
 -1      1021 8.03485E-03 7.17931E-04-2.84726E-14
 -1      1022 8.31334E-03 7.69784E-04-3.06235E-14
 -1      1023 8.59354E-03 8.22311E-04-3.28363E-14
 -1      1024 8.87514E-03 8.75407E-04-3.51102E-14
 -1      1025 9.15785E-03 9.28980E-04-3.74497E-14
 -1      1026 9.44143E-03 9.82951E-04-3.98615E-14
 -1      1027 9.72568E-03 1.03725E-03-4.23407E-14
 -1      1028 1.00104E-02 1.09181E-03-4.48817E-14
 -1      1029 1.02955E-02 1.14660E-03-4.74836E-14
 -1      1030 1.05809E-02 1.20155E-03-5.01437E-14
 -1      1031 1.08665E-02 1.25664E-03-5.28681E-14
 -1      1032 1.11521E-02 1.31183E-03-5.56460E-14
 -1      1033 1.14379E-02 1.36711E-03-5.84762E-14
 -1      1034 1.17237E-02 1.42244E-03-6.13487E-14
 -1      1035 1.20095E-02 1.47782E-03-6.42649E-14
 -1      1036 1.22953E-02 1.53324E-03-6.72333E-14
 -1      1037 1.25811E-02 1.58867E-03-7.02590E-14
 -1      1038 1.28669E-02 1.64412E-03-7.33325E-14
 -1      1039 1.31527E-02 1.69958E-03-7.64526E-14
 -1      1040 7.34390E-03 7.75986E-04-2.08183E-14
 -1      1041 6.58226E-03 6.16881E-04-1.55613E-14
 -1      1042 6.34819E-03 5.70156E-04-1.39487E-14
 -1      1043 7.61088E-03 8.32913E-04-2.27079E-14
 -1      1044 7.88223E-03 8.90698E-04-2.46626E-14
 -1      1045 8.15705E-03 9.48879E-04-2.66877E-14
 -1      1046 8.43458E-03 1.00713E-03-2.87821E-14
 -1      1047 8.71425E-03 1.06524E-03-3.09456E-14
 -1      1048 8.99556E-03 1.12309E-03-3.31683E-14
 -1      1049 9.27813E-03 1.18061E-03-3.54551E-14
 -1      1050 9.56165E-03 1.23781E-03-3.78183E-14
 -1      1051 9.84588E-03 1.29469E-03-4.02528E-14
 -1      1052 1.01306E-02 1.35128E-03-4.27495E-14
 -1      1053 1.04157E-02 1.40763E-03-4.53043E-14
 -1      1054 1.07011E-02 1.46377E-03-4.79164E-14
 -1      1055 1.09867E-02 1.51974E-03-5.05881E-14
 -1      1056 1.12723E-02 1.57557E-03-5.33202E-14
 -1      1057 1.15581E-02 1.63130E-03-5.61091E-14
 -1      1058 1.18439E-02 1.68695E-03-5.89416E-14
 -1      1059 1.21297E-02 1.74254E-03-6.18195E-14
 -1      1060 1.24155E-02 1.79808E-03-6.47515E-14
 -1      1061 1.27013E-02 1.85360E-03-6.77307E-14
 -1      1062 1.29871E-02 1.90909E-03-7.07705E-14
 -1      1063 1.31982E-02 1.94580E-03-7.31177E-14
 -1      1064 6.15514E-03 5.40823E-04-1.25178E-14
 -1      1065 5.94615E-03 3.61846E-04-1.38204E-14
 -1      1066 6.82790E-03 6.67229E-04-1.72435E-14
 -1      1067 1.34472E-02 1.92644E-03-7.69398E-14
 -1      1068 1.32104E-02 1.78036E-03-7.59683E-14
 -1      1069 1.31726E-02 1.83642E-03-7.45322E-14
 -1      1070 6.20550E-03 5.04751E-04-1.34926E-14
 -1      1071 7.17272E-03 6.92059E-04-2.02343E-14
 -1      1072 6.18652E-03 4.41409E-04-1.45840E-14
 -1      1073 6.61944E-03 5.10348E-04-1.75626E-14
 -1      1074 6.87654E-03 5.56075E-04-1.93285E-14
 -1      1075 7.13859E-03 6.04077E-04-2.11644E-14
 -1      1076 7.40501E-03 6.53881E-04-2.30689E-14
 -1      1077 7.67523E-03 7.05076E-04-2.50426E-14
 -1      1078 7.94870E-03 7.57325E-04-2.70804E-14
 -1      1079 8.22489E-03 8.10371E-04-2.91863E-14
 -1      1080 8.50333E-03 8.64013E-04-3.13584E-14
 -1      1081 8.78359E-03 9.18104E-04-3.35908E-14
 -1      1082 9.06530E-03 9.72532E-04-3.58843E-14
 -1      1083 9.34814E-03 1.02721E-03-3.82504E-14
 -1      1084 9.63185E-03 1.08209E-03-4.06888E-14
 -1      1085 9.91621E-03 1.13711E-03-4.31922E-14
 -1      1086 1.02011E-02 1.19225E-03-4.57561E-14
 -1      1087 1.04862E-02 1.24747E-03-4.83761E-14
 -1      1088 1.07717E-02 1.30276E-03-5.10604E-14
 -1      1089 1.10573E-02 1.35810E-03-5.38002E-14
 -1      1090 1.13430E-02 1.41348E-03-5.65969E-14
 -1      1091 1.16287E-02 1.46888E-03-5.94406E-14
 -1      1092 1.19145E-02 1.52431E-03-6.23253E-14
 -1      1093 1.22004E-02 1.57975E-03-6.52538E-14
 -1      1094 1.24862E-02 1.63520E-03-6.82434E-14
 -1      1095 1.27720E-02 1.69066E-03-7.12860E-14
 -1      1096 7.70358E-03 8.00346E-04-2.40405E-14
 -1      1097 7.97556E-03 8.56059E-04-2.60421E-14
 -1      1098 8.25079E-03 9.12277E-04-2.81143E-14
 -1      1099 8.52860E-03 9.68736E-04-3.02550E-14
 -1      1100 8.80846E-03 1.02526E-03-3.24571E-14
 -1      1101 9.08990E-03 1.08174E-03-3.47206E-14
 -1      1102 9.37257E-03 1.13812E-03-3.70521E-14
 -1      1103 9.65616E-03 1.19436E-03-3.94637E-14
 -1      1104 9.94045E-03 1.25047E-03-4.19379E-14
 -1      1105 1.02252E-02 1.30646E-03-4.44757E-14
 -1      1106 1.05104E-02 1.36233E-03-4.70682E-14
 -1      1107 1.07958E-02 1.41811E-03-4.97181E-14
 -1      1108 1.10814E-02 1.47381E-03-5.24308E-14
 -1      1109 1.13671E-02 1.52944E-03-5.52007E-14
 -1      1110 1.16528E-02 1.58503E-03-5.80203E-14
 -1      1111 1.19386E-02 1.64058E-03-6.08840E-14
 -1      1112 1.22245E-02 1.69610E-03-6.37916E-14
 -1      1113 1.25103E-02 1.75160E-03-6.67545E-14
 -1      1114 1.27961E-02 1.80708E-03-6.97726E-14
 -1      1115 6.91605E-03 6.40609E-04-1.84353E-14
 -1      1116 6.42857E-03 5.46751E-04-1.50446E-14
 -1      1117 1.31854E-02 1.89111E-03-7.38266E-14
 -1      1118 6.40014E-03 4.74630E-04-1.60458E-14
 -1      1119 6.66726E-03 5.91927E-04-1.67055E-14
 -1      1120 7.43564E-03 7.45513E-04-2.21032E-14
 -1      1121 1.29907E-02 1.84910E-03-7.17892E-14
 -1      1122 0.00000E+00 0.00000E+00 0.00000E+00
 -1      1123 0.00000E+00 0.00000E+00 0.00000E+00
 -1      1124 0.00000E+00 0.00000E+00 0.00000E+00
 -1      1125 0.00000E+00 0.00000E+00 0.00000E+00
 -1      1126 0.00000E+00 0.00000E+00 0.00000E+00
 -1      1127 0.00000E+00 0.00000E+00 0.00000E+00
 -1      1128 0.00000E+00 0.00000E+00 0.00000E+00
 -1      1129 0.00000E+00 0.00000E+00 0.00000E+00
 -1      1130 0.00000E+00 0.00000E+00 0.00000E+00
 -1      1131 0.00000E+00 0.00000E+00 0.00000E+00
 -1      1132 0.00000E+00 0.00000E+00 0.00000E+00
 -1      1133 0.00000E+00 0.00000E+00 0.00000E+00
 -1      1134 0.00000E+00 0.00000E+00 0.00000E+00
 -1      1135 0.00000E+00 0.00000E+00 0.00000E+00
 -1      1136 0.00000E+00 0.00000E+00 0.00000E+00
 -1      1137 0.00000E+00 0.00000E+00 0.00000E+00
 -1      1138 0.00000E+00 0.00000E+00 0.00000E+00
 -1      1139 2.32101E-04-1.52848E-04-4.66207E-18
 -1      1140 6.17889E-04-3.41879E-04-8.77391E-17
 -1      1141 9.50298E-04-4.70303E-04-2.75292E-16
 -1      1142 1.27318E-03-5.73018E-04-5.83545E-16
 -1      1143 1.58973E-03-6.67205E-04-1.00478E-15
 -1      1144 1.89805E-03-7.58857E-04-1.53435E-15
 -1      1145 2.19444E-03-8.46810E-04-2.17341E-15
 -1      1146 2.47546E-03-9.24257E-04-2.92169E-15
 -1      1147 2.74028E-03-9.80551E-04-3.77918E-15
 -1      1148 2.99235E-03-1.00447E-03-4.74535E-15
 -1      1149 3.23936E-03-9.88545E-04-5.81952E-15
 -1      1150 3.49103E-03-9.32421E-04-6.99413E-15
 -1      1151 3.75581E-03-8.43399E-04-8.26346E-15
 -1      1152 4.03813E-03-7.33766E-04-9.62698E-15
 -1      1153 4.33777E-03-6.16659E-04-1.10773E-14
 -1      1154 4.65095E-03-5.02632E-04-1.26097E-14
 -1      1155 4.97237E-03-3.98136E-04-1.42222E-14
 -1      1156 5.29686E-03-3.05734E-04-1.59111E-14
 -1      1157 5.62042E-03-2.25226E-04-1.76688E-14
 -1      1158 5.94043E-03-1.54883E-04-1.94958E-14
 -1      1159 6.25557E-03-9.24149E-05-2.13906E-14
 -1      1160 6.56543E-03-3.55598E-05-2.33514E-14
 -1      1161 6.87024E-03 1.76197E-05-2.53825E-14
 -1      1162 7.17055E-03 6.86421E-05-2.74879E-14
 -1      1163 7.46707E-03 1.18619E-04-2.96585E-14
 -1      1164 7.76052E-03 1.68312E-04-3.18896E-14
 -1      1165 8.05156E-03 2.18212E-04-3.41773E-14
 -1      1166 8.34077E-03 2.68601E-04-3.65273E-14
 -1      1167 8.62864E-03 3.19621E-04-3.89414E-14
 -1      1168 8.91554E-03 3.71312E-04-4.14108E-14
 -1      1169 9.20178E-03 4.23657E-04-4.39330E-14
 -1      1170 9.48758E-03 4.76600E-04-4.65166E-14
 -1      1171 9.77312E-03 5.30069E-04-4.91567E-14
 -1      1172 1.00585E-02 5.83984E-04-5.18571E-14
 -1      1173 1.03438E-02 6.38270E-04-5.46236E-14
 -1      1174 1.06291E-02 6.92856E-04-5.74503E-14
 -1      1175 1.09144E-02 7.47680E-04-6.03256E-14
 -1      1176 1.11998E-02 8.02690E-04-6.32493E-14
 -1      1177 1.14852E-02 8.57840E-04-6.62254E-14
 -1      1178 1.17706E-02 9.13096E-04-6.92513E-14
 -1      1179 1.20561E-02 9.68429E-04-7.23351E-14
 -1      1180 1.23416E-02 1.02382E-03-7.54731E-14
 -1      1181 1.26272E-02 1.07924E-03-7.86576E-14
 -1      1182 1.29128E-02 1.13469E-03-8.18839E-14
 -1      1183 1.31985E-02 1.19015E-03-8.51399E-14
 -1      1184 1.34841E-02 1.24561E-03-8.84119E-14
 -1      1185 1.37698E-02 1.30108E-03-9.17114E-14
 -1      1186 1.40555E-02 1.35653E-03-9.50307E-14
 -1      1187 1.43412E-02 1.41198E-03-9.83656E-14
 -1      1188 1.46198E-02 1.46603E-03-1.01642E-13
 -1      1189 2.56485E-04 1.60135E-04 3.74050E-17
 -1      1190 6.51059E-04 3.25844E-04 7.78322E-17
 -1      1191 1.01939E-03 4.45078E-04 6.33987E-17
 -1      1192 1.39157E-03 5.54575E-04-1.72117E-17
 -1      1193 1.77022E-03 6.76146E-04-1.69081E-16
 -1      1194 2.15137E-03 8.23094E-04-3.98146E-16
 -1      1195 2.52406E-03 9.99741E-04-7.10139E-16
 -1      1196 2.87242E-03 1.19581E-03-1.10983E-15
 -1      1197 3.18285E-03 1.38206E-03-1.60710E-15
 -1      1198 3.45507E-03 1.51638E-03-2.21226E-15
 -1      1199 3.70858E-03 1.56417E-03-2.93408E-15
 -1      1200 3.97440E-03 1.52110E-03-3.76557E-15
 -1      1201 4.27654E-03 1.41672E-03-4.70651E-15
 -1      1202 4.61974E-03 1.29530E-03-5.75297E-15
 -1      1203 4.99235E-03 1.19264E-03-6.89421E-15
 -1      1204 5.37709E-03 1.12604E-03-8.13385E-15
 -1      1205 5.75954E-03 1.09736E-03-9.46370E-15
 -1      1206 6.13113E-03 1.10044E-03-1.08752E-14
 -1      1207 6.48837E-03 1.12693E-03-1.23684E-14
 -1      1208 6.83109E-03 1.16930E-03-1.39401E-14
 -1      1209 7.16078E-03 1.22170E-03-1.55897E-14
 -1      1210 7.47956E-03 1.28003E-03-1.73102E-14
 -1      1211 7.78959E-03 1.34151E-03-1.90965E-14
 -1      1212 8.09281E-03 1.40437E-03-2.09519E-14
 -1      1213 8.39085E-03 1.46752E-03-2.28740E-14
 -1      1214 8.68501E-03 1.53030E-03-2.48576E-14
 -1      1215 8.97634E-03 1.59239E-03-2.69132E-14
 -1      1216 9.26562E-03 1.65363E-03-2.90437E-14
 -1      1217 9.55345E-03 1.71399E-03-3.12460E-14
 -1      1218 9.84029E-03 1.77351E-03-3.35117E-14
 -1      1219 1.01265E-02 1.83226E-03-3.58417E-14
 -1      1220 1.04122E-02 1.89035E-03-3.82401E-14
 -1      1221 1.06977E-02 1.94787E-03-4.06917E-14
 -1      1222 1.09830E-02 2.00492E-03-4.32008E-14
 -1      1223 1.12683E-02 2.06158E-03-4.57770E-14
 -1      1224 1.15536E-02 2.11794E-03-4.84097E-14
 -1      1225 1.18389E-02 2.17405E-03-5.11151E-14
 -1      1226 1.21242E-02 2.22997E-03-5.39076E-14
 -1      1227 1.24096E-02 2.28576E-03-5.67659E-14
 -1      1228 1.26950E-02 2.34143E-03-5.96687E-14
 -1      1229 1.29805E-02 2.39703E-03-6.26145E-14
 -1      1230 1.32661E-02 2.45258E-03-6.56058E-14
 -1      1231 1.35517E-02 2.50809E-03-6.86353E-14
 -1      1232 1.38373E-02 2.56358E-03-7.17027E-14
 -1      1233 1.41229E-02 2.61905E-03-7.47997E-14
 -1      1234 1.44086E-02 2.67452E-03-7.79267E-14
 -1      1235 1.46943E-02 2.72999E-03-8.10954E-14
 -1      1236 1.49800E-02 2.78547E-03-8.43183E-14
 -1      1237 1.52657E-02 2.84095E-03-8.75987E-14
 -1      1238 1.55442E-02 2.89506E-03-9.08151E-14
 -1      1239 1.56527E-02 2.87928E-03-9.27192E-14
 -1      1240 1.55981E-02 2.79499E-03-9.34113E-14
 -1      1241 1.55435E-02 2.71071E-03-9.40796E-14
 -1      1242 1.54889E-02 2.62641E-03-9.47067E-14
 -1      1243 1.54343E-02 2.54210E-03-9.53324E-14
 -1      1244 1.53802E-02 2.45849E-03-9.59807E-14
 -1      1245 1.53261E-02 2.37487E-03-9.66353E-14
 -1      1246 1.52715E-02 2.29053E-03-9.72886E-14
 -1      1247 1.52169E-02 2.20618E-03-9.79603E-14
 -1      1248 1.51624E-02 2.12183E-03-9.86250E-14
 -1      1249 1.51079E-02 2.03749E-03-9.92968E-14
 -1      1250 1.50539E-02 1.95387E-03-9.99681E-14
 -1      1251 1.49998E-02 1.87026E-03-1.00603E-13
 -1      1252 1.49453E-02 1.78595E-03-1.01216E-13
 -1      1253 1.48908E-02 1.70165E-03-1.01802E-13
 -1      1254 1.48363E-02 1.61736E-03-1.02385E-13
 -1      1255 1.47823E-02 1.53379E-03-1.02965E-13
 -1      1256 5.62980E-03 4.33634E-04-6.49338E-15
 -1      1257 5.53938E-03 5.81653E-04-6.28228E-15
 -1      1258 5.33605E-03 7.37262E-04-5.96325E-15
 -1      1259 5.04915E-03 8.87831E-04-5.57941E-15
 -1      1260 4.68803E-03 1.02974E-03-5.14297E-15
 -1      1261 4.27847E-03 1.14593E-03-4.68023E-15
 -1      1262 3.85429E-03 1.21315E-03-4.23091E-15
 -1      1263 3.38856E-03 1.21961E-03-3.77240E-15
 -1      1264 2.92316E-03 1.16047E-03-3.35745E-15
 -1      1265 2.49904E-03 1.05047E-03-3.01958E-15
 -1      1266 2.08366E-03 8.97931E-04-2.73066E-15
 -1      1267 1.71035E-03 7.25794E-04-2.51116E-15
 -1      1268 1.41665E-03 5.57396E-04-2.36942E-15
 -1      1269 1.21269E-03 3.96848E-04-2.30252E-15
 -1      1270 1.12409E-03 2.52507E-04-2.31384E-15
 -1      1271 1.14934E-03 1.17041E-04-2.40065E-15
 -1      1272 1.28061E-03-1.63249E-05-2.56059E-15
 -1      1273 1.49955E-03-1.46499E-04-2.78458E-15
 -1      1274 1.81166E-03-2.81754E-04-3.09275E-15
 -1      1275 2.20344E-03-4.08844E-04-3.48555E-15
 -1      1276 2.62649E-03-5.02539E-04-3.92283E-15
 -1      1277 3.07102E-03-5.49097E-04-4.39579E-15
 -1      1278 3.50436E-03-5.41800E-04-4.86170E-15
 -1      1279 3.92074E-03-4.83163E-04-5.29820E-15
 -1      1280 4.31726E-03-3.86750E-04-5.69515E-15
 -1      1281 4.68163E-03-2.64673E-04-6.03218E-15
 -1      1282 5.01734E-03-1.23321E-04-6.30646E-15
 -1      1283 5.29330E-03 2.05736E-05-6.48860E-15
 -1      1284 5.49383E-03 1.60397E-04-6.58165E-15
 -1      1285 5.60965E-03 2.96253E-04-6.58813E-15
 -1      1286 1.86159E-04-1.09887E-04-1.91904E-17
 -1      1287 1.24921E-04-4.87625E-05-3.12250E-17
 -1      1288 1.31562E-04-6.19942E-05-2.76472E-17
 -1      1289 1.17219E-04-3.06593E-05-3.65783E-17
 -1      1290 1.20888E-04-3.88227E-05-3.52637E-17
 -1      1291 2.50607E-04-9.08210E-05-8.38766E-17
 -1      1292 1.11586E-04-1.69010E-05-3.83265E-17
 -1      1293 1.14546E-04-2.33772E-05-3.79606E-17
 -1      1294 2.35900E-04-5.75883E-05-9.21165E-17
 -1      1295 1.06093E-04-5.60748E-06-3.85298E-17
 -1      1296 1.08984E-04-1.09339E-05-3.86518E-17
 -1      1297 2.24083E-04-3.14240E-05-9.45966E-17
 -1      1298 1.00486E-04 3.05865E-06-3.76218E-17
 -1      1299 1.03391E-04-9.57953E-07-3.79742E-17
 -1      1300 2.12396E-04-1.02232E-05-9.40003E-17
 -1      1301 9.48188E-05 8.81076E-06-3.65512E-17
 -1      1302 9.76624E-05 6.24822E-06-3.68629E-17
 -1      1303 2.00177E-04 5.96130E-06-9.16015E-17
 -1      1304 8.99182E-05 1.10180E-05-3.49249E-17
 -1      1305 9.22417E-05 1.01215E-05-3.53314E-17
 -1      1306 1.88067E-04 1.61848E-05-8.83489E-17
 -1      1307 8.67924E-05 9.92337E-06-3.31901E-17
 -1      1308 8.80780E-05 1.04554E-05-3.36645E-17
 -1      1309 1.77977E-04 1.97658E-05-8.44322E-17
 -1      1310 8.63778E-05 6.74876E-06-3.09269E-17
 -1      1311 8.61948E-05 8.01761E-06-3.14961E-17
 -1      1312 1.72229E-04 1.76652E-05-7.97295E-17
 -1      1313 8.91431E-05 3.50449E-06-2.82706E-17
 -1      1314 8.73328E-05 4.51314E-06-2.90702E-17
 -1      1315 1.72772E-04 1.26427E-05-7.40510E-17
 -1      1316 9.47872E-05 2.37493E-06-2.47876E-17
 -1      1317 9.15814E-05 2.15493E-06-2.58853E-17
 -1      1318 1.80228E-04 8.68236E-06-6.72612E-17
 -1      1319 1.02840E-04 5.08176E-06-2.01120E-17
 -1      1320 9.84825E-05 2.86598E-06-2.17789E-17
 -1      1321 1.93836E-04 9.63737E-06-5.84520E-17
 -1      1322 1.12455E-04 1.29156E-05-1.39591E-17
 -1      1323 1.07331E-04 8.16329E-06-1.63443E-17
 -1      1324 2.12125E-04 1.86111E-05-4.70544E-17
 -1      1325 1.23353E-04 2.72492E-05-5.27193E-18
 -1      1326 1.17450E-04 1.91936E-05-9.03954E-18
 -1      1327 2.33480E-04 3.78919E-05-3.18484E-17
 -1      1328 1.37057E-04 5.20200E-05 7.03376E-18
 -1      1329 1.29228E-04 3.80821E-05 1.23328E-18
 -1      1330 2.58113E-04 7.06967E-05-1.15468E-17
 -1      1331 1.83324E-04 1.03897E-04 2.42997E-17
 -1      1332 1.60427E-04 7.36617E-05 1.46367E-17
 -1      1333 3.03284E-04 1.24074E-04 1.19669E-17
 -1      1334 3.94154E-04 2.05143E-04 4.20128E-17
 -1      1335 4.74010E-04-2.60036E-04-8.49743E-17
 -1      1336 6.49731E-04-3.35455E-04-1.50691E-16
 -1      1337 8.20254E-04-3.99220E-04-2.48838E-16
 -1      1338 9.87221E-04-4.54995E-04-3.75703E-16
 -1      1339 6.93114E-04-3.24603E-04-2.20744E-16
 -1      1340 1.15122E-03-5.06574E-04-5.29782E-16
 -1      1341 1.31281E-03-5.55145E-04-7.12036E-16
 -1      1342 1.03015E-03-4.38380E-04-4.76195E-16
 -1      1343 1.47234E-03-6.02717E-04-9.21382E-16
 -1      1344 1.62980E-03-6.49432E-04-1.15829E-15
 -1      1345 1.35619E-03-5.37202E-04-8.39877E-16
 -1      1346 1.78510E-03-6.95978E-04-1.42218E-15
 -1      1347 1.93796E-03-7.41920E-04-1.71213E-15
 -1      1348 1.67401E-03-6.31907E-04-1.31130E-15
 -1      1349 2.08813E-03-7.86897E-04-2.02945E-15
 -1      1350 2.23531E-03-8.29946E-04-2.37391E-15
 -1      1351 1.98369E-03-7.25009E-04-1.88830E-15
 -1      1352 2.37934E-03-8.69871E-04-2.74496E-15
 -1      1353 2.52016E-03-9.05307E-04-3.14359E-15
 -1      1354 2.28403E-03-8.12415E-04-2.57189E-15
 -1      1355 2.65792E-03-9.34597E-04-3.56913E-15
 -1      1356 2.79297E-03-9.56334E-04-4.02159E-15
 -1      1357 2.57413E-03-8.84587E-04-3.36253E-15
 -1      1358 2.92586E-03-9.69024E-04-4.50144E-15
 -1      1359 3.05735E-03-9.71732E-04-5.00770E-15
 -1      1360 2.85492E-03-9.29075E-04-4.26064E-15
 -1      1361 3.18831E-03-9.63800E-04-5.53989E-15
 -1      1362 3.31969E-03-9.45187E-04-6.09860E-15
 -1      1363 3.12989E-03-9.34905E-04-5.26505E-15
 -1      1364 3.45238E-03-9.16426E-04-6.68130E-15
 -1      1365 3.58722E-03-8.78430E-04-7.28774E-15
 -1      1366 3.40454E-03-8.97340E-04-6.37301E-15
 -1      1367 3.72483E-03-8.32726E-04-7.91942E-15
 -1      1368 3.86564E-03-7.80847E-04-8.57391E-15
 -1      1369 3.68459E-03-8.20367E-04-7.57861E-15
 -1      1370 4.00984E-03-7.24715E-04-9.25169E-15
 -1      1371 4.15742E-03-6.65971E-04-9.95186E-15
 -1      1372 3.97392E-03-7.15310E-04-8.88070E-15
 -1      1373 4.30816E-03-6.06303E-04-1.06731E-14
 -1      1374 4.46171E-03-5.47043E-04-1.14155E-14
 -1      1375 4.27360E-03-5.96563E-04-1.02731E-14
 -1      1376 4.61759E-03-4.89286E-04-1.21781E-14
 -1      1377 4.77531E-03-4.33878E-04-1.29607E-14
 -1      1378 4.58214E-03-4.77079E-04-1.17499E-14
 -1      1379 4.93433E-03-3.81276E-04-1.37631E-14
 -1      1380 5.09416E-03-3.31867E-04-1.45853E-14
 -1      1381 4.89661E-03-3.65695E-04-1.33084E-14
 -1      1382 5.25433E-03-2.85631E-04-1.54247E-14
 -1      1383 5.41446E-03-2.42621E-04-1.62824E-14
 -1      1384 5.21376E-03-2.66693E-04-1.49434E-14
 -1      1385 5.57419E-03-2.02547E-04-1.71583E-14
 -1      1386 5.73328E-03-1.65269E-04-1.80507E-14
 -1      1387 5.53081E-03-1.80796E-04-1.66513E-14
 -1      1388 5.89152E-03-1.30399E-04-1.89601E-14
 -1      1389 6.04877E-03-9.77086E-05-1.98862E-14
 -1      1390 5.84573E-03-1.06572E-04-1.84285E-14
 -1      1391 6.20493E-03-6.68238E-05-2.08289E-14
 -1      1392 6.35997E-03-3.74971E-05-2.17910E-14
 -1      1393 6.15729E-03-4.16446E-05-2.02734E-14
 -1      1394 6.51387E-03-9.41774E-06-2.27684E-14
 -1      1395 6.66665E-03 1.76412E-05-2.37614E-14
 -1      1396 6.46495E-03 1.65105E-05-2.21865E-14
 -1      1397 6.81836E-03 4.39129E-05-2.47745E-14
 -1      1398 6.96903E-03 6.95869E-05-2.58048E-14
 -1      1399 6.76867E-03 7.01374E-05-2.41705E-14
 -1      1400 7.11876E-03 9.48241E-05-2.68525E-14
 -1      1401 7.26759E-03 1.19773E-04-2.79177E-14
 -1      1402 7.06871E-03 1.21035E-04-2.62234E-14
 -1      1403 7.41562E-03 1.44535E-04-2.89984E-14
 -1      1404 7.56290E-03 1.69221E-04-3.00948E-14
 -1      1405 7.36549E-03 1.70539E-04-2.83433E-14
 -1      1406 7.70953E-03 1.93888E-04-3.12061E-14
 -1      1407 7.85557E-03 2.18614E-04-3.23320E-14
 -1      1408 7.65953E-03 2.19582E-04-3.05276E-14
 -1      1409 8.00110E-03 2.43425E-04-3.34740E-14
 -1      1410 8.14616E-03 2.68373E-04-3.46290E-14
 -1      1411 7.95133E-03 2.68767E-04-3.27729E-14
 -1      1412 8.29083E-03 2.93464E-04-3.57998E-14
 -1      1413 8.43515E-03 3.18730E-04-3.69877E-14
 -1      1414 8.24135E-03 3.18454E-04-3.50776E-14
 -1      1415 8.57917E-03 3.44165E-04-3.81907E-14
 -1      1416 8.72294E-03 3.69785E-04-3.94091E-14
 -1      1417 8.53001E-03 3.68825E-04-3.74441E-14
 -1      1418 8.86650E-03 3.95578E-04-4.06406E-14
 -1      1419 9.00988E-03 4.21551E-04-4.18842E-14
 -1      1420 8.81764E-03 4.19946E-04-3.98715E-14
 -1      1421 9.15311E-03 4.47688E-04-4.31439E-14
 -1      1422 9.29621E-03 4.73989E-04-4.44181E-14
 -1      1423 9.10452E-03 4.71806E-04-4.23571E-14
 -1      1424 9.43921E-03 5.00438E-04-4.57078E-14
 -1      1425 9.58213E-03 5.27030E-04-4.70112E-14
 -1      1426 9.39087E-03 5.24348E-04-4.49011E-14
 -1      1427 9.72499E-03 5.53751E-04-4.83300E-14
 -1      1428 9.86780E-03 5.80594E-04-4.96627E-14
 -1      1429 9.67685E-03 5.77492E-04-4.75046E-14
 -1      1430 1.00106E-02 6.07544E-04-5.10121E-14
 -1      1431 1.01533E-02 6.34596E-04-5.23769E-14
 -1      1432 9.96260E-03 6.31151E-04-5.01680E-14
 -1      1433 1.02960E-02 6.61737E-04-5.37569E-14
 -1      1434 1.04387E-02 6.88959E-04-5.51515E-14
 -1      1435 1.02482E-02 6.85239E-04-5.28931E-14
 -1      1436 1.05814E-02 7.16252E-04-5.65593E-14
 -1      1437 1.07241E-02 7.43610E-04-5.79827E-14
 -1      1438 1.05337E-02 7.39675E-04-5.56762E-14
 -1      1439 1.08668E-02 7.71024E-04-5.94188E-14
 -1      1440 1.10095E-02 7.98488E-04-6.08650E-14
 -1      1441 1.08192E-02 7.94387E-04-5.85133E-14
 -1      1442 1.11522E-02 8.25995E-04-6.23249E-14
 -1      1443 1.12950E-02 8.53541E-04-6.37999E-14
 -1      1444 1.11047E-02 8.49316E-04-6.14047E-14
 -1      1445 1.14377E-02 8.81119E-04-6.52857E-14
 -1      1446 1.15804E-02 9.08726E-04-6.67806E-14
 -1      1447 1.13902E-02 9.04409E-04-6.43453E-14
 -1      1448 1.17232E-02 9.36357E-04-6.82931E-14
 -1      1449 1.18659E-02 9.64009E-04-6.98195E-14
 -1      1450 1.16757E-02 9.59626E-04-6.73373E-14
 -1      1451 1.20087E-02 9.91679E-04-7.13568E-14
 -1      1452 1.21514E-02 1.01936E-03-7.29080E-14
 -1      1453 1.19612E-02 1.01493E-03-7.03809E-14
 -1      1454 1.22942E-02 1.04706E-03-7.44736E-14
 -1      1455 1.24370E-02 1.07477E-03-7.60533E-14
 -1      1456 1.22468E-02 1.07031E-03-7.34801E-14
 -1      1457 1.25798E-02 1.10248E-03-7.76424E-14
 -1      1458 1.27226E-02 1.13020E-03-7.92405E-14
 -1      1459 1.25324E-02 1.12572E-03-7.66297E-14
 -1      1460 1.28654E-02 1.15793E-03-8.08492E-14
 -1      1461 1.30082E-02 1.18566E-03-8.24658E-14
 -1      1462 1.28180E-02 1.18117E-03-7.98208E-14
 -1      1463 1.31511E-02 1.21339E-03-8.40897E-14
 -1      1464 1.32939E-02 1.24112E-03-8.57195E-14
 -1      1465 1.31036E-02 1.23663E-03-8.30445E-14
 -1      1466 1.34367E-02 1.26886E-03-8.73560E-14
 -1      1467 1.35796E-02 1.29659E-03-8.89945E-14
 -1      1468 1.33893E-02 1.29210E-03-8.62990E-14
 -1      1469 1.37224E-02 1.32432E-03-9.06427E-14
 -1      1470 1.38652E-02 1.35205E-03-9.22968E-14
 -1      1471 1.36750E-02 1.34757E-03-8.95781E-14
 -1      1472 1.40081E-02 1.37978E-03-9.39560E-14
 -1      1473 1.41509E-02 1.40751E-03-9.56178E-14
 -1      1474 1.39607E-02 1.40303E-03-9.28803E-14
 -1      1475 1.42938E-02 1.43523E-03-9.72844E-14
 -1      1476 1.44367E-02 1.46296E-03-9.89576E-14
 -1      1477 1.42464E-02 1.45849E-03-9.62034E-14
 -1      1478 1.46466E-02 1.50746E-03-1.01363E-13
 -1      1479 1.45992E-02 1.53072E-03-1.00272E-13
 -1      1480 7.75262E-04 3.43753E-04 4.77862E-17
 -1      1481 5.86920E-04 2.79668E-04 5.21230E-17
 -1      1482 5.31795E-04 2.34545E-04 2.98698E-17
 -1      1483 1.14641E-03 4.54010E-04-8.48388E-18
 -1      1484 9.61203E-04 3.99946E-04 2.78233E-17
 -1      1485 9.03497E-04 3.54697E-04-3.71339E-18
 -1      1486 1.51750E-03 5.65950E-04-1.31853E-16
 -1      1487 1.33154E-03 5.08649E-04-6.15014E-17
 -1      1488 1.27060E-03 4.63030E-04-1.01441E-16
 -1      1489 1.89074E-03 6.97282E-04-3.28839E-16
 -1      1490 1.70389E-03 6.28660E-04-2.20947E-16
 -1      1491 1.63755E-03 5.81705E-04-2.68733E-16
 -1      1492 2.26188E-03 8.58365E-04-6.05107E-16
 -1      1493 2.07706E-03 7.74212E-04-4.56192E-16
 -1      1494 2.00511E-03 7.25732E-04-5.10795E-16
 -1      1495 2.62151E-03 1.04849E-03-9.65889E-16
 -1      1496 2.44393E-03 9.50880E-04-7.74568E-16
 -1      1497 2.36930E-03 9.01866E-04-8.34781E-16
 -1      1498 2.95851E-03 1.24900E-03-1.42079E-15
 -1      1499 2.79353E-03 1.14965E-03-1.18151E-15
 -1      1500 2.72245E-03 1.10247E-03-1.24775E-15
 -1      1501 3.26681E-03 1.42172E-03-1.97601E-15
 -1      1502 3.11622E-03 1.34157E-03-1.68508E-15
 -1      1503 3.05671E-03 1.29922E-03-1.75765E-15
 -1      1504 3.55263E-03 1.52221E-03-2.64407E-15
 -1      1505 3.41146E-03 1.48281E-03-2.29569E-15
 -1      1506 3.37025E-03 1.44701E-03-2.37284E-15
 -1      1507 3.83494E-03 1.52579E-03-3.42421E-15
 -1      1508 3.69264E-03 1.53565E-03-3.02021E-15
 -1      1509 3.67222E-03 1.50504E-03-3.10028E-15
 -1      1510 4.13505E-03 1.44558E-03-4.31385E-15
 -1      1511 3.98165E-03 1.49362E-03-3.85494E-15
 -1      1512 3.97940E-03 1.46453E-03-3.93916E-15
 -1      1513 4.46418E-03 1.32341E-03-5.31151E-15
 -1      1514 4.29586E-03 1.38669E-03-4.79960E-15
 -1      1515 4.30521E-03 1.35580E-03-4.88695E-15
 -1      1516 4.81959E-03 1.20400E-03-6.40930E-15
 -1      1517 4.63921E-03 1.26129E-03-5.84817E-15
 -1      1518 4.65208E-03 1.22723E-03-5.93925E-15
 -1      1519 5.19021E-03 1.11553E-03-7.60224E-15
 -1      1520 5.00385E-03 1.15515E-03-6.99417E-15
 -1      1521 5.01331E-03 1.11827E-03-7.08832E-15
 -1      1522 5.56387E-03 1.06700E-03-8.89020E-15
 -1      1523 5.37737E-03 1.08644E-03-8.23487E-15
 -1      1524 5.37931E-03 1.04778E-03-8.33200E-15
 -1      1525 5.93160E-03 1.05498E-03-1.02619E-14
 -1      1526 5.74892E-03 1.05696E-03-9.56604E-15
 -1      1527 5.74207E-03 1.01754E-03-9.66381E-15
 -1      1528 6.28852E-03 1.07127E-03-1.17151E-14
 -1      1529 6.11161E-03 1.06016E-03-1.09787E-14
 -1      1530 6.09663E-03 1.02073E-03-1.10787E-14
 -1      1531 6.63301E-03 1.10733E-03-1.32503E-14
 -1      1532 6.46235E-03 1.08730E-03-1.24724E-14
 -1      1533 6.44076E-03 1.04832E-03-1.25738E-14
 -1      1534 6.96546E-03 1.15623E-03-1.48599E-14
 -1      1535 6.80067E-03 1.13052E-03-1.40456E-14
 -1      1536 6.77416E-03 1.09221E-03-1.41473E-14
 -1      1537 7.28729E-03 1.21288E-03-1.65456E-14
 -1      1538 7.12760E-03 1.18382E-03-1.56933E-14
 -1      1539 7.09764E-03 1.14624E-03-1.57957E-14
 -1      1540 7.60026E-03 1.27382E-03-1.83022E-14
 -1      1541 7.44477E-03 1.24297E-03-1.74152E-14
 -1      1542 7.41255E-03 1.20610E-03-1.75175E-14
 -1      1543 7.90612E-03 1.33682E-03-2.01218E-14
 -1      1544 7.75397E-03 1.30517E-03-1.92039E-14
 -1      1545 7.72035E-03 1.26893E-03-1.93084E-14
 -1      1546 8.20642E-03 1.40046E-03-2.20144E-14
 -1      1547 8.05687E-03 1.36862E-03-2.10605E-14
 -1      1548 8.02244E-03 1.33292E-03-2.11661E-14
 -1      1549 8.50247E-03 1.46391E-03-2.39698E-14
 -1      1550 8.35490E-03 1.43225E-03-2.29835E-14
 -1      1551 8.32008E-03 1.39699E-03-2.30899E-14
 -1      1552 8.79533E-03 1.52671E-03-2.59903E-14
 -1      1553 8.64924E-03 1.49541E-03-2.49711E-14
 -1      1554 8.61428E-03 1.46052E-03-2.50811E-14
 -1      1555 9.08583E-03 1.58865E-03-2.80871E-14
 -1      1556 8.94083E-03 1.55780E-03-2.70295E-14
 -1      1557 8.90590E-03 1.52319E-03-2.71423E-14
 -1      1558 9.37462E-03 1.64964E-03-3.02538E-14
 -1      1559 9.23040E-03 1.61926E-03-2.91613E-14
 -1      1560 9.19559E-03 1.58487E-03-2.92752E-14
 -1      1561 9.66220E-03 1.70972E-03-3.24891E-14
 -1      1562 9.51853E-03 1.67979E-03-3.13643E-14
 -1      1563 9.48389E-03 1.64558E-03-3.14785E-14
 -1      1564 9.94893E-03 1.76896E-03-3.47881E-14
 -1      1565 9.80564E-03 1.73944E-03-3.36309E-14
 -1      1566 9.77118E-03 1.70535E-03-3.37473E-14
 -1      1567 1.02351E-02 1.82745E-03-3.71535E-14
 -1      1568 1.00921E-02 1.79829E-03-3.59621E-14
 -1      1569 1.00578E-02 1.76430E-03-3.60800E-14
 -1      1570 1.05209E-02 1.88530E-03-3.95778E-14
 -1      1571 1.03780E-02 1.85645E-03-3.83585E-14
 -1      1572 1.03439E-02 1.82252E-03-3.84763E-14
 -1      1573 1.08064E-02 1.94261E-03-4.20611E-14
 -1      1574 1.06637E-02 1.91401E-03-4.08125E-14
 -1      1575 1.06297E-02 1.88014E-03-4.09310E-14
 -1      1576 1.10919E-02 1.99948E-03-4.46067E-14
 -1      1577 1.09492E-02 1.97109E-03-4.33248E-14
 -1      1578 1.09153E-02 1.93725E-03-4.34452E-14
 -1      1579 1.13773E-02 2.05599E-03-4.72148E-14
 -1      1580 1.12346E-02 2.02778E-03-4.59032E-14
 -1      1581 1.12008E-02 1.99396E-03-4.60263E-14
 -1      1582 1.16626E-02 2.11223E-03-4.98828E-14
 -1      1583 1.15199E-02 2.08414E-03-4.85420E-14
 -1      1584 1.14863E-02 2.05034E-03-4.86686E-14
 -1      1585 1.19480E-02 2.16825E-03-5.26323E-14
 -1      1586 1.18053E-02 2.14026E-03-5.12479E-14
 -1      1587 1.17717E-02 2.10647E-03-5.13767E-14
 -1      1588 1.22334E-02 2.22410E-03-5.54507E-14
 -1      1589 1.20907E-02 2.19619E-03-5.40321E-14
 -1      1590 1.20572E-02 2.16240E-03-5.41549E-14
 -1      1591 1.25189E-02 2.27982E-03-5.83276E-14
 -1      1592 1.23762E-02 2.25197E-03-5.68822E-14
 -1      1593 1.23427E-02 2.21819E-03-5.69975E-14
 -1      1594 1.28044E-02 2.33546E-03-6.12486E-14
 -1      1595 1.26616E-02 2.30765E-03-5.97839E-14
 -1      1596 1.26282E-02 2.27386E-03-5.98951E-14
 -1      1597 1.30899E-02 2.39103E-03-6.42176E-14
 -1      1598 1.29471E-02 2.36325E-03-6.27273E-14
 -1      1599 1.29137E-02 2.32946E-03-6.28398E-14
 -1      1600 1.33755E-02 2.44655E-03-6.72280E-14
 -1      1601 1.32327E-02 2.41879E-03-6.57191E-14
 -1      1602 1.31993E-02 2.38500E-03-6.58295E-14
 -1      1603 1.36611E-02 2.50204E-03-7.02785E-14
 -1      1604 1.35183E-02 2.47430E-03-6.87473E-14
 -1      1605 1.34849E-02 2.44051E-03-6.88603E-14
 -1      1606 1.39467E-02 2.55752E-03-7.33553E-14
 -1      1607 1.38039E-02 2.52978E-03-7.18140E-14
 -1      1608 1.37705E-02 2.49599E-03-7.19242E-14
 -1      1609 1.42324E-02 2.61299E-03-7.64765E-14
 -1      1610 1.40895E-02 2.58525E-03-7.49124E-14
 -1      1611 1.40562E-02 2.55146E-03-7.50243E-14
 -1      1612 1.45180E-02 2.66845E-03-7.96217E-14
 -1      1613 1.43752E-02 2.64072E-03-7.80440E-14
 -1      1614 1.43418E-02 2.60692E-03-7.81573E-14
 -1      1615 1.48037E-02 2.72393E-03-8.28186E-14
 -1      1616 1.46609E-02 2.69619E-03-8.12136E-14
 -1      1617 1.46275E-02 2.66239E-03-8.13300E-14
 -1      1618 1.50894E-02 2.77941E-03-8.60676E-14
 -1      1619 1.49466E-02 2.75166E-03-8.44365E-14
 -1      1620 1.49132E-02 2.71786E-03-8.45504E-14
 -1      1621 1.53751E-02 2.83490E-03-8.93500E-14
 -1      1622 1.52323E-02 2.80715E-03-8.77058E-14
 -1      1623 1.51989E-02 2.77335E-03-8.78136E-14
 -1      1624 1.55170E-02 2.85292E-03-9.11557E-14
 -1      1625 1.54607E-02 2.74989E-03-9.21487E-14
 -1      1626 1.54880E-02 2.79203E-03-9.18079E-14
 -1      1627 1.54061E-02 2.66560E-03-9.28132E-14
 -1      1628 1.54334E-02 2.70774E-03-9.24872E-14
 -1      1629 1.53234E-02 2.70478E-03-9.08916E-14
 -1      1630 1.53515E-02 2.58129E-03-9.34515E-14
 -1      1631 1.53788E-02 2.62345E-03-9.31345E-14
 -1      1632 1.52688E-02 2.62049E-03-9.15549E-14
 -1      1633 1.52969E-02 2.49698E-03-9.40909E-14
 -1      1634 1.53242E-02 2.53914E-03-9.37704E-14
 -1      1635 1.52142E-02 2.53618E-03-9.22022E-14
 -1      1636 1.52433E-02 2.41409E-03-9.47396E-14
 -1      1637 1.52701E-02 2.45554E-03-9.44131E-14
 -1      1638 1.51600E-02 2.45258E-03-9.28477E-14
 -1      1639 1.51887E-02 2.32976E-03-9.53920E-14
 -1      1640 1.52160E-02 2.37192E-03-9.50662E-14
 -1      1641 1.51059E-02 2.36898E-03-9.34962E-14
 -1      1642 1.51341E-02 2.24542E-03-9.60473E-14
 -1      1643 1.51614E-02 2.28759E-03-9.57181E-14
 -1      1644 1.50513E-02 2.28465E-03-9.41469E-14
 -1      1645 1.50796E-02 2.16108E-03-9.67155E-14
 -1      1646 1.51069E-02 2.20325E-03-9.63831E-14
 -1      1647 1.49968E-02 2.20031E-03-9.48051E-14
 -1      1648 1.50251E-02 2.07674E-03-9.73724E-14
 -1      1649 1.50523E-02 2.11891E-03-9.70454E-14
 -1      1650 1.49422E-02 2.11598E-03-9.54652E-14
 -1      1651 1.49705E-02 1.99240E-03-9.80387E-14
 -1      1652 1.49978E-02 2.03457E-03-9.77042E-14
 -1      1653 1.48877E-02 2.03164E-03-9.61193E-14
 -1      1654 1.49170E-02 1.90950E-03-9.86797E-14
 -1      1655 1.49438E-02 1.95095E-03-9.83639E-14
 -1      1656 1.48337E-02 1.94803E-03-9.67655E-14
 -1      1657 1.48625E-02 1.82518E-03-9.93086E-14
 -1      1658 1.48897E-02 1.86734E-03-9.89971E-14
 -1      1659 1.47796E-02 1.86442E-03-9.73979E-14
 -1      1660 1.48080E-02 1.74088E-03-9.99116E-14
 -1      1661 1.48352E-02 1.78303E-03-9.96147E-14
 -1      1662 1.47251E-02 1.78011E-03-9.80146E-14
 -1      1663 1.47535E-02 1.65658E-03-1.00498E-13
 -1      1664 1.47808E-02 1.69873E-03-1.00209E-13
 -1      1665 1.46707E-02 1.69580E-03-9.86121E-14
 -1      1666 1.46627E-02 1.57258E-03-1.00534E-13
 -1      1667 1.46900E-02 1.61472E-03-1.00241E-13
 -1      1668 1.45799E-02 1.61179E-03-9.86498E-14
 -1      1669 1.44528E-02 1.52807E-03-9.81338E-14
 -1      1670 5.63170E-03 4.39168E-04-6.71767E-15
 -1      1671 5.65101E-03 3.96677E-04-6.79808E-15
 -1      1672 5.48529E-03 5.43349E-04-6.47461E-15
 -1      1673 5.57094E-03 4.90691E-04-6.61673E-15
 -1      1674 5.21933E-03 6.91687E-04-6.05706E-15
 -1      1675 5.35544E-03 6.22798E-04-6.24569E-15
 -1      1676 4.89060E-03 8.57187E-04-5.60934E-15
 -1      1677 5.04857E-03 7.81040E-04-5.81245E-15
 -1      1678 4.47888E-03 1.02770E-03-5.12462E-15
 -1      1679 4.66587E-03 9.41657E-04-5.36942E-15
 -1      1680 4.10636E-03 1.17914E-03-4.60106E-15
 -1      1681 4.28208E-03 1.11891E-03-4.82595E-15
 -1      1682 3.72067E-03 1.26280E-03-4.11232E-15
 -1      1683 3.89911E-03 1.23271E-03-4.33678E-15
 -1      1684 3.31226E-03 1.26572E-03-3.60923E-15
 -1      1685 3.50003E-03 1.28154E-03-3.83518E-15
 -1      1686 2.90679E-03 1.15899E-03-3.20067E-15
 -1      1687 3.08584E-03 1.21509E-03-3.37905E-15
 -1      1688 2.51072E-03 9.98974E-04-2.86996E-15
 -1      1689 2.69052E-03 1.07834E-03-3.01649E-15
 -1      1690 2.10052E-03 7.88372E-04-2.57257E-15
 -1      1691 2.29843E-03 8.88687E-04-2.69840E-15
 -1      1692 1.70650E-03 6.01828E-04-2.38261E-15
 -1      1693 1.87389E-03 6.86865E-04-2.46468E-15
 -1      1694 1.39610E-03 4.25870E-04-2.23695E-15
 -1      1695 1.53469E-03 4.95454E-04-2.28596E-15
 -1      1696 1.17769E-03 3.13072E-04-2.20823E-15
 -1      1697 1.25973E-03 3.66606E-04-2.22078E-15
 -1      1698 1.10439E-03 2.18301E-04-2.23711E-15
 -1      1699 1.12115E-03 2.59004E-04-2.21421E-15
 -1      1700 1.16680E-03 1.31119E-04-2.33138E-15
 -1      1701 1.12033E-03 1.71790E-04-2.27188E-15
 -1      1702 1.34967E-03 2.32497E-05-2.52286E-15
 -1      1703 1.25220E-03 7.29755E-05-2.43166E-15
 -1      1704 1.62065E-03-1.01608E-04-2.76848E-15
 -1      1705 1.48612E-03-4.10058E-05-2.64650E-15
 -1      1706 1.99327E-03-2.55100E-04-3.10534E-15
 -1      1707 1.81305E-03-1.76202E-04-2.93053E-15
 -1      1708 2.40550E-03-4.17424E-04-3.52626E-15
 -1      1709 2.22242E-03-3.42708E-04-3.32334E-15
 -1      1710 2.79381E-03-5.44717E-04-4.01155E-15
 -1      1711 2.61453E-03-4.93989E-04-3.78877E-15
 -1      1712 3.18826E-03-6.01422E-04-4.53497E-15
 -1      1713 3.00808E-03-5.85151E-04-4.29043E-15
 -1      1714 3.55763E-03-5.71642E-04-5.02647E-15
 -1      1715 3.39241E-03-5.92859E-04-4.80665E-15
 -1      1716 3.92561E-03-4.74857E-04-5.52130E-15
 -1      1717 3.75172E-03-5.29610E-04-5.30023E-15
 -1      1718 4.30140E-03-3.34084E-04-5.93072E-15
 -1      1719 4.13595E-03-4.02163E-04-5.74643E-15
 -1      1720 4.66740E-03-1.70621E-04-6.29679E-15
 -1      1721 4.49789E-03-2.48573E-04-6.13526E-15
 -1      1722 5.01087E-03 3.78838E-06-6.62044E-15
 -1      1723 4.85147E-03-7.17573E-05-6.49738E-15
 -1      1724 5.31240E-03 1.36018E-04-6.77389E-15
 -1      1725 5.18657E-03 7.46274E-05-6.70234E-15
 -1      1726 5.52611E-03 2.55147E-04-6.87859E-15
 -1      1727 5.43718E-03 2.05605E-04-6.85195E-15
 -1      1728 5.63819E-03 3.47001E-04-6.84068E-15
 -1      1729 5.60069E-03 3.05411E-04-6.86238E-15
 -1      1730 4.71317E-03 8.63851E-04-5.59938E-15
 -1      1731 5.09694E-03 6.85037E-04-6.09570E-15
 -1      1732 1.54836E-02 2.81911E-03-9.12591E-14
 -1      1733 1.53462E-02 2.77401E-03-9.00027E-14
 -1      1734 5.60443E-03 4.43016E-04-6.92764E-15
 -1      1735 5.40507E-03 5.35286E-04-6.58312E-15
 -1      1736 5.65431E-03 3.80110E-04-7.07969E-15
 -1      1737 4.32847E-03 1.05947E-03-5.04664E-15
 -1      1738 3.96119E-03 1.21873E-03-4.47876E-15
 -1      1739 3.59311E-03 1.30031E-03-3.93671E-15
 -1      1740 3.23997E-03 1.26565E-03-3.43787E-15
 -1      1741 2.86070E-03 1.12186E-03-3.03503E-15
 -1      1742 2.46912E-03 9.15774E-04-2.69140E-15
 -1      1743 2.05532E-03 6.89092E-04-2.42756E-15
 -1      1744 1.65985E-03 4.84309E-04-2.23299E-15
 -1      1745 1.34329E-03 3.43792E-04-2.12923E-15
 -1      1746 1.14577E-03 2.59532E-04-2.12127E-15
 -1      1747 1.10373E-03 1.97330E-04-2.15940E-15
 -1      1748 1.21047E-03 1.35964E-04-2.28644E-15
 -1      1749 1.43978E-03 3.87441E-05-2.50132E-15
 -1      1750 1.76730E-03-9.37066E-05-2.77563E-15
 -1      1751 2.16800E-03-2.67248E-04-3.14181E-15
 -1      1752 2.56251E-03-4.51579E-04-3.60977E-15
 -1      1753 2.93284E-03-5.84003E-04-4.14564E-15
 -1      1754 3.27955E-03-6.24026E-04-4.69649E-15
 -1      1755 3.62159E-03-5.68534E-04-5.24673E-15
 -1      1756 3.96439E-03-4.37121E-04-5.75627E-15
 -1      1757 4.33400E-03-2.63286E-04-6.19681E-15
 -1      1758 4.70004E-03-7.05344E-05-6.61329E-15
 -1      1759 5.05468E-03 9.84888E-05-6.90892E-15
 -1      1760 5.35761E-03 2.26102E-04-7.07712E-15
 -1      1761 5.56403E-03 3.14923E-04-7.14161E-15
 -1      1762 3.21117E-04-1.71123E-04-6.77897E-17
 -1      1763 3.56041E-04-8.26748E-05-1.42681E-16
 -1      1764 3.66129E-04-1.04081E-04-1.39456E-16
 -1      1765 3.77697E-04-1.28442E-04-1.34482E-16
 -1      1766 3.92588E-04-1.56116E-04-1.25930E-16
 -1      1767 5.03973E-04-1.59138E-04-2.03966E-16
 -1      1768 3.18630E-04-1.53415E-05-1.42505E-16
 -1      1769 3.28107E-04-2.94341E-05-1.43914E-16
 -1      1770 2.98652E-04 7.72877E-06-1.38642E-16
 -1      1771 3.08670E-04-2.74897E-06-1.40743E-16
 -1      1772 4.23428E-04-1.83411E-05-2.08411E-16
 -1      1773 2.79306E-04 2.20066E-05-1.33303E-16
 -1      1774 2.88652E-04 1.60460E-05-1.36203E-16
 -1      1775 3.94926E-04 1.05923E-05-2.02149E-16
 -1      1776 2.63923E-04 2.71843E-05-1.27096E-16
 -1      1777 2.70790E-04 2.56702E-05-1.30348E-16
 -1      1778 3.67946E-04 2.82813E-05-1.94059E-16
 -1      1779 2.56476E-04 2.52201E-05-1.19669E-16
 -1      1780 2.58921E-04 2.68546E-05-1.23680E-16
 -1      1781 3.47825E-04 3.48399E-05-1.84613E-16
 -1      1782 2.59929E-04 2.05315E-05-1.10765E-16
 -1      1783 2.56728E-04 2.28454E-05-1.15481E-16
 -1      1784 3.40380E-04 3.35053E-05-1.73432E-16
 -1      1785 2.74516E-04 1.88470E-05-9.99770E-17
 -1      1786 2.65929E-04 1.89708E-05-1.05859E-16
 -1      1787 3.49150E-04 3.05482E-05-1.60150E-16
 -1      1788 2.98926E-04 2.53583E-05-8.60721E-17
 -1      1789 2.85752E-04 2.08099E-05-9.36615E-17
 -1      1790 3.73845E-04 3.32078E-05-1.43968E-16
 -1      1791 3.30054E-04 4.39669E-05-6.78440E-17
 -1      1792 3.13894E-04 3.30188E-05-7.78457E-17
 -1      1793 4.11409E-04 4.77409E-05-1.23274E-16
 -1      1794 3.65916E-04 7.76426E-05-4.37205E-17
 -1      1795 3.47490E-04 5.88234E-05-5.69342E-17
 -1      1796 4.57338E-04 7.82003E-05-9.63720E-17
 -1      1797 4.08475E-04 1.31087E-04-1.17229E-17
 -1      1798 3.86164E-04 1.01633E-04-2.92192E-17
 -1      1799 5.09742E-04 1.27741E-04-6.13658E-17
 -1      1800 4.85253E-04 1.97083E-04 1.45148E-17
 -1      1801 4.44743E-04 1.59903E-04-1.16552E-18
 -1      1802 5.78676E-04 1.90540E-04-2.81757E-17
 -1      1803 6.68153E-04 2.59648E-04 2.04643E-18
 -1      1804 3.82856E-04-1.79830E-04-1.01820E-16
 -1      1805 1.03234E-03 3.69879E-04-6.92399E-17
 -1      1806 8.50339E-04 3.16105E-04-2.56549E-17
 -1      1807 7.99952E-04 2.78818E-04-4.51299E-17
 -1      1808 5.15907E-04-2.21638E-04-1.67157E-16
 -1      1809 9.12485E-04-3.69788E-04-4.22527E-16
 -1      1810 1.07825E-03-4.21251E-04-5.78097E-16
 -1      1811 1.24187E-03-4.70643E-04-7.60039E-16
 -1      1812 1.40385E-03-5.18550E-04-9.68233E-16
 -1      1813 1.12966E-03-4.03730E-04-6.81828E-16
 -1      1814 1.56439E-03-5.66237E-04-1.20237E-15
 -1      1815 1.72313E-03-6.13595E-04-1.46320E-15
 -1      1816 1.45530E-03-4.99544E-04-1.09681E-15
 -1      1817 1.88050E-03-6.60803E-04-1.74983E-15
 -1      1818 2.03579E-03-7.07185E-04-2.06259E-15
 -1      1819 1.77697E-03-5.94749E-04-1.61440E-15
 -1      1820 2.18932E-03-7.51932E-04-2.40177E-15
 -1      1821 2.34055E-03-7.93769E-04-2.76724E-15
 -1      1822 2.09361E-03-6.88674E-04-2.23541E-15
 -1      1823 2.48956E-03-8.31158E-04-3.15950E-15
 -1      1824 2.63646E-03-8.62428E-04-3.57821E-15
 -1      1825 2.40336E-03-7.74266E-04-2.96056E-15
 -1      1826 2.78109E-03-8.85834E-04-4.02354E-15
 -1      1827 2.92441E-03-8.99868E-04-4.49597E-15
 -1      1828 2.70483E-03-8.39044E-04-3.79118E-15
 -1      1829 3.06614E-03-9.03316E-04-4.99443E-15
 -1      1830 3.20791E-03-8.95494E-04-5.51868E-15
 -1      1831 2.99892E-03-8.68756E-04-4.72741E-15
 -1      1832 3.34937E-03-8.76349E-04-6.06923E-15
 -1      1833 3.49225E-03-8.46388E-04-6.64342E-15
 -1      1834 3.28953E-03-8.53330E-04-5.76867E-15
 -1      1835 3.63619E-03-8.06805E-04-7.24308E-15
 -1      1836 3.78238E-03-7.59097E-04-7.86696E-15
 -1      1837 3.58225E-03-7.92076E-04-6.91167E-15
 -1      1838 3.93052E-03-7.05221E-04-8.51425E-15
 -1      1839 4.08092E-03-6.47027E-04-9.18437E-15
 -1      1840 3.88149E-03-6.94500E-04-8.15205E-15
 -1      1841 4.23345E-03-5.86527E-04-9.87640E-15
 -1      1842 4.38764E-03-5.25302E-04-1.05910E-14
 -1      1843 4.18858E-03-5.76127E-04-9.48463E-15
 -1      1844 4.54355E-03-4.64890E-04-1.13262E-14
 -1      1845 4.70031E-03-4.06293E-04-1.20817E-14
 -1      1846 4.50187E-03-4.52504E-04-1.09059E-14
 -1      1847 4.85810E-03-3.50375E-04-1.28575E-14
 -1      1848 5.01600E-03-2.97581E-04-1.36528E-14
 -1      1849 4.81834E-03-3.35034E-04-1.24105E-14
 -1      1850 5.17423E-03-2.48173E-04-1.44675E-14
 -1      1851 5.33204E-03-2.02201E-04-1.52991E-14
 -1      1852 5.13508E-03-2.29806E-04-1.39944E-14
 -1      1853 5.48962E-03-1.59524E-04-1.61483E-14
 -1      1854 5.64646E-03-1.19976E-04-1.70160E-14
 -1      1855 5.44998E-03-1.38542E-04-1.56507E-14
 -1      1856 5.80268E-03-8.32084E-05-1.79010E-14
 -1      1857 5.95799E-03-4.89716E-05-1.88030E-14
 -1      1858 5.76185E-03-6.02055E-05-1.73774E-14
 -1      1859 6.11249E-03-1.68604E-05-1.97215E-14
 -1      1860 6.26604E-03 1.33836E-05-2.06570E-14
 -1      1861 6.07015E-03 7.55462E-06-1.91742E-14
 -1      1862 6.41869E-03 4.21351E-05-2.16104E-14
 -1      1863 6.57043E-03 6.96227E-05-2.25813E-14
 -1      1864 6.37483E-03 6.74272E-05-2.10379E-14
 -1      1865 6.72129E-03 9.61517E-05-2.35702E-14
 -1      1866 6.87133E-03 1.21908E-04-2.45758E-14
 -1      1867 6.67609E-03 1.21895E-04-2.29736E-14
 -1      1868 7.02055E-03 1.47118E-04-2.55977E-14
 -1      1869 7.16906E-03 1.71924E-04-2.66372E-14
 -1      1870 6.97426E-03 1.72998E-04-2.49771E-14
 -1      1871 7.31687E-03 1.96483E-04-2.76925E-14
 -1      1872 7.46406E-03 2.20897E-04-2.87647E-14
 -1      1873 7.26976E-03 2.22287E-04-2.70476E-14
 -1      1874 7.61067E-03 2.45264E-04-2.98536E-14
 -1      1875 7.75677E-03 2.69657E-04-3.09564E-14
 -1      1876 7.56300E-03 2.70860E-04-2.91838E-14
 -1      1877 7.90240E-03 2.94130E-04-3.20752E-14
 -1      1878 8.04763E-03 3.18731E-04-3.32095E-14
 -1      1879 7.85437E-03 3.19450E-04-3.13834E-14
 -1      1880 8.19247E-03 3.43484E-04-3.43592E-14
 -1      1881 8.33701E-03 3.68418E-04-3.55221E-14
 -1      1882 8.14426E-03 3.68502E-04-3.36439E-14
 -1      1883 8.48125E-03 3.93537E-04-3.67018E-14
 -1      1884 8.62525E-03 4.18857E-04-3.78979E-14
 -1      1885 8.43296E-03 4.18257E-04-3.59648E-14
 -1      1886 8.76903E-03 4.44370E-04-3.91088E-14
 -1      1887 8.91264E-03 4.70082E-04-4.03341E-14
 -1      1888 8.72076E-03 4.68813E-04-3.83491E-14
 -1      1889 9.05609E-03 4.95978E-04-4.15745E-14
 -1      1890 9.19940E-03 5.22059E-04-4.28286E-14
 -1      1891 9.00787E-03 5.20176E-04-4.07945E-14
 -1      1892 9.34261E-03 5.48307E-04-4.40971E-14
 -1      1893 9.48572E-03 5.74719E-04-4.53828E-14
 -1      1894 9.29447E-03 5.72296E-04-4.32980E-14
 -1      1895 9.62875E-03 6.01277E-04-4.66829E-14
 -1      1896 9.77172E-03 6.27975E-04-4.79970E-14
 -1      1897 9.58071E-03 6.25090E-04-4.58634E-14
 -1      1898 9.91463E-03 6.54796E-04-4.93246E-14
 -1      1899 1.00575E-02 6.81734E-04-5.06701E-14
 -1      1900 9.86670E-03 6.78467E-04-4.84863E-14
 -1      1901 1.02004E-02 7.08773E-04-5.20298E-14
 -1      1902 1.03432E-02 7.35907E-04-5.34045E-14
 -1      1903 1.01525E-02 7.32331E-04-5.11703E-14
 -1      1904 1.04860E-02 7.63123E-04-5.47947E-14
 -1      1905 1.06288E-02 7.90415E-04-5.61967E-14
 -1      1906 1.04382E-02 7.86593E-04-5.39145E-14
 -1      1907 1.07715E-02 8.17771E-04-5.76132E-14
 -1      1908 1.09143E-02 8.45187E-04-5.90444E-14
 -1      1909 1.07239E-02 8.41173E-04-5.67169E-14
 -1      1910 1.10571E-02 8.72652E-04-6.04853E-14
 -1      1911 1.11998E-02 9.00162E-04-6.19407E-14
 -1      1912 1.10095E-02 8.96003E-04-5.95709E-14
 -1      1913 1.13426E-02 9.27711E-04-6.34087E-14
 -1      1914 1.14854E-02 9.55293E-04-6.48890E-14
 -1      1915 1.12950E-02 9.51024E-04-6.24764E-14
 -1      1916 1.16282E-02 9.82903E-04-6.63831E-14
 -1      1917 1.17709E-02 1.01054E-03-6.78892E-14
 -1      1918 1.15806E-02 1.00619E-03-6.54319E-14
 -1      1919 1.19137E-02 1.03819E-03-6.94096E-14
 -1      1920 1.20565E-02 1.06587E-03-7.09420E-14
 -1      1921 1.18662E-02 1.06146E-03-6.84393E-14
 -1      1922 1.21993E-02 1.09356E-03-7.24877E-14
 -1      1923 1.23421E-02 1.12126E-03-7.40489E-14
 -1      1924 1.21518E-02 1.11681E-03-7.15016E-14
 -1      1925 1.24849E-02 1.14897E-03-7.56191E-14
 -1      1926 1.26277E-02 1.17668E-03-7.72035E-14
 -1      1927 1.24375E-02 1.17221E-03-7.46141E-14
 -1      1928 1.27706E-02 1.20441E-03-7.87960E-14
 -1      1929 1.29134E-02 1.23214E-03-8.03944E-14
 -1      1930 1.27231E-02 1.22765E-03-7.77731E-14
 -1      1931 1.30562E-02 1.25987E-03-8.20059E-14
 -1      1932 1.31990E-02 1.28760E-03-8.36235E-14
 -1      1933 1.30088E-02 1.28311E-03-8.09685E-14
 -1      1934 1.33419E-02 1.31534E-03-8.52469E-14
 -1      1935 1.34847E-02 1.34307E-03-8.68775E-14
 -1      1936 1.32944E-02 1.33858E-03-8.41993E-14
 -1      1937 1.36276E-02 1.37081E-03-8.85144E-14
 -1      1938 1.37704E-02 1.39855E-03-9.01557E-14
 -1      1939 1.35801E-02 1.39405E-03-8.74529E-14
 -1      1940 1.39132E-02 1.42628E-03-9.18080E-14
 -1      1941 1.40561E-02 1.45401E-03-9.34648E-14
 -1      1942 1.38658E-02 1.44953E-03-9.07361E-14
 -1      1943 1.41830E-02 1.47718E-03-9.49604E-14
 -1      1944 1.43259E-02 1.50490E-03-9.66252E-14
 -1      1945 1.43894E-02 1.54677E-03-9.68836E-14
 -1      1946 1.41356E-02 1.50043E-03-9.38825E-14
 -1      1947 1.39445E-03 4.79659E-04-2.06107E-16
 -1      1948 1.21322E-03 4.23712E-04-1.29047E-16
 -1      1949 1.15652E-03 3.84902E-04-1.53916E-16
 -1      1950 1.75772E-03 6.07217E-04-4.14599E-16
 -1      1951 1.57589E-03 5.40494E-04-3.00893E-16
 -1      1952 1.51420E-03 4.99482E-04-3.30519E-16
 -1      1953 2.12236E-03 7.64805E-04-7.00855E-16
 -1      1954 1.94029E-03 6.82021E-04-5.47685E-16
 -1      1955 1.87542E-03 6.38053E-04-5.81390E-16
 -1      1956 2.48441E-03 9.54738E-04-1.07168E-15
 -1      1957 2.30452E-03 8.56421E-04-8.75534E-16
 -1      1958 2.24009E-03 8.10045E-04-9.12898E-16
 -1      1959 2.83647E-03 1.16138E-03-1.53488E-15
 -1      1960 2.66252E-03 1.05797E-03-1.29085E-15
 -1      1961 2.60363E-03 1.01202E-03-1.33103E-15
 -1      1962 3.17160E-03 1.34676E-03-2.09818E-15
 -1      1963 3.00633E-03 1.25971E-03-1.80375E-15
 -1      1964 2.95752E-03 1.21880E-03-1.84516E-15
 -1      1965 3.49022E-03 1.46126E-03-2.77034E-15
 -1      1966 3.33185E-03 1.41519E-03-2.41994E-15
 -1      1967 3.29488E-03 1.38284E-03-2.46338E-15
 -1      1968 3.80444E-03 1.47293E-03-3.55462E-15
 -1      1969 3.64603E-03 1.47970E-03-3.14824E-15
 -1      1970 3.61965E-03 1.45470E-03-3.19226E-15
 -1      1971 4.13000E-03 1.39258E-03-4.44950E-15
 -1      1972 3.96462E-03 1.44165E-03-3.98841E-15
 -1      1973 3.94724E-03 1.41891E-03-4.03352E-15
 -1      1974 4.47374E-03 1.26520E-03-5.45122E-15
 -1      1975 4.29962E-03 1.33160E-03-4.93719E-15
 -1      1976 4.29031E-03 1.30685E-03-4.98404E-15
 -1      1977 4.83144E-03 1.13985E-03-6.55434E-15
 -1      1978 4.65158E-03 1.20023E-03-5.99075E-15
 -1      1979 4.64820E-03 1.17229E-03-6.03856E-15
 -1      1980 5.19436E-03 1.04697E-03-7.75203E-15
 -1      1981 5.01310E-03 1.08871E-03-7.14121E-15
 -1      1982 5.01186E-03 1.05842E-03-7.19115E-15
 -1      1983 5.55478E-03 9.95948E-04-9.04100E-15
 -1      1984 5.37550E-03 1.01647E-03-8.38563E-15
 -1      1985 5.37250E-03 9.84939E-04-8.43642E-15
 -1      1986 5.90798E-03 9.83007E-04-1.04149E-14
 -1      1987 5.73265E-03 9.85280E-04-9.71739E-15
 -1      1988 5.72524E-03 9.53232E-04-9.76846E-15
 -1      1989 6.25179E-03 9.99415E-04-1.18700E-14
 -1      1990 6.08122E-03 9.88105E-04-1.11330E-14
 -1      1991 6.06837E-03 9.55926E-04-1.11841E-14
 -1      1992 6.58572E-03 1.03623E-03-1.34037E-14
 -1      1993 6.42001E-03 1.01572E-03-1.26263E-14
 -1      1994 6.40187E-03 9.83625E-04-1.26781E-14
 -1      1995 6.91032E-03 1.08617E-03-1.50144E-14
 -1      1996 6.74913E-03 1.05987E-03-1.41997E-14
 -1      1997 6.72648E-03 1.02800E-03-1.42497E-14
 -1      1998 7.22665E-03 1.14395E-03-1.66990E-14
 -1      1999 7.06942E-03 1.11429E-03-1.58479E-14
 -1      2000 7.04324E-03 1.08272E-03-1.58974E-14
 -1      2001 7.53597E-03 1.20599E-03-1.84566E-14
 -1      2002 7.38208E-03 1.17457E-03-1.75685E-14
 -1      2003 7.35328E-03 1.14334E-03-1.76187E-14
 -1      2004 7.83955E-03 1.26996E-03-2.02786E-14
 -1      2005 7.68838E-03 1.23781E-03-1.93596E-14
 -1      2006 7.65773E-03 1.20692E-03-1.94088E-14
 -1      2007 8.13854E-03 1.33445E-03-2.21723E-14
 -1      2008 7.98953E-03 1.30219E-03-2.12184E-14
 -1      2009 7.95763E-03 1.27161E-03-2.12676E-14
 -1      2010 8.43392E-03 1.39861E-03-2.41303E-14
 -1      2011 8.28661E-03 1.36659E-03-2.31417E-14
 -1      2012 8.25390E-03 1.33630E-03-2.31923E-14
 -1      2013 8.72654E-03 1.46198E-03-2.61547E-14
 -1      2014 8.58052E-03 1.43040E-03-2.51338E-14
 -1      2015 8.54732E-03 1.40036E-03-2.51843E-14
 -1      2016 9.01706E-03 1.52438E-03-2.82548E-14
 -1      2017 8.87202E-03 1.49330E-03-2.71963E-14
 -1      2018 8.83855E-03 1.46346E-03-2.72469E-14
 -1      2019 9.30603E-03 1.58573E-03-3.04198E-14
 -1      2020 9.16170E-03 1.55518E-03-2.93274E-14
 -1      2021 9.12811E-03 1.52551E-03-2.93794E-14
 -1      2022 9.59386E-03 1.64609E-03-3.26569E-14
 -1      2023 9.45006E-03 1.61603E-03-3.15301E-14
 -1      2024 9.41643E-03 1.58650E-03-3.15793E-14
 -1      2025 9.88087E-03 1.70554E-03-3.49571E-14
 -1      2026 9.73745E-03 1.67592E-03-3.37986E-14
 -1      2027 9.70385E-03 1.64650E-03-3.38483E-14
 -1      2028 1.01673E-02 1.76419E-03-3.73217E-14
 -1      2029 1.00241E-02 1.73496E-03-3.61309E-14
 -1      2030 9.99061E-03 1.70562E-03-3.61805E-14
 -1      2031 1.04534E-02 1.82216E-03-3.97467E-14
 -1      2032 1.03104E-02 1.79325E-03-3.85275E-14
 -1      2033 1.02769E-02 1.76398E-03-3.85767E-14
 -1      2034 1.07392E-02 1.87955E-03-4.22323E-14
 -1      2035 1.05963E-02 1.85092E-03-4.09819E-14
 -1      2036 1.05629E-02 1.82170E-03-4.10319E-14
 -1      2037 1.10248E-02 1.93648E-03-4.47804E-14
 -1      2038 1.08820E-02 1.90807E-03-4.34981E-14
 -1      2039 1.08487E-02 1.87888E-03-4.35473E-14
 -1      2040 1.13104E-02 1.99304E-03-4.73936E-14
 -1      2041 1.11676E-02 1.96480E-03-4.60796E-14
 -1      2042 1.11343E-02 1.93564E-03-4.61302E-14
 -1      2043 1.15959E-02 2.04930E-03-5.00675E-14
 -1      2044 1.14531E-02 2.02120E-03-4.87237E-14
 -1      2045 1.14199E-02 1.99206E-03-4.87750E-14
 -1      2046 1.18814E-02 2.10534E-03-5.28089E-14
 -1      2047 1.17386E-02 2.07734E-03-5.14294E-14
 -1      2048 1.17055E-02 2.04822E-03-5.14815E-14
 -1      2049 1.21669E-02 2.16120E-03-5.56143E-14
 -1      2050 1.20241E-02 2.13329E-03-5.42028E-14
 -1      2051 1.19910E-02 2.10417E-03-5.42507E-14
 -1      2052 1.24524E-02 2.21693E-03-5.84812E-14
 -1      2053 1.23096E-02 2.18908E-03-5.70397E-14
 -1      2054 1.22766E-02 2.15996E-03-5.70821E-14
 -1      2055 1.27379E-02 2.27256E-03-6.14000E-14
 -1      2056 1.25952E-02 2.24475E-03-5.99354E-14
 -1      2057 1.25621E-02 2.21564E-03-5.99738E-14
 -1      2058 1.30235E-02 2.32813E-03-6.43654E-14
 -1      2059 1.28807E-02 2.30035E-03-6.28775E-14
 -1      2060 1.28477E-02 2.27124E-03-6.29148E-14
 -1      2061 1.33091E-02 2.38365E-03-6.73769E-14
 -1      2062 1.31663E-02 2.35590E-03-6.58658E-14
 -1      2063 1.31333E-02 2.32679E-03-6.59021E-14
 -1      2064 1.35947E-02 2.43914E-03-7.04245E-14
 -1      2065 1.34519E-02 2.41140E-03-6.88952E-14
 -1      2066 1.34189E-02 2.38229E-03-6.89298E-14
 -1      2067 1.38804E-02 2.49462E-03-7.35026E-14
 -1      2068 1.37375E-02 2.46688E-03-7.19620E-14
 -1      2069 1.37046E-02 2.43777E-03-7.19950E-14
 -1      2070 1.41660E-02 2.55008E-03-7.66234E-14
 -1      2071 1.40232E-02 2.52235E-03-7.50580E-14
 -1      2072 1.39902E-02 2.49324E-03-7.50937E-14
 -1      2073 1.44517E-02 2.60554E-03-7.97719E-14
 -1      2074 1.43089E-02 2.57781E-03-7.81912E-14
 -1      2075 1.42759E-02 2.54870E-03-7.82248E-14
 -1      2076 1.47374E-02 2.66101E-03-8.29692E-14
 -1      2077 1.45945E-02 2.63328E-03-8.13659E-14
 -1      2078 1.45616E-02 2.60416E-03-8.13978E-14
 -1      2079 1.50231E-02 2.71649E-03-8.62115E-14
 -1      2080 1.48802E-02 2.68875E-03-8.45852E-14
 -1      2081 1.48473E-02 2.65963E-03-8.46174E-14
 -1      2082 1.52561E-02 2.75912E-03-8.89213E-14
 -1      2083 1.51132E-02 2.73138E-03-8.72856E-14
 -1      2084 1.50803E-02 2.70226E-03-8.73146E-14
 -1      2085 1.52605E-02 2.73204E-03-8.94698E-14
 -1      2086 1.50768E-02 2.49108E-03-9.09612E-14
 -1      2087 1.51041E-02 2.53323E-03-9.06348E-14
 -1      2088 1.51314E-02 2.57538E-03-9.03051E-14
 -1      2089 1.51587E-02 2.61753E-03-8.99760E-14
 -1      2090 1.49940E-02 2.53028E-03-8.90618E-14
 -1      2091 1.51960E-02 2.65371E-03-8.98939E-14
 -1      2092 1.52233E-02 2.69586E-03-8.95541E-14
 -1      2093 1.51331E-02 2.68097E-03-8.84759E-14
 -1      2094 1.50586E-02 2.60861E-03-8.86454E-14
 -1      2095 1.50231E-02 2.40819E-03-9.16038E-14
 -1      2096 1.50500E-02 2.44964E-03-9.12796E-14
 -1      2097 1.49399E-02 2.44669E-03-8.97147E-14
 -1      2098 1.49685E-02 2.32387E-03-9.22544E-14
 -1      2099 1.49958E-02 2.36603E-03-9.19308E-14
 -1      2100 1.48858E-02 2.36309E-03-9.03621E-14
 -1      2101 1.49140E-02 2.23954E-03-9.29066E-14
 -1      2102 1.49413E-02 2.28171E-03-9.25818E-14
 -1      2103 1.48312E-02 2.27877E-03-9.10138E-14
 -1      2104 1.48594E-02 2.15521E-03-9.35621E-14
 -1      2105 1.48867E-02 2.19738E-03-9.32308E-14
 -1      2106 1.47766E-02 2.19444E-03-9.16632E-14
 -1      2107 1.48049E-02 2.07088E-03-9.42143E-14
 -1      2108 1.48321E-02 2.11304E-03-9.38895E-14
 -1      2109 1.47221E-02 2.11011E-03-9.23124E-14
 -1      2110 1.47504E-02 1.98655E-03-9.48643E-14
 -1      2111 1.47776E-02 2.02871E-03-9.45409E-14
 -1      2112 1.46675E-02 2.02578E-03-9.29615E-14
 -1      2113 1.46968E-02 1.90365E-03-9.54939E-14
 -1      2114 1.47236E-02 1.94510E-03-9.51785E-14
 -1      2115 1.46135E-02 1.94217E-03-9.35977E-14
 -1      2116 1.46423E-02 1.81933E-03-9.61157E-14
 -1      2117 1.46695E-02 1.86149E-03-9.58054E-14
 -1      2118 1.45594E-02 1.85856E-03-9.42177E-14
 -1      2119 1.45878E-02 1.73502E-03-9.67204E-14
 -1      2120 1.46150E-02 1.77718E-03-9.64197E-14
 -1      2121 1.45050E-02 1.77424E-03-9.48286E-14
 -1      2122 1.45333E-02 1.65072E-03-9.73122E-14
 -1      2123 1.45606E-02 1.69287E-03-9.70193E-14
 -1      2124 1.44505E-02 1.68994E-03-9.54278E-14
 -1      2125 5.31540E-03 5.37981E-04-6.69874E-15
 -1      2126 5.45051E-03 4.85865E-04-6.94047E-15
 -1      2127 5.66363E-03 3.94653E-04-7.40107E-15
 -1      2128 5.65078E-03 3.79782E-04-7.44945E-15
 -1      2129 5.58339E-03 4.37151E-04-7.17374E-15
 -1      2130 5.64213E-03 4.15546E-04-7.28540E-15
 -1      2131 5.66368E-03 4.05063E-04-7.65044E-15
 -1      2132 4.97816E-03 6.94512E-04-6.14421E-15
 -1      2133 5.14574E-03 6.14864E-04-6.40140E-15
 -1      2134 4.60381E-03 8.79728E-04-5.63175E-15
 -1      2135 4.79404E-03 7.83381E-04-5.88443E-15
 -1      2136 4.87774E-03 7.21391E-04-6.17857E-15
 -1      2137 3.37443E-04-4.55247E-05-1.44470E-16
 -1      2138 3.46697E-04-6.31668E-05-1.44104E-16
 -1      2139 4.76035E-04-1.03425E-04-2.11528E-16
 -1      2140 4.50420E-04-5.68136E-05-2.12083E-16
 -1      2141 3.85687E-03 1.25943E-03-4.36107E-15
 -1      2142 4.01269E-03 1.19545E-03-4.62792E-15
 -1      2143 3.53381E-03 1.32332E-03-3.80048E-15
 -1      2144 3.68833E-03 1.30408E-03-4.07541E-15
 -1      2145 3.77250E-03 1.29210E-03-4.21595E-15
 -1      2146 3.16348E-03 1.24490E-03-3.24686E-15
 -1      2147 3.32533E-03 1.29912E-03-3.46739E-15
 -1      2148 2.81704E-03 1.07220E-03-2.85010E-15
 -1      2149 2.98197E-03 1.16376E-03-3.02192E-15
 -1      2150 2.44809E-03 8.47851E-04-2.52652E-15
 -1      2151 2.63337E-03 9.66599E-04-2.68549E-15
 -1      2152 2.75624E-03 1.01541E-03-2.67278E-15
 -1      2153 1.98871E-03 5.88858E-04-2.25931E-15
 -1      2154 2.19194E-03 6.96192E-04-2.35433E-15
 -1      2155 1.62362E-03 4.03180E-04-2.08003E-15
 -1      2156 1.79957E-03 4.90811E-04-2.16774E-15
 -1      2157 1.91744E-03 5.11621E-04-2.09813E-15
 -1      2158 1.27699E-03 2.72321E-04-1.98362E-15
 -1      2159 1.40946E-03 3.10512E-04-1.99419E-15
 -1      2160 1.12216E-03 2.25330E-04-1.99218E-15
 -1      2161 1.18488E-03 2.44175E-04-1.98667E-15
 -1      2162 1.22834E-03 2.32879E-04-1.85352E-15
 -1      2163 1.10661E-03 1.92787E-04-2.04162E-15
 -1      2164 1.09189E-03 2.04098E-04-2.01232E-15
 -1      2165 1.26633E-03 1.38721E-04-2.23890E-15
 -1      2166 1.17623E-03 1.66358E-04-2.14610E-15
 -1      2167 1.52691E-03 4.75129E-05-2.45746E-15
 -1      2168 1.39019E-03 9.63023E-05-2.34398E-15
 -1      2169 1.87656E-03-9.03761E-05-2.73151E-15
 -1      2170 1.70007E-03-1.53354E-05-2.58262E-15
 -1      2171 2.28649E-03-2.91003E-04-3.14896E-15
 -1      2172 2.09372E-03-1.92599E-04-2.94410E-15
 -1      2173 2.68818E-03-4.96962E-04-3.71323E-15
 -1      2174 2.51651E-03-4.10559E-04-3.45774E-15
 -1      2175 3.02884E-03-6.20317E-04-4.27929E-15
 -1      2176 2.87413E-03-5.71574E-04-4.00301E-15
 -1      2177 3.35870E-03-6.36527E-04-4.89585E-15
 -1      2178 3.21417E-03-6.42729E-04-4.62136E-15
 -1      2179 3.64902E-03-5.58791E-04-5.44728E-15
 -1      2180 3.50531E-03-6.08953E-04-5.16742E-15
 -1      2181 3.41701E-03-6.33412E-04-5.08659E-15
 -1      2182 4.01643E-03-3.84684E-04-6.03987E-15
 -1      2183 3.85392E-03-4.68664E-04-5.80444E-15
 -1      2184 4.35236E-03-2.04379E-04-6.46582E-15
 -1      2185 4.18245E-03-2.99264E-04-6.25106E-15
 -1      2186 4.06851E-03-3.36251E-04-6.30075E-15
 -1      2187 4.72886E-03 5.94082E-06-6.94539E-15
 -1      2188 4.55307E-03-9.10354E-05-6.73357E-15
 -1      2189 5.11892E-03 1.85008E-04-7.28111E-15
 -1      2190 4.95320E-03 1.18472E-04-7.18785E-15
 -1      2191 5.39274E-03 2.88054E-04-7.44463E-15
 -1      2192 5.26367E-03 2.41048E-04-7.36147E-15
 -1      2193 5.18063E-03 2.41371E-04-7.64336E-15
 -1      2194 5.60873E-03 3.58279E-04-7.46375E-15
 -1      2195 5.53556E-03 3.36352E-04-7.48010E-15
 -1      2196 5.63949E-03 3.83198E-04-7.78533E-15
 -1      2197 4.18630E-03 1.11320E-03-4.92453E-15
 -1      2198 4.35844E-03 1.01472E-03-5.23057E-15
 -1      2199 4.08087E-03 1.16148E-03-4.80055E-15
 -1      2200 4.46866E-03 9.42755E-04-5.50238E-15
 -1      2201 4.57829E-03 8.76900E-04-5.78178E-15
 -1      2202 4.35691E-03 1.00671E-03-5.37176E-15
 -1      2203 6.84285E-04-2.84499E-04-2.62323E-16
 -1      2204 2.34293E-03 7.56897E-04-2.34731E-15
 -1      2205 7.42077E-04-2.74484E-04-3.32931E-16
 -1      2206 5.53017E-03 4.49489E-04-7.29057E-15
 -1      2207 5.59370E-03 4.32397E-04-7.64810E-15
 -1      2208 5.47172E-03 4.66481E-04-7.40364E-15
 -1      2209 5.22325E-03 5.62039E-04-6.74693E-15
 -1      2210 1.44698E-02 1.60886E-03-9.70586E-14
 -1      2211 5.46997E-03 3.34241E-04-7.76370E-15
 -1      2212 4.41530E-03-1.37008E-04-6.78777E-15
 -1      2213 3.73081E-03-5.19112E-04-5.71919E-15
 -1      2214 3.12176E-03-6.43059E-04-4.46667E-15
 -1      2215 2.79622E-03-5.41548E-04-3.83794E-15
 -1      2216 2.41072E-03-3.46094E-04-3.24350E-15
 -1      2217 2.30479E-03-2.85727E-04-3.03785E-15
 -1      2218 2.51191E-03-4.00102E-04-3.33787E-15
 -1      2219 1.98663E-03-1.25018E-04-2.73756E-15
 -1      2220 1.61908E-03 3.45695E-05-2.41571E-15
 -1      2221 1.33018E-03 1.31203E-04-2.19545E-15
 -1      2222 1.09890E-03 2.02785E-04-1.87557E-15
 -1      2223 1.51565E-03 3.28509E-04-1.92967E-15
 -1      2224 3.35710E-03 1.31385E-03-3.39767E-15
 -1      2225 3.43810E-03 1.32602E-03-3.59695E-15
 -1      2226 3.53382E-03 1.33748E-03-3.72616E-15
 -1      2227 3.08625E-03 1.20737E-03-3.04888E-15
 -1      2228 1.13112E-03 1.83936E-04-1.99299E-15
 -1      2229 4.82740E-03 8.53230E-05-7.30871E-15
 -1      2230 1.19274E-03 3.66361E-04-2.37888E-16
 -1      2231 1.01907E-03 3.14370E-04-1.60530E-16
 -1      2232 4.89178E-04 1.51336E-05-2.83722E-16
 -1      2233 5.08076E-04-3.93967E-07-2.88791E-16
 -1      2234 5.27127E-04-1.92659E-05-2.93087E-16
 -1      2235 5.45439E-04-4.08995E-05-2.96827E-16
 -1      2236 6.28529E-04-1.76744E-05-3.93186E-16
 -1      2237 4.29937E-04 4.37139E-05-2.57932E-16
 -1      2238 4.40027E-04 4.12307E-05-2.65101E-16
 -1      2239 4.24452E-04 4.33468E-05-2.41709E-16
 -1      2240 4.24412E-04 4.40392E-05-2.50220E-16
 -1      2241 5.10272E-04 5.37669E-05-3.43909E-16
 -1      2242 4.41263E-04 4.31266E-05-2.23047E-16
 -1      2243 4.30125E-04 4.25991E-05-2.32941E-16
 -1      2244 5.09564E-04 5.48654E-05-3.22076E-16
 -1      2245 4.79223E-04 5.19502E-05-1.99520E-16
 -1      2246 4.58025E-04 4.59010E-05-2.11934E-16
 -1      2247 5.38125E-04 5.88198E-05-2.96136E-16
 -1      2248 5.32413E-04 7.64541E-05-1.70193E-16
 -1      2249 5.04493E-04 6.19902E-05-1.85873E-16
 -1      2250 5.92256E-04 7.58219E-05-2.64288E-16
 -1      2251 5.95002E-04 1.20138E-04-1.32625E-16
 -1      2252 5.62989E-04 9.58297E-05-1.52696E-16
 -1      2253 6.63012E-04 1.12068E-04-2.24823E-16
 -1      2254 1.54376E-03 4.82224E-04-4.45065E-16
 -1      2255 1.36762E-03 4.21809E-04-3.32443E-16
 -1      2256 1.22494E-03 3.48471E-04-3.28839E-16
 -1      2257 1.02099E-03-3.37888E-04-6.05405E-16
 -1      2258 1.18415E-03-3.85304E-04-7.87063E-16
 -1      2259 2.24848E-03 6.72507E-04-2.14882E-15
 -1      2260 2.47671E-03 8.17442E-04-2.30648E-15
 -1      2261 1.34731E-03-4.32291E-04-9.93563E-16
 -1      2262 1.51020E-03-4.79286E-04-1.22547E-15
 -1      2263 1.24038E-03-3.65771E-04-8.93681E-16
 -1      2264 1.67297E-03-5.26812E-04-1.48251E-15
 -1      2265 1.83497E-03-5.74596E-04-1.76527E-15
 -1      2266 1.56788E-03-4.58004E-04-1.35468E-15
 -1      2267 1.99640E-03-6.22390E-04-2.07339E-15
 -1      2268 2.15644E-03-6.69125E-04-2.40673E-15
 -1      2269 1.89665E-03-5.53632E-04-1.91520E-15
 -1      2270 2.31505E-03-7.13744E-04-2.76569E-15
 -1      2271 2.47167E-03-7.54219E-04-3.15111E-15
 -1      2272 2.22352E-03-6.49319E-04-2.57571E-15
 -1      2273 2.62603E-03-7.88920E-04-3.56289E-15
 -1      2274 2.77847E-03-8.15383E-04-4.00088E-15
 -1      2275 2.54413E-03-7.34381E-04-3.33911E-15
 -1      2276 2.92856E-03-8.31979E-04-4.46557E-15
 -1      2277 3.07778E-03-8.36908E-04-4.95613E-15
 -1      2278 2.85558E-03-7.91652E-04-4.20775E-15
 -1      2279 3.22572E-03-8.29433E-04-5.47263E-15
 -1      2280 3.37445E-03-8.09321E-04-6.01534E-15
 -1      2281 3.15940E-03-8.03712E-04-5.18101E-15
 -1      2282 3.52357E-03-7.77225E-04-6.58309E-15
 -1      2283 3.67478E-03-7.34751E-04-7.17617E-15
 -1      2284 3.46198E-03-7.62170E-04-6.25867E-15
 -1      2285 3.82764E-03-6.83631E-04-7.79323E-15
 -1      2286 3.98272E-03-6.26428E-04-8.43381E-15
 -1      2287 3.77035E-03-6.73164E-04-7.43783E-15
 -1      2288 4.13966E-03-5.65181E-04-9.09713E-15
 -1      2289 4.29799E-03-5.02231E-04-9.78259E-15
 -1      2290 4.08734E-03-5.54321E-04-8.71291E-15
 -1      2291 4.45753E-03-4.39283E-04-1.04896E-14
 -1      2292 4.61735E-03-3.77803E-04-1.12184E-14
 -1      2293 4.41061E-03-4.25569E-04-1.00780E-14
 -1      2294 4.77752E-03-3.18855E-04-1.19680E-14
 -1      2295 4.93707E-03-2.63050E-04-1.27368E-14
 -1      2296 4.73536E-03-3.01872E-04-1.15285E-14
 -1      2297 5.09627E-03-2.10836E-04-1.35242E-14
 -1      2298 5.25437E-03-1.62240E-04-1.43314E-14
 -1      2299 5.05742E-03-1.91105E-04-1.30590E-14
 -1      2300 5.41171E-03-1.17273E-04-1.51567E-14
 -1      2301 5.56783E-03-7.56720E-05-1.59976E-14
 -1      2302 5.37446E-03-9.55052E-05-1.46651E-14
 -1      2303 5.72301E-03-3.71971E-05-1.68577E-14
 -1      2304 5.87701E-03-1.49372E-06-1.77361E-14
 -1      2305 5.68588E-03-1.40014E-05-1.63427E-14
 -1      2306 6.03007E-03 3.17825E-05-1.86314E-14
 -1      2307 6.18209E-03 6.29737E-05-1.95424E-14
 -1      2308 5.99204E-03 5.59427E-05-1.80909E-14
 -1      2309 6.33322E-03 9.24328E-05-2.04705E-14
 -1      2310 6.48349E-03 1.20447E-04-2.14171E-14
 -1      2311 6.29376E-03 1.17208E-04-1.99075E-14
 -1      2312 6.63296E-03 1.47324E-04-2.23810E-14
 -1      2313 6.78171E-03 1.73289E-04-2.33624E-14
 -1      2314 6.59187E-03 1.72446E-04-2.17932E-14
 -1      2315 6.92978E-03 1.98585E-04-2.43615E-14
 -1      2316 7.07726E-03 2.23376E-04-2.53764E-14
 -1      2317 6.88712E-03 2.23850E-04-2.37484E-14
 -1      2318 7.22417E-03 2.47841E-04-2.64077E-14
 -1      2319 7.37059E-03 2.72096E-04-2.74558E-14
 -1      2320 7.18012E-03 2.73099E-04-2.57721E-14
 -1      2321 7.51655E-03 2.96260E-04-2.85192E-14
 -1      2322 7.66212E-03 3.20411E-04-2.96004E-14
 -1      2323 7.47137E-03 3.21407E-04-2.78603E-14
 -1      2324 7.80731E-03 3.44623E-04-3.06976E-14
 -1      2325 7.95219E-03 3.68946E-04-3.18079E-14
 -1      2326 7.76125E-03 3.69595E-04-3.00144E-14
 -1      2327 8.09677E-03 3.93418E-04-3.29334E-14
 -1      2328 8.24111E-03 4.18068E-04-3.40756E-14
 -1      2329 8.05006E-03 4.18180E-04-3.22290E-14
 -1      2330 8.38521E-03 4.42911E-04-3.52333E-14
 -1      2331 8.52913E-03 4.67961E-04-3.64047E-14
 -1      2332 8.33805E-03 4.67454E-04-3.45043E-14
 -1      2333 8.67286E-03 4.93218E-04-3.75929E-14
 -1      2334 8.81645E-03 5.18687E-04-3.87972E-14
 -1      2335 8.62539E-03 5.17548E-04-3.68419E-14
 -1      2336 8.95991E-03 5.44357E-04-4.00177E-14
 -1      2337 9.10326E-03 5.70227E-04-4.12523E-14
 -1      2338 8.91225E-03 5.68488E-04-3.92439E-14
 -1      2339 9.24651E-03 5.96280E-04-4.25011E-14
 -1      2340 9.38968E-03 6.22514E-04-4.37655E-14
 -1      2341 9.19875E-03 6.20236E-04-4.17074E-14
 -1      2342 9.53278E-03 6.48909E-04-4.50445E-14
 -1      2343 9.67582E-03 6.75460E-04-4.63405E-14
 -1      2344 9.48498E-03 6.72714E-04-4.42311E-14
 -1      2345 9.81882E-03 7.02149E-04-4.76509E-14
 -1      2346 9.96177E-03 7.28968E-04-4.89743E-14
 -1      2347 9.77102E-03 7.25826E-04-4.68158E-14
 -1      2348 1.01047E-02 7.55902E-04-5.03145E-14
 -1      2349 1.02476E-02 7.82942E-04-5.16693E-14
 -1      2350 1.00569E-02 7.79475E-04-4.94613E-14
 -1      2351 1.03905E-02 8.10076E-04-5.30400E-14
 -1      2352 1.05333E-02 8.37295E-04-5.44234E-14
 -1      2353 1.03427E-02 8.33565E-04-5.21667E-14
 -1      2354 1.06762E-02 8.64588E-04-5.58214E-14
 -1      2355 1.08190E-02 8.91948E-04-5.72335E-14
 -1      2356 1.06285E-02 8.88010E-04-5.49301E-14
 -1      2357 1.09618E-02 9.19365E-04-5.86577E-14
 -1      2358 1.11046E-02 9.46835E-04-6.00955E-14
 -1      2359 1.09142E-02 9.42737E-04-5.77471E-14
 -1      2360 1.12475E-02 9.74348E-04-6.15446E-14
 -1      2361 1.13903E-02 1.00190E-03-6.30083E-14
 -1      2362 1.11998E-02 9.97681E-04-6.06174E-14
 -1      2363 1.15331E-02 1.02949E-03-6.44839E-14
 -1      2364 1.16759E-02 1.05710E-03-6.59713E-14
 -1      2365 1.14855E-02 1.05279E-03-6.35380E-14
 -1      2366 1.18187E-02 1.08474E-03-6.74734E-14
 -1      2367 1.19615E-02 1.11240E-03-6.89890E-14
 -1      2368 1.17712E-02 1.10802E-03-6.65100E-14
 -1      2369 1.21044E-02 1.14007E-03-7.05165E-14
 -1      2370 1.22472E-02 1.16776E-03-7.20569E-14
 -1      2371 1.20568E-02 1.16334E-03-6.95341E-14
 -1      2372 1.23900E-02 1.19547E-03-7.36123E-14
 -1      2373 1.25328E-02 1.22318E-03-7.51777E-14
 -1      2374 1.23425E-02 1.21872E-03-7.26111E-14
 -1      2375 1.26757E-02 1.25090E-03-7.67535E-14
 -1      2376 1.28185E-02 1.27862E-03-7.83406E-14
 -1      2377 1.26282E-02 1.27415E-03-7.57376E-14
 -1      2378 1.29613E-02 1.30636E-03-7.99348E-14
 -1      2379 1.31042E-02 1.33409E-03-8.15400E-14
 -1      2380 1.29139E-02 1.32960E-03-7.89044E-14
 -1      2381 1.32470E-02 1.36183E-03-8.31523E-14
 -1      2382 1.33898E-02 1.38956E-03-8.47693E-14
 -1      2383 1.31996E-02 1.38507E-03-8.21060E-14
 -1      2384 1.35327E-02 1.41730E-03-8.63942E-14
 -1      2385 1.36755E-02 1.44504E-03-8.80255E-14
 -1      2386 1.34852E-02 1.44055E-03-8.53380E-14
 -1      2387 1.38184E-02 1.47277E-03-8.96648E-14
 -1      2388 1.39612E-02 1.50051E-03-9.13129E-14
 -1      2389 1.37709E-02 1.49602E-03-8.85963E-14
 -1      2390 2.27056E-03 8.03787E-04-1.09017E-15
 -1      2391 2.08622E-03 7.09691E-04-8.98045E-16
 -1      2392 2.64266E-03 1.01343E-03-1.54206E-15
 -1      2393 2.45734E-03 9.05989E-04-1.30473E-15
 -1      2394 2.30331E-03 7.96565E-04-1.27346E-15
 -1      2395 3.00737E-03 1.22365E-03-2.09121E-15
 -1      2396 2.82687E-03 1.12178E-03-1.80394E-15
 -1      2397 2.68630E-03 1.01574E-03-1.75845E-15
 -1      2398 3.35472E-03 1.37884E-03-2.74668E-15
 -1      2399 3.18254E-03 1.31278E-03-2.40560E-15
 -1      2400 3.06175E-03 1.23106E-03-2.34224E-15
 -1      2401 3.69018E-03 1.42471E-03-3.51544E-15
 -1      2402 3.52123E-03 1.41724E-03-3.11693E-15
 -1      2403 3.41832E-03 1.37355E-03-3.03545E-15
 -1      2404 4.03297E-03 1.35625E-03-4.39511E-15
 -1      2405 3.85834E-03 1.40189E-03-3.94109E-15
 -1      2406 3.76638E-03 1.38587E-03-3.84286E-15
 -1      2407 4.39397E-03 1.22306E-03-5.38279E-15
 -1      2408 4.21152E-03 1.29327E-03-4.87585E-15
 -1      2409 4.12823E-03 1.28204E-03-4.76209E-15
 -1      2410 4.76438E-03 1.08602E-03-6.47387E-15
 -1      2411 4.57941E-03 1.15203E-03-5.91592E-15
 -1      2412 4.50725E-03 1.13216E-03-5.78816E-15
 -1      2413 5.13132E-03 9.82353E-04-7.65926E-15
 -1      2414 4.94953E-03 1.02894E-03-7.05488E-15
 -1      2415 4.88712E-03 9.98493E-04-6.91446E-15
 -1      2416 5.48721E-03 9.23324E-04-8.93570E-15
 -1      2417 5.31125E-03 9.47449E-04-8.28634E-15
 -1      2418 5.25338E-03 9.09144E-04-8.13332E-15
 -1      2419 5.83060E-03 9.04758E-04-1.02959E-14
 -1      2420 5.66064E-03 9.09571E-04-9.60533E-15
 -1      2421 5.60171E-03 8.66027E-04-9.43980E-15
 -1      2422 6.16284E-03 9.17427E-04-1.17385E-14
 -1      2423 5.99809E-03 9.07800E-04-1.10075E-14
 -1      2424 5.93441E-03 8.60568E-04-1.08287E-14
 -1      2425 6.48585E-03 9.51974E-04-1.32582E-14
 -1      2426 6.32540E-03 9.32467E-04-1.24893E-14
 -1      2427 6.25547E-03 8.82572E-04-1.22974E-14
 -1      2428 6.80132E-03 1.00077E-03-1.48549E-14
 -1      2429 6.64442E-03 9.74963E-04-1.40463E-14
 -1      2430 6.56824E-03 9.23214E-04-1.38428E-14
 -1      2431 7.11061E-03 1.05819E-03-1.65269E-14
 -1      2432 6.95663E-03 1.02866E-03-1.56820E-14
 -1      2433 6.87501E-03 9.75738E-04-1.54646E-14
 -1      2434 7.41480E-03 1.12038E-03-1.82715E-14
 -1      2435 7.26324E-03 1.08887E-03-1.73907E-14
 -1      2436 7.17727E-03 1.03531E-03-1.71609E-14
 -1      2437 7.71482E-03 1.18482E-03-2.00827E-14
 -1      2438 7.56525E-03 1.15244E-03-1.91693E-14
 -1      2439 7.47597E-03 1.09865E-03-1.89274E-14
 -1      2440 8.01145E-03 1.24991E-03-2.19643E-14
 -1      2441 7.86349E-03 1.21736E-03-2.10139E-14
 -1      2442 7.77182E-03 1.16360E-03-2.07624E-14
 -1      2443 8.30537E-03 1.31472E-03-2.39118E-14
 -1      2444 8.15869E-03 1.28240E-03-2.29297E-14
 -1      2445 8.06535E-03 1.22884E-03-2.26641E-14
 -1      2446 8.59713E-03 1.37874E-03-2.59248E-14
 -1      2447 8.45147E-03 1.34686E-03-2.49089E-14
 -1      2448 8.35700E-03 1.29358E-03-2.46324E-14
 -1      2449 8.88722E-03 1.44171E-03-2.80143E-14
 -1      2450 8.74235E-03 1.41037E-03-2.69612E-14
 -1      2451 8.64715E-03 1.35742E-03-2.66723E-14
 -1      2452 9.17603E-03 1.50359E-03-3.01657E-14
 -1      2453 9.03176E-03 1.47279E-03-2.90824E-14
 -1      2454 8.93612E-03 1.42016E-03-2.87811E-14
 -1      2455 9.46388E-03 1.56439E-03-3.23897E-14
 -1      2456 9.32005E-03 1.53412E-03-3.12693E-14
 -1      2457 9.22417E-03 1.48179E-03-3.09581E-14
 -1      2458 9.75100E-03 1.62420E-03-3.46798E-14
 -1      2459 9.60751E-03 1.59442E-03-3.35269E-14
 -1      2460 9.51151E-03 1.54235E-03-3.32031E-14
 -1      2461 1.00376E-02 1.68315E-03-3.70342E-14
 -1      2462 9.89436E-03 1.65378E-03-3.58486E-14
 -1      2463 9.79832E-03 1.60194E-03-3.55149E-14
 -1      2464 1.03238E-02 1.74136E-03-3.94489E-14
 -1      2465 1.01808E-02 1.71234E-03-3.82335E-14
 -1      2466 1.00848E-02 1.66070E-03-3.78899E-14
 -1      2467 1.06098E-02 1.79894E-03-4.19252E-14
 -1      2468 1.04669E-02 1.77022E-03-4.06795E-14
 -1      2469 1.03709E-02 1.71874E-03-4.03248E-14
 -1      2470 1.08956E-02 1.85602E-03-4.44639E-14
 -1      2471 1.07527E-02 1.82754E-03-4.31868E-14
 -1      2472 1.06568E-02 1.77618E-03-4.28229E-14
 -1      2473 1.11813E-02 1.91269E-03-4.70656E-14
 -1      2474 1.10385E-02 1.88440E-03-4.57571E-14
 -1      2475 1.09427E-02 1.83314E-03-4.53825E-14
 -1      2476 1.14670E-02 1.96903E-03-4.97311E-14
 -1      2477 1.13242E-02 1.94090E-03-4.83913E-14
 -1      2478 1.12284E-02 1.88972E-03-4.80055E-14
 -1      2479 1.17526E-02 2.02513E-03-5.24566E-14
 -1      2480 1.16098E-02 1.99711E-03-5.10856E-14
 -1      2481 1.15141E-02 1.94599E-03-5.06898E-14
 -1      2482 1.20382E-02 2.08103E-03-5.52445E-14
 -1      2483 1.18954E-02 2.05310E-03-5.38431E-14
 -1      2484 1.17997E-02 2.00203E-03-5.34344E-14
 -1      2485 1.23238E-02 2.13679E-03-5.80902E-14
 -1      2486 1.21810E-02 2.10893E-03-5.66606E-14
 -1      2487 1.20854E-02 2.05789E-03-5.62396E-14
 -1      2488 1.26094E-02 2.19245E-03-6.09955E-14
 -1      2489 1.24666E-02 2.16463E-03-5.95361E-14
 -1      2490 1.23710E-02 2.11362E-03-5.91002E-14
 -1      2491 1.28950E-02 2.24803E-03-6.39488E-14
 -1      2492 1.27522E-02 2.22025E-03-6.24665E-14
 -1      2493 1.26566E-02 2.16925E-03-6.20192E-14
 -1      2494 1.31806E-02 2.30356E-03-6.69488E-14
 -1      2495 1.30378E-02 2.27580E-03-6.54429E-14
 -1      2496 1.29423E-02 2.22481E-03-6.49851E-14
 -1      2497 1.34663E-02 2.35905E-03-6.99863E-14
 -1      2498 1.33234E-02 2.33131E-03-6.84620E-14
 -1      2499 1.32279E-02 2.28033E-03-6.79937E-14
 -1      2500 1.37519E-02 2.41453E-03-7.30600E-14
 -1      2501 1.36091E-02 2.38679E-03-7.15202E-14
 -1      2502 1.35136E-02 2.33581E-03-7.10436E-14
 -1      2503 1.40376E-02 2.46999E-03-7.61735E-14
 -1      2504 1.38947E-02 2.44226E-03-7.46133E-14
 -1      2505 1.37993E-02 2.39128E-03-7.41310E-14
 -1      2506 1.43233E-02 2.52545E-03-7.93173E-14
 -1      2507 1.41804E-02 2.49772E-03-7.77411E-14
 -1      2508 1.40850E-02 2.44674E-03-7.72538E-14
 -1      2509 1.46090E-02 2.58091E-03-8.25033E-14
 -1      2510 1.44661E-02 2.55318E-03-8.09030E-14
 -1      2511 1.43706E-02 2.50220E-03-8.04114E-14
 -1      2512 1.48947E-02 2.63638E-03-8.57304E-14
 -1      2513 1.47518E-02 2.60865E-03-8.41098E-14
 -1      2514 1.46563E-02 2.55766E-03-8.36062E-14
 -1      2515 1.50430E-02 2.66608E-03-8.74018E-14
 -1      2516 1.47484E-02 2.31799E-03-8.91218E-14
 -1      2517 1.47757E-02 2.36015E-03-8.87956E-14
 -1      2518 1.46938E-02 2.23367E-03-8.97715E-14
 -1      2519 1.47211E-02 2.27583E-03-8.94470E-14
 -1      2520 1.46110E-02 2.27289E-03-8.78832E-14
 -1      2521 1.48567E-02 2.48518E-03-8.78219E-14
 -1      2522 1.48840E-02 2.52734E-03-8.74881E-14
 -1      2523 1.48028E-02 2.40195E-03-8.84710E-14
 -1      2524 1.48296E-02 2.44339E-03-8.81481E-14
 -1      2525 1.47195E-02 2.44045E-03-8.65806E-14
 -1      2526 1.46654E-02 2.35685E-03-8.72334E-14
 -1      2527 1.46392E-02 2.14934E-03-9.04175E-14
 -1      2528 1.46665E-02 2.19150E-03-9.00960E-14
 -1      2529 1.45564E-02 2.18857E-03-8.85315E-14
 -1      2530 1.45847E-02 2.06501E-03-9.10665E-14
 -1      2531 1.46120E-02 2.10717E-03-9.07432E-14
 -1      2532 1.45019E-02 2.10424E-03-8.91777E-14
 -1      2533 1.45302E-02 1.98068E-03-9.17070E-14
 -1      2534 1.45574E-02 2.02285E-03-9.13861E-14
 -1      2535 1.44473E-02 2.01991E-03-8.98166E-14
 -1      2536 1.44766E-02 1.89779E-03-9.23260E-14
 -1      2537 1.45034E-02 1.93923E-03-9.20175E-14
 -1      2538 1.43933E-02 1.93630E-03-9.04432E-14
 -1      2539 1.44221E-02 1.81347E-03-9.29413E-14
 -1      2540 1.44493E-02 1.85563E-03-9.26364E-14
 -1      2541 1.43392E-02 1.85269E-03-9.10577E-14
 -1      2542 1.43676E-02 1.72915E-03-9.35475E-14
 -1      2543 1.43949E-02 1.77131E-03-9.32469E-14
 -1      2544 1.42848E-02 1.76837E-03-9.16670E-14
 -1      2545 1.43131E-02 1.64485E-03-9.41388E-14
 -1      2546 1.43404E-02 1.68700E-03-9.38423E-14
 -1      2547 1.42303E-02 1.68406E-03-9.22657E-14
 -1      2548 5.13465E-03 5.93499E-04-6.81758E-15
 -1      2549 5.29418E-03 5.30381E-04-7.12669E-15
 -1      2550 1.43429E-02 1.58569E-03-9.55541E-14
 -1      2551 5.53917E-03 3.66732E-04-8.13294E-15
 -1      2552 5.40677E-03 3.33811E-04-8.09501E-15
 -1      2553 1.90268E-03 6.25082E-04-7.27310E-16
 -1      2554 1.72248E-03 5.49474E-04-5.76159E-16
 -1      2555 1.92906E-03 6.10869E-04-8.78787E-16
 -1      2556 5.66199E-03 4.12972E-04-7.90241E-15
 -1      2557 5.68037E-03 4.06550E-04-8.02409E-15
 -1      2558 4.82172E-03 7.44960E-04-6.26696E-15
 -1      2559 4.98254E-03 6.63055E-04-6.53926E-15
 -1      2560 5.08338E-03 6.25717E-04-6.90828E-15
 -1      2561 4.47605E-03-7.73676E-05-7.16500E-15
 -1      2562 4.29569E-03-1.84503E-04-6.88643E-15
 -1      2563 3.20544E-03-6.59045E-04-4.68627E-15
 -1      2564 3.05528E-03-6.38316E-04-4.34180E-15
 -1      2565 6.50261E-04-2.10700E-04-2.95377E-16
 -1      2566 8.68231E-04-2.85897E-04-4.64039E-16
 -1      2567 9.26423E-04-2.71092E-04-5.47332E-16
 -1      2568 6.31330E-04-1.75330E-04-3.01761E-16
 -1      2569 4.54139E-04 3.59142E-05-2.71728E-16
 -1      2570 4.70696E-04 2.73056E-05-2.77935E-16
 -1      2571 5.80208E-04 2.16462E-05-3.79579E-16
 -1      2572 5.37112E-04 4.49808E-05-3.63004E-16
 -1      2573 3.02719E-03 1.16962E-03-2.85622E-15
 -1      2574 3.17554E-03 1.25019E-03-3.07060E-15
 -1      2575 3.71772E-03 1.31927E-03-4.07942E-15
 -1      2576 3.85094E-03 1.27423E-03-4.36633E-15
 -1      2577 1.16759E-03 1.75392E-04-1.92878E-15
 -1      2578 1.09816E-03 1.83561E-04-1.83165E-15
 -1      2579 2.69219E-03 9.56925E-04-2.48276E-15
 -1      2580 2.84621E-03 1.06028E-03-2.63548E-15
 -1      2581 1.84440E-03 4.49534E-04-1.93138E-15
 -1      2582 2.01657E-03 5.38737E-04-2.01282E-15
 -1      2583 1.42934E-03 2.76774E-04-1.77855E-15
 -1      2584 1.63178E-03 3.53426E-04-1.85628E-15
 -1      2585 1.17447E-03 2.06235E-04-1.72602E-15
 -1      2586 1.25679E-03 2.21943E-04-1.72163E-15
 -1      2587 4.90760E-03 1.47854E-04-7.78122E-15
 -1      2588 4.70182E-03 4.69574E-05-7.52622E-15
 -1      2589 1.07724E-03 1.89891E-04-1.75966E-15
 -1      2590 1.10846E-03 1.93372E-04-1.74235E-15
 -1      2591 1.11929E-03 1.87139E-04-1.61313E-15
 -1      2592 1.38321E-03 1.22853E-04-2.11362E-15
 -1      2593 1.26838E-03 1.52146E-04-2.01780E-15
 -1      2594 1.66795E-03 2.26036E-05-2.33425E-15
 -1      2595 1.51766E-03 7.89629E-05-2.22114E-15
 -1      2596 1.42576E-03 1.03017E-04-2.03681E-15
 -1      2597 2.07193E-03-1.65607E-04-2.71651E-15
 -1      2598 1.88333E-03-7.17517E-05-2.51813E-15
 -1      2599 2.86129E-03-5.76510E-04-3.93194E-15
 -1      2600 2.70976E-03-5.03185E-04-3.64761E-15
 -1      2601 3.46815E-03-6.24001E-04-5.29123E-15
 -1      2602 3.35168E-03-6.51085E-04-5.01568E-15
 -1      2603 3.80121E-03-4.75039E-04-6.03359E-15
 -1      2604 3.63090E-03-5.63580E-04-5.66731E-15
 -1      2605 4.15021E-03-2.70550E-04-6.65989E-15
 -1      2606 4.01121E-03-3.55638E-04-6.43895E-15
 -1      2607 4.23526E-03-2.13707E-04-7.02860E-15
 -1      2608 5.25162E-03 2.85313E-04-8.05823E-15
 -1      2609 5.12027E-03 2.38284E-04-7.97168E-15
 -1      2610 5.66692E-03 3.97813E-04-8.20414E-15
 -1      2611 5.62708E-03 3.90549E-04-8.22092E-15
 -1      2612 3.99129E-03 1.21305E-03-4.65659E-15
 -1      2613 4.13669E-03 1.13441E-03-4.95594E-15
 -1      2614 3.92619E-03 1.25410E-03-4.51074E-15
 -1      2615 8.86226E-04 2.79452E-04-1.05520E-16
 -1      2616 7.12754E-04 2.27830E-04-5.83572E-17
 -1      2617 6.69225E-04 1.96166E-04-7.19097E-17
 -1      2618 9.27559E-04 2.63800E-04-1.69867E-16
 -1      2619 3.21184E-03 1.26844E-03-2.98475E-15
 -1      2620 3.28166E-03 1.29533E-03-3.18829E-15
 -1      2621 3.37467E-03 1.32715E-03-3.30676E-15
 -1      2622 6.74394E-04-7.04528E-05-4.03012E-16
 -1      2623 5.63061E-04-6.51595E-05-2.99524E-16
 -1      2624 5.79835E-04-9.15624E-05-3.01042E-16
 -1      2625 1.57022E-03 4.64655E-04-5.66103E-16
 -1      2626 6.32941E-04 1.59448E-04-9.84727E-17
 -1      2627 2.95789E-03-6.18062E-04-4.13488E-15
 -1      2628 2.86399E-03-5.90711E-04-3.93205E-15
 -1      2629 3.03653E-03-6.46491E-04-4.34120E-15
 -1      2630 1.75360E-03-2.35737E-05-2.31324E-15
 -1      2631 1.06870E-03 1.80439E-04-1.69638E-15
 -1      2632 1.05019E-03 1.72368E-04-1.56650E-15
 -1      2633 1.07486E-03 1.72679E-04-1.63291E-15
 -1      2634 2.57263E-03 8.74048E-04-2.27089E-15
 -1      2635 4.60524E-03 8.77414E-04-5.98664E-15
 -1      2636 4.70673E-03 8.09813E-04-6.12698E-15
 -1      2637 4.83220E-03 7.56937E-04-6.48132E-15
 -1      2638 5.40245E-03 4.94071E-04-7.47711E-15
 -1      2639 5.49700E-03 4.73408E-04-7.83398E-15
 -1      2640 5.33894E-03 5.29360E-04-7.54617E-15
 -1      2641 5.35638E-03 3.24160E-04-8.42800E-15
 -1      2642 5.00832E-03 1.95120E-04-8.19269E-15
 -1      2643 1.49475E-02 2.61509E-03-8.68848E-14
 -1      2644 1.49103E-02 2.57892E-03-8.69730E-14
 -1      2645 1.20027E-03 1.61165E-04-1.85033E-15
 -1      2646 1.41842E-02 1.54159E-03-9.39265E-14
 -1      2647 1.42645E-02 1.60369E-03-9.40972E-14
 -1      2648 1.41544E-02 1.60075E-03-9.25172E-14
 -1      2649 1.40573E-02 1.51842E-03-9.24341E-14
 -1      2650 1.33851E-03 2.37398E-04-1.65092E-15
 -1      2651 1.42391E-03 2.59719E-04-1.58052E-15
 -1      2652 1.25906E-03 2.11105E-04-1.52834E-15
 -1      2653 5.59282E-03 3.87313E-04-8.55526E-15
 -1      2654 7.49361E-04 1.79969E-04-1.60841E-16
 -1      2655 5.63951E-03 4.26285E-04-8.01733E-15
 -1      2656 5.96839E-04-1.16294E-04-3.03658E-16
 -1      2657 6.13340E-04-1.46819E-04-3.02221E-16
 -1      2658 7.56023E-04-1.89749E-04-4.14856E-16
 -1      2659 7.15781E-04-1.28752E-04-4.10452E-16
 -1      2660 4.59016E-03-9.21346E-06-7.62551E-15
 -1      2661 5.69246E-03 4.08673E-04-8.45985E-15
 -1      2662 3.89979E-03-4.17994E-04-6.38107E-15
 -1      2663 3.55491E-03-5.94483E-04-5.58971E-15
 -1      2664 1.72111E-03 3.83905E-04-1.77638E-15
 -1      2665 3.26774E-03-6.61751E-04-4.87945E-15
 -1      2666 2.59295E-03-4.49857E-04-3.42333E-15
 -1      2667 2.14610E-03 6.05106E-04-1.97421E-15
 -1      2668 3.62693E-03 1.34172E-03-3.86515E-15
 -1      2669 3.71295E-03 1.33530E-03-4.00453E-15
 -1      2670 3.54792E-03 1.35029E-03-3.65566E-15
 -1      2671 2.94399E-03 1.11914E-03-2.65269E-15
 -1      2672 2.17592E-03-2.24058E-04-2.79898E-15
 -1      2673 2.04899E-03-1.76159E-04-2.57106E-15
 -1      2674 2.26616E-03-2.83536E-04-2.88203E-15
 -1      2675 4.17351E-03 1.13525E-03-5.06480E-15
 -1      2676 4.25345E-03 1.07413E-03-5.21864E-15
 -1      2677 4.37016E-03 1.01352E-03-5.48849E-15
 -1      2678 1.47729E-02 2.53382E-03-8.57379E-14
 -1      2679 1.40098E-02 1.54167E-03-9.13550E-14
 -1      2680 5.94744E-04 6.80998E-05-4.11129E-16
 -1      2681 5.86392E-04 6.66651E-05-4.25875E-16
 -1      2682 5.87525E-04 6.54549E-05-4.39807E-16
 -1      2683 5.97439E-04 6.22821E-05-4.52939E-16
 -1      2684 6.63683E-04 7.82508E-05-5.46329E-16
 -1      2685 7.14035E-04 1.04571E-04-3.37377E-16
 -1      2686 6.74717E-04 8.83264E-05-3.59196E-16
 -1      2687 8.03937E-04 1.53966E-04-2.86365E-16
 -1      2688 7.57863E-04 1.26502E-04-3.13294E-16
 -1      2689 8.46097E-04 1.39699E-04-4.18312E-16
 -1      2690 1.25239E-03 3.30517E-04-4.26484E-16
 -1      2691 1.08802E-03 2.80980E-04-3.19731E-16
 -1      2692 5.61726E-03 4.42015E-04-8.20224E-15
 -1      2693 5.68512E-03 4.29040E-04-8.46540E-15
 -1      2694 1.46197E-03-3.88922E-04-1.23065E-15
 -1      2695 1.62741E-03-4.34951E-04-1.48396E-15
 -1      2696 1.79415E-03-4.82469E-04-1.76142E-15
 -1      2697 1.96111E-03-5.31231E-04-2.06391E-15
 -1      2698 1.68818E-03-4.10306E-04-1.61309E-15
 -1      2699 2.12827E-03-5.80700E-04-2.39123E-15
 -1      2700 2.29423E-03-6.29104E-04-2.74292E-15
 -1      2701 2.02769E-03-5.08341E-04-2.21118E-15
 -1      2702 2.45866E-03-6.75151E-04-3.12093E-15
 -1      2703 2.62066E-03-7.15354E-04-3.52466E-15
 -1      2704 2.36750E-03-6.10002E-04-2.90830E-15
 -1      2705 2.77967E-03-7.47914E-04-3.95452E-15
 -1      2706 2.93645E-03-7.69026E-04-4.41095E-15
 -1      2707 2.69944E-03-6.98233E-04-3.70683E-15
 -1      2708 3.09024E-03-7.77040E-04-4.89463E-15
 -1      2709 3.24408E-03-7.70119E-04-5.40358E-15
 -1      2710 3.01896E-03-7.47170E-04-4.61140E-15
 -1      2711 3.39722E-03-7.48105E-04-5.93855E-15
 -1      2712 3.55258E-03-7.12167E-04-6.50005E-15
 -1      2713 3.33107E-03-7.34103E-04-5.62331E-15
 -1      2714 3.70966E-03-6.63869E-04-7.08601E-15
 -1      2715 3.86968E-03-6.06973E-04-7.69761E-15
 -1      2716 3.64739E-03-6.56578E-04-6.73887E-15
 -1      2717 4.03209E-03-5.43605E-04-8.33227E-15
 -1      2718 4.19629E-03-4.77618E-04-8.99030E-15
 -1      2719 3.97497E-03-5.34502E-04-7.95517E-15
 -1      2720 4.36183E-03-4.10928E-04-9.67013E-15
 -1      2721 4.52731E-03-3.45781E-04-1.03711E-14
 -1      2722 4.31158E-03-3.96328E-04-9.26543E-15
 -1      2723 4.69264E-03-2.83391E-04-1.10932E-14
 -1      2724 4.85650E-03-2.24600E-04-1.18359E-14
 -1      2725 4.64940E-03-2.63819E-04-1.06624E-14
 -1      2726 5.01914E-03-1.69913E-04-1.25982E-14
 -1      2727 5.17969E-03-1.19241E-04-1.33782E-14
 -1      2728 4.98134E-03-1.47249E-04-1.21405E-14
 -1      2729 5.33858E-03-7.26656E-05-1.41776E-14
 -1      2730 5.49540E-03-2.97069E-05-1.49956E-14
 -1      2731 5.30398E-03-4.85565E-05-1.36945E-14
 -1      2732 5.65060E-03 9.78647E-06-1.58313E-14
 -1      2733 5.80403E-03 4.63603E-05-1.66843E-14
 -1      2734 5.61709E-03 3.43879E-05-1.53227E-14
 -1      2735 5.95608E-03 8.02760E-05-1.75543E-14
 -1      2736 6.10677E-03 1.12012E-04-1.84424E-14
 -1      2737 5.92211E-03 1.04960E-04-1.70220E-14
 -1      2738 6.25636E-03 1.41860E-04-1.93481E-14
 -1      2739 6.40495E-03 1.70189E-04-2.02701E-14
 -1      2740 6.22097E-03 1.66502E-04-1.87914E-14
 -1      2741 6.55271E-03 1.97273E-04-2.12091E-14
 -1      2742 6.69976E-03 2.23381E-04-2.21660E-14
 -1      2743 6.51547E-03 2.21858E-04-2.06295E-14
 -1      2744 6.84619E-03 2.48744E-04-2.31394E-14
 -1      2745 6.99211E-03 2.73550E-04-2.41310E-14
 -1      2746 6.80698E-03 2.73278E-04-2.25351E-14
 -1      2747 7.13757E-03 2.97978E-04-2.51400E-14
 -1      2748 7.28268E-03 3.22153E-04-2.61643E-14
 -1      2749 7.09652E-03 3.22458E-04-2.45098E-14
 -1      2750 7.42744E-03 3.46205E-04-2.72049E-14
 -1      2751 7.57195E-03 3.70215E-04-2.82618E-14
 -1      2752 7.38477E-03 3.70618E-04-2.65531E-14
 -1      2753 7.71621E-03 3.94268E-04-2.93351E-14
 -1      2754 7.86028E-03 4.18412E-04-3.04242E-14
 -1      2755 7.67219E-03 4.18597E-04-2.86602E-14
 -1      2756 8.00415E-03 4.42699E-04-3.15285E-14
 -1      2757 8.14790E-03 4.67156E-04-3.26464E-14
 -1      2758 7.95906E-03 4.66928E-04-3.08300E-14
 -1      2759 8.29149E-03 4.91806E-04-3.37809E-14
 -1      2760 8.43499E-03 5.16664E-04-3.49312E-14
 -1      2761 8.24558E-03 5.15926E-04-3.30620E-14
 -1      2762 8.57838E-03 5.41734E-04-3.60964E-14
 -1      2763 8.72170E-03 5.67020E-04-3.72766E-14
 -1      2764 8.53186E-03 5.65739E-04-3.53547E-14
 -1      2765 8.86493E-03 5.92517E-04-3.84752E-14
 -1      2766 9.00811E-03 6.18221E-04-3.96893E-14
 -1      2767 8.81798E-03 6.16409E-04-3.77111E-14
 -1      2768 9.15123E-03 6.44121E-04-4.09180E-14
 -1      2769 9.29431E-03 6.70209E-04-4.21619E-14
 -1      2770 9.10398E-03 6.67906E-04-4.01310E-14
 -1      2771 9.43735E-03 6.96471E-04-4.34208E-14
 -1      2772 9.58036E-03 7.22898E-04-4.46951E-14
 -1      2773 9.38990E-03 7.20159E-04-4.26138E-14
 -1      2774 9.72333E-03 7.49475E-04-4.59843E-14
 -1      2775 9.86628E-03 7.76191E-04-4.72903E-14
 -1      2776 9.67576E-03 7.73077E-04-4.51571E-14
 -1      2777 1.00092E-02 8.03032E-04-4.86129E-14
 -1      2778 1.01521E-02 8.29989E-04-4.99472E-14
 -1      2779 9.96158E-03 8.26559E-04-4.77641E-14
 -1      2780 1.02950E-02 8.57047E-04-5.12973E-14
 -1      2781 1.04379E-02 8.84199E-04-5.26623E-14
 -1      2782 1.02474E-02 8.80512E-04-5.04306E-14
 -1      2783 1.05808E-02 9.11432E-04-5.40404E-14
 -1      2784 1.07237E-02 9.38740E-04-5.54331E-14
 -1      2785 1.05331E-02 9.34846E-04-5.31554E-14
 -1      2786 1.08665E-02 9.66111E-04-5.68407E-14
 -1      2787 1.10094E-02 9.93540E-04-5.82615E-14
 -1      2788 1.08189E-02 9.89483E-04-5.59364E-14
 -1      2789 1.11522E-02 1.02102E-03-5.96941E-14
 -1      2790 1.12951E-02 1.04854E-03-6.11391E-14
 -1      2791 1.11046E-02 1.04436E-03-5.87730E-14
 -1      2792 1.14379E-02 1.07610E-03-6.25969E-14
 -1      2793 1.15808E-02 1.10369E-03-6.40672E-14
 -1      2794 1.13903E-02 1.09941E-03-6.16592E-14
 -1      2795 1.17236E-02 1.13131E-03-6.55508E-14
 -1      2796 1.18665E-02 1.15895E-03-6.70480E-14
 -1      2797 1.16761E-02 1.15460E-03-6.45962E-14
 -1      2798 1.20093E-02 1.18661E-03-6.85571E-14
 -1      2799 1.21522E-02 1.21429E-03-7.00789E-14
 -1      2800 1.19618E-02 1.20989E-03-6.75826E-14
 -1      2801 1.22950E-02 1.24199E-03-7.16153E-14
 -1      2802 1.24379E-02 1.26969E-03-7.31642E-14
 -1      2803 1.22475E-02 1.26525E-03-7.06218E-14
 -1      2804 1.25807E-02 1.29740E-03-7.47246E-14
 -1      2805 1.27235E-02 1.32513E-03-7.62939E-14
 -1      2806 1.25332E-02 1.32066E-03-7.37140E-14
 -1      2807 1.28664E-02 1.35285E-03-7.78756E-14
 -1      2808 1.30092E-02 1.38059E-03-7.94666E-14
 -1      2809 1.28189E-02 1.37611E-03-7.68503E-14
 -1      2810 1.31521E-02 1.40832E-03-8.10640E-14
 -1      2811 1.32949E-02 1.43606E-03-8.26710E-14
 -1      2812 1.31046E-02 1.43157E-03-8.00247E-14
 -1      2813 1.34378E-02 1.46379E-03-8.42823E-14
 -1      2814 1.35806E-02 1.49153E-03-8.59024E-14
 -1      2815 1.33903E-02 1.48705E-03-8.32304E-14
 -1      2816 1.37235E-02 1.51927E-03-8.75306E-14
 -1      2817 1.38664E-02 1.54701E-03-8.91648E-14
 -1      2818 1.36761E-02 1.54252E-03-8.64662E-14
 -1      2819 2.73241E-03 1.01743E-03-1.97903E-15
 -1      2820 2.53377E-03 8.98578E-04-1.70870E-15
 -1      2821 2.33418E-03 7.85526E-04-1.46207E-15
 -1      2822 2.14077E-03 6.83034E-04-1.23823E-15
 -1      2823 2.36221E-03 7.74193E-04-1.65503E-15
 -1      2824 3.45649E-03 1.36275E-03-3.26196E-15
 -1      2825 3.27249E-03 1.31147E-03-2.88682E-15
 -1      2826 3.79439E-03 1.35285E-03-4.03806E-15
 -1      2827 3.60999E-03 1.37611E-03-3.60949E-15
 -1      2828 4.23226E-03 1.20604E-03-5.10923E-15
 -1      2829 4.03923E-03 1.28217E-03-4.61725E-15
 -1      2830 4.63225E-03 1.03212E-03-6.20016E-15
 -1      2831 4.43483E-03 1.11061E-03-5.65524E-15
 -1      2832 5.01745E-03 9.08950E-04-7.36127E-15
 -1      2833 4.82859E-03 9.64242E-04-6.76901E-15
 -1      2834 4.77401E-03 9.28381E-04-6.61863E-15
 -1      2835 5.37809E-03 8.38613E-04-8.61269E-15
 -1      2836 5.20154E-03 8.67926E-04-7.97592E-15
 -1      2837 5.15534E-03 8.23585E-04-7.81521E-15
 -1      2838 5.71544E-03 8.13115E-04-9.94891E-15
 -1      2839 5.54956E-03 8.21317E-04-9.27112E-15
 -1      2840 5.50386E-03 7.74697E-04-9.09826E-15
 -1      2841 6.03589E-03 8.20772E-04-1.13657E-14
 -1      2842 5.87744E-03 8.13637E-04-1.06475E-14
 -1      2843 5.82692E-03 7.66420E-04-1.04638E-14
 -1      2844 6.34547E-03 8.51461E-04-1.28615E-14
 -1      2845 6.19174E-03 8.33825E-04-1.21042E-14
 -1      2846 6.13397E-03 7.85919E-04-1.19081E-14
 -1      2847 6.64836E-03 8.97421E-04-1.44320E-14
 -1      2848 6.49753E-03 8.72934E-04-1.36374E-14
 -1      2849 6.43212E-03 8.24022E-04-1.34301E-14
 -1      2850 6.94699E-03 9.52973E-04-1.60791E-14
 -1      2851 6.79806E-03 9.24269E-04-1.52457E-14
 -1      2852 6.72563E-03 8.74281E-04-1.50253E-14
 -1      2853 7.24276E-03 1.01412E-03-1.77971E-14
 -1      2854 7.09513E-03 9.83028E-04-1.69288E-14
 -1      2855 7.01678E-03 9.32110E-04-1.66959E-14
 -1      2856 7.53642E-03 1.07814E-03-1.95865E-14
 -1      2857 7.38978E-03 1.04589E-03-1.86837E-14
 -1      2858 7.30667E-03 9.94289E-04-1.84373E-14
 -1      2859 7.82842E-03 1.14327E-03-2.14428E-14
 -1      2860 7.68257E-03 1.11064E-03-2.05058E-14
 -1      2861 7.59578E-03 1.05861E-03-2.02489E-14
 -1      2862 8.11907E-03 1.20840E-03-2.33680E-14
 -1      2863 7.97387E-03 1.17588E-03-2.23973E-14
 -1      2864 7.88432E-03 1.12363E-03-2.21275E-14
 -1      2865 8.40861E-03 1.27288E-03-2.53582E-14
 -1      2866 8.26395E-03 1.24074E-03-2.43556E-14
 -1      2867 8.17237E-03 1.18844E-03-2.40739E-14
 -1      2868 8.69724E-03 1.33639E-03-2.74220E-14
 -1      2869 8.55301E-03 1.30477E-03-2.63796E-14
 -1      2870 8.45999E-03 1.25252E-03-2.60880E-14
 -1      2871 8.98513E-03 1.39880E-03-2.95521E-14
 -1      2872 8.84125E-03 1.36774E-03-2.84790E-14
 -1      2873 8.74722E-03 1.31560E-03-2.81731E-14
 -1      2874 9.27243E-03 1.46011E-03-3.17522E-14
 -1      2875 9.12884E-03 1.42959E-03-3.06439E-14
 -1      2876 9.03411E-03 1.37760E-03-3.03279E-14
 -1      2877 9.55928E-03 1.52038E-03-3.40196E-14
 -1      2878 9.41590E-03 1.49037E-03-3.28772E-14
 -1      2879 9.32072E-03 1.43853E-03-3.25493E-14
 -1      2880 9.84577E-03 1.57972E-03-3.63517E-14
 -1      2881 9.70256E-03 1.55016E-03-3.51767E-14
 -1      2882 9.60709E-03 1.49846E-03-3.48375E-14
 -1      2883 1.01320E-02 1.63826E-03-3.87476E-14
 -1      2884 9.98891E-03 1.60908E-03-3.75431E-14
 -1      2885 9.89328E-03 1.55752E-03-3.71918E-14
 -1      2886 1.04180E-02 1.69611E-03-4.12044E-14
 -1      2887 1.02750E-02 1.66726E-03-3.99680E-14
 -1      2888 1.01793E-02 1.61582E-03-3.96095E-14
 -1      2889 1.07040E-02 1.75341E-03-4.37246E-14
 -1      2890 1.05610E-02 1.72483E-03-4.24555E-14
 -1      2891 1.04653E-02 1.67349E-03-4.20872E-14
 -1      2892 1.09898E-02 1.81025E-03-4.63027E-14
 -1      2893 1.08469E-02 1.78188E-03-4.50063E-14
 -1      2894 1.07511E-02 1.73063E-03-4.46273E-14
 -1      2895 1.12755E-02 1.86673E-03-4.89472E-14
 -1      2896 1.11326E-02 1.83853E-03-4.76181E-14
 -1      2897 1.10369E-02 1.78735E-03-4.72279E-14
 -1      2898 1.15612E-02 1.92293E-03-5.16498E-14
 -1      2899 1.14184E-02 1.89486E-03-5.02901E-14
 -1      2900 1.13227E-02 1.84373E-03-4.98907E-14
 -1      2901 1.18469E-02 1.97891E-03-5.44141E-14
 -1      2902 1.17041E-02 1.95095E-03-5.30245E-14
 -1      2903 1.16084E-02 1.89986E-03-5.26142E-14
 -1      2904 1.21326E-02 2.03473E-03-5.72334E-14
 -1      2905 1.19897E-02 2.00684E-03-5.58171E-14
 -1      2906 1.18941E-02 1.95578E-03-5.53942E-14
 -1      2907 1.24182E-02 2.09043E-03-6.01115E-14
 -1      2908 1.22754E-02 2.06259E-03-5.86655E-14
 -1      2909 1.21798E-02 2.01156E-03-5.82314E-14
 -1      2910 1.27039E-02 2.14604E-03-6.30398E-14
 -1      2911 1.25611E-02 2.11824E-03-6.15690E-14
 -1      2912 1.24655E-02 2.06723E-03-6.11213E-14
 -1      2913 1.29896E-02 2.20158E-03-6.60185E-14
 -1      2914 1.28467E-02 2.17382E-03-6.45248E-14
 -1      2915 1.27512E-02 2.12282E-03-6.40635E-14
 -1      2916 1.32753E-02 2.25709E-03-6.90408E-14
 -1      2917 1.31324E-02 2.22934E-03-6.75255E-14
 -1      2918 1.30369E-02 2.17835E-03-6.70545E-14
 -1      2919 1.35609E-02 2.31257E-03-7.21017E-14
 -1      2920 1.34181E-02 2.28483E-03-7.05654E-14
 -1      2921 1.33226E-02 2.23385E-03-7.00876E-14
 -1      2922 1.38466E-02 2.36803E-03-7.52010E-14
 -1      2923 1.37038E-02 2.34030E-03-7.36461E-14
 -1      2924 1.36083E-02 2.28932E-03-7.31620E-14
 -1      2925 1.41323E-02 2.42349E-03-7.83346E-14
 -1      2926 1.39895E-02 2.39576E-03-7.67634E-14
 -1      2927 1.38940E-02 2.34478E-03-7.62723E-14
 -1      2928 1.44180E-02 2.47895E-03-8.15040E-14
 -1      2929 1.42752E-02 2.45122E-03-7.99165E-14
 -1      2930 1.41797E-02 2.40024E-03-7.94190E-14
 -1      2931 1.46669E-02 2.52025E-03-8.44189E-14
 -1      2932 1.45240E-02 2.49252E-03-8.28134E-14
 -1      2933 1.44286E-02 2.44153E-03-8.23097E-14
 -1      2934 1.46406E-02 2.46867E-03-8.49346E-14
 -1      2935 1.43645E-02 2.05914E-03-8.79341E-14
 -1      2936 1.43918E-02 2.10130E-03-8.76157E-14
 -1      2937 1.39624E-02 1.56492E-03-9.02818E-14
 -1      2938 1.40584E-02 1.58283E-03-9.13983E-14
 -1      2939 1.39149E-02 1.58817E-03-8.92079E-14
 -1      2940 1.44737E-02 2.22779E-03-8.66492E-14
 -1      2941 1.45010E-02 2.26995E-03-8.63232E-14
 -1      2942 1.43100E-02 1.97481E-03-8.85653E-14
 -1      2943 1.43372E-02 2.01698E-03-8.82513E-14
 -1      2944 1.42272E-02 2.01404E-03-8.66943E-14
 -1      2945 1.44191E-02 2.14347E-03-8.72960E-14
 -1      2946 1.44464E-02 2.18563E-03-8.69726E-14
 -1      2947 1.43363E-02 2.18270E-03-8.54189E-14
 -1      2948 1.42817E-02 2.09837E-03-8.60621E-14
 -1      2949 1.95120E-03 5.93170E-04-1.03612E-15
 -1      2950 1.76904E-03 5.13834E-04-8.54934E-16
 -1      2951 1.96893E-03 5.72288E-04-1.19940E-15
 -1      2952 1.42564E-02 1.89192E-03-8.91780E-14
 -1      2953 1.42832E-02 1.93336E-03-8.88739E-14
 -1      2954 1.41731E-02 1.93043E-03-8.73112E-14
 -1      2955 1.42019E-02 1.80759E-03-8.97897E-14
 -1      2956 1.42291E-02 1.84975E-03-8.94854E-14
 -1      2957 1.41190E-02 1.84682E-03-8.79208E-14
 -1      2958 1.41474E-02 1.72328E-03-9.03940E-14
 -1      2959 1.41747E-02 1.76543E-03-9.00926E-14
 -1      2960 1.40646E-02 1.76250E-03-8.85272E-14
 -1      2961 5.45182E-03 3.54077E-04-8.84067E-15
 -1      2962 5.31763E-03 3.13415E-04-8.80005E-15
 -1      2963 1.22745E-03 1.46527E-04-1.77338E-15
 -1      2964 1.13820E-03 1.62089E-04-1.69289E-15
 -1      2965 5.03688E-03 6.65701E-04-6.98634E-15
 -1      2966 5.17123E-03 6.05914E-04-7.27581E-15
 -1      2967 3.88711E-03 1.28893E-03-4.38497E-15
 -1      2968 4.00831E-03 1.23231E-03-4.67782E-15
 -1      2969 4.30832E-03-1.73052E-04-7.44210E-15
 -1      2970 4.18179E-03-2.51105E-04-7.20561E-15
 -1      2971 1.79376E-03-6.38263E-05-2.24003E-15
 -1      2972 1.61096E-03 1.86386E-05-2.07226E-15
 -1      2973 9.02620E-04-2.34390E-04-5.47658E-16
 -1      2974 1.05217E-03-2.80779E-04-7.00408E-16
 -1      2975 8.79778E-04-1.99083E-04-5.45787E-16
 -1      2976 1.17446E-03-3.12401E-04-8.44092E-16
 -1      2977 1.33743E-03-3.56037E-04-1.05451E-15
 -1      2978 1.39514E-03-3.32420E-04-1.16657E-15
 -1      2979 1.14844E-03-2.71483E-04-8.40311E-16
 -1      2980 4.71144E-03 4.99682E-05-8.18773E-15
 -1      2981 4.50799E-03-5.85245E-05-7.81109E-15
 -1      2982 4.45124E-03-1.06394E-04-7.99324E-15
 -1      2983 1.41070E-02 1.62400E-03-9.14381E-14
 -1      2984 1.59174E-03 4.45254E-04-6.93401E-16
 -1      2985 1.42010E-03 3.84421E-04-5.50748E-16
 -1      2986 1.27415E-03 3.11656E-04-5.30649E-16
 -1      2987 1.60782E-03 4.23453E-04-8.26677E-16
 -1      2988 6.40585E-04 7.75514E-05-3.78658E-16
 -1      2989 6.14137E-04 7.11468E-05-3.96750E-16
 -1      2990 7.50872E-04 1.00415E-04-4.70435E-16
 -1      2991 2.48603E-03 8.19434E-04-2.01611E-15
 -1      2992 2.67111E-03 9.45982E-04-2.17361E-15
 -1      2993 7.27842E-04-1.31056E-05-5.07773E-16
 -1      2994 7.56999E-04-4.11824E-05-5.15511E-16
 -1      2995 3.33870E-03-6.60771E-04-5.15603E-15
 -1      2996 3.21464E-03-6.70460E-04-4.82088E-15
 -1      2997 5.64951E-03 4.01567E-04-9.01892E-15
 -1      2998 5.56255E-03 3.83892E-04-8.92914E-15
 -1      2999 5.53668E-03 3.74199E-04-9.30864E-15
 -1      3000 5.72239E-03 4.22023E-04-8.80165E-15
 -1      3001 5.71679E-03 4.18553E-04-8.98882E-15
 -1      3002 1.07180E-03 1.72997E-04-1.49093E-15
 -1      3003 1.12707E-03 1.79087E-04-1.47597E-15
 -1      3004 1.46546E-03 7.78841E-05-1.96818E-15
 -1      3005 1.34827E-03 1.14268E-04-1.87027E-15
 -1      3006 1.25819E-03 1.23793E-04-1.70844E-15
 -1      3007 1.51064E-03 3.68087E-05-1.89956E-15
 -1      3008 2.03614E-03 5.39792E-04-1.78671E-15
 -1      3009 2.24480E-03 6.63019E-04-1.90936E-15
 -1      3010 2.64607E-03-4.94040E-04-3.48709E-15
 -1      3011 2.47372E-03-3.97463E-04-3.18811E-15
 -1      3012 1.60860E-03 3.30011E-04-1.61121E-15
 -1      3013 1.79853E-03 4.15476E-04-1.67687E-15
 -1      3014 3.61616E-03-5.71127E-04-5.91117E-15
 -1      3015 3.47653E-03-6.27721E-04-5.52645E-15
 -1      3016 3.41167E-03-6.50788E-04-5.45839E-15
 -1      3017 5.12763E-03 2.41355E-04-8.72260E-15
 -1      3018 4.93918E-03 1.60491E-04-8.52193E-15
 -1      3019 3.99333E-03-3.63498E-04-6.78961E-15
 -1      3020 3.81008E-03-4.73198E-04-6.37202E-15
 -1      3021 8.69664E-04 2.09550E-04-2.23278E-16
 -1      3022 7.84746E-04-7.26728E-05-5.22165E-16
 -1      3023 8.10600E-04-1.06674E-04-5.27220E-16
 -1      3024 8.93231E-04-7.17679E-05-6.55739E-16
 -1      3025 6.89729E-04 6.87548E-05-5.78612E-16
 -1      3026 6.15378E-04 5.61422E-05-4.65136E-16
 -1      3027 6.38848E-04 4.57745E-05-4.76507E-16
 -1      3028 5.73277E-03 4.35183E-04-8.99159E-15
 -1      3029 3.14616E-03 1.24523E-03-2.75958E-15
 -1      3030 3.12348E-03 1.24754E-03-2.55908E-15
 -1      3031 2.93372E-03 1.14483E-03-2.23878E-15
 -1      3032 3.05126E-03 1.18963E-03-2.65684E-15
 -1      3033 3.11959E-03-6.68230E-04-4.59706E-15
 -1      3034 1.08154E-03 1.60503E-04-1.56026E-15
 -1      3035 4.50843E-03 9.49809E-04-5.82177E-15
 -1      3036 2.78387E-03 1.03466E-03-2.17014E-15
 -1      3037 2.89489E-03 1.09067E-03-2.44767E-15
 -1      3038 5.29072E-03 5.66171E-04-7.62760E-15
 -1      3039 5.40158E-03 5.38195E-04-7.98650E-15
 -1      3040 5.25524E-03 6.07197E-04-7.70601E-15
 -1      3041 4.08357E-03-3.21929E-04-7.19210E-15
 -1      3042 3.71982E-03-5.28019E-04-6.29958E-15
 -1      3043 1.43907E-02 2.26666E-03-8.47722E-14
 -1      3044 1.45280E-02 2.31175E-03-8.60009E-14
 -1      3045 1.45551E-02 2.35355E-03-8.56760E-14
 -1      3046 1.49404E-03 2.86325E-04-1.48871E-15
 -1      3047 4.35860E-03 1.10572E-03-5.49094E-15
 -1      3048 1.45843E-02 2.39022E-03-8.54710E-14
 -1      3049 1.46114E-02 2.43201E-03-8.51438E-14
 -1      3050 1.45054E-02 2.41844E-03-8.38302E-14
 -1      3051 1.44469E-02 2.34512E-03-8.42445E-14
 -1      3052 1.89706E-03 4.71395E-04-1.61795E-15
 -1      3053 1.03327E-03 1.63577E-04-1.42992E-15
 -1      3054 1.01970E-03 1.55257E-04-1.29971E-15
 -1      3055 1.00885E-03 1.57216E-04-1.36937E-15
 -1      3056 6.84976E-04 8.35392E-05-5.11540E-16
 -1      3057 5.25180E-03 2.80720E-04-9.13893E-15
 -1      3058 5.71641E-03 4.17679E-04-9.36904E-15
 -1      3059 1.41342E-02 1.66615E-03-9.11476E-14
 -1      3060 1.17534E-03 1.86578E-04-1.40895E-15
 -1      3061 1.23131E-03 1.99024E-04-1.34303E-15
 -1      3062 1.10312E-03 1.69290E-04-1.29424E-15
 -1      3063 1.88396E-03-1.15067E-04-2.31010E-15
 -1      3064 1.72723E-03-7.02591E-05-2.06408E-15
 -1      3065 1.96651E-03-1.69525E-04-2.38080E-15
 -1      3066 3.80333E-03 1.32510E-03-4.15829E-15
 -1      3067 4.12032E-03 1.18460E-03-4.93086E-15
 -1      3068 4.94155E-03 7.22357E-04-6.83543E-15
 -1      3069 5.04794E-03 6.99896E-04-7.19680E-15
 -1      3070 4.85256E-03 7.83241E-04-6.68420E-15
 -1      3071 2.35754E-03 7.47490E-04-1.82008E-15
 -1      3072 4.85770E-03 1.07952E-04-8.71337E-15
 -1      3073 5.57709E-03 4.65877E-04-8.27481E-15
 -1      3074 1.39695E-02 1.62569E-03-8.93941E-14
 -1      3075 1.40928E-02 1.68576E-03-9.02121E-14
 -1      3076 1.39827E-02 1.68282E-03-8.86473E-14
 -1      3077 1.38735E-02 1.60778E-03-8.82818E-14
 -1      3078 3.46919E-03 1.34941E-03-3.43229E-15
 -1      3079 6.68065E-04 3.09175E-05-4.89070E-16
 -1      3080 6.97569E-04 1.11935E-05-4.98923E-16
 -1      3081 8.23718E-04-5.64647E-06-6.35952E-16
 -1      3082 2.82370E-03-5.96754E-04-3.86364E-15
 -1      3083 2.74223E-03-5.50288E-04-3.67315E-15
 -1      3084 2.62050E-03-5.07614E-04-3.42341E-15
 -1      3085 2.33545E-03-3.42355E-04-2.93761E-15
 -1      3086 9.02391E-04 1.97014E-04-2.95554E-16
 -1      3087 1.00395E-03 2.12846E-04-4.01019E-16
 -1      3088 1.15415E-03 2.53462E-04-5.20444E-16
 -1      3089 1.04080E-03 2.03526E-04-5.06078E-16
 -1      3090 1.30901E-03 2.98741E-04-6.57636E-16
 -1      3091 9.76288E-04 1.69357E-04-5.41803E-16
 -1      3092 8.70441E-04 1.27145E-04-5.70629E-16
 -1      3093 8.20478E-04 1.10928E-04-5.98493E-16
 -1      3094 3.15583E-03-6.83576E-04-4.77296E-15
 -1      3095 2.99360E-03-6.57259E-04-4.29921E-15
 -1      3096 5.73332E-03 4.51555E-04-9.13917E-15
 -1      3097 5.77922E-03 4.45506E-04-9.48644E-15
 -1      3098 1.36906E-03 2.42620E-04-1.33633E-15
 -1      3099 1.53121E-03 3.04863E-04-1.36166E-15
 -1      3100 1.92145E-03-4.32320E-04-2.03722E-15
 -1      3101 2.09519E-03-4.84148E-04-2.35687E-15
 -1      3102 2.27010E-03-5.38424E-04-2.70105E-15
 -1      3103 2.44311E-03-5.91525E-04-3.07018E-15
 -1      3104 2.16286E-03-4.60254E-04-2.50056E-15
 -1      3105 2.61421E-03-6.42188E-04-3.46519E-15
 -1      3106 2.78154E-03-6.83735E-04-3.88596E-15
 -1      3107 2.51952E-03-5.76384E-04-3.22930E-15
 -1      3108 2.94579E-03-7.01909E-04-4.31129E-15
 -1      3109 3.10845E-03-7.16524E-04-4.78484E-15
 -1      3110 3.58247E-03-6.52727E-04-6.39640E-15
 -1      3111 3.74738E-03-5.95560E-04-6.97737E-15
 -1      3112 3.91551E-03-5.27589E-04-7.58287E-15
 -1      3113 4.08667E-03-4.55692E-04-8.21317E-15
 -1      3114 3.85609E-03-5.24810E-04-7.21504E-15
 -1      3115 4.26002E-03-3.82124E-04-8.86600E-15
 -1      3116 4.43328E-03-3.10870E-04-9.54086E-15
 -1      3117 4.20858E-03-3.69268E-04-8.46986E-15
 -1      3118 4.60618E-03-2.43368E-04-1.02367E-14
 -1      3119 4.77644E-03-1.80714E-04-1.09528E-14
 -1      3120 4.56384E-03-2.22036E-04-9.81471E-15
 -1      3121 4.94448E-03-1.23396E-04-1.16887E-14
 -1      3122 5.10904E-03-7.10113E-05-1.24436E-14
 -1      3123 4.90938E-03-9.76482E-05-1.12411E-14
 -1      3124 5.27076E-03-2.35682E-05-1.32186E-14
 -1      3125 5.42924E-03 1.98296E-05-1.40101E-14
 -1      3126 5.23981E-03 3.27248E-06-1.27456E-14
 -1      3127 5.58511E-03 5.93316E-05-1.48200E-14
 -1      3128 5.73840E-03 9.58043E-05-1.56493E-14
 -1      3129 5.55551E-03 8.56131E-05-1.43234E-14
 -1      3130 5.88964E-03 1.29451E-04-1.64960E-14
 -1      3131 6.03903E-03 1.60958E-04-1.73594E-14
 -1      3132 5.85945E-03 1.54672E-04-1.59736E-14
 -1      3133 6.18697E-03 1.90540E-04-1.82403E-14
 -1      3134 6.33369E-03 2.18673E-04-1.91397E-14
 -1      3135 6.15505E-03 2.14794E-04-1.76945E-14
 -1      3136 6.47944E-03 2.45567E-04-2.00551E-14
 -1      3137 6.62443E-03 2.71542E-04-2.09871E-14
 -1      3138 6.44526E-03 2.69137E-04-1.94844E-14
 -1      3139 6.76881E-03 2.96785E-04-2.19369E-14
 -1      3140 6.91274E-03 3.21503E-04-2.29034E-14
 -1      3141 6.73223E-03 3.19942E-04-2.13421E-14
 -1      3142 7.05631E-03 3.45850E-04-2.38877E-14
 -1      3143 7.19963E-03 3.69958E-04-2.48894E-14
 -1      3144 7.01746E-03 3.68794E-04-2.32687E-14
 -1      3145 7.34275E-03 3.93945E-04-2.59079E-14
 -1      3146 7.48576E-03 4.17889E-04-2.69410E-14
 -1      3147 7.30188E-03 4.16799E-04-2.52651E-14
 -1      3148 7.62865E-03 4.41876E-04-2.79915E-14
 -1      3149 7.77149E-03 4.65949E-04-2.90579E-14
 -1      3150 7.58605E-03 4.64707E-04-2.73265E-14
 -1      3151 7.91429E-03 4.90163E-04-3.01392E-14
 -1      3152 8.05707E-03 5.14540E-04-3.12364E-14
 -1      3153 7.87028E-03 5.12999E-04-2.94526E-14
 -1      3154 8.19984E-03 5.39110E-04-3.23483E-14
 -1      3155 8.34261E-03 5.63882E-04-3.34755E-14
 -1      3156 8.15471E-03 5.61957E-04-3.16389E-14
 -1      3157 8.48538E-03 5.88868E-04-3.46186E-14
 -1      3158 8.62817E-03 6.14066E-04-3.57771E-14
 -1      3159 8.43938E-03 6.11720E-04-3.38865E-14
 -1      3160 8.77096E-03 6.39477E-04-3.69516E-14
 -1      3161 8.91376E-03 6.65095E-04-3.81437E-14
 -1      3162 8.72430E-03 6.62327E-04-3.61977E-14
 -1      3163 9.05657E-03 6.90913E-04-3.93503E-14
 -1      3164 9.19940E-03 7.16920E-04-4.05733E-14
 -1      3165 9.00944E-03 7.13751E-04-3.85735E-14
 -1      3166 9.34223E-03 7.43105E-04-4.18116E-14
 -1      3167 9.48507E-03 7.69458E-04-4.30656E-14
 -1      3168 9.29476E-03 7.65925E-04-4.10133E-14
 -1      3169 9.62792E-03 7.95965E-04-4.43360E-14
 -1      3170 9.77078E-03 8.22616E-04-4.56212E-14
 -1      3171 9.58023E-03 8.18763E-04-4.35176E-14
 -1      3172 9.91364E-03 8.49397E-04-4.69232E-14
 -1      3173 1.00565E-02 8.76297E-04-4.82401E-14
 -1      3174 9.86579E-03 8.72169E-04-4.60865E-14
 -1      3175 1.01994E-02 9.03303E-04-4.95708E-14
 -1      3176 1.03422E-02 9.30408E-04-5.09169E-14
 -1      3177 1.01514E-02 9.26051E-04-4.87140E-14
 -1      3178 1.04851E-02 9.57598E-04-5.22757E-14
 -1      3179 1.06280E-02 9.84866E-04-5.36501E-14
 -1      3180 1.04371E-02 9.80321E-04-5.14005E-14
 -1      3181 1.07709E-02 1.01220E-03-5.50394E-14
 -1      3182 1.09137E-02 1.03960E-03-5.64424E-14
 -1      3183 1.07229E-02 1.03490E-03-5.41466E-14
 -1      3184 1.10566E-02 1.06705E-03-5.78581E-14
 -1      3185 1.11995E-02 1.09454E-03-5.92864E-14
 -1      3186 1.10086E-02 1.08973E-03-5.69451E-14
 -1      3187 1.13423E-02 1.12208E-03-6.07275E-14
 -1      3188 1.14852E-02 1.14965E-03-6.21805E-14
 -1      3189 1.12944E-02 1.14475E-03-5.97998E-14
 -1      3190 1.16281E-02 1.17725E-03-6.36458E-14
 -1      3191 1.17710E-02 1.20488E-03-6.51253E-14
 -1      3192 1.15801E-02 1.19990E-03-6.27012E-14
 -1      3193 1.19138E-02 1.23253E-03-6.66155E-14
 -1      3194 1.20567E-02 1.26020E-03-6.81191E-14
 -1      3195 1.18659E-02 1.25517E-03-6.56527E-14
 -1      3196 1.21996E-02 1.28788E-03-6.96374E-14
 -1      3197 1.23424E-02 1.31558E-03-7.11677E-14
 -1      3198 1.21516E-02 1.31051E-03-6.86554E-14
 -1      3199 1.24853E-02 1.34328E-03-7.27105E-14
 -1      3200 1.26282E-02 1.37100E-03-7.42644E-14
 -1      3201 1.24374E-02 1.36591E-03-7.17103E-14
 -1      3202 1.27710E-02 1.39872E-03-7.58306E-14
 -1      3203 1.29139E-02 1.42645E-03-7.74059E-14
 -1      3204 1.27231E-02 1.42134E-03-7.48141E-14
 -1      3205 1.30567E-02 1.45418E-03-7.89913E-14
 -1      3206 1.31996E-02 1.48192E-03-8.05858E-14
 -1      3207 1.30089E-02 1.47680E-03-7.79599E-14
 -1      3208 1.33425E-02 1.50965E-03-8.21855E-14
 -1      3209 1.34853E-02 1.53739E-03-8.37911E-14
 -1      3210 1.32946E-02 1.53227E-03-8.11420E-14
 -1      3211 1.36080E-02 1.55872E-03-8.52187E-14
 -1      3212 1.37509E-02 1.58645E-03-8.68411E-14
 -1      3213 1.38054E-02 1.62397E-03-8.70251E-14
 -1      3214 1.35601E-02 1.58133E-03-8.41639E-14
 -1      3215 1.40360E-02 1.88568E-03-8.60624E-14
 -1      3216 1.40628E-02 1.92713E-03-8.57622E-14
 -1      3217 4.06051E-03 1.24004E-03-4.74788E-15
 -1      3218 3.95393E-03 1.30877E-03-4.42008E-15
 -1      3219 4.95858E-03 8.12557E-04-7.12666E-15
 -1      3220 4.76068E-03 8.77417E-04-6.54128E-15
 -1      3221 5.93480E-03 7.26128E-04-1.09843E-14
 -1      3222 5.78407E-03 7.19042E-04-1.02776E-14
 -1      3223 6.22771E-03 7.55997E-04-1.24562E-14
 -1      3224 6.08225E-03 7.39007E-04-1.17103E-14
 -1      3225 6.03655E-03 6.92702E-04-1.15103E-14
 -1      3226 6.51473E-03 8.00181E-04-1.40021E-14
 -1      3227 6.37159E-03 7.76679E-04-1.32199E-14
 -1      3228 6.31580E-03 7.30744E-04-1.30079E-14
 -1      3229 6.79959E-03 8.53712E-04-1.56237E-14
 -1      3230 6.65723E-03 8.26016E-04-1.48039E-14
 -1      3231 6.59266E-03 7.79444E-04-1.45793E-14
 -1      3232 7.08404E-03 9.13075E-04-1.73172E-14
 -1      3233 6.94176E-03 8.82822E-04-1.64618E-14
 -1      3234 6.86989E-03 8.35207E-04-1.62258E-14
 -1      3235 7.36874E-03 9.75757E-04-1.90830E-14
 -1      3236 7.22630E-03 9.44108E-04-1.81915E-14
 -1      3237 7.14852E-03 8.95423E-04-1.79440E-14
 -1      3238 7.65387E-03 1.04000E-03-2.09146E-14
 -1      3239 7.51122E-03 1.00776E-03-1.99903E-14
 -1      3240 7.42877E-03 9.58162E-04-1.97306E-14
 -1      3241 7.93936E-03 1.10464E-03-2.28166E-14
 -1      3242 7.79655E-03 1.07232E-03-2.18570E-14
 -1      3243 7.71049E-03 1.02204E-03-2.15858E-14
 -1      3244 8.22512E-03 1.16894E-03-2.47839E-14
 -1      3245 8.08220E-03 1.13686E-03-2.37913E-14
 -1      3246 7.99339E-03 1.08609E-03-2.35076E-14
 -1      3247 8.51103E-03 1.23247E-03-2.68216E-14
 -1      3248 8.36805E-03 1.20081E-03-2.57943E-14
 -1      3249 8.27718E-03 1.14973E-03-2.54980E-14
 -1      3250 8.79701E-03 1.29501E-03-2.89288E-14
 -1      3251 8.65401E-03 1.26387E-03-2.78660E-14
 -1      3252 8.56163E-03 1.21261E-03-2.75588E-14
 -1      3253 9.08301E-03 1.35652E-03-3.11047E-14
 -1      3254 8.94000E-03 1.32590E-03-3.00090E-14
 -1      3255 8.84653E-03 1.27455E-03-2.96887E-14
 -1      3256 9.36899E-03 1.41702E-03-3.33487E-14
 -1      3257 9.22600E-03 1.38690E-03-3.22182E-14
 -1      3258 9.13175E-03 1.33553E-03-3.18854E-14
 -1      3259 9.65493E-03 1.47660E-03-3.56599E-14
 -1      3260 9.51196E-03 1.44692E-03-3.44968E-14
 -1      3261 9.41717E-03 1.39556E-03-3.41526E-14
 -1      3262 9.94083E-03 1.53535E-03-3.80357E-14
 -1      3263 9.79788E-03 1.50607E-03-3.68389E-14
 -1      3264 9.70273E-03 1.45475E-03-3.64854E-14
 -1      3265 1.02267E-02 1.59340E-03-4.04717E-14
 -1      3266 1.00838E-02 1.56445E-03-3.92451E-14
 -1      3267 9.98838E-03 1.51318E-03-3.88800E-14
 -1      3268 1.05125E-02 1.65086E-03-4.29747E-14
 -1      3269 1.03696E-02 1.62220E-03-4.17163E-14
 -1      3270 1.02741E-02 1.57096E-03-4.13403E-14
 -1      3271 1.07983E-02 1.70784E-03-4.55335E-14
 -1      3272 1.06554E-02 1.67940E-03-4.42460E-14
 -1      3273 1.05598E-02 1.62822E-03-4.38627E-14
 -1      3274 1.10841E-02 1.76443E-03-4.81551E-14
 -1      3275 1.09412E-02 1.73618E-03-4.68357E-14
 -1      3276 1.08456E-02 1.68503E-03-4.64420E-14
 -1      3277 1.13699E-02 1.82072E-03-5.08375E-14
 -1      3278 1.12270E-02 1.79261E-03-4.94885E-14
 -1      3279 1.11313E-02 1.74150E-03-4.90840E-14
 -1      3280 1.16556E-02 1.87677E-03-5.35785E-14
 -1      3281 1.15127E-02 1.84877E-03-5.21996E-14
 -1      3282 1.14171E-02 1.79769E-03-5.17861E-14
 -1      3283 1.19413E-02 1.93264E-03-5.63776E-14
 -1      3284 1.17985E-02 1.90473E-03-5.49721E-14
 -1      3285 1.17028E-02 1.85367E-03-5.45462E-14
 -1      3286 1.22271E-02 1.98838E-03-5.92302E-14
 -1      3287 1.20842E-02 1.96052E-03-5.77970E-14
 -1      3288 1.19886E-02 1.90949E-03-5.73631E-14
 -1      3289 1.25128E-02 2.04402E-03-6.21323E-14
 -1      3290 1.23699E-02 2.01621E-03-6.06753E-14
 -1      3291 1.22743E-02 1.96519E-03-6.02271E-14
 -1      3292 1.27985E-02 2.09959E-03-6.50893E-14
 -1      3293 1.26556E-02 2.07181E-03-6.36044E-14
 -1      3294 1.25601E-02 2.02080E-03-6.31468E-14
 -1      3295 1.30842E-02 2.15511E-03-6.80923E-14
 -1      3296 1.29414E-02 2.12735E-03-6.65847E-14
 -1      3297 1.28458E-02 2.07635E-03-6.61151E-14
 -1      3298 1.33699E-02 2.21060E-03-7.11395E-14
 -1      3299 1.32271E-02 2.18285E-03-6.96125E-14
 -1      3300 1.31315E-02 2.13186E-03-6.91333E-14
 -1      3301 1.36556E-02 2.26607E-03-7.42269E-14
 -1      3302 1.35128E-02 2.23833E-03-7.26783E-14
 -1      3303 1.34173E-02 2.18734E-03-7.21957E-14
 -1      3304 1.39414E-02 2.32153E-03-7.73474E-14
 -1      3305 1.37985E-02 2.29380E-03-7.57805E-14
 -1      3306 1.37030E-02 2.24281E-03-7.52925E-14
 -1      3307 1.42271E-02 2.37698E-03-8.05030E-14
 -1      3308 1.40842E-02 2.34925E-03-7.89203E-14
 -1      3309 1.39887E-02 2.29827E-03-7.84218E-14
 -1      3310 1.44192E-02 2.40450E-03-8.28167E-14
 -1      3311 1.43132E-02 2.39093E-03-8.15124E-14
 -1      3312 1.42177E-02 2.33994E-03-8.10068E-14
 -1      3313 1.43900E-02 2.36784E-03-8.30252E-14
 -1      3314 4.20974E-03 1.14742E-03-5.14198E-15
 -1      3315 7.33823E-04 9.17186E-05-6.53855E-16
 -1      3316 7.37009E-04 8.84832E-05-6.74279E-16
 -1      3317 1.98258E-03 5.52669E-04-1.36176E-15
 -1      3318 1.79712E-03 4.70671E-04-1.15150E-15
 -1      3319 1.40900E-02 1.96930E-03-8.54520E-14
 -1      3320 1.41173E-02 2.01146E-03-8.51409E-14
 -1      3321 1.39529E-02 1.92456E-03-8.42147E-14
 -1      3322 1.39272E-02 1.71740E-03-8.72682E-14
 -1      3323 1.39544E-02 1.75956E-03-8.69663E-14
 -1      3324 4.17746E-03-2.88711E-04-7.68877E-15
 -1      3325 4.01061E-03-3.86228E-04-7.25926E-15
 -1      3326 8.34143E-04-1.35234E-04-5.35081E-16
 -1      3327 8.57176E-04-1.67771E-04-5.40285E-16
 -1      3328 1.00261E-03-2.07311E-04-6.91260E-16
 -1      3329 9.51627E-04-1.40943E-04-6.73805E-16
 -1      3330 5.62904E-03 7.17899E-04-9.58999E-15
 -1      3331 5.46806E-03 7.26089E-04-8.92277E-15
 -1      3332 5.74909E-03 6.70703E-04-1.00876E-14
 -1      3333 3.78048E-03-5.17872E-04-6.70571E-15
 -1      3334 3.61337E-03-5.99493E-04-6.23004E-15
 -1      3335 5.31120E-03 7.41151E-04-8.31830E-15
 -1      3336 5.13412E-03 7.72264E-04-7.69100E-15
 -1      3337 5.13861E-03 7.13301E-04-7.60453E-15
 -1      3338 5.45383E-03 6.73141E-04-8.78717E-15
 -1      3339 4.43006E-03 1.03671E-03-5.68898E-15
 -1      3340 2.15241E-03 6.32756E-04-1.56910E-15
 -1      3341 4.52425E-03-8.81737E-05-8.45039E-15
 -1      3342 4.34672E-03-1.89127E-04-8.06604E-15
 -1      3343 4.26737E-03-2.63625E-04-8.13347E-15
 -1      3344 1.39816E-02 1.80154E-03-8.66701E-14
 -1      3345 1.40088E-02 1.84370E-03-8.63664E-14
 -1      3346 1.38985E-02 1.84041E-03-8.48229E-14
 -1      3347 1.38442E-02 1.75644E-03-8.54195E-14
 -1      3348 1.57891E-03-3.37809E-04-1.47016E-15
 -1      3349 1.74878E-03-3.83383E-04-1.74181E-15
 -1      3350 1.80845E-03-3.54723E-04-1.86969E-15
 -1      3351 5.54161E-03 4.96797E-04-8.41056E-15
 -1      3352 5.65522E-03 4.69471E-04-8.79125E-15
 -1      3353 4.98959E-03 1.48949E-04-9.31267E-15
 -1      3354 4.78610E-03 5.06177E-05-8.96371E-15
 -1      3355 1.06836E-03 1.44146E-04-1.42208E-15
 -1      3356 1.01699E-03 1.50480E-04-1.37007E-15
 -1      3357 5.61520E-03 3.88439E-04-9.82699E-15
 -1      3358 5.51393E-03 3.61215E-04-9.73451E-15
 -1      3359 7.79226E-04 1.01155E-04-6.21573E-16
 -1      3360 7.51728E-04 9.53996E-05-6.42857E-16
 -1      3361 8.81485E-04 1.21663E-04-7.40497E-16
 -1      3362 2.38316E-03-3.99314E-04-2.97440E-15
 -1      3363 2.19913E-03-2.97369E-04-2.68270E-15
 -1      3364 3.44619E-03-6.49997E-04-5.66408E-15
 -1      3365 3.32279E-03-6.77943E-04-5.28877E-15
 -1      3366 3.19852E-03-6.94034E-04-4.96128E-15
 -1      3367 3.52199E-03-6.46094E-04-6.04134E-15
 -1      3368 5.77790E-03 4.31656E-04-9.79463E-15
 -1      3369 5.71490E-03 4.15687E-04-9.82673E-15
 -1      3370 1.74482E-03 4.04182E-04-1.41076E-15
 -1      3371 1.95775E-03 5.15400E-04-1.50588E-15
 -1      3372 5.36495E-03 3.10090E-04-9.65482E-15
 -1      3373 5.19997E-03 2.43592E-04-9.57051E-15
 -1      3374 5.47013E-03 3.31285E-04-1.01801E-14
 -1      3375 7.54191E-04 8.33255E-05-6.93449E-16
 -1      3376 7.82388E-04 7.28043E-05-7.11603E-16
 -1      3377 8.14599E-04 9.81160E-05-8.16736E-16
 -1      3378 5.81603E-03 4.45726E-04-9.94891E-15
 -1      3379 5.84180E-03 4.45986E-04-1.04179E-14
 -1      3380 5.84183E-03 4.60283E-04-1.01012E-14
 -1      3381 1.05428E-03 1.79898E-04-6.81380E-16
 -1      3382 2.87762E-03-6.34079E-04-4.02182E-15
 -1      3383 2.08328E-03-2.98096E-04-2.43790E-15
 -1      3384 2.03444E-03-2.35157E-04-2.41109E-15
 -1      3385 1.87314E-03-1.82402E-04-2.15492E-15
 -1      3386 1.59365E-03 3.43911E-04-1.26288E-15
 -1      3387 5.51116E-03 5.29846E-04-8.49338E-15
 -1      3388 1.42534E-02 2.22174E-03-8.35486E-14
 -1      3389 1.42805E-02 2.26354E-03-8.32242E-14
 -1      3390 3.26479E-03-7.16338E-04-5.29893E-15
 -1      3391 3.42528E-03-6.90621E-04-5.82662E-15
 -1      3392 5.71031E-03 4.08015E-04-1.02630E-14
 -1      3393 8.11107E-04 1.06943E-04-7.80964E-16
 -1      3394 4.63775E-03 9.15348E-04-6.19913E-15
 -1      3395 1.41988E-02 2.13742E-03-8.41943E-14
 -1      3396 1.42261E-02 2.17958E-03-8.38717E-14
 -1      3397 1.41159E-02 2.17647E-03-8.23317E-14
 -1      3398 1.48662E-03 8.92007E-06-1.75410E-15
 -1      3399 1.36810E-03 5.92866E-05-1.66306E-15
 -1      3400 1.61695E-03 3.74635E-04-1.10980E-15
 -1      3401 1.61387E-03 3.98223E-04-9.69223E-16
 -1      3402 1.44777E-03 3.40526E-04-7.97363E-16
 -1      3403 1.43041E-03 2.87466E-04-1.07122E-15
 -1      3404 1.41444E-02 2.05336E-03-8.48298E-14
 -1      3405 1.41717E-02 2.09552E-03-8.45128E-14
 -1      3406 1.40615E-02 2.09241E-03-8.29704E-14
 -1      3407 1.40073E-02 2.00862E-03-8.35971E-14
 -1      3408 9.74858E-04 1.42642E-04-1.24122E-15
 -1      3409 1.03899E-03 1.55909E-04-1.23762E-15
 -1      3410 1.06864E-03 1.59890E-04-1.17641E-15
 -1      3411 9.88943E-04 1.46772E-04-1.18105E-15
 -1      3412 1.09574E-03-1.97818E-04-8.22530E-16
 -1      3413 1.12250E-03-2.34274E-04-8.32274E-16
 -1      3414 1.24423E-03-2.62312E-04-9.86773E-16
 -1      3415 1.26279E-03 2.11428E-04-1.22527E-15
 -1      3416 1.36773E-03-2.91228E-04-1.15476E-15
 -1      3417 1.14019E-03 1.26533E-04-1.47300E-15
 -1      3418 1.04452E-03 1.23460E-04-1.28541E-15
 -1      3419 4.67627E-03-3.25719E-05-9.03921E-15
 -1      3420 5.12748E-03 1.90877E-04-9.83175E-15
 -1      3421 1.42265E-03-2.63649E-04-1.26419E-15
 -1      3422 7.49896E-04 4.24217E-05-6.09105E-16
 -1      3423 1.38390E-02 1.65192E-03-8.70594E-14
 -1      3424 1.38936E-02 1.68945E-03-8.72394E-14
 -1      3425 1.37835E-02 1.68650E-03-8.56875E-14
 -1      3426 1.37164E-02 1.63060E-03-8.56253E-14
 -1      3427 5.72509E-03 4.75218E-04-9.28017E-15
 -1      3428 1.63636E-03-7.14482E-05-1.87136E-15
 -1      3429 1.56231E-03-2.91485E-05-1.81214E-15
 -1      3430 1.40912E-03-2.17133E-06-1.57768E-15
 -1      3431 1.23900E-03 1.02483E-04-1.55786E-15
 -1      3432 5.21296E-03 6.64884E-04-7.76687E-15
 -1      3433 9.16510E-04 5.39221E-06-7.77210E-16
 -1      3434 9.59584E-04-2.87712E-05-7.91102E-16
 -1      3435 1.00040E-03-6.77100E-05-8.03814E-16
 -1      3436 1.03761E-03-1.09357E-04-8.14683E-16
 -1      3437 1.10490E-03-6.03755E-05-9.64669E-16
 -1      3438 5.32738E-03 6.30711E-04-8.12849E-15
 -1      3439 2.86321E-03-6.60291E-04-4.03807E-15
 -1      3440 1.22173E-03 7.34091E-05-1.42659E-15
 -1      3441 5.80229E-03 4.25999E-04-1.07575E-14
 -1      3442 5.71271E-03 3.98793E-04-1.07583E-14
 -1      3443 2.30357E-03-4.41942E-04-2.78660E-15
 -1      3444 2.48943E-03-5.09211E-04-3.15443E-15
 -1      3445 1.20822E-03 4.43512E-05-1.31783E-15
 -1      3446 1.10358E-03 7.84173E-05-1.22827E-15
 -1      3447 1.68918E-03-2.76352E-04-1.70877E-15
 -1      3448 1.86552E-03-3.23373E-04-1.99644E-15
 -1      3449 4.06757E-03-4.03101E-04-7.79345E-15
 -1      3450 4.25029E-03-3.20189E-04-8.43208E-15
 -1      3451 4.52498E-03-1.97646E-04-9.39404E-15
 -1      3452 4.70386E-03-1.28888E-04-1.00851E-14
 -1      3453 4.87919E-03-6.83275E-05-1.07958E-14
 -1      3454 5.04869E-03-1.42788E-05-1.15261E-14
 -1      3455 4.85324E-03-3.65717E-05-1.03540E-14
 -1      3456 5.21378E-03 3.31548E-05-1.22748E-14
 -1      3457 5.37396E-03 7.59014E-05-1.30423E-14
 -1      3458 5.19213E-03 6.55830E-05-1.18090E-14
 -1      3459 5.53027E-03 1.14158E-04-1.38290E-14
 -1      3460 5.68305E-03 1.49241E-04-1.46318E-14
 -1      3461 5.50896E-03 1.44442E-04-1.33368E-14
 -1      3462 5.83295E-03 1.81358E-04-1.54542E-14
 -1      3463 5.98052E-03 2.11542E-04-1.62938E-14
 -1      3464 5.80963E-03 2.09037E-04-1.49391E-14
 -1      3465 6.12622E-03 2.39913E-04-1.71498E-14
 -1      3466 6.27050E-03 2.67075E-04-1.80246E-14
 -1      3467 6.09989E-03 2.65363E-04-1.66104E-14
 -1      3468 6.41367E-03 2.93160E-04-1.89159E-14
 -1      3469 6.55606E-03 3.18529E-04-1.98241E-14
 -1      3470 6.38405E-03 3.17063E-04-1.83522E-14
 -1      3471 6.69786E-03 3.43306E-04-2.07504E-14
 -1      3472 6.83930E-03 3.67700E-04-2.16921E-14
 -1      3473 6.66505E-03 3.66275E-04-2.01617E-14
 -1      3474 6.98049E-03 3.91824E-04-2.26520E-14
 -1      3475 7.12158E-03 4.15796E-04-2.36299E-14
 -1      3476 6.94478E-03 4.14319E-04-2.20396E-14
 -1      3477 7.26262E-03 4.39708E-04-2.46247E-14
 -1      3478 7.40370E-03 4.63624E-04-2.56360E-14
 -1      3479 7.22438E-03 4.62033E-04-2.39878E-14
 -1      3480 7.54484E-03 4.87617E-04-2.66627E-14
 -1      3481 7.68610E-03 5.11714E-04-2.77058E-14
 -1      3482 7.50446E-03 5.09955E-04-2.60023E-14
 -1      3483 7.82746E-03 5.35969E-04-2.87659E-14
 -1      3484 7.96897E-03 5.60389E-04-2.98411E-14
 -1      3485 7.78533E-03 5.58417E-04-2.80818E-14
 -1      3486 8.11060E-03 5.85008E-04-3.09300E-14
 -1      3487 8.25238E-03 6.09823E-04-3.20349E-14
 -1      3488 8.06705E-03 6.07604E-04-3.02248E-14
 -1      3489 8.39428E-03 6.34852E-04-3.31574E-14
 -1      3490 8.53631E-03 6.60084E-04-3.42936E-14
 -1      3491 8.34961E-03 6.57599E-04-3.24296E-14
 -1      3492 8.67844E-03 6.85526E-04-3.54461E-14
 -1      3493 8.82068E-03 7.11166E-04-3.66143E-14
 -1      3494 8.63292E-03 7.08412E-04-3.46973E-14
 -1      3495 8.96301E-03 7.37002E-04-3.77979E-14
 -1      3496 9.10543E-03 7.63019E-04-3.89993E-14
 -1      3497 8.91685E-03 7.60004E-04-3.70276E-14
 -1      3498 9.24793E-03 7.89212E-04-4.02170E-14
 -1      3499 9.39049E-03 8.15566E-04-4.14504E-14
 -1      3500 9.20129E-03 8.12306E-04-3.94235E-14
 -1      3501 9.53310E-03 8.42072E-04-4.27014E-14
 -1      3502 9.67577E-03 8.68717E-04-4.39673E-14
 -1      3503 9.48613E-03 8.65235E-04-4.18873E-14
 -1      3504 9.81847E-03 8.95490E-04-4.52490E-14
 -1      3505 9.96122E-03 9.22379E-04-4.65461E-14
 -1      3506 9.77127E-03 9.18702E-04-4.44162E-14
 -1      3507 1.01040E-02 9.49375E-04-4.78570E-14
 -1      3508 1.02468E-02 9.76466E-04-4.91836E-14
 -1      3509 1.00566E-02 9.72621E-04-4.70039E-14
 -1      3510 1.03896E-02 1.00364E-03-5.05241E-14
 -1      3511 1.05325E-02 1.03090E-03-5.18798E-14
 -1      3512 1.03422E-02 1.02691E-03-4.96509E-14
 -1      3513 1.06753E-02 1.05822E-03-5.32513E-14
 -1      3514 1.08182E-02 1.08560E-03-5.46371E-14
 -1      3515 1.06278E-02 1.08150E-03-5.23590E-14
 -1      3516 1.09610E-02 1.11304E-03-5.60333E-14
 -1      3517 1.11039E-02 1.14052E-03-5.74445E-14
 -1      3518 1.09135E-02 1.13632E-03-5.51242E-14
 -1      3519 1.12468E-02 1.16804E-03-5.88703E-14
 -1      3520 1.13897E-02 1.19560E-03-6.03069E-14
 -1      3521 1.11992E-02 1.19133E-03-5.79444E-14
 -1      3522 1.15326E-02 1.22319E-03-6.17559E-14
 -1      3523 1.16754E-02 1.25081E-03-6.32157E-14
 -1      3524 1.14850E-02 1.24648E-03-6.08125E-14
 -1      3525 1.18183E-02 1.27845E-03-6.46891E-14
 -1      3526 1.19612E-02 1.30611E-03-6.61748E-14
 -1      3527 1.17708E-02 1.30173E-03-6.37285E-14
 -1      3528 1.21041E-02 1.33379E-03-6.76739E-14
 -1      3529 1.22470E-02 1.36148E-03-6.91858E-14
 -1      3530 1.20566E-02 1.35706E-03-6.66949E-14
 -1      3531 1.23899E-02 1.38918E-03-7.07107E-14
 -1      3532 1.25327E-02 1.41689E-03-7.22462E-14
 -1      3533 1.23424E-02 1.41245E-03-6.97131E-14
 -1      3534 1.26756E-02 1.44460E-03-7.37956E-14
 -1      3535 1.28185E-02 1.47233E-03-7.53569E-14
 -1      3536 1.26281E-02 1.46787E-03-7.27822E-14
 -1      3537 1.29614E-02 1.50006E-03-7.69265E-14
 -1      3538 1.31043E-02 1.52779E-03-7.85064E-14
 -1      3539 1.29139E-02 1.52332E-03-7.58965E-14
 -1      3540 1.32471E-02 1.55552E-03-8.00961E-14
 -1      3541 1.33900E-02 1.58326E-03-8.16915E-14
 -1      3542 1.31997E-02 1.57879E-03-7.90513E-14
 -1      3543 6.66557E-03 7.61542E-04-1.51615E-14
 -1      3544 6.53121E-03 7.34865E-04-1.43534E-14
 -1      3545 6.39763E-03 7.09830E-04-1.35637E-14
 -1      3546 6.26419E-03 6.86712E-04-1.27931E-14
 -1      3547 6.47254E-03 6.92261E-04-1.41255E-14
 -1      3548 1.43206E-02 2.29736E-03-8.32265E-14
 -1      3549 1.43498E-02 2.33402E-03-8.30221E-14
 -1      3550 1.42637E-02 2.32008E-03-8.20138E-14
 -1      3551 1.41834E-02 2.25245E-03-8.20098E-14
 -1      3552 8.76582E-04 1.20899E-04-8.91350E-16
 -1      3553 8.57109E-04 1.15696E-04-9.07152E-16
 -1      3554 6.13107E-03 6.65852E-04-1.20417E-14
 -1      3555 5.99699E-03 6.47921E-04-1.13070E-14
 -1      3556 6.21652E-03 6.44481E-04-1.25769E-14
 -1      3557 6.93631E-03 8.18565E-04-1.68312E-14
 -1      3558 6.80050E-03 7.89485E-04-1.59875E-14
 -1      3559 6.73326E-03 7.45682E-04-1.57470E-14
 -1      3560 7.21011E-03 8.79011E-04-1.85719E-14
 -1      3561 7.07280E-03 8.48432E-04-1.76924E-14
 -1      3562 6.99884E-03 8.03176E-04-1.74400E-14
 -1      3563 7.48669E-03 9.41400E-04-2.03815E-14
 -1      3564 7.34805E-03 9.10016E-04-1.94692E-14
 -1      3565 7.26881E-03 8.63371E-04-1.92047E-14
 -1      3566 7.76560E-03 1.00463E-03-2.22591E-14
 -1      3567 7.62586E-03 9.72946E-04-2.13116E-14
 -1      3568 7.54249E-03 9.25114E-04-2.10375E-14
 -1      3569 8.04635E-03 1.06792E-03-2.42024E-14
 -1      3570 7.90575E-03 1.03629E-03-2.32222E-14
 -1      3571 7.81917E-03 9.87512E-04-2.29356E-14
 -1      3572 8.32852E-03 1.13078E-03-2.62167E-14
 -1      3573 8.18727E-03 1.09942E-03-2.52012E-14
 -1      3574 8.09822E-03 1.04992E-03-2.49032E-14
 -1      3575 8.61174E-03 1.19291E-03-2.83004E-14
 -1      3576 8.47000E-03 1.16194E-03-2.72501E-14
 -1      3577 8.37908E-03 1.11192E-03-2.69399E-14
 -1      3578 8.89573E-03 1.25419E-03-3.04512E-14
 -1      3579 8.75364E-03 1.22366E-03-2.93673E-14
 -1      3580 8.66132E-03 1.17327E-03-2.90465E-14
 -1      3581 9.18029E-03 1.31459E-03-3.26718E-14
 -1      3582 9.03795E-03 1.28450E-03-3.15540E-14
 -1      3583 8.94459E-03 1.23385E-03-3.12200E-14
 -1      3584 9.46525E-03 1.37413E-03-3.49577E-14
 -1      3585 9.32272E-03 1.34446E-03-3.38051E-14
 -1      3586 9.22861E-03 1.29364E-03-3.34588E-14
 -1      3587 9.75049E-03 1.43290E-03-3.73118E-14
 -1      3588 9.60783E-03 1.40361E-03-3.61279E-14
 -1      3589 9.51319E-03 1.35268E-03-3.57668E-14
 -1      3590 1.00359E-02 1.49100E-03-3.97298E-14
 -1      3591 9.89318E-03 1.46203E-03-3.85136E-14
 -1      3592 9.79817E-03 1.41103E-03-3.81433E-14
 -1      3593 1.03215E-02 1.54852E-03-4.22127E-14
 -1      3594 1.01787E-02 1.51982E-03-4.09619E-14
 -1      3595 1.00834E-02 1.46879E-03-4.05846E-14
 -1      3596 1.06071E-02 1.60556E-03-4.47539E-14
 -1      3597 1.04643E-02 1.57709E-03-4.34768E-14
 -1      3598 1.03689E-02 1.52604E-03-4.30869E-14
 -1      3599 1.08928E-02 1.66221E-03-4.73546E-14
 -1      3600 1.07500E-02 1.63392E-03-4.60468E-14
 -1      3601 1.06545E-02 1.58287E-03-4.56484E-14
 -1      3602 1.11786E-02 1.71855E-03-5.00159E-14
 -1      3603 1.10357E-02 1.69041E-03-4.86772E-14
 -1      3604 1.09401E-02 1.63936E-03-4.82693E-14
 -1      3605 1.14643E-02 1.77464E-03-5.27380E-14
 -1      3606 1.13215E-02 1.74662E-03-5.13707E-14
 -1      3607 1.12259E-02 1.69558E-03-5.09505E-14
 -1      3608 1.17501E-02 1.83055E-03-5.55186E-14
 -1      3609 1.16072E-02 1.80262E-03-5.41212E-14
 -1      3610 1.15116E-02 1.75158E-03-5.36941E-14
 -1      3611 1.20359E-02 1.88632E-03-5.83471E-14
 -1      3612 1.18930E-02 1.85845E-03-5.69257E-14
 -1      3613 1.17974E-02 1.80742E-03-5.64888E-14
 -1      3614 1.23216E-02 1.94199E-03-6.12278E-14
 -1      3615 1.21787E-02 1.91416E-03-5.97820E-14
 -1      3616 1.20832E-02 1.86314E-03-5.93340E-14
 -1      3617 1.26074E-02 1.99757E-03-6.41621E-14
 -1      3618 1.24645E-02 1.96979E-03-6.26892E-14
 -1      3619 1.23689E-02 1.91877E-03-6.22311E-14
 -1      3620 1.28931E-02 2.05311E-03-6.71444E-14
 -1      3621 1.27503E-02 2.02535E-03-6.56472E-14
 -1      3622 1.26547E-02 1.97434E-03-6.51796E-14
 -1      3623 1.31789E-02 2.10861E-03-7.01756E-14
 -1      3624 1.30360E-02 2.08086E-03-6.86524E-14
 -1      3625 1.29405E-02 2.02986E-03-6.81750E-14
 -1      3626 1.34646E-02 2.16409E-03-7.32497E-14
 -1      3627 1.33218E-02 2.13635E-03-7.17082E-14
 -1      3628 1.32262E-02 2.08535E-03-7.12189E-14
 -1      3629 1.37504E-02 2.21955E-03-7.63586E-14
 -1      3630 1.36075E-02 2.19182E-03-7.48003E-14
 -1      3631 1.35120E-02 2.14083E-03-7.43074E-14
 -1      3632 1.06774E-03-1.62322E-04-8.11485E-16
 -1      3633 5.73698E-03 5.06402E-04-9.55675E-15
 -1      3634 5.81271E-03 4.88249E-04-9.91854E-15
 -1      3635 1.38155E-02 1.87946E-03-8.29794E-14
 -1      3636 1.38428E-02 1.92162E-03-8.26719E-14
 -1      3637 2.70442E-03-5.95926E-04-3.62213E-15
 -1      3638 9.39173E-04 1.33917E-04-1.13052E-15
 -1      3639 9.49776E-04 1.38779E-04-1.13128E-15
 -1      3640 3.88684E-03-4.86878E-04-7.17856E-15
 -1      3641 5.60081E-03 3.58346E-04-1.07932E-14
 -1      3642 5.47012E-03 3.09775E-04-1.07078E-14
 -1      3643 5.45637E-03 6.26210E-04-8.67541E-15
 -1      3644 5.48469E-03 5.73895E-04-8.61358E-15
 -1      3645 5.61322E-03 5.37409E-04-9.05261E-15
 -1      3646 5.59515E-03 6.23597E-04-9.29107E-15
 -1      3647 9.77935E-04 1.41051E-04-9.05654E-16
 -1      3648 9.25043E-04 1.29544E-04-9.36012E-16
 -1      3649 4.79014E-03-4.91580E-06-9.61499E-15
 -1      3650 4.55383E-03-1.31353E-04-9.08148E-15
 -1      3651 4.40003E-03-2.33908E-04-8.82885E-15
 -1      3652 1.14545E-03 1.79838E-04-1.09040E-15
 -1      3653 1.26202E-03 2.16979E-04-1.08335E-15
 -1      3654 5.28993E-03 2.32486E-04-1.05448E-14
 -1      3655 5.10335E-03 1.46818E-04-1.02737E-14
 -1      3656 2.47791E-03-4.61961E-04-3.14026E-15
 -1      3657 9.72984E-04 9.96697E-05-1.07082E-15
 -1      3658 9.23530E-04 1.11245E-04-1.03135E-15
 -1      3659 9.38904E-04 3.45764E-05-8.58580E-16
 -1      3660 1.07600E-03 1.67456E-05-1.03730E-15
 -1      3661 1.96475E-03-3.28452E-04-2.17996E-15
 -1      3662 2.14847E-03-3.86786E-04-2.50315E-15
 -1      3663 8.90012E-04 6.05161E-05-8.37600E-16
 -1      3664 1.27326E-03-1.93728E-04-1.08504E-15
 -1      3665 1.47989E-03-2.31128E-04-1.38531E-15
 -1      3666 1.31400E-03 2.76145E-04-7.79108E-16
 -1      3667 5.87921E-03 4.84405E-04-1.03907E-14
 -1      3668 5.93328E-03 4.83862E-04-1.08704E-14
 -1      3669 5.91418E-03 5.12391E-04-1.06798E-14
 -1      3670 1.17043E-03 2.10732E-04-7.94503E-16
 -1      3671 1.03520E-03 1.58511E-04-8.30567E-16
 -1      3672 9.53465E-04 1.37262E-04-1.07444E-15
 -1      3673 5.86518E-03 4.43712E-04-1.09195E-14
 -1      3674 5.88563E-03 4.38795E-04-1.14289E-14
 -1      3675 5.91700E-03 4.59536E-04-1.10806E-14
 -1      3676 9.52188E-04 7.78459E-05-9.76615E-16
 -1      3677 1.83094E-03-2.42393E-04-1.99997E-15
 -1      3678 1.28655E-03 2.40181E-04-9.48555E-16
 -1      3679 1.34918E-02 1.59627E-03-8.29415E-14
 -1      3680 1.36145E-02 1.61759E-03-8.43629E-14
 -1      3681 1.36481E-02 1.64554E-03-8.43964E-14
 -1      3682 1.34444E-02 1.61953E-03-8.18876E-14
 -1      3683 1.18621E-03-1.64282E-04-9.79346E-16
 -1      3684 1.37884E-02 1.83747E-03-8.32820E-14
 -1      3685 1.36783E-02 1.83453E-03-8.17461E-14
 -1      3686 1.37612E-02 1.79548E-03-8.35799E-14
 -1      3687 1.40361E-02 2.27501E-03-7.94984E-14
 -1      3688 1.38932E-02 2.24728E-03-7.79243E-14
 -1      3689 1.41776E-02 2.30613E-03-8.10037E-14
 -1      3690 5.72930E-03 5.42476E-04-9.68330E-15
 -1      3691 1.37325E-02 1.91842E-03-8.11432E-14
 -1      3692 1.38699E-02 1.96352E-03-8.23689E-14
 -1      3693 1.38970E-02 2.00542E-03-8.20624E-14
 -1      3694 5.71906E-03 3.83599E-04-1.13006E-14
 -1      3695 8.94048E-04 1.19784E-04-1.00392E-15
 -1      3696 5.73404E-03 6.25630E-04-9.94902E-15
 -1      3697 5.72954E-03 5.83946E-04-9.82826E-15
 -1      3698 5.84513E-03 5.54679E-04-1.03527E-14
 -1      3699 5.87241E-03 6.35929E-04-1.06471E-14
 -1      3700 1.40821E-02 2.25514E-03-8.05004E-14
 -1      3701 5.97337E-03 6.07331E-04-1.11578E-14
 -1      3702 1.34323E-03-1.67044E-05-1.42536E-15
 -1      3703 1.20498E-03 2.50716E-06-1.22335E-15
 -1      3704 1.18881E-03-3.65495E-05-1.12806E-15
 -1      3705 1.39785E-02 2.13137E-03-8.11142E-14
 -1      3706 1.40058E-02 2.17354E-03-8.07935E-14
 -1      3707 5.44387E-03 2.71336E-04-1.11673E-14
 -1      3708 4.96676E-03 5.41091E-05-1.03131E-14
 -1      3709 1.37977E-02 2.19629E-03-7.74283E-14
 -1      3710 5.14286E-03 1.05547E-04-1.10387E-14
 -1      3711 1.76982E-03-1.87326E-04-1.94689E-15
 -1      3712 1.71529E-03-1.26440E-04-1.92652E-15
 -1      3713 1.55097E-03-8.61398E-05-1.68061E-15
 -1      3714 1.68093E-03-1.89022E-04-1.77876E-15
 -1      3715 1.52655E-03-1.96919E-04-1.49488E-15
 -1      3716 1.36817E-02 1.67350E-03-8.44249E-14
 -1      3717 1.24313E-03-8.59667E-05-1.14741E-15
 -1      3718 1.35766E-02 1.66750E-03-8.30076E-14
 -1      3719 1.37120E-02 1.70846E-03-8.42924E-14
 -1      3720 1.37391E-02 1.75045E-03-8.39984E-14
 -1      3721 1.34747E-02 1.65450E-03-8.17588E-14
 -1      3722 6.54049E-03 6.77526E-04-1.46910E-14
 -1      3723 6.41546E-03 6.52021E-04-1.38944E-14
 -1      3724 1.23611E-03-1.32349E-04-1.08474E-15
 -1      3725 5.30389E-03 1.46890E-04-1.17740E-14
 -1      3726 5.49336E-03 1.76195E-04-1.28504E-14
 -1      3727 5.64361E-03 2.08234E-04-1.36306E-14
 -1      3728 5.79028E-03 2.37323E-04-1.44282E-14
 -1      3729 5.93443E-03 2.64867E-04-1.52425E-14
 -1      3730 5.77526E-03 2.66547E-04-1.39215E-14
 -1      3731 6.07641E-03 2.90875E-04-1.60749E-14
 -1      3732 6.21701E-03 3.16127E-04-1.69250E-14
 -1      3733 6.05595E-03 3.16579E-04-1.55434E-14
 -1      3734 6.35647E-03 3.40660E-04-1.77925E-14
 -1      3735 6.49535E-03 3.64838E-04-1.86764E-14
 -1      3736 6.33099E-03 3.63996E-04-1.72373E-14
 -1      3737 6.63375E-03 3.88719E-04-1.95773E-14
 -1      3738 6.77202E-03 4.12478E-04-2.04969E-14
 -1      3739 6.60391E-03 4.10644E-04-1.89984E-14
 -1      3740 6.91021E-03 4.36178E-04-2.14309E-14
 -1      3741 7.04854E-03 4.59897E-04-2.23831E-14
 -1      3742 6.87671E-03 4.57391E-04-2.08274E-14
 -1      3743 7.18702E-03 4.83694E-04-2.33550E-14
 -1      3744 7.32578E-03 5.07595E-04-2.43417E-14
 -1      3745 7.15048E-03 5.04666E-04-2.27260E-14
 -1      3746 7.46479E-03 5.31652E-04-2.53460E-14
 -1      3747 7.60412E-03 5.55866E-04-2.63654E-14
 -1      3748 7.42574E-03 5.52678E-04-2.46935E-14
 -1      3749 7.74375E-03 5.80278E-04-2.74018E-14
 -1      3750 7.88371E-03 6.04874E-04-2.84548E-14
 -1      3751 7.70268E-03 6.01520E-04-2.67263E-14
 -1      3752 8.02395E-03 6.29685E-04-2.95235E-14
 -1      3753 8.16450E-03 6.54691E-04-3.06065E-14
 -1      3754 7.98126E-03 6.51219E-04-2.88246E-14
 -1      3755 8.30531E-03 6.79911E-04-3.17064E-14
 -1      3756 8.44639E-03 7.05323E-04-3.28226E-14
 -1      3757 8.26134E-03 7.01754E-04-3.09878E-14
 -1      3758 8.58769E-03 7.30938E-04-3.39523E-14
 -1      3759 8.72921E-03 7.56735E-04-3.50987E-14
 -1      3760 8.54273E-03 7.53075E-04-3.32115E-14
 -1      3761 8.87092E-03 7.82717E-04-3.62613E-14
 -1      3762 9.01281E-03 8.08863E-04-3.74395E-14
 -1      3763 8.82520E-03 8.05113E-04-3.54978E-14
 -1      3764 9.15484E-03 8.35172E-04-3.86347E-14
 -1      3765 9.29701E-03 8.61628E-04-3.98474E-14
 -1      3766 9.10855E-03 8.57788E-04-3.78505E-14
 -1      3767 9.43930E-03 8.88223E-04-4.10760E-14
 -1      3768 9.58169E-03 9.14944E-04-4.23223E-14
 -1      3769 9.39260E-03 9.11016E-04-4.02700E-14
 -1      3770 9.72417E-03 9.41783E-04-4.35836E-14
 -1      3771 9.86673E-03 9.68728E-04-4.48605E-14
 -1      3772 9.67718E-03 9.64716E-04-4.27563E-14
 -1      3773 1.00094E-02 9.95770E-04-4.61528E-14
 -1      3774 1.01520E-02 1.02290E-03-4.74594E-14
 -1      3775 9.96215E-03 1.01881E-03-4.53053E-14
 -1      3776 1.02948E-02 1.05011E-03-4.87830E-14
 -1      3777 1.04375E-02 1.07739E-03-5.01192E-14
 -1      3778 1.02474E-02 1.07323E-03-4.79165E-14
 -1      3779 1.05803E-02 1.10473E-03-5.14704E-14
 -1      3780 1.07231E-02 1.13213E-03-5.28380E-14
 -1      3781 1.05329E-02 1.12790E-03-5.05860E-14
 -1      3782 1.08660E-02 1.15957E-03-5.42193E-14
 -1      3783 1.10088E-02 1.18707E-03-5.56137E-14
 -1      3784 1.08185E-02 1.18279E-03-5.33157E-14
 -1      3785 1.11517E-02 1.21459E-03-5.70203E-14
 -1      3786 1.12946E-02 1.24216E-03-5.84412E-14
 -1      3787 1.11042E-02 1.23783E-03-5.61001E-14
 -1      3788 1.14375E-02 1.26975E-03-5.98725E-14
 -1      3789 1.15804E-02 1.29737E-03-6.13150E-14
 -1      3790 1.13900E-02 1.29301E-03-5.89344E-14
 -1      3791 1.17233E-02 1.32501E-03-6.27723E-14
 -1      3792 1.18662E-02 1.35266E-03-6.42400E-14
 -1      3793 1.16758E-02 1.34827E-03-6.18177E-14
 -1      3794 1.20091E-02 1.38034E-03-6.57198E-14
 -1      3795 1.21520E-02 1.40802E-03-6.72135E-14
 -1      3796 1.19616E-02 1.40360E-03-6.47485E-14
 -1      3797 1.22949E-02 1.43572E-03-6.87199E-14
 -1      3798 1.24378E-02 1.46343E-03-7.02387E-14
 -1      3799 1.22474E-02 1.45899E-03-6.77292E-14
 -1      3800 1.25806E-02 1.49114E-03-7.17699E-14
 -1      3801 1.27235E-02 1.51886E-03-7.33128E-14
 -1      3802 1.25332E-02 1.51441E-03-7.07617E-14
 -1      3803 1.28664E-02 1.54659E-03-7.48702E-14
 -1      3804 1.30093E-02 1.57432E-03-7.64354E-14
 -1      3805 1.28189E-02 1.56985E-03-7.38440E-14
 -1      3806 1.31522E-02 1.60205E-03-7.80084E-14
 -1      3807 1.32951E-02 1.62978E-03-7.95931E-14
 -1      3808 1.31047E-02 1.62531E-03-7.69707E-14
 -1      3809 7.05753E-03 7.88803E-04-1.80547E-14
 -1      3810 6.92587E-03 7.59763E-04-1.71879E-14
 -1      3811 6.79578E-03 7.31512E-04-1.63374E-14
 -1      3812 6.66719E-03 7.03974E-04-1.55059E-14
 -1      3813 6.60174E-03 6.64383E-04-1.52614E-14
 -1      3814 1.40419E-02 2.22132E-03-8.05001E-14
 -1      3815 6.29267E-03 6.27889E-04-1.31171E-14
 -1      3816 6.17149E-03 6.04928E-04-1.23575E-14
 -1      3817 6.35936E-03 6.14177E-04-1.36623E-14
 -1      3818 7.32468E-03 8.48344E-04-1.98422E-14
 -1      3819 7.19047E-03 8.18318E-04-1.89394E-14
 -1      3820 7.11267E-03 7.74873E-04-1.86728E-14
 -1      3821 7.59622E-03 9.09196E-04-2.16950E-14
 -1      3822 7.45994E-03 8.78631E-04-2.07603E-14
 -1      3823 7.37794E-03 8.33517E-04-2.04817E-14
 -1      3824 7.87125E-03 9.70610E-04-2.36168E-14
 -1      3825 7.73333E-03 9.39852E-04-2.26480E-14
 -1      3826 7.64802E-03 8.93341E-04-2.23586E-14
 -1      3827 8.14901E-03 1.03204E-03-2.56069E-14
 -1      3828 8.00982E-03 1.00134E-03-2.46027E-14
 -1      3829 7.92192E-03 9.53696E-04-2.43026E-14
 -1      3830 8.42889E-03 1.09312E-03-2.76678E-14
 -1      3831 8.28871E-03 1.06263E-03-2.66288E-14
 -1      3832 8.19879E-03 1.01410E-03-2.63164E-14
 -1      3833 8.71039E-03 1.15364E-03-2.97941E-14
 -1      3834 8.56946E-03 1.12345E-03-2.87223E-14
 -1      3835 8.47798E-03 1.07424E-03-2.83983E-14
 -1      3836 8.99309E-03 1.21349E-03-3.19907E-14
 -1      3837 8.85160E-03 1.18365E-03-3.08837E-14
 -1      3838 8.75895E-03 1.13393E-03-3.05481E-14
 -1      3839 9.27671E-03 1.27267E-03-3.42504E-14
 -1      3840 9.13480E-03 1.24316E-03-3.31139E-14
 -1      3841 9.04126E-03 1.19306E-03-3.27647E-14
 -1      3842 9.56100E-03 1.33120E-03-3.65821E-14
 -1      3843 9.41878E-03 1.30201E-03-3.54066E-14
 -1      3844 9.32459E-03 1.25162E-03-3.50472E-14
 -1      3845 9.84577E-03 1.38913E-03-3.89799E-14
 -1      3846 9.70333E-03 1.36023E-03-3.77728E-14
 -1      3847 9.60867E-03 1.30964E-03-3.74000E-14
 -1      3848 1.01309E-02 1.44655E-03-4.14412E-14
 -1      3849 9.98830E-03 1.41790E-03-4.02017E-14
 -1      3850 9.89330E-03 1.36717E-03-3.98192E-14
 -1      3851 1.04163E-02 1.50353E-03-4.39645E-14
 -1      3852 1.02736E-02 1.47509E-03-4.26947E-14
 -1      3853 1.01783E-02 1.42426E-03-4.23021E-14
 -1      3854 1.07018E-02 1.56016E-03-4.65461E-14
 -1      3855 1.05590E-02 1.53189E-03-4.52480E-14
 -1      3856 1.04636E-02 1.48098E-03-4.48455E-14
 -1      3857 1.09874E-02 1.61649E-03-4.91895E-14
 -1      3858 1.08446E-02 1.58835E-03-4.78613E-14
 -1      3859 1.07491E-02 1.53741E-03-4.74494E-14
 -1      3860 1.12732E-02 1.67258E-03-5.18914E-14
 -1      3861 1.11303E-02 1.64456E-03-5.05331E-14
 -1      3862 1.10348E-02 1.59358E-03-5.01128E-14
 -1      3863 1.15589E-02 1.72850E-03-5.46503E-14
 -1      3864 1.14160E-02 1.70056E-03-5.32633E-14
 -1      3865 1.13205E-02 1.64957E-03-5.28331E-14
 -1      3866 1.18447E-02 1.78428E-03-5.74607E-14
 -1      3867 1.17018E-02 1.75640E-03-5.60501E-14
 -1      3868 1.16062E-02 1.70540E-03-5.56088E-14
 -1      3869 1.21305E-02 1.83995E-03-6.03222E-14
 -1      3870 1.19876E-02 1.81213E-03-5.88840E-14
 -1      3871 1.18920E-02 1.76112E-03-5.84341E-14
 -1      3872 1.24163E-02 1.89555E-03-6.32342E-14
 -1      3873 1.22734E-02 1.86776E-03-6.17722E-14
 -1      3874 1.21778E-02 1.81675E-03-6.13104E-14
 -1      3875 1.27021E-02 1.95110E-03-6.61957E-14
 -1      3876 1.25592E-02 1.92333E-03-6.47084E-14
 -1      3877 1.24636E-02 1.87233E-03-6.42363E-14
 -1      3878 1.29878E-02 2.00661E-03-6.92064E-14
 -1      3879 1.28449E-02 1.97886E-03-6.76961E-14
 -1      3880 1.27494E-02 1.92785E-03-6.72140E-14
 -1      3881 1.32736E-02 2.06209E-03-7.22658E-14
 -1      3882 1.31307E-02 2.03435E-03-7.07290E-14
 -1      3883 1.30352E-02 1.98335E-03-7.02408E-14
 -1      3884 1.35594E-02 2.11756E-03-7.53667E-14
 -1      3885 1.34165E-02 2.08983E-03-7.38124E-14
 -1      3886 1.33210E-02 2.03883E-03-7.33155E-14
 -1      3887 6.06224E-03 5.86672E-04-1.16741E-14
 -1      3888 5.95316E-03 5.69734E-04-1.10056E-14
 -1      3889 5.93562E-03 5.34774E-04-1.08503E-14
 -1      3890 6.13783E-03 5.71080E-04-1.21952E-14
 -1      3891 1.39242E-02 2.04745E-03-8.17488E-14
 -1      3892 1.39513E-02 2.08934E-03-8.14335E-14
 -1      3893 1.38412E-02 2.08641E-03-7.99014E-14
 -1      3894 1.37868E-02 2.00235E-03-8.05302E-14
 -1      3895 5.60843E-03 3.10039E-04-1.18873E-14
 -1      3896 5.44945E-03 2.39188E-04-1.17155E-14
 -1      3897 1.39045E-02 2.17623E-03-7.92917E-14
 -1      3898 1.37616E-02 2.14850E-03-7.77195E-14
 -1      3899 1.06423E-03 1.60114E-04-1.04009E-15
 -1      3900 5.84472E-03 4.10348E-04-1.18764E-14
 -1      3901 5.74868E-03 3.71480E-04-1.19123E-14
 -1      3902 1.36662E-02 2.09750E-03-7.72159E-14
 -1      3903 5.98864E-03 4.53962E-04-1.22197E-14
 -1      3904 5.92077E-03 4.33542E-04-1.20491E-14
 -1      3905 5.95952E-03 4.26017E-04-1.26791E-14
 -1      3906 1.33308E-03-1.12311E-04-1.26127E-15
 -1      3907 1.34273E-02 1.67776E-03-8.07048E-14
 -1      3908 1.36290E-02 1.74751E-03-8.24610E-14
 -1      3909 6.00790E-03 5.30285E-04-1.13414E-14
 -1      3910 6.85344E-03 7.18207E-04-1.69325E-14
 -1      3911 1.40492E-03-4.94378E-05-1.47469E-15
 -1      3912 1.53160E-03-1.43551E-04-1.56403E-15
 -1      3913 1.35952E-02 1.87345E-03-7.99207E-14
 -1      3914 1.36223E-02 1.91535E-03-7.96203E-14
 -1      3915 5.75492E-03 3.46253E-04-1.24804E-14
 -1      3916 1.36117E-02 2.01344E-03-7.78449E-14
 -1      3917 1.36389E-02 2.05547E-03-7.75310E-14
 -1      3918 1.34366E-02 2.02454E-03-7.51790E-14
 -1      3919 6.03932E-03 5.07381E-04-1.16870E-14
 -1      3920 5.98172E-03 4.82560E-04-1.13834E-14
 -1      3921 6.02287E-03 4.81144E-04-1.19047E-14
 -1      3922 5.48232E-03 1.97636E-04-1.25116E-14
 -1      3923 1.35681E-02 1.83146E-03-8.02193E-14
 -1      3924 1.34579E-02 1.82839E-03-7.87013E-14
 -1      3925 1.35409E-02 1.78948E-03-8.05193E-14
 -1      3926 1.47116E-03-9.57640E-05-1.51960E-15
 -1      3927 7.16451E-03 7.61188E-04-1.92937E-14
 -1      3928 7.03464E-03 7.32993E-04-1.84035E-14
 -1      3929 6.03871E-03 3.41837E-04-1.50180E-14
 -1      3930 6.17350E-03 3.64340E-04-1.58427E-14
 -1      3931 6.30752E-03 3.86685E-04-1.66852E-14
 -1      3932 6.44149E-03 4.09181E-04-1.75454E-14
 -1      3933 6.28605E-03 4.08720E-04-1.61381E-14
 -1      3934 6.57537E-03 4.31817E-04-1.84235E-14
 -1      3935 6.70957E-03 4.54685E-04-1.93179E-14
 -1      3936 6.54802E-03 4.52208E-04-1.78524E-14
 -1      3937 6.84406E-03 4.77811E-04-2.02295E-14
 -1      3938 6.97906E-03 5.01191E-04-2.11576E-14
 -1      3939 6.81213E-03 4.97404E-04-1.96345E-14
 -1      3940 7.11451E-03 5.24856E-04-2.21013E-14
 -1      3941 7.25055E-03 5.48770E-04-2.30655E-14
 -1      3942 7.07901E-03 5.44230E-04-2.14831E-14
 -1      3943 7.38712E-03 5.72965E-04-2.40460E-14
 -1      3944 7.52426E-03 5.97396E-04-2.50416E-14
 -1      3945 7.34881E-03 5.92482E-04-2.34011E-14
 -1      3946 7.66193E-03 6.22091E-04-2.60557E-14
 -1      3947 7.80014E-03 6.47005E-04-2.70843E-14
 -1      3948 7.62141E-03 6.41960E-04-2.53883E-14
 -1      3949 7.93882E-03 6.72161E-04-2.81303E-14
 -1      3950 8.07799E-03 6.97516E-04-2.91924E-14
 -1      3951 7.89657E-03 6.92483E-04-2.74402E-14
 -1      3952 8.21758E-03 7.23089E-04-3.02713E-14
 -1      3953 8.35758E-03 7.48842E-04-3.13661E-14
 -1      3954 8.17398E-03 7.43891E-04-2.95583E-14
 -1      3955 8.49794E-03 7.74787E-04-3.24747E-14
 -1      3956 8.63864E-03 8.00891E-04-3.35990E-14
 -1      3957 8.45329E-03 7.96050E-04-3.17419E-14
 -1      3958 8.77963E-03 8.27162E-04-3.47382E-14
 -1      3959 8.92089E-03 8.53572E-04-3.58948E-14
 -1      3960 8.73417E-03 8.48842E-04-3.39840E-14
 -1      3961 9.06239E-03 8.80125E-04-3.70716E-14
 -1      3962 9.20411E-03 9.06799E-04-3.82614E-14
 -1      3963 9.01633E-03 9.02165E-04-3.62921E-14
 -1      3964 9.34600E-03 9.33592E-04-3.94676E-14
 -1      3965 9.48807E-03 9.60487E-04-4.06918E-14
 -1      3966 9.29949E-03 9.55931E-04-3.86693E-14
 -1      3967 9.63027E-03 9.87482E-04-4.19317E-14
 -1      3968 9.77259E-03 1.01456E-03-4.31889E-14
 -1      3969 9.58343E-03 1.01006E-03-4.11120E-14
 -1      3970 9.91502E-03 1.04172E-03-4.44619E-14
 -1      3971 1.00575E-02 1.06895E-03-4.57497E-14
 -1      3972 9.86795E-03 1.06450E-03-4.36218E-14
 -1      3973 1.02001E-02 1.09625E-03-4.70530E-14
 -1      3974 1.03428E-02 1.12361E-03-4.83715E-14
 -1      3975 1.01529E-02 1.11917E-03-4.61939E-14
 -1      3976 1.04855E-02 1.15101E-03-4.97049E-14
 -1      3977 1.06283E-02 1.17846E-03-5.10510E-14
 -1      3978 1.04382E-02 1.17404E-03-4.88247E-14
 -1      3979 1.07711E-02 1.20596E-03-5.24137E-14
 -1      3980 1.09139E-02 1.23348E-03-5.37919E-14
 -1      3981 1.07236E-02 1.22907E-03-5.15155E-14
 -1      3982 1.10567E-02 1.26104E-03-5.51815E-14
 -1      3983 1.11996E-02 1.28863E-03-5.65843E-14
 -1      3984 1.10093E-02 1.28421E-03-5.42648E-14
 -1      3985 1.13425E-02 1.31624E-03-5.79994E-14
 -1      3986 1.14854E-02 1.34387E-03-5.94263E-14
 -1      3987 1.12950E-02 1.33945E-03-5.70668E-14
 -1      3988 1.16282E-02 1.37152E-03-6.08657E-14
 -1      3989 1.17711E-02 1.39919E-03-6.23172E-14
 -1      3990 1.15808E-02 1.39476E-03-5.99161E-14
 -1      3991 1.19141E-02 1.42687E-03-6.37805E-14
 -1      3992 1.20570E-02 1.45456E-03-6.52539E-14
 -1      3993 1.18666E-02 1.45012E-03-6.28137E-14
 -1      3994 1.21999E-02 1.48226E-03-6.67409E-14
 -1      3995 1.23428E-02 1.50996E-03-6.82432E-14
 -1      3996 1.21524E-02 1.50552E-03-6.57560E-14
 -1      3997 1.24857E-02 1.53768E-03-6.97575E-14
 -1      3998 1.26286E-02 1.56540E-03-7.12838E-14
 -1      3999 1.24382E-02 1.56095E-03-6.87544E-14
 -1      4000 1.27715E-02 1.59312E-03-7.28227E-14
 -1      4001 1.29144E-02 1.62085E-03-7.43742E-14
 -1      4002 1.27240E-02 1.61639E-03-7.18045E-14
 -1      4003 1.30573E-02 1.64858E-03-7.59344E-14
 -1      4004 1.32001E-02 1.67631E-03-7.75035E-14
 -1      4005 1.30098E-02 1.67185E-03-7.48989E-14
 -1      4006 7.42876E-03 8.18759E-04-2.11258E-14
 -1      4007 7.29592E-03 7.89753E-04-2.02012E-14
 -1      4008 7.21350E-03 7.47307E-04-1.99186E-14
 -1      4009 6.65673E-03 6.52371E-04-1.58362E-14
 -1      4010 6.53543E-03 6.26921E-04-1.50148E-14
 -1      4011 6.41715E-03 6.02629E-04-1.42125E-14
 -1      4012 6.30202E-03 5.78963E-04-1.34281E-14
 -1      4013 6.46740E-03 5.91567E-04-1.47670E-14
 -1      4014 7.69804E-03 8.77458E-04-2.30255E-14
 -1      4015 7.56284E-03 8.47981E-04-2.20667E-14
 -1      4016 7.47749E-03 8.03756E-04-2.17741E-14
 -1      4017 7.97128E-03 9.36703E-04-2.49929E-14
 -1      4018 7.83421E-03 9.07024E-04-2.40014E-14
 -1      4019 7.74650E-03 8.61318E-04-2.36972E-14
 -1      4020 8.24763E-03 9.96067E-04-2.70303E-14
 -1      4021 8.10910E-03 9.66378E-04-2.60028E-14
 -1      4022 8.01949E-03 9.19462E-04-2.56883E-14
 -1      4023 8.52640E-03 1.05526E-03-2.91339E-14
 -1      4024 8.38674E-03 1.02569E-03-2.80738E-14
 -1      4025 8.29563E-03 9.77800E-04-2.77472E-14
 -1      4026 8.80704E-03 1.11411E-03-3.13048E-14
 -1      4027 8.66651E-03 1.08473E-03-3.02095E-14
 -1      4028 8.57421E-03 1.03607E-03-2.98733E-14
 -1      4029 9.08910E-03 1.17252E-03-3.35429E-14
 -1      4030 8.94791E-03 1.14337E-03-3.24162E-14
 -1      4031 8.85471E-03 1.09411E-03-3.20669E-14
 -1      4032 9.37225E-03 1.23049E-03-3.58470E-14
 -1      4033 9.23056E-03 1.20156E-03-3.46869E-14
 -1      4034 9.13666E-03 1.15184E-03-3.43252E-14
 -1      4035 9.65620E-03 1.28801E-03-3.82218E-14
 -1      4036 9.51414E-03 1.25930E-03-3.70252E-14
 -1      4037 9.41973E-03 1.20922E-03-3.66511E-14
 -1      4038 9.94075E-03 1.34514E-03-4.06625E-14
 -1      4039 9.79841E-03 1.31662E-03-3.94344E-14
 -1      4040 9.70362E-03 1.26627E-03-3.90474E-14
 -1      4041 1.02257E-02 1.40191E-03-4.31670E-14
 -1      4042 1.00832E-02 1.37356E-03-4.19074E-14
 -1      4043 9.98813E-03 1.32302E-03-4.15115E-14
 -1      4044 1.05110E-02 1.45838E-03-4.57310E-14
 -1      4045 1.03683E-02 1.43018E-03-4.44410E-14
 -1      4046 1.02731E-02 1.37949E-03-4.40358E-14
 -1      4047 1.07965E-02 1.51462E-03-4.83534E-14
 -1      4048 1.06537E-02 1.48653E-03-4.70342E-14
 -1      4049 1.05583E-02 1.43573E-03-4.66181E-14
 -1      4050 1.10821E-02 1.57065E-03-5.10365E-14
 -1      4051 1.09393E-02 1.54265E-03-4.96879E-14
 -1      4052 1.08438E-02 1.49178E-03-4.92597E-14
 -1      4053 1.13678E-02 1.62653E-03-5.37769E-14
 -1      4054 1.12249E-02 1.59860E-03-5.24006E-14
 -1      4055 1.11294E-02 1.54768E-03-5.19636E-14
 -1      4056 1.16536E-02 1.68228E-03-5.65689E-14
 -1      4057 1.15107E-02 1.65442E-03-5.51663E-14
 -1      4058 1.14152E-02 1.60346E-03-5.47234E-14
 -1      4059 1.19394E-02 1.73795E-03-5.94097E-14
 -1      4060 1.17965E-02 1.71012E-03-5.79838E-14
 -1      4061 1.17009E-02 1.65914E-03-5.75310E-14
 -1      4062 1.22252E-02 1.79354E-03-6.23019E-14
 -1      4063 1.20823E-02 1.76575E-03-6.08485E-14
 -1      4064 1.19867E-02 1.71476E-03-6.03882E-14
 -1      4065 1.25110E-02 1.84909E-03-6.52419E-14
 -1      4066 1.23681E-02 1.82132E-03-6.37652E-14
 -1      4067 1.22726E-02 1.77032E-03-6.32930E-14
 -1      4068 1.27968E-02 1.90460E-03-6.82349E-14
 -1      4069 1.26539E-02 1.87685E-03-6.67314E-14
 -1      4070 1.25584E-02 1.82585E-03-6.62494E-14
 -1      4071 1.30826E-02 1.96009E-03-7.12778E-14
 -1      4072 1.29397E-02 1.93235E-03-6.97495E-14
 -1      4073 1.28442E-02 1.88135E-03-6.92571E-14
 -1      4074 1.33311E-02 2.00618E-03-7.39964E-14
 -1      4075 1.31882E-02 1.97845E-03-7.24491E-14
 -1      4076 1.30927E-02 1.92745E-03-7.19492E-14
 -1      4077 1.33038E-02 1.96415E-03-7.43048E-14
 -1      4078 6.20278E-03 5.63540E-04-1.27141E-14
 -1      4079 6.10345E-03 5.44377E-04-1.20232E-14
 -1      4080 6.06965E-03 5.23407E-04-1.18441E-14
 -1      4081 6.25604E-03 5.53095E-04-1.32455E-14
 -1      4082 5.91148E-03 3.83627E-04-1.31655E-14
 -1      4083 5.78811E-03 3.25700E-04-1.31392E-14
 -1      4084 6.90659E-03 7.05464E-04-1.75296E-14
 -1      4085 6.78050E-03 6.78462E-04-1.66745E-14
 -1      4086 6.95588E-03 6.92633E-04-1.81314E-14
 -1      4087 1.36034E-02 1.94338E-03-7.88873E-14
 -1      4088 1.36306E-02 1.98541E-03-7.85790E-14
 -1      4089 1.34283E-02 1.95448E-03-7.62187E-14
 -1      4090 1.34661E-02 1.89841E-03-7.76741E-14
 -1      4091 1.34494E-02 1.72280E-03-8.02935E-14
 -1      4092 1.33206E-02 1.78338E-03-7.74848E-14
 -1      4093 1.33477E-02 1.82537E-03-7.71900E-14
 -1      4094 5.79493E-03 3.07117E-04-1.34902E-14
 -1      4095 5.93103E-03 3.29832E-04-1.42822E-14
 -1      4096 5.62312E-03 2.59904E-04-1.27918E-14
 -1      4097 6.70638E-03 6.40485E-04-1.64141E-14
 -1      4098 6.05145E-03 3.76398E-04-1.45670E-14
 -1      4099 1.33288E-02 1.85340E-03-7.64666E-14
 -1      4100 1.33099E-02 1.88143E-03-7.57438E-14
 -1      4101 1.31915E-02 1.80839E-03-7.52617E-14
 -1      4102 1.33392E-02 1.71973E-03-7.87742E-14
 -1      4103 6.12716E-03 5.21737E-04-1.23761E-14
 -1      4104 6.07457E-03 4.79866E-04-1.25400E-14
 -1      4105 6.12477E-03 4.77269E-04-1.31844E-14
 -1      4106 6.15247E-03 5.05793E-04-1.28585E-14
 -1      4107 7.25999E-03 7.33103E-04-2.05478E-14
 -1      4108 7.13002E-03 7.06005E-04-1.96344E-14
 -1      4109 6.07326E-03 4.06290E-04-1.42224E-14
 -1      4110 6.17334E-03 4.16742E-04-1.49571E-14
 -1      4111 1.32917E-02 1.74299E-03-7.77272E-14
 -1      4112 6.52142E-03 4.71495E-04-1.72845E-14
 -1      4113 6.65054E-03 4.93434E-04-1.81557E-14
 -1      4114 6.78053E-03 5.15992E-04-1.90436E-14
 -1      4115 6.91164E-03 5.39084E-04-1.99474E-14
 -1      4116 6.74900E-03 5.33491E-04-1.84560E-14
 -1      4117 7.04363E-03 5.62689E-04-2.08693E-14
 -1      4118 7.17666E-03 5.86721E-04-2.18063E-14
 -1      4119 7.00817E-03 5.80172E-04-2.02565E-14
 -1      4120 7.31053E-03 6.11173E-04-2.27612E-14
 -1      4121 7.44532E-03 6.35963E-04-2.37354E-14
 -1      4122 7.27211E-03 6.28990E-04-2.21271E-14
 -1      4123 7.58089E-03 6.61093E-04-2.47249E-14
 -1      4124 7.71726E-03 6.86490E-04-2.57314E-14
 -1      4125 7.54023E-03 6.79452E-04-2.40662E-14
 -1      4126 7.85432E-03 7.12160E-04-2.67543E-14
 -1      4127 7.99205E-03 7.38039E-04-2.77933E-14
 -1      4128 7.81194E-03 7.31161E-04-2.60715E-14
 -1      4129 8.13038E-03 7.64139E-04-2.88501E-14
 -1      4130 8.26927E-03 7.90404E-04-2.99231E-14
 -1      4131 8.08669E-03 7.83807E-04-2.81451E-14
 -1      4132 8.40865E-03 8.16846E-04-3.10099E-14
 -1      4133 8.54850E-03 8.43420E-04-3.21140E-14
 -1      4134 8.36396E-03 8.37153E-04-3.02830E-14
 -1      4135 8.68875E-03 8.70135E-04-3.32331E-14
 -1      4136 8.82937E-03 8.96957E-04-3.43662E-14
 -1      4137 8.64330E-03 8.91024E-04-3.24844E-14
 -1      4138 8.97031E-03 9.23891E-04-3.55186E-14
 -1      4139 9.11154E-03 9.50911E-04-3.66890E-14
 -1      4140 8.92428E-03 9.45288E-04-3.47498E-14
 -1      4141 9.25302E-03 9.78022E-04-3.78752E-14
 -1      4142 9.39473E-03 1.00520E-03-3.90769E-14
 -1      4143 9.20656E-03 9.99848E-04-3.70818E-14
 -1      4144 9.53663E-03 1.03245E-03-4.02958E-14
 -1      4145 9.67870E-03 1.05976E-03-4.15320E-14
 -1      4146 9.48985E-03 1.05463E-03-3.94831E-14
 -1      4147 9.82091E-03 1.08712E-03-4.27842E-14
 -1      4148 9.96326E-03 1.11453E-03-4.40541E-14
 -1      4149 9.77391E-03 1.10958E-03-4.19513E-14
 -1      4150 1.01057E-02 1.14198E-03-4.53371E-14
 -1      4151 1.02482E-02 1.16947E-03-4.66346E-14
 -1      4152 1.00585E-02 1.16467E-03-4.44835E-14
 -1      4153 1.03908E-02 1.19699E-03-4.79480E-14
 -1      4154 1.05335E-02 1.22454E-03-4.92775E-14
 -1      4155 1.03436E-02 1.21985E-03-4.70750E-14
 -1      4156 1.06763E-02 1.25212E-03-5.06216E-14
 -1      4157 1.08190E-02 1.27972E-03-5.19790E-14
 -1      4158 1.06289E-02 1.27511E-03-4.97280E-14
 -1      4159 1.09618E-02 1.30734E-03-5.33509E-14
 -1      4160 1.11047E-02 1.33498E-03-5.47358E-14
 -1      4161 1.09144E-02 1.33042E-03-5.24402E-14
 -1      4162 1.12475E-02 1.36263E-03-5.61350E-14
 -1      4163 1.13904E-02 1.39030E-03-5.75468E-14
 -1      4164 1.12001E-02 1.38578E-03-5.52051E-14
 -1      4165 1.15333E-02 1.41798E-03-5.89697E-14
 -1      4166 1.16762E-02 1.44567E-03-6.04042E-14
 -1      4167 1.14858E-02 1.44117E-03-5.80247E-14
 -1      4168 1.18191E-02 1.47336E-03-6.18496E-14
 -1      4169 1.19620E-02 1.50107E-03-6.33065E-14
 -1      4170 1.17716E-02 1.49659E-03-6.08892E-14
 -1      4171 1.21049E-02 1.52878E-03-6.47763E-14
 -1      4172 1.22478E-02 1.55649E-03-6.62585E-14
 -1      4173 1.20574E-02 1.55202E-03-6.37976E-14
 -1      4174 1.23907E-02 1.58421E-03-6.77540E-14
 -1      4175 1.25336E-02 1.61193E-03-6.92646E-14
 -1      4176 1.23433E-02 1.60747E-03-6.67571E-14
 -1      4177 1.26765E-02 1.63966E-03-7.07897E-14
 -1      4178 1.28194E-02 1.66739E-03-7.23240E-14
 -1      4179 1.26291E-02 1.66293E-03-6.97748E-14
 -1      4180 7.79357E-03 8.44860E-04-2.43726E-14
 -1      4181 7.65841E-03 8.16514E-04-2.33902E-14
 -1      4182 8.06669E-03 9.01927E-04-2.63871E-14
 -1      4183 7.92969E-03 8.73325E-04-2.53710E-14
 -1      4184 7.83951E-03 8.27949E-04-2.50516E-14
 -1      4185 8.34288E-03 9.59269E-04-2.84691E-14
 -1      4186 8.20444E-03 9.30571E-04-2.74198E-14
 -1      4187 8.11304E-03 8.83994E-04-2.70894E-14
 -1      4188 8.62150E-03 1.01665E-03-3.06171E-14
 -1      4189 8.48192E-03 9.87957E-04-2.95360E-14
 -1      4190 8.38952E-03 9.40394E-04-2.91949E-14
 -1      4191 8.90200E-03 1.07391E-03-3.28313E-14
 -1      4192 8.76154E-03 1.04529E-03-3.17149E-14
 -1      4193 8.66834E-03 9.96931E-04-3.13658E-14
 -1      4194 9.18397E-03 1.13098E-03-3.51107E-14
 -1      4195 9.04282E-03 1.10247E-03-3.39632E-14
 -1      4196 8.94899E-03 1.05346E-03-3.35988E-14
 -1      4197 9.46704E-03 1.18781E-03-3.74584E-14
 -1      4198 9.32538E-03 1.15942E-03-3.62758E-14
 -1      4199 9.23106E-03 1.10991E-03-3.58990E-14
 -1      4200 9.75094E-03 1.24442E-03-3.98788E-14
 -1      4201 9.60890E-03 1.21614E-03-3.86605E-14
 -1      4202 9.51421E-03 1.16624E-03-3.82709E-14
 -1      4203 1.00355E-02 1.30080E-03-4.23614E-14
 -1      4204 9.89313E-03 1.27263E-03-4.11112E-14
 -1      4205 9.79817E-03 1.22243E-03-4.07116E-14
 -1      4206 1.03204E-02 1.35699E-03-4.49046E-14
 -1      4207 1.01779E-02 1.32892E-03-4.36255E-14
 -1      4208 1.00827E-02 1.27848E-03-4.32136E-14
 -1      4209 1.06057E-02 1.41301E-03-4.75076E-14
 -1      4210 1.04630E-02 1.38502E-03-4.62000E-14
 -1      4211 1.03677E-02 1.33441E-03-4.57782E-14
 -1      4212 1.08912E-02 1.46890E-03-5.01717E-14
 -1      4213 1.07484E-02 1.44097E-03-4.88316E-14
 -1      4214 1.06530E-02 1.39024E-03-4.84018E-14
 -1      4215 1.11768E-02 1.52468E-03-5.28917E-14
 -1      4216 1.10340E-02 1.49680E-03-5.15233E-14
 -1      4217 1.09385E-02 1.44597E-03-5.10832E-14
 -1      4218 1.14625E-02 1.58037E-03-5.56684E-14
 -1      4219 1.13197E-02 1.55253E-03-5.42749E-14
 -1      4220 1.12242E-02 1.50164E-03-5.38225E-14
 -1      4221 1.17483E-02 1.63599E-03-5.84923E-14
 -1      4222 1.16054E-02 1.60818E-03-5.70731E-14
 -1      4223 1.15099E-02 1.55725E-03-5.66150E-14
 -1      4224 1.20341E-02 1.69156E-03-6.13651E-14
 -1      4225 1.18912E-02 1.66378E-03-5.99246E-14
 -1      4226 1.17957E-02 1.61281E-03-5.94566E-14
 -1      4227 1.23199E-02 1.74709E-03-6.42875E-14
 -1      4228 1.21770E-02 1.71933E-03-6.28206E-14
 -1      4229 1.20815E-02 1.66834E-03-6.23461E-14
 -1      4230 1.26058E-02 1.80260E-03-6.72593E-14
 -1      4231 1.24629E-02 1.77485E-03-6.57659E-14
 -1      4232 1.23673E-02 1.72385E-03-6.52821E-14
 -1      4233 1.28916E-02 1.85809E-03-7.02841E-14
 -1      4234 1.27487E-02 1.83034E-03-6.87660E-14
 -1      4235 1.26532E-02 1.77934E-03-6.82715E-14
 -1      4236 6.10818E-03 4.46515E-04-1.37202E-14
 -1      4237 6.03339E-03 4.21311E-04-1.35374E-14
 -1      4238 7.00178E-03 6.79522E-04-1.87374E-14
 -1      4239 6.87546E-03 6.53539E-04-1.78582E-14
 -1      4240 7.04502E-03 6.65778E-04-1.93474E-14
 -1      4241 6.51102E-03 5.80571E-04-1.53242E-14
 -1      4242 6.39563E-03 5.57862E-04-1.45152E-14
 -1      4243 1.33163E-02 1.90878E-03-7.53867E-14
 -1      4244 1.32974E-02 1.93681E-03-7.46625E-14
 -1      4245 1.31918E-02 1.91846E-03-7.34801E-14
 -1      4246 1.31790E-02 1.86377E-03-7.41896E-14
 -1      4247 6.28278E-03 4.33197E-04-1.56873E-14
 -1      4248 6.41002E-03 4.53877E-04-1.65246E-14
 -1      4249 6.51142E-03 4.93206E-04-1.68155E-14
 -1      4250 6.29563E-03 4.59332E-04-1.53271E-14
 -1      4251 6.75136E-03 6.28425E-04-1.69951E-14
 -1      4252 6.62974E-03 6.03925E-04-1.61503E-14
 -1      4253 6.54976E-03 5.68675E-04-1.58855E-14
 -1      4254 1.31815E-02 1.73997E-03-7.62224E-14
 -1      4255 7.52434E-03 7.88423E-04-2.24261E-14
 -1      4256 7.39148E-03 7.60557E-04-2.14781E-14
 -1      4257 7.30448E-03 7.18331E-04-2.11808E-14
 -1      4258 7.56969E-03 7.72580E-04-2.30826E-14
 -1      4259 1.30386E-02 1.71224E-03-7.46608E-14
 -1      4260 6.20604E-03 4.76920E-04-1.40602E-14
 -1      4261 1.29912E-02 1.73551E-03-7.36288E-14
 -1      4262 6.79279E-03 6.15632E-04-1.75815E-14
 -1      4263 1.30945E-02 1.89745E-03-7.24639E-14
 -1      4264 1.29889E-02 1.87910E-03-7.12924E-14
 -1      4265 1.28934E-02 1.82809E-03-7.07920E-14
 -1      4266 1.30881E-02 1.87011E-03-7.28157E-14
 -1      4267 6.28541E-03 5.36190E-04-1.37421E-14
 -1      4268 6.19321E-03 5.21759E-04-1.30240E-14
 -1      4269 6.32026E-03 4.96768E-04-1.48410E-14
 -1      4270 6.42310E-03 5.13338E-04-1.55677E-14
 -1      4271 1.29723E-02 1.76354E-03-7.29180E-14
 -1      4272 6.31997E-03 5.25228E-04-1.42795E-14
 -1      4273 6.54335E-03 5.34632E-04-1.64002E-14
 -1      4274 6.65048E-03 5.52929E-04-1.71567E-14
 -1      4275 7.02978E-03 6.23961E-04-1.98062E-14
 -1      4276 7.15957E-03 6.48857E-04-2.07237E-14
 -1      4277 7.29073E-03 6.74375E-04-2.16570E-14
 -1      4278 7.42319E-03 7.00234E-04-2.26091E-14
 -1      4279 7.55681E-03 7.26540E-04-2.35778E-14
 -1      4280 7.69148E-03 7.53085E-04-2.45628E-14
 -1      4281 7.82711E-03 7.79943E-04-2.55658E-14
 -1      4282 7.96361E-03 8.06959E-04-2.65852E-14
 -1      4283 8.10089E-03 8.34190E-04-2.76205E-14
 -1      4284 8.23887E-03 8.61520E-04-2.86744E-14
 -1      4285 8.37749E-03 8.88991E-04-2.97437E-14
 -1      4286 8.51667E-03 9.16521E-04-3.08277E-14
 -1      4287 8.65635E-03 9.44142E-04-3.19278E-14
 -1      4288 8.79648E-03 9.71793E-04-3.30440E-14
 -1      4289 8.93701E-03 9.99501E-04-3.41779E-14
 -1      4290 9.07788E-03 1.02722E-03-3.53277E-14
 -1      4291 9.21906E-03 1.05498E-03-3.64939E-14
 -1      4292 9.36051E-03 1.08273E-03-3.76787E-14
 -1      4293 9.50219E-03 1.11051E-03-3.88814E-14
 -1      4294 9.64407E-03 1.13828E-03-4.00999E-14
 -1      4295 9.78613E-03 1.16606E-03-4.13338E-14
 -1      4296 9.92834E-03 1.19384E-03-4.25849E-14
 -1      4297 1.00707E-02 1.22161E-03-4.38514E-14
 -1      4298 1.02131E-02 1.24939E-03-4.51336E-14
 -1      4299 1.03557E-02 1.27716E-03-4.64308E-14
 -1      4300 1.04983E-02 1.30493E-03-4.77425E-14
 -1      4301 1.06410E-02 1.33269E-03-4.90694E-14
 -1      4302 1.07837E-02 1.36046E-03-5.04110E-14
 -1      4303 1.09265E-02 1.38821E-03-5.17655E-14
 -1      4304 1.10693E-02 1.41597E-03-5.31342E-14
 -1      4305 1.12121E-02 1.44372E-03-5.45189E-14
 -1      4306 1.13550E-02 1.47147E-03-5.59151E-14
 -1      4307 1.14979E-02 1.49922E-03-5.73230E-14
 -1      4308 1.16407E-02 1.52696E-03-5.87437E-14
 -1      4309 1.17836E-02 1.55471E-03-6.01767E-14
 -1      4310 1.19266E-02 1.58245E-03-6.16202E-14
 -1      4311 1.20695E-02 1.61019E-03-6.30755E-14
 -1      4312 1.22124E-02 1.63793E-03-6.45430E-14
 -1      4313 1.23553E-02 1.66566E-03-6.60221E-14
 -1      4314 1.24982E-02 1.69340E-03-6.75158E-14
 -1      4315 1.26411E-02 1.72114E-03-6.90235E-14
 -1      4316 1.27840E-02 1.74887E-03-7.05467E-14
 -1      4317 6.90159E-03 5.99529E-04-1.89059E-14
 -1      4318 6.77505E-03 5.75942E-04-1.80230E-14
 -1      4319 1.29843E-02 1.82176E-03-7.21513E-14
 -1      4320 1.30816E-02 1.84276E-03-7.31692E-14
 -3
    1PSTEP                         2           1           1          
  100CL  101 1.000000000        4320                     0    1           1
 -4  STRESS      6    1
 -5  SXX         1    4    1    1
 -5  SYY         1    4    2    2
 -5  SZZ         1    4    3    3
 -5  SXY         1    4    1    2
 -5  SYZ         1    4    2    3
 -5  SZX         1    4    3    1
 -1         1 6.59580E+01 8.50133E-01 3.48095E+00 3.32958E-01-2.72976E-14 3.61511E-13
 -1         2-6.77522E-01-2.43832E+01-3.36311E+00-1.18233E-01 1.54970E-12-4.54151E-14
 -1         3 1.99998E+01 2.73271E-05-7.22316E-05 2.72703E-05-4.02675E-13-4.11187E-13
 -1         4 1.99998E+01 2.47460E-05-7.44464E-05-2.52032E-05 9.02260E-14 6.29500E-14
 -1         5 3.64203E+01 6.89950E+00 2.73701E+00 6.39270E+00-3.94199E-14 2.45894E-12
 -1         6 3.86421E+01 1.31820E+01 5.29769E+00-9.03709E+00-1.63980E-13 1.43052E-12
 -1         7 2.33450E+01 6.80717E+00-4.40710E-02-4.53284E+00-2.43833E-14-1.45925E-13
 -1         8 2.16415E+01 6.51773E+00 1.01161E-01-2.68418E+00-1.21292E-14-5.05633E-13
 -1         9 2.04777E+01 6.17277E+00 8.91223E-02-1.65669E+00-1.05749E-14-6.51162E-13
 -1        10 1.94995E+01 5.87469E+00 8.48445E-02-8.49977E-01 2.09555E-15-6.91051E-13
 -1        11 1.85314E+01 5.58227E+00 7.06992E-02-1.88561E-01 3.12250E-15-6.77845E-13
 -1        12 1.75623E+01 5.29093E+00 4.43914E-02 3.02760E-01 7.91728E-15-6.42978E-13
 -1        13 1.66220E+01 5.01020E+00 7.56216E-03 6.00974E-01 9.69363E-15-6.13264E-13
 -1        14 1.58629E+01 4.78447E+00-3.15675E-02 6.76796E-01 1.36315E-14-5.77289E-13
 -1        15 1.54518E+01 4.66302E+00-6.08415E-02 5.61352E-01 1.60878E-14-5.39606E-13
 -1        16 1.55256E+01 4.68638E+00-6.93153E-02 3.46445E-01 1.99337E-14-4.92936E-13
 -1        17 1.61355E+01 4.86930E+00-5.32415E-02 1.64706E-01 2.13371E-14-4.19366E-13
 -1        18 1.72030E+01 5.18973E+00-1.87056E-02 1.45128E-01 2.36131E-14-3.09984E-13
 -1        19 1.86479E+01 5.62286E+00 2.57879E-02 3.87330E-01 3.06768E-14-1.41538E-13
 -1        20 2.03339E+01 6.12854E+00 7.24570E-02 9.64115E-01 3.50553E-14 1.10246E-13
 -1        21 2.22327E+01 6.69597E+00 1.29507E-01 1.97995E+00 3.16691E-14 5.30011E-13
 -1        22 2.47535E+01 7.35802E+00 2.69940E-01 3.80979E+00 1.22125E-15 1.22967E-12
 -1        23 2.61486E+01-1.54891E+00-1.02684E+00-6.15948E-01-1.11487E-13 8.97657E-13
 -1        24 2.29295E+01-9.16319E-02-2.94005E-01 9.38886E-02-2.67911E-14 4.46420E-13
 -1        25 2.24547E+01-3.93952E-02-3.55691E-02 6.78832E-02-1.77129E-14 3.21531E-14
 -1        26 2.21148E+01-1.57222E-03 3.15178E-02 2.27428E-02 1.31203E-14-2.40519E-13
 -1        27 2.15919E+01 8.73710E-03 4.04473E-02-7.16887E-03-8.19695E-15-3.95361E-13
 -1        28 2.07651E+01 8.90045E-03 3.27602E-02-3.41175E-02-5.64761E-16-5.03533E-13
 -1        29 1.96667E+01 2.20612E-04 1.15214E-02-5.33499E-02-1.37573E-15-6.09901E-13
 -1        30 1.84928E+01-1.41828E-02-2.05261E-02-5.63459E-02 1.63174E-14-6.89332E-13
 -1        31 1.75618E+01-2.81670E-02-5.19972E-02-3.75932E-02-2.23239E-14-8.48471E-13
 -1        32 1.71895E+01-3.47257E-02-6.74415E-02-1.54336E-03-4.92024E-14-1.09284E-12
 -1        33 1.75292E+01-3.01163E-02-5.82154E-02 3.71442E-02 8.93680E-14-1.10138E-12
 -1        34 1.84843E+01-1.64096E-02-2.94999E-02 6.23367E-02-1.44841E-14-1.03470E-12
 -1        35 1.97595E+01 9.09120E-05 3.71573E-03 6.65885E-02-3.25586E-16-1.22085E-12
 -1        36 2.10093E+01 1.30799E-02 2.76653E-02 5.37066E-02 1.97923E-14-1.22147E-12
 -1        37 2.19781E+01 1.94620E-02 3.70466E-02 3.32663E-02-3.41330E-14-1.10096E-12
 -1        38 2.25574E+01 1.96472E-02 3.44403E-02 1.38514E-02-1.41399E-14-1.21363E-12
 -1        39 2.27640E+01 1.59312E-02 2.55931E-02-1.46357E-04-1.18503E-15-1.36118E-12
 -1        40 2.26838E+01 1.07654E-02 1.55430E-02-8.07280E-03-1.72479E-14-1.35799E-12
 -1        41 2.24210E+01 5.83974E-03 7.12363E-03-1.12157E-02-1.07783E-14-1.43604E-12
 -1        42 2.20671E+01 1.96658E-03 1.25256E-03-1.13275E-02 4.34208E-14-1.27568E-12
 -1        43 2.16893E+01-6.71662E-04-2.24531E-03-9.87975E-03-5.61466E-14-1.12365E-12
 -1        44 2.13303E+01-2.22492E-03-3.95730E-03-7.86094E-03-9.07958E-15-1.14132E-12
 -1        45 2.10130E+01-2.95980E-03-4.49650E-03-5.83402E-03-2.38851E-14-1.29065E-12
 -1        46 2.07466E+01-3.14213E-03-4.35125E-03-4.06662E-03 1.45472E-14-1.17212E-12
 -1        47 2.05318E+01-2.98862E-03-3.85993E-03-2.64935E-03-2.19430E-14-7.18091E-13
 -1        48 2.03643E+01-2.65702E-03-3.23566E-03-1.57932E-03 6.82301E-14-3.88780E-13
 -1        49 2.02376E+01-2.25296E-03-2.60168E-03-8.11561E-04 8.88528E-15-4.10330E-13
 -1        50 2.01446E+01-1.84190E-03-2.02221E-03-2.87785E-04 1.01284E-14-6.09629E-13
 -1        51 2.00784E+01-1.46082E-03-1.52508E-03 4.92237E-05 4.25677E-14-5.20092E-13
 -1        52 2.00331E+01-1.12766E-03-1.11702E-03 2.49289E-04-4.32748E-14-3.98483E-13
 -1        53 2.00034E+01-8.48370E-04-7.93351E-04 3.52919E-04 3.75975E-15-4.88845E-13
 -1        54 1.99851E+01-6.21832E-04-5.44011E-04 3.91522E-04 6.93657E-14-4.47220E-13
 -1        55 1.99750E+01-4.43135E-04-3.57047E-04 3.88552E-04-3.70358E-14-4.79455E-13
 -1        56 1.99705E+01-3.05696E-04-2.20587E-04 3.60944E-04 3.22033E-14-8.34215E-13
 -1        57 1.99697E+01-2.02538E-04-1.23846E-04 3.20510E-04-1.22294E-14-8.09814E-13
 -1        58 1.99711E+01-1.27026E-04-5.75459E-05 2.75179E-04 1.15804E-13-6.84304E-13
 -1        59 1.99739E+01-7.32422E-05-1.40135E-05 2.30022E-04-6.62243E-14-5.80623E-13
 -1        60 1.99773E+01-3.61301E-05 1.29110E-05 1.88063E-04-8.13107E-14-5.46991E-13
 -1        61 1.99808E+01-1.15069E-05 2.80520E-05 1.50911E-04 7.19826E-14-7.32945E-13
 -1        62 1.99842E+01 4.00348E-06 3.51101E-05 1.19229E-04-9.80024E-14-1.04388E-12
 -1        63 1.99874E+01 1.30753E-05 3.68803E-05 9.30716E-05-5.84968E-14-1.45823E-12
 -1        64 1.99902E+01 1.78012E-05 3.54623E-05 7.21208E-05-3.49041E-15-1.34502E-12
 -1        65 1.99927E+01 1.98128E-05 3.24709E-05 5.58300E-05-4.13058E-14-6.87402E-13
 -1        66 1.99947E+01 2.03908E-05 2.92676E-05 4.34764E-05 5.39971E-14-6.61077E-13
 -1        67 1.99965E+01 2.05472E-05 2.72275E-05 3.41025E-05 7.52311E-14 4.18595E-14
 -1        68 1.99979E+01 2.10275E-05 2.79172E-05 2.62475E-05-4.45518E-14 3.20242E-13
 -1        69 1.99989E+01 2.19381E-05 3.22995E-05 1.72272E-05 4.95781E-14 1.21071E-13
 -1        70 1.99996E+01 1.95310E-05 3.46405E-05-5.81746E-08-6.15050E-14 1.96160E-13
 -1        71 1.99999E+01-3.64926E-06 4.07880E-06-2.42862E-05-1.67494E-15 3.13637E-13
 -1        72 2.57549E+01-4.52337E-01-1.07083E+00-4.75857E-01 7.80279E-15 2.43934E-12
 -1        73 2.55079E+01-5.84355E-02-2.69963E-01-1.02364E-01 2.13514E-14 2.12697E-12
 -1        74 2.59466E+01-4.19751E-03-3.21731E-02-6.28074E-02 8.00038E-15 1.86856E-12
 -1        75 2.65284E+01 1.77027E-02 4.53468E-02-6.17569E-02-4.17418E-15 1.74122E-12
 -1        76 2.67830E+01 3.22041E-02 9.58967E-02-4.84825E-02 1.03116E-14 1.63670E-12
 -1        77 2.61999E+01 3.18972E-02 1.29224E-01-7.92481E-04-1.71044E-15 1.59019E-12
 -1        78 2.44134E+01 8.23749E-03 1.06104E-01 8.86122E-02-1.57728E-14 1.71762E-12
 -1        79 2.15970E+01-3.15509E-02-5.70560E-03 1.83073E-01-1.72371E-14 1.79456E-12
 -1        80 1.87710E+01-5.94953E-02-1.63655E-01 2.01584E-01-2.58127E-15 1.59767E-12
 -1        81 1.74369E+01-5.34866E-02-2.48787E-01 9.38098E-02 2.43221E-14 1.21468E-12
 -1        82 1.84425E+01-2.11597E-02-1.85115E-01-7.42945E-02-3.44733E-15 1.02386E-12
 -1        83 2.12007E+01 1.26387E-02-2.99811E-02-1.81329E-01 3.49970E-14 8.36844E-13
 -1        84 2.42275E+01 3.16464E-02 9.44606E-02-1.78556E-01-2.26375E-14 6.33049E-13
 -1        85 2.63218E+01 3.35015E-02 1.31696E-01-1.11451E-01 3.01358E-14 7.49234E-13
 -1        86 2.71211E+01 2.48303E-02 1.03974E-01-4.05786E-02 7.69567E-15 4.56021E-13
 -1        87 2.68823E+01 1.34819E-02 5.71429E-02 5.36579E-03-2.74837E-14 3.42570E-13
 -1        88 2.60511E+01 4.17411E-03 1.90415E-02 2.60823E-02-3.54683E-14 5.98374E-13
 -1        89 2.49996E+01-1.70768E-03-3.29484E-03 3.08460E-02 5.56338E-14 2.91598E-13
 -1        90 2.39574E+01-4.64647E-03-1.30768E-02 2.80384E-02-5.90812E-14 8.75359E-14
 -1        91 2.30357E+01-5.63260E-03-1.54790E-02 2.27159E-02 4.91306E-16 3.10709E-13
 -1        92 2.22717E+01-5.53089E-03-1.44089E-02 1.72919E-02-4.62797E-14 3.79007E-13
 -1        93 2.16636E+01-4.92214E-03-1.21075E-02 1.26697E-02-5.19660E-14 6.76335E-13
 -1        94 2.11930E+01-4.14280E-03-9.64722E-03 9.03923E-03 9.45947E-14 5.60985E-13
 -1        95 2.08365E+01-3.36583E-03-7.45397E-03 6.30921E-03-1.89932E-14 5.43918E-13
 -1        96 2.05711E+01-2.66831E-03-5.64592E-03 4.30868E-03 4.09312E-14 7.26083E-13
 -1        97 2.03770E+01-2.07610E-03-4.21332E-03 2.86809E-03-5.95052E-14 6.94869E-13
 -1        98 2.02375E+01-1.58999E-03-3.10312E-03 1.84541E-03-1.05562E-14 5.94964E-13
 -1        99 2.01393E+01-1.19993E-03-2.25474E-03 1.12978E-03-5.32460E-14 3.55748E-13
 -1       100 2.00718E+01-8.92192E-04-1.61322E-03 6.37536E-04-2.92669E-14 4.84499E-13
 -1       101 2.00269E+01-6.52807E-04-1.13280E-03 3.06492E-04 6.77113E-14 3.39182E-13
 -1       102 1.99983E+01-4.69011E-04-7.76738E-04 9.07423E-05-1.77252E-14 7.18264E-14
 -1       103 1.99813E+01-3.29740E-04-5.16041E-04-4.34811E-05-2.12800E-14 7.16757E-13
 -1       104 1.99723E+01-2.25682E-04-3.27983E-04-1.20944E-04 7.88909E-14 1.09979E-12
 -1       105 1.99686E+01-1.49146E-04-1.94821E-04-1.59731E-04-3.26703E-15 1.06265E-12
 -1       106 1.99685E+01-9.38672E-05-1.02745E-04-1.72953E-04-1.64295E-13 1.54626E-12
 -1       107 1.99704E+01-5.48005E-05-4.10517E-05-1.70016E-04 1.12627E-13 9.23018E-13
 -1       108 1.99734E+01-2.79248E-05-1.49291E-06-1.57570E-04 1.11237E-13-1.78891E-13
 -1       109 1.99770E+01-1.00682E-05 2.22370E-05-1.40223E-04-8.50078E-14-3.04026E-13
 -1       110 1.99807E+01 1.24727E-06 3.49152E-05-1.21087E-04-1.13731E-13 2.32277E-13
 -1       111 1.99842E+01 7.94083E-06 4.01256E-05-1.02190E-04 3.23324E-14 4.43306E-13
 -1       112 1.99874E+01 1.14903E-05 4.05350E-05-8.47942E-05-2.99932E-15 4.56272E-13
 -1       113 1.99902E+01 1.30350E-05 3.81298E-05-6.96270E-05-2.65566E-15 3.47140E-13
 -1       114 1.99927E+01 1.34639E-05 3.44377E-05-5.70565E-05-5.93520E-14 2.13455E-13
 -1       115 1.99948E+01 1.34835E-05 3.07666E-05-4.71846E-05 7.56033E-14 1.46326E-13
 -1       116 1.99965E+01 1.36236E-05 2.84750E-05-3.98150E-05 2.41196E-15 2.30979E-13
 -1       117 1.99979E+01 1.42576E-05 2.91814E-05-3.42777E-05 4.20015E-14-1.00333E-13
 -1       118 1.99990E+01 1.52176E-05 3.38344E-05-2.88407E-05 7.63373E-14-3.77921E-13
 -1       119 1.99996E+01 1.35233E-05 3.61653E-05-1.66434E-05-8.18420E-15-1.16183E-12
 -1       120 1.99999E+01-1.36191E-05 1.48846E-07 1.54634E-05 1.67425E-13-8.50414E-13
 -1       121 1.99998E+01 4.55097E-05 2.75259E-06 2.59880E-05-6.09052E-13-1.25438E-13
 -1       122 1.99998E+01-1.99138E-04 3.41603E-05-7.68232E-06 4.81777E-13 9.28020E-14
 -1       123 1.99998E+01-8.58051E-04 2.30526E-05-2.65232E-05 1.51207E-12 1.35098E-13
 -1       124 1.99998E+01-1.74256E-03 6.11437E-06-3.31465E-05 1.27093E-12-1.32957E-13
 -1       125 1.99998E+01-2.67770E-03-8.39166E-06-3.17622E-05 1.75576E-13-1.37500E-14
 -1       126 1.99998E+01-3.50244E-03-1.90818E-05-2.59313E-05-4.85612E-14 2.01207E-14
 -1       127 1.99998E+01-4.12750E-03-2.60252E-05-1.66890E-05 3.35583E-13 2.05105E-14
 -1       128 1.99998E+01-4.45844E-03-2.94860E-05-5.67480E-06-7.82832E-13-2.52424E-14
 -1       129 1.99998E+01-4.45509E-03-2.94398E-05 5.89168E-06-6.31261E-13 2.18444E-13
 -1       130 1.99998E+01-4.11796E-03-2.59014E-05 1.68429E-05-1.32636E-12-3.48027E-13
 -1       131 1.99998E+01-3.48840E-03-1.87381E-05 2.62701E-05-1.96711E-12-5.85962E-15
 -1       132 1.99998E+01-2.66158E-03-8.22033E-06 3.18274E-05-9.62471E-13 3.38517E-13
 -1       133 1.99998E+01-1.72658E-03 6.21372E-06 3.29515E-05-4.87911E-13-5.33053E-14
 -1       134 1.99998E+01-8.42245E-04 2.46725E-05 2.87640E-05-6.67407E-14 9.64945E-14
 -1       135 1.99998E+01-2.01927E-04 2.99490E-05 1.07703E-05 8.08263E-14-2.50947E-13
 -1       136 1.99998E+01 3.66521E-05 1.46949E-06-4.63392E-05-4.03649E-13-1.11066E-13
 -1       137-1.51473E+00-2.03853E+01-3.15976E+00-3.91209E+00 2.37138E-12 5.92915E-13
 -1       138-1.68500E+00-9.23945E+00-2.42035E+00-3.15224E+00 2.78444E-12 1.21983E-12
 -1       139 2.95401E+00 3.14551E+00-1.22023E+00 3.36756E+00 2.47508E-12 1.94383E-12
 -1       140 1.54260E+01 9.91085E+00 2.34895E-01 1.22546E+01 1.97836E-12 2.25719E-12
 -1       141 3.55724E+01 9.99452E+00 1.81540E+00 1.83217E+01 1.05266E-12 1.73617E-12
 -1       142 5.52007E+01 5.36011E+00 3.07929E+00 1.60714E+01 2.33882E-13 6.23890E-13
 -1       143 6.73667E+01 1.42836E+00 3.78695E+00 5.26770E+00-8.13238E-15-8.21093E-13
 -1       144 6.53291E+01 2.13050E+00 3.66142E+00-8.34892E+00 3.74006E-13-2.17584E-12
 -1       145 5.07295E+01 6.56221E+00 2.79114E+00-1.72319E+01 1.09188E-12-3.03374E-12
 -1       146 3.07254E+01 1.05631E+01 1.44319E+00-1.75968E+01 1.77391E-12-2.86238E-12
 -1       147 1.15161E+01 8.94770E+00-1.93808E-01-1.01957E+01 2.09666E-12-2.16271E-12
 -1       148 1.16305E+00 2.88124E-01-1.62554E+00-1.36308E+00 1.92890E-12-1.30934E-12
 -1       149-1.92868E+00-1.18091E+01-2.65158E+00 3.95501E+00 1.17967E-12-5.00655E-13
 -1       150-1.08822E+00-2.13451E+01-3.20137E+00 3.07252E+00 1.04278E-13-4.49302E-14
 -1       151-7.49009E-01-2.25973E+01-3.21396E+00-1.14425E+00-1.02286E-12-8.10810E-14
 -1       152-1.43618E+00-1.55533E+01-2.75634E+00-3.58951E+00-1.83736E-12-5.09703E-13
 -1       153-6.96944E-01-4.07155E+00-1.90591E+00-1.30649E+00-2.31154E-12-1.22219E-12
 -1       154 5.28409E+00 6.17372E+00-7.51582E-01 5.91068E+00-2.24815E-12-1.82371E-12
 -1       155 2.06826E+01 1.10166E+01 7.35266E-01 1.47716E+01-1.61349E-12-2.01639E-12
 -1       156 4.08297E+01 8.80343E+00 2.10535E+00 1.81413E+01-8.57620E-13-1.65212E-12
 -1       157 5.85162E+01 3.60183E+00 3.10466E+00 1.25996E+01-2.07518E-13-7.30416E-13
 -1       158 6.02977E+01 3.03886E+00 3.21414E+00-1.16000E+01-3.30500E-13 1.63020E-12
 -1       159 4.48898E+01 7.90600E+00 2.40980E+00-1.79925E+01-9.63424E-13 2.26952E-12
 -1       160 2.69319E+01 1.12934E+01 1.29256E+00-1.71155E+01-1.68748E-12 2.47063E-12
 -1       161 1.11811E+01 9.49207E+00-2.47417E-02-1.03178E+01-2.25447E-12 2.15050E-12
 -1       162 1.60305E+00 1.48486E+00-1.30324E+00-1.95680E+00-2.44649E-12 1.66744E-12
 -1       163-1.50398E+00-9.83230E+00-2.35786E+00 3.18390E+00-1.51290E-12 7.34884E-13
 -1       164-1.23755E+00-1.99926E+01-3.07026E+00 3.49397E+00 2.96596E-13 8.83321E-15
 -1       165 2.35146E+01 3.78893E+00-5.92589E-02-3.21129E+00-2.67453E-13-2.69354E-13
 -1       166 2.18790E+01 4.22406E+00-5.00640E-02-2.20241E+00-1.67007E-13-4.76390E-13
 -1       167 2.06933E+01 4.34857E+00-3.54662E-02-1.36866E+00-7.73001E-14-5.52369E-13
 -1       168 1.96123E+01 4.35583E+00-2.60683E-02-6.39094E-01 3.76435E-16-5.73605E-13
 -1       169 1.85147E+01 4.37246E+00-2.02119E-02-3.90844E-02 5.57193E-14-5.54876E-13
 -1       170 1.73660E+01 4.44905E+00-1.64095E-02 4.07138E-01 1.14940E-13-5.33890E-13
 -1       171 1.63037E+01 4.58745E+00-1.38736E-02 6.41819E-01 1.63205E-13-5.03101E-13
 -1       172 1.55303E+01 4.74673E+00-1.25169E-02 6.56669E-01 2.01742E-13-4.72969E-13
 -1       173 1.52609E+01 4.86673E+00-1.23461E-02 5.09199E-01 2.32241E-13-4.36845E-13
 -1       174 1.56323E+01 4.90402E+00-1.37057E-02 3.21120E-01 2.60091E-13-3.89379E-13
 -1       175 1.66172E+01 4.85845E+00-1.69546E-02 2.37056E-01 2.79192E-13-3.07174E-13
 -1       176 1.81247E+01 4.75696E+00-2.27729E-02 3.68066E-01 3.10090E-13-1.80190E-13
 -1       177 1.99824E+01 4.60874E+00-3.25130E-02 7.79570E-01 3.24185E-13 1.92051E-14
 -1       178 2.21119E+01 4.33495E+00-4.42022E-02 1.49303E+00 3.15239E-13 3.21101E-13
 -1       179 2.46929E+01 3.55482E+00-5.01677E-02 2.45435E+00 2.50093E-13 7.85413E-13
 -1       180 2.68519E+01 1.01814E+00-3.45652E-01 2.22921E+00 1.39356E-13 1.31718E-12
 -1       181 2.49169E+01 8.04190E-01-2.34320E-03-1.69416E+00-2.53721E-13 6.91426E-14
 -1       182 2.34972E+01 9.76490E-02-1.18613E-02-6.32214E-01-2.19547E-13-1.28716E-15
 -1       183 2.27233E+01-6.90325E-03 1.10667E-02-3.86992E-01-1.51461E-13-7.18262E-14
 -1       184 2.21951E+01-7.45272E-02 7.35027E-03-4.50942E-01-8.91685E-14-1.68899E-13
 -1       185 2.16480E+01-9.15363E-02 3.45576E-03-6.34714E-01-8.65677E-14-2.10696E-13
 -1       186 2.10033E+01-5.93508E-02 2.49976E-03-8.09144E-01-6.36756E-14-2.08747E-13
 -1       187 2.02937E+01 2.04246E-02 2.95787E-03-8.51321E-01-6.71583E-14-2.52759E-13
 -1       188 1.96503E+01 1.23064E-01 3.40436E-03-6.71388E-01-1.09141E-13-3.37293E-13
 -1       189 1.92508E+01 2.01012E-01 3.48373E-03-2.69330E-01-1.31891E-13-3.43635E-13
 -1       190 1.92310E+01 2.10609E-01 3.35232E-03 2.40409E-01-4.32310E-14-3.61557E-13
 -1       191 1.96041E+01 1.45259E-01 2.99492E-03 6.80026E-01-4.33820E-14-5.92697E-13
 -1       192 2.02482E+01 4.06236E-02 2.04994E-03 9.08053E-01-7.77249E-14-6.31042E-13
 -1       193 2.09698E+01-5.39215E-02 4.73420E-04 8.89575E-01-4.22108E-14-6.38685E-13
 -1       194 2.15929E+01-1.07695E-01-1.24060E-03 6.88414E-01 1.78572E-14-6.63508E-13
 -1       195 2.20137E+01-1.17963E-01-2.48843E-03 4.08606E-01-6.99922E-14-6.41867E-13
 -1       196 2.22068E+01-9.92725E-02-2.99266E-03 1.39045E-01-4.70459E-14-5.24022E-13
 -1       197 2.22012E+01-6.89151E-02-2.78558E-03-7.03789E-02 7.05707E-15-5.44461E-13
 -1       198 2.20515E+01-3.90352E-02-2.13073E-03-2.05595E-01-2.21221E-14-6.33897E-13
 -1       199 2.18148E+01-1.54373E-02-1.32623E-03-2.74467E-01-1.33033E-14-6.65409E-13
 -1       200 2.15395E+01 5.67948E-04-5.85480E-04-2.93753E-01 1.06793E-13-6.96356E-13
 -1       201 2.12609E+01 9.95281E-03-1.55181E-05-2.80867E-01-1.54019E-15-6.01038E-13
 -1       202 2.10013E+01 1.44329E-02 3.61284E-04-2.50111E-01-1.18828E-14-4.90439E-13
 -1       203 2.07727E+01 1.56715E-02 5.69238E-04-2.11735E-01 1.45146E-13-3.34718E-13
 -1       204 2.05800E+01 1.49840E-02 6.50305E-04-1.72338E-01 2.28695E-13-1.43673E-13
 -1       205 2.04231E+01 1.32992E-02 6.46728E-04-1.35731E-01 6.98966E-14-9.33689E-14
 -1       206 2.02990E+01 1.12204E-02 5.93264E-04-1.03783E-01 1.83424E-14-1.01888E-13
 -1       207 2.02035E+01 9.11000E-03 5.15272E-04-7.71226E-02-5.00381E-14-1.33874E-13
 -1       208 2.01320E+01 7.16595E-03 4.29637E-04-5.56416E-02-9.33078E-15-2.30161E-13
 -1       209 2.00799E+01 5.47987E-03 3.46631E-04-3.88414E-02-1.84206E-14-2.41734E-13
 -1       210 2.00430E+01 4.07868E-03 2.71827E-04-2.60537E-02-1.27988E-13-3.79340E-13
 -1       211 2.00178E+01 2.95252E-03 2.07666E-04-1.65745E-02-3.03468E-14-3.75882E-13
 -1       212 2.00013E+01 2.07272E-03 1.54643E-04-9.73936E-03-5.65009E-14-5.04836E-13
 -1       213 1.99913E+01 1.40296E-03 1.12134E-04-4.96073E-03-5.99700E-14-3.81458E-13
 -1       214 1.99857E+01 9.05868E-04 7.89457E-05-1.74178E-03 8.13625E-14-2.78418E-13
 -1       215 1.99833E+01 5.46595E-04 5.36668E-05 3.23615E-04 2.82224E-14-3.66058E-13
 -1       216 1.99829E+01 2.94536E-04 3.48769E-05 1.55819E-03 4.60817E-14-4.59055E-13
 -1       217 1.99838E+01 1.23905E-04 2.12628E-05 2.21212E-03-5.66167E-14-4.69412E-13
 -1       218 1.99854E+01 1.36409E-05 1.16729E-05 2.47478E-03-9.38020E-14-2.60596E-13
 -1       219 1.99873E+01-5.30350E-05 5.13356E-06 2.48607E-03-2.93059E-13-4.95936E-13
 -1       220 1.99894E+01-8.92318E-05 8.43228E-07 2.34648E-03-3.17986E-13-7.24769E-13
 -1       221 1.99913E+01-1.05053E-04-1.84571E-06 2.12578E-03 1.15083E-13-7.72051E-13
 -1       222 1.99932E+01-1.08258E-04-3.44819E-06 1.86988E-03 5.36317E-13-6.51587E-13
 -1       223 1.99948E+01-1.04907E-04-4.35984E-06 1.60629E-03 4.65915E-14-3.12709E-14
 -1       224 1.99962E+01-9.99508E-05-4.84003E-06 1.34789E-03 2.46125E-13 1.45867E-14
 -1       225 1.99974E+01-9.77796E-05-4.96305E-06 1.09557E-03 2.59004E-13-5.26497E-14
 -1       226 1.99983E+01-1.02554E-04-4.55631E-06 8.39990E-04-9.77870E-14-8.50665E-14
 -1       227 1.99990E+01-1.17376E-04-4.00035E-06 5.65360E-04 6.50250E-14-3.44368E-13
 -1       228 1.99995E+01-1.36308E-04-2.80763E-06 2.64420E-04 9.28715E-14-2.37230E-14
 -1       229 2.59753E+01 2.30930E-01-4.53830E-02 4.15335E-01 1.75433E-13 1.16065E-12
 -1       230 2.55727E+01 7.83421E-02 9.40647E-03-1.90506E-01 1.21020E-13 1.02730E-12
 -1       231 2.56454E+01-3.75344E-02 1.26357E-02-2.75828E-01 7.93498E-14 8.86456E-13
 -1       232 2.57271E+01-1.52357E-01 1.14834E-02-1.55565E-02 4.90437E-14 8.29932E-13
 -1       233 2.54748E+01-2.50148E-01 1.37263E-02 5.53017E-01-1.08030E-14 8.70136E-13
 -1       234 2.46553E+01-2.53373E-01 1.22549E-02 1.27076E+00-7.91164E-14 9.01390E-13
 -1       235 2.32986E+01-7.22447E-02-2.20153E-03 1.73733E+00 8.10831E-15 8.82757E-13
 -1       236 2.18587E+01 2.59585E-01-2.66080E-02 1.46153E+00 1.78250E-13 7.86534E-13
 -1       237 2.10955E+01 5.01480E-01-4.17311E-02 3.39090E-01 2.16820E-13 5.47677E-13
 -1       238 2.15114E+01 4.25589E-01-3.12301E-02-1.01388E+00 1.38521E-13 4.24825E-13
 -1       239 2.28538E+01 1.08169E-01-4.94657E-03-1.76154E+00 1.26104E-13 2.80137E-13
 -1       240 2.43512E+01-1.75312E-01 1.20657E-02-1.61959E+00 7.77720E-14 2.60611E-13
 -1       241 2.53670E+01-2.76673E-01 1.24448E-02-9.36881E-01 3.38115E-14 1.35916E-13
 -1       242 2.56941E+01-2.32697E-01 4.73542E-03-1.94338E-01 1.14259E-13 9.88732E-14
 -1       243 2.54456E+01-1.38851E-01-1.59907E-03 3.36846E-01 6.29314E-15 1.96589E-13
 -1       244 2.48435E+01-5.65293E-02-3.93576E-03 6.11429E-01-7.07845E-14 1.81417E-13
 -1       245 2.40895E+01-3.85273E-03-3.50329E-03 6.92078E-01 1.37715E-13 1.56591E-13
 -1       246 2.33226E+01 2.28596E-02-2.08627E-03 6.59001E-01 2.45121E-14 1.80983E-13
 -1       247 2.26209E+01 3.27230E-02-7.44454E-04 5.73450E-01-3.67911E-14 1.83252E-13
 -1       248 2.20184E+01 3.34646E-02 1.63446E-04 4.72718E-01-1.67067E-13 2.12996E-13
 -1       249 2.15226E+01 3.00572E-02 6.47720E-04 3.76049E-01-1.15013E-13 3.69865E-13
 -1       250 2.11266E+01 2.52506E-02 8.34329E-04 2.91623E-01 6.10070E-14 3.13067E-13
 -1       251 2.08175E+01 2.03911E-02 8.46646E-04 2.21669E-01-9.57828E-15 1.79777E-13
 -1       252 2.05807E+01 1.60469E-02 7.72002E-04 1.65582E-01-1.65550E-13 1.55958E-13
 -1       253 2.04025E+01 1.23934E-02 6.63163E-04 1.21621E-01-4.29345E-14 3.13705E-13
 -1       254 2.02705E+01 9.42633E-03 5.48645E-04 8.77583E-02 1.06013E-13 2.67526E-13
 -1       255 2.01745E+01 7.06954E-03 4.42215E-04 6.20587E-02 6.00004E-14 2.42835E-13
 -1       256 2.01060E+01 5.22687E-03 3.49422E-04 4.28296E-02-5.17004E-14 2.23487E-13
 -1       257 2.00583E+01 3.80457E-03 2.71557E-04 2.86526E-02 7.80690E-14 6.68519E-14
 -1       258 2.00260E+01 2.71971E-03 2.07873E-04 1.83704E-02-6.97490E-15 2.17233E-13
 -1       259 2.00050E+01 1.90222E-03 1.56772E-04 1.10542E-02-3.31533E-13 3.57339E-13
 -1       260 1.99921E+01 1.29434E-03 1.16406E-04 5.96819E-03-9.08280E-14 5.01856E-13
 -1       261 1.99848E+01 8.49144E-04 8.49687E-05 2.53563E-03-5.79789E-14 6.69687E-13
 -1       262 1.99814E+01 5.28908E-04 6.08188E-05 3.09348E-04-1.89289E-13 5.84322E-13
 -1       263 1.99806E+01 3.03543E-04 4.25270E-05-1.05352E-03 3.86286E-13 3.45838E-13
 -1       264 1.99814E+01 1.49269E-04 2.88794E-05-1.81266E-03 2.93150E-13 1.53165E-13
 -1       265 1.99830E+01 4.74558E-05 1.88633E-05-2.16199E-03-1.36740E-13 4.06492E-13
 -1       266 1.99852E+01-1.63561E-05 1.16458E-05-2.24397E-03-2.22945E-13 4.49007E-13
 -1       267 1.99874E+01-5.32803E-05 6.54922E-06-2.16116E-03 6.52074E-14 5.75555E-13
 -1       268 1.99897E+01-7.17901E-05 3.02759E-06-1.98543E-03-1.76902E-14 4.73607E-13
 -1       269 1.99918E+01-7.83196E-05 6.44793E-07-1.76530E-03 5.85144E-14 3.75278E-13
 -1       270 1.99936E+01-7.77949E-05-9.36474E-07-1.53139E-03-1.45238E-13 5.09462E-13
 -1       271 1.99952E+01-7.41324E-05-1.94634E-06-1.30050E-03 1.44533E-13 5.82269E-13
 -1       272 1.99966E+01-7.06944E-05-2.45966E-06-1.07822E-03-2.81641E-14 1.62779E-13
 -1       273 1.99978E+01-7.04718E-05-2.24607E-06-8.60588E-04 2.64369E-13 7.16383E-14
 -1       274 1.99986E+01-7.63541E-05-9.10054E-07-6.36049E-04 1.81976E-13-1.73620E-13
 -1       275 1.99993E+01-9.23369E-05-8.26976E-07-3.87735E-04 1.34416E-13 1.41616E-14
 -1       276 1.99996E+01-9.03726E-05-4.23149E-06-1.22593E-04 8.34890E-14 2.45451E-13
 -1       277 1.99997E+01-3.13560E-04-2.76370E-06-2.76415E-04 2.55169E-13 8.26855E-13
 -1       278 1.99997E+01-7.63627E-04-9.81708E-07-5.32846E-04 3.34405E-13 4.19034E-13
 -1       279 1.99998E+01-1.35580E-03-4.03622E-07-6.90303E-04 1.09376E-13 7.95011E-14
 -1       280 1.99998E+01-2.00989E-03 3.98684E-07-7.23908E-04 2.45031E-13-4.67352E-13
 -1       281 1.99999E+01-2.62498E-03 1.72354E-06-6.48172E-04-4.20189E-14-2.65192E-13
 -1       282 1.99999E+01-3.13930E-03 2.89769E-06-4.82756E-04-5.11514E-14 3.47803E-14
 -1       283 1.99999E+01-3.47443E-03 3.71485E-06-2.55633E-04-6.91871E-14-5.97385E-13
 -1       284 1.99999E+01-3.58918E-03 3.99503E-06 2.63426E-06-2.14564E-13-2.60514E-13
 -1       285 1.99999E+01-3.46962E-03 3.71088E-06 2.60469E-04-5.46651E-13-4.35372E-13
 -1       286 1.99999E+01-3.13034E-03 2.89333E-06 4.86475E-04-4.61225E-13-3.08411E-13
 -1       287 1.99998E+01-2.62368E-03 1.65038E-06 6.48250E-04-5.69128E-13 4.75388E-13
 -1       288 1.99998E+01-1.99725E-03 4.00113E-07 7.23841E-04-2.53452E-13 2.09996E-13
 -1       289 1.99998E+01-1.34381E-03-5.14951E-07 6.87748E-04-4.41036E-14 2.52117E-13
 -1       290 1.99997E+01-7.59589E-04-2.67326E-06 5.26070E-04-1.50688E-13 5.37364E-14
 -1       291 1.99996E+01-4.21700E-04-3.15594E-06 4.46905E-04-9.38806E-14-4.38487E-13
 -1       292-8.47985E-01-1.02383E+01-9.01288E-01 9.00705E-01 7.68982E-13 5.54473E-13
 -1       293 3.15126E+00-7.92846E+00-6.11866E-01 3.89903E+00 7.70772E-13 5.38694E-13
 -1       294 9.58460E+00-5.36079E+00-5.24702E-01 5.46853E+00 9.75109E-13 7.36473E-13
 -1       295 1.86688E+01-1.36253E+00-1.56170E-01 7.02768E+00 1.02607E-12 8.66474E-13
 -1       296 3.02017E+01 5.94119E-01 1.93858E-01 5.81377E+00 8.71705E-13 3.09835E-13
 -1       297 3.95278E+01 4.68517E+00 7.31635E-01 6.02639E+00 8.25036E-13 2.52132E-13
 -1       298 4.62427E+01 6.30248E+00 1.05445E+00 3.35764E+00 6.76653E-13-2.62040E-13
 -1       299 4.47769E+01 7.45409E+00 7.49245E-01-2.24343E-01 6.93806E-13-5.73926E-13
 -1       300 4.42531E+01 6.00776E+00 8.91179E-01-3.64949E+00 7.59295E-13-1.01488E-12
 -1       301 3.74974E+01 4.11675E+00 6.35346E-01-6.45479E+00 7.09342E-13-1.30779E-12
 -1       302 2.75185E+01 7.21676E-01 1.47925E-01-6.84042E+00 6.31661E-13-1.11391E-12
 -1       303 1.60727E+01-2.08139E+00-2.91699E-01-6.66680E+00 7.35023E-13-1.02765E-12
 -1       304 8.22731E+00-5.68509E+00-4.98407E-01-5.41817E+00 3.88162E-13-8.00930E-13
 -1       305 1.13980E+00-8.68099E+00-8.80870E-01-2.34698E+00 2.21878E-13-6.26610E-13
 -1       306-1.21352E+00-9.97837E+00-9.72425E-01-8.99608E-02-1.53485E-13-5.38875E-13
 -1       307 1.35064E-01-8.31041E+00-7.55187E-01 2.37755E+00-4.24910E-13-5.21860E-13
 -1       308 4.12784E+00-6.54977E+00-7.18741E-01 4.12193E+00-7.69163E-13-6.70013E-13
 -1       309 1.11534E+01-3.01257E+00-4.07262E-01 6.26442E+00-9.10216E-13-7.84123E-13
 -1       310 2.15829E+01-6.55665E-02-7.87822E-03 7.44299E+00-8.52179E-13-7.01661E-13
 -1       311 3.18928E+01 2.38894E+00 2.56133E-01 5.84952E+00-7.34815E-13-4.84057E-13
 -1       312 4.00221E+01 5.50018E+00 6.33686E-01 4.71543E+00-6.95687E-13-3.55577E-13
 -1       313 4.46611E+01 6.90045E+00 8.27661E-01 1.70432E+00-6.04600E-13-4.87943E-14
 -1       314 4.63819E+01 6.57887E+00 9.92088E-01-1.90088E+00-5.98091E-13 3.70134E-13
 -1       315 4.10256E+01 5.88994E+00 7.06192E-01-4.44182E+00-6.43846E-13 5.88890E-13
 -1       316 3.44928E+01 4.25058E+00 5.51318E-01-7.40656E+00-7.46174E-13 8.64170E-13
 -1       317 2.52695E+01 1.79600E+00 1.83790E-01-7.89857E+00-9.01917E-13 9.52211E-13
 -1       318 1.66789E+01-2.26001E+00-1.75384E-01-7.06685E+00-7.71855E-13 7.74769E-13
 -1       319 7.86612E+00-5.32080E+00-5.40076E-01-5.37221E+00-4.55913E-13 1.00553E-12
 -1       320 2.33803E+00-8.30194E+00-7.57343E-01-3.60931E+00-1.65701E-14 1.05109E-12
 -1       321-8.02958E-01-1.05893E+01-9.61622E-01-1.32294E+00 3.78822E-13 6.75418E-13
 -1       322 2.18811E+01 2.62908E+00-2.70758E-02-1.51710E+00-1.34491E-13-3.68615E-13
 -1       323 2.31179E+01 1.99739E+00-2.32814E-02-1.96530E+00-2.29194E-13-2.52316E-13
 -1       324 1.96383E+01 3.14625E+00-1.73026E-02-2.10681E-01 3.71868E-14-4.27164E-13
 -1       325 1.83614E+01 3.42992E+00-1.27729E-02 3.91944E-01 1.17443E-13-4.15511E-13
 -1       326 1.70312E+01 3.81271E+00-8.57005E-03 7.99419E-01 1.83203E-13-3.98124E-13
 -1       327 1.58574E+01 4.23638E+00-4.94041E-03 9.21857E-01 2.44093E-13-3.77510E-13
 -1       328 1.51362E+01 4.57176E+00-2.64040E-03 7.54792E-01 2.78702E-13-3.61837E-13
 -1       329 1.51356E+01 4.68466E+00-2.32837E-03 4.16929E-01 3.04329E-13-3.34526E-13
 -1       330 1.59260E+01 4.52853E+00-4.88204E-03 1.17331E-01 3.31740E-13-2.81241E-13
 -1       331 1.74197E+01 4.14731E+00-9.86670E-03 2.62835E-02 3.51609E-13-1.70259E-13
 -1       332 1.93694E+01 3.62833E+00-1.67936E-02 2.21087E-01 3.54800E-13-3.80039E-14
 -1       333 2.15767E+01 2.97927E+00-2.24290E-02 6.35326E-01 3.49173E-13 1.71510E-13
 -1       334 2.38538E+01 2.05139E+00-3.25455E-02 1.02830E+00 3.08604E-13 5.06933E-13
 -1       335 2.51858E+01 1.09291E+00-2.33854E-02 8.32749E-01 2.47124E-13 7.61100E-13
 -1       336 2.49418E+01 3.46193E-01 4.89962E-03-7.39656E-02 1.92062E-13 6.39007E-13
 -1       337 2.30928E+01 3.29536E-01 8.76369E-03-9.73149E-01-1.93181E-13-1.61401E-13
 -1       338 2.27142E+01-8.53557E-02 3.07565E-03-7.78861E-01-1.58351E-13-1.26889E-13
 -1       339 2.24058E+01-2.71195E-01 3.66259E-04-9.15104E-01-1.00794E-13-1.26322E-13
 -1       340 2.20680E+01-2.69623E-01-1.83488E-04-1.17463E+00-6.04483E-14-1.23309E-13
 -1       341 2.16484E+01-7.46208E-02 1.42441E-03-1.35790E+00-7.42277E-14-9.21447E-14
 -1       342 2.11715E+01 2.70340E-01 3.53090E-03-1.26901E+00-1.12536E-13-1.15741E-13
 -1       343 2.07567E+01 6.24435E-01 4.49781E-03-8.03344E-01-1.67491E-13-1.47679E-13
 -1       344 2.05646E+01 7.97984E-01 4.73362E-03-4.28545E-02-1.62655E-13-2.44584E-13
 -1       345 2.06811E+01 6.84103E-01 4.64307E-03 7.49884E-01-1.87517E-13-3.76104E-13
 -1       346 2.10437E+01 3.43604E-01 3.31713E-03 1.28410E+00-1.16958E-13-4.50072E-13
 -1       347 2.14835E+01-4.47527E-02 9.11572E-04 1.41571E+00-2.57237E-14-4.43302E-13
 -1       348 2.18402E+01-3.23625E-01-1.55991E-03 1.19458E+00-9.42605E-16-3.77104E-13
 -1       349 2.20334E+01-4.36042E-01-3.13892E-03 7.80661E-01-9.12009E-15-3.59654E-13
 -1       350 2.20606E+01-4.12447E-01-3.68657E-03 3.35208E-01 6.23065E-14-3.55059E-13
 -1       351 2.19604E+01-3.16108E-01-3.33049E-03-3.83066E-02-5.95495E-14-2.66499E-13
 -1       352 2.17794E+01-2.01549E-01-2.47441E-03-2.98994E-01-8.59745E-14-2.57434E-13
 -1       353 2.15571E+01-1.00773E-01-1.51141E-03-4.48316E-01 3.72839E-14-2.17894E-13
 -1       354 2.13223E+01-2.60956E-02-6.75159E-04-5.08152E-01 3.78758E-14-2.26986E-13
 -1       355 2.10941E+01 2.21239E-02-6.29448E-05-5.05566E-01 7.21181E-14-2.94961E-13
 -1       356 2.08842E+01 4.88105E-02 3.25545E-04-4.64874E-01 5.00942E-14-3.17800E-13
 -1       357 2.06989E+01 6.01076E-02 5.31774E-04-4.04777E-01 1.42951E-13-2.16708E-13
 -1       358 2.05405E+01 6.14799E-02 6.07683E-04-3.38191E-01 2.29416E-13-2.00619E-13
 -1       359 2.04089E+01 5.71073E-02 6.00181E-04-2.73216E-01 2.01059E-13-2.53298E-13
 -1       360 2.03022E+01 4.98972E-02 5.45555E-04-2.14371E-01 8.85236E-14-1.83312E-13
 -1       361 2.02177E+01 4.17240E-02 4.69113E-04-1.63719E-01 1.90616E-14-1.96205E-13
 -1       362 2.01523E+01 3.37054E-02 3.87061E-04-1.21758E-01 1.82183E-14-1.24542E-13
 -1       363 2.01026E+01 2.64414E-02 3.08871E-04-8.80665E-02-1.06583E-13-2.34752E-13
 -1       364 2.00659E+01 2.01970E-02 2.39415E-04-6.17418E-02-1.48256E-13-1.38954E-13
 -1       365 2.00393E+01 1.50324E-02 1.80613E-04-4.16882E-02-1.48992E-13-1.36433E-13
 -1       366 2.00207E+01 1.08915E-02 1.32614E-04-2.67897E-02-3.79672E-14 8.38482E-15
 -1       367 2.00080E+01 7.65946E-03 9.45961E-05-1.60085E-02 3.74013E-14 9.41075E-14
 -1       368 1.99999E+01 5.19893E-03 6.52775E-05-8.43266E-03 8.52712E-14 9.03103E-14
 -1       369 1.99949E+01 3.37134E-03 4.32350E-05-3.29285E-03-8.11102E-14-3.29400E-14
 -1       370 1.99923E+01 2.04859E-03 2.70847E-05 3.96009E-05-3.08876E-14-5.85485E-14
 -1       371 1.99912E+01 1.11864E-03 1.55771E-05 2.06491E-03-3.22834E-14-1.13981E-13
 -1       372 1.99911E+01 4.87185E-04 7.63701E-06 3.17163E-03 9.38076E-14-3.22228E-14
 -1       373 1.99916E+01 7.71460E-05 2.37093E-06 3.65459E-03-2.55226E-13-9.21284E-14
 -1       374 1.99925E+01-1.73006E-04-9.44883E-07 3.73215E-03-2.78266E-13 1.76299E-13
 -1       375 1.99935E+01-3.11530E-04-2.88577E-06 3.56155E-03-1.57748E-13 3.60157E-13
 -1       376 1.99946E+01-3.75848E-04-3.90432E-06 3.25203E-03 1.55886E-13 2.42440E-13
 -1       377 1.99957E+01-3.94950E-04-4.35477E-06 2.87548E-03 4.34648E-13-1.20434E-13
 -1       378 1.99966E+01-3.91637E-04-4.50773E-06 2.47476E-03 3.08984E-13-9.75648E-15
 -1       379 1.99975E+01-3.84292E-04-4.53568E-06 2.07011E-03 9.92096E-14 1.17887E-13
 -1       380 1.99982E+01-3.87754E-04-4.51995E-06 1.66479E-03-1.19628E-13-4.52750E-14
 -1       381 1.99988E+01-4.13134E-04-5.31695E-06 1.25091E-03-2.06332E-14 5.18396E-14
 -1       382 1.99992E+01-4.23233E-04-4.30056E-06 8.49696E-04 1.16361E-13 5.97668E-14
 -1       383 2.49581E+01-6.23110E-02 4.25233E-03-3.53745E-01 1.29917E-13 5.69256E-13
 -1       384 2.51415E+01-4.25764E-01-2.03656E-03-1.06399E-01 7.27007E-14 5.29754E-13
 -1       385 2.53031E+01-7.36828E-01-5.30943E-03 6.16858E-01-3.96050E-14 5.02324E-13
 -1       386 2.52057E+01-7.82164E-01-6.02233E-03 1.62706E+00-8.91062E-14 5.22588E-13
 -1       387 2.46621E+01-2.85183E-01-1.14754E-02 2.39690E+00 1.03755E-14 5.22445E-13
 -1       388 2.37837E+01 7.07314E-01-2.09698E-02 2.17926E+00 2.22789E-13 4.87771E-13
 -1       389 2.31373E+01 1.51677E+00-2.67085E-02 6.68173E-01 3.80642E-13 4.16997E-13
 -1       390 2.32998E+01 1.36091E+00-2.51536E-02-1.31437E+00 1.99266E-13 2.36700E-13
 -1       391 2.41338E+01 3.94521E-01-1.26702E-02-2.46370E+00 1.69493E-13 1.22513E-13
 -1       392 2.49387E+01-5.18236E-01-5.89697E-03-2.27641E+00 1.47025E-13 3.06959E-15
 -1       393 2.52559E+01-8.68454E-01-7.40276E-03-1.28001E+00 1.41383E-13-8.23066E-14
 -1       394 2.50808E+01-7.49770E-01-1.03262E-02-1.94037E-01 1.03426E-13-6.98623E-14
 -1       395 2.46011E+01-4.58694E-01-9.46565E-03 5.85485E-01 1.09214E-14-1.82181E-14
 -1       396 2.39869E+01-1.94189E-01-6.32137E-03 9.94040E-01-1.92788E-14 7.30293E-14
 -1       397 2.33450E+01-1.98685E-02-2.92761E-03 1.11877E+00 1.30549E-13 1.20290E-13
 -1       398 2.27349E+01 7.16981E-02-3.98173E-04 1.07246E+00 8.83040E-14 7.68175E-14
 -1       399 2.21874E+01 1.07734E-01 1.08209E-03 9.43331E-01-9.75347E-14 1.23547E-13
 -1       400 2.17156E+01 1.12650E-01 1.73592E-03 7.87055E-01-1.65861E-13 2.69773E-13
 -1       401 2.13214E+01 1.02751E-01 1.87194E-03 6.33821E-01-2.28347E-13 2.31771E-13
 -1       402 2.10002E+01 8.73751E-02 1.73838E-03 4.97482E-01 1.31861E-13 2.45559E-13
 -1       403 2.07438E+01 7.12782E-02 1.49392E-03 3.82644E-01 6.35845E-14 2.02568E-13
 -1       404 2.05429E+01 5.65859E-02 1.22591E-03 2.89212E-01-1.94353E-13 1.94456E-13
 -1       405 2.03882E+01 4.40454E-02 9.76026E-04 2.15004E-01-5.14467E-14 9.87547E-14
 -1       406 2.02709E+01 3.37430E-02 7.60401E-04 1.57138E-01 2.27719E-14 2.60481E-13
 -1       407 2.01834E+01 2.54820E-02 5.82276E-04 1.12712E-01 1.35301E-13 3.28652E-13
 -1       408 2.01194E+01 1.89711E-02 4.39108E-04 7.90937E-02 9.10453E-15 3.17789E-13
 -1       409 2.00734E+01 1.39094E-02 3.26218E-04 5.40221E-02 1.61299E-13 4.13092E-13
 -1       410 2.00411E+01 1.00231E-02 2.38529E-04 3.56161E-02-3.37279E-14 4.90147E-13
 -1       411 2.00192E+01 7.07577E-03 1.71314E-04 2.23416E-02-2.26602E-13 2.93200E-13
 -1       412 2.00047E+01 4.86997E-03 1.20457E-04 1.29668E-02-8.57724E-14-1.72739E-15
 -1       413 1.99958E+01 3.24341E-03 8.25009E-05 6.51483E-03-2.89049E-13 1.18126E-13
 -1       414 1.99907E+01 2.06442E-03 5.46026E-05 2.22002E-03-9.94823E-14 4.68877E-13
 -1       415 1.99882E+01 1.22725E-03 3.44559E-05-5.10649E-04 4.59458E-13 4.70265E-13
 -1       416 1.99875E+01 6.47758E-04 2.02114E-05-2.13080E-03 2.15588E-13 7.62510E-13
 -1       417 1.99879E+01 2.59620E-04 1.03995E-05-2.98266E-03-1.84043E-13 8.06973E-13
 -1       418 1.99889E+01 1.10778E-05 3.86354E-06-3.32037E-03-1.18906E-13 5.45702E-13
 -1       419 1.99903E+01-1.37875E-04-2.99821E-07-3.32916E-03-8.91279E-14 1.73034E-13
 -1       420 1.99918E+01-2.17898E-04-2.79103E-06-3.14078E-03 4.71376E-14 3.11140E-13
 -1       421 1.99932E+01-2.52366E-04-4.15092E-06-2.84592E-03-3.17394E-14 2.35346E-13
 -1       422 1.99946E+01-2.59169E-04-4.79793E-06-2.50373E-03-1.37802E-13 5.29938E-13
 -1       423 1.99959E+01-2.52327E-04-5.04089E-06-2.14912E-03 2.14155E-13 2.81370E-13
 -1       424 1.99969E+01-2.43351E-04-5.09134E-06-1.79787E-03 1.98530E-13 1.90378E-13
 -1       425 1.99979E+01-2.41961E-04-4.98396E-06-1.45052E-03 2.39439E-13 8.97192E-14
 -1       426 1.99986E+01-2.54438E-04-4.44731E-06-1.09716E-03 1.60417E-13 2.97151E-13
 -1       427 1.99992E+01-2.81253E-04-3.68622E-06-7.25924E-04 4.55393E-14 7.22201E-13
 -1       428 1.99994E+01-3.13845E-04-2.77535E-06-5.04079E-04-1.20150E-13 9.29539E-13
 -1       429 1.99998E+01-1.58393E-03-7.12986E-07-1.24103E-03 7.45910E-15-2.00975E-14
 -1       430 1.99996E+01-1.05152E-03-2.91657E-06-1.11379E-03-8.97423E-15 2.15401E-13
 -1       431 1.99995E+01-6.58777E-04-3.98308E-06-8.40616E-04-1.13100E-13 6.16420E-13
 -1       432 1.99999E+01-2.09141E-03 1.03862E-06-1.18674E-03-1.24788E-13-7.40496E-13
 -1       433 2.00001E+01-2.53740E-03 2.39982E-06-9.71291E-04 2.39150E-13 1.89141E-13
 -1       434 2.00002E+01-2.86362E-03 3.41305E-06-6.32118E-04 1.36431E-13-2.60972E-13
 -1       435 2.00002E+01-3.03486E-03 3.94418E-06-2.16179E-04-2.82811E-13-6.27386E-13
 -1       436 2.00002E+01-3.03270E-03 3.94578E-06 2.25250E-04-4.90928E-13-3.19447E-13
 -1       437 2.00002E+01-2.85742E-03 3.40946E-06 6.39794E-04-3.98719E-13-3.51426E-13
 -1       438 2.00001E+01-2.53493E-03 2.38481E-06 9.71730E-04-9.37103E-14 7.34539E-14
 -1       439 1.99999E+01-2.08891E-03 1.05210E-06 1.18661E-03-1.19243E-13 7.18166E-13
 -1       440 1.99998E+01-1.57252E-03-5.97111E-07 1.24003E-03 1.40807E-13 2.47571E-13
 -1       441 1.99996E+01-1.03973E-03-2.88369E-06 1.11490E-03-1.90951E-14 4.11564E-14
 -1       442 1.12513E+01-5.47822E+00-5.08186E-03 6.73276E+00 1.19182E-13 2.95527E-13
 -1       443 1.49181E+00-3.80853E+00-1.78331E-02-4.89328E-01 1.61544E-13 7.22117E-13
 -1       444 3.04293E+00-4.32325E+00-3.33869E-02 3.34834E+00 1.11265E-13 5.18030E-13
 -1       445 1.92468E+01-5.55796E+00-3.46614E-02 6.44289E+00 2.84217E-13 3.55840E-13
 -1       446 2.66657E+01-4.05327E+00-2.19961E-02 4.26899E+00 4.37969E-13-1.28647E-14
 -1       447 2.07884E+01 2.92274E+00-2.24715E-02-8.88311E-01-4.19059E-14-4.04010E-13
 -1       448 3.62868E+01 4.85357E+00 1.00666E-01-1.46561E-01 8.85930E-13-2.01658E-13
 -1       449 3.66328E+01 7.48242E+00 6.34241E-02-4.37414E-01 8.19456E-13-1.21694E-13
 -1       450 3.65854E+01 6.95606E+00 5.73777E-02 5.93850E-01 6.27720E-13-1.02106E-13
 -1       451 3.52929E+01 3.61813E+00 5.02740E-02 1.98223E-01 4.36651E-13-1.29521E-13
 -1       452 3.24712E+01-2.84272E-01 4.80513E-02-1.66372E+00 1.82722E-13-3.26739E-13
 -1       453 2.51443E+01-4.31783E+00-4.08441E-02-4.82821E+00 6.20476E-14-4.65836E-13
 -1       454 1.78056E+01-5.25067E+00-1.24416E-02-6.57795E+00-1.48215E-14-5.71564E-13
 -1       455 8.37897E+00-4.04638E+00 2.87294E-02-5.98967E+00-6.12982E-14-6.89213E-13
 -1       456 3.16042E+00-3.13657E+00 1.86434E-02-3.16802E+00 1.56541E-14-6.74294E-13
 -1       457 1.88804E+00-2.56395E+00 3.68829E-02 1.45089E+00 4.91881E-14-6.34159E-13
 -1       458 5.30030E+00-4.08691E+00-7.45848E-02 5.57716E+00-6.55725E-14-5.05401E-13
 -1       459 1.21262E+01-4.52966E+00-4.84534E-02 7.20895E+00-1.20515E-13-4.65704E-13
 -1       460 2.05892E+01-4.39202E+00-1.02469E-02 6.49199E+00-1.73903E-13-2.35895E-13
 -1       461 2.79239E+01-2.34914E+00-2.44366E-02 3.59865E+00-3.51073E-13-7.66887E-14
 -1       462 3.30306E+01 2.86297E+00 1.12744E-02 1.11777E+00-6.11240E-13-9.06358E-14
 -1       463 3.45009E+01 6.43733E+00-1.06814E-02-4.21866E-01-6.92418E-13-5.44981E-14
 -1       464 3.61597E+01 8.20540E+00 8.25975E-02-8.45353E-02-7.07961E-13-1.43336E-14
 -1       465 3.58852E+01 7.09757E+00 9.31054E-02-5.12890E-02-6.69506E-13-9.97813E-15
 -1       466 3.36577E+01 3.16954E+00 4.51888E-02-1.09503E+00-4.43479E-13 1.29882E-13
 -1       467 3.07354E+01-6.92611E-02 5.28938E-02-3.19855E+00-4.08895E-13 1.93429E-13
 -1       468 2.48430E+01-3.61954E+00 4.27048E-03-5.37337E+00-1.70169E-13 2.19380E-13
 -1       469 1.66107E+01-5.39054E+00-2.25896E-02-7.22058E+00 1.88849E-13 4.18710E-13
 -1       470 1.00107E+01-5.10726E+00 4.05566E-03-7.05672E+00 2.44499E-13 9.67677E-13
 -1       471 3.05950E+00-4.40760E+00-4.46049E-02-3.98210E+00 1.74610E-13 9.91346E-13
 -1       472 3.32659E+01 7.84434E-01 2.27963E-02 9.34999E-01 7.73236E-13-1.49880E-13
 -1       473 2.99538E+01-2.76154E+00-5.00985E-02 9.15247E-01 3.85047E-13-2.17062E-13
 -1       474 8.77989E+00-3.35129E+00 1.32612E-01 5.70936E+00-1.75422E-13 2.43361E-13
 -1       475 2.97488E+01-9.42649E-01-7.06159E-02 4.76785E-01-3.41898E-13 4.13350E-14
 -1       476 3.26774E+01 7.37057E+00-1.18636E-01 2.24844E-01 6.45178E-13 2.14519E-13
 -1       477 2.36131E+01 4.41229E-01 1.98363E-03-3.77571E-01 2.05359E-13 3.11765E-13
 -1       478 1.80996E+01 2.61160E+00-3.66811E-03 1.05604E+00 1.79714E-13-3.51205E-13
 -1       479 1.95980E+01 2.11680E+00-6.12473E-03 4.19666E-01 1.02375E-13-3.46080E-13
 -1       480 1.51899E+01 3.87469E+00 3.83664E-05 1.25248E+00 2.70647E-13-3.48834E-13
 -1       481 1.46015E+01 4.23348E+00 5.77141E-04 7.12576E-01 2.97414E-13-3.40622E-13
 -1       482 1.50272E+01 4.16123E+00 5.29958E-04 5.17185E-02 3.16415E-13-2.95405E-13
 -1       483 1.64372E+01 3.67043E+00-2.23177E-03-4.19065E-01 3.25908E-13-2.30274E-13
 -1       484 1.84907E+01 2.94162E+00-4.76874E-03-4.88480E-01 3.11177E-13-1.23363E-13
 -1       485 2.07907E+01 2.14143E+00-3.82824E-03-2.48257E-01 3.07454E-13 4.15583E-14
 -1       486 2.39707E+01-3.99943E-01-4.69144E-04-5.90029E-01 1.05347E-13 2.72721E-13
 -1       487 2.27071E+01 2.48750E-01 6.21224E-04-9.41902E-01-1.27729E-13-2.08644E-13
 -1       488 2.90975E+01-3.66469E+00-4.52104E-02-1.05055E+00-1.02392E-13 1.43635E-15
 -1       489 2.27753E+01-3.24837E-01-5.20656E-04-9.37054E-01-8.55275E-14-1.38759E-13
 -1       490 2.28103E+01-5.55920E-01-7.80025E-04-1.19582E+00-6.64795E-14-9.57702E-14
 -1       491 2.27357E+01-4.07783E-01-2.94537E-04-1.54378E+00-6.78808E-14-7.17917E-14
 -1       492 2.24802E+01 1.37079E-01 1.45171E-03-1.71472E+00-1.33148E-13-1.11178E-13
 -1       493 2.20869E+01 9.06423E-01 1.28538E-03-1.43762E+00-1.85359E-13-1.50320E-13
 -1       494 2.17448E+01 1.52340E+00-1.44574E-03-6.26014E-01-2.40365E-13-1.99255E-13
 -1       495 2.16816E+01 1.59285E+00-9.46320E-04 4.62799E-01-2.48634E-13-2.30916E-13
 -1       496 2.19239E+01 1.05530E+00 1.35590E-04 1.36242E+00-1.94305E-13-3.17198E-13
 -1       497 2.22695E+01 2.34177E-01-1.78874E-04 1.72483E+00-2.02515E-14-2.50747E-13
 -1       498 2.24866E+01-4.67143E-01-8.21416E-04 1.54133E+00 3.77110E-14-1.58009E-13
 -1       499 2.24743E+01-8.33097E-01-1.13308E-03 1.03335E+00 3.44629E-14-1.66409E-13
 -1       500 2.22705E+01-8.76204E-01-1.62530E-03 4.50687E-01-4.59133E-14-1.52340E-13
 -1       501 2.19683E+01-7.21715E-01-1.71617E-03-4.67851E-02-1.01178E-14-1.96483E-13
 -1       502 2.16456E+01-4.95000E-01-1.39692E-03-3.98160E-01-2.10548E-14-1.86326E-13
 -1       503 2.13463E+01-2.77195E-01-9.24911E-04-6.03893E-01 5.83004E-15-1.62965E-13
 -1       504 2.10873E+01-1.05426E-01-4.70112E-04-6.91979E-01-3.07078E-14-1.59532E-13
 -1       505 2.08703E+01 1.24814E-02-1.32432E-04-6.96883E-01 9.44205E-14-1.78379E-13
 -1       506 2.06911E+01 8.32261E-02 8.67723E-05-6.49508E-01 4.95736E-14-2.00594E-13
 -1       507 2.05440E+01 1.18321E-01 2.09598E-04-5.73889E-01 4.52556E-14-8.46777E-14
 -1       508 2.04239E+01 1.29133E-01 2.62914E-04-4.87047E-01 1.50125E-13-1.77527E-13
 -1       509 2.03263E+01 1.24926E-01 2.70824E-04-4.00074E-01 2.30474E-13-2.00340E-13
 -1       510 2.02476E+01 1.12485E-01 2.52187E-04-3.19537E-01 5.03866E-14-3.45364E-13
 -1       511 2.01849E+01 9.64056E-02 2.20321E-04-2.48786E-01 7.68577E-14-4.72044E-13
 -1       512 2.01355E+01 7.95885E-02 1.83887E-04-1.89022E-01 1.04212E-13-4.84792E-13
 -1       513 2.00971E+01 6.37182E-02 1.48072E-04-1.40105E-01-5.80772E-14-4.20563E-13
 -1       514 2.00678E+01 4.96555E-02 1.15656E-04-1.01133E-01-9.39976E-14-2.54980E-13
 -1       515 2.00457E+01 3.77329E-02 8.78588E-05-7.08371E-02-6.47920E-14-9.90425E-14
 -1       516 2.00295E+01 2.79634E-02 6.49504E-05-4.78314E-02-3.62910E-14 8.97030E-15
 -1       517 2.00178E+01 2.01820E-02 4.66641E-05-3.07711E-02 3.32261E-14 1.58820E-13
 -1       518 2.00095E+01 1.41390E-02 3.24664E-05-1.84354E-02-4.19426E-14 8.69753E-14
 -1       519 2.00040E+01 9.55705E-03 2.17243E-05-9.76646E-03-8.37288E-14-1.11061E-14
 -1       520 2.00003E+01 6.16565E-03 1.38035E-05-3.87934E-03-1.53519E-13-5.59520E-14
 -1       521 1.99981E+01 3.71916E-03 8.12101E-06-5.44472E-05 2.39942E-14 6.77290E-14
 -1       522 1.99969E+01 2.00495E-03 4.16957E-06 2.27903E-03 5.83649E-14 5.34123E-14
 -1       523 1.99963E+01 8.45216E-04 1.52421E-06 3.56361E-03-1.43709E-13-8.59847E-14
 -1       524 1.99963E+01 9.52336E-05-1.61059E-07 4.13464E-03-9.31135E-14 2.77643E-13
 -1       525 1.99965E+01-3.60316E-04-1.16187E-06 4.24019E-03-1.77471E-13 4.49242E-13
 -1       526 1.99968E+01-6.11868E-04-1.69458E-06 4.05861E-03-7.75871E-14 6.07125E-13
 -1       527 1.99973E+01-7.29659E-04-1.92960E-06 3.71347E-03 2.48576E-15 4.63774E-13
 -1       528 1.99977E+01-7.68213E-04-2.00387E-06 3.28582E-03 3.23665E-13 7.05326E-14
 -1       529 1.99982E+01-7.70333E-04-2.03031E-06 2.82397E-03 2.18821E-13 8.21375E-14
 -1       530 1.99986E+01-7.68820E-04-1.97736E-06 2.35126E-03 1.72867E-13 3.30502E-13
 -1       531 1.99989E+01-7.88545E-04-2.18772E-06 1.87357E-03-1.60979E-13 3.32182E-13
 -1       532 2.55490E+01-1.80832E+00-9.03813E-03 7.94248E-01-6.00486E-14 3.08196E-13
 -1       533 2.63068E+01-1.49666E+00-2.01422E-02 2.15269E+00-6.43129E-14 3.13656E-13
 -1       534 2.63886E+01 2.66545E-01-6.28038E-02 2.96526E+00 1.18598E-13 3.49159E-13
 -1       535 2.59397E+01 2.67523E+00-7.38449E-02 2.05106E+00 3.65572E-13 3.49390E-13
 -1       536 2.56012E+01 3.58219E+00-1.01245E-01-4.91225E-01 4.84567E-13 2.71372E-13
 -1       537 2.60130E+01 1.93957E+00-7.44237E-02-2.65622E+00 3.89303E-13 8.77510E-15
 -1       538 2.63656E+01-5.21121E-01-4.45319E-02-2.85849E+00 2.16559E-13-2.41748E-13
 -1       539 2.59680E+01-1.86927E+00-1.38363E-02-1.64727E+00 1.36271E-13-2.02913E-13
 -1       540 2.49885E+01-1.89307E+00-9.22185E-03-1.85565E-01-4.02998E-16-7.89989E-14
 -1       541 2.39417E+01-1.29777E+00-7.06204E-03 8.68150E-01 5.05153E-14 1.59126E-14
 -1       542 2.30722E+01-6.47828E-01-4.83143E-03 1.42414E+00-3.80998E-14-1.27240E-14
 -1       543 2.24159E+01-1.72503E-01-2.38575E-03 1.60665E+00 2.83227E-14-1.65613E-13
 -1       544 2.19240E+01 1.04882E-01-5.27062E-04 1.56140E+00 5.16651E-14-3.33350E-14
 -1       545 2.15429E+01 2.34613E-01 6.09668E-04 1.39943E+00-8.82987E-14 1.71798E-13
 -1       546 2.12361E+01 2.73637E-01 1.14092E-03 1.19217E+00-2.23510E-13 1.55177E-13
 -1       547 2.09830E+01 2.64479E-01 1.27938E-03 9.80755E-01-9.82679E-14 1.43734E-13
 -1       548 2.07728E+01 2.33738E-01 1.20823E-03 7.86219E-01-1.22035E-13-4.50420E-14
 -1       549 2.05990E+01 1.96242E-01 1.04704E-03 6.17420E-01-2.13898E-14 1.48199E-13
 -1       550 2.04571E+01 1.59437E-01 8.62843E-04 4.76379E-01 2.72287E-15 1.99350E-13
 -1       551 2.03428E+01 1.26578E-01 6.88335E-04 3.61621E-01 1.08689E-14 2.36393E-14
 -1       552 2.02522E+01 9.87100E-02 5.36669E-04 2.70125E-01-3.67128E-14 4.26179E-15
 -1       553 2.01817E+01 7.58101E-02 4.10991E-04 1.98393E-01 1.27650E-13 1.23501E-13
 -1       554 2.01276E+01 5.73934E-02 3.09872E-04 1.43000E-01-1.42932E-14 9.40401E-14
 -1       555 2.00870E+01 4.28221E-02 2.30141E-04 1.00843E-01-9.41320E-14 3.90051E-14
 -1       556 2.00569E+01 3.14514E-02 1.68241E-04 6.92371E-02 1.19450E-14 2.06888E-13
 -1       557 2.00352E+01 2.26920E-02 1.20825E-04 4.59188E-02 1.06446E-13 2.03135E-13
 -1       558 2.00199E+01 1.60314E-02 8.49702E-05 2.90231E-02-4.07498E-14-1.92414E-14
 -1       559 2.00094E+01 1.10368E-02 5.82229E-05 1.70362E-02-4.69773E-13 2.73252E-13
 -1       560 2.00025E+01 7.34887E-03 3.85673E-05 8.74667E-03-2.33037E-13 2.24787E-13
 -1       561 1.99982E+01 4.67383E-03 2.43721E-05 3.19790E-03 1.75602E-13 1.59141E-13
 -1       562 1.99957E+01 2.77401E-03 1.43318E-05-3.55611E-04 1.06584E-13 5.13204E-13
 -1       563 1.99945E+01 1.45932E-03 7.41142E-06-2.48700E-03 7.65786E-14 5.22614E-13
 -1       564 1.99941E+01 5.79319E-04 2.79806E-06-3.63036E-03 1.59953E-14 2.83779E-13
 -1       565 1.99943E+01 1.62022E-05-1.40930E-07-4.10905E-03 8.23312E-14 1.85698E-13
 -1       566 1.99948E+01-3.21386E-04-1.89503E-06-4.15922E-03-8.98646E-14 1.47141E-13
 -1       567 1.99954E+01-5.03720E-04-2.83933E-06-3.94900E-03 1.54467E-13 3.17512E-13
 -1       568 1.99961E+01-5.84629E-04-3.25821E-06-3.59395E-03 5.82687E-14-2.51996E-14
 -1       569 1.99969E+01-6.05538E-04-3.37450E-06-3.16929E-03 2.03313E-14-1.40238E-13
 -1       570 1.99975E+01-5.99021E-04-3.33503E-06-2.71921E-03 7.38834E-14 1.93802E-13
 -1       571 1.99981E+01-5.90704E-04-3.42819E-06-2.26457E-03-2.58696E-14 6.72258E-13
 -1       572 1.99986E+01-6.01722E-04-4.26780E-06-1.81151E-03 8.39500E-14 7.66319E-13
 -1       573 1.99991E+01-6.35102E-04-4.07739E-06-1.34990E-03-1.01874E-13 9.34495E-13
 -1       574 2.00002E+01-2.15041E-03 8.36514E-07-1.46043E-03 3.05194E-13 1.58575E-13
 -1       575 2.00005E+01-2.48281E-03 1.28640E-06-1.07736E-03 2.39423E-13-1.40375E-13
 -1       576 1.99995E+01-1.25064E-03-3.45147E-07-1.65547E-03-1.64732E-13 1.31415E-13
 -1       577 1.99999E+01-1.72796E-03 3.75748E-07-1.66371E-03-1.85918E-13-4.25122E-13
 -1       578 2.00006E+01-2.69304E-03 1.66338E-06-5.67696E-04 1.38503E-13-9.08255E-13
 -1       579 2.00007E+01-2.76353E-03 1.80100E-06 6.53461E-06 2.37094E-14-4.84366E-13
 -1       580 2.00006E+01-2.68848E-03 1.66489E-06 5.79783E-04-2.19424E-13-2.45401E-13
 -1       581 2.00005E+01-2.47936E-03 1.29503E-06 1.07897E-03-4.05032E-14-1.88656E-13
 -1       582 2.00002E+01-2.14606E-03 8.93993E-07 1.46074E-03 1.28462E-13 2.73413E-13
 -1       583 1.99999E+01-1.71885E-03 5.16335E-07 1.66426E-03-6.80651E-14 4.66891E-13
 -1       584 1.99995E+01-1.23969E-03-1.15644E-06 1.64703E-03-3.53828E-13 1.68477E-13
 -1       585 1.83596E+01-5.34267E+00 7.95598E-02 6.25477E+00-1.57499E-13 1.36013E-13
 -1       586 8.94035E+00-2.89029E+00 1.43697E-01-5.98138E+00 3.25788E-13 8.61894E-13
 -1       587 2.46526E+01-1.23560E+00-4.47948E-03-2.06231E-01 1.58214E-14 2.95366E-13
 -1       588 4.91459E+00-1.46771E+00 1.81436E-01 1.75432E+00-3.06283E-14 4.91107E-13
 -1       589 2.39170E+01-5.63408E+00 3.22950E-02 4.48042E+00 2.16493E-14-1.14457E-13
 -1       590 2.80876E+01-3.26636E+00-3.39437E-02-2.01426E+00 9.64819E-14-2.66204E-13
 -1       591 3.02430E+01 7.23416E+00-1.72141E-01-7.83890E-01-6.96207E-13-1.02460E-13
 -1       592 2.24555E+01 1.16526E+00-8.60006E-03-1.17723E+00-1.45589E-13-2.75373E-13
 -1       593 1.65107E+01 3.24941E+00-1.89190E-03 1.38047E+00 2.28105E-13-3.41009E-13
 -1       594 3.15857E+01 4.39472E+00-1.55387E-01 2.06784E+00 4.51750E-13 3.52524E-13
 -1       595 3.15466E+01 5.21961E+00-1.63902E-01-1.82501E+00 7.57353E-13 3.26683E-14
 -1       596 6.24402E+00-8.90809E-01 1.51624E-01 4.32009E+00 1.95503E-13-4.74717E-13
 -1       597 3.13054E+01 2.96241E-01-1.04683E-01 1.74192E+00 7.63486E-14 2.59182E-13
 -1       598 2.35338E+01-5.28283E+00 2.43247E-02-4.57975E+00-2.14863E-13-2.23221E-13
 -1       599 1.56867E+01-4.13761E+00 7.90272E-02-6.32413E+00-1.79502E-13-4.74926E-13
 -1       600 8.31334E+00-1.19376E+00 1.65529E-01-4.43472E+00-2.79152E-14-5.87988E-13
 -1       601 2.30547E+01-5.35032E+00 3.41443E-02-5.15526E+00 4.02310E-13 6.27449E-15
 -1       602 5.06024E+00-3.34535E-02 1.79757E-01-8.76011E-01 1.08177E-13-6.15855E-13
 -1       603 1.17127E+01-2.69372E+00 1.26713E-01 6.76054E+00 2.19144E-13-3.73451E-13
 -1       604 1.79210E+01-4.21569E+00 6.43241E-02 6.66737E+00 1.53988E-13-2.52192E-13
 -1       605 2.51689E+01-4.22634E+00 1.64181E-02 3.69809E+00-3.52149E-14 2.26312E-14
 -1       606 3.05036E+01 3.47209E+00-1.43940E-01-1.60053E+00-5.50719E-13-2.90601E-14
 -1       607 3.09693E+01 7.32059E+00-1.56280E-01 6.43938E-01-6.60597E-13-1.56489E-13
 -1       608 3.08270E+01 4.47282E+00-1.29681E-01 1.49337E+00-4.66072E-13-3.73472E-13
 -1       609 2.99210E+01-5.37111E-01-1.03834E-01 8.74991E-02-8.26388E-14-2.85730E-13
 -1       610 1.58397E+01-4.60047E+00 9.81271E-02-7.00978E+00 5.54438E-13 2.15071E-13
 -1       611 5.80812E+00-1.01591E+00 1.90783E-01-2.57005E+00 1.02460E-13 8.36720E-13
 -1       612 3.16949E+01 2.13430E+00-1.35874E-01-1.96926E+00 6.96665E-13-1.26996E-13
 -1       613 2.37170E+01 1.11671E+00-5.55787E-03 1.88476E-01 2.77068E-13 3.92432E-13
 -1       614 2.93948E+01 5.44773E+00-1.72219E-01 1.59086E+00 4.98337E-13 3.49897E-13
 -1       615 2.08388E+01 1.77886E+00-7.08337E-03-3.06901E-01 1.57993E-14-3.62641E-13
 -1       616 2.81393E+01 5.06841E+00-1.46120E-01-1.87596E+00-5.67879E-13-2.68917E-14
 -1       617 7.13113E+00 9.85463E-01 1.57374E-01 2.01984E+00 2.48348E-13-4.93119E-13
 -1       618 2.72219E+01-4.93426E+00-4.87556E-02 1.79297E+00 6.61589E-14-2.68955E-13
 -1       619 1.48278E+01-3.66672E+00 1.31157E-01 6.12486E+00-3.07587E-13 2.29542E-13
 -1       620 1.99992E+01-8.10708E-04-2.60387E-06 1.53746E-03-3.07601E-13 5.73231E-14
 -1       621 1.38129E+01-2.02183E+00 1.12181E-01-5.39756E+00-1.45529E-13-4.65954E-13
 -1       622 2.17092E+01 1.50417E+00-7.69657E-03-8.37076E-01-6.05532E-14-3.21394E-13
 -1       623 2.94563E+01 5.82604E+00-1.69538E-01-1.13268E+00 6.36310E-13 2.09725E-13
 -1       624 2.70474E+01-3.28908E+00-5.03132E-02 1.18013E+00-9.29465E-14 6.39315E-14
 -1       625 3.03139E+01-1.06155E+00-7.04762E-02-1.74593E+00 5.17184E-13-2.62193E-13
 -1       626 1.38800E+01 3.71916E+00 4.24576E-03 2.90148E-01 2.74845E-13-3.22042E-13
 -1       627 1.41409E+01 3.49587E+00 4.89801E-03 1.41850E+00 2.74303E-13-3.39948E-13
 -1       628 1.73275E+01 2.35678E+00 8.76030E-03-1.26571E+00 2.56452E-13-2.01377E-13
 -1       629 1.98680E+01 1.41320E+00-3.20853E-03-1.13945E+00 2.45818E-13-4.98573E-14
 -1       630 2.21062E+01 3.30293E-01 1.86054E-03-9.74261E-01 1.77888E-13 7.97542E-14
 -1       631 9.29619E+00-1.08872E+00 1.53661E-01 3.90918E+00-1.87794E-13 1.52732E-13
 -1       632 2.30296E+01-7.48704E-01-1.57987E-03-8.34900E-01-2.14771E-14-1.37180E-13
 -1       633 2.34410E+01-9.14061E-01-2.88962E-03-1.27266E+00-4.67442E-14-1.09066E-13
 -1       634 2.36320E+01-4.41770E-01-4.70404E-03-1.78639E+00-9.05796E-14-5.50027E-14
 -1       635 2.34686E+01 6.89730E-01-4.34977E-03-1.96312E+00-2.00015E-13-7.29449E-14
 -1       636 2.30426E+01 2.02040E+00-5.70945E-03-1.41813E+00-2.77379E-13-1.68958E-13
 -1       637 2.27313E+01 2.73526E+00-1.61386E-02-1.58048E-01-2.63079E-13-1.81858E-13
 -1       638 2.28857E+01 2.26413E+00-8.78983E-03 1.19544E+00-2.68542E-13-1.92675E-13
 -1       639 2.32493E+01 9.29216E-01-9.65985E-03 1.91151E+00-7.75478E-14-2.42545E-13
 -1       640 2.34318E+01-4.25414E-01-6.66063E-03 1.79605E+00 2.95435E-14-2.65320E-13
 -1       641 2.32482E+01-1.24487E+00-1.35294E-03 1.15538E+00 4.46944E-14-2.45149E-13
 -1       642 2.27622E+01-1.44916E+00-2.17101E-04 4.08327E-01 3.58706E-14-1.93728E-13
 -1       643 2.21729E+01-1.25584E+00-4.27370E-04-1.99550E-01-6.96531E-14-1.50954E-13
 -1       644 2.16228E+01-8.99739E-01-5.76647E-04-6.01466E-01-4.47220E-14-1.10528E-13
 -1       645 2.11759E+01-5.34949E-01-4.56831E-04-8.18026E-01-4.82826E-14-9.53108E-14
 -1       646 2.08419E+01-2.36191E-01-2.19693E-04-8.96501E-01-3.12010E-14-1.67608E-13
 -1       647 2.06037E+01-2.35406E-02-6.51908E-05-8.83551E-01 3.18544E-14-2.65268E-13
 -1       648 2.04374E+01 1.10233E-01 2.27980E-05-8.15788E-01 5.15306E-15-1.54644E-13
 -1       649 2.03217E+01 1.82268E-01 6.86779E-05-7.19546E-01 4.40705E-14-1.97925E-13
 -1       650 2.02403E+01 2.10714E-01 8.83066E-05-6.12733E-01 1.37677E-13-1.22340E-13
 -1       651 2.01818E+01 2.11003E-01 9.16090E-05-5.06875E-01 4.10803E-14-1.97201E-13
 -1       652 2.01387E+01 1.94856E-01 8.55951E-05-4.08846E-01-7.28890E-14-5.36129E-13
 -1       653 2.01061E+01 1.70507E-01 7.49588E-05-3.22238E-01-2.91793E-14-5.73034E-13
 -1       654 2.00812E+01 1.43373E-01 6.26992E-05-2.48419E-01 7.06982E-14-5.56007E-13
 -1       655 2.00617E+01 1.16770E-01 5.06006E-05-1.87319E-01 7.06881E-14-6.58239E-13
 -1       656 2.00465E+01 9.25383E-02 3.96198E-05-1.38012E-01-5.72455E-14-7.65316E-13
 -1       657 2.00347E+01 7.15334E-02 3.01804E-05-9.91286E-02-4.95331E-14-5.47797E-13
 -1       658 2.00254E+01 5.39870E-02 2.23818E-05-6.91264E-02 1.33002E-14-4.40923E-13
 -1       659 2.00183E+01 3.97618E-02 1.61404E-05-4.64735E-02 6.49418E-14-4.20249E-13
 -1       660 2.00128E+01 2.85238E-02 1.12809E-05-2.97501E-02-4.89379E-14-4.04795E-13
 -1       661 2.00087E+01 1.98543E-02 7.59293E-06-1.77027E-02-1.42589E-13-2.42794E-13
 -1       662 2.00057E+01 1.33190E-02 4.86419E-06-9.26403E-03-1.09837E-13-1.05167E-13
 -1       663 2.00035E+01 8.50800E-03 2.89880E-06-3.55134E-03-4.23513E-14-2.10690E-14
 -1       664 2.00019E+01 5.05641E-03 1.52570E-06 1.47403E-04-3.86485E-14 5.19814E-14
 -1       665 2.00008E+01 2.65224E-03 6.01299E-07 2.39376E-03-6.36131E-14-1.00356E-13
 -1       666 2.00001E+01 1.03683E-03 8.26381E-09 3.62113E-03 1.56739E-13 1.22702E-13
 -1       667 1.99997E+01 8.15157E-07-3.47263E-07 4.15674E-03-2.90355E-14 3.79875E-13
 -1       668 1.99994E+01-6.22006E-04-5.38694E-07 4.24173E-03-2.74272E-14 6.17852E-13
 -1       669 1.99993E+01-9.61714E-04-6.22324E-07 4.04876E-03-6.95273E-14 4.20776E-13
 -1       670 1.99992E+01-1.11920E-03-6.50461E-07 3.69694E-03-6.04366E-14 5.50280E-13
 -1       671 1.99993E+01-1.17262E-03-6.34325E-07 3.26412E-03 3.21372E-13 4.44052E-13
 -1       672 1.99993E+01-1.18244E-03-6.14087E-07 2.79662E-03 1.76441E-13 2.20762E-13
 -1       673 1.99994E+01-1.19395E-03-8.26343E-07 2.31575E-03-6.11765E-14-2.67048E-13
 -1       674 2.83378E+01-1.91811E+00-5.98616E-02 2.07711E+00-3.81015E-14 2.84692E-13
 -1       675 2.63474E+01-3.11780E+00-8.06131E-03 2.42681E-01-1.28247E-13 1.77375E-13
 -1       676 2.83384E+01 5.81374E-01-9.83610E-02-2.91149E+00 4.81851E-13-1.30857E-13
 -1       677 2.76438E+01-2.81766E+00-3.41494E-02-1.39501E+00 1.29226E-13-2.55672E-13
 -1       678 2.54643E+01-3.32861E+00-2.13889E-04 4.69052E-01-7.64369E-14-2.29138E-13
 -1       679 2.34954E+01-2.42849E+00 2.23751E-03 1.60686E+00-1.31353E-13-3.86384E-14
 -1       680 2.21367E+01-1.30095E+00 2.26546E-04 2.05459E+00 1.34869E-15 2.49381E-14
 -1       681 2.13316E+01-4.37053E-01-2.95989E-04 2.10520E+00 4.76033E-15-2.22340E-14
 -1       682 2.08926E+01 9.29669E-02-1.57111E-04 1.95984E+00-1.00385E-13 1.24006E-13
 -1       683 2.06582E+01 3.62298E-01 1.74084E-04 1.73106E+00-1.12579E-13 2.46309E-13
 -1       684 2.05248E+01 4.63731E-01 3.83573E-04 1.47672E+00-8.28370E-14 1.78581E-13
 -1       685 2.04368E+01 4.70094E-01 4.51975E-04 1.22737E+00-9.06512E-14-7.59594E-15
 -1       686 2.03680E+01 4.29337E-01 4.37002E-04 9.98740E-01-8.08740E-14-7.06618E-14
 -1       687 2.03080E+01 3.69839E-01 3.84027E-04 7.97988E-01-1.00942E-13-5.44990E-14
 -1       688 2.02539E+01 3.06985E-01 3.19702E-04 6.27143E-01 6.02984E-14-2.33184E-14
 -1       689 2.02052E+01 2.48316E-01 2.57258E-04 4.85233E-01 1.23040E-14 1.27898E-13
 -1       690 2.01625E+01 1.96952E-01 2.02204E-04 3.69679E-01 3.56107E-14 2.01879E-13
 -1       691 2.01260E+01 1.53685E-01 1.56099E-04 2.77195E-01-1.23292E-13 1.74725E-13
 -1       692 2.00956E+01 1.18164E-01 1.18673E-04 2.04325E-01 1.00523E-13 3.71525E-13
 -1       693 2.00709E+01 8.95538E-02 8.89224E-05 1.47762E-01 2.15375E-14 4.78842E-13
 -1       694 2.00514E+01 6.68637E-02 6.56434E-05 1.04509E-01-3.34681E-14 3.86942E-13
 -1       695 2.00362E+01 4.91163E-02 4.76712E-05 7.19430E-02 1.35763E-13 2.34955E-13
 -1       696 2.00247E+01 3.54188E-02 3.39701E-05 4.78286E-02 1.59975E-14 1.81710E-13
 -1       697 2.00161E+01 2.49905E-02 2.36598E-05 3.03019E-02-2.35208E-13 8.83774E-14
 -1       698 2.00099E+01 1.71664E-02 1.60098E-05 1.78342E-02-1.66650E-13-3.55345E-13
 -1       699 2.00055E+01 1.13905E-02 1.04240E-05 9.19173E-03-6.00560E-14-1.99748E-13
 -1       700 2.00025E+01 7.20496E-03 6.42142E-06 3.39367E-03-7.23203E-14-5.04196E-14
 -1       701 2.00005E+01 4.23758E-03 3.61829E-06-3.28628E-04 1.09483E-14-2.23401E-14
 -1       702 1.99993E+01 2.18955E-03 1.71095E-06-2.56840E-03 1.57655E-13 2.29947E-13
 -1       703 1.99986E+01 8.23682E-04 4.61292E-07-3.77623E-03 1.61274E-13 2.25055E-13
 -1       704 1.99983E+01-4.61568E-05-3.14886E-07-4.28836E-03 4.96374E-14 2.13816E-14
 -1       705 1.99982E+01-5.64625E-04-7.63852E-07-4.35045E-03-2.42749E-14-1.54513E-13
 -1       706 1.99983E+01-8.43259E-04-9.94181E-07-4.13729E-03 1.68176E-13-1.06415E-13
 -1       707 1.99984E+01-9.67631E-04-1.07179E-06-3.76872E-03 9.37610E-14 4.69771E-14
 -1       708 1.99986E+01-1.00357E-03-1.05325E-06-3.32291E-03-4.17878E-14-1.81794E-13
 -1       709 1.99988E+01-1.00326E-03-1.06604E-06-2.84552E-03-2.49308E-13-1.90132E-13
 -1       710 1.99991E+01-1.00674E-03-1.29884E-06-2.35957E-03-1.19003E-13-1.55565E-13
 -1       711 1.99993E+01-1.11710E-03-1.23917E-06-2.01559E-03-1.48858E-13 2.33652E-13
 -1       712 2.00012E+01-2.60482E-03 6.16442E-07-3.43066E-04 2.23496E-13-8.48745E-13
 -1       713 1.99995E+01-1.20912E-03-1.07127E-06 1.98496E-03-1.95907E-13-2.14990E-13
 -1       714 2.00007E+01-2.22682E-03 1.82751E-07-1.56859E-03 1.79206E-13-6.74061E-14
 -1       715 2.00012E+01-2.60204E-03 6.12052E-07 3.60319E-04 1.17125E-13-6.06386E-13
 -1       716 2.00011E+01-2.47736E-03 3.92631E-07-1.01063E-03 1.77560E-14-5.12245E-13
 -1       717 2.43508E+01-2.36422E+00 4.74145E-03-9.46577E-01-5.85118E-14 1.13866E-13
 -1       718 2.00011E+01-2.47278E-03 3.84009E-07 1.01438E-03-7.33999E-14-2.05692E-13
 -1       719 2.00007E+01-2.22051E-03 3.80845E-07 1.57028E-03 1.59699E-13 1.20452E-13
 -1       720 2.00003E+01-1.86178E-03 4.64104E-07 1.94690E-03 2.09275E-14 4.83532E-13
 -1       721 1.38982E+01-2.70975E+00 1.06224E-01-6.03028E+00 5.31675E-13 2.91902E-13
 -1       722 1.07886E+01-5.18708E-01 1.37916E-01 5.29095E+00 2.86465E-13-3.77400E-13
 -1       723 2.22176E+01-4.98172E+00 5.03239E-02 4.40927E+00-2.83377E-13-9.54558E-14
 -1       724 2.89849E+01 2.52668E+00-1.69286E-01-2.84826E+00 5.81833E-13-1.40998E-14
 -1       725 2.76022E+01-2.44775E+00-6.28906E-02 2.65181E-01 1.19947E-13-5.00402E-13
 -1       726 2.17952E+01-3.69638E+00 5.07192E-02 4.44151E+00 2.02933E-13-6.44502E-14
 -1       727 2.23047E+01 3.97665E-01-8.55011E-04-7.08501E-01-7.60487E-14-2.20545E-13
 -1       728 2.26385E+01-2.61348E-01-2.58985E-03-6.76134E-01-5.44136E-14-1.71136E-13
 -1       729 2.53340E+01-4.54320E+00 4.54472E-03-2.53183E+00 3.36698E-13-3.22083E-13
 -1       730 2.29187E+01-9.94092E-01 5.58293E-04-1.26249E+00 5.62431E-14 5.61348E-14
 -1       731 1.50517E+01 3.26122E+00 5.83477E-03-7.60128E-01 2.71868E-13-2.72700E-13
 -1       732 1.95303E+01 1.14341E+00-1.54713E-04 1.22851E+00 1.53997E-13-2.69350E-13
 -1       733 2.65298E+01 6.04522E+00-1.61847E-01 1.50502E-01-5.39319E-13-2.22797E-13
 -1       734 9.98331E+00-7.76665E-01 1.43419E-01-4.17447E+00 3.17808E-13 6.14932E-13
 -1       735 8.32485E+00 3.21857E-01 1.53136E-01 1.73331E-01-1.12189E-13 5.25212E-13
 -1       736 8.88770E+00 9.18981E-01 1.45698E-01-2.28778E+00 8.50249E-14-4.95111E-13
 -1       737 1.63973E+01-2.59245E+00 9.29324E-02 6.08588E+00 3.08416E-13-2.68546E-13
 -1       738 2.65826E+01-4.50537E+00-4.09341E-03-1.67938E+00-1.98477E-13 4.49692E-14
 -1       739 2.84253E+01 3.10274E-01-9.49775E-02-1.53488E+00-3.33417E-13 7.72160E-14
 -1       740 2.08297E+01-4.16285E+00 6.38501E-02-4.75573E+00-2.44610E-13-2.04606E-13
 -1       741 2.70169E+01 4.81598E+00-1.36753E-01 1.70045E+00-3.55688E-13-3.37239E-13
 -1       742 2.04776E+01-4.50360E+00 5.32096E-02-5.29837E+00 5.26482E-13 1.01716E-13
 -1       743 2.81071E+01 1.23874E+00-1.05649E-01 2.01046E+00-1.11761E-13-4.77458E-13
 -1       744 2.09649E+01 7.40079E-01-9.66342E-04 3.44578E-01 8.24761E-14-2.94770E-13
 -1       745 1.56191E+01 2.76433E+00 9.26334E-03 2.03238E+00 2.58331E-13-3.13035E-13
 -1       746 2.82064E+01 1.76241E+00-1.46605E-01 2.99742E+00 2.47934E-13 3.94275E-13
 -1       747 1.90666E+01-3.81462E+00 7.68544E-02 5.06916E+00-3.29865E-13 3.80702E-14
 -1       748 2.00003E+01-1.87195E-03 6.92152E-07-1.94764E-03 2.22389E-13 3.57643E-14
 -1       749 1.99998E+01-1.51346E-03 3.63766E-08-2.07373E-03-1.28903E-13-2.21567E-13
 -1       750 9.19591E+00 1.96344E+00 1.17981E-01 7.56415E-02 2.03431E-13-4.38941E-13
 -1       751 1.24604E+01 1.34632E-01 8.54879E-02-3.76202E+00 1.87003E-15-4.24046E-13
 -1       752 2.40663E+01-3.63898E+00 7.09757E-03 2.66176E+00 1.40212E-13-8.86270E-15
 -1       753 2.50502E+01-4.82293E+00-7.31945E-03 2.40435E+00-1.45800E-13-1.09532E-13
 -1       754 1.99999E+01-1.53987E-03 2.60389E-08 2.19342E-03-1.44896E-13-6.90516E-14
 -1       755 1.76576E+01 1.82341E+00-4.55849E-04 1.91806E+00 2.21655E-13-2.99285E-13
 -1       756 2.72538E+01 2.24563E+00-6.69420E-02-2.36387E+00-3.99715E-13 9.08336E-14
 -1       757 2.04410E+01-6.90390E-02 5.11496E-03-2.00071E+00 1.26084E-13-8.80739E-14
 -1       758 1.55849E+01 1.79387E+00 3.70836E-03-2.08709E+00 1.65676E-13-2.58472E-13
 -1       759 2.52057E+01 4.47524E+00-9.05627E-02-1.30970E+00-4.54106E-13-7.22061E-14
 -1       760 1.10442E+01 2.02892E-01 9.47053E-02 2.38987E+00-2.36876E-13 1.18926E-13
 -1       761 1.80711E+01-2.00613E+00 6.02719E-02-4.38223E+00-1.23766E-13-2.93840E-13
 -1       762 2.43658E+01-1.32141E+00-2.69741E-03-1.18038E+00-1.19592E-14-4.78315E-14
 -1       763 2.49267E+01-2.51816E-01-1.35925E-02-2.03019E+00-1.46566E-13 8.14192E-15
 -1       764 2.47211E+01 1.81069E+00-5.25434E-02-2.22899E+00-3.14778E-13 2.65327E-14
 -1       765 2.44615E+01 2.28397E+00-5.24881E-02 2.08357E+00-2.45855E-13-3.83128E-13
 -1       766 2.47108E+01-2.33064E-02-1.28119E-02 2.04337E+00-2.02061E-14-4.11126E-13
 -1       767 2.43182E+01-1.64141E+00-7.20608E-03 1.17455E+00-1.38301E-15-4.11939E-13
 -1       768 2.34756E+01-2.12291E+00 1.20981E-03 1.63425E-01 6.54803E-14-4.42339E-13
 -1       769 2.24888E+01-1.89475E+00 1.03071E-03-5.74952E-01 6.72621E-14-3.52240E-13
 -1       770 2.16333E+01-1.38087E+00 1.57978E-05-9.84601E-01 4.16273E-14-1.69895E-13
 -1       771 2.09920E+01-8.40891E-01-3.75358E-04-1.15194E+00 5.85887E-15-1.06085E-13
 -1       772 2.05577E+01-3.94167E-01-1.20239E-04-1.16420E+00 1.98348E-14-5.61278E-14
 -1       773 2.02856E+01-7.23883E-02 1.18317E-06-1.09135E+00 4.29039E-14 6.62928E-14
 -1       774 2.01268E+01 1.34602E-01 3.57672E-05-9.76352E-01 5.39643E-14 9.30683E-14
 -1       775 2.00416E+01 2.50889E-01 4.13598E-05-8.44965E-01-5.03613E-14 8.96783E-14
 -1       776 2.00012E+01 3.02027E-01 3.95176E-05-7.12315E-01 3.14455E-14-7.39010E-14
 -1       777 1.99860E+01 3.09970E-01 3.49623E-05-5.87121E-01-1.59847E-15-3.12353E-13
 -1       778 1.99841E+01 2.91686E-01 2.96551E-05-4.74128E-01-1.56608E-13-3.50071E-13
 -1       779 1.99879E+01 2.59387E-01 2.43708E-05-3.75523E-01-7.47009E-14-4.69479E-13
 -1       780 1.99936E+01 2.21346E-01 1.95001E-05-2.91817E-01 1.19478E-17-4.72014E-13
 -1       781 1.99991E+01 1.82827E-01 1.52335E-05-2.22438E-01-1.00477E-14-5.31120E-13
 -1       782 2.00034E+01 1.46914E-01 1.16342E-05-1.66164E-01-9.04248E-14-5.38540E-13
 -1       783 2.00064E+01 1.15188E-01 8.68694E-06-1.21433E-01 2.52953E-14-3.94838E-13
 -1       784 2.00081E+01 8.82438E-02 6.33362E-06-8.65647E-02-6.51563E-15-5.00145E-13
 -1       785 2.00088E+01 6.60638E-02 4.49661E-06-5.99090E-02-3.35959E-14-4.47470E-13
 -1       786 2.00087E+01 4.82825E-02 3.09338E-06-3.99368E-02 7.39107E-14-5.32705E-13
 -1       787 2.00082E+01 3.43620E-02 2.04470E-06-2.52909E-02 6.66060E-14-5.51745E-13
 -1       788 2.00074E+01 2.37066E-02 1.27904E-06-1.48058E-02 2.11595E-14-3.75620E-13
 -1       789 2.00064E+01 1.57315E-02 7.34437E-07-7.50744E-03 7.17025E-14-2.05870E-13
 -1       790 2.00054E+01 9.90167E-03 3.58925E-07-2.60112E-03 1.01461E-13-9.87494E-14
 -1       791 2.00044E+01 5.74987E-03 1.10092E-07 5.47897E-04-6.71481E-14 9.22930E-14
 -1       792 2.00035E+01 2.88180E-03-4.58426E-08 2.43633E-03 7.36176E-14 3.51677E-13
 -1       793 2.00027E+01 9.73622E-04-1.36467E-07 3.44504E-03 2.38549E-13 9.93722E-14
 -1       794 2.00021E+01-2.35034E-04-1.84358E-07 3.85992E-03 6.09739E-14 2.15941E-13
 -1       795 2.00015E+01-9.49873E-04-2.04742E-07 3.89044E-03-8.61305E-14 4.63705E-13
 -1       796 2.00010E+01-1.33136E-03-2.07646E-07 3.68566E-03 1.71300E-14 4.57421E-13
 -1       797 2.00006E+01-1.50329E-03-1.79117E-07 3.34751E-03 1.99324E-14 3.81602E-13
 -1       798 2.00003E+01-1.56077E-03 8.95748E-08 2.94317E-03 1.40517E-13 3.78959E-13
 -1       799 2.00001E+01-1.54885E-03-5.18642E-07 2.57596E-03-1.09310E-13 1.10768E-13
 -1       800 2.00018E+01-2.48929E-03 1.12820E-07 8.09665E-04 3.53766E-13-5.26585E-13
 -1       801 1.98685E+01-6.69936E-01 4.37616E-03 2.71423E+00-7.54453E-15 7.03233E-14
 -1       802 1.95747E+01 1.01684E-01 1.02364E-03 2.30637E+00-1.37938E-13 2.18904E-13
 -1       803 1.95448E+01 5.04943E-01 2.77319E-04 1.93959E+00-1.59154E-13 2.11997E-13
 -1       804 1.96223E+01 6.70716E-01 2.00363E-04 1.62043E+00-3.74588E-14 1.61492E-13
 -1       805 1.97269E+01 6.97892E-01 1.81104E-04 1.34294E+00-1.91373E-14 1.35961E-13
 -1       806 1.98229E+01 6.52040E-01 1.56785E-04 1.10129E+00-3.78491E-14 1.89649E-13
 -1       807 1.98983E+01 5.73383E-01 1.28354E-04 8.91968E-01-1.10529E-13 1.76697E-13
 -1       808 1.99519E+01 4.85006E-01 1.01766E-04 7.12727E-01-9.61499E-14 1.49342E-13
 -1       809 1.99870E+01 3.99192E-01 7.93329E-05 5.61479E-01-9.34079E-14 1.36153E-13
 -1       810 2.00080E+01 3.21778E-01 6.11851E-05 4.35864E-01-8.25522E-15 1.00058E-13
 -1       811 2.00192E+01 2.54948E-01 4.67584E-05 3.33196E-01-5.94716E-14 1.49999E-13
 -1       812 2.00239E+01 1.98928E-01 3.53926E-05 2.50597E-01-1.12061E-13 8.53672E-14
 -1       813 2.00246E+01 1.52971E-01 2.65002E-05 1.85169E-01-5.52812E-14 1.90911E-13
 -1       814 2.00230E+01 1.15919E-01 1.95928E-05 1.34136E-01 1.62381E-14 2.89105E-13
 -1       815 2.00203E+01 8.64917E-02 1.42716E-05 9.49534E-02 2.12074E-13 1.40780E-13
 -1       816 2.00172E+01 6.34477E-02 1.02120E-05 6.53584E-02 1.43485E-14-2.45731E-14
 -1       817 2.00141E+01 4.56512E-02 7.14973E-06 4.33947E-02 7.15754E-14-1.39056E-14
 -1       818 2.00113E+01 3.21034E-02 4.86988E-06 2.74088E-02 3.11871E-14-2.17924E-13
 -1       819 2.00088E+01 2.19477E-02 3.19845E-06 1.60307E-02-1.50359E-13-2.15320E-13
 -1       820 2.00068E+01 1.44635E-02 1.99522E-06 8.14584E-03-1.02260E-14-2.73384E-13
 -1       821 2.00051E+01 9.05445E-03 1.14799E-06 2.86249E-03-1.67509E-13-3.87659E-13
 -1       822 2.00037E+01 5.23391E-03 5.67671E-07-5.20952E-04-9.63276E-14-2.93121E-13
 -1       823 2.00026E+01 2.61027E-03 1.83967E-07-2.54750E-03 3.95048E-14-1.40926E-13
 -1       824 2.00018E+01 8.72253E-04-5.91220E-08-3.63021E-03 1.56119E-13 2.66131E-14
 -1       825 2.00012E+01-2.24698E-04-2.00870E-07-4.07735E-03 1.76295E-14-1.37406E-13
 -1       826 2.00007E+01-8.70818E-04-2.91308E-07-4.11396E-03-1.32360E-15-1.34945E-13
 -1       827 2.00003E+01-1.21291E-03-3.55916E-07-3.89967E-03-1.22540E-13-2.77340E-13
 -1       828 2.00001E+01-1.36344E-03-2.95678E-07-3.54314E-03-4.25813E-14 2.26020E-13
 -1       829 1.99999E+01-1.40954E-03-3.73262E-07-3.11716E-03-1.41018E-13 2.39316E-13
 -1       830 1.99998E+01-1.41595E-03-1.63790E-07-2.65965E-03-7.85659E-14-1.84401E-13
 -1       831 1.99998E+01-1.45704E-03 4.79508E-08-2.36578E-03-1.34123E-13-2.26658E-13
 -1       832 1.26241E+01 3.13966E+00 2.45778E-02 1.10955E+00 2.46166E-13-3.47598E-13
 -1       833 2.37736E+01-3.57775E+00 3.64794E-02-2.48423E+00-1.64812E-13-1.82159E-14
 -1       834 2.00019E+01-2.55255E-03 4.10743E-07 4.41481E-06 2.41164E-13-6.78569E-13
 -1       835 2.00009E+01-2.01008E-03 4.78398E-07 2.09009E-03-1.69759E-13 2.94730E-13
 -1       836 2.60407E+01-7.79397E-01-4.39070E-02 1.71542E+00-3.29077E-15-3.55818E-13
 -1       837 2.17367E+01 5.47331E-01-2.81307E-03-2.62432E-01-8.83760E-15-2.57484E-13
 -1       838 2.07044E+01-1.93359E+00 1.03855E-02 3.08037E+00-1.32484E-13-4.61749E-14
 -1       839 2.23474E+01-3.52572E+00 2.15988E-02 3.14717E+00-2.68171E-13-1.19900E-14
 -1       840 2.59070E+01-2.91649E+00-1.47971E-02 1.26853E-01 6.50059E-14-2.96329E-13
 -1       841 2.00015E+01-2.30583E-03 1.38149E-07 1.52946E-03 5.85830E-14 4.34406E-14
 -1       842 2.34549E+01-1.34295E+00 1.28173E-04-4.29125E-01-1.35504E-15-1.04145E-13
 -1       843 1.42169E+01-1.63602E+00 8.82040E-02 4.73351E+00-1.99564E-13 1.11619E-13
 -1       844 2.31357E+01-4.09298E+00 1.85748E-02-2.99443E+00 2.27401E-13-1.05861E-13
 -1       845 1.09438E+01 1.63324E+00 7.94267E-02 3.06580E+00 2.88628E-13-3.90698E-13
 -1       846 1.39657E+01-1.08514E+00 6.49759E-02-4.53239E+00 3.28451E-13 3.03455E-13
 -1       847 1.31233E+01 2.87240E+00 2.48952E-02-8.12133E-01 2.19481E-13-3.32742E-13
 -1       848 2.66630E+01-1.67239E+00-4.80481E-02-1.02265E+00-8.64950E-14 1.42586E-13
 -1       849 2.45638E+01 4.34699E+00-8.45531E-02 7.57351E-01-3.73548E-13-3.46630E-13
 -1       850 1.09614E+01 5.19297E-01 7.69621E-02-1.94068E+00 9.34144E-14 3.70978E-13
 -1       851 1.85194E+01-3.00695E+00 3.12204E-02-4.87387E+00 3.49143E-13 2.73148E-13
 -1       852 1.41459E+01 2.37704E+00 2.04135E-02 2.55396E+00 2.78063E-13-3.22667E-13
 -1       853 1.17678E+01 9.26791E-01 5.39919E-02 1.86249E-01-1.89428E-13 2.40082E-13
 -1       854 2.51502E+01-2.72159E+00-5.16449E-03 4.09811E-01 7.32066E-14 8.74859E-14
 -1       855 2.00009E+01-2.02501E-03-5.46869E-07-2.08742E-03-1.57622E-13-5.07934E-15
 -1       856 2.00015E+01-2.31765E-03-1.07218E-07-1.52008E-03-1.61547E-13-2.42259E-13
 -1       857 1.89851E+01-1.84457E+00 4.14638E-02 4.32808E+00 2.91342E-13-1.39075E-13
 -1       858 2.13624E+01-1.66849E+00 2.74578E-02-2.61301E+00-4.66259E-14-7.48063E-14
 -1       859 2.00018E+01-2.49428E-03 3.12978E-07-7.96411E-04-1.16580E-13-6.69685E-13
 -1       860 1.10741E+01 1.66731E+00 8.12316E-02-1.94709E+00 1.19901E-13-4.23432E-13
 -1       861 2.23437E+01-3.11340E-01 1.18062E-03-1.93542E-01 7.44478E-15-1.84604E-13
 -1       862 1.44431E+01 1.01884E-01 7.08265E-02 4.56778E+00 3.06912E-13-2.98657E-13
 -1       863 2.00005E+01-1.78929E-03-9.28285E-07 2.36962E-03-2.14981E-13 2.84765E-13
 -1       864 2.12726E+01-2.49011E+00 2.61773E-02 3.40722E+00 2.44865E-13-1.11271E-13
 -1       865 1.93717E+01 1.36705E-01-6.03080E-03 2.22007E+00 1.93086E-13-2.26468E-13
 -1       866 2.12346E+01-3.13783E-01-8.41460E-04 1.06005E+00 1.25082E-13-2.12073E-13
 -1       867 1.38413E+01 2.15808E-01 2.96016E-02-2.81791E+00 4.62907E-14 2.54977E-13
 -1       868 1.71586E+01 1.16872E-01 1.55795E-02 3.61678E+00 2.69220E-13-2.28713E-13
 -1       869 2.40090E+01-2.15640E+00 7.37582E-03 4.05519E-01 7.82577E-14 1.14490E-14
 -1       870 2.42750E+01-2.93370E+00-1.81293E-02-4.47090E-01 6.49669E-14-2.25372E-13
 -1       871 2.27983E+01-2.66123E+00 7.67870E-04-1.28525E+00 1.62502E-13-1.04709E-13
 -1       872 2.15497E+01-1.94603E+00-6.96619E-03-1.66232E+00 1.31658E-13-1.63651E-13
 -1       873 2.06468E+01-1.14187E+00-1.82388E-03-1.67525E+00 1.12870E-13-8.77325E-14
 -1       874 2.01355E+01-5.33435E-01-1.27635E-04-1.53477E+00-2.72446E-14 1.40036E-14
 -1       875 1.98520E+01-9.91018E-02 8.87099E-06-1.34213E+00 1.12632E-13 3.88857E-15
 -1       876 1.97223E+01 1.79387E-01 5.26974E-05-1.14139E+00 1.67410E-14-6.49363E-14
 -1       877 1.96846E+01 3.37681E-01 3.72278E-05-9.52798E-01 7.68985E-14-6.02977E-14
 -1       878 1.96982E+01 4.09910E-01 2.51527E-05-7.83602E-01-8.06945E-14-5.82797E-14
 -1       879 1.97367E+01 4.24517E-01 1.66816E-05-6.35695E-01-1.26906E-13 5.79822E-14
 -1       880 1.97843E+01 4.03362E-01 1.11324E-05-5.08726E-01-1.30986E-13-1.42361E-14
 -1       881 1.98318E+01 3.62334E-01 7.44379E-06-4.01435E-01-1.82192E-13 5.54789E-14
 -1       882 1.98745E+01 3.12424E-01 4.93250E-06-3.12136E-01-6.12112E-14 6.10765E-15
 -1       883 1.99105E+01 2.60824E-01 3.20421E-06-2.38931E-01-1.18534E-13-1.16387E-13
 -1       884 1.99393E+01 2.11914E-01 2.01722E-06-1.79832E-01-9.50110E-14-2.75903E-13
 -1       885 1.99613E+01 1.68079E-01 1.21089E-06-1.32860E-01 4.31899E-14-2.61206E-13
 -1       886 1.99777E+01 1.30356E-01 6.72511E-07-9.61147E-02-4.38987E-14-3.61563E-13
 -1       887 1.99892E+01 9.89107E-02 3.21377E-07-6.78402E-02-1.59831E-14-3.99822E-13
 -1       888 1.99971E+01 7.33885E-02 9.96337E-08-4.64581E-02 3.89446E-14-9.06064E-14
 -1       889 2.00021E+01 5.31578E-02-3.39154E-08-3.05878E-02 2.41645E-14 1.04048E-13
 -1       890 2.00050E+01 3.74706E-02-1.08358E-07-1.90504E-02 2.28356E-14-2.32852E-14
 -1       891 2.00065E+01 2.55655E-02-1.44072E-07-1.08606E-02 1.60760E-14-1.48138E-13
 -1       892 2.00069E+01 1.67277E-02-1.55225E-07-5.21120E-03 1.68816E-13-1.00773E-13
 -1       893 2.00067E+01 1.03208E-02-1.51557E-07-1.45317E-03 1.78040E-13-1.46520E-13
 -1       894 2.00062E+01 5.79884E-03-1.39543E-07 9.25778E-04 9.18087E-14-7.98168E-14
 -1       895 2.00054E+01 2.70739E-03-1.23354E-07 2.32280E-03 1.31183E-14 6.60220E-15
 -1       896 2.00045E+01 6.76572E-04-1.10502E-07 3.03999E-03 1.72304E-13-1.77001E-13
 -1       897 2.00037E+01-5.88792E-04-1.08250E-07 3.30239E-03 1.38923E-13 1.34054E-13
 -1       898 2.00029E+01-1.32062E-03-9.39492E-08 3.27372E-03-7.89355E-14 1.58042E-13
 -1       899 2.00022E+01-1.69887E-03-2.14936E-07 3.06934E-03 7.16529E-14 2.34324E-13
 -1       900 2.00016E+01-1.86595E-03-7.83257E-07 2.76584E-03 1.17141E-13 3.43096E-13
 -1       901 1.85523E+01 8.96308E-01 4.94965E-05 1.58135E+00-1.14785E-13 1.93710E-13
 -1       902 1.81701E+01 7.04824E-01 5.54218E-04 1.96623E+00-1.63577E-13 1.80550E-13
 -1       903 2.00004E+01-1.75839E-03-1.52528E-07-2.30055E-03-9.33163E-14 3.80607E-13
 -1       904 1.09531E+01 2.56491E+00 7.90798E-02 1.32710E-01 2.11592E-13-3.64587E-13
 -1       905 1.78041E+01 2.44347E-01 3.57698E-03 2.51356E+00-1.45407E-13 7.04228E-14
 -1       906 1.88957E+01 9.30585E-01 2.84458E-05 1.29366E+00-3.46377E-14 2.37465E-13
 -1       907 1.91808E+01 8.78357E-01 3.01093E-05 1.06428E+00-4.51344E-14 2.18863E-13
 -1       908 1.94065E+01 7.83850E-01 2.45869E-05 8.72842E-01-1.07042E-13 1.87317E-13
 -1       909 1.95793E+01 6.73813E-01 1.66271E-05 7.09567E-01-2.50929E-14 1.87955E-13
 -1       910 1.97083E+01 5.63644E-01 1.04558E-05 5.69880E-01-4.29869E-14 1.16396E-13
 -1       911 1.98026E+01 4.61526E-01 6.50064E-06 4.51305E-01-1.18147E-14 1.62612E-13
 -1       912 1.98702E+01 3.71218E-01 4.11301E-06 3.51988E-01-4.37319E-14 5.71273E-14
 -1       913 1.99179E+01 2.93873E-01 2.67820E-06 2.70104E-01-6.33672E-14-6.12920E-15
 -1       914 1.99509E+01 2.29192E-01 1.79562E-06 2.03705E-01-2.45377E-13 8.07964E-14
 -1       915 1.99732E+01 1.76132E-01 1.23151E-06 1.50761E-01 1.93392E-14 5.10211E-14
 -1       916 1.99879E+01 1.33318E-01 8.55000E-07 1.09254E-01 1.81325E-13-4.04770E-14
 -1       917 1.99972E+01 9.92913E-02 5.93791E-07 7.72664E-02 2.10882E-13-9.01196E-15
 -1       918 2.00028E+01 7.26386E-02 4.07560E-07 5.30481E-02 6.54784E-14-3.11457E-13
 -1       919 2.00059E+01 5.20647E-02 2.72985E-07 3.50545E-02 1.37101E-13-3.20287E-13
 -1       920 2.00073E+01 3.64226E-02 1.75702E-07 2.19593E-02-6.49686E-14-1.78189E-13
 -1       921 2.00076E+01 2.47223E-02 1.06150E-07 1.26510E-02-2.33305E-13-2.71570E-13
 -1       922 2.00073E+01 1.61266E-02 5.74618E-08 6.21776E-03 3.74653E-17-6.51546E-14
 -1       923 2.00066E+01 9.94049E-03 2.43532E-08 1.92632E-03-1.49600E-13-5.86713E-14
 -1       924 2.00058E+01 5.59537E-03 2.24525E-09-8.02358E-04-1.25696E-13-1.10479E-14
 -1       925 2.00049E+01 2.63321E-03-1.42397E-08-2.41709E-03-1.68261E-14-1.64133E-13
 -1       926 2.00040E+01 6.89859E-04-3.41207E-08-3.25934E-03 1.59754E-13-1.23334E-13
 -1       927 2.00031E+01-5.20695E-04-4.50168E-08-3.58371E-03-5.21577E-15-9.95734E-14
 -1       928 2.00024E+01-1.22114E-03-1.25051E-07-3.57564E-03-1.05562E-13-1.13357E-13
 -1       929 2.00018E+01-1.58244E-03-3.70420E-07-3.36630E-03-3.30361E-13-4.66093E-14
 -1       930 2.00012E+01-1.73959E-03-2.82117E-07-3.04115E-03-1.16605E-13 8.30263E-14
 -1       931 1.46998E+01-1.13011E-01 3.85164E-02 3.20434E+00-1.99034E-13 2.16577E-13
 -1       932 2.00026E+01-2.47925E-03 3.44281E-07 4.67748E-04 1.58077E-13-2.67096E-13
 -1       933 1.70391E+01-1.32324E+00 1.85751E-02-3.92270E+00 2.89923E-13 2.93324E-13
 -1       934 1.82703E+01-2.06026E+00 3.51334E-02 4.15376E+00-1.52019E-13-1.09010E-14
 -1       935 1.60289E+01 2.45210E-01 4.69266E-02-3.36016E+00 5.10720E-14-2.94444E-13
 -1       936 2.08809E+01-2.79460E+00 1.49381E-02-3.21188E+00 1.69055E-13 1.63591E-14
 -1       937 2.21714E+01-9.62223E-01 2.23163E-03 7.41630E-01 8.04864E-14-1.55464E-13
 -1       938 1.40542E+01 8.47347E-01 2.35032E-02 1.67748E+00-2.05912E-13 2.98209E-13
 -1       939 1.34736E+01 9.39752E-01 2.54467E-02-1.24855E+00-3.47192E-14 1.58444E-13
 -1       940 2.00010E+01-1.83917E-03-4.18070E-07 2.58844E-03-2.02535E-13 4.76373E-13
 -1       941 2.00023E+01-2.36819E-03-4.02863E-07 1.34192E-03 2.94368E-13-4.46796E-13
 -1       942 2.00008E+01-1.77893E-03-2.31247E-07-2.66557E-03 1.20866E-14 2.55688E-13
 -1       943 2.00026E+01-2.48530E-03 1.74860E-07-4.48630E-04-1.25900E-13-4.04116E-13
 -1       944 1.77230E+01-5.83281E-01 1.29310E-02 3.23159E+00-1.27372E-13 6.41835E-14
 -1       945 2.11426E+01-1.47686E+00-4.60672E-03 2.38612E+00 2.11464E-13-1.63291E-13
 -1       946 2.00018E+01-2.16151E-03 4.56666E-07-2.08737E-03-7.84887E-14-4.15722E-14
 -1       947 2.31090E+01-2.48463E+00 7.65431E-03 1.75940E+00 1.56331E-13-6.75269E-14
 -1       948 2.00016E+01-2.10282E-03 1.42096E-06 2.14216E-03-2.84141E-14-4.21853E-15
 -1       949 1.73700E+01 1.12825E+00-9.99552E-05 1.27411E+00-1.17266E-13-1.72082E-14
 -1       950 1.99982E+01-1.34727E+00 1.60842E-02-2.38420E+00 2.27095E-13-7.22239E-14
 -1       951 1.94420E+01-5.89308E-01-2.04583E-03-2.00306E+00 1.46715E-13-9.47677E-14
 -1       952 1.92297E+01-5.47774E-02-3.37950E-05-1.61809E+00 6.52571E-14-7.13726E-14
 -1       953 1.91896E+01 2.73438E-01-3.25935E-06-1.29451E+00 1.49512E-14-1.18574E-13
 -1       954 1.92393E+01 4.57780E-01-3.05973E-05-1.02926E+00 2.14852E-14-1.56153E-13
 -1       955 1.93327E+01 5.40215E-01-2.11818E-05-8.15056E-01 7.88503E-14-4.14116E-13
 -1       956 1.94414E+01 5.54797E-01-1.68322E-05-6.42660E-01 1.07046E-13-3.43678E-13
 -1       957 1.95492E+01 5.26902E-01-1.37611E-05-5.03800E-01-4.81719E-14-1.48302E-13
 -1       958 1.96477E+01 4.74944E-01-1.12533E-05-3.91982E-01-1.46458E-13 4.79013E-15
 -1       959 1.97327E+01 4.11846E-01-9.16891E-06-3.02164E-01-2.16437E-13-7.55814E-14
 -1       960 1.98032E+01 3.46256E-01-7.42648E-06-2.30373E-01-5.77245E-14-6.30256E-14
 -1       961 1.98598E+01 2.83599E-01-5.96610E-06-1.73400E-01-9.30148E-14 8.91912E-15
 -1       962 1.99038E+01 2.26951E-01-4.74111E-06-1.28597E-01-5.71486E-14 1.15942E-13
 -1       963 1.99371E+01 1.77748E-01-3.71732E-06-9.37403E-02-1.31807E-13-6.20969E-14
 -1       964 1.99615E+01 1.36341E-01-2.86931E-06-6.69516E-02-5.00494E-14-1.20170E-13
 -1       965 1.99790E+01 1.02404E-01-2.17618E-06-4.66442E-02 2.24319E-13-2.66903E-13
 -1       966 1.99910E+01 7.52282E-02-1.61864E-06-3.14854E-02 1.92855E-13-1.12338E-13
 -1       967 1.99988E+01 5.39294E-02-1.17807E-06-2.03655E-02 2.38116E-14 3.76657E-14
 -1       968 2.00037E+01 3.75787E-02-8.36427E-07-1.23714E-02-1.00648E-15-3.04826E-14
 -1       969 2.00063E+01 2.52857E-02-5.76831E-07-6.76088E-03 1.32867E-13 4.53279E-14
 -1       970 2.00075E+01 1.62443E-02-3.83957E-07-2.93872E-03 5.33966E-14-3.47411E-14
 -1       971 2.00077E+01 9.75348E-03-2.44287E-07-4.34462E-04 9.29675E-14-1.05439E-14
 -1       972 2.00073E+01 5.22206E-03-1.45916E-07 1.11830E-03 6.68443E-14-1.86871E-13
 -1       973 2.00066E+01 2.16402E-03-7.99665E-08 2.00033E-03 5.04191E-14-3.14297E-14
 -1       974 2.00057E+01 1.87748E-04-6.37043E-08 2.42318E-03 3.01783E-13-4.41621E-14
 -1       975 2.00047E+01-1.01744E-03-4.99404E-08 2.54277E-03 1.10998E-13-1.46003E-13
 -1       976 2.00037E+01-1.69476E-03-3.88349E-07 2.47219E-03-9.71550E-14 7.19641E-15
 -1       977 2.00028E+01-2.03060E-03-6.11505E-09 2.28978E-03 1.37688E-13-2.58206E-13
 -1       978 1.85011E+01 1.08026E+00-1.75937E-04 8.58667E-01-1.19535E-14 1.89503E-13
 -1       979 1.80068E+01 1.14387E+00-2.68799E-04 1.03289E+00-1.90285E-13-3.60580E-14
 -1       980 1.65482E+01 9.72725E-01 8.96594E-04 1.64339E+00-1.42572E-13 2.96530E-13
 -1       981 1.88829E+01 9.74235E-01-1.08293E-04 7.19577E-01 2.30435E-14 1.63216E-13
 -1       982 1.91762E+01 8.49752E-01-7.46830E-05 6.00503E-01-1.25463E-13 1.21526E-13
 -1       983 1.93997E+01 7.22179E-01-5.53140E-05 4.95585E-01-7.47285E-14 2.25261E-13
 -1       984 1.95687E+01 6.00815E-01-4.21259E-05 4.02977E-01-6.00488E-14 7.96946E-14
 -1       985 1.96951E+01 4.90748E-01-3.22362E-05 3.22248E-01-5.30781E-15 1.05658E-13
 -1       986 1.97888E+01 3.94267E-01-2.45157E-05 2.53172E-01 1.20472E-14 6.65893E-14
 -1       987 1.98573E+01 3.11873E-01-1.84206E-05 1.95271E-01-1.75571E-13 1.46153E-14
 -1       988 1.99067E+01 2.42994E-01-1.36253E-05 1.47729E-01-8.02387E-14-7.04772E-14
 -1       989 1.99419E+01 1.86461E-01-9.89338E-06 1.09474E-01 9.41360E-14 6.14044E-14
 -1       990 1.99664E+01 1.40825E-01-7.03058E-06 7.92907E-02 1.64368E-13 6.88981E-14
 -1       991 1.99831E+01 1.04557E-01-4.86979E-06 5.59354E-02 2.27196E-13 7.17323E-14
 -1       992 1.99940E+01 7.61717E-02-3.26711E-06 3.82159E-02 1.46827E-13 1.06918E-13
 -1       993 2.00009E+01 5.42961E-02-2.10074E-06 2.50465E-02-2.11034E-13 2.28693E-13
 -1       994 2.00050E+01 3.77062E-02-1.26978E-06 1.54748E-02-8.37220E-14 2.20211E-13
 -1       995 2.00070E+01 2.53403E-02-6.92376E-07 8.69154E-03-3.71684E-14 1.64602E-14
 -1       996 2.00078E+01 1.62974E-02-3.03389E-07 4.02699E-03-2.56702E-13-2.78142E-14
 -1       997 2.00077E+01 9.82780E-03-5.20563E-08 9.39321E-04-1.65173E-13 1.75896E-14
 -1       998 2.00071E+01 5.31789E-03 9.93604E-08-1.00043E-03 1.97178E-13 5.61666E-15
 -1       999 2.00063E+01 2.27349E-03 1.72562E-07-2.12499E-03 5.10465E-14 1.43991E-13
 -1      1000 2.00053E+01 3.02190E-04 1.59799E-07-2.68730E-03 1.86105E-13 1.92075E-13
 -1      1001 2.00044E+01-9.03872E-04 3.17324E-07-2.87544E-03-1.59290E-14 6.12080E-14
 -1      1002 2.00035E+01-1.58102E-03 1.04071E-06-2.82594E-03-3.22592E-13 6.05137E-14
 -1      1003 2.00026E+01-1.92705E-03 1.03198E-06-2.64289E-03-1.51460E-13-2.38022E-13
 -1      1004 1.56801E+01 6.07546E-01 9.50058E-03 2.23763E+00-1.63881E-13 2.27368E-13
 -1      1005 2.00023E+01-2.38044E-03 1.00429E-08-1.33031E-03-1.83102E-13-5.04483E-13
 -1      1006 1.91560E+01-1.42982E+00 7.24513E-03-3.00868E+00 1.48559E-13 2.41282E-13
 -1      1007 1.62114E+01-3.18024E-02 8.04543E-03-2.74769E+00 1.06971E-13 1.57108E-13
 -1      1008 1.54267E+01 7.18026E-01 5.90647E-03-1.78607E+00 5.60126E-14 2.13810E-13
 -1      1009 2.00035E+01-2.38122E-03-6.22562E-07 1.55009E-05-2.28973E-13-5.06490E-14
 -1      1010 2.00035E+01-2.11662E-03-1.75287E-06-1.76875E-03-3.91710E-13-1.50772E-13
 -1      1011 1.44123E+01 1.20928E+00-5.32976E-04 3.19479E-01-1.12017E-13 4.92857E-15
 -1      1012 2.00033E+01-2.32470E-03-1.36323E-06 1.01210E-03 1.51256E-13-2.89860E-13
 -1      1013 1.83959E+01 1.11078E+00-3.70235E-04 4.19916E-01-2.93776E-14-7.84037E-14
 -1      1014 1.83262E+01 1.11401E-01 3.59115E-04-1.85730E+00 4.09184E-14 1.62513E-13
 -1      1015 1.84831E+01 4.47928E-01-5.96035E-04-1.38857E+00 3.31165E-14 8.68320E-14
 -1      1016 1.86900E+01 6.28757E-01-2.08495E-04-1.04165E+00-3.41299E-14-4.43095E-15
 -1      1017 1.89047E+01 7.00569E-01-1.07362E-04-7.84933E-01-1.01315E-13-1.34258E-14
 -1      1018 1.91072E+01 7.02548E-01-8.48541E-05-5.93302E-01 4.39698E-14-1.01757E-13
 -1      1019 1.92890E+01 6.60618E-01-7.11114E-05-4.48864E-01 1.02845E-13-3.36879E-13
 -1      1020 1.94462E+01 5.93701E-01-6.17709E-05-3.39226E-01 6.19173E-14-2.87433E-13
 -1      1021 1.95781E+01 5.15325E-01-5.38447E-05-2.55554E-01-7.90491E-14-1.75992E-13
 -1      1022 1.96860E+01 4.34738E-01-4.64129E-05-1.91492E-01-1.20412E-13-5.38364E-14
 -1      1023 1.97721E+01 3.57881E-01-3.93563E-05-1.42403E-01-5.93952E-14 9.01127E-14
 -1      1024 1.98393E+01 2.88212E-01-3.27710E-05-1.04846E-01-1.80921E-13-7.21294E-14
 -1      1025 1.98906E+01 2.27407E-01-2.67810E-05-7.62268E-02-2.34450E-13-1.27175E-13
 -1      1026 1.99289E+01 1.75919E-01-2.14777E-05-5.45518E-02-5.71635E-14-1.27068E-13
 -1      1027 1.99567E+01 1.33421E-01-1.69032E-05-3.82735E-02-2.39061E-14-2.89937E-14
 -1      1028 1.99763E+01 9.91241E-02-1.30529E-05-2.61778E-02 3.00072E-13-1.30963E-13
 -1      1029 1.99898E+01 7.20147E-02-9.88510E-06-1.73067E-02 2.19675E-13-2.29379E-13
 -1      1030 1.99985E+01 5.10086E-02-7.33383E-06-1.09036E-02 1.41281E-13 1.66542E-13
 -1      1031 2.00039E+01 3.50514E-02-5.32059E-06-6.37143E-03-1.20307E-14 2.90976E-13
 -1      1032 2.00069E+01 2.31765E-02-3.76332E-06-3.24094E-03-5.30979E-14 1.79898E-13
 -1      1033 2.00082E+01 1.45341E-02-2.58249E-06-1.14611E-03 1.02697E-13 1.02636E-13
 -1      1034 2.00085E+01 8.40041E-03-1.70404E-06 1.96178E-04 1.17377E-13 1.83320E-13
 -1      1035 2.00080E+01 4.17466E-03-1.05743E-06 1.00240E-03-8.70611E-14 1.66534E-13
 -1      1036 2.00072E+01 1.36884E-03-5.96246E-07 1.43582E-03 4.45603E-14-7.65716E-14
 -1      1037 2.00062E+01-4.06262E-04-2.92621E-07 1.61824E-03 9.95287E-14-2.19131E-13
 -1      1038 2.00051E+01-1.46972E-03-9.11015E-07 1.63947E-03-7.75879E-14-3.99369E-13
 -1      1039 2.00040E+01-2.00920E-03 2.13380E-06 1.55777E-03-1.94987E-13-4.42619E-13
 -1      1040 1.87949E+01 9.85190E-01-2.58803E-04 3.77496E-01-3.32813E-15 9.79563E-14
 -1      1041 1.71775E+01 1.28457E+00-5.86289E-04 5.09595E-01-4.03243E-14 8.65927E-14
 -1      1042 1.62327E+01 1.29353E+00 1.98525E-03 5.86745E-01 1.22656E-13 4.96207E-14
 -1      1043 1.91011E+01 8.52346E-01-1.90450E-04 3.31808E-01-6.28872E-14-2.67875E-14
 -1      1044 1.93362E+01 7.21679E-01-1.45844E-04 2.84375E-01-3.44476E-14-5.23657E-14
 -1      1045 1.95161E+01 5.99407E-01-1.14062E-04 2.37627E-01-1.15446E-13-1.68591E-14
 -1      1046 1.96527E+01 4.89177E-01-8.99047E-05 1.93765E-01-6.39695E-14 1.34694E-13
 -1      1047 1.97555E+01 3.92686E-01-7.07630E-05 1.54325E-01-7.99942E-14 1.49445E-13
 -1      1048 1.98319E+01 3.10256E-01-5.52970E-05 1.20125E-01-1.21733E-13-2.51070E-14
 -1      1049 1.98881E+01 2.41298E-01-4.27514E-05 9.13830E-02-1.23705E-13 7.18653E-14
 -1      1050 1.99286E+01 1.84681E-01-3.26267E-05 6.78854E-02 1.02899E-13 1.22882E-13
 -1      1051 1.99574E+01 1.38993E-01-2.45360E-05 4.91506E-02 1.42471E-13 1.08766E-13
 -1      1052 1.99772E+01 1.02726E-01-1.81498E-05 3.45602E-02 1.06341E-13 1.77180E-13
 -1      1053 1.99906E+01 7.43993E-02-1.31771E-05 2.34545E-02-9.56939E-15 3.31679E-13
 -1      1054 1.99991E+01 5.26337E-02-9.36127E-06 1.51953E-02-3.50840E-14 1.65576E-13
 -1      1055 2.00043E+01 3.61924E-02-6.47837E-06 9.20305E-03 4.93205E-14 1.04246E-14
 -1      1056 2.00071E+01 2.39987E-02-4.33675E-06 4.97433E-03-6.63903E-14 1.31665E-13
 -1      1057 2.00083E+01 1.51379E-02-2.77486E-06 2.08677E-03-9.90489E-14-1.68637E-15
 -1      1058 2.00084E+01 8.84837E-03-1.65826E-06 1.96111E-04-1.00153E-13-4.80129E-14
 -1      1059 2.00079E+01 4.50759E-03-8.77838E-07-9.71253E-04 1.05799E-13 7.73222E-14
 -1      1060 2.00071E+01 1.61501E-03-3.35354E-07-1.62753E-03 6.40519E-14 1.52047E-13
 -1      1061 2.00061E+01-2.24924E-04-1.10848E-07-1.93329E-03 1.40653E-14 2.44968E-13
 -1      1062 2.00050E+01-1.32058E-03 9.40214E-07-2.01130E-03-1.02478E-13 3.31943E-13
 -1      1063 2.00043E+01-1.80750E-03 9.73875E-07-1.91201E-03 1.36628E-13-6.18833E-15
 -1      1064 1.52302E+01 1.17450E+00 4.32078E-03 9.63098E-01-1.37840E-13 1.87865E-13
 -1      1065 1.79734E+01-2.48517E-01-1.74913E-03-2.39077E+00 8.30761E-14 2.44755E-13
 -1      1066 1.78729E+01 1.21624E+00-5.14338E-04 4.60380E-01-2.06372E-13-6.10980E-14
 -1      1067 2.00037E+01-2.28543E-03-9.41445E-07-8.74010E-04-4.42298E-14-4.44016E-13
 -1      1068 2.00044E+01-2.11352E-03 1.78288E-06 5.67637E-04 3.98225E-14 6.36391E-14
 -1      1069 2.00048E+01-2.00193E-03 3.53008E-06-3.86580E-04 1.62241E-13-9.32624E-14
 -1      1070 1.55253E+01 1.20937E+00 4.70219E-03-5.96551E-01-6.56152E-14-3.26502E-14
 -1      1071 1.84869E+01 1.05293E+00-5.12953E-05 4.75977E-02-5.56423E-14 4.26436E-14
 -1      1072 1.71041E+01 5.85245E-01 3.58951E-03-1.71787E+00 2.24029E-14 1.07263E-13
 -1      1073 1.80231E+01 8.60292E-01 9.33574E-04-9.37004E-01 1.77071E-14-3.51009E-14
 -1      1074 1.84127E+01 8.93148E-01-7.42841E-05-6.61828E-01-1.21304E-13-1.37822E-14
 -1      1075 1.87394E+01 8.67166E-01-9.26956E-05-4.68061E-01-3.96268E-15 7.83921E-14
 -1      1076 1.90120E+01 8.02160E-01-8.46423E-05-3.31294E-01-2.40172E-14-1.56325E-14
 -1      1077 1.92368E+01 7.15280E-01-7.33966E-05-2.34609E-01 6.99939E-15-1.80419E-13
 -1      1078 1.94199E+01 6.19110E-01-5.95868E-05-1.66144E-01 2.68693E-14-3.15106E-13
 -1      1079 1.95670E+01 5.22479E-01-4.52388E-05-1.17577E-01-4.89762E-14-3.92003E-13
 -1      1080 1.96834E+01 4.31188E-01-3.20837E-05-8.30616E-02-9.67608E-14-2.52491E-13
 -1      1081 1.97738E+01 3.48668E-01-2.10271E-05-5.84849E-02-2.23674E-13-3.46742E-13
 -1      1082 1.98430E+01 2.76587E-01-1.23283E-05-4.09554E-02-1.87909E-13-2.69542E-13
 -1      1083 1.98948E+01 2.15366E-01-5.86511E-06-2.84395E-02-1.51198E-13-1.57396E-13
 -1      1084 1.99329E+01 1.64604E-01-1.33023E-06-1.95052E-02-3.37884E-14-7.58145E-14
 -1      1085 1.99602E+01 1.23408E-01 1.64590E-06-1.31409E-02 1.35664E-13 3.97341E-14
 -1      1086 1.99792E+01 9.06320E-02 3.42612E-06-8.62793E-03 1.90404E-13-1.05168E-13
 -1      1087 1.99920E+01 6.50446E-02 4.33175E-06-5.45258E-03 1.63631E-13-2.07206E-13
 -1      1088 2.00003E+01 4.54422E-02 4.62890E-06-3.24459E-03 1.35041E-13-2.90285E-13
 -1      1089 2.00052E+01 3.07130E-02 4.52722E-06-1.73519E-03 4.87004E-14-2.03332E-13
 -1      1090 2.00078E+01 1.98719E-02 4.18548E-06-7.27978E-04-3.75472E-14-8.54356E-14
 -1      1091 2.00088E+01 1.20740E-02 3.72190E-06-7.88226E-05 1.21278E-13-7.94337E-14
 -1      1092 2.00088E+01 6.61215E-03 3.22998E-06 3.18272E-04-4.85965E-14-1.58984E-13
 -1      1093 2.00082E+01 2.90782E-03 2.79916E-06 5.41282E-04-2.08150E-13-5.87286E-14
 -1      1094 2.00073E+01 4.97490E-04 3.00829E-06 6.46424E-04 5.62256E-14-4.03943E-13
 -1      1095 2.00061E+01-1.00723E-03-2.19845E-06 6.77212E-04-1.31734E-13-3.79661E-13
 -1      1096 1.91337E+01 8.08094E-01 4.47818E-05 9.91522E-02-2.51902E-14 7.48166E-14
 -1      1097 1.93544E+01 6.84655E-01 5.44599E-05 9.99107E-02-9.69589E-14 1.02215E-13
 -1      1098 1.95256E+01 5.68819E-01 5.45374E-05 9.22547E-02-1.75480E-13 6.97722E-14
 -1      1099 1.96573E+01 4.64061E-01 4.97922E-05 8.02986E-02-1.26301E-13 7.43438E-14
 -1      1100 1.97575E+01 3.72121E-01 4.29046E-05 6.68313E-02-6.57508E-14 1.73681E-14
 -1      1101 1.98328E+01 2.93444E-01 3.54301E-05 5.36072E-02-2.09524E-13 1.08544E-13
 -1      1102 1.98884E+01 2.27582E-01 2.82580E-05 4.16181E-02 1.98770E-14 1.03823E-13
 -1      1103 1.99289E+01 1.73529E-01 2.18555E-05 3.13273E-02 7.04143E-15 3.37833E-13
 -1      1104 1.99577E+01 1.29971E-01 1.64196E-05 2.28547E-02 1.48259E-13 4.61549E-13
 -1      1105 1.99777E+01 9.54774E-02 1.19796E-05 1.61151E-02 7.45605E-14 2.03056E-13
 -1      1106 1.99911E+01 6.86261E-02 8.46780E-06 1.09148E-02 6.65017E-14 1.13029E-13
 -1      1107 1.99997E+01 4.80830E-02 5.76852E-06 7.01644E-03 8.44233E-14-4.77741E-14
 -1      1108 2.00049E+01 3.26480E-02 3.74895E-06 4.17784E-03-2.58799E-14-1.26619E-14
 -1      1109 2.00076E+01 2.12753E-02 2.27871E-06 2.17499E-03 8.64572E-14-1.56772E-13
 -1      1110 2.00088E+01 1.30769E-02 1.24203E-06 8.12723E-04 2.13297E-14-2.93735E-13
 -1      1111 2.00089E+01 7.31496E-03 5.47368E-07-7.17725E-05-7.82860E-14-3.23818E-13
 -1      1112 2.00083E+01 3.38797E-03 1.29492E-07-6.09834E-04-6.82907E-14-1.03016E-13
 -1      1113 2.00074E+01 8.12745E-04-3.36742E-07-9.05206E-04 6.93653E-14 2.39406E-14
 -1      1114 2.00063E+01-8.07038E-04-2.16653E-06-1.04214E-03-9.70775E-14-8.53605E-14
 -1      1115 1.80168E+01 1.15567E+00-3.76391E-04-2.05411E-02-1.47694E-13 7.13295E-14
 -1      1116 1.65819E+01 1.25519E+00-1.53827E-03-3.11438E-01-3.74292E-14 5.54904E-14
 -1      1117 2.00046E+01-1.88196E-03 3.04318E-06-1.16339E-03 3.51352E-14-1.82295E-13
 -1      1118 1.75917E+01 7.70097E-01 2.17511E-03-1.26390E+00 5.21946E-15 3.57336E-14
 -1      1119 1.74038E+01 1.22553E+00-1.50509E-03-1.33978E-01-1.05423E-13 6.12774E-14
 -1      1120 1.88504E+01 9.33518E-01 1.64903E-05 8.42558E-02-5.13725E-14-9.78670E-15
 -1      1121 2.00054E+01-1.45900E-03-3.92130E-06-1.09047E-03 3.01683E-14-3.45008E-13
 -1      1122 3.07025E+01 9.95454E+00 2.47906E+00-6.83395E+00-5.27911E-14 6.23501E-13
 -1      1123 2.28097E+01 6.93212E+00 2.97355E-01-3.49021E+00-1.92901E-14-2.75807E-13
 -1      1124 2.11018E+01 6.37000E+00 1.31494E-01-2.15325E+00-9.71445E-15-5.67629E-13
 -1      1125 2.00015E+01 6.03120E+00 1.02452E-01-1.24657E+00-3.84415E-15-6.56154E-13
 -1      1126 1.90180E+01 5.73106E+00 8.54792E-02-5.11887E-01-1.38778E-17-6.74188E-13
 -1      1127 1.80424E+01 5.43050E+00 5.92854E-02 6.69420E-02 1.60982E-15-6.49483E-13
 -1      1128 1.70843E+01 5.13213E+00 2.28194E-02 4.64330E-01 2.83107E-15-6.19591E-13
 -1      1129 1.62330E+01 4.86399E+00-1.96752E-02 6.51470E-01 5.02376E-15-5.82709E-13
 -1      1130 1.56483E+01 4.67741E+00-5.69494E-02 6.28186E-01 4.62824E-15-5.48755E-13
 -1      1131 1.54806E+01 4.62105E+00-7.71388E-02 4.56278E-01 7.42115E-15-5.07568E-13
 -1      1132 1.58221E+01 4.72475E+00-7.29128E-02 2.49817E-01 8.81240E-15-4.47105E-13
 -1      1133 1.66632E+01 4.98567E+00-4.43169E-02 1.43312E-01 9.82547E-15-3.55446E-13
 -1      1134 1.79222E+01 5.37705E+00 1.25747E-03 2.49626E-01 1.17684E-14-2.15625E-13
 -1      1135 1.94996E+01 5.86748E+00 5.86580E-02 6.55705E-01 1.41831E-14-5.74801E-15
 -1      1136 2.13240E+01 6.43810E+00 1.36287E-01 1.44341E+00 1.62093E-14 3.28647E-13
 -1      1137 2.35697E+01 7.16220E+00 3.04200E-01 2.82759E+00 1.19904E-14 8.84629E-13
 -1      1138 2.89448E+01 9.16718E+00 1.61228E+00 5.53395E+00 1.06581E-14 1.81838E-12
 -1      1139 3.17402E+01 3.77512E+00 1.23165E+00-4.32231E+00-1.81188E-13 1.16618E-12
 -1      1140 2.35320E+01-1.83514E-01-6.38737E-01-4.64071E-02-6.66550E-14 7.50872E-13
 -1      1141 2.25565E+01-7.19889E-02-1.96193E-01 7.99184E-02-2.59671E-14 2.16764E-13
 -1      1142 2.22742E+01-1.35125E-02-4.03792E-03 3.83410E-02-4.37888E-15-1.13035E-13
 -1      1143 2.18904E+01 1.47064E-02 4.58545E-02 6.18810E-03-8.86552E-15-3.52053E-13
 -1      1144 2.12280E+01 2.34299E-02 5.10088E-02-2.15506E-02-7.56773E-15-4.29875E-13
 -1      1145 2.02464E+01 1.49657E-02 3.14195E-02-4.41963E-02-6.22690E-15-6.02331E-13
 -1      1146 1.90634E+01-9.10651E-03-9.36970E-03-5.50269E-02-6.47377E-16-6.49210E-13
 -1      1147 1.79520E+01-4.05144E-02-5.95213E-02-4.70030E-02 1.87307E-15-7.56180E-13
 -1      1148 1.72564E+01-6.42825E-02-9.68975E-02-1.95392E-02-1.96189E-14-1.00432E-12
 -1      1149 1.72350E+01-6.69184E-02-1.01608E-01 1.78588E-02 8.23126E-15-1.17490E-12
 -1      1150 1.79196E+01-4.63075E-02-7.06960E-02 4.98325E-02 4.20692E-14-1.00088E-12
 -1      1151 1.90952E+01-1.33683E-02-2.06118E-02 6.46319E-02-7.39383E-15-1.17552E-12
 -1      1152 2.04139E+01 1.67157E-02 2.54000E-02 6.04731E-02 9.68193E-15-1.24193E-12
 -1      1153 2.15568E+01 3.43507E-02 5.22086E-02 4.40067E-02-1.86916E-16-1.17901E-12
 -1      1154 2.23392E+01 3.83899E-02 5.78251E-02 2.42166E-02-2.10908E-14-1.12911E-12
 -1      1155 2.27224E+01 3.30214E-02 4.89046E-02 7.52327E-03-2.86641E-14-1.32769E-12
 -1      1156 2.27679E+01 2.35279E-02 3.39370E-02-3.54815E-03-1.85312E-15-1.36793E-12
 -1      1157 2.25781E+01 1.37938E-02 1.91078E-02-9.25918E-03-1.65447E-14-1.43745E-12
 -1      1158 2.22549E+01 5.82624E-03 7.42819E-03-1.10692E-02 3.26343E-14-1.35552E-12
 -1      1159 2.18787E+01 2.16740E-04-4.17166E-04-1.05511E-02-3.25306E-15-1.26402E-12
 -1      1160 2.15040E+01-3.22419E-03-4.93881E-03-8.92077E-03-3.25911E-14-1.09437E-12
 -1      1161 2.11627E+01-4.98562E-03-7.02923E-03-6.95649E-03-1.55335E-14-1.22402E-12
 -1      1162 2.08699E+01-5.58804E-03-7.54161E-03-5.08367E-03-2.88570E-14-1.29289E-12
 -1      1163 2.06296E+01-5.46775E-03-7.13882E-03-3.49280E-03 1.76753E-14-1.04937E-12
 -1      1164 2.04394E+01-4.94781E-03-6.27894E-03-2.23738E-03 3.52935E-15-4.86196E-13
 -1      1165 2.02936E+01-4.24775E-03-5.25262E-03-1.30046E-03 4.09048E-14-3.53371E-13
 -1      1166 2.01851E+01-3.50599E-03-4.22982E-03-6.34968E-04 9.49533E-15-5.92898E-13
 -1      1167 2.01067E+01-2.80273E-03-3.30009E-03-1.85784E-04 2.97064E-14-5.85949E-13
 -1      1168 2.00521E+01-2.17889E-03-2.50239E-03 9.92695E-05 2.74652E-14-4.53895E-13
 -1      1169 2.00155E+01-1.65039E-03-1.84570E-03 2.64862E-04-5.05944E-14-4.51437E-13
 -1      1170 1.99922E+01-1.21812E-03-1.32248E-03 3.46948E-04 3.42125E-14-5.31448E-13
 -1      1171 1.99786E+01-8.74711E-04-9.17133E-04 3.73218E-04 1.72546E-14-3.88253E-13
 -1      1172 1.99718E+01-6.08858E-04-6.11182E-04 3.64234E-04-5.91347E-15-7.02844E-13
 -1      1173 1.99695E+01-4.08038E-04-3.86156E-04 3.34767E-04 3.83403E-14-8.43731E-13
 -1      1174 1.99700E+01-2.60054E-04-2.25162E-04 2.95060E-04 5.44640E-14-7.21125E-13
 -1      1175 1.99723E+01-1.53869E-04-1.13569E-04 2.51938E-04-3.07413E-14-6.73696E-13
 -1      1176 1.99755E+01-7.99577E-05-3.91838E-05 2.09721E-04-4.23237E-14-6.28572E-13
 -1      1177 1.99790E+01-3.03864E-05 7.85522E-06 1.70945E-04 8.91663E-15-5.61272E-13
 -1      1178 1.99825E+01 1.28182E-06 3.53381E-05 1.36916E-04-1.28460E-14-8.58658E-13
 -1      1179 1.99859E+01 2.01590E-05 4.93012E-05 1.08120E-04-6.61430E-14-1.26334E-12
 -1      1180 1.99889E+01 3.02438E-05 5.43639E-05 8.45185E-05-1.84334E-14-1.47370E-12
 -1      1181 1.99915E+01 3.46406E-05 5.40644E-05 6.57416E-05-2.28461E-14-9.50509E-13
 -1      1182 1.99938E+01 3.57683E-05 5.11999E-05 5.11947E-05-7.95842E-15-6.45854E-13
 -1      1183 1.99957E+01 3.55426E-05 4.81803E-05 4.00602E-05 6.05270E-14-3.42582E-13
 -1      1184 1.99972E+01 3.54899E-05 4.73291E-05 3.11479E-05 1.75795E-14 2.66542E-13
 -1      1185 1.99985E+01 3.66917E-05 5.05767E-05 2.24689E-05 2.71395E-15 1.21554E-13
 -1      1186 1.99993E+01 3.86301E-05 5.62101E-05 1.00631E-05 1.75040E-14 2.34107E-13
 -1      1187 1.99998E+01 4.30475E-05 4.62378E-05-1.38791E-05-5.64693E-14 1.50252E-13
 -1      1188 1.99999E+01-1.85626E-05-3.87671E-05-1.89782E-05 6.50826E-14 2.36796E-13
 -1      1189 3.16469E+01 5.55335E-01 1.56746E-01 1.98185E+00-3.45279E-14 2.51882E-12
 -1      1190 2.55507E+01-7.16478E-02-5.95385E-01 7.09820E-02 3.94129E-15 2.31855E-12
 -1      1191 2.56319E+01-2.65706E-02-1.63713E-01-2.24993E-02 1.54460E-14 2.00329E-12
 -1      1192 2.62217E+01 1.84151E-02 8.42433E-03-4.47038E-02 1.37005E-15 1.83246E-12
 -1      1193 2.67320E+01 6.08481E-02 9.83904E-02-5.62751E-02-4.50334E-15 1.71363E-12
 -1      1194 2.66646E+01 9.09592E-02 1.66848E-01-4.51664E-02 6.22072E-15 1.61348E-12
 -1      1195 2.55373E+01 8.07662E-02 1.83456E-01 5.16068E-03-4.67161E-15 1.69066E-12
 -1      1196 2.31842E+01 1.10121E-02 9.29367E-02 9.15450E-02-2.28324E-14 1.79468E-12
 -1      1197 2.01776E+01-8.87370E-02-1.00713E-01 1.67374E-01-1.79527E-14 1.74735E-12
 -1      1198 1.78741E+01-1.41508E-01-2.81356E-01 1.63538E-01 2.46227E-14 1.38489E-12
 -1      1199 1.76157E+01-1.05394E-01-3.05746E-01 6.16346E-02 4.49293E-16 1.12176E-12
 -1      1200 1.95905E+01-2.28014E-02-1.60271E-01-6.99350E-02 1.50401E-15 9.72084E-13
 -1      1201 2.26581E+01 3.83715E-02 2.75919E-02-1.45587E-01 2.22535E-14 7.21867E-13
 -1      1202 2.53460E+01 5.72228E-02 1.36898E-01-1.41130E-01-1.05298E-14 7.01411E-13
 -1      1203 2.68337E+01 4.79575E-02 1.47304E-01-9.13670E-02 1.11525E-14 6.66356E-13
 -1      1204 2.70981E+01 3.01030E-02 1.03650E-01-3.77831E-02 1.49134E-14 3.38537E-13
 -1      1205 2.65291E+01 1.41735E-02 5.22755E-02-8.05607E-04-2.26507E-14 4.90157E-13
 -1      1206 2.55573E+01 3.31351E-03 1.47766E-02 1.79517E-02-5.30424E-15 4.80567E-13
 -1      1207 2.44897E+01-2.86931E-03-6.08079E-03 2.41102E-02 3.59746E-14 1.51108E-13
 -1      1208 2.34958E+01-5.76065E-03-1.49134E-02 2.35314E-02-4.60063E-14 2.32266E-13
 -1      1209 2.26471E+01-6.65816E-03-1.69261E-02 2.01563E-02 8.14951E-15 3.38032E-13
 -1      1210 2.19588E+01-6.48372E-03-1.57446E-02 1.61124E-02-1.77086E-14 5.17612E-13
 -1      1211 2.14192E+01-5.80924E-03-1.34022E-02 1.23561E-02 5.60739E-15 6.76098E-13
 -1      1212 2.10063E+01-4.95852E-03-1.08811E-02 9.21680E-03 5.18465E-16 5.31441E-13
 -1      1213 2.06965E+01-4.10052E-03-8.58824E-03 6.73316E-03-2.73241E-15 6.42033E-13
 -1      1214 2.04679E+01-3.31472E-03-6.65167E-03 4.82997E-03 2.79047E-15 7.02753E-13
 -1      1215 2.03022E+01-2.63186E-03-5.07761E-03 3.40132E-03-5.22919E-14 7.24313E-13
 -1      1216 2.01843E+01-2.05761E-03-3.82649E-03 2.34508E-03-7.22409E-15 4.66871E-13
 -1      1217 2.01023E+01-1.58558E-03-2.84666E-03 1.57445E-03-4.54002E-14 4.68441E-13
 -1      1218 2.00468E+01-1.20437E-03-2.08806E-03 1.01976E-03 6.23934E-15 4.50649E-13
 -1      1219 2.00107E+01-9.01088E-04-1.50686E-03 6.26704E-04 4.97833E-14 1.48172E-13
 -1      1220 1.99883E+01-6.63130E-04-1.06638E-03 3.53499E-04 9.08252E-15 3.93450E-13
 -1      1221 1.99757E+01-4.78965E-04-7.36523E-04 1.68311E-04-2.67626E-14 9.23117E-13
 -1      1222 1.99697E+01-3.38441E-04-4.92924E-04 4.70083E-05-2.23169E-15 1.00229E-12
 -1      1223 1.99680E+01-2.32842E-04-3.15961E-04-2.86025E-05-2.88192E-14 1.36958E-12
 -1      1224 1.99690E+01-1.54825E-04-1.89952E-04-7.21434E-05-5.67929E-14 1.39884E-12
 -1      1225 1.99716E+01-9.82966E-05-1.02437E-04-9.37291E-05 7.23264E-14 3.48164E-13
 -1      1226 1.99751E+01-5.82706E-05-4.36018E-05-1.00789E-04 2.67920E-14-3.56235E-13
 -1      1227 1.99787E+01-3.07139E-05-5.77556E-06-9.87086E-05-4.27491E-14-5.47687E-14
 -1      1228 1.99824E+01-1.23974E-05 1.69816E-05-9.13314E-05-9.52684E-14 4.32686E-13
 -1      1229 1.99858E+01-7.51375E-07 2.92375E-05-8.13510E-05 3.28313E-14 3.78419E-13
 -1      1230 1.99888E+01 6.27182E-06 3.44996E-05-7.06197E-05-3.76850E-14 5.30735E-13
 -1      1231 1.99915E+01 1.03334E-05 3.55062E-05-6.03882E-05 1.21703E-14 2.94209E-13
 -1      1232 1.99937E+01 1.28400E-05 3.45265E-05-5.14810E-05 2.99122E-15 1.71052E-13
 -1      1233 1.99956E+01 1.50452E-05 3.36832E-05-4.43824E-05 3.98035E-14 1.95038E-13
 -1      1234 1.99972E+01 1.80399E-05 3.52114E-05-3.91876E-05-1.30949E-14 1.39227E-13
 -1      1235 1.99985E+01 2.27794E-05 4.12094E-05-3.53063E-05 4.87388E-14-2.40462E-13
 -1      1236 1.99993E+01 2.81534E-05 4.97576E-05-2.95804E-05 5.43406E-14-7.18104E-13
 -1      1237 1.99998E+01 2.27722E-05 3.98964E-05-1.22110E-05 4.45670E-14-1.19945E-12
 -1      1238 1.99998E+01-1.64100E-05-3.98409E-05 1.69596E-05-7.75633E-15-6.16163E-13
 -1      1239 1.99998E+01 4.89149E-05-3.69874E-05 1.61825E-05-6.44863E-13-5.34184E-14
 -1      1240 1.99998E+01 3.00309E-06 4.29184E-05 1.15035E-05-1.79604E-13-5.32154E-14
 -1      1241 1.99998E+01-4.73735E-04 4.50512E-05-1.74120E-05 1.02192E-12-7.64666E-15
 -1      1242 1.99998E+01-1.27541E-03 2.18816E-05-2.97840E-05 1.80108E-12 3.16260E-14
 -1      1243 1.99998E+01-2.21609E-03-3.32842E-06-3.23255E-05 6.86978E-13-2.28141E-13
 -1      1244 1.99998E+01-3.12145E-03-2.39664E-05-2.84899E-05-1.64801E-13 1.01887E-13
 -1      1245 1.99998E+01-3.86544E-03-3.86109E-05-2.12694E-05 2.12611E-13-1.27817E-15
 -1      1246 1.99998E+01-4.35541E-03-4.76158E-05-1.11552E-05-1.04879E-13-1.69340E-13
 -1      1247 1.99998E+01-4.52313E-03-5.05606E-05 1.06590E-07-8.11704E-13 7.08450E-14
 -1      1248 1.99998E+01-4.34876E-03-4.74542E-05 1.13564E-05-7.98416E-13-1.27220E-13
 -1      1249 1.99998E+01-3.85327E-03-3.82650E-05 2.13980E-05-1.94677E-12-1.53046E-13
 -1      1250 1.99998E+01-3.10538E-03-2.34592E-05 2.89684E-05-1.33446E-12 1.79933E-13
 -1      1251 1.99998E+01-2.19940E-03-3.00236E-06 3.23098E-05-6.82850E-13-3.63779E-15
 -1      1252 1.99998E+01-1.25976E-03 2.24741E-05 3.00971E-05-3.60148E-13 1.32400E-13
 -1      1253 1.99998E+01-4.50586E-04 4.86927E-05 2.08613E-05 1.58643E-13-1.04413E-13
 -1      1254 1.99998E+01-1.15741E-05 3.90109E-05-2.37970E-05-2.06673E-13-1.44122E-13
 -1      1255 1.99998E+01 5.47367E-05-3.74919E-05-1.83399E-05-2.14790E-13 1.01404E-14
 -1      1256-1.15812E+00-2.42355E+01-3.77969E+00-2.28780E+00 1.96115E-12 2.55240E-13
 -1      1257-1.97101E+00-1.60737E+01-3.22297E+00-4.20202E+00 2.77511E-12 1.03034E-12
 -1      1258-3.75529E-02-3.40738E+00-2.10258E+00-5.65257E-01 2.59615E-12 1.56974E-12
 -1      1259 8.74036E+00 7.12701E+00-4.33011E-01 7.78440E+00 2.38209E-12 2.20712E-12
 -1      1260 2.56278E+01 1.08027E+01 1.29715E+00 1.57701E+01 1.57030E-12 2.09743E-12
 -1      1261 4.66404E+01 8.26075E+00 2.95460E+00 1.81260E+01 6.33382E-13 1.25833E-12
 -1      1262 6.38251E+01 3.60007E+00 4.20682E+00 1.13804E+01 5.15837E-14-1.43441E-13
 -1      1263 6.89623E+01 2.10210E+00 4.51913E+00-1.65252E+00 1.68039E-13-1.56072E-12
 -1      1264 6.03679E+01 4.78518E+00 4.01504E+00-1.35968E+01 7.25614E-13-2.70728E-12
 -1      1265 4.17838E+01 9.23999E+00 2.60318E+00-1.82930E+01 1.48437E-12-3.08065E-12
 -1      1266 2.10493E+01 1.05481E+01 8.26626E-01-1.43128E+01 1.97775E-12-2.57216E-12
 -1      1267 5.67778E+00 4.88880E+00-1.01118E+00-5.45852E+00 2.07834E-12-1.80433E-12
 -1      1268-9.79671E-01-6.22955E+00-2.42034E+00 1.90828E+00 1.59717E-12-9.41580E-13
 -1      1269-1.63280E+00-1.79893E+01-3.32736E+00 4.17302E+00 6.52145E-13-2.73392E-13
 -1      1270-8.85584E-01-2.37484E+01-3.68325E+00 1.06324E+00-4.84404E-13-6.87506E-14
 -1      1271-1.25411E+00-2.05111E+01-3.41046E+00-2.75267E+00-1.48248E-12-3.07587E-13
 -1      1272-1.43139E+00-1.06785E+01-2.66848E+00-3.10995E+00-2.12252E-12-8.89011E-13
 -1      1273 1.79202E+00 1.06515E+00-1.44822E+00 1.83704E+00-2.38498E-12-1.58196E-12
 -1      1274 1.26804E+01 9.40843E+00 1.56350E-01 1.05332E+01-1.99396E-12-2.04081E-12
 -1      1275 3.13370E+01 1.08279E+01 1.83805E+00 1.71821E+01-1.23512E-12-1.90559E-12
 -1      1276 5.14649E+01 6.77055E+00 3.26225E+00 1.63207E+01-5.38514E-13-1.23479E-12
 -1      1277 6.46446E+01 2.42895E+00 4.00747E+00 6.83618E+00-7.63591E-14-2.23876E-13
 -1      1278 6.56445E+01 2.07396E+00 4.09655E+00-5.98758E+00-1.58623E-13 1.00753E-12
 -1      1279 5.41738E+01 6.02500E+00 3.40527E+00-1.54786E+01-6.73128E-13 2.08322E-12
 -1      1280 3.67518E+01 1.03497E+01 2.31044E+00-1.83063E+01-1.35125E-12 2.47424E-12
 -1      1281 1.89834E+01 1.10871E+01 8.05131E-01-1.40872E+01-1.99107E-12 2.37210E-12
 -1      1282 5.90621E+00 5.83710E+00-6.94012E-01-5.95349E+00-2.47002E-12 1.99951E-12
 -1      1283-4.49962E-01-4.56064E+00-2.07014E+00 1.20941E+00-2.14406E-12 1.33082E-12
 -1      1284-1.69865E+00-1.59985E+01-3.09991E+00 3.88553E+00-6.34381E-13 3.73424E-13
 -1      1285-1.03303E+00-2.38956E+01-3.71097E+00 1.95749E+00 1.05027E-12-4.90441E-14
 -1      1286 2.50689E+01 2.01182E+00-7.58700E-01-2.65840E+00-7.09433E-14 3.64375E-13
 -1      1287 2.25797E+01 4.99745E+00-3.89332E-02-2.82380E+00-1.20445E-13-4.11164E-13
 -1      1288 2.33678E+01 5.16746E+00-9.04645E-02-3.83903E+00-1.87267E-13-2.58960E-13
 -1      1289 2.11382E+01 5.18965E+00-9.09750E-03-1.91906E+00-8.54872E-14-6.11074E-13
 -1      1290 2.17573E+01 5.37597E+00 1.73685E-02-2.43880E+00-1.08011E-13-5.39693E-13
 -1      1291 2.27309E+01 4.03210E+00-2.02022E-02-2.57537E+00-1.95111E-13-3.52274E-13
 -1      1292 2.00701E+01 5.10211E+00 4.78057E-03-1.10652E+00-3.20716E-14-6.67109E-13
 -1      1293 2.05949E+01 5.26812E+00 2.51756E-02-1.51021E+00-5.53169E-14-6.46146E-13
 -1      1294 2.12946E+01 4.32329E+00-2.39654E-02-1.77460E+00-1.18225E-13-5.07649E-13
 -1      1295 1.90479E+01 4.95873E+00 5.09598E-03-4.11798E-01 7.21645E-15-6.71629E-13
 -1      1296 1.95675E+01 5.11926E+00 2.85724E-02-7.43736E-01-2.99760E-15-6.77403E-13
 -1      1297 2.01576E+01 4.36287E+00-2.27173E-02-9.98791E-01-3.48992E-14-5.58158E-13
 -1      1298 1.80127E+01 4.82371E+00-3.60589E-03 1.34037E-01 3.92603E-14-6.43912E-13
 -1      1299 1.85411E+01 4.98489E+00 2.84358E-02-1.16428E-01 2.83940E-14-6.60673E-13
 -1      1300 1.90631E+01 4.36138E+00-2.13347E-02-3.33121E-01 2.61596E-14-5.57863E-13
 -1      1301 1.69678E+01 4.72756E+00-1.73080E-02 5.07218E-01 7.04575E-14-6.14540E-13
 -1      1302 1.74908E+01 4.88478E+00 2.28432E-02 3.48227E-01 6.65301E-14-6.33766E-13
 -1      1303 1.79362E+01 4.39789E+00-2.03876E-02 1.92615E-01 8.42625E-14-5.45064E-13
 -1      1304 1.60626E+01 4.69395E+00-2.99598E-02 6.64159E-01 9.74776E-14-5.79358E-13
 -1      1305 1.64947E+01 4.82275E+00 1.07098E-02 6.10636E-01 8.98309E-14-5.99475E-13
 -1      1306 1.68273E+01 4.49795E+00-1.94357E-02 5.34698E-01 1.28625E-13-5.12240E-13
 -1      1307 1.54830E+01 4.72469E+00-3.58127E-02 6.16271E-01 1.18145E-13-5.44294E-13
 -1      1308 1.57261E+01 4.79618E+00-6.45217E-03 6.53683E-01 1.13111E-13-5.67005E-13
 -1      1309 1.59076E+01 4.64247E+00-1.79622E-02 6.58606E-01 1.75297E-13-4.85762E-13
 -1      1310 1.54028E+01 4.80644E+00-3.13283E-02 4.37865E-01 1.38705E-13-4.98592E-13
 -1      1311 1.53745E+01 4.79636E+00-2.41225E-02 5.22365E-01 1.30900E-13-5.25755E-13
 -1      1312 1.53858E+01 4.78065E+00-1.66042E-02 5.87939E-01 2.04291E-13-4.51154E-13
 -1      1313 1.59093E+01 4.92103E+00-1.78836E-02 2.54571E-01 1.54522E-13-4.37145E-13
 -1      1314 1.55795E+01 4.82106E+00-3.64157E-02 3.22679E-01 1.47826E-13-4.76162E-13
 -1      1315 1.54361E+01 4.85932E+00-1.68102E-02 4.13385E-01 2.35400E-13-4.08858E-13
 -1      1316 1.69464E+01 5.05755E+00 2.02627E-04 2.02540E-01 1.68698E-13-3.38862E-13
 -1      1317 1.63599E+01 4.87904E+00-3.95337E-02 1.92597E-01 1.59185E-13-3.99516E-13
 -1      1318 1.61162E+01 4.85670E+00-1.87245E-02 2.71594E-01 2.55662E-13-3.46772E-13
 -1      1319 1.84266E+01 5.21834E+00 1.81242E-02 3.86293E-01 1.90570E-13-1.87357E-13
 -1      1320 1.76313E+01 4.97683E+00-3.49810E-02 2.50505E-01 1.75554E-13-2.74744E-13
 -1      1321 1.73621E+01 4.78901E+00-2.18800E-02 2.90451E-01 2.78926E-13-2.37086E-13
 -1      1322 2.01977E+01 5.39153E+00 3.31414E-02 8.75102E-01 2.03532E-13 4.23550E-14
 -1      1323 1.92688E+01 5.10822E+00-2.77237E-02 5.79719E-01 1.90306E-13-9.29846E-14
 -1      1324 1.90504E+01 4.67936E+00-2.41432E-02 5.60058E-01 3.01960E-13-7.90132E-14
 -1      1325 2.22078E+01 5.53088E+00 5.00369E-02 1.73292E+00 1.94705E-13 4.03400E-13
 -1      1326 2.11549E+01 5.21219E+00-2.50718E-02 1.22620E+00 1.87739E-13 1.91895E-13
 -1      1327 2.10521E+01 4.50373E+00-2.18987E-02 1.11978E+00 3.05669E-13 1.79932E-13
 -1      1328 2.46786E+01 5.36762E+00 6.16170E-02 3.13869E+00 1.38778E-13 9.82603E-13
 -1      1329 2.33600E+01 5.09096E+00-3.07985E-02 2.23037E+00 1.45939E-13 6.42139E-13
 -1      1330 2.34069E+01 4.08173E+00-3.95017E-03 1.95353E+00 2.67134E-13 5.61287E-13
 -1      1331 3.13202E+01 3.43847E+00 9.20257E-01 4.27243E+00 3.68594E-14 1.86157E-12
 -1      1332 2.59538E+01 3.80771E+00-1.74439E-01 3.18756E+00 5.15976E-14 1.27756E-12
 -1      1333 2.61457E+01 2.64048E+00 4.62862E-03 2.50619E+00 2.06134E-13 1.06254E-12
 -1      1334 2.60280E+01 2.99635E-01-7.92589E-01 6.53088E-01 8.73329E-14 1.86096E-12
 -1      1335 2.50543E+01 8.61849E-02-4.23702E-01-1.11165E+00-1.71238E-13 4.65711E-13
 -1      1336 2.39190E+01 2.73729E-01-1.61754E-01-6.55652E-01-1.47785E-13 2.55511E-13
 -1      1337 2.33759E+01 1.17237E-01-7.03839E-02-3.16154E-01-1.17233E-13 2.07051E-13
 -1      1338 2.29916E+01 4.76769E-02-9.86805E-03-2.69432E-01-1.16449E-13 2.48933E-14
 -1      1339 2.39770E+01 2.94110E-01-1.03859E-01-1.06300E+00-2.53103E-13 2.89491E-14
 -1      1340 2.26383E+01 1.62590E-02 8.92728E-03-1.73497E-01-8.63389E-14-1.88252E-14
 -1      1341 2.24104E+01-1.05944E-02 1.74218E-02-1.83979E-01-6.83828E-14-1.44083E-13
 -1      1342 2.30045E+01 5.17537E-02-2.38388E-02-4.85892E-01-1.93304E-13-3.08781E-14
 -1      1343 2.21512E+01-2.54143E-02 1.98138E-02-2.12989E-01-4.39282E-14-1.97762E-13
 -1      1344 2.18724E+01-3.56111E-02 1.52552E-02-2.35529E-01-4.96569E-14-2.74240E-13
 -1      1345 2.24455E+01-4.00627E-02 6.08958E-03-4.10913E-01-1.25827E-13-1.24236E-13
 -1      1346 2.15959E+01-4.14252E-02 1.61014E-02-3.13690E-01-3.55033E-14-2.97481E-13
 -1      1347 2.11918E+01-3.73711E-02 1.06942E-02-3.39865E-01-3.69574E-14-3.32368E-13
 -1      1348 2.19355E+01-7.19858E-02 1.25733E-02-5.41184E-01-8.52920E-14-2.05838E-13
 -1      1349 2.08574E+01-3.39086E-02 1.12877E-02-4.13105E-01-3.35088E-14-3.66703E-13
 -1      1350 2.03402E+01-1.62220E-02 6.33627E-03-4.30774E-01-2.94515E-14-4.07358E-13
 -1      1351 2.13436E+01-6.31379E-02 1.15619E-02-7.26323E-01-8.53319E-14-2.10547E-13
 -1      1352 1.99670E+01-2.65748E-03 5.37019E-03-4.48002E-01-2.36729E-14-4.13402E-13
 -1      1353 1.94257E+01 2.43221E-02 7.33473E-04-4.44133E-01-3.63622E-14-4.65374E-13
 -1      1354 2.06490E+01-1.54453E-02 4.32312E-03-8.40604E-01-4.86219E-14-2.23046E-13
 -1      1355 1.90849E+01 4.38035E-02-1.97260E-03-3.68486E-01-2.83731E-14-5.07691E-13
 -1      1356 1.86615E+01 6.96819E-02-5.62245E-03-3.36262E-01-5.59804E-14-5.82454E-13
 -1      1357 1.99404E+01 5.93677E-02-8.48508E-03-7.74614E-01-9.80292E-14-2.98809E-13
 -1      1358 1.84493E+01 8.53335E-02-8.36540E-03-1.68323E-01-8.15988E-14-6.03073E-13
 -1      1359 1.82820E+01 9.74536E-02-9.94067E-03-1.14231E-01-9.37011E-14-6.97757E-13
 -1      1360 1.93862E+01 1.31874E-01-2.20601E-02-4.80413E-01-1.19722E-13-3.68233E-13
 -1      1361 1.82719E+01 9.97906E-02-1.06679E-02 9.83294E-02-6.76560E-14-6.95385E-13
 -1      1362 1.84271E+01 9.12632E-02-9.56410E-03 1.55176E-01 2.34344E-14-7.27118E-13
 -1      1363 1.91610E+01 1.66772E-01-2.88119E-02-1.56299E-02-9.93407E-14-3.56613E-13
 -1      1364 1.86268E+01 7.88676E-02-7.98222E-03 3.38768E-01 3.90044E-14-7.87467E-13
 -1      1365 1.90620E+01 5.36202E-02-4.64654E-03 3.77365E-01-3.16093E-14-8.05675E-13
 -1      1366 1.93489E+01 1.44946E-01-2.43320E-02 4.68790E-01-1.40946E-14-4.67303E-13
 -1      1367 1.94059E+01 3.43238E-02-2.59202E-03 4.73283E-01-7.11046E-14-8.45324E-13
 -1      1368 1.99910E+01 4.01953E-03 1.70749E-03 4.83005E-01-5.49322E-14-9.23706E-13
 -1      1369 1.98903E+01 7.74335E-02-1.12723E-02 8.07707E-01-8.36727E-14-6.49794E-13
 -1      1370 2.03756E+01-1.17693E-02 2.11010E-03 4.76258E-01-3.29944E-15-9.01126E-13
 -1      1371 2.09560E+01-3.58821E-02 6.12469E-03 4.60538E-01 3.23309E-15-9.09571E-13
 -1      1372 2.06114E+01-2.99097E-03 3.06758E-03 9.11224E-01-4.40011E-14-6.44340E-13
 -1      1373 2.12874E+01-4.24453E-02 4.20777E-03 3.77174E-01 1.98695E-14-9.26533E-13
 -1      1374 2.17449E+01-5.51750E-02 7.25885E-03 3.47707E-01-5.48173E-15-8.96779E-13
 -1      1375 2.13127E+01-6.41211E-02 1.27219E-02 7.96278E-01-2.17634E-14-6.62214E-13
 -1      1376 2.19685E+01-5.30171E-02 3.85975E-03 2.30925E-01-6.31257E-14-8.70436E-13
 -1      1377 2.22488E+01-5.52751E-02 5.85838E-03 1.99614E-01-4.90346E-14-9.21093E-13
 -1      1378 2.18480E+01-9.14564E-02 1.59905E-02 5.50339E-01-1.29445E-14-6.74281E-13
 -1      1379 2.23518E+01-4.82504E-02 2.30303E-03 8.66937E-02-2.47155E-14-9.06750E-13
 -1      1380 2.24582E+01-4.39209E-02 3.45032E-03 6.10302E-02-2.73219E-14-9.58562E-13
 -1      1381 2.21544E+01-8.89491E-02 1.44055E-02 2.71991E-01-6.72309E-14-6.17586E-13
 -1      1382 2.24567E+01-3.58747E-02 7.03218E-04-2.69121E-02-9.16801E-16-9.39908E-13
 -1      1383 2.24261E+01-2.88766E-02 1.26550E-03-4.42362E-02-3.25577E-14-9.52816E-13
 -1      1384 2.22394E+01-6.92942E-02 1.05119E-02 3.09380E-02-8.25208E-15-5.12362E-13
 -1      1385 2.23491E+01-2.21330E-02-3.45182E-04-1.01133E-01-2.59367E-14-9.61394E-13
 -1      1386 2.22289E+01-1.51021E-02-1.68691E-04-1.10583E-01-2.98522E-14-1.00151E-12
 -1      1387 2.21501E+01-4.47035E-02 6.29669E-03-1.41468E-01-2.81416E-14-6.12016E-13
 -1      1388 2.21069E+01-1.04811E-02-7.69501E-04-1.39652E-01 8.43401E-15-1.01169E-12
 -1      1389 2.19401E+01-4.69957E-03-8.50352E-04-1.43070E-01 2.37008E-14-9.79783E-13
 -1      1390 2.19459E+01-2.27511E-02 2.79920E-03-2.42873E-01-2.11272E-14-6.54576E-13
 -1      1391 2.17985E+01-2.09556E-03-7.51981E-04-1.51320E-01 7.08515E-14-9.94830E-13
 -1      1392 2.16176E+01 2.08624E-03-1.00158E-03-1.50760E-01-5.27784E-15-9.36553E-13
 -1      1393 2.16813E+01-6.48078E-03 3.33353E-04-2.86119E-01 4.60463E-14-7.16520E-13
 -1      1394 2.14746E+01 3.15771E-03-5.16521E-04-1.45500E-01-1.45416E-14-8.44152E-13
 -1      1395 2.13008E+01 5.87539E-03-8.66448E-04-1.42681E-01 5.08166E-16-8.41023E-13
 -1      1396 2.13984E+01 3.92874E-03-1.18072E-03-2.88565E-01 5.41362E-14-6.85709E-13
 -1      1397 2.11679E+01 5.94668E-03-2.29593E-04-1.29920E-01-1.06434E-14-8.45447E-13
 -1      1398 2.10130E+01 7.51564E-03-6.23684E-04-1.26077E-01-4.93941E-15-8.91274E-13
 -1      1399 2.11258E+01 9.58950E-03-1.96499E-03-2.66167E-01-2.78163E-14-5.47302E-13
 -1      1400 2.08964E+01 7.02282E-03 1.80674E-05-1.10118E-01 5.84505E-14-8.10386E-13
 -1      1401 2.07654E+01 7.77489E-03-3.76728E-04-1.06048E-01 8.01428E-14-7.06046E-13
 -1      1402 2.08800E+01 1.19077E-02-2.25101E-03-2.31204E-01 6.44500E-14-4.50139E-13
 -1      1403 2.06673E+01 7.02488E-03 1.93066E-04-8.96596E-02 1.31343E-13-6.23506E-13
 -1      1404 2.05611E+01 7.24037E-03-1.72470E-04-8.58237E-02 1.15234E-13-4.45620E-13
 -1      1405 2.06689E+01 1.21201E-02-2.22827E-03-1.92068E-01 2.02555E-13-2.40229E-13
 -1      1406 2.04814E+01 6.42652E-03 2.95077E-04-7.06006E-02 3.44209E-14-3.66335E-13
 -1      1407 2.03980E+01 6.31730E-03-2.38879E-05-6.72288E-02 8.15244E-14-2.27537E-13
 -1      1408 2.04944E+01 1.11528E-02-2.03409E-03-1.53925E-01 1.32792E-13-1.67061E-13
 -1      1409 2.03352E+01 5.54875E-03 3.38196E-04-5.39515E-02 4.79707E-14-2.69772E-13
 -1      1410 2.02718E+01 5.26371E-03 7.28595E-05-5.11273E-02-1.54381E-14-2.64414E-13
 -1      1411 2.03546E+01 9.63316E-03-1.76043E-03-1.19578E-01 6.58499E-14-6.23841E-14
 -1      1412 2.02237E+01 4.59328E-03 3.39916E-04-4.00561E-02-3.57840E-14-2.76466E-13
 -1      1413 2.01768E+01 4.23113E-03 1.28020E-04-3.77763E-02-2.19488E-14-3.89010E-13
 -1      1414 2.02458E+01 7.95271E-03-1.46498E-03-9.02507E-02-4.85133E-14-9.21445E-14
 -1      1415 2.01409E+01 3.67687E-03 3.15914E-04-2.88641E-02 2.74943E-15-4.08818E-13
 -1      1416 2.01073E+01 3.29933E-03 1.52839E-04-2.70797E-02-5.52054E-15-4.01219E-13
 -1      1417 2.01633E+01 6.33574E-03-1.18137E-03-6.61839E-02 1.34528E-15-2.28265E-13
 -1      1418 2.00812E+01 2.85951E-03 2.78286E-04-2.01166E-02 1.28057E-14-3.56599E-13
 -1      1419 2.00580E+01 2.50243E-03 1.57196E-04-1.87581E-02-7.30709E-15-3.03469E-13
 -1      1420 2.01024E+01 4.89594E-03-9.27176E-04-4.70617E-02-3.89680E-14-2.38224E-13
 -1      1421 2.00396E+01 2.16528E-03 2.35480E-04-1.34641E-02-6.52735E-14-3.83743E-13
 -1      1422 2.00243E+01 1.84719E-03 1.48865E-04-1.24574E-02-4.50556E-14-3.63881E-13
 -1      1423 2.00586E+01 3.67807E-03-7.09733E-04-3.22927E-02-6.45342E-14-3.64717E-13
 -1      1424 2.00118E+01 1.59688E-03 1.92912E-04-8.53822E-03-8.22069E-15-3.32009E-13
 -1      1425 2.00022E+01 1.32518E-03 1.33539E-04-7.81273E-03 7.03455E-15-3.49698E-13
 -1      1426 2.00283E+01 2.68648E-03-5.30176E-04-2.11855E-02-6.50237E-14-3.41696E-13
 -1      1427 1.99941E+01 1.14527E-03 1.53717E-04-4.99109E-03 1.83350E-14-4.65354E-13
 -1      1428 1.99887E+01 9.20576E-04 1.15147E-04-4.48435E-03-4.69680E-14-4.62873E-13
 -1      1429 2.00080E+01 1.90384E-03-3.86125E-04-1.30534E-02-6.41261E-14-4.75051E-13
 -1      1430 1.99838E+01 7.95814E-04 1.19443E-04-2.51539E-03-5.26113E-14-4.49176E-13
 -1      1431 1.99812E+01 6.14898E-04 9.62453E-05-2.17450E-03-3.12664E-14-6.27596E-13
 -1      1432 1.99952E+01 1.30282E-03-2.73453E-04-7.26876E-03-5.39314E-14-4.50279E-13
 -1      1433 1.99786E+01 5.32066E-04 9.05994E-05-8.51423E-04 3.51290E-14-5.46337E-13
 -1      1434 1.99779E+01 3.89792E-04 7.83775E-05-6.33125E-04 3.59070E-14-5.74430E-13
 -1      1435 1.99877E+01 8.53137E-04-1.87389E-04-3.28895E-03-2.98389E-14-3.24165E-13
 -1      1436 1.99768E+01 3.37945E-04 6.70591E-05 2.12879E-04-1.27461E-14-5.63804E-13
 -1      1437 1.99773E+01 2.28487E-04 6.23757E-05 3.42951E-04 7.75568E-14-5.46108E-13
 -1      1438 1.99840E+01 5.25491E-04-1.23173E-04-6.62416E-04 8.51155E-14-2.86914E-13
 -1      1439 1.99772E+01 1.98875E-04 4.83423E-05 8.45896E-04 1.16720E-13-5.60128E-13
 -1      1440 1.99784E+01 1.16451E-04 4.85928E-05 9.14370E-04-1.73945E-14-4.70221E-13
 -1      1441 1.99828E+01 2.93585E-04-7.64259E-05 9.75019E-04 6.41520E-14-4.74056E-13
 -1      1442 1.99790E+01 1.02283E-04 3.38049E-05 1.17801E-03-2.05474E-14-5.15955E-13
 -1      1443 1.99805E+01 4.15610E-05 3.70746E-05 1.20504E-03-6.19048E-14-5.06425E-13
 -1      1444 1.99832E+01 1.34940E-04-4.33142E-05 1.90945E-03-3.99022E-14-4.76934E-13
 -1      1445 1.99814E+01 3.77033E-05 2.27571E-05 1.30783E-03-1.17779E-13-3.44562E-13
 -1      1446 1.99831E+01-6.00498E-06 2.76826E-05 1.30828E-03-1.38228E-14-5.38507E-13
 -1      1447 1.99845E+01 3.10098E-05-2.06084E-05 2.36024E-03-1.09495E-13-3.44974E-13
 -1      1448 1.99841E+01-3.33864E-06 1.45345E-05 1.30808E-03-1.09380E-13-6.44728E-13
 -1      1449 1.99857E+01-3.40229E-05 2.01786E-05 1.29267E-03-2.54700E-13-7.99055E-13
 -1      1450 1.99863E+01-3.30915E-05-5.66207E-06 2.49160E-03-1.24739E-13-3.90715E-13
 -1      1451 1.99868E+01-2.75595E-05 8.53631E-06 1.23099E-03-1.87805E-13-8.76267E-13
 -1      1452 1.99883E+01-4.85352E-05 1.42814E-05 1.20718E-03-1.71948E-13-1.10889E-12
 -1      1453 1.99884E+01-6.90507E-05 3.64370E-06 2.42337E-03-3.41001E-13-6.23343E-13
 -1      1454 1.99894E+01-4.01994E-05 4.24399E-06 1.11278E-03-1.69221E-14-1.16799E-12
 -1      1455 1.99907E+01-5.41804E-05 9.70477E-06 1.08552E-03 7.80734E-14-1.13466E-12
 -1      1456 1.99904E+01-8.58928E-05 8.97485E-06 2.24036E-03-1.53956E-13-7.82783E-13
 -1      1457 1.99917E+01-4.53189E-05 1.23146E-06 9.77271E-04 2.79342E-13-9.50050E-13
 -1      1458 1.99929E+01-5.45133E-05 6.19051E-06 9.49614E-04 2.60228E-13-6.32158E-13
 -1      1459 1.99923E+01-9.05316E-05 1.16252E-05 2.00015E-03 3.49913E-13-7.64302E-13
 -1      1460 1.99937E+01-4.60941E-05-8.16840E-07 8.38765E-04-1.01749E-14-3.75744E-13
 -1      1461 1.99947E+01-5.23054E-05 3.55719E-06 8.12275E-04 3.67116E-14-3.27031E-13
 -1      1462 1.99940E+01-8.83084E-05 1.26003E-05 1.73926E-03 2.98553E-13-2.98805E-13
 -1      1463 1.99954E+01-4.50960E-05-2.05485E-06 7.03999E-04 1.86317E-13-3.84975E-13
 -1      1464 1.99963E+01-4.98099E-05 1.78707E-06 6.79017E-04 2.07944E-13-3.35325E-14
 -1      1465 1.99955E+01-8.35050E-05 1.27085E-05 1.47775E-03 1.29017E-13-5.62598E-14
 -1      1466 1.99969E+01-4.45447E-05-2.37288E-06 5.73484E-04 1.64148E-13-5.13717E-14
 -1      1467 1.99976E+01-4.89824E-05 1.11607E-06 5.49235E-04 8.76574E-14 9.59960E-14
 -1      1468 1.99968E+01-7.98269E-05 1.26518E-05 1.22242E-03 2.57463E-13-2.23796E-15
 -1      1469 1.99981E+01-4.64622E-05-1.30597E-06 4.42296E-04-7.84604E-14 1.90551E-13
 -1      1470 1.99986E+01-5.13498E-05 1.90050E-06 4.16835E-04-5.89569E-14 4.70480E-14
 -1      1471 1.99979E+01-8.08680E-05 1.30313E-05 9.69024E-04 7.29632E-14-2.14840E-14
 -1      1472 1.99989E+01-5.20701E-05 1.50315E-06 3.01884E-04 4.51059E-14-8.94813E-14
 -1      1473 1.99993E+01-5.67145E-05 2.88551E-06 2.72076E-04 2.80810E-14-3.34460E-14
 -1      1474 1.99987E+01-8.96747E-05 1.37793E-05 7.04548E-04-7.91610E-14-3.00159E-13
 -1      1475 1.99995E+01-6.51274E-05 2.53309E-06 1.43772E-04 4.21529E-15 8.76284E-14
 -1      1476 1.99997E+01-5.61293E-05-2.86699E-06 1.09126E-04 2.80764E-14 1.80110E-13
 -1      1477 1.99993E+01-1.06540E-04 1.34784E-05 4.17960E-04 1.14664E-13-1.46144E-13
 -1      1478 1.99998E+01-9.74295E-06-9.46770E-06-1.64703E-05-1.91534E-13 1.62021E-13
 -1      1479 1.99997E+01-7.80798E-05 3.70915E-06 9.85127E-05-8.39253E-14-2.66785E-14
 -1      1480 2.58624E+01 5.64249E-02-1.33012E-01 8.02095E-02 1.06505E-13 1.62808E-12
 -1      1481 2.65182E+01 2.21622E-01-2.27743E-01 2.91151E-01 8.22120E-14 1.76392E-12
 -1      1482 2.63440E+01 8.02784E-01-1.11356E-01 1.30537E+00 1.55397E-13 1.26596E-12
 -1      1483 2.57999E+01 1.16865E-02-6.31434E-03-1.44924E-01 6.87679E-14 1.43135E-12
 -1      1484 2.57124E+01 9.69316E-02-5.17790E-02-1.06279E-01 7.45636E-14 1.54543E-12
 -1      1485 2.56424E+01 1.35151E-01-5.76576E-02 9.66195E-02 1.52996E-13 1.11165E-12
 -1      1486 2.60795E+01-2.48906E-02 2.46723E-02-1.60854E-01 3.97148E-14 1.30523E-12
 -1      1487 2.58551E+01 7.73180E-03 8.88257E-03-1.62102E-01 3.81625E-14 1.36954E-12
 -1      1488 2.55680E+01 9.69844E-03-4.18245E-03-2.36801E-01 9.22014E-14 9.76361E-13
 -1      1489 2.62107E+01-6.34237E-02 4.05025E-02 2.06255E-04 3.84501E-14 1.22519E-12
 -1      1490 2.61258E+01-6.55555E-02 2.12425E-02-4.91620E-02 2.19096E-14 1.26432E-12
 -1      1491 2.57077E+01-8.13314E-02 2.06705E-02-1.57902E-01 5.85617E-14 8.62631E-13
 -1      1492 2.57681E+01-9.16550E-02 5.24106E-02 3.25345E-01-1.97412E-15 1.20495E-12
 -1      1493 2.60643E+01-1.31570E-01 2.62876E-02 2.23400E-01 4.97345E-15 1.22417E-12
 -1      1494 2.56816E+01-1.68394E-01 4.11290E-02 2.49095E-01 2.58925E-14 8.61285E-13
 -1      1495 2.44715E+01-7.92328E-02 4.29939E-02 7.24214E-01-2.98763E-14 1.30013E-12
 -1      1496 2.53050E+01-1.57422E-01 2.68817E-02 5.93777E-01-3.73208E-14 1.22820E-12
 -1      1497 2.51852E+01-2.13992E-01 5.22531E-02 8.95032E-01-5.85330E-14 8.94840E-13
 -1      1498 2.24355E+01-1.10561E-03-7.16017E-03 9.70418E-01 1.89508E-15 1.33435E-12
 -1      1499 2.37142E+01-9.28389E-02 1.06166E-02 8.80808E-01-1.32516E-14 1.27093E-12
 -1      1500 2.40847E+01-1.44579E-01 3.57132E-02 1.50555E+00-4.54220E-14 9.07253E-13
 -1      1501 2.03772E+01 1.14757E-01-8.36983E-02 7.94388E-01 9.57186E-14 1.18962E-12
 -1      1502 2.16405E+01 6.68778E-02-2.77809E-02 8.29093E-01 6.62127E-14 1.25146E-12
 -1      1503 2.26091E+01 7.82240E-02-1.21033E-02 1.62510E+00 6.97081E-14 8.51486E-13
 -1      1504 1.93758E+01 1.77567E-01-1.27776E-01 1.53390E-01 1.22822E-13 8.70038E-13
 -1      1505 1.99630E+01 2.26617E-01-6.72238E-02 3.25313E-01 1.15970E-13 1.03648E-12
 -1      1506 2.14037E+01 3.49330E-01-6.25227E-02 9.30705E-01 2.22593E-13 6.83512E-13
 -1      1507 2.00706E+01 1.26658E-01-9.38901E-02-5.96906E-01 7.81007E-14 7.04270E-13
 -1      1508 1.96144E+01 2.54693E-01-7.14692E-02-3.90049E-01 8.20177E-14 8.13995E-13
 -1      1509 2.11717E+01 4.40908E-01-7.72819E-02-3.29880E-01 1.65756E-13 4.96964E-13
 -1      1510 2.20609E+01 1.14889E-02-8.80491E-03-9.93854E-01 9.62711E-14 5.25996E-13
 -1      1511 2.08203E+01 1.34724E-01-3.25164E-02-8.76786E-01 5.97682E-14 6.37171E-13
 -1      1512 2.20650E+01 2.56548E-01-5.06956E-02-1.40216E+00 1.22478E-13 3.61808E-13
 -1      1513 2.42664E+01-7.45134E-02 5.73845E-02-8.93728E-01 3.01668E-14 4.20941E-13
 -1      1514 2.28961E+01-2.24057E-02 1.64417E-02-9.01789E-01 7.08149E-14 5.14908E-13
 -1      1515 2.35392E+01-4.41037E-02-1.39203E-02-1.70526E+00 1.12647E-13 2.95583E-13
 -1      1516 2.57952E+01-9.54122E-02 7.28522E-02-5.04530E-01 2.18679E-14 4.29247E-13
 -1      1517 2.48343E+01-1.13244E-01 4.10966E-02-5.85637E-01-1.84817E-14 3.73118E-13
 -1      1518 2.48495E+01-2.34667E-01 9.35758E-03-1.28229E+00 5.09297E-14 1.96430E-13
 -1      1519 2.63598E+01-7.30360E-02 5.28103E-02-9.60511E-02 4.01224E-14 3.04517E-13
 -1      1520 2.59835E+01-1.22895E-01 3.75850E-02-1.85731E-01 7.08600E-14 3.95128E-13
 -1      1521 2.55545E+01-2.56625E-01 1.58207E-02-5.62365E-01 8.78603E-14 1.27068E-13
 -1      1522 2.61306E+01-3.98725E-02 2.50652E-02 1.87561E-01-1.25819E-14 2.67866E-13
 -1      1523 2.62347E+01-8.87724E-02 2.11207E-02 1.23159E-01 3.39121E-14 2.75088E-13
 -1      1524 2.56058E+01-1.81023E-01 1.30858E-02 7.55433E-02 8.47135E-14 1.51937E-13
 -1      1525 2.54298E+01-1.36066E-02 4.74125E-03 3.28632E-01-7.03543E-14 3.81521E-13
 -1      1526 2.58164E+01-4.74865E-02 5.95579E-03 2.94252E-01-7.09641E-14 2.72711E-13
 -1      1527 2.51776E+01-9.04155E-02 8.08558E-03 4.76670E-01-4.43057E-14 2.17550E-13
 -1      1528 2.45390E+01 2.05745E-03-5.69932E-03 3.65832E-01 7.94859E-14 2.37827E-13
 -1      1529 2.50367E+01-1.60504E-02-2.78858E-03 3.53696E-01 5.07490E-14 3.54682E-13
 -1      1530 2.44902E+01-2.37526E-02 4.00631E-03 6.52544E-01 4.07170E-14 1.49911E-13
 -1      1531 2.36418E+01 9.38603E-03-9.17976E-03 3.44199E-01-4.51783E-14 1.12230E-13
 -1      1532 2.41410E+01 2.75681E-03-5.89899E-03 3.45027E-01 5.01517E-14 1.81022E-13
 -1      1533 2.37197E+01 1.37708E-02 1.49128E-03 6.75400E-01 1.15218E-13 1.85194E-13
 -1      1534 2.28337E+01 1.16440E-02-9.06783E-03 2.96674E-01-2.47016E-14 2.40453E-13
 -1      1535 2.32792E+01 1.18342E-02-5.83764E-03 3.03639E-01-7.68281E-14 1.46652E-13
 -1      1536 2.29775E+01 2.99150E-02 1.67694E-04 6.15824E-01-6.57057E-14 2.07198E-13
 -1      1537 2.21517E+01 1.13124E-02-7.58990E-03 2.42628E-01-1.16698E-13 2.83228E-13
 -1      1538 2.25238E+01 1.48881E-02-4.56756E-03 2.51657E-01-6.63801E-14 2.60640E-13
 -1      1539 2.23201E+01 3.36274E-02-4.56836E-04 5.22757E-01-4.66229E-14 2.01554E-13
 -1      1540 2.15997E+01 9.89385E-03-5.86625E-03 1.91700E-01-5.34579E-14 4.64758E-13
 -1      1541 2.18977E+01 1.47413E-02-3.14533E-03 2.00692E-01-7.00637E-14 3.66426E-13
 -1      1542 2.17679E+01 3.13033E-02-7.20227E-04 4.24234E-01-1.53166E-13 2.73112E-13
 -1      1543 2.11658E+01 8.17916E-03-4.34003E-03 1.47761E-01 1.14445E-13 4.19074E-13
 -1      1544 2.13976E+01 1.31519E-02-1.97685E-03 1.55792E-01-2.21257E-14 5.08020E-13
 -1      1545 2.13206E+01 2.66726E-02-8.04277E-04 3.33854E-01-4.45902E-14 3.92142E-13
 -1      1546 2.08321E+01 6.53517E-03-3.12635E-03 1.11684E-01-9.31828E-15 3.45711E-13
 -1      1547 2.10085E+01 1.10875E-02-1.13855E-03 1.18456E-01 5.09417E-14 3.74186E-13
 -1      1548 2.09676E+01 2.16285E-02-7.97721E-04 2.56781E-01 7.02797E-14 2.46316E-13
 -1      1549 2.05801E+01 5.10384E-03-2.20964E-03 8.29692E-02-5.50922E-14 4.37429E-13
 -1      1550 2.07120E+01 9.02701E-03-5.82472E-04 8.84860E-02-8.37861E-14 3.51909E-13
 -1      1551 2.06947E+01 1.70043E-02-7.44283E-04 1.93828E-01-9.54323E-14 1.47626E-13
 -1      1552 2.03931E+01 3.91846E-03-1.53564E-03 6.06011E-02-3.78840E-14 5.01807E-13
 -1      1553 2.04900E+01 7.17728E-03-2.33705E-04 6.49926E-02 1.61884E-14 5.36270E-13
 -1      1554 2.04876E+01 1.30861E-02-6.67439E-04 1.43831E-01-9.87932E-14 2.92282E-13
 -1      1555 2.02567E+01 2.96514E-03-1.04770E-03 4.34651E-02 6.22349E-14 4.43960E-13
 -1      1556 2.03266E+01 5.60551E-03-2.60748E-05 4.69008E-02 6.48548E-15 4.64452E-13
 -1      1557 2.03330E+01 9.90515E-03-5.81099E-04 1.04920E-01-2.26902E-15 3.07355E-13
 -1      1558 2.01589E+01 2.21300E-03-6.98247E-04 3.05266E-02-1.11793E-14 2.94252E-13
 -1      1559 2.02084E+01 4.31272E-03 8.96424E-05 3.31759E-02 4.02277E-14 3.32900E-13
 -1      1560 2.02196E+01 7.38867E-03-4.93935E-04 7.51226E-02 1.28925E-13 2.42597E-13
 -1      1561 2.00905E+01 1.62795E-03-4.50453E-04 2.08940E-02-4.81689E-14 3.51689E-13
 -1      1562 2.01247E+01 3.27206E-03 1.47332E-04 2.29097E-02-5.82156E-14 2.65804E-13
 -1      1563 2.01379E+01 5.43232E-03-4.11289E-04 5.26342E-02-1.76176E-14 2.92656E-13
 -1      1564 2.00438E+01 1.17834E-03-2.76794E-04 1.38292E-02 4.28921E-14 2.30919E-13
 -1      1565 2.00667E+01 2.44767E-03 1.69409E-04 1.53418E-02 7.31251E-15 2.45319E-13
 -1      1566 2.00802E+01 3.93169E-03-3.36222E-04 3.59041E-02 1.05690E-14 1.69642E-13
 -1      1567 2.00130E+01 8.36801E-04-1.56971E-04 8.73408E-03-8.04917E-15 1.18313E-13
 -1      1568 2.00278E+01 1.80328E-03 1.70387E-04 9.85262E-03 7.99708E-14 2.25385E-13
 -1      1569 2.00406E+01 2.79418E-03-2.70207E-04 2.36476E-02 7.60142E-14 1.17330E-13
 -1      1570 1.99938E+01 5.80529E-04-7.60638E-05 5.13213E-03-1.65667E-13 5.28531E-13
 -1      1571 2.00027E+01 1.30584E-03 1.59539E-04 5.94555E-03-2.11920E-13 2.18351E-13
 -1      1572 2.00143E+01 1.94211E-03-2.13643E-04 1.48234E-02-2.10834E-13 2.42457E-13
 -1      1573 1.99826E+01 3.90859E-04-2.30944E-05 2.64765E-03 2.97472E-14 7.84529E-13
 -1      1574 1.99875E+01 9.26659E-04 1.42719E-04 3.22774E-03-7.24880E-14 6.60907E-13
 -1      1575 1.99976E+01 1.31208E-03-1.66237E-04 8.60015E-03-2.24462E-13 5.23016E-13
 -1      1576 1.99771E+01 2.52702E-04 1.00236E-05 9.87625E-04-2.47847E-14 8.14001E-13
 -1      1577 1.99792E+01 6.41511E-04 1.23571E-04 1.39163E-03 3.66757E-14 8.99443E-13
 -1      1578 1.99877E+01 8.53127E-04-1.27279E-04 4.32189E-03-3.94080E-14 5.70432E-13
 -1      1579 1.99752E+01 1.53968E-04 2.92459E-05-7.41432E-05-1.64911E-13 1.08057E-12
 -1      1580 1.99755E+01 4.30298E-04 1.04302E-04 1.98929E-04-1.21065E-13 8.71368E-13
 -1      1581 1.99826E+01 5.24725E-04-9.58403E-05 1.47664E-03-1.58565E-13 6.19530E-13
 -1      1582 1.99756E+01 8.50462E-05 3.89448E-05-7.10368E-04 3.02629E-13 6.53289E-13
 -1      1583 1.99749E+01 2.76554E-04 8.61877E-05-5.33004E-04 9.18498E-14 9.85951E-13
 -1      1584 1.99806E+01 2.94855E-04-7.09092E-05-3.30863E-04 9.27657E-14 5.87345E-13
 -1      1585 1.99775E+01 3.83624E-05 4.23084E-05-1.05128E-03 2.42833E-13 3.99201E-14
 -1      1586 1.99761E+01 1.66935E-04 6.98982E-05-9.42481E-04 2.21750E-13 4.14051E-13
 -1      1587 1.99807E+01 1.38425E-04-5.14806E-05-1.40222E-03 3.51936E-13 1.57505E-13
 -1      1588 1.99801E+01 7.99930E-06 4.16362E-05-1.19370E-03-1.04986E-13 2.74402E-14
 -1      1589 1.99784E+01 9.07404E-05 5.57161E-05-1.13281E-03 1.72565E-14 1.03416E-13
 -1      1590 1.99820E+01 3.59222E-05-3.66111E-05-1.96459E-03 1.07040E-13 3.62800E-13
 -1      1591 1.99830E+01-1.06218E-05 3.85614E-05-1.20838E-03-1.40792E-13 3.08327E-13
 -1      1592 1.99812E+01 3.94738E-05 4.36783E-05-1.17993E-03-1.42593E-13 9.43130E-14
 -1      1593 1.99840E+01-2.76903E-05-2.54487E-05-2.18653E-03-1.57441E-13 3.97279E-13
 -1      1594 1.99858E+01-2.10112E-05 3.42217E-05-1.14594E-03 7.50635E-14 5.28518E-13
 -1      1595 1.99842E+01 6.45598E-06 3.36731E-05-1.13855E-03-2.89441E-14 4.17687E-13
 -1      1596 1.99862E+01-6.38906E-05-1.72457E-05-2.19088E-03-1.07073E-13 4.91549E-13
 -1      1597 1.99885E+01-2.58403E-05 2.93905E-05-1.04162E-03 1.72911E-14 4.52345E-13
 -1      1598 1.99870E+01-1.35224E-05 2.55047E-05-1.04709E-03 1.86233E-14 4.07335E-13
 -1      1599 1.99885E+01-8.13551E-05-1.13568E-05-2.06517E-03 1.59647E-14 5.04234E-13
 -1      1600 1.99910E+01-2.71386E-05 2.45830E-05-9.18932E-04 4.33316E-15 3.11383E-13
 -1      1601 1.99896E+01-2.45077E-05 1.89369E-05-9.31588E-04 2.85981E-14 4.29993E-13
 -1      1602 1.99907E+01-8.65906E-05-7.22955E-06-1.86987E-03 4.00363E-14 4.85345E-13
 -1      1603 1.99931E+01-2.64699E-05 2.01519E-05-7.92467E-04-5.83724E-14 3.13652E-13
 -1      1604 1.99919E+01-2.96642E-05 1.37277E-05-8.08592E-04-2.43183E-14 3.27293E-13
 -1      1605 1.99927E+01-8.44716E-05-4.38159E-06-1.64481E-03-4.29600E-14 3.69320E-13
 -1      1606 1.99950E+01-2.50937E-05 1.63969E-05-6.69887E-04 1.20837E-13 3.41462E-13
 -1      1607 1.99940E+01-3.15437E-05 9.66870E-06-6.87382E-04 3.74413E-14 4.42549E-13
 -1      1608 1.99944E+01-7.87116E-05-2.35795E-06-1.41394E-03-2.54639E-14 7.05249E-13
 -1      1609 1.99965E+01-2.41087E-05 1.37113E-05-5.53168E-04-2.62469E-14 2.22131E-13
 -1      1610 1.99957E+01-3.23473E-05 6.65205E-06-5.71384E-04 1.21429E-15 1.73989E-13
 -1      1611 1.99959E+01-7.23033E-05-6.64668E-07-1.18871E-03 8.77811E-14 2.83288E-13
 -1      1612 1.99978E+01-2.44544E-05 1.27208E-05-4.39363E-04 1.71369E-13 1.19669E-14
 -1      1613 1.99971E+01-3.40837E-05 4.79702E-06-4.59056E-04 1.16450E-13 1.79138E-13
 -1      1614 1.99972E+01-6.78643E-05 1.32745E-06-9.70188E-04 9.07266E-14 1.33999E-13
 -1      1615 1.99988E+01-2.70024E-05 1.37550E-05-3.21365E-04 1.18380E-13-3.01273E-13
 -1      1616 1.99983E+01-3.86223E-05 4.43768E-06-3.44761E-04 7.83714E-14-2.22128E-13
 -1      1617 1.99982E+01-6.78218E-05 4.32630E-06-7.50821E-04 2.01683E-13-9.45223E-14
 -1      1618 1.99994E+01-3.21761E-05 1.36692E-05-1.88451E-04 7.19567E-14-5.23767E-13
 -1      1619 1.99991E+01-4.74275E-05 5.03481E-06-2.20287E-04 1.97403E-13-2.25376E-13
 -1      1620 1.99990E+01-7.52014E-05 7.84821E-06-5.17132E-04 2.20207E-13-9.23754E-14
 -1      1621 1.99997E+01-3.51316E-05-3.27557E-06-4.81258E-05 2.95225E-14-3.00214E-13
 -1      1622 1.99996E+01-5.23174E-05 2.51278E-06-8.40268E-05 2.38421E-14-4.06671E-13
 -1      1623 1.99995E+01-8.29393E-05 8.82116E-06-2.58138E-04 9.84464E-14 2.36533E-13
 -1      1624 1.99998E+01-1.14268E-05-1.06809E-05 9.77900E-06-2.57301E-13-3.18018E-13
 -1      1625 1.99997E+01-2.84231E-04 7.65403E-06-1.51435E-04 3.26986E-13 4.99428E-13
 -1      1626 1.99997E+01-1.42894E-04-3.46616E-06-1.14759E-04-4.11764E-14 2.50397E-13
 -1      1627 1.99998E+01-8.27456E-04 5.10866E-06-2.85081E-04 7.64072E-13 2.62654E-13
 -1      1628 1.99998E+01-5.13698E-04 5.15135E-06-2.61598E-04 5.27516E-13 2.01323E-13
 -1      1629 1.99997E+01-5.06915E-04 9.66696E-06-4.06722E-04 2.98862E-13 5.66372E-13
 -1      1630 1.99998E+01-1.54844E-03 1.70198E-06-3.61279E-04 7.08999E-13-1.51658E-13
 -1      1631 1.99998E+01-1.13143E-03 3.57299E-06-3.51269E-04 8.23274E-13 1.72527E-13
 -1      1632 1.99997E+01-1.03808E-03 8.12219E-06-6.17845E-04 1.90863E-13 4.05033E-13
 -1      1633 1.99998E+01-2.32890E-03-3.98109E-07-3.73127E-04 2.83590E-13-2.17665E-13
 -1      1634 1.99998E+01-1.88689E-03 1.31410E-06-3.76000E-04 6.54723E-13-2.54067E-13
 -1      1635 1.99998E+01-1.67878E-03 1.49251E-06-7.13342E-04 1.82817E-13-3.68268E-13
 -1      1636 1.99998E+01-3.03821E-03-1.13433E-06-3.28975E-04-3.84552E-14-2.06647E-14
 -1      1637 1.99998E+01-2.64728E-03 1.39797E-07-3.41760E-04 7.20100E-14-3.49862E-14
 -1      1638 1.99998E+01-2.33261E-03-4.87360E-06-6.90998E-04 8.51790E-14-4.38564E-13
 -1      1639 1.99998E+01-3.60192E-03-1.26802E-06-2.39497E-04 8.47406E-14 6.04029E-14
 -1      1640 1.99998E+01-3.30502E-03-4.78308E-07-2.60140E-04-2.03030E-14 3.36561E-14
 -1      1641 1.99999E+01-2.91356E-03-9.76166E-06-5.69462E-04-1.69176E-14-9.22747E-14
 -1      1642 1.99998E+01-3.93299E-03-1.10969E-06-1.19642E-04-3.68187E-13-4.17412E-13
 -1      1643 1.99998E+01-3.77561E-03-7.08095E-07-1.44874E-04 9.56299E-14-3.68483E-13
 -1      1644 1.99999E+01-3.34977E-03-1.31768E-05-3.71618E-04-1.14511E-13-2.17470E-13
 -1      1645 1.99998E+01-3.99088E-03-9.00536E-07 1.47302E-05-4.21407E-13 1.34679E-14
 -1      1646 1.99998E+01-3.99246E-03-9.01385E-07-1.20162E-05-4.91430E-13-9.25929E-14
 -1      1647 1.99999E+01-3.58067E-03-1.48827E-05-1.27301E-04-9.93783E-14-4.70432E-13
 -1      1648 1.99998E+01-3.76859E-03-6.78740E-07 1.47314E-04-8.77285E-13-4.33546E-13
 -1      1649 1.99998E+01-3.92894E-03-1.10952E-06 1.22181E-04-6.28781E-13-5.57809E-14
 -1      1650 1.99999E+01-3.57819E-03-1.48537E-05 1.32406E-04-4.72881E-13-1.95627E-13
 -1      1651 1.99998E+01-3.29371E-03-3.78945E-07 2.61896E-04-1.20843E-12-1.95710E-13
 -1      1652 1.99998E+01-3.59286E-03-1.32445E-06 2.41485E-04-9.21214E-13-2.91367E-13
 -1      1653 1.99999E+01-3.34274E-03-1.30691E-05 3.75942E-04-4.83840E-13-3.81366E-13
 -1      1654 1.99998E+01-2.63940E-03 7.99611E-08 3.41893E-04-7.76196E-13 3.70345E-13
 -1      1655 1.99998E+01-3.03111E-03-1.18066E-06 3.29343E-04-1.14339E-12 2.07521E-13
 -1      1656 1.99999E+01-2.90766E-03-9.74443E-06 5.71204E-04-5.67610E-13 4.42164E-14
 -1      1657 1.99998E+01-1.87272E-03 1.27945E-06 3.75764E-04-3.76138E-13-5.17289E-14
 -1      1658 1.99998E+01-2.31476E-03-4.03666E-07 3.73143E-04-6.44954E-13 3.59188E-13
 -1      1659 1.99998E+01-2.32536E-03-4.72500E-06 6.91294E-04-4.58667E-13 5.48979E-13
 -1      1660 1.99998E+01-1.11888E-03 3.75384E-06 3.50659E-04-1.88532E-13 2.58084E-13
 -1      1661 1.99998E+01-1.53493E-03 1.62304E-06 3.60154E-04-3.11098E-13 1.96546E-13
 -1      1662 1.99998E+01-1.66619E-03 1.57891E-06 7.12088E-04-1.24463E-13 4.18571E-14
 -1      1663 1.99997E+01-5.13838E-04 1.47417E-06 2.60816E-04-3.45868E-14-1.33231E-13
 -1      1664 1.99998E+01-8.19275E-04 5.07658E-06 2.84831E-04-8.11879E-14 7.82545E-14
 -1      1665 1.99997E+01-1.02870E-03 7.91529E-06 6.14506E-04-1.48245E-13 2.30272E-13
 -1      1666 1.99997E+01-2.05099E-04-6.78141E-06 1.78291E-04-2.13427E-13-3.39684E-13
 -1      1667 1.99997E+01-3.51357E-04 4.37836E-06 2.31025E-04 3.11680E-14-3.71739E-13
 -1      1668 1.99997E+01-5.70242E-04 7.22355E-06 4.87109E-04-1.07011E-13-2.14502E-13
 -1      1669 1.99995E+01-2.74987E-04-2.71208E-06 3.58274E-04-2.11817E-15-2.69032E-13
 -1      1670-7.04421E-01-1.46998E+01-1.68550E+00-1.18445E+00 1.52112E-12 5.13756E-13
 -1      1671-6.23254E-01-1.64858E+01-1.84023E+00 1.18302E-01 1.13914E-12 2.64955E-13
 -1      1672 1.45023E+00-8.38577E+00-1.18564E+00 5.35870E-01 1.77092E-12 8.17985E-13
 -1      1673 7.35285E-01-1.31148E+01-1.61500E+00 1.89088E-02 1.56331E-12 6.28095E-13
 -1      1674 6.80301E+00-1.02220E+00-6.36825E-01 4.23532E+00 1.68265E-12 1.30629E-12
 -1      1675 3.79279E+00-6.58657E+00-1.34922E+00 1.45200E+00 1.80611E-12 9.40359E-13
 -1      1676 1.68314E+01 4.34419E+00 4.71802E-02 9.22174E+00 1.50757E-12 1.51545E-12
 -1      1677 1.05265E+01 9.79706E-01-7.90304E-01 5.56091E+00 1.71774E-12 1.41476E-12
 -1      1678 3.22010E+01 5.28010E+00 8.59084E-01 1.14729E+01 9.93650E-13 9.66116E-13
 -1      1679 2.30697E+01 4.62078E+00 2.26041E-02 9.35568E+00 1.30163E-12 1.22280E-12
 -1      1680 4.63152E+01 5.24441E+00 1.68619E+00 1.10074E+01 5.50976E-13 4.65183E-13
 -1      1681 3.72619E+01 6.61322E+00 9.26003E-01 1.21509E+01 8.72857E-13 9.53237E-13
 -1      1682 5.54274E+01 3.63958E+00 1.95469E+00 4.61036E+00 3.33650E-13-4.84279E-13
 -1      1683 5.01162E+01 5.11892E+00 1.64434E+00 9.32514E+00 4.50952E-13 1.59650E-13
 -1      1684 5.39572E+01 4.26354E+00 1.68476E+00-3.69023E+00 5.04818E-13-1.29557E-12
 -1      1685 5.48613E+01 4.07900E+00 1.77169E+00 1.97505E+00 3.75699E-13-7.23560E-13
 -1      1686 4.69218E+01 5.48789E+00 1.39720E+00-1.00443E+01 8.63407E-13-1.97820E-12
 -1      1687 5.33015E+01 3.90898E+00 1.80480E+00-6.18060E+00 6.02768E-13-1.59295E-12
 -1      1688 3.38826E+01 6.61631E+00 7.08071E-01-1.20507E+01 1.19338E-12-2.07523E-12
 -1      1689 4.30566E+01 5.50282E+00 1.48048E+00-1.17070E+01 9.38249E-13-2.13896E-12
 -1      1690 1.96346E+01 4.33992E+00-2.01294E-01-8.87807E+00 1.30496E-12-1.62625E-12
 -1      1691 2.86661E+01 5.65814E+00 7.24577E-01-1.17077E+01 1.20015E-12-1.91935E-12
 -1      1692 8.36171E+00-5.55200E-01-9.75496E-01-4.37922E+00 1.30518E-12-1.17106E-12
 -1      1693 1.38448E+01 3.60424E+00-1.26777E-01-8.07119E+00 1.42553E-12-1.54032E-12
 -1      1694 3.06653E+00-8.02152E+00-1.43269E+00-1.08666E+00 7.76490E-13-6.77319E-13
 -1      1695 5.44895E+00-2.74596E+00-7.94924E-01-3.33460E+00 1.12443E-12-1.00409E-12
 -1      1696-1.01472E-01-1.42982E+01-1.87061E+00 5.55119E-01 1.85685E-13-3.23075E-13
 -1      1697 1.89842E-01-9.95760E+00-1.46845E+00 6.58493E-01 6.86340E-13-5.18509E-13
 -1      1698-6.65424E-01-1.56145E+01-1.79234E+00-3.15347E-01-5.68712E-13-2.87187E-13
 -1      1699-7.31483E-01-1.51042E+01-1.78439E+00 1.14515E+00-3.74145E-14-2.81497E-13
 -1      1700-7.22567E-02-1.15192E+01-1.43244E+00-2.98152E-01-1.09279E-12-4.90719E-13
 -1      1701-2.39762E-01-1.45593E+01-1.71025E+00 4.20783E-01-7.15317E-13-3.15359E-13
 -1      1702 2.29252E+00-5.13682E+00-1.05147E+00 1.44242E+00-1.52200E-12-9.10605E-13
 -1      1703 1.20582E+00-1.02651E+01-1.57127E+00 3.27845E-01-1.28586E-12-5.97078E-13
 -1      1704 8.49382E+00 1.64676E+00-4.27398E-01 5.80760E+00-1.59273E-12-1.23890E-12
 -1      1705 4.95977E+00-3.16813E+00-1.16051E+00 2.76182E+00-1.57452E-12-1.01197E-12
 -1      1706 2.07696E+01 5.44817E+00 3.07851E-01 1.06350E+01-1.25600E-12-1.32661E-12
 -1      1707 1.32893E+01 2.85446E+00-5.37341E-01 7.07855E+00-1.47216E-12-1.25977E-12
 -1      1708 3.53766E+01 5.65064E+00 9.49245E-01 1.15552E+01-8.17790E-13-1.05771E-12
 -1      1709 2.63501E+01 5.95969E+00 2.14584E-01 1.04917E+01-1.11089E-12-1.19837E-12
 -1      1710 4.79483E+01 4.63617E+00 1.52653E+00 8.69426E+00-4.86805E-13-5.57110E-13
 -1      1711 4.00111E+01 6.29108E+00 9.45778E-01 1.12034E+01-7.38826E-13-9.60343E-13
 -1      1712 5.41579E+01 3.64612E+00 1.74184E+00 1.36511E+00-3.27544E-13 8.49876E-14
 -1      1713 5.08027E+01 4.53453E+00 1.49012E+00 6.60585E+00-3.78836E-13-3.73146E-13
 -1      1714 5.25121E+01 4.22189E+00 1.66414E+00-6.34791E+00-4.32598E-13 9.19820E-13
 -1      1715 5.50497E+01 3.44098E+00 1.82116E+00-1.16705E+00-3.15414E-13 4.12864E-13
 -1      1716 4.26053E+01 6.03510E+00 1.15548E+00-1.08543E+01-7.54813E-13 1.35958E-12
 -1      1717 4.94313E+01 4.46976E+00 1.61929E+00-8.01973E+00-5.14921E-13 1.11611E-12
 -1      1718 3.04816E+01 7.10078E+00 6.13930E-01-1.22765E+01-1.18017E-12 1.62181E-12
 -1      1719 3.87185E+01 6.17197E+00 1.25453E+00-1.24616E+01-8.70637E-13 1.54399E-12
 -1      1720 1.81095E+01 5.34523E+00-8.98445E-02-9.39494E+00-1.50191E-12 1.53455E-12
 -1      1721 2.57298E+01 6.66653E+00 7.06396E-01-1.21150E+01-1.30485E-12 1.67910E-12
 -1      1722 9.16180E+00-3.35090E-01-7.71907E-01-4.96842E+00-1.53066E-12 1.19971E-12
 -1      1723 1.41935E+01 3.48896E+00-2.78263E-03-8.30394E+00-1.52434E-12 1.40132E-12
 -1      1724 2.94135E+00-6.99702E+00-1.37607E+00-1.27335E+00-9.82769E-13 8.79907E-13
 -1      1725 5.15652E+00-1.80557E+00-7.18047E-01-3.51764E+00-1.43152E-12 1.25550E-12
 -1      1726 5.17586E-01-1.32972E+01-1.69328E+00-7.89817E-02 7.08322E-14 5.12382E-13
 -1      1727 1.07581E+00-8.82990E+00-1.25545E+00-3.91730E-01-7.05991E-13 8.36387E-13
 -1      1728-5.88793E-01-1.66869E+01-1.87974E+00-4.48669E-01 9.46021E-13 2.96790E-13
 -1      1729-5.82539E-01-1.47526E+01-1.70513E+00 8.14568E-01 3.69538E-13 3.52190E-13
 -1      1730 2.50322E+01 5.70588E-03 2.60297E-01 6.86747E+00 9.52571E-13 6.33604E-13
 -1      1731 1.39041E+01-3.55837E+00-4.37133E-01 6.15627E+00 1.00475E-12 8.85070E-13
 -1      1732 1.99997E+01-4.34215E-05 1.73091E-06-4.33872E-05-2.39611E-13-3.67027E-14
 -1      1733 1.99997E+01-1.95922E-04 1.41690E-06-1.95747E-04 1.89178E-13 5.04568E-13
 -1      1734 6.08637E-01-9.79054E+00-1.08225E+00 2.33888E+00 8.55760E-13 6.37379E-13
 -1      1735 5.89476E+00-7.45930E+00-8.95853E-01 4.47983E+00 9.47908E-13 5.81597E-13
 -1      1736-1.36511E+00-1.13703E+01-1.33643E+00-2.28196E-01 6.13634E-13 5.91527E-13
 -1      1737 3.50433E+01 3.01009E+00 6.38371E-01 5.89420E+00 9.03971E-13 3.32290E-13
 -1      1738 4.40775E+01 6.11683E+00 1.39376E+00 4.89324E+00 7.63611E-13 3.14193E-14
 -1      1739 4.70011E+01 7.54035E+00 1.47245E+00 1.52267E+00 6.69687E-13-4.88803E-13
 -1      1740 4.60451E+01 7.37639E+00 1.39949E+00-1.97029E+00 7.39464E-13-8.24563E-13
 -1      1741 4.20507E+01 5.69829E+00 1.26564E+00-5.24551E+00 7.38146E-13-1.20703E-12
 -1      1742 3.29500E+01 2.81709E+00 6.43484E-01-6.68595E+00 6.84619E-13-1.26821E-12
 -1      1743 2.20672E+01-5.28682E-01 3.04748E-02-6.98401E+00 7.24976E-13-1.11167E-12
 -1      1744 1.18323E+01-4.37287E+00-5.86351E-01-5.80900E+00 5.59441E-13-9.24871E-13
 -1      1745 4.27496E+00-7.59808E+00-9.18415E-01-3.91271E+00 3.36287E-13-7.60558E-13
 -1      1746-5.72222E-01-1.02975E+01-1.32445E+00-1.08811E+00 3.50275E-14-6.01130E-13
 -1      1747-1.01644E+00-9.98817E+00-1.22302E+00 1.13532E+00-3.23325E-13-5.51836E-13
 -1      1748 1.73635E+00-8.24096E+00-1.05184E+00 3.13305E+00-6.15064E-13-6.00964E-13
 -1      1749 7.34276E+00-5.14514E+00-7.34104E-01 5.10231E+00-8.66307E-13-7.73159E-13
 -1      1750 1.64443E+01-1.42504E+00-1.52792E-01 6.99616E+00-9.22373E-13-7.79765E-13
 -1      1751 2.74389E+01 1.60650E+00 4.27183E-01 6.98824E+00-8.37885E-13-6.30496E-13
 -1      1752 3.65929E+01 4.43703E+00 7.61626E-01 5.41287E+00-7.15858E-13-4.68847E-13
 -1      1753 4.35916E+01 6.89812E+00 1.26647E+00 3.31140E+00-6.53033E-13-2.19658E-13
 -1      1754 4.69185E+01 7.41661E+00 1.48373E+00-4.34603E-02-6.14286E-13 1.71127E-13
 -1      1755 4.48099E+01 6.90454E+00 1.35243E+00-3.29923E+00-6.37490E-13 5.27522E-13
 -1      1756 3.88201E+01 5.59597E+00 1.06671E+00-6.12688E+00-6.80532E-13 7.83040E-13
 -1      1757 3.03793E+01 3.42180E+00 6.20218E-01-7.82225E+00-8.64142E-13 9.45910E-13
 -1      1758 2.09651E+01-2.07640E-01 2.84148E-02-7.40505E+00-8.76077E-13 9.13936E-13
 -1      1759 1.21593E+01-3.86129E+00-4.16309E-01-6.30314E+00-6.74238E-13 9.23650E-13
 -1      1760 4.73568E+00-7.43790E+00-9.12595E-01-4.32619E+00-2.38365E-13 1.09519E-12
 -1      1761 3.14147E-01-1.02417E+01-1.20262E+00-2.41904E+00 1.64646E-13 8.63587E-13
 -1      1762 2.57393E+01 2.04207E+00-2.39474E-02-2.49265E+00-2.01058E-13 2.71144E-13
 -1      1763 2.12894E+01 3.46475E+00-3.86074E-02-1.45456E+00-1.02625E-13-4.17437E-13
 -1      1764 2.18627E+01 3.37488E+00-4.95725E-02-1.84701E+00-1.52704E-13-3.83957E-13
 -1      1765 2.24916E+01 3.07661E+00-5.04420E-02-2.08919E+00-1.91612E-13-3.13478E-13
 -1      1766 2.30106E+01 2.74653E+00-1.48086E-01-2.44789E+00-2.47472E-13-2.26666E-13
 -1      1767 2.24811E+01 2.40557E+00-8.69577E-03-1.73523E+00-1.79957E-13-3.11501E-13
 -1      1768 1.90603E+01 3.75659E+00-2.40634E-02-1.27217E-01 4.51271E-14-4.46268E-13
 -1      1769 1.96378E+01 3.75685E+00-1.21067E-02-4.30964E-01 1.63029E-14-4.57610E-13
 -1      1770 1.78393E+01 3.93662E+00-2.31382E-02 3.98158E-01 1.18079E-13-4.29642E-13
 -1      1771 1.84630E+01 3.91793E+00-1.54938E-03 1.65264E-01 8.44221E-14-4.42812E-13
 -1      1772 1.89938E+01 3.27662E+00-1.99329E-02 9.65419E-02 6.89735E-14-4.24676E-13
 -1      1773 1.66385E+01 4.19584E+00-2.26215E-02 7.19278E-01 1.76746E-13-4.08054E-13
 -1      1774 1.72330E+01 4.15474E+00 5.55745E-03 5.88920E-01 1.47490E-13-4.25373E-13
 -1      1775 1.76866E+01 3.60190E+00-1.74832E-02 6.06958E-01 1.48236E-13-4.09298E-13
 -1      1776 1.56694E+01 4.48800E+00-1.96426E-02 7.88414E-01 2.28373E-13-3.82700E-13
 -1      1777 1.61158E+01 4.43628E+00 7.14546E-03 7.68162E-01 2.03541E-13-4.00510E-13
 -1      1778 1.64364E+01 4.00733E+00-1.05693E-02 8.74863E-01 2.05849E-13-3.91514E-13
 -1      1779 1.51901E+01 4.72123E+00-1.26414E-02 6.33673E-01 2.57951E-13-3.61090E-13
 -1      1780 1.53574E+01 4.67722E+00 2.13294E-03 6.96809E-01 2.41969E-13-3.80030E-13
 -1      1781 1.54948E+01 4.39564E+00-1.55556E-03 8.50322E-01 2.59537E-13-3.72726E-13
 -1      1782 1.53967E+01 4.80518E+00-3.88609E-03 3.75943E-01 2.86196E-13-3.26781E-13
 -1      1783 1.52013E+01 4.78362E+00-7.66749E-03 4.60378E-01 2.69238E-13-3.52998E-13
 -1      1784 1.51376E+01 4.62741E+00 4.16109E-03 5.89208E-01 2.81857E-13-3.47998E-13
 -1      1785 1.63020E+01 4.71269E+00 2.25699E-03 1.89235E-01 3.07835E-13-2.59487E-13
 -1      1786 1.57624E+01 4.71443E+00-1.86541E-02 2.21308E-01 2.94836E-13-3.04399E-13
 -1      1787 1.55344E+01 4.60551E+00 3.07786E-03 2.60917E-01 3.12348E-13-3.10716E-13
 -1      1788 1.78095E+01 4.47167E+00 1.37784E-03 2.11753E-01 3.33747E-13-1.48026E-13
 -1      1789 1.69863E+01 4.49476E+00-2.83235E-02 1.36134E-01 3.15732E-13-2.10230E-13
 -1      1790 1.66699E+01 4.33406E+00-4.28856E-03 5.81850E-02 3.34488E-13-2.25737E-13
 -1      1791 1.97064E+01 4.12337E+00-9.88572E-03 5.10556E-01 3.44242E-13 1.23165E-14
 -1      1792 1.87116E+01 4.17726E+00-3.70892E-02 3.01525E-01 3.30694E-13-8.59902E-14
 -1      1793 1.83907E+01 3.88753E+00-1.15439E-02 1.10541E-01 3.43736E-13-1.02463E-13
 -1      1794 2.18428E+01 3.61741E+00-3.46003E-02 1.05694E+00 3.39569E-13 2.64025E-13
 -1      1795 2.07400E+01 3.76160E+00-4.92252E-02 7.19356E-01 3.28265E-13 1.23467E-13
 -1      1796 2.04708E+01 3.32948E+00-1.15425E-02 4.20639E-01 3.42406E-13 7.38663E-14
 -1      1797 2.42577E+01 2.69262E+00-5.06920E-02 1.67005E+00 2.82551E-13 6.53963E-13
 -1      1798 2.29972E+01 3.11805E+00-5.71918E-02 1.30262E+00 3.02810E-13 4.27249E-13
 -1      1799 2.27668E+01 2.58614E+00 2.20675E-03 8.48189E-01 3.24857E-13 3.32880E-13
 -1      1800 2.59758E+01 1.14794E+00-1.23368E-01 1.39904E+00 2.05252E-13 1.04231E-12
 -1      1801 2.50621E+01 2.24405E+00-3.15981E-03 1.66880E+00 2.44100E-13 7.92283E-13
 -1      1802 2.45494E+01 1.60616E+00-1.65068E-02 9.43954E-01 2.78305E-13 6.42261E-13
 -1      1803 2.55138E+01 7.09763E-01-5.32619E-02 5.87170E-01 2.17860E-13 9.69076E-13
 -1      1804 2.45135E+01 2.47880E+00 8.79450E-02-2.72829E+00-2.50635E-13-4.15362E-14
 -1      1805 2.52277E+01 1.92582E-01-1.03659E-02-1.63434E-01 1.61270E-13 8.38499E-13
 -1      1806 2.54425E+01 3.55679E-01-1.18049E-02 1.67812E-01 1.78427E-13 8.97509E-13
 -1      1807 2.50420E+01 7.25555E-01-5.01515E-03 3.69480E-01 2.11442E-13 7.03853E-13
 -1      1808 2.41619E+01 1.63367E+00 7.98908E-02-2.00768E+00-2.37088E-13-9.34808E-14
 -1      1809 2.33616E+01 2.90042E-01 3.14077E-02-8.25043E-01-1.97679E-13-7.87027E-14
 -1      1810 2.29175E+01 1.08644E-01-4.35554E-03-6.61488E-01-1.64516E-13-1.24457E-13
 -1      1811 2.27495E+01-5.83700E-03 2.40617E-02-5.95935E-01-1.48389E-13-1.01264E-13
 -1      1812 2.24569E+01-1.05683E-01-2.70420E-03-6.15667E-01-1.13715E-13-1.57480E-13
 -1      1813 2.28715E+01 1.07995E-01-2.95971E-03-8.53662E-01-1.81148E-13-1.40899E-13
 -1      1814 2.23111E+01-1.57253E-01 1.21297E-02-6.85239E-01-9.33138E-14-1.48170E-13
 -1      1815 2.20230E+01-1.89747E-01-4.33379E-03-7.79201E-01-9.48330E-14-1.70435E-13
 -1      1816 2.25471E+01-1.80603E-01-2.15394E-04-8.37212E-01-1.37006E-13-1.35499E-13
 -1      1817 2.18563E+01-1.86085E-01 3.18569E-03-9.00647E-01-8.55462E-14-1.56300E-13
 -1      1818 2.15359E+01-1.52930E-01-3.47330E-04-9.94544E-01-6.35566E-14-1.63564E-13
 -1      1819 2.22388E+01-2.66352E-01 3.44837E-03-1.04393E+00-8.75424E-14-1.21102E-13
 -1      1820 2.13203E+01-9.07780E-02-1.24292E-03-1.07795E+00-6.01969E-14-1.51478E-13
 -1      1821 2.09832E+01 4.64092E-03 8.25683E-03-1.10050E+00-6.77752E-14-1.72140E-13
 -1      1822 2.18640E+01-1.65996E-01 5.28353E-03-1.27531E+00-6.21651E-14-1.21623E-13
 -1      1823 2.07320E+01 1.12531E-01-1.25374E-03-1.05884E+00-9.64079E-14-1.95470E-13
 -1      1824 2.04367E+01 2.38658E-01 1.63243E-02-9.56846E-01-1.19702E-13-2.11245E-13
 -1      1825 2.14055E+01 9.87356E-02 2.27791E-03-1.33123E+00-1.02635E-13-9.28771E-14
 -1      1826 2.02150E+01 3.48999E-01 3.26580E-03-7.45085E-01-1.43588E-13-2.29108E-13
 -1      1827 2.00362E+01 4.45552E-01 1.83402E-02-5.16469E-01-1.30552E-13-2.45230E-13
 -1      1828 2.09390E+01 4.36761E-01-5.98108E-03-1.05553E+00-1.46185E-13-1.27909E-13
 -1      1829 1.99328E+01 4.99599E-01 1.08874E-02-1.73106E-01-1.47962E-13-2.73369E-13
 -1      1830 1.99250E+01 5.10929E-01 1.31702E-02 1.17168E-01-9.60221E-14-3.05474E-13
 -1      1831 2.06170E+01 6.88594E-01-1.46993E-02-4.32834E-01-1.69110E-13-2.09891E-13
 -1      1832 1.99879E+01 4.75450E-01 1.68210E-02 4.75043E-01-1.09938E-13-3.79441E-13
 -1      1833 2.01556E+01 3.93039E-01 4.65366E-03 7.24441E-01-1.04460E-13-4.52727E-13
 -1      1834 2.05780E+01 7.17436E-01-1.54035E-02 3.59926E-01-1.68600E-13-3.30674E-13
 -1      1835 2.03505E+01 2.87068E-01 1.60015E-02 9.67451E-01-8.50301E-14-5.29292E-13
 -1      1836 2.06434E+01 1.56055E-01-2.37208E-03 1.09480E+00-6.48869E-14-5.23800E-13
 -1      1837 2.08358E+01 5.01076E-01-7.49294E-03 1.03584E+00-1.52035E-13-4.05752E-13
 -1      1838 2.08779E+01 3.50838E-02 8.08518E-03 1.15732E+00-3.36218E-14-5.34165E-13
 -1      1839 2.12137E+01-8.24573E-02-5.57912E-03 1.14417E+00-4.91718E-14-5.33012E-13
 -1      1840 2.12627E+01 1.50581E-01 2.35939E-03 1.37037E+00-6.45980E-14-4.61871E-13
 -1      1841 2.14011E+01-1.69694E-01-2.36807E-03 1.04666E+00-4.62360E-14-5.55639E-13
 -1      1842 2.16999E+01-2.35711E-01-5.62673E-03 9.30758E-01 1.36622E-14-5.18941E-13
 -1      1843 2.16804E+01-1.73732E-01 8.31186E-03 1.31886E+00-1.44650E-14-4.33277E-13
 -1      1844 2.17980E+01-2.71605E-01-1.03606E-02 7.44278E-01 2.65066E-15-5.28673E-13
 -1      1845 2.20081E+01-2.83104E-01-4.27980E-03 5.85028E-01-1.90768E-14-4.83709E-13
 -1      1846 2.19633E+01-3.66613E-01 9.22812E-03 9.92419E-01 2.64068E-15-3.79323E-13
 -1      1847 2.20178E+01-2.77107E-01-1.37281E-02 3.82809E-01-1.18395E-15-4.66468E-13
 -1      1848 2.21217E+01-2.52437E-01-2.88282E-03 2.30031E-01 2.28463E-14-3.86157E-13
 -1      1849 2.20723E+01-4.12604E-01 7.09277E-03 5.56134E-01 1.56576E-14-3.83843E-13
 -1      1850 2.20655E+01-2.23979E-01-1.30457E-02 5.98301E-02-5.06943E-14-3.38331E-13
 -1      1851 2.20729E+01-1.84727E-01-1.78821E-03-5.88088E-02-5.50645E-15-3.53804E-13
 -1      1852 2.20303E+01-3.55719E-01 4.27401E-03 1.43497E-01 1.29159E-14-3.18820E-13
 -1      1853 2.19765E+01-1.50477E-01-1.00559E-02-1.77822E-01-3.55011E-14-4.17848E-13
 -1      1854 2.19112E+01-1.11822E-01-9.64415E-04-2.54541E-01-3.66907E-14-4.55845E-13
 -1      1855 2.18831E+01-2.53468E-01 1.95907E-03-1.74184E-01-9.47315E-14-2.56855E-13
 -1      1856 2.17954E+01-8.15339E-02-6.39586E-03-3.22821E-01 1.95477E-14-4.56909E-13
 -1      1857 2.16846E+01-5.08363E-02-3.29543E-04-3.61980E-01 1.13000E-14-4.14612E-13
 -1      1858 2.16754E+01-1.48537E-01 3.81355E-04-3.78393E-01-1.38917E-14-2.35158E-13
 -1      1859 2.15641E+01-2.82712E-02-3.09334E-03-3.89488E-01 1.06957E-15-4.07207E-13
 -1      1860 2.14316E+01-7.29843E-03 1.63356E-04-4.00416E-01 7.88755E-14-3.78715E-13
 -1      1861 2.14420E+01-6.28887E-02-5.86861E-04-4.81706E-01 3.24586E-14-2.59126E-13
 -1      1862 2.13159E+01 7.39906E-03-5.91207E-04-3.99537E-01 1.02444E-13-4.75550E-13
 -1      1863 2.11795E+01 1.97832E-02 5.24294E-04-3.92000E-01 2.57219E-14-4.63972E-13
 -1      1864 2.12069E+01-2.88106E-03-1.14008E-03-5.09100E-01 5.60847E-14-2.49914E-13
 -1      1865 2.10739E+01 2.80607E-02 1.05365E-03-3.73846E-01 2.93360E-14-4.26859E-13
 -1      1866 2.09454E+01 3.39921E-02 7.59802E-04-3.55936E-01 3.03615E-14-3.43046E-13
 -1      1867 2.09856E+01 3.36836E-02-1.42230E-03-4.86472E-01 5.96018E-14-3.14332E-13
 -1      1868 2.08528E+01 3.76649E-02 1.97363E-03-3.29025E-01 4.68148E-14-2.90227E-13
 -1      1869 2.07387E+01 3.92684E-02 8.83171E-04-3.06598E-01 1.46008E-13-2.68025E-13
 -1      1870 2.07867E+01 5.22222E-02-1.52501E-03-4.35371E-01 7.96845E-14-2.90913E-13
 -1      1871 2.06600E+01 3.99531E-02 2.35920E-03-2.76789E-01 1.91479E-13-2.68519E-13
 -1      1872 2.05631E+01 3.89453E-02 9.15751E-04-2.53664E-01 2.56060E-13-1.84360E-13
 -1      1873 2.06143E+01 5.84202E-02-1.50795E-03-3.71570E-01 1.95500E-13-1.84698E-13
 -1      1874 2.04979E+01 3.78799E-02 2.39131E-03-2.24611E-01 1.77309E-13-2.24641E-13
 -1      1875 2.04186E+01 3.54965E-02 8.82379E-04-2.03020E-01 1.08295E-13-1.63285E-13
 -1      1876 2.04694E+01 5.69949E-02-1.41307E-03-3.05520E-01 2.31108E-13-2.92620E-13
 -1      1877 2.03659E+01 3.35446E-02 2.21471E-03-1.76748E-01 5.41305E-14-1.61449E-13
 -1      1878 2.03029E+01 3.06034E-02 8.06699E-04-1.57816E-01 6.11460E-14-1.42003E-13
 -1      1879 2.03506E+01 5.14055E-02-1.27169E-03-2.43472E-01 1.50391E-13-2.20358E-13
 -1      1880 2.02613E+01 2.83245E-02 1.93349E-03-1.35240E-01 7.81618E-15-1.19059E-13
 -1      1881 2.02126E+01 2.53265E-02 7.08347E-04-1.19364E-01-5.03424E-14-1.22821E-13
 -1      1882 2.02556E+01 4.39799E-02-1.10748E-03-1.88672E-01 5.59676E-14-1.67704E-13
 -1      1883 2.01804E+01 2.30574E-02 1.61653E-03-1.00695E-01-2.60997E-14-1.47141E-13
 -1      1884 2.01437E+01 2.02820E-02 6.02024E-04-8.78398E-02 8.45732E-15-1.85477E-13
 -1      1885 2.01812E+01 3.61702E-02-9.37848E-04-1.42368E-01 2.76737E-15-1.69500E-13
 -1      1886 2.01194E+01 1.82064E-02 1.30574E-03-7.28770E-02-3.97276E-14-2.00484E-13
 -1      1887 2.00925E+01 1.57870E-02 4.97749E-04-6.27716E-02-5.68352E-14-2.38288E-13
 -1      1888 2.01243E+01 2.88072E-02-7.74798E-04-1.04572E-01-3.48422E-14-1.98810E-13
 -1      1889 2.00745E+01 1.39896E-02 1.02401E-03-5.11033E-02-9.92435E-14-2.32397E-13
 -1      1890 2.00554E+01 1.19688E-02 4.01672E-04-4.33691E-02-1.52465E-13-2.67097E-13
 -1      1891 2.00817E+01 2.23069E-02-6.25829E-04-7.46089E-02-1.44873E-13-2.31142E-13
 -1      1892 2.00424E+01 1.04728E-02 7.81631E-04-3.44990E-02-1.36822E-13-3.14498E-13
 -1      1893 2.00293E+01 8.84042E-03 3.17023E-04-2.87311E-02-5.14570E-14-3.60575E-13
 -1      1894 2.00506E+01 1.68239E-02-4.94914E-04-5.14684E-02-1.16506E-13-1.18422E-13
 -1      1895 2.00202E+01 7.63393E-03 5.81042E-04-2.21565E-02-4.13914E-14-3.23424E-13
 -1      1896 2.00116E+01 6.35226E-03 2.44982E-04-1.79686E-02-4.66884E-14-2.00646E-13
 -1      1897 2.00285E+01 1.23577E-02-3.83437E-04-3.40393E-02-1.16740E-13-1.05103E-13
 -1      1898 2.00054E+01 5.40517E-03 4.20167E-04-1.32236E-02-3.02935E-14-2.14553E-13
 -1      1899 2.00001E+01 4.42445E-03 1.85398E-04-1.02713E-02 1.28125E-14-1.64039E-13
 -1      1900 2.00132E+01 8.82397E-03-2.91022E-04-2.12418E-02-1.35402E-14 9.94263E-14
 -1      1901 1.99961E+01 3.69913E-03 2.94612E-04-6.94765E-03 2.67816E-14-9.29556E-14
 -1      1902 1.99931E+01 2.96726E-03 1.37320E-04-4.93773E-03 8.40929E-14-5.44324E-14
 -1      1903 2.00031E+01 6.09975E-03-2.16204E-04-1.20996E-02 7.97754E-14 8.22328E-14
 -1      1904 1.99907E+01 2.42501E-03 1.99071E-04-2.69207E-03 4.53426E-14-1.34722E-13
 -1      1905 1.99893E+01 1.89286E-03 9.93937E-05-1.38346E-03 5.59093E-15-1.75826E-13
 -1      1906 1.99968E+01 4.05100E-03-1.56938E-04-5.77183E-03 2.26180E-15 1.99279E-14
 -1      1907 1.99880E+01 1.49749E-03 1.28162E-04 6.43344E-05 1.35687E-14-2.51155E-13
 -1      1908 1.99877E+01 1.12152E-03 7.01100E-05 8.64313E-04 2.47419E-14-2.65603E-13
 -1      1909 1.99932E+01 2.54865E-03-1.10959E-04-1.55996E-03-4.45730E-14-4.96489E-14
 -1      1910 1.99872E+01 8.41068E-04 7.68966E-05 1.73662E-03-5.23612E-14-2.80844E-13
 -1      1911 1.99876E+01 5.84346E-04 4.79757E-05 2.17816E-03-6.70814E-14-3.16545E-13
 -1      1912 1.99914E+01 1.47673E-03-7.60147E-05 1.09984E-03-3.39657E-14-3.68115E-14
 -1      1913 1.99875E+01 3.91732E-04 4.09033E-05 2.64735E-03 1.64052E-14-2.62393E-13
 -1      1914 1.99883E+01 2.23890E-04 3.16052E-05 2.84479E-03 6.59835E-15-1.41627E-13
 -1      1915 1.99909E+01 7.35766E-04-5.00150E-05 2.65122E-03 4.25916E-14-1.12201E-13
 -1      1916 1.99886E+01 9.68450E-05 1.64993E-05 3.04137E-03-1.35072E-13-1.31735E-13
 -1      1917 1.99895E+01-6.44305E-06 1.97665E-05 3.07965E-03-2.43975E-13-1.84913E-13
 -1      1918 1.99912E+01 2.43303E-04-3.11028E-05 3.43507E-03-8.02545E-14-6.79255E-14
 -1      1919 1.99899E+01-8.58065E-05 6.76274E-07 3.10006E-03-2.62450E-13-1.14921E-13
 -1      1920 1.99909E+01-1.43640E-04 1.13939E-05 3.04065E-03-2.84730E-13-1.27079E-13
 -1      1921 1.99920E+01-6.72430E-05-1.76860E-05 3.70729E-03-2.75552E-13-2.31472E-14
 -1      1922 1.99915E+01-1.89433E-04-8.96146E-06 2.95415E-03-2.73953E-13-1.48010E-13
 -1      1923 1.99924E+01-2.16590E-04 5.58054E-06 2.84005E-03-8.03537E-15-9.77982E-14
 -1      1924 1.99930E+01-2.48537E-04-8.43603E-06 3.65508E-03-2.52476E-13 2.94280E-13
 -1      1925 1.99930E+01-2.39820E-04-1.42787E-05 2.69460E-03 1.59738E-13-1.65479E-13
 -1      1926 1.99939E+01-2.47658E-04 1.55829E-06 2.55446E-03 3.48015E-13-2.16352E-13
 -1      1927 1.99941E+01-3.41620E-04-2.27114E-06 3.41115E-03 3.31651E-14 3.55504E-13
 -1      1928 1.99944E+01-2.56908E-04-1.66920E-05 2.38145E-03 4.96518E-13-3.70488E-13
 -1      1929 1.99952E+01-2.54230E-04-1.32104E-06 2.23280E-03 2.86587E-13-5.97561E-14
 -1      1930 1.99952E+01-3.78277E-04 1.66693E-06 3.06568E-03 2.97760E-13 2.50120E-14
 -1      1931 1.99957E+01-2.56302E-04-1.72360E-05 2.05075E-03 1.96970E-13 8.77002E-16
 -1      1932 1.99964E+01-2.50104E-04-3.57563E-06 1.90234E-03 2.71582E-13 1.12118E-13
 -1      1933 1.99962E+01-3.83302E-04 4.03941E-06 2.67571E-03 3.92950E-13-7.04497E-14
 -1      1934 1.99968E+01-2.50547E-04-1.65893E-05 1.71972E-03 1.40230E-13 1.96997E-13
 -1      1935 1.99974E+01-2.46569E-04-5.53312E-06 1.57325E-03 2.24886E-13 1.31748E-13
 -1      1936 1.99971E+01-3.76454E-04 5.34812E-06 2.27258E-03 1.66241E-13 1.07924E-13
 -1      1937 1.99978E+01-2.49979E-04-1.50755E-05 1.39085E-03 6.19040E-14-1.26330E-14
 -1      1938 1.99982E+01-2.52828E-04-7.18799E-06 1.24241E-03-7.78995E-14-1.35952E-13
 -1      1939 1.99979E+01-3.73824E-04 5.91858E-06 1.86779E-03 2.17902E-14 2.07116E-14
 -1      1940 1.99985E+01-2.62424E-04-1.26691E-05 1.05604E-03-4.33280E-14-2.10685E-13
 -1      1941 1.99989E+01-2.73115E-04-8.23451E-06 8.98207E-04-6.45785E-15-1.56835E-13
 -1      1942 1.99985E+01-3.87674E-04 5.58429E-06 1.45877E-03-3.88232E-14-7.20765E-14
 -1      1943 1.99991E+01-2.78702E-04-1.01135E-05 7.13747E-04 1.44513E-13-1.46189E-13
 -1      1944 1.99994E+01-2.89278E-04-9.55395E-06 5.49061E-04 1.40013E-13-8.40504E-14
 -1      1945 1.99994E+01-4.01600E-04 5.13267E-06 6.48303E-04-1.99594E-14-1.37712E-13
 -1      1946 1.99990E+01-4.05853E-04 7.83115E-06 1.04833E-03 7.34987E-14 1.60446E-13
 -1      1947 2.52717E+01-6.66480E-02-3.81262E-03-3.20883E-01 1.19279E-13 7.29049E-13
 -1      1948 2.52747E+01 4.76342E-02 1.28398E-02-2.59682E-01 1.28917E-13 7.92477E-13
 -1      1949 2.49090E+01 1.30020E-01-8.98910E-03-2.31689E-01 1.64091E-13 6.08767E-13
 -1      1950 2.53904E+01-3.06743E-01-1.05369E-02-4.80653E-02 6.21092E-14 6.77107E-13
 -1      1951 2.53846E+01-2.05438E-01 6.83171E-03-1.94071E-01 7.96568E-14 6.98290E-13
 -1      1952 2.50299E+01-2.46046E-01-5.32386E-03-2.51727E-01 9.95263E-14 5.62706E-13
 -1      1953 2.53390E+01-4.98748E-01-1.03890E-02 6.15327E-01-1.22263E-14 6.99831E-13
 -1      1954 2.54825E+01-4.38212E-01-9.69009E-04 2.76855E-01 6.52429E-15 6.68448E-13
 -1      1955 2.52348E+01-5.71719E-01 1.46290E-03 2.29594E-01 1.91843E-14 5.13132E-13
 -1      1956 2.49007E+01-4.92315E-01-5.00999E-04 1.48672E+00-8.63450E-14 7.20944E-13
 -1      1957 2.52886E+01-5.46733E-01-6.31010E-03 1.04723E+00-6.15393E-14 7.02455E-13
 -1      1958 2.52942E+01-7.36078E-01 1.09276E-02 1.10646E+00-6.56905E-14 5.09343E-13
 -1      1959 2.39938E+01-1.23542E-01 5.74491E-03 2.08904E+00 3.31709E-14 7.04301E-13
 -1      1960 2.46071E+01-3.43491E-01-1.18475E-02 1.79043E+00-4.23871E-14 7.14775E-13
 -1      1961 2.49843E+01-4.99758E-01 1.40453E-02 2.03173E+00-4.89834E-14 5.53309E-13
 -1      1962 2.28623E+01 5.27653E-01-9.19690E-03 1.80698E+00 1.87246E-13 6.42486E-13
 -1      1963 2.35216E+01 2.33681E-01-1.49703E-02 1.94697E+00 1.02727E-13 6.87096E-13
 -1      1964 2.42520E+01 2.25348E-01-5.46279E-03 2.34950E+00 1.20633E-13 5.19123E-13
 -1      1965 2.21379E+01 9.93566E-01-4.03745E-02 4.64093E-01 2.81695E-13 4.83899E-13
 -1      1966 2.25259E+01 8.67742E-01-1.07676E-02 1.10022E+00 2.82857E-13 5.96917E-13
 -1      1967 2.34446E+01 1.09163E+00-3.54342E-02 1.48105E+00 3.11536E-13 4.61318E-13
 -1      1968 2.23912E+01 8.28641E-01-5.28644E-02-1.19974E+00 1.50928E-13 3.26211E-13
 -1      1969 2.22586E+01 1.00353E+00-4.03718E-03-4.43555E-01 1.99896E-13 3.81419E-13
 -1      1970 2.31855E+01 1.40382E+00-4.53878E-02-3.32042E-01 2.87922E-13 3.60198E-13
 -1      1971 2.34750E+01 1.96443E-01-2.57995E-02-2.12832E+00 1.26153E-13 2.28338E-13
 -1      1972 2.28801E+01 5.15602E-01-1.52365E-03-1.72051E+00 1.65746E-13 2.65149E-13
 -1      1973 2.37049E+01 8.67970E-01-2.42222E-02-1.95116E+00 1.99122E-13 1.70182E-13
 -1      1974 2.46538E+01-3.60079E-01 1.00372E-02-1.95005E+00 9.90184E-14 1.48642E-13
 -1      1975 2.39261E+01-1.47346E-01-8.08658E-03-2.01974E+00 1.27084E-13 1.73792E-13
 -1      1976 2.45445E+01-4.14479E-02 7.83609E-04-2.41776E+00 1.35216E-13 8.64118E-14
 -1      1977 2.53447E+01-5.55841E-01 2.55357E-02-1.10273E+00 1.01781E-13 3.53207E-14
 -1      1978 2.48072E+01-5.23687E-01-1.59547E-02-1.45097E+00 1.13805E-13 9.92192E-14
 -1      1979 2.51030E+01-6.73011E-01 2.25823E-03-1.78549E+00 1.49068E-13-5.25656E-14
 -1      1980 2.54226E+01-4.66983E-01 2.06397E-02-1.84647E-01 1.23786E-13 1.68771E-14
 -1      1981 2.52141E+01-5.44591E-01-1.86772E-02-5.63140E-01 8.24202E-14 3.67163E-14
 -1      1982 2.51679E+01-8.04566E-01-7.52599E-03-7.21102E-01 1.10098E-13-7.58582E-14
 -1      1983 2.50462E+01-2.80117E-01 9.55580E-03 4.70835E-01-1.75797E-14 8.81933E-14
 -1      1984 2.51343E+01-3.78765E-01-1.58620E-02 1.97191E-01 5.77594E-14 3.73538E-14
 -1      1985 2.48404E+01-6.07197E-01-1.15710E-02 2.14261E-01 8.03160E-14-5.53750E-14
 -1      1986 2.44239E+01-1.14774E-01 1.01327E-03 8.10076E-01-3.18764E-14 1.29704E-13
 -1      1987 2.47045E+01-1.89926E-01-1.03711E-02 6.64489E-01-3.86835E-14 1.37263E-13
 -1      1988 2.42962E+01-3.30927E-01-9.43018E-03 8.02632E-01-1.81834E-14 1.26427E-14
 -1      1989 2.37162E+01-7.29495E-03-3.13294E-03 9.09679E-01 1.21419E-13 1.05308E-13
 -1      1990 2.40854E+01-5.10098E-02-4.80815E-03 8.62547E-01 4.22509E-14 1.29148E-13
 -1      1991 2.36690E+01-1.10712E-01-5.50270E-03 1.06316E+00 6.29184E-14 1.17345E-13
 -1      1992 2.30229E+01 4.84464E-02-4.17363E-03 8.67299E-01 8.14468E-14 1.55592E-13
 -1      1993 2.34064E+01 2.89911E-02-4.86296E-04 8.79549E-01 1.12351E-13 1.30355E-13
 -1      1994 2.30415E+01 2.31585E-02-2.40916E-03 1.09815E+00 1.09145E-13 9.27713E-14
 -1      1995 2.23968E+01 6.98623E-02-3.71505E-03 7.58096E-01-9.43056E-14 1.70055E-13
 -1      1996 2.27517E+01 6.51951E-02 2.25148E-03 7.99129E-01-4.80492E-14 1.57077E-13
 -1      1997 2.24601E+01 8.74666E-02-7.08822E-04 1.00810E+00-4.71606E-15 8.23118E-14
 -1      1998 2.18601E+01 7.21949E-02-2.79807E-03 6.28517E-01-1.68161E-13 2.89293E-13
 -1      1999 2.21668E+01 7.51062E-02 3.62131E-03 6.79128E-01-4.97961E-14 2.32450E-13
 -1      2000 2.19482E+01 1.08128E-01-4.99973E-05 8.64343E-01-9.72594E-14 1.92077E-13
 -1      2001 2.14162E+01 6.55269E-02-1.90754E-03 5.03076E-01-1.75766E-13 3.40627E-13
 -1      2002 2.16696E+01 7.15702E-02 4.03155E-03 5.52942E-01-2.04034E-13 2.49211E-13
 -1      2003 2.15136E+01 1.05702E-01 4.67667E-05 7.09247E-01-2.25727E-13 2.32078E-13
 -1      2004 2.10588E+01 5.55967E-02-1.20282E-03 3.92580E-01 8.43073E-14 2.68096E-13
 -1      2005 2.12618E+01 6.23756E-02 3.87315E-03 4.37005E-01-2.84269E-14 3.54584E-13
 -1      2006 2.11552E+01 9.31328E-02-7.58046E-05 5.64469E-01-6.47735E-14 2.74485E-13
 -1      2007 2.07772E+01 4.53119E-02-6.98015E-04 3.00283E-01 4.06576E-15 1.76356E-13
 -1      2008 2.09360E+01 5.16889E-02 3.43519E-03 3.37715E-01 8.01533E-14 1.64879E-13
 -1      2009 2.08663E+01 7.75136E-02-2.34475E-04 4.39032E-01 1.54599E-13 1.47250E-13
 -1      2010 2.05594E+01 3.59627E-02-3.58119E-04 2.25725E-01-2.14326E-13 1.66935E-13
 -1      2011 2.06811E+01 4.14913E-02 2.89975E-03 2.56188E-01-1.43567E-13 1.70349E-13
 -1      2012 2.06380E+01 6.22849E-02-3.54618E-04 3.35086E-01-8.81571E-14 1.96875E-13
 -1      2013 2.03936E+01 2.79955E-02-1.40165E-04 1.66880E-01-7.41006E-14 1.72284E-13
 -1      2014 2.04854E+01 3.25758E-02 2.36758E-03 1.91087E-01-1.21544E-13 9.93522E-14
 -1      2015 2.04608E+01 4.88653E-02-4.19125E-04 2.51446E-01-1.05194E-13 1.79102E-13
 -1      2016 2.02695E+01 2.14531E-02-7.30755E-06 1.21256E-01 6.22861E-14 2.85248E-13
 -1      2017 2.03376E+01 2.51418E-02 1.88683E-03 1.40146E-01 6.71338E-15 2.44648E-13
 -1      2018 2.03254E+01 3.76518E-02-4.35257E-04 1.85564E-01-7.43058E-15 1.90388E-13
 -1      2019 2.01782E+01 1.62064E-02 6.83305E-05 8.64149E-02 9.16543E-14 2.97282E-13
 -1      2020 2.02278E+01 1.91196E-02 1.47529E-03 1.00933E-01 1.13149E-13 2.84736E-13
 -1      2021 2.02237E+01 2.85733E-02-4.17263E-04 1.34544E-01 8.87411E-14 3.19772E-13
 -1      2022 2.01122E+01 1.20696E-02 1.06622E-04 6.01857E-02-2.08542E-14 2.51353E-13
 -1      2023 2.01476E+01 1.43356E-02 1.13476E-03 7.11858E-02 5.48834E-15 2.89817E-13
 -1      2024 2.01486E+01 2.13753E-02-3.78809E-04 9.56199E-02 2.92150E-14 3.15799E-13
 -1      2025 2.00655E+01 8.85219E-03 1.21277E-04 4.07270E-02 1.31807E-13 2.31464E-13
 -1      2026 2.00903E+01 1.05916E-02 8.59591E-04 4.89430E-02 4.20688E-14 2.76840E-13
 -1      2027 2.00942E+01 1.57561E-02-3.30499E-04 6.63507E-02 7.40764E-14 3.83295E-13
 -1      2028 2.00334E+01 6.38062E-03 1.21559E-04 2.65205E-02-1.90546E-14 3.82323E-13
 -1      2029 2.00502E+01 7.69885E-03 6.41209E-04 3.25627E-02 6.34206E-14 2.46386E-13
 -1      2030 2.00555E+01 1.14259E-02-2.79626E-04 4.46696E-02 8.38964E-14 4.79965E-13
 -1      2031 2.00120E+01 4.50544E-03 1.13623E-04 1.63374E-02-3.04543E-13 2.91415E-13
 -1      2032 2.00230E+01 5.49121E-03 4.70511E-04 2.07037E-02-1.90078E-13 2.93876E-13
 -1      2033 2.00288E+01 8.12975E-03-2.30740E-04 2.88727E-02-1.20761E-13 3.56947E-13
 -1      2034 1.99984E+01 3.10152E-03 1.01489E-04 9.19685E-03-1.04098E-13 2.25190E-13
 -1      2035 2.00052E+01 3.82784E-03 3.38941E-04 1.22877E-02-1.90287E-13 2.12029E-13
 -1      2036 2.00109E+01 5.65237E-03-1.86376E-04 1.75804E-02-1.89577E-13 1.76790E-13
 -1      2037 1.99903E+01 2.06597E-03 8.77239E-05 4.32550E-03-1.77372E-13 3.71652E-13
 -1      2038 1.99942E+01 2.59208E-03 2.38926E-04 6.45882E-03-1.52251E-13 2.41597E-13
 -1      2039 1.99995E+01 3.81612E-03-1.47693E-04 9.69078E-03-1.33839E-13 6.53020E-14
 -1      2040 1.99861E+01 1.31521E-03 7.39100E-05 1.12008E-03-1.29516E-13 4.82124E-13
 -1      2041 1.99879E+01 1.68865E-03 1.64001E-04 2.54541E-03-1.27484E-13 5.48857E-13
 -1      2042 1.99927E+01 2.47664E-03-1.14971E-04 4.33468E-03-2.44537E-13 3.14503E-13
 -1      2043 1.99845E+01 7.82049E-04 6.09708E-05-8.84504E-04 3.88115E-13 4.05233E-13
 -1      2044 1.99850E+01 1.04055E-03 1.08762E-04 2.64879E-05 1.20445E-13 4.31492E-13
 -1      2045 1.99890E+01 1.51785E-03-8.79632E-05 8.34346E-04 1.52675E-13 4.66297E-13
 -1      2046 1.99845E+01 4.12979E-04 4.93908E-05-2.04239E-03 2.46414E-13 3.92952E-13
 -1      2047 1.99841E+01 5.86229E-04 6.87724E-05-1.49732E-03 3.39133E-13 4.73928E-13
 -1      2048 1.99875E+01 8.47232E-04-6.61357E-05-1.33234E-03 3.85033E-13 6.56295E-13
 -1      2049 1.99855E+01 1.65791E-04 3.93670E-05-2.61950E-03-2.40104E-13 6.27542E-13
 -1      2050 1.99847E+01 2.76886E-04 4.04371E-05-2.32816E-03-1.73411E-14 4.82070E-13
 -1      2051 1.99875E+01 3.91778E-04-4.88272E-05-2.56235E-03 1.04194E-14 7.21673E-13
 -1      2052 1.99871E+01 7.52448E-06 3.09122E-05-2.81233E-03-1.77422E-13 5.83145E-13
 -1      2053 1.99860E+01 7.42429E-05 2.08762E-05-2.69123E-03-1.77602E-13 5.35628E-13
 -1      2054 1.99883E+01 9.43652E-05-3.53459E-05-3.15315E-03-1.77877E-13 6.93798E-13
 -1      2055 1.99889E+01-8.73196E-05 2.39239E-05-2.76326E-03-4.37225E-14 4.10824E-13
 -1      2056 1.99878E+01-5.14404E-05 7.80908E-06-2.75143E-03-1.65870E-13 3.57369E-13
 -1      2057 1.99895E+01-8.92573E-05-2.50276E-05-3.32387E-03-6.72523E-14 3.52425E-13
 -1      2058 1.99908E+01-1.38304E-04 1.82287E-05-2.57288E-03 1.00766E-14 4.54898E-13
 -1      2059 1.99896E+01-1.23065E-04-5.52450E-07-2.62685E-03 3.73387E-14 4.94856E-13
 -1      2060 1.99910E+01-1.93061E-04-1.72674E-05-3.23261E-03-5.38200E-14 2.52967E-13
 -1      2061 1.99925E+01-1.60373E-04 1.36100E-05-2.30980E-03 7.39047E-15 3.59310E-13
 -1      2062 1.99915E+01-1.58149E-04-5.59781E-06-2.39962E-03-3.02038E-14 3.35781E-13
 -1      2063 1.99925E+01-2.42943E-04-1.15328E-05-2.99027E-03 4.63439E-14 1.84769E-13
 -1      2064 1.99941E+01-1.65014E-04 9.82415E-06-2.01807E-03-2.18192E-13 4.90639E-13
 -1      2065 1.99932E+01-1.70095E-04-8.39821E-06-2.12429E-03-4.07121E-14 3.98905E-13
 -1      2066 1.99939E+01-2.58617E-04-7.36783E-06-2.67160E-03-9.44813E-14 3.78491E-13
 -1      2067 1.99956E+01-1.61302E-04 6.62798E-06-1.72287E-03 1.43341E-13 4.31592E-13
 -1      2068 1.99947E+01-1.69322E-04-9.76177E-06-1.83424E-03-1.62923E-14 4.96797E-13
 -1      2069 1.99952E+01-2.55298E-04-4.38768E-06-2.32350E-03 4.24568E-14 5.21412E-13
 -1      2070 1.99968E+01-1.56773E-04 3.82557E-06-1.43431E-03 9.64023E-14 1.62946E-13
 -1      2071 1.99961E+01-1.64257E-04-1.02694E-05-1.54632E-03 2.00409E-13 2.95431E-13
 -1      2072 1.99964E+01-2.45108E-04-2.24809E-06-1.97127E-03 2.41781E-13 1.90290E-13
 -1      2073 1.99978E+01-1.57754E-04 1.48639E-06-1.15011E-03 2.81540E-13 1.33763E-14
 -1      2074 1.99972E+01-1.62054E-04-1.02427E-05-1.26411E-03 1.02751E-13 1.40167E-13
 -1      2075 1.99974E+01-2.38208E-04-6.31617E-07-1.62310E-03 1.30832E-13 2.12544E-13
 -1      2076 1.99986E+01-1.68709E-04-6.11205E-08-8.59497E-04 1.91970E-13 1.22796E-13
 -1      2077 1.99982E+01-1.67954E-04-9.56356E-06-9.81063E-04 2.28571E-13 1.52579E-13
 -1      2078 1.99982E+01-2.41824E-04 1.03233E-06-1.27399E-03 2.23127E-13 1.12253E-13
 -1      2079 1.99992E+01-1.91432E-04-3.12493E-06-5.49589E-04 1.08185E-13 2.86266E-13
 -1      2080 1.99989E+01-1.83604E-04-7.57555E-06-6.85696E-04 1.97462E-13 2.61297E-13
 -1      2081 1.99989E+01-2.61380E-04 2.18841E-06-9.13300E-04 1.15361E-13 4.34249E-13
 -1      2082 1.99995E+01-2.06869E-04-6.46816E-06-3.04781E-04 2.28082E-14 5.89919E-13
 -1      2083 1.99993E+01-2.08553E-04-5.54912E-06-4.48038E-04-2.15261E-14 4.72904E-13
 -1      2084 1.99993E+01-2.91460E-04 2.89333E-06-6.14565E-04-2.04374E-14 8.50511E-13
 -1      2085 1.99996E+01-3.08850E-04 3.19359E-07-3.88056E-04 1.33491E-14 9.00551E-13
 -1      2086 1.99998E+01-1.79018E-03 3.67727E-06-9.79429E-04 1.42859E-13-3.01644E-13
 -1      2087 1.99997E+01-1.47721E-03-4.75396E-06-9.61990E-04 4.99619E-14 9.72242E-14
 -1      2088 1.99997E+01-1.20198E-03 9.35440E-07-9.04226E-04 4.69106E-15 1.83999E-13
 -1      2089 1.99996E+01-9.16670E-04-6.66678E-06-8.14578E-04 1.22503E-13 3.25419E-13
 -1      2090 1.99997E+01-1.31407E-03-1.01771E-07-1.18855E-03-3.99696E-15 1.59834E-13
 -1      2091 1.99996E+01-7.15695E-04-1.22138E-06-6.87241E-04 9.12861E-14 4.08423E-13
 -1      2092 1.99996E+01-4.86850E-04-6.19889E-06-5.46754E-04 6.66622E-14 6.91754E-13
 -1      2093 1.99995E+01-4.84285E-04-4.32525E-06-6.69584E-04-8.22408E-14 8.13028E-13
 -1      2094 1.99995E+01-8.50488E-04 2.10649E-06-9.77129E-04-1.22409E-13 3.48784E-13
 -1      2095 1.99999E+01-2.34542E-03 6.57768E-06-9.10727E-04-1.66871E-13-5.70350E-13
 -1      2096 1.99999E+01-2.05003E-03-2.18991E-07-9.55756E-04 1.04260E-13-5.80652E-13
 -1      2097 1.99998E+01-1.84537E-03-2.74308E-06-1.22194E-03-2.05076E-14-5.10657E-13
 -1      2098 2.00000E+01-2.82055E-03 9.08657E-06-7.17475E-04 1.11814E-13-4.07440E-14
 -1      2099 2.00000E+01-2.57344E-03 4.07164E-06-8.14624E-04 7.84554E-14-2.97939E-14
 -1      2100 2.00000E+01-2.33323E-03-5.57619E-06-1.08587E-03 3.57009E-14-2.04322E-13
 -1      2101 2.00000E+01-3.14841E-03 1.06317E-05-4.32690E-04-1.31137E-14-3.16069E-13
 -1      2102 2.00000E+01-2.98698E-03 7.66387E-06-5.65693E-04 3.22309E-14-6.99742E-14
 -1      2103 2.00001E+01-2.72844E-03-7.94687E-06-8.06435E-04 1.99955E-13-1.14530E-13
 -1      2104 2.00001E+01-3.29102E-03 1.09737E-05-9.52580E-05-2.82388E-13-6.00186E-13
 -1      2105 2.00001E+01-3.23568E-03 1.00238E-05-2.46452E-04-2.92925E-14-5.50122E-13
 -1      2106 2.00002E+01-2.98309E-03-9.42653E-06-4.26547E-04 3.98701E-14-4.72203E-13
 -1      2107 2.00001E+01-3.23228E-03 9.98803E-06 2.53361E-04-5.39293E-13-4.09553E-13
 -1      2108 2.00001E+01-3.28992E-03 1.09962E-05 1.02422E-04-3.44401E-13-3.08953E-13
 -1      2109 2.00002E+01-3.06962E-03-9.91160E-06 4.58031E-06-4.67858E-13-5.30211E-13
 -1      2110 2.00000E+01-2.97950E-03 7.70417E-06 5.71238E-04-4.52812E-13-3.06018E-13
 -1      2111 2.00000E+01-3.14305E-03 1.05536E-05 4.39009E-04-4.38275E-13-3.95475E-13
 -1      2112 2.00002E+01-2.97888E-03-9.34933E-06 4.35013E-04-4.81234E-13-3.96198E-13
 -1      2113 1.99999E+01-2.57131E-03 4.09841E-06 8.14620E-04-3.39264E-13 2.53961E-13
 -1      2114 2.00000E+01-2.81505E-03 9.00826E-06 7.19768E-04-3.08983E-13-9.69770E-14
 -1      2115 2.00001E+01-2.72362E-03-7.95742E-06 8.10387E-04-2.36465E-13-1.43576E-13
 -1      2116 1.99999E+01-2.04285E-03-3.36646E-07 9.55697E-04-1.58280E-13 5.05247E-13
 -1      2117 1.99999E+01-2.34343E-03 6.56757E-06 9.10624E-04-2.70574E-13 6.06512E-13
 -1      2118 2.00000E+01-2.33057E-03-5.48974E-06 1.08592E-03-6.01820E-14 3.52053E-13
 -1      2119 1.99997E+01-1.46500E-03-4.77672E-06 9.60056E-04 1.38955E-13 1.90837E-13
 -1      2120 1.99998E+01-1.77824E-03 3.70025E-06 9.78739E-04 2.06256E-14 2.13051E-13
 -1      2121 1.99998E+01-1.83804E-03-2.47353E-06 1.22149E-03-4.34588E-14 5.19439E-13
 -1      2122 1.99996E+01-8.94819E-04-2.98804E-06 8.14647E-04-7.49500E-14 9.88142E-14
 -1      2123 1.99997E+01-1.19083E-03 1.37404E-06 9.00747E-04 4.85253E-14 1.50936E-13
 -1      2124 1.99997E+01-1.30435E-03-2.61858E-08 1.18384E-03 1.25588E-13 1.61800E-13
 -1      2125 1.06412E+01-5.36943E+00-1.41312E-01 6.28222E+00 5.83533E-13 4.50050E-13
 -1      2126 7.19472E+00-6.29596E+00-2.43466E-01 5.34583E+00 4.38316E-13 3.65374E-13
 -1      2127 4.52706E-01-6.70111E+00-3.39909E-01 3.83606E-01 4.26534E-13 5.97855E-13
 -1      2128 4.61289E-01-6.87639E+00-3.75647E-01-1.13034E+00 2.53408E-13 6.94556E-13
 -1      2129 3.10455E+00-6.13557E+00-3.04581E-01 3.69508E+00 4.03066E-13 5.37348E-13
 -1      2130 1.13482E+00-7.17954E+00-4.59346E-01 1.95862E+00 4.15251E-13 5.92026E-13
 -1      2131 2.10733E+00-4.44565E+00-1.46920E-01 1.44853E+00 1.66700E-13 6.28830E-13
 -1      2132 1.90502E+01-3.51434E+00-3.34966E-02 6.73140E+00 6.74349E-13 5.66824E-13
 -1      2133 1.43387E+01-5.37134E+00-3.38791E-01 5.97725E+00 5.88973E-13 5.57887E-13
 -1      2134 2.78841E+01-1.78862E+00-3.68639E-02 4.98029E+00 6.54587E-13 1.78135E-13
 -1      2135 2.28394E+01-2.94433E+00-1.74233E-01 5.57865E+00 7.17204E-13 4.28102E-13
 -1      2136 2.32038E+01-4.72187E+00 5.78567E-02 5.43295E+00 3.95239E-13 1.58262E-13
 -1      2137 2.01922E+01 3.63217E+00-2.86247E-02-7.68359E-01-2.22617E-14-4.45113E-13
 -1      2138 2.07418E+01 3.62405E+00-2.63416E-02-1.12851E+00-6.49446E-14-4.33788E-13
 -1      2139 2.13438E+01 2.80815E+00-1.49410E-02-1.20574E+00-9.35502E-14-3.90056E-13
 -1      2140 2.02155E+01 3.04050E+00-1.84415E-02-5.48274E-01-1.12670E-15-4.19843E-13
 -1      2141 4.06994E+01 5.51756E+00 4.41283E-01 1.79795E+00 7.84817E-13-2.02505E-13
 -1      2142 3.77405E+01 4.40831E+00 2.31108E-01 2.64952E+00 8.27616E-13 2.73115E-14
 -1      2143 4.02993E+01 7.30680E+00 2.49738E-01-1.14547E-01 7.29417E-13-2.95354E-13
 -1      2144 4.14353E+01 6.79275E+00 5.18133E-01 1.04268E+00 7.37466E-13-2.52021E-13
 -1      2145 3.71745E+01 6.58417E+00 3.61764E-01-2.74151E-01 8.75966E-13-1.96843E-13
 -1      2146 4.04297E+01 6.35762E+00 4.23199E-01-1.17795E+00 6.98053E-13-5.55112E-13
 -1      2147 4.02553E+01 7.06794E+00 2.56090E-01-5.47188E-02 6.78568E-13-3.67456E-13
 -1      2148 3.62721E+01 3.47510E+00 1.62246E-01-2.80097E+00 5.16726E-13-6.87561E-13
 -1      2149 3.92073E+01 4.72019E+00 3.32944E-01-1.87400E+00 6.07542E-13-5.41789E-13
 -1      2150 2.98910E+01 2.91384E-02-4.51346E-02-4.11963E+00 3.92020E-13-7.17537E-13
 -1      2151 3.46912E+01 1.89504E+00 3.05716E-01-4.05842E+00 4.53082E-13-7.92588E-13
 -1      2152 3.43494E+01 1.92704E+00 2.45940E-01-7.27677E-01 2.93501E-13-2.60347E-13
 -1      2153 2.07319E+01-3.37426E+00-2.43316E-01-5.75052E+00 3.71925E-13-7.50122E-13
 -1      2154 2.61170E+01-1.78033E+00 5.90850E-02-5.86561E+00 3.79030E-13-7.67386E-13
 -1      2155 1.29367E+01-5.27222E+00-2.74687E-01-5.98220E+00 1.82188E-13-6.69326E-13
 -1      2156 1.72137E+01-3.77802E+00-6.92897E-02-6.66728E+00 3.61600E-13-7.70356E-13
 -1      2157 2.15956E+01-4.83927E+00-7.02188E-03-5.69763E+00 1.47660E-14-5.36682E-13
 -1      2158 4.79094E+00-6.00969E+00-3.71175E-01-4.18916E+00 6.02851E-14-6.63719E-13
 -1      2159 8.34084E+00-4.72914E+00-1.29426E-01-5.84108E+00 1.71807E-13-7.21395E-13
 -1      2160 9.30568E-01-6.07685E+00-3.70397E-01-1.51098E+00-5.54973E-14-5.93248E-13
 -1      2161 2.42987E+00-5.58809E+00-2.65127E-01-3.02845E+00 1.13798E-13-6.37990E-13
 -1      2162 5.60278E+00-3.82041E+00-8.72674E-02-4.58810E+00-1.18794E-14-7.03271E-13
 -1      2163 1.10069E+00-5.11901E+00-2.30025E-01 2.11347E+00-1.81855E-13-5.61107E-13
 -1      2164 4.31556E-01-5.88875E+00-3.52341E-01 4.46660E-01-3.53814E-14-5.89917E-13
 -1      2165 4.97179E+00-5.23063E+00-2.88733E-01 5.04394E+00-4.22440E-13-5.70044E-13
 -1      2166 2.67973E+00-5.91635E+00-3.72606E-01 3.86246E+00-2.38420E-13-5.00211E-13
 -1      2167 1.17955E+01-3.78081E+00-1.48286E-01 6.78625E+00-5.14921E-13-6.05752E-13
 -1      2168 8.05486E+00-5.39020E+00-4.11472E-01 5.64548E+00-4.23550E-13-5.66415E-13
 -1      2169 2.09419E+01-2.34532E+00-1.41948E-02 6.92797E+00-5.24858E-13-4.27214E-13
 -1      2170 1.59741E+01-3.84178E+00-2.82950E-01 6.42395E+00-5.07594E-13-5.09814E-13
 -1      2171 2.93456E+01-3.75583E-02-3.61447E-03 4.64540E+00-5.61107E-13-2.77500E-13
 -1      2172 2.48262E+01-1.42448E+00-1.23862E-01 5.34339E+00-5.78149E-13-3.78642E-13
 -1      2173 3.63596E+01 4.23348E+00 3.39221E-01 3.10868E+00-6.60791E-13-2.36255E-13
 -1      2174 3.25380E+01 2.53149E+00 9.83423E-02 3.45666E+00-6.65634E-13-2.78833E-13
 -1      2175 3.91080E+01 6.63807E+00 2.93990E-01 9.19916E-01-6.54810E-13-4.88776E-14
 -1      2176 3.71318E+01 5.65348E+00 1.56059E-01 1.82337E+00-6.81483E-13-1.89071E-13
 -1      2177 4.09060E+01 7.23194E+00 4.02793E-01-6.59920E-01-6.52811E-13 1.36557E-13
 -1      2178 3.99035E+01 7.33897E+00 2.49349E-01 5.46949E-01-6.63469E-13-6.63358E-15
 -1      2179 3.81570E+01 6.24272E+00 2.20228E-01-1.98673E+00-6.33715E-13 2.90823E-13
 -1      2180 4.06827E+01 6.75961E+00 4.30425E-01-1.19212E+00-6.30385E-13 1.89848E-13
 -1      2181 3.65538E+01 8.02882E+00 3.46492E-01-6.47921E-02-6.74349E-13 1.08663E-14
 -1      2182 3.40145E+01 3.31082E+00 1.46408E-01-3.99944E+00-5.53328E-13 4.83280E-13
 -1      2183 3.68741E+01 4.49828E+00 2.72582E-01-2.91013E+00-5.45480E-13 3.54161E-13
 -1      2184 2.79827E+01 5.97145E-01-2.54129E-02-5.49911E+00-6.32605E-13 5.41789E-13
 -1      2185 3.23889E+01 2.13148E+00 2.87242E-01-5.30442E+00-5.91610E-13 5.26579E-13
 -1      2186 3.26377E+01 1.78289E+00 2.39453E-01-2.21139E+00-4.31065E-13 1.89015E-13
 -1      2187 2.06480E+01-2.96267E+00-1.77124E-01-6.18280E+00-4.52638E-13 4.88831E-13
 -1      2188 2.51269E+01-8.97921E-01 1.62887E-01-6.62053E+00-5.62217E-13 5.31408E-13
 -1      2189 1.23138E+01-5.35067E+00-3.16191E-01-6.36352E+00-1.05915E-13 7.21978E-13
 -1      2190 1.66584E+01-3.77144E+00-2.37849E-02-7.18383E+00-2.89435E-13 5.82312E-13
 -1      2191 6.15619E+00-6.43293E+00-3.48874E-01-5.32016E+00 1.31561E-13 1.01816E-12
 -1      2192 9.24455E+00-5.16152E+00-1.49705E-01-6.36809E+00-1.00364E-13 9.55215E-13
 -1      2193 1.33269E+01-5.38424E+00-4.99806E-02-7.14226E+00 1.94178E-13 6.98407E-13
 -1      2194 1.22031E+00-7.16918E+00-4.21961E-01-2.50329E+00 2.71283E-13 7.92033E-13
 -1      2195 2.79683E+00-6.16100E+00-2.87468E-01-3.96871E+00 8.55982E-14 9.90985E-13
 -1      2196 2.10615E+00-4.45875E+00-1.78943E-01-2.21721E+00 1.79384E-13 8.66973E-13
 -1      2197 3.63013E+01 2.83285E+00 4.32895E-01 3.59336E+00 8.03782E-13 7.03881E-14
 -1      2198 3.17615E+01 7.18702E-01 7.41950E-02 3.42174E+00 8.18831E-13 9.23706E-14
 -1      2199 3.52115E+01 3.00309E+00 2.19623E-01 4.17242E-01 8.22009E-13-1.38001E-13
 -1      2200 3.02368E+01-1.29003E+00 8.44985E-02 3.12724E+00 6.20615E-13 4.03011E-14
 -1      2201 2.87456E+01-3.21260E+00 1.14842E-01 2.69059E+00 4.03927E-13-1.17462E-13
 -1      2202 3.13356E+01-1.25222E+00-1.34870E-01 8.07051E-01 5.85643E-13-1.86462E-13
 -1      2203 2.34392E+01 9.31947E-01-2.94610E-02-1.35758E+00-2.17500E-13-1.32980E-13
 -1      2204 2.91804E+01-2.30715E+00 1.00787E-01-3.30934E+00 1.36835E-13-4.27325E-13
 -1      2205 2.31357E+01 1.04684E+00-1.89489E-02-1.44247E+00-2.15154E-13-1.90310E-13
 -1      2206 6.35297E+00-5.41395E+00-1.41050E-01 5.00131E+00 2.33091E-13 3.91048E-13
 -1      2207 6.01626E+00-3.70054E+00 9.91199E-02 4.65347E+00-4.13003E-14 3.67595E-13
 -1      2208 9.78793E+00-4.61293E+00-5.27702E-02 6.12995E+00-6.33382E-14 2.34285E-13
 -1      2209 1.50513E+01-5.81890E+00-1.17569E-01 6.60384E+00 2.12164E-13 3.89851E-13
 -1      2210 1.99996E+01-7.25527E-04-4.41612E-06 7.83084E-04-1.36499E-13-1.34678E-13
 -1      2211 6.24595E+00-5.07150E+00-1.27381E-01-5.60235E+00 2.09555E-13 1.05504E-12
 -1      2212 2.79898E+01-1.78627E+00 9.62667E-02-4.27378E+00-2.94681E-13 2.28761E-13
 -1      2213 3.53911E+01 5.38497E+00 2.65290E-01-5.93745E-01-5.68046E-13 8.21010E-14
 -1      2214 3.59197E+01 7.66345E+00 2.46642E-01-2.40149E-01-7.17260E-13-1.71252E-14
 -1      2215 3.44436E+01 4.87343E+00 2.13743E-01 3.49659E-01-6.45650E-13-9.04832E-14
 -1      2216 3.07945E+01 5.13905E-01 8.22187E-02 2.85101E+00-5.25163E-13-1.91180E-13
 -1      2217 2.91778E+01-1.39054E+00 1.13187E-01 2.10942E+00-3.58158E-13-1.20459E-14
 -1      2218 3.10323E+01 6.17008E-01-1.93879E-01 7.34326E-01-4.80324E-13-8.32667E-15
 -1      2219 2.46573E+01-3.28226E+00 1.16657E-01 5.10709E+00-2.89185E-13-1.65978E-13
 -1      2220 1.64620E+01-4.45777E+00-2.51961E-03 6.99274E+00-1.73639E-13-3.89563E-13
 -1      2221 8.59158E+00-4.53993E+00-1.46321E-01 6.42006E+00-1.15574E-13-5.17197E-13
 -1      2222 2.15419E+00-3.22496E+00-1.31695E-01-8.64251E-01 1.70905E-14-6.71130E-13
 -1      2223 1.28355E+01-5.01410E+00-8.24326E-02-6.38559E+00-2.65343E-14-6.53672E-13
 -1      2224 3.47486E+01 7.24812E+00 2.64009E-02 3.75547E-01 6.38267E-13 9.27036E-14
 -1      2225 3.83350E+01 7.45133E+00 3.00687E-01 3.04927E-02 6.94222E-13-1.64015E-13
 -1      2226 3.47162E+01 7.46904E+00 5.52708E-03-4.93906E-02 7.26585E-13 4.15848E-14
 -1      2227 3.66321E+01 5.67224E+00 3.19111E-01 3.68175E-01 5.66269E-13-1.57097E-13
 -1      2228 3.21817E+00-3.71279E+00-1.52128E-01 3.53419E+00-4.55191E-15-5.78815E-13
 -1      2229 2.08138E+01-4.66233E+00 1.09981E-03-6.33091E+00-7.88258E-15 3.49276E-13
 -1      2230 2.42919E+01 1.38108E-01-7.83956E-03-3.70447E-01 1.57261E-13 4.41373E-13
 -1      2231 2.43145E+01 4.61193E-01 2.45121E-02-1.94274E-01 1.99358E-13 4.74861E-13
 -1      2232 1.75298E+01 3.20578E+00-1.83016E-02 9.28544E-01 1.81078E-13-3.74739E-13
 -1      2233 1.82646E+01 3.04275E+00 8.00812E-03 7.11347E-01 1.50642E-13-3.87821E-13
 -1      2234 1.89624E+01 2.77308E+00-1.41925E-02 4.08280E-01 1.15941E-13-3.86419E-13
 -1      2235 1.96305E+01 2.64042E+00-3.71448E-03 9.92745E-02 6.49934E-14-3.89235E-13
 -1      2236 1.88372E+01 2.34225E+00-1.50110E-02 7.46733E-01 1.43779E-13-3.50904E-13
 -1      2237 1.51294E+01 4.20715E+00-1.79017E-02 9.95323E-01 2.77212E-13-3.59193E-13
 -1      2238 1.55701E+01 4.07526E+00 1.31217E-02 1.07738E+00 2.58589E-13-3.66755E-13
 -1      2239 1.48633E+01 4.45182E+00-7.72840E-03 5.58981E-01 3.03770E-13-3.34372E-13
 -1      2240 1.48889E+01 4.40741E+00 2.05668E-03 7.33704E-01 2.86400E-13-3.53002E-13
 -1      2241 1.49047E+01 4.06794E+00 1.37032E-02 9.96969E-01 2.76559E-13-3.50483E-13
 -1      2242 1.55032E+01 4.35118E+00 4.13335E-03 8.64257E-02 3.28957E-13-2.93835E-13
 -1      2243 1.50695E+01 4.41140E+00-1.15741E-02 2.40830E-01 3.11662E-13-3.20372E-13
 -1      2244 1.48305E+01 4.21889E+00 1.83973E-02 3.80369E-01 3.04070E-13-3.16416E-13
 -1      2245 1.69724E+01 3.92399E+00 8.96666E-03-1.86588E-01 3.43678E-13-1.99715E-13
 -1      2246 1.61440E+01 4.08015E+00-2.23842E-02-1.42026E-01 3.28664E-13-2.55071E-13
 -1      2247 1.57396E+01 3.92831E+00 1.11576E-02-2.00544E-01 3.14585E-13-2.65259E-13
 -1      2248 1.89632E+01 3.29470E+00 2.02799E-03-1.26520E-01 3.34220E-13-7.84268E-14
 -1      2249 1.79164E+01 3.52496E+00-2.55447E-02-2.26496E-01 3.31189E-13-1.49115E-13
 -1      2250 1.74579E+01 3.30186E+00-3.04077E-03-4.73898E-01 3.17726E-13-1.81285E-13
 -1      2251 2.11718E+01 2.54868E+00-1.81661E-02 1.90465E-01 3.32172E-13 1.03166E-13
 -1      2252 2.00483E+01 2.86867E+00-2.44148E-02-6.08432E-03 3.30559E-13 1.98626E-15
 -1      2253 1.96303E+01 2.54536E+00-5.38694E-03-3.76750E-01 3.05733E-13-2.98086E-14
 -1      2254 2.45576E+01-4.76152E-01-1.86367E-02-3.44399E-01 9.24265E-14 4.13301E-13
 -1      2255 2.45036E+01-1.63977E-01 2.82979E-02-4.49427E-01 1.03720E-13 4.24004E-13
 -1      2256 2.37202E+01-5.98700E-04-2.14740E-02-5.13976E-01 1.53760E-13 2.93121E-13
 -1      2257 2.29039E+01 3.29106E-01 1.34931E-02-9.79005E-01-1.49474E-13-1.91692E-13
 -1      2258 2.27072E+01 3.67370E-02-1.55571E-02-8.55983E-01-1.37983E-13-1.68861E-13
 -1      2259 2.72849E+01-3.87258E+00-1.31736E-02-2.86746E+00-3.58186E-14-2.13940E-13
 -1      2260 3.04054E+01-2.17573E+00-1.05377E-01-1.46164E+00 3.64014E-14-1.47216E-13
 -1      2261 2.27652E+01-1.70452E-01 1.66419E-02-8.67784E-01-1.23529E-13-1.28318E-13
 -1      2262 2.25897E+01-3.25477E-01-1.18120E-02-9.25102E-01-8.97945E-14-1.33360E-13
 -1      2263 2.27350E+01-4.73630E-02 2.31687E-05-9.22217E-01-1.14894E-13-1.69683E-13
 -1      2264 2.26172E+01-3.99180E-01 8.43490E-03-1.05951E+00-8.36150E-14-1.02464E-13
 -1      2265 2.24370E+01-4.14379E-01-6.55468E-03-1.18655E+00-6.08603E-14-1.10189E-13
 -1      2266 2.27844E+01-4.50211E-01-2.42908E-03-1.05740E+00-7.99272E-14-1.21381E-13
 -1      2267 2.23975E+01-3.52973E-01-1.75846E-03-1.35441E+00-5.34791E-14-8.84656E-14
 -1      2268 2.21972E+01-2.13649E-01 3.59465E-03-1.45038E+00-7.06917E-14-8.38526E-14
 -1      2269 2.27769E+01-4.79188E-01 4.23919E-03-1.37086E+00-6.92829E-14-7.83167E-14
 -1      2270 2.20500E+01-1.13631E-02-9.73146E-03-1.52612E+00-1.02353E-13-1.03142E-13
 -1      2271 2.18429E+01 2.55759E-01 1.57814E-02-1.48519E+00-1.14475E-13-1.19362E-13
 -1      2272 2.26219E+01-1.26325E-01 8.94687E-03-1.64521E+00-1.01912E-13-9.48956E-14
 -1      2273 2.16158E+01 5.35215E-01-1.14523E-02-1.34530E+00-1.50322E-13-1.38052E-13
 -1      2274 2.14473E+01 8.19257E-01 2.09806E-02-1.10699E+00-1.86161E-13-1.58416E-13
 -1      2275 2.22920E+01 5.28806E-01 5.66497E-03-1.60336E+00-1.61097E-13-1.22980E-13
 -1      2276 2.12512E+01 1.04037E+00-4.39812E-03-7.17782E-01-1.99238E-13-1.83056E-13
 -1      2277 2.11760E+01 1.18144E+00 1.31556E-02-3.19950E-01-1.90388E-13-2.31613E-13
 -1      2278 2.19062E+01 1.21050E+00-6.57656E-03-1.05744E+00-2.09158E-13-1.82752E-13
 -1      2279 2.11412E+01 1.20659E+00 1.00340E-02 1.96735E-01-2.09804E-13-2.42466E-13
 -1      2280 2.11847E+01 1.11257E+00-1.17506E-03 6.11686E-01-2.28443E-13-3.16980E-13
 -1      2281 2.16923E+01 1.54305E+00-1.52096E-02-8.45807E-02-2.36371E-13-2.15515E-13
 -1      2282 2.13275E+01 9.20807E-01 1.98831E-02 1.04165E+00-2.02390E-13-3.55727E-13
 -1      2283 2.14689E+01 6.43939E-01-1.25678E-02 1.31547E+00-1.61606E-13-3.81287E-13
 -1      2284 2.17901E+01 1.31622E+00-9.44104E-03 9.35061E-01-2.30894E-13-2.90044E-13
 -1      2285 2.16746E+01 3.47791E-01 1.69089E-02 1.49684E+00-8.35855E-14-3.49596E-13
 -1      2286 2.18543E+01 4.00724E-02-1.51544E-02 1.55641E+00-1.22233E-14-3.17604E-13
 -1      2287 2.21060E+01 6.50657E-01 3.10827E-03 1.57380E+00-1.07610E-13-3.26138E-13
 -1      2288 2.19894E+01-2.16339E-01 5.64735E-03 1.47871E+00-3.28324E-16-2.90071E-13
 -1      2289 2.21449E+01-4.28512E-01-1.02993E-02 1.35597E+00 1.76131E-14-2.35315E-13
 -1      2290 2.24017E+01-1.03745E-01 1.05137E-02 1.65520E+00 1.48833E-14-1.97797E-13
 -1      2291 2.21502E+01-5.66021E-01-5.46379E-03 1.11836E+00 1.93250E-14-2.49393E-13
 -1      2292 2.22441E+01-6.43342E-01-3.29394E-03 9.00451E-01 3.59600E-14-2.29747E-13
 -1      2293 2.25027E+01-6.39146E-01 1.01645E-02 1.29577E+00 3.44920E-14-1.77759E-13
 -1      2294 2.21401E+01-6.63998E-01-1.15968E-02 6.20977E-01-4.24543E-14-2.26276E-13
 -1      2295 2.21635E+01-6.36743E-01 1.55259E-03 3.91106E-01 1.46779E-15-2.75374E-13
 -1      2296 2.23846E+01-8.49738E-01 5.09079E-03 7.40181E-01-1.28302E-14-1.70965E-13
 -1      2297 2.20029E+01-5.84125E-01-1.25829E-02 1.48895E-01 1.64226E-14-3.03850E-13
 -1      2298 2.19669E+01-5.04296E-01 3.68307E-03-4.17460E-02-9.84412E-15-2.76809E-13
 -1      2299 2.21222E+01-7.98425E-01 2.61379E-04 1.95608E-01-3.51867E-14-1.80275E-13
 -1      2300 2.17940E+01-4.23686E-01-1.04440E-02-2.14658E-01-4.49423E-14-2.79681E-13
 -1      2301 2.17167E+01-3.33021E-01 3.96167E-03-3.46718E-01-4.14987E-14-1.92916E-13
 -1      2302 2.18043E+01-6.09894E-01-2.37067E-03-2.29562E-01-1.70534E-14-2.44514E-13
 -1      2303 2.15569E+01-2.54424E-01-7.17750E-03-4.49067E-01-3.41324E-14-2.07193E-13
 -1      2304 2.14561E+01-1.76252E-01 3.34087E-03-5.24046E-01 2.37532E-14-1.69718E-13
 -1      2305 2.14911E+01-3.88325E-01-3.18517E-03-5.07081E-01-1.66967E-15-1.58369E-13
 -1      2306 2.13191E+01-1.13738E-01-4.01383E-03-5.68869E-01-1.00219E-14-1.92222E-13
 -1      2307 2.12086E+01-5.64594E-02 2.48681E-03-5.98142E-01 1.03652E-14-2.23016E-13
 -1      2308 2.12115E+01-1.93553E-01-3.00678E-03-6.52396E-01-1.78970E-14-1.68195E-13
 -1      2309 2.10954E+01-1.32601E-02-1.50046E-03-6.02155E-01 7.18041E-14-2.37803E-13
 -1      2310 2.09854E+01 2.34216E-02 1.71315E-03-5.99517E-01 8.85073E-14-2.64821E-13
 -1      2311 2.09738E+01-4.85704E-02-2.51561E-03-6.97370E-01 3.87753E-14-1.29430E-13
 -1      2312 2.08933E+01 4.95516E-02 2.49725E-04-5.77872E-01 6.01029E-14-2.16494E-13
 -1      2313 2.07903E+01 6.96292E-02 1.12769E-03-5.55693E-01 1.50393E-14-2.55846E-13
 -1      2314 2.07761E+01 4.59074E-02-2.03372E-03-6.74908E-01 7.75160E-14-2.25879E-13
 -1      2315 2.07159E+01 8.28039E-02 1.32569E-03-5.20193E-01 3.23649E-14-1.98753E-13
 -1      2316 2.06237E+01 9.10392E-02 7.27031E-04-4.88022E-01 9.84225E-14-1.64221E-13
 -1      2317 2.06133E+01 9.89569E-02-1.65499E-03-6.12516E-01 3.08608E-14-1.29498E-13
 -1      2318 2.05637E+01 9.53686E-02 1.88072E-03-4.47000E-01 1.71954E-13-2.25730E-13
 -1      2319 2.04840E+01 9.59574E-02 4.69548E-04-4.11478E-01 1.88186E-13-1.95623E-13
 -1      2320 2.04800E+01 1.22034E-01-1.37711E-03-5.30684E-01 1.04196E-13-1.23954E-13
 -1      2321 2.04360E+01 9.48024E-02 2.06999E-03-3.70338E-01 2.11546E-13-2.11649E-13
 -1      2322 2.03692E+01 9.09562E-02 3.10370E-04-3.35661E-01 2.47589E-13-2.42234E-13
 -1      2323 2.03714E+01 1.25470E-01-1.17033E-03-4.43404E-01 1.90425E-13-1.81263E-13
 -1      2324 2.03308E+01 8.67781E-02 2.02447E-03-2.97583E-01 1.23631E-13-2.46254E-13
 -1      2325 2.02763E+01 8.07425E-02 2.13798E-04-2.66118E-01 7.49780E-14-2.34789E-13
 -1      2326 2.02836E+01 1.17295E-01-1.00628E-03-3.59444E-01 1.70336E-13-2.86031E-13
 -1      2327 2.02460E+01 7.52078E-02 1.84383E-03-2.32708E-01 1.08613E-13-2.56615E-13
 -1      2328 2.02024E+01 6.84411E-02 1.55037E-04-2.05553E-01 7.32545E-14-2.83032E-13
 -1      2329 2.02132E+01 1.03198E-01-8.66262E-04-2.83708E-01 7.31314E-14-4.82387E-13
 -1      2330 2.01788E+01 6.26008E-02 1.59840E-03-1.77379E-01 7.89186E-14-3.35215E-13
 -1      2331 2.01448E+01 5.59800E-02 1.18241E-04-1.54815E-01 7.38086E-14-2.37634E-13
 -1      2332 2.01575E+01 8.69187E-02-7.40606E-04-2.18433E-01 5.88020E-14-4.81979E-13
 -1      2333 2.01265E+01 5.04448E-02 1.33449E-03-1.31800E-01-1.62807E-14-3.14743E-13
 -1      2334 2.01006E+01 4.44451E-02 9.38782E-05-1.13622E-01-9.88393E-14-3.35456E-13
 -1      2335 2.01140E+01 7.07414E-02-6.25630E-04-1.64118E-01 1.18274E-14-4.61767E-13
 -1      2336 2.00867E+01 3.95287E-02 1.08034E-03-9.53247E-02-1.14307E-13-2.90619E-13
 -1      2337 2.00674E+01 3.43623E-02 7.65002E-05-8.10702E-02-1.29090E-13-2.11192E-13
 -1      2338 2.00806E+01 5.59317E-02-5.20738E-04-1.20222E-01-5.54521E-14-3.11235E-13
 -1      2339 2.00570E+01 3.01880E-02 8.51374E-04-6.68790E-02-1.10273E-13-1.01760E-13
 -1      2340 2.00430E+01 2.59046E-02 6.31354E-05-5.59769E-02-1.00592E-13-6.25126E-14
 -1      2341 2.00552E+01 4.30814E-02-4.26475E-04-8.56460E-02-8.93360E-14-1.78223E-13
 -1      2342 2.00354E+01 2.24806E-02 6.54441E-04-4.52283E-02-1.27349E-13-4.86102E-14
 -1      2343 2.00255E+01 1.90363E-02 5.22386E-05-3.70924E-02-4.11991E-14 4.22800E-14
 -1      2344 2.00364E+01 3.23604E-02-3.43451E-04-5.90539E-02-5.32262E-14-7.51926E-14
 -1      2345 2.00200E+01 1.63070E-02 4.90951E-04-2.91446E-02-1.65131E-16 5.10389E-14
 -1      2346 2.00132E+01 1.36101E-02 4.30421E-05-2.32266E-02 6.60435E-14 2.11992E-13
 -1      2347 2.00227E+01 2.36919E-02-2.71883E-04-3.90759E-02-2.92629E-14 3.45980E-14
 -1      2348 2.00094E+01 1.14891E-02 3.59122E-04-1.74989E-02 3.38917E-14 1.04649E-13
 -1      2349 2.00049E+01 9.42858E-03 3.51742E-05-1.33145E-02 3.75552E-14 7.19193E-14
 -1      2350 2.00129E+01 1.68688E-02-2.11489E-04-2.44264E-02 2.98172E-14 1.78184E-13
 -1      2351 2.00023E+01 7.81936E-03 2.55504E-04-9.30566E-03-1.55981E-14 1.58482E-14
 -1      2352 1.99996E+01 6.28275E-03 2.84482E-05-6.44419E-03-9.09262E-14-4.22648E-14
 -1      2353 2.00062E+01 1.16289E-02-1.61554E-04-1.39653E-02-7.39757E-14 2.56522E-15
 -1      2354 1.99979E+01 5.09085E-03 1.75970E-04-3.73587E-03-1.20768E-13-6.13391E-14
 -1      2355 1.99964E+01 3.97356E-03 2.27508E-05-1.86050E-03-7.12006E-14-1.00295E-13
 -1      2356 2.00017E+01 7.70027E-03-1.21066E-04-6.72125E-03-1.17136E-13-8.16522E-15
 -1      2357 1.99954E+01 3.11309E-03 1.16328E-04-1.13399E-04-6.50935E-14 8.56446E-15
 -1      2358 1.99947E+01 2.32322E-03 1.79881E-05 1.04503E-03-1.81766E-14-1.70099E-14
 -1      2359 1.99989E+01 4.82676E-03-8.88511E-05-1.89248E-03-4.70915E-14 8.15354E-17
 -1      2360 1.99942E+01 1.71972E-03 7.26710E-05 2.09933E-03 6.72081E-15 4.27166E-14
 -1      2361 1.99940E+01 1.17961E-03 1.40631E-05 2.75076E-03 5.24528E-14 4.95978E-14
 -1      2362 1.99973E+01 2.78130E-03-6.36867E-05 1.16537E-03 4.11269E-14 3.95381E-14
 -1      2363 1.99938E+01 7.70786E-04 4.15511E-05 3.31981E-03-1.87148E-14-4.30656E-14
 -1      2364 1.99940E+01 4.16710E-04 1.08678E-05 3.62421E-03-1.79889E-13-9.45216E-14
 -1      2365 1.99965E+01 1.37059E-03-4.43886E-05 2.95805E-03-4.88327E-14-5.81425E-14
 -1      2366 1.99940E+01 1.51833E-04 2.00448E-05 3.86489E-03-1.63094E-13 6.45348E-16
 -1      2367 1.99944E+01-6.72706E-05 8.28156E-06 3.94127E-03-1.76808E-13 1.47874E-13
 -1      2368 1.99962E+01 4.35116E-04-2.98644E-05 3.87361E-03-1.41203E-13 1.16938E-13
 -1      2369 1.99945E+01-2.28657E-04 5.74936E-06 3.96927E-03-2.76924E-13 2.36301E-13
 -1      2370 1.99950E+01-3.52959E-04 6.17308E-06 3.90381E-03-1.55902E-13 3.31817E-13
 -1      2371 1.99963E+01-1.53659E-04-1.91452E-05 4.20298E-03-1.78992E-13 4.10092E-13
 -1      2372 1.99952E+01-4.42612E-04-3.25679E-06 3.80202E-03-1.00914E-13 4.30903E-13
 -1      2373 1.99957E+01-5.03315E-04 4.40177E-06 3.65497E-03 4.30686E-14 3.96989E-13
 -1      2374 1.99966E+01-4.97345E-04-1.14000E-05 4.15866E-03-8.76097E-14 5.54305E-13
 -1      2375 1.99959E+01-5.45946E-04-8.47140E-06 3.48056E-03 7.55471E-14 3.12341E-13
 -1      2376 1.99965E+01-5.67184E-04 2.82153E-06 3.29197E-03 2.13117E-13 1.42218E-13
 -1      2377 1.99970E+01-6.75239E-04-5.94086E-06 3.89104E-03-4.80683E-14 5.86806E-13
 -1      2378 1.99967E+01-5.82054E-04-1.10279E-05 3.08216E-03 3.60468E-13-2.03478E-14
 -1      2379 1.99972E+01-5.82633E-04 1.28770E-06 2.87640E-03 3.34315E-13-3.41784E-14
 -1      2380 1.99975E+01-7.48898E-04-2.22559E-06 3.50196E-03 1.71235E-13 2.68785E-13
 -1      2381 1.99974E+01-5.84989E-04-1.17587E-05 2.65298E-03 2.11029E-13-1.27838E-13
 -1      2382 1.99978E+01-5.79726E-04-2.89422E-07 2.44226E-03 1.30264E-13 1.24337E-14
 -1      2383 1.99979E+01-7.66351E-04 1.41409E-07 3.05576E-03 2.56828E-13 1.75146E-14
 -1      2384 1.99980E+01-5.81502E-04-1.12094E-05 2.21525E-03 1.23947E-13 1.04656E-13
 -1      2385 1.99984E+01-5.81743E-04-1.87270E-06 2.00286E-03-3.65156E-17 1.69518E-13
 -1      2386 1.99984E+01-7.65077E-04 1.48369E-06 2.58788E-03 2.24333E-13 1.87603E-13
 -1      2387 1.99986E+01-5.91913E-04-9.81082E-06 1.77407E-03-4.68490E-14 2.16919E-13
 -1      2388 1.99989E+01-6.04766E-04-4.48251E-06 1.55729E-03-2.98803E-14 2.44197E-13
 -1      2389 1.99988E+01-7.73137E-04 1.94852E-06 2.11289E-03 1.38274E-14 3.77052E-13
 -1      2390 2.53654E+01-1.29342E+00-2.77367E-02 1.23331E+00-6.93404E-14 4.00634E-13
 -1      2391 2.54323E+01-1.22970E+00 1.17982E-02 7.22907E-01-6.01259E-14 3.96330E-13
 -1      2392 2.54903E+01-7.73297E-01-9.82079E-03 2.29395E+00-3.43909E-14 3.95720E-13
 -1      2393 2.57324E+01-1.16783E+00-1.61690E-02 1.88423E+00-8.20307E-14 3.98436E-13
 -1      2394 2.59164E+01-1.66442E+00-1.16369E-02 1.46462E+00-6.88024E-14 3.13088E-13
 -1      2395 2.51320E+01 6.72905E-01-1.03527E-03 2.55926E+00 1.93748E-13 3.96920E-13
 -1      2396 2.54906E+01-1.53396E-01-6.32596E-02 2.64410E+00 5.57540E-14 3.93974E-13
 -1      2397 2.64025E+01-5.86262E-01-8.55517E-03 2.62289E+00 2.30510E-14 3.32762E-13
 -1      2398 2.45680E+01 2.21600E+00-1.85856E-02 1.33117E+00 3.93838E-13 3.87061E-13
 -1      2399 2.48327E+01 1.53373E+00-7.86662E-02 2.09080E+00 2.88894E-13 4.14032E-13
 -1      2400 2.62254E+01 1.49582E+00-5.14755E-02 2.60829E+00 2.22253E-13 3.57075E-13
 -1      2401 2.44812E+01 2.36497E+00-6.60980E-02-9.11403E-01 3.46487E-13 2.58938E-13
 -1      2402 2.43982E+01 2.51579E+00-5.96487E-02 8.20656E-02 4.43437E-13 3.31922E-13
 -1      2403 2.57964E+01 3.22909E+00-7.99449E-02 8.48032E-01 4.41758E-13 3.43298E-13
 -1      2404 2.50438E+01 9.65308E-01-7.91923E-02-2.52537E+00 2.68445E-13 4.15978E-14
 -1      2405 2.46861E+01 1.78600E+00-2.19326E-02-1.97685E+00 3.01675E-13 1.27418E-13
 -1      2406 2.58782E+01 2.79452E+00-7.01663E-02-1.61274E+00 4.51153E-13 1.49949E-13
 -1      2407 2.55891E+01-6.37869E-01-4.64895E-02-2.52709E+00 1.71738E-13-1.03800E-13
 -1      2408 2.52573E+01 8.39863E-02-4.32514E-03-2.66230E+00 2.07081E-13-3.98449E-14
 -1      2409 2.62911E+01 6.82440E-01-4.13270E-02-2.84970E+00 3.05686E-13-1.41703E-13
 -1      2410 2.55707E+01-1.36537E+00-4.25918E-03-1.45655E+00 1.44221E-13-1.50879E-13
 -1      2411 2.54141E+01-1.12608E+00-1.83976E-02-1.96944E+00 1.75473E-13-1.22616E-13
 -1      2412 2.62106E+01-1.17004E+00-8.60641E-04-2.29437E+00 1.76255E-13-2.41210E-13
 -1      2413 2.50246E+01-1.26451E+00 1.15523E-02-2.03602E-01 4.59051E-14-8.39680E-14
 -1      2414 2.50753E+01-1.39330E+00-3.21472E-02-7.35391E-01 8.75307E-14-9.69084E-14
 -1      2415 2.54599E+01-1.89586E+00-1.27676E-02-8.98026E-01 6.80838E-14-1.14416E-13
 -1      2416 2.42763E+01-8.18189E-01 1.19301E-02 7.10834E-01 6.07916E-14-4.83814E-15
 -1      2417 2.44785E+01-1.06161E+00-2.89672E-02 3.35646E-01 8.64569E-14-1.01772E-14
 -1      2418 2.44240E+01-1.61584E+00-2.10994E-02 3.68036E-01 1.64877E-14-2.83972E-14
 -1      2419 2.35395E+01-3.77934E-01 7.51860E-03 1.19850E+00-5.44820E-14 9.38832E-15
 -1      2420 2.38206E+01-5.88407E-01-1.87366E-02 1.00346E+00-1.72206E-14 1.84644E-14
 -1      2421 2.34689E+01-9.88151E-01-1.97544E-02 1.16689E+00 2.19473E-14 3.19863E-14
 -1      2422 2.28912E+01-7.12632E-02 3.74143E-03 1.35721E+00 7.21292E-14 6.51215E-15
 -1      2423 2.31975E+01-2.07550E-01-8.68538E-03 1.29957E+00 4.42354E-15 4.73883E-15
 -1      2424 2.27183E+01-4.19551E-01-1.38030E-02 1.52838E+00-1.77150E-14-8.81660E-14
 -1      2425 2.23398E+01 1.00036E-01 1.61319E-03 1.31440E+00 8.98464E-14 2.56037E-14
 -1      2426 2.26382E+01 2.89045E-02-1.38179E-03 1.34038E+00 1.33787E-13 8.46352E-14
 -1      2427 2.21542E+01-3.94876E-02-8.17669E-03 1.59105E+00 5.31247E-14-1.18003E-13
 -1      2428 2.18748E+01 1.74983E-01 7.24572E-04 1.17010E+00-9.18916E-14 1.55672E-13
 -1      2429 2.21468E+01 1.47313E-01 3.01685E-03 1.23729E+00-1.19444E-14 1.58072E-13
 -1      2430 2.17231E+01 1.65771E-01-4.52047E-03 1.48359E+00-4.47485E-14 6.80619E-14
 -1      2431 2.14846E+01 1.92804E-01 4.71878E-04 9.88676E-01-2.02822E-13 2.30798E-13
 -1      2432 2.17216E+01 1.89739E-01 5.17478E-03 1.06982E+00-1.43090E-13 1.51794E-13
 -1      2433 2.13813E+01 2.50752E-01-2.60902E-03 1.29670E+00-1.45258E-13 1.31020E-13
 -1      2434 2.11600E+01 1.81445E-01 4.65800E-04 8.06347E-01-1.99976E-13 1.34035E-13
 -1      2435 2.13595E+01 1.90330E-01 5.85013E-03 8.86305E-01-1.68087E-13 1.90611E-13
 -1      2436 2.11021E+01 2.65882E-01-1.77436E-03 1.08613E+00-1.52725E-13 1.60680E-13
 -1      2437 2.08932E+01 1.57822E-01 5.16478E-04 6.40838E-01-4.97866E-15 7.43923E-14
 -1      2438 2.10567E+01 1.71270E-01 5.66788E-03 7.12450E-01-1.73198E-13 3.22629E-14
 -1      2439 2.08707E+01 2.46068E-01-1.46272E-03 8.82577E-01-1.04526E-13 5.29001E-14
 -1      2440 2.06771E+01 1.31081E-01 5.50430E-04 4.98987E-01 3.38152E-14 2.28871E-13
 -1      2441 2.08082E+01 1.45218E-01 5.06245E-03 5.59719E-01 7.03287E-14 1.94640E-13
 -1      2442 2.06791E+01 2.12143E-01-1.34616E-03 7.00711E-01-7.77405E-14 3.05201E-14
 -1      2443 2.05047E+01 1.05648E-01 5.49873E-04 3.81778E-01-7.93973E-14 2.02927E-13
 -1      2444 2.06078E+01 1.18673E-01 4.30190E-03 4.31517E-01 2.33345E-14 2.81924E-13
 -1      2445 2.05218E+01 1.75258E-01-1.26969E-03 5.45793E-01-3.29023E-15 1.82496E-13
 -1      2446 2.03693E+01 8.33371E-02 5.18972E-04 2.87371E-01-2.93314E-14 1.11037E-13
 -1      2447 2.04490E+01 9.45707E-02 3.53518E-03 3.27125E-01-1.09299E-13 1.67891E-13
 -1      2448 2.03943E+01 1.40740E-01-1.17740E-03 4.17992E-01-5.70137E-14 1.15786E-13
 -1      2449 2.02646E+01 6.46304E-02 4.68023E-04 2.12796E-01-3.64162E-14 1.35052E-13
 -1      2450 2.03252E+01 7.39518E-02 2.83524E-03 2.43979E-01-5.58136E-15 5.57465E-14
 -1      2451 2.02927E+01 1.10706E-01-1.06009E-03 3.14999E-01 4.01854E-14-2.43952E-14
 -1      2452 2.01849E+01 4.93833E-02 4.07028E-04 1.54835E-01 1.48233E-13 2.09456E-13
 -1      2453 2.02303E+01 5.69266E-02 2.23081E-03 1.78911E-01 4.70392E-14 1.73804E-13
 -1      2454 2.02129E+01 8.56436E-02-9.26003E-04 2.33526E-01 1.62132E-14 8.98735E-14
 -1      2455 2.01253E+01 3.71986E-02 3.43652E-04 1.10447E-01-5.26544E-14 1.85401E-13
 -1      2456 2.01587E+01 4.31935E-02 1.72686E-03 1.28767E-01 4.52213E-14 1.89136E-13
 -1      2457 2.01513E+01 6.52815E-02-7.86859E-04 1.70096E-01 1.02877E-13 1.27896E-13
 -1      2458 2.00815E+01 2.76093E-02 2.82995E-04 7.69428E-02 3.15475E-14 2.53401E-13
 -1      2459 2.01056E+01 3.23047E-02 1.31679E-03 9.06806E-02-5.94284E-15 2.46192E-13
 -1      2460 2.01046E+01 4.90497E-02-6.52491E-04 1.21438E-01-7.57335E-14 2.23718E-14
 -1      2461 2.00501E+01 2.01622E-02 2.28028E-04 5.20344E-02-5.57903E-14 4.33538E-13
 -1      2462 2.00670E+01 2.37921E-02 9.89216E-04 6.21777E-02 6.77028E-14 3.68692E-13
 -1      2463 2.00698E+01 3.63036E-02-5.29428E-04 8.46568E-02-5.65008E-14 9.08004E-14
 -1      2464 2.00279E+01 1.44520E-02 1.80151E-04 3.38222E-02 1.75247E-14 2.27521E-13
 -1      2465 2.00396E+01 1.72225E-02 7.31540E-04 4.11828E-02 3.99798E-14 3.99717E-13
 -1      2466 2.00444E+01 2.64267E-02-4.21152E-04 5.72780E-02 4.47148E-14 2.79826E-13
 -1      2467 2.00129E+01 1.01306E-02 1.39717E-04 2.07572E-02-6.60990E-14-1.01969E-13
 -1      2468 2.00205E+01 1.22169E-02 5.31653E-04 2.59921E-02-6.56978E-14 1.17556E-13
 -1      2469 2.00263E+01 1.88708E-02-3.28848E-04 3.72395E-02 4.07261E-14 8.89799E-14
 -1      2470 2.00030E+01 6.90647E-03 1.06422E-04 1.15952E-02-3.47419E-13 2.31493E-13
 -1      2471 2.00078E+01 8.45454E-03 3.78688E-04 1.52284E-02-2.26947E-13 1.27522E-13
 -1      2472 2.00137E+01 1.31670E-02-2.52173E-04 2.28536E-02-2.88103E-13 2.78639E-14
 -1      2473 1.99968E+01 4.53918E-03 7.96029E-05 5.34906E-03-1.58952E-13 3.33094E-13
 -1      2474 1.99997E+01 5.66873E-03 2.63265E-04 7.79359E-03-3.07430E-13 2.26991E-13
 -1      2475 2.00052E+01 8.92341E-03-1.89875E-04 1.27594E-02-3.35540E-13 3.44534E-13
 -1      2476 1.99933E+01 2.83314E-03 5.84275E-05 1.24552E-03 3.17804E-13 3.70949E-13
 -1      2477 1.99948E+01 3.64119E-03 1.77485E-04 2.82310E-03 1.87581E-14 3.43094E-13
 -1      2478 1.99998E+01 5.81778E-03-1.40251E-04 5.87498E-03-4.66938E-14 1.49026E-13
 -1      2479 1.99917E+01 1.63089E-03 4.20218E-05-1.31337E-03 9.41105E-14 6.77119E-13
 -1      2480 1.99922E+01 2.19521E-03 1.14811E-04-3.55460E-04 2.87702E-13 5.85881E-13
 -1      2481 1.99966E+01 3.58824E-03-1.01442E-04 1.35079E-03 1.60455E-13 3.23246E-13
 -1      2482 1.99912E+01 8.06986E-04 2.95441E-05-2.78378E-03-5.77877E-14 6.78068E-13
 -1      2483 1.99911E+01 1.18927E-03 6.99145E-05-2.25806E-03 6.35531E-14 7.51339E-13
 -1      2484 1.99948E+01 2.02441E-03-7.16257E-05-1.47104E-03 1.00666E-13 4.86731E-13
 -1      2485 1.99915E+01 2.62567E-04 2.02245E-05-3.50852E-03-5.63702E-14 3.46798E-13
 -1      2486 1.99911E+01 5.11249E-04 3.85048E-05-3.27503E-03-2.04305E-14 6.28030E-13
 -1      2487 1.99941E+01 9.59026E-04-4.91233E-05-3.09287E-03 8.25523E-14 4.49043E-13
 -1      2488 1.99923E+01-7.95100E-05 1.33805E-05-3.74069E-03 3.58007E-14 1.74111E-13
 -1      2489 1.99916E+01 7.31991E-05 1.71716E-05-3.69688E-03 5.73305E-14 3.52863E-13
 -1      2490 1.99941E+01 2.60523E-04-3.24507E-05-3.89239E-03 2.07873E-14 2.20773E-13
 -1      2491 1.99933E+01-2.78873E-04 8.41711E-06-3.66328E-03-5.28631E-14 1.82622E-13
 -1      2492 1.99925E+01-1.93155E-04 3.23594E-06-3.73572E-03-1.45712E-13 1.52149E-13
 -1      2493 1.99945E+01-1.73579E-04-2.03381E-05-4.14850E-03-3.28195E-14 1.88349E-13
 -1      2494 1.99943E+01-3.81289E-04 4.82116E-06-3.40484E-03 5.81698E-14 2.30533E-13
 -1      2495 1.99936E+01-3.40382E-04-5.37859E-06-3.54262E-03 1.09882E-13 2.07309E-13
 -1      2496 1.99951E+01-4.22386E-04-1.17261E-05-4.06262E-03 7.89732E-14 2.25661E-13
 -1      2497 1.99954E+01-4.21831E-04 2.15055E-06-3.05207E-03-4.68591E-14 2.09163E-13
 -1      2498 1.99947E+01-4.08748E-04-1.02571E-05-3.22158E-03-3.21633E-14 1.72739E-13
 -1      2499 1.99958E+01-5.46581E-04-5.74974E-06-3.77604E-03 6.16758E-14 2.47246E-13
 -1      2500 1.99963E+01-4.27673E-04 2.44780E-08-2.65944E-03 1.65719E-13 1.55217E-13
 -1      2501 1.99957E+01-4.29197E-04-1.25875E-05-2.84045E-03 7.73161E-15 2.80993E-13
 -1      2502 1.99965E+01-5.92706E-04-1.72680E-06-3.38371E-03 1.21225E-14-2.09551E-13
 -1      2503 1.99972E+01-4.20385E-04-1.82718E-06-2.25648E-03 2.00714E-13 2.63971E-13
 -1      2504 1.99967E+01-4.25995E-04-1.32174E-05-2.43925E-03 1.59559E-13 2.06230E-13
 -1      2505 1.99972E+01-5.96994E-04 8.46050E-07-2.94503E-03 5.04922E-14 2.00027E-14
 -1      2506 1.99980E+01-4.17424E-04-3.64500E-06-1.85354E-03 7.24883E-14 4.36316E-13
 -1      2507 1.99975E+01-4.18690E-04-1.27971E-05-2.03654E-03 6.16456E-14 5.13322E-13
 -1      2508 1.99978E+01-5.87808E-04 2.36912E-06-2.49209E-03 5.32841E-14 4.82480E-13
 -1      2509 1.99986E+01-4.30775E-04-4.77071E-06-1.44609E-03 9.33425E-14 5.49960E-13
 -1      2510 1.99982E+01-4.23439E-04-1.18047E-05-1.63417E-03 1.73565E-13 5.15568E-13
 -1      2511 1.99984E+01-5.86760E-04 3.58342E-06-2.03812E-03 4.21153E-14 8.17813E-13
 -1      2512 1.99991E+01-4.62880E-04-5.98495E-06-1.02893E-03-1.42099E-13 8.04379E-13
 -1      2513 1.99988E+01-4.44680E-04-9.95774E-06-1.22443E-03 2.39732E-15 6.50014E-13
 -1      2514 1.99989E+01-6.06060E-04 5.95145E-06-1.57875E-03 1.43943E-14 7.86074E-13
 -1      2515 1.99993E+01-4.68913E-04-6.84389E-06-7.86987E-04-4.64157E-14 8.30746E-13
 -1      2516 2.00002E+01-2.32886E-03 9.62521E-06-1.20800E-03 2.43598E-13 2.12994E-13
 -1      2517 2.00001E+01-2.12064E-03-1.58079E-06-1.32391E-03 4.80384E-14-3.01833E-13
 -1      2518 2.00003E+01-2.65712E-03 9.89427E-06-8.46197E-04 2.56236E-13-2.41853E-13
 -1      2519 2.00003E+01-2.50460E-03 2.03119E-06-1.02747E-03 2.45596E-13 9.94382E-14
 -1      2520 2.00003E+01-2.33463E-03-6.26986E-06-1.27603E-03 2.09047E-13 1.38640E-13
 -1      2521 1.99997E+01-1.40899E-03 6.77379E-06-1.44136E-03-1.89939E-14 8.97743E-14
 -1      2522 1.99995E+01-1.15907E-03-8.78071E-06-1.38453E-03-4.43994E-14 2.54733E-13
 -1      2523 1.99999E+01-1.89755E-03 8.39758E-06-1.41861E-03-1.22451E-13-6.33651E-13
 -1      2524 1.99998E+01-1.65993E-03-5.22770E-06-1.45029E-03-1.44260E-13-2.28333E-13
 -1      2525 1.99997E+01-1.49772E-03-3.84010E-06-1.66689E-03-2.14156E-13-2.27403E-13
 -1      2526 2.00001E+01-1.95187E-03-4.28578E-06-1.57066E-03 1.22234E-13-2.98294E-13
 -1      2527 2.00004E+01-2.84838E-03 9.26946E-06-3.83577E-04-1.38023E-13-7.17495E-13
 -1      2528 2.00004E+01-2.76818E-03 5.31720E-06-6.05516E-04 1.05779E-13-5.69723E-13
 -1      2529 2.00005E+01-2.61034E-03-7.65656E-06-8.26915E-04 2.28512E-13-5.75857E-13
 -1      2530 2.00004E+01-2.88458E-03 7.73060E-06 1.23241E-04-2.52978E-13-3.00998E-13
 -1      2531 2.00004E+01-2.88559E-03 7.78878E-06-1.12200E-04-2.95261E-13-4.44631E-13
 -1      2532 2.00006E+01-2.75304E-03-8.30719E-06-2.82018E-04 7.40467E-14-7.34607E-13
 -1      2533 2.00004E+01-2.76284E-03 5.36200E-06 6.15265E-04-2.57980E-13-3.00035E-13
 -1      2534 2.00004E+01-2.84510E-03 9.25286E-06 3.94176E-04-3.54617E-13-2.63943E-13
 -1      2535 2.00006E+01-2.75080E-03-8.26357E-06 2.94738E-04-9.52450E-14-4.28547E-13
 -1      2536 2.00003E+01-2.50162E-03 2.07216E-06 1.02839E-03-6.94056E-14-1.96248E-14
 -1      2537 2.00003E+01-2.65238E-03 9.83912E-06 8.50994E-04-2.07276E-13-2.29895E-13
 -1      2538 2.00005E+01-2.60592E-03-7.65472E-06 8.33649E-04-1.33063E-13-2.89436E-13
 -1      2539 2.00001E+01-2.11727E-03-1.58872E-06 1.32371E-03-1.66945E-14 4.86286E-13
 -1      2540 2.00002E+01-2.32561E-03 9.56079E-06 1.20834E-03-2.32597E-15 1.32681E-13
 -1      2541 2.00003E+01-2.33062E-03-6.13371E-06 1.27703E-03 4.23467E-14 9.09772E-14
 -1      2542 1.99998E+01-1.64970E-03-4.95841E-06 1.44806E-03-7.76682E-15 3.52401E-13
 -1      2543 1.99999E+01-1.89256E-03 8.05069E-06 1.41859E-03-1.68091E-13 6.99727E-13
 -1      2544 2.00001E+01-1.94463E-03-3.36651E-06 1.57144E-03-5.83055E-15 3.82873E-13
 -1      2545 1.99995E+01-1.14503E-03-7.22895E-06 1.37281E-03-1.21377E-13 1.13504E-13
 -1      2546 1.99997E+01-1.39920E-03 5.07776E-06 1.44075E-03-1.06865E-13 1.64740E-13
 -1      2547 1.99997E+01-1.48340E-03 3.70937E-07 1.66345E-03-1.63242E-13 2.21252E-13
 -1      2548 1.87204E+01-5.49291E+00 2.50388E-02 6.42346E+00 7.93254E-14 2.87721E-13
 -1      2549 1.48872E+01-5.27734E+00 5.72904E-02 6.51069E+00 2.16493E-15 2.85383E-13
 -1      2550 1.99994E+01-7.28236E-04-5.78464E-06 9.94863E-04-7.99030E-14-2.32526E-14
 -1      2551 6.04529E+00-3.52700E+00 7.06744E-02-4.94057E+00 2.19880E-13 9.34364E-13
 -1      2552 9.30858E+00-4.05317E+00 4.07877E-02-6.56936E+00 2.54990E-13 9.14296E-13
 -1      2553 2.49681E+01-1.03897E+00-2.88916E-02 2.19934E-01-1.49368E-14 3.91312E-13
 -1      2554 2.49234E+01-7.63890E-01 2.33746E-02-1.33867E-01 4.03323E-14 4.11356E-13
 -1      2555 2.50487E+01-1.54690E+00-2.14402E-02 2.64020E-01-2.16394E-14 2.95689E-13
 -1      2556 4.04492E+00-2.86681E+00 9.94853E-02 2.66125E+00 7.97973E-14 4.96436E-13
 -1      2557 3.21556E+00-2.60376E+00 7.50826E-02 5.78795E-01 6.16625E-14 6.25444E-13
 -1      2558 2.49678E+01-4.97760E+00-7.30049E-02 4.36348E+00 2.32842E-13-9.84213E-14
 -1      2559 2.16702E+01-5.58665E+00-1.29210E-02 5.35834E+00 1.70752E-13 1.16365E-13
 -1      2560 2.12401E+01-5.55695E+00 8.13789E-02 5.42516E+00-3.64153E-14 5.75408E-14
 -1      2561 2.65129E+01-3.37493E+00-3.50903E-02-3.59546E+00-6.59195E-15-1.77081E-14
 -1      2562 2.91968E+01-1.76560E+00-3.93608E-02-2.62626E+00-1.69365E-13-6.27276E-14
 -1      2563 3.31674E+01 7.66442E+00-5.25970E-02-2.83241E-01-7.00218E-13-5.26940E-14
 -1      2564 3.22918E+01 6.82376E+00-1.24657E-01-6.62365E-01-6.89337E-13-6.27554E-14
 -1      2565 2.27578E+01 1.56253E+00-1.70515E-02-1.52770E+00-1.76571E-13-2.72773E-13
 -1      2566 2.27604E+01 7.32349E-01-1.54058E-02-1.09311E+00-1.75075E-13-2.33326E-13
 -1      2567 2.25987E+01 7.23874E-01 6.46046E-03-1.05271E+00-1.37550E-13-2.35466E-13
 -1      2568 2.21971E+01 1.89584E+00-6.27751E-03-1.36450E+00-1.31616E-13-3.07403E-13
 -1      2569 1.61392E+01 3.72906E+00-2.12812E-02 1.14687E+00 2.35697E-13-3.65008E-13
 -1      2570 1.68192E+01 3.55878E+00 1.49003E-02 1.07532E+00 2.03957E-13-3.77205E-13
 -1      2571 1.72903E+01 2.90801E+00-1.17227E-02 1.23745E+00 1.99120E-13-3.48196E-13
 -1      2572 1.58478E+01 3.55428E+00 4.64393E-04 1.34083E+00 2.44470E-13-3.43382E-13
 -1      2573 3.33922E+01 4.06588E+00-7.09553E-02 1.30101E+00 4.69152E-13 1.22236E-13
 -1      2574 3.37676E+01 5.59095E+00-1.36038E-01 1.20827E+00 5.37681E-13 1.32117E-13
 -1      2575 3.37993E+01 6.27887E+00-1.30052E-01-1.01492E+00 7.97029E-13-3.24185E-14
 -1      2576 3.38661E+01 5.02432E+00-5.64395E-02-1.16110E+00 8.30225E-13-1.03584E-13
 -1      2577 5.73935E+00-2.48658E+00 3.85341E-02 5.01932E+00 7.02216E-14-4.91718E-13
 -1      2578 4.07038E+00-1.64755E+00 9.93277E-02 2.93595E+00 1.12563E-13-5.42566E-13
 -1      2579 3.18873E+01 2.63601E-02-4.39485E-02 2.35610E-01 1.18003E-13-1.26565E-14
 -1      2580 3.29628E+01 1.76142E+00-1.34442E-01 8.42754E-01 2.62984E-13 8.15459E-14
 -1      2581 2.08414E+01-5.14054E+00 3.64723E-02-5.45520E+00-1.41998E-13-3.91728E-13
 -1      2582 2.41154E+01-4.93707E+00-7.91089E-02-4.79606E+00-6.68077E-14-3.33747E-13
 -1      2583 1.21452E+01-3.97238E+00 8.84975E-02-6.18843E+00-1.05360E-13-5.79731E-13
 -1      2584 1.65508E+01-4.79777E+00-8.31122E-03-6.53766E+00-8.86513E-14-5.14991E-13
 -1      2585 5.85769E+00-2.16401E+00 9.64013E-02-3.71899E+00-1.21708E-14-6.27443E-13
 -1      2586 8.20751E+00-2.59651E+00 6.20314E-02-5.18752E+00-4.48530E-14-6.26360E-13
 -1      2587 2.00219E+01-5.22708E+00 4.02462E-02-6.14171E+00 3.39562E-13 1.88814E-13
 -1      2588 2.37940E+01-4.66349E+00-2.94598E-02-5.32990E+00 1.24539E-13 1.18752E-13
 -1      2589 3.44865E+00-1.24475E+00 9.95608E-02 2.97764E-01 7.88002E-14-6.17117E-13
 -1      2590 4.04981E+00-1.60826E+00 8.84646E-02-2.07098E+00 6.71824E-14-6.36158E-13
 -1      2591 6.53848E+00-7.01051E-01 1.59781E-01-2.71981E+00 3.93158E-14-6.03573E-13
 -1      2592 1.18271E+01-3.64552E+00 2.22449E-02 7.03728E+00 5.68434E-14-3.95975E-13
 -1      2593 8.63095E+00-3.25144E+00 4.68864E-02 6.14546E+00 8.84293E-14-4.26992E-13
 -1      2594 1.89154E+01-4.40198E+00-5.91851E-02 6.63139E+00-1.01308E-14-2.41779E-13
 -1      2595 1.52037E+01-4.30227E+00 3.98588E-02 6.84932E+00 4.20219E-14-3.53696E-13
 -1      2596 1.48961E+01-3.47644E+00 1.26766E-01 6.74053E+00 1.78108E-13-3.33886E-13
 -1      2597 2.62119E+01-3.42810E+00-9.32178E-02 3.65320E+00-1.95718E-13-2.88103E-14
 -1      2598 2.31262E+01-4.25061E+00 3.18765E-02 4.93536E+00-7.52454E-14-9.64645E-14
 -1      2599 3.21674E+01 4.84314E+00-1.67390E-01-9.40186E-01-6.13176E-13-6.86118E-14
 -1      2600 3.19477E+01 3.15668E+00-4.71498E-02-4.81922E-01-5.55500E-13-5.20139E-14
 -1      2601 3.32785E+01 7.15779E+00-8.17456E-02 4.41560E-01-6.68743E-13-9.59233E-14
 -1      2602 3.33544E+01 7.63668E+00-1.15208E-01 1.40484E-01-6.80511E-13-6.68805E-14
 -1      2603 3.22699E+01 3.83296E+00-5.83454E-02 3.42704E-01-4.65405E-13-1.25955E-13
 -1      2604 3.30857E+01 5.66057E+00-1.02410E-01 5.81385E-01-5.84921E-13-1.92041E-13
 -1      2605 3.02687E+01-3.84233E-01-6.50226E-02-1.41701E+00-2.33688E-13-5.16254E-14
 -1      2606 3.14524E+01 1.14574E+00-1.27372E-01-5.66344E-01-2.68743E-13-5.22360E-14
 -1      2607 2.92066E+01-1.79930E+00 1.92299E-02-9.84837E-01-7.28584E-16-2.79554E-13
 -1      2608 1.30948E+01-4.75387E+00 8.07357E-02-6.92563E+00 4.15418E-13 5.57429E-13
 -1      2609 1.60582E+01-5.02919E+00-6.16638E-03-7.18180E+00 3.48555E-13 3.13194E-13
 -1      2610 3.77632E+00-2.26758E+00 1.26368E-01-1.49557E+00 1.46043E-13 7.89591E-13
 -1      2611 4.50929E+00-2.60603E+00 9.03883E-02-3.34490E+00 1.09232E-13 9.25038E-13
 -1      2612 3.38262E+01 3.37384E+00-5.54862E-02-9.44034E-01 7.92200E-13-1.86018E-13
 -1      2613 3.25236E+01 1.44949E+00-7.98051E-02-5.85885E-01 7.45737E-13-1.45939E-13
 -1      2614 3.19331E+01 3.74107E+00-6.08962E-02-1.94084E+00 7.29666E-13-6.06737E-14
 -1      2615 2.43410E+01 6.97822E-01-9.44334E-03 4.98213E-02 2.40731E-13 5.17989E-13
 -1      2616 2.44575E+01 1.13639E+00-5.52368E-03 5.14143E-01 2.61170E-13 5.70599E-13
 -1      2617 2.37533E+01 1.59790E+00-1.88071E-02 5.96298E-01 2.91572E-13 4.54331E-13
 -1      2618 2.36272E+01 7.57742E-01-1.79420E-02-1.12309E-01 2.44972E-13 3.52958E-13
 -1      2619 3.06250E+01 5.06721E+00-7.85600E-02 1.80587E+00 4.78645E-13 3.77962E-13
 -1      2620 3.28073E+01 6.08635E+00-8.32646E-02 1.10827E+00 5.50060E-13 2.03351E-13
 -1      2621 3.08728E+01 6.31008E+00-2.27256E-01 8.47109E-01 5.63938E-13 3.00343E-13
 -1      2622 2.02179E+01 1.94110E+00-1.11437E-02 5.46166E-02 4.82678E-14-3.54759E-13
 -1      2623 2.02395E+01 2.46003E+00-1.29803E-02-2.59156E-01 3.02375E-14-3.99817E-13
 -1      2624 2.08079E+01 2.34217E+00-1.55525E-02-5.93557E-01-7.66748E-15-3.89180E-13
 -1      2625 2.42485E+01-8.45254E-01-2.40434E-02-4.28171E-01 7.03099E-14 2.87400E-13
 -1      2626 2.26781E+01 2.03471E+00-1.29684E-02 4.41086E-01 3.07948E-13 2.77445E-13
 -1      2627 3.10532E+01 5.63801E+00-1.04017E-01-1.24028E+00-6.17867E-13-6.98330E-14
 -1      2628 2.93399E+01 4.36183E+00-1.08682E-01-1.69507E+00-5.68434E-13-2.49384E-14
 -1      2629 2.91077E+01 6.13313E+00-1.74617E-01-1.37029E+00-6.27498E-13-8.71248E-14
 -1      2630 2.18244E+01-4.28448E+00 8.91891E-02 5.29345E+00 5.44564E-14-1.12445E-13
 -1      2631 4.84399E+00-6.31932E-01 1.43707E-01 1.72427E+00 1.49013E-13-5.65020E-13
 -1      2632 6.13121E+00 4.92108E-01 1.73190E-01 6.87957E-01 1.63876E-13-5.64632E-13
 -1      2633 6.52887E+00 4.81270E-03 9.07037E-02 3.09948E+00 2.28248E-13-4.75842E-13
 -1      2634 3.05432E+01-1.67160E+00 1.74905E-02 3.97506E-01-2.43954E-14 9.79217E-14
 -1      2635 2.81965E+01-4.11706E+00-2.11213E-01 1.39860E+00 2.14738E-13-2.53408E-13
 -1      2636 2.71470E+01-4.52305E+00 3.11146E-02 2.99943E+00 2.50605E-13-1.31367E-13
 -1      2637 2.57921E+01-5.11629E+00 9.61864E-02 3.25824E+00 5.14450E-14-1.75387E-13
 -1      2638 1.33095E+01-4.63889E+00 7.50647E-02 6.41967E+00-1.06942E-13 2.90795E-13
 -1      2639 1.18715E+01-3.39351E+00 1.61743E-01 5.97722E+00-2.26402E-13 1.95122E-13
 -1      2640 1.64977E+01-4.58987E+00 6.24434E-02 6.10503E+00-2.50022E-13 2.30677E-13
 -1      2641 1.23799E+01-3.79180E+00 1.25735E-01-6.62887E+00 4.64462E-13 5.36127E-13
 -1      2642 1.96096E+01-5.05520E+00 9.51546E-02-6.16948E+00 4.90025E-13 1.43432E-13
 -1      2643 1.99993E+01-6.45778E-04-2.41289E-06-1.09305E-03-2.08023E-13 8.09041E-13
 -1      2644 1.99993E+01-8.36950E-04 6.75034E-07-1.23283E-03-5.17323E-14 6.24328E-13
 -1      2645 8.95818E+00-1.87691E+00 1.42249E-01 5.60438E+00 1.96926E-13-4.48308E-13
 -1      2646 1.99992E+01-6.23737E-04-8.25233E-06 1.18960E-03-5.10518E-14 9.99293E-14
 -1      2647 1.99994E+01-9.17794E-04 4.21292E-06 1.32607E-03-1.57539E-13-4.76190E-14
 -1      2648 1.99994E+01-1.02544E-03-3.17491E-06 1.59788E-03-3.98828E-13 1.41012E-13
 -1      2649 1.99990E+01-6.17150E-04-1.08375E-05 1.39615E-03-1.06378E-13 8.00227E-14
 -1      2650 1.14284E+01-2.89071E+00 1.26063E-01-5.66435E+00-1.07525E-13-5.77371E-13
 -1      2651 1.44795E+01-3.19272E+00-1.32094E-02-5.84628E+00-1.71571E-13-4.69555E-13
 -1      2652 1.11620E+01-1.54619E+00 1.67078E-01-5.01295E+00-6.42819E-14-5.37681E-13
 -1      2653 7.31926E+00-2.04740E+00 1.57878E-01-4.23711E+00 2.15203E-13 8.78686E-13
 -1      2654 2.23037E+01 1.67038E+00 1.22589E-02-2.97882E-03 2.80287E-13 2.11918E-13
 -1      2655 6.67218E+00-2.52838E+00 1.35690E-01 3.73023E+00-8.48488E-14 3.67650E-13
 -1      2656 2.12621E+01 2.20396E+00-1.35444E-02-8.69220E-01-4.26449E-14-3.66030E-13
 -1      2657 2.17724E+01 2.04281E+00-2.50044E-02-1.16357E+00-9.75054E-14-3.55702E-13
 -1      2658 2.20795E+01 1.35939E+00-5.35006E-03-1.01763E+00-1.10072E-13-2.96672E-13
 -1      2659 2.12780E+01 1.65470E+00-5.30435E-03-5.77057E-01-2.21407E-14-3.37464E-13
 -1      2660 2.57261E+01-4.43823E+00 2.56546E-02-3.57604E+00 2.17659E-13-8.76105E-14
 -1      2661 5.30888E+00-1.32312E+00 1.69553E-01-4.88190E-01 1.41553E-14 6.69020E-13
 -1      2662 3.07540E+01 2.03820E+00-2.81840E-02 8.30749E-01-2.86313E-13-3.28876E-13
 -1      2663 3.11874E+01 6.08820E+00-3.38355E-02 1.09423E+00-5.57582E-13-2.48385E-13
 -1      2664 1.97565E+01-4.80741E+00 8.81687E-02-5.57836E+00-2.06668E-13-3.65728E-13
 -1      2665 3.09148E+01 7.43985E+00-5.92007E-02-1.09304E-01-6.88338E-13-1.20161E-13
 -1      2666 3.05291E+01 1.40129E+00-1.77457E-02-5.40785E-01-4.50112E-13 9.10383E-15
 -1      2667 2.65778E+01-4.53411E+00 5.23138E-02-2.84012E+00-1.41193E-13-1.26982E-13
 -1      2668 3.28478E+01 6.52659E+00-8.76836E-02-7.63885E-01 7.35079E-13 6.32411E-14
 -1      2669 3.06220E+01 5.67385E+00-9.60996E-02-1.49052E+00 6.94583E-13 1.29063E-13
 -1      2670 3.09861E+01 6.57646E+00-1.87159E-01-3.87893E-01 6.26332E-13 2.00766E-13
 -1      2671 3.17478E+01 2.50680E+00-2.96492E-02 1.99488E+00 2.61985E-13 2.91739E-13
 -1      2672 2.75913E+01-2.84870E+00 4.59859E-03 2.30250E+00-2.06474E-13 1.82354E-14
 -1      2673 2.62041E+01-3.58373E+00 5.08069E-02 2.46329E+00-9.56735E-14 4.68237E-14
 -1      2674 2.80007E+01-2.36599E+00-2.14295E-01 8.39259E-01-2.09994E-13 4.82392E-14
 -1      2675 3.08111E+01 4.35162E-01-1.76943E-01-1.86527E+00 6.05863E-13-1.65118E-13
 -1      2676 3.17220E+01-3.81220E-01-6.54661E-02-5.43425E-01 6.61290E-13-2.23349E-13
 -1      2677 3.03512E+01-1.69608E+00 4.60234E-02-4.22274E-01 4.78582E-13-2.49745E-13
 -1      2678 1.99993E+01-9.46080E-04-5.19946E-06-1.51914E-03-1.04480E-13 5.84993E-13
 -1      2679 1.99991E+01-7.89848E-04 4.75604E-06 1.70182E-03-2.64004E-13 2.20384E-13
 -1      2680 1.44695E+01 3.93326E+00 3.42977E-04 1.63109E-01 2.95686E-13-3.04073E-13
 -1      2681 1.42459E+01 3.96610E+00-3.81787E-03 5.12213E-01 2.87186E-13-3.34140E-13
 -1      2682 1.43308E+01 3.83948E+00-1.88834E-02 1.04719E+00 2.87618E-13-3.44801E-13
 -1      2683 1.47240E+01 3.70203E+00 1.78398E-02 1.33013E+00 2.72607E-13-3.40428E-13
 -1      2684 1.40308E+01 3.64997E+00 3.23881E-02 8.65693E-01 2.73257E-13-3.37025E-13
 -1      2685 1.79708E+01 2.67378E+00 2.12525E-02-8.48483E-01 2.88938E-13-1.67332E-13
 -1      2686 1.68226E+01 2.98529E+00-2.39922E-02-8.33125E-01 2.91285E-13-2.12656E-13
 -1      2687 2.03636E+01 1.81212E+00 1.66306E-02-6.87140E-01 2.77742E-13-3.66634E-15
 -1      2688 1.91388E+01 2.18004E+00-1.44575E-02-8.08416E-01 2.74372E-13-8.66598E-14
 -1      2689 1.85587E+01 1.86960E+00-8.98306E-03-1.21228E+00 2.48273E-13-1.29702E-13
 -1      2690 2.30617E+01-9.09093E-02-8.15540E-03-7.96107E-01 1.42213E-13 1.73450E-13
 -1      2691 2.29129E+01 4.37143E-01 2.91069E-02-6.62161E-01 1.87559E-13 1.92824E-13
 -1      2692 8.98511E+00-2.21712E+00 1.37732E-01 4.79407E+00-1.52420E-13 2.20490E-13
 -1      2693 7.01614E+00-1.28004E+00 1.24308E-01 2.85309E+00-8.80893E-14 3.02425E-13
 -1      2694 2.29152E+01-5.02249E-01 1.23828E-02-9.02433E-01-4.84326E-14-1.46541E-13
 -1      2695 2.29125E+01-6.64617E-01-1.23281E-02-1.01331E+00-3.77774E-14-1.37169E-13
 -1      2696 2.31318E+01-7.22418E-01 5.93878E-03-1.23599E+00-5.14972E-14-9.97405E-14
 -1      2697 2.30825E+01-6.54910E-01-8.62901E-03-1.40940E+00-6.44504E-14-1.10755E-13
 -1      2698 2.32212E+01-8.33313E-01-2.14756E-03-1.03901E+00-3.19254E-14-1.11674E-13
 -1      2699 2.31692E+01-4.51509E-01-9.48432E-03-1.65233E+00-7.43509E-14-7.97994E-14
 -1      2700 2.30588E+01-1.01833E-01 5.26574E-03-1.75238E+00-1.14020E-13-7.99491E-14
 -1      2701 2.35484E+01-6.78496E-01 3.79793E-03-1.53050E+00-7.61973E-14-8.74611E-14
 -1      2702 2.29416E+01 3.47407E-01-2.28226E-02-1.81798E+00-1.56055E-13-8.30438E-14
 -1      2703 2.27933E+01 8.78545E-01 1.88483E-02-1.69623E+00-1.83153E-13-9.68258E-14
 -1      2704 2.35782E+01 1.39943E-01 8.85642E-03-1.89954E+00-1.48059E-13-5.96858E-14
 -1      2705 2.25399E+01 1.38903E+00-2.78231E-02-1.41440E+00-2.31661E-13-1.52792E-13
 -1      2706 2.24185E+01 1.83898E+00 1.44563E-02-1.01520E+00-2.73979E-13-1.73454E-13
 -1      2707 2.32865E+01 1.38012E+00 3.03221E-03-1.73650E+00-2.42631E-13-1.08533E-13
 -1      2708 2.22437E+01 2.09758E+00-1.68028E-02-3.87567E-01-2.74183E-13-1.89833E-13
 -1      2709 2.22236E+01 2.14836E+00-9.05236E-03 1.58708E-01-2.43713E-13-1.90587E-13
 -1      2710 2.29055E+01 2.38401E+00-1.09125E-02-8.18998E-01-2.69623E-13-1.92795E-13
 -1      2711 2.23051E+01 1.97737E+00 1.16718E-02 8.19547E-01-2.53370E-13-2.21739E-13
 -1      2712 2.23803E+01 1.58388E+00-2.71084E-02 1.26886E+00-2.28398E-13-2.53435E-13
 -1      2713 2.28342E+01 2.50032E+00-1.50360E-02 5.36029E-01-2.55677E-13-1.82119E-13
 -1      2714 2.26064E+01 1.07755E+00 1.90114E-02 1.63025E+00-1.42552E-13-2.57959E-13
 -1      2715 2.27198E+01 4.99695E-01-3.12862E-02 1.79529E+00-5.27177E-14-2.51316E-13
 -1      2716 2.30950E+01 1.61610E+00-2.89581E-03 1.60146E+00-1.71156E-13-2.23116E-13
 -1      2717 2.28585E+01-3.04244E-02 9.02716E-03 1.76150E+00-2.43295E-15-2.39024E-13
 -1      2718 2.29305E+01-4.97442E-01-2.00396E-02 1.64908E+00 4.84519E-14-2.26568E-13
 -1      2719 2.33785E+01 2.69791E-01 7.15681E-03 1.88829E+00-3.85959E-14-2.64068E-13
 -1      2720 2.28615E+01-8.30409E-01-3.22757E-03 1.35285E+00 2.76167E-14-2.11337E-13
 -1      2721 2.28500E+01-1.04903E+00-3.50926E-03 1.08769E+00 2.32299E-14-1.90223E-13
 -1      2722 2.33699E+01-8.21815E-01 1.13468E-02 1.48933E+00 4.59849E-14-2.61569E-13
 -1      2723 2.26097E+01-1.14740E+00-1.03395E-02 7.23783E-01 1.41239E-14-1.89169E-13
 -1      2724 2.25217E+01-1.14824E+00 6.62796E-03 4.32590E-01 9.84618E-15-1.61527E-13
 -1      2725 2.30091E+01-1.34666E+00 4.25109E-03 7.77198E-01 2.70491E-14-2.23591E-13
 -1      2726 2.22156E+01-1.08495E+00-1.12226E-02 1.26299E-01-3.79727E-14-1.29085E-13
 -1      2727 2.20834E+01-9.65506E-01 9.98729E-03-1.16205E-01-4.38435E-14-9.51712E-14
 -1      2728 2.24534E+01-1.36058E+00-3.83798E-03 9.46425E-02-6.77979E-15-1.84413E-13
 -1      2729 2.17929E+01-8.30641E-01-8.84383E-03-3.24573E-01-3.78365E-14-1.51906E-13
 -1      2730 2.16481E+01-6.74814E-01 9.44343E-03-4.92705E-01-3.19952E-14-1.34099E-13
 -1      2731 2.18763E+01-1.08782E+00-7.88111E-03-4.09840E-01-6.49316E-14-1.18887E-13
 -1      2732 2.14104E+01-5.31165E-01-5.69655E-03-6.08920E-01-3.44970E-14-1.38806E-13
 -1      2733 2.12728E+01-3.88265E-01 7.32689E-03-7.05214E-01-1.49430E-14-1.30209E-13
 -1      2734 2.13786E+01-7.26151E-01-8.25135E-03-7.16979E-01-3.21053E-14-1.36848E-13
 -1      2735 2.10950E+01-2.68009E-01-2.94531E-03-7.51002E-01-1.78364E-14-1.90689E-13
 -1      2736 2.09732E+01-1.58356E-01 5.01918E-03-7.90131E-01-2.72532E-14-2.08269E-13
 -1      2737 2.09926E+01-3.92071E-01-6.73503E-03-8.62159E-01-4.67495E-14-9.23193E-14
 -1      2738 2.08469E+01-7.14634E-02-9.58083E-04-7.88493E-01 1.31696E-14-2.09042E-13
 -1      2739 2.07428E+01 2.35022E-03 3.05962E-03-7.87464E-01 7.83169E-14-1.67567E-13
 -1      2740 2.07112E+01-1.34345E-01-4.87653E-03-8.93079E-01 3.74592E-17-2.29600E-13
 -1      2741 2.06556E+01 5.77363E-02 3.39325E-04-7.57045E-01 5.38145E-14-1.48789E-13
 -1      2742 2.05680E+01 1.01165E-01 1.62095E-03-7.30858E-01 4.93140E-14-2.06006E-13
 -1      2743 2.05128E+01 4.03743E-02-3.31645E-03-8.51385E-01 5.09000E-15-2.27643E-13
 -1      2744 2.05083E+01 1.31523E-01 1.12016E-03-6.85271E-01 6.25416E-14-2.32687E-13
 -1      2745 2.04352E+01 1.52336E-01 6.65819E-04-6.45560E-01 3.68077E-14-1.79764E-13
 -1      2746 2.03744E+01 1.44275E-01-2.19125E-03-7.68458E-01 4.11904E-14-1.82005E-13
 -1      2747 2.03941E+01 1.64883E-01 1.53229E-03-5.94107E-01 7.89730E-14-1.36322E-13
 -1      2748 2.03334E+01 1.70414E-01 8.64184E-05-5.49127E-01 1.12635E-13-1.21226E-13
 -1      2749 2.02775E+01 1.95130E-01-1.44668E-03-6.66320E-01 8.05147E-14-1.87683E-13
 -1      2750 2.03048E+01 1.71396E-01 1.68923E-03-4.97792E-01 9.05966E-14-1.28576E-13
 -1      2751 2.02548E+01 1.67527E-01-2.29279E-04-4.52952E-01 1.30867E-13-1.74959E-13
 -1      2752 2.02085E+01 2.09863E-01-9.80457E-04-5.59605E-01 8.05440E-14-6.77607E-14
 -1      2753 2.02344E+01 1.61720E-01 1.67698E-03-4.05295E-01 8.09191E-14-3.58933E-13
 -1      2754 2.01936E+01 1.52738E-01-3.72982E-04-3.63816E-01 1.81179E-14-4.38043E-13
 -1      2755 2.01583E+01 2.02152E-01-6.97001E-04-4.57447E-01-8.62688E-15-4.13558E-13
 -1      2756 2.01787E+01 1.43507E-01 1.56009E-03-3.21692E-01-1.20126E-15-5.14197E-13
 -1      2757 2.01459E+01 1.32317E-01-4.12010E-04-2.85229E-01 3.37037E-14-5.70957E-13
 -1      2758 2.01208E+01 1.82041E-01-5.24728E-04-3.65028E-01-5.42149E-14-6.22470E-13
 -1      2759 2.01347E+01 1.21873E-01 1.38594E-03-2.49349E-01 8.19247E-14-5.06395E-13
 -1      2760 2.01086E+01 1.10315E-01-3.92451E-04-2.18498E-01 9.94437E-14-5.52353E-13
 -1      2761 2.00923E+01 1.56395E-01-4.16229E-04-2.84791E-01 4.81177E-14-5.24184E-13
 -1      2762 2.01001E+01 1.00010E-01 1.18805E-03-1.88840E-01 1.21798E-13-5.88352E-13
 -1      2763 2.00796E+01 8.91542E-02-3.44173E-04-1.63533E-01 2.04248E-14-5.52015E-13
 -1      2764 2.00703E+01 1.29602E-01-3.42703E-04-2.17355E-01 5.40235E-14-5.42882E-13
 -1      2765 2.00731E+01 7.97413E-02 9.88878E-04-1.39642E-01-4.20226E-15-5.17614E-13
 -1      2766 2.00573E+01 7.01355E-02-2.85504E-04-1.19427E-01-5.58396E-14-4.86236E-13
 -1      2767 2.00531E+01 1.04250E-01-2.87911E-04-1.62201E-01 7.80349E-15-7.18875E-13
 -1      2768 2.00523E+01 6.19660E-02 8.02351E-04-1.00625E-01-6.80154E-14-3.65604E-13
 -1      2769 2.00403E+01 5.38196E-02-2.26964E-04-8.48640E-02-5.36216E-14-3.01270E-13
 -1      2770 2.00397E+01 8.16906E-02-2.43365E-04-1.18168E-01-4.40395E-14-6.76505E-13
 -1      2771 2.00365E+01 4.69928E-02 6.36104E-04-7.03913E-02-4.56669E-15-2.35161E-13
 -1      2772 2.00276E+01 4.03088E-02-1.74016E-04-5.83823E-02 1.43506E-14-1.37667E-13
 -1      2773 2.00293E+01 6.24694E-02-2.05002E-04-8.37901E-02-3.87713E-14-5.05873E-13
 -1      2774 2.00246E+01 3.47750E-02 4.93370E-04-4.74844E-02 4.53223E-14-1.68871E-13
 -1      2775 2.00181E+01 2.94410E-02-1.28985E-04-3.85445E-02 4.65569E-14-1.13657E-13
 -1      2776 2.00212E+01 4.66332E-02-1.71091E-04-5.75246E-02 3.88346E-14-3.91937E-13
 -1      2777 2.00159E+01 2.50713E-02 3.74466E-04-3.05242E-02-2.91713E-14-7.01104E-14
 -1      2778 2.00113E+01 2.09187E-02-9.23539E-05-2.40308E-02-8.49266E-14-1.19187E-13
 -1      2779 2.00150E+01 3.39460E-02-1.41004E-04-3.78923E-02-1.18040E-14-4.08397E-13
 -1      2780 2.00096E+01 1.75501E-02 2.77934E-04-1.82743E-02-7.87429E-14-5.01818E-14
 -1      2781 2.00064E+01 1.43923E-02-6.35995E-05-1.36860E-02-6.11991E-14-1.23053E-13
 -1      2782 2.00103E+01 2.40312E-02-1.14547E-04-2.35553E-02-6.85915E-14-3.08633E-13
 -1      2783 2.00051E+01 1.18554E-02 2.01351E-04-9.67191E-03-9.47223E-14-4.62280E-14
 -1      2784 2.00031E+01 9.51001E-03-4.17255E-05-6.53412E-03-1.55059E-13-1.24853E-14
 -1      2785 2.00069E+01 1.64621E-02-9.16275E-05-1.33528E-02-1.38813E-13-2.02156E-13
 -1      2786 2.00021E+01 7.64451E-03 1.41895E-04-3.83251E-03-9.51349E-14-1.43462E-14
 -1      2787 2.00008E+01 5.94566E-03-2.55785E-05-1.77434E-03 4.19169E-14 9.50642E-14
 -1      2788 2.00043E+01 1.08169E-02-7.21152E-05-6.31017E-03-6.24043E-14-7.95821E-15
 -1      2789 2.00002E+01 4.60912E-03 9.67041E-05-3.92340E-05 5.26711E-14-6.36879E-15
 -1      2790 1.99994E+01 3.41271E-03-1.40282E-05 1.23451E-03 6.02720E-14 1.05364E-14
 -1      2791 2.00025E+01 6.70866E-03-5.57990E-05-1.63081E-03-2.52662E-14-6.00062E-14
 -1      2792 1.99990E+01 2.48336E-03 6.30947E-05 2.27523E-03 1.52574E-14-8.38147E-14
 -1      2793 1.99986E+01 1.66863E-03-6.06058E-06 2.99422E-03-8.04462E-14-1.64902E-13
 -1      2794 2.00012E+01 3.79941E-03-4.23959E-05 1.32119E-03-6.74216E-14 8.12614E-14
 -1      2795 1.99983E+01 1.04558E-03 3.86809E-05 3.55000E-03-1.00459E-14-5.33976E-14
 -1      2796 1.99982E+01 5.13931E-04-8.17720E-07 3.88891E-03 3.22684E-14 1.83309E-13
 -1      2797 2.00004E+01 1.80443E-03-3.15747E-05 3.04238E-03 4.31918E-14-5.53535E-14
 -1      2798 1.99980E+01 1.15584E-04 2.14207E-05 4.11742E-03-8.29498E-14 3.11858E-13
 -1      2799 1.99981E+01-2.11739E-04 2.39505E-06 4.20599E-03-1.47678E-13 3.83196E-13
 -1      2800 1.99998E+01 4.90276E-04-2.29857E-05 3.91218E-03 5.75745E-14 2.85303E-13
 -1      2801 1.99980E+01-4.50121E-04 9.62206E-06 4.22303E-03-4.03096E-14 4.64552E-13
 -1      2802 1.99981E+01-6.35018E-04 4.11986E-06 4.15500E-03 1.82762E-14 5.81254E-13
 -1      2803 1.99995E+01-3.30261E-04-1.62851E-05 4.21398E-03-5.54624E-14 4.99769E-13
 -1      2804 1.99981E+01-7.64102E-04 1.92172E-06 4.04316E-03-6.88600E-14 4.85103E-13
 -1      2805 1.99983E+01-8.54667E-04 4.76745E-06 3.88387E-03-8.27648E-15 4.89141E-13
 -1      2806 1.99993E+01-8.04824E-04-1.11555E-05 4.15402E-03-5.40659E-14 5.37866E-13
 -1      2807 1.99983E+01-9.13809E-04-2.75290E-06 3.69981E-03-4.67743E-14 4.19099E-13
 -1      2808 1.99985E+01-9.47266E-04 4.63800E-06 3.49254E-03 1.24014E-13 3.05545E-13
 -1      2809 1.99992E+01-1.04846E-03-7.32300E-06 3.87761E-03-6.93396E-14 4.72502E-13
 -1      2810 1.99985E+01-9.67062E-04-5.22171E-06 3.27293E-03 3.06657E-13 2.32133E-13
 -1      2811 1.99987E+01-9.72352E-04 3.96917E-06 3.04403E-03 2.66673E-13 4.09333E-13
 -1      2812 1.99992E+01-1.15033E-03-4.57277E-06 3.48279E-03 1.76961E-13 5.01220E-13
 -1      2813 1.99987E+01-9.77170E-04-6.28517E-06 2.81025E-03 1.92961E-13 3.32040E-13
 -1      2814 1.99989E+01-9.76049E-04 2.77745E-06 2.57274E-03 1.94848E-13 2.44500E-13
 -1      2815 1.99993E+01-1.17956E-03-2.78187E-06 3.03115E-03 2.14099E-13 4.70654E-13
 -1      2816 1.99990E+01-9.83262E-04-5.84475E-06 2.33561E-03 1.21127E-13 1.29776E-13
 -1      2817 1.99992E+01-9.93022E-04 4.50818E-07 2.09419E-03-1.36192E-13 9.36977E-15
 -1      2818 1.99994E+01-1.18743E-03-6.84328E-07 2.55627E-03 9.63852E-14-9.03383E-14
 -1      2819 2.73939E+01-6.02668E-01-2.89868E-02 2.53967E+00 4.86416E-14 3.47472E-13
 -1      2820 2.72642E+01-1.77289E+00-4.61971E-02 2.08033E+00-5.06184E-14 3.15022E-13
 -1      2821 2.63269E+01-2.31187E+00-3.74057E-02 1.18223E+00-8.67988E-14 2.64287E-13
 -1      2822 2.59906E+01-2.38665E+00 2.81886E-02 5.49606E-01-1.06137E-13 2.46298E-13
 -1      2823 2.72075E+01-2.63239E+00-7.15661E-02 1.12144E+00-8.42069E-14 2.27915E-13
 -1      2824 2.73976E+01 4.68127E+00-1.26997E-01 5.12682E-01 4.85417E-13 3.09523E-13
 -1      2825 2.75293E+01 3.86505E+00-1.73734E-01 1.77558E+00 4.31918E-13 3.15983E-13
 -1      2826 2.75219E+01 3.75785E+00-1.50130E-01-1.91134E+00 5.22415E-13 1.28217E-13
 -1      2827 2.73985E+01 4.65633E+00-1.58171E-01-8.56565E-01 5.44426E-13 2.30815E-13
 -1      2828 2.72585E+01-1.61698E-01-1.25055E-01-2.85605E+00 3.44086E-13-2.21934E-13
 -1      2829 2.72235E+01 1.43169E+00-5.43600E-02-2.74667E+00 4.50459E-13-6.23286E-14
 -1      2830 2.67669E+01-2.35563E+00-1.92754E-02-1.51424E+00 1.02741E-13-2.24994E-13
 -1      2831 2.70325E+01-1.50108E+00-1.91950E-02-2.14942E+00 1.67123E-13-2.57724E-13
 -1      2832 2.52701E+01-2.52338E+00 3.44886E-02 1.02741E-01-4.08900E-14-1.61017E-13
 -1      2833 2.57109E+01-2.62339E+00-3.18902E-02-5.70955E-01 3.75108E-14-2.01737E-13
 -1      2834 2.63824E+01-3.17189E+00-6.56824E-02-4.12129E-01 4.31582E-14-2.38269E-13
 -1      2835 2.37790E+01-1.78006E+00 3.58747E-02 1.19969E+00-3.62362E-14-6.55457E-14
 -1      2836 2.42578E+01-2.22513E+00-2.31173E-02 7.29582E-01-6.60912E-14-5.83773E-14
 -1      2837 2.43244E+01-2.95677E+00-4.97353E-02 1.08512E+00-1.05708E-13-1.15546E-13
 -1      2838 2.26505E+01-9.17944E-01 2.36824E-02 1.71504E+00 9.83258E-15-1.51543E-14
 -1      2839 2.30599E+01-1.34645E+00-1.04860E-02 1.47479E+00 2.60660E-14-6.05809E-15
 -1      2840 2.26987E+01-1.90772E+00-3.88801E-02 1.85454E+00-6.48548E-14-3.39312E-14
 -1      2841 2.19008E+01-2.72953E-01 1.22037E-02 1.84297E+00 3.86940E-14-9.79261E-14
 -1      2842 2.22179E+01-5.70116E-01-2.73966E-03 1.77173E+00 1.28630E-14-1.58612E-14
 -1      2843 2.16641E+01-8.92262E-01-2.55322E-02 2.09169E+00 3.81791E-15 6.05288E-15
 -1      2844 2.14218E+01 1.14206E-01 4.80300E-03 1.75456E+00-6.66866E-14 5.73648E-14
 -1      2845 2.16645E+01-5.34909E-02 1.59142E-03 1.78629E+00-2.54291E-14-3.15915E-14
 -1      2846 2.10767E+01-1.82566E-01-1.39800E-02 2.03771E+00-3.05415E-14 2.29237E-14
 -1      2847 2.11062E+01 3.04020E-01 8.83564E-04 1.56260E+00-8.43614E-14 1.86976E-13
 -1      2848 2.12976E+01 2.28413E-01 3.74878E-03 1.64758E+00-5.59486E-14 1.10546E-13
 -1      2849 2.07603E+01 2.23668E-01-6.42298E-03 1.84746E+00-1.14949E-13 2.39327E-13
 -1      2850 2.08824E+01 3.69024E-01-8.92111E-04 1.33326E+00-1.69369E-13 1.50725E-13
 -1      2851 2.10385E+01 3.49070E-01 4.72855E-03 1.43906E+00-6.39547E-14 1.49257E-13
 -1      2852 2.05861E+01 4.11847E-01-2.39114E-03 1.60421E+00-9.32357E-14 1.82489E-13
 -1      2853 2.07104E+01 3.65109E-01-1.50636E-03 1.10341E+00-8.82920E-14 6.09896E-14
 -1      2854 2.08405E+01 3.74608E-01 4.99253E-03 1.21092E+00-1.64199E-13 3.42308E-14
 -1      2855 2.04792E+01 4.66619E-01-6.30243E-04 1.35146E+00-7.57606E-14 1.05821E-13
 -1      2856 2.05705E+01 3.28379E-01-1.55175E-03 8.91959E-01-1.00049E-13 2.34998E-14
 -1      2857 2.06794E+01 3.51048E-01 4.81698E-03 9.91143E-01-6.81785E-14 4.49018E-14
 -1      2858 2.04017E+01 4.49483E-01-6.71639E-05 1.11200E+00-9.75389E-14-8.41987E-14
 -1      2859 2.04537E+01 2.79719E-01-1.35830E-03 7.07196E-01-5.41309E-14 2.98812E-14
 -1      2860 2.05443E+01 3.06408E-01 4.38914E-03 7.93660E-01-1.14712E-13-1.03209E-14
 -1      2861 2.03371E+01 3.99160E-01-2.85994E-05 8.97127E-01-7.61746E-14-1.85380E-14
 -1      2862 2.03558E+01 2.30124E-01-1.09507E-03 5.51248E-01 2.24080E-14 3.94377E-14
 -1      2863 2.04302E+01 2.56162E-01 3.84002E-03 6.23873E-01 1.07700E-14 4.40755E-14
 -1      2864 2.02796E+01 3.37779E-01-1.60191E-04 7.11314E-01-1.67300E-14-6.23085E-14
 -1      2865 2.02744E+01 1.84755E-01-8.40126E-04 4.22927E-01 4.58098E-14 5.42706E-14
 -1      2866 2.03346E+01 2.08053E-01 3.25805E-03 4.82327E-01 3.27841E-15 1.48703E-13
 -1      2867 2.02278E+01 2.76885E-01-3.02747E-04 5.55017E-01 1.10997E-15 7.51099E-14
 -1      2868 2.02078E+01 1.45573E-01-6.23415E-04 3.19438E-01-3.68863E-14 4.79287E-14
 -1      2869 2.02557E+01 1.65431E-01 2.69804E-03 3.67034E-01 8.62294E-14 6.08198E-14
 -1      2870 2.01819E+01 2.21820E-01-4.00137E-04 4.26413E-01 6.14533E-14 1.48986E-13
 -1      2871 2.01543E+01 1.12901E-01-4.51385E-04 2.37380E-01-1.87940E-14 1.45438E-13
 -1      2872 2.01917E+01 1.29316E-01 2.18998E-03 2.74871E-01-9.77822E-14 1.16208E-13
 -1      2873 2.01423E+01 1.74524E-01-4.43930E-04 3.22539E-01-7.22857E-14 2.02420E-13
 -1      2874 2.01121E+01 8.62960E-02-3.20330E-04 1.73307E-01 1.04202E-13 2.99955E-13
 -1      2875 2.01409E+01 9.95763E-02 1.74703E-03 2.02388E-01 1.59272E-13 2.65471E-13
 -1      2876 2.01090E+01 1.35192E-01-4.44026E-04 2.40006E-01 4.33252E-15 2.68014E-13
 -1      2877 2.00794E+01 6.50149E-02-2.23143E-04 1.24007E-01-7.95859E-14 2.32586E-13
 -1      2878 2.01011E+01 7.55817E-02 1.37188E-03 1.46234E-01 2.23459E-14 2.97484E-13
 -1      2879 2.00817E+01 1.03213E-01-4.14677E-04 1.75423E-01 7.14852E-14 4.08276E-13
 -1      2880 2.00545E+01 4.82415E-02-1.52428E-04 8.66328E-02 2.59527E-14 1.83479E-13
 -1      2881 2.00706E+01 5.65305E-02 1.06120E-03 1.03369E-01-5.91400E-14 1.90685E-13
 -1      2882 2.00598E+01 7.76585E-02-3.68737E-04 1.25634E-01-2.59089E-14 4.58667E-13
 -1      2883 2.00360E+01 3.51976E-02-1.01727E-04 5.87401E-02 9.63419E-14 1.76129E-13
 -1      2884 2.00477E+01 4.16140E-02 8.08620E-04 7.11417E-02 1.00187E-13 1.65159E-13
 -1      2885 2.00426E+01 5.75338E-02-3.15906E-04 8.78261E-02 3.75401E-14 2.84920E-13
 -1      2886 2.00225E+01 2.51872E-02-6.58445E-05 3.82776E-02-3.44858E-16 1.69077E-13
 -1      2887 2.00309E+01 3.00883E-02 6.06581E-04 4.73057E-02 6.75058E-14 1.66676E-13
 -1      2888 2.00295E+01 4.18980E-02-2.62707E-04 5.95717E-02 1.10730E-13 2.17644E-13
 -1      2889 2.00130E+01 1.76097E-02-4.07830E-05 2.35562E-02-3.93179E-13 9.12760E-14
 -1      2890 2.00187E+01 2.13010E-02 4.47367E-04 2.99952E-02-1.31659E-13 1.01913E-13
 -1      2891 2.00196E+01 2.99115E-02-2.13079E-04 3.88223E-02-9.97344E-14 1.49845E-13
 -1      2892 2.00063E+01 1.19589E-02-2.35436E-05 1.32062E-02-1.99943E-13-8.96955E-14
 -1      2893 2.00102E+01 1.46964E-02 3.23710E-04 1.76870E-02-3.51146E-13 1.32912E-14
 -1      2894 2.00124E+01 2.08504E-02-1.69074E-04 2.38829E-02-2.16745E-13-1.42261E-13
 -1      2895 2.00020E+01 7.81506E-03-1.19112E-05 6.13331E-03 6.19846E-14-3.67117E-14
 -1      2896 2.00044E+01 9.80990E-03 2.29067E-04 9.15649E-03-1.38616E-13-9.90432E-14
 -1      2897 2.00073E+01 1.41044E-02-1.31475E-04 1.33741E-02-1.28320E-13-3.55919E-13
 -1      2898 1.99992E+01 4.83498E-03-4.26479E-06 1.47514E-03 2.14477E-14 2.00445E-13
 -1      2899 2.00006E+01 6.25899E-03 1.57738E-04 3.43237E-03 7.12809E-14 7.43148E-14
 -1      2900 2.00037E+01 9.16730E-03-1.00265E-04 6.19041E-03-4.00344E-14-3.38107E-14
 -1      2901 1.99976E+01 2.74128E-03 5.73695E-07-1.43828E-03 6.19921E-14 1.61182E-13
 -1      2902 1.99983E+01 3.73269E-03 1.04869E-04-2.44696E-04 9.52439E-14 2.39308E-13
 -1      2903 2.00013E+01 5.62551E-03-7.49742E-05 1.45866E-03-1.33754E-14-8.64094E-14
 -1      2904 1.99968E+01 1.31247E-03 3.45370E-06-3.11981E-03 1.20053E-13 2.33920E-13
 -1      2905 1.99970E+01 1.98122E-03 6.64086E-05-2.46002E-03 1.88074E-13 3.59674E-13
 -1      2906 1.99997E+01 3.14482E-03-5.49026E-05-1.50060E-03 5.64253E-14 1.28896E-13
 -1      2907 1.99965E+01 3.73657E-04 4.98084E-06-3.95571E-03 1.02400E-13 1.02741E-13
 -1      2908 1.99965E+01 8.06176E-04 3.90339E-05-3.65782E-03 6.06646E-14 2.05484E-13
 -1      2909 1.99988E+01 1.45854E-03-3.92728E-05-3.20801E-03 1.41701E-13 2.91720E-13
 -1      2910 1.99965E+01-2.11796E-04 5.57726E-06-4.23154E-03-2.55020E-14 6.23101E-14
 -1      2911 1.99963E+01 5.17571E-05 2.00615E-05-4.16949E-03 1.09827E-14 5.18167E-14
 -1      2912 1.99984E+01 3.56244E-04-2.73197E-05-4.05588E-03 1.38893E-13 6.13269E-14
 -1      2913 1.99968E+01-5.49680E-04 5.52635E-06-4.15370E-03 7.87380E-14 1.21340E-13
 -1      2914 1.99965E+01-4.03206E-04 7.35837E-06-4.23727E-03-2.97131E-14 3.07125E-14
 -1      2915 1.99982E+01-3.26420E-04-1.83426E-05-4.33426E-03-9.00646E-15-4.80420E-14
 -1      2916 1.99972E+01-7.21349E-04 5.01671E-06-3.86692E-03 2.33916E-13 4.59258E-15
 -1      2917 1.99969E+01-6.52170E-04-7.39899E-07-4.03372E-03 1.81783E-13 1.94852E-13
 -1      2918 1.99982E+01-7.16644E-04-1.17317E-05-4.25262E-03 2.26432E-14-1.13126E-13
 -1      2919 1.99976E+01-7.89247E-04 4.17884E-06-3.46844E-03-2.50284E-14-1.20727E-13
 -1      2920 1.99973E+01-7.66872E-04-5.50168E-06-3.67742E-03 8.92446E-14-6.38904E-14
 -1      2921 1.99983E+01-9.12243E-04-6.96453E-06-3.95768E-03 1.88709E-13-3.42969E-15
 -1      2922 1.99981E+01-8.01900E-04 3.07160E-06-3.01923E-03 1.08738E-14-8.37618E-14
 -1      2923 1.99977E+01-8.02532E-04-7.87800E-06-3.24568E-03-2.08926E-14-2.05894E-13
 -1      2924 1.99985E+01-9.88268E-04-3.61097E-06-3.54790E-03 1.74178E-15-3.86599E-14
 -1      2925 1.99985E+01-7.97521E-04 1.42251E-06-2.55226E-03-1.42818E-13 7.97956E-14
 -1      2926 1.99982E+01-8.02694E-04-8.59606E-06-2.78392E-03-1.27466E-13-4.35626E-14
 -1      2927 1.99987E+01-1.00329E-03-1.39290E-06-3.08496E-03-1.25063E-13-1.73310E-13
 -1      2928 1.99988E+01-8.04689E-04-2.58731E-06-2.08002E-03 4.33723E-14 3.29596E-13
 -1      2929 1.99986E+01-8.00927E-04-8.91440E-06-2.31228E-03-6.27745E-14 2.10394E-13
 -1      2930 1.99990E+01-1.00163E-03 7.11442E-07-2.60253E-03-2.07951E-13-1.99052E-13
 -1      2931 1.99992E+01-8.81270E-04-5.29110E-06-1.68278E-03-1.42833E-13 5.87165E-13
 -1      2932 1.99990E+01-8.64822E-04-9.77940E-06-1.92307E-03-7.27188E-14 4.82286E-13
 -1      2933 1.99992E+01-1.04998E-03 8.13218E-06-2.18388E-03-6.89881E-14 8.15190E-14
 -1      2934 1.99995E+01-1.16861E-03 9.78576E-06-1.83247E-03-2.48786E-13 1.81073E-13
 -1      2935 2.00010E+01-2.67334E-03 5.99514E-06-1.62678E-04 1.89241E-13-6.68297E-13
 -1      2936 2.00009E+01-2.64132E-03 3.46672E-06-4.59470E-04 3.05845E-13-8.23012E-13
 -1      2937 1.99992E+01-1.00518E-03-6.36820E-06 1.93216E-03-2.91973E-13 1.12298E-13
 -1      2938 1.99993E+01-1.01322E-03-1.39632E-06 1.76278E-03-3.62988E-13 7.44889E-14
 -1      2939 1.99994E+01-1.19964E-03 1.10968E-06 2.14862E-03-1.49534E-13-2.74346E-13
 -1      2940 2.00006E+01-2.34011E-03 9.44216E-06-1.31563E-03 1.53860E-13-3.98970E-14
 -1      2941 2.00005E+01-2.18903E-03-2.61381E-06-1.51432E-03 3.39151E-13 1.46144E-13
 -1      2942 2.00009E+01-2.63770E-03 3.47288E-06 4.74053E-04-1.03230E-13-3.93329E-13
 -1      2943 2.00009E+01-2.67198E-03 6.02590E-06 1.77754E-04 8.55673E-14-5.82629E-13
 -1      2944 2.00012E+01-2.62069E-03-7.13833E-06 8.68890E-06 1.21893E-13-7.69015E-13
 -1      2945 2.00009E+01-2.57192E-03 8.02748E-06-7.82413E-04 1.11243E-13-7.01346E-13
 -1      2946 2.00008E+01-2.47644E-03 3.47444E-07-1.04616E-03 1.13142E-13-3.33450E-13
 -1      2947 2.00009E+01-2.36702E-03-6.53502E-06-1.29629E-03 4.61207E-14-2.11270E-13
 -1      2948 2.00011E+01-2.55776E-03-6.99860E-06-6.80093E-04 1.68902E-13-6.84127E-13
 -1      2949 2.49664E+01-2.15530E+00-2.76270E-02-9.13709E-02-4.36578E-14 2.12350E-13
 -1      2950 2.45803E+01-1.69567E+00 4.82556E-02-5.25788E-01-2.39205E-14 2.13136E-13
 -1      2951 2.51883E+01-2.81335E+00-4.77893E-02-4.02952E-01-9.10517E-14 1.34667E-13
 -1      2952 2.00008E+01-2.47248E-03 3.56055E-07 1.04871E-03-1.26523E-14-2.70230E-13
 -1      2953 2.00009E+01-2.56732E-03 7.99951E-06 7.90488E-04-1.18935E-13-2.36676E-13
 -1      2954 2.00011E+01-2.55363E-03-7.02183E-06 6.90612E-04-6.30724E-16-4.37693E-13
 -1      2955 2.00005E+01-2.18410E-03-2.63405E-06 1.51536E-03 1.64387E-13 2.12695E-13
 -1      2956 2.00006E+01-2.33553E-03 9.42953E-06 1.31732E-03 1.33365E-13-1.19805E-14
 -1      2957 2.00009E+01-2.36141E-03-6.24373E-06 1.29904E-03 4.11211E-14 1.01433E-14
 -1      2958 2.00001E+01-1.79274E-03-2.28759E-06 1.80032E-03 1.54428E-14 4.64903E-13
 -1      2959 2.00003E+01-1.99135E-03 8.87935E-06 1.69864E-03 1.40053E-13 4.02688E-13
 -1      2960 2.00005E+01-2.05394E-03-4.03846E-06 1.77032E-03 3.79077E-14 2.91634E-13
 -1      2961 1.15757E+01-2.71901E+00 1.60517E-01-5.94107E+00 4.67654E-13 5.38958E-13
 -1      2962 1.45429E+01-3.75125E+00 1.55363E-03-6.55770E+00 5.48006E-13 2.18825E-13
 -1      2963 1.10515E+01-1.71077E+00 5.44362E-02 6.04157E+00 2.46456E-13-3.81750E-13
 -1      2964 8.66496E+00-6.51535E-01 1.88332E-01 4.75707E+00 2.46442E-13-4.22939E-13
 -1      2965 2.29066E+01-5.37480E+00-3.98848E-03 4.47516E+00-1.41553E-13-9.93459E-14
 -1      2966 2.03502E+01-5.12199E+00 6.31958E-02 5.28342E+00-2.30121E-13-4.99323E-14
 -1      2967 3.02021E+01 3.70611E+00-2.07145E-01-2.22769E+00 6.57613E-13-1.69587E-14
 -1      2968 3.04616E+01 2.38941E+00-1.08076E-01-2.48783E+00 6.35547E-13-9.12048E-14
 -1      2969 2.78781E+01-2.75807E+00-2.59885E-02-7.75376E-01 1.26239E-13-3.60142E-13
 -1      2970 2.85342E+01-1.63600E+00-1.54621E-01 7.36796E-02 2.38073E-14-3.93893E-13
 -1      2971 2.32435E+01-4.09812E+00-3.47779E-02 4.10573E+00 8.94285E-14-2.05669E-14
 -1      2972 2.01436E+01-3.86440E+00 1.16045E-01 5.48123E+00 1.90292E-13-1.34856E-13
 -1      2973 2.23553E+01 7.76014E-01-1.00146E-02-9.23704E-01-1.10098E-13-2.48343E-13
 -1      2974 2.24831E+01 3.26726E-01-8.66447E-03-8.32884E-01-1.13055E-13-2.20406E-13
 -1      2975 2.20277E+01 9.50656E-01 3.98217E-03-7.70915E-01-6.12329E-14-2.58894E-13
 -1      2976 2.26701E+01 8.75786E-03 4.91485E-03-8.12741E-01-9.34632E-14-1.93448E-13
 -1      2977 2.26979E+01-3.18130E-01-1.49419E-02-8.03106E-01-7.56526E-14-1.68664E-13
 -1      2978 2.28182E+01-5.31235E-01-1.22820E-02-7.40874E-01-4.72310E-14-1.49918E-13
 -1      2979 2.24761E+01 8.83178E-02 7.15199E-03-6.98012E-01-6.14482E-14-1.89178E-13
 -1      2980 2.43150E+01-4.78962E+00 7.16441E-02-3.72831E+00 3.48090E-13-1.87454E-13
 -1      2981 2.64430E+01-4.09046E+00-9.36020E-02-2.35268E+00 2.08590E-13-2.83495E-13
 -1      2982 2.66484E+01-3.49495E+00 2.52010E-02-1.10389E+00 2.34472E-13-3.68455E-13
 -1      2983 1.99995E+01-1.22409E-03-1.58001E-06 1.81628E-03-2.89301E-13-2.98116E-15
 -1      2984 2.38103E+01-1.18774E+00-1.68190E-02-7.55832E-01 3.99862E-14 1.80290E-13
 -1      2985 2.35129E+01-6.14893E-01 3.93340E-02-8.94314E-01 7.86365E-14 1.67756E-13
 -1      2986 2.24226E+01-3.60005E-01-2.89487E-02-1.13565E+00 1.19816E-13 7.52627E-14
 -1      2987 2.34969E+01-1.74111E+00-4.50430E-02-1.14172E+00-4.17288E-15 7.90201E-14
 -1      2988 1.58027E+01 3.48372E+00 1.84413E-02-5.83645E-01 3.01646E-13-2.53985E-13
 -1      2989 1.49935E+01 3.68295E+00-2.07830E-02-3.39684E-01 2.94047E-13-2.78460E-13
 -1      2990 1.61948E+01 2.80865E+00 1.23487E-02-1.05649E+00 2.62783E-13-2.34186E-13
 -1      2991 2.88694E+01-2.59011E+00 5.94100E-04 7.15322E-01-6.51805E-14 1.47327E-13
 -1      2992 2.94962E+01-1.08451E+00-1.90317E-01 1.81223E+00 3.21271E-14 2.53450E-13
 -1      2993 1.87856E+01 1.87809E+00-7.91579E-03 1.14543E+00 1.72297E-13-3.12101E-13
 -1      2994 1.95834E+01 1.64620E+00 7.02056E-03 8.12733E-01 1.27085E-13-3.04883E-13
 -1      2995 2.85909E+01 6.63862E+00-1.74952E-01 4.81526E-01-5.82090E-13-2.00329E-13
 -1      2996 2.82702E+01 6.60615E+00-2.01286E-01-3.97256E-01-6.08791E-13-1.61010E-13
 -1      2997 7.90701E+00-9.00520E-01 1.56638E-01-3.36144E+00 2.25167E-13 7.28778E-13
 -1      2998 9.41633E+00-1.84837E+00 1.11105E-01-5.08263E+00 3.39215E-13 7.48512E-13
 -1      2999 1.20276E+01-1.73481E+00 1.69000E-01-5.09676E+00 4.31204E-13 4.94715E-13
 -1      3000 6.79096E+00-5.02609E-01 2.00434E-01 9.86798E-01-7.43954E-14 4.77118E-13
 -1      3001 6.93235E+00-3.55776E-01 1.29571E-01-1.15230E+00-2.07473E-14 6.23140E-13
 -1      3002 7.00885E+00 4.48609E-01 1.58669E-01-1.59392E+00 9.33698E-14-5.55167E-13
 -1      3003 8.47970E+00-1.70080E-01 1.19685E-01-3.35029E+00 2.58543E-14-5.32324E-13
 -1      3004 1.69153E+01-3.48870E+00-8.03213E-03 6.39518E+00 2.17257E-13-2.62589E-13
 -1      3005 1.42303E+01-2.55929E+00 1.55556E-01 6.33199E+00 2.71699E-13-3.35149E-13
 -1      3006 1.36044E+01-1.60476E+00 1.23717E-01 5.78478E+00 2.98386E-13-3.43170E-13
 -1      3007 1.93158E+01-3.22993E+00 9.25649E-02 5.32226E+00 2.51937E-13-1.61395E-13
 -1      3008 2.52733E+01-4.69627E+00 9.99449E-02-2.97476E+00-2.09013E-13-7.82846E-14
 -1      3009 2.75317E+01-4.28297E+00-1.42691E-01-1.43895E+00-1.20522E-13 9.21485E-15
 -1      3010 2.92543E+01 1.80700E+00-1.78133E-01-1.54420E+00-4.57287E-13 2.77695E-14
 -1      3011 2.92407E+01-1.29254E-01-1.65883E-02-6.16709E-01-3.33608E-13 4.97380E-14
 -1      3012 1.85366E+01-4.00325E+00 1.62411E-01-5.45388E+00-2.17826E-13-3.40415E-13
 -1      3013 2.18238E+01-4.91060E+00-8.73917E-02-4.75294E+00-2.22405E-13-2.01212E-13
 -1      3014 2.88631E+01 4.74124E+00-1.20488E-01 1.73183E+00-3.98126E-13-3.51150E-13
 -1      3015 2.87449E+01 5.95456E+00-2.12271E-01 1.12587E+00-4.85834E-13-2.38962E-13
 -1      3016 2.69376E+01 5.49371E+00-9.14351E-02 9.30832E-01-4.52416E-13-2.80567E-13
 -1      3017 1.84278E+01-4.42618E+00 1.50794E-01-6.06398E+00 5.32102E-13 1.41942E-13
 -1      3018 2.14068E+01-5.05440E+00-6.76301E-02-5.30796E+00 4.60063E-13 4.24799E-14
 -1      3019 2.91063E+01 4.61867E-01-7.54807E-02 1.10945E+00-9.96841E-14-4.35540E-13
 -1      3020 2.91921E+01 2.65584E+00-2.17952E-01 1.65907E+00-2.83912E-13-4.44450E-13
 -1      3021 2.22372E+01 1.24875E+00-3.98519E-03-3.12333E-01 2.56382E-13 1.73827E-13
 -1      3022 2.02770E+01 1.43574E+00-1.17385E-03 3.85184E-01 9.28117E-14-3.12095E-13
 -1      3023 2.08912E+01 1.25825E+00-5.06531E-03 2.16802E-02 4.76891E-14-3.29362E-13
 -1      3024 2.02305E+01 9.23558E-01-1.34883E-02 7.83743E-01 1.10091E-13-2.77274E-13
 -1      3025 1.48957E+01 3.11673E+00 1.29975E-02 1.76284E+00 2.63393E-13-3.23915E-13
 -1      3026 1.53435E+01 3.27582E+00-2.70052E-02 1.62903E+00 2.67250E-13-3.30005E-13
 -1      3027 1.61553E+01 3.04383E+00 3.39679E-02 1.68450E+00 2.43206E-13-3.27620E-13
 -1      3028 8.75216E+00-3.68613E-01 1.65455E-01 1.98727E+00-1.40780E-13 3.41227E-13
 -1      3029 2.88164E+01 3.61689E+00-1.38999E-01 2.38198E+00 3.65596E-13 3.63529E-13
 -1      3030 2.70932E+01 2.45347E+00-5.35936E-02 2.46082E+00 3.04146E-13 3.32710E-13
 -1      3031 2.72177E+01 7.98382E-01-1.72041E-01 2.90440E+00 1.68671E-13 3.77816E-13
 -1      3032 2.97465E+01 2.83498E+00-2.28644E-01 2.46472E+00 3.39118E-13 3.76060E-13
 -1      3033 2.74685E+01 5.72638E+00-1.33290E-01-8.40287E-01-5.57138E-13-1.11681E-13
 -1      3034 8.86714E+00 2.56823E-01 1.77174E-01 3.72622E+00 2.58890E-13-4.42341E-13
 -1      3035 2.90422E+01-3.10245E+00-2.21462E-02 5.00608E-03 2.71567E-13-3.02453E-13
 -1      3036 2.84779E+01-5.79208E-02-4.40026E-02 2.63315E+00 1.03181E-13 3.48790E-13
 -1      3037 2.97658E+01 1.26384E+00-8.63101E-02 2.47825E+00 1.80439E-13 3.49942E-13
 -1      3038 1.87669E+01-4.63029E+00 6.98338E-02 5.64308E+00-2.77778E-13 2.15453E-14
 -1      3039 1.69603E+01-3.69305E+00 1.01892E-01 5.57641E+00-3.25004E-13 1.10981E-13
 -1      3040 2.06506E+01-4.40654E+00 7.17097E-02 4.67947E+00-3.04604E-13-2.81025E-14
 -1      3041 2.81045E+01-6.24896E-01-2.39634E-02 1.15863E+00 8.06299E-15-5.04041E-13
 -1      3042 2.77923E+01 3.14135E+00-6.06618E-02 1.95981E+00-2.41474E-13-3.95545E-13
 -1      3043 2.00005E+01-2.06258E-03-4.80227E-06-1.76821E-03 2.52697E-13 4.00886E-14
 -1      3044 2.00003E+01-1.99750E-03 9.67410E-06-1.69760E-03 3.42897E-13 2.36547E-15
 -1      3045 2.00001E+01-1.80211E-03-3.64482E-06-1.80243E-03 6.67833E-14-1.84423E-13
 -1      3046 1.73926E+01-3.08904E+00 1.35096E-01-5.21204E+00-1.93345E-13-3.53460E-13
 -1      3047 2.80829E+01-1.20309E+00-4.29671E-02-2.26143E+00 2.81719E-13-1.99091E-13
 -1      3048 1.99999E+01-1.60790E-03 9.11387E-06-1.86287E-03-1.57786E-13-2.16082E-13
 -1      3049 1.99997E+01-1.38516E-03-4.40548E-06-1.85899E-03-2.08249E-13-1.05568E-13
 -1      3050 1.99996E+01-1.32745E-03-9.33450E-06-2.05015E-03-1.54809E-13-7.03744E-14
 -1      3051 2.00000E+01-1.70437E-03-5.76767E-06-2.01831E-03 7.82138E-14-8.22470E-14
 -1      3052 2.38716E+01-4.43081E+00 6.34888E-02-3.26428E+00-2.36769E-13-8.89080E-14
 -1      3053 7.39096E+00 1.00125E+00 1.76028E-01-3.88001E-01 1.61928E-13-5.30909E-13
 -1      3054 9.01372E+00 1.41023E+00 1.17374E-01-1.04599E+00 1.40176E-13-4.75342E-13
 -1      3055 8.03802E+00 1.43048E+00 7.94520E-02 1.02388E+00 2.30878E-13-4.55275E-13
 -1      3056 1.44855E+01 3.52121E+00 2.80077E-02-2.52372E-01 2.69336E-13-2.93669E-13
 -1      3057 1.73172E+01-3.61156E+00 1.22163E-01-5.80411E+00 5.32019E-13 1.95205E-13
 -1      3058 8.94157E+00-1.79713E-01 1.57229E-01-2.04096E+00 9.86988E-14 5.55972E-13
 -1      3059 1.99997E+01-1.45826E-03 3.29013E-07 1.82638E-03-5.09738E-14-2.32226E-15
 -1      3060 1.06552E+01-4.58420E-01 1.74972E-01-4.04132E+00-1.47660E-14-5.09370E-13
 -1      3061 1.28343E+01-1.03461E+00-5.76308E-03-4.54174E+00-6.78485E-14-4.33320E-13
 -1      3062 1.06433E+01 5.31441E-01 1.07640E-01-3.09404E+00 5.45536E-14-4.63213E-13
 -1      3063 2.46494E+01-3.95205E+00 2.98365E-02 3.12429E+00 5.78149E-14 1.05957E-14
 -1      3064 2.29003E+01-3.67035E+00 1.81383E-02 3.59755E+00 1.47188E-13-4.05405E-14
 -1      3065 2.54324E+01-3.52090E+00-4.52086E-02 1.91724E+00 3.23942E-14 2.09971E-14
 -1      3066 2.92861E+01 4.20374E+00-1.53830E-01-2.04751E+00 6.12621E-13 1.00170E-13
 -1      3067 2.97517E+01 9.37444E-01-9.73060E-02-2.33264E+00 5.58484E-13-1.36363E-13
 -1      3068 2.46216E+01-5.14698E+00 5.78188E-02 3.36737E+00-1.02737E-13-1.28009E-13
 -1      3069 2.36816E+01-4.84876E+00 5.32451E-02 3.48296E+00-2.20601E-13-6.66169E-14
 -1      3070 2.58414E+01-5.00924E+00-1.41223E-01 2.14240E+00-2.77625E-14-1.91909E-13
 -1      3071 2.77423E+01-3.22098E+00-1.26139E-02 2.34295E-01-1.10653E-13 1.48645E-13
 -1      3072 2.30609E+01-4.62052E+00 5.78695E-02-3.96056E+00 4.51292E-13-1.09298E-13
 -1      3073 1.19662E+01-2.42346E+00 1.52696E-01 5.10273E+00-2.53422E-13 1.70711E-13
 -1      3074 1.99997E+01-1.37515E-03 1.67643E-06 2.08596E-03-1.30706E-13-2.50043E-13
 -1      3075 1.99999E+01-1.62512E-03 1.75563E-06 1.92709E-03-6.30639E-14 2.11183E-13
 -1      3076 2.00001E+01-1.70100E-03-3.04746E-06 2.07229E-03-4.44172E-14 3.06648E-13
 -1      3077 1.99997E+01-1.36976E-03-3.98175E-06 2.25251E-03-1.77501E-13-3.18865E-13
 -1      3078 2.96820E+01 5.81952E+00-1.21142E-01 2.79144E-01 5.67019E-13 2.52524E-13
 -1      3079 1.70102E+01 2.51844E+00-2.42340E-02 1.65339E+00 2.30163E-13-3.09648E-13
 -1      3080 1.79289E+01 2.25254E+00 2.15583E-02 1.47078E+00 1.98017E-13-3.23825E-13
 -1      3081 1.85777E+01 1.45113E+00-1.36575E-02 1.59012E+00 1.83743E-13-2.90717E-13
 -1      3082 2.76230E+01 3.64830E+00-1.18961E-01-2.11478E+00-5.00711E-13 4.32987E-14
 -1      3083 2.88050E+01 2.74784E+00-1.06761E-01-1.97947E+00-4.78922E-13 4.06897E-14
 -1      3084 2.78637E+01 1.42683E+00-2.66083E-02-1.97409E+00-3.72230E-13 1.14367E-13
 -1      3085 2.80179E+01-1.55781E+00-4.63804E-02-1.89038E-01-2.10177E-13 5.66353E-14
 -1      3086 2.13986E+01 1.21486E+00-1.43612E-02-6.30426E-01 2.45312E-13 6.32419E-14
 -1      3087 2.10054E+01 8.52652E-01-1.31915E-03-1.06002E+00 2.18349E-13 1.81864E-14
 -1      3088 2.13194E+01 1.92788E-01 2.74657E-02-1.43033E+00 1.49824E-13-5.13435E-15
 -1      3089 2.01124E+01 7.13498E-01 6.98692E-03-1.55960E+00 1.94591E-13-6.80116E-14
 -1      3090 2.17333E+01-5.63756E-01 8.99738E-03-1.62351E+00 9.06397E-14-1.62652E-14
 -1      3091 1.87441E+01 1.12459E+00-1.79607E-02-1.67442E+00 1.97207E-13-1.51516E-13
 -1      3092 1.65496E+01 2.12607E+00 4.36603E-02-1.67338E+00 2.12464E-13-2.32780E-13
 -1      3093 1.51789E+01 2.51278E+00-3.29690E-02-1.37712E+00 2.18844E-13-2.72102E-13
 -1      3094 2.58715E+01 5.37425E+00-1.06616E-01-5.94854E-01-5.23803E-13-1.30031E-13
 -1      3095 2.66822E+01 4.74781E+00-1.33729E-01-1.60040E+00-5.17669E-13-4.29309E-14
 -1      3096 1.02394E+01-3.95110E-01 1.48509E-01 3.12010E+00-2.20948E-13 8.80546E-14
 -1      3097 9.55828E+00 1.84560E-01 6.74849E-02 1.34915E+00-1.72085E-13 3.02869E-13
 -1      3098 1.61622E+01-1.86902E+00 1.79797E-01-4.83182E+00-1.43517E-13-3.74700E-13
 -1      3099 1.90671E+01-3.23953E+00-7.67977E-02-4.62275E+00-1.80973E-13-2.45047E-13
 -1      3100 2.38886E+01-1.10509E+00 5.06657E-03-1.21032E+00-3.34693E-14-7.83904E-14
 -1      3101 2.39570E+01-8.92365E-01-2.32776E-02-1.45089E+00-6.02036E-14-5.64711E-14
 -1      3102 2.42381E+01-3.86664E-01-8.62970E-03-1.87133E+00-1.24650E-13-1.69613E-14
 -1      3103 2.41320E+01 2.95852E-01-4.00739E-03-1.95511E+00-1.97998E-13-4.61541E-14
 -1      3104 2.46204E+01-8.82688E-01-3.13740E-02-1.58868E+00-8.10428E-14-1.69396E-14
 -1      3105 2.40640E+01 1.12900E+00-4.32662E-02-2.03523E+00-2.55646E-13-3.02649E-14
 -1      3106 2.38559E+01 2.00572E+00 1.64366E-03-1.76795E+00-3.03597E-13-6.89058E-14
 -1      3107 2.48225E+01 7.65473E-01-3.97912E-02-2.13217E+00-2.26402E-13 2.43035E-14
 -1      3108 2.40506E+01 3.08526E+00-5.82264E-02-1.34046E+00-3.36814E-13-1.14176E-13
 -1      3109 2.38950E+01 3.61004E+00-4.33723E-02-7.00127E-01-3.32845E-13-1.40363E-13
 -1      3110 2.37012E+01 2.37071E+00 7.25443E-03 1.57962E+00-2.93179E-13-2.61205E-13
 -1      3111 2.38087E+01 1.45666E+00-6.62223E-02 1.91508E+00-1.52042E-13-3.26684E-13
 -1      3112 2.39669E+01 5.47470E-01 5.64043E-04 1.96836E+00-5.34781E-14-3.27062E-13
 -1      3113 2.40213E+01-3.16896E-01-3.87055E-02 1.89320E+00-3.13638E-15-3.51056E-13
 -1      3114 2.46173E+01 1.11411E+00-4.25979E-02 2.09324E+00-1.16154E-13-4.05870E-13
 -1      3115 2.38800E+01-9.90427E-01-6.41328E-03 1.47642E+00 1.74357E-14-3.33852E-13
 -1      3116 2.37713E+01-1.44904E+00-7.33027E-03 1.14794E+00 4.53684E-14-3.56662E-13
 -1      3117 2.45658E+01-9.03381E-01 1.57549E-03 1.61000E+00-2.03917E-15-3.97829E-13
 -1      3118 2.33510E+01-1.69247E+00-1.30934E-02 6.58346E-01 5.58761E-14-3.56498E-13
 -1      3119 2.31305E+01-1.75578E+00 1.36440E-02 2.94192E-01 4.62762E-14-3.36491E-13
 -1      3120 2.38779E+01-1.89403E+00-7.99418E-03 6.65532E-01 2.92123E-14-4.31133E-13
 -1      3121 2.26225E+01-1.69890E+00-1.21794E-02-8.76961E-02 5.20907E-14-2.80789E-13
 -1      3122 2.23566E+01-1.53728E+00 1.82541E-02-3.72344E-01 2.75268E-15-3.02136E-13
 -1      3123 2.29405E+01-2.02932E+00-1.08660E-02-2.23848E-01 5.64997E-14-3.94685E-13
 -1      3124 2.19068E+01-1.34197E+00-7.53240E-03-5.98451E-01-2.80570E-14-1.88268E-13
 -1      3125 2.16534E+01-1.10803E+00 1.54669E-02-7.79722E-01-1.35093E-14-1.24750E-13
 -1      3126 2.20123E+01-1.65998E+00-1.63785E-02-7.93254E-01 6.16436E-14-2.48382E-13
 -1      3127 2.13141E+01-8.86809E-01-3.42823E-03-8.82346E-01-3.25631E-14-1.18515E-13
 -1      3128 2.11037E+01-6.64962E-01 1.09326E-02-9.74892E-01-3.72758E-14-1.41065E-13
 -1      3129 2.12709E+01-1.12898E+00-1.56630E-02-1.07699E+00 2.24146E-14-1.31110E-13
 -1      3130 2.08735E+01-4.74292E-01-5.74346E-04-9.95195E-01-4.23833E-14-6.32044E-14
 -1      3131 2.07134E+01-3.00622E-01 7.00491E-03-1.02368E+00-1.78336E-14-1.02264E-13
 -1      3132 2.07444E+01-6.29213E-01-1.17752E-02-1.16279E+00 2.19670E-14-7.09231E-14
 -1      3133 2.05691E+01-1.59411E-01 8.95698E-04-9.96592E-01-2.06703E-14-2.91452E-14
 -1      3134 2.04530E+01-3.95306E-02 3.96623E-03-9.83376E-01-7.73451E-15-9.66874E-14
 -1      3135 2.04018E+01-2.40763E-01-7.92601E-03-1.13022E+00 1.51345E-14 1.05260E-14
 -1      3136 2.03693E+01 5.33694E-02 1.51534E-03-9.31587E-01 4.44754E-14-1.03857E-13
 -1      3137 2.02868E+01 1.26698E-01 1.85914E-03-8.93751E-01 4.66986E-14-6.19224E-14
 -1      3138 2.01942E+01 2.67246E-02-4.93583E-03-1.03495E+00 2.76699E-14 3.72609E-14
 -1      3139 2.02425E+01 1.80254E-01 1.71710E-03-8.31372E-01-2.20781E-14-3.03428E-14
 -1      3140 2.01840E+01 2.18181E-01 5.13972E-04-7.81040E-01-1.41617E-14-7.17875E-14
 -1      3141 2.00775E+01 1.90353E-01-2.87742E-03-9.10968E-01 2.70385E-14 1.07102E-13
 -1      3142 2.01637E+01 2.42987E-01 1.72903E-03-7.16574E-01 5.38739E-14-1.11122E-13
 -1      3143 2.01216E+01 2.56323E-01-2.76341E-04-6.61960E-01 1.23708E-13-1.16434E-13
 -1      3144 2.00180E+01 2.75269E-01-1.55542E-03-7.78488E-01-1.98241E-14-2.92538E-14
 -1      3145 2.01149E+01 2.61856E-01 1.65060E-03-6.00401E-01 8.69819E-14-2.09175E-13
 -1      3146 2.00839E+01 2.59494E-01-6.90185E-04-5.46794E-01 1.40005E-14-2.55196E-13
 -1      3147 1.99921E+01 3.05483E-01-7.59541E-04-6.49302E-01 1.32680E-14-2.16450E-13
 -1      3148 2.00844E+01 2.53209E-01 1.52471E-03-4.90904E-01-7.20523E-14-3.48550E-13
 -1      3149 2.00610E+01 2.41802E-01-8.61193E-04-4.41466E-01-1.45642E-13-4.47868E-13
 -1      3150 1.99845E+01 3.00659E-01-3.11933E-04-5.30070E-01-7.29935E-14-2.91887E-13
 -1      3151 2.00646E+01 2.29106E-01 1.37217E-03-3.92560E-01-7.59707E-14-4.58059E-13
 -1      3152 2.00465E+01 2.13307E-01-8.83973E-04-3.48940E-01-3.05648E-14-5.09740E-13
 -1      3153 1.99859E+01 2.75522E-01-8.12904E-05-4.24217E-01-1.47939E-13-4.27766E-13
 -1      3154 2.00510E+01 1.97876E-01 1.20623E-03-3.07390E-01-3.74331E-14-4.48770E-13
 -1      3155 2.00369E+01 1.80739E-01-8.23022E-04-2.70202E-01 1.98543E-14-5.59336E-13
 -1      3156 1.99908E+01 2.40403E-01 2.18008E-05-3.33064E-01-3.20826E-14-4.74102E-13
 -1      3157 2.00411E+01 1.64914E-01 1.03721E-03-2.35776E-01-2.78423E-14-5.68614E-13
 -1      3158 2.00299E+01 1.48306E-01-7.20824E-04-2.04959E-01-3.72829E-14-5.81721E-13
 -1      3159 1.99964E+01 2.02124E-01 5.49081E-05-2.56559E-01 2.78566E-14-4.99195E-13
 -1      3160 2.00335E+01 1.33462E-01 8.73356E-04-1.77067E-01-2.68911E-14-6.92372E-13
 -1      3161 2.00246E+01 1.18416E-01-6.04225E-04-1.52153E-01-1.10658E-13-7.18473E-13
 -1      3162 2.00013E+01 1.64888E-01 5.32601E-05-1.93790E-01-6.03070E-14-5.67990E-13
 -1      3163 2.00272E+01 1.05263E-01 7.20826E-04-1.30021E-01-2.02042E-14-6.57366E-13
 -1      3164 2.00202E+01 9.22522E-02-4.89237E-04-1.10328E-01 1.64152E-14-5.42618E-13
 -1      3165 2.00048E+01 1.31044E-01 3.72640E-05-1.43355E-01-3.63437E-14-4.62113E-13
 -1      3166 2.00220E+01 8.10666E-02 5.83608E-04-9.31121E-02-6.57738E-14-5.49726E-13
 -1      3167 2.00165E+01 7.02044E-02-3.84577E-04-7.78757E-02-4.66211E-14-5.90039E-13
 -1      3168 2.00071E+01 1.01688E-01 1.79419E-05-1.03625E-01 2.01566E-14-3.97095E-13
 -1      3169 2.00177E+01 6.09930E-02 4.63753E-04-6.47481E-02-3.92458E-14-5.28411E-13
 -1      3170 2.00134E+01 5.21831E-02-2.94223E-04-5.32076E-02-1.18478E-14-5.26950E-13
 -1      3171 2.00083E+01 7.71103E-02 6.36796E-07-7.29293E-02-2.53234E-15-4.47396E-13
 -1      3172 2.00140E+01 4.47999E-02 3.61739E-04-4.34006E-02 5.30425E-14-5.58058E-13
 -1      3173 2.00107E+01 3.78319E-02-2.19212E-04-3.48494E-02 5.85357E-14-5.84139E-13
 -1      3174 2.00086E+01 5.71208E-02-1.25713E-05-4.96752E-02-6.07589E-15-5.14307E-13
 -1      3175 2.00109E+01 3.20556E-02 2.76900E-04-2.76827E-02 4.72166E-14-5.40878E-13
 -1      3176 2.00084E+01 2.66708E-02-1.58874E-04-2.14955E-02-9.58869E-14-4.61193E-13
 -1      3177 2.00083E+01 4.12665E-02-2.13525E-05-3.24185E-02 1.19689E-13-5.47126E-13
 -1      3178 2.00083E+01 2.22535E-02 2.07825E-04-1.63862E-02-1.11819E-13-3.62824E-13
 -1      3179 2.00065E+01 1.81852E-02-1.11648E-04-1.20290E-02-2.88731E-14-3.24410E-13
 -1      3180 2.00076E+01 2.89792E-02-2.62160E-05-1.98972E-02-9.70250E-15-4.54100E-13
 -1      3181 2.00063E+01 1.48833E-02 1.52692E-04-8.49108E-03-9.22977E-15-1.71796E-13
 -1      3182 2.00049E+01 1.18801E-02-7.56096E-05-5.52099E-03-2.40305E-14-1.36642E-13
 -1      3183 2.00067E+01 1.96675E-02-2.79879E-05-1.10420E-02 8.28102E-14-3.02969E-13
 -1      3184 2.00046E+01 9.47027E-03 1.09520E-04-3.15875E-03-4.86614E-14-3.85564E-14
 -1      3185 2.00036E+01 7.30814E-03-4.87891E-05-1.21742E-03-2.86755E-14-7.49018E-16
 -1      3186 2.00058E+01 1.27703E-02-2.75311E-05-4.96918E-03 5.85856E-14-6.16682E-14
 -1      3187 2.00033E+01 5.59542E-03 7.63527E-05 2.84221E-04-7.55244E-14 1.66645E-13
 -1      3188 2.00026E+01 4.08279E-03-2.93489E-05 1.48029E-03-7.12840E-14 5.22599E-14
 -1      3189 2.00048E+01 7.78552E-03-2.56105E-05-9.64823E-04 2.71268E-14-1.84194E-14
 -1      3190 2.00023E+01 2.90271E-03 5.13689E-05 2.36724E-03 1.86688E-15 1.19031E-13
 -1      3191 2.00018E+01 1.88045E-03-1.56744E-05 3.03756E-03 1.60464E-13 2.68102E-13
 -1      3192 2.00039E+01 4.28182E-03-2.28429E-05 1.53585E-03-1.44567E-14 2.12803E-13
 -1      3193 2.00015E+01 1.09804E-03 3.29473E-05 3.49782E-03 1.91607E-13 1.72941E-13
 -1      3194 2.00012E+01 4.37106E-04-6.40611E-06 3.80871E-03 1.38355E-13 2.31628E-13
 -1      3195 2.00030E+01 1.89969E-03-1.96931E-05 2.97072E-03 1.84105E-13 2.22091E-13
 -1      3196 2.00009E+01-5.60489E-05 1.96948E-05 3.98292E-03 8.32456E-14 3.61748E-13
 -1      3197 2.00007E+01-4.58260E-04-4.35456E-07 4.05743E-03-1.72581E-14 4.55298E-13
 -1      3198 2.00023E+01 3.46756E-04-1.64933E-05 3.67236E-03 1.68575E-13 2.04789E-13
 -1      3199 2.00005E+01-7.47770E-04 1.04512E-05 4.04828E-03-1.41587E-13 6.03091E-13
 -1      3200 2.00004E+01-9.71658E-04 3.11991E-06 3.97493E-03-1.00100E-13 4.56703E-13
 -1      3201 2.00017E+01-6.10151E-04-1.34656E-05 3.88772E-03-7.59109E-14 3.54186E-13
 -1      3202 2.00002E+01-1.12429E-03 4.27581E-06 3.85513E-03-4.19750E-14 4.20729E-13
 -1      3203 2.00001E+01-1.23220E-03 4.93738E-06 3.69540E-03 1.55625E-14 5.13802E-13
 -1      3204 2.00012E+01-1.15417E-03-1.07513E-05 3.79547E-03-5.12231E-14 4.44396E-13
 -1      3205 2.00000E+01-1.29958E-03 4.23670E-07 3.51438E-03-2.60845E-14 5.36910E-13
 -1      3206 2.00000E+01-1.33948E-03 5.64458E-06 3.30881E-03 1.38991E-13 3.57656E-13
 -1      3207 2.00008E+01-1.42763E-03-8.46961E-06 3.52061E-03 8.32205E-14 4.51258E-13
 -1      3208 1.99998E+01-1.36230E-03-1.80653E-06 3.09889E-03 2.32718E-13 2.95231E-13
 -1      3209 1.99998E+01-1.37095E-03 4.76448E-06 2.87149E-03 1.99593E-13 2.32435E-13
 -1      3210 2.00005E+01-1.53984E-03-6.67305E-06 3.14723E-03 1.73120E-14 3.19936E-13
 -1      3211 1.99997E+01-1.36498E-03-3.10495E-06 2.68391E-03 3.77514E-14 5.27844E-14
 -1      3212 1.99997E+01-1.37052E-03 2.79696E-06 2.44487E-03-1.29082E-13-1.22899E-13
 -1      3213 2.00000E+01-1.54358E-03-1.04896E-07 2.38334E-03-1.76368E-13-1.66619E-14
 -1      3214 2.00002E+01-1.55897E-03-4.35813E-06 2.76043E-03 7.44988E-14 2.77741E-13
 -1      3215 2.00014E+01-2.47887E-03-3.15420E-07 9.13079E-04 9.53344E-14-3.30175E-13
 -1      3216 2.00015E+01-2.53611E-03 5.80820E-06 5.80403E-04 3.14481E-13-4.85846E-13
 -1      3217 2.85737E+01 1.55299E+00-1.64638E-01-2.81621E+00 5.36349E-13-2.68952E-14
 -1      3218 2.74073E+01 2.26085E+00-1.18696E-01-2.77901E+00 4.78756E-13 3.08989E-14
 -1      3219 2.54637E+01-3.97100E+00 6.81972E-02 1.38199E+00-1.23312E-13-1.53329E-13
 -1      3220 2.66658E+01-3.85027E+00 1.46617E-02 5.17020E-01 3.95968E-14-2.02588E-13
 -1      3221 2.06429E+01-5.30637E-01 1.52139E-02 2.39090E+00-1.15647E-14 3.39431E-14
 -1      3222 2.10514E+01-9.97000E-01 1.68551E-02 2.40220E+00-1.14665E-15 7.31006E-14
 -1      3223 2.02508E+01 1.04654E-01 3.96652E-03 2.12669E+00-1.34403E-13 1.32735E-13
 -1      3224 2.04786E+01-1.67230E-01 1.24546E-02 2.21420E+00-1.08846E-13 8.56260E-14
 -1      3225 1.96754E+01-2.94796E-01-1.50316E-02 2.50830E+00-8.31431E-14 1.62185E-13
 -1      3226 2.01059E+01 4.33470E-01-1.14324E-03 1.83420E+00-1.54471E-13 1.95337E-13
 -1      3227 2.02305E+01 3.01798E-01 8.35855E-03 1.95231E+00-1.06667E-13 1.41561E-13
 -1      3228 1.95454E+01 3.01284E-01-5.70030E-03 2.12074E+00-1.13808E-13 2.46720E-13
 -1      3229 2.00723E+01 5.63980E-01-3.06487E-03 1.54954E+00-7.09083E-14 1.70502E-13
 -1      3230 2.01449E+01 5.19840E-01 5.83654E-03 1.67583E+00-7.27251E-14 1.72574E-13
 -1      3231 1.95843E+01 5.89799E-01-5.01992E-04 1.77808E+00-9.97662E-14 1.47486E-13
 -1      3232 2.00786E+01 5.79590E-01-3.54811E-03 1.28667E+00-6.00749E-14 9.82293E-14
 -1      3233 2.01275E+01 5.84323E-01 4.38016E-03 1.40920E+00-5.15372E-14 1.68984E-13
 -1      3234 1.96807E+01 6.87411E-01 1.69650E-03 1.48014E+00-4.97427E-14 1.53607E-13
 -1      3235 2.00920E+01 5.36033E-01-3.38697E-03 1.05144E+00-7.72397E-14 9.39299E-16
 -1      3236 2.01306E+01 5.64773E-01 3.55706E-03 1.16377E+00-5.22199E-14 9.95551E-14
 -1      3237 1.97818E+01 6.77941E-01 2.25745E-03 1.22076E+00-1.64395E-14 1.85367E-13
 -1      3238 2.01002E+01 4.67156E-01-2.96435E-03 8.46103E-01-1.03966E-13 3.75795E-14
 -1      3239 2.01339E+01 5.05193E-01 3.04770E-03 9.45124E-01-9.20694E-14 4.31276E-14
 -1      3240 1.98666E+01 6.15082E-01 2.07138E-03 9.95365E-01-7.50736E-14 1.67268E-13
 -1      3241 2.01005E+01 3.91964E-01-2.46870E-03 6.70742E-01-4.88647E-15 4.66797E-14
 -1      3242 2.01310E+01 4.31235E-01 2.66795E-03 7.55462E-01-1.07649E-13 1.88177E-14
 -1      3243 1.99295E+01 5.30884E-01 1.62607E-03 8.01153E-01-1.08202E-13 1.33881E-13
 -1      3244 2.00944E+01 3.20236E-01-1.99063E-03 5.23894E-01-9.16818E-14 1.21951E-13
 -1      3245 2.01217E+01 3.56724E-01 2.33322E-03 5.94664E-01-2.59821E-14 9.16801E-14
 -1      3246 1.99724E+01 4.43195E-01 1.15605E-03 6.35988E-01-5.96404E-14 1.30515E-13
 -1      3247 2.00840E+01 2.56377E-01-1.56901E-03 4.03107E-01 2.94965E-14 1.13500E-13
 -1      3248 2.01080E+01 2.88383E-01 2.01513E-03 4.61049E-01 1.59283E-14 8.88399E-14
 -1      3249 1.99993E+01 3.61124E-01 7.56366E-04 4.97656E-01-5.05555E-14 1.34695E-13
 -1      3250 2.00718E+01 2.01831E-01-1.21552E-03 3.05388E-01-9.48766E-14 1.32004E-13
 -1      3251 2.00923E+01 2.28913E-01 1.71094E-03 3.52002E-01 9.58271E-15 2.22315E-13
 -1      3252 2.00145E+01 2.88679E-01 4.52156E-04 3.83629E-01-3.31975E-14 1.35410E-13
 -1      3253 2.00592E+01 1.56514E-01-9.28396E-04 2.27559E-01-2.99472E-14 2.28196E-13
 -1      3254 2.00763E+01 1.78866E-01 1.42643E-03 2.64463E-01-7.68876E-14 1.24587E-13
 -1      3255 2.00219E+01 2.27040E-01 2.37425E-04 2.91117E-01-4.68200E-14 8.70140E-14
 -1      3256 2.00474E+01 1.19626E-01-7.00111E-04 1.66504E-01 6.01904E-15 3.07198E-13
 -1      3257 2.00613E+01 1.37727E-01 1.16808E-03 1.95278E-01 1.97719E-14 2.50928E-13
 -1      3258 2.00242E+01 1.75921E-01 9.51776E-05 2.17222E-01-1.16175E-13 1.54251E-13
 -1      3259 2.00370E+01 9.00919E-02-5.21388E-04 1.19325E-01-5.22570E-14 3.93831E-13
 -1      3260 2.00481E+01 1.04522E-01 9.40124E-04 1.41423E-01 3.49411E-14 3.69759E-13
 -1      3261 2.00236E+01 1.34344E-01 6.94184E-06 1.59104E-01-1.49927E-14 1.78679E-13
 -1      3262 2.00281E+01 6.67860E-02-3.83168E-04 8.34308E-02 1.69134E-13 2.28354E-13
 -1      3263 2.00368E+01 7.81267E-02 7.44104E-04 1.00139E-01 1.09748E-13 2.91413E-13
 -1      3264 2.00213E+01 1.01071E-01-4.33564E-05 1.14097E-01 1.09576E-13 2.24465E-13
 -1      3265 2.00209E+01 4.86463E-02-2.77409E-04 5.65667E-02 1.16663E-14 6.57042E-14
 -1      3266 2.00275E+01 5.74381E-02 5.79342E-04 6.89921E-02 1.18781E-13 1.44300E-13
 -1      3267 2.00184E+01 7.48266E-02-6.82987E-05 7.97967E-02 9.19168E-14 7.08722E-14
 -1      3268 2.00151E+01 3.47211E-02-1.97323E-04 3.68184E-02-4.71150E-14 7.54136E-14
 -1      3269 2.00200E+01 4.14424E-02 4.43633E-04 4.58907E-02 1.95942E-14 7.99288E-14
 -1      3270 2.00153E+01 5.44119E-02-7.71135E-05 5.40931E-02 2.02150E-14-1.18748E-14
 -1      3271 2.00106E+01 2.41847E-02-1.37340E-04 2.25922E-02-8.16478E-14-2.63831E-13
 -1      3272 2.00142E+01 2.92477E-02 3.33899E-04 2.90788E-02-1.15101E-13-9.43336E-14
 -1      3273 2.00124E+01 3.87530E-02-7.62590E-05 3.51816E-02 1.02361E-13-2.13005E-13
 -1      3274 2.00072E+01 1.63368E-02-9.29588E-05 1.25845E-02-1.13448E-13-2.44116E-13
 -1      3275 2.00097E+01 2.00893E-02 2.46687E-04 1.71080E-02-1.05446E-13-3.10195E-13
 -1      3276 2.00098E+01 2.69179E-02-7.00810E-05 2.15515E-02-8.88883E-14-1.42809E-13
 -1      3277 2.00047E+01 1.05936E-02-6.05854E-05 5.74640E-03-3.78159E-14-1.69011E-13
 -1      3278 2.00064E+01 1.33242E-02 1.78517E-04 8.80420E-03-4.62304E-14-2.03353E-13
 -1      3279 2.00076E+01 1.81152E-02-6.13941E-05 1.19619E-02-1.08983E-13-2.66216E-13
 -1      3280 2.00028E+01 6.47563E-03-3.73712E-05 1.24721E-03-7.49042E-14-1.76304E-13
 -1      3281 2.00040E+01 8.42045E-03 1.26110E-04 3.23065E-03-9.04360E-14-2.49621E-13
 -1      3282 2.00057E+01 1.16851E-02-5.19448E-05 5.41099E-03-4.70550E-14-4.14029E-13
 -1      3283 2.00015E+01 3.59436E-03-2.10746E-05-1.56089E-03-3.64795E-14-8.77623E-15
 -1      3284 2.00023E+01 4.94395E-03 8.65024E-05-3.48574E-04-9.03287E-14-1.31619E-13
 -1      3285 2.00042E+01 7.08503E-03-4.27564E-05 1.10349E-03-1.64407E-13-3.42873E-13
 -1      3286 2.00006E+01 1.63891E-03-9.94620E-06-3.17489E-03 1.09669E-13 8.95393E-14
 -1      3287 2.00011E+01 2.54518E-03 5.71108E-05-2.50248E-03 9.92506E-14 4.12109E-14
 -1      3288 2.00030E+01 3.87572E-03-3.43775E-05-1.58164E-03 4.91355E-15-1.98596E-13
 -1      3289 2.00001E+01 3.63484E-04-2.63225E-06-3.96949E-03 1.33080E-13 7.17194E-14
 -1      3290 2.00003E+01 9.46130E-04 3.57410E-05-3.66381E-03 1.43143E-13 1.82067E-13
 -1      3291 2.00021E+01 1.70563E-03-2.70556E-05-3.12130E-03 6.13985E-14-2.59105E-14
 -1      3292 1.99997E+01-4.24107E-04 1.89865E-06-4.22168E-03 2.77561E-14-1.69547E-13
 -1      3293 1.99998E+01-7.17931E-05 2.05780E-05-4.15565E-03 7.33547E-14-3.84886E-14
 -1      3294 2.00014E+01 2.96964E-04-2.08571E-05-3.87517E-03 1.16846E-13-9.26516E-14
 -1      3295 1.99995E+01-8.72819E-04 4.41835E-06-4.13134E-03 1.60682E-14-2.26135E-13
 -1      3296 1.99995E+01-6.78743E-04 1.01418E-05-4.21409E-03 1.99015E-14-1.44641E-13
 -1      3297 2.00009E+01-5.67465E-04-1.57515E-05-4.10910E-03 1.19753E-14-7.54905E-14
 -1      3298 1.99994E+01-1.09729E-03 5.51709E-06-3.83819E-03 6.39290E-15-5.19961E-14
 -1      3299 1.99993E+01-1.00610E-03 3.26383E-06-4.00699E-03-3.78210E-14-2.40042E-13
 -1      3300 2.00005E+01-1.05596E-03-1.16695E-05-4.01472E-03-8.16084E-14-3.06574E-13
 -1      3301 1.99994E+01-1.18508E-03 5.76485E-06-3.43563E-03-4.60495E-14 6.14760E-14
 -1      3302 1.99993E+01-1.15464E-03-9.11723E-07-3.64925E-03 4.90196E-14 4.98806E-14
 -1      3303 2.00002E+01-1.29804E-03-8.49043E-06-3.72576E-03-1.07178E-13-7.45579E-14
 -1      3304 1.99994E+01-1.20592E-03 5.11093E-06-2.98269E-03-1.61407E-13-6.69998E-14
 -1      3305 1.99993E+01-1.20224E-03-3.15280E-06-3.21640E-03-1.40849E-13-3.51822E-14
 -1      3306 2.00000E+01-1.39264E-03-6.07202E-06-3.33194E-03-6.94844E-14 3.93990E-13
 -1      3307 1.99994E+01-1.21226E-03 1.44955E-06-2.51215E-03-1.84166E-13-2.83217E-13
 -1      3308 1.99993E+01-1.20887E-03-4.17385E-06-2.75026E-03-1.78461E-13-1.53259E-13
 -1      3309 1.99999E+01-1.41796E-03-4.33734E-06-2.88926E-03-7.06475E-14 2.44580E-15
 -1      3310 1.99996E+01-1.28794E-03-1.74054E-06-2.18847E-03-9.79434E-14-8.11560E-15
 -1      3311 1.99994E+01-1.23929E-03-6.57125E-06-2.37033E-03-1.67986E-13-1.77812E-13
 -1      3312 1.99998E+01-1.43563E-03 5.76397E-08-2.51058E-03-8.98088E-14-2.45949E-13
 -1      3313 1.99998E+01-1.47370E-03 8.18326E-06-2.21519E-03-1.44094E-13-2.60763E-13
 -1      3314 2.93238E+01-7.34047E-03-4.18782E-02-2.39649E+00 4.87915E-13-2.04559E-13
 -1      3315 1.32219E+01 3.38883E+00-9.95388E-03 6.85720E-01 2.66113E-13-3.37707E-13
 -1      3316 1.34405E+01 3.31863E+00 2.48529E-02 1.27219E+00 2.64745E-13-3.46275E-13
 -1      3317 2.51436E+01-3.44370E+00-2.58895E-03-1.14428E+00-1.34566E-13 7.91173E-14
 -1      3318 2.42049E+01-2.82884E+00 9.16409E-02-1.61931E+00-1.20028E-13 5.40787E-14
 -1      3319 2.00016E+01-2.57158E-03 3.10009E-06 1.85507E-04 2.21936E-13-6.67264E-13
 -1      3320 2.00016E+01-2.57267E-03 3.12135E-06-1.72117E-04 1.75991E-13-7.80309E-13
 -1      3321 2.00018E+01-2.53122E-03-5.52975E-06 4.08679E-04 3.50119E-13-6.19682E-13
 -1      3322 2.00006E+01-1.93940E-03-2.25748E-06 2.01745E-03-1.09860E-13 3.60477E-13
 -1      3323 2.00008E+01-2.10223E-03 8.87804E-06 1.82673E-03-4.43094E-14 1.94298E-13
 -1      3324 2.68352E+01-1.41985E+00-1.27684E-02 1.07790E+00 3.59157E-14-4.34465E-13
 -1      3325 2.68955E+01 6.85714E-02-1.36267E-01 1.81249E+00-3.62071E-14-4.12729E-13
 -1      3326 2.13025E+01 1.16525E+00 2.03791E-03-2.88501E-01 1.25558E-14-3.03892E-13
 -1      3327 2.17110E+01 1.01799E+00-8.13143E-03-5.41275E-01-3.36252E-14-2.84259E-13
 -1      3328 2.20216E+01 4.71043E-01-5.03557E-03-4.87406E-01-4.60966E-14-2.38958E-13
 -1      3329 2.13705E+01 6.46008E-01 1.99670E-03 3.16752E-02 4.04854E-14-2.77571E-13
 -1      3330 2.15082E+01-1.56276E+00 3.61944E-02 2.52640E+00-6.71024E-14 3.00955E-14
 -1      3331 2.21878E+01-2.21964E+00 2.01071E-02 2.37199E+00-1.40561E-13-1.46226E-15
 -1      3332 2.01859E+01-1.32423E+00-2.62171E-02 2.90204E+00-6.69794E-14-2.94599E-14
 -1      3333 2.62181E+01 1.99364E+00-4.81075E-02 2.14178E+00-1.77386E-13-4.00555E-13
 -1      3334 2.55293E+01 3.34959E+00-1.65717E-01 1.82627E+00-2.93279E-13-3.79677E-13
 -1      3335 2.30566E+01-2.87323E+00 6.58372E-02 2.31275E+00-1.95868E-13-3.54881E-15
 -1      3336 2.40423E+01-3.50232E+00 2.08099E-02 1.85092E+00-1.84783E-13-6.52707E-14
 -1      3337 2.34041E+01-4.23790E+00-5.95472E-02 2.81784E+00-2.09693E-13-5.07233E-15
 -1      3338 2.13380E+01-2.77915E+00-4.25017E-02 3.14760E+00-1.90058E-13-3.80685E-14
 -1      3339 2.86520E+01-2.22787E+00-1.65244E-01-1.44588E+00 2.95979E-13-2.57218E-13
 -1      3340 2.66445E+01-3.68237E+00 6.56580E-02-6.03481E-01-1.64443E-13 1.24262E-13
 -1      3341 2.57555E+01-3.56440E+00 4.46332E-02-1.09332E+00 2.19120E-13-2.68615E-13
 -1      3342 2.65448E+01-2.81427E+00-1.23014E-01 1.11213E-01 7.81914E-14-4.10866E-13
 -1      3343 2.60546E+01-1.81722E+00 7.05950E-04 9.48901E-01 4.96131E-16-3.21888E-13
 -1      3344 2.00011E+01-2.26595E-03-3.49525E-06 1.54919E-03 7.17213E-14 6.19422E-14
 -1      3345 2.00013E+01-2.37679E-03 8.19975E-06 1.26587E-03-3.80567E-14-9.60085E-14
 -1      3346 2.00016E+01-2.40666E-03-5.59649E-06 1.17544E-03 1.95982E-13-2.41869E-13
 -1      3347 2.00012E+01-2.16668E-03-3.01338E-06 1.82246E-03-9.45016E-14 1.68350E-13
 -1      3348 2.32653E+01-9.95477E-01 2.04477E-02-6.48978E-01-1.31526E-14-1.12469E-13
 -1      3349 2.34396E+01-1.15159E+00-1.99732E-02-8.53735E-01-1.79317E-14-1.23092E-13
 -1      3350 2.38575E+01-1.36465E+00-1.52891E-02-7.92442E-01-3.54751E-15-8.08381E-14
 -1      3351 1.44011E+01-2.66211E+00 8.34707E-02 5.42518E+00-2.42778E-13 1.59872E-13
 -1      3352 1.17376E+01-1.40138E+00 8.42949E-02 4.36948E+00-2.37907E-13 1.14769E-13
 -1      3353 2.19714E+01-4.13589E+00 1.09285E-01-4.05005E+00 3.54623E-13-3.95200E-14
 -1      3354 2.39522E+01-4.49739E+00-9.93987E-02-2.86083E+00 2.85848E-13-2.50902E-13
 -1      3355 1.06845E+01 5.08660E-01 4.16218E-02 4.16440E+00 2.83516E-13-3.71661E-13
 -1      3356 9.16382E+00 1.35804E+00 1.57047E-01 2.55077E+00 2.74933E-13-4.29573E-13
 -1      3357 1.20557E+01-9.19940E-01 1.06118E-01-4.31915E+00 3.24567E-13 4.69624E-13
 -1      3358 1.37726E+01-1.96956E+00 1.24903E-02-5.27641E+00 4.15779E-13 3.29792E-13
 -1      3359 1.41530E+01 3.06106E+00 2.56753E-02-7.79329E-01 2.43744E-13-3.07597E-13
 -1      3360 1.34597E+01 3.27789E+00-4.89321E-03-2.34058E-01 2.50298E-13-3.23337E-13
 -1      3361 1.43979E+01 2.36752E+00 4.53711E-02-1.45651E+00 1.89002E-13-3.08058E-13
 -1      3362 2.73949E+01-9.52731E-01-1.50535E-01-1.14587E+00-1.94938E-13 9.81437E-14
 -1      3363 2.68771E+01-2.28313E+00-1.85552E-03 1.19454E-01-9.03201E-14 9.82964E-14
 -1      3364 2.57365E+01 4.68718E+00-9.42352E-02 1.21171E+00-3.95503E-13-3.54564E-13
 -1      3365 2.55236E+01 5.08340E+00-1.50450E-01 3.94382E-01-4.67543E-13-2.82514E-13
 -1      3366 2.49498E+01 4.51605E+00-7.16852E-02-2.48414E-01-4.11365E-13-2.01599E-13
 -1      3367 2.45875E+01 3.32795E+00-3.85198E-02 1.46971E+00-3.25587E-13-3.79224E-13
 -1      3368 9.61150E+00 4.08890E-01 9.80802E-02-9.33628E-01 1.13945E-14 4.72733E-13
 -1      3369 1.03617E+01-1.34856E-01 8.42404E-02-3.03469E+00 1.95913E-13 4.55552E-13
 -1      3370 2.25927E+01-3.71758E+00 1.51771E-01-3.50265E+00-2.14745E-13-1.04052E-13
 -1      3371 2.48293E+01-4.18462E+00-8.56243E-02-2.16117E+00-1.81799E-13 2.52758E-14
 -1      3372 1.64273E+01-2.76182E+00 1.21534E-01-5.42031E+00 4.20775E-13 2.90400E-13
 -1      3373 1.92057E+01-3.89909E+00-7.50671E-02-5.12209E+00 4.32071E-13 1.74402E-13
 -1      3374 1.63485E+01-2.02331E+00 9.52429E-02-4.76884E+00 3.27266E-13 3.02779E-13
 -1      3375 1.40380E+01 2.87324E+00-3.29885E-02 1.98227E+00 2.72514E-13-3.28467E-13
 -1      3376 1.49653E+01 2.60716E+00 4.78768E-02 2.27530E+00 2.71425E-13-3.10079E-13
 -1      3377 1.34249E+01 2.79092E+00 5.08194E-02 1.88202E+00 2.56344E-13-3.43171E-13
 -1      3378 1.02842E+01 6.42188E-01 1.39026E-01 1.51097E-01-1.52312E-13 4.06036E-13
 -1      3379 1.13225E+01 7.10152E-01 5.45220E-02-7.88129E-01-3.11209E-14 2.83357E-13
 -1      3380 1.13030E+01 5.79629E-01 5.37847E-02 1.20652E+00-2.22846E-13 2.24147E-13
 -1      3381 1.80931E+01 8.33157E-01 2.62075E-02-2.14761E+00 1.44794E-13-1.75535E-13
 -1      3382 2.62518E+01 3.44774E+00-9.93128E-02-1.80139E+00-4.40648E-13-2.40641E-14
 -1      3383 2.58424E+01-2.26761E+00-3.62294E-02-2.47030E-01-6.50174E-15 1.27568E-13
 -1      3384 2.60027E+01-3.03618E+00-3.07176E-02 8.71209E-01-1.31492E-15 5.81271E-14
 -1      3385 2.46398E+01-3.09658E+00 1.84622E-02 1.55583E+00 9.61661E-14 2.78883E-14
 -1      3386 2.10800E+01-2.87886E+00 7.07355E-02-3.50991E+00-1.44711E-13-1.69488E-13
 -1      3387 1.66741E+01-2.73583E+00 1.17893E-01 4.95598E+00-2.36082E-13 1.25087E-13
 -1      3388 2.00008E+01-2.11090E-03 9.15236E-06-1.82287E-03-6.69323E-14-1.24423E-13
 -1      3389 2.00006E+01-1.95142E-03-3.33743E-06-2.01561E-03 4.35946E-14 1.18959E-13
 -1      3390 2.36192E+01 3.56836E+00-3.49535E-02 2.83824E-01-3.07684E-13-2.42270E-13
 -1      3391 2.36793E+01 3.20218E+00-6.01394E-02 9.55864E-01-3.05995E-13-2.61812E-13
 -1      3392 1.23883E+01-2.21089E-01 1.01663E-01-3.30257E+00 2.13520E-13 3.51066E-13
 -1      3393 1.28315E+01 3.06282E+00 5.01801E-02 1.52455E-01 2.33738E-13-3.38134E-13
 -1      3394 2.76574E+01-3.61515E+00 4.12274E-02 6.32629E-02 1.05110E-13-3.04368E-13
 -1      3395 2.00013E+01-2.38492E-03 8.02014E-06-1.25939E-03-9.55455E-14-3.35242E-13
 -1      3396 2.00011E+01-2.27384E-03-3.42251E-06-1.54428E-03-2.50434E-14-1.87773E-13
 -1      3397 2.00012E+01-2.17874E-03-5.02046E-06-1.81593E-03-1.97067E-13-1.97464E-13
 -1      3398 2.01783E+01-2.82078E+00-3.95010E-03 4.38707E+00 2.53915E-13-1.01131E-13
 -1      3399 1.78958E+01-2.13543E+00 1.24504E-01 5.15947E+00 3.05977E-13-1.95587E-13
 -1      3400 2.22571E+01-2.72544E+00-6.66718E-02-2.60074E+00-1.01971E-13-5.30583E-14
 -1      3401 2.28785E+01-2.08977E+00 3.19338E-03-1.81152E+00-6.09426E-14 1.36852E-14
 -1      3402 2.22223E+01-1.23210E+00 5.59291E-02-1.85312E+00-1.90798E-15-8.54004E-15
 -1      3403 1.99992E+01-1.73061E+00 1.32583E-01-3.43219E+00-8.23265E-14-1.85222E-13
 -1      3404 2.00015E+01-2.54030E-03 5.77151E-06-5.65091E-04 8.77741E-14-7.60375E-13
 -1      3405 2.00014E+01-2.48337E-03 5.95935E-08-9.04675E-04-5.70003E-15-5.98277E-13
 -1      3406 2.00016E+01-2.41493E-03-5.08502E-06-1.16296E-03-2.24994E-13-4.44040E-13
 -1      3407 2.00019E+01-2.53350E-03-5.35635E-06-3.97516E-04 1.20467E-13-6.97984E-13
 -1      3408 9.91181E+00 1.81402E+00 9.10307E-02 1.66704E+00 2.43080E-13-4.16722E-13
 -1      3409 1.01689E+01 1.35888E+00 1.86245E-01-2.08915E+00 1.05221E-13-4.60826E-13
 -1      3410 1.14914E+01 8.36076E-01 3.59909E-03-2.83321E+00 6.00978E-14-4.22357E-13
 -1      3411 1.00233E+01 1.76979E+00 7.52025E-02-9.68737E-01 1.65576E-13-4.33834E-13
 -1      3412 2.20106E+01 1.17671E-01-7.17223E-03-2.20384E-01-1.92468E-15-2.20216E-13
 -1      3413 2.23088E+01 5.90869E-02 1.12373E-03-4.58786E-01-2.99994E-14-2.00182E-13
 -1      3414 2.25142E+01-2.58238E-01 1.12832E-02-4.43228E-01-1.50366E-14-1.74406E-13
 -1      3415 1.53101E+01-8.96943E-01 1.17223E-01-4.19637E+00-6.30468E-14-3.61246E-13
 -1      3416 2.26939E+01-5.76297E-01-1.05066E-02-4.88433E-01-4.63258E-15-1.60084E-13
 -1      3417 1.28317E+01-1.32124E-01 1.54068E-01 4.85864E+00 3.00503E-13-3.34871E-13
 -1      3418 1.27755E+01 8.38675E-01 9.54240E-02 3.90909E+00 2.88332E-13-3.49720E-13
 -1      3419 2.46971E+01-3.62393E+00 2.07294E-02-1.46125E+00 1.90837E-13-1.63997E-13
 -1      3420 2.09276E+01-3.57408E+00 5.90064E-02-4.02243E+00 2.82125E-13 4.33020E-14
 -1      3421 2.28227E+01-8.72737E-01-1.97068E-02-2.72009E-01-4.97779E-15-1.28949E-13
 -1      3422 1.66085E+01 2.27323E+00-7.38675E-03 2.01993E+00 2.36255E-13-3.05171E-13
 -1      3423 2.00002E+01-1.66430E-03 2.65629E-06 2.28113E-03-1.92877E-13 2.15281E-13
 -1      3424 2.00004E+01-1.82068E-03 3.55163E-06 2.15761E-03-1.39969E-13 3.79546E-13
 -1      3425 2.00007E+01-1.89965E-03-2.14900E-06 2.23202E-03-1.34723E-13 2.73985E-13
 -1      3426 2.00003E+01-1.66985E-03-1.69886E-06 2.47080E-03-1.86288E-13 2.26772E-13
 -1      3427 1.26113E+01-6.61111E-01 1.32021E-01 3.57591E+00-2.57121E-13 1.07830E-13
 -1      3428 2.25890E+01-3.06999E+00 1.35686E-02 3.06127E+00 1.94959E-13-4.74516E-14
 -1      3429 2.15400E+01-3.04756E+00 6.04827E-02 3.88412E+00 2.23644E-13-9.01978E-14
 -1      3430 2.01638E+01-2.16304E+00 4.09387E-02 3.84717E+00 2.63563E-13-1.26782E-13
 -1      3431 1.51438E+01-1.29635E+00 1.19380E-02 5.32940E+00 3.09003E-13-2.80179E-13
 -1      3432 2.23602E+01-4.25418E+00 5.50136E-02 3.73500E+00-2.61693E-13-2.21594E-14
 -1      3433 1.85087E+01 1.00263E+00 4.24585E-03 2.04600E+00 2.17699E-13-2.63215E-13
 -1      3434 1.94921E+01 6.75919E-01 1.86956E-02 1.72024E+00 1.75007E-13-2.51315E-13
 -1      3435 2.03749E+01 4.14058E-01 3.85562E-03 1.15969E+00 1.41667E-13-2.32607E-13
 -1      3436 2.10825E+01 2.17323E-01-1.77753E-03 7.02244E-01 9.89049E-14-2.59075E-13
 -1      3437 2.03054E+01-1.31039E-01-1.74357E-02 1.67050E+00 1.54319E-13-2.20184E-13
 -1      3438 2.07820E+01-3.61757E+00 5.61328E-02 4.06703E+00-2.91853E-13 3.68455E-15
 -1      3439 2.49656E+01 3.15306E+00-4.99336E-02-1.83287E+00-3.92221E-13-6.67175E-15
 -1      3440 1.67686E+01-9.37772E-01 6.78948E-02 4.55761E+00 2.99843E-13-2.41723E-13
 -1      3441 1.24406E+01 3.57236E-01 5.39097E-02-2.40592E+00 6.70956E-14 3.02237E-13
 -1      3442 1.37388E+01-4.72222E-01-1.38659E-03-3.66721E+00 1.86091E-13 2.85223E-13
 -1      3443 2.58855E+01-8.42625E-01 1.10974E-04-1.61565E+00-1.09423E-13 8.47725E-14
 -1      3444 2.59000E+01 1.97526E-01-3.92122E-02-1.80790E+00-2.05259E-13 8.35894E-14
 -1      3445 1.79242E+01-9.81607E-01-3.85514E-02 4.01187E+00 2.72497E-13-1.71450E-13
 -1      3446 1.59213E+01 1.67523E-01 8.21148E-02 4.04331E+00 2.91808E-13-2.54245E-13
 -1      3447 2.37983E+01-1.66077E+00 4.44483E-02-5.72899E-02 4.17201E-14-5.66849E-14
 -1      3448 2.42555E+01-1.74771E+00 3.74544E-04-4.42251E-01 3.79067E-14-3.61473E-14
 -1      3449 2.53988E+01-3.74181E-01-2.08822E-02 1.87485E+00-1.40842E-14-3.85704E-13
 -1      3450 2.50378E+01-1.32817E+00-6.17201E-02 1.36278E+00-1.02013E-14-3.71698E-13
 -1      3451 2.43859E+01-2.30766E+00-9.63894E-03 3.87114E-01 1.06677E-14-3.35913E-13
 -1      3452 2.39440E+01-2.49271E+00 2.41431E-02-1.24244E-01 6.97727E-14-3.46565E-13
 -1      3453 2.31377E+01-2.42967E+00-1.00642E-02-5.77369E-01 1.06265E-13-3.03139E-13
 -1      3454 2.26811E+01-2.21382E+00 3.19280E-02-9.10103E-01 1.02973E-13-2.40778E-13
 -1      3455 2.34563E+01-2.79292E+00-1.89962E-02-8.62457E-01 1.24231E-13-1.63813E-13
 -1      3456 2.20163E+01-1.92989E+00-4.33985E-03-1.12901E+00 1.01875E-13-2.25438E-13
 -1      3457 2.16179E+01-1.59436E+00 2.52947E-02-1.29407E+00 1.03156E-13-1.38203E-13
 -1      3458 2.20466E+01-2.32690E+00-3.98738E-02-1.47959E+00 1.36252E-13-1.11224E-13
 -1      3459 2.11626E+01-1.28112E+00 1.05163E-04-1.34130E+00 6.59273E-14-1.29400E-13
 -1      3460 2.08530E+01-9.66144E-01 1.36829E-02-1.39723E+00 6.69545E-14-6.00015E-14
 -1      3461 2.10137E+01-1.55374E+00-2.41752E-02-1.68141E+00 1.15477E-13-1.38176E-13
 -1      3462 2.05805E+01-6.92679E-01 3.95072E-03-1.35121E+00-1.62486E-14-1.29303E-14
 -1      3463 2.03657E+01-4.49551E-01 7.88352E-03-1.34021E+00 2.43013E-15 8.20931E-15
 -1      3464 2.03470E+01-8.54196E-01-1.75008E-02-1.60653E+00 4.93308E-14-2.17129E-14
 -1      3465 2.02167E+01-2.47518E-01 4.33735E-03-1.25831E+00 7.87050E-14-4.84200E-14
 -1      3466 2.00798E+01-7.92652E-02 3.86286E-03-1.21172E+00 1.14251E-13 5.32484E-14
 -1      3467 1.99655E+01-3.26214E-01-1.09743E-02-1.43940E+00 4.68994E-14-2.35777E-14
 -1      3468 2.00116E+01 5.48300E-02 3.87544E-03-1.11940E+00 4.57942E-14 4.09791E-14
 -1      3469 1.99300E+01 1.59121E-01 1.35947E-03-1.05648E+00-4.32861E-15 3.99516E-14
 -1      3470 1.97718E+01 3.48867E-02-6.26109E-03-1.24139E+00 5.73590E-14 1.47262E-14
 -1      3471 1.99105E+01 2.38240E-01 3.12530E-03-9.66247E-01 4.71980E-14 8.92038E-14
 -1      3472 1.98652E+01 2.94034E-01-9.58380E-05-8.98019E-01 1.31117E-14 6.81647E-14
 -1      3473 1.96960E+01 2.56073E-01-3.27192E-03-1.04634E+00 5.34854E-14-1.23290E-13
 -1      3474 1.98727E+01 3.32712E-01 2.45599E-03-8.15142E-01-8.97783E-14 7.27141E-14
 -1      3475 1.98499E+01 3.54470E-01-8.73216E-04-7.47935E-01-6.04458E-14-3.70421E-14
 -1      3476 1.96886E+01 3.73004E-01-1.43604E-03-8.67320E-01-1.59960E-14-4.80102E-14
 -1      3477 1.98706E+01 3.65582E-01 1.93620E-03-6.74419E-01-7.63026E-14-2.52688E-15
 -1      3478 1.98606E+01 3.65152E-01-1.23316E-03-6.11802E-01-8.41173E-14-1.26484E-13
 -1      3479 1.97172E+01 4.17312E-01-3.73762E-04-7.08766E-01-9.71879E-14-3.24085E-14
 -1      3480 1.98862E+01 3.58889E-01 1.55143E-03-5.48121E-01-6.25497E-14-1.58315E-13
 -1      3481 1.98830E+01 3.45225E-01-1.34106E-03-4.91989E-01-1.07837E-13-1.37557E-13
 -1      3482 1.97616E+01 4.14462E-01 1.94662E-04-5.71370E-01-1.25785E-13 3.23883E-14
 -1      3483 1.99086E+01 3.29101E-01 1.26482E-03-4.37891E-01-1.75907E-13-1.71558E-13
 -1      3484 1.99086E+01 3.08585E-01-1.30163E-03-3.89069E-01-1.61074E-13-1.68579E-13
 -1      3485 1.98096E+01 3.83521E-01 4.58484E-04-4.54302E-01-1.57370E-13-4.69711E-14
 -1      3486 1.99318E+01 2.87831E-01 1.04369E-03-3.43917E-01-8.20933E-14-2.12910E-13
 -1      3487 1.99328E+01 2.64769E-01-1.18195E-03-3.02522E-01-2.21606E-14-2.07205E-13
 -1      3488 1.98548E+01 3.38051E-01 5.42257E-04-3.56079E-01-1.31695E-13 6.12415E-14
 -1      3489 1.99525E+01 2.42821E-01 8.65629E-04-2.65466E-01-4.45683E-14-2.88439E-13
 -1      3490 1.99537E+01 2.19941E-01-1.02513E-03-2.31152E-01-2.75985E-14-2.86690E-13
 -1      3491 1.98939E+01 2.87219E-01 5.26536E-04-2.74907E-01-7.85190E-14-6.11389E-14
 -1      3492 1.99696E+01 1.98902E-01 7.17048E-04-2.01241E-01 1.03395E-14-4.30195E-13
 -1      3493 1.99704E+01 1.77790E-01-8.58415E-04-1.73379E-01-5.25271E-14-3.54224E-13
 -1      3494 1.99261E+01 2.36857E-01 4.61977E-04-2.08837E-01-1.18966E-13-2.27834E-13
 -1      3495 1.99827E+01 1.58819E-01 5.90356E-04-1.49629E-01-1.71092E-14-3.40929E-13
 -1      3496 1.99831E+01 1.40273E-01-6.98209E-04-1.27444E-01 1.88433E-14-3.24746E-13
 -1      3497 1.99512E+01 1.90375E-01 3.79179E-04-1.55882E-01-2.13011E-14-2.30889E-13
 -1      3498 1.99924E+01 1.23891E-01 4.81466E-04-1.08896E-01-4.60511E-14-3.29247E-13
 -1      3499 1.99923E+01 1.08186E-01-5.53557E-04-9.15638E-02-1.15873E-14-3.74456E-13
 -1      3500 1.99702E+01 1.49496E-01 2.95559E-04-1.14099E-01-1.31853E-14-3.38965E-13
 -1      3501 1.99990E+01 9.45063E-02 3.88085E-04-7.73239E-02 1.65343E-14-3.61032E-13
 -1      3502 1.99986E+01 8.15954E-02-4.28569E-04-6.40377E-02-1.20338E-14-3.05252E-13
 -1      3503 1.99839E+01 1.14828E-01 2.20107E-04-8.16585E-02 1.05541E-14-3.80517E-13
 -1      3504 2.00032E+01 7.04831E-02 3.08699E-04-5.32988E-02 7.01266E-16-2.69440E-13
 -1      3505 2.00026E+01 6.01357E-02-3.24191E-04-4.33116E-02 5.86342E-14-2.20008E-13
 -1      3506 1.99935E+01 8.62769E-02 1.56629E-04-5.68918E-02-4.32492E-14-3.44761E-13
 -1      3507 2.00057E+01 5.13259E-02 2.42038E-04-3.53676E-02 1.66304E-14-1.34014E-13
 -1      3508 2.00049E+01 4.32217E-02-2.39455E-04-2.80159E-02 8.13791E-14-2.50610E-13
 -1      3509 1.99998E+01 6.33497E-02 1.05897E-04-3.83189E-02 3.29404E-14 7.77927E-14
 -1      3510 2.00068E+01 3.63925E-02 1.86854E-04-2.22639E-02 5.46127E-14-2.14409E-13
 -1      3511 2.00061E+01 3.01830E-02-1.72358E-04-1.69764E-02-1.46452E-14-1.80186E-13
 -1      3512 2.00036E+01 4.53539E-02 6.70485E-05-2.46601E-02 6.79349E-14 4.83180E-14
 -1      3513 2.00071E+01 2.50038E-02 1.41858E-04-1.29136E-02 6.54814E-15-2.62523E-13
 -1      3514 2.00063E+01 2.03492E-02-1.20440E-04-9.21201E-03 6.75603E-14-2.43703E-13
 -1      3515 2.00058E+01 3.15322E-02 3.84608E-05-1.48338E-02-2.32438E-14-1.61024E-13
 -1      3516 2.00068E+01 1.65084E-02 1.05737E-04-6.42693E-03 1.21280E-13-1.36262E-13
 -1      3517 2.00061E+01 1.30990E-02-8.11640E-05-3.91993E-03 1.85301E-13-1.61608E-13
 -1      3518 2.00067E+01 2.11440E-02 1.82730E-05-7.94444E-03 1.24325E-13-6.90446E-14
 -1      3519 2.00062E+01 1.03185E-02 7.71995E-05-2.08278E-03 1.89913E-13-2.27342E-13
 -1      3520 2.00055E+01 7.88399E-03-5.21347E-05-4.56922E-04 3.97694E-14-7.76269E-14
 -1      3521 2.00068E+01 1.35116E-02 4.68031E-06-3.26481E-03 1.67050E-13-1.65832E-13
 -1      3522 2.00054E+01 5.92521E-03 5.50226E-05 6.91998E-04 2.41330E-15 1.73643E-14
 -1      3523 2.00048E+01 4.23757E-03-3.12144E-05 1.68275E-03 5.25243E-14 1.34912E-13
 -1      3524 2.00064E+01 8.04179E-03-3.92021E-06-2.15164E-04 1.02759E-13-8.39195E-14
 -1      3525 2.00045E+01 2.90170E-03 3.80864E-05 2.34415E-03-9.10457E-15 1.47960E-13
 -1      3526 2.00041E+01 1.77359E-03-1.65730E-05 2.88906E-03 1.35997E-13-4.65626E-15
 -1      3527 2.00057E+01 4.23306E-03-8.87276E-06 1.65836E-03 4.80339E-14-4.39791E-14
 -1      3528 2.00037E+01 8.98973E-04 2.53972E-05 3.21510E-03 2.52484E-13-5.40119E-14
 -1      3529 2.00033E+01 1.79637E-04-6.69716E-06 3.45676E-03 1.46114E-13 6.08841E-14
 -1      3530 2.00049E+01 1.67205E-03-1.12626E-05 2.70457E-03 1.29304E-13-1.92008E-13
 -1      3531 2.00029E+01-3.62718E-04 1.60990E-05 3.56037E-03 5.90666E-14 6.89229E-14
 -1      3532 2.00026E+01-7.92489E-04-3.60524E-07 3.60368E-03 8.15016E-14 3.14820E-13
 -1      3533 2.00041E+01 2.54094E-05-1.19452E-05 3.18636E-03 1.24581E-13 2.10881E-15
 -1      3534 2.00022E+01-1.10392E-03 9.47981E-06 3.56664E-03-4.89660E-14 2.96908E-13
 -1      3535 2.00020E+01-1.33713E-03 3.44518E-06 3.48663E-03-8.57443E-14 3.35001E-13
 -1      3536 2.00033E+01-9.71031E-04-1.15495E-05 3.29748E-03 3.91162E-14 2.03994E-13
 -1      3537 2.00016E+01-1.49623E-03 4.96969E-06 3.36638E-03-1.57162E-15 3.66988E-13
 -1      3538 2.00014E+01-1.60498E-03 5.23957E-06 3.21496E-03 1.09952E-13 2.73867E-13
 -1      3539 2.00025E+01-1.52352E-03-1.05418E-05 3.17686E-03-2.61162E-14 2.37626E-13
 -1      3540 2.00011E+01-1.67186E-03 2.57262E-06 3.04945E-03 1.15754E-13 3.60376E-13
 -1      3541 2.00010E+01-1.71060E-03 4.89103E-06 2.86039E-03 6.24086E-14 5.35946E-13
 -1      3542 2.00018E+01-1.79471E-03-1.00796E-05 2.92187E-03 1.59991E-13 1.74610E-13
 -1      3543 1.90793E+01 7.72342E-01-7.13010E-03 1.60540E+00-8.20519E-14 1.67295E-13
 -1      3544 1.90507E+01 7.10428E-01 7.55660E-03 1.75873E+00-1.54905E-13 2.04101E-13
 -1      3545 1.88533E+01 5.90801E-01-7.31006E-03 1.95650E+00-1.54897E-13 2.50468E-13
 -1      3546 1.88850E+01 4.20543E-01 1.47019E-02 2.13830E+00-1.27989E-13 2.22538E-13
 -1      3547 1.83792E+01 8.09048E-01 5.36507E-03 1.76856E+00-1.30427E-13 1.69312E-13
 -1      3548 2.00003E+01-1.80272E-03 8.65162E-06-2.11892E-03 2.66495E-14 1.43413E-13
 -1      3549 2.00001E+01-1.63609E-03-3.00344E-07-2.18482E-03-8.48985E-14 8.45119E-14
 -1      3550 2.00001E+01-1.61437E-03-2.36610E-06-2.33301E-03-8.04865E-14 1.06375E-13
 -1      3551 2.00006E+01-1.90030E-03-2.88250E-06-2.20221E-03-2.18584E-14 2.14249E-13
 -1      3552 1.19805E+01 2.66652E+00 8.78550E-03-3.36850E-01 2.13590E-13-3.42126E-13
 -1      3553 1.17724E+01 2.81192E+00 2.74675E-02 6.02668E-01 2.26993E-13-3.49915E-13
 -1      3554 1.86997E+01 1.57931E-01-3.98293E-03 2.40963E+00-1.52857E-13 1.50430E-13
 -1      3555 1.88676E+01-1.87043E-01 2.74362E-02 2.62607E+00-9.95181E-14 9.85783E-14
 -1      3556 1.79958E+01 4.81403E-01 2.65176E-03 2.23045E+00-1.88080E-13 1.37930E-13
 -1      3557 1.93028E+01 8.05627E-01-6.14452E-03 1.32254E+00-7.32227E-15 1.37748E-13
 -1      3558 1.92570E+01 8.06113E-01 4.05395E-03 1.45431E+00-1.61463E-14 1.85505E-13
 -1      3559 1.87432E+01 9.21385E-01 5.93024E-03 1.43450E+00-5.16399E-14 2.23118E-13
 -1      3560 1.94943E+01 7.58348E-01-5.12352E-03 1.08634E+00-4.96365E-14 2.15118E-13
 -1      3561 1.94507E+01 7.91504E-01 2.38010E-03 1.20098E+00 2.84370E-15 1.91656E-13
 -1      3562 1.90552E+01 9.11226E-01 5.49643E-03 1.17717E+00-5.02743E-14 2.20758E-13
 -1      3563 1.96462E+01 6.72970E-01-4.21874E-03 8.85213E-01-1.21590E-13 2.54413E-13
 -1      3564 1.96118E+01 7.20532E-01 1.64612E-03 9.84962E-01-9.06263E-14 2.17412E-13
 -1      3565 1.93074E+01 8.36486E-01 4.63018E-03 9.67316E-01-9.72271E-14 1.54098E-13
 -1      3566 1.97607E+01 5.74647E-01-3.44175E-03 7.13288E-01-6.13368E-14 1.89808E-13
 -1      3567 1.97367E+01 6.25976E-01 1.34800E-03 7.99280E-01-6.09911E-14 1.99165E-13
 -1      3568 1.95035E+01 7.32940E-01 3.67897E-03 7.90196E-01-6.38476E-14 2.19371E-13
 -1      3569 1.98438E+01 4.77370E-01-2.78094E-03 5.67271E-01-5.08400E-14 1.46771E-13
 -1      3570 1.98288E+01 5.26671E-01 1.21983E-03 6.40360E-01-5.58142E-14 1.96645E-13
 -1      3571 1.96517E+01 6.21761E-01 2.80717E-03 6.38824E-01-1.31525E-14 1.49411E-13
 -1      3572 1.99024E+01 3.88222E-01-2.22422E-03 4.44746E-01-3.56634E-14 1.94557E-13
 -1      3573 1.98942E+01 4.32667E-01 1.13653E-03 5.05871E-01-6.32486E-14 1.90295E-13
 -1      3574 1.97611E+01 5.14761E-01 2.07733E-03 5.09763E-01-4.48551E-14 1.10081E-13
 -1      3575 1.99426E+01 3.10203E-01-1.76037E-03 3.43428E-01-7.85611E-14 1.14841E-13
 -1      3576 1.99390E+01 3.48703E-01 1.04902E-03 3.93706E-01-5.77586E-14 1.25099E-13
 -1      3577 1.98404E+01 4.17894E-01 1.49918E-03 4.00884E-01-4.31881E-14 1.19288E-13
 -1      3578 1.99693E+01 2.44010E-01-1.37838E-03 2.60943E-01-6.93554E-14 5.06075E-14
 -1      3579 1.99687E+01 2.76445E-01 9.45381E-04 3.01628E-01-4.07071E-14 9.55986E-14
 -1      3580 1.98968E+01 3.33583E-01 1.05810E-03 3.10358E-01-1.37221E-14 2.32042E-14
 -1      3581 1.99866E+01 1.89126E-01-1.06741E-03 1.94851E-01-1.45347E-13 1.75778E-13
 -1      3582 1.99877E+01 2.15877E-01 8.29173E-04 2.27248E-01-2.13986E-13 1.00538E-13
 -1      3583 1.99362E+01 2.62221E-01 7.30827E-04 2.36298E-01-1.74924E-13 4.12664E-15
 -1      3584 1.99973E+01 1.44447E-01-8.17053E-04 1.42734E-01 7.86300E-15 1.83503E-13
 -1      3585 1.99993E+01 1.66129E-01 7.08460E-04 1.68125E-01-3.14208E-14 1.85886E-13
 -1      3586 1.99632E+01 2.03103E-01 4.93260E-04 1.76712E-01-9.53156E-14 7.30139E-14
 -1      3587 2.00035E+01 1.08649E-01-6.17660E-04 1.02296E-01 1.98166E-13 7.96708E-14
 -1      3588 2.00059E+01 1.25953E-01 5.90915E-04 1.21880E-01 1.51539E-13 1.39077E-13
 -1      3589 1.99812E+01 1.54995E-01 3.23988E-04 1.29569E-01 9.81617E-14-6.28642E-14
 -1      3590 2.00068E+01 8.03841E-02-4.60558E-04 7.14388E-02 1.12908E-13-3.58533E-14
 -1      3591 2.00092E+01 9.39953E-02 4.82133E-04 8.62961E-02 1.90579E-13 9.55187E-14
 -1      3592 1.99929E+01 1.16458E-01 2.05435E-04 9.28992E-02 1.44813E-13 3.46365E-14
 -1      3593 2.00082E+01 5.83834E-02-3.38134E-04 4.83015E-02 2.70395E-14-1.96081E-13
 -1      3594 2.00104E+01 6.89380E-02 3.85423E-04 5.93770E-02 1.57727E-14-1.91074E-13
 -1      3595 2.00002E+01 8.60418E-02 1.23850E-04 6.48654E-02 1.57370E-13-1.70267E-13
 -1      3596 2.00084E+01 4.15048E-02-2.43832E-04 3.12796E-02 1.47358E-13-2.22544E-13
 -1      3597 2.00104E+01 4.95700E-02 3.02190E-04 3.93789E-02 1.20997E-13-1.13246E-13
 -1      3598 2.00044E+01 6.23794E-02 6.88108E-05 4.38198E-02 9.96059E-14-3.68738E-13
 -1      3599 2.00080E+01 2.87518E-02-1.72093E-04 1.90211E-02-1.34705E-13-1.42075E-13
 -1      3600 2.00096E+01 3.48194E-02 2.32469E-04 2.48162E-02 2.06610E-14-1.47219E-13
 -1      3601 2.00066E+01 4.42413E-02 3.25859E-05 2.83264E-02 6.99820E-14-2.59228E-13
 -1      3602 2.00071E+01 1.92747E-02-1.18264E-04 1.04099E-02-9.66391E-14-2.24075E-13
 -1      3603 2.00085E+01 2.37620E-02 1.75413E-04 1.44509E-02-1.95317E-13-2.57594E-13
 -1      3604 2.00074E+01 3.05529E-02 9.52743E-06 1.71670E-02-1.96795E-13-2.11654E-13
 -1      3605 2.00062E+01 1.23618E-02-7.84968E-05 4.54235E-03-9.29641E-14-2.21648E-13
 -1      3606 2.00072E+01 1.56168E-02 1.29687E-04 7.27129E-03 3.95511E-14-1.74810E-13
 -1      3607 2.00074E+01 2.03963E-02-4.44470E-06 9.33051E-03-9.51594E-14-2.23767E-13
 -1      3608 2.00052E+01 7.42674E-03-4.96412E-05 6.99273E-04-1.26723E-13-2.46976E-13
 -1      3609 2.00060E+01 9.73517E-03 9.37435E-05 2.46566E-03-1.69726E-13-2.23215E-13
 -1      3610 2.00069E+01 1.30023E-02-1.22509E-05 3.99552E-03-6.62049E-14 2.50708E-15
 -1      3611 2.00042E+01 3.99367E-03-2.91497E-05-1.68143E-03-5.88673E-14-1.02187E-13
 -1      3612 2.00048E+01 5.58650E-03 6.60159E-05-6.06019E-04-7.35802E-14-1.45562E-13
 -1      3613 2.00061E+01 7.73695E-03-1.59642E-05 5.06824E-04-1.71568E-13-5.19003E-14
 -1      3614 2.00033E+01 1.68135E-03-1.49852E-05-3.03152E-03 5.89926E-14-6.71641E-14
 -1      3615 2.00038E+01 2.74294E-03 4.50269E-05-2.43969E-03-2.45677E-14-1.01590E-13
 -1      3616 2.00052E+01 4.08562E-03-1.70435E-05-1.64848E-03-6.28078E-14-8.55025E-14
 -1      3617 2.00026E+01 1.88377E-04-5.53370E-06-3.67646E-03 6.33095E-14-7.52863E-14
 -1      3618 2.00029E+01 8.64010E-04 2.94536E-05-3.41279E-03 2.04673E-13-9.41899E-14
 -1      3619 2.00043E+01 1.63621E-03-1.65069E-05-2.86463E-03 9.26297E-14-1.45378E-13
 -1      3620 2.00019E+01-7.20997E-04 4.52992E-07-3.85648E-03-7.89185E-15-6.98294E-14
 -1      3621 2.00022E+01-3.17996E-04 1.81725E-05-3.80702E-03-1.43970E-14-1.03313E-13
 -1      3622 2.00035E+01 6.29796E-05-1.50593E-05-3.43884E-03 6.98025E-14-7.68744E-14
 -1      3623 2.00014E+01-1.22953E-03 3.92187E-06-3.74441E-03-1.12531E-13-1.73594E-13
 -1      3624 2.00016E+01-1.01155E-03 1.01962E-05-3.82791E-03-4.88064E-14-1.58779E-13
 -1      3625 2.00027E+01-8.88697E-04-1.31899E-05-3.59049E-03-4.51842E-14-9.41358E-14
 -1      3626 2.00009E+01-1.47788E-03 5.59584E-06-3.46056E-03-1.99507E-13 1.22268E-13
 -1      3627 2.00011E+01-1.37749E-03 4.76463E-06-3.62099E-03-2.01314E-13-9.83330E-14
 -1      3628 2.00020E+01-1.41627E-03-1.13482E-05-3.47699E-03-2.54975E-13-8.40754E-14
 -1      3629 2.00006E+01-1.57129E-03 7.94848E-06-3.08697E-03-1.68703E-13 3.36705E-13
 -1      3630 2.00007E+01-1.53742E-03 2.04650E-06-3.28516E-03-1.24010E-13 1.89856E-13
 -1      3631 2.00015E+01-1.67158E-03-1.00741E-05-3.20753E-03-2.15487E-13-9.33527E-15
 -1      3632 2.16871E+01 2.07156E-01 5.54283E-03 7.62653E-02 4.94142E-14-2.42395E-13
 -1      3633 1.44184E+01-8.57290E-01 4.98107E-02 3.95242E+00-2.04316E-13 1.32096E-13
 -1      3634 1.28693E+01-4.36349E-03 3.61119E-02 2.84685E+00-1.95358E-13 1.50428E-13
 -1      3635 2.00022E+01-2.48405E-03 7.78454E-08 6.38749E-04 2.74838E-13-4.50595E-13
 -1      3636 2.00023E+01-2.51117E-03 3.82515E-06 2.34067E-04 2.11871E-13-4.02617E-13
 -1      3637 2.59227E+01 1.99990E+00-9.06456E-02-2.29403E+00-3.43496E-13 4.69069E-14
 -1      3638 1.07931E+01 2.13119E+00 7.90810E-02 1.53786E+00 2.51240E-13-3.85220E-13
 -1      3639 1.01666E+01 2.34965E+00 1.56192E-01 1.07870E-01 2.07740E-13-3.99167E-13
 -1      3640 2.54359E+01 8.74440E-01-1.35699E-02 2.02009E+00-1.02238E-13-3.80484E-13
 -1      3641 1.56786E+01-1.14934E+00 8.83359E-02-4.17750E+00 2.89697E-13 2.57547E-13
 -1      3642 1.75110E+01-2.24388E+00-6.47106E-02-4.40821E+00 3.29063E-13 2.97946E-13
 -1      3643 2.03681E+01-2.79372E+00 5.71169E-02 3.70730E+00-2.18305E-13-3.02657E-14
 -1      3644 1.85661E+01-2.98300E+00 1.66262E-02 4.61571E+00-2.11803E-13 4.52069E-14
 -1      3645 1.62710E+01-1.86800E+00 4.27708E-02 4.43566E+00-1.50588E-13 6.68285E-14
 -1      3646 1.95480E+01-1.97643E+00 3.44895E-02 3.57434E+00-1.41126E-13-4.52451E-14
 -1      3647 1.34863E+01 1.77024E+00 6.14806E-02-2.06512E+00 1.39325E-13-3.43777E-13
 -1      3648 1.21609E+01 2.24783E+00 3.66156E-02-1.36875E+00 1.69600E-13-3.72903E-13
 -1      3649 2.38611E+01-3.47395E+00 2.48084E-02-1.64345E+00 1.57566E-13-9.43408E-14
 -1      3650 2.49799E+01-2.99709E+00-5.27064E-02-2.04683E-01 6.37285E-14-2.72617E-13
 -1      3651 2.51062E+01-2.12361E+00 2.57518E-02 7.23338E-01 5.20070E-15-3.66212E-13
 -1      3652 1.44604E+01 3.10359E-01 1.58538E-01-3.56183E+00 2.36096E-14-3.61745E-13
 -1      3653 1.66627E+01-9.71773E-01-7.11161E-02-3.86645E+00-2.75856E-14-2.92100E-13
 -1      3654 1.98903E+01-2.80982E+00 8.96536E-02-3.98991E+00 2.98511E-13 1.26341E-13
 -1      3655 2.17284E+01-3.49658E+00-5.65721E-02-3.13870E+00 2.04924E-13-6.97428E-14
 -1      3656 2.70865E+01 2.04967E-01-4.29015E-02-1.75939E+00-2.37609E-13 1.22305E-13
 -1      3657 1.41123E+01 1.19419E+00-2.41747E-02 3.53320E+00 2.92030E-13-3.00291E-13
 -1      3658 1.27598E+01 2.04193E+00 7.76916E-02 2.76402E+00 2.81301E-13-3.52988E-13
 -1      3659 1.74742E+01 1.02850E+00 2.53627E-02 2.70234E+00 2.45287E-13-2.70666E-13
 -1      3660 1.83919E+01 1.20491E-01 2.00171E-02 2.91381E+00 2.30280E-13-2.19388E-13
 -1      3661 2.48414E+01-1.88800E+00 2.50678E-02-4.80731E-01 3.42504E-14 2.37900E-14
 -1      3662 2.52219E+01-1.49099E+00-1.31029E-02-9.34369E-01-3.06435E-14 5.32144E-14
 -1      3663 1.62044E+01 1.47873E+00-1.46290E-02 2.79088E+00 2.65561E-13-2.81558E-13
 -1      3664 2.22942E+01-5.91593E-01 2.09909E-02 2.48969E-01 4.11554E-14-1.81620E-13
 -1      3665 2.28359E+01-1.23502E+00-1.33711E-02 1.99470E-01 3.87923E-14-1.33634E-13
 -1      3666 2.07500E+01-9.56147E-01-5.44498E-02-2.29743E+00 3.77302E-14-7.15782E-14
 -1      3667 1.27344E+01 5.59340E-01 8.57454E-02 2.01959E+00-2.21687E-13 2.20386E-13
 -1      3668 1.28573E+01 8.54891E-01 1.29736E-02 1.01912E+00-2.07031E-13 2.62946E-13
 -1      3669 1.43684E+01 4.00329E-01 4.22494E-02 2.37912E+00-1.71591E-13 2.30899E-13
 -1      3670 1.84291E+01 1.03010E-01 5.56076E-02-2.64320E+00 7.71865E-14-1.88691E-13
 -1      3671 1.56802E+01 9.17911E-01-4.56064E-02-2.73471E+00 1.10464E-13-2.62197E-13
 -1      3672 1.09544E+01 2.12143E+00 7.44189E-02-8.03544E-01 1.66677E-13-3.96898E-13
 -1      3673 1.23479E+01 7.53715E-01 7.41823E-02-1.59500E+00 8.28851E-15 2.71314E-13
 -1      3674 1.36581E+01 5.93127E-01 3.99963E-02-1.97283E+00 1.34673E-14 1.96523E-13
 -1      3675 1.25337E+01 8.97295E-01 9.28160E-03-5.89277E-01-1.17470E-13 1.80730E-13
 -1      3676 1.55702E+01 1.27130E+00 3.13349E-02 3.13717E+00 2.78056E-13-2.90903E-13
 -1      3677 2.44172E+01-2.45049E+00-4.18780E-02 4.47901E-01 6.59073E-14 4.45963E-14
 -1      3678 1.88196E+01-7.41500E-01 6.68832E-02-3.04520E+00 3.04617E-15-1.94783E-13
 -1      3679 2.00007E+01-1.69571E-03 1.69636E-06 2.76072E-03-2.02172E-14 5.44219E-13
 -1      3680 2.00005E+01-1.69385E-03 3.70717E-06 2.58580E-03-7.46697E-14 3.42595E-13
 -1      3681 2.00007E+01-1.81679E-03-2.81051E-06 2.47525E-03-2.24488E-13 3.64172E-13
 -1      3682 2.00013E+01-1.85878E-03-7.90558E-06 2.67471E-03-5.04891E-14 5.25643E-13
 -1      3683 2.18201E+01-3.15312E-01-2.58816E-03 4.02832E-01 6.10016E-14-2.10746E-13
 -1      3684 2.00021E+01-2.41667E-03 6.74860E-06 1.07096E-03 3.03045E-13-5.41684E-13
 -1      3685 2.00025E+01-2.42140E-03-3.15828E-06 9.08637E-04 2.16287E-13-4.61075E-13
 -1      3686 2.00019E+01-2.34364E-03-6.21233E-06 1.43370E-03 1.82544E-13-1.17948E-13
 -1      3687 2.00003E+01-1.59842E-03 4.09255E-06-2.66707E-03 5.79566E-15 1.15234E-13
 -1      3688 2.00004E+01-1.59127E-03-8.07828E-07-2.88285E-03-4.30389E-14 3.14710E-13
 -1      3689 2.00001E+01-1.58364E-03 5.32180E-07-2.47618E-03-5.30102E-14 9.83903E-14
 -1      3690 1.64795E+01-1.03314E+00 7.49420E-02 3.73028E+00-2.21411E-13 1.28147E-13
 -1      3691 2.00026E+01-2.48428E-03-3.11062E-06 9.35881E-06 7.01255E-14-2.65153E-13
 -1      3692 2.00023E+01-2.51370E-03 3.09038E-06-2.20139E-04 5.11858E-14-4.85019E-13
 -1      3693 2.00022E+01-2.48706E-03 9.16647E-07-6.21139E-04-1.19265E-13-5.75188E-13
 -1      3694 1.54355E+01-5.24384E-01 4.63575E-02-3.44685E+00 1.36563E-13 2.83606E-13
 -1      3695 1.17491E+01 2.39432E+00 2.70208E-02 2.01351E+00 2.63376E-13-3.64979E-13
 -1      3696 1.92586E+01-1.22959E+00 4.38878E-02 3.18679E+00-1.29507E-13-2.02659E-14
 -1      3697 1.79083E+01-1.33055E+00-3.53111E-03 3.68855E+00-1.44091E-13 2.23432E-15
 -1      3698 1.62082E+01-3.94250E-01 5.89814E-03 3.23883E+00-1.98056E-13 1.60566E-13
 -1      3699 1.88260E+01-6.36500E-01 7.62824E-03 2.96289E+00-6.92035E-14 4.47836E-14
 -1      3700 2.00006E+01-1.77269E-03-5.22644E-06-2.48116E-03-7.12651E-14 2.76278E-13
 -1      3701 1.77451E+01-1.72033E-01-8.82409E-04 2.85994E+00-1.28049E-13 6.50721E-14
 -1      3702 2.02151E+01-1.56306E+00 6.39514E-02 3.28515E+00 2.45086E-13-1.45875E-13
 -1      3703 1.92197E+01-7.14274E-01 1.68095E-02 3.09136E+00 2.41029E-13-1.87938E-13
 -1      3704 2.01520E+01-6.83034E-01-2.78260E-02 2.33620E+00 1.94440E-13-1.92457E-13
 -1      3705 2.00016E+01-2.22492E-03 7.91444E-06-1.79702E-03-8.83990E-14-2.40585E-13
 -1      3706 2.00013E+01-2.09980E-03-8.48297E-06-2.08334E-03-9.55222E-14-6.74797E-14
 -1      3707 1.90331E+01-2.09952E+00 3.57956E-02-3.64772E+00 2.79372E-13 1.76561E-13
 -1      3708 2.30441E+01-3.29946E+00 3.55059E-02-2.04172E+00 2.11363E-13-5.32031E-14
 -1      3709 2.00010E+01-1.77239E-03-9.95544E-06-2.85222E-03-3.87708E-14 2.92714E-13
 -1      3710 2.19284E+01-2.76997E+00 5.85392E-03-2.25433E+00 1.54373E-13-1.15947E-14
 -1      3711 2.41528E+01-2.58279E+00 2.89573E-02 1.09088E+00 1.14798E-13 1.21604E-14
 -1      3712 2.35854E+01-3.03744E+00 9.76885E-03 2.22160E+00 1.51289E-13-4.77990E-14
 -1      3713 2.21440E+01-2.50189E+00-9.23565E-03 2.62727E+00 1.95618E-13-9.75075E-14
 -1      3714 2.36544E+01-2.25557E+00 4.95925E-02 1.04887E+00 1.16359E-13-2.09641E-15
 -1      3715 2.29771E+01-1.63514E+00-2.93182E-02 6.29985E-01 7.43884E-14-6.90576E-14
 -1      3716 2.00010E+01-1.91851E-03 5.41891E-06 2.33307E-03-2.40997E-13 3.15733E-13
 -1      3717 2.11914E+01-8.54769E-01 5.86511E-03 1.69189E+00 1.63870E-13-1.81807E-13
 -1      3718 2.00013E+01-1.97071E-03 7.92689E-08 2.37194E-03-1.92560E-13 2.21109E-13
 -1      3719 2.00012E+01-2.06599E-03-6.23456E-06 2.11295E-03-1.71142E-13 1.34441E-13
 -1      3720 2.00016E+01-2.19204E-03 1.00252E-05 1.83305E-03 1.23274E-14-1.23109E-15
 -1      3721 2.00016E+01-1.97641E-03 7.29176E-06 2.44107E-03 1.47634E-14 1.67375E-13
 -1      3722 1.79396E+01 9.91230E-01-1.33235E-02 1.43841E+00-1.58665E-13 1.14767E-13
 -1      3723 1.77602E+01 9.31194E-01 6.32320E-03 1.61342E+00-1.51378E-13 9.39182E-14
 -1      3724 2.17082E+01-6.00253E-01 7.77838E-03 8.69325E-01 1.08896E-13-1.84817E-13
 -1      3725 2.13589E+01-2.29281E+00 4.78040E-02-2.34171E+00 1.20199E-13-6.96973E-14
 -1      3726 2.07411E+01-1.70133E+00-1.93636E-02-2.05801E+00 1.78821E-13-1.53116E-13
 -1      3727 2.03369E+01-1.22086E+00 1.29593E-02-1.99914E+00 1.84798E-13-1.00623E-13
 -1      3728 2.00712E+01-8.65599E-01 7.61160E-03-1.84711E+00 1.18999E-13-9.79518E-14
 -1      3729 1.98111E+01-5.52864E-01 5.09057E-03-1.75677E+00 6.55770E-14-6.93562E-14
 -1      3730 1.96655E+01-9.98219E-01-1.59101E-02-2.19947E+00 1.75912E-13-8.15407E-14
 -1      3731 1.97013E+01-2.87021E-01 9.40140E-03-1.58374E+00 2.86030E-14-2.90009E-14
 -1      3732 1.95518E+01-7.63682E-02 1.65596E-03-1.47539E+00 8.91491E-14-5.46852E-14
 -1      3733 1.93041E+01-3.26489E-01-1.15752E-02-1.80696E+00 1.17975E-13-7.17602E-14
 -1      3734 1.95317E+01 9.43661E-02 6.94656E-03-1.32218E+00 5.13188E-14-4.63637E-14
 -1      3735 1.94599E+01 2.23875E-01-6.21392E-04-1.21626E+00 2.39979E-14-1.08179E-13
 -1      3736 1.91959E+01 1.05197E-01-5.81982E-03-1.45340E+00 5.19563E-14-1.41716E-13
 -1      3737 1.94869E+01 3.24593E-01 4.91899E-03-1.08726E+00 4.14412E-14-1.49852E-13
 -1      3738 1.94623E+01 3.93953E-01-1.68821E-03-9.91012E-01 5.80947E-14-1.48201E-13
 -1      3739 1.92095E+01 3.64334E-01-2.55633E-03-1.15949E+00 1.63249E-14-1.01326E-13
 -1      3740 1.95118E+01 4.43703E-01 3.41097E-03-8.84665E-01 6.22164E-14-2.38112E-13
 -1      3741 1.95140E+01 4.71055E-01-2.07613E-03-8.00104E-01 2.28683E-14-2.50889E-13
 -1      3742 1.92861E+01 4.99416E-01-5.80836E-04-9.20183E-01 1.82331E-14-2.75699E-13
 -1      3743 1.95712E+01 4.86041E-01 2.35124E-03-7.13230E-01-5.32971E-15-2.08280E-13
 -1      3744 1.95868E+01 4.85839E-01-2.12417E-03-6.40275E-01-3.25132E-14-1.36343E-13
 -1      3745 1.93896E+01 5.48691E-01 4.68461E-04-7.27301E-01 1.07181E-13-4.04560E-13
 -1      3746 1.96434E+01 4.78612E-01 1.64421E-03-5.69539E-01-7.00914E-14 2.28002E-15
 -1      3747 1.96643E+01 4.61659E-01-2.00370E-03-5.07431E-01-1.14425E-13 1.82761E-14
 -1      3748 1.94988E+01 5.42342E-01 9.75647E-04-5.71989E-01 5.49032E-14-2.49713E-13
 -1      3749 1.97160E+01 4.41494E-01 1.17843E-03-4.50034E-01-1.74426E-13-2.30027E-14
 -1      3750 1.97373E+01 4.15567E-01-1.80173E-03-3.97811E-01-1.51030E-13-8.60000E-15
 -1      3751 1.96021E+01 5.02448E-01 1.16257E-03-4.46889E-01-1.37887E-13-4.45397E-14
 -1      3752 1.97821E+01 3.89021E-01 8.69967E-04-3.51473E-01-1.97854E-13 5.03193E-15
 -1      3753 1.98015E+01 3.59474E-01-1.56596E-03-3.08122E-01-1.43742E-13-7.35518E-14
 -1      3754 1.96936E+01 4.44803E-01 1.16395E-03-3.46254E-01-1.43956E-13-5.59138E-14
 -1      3755 1.98386E+01 3.30956E-01 6.61541E-04-2.70973E-01-5.39658E-14-1.07060E-13
 -1      3756 1.98550E+01 3.01278E-01-1.32445E-03-2.35470E-01-9.14870E-14-1.26276E-13
 -1      3757 1.97710E+01 3.80271E-01 1.06480E-03-2.65595E-01-1.26039E-13-1.22896E-13
 -1      3758 1.98849E+01 2.73573E-01 5.15908E-04-2.05948E-01-1.43931E-13-1.20570E-13
 -1      3759 1.98980E+01 2.45866E-01-1.09408E-03-1.77281E-01-1.76912E-13-1.68522E-13
 -1      3760 1.98340E+01 3.15938E-01 9.18883E-04-2.01332E-01-1.00793E-13-4.53486E-14
 -1      3761 1.99214E+01 2.20577E-01 4.09783E-04-1.54063E-01-1.10259E-13-7.72677E-14
 -1      3762 1.99314E+01 1.95962E-01-8.84607E-04-1.31251E-01-1.33475E-14-6.10948E-14
 -1      3763 1.98838E+01 2.56080E-01 7.59360E-04-1.50544E-01-7.73938E-14 6.02847E-14
 -1      3764 1.99491E+01 1.73872E-01 3.29041E-04-1.13206E-01-4.57753E-14-1.74620E-13
 -1      3765 1.99564E+01 1.52797E-01-7.00908E-04-9.53279E-02-6.27513E-14-1.84142E-13
 -1      3766 1.99219E+01 2.02970E-01 6.05666E-04-1.10797E-01-9.33535E-14 2.10816E-14
 -1      3767 1.99696E+01 1.34143E-01 2.65297E-04-8.14849E-02-2.65233E-14-2.75784E-13
 -1      3768 1.99747E+01 1.16629E-01-5.44513E-04-6.76942E-02-1.12657E-15-3.05425E-13
 -1      3769 1.99504E+01 1.57508E-01 4.68108E-04-8.00459E-02-8.04788E-14-5.69326E-14
 -1      3770 1.99841E+01 1.01308E-01 2.13619E-04-5.72281E-02 9.66698E-14-4.14514E-13
 -1      3771 1.99875E+01 8.71168E-02-4.14707E-04-4.67672E-02 1.28676E-13-1.82230E-13
 -1      3772 1.99711E+01 1.19708E-01 3.51088E-04-5.65580E-02 7.97271E-14-2.32792E-13
 -1      3773 1.99941E+01 7.48345E-02 1.71071E-04-3.89811E-02 9.73675E-14-8.76924E-14
 -1      3774 1.99961E+01 6.35942E-02-3.09392E-04-3.11882E-02 9.22313E-14 8.13908E-15
 -1      3775 1.99855E+01 8.90496E-02 2.55357E-04-3.88753E-02 2.10255E-13-1.80422E-13
 -1      3776 2.00005E+01 5.39632E-02 1.35831E-04-2.55008E-02 1.03149E-13 4.25987E-14
 -1      3777 2.00017E+01 4.52481E-02-2.25726E-04-1.98104E-02 6.81752E-14 1.84981E-14
 -1      3778 1.99953E+01 6.47346E-02 1.79565E-04-2.57777E-02 1.29746E-13-4.02817E-14
 -1      3779 2.00044E+01 3.78544E-02 1.06679E-04-1.57431E-02-9.57679E-15-7.22846E-14
 -1      3780 2.00049E+01 3.12375E-02-1.60584E-04-1.16820E-02 1.85431E-15-5.44432E-14
 -1      3781 2.00015E+01 4.58520E-02 1.21307E-04-1.62550E-02-3.47933E-14-1.58244E-14
 -1      3782 2.00065E+01 2.56808E-02 8.27086E-05-8.84612E-03 1.00834E-13 2.11362E-15
 -1      3783 2.00065E+01 2.07642E-02-1.10870E-04-6.02559E-03 1.71531E-13 3.26464E-14
 -1      3784 2.00051E+01 3.14884E-02 7.77867E-05-9.48029E-03 8.27970E-14-2.64155E-14
 -1      3785 2.00073E+01 1.66802E-02 6.31824E-05-4.11017E-03 7.99705E-14-2.62484E-14
 -1      3786 2.00071E+01 1.31110E-02-7.37054E-05-2.21699E-03 9.77360E-14-5.37615E-14
 -1      3787 2.00070E+01 2.07922E-02 4.62201E-05-4.78596E-03 9.40175E-14-1.73332E-14
 -1      3788 2.00073E+01 1.01823E-02 4.74588E-05-9.76741E-04 1.23803E-13-1.26018E-14
 -1      3789 2.00069E+01 7.65837E-03-4.65340E-05 2.37126E-04 9.21533E-14-3.08075E-14
 -1      3790 2.00077E+01 1.30067E-02 2.40615E-05-1.64004E-03 5.32233E-14-1.82661E-14
 -1      3791 2.00068E+01 5.61690E-03 3.49628E-05 9.92602E-04 1.24820E-13-1.68010E-13
 -1      3792 2.00064E+01 3.88680E-03-2.71608E-05 1.72005E-03 4.37976E-14-7.20839E-14
 -1      3793 2.00075E+01 7.48334E-03 9.10593E-06 3.75124E-04 9.47260E-14-8.61355E-14
 -1      3794 2.00060E+01 2.51200E-03 2.51753E-05 2.13616E-03 3.43810E-14 2.20947E-14
 -1      3795 2.00056E+01 1.37131E-03-1.37539E-05 2.52444E-03 6.68807E-14-1.13838E-13
 -1      3796 2.00069E+01 3.68161E-03-4.78805E-07 1.58238E-03 4.81923E-14-1.16265E-13
 -1      3797 2.00051E+01 4.85423E-04 1.76241E-05 2.71029E-03 1.70917E-13-7.49590E-14
 -1      3798 2.00047E+01-2.29096E-04-4.84133E-06 2.86959E-03 2.07171E-13 4.82078E-14
 -1      3799 2.00061E+01 1.16109E-03-6.17881E-06 2.22724E-03 1.53239E-13-5.82948E-14
 -1      3800 2.00042E+01-7.66909E-04 1.19107E-05 2.90528E-03 1.34786E-13 3.36066E-15
 -1      3801 2.00038E+01-1.18341E-03 8.30211E-07 2.91606E-03 3.41950E-14 3.98463E-15
 -1      3802 2.00051E+01-4.30452E-04-9.18460E-06 2.49306E-03 2.23067E-13-1.33309E-13
 -1      3803 2.00033E+01-1.48397E-03 7.60335E-06 2.85907E-03-8.63200E-14 2.40229E-14
 -1      3804 2.00030E+01-1.70249E-03 3.97270E-06 2.77810E-03-2.15728E-15 1.16878E-13
 -1      3805 2.00042E+01-1.37081E-03-1.04895E-05 2.51326E-03 1.76729E-14-3.20778E-14
 -1      3806 2.00025E+01-1.84390E-03 5.72662E-06 2.66740E-03 1.14848E-13 5.37725E-16
 -1      3807 2.00022E+01-1.94984E-03 2.83538E-06 2.54075E-03 1.21405E-13-6.21598E-14
 -1      3808 2.00032E+01-1.87452E-03-1.05546E-05 2.38234E-03 1.11535E-14-6.34989E-14
 -1      3809 1.88282E+01 9.70310E-01-6.94990E-03 9.67498E-01-4.22573E-14 2.28886E-13
 -1      3810 1.86891E+01 1.00765E+00 2.49267E-04 1.07078E+00-5.29736E-14 2.59631E-13
 -1      3811 1.84347E+01 1.02375E+00-9.53514E-03 1.17122E+00-1.22220E-13 1.91314E-13
 -1      3812 1.82691E+01 1.02617E+00 1.89168E-03 1.30072E+00-1.28414E-13 1.21182E-13
 -1      3813 1.77290E+01 1.15070E+00 1.28270E-02 1.14989E+00-1.58411E-13-5.91972E-14
 -1      3814 2.00009E+01-1.89057E-03 8.23367E-06-2.37009E-03-8.81352E-14 8.75750E-14
 -1      3815 1.73329E+01 8.08988E-01-1.74955E-02 1.82275E+00-1.60712E-13 2.04675E-13
 -1      3816 1.71681E+01 6.39376E-01 1.62221E-02 2.07847E+00-1.56070E-13 2.26638E-13
 -1      3817 1.70089E+01 1.07086E+00 1.58294E-02 1.45168E+00-1.00442E-13 1.03089E-13
 -1      3818 1.91349E+01 8.72583E-01-5.24809E-03 8.00753E-01-6.65649E-14 1.25321E-13
 -1      3819 1.90243E+01 9.26981E-01-2.98966E-04 8.87666E-01-2.52840E-14 1.61951E-13
 -1      3820 1.87148E+01 1.03586E+00 7.53493E-03 7.88182E-01 3.58627E-15 1.75825E-13
 -1      3821 1.93703E+01 7.56792E-01-4.08704E-03 6.58464E-01-1.04099E-13 1.47772E-13
 -1      3822 1.92855E+01 8.17153E-01-3.28490E-04 7.33447E-01-9.84206E-14 1.09884E-13
 -1      3823 1.90466E+01 9.18506E-01 5.78498E-03 6.59441E-01-5.95520E-14 1.30706E-13
 -1      3824 1.95483E+01 6.38843E-01-3.24361E-03 5.35315E-01-3.26664E-14 1.76945E-13
 -1      3825 1.94853E+01 6.98498E-01-1.66697E-04 6.00234E-01-2.44644E-14 1.77014E-13
 -1      3826 1.93007E+01 7.90860E-01 4.41564E-03 5.47549E-01-9.46215E-14 1.73623E-13
 -1      3827 1.96813E+01 5.27758E-01-2.59526E-03 4.29079E-01-3.77383E-14 7.51306E-14
 -1      3828 1.96356E+01 5.82998E-01 2.79764E-05 4.84793E-01-4.17524E-14 7.11901E-14
 -1      3829 1.94937E+01 6.65145E-01 3.34499E-03 4.48800E-01-3.64825E-14 2.05674E-13
 -1      3830 1.97794E+01 4.28094E-01-2.07702E-03 3.38565E-01 4.96115E-15 3.86061E-14
 -1      3831 1.97469E+01 4.77128E-01 1.87239E-04 3.85679E-01 6.44835E-15 1.22230E-13
 -1      3832 1.96389E+01 5.48476E-01 2.51248E-03 3.62128E-01-8.08179E-14 8.07939E-14
 -1      3833 1.98508E+01 3.41634E-01-1.65395E-03 2.62712E-01-3.25650E-14-3.78939E-14
 -1      3834 1.98283E+01 3.83857E-01 2.90980E-04 3.01877E-01 3.76103E-14 5.10576E-14
 -1      3835 1.97470E+01 4.44476E-01 1.86984E-03 2.87232E-01 3.53035E-14 9.71445E-14
 -1      3836 1.99022E+01 2.68500E-01-1.30606E-03 2.00278E-01-1.98583E-13 2.49905E-14
 -1      3837 1.98869E+01 3.04016E-01 3.42223E-04 2.32263E-01-1.39136E-13-1.68715E-14
 -1      3838 1.98267E+01 3.54492E-01 1.37781E-03 2.23768E-01-1.19890E-13-2.90627E-14
 -1      3839 1.99386E+01 2.07890E-01-1.02047E-03 1.49821E-01 1.66782E-15-6.24147E-14
 -1      3840 1.99284E+01 2.37189E-01 3.52715E-04 1.75484E-01-1.54506E-13 2.23535E-14
 -1      3841 1.98846E+01 2.78447E-01 1.00426E-03 1.71086E-01-1.18956E-13 2.10076E-14
 -1      3842 1.99639E+01 1.58533E-01-7.87653E-04 1.09778E-01 1.23903E-13-1.58635E-14
 -1      3843 1.99574E+01 1.82296E-01 3.35603E-04 1.30010E-01 7.80561E-14 2.07182E-14
 -1      3844 1.99261E+01 2.15438E-01 7.23049E-04 1.28236E-01 5.11484E-15-8.71124E-14
 -1      3845 1.99811E+01 1.18976E-01-5.99735E-04 7.85718E-02 1.49374E-13 4.49350E-14
 -1      3846 1.99771E+01 1.37949E-01 3.02259E-04 9.42448E-02 1.54408E-13 2.79986E-14
 -1      3847 1.99554E+01 1.64132E-01 5.13134E-04 9.40690E-02 1.38091E-13 8.70424E-14
 -1      3848 1.99924E+01 8.77488E-02-4.49806E-04 5.46954E-02 1.74400E-13-4.40681E-14
 -1      3849 1.99902E+01 1.02671E-01 2.61304E-04 6.66208E-02 2.37743E-13 1.94786E-14
 -1      3850 1.99756E+01 1.23019E-01 3.57835E-04 6.73515E-02 1.74769E-13 3.66666E-14
 -1      3851 1.99996E+01 6.34631E-02-3.31695E-04 3.67730E-02 5.82420E-14-1.96065E-13
 -1      3852 1.99985E+01 7.50237E-02 2.18672E-04 4.56777E-02 8.30492E-14-1.38935E-13
 -1      3853 1.99891E+01 9.05774E-02 2.44074E-04 4.68624E-02 2.08006E-13 4.35805E-14
 -1      3854 2.00039E+01 4.48626E-02-2.39903E-04 2.35929E-02-1.25778E-13-3.66943E-14
 -1      3855 2.00035E+01 5.36812E-02 1.78078E-04 3.01078E-02-3.82783E-14-1.07169E-13
 -1      3856 1.99978E+01 6.53656E-02 1.61689E-04 3.14610E-02-5.01384E-14 1.91611E-13
 -1      3857 2.00061E+01 3.08445E-02-1.69591E-04 1.41187E-02-1.87224E-13 5.27851E-16
 -1      3858 2.00063E+01 3.74614E-02 1.41586E-04 1.87770E-02-1.26960E-13 3.65483E-14
 -1      3859 2.00031E+01 4.60765E-02 1.02845E-04 2.01275E-02-1.62662E-13 2.52083E-13
 -1      3860 2.00071E+01 2.04639E-02-1.16571E-04 7.48660E-03-5.36839E-14-6.29502E-14
 -1      3861 2.00075E+01 2.53397E-02 1.10104E-04 1.07286E-02-1.42834E-13-1.37396E-13
 -1      3862 2.00061E+01 3.15605E-02 6.15297E-05 1.19811E-02-3.25479E-14 1.19508E-13
 -1      3863 2.00072E+01 1.29270E-02-7.72736E-05 2.99232E-03-1.93412E-13-1.17178E-14
 -1      3864 2.00077E+01 1.64470E-02 8.37992E-05 5.17419E-03-1.26343E-13-6.34667E-14
 -1      3865 2.00074E+01 2.08312E-02 3.31506E-05 6.28262E-03-1.33617E-13-7.55292E-14
 -1      3866 2.00067E+01 7.57867E-03-4.87147E-05 7.34369E-05-1.11104E-13 3.05457E-14
 -1      3867 2.00073E+01 1.00595E-02 6.23921E-05 1.47783E-03-1.25274E-13 2.95855E-15
 -1      3868 2.00077E+01 1.30594E-02 1.42170E-05 2.42679E-03-2.07582E-13 3.27094E-14
 -1      3869 2.00060E+01 3.88665E-03-2.84366E-05-1.71049E-03 9.12351E-14-1.38634E-13
 -1      3870 2.00065E+01 5.58477E-03 4.53673E-05-8.63479E-04 6.56615E-14-2.30631E-15
 -1      3871 2.00074E+01 7.56066E-03 2.08789E-06-7.10507E-05 1.75440E-14-3.62653E-15
 -1      3872 2.00051E+01 1.42492E-03-1.44465E-05-2.69771E-03 8.37925E-14-3.72058E-14
 -1      3873 2.00056E+01 2.54474E-03 3.21086E-05-2.23992E-03 2.42941E-14-9.99355E-14
 -1      3874 2.00067E+01 3.77902E-03-5.22360E-06-1.59104E-03 1.60133E-13 1.12451E-14
 -1      3875 2.00042E+01-1.43157E-04-5.15971E-06-3.14290E-03 5.05755E-14-1.87043E-14
 -1      3876 2.00047E+01 5.59401E-04 2.19809E-05-2.94836E-03 1.56596E-13-5.23577E-14
 -1      3877 2.00058E+01 1.26970E-03-9.20039E-06-2.42532E-03 8.56557E-14 2.12871E-13
 -1      3878 2.00034E+01-1.08051E-03 8.16014E-07-3.23342E-03-9.15193E-15-7.09785E-14
 -1      3879 2.00038E+01-6.69778E-04 1.44789E-05-3.20997E-03 5.44099E-14-4.42980E-14
 -1      3880 2.00048E+01-3.18756E-04-1.09387E-05-2.79388E-03 1.19412E-13 1.65971E-13
 -1      3881 2.00026E+01-1.59122E-03 3.87598E-06-3.10365E-03-3.44637E-13-8.08138E-14
 -1      3882 2.00030E+01-1.37566E-03 8.62492E-06-3.18602E-03-2.21069E-13-4.16421E-14
 -1      3883 2.00039E+01-1.25952E-03-1.11283E-05-2.85785E-03-2.43519E-13 9.33949E-14
 -1      3884 2.00020E+01-1.83749E-03 5.90312E-06-2.84517E-03-5.55300E-14-1.45227E-13
 -1      3885 2.00022E+01-1.73693E-03 4.48111E-06-2.98909E-03-2.15204E-13-1.35190E-13
 -1      3886 2.00030E+01-1.77133E-03-1.09686E-05-2.73952E-03-2.18072E-13-1.23673E-13
 -1      3887 1.67132E+01 3.84556E-01-1.54196E-02 2.39745E+00-1.33593E-13 1.31475E-13
 -1      3888 1.67021E+01 5.82149E-02 3.59605E-02 2.74549E+00-1.38162E-13 1.59216E-13
 -1      3889 1.52417E+01 2.57230E-01 3.28488E-02 2.69589E+00-1.64930E-13 2.08908E-13
 -1      3890 1.61690E+01 8.06844E-01 2.03602E-02 1.92448E+00-1.90078E-13 3.11081E-13
 -1      3891 2.00021E+01-2.42669E-03 5.20265E-06-1.05878E-03-2.38620E-13-5.33076E-13
 -1      3892 2.00019E+01-2.34678E-03-2.73131E-06-1.41906E-03-1.93544E-13-3.72219E-13
 -1      3893 2.00020E+01-2.26443E-03-2.34828E-07-1.71452E-03-1.58806E-13-3.42734E-13
 -1      3894 2.00025E+01-2.43123E-03-1.68514E-06-8.92024E-04-1.67094E-13-4.80616E-13
 -1      3895 1.82845E+01-1.30232E+00 7.61928E-02-3.42878E+00 2.47957E-13 3.04558E-13
 -1      3896 1.98286E+01-2.17150E+00-5.10330E-02-3.13124E+00 1.32517E-13 1.43441E-13
 -1      3897 2.00013E+01-1.96815E-03 3.22200E-06-2.39026E-03 2.92884E-16 7.54520E-14
 -1      3898 2.00015E+01-1.93631E-03 4.51898E-06-2.55500E-03-5.99887E-14 1.90858E-14
 -1      3899 1.35809E+01 1.00633E+00 9.85513E-02-2.76567E+00 8.73884E-14-3.65576E-13
 -1      3900 1.51169E+01 1.10431E-01 3.98441E-02-2.77739E+00 6.55721E-14 2.18266E-13
 -1      3901 1.64357E+01-7.32111E-01-4.79304E-02-3.34443E+00 1.72666E-13 2.40644E-13
 -1      3902 2.00022E+01-2.06134E-03-5.89429E-06-2.36777E-03-1.58044E-13-4.59448E-14
 -1      3903 1.44080E+01 7.99826E-01-8.53300E-03-1.54795E+00 2.71196E-14 1.96496E-13
 -1      3904 1.46768E+01 4.73149E-01 1.74199E-02-2.28854E+00 5.96814E-14 2.40630E-13
 -1      3905 1.58663E+01 3.49004E-01 2.43820E-02-2.22022E+00 8.77215E-14 1.71312E-13
 -1      3906 2.17286E+01-1.16277E+00 2.50394E-02 1.50638E+00 1.41693E-13-1.40335E-13
 -1      3907 2.00022E+01-2.08422E-03-7.73480E-06 2.21295E-03 1.17996E-13-7.37679E-14
 -1      3908 2.00020E+01-2.24041E-03-2.76947E-07 1.75891E-03 1.49994E-13-1.73599E-13
 -1      3909 1.47880E+01 6.65776E-01-2.10636E-02 1.96013E+00-1.69844E-13 2.39201E-13
 -1      3910 1.82843E+01 1.12343E+00 9.80266E-03 9.43918E-01-1.01916E-13 6.90819E-14
 -1      3911 2.11938E+01-1.97498E+00-2.52392E-03 2.86802E+00 2.25786E-13-1.48244E-13
 -1      3912 2.26241E+01-1.90413E+00-7.59364E-04 1.43662E+00 1.56278E-13-6.68155E-14
 -1      3913 2.00031E+01-2.43030E-03-8.42726E-09 2.40485E-04-2.51134E-14-1.51941E-13
 -1      3914 2.00031E+01-2.43554E-03 1.14185E-06-2.15265E-04-1.39655E-13-2.01080E-13
 -1      3915 1.76877E+01-7.35702E-01 1.91073E-02-2.95271E+00 1.61199E-13 2.33606E-13
 -1      3916 2.00029E+01-2.26172E-03 2.98258E-07-1.55391E-03-2.52382E-13-4.51925E-13
 -1      3917 2.00026E+01-2.16172E-03-5.71615E-09-1.93546E-03-2.65448E-13-9.58925E-14
 -1      3918 2.00031E+01-2.00237E-03 2.90805E-06-2.20667E-03-2.55687E-13-2.00810E-13
 -1      3919 1.41917E+01 1.03053E+00 6.88129E-03 9.54549E-01-1.76973E-13 2.05667E-13
 -1      3920 1.32444E+01 1.10732E+00 6.16416E-02 2.58880E-01-1.61894E-13 1.23561E-13
 -1      3921 1.39164E+01 1.08153E+00 1.08325E-02-3.99143E-01-8.91500E-14 5.41320E-14
 -1      3922 2.04667E+01-1.74286E+00 6.25553E-03-2.35998E+00 1.09951E-13-8.58666E-15
 -1      3923 2.00030E+01-2.39956E-03 4.33198E-06 7.40585E-04 1.27506E-13-3.13764E-13
 -1      3924 2.00034E+01-2.34560E-03-1.41005E-06 5.15184E-04-3.88329E-14-8.77023E-14
 -1      3925 2.00028E+01-2.35186E-03-3.34118E-06 1.17338E-03 2.14515E-13-4.69275E-13
 -1      3926 2.20140E+01-2.07923E+00-4.81587E-02 2.11493E+00 1.89775E-13-1.23753E-13
 -1      3927 1.86265E+01 1.03604E+00-5.85439E-03 5.75736E-01 1.77988E-14 5.50397E-14
 -1      3928 1.84350E+01 1.09211E+00-3.45606E-03 6.32521E-01-8.71146E-15 4.81535E-14
 -1      3929 1.89046E+01-2.21557E-01 1.26396E-02-1.93270E+00 1.21495E-13 4.81982E-14
 -1      3930 1.87827E+01 1.47839E-02-5.10353E-03-1.73261E+00 7.33453E-14 5.80153E-14
 -1      3931 1.88696E+01 2.11032E-01 9.95761E-03-1.50520E+00 2.36718E-14-1.90475E-15
 -1      3932 1.88361E+01 3.49037E-01-5.12071E-03-1.34182E+00 1.90500E-14-5.55970E-14
 -1      3933 1.84089E+01 2.87417E-01 1.84471E-03-1.61468E+00 5.83919E-14 1.51300E-13
 -1      3934 1.89458E+01 4.61248E-01 6.44511E-03-1.16940E+00 1.44489E-15-4.00372E-14
 -1      3935 1.89610E+01 5.33431E-01-4.67235E-03-1.03729E+00 1.71477E-15-8.56933E-14
 -1      3936 1.85926E+01 5.41958E-01 1.01783E-03-1.21064E+00-1.05192E-14 2.29351E-14
 -1      3937 1.90744E+01 5.86365E-01 4.09171E-03-9.07133E-01-6.32831E-14-1.19982E-13
 -1      3938 1.91141E+01 6.12409E-01-4.08831E-03-8.02130E-01-2.88667E-14-2.13545E-13
 -1      3939 1.88051E+01 6.68232E-01 2.07580E-03-9.09759E-01-6.53861E-14-2.33781E-14
 -1      3940 1.92205E+01 6.26326E-01 2.54087E-03-7.03638E-01 9.34866E-14-2.84103E-13
 -1      3941 1.92697E+01 6.22261E-01-3.47247E-03-6.20097E-01 1.41269E-13-3.11968E-13
 -1      3942 1.90140E+01 7.05004E-01 2.40761E-03-6.86650E-01-2.66250E-14-9.31731E-15
 -1      3943 1.93647E+01 6.11164E-01 1.56883E-03-5.44969E-01 1.09050E-13-3.55268E-13
 -1      3944 1.94149E+01 5.88616E-01-2.91113E-03-4.78280E-01 2.72379E-14-3.27411E-13
 -1      3945 1.92058E+01 6.84767E-01 2.41316E-03-5.19295E-01 7.32009E-14-2.46227E-13
 -1      3946 1.94968E+01 5.62770E-01 9.59281E-04-4.20664E-01-3.56423E-15-2.91907E-13
 -1      3947 1.95432E+01 5.30193E-01-2.41813E-03-3.67313E-01-4.03296E-14-1.15459E-13
 -1      3948 1.93744E+01 6.29970E-01 2.24858E-03-3.92736E-01 9.09679E-14-3.04142E-13
 -1      3949 1.96118E+01 4.96945E-01 5.83844E-04-3.22970E-01-8.39402E-14-9.61142E-14
 -1      3950 1.96523E+01 4.60271E-01-1.99002E-03-2.80307E-01-1.20960E-13-7.30925E-14
 -1      3951 1.95181E+01 5.56914E-01 1.99842E-03-2.96420E-01-3.58954E-14-2.47381E-13
 -1      3952 1.97083E+01 4.24660E-01 3.57472E-04-2.46135E-01-1.60002E-13-4.16515E-14
 -1      3953 1.97420E+01 3.87842E-01-1.62068E-03-2.12125E-01-4.84254E-14 4.34864E-14
 -1      3954 1.96370E+01 4.77025E-01 1.71416E-03-2.22796E-01-8.89036E-14-1.70118E-13
 -1      3955 1.97868E+01 3.53133E-01 2.23973E-04-1.85819E-01-6.76784E-14 7.53112E-14
 -1      3956 1.98138E+01 3.18623E-01-1.30446E-03-1.58860E-01-1.93153E-14 1.29463E-13
 -1      3957 1.97330E+01 3.97924E-01 1.42770E-03-1.66396E-01-1.08009E-13 3.16345E-14
 -1      3958 1.98488E+01 2.86752E-01 1.46887E-04-1.38678E-01-5.27554E-14 6.07920E-14
 -1      3959 1.98699E+01 2.55905E-01-1.03644E-03-1.17475E-01-1.15902E-13 5.30753E-14
 -1      3960 1.98089E+01 3.24323E-01 1.15851E-03-1.23203E-01-1.00658E-13 3.97658E-14
 -1      3961 1.98966E+01 2.27862E-01 1.03044E-04-1.02077E-01-1.68579E-13-9.14711E-14
 -1      3962 1.99126E+01 2.01261E-01-8.12068E-04-8.55627E-02-1.94271E-13-1.07474E-13
 -1      3963 1.98674E+01 2.58796E-01 9.17634E-04-9.02128E-02-2.39172E-13-1.81280E-13
 -1      3964 1.99326E+01 1.77391E-01 7.80758E-05-7.39055E-02-1.08851E-13-1.41676E-13
 -1      3965 1.99442E+01 1.55107E-01-6.26813E-04-6.11871E-02-3.69942E-14-9.66867E-14
 -1      3966 1.99116E+01 2.02407E-01 7.10090E-04-6.51400E-02-1.33441E-13-7.88747E-14
 -1      3967 1.99588E+01 1.35336E-01 6.33443E-05-5.24478E-02-6.39789E-14-7.68347E-14
 -1      3968 1.99671E+01 1.17127E-01-4.76104E-04-4.27787E-02 8.08550E-14-1.20950E-13
 -1      3969 1.99441E+01 1.55218E-01 5.36796E-04-4.62208E-02-3.28568E-14-1.14771E-13
 -1      3970 1.99775E+01 1.01135E-01 5.38589E-05-3.63049E-02 2.27360E-13-1.86660E-13
 -1      3971 1.99831E+01 8.65807E-02-3.55367E-04-2.90605E-02 2.49329E-13-1.36333E-13
 -1      3972 1.99675E+01 1.16665E-01 3.96009E-04-3.20785E-02 1.34343E-13-4.99882E-14
 -1      3973 1.99902E+01 7.39221E-02 4.68867E-05-2.43337E-02 2.45118E-13-1.27249E-13
 -1      3974 1.99939E+01 6.25275E-02-2.60151E-04-1.89952E-02 8.40455E-14-8.16268E-14
 -1      3975 1.99837E+01 8.58416E-02 2.84445E-04-2.16300E-02 2.81495E-13-1.80644E-13
 -1      3976 1.99986E+01 5.27105E-02 4.10428E-05-1.56035E-02 8.28798E-15 1.65236E-13
 -1      3977 2.00008E+01 4.39673E-02-1.86268E-04-1.17440E-02 3.39882E-14 1.15729E-13
 -1      3978 1.99946E+01 6.16932E-02 1.98103E-04-1.40202E-02 1.81649E-13-8.29057E-14
 -1      3979 2.00038E+01 3.65069E-02 3.57095E-05-9.36181E-03 4.47056E-14 1.71322E-13
 -1      3980 2.00050E+01 2.99337E-02-1.29900E-04-6.63402E-03 9.52175E-14 2.00897E-13
 -1      3981 2.00015E+01 4.31448E-02 1.32828E-04-8.57390E-03 6.42456E-14 2.38575E-13
 -1      3982 2.00066E+01 2.43817E-02 3.06769E-05-5.00514E-03 7.24531E-15 9.50226E-14
 -1      3983 2.00071E+01 1.95452E-02-8.76621E-05-3.13002E-03 4.85657E-14 1.72411E-14
 -1      3984 2.00056E+01 2.91809E-02 8.46636E-05-4.75913E-03-6.25438E-14 2.36802E-13
 -1      3985 2.00079E+01 1.55058E-02 2.59290E-05-2.05487E-03 8.65367E-14 1.44759E-14
 -1      3986 2.00079E+01 1.20309E-02-5.66311E-05-8.11234E-04 7.59510E-14 5.50853E-14
 -1      3987 2.00077E+01 1.88890E-02 5.00540E-05-2.15927E-03 7.02493E-14 8.99666E-14
 -1      3988 2.00081E+01 9.16583E-03 2.15241E-05-1.35798E-04 1.20909E-13 4.20441E-14
 -1      3989 2.00079E+01 6.73692E-03-3.43405E-05 6.49178E-04 9.08645E-14 5.45994E-14
 -1      3990 2.00084E+01 1.14788E-02 2.59354E-05-4.50495E-04 1.04634E-13 1.19634E-13
 -1      3991 2.00077E+01 4.76499E-03 1.75306E-05 1.04223E-03 8.01927E-15 5.87881E-15
 -1      3992 2.00073E+01 3.12287E-03-1.87475E-05 1.50150E-03 9.33842E-15 1.13166E-13
 -1      3993 2.00082E+01 6.28499E-03 9.75483E-06 6.16375E-04-2.22652E-15 1.85656E-13
 -1      3994 2.00069E+01 1.81538E-03 1.39848E-05 1.70030E-03 2.60458E-14-1.12143E-13
 -1      3995 2.00064E+01 7.51439E-04-8.20216E-06 1.93442E-03 1.75025E-13-4.17715E-14
 -1      3996 2.00076E+01 2.76098E-03-5.42948E-07 1.23068E-03-4.19805E-14 6.04264E-15
 -1      3997 2.00059E+01-7.43199E-05 1.08155E-05 2.00425E-03 2.36258E-13-2.04231E-13
 -1      3998 2.00054E+01-7.25066E-04-1.01954E-06 2.08769E-03 9.33882E-14-2.39107E-13
 -1      3999 2.00066E+01 4.66534E-04-6.52938E-06 1.53452E-03 8.74727E-14-1.39931E-13
 -1      4000 2.00049E+01-1.21298E-03 7.88986E-06 2.07719E-03 7.77808E-15-3.01335E-13
 -1      4001 2.00044E+01-1.58059E-03 4.68737E-06 2.06598E-03-4.34834E-14-2.50715E-13
 -1      4002 2.00056E+01-9.44663E-04-9.25159E-06 1.63252E-03-1.84666E-14-2.70525E-13
 -1      4003 2.00039E+01-1.84559E-03 3.74374E-06 1.99737E-03-1.71995E-13-2.12072E-13
 -1      4004 2.00034E+01-2.02827E-03 3.25541E-06 1.92825E-03-3.52634E-14-3.45148E-13
 -1      4005 2.00045E+01-1.76019E-03-9.46198E-06 1.59073E-03-1.13335E-13-4.75805E-13
 -1      4006 1.89760E+01 9.12852E-01-4.34357E-03 4.93424E-01-5.76289E-14 1.35191E-13
 -1      4007 1.88290E+01 9.76742E-01-2.66778E-03 5.43479E-01 2.97185E-14 1.49325E-13
 -1      4008 1.86193E+01 1.05684E+00 7.88097E-03 3.98862E-01-1.51304E-14-6.92046E-15
 -1      4009 1.75663E+01 1.19805E+00-1.23502E-02 7.83456E-01-1.44322E-13-3.15204E-14
 -1      4010 1.72494E+01 1.20625E+00-4.05423E-03 8.79521E-01-6.28293E-14 3.38179E-15
 -1      4011 1.67662E+01 1.18341E+00-1.75929E-02 9.51610E-01 2.40669E-14 3.34592E-14
 -1      4012 1.63721E+01 1.14669E+00 4.85730E-03 1.09676E+00 1.69452E-14 1.81160E-13
 -1      4013 1.67734E+01 1.31002E+00 2.15608E-02 5.48802E-01 4.35692E-14 6.46844E-14
 -1      4014 1.92433E+01 7.83667E-01-3.36864E-03 4.17019E-01-1.07905E-13 4.94680E-14
 -1      4015 1.91314E+01 8.48857E-01-1.95338E-03 4.62408E-01-7.45059E-14 7.24975E-14
 -1      4016 1.89656E+01 9.25390E-01 5.90361E-03 3.54762E-01-1.87139E-14 6.72181E-14
 -1      4017 1.94470E+01 6.58269E-01-2.68654E-03 3.46195E-01-1.93243E-14 6.15860E-14
 -1      4018 1.93627E+01 7.20544E-01-1.35374E-03 3.87236E-01-7.22165E-14 8.14475E-14
 -1      4019 1.92318E+01 7.92000E-01 4.46809E-03 3.08091E-01-7.28873E-14-6.16579E-14
 -1      4020 1.96014E+01 5.42536E-01-2.17033E-03 2.81855E-01-8.50709E-14 9.65896E-14
 -1      4021 1.95386E+01 5.99411E-01-8.82754E-04 3.18321E-01-9.24150E-14 1.95305E-14
 -1      4022 1.94359E+01 6.64305E-01 3.39499E-03 2.60889E-01-5.06520E-14-5.11977E-14
 -1      4023 1.97175E+01 4.39539E-01-1.75641E-03 2.24927E-01-3.03209E-15 1.66809E-13
 -1      4024 1.96712E+01 4.89775E-01-5.33585E-04 2.56601E-01-1.98913E-15 1.15214E-13
 -1      4025 1.95917E+01 5.47121E-01 2.57699E-03 2.15502E-01-1.00807E-13 9.09449E-14
 -1      4026 1.98039E+01 3.50418E-01-1.41367E-03 1.75901E-01-1.41904E-13 4.95224E-14
 -1      4027 1.97703E+01 3.93633E-01-2.87967E-04 2.02771E-01-5.87991E-14 1.59802E-13
 -1      4028 1.97095E+01 4.43046E-01 1.94715E-03 1.73804E-01-6.80349E-14 1.90472E-13
 -1      4029 1.98675E+01 2.75060E-01-1.12660E-03 1.34755E-01-1.48110E-13-9.43633E-15
 -1      4030 1.98434E+01 3.11426E-01-1.24118E-04 1.57032E-01-1.80741E-13 3.72868E-14
 -1      4031 1.97977E+01 3.53037E-01 1.46062E-03 1.36967E-01-1.03380E-13-2.69127E-15
 -1      4032 1.99136E+01 2.12587E-01-8.86590E-04 1.01043E-01-2.34882E-14 5.65562E-14
 -1      4033 1.98966E+01 2.42607E-01-2.12342E-05 1.19115E-01-1.11083E-13-1.99445E-14
 -1      4034 1.98629E+01 2.76925E-01 1.08532E-03 1.05502E-01-1.26163E-13 3.99972E-15
 -1      4035 1.99465E+01 1.61705E-01-6.87760E-04 7.40379E-02 1.46583E-13 1.40124E-13
 -1      4036 1.99348E+01 1.86059E-01 3.83862E-05 8.83984E-02 9.15263E-14 1.32928E-13
 -1      4037 1.99104E+01 2.13819E-01 7.97077E-04 7.94021E-02-4.76721E-14 8.19246E-14
 -1      4038 1.99694E+01 1.20941E-01-5.25165E-04 5.28669E-02 1.36244E-13 1.00384E-13
 -1      4039 1.99616E+01 1.40378E-01 6.87161E-05 6.40504E-02 1.58466E-13 7.77547E-14
 -1      4040 1.99445E+01 1.62426E-01 5.77180E-04 5.83143E-02 1.59364E-13 1.05532E-13
 -1      4041 1.99851E+01 8.87981E-02-3.94152E-04 3.66165E-02 1.60102E-13 1.72819E-13
 -1      4042 1.99800E+01 1.04066E-01 8.01813E-05 4.51532E-02 1.48156E-13 1.38334E-13
 -1      4043 1.99683E+01 1.21269E-01 4.10843E-04 4.16829E-02 1.15078E-13 1.16211E-13
 -1      4044 1.99954E+01 6.38493E-02-2.90233E-04 2.44075E-02-1.56015E-13 2.92130E-13
 -1      4045 1.99922E+01 7.56530E-02 8.02110E-05 3.07908E-02 7.50353E-14 3.46984E-13
 -1      4046 1.99846E+01 8.88399E-02 2.86309E-04 2.88655E-02 3.77934E-14 2.60320E-13
 -1      4047 2.00018E+01 4.47959E-02-2.09137E-04 1.54393E-02-5.93191E-14 1.68522E-13
 -1      4048 2.00000E+01 5.37726E-02 7.38828E-05 2.01086E-02-1.51971E-13 2.41122E-13
 -1      4049 1.99953E+01 6.36974E-02 1.94207E-04 1.92113E-02-3.45768E-14 2.29715E-13
 -1      4050 2.00055E+01 3.04915E-02-1.46917E-04 9.01336E-03-2.49042E-15 7.79672E-14
 -1      4051 2.00046E+01 3.72000E-02 6.45247E-05 1.23462E-02 1.10927E-15 3.22057E-14
 -1      4052 2.00020E+01 4.45251E-02 1.27074E-04 1.21104E-02 4.10148E-15 6.52739E-14
 -1      4053 2.00073E+01 1.99510E-02-1.00027E-04 4.53961E-03-1.81468E-13 1.28741E-13
 -1      4054 2.00071E+01 2.48688E-02 5.42170E-05 6.85113E-03-2.12503E-14 1.02098E-13
 -1      4055 2.00058E+01 3.01594E-02 7.89897E-05 7.02084E-03 1.98850E-14 9.36714E-14
 -1      4056 2.00079E+01 1.23454E-02-6.53718E-05 1.53325E-03-2.00861E-13 2.41086E-14
 -1      4057 2.00081E+01 1.58727E-02 4.41832E-05 3.08024E-03-2.29511E-13 4.68528E-14
 -1      4058 2.00078E+01 1.95993E-02 4.52832E-05 3.47985E-03-9.83542E-14 8.92415E-14
 -1      4059 2.00078E+01 6.99047E-03-4.03126E-05-3.94457E-04 2.35047E-14 5.77824E-14
 -1      4060 2.00081E+01 9.45606E-03 3.50791E-05 5.92525E-04-1.53954E-13-3.76963E-14
 -1      4061 2.00084E+01 1.20026E-02 2.22936E-05 1.10445E-03-9.68589E-14-8.42926E-14
 -1      4062 2.00071E+01 3.33079E-03-2.26639E-05-1.54837E-03 8.55924E-14 1.72153E-13
 -1      4063 2.00076E+01 5.00063E-03 2.71981E-05-9.61866E-04 1.40705E-13 1.05263E-13
 -1      4064 2.00082E+01 6.67399E-03 7.17416E-06-4.13863E-04 1.84570E-14 5.23681E-14
 -1      4065 2.00062E+01 9.22517E-04-1.06213E-05-2.16231E-03 7.26046E-14 2.10714E-13
 -1      4066 2.00067E+01 2.00829E-03 2.06023E-05-1.85442E-03-1.65592E-14 1.95084E-13
 -1      4067 2.00075E+01 3.04960E-03-2.27073E-06-1.31755E-03 4.45107E-14 8.19340E-14
 -1      4068 2.00052E+01-5.83847E-04-2.58931E-06-2.41196E-03 3.79856E-14 1.38725E-13
 -1      4069 2.00057E+01 8.40334E-05 1.52100E-05-2.29154E-03 2.31108E-13 2.95445E-13
 -1      4070 2.00065E+01 6.79530E-04-7.70207E-06-1.79250E-03 7.37282E-14 2.47656E-13
 -1      4071 2.00042E+01-1.45893E-03 3.67365E-06-2.42211E-03-1.65710E-13 2.03729E-13
 -1      4072 2.00047E+01-1.08475E-03 1.10002E-05-2.42759E-03-1.20295E-13 2.66449E-13
 -1      4073 2.00055E+01-7.93132E-04-1.10326E-05-1.98073E-03-1.21363E-13 3.16137E-13
 -1      4074 2.00034E+01-1.87568E-03 4.85209E-06-2.28235E-03-1.08449E-13-1.71363E-13
 -1      4075 2.00039E+01-1.67332E-03 8.00516E-06-2.35693E-03-8.90618E-14-3.64355E-14
 -1      4076 2.00046E+01-1.57747E-03-1.15108E-05-1.96863E-03 7.82636E-14 5.94827E-14
 -1      4077 2.00039E+01-1.97314E-03-9.26938E-06-1.84722E-03-1.42259E-13 1.49274E-14
 -1      4078 1.58267E+01 1.03193E+00-2.85348E-02 1.32954E+00-1.44305E-13 2.54327E-13
 -1      4079 1.54501E+01 9.21665E-01 1.92868E-02 1.58563E+00-1.95236E-13 2.75749E-13
 -1      4080 1.47161E+01 1.02972E+00 3.84866E-02 1.30182E+00-2.00710E-13 2.99743E-13
 -1      4081 1.57917E+01 1.26989E+00 2.75674E-02 7.65258E-01 2.36515E-14 8.82020E-14
 -1      4082 1.71698E+01-1.16263E-01 2.31616E-02-2.56844E+00 1.00004E-13 2.12885E-13
 -1      4083 1.84093E+01-8.71725E-01-4.18341E-02-2.71333E+00 1.34302E-13 2.28480E-13
 -1      4084 1.81690E+01 1.13833E+00-8.32736E-03 6.67961E-01-1.23741E-13 2.23762E-14
 -1      4085 1.79216E+01 1.17745E+00-4.09874E-03 7.37570E-01-2.12609E-13-7.09758E-14
 -1      4086 1.81675E+01 1.17542E+00 1.07115E-02 4.40264E-01-1.31675E-13-8.27010E-14
 -1      4087 2.00032E+01-2.38922E-03 6.40401E-07-6.64124E-04-1.11030E-13-4.47099E-13
 -1      4088 2.00030E+01-2.34592E-03 3.33247E-07-1.10507E-03-7.01661E-14-4.88263E-13
 -1      4089 2.00036E+01-2.18331E-03 2.31312E-06-1.31598E-03-1.88976E-13-3.34527E-13
 -1      4090 2.00036E+01-2.32104E-03 4.87008E-07-4.25122E-04-1.09241E-13-2.55715E-13
 -1      4091 2.00026E+01-2.20029E-03 5.59116E-06 1.80804E-03 2.20520E-13-2.97570E-13
 -1      4092 2.00039E+01-2.22666E-03-3.96062E-06 7.82665E-04 1.14060E-13-1.79862E-14
 -1      4093 2.00040E+01-2.25278E-03-4.91022E-07 2.92603E-04-9.10237E-14-3.24345E-15
 -1      4094 1.89687E+01-8.03126E-01 1.19256E-02-2.45247E+00 1.54539E-13 8.99919E-14
 -1      4095 1.87333E+01-4.26905E-01-8.37448E-04-2.20895E+00 1.22223E-13 7.15857E-14
 -1      4096 1.96395E+01-1.35582E+00 3.57487E-02-2.67620E+00 1.71232E-13 5.22795E-14
 -1      4097 1.75722E+01 1.26694E+00 1.50115E-02 4.84459E-01-1.23242E-13 2.72677E-14
 -1      4098 1.81743E+01-6.82024E-02 2.32407E-03-2.10648E+00 4.79366E-14 1.79693E-13
 -1      4099 2.00041E+01-2.19548E-03-4.71542E-06-1.89938E-04-2.60597E-14-1.92991E-13
 -1      4100 2.00042E+01-2.14970E-03-5.07733E-06-6.24159E-04 2.97567E-14-3.42818E-13
 -1      4101 2.00046E+01-2.03409E-03 9.70958E-06 1.06534E-04 1.52794E-13 2.74018E-15
 -1      4102 2.00031E+01-2.16848E-03 1.59289E-06 1.65679E-03 1.00376E-13-3.79137E-13
 -1      4103 1.47601E+01 1.14355E+00-2.42226E-02 6.31160E-01-1.04656E-13 9.30896E-14
 -1      4104 1.46244E+01 1.08913E+00 3.56397E-02-9.11452E-01-2.23595E-14 6.51343E-14
 -1      4105 1.54128E+01 9.56403E-01-1.15612E-02-1.18559E+00-1.63615E-14 1.29489E-13
 -1      4106 1.49705E+01 1.20671E+00 3.12629E-03-1.53491E-01-5.97512E-14-7.71657E-14
 -1      4107 1.86376E+01 1.01162E+00-4.37849E-03 2.18450E-01-2.91826E-14 6.09623E-14
 -1      4108 1.84329E+01 1.06947E+00-6.76028E-03 2.24606E-01-2.92273E-14-1.56495E-14
 -1      4109 1.75707E+01 1.79848E-01 1.34548E-02-2.02441E+00 5.41494E-14 2.05836E-13
 -1      4110 1.76833E+01 3.02333E-01-2.06394E-02-1.80006E+00 3.89597E-15 1.37211E-13
 -1      4111 2.00037E+01-2.17009E-03 2.99478E-07 1.29329E-03-1.26852E-14-3.36871E-13
 -1      4112 1.82630E+01 6.60946E-01 5.02134E-03-1.15618E+00 3.96415E-14 3.67904E-14
 -1      4113 1.83524E+01 7.19459E-01-1.12661E-02-9.93427E-01-8.19104E-15 2.06567E-14
 -1      4114 1.85604E+01 7.66202E-01 3.82474E-03-8.45145E-01-7.76611E-14 2.83127E-14
 -1      4115 1.86550E+01 7.78582E-01-8.45298E-03-7.27605E-01-9.37714E-14 3.85105E-14
 -1      4116 1.82685E+01 9.00201E-01 1.89106E-02-7.90163E-01-7.62788E-14-2.09468E-15
 -1      4117 1.88273E+01 7.86814E-01 2.14530E-03-6.21730E-01-3.42452E-14 3.00935E-14
 -1      4118 1.89200E+01 7.71379E-01-6.29430E-03-5.34604E-01 1.62419E-15 5.20256E-14
 -1      4119 1.86140E+01 8.98465E-01 1.41609E-02-5.58825E-01-5.43388E-14 5.14649E-15
 -1      4120 1.90624E+01 7.53876E-01 1.05975E-03-4.58786E-01-3.17571E-14-3.04374E-14
 -1      4121 1.91475E+01 7.21369E-01-4.73387E-03-3.93541E-01 6.09363E-14-1.59491E-13
 -1      4122 1.89048E+01 8.48393E-01 1.08241E-02-3.95488E-01-2.72489E-14 7.36738E-14
 -1      4123 1.92642E+01 6.88593E-01 3.98803E-04-3.39146E-01 9.97248E-14-2.02468E-13
 -1      4124 1.93390E+01 6.46988E-01-3.58422E-03-2.89876E-01 6.94634E-14-2.21379E-13
 -1      4125 1.91469E+01 7.69075E-01 8.35283E-03-2.80107E-01-1.66046E-14-7.99139E-14
 -1      4126 1.94334E+01 6.06539E-01 1.78554E-05-2.50782E-01 5.47707E-14-3.12112E-13
 -1      4127 1.94969E+01 5.61571E-01-2.72231E-03-2.13311E-01-3.46330E-14-2.07672E-13
 -1      4128 1.93458E+01 6.75009E-01 6.47365E-03-1.98472E-01 3.33543E-14-2.67475E-13
 -1      4129 1.95724E+01 5.18765E-01-1.82273E-04-1.85180E-01-5.43630E-14-2.64591E-13
 -1      4130 1.96248E+01 4.74351E-01-2.06747E-03-1.56538E-01-8.19122E-14-2.19599E-13
 -1      4131 1.95070E+01 5.76666E-01 5.01441E-03-1.40609E-01-4.18135E-14-3.30951E-13
 -1      4132 1.96842E+01 4.32707E-01-2.68765E-04-1.36282E-01-1.44942E-13-1.38761E-13
 -1      4133 1.97264E+01 3.91324E-01-1.56547E-03-1.14326E-01-8.02675E-14-1.03776E-13
 -1      4134 1.96355E+01 4.81209E-01 3.86559E-03-9.95182E-02-6.50719E-14-3.12384E-13
 -1      4135 1.97724E+01 3.52990E-01-2.86999E-04-9.97434E-02-1.29251E-13-1.52345E-13
 -1      4136 1.98055E+01 3.16026E-01-1.17877E-03-8.29077E-02-2.21167E-13-1.97949E-13
 -1      4137 1.97365E+01 3.93151E-01 2.95564E-03-7.02773E-02-1.45154E-13-2.91106E-13
 -1      4138 1.98406E+01 2.82136E-01-2.67271E-04-7.24201E-02-2.11545E-13-2.37191E-13
 -1      4139 1.98660E+01 2.50189E-01-8.80555E-04-5.95381E-02-2.07673E-13-2.06784E-13
 -1      4140 1.98143E+01 3.14967E-01 2.23517E-03-4.94272E-02-2.21315E-13-2.81926E-13
 -1      4141 1.98922E+01 2.21167E-01-2.29291E-04-5.20141E-02-1.62280E-13-7.53679E-14
 -1      4142 1.99112E+01 1.94299E-01-6.51050E-04-4.22017E-02-1.09410E-13-4.03707E-14
 -1      4143 1.98733E+01 2.47644E-01 1.66764E-03-3.45366E-02-1.35231E-13-2.50255E-13
 -1      4144 1.99305E+01 1.70094E-01-1.85339E-04-3.68269E-02-7.19013E-14-9.69903E-14
 -1      4145 1.99443E+01 1.48022E-01-4.75254E-04-2.94031E-02 3.69215E-15-4.60849E-14
 -1      4146 1.99170E+01 1.91148E-01 1.22443E-03-2.38949E-02-1.33237E-13-8.24131E-14
 -1      4147 1.99581E+01 1.28296E-01-1.42561E-04-2.55889E-02 7.33093E-14 7.01800E-14
 -1      4148 1.99679E+01 1.10545E-01-3.41545E-04-2.00230E-02 2.21054E-13 1.57601E-14
 -1      4149 1.99488E+01 1.44795E-01 8.82115E-04-1.62963E-02 9.34808E-14 3.67318E-14
 -1      4150 1.99775E+01 9.48019E-02-1.04668E-04-1.73423E-02 2.40090E-13-8.39084E-14
 -1      4151 1.99842E+01 8.08047E-02-2.40772E-04-1.32165E-02 2.11022E-13-1.53605E-13
 -1      4152 1.99713E+01 1.07536E-01 6.21169E-04-1.08868E-02 1.24657E-13 1.21167E-15
 -1      4153 1.99907E+01 6.84872E-02-7.31749E-05-1.13577E-02 1.89964E-13-1.60346E-13
 -1      4154 1.99951E+01 5.76602E-02-1.65672E-04-8.34183E-03 1.68568E-13-1.36539E-13
 -1      4155 1.99867E+01 7.81578E-02 4.25205E-04-7.05806E-03 2.25605E-13-8.88205E-14
 -1      4156 1.99993E+01 4.82081E-02-4.82692E-05-7.07683E-03 2.01435E-13-8.81019E-14
 -1      4157 2.00020E+01 3.99936E-02-1.10455E-04-4.90947E-03 7.77552E-14-8.84549E-14
 -1      4158 1.99968E+01 5.54254E-02 2.80528E-04-4.37315E-03 1.20449E-13-3.17974E-13
 -1      4159 2.00045E+01 3.28824E-02-2.94126E-05-4.07069E-03-4.06710E-14 2.51175E-14
 -1      4160 2.00060E+01 2.67747E-02-7.05113E-05-2.54539E-03-1.92210E-14 4.26310E-14
 -1      4161 2.00031E+01 3.81658E-02 1.75796E-04-2.51609E-03 8.36229E-14-2.68855E-13
 -1      4162 2.00073E+01 2.15358E-02-1.57289E-05-2.00955E-03-6.00495E-14 1.15611E-13
 -1      4163 2.00080E+01 1.70931E-02-4.21795E-05-9.64100E-04 4.37136E-14 1.48198E-14
 -1      4164 2.00067E+01 2.53190E-02 1.01732E-04-1.25654E-03 2.00025E-14-8.72719E-14
 -1      4165 2.00085E+01 1.33221E-02-6.24413E-06-6.40547E-04 1.37194E-13 4.46952E-14
 -1      4166 2.00086E+01 1.01700E-02-2.25683E-05 5.15293E-05 1.46295E-13 5.78154E-14
 -1      4167 2.00084E+01 1.59612E-02 5.08477E-05-4.25645E-04 5.34105E-14-1.13640E-13
 -1      4168 2.00086E+01 7.52733E-03-2.11390E-08 2.29180E-04 5.10497E-14 5.19682E-14
 -1      4169 2.00084E+01 5.35593E-03-9.40480E-06 6.65499E-04-4.33666E-14 3.86786E-14
 -1      4170 2.00088E+01 9.30928E-03 1.72031E-05 1.00777E-04-3.78735E-15-1.32364E-13
 -1      4171 2.00081E+01 3.56265E-03 3.76097E-06 7.45527E-04-1.76415E-13 5.89854E-14
 -1      4172 2.00077E+01 2.12065E-03-9.94866E-07 1.00044E-03-1.02884E-13-4.64350E-14
 -1      4173 2.00085E+01 4.71563E-03-3.79483E-06 4.14192E-04-9.79030E-14-5.65636E-14
 -1      4174 2.00072E+01 9.52494E-04 5.73002E-06 1.01704E-03 7.23265E-14-2.40328E-13
 -1      4175 2.00067E+01 4.05819E-05 4.11872E-06 1.14614E-03 6.94064E-14-2.38298E-13
 -1      4176 2.00077E+01 1.65505E-03-1.52880E-05 5.81872E-04-9.32587E-14-2.63799E-13
 -1      4177 2.00062E+01-6.86365E-04 4.24172E-06 1.12414E-03-1.89157E-14-2.31550E-13
 -1      4178 2.00056E+01-1.23111E-03 6.88317E-06 1.17008E-03-1.15951E-13-2.87970E-13
 -1      4179 2.00066E+01-2.81962E-04-1.64362E-05 6.54628E-04-4.50900E-14-4.23670E-13
 -1      4180 1.92326E+01 7.60165E-01-2.76401E-03 1.94500E-01-4.76112E-14 3.25443E-14
 -1      4181 1.91134E+01 8.23639E-01-3.32676E-03 2.10103E-01-4.92582E-14 5.59173E-14
 -1      4182 1.94332E+01 6.38089E-01-2.28364E-03 1.70634E-01-9.44645E-14-2.22334E-14
 -1      4183 1.93426E+01 6.98523E-01-2.29579E-03 1.88016E-01-4.84163E-14-4.95249E-15
 -1      4184 1.92664E+01 7.55780E-01 8.39588E-03 1.01486E-01-2.58431E-14 1.04287E-13
 -1      4185 1.95873E+01 5.25684E-01-1.89393E-03 1.44266E-01-1.46885E-13 1.11465E-13
 -1      4186 1.95190E+01 5.80920E-01-1.55366E-03 1.61788E-01-1.59623E-13 3.78174E-14
 -1      4187 1.94569E+01 6.33754E-01 6.38666E-03 9.72883E-02-1.73613E-13 1.35922E-13
 -1      4188 1.97048E+01 4.25601E-01-1.56095E-03 1.18141E-01-1.16355E-13 1.46033E-13
 -1      4189 1.96538E+01 4.74490E-01-1.02504E-03 1.34643E-01-1.31994E-13 1.22245E-13
 -1      4190 1.96041E+01 5.21657E-01 4.85028E-03 8.69596E-02-1.35506E-13 1.02970E-13
 -1      4191 1.97934E+01 3.38896E-01-1.27114E-03 9.40108E-02-4.82637E-14-3.44241E-16
 -1      4192 1.97557E+01 3.81035E-01-6.54702E-04 1.08788E-01-6.11966E-14 1.15520E-13
 -1      4193 1.97169E+01 4.21944E-01 3.66312E-03 7.38954E-02-6.59810E-14 5.66018E-14
 -1      4194 1.98593E+01 2.65505E-01-1.01955E-03 7.28231E-02-1.72963E-13 1.41244E-13
 -1      4195 1.98319E+01 3.01012E-01-4.00497E-04 8.55430E-02-1.42194E-13 1.19718E-13
 -1      4196 1.98021E+01 3.35599E-01 2.74259E-03 6.03226E-02-1.49135E-13 1.76359E-14
 -1      4197 1.99076E+01 2.04639E-01-8.04068E-04 5.49412E-02 7.81634E-14 5.72845E-14
 -1      4198 1.98880E+01 2.33962E-01-2.30085E-04 6.55382E-02-8.58739E-15 1.84421E-13
 -1      4199 1.98657E+01 2.62545E-01 2.03006E-03 4.75786E-02-1.09384E-13 1.62098E-13
 -1      4200 1.99424E+01 1.55089E-01-6.22808E-04 4.03365E-02 6.48792E-14 2.46131E-13
 -1      4201 1.99286E+01 1.78863E-01-1.18972E-04 4.89198E-02 4.84462E-14 1.93351E-13
 -1      4202 1.99124E+01 2.01998E-01 1.48158E-03 3.63632E-02-8.90028E-15 1.26467E-13
 -1      4203 1.99669E+01 1.15445E-01-4.73300E-04 2.87456E-02 1.51802E-13 3.62021E-13
 -1      4204 1.99575E+01 1.34389E-01-4.89712E-05 3.55242E-02 1.63452E-13 3.54505E-13
 -1      4205 1.99459E+01 1.52752E-01 1.06292E-03 2.69471E-02 9.36900E-14 5.34780E-13
 -1      4206 1.99837E+01 8.42563E-02-3.52409E-04 1.97862E-02 1.39851E-14 2.21926E-13
 -1      4207 1.99775E+01 9.90990E-02-6.86294E-06 2.50138E-02 8.82021E-14 2.41756E-13
 -1      4208 1.99695E+01 1.13402E-01 7.46740E-04 1.93325E-02 1.51887E-13 3.53985E-13
 -1      4209 1.99948E+01 6.01257E-02-2.56567E-04 1.30351E-02 2.64151E-14 1.63515E-13
 -1      4210 1.99908E+01 7.15601E-02 1.67622E-05 1.69738E-02 5.76196E-14 2.51464E-13
 -1      4211 1.99856E+01 8.24945E-02 5.10994E-04 1.33694E-02 5.21743E-14 1.57269E-13
 -1      4212 2.00018E+01 4.17738E-02-1.82062E-04 8.07874E-03 1.03194E-13-3.42796E-14
 -1      4213 1.99994E+01 5.04298E-02 2.84690E-05 1.09761E-02 6.15385E-14 9.00921E-14
 -1      4214 1.99962E+01 5.86289E-02 3.37843E-04 8.83502E-03 6.34386E-14 5.03762E-14
 -1      4215 2.00058E+01 2.80678E-02-1.25288E-04 4.54072E-03-3.90220E-14-4.47635E-14
 -1      4216 2.00046E+01 3.44997E-02 3.27493E-05 6.61737E-03 4.38272E-14-1.47756E-14
 -1      4217 2.00027E+01 4.05220E-02 2.12905E-04 5.48489E-03 3.46569E-14-2.42631E-14
 -1      4218 2.00078E+01 1.80330E-02-8.29186E-05 2.09537E-03 6.37201E-14-7.54085E-14
 -1      4219 2.00074E+01 2.27150E-02 3.26162E-05 3.54016E-03 4.42465E-14-5.33911E-14
 -1      4220 2.00065E+01 2.70380E-02 1.24666E-04 3.08307E-03 1.40267E-14-1.17912E-13
 -1      4221 2.00085E+01 1.08497E-02-5.20009E-05 4.71247E-04-1.43569E-14-2.64403E-13
 -1      4222 2.00086E+01 1.41786E-02 3.00488E-05 1.44048E-03-1.44943E-15-1.09498E-13
 -1      4223 2.00083E+01 1.71998E-02 6.39875E-05 1.41831E-03 9.26984E-15-1.08200E-13
 -1      4224 2.00083E+01 5.84218E-03-2.99919E-05-5.51005E-04 5.99027E-15-1.25608E-13
 -1      4225 2.00087E+01 8.14369E-03 2.63182E-05 6.85279E-05-6.95320E-14-1.36935E-13
 -1      4226 2.00088E+01 1.01869E-02 2.37042E-05 3.10775E-04 1.55213E-14-4.14729E-13
 -1      4227 2.00077E+01 2.46320E-03-1.47366E-05-1.14392E-03 7.58555E-14 8.00739E-14
 -1      4228 2.00081E+01 3.99989E-03 2.22221E-05-7.75316E-04 3.72800E-15-1.05459E-14
 -1      4229 2.00085E+01 5.32370E-03-1.72235E-06-3.86928E-04-1.31946E-13-1.93677E-13
 -1      4230 2.00067E+01 2.75658E-04-4.94025E-06-1.43980E-03-3.17231E-14 1.28947E-13
 -1      4231 2.00072E+01 1.25642E-03 1.82009E-05-1.24644E-03 1.39200E-13 1.19114E-13
 -1      4232 2.00077E+01 2.06406E-03-1.64817E-05-7.92066E-04 2.88813E-14-2.29555E-14
 -1      4233 2.00056E+01-1.05073E-03 5.01030E-06-1.53715E-03-1.67630E-13 1.97234E-14
 -1      4234 2.00062E+01-4.68134E-04 1.62243E-05-1.46051E-03-1.41129E-13-2.75055E-15
 -1      4235 2.00067E+01-2.71535E-05-2.32496E-05-9.93490E-04-1.43128E-14-5.00822E-15
 -1      4236 1.63434E+01 6.66427E-01 2.47410E-02-1.74908E+00 3.94292E-14 1.34519E-13
 -1      4237 1.66761E+01 2.87644E-01-7.93363E-04-2.19992E+00 6.86770E-14 9.79629E-14
 -1      4238 1.82022E+01 1.12326E+00-5.95055E-03 2.08730E-01-1.07559E-13-1.77887E-14
 -1      4239 1.79323E+01 1.16910E+00-9.76475E-03 2.08262E-01-1.51867E-13-3.86030E-15
 -1      4240 1.83066E+01 1.12749E+00 1.97800E-02 1.99317E-02-9.32341E-14 6.66847E-14
 -1      4241 1.68642E+01 1.25566E+00-1.12886E-02 1.25225E-01-1.71624E-14 9.01646E-14
 -1      4242 1.63733E+01 1.25256E+00-1.69355E-02 1.25135E-01 5.18368E-14 4.10262E-15
 -1      4243 2.00042E+01-2.09763E-03-1.89686E-06-1.02749E-03-3.51304E-14-3.13364E-13
 -1      4244 2.00041E+01-2.00937E-03 2.04865E-06-1.46176E-03-1.90624E-13-1.02647E-13
 -1      4245 2.00044E+01-1.82530E-03 8.74503E-06-1.52515E-03 1.81225E-13-1.62140E-14
 -1      4246 2.00047E+01-1.91328E-03 6.55649E-06-7.78142E-04 5.76082E-14-1.69539E-13
 -1      4247 1.79608E+01 4.53077E-01 6.95325E-03-1.55533E+00 3.04191E-14 9.13355E-14
 -1      4248 1.80256E+01 5.73478E-01-1.64404E-02-1.33233E+00 6.04722E-14 6.25670E-14
 -1      4249 1.78747E+01 8.46213E-01 2.66773E-02-1.08910E+00 2.20528E-14-4.00853E-14
 -1      4250 1.74184E+01 7.15771E-01 3.38534E-02-1.47243E+00 2.18293E-15 3.44590E-14
 -1      4251 1.76309E+01 1.21038E+00-7.98742E-03 1.78185E-01-1.29059E-13 1.16107E-14
 -1      4252 1.72713E+01 1.23617E+00-1.31207E-02 1.74720E-01-4.44091E-14 1.13407E-13
 -1      4253 1.70928E+01 1.27734E+00 3.26539E-02-2.12432E-01-6.34742E-14 4.74855E-14
 -1      4254 2.00042E+01-2.03815E-03 6.50951E-06 1.07314E-03-1.12662E-13-2.01637E-13
 -1      4255 1.89731E+01 8.87135E-01-3.41107E-03 2.12029E-01-2.67401E-14 4.35622E-14
 -1      4256 1.88168E+01 9.50236E-01-4.75825E-03 2.23869E-01-7.42245E-16 7.98780E-14
 -1      4257 1.87087E+01 1.01023E+00 1.47304E-02 7.03817E-02-5.42255E-14 1.22921E-14
 -1      4258 1.90218E+01 8.83424E-01 1.10730E-02 9.47054E-02-4.79012E-14 1.99027E-14
 -1      4259 2.00048E+01-1.80595E-03 5.22924E-07 1.08940E-03-6.73922E-14-1.52258E-13
 -1      4260 1.62313E+01 8.59711E-01-2.11156E-02-1.21206E+00-2.69767E-14 1.21055E-13
 -1      4261 2.00052E+01-1.61429E-03-9.61097E-06 6.15367E-04-4.25479E-14-1.63206E-13
 -1      4262 1.77836E+01 1.22209E+00 2.57637E-02-6.86875E-02-1.40861E-13 4.78263E-14
 -1      4263 2.00048E+01-1.63387E-03 3.40723E-06-1.50470E-03 1.81459E-13-1.93176E-13
 -1      4264 2.00052E+01-1.36933E-03 6.21992E-06-1.53839E-03-2.38048E-14-8.49402E-14
 -1      4265 2.00058E+01-1.16457E-03-1.77763E-05-1.07524E-03-5.53542E-14-2.15368E-13
 -1      4266 2.00050E+01-1.67596E-03-6.44673E-06-1.12953E-03 4.87047E-14-2.41434E-13
 -1      4267 1.58131E+01 1.23311E+00-1.52103E-02 4.37469E-02 2.17272E-14-3.09089E-14
 -1      4268 1.53131E+01 1.20297E+00 1.75421E-03 1.71883E-01-6.41462E-14-1.91652E-14
 -1      4269 1.67340E+01 9.28116E-01-1.21075E-02-1.02012E+00-2.04301E-14 1.06359E-13
 -1      4270 1.69925E+01 9.77578E-01-2.89871E-02-8.25368E-01-4.07322E-14 8.53415E-14
 -1      4271 2.00055E+01-1.55208E-03-2.66245E-06 1.54030E-04-2.30746E-14-1.42771E-13
 -1      4272 1.61437E+01 1.27580E+00 3.68050E-02-4.45085E-01-5.91500E-14 3.28244E-14
 -1      4273 1.74075E+01 9.99609E-01-1.57648E-02-7.04126E-01-7.25434E-14 8.37329E-14
 -1      4274 1.76326E+01 1.01956E+00-2.28603E-02-5.59998E-01-5.75152E-14-2.48733E-14
 -1      4275 1.83961E+01 9.73759E-01-1.05370E-02-3.07533E-01-8.07279E-14-5.53160E-16
 -1      4276 1.85678E+01 9.49353E-01-1.21688E-02-2.20778E-01-1.94964E-14 3.74062E-14
 -1      4277 1.87557E+01 9.00330E-01-8.11691E-03-1.90867E-01-3.92199E-14 4.46888E-14
 -1      4278 1.88975E+01 8.60763E-01-8.82032E-03-1.30677E-01-5.48486E-14-6.06923E-14
 -1      4279 1.90438E+01 8.04628E-01-6.32270E-03-1.14224E-01-2.92426E-14 7.36195E-15
 -1      4280 1.91600E+01 7.57171E-01-6.43272E-03-7.25881E-02-4.77523E-14-9.23140E-14
 -1      4281 1.92740E+01 6.99164E-01-4.97516E-03-6.51122E-02-5.73301E-14-4.82118E-14
 -1      4282 1.93682E+01 6.49164E-01-4.70352E-03-3.63865E-02-5.67619E-14-9.36108E-14
 -1      4283 1.94566E+01 5.93002E-01-3.92854E-03-3.46051E-02-8.66211E-14-1.64040E-13
 -1      4284 1.95321E+01 5.44166E-01-3.43453E-03-1.48276E-02-1.10163E-13-2.39038E-13
 -1      4285 1.96001E+01 4.92264E-01-3.09392E-03-1.63880E-02-8.16672E-14-2.11967E-13
 -1      4286 1.96597E+01 4.46962E-01-2.49598E-03-2.78558E-03-8.57060E-14-1.83875E-13
 -1      4287 1.97115E+01 4.00687E-01-2.41885E-03-6.06796E-03-7.89065E-14-1.38432E-13
 -1      4288 1.97578E+01 3.60251E-01-1.79983E-03 3.29033E-03-1.66225E-13-1.94151E-13
 -1      4289 1.97967E+01 3.20179E-01-1.87090E-03-6.54942E-04-2.03467E-13-1.44207E-13
 -1      4290 1.98321E+01 2.85179E-01-1.28399E-03 5.79426E-03-1.83504E-13-7.96379E-14
 -1      4291 1.98609E+01 2.51326E-01-1.42794E-03 1.83329E-03-9.33358E-14-7.61125E-14
 -1      4292 1.98875E+01 2.21800E-01-9.03272E-04 6.29000E-03-9.01120E-14-9.42490E-14
 -1      4293 1.99085E+01 1.93816E-01-1.07305E-03 2.67192E-03-8.60102E-14 1.71827E-15
 -1      4294 1.99280E+01 1.69460E-01-6.24095E-04 5.76177E-03 1.73189E-14 9.32891E-14
 -1      4295 1.99429E+01 1.46778E-01-7.92132E-04 2.65296E-03 5.63982E-14 1.04867E-13
 -1      4296 1.99569E+01 1.27091E-01-4.21177E-04 4.80150E-03 1.30486E-13 7.28888E-14
 -1      4297 1.99673E+01 1.09045E-01-5.72883E-04 2.24769E-03 1.23949E-13 5.06728E-14
 -1      4298 1.99771E+01 9.34304E-02-2.75351E-04 3.74424E-03 1.31281E-13-1.25209E-14
 -1      4299 1.99841E+01 7.93266E-02-4.04413E-04 1.72113E-03 1.34125E-13-5.07702E-14
 -1      4300 1.99907E+01 6.71680E-02-1.72045E-04 2.76299E-03 1.29986E-13-1.09373E-13
 -1      4301 1.99952E+01 5.63406E-02-2.77149E-04 1.21034E-03 8.90241E-14-1.06921E-13
 -1      4302 1.99995E+01 4.70457E-02-1.00184E-04 1.93289E-03 4.43274E-14-1.33511E-13
 -1      4303 2.00022E+01 3.88855E-02-1.82801E-04 7.76356E-04 2.15791E-14-2.79700E-14
 -1      4304 2.00048E+01 3.19140E-02-5.13702E-05 1.27337E-03 6.74584E-15-1.07827E-13
 -1      4305 2.00062E+01 2.58840E-02-1.14321E-04 4.37501E-04 6.42392E-14-2.06733E-13
 -1      4306 2.00076E+01 2.07613E-02-1.92580E-05 7.74635E-04 2.97749E-14-1.47593E-13
 -1      4307 2.00082E+01 1.64018E-02-6.58285E-05 1.90076E-04-1.59125E-14-2.11099E-13
 -1      4308 2.00088E+01 1.27229E-02 9.16360E-07 4.13846E-04 7.33320E-14-2.47565E-13
 -1      4309 2.00089E+01 9.64934E-03-3.25146E-05 2.05954E-05-1.25018E-14-2.65377E-13
 -1      4310 2.00089E+01 7.07678E-03 1.26977E-05 1.64312E-04-1.18654E-13-2.98892E-13
 -1      4311 2.00086E+01 4.97454E-03-1.05454E-05-8.73551E-05-1.07039E-13-2.12065E-13
 -1      4312 2.00083E+01 3.23289E-03 1.86381E-05 4.64492E-07-9.03295E-14-1.61407E-13
 -1      4313 2.00079E+01 1.84850E-03 2.85670E-06-1.49693E-04-5.10384E-14-9.59115E-14
 -1      4314 2.00074E+01 7.16993E-04 2.02878E-05-1.00705E-04 6.92556E-14-1.59089E-13
 -1      4315 2.00069E+01-1.59354E-04 6.10734E-06-1.82169E-04-1.94447E-14-1.60019E-13
 -1      4316 2.00063E+01-8.52260E-04 1.52942E-05-1.63258E-04-1.28089E-13-1.46638E-13
 -1      4317 1.81536E+01 1.00873E+00-1.68748E-02-3.57121E-01-1.32608E-13-1.19331E-14
 -1      4318 1.79476E+01 1.00999E+00-1.30516E-02-4.80857E-01-9.75240E-14 1.88879E-14
 -1      4319 2.00055E+01-1.45899E-03-1.08427E-05-7.32726E-04 3.85227E-14 7.92613E-15
 -1      4320 2.00051E+01-1.70187E-03 1.11952E-05-7.43253E-04 5.70367E-14-1.47928E-13
 -3
    1PSTEP                         3           1           1          
  100CL  101 1.000000000        4320                     0    1           1
 -4  TOSTRAIN    6    1
 -5  EXX         1    4    1    1
 -5  EYY         1    4    2    2
 -5  EZZ         1    4    3    3
 -5  EXY         1    4    1    2
 -5  EYZ         1    4    2    3
 -5  EZX         1    4    3    1
 -1         1 3.07898E-04-9.51502E-05-7.88642E-05 2.06117E-06-1.69115E-19 2.23795E-18
 -1         2 3.64113E-05-1.10338E-04 1.97863E-05-7.31919E-07 9.59310E-18-2.81321E-19
 -1         3 9.52373E-05-2.85709E-05-2.85716E-05 1.68816E-10-2.49275E-18-2.54544E-18
 -1         4 9.52373E-05-2.85710E-05-2.85716E-05-1.56020E-10 5.58542E-19 3.89690E-19
 -1         5 1.59664E-04-2.30842E-05-4.88521E-05 3.95739E-05-2.44210E-19 1.52223E-17
 -1         6 1.57610E-04 2.91261E-10-4.88073E-05-5.59439E-05-1.01517E-18 8.85488E-18
 -1         7 1.01505E-04-8.71945E-07-4.32844E-05-2.80604E-05-1.50878E-19-9.03493E-19
 -1         8 9.35992E-05-2.41362E-08-3.97458E-05-1.66164E-05-7.51742E-20-3.13010E-18
 -1         9 8.85671E-05 1.30396E-08-3.76477E-05-1.02557E-05-6.54333E-20-4.03100E-18
 -1        10 8.43412E-05-2.93245E-09-3.58448E-05-5.26176E-06 1.30231E-20-4.27795E-18
 -1        11 8.01692E-05 7.79540E-09-3.41115E-05-1.16729E-06 1.93759E-20-4.19619E-18
 -1        12 7.60080E-05 4.25045E-08-3.24360E-05 1.87423E-06 4.91809E-20-3.98034E-18
 -1        13 7.19843E-05 1.01557E-07-3.08672E-05 3.72031E-06 6.01393E-20-3.79640E-18
 -1        14 6.87478E-05 1.66997E-07-2.96466E-05 4.18969E-06 8.43062E-20-3.57370E-18
 -1        15 6.70053E-05 2.17821E-07-2.90251E-05 3.47504E-06 9.95992E-20-3.34042E-18
 -1        16 6.73355E-05 2.35700E-07-2.92043E-05 2.14466E-06 1.23309E-19-3.05150E-18
 -1        17 6.99558E-05 2.12471E-07-3.02604E-05 1.01961E-06 1.32058E-19-2.59608E-18
 -1        18 7.45317E-05 1.64060E-07-3.20786E-05 8.98409E-07 1.46219E-19-1.91895E-18
 -1        19 8.07301E-05 9.88133E-08-3.45497E-05 2.39776E-06 1.90000E-19-8.76208E-19
 -1        20 8.79697E-05 3.15116E-08-3.74585E-05 5.96833E-06 2.17158E-19 6.82477E-19
 -1        21 9.61195E-05-6.04969E-08-4.07100E-05 1.22568E-05 1.96194E-19 3.28101E-18
 -1        22 1.06977E-04-7.09577E-07-4.45881E-05 2.35844E-05 7.41154E-21 7.61222E-18
 -1        23 1.28197E-04-4.32640E-05-4.00321E-05-3.81301E-06-6.90226E-19 5.55717E-18
 -1        24 1.09739E-04-3.27727E-05-3.40255E-05 5.81215E-07-1.65830E-19 2.76358E-18
 -1        25 1.07034E-04-3.22149E-05-3.21912E-05 4.20230E-07-1.09654E-19 1.99000E-19
 -1        26 1.05266E-04-3.16451E-05-3.14402E-05 1.40789E-07 8.12202E-20-1.48893E-18
 -1        27 1.02748E-04-3.08617E-05-3.06654E-05-4.43787E-08-5.07434E-20-2.44747E-18
 -1        28 9.88219E-05-2.96689E-05-2.95211E-05-2.11203E-07-3.49484E-21-3.11712E-18
 -1        29 9.36340E-05-2.81106E-05-2.80407E-05-3.30261E-07-8.51603E-21-3.77554E-18
 -1        30 8.81104E-05-2.64565E-05-2.64957E-05-3.48808E-07 1.01009E-19-4.26734E-18
 -1        31 8.37424E-05-2.51482E-05-2.52957E-05-2.32720E-07-1.38190E-19-5.25244E-18
 -1        32 8.20006E-05-2.46254E-05-2.48279E-05-9.55416E-09-3.04576E-19-6.76522E-18
 -1        33 8.35984E-05-2.51019E-05-2.52759E-05 2.29940E-07 5.53225E-19-6.81805E-18
 -1        34 8.80863E-05-2.64422E-05-2.65232E-05 3.85894E-07-8.96589E-20-6.40522E-18
 -1        35 9.40873E-05-2.82327E-05-2.82103E-05 4.12214E-07-2.01532E-21-7.55757E-18
 -1        36 9.99859E-05-2.99905E-05-2.99002E-05 3.32470E-07 1.22522E-19-7.56149E-18
 -1        37 1.04577E-04-3.13575E-05-3.12487E-05 2.05934E-07-2.11299E-19-6.81547E-18
 -1        38 1.07339E-04-3.21805E-05-3.20890E-05 8.57469E-08-8.75331E-20-7.51296E-18
 -1        39 1.08341E-04-3.24807E-05-3.24209E-05-9.06021E-10-7.33378E-21-8.42637E-18
 -1        40 1.07981E-04-3.23764E-05-3.23468E-05-4.99745E-08-1.06771E-19-8.40661E-18
 -1        41 1.06748E-04-3.20123E-05-3.20044E-05-6.94308E-08-6.67229E-20-8.88978E-18
 -1        42 1.05077E-04-3.15168E-05-3.15212E-05-7.01228E-08 2.68796E-19-7.89704E-18
 -1        43 1.03287E-04-3.09847E-05-3.09944E-05-6.11603E-08-3.47574E-19-6.95593E-18
 -1        44 1.01582E-04-3.04768E-05-3.04875E-05-4.86630E-08-5.62057E-20-7.06536E-18
 -1        45 1.00072E-04-3.00262E-05-3.00357E-05-3.61154E-08-1.47860E-19-7.98973E-18
 -1        46 9.88042E-05-2.96468E-05-2.96543E-05-2.51743E-08 9.00541E-20-7.25596E-18
 -1        47 9.77804E-05-2.93399E-05-2.93453E-05-1.64008E-08-1.35838E-19-4.44533E-18
 -1        48 9.69813E-05-2.90999E-05-2.91035E-05-9.77672E-09 4.22376E-19-2.40674E-18
 -1        49 9.63764E-05-2.89178E-05-2.89200E-05-5.02395E-09 5.50039E-20-2.54014E-18
 -1        50 9.59321E-05-2.87838E-05-2.87850E-05-1.78153E-09 6.26997E-20-3.77389E-18
 -1        51 9.56158E-05-2.86882E-05-2.86886E-05 3.04718E-10 2.63514E-19-3.21961E-18
 -1        52 9.53988E-05-2.86225E-05-2.86224E-05 1.54322E-09-2.67891E-19-2.46680E-18
 -1        53 9.52565E-05-2.85792E-05-2.85788E-05 2.18474E-09 2.32745E-20-3.02619E-18
 -1        54 9.51689E-05-2.85524E-05-2.85519E-05 2.42370E-09 4.29407E-19-2.76851E-18
 -1        55 9.51203E-05-2.85373E-05-2.85368E-05 2.40532E-09-2.29269E-19-2.96805E-18
 -1        56 9.50984E-05-2.85304E-05-2.85299E-05 2.23441E-09 1.99354E-19-5.16419E-18
 -1        57 9.50942E-05-2.85289E-05-2.85284E-05 1.98411E-09-7.57059E-20-5.01313E-18
 -1        58 9.51009E-05-2.85307E-05-2.85303E-05 1.70349E-09 7.16883E-19-4.23617E-18
 -1        59 9.51139E-05-2.85345E-05-2.85341E-05 1.42394E-09-4.09960E-19-3.59433E-18
 -1        60 9.51299E-05-2.85391E-05-2.85388E-05 1.16420E-09-5.03352E-19-3.38613E-18
 -1        61 9.51467E-05-2.85441E-05-2.85439E-05 9.34211E-10 4.45606E-19-4.53728E-18
 -1        62 9.51630E-05-2.85489E-05-2.85487E-05 7.38085E-10-6.06681E-19-6.46213E-18
 -1        63 9.51780E-05-2.85534E-05-2.85533E-05 5.76158E-10-3.62123E-19-9.02715E-18
 -1        64 9.51914E-05-2.85574E-05-2.85573E-05 4.46462E-10-2.16073E-20-8.32632E-18
 -1        65 9.52030E-05-2.85609E-05-2.85608E-05 3.45614E-10-2.55703E-19-4.25535E-18
 -1        66 9.52129E-05-2.85638E-05-2.85638E-05 2.69140E-10 3.34268E-19-4.09238E-18
 -1        67 9.52212E-05-2.85663E-05-2.85663E-05 2.11111E-10 4.65716E-19 2.59130E-19
 -1        68 9.52278E-05-2.85683E-05-2.85683E-05 1.62484E-10-2.75797E-19 1.98245E-18
 -1        69 9.52329E-05-2.85698E-05-2.85698E-05 1.06644E-10 3.06912E-19 7.49490E-19
 -1        70 9.52362E-05-2.85708E-05-2.85707E-05-3.60128E-13-3.80745E-19 1.21433E-18
 -1        71 9.52375E-05-2.85713E-05-2.85712E-05-1.50343E-10-1.03687E-20 1.94156E-18
 -1        72 1.24818E-04-3.74170E-05-4.12457E-05-2.94578E-06 4.82279E-20 1.51009E-17
 -1        73 1.21935E-04-3.63325E-05-3.76419E-05-6.33685E-07 1.32174E-19 1.31670E-17
 -1        74 1.23607E-04-3.70406E-05-3.72138E-05-3.88808E-07 4.95276E-20 1.15673E-17
 -1        75 1.26236E-04-3.78782E-05-3.77070E-05-3.82304E-07-2.58436E-20 1.07791E-17
 -1        76 1.27355E-04-3.82451E-05-3.78508E-05-3.00129E-07 6.38319E-20 1.01320E-17
 -1        77 1.24531E-04-3.74611E-05-3.68586E-05-4.90583E-09-1.06028E-20 9.84403E-18
 -1        78 1.16091E-04-3.49886E-05-3.43827E-05 5.48551E-07-9.76387E-20 1.06329E-17
 -1        79 1.02896E-04-3.09949E-05-3.08349E-05 1.13331E-06-1.06708E-19 1.11090E-17
 -1        80 8.97047E-05-2.68653E-05-2.75101E-05 1.24790E-06-1.59745E-20 9.89027E-18
 -1        81 8.34646E-05-2.48091E-05-2.60181E-05 5.80728E-07 1.50563E-19 7.51945E-18
 -1        82 8.81163E-05-2.61828E-05-2.71977E-05-4.59918E-07-2.13446E-20 6.33816E-18
 -1        83 1.00980E-04-3.01837E-05-3.04475E-05-1.12251E-06 2.16650E-19 5.18029E-18
 -1        84 1.15189E-04-3.45949E-05-3.42060E-05-1.10535E-06-1.40136E-19 3.91869E-18
 -1        85 1.25106E-04-3.76312E-05-3.70233E-05-6.89934E-07 1.86554E-19 4.63803E-18
 -1        86 1.28964E-04-3.87747E-05-3.82848E-05-2.51201E-07 4.76390E-20 2.82298E-18
 -1        87 1.27910E-04-3.84208E-05-3.81505E-05 3.32168E-08-1.70133E-19 2.12069E-18
 -1        88 1.24020E-04-3.72232E-05-3.71312E-05 1.61462E-07-2.19564E-19 3.70422E-18
 -1        89 1.19053E-04-3.57172E-05-3.57270E-05 1.90951E-07 3.44399E-19 1.80516E-18
 -1        90 1.14108E-04-3.42283E-05-3.42805E-05 1.73571E-07-3.65742E-19 5.41922E-19
 -1        91 1.09724E-04-3.29129E-05-3.29739E-05 1.40623E-07 3.04092E-21 1.92340E-18
 -1        92 1.06084E-04-3.18225E-05-3.18774E-05 1.07045E-07-2.86494E-19 2.34622E-18
 -1        93 1.03184E-04-3.09542E-05-3.09987E-05 7.84316E-08-3.21694E-19 4.18684E-18
 -1        94 1.00939E-04-3.02817E-05-3.03158E-05 5.59572E-08 5.85586E-19 3.47276E-18
 -1        95 9.92367E-05-2.97717E-05-2.97971E-05 3.90570E-08-1.17577E-19 3.36710E-18
 -1        96 9.79696E-05-2.93919E-05-2.94104E-05 2.66728E-08 2.53384E-19 4.49480E-18
 -1        97 9.70423E-05-2.91139E-05-2.91271E-05 1.77549E-08-3.68366E-19 4.30157E-18
 -1        98 9.63757E-05-2.89138E-05-2.89232E-05 1.14239E-08-6.53480E-20 3.68311E-18
 -1        99 9.59062E-05-2.87729E-05-2.87794E-05 6.99386E-09-3.29618E-19 2.20225E-18
 -1       100 9.55835E-05-2.86759E-05-2.86804E-05 3.94665E-09-1.81176E-19 2.99928E-18
 -1       101 9.53687E-05-2.86113E-05-2.86143E-05 1.89733E-09 4.19165E-19 2.09970E-18
 -1       102 9.52319E-05-2.85701E-05-2.85721E-05 5.61738E-10-1.09727E-19 4.44639E-19
 -1       103 9.51502E-05-2.85455E-05-2.85467E-05-2.69169E-10-1.31733E-19 4.43707E-18
 -1       104 9.51069E-05-2.85324E-05-2.85331E-05-7.48701E-10 4.88372E-19 6.80820E-18
 -1       105 9.50892E-05-2.85271E-05-2.85273E-05-9.88809E-10-2.02245E-20 6.57833E-18
 -1       106 9.50882E-05-2.85267E-05-2.85267E-05-1.07066E-09-1.01707E-18 9.57206E-18
 -1       107 9.50972E-05-2.85293E-05-2.85292E-05-1.05248E-09 6.97213E-19 5.71392E-18
 -1       108 9.51117E-05-2.85336E-05-2.85335E-05-9.75433E-10 6.88609E-19-1.10742E-18
 -1       109 9.51287E-05-2.85387E-05-2.85385E-05-8.68048E-10-5.26238E-19-1.88206E-18
 -1       110 9.51461E-05-2.85439E-05-2.85437E-05-7.49586E-10-7.04049E-19 1.43791E-18
 -1       111 9.51628E-05-2.85489E-05-2.85487E-05-6.32608E-10 2.00153E-19 2.74427E-18
 -1       112 9.51780E-05-2.85534E-05-2.85533E-05-5.24916E-10-1.85672E-20 2.82454E-18
 -1       113 9.51915E-05-2.85575E-05-2.85573E-05-4.31025E-10-1.64398E-20 2.14896E-18
 -1       114 9.52032E-05-2.85610E-05-2.85608E-05-3.53207E-10-3.67417E-19 1.32139E-18
 -1       115 9.52131E-05-2.85639E-05-2.85638E-05-2.92095E-10 4.68020E-19 9.05827E-19
 -1       116 9.52214E-05-2.85664E-05-2.85663E-05-2.46474E-10 1.49312E-20 1.42987E-18
 -1       117 9.52280E-05-2.85684E-05-2.85683E-05-2.12195E-10 2.60009E-19-6.21110E-19
 -1       118 9.52330E-05-2.85699E-05-2.85698E-05-1.78538E-10 4.72564E-19-2.33951E-18
 -1       119 9.52363E-05-2.85709E-05-2.85708E-05-1.03031E-10-5.06641E-20-7.19230E-18
 -1       120 9.52375E-05-2.85713E-05-2.85712E-05 9.57257E-11 1.03644E-18-5.26447E-18
 -1       121 9.52371E-05-2.85709E-05-2.85712E-05 1.60878E-10-3.77032E-18-7.76518E-19
 -1       122 9.52375E-05-2.85722E-05-2.85707E-05-4.75572E-11 2.98243E-18 5.74488E-19
 -1       123 9.52384E-05-2.85753E-05-2.85698E-05-1.64191E-10 9.36041E-18 8.36322E-19
 -1       124 9.52396E-05-2.85795E-05-2.85686E-05-2.05192E-10 7.86765E-18-8.23065E-19
 -1       125 9.52410E-05-2.85839E-05-2.85673E-05-1.96623E-10 1.08690E-18-8.51188E-20
 -1       126 9.52421E-05-2.85878E-05-2.85662E-05-1.60527E-10-3.00617E-19 1.24557E-19
 -1       127 9.52430E-05-2.85907E-05-2.85653E-05-1.03313E-10 2.07742E-18 1.26970E-19
 -1       128 9.52435E-05-2.85923E-05-2.85649E-05-3.51297E-11-4.84610E-18-1.56262E-19
 -1       129 9.52434E-05-2.85923E-05-2.85649E-05 3.64723E-11-3.90781E-18 1.35227E-18
 -1       130 9.52430E-05-2.85907E-05-2.85654E-05 1.04265E-10-8.21082E-18-2.15445E-18
 -1       131 9.52421E-05-2.85877E-05-2.85662E-05 1.62624E-10-1.21773E-17-3.62739E-20
 -1       132 9.52409E-05-2.85838E-05-2.85674E-05 1.97027E-10-5.95816E-18 2.09558E-18
 -1       133 9.52396E-05-2.85794E-05-2.85687E-05 2.03986E-10-3.02040E-18-3.29985E-19
 -1       134 9.52384E-05-2.85752E-05-2.85698E-05 1.78063E-10-4.13157E-19 5.97347E-19
 -1       135 9.52375E-05-2.85722E-05-2.85707E-05 6.66732E-11 5.00353E-19-1.55348E-18
 -1       136 9.52372E-05-2.85710E-05-2.85712E-05-2.86862E-10-2.49878E-18-6.87554E-19
 -1       137 2.64228E-05-9.03949E-05 1.62392E-05-2.42177E-05 1.46801E-17 3.67041E-18
 -1       138 8.63302E-06-3.81326E-05 4.08089E-06-1.95139E-05 1.72384E-17 7.55088E-18
 -1       139 1.13163E-05 1.25018E-05-1.45242E-05 2.08468E-05 1.53211E-17 1.20338E-17
 -1       140 5.89631E-05 2.48219E-05-3.50769E-05 7.58619E-05 1.22481E-17 1.39727E-17
 -1       141 1.52521E-04-5.81824E-06-5.64509E-05 1.13420E-04 6.51644E-18 1.07518E-17
 -1       142 2.50804E-04-5.77329E-05-7.18522E-05 9.94898E-05 1.44821E-18 3.86078E-18
 -1       143 3.13343E-04-9.48463E-05-8.02455E-05 3.26096E-05-5.04779E-20-5.08283E-18
 -1       144 3.02817E-04-8.84126E-05-7.89355E-05-5.16838E-05 2.31549E-18-1.34682E-17
 -1       145 2.28207E-04-4.52095E-05-6.85542E-05-1.06674E-04 6.75901E-18-1.87804E-17
 -1       146 1.29159E-04 4.34554E-06-5.21112E-05-1.08932E-04 1.09820E-17-1.77204E-17
 -1       147 4.23331E-05 2.64334E-05-3.01569E-05-6.31164E-05 1.29782E-17-1.33882E-17
 -1       148 7.44891E-06 2.03273E-06-9.81377E-06-8.43810E-06 1.19406E-17-8.10505E-18
 -1       149 1.14739E-05-4.96905E-05 6.99882E-06 2.44834E-05 7.30312E-18-3.09919E-18
 -1       150 2.98845E-05-9.55156E-05 1.68030E-05 1.90203E-05 6.45969E-19-2.78063E-19
 -1       151 3.33065E-05-1.01945E-04 1.80473E-05-7.08348E-06-6.33274E-18-5.01946E-19
 -1       152 1.93177E-05-6.80739E-05 1.11452E-05-2.22208E-05-1.13740E-17-3.15520E-18
 -1       153 5.22045E-06-1.56699E-05-2.26366E-06-8.08777E-06-1.43089E-17-7.56527E-18
 -1       154 1.74164E-05 2.29236E-05-1.99473E-05 3.65899E-05-1.39159E-17-1.12905E-17
 -1       155 8.17004E-05 2.18628E-05-4.17833E-05 9.14431E-05-9.98737E-18-1.24815E-17
 -1       156 1.78843E-04-1.94147E-05-6.08791E-05 1.12303E-04-5.30899E-18-1.02279E-17
 -1       157 2.69068E-04-7.08782E-05-7.39559E-05 7.79974E-05-1.28474E-18-4.52210E-18
 -1       158 2.78199E-04-7.62605E-05-7.51754E-05-7.18096E-05-2.04590E-18 1.00920E-17
 -1       159 1.99024E-04-2.99233E-05-6.39473E-05-1.11382E-04-5.96375E-18 1.40497E-17
 -1       160 1.10267E-04 1.34573E-05-4.84526E-05-1.05953E-04-1.04473E-17 1.52936E-17
 -1       161 3.97186E-05 2.92627E-05-2.96509E-05-6.38719E-05-1.39583E-17 1.33107E-17
 -1       162 7.37410E-06 6.64247E-06-1.06172E-05-1.21135E-05-1.51449E-17 1.03213E-17
 -1       163 1.02527E-05-4.13036E-05 4.96680E-06 1.97098E-05-9.36480E-18 4.54910E-18
 -1       164 2.70539E-05-8.90488E-05 1.57085E-05 2.16293E-05 1.83721E-18 5.45277E-20
 -1       165 1.06646E-04-1.54652E-05-3.92873E-05-1.98794E-05-1.65565E-18-1.66741E-18
 -1       166 9.82231E-05-1.10697E-05-3.75285E-05-1.36340E-05-1.03386E-18-2.94912E-18
 -1       167 9.23778E-05-8.80368E-06-3.59429E-05-8.47263E-06-4.78527E-19-3.41942E-18
 -1       168 8.72063E-05-7.23822E-06-3.43643E-05-3.95630E-06 2.31611E-21-3.55092E-18
 -1       169 8.19478E-05-5.59945E-06-3.27922E-05-2.41951E-07 3.44914E-19-3.43495E-18
 -1       170 7.63631E-05-3.59923E-06-3.12425E-05 2.52038E-06 7.11521E-19-3.30502E-18
 -1       171 7.11031E-05-1.42624E-06-2.99106E-05 3.97316E-06 1.01031E-18-3.11443E-18
 -1       172 6.71905E-05 4.35249E-07-2.90267E-05 4.06509E-06 1.24888E-18-2.92790E-18
 -1       173 6.57362E-05 1.39126E-06-2.88126E-05 3.15218E-06 1.43769E-18-2.70428E-18
 -1       174 6.74534E-05 1.04020E-06-2.94029E-05 1.98788E-06 1.61010E-18-2.41044E-18
 -1       175 7.22129E-05-5.79089E-07-3.07602E-05 1.46749E-06 1.72836E-18-1.90156E-18
 -1       176 7.95450E-05-3.20771E-06-3.27965E-05 2.27850E-06 1.91959E-18-1.11544E-18
 -1       177 8.86168E-05-6.55344E-06-3.52850E-05 4.82591E-06 2.00686E-18 1.18902E-19
 -1       178 9.91649E-05-1.08826E-05-3.79916E-05 9.24259E-06 1.95151E-18 1.98780E-18
 -1       179 1.12578E-04-1.82761E-05-4.05927E-05 1.51936E-05 1.54818E-18 4.86213E-18
 -1       180 1.26906E-04-3.30178E-05-4.14603E-05 1.37999E-05 8.62663E-19 8.15396E-18
 -1       181 1.17506E-04-3.17627E-05-3.67555E-05-1.04877E-05-1.57058E-18 4.28122E-19
 -1       182 1.11769E-04-3.30854E-05-3.37634E-05-3.91370E-06-1.35912E-18-7.96079E-21
 -1       183 1.08200E-04-3.25105E-05-3.23993E-05-2.39567E-06-9.37617E-19-4.44653E-19
 -1       184 1.05787E-04-3.20726E-05-3.15658E-05-2.79155E-06-5.51994E-19-1.04557E-18
 -1       185 1.03212E-04-3.13665E-05-3.07785E-05-3.92918E-06-5.35899E-19-1.30430E-18
 -1       186 1.00097E-04-3.02909E-05-2.99080E-05-5.00899E-06-3.94181E-19-1.29224E-18
 -1       187 9.66035E-05-2.88980E-05-2.90062E-05-5.27008E-06-4.15740E-19-1.56470E-18
 -1       188 9.33924E-05-2.74908E-05-2.82315E-05-4.15621E-06-6.75635E-19-2.08799E-18
 -1       189 9.13784E-05-2.65489E-05-2.77717E-05-1.66728E-06-8.16444E-19-2.12727E-18
 -1       190 9.12703E-05-2.64747E-05-2.77577E-05 1.48825E-06-2.67626E-19-2.23821E-18
 -1       191 9.31412E-05-2.73185E-05-2.81992E-05 4.20969E-06-2.68562E-19-3.66908E-18
 -1       192 9.63589E-05-2.87354E-05-2.89742E-05 5.62128E-06-4.81158E-19-3.90645E-18
 -1       193 9.99323E-05-3.02142E-05-2.98775E-05 5.50689E-06-2.61307E-19-3.95377E-18
 -1       194 1.02979E-04-3.13580E-05-3.06990E-05 4.26161E-06 1.10543E-19-4.10742E-18
 -1       195 1.04999E-04-3.20063E-05-3.12915E-05 2.52947E-06-4.33287E-19-3.97346E-18
 -1       196 1.05893E-04-3.21924E-05-3.15964E-05 8.60756E-07-2.91234E-19-3.24395E-18
 -1       197 1.05823E-04-3.20402E-05-3.16309E-05-4.35679E-07 4.36851E-20-3.37047E-18
 -1       198 1.05066E-04-3.16849E-05-3.14565E-05-1.27273E-06-1.36946E-19-3.92412E-18
 -1       199 1.03904E-04-3.12356E-05-3.11482E-05-1.69908E-06-8.23533E-20-4.11920E-18
 -1       200 1.02569E-04-3.07672E-05-3.07744E-05-1.81847E-06 6.61099E-19-4.31078E-18
 -1       201 1.01228E-04-3.03253E-05-3.03870E-05-1.73870E-06-9.53429E-21-3.72071E-18
 -1       202 9.99849E-05-2.99336E-05-3.00207E-05-1.54831E-06-7.35595E-20-3.03605E-18
 -1       203 9.88945E-05-2.96015E-05-2.96950E-05-1.31074E-06 8.98525E-19-2.07206E-18
 -1       204 9.79777E-05-2.93296E-05-2.94183E-05-1.06686E-06 1.41573E-18-8.89402E-19
 -1       205 9.72327E-05-2.91134E-05-2.91917E-05-8.40240E-07 4.32693E-19-5.77998E-19
 -1       206 9.66449E-05-2.89460E-05-2.90117E-05-6.42467E-07 1.13547E-19-6.30736E-19
 -1       207 9.61935E-05-2.88195E-05-2.88727E-05-4.77426E-07-3.09759E-19-8.28743E-19
 -1       208 9.58558E-05-2.87265E-05-2.87682E-05-3.44448E-07-5.77620E-20-1.42481E-18
 -1       209 9.56100E-05-2.86599E-05-2.86917E-05-2.40447E-07-1.14032E-19-1.49645E-18
 -1       210 9.54365E-05-2.86138E-05-2.86373E-05-1.61285E-07-7.92304E-19-2.34830E-18
 -1       211 9.53182E-05-2.85830E-05-2.86000E-05-1.02604E-07-1.87861E-19-2.32689E-18
 -1       212 9.52412E-05-2.85637E-05-2.85755E-05-6.02913E-08-3.49767E-19-3.12517E-18
 -1       213 9.51944E-05-2.85524E-05-2.85604E-05-3.07093E-08-3.71243E-19-2.36141E-18
 -1       214 9.51688E-05-2.85469E-05-2.85520E-05-1.07824E-08 5.03673E-19-1.72354E-18
 -1       215 9.51578E-05-2.85451E-05-2.85481E-05 2.00333E-09 1.74710E-19-2.26607E-18
 -1       216 9.51563E-05-2.85457E-05-2.85473E-05 9.64591E-09 2.85267E-19-2.84177E-18
 -1       217 9.51608E-05-2.85477E-05-2.85484E-05 1.36941E-08-3.50484E-19-2.90588E-18
 -1       218 9.51685E-05-2.85505E-05-2.85505E-05 1.53201E-08-5.80679E-19-1.61321E-18
 -1       219 9.51779E-05-2.85536E-05-2.85532E-05 1.53899E-08-1.81418E-18-3.07008E-18
 -1       220 9.51876E-05-2.85567E-05-2.85561E-05 1.45258E-08-1.96848E-18-4.48666E-18
 -1       221 9.51970E-05-2.85596E-05-2.85589E-05 1.31596E-08 7.12421E-19-4.77936E-18
 -1       222 9.52057E-05-2.85622E-05-2.85615E-05 1.15755E-08 3.32006E-18-4.03363E-18
 -1       223 9.52134E-05-2.85645E-05-2.85638E-05 9.94369E-09 2.88423E-19-1.93582E-19
 -1       224 9.52200E-05-2.85664E-05-2.85658E-05 8.34405E-09 1.52363E-18 9.02987E-20
 -1       225 9.52256E-05-2.85681E-05-2.85675E-05 6.78209E-09 1.60336E-18-3.25926E-19
 -1       226 9.52301E-05-2.85695E-05-2.85689E-05 5.19994E-09-6.05348E-19-5.26602E-19
 -1       227 9.52335E-05-2.85706E-05-2.85699E-05 3.49985E-09 4.02536E-19-2.13180E-18
 -1       228 9.52359E-05-2.85714E-05-2.85705E-05 1.63688E-09 5.74919E-19-1.46857E-19
 -1       229 1.23427E-04-3.59430E-05-3.76535E-05 2.57112E-06 1.08604E-18 7.18499E-18
 -1       230 1.21649E-04-3.61728E-05-3.65996E-05-1.17932E-06 7.49148E-19 6.35948E-18
 -1       231 1.22157E-04-3.68331E-05-3.65225E-05-1.70751E-06 4.91218E-19 5.48759E-18
 -1       232 1.22711E-04-3.74949E-05-3.64806E-05-9.63025E-08 3.03592E-19 5.13767E-18
 -1       233 1.21646E-04-3.76033E-05-3.59698E-05 3.42344E-06-6.68759E-20 5.38657E-18
 -1       234 1.17750E-04-3.64458E-05-3.48015E-05 7.86659E-06-4.89767E-19 5.58005E-18
 -1       235 1.11052E-04-3.36246E-05-3.31910E-05 1.07549E-05 5.02008E-20 5.46473E-18
 -1       236 1.03756E-04-2.99526E-05-3.17243E-05 9.04755E-06 1.10343E-18 4.86902E-18
 -1       237 9.97981E-05-2.76888E-05-3.10516E-05 2.09913E-06 1.34226E-18 3.39039E-18
 -1       238 1.01872E-04-2.86594E-05-3.14873E-05-6.27641E-06 8.57489E-19 2.62989E-18
 -1       239 1.08680E-04-3.21261E-05-3.28263E-05-1.09048E-05 7.80652E-19 1.73417E-18
 -1       240 1.16191E-04-3.56394E-05-3.44795E-05-1.00260E-05 4.81456E-19 1.61332E-18
 -1       241 1.21173E-04-3.75738E-05-3.57840E-05-5.79974E-06 2.09310E-19 8.41378E-19
 -1       242 1.22678E-04-3.78207E-05-3.63509E-05-1.20305E-06 7.07322E-19 6.12073E-19
 -1       243 1.21370E-04-3.70098E-05-3.61601E-05 2.08524E-06 3.89602E-20 1.21699E-18
 -1       244 1.18389E-04-3.57543E-05-3.54287E-05 3.78504E-06-4.38196E-19 1.12306E-18
 -1       245 1.14723E-04-3.44270E-05-3.44248E-05 4.28429E-06 8.52524E-19 9.69376E-19
 -1       246 1.11030E-04-3.32062E-05-3.33606E-05 4.07953E-06 1.51741E-19 1.12036E-18
 -1       247 1.07673E-04-3.21586E-05-3.23658E-05 3.54993E-06-2.27753E-19 1.13442E-18
 -1       248 1.04802E-04-3.12958E-05-3.15019E-05 2.92635E-06-1.03422E-18 1.31855E-18
 -1       249 1.02445E-04-3.06044E-05-3.07864E-05 2.32792E-06-7.11985E-19 2.28964E-18
 -1       250 1.00566E-04-3.00618E-05-3.02129E-05 1.80529E-06 3.77663E-19 1.93803E-18
 -1       251 9.91005E-05-2.96434E-05-2.97644E-05 1.37224E-06-5.92923E-20 1.11291E-18
 -1       252 9.79795E-05-2.93257E-05-2.94203E-05 1.02503E-06-1.02483E-18 9.65455E-19
 -1       253 9.71361E-05-2.90883E-05-2.91610E-05 7.52894E-07-2.65786E-19 1.94198E-18
 -1       254 9.65120E-05-2.89138E-05-2.89687E-05 5.43266E-07 6.56270E-19 1.65611E-18
 -1       255 9.60583E-05-2.87877E-05-2.88287E-05 3.84173E-07 3.71430E-19 1.50326E-18
 -1       256 9.57349E-05-2.86985E-05-2.87287E-05 2.65135E-07-3.20050E-19 1.38349E-18
 -1       257 9.55099E-05-2.86370E-05-2.86588E-05 1.77373E-07 4.83284E-19 4.13845E-19
 -1       258 9.53577E-05-2.85959E-05-2.86115E-05 1.13721E-07-4.31777E-20 1.34478E-18
 -1       259 9.52589E-05-2.85697E-05-2.85805E-05 6.84308E-08-2.05235E-18 2.21210E-18
 -1       260 9.51983E-05-2.85541E-05-2.85614E-05 3.69459E-08-5.62269E-19 3.10673E-18
 -1       261 9.51645E-05-2.85458E-05-2.85506E-05 1.56967E-08-3.58917E-19 4.14568E-18
 -1       262 9.51489E-05-2.85425E-05-2.85454E-05 1.91501E-09-1.17179E-18 3.61723E-18
 -1       263 9.51453E-05-2.85423E-05-2.85440E-05-6.52179E-09 2.39129E-18 2.14090E-18
 -1       264 9.51491E-05-2.85441E-05-2.85449E-05-1.12212E-08 1.81474E-18 9.48162E-19
 -1       265 9.51572E-05-2.85470E-05-2.85472E-05-1.33837E-08-8.46484E-19 2.51638E-18
 -1       266 9.51674E-05-2.85503E-05-2.85502E-05-1.38913E-08-1.38014E-18 2.77957E-18
 -1       267 9.51783E-05-2.85537E-05-2.85534E-05-1.33786E-08 4.03665E-19 3.56296E-18
 -1       268 9.51890E-05-2.85570E-05-2.85566E-05-1.22908E-08-1.09511E-19 2.93185E-18
 -1       269 9.51989E-05-2.85600E-05-2.85595E-05-1.09280E-08 3.62232E-19 2.32315E-18
 -1       270 9.52078E-05-2.85627E-05-2.85622E-05-9.48003E-09-8.99094E-19 3.15381E-18
 -1       271 9.52156E-05-2.85650E-05-2.85645E-05-8.05071E-09 8.94726E-19 3.60452E-18
 -1       272 9.52221E-05-2.85669E-05-2.85665E-05-6.67469E-09-1.74349E-19 1.00768E-18
 -1       273 9.52275E-05-2.85686E-05-2.85681E-05-5.32745E-09 1.63657E-18 4.43475E-19
 -1       274 9.52317E-05-2.85698E-05-2.85694E-05-3.93745E-09 1.12652E-18-1.07479E-18
 -1       275 9.52347E-05-2.85708E-05-2.85703E-05-2.40027E-09 8.32102E-19 8.76669E-20
 -1       276 9.52365E-05-2.85713E-05-2.85708E-05-7.58912E-10 5.16837E-19 1.51946E-18
 -1       277 9.52370E-05-2.85724E-05-2.85705E-05-1.71114E-09 1.57962E-18 5.11863E-18
 -1       278 9.52378E-05-2.85746E-05-2.85699E-05-3.29857E-09 2.07012E-18 2.59402E-18
 -1       279 9.52389E-05-2.85775E-05-2.85692E-05-4.27330E-09 6.77090E-19 4.92150E-19
 -1       280 9.52401E-05-2.85807E-05-2.85683E-05-4.48134E-09 1.51686E-18-2.89313E-18
 -1       281 9.52411E-05-2.85837E-05-2.85675E-05-4.01249E-09-2.60117E-19-1.64166E-18
 -1       282 9.52420E-05-2.85862E-05-2.85668E-05-2.98849E-09-3.16651E-19 2.15306E-19
 -1       283 9.52426E-05-2.85878E-05-2.85663E-05-1.58249E-09-4.28301E-19-3.69810E-18
 -1       284 9.52428E-05-2.85884E-05-2.85661E-05 1.63074E-11-1.32826E-18-1.61270E-18
 -1       285 9.52426E-05-2.85878E-05-2.85663E-05 1.61242E-09-3.38403E-18-2.69516E-18
 -1       286 9.52420E-05-2.85862E-05-2.85668E-05 3.01151E-09-2.85520E-18-1.90921E-18
 -1       287 9.52411E-05-2.85837E-05-2.85675E-05 4.01298E-09-3.52317E-18 2.94288E-18
 -1       288 9.52400E-05-2.85807E-05-2.85683E-05 4.48092E-09-1.56899E-18 1.29998E-18
 -1       289 9.52389E-05-2.85775E-05-2.85692E-05 4.25749E-09-2.73022E-19 1.56072E-18
 -1       290 9.52378E-05-2.85746E-05-2.85699E-05 3.25662E-09-9.32829E-19 3.32654E-19
 -1       291 9.52368E-05-2.85729E-05-2.85703E-05 2.76656E-09-5.81166E-19-2.71445E-18
 -1       292 1.18756E-05-4.62547E-05 1.15457E-05 5.57579E-06 4.76033E-18 3.43239E-18
 -1       293 2.72064E-05-4.13823E-05 3.91092E-06 2.41369E-05 4.77240E-18 3.33477E-18
 -1       294 5.40488E-05-3.84703E-05-8.53259E-06 3.38528E-05 6.03702E-18 4.55915E-18
 -1       295 9.10685E-05-3.29348E-05-2.54669E-05 4.35047E-05 6.35275E-18 5.36405E-18
 -1       296 1.42692E-04-4.05931E-05-4.30709E-05 3.59900E-05 5.39613E-18 1.91895E-18
 -1       297 1.80489E-04-3.52032E-05-5.96774E-05 3.73062E-05 5.10736E-18 1.56172E-18
 -1       298 2.09693E-04-3.75555E-05-7.00433E-05 2.07854E-05 4.18890E-18-1.62217E-18
 -1       299 2.01504E-04-2.95417E-05-7.10479E-05-1.38879E-06 4.29488E-18-3.55291E-18
 -1       300 2.00874E-04-3.58835E-05-6.75576E-05-2.25921E-05 4.70019E-18-6.28244E-18
 -1       301 1.71770E-04-3.48718E-05-5.64233E-05-3.99582E-05 4.39120E-18-8.09573E-18
 -1       302 1.29798E-04-3.60870E-05-3.96387E-05-4.23454E-05 3.91086E-18-6.89591E-18
 -1       303 7.99267E-05-3.24556E-05-2.13766E-05-4.12706E-05 4.55068E-18-6.36185E-18
 -1       304 4.80113E-05-3.81132E-05-6.00511E-06-3.35411E-05 2.40303E-18-4.95825E-18
 -1       305 1.90874E-05-4.17080E-05 6.57852E-06-1.45289E-05 1.37368E-18-3.87893E-18
 -1       306 9.86532E-06-4.43933E-05 1.13578E-05-5.56900E-07-9.50239E-19-3.33636E-18
 -1       307 1.35940E-05-3.86875E-05 8.08294E-06 1.47181E-05-2.63088E-18-3.23027E-18
 -1       308 3.00400E-05-3.60596E-05 3.73222E-08 2.55167E-05-4.76138E-18-4.14764E-18
 -1       309 5.79968E-05-2.96972E-05-1.35691E-05 3.87797E-05-5.63510E-18-4.85413E-18
 -1       310 1.02881E-04-3.11337E-05-3.07765E-05 4.60756E-05-5.27532E-18-4.34464E-18
 -1       311 1.48092E-04-3.45511E-05-4.77542E-05 3.62113E-05-4.54899E-18-2.99680E-18
 -1       312 1.81819E-04-3.18884E-05-6.20143E-05 2.91908E-05-4.30663E-18-2.20144E-18
 -1       313 2.01632E-04-3.21247E-05-6.97182E-05 1.05506E-05-3.74240E-18-3.02126E-19
 -1       314 2.10051E-04-3.63492E-05-7.09340E-05-1.17674E-05-3.70238E-18 2.29133E-18
 -1       315 1.85937E-04-3.15695E-05-6.36593E-05-2.74970E-05-3.98561E-18 3.64584E-18
 -1       316 1.57391E-04-2.98221E-05-5.27223E-05-4.58501E-05-4.61935E-18 5.34944E-18
 -1       317 1.17503E-04-2.78094E-05-3.77898E-05-4.88959E-05-5.58301E-18 5.89514E-18
 -1       318 8.29025E-05-3.43384E-05-2.14336E-05-4.37472E-05-4.77790E-18 4.79632E-18
 -1       319 4.58304E-05-3.58029E-05-6.20796E-06-3.32565E-05-2.82253E-18 6.22469E-18
 -1       320 2.40753E-05-4.17912E-05 4.91348E-06-2.23433E-05-1.01856E-19 6.50670E-18
 -1       321 1.26778E-05-4.79046E-05 1.16956E-05-8.18964E-06 2.34496E-18 4.18106E-18
 -1       322 1.00479E-04-1.87006E-05-3.51435E-05-9.39157E-06-8.32567E-19-2.28190E-18
 -1       323 1.07265E-04-2.34809E-05-3.59899E-05-1.21662E-05-1.41881E-18-1.56198E-18
 -1       324 8.90459E-05-1.30479E-05-3.26318E-05-1.30422E-06 2.30197E-19-2.64435E-18
 -1       325 8.25536E-05-9.87937E-06-3.11913E-05 2.42632E-06 7.27031E-19-2.57222E-18
 -1       326 7.56665E-05-6.16230E-06-2.98178E-05 4.94878E-06 1.13412E-18-2.46458E-18
 -1       327 6.94666E-05-2.47318E-06-2.87290E-05 5.70673E-06 1.51105E-18-2.33696E-18
 -1       328 6.55500E-05 1.50854E-07-2.81669E-05 4.67252E-06 1.72530E-18-2.23994E-18
 -1       329 6.53855E-05 6.88874E-07-2.83258E-05 2.58099E-06 1.88394E-18-2.07087E-18
 -1       330 6.93756E-05-1.17998E-06-2.92439E-05 7.26333E-07 2.05362E-18-1.74102E-18
 -1       331 7.70404E-05-5.12212E-06-3.08570E-05 1.62708E-07 2.17663E-18-1.05399E-18
 -1       332 8.70760E-05-1.03688E-05-3.29339E-05 1.36864E-06 2.19638E-18-2.35267E-19
 -1       333 9.85219E-05-1.66048E-05-3.51867E-05 3.93297E-06 2.16155E-18 1.06173E-18
 -1       334 1.10706E-04-2.42619E-05-3.71625E-05 6.36569E-06 1.91041E-18 3.13816E-18
 -1       335 1.18404E-04-3.07420E-05-3.76524E-05 5.15511E-06 1.52981E-18 4.71162E-18
 -1       336 1.18269E-04-3.39897E-05-3.61024E-05-4.57882E-07 1.18895E-18 3.95576E-18
 -1       337 1.09483E-04-3.14330E-05-3.34188E-05-6.02426E-06-1.19590E-18-9.99150E-19
 -1       338 1.08281E-04-3.28598E-05-3.23123E-05-4.82152E-06-9.80270E-19-7.85500E-19
 -1       339 1.07081E-04-3.33002E-05-3.16191E-05-5.66493E-06-6.23960E-19-7.81997E-19
 -1       340 1.05471E-04-3.28094E-05-3.11415E-05-7.27151E-06-3.74206E-19-7.63341E-19
 -1       341 1.03192E-04-3.12837E-05-3.08129E-05-8.40604E-06-4.59505E-19-5.70418E-19
 -1       342 1.00425E-04-2.89627E-05-3.06144E-05-7.85578E-06-6.96652E-19-7.16486E-19
 -1       343 9.79430E-05-2.66854E-05-3.05231E-05-4.97308E-06-1.03686E-18-9.14204E-19
 -1       344 9.67798E-05-2.55848E-05-3.04954E-05-2.65290E-07-1.00692E-18-1.51409E-18
 -1       345 9.74977E-05-2.62935E-05-3.04997E-05 4.64214E-06-1.16083E-18-2.32826E-18
 -1       346 9.97127E-05-2.84310E-05-3.05376E-05 7.94920E-06-7.24022E-19-2.78615E-18
 -1       347 1.02365E-04-3.09052E-05-3.06225E-05 8.76394E-06-1.59242E-19-2.74425E-18
 -1       348 1.04466E-04-3.27392E-05-3.07454E-05 7.39505E-06-5.83576E-21-2.33445E-18
 -1       349 1.05548E-04-3.35481E-05-3.08683E-05 4.83266E-06-5.64551E-20-2.22643E-18
 -1       350 1.05645E-04-3.34739E-05-3.09434E-05 2.07510E-06 3.85709E-19-2.19798E-18
 -1       351 1.05030E-04-3.28725E-05-3.09363E-05-2.37136E-07-3.68639E-19-1.64976E-18
 -1       352 1.04003E-04-3.20697E-05-3.08373E-05-1.85091E-06-5.32221E-19-1.59364E-18
 -1       353 1.02799E-04-3.12736E-05-3.06591E-05-2.77529E-06 2.30805E-19-1.34887E-18
 -1       354 1.01573E-04-3.05838E-05-3.04264E-05-3.14571E-06 2.34469E-19-1.40515E-18
 -1       355 1.00417E-04-3.00290E-05-3.01664E-05-3.12969E-06 4.46445E-19-1.82595E-18
 -1       356 9.93786E-05-2.96027E-05-2.99028E-05-2.87779E-06 3.10107E-19-1.96733E-18
 -1       357 9.84796E-05-2.92844E-05-2.96532E-05-2.50576E-06 8.84935E-19-1.34153E-18
 -1       358 9.77234E-05-2.90517E-05-2.94286E-05-2.09356E-06 1.42019E-18-1.24193E-18
 -1       359 9.71029E-05-2.88845E-05-2.92343E-05-1.69134E-06 1.24465E-18-1.56803E-18
 -1       360 9.66053E-05-2.87664E-05-2.90719E-05-1.32706E-06 5.48004E-19-1.13479E-18
 -1       361 9.62147E-05-2.86845E-05-2.89399E-05-1.01350E-06 1.18001E-19-1.21460E-18
 -1       362 9.59145E-05-2.86290E-05-2.88353E-05-7.53742E-07 1.12780E-19-7.70976E-19
 -1       363 9.56886E-05-2.85926E-05-2.87544E-05-5.45174E-07-6.59797E-19-1.45323E-18
 -1       364 9.55226E-05-2.85697E-05-2.86932E-05-3.82211E-07-9.17772E-19-8.60189E-19
 -1       365 9.54036E-05-2.85563E-05-2.86482E-05-2.58070E-07-9.22334E-19-8.44588E-19
 -1       366 9.53208E-05-2.85493E-05-2.86159E-05-1.65841E-07-2.35035E-19 5.19060E-20
 -1       367 9.52653E-05-2.85466E-05-2.85934E-05-9.91005E-08 2.31532E-19 5.82571E-19
 -1       368 9.52300E-05-2.85466E-05-2.85784E-05-5.22022E-08 5.27870E-19 5.59063E-19
 -1       369 9.52091E-05-2.85482E-05-2.85688E-05-2.03843E-08-5.02111E-19-2.03914E-19
 -1       370 9.51983E-05-2.85507E-05-2.85632E-05 2.45148E-10-1.91209E-19-3.62443E-19
 -1       371 9.51944E-05-2.85535E-05-2.85603E-05 1.27828E-08-1.99850E-19-7.05595E-19
 -1       372 9.51949E-05-2.85564E-05-2.85593E-05 1.96339E-08 5.80714E-19-1.99474E-19
 -1       373 9.51980E-05-2.85591E-05-2.85595E-05 2.26237E-08-1.57997E-18-5.70319E-19
 -1       374 9.52026E-05-2.85615E-05-2.85605E-05 2.31038E-08-1.72260E-18 1.09138E-18
 -1       375 9.52078E-05-2.85637E-05-2.85618E-05 2.20477E-08-9.76534E-19 2.22954E-18
 -1       376 9.52131E-05-2.85655E-05-2.85632E-05 2.01316E-08 9.65007E-19 1.50082E-18
 -1       377 9.52181E-05-2.85671E-05-2.85647E-05 1.78006E-08 2.69068E-18-7.45546E-19
 -1       378 9.52226E-05-2.85685E-05-2.85661E-05 1.53199E-08 1.91276E-18-6.03973E-20
 -1       379 9.52267E-05-2.85697E-05-2.85673E-05 1.28150E-08 6.14155E-19 7.29777E-19
 -1       380 9.52301E-05-2.85707E-05-2.85683E-05 1.03058E-08-7.40552E-19-2.80274E-19
 -1       381 9.52330E-05-2.85717E-05-2.85691E-05 7.74372E-09-1.27729E-19 3.20912E-19
 -1       382 9.52350E-05-2.85723E-05-2.85697E-05 5.26002E-09 7.20331E-19 3.69985E-19
 -1       383 1.18931E-04-3.59572E-05-3.55451E-05-2.18985E-06 8.04242E-19 3.52397E-18
 -1       384 1.20333E-04-3.79410E-05-3.53179E-05-6.58663E-07 4.50052E-19 3.27943E-18
 -1       385 1.21551E-04-3.96484E-05-3.51199E-05 3.81865E-06-2.45160E-19 3.10963E-18
 -1       386 1.21153E-04-3.97242E-05-3.49195E-05 1.00723E-05-5.51620E-19 3.23507E-18
 -1       387 1.17862E-04-3.65732E-05-3.48788E-05 1.48380E-05 6.42300E-20 3.23417E-18
 -1       388 1.12275E-04-3.05787E-05-3.50871E-05 1.34907E-05 1.37916E-18 3.01955E-18
 -1       389 1.08049E-04-2.57924E-05-3.53473E-05 4.13631E-06 2.35641E-18 2.58142E-18
 -1       390 1.09043E-04-2.67689E-05-3.53493E-05-8.13660E-06 1.23356E-18 1.46527E-18
 -1       391 1.14378E-04-3.25801E-05-3.51008E-05-1.52515E-05 1.04925E-18 7.58425E-19
 -1       392 1.19504E-04-3.80861E-05-3.49144E-05-1.40921E-05 9.10160E-19 1.90086E-20
 -1       393 1.21517E-04-4.02048E-05-3.48744E-05-7.92384E-06 8.75227E-19-5.09515E-19
 -1       394 1.20518E-04-3.93853E-05-3.48078E-05-1.20118E-06 6.40264E-19-4.32481E-19
 -1       395 1.17817E-04-3.73152E-05-3.45342E-05 3.62443E-06 6.76005E-20-1.12779E-19
 -1       396 1.14510E-04-3.51827E-05-3.40197E-05 6.15358E-06-1.19344E-19 4.52087E-19
 -1       397 1.11199E-04-3.34404E-05-3.33355E-05 6.92571E-06 8.08161E-19 7.44659E-19
 -1       398 1.08160E-04-3.21364E-05-3.25827E-05 6.63903E-06 5.46645E-19 4.75537E-19
 -1       399 1.05499E-04-3.11849E-05-3.18451E-05 5.83967E-06-6.03785E-19 7.64817E-19
 -1       400 1.03244E-04-3.04884E-05-3.11750E-05 4.87225E-06-1.02676E-18 1.67002E-18
 -1       401 1.01381E-04-2.99725E-05-3.05970E-05 3.92366E-06-1.41358E-18 1.43478E-18
 -1       402 9.98734E-05-2.95866E-05-3.01168E-05 3.07965E-06 8.16286E-19 1.52012E-18
 -1       403 9.86760E-05-2.92967E-05-2.97287E-05 2.36875E-06 3.93620E-19 1.25399E-18
 -1       404 9.77408E-05-2.90793E-05-2.94220E-05 1.79036E-06-1.20313E-18 1.20377E-18
 -1       405 9.70221E-05-2.89176E-05-2.91842E-05 1.33098E-06-3.18480E-19 6.11338E-19
 -1       406 9.64786E-05-2.87988E-05-2.90029E-05 9.72761E-07 1.40969E-19 1.61250E-18
 -1       407 9.60742E-05-2.87129E-05-2.88671E-05 6.97742E-07 8.37579E-19 2.03451E-18
 -1       408 9.57787E-05-2.86522E-05-2.87669E-05 4.89627E-07 5.63615E-20 1.96727E-18
 -1       409 9.55672E-05-2.86105E-05-2.86946E-05 3.34422E-07 9.98517E-19 2.55724E-18
 -1       410 9.54193E-05-2.85828E-05-2.86434E-05 2.20480E-07-2.08792E-19 3.03424E-18
 -1       411 9.53190E-05-2.85653E-05-2.86081E-05 1.38305E-07-1.40277E-18 1.81505E-18
 -1       412 9.52535E-05-2.85552E-05-2.85846E-05 8.02707E-08-5.30972E-19-1.06934E-20
 -1       413 9.52132E-05-2.85501E-05-2.85696E-05 4.03299E-08-1.78935E-18 7.31259E-19
 -1       414 9.51906E-05-2.85483E-05-2.85608E-05 1.37430E-08-6.15843E-19 2.90257E-18
 -1       415 9.51801E-05-2.85488E-05-2.85562E-05-3.16116E-09 2.84427E-18 2.91117E-18
 -1       416 9.51775E-05-2.85505E-05-2.85544E-05-1.31906E-08 1.33459E-18 4.72030E-18
 -1       417 9.51799E-05-2.85529E-05-2.85544E-05-1.84641E-08-1.13931E-18 4.99555E-18
 -1       418 9.51852E-05-2.85555E-05-2.85556E-05-2.05547E-08-7.36088E-19 3.37816E-18
 -1       419 9.51920E-05-2.85582E-05-2.85573E-05-2.06091E-08-5.51744E-19 1.07117E-18
 -1       420 9.51992E-05-2.85607E-05-2.85594E-05-1.94429E-08 2.91804E-19 1.92611E-18
 -1       421 9.52062E-05-2.85630E-05-2.85614E-05-1.76176E-08-1.96482E-19 1.45690E-18
 -1       422 9.52128E-05-2.85650E-05-2.85634E-05-1.54993E-08-8.53058E-19 3.28057E-18
 -1       423 9.52188E-05-2.85667E-05-2.85652E-05-1.33041E-08 1.32572E-18 1.74181E-18
 -1       424 9.52239E-05-2.85682E-05-2.85667E-05-1.11297E-08 1.22899E-18 1.17853E-18
 -1       425 9.52282E-05-2.85695E-05-2.85680E-05-8.97941E-09 1.48224E-18 5.55405E-19
 -1       426 9.52318E-05-2.85706E-05-2.85691E-05-6.79194E-09 9.93059E-19 1.83951E-18
 -1       427 9.52345E-05-2.85716E-05-2.85699E-05-4.49381E-09 2.81910E-19 4.47077E-18
 -1       428 9.52359E-05-2.85721E-05-2.85702E-05-3.12049E-09-7.43788E-19 5.75429E-18
 -1       429 9.52392E-05-2.85786E-05-2.85688E-05-7.68254E-09 4.61754E-20-1.24413E-19
 -1       430 9.52375E-05-2.85758E-05-2.85693E-05-6.89490E-09-5.55547E-20 1.33343E-18
 -1       431 9.52365E-05-2.85738E-05-2.85697E-05-5.20382E-09-7.00140E-19 3.81593E-18
 -1       432 9.52407E-05-2.85813E-05-2.85683E-05-7.34649E-09-7.72500E-19-4.58402E-18
 -1       433 9.52420E-05-2.85836E-05-2.85679E-05-6.01275E-09 1.48046E-18 1.17088E-18
 -1       434 9.52429E-05-2.85853E-05-2.85676E-05-3.91311E-09 8.44576E-19-1.61554E-18
 -1       435 9.52434E-05-2.85862E-05-2.85674E-05-1.33825E-09-1.75073E-18-3.88382E-18
 -1       436 9.52434E-05-2.85862E-05-2.85674E-05 1.39441E-09-3.03908E-18-1.97753E-18
 -1       437 9.52429E-05-2.85853E-05-2.85676E-05 3.96063E-09-2.46826E-18-2.17549E-18
 -1       438 9.52420E-05-2.85836E-05-2.85679E-05 6.01547E-09-5.80112E-19 4.54715E-19
 -1       439 9.52407E-05-2.85813E-05-2.85683E-05 7.34569E-09-7.38170E-19 4.44579E-18
 -1       440 9.52392E-05-2.85786E-05-2.85688E-05 7.67636E-09 8.71659E-19 1.53258E-18
 -1       441 9.52375E-05-2.85757E-05-2.85693E-05 6.90173E-09-1.18208E-19 2.54778E-19
 -1       442 6.14107E-05-4.21528E-05-8.27140E-06 4.16790E-05 7.37236E-19 1.82959E-18
 -1       443 1.25701E-05-2.02415E-05 3.22468E-06-3.02917E-06 1.00003E-18 4.47032E-18
 -1       444 2.07139E-05-2.48863E-05 1.67005E-06 2.07278E-05 6.88585E-19 3.20771E-18
 -1       445 9.96408E-05-5.39124E-05-1.97205E-05 3.98846E-05 1.75939E-18 2.20255E-18
 -1       446 1.32801E-04-5.73637E-05-3.24081E-05 2.64271E-05 2.71098E-18-7.93035E-20
 -1       447 9.48493E-05-1.57478E-05-3.39801E-05-5.49907E-06-2.59417E-19-2.50102E-18
 -1       448 1.65717E-04-2.88699E-05-5.82926E-05-9.07283E-07 5.48433E-18-1.24821E-18
 -1       449 1.63662E-04-1.67926E-05-6.27197E-05-2.70780E-06 5.07225E-18-7.53330E-19
 -1       450 1.64197E-04-1.92228E-05-6.19289E-05 3.67621E-06 3.88587E-18-6.31940E-19
 -1       451 1.62821E-04-3.32610E-05-5.53477E-05 1.22709E-06 2.70336E-18-8.01717E-19
 -1       452 1.54962E-04-4.78098E-05-4.57526E-05-1.02992E-05 1.13109E-18-2.02250E-18
 -1       453 1.25962E-04-5.64232E-05-2.99467E-05-2.98889E-05 3.84024E-19-2.88372E-18
 -1       454 9.23074E-05-5.04220E-05-1.79949E-05-4.07207E-05-9.15854E-20-3.53818E-18
 -1       455 4.56394E-05-3.12795E-05-6.05260E-06-3.70789E-05-3.79788E-19-4.26656E-18
 -1       456 1.95038E-05-1.94776E-05 5.47029E-08-1.96115E-05 9.68794E-20-4.17418E-18
 -1       457 1.26008E-05-1.49592E-05 1.14122E-06 8.98169E-06 3.04442E-19-3.92589E-18
 -1       458 3.11845E-05-2.69268E-05-2.08858E-06 3.45252E-05-4.05941E-19-3.12873E-18
 -1       459 6.42839E-05-3.88237E-05-1.10829E-05 4.46269E-05-7.46024E-19-2.88288E-18
 -1       460 1.04333E-04-5.03128E-05-2.31876E-05 4.01885E-05-1.07679E-18-1.46034E-18
 -1       461 1.36362E-04-5.10427E-05-3.66517E-05 2.22774E-05-2.17343E-18-4.74974E-19
 -1       462 1.53183E-04-3.35696E-05-5.12229E-05 6.91950E-06-3.78396E-18-5.60418E-19
 -1       463 1.55109E-04-1.86177E-05-5.85340E-05-2.61155E-06-4.28662E-18-3.37437E-19
 -1       464 1.60349E-04-1.27013E-05-6.29854E-05-5.23314E-07-4.38223E-18-8.87598E-20
 -1       465 1.60610E-04-1.75997E-05-6.09606E-05-3.17503E-07-4.14453E-18-6.18863E-20
 -1       466 1.55683E-04-3.30540E-05-5.23952E-05-6.77873E-06-2.74529E-18 8.04470E-19
 -1       467 1.46383E-04-4.43132E-05-4.35570E-05-1.98005E-05-2.53128E-18 1.19770E-18
 -1       468 1.23465E-04-5.27320E-05-3.02989E-05-3.32637E-05-1.05318E-18 1.35822E-18
 -1       469 8.68317E-05-4.93666E-05-1.61364E-05-4.46988E-05 1.16869E-18 2.59198E-18
 -1       470 5.49602E-05-3.86271E-05-6.98555E-06-4.36845E-05 1.51354E-18 5.99059E-18
 -1       471 2.09294E-05-2.52956E-05 1.71345E-06-2.46511E-05 1.08103E-18 6.13665E-18
 -1       472 1.57256E-04-4.38198E-05-4.85347E-05 5.78809E-06 4.78669E-18-9.27713E-19
 -1       473 1.46654E-04-5.58698E-05-3.90847E-05 5.66582E-06 2.38361E-18-1.34334E-18
 -1       474 4.64071E-05-2.86907E-05-7.12366E-06 3.53437E-05-1.08627E-18 1.50650E-18
 -1       475 1.43109E-04-4.68863E-05-4.14880E-05 2.95153E-06-2.11654E-18 2.55751E-19
 -1       476 1.45247E-04-1.14146E-05-5.77763E-05 1.39189E-06 3.99429E-18 1.32799E-18
 -1       477 1.11810E-04-3.16348E-05-3.43539E-05-2.33734E-06 1.27127E-18 1.92997E-18
 -1       478 8.24631E-05-1.34152E-05-2.96050E-05 6.53741E-06 1.11251E-18-2.17413E-18
 -1       479 9.03088E-05-1.79085E-05-3.10504E-05 2.59793E-06 6.33747E-19-2.14239E-18
 -1       480 6.67978E-05-3.24910E-06-2.72350E-05 7.75345E-06 1.67543E-18-2.15945E-18
 -1       481 6.34821E-05-7.00622E-07-2.69043E-05 4.41119E-06 1.84114E-18-2.10861E-18
 -1       482 6.56128E-05-1.65285E-06-2.74095E-05 3.20162E-07 1.95876E-18-1.82870E-18
 -1       483 7.30321E-05-6.00028E-06-2.87358E-05-2.59421E-06 2.01752E-18-1.42551E-18
 -1       484 8.38555E-05-1.24008E-05-3.06403E-05-3.02392E-06 1.92633E-18-7.63675E-19
 -1       485 9.59497E-05-1.94983E-05-3.27785E-05-1.53683E-06 1.90329E-18 2.57270E-19
 -1       486 1.14718E-04-3.61476E-05-3.36747E-05-3.65256E-06 6.52143E-19 1.68827E-18
 -1       487 1.07773E-04-3.12550E-05-3.27910E-05-5.83082E-06-7.90704E-19-1.29160E-18
 -1       488 1.43859E-04-5.89541E-05-3.65478E-05-6.50339E-06-6.33845E-19 8.73503E-21
 -1       489 1.08919E-04-3.40823E-05-3.20746E-05-5.80081E-06-5.29456E-19-8.58982E-19
 -1       490 1.09416E-04-3.52323E-05-3.17957E-05-7.40269E-06-4.11539E-19-5.92863E-19
 -1       491 1.08848E-04-3.44210E-05-3.18984E-05-9.55674E-06-4.20214E-19-4.44424E-19
 -1       492 1.06851E-04-3.14640E-05-3.23035E-05-1.06149E-05-8.24247E-19-6.88244E-19
 -1       493 1.03879E-04-2.72383E-05-3.28415E-05-8.89957E-06-1.14746E-18-9.30550E-19
 -1       494 1.01373E-04-2.38077E-05-3.32472E-05-3.87532E-06-1.48797E-18-1.23348E-18
 -1       495 1.00972E-04-2.33874E-05-3.32538E-05 2.86495E-06-1.53916E-18-1.42948E-18
 -1       496 1.02892E-04-2.62948E-05-3.28268E-05 8.43401E-06-1.20284E-18-1.96361E-18
 -1       497 1.05711E-04-3.06982E-05-3.21489E-05 1.06775E-05-1.25365E-19-1.55224E-18
 -1       498 1.07747E-04-3.43470E-05-3.14602E-05 9.54157E-06 2.33449E-19-9.78153E-19
 -1       499 1.08212E-04-3.60716E-05-3.09214E-05 6.39694E-06 2.13342E-19-1.03015E-18
 -1       500 1.07304E-04-3.59850E-05-3.05710E-05 2.78997E-06-2.84224E-19-9.43055E-19
 -1       501 1.05644E-04-3.48175E-05-3.03604E-05-2.89622E-07-6.26345E-20-1.21632E-18
 -1       502 1.03783E-04-3.32774E-05-3.02218E-05-2.46480E-06-1.30341E-19-1.15345E-18
 -1       503 1.02046E-04-3.18133E-05-3.01031E-05-3.73839E-06 3.60907E-20-1.00883E-18
 -1       504 1.00567E-04-3.06260E-05-2.99763E-05-4.28368E-06-1.90096E-19-9.87580E-19
 -1       505 9.93648E-05-2.97551E-05-2.98332E-05-4.31404E-06 5.84508E-19-1.10425E-18
 -1       506 9.84101E-05-2.91626E-05-2.96772E-05-4.02076E-06 3.06884E-19-1.24177E-18
 -1       507 9.76595E-05-2.87855E-05-2.95167E-05-3.55265E-06 2.80154E-19-5.24195E-19
 -1       508 9.70717E-05-2.85624E-05-2.93602E-05-3.01505E-06 9.29342E-19-1.09898E-18
 -1       509 9.66128E-05-2.84430E-05-2.92147E-05-2.47665E-06 1.42674E-18-1.24020E-18
 -1       510 9.62561E-05-2.83899E-05-2.90846E-05-1.97809E-06 3.11917E-19-2.13797E-18
 -1       511 9.59804E-05-2.83768E-05-2.89722E-05-1.54010E-06 4.75786E-19-2.92218E-18
 -1       512 9.57692E-05-2.83862E-05-2.88778E-05-1.17013E-06 6.45125E-19-3.00110E-18
 -1       513 9.56093E-05-2.84069E-05-2.88005E-05-8.67314E-07-3.59526E-19-2.60349E-18
 -1       514 9.54897E-05-2.84320E-05-2.87386E-05-6.26063E-07-5.81890E-19-1.57845E-18
 -1       515 9.54018E-05-2.84572E-05-2.86902E-05-4.38515E-07-4.01093E-19-6.13120E-19
 -1       516 9.53384E-05-2.84805E-05-2.86532E-05-2.96099E-07-2.24659E-19 5.55304E-20
 -1       517 9.52938E-05-2.85008E-05-2.86254E-05-1.90488E-07 2.05685E-19 9.83171E-19
 -1       518 9.52633E-05-2.85178E-05-2.86051E-05-1.14124E-07-2.59644E-19 5.38419E-19
 -1       519 9.52432E-05-2.85316E-05-2.85906E-05-6.04590E-08-5.18321E-19-6.87519E-20
 -1       520 9.52308E-05-2.85425E-05-2.85806E-05-2.40150E-08-9.50358E-19-3.46369E-19
 -1       521 9.52237E-05-2.85510E-05-2.85740E-05-3.37054E-10 1.48535E-19 4.19275E-19
 -1       522 9.52203E-05-2.85574E-05-2.85698E-05 1.41083E-08 3.61306E-19 3.30648E-19
 -1       523 9.52194E-05-2.85622E-05-2.85674E-05 2.20604E-08-8.89624E-19-5.32286E-19
 -1       524 9.52201E-05-2.85656E-05-2.85662E-05 2.55954E-08-5.76417E-19 1.71874E-18
 -1       525 9.52217E-05-2.85681E-05-2.85659E-05 2.62488E-08-1.09863E-18 2.78102E-18
 -1       526 9.52238E-05-2.85698E-05-2.85660E-05 2.51247E-08-4.80301E-19 3.75839E-18
 -1       527 9.52261E-05-2.85710E-05-2.85665E-05 2.29882E-08 1.53881E-20 2.87098E-18
 -1       528 9.52283E-05-2.85718E-05-2.85671E-05 2.03408E-08 2.00364E-18 4.36631E-19
 -1       529 9.52304E-05-2.85725E-05-2.85677E-05 1.74817E-08 1.35460E-18 5.08470E-19
 -1       530 9.52324E-05-2.85730E-05-2.85683E-05 1.45554E-08 1.07013E-18 2.04597E-18
 -1       531 9.52342E-05-2.85737E-05-2.85688E-05 1.15983E-08-9.96539E-19 2.05637E-18
 -1       532 1.24258E-04-4.50967E-05-3.39583E-05 4.91677E-06-3.71729E-19 1.90788E-18
 -1       533 1.27437E-04-4.46793E-05-3.55390E-05 1.33262E-05-3.98125E-19 1.94168E-18
 -1       534 1.25369E-04-3.63390E-05-3.83778E-05 1.83564E-05 7.34179E-19 2.16144E-18
 -1       535 1.19806E-04-2.42120E-05-4.12301E-05 1.26970E-05 2.26301E-18 2.16290E-18
 -1       536 1.16938E-04-1.93704E-05-4.21727E-05-3.04092E-06 2.99974E-18 1.67992E-18
 -1       537 1.21207E-04-2.78190E-05-4.02866E-05-1.64433E-05 2.40994E-18 5.43243E-20
 -1       538 1.26359E-04-4.00831E-05-3.71328E-05-1.76954E-05 1.34061E-18-1.49653E-18
 -1       539 1.26347E-04-4.59787E-05-3.44927E-05-1.01974E-05 8.43588E-19-1.25614E-18
 -1       540 1.21710E-04-4.46993E-05-3.30374E-05-1.14873E-06-2.49726E-21-4.89036E-19
 -1       541 1.15872E-04-4.03722E-05-3.23821E-05 5.37426E-06 3.12714E-19 9.85036E-20
 -1       542 1.10800E-04-3.60383E-05-3.20579E-05 8.81613E-06-2.35859E-19-7.87699E-20
 -1       543 1.06992E-04-3.28407E-05-3.17876E-05 9.94592E-06 1.75330E-19-1.02522E-18
 -1       544 1.04251E-04-3.08199E-05-3.14724E-05 9.66580E-06 3.19831E-19-2.06360E-19
 -1       545 1.02249E-04-2.96593E-05-3.11079E-05 8.66316E-06-5.46611E-19 1.06351E-18
 -1       546 1.00732E-04-2.90358E-05-3.07227E-05 7.38012E-06-1.38363E-18 9.60617E-19
 -1       547 9.95393E-05-2.87181E-05-3.03474E-05 6.07134E-06-6.08325E-19 8.89781E-19
 -1       548 9.85823E-05-2.85641E-05-3.00035E-05 4.86707E-06-7.55455E-19-2.78832E-19
 -1       549 9.78087E-05-2.84942E-05-2.97025E-05 3.82213E-06-1.32413E-19 9.17421E-19
 -1       550 9.71855E-05-2.84664E-05-2.94480E-05 2.94901E-06 1.68555E-20 1.23407E-18
 -1       551 9.66885E-05-2.84593E-05-2.92386E-05 2.23861E-06 6.72837E-20 1.46339E-19
 -1       552 9.62974E-05-2.84625E-05-2.90702E-05 1.67220E-06-2.27270E-19 2.63825E-20
 -1       553 9.59943E-05-2.84705E-05-2.89373E-05 1.22815E-06 7.90215E-19 7.64533E-19
 -1       554 9.57634E-05-2.84809E-05-2.88343E-05 8.85236E-07-8.84818E-20 5.82153E-19
 -1       555 9.55907E-05-2.84921E-05-2.87557E-05 6.24269E-07-5.82722E-19 2.41460E-19
 -1       556 9.54640E-05-2.85032E-05-2.86969E-05 4.28610E-07 7.39453E-20 1.28074E-18
 -1       557 9.53732E-05-2.85139E-05-2.86536E-05 2.84259E-07 6.58951E-19 1.25750E-18
 -1       558 9.53098E-05-2.85236E-05-2.86224E-05 1.79667E-07-2.52261E-19-1.19113E-19
 -1       559 9.52671E-05-2.85324E-05-2.86004E-05 1.05462E-07-2.90812E-18 1.69156E-18
 -1       560 9.52394E-05-2.85400E-05-2.85853E-05 5.41461E-08-1.44261E-18 1.39154E-18
 -1       561 9.52227E-05-2.85466E-05-2.85754E-05 1.97966E-08 1.08706E-18 9.85157E-19
 -1       562 9.52136E-05-2.85521E-05-2.85692E-05-2.20140E-09 6.59808E-19 3.17697E-18
 -1       563 9.52097E-05-2.85566E-05-2.85656E-05-1.53957E-08 4.74058E-19 3.23523E-18
 -1       564 9.52092E-05-2.85603E-05-2.85638E-05-2.24736E-08 9.90185E-20 1.75673E-18
 -1       565 9.52108E-05-2.85632E-05-2.85633E-05-2.54370E-08 5.09669E-19 1.14956E-18
 -1       566 9.52137E-05-2.85655E-05-2.85635E-05-2.57476E-08-5.56304E-19 9.10870E-19
 -1       567 9.52170E-05-2.85673E-05-2.85642E-05-2.44462E-08 9.56227E-19 1.96555E-18
 -1       568 9.52206E-05-2.85687E-05-2.85651E-05-2.22483E-08 3.60711E-19-1.55998E-19
 -1       569 9.52240E-05-2.85698E-05-2.85661E-05-1.96194E-08 1.25860E-19-8.68139E-19
 -1       570 9.52271E-05-2.85707E-05-2.85670E-05-1.68332E-08 4.57374E-19 1.19972E-18
 -1       571 9.52300E-05-2.85715E-05-2.85679E-05-1.40188E-08-1.60145E-19 4.16160E-18
 -1       572 9.52324E-05-2.85723E-05-2.85686E-05-1.12141E-08 5.19690E-19 4.74388E-18
 -1       573 9.52346E-05-2.85731E-05-2.85692E-05-8.35650E-09-6.30648E-19 5.78497E-18
 -1       574 9.52423E-05-2.85820E-05-2.85687E-05-9.04079E-09 1.88930E-18 9.81653E-19
 -1       575 9.52439E-05-2.85839E-05-2.85685E-05-6.66935E-09 1.48214E-18-8.68991E-19
 -1       576 9.52377E-05-2.85767E-05-2.85690E-05-1.02482E-08-1.01977E-18 8.13520E-19
 -1       577 9.52401E-05-2.85795E-05-2.85688E-05-1.02991E-08-1.15092E-18-2.63171E-18
 -1       578 9.52449E-05-2.85851E-05-2.85685E-05-3.51431E-09 8.57399E-19-5.62253E-18
 -1       579 9.52452E-05-2.85855E-05-2.85684E-05 4.04524E-11 1.46773E-19-2.99845E-18
 -1       580 9.52449E-05-2.85851E-05-2.85685E-05 3.58913E-09-1.35834E-18-1.51915E-18
 -1       581 9.52439E-05-2.85839E-05-2.85686E-05 6.67935E-09-2.50734E-19-1.16787E-18
 -1       582 9.52422E-05-2.85820E-05-2.85687E-05 9.04266E-09 7.95240E-19 1.69256E-18
 -1       583 9.52401E-05-2.85795E-05-2.85688E-05 1.03026E-08-4.21355E-19 2.89028E-18
 -1       584 9.52377E-05-2.85767E-05-2.85690E-05 1.01959E-08-2.19036E-18 1.04295E-18
 -1       585 9.49456E-05-5.17830E-05-1.82168E-05 3.87200E-05-9.74988E-19 8.41990E-19
 -1       586 4.64968E-05-2.67405E-05-7.95866E-06-3.70276E-05 2.01694E-18 5.33546E-18
 -1       587 1.19165E-04-4.10954E-05-3.34741E-05-1.27667E-06 9.79423E-20 1.82845E-18
 -1       588 2.52403E-05-1.42691E-05-4.06013E-06 1.08600E-05-1.89563E-19 3.04011E-18
 -1       589 1.21893E-04-6.10422E-05-2.59647E-05 2.77359E-05 1.33990E-19-7.08517E-19
 -1       590 1.38465E-04-5.56308E-05-3.56206E-05-1.24692E-05 5.97304E-19-1.64811E-18
 -1       591 1.33925E-04-8.50990E-06-5.43585E-05-4.85265E-06-4.30981E-18-6.34242E-19
 -1       592 1.05279E-04-2.65181E-05-3.37849E-05-7.28761E-06-9.01263E-19-1.70469E-18
 -1       593 7.39831E-05-8.11065E-06-2.82377E-05 8.54576E-06 1.41208E-18-2.11101E-18
 -1       594 1.44352E-04-2.39733E-05-5.21406E-05 1.28009E-05 2.79653E-18 2.18238E-18
 -1       595 1.42999E-04-1.99771E-05-5.33036E-05-1.12977E-05 4.68812E-18 2.02176E-19
 -1       596 3.07894E-05-1.33786E-05-6.92543E-06 2.67434E-05 1.21020E-18-2.93867E-18
 -1       597 1.48800E-04-4.31618E-05-4.56437E-05 1.07833E-05 4.72618E-19 1.60455E-18
 -1       598 1.19578E-04-5.88109E-05-2.59570E-05-2.83508E-05-1.33000E-18-1.38187E-18
 -1       599 8.04963E-05-4.22253E-05-1.61223E-05-3.91494E-05-1.11125E-18-2.93984E-18
 -1       600 4.10563E-05-1.77972E-05-9.38260E-06-2.74530E-05-1.72795E-19-3.63986E-18
 -1       601 1.17379E-04-5.84618E-05-2.51294E-05-3.19135E-05 2.49049E-18 3.88576E-20
 -1       602 2.38874E-05-7.64502E-06-6.32514E-06-5.42293E-06 6.69685E-19-3.81271E-18
 -1       603 5.94421E-05-2.97407E-05-1.22809E-05 4.18510E-05 1.35668E-18-2.31182E-18
 -1       604 9.12687E-05-4.57681E-05-1.92727E-05 4.12742E-05 9.53124E-19-1.56119E-18
 -1       605 1.25866E-04-5.61044E-05-2.98397E-05 2.28929E-05-2.17899E-19 1.40157E-19
 -1       606 1.40501E-04-2.68371E-05-4.92221E-05-9.90807E-06-3.40904E-18-1.79942E-19
 -1       607 1.37238E-04-9.15872E-06-5.54441E-05 3.98628E-06-4.08948E-18-9.68781E-19
 -1       608 1.40591E-04-2.25541E-05-5.10458E-05 9.24465E-06-2.88515E-18-2.31208E-18
 -1       609 1.43397E-04-4.51536E-05-4.24714E-05 5.41661E-07-5.11581E-19-1.76882E-18
 -1       610 8.18591E-05-4.46753E-05-1.55888E-05-4.33939E-05 3.43212E-18 1.33140E-18
 -1       611 2.88364E-05-1.34075E-05-5.93751E-06-1.59098E-05 6.34256E-19 5.17971E-18
 -1       612 1.48073E-04-3.49209E-05-4.89744E-05-1.21906E-05 4.31262E-18-7.85782E-19
 -1       613 1.11351E-04-2.85559E-05-3.55032E-05 1.16675E-06 1.71519E-18 2.42934E-18
 -1       614 1.32439E-04-1.58050E-05-5.05951E-05 9.84818E-06 3.08495E-18 2.16602E-18
 -1       615 9.67013E-05-2.12889E-05-3.23447E-05-1.89987E-06 9.78050E-20-2.24492E-18
 -1       616 1.26965E-04-1.58549E-05-4.81354E-05-1.16131E-05-3.51529E-18-1.66468E-19
 -1       617 3.23251E-05-5.71947E-06-1.08457E-05 1.25037E-05 1.53737E-18-3.05265E-18
 -1       618 1.36747E-04-6.23153E-05-3.20716E-05 1.10993E-05 4.09567E-19-1.66506E-18
 -1       619 7.56593E-05-3.88305E-05-1.53198E-05 3.79158E-05-1.90400E-18 1.42095E-18
 -1       620 9.52353E-05-2.85741E-05-2.85691E-05 9.51763E-09-1.90420E-18 3.54857E-19
 -1       621 6.85038E-05-2.95207E-05-1.63102E-05-3.34135E-05-9.00872E-19-2.88439E-18
 -1       622 1.01239E-04-2.38395E-05-3.31987E-05-5.18190E-06-3.74854E-19-1.98959E-18
 -1       623 1.32187E-04-1.40951E-05-5.12107E-05-7.01185E-06 3.93891E-18 1.29825E-18
 -1       624 1.33568E-04-5.42296E-05-3.41801E-05 7.30559E-06-5.75387E-19 3.95776E-19
 -1       625 1.45969E-04-4.82599E-05-4.21247E-05-1.08082E-05 3.20164E-18-1.62318E-18
 -1       626 6.07763E-05-2.12441E-06-2.51215E-05 1.79616E-06 1.70142E-18-1.99360E-18
 -1       627 6.23365E-05-3.56129E-06-2.51720E-05 8.78117E-06 1.69807E-18-2.10444E-18
 -1       628 7.91325E-05-1.35433E-05-2.80787E-05-7.83534E-06 1.58756E-18-1.24661E-18
 -1       629 9.25952E-05-2.16488E-05-3.04170E-05-7.05376E-06 1.52173E-18-3.08643E-19
 -1       630 1.04793E-04-3.00101E-05-3.20432E-05-6.03114E-06 1.10121E-18 4.93713E-19
 -1       631 4.56034E-05-1.86842E-05-1.09932E-05 2.41997E-05-1.16247E-18 9.45448E-19
 -1       632 1.10737E-04-3.64624E-05-3.18374E-05-5.16843E-06-1.32951E-19-8.49207E-19
 -1       633 1.12934E-04-3.78357E-05-3.21951E-05-7.87838E-06-2.89368E-19-6.75171E-19
 -1       634 1.13171E-04-3.58569E-05-3.31513E-05-1.10586E-05-5.60732E-19-3.40494E-19
 -1       635 1.10776E-04-3.02360E-05-3.45326E-05-1.21527E-05-1.23819E-18-4.51563E-19
 -1       636 1.06849E-04-2.32889E-05-3.58315E-05-8.77889E-06-1.71711E-18-1.04592E-18
 -1       637 1.04360E-04-1.94252E-05-3.64577E-05-9.78392E-07-1.62859E-18-1.12579E-18
 -1       638 1.05758E-04-2.18997E-05-3.59702E-05 7.40032E-06-1.66241E-18-1.19275E-18
 -1       639 1.09397E-04-2.87746E-05-3.45867E-05 1.18331E-05-4.80057E-19-1.50146E-18
 -1       640 1.12197E-04-3.54903E-05-3.28980E-05 1.11184E-05 1.82890E-19-1.64246E-18
 -1       641 1.12486E-04-3.91378E-05-3.14398E-05 7.15232E-06 2.76677E-19-1.51758E-18
 -1       642 1.10462E-04-3.94179E-05-3.04483E-05 2.52774E-06 2.22058E-19-1.19927E-18
 -1       643 1.07380E-04-3.76552E-05-2.98836E-05-1.23531E-06-4.31185E-19-9.34479E-19
 -1       644 1.04252E-04-3.51734E-05-2.96071E-05-3.72336E-06-2.76850E-19-6.84220E-19
 -1       645 1.01603E-04-3.27980E-05-2.94893E-05-5.06397E-06-2.98892E-19-5.90020E-19
 -1       646 9.95850E-05-3.08986E-05-2.94378E-05-5.54977E-06-1.93149E-19-1.03758E-18
 -1       647 9.81466E-05-2.95459E-05-2.94005E-05-5.46960E-06 1.97194E-19-1.64214E-18
 -1       648 9.71636E-05-2.86715E-05-2.93537E-05-5.05012E-06 3.19001E-20-9.57319E-19
 -1       649 9.65097E-05-2.81632E-05-2.92911E-05-4.45433E-06 2.72817E-19-1.22525E-18
 -1       650 9.60812E-05-2.79114E-05-2.92153E-05-3.79311E-06 8.52283E-19-7.57341E-19
 -1       651 9.58021E-05-2.78265E-05-2.91321E-05-3.13780E-06 2.54307E-19-1.22077E-18
 -1       652 9.56199E-05-2.78418E-05-2.90475E-05-2.53095E-06-4.51218E-19-3.31889E-18
 -1       653 9.54999E-05-2.79112E-05-2.89663E-05-1.99481E-06-1.80634E-19-3.54735E-18
 -1       654 9.54197E-05-2.80047E-05-2.88919E-05-1.53783E-06 4.37656E-19-3.44195E-18
 -1       655 9.53652E-05-2.81037E-05-2.88262E-05-1.15959E-06 4.37593E-19-4.07481E-18
 -1       656 9.53275E-05-2.81973E-05-2.87699E-05-8.54363E-07-3.54377E-19-4.73767E-18
 -1       657 9.53009E-05-2.82803E-05-2.87230E-05-6.13653E-07-3.06634E-19-3.39112E-18
 -1       658 9.52819E-05-2.83507E-05-2.86847E-05-4.27925E-07 8.23348E-20-2.72953E-18
 -1       659 9.52682E-05-2.84082E-05-2.86542E-05-2.87693E-07 4.02021E-19-2.60154E-18
 -1       660 9.52583E-05-2.84539E-05-2.86304E-05-1.84167E-07-3.02949E-19-2.50587E-18
 -1       661 9.52512E-05-2.84893E-05-2.86122E-05-1.09588E-07-8.82693E-19-1.50301E-18
 -1       662 9.52461E-05-2.85161E-05-2.85985E-05-5.73488E-08-6.79946E-19-6.51034E-19
 -1       663 9.52424E-05-2.85359E-05-2.85885E-05-2.19845E-08-2.62175E-19-1.30427E-19
 -1       664 9.52399E-05-2.85501E-05-2.85814E-05 9.12498E-10-2.39253E-19 3.21790E-19
 -1       665 9.52382E-05-2.85600E-05-2.85764E-05 1.48185E-08-3.93796E-19-6.21253E-19
 -1       666 9.52371E-05-2.85667E-05-2.85731E-05 2.24165E-08 9.70290E-19 7.59585E-19
 -1       667 9.52365E-05-2.85709E-05-2.85710E-05 2.57322E-08-1.79744E-19 2.35161E-18
 -1       668 9.52362E-05-2.85735E-05-2.85697E-05 2.62583E-08-1.69788E-19 3.82480E-18
 -1       669 9.52361E-05-2.85750E-05-2.85690E-05 2.50638E-08-4.30407E-19 2.60480E-18
 -1       670 9.52361E-05-2.85757E-05-2.85688E-05 2.28858E-08-3.74131E-19 3.40650E-18
 -1       671 9.52363E-05-2.85760E-05-2.85687E-05 2.02065E-08 1.98945E-18 2.74889E-18
 -1       672 9.52366E-05-2.85761E-05-2.85688E-05 1.73124E-08 1.09226E-18 1.36662E-18
 -1       673 9.52370E-05-2.85763E-05-2.85689E-05 1.43356E-08-3.78711E-19-1.65316E-18
 -1       674 1.37768E-04-4.95310E-05-3.80275E-05 1.28583E-05-2.35872E-19 1.76241E-18
 -1       675 1.29929E-04-5.24743E-05-3.32235E-05 1.50231E-06-7.93901E-19 1.09803E-18
 -1       676 1.34255E-04-3.75744E-05-4.17823E-05-1.80235E-05 2.98275E-18-8.10187E-19
 -1       677 1.35711E-04-5.28597E-05-3.56285E-05-8.63578E-06 7.99990E-19-1.58273E-18
 -1       678 1.26014E-04-5.22278E-05-3.16234E-05 2.90366E-06-4.73193E-19-1.41847E-18
 -1       679 1.15349E-04-4.51323E-05-3.00849E-05 9.94725E-06-8.13134E-19-2.39185E-19
 -1       680 1.07271E-04-3.78192E-05-2.97643E-05 1.27189E-05 8.34848E-21 1.54385E-19
 -1       681 1.02204E-04-3.25545E-05-2.98507E-05 1.30322E-05 2.94668E-20-1.37640E-19
 -1       682 9.93562E-05-2.94037E-05-2.99802E-05 1.21323E-05-6.21430E-19 7.67659E-19
 -1       683 9.78543E-05-2.77867E-05-3.00284E-05 1.07161E-05-6.96918E-19 1.52477E-18
 -1       684 9.70740E-05-2.71134E-05-2.99817E-05 9.14163E-06-5.12801E-19 1.10550E-18
 -1       685 9.66457E-05-2.69575E-05-2.98648E-05 7.59802E-06-5.61174E-19-4.70226E-20
 -1       686 9.63763E-05-2.70532E-05-2.97083E-05 6.18267E-06-5.00649E-19-4.37430E-19
 -1       687 9.61760E-05-2.72509E-05-2.95380E-05 4.93993E-06-6.24881E-19-3.37375E-19
 -1       688 9.60079E-05-2.74727E-05-2.93711E-05 3.88231E-06 3.73276E-19-1.44352E-19
 -1       689 9.58602E-05-2.76825E-05-2.92181E-05 3.00382E-06 7.61677E-20 7.91748E-19
 -1       690 9.57302E-05-2.78660E-05-2.90840E-05 2.28849E-06 2.20447E-19 1.24973E-18
 -1       691 9.56183E-05-2.80198E-05-2.89702E-05 1.71597E-06-7.63237E-19 1.08163E-18
 -1       692 9.55244E-05-2.81455E-05-2.88762E-05 1.26487E-06 6.22286E-19 2.29992E-18
 -1       693 9.54478E-05-2.82465E-05-2.88003E-05 9.14720E-07 1.33327E-19 2.96426E-18
 -1       694 9.53871E-05-2.83265E-05-2.87400E-05 6.46964E-07-2.07184E-19 2.39535E-18
 -1       695 9.53403E-05-2.83893E-05-2.86931E-05 4.45361E-07 8.40438E-19 1.45449E-18
 -1       696 9.53050E-05-2.84381E-05-2.86571E-05 2.96082E-07 9.90323E-20 1.12487E-18
 -1       697 9.52791E-05-2.84755E-05-2.86300E-05 1.87583E-07-1.45605E-18 5.47098E-19
 -1       698 9.52607E-05-2.85039E-05-2.86100E-05 1.10402E-07-1.03164E-18-2.19976E-18
 -1       699 9.52481E-05-2.85251E-05-2.85955E-05 5.69012E-08-3.71775E-19-1.23654E-18
 -1       700 9.52398E-05-2.85407E-05-2.85853E-05 2.10085E-08-4.47697E-19-3.12121E-19
 -1       701 9.52346E-05-2.85520E-05-2.85782E-05-2.03436E-09 6.77749E-20-1.38296E-19
 -1       702 9.52317E-05-2.85600E-05-2.85736E-05-1.58996E-08 9.75957E-19 1.42348E-18
 -1       703 9.52303E-05-2.85655E-05-2.85706E-05-2.33767E-08 9.98362E-19 1.39320E-18
 -1       704 9.52300E-05-2.85692E-05-2.85689E-05-2.65470E-08 3.07279E-19 1.32362E-19
 -1       705 9.52303E-05-2.85715E-05-2.85680E-05-2.69314E-08-1.50273E-19-9.56512E-19
 -1       706 9.52310E-05-2.85730E-05-2.85677E-05-2.56118E-08 1.04109E-18-6.58760E-19
 -1       707 9.52319E-05-2.85738E-05-2.85678E-05-2.33302E-08 5.80425E-19 2.90811E-19
 -1       708 9.52330E-05-2.85742E-05-2.85680E-05-2.05704E-08-2.58686E-19-1.12539E-18
 -1       709 9.52340E-05-2.85745E-05-2.85683E-05-1.76152E-08-1.54334E-18-1.17701E-18
 -1       710 9.52351E-05-2.85749E-05-2.85687E-05-1.46069E-08-7.36684E-19-9.63024E-19
 -1       711 9.52365E-05-2.85758E-05-2.85689E-05-1.24775E-08-9.21502E-19 1.44642E-18
 -1       712 9.52476E-05-2.85856E-05-2.85694E-05-2.12374E-09 1.38355E-18-5.25414E-18
 -1       713 9.52373E-05-2.85764E-05-2.85689E-05 1.22879E-08-1.21276E-18-1.33089E-18
 -1       714 9.52448E-05-2.85831E-05-2.85693E-05-9.71034E-09 1.10937E-18-4.17276E-19
 -1       715 9.52476E-05-2.85856E-05-2.85694E-05 2.23055E-09 7.25062E-19-3.75382E-18
 -1       716 9.52467E-05-2.85847E-05-2.85694E-05-6.25630E-09 1.09918E-19-3.17104E-18
 -1       717 1.19327E-04-4.60519E-05-3.13869E-05-5.85976E-06-3.62208E-19 7.04883E-19
 -1       718 9.52467E-05-2.85847E-05-2.85694E-05 6.27950E-09-4.54380E-19-1.27333E-18
 -1       719 9.52448E-05-2.85831E-05-2.85693E-05 9.72081E-09 9.88615E-19 7.45657E-19
 -1       720 9.52421E-05-2.85807E-05-2.85692E-05 1.20523E-08 1.29551E-19 2.99329E-18
 -1       721 6.99014E-05-3.29099E-05-1.54777E-05-3.73303E-05 3.29125E-18 1.80685E-18
 -1       722 5.19183E-05-1.80794E-05-1.40145E-05 3.27535E-05 1.77324E-18-2.33628E-18
 -1       723 1.12843E-04-5.55338E-05-2.43830E-05 2.72955E-05-1.75426E-18-5.90915E-19
 -1       724 1.34655E-04-2.91333E-05-4.58226E-05-1.76321E-05 3.60185E-18-8.71650E-20
 -1       725 1.35026E-04-5.09978E-05-3.62344E-05 1.64160E-06 7.42500E-19-3.09765E-18
 -1       726 1.08995E-04-4.88103E-05-2.56140E-05 2.74951E-05 1.25623E-18-3.98969E-19
 -1       727 1.05646E-04-2.99691E-05-3.24361E-05-4.38596E-06-4.70778E-19-1.36528E-18
 -1       728 1.08179E-04-3.35815E-05-3.19796E-05-4.18559E-06-3.36847E-19-1.05941E-18
 -1       729 1.27122E-04-5.78322E-05-2.96795E-05-1.56732E-05 2.08438E-18-1.99381E-18
 -1       730 1.10556E-04-3.74756E-05-3.13182E-05-7.81540E-06 3.48178E-19 3.47504E-19
 -1       731 6.70074E-05-5.98108E-06-2.61335E-05-4.70555E-06 1.68300E-18-1.68814E-18
 -1       732 9.13683E-05-2.24554E-05-2.95346E-05 7.60504E-06 9.53315E-19-1.66740E-18
 -1       733 1.17928E-04-8.88178E-06-4.73065E-05 9.31679E-07-3.33869E-18-1.37924E-18
 -1       734 4.84442E-05-1.81652E-05-1.24694E-05-2.58419E-05 1.96739E-18 3.80657E-18
 -1       735 3.89636E-05-1.05788E-05-1.16232E-05 1.07300E-06-6.94517E-19 3.25123E-18
 -1       736 4.08014E-05-8.52875E-06-1.33157E-05-1.41625E-05 5.26352E-19-3.06515E-18
 -1       737 8.16533E-05-3.59025E-05-1.92788E-05 3.76745E-05 1.90932E-18-1.66243E-18
 -1       738 1.33026E-04-5.94234E-05-3.15583E-05-1.03961E-05-1.22867E-18 2.78343E-19
 -1       739 1.35051E-04-3.89944E-05-4.15031E-05-9.50162E-06-2.06403E-18 4.77912E-19
 -1       740 1.05045E-04-4.96711E-05-2.35058E-05-2.94402E-05-1.51428E-18-1.26659E-18
 -1       741 1.21967E-04-1.54669E-05-4.61267E-05 1.05266E-05-2.20207E-18-2.08769E-18
 -1       742 1.03870E-04-5.07755E-05-2.25666E-05-3.27994E-05 3.25913E-18 6.29676E-19
 -1       743 1.32225E-04-3.41033E-05-4.24257E-05 1.24457E-05-6.91814E-19-2.95572E-18
 -1       744 9.87772E-05-2.64244E-05-3.10118E-05 2.13310E-06 5.10564E-19-1.82477E-18
 -1       745 7.04146E-05-9.16283E-06-2.62180E-05 1.25814E-05 1.59919E-18-1.93783E-18
 -1       746 1.32008E-04-3.16930E-05-4.35107E-05 1.85554E-05 1.53482E-18 2.44062E-18
 -1       747 9.61332E-05-4.55127E-05-2.14226E-05 3.13805E-05-2.04202E-18 2.35660E-19
 -1       748 9.52421E-05-2.85808E-05-2.85692E-05-1.20568E-08 1.37670E-18 2.21398E-19
 -1       749 9.52394E-05-2.85784E-05-2.85690E-05-1.28374E-08-7.97971E-19-1.37161E-18
 -1       750 4.08166E-05-3.95583E-06-1.53801E-05 4.68257E-07 1.25934E-18-2.71723E-18
 -1       751 5.90206E-05-1.72815E-05-1.75858E-05-2.32887E-05 1.15805E-20-2.62517E-18
 -1       752 1.19790E-04-5.17190E-05-2.91480E-05 1.64776E-05 8.67997E-19-5.48470E-20
 -1       753 1.26187E-04-5.87419E-05-2.89309E-05 1.48841E-05-9.02567E-19-6.78050E-19
 -1       754 9.52399E-05-2.85786E-05-2.85691E-05 1.35783E-08-8.96977E-19-4.27462E-19
 -1       755 8.14797E-05-1.65416E-05-2.78322E-05 1.18737E-05 1.37216E-18-1.85272E-18
 -1       756 1.26668E-04-2.81449E-05-4.24608E-05-1.46335E-05-2.47442E-18 5.62245E-19
 -1       757 9.74293E-05-2.95374E-05-2.90784E-05-1.23853E-05 7.80523E-19-5.45223E-19
 -1       758 7.16458E-05-1.37272E-05-2.48091E-05-1.29201E-05 1.02560E-18-1.60006E-18
 -1       759 1.13763E-04-1.45681E-05-4.28326E-05-8.10766E-06-2.81112E-18-4.46989E-19
 -1       760 5.21665E-05-1.49466E-05-1.56164E-05 1.47944E-05-1.46639E-18 7.36230E-19
 -1       761 8.88327E-05-3.54550E-05-2.26629E-05-2.71281E-05-7.66168E-19-1.81898E-18
 -1       762 1.17919E-04-4.10969E-05-3.29334E-05-7.30713E-06-7.40393E-20-2.96094E-19
 -1       763 1.19078E-04-3.67893E-05-3.53145E-05-1.25679E-05-9.07318E-19 5.03918E-20
 -1       764 1.15208E-04-2.66185E-05-3.81527E-05-1.37985E-05-1.94862E-18 1.64258E-19
 -1       765 1.13296E-04-2.39940E-05-3.84578E-05 1.28983E-05-1.52197E-18-2.37174E-18
 -1       766 1.17722E-04-3.53938E-05-3.53288E-05 1.26494E-05-1.25123E-19-2.54504E-18
 -1       767 1.18156E-04-4.25462E-05-3.24297E-05 7.27102E-06-8.55966E-21-2.55010E-18
 -1       768 1.14820E-04-4.36474E-05-3.04981E-05 1.01168E-06 4.05353E-19-2.73829E-18
 -1       769 1.09795E-04-4.11509E-05-2.94151E-05-3.55923E-06 4.16385E-19-2.18053E-18
 -1       770 1.04988E-04-3.74803E-05-2.89320E-05-6.09515E-06 2.57692E-19-1.05173E-18
 -1       771 1.01164E-04-3.39923E-05-2.87891E-05-7.13104E-06 3.62717E-20-6.56718E-19
 -1       772 9.84573E-05-3.12450E-05-2.88057E-05-7.20697E-06 1.22786E-19-3.47458E-19
 -1       773 9.67013E-05-2.93241E-05-2.88760E-05-6.75600E-06 2.65596E-19 4.10385E-19
 -1       774 9.56496E-05-2.81117E-05-2.89447E-05-6.04409E-06 3.34065E-19 5.76137E-19
 -1       775 9.50779E-05-2.74363E-05-2.89891E-05-5.23074E-06-3.11760E-19 5.55151E-19
 -1       776 9.48121E-05-2.71349E-05-2.90044E-05-4.40957E-06 1.94663E-19-4.57482E-19
 -1       777 9.47288E-05-2.70755E-05-2.89941E-05-3.63456E-06-9.89535E-21-1.93361E-18
 -1       778 9.47455E-05-2.71597E-05-2.89652E-05-2.93508E-06-9.69476E-19-2.16711E-18
 -1       779 9.48101E-05-2.73191E-05-2.89246E-05-2.32467E-06-4.62434E-19-2.90630E-18
 -1       780 9.48915E-05-2.75083E-05-2.88784E-05-1.80649E-06 7.39325E-23-2.92199E-18
 -1       781 9.49724E-05-2.76995E-05-2.88312E-05-1.37700E-06-6.21999E-20-3.28789E-18
 -1       782 9.50443E-05-2.78767E-05-2.87861E-05-1.02863E-06-5.59773E-19-3.33382E-18
 -1       783 9.51038E-05-2.80320E-05-2.87450E-05-7.51726E-07 1.56590E-19-2.44424E-18
 -1       784 9.51505E-05-2.81628E-05-2.87090E-05-5.35877E-07-4.03349E-20-3.09614E-18
 -1       785 9.51855E-05-2.82694E-05-2.86783E-05-3.70865E-07-2.07975E-19-2.77005E-18
 -1       786 9.52107E-05-2.83540E-05-2.86529E-05-2.47228E-07 4.57543E-19-3.29770E-18
 -1       787 9.52281E-05-2.84195E-05-2.86322E-05-1.56563E-07 4.12323E-19-3.41557E-18
 -1       788 9.52393E-05-2.84691E-05-2.86158E-05-9.16548E-08 1.30988E-19-2.32527E-18
 -1       789 9.52460E-05-2.85056E-05-2.86030E-05-4.64746E-08 4.43873E-19-1.27443E-18
 -1       790 9.52496E-05-2.85320E-05-2.85933E-05-1.61022E-08 6.28093E-19-6.11306E-19
 -1       791 9.52509E-05-2.85503E-05-2.85859E-05 3.39174E-09-4.15679E-19 5.71338E-19
 -1       792 9.52507E-05-2.85627E-05-2.85806E-05 1.50820E-08 4.55728E-19 2.17705E-18
 -1       793 9.52497E-05-2.85707E-05-2.85767E-05 2.13265E-08 1.47673E-18 6.15161E-19
 -1       794 9.52482E-05-2.85755E-05-2.85740E-05 2.38948E-08 3.77458E-19 1.33678E-18
 -1       795 9.52465E-05-2.85781E-05-2.85722E-05 2.40837E-08-5.33189E-19 2.87055E-18
 -1       796 9.52449E-05-2.85792E-05-2.85710E-05 2.28160E-08 1.06043E-19 2.83165E-18
 -1       797 9.52433E-05-2.85795E-05-2.85702E-05 2.07227E-08 1.23391E-19 2.36230E-18
 -1       798 9.52420E-05-2.85794E-05-2.85697E-05 1.82196E-08 8.69870E-19 2.34594E-18
 -1       799 9.52407E-05-2.85789E-05-2.85693E-05 1.59464E-08-6.76683E-19 6.85704E-19
 -1       800 9.52502E-05-2.85858E-05-2.85704E-05 5.01221E-09 2.18998E-18-3.25981E-18
 -1       801 9.55627E-05-3.15800E-05-2.74057E-05 1.68024E-05-4.67034E-20 4.35335E-19
 -1       802 9.30663E-05-2.74812E-05-2.81043E-05 1.42775E-05-8.53901E-19 1.35512E-18
 -1       803 9.23487E-05-2.55170E-05-2.86412E-05 1.20070E-05-9.85238E-19 1.31236E-18
 -1       804 9.24813E-05-2.48383E-05-2.89891E-05 1.00312E-05-2.31888E-19 9.99712E-19
 -1       805 9.29403E-05-2.48582E-05-2.91774E-05 8.31346E-06-1.18469E-19 8.41666E-19
 -1       806 9.34632E-05-2.52138E-05-2.92492E-05 6.81748E-06-2.34304E-19 1.17402E-18
 -1       807 9.39346E-05-2.56960E-05-2.92447E-05 5.52171E-06-6.84228E-19 1.09384E-18
 -1       808 9.43160E-05-2.61933E-05-2.91951E-05 4.41212E-06-5.95214E-19 9.24497E-19
 -1       809 9.46056E-05-2.66520E-05-2.91227E-05 3.47582E-06-5.78239E-19 8.42850E-19
 -1       810 9.48164E-05-2.70507E-05-2.90423E-05 2.69820E-06-5.11037E-20 6.19404E-19
 -1       811 9.49652E-05-2.73849E-05-2.89628E-05 2.06264E-06-3.68158E-19 9.28568E-19
 -1       812 9.50676E-05-2.76583E-05-2.88896E-05 1.55132E-06-6.93711E-19 5.28463E-19
 -1       813 9.51365E-05-2.78781E-05-2.88249E-05 1.14628E-06-3.42217E-19 1.18183E-18
 -1       814 9.51820E-05-2.80523E-05-2.87698E-05 8.30366E-07 1.00521E-19 1.78970E-18
 -1       815 9.52112E-05-2.81886E-05-2.87239E-05 5.87807E-07 1.31284E-18 8.71497E-19
 -1       816 9.52293E-05-2.82939E-05-2.86866E-05 4.04599E-07 8.88241E-20-1.52119E-19
 -1       817 9.52401E-05-2.83742E-05-2.86568E-05 2.68634E-07 4.43086E-19-8.60822E-20
 -1       818 9.52460E-05-2.84347E-05-2.86334E-05 1.69673E-07 1.93063E-19-1.34905E-18
 -1       819 9.52488E-05-2.84795E-05-2.86154E-05 9.92378E-08-9.30794E-19-1.33293E-18
 -1       820 9.52496E-05-2.85122E-05-2.86017E-05 5.04266E-08-6.33036E-20-1.69238E-18
 -1       821 9.52492E-05-2.85355E-05-2.85916E-05 1.77202E-08-1.03696E-18-2.39979E-18
 -1       822 9.52482E-05-2.85518E-05-2.85842E-05-3.22494E-09-5.96314E-19-1.81456E-18
 -1       823 9.52468E-05-2.85627E-05-2.85789E-05-1.57703E-08 2.44553E-19-8.72397E-19
 -1       824 9.52454E-05-2.85698E-05-2.85752E-05-2.24727E-08 9.66453E-19 1.64748E-19
 -1       825 9.52439E-05-2.85742E-05-2.85728E-05-2.52407E-08 1.09135E-19-8.50612E-19
 -1       826 9.52426E-05-2.85766E-05-2.85712E-05-2.54674E-08-8.19370E-21-8.35373E-19
 -1       827 9.52415E-05-2.85777E-05-2.85702E-05-2.41408E-08-7.58579E-19-1.71687E-18
 -1       828 9.52405E-05-2.85781E-05-2.85696E-05-2.19337E-08-2.63598E-19 1.39917E-18
 -1       829 9.52397E-05-2.85780E-05-2.85693E-05-1.92967E-08-8.72967E-19 1.48148E-18
 -1       830 9.52392E-05-2.85779E-05-2.85691E-05-1.64645E-08-4.86361E-19-1.14153E-18
 -1       831 9.52393E-05-2.85781E-05-2.85691E-05-1.46453E-08-8.30285E-19-1.40312E-18
 -1       832 5.55945E-05-3.11879E-06-2.24027E-05 6.86864E-06 1.52389E-18-2.15179E-18
 -1       833 1.18267E-04-5.10513E-05-2.86775E-05-1.53785E-05-1.02027E-18-1.12771E-19
 -1       834 9.52508E-05-2.85863E-05-2.85705E-05 2.73298E-11 1.49292E-18-4.20067E-18
 -1       835 9.52452E-05-2.85823E-05-2.85698E-05 1.29387E-08-1.05089E-18 1.82452E-18
 -1       836 1.25180E-04-4.08497E-05-3.62967E-05 1.06193E-05-2.03619E-20-2.20268E-18
 -1       837 1.02730E-04-2.84421E-05-3.18478E-05-1.62458E-06-5.47079E-20-1.59395E-18
 -1       838 1.01340E-04-3.88001E-05-2.67660E-05 1.90690E-05-8.20136E-19-2.85857E-19
 -1       839 1.11422E-04-4.87448E-05-2.67852E-05 1.94825E-05-1.66011E-18-7.42213E-20
 -1       840 1.27554E-04-5.08769E-05-3.29140E-05 7.85282E-07 4.02413E-19-1.83442E-18
 -1       841 9.52483E-05-2.85845E-05-2.85702E-05 9.46808E-09 3.62656E-19 2.68918E-19
 -1       842 1.13608E-04-3.99022E-05-3.15879E-05-2.65649E-06-8.39630E-21-6.44714E-19
 -1       843 6.99105E-05-2.82264E-05-1.75526E-05 2.93027E-05-1.23540E-18 6.90914E-19
 -1       844 1.15991E-04-5.25680E-05-2.71155E-05-1.85369E-05 1.40774E-18-6.55326E-19
 -1       845 4.96669E-05-7.97022E-06-1.75890E-05 1.89788E-05 1.78676E-18-2.41860E-18
 -1       846 6.79608E-05-2.52112E-05-1.80914E-05-2.80577E-05 2.03324E-18 1.87851E-18
 -1       847 5.83530E-05-5.10505E-06-2.27325E-05-5.02749E-06 1.35870E-18-2.05983E-18
 -1       848 1.29425E-04-4.59852E-05-3.59297E-05-6.33070E-06-5.35431E-19 8.82622E-19
 -1       849 1.10881E-04-1.42704E-05-4.17038E-05 4.68836E-06-2.31241E-18-2.14583E-18
 -1       850 5.13454E-05-1.32963E-05-1.60345E-05-1.20137E-05 5.78272E-19 2.29657E-18
 -1       851 9.24385E-05-4.08196E-05-2.20119E-05-3.01716E-05 2.16138E-18 1.69095E-18
 -1       852 6.39367E-05-8.91841E-06-2.35071E-05 1.58102E-05 1.72134E-18-1.99747E-18
 -1       853 5.46362E-05-1.24750E-05-1.78781E-05 1.15297E-06-1.17265E-18 1.48625E-18
 -1       854 1.23658E-04-4.88814E-05-3.20654E-05 2.53692E-06 4.53179E-19 5.41572E-19
 -1       855 9.52453E-05-2.85824E-05-2.85698E-05-1.29222E-08-9.75754E-19-3.14435E-20
 -1       856 9.52484E-05-2.85846E-05-2.85702E-05-9.41000E-09-1.00006E-18-1.49970E-18
 -1       857 9.29813E-05-3.59645E-05-2.42891E-05 2.67929E-05 1.80355E-18-8.60953E-19
 -1       858 1.04070E-04-3.85022E-05-2.80034E-05-1.61758E-05-2.88626E-19-4.63084E-19
 -1       859 9.52502E-05-2.85859E-05-2.85704E-05-4.93017E-09-7.21687E-19-4.14567E-18
 -1       860 5.02357E-05-7.99655E-06-1.78151E-05-1.20534E-05 7.42239E-19-2.62122E-18
 -1       861 1.06842E-04-3.34039E-05-3.14692E-05-1.19811E-06 4.60876E-20-1.14279E-18
 -1       862 6.85299E-05-2.02490E-05-2.04413E-05 2.82767E-05 1.89994E-18-1.84883E-18
 -1       863 9.52431E-05-2.85807E-05-2.85696E-05 1.46691E-08-1.33083E-18 1.76283E-18
 -1       864 1.04818E-04-4.22844E-05-2.67074E-05 2.10923E-05 1.51581E-18-6.88821E-19
 -1       865 9.20595E-05-2.70143E-05-2.78979E-05 1.37433E-05 1.19529E-18-1.40194E-18
 -1       866 1.01567E-04-3.18281E-05-2.98909E-05 6.56221E-06 7.74317E-19-1.31283E-18
 -1       867 6.55605E-05-1.87880E-05-1.99407E-05-1.74442E-05 2.86568E-19 1.57841E-18
 -1       868 8.15182E-05-2.39779E-05-2.46050E-05 2.23896E-05 1.66660E-18-1.41585E-18
 -1       869 1.17399E-04-4.45777E-05-3.11829E-05 2.51035E-06 4.84457E-19 7.08712E-20
 -1       870 1.19812E-04-4.86226E-05-3.05738E-05-2.76770E-06 4.02174E-19-1.39516E-18
 -1       871 1.12364E-04-4.52426E-05-2.87635E-05-7.95633E-06 1.00597E-18-6.48203E-19
 -1       872 1.05408E-04-4.00421E-05-2.80384E-05-1.02905E-05 8.15029E-19-1.01308E-18
 -1       873 9.99521E-05-3.49303E-05-2.78729E-05-1.03706E-05 6.98720E-19-5.43107E-19
 -1       874 9.66454E-05-3.13049E-05-2.80035E-05-9.50098E-06-1.68657E-19 8.66897E-20
 -1       875 9.46749E-05-2.88319E-05-2.82184E-05-8.30843E-06 6.97248E-19 2.40720E-20
 -1       876 9.36593E-05-2.73205E-05-2.84307E-05-7.06572E-06 1.03635E-19-4.01987E-19
 -1       877 9.32538E-05-2.65129E-05-2.86031E-05-5.89827E-06 4.76038E-19-3.73272E-19
 -1       878 9.32151E-05-2.61883E-05-2.87257E-05-4.85087E-06-4.99537E-19-3.60779E-19
 -1       879 9.33778E-05-2.61738E-05-2.88016E-05-3.93525E-06-7.85610E-19 3.58937E-19
 -1       880 9.36346E-05-2.63425E-05-2.88394E-05-3.14926E-06-8.10865E-19-8.81282E-20
 -1       881 9.39195E-05-2.66058E-05-2.88487E-05-2.48507E-06-1.12785E-18 3.43441E-19
 -1       882 9.41943E-05-2.69045E-05-2.88385E-05-1.93227E-06-3.78927E-19 3.78093E-20
 -1       883 9.44392E-05-2.72015E-05-2.88161E-05-1.47909E-06-7.33784E-19-7.20492E-19
 -1       884 9.46461E-05-2.74755E-05-2.87874E-05-1.11325E-06-5.88163E-19-1.70797E-18
 -1       885 9.48139E-05-2.77158E-05-2.87563E-05-8.22465E-07 2.67366E-19-1.61699E-18
 -1       886 9.49455E-05-2.79188E-05-2.87257E-05-5.94995E-07-2.71754E-19-2.23824E-18
 -1       887 9.50456E-05-2.80851E-05-2.86974E-05-4.19963E-07-9.89427E-20-2.47509E-18
 -1       888 9.51194E-05-2.82178E-05-2.86721E-05-2.87598E-07 2.41086E-19-5.60897E-19
 -1       889 9.51721E-05-2.83213E-05-2.86504E-05-1.89353E-07 1.49590E-19 6.44105E-19
 -1       890 9.52085E-05-2.84002E-05-2.86321E-05-1.17931E-07 1.41363E-19-1.44146E-19
 -1       891 9.52324E-05-2.84589E-05-2.86172E-05-6.72324E-08 9.95180E-20-9.17042E-19
 -1       892 9.52472E-05-2.85017E-05-2.86052E-05-3.22598E-08 1.04505E-18-6.23833E-19
 -1       893 9.52554E-05-2.85319E-05-2.85958E-05-8.99584E-09 1.10215E-18-9.07029E-19
 -1       894 9.52592E-05-2.85526E-05-2.85885E-05 5.73101E-09 5.68340E-19-4.94104E-19
 -1       895 9.52599E-05-2.85662E-05-2.85830E-05 1.43792E-08 8.12086E-20 4.08708E-20
 -1       896 9.52588E-05-2.85747E-05-2.85789E-05 1.88190E-08 1.06665E-18-1.09572E-18
 -1       897 9.52566E-05-2.85795E-05-2.85759E-05 2.04434E-08 8.60000E-19 8.29859E-19
 -1       898 9.52538E-05-2.85819E-05-2.85737E-05 2.02659E-08-4.88648E-19 9.78356E-19
 -1       899 9.52510E-05-2.85826E-05-2.85721E-05 1.90007E-08 4.43565E-19 1.45058E-18
 -1       900 9.52482E-05-2.85825E-05-2.85710E-05 1.71219E-08 7.25160E-19 2.12393E-18
 -1       901 8.70640E-05-2.22353E-05-2.77836E-05 9.78930E-06-7.10575E-19 1.19916E-18
 -1       902 8.55164E-05-2.26017E-05-2.69615E-05 1.21719E-05-1.01262E-18 1.11769E-18
 -1       903 9.52423E-05-2.85803E-05-2.85694E-05-1.42415E-08-5.77672E-19 2.35614E-18
 -1       904 4.83803E-05-3.54635E-06-1.89348E-05 8.21540E-07 1.30985E-18-2.25697E-18
 -1       905 8.44270E-05-2.42759E-05-2.57664E-05 1.55601E-05-9.00142E-19 4.35952E-19
 -1       906 8.86502E-05-2.25626E-05-2.83232E-05 8.00834E-06-2.14424E-19 1.47002E-18
 -1       907 9.00823E-05-2.32185E-05-2.86558E-05 6.58843E-06-2.79403E-19 1.35486E-18
 -1       908 9.12920E-05-2.39910E-05-2.88432E-05 5.40331E-06-6.62638E-19 1.15958E-18
 -1       909 9.22722E-05-2.47618E-05-2.89329E-05 4.39256E-06-1.55337E-19 1.16353E-18
 -1       910 9.30439E-05-2.54707E-05-2.89599E-05 3.52783E-06-2.66110E-19 7.20546E-19
 -1       911 9.36387E-05-2.60917E-05-2.89487E-05 2.79379E-06-7.31389E-20 1.00665E-18
 -1       912 9.40898E-05-2.66183E-05-2.89163E-05 2.17898E-06-2.70721E-19 3.53646E-19
 -1       913 9.44273E-05-2.70547E-05-2.88739E-05 1.67207E-06-3.92273E-19-3.79427E-20
 -1       914 9.46767E-05-2.74098E-05-2.88286E-05 1.26103E-06-1.51900E-18 5.00168E-19
 -1       915 9.48587E-05-2.76944E-05-2.87847E-05 9.33285E-07 1.19719E-19 3.15845E-19
 -1       916 9.49898E-05-2.79192E-05-2.87445E-05 6.76336E-07 1.12249E-18-2.50572E-19
 -1       917 9.50829E-05-2.80946E-05-2.87093E-05 4.78316E-07 1.30546E-18-5.57884E-20
 -1       918 9.51477E-05-2.82295E-05-2.86792E-05 3.28393E-07 4.05343E-19-1.92806E-18
 -1       919 9.51918E-05-2.83319E-05-2.86542E-05 2.17004E-07 8.48722E-19-1.98273E-18
 -1       920 9.52209E-05-2.84084E-05-2.86339E-05 1.35939E-07-4.02186E-19-1.10307E-18
 -1       921 9.52392E-05-2.84646E-05-2.86177E-05 7.83156E-08-1.44427E-18-1.68115E-18
 -1       922 9.52499E-05-2.85051E-05-2.86049E-05 3.84909E-08 2.31929E-22-4.03338E-19
 -1       923 9.52555E-05-2.85336E-05-2.85951E-05 1.19248E-08-9.26092E-19-3.63203E-19
 -1       924 9.52576E-05-2.85530E-05-2.85877E-05-4.96698E-09-7.78118E-19-6.83919E-20
 -1       925 9.52574E-05-2.85658E-05-2.85821E-05-1.49629E-08-1.04161E-19-1.01606E-18
 -1       926 9.52560E-05-2.85738E-05-2.85781E-05-2.01769E-08 9.88954E-19-7.63497E-19
 -1       927 9.52538E-05-2.85784E-05-2.85752E-05-2.21849E-08-3.22881E-20-6.16407E-19
 -1       928 9.52513E-05-2.85807E-05-2.85731E-05-2.21349E-08-6.53481E-19-7.01735E-19
 -1       929 9.52488E-05-2.85815E-05-2.85717E-05-2.08390E-08-2.04509E-18-2.88534E-19
 -1       930 9.52465E-05-2.85815E-05-2.85707E-05-1.88262E-08-7.21841E-19 5.13973E-19
 -1       931 7.01055E-05-2.15929E-05-2.06549E-05 1.98364E-05-1.23213E-18 1.34073E-18
 -1       932 9.52542E-05-2.85870E-05-2.85717E-05 2.89558E-09 9.78571E-19-1.65345E-18
 -1       933 8.30026E-05-3.06693E-05-2.23628E-05-2.42834E-05 1.79477E-18 1.81582E-18
 -1       934 8.98942E-05-3.59613E-05-2.29898E-05 2.57137E-05-9.41100E-19-6.75046E-20
 -1       935 7.59108E-05-2.17978E-05-2.30253E-05-2.08010E-05 3.16155E-19-1.82276E-18
 -1       936 1.03404E-04-4.31588E-05-2.57665E-05-1.98830E-05 1.04652E-18 1.01283E-19
 -1       937 1.06950E-04-3.62587E-05-3.02882E-05 4.59104E-06 4.98261E-19-9.62398E-19
 -1       938 6.56806E-05-1.60760E-05-2.11760E-05 1.03844E-05-1.27469E-18 1.84606E-18
 -1       939 6.27812E-05-1.48094E-05-2.04693E-05-7.72913E-06-2.14936E-19 9.80834E-19
 -1       940 9.52454E-05-2.85816E-05-2.85702E-05 1.60237E-08-1.25379E-18 2.94898E-18
 -1       941 9.52526E-05-2.85861E-05-2.85714E-05 8.30711E-09 1.82228E-18-2.76588E-18
 -1       942 9.52444E-05-2.85810E-05-2.85700E-05-1.65012E-08 7.48217E-20 1.58283E-18
 -1       943 9.52542E-05-2.85870E-05-2.85717E-05-2.77724E-09-7.79381E-19-2.50167E-18
 -1       944 8.52099E-05-2.81145E-05-2.44237E-05 2.00051E-05-7.88492E-19 3.97318E-19
 -1       945 1.02796E-04-3.72299E-05-2.81159E-05 1.47712E-05 1.30906E-18-1.01085E-18
 -1       946 9.52496E-05-2.85842E-05-2.85709E-05-1.29218E-08-4.85883E-19-2.57352E-19
 -1       947 1.13582E-04-4.48554E-05-2.94270E-05 1.08915E-05 9.67785E-19-4.18021E-19
 -1       948 9.52488E-05-2.85838E-05-2.85707E-05 1.32610E-08-1.75897E-19-2.61147E-20
 -1       949 8.11025E-05-1.94415E-05-2.64265E-05 7.88737E-06-7.25935E-19-1.06527E-19
 -1       950 9.71312E-05-3.50074E-05-2.65676E-05-1.47593E-05 1.40583E-18-4.47093E-19
 -1       951 9.34255E-05-3.05775E-05-2.69421E-05-1.23999E-05 9.08236E-19-5.86658E-19
 -1       952 9.16483E-05-2.77318E-05-2.73929E-05-1.00167E-05 4.03972E-19-4.41830E-19
 -1       953 9.09882E-05-2.61116E-05-2.78043E-05-8.01361E-06 9.25549E-20-7.34028E-19
 -1       954 9.09618E-05-2.53048E-05-2.81388E-05-6.37163E-06 1.33004E-19-9.66664E-19
 -1       955 9.12890E-05-2.50457E-05-2.83900E-05-5.04558E-06 4.88121E-19-2.56357E-18
 -1       956 9.17856E-05-2.51315E-05-2.85661E-05-3.97837E-06 6.62663E-19-2.12753E-18
 -1       957 9.23389E-05-2.54184E-05-2.86803E-05-3.11876E-06-2.98207E-19-9.18057E-19
 -1       958 9.28818E-05-2.58064E-05-2.87466E-05-2.42656E-06-9.06647E-19 2.96533E-20
 -1       959 9.33768E-05-2.62284E-05-2.87779E-05-1.87054E-06-1.33985E-18-4.67885E-19
 -1       960 9.38064E-05-2.66414E-05-2.87850E-05-1.42612E-06-3.57342E-19-3.90159E-19
 -1       961 9.41651E-05-2.70206E-05-2.87763E-05-1.07343E-06-5.75806E-19 5.52136E-20
 -1       962 9.44556E-05-2.73532E-05-2.87582E-05-7.96078E-07-3.53777E-19 7.17734E-19
 -1       963 9.46845E-05-2.76351E-05-2.87355E-05-5.80297E-07-8.15947E-19-3.84409E-19
 -1       964 9.48602E-05-2.78672E-05-2.87113E-05-4.14462E-07-3.09829E-19-7.43907E-19
 -1       965 9.49917E-05-2.80537E-05-2.86877E-05-2.88750E-07 1.38864E-18-1.65226E-18
 -1       966 9.50876E-05-2.82003E-05-2.86660E-05-1.94909E-07 1.19387E-18-6.95424E-19
 -1       967 9.51554E-05-2.83129E-05-2.86468E-05-1.26072E-07 1.47405E-19 2.33168E-19
 -1       968 9.52019E-05-2.83977E-05-2.86304E-05-7.65850E-08-6.23060E-21-1.88702E-19
 -1       969 9.52322E-05-2.84601E-05-2.86166E-05-4.18531E-08 8.22511E-19 2.80602E-19
 -1       970 9.52508E-05-2.85048E-05-2.86054E-05-1.81921E-08 3.30550E-19-2.15064E-19
 -1       971 9.52611E-05-2.85361E-05-2.85964E-05-2.68953E-09 5.75513E-19-6.52719E-20
 -1       972 9.52656E-05-2.85571E-05-2.85894E-05 6.92278E-09 4.13798E-19-1.15682E-18
 -1       973 9.52664E-05-2.85705E-05-2.85839E-05 1.23830E-08 3.12118E-19-1.94565E-19
 -1       974 9.52647E-05-2.85786E-05-2.85798E-05 1.50007E-08 1.86818E-18-2.73384E-19
 -1       975 9.52618E-05-2.85829E-05-2.85766E-05 1.57409E-08 6.87128E-19-9.03830E-19
 -1       976 9.52582E-05-2.85848E-05-2.85743E-05 1.53040E-08-6.01435E-19 4.45492E-20
 -1       977 9.52545E-05-2.85852E-05-2.85726E-05 1.41748E-08 8.52357E-19-1.59842E-18
 -1       978 8.65573E-05-2.12857E-05-2.79741E-05 5.31556E-06-7.39976E-20 1.17311E-18
 -1       979 8.41131E-05-2.02767E-05-2.73594E-05 6.39408E-06-1.17795E-18-2.23217E-19
 -1       980 7.74102E-05-1.90096E-05-2.50257E-05 1.01733E-05-8.82591E-19 1.83566E-18
 -1       981 8.85268E-05-2.23362E-05-2.83678E-05 4.45453E-06 1.42650E-19 1.01038E-18
 -1       982 9.01012E-05-2.33480E-05-2.86088E-05 3.71740E-06-7.76674E-19 7.52306E-19
 -1       983 9.13481E-05-2.42749E-05-2.87459E-05 3.06791E-06-4.62605E-19 1.39447E-18
 -1       984 9.23260E-05-2.50942E-05-2.88138E-05 2.49462E-06-3.71731E-19 4.93348E-19
 -1       985 9.30853E-05-2.57990E-05-2.88371E-05 1.99487E-06-3.28578E-20 6.54076E-19
 -1       986 9.36690E-05-2.63922E-05-2.88330E-05 1.56726E-06 7.45776E-20 4.12219E-19
 -1       987 9.41129E-05-2.68824E-05-2.88132E-05 1.20882E-06-1.08687E-18 9.04755E-20
 -1       988 9.44469E-05-2.72811E-05-2.87854E-05 9.14515E-07-4.96716E-19-4.36288E-19
 -1       989 9.46951E-05-2.76005E-05-2.87548E-05 6.77696E-07 5.82747E-19 3.80122E-19
 -1       990 9.48769E-05-2.78528E-05-2.87246E-05 4.90847E-07 1.01752E-18 4.26512E-19
 -1       991 9.50081E-05-2.80493E-05-2.86966E-05 3.46266E-07 1.40645E-18 4.44057E-19
 -1       992 9.51008E-05-2.82002E-05-2.86717E-05 2.36575E-07 9.08928E-19 6.61876E-19
 -1       993 9.51649E-05-2.83142E-05-2.86503E-05 1.55050E-07-1.30640E-18 1.41572E-18
 -1       994 9.52078E-05-2.83989E-05-2.86324E-05 9.57961E-08-5.18279E-19 1.36321E-18
 -1       995 9.52353E-05-2.84608E-05-2.86177E-05 5.38048E-08-2.30090E-19 1.01896E-19
 -1       996 9.52519E-05-2.85049E-05-2.86058E-05 2.49290E-08-1.58911E-18-1.72183E-19
 -1       997 9.52607E-05-2.85356E-05-2.85965E-05 5.81484E-09-1.02250E-18 1.08888E-19
 -1       998 9.52645E-05-2.85563E-05-2.85892E-05-6.19315E-09 1.22063E-18 3.47698E-20
 -1       999 9.52648E-05-2.85696E-05-2.85837E-05-1.31547E-08 3.16002E-19 8.91371E-19
 -1      1000 9.52631E-05-2.85776E-05-2.85795E-05-1.66357E-08 1.15208E-18 1.18904E-18
 -1      1001 9.52602E-05-2.85820E-05-2.85764E-05-1.78003E-08-9.86080E-20 3.78907E-19
 -1      1002 9.52568E-05-2.85839E-05-2.85741E-05-1.74939E-08-1.99700E-18 3.74609E-19
 -1      1003 9.52534E-05-2.85844E-05-2.85724E-05-1.63607E-08-9.37608E-19-1.47347E-18
 -1      1004 7.37858E-05-1.95207E-05-2.32229E-05 1.38520E-05-1.01450E-18 1.40751E-18
 -1      1005 9.52526E-05-2.85861E-05-2.85714E-05-8.23523E-09-1.13349E-18-3.12299E-18
 -1      1006 9.32514E-05-3.41847E-05-2.52886E-05-1.86252E-05 9.19650E-19 1.49364E-18
 -1      1007 7.72313E-05-2.33221E-05-2.30755E-05-1.70095E-05 6.62204E-19 9.72566E-19
 -1      1008 7.24264E-05-1.86274E-05-2.30358E-05-1.10566E-05 3.46744E-19 1.32359E-18
 -1      1009 9.52583E-05-2.85878E-05-2.85731E-05 9.59582E-11-1.41745E-18-3.13542E-19
 -1      1010 9.52579E-05-2.85865E-05-2.85735E-05-1.09494E-08-2.42487E-18-9.33352E-19
 -1      1011 6.69031E-05-1.48298E-05-2.23190E-05 1.97773E-06-6.93440E-19 3.05172E-20
 -1      1012 9.52574E-05-2.85873E-05-2.85729E-05 6.26540E-09 9.36350E-19-1.79437E-18
 -1      1013 8.60130E-05-2.09898E-05-2.78684E-05 2.59948E-06-1.81861E-19-4.85356E-19
 -1      1014 8.71078E-05-2.56503E-05-2.63377E-05-1.14976E-05 2.53303E-19 1.00603E-18
 -1      1015 8.73759E-05-2.42707E-05-2.70472E-05-8.59593E-06 2.05007E-19 5.37531E-19
 -1      1016 8.81019E-05-2.37056E-05-2.75992E-05-6.44831E-06-2.11280E-19-2.74291E-20
 -1      1017 8.90215E-05-2.36704E-05-2.80080E-05-4.85911E-06-6.27189E-19-8.31124E-20
 -1      1018 8.99833E-05-2.39504E-05-2.83001E-05-3.67282E-06 2.72194E-19-6.29927E-19
 -1      1019 9.09088E-05-2.44098E-05-2.84998E-05-2.77868E-06 6.36658E-19-2.08544E-18
 -1      1020 9.17530E-05-2.49531E-05-2.86288E-05-2.09997E-06 3.83298E-19-1.77935E-18
 -1      1021 9.24931E-05-2.55148E-05-2.87052E-05-1.58200E-06-4.89352E-19-1.08948E-18
 -1      1022 9.31218E-05-2.60526E-05-2.87441E-05-1.18543E-06-7.45410E-19-3.33273E-19
 -1      1023 9.36417E-05-2.65416E-05-2.87573E-05-8.81540E-07-3.67685E-19 5.57840E-19
 -1      1024 9.40613E-05-2.69694E-05-2.87538E-05-6.49049E-07-1.11998E-18-4.46515E-19
 -1      1025 9.43924E-05-2.73322E-05-2.87402E-05-4.71880E-07-1.45135E-18-7.87272E-19
 -1      1026 9.46481E-05-2.76321E-05-2.87212E-05-3.37702E-07-3.53869E-19-7.86609E-19
 -1      1027 9.48412E-05-2.78742E-05-2.87002E-05-2.36931E-07-1.47990E-19-1.79485E-19
 -1      1028 9.49838E-05-2.80656E-05-2.86793E-05-1.62053E-07 1.85759E-18-8.10723E-19
 -1      1029 9.50865E-05-2.82139E-05-2.86597E-05-1.07137E-07 1.35990E-18-1.41996E-18
 -1      1030 9.51583E-05-2.83264E-05-2.86422E-05-6.74987E-08 8.74594E-19 1.03097E-18
 -1      1031 9.52067E-05-2.84101E-05-2.86271E-05-3.94422E-08-7.44760E-20 1.80128E-18
 -1      1032 9.52379E-05-2.84709E-05-2.86144E-05-2.00630E-08-3.28701E-19 1.11365E-18
 -1      1033 9.52565E-05-2.85140E-05-2.86040E-05-7.09498E-09 6.35744E-19 6.35365E-19
 -1      1034 9.52664E-05-2.85435E-05-2.85955E-05 1.21444E-09 7.26617E-19 1.13484E-18
 -1      1035 9.52703E-05-2.85630E-05-2.85889E-05 6.20532E-09-5.38950E-19 1.03093E-18
 -1      1036 9.52704E-05-2.85752E-05-2.85837E-05 8.88841E-09 2.75849E-19-4.74015E-19
 -1      1037 9.52680E-05-2.85822E-05-2.85796E-05 1.00177E-08 6.16130E-19-1.35652E-18
 -1      1038 9.52644E-05-2.85857E-05-2.85766E-05 1.01491E-08-4.80306E-19-2.47228E-18
 -1      1039 9.52601E-05-2.85867E-05-2.85743E-05 9.64336E-09-1.20706E-18-2.74002E-18
 -1      1040 8.80923E-05-2.21581E-05-2.82585E-05 2.33688E-06-2.06022E-20 6.06396E-19
 -1      1041 7.99636E-05-1.84215E-05-2.63772E-05 3.15464E-06-2.49627E-19 5.36051E-19
 -1      1042 7.54479E-05-1.70327E-05-2.50280E-05 3.63223E-06 7.59297E-19 3.07177E-19
 -1      1043 8.97403E-05-2.32282E-05-2.85059E-05 2.05405E-06-3.89302E-19-1.65828E-19
 -1      1044 9.10466E-05-2.41864E-05-2.86549E-05 1.76042E-06-2.13247E-19-3.24168E-19
 -1      1045 9.20775E-05-2.50256E-05-2.87369E-05 1.47103E-06-7.14666E-19-1.04366E-19
 -1      1046 9.28854E-05-2.57457E-05-2.87745E-05 1.19950E-06-3.96002E-19 8.33823E-19
 -1      1047 9.35127E-05-2.63520E-05-2.87834E-05 9.55348E-07-4.95202E-19 9.25138E-19
 -1      1048 9.39947E-05-2.68539E-05-2.87748E-05 7.43633E-07-7.53587E-19-1.55424E-19
 -1      1049 9.43605E-05-2.72624E-05-2.87565E-05 5.65704E-07-7.65792E-19 4.44880E-19
 -1      1050 9.46345E-05-2.75900E-05-2.87335E-05 4.20243E-07 6.36996E-19 7.60697E-19
 -1      1051 9.48366E-05-2.78486E-05-2.87092E-05 3.04266E-07 8.81960E-19 6.73315E-19
 -1      1052 9.49830E-05-2.80497E-05-2.86858E-05 2.13944E-07 6.58304E-19 1.09683E-18
 -1      1053 9.50869E-05-2.82037E-05-2.86643E-05 1.45194E-07-5.92391E-20 2.05325E-18
 -1      1054 9.51588E-05-2.83195E-05-2.86454E-05 9.40660E-08-2.17187E-19 1.02500E-18
 -1      1055 9.52069E-05-2.84052E-05-2.86293E-05 5.69713E-08 3.05317E-19 6.45333E-20
 -1      1056 9.52376E-05-2.84673E-05-2.86159E-05 3.07935E-08-4.10988E-19 8.15066E-19
 -1      1057 9.52559E-05-2.85112E-05-2.86049E-05 1.29181E-08-6.13160E-19-1.04395E-20
 -1      1058 9.52656E-05-2.85413E-05-2.85961E-05 1.21402E-09-6.19996E-19-2.97223E-19
 -1      1059 9.52695E-05-2.85613E-05-2.85892E-05-6.01252E-09 6.54944E-19 4.78661E-19
 -1      1060 9.52695E-05-2.85739E-05-2.85839E-05-1.00752E-08 3.96512E-19 9.41244E-19
 -1      1061 9.52673E-05-2.85812E-05-2.85798E-05-1.19680E-08 8.70708E-20 1.51647E-18
 -1      1062 9.52638E-05-2.85849E-05-2.85767E-05-1.24509E-08-6.34391E-19 2.05489E-18
 -1      1063 9.52609E-05-2.85861E-05-2.85749E-05-1.18363E-08 8.45791E-19-3.83087E-20
 -1      1064 7.08409E-05-1.61708E-05-2.34148E-05 5.96203E-06-8.53296E-19 1.16298E-18
 -1      1065 8.59449E-05-2.68571E-05-2.53295E-05-1.48000E-05 5.14281E-19 1.51515E-18
 -1      1066 8.33725E-05-1.97404E-05-2.72727E-05 2.84997E-06-1.27754E-18-3.78225E-19
 -1      1067 9.52589E-05-2.85876E-05-2.85734E-05-5.41054E-09-2.73804E-19-2.74867E-18
 -1      1068 9.52621E-05-2.85878E-05-2.85747E-05 3.51394E-09 2.46520E-19 3.93956E-19
 -1      1069 9.52638E-05-2.85878E-05-2.85754E-05-2.39311E-09 1.00435E-18-5.77338E-19
 -1      1070 7.21954E-05-1.64267E-05-2.38842E-05-3.69294E-06-4.06189E-19-2.02118E-19
 -1      1071 8.65286E-05-2.13958E-05-2.79142E-05 2.94652E-07-3.44452E-19 2.63985E-19
 -1      1072 8.06071E-05-2.16527E-05-2.52534E-05-1.06344E-05 1.38684E-19 6.64010E-19
 -1      1073 8.45938E-05-2.16519E-05-2.69718E-05-5.80050E-06 1.09616E-19-2.17290E-19
 -1      1074 8.64037E-05-2.20507E-05-2.75801E-05-4.09703E-06-7.50929E-19-8.53186E-20
 -1      1075 8.79968E-05-2.26411E-05-2.80099E-05-2.89752E-06-2.45305E-20 4.85284E-19
 -1      1076 8.93873E-05-2.33400E-05-2.83063E-05-2.05087E-06-1.48678E-19-9.67730E-20
 -1      1077 9.05820E-05-2.40749E-05-2.85033E-05-1.45234E-06 4.33300E-20-1.11688E-18
 -1      1078 9.15915E-05-2.47945E-05-2.86275E-05-1.02851E-06 1.66334E-19-1.95066E-18
 -1      1079 9.24300E-05-2.54648E-05-2.86995E-05-7.27858E-07-3.03186E-19-2.42669E-18
 -1      1080 9.31143E-05-2.60658E-05-2.87352E-05-5.14191E-07-5.98996E-19-1.56304E-18
 -1      1081 9.36630E-05-2.65880E-05-2.87465E-05-3.62049E-07-1.38465E-18-2.14650E-18
 -1      1082 9.40953E-05-2.70300E-05-2.87423E-05-2.53533E-07-1.16324E-18-1.66860E-18
 -1      1083 9.44296E-05-2.73956E-05-2.87289E-05-1.76054E-07-9.35988E-19-9.74357E-19
 -1      1084 9.46834E-05-2.76917E-05-2.87107E-05-1.20747E-07-2.09166E-19-4.69328E-19
 -1      1085 9.48722E-05-2.79269E-05-2.86908E-05-8.13483E-08 8.39825E-19 2.45973E-19
 -1      1086 9.50097E-05-2.81102E-05-2.86712E-05-5.34110E-08 1.17869E-18-6.51042E-19
 -1      1087 9.51073E-05-2.82503E-05-2.86530E-05-3.37540E-08 1.01295E-18-1.28271E-18
 -1      1088 9.51744E-05-2.83554E-05-2.86367E-05-2.00855E-08 8.35966E-19-1.79700E-18
 -1      1089 9.52189E-05-2.84326E-05-2.86227E-05-1.07416E-08 3.01479E-19-1.25872E-18
 -1      1090 9.52468E-05-2.84879E-05-2.86109E-05-4.50653E-09-2.32435E-19-5.28887E-19
 -1      1091 9.52629E-05-2.85266E-05-2.86013E-05-4.87949E-10 7.50767E-19-4.91733E-19
 -1      1092 9.52707E-05-2.85526E-05-2.85935E-05 1.97026E-09-3.00835E-19-9.84189E-19
 -1      1093 9.52731E-05-2.85693E-05-2.85873E-05 3.35079E-09-1.28854E-18-3.63558E-19
 -1      1094 9.52720E-05-2.85795E-05-2.85825E-05 4.00167E-09 3.48063E-19-2.50060E-18
 -1      1095 9.52687E-05-2.85850E-05-2.85787E-05 4.19227E-09-8.15494E-19-2.35028E-18
 -1      1096 8.99583E-05-2.34858E-05-2.84880E-05 6.13799E-07-1.55940E-19 4.63150E-19
 -1      1097 9.11858E-05-2.43890E-05-2.86270E-05 6.18495E-07-6.00223E-19 6.32757E-19
 -1      1098 9.21665E-05-2.51852E-05-2.87061E-05 5.71101E-07-1.08630E-18 4.31923E-19
 -1      1099 9.29432E-05-2.58721E-05-2.87446E-05 4.97087E-07-7.81863E-19 4.60224E-19
 -1      1100 9.35517E-05-2.64531E-05-2.87564E-05 4.13718E-07-4.07029E-19 1.07516E-19
 -1      1101 9.40225E-05-2.69352E-05-2.87516E-05 3.31854E-07-1.29706E-18 6.71936E-19
 -1      1102 9.43817E-05-2.73284E-05-2.87370E-05 2.57636E-07 1.23048E-19 6.42717E-19
 -1      1103 9.46516E-05-2.76436E-05-2.87177E-05 1.93931E-07 4.35898E-20 2.09135E-18
 -1      1104 9.48510E-05-2.78921E-05-2.86966E-05 1.41482E-07 9.17794E-19 2.85721E-18
 -1      1105 9.49954E-05-2.80849E-05-2.86759E-05 9.97599E-08 4.61565E-19 1.25701E-18
 -1      1106 9.50976E-05-2.82319E-05-2.86567E-05 6.75681E-08 4.11677E-19 6.99702E-19
 -1      1107 9.51680E-05-2.83420E-05-2.86397E-05 4.34351E-08 5.22620E-19-2.95744E-19
 -1      1108 9.52146E-05-2.84229E-05-2.86250E-05 2.58628E-08-1.60209E-19-7.83833E-20
 -1      1109 9.52441E-05-2.84810E-05-2.86127E-05 1.34642E-08 5.35211E-19-9.70496E-19
 -1      1110 9.52612E-05-2.85217E-05-2.86026E-05 5.03114E-09 1.32041E-19-1.81836E-18
 -1      1111 9.52698E-05-2.85492E-05-2.85945E-05-4.44306E-10-4.84628E-19-2.00458E-18
 -1      1112 9.52727E-05-2.85671E-05-2.85881E-05-3.77516E-09-4.22752E-19-6.37716E-19
 -1      1113 9.52719E-05-2.85781E-05-2.85831E-05-5.60366E-09 4.29404E-19 1.48204E-19
 -1      1114 9.52690E-05-2.85842E-05-2.85792E-05-6.45136E-09-6.00956E-19-5.28422E-19
 -1      1115 8.41441E-05-2.02346E-05-2.73911E-05-1.27159E-07-9.14290E-19 4.41564E-19
 -1      1116 7.71706E-05-1.77092E-05-2.54889E-05-1.92795E-06-2.31706E-19 3.43513E-19
 -1      1117 9.52628E-05-2.85870E-05-2.85753E-05-7.20192E-09 2.17504E-19-1.12850E-18
 -1      1118 8.26668E-05-2.14670E-05-2.62208E-05-7.82417E-06 3.23097E-20 2.21211E-19
 -1      1119 8.11267E-05-1.90246E-05-2.66205E-05-8.29385E-07-6.52620E-19 3.79336E-19
 -1      1120 8.84302E-05-2.24838E-05-2.82627E-05 5.21583E-07-3.18022E-19-6.05839E-20
 -1      1121 9.52659E-05-2.85861E-05-2.85771E-05-6.75054E-09 1.86756E-19-2.13576E-18
 -1      1122 1.28440E-04 2.91261E-10-4.62765E-05-4.23054E-05-3.26955E-19 3.85929E-18
 -1      1123 9.82896E-05 8.97062E-11-4.10723E-05-2.16061E-05-1.19643E-19-1.70746E-18
 -1      1124 9.11970E-05 5.53450E-11-3.86193E-05-1.33297E-05-6.02452E-20-3.51390E-18
 -1      1125 8.64830E-05 4.39066E-11-3.67017E-05-7.71685E-06-2.37169E-20-4.06191E-18
 -1      1126 8.22527E-05 3.61115E-11-3.49488E-05-3.16882E-06 0.00000E+00-4.17355E-18
 -1      1127 7.80735E-05 2.77007E-11-3.32504E-05 4.14403E-07 1.02703E-20-4.02061E-18
 -1      1128 7.39894E-05 1.73732E-11-3.16290E-05 2.87442E-06 1.78936E-20-3.83556E-18
 -1      1129 7.03795E-05 6.07830E-12-3.02322E-05 4.03291E-06 3.10226E-20-3.60725E-18
 -1      1130 6.79152E-05-3.60726E-12-2.93079E-05 3.88877E-06 2.85874E-20-3.39705E-18
 -1      1131 6.72260E-05-8.60235E-12-2.90840E-05 2.82458E-06 4.59383E-20-3.14209E-18
 -1      1132 6.86978E-05-6.83833E-12-2.96998E-05 1.54648E-06 5.44748E-20-2.76779E-18
 -1      1133 7.22896E-05 1.51723E-12-3.11380E-05 8.87170E-07 6.08805E-20-2.20038E-18
 -1      1134 7.76606E-05 1.50222E-11-3.32787E-05 1.54531E-06 7.30566E-20-1.33483E-18
 -1      1135 8.43892E-05 3.22190E-11-3.59593E-05 4.05912E-06 8.83032E-20-3.55886E-20
 -1      1136 9.21508E-05 5.46143E-11-3.90111E-05 8.93542E-06 1.00162E-19 2.03449E-18
 -1      1137 1.01571E-04 9.44948E-11-4.24542E-05 1.75041E-05 7.47507E-20 5.47625E-18
 -1      1138 1.22433E-04 2.08523E-10-4.67682E-05 3.42578E-05 6.60686E-20 1.12566E-17
 -1      1139 1.43991E-04-2.91259E-05-4.48712E-05-2.67571E-05-1.12190E-18 7.21926E-18
 -1      1140 1.13232E-04-3.35786E-05-3.63966E-05-2.87282E-07-4.12664E-19 4.64820E-18
 -1      1141 1.07795E-04-3.22861E-05-3.30550E-05 4.94733E-07-1.60751E-19 1.34191E-18
 -1      1142 1.06092E-04-3.18788E-05-3.18202E-05 2.37349E-07-2.71067E-20-6.99782E-19
 -1      1143 1.04154E-04-3.12675E-05-3.10747E-05 3.83073E-08-5.48843E-20-2.17939E-18
 -1      1144 1.00979E-04-3.02871E-05-3.01163E-05-1.33409E-07-4.68482E-20-2.66113E-18
 -1      1145 9.63450E-05-2.88970E-05-2.87951E-05-2.73596E-07-3.85474E-20-3.72872E-18
 -1      1146 9.08043E-05-2.72633E-05-2.72650E-05-3.40643E-07-4.00852E-21-4.01891E-18
 -1      1147 8.56288E-05-2.57537E-05-2.58713E-05-2.90971E-07 1.15938E-20-4.68113E-18
 -1      1148 8.24038E-05-2.48197E-05-2.50216E-05-1.20957E-07-1.21450E-19-6.21720E-18
 -1      1149 8.23120E-05-2.47949E-05-2.50096E-05 1.10555E-07 5.09543E-20-7.27319E-18
 -1      1150 8.54988E-05-2.57190E-05-2.58700E-05 3.08487E-07 2.60426E-19-6.19589E-18
 -1      1151 9.09782E-05-2.73131E-05-2.73579E-05 4.00102E-07-4.57696E-20-7.27691E-18
 -1      1152 9.71487E-05-2.91193E-05-2.90656E-05 3.74357E-07 5.99359E-20-7.68815E-18
 -1      1153 1.02528E-04-3.07065E-05-3.05959E-05 2.72423E-07-1.15144E-21-7.29867E-18
 -1      1154 1.06240E-04-3.18129E-05-3.16926E-05 1.49912E-07-1.30559E-19-6.98972E-18
 -1      1155 1.08085E-04-3.23732E-05-3.22749E-05 4.65726E-08-1.77453E-19-8.21905E-18
 -1      1156 1.08336E-04-3.24620E-05-3.23975E-05-2.19648E-08-1.14664E-20-8.46813E-18
 -1      1157 1.07468E-04-3.22161E-05-3.21832E-05-5.73187E-08-1.02420E-19-8.89850E-18
 -1      1158 1.05957E-04-3.17756E-05-3.17656E-05-6.85237E-08 2.02023E-19-8.39126E-18
 -1      1159 1.04185E-04-3.12536E-05-3.12576E-05-6.53165E-08-2.01379E-20-7.82489E-18
 -1      1160 1.02412E-04-3.07283E-05-3.07389E-05-5.52238E-08-2.01755E-19-6.77466E-18
 -1      1161 1.00792E-04-3.02462E-05-3.02588E-05-4.30640E-08-9.61585E-20-7.57729E-18
 -1      1162 9.93993E-05-2.98300E-05-2.98421E-05-3.14703E-08-1.78639E-19-8.00364E-18
 -1      1163 9.82543E-05-2.94867E-05-2.94971E-05-2.16221E-08 1.09418E-19-6.49608E-18
 -1      1164 9.73467E-05-2.92138E-05-2.92220E-05-1.38505E-08 2.18479E-20-3.00979E-18
 -1      1165 9.66498E-05-2.90036E-05-2.90098E-05-8.05049E-09 2.53220E-19-2.18754E-18
 -1      1166 9.61305E-05-2.88465E-05-2.88510E-05-3.93075E-09 5.87803E-20-3.67032E-18
 -1      1167 9.57551E-05-2.87326E-05-2.87356E-05-1.15009E-09 1.83897E-19-3.62730E-18
 -1      1168 9.54928E-05-2.86526E-05-2.86546E-05 6.14525E-10 1.70023E-19-2.80982E-18
 -1      1169 9.53168E-05-2.85988E-05-2.86000E-05 1.63962E-09-3.13203E-19-2.79461E-18
 -1      1170 9.52048E-05-2.85643E-05-2.85649E-05 2.14777E-09 2.11792E-19-3.28992E-18
 -1      1171 9.51390E-05-2.85438E-05-2.85440E-05 2.31039E-09 1.06815E-19-2.40347E-18
 -1      1172 9.51055E-05-2.85332E-05-2.85332E-05 2.25478E-09-3.66072E-20-4.35094E-18
 -1      1173 9.50938E-05-2.85292E-05-2.85290E-05 2.07237E-09 2.37345E-19-5.22310E-18
 -1      1174 9.50960E-05-2.85295E-05-2.85293E-05 1.82656E-09 3.37158E-19-4.46411E-18
 -1      1175 9.51065E-05-2.85324E-05-2.85322E-05 1.55961E-09-1.90304E-19-4.17050E-18
 -1      1176 9.51215E-05-2.85367E-05-2.85365E-05 1.29827E-09-2.62004E-19-3.89116E-18
 -1      1177 9.51382E-05-2.85416E-05-2.85414E-05 1.05823E-09 5.51982E-20-3.47454E-18
 -1      1178 9.51549E-05-2.85465E-05-2.85463E-05 8.47577E-10-7.95228E-20-5.31550E-18
 -1      1179 9.51707E-05-2.85512E-05-2.85510E-05 6.69317E-10-4.09457E-19-7.82067E-18
 -1      1180 9.51850E-05-2.85555E-05-2.85553E-05 5.23210E-10-1.14112E-19-9.12292E-18
 -1      1181 9.51975E-05-2.85592E-05-2.85591E-05 4.06972E-10-1.41428E-19-5.88410E-18
 -1      1182 9.52082E-05-2.85624E-05-2.85623E-05 3.16919E-10-4.92664E-20-3.99814E-18
 -1      1183 9.52173E-05-2.85651E-05-2.85651E-05 2.47992E-10 3.74691E-19-2.12074E-18
 -1      1184 9.52248E-05-2.85674E-05-2.85673E-05 1.92821E-10 1.08826E-19 1.65002E-18
 -1      1185 9.52306E-05-2.85691E-05-2.85690E-05 1.39093E-10 1.68007E-20 7.52475E-19
 -1      1186 9.52348E-05-2.85704E-05-2.85703E-05 6.22953E-11 1.08358E-19 1.44923E-18
 -1      1187 9.52371E-05-2.85710E-05-2.85710E-05-8.59181E-11-3.49572E-19 9.30134E-19
 -1      1188 9.52375E-05-2.85713E-05-2.85714E-05-1.17484E-10 4.02892E-19 1.46588E-18
 -1      1189 1.49682E-04-4.27893E-05-4.52568E-05 1.22686E-05-2.13902E-19 1.55930E-17
 -1      1190 1.22623E-04-3.59916E-05-3.92338E-05 4.39412E-07 2.43787E-20 1.43530E-17
 -1      1191 1.22328E-04-3.65096E-05-3.73586E-05-1.39281E-07 9.56287E-20 1.24014E-17
 -1      1192 1.24827E-04-3.73839E-05-3.74458E-05-2.76738E-07 8.48026E-21 1.13439E-17
 -1      1193 1.27068E-04-3.80393E-05-3.78069E-05-3.48370E-07-2.78925E-20 1.06082E-17
 -1      1194 1.26606E-04-3.78975E-05-3.74277E-05-2.79601E-07 3.84937E-20 9.98816E-18
 -1      1195 1.21229E-04-3.63594E-05-3.57237E-05 3.19471E-08-2.89249E-20 1.04660E-17
 -1      1196 1.10253E-04-3.32007E-05-3.26935E-05 5.66707E-07-1.41345E-19 1.11097E-17
 -1      1197 9.63545E-05-2.91038E-05-2.91780E-05 1.03613E-06-1.11130E-19 1.08169E-17
 -1      1198 8.57188E-05-2.58063E-05-2.66720E-05 1.01238E-06 1.52426E-19 8.57314E-18
 -1      1199 8.44716E-05-2.52304E-05-2.64707E-05 3.81548E-07 2.79256E-21 6.94413E-18
 -1      1200 9.35495E-05-2.78660E-05-2.87170E-05-4.32931E-07 9.31074E-21 6.01753E-18
 -1      1201 1.07801E-04-3.22254E-05-3.22921E-05-9.01252E-07 1.37760E-19 4.46852E-18
 -1      1202 1.20418E-04-3.61316E-05-3.56384E-05-8.73664E-07-6.51818E-20 4.34189E-18
 -1      1203 1.27501E-04-3.83160E-05-3.77010E-05-5.65605E-07 6.90398E-20 4.12500E-18
 -1      1204 1.28847E-04-3.87162E-05-3.82609E-05-2.33896E-07 9.23167E-20 2.09571E-18
 -1      1205 1.26234E-04-3.79060E-05-3.76701E-05-4.98709E-09-1.40212E-19 3.03434E-18
 -1      1206 1.21676E-04-3.65158E-05-3.64449E-05 1.11130E-07-3.28349E-20 2.97499E-18
 -1      1207 1.16630E-04-3.49903E-05-3.50102E-05 1.49254E-07 2.22699E-19 9.35495E-19
 -1      1208 1.11914E-04-3.35715E-05-3.36282E-05 1.45671E-07-2.84802E-19 1.43781E-18
 -1      1209 1.07877E-04-3.23605E-05-3.24240E-05 1.24777E-07 5.04489E-20 2.09257E-18
 -1      1210 1.04597E-04-3.13781E-05-3.14354E-05 9.97435E-08-1.09624E-19 3.20425E-18
 -1      1211 1.02024E-04-3.06074E-05-3.06544E-05 7.64900E-08 3.47143E-20 4.18539E-18
 -1      1212 1.00053E-04-3.00171E-05-3.00538E-05 5.70564E-08 3.21029E-21 3.28988E-18
 -1      1213 9.85727E-05-2.95736E-05-2.96014E-05 4.16815E-08-1.69154E-20 3.97449E-18
 -1      1214 9.74805E-05-2.92461E-05-2.92668E-05 2.98998E-08 1.72744E-20 4.35037E-18
 -1      1215 9.66882E-05-2.90084E-05-2.90236E-05 2.10558E-08-3.23712E-19 4.48385E-18
 -1      1216 9.61243E-05-2.88391E-05-2.88500E-05 1.45172E-08-4.47207E-20 2.89015E-18
 -1      1217 9.57317E-05-2.87211E-05-2.87289E-05 9.74657E-09-2.81049E-19 2.89987E-18
 -1      1218 9.54659E-05-2.86411E-05-2.86466E-05 6.31283E-09 3.86248E-20 2.78973E-18
 -1      1219 9.52924E-05-2.85888E-05-2.85926E-05 3.87959E-09 3.08182E-19 9.17252E-19
 -1      1220 9.51851E-05-2.85564E-05-2.85589E-05 2.18833E-09 5.62252E-20 2.43564E-18
 -1      1221 9.51241E-05-2.85379E-05-2.85395E-05 1.04193E-09-1.65674E-19 5.71453E-18
 -1      1222 9.50948E-05-2.85290E-05-2.85300E-05 2.91004E-10-1.38152E-20 6.20463E-18
 -1      1223 9.50864E-05-2.85263E-05-2.85268E-05-1.77063E-10-1.78405E-19 8.47833E-18
 -1      1224 9.50910E-05-2.85276E-05-2.85278E-05-4.46602E-10-3.51575E-19 8.65950E-18
 -1      1225 9.51033E-05-2.85312E-05-2.85313E-05-5.80228E-10 4.47735E-19 2.15530E-18
 -1      1226 9.51194E-05-2.85360E-05-2.85359E-05-6.23932E-10 1.65855E-19-2.20527E-18
 -1      1227 9.51369E-05-2.85412E-05-2.85410E-05-6.11053E-10-2.64637E-19-3.39044E-19
 -1      1228 9.51542E-05-2.85463E-05-2.85462E-05-5.65385E-10-5.89757E-19 2.67853E-18
 -1      1229 9.51703E-05-2.85511E-05-2.85509E-05-5.03601E-10 2.03241E-19 2.34260E-18
 -1      1230 9.51847E-05-2.85555E-05-2.85553E-05-4.37170E-10-2.33288E-19 3.28550E-18
 -1      1231 9.51974E-05-2.85592E-05-2.85591E-05-3.73832E-10 7.53400E-20 1.82129E-18
 -1      1232 9.52082E-05-2.85625E-05-2.85623E-05-3.18692E-10 1.85171E-20 1.05889E-18
 -1      1233 9.52173E-05-2.85652E-05-2.85651E-05-2.74748E-10 2.46403E-19 1.20738E-18
 -1      1234 9.52248E-05-2.85674E-05-2.85673E-05-2.42590E-10-8.10635E-20 8.61879E-19
 -1      1235 9.52306E-05-2.85692E-05-2.85691E-05-2.18563E-10 3.01716E-19-1.48858E-18
 -1      1236 9.52348E-05-2.85704E-05-2.85703E-05-1.83117E-10 3.36394E-19-4.44540E-18
 -1      1237 9.52371E-05-2.85711E-05-2.85710E-05-7.55918E-11 2.75891E-19-7.42517E-18
 -1      1238 9.52374E-05-2.85712E-05-2.85714E-05 1.04988E-10-4.80154E-20-3.81434E-18
 -1      1239 9.52370E-05-2.85708E-05-2.85714E-05 1.00177E-10-3.99201E-18-3.30685E-19
 -1      1240 9.52372E-05-2.85712E-05-2.85710E-05 7.12122E-11-1.11184E-18-3.29429E-19
 -1      1241 9.52379E-05-2.85735E-05-2.85703E-05-1.07789E-10 6.32615E-18-4.73365E-20
 -1      1242 9.52390E-05-2.85773E-05-2.85692E-05-1.84377E-10 1.11496E-17 1.95780E-19
 -1      1243 9.52403E-05-2.85817E-05-2.85680E-05-2.00110E-10 4.25272E-18-1.41230E-18
 -1      1244 9.52416E-05-2.85859E-05-2.85668E-05-1.76366E-10-1.02020E-18 6.30727E-19
 -1      1245 9.52426E-05-2.85895E-05-2.85658E-05-1.31667E-10 1.31616E-18-7.91248E-21
 -1      1246 9.52433E-05-2.85918E-05-2.85651E-05-6.90558E-11-6.49252E-19-1.04830E-18
 -1      1247 9.52435E-05-2.85926E-05-2.85649E-05 6.59842E-13-5.02483E-18 4.38564E-19
 -1      1248 9.52433E-05-2.85917E-05-2.85651E-05 7.03013E-11-4.94258E-18-7.87549E-19
 -1      1249 9.52426E-05-2.85894E-05-2.85658E-05 1.32464E-10-1.20514E-17-9.47431E-19
 -1      1250 9.52415E-05-2.85859E-05-2.85668E-05 1.79328E-10-8.26097E-18 1.11387E-18
 -1      1251 9.52403E-05-2.85816E-05-2.85680E-05 2.00013E-10-4.22717E-18-2.25197E-20
 -1      1252 9.52390E-05-2.85772E-05-2.85693E-05 1.86316E-10-2.22949E-18 8.19617E-19
 -1      1253 9.52379E-05-2.85734E-05-2.85703E-05 1.29141E-10 9.82077E-19-6.46367E-19
 -1      1254 9.52373E-05-2.85713E-05-2.85710E-05-1.47314E-10-1.27941E-18-8.92184E-19
 -1      1255 9.52370E-05-2.85708E-05-2.85714E-05-1.13533E-10-1.32965E-18 6.27740E-20
 -1      1256 3.45069E-05-1.08353E-04 1.82781E-05-1.41626E-05 1.21399E-17 1.58006E-18
 -1      1257 1.81810E-05-6.91216E-05 1.04307E-05-2.60125E-05 1.71821E-17 6.37795E-18
 -1      1258 7.69255E-06-1.31683E-05-5.09094E-06-3.49921E-06 1.60733E-17 9.71801E-18
 -1      1259 3.20579E-05 2.20705E-05-2.47296E-05 4.81891E-05 1.47485E-17 1.36626E-17
 -1      1260 1.04752E-04 1.29773E-05-4.58667E-05 9.76246E-05 9.72055E-18 1.29867E-17
 -1      1261 2.06075E-04-3.15131E-05-6.43607E-05 1.12208E-04 3.92219E-18 7.79270E-18
 -1      1262 2.92776E-04-8.00452E-05-7.62891E-05 7.04502E-05 3.19120E-19-8.89385E-19
 -1      1263 3.18933E-04-9.49634E-05-8.00008E-05-1.02299E-05 1.04010E-18-9.66147E-18
 -1      1264 2.74894E-04-6.91890E-05-7.39565E-05-8.41709E-05 4.49182E-18-1.67585E-17
 -1      1265 1.82051E-04-1.94100E-05-6.04950E-05-1.13243E-04 9.18861E-18-1.90735E-17
 -1      1266 8.39851E-05 1.89776E-05-4.12028E-05-8.86029E-05 1.22439E-17-1.59242E-17
 -1      1267 2.14976E-05 1.66134E-05-1.99102E-05-3.37908E-05 1.28664E-17-1.11707E-17
 -1      1268 7.69188E-06-2.48074E-05-1.22653E-06 1.18132E-05 9.88657E-18-5.82843E-18
 -1      1269 2.26771E-05-7.85773E-05 1.21870E-05 2.58330E-05 4.03865E-18-1.69237E-18
 -1      1270 3.49709E-05-1.06560E-04 1.76521E-05 6.58195E-06-2.99850E-18-4.25555E-19
 -1      1271 2.82017E-05-9.10084E-05 1.48529E-05-1.70403E-05-9.17803E-18-1.90418E-18
 -1      1272 1.22510E-05-4.49930E-05 4.59277E-06-1.92521E-05-1.31400E-17-5.50317E-18
 -1      1273 9.08066E-06 4.58100E-06-1.09779E-05 1.13722E-05-1.47655E-17-9.79424E-18
 -1      1274 4.67187E-05 2.64639E-05-3.08109E-05 6.52053E-05-1.23404E-17-1.26326E-17
 -1      1275 1.31130E-04 4.16832E-06-5.14829E-05 1.06365E-04-7.64532E-18-1.17975E-17
 -1      1276 2.30738E-04-4.59409E-05-6.76590E-05 1.01033E-04-3.33435E-18-7.64447E-18
 -1      1277 2.98636E-04-8.65079E-05-7.67361E-05 4.23192E-05-4.72803E-19-1.38617E-18
 -1      1278 3.03778E-04-8.97541E-05-7.72333E-05-3.70660E-05-9.82002E-19 6.23713E-18
 -1      1279 2.44499E-04-5.35654E-05-6.97828E-05-9.58197E-05-4.16656E-18 1.28969E-17
 -1      1280 1.56923E-04-6.51919E-06-5.62858E-05-1.13325E-04-8.36530E-18 1.53160E-17
 -1      1281 7.34083E-05 2.45262E-05-3.91239E-05-8.72062E-05-1.23277E-17 1.46842E-17
 -1      1282 2.07775E-05 2.03497E-05-2.00810E-05-3.68550E-05-1.52906E-17 1.23785E-17
 -1      1283 7.32986E-06-1.81172E-05-2.69980E-06 7.48681E-06-1.32730E-17 8.23655E-18
 -1      1284 1.91946E-05-6.93281E-05 1.05201E-05 2.40533E-05-3.92769E-18 2.31155E-18
 -1      1285 3.45187E-05-1.07011E-04 1.79410E-05 1.21178E-05 6.50140E-18-3.03661E-19
 -1      1286 1.17585E-04-2.51487E-05-4.22996E-05-1.64568E-05-4.39187E-19 2.25607E-18
 -1      1287 1.00439E-04-8.40373E-06-3.95813E-05-1.74806E-05-7.45601E-19-2.54523E-18
 -1      1288 1.04023E-04-8.64645E-06-4.11955E-05-2.37654E-05-1.15938E-18-1.60327E-18
 -1      1289 9.32575E-05-5.47188E-06-3.76546E-05-1.18799E-05-5.29396E-19-3.78285E-18
 -1      1290 9.59013E-05-5.50676E-06-3.86791E-05-1.50973E-05-6.68521E-19-3.34096E-18
 -1      1291 1.02511E-04-1.32433E-05-3.83290E-05-1.59428E-05-1.20779E-18-2.18090E-18
 -1      1292 8.82764E-05-4.38265E-06-3.59375E-05-6.84991E-06-1.98470E-19-4.12976E-18
 -1      1293 9.05090E-05-4.37095E-06-3.68273E-05-9.34895E-06-3.42413E-19-3.99993E-18
 -1      1294 9.52609E-05-9.79952E-06-3.67111E-05-1.09856E-05-7.31876E-19-3.14255E-18
 -1      1295 8.36131E-05-3.60557E-06-3.42709E-05-2.54923E-06 4.45751E-20-4.15771E-18
 -1      1296 8.58244E-05-3.61695E-06-3.51307E-05-4.60408E-06-1.85288E-20-4.19347E-18
 -1      1297 8.97883E-05-7.98852E-06-3.51374E-05-6.18299E-06-2.16033E-19-3.45531E-18
 -1      1298 7.88888E-05-2.75722E-06-3.26406E-05 8.29753E-07 2.43046E-19-3.98611E-18
 -1      1299 8.11293E-05-2.79042E-06-3.34732E-05-7.20747E-07 1.75812E-19-4.08990E-18
 -1      1300 8.45767E-05-6.43408E-06-3.35652E-05-2.06218E-06 1.61955E-19-3.45349E-18
 -1      1301 7.40700E-05-1.70273E-06-3.10758E-05 3.13992E-06 4.36116E-19-3.80428E-18
 -1      1302 7.62785E-05-1.75860E-06-3.18563E-05 2.15569E-06 4.11976E-19-3.92331E-18
 -1      1303 7.91570E-05-4.65171E-06-3.20030E-05 1.19238E-06 5.21653E-19-3.37416E-18
 -1      1304 6.98256E-05-5.51597E-07-2.97948E-05 4.11146E-06 6.03352E-19-3.58650E-18
 -1      1305 7.16414E-05-6.13732E-07-3.04026E-05 3.78013E-06 5.56077E-19-3.71105E-18
 -1      1306 7.37321E-05-2.59242E-06-3.05572E-05 3.31003E-06 7.96198E-19-3.17101E-18
 -1      1307 6.70304E-05 4.31049E-07-2.90387E-05 3.81501E-06 7.31386E-19-3.36944E-18
 -1      1308 6.80439E-05 3.82272E-07-2.93483E-05 4.04661E-06 7.00179E-19-3.51003E-18
 -1      1309 6.91442E-05-5.92527E-07-2.94428E-05 4.07708E-06 1.08518E-18-3.00711E-18
 -1      1310 6.65251E-05 9.28547E-07-2.90195E-05 2.71059E-06 8.58627E-19-3.08652E-18
 -1      1311 6.63946E-05 9.10663E-07-2.89304E-05 3.23369E-06 8.10333E-19-3.25467E-18
 -1      1312 6.64600E-05 8.08995E-07-2.88883E-05 3.63962E-06 1.26466E-18-2.79286E-18
 -1      1313 6.87542E-05 7.31389E-07-2.98428E-05 1.57591E-06 9.56671E-19-2.70614E-18
 -1      1314 6.73527E-05 7.53066E-07-2.93170E-05 1.99754E-06 9.15087E-19-2.94767E-18
 -1      1315 6.65874E-05 1.11205E-06-2.90735E-05 2.55905E-06 1.45724E-18-2.53103E-18
 -1      1316 7.34720E-05-1.25930E-07-3.14333E-05 1.25382E-06 1.04439E-18-2.09772E-18
 -1      1317 7.09906E-05-8.12458E-08-3.05296E-05 1.19227E-06 9.85523E-19-2.47320E-18
 -1      1318 6.98323E-05 1.30765E-07-3.00504E-05 1.68129E-06 1.58269E-18-2.14669E-18
 -1      1319 8.02651E-05-1.50039E-06-3.36922E-05 2.39134E-06 1.17949E-18-1.15983E-18
 -1      1320 7.68989E-05-1.43845E-06-3.24639E-05 1.55074E-06 1.08674E-18-1.70079E-18
 -1      1321 7.58667E-05-1.96698E-06-3.17487E-05 1.79803E-06 1.72673E-18-1.46766E-18
 -1      1322 8.84301E-05-3.22731E-06-3.63983E-05 5.41730E-06 1.26007E-18 2.62210E-19
 -1      1323 8.44982E-05-3.16232E-06-3.49563E-05 3.58874E-06 1.17822E-18-5.75612E-19
 -1      1324 8.40659E-05-4.89769E-06-3.40146E-05 3.46703E-06 1.86932E-18-4.89082E-19
 -1      1325 9.77789E-05-5.45945E-06-3.93885E-05 1.07276E-05 1.20522E-18 2.49726E-18
 -1      1326 9.33275E-05-5.36553E-06-3.77867E-05 7.59073E-06 1.16202E-18 1.18796E-18
 -1      1327 9.38454E-05-8.59680E-06-3.66126E-05 6.93196E-06 1.89222E-18 1.11390E-18
 -1      1328 1.09761E-04-9.78309E-06-4.26298E-05 1.94300E-05 8.59103E-19 6.08265E-18
 -1      1329 1.04009E-04-9.08482E-06-4.07909E-05 1.38070E-05 9.03678E-19 3.97507E-18
 -1      1330 1.05636E-04-1.39960E-05-3.92883E-05 1.20933E-05 1.65367E-18 3.47453E-18
 -1      1331 1.42917E-04-2.96842E-05-4.52731E-05 2.64484E-05 2.28064E-19 1.15239E-17
 -1      1332 1.18399E-04-1.86957E-05-4.33471E-05 1.97325E-05 3.19331E-19 7.90875E-18
 -1      1333 1.20725E-04-2.47840E-05-4.11011E-05 1.55145E-05 1.27595E-18 6.57742E-18
 -1      1334 1.24647E-04-3.46238E-05-4.13852E-05 4.04293E-06 5.40619E-19 1.15201E-17
 -1      1335 1.19789E-04-3.47762E-05-3.79327E-05-6.88163E-06-1.06006E-18 2.88319E-18
 -1      1336 1.13740E-04-3.26355E-05-3.53313E-05-4.05880E-06-9.14849E-19 1.58173E-18
 -1      1337 1.11247E-04-3.27354E-05-3.38968E-05-1.95714E-06-7.25722E-19 1.28175E-18
 -1      1338 1.09430E-04-3.26041E-05-3.29603E-05-1.66791E-06-7.20865E-19 1.54081E-19
 -1      1339 1.13904E-04-3.27040E-05-3.51676E-05-6.58048E-06-1.56680E-18 1.79227E-19
 -1      1340 1.07765E-04-3.22757E-05-3.23211E-05-1.07403E-06-5.34474E-19-1.16573E-19
 -1      1341 1.06706E-04-3.20902E-05-3.19167E-05-1.13892E-06-4.23325E-19-8.91926E-19
 -1      1342 1.09505E-04-3.25831E-05-3.30510E-05-3.00790E-06-1.19666E-18-1.91138E-19
 -1      1343 1.05490E-04-3.17939E-05-3.15139E-05-1.31850E-06-2.71932E-19-1.22423E-18
 -1      1344 1.04183E-04-3.14377E-05-3.11228E-05-1.45804E-06-3.07399E-19-1.69768E-18
 -1      1345 1.06932E-04-3.22645E-05-3.19788E-05-2.54375E-06-7.78926E-19-7.69106E-19
 -1      1346 1.02874E-04-3.10716E-05-3.07154E-05-1.94189E-06-2.19782E-19-1.84154E-18
 -1      1347 1.00952E-04-3.04673E-05-3.01697E-05-2.10392E-06-2.28785E-19-2.05750E-18
 -1      1348 1.04539E-04-3.16971E-05-3.11737E-05-3.35019E-06-5.27998E-19-1.27425E-18
 -1      1349 9.93531E-05-2.99738E-05-2.96940E-05-2.55731E-06-2.07435E-19-2.27007E-18
 -1      1350 9.68720E-05-2.91437E-05-2.90040E-05-2.66669E-06-1.82317E-19-2.52175E-18
 -1      1351 1.01710E-04-3.08080E-05-3.03456E-05-4.49629E-06-5.28246E-19-1.30339E-18
 -1      1352 9.50771E-05-2.85446E-05-2.84949E-05-2.77335E-06-1.46547E-19-2.55915E-18
 -1      1353 9.24677E-05-2.76363E-05-2.77823E-05-2.74940E-06-2.25101E-19-2.88092E-18
 -1      1354 9.83447E-05-2.95784E-05-2.94560E-05-5.20374E-06-3.00992E-19-1.38076E-18
 -1      1355 9.08209E-05-2.70528E-05-2.73362E-05-2.28110E-06-1.75650E-19-3.14286E-18
 -1      1356 8.87730E-05-2.63195E-05-2.67857E-05-2.08162E-06-3.46542E-19-3.60566E-18
 -1      1357 9.48816E-05-2.81914E-05-2.86115E-05-4.79523E-06-6.06846E-19-1.84976E-18
 -1      1358 8.77437E-05-2.59378E-05-2.65178E-05-1.04200E-06-5.05123E-19-3.73330E-18
 -1      1359 8.69321E-05-2.56389E-05-2.63037E-05-7.07143E-07-5.80052E-19-4.31945E-18
 -1      1360 9.21584E-05-2.70351E-05-2.79880E-05-2.97398E-06-7.41127E-19-2.27954E-18
 -1      1361 8.68818E-05-2.56123E-05-2.62961E-05 6.08706E-07-4.18818E-19-4.30477E-18
 -1      1362 8.76315E-05-2.58762E-05-2.65004E-05 9.60612E-07 1.45068E-19-4.50119E-18
 -1      1363 9.10456E-05-2.65375E-05-2.77482E-05-9.67565E-08-6.14946E-19-2.20760E-18
 -1      1364 8.85976E-05-2.62227E-05-2.67603E-05 2.09714E-06 2.41451E-19-4.87478E-18
 -1      1365 9.07015E-05-2.69695E-05-2.73302E-05 2.33607E-06-1.95671E-19-4.98752E-18
 -1      1366 9.19654E-05-2.69163E-05-2.79643E-05 2.90203E-06-8.72709E-20-2.89284E-18
 -1      1367 9.23636E-05-2.75555E-05-2.77841E-05 2.92985E-06-4.40169E-19-5.23300E-18
 -1      1368 9.51872E-05-2.85419E-05-2.85562E-05 2.99003E-06-3.40057E-19-5.71808E-18
 -1      1369 9.46214E-05-2.80299E-05-2.85791E-05 5.00009E-06-5.17974E-19-4.02255E-18
 -1      1370 9.70404E-05-2.91671E-05-2.90811E-05 2.94826E-06-2.04264E-20-5.57840E-18
 -1      1371 9.98329E-05-3.01167E-05-2.98567E-05 2.85095E-06 2.00112E-20-5.63063E-18
 -1      1372 9.81496E-05-2.94636E-05-2.94260E-05 5.64091E-06-2.72391E-19-3.98878E-18
 -1      1373 1.01423E-04-3.06188E-05-3.03300E-05 2.33488E-06 1.22998E-19-5.73571E-18
 -1      1374 1.03615E-04-3.13372E-05-3.09507E-05 2.15247E-06-3.39309E-20-5.55145E-18
 -1      1375 1.01563E-04-3.07703E-05-3.02946E-05 4.92934E-06-1.34731E-19-4.09942E-18
 -1      1376 1.04682E-04-3.16415E-05-3.12894E-05 1.42953E-06-3.90773E-19-5.38840E-18
 -1      1377 1.06017E-04-3.20556E-05-3.16771E-05 1.23570E-06-3.03539E-19-5.70201E-18
 -1      1378 1.04146E-04-3.16698E-05-3.10046E-05 3.40686E-06-8.01373E-20-4.17412E-18
 -1      1379 1.06503E-04-3.21642E-05-3.18512E-05 5.36675E-07-1.52999E-19-5.61321E-18
 -1      1380 1.07002E-04-3.22973E-05-3.20040E-05 3.77806E-07-1.69129E-19-5.93396E-18
 -1      1381 1.05604E-04-3.20933E-05-3.14535E-05 1.68375E-06-4.16198E-19-3.82315E-18
 -1      1382 1.06987E-04-3.22528E-05-3.20264E-05-1.66599E-07-5.67777E-21-5.81848E-18
 -1      1383 1.06830E-04-3.21766E-05-3.19900E-05-2.73843E-07-2.01544E-19-5.89838E-18
 -1      1384 1.05986E-04-3.21155E-05-3.16215E-05 1.91521E-07-5.10834E-20-3.17176E-18
 -1      1385 1.06457E-04-3.20323E-05-3.18974E-05-6.26064E-07-1.60561E-19-5.95149E-18
 -1      1386 1.05874E-04-3.18273E-05-3.17348E-05-6.84561E-07-1.84800E-19-6.19983E-18
 -1      1387 1.05531E-04-3.18648E-05-3.15491E-05-8.75751E-07-1.74204E-19-3.78867E-18
 -1      1388 1.05287E-04-3.16301E-05-3.15700E-05-8.64513E-07 5.22100E-20-6.26285E-18
 -1      1389 1.04485E-04-3.13642E-05-3.13404E-05-8.85672E-07 1.46720E-19-6.06531E-18
 -1      1390 1.04533E-04-3.14636E-05-3.13054E-05-1.50350E-06-1.30789E-19-4.05214E-18
 -1      1391 1.03806E-04-3.11496E-05-3.11413E-05-9.36742E-07 4.38605E-19-6.15847E-18
 -1      1392 1.02940E-04-3.08710E-05-3.08901E-05-9.33277E-07-3.26724E-20-5.79770E-18
 -1      1393 1.03253E-04-3.10046E-05-3.09624E-05-1.77121E-06 2.85050E-19-4.43560E-18
 -1      1394 1.02256E-04-3.06622E-05-3.06850E-05-9.00715E-07-9.00192E-20-5.22569E-18
 -1      1395 1.01425E-04-3.04005E-05-3.04423E-05-8.83262E-07 3.14577E-21-5.20633E-18
 -1      1396 1.01893E-04-3.05488E-05-3.05804E-05-1.78636E-06 3.35129E-19-4.24487E-18
 -1      1397 1.00791E-04-3.02112E-05-3.02495E-05-8.04265E-07-6.58874E-20-5.23373E-18
 -1      1398 1.00052E-04-2.99819E-05-3.00323E-05-7.80475E-07-3.05780E-20-5.51741E-18
 -1      1399 1.00588E-04-3.01312E-05-3.02027E-05-1.64770E-06-1.72195E-19-3.38806E-18
 -1      1400 9.94964E-05-2.98185E-05-2.98619E-05-6.81682E-07 3.61837E-19-5.01667E-18
 -1      1401 9.88724E-05-2.96273E-05-2.96778E-05-6.56486E-07 4.96123E-19-4.37077E-18
 -1      1402 9.94146E-05-2.97686E-05-2.98563E-05-1.43127E-06 3.98976E-19-2.78658E-18
 -1      1403 9.84056E-05-2.94916E-05-2.95339E-05-5.55036E-07 8.13075E-19-3.85980E-18
 -1      1404 9.78997E-05-2.93382E-05-2.93841E-05-5.31290E-07 7.13357E-19-2.75860E-18
 -1      1405 9.84092E-05-2.94661E-05-2.95549E-05-1.18900E-06 1.25391E-18-1.48713E-18
 -1      1406 9.75209E-05-2.92290E-05-2.92669E-05-4.37051E-07 2.13082E-19-2.26779E-18
 -1      1407 9.71245E-05-2.91099E-05-2.91492E-05-4.16178E-07 5.04674E-19-1.40856E-18
 -1      1408 9.75794E-05-2.92217E-05-2.93033E-05-9.52868E-07 8.22046E-19-1.03419E-18
 -1      1409 9.68261E-05-2.90244E-05-2.90567E-05-3.33986E-07 2.96962E-19-1.67001E-18
 -1      1410 9.65248E-05-2.89348E-05-2.89669E-05-3.16503E-07-9.55696E-20-1.63685E-18
 -1      1411 9.69156E-05-2.90297E-05-2.91002E-05-7.40245E-07 4.07643E-19-3.86187E-19
 -1      1412 9.62961E-05-2.88696E-05-2.88959E-05-2.47967E-07-2.21521E-19-1.71146E-18
 -1      1413 9.60739E-05-2.88041E-05-2.88295E-05-2.33854E-07-1.35874E-19-2.40816E-18
 -1      1414 9.63993E-05-2.88826E-05-2.89409E-05-5.58695E-07-3.00321E-19-5.70418E-19
 -1      1415 9.59032E-05-2.87556E-05-2.87764E-05-1.78683E-07 1.70209E-20-2.53077E-18
 -1      1416 9.57442E-05-2.87093E-05-2.87287E-05-1.67636E-07-3.41754E-20-2.48374E-18
 -1      1417 9.60083E-05-2.87728E-05-2.88194E-05-4.09710E-07 8.32847E-21-1.41307E-18
 -1      1418 9.56204E-05-2.86742E-05-2.86902E-05-1.24531E-07 7.92733E-20-2.20752E-18
 -1      1419 9.55106E-05-2.86426E-05-2.86572E-05-1.16122E-07-4.52342E-20-1.87861E-18
 -1      1420 9.57198E-05-2.86930E-05-2.87291E-05-2.91335E-07-2.41229E-19-1.47472E-18
 -1      1421 9.54234E-05-2.86181E-05-2.86300E-05-8.33494E-08-4.04074E-19-2.37555E-18
 -1      1422 9.53509E-05-2.85975E-05-2.86081E-05-7.71172E-08-2.78916E-19-2.25260E-18
 -1      1423 9.55130E-05-2.86367E-05-2.86638E-05-1.99907E-07-3.99497E-19-2.25777E-18
 -1      1424 9.52917E-05-2.85810E-05-2.85897E-05-5.28556E-08-5.08902E-20-2.05530E-18
 -1      1425 9.52466E-05-2.85685E-05-2.85759E-05-4.83645E-08 4.35471E-20-2.16480E-18
 -1      1426 9.53696E-05-2.85982E-05-2.86182E-05-1.31149E-07-4.02528E-19-2.11526E-18
 -1      1427 9.52083E-05-2.85578E-05-2.85640E-05-3.08972E-08 1.13503E-19-2.88076E-18
 -1      1428 9.51828E-05-2.85511E-05-2.85560E-05-2.77603E-08-2.90754E-19-2.86540E-18
 -1      1429 9.52740E-05-2.85732E-05-2.85874E-05-8.08066E-08-3.96971E-19-2.94079E-18
 -1      1430 9.51597E-05-2.85447E-05-2.85489E-05-1.55714E-08-3.25689E-19-2.78061E-18
 -1      1431 9.51476E-05-2.85418E-05-2.85450E-05-1.34612E-08-1.93554E-19-3.88512E-18
 -1      1432 9.52136E-05-2.85579E-05-2.85677E-05-4.49971E-08-3.33861E-19-2.78744E-18
 -1      1433 9.51352E-05-2.85384E-05-2.85412E-05-5.27071E-09 2.17465E-19-3.38208E-18
 -1      1434 9.51322E-05-2.85381E-05-2.85400E-05-3.91935E-09 2.22281E-19-3.55600E-18
 -1      1435 9.51787E-05-2.85496E-05-2.85560E-05-2.03601E-08-1.84717E-19-2.00674E-18
 -1      1436 9.51271E-05-2.85368E-05-2.85385E-05 1.31782E-09-7.89044E-20-3.49022E-18
 -1      1437 9.51297E-05-2.85380E-05-2.85391E-05 2.12303E-09 4.80113E-19-3.38067E-18
 -1      1438 9.51613E-05-2.85459E-05-2.85499E-05-4.10067E-09 5.26905E-19-1.77613E-18
 -1      1439 9.51293E-05-2.85380E-05-2.85390E-05 5.23650E-09 7.22550E-19-3.46746E-18
 -1      1440 9.51352E-05-2.85401E-05-2.85406E-05 5.66039E-09-1.07680E-19-2.91089E-18
 -1      1441 9.51558E-05-2.85453E-05-2.85476E-05 6.03583E-09 3.97131E-19-2.93463E-18
 -1      1442 9.51378E-05-2.85410E-05-2.85414E-05 7.29247E-09-1.27198E-19-3.19401E-18
 -1      1443 9.51452E-05-2.85435E-05-2.85435E-05 7.45976E-09-3.83220E-19-3.13501E-18
 -1      1444 9.51578E-05-2.85467E-05-2.85478E-05 1.18204E-08-2.47013E-19-2.95245E-18
 -1      1445 9.51494E-05-2.85447E-05-2.85448E-05 8.09606E-09-7.29108E-19-2.13301E-18
 -1      1446 9.51574E-05-2.85473E-05-2.85471E-05 8.09889E-09-8.55698E-20-3.33361E-18
 -1      1447 9.51642E-05-2.85491E-05-2.85494E-05 1.46110E-08-6.77829E-19-2.13555E-18
 -1      1448 9.51624E-05-2.85488E-05-2.85486E-05 8.09762E-09-6.77114E-19-3.99117E-18
 -1      1449 9.51702E-05-2.85513E-05-2.85509E-05 8.00225E-09-1.57672E-18-4.94653E-18
 -1      1450 9.51730E-05-2.85520E-05-2.85519E-05 1.54242E-08-7.72192E-19-2.41871E-18
 -1      1451 9.51753E-05-2.85527E-05-2.85525E-05 7.62043E-09-1.16260E-18-5.42451E-18
 -1      1452 9.51826E-05-2.85550E-05-2.85546E-05 7.47301E-09-1.06444E-18-6.86457E-18
 -1      1453 9.51827E-05-2.85551E-05-2.85547E-05 1.50018E-08-2.11096E-18-3.85879E-18
 -1      1454 9.51875E-05-2.85564E-05-2.85562E-05 6.88861E-09-1.04756E-19-7.23042E-18
 -1      1455 9.51940E-05-2.85585E-05-2.85581E-05 6.71986E-09 4.83312E-19-7.02409E-18
 -1      1456 9.51924E-05-2.85581E-05-2.85575E-05 1.38689E-08-9.53059E-19-4.84580E-18
 -1      1457 9.51985E-05-2.85597E-05-2.85595E-05 6.04977E-09 1.72926E-18-5.88126E-18
 -1      1458 9.52042E-05-2.85615E-05-2.85611E-05 5.87856E-09 1.61093E-18-3.91336E-18
 -1      1459 9.52015E-05-2.85609E-05-2.85602E-05 1.23819E-08 2.16613E-18-4.73139E-18
 -1      1460 9.52081E-05-2.85626E-05-2.85624E-05 5.19235E-09-6.29872E-20-2.32603E-18
 -1      1461 9.52130E-05-2.85641E-05-2.85638E-05 5.02837E-09 2.27263E-19-2.02448E-18
 -1      1462 9.52097E-05-2.85633E-05-2.85627E-05 1.07669E-08 1.84818E-18-1.84974E-18
 -1      1463 9.52164E-05-2.85651E-05-2.85648E-05 4.35809E-09 1.15339E-18-2.38318E-18
 -1      1464 9.52205E-05-2.85664E-05-2.85660E-05 4.20344E-09 1.28727E-18-2.07582E-19
 -1      1465 9.52169E-05-2.85655E-05-2.85649E-05 9.14800E-09 7.98680E-19-3.48275E-19
 -1      1466 9.52233E-05-2.85672E-05-2.85669E-05 3.55014E-09 1.01616E-18-3.18015E-19
 -1      1467 9.52266E-05-2.85682E-05-2.85679E-05 3.40003E-09 5.42641E-19 5.94261E-19
 -1      1468 9.52230E-05-2.85673E-05-2.85667E-05 7.56737E-09 1.59382E-18-1.38540E-20
 -1      1469 9.52289E-05-2.85689E-05-2.85686E-05 2.73802E-09-4.85707E-19 1.17960E-18
 -1      1470 9.52314E-05-2.85696E-05-2.85693E-05 2.58041E-09-3.64971E-19 2.91250E-19
 -1      1471 9.52281E-05-2.85688E-05-2.85682E-05 5.99872E-09 4.51677E-19-1.32996E-19
 -1      1472 9.52331E-05-2.85702E-05-2.85698E-05 1.86881E-09 2.79227E-19-5.53932E-19
 -1      1473 9.52347E-05-2.85707E-05-2.85703E-05 1.68428E-09 1.73835E-19-2.07047E-19
 -1      1474 9.52320E-05-2.85700E-05-2.85694E-05 4.36149E-09-4.90045E-19-1.85813E-18
 -1      1475 9.52359E-05-2.85711E-05-2.85706E-05 8.90015E-10 2.60946E-20 5.42461E-19
 -1      1476 9.52366E-05-2.85712E-05-2.85709E-05 6.75544E-10 1.73806E-19 1.11497E-18
 -1      1477 9.52349E-05-2.85709E-05-2.85702E-05 2.58737E-09 7.09826E-19-9.04699E-19
 -1      1478 9.52372E-05-2.85712E-05-2.85712E-05-1.01959E-10-1.18569E-18 1.00299E-18
 -1      1479 9.52368E-05-2.85714E-05-2.85709E-05 6.09841E-10-5.19538E-19-1.65153E-19
 -1      1480 1.23264E-04-3.64876E-05-3.76603E-05 4.96535E-07 6.59283E-19 1.00786E-17
 -1      1481 1.26286E-04-3.65024E-05-3.92842E-05 1.80236E-06 5.08961E-19 1.09194E-17
 -1      1482 1.24460E-04-3.36524E-05-3.93114E-05 8.08083E-06 9.62018E-19 7.83680E-18
 -1      1483 1.22849E-04-3.67924E-05-3.69038E-05-8.97151E-07 4.25700E-19 8.86071E-18
 -1      1484 1.22376E-04-3.61965E-05-3.71171E-05-6.57915E-07 4.61593E-19 9.56692E-18
 -1      1485 1.21996E-04-3.59061E-05-3.70996E-05 5.98121E-07 9.47089E-19 6.88159E-18
 -1      1486 1.24189E-04-3.74103E-05-3.71035E-05-9.95765E-07 2.45854E-19 8.08006E-18
 -1      1487 1.23096E-04-3.69117E-05-3.69046E-05-1.00349E-06 2.36246E-19 8.47806E-18
 -1      1488 1.21744E-04-3.64735E-05-3.65594E-05-1.46591E-06 5.70761E-19 6.04416E-18
 -1      1489 1.24845E-04-3.78037E-05-3.71603E-05 1.27682E-09 2.38023E-19 7.58451E-18
 -1      1490 1.24472E-04-3.76651E-05-3.71278E-05-3.04336E-07 1.35618E-19 7.82682E-18
 -1      1491 1.22504E-04-3.71421E-05-3.65106E-05-9.77489E-07 3.62537E-19 5.34009E-18
 -1      1492 1.22761E-04-3.73229E-05-3.64311E-05 2.01404E-06-1.22290E-20 7.45916E-18
 -1      1493 1.24266E-04-3.78988E-05-3.69215E-05 1.38295E-06 3.07844E-20 7.57822E-18
 -1      1494 1.22475E-04-3.75486E-05-3.62516E-05 1.54202E-06 1.60288E-19 5.33176E-18
 -1      1495 1.16583E-04-3.53980E-05-3.46414E-05 4.48323E-06-1.84958E-19 8.04851E-18
 -1      1496 1.20686E-04-3.69380E-05-3.57971E-05 3.67576E-06-2.31002E-19 7.60318E-18
 -1      1497 1.20161E-04-3.70725E-05-3.54243E-05 5.54067E-06-3.62332E-19 5.53950E-18
 -1      1498 1.06848E-04-3.20458E-05-3.20833E-05 6.00735E-06 1.17319E-20 8.26016E-18
 -1      1499 1.13042E-04-3.43346E-05-3.36942E-05 5.45262E-06-8.20298E-20 7.86756E-18
 -1      1500 1.14844E-04-3.51462E-05-3.40301E-05 9.32005E-06-2.81175E-19 5.61636E-18
 -1      1501 9.69901E-05-2.84443E-05-2.96728E-05 4.91764E-06 5.92552E-19 7.36432E-18
 -1      1502 1.02994E-04-3.05569E-05-3.11429E-05 5.13248E-06 4.09924E-19 7.74707E-18
 -1      1503 1.07568E-04-3.19090E-05-3.24681E-05 1.00602E-05 4.31524E-19 5.27111E-18
 -1      1504 9.21948E-05-2.66517E-05-2.85419E-05 9.49556E-07 7.60318E-19 5.38598E-18
 -1      1505 9.48342E-05-2.73434E-05-2.91624E-05 2.01384E-06 7.17913E-19 6.41627E-18
 -1      1506 1.01513E-04-2.88239E-05-3.13735E-05 5.76151E-06 1.37802E-18 4.23129E-18
 -1      1507 9.55273E-05-2.79350E-05-2.93003E-05-3.69513E-06 4.83471E-19 4.35978E-18
 -1      1508 9.31399E-05-2.67056E-05-2.87247E-05-2.41459E-06 5.07690E-19 5.03897E-18
 -1      1509 1.00298E-04-2.80353E-05-3.12432E-05-2.04211E-06 1.02613E-18 3.07646E-18
 -1      1510 1.05048E-04-3.14483E-05-3.15739E-05-6.15243E-06 5.95954E-19 3.25621E-18
 -1      1511 9.89984E-05-2.90553E-05-3.00906E-05-5.42772E-06 3.70008E-19 3.94431E-18
 -1      1512 1.04778E-04-3.02274E-05-3.21294E-05-8.68003E-06 7.58200E-19 2.23977E-18
 -1      1513 1.15579E-04-3.51031E-05-3.42866E-05-5.53260E-06 1.86744E-19 2.60579E-18
 -1      1514 1.09038E-04-3.28389E-05-3.25984E-05-5.58250E-06 4.38386E-19 3.18760E-18
 -1      1515 1.12174E-04-3.38175E-05-3.36307E-05-1.05564E-05 6.97341E-19 1.82980E-18
 -1      1516 1.22867E-04-3.74087E-05-3.63671E-05-3.12328E-06 1.35386E-19 2.65725E-18
 -1      1517 1.18361E-04-3.60755E-05-3.51200E-05-3.62537E-06-1.14376E-19 2.30944E-18
 -1      1518 1.18653E-04-3.66300E-05-3.51194E-05-7.93797E-06 3.15282E-19 1.21602E-18
 -1      1519 1.25552E-04-3.80801E-05-3.73011E-05-5.94602E-07 2.48366E-19 1.88509E-18
 -1      1520 1.23853E-04-3.77582E-05-3.67647E-05-1.14976E-06 4.38657E-19 2.44602E-18
 -1      1521 1.22032E-04-3.77511E-05-3.60646E-05-3.48131E-06 5.43888E-19 7.86616E-19
 -1      1522 1.24453E-04-3.75551E-05-3.71531E-05 1.16109E-06-7.78807E-20 1.65823E-18
 -1      1523 1.25024E-04-3.79310E-05-3.72507E-05 7.62413E-07 2.09932E-19 1.70293E-18
 -1      1524 1.22172E-04-3.74604E-05-3.62588E-05 4.67649E-07 5.24406E-19 9.40571E-19
 -1      1525 1.21107E-04-3.63998E-05-3.62862E-05 2.03439E-06-4.35527E-19 2.36182E-18
 -1      1526 1.22995E-04-3.71153E-05-3.67844E-05 1.82156E-06-4.39309E-19 1.68824E-18
 -1      1527 1.20011E-04-3.64101E-05-3.58004E-05 2.95082E-06-2.74267E-19 1.34673E-18
 -1      1528 1.16858E-04-3.50378E-05-3.50858E-05 2.26467E-06 4.92057E-19 1.47228E-18
 -1      1529 1.19249E-04-3.58392E-05-3.57571E-05 2.18954E-06 3.14161E-19 2.19564E-18
 -1      1530 1.16648E-04-3.51048E-05-3.49329E-05 4.03956E-06 2.52052E-19 9.28011E-19
 -1      1531 1.12579E-04-3.37161E-05-3.38311E-05 2.13075E-06-2.79676E-19 6.94766E-19
 -1      1532 1.14962E-04-3.44656E-05-3.45191E-05 2.13588E-06 3.10462E-19 1.12062E-18
 -1      1533 1.12929E-04-3.38219E-05-3.38979E-05 4.18105E-06 7.13253E-19 1.14645E-18
 -1      1534 1.08728E-04-3.25511E-05-3.26793E-05 1.83655E-06-1.52916E-19 1.48849E-18
 -1      1535 1.10845E-04-3.31914E-05-3.33008E-05 1.87967E-06-4.75604E-19 9.07861E-19
 -1      1536 1.09374E-04-3.26827E-05-3.28669E-05 3.81224E-06-4.06750E-19 1.28265E-18
 -1      1537 1.05479E-04-3.15806E-05-3.16976E-05 1.50199E-06-7.22418E-19 1.75332E-18
 -1      1538 1.07242E-04-3.20995E-05-3.22199E-05 1.55788E-06-4.10920E-19 1.61347E-18
 -1      1539 1.06239E-04-3.17251E-05-3.19361E-05 3.23611E-06-2.88617E-19 1.24772E-18
 -1      1540 1.02850E-04-3.08013E-05-3.08988E-05 1.18671E-06-3.30932E-19 2.87708E-18
 -1      1541 1.04258E-04-3.12077E-05-3.13184E-05 1.24238E-06-4.33729E-19 2.26833E-18
 -1      1542 1.03613E-04-3.09469E-05-3.11452E-05 2.62621E-06-9.48171E-19 1.69069E-18
 -1      1543 1.00784E-04-3.01917E-05-3.02692E-05 9.14708E-07 7.08470E-19 2.59426E-18
 -1      1544 1.01877E-04-3.05025E-05-3.05961E-05 9.64424E-07-1.36966E-19 3.14489E-18
 -1      1545 1.01490E-04-3.03298E-05-3.04999E-05 2.06671E-06-2.76037E-19 2.42755E-18
 -1      1546 9.91954E-05-2.97245E-05-2.97843E-05 6.91376E-07-5.76867E-20 2.14012E-18
 -1      1547 1.00026E-04-2.99577E-05-3.00334E-05 7.33300E-07 3.15351E-19 2.31639E-18
 -1      1548 9.98157E-05-2.98495E-05-2.99883E-05 1.58960E-06 4.35061E-19 1.52481E-18
 -1      1549 9.79965E-05-2.93727E-05-2.94180E-05 5.13619E-07-3.41047E-19 2.70789E-18
 -1      1550 9.86163E-05-2.95447E-05-2.96042E-05 5.47771E-07-5.18675E-19 2.17848E-18
 -1      1551 9.85231E-05-2.94819E-05-2.95917E-05 1.19989E-06-5.90769E-19 9.13878E-19
 -1      1552 9.71067E-05-2.91122E-05-2.91459E-05 3.75150E-07-2.34521E-19 3.10643E-18
 -1      1553 9.75613E-05-2.92369E-05-2.92827E-05 4.02335E-07 1.00213E-19 3.31977E-18
 -1      1554 9.75424E-05-2.92048E-05-2.92899E-05 8.90383E-07-6.11578E-19 1.80936E-18
 -1      1555 9.64576E-05-2.89225E-05-2.89473E-05 2.69070E-07 3.85264E-19 2.74833E-18
 -1      1556 9.67852E-05-2.90112E-05-2.90461E-05 2.90338E-07 4.01472E-20 2.87518E-18
 -1      1557 9.68107E-05-2.89992E-05-2.90641E-05 6.49502E-07-1.40480E-20 1.90267E-18
 -1      1558 9.59928E-05-2.87870E-05-2.88050E-05 1.88974E-07-6.92061E-20 1.82156E-18
 -1      1559 9.62242E-05-2.88487E-05-2.88749E-05 2.05375E-07 2.49029E-19 2.06081E-18
 -1      1560 9.62739E-05-2.88492E-05-2.88980E-05 4.65045E-07 7.98104E-19 1.50179E-18
 -1      1561 9.56673E-05-2.86923E-05-2.87052E-05 1.29344E-07-2.98188E-19 2.17712E-18
 -1      1562 9.58268E-05-2.87341E-05-2.87535E-05 1.41822E-07-3.60382E-19 1.64545E-18
 -1      1563 9.58874E-05-2.87419E-05-2.87781E-05 3.25831E-07-1.09062E-19 1.81168E-18
 -1      1564 9.54453E-05-2.86280E-05-2.86370E-05 8.56091E-08 2.65523E-19 1.42950E-18
 -1      1565 9.55519E-05-2.86553E-05-2.86694E-05 9.49731E-08 4.52683E-20 1.51864E-18
 -1      1566 9.56149E-05-2.86668E-05-2.86932E-05 2.22263E-07 6.54275E-20 1.05017E-18
 -1      1567 9.52992E-05-2.85859E-05-2.85920E-05 5.40681E-08-4.98279E-20 7.32411E-19
 -1      1568 9.53675E-05-2.86028E-05-2.86129E-05 6.09924E-08 4.95057E-19 1.39524E-18
 -1      1569 9.54279E-05-2.86157E-05-2.86347E-05 1.46390E-07 4.70564E-19 7.26330E-19
 -1      1570 9.52078E-05-2.85597E-05-2.85638E-05 3.17703E-08-1.02556E-18 3.27186E-18
 -1      1571 9.52489E-05-2.85693E-05-2.85764E-05 3.68058E-08-1.31188E-18 1.35170E-18
 -1      1572 9.53037E-05-2.85823E-05-2.85956E-05 9.17638E-08-1.30517E-18 1.50093E-18
 -1      1573 9.51549E-05-2.85447E-05-2.85473E-05 1.63902E-08 1.84149E-19 4.85661E-18
 -1      1574 9.51771E-05-2.85494E-05-2.85542E-05 1.99812E-08-4.48735E-19 4.09133E-18
 -1      1575 9.52250E-05-2.85615E-05-2.85707E-05 5.32390E-08-1.38953E-18 3.23772E-18
 -1      1576 9.51285E-05-2.85375E-05-2.85390E-05 6.11387E-09-1.53429E-19 5.03905E-18
 -1      1577 9.51379E-05-2.85388E-05-2.85420E-05 8.61485E-09 2.27040E-19 5.56798E-18
 -1      1578 9.51787E-05-2.85497E-05-2.85557E-05 2.67546E-08-2.43955E-19 3.53124E-18
 -1      1579 9.51196E-05-2.85353E-05-2.85360E-05-4.58982E-10-1.02088E-18 6.68924E-18
 -1      1580 9.51207E-05-2.85346E-05-2.85366E-05 1.23147E-09-7.49453E-19 5.39418E-18
 -1      1581 9.51547E-05-2.85439E-05-2.85478E-05 9.14110E-09-9.81594E-19 3.83519E-18
 -1      1582 9.51219E-05-2.85363E-05-2.85366E-05-4.39752E-09 1.87342E-18 4.04417E-18
 -1      1583 9.51180E-05-2.85344E-05-2.85355E-05-3.29955E-09 5.68594E-19 6.10350E-18
 -1      1584 9.51456E-05-2.85423E-05-2.85445E-05-2.04820E-09 5.74264E-19 3.63595E-18
 -1      1585 9.51308E-05-2.85392E-05-2.85391E-05-6.50795E-09 1.50325E-18 2.47124E-19
 -1      1586 9.51241E-05-2.85366E-05-2.85372E-05-5.83441E-09 1.37274E-18 2.56317E-18
 -1      1587 9.51461E-05-2.85431E-05-2.85443E-05-8.68039E-09 2.17865E-18 9.75030E-19
 -1      1588 9.51432E-05-2.85430E-05-2.85428E-05-7.38960E-09-6.49911E-19 1.69868E-19
 -1      1589 9.51352E-05-2.85403E-05-2.85405E-05-7.01265E-09 1.06826E-19 6.40191E-19
 -1      1590 9.51524E-05-2.85455E-05-2.85459E-05-1.21617E-08 6.62628E-19 2.24590E-18
 -1      1591 9.51569E-05-2.85472E-05-2.85469E-05-7.48046E-09-8.71567E-19 1.90869E-18
 -1      1592 9.51486E-05-2.85445E-05-2.85445E-05-7.30431E-09-8.82718E-19 5.83842E-19
 -1      1593 9.51618E-05-2.85486E-05-2.85486E-05-1.35356E-08-9.74636E-19 2.45935E-18
 -1      1594 9.51706E-05-2.85513E-05-2.85510E-05-7.09394E-09 4.64679E-19 3.27178E-18
 -1      1595 9.51626E-05-2.85488E-05-2.85486E-05-7.04814E-09-1.79178E-19 2.58568E-18
 -1      1596 9.51726E-05-2.85520E-05-2.85517E-05-1.35626E-08-6.62830E-19 3.04292E-18
 -1      1597 9.51835E-05-2.85552E-05-2.85549E-05-6.44814E-09 1.07040E-19 2.80023E-18
 -1      1598 9.51761E-05-2.85529E-05-2.85527E-05-6.48201E-09 1.15287E-19 2.52160E-18
 -1      1599 9.51835E-05-2.85554E-05-2.85549E-05-1.27844E-08 9.88289E-20 3.12145E-18
 -1      1600 9.51952E-05-2.85587E-05-2.85584E-05-5.68863E-09 2.68243E-20 1.92761E-18
 -1      1601 9.51886E-05-2.85567E-05-2.85565E-05-5.76697E-09 1.77036E-19 2.66186E-18
 -1      1602 9.51938E-05-2.85585E-05-2.85580E-05-1.15754E-08 2.47844E-19 3.00452E-18
 -1      1603 9.52054E-05-2.85618E-05-2.85615E-05-4.90575E-09-3.61353E-19 1.94166E-18
 -1      1604 9.51998E-05-2.85601E-05-2.85598E-05-5.00557E-09-1.50542E-19 2.02610E-18
 -1      1605 9.52033E-05-2.85614E-05-2.85609E-05-1.01821E-08-2.65943E-19 2.28627E-18
 -1      1606 9.52143E-05-2.85644E-05-2.85642E-05-4.14692E-09 7.48036E-19 2.11381E-18
 -1      1607 9.52094E-05-2.85630E-05-2.85627E-05-4.25522E-09 2.31779E-19 2.73959E-18
 -1      1608 9.52117E-05-2.85638E-05-2.85634E-05-8.75296E-09-1.57634E-19 4.36582E-18
 -1      1609 9.52217E-05-2.85666E-05-2.85664E-05-3.42438E-09-1.62481E-19 1.37510E-18
 -1      1610 9.52177E-05-2.85655E-05-2.85652E-05-3.53714E-09 7.51704E-21 1.07708E-18
 -1      1611 9.52189E-05-2.85660E-05-2.85655E-05-7.35867E-09 5.43407E-19 1.75369E-18
 -1      1612 9.52277E-05-2.85684E-05-2.85682E-05-2.71987E-09 1.06086E-18 7.40811E-20
 -1      1613 9.52245E-05-2.85675E-05-2.85673E-05-2.84178E-09 7.20882E-19 1.10895E-18
 -1      1614 9.52249E-05-2.85678E-05-2.85673E-05-6.00593E-09 5.61641E-19 8.29519E-19
 -1      1615 9.52323E-05-2.85698E-05-2.85696E-05-1.98940E-09 7.32830E-19-1.86502E-18
 -1      1616 9.52299E-05-2.85691E-05-2.85689E-05-2.13423E-09 4.85156E-19-1.37508E-18
 -1      1617 9.52297E-05-2.85692E-05-2.85688E-05-4.64794E-09 1.24851E-18-5.85138E-19
 -1      1618 9.52354E-05-2.85708E-05-2.85705E-05-1.16660E-09 4.45446E-19-3.24237E-18
 -1      1619 9.52338E-05-2.85704E-05-2.85700E-05-1.36368E-09 1.22202E-18-1.39519E-18
 -1      1620 9.52333E-05-2.85703E-05-2.85698E-05-3.20129E-09 1.36319E-18-5.71848E-19
 -1      1621 9.52369E-05-2.85712E-05-2.85710E-05-2.97922E-10 1.82758E-19-1.85847E-18
 -1      1622 9.52363E-05-2.85711E-05-2.85708E-05-5.20166E-10 1.47594E-19-2.51749E-18
 -1      1623 9.52358E-05-2.85711E-05-2.85705E-05-1.59799E-09 6.09430E-19 1.46425E-18
 -1      1624 9.52372E-05-2.85712E-05-2.85712E-05 6.05367E-11-1.59282E-18-1.96868E-18
 -1      1625 9.52373E-05-2.85724E-05-2.85706E-05-9.37453E-10 2.02420E-18 3.09170E-18
 -1      1626 9.52371E-05-2.85717E-05-2.85709E-05-7.10414E-10-2.54902E-19 1.55008E-18
 -1      1627 9.52381E-05-2.85750E-05-2.85699E-05-1.76479E-09 4.72997E-18 1.62595E-18
 -1      1628 9.52376E-05-2.85735E-05-2.85703E-05-1.61942E-09 3.26557E-18 1.24629E-18
 -1      1629 9.52374E-05-2.85734E-05-2.85702E-05-2.51780E-09 1.85010E-18 3.50611E-18
 -1      1630 9.52393E-05-2.85785E-05-2.85689E-05-2.23649E-09 4.38904E-18-9.38834E-19
 -1      1631 9.52386E-05-2.85765E-05-2.85695E-05-2.17452E-09 5.09646E-18 1.06802E-18
 -1      1632 9.52383E-05-2.85760E-05-2.85695E-05-3.82476E-09 1.18153E-18 2.50735E-18
 -1      1633 9.52405E-05-2.85822E-05-2.85678E-05-2.30983E-09 1.75556E-18-1.34745E-18
 -1      1634 9.52398E-05-2.85801E-05-2.85684E-05-2.32762E-09 4.05305E-18-1.57279E-18
 -1      1635 9.52395E-05-2.85791E-05-2.85687E-05-4.41592E-09 1.13172E-18-2.27976E-18
 -1      1636 9.52416E-05-2.85857E-05-2.85669E-05-2.03651E-09-2.38056E-19-1.27924E-19
 -1      1637 9.52410E-05-2.85838E-05-2.85674E-05-2.11566E-09 4.45776E-19-2.16581E-19
 -1      1638 9.52406E-05-2.85823E-05-2.85679E-05-4.27761E-09 5.27299E-19-2.71492E-18
 -1      1639 9.52425E-05-2.85884E-05-2.85661E-05-1.48260E-09 5.24585E-19 3.73923E-19
 -1      1640 9.52420E-05-2.85869E-05-2.85665E-05-1.61039E-09-1.25685E-19 2.08347E-19
 -1      1641 9.52416E-05-2.85851E-05-2.85671E-05-3.52524E-09-1.04728E-19-5.71225E-19
 -1      1642 9.52430E-05-2.85899E-05-2.85656E-05-7.40638E-10-2.27926E-18-2.58398E-18
 -1      1643 9.52428E-05-2.85892E-05-2.85658E-05-8.96838E-10 5.91995E-19-2.28109E-18
 -1      1644 9.52423E-05-2.85872E-05-2.85665E-05-2.30049E-09-7.08877E-19-1.34624E-18
 -1      1645 9.52431E-05-2.85902E-05-2.85655E-05 9.11867E-11-2.60871E-18 8.33729E-20
 -1      1646 9.52431E-05-2.85902E-05-2.85655E-05-7.43859E-11-3.04219E-18-5.73194E-19
 -1      1647 9.52427E-05-2.85883E-05-2.85662E-05-7.88052E-10-6.15199E-19-2.91220E-18
 -1      1648 9.52427E-05-2.85892E-05-2.85658E-05 9.11945E-10-5.43081E-18-2.68386E-18
 -1      1649 9.52430E-05-2.85899E-05-2.85656E-05 7.56359E-10-3.89245E-18-3.45311E-19
 -1      1650 9.52427E-05-2.85883E-05-2.85662E-05 8.19656E-10-2.92736E-18-1.21102E-18
 -1      1651 9.52420E-05-2.85869E-05-2.85665E-05 1.62126E-09-7.48076E-18-1.21154E-18
 -1      1652 9.52425E-05-2.85883E-05-2.85661E-05 1.49491E-09-5.70275E-18-1.80370E-18
 -1      1653 9.52423E-05-2.85871E-05-2.85665E-05 2.32726E-09-2.99520E-18-2.36084E-18
 -1      1654 9.52410E-05-2.85837E-05-2.85674E-05 2.11648E-09-4.80502E-18 2.29261E-18
 -1      1655 9.52416E-05-2.85856E-05-2.85669E-05 2.03879E-09-7.07813E-18 1.28465E-18
 -1      1656 9.52416E-05-2.85850E-05-2.85671E-05 3.53603E-09-3.51378E-18 2.73721E-19
 -1      1657 9.52398E-05-2.85801E-05-2.85685E-05 2.32616E-09-2.32848E-18-3.20227E-19
 -1      1658 9.52405E-05-2.85822E-05-2.85679E-05 2.30993E-09-3.99257E-18 2.22355E-18
 -1      1659 9.52406E-05-2.85822E-05-2.85679E-05 4.27944E-09-2.83937E-18 3.39844E-18
 -1      1660 9.52386E-05-2.85764E-05-2.85695E-05 2.17075E-09-1.16710E-18 1.59766E-18
 -1      1661 9.52393E-05-2.85784E-05-2.85689E-05 2.22953E-09-1.92584E-18 1.21671E-18
 -1      1662 9.52395E-05-2.85791E-05-2.85687E-05 4.40816E-09-7.70488E-19 2.59115E-19
 -1      1663 9.52376E-05-2.85735E-05-2.85703E-05 1.61457E-09-2.14109E-19-8.24762E-19
 -1      1664 9.52381E-05-2.85750E-05-2.85699E-05 1.76324E-09-5.02592E-19 4.84433E-19
 -1      1665 9.52383E-05-2.85760E-05-2.85696E-05 3.80409E-09-9.17707E-19 1.42550E-18
 -1      1666 9.52370E-05-2.85720E-05-2.85708E-05 1.10371E-09-1.32122E-18-2.10281E-18
 -1      1667 9.52372E-05-2.85727E-05-2.85705E-05 1.43016E-09 1.92945E-19-2.30124E-18
 -1      1668 9.52373E-05-2.85737E-05-2.85701E-05 3.01543E-09-6.62448E-19-1.32787E-18
 -1      1669 9.52363E-05-2.85721E-05-2.85704E-05 2.21789E-09-1.31125E-20-1.66544E-18
 -1      1670 2.00532E-05-6.65849E-05 1.39798E-05-7.33230E-06 9.41604E-18 3.18040E-18
 -1      1671 2.32122E-05-7.49846E-05 1.56785E-05 7.32346E-07 7.05176E-18 1.63986E-18
 -1      1672 2.05793E-05-4.03102E-05 4.26200E-06 3.31729E-06 1.09631E-17 5.06335E-18
 -1      1673 2.45439E-05-6.11948E-05 9.99458E-06 1.17055E-07 9.67862E-18 3.88804E-18
 -1      1674 3.47653E-05-1.36764E-05-1.12908E-05 2.62187E-05 1.04151E-17 8.08832E-18
 -1      1675 2.93977E-05-3.48554E-05-2.43373E-06 8.98857E-06 1.11808E-17 5.82166E-18
 -1      1676 7.38761E-05-3.42563E-06-3.00262E-05 5.70870E-05 9.33346E-18 9.38258E-18
 -1      1677 4.98555E-05-9.24356E-06-2.02008E-05 3.44247E-05 1.06362E-17 8.75747E-18
 -1      1678 1.44568E-04-2.20854E-05-4.94536E-05 7.10228E-05 6.15115E-18 5.98344E-18
 -1      1679 1.03222E-04-1.09853E-05-3.94502E-05 5.79161E-05 8.05782E-18 7.57163E-18
 -1      1680 2.10648E-04-4.36000E-05-6.56271E-05 6.81412E-05 3.41100E-18 2.87991E-18
 -1      1681 1.66668E-04-2.30627E-05-5.82693E-05 7.52199E-05 5.40280E-18 5.90213E-18
 -1      1682 2.55948E-04-6.46430E-05-7.50733E-05 2.85403E-05 2.06528E-18-2.99807E-18
 -1      1683 2.28987E-04-4.95678E-05-7.10771E-05 5.77270E-05 2.79166E-18 9.87640E-19
 -1      1684 2.48441E-04-5.91859E-05-7.51498E-05-2.28443E-05 3.12534E-18-8.01971E-18
 -1      1685 2.52886E-04-6.14805E-05-7.57638E-05 1.22265E-05 2.32553E-18-4.47900E-18
 -1      1686 2.13601E-04-4.28943E-05-6.82176E-05-6.21787E-05 5.34494E-18-1.22464E-17
 -1      1687 2.45654E-04-6.01091E-05-7.31350E-05-3.82609E-05 3.73160E-18-9.85989E-18
 -1      1688 1.50882E-04-1.79090E-05-5.44839E-05-7.45994E-05 7.38740E-18-1.28478E-17
 -1      1689 1.95055E-04-3.74206E-05-6.23207E-05-7.24717E-05 5.80810E-18-1.32408E-17
 -1      1690 8.75857E-05-7.09555E-06-3.52078E-05-5.49595E-05 8.07900E-18-1.00678E-17
 -1      1691 1.27387E-04-1.50432E-05-4.55843E-05-7.24761E-05 7.43102E-18-1.18822E-17
 -1      1692 4.20044E-05-1.31955E-05-1.57974E-05-2.71095E-05 8.07731E-18-7.24975E-18
 -1      1693 6.09598E-05-2.43415E-06-2.55309E-05-4.99645E-05 8.82439E-18-9.53420E-18
 -1      1694 2.81085E-05-4.05318E-05 2.56240E-07-6.72694E-06 4.80691E-18-4.19260E-18
 -1      1695 3.10058E-05-1.97246E-05-7.64676E-06-2.06427E-05 6.96007E-18-6.21553E-18
 -1      1696 2.26151E-05-6.52694E-05 1.16633E-05 3.43645E-06 1.14985E-18-1.99974E-18
 -1      1697 1.72269E-05-4.55905E-05 6.96130E-06 4.07639E-06 4.24956E-18-3.20973E-18
 -1      1698 2.16982E-05-7.08435E-05 1.47220E-05-1.95215E-06-3.52069E-18-1.77835E-18
 -1      1699 2.06432E-05-6.83305E-05 1.41253E-05 7.08902E-06-2.31664E-19-1.74277E-18
 -1      1700 1.81582E-05-5.27036E-05 9.73803E-06-1.84570E-06-6.76441E-18-3.03799E-18
 -1      1701 2.21005E-05-6.65443E-05 1.29975E-05 2.60485E-06-4.42871E-18-1.95241E-18
 -1      1702 1.97572E-05-2.62340E-05-9.43708E-07 8.92925E-06-9.42239E-18-5.63616E-18
 -1      1703 2.26511E-05-4.83596E-05 5.45967E-06 2.02952E-06-7.95957E-18-3.69613E-18
 -1      1704 3.87048E-05-3.68175E-06-1.65218E-05 3.59518E-05-9.85946E-18-7.67073E-18
 -1      1705 2.98017E-05-2.05138E-05-8.08575E-06 1.70970E-05-9.74850E-18-6.26466E-18
 -1      1706 9.06799E-05-4.16694E-06-3.59880E-05 6.58360E-05-7.77492E-18-8.21198E-18
 -1      1707 5.99724E-05-4.62448E-06-2.56213E-05 4.38196E-05-9.11323E-18-7.79948E-18
 -1      1708 1.59032E-04-2.49862E-05-5.40901E-05 7.15323E-05-5.06314E-18-6.54756E-18
 -1      1709 1.16656E-04-9.57013E-06-4.51351E-05 6.49485E-05-6.87664E-18-7.41916E-18
 -1      1710 2.19521E-04-4.86013E-05-6.78514E-05 5.38216E-05-3.01362E-18-3.44912E-18
 -1      1711 1.80191E-04-2.85522E-05-6.16422E-05 6.93544E-05-4.57377E-18-5.94532E-18
 -1      1712 2.50198E-04-6.24943E-05-7.42827E-05 8.45065E-06-2.02780E-18 5.26431E-19
 -1      1713 2.33311E-04-5.31111E-05-7.19574E-05 4.08933E-05-2.34480E-18-2.31028E-18
 -1      1714 2.41649E-04-5.72904E-05-7.31241E-05-3.92966E-05-2.67789E-18 5.69376E-18
 -1      1715 2.54624E-04-6.48585E-05-7.48859E-05-7.22458E-06-1.95262E-18 2.55571E-18
 -1      1716 1.92610E-04-3.37768E-05-6.39840E-05-6.71935E-05-4.67245E-18 8.41781E-18
 -1      1717 2.26689E-04-5.16449E-05-6.92906E-05-4.96459E-05-3.18765E-18 6.90967E-18
 -1      1718 1.34130E-04-1.06090E-05-5.07657E-05-7.59973E-05-7.30608E-18 1.00373E-17
 -1      1719 1.73765E-04-2.77140E-05-5.81553E-05-7.71431E-05-5.38967E-18 9.55792E-18
 -1      1720 7.87282E-05-2.88935E-07-3.39346E-05-5.81591E-05-9.29788E-18 9.49863E-18
 -1      1721 1.11990E-04-6.02060E-06-4.29166E-05-7.49978E-05-8.07731E-18 1.03939E-17
 -1      1722 4.52091E-05-1.35812E-05-1.62853E-05-3.07569E-05-9.47406E-18 7.42678E-18
 -1      1723 6.26080E-05-3.65843E-06-2.52740E-05-5.14053E-05-9.43679E-18 8.67362E-18
 -1      1724 2.59680E-05-3.55553E-05-7.58895E-07-7.88264E-06-6.08424E-18 5.44663E-18
 -1      1725 2.81600E-05-1.49386E-05-8.20634E-06-2.17758E-05-8.86166E-18 7.77153E-18
 -1      1726 2.38797E-05-6.16406E-05 1.01934E-05-4.88935E-07 4.40457E-19 3.17182E-18
 -1      1727 1.95305E-05-4.17905E-05 5.09893E-06-2.42500E-06-4.36900E-18 5.17759E-18
 -1      1728 2.37200E-05-7.59349E-05 1.57284E-05-2.77747E-06 5.85586E-18 1.83679E-18
 -1      1729 2.07371E-05-6.69825E-05 1.37877E-05 5.04257E-06 2.28741E-18 2.18026E-18
 -1      1730 1.18821E-04-3.61049E-05-3.45289E-05 4.25129E-05 5.89704E-18 3.92261E-18
 -1      1731 7.19180E-05-3.61832E-05-1.68612E-05 3.81102E-05 6.22146E-18 5.47861E-18
 -1      1732 9.52369E-05-2.85713E-05-2.85710E-05-2.68588E-10-1.48331E-18-2.27207E-19
 -1      1733 9.52368E-05-2.85719E-05-2.85707E-05-1.21177E-09 1.17110E-18 3.12352E-18
 -1      1734 1.84308E-05-4.59451E-05 7.96345E-06 1.44788E-05 5.29734E-18 3.94527E-18
 -1      1735 4.00062E-05-4.26618E-05-2.03092E-06 2.77323E-05 5.86824E-18 3.60042E-18
 -1      1736 1.16519E-05-5.02850E-05 1.18295E-05-1.41264E-06 3.79878E-18 3.66215E-18
 -1      1737 1.61661E-04-3.66401E-05-5.13222E-05 3.64879E-05 5.59592E-18 2.05914E-18
 -1      1738 1.99163E-04-3.58311E-05-6.50692E-05 3.02915E-05 4.72718E-18 1.94818E-19
 -1      1739 2.10939E-04-3.33415E-05-7.09048E-05 9.42606E-06 4.14538E-18-3.02560E-18
 -1      1740 2.06725E-04-3.26523E-05-6.96522E-05-1.21971E-05 4.57737E-18-5.10380E-18
 -1      1741 1.90293E-04-3.47458E-05-6.21860E-05-3.24722E-05 4.56958E-18-7.47168E-18
 -1      1742 1.51961E-04-3.45760E-05-4.80317E-05-4.13892E-05 4.23834E-18-7.84945E-18
 -1      1743 1.05794E-04-3.40857E-05-3.06242E-05-4.32344E-05 4.48927E-18-6.88214E-18
 -1      1744 6.34288E-05-3.68888E-05-1.34484E-05-3.59604E-05 3.46352E-18-5.72594E-18
 -1      1745 3.25234E-05-4.09764E-05 3.73917E-07-2.42215E-05 2.08116E-18-4.70813E-18
 -1      1746 1.38779E-05-4.63261E-05 9.22126E-06-6.73593E-06 2.16840E-19-3.72123E-18
 -1      1747 1.11758E-05-4.43635E-05 9.89698E-06 7.02819E-06-2.00207E-18-3.41608E-18
 -1      1748 2.15438E-05-4.02206E-05 4.28352E-06 1.93951E-05-3.80741E-18-3.71996E-18
 -1      1749 4.33645E-05-3.39416E-05-6.63519E-06 3.15857E-05-5.36172E-18-4.78616E-18
 -1      1750 8.05601E-05-3.00594E-05-2.21836E-05 4.33096E-05-5.70900E-18-4.82809E-18
 -1      1751 1.27756E-04-3.21587E-05-3.94592E-05 4.32605E-05-5.18723E-18-3.90397E-18
 -1      1752 1.66825E-04-3.22349E-05-5.49874E-05 3.35082E-05-4.43152E-18-2.90278E-18
 -1      1753 1.95915E-04-3.12348E-05-6.60973E-05 2.04991E-05-4.04225E-18-1.35991E-18
 -1      1754 2.10707E-04-3.38289E-05-7.05562E-05-2.69040E-07-3.80275E-18 1.05948E-18
 -1      1755 2.01585E-04-3.30675E-05-6.74376E-05-2.04238E-05-3.94633E-18 3.26531E-18
 -1      1756 1.75339E-04-3.03337E-05-5.83719E-05-3.79283E-05-4.21288E-18 4.84757E-18
 -1      1757 1.38889E-04-2.79907E-05-4.53338E-05-4.84235E-05-5.34986E-18 5.85639E-18
 -1      1758 1.00090E-04-3.09795E-05-2.95182E-05-4.58408E-05-5.42313E-18 5.65818E-18
 -1      1759 6.40124E-05-3.51628E-05-1.38368E-05-3.90194E-05-4.17333E-18 5.71790E-18
 -1      1760 3.44802E-05-4.08801E-05-4.85375E-07-2.67812E-05-1.47553E-18 6.77981E-18
 -1      1761 1.78449E-05-4.75006E-05 8.45542E-06-1.49750E-05 1.01856E-18 5.34647E-18
 -1      1762 1.19685E-04-2.70122E-05-3.98018E-05-1.54307E-05-1.24471E-18 1.67903E-18
 -1      1763 9.64838E-05-1.38595E-05-3.55470E-05-9.00442E-06-6.35288E-19-2.58411E-18
 -1      1764 9.93578E-05-1.50908E-05-3.62898E-05-1.14338E-05-9.45342E-19-2.37685E-18
 -1      1765 1.02780E-04-1.74082E-05-3.67662E-05-1.29331E-05-1.18615E-18-1.94066E-18
 -1      1766 1.05862E-04-1.95820E-05-3.75011E-05-1.51536E-05-1.53198E-18-1.40327E-18
 -1      1767 1.03629E-04-2.06483E-05-3.55938E-05-1.07419E-05-1.11403E-18-1.92827E-18
 -1      1768 8.54313E-05-9.30616E-06-3.27102E-05-7.87531E-07 2.79355E-19-2.76262E-18
 -1      1769 8.81639E-05-1.01470E-05-3.34786E-05-2.66787E-06 1.00909E-19-2.83284E-18
 -1      1770 7.93585E-05-6.70590E-06-3.12187E-05 2.46479E-06 7.30976E-19-2.65971E-18
 -1      1771 8.23243E-05-7.71673E-06-3.19801E-05 1.02307E-06 5.22599E-19-2.74124E-18
 -1      1772 8.57943E-05-1.15026E-05-3.19098E-05 5.97640E-07 4.26977E-19-2.62894E-18
 -1      1773 7.32694E-05-3.75684E-06-2.98711E-05 4.45267E-06 1.09415E-18-2.52606E-18
 -1      1774 7.61184E-05-4.84198E-06-3.05274E-05 3.64569E-06 9.13029E-19-2.63327E-18
 -1      1775 7.91014E-05-8.08969E-06-3.04954E-05 3.75736E-06 9.17654E-19-2.53375E-18
 -1      1776 6.82327E-05-9.85360E-07-2.88898E-05 4.88066E-06 1.41374E-18-2.36910E-18
 -1      1777 7.03941E-05-1.90760E-06-2.93261E-05 4.75529E-06 1.26003E-18-2.47935E-18
 -1      1778 7.25590E-05-4.38296E-06-2.92557E-05 5.41582E-06 1.27431E-18-2.42366E-18
 -1      1779 6.56071E-05 7.99977E-07-2.85049E-05 3.92274E-06 1.59684E-18-2.23532E-18
 -1      1780 6.64455E-05 3.30359E-07-2.86107E-05 4.31358E-06 1.49790E-18-2.35257E-18
 -1      1781 6.75075E-05-1.20158E-06-2.84223E-05 5.26390E-06 1.60666E-18-2.30735E-18
 -1      1782 6.64588E-05 8.92024E-07-2.88784E-05 2.32727E-06 1.77170E-18-2.02293E-18
 -1      1783 6.55644E-05 1.07394E-06-2.85864E-05 2.84996E-06 1.66671E-18-2.18522E-18
 -1      1784 6.54671E-05 4.04253E-07-2.82158E-05 3.64748E-06 1.74483E-18-2.15427E-18
 -1      1785 7.08927E-05-8.50362E-07-3.00102E-05 1.17145E-06 1.90566E-18-1.60635E-18
 -1      1786 6.83509E-05-4.14468E-08-2.93415E-05 1.37000E-06 1.82517E-18-1.88438E-18
 -1      1787 6.73897E-05-2.65411E-07-2.87567E-05 1.61520E-06 1.93358E-18-1.92348E-18
 -1      1788 7.84170E-05-4.15044E-06-3.18237E-05 1.31085E-06 2.06607E-18-9.16357E-19
 -1      1789 7.45067E-05-2.82210E-06-3.08221E-05 8.42734E-07 1.95454E-18-1.30143E-18
 -1      1790 7.31951E-05-3.16962E-06-3.00261E-05 3.60193E-07 2.07063E-18-1.39742E-18
 -1      1791 8.79637E-05-8.50282E-06-3.40896E-05 3.16058E-06 2.13103E-18 7.62197E-20
 -1      1792 8.31881E-05-6.78608E-06-3.28749E-05 1.86658E-06 2.04716E-18-5.32321E-19
 -1      1793 8.20377E-05-7.74391E-06-3.18810E-05 6.84298E-07 2.12788E-18-6.34309E-19
 -1      1794 9.88949E-05-1.39288E-05-3.65364E-05 6.54298E-06 2.10212E-18 1.63440E-18
 -1      1795 9.34586E-05-1.16459E-05-3.52367E-05 4.45316E-06 2.03211E-18 7.64368E-19
 -1      1796 9.27400E-05-1.33728E-05-3.40553E-05 2.60396E-06 2.11966E-18 4.57265E-19
 -1      1797 1.11739E-04-2.17594E-05-3.87419E-05 1.03384E-05 1.74917E-18 4.04829E-18
 -1      1798 1.05138E-04-1.79236E-05-3.75798E-05 8.06384E-06 1.87452E-18 2.64486E-18
 -1      1799 1.04716E-04-2.02122E-05-3.62080E-05 5.25069E-06 2.01102E-18 2.06067E-18
 -1      1800 1.22231E-04-3.14657E-05-3.93357E-05 8.66072E-06 1.27050E-18 6.45238E-18
 -1      1801 1.16142E-04-2.51125E-05-3.90238E-05 1.03307E-05 1.51107E-18 4.90469E-18
 -1      1802 1.14631E-04-2.73987E-05-3.74438E-05 5.84352E-06 1.72284E-18 3.97592E-18
 -1      1803 1.20556E-04-3.29923E-05-3.77158E-05 3.63486E-06 1.34869E-18 5.99904E-18
 -1      1804 1.13064E-04-2.33412E-05-3.81417E-05-1.68894E-05-1.55155E-18-2.57180E-19
 -1      1805 1.19871E-04-3.51076E-05-3.63640E-05-1.01174E-06 9.98334E-19 5.19072E-18
 -1      1806 1.20663E-04-3.46358E-05-3.69107E-05 1.03884E-06 1.10453E-18 5.55601E-18
 -1      1807 1.18218E-04-3.23121E-05-3.68347E-05 2.28726E-06 1.30893E-18 4.35719E-18
 -1      1808 1.12609E-04-2.68518E-05-3.64704E-05-1.24285E-05-1.46764E-18-5.78735E-19
 -1      1809 1.10786E-04-3.20374E-05-3.36384E-05-5.10741E-06-1.22376E-18-4.87206E-19
 -1      1810 1.08982E-04-3.22157E-05-3.29152E-05-4.09492E-06-1.01842E-18-7.70443E-19
 -1      1811 1.08305E-04-3.25615E-05-3.23764E-05-3.68912E-06-9.18594E-19-6.26871E-19
 -1      1812 1.07093E-04-3.25807E-05-3.19432E-05-3.81127E-06-7.03952E-19-9.74872E-19
 -1      1813 1.08762E-04-3.21551E-05-3.28420E-05-5.28458E-06-1.12140E-18-8.72232E-19
 -1      1814 1.06451E-04-3.26391E-05-3.15905E-05-4.24196E-06-5.77658E-19-9.17247E-19
 -1      1815 1.05149E-04-3.23588E-05-3.12110E-05-4.82362E-06-5.87067E-19-1.05508E-18
 -1      1816 1.07626E-04-3.30699E-05-3.19532E-05-5.18274E-06-8.48135E-19-8.38804E-19
 -1      1817 1.04339E-04-3.21140E-05-3.09423E-05-5.57543E-06-5.29578E-19-9.67568E-19
 -1      1818 1.02771E-04-3.14933E-05-3.05487E-05-6.15670E-06-3.93447E-19-1.01254E-18
 -1      1819 1.06275E-04-3.30430E-05-3.13728E-05-6.46240E-06-5.41929E-19-7.49680E-19
 -1      1820 1.01657E-04-3.08881E-05-3.03339E-05-6.67305E-06-3.72648E-19-9.37725E-19
 -1      1821 9.99018E-05-2.99658E-05-2.99434E-05-6.81262E-06-4.19559E-19-1.06562E-18
 -1      1822 1.04344E-04-3.20323E-05-3.09720E-05-7.89475E-06-3.84831E-19-7.52901E-19
 -1      1823 9.85647E-05-2.90794E-05-2.97838E-05-6.55473E-06-5.96809E-19-1.21006E-18
 -1      1824 9.69532E-05-2.80821E-05-2.94584E-05-5.92333E-06-7.41018E-19-1.30769E-18
 -1      1825 1.01787E-04-3.01123E-05-3.07095E-05-8.24097E-06-6.35358E-19-5.74952E-19
 -1      1826 9.57585E-05-2.72213E-05-2.93615E-05-4.61243E-06-8.88882E-19-1.41828E-18
 -1      1827 9.47480E-05-2.65277E-05-2.91724E-05-3.19719E-06-8.08162E-19-1.51809E-18
 -1      1828 9.90942E-05-2.78245E-05-3.05653E-05-6.53422E-06-9.04952E-19-7.91814E-19
 -1      1829 9.41890E-05-2.61120E-05-2.91373E-05-1.07161E-06-9.15954E-19-1.69228E-18
 -1      1830 9.41324E-05-2.60501E-05-2.91315E-05 7.25325E-07-5.94425E-19-1.89103E-18
 -1      1831 9.72136E-05-2.61529E-05-3.05066E-05-2.67945E-06-1.04687E-18-1.29933E-18
 -1      1832 9.44771E-05-2.63141E-05-2.91532E-05 2.94074E-06-6.80578E-19-2.34892E-18
 -1      1833 9.54109E-05-2.69287E-05-2.93330E-05 4.48464E-06-6.46657E-19-2.80259E-18
 -1      1834 9.69874E-05-2.59587E-05-3.04953E-05 2.22811E-06-1.04371E-18-2.04703E-18
 -1      1835 9.64740E-05-2.77280E-05-2.94060E-05 5.98898E-06-5.26385E-19-3.27656E-18
 -1      1836 9.80822E-05-2.87440E-05-2.97248E-05 6.77733E-06-4.01686E-19-3.24257E-18
 -1      1837 9.85131E-05-2.73687E-05-3.05170E-05 6.41237E-06-9.41163E-19-2.51180E-18
 -1      1838 9.93569E-05-2.96701E-05-2.98372E-05 7.16438E-06-2.08135E-19-3.30672E-18
 -1      1839 1.01143E-04-3.06899E-05-3.02140E-05 7.08294E-06-3.04399E-19-3.29960E-18
 -1      1840 1.01032E-04-2.96616E-05-3.05792E-05 8.48326E-06-3.99892E-19-2.85920E-18
 -1      1841 1.02156E-04-3.13776E-05-3.03418E-05 6.47934E-06-2.86228E-19-3.43967E-18
 -1      1842 1.03678E-04-3.21143E-05-3.06899E-05 5.76183E-06 8.45709E-20-3.21249E-18
 -1      1843 1.03476E-04-3.18112E-05-3.06842E-05 8.16440E-06-8.95464E-20-2.68219E-18
 -1      1844 1.04203E-04-3.24186E-05-3.08014E-05 4.60744E-06 1.64080E-20-3.27274E-18
 -1      1845 1.05211E-04-3.27821E-05-3.10561E-05 3.62160E-06-1.18088E-19-2.99439E-18
 -1      1846 1.05098E-04-3.31351E-05-3.08085E-05 6.14355E-06 1.63484E-20-2.34819E-18
 -1      1847 1.05262E-04-3.27540E-05-3.11236E-05 2.36977E-06-7.33213E-21-2.88766E-18
 -1      1848 1.05706E-04-3.28004E-05-3.12555E-05 1.42400E-06 1.41435E-19-2.39049E-18
 -1      1849 1.05686E-04-3.35068E-05-3.09087E-05 3.44273E-06 9.69257E-20-2.37617E-18
 -1      1850 1.05413E-04-3.25701E-05-3.12643E-05 3.70377E-07-3.13819E-19-2.09443E-18
 -1      1851 1.05376E-04-3.24098E-05-3.12773E-05-3.64054E-07-3.40831E-20-2.19022E-18
 -1      1852 1.05408E-04-3.31718E-05-3.09433E-05 8.88312E-07 7.99586E-20-1.97365E-18
 -1      1853 1.04879E-04-3.20971E-05-3.12279E-05-1.10080E-06-2.19769E-19-2.58668E-18
 -1      1854 1.04500E-04-3.18328E-05-3.11465E-05-1.57573E-06-2.27132E-19-2.82190E-18
 -1      1855 1.04564E-04-3.24713E-05-3.08901E-05-1.07828E-06-5.86431E-19-1.59006E-18
 -1      1856 1.03913E-04-3.15154E-05-3.10503E-05-1.99842E-06 1.21010E-19-2.82849E-18
 -1      1857 1.03333E-04-3.12196E-05-3.09069E-05-2.24083E-06 6.99514E-20-2.56665E-18
 -1      1858 1.03428E-04-3.16727E-05-3.07508E-05-2.34243E-06-8.59937E-20-1.45574E-18
 -1      1859 1.02731E-04-3.09361E-05-3.07802E-05-2.41112E-06 6.62199E-21-2.52080E-18
 -1      1860 1.02065E-04-3.06515E-05-3.06054E-05-2.47877E-06 4.88276E-19-2.34443E-18
 -1      1861 1.02195E-04-3.09300E-05-3.05443E-05-2.98199E-06 2.00934E-19-1.60411E-18
 -1      1862 1.01494E-04-3.04152E-05-3.04646E-05-2.47332E-06 6.34179E-19-2.94388E-18
 -1      1863 1.00826E-04-3.01629E-05-3.02822E-05-2.42667E-06 1.59231E-19-2.87221E-18
 -1      1864 1.00991E-04-3.03077E-05-3.02969E-05-3.15157E-06 3.47191E-19-1.54709E-18
 -1      1865 1.00310E-04-2.99735E-05-3.01407E-05-2.31428E-06 1.81605E-19-2.64246E-18
 -1      1866 9.96904E-05-2.97612E-05-2.99670E-05-2.20341E-06 1.87952E-19-2.12362E-18
 -1      1867 9.98853E-05-2.98170E-05-3.00343E-05-3.01149E-06 3.68963E-19-1.94586E-18
 -1      1868 9.92424E-05-2.96132E-05-2.98341E-05-2.03682E-06 2.89807E-19-1.79664E-18
 -1      1869 9.86985E-05-2.94410E-05-2.96787E-05-1.89799E-06 9.03862E-19-1.65920E-18
 -1      1870 9.89118E-05-2.94444E-05-2.97771E-05-2.69515E-06 4.93285E-19-1.80089E-18
 -1      1871 9.83204E-05-2.93274E-05-2.95601E-05-1.71346E-06 1.18535E-18-1.66226E-18
 -1      1872 9.78628E-05-2.91918E-05-2.94272E-05-1.57030E-06 1.58513E-18-1.14127E-18
 -1      1873 9.80821E-05-2.91687E-05-2.95397E-05-2.30020E-06 1.21024E-18-1.14337E-18
 -1      1874 9.75517E-05-2.91058E-05-2.93255E-05-1.39045E-06 1.09762E-18-1.39064E-18
 -1      1875 9.71796E-05-2.90017E-05-2.92160E-05-1.25679E-06 6.70399E-19-1.01081E-18
 -1      1876 9.73938E-05-2.89685E-05-2.93301E-05-1.89131E-06 1.43067E-18-1.81145E-18
 -1      1877 9.69296E-05-2.89376E-05-2.91316E-05-1.09416E-06 3.35093E-19-9.99449E-19
 -1      1878 9.66358E-05-2.88596E-05-2.90441E-05-9.76955E-07 3.78522E-19-8.79068E-19
 -1      1879 9.68360E-05-2.88257E-05-2.91518E-05-1.50721E-06 9.30990E-19-1.36412E-18
 -1      1880 9.64391E-05-2.88126E-05-2.89759E-05-8.37198E-07 4.83855E-20-7.37031E-19
 -1      1881 9.62133E-05-2.87555E-05-2.89079E-05-7.38919E-07-3.11643E-19-7.60323E-19
 -1      1882 9.63939E-05-2.87255E-05-2.90046E-05-1.16797E-06 3.46466E-19-1.03817E-18
 -1      1883 9.60618E-05-2.87216E-05-2.88544E-05-6.23347E-07-1.61569E-19-9.10874E-19
 -1      1884 9.58927E-05-2.86811E-05-2.88029E-05-5.43770E-07 5.23547E-20-1.14819E-18
 -1      1885 9.60507E-05-2.86567E-05-2.88865E-05-8.81324E-07 1.71309E-20-1.04928E-18
 -1      1886 9.57787E-05-2.86571E-05-2.87618E-05-4.51144E-07-2.45933E-19-1.24109E-18
 -1      1887 9.56555E-05-2.86291E-05-2.87238E-05-3.88586E-07-3.51837E-19-1.47512E-18
 -1      1888 9.57900E-05-2.86107E-05-2.87939E-05-6.47353E-07-2.15690E-19-1.23073E-18
 -1      1889 9.55715E-05-2.86127E-05-2.86930E-05-3.16354E-07-6.14364E-19-1.43865E-18
 -1      1890 9.54843E-05-2.85942E-05-2.86658E-05-2.68476E-07-9.43832E-19-1.65345E-18
 -1      1891 9.55963E-05-2.85811E-05-2.87230E-05-4.61865E-07-8.96835E-19-1.43088E-18
 -1      1892 9.54240E-05-2.85833E-05-2.86433E-05-2.13565E-07-8.46991E-19-1.94689E-18
 -1      1893 9.53646E-05-2.85716E-05-2.86244E-05-1.77859E-07-3.18543E-19-2.23213E-18
 -1      1894 9.54557E-05-2.85629E-05-2.86701E-05-3.18614E-07-7.21228E-19-7.33090E-19
 -1      1895 9.53225E-05-2.85648E-05-2.86084E-05-1.37159E-07-2.56232E-19-2.00215E-18
 -1      1896 9.52838E-05-2.85581E-05-2.85959E-05-1.11234E-07-2.89023E-19-1.24209E-18
 -1      1897 9.53565E-05-2.85527E-05-2.86316E-05-2.10720E-07-7.22674E-19-6.50636E-19
 -1      1898 9.52555E-05-2.85540E-05-2.85849E-05-8.18603E-08-1.87531E-19-1.32818E-18
 -1      1899 9.52318E-05-2.85507E-05-2.85770E-05-6.35839E-08 7.93157E-20-1.01548E-18
 -1      1900 9.52888E-05-2.85479E-05-2.86043E-05-1.31497E-07-8.38203E-20 6.15496E-19
 -1      1901 9.52138E-05-2.85487E-05-2.85697E-05-4.30093E-08 1.65791E-19-5.75440E-19
 -1      1902 9.52008E-05-2.85476E-05-2.85652E-05-3.05669E-08 5.20575E-19-3.36963E-19
 -1      1903 9.52445E-05-2.85465E-05-2.85856E-05-7.49020E-08 4.93848E-19 5.09060E-19
 -1      1904 9.51901E-05-2.85469E-05-2.85607E-05-1.66652E-08 2.80692E-19-8.33994E-19
 -1      1905 9.51844E-05-2.85473E-05-2.85584E-05-8.56428E-09 3.46104E-20-1.08845E-18
 -1      1906 9.52172E-05-2.85473E-05-2.85734E-05-3.57304E-08 1.40017E-20 1.23363E-19
 -1      1907 9.51788E-05-2.85474E-05-2.85559E-05 3.98261E-10 8.39965E-20-1.55477E-18
 -1      1908 9.51780E-05-2.85487E-05-2.85552E-05 5.35051E-09 1.53164E-19-1.64421E-18
 -1      1909 9.52021E-05-2.85494E-05-2.85658E-05-9.65691E-09-2.75928E-19-3.07351E-19
 -1      1910 9.51759E-05-2.85493E-05-2.85540E-05 1.07505E-08-3.24141E-19-1.73856E-18
 -1      1911 9.51780E-05-2.85509E-05-2.85543E-05 1.34839E-08-4.15266E-19-1.95957E-18
 -1      1912 9.51953E-05-2.85520E-05-2.85617E-05 6.80856E-09-2.10264E-19-2.27881E-19
 -1      1913 9.51781E-05-2.85518E-05-2.85540E-05 1.63884E-08 1.01556E-19-1.62434E-18
 -1      1914 9.51819E-05-2.85537E-05-2.85549E-05 1.76106E-08 4.08469E-20-8.76738E-19
 -1      1915 9.51939E-05-2.85549E-05-2.85598E-05 1.64123E-08 2.63662E-19-6.94580E-19
 -1      1916 9.51835E-05-2.85546E-05-2.85551E-05 1.88275E-08-8.36161E-19-8.15501E-19
 -1      1917 9.51881E-05-2.85565E-05-2.85563E-05 1.90645E-08-1.51032E-18-1.14470E-18
 -1      1918 9.51960E-05-2.85577E-05-2.85594E-05 2.12647E-08-4.96814E-19-4.20491E-19
 -1      1919 9.51903E-05-2.85575E-05-2.85569E-05 1.91908E-08-1.62469E-18-7.11416E-19
 -1      1920 9.51951E-05-2.85592E-05-2.85582E-05 1.88231E-08-1.76261E-18-7.86677E-19
 -1      1921 9.52001E-05-2.85603E-05-2.85600E-05 2.29499E-08-1.70580E-18-1.43292E-19
 -1      1922 9.51977E-05-2.85601E-05-2.85590E-05 1.82876E-08-1.69590E-18-9.16252E-19
 -1      1923 9.52024E-05-2.85617E-05-2.85603E-05 1.75813E-08-4.97428E-20-6.05417E-19
 -1      1924 9.52051E-05-2.85626E-05-2.85611E-05 2.26267E-08-1.56294E-18 1.82173E-18
 -1      1925 9.52050E-05-2.85625E-05-2.85611E-05 1.66808E-08 9.88854E-19-1.02439E-18
 -1      1926 9.52093E-05-2.85639E-05-2.85623E-05 1.58133E-08 2.15438E-18-1.33932E-18
 -1      1927 9.52104E-05-2.85646E-05-2.85625E-05 2.11167E-08 2.05308E-19 2.20074E-18
 -1      1928 9.52118E-05-2.85646E-05-2.85631E-05 1.47423E-08 3.07369E-18-2.29349E-18
 -1      1929 9.52157E-05-2.85658E-05-2.85642E-05 1.38221E-08 1.77411E-18-3.69919E-19
 -1      1930 9.52156E-05-2.85663E-05-2.85640E-05 1.89780E-08 1.84328E-18 1.54837E-19
 -1      1931 9.52180E-05-2.85665E-05-2.85650E-05 1.26951E-08 1.21934E-18 5.42906E-21
 -1      1932 9.52213E-05-2.85675E-05-2.85659E-05 1.17764E-08 1.68122E-18 6.94065E-19
 -1      1933 9.52204E-05-2.85678E-05-2.85654E-05 1.65639E-08 2.43255E-18-4.36117E-19
 -1      1934 9.52233E-05-2.85680E-05-2.85666E-05 1.06459E-08 8.68089E-19 1.21950E-18
 -1      1935 9.52261E-05-2.85689E-05-2.85674E-05 9.73916E-09 1.39215E-18 8.15583E-19
 -1      1936 9.52248E-05-2.85691E-05-2.85667E-05 1.40684E-08 1.02911E-18 6.68099E-19
 -1      1937 9.52278E-05-2.85694E-05-2.85679E-05 8.61000E-09 3.83215E-19-7.82045E-20
 -1      1938 9.52300E-05-2.85701E-05-2.85686E-05 7.69111E-09-4.82235E-19-8.41610E-19
 -1      1939 9.52285E-05-2.85702E-05-2.85678E-05 1.15625E-08 1.34892E-19 1.28215E-19
 -1      1940 9.52315E-05-2.85706E-05-2.85690E-05 6.53737E-09-2.68221E-19-1.30424E-18
 -1      1941 9.52332E-05-2.85711E-05-2.85695E-05 5.56033E-09-3.99772E-20-9.70886E-19
 -1      1942 9.52316E-05-2.85712E-05-2.85688E-05 9.03049E-09-2.40334E-19-4.46188E-19
 -1      1943 9.52342E-05-2.85715E-05-2.85698E-05 4.41844E-09 8.94603E-19-9.04980E-19
 -1      1944 9.52354E-05-2.85719E-05-2.85701E-05 3.39895E-09 8.66750E-19-5.20312E-19
 -1      1945 9.52359E-05-2.85725E-05-2.85700E-05 4.01330E-09-1.23558E-19-8.52505E-19
 -1      1946 9.52341E-05-2.85720E-05-2.85694E-05 6.48969E-09 4.54992E-19 9.93239E-19
 -1      1947 1.20442E-04-3.64143E-05-3.60253E-05-1.98642E-06 7.38391E-19 4.51316E-18
 -1      1948 1.20269E-04-3.58982E-05-3.61136E-05-1.60756E-06 7.98064E-19 4.90587E-18
 -1      1949 1.18441E-04-3.49522E-05-3.58128E-05-1.43426E-06 1.01580E-18 3.76856E-18
 -1      1950 1.21360E-04-3.77177E-05-3.58840E-05-2.97547E-07 3.84483E-19 4.19162E-18
 -1      1951 1.21163E-04-3.72517E-05-3.59377E-05-1.20139E-06 4.93119E-19 4.32275E-18
 -1      1952 1.19549E-04-3.69211E-05-3.54309E-05-1.55831E-06 6.16107E-19 3.48342E-18
 -1      1953 1.21389E-04-3.85587E-05-3.55355E-05 3.80917E-06-7.56903E-20 4.33230E-18
 -1      1954 1.21973E-04-3.84889E-05-3.57821E-05 1.71386E-06 4.03929E-20 4.13802E-18
 -1      1955 1.20980E-04-3.87742E-05-3.52260E-05 1.42130E-06 1.18777E-19 3.17653E-18
 -1      1956 1.19279E-04-3.79161E-05-3.48715E-05 9.20348E-06-5.34517E-19 4.46296E-18
 -1      1957 1.21212E-04-3.87210E-05-3.53755E-05 6.48286E-06-3.80966E-19 4.34851E-18
 -1      1958 1.21485E-04-3.96554E-05-3.50311E-05 6.84949E-06-4.06655E-19 3.15307E-18
 -1      1959 1.14425E-04-3.48734E-05-3.40730E-05 1.29321E-05 2.05349E-19 4.35994E-18
 -1      1960 1.17684E-04-3.67717E-05-3.47187E-05 1.10836E-05-2.62395E-19 4.42477E-18
 -1      1961 1.19667E-04-3.80918E-05-3.49111E-05 1.25774E-05-3.03231E-19 3.42524E-18
 -1      1962 1.08127E-04-3.01347E-05-3.34580E-05 1.11861E-05 1.15911E-18 3.97730E-18
 -1      1963 1.11695E-04-3.24681E-05-3.40074E-05 1.20527E-05 6.35910E-19 4.25343E-18
 -1      1964 1.15172E-04-3.35648E-05-3.49937E-05 1.45445E-05 7.46765E-19 3.21362E-18
 -1      1965 1.04057E-04-2.68367E-05-3.32372E-05 2.87296E-06 1.74388E-18 2.99556E-18
 -1      1966 1.06042E-04-2.80323E-05-3.34707E-05 6.81087E-06 1.75098E-18 3.69521E-18
 -1      1967 1.10132E-04-2.82435E-05-3.52205E-05 9.16838E-06 1.92861E-18 2.85577E-18
 -1      1968 1.05516E-04-2.79660E-05-3.34229E-05-7.42699E-06 9.34330E-19 2.01943E-18
 -1      1969 1.04565E-04-2.70135E-05-3.32508E-05-2.74582E-06 1.23752E-18 2.36114E-18
 -1      1970 1.08466E-04-2.63724E-05-3.53437E-05-2.05550E-06 1.78232E-18 2.22980E-18
 -1      1971 1.11542E-04-3.25634E-05-3.39392E-05-1.31753E-05 7.80925E-19 1.41354E-18
 -1      1972 1.08219E-04-3.02285E-05-3.34297E-05-1.06508E-05 1.02607E-18 1.64144E-18
 -1      1973 1.11675E-04-2.96963E-05-3.52194E-05-1.20786E-05 1.23267E-18 1.05350E-18
 -1      1974 1.17899E-04-3.69487E-05-3.46575E-05-1.20717E-05 6.12967E-19 9.20169E-19
 -1      1975 1.14156E-04-3.48703E-05-3.40082E-05-1.25032E-05 7.86715E-19 1.07586E-18
 -1      1976 1.16937E-04-3.52621E-05-3.50007E-05-1.49671E-05 8.37054E-19 5.34941E-19
 -1      1977 1.21447E-04-3.88901E-05-3.52911E-05-6.82642E-06 6.30067E-19 2.18667E-19
 -1      1978 1.18901E-04-3.79099E-05-3.47668E-05-8.98221E-06 7.04493E-19 6.14231E-19
 -1      1979 1.20496E-04-3.90694E-05-3.48892E-05-1.10531E-05 9.22809E-19-3.25380E-19
 -1      1980 1.21698E-04-3.85712E-05-3.55526E-05-1.14305E-06 7.66300E-19 1.04466E-19
 -1      1981 1.20872E-04-3.85868E-05-3.53312E-05-3.48611E-06 5.10192E-19 2.27299E-19
 -1      1982 1.21007E-04-3.97746E-05-3.48406E-05-4.46396E-06 6.81557E-19-4.69597E-19
 -1      1983 1.19654E-04-3.71278E-05-3.53346E-05 2.91470E-06-1.08837E-19 5.45966E-19
 -1      1984 1.20251E-04-3.76872E-05-3.54406E-05 1.22071E-06 3.57567E-19 2.31233E-19
 -1      1985 1.19172E-04-3.83612E-05-3.46740E-05 1.32638E-06 4.97182E-19-3.42803E-19
 -1      1986 1.16467E-04-3.54393E-05-3.47226E-05 5.01476E-06-1.97332E-19 8.02934E-19
 -1      1987 1.17926E-04-3.61817E-05-3.50701E-05 4.11350E-06-2.39465E-19 8.49733E-19
 -1      1988 1.16183E-04-3.62713E-05-3.42811E-05 4.96867E-06-1.12576E-19 7.82579E-20
 -1      1989 1.12949E-04-3.39106E-05-3.38848E-05 5.63135E-06 7.51639E-19 6.51904E-19
 -1      1990 1.14772E-04-3.46438E-05-3.43578E-05 5.33958E-06 2.61545E-19 7.99493E-19
 -1      1991 1.12876E-04-3.43322E-05-3.36809E-05 6.58146E-06 3.89496E-19 7.26423E-19
 -1      1992 1.09570E-04-3.26532E-05-3.29789E-05 5.36900E-06 5.04195E-19 9.63189E-19
 -1      1993 1.11419E-04-3.32990E-05-3.34815E-05 5.44483E-06 6.95504E-19 8.06968E-19
 -1      1994 1.09692E-04-3.28027E-05-3.29610E-05 6.79808E-06 6.75661E-19 5.74298E-19
 -1      1995 1.06557E-04-3.16575E-05-3.21130E-05 4.69297E-06-5.83794E-19 1.05272E-18
 -1      1996 1.08245E-04-3.21953E-05-3.25849E-05 4.94699E-06-2.97451E-19 9.72377E-19
 -1      1997 1.06829E-04-3.16684E-05-3.22142E-05 6.24064E-06-2.91945E-20 5.09552E-19
 -1      1998 1.03997E-04-3.08809E-05-3.13452E-05 3.89082E-06-1.04100E-18 1.79086E-18
 -1      1999 1.05444E-04-3.13143E-05-3.17569E-05 4.20413E-06-3.08255E-19 1.43898E-18
 -1      2000 1.04361E-04-3.08395E-05-3.15092E-05 5.35070E-06-6.02083E-19 1.18905E-18
 -1      2001 1.01891E-04-3.02798E-05-3.06972E-05 3.11428E-06-1.08807E-18 2.10864E-18
 -1      2002 1.03081E-04-3.06215E-05-3.10396E-05 3.42298E-06-1.26307E-18 1.54273E-18
 -1      2003 1.02295E-04-3.02304E-05-3.08845E-05 4.39058E-06-1.39736E-18 1.43668E-18
 -1      2004 1.00202E-04-2.98176E-05-3.01692E-05 2.43026E-06 5.21905E-19 1.65964E-18
 -1      2005 1.01152E-04-3.00825E-05-3.04446E-05 2.70527E-06-1.75973E-19 2.19505E-18
 -1      2006 1.00606E-04-2.97781E-05-3.03551E-05 3.49433E-06-4.00977E-19 1.69919E-18
 -1      2007 9.88755E-05-2.94650E-05-2.97498E-05 1.85889E-06 2.51728E-20 1.09173E-18
 -1      2008 9.96163E-05-2.96673E-05-2.99660E-05 2.09062E-06 4.96191E-19 1.02068E-18
 -1      2009 9.92529E-05-2.94395E-05-2.99208E-05 2.71781E-06 9.57040E-19 9.11551E-19
 -1      2010 9.78509E-05-2.91988E-05-2.94236E-05 1.39735E-06-1.32678E-18 1.03341E-18
 -1      2011 9.84181E-05-2.93510E-05-2.95899E-05 1.58593E-06-8.88746E-19 1.05454E-18
 -1      2012 9.81879E-05-2.91858E-05-2.95736E-05 2.07434E-06-5.45734E-19 1.21875E-18
 -1      2013 9.70726E-05-2.90002E-05-2.91744E-05 1.03307E-06-4.58716E-19 1.06652E-18
 -1      2014 9.74996E-05-2.91131E-05-2.93001E-05 1.18292E-06-7.52414E-19 6.15037E-19
 -1      2015 9.73632E-05-2.89964E-05-2.93015E-05 1.55657E-06-6.51200E-19 1.10873E-18
 -1      2016 9.64909E-05-2.88543E-05-2.89871E-05 7.50634E-07 3.85580E-19 1.76582E-18
 -1      2017 9.68070E-05-2.89366E-05-2.90806E-05 8.67571E-07 4.15592E-20 1.51449E-18
 -1      2018 9.67347E-05-2.88564E-05-2.90922E-05 1.14873E-06-4.60003E-20 1.17859E-18
 -1      2019 9.60633E-05-2.87489E-05-2.88488E-05 5.34949E-07 5.67384E-19 1.84032E-18
 -1      2020 9.62932E-05-2.88079E-05-2.89171E-05 6.24821E-07 7.00445E-19 1.76265E-18
 -1      2021 9.62633E-05-2.87544E-05-2.89339E-05 8.32889E-07 5.49350E-19 1.97954E-18
 -1      2022 9.57550E-05-2.86744E-05-2.87484E-05 3.72578E-07-1.29098E-19 1.55600E-18
 -1      2023 9.59189E-05-2.87157E-05-2.87974E-05 4.40674E-07 3.39760E-20 1.79411E-18
 -1      2024 9.59158E-05-2.86814E-05-2.88161E-05 5.91932E-07 1.80855E-19 1.95495E-18
 -1      2025 9.55374E-05-2.86231E-05-2.86771E-05 2.52120E-07 8.15945E-19 1.43287E-18
 -1      2026 9.56516E-05-2.86512E-05-2.87114E-05 3.02981E-07 2.60425E-19 1.71377E-18
 -1      2027 9.56644E-05-2.86304E-05-2.87300E-05 4.10742E-07 4.58569E-19 2.37278E-18
 -1      2028 9.53879E-05-2.85889E-05-2.86277E-05 1.64175E-07-1.17957E-19 2.36676E-18
 -1      2029 9.54652E-05-2.86074E-05-2.86511E-05 2.01579E-07 3.92604E-19 1.52525E-18
 -1      2030 9.54865E-05-2.85959E-05-2.86684E-05 2.76526E-07 5.19359E-19 2.97121E-18
 -1      2031 9.52887E-05-2.85673E-05-2.85945E-05 1.01136E-07-1.88527E-18 1.80400E-18
 -1      2032 9.53390E-05-2.85788E-05-2.86098E-05 1.28166E-07-1.17667E-18 1.81923E-18
 -1      2033 9.53639E-05-2.85735E-05-2.86253E-05 1.78736E-07-7.47568E-19 2.20967E-18
 -1      2034 9.52259E-05-2.85545E-05-2.85731E-05 5.69329E-08-6.44419E-19 1.39403E-18
 -1      2035 9.52568E-05-2.85611E-05-2.85827E-05 7.60669E-08-1.17796E-18 1.31256E-18
 -1      2036 9.52823E-05-2.85598E-05-2.85960E-05 1.08831E-07-1.17357E-18 1.09442E-18
 -1      2037 9.51889E-05-2.85479E-05-2.85601E-05 2.67769E-08-1.09802E-18 2.30070E-18
 -1      2038 9.52063E-05-2.85511E-05-2.85657E-05 3.99832E-08-9.42507E-19 1.49560E-18
 -1      2039 9.52304E-05-2.85523E-05-2.85769E-05 5.99905E-08-8.28526E-19 4.04251E-19
 -1      2040 9.51699E-05-2.85454E-05-2.85531E-05 6.93383E-09-8.01767E-19 2.98458E-18
 -1      2041 9.51780E-05-2.85464E-05-2.85558E-05 1.57573E-08-7.89185E-19 3.39769E-18
 -1      2042 9.51997E-05-2.85490E-05-2.85650E-05 2.68338E-08-1.51380E-18 1.94693E-18
 -1      2043 9.51629E-05-2.85456E-05-2.85500E-05-5.47550E-09 2.40262E-18 2.50859E-18
 -1      2044 9.51648E-05-2.85451E-05-2.85509E-05 1.63973E-10 7.45613E-19 2.67114E-18
 -1      2045 9.51838E-05-2.85484E-05-2.85583E-05 5.16500E-09 9.45134E-19 2.88660E-18
 -1      2046 9.51635E-05-2.85474E-05-2.85496E-05-1.26434E-08 1.52542E-18 2.43256E-18
 -1      2047 9.51617E-05-2.85461E-05-2.85493E-05-9.26912E-09 2.09939E-18 2.93384E-18
 -1      2048 9.51777E-05-2.85495E-05-2.85552E-05-8.24780E-09 2.38354E-18 4.06278E-18
 -1      2049 9.51688E-05-2.85500E-05-2.85508E-05-1.62160E-08-1.48636E-18 3.88479E-18
 -1      2050 9.51647E-05-2.85483E-05-2.85498E-05-1.44124E-08-1.07350E-19 2.98424E-18
 -1      2051 9.51780E-05-2.85516E-05-2.85543E-05-1.58621E-08 6.45012E-20 4.46750E-18
 -1      2052 9.51765E-05-2.85530E-05-2.85528E-05-1.74097E-08-1.09833E-18 3.60995E-18
 -1      2053 9.51714E-05-2.85511E-05-2.85515E-05-1.66600E-08-1.09944E-18 3.31579E-18
 -1      2054 9.51821E-05-2.85541E-05-2.85549E-05-1.95195E-08-1.10114E-18 4.29494E-18
 -1      2055 9.51853E-05-2.85560E-05-2.85553E-05-1.71059E-08-2.70663E-19 2.54320E-18
 -1      2056 9.51798E-05-2.85542E-05-2.85538E-05-1.70326E-08-1.02681E-18 2.21229E-18
 -1      2057 9.51883E-05-2.85568E-05-2.85564E-05-2.05764E-08-4.16324E-19 2.18168E-18
 -1      2058 9.51942E-05-2.85589E-05-2.85579E-05-1.59274E-08 6.23788E-20 2.81603E-18
 -1      2059 9.51889E-05-2.85572E-05-2.85564E-05-1.62615E-08 2.31145E-19 3.06339E-18
 -1      2060 9.51954E-05-2.85594E-05-2.85583E-05-2.00114E-08-3.33172E-19 1.56598E-18
 -1      2061 9.52027E-05-2.85615E-05-2.85605E-05-1.42987E-08 4.57505E-20 2.22430E-18
 -1      2062 9.51977E-05-2.85600E-05-2.85590E-05-1.48548E-08-1.86976E-19 2.07864E-18
 -1      2063 9.52026E-05-2.85618E-05-2.85604E-05-1.85112E-08 2.86891E-19 1.14381E-18
 -1      2064 9.52104E-05-2.85639E-05-2.85628E-05-1.24928E-08-1.35071E-18 3.03729E-18
 -1      2065 9.52060E-05-2.85625E-05-2.85615E-05-1.31504E-08-2.52027E-19 2.46941E-18
 -1      2066 9.52095E-05-2.85640E-05-2.85624E-05-1.65385E-08-5.84884E-19 2.34304E-18
 -1      2067 9.52172E-05-2.85659E-05-2.85648E-05-1.06654E-08 8.87346E-19 2.67176E-18
 -1      2068 9.52133E-05-2.85647E-05-2.85637E-05-1.13548E-08-1.00857E-19 3.07541E-18
 -1      2069 9.52158E-05-2.85658E-05-2.85643E-05-1.43836E-08 2.62828E-19 3.22779E-18
 -1      2070 9.52231E-05-2.85676E-05-2.85666E-05-8.87905E-09 5.96776E-19 1.00871E-18
 -1      2071 9.52198E-05-2.85666E-05-2.85657E-05-9.57244E-09 1.24063E-18 1.82886E-18
 -1      2072 9.52214E-05-2.85675E-05-2.85660E-05-1.22031E-08 1.49674E-18 1.17799E-18
 -1      2073 9.52279E-05-2.85691E-05-2.85681E-05-7.11970E-09 1.74287E-18 8.28059E-20
 -1      2074 9.52252E-05-2.85682E-05-2.85673E-05-7.82546E-09 6.36077E-19 8.67701E-19
 -1      2075 9.52261E-05-2.85689E-05-2.85674E-05-1.00478E-08 8.09913E-19 1.31575E-18
 -1      2076 9.52318E-05-2.85703E-05-2.85692E-05-5.32069E-09 1.18838E-18 7.60168E-19
 -1      2077 9.52297E-05-2.85696E-05-2.85686E-05-6.07324E-09 1.41496E-18 9.44537E-19
 -1      2078 9.52301E-05-2.85701E-05-2.85686E-05-7.88659E-09 1.38126E-18 6.94900E-19
 -1      2079 9.52346E-05-2.85712E-05-2.85700E-05-3.40222E-09 6.69716E-19 1.77213E-18
 -1      2080 9.52331E-05-2.85707E-05-2.85696E-05-4.24478E-09 1.22238E-18 1.61755E-18
 -1      2081 9.52332E-05-2.85711E-05-2.85695E-05-5.65376E-09 7.14140E-19 2.68821E-18
 -1      2082 9.52362E-05-2.85718E-05-2.85705E-05-1.88674E-09 1.41194E-19 3.65188E-18
 -1      2083 9.52353E-05-2.85715E-05-2.85702E-05-2.77357E-09-1.33257E-19 2.92750E-18
 -1      2084 9.52353E-05-2.85718E-05-2.85700E-05-3.80445E-09-1.26517E-19 5.26507E-18
 -1      2085 9.52364E-05-2.85723E-05-2.85704E-05-2.40225E-09 8.26372E-20 5.57484E-18
 -1      2086 9.52397E-05-2.85797E-05-2.85686E-05-6.06313E-09 8.84366E-19-1.86732E-18
 -1      2087 9.52390E-05-2.85781E-05-2.85690E-05-5.95518E-09 3.09288E-19 6.01864E-19
 -1      2088 9.52383E-05-2.85767E-05-2.85692E-05-5.59759E-09 2.90399E-20 1.13904E-18
 -1      2089 9.52376E-05-2.85752E-05-2.85696E-05-5.04263E-09 7.58354E-19 2.01450E-18
 -1      2090 9.52384E-05-2.85772E-05-2.85691E-05-7.35770E-09-2.47431E-20 9.89447E-19
 -1      2091 9.52372E-05-2.85743E-05-2.85698E-05-4.25435E-09 5.65104E-19 2.52833E-18
 -1      2092 9.52367E-05-2.85731E-05-2.85701E-05-3.38467E-09 4.12671E-19 4.28229E-18
 -1      2093 9.52362E-05-2.85729E-05-2.85700E-05-4.14505E-09-5.09110E-19 5.03303E-18
 -1      2094 9.52371E-05-2.85748E-05-2.85695E-05-6.04890E-09-7.57770E-19 2.15914E-18
 -1      2095 9.52410E-05-2.85825E-05-2.85679E-05-5.63783E-09-1.03301E-18-3.53074E-18
 -1      2096 9.52403E-05-2.85810E-05-2.85683E-05-5.91659E-09 6.45420E-19-3.59451E-18
 -1      2097 9.52400E-05-2.85800E-05-2.85686E-05-7.56437E-09-1.26952E-19-3.16121E-18
 -1      2098 9.52421E-05-2.85849E-05-2.85673E-05-4.44151E-09 6.92182E-19-2.52225E-19
 -1      2099 9.52415E-05-2.85836E-05-2.85677E-05-5.04291E-09 4.85676E-19-1.84438E-19
 -1      2100 9.52414E-05-2.85825E-05-2.85681E-05-6.72205E-09 2.21005E-19-1.26485E-18
 -1      2101 9.52428E-05-2.85865E-05-2.85669E-05-2.67856E-09-8.11802E-20-1.95662E-18
 -1      2102 9.52424E-05-2.85857E-05-2.85672E-05-3.50191E-09 1.99525E-19-4.33174E-19
 -1      2103 9.52425E-05-2.85846E-05-2.85677E-05-4.99222E-09 1.23781E-18-7.08997E-19
 -1      2104 9.52431E-05-2.85872E-05-2.85668E-05-5.89692E-10-1.74812E-18-3.71543E-18
 -1      2105 9.52430E-05-2.85869E-05-2.85668E-05-1.52565E-09-1.81335E-19-3.40552E-18
 -1      2106 9.52432E-05-2.85859E-05-2.85675E-05-2.64053E-09 2.46815E-19-2.92316E-18
 -1      2107 9.52430E-05-2.85869E-05-2.85668E-05 1.56842E-09-3.33848E-18-2.53533E-18
 -1      2108 9.52431E-05-2.85872E-05-2.85668E-05 6.34041E-10-2.13200E-18-1.91257E-18
 -1      2109 9.52434E-05-2.85863E-05-2.85674E-05 2.83543E-11-2.89626E-18-3.28226E-18
 -1      2110 9.52424E-05-2.85857E-05-2.85672E-05 3.53623E-09-2.80312E-18-1.89440E-18
 -1      2111 9.52428E-05-2.85865E-05-2.85669E-05 2.71768E-09-2.71313E-18-2.44818E-18
 -1      2112 9.52432E-05-2.85858E-05-2.85675E-05 2.69294E-09-2.97907E-18-2.45265E-18
 -1      2113 9.52415E-05-2.85836E-05-2.85677E-05 5.04289E-09-2.10021E-18 1.57214E-18
 -1      2114 9.52420E-05-2.85848E-05-2.85673E-05 4.45571E-09-1.91275E-18-6.00334E-19
 -1      2115 9.52425E-05-2.85845E-05-2.85677E-05 5.01668E-09-1.46383E-18-8.88801E-19
 -1      2116 9.52403E-05-2.85809E-05-2.85683E-05 5.91622E-09-9.79829E-19 3.12772E-18
 -1      2117 9.52410E-05-2.85825E-05-2.85679E-05 5.63720E-09-1.67498E-18 3.75460E-18
 -1      2118 9.52414E-05-2.85825E-05-2.85681E-05 6.72234E-09-3.72555E-19 2.17938E-18
 -1      2119 9.52389E-05-2.85780E-05-2.85690E-05 5.94320E-09 8.60200E-19 1.18137E-18
 -1      2120 9.52397E-05-2.85796E-05-2.85686E-05 6.05886E-09 1.27682E-19 1.31889E-18
 -1      2121 9.52399E-05-2.85799E-05-2.85686E-05 7.56158E-09-2.69031E-19 3.21558E-18
 -1      2122 9.52375E-05-2.85751E-05-2.85696E-05 5.04305E-09-4.63976E-19 6.11707E-19
 -1      2123 9.52383E-05-2.85766E-05-2.85693E-05 5.57606E-09 3.00395E-19 9.34369E-19
 -1      2124 9.52383E-05-2.85772E-05-2.85691E-05 7.32850E-09 7.77452E-19 1.00162E-18
 -1      2125 5.85450E-05-4.05686E-05-8.20406E-06 3.88899E-05 3.61175E-18 2.78608E-18
 -1      2126 4.36026E-05-3.99111E-05-2.44331E-06 3.30932E-05 2.71389E-18 2.26179E-18
 -1      2127 1.22143E-05-3.20712E-05 7.30768E-06 2.37470E-06 2.64052E-18 3.70153E-18
 -1      2128 1.25567E-05-3.28671E-05 7.37564E-06-6.99735E-06 1.56881E-18 4.30039E-18
 -1      2129 2.39838E-05-3.32170E-05 2.87965E-06 2.28743E-05 2.49494E-18 3.32715E-18
 -1      2130 1.63166E-05-3.51533E-05 6.44795E-06 1.21248E-05 2.57074E-18 3.66511E-18
 -1      2131 1.65957E-05-2.39703E-05 2.64083E-06 8.96707E-06 1.03211E-18 3.89296E-18
 -1      2132 9.57835E-05-4.39016E-05-2.23536E-05 4.16706E-05 4.17545E-18 3.50926E-18
 -1      2133 7.64369E-05-4.55777E-05-1.44238E-05 3.70020E-05 3.64648E-18 3.45314E-18
 -1      2134 1.35389E-04-4.82990E-05-3.74548E-05 3.08304E-05 4.05157E-18 1.10326E-18
 -1      2135 1.13214E-04-4.63995E-05-2.92513E-05 3.45345E-05 4.44099E-18 2.65079E-18
 -1      2136 1.17157E-04-5.57161E-05-2.61273E-05 3.36326E-05 2.44665E-18 9.79594E-19
 -1      2137 9.10053E-05-1.15090E-05-3.41711E-05-4.75651E-06-1.37822E-19-2.75550E-18
 -1      2138 9.36307E-05-1.23361E-05-3.49337E-05-6.98601E-06-4.02036E-19-2.68536E-18
 -1      2139 9.76468E-05-1.70976E-05-3.45739E-05-7.46411E-06-5.79112E-19-2.41465E-18
 -1      2140 9.19473E-05-1.43744E-05-3.33107E-05-3.39408E-06-6.97810E-21-2.59900E-18
 -1      2141 1.85294E-04-3.24984E-05-6.39229E-05 1.11302E-05 4.85858E-18-1.25403E-18
 -1      2142 1.73089E-04-3.32532E-05-5.91120E-05 1.64018E-05 5.12370E-18 1.68560E-19
 -1      2143 1.81106E-04-2.31328E-05-6.68194E-05-7.09100E-07 4.51511E-18-1.82851E-18
 -1      2144 1.86867E-04-2.75871E-05-6.64300E-05 6.45466E-06 4.56508E-18-1.55960E-18
 -1      2145 1.67099E-04-2.22701E-05-6.07897E-05-1.69713E-06 5.42228E-18-1.21867E-18
 -1      2146 1.82835E-04-2.80869E-05-6.48237E-05-7.29206E-06 4.32114E-18-3.43641E-18
 -1      2147 1.81229E-04-2.42166E-05-6.63852E-05-3.38735E-07 4.20086E-18-2.27471E-18
 -1      2148 1.67528E-04-3.55009E-05-5.60091E-05-1.73393E-05 3.19882E-18-4.25634E-18
 -1      2149 1.79483E-04-3.40090E-05-6.11682E-05-1.16009E-05 3.76083E-18-3.35467E-18
 -1      2150 1.42361E-04-4.24982E-05-4.29580E-05-2.55025E-05 2.42675E-18-4.44099E-18
 -1      2151 1.62052E-04-4.09716E-05-5.08102E-05-2.51236E-05 2.80495E-18-4.90686E-18
 -1      2152 1.60464E-04-4.02455E-05-5.06524E-05-4.50467E-06 1.81710E-18-1.61106E-18
 -1      2153 1.03891E-04-4.53373E-05-2.59553E-05-3.55985E-05 2.30266E-18-4.64386E-18
 -1      2154 1.26826E-04-4.58721E-05-3.44853E-05-3.63109E-05 2.34628E-18-4.75101E-18
 -1      2155 6.95275E-05-4.31944E-05-1.22573E-05-3.70327E-05 1.12782E-18-4.14358E-18
 -1      2156 8.74662E-05-4.24826E-05-1.95238E-05-4.12736E-05 2.23913E-18-4.76880E-18
 -1      2157 1.09759E-04-5.38849E-05-2.39710E-05-3.52710E-05 9.14796E-20-3.32206E-18
 -1      2158 3.19295E-05-3.49315E-05-2.64297E-08-2.59329E-05 3.73542E-19-4.10875E-18
 -1      2159 4.66591E-05-3.42503E-05-5.77590E-06-3.61591E-05 1.06303E-18-4.46588E-18
 -1      2160 1.36416E-05-2.97376E-05 5.58804E-06-9.35368E-06-3.43789E-19-3.67231E-18
 -1      2161 1.99326E-05-2.97024E-05 3.24923E-06-1.87475E-05 7.04520E-19-3.94950E-18
 -1      2162 3.22623E-05-2.60717E-05-2.96181E-06-2.84025E-05-7.34801E-20-4.35354E-18
 -1      2163 1.28829E-05-2.56200E-05 4.64510E-06 1.30834E-05-1.12592E-18-3.47368E-18
 -1      2164 1.09709E-05-2.81549E-05 6.11818E-06 2.76504E-06-2.19077E-19-3.65114E-18
 -1      2165 3.15600E-05-3.15978E-05-1.00515E-06 3.12244E-05-2.61479E-18-3.52874E-18
 -1      2166 2.17448E-05-3.14690E-05 2.84943E-06 2.39105E-05-1.47595E-18-3.09633E-18
 -1      2167 6.17822E-05-3.46428E-05-1.21557E-05 4.20101E-05-3.18696E-18-3.75003E-18
 -1      2168 4.66446E-05-3.65868E-05-5.76604E-06 3.49482E-05-2.62157E-18-3.50635E-18
 -1      2169 1.03094E-04-4.10650E-05-2.66342E-05 4.28875E-05-3.24879E-18-2.64507E-18
 -1      2170 8.19594E-05-4.07101E-05-1.86792E-05 3.97673E-05-3.14165E-18-3.15604E-18
 -1      2171 1.39800E-04-4.20960E-05-4.18859E-05 2.87572E-05-3.47347E-18-1.71736E-18
 -1      2172 1.20432E-04-4.20723E-05-3.40208E-05 3.30781E-05-3.57914E-18-2.34416E-18
 -1      2173 1.66608E-04-3.22674E-05-5.63747E-05 1.92442E-05-4.09075E-18-1.46240E-18
 -1      2174 1.51186E-04-3.45686E-05-4.96310E-05 2.13984E-05-4.12047E-18-1.72625E-18
 -1      2175 1.76326E-04-2.46788E-05-6.39516E-05 5.69472E-06-4.05348E-18-3.02814E-19
 -1      2176 1.68519E-04-2.63470E-05-6.03787E-05 1.12875E-05-4.21886E-18-1.17060E-18
 -1      2177 1.83884E-04-2.45748E-05-6.68504E-05-4.08522E-06-4.04162E-18 8.45339E-19
 -1      2178 1.79176E-04-2.24137E-05-6.63019E-05 3.38587E-06-4.10726E-18-4.08693E-20
 -1      2179 1.72467E-04-2.50973E-05-6.23794E-05-1.22988E-05-3.92346E-18 1.80037E-18
 -1      2180 1.83456E-04-2.65444E-05-6.57250E-05-7.37977E-06-3.90186E-18 1.17505E-18
 -1      2181 1.62101E-04-1.44823E-05-6.20395E-05-4.01094E-07-4.17418E-18 6.71274E-20
 -1      2182 1.57035E-04-3.30355E-05-5.26248E-05-2.47584E-05-3.42543E-18 2.99172E-18
 -1      2183 1.68775E-04-3.16463E-05-5.78053E-05-1.80151E-05-3.37691E-18 2.19254E-18
 -1      2184 1.32434E-04-3.70955E-05-4.09494E-05-3.40421E-05-3.91583E-18 3.35340E-18
 -1      2185 1.50777E-04-3.65303E-05-4.79470E-05-3.28369E-05-3.66257E-18 3.26108E-18
 -1      2186 1.52528E-04-3.84774E-05-4.80320E-05-1.36896E-05-2.66842E-18 1.17060E-18
 -1      2187 1.02809E-04-4.33521E-05-2.61082E-05-3.82745E-05-2.80198E-18 3.02560E-18
 -1      2188 1.20702E-04-4.04041E-05-3.38372E-05-4.09843E-05-3.48003E-18 3.28945E-18
 -1      2189 6.67328E-05-4.26189E-05-1.14530E-05-3.93932E-05-6.54756E-19 4.46916E-18
 -1      2190 8.47474E-05-4.17230E-05-1.85232E-05-4.44713E-05-1.79232E-18 3.60455E-18
 -1      2191 3.90035E-05-3.89292E-05-1.26596E-06-3.29343E-05 8.14422E-19 6.30298E-18
 -1      2192 5.16091E-05-3.75713E-05-6.54579E-06-3.94215E-05-6.21722E-19 5.91332E-18
 -1      2193 7.12246E-05-4.46063E-05-1.15847E-05-4.42140E-05 1.20236E-18 4.32341E-18
 -1      2194 1.66555E-05-3.52795E-05 6.48905E-06-1.54966E-05 1.67945E-18 4.90263E-18
 -1      2195 2.25304E-05-3.29229E-05 3.43705E-06-2.45682E-05 5.30243E-19 6.13442E-18
 -1      2196 1.66546E-05-2.39853E-05 2.50874E-06-1.37256E-05 1.11046E-18 5.36638E-18
 -1      2197 1.68198E-04-3.89876E-05-5.38445E-05 2.22446E-05 4.97569E-18 4.36222E-19
 -1      2198 1.50113E-04-4.20572E-05-4.60470E-05 2.11822E-05 5.06896E-18 5.71747E-19
 -1      2199 1.63070E-04-3.63155E-05-5.35465E-05 2.58293E-06 5.08855E-18-8.54656E-19
 -1      2200 1.45707E-04-4.94592E-05-4.09502E-05 1.93591E-05 3.84172E-18 2.50298E-19
 -1      2201 1.41309E-04-5.65273E-05-3.59288E-05 1.66561E-05 2.50023E-18-7.26754E-19
 -1      2202 1.51199E-04-5.05354E-05-4.36185E-05 4.99603E-06 3.62541E-18-1.15408E-18
 -1      2203 1.10326E-04-2.90046E-05-3.49562E-05-8.40404E-06-1.34644E-18-8.23237E-19
 -1      2204 1.42106E-04-5.28167E-05-3.79105E-05-2.04864E-05 8.46821E-19-2.64528E-18
 -1      2205 1.08702E-04-2.80390E-05-3.46367E-05-8.92959E-06-1.33189E-18-1.17810E-18
 -1      2206 3.81880E-05-3.46549E-05-2.01312E-06 3.09605E-05 1.44313E-18 2.42040E-18
 -1      2207 3.37937E-05-2.63579E-05-2.83616E-06 2.88072E-05-2.55592E-19 2.27640E-18
 -1      2208 5.32745E-05-3.58737E-05-7.64414E-06 3.79473E-05-3.92388E-19 1.45054E-18
 -1      2209 8.01537E-05-4.90430E-05-1.37491E-05 4.08809E-05 1.31290E-18 2.41333E-18
 -1      2210 9.52370E-05-2.85742E-05-2.85698E-05 4.84766E-09-8.44994E-19-8.33720E-19
 -1      2211 3.71696E-05-3.28908E-05-2.28435E-06-3.46812E-05 1.29765E-18 6.53147E-18
 -1      2212 1.35699E-04-4.86290E-05-3.69752E-05-2.64567E-05-1.82409E-18 1.41624E-18
 -1      2213 1.60457E-04-2.52950E-05-5.69883E-05-3.67557E-06-3.51646E-18 5.08643E-19
 -1      2214 1.59746E-04-1.51736E-05-6.10872E-05-1.48663E-06-4.44057E-18-1.06197E-19
 -1      2215 1.56750E-04-2.63037E-05-5.51494E-05 2.16455E-06-3.99736E-18-5.59465E-19
 -1      2216 1.45789E-04-4.16625E-05-4.43348E-05 1.76491E-05-3.25091E-18-1.18331E-18
 -1      2217 1.40767E-04-4.84660E-05-3.91572E-05 1.30583E-05-2.21721E-18-7.49624E-20
 -1      2218 1.47168E-04-4.11167E-05-4.61365E-05 4.54583E-06-2.97340E-18-5.12455E-20
 -1      2219 1.21938E-04-5.10211E-05-2.99802E-05 3.16153E-05-1.79063E-18-1.02745E-18
 -1      2220 8.47623E-05-4.47410E-05-1.71609E-05 4.32884E-05-1.07488E-18-2.41150E-18
 -1      2221 4.76069E-05-3.36833E-05-6.48484E-06 3.97433E-05-7.15743E-19-3.20178E-18
 -1      2222 1.50533E-05-1.82462E-05 9.02550E-07-5.35012E-06 1.05773E-19-4.15470E-18
 -1      2223 6.84024E-05-4.20954E-05-1.15660E-05-3.95299E-05-1.64748E-19-4.04659E-18
 -1      2224 1.55077E-04-1.51637E-05-5.98696E-05 2.32482E-06 3.95056E-18 5.74077E-19
 -1      2225 1.71473E-04-1.97113E-05-6.39772E-05 1.88764E-07 4.29742E-18-1.01522E-18
 -1      2226 1.54637E-04-1.40356E-05-6.02383E-05-3.05751E-07 4.49774E-18 2.57472E-19
 -1      2227 1.65879E-04-2.57768E-05-5.89152E-05 2.27918E-06 3.50545E-18-9.71970E-19
 -1      2228 2.08459E-05-2.20600E-05-1.78190E-08 2.18783E-05-2.83756E-20-3.58337E-18
 -1      2229 1.05772E-04-5.19372E-05-2.30684E-05-3.91914E-05-4.87044E-20 2.16248E-18
 -1      2230 1.15489E-04-3.40338E-05-3.49373E-05-2.29325E-06 9.73519E-19 2.73230E-18
 -1      2231 1.15089E-04-3.25738E-05-3.52771E-05-1.20265E-06 1.23412E-18 2.93961E-18
 -1      2232 7.89215E-05-9.75075E-06-2.97094E-05 5.74813E-06 1.12096E-18-2.31982E-18
 -1      2233 8.26160E-05-1.16144E-05-3.04009E-05 4.40358E-06 9.32545E-19-2.40080E-18
 -1      2234 8.63558E-05-1.38637E-05-3.11182E-05 2.52745E-06 7.17725E-19-2.39211E-18
 -1      2235 8.97118E-05-1.54648E-05-3.18333E-05 6.14556E-07 4.02339E-19-2.40954E-18
 -1      2236 8.63765E-05-1.57353E-05-3.03279E-05 4.62264E-06 8.90056E-19-2.17227E-18
 -1      2237 6.60601E-05-1.55379E-06-2.77089E-05 6.16152E-06 1.71608E-18-2.22358E-18
 -1      2238 6.83030E-05-2.85582E-06-2.80024E-05 6.66953E-06 1.60079E-18-2.27039E-18
 -1      2239 6.44287E-05-2.30205E-08-2.76298E-05 3.46036E-06 1.88048E-18-2.06992E-18
 -1      2240 6.46002E-05-2.85119E-07-2.75563E-05 4.54198E-06 1.77295E-18-2.18525E-18
 -1      2241 6.51440E-05-1.94092E-06-2.70386E-05 6.17172E-06 1.71203E-18-2.16966E-18
 -1      2242 6.76030E-05-1.43347E-06-2.83438E-05 5.35016E-07 2.03640E-18-1.81898E-18
 -1      2243 6.54739E-05-5.04625E-07-2.78849E-05 1.49085E-06 1.92933E-18-1.98325E-18
 -1      2244 6.45680E-05-1.12273E-06-2.71258E-05 2.35466E-06 1.88234E-18-1.95877E-18
 -1      2245 7.52025E-05-5.57343E-06-2.98093E-05-1.15507E-06 2.12753E-18-1.23633E-18
 -1      2246 7.10794E-05-3.60159E-06-2.89982E-05-8.79211E-07 2.03458E-18-1.57901E-18
 -1      2247 6.93226E-05-3.79483E-06-2.80439E-05-1.24146E-06 1.94743E-18-1.64208E-18
 -1      2248 8.55912E-05-1.14041E-05-3.17873E-05-7.83221E-07 2.06897E-18-4.85505E-19
 -1      2249 8.03172E-05-8.77288E-06-3.07522E-05-1.40212E-06 2.05022E-18-9.23100E-19
 -1      2250 7.84202E-05-9.21238E-06-2.96713E-05-2.93366E-06 1.96687E-18-1.12225E-18
 -1      2251 9.72031E-05-1.80829E-05-3.39729E-05 1.17907E-06 2.05630E-18 6.38650E-19
 -1      2252 9.14049E-05-1.49452E-05-3.28548E-05-3.76649E-08 2.04632E-18 1.22820E-20
 -1      2253 8.98491E-05-1.59148E-05-3.17052E-05-2.33226E-06 1.89263E-18-1.84534E-19
 -1      2254 1.17648E-04-3.73231E-05-3.44908E-05-2.13199E-06 5.72158E-19 2.55853E-18
 -1      2255 1.16878E-04-3.58265E-05-3.46362E-05-2.78217E-06 6.42070E-19 2.62479E-18
 -1      2256 1.12985E-04-3.38582E-05-3.39874E-05-3.18175E-06 9.51843E-19 1.81456E-18
 -1      2257 1.08577E-04-3.11719E-05-3.31257E-05-6.06051E-06-9.25317E-19-1.18667E-18
 -1      2258 1.08099E-04-3.22416E-05-3.25653E-05-5.29894E-06-8.54186E-19-1.04533E-18
 -1      2259 1.35479E-04-5.74004E-05-3.35089E-05-1.77509E-05-2.21923E-19-1.32455E-18
 -1      2260 1.48047E-04-5.36464E-05-4.08300E-05-9.04823E-06 2.25364E-19-9.11407E-19
 -1      2261 1.08626E-04-3.33572E-05-3.21990E-05-5.37200E-06-7.64704E-19-7.94351E-19
 -1      2262 1.08052E-04-3.38041E-05-3.18623E-05-5.72682E-06-5.55871E-19-8.25565E-19
 -1      2263 1.08330E-04-3.27041E-05-3.24108E-05-5.70896E-06-7.11245E-19-1.05042E-18
 -1      2264 1.08259E-04-3.42232E-05-3.16999E-05-6.55886E-06-5.17615E-19-6.34304E-19
 -1      2265 1.07444E-04-3.40167E-05-3.14921E-05-7.34528E-06-3.76754E-19-6.82121E-19
 -1      2266 1.09144E-04-3.46895E-05-3.19175E-05-6.54579E-06-4.94786E-19-7.51408E-19
 -1      2267 1.07162E-04-3.36748E-05-3.15006E-05-8.38445E-06-3.31062E-19-5.47644E-19
 -1      2268 1.06001E-04-3.27328E-05-3.13880E-05-8.97855E-06-4.37617E-19-5.19087E-19
 -1      2269 1.09140E-04-3.48263E-05-3.18336E-05-8.48630E-06-4.28895E-19-4.84818E-19
 -1      2270 1.05030E-04-3.15402E-05-3.15301E-05-9.44738E-06-6.33614E-19-6.38496E-19
 -1      2271 1.03626E-04-3.00087E-05-3.14943E-05-9.19405E-06-7.08656E-19-7.38904E-19
 -1      2272 1.07891E-04-3.29314E-05-3.20940E-05-1.01847E-05-6.30883E-19-5.87448E-19
 -1      2273 1.02184E-04-2.83147E-05-3.16988E-05-8.32802E-06-9.30566E-19-8.54608E-19
 -1      2274 1.00930E-04-2.67678E-05-3.17095E-05-6.85278E-06-1.15243E-18-9.80666E-19
 -1      2275 1.05389E-04-2.93357E-05-3.25742E-05-9.92556E-06-9.97265E-19-7.61305E-19
 -1      2276 9.97160E-05-2.53984E-05-3.18660E-05-4.44341E-06-1.23339E-18-1.13321E-18
 -1      2277 9.91316E-05-2.46443E-05-3.18766E-05-1.98064E-06-1.17860E-18-1.43379E-18
 -1      2278 1.02595E-04-2.55208E-05-3.30551E-05-6.54608E-06-1.29479E-18-1.13132E-18
 -1      2279 9.89344E-05-2.44704E-05-3.18776E-05 1.21788E-06-1.29878E-18-1.50098E-18
 -1      2280 9.92920E-05-2.49643E-05-3.18589E-05 3.78663E-06-1.41417E-18-1.96225E-18
 -1      2281 1.01114E-04-2.36194E-05-3.32658E-05-5.23595E-07-1.46325E-18-1.33414E-18
 -1      2282 1.00216E-04-2.61115E-05-3.16886E-05 6.44830E-06-1.25289E-18-2.20212E-18
 -1      2283 1.01331E-04-2.75855E-05-3.16496E-05 8.14341E-06-1.00042E-18-2.36034E-18
 -1      2284 1.01895E-04-2.48475E-05-3.30539E-05 5.78847E-06-1.42934E-18-1.79551E-18
 -1      2285 1.02691E-04-2.93317E-05-3.13801E-05 9.26618E-06-5.17431E-19-2.16417E-18
 -1      2286 1.04032E-04-3.10079E-05-3.13498E-05 9.63493E-06-7.56676E-20-1.96612E-18
 -1      2287 1.04333E-04-2.84861E-05-3.24948E-05 9.74255E-06-6.66153E-19-2.01895E-18
 -1      2288 1.05012E-04-3.24516E-05-3.10774E-05 9.15392E-06-2.03176E-21-1.79568E-18
 -1      2289 1.06079E-04-3.36614E-05-3.10725E-05 8.39413E-06 1.09032E-19-1.45671E-18
 -1      2290 1.06808E-04-3.25115E-05-3.18042E-05 1.02465E-05 9.21368E-20-1.22446E-18
 -1      2291 1.06294E-04-3.43307E-05-3.08606E-05 6.92317E-06 1.19630E-19-1.54386E-18
 -1      2292 1.06848E-04-3.48361E-05-3.08739E-05 5.57422E-06 2.22609E-19-1.42224E-18
 -1      2293 1.08054E-04-3.52047E-05-3.11852E-05 8.02143E-06 2.13523E-19-1.10041E-18
 -1      2294 1.06394E-04-3.47741E-05-3.07354E-05 3.84415E-06-2.62810E-19-1.40075E-18
 -1      2295 1.06448E-04-3.46965E-05-3.07452E-05 2.42114E-06 9.08741E-21-1.70470E-18
 -1      2296 1.07800E-04-3.60317E-05-3.07399E-05 4.58207E-06-7.94242E-20-1.05835E-18
 -1      2297 1.05628E-04-3.41963E-05-3.06581E-05 9.21732E-07 1.01667E-19-1.88097E-18
 -1      2298 1.05319E-04-3.37879E-05-3.06433E-05-2.58428E-07-6.09417E-20-1.71358E-18
 -1      2299 1.06484E-04-3.54055E-05-3.04613E-05 1.21090E-06-2.17822E-19-1.11599E-18
 -1      2300 1.04401E-04-3.31369E-05-3.05787E-05-1.32884E-06-2.78217E-19-1.73136E-18
 -1      2301 1.03883E-04-3.26154E-05-3.05293E-05-2.14635E-06-2.56897E-19-1.19424E-18
 -1      2302 1.04704E-04-3.40498E-05-3.02889E-05-1.42110E-06-1.05569E-19-1.51366E-18
 -1      2303 1.03026E-04-3.19969E-05-3.04663E-05-2.77994E-06-2.11295E-19-1.28263E-18
 -1      2304 1.02419E-04-3.14956E-05-3.03838E-05-3.24409E-06 1.47045E-19-1.05063E-18
 -1      2305 1.02898E-04-3.25462E-05-3.01620E-05-3.13907E-06-1.03369E-20-9.80378E-19
 -1      2306 1.01688E-04-3.09917E-05-3.03124E-05-3.52157E-06-6.20402E-20-1.18995E-18
 -1      2307 1.01070E-04-3.05704E-05-3.02055E-05-3.70278E-06 6.41648E-20-1.38058E-18
 -1      2308 1.01288E-04-3.12196E-05-3.00400E-05-4.03864E-06-1.10792E-19-1.04121E-18
 -1      2309 1.00475E-04-3.01973E-05-3.01245E-05-3.72763E-06 4.44502E-19-1.47211E-18
 -1      2310 9.98945E-05-2.98700E-05-3.00044E-05-3.71129E-06 5.47903E-19-1.63937E-18
 -1      2311 9.99483E-05-3.01903E-05-2.99052E-05-4.31705E-06 2.40037E-19-8.01234E-19
 -1      2312 9.94209E-05-2.96120E-05-2.99172E-05-3.57730E-06 3.72065E-19-1.34020E-18
 -1      2313 9.89003E-05-2.93705E-05-2.97945E-05-3.44000E-06 9.31004E-20-1.58381E-18
 -1      2314 9.88712E-05-2.94587E-05-2.97554E-05-4.17800E-06 4.79861E-19-1.39830E-18
 -1      2315 9.85269E-05-2.92017E-05-2.97061E-05-3.22024E-06 2.00354E-19-1.23037E-18
 -1      2316 9.80768E-05-2.90299E-05-2.95890E-05-3.02109E-06 6.09282E-19-1.01660E-18
 -1      2317 9.80197E-05-2.89740E-05-2.95968E-05-3.79177E-06 1.91043E-19-8.01657E-19
 -1      2318 9.77836E-05-2.89253E-05-2.95041E-05-2.76715E-06 1.06447E-18-1.39737E-18
 -1      2319 9.74053E-05-2.88067E-05-2.93978E-05-2.54724E-06 1.16496E-18-1.21100E-18
 -1      2320 9.73514E-05-2.86740E-05-2.94380E-05-3.28519E-06 6.45025E-19-7.67335E-19
 -1      2321 9.71758E-05-2.87458E-05-2.93198E-05-2.29257E-06 1.30957E-18-1.31021E-18
 -1      2322 9.68656E-05-2.86661E-05-2.92273E-05-2.07790E-06 1.53269E-18-1.49955E-18
 -1      2323 9.68290E-05-2.85028E-05-2.92868E-05-2.74489E-06 1.17882E-18-1.12211E-18
 -1      2324 9.66867E-05-2.86337E-05-2.91584E-05-1.84218E-06 7.65333E-19-1.52443E-18
 -1      2325 9.64379E-05-2.85819E-05-2.90804E-05-1.64740E-06 4.64149E-19-1.45346E-18
 -1      2326 9.64223E-05-2.84165E-05-2.91489E-05-2.22513E-06 1.05446E-18-1.77067E-18
 -1      2327 9.62993E-05-2.85673E-05-2.90215E-05-1.44057E-06 6.72365E-19-1.58857E-18
 -1      2328 9.61040E-05-2.85349E-05-2.89576E-05-1.27247E-06 4.53480E-19-1.75210E-18
 -1      2329 9.61073E-05-2.83834E-05-2.90276E-05-1.75629E-06 4.52718E-19-2.98621E-18
 -1      2330 9.59976E-05-2.85310E-05-2.89086E-05-1.09806E-06 4.88544E-19-2.07514E-18
 -1      2331 9.58475E-05-2.85119E-05-2.88577E-05-9.58382E-07 4.56910E-19-1.47107E-18
 -1      2332 9.58652E-05-2.83815E-05-2.89242E-05-1.35220E-06 3.64012E-19-2.98368E-18
 -1      2333 9.57666E-05-2.85139E-05-2.88179E-05-8.15902E-07-1.00785E-19-1.94841E-18
 -1      2334 9.56537E-05-2.85037E-05-2.87782E-05-7.03374E-07-6.11863E-19-2.07663E-18
 -1      2335 9.56810E-05-2.83966E-05-2.88384E-05-1.01597E-06 7.32173E-20-2.85856E-18
 -1      2336 9.55931E-05-2.85087E-05-2.87467E-05-5.90105E-07-7.07614E-19-1.79907E-18
 -1      2337 9.55100E-05-2.85042E-05-2.87165E-05-5.01863E-07-7.99130E-19-1.30738E-18
 -1      2338 9.55426E-05-2.84194E-05-2.87689E-05-7.44231E-07-3.43275E-19-1.92669E-18
 -1      2339 9.54654E-05-2.85104E-05-2.86920E-05-4.14013E-07-6.82639E-19-6.29944E-19
 -1      2340 9.54058E-05-2.85096E-05-2.86696E-05-3.46523E-07-6.22711E-19-3.86983E-19
 -1      2341 9.54401E-05-2.84445E-05-2.87139E-05-5.30189E-07-5.53033E-19-1.10328E-18
 -1      2342 9.53736E-05-2.85159E-05-2.86510E-05-2.79985E-07-7.88352E-19-3.00920E-19
 -1      2343 9.53321E-05-2.85172E-05-2.86347E-05-2.29620E-07-2.55042E-19 2.61734E-19
 -1      2344 9.53655E-05-2.84688E-05-2.86712E-05-3.65572E-07-3.29495E-19-4.65478E-19
 -1      2345 9.53093E-05-2.85230E-05-2.86209E-05-1.80419E-07-1.02224E-21 3.15955E-19
 -1      2346 9.52814E-05-2.85255E-05-2.86095E-05-1.43784E-07 4.08840E-19 1.31233E-18
 -1      2347 9.53125E-05-2.84906E-05-2.86389E-05-2.41898E-07-1.81151E-19 2.14178E-19
 -1      2348 9.52658E-05-2.85306E-05-2.85995E-05-1.08327E-07 2.09806E-19 6.47825E-19
 -1      2349 9.52480E-05-2.85336E-05-2.85918E-05-8.24229E-08 2.32485E-19 4.45214E-19
 -1      2350 9.52757E-05-2.85092E-05-2.86150E-05-1.51211E-07 1.84583E-19 1.10304E-18
 -1      2351 9.52377E-05-2.85379E-05-2.85847E-05-5.76065E-08-9.65599E-20 9.81079E-20
 -1      2352 9.52272E-05-2.85410E-05-2.85797E-05-3.98926E-08-5.62876E-19-2.61639E-19
 -1      2353 9.52511E-05-2.85246E-05-2.85976E-05-8.64520E-08-4.57945E-19 1.58799E-20
 -1      2354 9.52207E-05-2.85445E-05-2.85749E-05-2.31268E-08-7.47610E-19-3.79718E-19
 -1      2355 9.52153E-05-2.85474E-05-2.85719E-05-1.15174E-08-4.40766E-19-6.20872E-19
 -1      2356 9.52354E-05-2.85370E-05-2.85854E-05-4.16078E-08-7.25131E-19-5.05466E-20
 -1      2357 9.52116E-05-2.85502E-05-2.85688E-05-7.01997E-10-4.02960E-19 5.30181E-20
 -1      2358 9.52096E-05-2.85528E-05-2.85671E-05 6.46924E-09-1.12522E-19-1.05299E-19
 -1      2359 9.52261E-05-2.85467E-05-2.85772E-05-1.17154E-08-2.91519E-19 5.04729E-22
 -1      2360 9.52078E-05-2.85550E-05-2.85652E-05 1.29959E-08 4.16050E-20 2.64436E-19
 -1      2361 9.52079E-05-2.85573E-05-2.85645E-05 1.70285E-08 3.24708E-19 3.07034E-19
 -1      2362 9.52212E-05-2.85542E-05-2.85718E-05 7.21417E-09 2.54595E-19 2.44760E-19
 -1      2363 9.52074E-05-2.85590E-05-2.85635E-05 2.05512E-08-1.15853E-19-2.66597E-19
 -1      2364 9.52089E-05-2.85609E-05-2.85634E-05 2.24356E-08-1.11360E-18-5.85134E-19
 -1      2365 9.52193E-05-2.85598E-05-2.85685E-05 1.83117E-08-3.02297E-19-3.59929E-19
 -1      2366 9.52092E-05-2.85621E-05-2.85630E-05 2.39255E-08-1.00963E-18 3.99501E-21
 -1      2367 9.52115E-05-2.85638E-05-2.85633E-05 2.43984E-08-1.09453E-18 9.15409E-19
 -1      2368 9.52194E-05-2.85639E-05-2.85668E-05 2.39795E-08-8.74116E-19 7.23901E-19
 -1      2369 9.52123E-05-2.85647E-05-2.85632E-05 2.45717E-08-1.71429E-18 1.46282E-18
 -1      2370 9.52148E-05-2.85660E-05-2.85638E-05 2.41665E-08-9.65109E-19 2.05410E-18
 -1      2371 9.52207E-05-2.85668E-05-2.85660E-05 2.60184E-08-1.10805E-18 2.53867E-18
 -1      2372 9.52158E-05-2.85667E-05-2.85639E-05 2.35363E-08-6.24706E-19 2.66750E-18
 -1      2373 9.52185E-05-2.85677E-05-2.85646E-05 2.26260E-08 2.66615E-19 2.45755E-18
 -1      2374 9.52226E-05-2.85689E-05-2.85659E-05 2.57441E-08-5.42346E-19 3.43141E-18
 -1      2375 9.52196E-05-2.85682E-05-2.85649E-05 2.15463E-08 4.67672E-19 1.93354E-18
 -1      2376 9.52221E-05-2.85691E-05-2.85656E-05 2.03789E-08 1.31929E-18 8.80399E-19
 -1      2377 9.52249E-05-2.85704E-05-2.85662E-05 2.40874E-08-2.97565E-19 3.63261E-18
 -1      2378 9.52232E-05-2.85695E-05-2.85659E-05 1.90800E-08 2.23147E-18-1.25963E-19
 -1      2379 9.52254E-05-2.85702E-05-2.85665E-05 1.78063E-08 2.06957E-18-2.11581E-19
 -1      2380 9.52272E-05-2.85714E-05-2.85668E-05 2.16788E-08 1.06002E-18 1.66391E-18
 -1      2381 9.52265E-05-2.85705E-05-2.85669E-05 1.64232E-08 1.30637E-18-7.91377E-19
 -1      2382 9.52285E-05-2.85711E-05-2.85675E-05 1.51187E-08 8.06399E-19 7.69707E-20
 -1      2383 9.52294E-05-2.85721E-05-2.85674E-05 1.89166E-08 1.58989E-18 1.08424E-19
 -1      2384 9.52295E-05-2.85713E-05-2.85678E-05 1.37134E-08 7.67291E-19 6.47868E-19
 -1      2385 9.52312E-05-2.85719E-05-2.85683E-05 1.23986E-08-2.26050E-22 1.04940E-18
 -1      2386 9.52314E-05-2.85728E-05-2.85680E-05 1.60202E-08 1.38873E-18 1.16135E-18
 -1      2387 9.52321E-05-2.85722E-05-2.85686E-05 1.09824E-08-2.90018E-19 1.34283E-18
 -1      2388 9.52335E-05-2.85727E-05-2.85690E-05 9.64037E-09-1.84973E-19 1.51170E-18
 -1      2389 9.52333E-05-2.85734E-05-2.85686E-05 1.30798E-08 8.55982E-20 2.33413E-18
 -1      2390 1.22675E-04-4.23558E-05-3.45206E-05 7.63477E-06-4.29260E-19 2.48012E-18
 -1      2391 1.22846E-04-4.22045E-05-3.45190E-05 4.47514E-06-3.72211E-19 2.45347E-18
 -1      2392 1.22501E-04-4.00831E-05-3.53568E-05 1.42006E-05-2.12887E-19 2.44968E-18
 -1      2393 1.24226E-04-4.22985E-05-3.51692E-05 1.16643E-05-5.07823E-19 2.46651E-18
 -1      2394 1.25806E-04-4.49326E-05-3.47011E-05 9.06670E-06-4.25924E-19 1.93816E-18
 -1      2395 1.18716E-04-3.26971E-05-3.68691E-05 1.58430E-05 1.19940E-18 2.45713E-18
 -1      2396 1.21693E-04-3.70552E-05-3.64972E-05 1.63682E-05 3.45113E-19 2.43886E-18
 -1      2397 1.26576E-04-4.04973E-05-3.69211E-05 1.62369E-05 1.42672E-19 2.05997E-18
 -1      2398 1.13851E-04-2.45182E-05-3.83513E-05 8.24060E-06 2.43808E-18 2.39610E-18
 -1      2399 1.16173E-04-2.80595E-05-3.80410E-05 1.29430E-05 1.78843E-18 2.56305E-18
 -1      2400 1.22819E-04-3.02683E-05-3.98468E-05 1.61466E-05 1.37579E-18 2.21041E-18
 -1      2401 1.13293E-04-2.36170E-05-3.86665E-05-5.64202E-06 2.14495E-18 1.60296E-18
 -1      2402 1.12673E-04-2.27894E-05-3.87326E-05 5.08025E-07 2.74513E-18 2.05478E-18
 -1      2403 1.18341E-04-2.13612E-05-4.18457E-05 5.24972E-06 2.73465E-18 2.12519E-18
 -1      2404 1.17990E-04-3.10670E-05-3.75330E-05-1.56332E-05 1.66188E-18 2.57531E-19
 -1      2405 1.15033E-04-2.67298E-05-3.79217E-05-1.22377E-05 1.86750E-18 7.88786E-19
 -1      2406 1.19338E-04-2.35614E-05-4.12952E-05-9.98364E-06 2.79288E-18 9.28242E-19
 -1      2407 1.22831E-04-3.95269E-05-3.58660E-05-1.56439E-05 1.06315E-18-6.42572E-19
 -1      2408 1.20159E-04-3.56758E-05-3.62225E-05-1.64809E-05 1.28196E-18-2.46652E-19
 -1      2409 1.24280E-04-3.42500E-05-3.87305E-05-1.76410E-05 1.89238E-18-8.77156E-19
 -1      2410 1.23722E-04-4.30253E-05-3.45994E-05-9.01676E-06 8.92793E-19-9.34017E-19
 -1      2411 1.22655E-04-4.16419E-05-3.47848E-05-1.21918E-05 1.08626E-18-7.59057E-19
 -1      2412 1.26485E-04-4.30141E-05-3.57763E-05-1.42032E-05 1.09111E-18-1.49321E-18
 -1      2413 1.20955E-04-4.17874E-05-3.38880E-05-1.26039E-06 2.84180E-19-5.19797E-19
 -1      2414 1.21443E-04-4.24107E-05-3.39845E-05-4.55242E-06 5.41856E-19-5.99911E-19
 -1      2415 1.23964E-04-4.53810E-05-3.37238E-05-5.55921E-06 4.21465E-19-7.08287E-19
 -1      2416 1.16753E-04-3.85935E-05-3.34547E-05 4.40040E-06 3.76327E-19-2.99506E-20
 -1      2417 1.18122E-04-3.99832E-05-3.35906E-05 2.07781E-06 5.35206E-19-6.29997E-20
 -1      2418 1.18643E-04-4.25557E-05-3.26835E-05 2.27832E-06 1.02067E-19-1.75792E-19
 -1      2419 1.12622E-04-3.54383E-05-3.30522E-05 7.41926E-06-3.37271E-19 5.81177E-20
 -1      2420 1.14299E-04-3.68046E-05-3.32780E-05 6.21187E-06-1.06607E-19 1.14300E-19
 -1      2421 1.13197E-04-3.82043E-05-3.22095E-05 7.22357E-06 1.35863E-19 1.98008E-19
 -1      2422 1.09102E-04-3.30464E-05-3.25821E-05 8.40179E-06 4.46517E-19 4.03151E-20
 -1      2423 1.10773E-04-3.41152E-05-3.28841E-05 8.04499E-06 2.73863E-20 2.93384E-20
 -1      2424 1.08802E-04-3.44329E-05-3.19211E-05 9.46138E-06-1.09668E-19-5.45791E-19
 -1      2425 1.06235E-04-3.14400E-05-3.20493E-05 8.13673E-06 5.56193E-19 1.58499E-19
 -1      2426 1.07762E-04-3.22006E-05-3.23881E-05 8.29758E-06 8.28204E-19 5.23933E-19
 -1      2427 1.05564E-04-3.18252E-05-3.16313E-05 9.84938E-06 3.28868E-19-7.30496E-19
 -1      2428 1.03915E-04-3.04175E-05-3.14963E-05 7.24347E-06-5.68850E-19 9.63681E-19
 -1      2429 1.05246E-04-3.09411E-05-3.18344E-05 7.65943E-06-7.39408E-20 9.78546E-19
 -1      2430 1.03213E-04-3.02371E-05-3.12913E-05 9.18414E-06-2.77015E-19 4.21336E-19
 -1      2431 1.02032E-04-2.97749E-05-3.09655E-05 6.12038E-06-1.25556E-18 1.42875E-18
 -1      2432 1.03158E-04-3.01347E-05-3.12772E-05 6.62268E-06-8.85790E-19 9.39677E-19
 -1      2433 1.01461E-04-2.93469E-05-3.09154E-05 8.02716E-06-8.99218E-19 8.11077E-19
 -1      2434 1.00502E-04-2.93652E-05-3.04855E-05 4.99167E-06-1.23795E-18 8.29738E-19
 -1      2435 1.01432E-04-2.96156E-05-3.07576E-05 5.48665E-06-1.04053E-18 1.17997E-18
 -1      2436 1.00109E-04-2.88772E-05-3.05341E-05 6.72366E-06-9.45441E-19 9.94688E-19
 -1      2437 9.92652E-05-2.90966E-05-3.00704E-05 3.96709E-06-3.08199E-20 4.60523E-19
 -1      2438 1.00017E-04-2.92736E-05-3.02987E-05 4.41041E-06-1.07218E-18 1.99723E-19
 -1      2439 9.90350E-05-2.86415E-05-3.01738E-05 5.46357E-06-6.47069E-19 3.27477E-19
 -1      2440 9.82743E-05-2.89153E-05-2.97233E-05 3.08897E-06 2.09331E-19 1.41682E-18
 -1      2441 9.88720E-05-2.90417E-05-2.99094E-05 3.46493E-06 4.35369E-19 1.20491E-18
 -1      2442 9.81708E-05-2.85295E-05-2.98511E-05 4.33774E-06-4.81251E-19 1.88934E-19
 -1      2443 9.74896E-05-2.87901E-05-2.94407E-05 2.36339E-06-4.91507E-19 1.25622E-18
 -1      2444 9.79568E-05-2.88808E-05-2.95888E-05 2.67130E-06 1.44451E-19 1.74524E-18
 -1      2445 9.74742E-05-2.84805E-05-2.95732E-05 3.37872E-06-2.03677E-20 1.12974E-18
 -1      2446 9.68767E-05-2.87028E-05-2.92155E-05 1.77896E-06-1.81574E-19 6.87372E-19
 -1      2447 9.72360E-05-2.87676E-05-2.93311E-05 2.02506E-06-6.76610E-19 1.03932E-18
 -1      2448 9.69165E-05-2.84629E-05-2.93414E-05 2.58757E-06-3.52943E-19 7.16769E-19
 -1      2449 9.64049E-05-2.86423E-05-2.90395E-05 1.31731E-06-2.25434E-19 8.36034E-19
 -1      2450 9.66770E-05-2.86879E-05-2.91281E-05 1.51034E-06-3.45509E-20 3.45097E-19
 -1      2451 9.64751E-05-2.84608E-05-2.91527E-05 1.95000E-06 2.48767E-19-1.51018E-19
 -1      2452 9.60474E-05-2.86010E-05-2.89042E-05 9.58500E-07 9.17630E-19 1.29663E-18
 -1      2453 9.62501E-05-2.86325E-05-2.89711E-05 1.10754E-06 2.91194E-19 1.07593E-18
 -1      2454 9.61308E-05-2.84664E-05-2.90023E-05 1.44564E-06 1.00367E-19 5.56360E-19
 -1      2455 9.57812E-05-2.85738E-05-2.88019E-05 6.83718E-07-3.25955E-19 1.14772E-18
 -1      2456 9.59294E-05-2.85949E-05-2.88516E-05 7.97126E-07 2.79942E-19 1.17084E-18
 -1      2457 9.58664E-05-2.84756E-05-2.88846E-05 1.05297E-06 6.36859E-19 7.91737E-19
 -1      2458 9.55865E-05-2.85568E-05-2.87260E-05 4.76312E-07 1.95294E-19 1.56868E-18
 -1      2459 9.56928E-05-2.85703E-05-2.87621E-05 5.61356E-07-3.67891E-20 1.52405E-18
 -1      2460 9.56670E-05-2.84863E-05-2.87940E-05 7.51760E-07-4.68826E-19 1.38492E-19
 -1      2461 9.54473E-05-2.85472E-05-2.86707E-05 3.22118E-07-3.45368E-19 2.68381E-18
 -1      2462 9.55217E-05-2.85553E-05-2.86964E-05 3.84910E-07 4.19112E-19 2.28238E-18
 -1      2463 9.55194E-05-2.84975E-05-2.87255E-05 5.24066E-07-3.49766E-19 5.62098E-19
 -1      2464 9.53502E-05-2.85428E-05-2.86311E-05 2.09375E-07 1.08486E-19 1.40846E-18
 -1      2465 9.54008E-05-2.85470E-05-2.86491E-05 2.54941E-07 2.47494E-19 2.47444E-18
 -1      2466 9.54124E-05-2.85084E-05-2.86746E-05 3.54578E-07 2.76806E-19 1.73226E-18
 -1      2467 9.52847E-05-2.85418E-05-2.86036E-05 1.28497E-07-4.09185E-19-6.31238E-19
 -1      2468 9.53177E-05-2.85434E-05-2.86157E-05 1.60903E-07-4.06700E-19 7.27728E-19
 -1      2469 9.53368E-05-2.85186E-05-2.86375E-05 2.30530E-07 2.52114E-19 5.50828E-19
 -1      2470 9.52422E-05-2.85429E-05-2.85850E-05 7.17800E-08-2.15069E-18 1.43305E-18
 -1      2471 9.52627E-05-2.85429E-05-2.85929E-05 9.42708E-08-1.40491E-18 7.89424E-19
 -1      2472 9.52848E-05-2.85279E-05-2.86110E-05 1.41474E-07-1.78349E-18 1.72491E-19
 -1      2473 9.52164E-05-2.85454E-05-2.85730E-05 3.31132E-08-9.83986E-19 2.06201E-18
 -1      2474 9.52280E-05-2.85443E-05-2.85778E-05 4.82460E-08-1.90314E-18 1.40518E-18
 -1      2475 9.52506E-05-2.85361E-05-2.85926E-05 7.89870E-08-2.07715E-18 2.13283E-18
 -1      2476 9.52023E-05-2.85485E-05-2.85657E-05 7.71036E-09 1.96736E-18 2.29635E-18
 -1      2477 9.52078E-05-2.85469E-05-2.85683E-05 1.74763E-08 1.16121E-19 2.12391E-18
 -1      2478 9.52291E-05-2.85433E-05-2.85801E-05 3.63689E-08-2.89057E-19 9.22544E-19
 -1      2479 9.51961E-05-2.85518E-05-2.85617E-05-8.13038E-09 5.82589E-19 4.19169E-18
 -1      2480 9.51976E-05-2.85500E-05-2.85628E-05-2.20047E-09 1.78101E-18 3.62688E-18
 -1      2481 9.52167E-05-2.85493E-05-2.85721E-05 8.36201E-09 9.93291E-19 2.00105E-18
 -1      2482 9.51951E-05-2.85551E-05-2.85599E-05-1.72330E-08-3.57734E-19 4.19756E-18
 -1      2483 9.51941E-05-2.85532E-05-2.85601E-05-1.39785E-08 3.93424E-19 4.65115E-18
 -1      2484 9.52107E-05-2.85543E-05-2.85673E-05-9.10642E-09 6.23169E-19 3.01309E-18
 -1      2485 9.51974E-05-2.85581E-05-2.85596E-05-2.17194E-08-3.48958E-19 2.14684E-18
 -1      2486 9.51948E-05-2.85563E-05-2.85592E-05-2.02740E-08-1.26474E-19 3.88780E-18
 -1      2487 9.52088E-05-2.85584E-05-2.85646E-05-1.91463E-08 5.11038E-19 2.77979E-18
 -1      2488 9.52014E-05-2.85608E-05-2.85602E-05-2.31567E-08 2.21624E-19 1.07783E-18
 -1      2489 9.51981E-05-2.85592E-05-2.85595E-05-2.28855E-08 3.54903E-19 2.18439E-18
 -1      2490 9.52096E-05-2.85617E-05-2.85635E-05-2.40958E-08 1.28683E-19 1.36669E-18
 -1      2491 9.52064E-05-2.85631E-05-2.85614E-05-2.26774E-08-3.27248E-19 1.13052E-18
 -1      2492 9.52028E-05-2.85617E-05-2.85605E-05-2.31259E-08-9.02030E-19 9.41873E-19
 -1      2493 9.52120E-05-2.85643E-05-2.85634E-05-2.56812E-08-2.03168E-19 1.16597E-18
 -1      2494 9.52116E-05-2.85651E-05-2.85627E-05-2.10776E-08 3.60099E-19 1.42711E-18
 -1      2495 9.52081E-05-2.85639E-05-2.85618E-05-2.19305E-08 6.80221E-19 1.28334E-18
 -1      2496 9.52152E-05-2.85664E-05-2.85638E-05-2.51495E-08 4.88882E-19 1.39695E-18
 -1      2497 9.52166E-05-2.85668E-05-2.85642E-05-1.88938E-08-2.90080E-19 1.29482E-18
 -1      2498 9.52133E-05-2.85658E-05-2.85633E-05-1.99431E-08-1.99106E-19 1.06933E-18
 -1      2499 9.52187E-05-2.85680E-05-2.85646E-05-2.33755E-08 3.81803E-19 1.53057E-18
 -1      2500 9.52213E-05-2.85682E-05-2.85656E-05-1.64632E-08 1.02588E-18 9.60866E-19
 -1      2501 9.52183E-05-2.85673E-05-2.85648E-05-1.75837E-08 4.78624E-20 1.73948E-18
 -1      2502 9.52223E-05-2.85692E-05-2.85656E-05-2.09468E-08 7.50438E-20-1.29722E-18
 -1      2503 9.52254E-05-2.85694E-05-2.85669E-05-1.39687E-08 1.24251E-18 1.63411E-18
 -1      2504 9.52229E-05-2.85687E-05-2.85661E-05-1.51001E-08 9.87747E-19 1.27666E-18
 -1      2505 9.52256E-05-2.85703E-05-2.85666E-05-1.82311E-08 3.12570E-19 1.23827E-19
 -1      2506 9.52290E-05-2.85705E-05-2.85679E-05-1.14743E-08 4.48737E-19 2.70101E-18
 -1      2507 9.52268E-05-2.85698E-05-2.85673E-05-1.26072E-08 3.81616E-19 3.17771E-18
 -1      2508 9.52286E-05-2.85711E-05-2.85675E-05-1.54272E-08 3.29854E-19 2.98678E-18
 -1      2509 9.52320E-05-2.85715E-05-2.85688E-05-8.95196E-09 5.77834E-19 3.40452E-18
 -1      2510 9.52303E-05-2.85709E-05-2.85683E-05-1.01163E-08 1.07445E-18 3.19161E-18
 -1      2511 9.52313E-05-2.85719E-05-2.85683E-05-1.26169E-08 2.60714E-19 5.06265E-18
 -1      2512 9.52345E-05-2.85724E-05-2.85695E-05-6.36956E-09-8.79657E-19 4.97949E-18
 -1      2513 9.52331E-05-2.85718E-05-2.85692E-05-7.57981E-09 1.48406E-20 4.02389E-18
 -1      2514 9.52336E-05-2.85727E-05-2.85689E-05-9.77324E-09 8.91075E-20 4.86618E-18
 -1      2515 9.52355E-05-2.85727E-05-2.85698E-05-4.87183E-09-2.87336E-19 5.14271E-18
 -1      2516 9.52422E-05-2.85828E-05-2.85683E-05-7.47809E-09 1.50799E-18 1.31853E-18
 -1      2517 9.52414E-05-2.85816E-05-2.85685E-05-8.19562E-09 2.97381E-19-1.86849E-18
 -1      2518 9.52435E-05-2.85846E-05-2.85681E-05-5.23836E-09 1.58623E-18-1.49718E-18
 -1      2519 9.52429E-05-2.85837E-05-2.85682E-05-6.36055E-09 1.52035E-18 6.15570E-19
 -1      2520 9.52431E-05-2.85830E-05-2.85686E-05-7.89922E-09 1.29410E-18 8.58249E-19
 -1      2521 9.52386E-05-2.85777E-05-2.85689E-05-8.92270E-09-1.17581E-19 5.55746E-19
 -1      2522 9.52375E-05-2.85763E-05-2.85691E-05-8.57089E-09-2.74854E-19 1.57692E-18
 -1      2523 9.52405E-05-2.85804E-05-2.85686E-05-8.78190E-09-7.58027E-19-3.92260E-18
 -1      2524 9.52396E-05-2.85791E-05-2.85688E-05-8.97800E-09-8.93038E-19-1.41349E-18
 -1      2525 9.52389E-05-2.85782E-05-2.85689E-05-1.03189E-08-1.32573E-18-1.40773E-18
 -1      2526 9.52412E-05-2.85808E-05-2.85688E-05-9.72314E-09 7.56686E-19-1.84658E-18
 -1      2527 9.52442E-05-2.85856E-05-2.85679E-05-2.37452E-09-8.54426E-19-4.44164E-18
 -1      2528 9.52439E-05-2.85852E-05-2.85680E-05-3.74843E-09 6.54823E-19-3.52686E-18
 -1      2529 9.52444E-05-2.85846E-05-2.85685E-05-5.11900E-09 1.41460E-18-3.56483E-18
 -1      2530 9.52443E-05-2.85858E-05-2.85679E-05 7.62918E-10-1.56605E-18-1.86332E-18
 -1      2531 9.52443E-05-2.85858E-05-2.85679E-05-6.94571E-10-1.82780E-18-2.75248E-18
 -1      2532 9.52451E-05-2.85854E-05-2.85684E-05-1.74583E-09 4.58384E-19-4.54757E-18
 -1      2533 9.52439E-05-2.85851E-05-2.85680E-05 3.80879E-09-1.59702E-18-1.85736E-18
 -1      2534 9.52442E-05-2.85856E-05-2.85679E-05 2.44014E-09-2.19525E-18-1.63394E-18
 -1      2535 9.52451E-05-2.85854E-05-2.85684E-05 1.82457E-09-5.89612E-19-2.65291E-18
 -1      2536 9.52429E-05-2.85837E-05-2.85682E-05 6.36620E-09-4.29654E-19-1.21487E-19
 -1      2537 9.52434E-05-2.85845E-05-2.85681E-05 5.26806E-09-1.28313E-18-1.42316E-18
 -1      2538 9.52444E-05-2.85846E-05-2.85685E-05 5.16069E-09-8.23726E-19-1.79175E-18
 -1      2539 9.52414E-05-2.85816E-05-2.85685E-05 8.19442E-09-1.03347E-19 3.01034E-18
 -1      2540 9.52422E-05-2.85828E-05-2.85683E-05 7.48020E-09-1.43988E-20 8.21361E-19
 -1      2541 9.52431E-05-2.85830E-05-2.85686E-05 7.90543E-09 2.62146E-19 5.63192E-19
 -1      2542 9.52395E-05-2.85790E-05-2.85688E-05 8.96419E-09-4.80803E-20 2.18153E-18
 -1      2543 9.52405E-05-2.85804E-05-2.85686E-05 8.78173E-09-1.04057E-18 4.33164E-18
 -1      2544 9.52412E-05-2.85808E-05-2.85688E-05 9.72795E-09-3.60939E-20 2.37017E-18
 -1      2545 9.52375E-05-2.85762E-05-2.85692E-05 8.49837E-09-7.51378E-19 7.02644E-19
 -1      2546 9.52385E-05-2.85776E-05-2.85689E-05 8.91894E-09-6.61548E-19 1.01982E-18
 -1      2547 9.52390E-05-2.85781E-05-2.85689E-05 1.02975E-08-1.01055E-18 1.36966E-18
 -1      2548 9.69560E-05-5.29359E-05-1.87772E-05 3.97643E-05 4.90644E-19 1.78112E-18
 -1      2549 7.83486E-05-4.64795E-05-1.34555E-05 4.03043E-05 1.33408E-20 1.76659E-18
 -1      2550 9.52362E-05-2.85740E-05-2.85695E-05 6.15868E-09-4.94638E-19-1.43945E-19
 -1      2551 3.37247E-05-2.55323E-05-3.26102E-06-3.05845E-05 1.36118E-18 5.78418E-18
 -1      2552 5.00585E-05-3.26571E-05-7.31349E-06-4.06675E-05 1.57887E-18 5.66030E-18
 -1      2553 1.20421E-04-4.05750E-05-3.43221E-05 1.36149E-06-9.24589E-20 2.42240E-18
 -1      2554 1.19741E-04-3.92758E-05-3.44022E-05-8.28703E-07 2.49676E-19 2.54647E-18
 -1      2555 1.21520E-04-4.31194E-05-3.36761E-05 1.63441E-06-1.33952E-19 1.83045E-18
 -1      2556 2.32148E-05-1.95721E-05-1.20927E-06 1.64744E-05 4.93926E-19 3.07346E-18
 -1      2557 1.89246E-05-1.70998E-05-5.16474E-07 3.58302E-06 3.81707E-19 3.87179E-18
 -1      2558 1.26109E-04-5.92668E-05-2.89050E-05 2.70120E-05 1.44101E-18-6.09017E-19
 -1      2559 1.11191E-04-5.75421E-05-2.30381E-05 3.31707E-05 1.05710E-18 7.20402E-19
 -1      2560 1.08966E-04-5.69210E-05-2.20170E-05 3.35843E-05-2.25523E-19 3.56230E-19
 -1      2561 1.31123E-04-5.38965E-05-3.32213E-05-2.22576E-05-4.09752E-20-1.09691E-19
 -1      2562 1.41611E-04-5.00611E-05-3.93749E-05-1.62578E-05-1.04842E-18-3.87941E-19
 -1      2563 1.47066E-04-1.08096E-05-5.85816E-05-1.75340E-06-4.33469E-18-3.26240E-19
 -1      2564 1.44200E-04-1.34590E-05-5.64730E-05-4.10036E-06-4.26735E-18-3.88576E-19
 -1      2565 1.06163E-04-2.50462E-05-3.48246E-05-9.45716E-06-1.09305E-18-1.68861E-18
 -1      2566 1.07359E-04-2.90055E-05-3.36344E-05-6.76688E-06-1.08380E-18-1.44440E-18
 -1      2567 1.06570E-04-2.88461E-05-3.32872E-05-6.51676E-06-8.51498E-19-1.45765E-18
 -1      2568 1.03001E-04-2.26734E-05-3.44484E-05-8.44688E-06-8.14765E-19-1.90297E-18
 -1      2569 7.15567E-05-5.26821E-06-2.84846E-05 7.09967E-06 1.45908E-18-2.25958E-18
 -1      2570 7.49859E-05-7.10208E-06-2.90404E-05 6.65674E-06 1.26259E-18-2.33508E-18
 -1      2571 7.81971E-05-1.08360E-05-2.89105E-05 7.66042E-06 1.23265E-18-2.15550E-18
 -1      2572 7.03875E-05-5.71524E-06-2.77150E-05 8.30039E-06 1.51339E-18-2.12571E-18
 -1      2573 1.53304E-04-2.82405E-05-5.38495E-05 8.05388E-06 2.90469E-18 7.57036E-19
 -1      2574 1.53005E-04-2.14215E-05-5.68743E-05 7.47976E-06 3.32820E-18 8.18022E-19
 -1      2575 1.52165E-04-1.81996E-05-5.78738E-05-6.28286E-06 4.93354E-18-2.00747E-19
 -1      2576 1.54170E-04-2.43741E-05-5.58265E-05-7.18779E-06 5.13916E-18-6.41204E-19
 -1      2577 3.08274E-05-2.00950E-05-4.46331E-06 3.10720E-05 4.34740E-19-3.04360E-18
 -1      2578 2.15945E-05-1.38022E-05-2.98820E-06 1.81749E-05 6.96685E-19-3.35933E-18
 -1      2579 1.51869E-04-4.53650E-05-4.58002E-05 1.45854E-06 7.30460E-19-7.87741E-20
 -1      2580 1.54642E-04-3.85099E-05-5.02462E-05 5.21705E-06 1.62821E-18 5.04832E-19
 -1      2581 1.06536E-04-5.43043E-05-2.22561E-05-3.37703E-05-8.78585E-19-2.42484E-18
 -1      2582 1.22001E-04-5.78475E-05-2.77744E-05-2.96899E-05-4.13564E-19-2.06613E-18
 -1      2583 6.33825E-05-3.63927E-05-1.12540E-05-3.83093E-05-6.52215E-19-3.58898E-18
 -1      2584 8.56794E-05-4.64787E-05-1.68297E-05-4.04712E-05-5.49089E-19-3.18802E-18
 -1      2585 3.08475E-05-1.88106E-05-4.81763E-06-2.30223E-05-7.54918E-20-3.88449E-18
 -1      2586 4.27041E-05-2.41779E-05-7.72033E-06-3.21132E-05-2.77827E-19-3.87751E-18
 -1      2587 1.02752E-04-5.35511E-05-2.09438E-05-3.80201E-05 2.10191E-18 1.16891E-18
 -1      2588 1.20009E-04-5.61564E-05-2.74695E-05-3.29946E-05 7.71012E-19 7.35119E-19
 -1      2589 1.80581E-05-1.09962E-05-2.67433E-06 1.84330E-06 4.87818E-19-3.82097E-18
 -1      2590 2.14560E-05-1.35702E-05-3.06667E-06-1.28204E-05 4.16105E-19-3.93870E-18
 -1      2591 3.19089E-05-1.29073E-05-7.57832E-06-1.68369E-05 2.43522E-19-3.73605E-18
 -1      2592 6.14954E-05-3.42872E-05-1.15820E-05 4.35641E-05 3.52154E-19-2.45121E-18
 -1      2593 4.56777E-05-2.78800E-05-7.46173E-06 3.80433E-05 5.47607E-19-2.64317E-18
 -1      2594 9.64462E-05-4.78992E-05-2.10152E-05 4.10515E-05-6.26804E-20-1.49679E-18
 -1      2595 7.84879E-05-4.22635E-05-1.53837E-05 4.24006E-05 2.60039E-19-2.18947E-18
 -1      2596 7.57192E-05-3.80158E-05-1.57102E-05 4.17271E-05 1.10241E-18-2.06697E-18
 -1      2597 1.29849E-04-5.36367E-05-3.29921E-05 2.26150E-05-1.21157E-18-1.78300E-19
 -1      2598 1.16152E-04-5.33240E-05-2.68134E-05 3.05522E-05-4.65868E-19-5.97158E-19
 -1      2599 1.46498E-04-2.26517E-05-5.36693E-05-5.82020E-06-3.79598E-18-4.24787E-19
 -1      2600 1.47690E-04-3.05404E-05-5.03736E-05-2.98333E-06-3.43917E-18-3.21873E-19
 -1      2601 1.48360E-04-1.33391E-05-5.81553E-05 2.73347E-06-4.13987E-18-5.93770E-19
 -1      2602 1.48086E-04-1.11194E-05-5.91073E-05 8.69666E-07-4.21187E-18-4.13974E-19
 -1      2603 1.48274E-04-2.77642E-05-5.18533E-05 2.12150E-06-2.88097E-18-7.79482E-19
 -1      2604 1.49611E-04-2.01638E-05-5.58395E-05 3.59905E-06-3.62128E-18-1.18881E-18
 -1      2605 1.44778E-04-4.49777E-05-4.30017E-05-8.77196E-06-1.44668E-18-3.19331E-19
 -1      2606 1.48319E-04-3.92942E-05-4.71754E-05-3.50594E-06-1.66347E-18-3.23143E-19
 -1      2607 1.41622E-04-5.03193E-05-3.90618E-05-6.09661E-06-4.50648E-21-1.73091E-18
 -1      2608 6.90322E-05-4.14597E-05-1.15312E-05-4.28729E-05 2.57159E-18 3.45081E-18
 -1      2609 8.36611E-05-4.68800E-05-1.57851E-05-4.44588E-05 2.15760E-18 1.93886E-18
 -1      2610 2.10413E-05-1.63733E-05-1.55359E-06-9.25830E-06 9.04049E-19 4.88802E-18
 -1      2611 2.50666E-05-1.89806E-05-2.28851E-06-2.07065E-05 6.76250E-19 5.72594E-18
 -1      2612 1.56337E-04-3.21779E-05-5.34071E-05-5.84402E-06 4.90411E-18-1.15133E-18
 -1      2613 1.52918E-04-3.94460E-05-4.89131E-05-3.62690E-06 4.61644E-18-9.03149E-19
 -1      2614 1.46805E-04-2.77171E-05-5.12531E-05-1.20147E-05 4.51723E-18-3.75447E-19
 -1      2615 1.14926E-04-3.14364E-05-3.58147E-05 3.08418E-07 1.49025E-18 3.20660E-18
 -1      2616 1.14849E-04-2.95201E-05-3.65891E-05 3.18279E-06 1.61676E-18 3.53229E-18
 -1      2617 1.10855E-04-2.62974E-05-3.63055E-05 3.69137E-06 1.80497E-18 2.81252E-18
 -1      2618 1.11454E-04-3.01193E-05-3.49211E-05-6.95244E-07 1.51649E-18 2.18498E-18
 -1      2619 1.38707E-04-1.95082E-05-5.13629E-05 1.11792E-05 2.96292E-18 2.33961E-18
 -1      2620 1.47650E-04-1.77661E-05-5.59589E-05 6.86071E-06 3.40486E-18 1.25880E-18
 -1      2621 1.38324E-04-1.37313E-05-5.42006E-05 5.24401E-06 3.49147E-18 1.85924E-18
 -1      2622 9.35184E-05-1.96234E-05-3.17087E-05 3.38103E-07 2.98799E-19-2.19612E-18
 -1      2623 9.28829E-05-1.71806E-05-3.24897E-05-1.60430E-06 1.87184E-19-2.47504E-18
 -1      2624 9.57613E-05-1.85501E-05-3.31456E-05-3.67440E-06-4.74669E-20-2.40919E-18
 -1      2625 1.16711E-04-3.86314E-05-3.35477E-05-2.65058E-06 4.35243E-19 1.77915E-18
 -1      2626 1.05103E-04-2.26896E-05-3.53657E-05 2.73053E-06 1.90635E-18 1.71752E-18
 -1      2627 1.39967E-04-1.73655E-05-5.29113E-05-7.67789E-06-3.82499E-18-4.32516E-19
 -1      2628 1.33638E-04-2.09883E-05-4.86629E-05-1.04933E-05-3.51879E-18-1.54478E-19
 -1      2629 1.30096E-04-1.21276E-05-5.11755E-05-8.48273E-06-3.88470E-18-5.39401E-19
 -1      2630 1.09919E-04-5.17074E-05-2.46323E-05 3.27690E-05 3.37225E-19-6.96129E-19
 -1      2631 2.37641E-05-1.01345E-05-5.33290E-06 1.06740E-05 9.22419E-19-3.49782E-18
 -1      2632 2.82458E-05-6.66292E-06-8.63717E-06 4.25878E-06 1.01445E-18-3.49528E-18
 -1      2633 3.09534E-05-9.43362E-06-8.90191E-06 1.91873E-05 1.41290E-18-2.94598E-18
 -1      2634 1.47807E-04-5.16181E-05-4.11618E-05 2.46075E-06-1.51023E-19 6.06052E-19
 -1      2635 1.40452E-04-5.95840E-05-3.54049E-05 8.65801E-06 1.32931E-18-1.56860E-18
 -1      2636 1.35689E-04-6.03643E-05-3.21718E-05 1.85679E-05 1.55145E-18-8.12940E-19
 -1      2637 1.29991E-04-6.13465E-05-2.90788E-05 2.01701E-05 3.18484E-19-1.08558E-18
 -1      2638 6.98981E-05-4.12107E-05-1.20291E-05 3.97408E-05-6.62168E-19 1.80005E-18
 -1      2639 6.11478E-05-3.33499E-05-1.13412E-05 3.70018E-05-1.40163E-18 1.20808E-18
 -1      2640 8.50283E-05-4.55139E-05-1.67139E-05 3.77930E-05-1.54742E-18 1.42794E-18
 -1      2641 6.41891E-05-3.59214E-05-1.16700E-05-4.10358E-05 2.87568E-18 3.31878E-18
 -1      2642 1.00465E-04-5.22221E-05-2.03389E-05-3.81920E-05 3.03365E-18 8.87925E-19
 -1      2643 9.52356E-05-2.85735E-05-2.85695E-05-6.76650E-09-1.28776E-18 5.00835E-18
 -1      2644 9.52362E-05-2.85745E-05-2.85693E-05-7.63179E-09-3.20248E-19 3.86489E-18
 -1      2645 4.51361E-05-2.19383E-05-9.43872E-06 3.46938E-05 1.21920E-18-2.77488E-18
 -1      2646 9.52351E-05-2.85732E-05-2.85694E-05 7.36418E-09-3.16035E-19 6.18610E-19
 -1      2647 9.52365E-05-2.85749E-05-2.85692E-05 8.20900E-09-9.75241E-19-2.94784E-19
 -1      2648 9.52365E-05-2.85754E-05-2.85691E-05 9.89161E-09-2.46893E-18 8.72932E-19
 -1      2649 9.52341E-05-2.85729E-05-2.85691E-05 8.64282E-09-6.58530E-19 4.95378E-19
 -1      2650 5.83702E-05-3.02716E-05-1.15963E-05-3.50650E-05-6.65768E-19-3.57427E-18
 -1      2651 7.35300E-05-3.58696E-05-1.61869E-05-3.61913E-05-1.06207E-18-2.90670E-18
 -1      2652 5.51225E-05-2.35472E-05-1.29413E-05-3.10326E-05-3.98000E-19-3.32842E-18
 -1      2653 3.75529E-05-2.04311E-05-6.77944E-06-2.62297E-05 1.33196E-18 5.43922E-18
 -1      2654 1.03804E-04-2.39257E-05-3.41903E-05-1.84403E-08 1.73511E-18 1.31188E-18
 -1      2655 3.51904E-05-2.17654E-05-5.27357E-06 2.30919E-05-5.25160E-19 2.27640E-18
 -1      2656 9.81189E-05-1.98600E-05-3.35874E-05-5.38089E-06-2.63993E-19-2.26591E-18
 -1      2657 1.00795E-04-2.13400E-05-3.41408E-05-7.20306E-06-6.03605E-19-2.20197E-18
 -1      2658 1.03206E-04-2.50613E-05-3.35097E-05-6.29964E-06-6.81397E-19-1.83655E-18
 -1      2659 9.89674E-05-2.25100E-05-3.27862E-05-3.57226E-06-1.37061E-19-2.08906E-18
 -1      2660 1.28809E-04-5.79226E-05-3.02891E-05-2.21374E-05 1.34752E-18-5.42313E-19
 -1      2661 2.69283E-05-1.41269E-05-4.88656E-06-3.02213E-06 8.76414E-20 4.14157E-18
 -1      2662 1.43576E-04-3.41883E-05-4.69801E-05 5.14273E-06-1.77242E-18-2.03606E-18
 -1      2663 1.39863E-04-1.55137E-05-5.34120E-05 6.77379E-06-3.45208E-18-1.53736E-18
 -1      2664 1.00820E-04-5.12419E-05-2.09360E-05-3.45327E-05-1.27944E-18-2.26393E-18
 -1      2665 1.36670E-04-8.65157E-06-5.50743E-05-6.76645E-07-4.26100E-18-7.43854E-19
 -1      2666 1.43400E-04-3.69149E-05-4.56994E-05-3.34772E-06-2.78631E-18 5.61159E-20
 -1      2667 1.32963E-04-5.96340E-05-3.12419E-05-1.75817E-05-8.74032E-19-7.86364E-19
 -1      2668 1.47220E-04-1.57212E-05-5.66667E-05-4.72881E-06 4.55005E-18 3.91435E-19
 -1      2669 1.37851E-04-1.65901E-05-5.23088E-05-9.22703E-06 4.29933E-18 7.98858E-19
 -1      2670 1.38426E-04-1.26821E-05-5.45521E-05-2.40124E-06 3.87772E-18 1.24281E-18
 -1      2671 1.47641E-04-3.33746E-05-4.90764E-05 1.23493E-05 1.62186E-18 1.80630E-18
 -1      2672 1.35450E-04-5.29880E-05-3.53247E-05 1.42536E-05-1.27817E-18 1.12761E-19
 -1      2673 1.29828E-04-5.45723E-05-3.20728E-05 1.52490E-05-5.92288E-19 2.90003E-19
 -1      2674 1.37023E-04-5.09614E-05-3.76414E-05 5.19541E-06-1.29994E-18 2.98685E-19
 -1      2675 1.46351E-04-4.16908E-05-4.54801E-05-1.15469E-05 3.75066E-18-1.02216E-18
 -1      2676 1.51695E-04-4.70389E-05-4.50842E-05-3.36406E-06 4.09376E-18-1.38257E-18
 -1      2677 1.46887E-04-5.15012E-05-4.07167E-05-2.61408E-06 2.96268E-18-1.54605E-18
 -1      2678 9.52361E-05-2.85749E-05-2.85691E-05-9.40422E-09-6.46783E-19 3.62138E-18
 -1      2679 9.52348E-05-2.85739E-05-2.85690E-05 1.05351E-08-1.63431E-18 1.36428E-18
 -1      2680 6.32830E-05-1.94141E-06-2.62880E-05 1.00972E-06 1.83044E-18-1.88236E-18
 -1      2681 6.21771E-05-1.45958E-06-2.60353E-05 3.17084E-06 1.77782E-18-2.06849E-18
 -1      2682 6.27841E-05-2.16244E-06-2.60475E-05 6.48259E-06 1.78049E-18-2.13449E-18
 -1      2683 6.48000E-05-3.43103E-06-2.62379E-05 8.23414E-06 1.68756E-18-2.10741E-18
 -1      2684 6.15527E-05-2.70941E-06-2.51040E-05 5.35905E-06 1.69159E-18-2.08635E-18
 -1      2685 8.17250E-05-1.29706E-05-2.93910E-05-5.25252E-06 1.78867E-18-1.03587E-18
 -1      2686 7.58770E-05-9.78227E-06-2.84112E-05-5.15744E-06 1.80319E-18-1.31645E-18
 -1      2687 9.43568E-05-2.04854E-05-3.16003E-05-4.25372E-06 1.71935E-18-2.26912E-20
 -1      2688 8.80433E-05-1.69393E-05-3.05243E-05-5.00448E-06 1.69850E-18-5.36463E-19
 -1      2689 8.57167E-05-1.75967E-05-2.92261E-05-7.50459E-06 1.53693E-18-8.02921E-19
 -1      2690 1.09959E-04-3.33665E-05-3.28542E-05-4.92828E-06 8.80368E-19 1.07374E-18
 -1      2691 1.08443E-04-3.06927E-05-3.32186E-05-4.09909E-06 1.16108E-18 1.19367E-18
 -1      2692 4.57568E-05-2.35904E-05-9.01269E-06 2.96776E-05-9.43806E-19 1.36521E-18
 -1      2693 3.50612E-05-1.62961E-05-7.60247E-06 1.76620E-05-5.45277E-19 1.87215E-18
 -1      2694 1.09820E-04-3.51454E-05-3.19595E-05-5.58649E-06-2.99820E-19-9.07158E-19
 -1      2695 1.10074E-04-3.58793E-05-3.18413E-05-6.27284E-06-2.33859E-19-8.49142E-19
 -1      2696 1.11175E-04-3.64940E-05-3.19851E-05-7.65135E-06-3.18793E-19-6.17442E-19
 -1      2697 1.10865E-04-3.60813E-05-3.20805E-05-8.72486E-06-3.98977E-19-6.85624E-19
 -1      2698 1.11771E-04-3.71383E-05-3.19930E-05-6.43194E-06-1.97632E-19-6.91318E-19
 -1      2699 1.10988E-04-3.52354E-05-3.24990E-05-1.02287E-05-4.60266E-19-4.93996E-19
 -1      2700 1.09942E-04-3.34336E-05-3.27706E-05-1.08480E-05-7.05843E-19-4.94919E-19
 -1      2701 1.13099E-04-3.68770E-05-3.26532E-05-9.47453E-06-4.71695E-19-5.41428E-19
 -1      2702 1.08782E-04-3.10868E-05-3.33787E-05-1.12542E-05-9.66058E-19-5.14080E-19
 -1      2703 1.07257E-04-2.84052E-05-3.37271E-05-1.05005E-05-1.13381E-18-5.99395E-19
 -1      2704 1.12065E-04-3.30294E-05-3.38409E-05-1.17590E-05-9.16555E-19-3.69485E-19
 -1      2705 1.05388E-04-2.55456E-05-3.43167E-05-8.75582E-06-1.43409E-18-9.45853E-19
 -1      2706 1.04107E-04-2.32901E-05-3.45847E-05-6.28459E-06-1.69606E-18-1.07376E-18
 -1      2707 1.08912E-04-2.66987E-05-3.52235E-05-1.07497E-05-1.50200E-18-6.71866E-19
 -1      2708 1.02950E-04-2.17643E-05-3.48533E-05-2.39922E-06-1.69733E-18-1.17515E-18
 -1      2709 1.02771E-04-2.15048E-05-3.48602E-05 9.82479E-07-1.50870E-18-1.17982E-18
 -1      2710 1.05683E-04-2.13541E-05-3.61798E-05-5.06999E-06-1.66910E-18-1.19350E-18
 -1      2711 1.03373E-04-2.24651E-05-3.46337E-05 5.07338E-06-1.56847E-18-1.37267E-18
 -1      2712 1.04349E-04-2.43908E-05-3.43636E-05 7.85483E-06-1.41389E-18-1.56889E-18
 -1      2713 1.05184E-04-2.06926E-05-3.62638E-05 3.31827E-06-1.58277E-18-1.12740E-18
 -1      2714 1.06083E-04-2.71908E-05-3.37437E-05 1.00920E-05-8.82463E-19-1.59689E-18
 -1      2715 1.07520E-04-3.00326E-05-3.33197E-05 1.11137E-05-3.26345E-19-1.55577E-18
 -1      2716 1.07672E-04-2.52930E-05-3.53154E-05 9.91381E-06-1.05953E-18-1.38119E-18
 -1      2717 1.08880E-04-3.28127E-05-3.25685E-05 1.09045E-05-1.50580E-20-1.47967E-18
 -1      2718 1.09932E-04-3.50980E-05-3.21426E-05 1.02086E-05 2.99942E-19-1.40257E-18
 -1      2719 1.10930E-04-3.21233E-05-3.37491E-05 1.16894E-05-2.38929E-19-1.63470E-18
 -1      2720 1.10055E-04-3.66090E-05-3.14883E-05 8.37477E-06 1.70959E-19-1.30828E-18
 -1      2721 1.10313E-04-3.76332E-05-3.11609E-05 6.73332E-06 1.43804E-19-1.17757E-18
 -1      2722 1.12443E-04-3.73151E-05-3.21575E-05 9.21965E-06 2.84669E-19-1.61924E-18
 -1      2723 1.09319E-04-3.77486E-05-3.07096E-05 4.48056E-06 8.74313E-20-1.17105E-18
 -1      2724 1.08877E-04-3.76511E-05-3.05019E-05 2.67794E-06 6.09529E-20-9.99927E-19
 -1      2725 1.11485E-04-3.92889E-05-3.09261E-05 4.81123E-06 1.67447E-19-1.38414E-18
 -1      2726 1.07355E-04-3.68870E-05-3.02401E-05 7.81853E-07-2.35068E-19-7.99100E-19
 -1      2727 1.06524E-04-3.61597E-05-3.01209E-05-7.19367E-07-2.71412E-19-5.89154E-19
 -1      2728 1.08870E-04-3.85497E-05-3.01508E-05 5.85882E-07-4.19666E-20-1.14160E-18
 -1      2729 1.04975E-04-3.50755E-05-2.99882E-05-2.00926E-06-2.34225E-19-9.40368E-19
 -1      2730 1.04037E-04-3.41527E-05-2.99168E-05-3.05008E-06-1.98065E-19-8.30139E-19
 -1      2731 1.05738E-04-3.64207E-05-2.97354E-05-2.53710E-06-4.01959E-19-7.35967E-19
 -1      2732 1.02721E-04-3.31075E-05-2.98546E-05-3.76950E-06-2.13555E-19-8.59278E-19
 -1      2733 1.01843E-04-3.22490E-05-2.98001E-05-4.36561E-06-9.25041E-20-8.06059E-19
 -1      2734 1.02852E-04-3.39870E-05-2.95429E-05-4.43844E-06-1.98746E-19-8.47156E-19
 -1      2735 1.00839E-04-3.14077E-05-2.97668E-05-4.64906E-06-1.10416E-19-1.18046E-18
 -1      2736 1.00091E-04-3.07229E-05-2.97116E-05-4.89129E-06-1.68710E-19-1.28928E-18
 -1      2737 1.00534E-04-3.18468E-05-2.94614E-05-5.33717E-06-2.89402E-19-5.71500E-19
 -1      2738 9.93745E-05-3.01202E-05-2.96838E-05-4.88115E-06 8.15261E-20-1.29407E-18
 -1      2739 9.87675E-05-2.96257E-05-2.96213E-05-4.87477E-06 4.84819E-19-1.03732E-18
 -1      2740 9.88237E-05-3.02202E-05-2.94188E-05-5.52858E-06 2.31714E-22-1.42133E-18
 -1      2741 9.82770E-05-2.92335E-05-2.95888E-05-4.68647E-06 3.33137E-19-9.21073E-19
 -1      2742 9.77958E-05-2.89034E-05-2.95196E-05-4.52436E-06 3.05278E-19-1.27528E-18
 -1      2743 9.76270E-05-2.91070E-05-2.93774E-05-5.27048E-06 3.15099E-20-1.40922E-18
 -1      2744 9.74691E-05-2.86729E-05-2.94801E-05-4.24216E-06 3.87162E-19-1.44044E-18
 -1      2745 9.70917E-05-2.84686E-05-2.94075E-05-3.99632E-06 2.27857E-19-1.11283E-18
 -1      2746 9.68181E-05-2.84162E-05-2.93229E-05-4.75712E-06 2.54988E-19-1.12670E-18
 -1      2747 9.68772E-05-2.83515E-05-2.93627E-05-3.67780E-06 4.88880E-19-8.43895E-19
 -1      2748 9.65824E-05-2.82364E-05-2.92908E-05-3.39936E-06 6.97265E-19-7.50448E-19
 -1      2749 9.62830E-05-2.80366E-05-2.92535E-05-4.12484E-06 4.98424E-19-1.16185E-18
 -1      2750 9.64423E-05-2.81931E-05-2.92437E-05-3.08157E-06 5.60836E-19-7.95946E-19
 -1      2751 9.62126E-05-2.81374E-05-2.91759E-05-2.80399E-06 8.10126E-19-1.08308E-18
 -1      2752 9.59328E-05-2.78686E-05-2.91738E-05-3.46422E-06 4.98606E-19-4.19471E-19
 -1      2753 9.61209E-05-2.81386E-05-2.91293E-05-2.50897E-06 5.00928E-19-2.22197E-18
 -1      2754 9.59426E-05-2.81202E-05-2.90680E-05-2.25219E-06 1.12158E-19-2.71169E-18
 -1      2755 9.57041E-05-2.78340E-05-2.90897E-05-2.83182E-06-5.34044E-20-2.56012E-18
 -1      2756 9.58818E-05-2.81456E-05-2.90243E-05-1.99143E-06-7.43615E-21-3.18312E-18
 -1      2757 9.57442E-05-2.81491E-05-2.89708E-05-1.76570E-06 2.08642E-19-3.53449E-18
 -1      2758 9.55542E-05-2.78765E-05-2.90066E-05-2.25970E-06-3.35616E-19-3.85339E-18
 -1      2759 9.57034E-05-2.81855E-05-2.89313E-05-1.54359E-06 5.07153E-19-3.13483E-18
 -1      2760 9.55981E-05-2.82007E-05-2.88860E-05-1.35261E-06 6.15604E-19-3.41933E-18
 -1      2761 9.54549E-05-2.79580E-05-2.89287E-05-1.76299E-06 2.97872E-19-3.24495E-18
 -1      2762 9.55701E-05-2.82399E-05-2.88516E-05-1.16901E-06 7.53990E-19-3.64218E-18
 -1      2763 9.54904E-05-2.82601E-05-2.88142E-05-1.01235E-06 1.26439E-19-3.41724E-18
 -1      2764 9.53882E-05-2.80542E-05-2.88586E-05-1.34553E-06 3.34431E-19-3.36070E-18
 -1      2765 9.54709E-05-2.82975E-05-2.87851E-05-8.64449E-07-2.60140E-20-3.20428E-18
 -1      2766 9.54113E-05-2.83189E-05-2.87549E-05-7.39312E-07-3.45674E-19-3.01003E-18
 -1      2767 9.53426E-05-2.81505E-05-2.87976E-05-1.00410E-06 4.83073E-20-4.45018E-18
 -1      2768 9.53974E-05-2.83522E-05-2.87308E-05-6.22919E-07-4.21048E-19-2.26327E-18
 -1      2769 9.53536E-05-2.83724E-05-2.87070E-05-5.25348E-07-3.31943E-19-1.86500E-18
 -1      2770 9.53110E-05-2.82388E-05-2.87461E-05-7.31517E-07-2.72625E-19-4.18789E-18
 -1      2771 9.53436E-05-2.84006E-05-2.86876E-05-4.35756E-07-2.82699E-20-1.45576E-18
 -1      2772 9.53120E-05-2.84186E-05-2.86692E-05-3.61414E-07 8.88370E-20-8.52224E-19
 -1      2773 9.52887E-05-2.83155E-05-2.87035E-05-5.18700E-07-2.40013E-19-3.13159E-18
 -1      2774 9.53048E-05-2.84417E-05-2.86539E-05-2.93951E-07 2.80567E-19-1.04539E-18
 -1      2775 9.52825E-05-2.84569E-05-2.86400E-05-2.38609E-07 2.88209E-19-7.03592E-19
 -1      2776 9.52728E-05-2.83794E-05-2.86692E-05-3.56104E-07 2.40404E-19-2.42627E-18
 -1      2777 9.52772E-05-2.84752E-05-2.86281E-05-1.88959E-07-1.80584E-19-4.34017E-19
 -1      2778 9.52620E-05-2.84878E-05-2.86178E-05-1.48762E-07-5.25736E-19-7.37823E-19
 -1      2779 9.52614E-05-2.84311E-05-2.86421E-05-2.34572E-07-7.30723E-20-2.52817E-18
 -1      2780 9.52582E-05-2.85019E-05-2.86088E-05-1.13127E-07-4.87456E-19-3.10649E-19
 -1      2781 9.52481E-05-2.85120E-05-2.86014E-05-8.47228E-08-3.78851E-19-7.61756E-19
 -1      2782 9.52532E-05-2.84716E-05-2.86211E-05-1.45819E-07-4.24614E-19-1.91059E-18
 -1      2783 9.52454E-05-2.85226E-05-2.85948E-05-5.98737E-08-5.86376E-19-2.86173E-19
 -1      2784 9.52391E-05-2.85304E-05-2.85896E-05-4.04493E-08-9.59891E-19-7.72900E-20
 -1      2785 9.52474E-05-2.85027E-05-2.86052E-05-8.26601E-08-8.59316E-19-1.25144E-18
 -1      2786 9.52371E-05-2.85383E-05-2.85847E-05-2.37250E-08-5.88930E-19-8.88098E-20
 -1      2787 9.52336E-05-2.85443E-05-2.85812E-05-1.09840E-08 2.59486E-19 5.88492E-19
 -1      2788 9.52433E-05-2.85260E-05-2.85934E-05-3.90629E-08-3.86312E-19-4.92651E-20
 -1      2789 9.52322E-05-2.85499E-05-2.85778E-05-2.42877E-10 3.26059E-19-3.94259E-20
 -1      2790 9.52305E-05-2.85543E-05-2.85756E-05 7.64223E-09 3.73112E-19 6.52256E-20
 -1      2791 9.52404E-05-2.85430E-05-2.85848E-05-1.00955E-08-1.56410E-19-3.71467E-19
 -1      2792 9.52296E-05-2.85582E-05-2.85732E-05 1.40848E-08 9.44508E-20-5.18853E-19
 -1      2793 9.52291E-05-2.85615E-05-2.85719E-05 1.85357E-08-4.98001E-19-1.02082E-18
 -1      2794 9.52385E-05-2.85550E-05-2.85788E-05 8.17882E-09-4.17372E-19 5.03047E-19
 -1      2795 9.52285E-05-2.85641E-05-2.85703E-05 2.19762E-08-6.21890E-20-3.30557E-19
 -1      2796 9.52288E-05-2.85664E-05-2.85696E-05 2.40742E-08 1.99757E-19 1.13477E-18
 -1      2797 9.52373E-05-2.85633E-05-2.85747E-05 1.88338E-08 2.67378E-19-3.42665E-19
 -1      2798 9.52285E-05-2.85681E-05-2.85687E-05 2.54888E-08-5.13499E-19 1.93055E-18
 -1      2799 9.52292E-05-2.85697E-05-2.85684E-05 2.60371E-08-9.14196E-19 2.37217E-18
 -1      2800 9.52365E-05-2.85688E-05-2.85720E-05 2.42183E-08 3.56413E-19 1.76616E-18
 -1      2801 9.52290E-05-2.85707E-05-2.85678E-05 2.61426E-08-2.49536E-19 2.87580E-18
 -1      2802 9.52301E-05-2.85718E-05-2.85678E-05 2.57214E-08 1.13138E-19 3.59824E-18
 -1      2803 9.52361E-05-2.85722E-05-2.85703E-05 2.60865E-08-3.43339E-19 3.09381E-18
 -1      2804 9.52300E-05-2.85723E-05-2.85676E-05 2.50291E-08-4.26276E-19 3.00302E-18
 -1      2805 9.52311E-05-2.85730E-05-2.85677E-05 2.40430E-08-5.12354E-20 3.02801E-18
 -1      2806 9.52360E-05-2.85743E-05-2.85693E-05 2.57154E-08-3.34693E-19 3.32964E-18
 -1      2807 9.52311E-05-2.85733E-05-2.85676E-05 2.29036E-08-2.89555E-19 2.59442E-18
 -1      2808 9.52322E-05-2.85738E-05-2.85679E-05 2.16205E-08 7.67705E-19 1.89147E-18
 -1      2809 9.52360E-05-2.85753E-05-2.85689E-05 2.40043E-08-4.29245E-19 2.92501E-18
 -1      2810 9.52323E-05-2.85739E-05-2.85679E-05 2.02610E-08 1.89835E-18 1.43701E-18
 -1      2811 9.52334E-05-2.85742E-05-2.85682E-05 1.88440E-08 1.65083E-18 2.53397E-18
 -1      2812 9.52361E-05-2.85758E-05-2.85687E-05 2.15601E-08 1.09548E-18 3.10279E-18
 -1      2813 9.52335E-05-2.85743E-05-2.85683E-05 1.73968E-08 1.19452E-18 2.05548E-18
 -1      2814 9.52345E-05-2.85746E-05-2.85685E-05 1.59265E-08 1.20620E-18 1.51357E-18
 -1      2815 9.52364E-05-2.85760E-05-2.85687E-05 1.87642E-08 1.32537E-18 2.91357E-18
 -1      2816 9.52347E-05-2.85747E-05-2.85686E-05 1.44586E-08 7.49836E-19 8.03373E-19
 -1      2817 9.52356E-05-2.85750E-05-2.85688E-05 1.29641E-08-8.43094E-19 5.80033E-20
 -1      2818 9.52368E-05-2.85762E-05-2.85688E-05 1.58245E-08 5.96670E-19-5.59237E-19
 -1      2819 1.31350E-04-4.19626E-05-3.84112E-05 1.57218E-05 3.01173E-19 2.15104E-18
 -1      2820 1.32428E-04-4.73253E-05-3.66362E-05 1.28782E-05-3.13329E-19 1.95019E-18
 -1      2821 1.28722E-04-4.85653E-05-3.44853E-05 7.31856E-06-5.37326E-19 1.63607E-18
 -1      2822 1.27134E-04-4.85347E-05-3.35857E-05 3.40232E-06-6.57039E-19 1.52469E-18
 -1      2823 1.33422E-04-5.13008E-05-3.54481E-05 6.94224E-06-5.21243E-19 1.41089E-18
 -1      2824 1.23959E-04-1.66663E-05-4.64317E-05 3.17375E-06 3.00485E-18 1.91611E-18
 -1      2825 1.25818E-04-2.06744E-05-4.56763E-05 1.09917E-05 2.67387E-18 1.95606E-18
 -1      2826 1.25903E-04-2.12080E-05-4.54003E-05-1.18321E-05 3.23397E-18 7.93643E-19
 -1      2827 1.24043E-04-1.67418E-05-4.65459E-05-5.30254E-06 3.37013E-18 1.42884E-18
 -1      2828 1.30212E-04-3.95321E-05-3.93052E-05-1.76803E-05 2.12997E-18-1.37389E-18
 -1      2829 1.27668E-04-3.19955E-05-4.11948E-05-1.70032E-05 2.78833E-18-3.85850E-19
 -1      2830 1.30854E-04-4.94282E-05-3.49651E-05-9.37389E-06 6.36021E-19-1.39280E-18
 -1      2831 1.30898E-04-4.57384E-05-3.65649E-05-1.33060E-05 1.03462E-18-1.59541E-18
 -1      2832 1.23889E-04-4.81655E-05-3.23311E-05 6.36017E-07-2.53131E-19-9.96772E-19
 -1      2833 1.26226E-04-4.91767E-05-3.31340E-05-3.53449E-06 2.32213E-19-1.24885E-18
 -1      2834 1.30256E-04-5.26996E-05-3.34707E-05-2.55128E-06 2.67159E-19-1.47503E-18
 -1      2835 1.15725E-04-4.24977E-05-3.12562E-05 7.42662E-06-2.24321E-19-4.05765E-19
 -1      2836 1.18725E-04-4.52169E-05-3.15854E-05 4.51646E-06-4.09137E-19-3.61372E-19
 -1      2837 1.20125E-04-4.87579E-05-3.07620E-05 6.71744E-06-6.54388E-19-7.15280E-19
 -1      2838 1.09137E-04-3.67628E-05-3.09337E-05 1.06169E-05 6.08681E-20-9.38122E-20
 -1      2839 1.11748E-04-3.93394E-05-3.10692E-05 9.12966E-06 1.61363E-19-3.75011E-20
 -1      2840 1.10870E-04-4.14556E-05-2.98866E-05 1.14805E-05-4.01487E-19-2.10038E-19
 -1      2841 1.04662E-04-3.26041E-05-3.08388E-05 1.14088E-05 2.39535E-19-6.06208E-19
 -1      2842 1.06618E-04-3.44508E-05-3.09385E-05 1.09679E-05 7.96277E-20-9.81888E-20
 -1      2843 1.04473E-04-3.51611E-05-2.97956E-05 1.29486E-05 2.36350E-20 3.74680E-20
 -1      2844 1.01838E-04-3.00656E-05-3.07428E-05 1.08616E-05-4.12822E-19 3.55116E-19
 -1      2845 1.03239E-04-3.12063E-05-3.08654E-05 1.10580E-05-1.57419E-19-1.95564E-19
 -1      2846 1.00646E-04-3.09590E-05-2.99153E-05 1.26144E-05-1.89067E-19 1.41912E-19
 -1      2847 1.00070E-04-2.87053E-05-3.05819E-05 9.67321E-06-5.22237E-19 1.15747E-18
 -1      2848 1.01085E-04-2.93428E-05-3.07335E-05 1.01993E-05-3.46349E-19 6.84335E-19
 -1      2849 9.85481E-05-2.85833E-05-3.00076E-05 1.14366E-05-7.11588E-19 1.48155E-18
 -1      2850 9.89142E-05-2.80735E-05-3.03635E-05 8.25354E-06-1.04847E-18 9.33057E-19
 -1      2851 9.96780E-05-2.83995E-05-3.05312E-05 8.90847E-06-3.95910E-19 9.23971E-19
 -1      2852 9.74441E-05-2.74441E-05-3.00085E-05 9.93081E-06-5.77174E-19 1.12970E-18
 -1      2853 9.81017E-05-2.78456E-05-3.01151E-05 6.83060E-06-5.46570E-19 3.77555E-19
 -1      2854 9.86982E-05-2.79954E-05-3.02835E-05 7.49616E-06-1.01647E-18 2.11905E-19
 -1      2855 9.68541E-05-2.70331E-05-2.99256E-05 8.36615E-06-4.68995E-19 6.55079E-19
 -1      2856 9.74881E-05-2.78206E-05-2.98630E-05 5.52165E-06-6.19349E-19 1.45475E-19
 -1      2857 9.79651E-05-2.78773E-05-3.00206E-05 6.13564E-06-4.22058E-19 2.77963E-19
 -1      2858 9.65087E-05-2.70047E-05-2.97877E-05 6.88383E-06-6.03812E-19-5.21230E-19
 -1      2859 9.70010E-05-2.78857E-05-2.96257E-05 4.37788E-06-3.35096E-19 1.84979E-19
 -1      2860 9.73860E-05-2.78962E-05-2.97658E-05 4.91313E-06-7.10120E-19-6.38912E-20
 -1      2861 9.62731E-05-2.71522E-05-2.96233E-05 5.55365E-06-4.71557E-19-1.14759E-19
 -1      2862 9.66051E-05-2.79823E-05-2.94137E-05 3.41249E-06 1.38717E-19 2.44138E-19
 -1      2863 9.69151E-05-2.79716E-05-2.95336E-05 3.86207E-06 6.66724E-20 2.72848E-19
 -1      2864 9.60871E-05-2.73621E-05-2.94541E-05 4.40337E-06-1.03566E-19-3.85719E-19
 -1      2865 9.62821E-05-2.80825E-05-2.92314E-05 2.61812E-06 2.83585E-19 3.35961E-19
 -1      2866 9.65294E-05-2.80633E-05-2.93311E-05 2.98583E-06 2.02940E-20 9.20544E-19
 -1      2867 9.59278E-05-2.75779E-05-2.92939E-05 3.43582E-06 6.87139E-21 4.64966E-19
 -1      2868 9.60208E-05-2.81743E-05-2.90793E-05 1.97747E-06-2.28344E-19 2.96702E-19
 -1      2869 9.62155E-05-2.81528E-05-2.91602E-05 2.27211E-06 5.33802E-19 3.76504E-19
 -1      2870 9.57882E-05-2.77745E-05-2.91501E-05 2.63970E-06 3.80425E-19 9.22293E-19
 -1      2871 9.58123E-05-2.82536E-05-2.89553E-05 1.46950E-06-1.16344E-19 9.00328E-19
 -1      2872 9.59633E-05-2.82327E-05-2.90197E-05 1.70158E-06-6.05318E-19 7.19385E-19
 -1      2873 9.56672E-05-2.79431E-05-2.90262E-05 1.99667E-06-4.47483E-19 1.25308E-18
 -1      2874 9.56490E-05-2.83202E-05-2.88563E-05 1.07285E-06 6.45060E-19 1.85687E-18
 -1      2875 9.57641E-05-2.83010E-05-2.89066E-05 1.25288E-06 9.85973E-19 1.64339E-18
 -1      2876 9.55646E-05-2.80827E-05-2.89224E-05 1.48575E-06 2.68203E-20 1.65913E-18
 -1      2877 9.55235E-05-2.83749E-05-2.87787E-05 7.67661E-07-4.92674E-19 1.43982E-18
 -1      2878 9.56097E-05-2.83579E-05-2.88173E-05 9.05258E-07 1.38332E-19 1.84156E-18
 -1      2879 9.54801E-05-2.81960E-05-2.88375E-05 1.08595E-06 4.42528E-19 2.52742E-18
 -1      2880 9.54290E-05-2.84194E-05-2.87189E-05 5.36298E-07 1.60659E-19 1.13582E-18
 -1      2881 9.54922E-05-2.84047E-05-2.87481E-05 6.39902E-07-3.66105E-19 1.18043E-18
 -1      2882 9.54123E-05-2.82865E-05-2.87695E-05 7.77733E-07-1.60389E-19 2.83937E-18
 -1      2883 9.53594E-05-2.84551E-05-2.86736E-05 3.63629E-07 5.96402E-19 1.09032E-18
 -1      2884 9.54048E-05-2.84426E-05-2.86952E-05 4.40401E-07 6.20205E-19 1.02241E-18
 -1      2885 9.53594E-05-2.83579E-05-2.87160E-05 5.43686E-07 2.32391E-19 1.76379E-18
 -1      2886 9.53095E-05-2.84836E-05-2.86399E-05 2.36957E-07-2.13475E-21 1.04667E-18
 -1      2887 9.53412E-05-2.84731E-05-2.86556E-05 2.92845E-07 4.17893E-19 1.03180E-18
 -1      2888 9.53190E-05-2.84137E-05-2.86747E-05 3.68777E-07 6.85473E-19 1.34732E-18
 -1      2889 9.52747E-05-2.85060E-05-2.86153E-05 1.45824E-07-2.43396E-18 5.65042E-19
 -1      2890 9.52961E-05-2.84974E-05-2.86265E-05 1.85684E-07-8.15032E-19 6.30891E-19
 -1      2891 9.52892E-05-2.84567E-05-2.86432E-05 2.40328E-07-6.17404E-19 9.27613E-19
 -1      2892 9.52513E-05-2.85235E-05-2.85977E-05 8.17527E-08-1.23774E-18-5.55258E-19
 -1      2893 9.52652E-05-2.85165E-05-2.86054E-05 1.09491E-07-2.17376E-18 8.22787E-20
 -1      2894 9.52677E-05-2.84896E-05-2.86198E-05 1.47846E-07-1.34176E-18-8.80665E-19
 -1      2895 9.52362E-05-2.85370E-05-2.85854E-05 3.79681E-08 3.83714E-19-2.27263E-19
 -1      2896 9.52447E-05-2.85313E-05-2.85906E-05 5.66830E-08-8.58101E-19-6.13125E-19
 -1      2897 9.52527E-05-2.85144E-05-2.86026E-05 8.27920E-08-7.94363E-19-2.20331E-18
 -1      2898 9.52273E-05-2.85472E-05-2.85772E-05 9.13182E-09 1.32771E-19 1.24085E-18
 -1      2899 9.52319E-05-2.85427E-05-2.85805E-05 2.12480E-08 4.41262E-19 4.60044E-19
 -1      2900 9.52426E-05-2.85329E-05-2.85902E-05 3.83216E-08-2.47832E-19-2.09304E-19
 -1      2901 9.52226E-05-2.85549E-05-2.85719E-05-8.90365E-09 3.83761E-19 9.97793E-19
 -1      2902 9.52246E-05-2.85514E-05-2.85739E-05-1.51478E-09 5.89605E-19 1.48143E-18
 -1      2903 9.52362E-05-2.85463E-05-2.85816E-05 9.02981E-09-8.28001E-20-5.34916E-19
 -1      2904 9.52207E-05-2.85605E-05-2.85686E-05-1.93131E-08 7.43187E-19 1.44808E-18
 -1      2905 9.52210E-05-2.85578E-05-2.85697E-05-1.52287E-08 1.16427E-18 2.22655E-18
 -1      2906 9.52324E-05-2.85560E-05-2.85758E-05-9.28945E-09 3.49300E-19 7.97928E-19
 -1      2907 9.52208E-05-2.85646E-05-2.85669E-05-2.44877E-08 6.33902E-19 6.36019E-19
 -1      2908 9.52200E-05-2.85626E-05-2.85673E-05-2.26436E-08 3.75543E-19 1.27204E-18
 -1      2909 9.52305E-05-2.85628E-05-2.85720E-05-1.98591E-08 8.77196E-19 1.80589E-18
 -1      2910 9.52219E-05-2.85675E-05-2.85662E-05-2.61953E-08-1.57869E-19 3.85729E-19
 -1      2911 9.52206E-05-2.85660E-05-2.85662E-05-2.58111E-08 6.79880E-20 3.20770E-19
 -1      2912 9.52298E-05-2.85673E-05-2.85697E-05-2.51079E-08 8.59811E-19 3.79642E-19
 -1      2913 9.52237E-05-2.85695E-05-2.85661E-05-2.57134E-08 4.87426E-19 7.51151E-19
 -1      2914 9.52221E-05-2.85684E-05-2.85658E-05-2.62307E-08-1.83938E-19 1.90125E-19
 -1      2915 9.52299E-05-2.85704E-05-2.85684E-05-2.68311E-08-5.57543E-20-2.97403E-19
 -1      2916 9.52258E-05-2.85709E-05-2.85664E-05-2.39381E-08 1.44805E-18 2.84303E-20
 -1      2917 9.52241E-05-2.85700E-05-2.85660E-05-2.49706E-08 1.12532E-18 1.20623E-18
 -1      2918 9.52305E-05-2.85722E-05-2.85679E-05-2.63257E-08 1.40172E-19-7.00303E-19
 -1      2919 9.52280E-05-2.85718E-05-2.85669E-05-2.14713E-08-1.54937E-19-7.47355E-19
 -1      2920 9.52263E-05-2.85712E-05-2.85665E-05-2.27650E-08 5.52467E-19-3.95512E-19
 -1      2921 9.52314E-05-2.85734E-05-2.85678E-05-2.44999E-08 1.16820E-18-2.12314E-20
 -1      2922 9.52300E-05-2.85725E-05-2.85675E-05-1.86904E-08 6.73138E-20-5.18525E-19
 -1      2923 9.52285E-05-2.85720E-05-2.85671E-05-2.00923E-08-1.29335E-19-1.27458E-18
 -1      2924 9.52324E-05-2.85740E-05-2.85679E-05-2.19632E-08 1.07825E-20-2.39323E-19
 -1      2925 9.52320E-05-2.85730E-05-2.85681E-05-1.57997E-08-8.84113E-19 4.93973E-19
 -1      2926 9.52306E-05-2.85726E-05-2.85677E-05-1.72338E-08-7.89074E-19-2.69673E-19
 -1      2927 9.52335E-05-2.85744E-05-2.85682E-05-1.90974E-08-7.74201E-19-1.07287E-18
 -1      2928 9.52337E-05-2.85736E-05-2.85686E-05-1.28763E-08 2.68495E-19 2.04035E-18
 -1      2929 9.52325E-05-2.85732E-05-2.85683E-05-1.43141E-08-3.88604E-19 1.30244E-18
 -1      2930 9.52346E-05-2.85747E-05-2.85685E-05-1.61109E-08-1.28731E-18-1.23223E-18
 -1      2931 9.52355E-05-2.85745E-05-2.85690E-05-1.04172E-08-8.84207E-19 3.63483E-18
 -1      2932 9.52344E-05-2.85741E-05-2.85688E-05-1.19047E-08-4.50164E-19 2.98558E-18
 -1      2933 9.52359E-05-2.85753E-05-2.85688E-05-1.35192E-08-4.27069E-19 5.04641E-19
 -1      2934 9.52372E-05-2.85762E-05-2.85689E-05-1.13439E-08-1.54011E-18 1.12093E-18
 -1      2935 9.52464E-05-2.85855E-05-2.85689E-05-1.00705E-09 1.17149E-18-4.13708E-18
 -1      2936 9.52462E-05-2.85853E-05-2.85690E-05-2.84434E-09 1.89333E-18-5.09484E-18
 -1      2937 9.52357E-05-2.85751E-05-2.85689E-05 1.19610E-08-1.80745E-18 6.95180E-19
 -1      2938 9.52363E-05-2.85753E-05-2.85690E-05 1.09125E-08-2.24707E-18 4.61122E-19
 -1      2939 9.52371E-05-2.85763E-05-2.85689E-05 1.33010E-08-9.25687E-19-1.69833E-18
 -1      2940 9.52444E-05-2.85835E-05-2.85689E-05-8.14439E-09 9.52465E-19-2.46981E-19
 -1      2941 9.52434E-05-2.85825E-05-2.85690E-05-9.37437E-09 2.09951E-18 9.04703E-19
 -1      2942 9.52462E-05-2.85853E-05-2.85690E-05 2.93462E-09-6.39044E-19-2.43490E-18
 -1      2943 9.52464E-05-2.85855E-05-2.85689E-05 1.10038E-09 5.29703E-19-3.60675E-18
 -1      2944 9.52476E-05-2.85856E-05-2.85694E-05 5.37884E-11 7.54578E-19-4.76057E-18
 -1      2945 9.52458E-05-2.85849E-05-2.85689E-05-4.84351E-09 6.88645E-19-4.34166E-18
 -1      2946 9.52452E-05-2.85843E-05-2.85690E-05-6.47626E-09 7.00404E-19-2.06421E-18
 -1      2947 9.52457E-05-2.85840E-05-2.85694E-05-8.02463E-09 2.85509E-19-1.30786E-18
 -1      2948 9.52472E-05-2.85852E-05-2.85694E-05-4.21010E-09 1.04558E-18-4.23507E-18
 -1      2949 1.22006E-04-4.58902E-05-3.27189E-05-5.65629E-07-2.70250E-19 1.31455E-18
 -1      2950 1.19403E-04-4.32583E-05-3.24626E-05-3.25488E-06-1.48075E-19 1.31942E-18
 -1      2951 1.24032E-04-4.93119E-05-3.21918E-05-2.49446E-06-5.63649E-19 8.33652E-19
 -1      2952 9.52452E-05-2.85843E-05-2.85690E-05 6.49200E-09-7.83240E-20-1.67285E-18
 -1      2953 9.52458E-05-2.85849E-05-2.85689E-05 4.89350E-09-7.36264E-19-1.46514E-18
 -1      2954 9.52471E-05-2.85852E-05-2.85694E-05 4.27521E-09-3.90448E-21-2.70953E-18
 -1      2955 9.52434E-05-2.85825E-05-2.85690E-05 9.38080E-09 1.01764E-18 1.31669E-18
 -1      2956 9.52444E-05-2.85835E-05-2.85689E-05 8.15484E-09 8.25591E-19-7.41650E-20
 -1      2957 9.52457E-05-2.85839E-05-2.85694E-05 8.04166E-09 2.54559E-19 6.27919E-20
 -1      2958 9.52410E-05-2.85801E-05-2.85690E-05 1.11449E-08 9.55980E-20 2.87797E-18
 -1      2959 9.52423E-05-2.85813E-05-2.85689E-05 1.05154E-08 8.66998E-19 2.49283E-18
 -1      2960 9.52435E-05-2.85819E-05-2.85692E-05 1.09591E-08 2.34667E-19 1.80535E-18
 -1      2961 5.87773E-05-2.97137E-05-1.18880E-05-3.67781E-05 2.89505E-18 3.33646E-18
 -1      2962 7.46087E-05-3.86409E-05-1.54093E-05-4.05953E-05 3.39226E-18 1.35472E-18
 -1      2963 5.49925E-05-2.40122E-05-1.30847E-05 3.74002E-05 1.52561E-18-2.36290E-18
 -1      2964 4.19234E-05-1.57501E-05-1.05509E-05 2.94486E-05 1.52540E-18-2.61797E-18
 -1      2965 1.16763E-04-5.83122E-05-2.50644E-05 2.77034E-05-8.76256E-19-6.14999E-19
 -1      2966 1.04133E-04-5.35524E-05-2.14536E-05 3.27069E-05-1.42460E-18-3.09061E-19
 -1      2967 1.38821E-04-2.52018E-05-4.94267E-05-1.37904E-05 4.07084E-18-1.04926E-19
 -1      2968 1.41796E-04-3.19840E-05-4.74446E-05-1.54009E-05 3.93436E-18-5.64336E-19
 -1      2969 1.36730E-04-5.29223E-05-3.60095E-05-4.79995E-06 7.81474E-19-2.22950E-18
 -1      2970 1.38435E-04-4.83328E-05-3.91623E-05 4.56112E-07 1.47331E-19-2.43818E-18
 -1      2971 1.16588E-04-5.26702E-05-2.75162E-05 2.54165E-05 5.53748E-19-1.27326E-19
 -1      2972 1.01277E-04-4.73443E-05-2.27034E-05 3.39314E-05 1.17791E-18-8.34784E-19
 -1      2973 1.05359E-04-2.82265E-05-3.30924E-05-5.71817E-06-6.81560E-19-1.53736E-18
 -1      2974 1.06608E-04-3.05505E-05-3.26268E-05-5.15595E-06-6.99864E-19-1.36442E-18
 -1      2975 1.03530E-04-2.69469E-05-3.28072E-05-4.77233E-06-3.79062E-19-1.60267E-18
 -1      2976 1.07933E-04-3.23512E-05-3.23750E-05-5.03126E-06-5.78582E-19-1.19753E-18
 -1      2977 1.08561E-04-3.39191E-05-3.20422E-05-4.97161E-06-4.68326E-19-1.04411E-18
 -1      2978 1.09435E-04-3.51096E-05-3.18971E-05-4.58637E-06-2.92380E-19-9.28061E-19
 -1      2979 1.06893E-04-3.16984E-05-3.22008E-05-4.32103E-06-3.80392E-19-1.17110E-18
 -1      2980 1.22526E-04-5.76458E-05-2.75522E-05-2.30800E-05 2.15480E-18-1.16044E-18
 -1      2981 1.31896E-04-5.71204E-05-3.23780E-05-1.45642E-05 1.29141E-18-1.75500E-18
 -1      2982 1.31854E-04-5.47478E-05-3.29563E-05-6.83361E-06 1.45155E-18-2.28090E-18
 -1      2983 9.52375E-05-2.85765E-05-2.85690E-05 1.12436E-08-1.79091E-18-1.84548E-20
 -1      2984 1.15103E-04-3.96465E-05-3.23980E-05-4.67896E-06 2.47535E-19 1.11609E-18
 -1      2985 1.12789E-04-3.65741E-05-3.25242E-05-5.53623E-06 4.86794E-19 1.03849E-18
 -1      2986 1.07330E-04-3.37052E-05-3.16558E-05-7.03018E-06 7.41715E-19 4.65908E-19
 -1      2987 1.14442E-04-4.17937E-05-3.12942E-05-7.06777E-06-2.58246E-20 4.89168E-19
 -1      2988 7.02478E-05-6.01247E-06-2.74642E-05-3.61304E-06 1.86733E-18-1.57229E-18
 -1      2989 6.61662E-05-3.85182E-06-2.67797E-05-2.10280E-06 1.82029E-18-1.72380E-18
 -1      2990 7.30880E-05-9.77852E-06-2.70889E-05-6.54018E-06 1.62675E-18-1.44973E-18
 -1      2991 1.41173E-04-5.35767E-05-3.75390E-05 4.42818E-06-4.03505E-19 9.12043E-19
 -1      2992 1.42279E-04-4.70299E-05-4.14944E-05 1.12186E-05 1.98894E-19 1.56913E-18
 -1      2993 8.67837E-05-1.78820E-05-2.95573E-05 7.09078E-06 1.06660E-18-1.93205E-18
 -1      2994 9.08924E-05-2.01472E-05-3.02945E-05 5.03121E-06 7.86719E-19-1.88737E-18
 -1      2995 1.26913E-04-8.98177E-06-5.11610E-05 2.98088E-06-3.60349E-18-1.24011E-18
 -1      2996 1.25470E-04-8.64056E-06-5.07819E-05-2.45920E-06-3.76866E-18-9.96746E-19
 -1      2997 3.87151E-05-1.58077E-05-9.26338E-06-2.08089E-05 1.39395E-18 4.51151E-18
 -1      2998 4.73215E-05-2.24124E-05-1.02823E-05-3.14639E-05 2.10001E-18 4.63369E-18
 -1      2999 5.95114E-05-2.56848E-05-1.38993E-05-3.15514E-05 2.66937E-18 3.06224E-18
 -1      3000 3.27696E-05-1.23811E-05-8.02891E-06 6.10875E-06-4.60495E-19 2.95360E-18
 -1      3001 3.33344E-05-1.17826E-05-8.77811E-06-7.13326E-06-1.28405E-19 3.85760E-18
 -1      3002 3.25079E-05-8.10307E-06-9.89794E-06-9.86715E-06 5.77994E-19-3.43684E-18
 -1      3003 4.04515E-05-1.30947E-05-1.13009E-05-2.07399E-05 1.60089E-19-3.29517E-18
 -1      3004 8.55443E-05-4.07661E-05-1.92191E-05 3.95892E-05 1.34488E-18-1.62556E-18
 -1      3005 7.11971E-05-3.27383E-05-1.59321E-05 3.91980E-05 1.68200E-18-2.07460E-18
 -1      3006 6.68986E-05-2.72533E-05-1.65532E-05 3.58105E-05 1.84706E-18-2.12425E-18
 -1      3007 9.64618E-05-4.31068E-05-2.25390E-05 3.29473E-05 1.55949E-18-9.99102E-19
 -1      3008 1.26915E-04-5.86106E-05-2.89198E-05-1.84152E-05-1.29379E-18-4.84609E-19
 -1      3009 1.37426E-04-5.95223E-05-3.38920E-05-8.90778E-06-7.46130E-19 5.70159E-20
 -1      3010 1.36979E-04-3.29326E-05-4.52215E-05-9.55931E-06-2.83078E-18 1.71948E-19
 -1      3011 1.39450E-04-4.23642E-05-4.16668E-05-3.81772E-06-2.06507E-18 3.07791E-19
 -1      3012 9.37564E-05-4.57760E-05-1.99885E-05-3.37621E-05-1.34848E-18-2.10731E-18
 -1      3013 1.11063E-04-5.44358E-05-2.45778E-05-2.94230E-05-1.37664E-18-1.24559E-18
 -1      3014 1.30842E-04-1.84836E-05-4.85800E-05 1.07208E-05-2.46465E-18-2.17380E-18
 -1      3015 1.28677E-04-1.24059E-05-5.05815E-05 6.96965E-06-3.00803E-18-1.47932E-18
 -1      3016 1.20557E-04-1.21911E-05-4.67658E-05 5.76229E-06-2.80061E-18-1.73684E-18
 -1      3017 9.38590E-05-4.76179E-05-1.92842E-05-3.75389E-05 3.29390E-18 8.78770E-19
 -1      3018 1.09254E-04-5.45531E-05-2.36826E-05-3.28588E-05 2.84804E-18 2.63004E-19
 -1      3019 1.38049E-04-3.92732E-05-4.25996E-05 6.86805E-06-6.17064E-19-2.69621E-18
 -1      3020 1.35527E-04-2.87448E-05-4.65350E-05 1.02704E-05-1.75759E-18-2.75159E-18
 -1      3021 1.04113E-04-2.58153E-05-3.35704E-05-1.93349E-06 1.58713E-18 1.07607E-18
 -1      3022 9.45078E-05-2.21286E-05-3.10238E-05 2.38447E-06 5.74548E-19-1.93202E-18
 -1      3023 9.76915E-05-2.38456E-05-3.16661E-05 1.34211E-07 2.95218E-19-2.03891E-18
 -1      3024 9.50355E-05-2.44835E-05-3.02843E-05 4.85174E-06 6.81517E-19-1.71646E-18
 -1      3025 6.64609E-05-6.45658E-06-2.56702E-05 1.09128E-05 1.63054E-18-2.00519E-18
 -1      3026 6.84230E-05-6.28156E-06-2.67276E-05 1.00844E-05 1.65440E-18-2.04289E-18
 -1      3027 7.25329E-05-8.63304E-06-2.72655E-05 1.04278E-05 1.50556E-18-2.02813E-18
 -1      3028 4.19672E-05-1.44947E-05-1.11886E-05 1.23021E-05-8.71491E-19 2.11218E-18
 -1      3029 1.32252E-04-2.37444E-05-4.69951E-05 1.47456E-05 2.26306E-18 2.25035E-18
 -1      3030 1.25587E-04-2.69448E-05-4.24647E-05 1.52337E-05 1.88274E-18 2.05961E-18
 -1      3031 1.28713E-04-3.48348E-05-4.08422E-05 1.79796E-05 1.04418E-18 2.33876E-18
 -1      3032 1.37927E-04-2.86685E-05-4.76338E-05 1.52578E-05 2.09937E-18 2.32786E-18
 -1      3033 1.22812E-04-1.17818E-05-4.80560E-05-5.20178E-06-3.44901E-18-6.91391E-19
 -1      3034 4.16045E-05-1.16975E-05-1.21905E-05 2.30671E-05 1.60269E-18-2.73846E-18
 -1      3035 1.42760E-04-5.62307E-05-3.71622E-05 3.09900E-08 1.68115E-18-1.87258E-18
 -1      3036 1.35755E-04-4.08957E-05-4.08096E-05 1.63005E-05 6.38769E-19 2.15909E-18
 -1      3037 1.40060E-04-3.63810E-05-4.47391E-05 1.53415E-05 1.11702E-18 2.16650E-18
 -1      3038 9.58811E-05-4.89586E-05-1.98626E-05 3.49333E-05-1.71948E-18 1.33355E-19
 -1      3039 8.58935E-05-4.19605E-05-1.84680E-05 3.45206E-05-2.01181E-18 6.86997E-19
 -1      3040 1.04529E-04-5.05869E-05-2.28644E-05 2.89682E-05-1.88565E-18-1.73986E-19
 -1      3041 1.34758E-04-4.30907E-05-3.93706E-05 7.17247E-06 4.99220E-20-3.12015E-18
 -1      3042 1.27944E-04-2.46579E-05-4.44799E-05 1.21322E-05-1.49491E-18-2.44867E-18
 -1      3043 9.52435E-05-2.85820E-05-2.85692E-05-1.09461E-08 1.56432E-18 2.48168E-19
 -1      3044 9.52423E-05-2.85814E-05-2.85689E-05-1.05089E-08 2.12270E-18 1.46434E-20
 -1      3045 9.52411E-05-2.85801E-05-2.85690E-05-1.11579E-08 4.13420E-19-1.14167E-18
 -1      3046 8.70420E-05-3.97493E-05-1.97904E-05-3.22650E-05-1.19696E-18-2.18810E-18
 -1      3047 1.35508E-04-4.57860E-05-3.86043E-05-1.39993E-05 1.74399E-18-1.23243E-18
 -1      3048 9.52399E-05-2.85789E-05-2.85689E-05-1.15321E-08-9.76769E-19-1.33765E-18
 -1      3049 9.52385E-05-2.85775E-05-2.85690E-05-1.15080E-08-1.28916E-18-6.53515E-19
 -1      3050 9.52379E-05-2.85771E-05-2.85690E-05-1.26914E-08-9.58340E-19-4.35651E-19
 -1      3051 9.52408E-05-2.85796E-05-2.85691E-05-1.24943E-08 4.84181E-19-5.09148E-19
 -1      3052 1.19913E-04-5.52921E-05-2.74703E-05-2.02074E-05-1.46579E-18-5.50360E-19
 -1      3053 3.35132E-05-6.04211E-06-1.11507E-05-2.40191E-06 1.00242E-18-3.28649E-18
 -1      3054 4.07402E-05-6.32903E-06-1.43324E-05-6.47518E-06 8.67755E-19-2.94280E-18
 -1      3055 3.61192E-05-4.78456E-06-1.31481E-05 6.33833E-06 1.42924E-18-2.81840E-18
 -1      3056 6.39084E-05-3.96595E-06-2.55906E-05-1.56230E-06 1.66732E-18-1.81796E-18
 -1      3057 8.74478E-05-4.21113E-05-1.89978E-05-3.59302E-05 3.29326E-18 1.20850E-18
 -1      3058 4.26110E-05-1.38541E-05-1.17682E-05-1.26345E-05 6.10975E-19 3.44149E-18
 -1      3059 9.52388E-05-2.85780E-05-2.85689E-05 1.13062E-08-3.15552E-19-1.43759E-20
 -1      3060 5.11439E-05-1.76546E-05-1.37336E-05-2.50177E-05-9.14796E-20-3.15308E-18
 -1      3061 6.26019E-05-2.32532E-05-1.68841E-05-2.81155E-05-4.20022E-19-2.68234E-18
 -1      3062 4.97696E-05-1.28279E-05-1.54514E-05-1.91536E-05 3.37728E-19-2.86763E-18
 -1      3063 1.22981E-04-5.40753E-05-2.94255E-05 1.93409E-05 3.57871E-19 6.55921E-20
 -1      3064 1.14267E-04-5.02185E-05-2.73850E-05 2.22705E-05 9.11143E-19-2.50973E-19
 -1      3065 1.26201E-04-5.30335E-05-3.15174E-05 1.18686E-05 2.00535E-19 1.30099E-19
 -1      3066 1.33672E-04-2.15997E-05-4.85751E-05-1.26751E-05 3.79238E-18 6.20240E-19
 -1      3067 1.40474E-04-3.78994E-05-4.43050E-05-1.44401E-05 3.45738E-18-8.44492E-19
 -1      3068 1.24516E-04-5.97657E-05-2.75455E-05 2.08456E-05-6.35910E-19-7.92399E-19
 -1      3069 1.19620E-04-5.69962E-05-2.66505E-05 2.15612E-05-1.36563E-18-4.12373E-19
 -1      3070 1.30412E-04-6.05681E-05-3.04328E-05 1.32625E-05-1.71895E-19-1.18796E-18
 -1      3071 1.36725E-04-5.49518E-05-3.50905E-05 1.45039E-06-6.85025E-19 9.20195E-19
 -1      3072 1.16332E-04-5.50293E-05-2.60678E-05-2.45177E-05 2.79378E-18-6.76581E-19
 -1      3073 6.02258E-05-2.88530E-05-1.29053E-05 3.15883E-05-1.56881E-18 1.05678E-18
 -1      3074 9.52386E-05-2.85775E-05-2.85690E-05 1.29131E-08-8.09131E-19-1.54789E-18
 -1      3075 9.52400E-05-2.85791E-05-2.85690E-05 1.19296E-08-3.90395E-19 1.30732E-18
 -1      3076 9.52410E-05-2.85797E-05-2.85691E-05 1.28285E-08-2.74964E-19 1.89830E-18
 -1      3077 9.52384E-05-2.85774E-05-2.85690E-05 1.39441E-08-1.09881E-18-1.97392E-18
 -1      3078 1.33202E-04-1.45177E-05-5.12933E-05 1.72803E-06 3.51032E-18 1.56325E-18
 -1      3079 7.74376E-05-1.22730E-05-2.80134E-05 1.02353E-05 1.42482E-18-1.91687E-18
 -1      3080 8.21272E-05-1.49172E-05-2.87280E-05 9.10483E-06 1.22582E-18-2.00463E-18
 -1      3081 8.64118E-05-1.96099E-05-2.86777E-05 9.84361E-06 1.13745E-18-1.79968E-18
 -1      3082 1.26496E-04-2.19186E-05-4.52398E-05-1.30915E-05-3.09951E-18 2.68139E-19
 -1      3083 1.33394E-04-2.79125E-05-4.55839E-05-1.22539E-05-2.96472E-18 2.51886E-19
 -1      3084 1.30684E-04-3.29729E-05-4.19704E-05-1.22205E-05-2.30425E-18 7.07855E-19
 -1      3085 1.35710E-04-4.73774E-05-3.80209E-05-1.17023E-06-1.30107E-18 3.50460E-19
 -1      3086 1.00183E-04-2.47639E-05-3.23734E-05-3.90264E-06 1.51860E-18 3.91501E-19
 -1      3087 9.88096E-05-2.59456E-05-3.12321E-05-6.56202E-06 1.35168E-18 1.12580E-19
 -1      3088 1.01206E-04-2.95774E-05-3.06009E-05-8.85439E-06 9.27478E-19-3.17869E-20
 -1      3089 9.47441E-05-2.53444E-05-2.97180E-05-9.65464E-06 1.20461E-18-4.21028E-19
 -1      3090 1.04284E-04-3.37449E-05-3.01993E-05-1.00503E-05 5.61103E-19-1.00694E-19
 -1      3091 8.76767E-05-2.13964E-05-2.84693E-05-1.03655E-05 1.22080E-18-9.37957E-19
 -1      3092 7.57079E-05-1.35805E-05-2.64716E-05-1.03590E-05 1.31523E-18-1.44102E-18
 -1      3093 6.87378E-05-9.67138E-06-2.54308E-05-8.52505E-06 1.35475E-18-1.68444E-18
 -1      3094 1.15672E-04-1.12153E-05-4.51445E-05-3.68243E-06-3.24276E-18-8.04972E-19
 -1      3095 1.20466E-04-1.53177E-05-4.55367E-05-9.90724E-06-3.20454E-18-2.65757E-19
 -1      3096 4.91112E-05-1.67213E-05-1.33560E-05 1.93149E-05-1.36772E-18 5.45066E-19
 -1      3097 4.51556E-05-1.28722E-05-1.35970E-05 8.35188E-06-1.06532E-18 1.87491E-18
 -1      3098 7.93758E-05-3.22457E-05-1.95626E-05-2.99112E-05-8.88485E-19-2.31955E-18
 -1      3099 9.55332E-05-4.25553E-05-2.29765E-05-2.86170E-05-1.12025E-18-1.51698E-18
 -1      3100 1.15327E-04-3.93961E-05-3.25237E-05-7.49248E-06-2.07192E-19-4.85264E-19
 -1      3101 1.15389E-04-3.84405E-05-3.30604E-05-8.98169E-06-3.72688E-19-3.49581E-19
 -1      3102 1.15984E-04-3.64548E-05-3.41146E-05-1.15844E-05-7.71647E-19-1.04992E-19
 -1      3103 1.14497E-04-3.30597E-05-3.49160E-05-1.21031E-05-1.22570E-18-2.85711E-19
 -1      3104 1.18546E-04-3.93305E-05-3.40604E-05-9.83471E-06-5.01695E-19-1.04873E-19
 -1      3105 1.13039E-04-2.89391E-05-3.61960E-05-1.25990E-05-1.58257E-18-1.87353E-19
 -1      3106 1.10732E-04-2.45312E-05-3.69374E-05-1.09445E-05-1.87941E-18-4.26547E-19
 -1      3107 1.17166E-04-3.17588E-05-3.67438E-05-1.31991E-05-1.40155E-18 1.50448E-19
 -1      3108 1.10202E-04-1.95831E-05-3.90428E-05-8.29807E-06-2.08502E-18-7.06803E-19
 -1      3109 1.08691E-04-1.68831E-05-3.94995E-05-4.33412E-06-2.06043E-18-8.68918E-19
 -1      3110 1.09466E-04-2.25802E-05-3.72111E-05 9.77862E-06-1.81493E-18-1.61700E-18
 -1      3111 1.11388E-04-2.69813E-05-3.64087E-05 1.18553E-05-9.41206E-19-2.02231E-18
 -1      3112 1.13345E-04-3.16322E-05-3.50178E-05 1.21851E-05-3.31084E-19-2.02466E-18
 -1      3113 1.14895E-04-3.57699E-05-3.40478E-05 1.17198E-05-1.94023E-20-2.17320E-18
 -1      3114 1.15695E-04-2.98015E-05-3.69620E-05 1.29582E-05-7.19052E-19-2.51254E-18
 -1      3115 1.15138E-04-3.88215E-05-3.27300E-05 9.13976E-06 1.07940E-19-2.06670E-18
 -1      3116 1.15277E-04-4.08488E-05-3.19239E-05 7.10630E-06 2.80855E-19-2.20790E-18
 -1      3117 1.18269E-04-3.93981E-05-3.37960E-05 9.96664E-06-1.26195E-20-2.46275E-18
 -1      3118 1.13632E-04-4.13992E-05-3.10031E-05 4.07548E-06 3.45899E-19-2.20689E-18
 -1      3119 1.12634E-04-4.14240E-05-3.04704E-05 1.82119E-06 2.86471E-19-2.08303E-18
 -1      3120 1.16422E-04-4.31191E-05-3.14436E-05 4.11996E-06 1.80838E-19-2.66891E-18
 -1      3121 1.10171E-04-4.03905E-05-2.99489E-05-5.42881E-07 3.22465E-19-1.73821E-18
 -1      3122 1.08630E-04-3.92844E-05-2.96549E-05-2.30499E-06 1.70420E-20-1.87036E-18
 -1      3123 1.12155E-04-4.24200E-05-2.99248E-05-1.38573E-06 3.49760E-19-2.44329E-18
 -1      3124 1.06246E-04-3.76749E-05-2.94142E-05-3.70469E-06-1.73686E-19-1.16547E-18
 -1      3125 1.04672E-04-3.62319E-05-2.92769E-05-4.82685E-06-8.36296E-20-7.72262E-19
 -1      3126 1.07215E-04-3.93274E-05-2.91527E-05-4.91062E-06 3.81602E-19-1.53760E-18
 -1      3127 1.02767E-04-3.46667E-05-2.91981E-05-5.46214E-06-2.01581E-19-7.33665E-19
 -1      3128 1.01428E-04-3.33303E-05-2.91461E-05-6.03504E-06-2.30754E-19-8.73262E-19
 -1      3129 1.02925E-04-3.57407E-05-2.88488E-05-6.66705E-06 1.38760E-19-8.11637E-19
 -1      3130 1.00076E-04-3.20770E-05-2.91444E-05-6.16073E-06-2.62373E-19-3.91265E-19
 -1      3131 9.90547E-05-3.10321E-05-2.91278E-05-6.33706E-06-1.10399E-19-6.33066E-19
 -1      3132 9.96986E-05-3.26143E-05-2.87921E-05-7.19824E-06 1.35985E-19-4.39049E-19
 -1      3133 9.81746E-05-3.01448E-05-2.91525E-05-6.16938E-06-1.27959E-19-1.80423E-19
 -1      3134 9.74461E-05-2.94125E-05-2.91432E-05-6.08756E-06-4.78804E-20-5.98541E-19
 -1      3135 9.75066E-05-3.02806E-05-2.88392E-05-6.99661E-06 9.36896E-20 6.51620E-20
 -1      3136 9.69181E-05-2.88470E-05-2.91680E-05-5.76697E-06 2.75324E-19-6.42924E-19
 -1      3137 9.64203E-05-2.83805E-05-2.91533E-05-5.53274E-06 2.89087E-19-3.83329E-19
 -1      3138 9.61318E-05-2.87146E-05-2.89105E-05-6.40683E-06 1.71290E-19 2.30663E-19
 -1      3139 9.61328E-05-2.80619E-05-2.91671E-05-5.14659E-06-1.36674E-19-1.87837E-19
 -1      3140 9.58018E-05-2.77960E-05-2.91435E-05-4.83501E-06-8.76678E-20-4.44399E-19
 -1      3141 9.53395E-05-2.77716E-05-2.89678E-05-5.63933E-06 1.67381E-19 6.63010E-19
 -1      3142 9.56679E-05-2.76506E-05-2.91441E-05-4.43594E-06 3.33505E-19-6.87900E-19
 -1      3143 9.54512E-05-2.75241E-05-2.91126E-05-4.09785E-06 7.65811E-19-7.20780E-19
 -1      3144 9.49328E-05-2.72841E-05-2.89978E-05-4.81921E-06-1.22720E-19-1.81095E-19
 -1      3145 9.54090E-05-2.74910E-05-2.91018E-05-3.71677E-06 5.38459E-19-1.29490E-18
 -1      3146 9.52681E-05-2.74547E-05-2.90653E-05-3.38492E-06 8.66695E-20-1.57979E-18
 -1      3147 9.47651E-05-2.71043E-05-2.90001E-05-4.01949E-06 8.21353E-20-1.33993E-18
 -1      3148 9.52761E-05-2.74884E-05-2.90465E-05-3.03893E-06-4.46038E-19-2.15769E-18
 -1      3149 9.51843E-05-2.75059E-05-2.90081E-05-2.73288E-06-9.01595E-19-2.77252E-18
 -1      3150 9.47352E-05-2.71171E-05-2.89803E-05-3.28139E-06-4.51864E-19-1.80692E-18
 -1      3151 9.52165E-05-2.75747E-05-2.89845E-05-2.43013E-06-4.70295E-19-2.83560E-18
 -1      3152 9.51562E-05-2.76209E-05-2.89468E-05-2.16010E-06-1.89211E-19-3.15553E-18
 -1      3153 9.47775E-05-2.72392E-05-2.89453E-05-2.62611E-06-9.15812E-19-2.64807E-18
 -1      3154 9.51968E-05-2.77038E-05-2.89213E-05-1.90289E-06-2.31729E-19-2.77810E-18
 -1      3155 9.51566E-05-2.77623E-05-2.88862E-05-1.67268E-06 1.22908E-19-3.46255E-18
 -1      3156 9.48510E-05-2.74136E-05-2.89017E-05-2.06182E-06-1.98606E-19-2.93491E-18
 -1      3157 9.51970E-05-2.78464E-05-2.88609E-05-1.45956E-06-1.72357E-19-3.51999E-18
 -1      3158 9.51697E-05-2.79069E-05-2.88295E-05-1.26879E-06-2.30799E-19-3.60113E-18
 -1      3159 9.49322E-05-2.76039E-05-2.88548E-05-1.58822E-06 1.72446E-19-3.09025E-18
 -1      3160 9.52056E-05-2.79850E-05-2.88057E-05-1.09613E-06-1.66469E-19-4.28611E-18
 -1      3161 9.51868E-05-2.80418E-05-2.87786E-05-9.41901E-07-6.85026E-19-4.44769E-18
 -1      3162 9.50084E-05-2.77881E-05-2.88085E-05-1.19965E-06-3.73329E-19-3.51613E-18
 -1      3163 9.52164E-05-2.81101E-05-2.87573E-05-8.04891E-07-1.25074E-19-4.06941E-18
 -1      3164 9.52032E-05-2.81603E-05-2.87344E-05-6.82981E-07 1.01618E-19-3.35906E-18
 -1      3165 9.50739E-05-2.79544E-05-2.87654E-05-8.87437E-07-2.24985E-19-2.86070E-18
 -1      3166 9.52264E-05-2.82177E-05-2.87159E-05-5.76408E-07-4.07171E-19-3.40306E-18
 -1      3167 9.52170E-05-2.82602E-05-2.86971E-05-4.82088E-07-2.88607E-19-3.65263E-18
 -1      3168 9.51267E-05-2.80974E-05-2.87268E-05-6.41488E-07 1.24779E-19-2.45821E-18
 -1      3169 9.52344E-05-2.83069E-05-2.86816E-05-4.00822E-07-2.42950E-19-3.27111E-18
 -1      3170 9.52276E-05-2.83416E-05-2.86665E-05-3.29380E-07-7.33434E-20-3.26207E-18
 -1      3171 9.51675E-05-2.82161E-05-2.86934E-05-4.51467E-07-1.56764E-20-2.76959E-18
 -1      3172 9.52401E-05-2.83786E-05-2.86537E-05-2.68670E-07 3.28358E-19-3.45465E-18
 -1      3173 9.52351E-05-2.84062E-05-2.86418E-05-2.15734E-07 3.62364E-19-3.61610E-18
 -1      3174 9.51975E-05-2.83117E-05-2.86654E-05-3.07513E-07-3.76126E-20-3.18381E-18
 -1      3175 9.52437E-05-2.84347E-05-2.86314E-05-1.71369E-07 2.92293E-19-3.34829E-18
 -1      3176 9.52401E-05-2.84562E-05-2.86223E-05-1.33068E-07-5.93585E-19-2.85501E-18
 -1      3177 9.52188E-05-2.83868E-05-2.86424E-05-2.00686E-07 7.40933E-19-3.38697E-18
 -1      3178 9.52457E-05-2.84777E-05-2.86141E-05-1.01439E-07-6.92211E-19-2.24605E-18
 -1      3179 9.52431E-05-2.84939E-05-2.86072E-05-7.44655E-08-1.78738E-19-2.00825E-18
 -1      3180 9.52331E-05-2.84443E-05-2.86239E-05-1.23173E-07-6.00631E-20-2.81110E-18
 -1      3181 9.52464E-05-2.85097E-05-2.86009E-05-5.25638E-08-5.71366E-20-1.06350E-18
 -1      3182 9.52446E-05-2.85218E-05-2.85958E-05-3.41776E-08-1.48760E-19-8.45880E-19
 -1      3183 9.52421E-05-2.84874E-05-2.86093E-05-6.83553E-08 5.12635E-19-1.87552E-18
 -1      3184 9.52463E-05-2.85331E-05-2.85910E-05-1.95542E-08-3.01237E-19-2.38683E-19
 -1      3185 9.52450E-05-2.85417E-05-2.85873E-05-7.53640E-09-1.77515E-19-4.63679E-21
 -1      3186 9.52473E-05-2.85188E-05-2.85980E-05-3.07616E-08 3.62672E-19-3.81756E-19
 -1      3187 9.52456E-05-2.85496E-05-2.85837E-05 1.75946E-09-4.67532E-19 1.03161E-18
 -1      3188 9.52448E-05-2.85557E-05-2.85811E-05 9.16372E-09-4.41282E-19 3.23514E-19
 -1      3189 9.52498E-05-2.85411E-05-2.85895E-05-5.97271E-09 1.67928E-19-1.14025E-19
 -1      3190 9.52447E-05-2.85609E-05-2.85786E-05 1.46543E-08 1.15569E-20 7.36862E-19
 -1      3191 9.52441E-05-2.85651E-05-2.85768E-05 1.88040E-08 9.93349E-19 1.65968E-18
 -1      3192 9.52504E-05-2.85565E-05-2.85832E-05 9.50763E-09-8.94937E-20 1.31735E-18
 -1      3193 9.52436E-05-2.85684E-05-2.85750E-05 2.16532E-08 1.18614E-18 1.07059E-18
 -1      3194 9.52432E-05-2.85711E-05-2.85738E-05 2.35777E-08 8.56483E-19 1.43389E-18
 -1      3195 9.52499E-05-2.85667E-05-2.85786E-05 1.83902E-08 1.13970E-18 1.37485E-18
 -1      3196 9.52425E-05-2.85730E-05-2.85726E-05 2.46562E-08 5.15330E-19 2.23939E-18
 -1      3197 9.52423E-05-2.85747E-05-2.85718E-05 2.51174E-08-1.06836E-19 2.81851E-18
 -1      3198 9.52487E-05-2.85731E-05-2.85753E-05 2.27337E-08 1.04356E-18 1.26774E-18
 -1      3199 9.52414E-05-2.85757E-05-2.85710E-05 2.50608E-08-8.76493E-19 3.73342E-18
 -1      3200 9.52414E-05-2.85766E-05-2.85706E-05 2.46067E-08-6.19665E-19 2.82721E-18
 -1      3201 9.52472E-05-2.85768E-05-2.85731E-05 2.40668E-08-4.69925E-19 2.19258E-18
 -1      3202 9.52405E-05-2.85770E-05-2.85700E-05 2.38651E-08-2.59845E-19 2.60451E-18
 -1      3203 9.52405E-05-2.85775E-05-2.85699E-05 2.28763E-08 9.63395E-20 3.18068E-18
 -1      3204 9.52456E-05-2.85787E-05-2.85716E-05 2.34957E-08-3.17096E-19 2.75102E-18
 -1      3205 9.52398E-05-2.85776E-05-2.85695E-05 2.17557E-08-1.61475E-19 3.32373E-18
 -1      3206 9.52398E-05-2.85778E-05-2.85694E-05 2.04831E-08 8.60423E-19 2.21406E-18
 -1      3207 9.52440E-05-2.85794E-05-2.85706E-05 2.17943E-08 5.15175E-19 2.79350E-18
 -1      3208 9.52392E-05-2.85776E-05-2.85692E-05 1.91836E-08 1.44064E-18 1.82762E-18
 -1      3209 9.52393E-05-2.85777E-05-2.85692E-05 1.77759E-08 1.23558E-18 1.43889E-18
 -1      3210 9.52426E-05-2.85794E-05-2.85699E-05 1.94829E-08 1.07169E-19 1.98056E-18
 -1      3211 9.52386E-05-2.85775E-05-2.85691E-05 1.66147E-08 2.33699E-19 3.26760E-19
 -1      3212 9.52388E-05-2.85776E-05-2.85691E-05 1.51349E-08-7.99078E-19-7.60801E-19
 -1      3213 9.52402E-05-2.85788E-05-2.85692E-05 1.47540E-08-1.09180E-18-1.03145E-19
 -1      3214 9.52413E-05-2.85791E-05-2.85695E-05 1.70884E-08 4.61183E-19 1.71935E-18
 -1      3215 9.52484E-05-2.85853E-05-2.85699E-05 5.65240E-09 5.90166E-19-2.04394E-18
 -1      3216 9.52489E-05-2.85857E-05-2.85699E-05 3.59297E-09 1.94679E-18-3.00762E-18
 -1      3217 1.34082E-04-3.31892E-05-4.38222E-05-1.74337E-05 3.32005E-18-1.66548E-19
 -1      3218 1.27451E-04-2.82178E-05-4.29483E-05-1.72034E-05 2.96356E-18 1.91324E-19
 -1      3219 1.26831E-04-5.53837E-05-3.03791E-05 8.55516E-06-7.63382E-19-9.49206E-19
 -1      3220 1.32459E-04-5.64495E-05-3.25237E-05 3.20060E-06 2.45110E-19-1.25414E-18
 -1      3221 9.90357E-05-3.20384E-05-2.86593E-05 1.48008E-05-7.15931E-20 2.10123E-19
 -1      3222 1.01645E-04-3.48451E-05-2.85689E-05 1.48708E-05-7.09390E-21 4.52524E-19
 -1      3223 9.62772E-05-2.84370E-05-2.90603E-05 1.31652E-05-8.32015E-19 8.21689E-19
 -1      3224 9.77382E-05-3.00693E-05-2.89569E-05 1.37070E-05-6.73809E-19 5.30067E-19
 -1      3225 9.41351E-05-2.94901E-05-2.77582E-05 1.55276E-05-5.14695E-19 1.00400E-18
 -1      3226 9.51249E-05-2.66570E-05-2.93474E-05 1.13546E-05-9.56252E-19 1.20923E-18
 -1      3227 9.58925E-05-2.74755E-05-2.92920E-05 1.20857E-05-6.60320E-19 8.76330E-19
 -1      3228 9.26510E-05-2.64792E-05-2.83795E-05 1.31284E-05-7.04527E-19 1.52732E-18
 -1      3229 9.47812E-05-2.59847E-05-2.94950E-05 9.59240E-06-4.38956E-19 1.05549E-18
 -1      3230 9.51771E-05-2.63113E-05-2.94933E-05 1.03742E-05-4.50203E-19 1.06832E-18
 -1      3231 9.24166E-05-2.51682E-05-2.88225E-05 1.10071E-05-6.17600E-19 9.13007E-19
 -1      3232 9.47894E-05-2.59187E-05-2.95286E-05 7.96510E-06-3.71892E-19 6.08086E-19
 -1      3233 9.50041E-05-2.59773E-05-2.95674E-05 8.72362E-06-3.19039E-19 1.04609E-18
 -1      3234 9.27332E-05-2.48443E-05-2.90892E-05 9.16278E-06-3.07931E-19 9.50899E-19
 -1      3235 9.49152E-05-2.61455E-05-2.94847E-05 6.50889E-06-4.78151E-19 5.81425E-21
 -1      3236 9.50481E-05-2.60737E-05-2.95479E-05 7.20429E-06-3.23266E-19 6.16294E-19
 -1      3237 9.32276E-05-2.50347E-05-2.92175E-05 7.55710E-06-1.01769E-19 1.14751E-18
 -1      3238 9.50519E-05-2.64857E-05-2.93960E-05 5.23778E-06-6.43600E-19 2.32635E-19
 -1      3239 9.51497E-05-2.63614E-05-2.94699E-05 5.85077E-06-5.69953E-19 2.66980E-19
 -1      3240 9.37211E-05-2.54548E-05-2.92496E-05 6.16178E-06-4.64741E-19 1.03547E-18
 -1      3241 9.51604E-05-2.68450E-05-2.92867E-05 4.15221E-06-3.02496E-20 2.88969E-19
 -1      3242 9.52420E-05-2.67089E-05-2.93619E-05 4.67667E-06-6.66400E-19 1.16490E-19
 -1      3243 9.41417E-05-2.59450E-05-2.92214E-05 4.95952E-06-6.69819E-19 8.28790E-19
 -1      3244 9.52328E-05-2.71784E-05-2.91732E-05 3.24315E-06-5.67554E-19 7.54938E-19
 -1      3245 9.53046E-05-2.70499E-05-2.92438E-05 3.68125E-06-1.60841E-19 5.67544E-19
 -1      3246 9.44718E-05-2.64232E-05-2.91596E-05 3.93707E-06-3.69202E-19 8.07950E-19
 -1      3247 9.52742E-05-2.74684E-05-2.90652E-05 2.49542E-06 1.82598E-19 7.02617E-19
 -1      3248 9.53376E-05-2.73554E-05-2.91281E-05 2.85411E-06 9.86040E-20 5.49961E-19
 -1      3249 9.47176E-05-2.68518E-05-2.90827E-05 3.08073E-06-3.12962E-19 8.33823E-19
 -1      3250 9.52932E-05-2.77111E-05-2.89681E-05 1.89050E-06-5.87331E-19 8.17169E-19
 -1      3251 9.53480E-05-2.76156E-05-2.90221E-05 2.17906E-06 5.93215E-20 1.37623E-18
 -1      3252 9.48942E-05-2.72181E-05-2.90024E-05 2.37485E-06-2.05509E-19 8.38255E-19
 -1      3253 9.52977E-05-2.79094E-05-2.88840E-05 1.40870E-06-1.85388E-19 1.41264E-18
 -1      3254 9.53439E-05-2.78307E-05-2.89292E-05 1.63715E-06-4.75971E-19 7.71251E-19
 -1      3255 9.50176E-05-2.75219E-05-2.89259E-05 1.80215E-06-2.89838E-19 5.38658E-19
 -1      3256 9.52940E-05-2.80685E-05-2.88134E-05 1.03074E-06 3.72608E-20 1.90170E-18
 -1      3257 9.53317E-05-2.80049E-05-2.88502E-05 1.20886E-06 1.22398E-19 1.55337E-18
 -1      3258 9.51019E-05-2.77684E-05-2.88569E-05 1.34471E-06-7.19176E-19 9.54887E-19
 -1      3259 9.52863E-05-2.81945E-05-2.87555E-05 7.38679E-07-3.23495E-19 2.43800E-18
 -1      3260 9.53163E-05-2.81437E-05-2.87849E-05 8.75476E-07 2.16302E-19 2.28898E-18
 -1      3261 9.51583E-05-2.79654E-05-2.87970E-05 9.84926E-07-9.28118E-20 1.10611E-18
 -1      3262 9.52772E-05-2.82931E-05-2.87089E-05 5.16476E-07 1.04702E-18 1.41362E-18
 -1      3263 9.53005E-05-2.82530E-05-2.87320E-05 6.19910E-07 6.79393E-19 1.80398E-18
 -1      3264 9.51953E-05-2.81205E-05-2.87465E-05 7.06315E-07 6.78326E-19 1.38955E-18
 -1      3265 9.52685E-05-2.83692E-05-2.86721E-05 3.50175E-07 7.22199E-20 4.06740E-19
 -1      3266 9.52860E-05-2.83380E-05-2.86900E-05 4.27094E-07 7.35312E-19 8.93289E-19
 -1      3267 9.52188E-05-2.82413E-05-2.87049E-05 4.93980E-07 5.69009E-19 4.38733E-19
 -1      3268 9.52607E-05-2.84274E-05-2.86435E-05 2.27924E-07-2.91664E-19 4.66846E-19
 -1      3269 9.52736E-05-2.84033E-05-2.86571E-05 2.84085E-07 1.21297E-19 4.94797E-19
 -1      3270 9.52334E-05-2.83341E-05-2.86714E-05 3.34862E-07 1.25140E-19-7.35109E-20
 -1      3271 9.52543E-05-2.84712E-05-2.86218E-05 1.39856E-07-5.05439E-19-1.63324E-18
 -1      3272 9.52634E-05-2.84529E-05-2.86319E-05 1.80011E-07-7.12531E-19-5.83970E-19
 -1      3273 9.52418E-05-2.84045E-05-2.86448E-05 2.17791E-07 6.33660E-19-1.31860E-18
 -1      3274 9.52491E-05-2.85038E-05-2.86055E-05 7.79039E-08-7.02299E-19-1.51119E-18
 -1      3275 9.52555E-05-2.84900E-05-2.86129E-05 1.05907E-07-6.52763E-19-1.92026E-18
 -1      3276 9.52463E-05-2.84571E-05-2.86242E-05 1.33414E-07-5.50261E-19-8.84056E-19
 -1      3277 9.52452E-05-2.85276E-05-2.85935E-05 3.55730E-08-2.34098E-19-1.04626E-18
 -1      3278 9.52494E-05-2.85174E-05-2.85988E-05 5.45022E-08-2.86188E-19-1.25885E-18
 -1      3279 9.52483E-05-2.84959E-05-2.86084E-05 7.40498E-08-6.74658E-19-1.64801E-18
 -1      3280 9.52423E-05-2.85446E-05-2.85849E-05 7.72080E-09-4.63693E-19-1.09140E-18
 -1      3281 9.52449E-05-2.85372E-05-2.85886E-05 1.99992E-08-5.59842E-19-1.54527E-18
 -1      3282 9.52487E-05-2.85239E-05-2.85965E-05 3.34966E-08-2.91293E-19-2.56304E-18
 -1      3283 9.52402E-05-2.85565E-05-2.85788E-05-9.66268E-09-2.25825E-19-5.43290E-20
 -1      3284 9.52417E-05-2.85513E-05-2.85813E-05-2.15784E-09-5.59178E-19-8.14782E-19
 -1      3285 9.52481E-05-2.85436E-05-2.85878E-05 6.83115E-09-1.01775E-18-2.12254E-18
 -1      3286 9.52388E-05-2.85645E-05-2.85747E-05-1.96541E-08 6.78903E-19 5.54291E-19
 -1      3287 9.52395E-05-2.85609E-05-2.85763E-05-1.54916E-08 6.14408E-19 2.55115E-19
 -1      3288 9.52470E-05-2.85573E-05-2.85815E-05-9.79108E-09 3.04172E-20-1.22941E-18
 -1      3289 9.52378E-05-2.85698E-05-2.85720E-05-2.45730E-08 8.23827E-19 4.43977E-19
 -1      3290 9.52380E-05-2.85674E-05-2.85730E-05-2.26807E-08 8.86126E-19 1.12708E-18
 -1      3291 9.52457E-05-2.85663E-05-2.85770E-05-1.93223E-08 3.80086E-19-1.60398E-19
 -1      3292 9.52373E-05-2.85730E-05-2.85704E-05-2.61342E-08 1.71823E-19-1.04958E-18
 -1      3293 9.52371E-05-2.85715E-05-2.85709E-05-2.57255E-08 4.54100E-19-2.38263E-19
 -1      3294 9.52444E-05-2.85720E-05-2.85740E-05-2.39892E-08 7.23335E-19-5.73557E-19
 -1      3295 9.52369E-05-2.85749E-05-2.85694E-05-2.55750E-08 9.94698E-20-1.39989E-18
 -1      3296 9.52366E-05-2.85739E-05-2.85697E-05-2.60872E-08 1.23200E-19-8.95397E-19
 -1      3297 9.52431E-05-2.85754E-05-2.85719E-05-2.54373E-08 7.41325E-20-4.67322E-19
 -1      3298 9.52368E-05-2.85758E-05-2.85690E-05-2.37602E-08 3.95751E-20-3.21881E-19
 -1      3299 9.52363E-05-2.85753E-05-2.85690E-05-2.48051E-08-2.34130E-19-1.48598E-18
 -1      3300 9.52419E-05-2.85771E-05-2.85707E-05-2.48530E-08-5.05195E-19-1.89784E-18
 -1      3301 9.52368E-05-2.85762E-05-2.85688E-05-2.12682E-08-2.85068E-19 3.80566E-19
 -1      3302 9.52363E-05-2.85759E-05-2.85687E-05-2.25906E-08 3.03454E-19 3.08785E-19
 -1      3303 9.52409E-05-2.85779E-05-2.85699E-05-2.30643E-08-6.63483E-19-4.61549E-19
 -1      3304 9.52369E-05-2.85763E-05-2.85688E-05-1.84643E-08-9.99186E-19-4.14761E-19
 -1      3305 9.52364E-05-2.85761E-05-2.85687E-05-1.99110E-08-8.71925E-19-2.17794E-19
 -1      3306 9.52400E-05-2.85780E-05-2.85695E-05-2.06263E-08-4.30141E-19 2.43899E-18
 -1      3307 9.52371E-05-2.85764E-05-2.85689E-05-1.55514E-08-1.14008E-18-1.75325E-18
 -1      3308 9.52366E-05-2.85762E-05-2.85688E-05-1.70254E-08-1.10476E-18-9.48749E-19
 -1      3309 9.52394E-05-2.85780E-05-2.85692E-05-1.78859E-08-4.37342E-19 1.51407E-20
 -1      3310 9.52379E-05-2.85769E-05-2.85690E-05-1.35477E-08-6.06316E-19-5.02394E-20
 -1      3311 9.52372E-05-2.85765E-05-2.85689E-05-1.46734E-08-1.03992E-18-1.10074E-18
 -1      3312 9.52393E-05-2.85780E-05-2.85691E-05-1.55417E-08-5.55959E-19-1.52254E-18
 -1      3313 9.52394E-05-2.85782E-05-2.85690E-05-1.37131E-08-8.92012E-19-1.61425E-18
 -1      3314 1.39708E-04-4.18663E-05-4.20801E-05-1.48354E-05 3.02031E-18-1.26631E-18
 -1      3315 5.81344E-05-2.73692E-06-2.37770E-05 4.24493E-06 1.64736E-18-2.09058E-18
 -1      3316 5.92260E-05-3.43323E-06-2.38233E-05 7.87548E-06 1.63889E-18-2.14362E-18
 -1      3317 1.24655E-04-5.23143E-05-3.10122E-05-7.08366E-06-8.33004E-19 4.89784E-19
 -1      3318 1.19172E-04-4.81800E-05-3.01008E-05-1.00243E-05-7.43013E-19 3.34767E-19
 -1      3319 9.52492E-05-2.85859E-05-2.85700E-05 1.14838E-09 1.37389E-18-4.13068E-18
 -1      3320 9.52492E-05-2.85859E-05-2.85700E-05-1.06549E-09 1.08947E-18-4.83049E-18
 -1      3321 9.52505E-05-2.85861E-05-2.85705E-05 2.52992E-09 2.16740E-18-3.83612E-18
 -1      3322 9.52436E-05-2.85815E-05-2.85695E-05 1.24890E-08-6.80088E-19 2.23152E-18
 -1      3323 9.52451E-05-2.85827E-05-2.85696E-05 1.13083E-08-2.74296E-19 1.20280E-18
 -1      3324 1.29833E-04-4.50789E-05-3.63684E-05 6.67274E-06 2.22320E-19-2.68946E-18
 -1      3325 1.28171E-04-3.79010E-05-3.91690E-05 1.12202E-05-2.24093E-19-2.55494E-18
 -1      3326 9.97729E-05-2.48862E-05-3.20871E-05-1.78596E-06 7.77273E-20-1.88124E-18
 -1      3327 1.01943E-04-2.61565E-05-3.25087E-05-3.35075E-06-2.08156E-19-1.75970E-18
 -1      3328 1.04199E-04-2.92092E-05-3.21564E-05-3.01727E-06-2.85360E-19-1.47926E-18
 -1      3329 1.00838E-04-2.74558E-05-3.14426E-05 1.96084E-07 2.50625E-19-1.71830E-18
 -1      3330 1.04601E-04-3.82194E-05-2.83211E-05 1.56396E-05-4.15396E-19 1.86312E-19
 -1      3331 1.08798E-04-4.22952E-05-2.84301E-05 1.46837E-05-8.70141E-19-9.05597E-21
 -1      3332 9.80525E-05-3.51054E-05-2.70701E-05 1.79650E-05-4.14623E-19-1.82370E-19
 -1      3333 1.22069E-04-2.78922E-05-4.05316E-05 1.32586E-05-1.09802E-18-2.47956E-18
 -1      3334 1.17020E-04-2.02832E-05-4.20446E-05 1.13055E-05-1.81562E-18-2.35038E-18
 -1      3335 1.13804E-04-4.67141E-05-2.85198E-05 1.43170E-05-1.21252E-18-2.19567E-20
 -1      3336 1.19461E-04-5.10536E-05-2.92437E-05 1.14581E-05-1.14389E-18-4.04021E-19
 -1      3337 1.17587E-04-5.35298E-05-2.76638E-05 1.74438E-05-1.29810E-18-3.14064E-20
 -1      3338 1.05640E-04-4.36562E-05-2.67150E-05 1.94851E-05-1.17654E-18-2.35674E-19
 -1      3339 1.39857E-04-5.13043E-05-3.85357E-05-8.95068E-06 1.83232E-18-1.59232E-18
 -1      3340 1.32046E-04-5.56925E-05-3.24905E-05-3.73583E-06-1.01797E-18 7.69212E-19
 -1      3341 1.27674E-04-5.38307E-05-3.14891E-05-6.76818E-06 1.35645E-18-1.66288E-18
 -1      3342 1.30600E-04-5.11467E-05-3.44866E-05 6.88463E-07 4.84040E-19-2.54343E-18
 -1      3343 1.26665E-04-4.58753E-05-3.46215E-05 5.87415E-06 3.07711E-21-1.99262E-18
 -1      3344 9.52465E-05-2.85838E-05-2.85697E-05 9.59023E-09 4.43989E-19 3.83452E-19
 -1      3345 9.52475E-05-2.85846E-05-2.85698E-05 7.83633E-09-2.35589E-19-5.94339E-19
 -1      3346 9.52492E-05-2.85852E-05-2.85703E-05 7.27655E-09 1.21322E-18-1.49728E-18
 -1      3347 9.52468E-05-2.85834E-05-2.85700E-05 1.12819E-08-5.85010E-19 1.04217E-18
 -1      3348 1.12180E-04-3.80057E-05-3.17166E-05-4.01749E-06-8.14198E-20-6.96236E-19
 -1      3349 1.13291E-04-3.89403E-05-3.19351E-05-5.28503E-06-1.11006E-19-7.61995E-19
 -1      3350 1.15579E-04-4.05587E-05-3.22055E-05-4.90559E-06-2.19600E-20-5.00431E-19
 -1      3351 7.22603E-05-3.33689E-05-1.63725E-05 3.35844E-05-1.50285E-18 9.89546E-19
 -1      3352 5.77747E-05-2.35616E-05-1.43646E-05 2.70492E-05-1.47267E-18 7.10555E-19
 -1      3353 1.10378E-04-5.12386E-05-2.49590E-05-2.50717E-05 2.19530E-18-2.44654E-19
 -1      3354 1.20625E-04-5.54916E-05-2.82659E-05-1.77099E-05 1.76956E-18-1.55320E-18
 -1      3355 5.00923E-05-1.29008E-05-1.57920E-05 2.57796E-05 1.75511E-18-2.30075E-18
 -1      3356 4.14728E-05-6.84866E-06-1.42834E-05 1.57905E-05 1.70197E-18-2.65926E-18
 -1      3357 5.85709E-05-2.17548E-05-1.54030E-05-2.67376E-05 2.00929E-18 2.90733E-18
 -1      3358 6.83799E-05-2.90719E-05-1.68021E-05-3.26635E-05 2.57382E-18 2.04146E-18
 -1      3359 6.29856E-05-5.67878E-06-2.44692E-05-4.82442E-06 1.50890E-18-1.90418E-18
 -1      3360 5.94180E-05-3.61214E-06-2.39341E-05-1.44893E-06 1.54947E-18-2.00161E-18
 -1      3361 6.51146E-05-9.35937E-06-2.37346E-05-9.01651E-06 1.17002E-18-1.90703E-18
 -1      3362 1.32028E-04-4.34574E-05-3.84914E-05-7.09346E-06-1.20673E-18 6.07481E-19
 -1      3363 1.31250E-04-4.92652E-05-3.51430E-05 7.39477E-07-5.59108E-19 6.08434E-19
 -1      3364 1.15993E-04-1.43119E-05-4.39111E-05 7.50108E-06-2.44835E-18-2.19490E-18
 -1      3365 1.14494E-04-1.20406E-05-4.44406E-05 2.44141E-06-2.89442E-18-1.74890E-18
 -1      3366 1.12459E-04-1.40352E-05-4.24354E-05-1.53780E-06-2.54660E-18-1.24800E-18
 -1      3367 1.12384E-04-1.92225E-05-4.00626E-05 9.09819E-06-2.01557E-18-2.34758E-18
 -1      3368 4.50448E-05-1.19237E-05-1.38478E-05-5.77960E-06 7.05287E-20 2.92639E-18
 -1      3369 4.94138E-05-1.55650E-05-1.42087E-05-1.87862E-05 1.21282E-18 2.81998E-18
 -1      3370 1.12678E-04-5.01949E-05-2.62418E-05-2.16831E-05-1.32939E-18-6.44142E-19
 -1      3371 1.24335E-04-5.52749E-05-2.99002E-05-1.33787E-05-1.12542E-18 1.56463E-19
 -1      3372 8.19972E-05-3.67927E-05-1.89434E-05-3.35543E-05 2.60468E-18 1.79772E-18
 -1      3373 9.71333E-05-4.58967E-05-2.22241E-05-3.17082E-05 2.67461E-18 1.07968E-18
 -1      3374 8.06046E-05-3.31259E-05-2.00111E-05-2.95214E-05 2.02592E-18 1.87433E-18
 -1      3375 6.27901E-05-6.32505E-06-2.43160E-05 1.22712E-05 1.68699E-18-2.03338E-18
 -1      3376 6.74706E-05-9.03242E-06-2.48756E-05 1.40852E-05 1.68025E-18-1.91954E-18
 -1      3377 5.98686E-05-5.96099E-06-2.29235E-05 1.16506E-05 1.58691E-18-2.12440E-18
 -1      3378 4.78563E-05-1.18323E-05-1.49471E-05 9.35361E-07-9.42897E-19 2.51352E-18
 -1      3379 5.28242E-05-1.28712E-05-1.69299E-05-4.87889E-06-1.92660E-19 1.75415E-18
 -1      3380 5.29187E-05-1.34638E-05-1.67190E-05 7.46894E-06-1.37953E-18 1.38760E-18
 -1      3381 8.49302E-05-2.19174E-05-2.69128E-05-1.32947E-05 8.96326E-19-1.08664E-18
 -1      3382 1.20225E-04-2.09428E-05-4.29008E-05-1.11515E-05-2.72787E-18-1.49025E-19
 -1      3383 1.26350E-04-4.76641E-05-3.38507E-05-1.52924E-06-4.02605E-20 7.89699E-19
 -1      3384 1.28203E-04-5.15608E-05-3.29555E-05 5.39320E-06-8.15269E-21 3.59857E-19
 -1      3385 1.21730E-04-4.99718E-05-3.06882E-05 9.63130E-06 5.95312E-19 1.72646E-19
 -1      3386 1.04393E-04-4.39242E-05-2.56648E-05-2.17280E-05-8.95790E-19-1.04924E-18
 -1      3387 8.31406E-05-3.70164E-05-1.93505E-05 3.06799E-05-1.46134E-18 7.74294E-19
 -1      3388 9.52451E-05-2.85827E-05-2.85696E-05-1.12844E-08-4.14343E-19-7.70236E-19
 -1      3389 9.52436E-05-2.85815E-05-2.85695E-05-1.24776E-08 2.69872E-19 7.36411E-19
 -1      3390 1.07425E-04-1.66996E-05-3.90058E-05 1.75701E-06-1.90471E-18-1.49978E-18
 -1      3391 1.08270E-04-1.84931E-05-3.86885E-05 5.91725E-06-1.89427E-18-1.62076E-18
 -1      3392 5.91625E-05-1.88956E-05-1.68976E-05-2.04445E-05 1.32177E-18 2.17327E-18
 -1      3393 5.66555E-05-3.81762E-06-2.24673E-05 9.43766E-07 1.44695E-18-2.09322E-18
 -1      3394 1.36808E-04-5.67845E-05-3.41497E-05 3.91628E-07 6.50667E-19-1.88422E-18
 -1      3395 9.52476E-05-2.85846E-05-2.85698E-05-7.79619E-09-5.91472E-19-2.07531E-18
 -1      3396 9.52465E-05-2.85838E-05-2.85697E-05-9.55985E-09-1.55031E-19-1.16241E-18
 -1      3397 9.52468E-05-2.85835E-05-2.85700E-05-1.12415E-08-1.21994E-18-1.22239E-18
 -1      3398 1.00122E-04-4.22528E-05-2.48153E-05 2.71581E-05 1.57183E-18-6.26063E-19
 -1      3399 8.80910E-05-3.59120E-05-2.19220E-05 3.19396E-05 1.89415E-18-1.21083E-18
 -1      3400 1.09975E-04-4.46788E-05-2.82198E-05-1.60998E-05-6.31265E-19-3.28463E-19
 -1      3401 1.11926E-04-4.26395E-05-2.96830E-05-1.12142E-05-3.77274E-19 8.47182E-20
 -1      3402 1.07501E-04-3.76932E-05-2.97197E-05-1.14717E-05-1.18047E-20-5.28734E-20
 -1      3403 9.75171E-05-3.70007E-05-2.54666E-05-2.12469E-05-5.09623E-19-1.14661E-18
 -1      3404 9.52489E-05-2.85857E-05-2.85699E-05-3.49818E-09 5.43364E-19-4.70708E-18
 -1      3405 9.52484E-05-2.85853E-05-2.85699E-05-5.60037E-09-3.52859E-20-3.70362E-18
 -1      3406 9.52493E-05-2.85852E-05-2.85703E-05-7.19925E-09-1.39282E-18-2.74882E-18
 -1      3407 9.52505E-05-2.85861E-05-2.85705E-05-2.46081E-09 7.45746E-19-4.32085E-18
 -1      3408 4.44776E-05-5.65158E-06-1.63177E-05 1.03198E-05 1.50478E-18-2.57974E-18
 -1      3409 4.62161E-05-8.32223E-06-1.55814E-05-1.29328E-05 6.51368E-19-2.85281E-18
 -1      3410 5.35215E-05-1.24401E-05-1.75936E-05-1.75389E-05 3.72059E-19-2.61463E-18
 -1      3411 4.50945E-05-5.99892E-06-1.64892E-05-5.99695E-06 1.02499E-18-2.68552E-18
 -1      3412 1.04655E-04-3.08732E-05-3.16460E-05-1.36428E-06-1.19147E-20-1.36324E-18
 -1      3413 1.06146E-04-3.15900E-05-3.19488E-05-2.84010E-06-1.85711E-19-1.23922E-18
 -1      3414 1.07563E-04-3.34089E-05-3.17404E-05-2.74379E-06-9.30859E-20-1.07965E-18
 -1      3415 7.40191E-05-2.63102E-05-2.00320E-05-2.59776E-05-3.90323E-19-2.23622E-18
 -1      3416 1.08905E-04-3.51492E-05-3.16467E-05-3.02364E-06-2.86784E-20-9.90995E-19
 -1      3417 6.10718E-05-1.91802E-05-1.74085E-05 3.00773E-05 1.86019E-18-2.07322E-18
 -1      3418 5.95011E-05-1.43933E-05-1.89944E-05 2.41991E-05 1.78494E-18-2.16491E-18
 -1      3419 1.22753E-04-5.25679E-05-3.00058E-05-9.04586E-06 1.18139E-18-1.01525E-18
 -1      3420 1.04677E-04-4.70003E-05-2.45098E-05-2.49008E-05 1.74650E-18 2.68074E-19
 -1      3421 1.09955E-04-3.67317E-05-3.14510E-05-1.68387E-06-3.08207E-20-7.98252E-19
 -1      3422 7.58510E-05-1.28909E-05-2.70090E-05 1.25044E-05 1.46253E-18-1.88915E-18
 -1      3423 9.52415E-05-2.85797E-05-2.85693E-05 1.41213E-08-1.19400E-18 1.33269E-18
 -1      3424 9.52426E-05-2.85807E-05-2.85694E-05 1.33566E-08-8.66478E-19 2.34957E-18
 -1      3425 9.52442E-05-2.85815E-05-2.85697E-05 1.38173E-08-8.33997E-19 1.69610E-18
 -1      3426 9.52419E-05-2.85798E-05-2.85695E-05 1.52955E-08-1.15321E-18 1.40383E-18
 -1      3427 6.08096E-05-2.13529E-05-1.64430E-05 2.21366E-05-1.59173E-18 6.67621E-19
 -1      3428 1.11933E-04-4.69083E-05-2.78197E-05 1.89507E-05 1.20694E-18-2.93752E-19
 -1      3429 1.06839E-04-4.53700E-05-2.61298E-05 2.40445E-05 1.38448E-18-5.58360E-19
 -1      3430 9.90496E-05-3.91641E-05-2.55204E-05 2.38158E-05 1.63154E-18-7.84842E-19
 -1      3431 7.39483E-05-2.78242E-05-1.97253E-05 3.29915E-05 1.91292E-18-1.73446E-18
 -1      3432 1.12476E-04-5.22797E-05-2.56038E-05 2.31214E-05-1.62008E-18-1.37193E-19
 -1      3433 8.66981E-05-2.16726E-05-2.78531E-05 1.26657E-05 1.34767E-18-1.62943E-18
 -1      3434 9.18274E-05-2.46540E-05-2.87225E-05 1.06491E-05 1.08337E-18-1.55576E-18
 -1      3435 9.64261E-05-2.71407E-05-2.96801E-05 7.17904E-06 8.76985E-19-1.43995E-18
 -1      3436 1.00085E-04-2.90804E-05-3.04367E-05 4.34722E-06 6.12265E-19-1.60380E-18
 -1      3437 9.69045E-05-2.96068E-05-2.89035E-05 1.03412E-05 9.55307E-19-1.36304E-18
 -1      3438 1.04050E-04-4.69953E-05-2.42533E-05 2.51769E-05-1.80675E-18 2.28037E-20
 -1      3439 1.14451E-04-2.05792E-05-4.04073E-05-1.13463E-05-2.42799E-18-4.13061E-20
 -1      3440 8.10930E-05-2.85177E-05-2.22921E-05 2.82138E-05 1.85614E-18-1.49639E-18
 -1      3441 5.86534E-05-1.61481E-05-1.80258E-05-1.48938E-05 4.15364E-19 1.87104E-18
 -1      3442 6.60994E-05-2.18735E-05-1.89588E-05-2.27018E-05 1.15199E-18 1.76564E-18
 -1      3443 1.24468E-04-4.09919E-05-3.57750E-05-1.00016E-05-6.77362E-19 5.24790E-19
 -1      3444 1.23107E-04-3.60033E-05-3.74688E-05-1.11918E-05-1.27068E-18 5.17418E-19
 -1      3445 8.68106E-05-3.02252E-05-2.43872E-05 2.48354E-05 1.68689E-18-1.06136E-18
 -1      3446 7.54591E-05-2.20643E-05-2.25930E-05 2.50300E-05 1.80643E-18-1.57387E-18
 -1      3447 1.15634E-04-4.19695E-05-3.14134E-05-3.54652E-07 2.58269E-19-3.50910E-19
 -1      3448 1.17999E-04-4.29737E-05-3.21522E-05-2.73774E-06 2.34661E-19-2.23769E-19
 -1      3449 1.21511E-04-3.80359E-05-3.58489E-05 1.16062E-05-8.71915E-20-2.38769E-18
 -1      3450 1.21213E-04-4.20047E-05-3.41647E-05 8.43623E-06-6.31503E-20-2.30099E-18
 -1      3451 1.19434E-04-4.58120E-05-3.15862E-05 2.39642E-06 6.60322E-20-2.07945E-18
 -1      3452 1.17545E-04-4.61102E-05-3.05297E-05-7.69128E-07 4.31924E-19-2.14541E-18
 -1      3453 1.13665E-04-4.46093E-05-2.96308E-05-3.57419E-06 6.57827E-19-1.87658E-18
 -1      3454 1.11122E-04-4.29892E-05-2.90869E-05-5.63397E-06 6.37452E-19-1.49053E-18
 -1      3455 1.15714E-04-4.67816E-05-2.96096E-05-5.33902E-06 7.69053E-19-1.01411E-18
 -1      3456 1.07603E-04-4.06356E-05-2.87155E-05-6.98910E-06 6.30656E-19-1.39557E-18
 -1      3457 1.05184E-04-3.85111E-05-2.84847E-05-8.01088E-06 6.38584E-19-8.55543E-19
 -1      3458 1.08365E-04-4.25187E-05-2.83609E-05-9.15939E-06 8.43463E-19-6.88529E-19
 -1      3459 1.02604E-04-3.63330E-05-2.84016E-05-8.30328E-06 4.08123E-19-8.01052E-19
 -1      3460 1.00661E-04-3.44103E-05-2.83447E-05-8.64954E-06 4.14482E-19-3.71436E-19
 -1      3461 1.02319E-04-3.73838E-05-2.79150E-05-1.04088E-05 7.14859E-19-8.55378E-19
 -1      3462 9.89861E-05-3.27048E-05-2.83923E-05-8.36460E-06-1.00586E-19-8.00434E-20
 -1      3463 9.76104E-05-3.12458E-05-2.84141E-05-8.29651E-06 1.50435E-20 5.08185E-20
 -1      3464 9.81357E-05-3.31097E-05-2.79302E-05-9.94520E-06 3.05383E-19-1.34413E-19
 -1      3465 9.66172E-05-3.00658E-05-2.85067E-05-7.78951E-06 4.87222E-19-2.99743E-19
 -1      3466 9.57256E-05-2.90683E-05-2.85537E-05-7.50114E-06 7.07270E-19 3.29633E-19
 -1      3467 9.55556E-05-3.00599E-05-2.81084E-05-8.91057E-06 2.90329E-19-1.45957E-19
 -1      3468 9.52096E-05-2.83325E-05-2.86479E-05-6.92960E-06 2.83488E-19 2.53680E-19
 -1      3469 9.46755E-05-2.77157E-05-2.86923E-05-6.54009E-06-2.67964E-20 2.47320E-19
 -1      3470 9.41105E-05-2.80703E-05-2.83251E-05-7.68482E-06 3.55079E-19 9.11623E-20
 -1      3471 9.44669E-05-2.73135E-05-2.87690E-05-5.98153E-06 2.92178E-19 5.52214E-19
 -1      3472 9.41765E-05-2.69786E-05-2.87994E-05-5.55916E-06 8.11680E-20 4.21972E-19
 -1      3473 9.34295E-05-2.69131E-05-2.85186E-05-6.47732E-06 3.31100E-19-7.63223E-19
 -1      3474 9.41532E-05-2.68088E-05-2.88532E-05-5.04611E-06-5.55770E-19 4.50135E-19
 -1      3475 9.40181E-05-2.66678E-05-2.88675E-05-4.63008E-06-3.74189E-19-2.29308E-19
 -1      3476 9.32246E-05-2.63484E-05-2.86663E-05-5.36912E-06-9.90228E-20-2.97206E-19
 -1      3477 9.40969E-05-2.66485E-05-2.88996E-05-4.17498E-06-4.72350E-19-1.56426E-20
 -1      3478 9.40544E-05-2.66317E-05-2.88998E-05-3.78734E-06-5.20726E-19-7.82995E-19
 -1      3479 9.32960E-05-2.61798E-05-2.87654E-05-4.38760E-06-6.01639E-19-2.00624E-19
 -1      3480 9.41812E-05-2.67021E-05-2.89142E-05-3.39313E-06-3.87212E-19-9.80047E-19
 -1      3481 9.41895E-05-2.67584E-05-2.89038E-05-3.04565E-06-6.67564E-19-8.51544E-19
 -1      3482 9.35103E-05-2.62574E-05-2.88220E-05-3.53705E-06-7.78667E-19 2.00499E-19
 -1      3483 9.43310E-05-2.68755E-05-2.89050E-05-2.71075E-06-1.08895E-18-1.06203E-18
 -1      3484 9.43636E-05-2.69695E-05-2.88878E-05-2.40852E-06-9.97122E-19-1.04358E-18
 -1      3485 9.37829E-05-2.64738E-05-2.88451E-05-2.81234E-06-9.74192E-19-2.90774E-19
 -1      3486 9.45004E-05-2.71048E-05-2.88802E-05-2.12901E-06-5.08196E-19-1.31801E-18
 -1      3487 9.45417E-05-2.72130E-05-2.88593E-05-1.87275E-06-1.37185E-19-1.28270E-18
 -1      3488 9.40628E-05-2.67550E-05-2.88443E-05-2.20430E-06-8.15252E-19 3.79114E-19
 -1      3489 9.46637E-05-2.73485E-05-2.88463E-05-1.64336E-06-2.75899E-19-1.78557E-18
 -1      3490 9.47048E-05-2.74565E-05-2.88243E-05-1.43094E-06-1.70848E-19-1.77475E-18
 -1      3491 9.43220E-05-2.70530E-05-2.88277E-05-1.70180E-06-4.86070E-19-3.78479E-19
 -1      3492 9.48080E-05-2.75818E-05-2.88087E-05-1.24578E-06 6.40062E-20-2.66311E-18
 -1      3493 9.48444E-05-2.76813E-05-2.87872E-05-1.07330E-06-3.25168E-19-2.19282E-18
 -1      3494 9.45470E-05-2.73386E-05-2.88020E-05-1.29280E-06-7.36459E-19-1.41040E-18
 -1      3495 9.49282E-05-2.77913E-05-2.87708E-05-9.26273E-07-1.05914E-19-2.11051E-18
 -1      3496 9.49584E-05-2.78784E-05-2.87510E-05-7.88937E-07 1.16649E-19-2.01033E-18
 -1      3497 9.47333E-05-2.75957E-05-2.87719E-05-9.64982E-07-1.31864E-19-1.42932E-18
 -1      3498 9.50240E-05-2.79712E-05-2.87352E-05-6.74119E-07-2.85078E-19-2.03819E-18
 -1      3499 9.50477E-05-2.80445E-05-2.87176E-05-5.66824E-07-7.17312E-20-2.31806E-18
 -1      3500 9.48821E-05-2.78174E-05-2.87410E-05-7.06326E-07-8.16234E-20-2.09835E-18
 -1      3501 9.50976E-05-2.81205E-05-2.87031E-05-4.78672E-07 1.02355E-19-2.23496E-18
 -1      3502 9.51155E-05-2.81803E-05-2.86880E-05-3.96424E-07-7.44950E-20-1.88965E-18
 -1      3503 9.49972E-05-2.80020E-05-2.87115E-05-5.05505E-07 6.53349E-20-2.35558E-18
 -1      3504 9.51523E-05-2.82408E-05-2.86752E-05-3.29945E-07 4.34115E-21-1.66796E-18
 -1      3505 9.51651E-05-2.82883E-05-2.86626E-05-2.68120E-07 3.62974E-19-1.36195E-18
 -1      3506 9.50835E-05-2.81515E-05-2.86846E-05-3.52187E-07-2.67733E-19-2.13424E-18
 -1      3507 9.51914E-05-2.83355E-05-2.86517E-05-2.18942E-07 1.02950E-19-8.29612E-19
 -1      3508 9.52002E-05-2.83723E-05-2.86414E-05-1.73431E-07 5.03775E-19-1.55140E-18
 -1      3509 9.51463E-05-2.82696E-05-2.86611E-05-2.37212E-07 2.03917E-19 4.81574E-19
 -1      3510 9.52183E-05-2.84081E-05-2.86323E-05-1.37824E-07 3.38078E-19-1.32730E-18
 -1      3511 9.52241E-05-2.84361E-05-2.86240E-05-1.05092E-07-9.06607E-20-1.11544E-18
 -1      3512 9.51905E-05-2.83608E-05-2.86411E-05-1.52658E-07 4.20549E-19 2.99111E-19
 -1      3513 9.52360E-05-2.84627E-05-2.86166E-05-7.99412E-08 4.05361E-20-1.62514E-18
 -1      3514 9.52394E-05-2.84834E-05-2.86101E-05-5.70267E-08 4.18231E-19-1.50863E-18
 -1      3515 9.52205E-05-2.84296E-05-2.86245E-05-9.18283E-08-1.43890E-19-9.96814E-19
 -1      3516 9.52467E-05-2.85027E-05-2.86042E-05-3.97858E-08 7.50782E-19-8.43526E-19
 -1      3517 9.52485E-05-2.85177E-05-2.85992E-05-2.42663E-08 1.14710E-18-1.00043E-18
 -1      3518 9.52397E-05-2.84803E-05-2.86111E-05-4.91799E-08 7.69631E-19-4.27419E-19
 -1      3519 9.52526E-05-2.85312E-05-2.85946E-05-1.28934E-08 1.17565E-18-1.40736E-18
 -1      3520 9.52533E-05-2.85417E-05-2.85909E-05-2.82856E-09 2.46191E-19-4.80547E-19
 -1      3521 9.52511E-05-2.85168E-05-2.86004E-05-2.02107E-08 1.03412E-18-1.02658E-18
 -1      3522 9.52552E-05-2.85510E-05-2.85873E-05 4.28380E-09 1.49395E-20 1.07493E-19
 -1      3523 9.52551E-05-2.85581E-05-2.85845E-05 1.04170E-08 3.25151E-19 8.35173E-19
 -1      3524 9.52571E-05-2.85423E-05-2.85921E-05-1.33197E-09 6.36130E-19-5.19502E-19
 -1      3525 9.52554E-05-2.85641E-05-2.85819E-05 1.45114E-08-5.63616E-20 9.15946E-19
 -1      3526 9.52549E-05-2.85688E-05-2.85798E-05 1.78847E-08 8.41883E-19-2.88245E-20
 -1      3527 9.52593E-05-2.85594E-05-2.85857E-05 1.02660E-08 2.97353E-19-2.72252E-19
 -1      3528 9.52544E-05-2.85725E-05-2.85779E-05 1.99030E-08 1.56300E-18-3.34360E-19
 -1      3529 9.52536E-05-2.85753E-05-2.85764E-05 2.13990E-08 9.04515E-19 3.76901E-19
 -1      3530 9.52591E-05-2.85705E-05-2.85809E-05 1.67426E-08 8.00452E-19-1.18862E-18
 -1      3531 9.52525E-05-2.85773E-05-2.85750E-05 2.20404E-08 3.65650E-19 4.26666E-19
 -1      3532 9.52516E-05-2.85789E-05-2.85740E-05 2.23085E-08 5.04533E-19 1.94888E-18
 -1      3533 9.52575E-05-2.85771E-05-2.85773E-05 1.97251E-08 7.71217E-19 1.30545E-20
 -1      3534 9.52503E-05-2.85799E-05-2.85730E-05 2.20792E-08-3.03123E-19 1.83800E-18
 -1      3535 9.52494E-05-2.85806E-05-2.85723E-05 2.15839E-08-5.30798E-19 2.07381E-18
 -1      3536 9.52550E-05-2.85807E-05-2.85748E-05 2.04129E-08 2.42148E-19 1.26282E-18
 -1      3537 9.52480E-05-2.85809E-05-2.85716E-05 2.08395E-08-9.72905E-21 2.27183E-18
 -1      3538 9.52472E-05-2.85811E-05-2.85712E-05 1.99021E-08 6.80654E-19 1.69537E-18
 -1      3539 9.52522E-05-2.85823E-05-2.85729E-05 1.96663E-08-1.61672E-19 1.47101E-18
 -1      3540 9.52458E-05-2.85810E-05-2.85706E-05 1.88775E-08 7.16571E-19 2.23090E-18
 -1      3541 9.52451E-05-2.85810E-05-2.85703E-05 1.77072E-08 3.86339E-19 3.31776E-18
 -1      3542 9.52495E-05-2.85826E-05-2.85716E-05 1.80877E-08 9.90422E-19 1.08092E-18
 -1      3543 8.97608E-05-2.35682E-05-2.83935E-05 9.93817E-06-5.07940E-19 1.03564E-18
 -1      3544 8.96920E-05-2.38431E-05-2.81942E-05 1.08874E-05-9.58935E-19 1.26348E-18
 -1      3545 8.89442E-05-2.41096E-05-2.78121E-05 1.21117E-05-9.58886E-19 1.55051E-18
 -1      3546 8.93069E-05-2.49970E-05-2.75094E-05 1.32371E-05-7.92316E-19 1.37762E-18
 -1      3547 8.63568E-05-2.24111E-05-2.73863E-05 1.09482E-05-8.07404E-19 1.04812E-18
 -1      3548 9.52423E-05-2.85805E-05-2.85693E-05-1.31171E-08 1.64973E-19 8.87797E-19
 -1      3549 9.52408E-05-2.85793E-05-2.85692E-05-1.35251E-08-5.25562E-19 5.23169E-19
 -1      3550 9.52408E-05-2.85792E-05-2.85693E-05-1.44425E-08-4.98250E-19 6.58514E-19
 -1      3551 9.52438E-05-2.85814E-05-2.85696E-05-1.36327E-08-1.35314E-19 1.32630E-18
 -1      3552 5.32281E-05-4.42982E-06-2.08825E-05-2.08526E-06 1.32223E-18-2.11790E-18
 -1      3553 5.20026E-05-3.46680E-06-2.07039E-05 3.73080E-06 1.40520E-18-2.16613E-18
 -1      3554 8.88265E-05-2.59562E-05-2.69585E-05 1.49168E-05-9.46257E-19 9.31233E-19
 -1      3555 9.00739E-05-2.78836E-05-2.65559E-05 1.62566E-05-6.16066E-19 6.10246E-19
 -1      3556 8.50027E-05-2.34197E-05-2.63834E-05 1.38076E-05-1.16431E-18 8.53852E-19
 -1      3557 9.07760E-05-2.37304E-05-2.87556E-05 8.18715E-06-4.53283E-20 8.52728E-19
 -1      3558 9.05424E-05-2.36771E-05-2.86422E-05 9.00286E-06-9.99528E-20 1.14837E-18
 -1      3559 8.79286E-05-2.23969E-05-2.80640E-05 8.88022E-06-3.19676E-19 1.38120E-18
 -1      3560 9.17540E-05-2.42305E-05-2.89567E-05 6.72495E-06-3.07274E-19 1.33168E-18
 -1      3561 9.14881E-05-2.40210E-05-2.89061E-05 7.43464E-06 1.76039E-20 1.18644E-18
 -1      3562 8.94293E-05-2.28903E-05-2.84972E-05 7.28724E-06-3.11221E-19 1.36660E-18
 -1      3563 9.25977E-05-2.48553E-05-2.90474E-05 5.47989E-06-7.52700E-19 1.57494E-18
 -1      3564 9.23580E-05-2.45882E-05-2.90384E-05 6.09738E-06-5.61020E-19 1.34588E-18
 -1      3565 9.07383E-05-2.36053E-05-2.87549E-05 5.98815E-06-6.01882E-19 9.53943E-19
 -1      3566 9.32824E-05-2.54882E-05-2.90668E-05 4.41559E-06-3.79704E-19 1.17500E-18
 -1      3567 9.30882E-05-2.52164E-05-2.90831E-05 4.94792E-06-3.77564E-19 1.23293E-18
 -1      3568 9.18216E-05-2.43772E-05-2.88917E-05 4.89169E-06-3.95247E-19 1.35801E-18
 -1      3569 9.38165E-05-2.60712E-05-2.90435E-05 3.51168E-06-3.14724E-19 9.08582E-19
 -1      3570 9.36688E-05-2.58207E-05-2.90735E-05 3.96413E-06-3.45517E-19 1.21733E-18
 -1      3571 9.26873E-05-2.51171E-05-2.89487E-05 3.95462E-06-8.14203E-20 9.24925E-19
 -1      3572 9.42220E-05-2.65802E-05-2.89972E-05 2.75319E-06-2.20773E-19 1.20440E-18
 -1      3573 9.41144E-05-2.63615E-05-2.90329E-05 3.13159E-06-3.91539E-19 1.17802E-18
 -1      3574 9.33623E-05-2.57819E-05-2.89557E-05 3.15567E-06-2.77675E-19 6.81456E-19
 -1      3575 9.45240E-05-2.70097E-05-2.89409E-05 2.12598E-06-4.86330E-19 7.10920E-19
 -1      3576 9.44479E-05-2.68253E-05-2.89774E-05 2.43723E-06-3.57553E-19 7.74422E-19
 -1      3577 9.38790E-05-2.63556E-05-2.89333E-05 2.48166E-06-2.67355E-19 7.38449E-19
 -1      3578 9.47454E-05-2.73637E-05-2.88828E-05 1.61536E-06-4.29343E-19 3.13284E-19
 -1      3579 9.46929E-05-2.72117E-05-2.89172E-05 1.86722E-06-2.51997E-19 5.91801E-19
 -1      3580 9.42685E-05-2.68370E-05-2.88955E-05 1.92126E-06-8.49464E-20 1.43645E-19
 -1      3581 9.49056E-05-2.76501E-05-2.88275E-05 1.20622E-06-8.99768E-19 1.08815E-18
 -1      3582 9.48701E-05-2.75271E-05-2.88584E-05 1.40677E-06-1.32467E-18 6.22380E-19
 -1      3583 9.45585E-05-2.72326E-05-2.88514E-05 1.46280E-06-1.08286E-18 2.55458E-20
 -1      3584 9.50199E-05-2.78785E-05-2.87778E-05 8.83590E-07 4.86757E-20 1.13597E-18
 -1      3585 9.49965E-05-2.77804E-05-2.88044E-05 1.04077E-06-1.94510E-19 1.15072E-18
 -1      3586 9.47718E-05-2.75523E-05-2.88066E-05 1.09393E-06-5.90049E-19 4.51991E-19
 -1      3587 9.51005E-05-2.80582E-05-2.87346E-05 6.33262E-07 1.22674E-18 4.93200E-19
 -1      3588 9.50854E-05-2.79809E-05-2.87570E-05 7.54495E-07 9.38099E-19 8.60954E-19
 -1      3589 9.49267E-05-2.78070E-05-2.87645E-05 8.02097E-07 6.07668E-19-3.89159E-19
 -1      3590 9.51563E-05-2.81977E-05-2.86982E-05 4.42240E-07 6.98954E-19-2.21949E-19
 -1      3591 9.51469E-05-2.81377E-05-2.87165E-05 5.34214E-07 1.17978E-18 5.91306E-19
 -1      3592 9.50377E-05-2.80070E-05-2.87267E-05 5.75090E-07 8.96459E-19 2.14416E-19
 -1      3593 9.51942E-05-2.83047E-05-2.86682E-05 2.99009E-07 1.67387E-19-1.21384E-18
 -1      3594 9.51886E-05-2.82586E-05-2.86829E-05 3.67572E-07 9.76403E-20-1.18284E-18
 -1      3595 9.51159E-05-2.81622E-05-2.86940E-05 4.01548E-07 9.74193E-19-1.05403E-18
 -1      3596 9.52193E-05-2.83855E-05-2.86439E-05 1.93636E-07 9.12219E-19-1.37765E-18
 -1      3597 9.52162E-05-2.83506E-05-2.86556E-05 2.43774E-07 7.49026E-19-7.01049E-19
 -1      3598 9.51699E-05-2.82808E-05-2.86665E-05 2.71265E-07 6.16608E-19-2.28266E-18
 -1      3599 9.52352E-05-2.84456E-05-2.86247E-05 1.17750E-07-8.33886E-19-8.79514E-19
 -1      3600 9.52337E-05-2.84197E-05-2.86338E-05 1.53624E-07 1.27902E-19-9.11356E-19
 -1      3601 9.52062E-05-2.83702E-05-2.86439E-05 1.75354E-07 4.33222E-19-1.60474E-18
 -1      3602 9.52447E-05-2.84897E-05-2.86097E-05 6.44425E-08-5.98242E-19-1.38713E-18
 -1      3603 9.52443E-05-2.84706E-05-2.86167E-05 8.94579E-08-1.20910E-18-1.59463E-18
 -1      3604 9.52297E-05-2.84365E-05-2.86256E-05 1.06272E-07-1.21825E-18-1.31024E-18
 -1      3605 9.52499E-05-2.85212E-05-2.85983E-05 2.81193E-08-5.75492E-19-1.37211E-18
 -1      3606 9.52500E-05-2.85076E-05-2.86035E-05 4.50127E-08 2.44840E-19-1.08216E-18
 -1      3607 9.52442E-05-2.84849E-05-2.86112E-05 5.77603E-08-5.89082E-19-1.38522E-18
 -1      3608 9.52521E-05-2.85434E-05-2.85896E-05 4.32883E-09-7.84476E-19-1.52890E-18
 -1      3609 9.52526E-05-2.85338E-05-2.85935E-05 1.52636E-08-1.05068E-18-1.38180E-18
 -1      3610 9.52524E-05-2.85193E-05-2.85999E-05 2.47342E-08-4.09840E-19 1.55200E-20
 -1      3611 9.52524E-05-2.85584E-05-2.85833E-05-1.04089E-08-3.64416E-19-6.32584E-19
 -1      3612 9.52531E-05-2.85518E-05-2.85860E-05-3.75155E-09-4.55496E-19-9.01101E-19
 -1      3613 9.52562E-05-2.85433E-05-2.85913E-05 3.13748E-09-1.06209E-18-3.21287E-19
 -1      3614 9.52516E-05-2.85682E-05-2.85787E-05-1.87666E-08 3.65192E-19-4.15778E-19
 -1      3615 9.52523E-05-2.85639E-05-2.85806E-05-1.51028E-08-1.52086E-19-6.28893E-19
 -1      3616 9.52572E-05-2.85594E-05-2.85848E-05-1.02049E-08-3.88810E-19-5.29301E-19
 -1      3617 9.52501E-05-2.85742E-05-2.85754E-05-2.27590E-08 3.91916E-19-4.66058E-19
 -1      3618 9.52508E-05-2.85716E-05-2.85767E-05-2.11268E-08 1.26703E-18-5.83080E-19
 -1      3619 9.52564E-05-2.85698E-05-2.85800E-05-1.77334E-08 5.73422E-19-8.99960E-19
 -1      3620 9.52483E-05-2.85776E-05-2.85732E-05-2.38734E-08-4.88543E-20-4.32277E-19
 -1      3621 9.52490E-05-2.85761E-05-2.85740E-05-2.35673E-08-8.91244E-20-6.39556E-19
 -1      3622 9.52547E-05-2.85761E-05-2.85766E-05-2.12881E-08 4.32111E-19-4.75889E-19
 -1      3623 9.52465E-05-2.85793E-05-2.85716E-05-2.31797E-08-6.96619E-19-1.07463E-18
 -1      3624 9.52471E-05-2.85785E-05-2.85722E-05-2.36966E-08-3.02135E-19-9.82916E-19
 -1      3625 9.52523E-05-2.85795E-05-2.85741E-05-2.22268E-08-2.79712E-19-5.82745E-19
 -1      3626 9.52447E-05-2.85798E-05-2.85706E-05-2.14225E-08-1.23504E-18 7.56899E-19
 -1      3627 9.52452E-05-2.85795E-05-2.85710E-05-2.24157E-08-1.24623E-18-6.08728E-19
 -1      3628 9.52499E-05-2.85811E-05-2.85724E-05-2.15242E-08-1.57842E-18-5.20466E-19
 -1      3629 9.52431E-05-2.85798E-05-2.85700E-05-1.91098E-08-1.04435E-18 2.08437E-18
 -1      3630 9.52435E-05-2.85797E-05-2.85702E-05-2.03367E-08-7.67683E-19 1.17530E-18
 -1      3631 9.52475E-05-2.85815E-05-2.85712E-05-1.98562E-08-1.33397E-18-5.77898E-20
 -1      3632 1.02968E-04-3.00030E-05-3.12511E-05 4.72119E-07 3.05894E-19-1.50054E-18
 -1      3633 6.98127E-05-2.47512E-05-1.91358E-05 2.44674E-05-1.26483E-18 8.17651E-19
 -1      3634 6.12370E-05-1.84571E-05-1.82065E-05 1.76234E-05-1.20935E-18 9.31313E-19
 -1      3635 9.52522E-05-2.85864E-05-2.85710E-05 3.95416E-09 1.70138E-18-2.78940E-18
 -1      3636 9.52525E-05-2.85866E-05-2.85711E-05 1.44899E-09 1.31158E-18-2.49239E-18
 -1      3637 1.20714E-04-2.73796E-05-4.03211E-05-1.42011E-05-2.12642E-18 2.90373E-19
 -1      3638 4.82380E-05-5.38311E-06-1.80867E-05 9.52010E-06 1.55531E-18-2.38472E-18
 -1      3639 4.48326E-05-3.55805E-06-1.71366E-05 6.67765E-07 1.28600E-18-2.47101E-18
 -1      3640 1.19893E-04-3.21536E-05-3.76508E-05 1.25053E-05-6.32866E-19-2.35537E-18
 -1      3641 7.61755E-05-2.79972E-05-2.03354E-05-2.58607E-05 1.79335E-18 1.59431E-18
 -1      3642 8.66837E-05-3.56084E-05-2.21183E-05-2.72889E-05 2.03705E-18 1.84441E-18
 -1      3643 1.00900E-04-4.24822E-05-2.48342E-05 2.29499E-05-1.35141E-18-1.87353E-19
 -1      3644 9.26477E-05-4.07515E-05-2.21824E-05 2.85734E-05-1.31115E-18 2.79839E-19
 -1      3645 8.00885E-05-3.22006E-05-2.03721E-05 2.74588E-05-9.32186E-19 4.13670E-19
 -1      3646 9.58600E-05-3.73866E-05-2.49380E-05 2.21268E-05-8.73635E-19-2.80103E-19
 -1      3647 6.16037E-05-1.09243E-05-2.15023E-05-1.27841E-05 8.62485E-19-2.12814E-18
 -1      3648 5.46455E-05-6.72105E-06-2.04095E-05-8.47319E-06 1.04992E-18-2.30843E-18
 -1      3649 1.18552E-04-5.06654E-05-2.90064E-05-1.01737E-05 9.75425E-19-5.84003E-19
 -1      3650 1.23309E-04-4.98821E-05-3.16550E-05-1.26708E-06 3.94506E-19-1.68765E-18
 -1      3651 1.22550E-04-4.60153E-05-3.27097E-05 4.47781E-06 3.22005E-20-2.26702E-18
 -1      3652 6.81892E-05-1.94063E-05-2.03461E-05-2.20494E-05 1.46166E-19-2.23934E-18
 -1      3653 8.08362E-05-2.83298E-05-2.27543E-05-2.39351E-05-1.70757E-19-1.80826E-18
 -1      3654 9.86017E-05-4.19229E-05-2.39738E-05-2.46994E-05 1.84793E-18 7.82103E-19
 -1      3655 1.08544E-04-4.76101E-05-2.63148E-05-1.94300E-05 1.26858E-18-4.31749E-19
 -1      3656 1.28752E-04-3.76577E-05-3.91921E-05-1.08914E-05-1.47087E-18 7.57089E-19
 -1      3657 6.55300E-05-1.44393E-05-2.19815E-05 2.18722E-05 1.80783E-18-1.85892E-18
 -1      3658 5.77331E-05-8.61585E-06-2.07754E-05 1.71106E-05 1.74140E-18-2.18519E-18
 -1      3659 8.17050E-05-2.01018E-05-2.63117E-05 1.67288E-05 1.51845E-18-1.67555E-18
 -1      3660 8.73799E-05-2.57290E-05-2.63510E-05 1.80378E-05 1.42554E-18-1.35812E-18
 -1      3661 1.20954E-04-4.45140E-05-3.26713E-05-2.97595E-06 2.12016E-19 1.47265E-19
 -1      3662 1.22253E-04-4.31125E-05-3.39636E-05-5.78419E-06-1.89677E-19 3.29403E-19
 -1      3663 7.50723E-05-1.60867E-05-2.53313E-05 1.72769E-05 1.64395E-18-1.74296E-18
 -1      3664 1.06978E-04-3.46959E-05-3.09037E-05 1.54124E-06 2.54772E-19-1.12431E-18
 -1      3665 1.10526E-04-3.84846E-05-3.09220E-05 1.23482E-06 2.40140E-19-8.27263E-19
 -1      3666 1.00253E-04-3.41182E-05-2.85362E-05-1.42222E-05 2.33576E-19-4.43131E-19
 -1      3667 5.97184E-05-1.56510E-05-1.85827E-05 1.25022E-05-1.37235E-18 1.36433E-18
 -1      3668 5.99854E-05-1.43152E-05-1.95270E-05 6.30886E-06-1.28161E-18 1.62776E-18
 -1      3669 6.77886E-05-1.86803E-05-2.08970E-05 1.47279E-05-1.06224E-18 1.42937E-18
 -1      3670 8.75310E-05-2.59162E-05-2.62096E-05-1.63626E-05 4.77832E-19-1.16809E-18
 -1      3671 7.34214E-05-1.79641E-05-2.39287E-05-1.69292E-05 6.83807E-19-1.62315E-18
 -1      3672 4.90269E-05-5.65341E-06-1.83254E-05-4.97432E-06 1.03182E-18-2.45692E-18
 -1      3673 5.76170E-05-1.41568E-05-1.83634E-05-9.87382E-06 5.13051E-20 1.67956E-18
 -1      3674 6.41343E-05-1.67444E-05-2.01685E-05-1.22128E-05 8.33691E-20 1.21660E-18
 -1      3675 5.83889E-05-1.36456E-05-1.91429E-05-3.64791E-06-7.27204E-19 1.11880E-18
 -1      3676 7.22829E-05-1.62341E-05-2.39101E-05 1.94206E-05 1.72130E-18-1.80083E-18
 -1      3677 1.19833E-04-4.64909E-05-3.15804E-05 2.77272E-06 4.08018E-19 2.76080E-19
 -1      3678 9.05810E-05-3.05117E-05-2.55074E-05-1.88513E-05 1.88730E-20-1.20581E-18
 -1      3679 9.52437E-05-2.85805E-05-2.85700E-05 1.70902E-08-1.25154E-19 3.36898E-18
 -1      3680 9.52430E-05-2.85803E-05-2.85697E-05 1.60073E-08-4.62241E-19 2.12082E-18
 -1      3681 9.52442E-05-2.85811E-05-2.85699E-05 1.53230E-08-1.38969E-18 2.25440E-18
 -1      3682 9.52467E-05-2.85821E-05-2.85706E-05 1.65577E-08-3.12552E-19 3.25398E-18
 -1      3683 1.04360E-04-3.26694E-05-3.07335E-05 2.49372E-06 3.77631E-19-1.30462E-18
 -1      3684 9.52514E-05-2.85859E-05-2.85709E-05 6.62974E-09 1.87599E-18-3.35328E-18
 -1      3685 9.52534E-05-2.85865E-05-2.85715E-05 5.62490E-09 1.33892E-18-2.85428E-18
 -1      3686 9.52504E-05-2.85853E-05-2.85708E-05 8.87526E-09 1.13003E-18-7.30152E-19
 -1      3687 9.52418E-05-2.85795E-05-2.85696E-05-1.65104E-08 3.58779E-20 7.13352E-19
 -1      3688 9.52421E-05-2.85795E-05-2.85697E-05-1.78462E-08-2.66431E-19 1.94820E-18
 -1      3689 9.52408E-05-2.85791E-05-2.85693E-05-1.53287E-08-3.28158E-19 6.09083E-19
 -1      3690 7.98429E-05-2.85690E-05-2.17094E-05 2.30922E-05-1.37064E-18 7.93299E-19
 -1      3691 9.52542E-05-2.85870E-05-2.85717E-05 5.79355E-11 4.34110E-19-1.64143E-18
 -1      3692 9.52525E-05-2.85867E-05-2.85711E-05-1.36277E-09 3.16864E-19-3.00250E-18
 -1      3693 9.52522E-05-2.85864E-05-2.85710E-05-3.84515E-09-7.38309E-19-3.56069E-18
 -1      3694 7.41851E-05-2.46139E-05-2.10808E-05-2.13377E-05 8.45392E-19 1.75563E-18
 -1      3695 5.24890E-05-5.42148E-06-2.00762E-05 1.24646E-05 1.63044E-18-2.25941E-18
 -1      3696 9.34016E-05-3.34302E-05-2.55468E-05 1.97278E-05-8.01703E-19-1.25460E-19
 -1      3697 8.71834E-05-3.19142E-05-2.36993E-05 2.28339E-05-8.91992E-19 1.38172E-20
 -1      3698 7.77369E-05-2.50404E-05-2.25633E-05 2.00499E-05-1.22605E-18 9.93967E-19
 -1      3699 9.05460E-05-2.99361E-05-2.59487E-05 1.83417E-05-4.28408E-19 2.77238E-19
 -1      3700 9.52433E-05-2.85807E-05-2.85697E-05-1.53596E-08-4.41165E-19 1.71029E-18
 -1      3701 8.47475E-05-2.61681E-05-2.51086E-05 1.77044E-05-7.92690E-19 4.02837E-19
 -1      3702 9.84038E-05-3.64132E-05-2.63412E-05 2.03366E-05 1.51719E-18-9.03031E-19
 -1      3703 9.25187E-05-3.08820E-05-2.63562E-05 1.91370E-05 1.49208E-18-1.16344E-18
 -1      3704 9.69773E-05-3.20013E-05-2.79453E-05 1.44622E-05 1.20367E-18-1.19140E-18
 -1      3705 9.52490E-05-2.85844E-05-2.85705E-05-1.11244E-08-5.47232E-19-1.48934E-18
 -1      3706 9.52473E-05-2.85833E-05-2.85703E-05-1.28969E-08-5.91328E-19-4.17732E-19
 -1      3707 9.35819E-05-3.72390E-05-2.40203E-05-2.25811E-05 1.72944E-18 1.09300E-18
 -1      3708 1.14397E-04-4.86826E-05-2.80376E-05-1.26392E-05 1.30844E-18-3.29350E-19
 -1      3709 9.52453E-05-2.85813E-05-2.85704E-05-1.76566E-08-2.40010E-19 1.81204E-18
 -1      3710 1.08370E-04-4.45249E-05-2.73413E-05-1.39554E-05 9.55642E-19-7.17695E-20
 -1      3711 1.18662E-04-4.68443E-05-3.06764E-05 6.75308E-06 7.10654E-19 7.52834E-20
 -1      3712 1.16636E-04-4.81713E-05-2.93076E-05 1.37527E-05 9.36580E-19-2.95899E-19
 -1      3713 1.09035E-04-4.35348E-05-2.81041E-05 1.62640E-05 1.21098E-18-6.03610E-19
 -1      3714 1.15791E-04-4.46036E-05-3.03336E-05 6.49302E-06 7.20335E-19-1.29801E-20
 -1      3715 1.11793E-04-4.05689E-05-3.06281E-05 3.89991E-06 4.60521E-19-4.27500E-19
 -1      3716 9.52454E-05-2.85819E-05-2.85700E-05 1.44428E-08-1.49189E-18 1.95454E-18
 -1      3717 1.02124E-04-3.43521E-05-2.90244E-05 1.04736E-05 1.01443E-18-1.12547E-18
 -1      3718 9.52472E-05-2.85827E-05-2.85705E-05 1.46834E-08-1.19204E-18 1.36877E-18
 -1      3719 9.52470E-05-2.85830E-05-2.85703E-05 1.30802E-08-1.05945E-18 8.32256E-19
 -1      3720 9.52487E-05-2.85841E-05-2.85705E-05 1.13474E-08 7.63123E-20-7.62103E-21
 -1      3721 9.52486E-05-2.85832E-05-2.85709E-05 1.51114E-08 9.13926E-20 1.03613E-18
 -1      3722 8.40298E-05-2.08889E-05-2.71075E-05 8.90444E-06-9.82213E-19 7.10463E-19
 -1      3723 8.32330E-05-2.09465E-05-2.66719E-05 9.98786E-06-9.37102E-19 5.81397E-19
 -1      3724 1.04219E-04-3.38811E-05-3.01171E-05 5.38154E-06 6.74126E-19-1.14411E-18
 -1      3725 1.04916E-04-4.14991E-05-2.70096E-05-1.44963E-05 7.44092E-19-4.31454E-19
 -1      3726 1.01225E-04-3.77040E-05-2.72919E-05-1.27401E-05 1.10699E-18-9.47860E-19
 -1      3727 9.85679E-05-3.48848E-05-2.72469E-05-1.23756E-05 1.14399E-18-6.22910E-19
 -1      3728 9.68027E-05-3.28059E-05-2.74003E-05-1.14345E-05 7.36664E-19-6.06370E-19
 -1      3729 9.51210E-05-3.09415E-05-2.74875E-05-1.08752E-05 4.05953E-19-4.29348E-19
 -1      3730 9.50938E-05-3.28242E-05-2.67432E-05-1.36158E-05 1.08898E-18-5.04774E-19
 -1      3731 9.42124E-05-2.95249E-05-2.76899E-05-9.80412E-06 1.77066E-19-1.79528E-19
 -1      3732 9.32104E-05-2.82971E-05-2.78141E-05-9.13338E-06 5.51875E-19-3.38527E-19
 -1      3733 9.24072E-05-2.91155E-05-2.71660E-05-1.11859E-05 7.30319E-19-4.44229E-19
 -1      3734 9.28634E-05-2.74630E-05-2.80042E-05-8.18493E-06 3.17688E-19-2.87013E-19
 -1      3735 9.23472E-05-2.67329E-05-2.81226E-05-7.52925E-06 1.48559E-19-6.69683E-19
 -1      3736 9.12671E-05-2.69135E-05-2.76007E-05-8.99726E-06 3.21634E-19-8.77291E-19
 -1      3737 9.23241E-05-2.62998E-05-2.82787E-05-6.73065E-06 2.56541E-19-9.27653E-19
 -1      3738 9.21173E-05-2.59249E-05-2.83741E-05-6.13484E-06 3.59634E-19-9.17437E-19
 -1      3739 9.09570E-05-2.57036E-05-2.79748E-05-7.17779E-06 1.01059E-19-6.27255E-19
 -1      3740 9.22748E-05-2.57661E-05-2.84917E-05-5.47649E-06 3.85149E-19-1.47403E-18
 -1      3741 9.22537E-05-2.56310E-05-2.85599E-05-4.95303E-06 1.41565E-19-1.55313E-18
 -1      3742 9.11259E-05-2.51726E-05-2.82678E-05-5.69637E-06 1.12871E-19-1.70671E-18
 -1      3743 9.24985E-05-2.56477E-05-2.86420E-05-4.41523E-06-3.29934E-20-1.28935E-18
 -1      3744 9.25793E-05-2.56646E-05-2.86853E-05-3.96361E-06-2.01272E-19-8.44029E-19
 -1      3745 9.15468E-05-2.50872E-05-2.84810E-05-4.50234E-06 6.63501E-19-2.50442E-18
 -1      3746 9.28541E-05-2.57853E-05-2.87380E-05-3.52572E-06-4.33899E-19 1.41144E-20
 -1      3747 9.29827E-05-2.58906E-05-2.87609E-05-3.14124E-06-7.08346E-19 1.13138E-19
 -1      3748 9.20753E-05-2.52742E-05-2.86256E-05-3.54089E-06 3.39877E-19-1.54584E-18
 -1      3749 9.32532E-05-2.60650E-05-2.87908E-05-2.78592E-06-1.07978E-18-1.42398E-19
 -1      3750 9.33962E-05-2.62147E-05-2.87984E-05-2.46264E-06-9.34946E-19-5.32382E-20
 -1      3751 9.26240E-05-2.56121E-05-2.87153E-05-2.76645E-06-8.53584E-19-2.75722E-19
 -1      3752 9.36433E-05-2.64089E-05-2.88117E-05-2.17578E-06-1.22481E-18 3.11500E-20
 -1      3753 9.37814E-05-2.65738E-05-2.88088E-05-1.90742E-06-8.89833E-19-4.55321E-19
 -1      3754 9.31420E-05-2.60173E-05-2.87636E-05-2.14348E-06-8.91155E-19-3.46133E-19
 -1      3755 9.39960E-05-2.67659E-05-2.88106E-05-1.67745E-06-3.34074E-19-6.62750E-19
 -1      3756 9.41192E-05-2.69278E-05-2.88010E-05-1.45767E-06-5.66348E-19-7.81711E-19
 -1      3757 9.36026E-05-2.64349E-05-2.87824E-05-1.64416E-06-7.80241E-19-7.60783E-19
 -1      3758 9.42986E-05-2.71051E-05-2.87954E-05-1.27492E-06-8.91003E-19-7.46385E-19
 -1      3759 9.44027E-05-2.72534E-05-2.87822E-05-1.09745E-06-1.09517E-18-1.04323E-18
 -1      3760 9.39949E-05-2.68311E-05-2.87812E-05-1.24634E-06-6.23955E-19-2.80729E-19
 -1      3761 9.45480E-05-2.74093E-05-2.87723E-05-9.53725E-07-6.82554E-19-4.78324E-19
 -1      3762 9.46325E-05-2.75389E-05-2.87575E-05-8.12509E-07-8.26273E-20-3.78206E-19
 -1      3763 9.43176E-05-2.71870E-05-2.87676E-05-9.31936E-07-4.79105E-19 3.73191E-19
 -1      3764 9.47470E-05-2.76713E-05-2.87456E-05-7.00798E-07-2.83371E-19-1.08098E-18
 -1      3765 9.48133E-05-2.77806E-05-2.87308E-05-5.90125E-07-3.88461E-19-1.13992E-18
 -1      3766 9.45756E-05-2.74943E-05-2.87470E-05-6.85889E-07-5.77902E-19 1.30505E-19
 -1      3767 9.49013E-05-2.78896E-05-2.87184E-05-5.04430E-07-1.64192E-19-1.70723E-18
 -1      3768 9.49517E-05-2.79791E-05-2.87045E-05-4.19060E-07-6.97402E-21-1.89072E-18
 -1      3769 9.47764E-05-2.77513E-05-2.87234E-05-4.95522E-07-4.98202E-19-3.52440E-19
 -1      3770 9.50175E-05-2.80667E-05-2.86925E-05-3.54269E-07 5.98432E-19-2.56604E-18
 -1      3771 9.50547E-05-2.81381E-05-2.86800E-05-2.89511E-07 7.96569E-19-1.12809E-18
 -1      3772 9.49289E-05-2.79606E-05-2.86995E-05-3.50121E-07 4.93549E-19-1.44109E-18
 -1      3773 9.51027E-05-2.82069E-05-2.86691E-05-2.41311E-07 6.02751E-19-5.42858E-19
 -1      3774 9.51293E-05-2.82627E-05-2.86582E-05-1.93070E-07 5.70956E-19 5.03848E-20
 -1      3775 9.50417E-05-2.81271E-05-2.86768E-05-2.40657E-07 1.30158E-18-1.11690E-18
 -1      3776 9.51633E-05-2.83154E-05-2.86486E-05-1.57862E-07 6.38542E-19 2.63706E-19
 -1      3777 9.51817E-05-2.83580E-05-2.86395E-05-1.22636E-07 4.22037E-19 1.14512E-19
 -1      3778 9.51228E-05-2.82567E-05-2.86563E-05-1.59576E-07 8.03187E-19-2.49363E-19
 -1      3779 9.52049E-05-2.83976E-05-2.86313E-05-9.74573E-08-5.92849E-20-4.47476E-19
 -1      3780 9.52170E-05-2.84294E-05-2.86238E-05-7.23170E-08 1.14791E-20-3.37029E-19
 -1      3781 9.51795E-05-2.83554E-05-2.86385E-05-1.00626E-07-2.15387E-19-9.79604E-20
 -1      3782 9.52322E-05-2.84585E-05-2.86170E-05-5.47617E-08 6.24210E-19 1.30843E-20
 -1      3783 9.52397E-05-2.84817E-05-2.86109E-05-3.73013E-08 1.06186E-18 2.02097E-19
 -1      3784 9.52175E-05-2.84289E-05-2.86234E-05-5.86875E-08 5.12553E-19-1.63525E-19
 -1      3785 9.52490E-05-2.85025E-05-2.86054E-05-2.54439E-08 4.95056E-19-1.62490E-19
 -1      3786 9.52532E-05-2.85190E-05-2.86006E-05-1.37242E-08 6.05032E-19-3.32809E-19
 -1      3787 9.52417E-05-2.84825E-05-2.86109E-05-2.96274E-08 5.82013E-19-1.07301E-19
 -1      3788 9.52583E-05-2.85334E-05-2.85962E-05-6.04649E-09 7.66402E-19-7.80108E-20
 -1      3789 9.52602E-05-2.85448E-05-2.85925E-05 1.46792E-09 5.70473E-19-1.90713E-19
 -1      3790 9.52559E-05-2.85205E-05-2.86008E-05-1.01526E-08 3.29477E-19-1.13076E-19
 -1      3791 9.52625E-05-2.85545E-05-2.85890E-05 6.14468E-09 7.72693E-19-1.04006E-18
 -1      3792 9.52628E-05-2.85620E-05-2.85862E-05 1.06479E-08 2.71128E-19-4.46233E-19
 -1      3793 9.52633E-05-2.85466E-05-2.85928E-05 2.32219E-09 5.86399E-19-5.33220E-19
 -1      3794 9.52632E-05-2.85681E-05-2.85835E-05 1.32239E-08 2.12835E-19 1.36777E-19
 -1      3795 9.52627E-05-2.85728E-05-2.85814E-05 1.56275E-08 4.14024E-19-7.04712E-19
 -1      3796 9.52658E-05-2.85638E-05-2.85866E-05 9.79566E-09 2.98333E-19-7.19738E-19
 -1      3797 9.52618E-05-2.85765E-05-2.85794E-05 1.67780E-08 1.05806E-18-4.64032E-19
 -1      3798 9.52607E-05-2.85792E-05-2.85778E-05 1.77641E-08 1.28249E-18 2.98429E-19
 -1      3799 9.52654E-05-2.85746E-05-2.85818E-05 1.37877E-08 9.48625E-19-3.60873E-19
 -1      3800 9.52593E-05-2.85811E-05-2.85763E-05 1.79851E-08 8.34389E-19 2.08041E-20
 -1      3801 9.52579E-05-2.85825E-05-2.85752E-05 1.80518E-08 2.11684E-19 2.46668E-20
 -1      3802 9.52631E-05-2.85808E-05-2.85782E-05 1.54333E-08 1.38089E-18-8.25248E-19
 -1      3803 9.52561E-05-2.85833E-05-2.85740E-05 1.76990E-08-5.34362E-19 1.48713E-19
 -1      3804 9.52547E-05-2.85838E-05-2.85732E-05 1.71977E-08-1.33546E-20 7.23529E-19
 -1      3805 9.52598E-05-2.85839E-05-2.85755E-05 1.55582E-08 1.09404E-19-1.98577E-19
 -1      3806 9.52528E-05-2.85838E-05-2.85724E-05 1.65125E-08 7.10966E-19 3.32877E-21
 -1      3807 9.52514E-05-2.85839E-05-2.85718E-05 1.57285E-08 7.51554E-19-3.84799E-19
 -1      3808 9.52562E-05-2.85850E-05-2.85734E-05 1.47478E-08 6.90455E-20-3.93088E-19
 -1      3809 8.82819E-05-2.22670E-05-2.83167E-05 5.98927E-06-2.61593E-19 1.41691E-18
 -1      3810 8.75560E-05-2.19007E-05-2.81371E-05 6.62863E-06-3.27932E-19 1.60724E-18
 -1      3811 8.63354E-05-2.14467E-05-2.78432E-05 7.25040E-06-7.56602E-19 1.18432E-18
 -1      3812 8.55271E-05-2.12149E-05-2.75557E-05 8.05206E-06-7.94945E-19 7.50175E-19
 -1      3813 8.27614E-05-1.98659E-05-2.69099E-05 7.11836E-06-9.80638E-19-3.66463E-19
 -1      3814 9.52450E-05-2.85817E-05-2.85699E-05-1.46720E-08-5.45599E-19 5.42131E-19
 -1      3815 8.14068E-05-2.08839E-05-2.60003E-05 1.12837E-05-9.94882E-19 1.26703E-18
 -1      3816 8.08162E-05-2.15044E-05-2.53620E-05 1.28667E-05-9.66148E-19 1.40300E-18
 -1      3817 7.94422E-05-1.92216E-05-2.57528E-05 8.98662E-06-6.21781E-19 6.38167E-19
 -1      3818 8.98797E-05-2.31730E-05-2.86072E-05 4.95704E-06-4.12068E-19 7.75800E-19
 -1      3819 8.92679E-05-2.27629E-05-2.85032E-05 5.49508E-06-1.56520E-19 1.00255E-18
 -1      3820 8.76275E-05-2.18135E-05-2.81793E-05 4.87922E-06 2.22011E-20 1.08844E-18
 -1      3821 9.11641E-05-2.40622E-05-2.87724E-05 4.07621E-06-6.44423E-19 9.14781E-19
 -1      3822 9.06689E-05-2.36591E-05-2.87197E-05 4.54038E-06-6.09271E-19 6.80232E-19
 -1      3823 8.93779E-05-2.28439E-05-2.84941E-05 4.08225E-06-3.68656E-19 8.09130E-19
 -1      3824 9.21792E-05-2.48794E-05-2.88542E-05 3.31386E-06-2.02221E-19 1.09537E-18
 -1      3825 9.17895E-05-2.45097E-05-2.88348E-05 3.71573E-06-1.51446E-19 1.09580E-18
 -1      3826 9.07722E-05-2.38128E-05-2.86813E-05 3.38959E-06-5.85752E-19 1.07481E-18
 -1      3827 9.29701E-05-2.55993E-05-2.88824E-05 2.65620E-06-2.33619E-19 4.65094E-19
 -1      3828 9.26698E-05-2.52747E-05-2.88835E-05 3.00110E-06-2.58467E-19 4.40700E-19
 -1      3829 9.18722E-05-2.46856E-05-2.87824E-05 2.77829E-06-2.25844E-19 1.27322E-18
 -1      3830 9.35789E-05-2.62147E-05-2.88777E-05 2.09588E-06 3.07121E-20 2.38990E-19
 -1      3831 9.33511E-05-2.59381E-05-2.88906E-05 2.38754E-06 3.99184E-20 7.56660E-19
 -1      3832 9.27314E-05-2.54474E-05-2.88271E-05 2.24174E-06-5.00301E-19 5.00153E-19
 -1      3833 9.40421E-05-2.67291E-05-2.88542E-05 1.62631E-06-2.01593E-19-2.34581E-19
 -1      3834 9.38716E-05-2.64986E-05-2.88731E-05 1.86876E-06 2.32826E-19 3.16071E-19
 -1      3835 9.33959E-05-2.60962E-05-2.88361E-05 1.77811E-06 2.18545E-19 6.01370E-19
 -1      3836 9.43906E-05-2.71513E-05-2.88215E-05 1.23982E-06-1.22932E-18 1.54703E-19
 -1      3837 9.42647E-05-2.69626E-05-2.88425E-05 1.43782E-06-8.61318E-19-1.04442E-19
 -1      3838 9.39044E-05-2.66377E-05-2.88237E-05 1.38523E-06-7.42174E-19-1.79912E-19
 -1      3839 9.46500E-05-2.74923E-05-2.87855E-05 9.27463E-07 1.03245E-20-3.86377E-19
 -1      3840 9.45580E-05-2.73402E-05-2.88064E-05 1.08633E-06-9.56465E-19 1.38379E-19
 -1      3841 9.42894E-05-2.70821E-05-2.87996E-05 1.05910E-06-7.36397E-19 1.30047E-19
 -1      3842 9.48406E-05-2.77638E-05-2.87500E-05 6.79579E-07 7.67020E-19-9.82029E-20
 -1      3843 9.47744E-05-2.76430E-05-2.87694E-05 8.04826E-07 4.83205E-19 1.28255E-19
 -1      3844 9.45775E-05-2.74410E-05-2.87702E-05 7.93841E-07 3.16633E-20-5.39267E-19
 -1      3845 9.49788E-05-2.79770E-05-2.87172E-05 4.86397E-07 9.24698E-19 2.78169E-19
 -1      3846 9.49317E-05-2.78823E-05-2.87344E-05 5.83421E-07 9.55857E-19 1.73325E-19
 -1      3847 9.47904E-05-2.77268E-05-2.87397E-05 5.82332E-07 8.54851E-19 5.38834E-19
 -1      3848 9.50772E-05-2.81421E-05-2.86881E-05 3.38590E-07 1.07962E-18-2.72802E-19
 -1      3849 9.50445E-05-2.80689E-05-2.87029E-05 4.12414E-07 1.47174E-18 1.20582E-19
 -1      3850 9.49454E-05-2.79512E-05-2.87105E-05 4.16938E-07 1.08190E-18 2.26984E-19
 -1      3851 9.51460E-05-2.82682E-05-2.86631E-05 2.27642E-07 3.60546E-19-1.21374E-18
 -1      3852 9.51237E-05-2.82124E-05-2.86755E-05 2.82767E-07 5.14114E-19-8.60071E-19
 -1      3853 9.50563E-05-2.81249E-05-2.86841E-05 2.90100E-07 1.28765E-18 2.69784E-19
 -1      3854 9.51928E-05-2.83630E-05-2.86422E-05 1.46051E-07-7.78624E-19-2.27155E-19
 -1      3855 9.51780E-05-2.83211E-05-2.86523E-05 1.86382E-07-2.36961E-19-6.63429E-19
 -1      3856 9.51340E-05-2.82572E-05-2.86609E-05 1.94759E-07-3.10380E-19 1.18617E-18
 -1      3857 9.52235E-05-2.84331E-05-2.86251E-05 8.74015E-08-1.15901E-18 3.26764E-21
 -1      3858 9.52142E-05-2.84022E-05-2.86332E-05 1.16239E-07-7.85941E-19 2.26251E-19
 -1      3859 9.51870E-05-2.83566E-05-2.86412E-05 1.24599E-07-1.00696E-18 1.56052E-18
 -1      3860 9.52427E-05-2.84839E-05-2.86113E-05 4.63456E-08-3.32329E-19-3.89692E-19
 -1      3861 9.52372E-05-2.84616E-05-2.86178E-05 6.64151E-08-8.84211E-19-8.50548E-19
 -1      3862 9.52218E-05-2.84299E-05-2.86249E-05 7.41689E-08-2.01487E-19 7.39810E-19
 -1      3863 9.52538E-05-2.85200E-05-2.86005E-05 1.85239E-08-1.19731E-18-7.25390E-20
 -1      3864 9.52510E-05-2.85042E-05-2.86055E-05 3.20307E-08-7.82125E-19-3.92889E-19
 -1      3865 9.52436E-05-2.84829E-05-2.86116E-05 3.88924E-08-8.27150E-19-4.67561E-19
 -1      3866 9.52593E-05-2.85449E-05-2.85921E-05 4.54609E-10-6.87788E-19 1.89093E-19
 -1      3867 9.52582E-05-2.85340E-05-2.85959E-05 9.14847E-09-7.75504E-19 1.83148E-20
 -1      3868 9.52562E-05-2.85203E-05-2.86011E-05 1.50230E-08-1.28503E-18 2.02487E-19
 -1      3869 9.52611E-05-2.85614E-05-2.85857E-05-1.05887E-08 5.64789E-19-8.58208E-19
 -1      3870 9.52611E-05-2.85542E-05-2.85885E-05-5.34535E-09 4.06476E-19-1.42772E-20
 -1      3871 9.52624E-05-2.85460E-05-2.85928E-05-4.39838E-10 1.08606E-19-2.24499E-20
 -1      3872 9.52605E-05-2.85720E-05-2.85809E-05-1.67001E-08 5.18716E-19-2.30322E-19
 -1      3873 9.52612E-05-2.85674E-05-2.85830E-05-1.38662E-08 1.50392E-19-6.18648E-19
 -1      3874 9.52644E-05-2.85629E-05-2.85864E-05-9.84929E-09 9.91301E-19 6.96128E-20
 -1      3875 9.52585E-05-2.85782E-05-2.85773E-05-1.94560E-08 3.13086E-19-1.15789E-19
 -1      3876 9.52596E-05-2.85755E-05-2.85788E-05-1.82518E-08 9.69406E-19-3.24119E-19
 -1      3877 9.52638E-05-2.85736E-05-2.85815E-05-1.50139E-08 5.30250E-19 1.31777E-18
 -1      3878 9.52558E-05-2.85814E-05-2.85747E-05-2.00164E-08-5.66548E-20-4.39391E-19
 -1      3879 9.52571E-05-2.85801E-05-2.85758E-05-1.98712E-08 3.36823E-19-2.74226E-19
 -1      3880 9.52615E-05-2.85798E-05-2.85779E-05-1.72954E-08 7.39215E-19 1.02744E-18
 -1      3881 9.52529E-05-2.85828E-05-2.85729E-05-1.92131E-08-2.13347E-18-5.00276E-19
 -1      3882 9.52541E-05-2.85822E-05-2.85736E-05-1.97230E-08-1.36852E-18-2.57784E-19
 -1      3883 9.52584E-05-2.85829E-05-2.85752E-05-1.76915E-08-1.50750E-18 5.78159E-19
 -1      3884 9.52500E-05-2.85830E-05-2.85716E-05-1.76130E-08-3.43757E-19-8.99024E-19
 -1      3885 9.52511E-05-2.85829E-05-2.85721E-05-1.85039E-08-1.33222E-18-8.36889E-19
 -1      3886 9.52549E-05-2.85841E-05-2.85732E-05-1.69589E-08-1.34997E-18-7.65596E-19
 -1      3887 7.90592E-05-2.20227E-05-2.44987E-05 1.48413E-05-8.27009E-19 8.13889E-19
 -1      3888 7.93995E-05-2.36344E-05-2.37721E-05 1.69959E-05-8.55285E-19 9.85622E-19
 -1      3889 7.21650E-05-2.05958E-05-2.19849E-05 1.66889E-05-1.02099E-18 1.29323E-18
 -1      3890 7.58137E-05-1.92856E-05-2.41543E-05 1.19135E-05-1.17668E-18 1.92574E-18
 -1      3891 9.52515E-05-2.85860E-05-2.85709E-05-6.55438E-09-1.47717E-18-3.29999E-18
 -1      3892 9.52504E-05-2.85853E-05-2.85708E-05-8.78469E-09-1.19813E-18-2.30421E-18
 -1      3893 9.52511E-05-2.85851E-05-2.85711E-05-1.06137E-08-9.83087E-19-2.12169E-18
 -1      3894 9.52534E-05-2.85866E-05-2.85715E-05-5.52205E-09-1.03439E-18-2.97524E-18
 -1      3895 8.88206E-05-3.24311E-05-2.38974E-05-2.12258E-05 1.53498E-18 1.88536E-18
 -1      3896 9.75969E-05-3.85942E-05-2.54674E-05-1.93839E-05 8.20338E-19 8.87968E-19
 -1      3897 9.52471E-05-2.85827E-05-2.85705E-05-1.47969E-08 1.81309E-21 4.67084E-19
 -1      3898 9.52482E-05-2.85829E-05-2.85708E-05-1.58167E-08-3.71359E-19 1.18150E-19
 -1      3899 6.30924E-05-1.47500E-05-2.03695E-05-1.71208E-05 5.40963E-19-2.26311E-18
 -1      3900 7.17706E-05-2.11267E-05-2.15636E-05-1.71934E-05 4.05934E-19 1.35116E-18
 -1      3901 7.93796E-05-2.68973E-05-2.26619E-05-2.07036E-05 1.06890E-18 1.48968E-18
 -1      3902 9.52514E-05-2.85843E-05-2.85716E-05-1.46576E-08-9.78365E-19-2.84420E-19
 -1      3903 6.74789E-05-1.67619E-05-2.17660E-05-9.58252E-06 1.67880E-19 1.21640E-18
 -1      3904 6.91887E-05-1.87387E-05-2.15598E-05-1.41672E-05 3.69455E-19 1.48962E-18
 -1      3905 7.50206E-05-2.10391E-05-2.30487E-05-1.37442E-05 5.43041E-19 1.06050E-18
 -1      3906 1.05095E-04-3.66136E-05-2.92605E-05 9.32524E-06 8.77149E-19-8.68756E-19
 -1      3907 9.52515E-05-2.85845E-05-2.85716E-05 1.36992E-08 7.30450E-19-4.56659E-19
 -1      3908 9.52508E-05-2.85849E-05-2.85711E-05 1.08885E-08 9.28537E-19-1.07466E-18
 -1      3909 6.94979E-05-1.79252E-05-2.21771E-05 1.21342E-05-1.05142E-18 1.48077E-18
 -1      3910 8.54494E-05-2.07848E-05-2.76787E-05 5.84330E-06-6.30906E-19 4.27651E-19
 -1      3911 1.03748E-04-3.96780E-05-2.74675E-05 1.77544E-05 1.39770E-18-9.17707E-19
 -1      3912 1.10455E-04-4.13864E-05-2.96036E-05 8.89336E-06 9.67444E-19-4.13632E-19
 -1      3913 9.52563E-05-2.85874E-05-2.85724E-05 1.48872E-09-1.55464E-19-9.40585E-19
 -1      3914 9.52563E-05-2.85874E-05-2.85724E-05-1.33259E-09-8.64532E-19-1.24478E-18
 -1      3915 8.52509E-05-2.87988E-05-2.41262E-05-1.82787E-05 9.97904E-19 1.44612E-18
 -1      3916 9.52553E-05-2.85864E-05-2.85724E-05-9.61942E-09-1.56236E-18-2.79763E-18
 -1      3917 9.52537E-05-2.85855E-05-2.85721E-05-1.19814E-08-1.64325E-18-5.93620E-19
 -1      3918 9.52556E-05-2.85854E-05-2.85730E-05-1.36603E-08-1.58282E-18-1.24311E-18
 -1      3919 6.60977E-05-1.53764E-05-2.17133E-05 5.90912E-06-1.09554E-18 1.27318E-18
 -1      3920 6.13988E-05-1.37357E-05-2.02090E-05 1.60259E-06-1.00220E-18 7.64910E-19
 -1      3921 6.47080E-05-1.47459E-05-2.13740E-05-2.47089E-06-5.51882E-19 3.35101E-19
 -1      3922 9.99414E-05-3.75465E-05-2.67186E-05-1.46094E-05 6.80644E-19-5.31563E-20
 -1      3923 9.52558E-05-2.85872E-05-2.85723E-05 4.58457E-09 7.89321E-19-1.94235E-18
 -1      3924 9.52578E-05-2.85875E-05-2.85730E-05 3.18923E-09-2.40394E-19-5.42919E-19
 -1      3925 9.52550E-05-2.85867E-05-2.85721E-05 7.26376E-09 1.32795E-18-2.90504E-18
 -1      3926 1.07868E-04-4.12808E-05-2.87075E-05 1.30925E-05 1.17479E-18-7.66092E-19
 -1      3927 8.72259E-05-2.16674E-05-2.81172E-05 3.56408E-06 1.10183E-19 3.40722E-19
 -1      3928 8.62307E-05-2.11303E-05-2.79124E-05 3.91561E-06-5.39280E-20 2.98093E-19
 -1      3929 9.03206E-05-2.80797E-05-2.66299E-05-1.19643E-05 7.52111E-19 2.98370E-19
 -1      3930 8.94275E-05-2.67547E-05-2.68778E-05-1.07257E-05 4.54042E-19 3.59142E-19
 -1      3931 8.95396E-05-2.59659E-05-2.72106E-05-9.31789E-06 1.46539E-19-1.17908E-20
 -1      3932 8.92045E-05-2.52394E-05-2.74318E-05-8.30647E-06 1.17928E-19-3.44171E-19
 -1      3933 8.72484E-05-2.49325E-05-2.67003E-05-9.99565E-06 3.61473E-19 9.36622E-19
 -1      3934 8.95499E-05-2.48782E-05-2.76936E-05-7.23917E-06 8.94441E-21-2.47849E-19
 -1      3935 8.95352E-05-2.45404E-05-2.78715E-05-6.42135E-06 1.06153E-20-5.30482E-19
 -1      3936 8.77607E-05-2.39816E-05-2.73303E-05-7.49441E-06-6.51190E-20 1.41979E-19
 -1      3937 8.99871E-05-2.44628E-05-2.80674E-05-5.61559E-06-3.91753E-19-7.42745E-19
 -1      3938 9.01506E-05-2.43838E-05-2.82002E-05-4.96557E-06-1.78699E-19-1.32194E-18
 -1      3939 8.85905E-05-2.36853E-05-2.78092E-05-5.63184E-06-4.04771E-19-1.44721E-19
 -1      3940 9.06278E-05-2.44790E-05-2.83405E-05-4.35585E-06 5.78726E-19-1.75873E-18
 -1      3941 9.08767E-05-2.45601E-05-2.84337E-05-3.83870E-06 8.74520E-19-1.93123E-18
 -1      3942 8.95323E-05-2.38092E-05-2.81586E-05-4.25069E-06-1.64822E-19-5.76785E-20
 -1      3943 9.13377E-05-2.47558E-05-2.85295E-05-3.37362E-06 6.75071E-19-2.19928E-18
 -1      3944 9.16153E-05-2.49285E-05-2.85903E-05-2.96078E-06 1.68616E-19-2.02683E-18
 -1      3945 9.04743E-05-2.41794E-05-2.84035E-05-3.21468E-06 4.53149E-19-1.52426E-18
 -1      3946 9.20366E-05-2.51741E-05-2.86520E-05-2.60411E-06-2.20642E-20-1.80704E-18
 -1      3947 9.23091E-05-2.53907E-05-2.86879E-05-2.27384E-06-2.49659E-19-7.14746E-19
 -1      3948 9.13561E-05-2.46811E-05-2.85670E-05-2.43122E-06 5.63134E-19-1.88278E-18
 -1      3949 9.26790E-05-2.56514E-05-2.87241E-05-1.99934E-06-5.19630E-19-5.94993E-19
 -1      3950 9.29276E-05-2.58801E-05-2.87417E-05-1.73524E-06-7.48802E-19-4.52477E-19
 -1      3951 9.21447E-05-2.52338E-05-2.86690E-05-1.83498E-06-2.22209E-19-1.53141E-18
 -1      3952 9.32421E-05-2.61331E-05-2.87597E-05-1.52369E-06-9.90489E-19-2.57843E-19
 -1      3953 9.34578E-05-2.63537E-05-2.87646E-05-1.31316E-06-2.99776E-19 2.69202E-19
 -1      3954 9.28255E-05-2.57837E-05-2.87261E-05-1.37921E-06-5.50356E-19-1.05311E-18
 -1      3955 9.37180E-05-2.65856E-05-2.87702E-05-1.15031E-06-4.18962E-19 4.66212E-19
 -1      3956 9.38983E-05-2.67864E-05-2.87669E-05-9.83421E-07-1.19571E-19 8.01438E-19
 -1      3957 9.33963E-05-2.62972E-05-2.87517E-05-1.03007E-06-6.68627E-19 1.95833E-19
 -1      3958 9.41083E-05-2.69902E-05-2.87644E-05-8.58482E-07-3.26581E-19 3.76332E-19
 -1      3959 9.42544E-05-2.71655E-05-2.87561E-05-7.27228E-07-7.17489E-19 3.28561E-19
 -1      3960 9.38630E-05-2.67556E-05-2.87562E-05-7.62685E-07-6.23119E-19 2.46170E-19
 -1      3961 9.44202E-05-2.73389E-05-2.87488E-05-6.31908E-07-1.04358E-18-5.66250E-19
 -1      3962 9.45353E-05-2.74870E-05-2.87379E-05-5.29674E-07-1.20263E-18-6.65316E-19
 -1      3963 9.42357E-05-2.71510E-05-2.87474E-05-5.58460E-07-1.48059E-18-1.12221E-18
 -1      3964 9.46634E-05-2.76305E-05-2.87281E-05-4.57510E-07-6.73839E-19-8.77040E-19
 -1      3965 9.47518E-05-2.77522E-05-2.87163E-05-3.78778E-07-2.29012E-19-5.98537E-19
 -1      3966 9.45269E-05-2.74823E-05-2.87309E-05-4.03248E-07-8.26066E-19-4.88272E-19
 -1      3967 9.48486E-05-2.78682E-05-2.87056E-05-3.24677E-07-3.96060E-19-4.75644E-19
 -1      3968 9.49148E-05-2.79660E-05-2.86940E-05-2.64821E-07 5.00531E-19-7.48739E-19
 -1      3969 9.47495E-05-2.77532E-05-2.87108E-05-2.86129E-07-2.03399E-19-7.10489E-19
 -1      3970 9.49862E-05-2.80577E-05-2.86835E-05-2.24745E-07 1.40746E-18-1.15552E-18
 -1      3971 9.50345E-05-2.81345E-05-2.86727E-05-1.79898E-07 1.54346E-18-8.43969E-19
 -1      3972 9.49160E-05-2.79700E-05-2.86898E-05-1.98581E-07 8.31647E-19-3.09451E-19
 -1      3973 9.50860E-05-2.82056E-05-2.86629E-05-1.50637E-07 1.51740E-18-7.87730E-19
 -1      3974 9.51202E-05-2.82646E-05-2.86533E-05-1.17589E-07 5.20282E-19-5.05309E-19
 -1      3975 9.50376E-05-2.81398E-05-2.86695E-05-1.33900E-07 1.74259E-18-1.11827E-18
 -1      3976 9.51562E-05-2.83185E-05-2.86446E-05-9.65933E-08 5.13065E-20 1.02289E-18
 -1      3977 9.51796E-05-2.83630E-05-2.86363E-05-7.27011E-08 2.10403E-19 7.16416E-19
 -1      3978 9.51240E-05-2.82702E-05-2.86509E-05-8.67918E-08 1.12449E-18-5.13226E-19
 -1      3979 9.52039E-05-2.84030E-05-2.86288E-05-5.79540E-08 2.76749E-19 1.06056E-18
 -1      3980 9.52192E-05-2.84358E-05-2.86219E-05-4.10677E-08 5.89442E-19 1.24365E-18
 -1      3981 9.51835E-05-2.83683E-05-2.86346E-05-5.30765E-08 3.97711E-19 1.47689E-18
 -1      3982 9.52348E-05-2.84648E-05-2.86156E-05-3.09842E-08 4.48519E-20 5.88235E-19
 -1      3983 9.52442E-05-2.84884E-05-2.86099E-05-1.93763E-08 3.00645E-19 1.06730E-19
 -1      3984 9.52229E-05-2.84406E-05-2.86207E-05-2.94613E-08-3.87176E-19 1.46592E-18
 -1      3985 9.52536E-05-2.85089E-05-2.86048E-05-1.27206E-08 5.35704E-19 8.96128E-20
 -1      3986 9.52588E-05-2.85254E-05-2.86002E-05-5.02192E-09 4.70173E-19 3.41004E-19
 -1      3987 9.52475E-05-2.84925E-05-2.86091E-05-1.33669E-08 4.34877E-19 5.56936E-19
 -1      3988 9.52637E-05-2.85394E-05-2.85960E-05-8.40653E-10 7.48483E-19 2.60273E-19
 -1      3989 9.52660E-05-2.85506E-05-2.85925E-05 4.01872E-09 5.62494E-19 3.37996E-19
 -1      3990 9.52616E-05-2.85288E-05-2.85997E-05-2.78878E-09 6.47733E-19 7.40591E-19
 -1      3991 9.52680E-05-2.85598E-05-2.85892E-05 6.45192E-09 4.96431E-20 3.63927E-20
 -1      3992 9.52684E-05-2.85670E-05-2.85864E-05 9.29499E-09 5.78093E-20 7.00549E-19
 -1      3993 9.52683E-05-2.85533E-05-2.85921E-05 3.81565E-09-1.37832E-20 1.14930E-18
 -1      3994 9.52684E-05-2.85727E-05-2.85838E-05 1.05256E-08 1.61236E-19-6.94221E-19
 -1      3995 9.52676E-05-2.85770E-05-2.85817E-05 1.19750E-08 1.08349E-18-2.58585E-19
 -1      3996 9.52702E-05-2.85691E-05-2.85862E-05 7.61851E-09-2.59880E-19 3.74068E-20
 -1      3997 9.52664E-05-2.85803E-05-2.85797E-05 1.24072E-08 1.46255E-18-1.26429E-18
 -1      3998 9.52650E-05-2.85826E-05-2.85781E-05 1.29238E-08 5.78117E-19-1.48019E-18
 -1      3999 9.52690E-05-2.85787E-05-2.85816E-05 9.49938E-09 5.41498E-19-8.66237E-19
 -1      4000 9.52631E-05-2.85842E-05-2.85767E-05 1.28588E-08 4.81500E-20-1.86541E-18
 -1      4001 9.52614E-05-2.85853E-05-2.85755E-05 1.27894E-08-2.69183E-19-1.55205E-18
 -1      4002 9.52660E-05-2.85839E-05-2.85781E-05 1.01061E-08-1.14317E-19-1.67468E-18
 -1      4003 9.52592E-05-2.85858E-05-2.85743E-05 1.23647E-08-1.06473E-18-1.31283E-18
 -1      4004 9.52574E-05-2.85860E-05-2.85734E-05 1.19368E-08-2.18297E-19-2.13663E-18
 -1      4005 9.52621E-05-2.85862E-05-2.85754E-05 9.84740E-09-7.01598E-19-2.94546E-18
 -1      4006 8.90642E-05-2.27555E-05-2.84334E-05 3.05453E-06-3.56751E-19 8.36897E-19
 -1      4007 8.82702E-05-2.22436E-05-2.83066E-05 3.36439E-06 1.83972E-19 9.24393E-19
 -1      4008 8.71423E-05-2.15777E-05-2.80713E-05 2.46915E-06-9.36637E-20-4.28405E-20
 -1      4009 8.19550E-05-1.93720E-05-2.68650E-05 4.84997E-06-8.93425E-19-1.95127E-19
 -1      4010 8.04224E-05-1.88921E-05-2.63845E-05 5.44466E-06-3.88944E-19 2.09376E-20
 -1      4011 7.81735E-05-1.82913E-05-2.57260E-05 5.89092E-06 1.48985E-19 2.07132E-19
 -1      4012 7.63172E-05-1.79352E-05-2.50037E-05 6.78948E-06 1.04900E-19 1.12146E-18
 -1      4013 7.79712E-05-1.77547E-05-2.57308E-05 3.39734E-06 2.69713E-19 4.00428E-19
 -1      4014 9.05199E-05-2.37538E-05-2.86260E-05 2.58155E-06-6.67983E-19 3.06230E-19
 -1      4015 8.98918E-05-2.32855E-05-2.85525E-05 2.86252E-06-4.61227E-19 4.48794E-19
 -1      4016 8.89820E-05-2.26956E-05-2.83876E-05 2.19615E-06-1.15849E-19 4.16112E-19
 -1      4017 9.16682E-05-2.46430E-05-2.87346E-05 2.14311E-06-1.19627E-19 3.81247E-19
 -1      4018 9.11759E-05-2.42279E-05-2.86968E-05 2.39717E-06-4.47055E-19 5.04199E-19
 -1      4019 9.04421E-05-2.37089E-05-2.85841E-05 1.90723E-06-4.51207E-19-3.81691E-19
 -1      4020 9.25680E-05-2.54154E-05-2.87874E-05 1.74482E-06-5.26629E-19 5.97935E-19
 -1      4021 9.21859E-05-2.50567E-05-2.87728E-05 1.97056E-06-5.72093E-19 1.20903E-19
 -1      4022 9.15983E-05-2.46071E-05-2.86985E-05 1.61503E-06-3.13560E-19-3.16938E-19
 -1      4023 9.32673E-05-2.60723E-05-2.88041E-05 1.39240E-06-1.87702E-20 1.03263E-18
 -1      4024 9.29736E-05-2.57687E-05-2.88040E-05 1.58848E-06-1.23138E-20 7.13230E-19
 -1      4025 9.25084E-05-2.53864E-05-2.87574E-05 1.33406E-06-6.24046E-19 5.62992E-19
 -1      4026 9.38056E-05-2.66206E-05-2.87986E-05 1.08891E-06-8.78456E-19 3.06567E-19
 -1      4027 9.35823E-05-2.63684E-05-2.88070E-05 1.25525E-06-3.63995E-19 9.89253E-19
 -1      4028 9.32189E-05-2.60494E-05-2.87800E-05 1.07593E-06-4.21168E-19 1.17911E-18
 -1      4029 9.42156E-05-2.70707E-05-2.87804E-05 8.34197E-07-9.16870E-19-5.84154E-20
 -1      4030 9.40476E-05-2.68645E-05-2.87932E-05 9.72104E-07-1.11887E-18 2.30823E-19
 -1      4031 9.37683E-05-2.66034E-05-2.87798E-05 8.47890E-07-6.39972E-19-1.66602E-20
 -1      4032 9.45241E-05-2.74344E-05-2.87559E-05 6.25503E-07-1.45403E-19 3.50110E-19
 -1      4033 9.43992E-05-2.72684E-05-2.87704E-05 7.37381E-07-6.87654E-19-1.23466E-19
 -1      4034 9.41881E-05-2.70584E-05-2.87660E-05 6.53105E-07-7.81010E-19 2.47602E-20
 -1      4035 9.47531E-05-2.77239E-05-2.87292E-05 4.58330E-07 9.07417E-19 8.67433E-19
 -1      4036 9.46616E-05-2.75923E-05-2.87439E-05 5.47228E-07 5.66591E-19 8.22886E-19
 -1      4037 9.45050E-05-2.74264E-05-2.87451E-05 4.91537E-07-2.95113E-19 5.07152E-19
 -1      4038 9.49206E-05-2.79511E-05-2.87030E-05 3.27271E-07 8.43417E-19 6.21423E-19
 -1      4039 9.48545E-05-2.78482E-05-2.87168E-05 3.96503E-07 9.80977E-19 4.81338E-19
 -1      4040 9.47408E-05-2.77195E-05-2.87214E-05 3.60993E-07 9.86539E-19 6.53295E-19
 -1      4041 9.50408E-05-2.81267E-05-2.86788E-05 2.26674E-07 9.91109E-19 1.06983E-18
 -1      4042 9.49940E-05-2.80474E-05-2.86911E-05 2.79520E-07 9.17156E-19 8.56354E-19
 -1      4043 9.49134E-05-2.79493E-05-2.86975E-05 2.58037E-07 7.12385E-19 7.19404E-19
 -1      4044 9.51252E-05-2.82603E-05-2.86574E-05 1.51094E-07-9.65810E-19 1.80843E-18
 -1      4045 9.50929E-05-2.82002E-05-2.86680E-05 1.90610E-07 4.64504E-19 2.14800E-18
 -1      4046 9.50374E-05-2.81268E-05-2.86750E-05 1.78691E-07 2.33959E-19 1.61151E-18
 -1      4047 9.51828E-05-2.83603E-05-2.86390E-05 9.55765E-08-3.67214E-19 1.04323E-18
 -1      4048 9.51612E-05-2.83155E-05-2.86479E-05 1.24482E-07-9.40774E-19 1.49266E-18
 -1      4049 9.51244E-05-2.82616E-05-2.86548E-05 1.18927E-07-2.14047E-19 1.42205E-18
 -1      4050 9.52209E-05-2.84339E-05-2.86235E-05 5.57970E-08-1.54169E-20 4.82654E-19
 -1      4051 9.52070E-05-2.84010E-05-2.86309E-05 7.64287E-08 6.86691E-21 1.99369E-19
 -1      4052 9.51837E-05-2.83624E-05-2.86373E-05 7.49691E-08 2.53901E-20 4.04077E-19
 -1      4053 9.52446E-05-2.84867E-05-2.86109E-05 2.81023E-08-1.12337E-18 7.96970E-19
 -1      4054 9.52363E-05-2.84632E-05-2.86168E-05 4.24118E-08-1.31549E-19 6.32035E-19
 -1      4055 9.52227E-05-2.84363E-05-2.86225E-05 4.34623E-08 1.23098E-19 5.79871E-19
 -1      4056 9.52583E-05-2.85239E-05-2.86007E-05 9.49156E-09-1.24342E-18 1.49244E-19
 -1      4057 9.52538E-05-2.85074E-05-2.86054E-05 1.90682E-08-1.42078E-18 2.90041E-19
 -1      4058 9.52470E-05-2.84892E-05-2.86103E-05 2.15419E-08-6.08859E-19 5.52447E-19
 -1      4059 9.52651E-05-2.85492E-05-2.85927E-05-2.44188E-09 1.45505E-19 3.57700E-19
 -1      4060 9.52632E-05-2.85380E-05-2.85964E-05 3.66801E-09-9.53049E-19-2.33358E-19
 -1      4061 9.52608E-05-2.85263E-05-2.86004E-05 6.83705E-09-5.99603E-19-5.21811E-19
 -1      4062 9.52672E-05-2.85657E-05-2.85864E-05-9.58514E-09 5.29857E-19 1.06571E-18
 -1      4063 9.52670E-05-2.85585E-05-2.85893E-05-5.95441E-09 8.71029E-19 6.51631E-19
 -1      4064 9.52675E-05-2.85513E-05-2.85926E-05-2.56201E-09 1.14257E-19 3.24183E-19
 -1      4065 9.52664E-05-2.85759E-05-2.85817E-05-1.33857E-08 4.49457E-19 1.30442E-18
 -1      4066 9.52672E-05-2.85715E-05-2.85838E-05-1.14797E-08-1.02509E-19 1.20766E-18
 -1      4067 9.52694E-05-2.85676E-05-2.85865E-05-8.15628E-09 2.75542E-19 5.07211E-19
 -1      4068 9.52638E-05-2.85817E-05-2.85781E-05-1.49312E-08 2.35149E-19 8.58773E-19
 -1      4069 9.52653E-05-2.85792E-05-2.85797E-05-1.41857E-08 1.43067E-18 1.82895E-18
 -1      4070 9.52682E-05-2.85775E-05-2.85818E-05-1.10965E-08 4.56413E-19 1.53311E-18
 -1      4071 9.52604E-05-2.85844E-05-2.85754E-05-1.49940E-08-1.02582E-18 1.26118E-18
 -1      4072 9.52621E-05-2.85833E-05-2.85766E-05-1.50280E-08-7.44685E-19 1.64944E-18
 -1      4073 9.52653E-05-2.85830E-05-2.85782E-05-1.22617E-08-7.51295E-19 1.95704E-18
 -1      4074 9.52572E-05-2.85853E-05-2.85736E-05-1.41288E-08-6.71353E-19-1.06082E-18
 -1      4075 9.52589E-05-2.85849E-05-2.85745E-05-1.45905E-08-5.51335E-19-2.25553E-19
 -1      4076 9.52622E-05-2.85855E-05-2.85758E-05-1.21868E-08 4.84489E-19 3.68226E-19
 -1      4077 9.52594E-05-2.85863E-05-2.85742E-05-1.14352E-08-8.80650E-19 9.24079E-20
 -1      4078 7.39316E-05-1.76548E-05-2.42196E-05 8.23050E-06-8.93317E-19 1.57440E-18
 -1      4079 7.22276E-05-1.77102E-05-2.32964E-05 9.81579E-06-1.20861E-18 1.70702E-18
 -1      4080 6.85508E-05-1.61746E-05-2.23108E-05 8.05890E-06-1.24249E-18 1.85556E-18
 -1      4081 7.33452E-05-1.65519E-05-2.42425E-05 4.73731E-06 1.46417E-19 5.46015E-19
 -1      4082 8.18939E-05-2.51150E-05-2.42519E-05-1.58999E-05 6.19072E-19 1.31786E-18
 -1      4083 8.89685E-05-3.03903E-05-2.52529E-05-1.67968E-05 8.31391E-19 1.41439E-18
 -1      4084 8.49045E-05-2.05231E-05-2.76215E-05 4.13500E-06-7.66017E-19 1.38520E-19
 -1      4085 8.36649E-05-1.99896E-05-2.73039E-05 4.56591E-06-1.31615E-18-4.39374E-19
 -1      4086 8.48176E-05-2.03717E-05-2.75818E-05 2.72544E-06-8.15133E-19-5.11959E-19
 -1      4087 9.52566E-05-2.85873E-05-2.85725E-05-4.11125E-09-6.87326E-19-2.76775E-18
 -1      4088 9.52558E-05-2.85869E-05-2.85724E-05-6.84088E-09-4.34361E-19-3.02258E-18
 -1      4089 9.52585E-05-2.85870E-05-2.85735E-05-8.14653E-09-1.16985E-18-2.07088E-18
 -1      4090 9.52586E-05-2.85876E-05-2.85733E-05-2.63171E-09-6.76251E-19-1.58300E-18
 -1      4091 9.52537E-05-2.85857E-05-2.85720E-05 1.11926E-08 1.36512E-18-1.84210E-18
 -1      4092 9.52597E-05-2.85876E-05-2.85738E-05 4.84507E-09 7.06084E-19-1.11343E-19
 -1      4093 9.52602E-05-2.85878E-05-2.85739E-05 1.81135E-09-5.63480E-19-2.00785E-20
 -1      4094 9.14572E-05-3.09395E-05-2.58940E-05-1.51819E-05 9.56671E-19 5.57100E-19
 -1      4095 8.98172E-05-2.87935E-05-2.61560E-05-1.36744E-05 7.56620E-19 4.43150E-19
 -1      4096 9.54072E-05-3.45638E-05-2.59493E-05-1.65670E-05 1.06000E-18 3.23633E-19
 -1      4097 8.18459E-05-1.90916E-05-2.68416E-05 2.99903E-06-7.62927E-19 1.68799E-19
 -1      4098 8.66382E-05-2.62913E-05-2.58547E-05-1.30401E-05 2.96750E-19 1.11239E-18
 -1      4099 9.52609E-05-2.85878E-05-2.85742E-05-1.17580E-09-1.61322E-19-1.19471E-18
 -1      4100 9.52613E-05-2.85877E-05-2.85744E-05-3.86384E-09 1.84208E-19-2.12221E-18
 -1      4101 9.52629E-05-2.85877E-05-2.85751E-05 6.59494E-10 9.45865E-19 1.69630E-20
 -1      4102 9.52561E-05-2.85862E-05-2.85728E-05 1.02563E-08 6.21378E-19-2.34704E-18
 -1      4103 6.86870E-05-1.56057E-05-2.28348E-05 3.90718E-06-6.47874E-19 5.76280E-19
 -1      4104 6.80331E-05-1.57566E-05-2.22782E-05-5.64232E-06-1.38424E-19 4.03209E-19
 -1      4105 7.20446E-05-1.74475E-05-2.34396E-05-7.33935E-06-1.01290E-19 8.01601E-19
 -1      4106 6.95595E-05-1.56446E-05-2.30954E-05-9.50182E-07-3.69882E-19-4.77693E-19
 -1      4107 8.73117E-05-2.18017E-05-2.80912E-05 1.35231E-06-1.80654E-19 3.77386E-19
 -1      4108 8.62574E-05-2.12303E-05-2.78927E-05 1.39042E-06-1.80931E-19-9.68773E-20
 -1      4109 8.33937E-05-2.42638E-05-2.52938E-05-1.25321E-05 3.35213E-19 1.27423E-18
 -1      4110 8.38036E-05-2.37926E-05-2.57920E-05-1.11432E-05 2.41156E-20 8.49404E-19
 -1      4111 9.52587E-05-2.85870E-05-2.85736E-05 8.00607E-09-7.85272E-20-2.08539E-18
 -1      4112 8.60154E-05-2.29498E-05-2.70103E-05-7.15730E-06 2.45401E-19 2.27750E-19
 -1      4113 8.63807E-05-2.27756E-05-2.72992E-05-6.14979E-06-5.07058E-20 1.27876E-19
 -1      4114 8.72830E-05-2.28718E-05-2.75913E-05-5.23185E-06-4.80759E-19 1.75270E-19
 -1      4115 8.77332E-05-2.29304E-05-2.78025E-05-4.50422E-06-5.80489E-19 2.38398E-19
 -1      4116 8.56797E-05-2.18382E-05-2.72938E-05-4.89149E-06-4.72203E-19-1.29652E-20
 -1      4117 8.85269E-05-2.31525E-05-2.80100E-05-3.84881E-06-2.11994E-19 1.86293E-19
 -1      4118 8.90022E-05-2.33463E-05-2.81605E-05-3.30946E-06 1.00545E-20 3.22064E-19
 -1      4119 8.73345E-05-2.23333E-05-2.78076E-05-3.45939E-06-3.36383E-19 3.18580E-20
 -1      4120 8.96948E-05-2.36436E-05-2.83039E-05-2.84010E-06-1.96592E-19-1.88422E-19
 -1      4121 9.01550E-05-2.39118E-05-2.84067E-05-2.43620E-06 3.77225E-19-9.87327E-19
 -1      4122 8.87956E-05-2.29824E-05-2.81674E-05-2.44826E-06-1.68684E-19 4.56076E-19
 -1      4123 9.07498E-05-2.42418E-05-2.85020E-05-2.09948E-06 6.17344E-19-1.25337E-18
 -1      4124 9.11713E-05-2.45411E-05-2.85685E-05-1.79447E-06 4.30012E-19-1.37044E-18
 -1      4125 9.00650E-05-2.37024E-05-2.84116E-05-1.73400E-06-1.02790E-19-4.94706E-19
 -1      4126 9.16736E-05-2.48738E-05-2.86284E-05-1.55246E-06 3.39056E-19-1.93212E-18
 -1      4127 9.20443E-05-2.51747E-05-2.86680E-05-1.32050E-06-2.14395E-19-1.28559E-18
 -1      4128 9.11493E-05-2.44318E-05-2.85703E-05-1.22864E-06 2.06480E-19-1.65580E-18
 -1      4129 9.24611E-05-2.54900E-05-2.87025E-05-1.14636E-06-3.36533E-19-1.63794E-18
 -1      4130 9.27768E-05-2.57737E-05-2.87229E-05-9.69042E-07-5.07075E-19-1.35942E-18
 -1      4131 9.20593E-05-2.51282E-05-2.86670E-05-8.70439E-07-2.58845E-19-2.04875E-18
 -1      4132 9.31167E-05-2.60595E-05-2.87398E-05-8.43652E-07-8.97263E-19-8.58997E-19
 -1      4133 9.33783E-05-2.63148E-05-2.87470E-05-7.07734E-07-4.96894E-19-6.42423E-19
 -1      4134 9.28096E-05-2.57648E-05-2.87198E-05-6.16065E-07-4.02826E-19-1.93381E-18
 -1      4135 9.36507E-05-2.65650E-05-2.87520E-05-6.17459E-07-8.00122E-19-9.43090E-19
 -1      4136 9.38622E-05-2.67870E-05-2.87507E-05-5.13238E-07-1.36913E-18-1.22540E-18
 -1      4137 9.34174E-05-2.63270E-05-2.87425E-05-4.35050E-07-8.98570E-19-1.80208E-18
 -1      4138 9.40765E-05-2.69999E-05-2.87481E-05-4.48315E-07-1.30957E-18-1.46832E-18
 -1      4139 9.42437E-05-2.71873E-05-2.87416E-05-3.68569E-07-1.28559E-18-1.28009E-18
 -1      4140 9.39008E-05-2.68095E-05-2.87455E-05-3.05978E-07-1.37005E-18-1.74525E-18
 -1      4141 9.44093E-05-2.73640E-05-2.87345E-05-3.21992E-07-1.00459E-18-4.66563E-19
 -1      4142 9.45386E-05-2.75184E-05-2.87253E-05-2.61249E-07-6.77298E-19-2.49914E-19
 -1      4143 9.42785E-05-2.72135E-05-2.87362E-05-2.13798E-07-8.37143E-19-1.54920E-18
 -1      4144 9.46643E-05-2.76619E-05-2.87160E-05-2.27976E-07-4.45103E-19-6.00416E-19
 -1      4145 9.47621E-05-2.77863E-05-2.87056E-05-1.82019E-07 2.28561E-20-2.85288E-19
 -1      4146 9.45683E-05-2.75444E-05-2.87202E-05-1.47921E-07-8.24799E-19-5.10176E-19
 -1      4147 9.48555E-05-2.79004E-05-2.86955E-05-1.58408E-07 4.53819E-19 4.34448E-19
 -1      4148 9.49279E-05-2.79987E-05-2.86851E-05-1.23952E-07 1.36843E-18 9.75625E-20
 -1      4149 9.47862E-05-2.78101E-05-2.87010E-05-1.00882E-07 5.78691E-19 2.27387E-19
 -1      4150 9.49958E-05-2.80877E-05-2.86753E-05-1.07357E-07 1.48627E-18-5.19433E-19
 -1      4151 9.50480E-05-2.81638E-05-2.86655E-05-8.18165E-08 1.30633E-18-9.50886E-19
 -1      4152 9.49468E-05-2.80192E-05-2.86811E-05-6.73947E-08 7.71688E-19 7.50090E-21
 -1      4153 9.50961E-05-2.82319E-05-2.86563E-05-7.03095E-08 1.17596E-18-9.92619E-19
 -1      4154 9.51327E-05-2.82896E-05-2.86476E-05-5.16399E-08 1.04351E-18-8.45239E-19
 -1      4155 9.50624E-05-2.81808E-05-2.86620E-05-4.36927E-08 1.39660E-18-5.49841E-19
 -1      4156 9.51658E-05-2.83407E-05-2.86395E-05-4.38089E-08 1.24698E-18-5.45392E-19
 -1      4157 9.51905E-05-2.83836E-05-2.86319E-05-3.03919E-08 4.81342E-19-5.47578E-19
 -1      4158 9.51434E-05-2.83034E-05-2.86447E-05-2.70719E-08 7.45639E-19-1.96841E-18
 -1      4159 9.52124E-05-2.84212E-05-2.86249E-05-2.51995E-08-2.51773E-19 1.55490E-19
 -1      4160 9.52284E-05-2.84524E-05-2.86185E-05-1.57572E-08-1.18987E-19 2.63906E-19
 -1      4161 9.51982E-05-2.83944E-05-2.86296E-05-1.55758E-08 5.17666E-19-1.66434E-18
 -1      4162 9.52421E-05-2.84793E-05-2.86127E-05-1.24401E-08-3.71735E-19 7.15686E-19
 -1      4163 9.52517E-05-2.85014E-05-2.86074E-05-5.96824E-09 2.70608E-19 9.17415E-20
 -1      4164 9.52337E-05-2.84606E-05-2.86167E-05-7.77857E-09 1.23825E-19-5.40254E-19
 -1      4165 9.52595E-05-2.85201E-05-2.86026E-05-3.96529E-09 8.49296E-19 2.76685E-19
 -1      4166 9.52647E-05-2.85353E-05-2.85984E-05 3.18991E-10 9.05638E-19 3.57905E-19
 -1      4167 9.52552E-05-2.85075E-05-2.86060E-05-2.63494E-09 3.30636E-19-7.03488E-19
 -1      4168 9.52684E-05-2.85479E-05-2.85945E-05 1.41874E-09 3.16022E-19 3.21708E-19
 -1      4169 9.52705E-05-2.85579E-05-2.85912E-05 4.11975E-09-2.68460E-19 2.39439E-19
 -1      4170 9.52669E-05-2.85398E-05-2.85973E-05 6.23858E-10-2.34455E-20-8.19398E-19
 -1      4171 9.52716E-05-2.85661E-05-2.85881E-05 4.61516E-09-1.09209E-18 3.65148E-19
 -1      4172 9.52717E-05-2.85723E-05-2.85855E-05 6.19319E-09-6.36901E-19-2.87455E-19
 -1      4173 9.52718E-05-2.85611E-05-2.85903E-05 2.56404E-09-6.06066E-19-3.50155E-19
 -1      4174 9.52711E-05-2.85772E-05-2.85831E-05 6.29595E-09 4.47735E-19-1.48775E-18
 -1      4175 9.52700E-05-2.85808E-05-2.85811E-05 7.09513E-09 4.29658E-19-1.47518E-18
 -1      4176 9.52723E-05-2.85745E-05-2.85848E-05 3.60206E-09-5.77316E-19-1.63304E-18
 -1      4177 9.52684E-05-2.85835E-05-2.85792E-05 6.95899E-09-1.17097E-19-1.43341E-18
 -1      4178 9.52666E-05-2.85853E-05-2.85777E-05 7.24335E-09-7.17791E-19-1.78267E-18
 -1      4179 9.52702E-05-2.85822E-05-2.85806E-05 4.05246E-09-2.79129E-19-2.62272E-18
 -1      4180 9.05020E-05-2.38514E-05-2.85743E-05 1.20405E-06-2.94736E-19 2.01465E-19
 -1      4181 8.98441E-05-2.33780E-05-2.84973E-05 1.30064E-06-3.04932E-19 3.46154E-19
 -1      4182 9.16307E-05-2.47199E-05-2.86841E-05 1.05631E-06-5.84780E-19-1.37635E-19
 -1      4183 9.11128E-05-2.43027E-05-2.86411E-05 1.16391E-06-2.99720E-19-3.06584E-20
 -1      4184 9.06531E-05-2.39365E-05-2.85631E-05 6.28245E-07-1.59982E-19 6.45585E-19
 -1      4185 9.25248E-05-2.54759E-05-2.87419E-05 8.93077E-07-9.09288E-19 6.90023E-19
 -1      4186 9.21199E-05-2.51157E-05-2.87215E-05 1.00154E-06-9.88142E-19 2.34108E-19
 -1      4187 9.17372E-05-2.47868E-05-2.86705E-05 6.02261E-07-1.07474E-18 8.41421E-19
 -1      4188 9.32267E-05-2.61208E-05-2.87652E-05 7.31352E-07-7.20292E-19 9.04015E-19
 -1      4189 9.29129E-05-2.58159E-05-2.87595E-05 8.33502E-07-8.17105E-19 7.56754E-19
 -1      4190 9.26008E-05-2.55287E-05-2.87280E-05 5.38321E-07-8.38847E-19 6.37434E-19
 -1      4191 9.37719E-05-2.66607E-05-2.87665E-05 5.81972E-07-2.98775E-19-2.13089E-21
 -1      4192 9.35313E-05-2.64070E-05-2.87699E-05 6.73450E-07-3.78836E-19 7.15121E-19
 -1      4193 9.32818E-05-2.61629E-05-2.87523E-05 4.57448E-07-4.08453E-19 3.50392E-19
 -1      4194 9.41903E-05-2.71047E-05-2.87546E-05 4.50810E-07-1.07072E-18 8.74366E-19
 -1      4195 9.40080E-05-2.68973E-05-2.87632E-05 5.29552E-07-8.80246E-19 7.41109E-19
 -1      4196 9.38125E-05-2.66946E-05-2.87551E-05 3.73426E-07-9.23220E-19 1.09174E-19
 -1      4197 9.45071E-05-2.74639E-05-2.87356E-05 3.40112E-07 4.83869E-19 3.54618E-19
 -1      4198 9.43708E-05-2.72970E-05-2.87467E-05 4.05713E-07-5.31600E-20 1.14165E-18
 -1      4199 9.42207E-05-2.71323E-05-2.87450E-05 2.94534E-07-6.77140E-19 1.00346E-18
 -1      4200 9.47432E-05-2.77498E-05-2.87137E-05 2.49702E-07 4.01633E-19 1.52367E-18
 -1      4201 9.46429E-05-2.76176E-05-2.87256E-05 3.02837E-07 2.99905E-19 1.19694E-18
 -1      4202 9.45300E-05-2.74864E-05-2.87277E-05 2.25106E-07-5.50969E-20 7.82890E-19
 -1      4203 9.49163E-05-2.79737E-05-2.86913E-05 1.77949E-07 9.39728E-19 2.24108E-18
 -1      4204 9.48437E-05-2.78707E-05-2.87029E-05 2.19912E-07 1.01185E-18 2.19455E-18
 -1      4205 9.47607E-05-2.77683E-05-2.87073E-05 1.66816E-07 5.79986E-19 3.31055E-18
 -1      4206 9.50406E-05-2.81464E-05-2.86702E-05 1.22486E-07 8.65745E-20 1.37383E-18
 -1      4207 9.49892E-05-2.80673E-05-2.86808E-05 1.54847E-07 5.46013E-19 1.49659E-18
 -1      4208 9.49297E-05-2.79889E-05-2.86863E-05 1.19678E-07 9.40254E-19 2.19133E-18
 -1      4209 9.51277E-05-2.82773E-05-2.86511E-05 8.06935E-08 1.63522E-19 1.01223E-18
 -1      4210 9.50923E-05-2.82176E-05-2.86605E-05 1.05076E-07 3.56693E-19 1.55668E-18
 -1      4211 9.50508E-05-2.81587E-05-2.86662E-05 8.27630E-08 3.22984E-19 9.73567E-19
 -1      4212 9.51871E-05-2.83748E-05-2.86345E-05 5.00112E-08 6.38818E-19-2.12207E-19
 -1      4213 9.51634E-05-2.83305E-05-2.86425E-05 6.79471E-08 3.80953E-19 5.57713E-19
 -1      4214 9.51356E-05-2.82872E-05-2.86481E-05 5.46930E-08 3.92715E-19 3.11852E-19
 -1      4215 9.52258E-05-2.84459E-05-2.86204E-05 2.81092E-08-2.41565E-19-2.77107E-19
 -1      4216 9.52108E-05-2.84138E-05-2.86272E-05 4.09647E-08 2.71312E-19-9.14680E-20
 -1      4217 9.51930E-05-2.83827E-05-2.86322E-05 3.39541E-08 2.14543E-19-1.50200E-19
 -1      4218 9.52498E-05-2.84966E-05-2.86088E-05 1.29713E-08 3.94458E-19-4.66815E-19
 -1      4219 9.52409E-05-2.84739E-05-2.86143E-05 2.19153E-08 2.73907E-19-3.30517E-19
 -1      4220 9.52302E-05-2.84521E-05-2.86187E-05 1.90857E-08 8.68318E-20-7.29934E-19
 -1      4221 9.52633E-05-2.85319E-05-2.85994E-05 2.91724E-09-8.88759E-20-1.63678E-18
 -1      4222 9.52586E-05-2.85162E-05-2.86038E-05 8.91727E-09-8.97267E-21-6.77843E-19
 -1      4223 9.52530E-05-2.85015E-05-2.86076E-05 8.78003E-09 5.73847E-20-6.69807E-19
 -1      4224 9.52695E-05-2.85555E-05-2.85918E-05-3.41099E-09 3.70826E-20-7.77574E-19
 -1      4225 9.52677E-05-2.85451E-05-2.85953E-05 4.24220E-10-4.30436E-19-8.47695E-19
 -1      4226 9.52655E-05-2.85356E-05-2.85985E-05 1.92385E-09 9.60843E-20-2.56737E-18
 -1      4227 9.52711E-05-2.85706E-05-2.85860E-05-7.08141E-09 4.69582E-19 4.95696E-19
 -1      4228 9.52711E-05-2.85640E-05-2.85887E-05-4.79958E-09 2.30781E-20-6.52841E-20
 -1      4229 9.52711E-05-2.85583E-05-2.85912E-05-2.39527E-09-8.16810E-19-1.19896E-18
 -1      4230 9.52696E-05-2.85797E-05-2.85814E-05-8.91308E-09-1.96381E-19 7.98244E-19
 -1      4231 9.52708E-05-2.85758E-05-2.85835E-05-7.71608E-09 8.61716E-19 7.37372E-19
 -1      4232 9.52721E-05-2.85726E-05-2.85855E-05-4.90327E-09 1.78789E-19-1.42105E-19
 -1      4233 9.52664E-05-2.85845E-05-2.85779E-05-9.51569E-09-1.03771E-18 1.22098E-19
 -1      4234 9.52682E-05-2.85825E-05-2.85795E-05-9.04127E-09-8.73655E-19-1.70272E-20
 -1      4235 9.52702E-05-2.85811E-05-2.85811E-05-6.15018E-09-8.86032E-20-3.10033E-20
 -1      4236 7.68381E-05-2.02095E-05-2.41819E-05-1.08277E-05 2.44087E-19 8.32735E-19
 -1      4237 7.90003E-05-2.24522E-05-2.42377E-05-1.36186E-05 4.25146E-19 6.06438E-19
 -1      4238 8.50808E-05-2.06457E-05-2.76361E-05 1.29214E-06-6.65841E-19-1.10121E-19
 -1      4239 8.37355E-05-2.00364E-05-2.73342E-05 1.28924E-06-9.40127E-19-2.38964E-20
 -1      4240 8.55354E-05-2.08116E-05-2.76688E-05 1.23387E-07-5.77163E-19 4.12809E-19
 -1      4241 7.85282E-05-1.80963E-05-2.59393E-05 7.75200E-07-1.06243E-19 5.58163E-19
 -1      4242 7.62027E-05-1.74016E-05-2.52604E-05 7.74644E-07 3.20890E-19 2.53986E-20
 -1      4243 9.52609E-05-2.85873E-05-2.85744E-05-6.36063E-09-2.17474E-19-1.93987E-18
 -1      4244 9.52604E-05-2.85868E-05-2.85744E-05-9.04900E-09-1.18005E-18-6.35436E-19
 -1      4245 9.52619E-05-2.85865E-05-2.85751E-05-9.44141E-09 1.12187E-18-1.00373E-19
 -1      4246 9.52632E-05-2.85873E-05-2.85754E-05-4.81707E-09 3.56622E-19-1.04953E-18
 -1      4247 8.48702E-05-2.35106E-05-2.62724E-05-9.62825E-06 1.88308E-19 5.65411E-19
 -1      4248 8.50406E-05-2.29966E-05-2.66485E-05-8.24775E-06 3.74353E-19 3.87319E-19
 -1      4249 8.38704E-05-2.15437E-05-2.66171E-05-6.74207E-06 1.36520E-19-2.48148E-19
 -1      4250 8.18737E-05-2.15233E-05-2.57447E-05-9.11504E-06 1.35112E-20 2.13320E-19
 -1      4251 8.22389E-05-1.94118E-05-2.69541E-05 1.10305E-06-7.98939E-19 7.18754E-20
 -1      4252 8.04970E-05-1.87680E-05-2.65017E-05 1.08160E-06-2.74915E-19 7.02039E-19
 -1      4253 7.95229E-05-1.83824E-05-2.60876E-05-1.31505E-06-3.92934E-19 2.93954E-19
 -1      4254 9.52611E-05-2.85872E-05-2.85745E-05 6.64323E-09-6.97433E-19-1.24823E-18
 -1      4255 8.90856E-05-2.28751E-05-2.83880E-05 1.31256E-06-1.65534E-19 2.69671E-19
 -1      4256 8.82530E-05-2.23494E-05-2.82613E-05 1.38585E-06-4.59540E-21 4.94483E-19
 -1      4257 8.76248E-05-2.19371E-05-2.80997E-05 4.35696E-07-3.35683E-19 7.60940E-20
 -1      4258 8.93022E-05-2.29830E-05-2.83833E-05 5.86271E-07-2.96533E-19 1.23207E-19
 -1      4259 9.52633E-05-2.85868E-05-2.85756E-05 6.74389E-09-4.17190E-19-9.42551E-19
 -1      4260 7.60937E-05-1.90635E-05-2.45162E-05-7.50321E-06-1.66998E-19 7.49383E-19
 -1      4261 9.52653E-05-2.85866E-05-2.85766E-05 3.80941E-09-2.63391E-19-1.01032E-18
 -1      4262 8.29014E-05-1.96225E-05-2.70284E-05-4.25208E-07-8.71994E-19 2.96066E-19
 -1      4263 9.52635E-05-2.85861E-05-2.85760E-05-9.31484E-09 1.12332E-18-1.19585E-18
 -1      4264 9.52649E-05-2.85854E-05-2.85769E-05-9.52337E-09-1.47363E-19-5.25820E-19
 -1      4265 9.52673E-05-2.85852E-05-2.85781E-05-6.65625E-09-3.42669E-19-1.33323E-18
 -1      4266 9.52642E-05-2.85865E-05-2.85762E-05-6.99230E-09 3.01505E-19-1.49459E-18
 -1      4267 7.35608E-05-1.66965E-05-2.44242E-05 2.70814E-07 1.34499E-19-1.91340E-19
 -1      4268 7.11987E-05-1.61500E-05-2.35861E-05 1.06403E-06-3.97093E-19-1.18634E-19
 -1      4269 7.83774E-05-1.94689E-05-2.52893E-05-6.31504E-06-1.26474E-19 6.58411E-19
 -1      4270 7.95617E-05-1.95785E-05-2.58096E-05-5.10942E-06-2.52153E-19 5.28307E-19
 -1      4271 9.52664E-05-2.85866E-05-2.85771E-05 9.53516E-10-1.42842E-19-8.83817E-19
 -1      4272 7.49997E-05-1.70398E-05-2.47098E-05-2.75529E-06-3.66173E-19 2.03200E-19
 -1      4273 8.14876E-05-2.00854E-05-2.63710E-05-4.35888E-06-4.49081E-19 5.18349E-19
 -1      4274 8.25411E-05-2.03018E-05-2.67548E-05-3.46665E-06-3.56048E-19-1.53980E-19
 -1      4275 8.62246E-05-2.16282E-05-2.77215E-05-1.90378E-06-4.99744E-19-3.42535E-21
 -1      4276 8.70793E-05-2.19873E-05-2.79396E-05-1.36672E-06-1.20693E-19 2.31561E-19
 -1      4277 8.80381E-05-2.24949E-05-2.81186E-05-1.18156E-06-2.42792E-19 2.76645E-19
 -1      4278 8.87710E-05-2.28849E-05-2.82681E-05-8.08951E-07-3.39540E-19-3.75714E-19
 -1      4279 8.95442E-05-2.33648E-05-2.83850E-05-7.07101E-07-1.81026E-19 4.55743E-20
 -1      4280 9.01657E-05-2.37567E-05-2.84837E-05-4.49355E-07-2.95609E-19-5.71468E-19
 -1      4281 9.07890E-05-2.41978E-05-2.85567E-05-4.03076E-07-3.54901E-19-2.98453E-19
 -1      4282 9.13090E-05-2.45709E-05-2.86187E-05-2.25250E-07-3.51383E-19-5.79496E-19
 -1      4283 9.18088E-05-2.49657E-05-2.86610E-05-2.14222E-07-5.36225E-19-1.01548E-18
 -1      4284 9.22375E-05-2.53068E-05-2.86967E-05-9.17897E-08-6.81960E-19-1.47976E-18
 -1      4285 9.26349E-05-2.56516E-05-2.87181E-05-1.01450E-07-5.05559E-19-1.31218E-18
 -1      4286 9.29827E-05-2.59533E-05-2.87357E-05-1.72441E-08-5.30561E-19-1.13827E-18
 -1      4287 9.32951E-05-2.62477E-05-2.87431E-05-3.75636E-08-4.88469E-19-8.56961E-19
 -1      4288 9.35727E-05-2.65074E-05-2.87486E-05 2.03687E-08-1.02901E-18-1.20189E-18
 -1      4289 9.38153E-05-2.67537E-05-2.87473E-05-4.05440E-09-1.25956E-18-8.92710E-19
 -1      4290 9.40331E-05-2.69718E-05-2.87451E-05 3.58692E-08-1.13598E-18-4.92997E-19
 -1      4291 9.42188E-05-2.71739E-05-2.87386E-05 1.13489E-08-5.77793E-19-4.71173E-19
 -1      4292 9.43868E-05-2.73532E-05-2.87319E-05 3.89381E-08-5.57836E-19-5.83446E-19
 -1      4293 9.45268E-05-2.75162E-05-2.87226E-05 1.65405E-08-5.32444E-19 1.06368E-20
 -1      4294 9.46539E-05-2.76607E-05-2.87136E-05 3.56681E-08 1.07212E-19 5.77504E-19
 -1      4295 9.47578E-05-2.77898E-05-2.87033E-05 1.64231E-08 3.49131E-19 6.49177E-19
 -1      4296 9.48520E-05-2.79041E-05-2.86935E-05 2.97236E-08 8.07771E-19 4.51216E-19
 -1      4297 9.49275E-05-2.80047E-05-2.86833E-05 1.39143E-08 7.67301E-19 3.13689E-19
 -1      4298 9.49960E-05-2.80934E-05-2.86735E-05 2.31787E-08 8.12694E-19-7.75102E-20
 -1      4299 9.50497E-05-2.81704E-05-2.86640E-05 1.06546E-08 8.30300E-19-3.14291E-19
 -1      4300 9.50981E-05-2.82381E-05-2.86549E-05 1.71042E-08 8.04676E-19-6.77073E-19
 -1      4301 9.51352E-05-2.82959E-05-2.86464E-05 7.49261E-09 5.51102E-19-6.61891E-19
 -1      4302 9.51685E-05-2.83465E-05-2.86383E-05 1.19655E-08 2.74408E-19-8.26495E-19
 -1      4303 9.51933E-05-2.83891E-05-2.86310E-05 4.80601E-09 1.33585E-19-1.73148E-19
 -1      4304 9.52152E-05-2.84262E-05-2.86241E-05 7.88274E-09 4.17600E-20-6.67499E-19
 -1      4305 9.52310E-05-2.84569E-05-2.86179E-05 2.70834E-09 3.97671E-19-1.27978E-18
 -1      4306 9.52446E-05-2.84834E-05-2.86120E-05 4.79536E-09 1.84321E-19-9.13672E-19
 -1      4307 9.52540E-05-2.85050E-05-2.86069E-05 1.17666E-09-9.85060E-20-1.30680E-18
 -1      4308 9.52618E-05-2.85234E-05-2.86022E-05 2.56191E-09 4.53960E-19-1.53254E-18
 -1      4309 9.52666E-05-2.85381E-05-2.85980E-05 1.27496E-10-7.73919E-20-1.64281E-18
 -1      4310 9.52703E-05-2.85505E-05-2.85942E-05 1.01717E-09-7.34523E-19-1.85029E-18
 -1      4311 9.52721E-05-2.85601E-05-2.85909E-05-5.40770E-10-6.62623E-19-1.31278E-18
 -1      4312 9.52732E-05-2.85680E-05-2.85879E-05 2.87542E-12-5.59183E-19-9.99186E-19
 -1      4313 9.52730E-05-2.85739E-05-2.85853E-05-9.26673E-10-3.15952E-19-5.93738E-19
 -1      4314 9.52723E-05-2.85786E-05-2.85829E-05-6.23413E-10 4.28725E-19-9.84838E-19
 -1      4315 9.52709E-05-2.85820E-05-2.85810E-05-1.12771E-09-1.20372E-19-9.90596E-19
 -1      4316 9.52691E-05-2.85845E-05-2.85791E-05-1.01064E-09-7.92932E-19-9.07762E-19
 -1      4317 8.50286E-05-2.11061E-05-2.74551E-05-2.21075E-06-8.20910E-19-7.38722E-20
 -1      4318 8.40408E-05-2.08114E-05-2.71445E-05-2.97673E-06-6.03717E-19 1.16926E-19
 -1      4319 9.52664E-05-2.85862E-05-2.85772E-05-4.53592E-09 2.38474E-19 4.90665E-20
 -1      4320 9.52648E-05-2.85868E-05-2.85762E-05-4.60109E-09 3.53085E-19-9.15744E-19
 -3
    1PSTEP                         4           1           1          
  100CL  101 1.000000000        4320                     0    1           1
 -4  ERROR       1    1
 -5  STR(%)      1    1    0    0
 -1         1 1.24901E+01
 -1         2 2.48270E+01
 -1         3 1.53367E-04
 -1         4 1.77075E-04
 -1         5 1.18705E+01
 -1         6 1.23644E+01
 -1         7 1.23644E+01
 -1         8 3.98049E+00
 -1         9 2.47553E+00
 -1        10 2.01524E+00
 -1        11 1.82810E+00
 -1        12 1.73228E+00
 -1        13 1.70519E+00
 -1        14 1.51089E+00
 -1        15 1.04668E+00
 -1        16 1.31731E+00
 -1        17 2.00122E+00
 -1        18 2.48070E+00
 -1        19 2.78829E+00
 -1        20 3.18942E+00
 -1        21 4.15084E+00
 -1        22 7.94683E+00
 -1        23 1.23644E+01
 -1        24 3.21034E+00
 -1        25 1.96677E+00
 -1        26 9.05657E-01
 -1        27 8.80080E-01
 -1        28 1.40911E+00
 -1        29 2.21094E+00
 -1        30 2.92734E+00
 -1        31 3.17689E+00
 -1        32 3.17689E+00
 -1        33 3.17465E+00
 -1        34 2.96273E+00
 -1        35 2.20372E+00
 -1        36 1.34090E+00
 -1        37 1.05843E+00
 -1        38 8.57491E-01
 -1        39 8.44745E-01
 -1        40 7.93507E-01
 -1        41 7.78411E-01
 -1        42 6.83624E-01
 -1        43 5.55735E-01
 -1        44 4.40470E-01
 -1        45 3.50959E-01
 -1        46 3.05742E-01
 -1        47 2.54592E-01
 -1        48 2.04227E-01
 -1        49 1.58516E-01
 -1        50 1.19287E-01
 -1        51 8.92443E-02
 -1        52 7.56601E-02
 -1        53 6.23579E-02
 -1        54 5.01560E-02
 -1        55 3.94588E-02
 -1        56 3.03967E-02
 -1        57 2.29296E-02
 -1        58 1.82141E-02
 -1        59 1.50024E-02
 -1        60 1.20940E-02
 -1        61 9.55627E-03
 -1        62 7.40368E-03
 -1        63 5.74446E-03
 -1        64 4.39597E-03
 -1        65 3.27218E-03
 -1        66 2.45016E-03
 -1        67 2.07674E-03
 -1        68 1.71629E-03
 -1        69 1.34998E-03
 -1        70 1.08799E-03
 -1        71 7.60629E-04
 -1        72 1.18705E+01
 -1        73 1.92339E+00
 -1        74 8.12692E-01
 -1        75 1.14049E+00
 -1        76 1.65564E+00
 -1        77 1.95830E+00
 -1        78 2.48640E+00
 -1        79 3.54120E+00
 -1        80 5.18812E+00
 -1        81 5.86943E+00
 -1        82 5.86943E+00
 -1        83 5.44836E+00
 -1        84 3.16800E+00
 -1        85 1.85543E+00
 -1        86 1.84532E+00
 -1        87 2.02782E+00
 -1        88 2.02782E+00
 -1        89 1.87450E+00
 -1        90 1.57642E+00
 -1        91 1.31294E+00
 -1        92 1.04332E+00
 -1        93 7.97826E-01
 -1        94 5.90484E-01
 -1        95 4.25734E-01
 -1        96 3.26913E-01
 -1        97 2.45754E-01
 -1        98 1.81037E-01
 -1        99 1.30604E-01
 -1       100 9.20583E-02
 -1       101 6.31221E-02
 -1       102 4.74600E-02
 -1       103 3.90325E-02
 -1       104 3.14988E-02
 -1       105 2.49754E-02
 -1       106 1.94684E-02
 -1       107 1.66328E-02
 -1       108 1.43337E-02
 -1       109 1.20435E-02
 -1       110 9.90271E-03
 -1       111 7.98549E-03
 -1       112 6.41807E-03
 -1       113 5.12023E-03
 -1       114 3.99657E-03
 -1       115 3.03737E-03
 -1       116 2.22129E-03
 -1       117 1.71006E-03
 -1       118 1.34419E-03
 -1       119 9.25756E-04
 -1       120 5.64147E-04
 -1       121 2.53440E-04
 -1       122 2.53440E-04
 -1       123 2.02000E-04
 -1       124 9.65203E-05
 -1       125 1.14314E-04
 -1       126 1.78320E-04
 -1       127 2.15900E-04
 -1       128 2.26507E-04
 -1       129 2.26507E-04
 -1       130 2.15203E-04
 -1       131 1.75624E-04
 -1       132 1.13496E-04
 -1       133 9.84007E-05
 -1       134 2.02170E-04
 -1       135 3.36070E-04
 -1       136 3.84154E-04
 -1       137 2.58778E+01
 -1       138 4.84355E+01
 -1       139 4.84355E+01
 -1       140 2.16722E+01
 -1       141 1.18689E+01
 -1       142 1.24538E+01
 -1       143 1.32286E+01
 -1       144 1.32286E+01
 -1       145 1.28612E+01
 -1       146 1.30909E+01
 -1       147 2.80841E+01
 -1       148 2.80841E+01
 -1       149 2.79986E+01
 -1       150 2.54491E+01
 -1       151 2.63050E+01
 -1       152 2.63050E+01
 -1       153 4.26458E+01
 -1       154 4.26458E+01
 -1       155 1.69954E+01
 -1       156 1.26969E+01
 -1       157 1.26969E+01
 -1       158 1.25340E+01
 -1       159 1.25340E+01
 -1       160 1.18620E+01
 -1       161 2.47308E+01
 -1       162 3.07325E+01
 -1       163 3.07325E+01
 -1       164 2.47484E+01
 -1       165 6.28491E+00
 -1       166 2.86173E+00
 -1       167 2.21687E+00
 -1       168 1.92528E+00
 -1       169 1.73228E+00
 -1       170 1.74478E+00
 -1       171 1.74478E+00
 -1       172 1.48234E+00
 -1       173 1.06172E+00
 -1       174 1.79514E+00
 -1       175 2.38655E+00
 -1       176 2.60383E+00
 -1       177 2.82348E+00
 -1       178 3.37770E+00
 -1       179 4.20013E+00
 -1       180 1.18705E+01
 -1       181 3.21034E+00
 -1       182 1.96677E+00
 -1       183 1.05116E+00
 -1       184 7.89852E-01
 -1       185 1.12785E+00
 -1       186 1.61598E+00
 -1       187 2.21094E+00
 -1       188 2.92734E+00
 -1       189 3.17689E+00
 -1       190 3.17465E+00
 -1       191 2.96273E+00
 -1       192 2.20372E+00
 -1       193 1.46888E+00
 -1       194 1.05843E+00
 -1       195 8.57491E-01
 -1       196 8.44745E-01
 -1       197 7.93507E-01
 -1       198 7.78411E-01
 -1       199 6.83624E-01
 -1       200 5.58652E-01
 -1       201 4.68190E-01
 -1       202 4.01529E-01
 -1       203 3.26324E-01
 -1       204 2.54592E-01
 -1       205 2.04227E-01
 -1       206 1.59591E-01
 -1       207 1.24779E-01
 -1       208 9.48493E-02
 -1       209 7.56601E-02
 -1       210 6.23579E-02
 -1       211 5.01560E-02
 -1       212 3.94588E-02
 -1       213 3.03967E-02
 -1       214 2.33672E-02
 -1       215 1.82141E-02
 -1       216 1.50024E-02
 -1       217 1.20940E-02
 -1       218 9.55917E-03
 -1       219 7.69756E-03
 -1       220 6.06608E-03
 -1       221 4.88274E-03
 -1       222 3.83738E-03
 -1       223 2.92848E-03
 -1       224 2.15475E-03
 -1       225 1.71629E-03
 -1       226 1.34998E-03
 -1       227 1.08799E-03
 -1       228 7.60629E-04
 -1       229 1.92339E+00
 -1       230 1.22361E+00
 -1       231 8.12692E-01
 -1       232 1.14049E+00
 -1       233 1.65564E+00
 -1       234 1.95830E+00
 -1       235 2.48640E+00
 -1       236 3.54120E+00
 -1       237 5.18812E+00
 -1       238 5.86943E+00
 -1       239 5.44836E+00
 -1       240 3.16800E+00
 -1       241 1.85543E+00
 -1       242 1.64627E+00
 -1       243 1.84532E+00
 -1       244 2.02782E+00
 -1       245 1.87450E+00
 -1       246 1.57642E+00
 -1       247 1.31294E+00
 -1       248 1.07063E+00
 -1       249 8.41690E-01
 -1       250 6.39684E-01
 -1       251 4.71998E-01
 -1       252 3.40488E-01
 -1       253 2.45754E-01
 -1       254 1.81037E-01
 -1       255 1.31908E-01
 -1       256 9.52841E-02
 -1       257 6.72955E-02
 -1       258 4.74600E-02
 -1       259 3.90325E-02
 -1       260 3.14988E-02
 -1       261 2.49754E-02
 -1       262 1.94684E-02
 -1       263 1.66328E-02
 -1       264 1.43337E-02
 -1       265 1.20435E-02
 -1       266 9.90271E-03
 -1       267 7.98549E-03
 -1       268 6.41807E-03
 -1       269 5.12023E-03
 -1       270 3.99657E-03
 -1       271 3.08980E-03
 -1       272 2.31382E-03
 -1       273 1.71006E-03
 -1       274 1.34419E-03
 -1       275 9.25756E-04
 -1       276 5.64147E-04
 -1       277 3.25715E-04
 -1       278 3.25715E-04
 -1       279 3.03410E-04
 -1       280 1.87687E-04
 -1       281 3.11216E-04
 -1       282 3.91328E-04
 -1       283 4.22854E-04
 -1       284 4.22854E-04
 -1       285 4.22596E-04
 -1       286 3.88386E-04
 -1       287 3.10488E-04
 -1       288 1.89518E-04
 -1       289 3.02747E-04
 -1       290 3.02747E-04
 -1       291 4.18722E-04
 -1       292 3.13517E+01
 -1       293 2.89785E+01
 -1       294 4.84355E+01
 -1       295 2.30192E+01
 -1       296 1.17605E+01
 -1       297 1.18689E+01
 -1       298 1.24538E+01
 -1       299 1.32286E+01
 -1       300 1.28612E+01
 -1       301 1.16039E+01
 -1       302 1.30909E+01
 -1       303 2.80841E+01
 -1       304 3.39082E+01
 -1       305 3.39082E+01
 -1       306 3.33776E+01
 -1       307 3.33776E+01
 -1       308 3.71667E+01
 -1       309 4.26458E+01
 -1       310 1.73717E+01
 -1       311 1.14795E+01
 -1       312 1.26969E+01
 -1       313 1.24901E+01
 -1       314 1.18325E+01
 -1       315 1.25340E+01
 -1       316 1.12798E+01
 -1       317 1.18620E+01
 -1       318 2.72775E+01
 -1       319 3.08000E+01
 -1       320 3.08000E+01
 -1       321 3.13517E+01
 -1       322 1.66256E+00
 -1       323 2.80853E+00
 -1       324 1.62638E+00
 -1       325 1.85070E+00
 -1       326 1.93067E+00
 -1       327 1.93067E+00
 -1       328 1.53248E+00
 -1       329 1.75651E+00
 -1       330 2.44309E+00
 -1       331 2.66203E+00
 -1       332 2.66203E+00
 -1       333 3.07379E+00
 -1       334 2.64110E+00
 -1       335 1.83499E+00
 -1       336 1.62110E+00
 -1       337 1.05116E+00
 -1       338 7.04454E-01
 -1       339 8.88013E-01
 -1       340 1.26259E+00
 -1       341 1.58554E+00
 -1       342 1.93616E+00
 -1       343 2.11141E+00
 -1       344 1.98696E+00
 -1       345 2.07698E+00
 -1       346 1.88186E+00
 -1       347 1.46398E+00
 -1       348 1.08024E+00
 -1       349 6.05306E-01
 -1       350 4.07152E-01
 -1       351 4.48767E-01
 -1       352 5.68233E-01
 -1       353 5.86077E-01
 -1       354 5.40976E-01
 -1       355 4.80815E-01
 -1       356 4.24975E-01
 -1       357 3.66184E-01
 -1       358 3.00919E-01
 -1       359 2.37434E-01
 -1       360 1.80468E-01
 -1       361 1.32185E-01
 -1       362 9.48493E-02
 -1       363 7.01076E-02
 -1       364 5.03604E-02
 -1       365 3.78948E-02
 -1       366 3.19529E-02
 -1       367 2.62827E-02
 -1       368 2.11458E-02
 -1       369 1.66655E-02
 -1       370 1.28723E-02
 -1       371 1.08022E-02
 -1       372 9.08891E-03
 -1       373 7.46120E-03
 -1       374 6.05324E-03
 -1       375 4.90493E-03
 -1       376 3.87839E-03
 -1       377 3.07048E-03
 -1       378 2.38063E-03
 -1       379 1.78074E-03
 -1       380 1.27715E-03
 -1       381 9.59560E-04
 -1       382 6.65658E-04
 -1       383 1.61748E+00
 -1       384 1.41510E+00
 -1       385 1.22644E+00
 -1       386 1.49327E+00
 -1       387 2.37107E+00
 -1       388 2.82326E+00
 -1       389 3.62736E+00
 -1       390 3.51654E+00
 -1       391 3.16831E+00
 -1       392 2.22470E+00
 -1       393 1.39285E+00
 -1       394 1.26514E+00
 -1       395 1.50831E+00
 -1       396 1.52222E+00
 -1       397 1.49131E+00
 -1       398 1.34804E+00
 -1       399 1.18896E+00
 -1       400 9.92607E-01
 -1       401 7.96452E-01
 -1       402 6.17036E-01
 -1       403 4.64355E-01
 -1       404 3.40488E-01
 -1       405 2.43396E-01
 -1       406 1.78994E-01
 -1       407 1.31908E-01
 -1       408 9.52841E-02
 -1       409 6.72955E-02
 -1       410 4.62626E-02
 -1       411 3.07262E-02
 -1       412 2.54198E-02
 -1       413 2.14291E-02
 -1       414 1.76571E-02
 -1       415 1.42547E-02
 -1       416 1.12884E-02
 -1       417 9.22241E-03
 -1       418 7.88041E-03
 -1       419 6.55696E-03
 -1       420 5.33573E-03
 -1       421 4.39031E-03
 -1       422 3.55914E-03
 -1       423 2.81172E-03
 -1       424 2.15515E-03
 -1       425 1.58817E-03
 -1       426 1.20377E-03
 -1       427 8.88584E-04
 -1       428 5.47566E-04
 -1       429 3.44029E-04
 -1       430 6.39581E-04
 -1       431 6.39581E-04
 -1       432 4.18555E-04
 -1       433 5.35186E-04
 -1       434 5.87731E-04
 -1       435 5.87731E-04
 -1       436 5.85464E-04
 -1       437 5.85464E-04
 -1       438 5.34123E-04
 -1       439 4.17031E-04
 -1       440 3.34410E-04
 -1       441 5.31772E-04
 -1       442 2.89785E+01
 -1       443 3.33613E+01
 -1       444 3.33613E+01
 -1       445 1.73443E+01
 -1       446 9.33156E+00
 -1       447 1.55793E+00
 -1       448 9.53214E+00
 -1       449 1.00132E+01
 -1       450 9.12831E+00
 -1       451 8.89775E+00
 -1       452 7.47194E+00
 -1       453 1.15973E+01
 -1       454 1.95219E+01
 -1       455 3.39082E+01
 -1       456 4.46740E+01
 -1       457 4.46740E+01
 -1       458 2.79693E+01
 -1       459 2.53420E+01
 -1       460 1.47010E+01
 -1       461 8.11978E+00
 -1       462 7.26958E+00
 -1       463 1.00075E+01
 -1       464 1.03963E+01
 -1       465 1.00933E+01
 -1       466 8.06075E+00
 -1       467 6.85583E+00
 -1       468 1.06077E+01
 -1       469 1.80813E+01
 -1       470 3.08000E+01
 -1       471 3.26132E+01
 -1       472 7.75559E+00
 -1       473 4.84683E+00
 -1       474 2.49892E+01
 -1       475 4.22846E+00
 -1       476 8.98978E+00
 -1       477 3.09524E+00
 -1       478 2.21970E+00
 -1       479 1.89566E+00
 -1       480 2.39506E+00
 -1       481 2.39572E+00
 -1       482 2.63696E+00
 -1       483 3.04379E+00
 -1       484 3.04379E+00
 -1       485 3.09524E+00
 -1       486 2.20834E+00
 -1       487 6.82173E-01
 -1       488 6.48746E+00
 -1       489 5.92455E-01
 -1       490 8.87928E-01
 -1       491 1.28786E+00
 -1       492 1.48627E+00
 -1       493 1.64458E+00
 -1       494 1.86405E+00
 -1       495 1.72963E+00
 -1       496 1.68488E+00
 -1       497 1.42394E+00
 -1       498 1.21563E+00
 -1       499 9.90189E-01
 -1       500 7.83232E-01
 -1       501 6.80208E-01
 -1       502 5.78694E-01
 -1       503 5.88752E-01
 -1       504 5.52860E-01
 -1       505 4.96601E-01
 -1       506 4.49661E-01
 -1       507 3.95594E-01
 -1       508 3.33319E-01
 -1       509 2.70673E-01
 -1       510 2.12756E-01
 -1       511 1.62214E-01
 -1       512 1.19988E-01
 -1       513 8.59386E-02
 -1       514 5.93204E-02
 -1       515 3.91027E-02
 -1       516 2.62545E-02
 -1       517 1.81954E-02
 -1       518 1.62881E-02
 -1       519 1.40903E-02
 -1       520 1.18511E-02
 -1       521 9.72644E-03
 -1       522 7.80391E-03
 -1       523 6.72813E-03
 -1       524 5.72043E-03
 -1       525 4.72574E-03
 -1       526 3.85316E-03
 -1       527 3.09253E-03
 -1       528 2.40411E-03
 -1       529 1.82899E-03
 -1       530 1.37795E-03
 -1       531 9.94696E-04
 -1       532 2.49442E+00
 -1       533 2.66717E+00
 -1       534 2.81760E+00
 -1       535 3.76826E+00
 -1       536 5.69575E+00
 -1       537 4.20498E+00
 -1       538 2.34063E+00
 -1       539 2.78901E+00
 -1       540 2.31835E+00
 -1       541 2.11428E+00
 -1       542 1.88654E+00
 -1       543 1.61179E+00
 -1       544 1.43841E+00
 -1       545 1.27911E+00
 -1       546 1.07917E+00
 -1       547 8.75333E-01
 -1       548 6.88559E-01
 -1       549 5.28162E-01
 -1       550 3.96266E-01
 -1       551 2.91151E-01
 -1       552 2.09395E-01
 -1       553 1.47092E-01
 -1       554 1.00489E-01
 -1       555 6.62618E-02
 -1       556 4.42975E-02
 -1       557 3.12898E-02
 -1       558 2.54198E-02
 -1       559 2.14291E-02
 -1       560 1.76571E-02
 -1       561 1.42547E-02
 -1       562 1.12884E-02
 -1       563 9.22241E-03
 -1       564 7.88041E-03
 -1       565 6.55696E-03
 -1       566 5.33573E-03
 -1       567 4.34206E-03
 -1       568 3.45209E-03
 -1       569 2.67267E-03
 -1       570 2.07812E-03
 -1       571 1.55885E-03
 -1       572 1.11289E-03
 -1       573 7.70416E-04
 -1       574 6.78541E-04
 -1       575 7.57804E-04
 -1       576 6.86037E-04
 -1       577 5.33614E-04
 -1       578 7.57804E-04
 -1       579 7.56066E-04
 -1       580 7.55900E-04
 -1       581 7.55900E-04
 -1       582 6.77391E-04
 -1       583 5.80343E-04
 -1       584 5.80343E-04
 -1       585 1.30962E+01
 -1       586 2.24949E+01
 -1       587 2.26831E+00
 -1       588 3.33613E+01
 -1       589 7.73190E+00
 -1       590 5.63461E+00
 -1       591 7.54039E+00
 -1       592 1.12610E+00
 -1       593 2.39506E+00
 -1       594 6.43722E+00
 -1       595 6.78988E+00
 -1       596 2.79693E+01
 -1       597 4.20653E+00
 -1       598 1.00276E+01
 -1       599 1.59567E+01
 -1       600 2.07173E+01
 -1       601 9.33928E+00
 -1       602 4.46740E+01
 -1       603 1.74299E+01
 -1       604 1.10282E+01
 -1       605 9.08249E+00
 -1       606 5.32937E+00
 -1       607 7.42667E+00
 -1       608 6.26416E+00
 -1       609 4.00677E+00
 -1       610 1.33217E+01
 -1       611 3.26132E+01
 -1       612 4.84177E+00
 -1       613 3.07379E+00
 -1       614 7.85454E+00
 -1       615 1.61452E+00
 -1       616 6.56734E+00
 -1       617 1.97014E+01
 -1       618 5.43286E+00
 -1       619 1.39360E+01
 -1       620 6.00304E-04
 -1       621 1.33224E+01
 -1       622 1.19123E+00
 -1       623 7.82873E+00
 -1       624 3.63639E+00
 -1       625 4.33454E+00
 -1       626 3.94607E+00
 -1       627 3.49785E+00
 -1       628 5.02626E+00
 -1       629 4.00461E+00
 -1       630 3.09524E+00
 -1       631 1.71497E+01
 -1       632 1.41134E+00
 -1       633 1.24643E+00
 -1       634 1.66070E+00
 -1       635 1.64458E+00
 -1       636 2.56733E+00
 -1       637 3.49586E+00
 -1       638 2.42076E+00
 -1       639 1.68488E+00
 -1       640 1.54598E+00
 -1       641 1.35139E+00
 -1       642 1.28310E+00
 -1       643 1.05462E+00
 -1       644 8.26424E-01
 -1       645 7.60465E-01
 -1       646 6.63617E-01
 -1       647 5.63204E-01
 -1       648 4.95978E-01
 -1       649 4.27591E-01
 -1       650 3.54820E-01
 -1       651 2.88193E-01
 -1       652 2.28278E-01
 -1       653 1.76611E-01
 -1       654 1.33497E-01
 -1       655 9.85029E-02
 -1       656 7.07875E-02
 -1       657 4.93365E-02
 -1       658 3.31062E-02
 -1       659 2.11112E-02
 -1       660 1.25404E-02
 -1       661 9.20189E-03
 -1       662 8.93753E-03
 -1       663 8.20232E-03
 -1       664 7.22310E-03
 -1       665 6.15441E-03
 -1       666 5.10927E-03
 -1       667 4.42865E-03
 -1       668 3.71149E-03
 -1       669 3.01441E-03
 -1       670 2.37053E-03
 -1       671 1.83509E-03
 -1       672 1.37795E-03
 -1       673 9.94696E-04
 -1       674 3.65802E+00
 -1       675 3.97080E+00
 -1       676 2.39966E+00
 -1       677 4.09385E+00
 -1       678 4.16772E+00
 -1       679 3.36917E+00
 -1       680 2.62324E+00
 -1       681 2.02779E+00
 -1       682 1.73788E+00
 -1       683 1.43817E+00
 -1       684 1.16394E+00
 -1       685 9.26406E-01
 -1       686 7.26801E-01
 -1       687 5.62413E-01
 -1       688 4.29217E-01
 -1       689 3.22873E-01
 -1       690 2.39149E-01
 -1       691 1.74134E-01
 -1       692 1.24342E-01
 -1       693 8.67495E-02
 -1       694 5.87980E-02
 -1       695 3.83607E-02
 -1       696 2.37009E-02
 -1       697 1.55175E-02
 -1       698 1.30442E-02
 -1       699 1.17150E-02
 -1       700 1.01557E-02
 -1       701 8.55597E-03
 -1       702 7.03143E-03
 -1       703 5.88582E-03
 -1       704 4.98249E-03
 -1       705 4.14434E-03
 -1       706 3.35186E-03
 -1       707 2.69131E-03
 -1       708 2.09047E-03
 -1       709 1.56609E-03
 -1       710 1.14628E-03
 -1       711 9.30582E-04
 -1       712 9.48997E-04
 -1       713 6.37172E-04
 -1       714 9.37970E-04
 -1       715 9.47861E-04
 -1       716 9.48997E-04
 -1       717 4.05296E+00
 -1       718 9.47861E-04
 -1       719 9.28375E-04
 -1       720 7.89083E-04
 -1       721 1.09979E+01
 -1       722 1.35732E+01
 -1       723 6.61582E+00
 -1       724 4.20498E+00
 -1       725 3.39146E+00
 -1       726 7.43817E+00
 -1       727 8.11676E-01
 -1       728 6.77670E-01
 -1       729 5.98974E+00
 -1       730 2.95964E+00
 -1       731 3.94607E+00
 -1       732 2.47564E+00
 -1       733 6.59985E+00
 -1       734 1.38282E+01
 -1       735 1.22647E+01
 -1       736 1.40745E+01
 -1       737 9.86540E+00
 -1       738 6.93173E+00
 -1       739 2.87965E+00
 -1       740 1.03466E+01
 -1       741 5.63750E+00
 -1       742 9.35328E+00
 -1       743 4.58826E+00
 -1       744 2.12342E+00
 -1       745 3.79858E+00
 -1       746 3.82836E+00
 -1       747 7.31771E+00
 -1       748 8.00347E-04
 -1       749 7.03896E-04
 -1       750 1.14360E+01
 -1       751 9.64731E+00
 -1       752 4.55561E+00
 -1       753 4.44561E+00
 -1       754 8.07622E-04
 -1       755 3.14129E+00
 -1       756 3.74021E+00
 -1       757 6.34699E+00
 -1       758 7.65896E+00
 -1       759 4.21525E+00
 -1       760 8.80404E+00
 -1       761 9.35273E+00
 -1       762 1.66070E+00
 -1       763 2.03906E+00
 -1       764 2.87967E+00
 -1       765 4.58826E+00
 -1       766 1.66110E+00
 -1       767 2.08431E+00
 -1       768 1.99394E+00
 -1       769 1.58295E+00
 -1       770 1.28451E+00
 -1       771 1.06959E+00
 -1       772 8.62469E-01
 -1       773 7.00350E-01
 -1       774 5.89573E-01
 -1       775 4.86714E-01
 -1       776 3.94077E-01
 -1       777 3.11580E-01
 -1       778 2.41340E-01
 -1       779 1.83898E-01
 -1       780 1.39389E-01
 -1       781 1.03275E-01
 -1       782 7.54641E-02
 -1       783 5.36144E-02
 -1       784 3.72898E-02
 -1       785 2.50808E-02
 -1       786 1.61208E-02
 -1       787 9.68735E-03
 -1       788 5.52247E-03
 -1       789 5.35301E-03
 -1       790 5.51691E-03
 -1       791 5.25417E-03
 -1       792 4.74591E-03
 -1       793 4.11806E-03
 -1       794 3.57300E-03
 -1       795 3.08939E-03
 -1       796 2.57585E-03
 -1       797 2.07348E-03
 -1       798 1.60602E-03
 -1       799 1.18277E-03
 -1       800 1.15742E-03
 -1       801 3.17671E+00
 -1       802 2.34629E+00
 -1       803 1.69702E+00
 -1       804 1.30011E+00
 -1       805 1.02490E+00
 -1       806 8.03597E-01
 -1       807 6.16154E-01
 -1       808 4.63628E-01
 -1       809 3.42788E-01
 -1       810 2.48963E-01
 -1       811 1.77975E-01
 -1       812 1.29760E-01
 -1       813 9.37511E-02
 -1       814 6.63146E-02
 -1       815 4.56967E-02
 -1       816 3.04461E-02
 -1       817 1.93691E-02
 -1       818 1.14937E-02
 -1       819 7.28476E-03
 -1       820 7.32640E-03
 -1       821 7.00521E-03
 -1       822 6.35035E-03
 -1       823 5.53459E-03
 -1       824 4.67121E-03
 -1       825 4.04927E-03
 -1       826 3.43661E-03
 -1       827 2.82258E-03
 -1       828 2.24373E-03
 -1       829 1.71936E-03
 -1       830 1.26059E-03
 -1       831 9.41099E-04
 -1       832 5.78824E+00
 -1       833 7.31314E+00
 -1       834 1.09111E-03
 -1       835 9.45361E-04
 -1       836 2.45284E+00
 -1       837 1.43797E+00
 -1       838 3.95102E+00
 -1       839 4.66381E+00
 -1       840 3.79209E+00
 -1       841 1.15742E-03
 -1       842 2.21957E+00
 -1       843 1.08607E+01
 -1       844 5.60186E+00
 -1       845 1.07775E+01
 -1       846 7.93820E+00
 -1       847 7.65896E+00
 -1       848 2.51465E+00
 -1       849 4.14728E+00
 -1       850 7.88642E+00
 -1       851 6.82254E+00
 -1       852 5.78824E+00
 -1       853 7.88642E+00
 -1       854 3.38952E+00
 -1       855 1.11084E-03
 -1       856 1.13706E-03
 -1       857 6.85713E+00
 -1       858 7.37018E+00
 -1       859 1.13706E-03
 -1       860 9.64731E+00
 -1       861 1.64496E+00
 -1       862 7.70217E+00
 -1       863 1.04501E-03
 -1       864 4.18087E+00
 -1       865 3.51080E+00
 -1       866 2.28119E+00
 -1       867 6.07678E+00
 -1       868 4.94852E+00
 -1       869 3.60938E+00
 -1       870 2.37611E+00
 -1       871 2.80541E+00
 -1       872 3.14433E+00
 -1       873 1.44898E+00
 -1       874 1.17540E+00
 -1       875 9.45894E-01
 -1       876 7.29183E-01
 -1       877 5.60855E-01
 -1       878 4.51057E-01
 -1       879 3.65550E-01
 -1       880 2.98431E-01
 -1       881 2.37162E-01
 -1       882 1.83898E-01
 -1       883 1.39225E-01
 -1       884 1.02831E-01
 -1       885 7.39269E-02
 -1       886 5.15089E-02
 -1       887 3.54813E-02
 -1       888 2.35143E-02
 -1       889 1.47345E-02
 -1       890 8.45909E-03
 -1       891 4.30761E-03
 -1       892 3.17501E-03
 -1       893 3.81499E-03
 -1       894 3.94922E-03
 -1       895 3.76555E-03
 -1       896 3.39829E-03
 -1       897 2.94514E-03
 -1       898 2.59807E-03
 -1       899 2.20091E-03
 -1       900 1.79233E-03
 -1       901 1.69680E+00
 -1       902 2.22629E+00
 -1       903 1.09268E-03
 -1       904 4.82514E+00
 -1       905 3.08166E+00
 -1       906 1.30011E+00
 -1       907 9.91941E-01
 -1       908 7.54049E-01
 -1       909 5.70260E-01
 -1       910 4.28095E-01
 -1       911 3.18274E-01
 -1       912 2.33786E-01
 -1       913 1.69214E-01
 -1       914 1.20295E-01
 -1       915 8.36315E-02
 -1       916 5.79225E-02
 -1       917 3.89481E-02
 -1       918 2.51341E-02
 -1       919 1.54210E-02
 -1       920 8.64361E-03
 -1       921 4.46590E-03
 -1       922 4.36296E-03
 -1       923 4.75566E-03
 -1       924 4.67490E-03
 -1       925 4.31272E-03
 -1       926 3.80182E-03
 -1       927 3.28126E-03
 -1       928 2.85950E-03
 -1       929 2.39920E-03
 -1       930 1.93939E-03
 -1       931 6.99100E+00
 -1       932 1.34289E-03
 -1       933 5.52099E+00
 -1       934 6.57976E+00
 -1       935 9.64731E+00
 -1       936 5.15371E+00
 -1       937 2.53360E+00
 -1       938 5.82065E+00
 -1       939 5.35782E+00
 -1       940 1.38057E-03
 -1       941 1.54901E-03
 -1       942 1.52225E-03
 -1       943 1.69181E-03
 -1       944 4.98115E+00
 -1       945 4.94852E+00
 -1       946 2.19520E-03
 -1       947 3.60938E+00
 -1       948 1.54901E-03
 -1       949 2.20687E+00
 -1       950 2.81650E+00
 -1       951 2.22072E+00
 -1       952 1.29293E+00
 -1       953 9.06762E-01
 -1       954 7.02825E-01
 -1       955 5.55361E-01
 -1       956 4.51057E-01
 -1       957 3.59715E-01
 -1       958 2.82226E-01
 -1       959 2.17920E-01
 -1       960 1.65506E-01
 -1       961 1.23475E-01
 -1       962 9.03045E-02
 -1       963 6.45459E-02
 -1       964 4.48794E-02
 -1       965 3.04615E-02
 -1       966 2.03427E-02
 -1       967 1.29340E-02
 -1       968 7.63269E-03
 -1       969 4.34236E-03
 -1       970 2.42988E-03
 -1       971 2.66534E-03
 -1       972 2.96051E-03
 -1       973 2.93939E-03
 -1       974 2.72583E-03
 -1       975 2.40677E-03
 -1       976 2.09618E-03
 -1       977 1.78477E-03
 -1       978 1.12017E+00
 -1       979 1.54301E+00
 -1       980 2.94771E+00
 -1       981 8.30686E-01
 -1       982 6.24089E-01
 -1       983 4.71149E-01
 -1       984 3.55194E-01
 -1       985 2.66143E-01
 -1       986 1.97452E-01
 -1       987 1.44561E-01
 -1       988 1.04086E-01
 -1       989 7.34077E-02
 -1       990 5.04358E-02
 -1       991 3.44750E-02
 -1       992 2.27810E-02
 -1       993 1.43128E-02
 -1       994 8.32735E-03
 -1       995 4.32852E-03
 -1       996 2.53141E-03
 -1       997 3.24207E-03
 -1       998 3.45166E-03
 -1       999 3.34467E-03
 -1      1000 3.05166E-03
 -1      1001 2.66254E-03
 -1      1002 2.32262E-03
 -1      1003 2.15085E-03
 -1      1004 4.02786E+00
 -1      1005 2.19520E-03
 -1      1006 4.39256E+00
 -1      1007 4.39256E+00
 -1      1008 3.61368E+00
 -1      1009 1.55740E-03
 -1      1010 2.19520E-03
 -1      1011 5.14786E+00
 -1      1012 1.43920E-03
 -1      1013 7.84051E-01
 -1      1014 1.71011E+00
 -1      1015 1.17946E+00
 -1      1016 9.06762E-01
 -1      1017 7.02825E-01
 -1      1018 5.40071E-01
 -1      1019 4.13977E-01
 -1      1020 3.15873E-01
 -1      1021 2.39478E-01
 -1      1022 1.80010E-01
 -1      1023 1.33834E-01
 -1      1024 9.81581E-02
 -1      1025 7.08001E-02
 -1      1026 5.00263E-02
 -1      1027 3.44423E-02
 -1      1028 2.33484E-02
 -1      1029 1.63817E-02
 -1      1030 1.10997E-02
 -1      1031 7.18136E-03
 -1      1032 4.34236E-03
 -1      1033 2.33947E-03
 -1      1034 1.93724E-03
 -1      1035 2.24062E-03
 -1      1036 2.27335E-03
 -1      1037 2.13761E-03
 -1      1038 2.22946E-03
 -1      1039 1.64663E-03
 -1      1040 5.88791E-01
 -1      1041 1.56205E+00
 -1      1042 2.15795E+00
 -1      1043 4.49337E-01
 -1      1044 3.44725E-01
 -1      1045 2.63852E-01
 -1      1046 2.00419E-01
 -1      1047 1.50501E-01
 -1      1048 1.11372E-01
 -1      1049 8.09599E-02
 -1      1050 5.75991E-02
 -1      1051 3.99062E-02
 -1      1052 2.71540E-02
 -1      1053 1.81922E-02
 -1      1054 1.16320E-02
 -1      1055 7.30970E-03
 -1      1056 4.38595E-03
 -1      1057 2.34216E-03
 -1      1058 2.26359E-03
 -1      1059 2.56615E-03
 -1      1060 2.57486E-03
 -1      1061 2.40320E-03
 -1      1062 2.13829E-03
 -1      1063 2.15085E-03
 -1      1064 2.79816E+00
 -1      1065 3.00948E+00
 -1      1066 1.07832E+00
 -1      1067 1.69181E-03
 -1      1068 2.22946E-03
 -1      1069 2.14049E-03
 -1      1070 3.53157E+00
 -1      1071 6.34459E-01
 -1      1072 3.22162E+00
 -1      1073 1.38551E+00
 -1      1074 9.20730E-01
 -1      1075 6.13958E-01
 -1      1076 4.47312E-01
 -1      1077 3.27745E-01
 -1      1078 2.41860E-01
 -1      1079 1.89634E-01
 -1      1080 1.46621E-01
 -1      1081 1.11641E-01
 -1      1082 8.35830E-02
 -1      1083 6.14053E-02
 -1      1084 4.41444E-02
 -1      1085 3.09280E-02
 -1      1086 2.13431E-02
 -1      1087 1.46745E-02
 -1      1088 9.70115E-03
 -1      1089 6.06961E-03
 -1      1090 3.48045E-03
 -1      1091 1.68593E-03
 -1      1092 1.45403E-03
 -1      1093 1.77350E-03
 -1      1094 1.90049E-03
 -1      1095 2.22946E-03
 -1      1096 3.64802E-01
 -1      1097 2.79646E-01
 -1      1098 2.23719E-01
 -1      1099 1.78635E-01
 -1      1100 1.39547E-01
 -1      1101 1.06670E-01
 -1      1102 7.97374E-02
 -1      1103 5.81950E-02
 -1      1104 4.16821E-02
 -1      1105 2.95499E-02
 -1      1106 2.02822E-02
 -1      1107 1.33597E-02
 -1      1108 8.30989E-03
 -1      1109 4.72143E-03
 -1      1110 2.33675E-03
 -1      1111 1.63814E-03
 -1      1112 1.91157E-03
 -1      1113 1.94970E-03
 -1      1114 1.90049E-03
 -1      1115 9.20730E-01
 -1      1116 2.08619E+00
 -1      1117 1.47666E-03
 -1      1118 2.08619E+00
 -1      1119 1.38551E+00
 -1      1120 4.78856E-01
 -1      1121 1.82657E-03
 -1      1122 1.23644E+01
 -1      1123 8.17242E+00
 -1      1124 3.22801E+00
 -1      1125 2.24538E+00
 -1      1126 1.92167E+00
 -1      1127 1.78019E+00
 -1      1128 1.71873E+00
 -1      1129 1.60804E+00
 -1      1130 1.27878E+00
 -1      1131 1.18200E+00
 -1      1132 1.65927E+00
 -1      1133 2.24096E+00
 -1      1134 2.63449E+00
 -1      1135 2.98886E+00
 -1      1136 3.67013E+00
 -1      1137 6.04884E+00
 -1      1138 9.90868E+00
 -1      1139 1.23644E+01
 -1      1140 7.78735E+00
 -1      1141 2.58856E+00
 -1      1142 1.43621E+00
 -1      1143 8.92869E-01
 -1      1144 1.14459E+00
 -1      1145 1.81002E+00
 -1      1146 2.56914E+00
 -1      1147 3.05211E+00
 -1      1148 3.17689E+00
 -1      1149 3.17577E+00
 -1      1150 3.06869E+00
 -1      1151 2.58322E+00
 -1      1152 1.77231E+00
 -1      1153 1.19966E+00
 -1      1154 9.57962E-01
 -1      1155 8.51118E-01
 -1      1156 8.19126E-01
 -1      1157 7.85959E-01
 -1      1158 7.31017E-01
 -1      1159 6.19679E-01
 -1      1160 4.98102E-01
 -1      1161 3.95715E-01
 -1      1162 3.28351E-01
 -1      1163 2.80167E-01
 -1      1164 2.29409E-01
 -1      1165 1.81371E-01
 -1      1166 1.38902E-01
 -1      1167 1.04266E-01
 -1      1168 8.24522E-02
 -1      1169 6.90090E-02
 -1      1170 5.62570E-02
 -1      1171 4.48074E-02
 -1      1172 3.49277E-02
 -1      1173 2.66631E-02
 -1      1174 2.05718E-02
 -1      1175 1.66082E-02
 -1      1176 1.35482E-02
 -1      1177 1.08251E-02
 -1      1178 8.47997E-03
 -1      1179 6.57407E-03
 -1      1180 5.07022E-03
 -1      1181 3.83408E-03
 -1      1182 2.86117E-03
 -1      1183 2.26345E-03
 -1      1184 1.89652E-03
 -1      1185 1.53314E-03
 -1      1186 1.21898E-03
 -1      1187 9.24307E-04
 -1      1188 4.68852E-04
 -1      1189 1.18705E+01
 -1      1190 6.89696E+00
 -1      1191 1.36804E+00
 -1      1192 9.76590E-01
 -1      1193 1.39806E+00
 -1      1194 1.80697E+00
 -1      1195 2.22235E+00
 -1      1196 3.01380E+00
 -1      1197 4.36466E+00
 -1      1198 5.52877E+00
 -1      1199 5.86943E+00
 -1      1200 5.65889E+00
 -1      1201 4.30818E+00
 -1      1202 2.51171E+00
 -1      1203 1.85038E+00
 -1      1204 1.93657E+00
 -1      1205 2.02782E+00
 -1      1206 1.95116E+00
 -1      1207 1.72546E+00
 -1      1208 1.44468E+00
 -1      1209 1.17813E+00
 -1      1210 9.20571E-01
 -1      1211 6.94155E-01
 -1      1212 5.08109E-01
 -1      1213 3.76323E-01
 -1      1214 2.86334E-01
 -1      1215 2.13396E-01
 -1      1216 1.55820E-01
 -1      1217 1.11331E-01
 -1      1218 7.75902E-02
 -1      1219 5.52910E-02
 -1      1220 4.32463E-02
 -1      1221 3.52656E-02
 -1      1222 2.82371E-02
 -1      1223 2.22219E-02
 -1      1224 1.80506E-02
 -1      1225 1.54833E-02
 -1      1226 1.31886E-02
 -1      1227 1.09731E-02
 -1      1228 8.94410E-03
 -1      1229 7.20178E-03
 -1      1230 5.76915E-03
 -1      1231 4.55840E-03
 -1      1232 3.51697E-03
 -1      1233 2.62933E-03
 -1      1234 1.96568E-03
 -1      1235 1.52713E-03
 -1      1236 1.13498E-03
 -1      1237 7.44951E-04
 -1      1238 3.58757E-04
 -1      1239 2.03403E-04
 -1      1240 2.53440E-04
 -1      1241 2.27720E-04
 -1      1242 1.49260E-04
 -1      1243 1.05417E-04
 -1      1244 1.46317E-04
 -1      1245 1.97110E-04
 -1      1246 2.21203E-04
 -1      1247 2.26507E-04
 -1      1248 2.20855E-04
 -1      1249 1.95413E-04
 -1      1250 1.44560E-04
 -1      1251 1.05948E-04
 -1      1252 1.50286E-04
 -1      1253 2.69120E-04
 -1      1254 3.60112E-04
 -1      1255 2.80615E-04
 -1      1256 2.53524E+01
 -1      1257 3.71566E+01
 -1      1258 4.84355E+01
 -1      1259 3.50538E+01
 -1      1260 1.67705E+01
 -1      1261 1.21613E+01
 -1      1262 1.28412E+01
 -1      1263 1.32286E+01
 -1      1264 1.30449E+01
 -1      1265 1.29760E+01
 -1      1266 2.05875E+01
 -1      1267 2.80841E+01
 -1      1268 2.80414E+01
 -1      1269 2.67239E+01
 -1      1270 2.58771E+01
 -1      1271 2.63050E+01
 -1      1272 3.44754E+01
 -1      1273 4.26458E+01
 -1      1274 2.98206E+01
 -1      1275 1.48462E+01
 -1      1276 1.26969E+01
 -1      1277 1.25935E+01
 -1      1278 1.25120E+01
 -1      1279 1.25340E+01
 -1      1280 1.21980E+01
 -1      1281 1.82964E+01
 -1      1282 2.77317E+01
 -1      1283 3.07325E+01
 -1      1284 2.77404E+01
 -1      1285 2.47877E+01
 -1      1286 1.23644E+01
 -1      1287 5.13270E+00
 -1      1288 9.32463E+00
 -1      1289 2.66863E+00
 -1      1290 3.42111E+00
 -1      1291 4.57332E+00
 -1      1292 2.11606E+00
 -1      1293 2.34620E+00
 -1      1294 2.53930E+00
 -1      1295 1.87669E+00
 -1      1296 1.97026E+00
 -1      1297 2.07107E+00
 -1      1298 1.73228E+00
 -1      1299 1.78019E+00
 -1      1300 1.82878E+00
 -1      1301 1.72498E+00
 -1      1302 1.73853E+00
 -1      1303 1.73853E+00
 -1      1304 1.62783E+00
 -1      1305 1.72498E+00
 -1      1306 1.74478E+00
 -1      1307 1.26451E+00
 -1      1308 1.49661E+00
 -1      1309 1.61356E+00
 -1      1310 1.18952E+00
 -1      1311 1.05420E+00
 -1      1312 1.27203E+00
 -1      1313 1.89818E+00
 -1      1314 1.55623E+00
 -1      1315 1.42843E+00
 -1      1316 2.43362E+00
 -1      1317 2.19388E+00
 -1      1318 2.09085E+00
 -1      1319 2.69606E+00
 -1      1320 2.54226E+00
 -1      1321 2.49519E+00
 -1      1322 3.00645E+00
 -1      1323 2.80588E+00
 -1      1324 2.71365E+00
 -1      1325 3.76427E+00
 -1      1326 3.28356E+00
 -1      1327 3.10059E+00
 -1      1328 6.07348E+00
 -1      1329 4.17548E+00
 -1      1330 3.78891E+00
 -1      1331 1.18705E+01
 -1      1332 9.90868E+00
 -1      1333 8.03533E+00
 -1      1334 1.18705E+01
 -1      1335 7.78735E+00
 -1      1336 3.21034E+00
 -1      1337 2.58856E+00
 -1      1338 1.96677E+00
 -1      1339 2.58856E+00
 -1      1340 1.50897E+00
 -1      1341 9.78409E-01
 -1      1342 1.50897E+00
 -1      1343 8.47755E-01
 -1      1344 8.34966E-01
 -1      1345 9.20507E-01
 -1      1346 1.00397E+00
 -1      1347 1.26848E+00
 -1      1348 9.58853E-01
 -1      1349 1.51254E+00
 -1      1350 1.91346E+00
 -1      1351 1.37192E+00
 -1      1352 2.21094E+00
 -1      1353 2.56914E+00
 -1      1354 1.91346E+00
 -1      1355 2.92734E+00
 -1      1356 3.05211E+00
 -1      1357 2.56914E+00
 -1      1358 3.17689E+00
 -1      1359 3.17689E+00
 -1      1360 3.05211E+00
 -1      1361 3.17577E+00
 -1      1362 3.17465E+00
 -1      1363 3.17577E+00
 -1      1364 3.06869E+00
 -1      1365 2.96273E+00
 -1      1366 3.06869E+00
 -1      1367 2.58322E+00
 -1      1368 2.20372E+00
 -1      1369 2.58322E+00
 -1      1370 1.83630E+00
 -1      1371 1.40489E+00
 -1      1372 1.83630E+00
 -1      1373 1.19966E+00
 -1      1374 1.05843E+00
 -1      1375 1.26366E+00
 -1      1376 9.57962E-01
 -1      1377 8.57491E-01
 -1      1378 9.57962E-01
 -1      1379 8.51118E-01
 -1      1380 8.44745E-01
 -1      1381 8.51118E-01
 -1      1382 8.19126E-01
 -1      1383 7.93507E-01
 -1      1384 8.19126E-01
 -1      1385 7.85959E-01
 -1      1386 7.78411E-01
 -1      1387 7.85959E-01
 -1      1388 7.31017E-01
 -1      1389 6.83624E-01
 -1      1390 7.31017E-01
 -1      1391 6.21138E-01
 -1      1392 5.57193E-01
 -1      1393 6.21138E-01
 -1      1394 5.11962E-01
 -1      1395 4.54330E-01
 -1      1396 5.13421E-01
 -1      1397 4.21000E-01
 -1      1398 3.76244E-01
 -1      1399 4.34860E-01
 -1      1400 3.38642E-01
 -1      1401 3.16033E-01
 -1      1402 3.63927E-01
 -1      1403 2.80167E-01
 -1      1404 2.54592E-01
 -1      1405 2.90458E-01
 -1      1406 2.29409E-01
 -1      1407 2.04227E-01
 -1      1408 2.29409E-01
 -1      1409 1.81909E-01
 -1      1410 1.59054E-01
 -1      1411 1.81909E-01
 -1      1412 1.41648E-01
 -1      1413 1.22033E-01
 -1      1414 1.42185E-01
 -1      1415 1.07068E-01
 -1      1416 9.20468E-02
 -1      1417 1.09814E-01
 -1      1418 8.24522E-02
 -1      1419 7.56601E-02
 -1      1420 8.52547E-02
 -1      1421 6.90090E-02
 -1      1422 6.23579E-02
 -1      1423 6.90090E-02
 -1      1424 5.62570E-02
 -1      1425 5.01560E-02
 -1      1426 5.62570E-02
 -1      1427 4.48074E-02
 -1      1428 3.94588E-02
 -1      1429 4.48074E-02
 -1      1430 3.49277E-02
 -1      1431 3.03967E-02
 -1      1432 3.49277E-02
 -1      1433 2.68819E-02
 -1      1434 2.31484E-02
 -1      1435 2.68819E-02
 -1      1436 2.05718E-02
 -1      1437 1.82141E-02
 -1      1438 2.07906E-02
 -1      1439 1.66082E-02
 -1      1440 1.50024E-02
 -1      1441 1.66082E-02
 -1      1442 1.35482E-02
 -1      1443 1.20940E-02
 -1      1444 1.35482E-02
 -1      1445 1.08266E-02
 -1      1446 9.55772E-03
 -1      1447 1.08266E-02
 -1      1448 8.62692E-03
 -1      1449 7.55062E-03
 -1      1450 8.62837E-03
 -1      1451 6.73488E-03
 -1      1452 5.90527E-03
 -1      1453 6.88182E-03
 -1      1454 5.31360E-03
 -1      1455 4.63935E-03
 -1      1456 5.47441E-03
 -1      1457 4.11668E-03
 -1      1458 3.55478E-03
 -1      1459 4.36006E-03
 -1      1460 3.10033E-03
 -1      1461 2.68932E-03
 -1      1462 3.38293E-03
 -1      1463 2.30246E-03
 -1      1464 2.11575E-03
 -1      1465 2.54162E-03
 -1      1466 1.89652E-03
 -1      1467 1.71629E-03
 -1      1468 1.93552E-03
 -1      1469 1.53314E-03
 -1      1470 1.34998E-03
 -1      1471 1.53314E-03
 -1      1472 1.21898E-03
 -1      1473 1.08799E-03
 -1      1474 1.21898E-03
 -1      1475 9.24307E-04
 -1      1476 7.60629E-04
 -1      1477 9.24307E-04
 -1      1478 5.72392E-04
 -1      1479 5.72392E-04
 -1      1480 1.92339E+00
 -1      1481 6.89696E+00
 -1      1482 6.89696E+00
 -1      1483 1.01815E+00
 -1      1484 1.57350E+00
 -1      1485 1.57350E+00
 -1      1486 9.76590E-01
 -1      1487 8.12692E-01
 -1      1488 1.01815E+00
 -1      1489 1.39806E+00
 -1      1490 1.14049E+00
 -1      1491 9.76590E-01
 -1      1492 1.80697E+00
 -1      1493 1.65564E+00
 -1      1494 1.39806E+00
 -1      1495 2.22235E+00
 -1      1496 1.95830E+00
 -1      1497 1.80697E+00
 -1      1498 3.01380E+00
 -1      1499 2.48640E+00
 -1      1500 2.22235E+00
 -1      1501 4.36466E+00
 -1      1502 3.54120E+00
 -1      1503 3.01380E+00
 -1      1504 5.52877E+00
 -1      1505 5.18812E+00
 -1      1506 4.36466E+00
 -1      1507 5.86943E+00
 -1      1508 5.86943E+00
 -1      1509 5.52877E+00
 -1      1510 5.44836E+00
 -1      1511 5.65889E+00
 -1      1512 5.65889E+00
 -1      1513 3.16800E+00
 -1      1514 4.30818E+00
 -1      1515 4.30818E+00
 -1      1516 1.85543E+00
 -1      1517 2.51171E+00
 -1      1518 2.51171E+00
 -1      1519 1.74580E+00
 -1      1520 1.75085E+00
 -1      1521 1.75085E+00
 -1      1522 1.93657E+00
 -1      1523 1.84532E+00
 -1      1524 1.74580E+00
 -1      1525 2.02782E+00
 -1      1526 2.02782E+00
 -1      1527 1.93657E+00
 -1      1528 1.87450E+00
 -1      1529 1.95116E+00
 -1      1530 1.95116E+00
 -1      1531 1.57642E+00
 -1      1532 1.72546E+00
 -1      1533 1.72546E+00
 -1      1534 1.31294E+00
 -1      1535 1.44468E+00
 -1      1536 1.44468E+00
 -1      1537 1.05697E+00
 -1      1538 1.19178E+00
 -1      1539 1.19178E+00
 -1      1540 8.19758E-01
 -1      1541 9.42503E-01
 -1      1542 9.56160E-01
 -1      1543 6.15084E-01
 -1      1544 7.18755E-01
 -1      1545 7.40687E-01
 -1      1546 4.48866E-01
 -1      1547 5.31241E-01
 -1      1548 5.55841E-01
 -1      1549 3.33701E-01
 -1      1550 3.83111E-01
 -1      1551 4.06243E-01
 -1      1552 2.45754E-01
 -1      1553 2.86334E-01
 -1      1554 2.93121E-01
 -1      1555 1.81037E-01
 -1      1556 2.13396E-01
 -1      1557 2.13396E-01
 -1      1558 1.31256E-01
 -1      1559 1.56473E-01
 -1      1560 1.56473E-01
 -1      1561 9.36712E-02
 -1      1562 1.12944E-01
 -1      1563 1.13596E-01
 -1      1564 6.52088E-02
 -1      1565 7.96769E-02
 -1      1566 8.12898E-02
 -1      1567 4.74600E-02
 -1      1568 5.52910E-02
 -1      1569 5.73778E-02
 -1      1570 3.90325E-02
 -1      1571 4.32463E-02
 -1      1572 4.32463E-02
 -1      1573 3.14988E-02
 -1      1574 3.52656E-02
 -1      1575 3.52656E-02
 -1      1576 2.49754E-02
 -1      1577 2.82371E-02
 -1      1578 2.82371E-02
 -1      1579 1.94684E-02
 -1      1580 2.22219E-02
 -1      1581 2.22219E-02
 -1      1582 1.66328E-02
 -1      1583 1.80506E-02
 -1      1584 1.80506E-02
 -1      1585 1.43337E-02
 -1      1586 1.54833E-02
 -1      1587 1.54833E-02
 -1      1588 1.20435E-02
 -1      1589 1.31886E-02
 -1      1590 1.31886E-02
 -1      1591 9.90271E-03
 -1      1592 1.09731E-02
 -1      1593 1.09731E-02
 -1      1594 7.98549E-03
 -1      1595 8.94410E-03
 -1      1596 8.94410E-03
 -1      1597 6.41807E-03
 -1      1598 7.20178E-03
 -1      1599 7.20178E-03
 -1      1600 5.12023E-03
 -1      1601 5.76915E-03
 -1      1602 5.76915E-03
 -1      1603 3.99657E-03
 -1      1604 4.55840E-03
 -1      1605 4.55840E-03
 -1      1606 3.06358E-03
 -1      1607 3.54318E-03
 -1      1608 3.54318E-03
 -1      1609 2.26756E-03
 -1      1610 2.67560E-03
 -1      1611 2.70181E-03
 -1      1612 1.71006E-03
 -1      1613 1.96568E-03
 -1      1614 2.01194E-03
 -1      1615 1.34419E-03
 -1      1616 1.52713E-03
 -1      1617 1.52713E-03
 -1      1618 9.25756E-04
 -1      1619 1.13498E-03
 -1      1620 1.13498E-03
 -1      1621 5.64147E-04
 -1      1622 7.44951E-04
 -1      1623 7.44951E-04
 -1      1624 4.08793E-04
 -1      1625 2.89577E-04
 -1      1626 2.89577E-04
 -1      1627 2.63857E-04
 -1      1628 2.89577E-04
 -1      1629 3.25715E-04
 -1      1630 1.99965E-04
 -1      1631 2.52705E-04
 -1      1632 3.14563E-04
 -1      1633 1.51001E-04
 -1      1634 1.42104E-04
 -1      1635 2.45549E-04
 -1      1636 2.44768E-04
 -1      1637 2.12765E-04
 -1      1638 2.49451E-04
 -1      1639 3.03614E-04
 -1      1640 2.84824E-04
 -1      1641 3.51272E-04
 -1      1642 3.24681E-04
 -1      1643 3.19377E-04
 -1      1644 4.07091E-04
 -1      1645 3.24681E-04
 -1      1646 3.24681E-04
 -1      1647 4.22854E-04
 -1      1648 3.18900E-04
 -1      1649 3.24552E-04
 -1      1650 4.22725E-04
 -1      1651 2.82005E-04
 -1      1652 3.01794E-04
 -1      1653 4.05491E-04
 -1      1654 2.11992E-04
 -1      1655 2.43056E-04
 -1      1656 3.49437E-04
 -1      1657 1.43960E-04
 -1      1658 1.51507E-04
 -1      1659 2.50003E-04
 -1      1660 2.52459E-04
 -1      1661 2.00574E-04
 -1      1662 2.46133E-04
 -1      1663 3.19409E-04
 -1      1664 2.52459E-04
 -1      1665 3.02747E-04
 -1      1666 4.01438E-04
 -1      1667 3.77396E-04
 -1      1668 3.60735E-04
 -1      1669 5.89676E-04
 -1      1670 2.86147E+01
 -1      1671 2.80894E+01
 -1      1672 3.87070E+01
 -1      1673 2.74281E+01
 -1      1674 4.84355E+01
 -1      1675 4.84355E+01
 -1      1676 2.23457E+01
 -1      1677 3.57273E+01
 -1      1678 1.18147E+01
 -1      1679 1.67164E+01
 -1      1680 1.21613E+01
 -1      1681 1.18689E+01
 -1      1682 1.28412E+01
 -1      1683 1.24538E+01
 -1      1684 1.32286E+01
 -1      1685 1.32286E+01
 -1      1686 1.28612E+01
 -1      1687 1.30449E+01
 -1      1688 1.23474E+01
 -1      1689 1.22325E+01
 -1      1690 2.05875E+01
 -1      1691 1.30909E+01
 -1      1692 2.80841E+01
 -1      1693 2.80841E+01
 -1      1694 3.09534E+01
 -1      1695 3.09962E+01
 -1      1696 2.96787E+01
 -1      1697 3.09534E+01
 -1      1698 2.98413E+01
 -1      1699 2.94134E+01
 -1      1700 2.98413E+01
 -1      1701 2.98413E+01
 -1      1702 3.99062E+01
 -1      1703 3.17359E+01
 -1      1704 4.26458E+01
 -1      1705 4.26458E+01
 -1      1706 1.71835E+01
 -1      1707 3.00087E+01
 -1      1708 1.20882E+01
 -1      1709 1.42375E+01
 -1      1710 1.26969E+01
 -1      1711 1.26969E+01
 -1      1712 1.24901E+01
 -1      1713 1.25935E+01
 -1      1714 1.21832E+01
 -1      1715 1.21613E+01
 -1      1716 1.25340E+01
 -1      1717 1.25340E+01
 -1      1718 1.15709E+01
 -1      1719 1.19069E+01
 -1      1720 1.82964E+01
 -1      1721 1.18620E+01
 -1      1722 2.90050E+01
 -1      1723 2.60042E+01
 -1      1724 3.07662E+01
 -1      1725 3.07662E+01
 -1      1726 2.77742E+01
 -1      1727 3.07662E+01
 -1      1728 2.80894E+01
 -1      1729 2.80500E+01
 -1      1730 1.73898E+01
 -1      1731 3.57273E+01
 -1      1732 4.08793E-04
 -1      1733 4.44931E-04
 -1      1734 3.01651E+01
 -1      1735 3.87070E+01
 -1      1736 3.13517E+01
 -1      1737 1.18147E+01
 -1      1738 1.21613E+01
 -1      1739 1.28412E+01
 -1      1740 1.30449E+01
 -1      1741 1.22325E+01
 -1      1742 1.23474E+01
 -1      1743 2.05875E+01
 -1      1744 3.09962E+01
 -1      1745 3.39082E+01
 -1      1746 3.36429E+01
 -1      1747 3.33776E+01
 -1      1748 3.52721E+01
 -1      1749 3.99062E+01
 -1      1750 3.00087E+01
 -1      1751 1.44256E+01
 -1      1752 1.20882E+01
 -1      1753 1.25935E+01
 -1      1754 1.21613E+01
 -1      1755 1.21832E+01
 -1      1756 1.19069E+01
 -1      1757 1.15709E+01
 -1      1758 1.95697E+01
 -1      1759 2.90387E+01
 -1      1760 3.08000E+01
 -1      1761 3.10758E+01
 -1      1762 9.32463E+00
 -1      1763 1.93971E+00
 -1      1764 2.26215E+00
 -1      1765 2.83513E+00
 -1      1766 4.54672E+00
 -1      1767 2.23554E+00
 -1      1768 1.67933E+00
 -1      1769 1.77583E+00
 -1      1770 1.79774E+00
 -1      1771 1.79149E+00
 -1      1772 1.73854E+00
 -1      1773 1.83772E+00
 -1      1774 1.83772E+00
 -1      1775 1.89068E+00
 -1      1776 1.70650E+00
 -1      1777 1.83772E+00
 -1      1778 1.93067E+00
 -1      1779 1.29710E+00
 -1      1780 1.50741E+00
 -1      1781 1.73157E+00
 -1      1782 1.77583E+00
 -1      1783 1.40911E+00
 -1      1784 1.64449E+00
 -1      1785 2.41482E+00
 -1      1786 2.11912E+00
 -1      1787 2.09980E+00
 -1      1788 2.63293E+00
 -1      1789 2.52429E+00
 -1      1790 2.55256E+00
 -1      1791 2.74276E+00
 -1      1792 2.63293E+00
 -1      1793 2.66203E+00
 -1      1794 3.22574E+00
 -1      1795 2.94863E+00
 -1      1796 2.86791E+00
 -1      1797 3.42062E+00
 -1      1798 3.00940E+00
 -1      1799 2.85744E+00
 -1      1800 6.85276E+00
 -1      1801 3.01756E+00
 -1      1802 2.23805E+00
 -1      1803 1.87919E+00
 -1      1804 4.74763E+00
 -1      1805 1.42236E+00
 -1      1806 1.77225E+00
 -1      1807 1.72805E+00
 -1      1808 3.00943E+00
 -1      1809 1.50897E+00
 -1      1810 1.05116E+00
 -1      1811 8.77808E-01
 -1      1812 7.47153E-01
 -1      1813 8.77808E-01
 -1      1814 8.38932E-01
 -1      1815 1.00793E+00
 -1      1816 7.96233E-01
 -1      1817 1.19522E+00
 -1      1818 1.43929E+00
 -1      1819 1.07530E+00
 -1      1820 1.60076E+00
 -1      1821 1.89824E+00
 -1      1822 1.42406E+00
 -1      1823 2.07355E+00
 -1      1824 2.43175E+00
 -1      1825 1.76085E+00
 -1      1826 2.51938E+00
 -1      1827 2.64415E+00
 -1      1828 2.02379E+00
 -1      1829 2.58192E+00
 -1      1830 2.58081E+00
 -1      1831 2.04919E+00
 -1      1832 2.62581E+00
 -1      1833 2.51985E+00
 -1      1834 2.03197E+00
 -1      1835 2.42230E+00
 -1      1836 2.04279E+00
 -1      1837 1.97942E+00
 -1      1838 1.83385E+00
 -1      1839 1.46643E+00
 -1      1840 1.67292E+00
 -1      1841 1.27456E+00
 -1      1842 1.06934E+00
 -1      1843 1.27211E+00
 -1      1844 8.31869E-01
 -1      1845 7.31399E-01
 -1      1846 8.42773E-01
 -1      1847 6.32322E-01
 -1      1848 6.25949E-01
 -1      1849 5.06229E-01
 -1      1850 6.46756E-01
 -1      1851 6.21137E-01
 -1      1852 4.27960E-01
 -1      1853 6.80870E-01
 -1      1854 6.73322E-01
 -1      1855 5.08500E-01
 -1      1856 6.82244E-01
 -1      1857 6.34850E-01
 -1      1858 5.77155E-01
 -1      1859 6.12300E-01
 -1      1860 5.49814E-01
 -1      1861 5.63527E-01
 -1      1862 5.19733E-01
 -1      1863 4.74502E-01
 -1      1864 5.10895E-01
 -1      1865 4.46582E-01
 -1      1866 4.13252E-01
 -1      1867 4.52895E-01
 -1      1868 3.83857E-01
 -1      1869 3.46254E-01
 -1      1870 3.95579E-01
 -1      1871 3.13621E-01
 -1      1872 2.77755E-01
 -1      1873 3.33551E-01
 -1      1874 2.46013E-01
 -1      1875 2.20830E-01
 -1      1876 2.69176E-01
 -1      1877 1.92347E-01
 -1      1878 1.70029E-01
 -1      1879 2.08951E-01
 -1      1880 1.45888E-01
 -1      1881 1.28482E-01
 -1      1882 1.56326E-01
 -1      1883 1.09814E-01
 -1      1884 9.48493E-02
 -1      1885 1.13517E-01
 -1      1886 8.24785E-02
 -1      1887 7.28839E-02
 -1      1888 8.24785E-02
 -1      1889 6.30103E-02
 -1      1890 5.63592E-02
 -1      1891 6.02340E-02
 -1      1892 5.01264E-02
 -1      1893 4.40254E-02
 -1      1894 4.41276E-02
 -1      1895 4.10545E-02
 -1      1896 3.57059E-02
 -1      1897 3.49239E-02
 -1      1898 3.28707E-02
 -1      1899 2.83397E-02
 -1      1900 2.91178E-02
 -1      1901 2.57712E-02
 -1      1902 2.22565E-02
 -1      1903 2.37142E-02
 -1      1904 2.00164E-02
 -1      1905 1.74398E-02
 -1      1906 1.89056E-02
 -1      1907 1.55432E-02
 -1      1908 1.39374E-02
 -1      1909 1.47689E-02
 -1      1910 1.29023E-02
 -1      1911 1.14481E-02
 -1      1912 1.18373E-02
 -1      1913 1.05914E-02
 -1      1914 9.32404E-03
 -1      1915 9.94555E-03
 -1      1916 8.51019E-03
 -1      1917 7.57938E-03
 -1      1918 8.27506E-03
 -1      1919 6.87540E-03
 -1      1920 6.05966E-03
 -1      1921 6.75722E-03
 -1      1922 5.48550E-03
 -1      1923 4.89383E-03
 -1      1924 5.47908E-03
 -1      1925 4.38056E-03
 -1      1926 3.85789E-03
 -1      1927 4.39166E-03
 -1      1928 3.45393E-03
 -1      1929 2.99948E-03
 -1      1930 3.47443E-03
 -1      1931 2.65456E-03
 -1      1932 2.26769E-03
 -1      1933 2.72555E-03
 -1      1934 1.96775E-03
 -1      1935 1.74852E-03
 -1      1936 2.08069E-03
 -1      1937 1.49672E-03
 -1      1938 1.31356E-03
 -1      1939 1.52894E-03
 -1      1940 1.15477E-03
 -1      1941 1.02377E-03
 -1      1942 1.11835E-03
 -1      1943 8.76821E-04
 -1      1944 7.13144E-04
 -1      1945 5.42190E-04
 -1      1946 8.12609E-04
 -1      1947 1.21508E+00
 -1      1948 1.42055E+00
 -1      1949 1.61929E+00
 -1      1950 1.27779E+00
 -1      1951 1.11390E+00
 -1      1952 1.51629E+00
 -1      1953 1.44104E+00
 -1      1954 1.18346E+00
 -1      1955 1.32077E+00
 -1      1956 1.72579E+00
 -1      1957 1.57445E+00
 -1      1958 1.35985E+00
 -1      1959 2.42874E+00
 -1      1960 2.16469E+00
 -1      1961 1.93217E+00
 -1      1962 3.18223E+00
 -1      1963 2.65483E+00
 -1      1964 2.59717E+00
 -1      1965 4.40774E+00
 -1      1966 3.58428E+00
 -1      1967 3.22531E+00
 -1      1968 4.69298E+00
 -1      1969 4.35233E+00
 -1      1970 3.57195E+00
 -1      1971 4.30833E+00
 -1      1972 4.51887E+00
 -1      1973 3.34242E+00
 -1      1974 2.69635E+00
 -1      1975 3.83653E+00
 -1      1976 2.69650E+00
 -1      1977 1.62414E+00
 -1      1978 2.28042E+00
 -1      1979 1.80877E+00
 -1      1980 1.45571E+00
 -1      1981 1.56028E+00
 -1      1982 1.32899E+00
 -1      1983 1.67682E+00
 -1      1984 1.57729E+00
 -1      1985 1.38672E+00
 -1      1986 1.77502E+00
 -1      1987 1.68377E+00
 -1      1988 1.51526E+00
 -1      1989 1.68290E+00
 -1      1990 1.75956E+00
 -1      1991 1.50676E+00
 -1      1992 1.46223E+00
 -1      1993 1.61127E+00
 -1      1994 1.41967E+00
 -1      1995 1.25095E+00
 -1      1996 1.38269E+00
 -1      1997 1.26850E+00
 -1      1998 1.03162E+00
 -1      1999 1.15277E+00
 -1      2000 1.09078E+00
 -1      2001 8.19071E-01
 -1      2002 9.33541E-01
 -1      2003 8.94529E-01
 -1      2004 6.28360E-01
 -1      2005 7.29363E-01
 -1      2006 7.06744E-01
 -1      2007 4.68177E-01
 -1      2008 5.52019E-01
 -1      2009 5.40696E-01
 -1      2010 3.40488E-01
 -1      2011 4.06243E-01
 -1      2012 4.02422E-01
 -1      2013 2.44575E-01
 -1      2014 2.91942E-01
 -1      2015 2.91942E-01
 -1      2016 1.80016E-01
 -1      2017 2.12374E-01
 -1      2018 2.11195E-01
 -1      2019 1.31908E-01
 -1      2020 1.56473E-01
 -1      2021 1.55451E-01
 -1      2022 9.52841E-02
 -1      2023 1.13596E-01
 -1      2024 1.13596E-01
 -1      2025 6.72955E-02
 -1      2026 8.12898E-02
 -1      2027 8.12898E-02
 -1      2028 4.68613E-02
 -1      2029 5.67791E-02
 -1      2030 5.67791E-02
 -1      2031 3.48793E-02
 -1      2032 3.90931E-02
 -1      2033 3.84944E-02
 -1      2034 2.84593E-02
 -1      2035 3.22261E-02
 -1      2036 2.80730E-02
 -1      2037 2.32023E-02
 -1      2038 2.64640E-02
 -1      2039 2.34245E-02
 -1      2040 1.85628E-02
 -1      2041 2.13162E-02
 -1      2042 1.95431E-02
 -1      2043 1.54437E-02
 -1      2044 1.68615E-02
 -1      2045 1.59559E-02
 -1      2046 1.28111E-02
 -1      2047 1.39606E-02
 -1      2048 1.27715E-02
 -1      2049 1.06330E-02
 -1      2050 1.17781E-02
 -1      2051 1.02554E-02
 -1      2052 8.89156E-03
 -1      2053 9.96197E-03
 -1      2054 8.55141E-03
 -1      2055 7.27123E-03
 -1      2056 8.22984E-03
 -1      2057 7.21869E-03
 -1      2058 5.87690E-03
 -1      2059 6.66061E-03
 -1      2060 5.94635E-03
 -1      2061 4.75527E-03
 -1      2062 5.40419E-03
 -1      2063 4.86302E-03
 -1      2064 3.77785E-03
 -1      2065 4.33968E-03
 -1      2066 3.97473E-03
 -1      2067 2.95076E-03
 -1      2068 3.40414E-03
 -1      2069 3.18543E-03
 -1      2070 2.23449E-03
 -1      2071 2.62248E-03
 -1      2072 2.48344E-03
 -1      2073 1.64911E-03
 -1      2074 1.95099E-03
 -1      2075 1.87166E-03
 -1      2076 1.27398E-03
 -1      2077 1.45691E-03
 -1      2078 1.39597E-03
 -1      2079 9.07170E-04
 -1      2080 1.11639E-03
 -1      2081 1.04618E-03
 -1      2082 5.55856E-04
 -1      2083 7.36661E-04
 -1      2084 7.18075E-04
 -1      2085 4.36641E-04
 -1      2086 2.65858E-04
 -1      2087 3.23720E-04
 -1      2088 4.71495E-04
 -1      2089 4.82648E-04
 -1      2090 4.91805E-04
 -1      2091 4.82648E-04
 -1      2092 4.82648E-04
 -1      2093 5.93573E-04
 -1      2094 6.39581E-04
 -1      2095 3.64886E-04
 -1      2096 3.03121E-04
 -1      2097 3.81292E-04
 -1      2098 4.63257E-04
 -1      2099 4.23201E-04
 -1      2100 4.76871E-04
 -1      2101 5.05293E-04
 -1      2102 4.89530E-04
 -1      2103 5.61459E-04
 -1      2104 5.05293E-04
 -1      2105 5.05293E-04
 -1      2106 5.87731E-04
 -1      2107 5.04030E-04
 -1      2108 5.04159E-04
 -1      2109 5.86598E-04
 -1      2110 4.86925E-04
 -1      2111 5.04030E-04
 -1      2112 5.85464E-04
 -1      2113 4.22305E-04
 -1      2114 4.61254E-04
 -1      2115 5.59793E-04
 -1      2116 3.03275E-04
 -1      2117 3.63759E-04
 -1      2118 4.75577E-04
 -1      2119 3.18579E-04
 -1      2120 2.61964E-04
 -1      2121 3.75720E-04
 -1      2122 4.17260E-04
 -1      2123 4.17260E-04
 -1      2124 4.33091E-04
 -1      2125 3.87070E+01
 -1      2126 2.89785E+01
 -1      2127 3.23565E+01
 -1      2128 3.23565E+01
 -1      2129 3.11699E+01
 -1      2130 3.23565E+01
 -1      2131 3.33613E+01
 -1      2132 2.01817E+01
 -1      2133 3.28899E+01
 -1      2134 1.05460E+01
 -1      2135 1.61754E+01
 -1      2136 1.33379E+01
 -1      2137 1.74161E+00
 -1      2138 1.88740E+00
 -1      2139 1.61025E+00
 -1      2140 1.59215E+00
 -1      2141 1.09930E+01
 -1      2142 1.07005E+01
 -1      2143 1.16209E+01
 -1      2144 1.12335E+01
 -1      2145 9.77265E+00
 -1      2146 1.09947E+01
 -1      2147 1.11785E+01
 -1      2148 1.02508E+01
 -1      2149 1.08795E+01
 -1      2150 1.02814E+01
 -1      2151 9.53792E+00
 -1      2152 8.18485E+00
 -1      2153 1.98407E+01
 -1      2154 1.23441E+01
 -1      2155 2.67150E+01
 -1      2156 2.38030E+01
 -1      2157 1.55596E+01
 -1      2158 3.39082E+01
 -1      2159 3.39082E+01
 -1      2160 3.90258E+01
 -1      2161 3.92911E+01
 -1      2162 3.92911E+01
 -1      2163 3.90258E+01
 -1      2164 3.90258E+01
 -1      2165 3.25680E+01
 -1      2166 3.06734E+01
 -1      2167 3.39939E+01
 -1      2168 3.12543E+01
 -1      2169 1.60363E+01
 -1      2170 2.86734E+01
 -1      2171 9.79966E+00
 -1      2172 1.27457E+01
 -1      2173 9.98326E+00
 -1      2174 9.37455E+00
 -1      2175 1.12488E+01
 -1      2176 1.13522E+01
 -1      2177 1.11144E+01
 -1      2178 1.14432E+01
 -1      2179 1.13137E+01
 -1      2180 1.09629E+01
 -1      2181 1.02448E+01
 -1      2182 9.67027E+00
 -1      2183 1.02974E+01
 -1      2184 9.35890E+00
 -1      2185 9.06781E+00
 -1      2186 7.45829E+00
 -1      2187 1.89426E+01
 -1      2188 1.12349E+01
 -1      2189 2.44406E+01
 -1      2190 2.26794E+01
 -1      2191 3.08000E+01
 -1      2192 3.08000E+01
 -1      2193 2.44406E+01
 -1      2194 3.19824E+01
 -1      2195 3.17066E+01
 -1      2196 3.29872E+01
 -1      2197 9.81223E+00
 -1      2198 9.75805E+00
 -1      2199 8.64387E+00
 -1      2200 8.30367E+00
 -1      2201 7.08920E+00
 -1      2202 6.30121E+00
 -1      2203 2.38765E+00
 -1      2204 9.53460E+00
 -1      2205 1.92984E+00
 -1      2206 2.69838E+01
 -1      2207 2.91752E+01
 -1      2208 2.69838E+01
 -1      2209 2.31614E+01
 -1      2210 4.75247E-04
 -1      2211 3.17066E+01
 -1      2212 8.73178E+00
 -1      2213 9.07703E+00
 -1      2214 1.02019E+01
 -1      2215 8.63856E+00
 -1      2216 7.85400E+00
 -1      2217 6.17412E+00
 -1      2218 5.74902E+00
 -1      2219 1.14104E+01
 -1      2220 2.00215E+01
 -1      2221 2.66556E+01
 -1      2222 4.46740E+01
 -1      2223 2.67150E+01
 -1      2224 9.05905E+00
 -1      2225 1.11092E+01
 -1      2226 9.50147E+00
 -1      2227 9.01303E+00
 -1      2228 3.63217E+01
 -1      2229 1.43445E+01
 -1      2230 2.35636E+00
 -1      2231 2.35817E+00
 -1      2232 2.07518E+00
 -1      2233 2.03520E+00
 -1      2234 1.87318E+00
 -1      2235 1.76102E+00
 -1      2236 2.05768E+00
 -1      2237 1.96377E+00
 -1      2238 2.16286E+00
 -1      2239 2.07611E+00
 -1      2240 1.96410E+00
 -1      2241 2.39539E+00
 -1      2242 2.54002E+00
 -1      2243 2.19673E+00
 -1      2244 2.51634E+00
 -1      2245 2.85291E+00
 -1      2246 2.74344E+00
 -1      2247 2.84038E+00
 -1      2248 2.85291E+00
 -1      2249 2.85291E+00
 -1      2250 3.04379E+00
 -1      2251 3.08451E+00
 -1      2252 2.87864E+00
 -1      2253 3.06952E+00
 -1      2254 1.81172E+00
 -1      2255 1.91291E+00
 -1      2256 2.65179E+00
 -1      2257 8.66667E-01
 -1      2258 6.93313E-01
 -1      2259 9.04236E+00
 -1      2260 6.97970E+00
 -1      2261 6.48454E-01
 -1      2262 7.40234E-01
 -1      2263 6.37314E-01
 -1      2264 8.87971E-01
 -1      2265 1.07526E+00
 -1      2266 7.40192E-01
 -1      2267 1.27522E+00
 -1      2268 1.43670E+00
 -1      2269 1.08789E+00
 -1      2270 1.53590E+00
 -1      2271 1.71122E+00
 -1      2272 1.38706E+00
 -1      2273 1.79037E+00
 -1      2274 1.87800E+00
 -1      2275 1.56542E+00
 -1      2276 1.98773E+00
 -1      2277 1.92551E+00
 -1      2278 1.75431E+00
 -1      2279 1.85830E+00
 -1      2280 1.90330E+00
 -1      2281 1.79684E+00
 -1      2282 1.88093E+00
 -1      2283 1.78337E+00
 -1      2284 1.70726E+00
 -1      2285 1.65290E+00
 -1      2286 1.44396E+00
 -1      2287 1.55441E+00
 -1      2288 1.33980E+00
 -1      2289 1.14794E+00
 -1      2290 1.31978E+00
 -1      2291 1.03521E+00
 -1      2292 7.97747E-01
 -1      2293 1.10291E+00
 -1      2294 6.94269E-01
 -1      2295 5.95192E-01
 -1      2296 8.86710E-01
 -1      2297 5.43680E-01
 -1      2298 5.64488E-01
 -1      2299 7.31720E-01
 -1      2300 5.13731E-01
 -1      2301 5.73464E-01
 -1      2302 6.29451E-01
 -1      2303 5.78493E-01
 -1      2304 5.87415E-01
 -1      2305 5.83723E-01
 -1      2306 5.69469E-01
 -1      2307 5.46918E-01
 -1      2308 5.70806E-01
 -1      2309 5.18788E-01
 -1      2310 4.88708E-01
 -1      2311 5.24731E-01
 -1      2312 4.65238E-01
 -1      2313 4.37318E-01
 -1      2314 4.73131E-01
 -1      2315 4.10284E-01
 -1      2316 3.80889E-01
 -1      2317 4.22627E-01
 -1      2318 3.49752E-01
 -1      2319 3.17119E-01
 -1      2320 3.64457E-01
 -1      2321 2.85796E-01
 -1      2322 2.54053E-01
 -1      2323 3.01996E-01
 -1      2324 2.25095E-01
 -1      2325 1.96612E-01
 -1      2326 2.41715E-01
 -1      2327 1.71341E-01
 -1      2328 1.47200E-01
 -1      2329 1.87485E-01
 -1      2330 1.26086E-01
 -1      2331 1.07419E-01
 -1      2332 1.41101E-01
 -1      2333 9.03940E-02
 -1      2334 7.80231E-02
 -1      2335 1.02963E-01
 -1      2336 6.47140E-02
 -1      2337 5.48404E-02
 -1      2338 7.26295E-02
 -1      2339 4.47316E-02
 -1      2340 3.84988E-02
 -1      2341 4.92116E-02
 -1      2342 3.20746E-02
 -1      2343 2.91037E-02
 -1      2344 3.26786E-02
 -1      2345 2.50742E-02
 -1      2346 2.22390E-02
 -1      2347 2.22249E-02
 -1      2348 2.12854E-02
 -1      2349 1.87169E-02
 -1      2350 1.72417E-02
 -1      2351 1.76180E-02
 -1      2352 1.53779E-02
 -1      2353 1.51892E-02
 -1      2354 1.42583E-02
 -1      2355 1.23617E-02
 -1      2356 1.29707E-02
 -1      2357 1.12994E-02
 -1      2358 1.02643E-02
 -1      2359 1.07888E-02
 -1      2360 9.30305E-03
 -1      2361 8.44641E-03
 -1      2362 8.76518E-03
 -1      2363 7.90852E-03
 -1      2364 7.09467E-03
 -1      2365 7.26602E-03
 -1      2366 6.59082E-03
 -1      2367 5.88683E-03
 -1      2368 6.22428E-03
 -1      2369 5.38949E-03
 -1      2370 4.81533E-03
 -1      2371 5.22308E-03
 -1      2372 4.37905E-03
 -1      2373 3.86577E-03
 -1      2374 4.28945E-03
 -1      2375 3.48546E-03
 -1      2376 3.08150E-03
 -1      2377 3.47285E-03
 -1      2378 2.73729E-03
 -1      2379 2.39237E-03
 -1      2380 2.74832E-03
 -1      2381 2.10481E-03
 -1      2382 1.80487E-03
 -1      2383 2.11655E-03
 -1      2384 1.57935E-03
 -1      2385 1.32755E-03
 -1      2386 1.60347E-03
 -1      2387 1.13592E-03
 -1      2388 9.77128E-04
 -1      2389 1.18632E-03
 -1      2390 1.99385E+00
 -1      2391 1.86043E+00
 -1      2392 2.51912E+00
 -1      2393 2.08022E+00
 -1      2394 2.58079E+00
 -1      2395 2.82043E+00
 -1      2396 2.59434E+00
 -1      2397 2.74238E+00
 -1      2398 3.69781E+00
 -1      2399 3.29576E+00
 -1      2400 3.29293E+00
 -1      2401 4.60614E+00
 -1      2402 4.66155E+00
 -1      2403 4.73201E+00
 -1      2404 3.68665E+00
 -1      2405 3.86076E+00
 -1      2406 4.95037E+00
 -1      2407 2.28266E+00
 -1      2408 2.75447E+00
 -1      2409 3.27281E+00
 -1      2410 2.09093E+00
 -1      2411 2.50686E+00
 -1      2412 2.56482E+00
 -1      2413 1.79175E+00
 -1      2414 1.85560E+00
 -1      2415 2.55368E+00
 -1      2416 1.81129E+00
 -1      2417 1.68971E+00
 -1      2418 2.21632E+00
 -1      2419 1.70438E+00
 -1      2420 1.69743E+00
 -1      2421 2.00041E+00
 -1      2422 1.55155E+00
 -1      2423 1.56700E+00
 -1      2424 1.74917E+00
 -1      2425 1.39322E+00
 -1      2426 1.46486E+00
 -1      2427 1.52510E+00
 -1      2428 1.23404E+00
 -1      2429 1.31357E+00
 -1      2430 1.35876E+00
 -1      2431 1.03589E+00
 -1      2432 1.13406E+00
 -1      2433 1.17914E+00
 -1      2434 8.35893E-01
 -1      2435 9.33970E-01
 -1      2436 9.77250E-01
 -1      2437 6.52798E-01
 -1      2438 7.42505E-01
 -1      2439 7.81946E-01
 -1      2440 4.96258E-01
 -1      2441 5.72599E-01
 -1      2442 6.08360E-01
 -1      2443 3.68377E-01
 -1      2444 4.30310E-01
 -1      2445 4.62214E-01
 -1      2446 2.67274E-01
 -1      2447 3.15820E-01
 -1      2448 3.43709E-01
 -1      2449 1.94195E-01
 -1      2450 2.26396E-01
 -1      2451 2.50273E-01
 -1      2452 1.39500E-01
 -1      2453 1.63043E-01
 -1      2454 1.78243E-01
 -1      2455 9.78864E-02
 -1      2456 1.16198E-01
 -1      2457 1.23790E-01
 -1      2458 6.67787E-02
 -1      2459 8.07730E-02
 -1      2460 8.33753E-02
 -1      2461 4.52800E-02
 -1      2462 5.57965E-02
 -1      2463 5.52796E-02
 -1      2464 3.10080E-02
 -1      2465 3.87762E-02
 -1      2466 3.77936E-02
 -1      2467 2.54198E-02
 -1      2468 2.80730E-02
 -1      2469 2.83548E-02
 -1      2470 2.14291E-02
 -1      2471 2.34245E-02
 -1      2472 2.34245E-02
 -1      2473 1.76571E-02
 -1      2474 1.95431E-02
 -1      2475 1.95431E-02
 -1      2476 1.42547E-02
 -1      2477 1.59559E-02
 -1      2478 1.59559E-02
 -1      2479 1.12884E-02
 -1      2480 1.27715E-02
 -1      2481 1.27715E-02
 -1      2482 9.22241E-03
 -1      2483 1.02554E-02
 -1      2484 1.02554E-02
 -1      2485 7.88041E-03
 -1      2486 8.55141E-03
 -1      2487 8.55141E-03
 -1      2488 6.55696E-03
 -1      2489 7.21869E-03
 -1      2490 7.21869E-03
 -1      2491 5.33573E-03
 -1      2492 5.94635E-03
 -1      2493 5.94635E-03
 -1      2494 4.36619E-03
 -1      2495 4.83889E-03
 -1      2496 4.83889E-03
 -1      2497 3.50562E-03
 -1      2498 3.92120E-03
 -1      2499 3.89707E-03
 -1      2500 2.74220E-03
 -1      2501 3.11591E-03
 -1      2502 3.06238E-03
 -1      2503 2.11664E-03
 -1      2504 2.44492E-03
 -1      2505 2.37540E-03
 -1      2506 1.57351E-03
 -1      2507 1.85700E-03
 -1      2508 1.81849E-03
 -1      2509 1.15833E-03
 -1      2510 1.35053E-03
 -1      2511 1.33587E-03
 -1      2512 8.29500E-04
 -1      2513 9.87093E-04
 -1      2514 9.41654E-04
 -1      2515 7.64083E-04
 -1      2516 6.06864E-04
 -1      2517 5.48548E-04
 -1      2518 6.72768E-04
 -1      2519 6.46495E-04
 -1      2520 7.18172E-04
 -1      2521 5.15033E-04
 -1      2522 6.62809E-04
 -1      2523 4.76085E-04
 -1      2524 4.38821E-04
 -1      2525 6.09825E-04
 -1      2526 6.06077E-04
 -1      2527 6.72768E-04
 -1      2528 6.72768E-04
 -1      2529 7.57804E-04
 -1      2530 6.70765E-04
 -1      2531 6.71899E-04
 -1      2532 7.56935E-04
 -1      2533 6.70682E-04
 -1      2534 6.70682E-04
 -1      2535 7.55983E-04
 -1      2536 6.45012E-04
 -1      2537 6.70682E-04
 -1      2538 7.55900E-04
 -1      2539 5.47211E-04
 -1      2540 6.05757E-04
 -1      2541 7.16646E-04
 -1      2542 4.57377E-04
 -1      2543 4.98687E-04
 -1      2544 6.28867E-04
 -1      2545 5.56058E-04
 -1      2546 4.57377E-04
 -1      2547 5.80343E-04
 -1      2548 1.52202E+01
 -1      2549 2.10373E+01
 -1      2550 5.98715E-04
 -1      2551 2.75540E+01
 -1      2552 2.66474E+01
 -1      2553 1.74737E+00
 -1      2554 1.84171E+00
 -1      2555 2.38137E+00
 -1      2556 3.33613E+01
 -1      2557 3.33613E+01
 -1      2558 8.53173E+00
 -1      2559 1.25381E+01
 -1      2560 1.04140E+01
 -1      2561 8.12118E+00
 -1      2562 6.24522E+00
 -1      2563 8.96833E+00
 -1      2564 8.77396E+00
 -1      2565 1.96731E+00
 -1      2566 1.08863E+00
 -1      2567 9.04134E-01
 -1      2568 1.39433E+00
 -1      2569 2.16286E+00
 -1      2570 2.16286E+00
 -1      2571 2.30738E+00
 -1      2572 2.39506E+00
 -1      2573 7.66749E+00
 -1      2574 7.78276E+00
 -1      2575 8.40151E+00
 -1      2576 8.16101E+00
 -1      2577 2.79693E+01
 -1      2578 3.63217E+01
 -1      2579 5.83924E+00
 -1      2580 6.55214E+00
 -1      2581 1.47748E+01
 -1      2582 1.08124E+01
 -1      2583 2.49324E+01
 -1      2584 1.77393E+01
 -1      2585 3.26957E+01
 -1      2586 2.73128E+01
 -1      2587 1.37103E+01
 -1      2588 9.97351E+00
 -1      2589 4.46740E+01
 -1      2590 4.46740E+01
 -1      2591 3.26957E+01
 -1      2592 2.13860E+01
 -1      2593 2.26996E+01
 -1      2594 1.28646E+01
 -1      2595 1.81851E+01
 -1      2596 1.42291E+01
 -1      2597 8.60114E+00
 -1      2598 1.18917E+01
 -1      2599 7.66845E+00
 -1      2600 6.29947E+00
 -1      2601 8.75999E+00
 -1      2602 8.91147E+00
 -1      2603 7.16245E+00
 -1      2604 8.17873E+00
 -1      2605 5.43130E+00
 -1      2606 6.03376E+00
 -1      2607 4.82069E+00
 -1      2608 2.20608E+01
 -1      2609 1.57015E+01
 -1      2610 3.29872E+01
 -1      2611 3.26132E+01
 -1      2612 7.18695E+00
 -1      2613 6.29868E+00
 -1      2614 5.81582E+00
 -1      2615 2.34745E+00
 -1      2616 2.45439E+00
 -1      2617 2.85744E+00
 -1      2618 3.08451E+00
 -1      2619 7.14588E+00
 -1      2620 8.49142E+00
 -1      2621 8.42216E+00
 -1      2622 1.75509E+00
 -1      2623 1.62045E+00
 -1      2624 1.58623E+00
 -1      2625 2.23833E+00
 -1      2626 3.07379E+00
 -1      2627 8.28744E+00
 -1      2628 5.94835E+00
 -1      2629 7.05386E+00
 -1      2630 1.00553E+01
 -1      2631 3.21877E+01
 -1      2632 3.21877E+01
 -1      2633 2.38353E+01
 -1      2634 5.34700E+00
 -1      2635 5.13985E+00
 -1      2636 7.38221E+00
 -1      2637 6.58238E+00
 -1      2638 2.14572E+01
 -1      2639 1.94626E+01
 -1      2640 1.35161E+01
 -1      2641 1.79083E+01
 -1      2642 1.13305E+01
 -1      2643 7.04998E-04
 -1      2644 7.04998E-04
 -1      2645 2.26996E+01
 -1      2646 6.32981E-04
 -1      2647 5.66038E-04
 -1      2648 5.90324E-04
 -1      2649 7.79932E-04
 -1      2650 2.36153E+01
 -1      2651 1.46395E+01
 -1      2652 1.70198E+01
 -1      2653 2.75540E+01
 -1      2654 3.08451E+00
 -1      2655 2.91752E+01
 -1      2656 1.37458E+00
 -1      2657 1.42689E+00
 -1      2658 1.15866E+00
 -1      2659 1.40288E+00
 -1      2660 7.48695E+00
 -1      2661 3.29872E+01
 -1      2662 5.13546E+00
 -1      2663 6.84541E+00
 -1      2664 1.29922E+01
 -1      2665 7.48353E+00
 -1      2666 4.77892E+00
 -1      2667 8.25755E+00
 -1      2668 8.92094E+00
 -1      2669 7.30930E+00
 -1      2670 8.40926E+00
 -1      2671 5.32188E+00
 -1      2672 5.87809E+00
 -1      2673 6.35944E+00
 -1      2674 3.93243E+00
 -1      2675 4.58815E+00
 -1      2676 6.04507E+00
 -1      2677 4.59069E+00
 -1      2678 7.28226E-04
 -1      2679 7.97500E-04
 -1      2680 3.29152E+00
 -1      2681 3.17090E+00
 -1      2682 2.94679E+00
 -1      2683 2.94645E+00
 -1      2684 3.72196E+00
 -1      2685 4.03503E+00
 -1      2686 4.03503E+00
 -1      2687 3.54992E+00
 -1      2688 3.52420E+00
 -1      2689 4.51543E+00
 -1      2690 2.65179E+00
 -1      2691 3.09524E+00
 -1      2692 2.10695E+01
 -1      2693 2.52555E+01
 -1      2694 1.00190E+00
 -1      2695 1.14963E+00
 -1      2696 1.06718E+00
 -1      2697 1.26714E+00
 -1      2698 1.32888E+00
 -1      2699 1.47428E+00
 -1      2700 1.57348E+00
 -1      2701 1.45356E+00
 -1      2702 1.56542E+00
 -1      2703 1.64458E+00
 -1      2704 1.65264E+00
 -1      2705 2.10595E+00
 -1      2706 2.21569E+00
 -1      2707 2.10595E+00
 -1      2708 2.67995E+00
 -1      2709 2.61274E+00
 -1      2710 3.03159E+00
 -1      2711 2.07519E+00
 -1      2712 2.05282E+00
 -1      2713 2.95831E+00
 -1      2714 1.68488E+00
 -1      2715 1.55441E+00
 -1      2716 2.05282E+00
 -1      2717 1.48496E+00
 -1      2718 1.38080E+00
 -1      2719 1.61543E+00
 -1      2720 1.28351E+00
 -1      2721 1.17079E+00
 -1      2722 1.44868E+00
 -1      2723 1.13665E+00
 -1      2724 1.03317E+00
 -1      2725 1.31725E+00
 -1      2726 9.18927E-01
 -1      2727 8.67415E-01
 -1      2728 1.16886E+00
 -1      2729 7.53316E-01
 -1      2730 7.02559E-01
 -1      2731 9.40523E-01
 -1      2732 6.69580E-01
 -1      2733 6.74608E-01
 -1      2734 7.93444E-01
 -1      2735 6.26185E-01
 -1      2736 6.08239E-01
 -1      2737 7.12041E-01
 -1      2738 5.58032E-01
 -1      2739 5.29903E-01
 -1      2740 6.13411E-01
 -1      2741 4.96289E-01
 -1      2742 4.72819E-01
 -1      2743 5.29591E-01
 -1      2744 4.38626E-01
 -1      2745 4.11592E-01
 -1      2746 4.61784E-01
 -1      2747 3.75207E-01
 -1      2748 3.44070E-01
 -1      2749 3.91205E-01
 -1      2750 3.10756E-01
 -1      2751 2.79433E-01
 -1      2752 3.21506E-01
 -1      2753 2.49476E-01
 -1      2754 2.20517E-01
 -1      2755 2.58236E-01
 -1      2756 1.94683E-01
 -1      2757 1.69412E-01
 -1      2758 2.02444E-01
 -1      2759 1.47856E-01
 -1      2760 1.26743E-01
 -1      2761 1.55054E-01
 -1      2762 1.09245E-01
 -1      2763 9.22207E-02
 -1      2764 1.16000E-01
 -1      2765 7.83630E-02
 -1      2766 6.50539E-02
 -1      2767 8.46452E-02
 -1      2768 5.43284E-02
 -1      2769 4.42196E-02
 -1      2770 6.00620E-02
 -1      2771 3.61045E-02
 -1      2772 2.96803E-02
 -1      2773 4.12213E-02
 -1      2774 2.36828E-02
 -1      2775 1.96533E-02
 -1      2776 2.71087E-02
 -1      2777 1.53679E-02
 -1      2778 1.44142E-02
 -1      2779 1.68258E-02
 -1      2780 1.27450E-02
 -1      2781 1.16461E-02
 -1      2782 1.08711E-02
 -1      2783 1.15139E-02
 -1      2784 1.03943E-02
 -1      2785 9.06971E-03
 -1      2786 1.00267E-02
 -1      2787 8.96438E-03
 -1      2788 8.56993E-03
 -1      2789 8.47477E-03
 -1      2790 7.51351E-03
 -1      2791 7.71271E-03
 -1      2792 6.97916E-03
 -1      2793 6.44127E-03
 -1      2794 6.68876E-03
 -1      2795 5.91870E-03
 -1      2796 5.41485E-03
 -1      2797 5.63184E-03
 -1      2798 5.07454E-03
 -1      2799 4.57719E-03
 -1      2800 4.76896E-03
 -1      2801 4.21862E-03
 -1      2802 3.78233E-03
 -1      2803 4.07007E-03
 -1      2804 3.43379E-03
 -1      2805 3.05347E-03
 -1      2806 3.36295E-03
 -1      2807 2.73153E-03
 -1      2808 2.38732E-03
 -1      2809 2.69247E-03
 -1      2810 2.11960E-03
 -1      2811 1.83204E-03
 -1      2812 2.10281E-03
 -1      2813 1.60347E-03
 -1      2814 1.37795E-03
 -1      2815 1.60652E-03
 -1      2816 1.18632E-03
 -1      2817 9.94696E-04
 -1      2818 1.18632E-03
 -1      2819 3.23781E+00
 -1      2820 3.16259E+00
 -1      2821 3.31898E+00
 -1      2822 3.23261E+00
 -1      2823 3.81441E+00
 -1      2824 6.77514E+00
 -1      2825 5.81140E+00
 -1      2826 6.01686E+00
 -1      2827 6.76224E+00
 -1      2828 2.37015E+00
 -1      2829 3.30232E+00
 -1      2830 3.44143E+00
 -1      2831 3.21724E+00
 -1      2832 3.24304E+00
 -1      2833 3.47837E+00
 -1      2834 4.13079E+00
 -1      2835 2.74172E+00
 -1      2836 2.84376E+00
 -1      2837 3.76844E+00
 -1      2838 2.25489E+00
 -1      2839 2.36876E+00
 -1      2840 2.99620E+00
 -1      2841 1.81979E+00
 -1      2842 1.95717E+00
 -1      2843 2.32551E+00
 -1      2844 1.58814E+00
 -1      2845 1.67484E+00
 -1      2846 1.88283E+00
 -1      2847 1.35864E+00
 -1      2848 1.43829E+00
 -1      2849 1.58802E+00
 -1      2850 1.12155E+00
 -1      2851 1.22152E+00
 -1      2852 1.30105E+00
 -1      2853 9.00870E-01
 -1      2854 1.00279E+00
 -1      2855 1.04517E+00
 -1      2856 7.07680E-01
 -1      2857 8.01067E-01
 -1      2858 8.26603E-01
 -1      2859 5.45287E-01
 -1      2860 6.25486E-01
 -1      2861 6.44606E-01
 -1      2862 4.12741E-01
 -1      2863 4.78689E-01
 -1      2864 4.95815E-01
 -1      2865 3.07012E-01
 -1      2866 3.59569E-01
 -1      2867 3.76045E-01
 -1      2868 2.24272E-01
 -1      2869 2.65150E-01
 -1      2870 2.81011E-01
 -1      2871 1.60613E-01
 -1      2872 1.91765E-01
 -1      2873 2.06642E-01
 -1      2874 1.12415E-01
 -1      2875 1.35717E-01
 -1      2876 1.49238E-01
 -1      2877 7.65057E-02
 -1      2878 9.36191E-02
 -1      2879 1.05546E-01
 -1      2880 5.15477E-02
 -1      2881 6.25299E-02
 -1      2882 7.27737E-02
 -1      2883 3.48252E-02
 -1      2884 4.13291E-02
 -1      2885 4.85793E-02
 -1      2886 2.45604E-02
 -1      2887 2.74954E-02
 -1      2888 3.10308E-02
 -1      2889 1.84733E-02
 -1      2890 2.04686E-02
 -1      2891 1.96092E-02
 -1      2892 1.53507E-02
 -1      2893 1.72367E-02
 -1      2894 1.42809E-02
 -1      2895 1.29849E-02
 -1      2896 1.46861E-02
 -1      2897 1.23796E-02
 -1      2898 1.07220E-02
 -1      2899 1.22052E-02
 -1      2900 1.09353E-02
 -1      2901 8.88919E-03
 -1      2902 9.92218E-03
 -1      2903 9.35581E-03
 -1      2904 7.45592E-03
 -1      2905 8.12692E-03
 -1      2906 7.79370E-03
 -1      2907 6.22139E-03
 -1      2908 6.88312E-03
 -1      2909 6.45862E-03
 -1      2910 5.15911E-03
 -1      2911 5.76973E-03
 -1      2912 5.43415E-03
 -1      2913 4.24320E-03
 -1      2914 4.74004E-03
 -1      2915 4.56342E-03
 -1      2916 3.40198E-03
 -1      2917 3.84696E-03
 -1      2918 3.74810E-03
 -1      2919 2.68199E-03
 -1      2920 3.07170E-03
 -1      2921 3.02159E-03
 -1      2922 2.08430E-03
 -1      2923 2.38157E-03
 -1      2924 2.39089E-03
 -1      2925 1.56247E-03
 -1      2926 1.82211E-03
 -1      2927 1.82828E-03
 -1      2928 1.12958E-03
 -1      2929 1.35256E-03
 -1      2930 1.35619E-03
 -1      2931 8.50499E-04
 -1      2932 1.02174E-03
 -1      2933 1.03843E-03
 -1      2934 8.08310E-04
 -1      2935 8.52531E-04
 -1      2936 8.53400E-04
 -1      2937 8.15934E-04
 -1      2938 6.18738E-04
 -1      2939 8.15934E-04
 -1      2940 8.47887E-04
 -1      2941 8.08256E-04
 -1      2942 8.51881E-04
 -1      2943 8.51963E-04
 -1      2944 9.48429E-04
 -1      2945 8.53400E-04
 -1      2946 8.53400E-04
 -1      2947 9.43483E-04
 -1      2948 9.48997E-04
 -1      2949 3.27369E+00
 -1      2950 3.16064E+00
 -1      2951 4.01188E+00
 -1      2952 8.51881E-04
 -1      2953 8.51881E-04
 -1      2954 9.47861E-04
 -1      2955 8.02883E-04
 -1      2956 8.42138E-04
 -1      2957 9.38118E-04
 -1      2958 6.84713E-04
 -1      2959 7.33237E-04
 -1      2960 8.58729E-04
 -1      2961 1.67464E+01
 -1      2962 1.21598E+01
 -1      2963 1.55016E+01
 -1      2964 2.07712E+01
 -1      2965 7.17386E+00
 -1      2966 9.85600E+00
 -1      2967 5.49743E+00
 -1      2968 4.52338E+00
 -1      2969 4.51304E+00
 -1      2970 3.69911E+00
 -1      2971 8.26033E+00
 -1      2972 9.23318E+00
 -1      2973 9.68885E-01
 -1      2974 7.46924E-01
 -1      2975 1.00145E+00
 -1      2976 6.79921E-01
 -1      2977 6.35062E-01
 -1      2978 1.04450E+00
 -1      2979 7.44673E-01
 -1      2980 7.66451E+00
 -1      2981 5.81218E+00
 -1      2982 4.69060E+00
 -1      2983 6.08758E-04
 -1      2984 2.61397E+00
 -1      2985 2.58399E+00
 -1      2986 3.02744E+00
 -1      2987 3.50630E+00
 -1      2988 3.49493E+00
 -1      2989 3.29152E+00
 -1      2990 4.48617E+00
 -1      2991 5.07274E+00
 -1      2992 3.93228E+00
 -1      2993 2.34767E+00
 -1      2994 2.18565E+00
 -1      2995 7.01326E+00
 -1      2996 7.07012E+00
 -1      2997 2.32207E+01
 -1      2998 1.81615E+01
 -1      2999 1.24130E+01
 -1      3000 2.28130E+01
 -1      3001 2.24390E+01
 -1      3002 2.93742E+01
 -1      3003 1.73959E+01
 -1      3004 1.04468E+01
 -1      3005 1.36477E+01
 -1      3006 1.17193E+01
 -1      3007 8.65178E+00
 -1      3008 8.47968E+00
 -1      3009 6.70960E+00
 -1      3010 4.10451E+00
 -1      3011 3.55406E+00
 -1      3012 1.31516E+01
 -1      3013 1.01871E+01
 -1      3014 5.95083E+00
 -1      3015 6.53208E+00
 -1      3016 6.11867E+00
 -1      3017 1.13375E+01
 -1      3018 9.34628E+00
 -1      3019 4.29752E+00
 -1      3020 5.42621E+00
 -1      3021 3.09524E+00
 -1      3022 2.00954E+00
 -1      3023 1.86897E+00
 -1      3024 2.29953E+00
 -1      3025 3.64821E+00
 -1      3026 3.09682E+00
 -1      3027 3.09682E+00
 -1      3028 1.47072E+01
 -1      3029 5.84145E+00
 -1      3030 3.79831E+00
 -1      3031 3.32298E+00
 -1      3032 5.13279E+00
 -1      3033 6.58359E+00
 -1      3034 1.66373E+01
 -1      3035 4.88370E+00
 -1      3036 3.74319E+00
 -1      3037 4.01745E+00
 -1      3038 1.02069E+01
 -1      3039 1.06269E+01
 -1      3040 6.96677E+00
 -1      3041 3.98986E+00
 -1      3042 5.11288E+00
 -1      3043 8.69159E-04
 -1      3044 7.39444E-04
 -1      3045 6.66980E-04
 -1      3046 1.18345E+01
 -1      3047 3.24676E+00
 -1      3048 6.18755E-04
 -1      3049 6.94967E-04
 -1      3050 8.17239E-04
 -1      3051 7.52122E-04
 -1      3052 8.63916E+00
 -1      3053 2.80550E+01
 -1      3054 1.27552E+01
 -1      3055 1.55687E+01
 -1      3056 3.94607E+00
 -1      3057 1.01756E+01
 -1      3058 1.30465E+01
 -1      3059 6.08758E-04
 -1      3060 1.51823E+01
 -1      3061 1.14848E+01
 -1      3062 1.18609E+01
 -1      3063 6.81905E+00
 -1      3064 5.99689E+00
 -1      3065 4.09600E+00
 -1      3066 6.01686E+00
 -1      3067 4.26976E+00
 -1      3068 6.08876E+00
 -1      3069 5.53072E+00
 -1      3070 4.93924E+00
 -1      3071 5.29487E+00
 -1      3072 7.67151E+00
 -1      3073 1.55429E+01
 -1      3074 7.22397E-04
 -1      3075 6.93983E-04
 -1      3076 7.98353E-04
 -1      3077 9.01159E-04
 -1      3078 7.84164E+00
 -1      3079 2.76817E+00
 -1      3080 2.68049E+00
 -1      3081 2.80847E+00
 -1      3082 5.15377E+00
 -1      3083 4.53479E+00
 -1      3084 3.30993E+00
 -1      3085 3.25802E+00
 -1      3086 3.09524E+00
 -1      3087 3.54992E+00
 -1      3088 4.72111E+00
 -1      3089 5.17580E+00
 -1      3090 4.65331E+00
 -1      3091 5.68662E+00
 -1      3092 6.34261E+00
 -1      3093 5.80252E+00
 -1      3094 5.40755E+00
 -1      3095 5.39129E+00
 -1      3096 1.29769E+01
 -1      3097 1.05344E+01
 -1      3098 1.13375E+01
 -1      3099 9.84966E+00
 -1      3100 1.45356E+00
 -1      3101 1.66070E+00
 -1      3102 1.84988E+00
 -1      3103 1.84182E+00
 -1      3104 1.84988E+00
 -1      3105 2.26212E+00
 -1      3106 2.72350E+00
 -1      3107 2.45937E+00
 -1      3108 3.39129E+00
 -1      3109 3.85555E+00
 -1      3110 3.50451E+00
 -1      3111 3.13657E+00
 -1      3112 1.67299E+00
 -1      3113 1.60354E+00
 -1      3114 3.12468E+00
 -1      3115 1.81514E+00
 -1      3116 1.71785E+00
 -1      3117 1.87270E+00
 -1      3118 1.67266E+00
 -1      3119 1.63852E+00
 -1      3120 2.03912E+00
 -1      3121 1.43303E+00
 -1      3122 1.31879E+00
 -1      3123 1.78845E+00
 -1      3124 1.16956E+00
 -1      3125 1.05547E+00
 -1      3126 1.43373E+00
 -1      3127 9.48009E-01
 -1      3128 9.15029E-01
 -1      3129 1.17705E+00
 -1      3130 8.11467E-01
 -1      3131 7.63043E-01
 -1      3132 9.66031E-01
 -1      3133 6.81984E-01
 -1      3134 6.31777E-01
 -1      3135 7.81410E-01
 -1      3136 5.76389E-01
 -1      3137 5.42775E-01
 -1      3138 6.44962E-01
 -1      3139 4.91346E-01
 -1      3140 4.57152E-01
 -1      3141 5.38143E-01
 -1      3142 4.10834E-01
 -1      3143 3.74448E-01
 -1      3144 4.40396E-01
 -1      3145 3.33200E-01
 -1      3146 2.99886E-01
 -1      3147 3.52828E-01
 -1      3148 2.64766E-01
 -1      3149 2.34809E-01
 -1      3150 2.76460E-01
 -1      3151 2.06088E-01
 -1      3152 1.80254E-01
 -1      3153 2.12619E-01
 -1      3154 1.58000E-01
 -1      3155 1.36443E-01
 -1      3156 1.61644E-01
 -1      3157 1.18386E-01
 -1      3158 1.00889E-01
 -1      3159 1.21332E-01
 -1      3160 8.69835E-02
 -1      3161 7.31258E-02
 -1      3162 8.93696E-02
 -1      3163 6.22009E-02
 -1      3164 5.14754E-02
 -1      3165 6.45392E-02
 -1      3166 4.33131E-02
 -1      3167 3.51980E-02
 -1      3168 4.54521E-02
 -1      3169 2.90935E-02
 -1      3170 2.30960E-02
 -1      3171 3.11853E-02
 -1      3172 1.86160E-02
 -1      3173 1.43306E-02
 -1      3174 2.06008E-02
 -1      3175 1.11139E-02
 -1      3176 9.44462E-03
 -1      3177 1.29041E-02
 -1      3178 7.36218E-03
 -1      3179 7.23000E-03
 -1      3180 7.60491E-03
 -1      3181 7.14527E-03
 -1      3182 6.77767E-03
 -1      3183 5.43774E-03
 -1      3184 6.85961E-03
 -1      3185 6.37000E-03
 -1      3186 5.43496E-03
 -1      3187 6.23863E-03
 -1      3188 5.70429E-03
 -1      3189 5.38554E-03
 -1      3190 5.45016E-03
 -1      3191 4.92759E-03
 -1      3192 5.00004E-03
 -1      3193 4.61367E-03
 -1      3194 4.27336E-03
 -1      3195 4.43199E-03
 -1      3196 4.00082E-03
 -1      3197 3.64225E-03
 -1      3198 3.84553E-03
 -1      3199 3.40044E-03
 -1      3200 3.05190E-03
 -1      3201 3.33119E-03
 -1      3202 2.79513E-03
 -1      3203 2.47319E-03
 -1      3204 2.83262E-03
 -1      3205 2.22201E-03
 -1      3206 1.95429E-03
 -1      3207 2.32467E-03
 -1      3208 1.72056E-03
 -1      3209 1.49199E-03
 -1      3210 1.83975E-03
 -1      3211 1.28036E-03
 -1      3212 1.08873E-03
 -1      3213 9.95195E-04
 -1      3214 1.39439E-03
 -1      3215 1.05264E-03
 -1      3216 1.05264E-03
 -1      3217 3.30232E+00
 -1      3218 4.20498E+00
 -1      3219 4.30667E+00
 -1      3220 4.26973E+00
 -1      3221 2.60225E+00
 -1      3222 2.89998E+00
 -1      3223 2.04209E+00
 -1      3224 2.18704E+00
 -1      3225 2.76150E+00
 -1      3226 1.56760E+00
 -1      3227 1.71745E+00
 -1      3228 2.02166E+00
 -1      3229 1.23202E+00
 -1      3230 1.36914E+00
 -1      3231 1.49857E+00
 -1      3232 9.75653E-01
 -1      3233 1.09442E+00
 -1      3234 1.16250E+00
 -1      3235 7.65199E-01
 -1      3236 8.65002E-01
 -1      3237 9.14248E-01
 -1      3238 5.89283E-01
 -1      3239 6.71477E-01
 -1      3240 7.09876E-01
 -1      3241 4.46422E-01
 -1      3242 5.13020E-01
 -1      3243 5.39891E-01
 -1      3244 3.32830E-01
 -1      3245 3.86002E-01
 -1      3246 4.03208E-01
 -1      3247 2.44056E-01
 -1      3248 2.85918E-01
 -1      3249 2.95875E-01
 -1      3250 1.76055E-01
 -1      3251 2.08562E-01
 -1      3252 2.13469E-01
 -1      3253 1.27051E-01
 -1      3254 1.51947E-01
 -1      3255 1.53867E-01
 -1      3256 9.02503E-02
 -1      3257 1.09046E-01
 -1      3258 1.11756E-01
 -1      3259 6.25563E-02
 -1      3260 7.65320E-02
 -1      3261 8.00328E-02
 -1      3262 4.20287E-02
 -1      3263 5.22473E-02
 -1      3264 5.60056E-02
 -1      3265 2.70735E-02
 -1      3266 3.44034E-02
 -1      3267 3.80714E-02
 -1      3268 1.74433E-02
 -1      3269 2.15350E-02
 -1      3270 2.49076E-02
 -1      3271 1.22689E-02
 -1      3272 1.35056E-02
 -1      3273 1.54314E-02
 -1      3274 9.49990E-03
 -1      3275 1.01645E-02
 -1      3276 9.38921E-03
 -1      3277 8.74103E-03
 -1      3278 9.52072E-03
 -1      3279 7.30558E-03
 -1      3280 7.78059E-03
 -1      3281 8.58044E-03
 -1      3282 7.16580E-03
 -1      3283 6.69089E-03
 -1      3284 7.45316E-03
 -1      3285 6.67778E-03
 -1      3286 5.71020E-03
 -1      3287 6.28301E-03
 -1      3288 5.94247E-03
 -1      3289 4.82685E-03
 -1      3290 5.27852E-03
 -1      3291 5.10290E-03
 -1      3292 4.09681E-03
 -1      3293 4.51588E-03
 -1      3294 4.36024E-03
 -1      3295 3.39424E-03
 -1      3296 3.79048E-03
 -1      3297 3.74294E-03
 -1      3298 2.75695E-03
 -1      3299 3.08722E-03
 -1      3300 3.12959E-03
 -1      3301 2.16710E-03
 -1      3302 2.46752E-03
 -1      3303 2.53316E-03
 -1      3304 1.64273E-03
 -1      3305 1.90491E-03
 -1      3306 1.98155E-03
 -1      3307 1.20343E-03
 -1      3308 1.41334E-03
 -1      3309 1.48997E-03
 -1      3310 9.35841E-04
 -1      3311 1.04369E-03
 -1      3312 1.10084E-03
 -1      3313 8.22498E-04
 -1      3314 3.36710E+00
 -1      3315 4.86716E+00
 -1      3316 4.64305E+00
 -1      3317 5.64197E+00
 -1      3318 5.68305E+00
 -1      3319 1.01949E-03
 -1      3320 1.02005E-03
 -1      3321 1.12427E-03
 -1      3322 8.67222E-04
 -1      3323 9.36868E-04
 -1      3324 2.92215E+00
 -1      3325 3.52055E+00
 -1      3326 1.52625E+00
 -1      3327 1.31460E+00
 -1      3328 1.12482E+00
 -1      3329 1.78069E+00
 -1      3330 3.28713E+00
 -1      3331 3.66009E+00
 -1      3332 3.56387E+00
 -1      3333 4.58826E+00
 -1      3334 5.11288E+00
 -1      3335 4.01649E+00
 -1      3336 4.41576E+00
 -1      3337 4.55471E+00
 -1      3338 4.30742E+00
 -1      3339 4.21420E+00
 -1      3340 5.45126E+00
 -1      3341 4.89092E+00
 -1      3342 3.59177E+00
 -1      3343 3.12247E+00
 -1      3344 1.04290E-03
 -1      3345 1.05264E-03
 -1      3346 1.15742E-03
 -1      3347 1.05139E-03
 -1      3348 1.81545E+00
 -1      3349 1.73300E+00
 -1      3350 1.94013E+00
 -1      3351 1.23984E+01
 -1      3352 1.40052E+01
 -1      3353 7.47757E+00
 -1      3354 5.79580E+00
 -1      3355 1.21753E+01
 -1      3356 1.52394E+01
 -1      3357 1.08832E+01
 -1      3358 9.46806E+00
 -1      3359 5.80252E+00
 -1      3360 5.80252E+00
 -1      3361 7.65896E+00
 -1      3362 2.69715E+00
 -1      3363 3.07552E+00
 -1      3364 4.89239E+00
 -1      3365 5.37357E+00
 -1      3366 4.18127E+00
 -1      3367 4.36777E+00
 -1      3368 1.00756E+01
 -1      3369 1.08573E+01
 -1      3370 8.82987E+00
 -1      3371 7.12243E+00
 -1      3372 8.91023E+00
 -1      3373 8.08791E+00
 -1      3374 7.38037E+00
 -1      3375 4.64305E+00
 -1      3376 4.79341E+00
 -1      3377 5.78824E+00
 -1      3378 1.00756E+01
 -1      3379 7.88642E+00
 -1      3380 8.34523E+00
 -1      3381 7.00297E+00
 -1      3382 3.97773E+00
 -1      3383 2.95208E+00
 -1      3384 3.51295E+00
 -1      3385 3.97257E+00
 -1      3386 8.33294E+00
 -1      3387 9.08922E+00
 -1      3388 1.02441E-03
 -1      3389 9.55594E-04
 -1      3390 3.82157E+00
 -1      3391 3.28402E+00
 -1      3392 7.91231E+00
 -1      3393 6.72360E+00
 -1      3394 4.76336E+00
 -1      3395 1.04303E-03
 -1      3396 1.03751E-03
 -1      3397 1.12395E-03
 -1      3398 7.14765E+00
 -1      3399 8.36127E+00
 -1      3400 7.34166E+00
 -1      3401 5.71157E+00
 -1      3402 5.16491E+00
 -1      3403 8.36145E+00
 -1      3404 1.04303E-03
 -1      3405 1.04303E-03
 -1      3406 1.13706E-03
 -1      3407 1.11409E-03
 -1      3408 1.11067E+01
 -1      3409 1.18609E+01
 -1      3410 9.64731E+00
 -1      3411 1.05416E+01
 -1      3412 1.54147E+00
 -1      3413 1.22832E+00
 -1      3414 1.16132E+00
 -1      3415 9.50002E+00
 -1      3416 1.52815E+00
 -1      3417 1.06377E+01
 -1      3418 9.23981E+00
 -1      3419 4.69697E+00
 -1      3420 6.21220E+00
 -1      3421 1.93227E+00
 -1      3422 3.46993E+00
 -1      3423 9.26319E-04
 -1      3424 9.17049E-04
 -1      3425 9.95188E-04
 -1      3426 1.11389E-03
 -1      3427 9.83238E+00
 -1      3428 4.36824E+00
 -1      3429 5.80952E+00
 -1      3430 5.51900E+00
 -1      3431 8.78378E+00
 -1      3432 5.63982E+00
 -1      3433 3.32604E+00
 -1      3434 2.99322E+00
 -1      3435 2.37842E+00
 -1      3436 2.20230E+00
 -1      3437 2.89599E+00
 -1      3438 5.99076E+00
 -1      3439 3.54746E+00
 -1      3440 7.27965E+00
 -1      3441 6.98160E+00
 -1      3442 7.00749E+00
 -1      3443 2.27686E+00
 -1      3444 2.69716E+00
 -1      3445 5.90283E+00
 -1      3446 6.32535E+00
 -1      3447 2.91447E+00
 -1      3448 2.63504E+00
 -1      3449 2.05697E+00
 -1      3450 2.26857E+00
 -1      3451 2.23021E+00
 -1      3452 2.18502E+00
 -1      3453 2.39967E+00
 -1      3454 2.19418E+00
 -1      3455 2.59076E+00
 -1      3456 2.36364E+00
 -1      3457 2.21442E+00
 -1      3458 2.97487E+00
 -1      3459 1.36674E+00
 -1      3460 1.25929E+00
 -1      3461 2.29665E+00
 -1      3462 1.12250E+00
 -1      3463 1.01893E+00
 -1      3464 1.31219E+00
 -1      3465 9.04181E-01
 -1      3466 8.23122E-01
 -1      3467 1.06065E+00
 -1      3468 7.14767E-01
 -1      3469 6.59378E-01
 -1      3470 8.37539E-01
 -1      3471 5.75214E-01
 -1      3472 5.23784E-01
 -1      3473 6.45019E-01
 -1      3474 4.68886E-01
 -1      3475 4.22567E-01
 -1      3476 5.05956E-01
 -1      3477 3.79814E-01
 -1      3478 3.38565E-01
 -1      3479 4.08304E-01
 -1      3480 3.05005E-01
 -1      3481 2.69885E-01
 -1      3482 3.31990E-01
 -1      3483 2.39251E-01
 -1      3484 2.10530E-01
 -1      3485 2.67797E-01
 -1      3486 1.83898E-01
 -1      3487 1.61644E-01
 -1      3488 2.10530E-01
 -1      3489 1.39307E-01
 -1      3490 1.21250E-01
 -1      3491 1.61562E-01
 -1      3492 1.03053E-01
 -1      3493 8.91475E-02
 -1      3494 1.21028E-01
 -1      3495 7.46955E-02
 -1      3496 6.37707E-02
 -1      3497 8.83789E-02
 -1      3498 5.25616E-02
 -1      3499 4.43993E-02
 -1      3500 6.27179E-02
 -1      3501 3.63855E-02
 -1      3502 3.02810E-02
 -1      3503 4.34951E-02
 -1      3504 2.42975E-02
 -1      3505 1.98175E-02
 -1      3506 2.94978E-02
 -1      3507 1.54276E-02
 -1      3508 1.22109E-02
 -1      3509 1.91244E-02
 -1      3510 9.07322E-03
 -1      3511 6.99078E-03
 -1      3512 1.15968E-02
 -1      3513 4.91504E-03
 -1      3514 4.83031E-03
 -1      3515 6.38335E-03
 -1      3516 4.26401E-03
 -1      3517 4.34596E-03
 -1      3518 3.74131E-03
 -1      3519 4.66595E-03
 -1      3520 4.53458E-03
 -1      3521 3.49500E-03
 -1      3522 4.60169E-03
 -1      3523 4.34756E-03
 -1      3524 3.88211E-03
 -1      3525 4.25573E-03
 -1      3526 3.94181E-03
 -1      3527 3.85738E-03
 -1      3528 3.75818E-03
 -1      3529 3.48564E-03
 -1      3530 3.58192E-03
 -1      3531 3.25907E-03
 -1      3532 3.01726E-03
 -1      3533 3.17171E-03
 -1      3534 2.84373E-03
 -1      3535 2.58696E-03
 -1      3536 2.77160E-03
 -1      3537 2.38838E-03
 -1      3538 2.13720E-03
 -1      3539 2.39949E-03
 -1      3540 1.93290E-03
 -1      3541 1.69917E-03
 -1      3542 1.99662E-03
 -1      3543 1.49846E+00
 -1      3544 1.69691E+00
 -1      3545 1.96166E+00
 -1      3546 2.28629E+00
 -1      3547 1.96155E+00
 -1      3548 9.46516E-04
 -1      3549 8.98290E-04
 -1      3550 1.01689E-03
 -1      3551 1.10176E-03
 -1      3552 6.24205E+00
 -1      3553 5.30669E+00
 -1      3554 2.71397E+00
 -1      3555 3.12918E+00
 -1      3556 2.65397E+00
 -1      3557 1.16250E+00
 -1      3558 1.30011E+00
 -1      3559 1.49846E+00
 -1      3560 8.97769E-01
 -1      3561 1.00842E+00
 -1      3562 1.14603E+00
 -1      3563 6.85102E-01
 -1      3564 7.78823E-01
 -1      3565 8.72995E-01
 -1      3566 5.16944E-01
 -1      3567 5.93207E-01
 -1      3568 6.62155E-01
 -1      3569 3.85442E-01
 -1      3570 4.45861E-01
 -1      3571 4.99178E-01
 -1      3572 2.83618E-01
 -1      3573 3.30531E-01
 -1      3574 3.73185E-01
 -1      3575 2.05880E-01
 -1      3576 2.41374E-01
 -1      3577 2.76030E-01
 -1      3578 1.49487E-01
 -1      3579 1.73595E-01
 -1      3580 2.01500E-01
 -1      3581 1.07023E-01
 -1      3582 1.25027E-01
 -1      3583 1.44754E-01
 -1      3584 7.49730E-02
 -1      3585 8.86913E-02
 -1      3586 1.01963E-01
 -1      3587 5.18096E-02
 -1      3588 6.21185E-02
 -1      3589 7.07770E-02
 -1      3590 3.46971E-02
 -1      3591 4.23224E-02
 -1      3592 4.84353E-02
 -1      3593 2.22516E-02
 -1      3594 2.77901E-02
 -1      3595 3.20411E-02
 -1      3596 1.34573E-02
 -1      3597 1.73951E-02
 -1      3598 2.02775E-02
 -1      3599 7.96418E-03
 -1      3600 1.00686E-02
 -1      3601 1.20323E-02
 -1      3602 5.89615E-03
 -1      3603 5.87533E-03
 -1      3604 6.55476E-03
 -1      3605 5.68408E-03
 -1      3606 5.84468E-03
 -1      3607 4.41443E-03
 -1      3608 5.55300E-03
 -1      3609 5.88043E-03
 -1      3610 4.55931E-03
 -1      3611 5.10474E-03
 -1      3612 5.51262E-03
 -1      3613 4.71528E-03
 -1      3614 4.49196E-03
 -1      3615 4.92365E-03
 -1      3616 4.49381E-03
 -1      3617 3.92555E-03
 -1      3618 4.23652E-03
 -1      3619 4.05727E-03
 -1      3620 3.35894E-03
 -1      3621 3.66527E-03
 -1      3622 3.54154E-03
 -1      3623 2.84104E-03
 -1      3624 3.14805E-03
 -1      3625 3.07038E-03
 -1      3626 2.32147E-03
 -1      3627 2.61089E-03
 -1      3628 2.62935E-03
 -1      3629 1.82938E-03
 -1      3630 2.09156E-03
 -1      3631 2.16930E-03
 -1      3632 1.88419E+00
 -1      3633 8.92587E+00
 -1      3634 7.89752E+00
 -1      3635 1.25016E-03
 -1      3636 1.21700E-03
 -1      3637 3.30994E+00
 -1      3638 7.80130E+00
 -1      3639 8.13055E+00
 -1      3640 3.52055E+00
 -1      3641 6.72959E+00
 -1      3642 6.17177E+00
 -1      3643 5.62178E+00
 -1      3644 6.94873E+00
 -1      3645 8.72024E+00
 -1      3646 5.26539E+00
 -1      3647 8.65314E+00
 -1      3648 8.65314E+00
 -1      3649 3.98898E+00
 -1      3650 3.08410E+00
 -1      3651 2.93820E+00
 -1      3652 9.64731E+00
 -1      3653 9.50002E+00
 -1      3654 5.98812E+00
 -1      3655 5.37778E+00
 -1      3656 3.12743E+00
 -1      3657 6.74521E+00
 -1      3658 8.28285E+00
 -1      3659 4.04490E+00
 -1      3660 4.22966E+00
 -1      3661 2.52511E+00
 -1      3662 2.71429E+00
 -1      3663 4.37355E+00
 -1      3664 2.08928E+00
 -1      3665 2.37659E+00
 -1      3666 6.85858E+00
 -1      3667 7.31234E+00
 -1      3668 6.85353E+00
 -1      3669 6.40582E+00
 -1      3670 7.99715E+00
 -1      3671 8.65314E+00
 -1      3672 7.23622E+00
 -1      3673 6.62212E+00
 -1      3674 5.71730E+00
 -1      3675 6.62212E+00
 -1      3676 5.36838E+00
 -1      3677 3.49945E+00
 -1      3678 8.50874E+00
 -1      3679 1.49329E-03
 -1      3680 1.28167E-03
 -1      3681 1.21279E-03
 -1      3682 1.58645E-03
 -1      3683 1.96308E+00
 -1      3684 1.35322E-03
 -1      3685 1.44595E-03
 -1      3686 1.35322E-03
 -1      3687 1.39142E-03
 -1      3688 1.62081E-03
 -1      3689 1.17664E-03
 -1      3690 6.78538E+00
 -1      3691 1.51735E-03
 -1      3692 1.39146E-03
 -1      3693 1.41444E-03
 -1      3694 5.79888E+00
 -1      3695 8.28285E+00
 -1      3696 4.46609E+00
 -1      3697 5.78045E+00
 -1      3698 5.98607E+00
 -1      3699 4.07893E+00
 -1      3700 1.30747E-03
 -1      3701 4.03140E+00
 -1      3702 5.90283E+00
 -1      3703 4.94852E+00
 -1      3704 4.22966E+00
 -1      3705 1.66613E-03
 -1      3706 1.65302E-03
 -1      3707 5.33735E+00
 -1      3708 4.20363E+00
 -1      3709 1.73082E-03
 -1      3710 3.97956E+00
 -1      3711 3.49945E+00
 -1      3712 4.08250E+00
 -1      3713 3.89512E+00
 -1      3714 3.60938E+00
 -1      3715 3.07149E+00
 -1      3716 1.16297E-03
 -1      3717 3.61486E+00
 -1      3718 1.46479E-03
 -1      3719 1.24718E-03
 -1      3720 1.35322E-03
 -1      3721 1.67067E-03
 -1      3722 1.95183E+00
 -1      3723 2.21658E+00
 -1      3724 2.40740E+00
 -1      3725 4.14902E+00
 -1      3726 2.98041E+00
 -1      3727 2.13274E+00
 -1      3728 1.83485E+00
 -1      3729 1.69806E+00
 -1      3730 2.51861E+00
 -1      3731 1.23416E+00
 -1      3732 1.11941E+00
 -1      3733 1.75683E+00
 -1      3734 9.26328E-01
 -1      3735 8.17973E-01
 -1      3736 1.09985E+00
 -1      3737 7.16004E-01
 -1      3738 6.31840E-01
 -1      3739 8.04794E-01
 -1      3740 5.58108E-01
 -1      3741 5.03209E-01
 -1      3742 6.29093E-01
 -1      3743 4.51057E-01
 -1      3744 4.08304E-01
 -1      3745 5.03209E-01
 -1      3746 3.62633E-01
 -1      3747 3.29073E-01
 -1      3748 4.05386E-01
 -1      3749 2.90328E-01
 -1      3750 2.59694E-01
 -1      3751 3.20971E-01
 -1      3752 2.27541E-01
 -1      3753 2.00909E-01
 -1      3754 2.50073E-01
 -1      3755 1.74702E-01
 -1      3756 1.52365E-01
 -1      3757 1.91713E-01
 -1      3758 1.31350E-01
 -1      3759 1.13153E-01
 -1      3760 1.44491E-01
 -1      3761 9.65676E-02
 -1      3762 8.21157E-02
 -1      3763 1.06890E-01
 -1      3764 6.92364E-02
 -1      3765 5.80274E-02
 -1      3766 7.74252E-02
 -1      3767 4.81941E-02
 -1      3768 4.01803E-02
 -1      3769 5.47126E-02
 -1      3770 3.29714E-02
 -1      3771 2.69879E-02
 -1      3772 3.76704E-02
 -1      3773 2.19285E-02
 -1      3774 1.75386E-02
 -1      3775 2.54021E-02
 -1      3776 1.38342E-02
 -1      3777 1.06966E-02
 -1      3778 1.66383E-02
 -1      3779 8.04589E-03
 -1      3780 5.97015E-03
 -1      3781 1.02834E-02
 -1      3782 4.32498E-03
 -1      3783 3.75869E-03
 -1      3784 5.98752E-03
 -1      3785 2.80245E-03
 -1      3786 3.12244E-03
 -1      3787 3.38612E-03
 -1      3788 3.24016E-03
 -1      3789 3.30728E-03
 -1      3790 2.54761E-03
 -1      3791 3.45487E-03
 -1      3792 3.36303E-03
 -1      3793 2.81292E-03
 -1      3794 3.35247E-03
 -1      3795 3.16884E-03
 -1      3796 2.94995E-03
 -1      3797 3.06206E-03
 -1      3798 2.83549E-03
 -1      3799 2.83261E-03
 -1      3800 2.67596E-03
 -1      3801 2.50242E-03
 -1      3802 2.56630E-03
 -1      3803 2.34712E-03
 -1      3804 2.14855E-03
 -1      3805 2.25148E-03
 -1      3806 1.99284E-03
 -1      3807 1.78855E-03
 -1      3808 1.94047E-03
 -1      3809 1.05605E+00
 -1      3810 1.21014E+00
 -1      3811 1.42156E+00
 -1      3812 1.61990E+00
 -1      3813 1.87494E+00
 -1      3814 1.31655E-03
 -1      3815 2.58700E+00
 -1      3816 3.01468E+00
 -1      3817 2.57729E+00
 -1      3818 7.92367E-01
 -1      3819 9.11313E-01
 -1      3820 9.75426E-01
 -1      3821 5.97175E-01
 -1      3822 6.89069E-01
 -1      3823 7.27387E-01
 -1      3824 4.49622E-01
 -1      3825 5.20705E-01
 -1      3826 5.47619E-01
 -1      3827 3.36734E-01
 -1      3828 3.91645E-01
 -1      3829 4.13171E-01
 -1      3830 2.49965E-01
 -1      3831 2.92209E-01
 -1      3832 3.10669E-01
 -1      3833 1.83333E-01
 -1      3834 2.15619E-01
 -1      3835 2.31798E-01
 -1      3836 1.32428E-01
 -1      3837 1.56887E-01
 -1      3838 1.71006E-01
 -1      3839 9.38590E-02
 -1      3840 1.12191E-01
 -1      3841 1.24324E-01
 -1      3842 6.56651E-02
 -1      3843 7.85196E-02
 -1      3844 8.87471E-02
 -1      3845 4.46919E-02
 -1      3846 5.41791E-02
 -1      3847 6.19217E-02
 -1      3848 2.98045E-02
 -1      3849 3.67115E-02
 -1      3850 4.24554E-02
 -1      3851 1.91010E-02
 -1      3852 2.39575E-02
 -1      3853 2.86280E-02
 -1      3854 1.14782E-02
 -1      3855 1.48669E-02
 -1      3856 1.85469E-02
 -1      3857 6.39663E-03
 -1      3858 8.48548E-03
 -1      3859 1.13201E-02
 -1      3860 4.34574E-03
 -1      3861 4.39721E-03
 -1      3862 6.32793E-03
 -1      3863 3.64354E-03
 -1      3864 3.44718E-03
 -1      3865 3.42996E-03
 -1      3866 3.95848E-03
 -1      3867 3.99887E-03
 -1      3868 2.88674E-03
 -1      3869 3.88219E-03
 -1      3870 4.06328E-03
 -1      3871 3.34686E-03
 -1      3872 3.57324E-03
 -1      3873 3.82869E-03
 -1      3874 3.39816E-03
 -1      3875 3.16646E-03
 -1      3876 3.42674E-03
 -1      3877 3.19816E-03
 -1      3878 2.76102E-03
 -1      3879 2.97190E-03
 -1      3880 2.85710E-03
 -1      3881 2.36091E-03
 -1      3882 2.59106E-03
 -1      3883 2.49258E-03
 -1      3884 2.04512E-03
 -1      3885 2.27502E-03
 -1      3886 2.23673E-03
 -1      3887 3.55476E+00
 -1      3888 4.50450E+00
 -1      3889 5.50943E+00
 -1      3890 3.48778E+00
 -1      3891 1.66613E-03
 -1      3892 1.66613E-03
 -1      3893 2.19520E-03
 -1      3894 1.94351E-03
 -1      3895 4.95677E+00
 -1      3896 4.77313E+00
 -1      3897 1.85873E-03
 -1      3898 2.06730E-03
 -1      3899 9.64731E+00
 -1      3900 5.23467E+00
 -1      3901 4.95677E+00
 -1      3902 2.17302E-03
 -1      3903 4.48575E+00
 -1      3904 4.84523E+00
 -1      3905 4.00312E+00
 -1      3906 3.74106E+00
 -1      3907 1.66689E-03
 -1      3908 1.54901E-03
 -1      3909 4.92425E+00
 -1      3910 1.33159E+00
 -1      3911 4.56469E+00
 -1      3912 4.27895E+00
 -1      3913 1.45015E-03
 -1      3914 1.62461E-03
 -1      3915 4.39256E+00
 -1      3916 2.19520E-03
 -1      3917 2.19520E-03
 -1      3918 2.17302E-03
 -1      3919 5.48425E+00
 -1      3920 6.51714E+00
 -1      3921 5.25284E+00
 -1      3922 3.76844E+00
 -1      3923 1.39105E-03
 -1      3924 1.49830E-03
 -1      3925 1.49410E-03
 -1      3926 4.27895E+00
 -1      3927 8.07368E-01
 -1      3928 9.52109E-01
 -1      3929 1.96541E+00
 -1      3930 1.50152E+00
 -1      3931 1.23620E+00
 -1      3932 1.04311E+00
 -1      3933 1.44479E+00
 -1      3934 9.06762E-01
 -1      3935 8.04794E-01
 -1      3936 1.04311E+00
 -1      3937 7.02825E-01
 -1      3938 6.29093E-01
 -1      3939 8.04794E-01
 -1      3940 5.47716E-01
 -1      3941 4.95564E-01
 -1      3942 6.21448E-01
 -1      3943 4.32517E-01
 -1      3944 3.86846E-01
 -1      3945 4.77024E-01
 -1      3946 3.37794E-01
 -1      3947 2.99049E-01
 -1      3948 3.64925E-01
 -1      3949 2.60852E-01
 -1      3950 2.28699E-01
 -1      3951 2.77675E-01
 -1      3952 1.98965E-01
 -1      3953 1.72758E-01
 -1      3954 2.09744E-01
 -1      3955 1.49670E-01
 -1      3956 1.28655E-01
 -1      3957 1.56922E-01
 -1      3958 1.10817E-01
 -1      3959 9.42313E-02
 -1      3960 1.15996E-01
 -1      3961 8.05523E-02
 -1      3962 6.76730E-02
 -1      3963 8.44791E-02
 -1      3964 5.72861E-02
 -1      3965 4.74528E-02
 -1      3966 6.04132E-02
 -1      3967 3.96609E-02
 -1      3968 3.24519E-02
 -1      3969 4.22343E-02
 -1      3970 2.69050E-02
 -1      3971 2.18455E-02
 -1      3972 2.88954E-02
 -1      3973 1.83622E-02
 -1      3974 1.46579E-02
 -1      3975 1.98651E-02
 -1      3976 1.20169E-02
 -1      3977 9.36618E-03
 -1      3978 1.37407E-02
 -1      3979 7.40702E-03
 -1      3980 5.76186E-03
 -1      3981 9.14052E-03
 -1      3982 4.34236E-03
 -1      3983 3.38612E-03
 -1      3984 5.76186E-03
 -1      3985 2.38468E-03
 -1      3986 2.50241E-03
 -1      3987 3.34092E-03
 -1      3988 2.30129E-03
 -1      3989 2.44888E-03
 -1      3990 2.13836E-03
 -1      3991 2.60057E-03
 -1      3992 2.59000E-03
 -1      3993 2.08893E-03
 -1      3994 2.60637E-03
 -1      3995 2.49959E-03
 -1      3996 2.25698E-03
 -1      3997 2.43172E-03
 -1      3998 2.27219E-03
 -1      3999 2.20548E-03
 -1      4000 2.31812E-03
 -1      4001 2.16282E-03
 -1      4002 2.18354E-03
 -1      4003 1.87140E-03
 -1      4004 1.71570E-03
 -1      4005 1.93804E-03
 -1      4006 6.06440E-01
 -1      4007 7.09738E-01
 -1      4008 6.86421E-01
 -1      4009 1.55253E+00
 -1      4010 1.88446E+00
 -1      4011 2.18241E+00
 -1      4012 2.55283E+00
 -1      4013 1.86000E+00
 -1      4014 4.60243E-01
 -1      4015 5.36713E-01
 -1      4016 5.19064E-01
 -1      4017 3.49960E-01
 -1      4018 4.07937E-01
 -1      4019 3.97031E-01
 -1      4020 2.64997E-01
 -1      4021 3.09523E-01
 -1      4022 3.04288E-01
 -1      4023 1.98936E-01
 -1      4024 2.33281E-01
 -1      4025 2.32135E-01
 -1      4026 1.47531E-01
 -1      4027 1.73977E-01
 -1      4028 1.75460E-01
 -1      4029 1.07729E-01
 -1      4030 1.27966E-01
 -1      4031 1.30937E-01
 -1      4032 7.71838E-02
 -1      4033 9.25232E-02
 -1      4034 9.61658E-02
 -1      4035 5.40174E-02
 -1      4036 6.55034E-02
 -1      4037 6.92795E-02
 -1      4038 3.71906E-02
 -1      4039 4.51710E-02
 -1      4040 4.87527E-02
 -1      4041 2.49675E-02
 -1      4042 3.08145E-02
 -1      4043 3.35301E-02
 -1      4044 1.62525E-02
 -1      4045 2.04866E-02
 -1      4046 2.26731E-02
 -1      4047 9.97966E-03
 -1      4048 1.29724E-02
 -1      4049 1.49121E-02
 -1      4050 5.81911E-03
 -1      4051 7.81852E-03
 -1      4052 9.47083E-03
 -1      4053 3.45868E-03
 -1      4054 4.35724E-03
 -1      4055 5.84783E-03
 -1      4056 2.79211E-03
 -1      4057 2.43678E-03
 -1      4058 3.36406E-03
 -1      4059 2.85762E-03
 -1      4060 2.75283E-03
 -1      4061 2.30287E-03
 -1      4062 2.95541E-03
 -1      4063 3.00890E-03
 -1      4064 2.41487E-03
 -1      4065 2.81326E-03
 -1      4066 2.95977E-03
 -1      4067 2.57051E-03
 -1      4068 2.53287E-03
 -1      4069 2.72743E-03
 -1      4070 2.48903E-03
 -1      4071 2.23046E-03
 -1      4072 2.40041E-03
 -1      4073 2.27075E-03
 -1      4074 2.15085E-03
 -1      4075 2.23673E-03
 -1      4076 2.14457E-03
 -1      4077 2.17302E-03
 -1      4078 2.87293E+00
 -1      4079 3.41301E+00
 -1      4080 4.30940E+00
 -1      4081 2.47806E+00
 -1      4082 3.70102E+00
 -1      4083 3.70102E+00
 -1      4084 1.09924E+00
 -1      4085 1.31066E+00
 -1      4086 9.31185E-01
 -1      4087 1.69181E-03
 -1      4088 1.94351E-03
 -1      4089 1.94351E-03
 -1      4090 1.62461E-03
 -1      4091 1.66689E-03
 -1      4092 1.83433E-03
 -1      4093 1.89343E-03
 -1      4094 2.91299E+00
 -1      4095 2.61510E+00
 -1      4096 3.60453E+00
 -1      4097 1.32019E+00
 -1      4098 2.35979E+00
 -1      4099 1.84894E-03
 -1      4100 1.91615E-03
 -1      4101 2.18497E-03
 -1      4102 1.61198E-03
 -1      4103 3.97301E+00
 -1      4104 4.44469E+00
 -1      4105 3.57262E+00
 -1      4106 4.33971E+00
 -1      4107 6.11625E-01
 -1      4108 7.09255E-01
 -1      4109 3.11555E+00
 -1      4110 2.46587E+00
 -1      4111 1.54291E-03
 -1      4112 1.28249E+00
 -1      4113 1.14614E+00
 -1      4114 9.13746E-01
 -1      4115 8.11778E-01
 -1      4116 1.15312E+00
 -1      4117 6.58392E-01
 -1      4118 5.77015E-01
 -1      4119 7.67344E-01
 -1      4120 4.93692E-01
 -1      4121 4.30644E-01
 -1      4122 5.30635E-01
 -1      4123 3.70861E-01
 -1      4124 3.21809E-01
 -1      4125 3.87529E-01
 -1      4126 2.78866E-01
 -1      4127 2.40669E-01
 -1      4128 2.84803E-01
 -1      4129 2.14556E-01
 -1      4130 1.84822E-01
 -1      4131 2.15747E-01
 -1      4132 1.63316E-01
 -1      4133 1.40228E-01
 -1      4134 1.68128E-01
 -1      4135 1.22738E-01
 -1      4136 1.04900E-01
 -1      4137 1.29131E-01
 -1      4138 9.08706E-02
 -1      4139 7.71915E-02
 -1      4140 9.76119E-02
 -1      4141 6.61027E-02
 -1      4142 5.57158E-02
 -1      4143 7.24941E-02
 -1      4144 4.70853E-02
 -1      4145 3.92934E-02
 -1      4146 5.27748E-02
 -1      4147 3.26852E-02
 -1      4148 2.71382E-02
 -1      4149 3.75362E-02
 -1      4150 2.23458E-02
 -1      4151 1.88624E-02
 -1      4152 2.61355E-02
 -1      4153 1.55281E-02
 -1      4154 1.28871E-02
 -1      4155 1.80088E-02
 -1      4156 1.04004E-02
 -1      4157 8.44126E-03
 -1      4158 1.21878E-02
 -1      4159 6.62548E-03
 -1      4160 5.20598E-03
 -1      4161 7.88538E-03
 -1      4162 3.91140E-03
 -1      4163 2.90996E-03
 -1      4164 4.77503E-03
 -1      4165 2.01270E-03
 -1      4166 1.81159E-03
 -1      4167 2.58319E-03
 -1      4168 1.69564E-03
 -1      4169 1.84733E-03
 -1      4170 1.56998E-03
 -1      4171 2.00706E-03
 -1      4172 2.02342E-03
 -1      4173 1.61376E-03
 -1      4174 2.08692E-03
 -1      4175 2.01905E-03
 -1      4176 1.83699E-03
 -1      4177 2.18354E-03
 -1      4178 2.22946E-03
 -1      4179 2.06497E-03
 -1      4180 3.54764E-01
 -1      4181 4.07070E-01
 -1      4182 2.71749E-01
 -1      4183 3.12186E-01
 -1      4184 3.22224E-01
 -1      4185 2.12069E-01
 -1      4186 2.43785E-01
 -1      4187 2.51682E-01
 -1      4188 1.64568E-01
 -1      4189 1.89527E-01
 -1      4190 2.01177E-01
 -1      4191 1.25459E-01
 -1      4192 1.45024E-01
 -1      4193 1.59091E-01
 -1      4194 9.38149E-02
 -1      4195 1.09021E-01
 -1      4196 1.23108E-01
 -1      4197 6.86682E-02
 -1      4198 8.03486E-02
 -1      4199 9.32036E-02
 -1      4200 4.90506E-02
 -1      4201 5.78970E-02
 -1      4202 6.89662E-02
 -1      4203 3.44181E-02
 -1      4204 4.07942E-02
 -1      4205 4.99385E-02
 -1      4206 2.38711E-02
 -1      4207 2.83520E-02
 -1      4208 3.56160E-02
 -1      4209 1.59571E-02
 -1      4210 1.92372E-02
 -1      4211 2.49161E-02
 -1      4212 1.03347E-02
 -1      4213 1.24958E-02
 -1      4214 1.68210E-02
 -1      4215 6.34792E-03
 -1      4216 7.80980E-03
 -1      4217 1.08348E-02
 -1      4218 3.53179E-03
 -1      4219 4.55369E-03
 -1      4220 6.51566E-03
 -1      4221 2.30017E-03
 -1      4222 2.33945E-03
 -1      4223 3.52909E-03
 -1      4224 2.10215E-03
 -1      4225 1.95087E-03
 -1      4226 1.98744E-03
 -1      4227 2.24322E-03
 -1      4228 2.23886E-03
 -1      4229 1.77486E-03
 -1      4230 2.17645E-03
 -1      4231 2.26228E-03
 -1      4232 1.93064E-03
 -1      4233 2.01939E-03
 -1      4234 2.15184E-03
 -1      4235 1.92509E-03
 -1      4236 3.41765E+00
 -1      4237 3.80709E+00
 -1      4238 8.52390E-01
 -1      4239 9.99524E-01
 -1      4240 7.77594E-01
 -1      4241 1.82412E+00
 -1      4242 2.12207E+00
 -1      4243 1.58424E-03
 -1      4244 1.83593E-03
 -1      4245 1.81375E-03
 -1      4246 1.80857E-03
 -1      4247 1.89815E+00
 -1      4248 1.63283E+00
 -1      4249 1.73585E+00
 -1      4250 2.65391E+00
 -1      4251 1.23191E+00
 -1      4252 1.47378E+00
 -1      4253 1.73585E+00
 -1      4254 1.93804E-03
 -1      4255 4.64096E-01
 -1      4256 5.33823E-01
 -1      4257 5.56657E-01
 -1      4258 4.21829E-01
 -1      4259 2.22946E-03
 -1      4260 3.37660E+00
 -1      4261 2.22946E-03
 -1      4262 1.15312E+00
 -1      4263 1.98871E-03
 -1      4264 1.98243E-03
 -1      4265 1.86353E-03
 -1      4266 1.65162E-03
 -1      4267 2.84476E+00
 -1      4268 3.16486E+00
 -1      4269 2.65391E+00
 -1      4270 2.08619E+00
 -1      4271 2.18497E-03
 -1      4272 2.80888E+00
 -1      4273 1.73585E+00
 -1      4274 1.38551E+00
 -1      4275 7.77594E-01
 -1      4276 6.24209E-01
 -1      4277 5.46407E-01
 -1      4278 4.63084E-01
 -1      4279 4.06057E-01
 -1      4280 3.46274E-01
 -1      4281 3.03696E-01
 -1      4282 2.60753E-01
 -1      4283 2.32789E-01
 -1      4284 2.06676E-01
 -1      4285 1.84135E-01
 -1      4286 1.62628E-01
 -1      4287 1.43084E-01
 -1      4288 1.25594E-01
 -1      4289 1.09155E-01
 -1      4290 9.51264E-02
 -1      4291 8.16602E-02
 -1      4292 7.05713E-02
 -1      4293 5.98001E-02
 -1      4294 5.11697E-02
 -1      4295 4.29132E-02
 -1      4296 3.63050E-02
 -1      4297 3.02390E-02
 -1      4298 2.54465E-02
 -1      4299 2.08126E-02
 -1      4300 1.74783E-02
 -1      4301 1.40171E-02
 -1      4302 1.15304E-02
 -1      4303 9.00552E-03
 -1      4304 7.18975E-03
 -1      4305 5.39552E-03
 -1      4306 4.10094E-03
 -1      4307 2.90860E-03
 -1      4308 2.01134E-03
 -1      4309 1.66204E-03
 -1      4310 1.54609E-03
 -1      4311 1.68280E-03
 -1      4312 1.84254E-03
 -1      4313 1.86160E-03
 -1      4314 1.92509E-03
 -1      4315 1.90049E-03
 -1      4316 2.06497E-03
 -1      4317 9.20730E-01
 -1      4318 1.15312E+00
 -1      4319 2.02049E-03
 -1      4320 1.98353E-03
 -3
 9999
